# vtk DataFile Version 2.0
Calculation C:\Users\NickSteudtner\Documents\GitHub\TOCHNOG\standsicherheit_phiC at time 1.000000000000e+00 
ASCII
DATASET UNSTRUCTURED_GRID
Field FieldData 1
Time 1 1 double
1.000000000000e+00

POINTS 1283 float
0.0 0.0 0.0 
5.000000000000e+01 -1.000000000000e+01 0.0 
0.0 -2.000000000000e+01 0.0 
5.000000000000e+01 -2.000000000000e+01 0.0 
0.0 -9.999999999991e-01 0.0 
0.0 -1.999999999998e+00 0.0 
0.0 -2.999999999997e+00 0.0 
0.0 -3.999999999994e+00 0.0 
0.0 -4.999999999991e+00 0.0 
0.0 -5.999999999988e+00 0.0 
0.0 -6.999999999985e+00 0.0 
0.0 -7.999999999982e+00 0.0 
0.0 -8.999999999983e+00 0.0 
0.0 -9.999999999985e+00 0.0 
0.0 -1.099999999999e+01 0.0 
0.0 -1.199999999999e+01 0.0 
0.0 -1.299999999999e+01 0.0 
0.0 -1.399999999999e+01 0.0 
0.0 -1.499999999999e+01 0.0 
0.0 -1.599999999999e+01 0.0 
0.0 -1.700000000000e+01 0.0 
0.0 -1.800000000000e+01 0.0 
0.0 -1.900000000000e+01 0.0 
4.900000000001e+01 -2.000000000000e+01 0.0 
4.800000000001e+01 -2.000000000000e+01 0.0 
4.700000000002e+01 -2.000000000000e+01 0.0 
4.600000000003e+01 -2.000000000000e+01 0.0 
4.500000000004e+01 -2.000000000000e+01 0.0 
4.400000000004e+01 -2.000000000000e+01 0.0 
4.300000000005e+01 -2.000000000000e+01 0.0 
4.200000000006e+01 -2.000000000000e+01 0.0 
4.100000000006e+01 -2.000000000000e+01 0.0 
4.000000000007e+01 -2.000000000000e+01 0.0 
3.900000000008e+01 -2.000000000000e+01 0.0 
3.800000000009e+01 -2.000000000000e+01 0.0 
3.700000000009e+01 -2.000000000000e+01 0.0 
3.600000000010e+01 -2.000000000000e+01 0.0 
3.500000000011e+01 -2.000000000000e+01 0.0 
3.400000000011e+01 -2.000000000000e+01 0.0 
3.300000000012e+01 -2.000000000000e+01 0.0 
3.200000000013e+01 -2.000000000000e+01 0.0 
3.100000000013e+01 -2.000000000000e+01 0.0 
3.000000000013e+01 -2.000000000000e+01 0.0 
2.900000000013e+01 -2.000000000000e+01 0.0 
2.800000000013e+01 -2.000000000000e+01 0.0 
2.700000000013e+01 -2.000000000000e+01 0.0 
2.600000000013e+01 -2.000000000000e+01 0.0 
2.500000000013e+01 -2.000000000000e+01 0.0 
2.400000000013e+01 -2.000000000000e+01 0.0 
2.300000000013e+01 -2.000000000000e+01 0.0 
2.200000000013e+01 -2.000000000000e+01 0.0 
2.100000000013e+01 -2.000000000000e+01 0.0 
2.000000000013e+01 -2.000000000000e+01 0.0 
1.900000000013e+01 -2.000000000000e+01 0.0 
1.800000000013e+01 -2.000000000000e+01 0.0 
1.700000000012e+01 -2.000000000000e+01 0.0 
1.600000000011e+01 -2.000000000000e+01 0.0 
1.500000000011e+01 -2.000000000000e+01 0.0 
1.400000000010e+01 -2.000000000000e+01 0.0 
1.300000000009e+01 -2.000000000000e+01 0.0 
1.200000000009e+01 -2.000000000000e+01 0.0 
1.100000000008e+01 -2.000000000000e+01 0.0 
1.000000000007e+01 -2.000000000000e+01 0.0 
9.000000000064e+00 -2.000000000000e+01 0.0 
8.000000000057e+00 -2.000000000000e+01 0.0 
7.000000000050e+00 -2.000000000000e+01 0.0 
6.000000000043e+00 -2.000000000000e+01 0.0 
5.000000000036e+00 -2.000000000000e+01 0.0 
4.000000000028e+00 -2.000000000000e+01 0.0 
3.000000000021e+00 -2.000000000000e+01 0.0 
2.000000000014e+00 -2.000000000000e+01 0.0 
1.000000000007e+00 -2.000000000000e+01 0.0 
5.000000000000e+01 -1.100000000000e+01 0.0 
5.000000000000e+01 -1.200000000000e+01 0.0 
5.000000000000e+01 -1.300000000000e+01 0.0 
5.000000000000e+01 -1.400000000000e+01 0.0 
5.000000000000e+01 -1.500000000000e+01 0.0 
5.000000000000e+01 -1.600000000000e+01 0.0 
5.000000000000e+01 -1.700000000000e+01 0.0 
5.000000000000e+01 -1.800000000000e+01 0.0 
5.000000000000e+01 -1.900000000000e+01 0.0 
2.000000000000e+01 0.0 0.0 
5.000000000000e+01 0.0 0.0 
3.500000000000e+01 -1.000000000000e+01 0.0 
2.150000000000e+01 -1.000000000000e+00 0.0 
2.300000000000e+01 -2.000000000000e+00 0.0 
2.450000000000e+01 -3.000000000000e+00 0.0 
2.600000000000e+01 -4.000000000000e+00 0.0 
2.750000000000e+01 -5.000000000000e+00 0.0 
2.900000000000e+01 -6.000000000000e+00 0.0 
3.050000000000e+01 -7.000000000000e+00 0.0 
3.200000000000e+01 -8.000000000000e+00 0.0 
3.350000000000e+01 -9.000000000000e+00 0.0 
5.000000000000e+01 -1.000000000000e+00 0.0 
5.000000000000e+01 -2.000000000000e+00 0.0 
5.000000000000e+01 -3.000000000000e+00 0.0 
5.000000000000e+01 -4.000000000000e+00 0.0 
5.000000000000e+01 -5.000000000000e+00 0.0 
5.000000000000e+01 -6.000000000000e+00 0.0 
5.000000000000e+01 -7.000000000000e+00 0.0 
5.000000000000e+01 -8.000000000000e+00 0.0 
5.000000000000e+01 -9.000000000000e+00 0.0 
4.900000000000e+01 -1.000000000000e+01 0.0 
4.800000000000e+01 -1.000000000000e+01 0.0 
4.700000000000e+01 -1.000000000000e+01 0.0 
4.600000000000e+01 -1.000000000000e+01 0.0 
4.500000000000e+01 -1.000000000000e+01 0.0 
4.400000000000e+01 -1.000000000000e+01 0.0 
4.300000000000e+01 -1.000000000000e+01 0.0 
4.200000000000e+01 -1.000000000000e+01 0.0 
4.100000000000e+01 -1.000000000000e+01 0.0 
4.000000000000e+01 -1.000000000000e+01 0.0 
3.900000000000e+01 -1.000000000000e+01 0.0 
3.800000000000e+01 -1.000000000000e+01 0.0 
3.700000000000e+01 -1.000000000000e+01 0.0 
3.600000000000e+01 -1.000000000000e+01 0.0 
1.900000000000e+01 0.0 0.0 
1.800000000000e+01 0.0 0.0 
1.700000000000e+01 0.0 0.0 
1.600000000000e+01 0.0 0.0 
1.500000000000e+01 0.0 0.0 
1.400000000000e+01 0.0 0.0 
1.300000000000e+01 0.0 0.0 
1.200000000000e+01 0.0 0.0 
1.100000000000e+01 0.0 0.0 
1.000000000000e+01 0.0 0.0 
9.000000000000e+00 0.0 0.0 
8.000000000000e+00 0.0 0.0 
7.000000000000e+00 0.0 0.0 
6.000000000000e+00 0.0 0.0 
5.000000000000e+00 0.0 0.0 
4.000000000000e+00 0.0 0.0 
3.000000000000e+00 0.0 0.0 
2.000000000000e+00 0.0 0.0 
1.000000000000e+00 0.0 0.0 
2.100000000000e+01 0.0 0.0 
2.199999999999e+01 0.0 0.0 
2.299999999999e+01 0.0 0.0 
2.399999999999e+01 0.0 0.0 
2.499999999998e+01 0.0 0.0 
2.599999999998e+01 0.0 0.0 
2.699999999998e+01 0.0 0.0 
2.799999999997e+01 0.0 0.0 
2.899999999996e+01 0.0 0.0 
2.999999999995e+01 0.0 0.0 
3.099999999993e+01 0.0 0.0 
3.199999999992e+01 0.0 0.0 
3.299999999990e+01 0.0 0.0 
3.399999999989e+01 0.0 0.0 
3.499999999987e+01 0.0 0.0 
3.599999999988e+01 0.0 0.0 
3.699999999989e+01 0.0 0.0 
3.799999999990e+01 0.0 0.0 
3.899999999990e+01 0.0 0.0 
3.999999999991e+01 0.0 0.0 
4.099999999992e+01 0.0 0.0 
4.199999999993e+01 0.0 0.0 
4.299999999994e+01 0.0 0.0 
4.399999999995e+01 0.0 0.0 
4.499999999996e+01 0.0 0.0 
4.599999999997e+01 0.0 0.0 
4.699999999997e+01 0.0 0.0 
4.799999999998e+01 0.0 0.0 
4.899999999999e+01 0.0 0.0 
4.901724137931e+01 -1.000000000000e+00 0.0 
4.803448275862e+01 -1.000000000000e+00 0.0 
4.705172413793e+01 -1.000000000000e+00 0.0 
4.606896551724e+01 -1.000000000000e+00 0.0 
4.508620689655e+01 -1.000000000000e+00 0.0 
4.410344827586e+01 -1.000000000000e+00 0.0 
4.312068965517e+01 -1.000000000000e+00 0.0 
4.213793103448e+01 -1.000000000000e+00 0.0 
4.115517241379e+01 -1.000000000000e+00 0.0 
4.017241379310e+01 -1.000000000000e+00 0.0 
3.918965517241e+01 -1.000000000000e+00 0.0 
3.820689655172e+01 -1.000000000000e+00 0.0 
3.722413793103e+01 -1.000000000000e+00 0.0 
3.624137931034e+01 -1.000000000000e+00 0.0 
3.525862068966e+01 -1.000000000000e+00 0.0 
3.427586206897e+01 -1.000000000000e+00 0.0 
3.329310344828e+01 -1.000000000000e+00 0.0 
3.231034482759e+01 -1.000000000000e+00 0.0 
3.132758620690e+01 -1.000000000000e+00 0.0 
3.034482758621e+01 -1.000000000000e+00 0.0 
2.936206896552e+01 -1.000000000000e+00 0.0 
2.837931034483e+01 -1.000000000000e+00 0.0 
2.739655172414e+01 -1.000000000000e+00 0.0 
2.641379310345e+01 -1.000000000000e+00 0.0 
2.543103448276e+01 -1.000000000000e+00 0.0 
2.444827586207e+01 -1.000000000000e+00 0.0 
2.346551724138e+01 -1.000000000000e+00 0.0 
2.248275862069e+01 -1.000000000000e+00 0.0 
2.400000000000e+01 -2.000000000000e+00 0.0 
2.500000000000e+01 -2.000000000000e+00 0.0 
2.600000000000e+01 -2.000000000000e+00 0.0 
2.700000000000e+01 -2.000000000000e+00 0.0 
2.800000000000e+01 -2.000000000000e+00 0.0 
2.900000000000e+01 -2.000000000000e+00 0.0 
3.000000000000e+01 -2.000000000000e+00 0.0 
3.100000000000e+01 -2.000000000000e+00 0.0 
3.200000000000e+01 -2.000000000000e+00 0.0 
3.300000000000e+01 -2.000000000000e+00 0.0 
3.400000000000e+01 -2.000000000000e+00 0.0 
3.500000000000e+01 -2.000000000000e+00 0.0 
3.600000000000e+01 -2.000000000000e+00 0.0 
3.700000000000e+01 -2.000000000000e+00 0.0 
3.800000000000e+01 -2.000000000000e+00 0.0 
3.900000000000e+01 -2.000000000000e+00 0.0 
4.000000000000e+01 -2.000000000000e+00 0.0 
4.100000000000e+01 -2.000000000000e+00 0.0 
4.200000000000e+01 -2.000000000000e+00 0.0 
4.300000000000e+01 -2.000000000000e+00 0.0 
4.400000000000e+01 -2.000000000000e+00 0.0 
4.500000000000e+01 -2.000000000000e+00 0.0 
4.600000000000e+01 -2.000000000000e+00 0.0 
4.700000000000e+01 -2.000000000000e+00 0.0 
4.800000000000e+01 -2.000000000000e+00 0.0 
4.900000000000e+01 -2.000000000000e+00 0.0 
2.548076923077e+01 -3.000000000000e+00 0.0 
2.646153846153e+01 -3.000000000000e+00 0.0 
2.744230769230e+01 -3.000000000000e+00 0.0 
2.842307692306e+01 -3.000000000000e+00 0.0 
2.940384615383e+01 -3.000000000000e+00 0.0 
3.038461538459e+01 -3.000000000000e+00 0.0 
3.136538461536e+01 -3.000000000000e+00 0.0 
3.234615384612e+01 -3.000000000000e+00 0.0 
3.332692307687e+01 -3.000000000000e+00 0.0 
3.430769230762e+01 -3.000000000000e+00 0.0 
3.528846153837e+01 -3.000000000000e+00 0.0 
3.626923076912e+01 -3.000000000000e+00 0.0 
3.724999999988e+01 -3.000000000000e+00 0.0 
3.823076923065e+01 -3.000000000000e+00 0.0 
3.921153846143e+01 -3.000000000000e+00 0.0 
4.019230769221e+01 -3.000000000000e+00 0.0 
4.117307692299e+01 -3.000000000000e+00 0.0 
4.215384615377e+01 -3.000000000000e+00 0.0 
4.313461538455e+01 -3.000000000000e+00 0.0 
4.411538461533e+01 -3.000000000000e+00 0.0 
4.509615384611e+01 -3.000000000000e+00 0.0 
4.607692307688e+01 -3.000000000000e+00 0.0 
4.705769230766e+01 -3.000000000000e+00 0.0 
4.803846153844e+01 -3.000000000000e+00 0.0 
4.901923076922e+01 -3.000000000000e+00 0.0 
4.900000000000e+01 -4.000000000000e+00 0.0 
4.800000000000e+01 -4.000000000000e+00 0.0 
4.700000000000e+01 -4.000000000000e+00 0.0 
4.600000000000e+01 -4.000000000000e+00 0.0 
4.500000000000e+01 -4.000000000000e+00 0.0 
4.400000000000e+01 -4.000000000000e+00 0.0 
4.300000000000e+01 -4.000000000000e+00 0.0 
4.200000000000e+01 -4.000000000000e+00 0.0 
4.100000000000e+01 -4.000000000000e+00 0.0 
4.000000000000e+01 -4.000000000000e+00 0.0 
3.900000000000e+01 -4.000000000000e+00 0.0 
3.800000000000e+01 -4.000000000000e+00 0.0 
3.700000000000e+01 -4.000000000000e+00 0.0 
3.600000000000e+01 -4.000000000000e+00 0.0 
3.500000000000e+01 -4.000000000000e+00 0.0 
3.400000000000e+01 -4.000000000000e+00 0.0 
3.300000000000e+01 -4.000000000000e+00 0.0 
3.200000000000e+01 -4.000000000000e+00 0.0 
3.100000000000e+01 -4.000000000000e+00 0.0 
3.000000000000e+01 -4.000000000000e+00 0.0 
2.900000000000e+01 -4.000000000000e+00 0.0 
2.800000000000e+01 -4.000000000000e+00 0.0 
2.700000000000e+01 -4.000000000000e+00 0.0 
2.847826086957e+01 -5.000000000000e+00 0.0 
2.945652173913e+01 -5.000000000000e+00 0.0 
3.043478260870e+01 -5.000000000000e+00 0.0 
3.141304347826e+01 -5.000000000000e+00 0.0 
3.239130434783e+01 -5.000000000000e+00 0.0 
3.336956521739e+01 -5.000000000000e+00 0.0 
3.434782608696e+01 -5.000000000000e+00 0.0 
3.532608695652e+01 -5.000000000000e+00 0.0 
3.630434782609e+01 -5.000000000000e+00 0.0 
3.728260869565e+01 -5.000000000000e+00 0.0 
3.826086956522e+01 -5.000000000000e+00 0.0 
3.923913043478e+01 -5.000000000000e+00 0.0 
4.021739130435e+01 -5.000000000000e+00 0.0 
4.119565217391e+01 -5.000000000000e+00 0.0 
4.217391304348e+01 -5.000000000000e+00 0.0 
4.315217391304e+01 -5.000000000000e+00 0.0 
4.413043478261e+01 -5.000000000000e+00 0.0 
4.510869565217e+01 -5.000000000000e+00 0.0 
4.608695652174e+01 -5.000000000000e+00 0.0 
4.706521739130e+01 -5.000000000000e+00 0.0 
4.804347826087e+01 -5.000000000000e+00 0.0 
4.902173913043e+01 -5.000000000000e+00 0.0 
4.900000000001e+01 -6.000000000000e+00 0.0 
4.800000000003e+01 -6.000000000000e+00 0.0 
4.700000000004e+01 -6.000000000000e+00 0.0 
4.600000000006e+01 -6.000000000000e+00 0.0 
4.500000000007e+01 -6.000000000000e+00 0.0 
4.400000000009e+01 -6.000000000000e+00 0.0 
4.300000000010e+01 -6.000000000000e+00 0.0 
4.200000000012e+01 -6.000000000000e+00 0.0 
4.100000000013e+01 -6.000000000000e+00 0.0 
4.000000000014e+01 -6.000000000000e+00 0.0 
3.900000000014e+01 -6.000000000000e+00 0.0 
3.800000000012e+01 -6.000000000000e+00 0.0 
3.700000000010e+01 -6.000000000000e+00 0.0 
3.600000000008e+01 -6.000000000000e+00 0.0 
3.500000000006e+01 -6.000000000000e+00 0.0 
3.400000000005e+01 -6.000000000000e+00 0.0 
3.300000000003e+01 -6.000000000000e+00 0.0 
3.200000000001e+01 -6.000000000000e+00 0.0 
3.100000000000e+01 -6.000000000000e+00 0.0 
3.000000000000e+01 -6.000000000000e+00 0.0 
3.147499999998e+01 -7.000000000000e+00 0.0 
3.244999999998e+01 -7.000000000000e+00 0.0 
3.342499999998e+01 -7.000000000000e+00 0.0 
3.439999999998e+01 -7.000000000000e+00 0.0 
3.537499999998e+01 -7.000000000000e+00 0.0 
3.634999999998e+01 -7.000000000000e+00 0.0 
3.732499999998e+01 -7.000000000000e+00 0.0 
3.829999999998e+01 -7.000000000000e+00 0.0 
3.927499999999e+01 -7.000000000000e+00 0.0 
4.024999999999e+01 -7.000000000000e+00 0.0 
4.122499999999e+01 -7.000000000000e+00 0.0 
4.219999999999e+01 -7.000000000000e+00 0.0 
4.317499999999e+01 -7.000000000000e+00 0.0 
4.414999999999e+01 -7.000000000000e+00 0.0 
4.512499999999e+01 -7.000000000000e+00 0.0 
4.609999999999e+01 -7.000000000000e+00 0.0 
4.707500000000e+01 -7.000000000000e+00 0.0 
4.805000000000e+01 -7.000000000000e+00 0.0 
4.902500000000e+01 -7.000000000000e+00 0.0 
4.900000000000e+01 -8.000000000000e+00 0.0 
4.800000000000e+01 -8.000000000000e+00 0.0 
4.700000000000e+01 -8.000000000000e+00 0.0 
4.600000000000e+01 -8.000000000000e+00 0.0 
4.500000000000e+01 -8.000000000000e+00 0.0 
4.400000000000e+01 -8.000000000000e+00 0.0 
4.300000000000e+01 -8.000000000000e+00 0.0 
4.200000000000e+01 -8.000000000000e+00 0.0 
4.100000000000e+01 -8.000000000000e+00 0.0 
4.000000000000e+01 -8.000000000000e+00 0.0 
3.900000000000e+01 -8.000000000000e+00 0.0 
3.800000000000e+01 -8.000000000000e+00 0.0 
3.700000000000e+01 -8.000000000000e+00 0.0 
3.600000000000e+01 -8.000000000000e+00 0.0 
3.500000000000e+01 -8.000000000000e+00 0.0 
3.400000000000e+01 -8.000000000000e+00 0.0 
3.300000000000e+01 -8.000000000000e+00 0.0 
3.447058823527e+01 -9.000000000000e+00 0.0 
3.544117647055e+01 -9.000000000000e+00 0.0 
3.641176470582e+01 -9.000000000000e+00 0.0 
3.738235294109e+01 -9.000000000000e+00 0.0 
3.835294117637e+01 -9.000000000000e+00 0.0 
3.932352941164e+01 -9.000000000000e+00 0.0 
4.029411764691e+01 -9.000000000000e+00 0.0 
4.126470588219e+01 -9.000000000000e+00 0.0 
4.223529411748e+01 -9.000000000000e+00 0.0 
4.320588235279e+01 -9.000000000000e+00 0.0 
4.417647058811e+01 -9.000000000000e+00 0.0 
4.514705882342e+01 -9.000000000000e+00 0.0 
4.611764705874e+01 -9.000000000000e+00 0.0 
4.708823529405e+01 -9.000000000000e+00 0.0 
4.805882352937e+01 -9.000000000000e+00 0.0 
4.902941176468e+01 -9.000000000000e+00 0.0 
2.075000000000e+01 -5.000000000006e-01 0.0 
2.225000000000e+01 -1.500000000000e+00 0.0 
2.375000000000e+01 -2.500000000000e+00 0.0 
2.525000000000e+01 -3.500000000000e+00 0.0 
2.675000000000e+01 -4.500000000000e+00 0.0 
2.825000000000e+01 -5.500000000000e+00 0.0 
2.975000000000e+01 -6.500000000000e+00 0.0 
3.125000000000e+01 -7.500000000000e+00 0.0 
3.275000000000e+01 -8.500000000000e+00 0.0 
3.425000000000e+01 -9.500000000000e+00 0.0 
2.226951693683e+01 -2.403913980114e+00 0.0 
1.650149491944e+01 -1.913490915758e+01 0.0 
1.050042386896e+01 -8.504605092970e-01 0.0 
1.553146524712e+01 -8.281255032105e-01 0.0 
1.150000000008e+01 -1.913397459621e+01 0.0 
2.530060260647e+01 -4.428336431260e+00 0.0 
8.651114563942e-01 -1.052096295641e+01 0.0 
2.050000000013e+01 -1.913397459622e+01 0.0 
2.819198729811e+01 -6.399519052838e+00 0.0 
2.445670302931e+01 -1.915649188023e+01 0.0 
3.117591465718e+01 -8.394293040695e+00 0.0 
7.465053044742e+00 -1.920411160581e+01 0.0 
6.398295709691e+00 -8.230098819370e-01 0.0 
2.849659607461e+01 -1.914296187762e+01 0.0 
3.418732642882e+01 -1.040265792588e+01 0.0 
8.386450935063e-01 -6.533605142809e+00 0.0 
9.178661865596e-01 -1.329769195597e+01 0.0 
3.149448624493e+01 -1.910466733764e+01 0.0 
3.552916747426e+01 -1.914628590759e+01 0.0 
4.449210346537e+01 -1.914359085008e+01 0.0 
4.140975975145e+01 -1.906941860733e+01 0.0 
3.847475958753e+01 -1.916622382724e+01 0.0 
3.653774794640e+01 -1.088712800241e+01 0.0 
4.047886341787e+01 -1.090139014048e+01 0.0 
4.348006339825e+01 -1.092792621489e+01 0.0 
4.919519968029e+01 -1.451526755068e+01 0.0 
4.500000000032e+00 -1.913397459621e+01 0.0 
1.856136921614e+01 -8.212235170404e-01 0.0 
3.499895312306e+00 -8.661165539723e-01 0.0 
9.076088696565e-01 -1.642306201891e+01 0.0 
4.655174095477e+01 -1.086183387525e+01 0.0 
9.430688970604e-01 -3.496112672958e+00 0.0 
3.353992337063e+01 -1.901202090820e+01 0.0 
2.249746016977e+01 -1.921262287282e+01 0.0 
2.650122741777e+01 -1.916123026018e+01 0.0 
1.863571384842e+01 -1.908325534840e+01 0.0 
1.450089971693e+01 -1.917691901860e+01 0.0 
1.350044695317e+01 -8.659695299584e-01 0.0 
3.849987469880e+01 -1.084154983397e+01 0.0 
9.454419857884e+00 -1.900818879936e+01 0.0 
4.917398660523e+01 -1.645692866081e+01 0.0 
8.500000000000e+00 -8.660254037844e-01 0.0 
8.660319230785e-01 -8.500111697188e+00 0.0 
4.649022621545e+01 -1.930506220113e+01 0.0 
2.667688107845e+01 -5.420288124331e+00 0.0 
2.379251615665e+01 -3.412225477429e+00 0.0 
2.966631491830e+01 -7.389030232731e+00 0.0 
3.267915035995e+01 -9.396934932445e+00 0.0 
2.074836922338e+01 -1.320054020319e+00 0.0 
4.915985743621e+01 -1.261973384855e+01 0.0 
2.527129768623e+00 -1.931592414663e+01 0.0 
1.538676247410e+00 -8.436956619311e-01 0.0 
4.908096641539e+01 -1.842484004551e+01 0.0 
3.478612492673e+01 -1.090889364140e+01 0.0 
3.409757055860e+01 -1.131991530427e+01 0.0 
3.501895309466e+01 -1.177687842717e+01 0.0 
3.407758073088e+01 -1.224293381580e+01 0.0 
3.484541875390e+01 -1.277051428430e+01 0.0 
3.400322025842e+01 -1.319022775640e+01 0.0 
3.321672625034e+01 -1.266779191233e+01 0.0 
3.315244139236e+01 -1.360984106532e+01 0.0 
3.236335186892e+01 -1.308463225210e+01 0.0 
3.478337442841e+01 -1.372341158982e+01 0.0 
3.230105923633e+01 -1.403023731610e+01 0.0 
3.150954055289e+01 -1.350301767700e+01 0.0 
3.144604792090e+01 -1.444931742516e+01 0.0 
3.065653897123e+01 -1.392357262981e+01 0.0 
3.071897610812e+01 -1.297447031198e+01 0.0 
2.986790411740e+01 -1.339226181535e+01 0.0 
2.993181466745e+01 -1.244703272398e+01 0.0 
2.908023061869e+01 -1.286254537734e+01 0.0 
2.901619051372e+01 -1.380881655279e+01 0.0 
2.822986160390e+01 -1.327695262116e+01 0.0 
2.829453476870e+01 -1.233265343811e+01 0.0 
2.744542905518e+01 -1.274510491105e+01 0.0 
2.751120089246e+01 -1.180368086886e+01 0.0 
2.666218649885e+01 -1.221619339205e+01 0.0 
2.672371209234e+01 -1.127125228527e+01 0.0 
2.587763216302e+01 -1.168539979114e+01 0.0 
2.581165585299e+01 -1.262994410089e+01 0.0 
2.502890882577e+01 -1.209827323619e+01 0.0 
2.509631327757e+01 -1.115492410304e+01 0.0 
2.424662989877e+01 -1.156630981079e+01 0.0 
2.431704046904e+01 -1.062389179334e+01 0.0 
2.346445438728e+01 -1.103427680694e+01 0.0 
2.339382552877e+01 -1.197964871788e+01 0.0 
2.260936050780e+01 -1.144513277642e+01 0.0 
2.268075012022e+01 -1.049911928216e+01 0.0 
2.182525737661e+01 -1.090920811464e+01 0.0 
2.189682319817e+01 -9.961716944568e+00 0.0 
2.104174127792e+01 -1.037266986667e+01 0.0 
2.111304367575e+01 -9.424179358711e+00 0.0 
2.025306185381e+01 -9.832727364719e+00 0.0 
2.018141124247e+01 -1.079140628871e+01 0.0 
1.938594498257e+01 -1.025147354112e+01 0.0 
1.946106490453e+01 -9.288010758448e+00 0.0 
1.858929958352e+01 -9.706319802516e+00 0.0 
1.851540991219e+01 -1.067205988724e+01 0.0 
1.771485303178e+01 -1.012504443115e+01 0.0 
1.764134552256e+01 -1.109360378538e+01 0.0 
1.683745148095e+01 -1.054496365337e+01 0.0 
1.691852964353e+01 -9.582555261178e+00 0.0 
1.603603813062e+01 -1.000160132379e+01 0.0 
1.595824239350e+01 -1.096750698862e+01 0.0 
1.515080624291e+01 -1.041639501931e+01 0.0 
1.523171602559e+01 -9.451711491453e+00 0.0 
1.434621060709e+01 -9.871956467464e+00 0.0 
1.426777178765e+01 -1.083749501371e+01 0.0 
1.345775282374e+01 -1.028803175500e+01 0.0 
1.354103873368e+01 -9.324918457162e+00 0.0 
1.265072018622e+01 -9.742612837270e+00 0.0 
1.257285762070e+01 -1.071557782384e+01 0.0 
1.175874815690e+01 -1.015972324288e+01 0.0 
1.184203019714e+01 -9.193604071377e+00 0.0 
1.094927709905e+01 -9.612103238656e+00 0.0 
1.086938022910e+01 -1.058685085646e+01 0.0 
1.005424098961e+01 -1.002939116380e+01 0.0 
9.977974613295e+00 -1.101324897989e+01 0.0 
1.012915646404e+01 -9.051815821181e+00 0.0 
9.237127782494e+00 -9.471239055559e+00 0.0 
9.308426593771e+00 -8.483376461131e+00 0.0 
8.418806073345e+00 -8.910712374517e+00 0.0 
2.253688464062e+01 -1.239459402279e+01 0.0 
8.495126726666e+00 -7.921646665254e+00 0.0 
9.389727383206e+00 -7.512103628377e+00 0.0 
7.601560812974e+00 -8.349460349344e+00 0.0 
7.525680547759e+00 -9.339736686940e+00 0.0 
7.677888324502e+00 -7.359727833346e+00 0.0 
6.782001206724e+00 -7.788454494773e+00 0.0 
6.858778622885e+00 -6.797338062822e+00 0.0 
2.196596590865e+01 -8.979025665442e+00 0.0 
2.816540108272e+01 -1.422634142353e+01 0.0 
5.961601194403e+00 -7.226824010712e+00 0.0 
6.038171749656e+00 -6.234825887079e+00 0.0 
6.936257279557e+00 -5.805287640737e+00 0.0 
6.115068918323e+00 -5.242109758768e+00 0.0 
3.564391741903e+01 -1.329240553876e+01 0.0 
3.558115605778e+01 -1.425902892003e+01 0.0 
3.645445282201e+01 -1.381970786460e+01 0.0 
3.639744204358e+01 -1.479198128612e+01 0.0 
3.727266909778e+01 -1.435399586226e+01 0.0 
5.216667013081e+00 -5.671788584287e+00 0.0 
3.220697293295e+01 -1.499594545107e+01 0.0 
3.551112158269e+01 -1.523479869250e+01 0.0 
2.836056961467e+01 -1.139032434851e+01 0.0 
2.516730388602e+01 -1.021382726837e+01 0.0 
1.844436907403e+01 -1.164097215196e+01 0.0 
5.885434318740e+00 -8.218694781467e+00 0.0 
5.064071066867e+00 -7.656614643901e+00 0.0 
4.988089103470e+00 -8.649722082718e+00 0.0 
1.079421050408e+01 -1.157014985435e+01 0.0 
9.902420005256e+00 -1.199903342656e+01 0.0 
1.071994252214e+01 -1.255727909771e+01 0.0 
9.826974788171e+00 -1.298659581767e+01 0.0 
1.064607883789e+01 -1.354595476388e+01 0.0 
9.751541265343e+00 -1.397556905071e+01 0.0 
8.932296185869e+00 -1.341553353988e+01 0.0 
8.856399248106e+00 -1.440570715508e+01 0.0 
8.036186803543e+00 -1.384470558472e+01 0.0 
1.057112875118e+01 -1.453516759081e+01 0.0 
1.146582585687e+01 -1.410539926903e+01 0.0 
7.959894480382e+00 -1.483563350928e+01 0.0 
7.138792279156e+00 -1.427465094140e+01 0.0 
7.062506792418e+00 -1.526615385482e+01 0.0 
6.240693558277e+00 -1.470508863040e+01 0.0 
6.316957575451e+00 -1.371212581281e+01 0.0 
5.418183007107e+00 -1.414253605022e+01 0.0 
5.494748364428e+00 -1.314886770603e+01 0.0 
1.756825565873e+01 -1.206433872514e+01 0.0 
1.837565773345e+01 -1.261356468266e+01 0.0 
1.749574831391e+01 -1.303769280014e+01 0.0 
1.830539187332e+01 -1.358828364284e+01 0.0 
1.742278925170e+01 -1.401367746928e+01 0.0 
1.823303007798e+01 -1.456432294258e+01 0.0 
1.734941694138e+01 -1.499213734361e+01 0.0 
1.653760041637e+01 -1.443920312098e+01 0.0 
3.056237977307e+01 -1.487132260174e+01 0.0 
1.866469084762e+01 -8.742953000418e+00 0.0 
1.953669694916e+01 -8.326038909849e+00 0.0 
1.874194303780e+01 -7.780688158966e+00 0.0 
1.961032016741e+01 -7.366854697285e+00 0.0 
1.881715755159e+01 -6.821102209649e+00 0.0 
1.968369797150e+01 -6.407747217358e+00 0.0 
1.889237123259e+01 -5.858375520026e+00 0.0 
1.802038875366e+01 -6.276202618170e+00 0.0 
1.809793837984e+01 -5.307629520489e+00 0.0 
1.721985207997e+01 -5.728242054488e+00 0.0 
1.729850893523e+01 -4.756990819347e+00 0.0 
1.641745664240e+01 -5.174636548624e+00 0.0 
2.495978509456e+01 -1.304406404294e+01 0.0 
1.911567814831e+01 -1.413854250293e+01 0.0 
1.904387332608e+01 -1.511463127723e+01 0.0 
1.992115934240e+01 -1.468788025898e+01 0.0 
7.013706899628e+00 -4.812582868662e+00 0.0 
5.342091874585e+00 -1.513658157269e+01 0.0 
1.139098043784e+01 -1.509488509480e+01 0.0 
1.228151810610e+01 -1.465617481983e+01 0.0 
1.646373110164e+01 -1.541993323337e+01 0.0 
5.293328636712e+00 -4.678385108584e+00 0.0 
1.975965862987e+01 -5.448124345648e+00 0.0 
2.054318374236e+01 -5.992561293251e+00 0.0 
3.721453439063e+01 -1.533216152738e+01 0.0 
3.809302733893e+01 -1.489235527381e+01 0.0 
1.220852788900e+01 -1.565304565230e+01 0.0 
4.394120899730e+00 -5.108397613210e+00 0.0 
8.779354620288e+00 -1.539524721159e+01 0.0 
1.817791047702e+01 -4.338570146253e+00 0.0 
4.518860013839e+00 -1.457343189307e+01 0.0 
4.442712140414e+00 -1.556841391069e+01 0.0 
8.115343466391e+00 -1.285760324283e+01 0.0 
1.985334703171e+01 -1.566478400426e+01 0.0 
2.071953850276e+01 -1.522074243119e+01 0.0 
1.634012953883e+01 -6.154777738301e+00 0.0 
1.553479994708e+01 -5.593730508879e+00 0.0 
1.561265946942e+01 -4.617761762647e+00 0.0 
1.470674212978e+01 -5.064576488228e+00 0.0 
1.464498299883e+01 -6.026514471420e+00 0.0 
1.383271561817e+01 -5.467796261169e+00 0.0 
1.389241253067e+01 -4.504338666645e+00 0.0 
1.301868735463e+01 -4.907185188626e+00 0.0 
1.294514184846e+01 -5.888160903592e+00 0.0 
1.212955968622e+01 -5.328262335277e+00 0.0 
1.220721122383e+01 -4.341264976687e+00 0.0 
1.131324345897e+01 -4.766773516508e+00 0.0 
5.266597955397e+00 -1.613148974258e+01 0.0 
1.737805990867e+01 -3.786677807525e+00 0.0 
3.078438094513e+01 -1.203225297748e+01 0.0 
1.131569882285e+01 -1.608511932110e+01 0.0 
1.728478341782e+01 -1.596017432313e+01 0.0 
3.803465906019e+01 -1.587509751228e+01 0.0 
3.891681276677e+01 -1.543395196905e+01 0.0 
3.897340985302e+01 -1.444710288980e+01 0.0 
3.980095968193e+01 -1.499059496613e+01 0.0 
3.974334598189e+01 -1.597921884150e+01 0.0 
4.062964983717e+01 -1.553518690417e+01 0.0 
4.068729602479e+01 -1.454434445295e+01 0.0 
4.151772679790e+01 -1.508974196007e+01 0.0 
4.157505195739e+01 -1.409694289912e+01 0.0 
4.240699932656e+01 -1.464347955968e+01 0.0 
4.234898051011e+01 -1.563721375790e+01 0.0 
4.323934606035e+01 -1.519082036405e+01 0.0 
4.329740528208e+01 -1.419587509788e+01 0.0 
4.413056841369e+01 -1.474359631875e+01 0.0 
4.418850110108e+01 -1.374786684042e+01 0.0 
4.502219770667e+01 -1.429605103525e+01 0.0 
4.496411937907e+01 -1.529215882720e+01 0.0 
4.490027319897e+00 -4.154167794594e+00 0.0 
1.565080385988e+01 -1.486411982419e+01 0.0 
1.557610691279e+01 -1.584855627870e+01 0.0 
4.195350646612e+00 -8.089117689096e+00 0.0 
4.124027797830e+00 -9.082831955007e+00 0.0 
4.917944318925e+00 -9.643530901533e+00 0.0 
4.020105689502e+00 -1.007439673661e+01 0.0 
4.587185899277e+01 -1.484039992728e+01 0.0 
4.580078661551e+01 -1.584043391042e+01 0.0 
2.061956522375e+01 -5.046701343981e+00 0.0 
2.139572955529e+01 -5.579553449826e+00 0.0 
3.715344357292e+01 -1.631485124583e+01 0.0 
3.618886196443e+00 -1.500471207167e+01 0.0 
3.695606940204e+00 -1.400939692294e+01 0.0 
2.438890661143e+01 -9.686110599723e+00 0.0 
2.523267572778e+01 -9.276766000622e+00 0.0 
2.446094171539e+01 -8.751904591412e+00 0.0 
2.529089822738e+01 -8.321495612547e+00 0.0 
2.606882688827e+01 -8.864724051119e+00 0.0 
2.452116646430e+01 -7.792756462004e+00 0.0 
1.235543269617e+01 -1.365845617339e+01 0.0 
4.318116874181e+01 -1.618567469992e+01 0.0 
7.835066111909e+00 -5.376366223896e+00 0.0 
7.905687335704e+00 -4.382539065697e+00 0.0 
3.542640009567e+00 -1.600035116542e+01 0.0 
1.572431503071e+01 -1.388358386695e+01 0.0 
2.574684696680e+01 -1.357896141127e+01 0.0 
2.488842657651e+01 -1.399674354505e+01 0.0 
2.568301775611e+01 -1.453552048595e+01 0.0 
2.481535572009e+01 -1.495542756508e+01 0.0 
2.561729699688e+01 -1.549784648532e+01 0.0 
2.474623061296e+01 -1.592058894178e+01 0.0 
2.394234041695e+01 -1.537572575827e+01 0.0 
2.065825452567e+01 -1.621899055217e+01 0.0 
2.387180528935e+01 -1.634552264687e+01 0.0 
4.585364400844e+01 -1.383912334080e+01 0.0 
1.998744432052e+01 -1.370317155541e+01 0.0 
1.205356951443e+01 -6.313580285498e+00 0.0 
5.396543905849e+00 -3.731818611283e+00 0.0 
1.139652573295e+01 -3.745819399350e+00 0.0 
3.574124306703e+00 -4.551456826011e+00 0.0 
3.494140761930e+00 -5.539787055649e+00 0.0 
1.213651452413e+01 -1.664505033022e+01 0.0 
2.555045568519e+01 -1.646529356744e+01 0.0 
2.641671114986e+01 -1.603899382371e+01 0.0 
2.612920721894e+01 -7.906435260873e+00 0.0 
2.690339829698e+01 -8.456969591431e+00 0.0 
1.978024383368e+01 -1.664410216353e+01 0.0 
3.732829979082e+01 -1.336926601859e+01 0.0 
4.074336584605e+01 -1.355133328401e+01 0.0 
4.163204691081e+01 -1.310280943992e+01 0.0 
3.773826114429e+00 -3.493444309145e+00 0.0 
1.228783001032e+01 -3.374822835872e+00 0.0 
4.057110462520e+01 -1.652588478000e+01 0.0 
2.132535497898e+01 -6.523623360525e+00 0.0 
2.216932532211e+01 -6.110044769206e+00 0.0 
1.825781152128e+01 -3.370146817147e+00 0.0 
1.745679445888e+01 -2.812942552063e+00 0.0 
4.666517057280e+01 -1.539981381543e+01 0.0 
4.660575894464e+01 -1.639014410186e+01 0.0 
4.838230979954e+00 -1.063643436446e+01 0.0 
3.938942630206e+00 -1.106778981745e+01 0.0 
1.302967218620e+01 -1.621373452436e+01 0.0 
1.049548003190e+01 -4.204825123240e+00 0.0 
4.573571907195e+01 -1.683820511148e+01 0.0 
1.483686335807e+01 -1.430849689310e+01 0.0 
1.490982658890e+01 -1.332679386284e+01 0.0 
3.190805600162e+00 -9.510968358545e+00 0.0 
2.146625721848e+01 -4.642437303115e+00 0.0 
2.069866208266e+01 -4.111852942193e+00 0.0 
1.286859345584e+01 -6.873252723348e+00 0.0 
1.041794493184e+01 -5.194814260291e+00 0.0 
2.671081808965e+00 -4.976806516331e+00 0.0 
1.295786792925e+01 -1.720506531799e+01 0.0 
3.968438206511e+01 -1.696869067241e+01 0.0 
2.308550456051e+01 -1.579963151273e+01 0.0 
2.315593682844e+01 -1.482967445235e+01 0.0 
2.299471449450e+01 -1.677069968132e+01 0.0 
1.057344714696e+01 -3.214252277840e+00 0.0 
1.124057603753e+01 -1.707713739755e+01 0.0 
2.718402535754e+00 -1.543629882103e+01 0.0 
2.638549692805e+01 -1.696744916809e+01 0.0 
2.723416349007e+01 -1.658104204545e+01 0.0 
2.210193351704e+01 -7.046769643417e+00 0.0 
2.295180925161e+01 -6.657397605239e+00 0.0 
2.301355235833e+01 -5.709111896800e+00 0.0 
2.379052718281e+01 -6.254965406962e+00 0.0 
3.243528601237e+01 -1.214181853533e+01 0.0 
2.287977995457e+01 -7.583722368300e+00 0.0 
2.999876029544e+01 -1.150837653096e+01 0.0 
3.084435366963e+01 -1.109693775882e+01 0.0 
3.006650579669e+01 -1.057778994262e+01 0.0 
2.683802665066e+01 -9.386863216633e+00 0.0 
2.768641973621e+01 -8.988883915666e+00 0.0 
2.040296980397e+01 -7.903629133404e+00 0.0 
1.925235024054e+01 -1.218872783130e+01 0.0 
5.735667000424e+00 -1.020577277283e+01 0.0 
6.396559909872e+00 -1.272326295703e+01 0.0 
1.161199420714e+01 -1.212812778229e+01 0.0 
4.229046132615e+01 -1.663084237572e+01 0.0 
4.312275399692e+01 -1.718087491556e+01 0.0 
4.335502068163e+01 -1.320039231514e+01 0.0 
4.424630298089e+01 -1.275160688731e+01 0.0 
7.090116643816e+00 -3.818998061530e+00 0.0 
7.989472176569e+00 -3.389238711200e+00 0.0 
9.085824861778e+00 -1.144036167408e+01 0.0 
1.041972423731e+01 -1.651614080893e+01 0.0 
3.797525112640e+01 -1.686052038746e+01 0.0 
3.709114253394e+01 -1.730125999865e+01 0.0 
3.626966748340e+01 -1.675477052919e+01 0.0 
1.385164591440e+01 -1.677597757552e+01 0.0 
1.787152588784e+01 -8.198993896093e+00 0.0 
1.668849729812e+01 -1.248560611628e+01 0.0 
1.659546177905e+01 -3.232482605530e+00 0.0 
2.332214717345e+01 -1.292598167641e+01 0.0 
7.168238450786e+00 -2.824711686516e+00 0.0 
2.894878403906e+01 -1.475427524446e+01 0.0 
2.646763248247e+00 -1.643270107952e+01 0.0 
3.467431944285e+00 -1.699648837348e+01 0.0 
2.059475877282e+01 -1.719473628526e+01 0.0 
3.333868355437e+01 -1.080596971682e+01 0.0 
2.246451062637e+01 -1.334557761546e+01 0.0 
2.167821896388e+01 -1.280847834858e+01 0.0 
3.089653185767e+01 -1.017198487212e+01 0.0 
3.012604365669e+01 -9.657298805968e+00 0.0 
2.929627299435e+01 -1.006100135274e+01 0.0 
2.936201435219e+01 -9.136748899251e+00 0.0 
1.198219052702e+01 -7.291887238230e+00 0.0 
1.116702076035e+01 -6.731976101053e+00 0.0 
2.551388807505e+01 -1.746927036981e+01 0.0 
2.378639090370e+01 -1.728678807149e+01 0.0 
2.718543627188e+01 -1.748668016909e+01 0.0 
2.804681050301e+01 -1.712626668293e+01 0.0 
1.970737034667e+01 -1.762317646822e+01 0.0 
1.889535776135e+01 -1.707158098231e+01 0.0 
2.593777711283e+00 -5.971157087874e+00 0.0 
2.773468281110e+01 -8.067164273938e+00 0.0 
4.051205884347e+01 -1.751819982458e+01 0.0 
3.166903145421e+01 -1.068032992414e+01 0.0 
1.033042452886e+01 -1.748285844336e+01 0.0 
9.519274604626e+00 -1.694349240233e+01 0.0 
1.668308673328e+01 -2.255861778986e+00 0.0 
1.570531902832e+01 -2.676795860126e+00 0.0 
4.655826903379e+01 -1.736656245706e+01 0.0 
2.384148070773e+01 -5.328744256413e+00 0.0 
2.460255123641e+01 -5.852182672816e+00 0.0 
2.306638135119e+01 -4.798935440613e+00 0.0 
8.467720450578e-01 -1.849576263072e+01 0.0 
4.849657322345e+01 -1.084860705506e+01 0.0 
2.565860899507e+00 -1.742859793981e+01 0.0 
2.764418872564e+01 -9.927142821799e+00 0.0 
4.565165880064e+01 -1.785336695404e+01 0.0 
2.162231831329e+01 -1.376528337468e+01 0.0 
2.360646352969e+01 -9.136041963102e+00 0.0 
1.392738739903e+01 -1.578285505772e+01 0.0 
4.756405947478e+01 -1.683706841809e+01 0.0 
4.740895034054e+01 -1.793766756892e+01 0.0 
4.080779328826e+01 -1.257387192544e+01 0.0 
4.168907939671e+01 -1.210739129181e+01 0.0 
3.991197722154e+01 -1.300815793917e+01 0.0 
1.905536506762e+01 -3.940076697685e+00 0.0 
1.923879596617e+01 -2.875000734166e+00 0.0 
4.401386745746e+01 -1.673483229438e+01 0.0 
4.247233362525e+00 -7.094581653070e+00 0.0 
3.286051630211e+00 -7.635300020553e+00 0.0 
9.609533347623e+00 -4.594311677967e+00 0.0 
9.523554636369e+00 -5.595597029530e+00 0.0 
5.660336628893e+00 -1.119290329628e+01 0.0 
6.558070063295e+00 -1.076385809362e+01 0.0 
2.809866407414e+01 -1.518037766799e+01 0.0 
2.888868674504e+01 -1.570360690070e+01 0.0 
2.654431550819e+01 -1.411217777162e+01 0.0 
1.402158265969e+01 -1.375404617952e+01 0.0 
1.409592494026e+01 -1.277071998942e+01 0.0 
1.499355196178e+01 -1.235270737023e+01 0.0 
4.221535326155e+01 -1.759335617494e+01 0.0 
4.305583287033e+01 -1.822663146802e+01 0.0 
1.280748808359e+01 -7.834332838285e+00 0.0 
1.368988389326e+01 -7.420529606172e+00 0.0 
1.110091796060e+01 -7.683966794328e+00 0.0 
3.963446145980e+01 -1.794331310122e+01 0.0 
3.423932362213e+00 -1.796415590455e+01 0.0 
4.280814572302e+00 -1.752272834860e+01 0.0 
8.050136380041e+00 -2.421582378631e+00 0.0 
8.888674091650e+00 -2.984264211327e+00 0.0 
2.152839430898e+01 -3.732609965436e+00 0.0 
2.077799585292e+01 -3.183896021866e+00 0.0 
3.618719395821e+01 -1.770276572576e+01 0.0 
3.538165138340e+01 -1.718709995539e+01 0.0 
3.702925326420e+01 -1.828844288807e+01 0.0 
1.756739438711e+00 -5.353284859169e+00 0.0 
2.233710191104e+01 -1.527265621324e+01 0.0 
1.389483555057e+01 -1.771797164730e+01 0.0 
1.475634224300e+01 -1.728357428390e+01 0.0 
1.298797563052e+01 -1.825968924755e+01 0.0 
2.145331271866e+01 -1.673705379077e+01 0.0 
2.133282821169e+01 -1.769400773673e+01 0.0 
2.292139194136e+01 -1.774915400288e+01 0.0 
1.750750053243e+01 -1.861475593469e+00 0.0 
4.830478841772e+01 -1.752611802221e+01 0.0 
4.341203507805e+01 -1.220326745522e+01 0.0 
1.685254151866e+01 -1.443085301632e+00 0.0 
4.431538535165e+01 -1.171841387375e+01 0.0 
4.511308610496e+01 -1.229557320599e+01 0.0 
4.510133242889e+01 -1.123680627466e+01 0.0 
1.846818030617e+00 -4.410877617069e+00 0.0 
3.995468694584e+01 -1.186571542989e+01 0.0 
3.901387459804e+01 -1.242507616755e+01 0.0 
8.966735877533e+00 -1.837818700423e+00 0.0 
4.049310011091e+01 -1.848269508791e+01 0.0 
7.278862053803e+00 -1.918523922691e+00 0.0 
6.429715522129e+00 -2.316676521184e+00 0.0 
9.443505505022e+00 -1.792198868094e+01 0.0 
8.620386951051e+00 -1.737590365556e+01 0.0 
8.571868171503e+00 -1.834436667826e+01 0.0 
7.758629848526e+00 -1.775677907213e+01 0.0 
7.806648388584e+00 -1.680761266021e+01 0.0 
6.908555145436e+00 -1.723746463044e+01 0.0 
4.251709122090e+01 -1.156937480156e+01 0.0 
6.931136405615e+00 -1.832465719263e+01 0.0 
6.015545461353e+00 -1.768865355295e+01 0.0 
5.960535926343e+00 -1.872011001764e+01 0.0 
3.023253444786e+01 -8.761960642196e+00 0.0 
2.454622702599e+01 -6.749421992767e+00 0.0 
2.537499741604e+01 -6.347634963783e+00 0.0 
2.544077378460e+01 -5.431358513649e+00 0.0 
2.801367161747e+01 -1.820907270221e+01 0.0 
2.884507806914e+01 -1.762032095326e+01 0.0 
1.821474531936e+00 -1.588901260460e+01 0.0 
1.821006262604e+00 -1.489370287756e+01 0.0 
4.599962488908e+01 -1.176478780598e+01 0.0 
4.705457470007e+01 -1.172182804229e+01 0.0 
4.667668314802e+01 -1.263464558483e+01 0.0 
4.759648056504e+01 -1.252380987933e+01 0.0 
4.728041618103e+01 -1.341928568376e+01 0.0 
4.825209352360e+01 -1.330491640804e+01 0.0 
4.778118233428e+01 -1.420151961695e+01 0.0 
2.388192727579e+01 -1.826934810142e+01 0.0 
2.381714684947e+01 -4.385917965223e+00 0.0 
3.172733219247e+01 -9.758744265248e+00 0.0 
1.882012070658e+01 -1.805540597212e+01 0.0 
1.805667505243e+01 -1.742221226236e+01 0.0 
2.852599958080e+01 -8.597196079481e+00 0.0 
2.856486123437e+01 -7.661382718527e+00 0.0 
1.111792842875e+01 -1.818223852980e+01 0.0 
2.203322722466e+01 -7.986646678802e+00 0.0 
3.955703676900e+01 -1.903246763601e+01 0.0 
1.944842206513e+01 -8.038750575182e-01 0.0 
1.909882767783e+01 -1.746322740933e+00 0.0 
2.281147422941e+01 -8.525912918334e+00 0.0 
2.850633001468e+01 -9.533271335986e+00 0.0 
2.532883344309e+01 -7.308951659710e+00 0.0 
2.620475466461e+01 -6.979208585400e+00 0.0 
1.396278270396e+01 -1.475095389807e+01 0.0 
9.791001166724e+00 -2.554159793552e+00 0.0 
2.229293380421e+01 -4.269762271052e+00 0.0 
4.677238984118e+01 -1.430071795514e+01 0.0 
2.228658385918e+01 -3.344747535984e+00 0.0 
8.940223674553e-01 -1.543595733415e+01 0.0 
2.118566862474e+01 -8.435876987696e+00 0.0 
2.678325936437e+01 -1.032621195706e+01 0.0 
2.223400220487e+01 -5.179046761770e+00 0.0 
2.375370625384e+01 -7.251580562134e+00 0.0 
3.156971327386e+01 -1.255534750737e+01 0.0 
3.328226391312e+01 -1.172914813316e+01 0.0 
3.250948774219e+01 -1.120157009348e+01 0.0 
2.032993445717e+01 -8.867880112202e+00 0.0 
2.697226974856e+01 -7.536633082045e+00 0.0 
2.707377810386e+01 -6.590835263295e+00 0.0 
2.914099246827e+01 -1.191678458549e+01 0.0 
3.544824072239e+01 -1.621126558525e+01 0.0 
3.456511855436e+01 -1.665054783843e+01 0.0 
3.448395810225e+01 -1.759117813016e+01 0.0 
3.368378673938e+01 -1.708037781328e+01 0.0 
3.375560452567e+01 -1.610973066913e+01 0.0 
3.288001547988e+01 -1.654324255651e+01 0.0 
3.282475929147e+01 -1.749725654692e+01 0.0 
3.199880906313e+01 -1.697294088625e+01 0.0 
3.197001272932e+01 -1.811667776864e+01 0.0 
3.111884713021e+01 -1.742166785755e+01 0.0 
3.120418962865e+01 -1.642155709385e+01 0.0 
3.034666704371e+01 -1.683123833816e+01 0.0 
3.026224379976e+01 -1.772592851714e+01 0.0 
3.046632362943e+01 -1.582232843075e+01 0.0 
1.961344017324e+01 -1.857459447985e+01 0.0 
2.274975894774e+01 -9.532738811922e+00 0.0 
1.833923246887e+01 -2.396746883672e+00 0.0 
1.988859500848e+01 -2.249244376594e+00 0.0 
2.758045562861e+01 -1.086434261689e+01 0.0 
3.247300178163e+01 -1.909930104252e+01 0.0 
3.461947482503e+01 -1.911879848019e+01 0.0 
2.047161538662e+01 -6.941478180358e+00 0.0 
2.750230940214e+01 -1.915490590764e+01 0.0 
3.165081350803e+01 -1.161860780120e+01 0.0 
1.897456727641e+01 -4.889634688522e+00 0.0 
2.549338539756e+01 -1.914858252089e+01 0.0 
3.462873135081e+01 -1.567482276144e+01 0.0 
3.384432415243e+01 -1.512280684518e+01 0.0 
3.471433767690e+01 -1.469086942990e+01 0.0 
3.651470373046e+01 -1.918207952149e+01 0.0 
3.901742690249e+01 -1.345028556517e+01 0.0 
2.153224102692e+01 -1.920169709333e+01 0.0 
1.918382939341e+01 -1.316226275662e+01 0.0 
2.005389162382e+01 -1.271962165174e+01 0.0 
2.011472087878e+01 -1.175029352900e+01 0.0 
3.210679478412e+01 -1.598038618242e+01 0.0 
1.752175226543e+01 -1.914713022656e+01 0.0 
1.696897240059e+01 -1.832772588765e+01 0.0 
1.599682523337e+01 -1.832599992024e+01 0.0 
1.644507199462e+01 -1.743697981535e+01 0.0 
1.549987712903e+01 -1.915192375101e+01 0.0 
3.050250861901e+01 -1.918943550234e+01 0.0 
2.949944061527e+01 -1.922950455235e+01 0.0 
1.375892575273e+01 -6.447160534926e+00 0.0 
1.457223670180e+01 -7.006709243857e+00 0.0 
1.450818793236e+01 -7.965943451779e+00 0.0 
1.538804712402e+01 -7.553409623699e+00 0.0 
1.545817644768e+01 -6.580929593419e+00 0.0 
1.626506893751e+01 -7.129032608911e+00 0.0 
1.619833811522e+01 -8.086588580887e+00 0.0 
1.714448609609e+01 -6.697429609777e+00 0.0 
2.887616543568e+01 -1.668015232137e+01 0.0 
1.349814589130e+01 -1.918225301544e+01 0.0 
1.153887772210e+01 -1.311384581217e+01 0.0 
1.242708159886e+01 -1.267046795531e+01 0.0 
1.249799674267e+01 -1.169005616014e+01 0.0 
6.631723893693e+00 -9.774184881867e+00 0.0 
7.451471631867e+00 -1.033148796006e+01 0.0 
7.377795355458e+00 -1.132196345268e+01 0.0 
5.810931797536e+00 -9.211654212252e+00 0.0 
2.402683899133e+01 -1.441378562320e+01 0.0 
1.249768692036e+01 -1.917388426624e+01 0.0 
1.580373499437e+01 -1.290751860664e+01 0.0 
8.344650507834e+00 -9.898403995170e+00 0.0 
3.750622115305e+01 -1.086526401533e+01 0.0 
3.699391251667e+01 -1.171695900794e+01 0.0 
3.606517829518e+01 -1.173717504500e+01 0.0 
3.650257641795e+01 -1.270047380221e+01 0.0 
3.808951488918e+01 -1.183518714175e+01 0.0 
4.760380962420e+00 -1.162484888315e+01 0.0 
3.861210370848e+00 -1.205657631736e+01 0.0 
3.038284309476e+00 -1.149851280664e+01 0.0 
2.961598794889e+00 -1.248856794980e+01 0.0 
2.138953225512e+00 -1.193212674534e+01 0.0 
2.227383593457e+00 -1.096258903918e+01 0.0 
2.043265419276e+00 -1.292158472959e+01 0.0 
1.252449446028e+00 -1.225502002753e+01 0.0 
3.949985210740e+01 -1.086594001795e+01 0.0 
1.453499444792e+01 -8.768805922472e-01 0.0 
1.403518950933e+01 -1.749965556633e+00 0.0 
1.300715031023e+01 -1.714737233040e+00 0.0 
1.350929389899e+01 -2.527443911291e+00 0.0 
1.449600910711e+01 -2.595486162864e+00 0.0 
1.395693872901e+01 -3.484211041558e+00 0.0 
1.495105865208e+01 -3.364609636216e+00 0.0 
1.508822528740e+01 -1.766586020494e+00 0.0 
1.250223858430e+01 -8.634590186802e-01 0.0 
1.200279523409e+01 -1.709044504992e+00 0.0 
1.150086239419e+01 -8.592789190668e-01 0.0 
1.101482754194e+01 -1.677730591922e+00 0.0 
1.148018564526e+01 -2.659323866909e+00 0.0 
8.800552119754e+00 -3.989875954728e+00 0.0 
3.452790439430e+00 -1.901136170646e+01 0.0 
8.658451825200e-01 -9.503462241795e+00 0.0 
1.694787786797e+00 -9.000589234502e+00 0.0 
1.703436717094e+00 -8.038819004041e+00 0.0 
2.594197971110e+00 -8.563955242845e+00 0.0 
1.630513735412e+00 -9.907244747511e+00 0.0 
8.566859292791e-01 -7.512203837972e+00 0.0 
1.685461277022e+00 -7.164280248030e+00 0.0 
2.506394468801e+00 -8.623386730818e-01 0.0 
2.007475081581e+00 -1.727729545205e+00 0.0 
9.211534699767e-01 -1.628791366312e+00 0.0 
1.500000000020e+00 -2.598063549486e+00 0.0 
2.482078929963e+00 -2.553580088725e+00 0.0 
2.999795253092e+00 -1.732169015019e+00 0.0 
3.999712607169e+00 -1.728832897453e+00 0.0 
4.499752199340e+00 -8.656478679175e-01 0.0 
4.964377774841e+00 -1.730129617941e+00 0.0 
4.425017908337e+00 -2.597541756243e+00 0.0 
5.446573195014e+00 -8.410144840023e-01 0.0 
4.915722346614e+01 -1.550640962770e+01 0.0 
4.826794919243e+01 -1.600000000000e+01 0.0 
1.053139533193e+01 -1.911782884365e+01 0.0 
4.156049861949e+01 -1.095160998589e+01 0.0 
9.494526624416e+00 -8.650570090219e-01 0.0 
4.555762166964e+01 -1.897098103585e+01 0.0 
4.250656411371e+01 -1.914387356218e+01 0.0 
4.350906466345e+01 -1.917234727395e+01 0.0 
8.759665722424e-01 -1.746422130609e+01 0.0 
1.698936011838e+00 -1.795012186674e+01 0.0 
4.742476811029e+01 -1.900090177972e+01 0.0 
7.749196752349e+00 -6.368049313489e+00 0.0 
3.361572113416e+01 -1.798765193915e+01 0.0 
4.484660149212e+01 -1.728661231383e+01 0.0 
1.984038172228e+01 -4.502575320116e+00 0.0 
1.035080352627e+01 -6.166639575753e+00 0.0 
2.753558010652e+00 -1.444909521181e+01 0.0 
7.217069543032e+00 -1.328635391078e+01 0.0 
4.364336727739e+00 -1.655585677381e+01 0.0 
4.595208426108e+00 -1.357919665443e+01 0.0 
6.164967006980e+00 -1.569873454630e+01 0.0 
1.487855768353e+01 -1.826523774028e+01 0.0 
2.791876456372e+00 -4.019632415181e+00 0.0 
4.246464893515e+01 -1.364898659620e+01 0.0 
4.503855590351e+01 -1.329552780944e+01 0.0 
4.407239109604e+01 -1.573900004093e+01 0.0 
5.141054449252e+00 -6.664290382472e+00 0.0 
3.141083947149e+00 -1.055790764912e+01 0.0 
6.196463198741e+00 -4.256497932609e+00 0.0 
2.599618716181e+01 -1.836893455464e+01 0.0 
2.923057372337e+01 -1.098461757645e+01 0.0 
1.168343877486e+01 -1.114079645041e+01 0.0 
6.706222096238e+00 -8.780364234441e+00 0.0 
8.567858614669e+00 -6.943121440850e+00 0.0 
1.123755132901e+01 -5.753525820030e+00 0.0 
2.353456234423e+01 -1.008536320953e+01 0.0 
9.162073319168e+00 -1.045593739109e+01 0.0 
9.676343469685e+00 -1.496493008366e+01 0.0 
4.490637882905e+01 -1.628778970202e+01 0.0 
7.398129387772e+00 -9.639977982323e-01 0.0 
1.049641705805e+01 -1.552503975272e+01 0.0 
9.010356286268e+00 -1.242805042052e+01 0.0 
3.985573925497e+01 -1.399863651620e+01 0.0 
1.816196318262e+01 -1.554066497931e+01 0.0 
1.306332244168e+01 -3.963646550326e+00 0.0 
4.145850903932e+01 -1.608094559275e+01 0.0 
3.794664933633e+01 -1.779020121986e+01 0.0 
3.819614412903e+01 -1.290749321016e+01 0.0 
6.270014188119e+00 -3.255093186826e+00 0.0 
4.251165370388e+01 -1.263870364997e+01 0.0 
1.207347709171e+01 -1.763942826023e+01 0.0 
3.633240829927e+01 -1.577330481104e+01 0.0 
4.319052668832e+00 -6.101812561904e+00 0.0 
1.676492415806e+01 -1.151547901392e+01 0.0 
2.594059220037e+01 -1.074225223009e+01 0.0 
3.340750911501e+01 -9.898764354137e+00 0.0 
4.397619591281e+01 -1.769773736461e+01 0.0 
2.175611595028e+01 -1.185718747128e+01 0.0 
1.641818733106e+01 -1.640685203215e+01 0.0 
1.661211421753e+01 -1.346121366338e+01 0.0 
3.428853504935e+00 -6.551993389271e+00 0.0 
8.700728832502e+00 -1.638460872825e+01 0.0 
1.931369795309e+01 -1.121629383702e+01 0.0 
4.139798872363e+01 -1.706922153459e+01 0.0 
2.647837478700e+01 -1.507353829290e+01 0.0 
1.779469616424e+01 -9.161615782908e+00 0.0 
3.885879219319e+01 -1.642026488918e+01 0.0 
1.338194936770e+01 -1.125916521471e+01 0.0 
1.897071181111e+01 -1.609204322578e+01 0.0 
2.844308548793e+01 -1.046221003096e+01 0.0 
2.659854702194e+01 -1.316109415760e+01 0.0 
2.979604503271e+01 -1.433296157755e+01 0.0 
2.417694041347e+01 -1.251231397779e+01 0.0 
1.807401327411e+00 -1.388891148480e+01 0.0 
9.599810618782e+00 -1.595439365034e+01 0.0 
1.652144692160e+01 -4.205392788472e+00 0.0 
2.367839450246e+01 -8.188385218643e+00 0.0 
3.814894930468e+01 -1.390748338767e+01 0.0 
2.466448215774e+01 -1.685878545680e+01 0.0 
4.134044524611e+01 -1.806610045954e+01 0.0 
2.600511411958e+01 -9.801774120648e+00 0.0 
7.882158050716e+00 -1.582364037353e+01 0.0 
3.881607873422e+01 -1.737970515013e+01 0.0 
8.270182347708e+00 -1.088622154920e+01 0.0 
8.672520392520e-01 -4.532984309881e+00 0.0 
1.993447205337e+01 -3.579061902667e+00 0.0 
1.794616079549e+01 -7.238038888498e+00 0.0 
2.097277068165e+01 -1.132450168636e+01 0.0 
8.194803300681e+00 -1.187214224265e+01 0.0 
3.522279404911e+01 -1.823342818178e+01 0.0 
6.984481050295e+00 -1.625271465557e+01 0.0 
1.309433007797e+01 -1.521718594215e+01 0.0 
2.150246167611e+01 -1.885399038185e+00 0.0 
3.250689370209e+01 -1.028789870535e+01 0.0 
6.085886272238e+00 -1.668342132851e+01 0.0 
1.588455661727e+01 -1.193498985921e+01 0.0 
1.809323400821e+01 -1.651110084195e+01 0.0 
1.348885082381e+00 -1.136065576512e+01 0.0 
2.497670221995e+01 -1.834631276173e+01 0.0 
2.937062818424e+01 -8.233711194470e+00 0.0 
5.185823744469e+00 -1.711566910207e+01 0.0 
1.477497877209e+01 -1.530177014512e+01 0.0 
2.125346158933e+01 -7.473003997367e+00 0.0 
4.751561118290e+01 -1.084897772632e+01 0.0 
5.056026576843e+00 -1.825750475525e+01 0.0 
1.473948554523e+01 -1.634577436309e+01 0.0 
2.410566630936e+01 -1.345970002612e+01 0.0 
1.507337507513e+01 -1.138527895328e+01 0.0 
3.189857338687e+01 -8.887781229006e+00 0.0 
7.298712468334e+00 -1.230231046246e+01 0.0 
2.738235495295e+01 -1.368931690364e+01 0.0 
3.750141041969e+01 -1.920449893070e+01 0.0 
1.557271965640e+01 -1.683317951731e+01 0.0 
3.393731848929e+01 -1.413034777044e+01 0.0 
6.482156824153e+00 -1.174575135362e+01 0.0 
2.077971718439e+01 -1.421279621836e+01 0.0 
3.455084320178e+00 -2.562590040585e+00 0.0 
3.099056096250e+01 -9.270280416035e+00 0.0 
5.580176125418e+00 -1.217387969259e+01 0.0 
1.707247630389e+01 -7.660651981710e+00 0.0 
1.418658814174e+01 -1.180390575393e+01 0.0 
2.049103025389e+01 -1.811296706038e+01 0.0 
4.680386172316e+00 -1.260396879301e+01 0.0 
1.699679896554e+01 -8.624561788199e+00 0.0 
3.779470168555e+00 -1.303424899720e+01 0.0 
3.036589870126e+01 -7.879832518349e+00 0.0 
3.306993001774e+01 -1.457671062095e+01 0.0 
2.840150110165e+00 -1.346530088269e+01 0.0 
2.732011135052e+01 -1.464591214560e+01 0.0 
5.423639259568e+00 -2.659711955016e+00 0.0 
2.324455961696e+01 -1.387269388211e+01 0.0 
1.752768355571e+00 -1.693128613594e+01 0.0 
1.020244783051e+01 -8.076834012808e+00 0.0 
1.330873875224e+01 -1.222417528206e+01 0.0 
3.297727364880e+01 -1.555480372087e+01 0.0 
2.890929955439e+01 -6.868664170731e+00 0.0 
1.323294664622e+01 -1.320754260334e+01 0.0 
2.726532861246e+01 -1.560593120806e+01 0.0 
2.240020643398e+01 -1.429299177247e+01 0.0 
2.090445823633e+01 -1.228128621332e+01 0.0 
1.315809881502e+01 -1.420739326938e+01 0.0 
2.781328038068e+01 -7.181956082300e+00 0.0 
8.614200829057e+00 -5.936933226306e+00 0.0 
8.714765730069e+00 -4.979270529687e+00 0.0 
1.611881701099e+01 -9.041973294003e+00 0.0 
2.806830314340e+01 -1.614622947108e+01 0.0 
2.084435391396e+00 -3.385085422913e+00 0.0 
3.133211811152e+01 -1.542347619750e+01 0.0 
9.693114650768e+00 -3.590281506442e+00 0.0 
1.531883592202e+01 -8.504584946143e+00 0.0 
2.151589117094e+01 -1.578915763018e+01 0.0 
4.918943882696e+01 -1.355538828056e+01 0.0 
1.443236615188e+01 -8.918701794549e+00 0.0 
8.276250966452e-01 -5.537685192197e+00 0.0 
1.362790867918e+01 -8.374718262212e+00 0.0 
2.083767477370e+01 -1.324843956035e+01 0.0 
1.273834678703e+01 -8.790890389337e+00 0.0 
1.192275845670e+01 -8.242261327467e+00 0.0 
4.477236023583e+01 -1.824312396664e+01 0.0 
1.102989384254e+01 -8.649855800911e+00 0.0 
4.849096516045e+01 -1.917293752213e+01 0.0 
1.588996752238e+00 -1.910230934687e+01 0.0 
4.904245197583e+01 -1.159839008158e+01 0.0 
2.753852929608e+01 -5.782128488093e+00 0.0 
1.756133602833e+01 -8.306130313187e-01 0.0 
2.615423700951e+01 -6.153865090092e+00 0.0 
1.028818761294e+01 -7.122020845892e+00 0.0 
2.970818901196e+01 -1.527821347593e+01 0.0 
4.801461623449e+01 -1.164472570985e+01 0.0 
9.455722100419e+00 -6.546069291118e+00 0.0 
3.089099236677e+01 -1.835339328261e+01 0.0 
2.350000000013e+01 -1.920825896750e+01 0.0 
4.830620531887e+01 -1.506626155470e+01 0.0 
1.725381944701e+01 -1.688794487850e+01 0.0 
2.156246225273e+01 -1.475893794002e+01 0.0 
4.919319648787e+01 -1.742767505896e+01 0.0 
4.437935623576e+01 -1.077662927266e+01 0.0 
1.001520521978e+01 -1.652692675208e+00 0.0 
9.067160240050e-01 -1.441937727541e+01 0.0 
2.603365149390e+01 -4.755996613848e+00 0.0 
2.458344439002e+01 -4.873645517696e+00 0.0 
2.304312390142e+01 -3.836552768096e+00 0.0 
2.546923202198e+00 -6.902480355749e+00 0.0 
1.251534969393e+01 -2.490989965776e+00 0.0 
2.454061833377e+01 -3.933354231935e+00 0.0 
1.788186558740e+01 -1.827424884923e+01 0.0 
4.090785243552e+01 -1.166553231904e+01 0.0 
2.230128851568e+01 -1.623015738726e+01 0.0 
2.302362347568e+01 -2.916239960270e+00 0.0 
3.878119254461e+01 -1.830091164002e+01 0.0 
2.210081359958e+01 -1.829238229150e+01 0.0 
8.443704882233e+00 -1.921993252862e+01 0.0 
2.218405824691e+01 -1.724557581508e+01 0.0 
2.151157503963e+01 -2.790636689331e+00 0.0 
3.741658958955e+01 -1.250400191722e+01 0.0 
2.697247663737e+01 -1.838290202309e+01 0.0 
4.743362342862e+01 -1.585850773010e+01 0.0 
6.671345075358e+00 -1.924977576322e+01 0.0 
3.900825404537e+01 -1.157220003875e+01 0.0 
4.649692961375e+01 -1.836335837481e+01 0.0 
1.578831424832e+01 -3.678284023361e+00 0.0 
4.814208768888e+01 -1.841249298770e+01 0.0 
2.964123298315e+01 -1.625739458193e+01 0.0 
4.580760351902e+01 -1.284294554687e+01 0.0 
3.561520879615e+01 -1.245548941949e+01 0.0 
2.555418095658e+00 -1.841101588290e+01 0.0 
3.288468366144e+01 -1.834258164109e+01 0.0 
2.065894391445e+01 -2.240688571739e+00 0.0 
4.739171429915e+01 -1.496536413446e+01 0.0 
3.478086729185e+00 -8.576434653209e+00 0.0 
1.606010630246e+01 -1.588421807951e+00 0.0 
1.018329200594e+01 -1.834320874317e+01 0.0 
2.957213339430e+01 -1.720496954591e+01 0.0 
4.142712790164e+00 -1.837794506222e+01 0.0 
6.698721532573e-01 -2.499999999997e+00 0.0 
8.037039123140e+00 -1.571229354954e+00 0.0 
1.203541361428e+01 -1.847784298001e+01 0.0 
2.899968332038e+01 -1.848264722179e+01 0.0 
1.469229460948e+01 -4.219485753730e+00 0.0 
4.049590781957e+01 -1.932812501995e+01 0.0 
1.996211678340e+01 -1.506329754720e+00 0.0 
4.250588298353e+01 -1.067383247529e+01 0.0 
5.831497011152e+00 -1.635396227234e+00 0.0 
5.317606125670e+00 -1.923927974868e+01 0.0 
4.208546426993e+01 -1.842830665025e+01 0.0 
2.327553405011e+00 -9.459409929662e+00 0.0 
3.568351902251e+01 -1.096637218582e+01 0.0 
1.682104374890e+00 -6.231413350963e+00 0.0 
2.451812238018e+01 -1.766524914339e+01 0.0 
1.058003429638e+01 -2.391839617098e+00 0.0 
4.399988753123e+01 -1.851998776342e+01 0.0 
1.400000000010e+01 -1.852293523028e+01 0.0 
3.604719565984e+01 -1.850662876800e+01 0.0 
1.951297136734e+01 -1.938092349694e+01 0.0 
1.821365318472e+01 -1.531276353287e+00 0.0 
2.298031859732e+01 -1.854635324722e+01 0.0 
1.552168066204e+01 -1.764280741977e+01 0.0 
4.572957713638e+01 -1.073347898229e+01 0.0 
3.429637429624e+01 -1.838861552790e+01 0.0 
2.427434426052e+00 -7.705577451869e+00 0.0 
4.662792031485e+00 -3.359424455416e+00 0.0 
4.926794919243e+01 -1.926794919243e+01 0.0 
7.320508075690e-01 -7.320508075688e-01 0.0 
4.926794919243e+01 -1.073205080757e+01 0.0 
7.320508075705e-01 -1.926794919243e+01 0.0 
2.917460242467e+00 -3.202866455310e+00 0.0 
4.838200575963e+01 -1.232674147454e+01 0.0 
2.998445708009e+01 -1.854403752148e+01 0.0 
5.949940090766e-01 -1.152762038165e+01 0.0 
4.844763495759e+01 -1.678092548787e+01 0.0 
1.301685480160e+01 -3.170056592566e+00 0.0 
1.650046335855e+01 -6.731535384067e-01 0.0 
4.854881540991e+01 -1.405224059779e+01 0.0 
2.119545114693e+01 -1.846813384545e+01 0.0 
3.797852849897e+01 -1.857978513215e+01 0.0 
4.649823708745e+01 -1.338351810816e+01 0.0 
2.012685900976e+01 -2.889659035009e+00 0.0 
2.953271913273e+01 -1.791558075192e+01 0.0 
2.408509097292e+00 -1.021949208421e+01 0.0 
2.642589566221e+01 -1.773216561448e+01 0.0 
1.730010270775e+01 -1.763165076721e+01 0.0 
2.017406551304e+01 -8.513536440582e-01 0.0 
5.254761581934e-01 -1.249999999999e+01 0.0 
6.640448215642e+00 -1.545337834885e+00 0.0 
7.843361506349e+00 -1.852719839527e+01 0.0 
1.588442191088e+00 -1.066158564320e+01 0.0 
2.131250000000e+01 -4.209183673460e-01 0.0 
4.950862068966e+01 -5.000000000001e-01 0.0 
2.280866189488e+01 -1.416779325160e+00 0.0 
4.950862068966e+01 -1.500000000000e+00 0.0 
2.431250000000e+01 -2.420918367347e+00 0.0 
4.950961538461e+01 -2.500000000000e+00 0.0 
2.580823483239e+01 -3.416278049680e+00 0.0 
4.950961538461e+01 -3.500000000000e+00 0.0 
2.731250000000e+01 -4.420918367347e+00 0.0 
4.951086956522e+01 -4.500000000000e+00 0.0 
2.880770112393e+01 -5.415638864241e+00 0.0 
4.951086956522e+01 -5.500000000000e+00 0.0 
3.031250000000e+01 -6.420918367347e+00 0.0 
4.951250000000e+01 -6.500000000000e+00 0.0 
3.180701530612e+01 -7.414795918363e+00 0.0 
4.951250000000e+01 -7.500000000000e+00 0.0 
3.331250000000e+01 -8.420918367347e+00 0.0 
4.951470588234e+01 -8.500000000000e+00 0.0 
3.480610198624e+01 -9.413633635267e+00 0.0 
4.951470588234e+01 -9.500000000000e+00 0.0 

CELLS 2424 9696 
3 414 884 1160 
3 884 414 1162 
3 894 387 905 
3 1007 772 1196 
3 774 834 1000 
3 864 777 903 
3 394 816 818 
3 414 841 1162 
3 816 394 834 
3 767 1002 1196 
3 386 961 962 
3 841 414 1176 
3 1006 1158 1202 
3 823 954 1044 
3 1158 420 1202 
3 413 1007 1196 
3 822 393 963 
3 777 864 902 
3 401 821 1143 
3 821 401 1081 
3 1002 767 1155 
3 1132 378 1138 
3 859 1132 1138 
3 809 808 1018 
3 508 664 953 
3 961 386 1070 
3 115 83 1223 
3 853 379 1095 
3 506 508 953 
3 1018 808 1228 
3 758 968 970 
3 411 824 1001 
3 894 905 1203 
3 19 399 874 
3 409 828 830 
3 837 66 1194 
3 66 837 1220 
3 856 405 900 
3 820 106 1173 
3 106 820 1234 
3 1096 838 1122 
3 374 860 999 
3 1177 375 1181 
3 83 423 1223 
3 815 422 1172 
3 854 1177 1181 
3 968 758 971 
3 422 815 1198 
3 964 965 971 
3 954 823 1195 
3 416 859 1096 
3 806 821 1081 
3 584 1197 1215 
3 416 1096 1122 
3 906 388 1086 
3 1179 751 1224 
3 806 1081 1150 
3 399 844 874 
3 667 995 1113 
3 1002 413 1196 
3 373 1207 1248 
3 1187 813 1189 
3 633 661 867 
3 1197 970 1215 
3 978 797 1202 
3 859 416 1132 
3 1207 817 1248 
3 387 894 1167 
3 694 655 976 
3 383 842 908 
3 1070 1013 1124 
3 33 32 862 
3 853 1095 1225 
3 4 5 988 
3 985 1179 1224 
3 825 390 1076 
3 906 1086 1235 
3 873 1178 1185 
3 995 667 1237 
3 1178 415 1185 
3 655 668 976 
3 393 822 1183 
3 378 884 1138 
3 884 378 1160 
3 834 774 1046 
3 816 834 1046 
3 845 1070 1175 
3 18 19 874 
3 899 896 1144 
3 774 1000 1183 
3 1001 824 1174 
3 425 952 1223 
3 998 1169 1193 
3 1193 1169 1205 
3 391 33 862 
3 900 405 1230 
3 822 963 1195 
3 999 860 1208 
3 419 851 1148 
3 867 661 868 
3 1000 834 1218 
3 420 978 1202 
3 581 1147 1171 
3 812 1187 1189 
3 702 700 878 
3 965 968 971 
3 1005 1006 1128 
3 771 998 1193 
3 373 964 971 
3 1101 396 1220 
3 546 899 1144 
3 4 988 1239 
3 769 865 901 
3 736 1052 1090 
3 780 982 1206 
3 840 867 868 
3 635 633 867 
3 409 830 1188 
3 851 419 1243 
3 839 635 867 
3 870 800 1145 
3 423 425 1223 
3 998 771 1246 
3 635 839 878 
3 1190 1089 1204 
3 855 1105 1114 
3 982 780 1236 
3 1105 380 1114 
3 390 825 1216 
3 802 1190 1204 
3 961 1070 1124 
3 772 1007 1198 
3 709 766 866 
3 380 838 1114 
3 828 409 1208 
3 1006 763 1158 
3 845 1013 1070 
3 866 766 1066 
3 810 938 1228 
3 742 858 866 
3 792 1003 1004 
3 842 383 1214 
3 1044 954 1191 
3 651 623 872 
3 858 709 866 
3 838 380 1122 
3 766 904 1066 
3 878 704 1073 
3 394 818 1173 
3 865 500 901 
3 824 411 1212 
3 1159 1165 1243 
3 989 401 1143 
3 417 855 1090 
3 938 810 947 
3 839 702 878 
3 874 845 1175 
3 841 375 1177 
3 1147 807 1171 
3 400 846 847 
3 861 500 865 
3 844 399 1128 
3 694 870 1145 
3 1006 765 1128 
3 881 754 909 
3 396 1101 1210 
3 1159 764 1165 
3 700 704 878 
3 1052 417 1090 
3 386 962 1259 
3 375 841 1176 
3 500 861 875 
3 623 674 872 
3 846 400 1234 
3 704 865 1073 
3 855 417 1105 
3 748 937 1142 
3 982 683 1206 
3 379 853 1168 
3 908 842 1192 
3 840 868 1162 
3 683 982 1222 
3 925 1055 1109 
3 858 742 1096 
3 841 840 1162 
3 881 736 1090 
3 865 769 1073 
3 389 1002 1155 
3 512 921 1131 
3 399 1005 1128 
3 854 415 1178 
3 710 875 1099 
3 896 921 1144 
3 81 116 863 
3 742 838 1096 
3 1098 770 1102 
3 994 1126 1219 
3 1009 402 1235 
3 507 432 914 
3 1129 488 1156 
3 618 1098 1102 
3 952 425 1201 
3 953 664 1191 
3 808 810 1228 
3 1139 1030 1166 
3 876 447 904 
3 706 596 909 
3 513 507 914 
3 703 881 909 
3 754 881 1090 
3 652 1112 1152 
3 937 786 1142 
3 863 397 864 
3 868 884 1162 
3 868 661 883 
3 766 876 904 
3 921 891 1131 
3 777 776 1082 
3 770 869 1088 
3 820 846 1234 
3 875 861 1099 
3 566 1088 1137 
3 826 1036 1260 
3 912 513 914 
3 1036 382 1260 
3 994 995 1126 
3 415 854 1181 
3 1139 782 1140 
3 886 513 912 
3 782 781 1140 
3 762 871 877 
3 588 969 1041 
3 800 977 1145 
3 1055 618 1109 
3 754 706 909 
3 797 978 1210 
3 116 397 863 
3 671 701 877 
3 461 500 875 
3 859 858 1096 
3 869 770 1098 
3 837 1101 1220 
3 1123 512 1131 
3 570 552 907 
3 618 1102 1109 
3 1070 386 1175 
3 904 514 1066 
3 913 914 1110 
3 813 1187 1232 
3 461 875 882 
3 701 762 877 
3 431 703 879 
3 862 32 1216 
3 447 876 1051 
3 920 463 1059 
3 847 846 848 
3 976 668 1180 
3 703 880 881 
3 670 570 907 
3 776 910 1011 
3 758 970 1197 
3 513 886 1048 
3 596 879 909 
3 635 878 1073 
3 886 725 1048 
3 921 512 1144 
3 514 885 1027 
3 381 835 1194 
3 711 920 1059 
3 439 705 885 
3 769 901 1032 
3 711 919 920 
3 553 569 910 
3 951 392 952 
3 465 462 882 
3 582 933 934 
3 913 1123 1131 
3 116 117 397 
3 703 429 880 
3 552 550 907 
3 626 671 877 
3 555 553 910 
3 434 431 879 
3 824 870 1174 
3 662 752 883 
3 711 918 919 
3 879 703 909 
3 951 952 953 
3 672 777 902 
3 582 934 936 
3 583 586 933 
3 868 883 884 
3 913 1110 1123 
3 661 662 883 
3 548 465 882 
3 875 710 882 
3 672 776 777 
3 901 457 1032 
3 801 871 873 
3 37 388 906 
3 39 402 905 
3 448 447 1051 
3 569 552 570 
3 625 626 684 
3 440 439 885 
3 569 570 625 
3 582 583 933 
3 514 1027 1066 
3 1003 792 1221 
3 907 710 1099 
3 1112 768 1152 
3 801 684 871 
3 406 57 926 
3 625 570 626 
3 445 514 904 
3 672 576 776 
3 948 641 1056 
3 462 461 882 
3 586 930 933 
3 705 596 706 
3 42 927 928 
3 550 548 710 
3 711 539 918 
3 685 684 801 
3 916 601 1039 
3 1088 869 1137 
3 701 702 760 
3 775 916 1039 
3 404 45 908 
3 678 770 1088 
3 41 387 927 
3 1044 664 1074 
3 899 546 1164 
3 762 760 854 
3 707 706 739 
3 439 596 705 
3 439 437 596 
3 515 1051 1077 
3 379 47 911 
3 506 953 1201 
3 880 736 881 
3 710 548 882 
3 781 977 1140 
3 739 754 855 
3 701 700 702 
3 400 847 1100 
3 586 929 930 
3 550 710 907 
3 890 912 913 
3 671 700 701 
3 705 706 707 
3 539 541 918 
3 714 941 1028 
3 50 403 917 
3 742 740 838 
3 554 556 936 
3 795 1129 1156 
3 761 840 841 
3 760 702 761 
3 896 893 921 
3 445 443 514 
3 752 858 859 
3 707 739 740 
3 54 405 922 
3 405 856 1182 
3 893 891 921 
3 913 912 914 
3 941 481 1028 
3 633 634 661 
3 553 552 569 
3 551 550 552 
3 447 445 904 
3 728 948 1056 
3 496 942 943 
3 889 887 890 
3 556 582 936 
3 630 515 631 
3 885 705 1027 
3 632 631 633 
3 387 40 905 
3 402 38 906 
3 402 1009 1203 
3 714 940 941 
3 725 627 1048 
3 701 760 762 
3 549 548 550 
3 776 576 910 
3 662 709 752 
3 950 951 954 
3 916 1044 1074 
3 926 924 1018 
3 897 896 899 
3 431 429 703 
3 438 437 439 
3 576 555 910 
3 973 975 976 
3 500 459 901 
3 453 451 515 
3 459 457 901 
3 370 1089 1190 
3 847 848 849 
3 977 781 1145 
3 626 670 671 
3 57 56 926 
3 560 562 652 
3 424 736 880 
3 401 989 1211 
3 1051 876 1077 
3 461 459 500 
3 437 434 879 
3 383 43 928 
3 739 706 754 
3 443 440 885 
3 496 943 949 
3 887 886 912 
3 714 939 940 
3 44 383 908 
3 41 40 387 
3 37 36 388 
3 39 38 402 
3 436 434 437 
3 890 887 912 
3 895 893 896 
3 633 631 634 
3 661 634 662 
3 945 942 1029 
3 889 890 891 
3 46 404 911 
3 804 725 886 
3 918 652 919 
3 804 886 887 
3 645 643 946 
3 453 515 630 
3 752 709 858 
3 625 684 685 
3 391 862 1186 
3 632 633 635 
3 1026 745 1095 
3 942 496 1029 
3 587 590 929 
3 406 926 1018 
3 671 699 700 
3 42 41 927 
3 402 906 1235 
3 444 443 445 
3 973 974 975 
3 44 43 383 
3 371 922 923 
3 586 587 929 
3 541 560 918 
3 377 51 917 
3 124 372 974 
3 630 631 632 
3 442 440 443 
3 446 445 447 
3 514 443 885 
3 684 626 877 
3 46 45 404 
3 547 465 548 
3 673 672 902 
3 835 381 1261 
3 974 372 975 
3 741 740 742 
3 968 969 970 
3 855 754 1090 
3 371 55 922 
3 48 47 379 
3 596 437 879 
3 965 967 968 
3 814 673 902 
3 968 967 969 
3 1058 756 1071 
3 950 392 951 
3 426 424 880 
3 50 49 403 
3 408 950 954 
3 388 36 915 
3 648 645 946 
3 775 823 916 
3 761 839 840 
3 560 652 918 
3 776 1011 1082 
3 52 51 377 
3 40 39 905 
3 38 37 906 
3 714 522 939 
3 517 519 945 
3 453 630 1032 
3 522 524 939 
3 54 53 405 
3 626 570 670 
3 933 932 934 
3 930 931 932 
3 665 775 1039 
3 58 406 938 
3 965 966 967 
3 56 55 371 
3 929 794 930 
3 43 42 928 
3 895 896 897 
3 123 124 974 
3 630 769 1032 
3 724 627 725 
3 45 44 908 
3 436 437 438 
3 691 648 692 
3 685 801 802 
3 924 923 925 
3 686 793 794 
3 930 794 931 
3 964 407 965 
3 47 46 911 
3 910 569 1011 
3 678 726 770 
3 775 822 823 
3 1012 744 1031 
3 930 932 933 
3 438 439 440 
3 51 50 917 
3 519 621 945 
3 530 566 636 
3 450 448 451 
3 789 682 790 
3 934 932 935 
3 939 636 940 
3 451 448 1051 
3 787 644 1061 
3 560 561 562 
3 452 451 453 
3 489 491 949 
3 671 670 699 
3 517 945 1029 
3 692 648 946 
3 516 539 711 
3 56 371 926 
3 803 725 804 
3 687 1012 1031 
3 55 54 922 
3 371 923 924 
3 458 457 459 
3 965 407 966 
3 59 938 947 
3 888 887 889 
3 590 686 929 
3 58 57 406 
3 524 530 939 
3 662 708 709 
3 429 426 880 
3 516 711 1059 
3 520 714 1028 
3 682 641 948 
3 914 432 1110 
3 741 866 1066 
3 562 580 581 
3 849 848 850 
3 491 496 949 
3 541 543 560 
3 686 743 793 
3 713 535 1014 
3 122 123 972 
3 700 699 704 
3 686 794 929 
3 942 784 943 
3 456 454 457 
3 530 636 939 
3 665 773 775 
3 590 653 686 
3 59 58 938 
3 442 443 444 
3 712 783 784 
3 444 445 446 
3 712 784 942 
3 972 123 974 
3 428 426 429 
3 981 980 982 
3 382 129 996 
3 621 676 712 
3 530 565 566 
3 1010 680 1035 
3 790 948 1092 
3 790 682 948 
3 424 384 736 
3 408 113 950 
3 805 915 1108 
3 446 447 448 
3 129 130 996 
3 800 720 977 
3 966 972 973 
3 782 1139 1166 
3 698 748 1142 
3 778 1010 1035 
3 575 1058 1071 
3 499 497 1008 
3 537 535 713 
3 678 689 726 
3 595 576 672 
3 412 980 981 
3 385 984 985 
3 374 60 947 
3 60 59 947 
3 980 979 983 
3 712 676 783 
3 520 522 714 
3 726 808 809 
3 720 639 977 
3 573 658 678 
3 994 992 995 
3 621 712 945 
3 943 784 944 
3 398 991 992 
3 412 979 980 
3 724 725 803 
3 130 131 993 
3 114 392 950 
3 114 115 392 
3 641 545 1056 
3 385 10 984 
3 686 653 743 
3 871 684 877 
3 831 829 832 
3 911 404 1026 
3 715 609 1042 
3 761 702 839 
3 824 800 870 
3 707 740 741 
3 110 393 1000 
3 109 110 1000 
3 130 993 996 
3 993 992 994 
3 987 989 990 
3 563 504 638 
3 398 986 991 
3 979 376 983 
3 373 120 964 
3 504 499 1008 
3 852 850 872 
3 112 113 408 
3 748 843 937 
3 524 529 530 
3 849 850 851 
3 10 11 984 
3 987 990 991 
3 30 29 1003 
3 390 30 1003 
3 775 773 822 
3 393 111 963 
3 984 981 985 
3 28 389 1004 
3 638 504 1008 
3 113 114 950 
3 112 408 963 
3 739 855 1114 
3 36 35 915 
3 1003 29 1004 
3 398 992 993 
3 131 398 993 
3 799 720 800 
3 943 944 1080 
3 1005 763 1006 
3 119 120 373 
3 410 997 998 
3 121 407 964 
3 681 641 682 
3 121 122 407 
3 120 121 964 
3 788 682 789 
3 734 797 798 
3 851 850 852 
3 1027 741 1066 
3 986 987 991 
3 536 537 1016 
3 25 24 1007 
3 413 25 1007 
3 111 112 963 
3 617 545 641 
3 29 28 1004 
3 691 692 807 
3 987 988 989 
3 986 421 987 
3 987 421 988 
3 11 12 412 
3 420 69 978 
3 80 79 422 
3 133 421 986 
3 13 376 979 
3 70 69 420 
3 68 396 978 
3 61 374 999 
3 76 395 997 
3 78 77 410 
3 69 68 978 
3 68 67 396 
3 410 77 997 
3 133 134 421 
3 107 108 394 
3 110 111 393 
3 398 132 986 
3 65 64 381 
3 409 62 999 
3 63 62 409 
3 132 133 986 
3 131 132 398 
3 61 60 374 
3 62 61 999 
3 76 75 395 
3 104 105 400 
3 77 76 997 
3 74 73 419 
3 102 103 764 
3 128 129 382 
3 126 127 411 
3 125 126 1001 
3 124 125 372 
3 13 14 376 
3 12 13 979 
3 126 411 1001 
3 16 17 386 
3 372 125 1001 
3 34 33 391 
3 28 27 389 
3 31 30 390 
3 6 7 401 
3 9 10 385 
3 27 26 1002 
3 19 20 399 
3 26 25 413 
3 20 21 1005 
3 21 22 763 
3 412 12 979 
3 389 27 1002 
3 26 413 1002 
3 399 20 1005 
3 21 763 1005 
3 628 629 1013 
3 407 122 972 
3 519 620 621 
3 993 994 996 
3 831 832 833 
3 712 942 945 
3 594 578 1015 
3 563 638 639 
3 1126 827 1219 
3 734 798 1015 
3 621 622 676 
3 412 981 984 
3 578 640 1015 
3 771 772 815 
3 11 412 984 
3 566 565 573 
3 528 526 579 
3 628 577 629 
3 696 628 1013 
3 547 548 549 
3 741 742 866 
3 457 454 1032 
3 536 535 537 
3 640 733 734 
3 844 696 845 
3 687 781 782 
3 759 680 767 
3 675 624 680 
3 820 819 846 
3 534 532 535 
3 577 536 1016 
3 771 759 772 
3 675 759 771 
3 579 526 1038 
3 734 765 797 
3 637 609 715 
3 844 845 874 
3 835 833 836 
3 767 680 1010 
3 614 612 615 
3 530 529 565 
3 574 656 657 
3 593 679 687 
3 799 800 824 
3 966 407 972 
3 675 680 759 
3 734 733 765 
3 973 972 974 
3 892 891 893 
3 818 718 819 
3 564 578 594 
3 640 696 733 
3 743 744 795 
3 733 696 844 
3 818 819 820 
3 560 543 561 
3 835 836 837 
3 806 688 821 
3 830 829 831 
3 623 615 624 
3 657 688 751 
3 687 782 1012 
3 959 957 960 
3 611 613 717 
3 498 502 517 
3 674 624 675 
3 614 623 651 
3 783 676 955 
3 845 696 1013 
3 640 628 696 
3 623 624 674 
3 616 568 654 
3 676 622 677 
3 649 735 811 
3 615 1022 1035 
3 621 620 622 
3 528 579 1014 
3 828 756 829 
3 614 615 623 
3 757 673 814 
3 731 826 827 
3 557 555 576 
3 640 734 1015 
3 613 612 614 
3 961 959 962 
3 717 718 816 
3 678 658 689 
3 955 677 956 
3 578 628 640 
3 657 656 688 
3 831 833 835 
3 676 677 955 
3 751 688 806 
3 677 622 1024 
3 517 518 519 
3 503 499 504 
3 958 959 961 
3 128 382 1036 
3 411 127 1036 
3 629 577 1016 
3 574 616 656 
3 534 535 536 
3 535 532 1014 
3 491 495 496 
3 590 591 653 
3 637 715 716 
3 903 777 1253 
3 519 619 620 
3 726 689 808 
3 656 616 667 
3 717 613 718 
3 816 718 818 
3 719 639 720 
3 755 722 756 
3 608 606 609 
3 574 568 616 
3 791 715 1060 
3 716 715 791 
3 511 568 574 
3 840 839 867 
3 505 504 563 
3 578 577 628 
3 956 957 958 
3 804 887 888 
3 637 716 778 
3 564 536 577 
3 534 536 564 
3 563 639 719 
3 564 577 578 
3 608 609 610 
3 958 957 959 
3 611 612 613 
3 610 609 637 
3 463 464 1059 
3 1022 778 1035 
3 622 683 1024 
3 956 677 957 
3 619 518 779 
3 493 490 494 
3 611 610 612 
3 485 487 520 
3 503 505 511 
3 731 720 799 
3 608 610 611 
3 503 504 505 
3 828 829 830 
3 615 612 1022 
3 564 594 1017 
3 371 924 926 
3 622 620 683 
3 511 505 568 
3 719 720 731 
3 533 532 534 
3 614 651 1021 
3 731 799 826 
3 517 502 518 
3 821 688 1019 
3 611 717 1020 
3 519 518 619 
3 532 528 1014 
3 619 779 780 
3 680 624 1035 
3 502 499 503 
3 527 531 575 
3 687 679 781 
3 531 528 532 
3 960 957 1024 
3 533 534 1017 
3 934 935 1116 
3 688 656 1019 
3 819 718 1021 
3 681 682 788 
3 631 515 1077 
3 613 614 1021 
3 593 687 1031 
3 605 607 665 
3 656 667 1019 
3 832 829 1058 
3 617 641 681 
3 562 561 580 
3 716 791 792 
3 520 521 522 
3 654 568 1025 
3 525 523 526 
3 755 756 828 
3 743 653 744 
3 534 564 1017 
3 612 610 1022 
3 587 589 590 
3 527 526 528 
3 773 666 774 
3 657 751 1057 
3 498 499 502 
3 450 451 452 
3 531 532 533 
3 662 634 708 
3 452 453 454 
3 607 606 608 
3 718 613 1021 
3 665 666 773 
3 957 677 1024 
3 695 597 722 
3 522 523 524 
3 717 816 1046 
3 894 893 895 
3 581 580 649 
3 527 528 531 
3 610 637 1022 
3 491 493 495 
3 495 497 498 
3 563 719 1025 
3 524 525 529 
3 498 517 1029 
3 607 608 1020 
3 665 607 666 
3 467 469 516 
3 1008 497 1030 
3 549 550 551 
3 498 497 499 
3 495 493 497 
3 505 563 1025 
3 573 597 658 
3 486 484 488 
3 637 778 1022 
3 482 484 485 
3 524 523 525 
3 520 487 521 
3 456 457 458 
3 568 505 1025 
3 695 722 755 
3 695 755 860 
3 642 644 787 
3 491 490 493 
3 522 521 523 
3 608 611 1020 
3 496 495 1029 
3 630 632 769 
3 502 503 1023 
3 653 591 1031 
3 489 490 491 
3 503 511 1023 
3 574 657 1049 
3 521 487 721 
3 525 526 527 
3 660 697 698 
3 127 128 1036 
3 478 476 479 
3 482 480 483 
3 489 488 490 
3 666 607 1020 
3 485 486 487 
3 518 502 1023 
3 486 488 489 
3 624 615 1035 
3 779 518 1023 
3 731 827 1045 
3 1025 719 1045 
3 744 653 1031 
3 493 494 1030 
3 478 480 481 
3 485 484 486 
3 593 655 679 
3 654 1025 1045 
3 916 823 1044 
3 1023 511 1049 
3 573 565 597 
3 646 659 660 
3 430 429 431 
3 669 603 690 
3 698 747 748 
3 464 467 1059 
3 644 646 1061 
3 591 592 593 
3 489 949 1033 
3 460 459 461 
3 583 585 586 
3 655 592 668 
3 495 498 1029 
3 482 483 484 
3 481 480 482 
3 779 1023 1049 
3 485 520 1028 
3 478 479 480 
3 474 476 477 
3 497 493 1030 
3 544 542 545 
3 605 606 607 
3 474 472 475 
3 658 597 695 
3 590 589 591 
3 808 689 810 
3 481 482 1028 
3 748 842 843 
3 441 440 442 
3 591 593 1031 
3 433 431 434 
3 723 627 724 
3 481 941 1064 
3 704 861 865 
3 435 434 436 
3 515 451 1051 
3 593 592 655 
3 825 796 862 
3 679 655 694 
3 856 750 857 
3 1010 778 1053 
3 567 545 617 
3 1020 717 1046 
3 604 603 669 
3 477 476 478 
3 516 538 539 
3 753 690 796 
3 527 575 1034 
3 602 604 605 
3 681 788 869 
3 591 589 592 
3 602 600 603 
3 911 1026 1095 
3 695 860 1047 
3 486 489 1033 
3 666 1020 1046 
3 774 666 1046 
3 482 485 1028 
3 529 525 1034 
3 565 529 1037 
3 719 731 1045 
3 551 552 553 
3 470 472 473 
3 474 475 476 
3 454 453 1032 
3 753 796 825 
3 889 891 892 
3 778 716 1053 
3 709 708 766 
3 599 571 627 
3 525 527 1034 
3 791 1060 1076 
3 572 600 601 
3 487 486 1033 
3 470 468 471 
3 602 603 604 
3 669 690 753 
3 609 606 1042 
3 605 604 606 
3 756 722 1071 
3 749 663 750 
3 722 597 1037 
3 526 523 1038 
3 838 740 1114 
3 544 567 598 
3 509 507 513 
3 511 574 1049 
3 473 472 474 
3 790 1092 1104 
3 539 540 541 
3 556 558 582 
3 470 471 472 
3 541 542 543 
3 707 741 1027 
3 721 487 1033 
3 601 916 1074 
3 834 394 1218 
3 85 361 370 
3 523 521 1038 
3 567 617 618 
3 888 889 1009 
3 516 469 538 
3 521 721 1038 
3 605 665 1039 
3 86 362 415 
3 544 545 567 
3 540 538 728 
3 705 707 1027 
3 529 1034 1037 
3 586 585 587 
3 597 565 1037 
3 689 658 1047 
3 543 542 544 
3 606 604 1042 
3 650 648 691 
3 658 695 1047 
3 87 363 375 
3 601 602 1039 
3 811 735 812 
3 604 669 1042 
3 541 540 542 
3 469 468 470 
3 1111 783 1115 
3 595 672 673 
3 715 1042 1060 
3 1049 657 1057 
3 88 364 414 
3 647 645 648 
3 716 792 1053 
3 587 588 589 
3 449 448 450 
3 601 600 602 
3 1080 944 1085 
3 582 558 583 
3 704 699 861 
3 668 592 1041 
3 587 585 588 
3 589 588 1041 
3 539 538 540 
3 915 35 1108 
3 89 365 378 
3 829 756 1058 
3 466 465 547 
3 510 572 1074 
3 557 576 595 
3 810 689 1047 
3 592 589 1041 
3 780 779 1057 
3 561 543 1040 
3 478 481 1064 
3 649 663 735 
3 632 635 1073 
3 509 513 1048 
3 749 750 856 
3 602 605 1039 
3 889 892 1009 
3 600 599 1063 
3 599 627 723 
3 569 625 1011 
3 832 1058 1078 
3 572 599 600 
3 463 920 1084 
3 90 366 416 
3 749 856 900 
3 554 553 555 
3 779 1049 1057 
3 649 580 663 
3 401 7 1081 
3 455 454 456 
3 544 598 1040 
3 723 724 1043 
3 724 803 805 
3 543 544 1040 
3 690 603 1063 
3 464 462 465 
3 646 660 1061 
3 91 367 380 
3 895 897 898 
3 92 368 417 
3 369 92 1052 
3 467 516 1059 
3 83 369 384 
3 737 492 738 
3 458 459 460 
3 470 473 1050 
3 583 558 584 
3 467 468 469 
3 669 753 1060 
3 892 893 894 
3 575 531 1078 
3 735 663 749 
3 477 478 1064 
3 599 723 1063 
3 469 470 1050 
3 833 832 1087 
3 603 600 1063 
3 627 571 1048 
3 545 542 1056 
3 464 466 467 
3 660 659 697 
3 438 440 441 
3 583 584 585 
3 554 555 556 
3 769 632 1073 
3 446 448 449 
3 836 833 1091 
3 572 571 599 
3 467 466 468 
3 642 787 1067 
3 598 567 1055 
3 1042 669 1060 
3 698 697 747 
3 664 510 1074 
3 770 726 1102 
3 538 469 1050 
3 567 618 1055 
3 452 454 455 
3 796 690 1079 
3 748 747 842 
3 540 728 1056 
3 556 555 557 
3 650 691 693 
3 455 492 730 
3 464 465 466 
3 542 540 1056 
3 573 678 1088 
3 556 557 558 
3 728 538 1050 
3 433 434 435 
3 836 1091 1097 
3 435 436 546 
3 647 648 650 
3 430 431 433 
3 427 426 428 
3 441 442 501 
3 750 663 1065 
3 1058 575 1078 
3 510 571 572 
3 724 805 1043 
3 428 429 430 
3 547 549 727 
3 650 693 746 
3 1060 753 1076 
3 456 458 1054 
3 455 456 492 
3 466 547 1062 
3 571 509 1048 
3 708 634 1077 
3 737 738 768 
3 634 631 1077 
3 580 561 1065 
3 746 813 853 
3 471 468 1062 
3 595 673 729 
3 803 804 1086 
3 766 708 876 
3 1104 477 1117 
3 746 693 813 
3 510 509 571 
3 1034 575 1071 
3 460 461 462 
3 729 673 757 
3 1097 798 1101 
3 449 450 559 
3 562 581 1112 
3 697 659 745 
3 757 814 817 
3 1037 1034 1071 
3 670 907 1099 
3 508 510 664 
3 579 1085 1106 
3 468 466 1062 
3 833 1087 1091 
3 730 492 737 
3 547 727 1062 
3 449 559 642 
3 729 757 758 
3 644 645 646 
3 561 1040 1065 
3 843 842 1214 
3 646 647 659 
3 554 936 1083 
3 531 533 1078 
3 753 825 1076 
3 900 377 1118 
3 663 580 1065 
3 463 462 464 
3 642 643 644 
3 1015 798 1097 
3 959 960 1094 
3 646 645 647 
3 572 601 1074 
3 832 1078 1087 
3 722 1037 1071 
3 104 400 1100 
3 764 103 1100 
3 433 435 512 
3 644 643 645 
3 713 1014 1106 
3 441 501 732 
3 738 492 1054 
3 925 1109 1233 
3 460 462 463 
3 34 391 1108 
3 425 424 426 
3 492 456 1054 
3 579 1038 1085 
3 551 553 554 
3 721 1033 1080 
3 642 559 643 
3 444 446 1067 
3 508 509 510 
3 732 501 785 
3 732 785 786 
3 990 989 1143 
3 1033 949 1080 
3 876 708 1077 
3 436 438 1068 
3 546 436 1068 
3 857 750 1093 
3 7 8 1081 
3 584 558 1072 
3 450 452 1069 
3 949 943 1080 
3 92 417 1052 
3 384 369 1052 
3 508 507 509 
3 625 685 1011 
3 1085 944 1106 
3 618 617 1098 
3 558 557 1072 
3 379 911 1095 
3 1063 723 1079 
3 784 783 1111 
3 1078 533 1087 
3 995 992 1113 
3 681 869 1098 
3 559 450 1069 
3 991 990 1113 
3 690 1063 1079 
3 557 595 1072 
3 438 441 1068 
3 446 449 1067 
3 474 477 1104 
3 940 636 1133 
3 723 1043 1079 
3 636 566 1137 
3 455 730 1069 
3 452 455 1069 
3 361 84 1089 
3 595 729 1072 
3 647 650 1075 
3 427 428 432 
3 650 746 1075 
3 699 670 1099 
3 891 890 1131 
3 745 659 1075 
3 736 384 1052 
3 659 647 1075 
3 533 1017 1087 
3 946 643 1103 
3 721 1080 1085 
3 1038 721 1085 
3 804 888 1086 
3 941 940 1130 
3 449 642 1067 
3 920 919 1136 
3 566 573 1088 
3 1054 458 1084 
3 1083 936 1116 
3 948 728 1092 
3 727 549 1083 
3 441 732 1068 
3 727 1083 1116 
3 501 442 1107 
3 750 1065 1093 
3 1065 1040 1093 
3 458 460 1084 
3 506 507 508 
3 1087 1017 1091 
3 1017 594 1091 
3 685 802 1082 
3 501 1107 1125 
3 836 1097 1101 
3 752 859 1138 
3 713 1111 1115 
3 370 361 1089 
3 1091 594 1097 
3 551 554 1083 
3 962 959 1094 
3 1112 581 1171 
3 506 432 507 
3 427 432 506 
3 559 1069 1103 
3 91 380 1105 
3 417 368 1105 
3 594 1015 1097 
3 1133 636 1137 
3 790 1104 1117 
3 617 681 1098 
3 1050 473 1092 
3 549 551 1083 
3 368 91 1105 
3 425 426 427 
3 103 104 1100 
3 1040 598 1093 
3 460 463 1084 
3 749 900 1118 
3 733 844 1128 
3 728 1050 1092 
3 837 836 1101 
3 1116 935 1120 
3 812 735 1118 
3 1069 730 1103 
3 692 946 1127 
3 726 809 1102 
3 490 488 1129 
3 1067 787 1107 
3 1092 473 1104 
3 444 1067 1107 
3 861 699 1099 
3 807 692 1135 
3 473 474 1104 
3 1014 579 1106 
3 442 444 1107 
3 1204 418 1217 
3 919 652 1152 
3 873 370 1190 
3 654 1045 1126 
3 713 1106 1111 
3 660 698 1134 
3 432 428 1110 
3 90 416 1122 
3 35 34 1108 
3 84 360 418 
3 380 367 1122 
3 789 790 1117 
3 783 955 1115 
3 740 739 1114 
3 1146 931 1149 
3 1130 940 1133 
3 643 559 1103 
3 652 562 1112 
3 897 1199 1209 
3 1011 685 1082 
3 944 784 1111 
3 1115 955 1119 
3 1008 1030 1139 
3 423 384 424 
3 428 430 1110 
3 18 874 1175 
3 992 991 1113 
3 817 814 1161 
3 977 639 1140 
3 955 956 1119 
3 471 1120 1141 
3 932 931 1146 
3 936 934 1116 
3 537 713 1115 
3 433 512 1123 
3 1119 956 1121 
3 471 1062 1120 
3 1107 787 1125 
3 823 822 1195 
3 581 649 1147 
3 956 958 1121 
3 537 1115 1119 
3 89 378 1132 
3 475 472 1141 
3 1121 958 1124 
3 395 75 1148 
3 74 419 1148 
3 416 366 1132 
3 1016 537 1119 
3 794 793 1151 
3 873 871 1178 
3 735 749 1118 
3 781 679 1145 
3 1151 793 1153 
3 1136 919 1152 
3 367 90 1122 
3 958 961 1124 
3 9 385 1150 
3 423 424 425 
3 1016 1119 1121 
3 477 1064 1117 
3 1106 944 1111 
3 864 903 1217 
3 1172 410 1246 
3 479 476 1149 
3 1055 925 1170 
3 692 1127 1135 
3 629 1016 1121 
3 629 1121 1124 
3 1120 935 1141 
3 694 976 1226 
3 903 1204 1217 
3 1013 629 1124 
3 1102 809 1109 
3 743 795 1154 
3 787 1061 1125 
3 884 883 1138 
3 785 501 1125 
3 860 374 1213 
3 117 118 1161 
3 24 23 1157 
3 71 70 1158 
3 73 72 1159 
3 483 480 1153 
3 946 1103 1127 
3 1062 727 1120 
3 1045 827 1126 
3 84 418 1089 
3 1010 1053 1155 
3 430 433 1123 
3 83 384 423 
3 48 379 1168 
3 1081 8 1150 
3 403 49 1168 
3 1110 430 1123 
3 488 484 1156 
3 1103 730 1127 
3 483 1153 1154 
3 762 854 1178 
3 1154 795 1156 
3 512 435 1144 
3 765 733 1128 
3 479 1149 1151 
3 785 1125 1134 
3 1161 118 1248 
3 475 1141 1146 
3 890 913 1131 
3 494 490 1129 
3 795 744 1163 
3 730 737 1127 
3 969 588 1215 
3 88 414 1160 
3 378 365 1160 
3 494 1163 1166 
3 789 1117 1130 
3 1054 1084 1136 
3 1125 1061 1134 
3 894 895 1167 
3 366 89 1132 
3 997 395 1169 
3 842 747 1192 
3 727 1116 1120 
3 370 873 1185 
3 883 752 1138 
3 1064 941 1130 
3 732 786 1164 
3 1117 1064 1130 
3 777 1082 1253 
3 788 789 1133 
3 854 760 1177 
3 1084 920 1136 
3 789 1130 1133 
3 1127 737 1135 
3 651 872 1252 
3 1030 494 1166 
3 801 873 1190 
3 788 1133 1137 
3 761 841 1177 
3 1161 814 1231 
3 422 79 1172 
3 78 410 1172 
3 975 372 1174 
3 869 788 1137 
3 638 1139 1140 
3 638 1008 1139 
3 1134 698 1142 
3 737 768 1135 
3 1061 660 1134 
3 475 1146 1149 
3 106 107 1173 
3 409 999 1208 
3 639 638 1140 
3 598 1055 1170 
3 738 1054 1136 
3 821 1019 1143 
3 546 1068 1164 
3 472 471 1141 
3 973 976 1180 
3 935 932 1146 
3 17 18 1175 
3 435 546 1144 
3 679 694 1145 
3 962 1094 1245 
3 786 785 1142 
3 649 811 1147 
3 1129 795 1163 
3 1150 385 1224 
3 738 1136 1152 
3 75 74 1148 
3 967 966 1180 
3 1026 404 1192 
3 905 402 1203 
3 419 1159 1243 
3 862 796 1186 
3 927 387 1167 
3 476 475 1149 
3 479 1151 1153 
3 923 922 1182 
3 397 117 1161 
3 8 9 1150 
3 962 1245 1259 
3 494 1129 1163 
3 931 794 1151 
3 87 375 1176 
3 414 364 1176 
3 822 773 1183 
3 1141 935 1146 
3 1057 751 1179 
3 691 807 1184 
3 381 64 1188 
3 63 409 1188 
3 480 479 1153 
3 408 954 1195 
3 817 1161 1248 
3 86 415 1181 
3 970 969 1215 
3 375 363 1181 
3 768 738 1152 
3 793 743 1154 
3 1149 931 1151 
3 971 758 1207 
3 815 1172 1246 
3 1153 793 1154 
3 767 1010 1155 
3 675 771 1193 
3 1007 24 1157 
3 70 420 1158 
3 419 73 1159 
3 483 1154 1156 
3 365 88 1160 
3 484 483 1156 
3 66 65 1194 
3 85 370 1185 
3 415 362 1185 
3 857 1093 1170 
3 1000 393 1183 
3 772 759 1196 
3 785 1134 1142 
3 811 812 1189 
3 897 899 1199 
3 848 846 1200 
3 1163 1012 1166 
3 744 1012 1163 
3 1169 395 1249 
3 1184 811 1189 
3 392 115 1223 
3 764 1100 1165 
3 847 849 1165 
3 846 819 1200 
3 729 758 1197 
3 1012 782 1166 
3 792 1004 1227 
3 1021 651 1200 
3 377 900 1230 
3 895 898 1167 
3 1068 732 1164 
3 1079 1043 1186 
3 683 620 1206 
3 619 780 1206 
3 860 755 1208 
3 373 971 1207 
3 806 1150 1224 
3 49 48 1168 
3 6 401 1211 
3 1100 847 1165 
3 924 925 1233 
3 799 824 1212 
3 382 996 1219 
3 31 390 1216 
3 109 1000 1218 
3 1076 390 1221 
3 923 1182 1257 
3 394 108 1218 
3 397 1161 1231 
3 1007 1157 1198 
3 654 1126 1237 
3 792 791 1221 
3 67 66 1220 
3 892 894 1203 
3 584 1072 1197 
3 954 951 1191 
3 982 980 1222 
3 807 1147 1184 
3 52 377 1230 
3 998 997 1169 
3 405 53 1230 
3 758 757 1207 
3 835 837 1194 
3 585 584 1215 
3 990 1143 1242 
3 406 1018 1228 
3 915 805 1229 
3 825 862 1216 
3 818 820 1173 
3 425 427 1201 
3 871 762 1178 
3 927 1167 1244 
3 985 981 1236 
3 802 1204 1253 
3 1147 811 1184 
3 105 106 1234 
3 805 803 1229 
3 3 80 1238 
3 23 3 1238 
3 134 0 1239 
3 0 4 1239 
3 72 1 1240 
3 1 102 1240 
3 2 71 1241 
3 22 2 1241 
3 988 421 1239 
3 119 373 1248 
3 1101 798 1210 
3 746 853 1225 
3 667 616 1237 
3 831 835 1261 
3 16 386 1259 
3 376 14 1245 
3 872 850 1252 
3 1041 969 1247 
3 807 1135 1171 
3 1126 995 1237 
3 1024 683 1255 
3 1167 898 1244 
3 79 78 1172 
3 1094 376 1245 
3 849 851 1243 
3 745 1026 1256 
3 1199 937 1209 
3 1164 786 1199 
3 107 394 1173 
3 768 1112 1171 
3 1086 888 1235 
3 751 806 1224 
3 372 1001 1174 
3 697 745 1256 
3 1093 598 1170 
3 969 967 1247 
3 852 1169 1249 
3 978 396 1210 
3 745 1075 1225 
3 1095 745 1225 
3 386 17 1175 
3 863 864 1217 
3 364 87 1176 
3 760 761 1177 
3 951 953 1191 
3 1135 768 1171 
3 1053 792 1227 
3 922 405 1182 
3 966 973 1180 
3 975 1174 1226 
3 363 86 1181 
3 872 674 1205 
3 780 1057 1179 
3 1043 805 1251 
3 1143 1019 1242 
3 856 857 1182 
3 773 774 1183 
3 917 403 1187 
3 693 691 1184 
3 953 952 1201 
3 947 810 1213 
3 805 1108 1251 
3 1157 422 1198 
3 362 85 1185 
3 796 1079 1186 
3 404 908 1192 
3 1182 857 1257 
3 693 1184 1189 
3 64 63 1188 
3 899 1164 1199 
3 81 863 1258 
3 802 801 1190 
3 898 897 1209 
3 664 1044 1191 
3 765 1006 1202 
3 813 693 1189 
3 381 1188 1261 
3 674 675 1193 
3 377 917 1250 
3 1047 860 1213 
3 810 1047 1213 
3 1179 985 1236 
3 65 381 1194 
3 963 408 1195 
3 759 767 1196 
3 976 975 1226 
3 771 815 1246 
3 852 872 1205 
3 988 5 1211 
3 1072 729 1197 
3 786 937 1199 
3 390 1003 1221 
3 815 772 1198 
3 1118 377 1250 
3 819 1021 1200 
3 411 1036 1212 
3 902 864 1231 
3 1036 826 1212 
3 870 694 1226 
3 360 81 1258 
3 683 1222 1255 
3 797 765 1202 
3 1009 892 1203 
3 427 506 1201 
3 620 619 1206 
3 755 828 1208 
3 809 1018 1233 
3 1187 403 1232 
3 1026 1192 1256 
3 937 843 1209 
3 1174 870 1226 
3 757 817 1207 
3 798 797 1210 
3 989 988 1211 
3 5 6 1211 
3 1089 418 1204 
3 826 799 1212 
3 374 947 1213 
3 383 928 1214 
3 1155 1053 1227 
3 403 1168 1232 
3 1109 809 1233 
3 1200 651 1252 
3 32 31 1216 
3 588 585 1215 
3 108 109 1218 
3 967 1180 1247 
3 996 994 1219 
3 396 67 1220 
3 952 392 1223 
3 1113 990 1242 
3 980 983 1222 
3 1214 928 1244 
3 791 1076 1221 
3 388 915 1229 
3 385 985 1224 
3 814 902 1231 
3 1188 830 1261 
3 1157 23 1238 
3 71 1158 1241 
3 1159 72 1240 
3 1018 924 1233 
3 667 1113 1242 
3 1186 1043 1251 
3 382 1219 1260 
3 938 406 1228 
3 1086 388 1229 
3 864 397 1231 
3 1075 746 1225 
3 674 1193 1205 
3 1004 389 1227 
3 53 52 1230 
3 395 1148 1249 
3 928 927 1244 
3 803 1086 1229 
3 1169 852 1205 
3 1214 1244 1254 
3 981 982 1236 
3 400 105 1234 
3 853 813 1232 
3 80 422 1238 
3 421 134 1239 
3 102 764 1240 
3 763 22 1241 
3 616 654 1237 
3 925 923 1257 
3 888 1009 1235 
3 389 1155 1227 
3 1019 667 1242 
3 1204 903 1253 
3 14 15 1245 
3 410 998 1246 
3 118 119 1248 
3 1108 391 1251 
3 851 852 1249 
3 668 1041 1247 
3 850 848 1252 
3 1168 853 1232 
3 1245 15 1259 
3 418 360 1258 
3 780 1179 1236 
3 960 1024 1255 
3 15 16 1259 
3 812 1118 1250 
3 983 376 1262 
3 1094 960 1262 
3 827 826 1260 
3 830 831 1261 
3 747 697 1256 
3 1082 802 1253 
3 422 1157 1238 
3 1158 763 1241 
3 764 1159 1240 
3 1148 851 1249 
3 1255 983 1262 
3 960 1255 1262 
3 376 1094 1262 
3 857 1170 1257 
3 1180 668 1247 
3 1192 747 1256 
3 1165 849 1243 
3 391 1186 1251 
3 1170 925 1257 
3 848 1200 1252 
3 898 1209 1254 
3 1187 812 1250 
3 917 1187 1250 
3 1217 418 1258 
3 1209 843 1254 
3 843 1214 1254 
3 1219 827 1260 
3 1222 983 1255 
3 863 1217 1258 
3 1244 898 1254 
3 163 164 165 
3 162 163 165 
3 162 165 166 
3 161 162 166 
3 161 166 167 
3 160 161 167 
3 160 167 168 
3 159 160 168 
3 159 168 169 
3 158 159 169 
3 158 169 170 
3 157 158 170 
3 157 170 171 
3 156 157 171 
3 156 171 172 
3 155 156 172 
3 155 172 173 
3 154 155 173 
3 154 173 174 
3 153 154 174 
3 153 174 175 
3 152 153 175 
3 152 175 176 
3 136 84 1263 
3 151 152 176 
3 177 151 176 
3 177 150 151 
3 135 136 1263 
3 150 177 178 
3 149 150 178 
3 191 84 136 
3 149 178 179 
3 148 149 179 
3 148 179 180 
3 147 148 180 
3 147 180 181 
3 146 147 181 
3 146 181 182 
3 145 146 182 
3 183 145 182 
3 84 360 1263 
3 144 145 183 
3 144 183 184 
3 143 144 184 
3 143 184 185 
3 142 143 185 
3 141 142 186 
3 142 185 186 
3 140 141 187 
3 141 186 187 
3 139 140 188 
3 140 187 188 
3 139 189 138 
3 189 139 188 
3 190 137 138 
3 191 136 137 
3 189 190 138 
3 190 191 137 
3 360 135 1263 
3 82 93 1264 
3 164 163 1264 
3 163 82 1264 
3 93 164 1264 
3 360 81 135 
3 165 217 164 
3 216 217 165 
3 166 216 165 
3 215 216 166 
3 167 215 166 
3 214 215 167 
3 168 214 167 
3 213 214 168 
3 169 213 168 
3 212 213 169 
3 170 212 169 
3 211 212 170 
3 211 170 171 
3 210 211 171 
3 172 210 171 
3 209 210 172 
3 173 209 172 
3 208 209 173 
3 174 208 173 
3 207 208 174 
3 207 174 175 
3 206 207 175 
3 85 190 1265 
3 206 175 176 
3 205 206 176 
3 205 176 177 
3 85 192 190 
3 204 205 177 
3 204 177 178 
3 203 204 178 
3 203 178 179 
3 202 203 179 
3 190 191 1265 
3 180 202 179 
3 201 202 180 
3 201 180 181 
3 200 201 181 
3 200 181 182 
3 199 200 182 
3 199 182 183 
3 198 199 183 
3 198 183 184 
3 197 198 184 
3 197 184 185 
3 196 197 185 
3 361 85 1265 
3 195 196 186 
3 196 185 186 
3 194 195 187 
3 195 186 187 
3 193 194 188 
3 194 187 188 
3 192 193 189 
3 189 193 188 
3 192 189 190 
3 191 361 1265 
3 94 93 1266 
3 164 217 1266 
3 217 94 1266 
3 93 164 1266 
3 191 84 361 
3 242 241 217 
3 241 216 217 
3 241 240 216 
3 240 215 216 
3 240 239 215 
3 239 214 215 
3 239 238 214 
3 238 213 214 
3 238 237 213 
3 237 212 213 
3 237 236 212 
3 236 211 212 
3 236 235 211 
3 235 210 211 
3 235 234 210 
3 210 234 209 
3 234 233 209 
3 233 208 209 
3 233 232 208 
3 232 207 208 
3 193 86 1267 
3 232 231 207 
3 231 206 207 
3 231 230 206 
3 192 193 1267 
3 230 205 206 
3 230 229 205 
3 218 86 193 
3 229 204 205 
3 229 228 204 
3 228 203 204 
3 228 227 203 
3 227 202 203 
3 227 226 202 
3 226 201 202 
3 226 225 201 
3 201 225 200 
3 86 362 1267 
3 225 224 200 
3 200 224 199 
3 224 223 199 
3 199 223 198 
3 222 197 198 
3 223 222 198 
3 197 221 196 
3 222 221 197 
3 196 220 195 
3 221 220 196 
3 195 219 194 
3 218 193 194 
3 220 219 195 
3 219 218 194 
3 362 192 1267 
3 94 95 1268 
3 242 217 1268 
3 217 94 1268 
3 95 242 1268 
3 192 362 85 
3 241 242 243 
3 241 243 244 
3 240 241 244 
3 245 240 244 
3 239 240 245 
3 246 239 245 
3 238 239 246 
3 247 238 246 
3 237 238 247 
3 248 237 247 
3 236 237 248 
3 249 236 248 
3 235 236 249 
3 250 235 249 
3 234 235 250 
3 251 234 250 
3 233 234 251 
3 233 251 252 
3 232 233 252 
3 219 87 1269 
3 253 232 252 
3 231 232 253 
3 231 253 254 
3 87 219 265 
3 230 231 254 
3 230 254 255 
3 229 230 255 
3 229 255 256 
3 228 229 256 
3 218 219 1269 
3 228 256 257 
3 227 228 257 
3 227 257 258 
3 226 227 258 
3 226 258 259 
3 225 226 259 
3 225 259 260 
3 224 225 260 
3 224 260 261 
3 223 224 261 
3 223 261 262 
3 87 363 1269 
3 222 262 263 
3 222 223 262 
3 221 263 264 
3 221 222 263 
3 220 264 265 
3 220 221 264 
3 219 220 265 
3 363 218 1269 
3 95 96 1270 
3 243 242 1270 
3 96 243 1270 
3 242 95 1270 
3 218 363 86 
3 243 286 287 
3 243 244 286 
3 244 285 286 
3 244 245 285 
3 245 284 285 
3 245 246 284 
3 246 283 284 
3 246 247 283 
3 247 282 283 
3 247 248 282 
3 248 281 282 
3 248 249 281 
3 249 280 281 
3 249 250 280 
3 280 250 279 
3 250 251 279 
3 251 278 279 
3 251 252 278 
3 88 264 1271 
3 252 277 278 
3 252 253 277 
3 253 276 277 
3 264 265 1271 
3 276 253 254 
3 264 88 266 
3 275 276 254 
3 255 275 254 
3 274 275 255 
3 256 274 255 
3 274 256 273 
3 256 257 273 
3 273 257 272 
3 257 258 272 
3 364 88 1271 
3 272 258 271 
3 258 259 271 
3 271 259 270 
3 259 260 270 
3 260 261 269 
3 260 269 270 
3 261 262 268 
3 269 261 268 
3 262 263 267 
3 263 264 266 
3 268 262 267 
3 267 263 266 
3 265 364 1271 
3 97 96 1272 
3 243 287 1272 
3 96 243 1272 
3 287 97 1272 
3 364 265 87 
3 286 287 288 
3 286 288 289 
3 285 286 289 
3 285 289 290 
3 284 285 290 
3 291 284 290 
3 291 283 284 
3 291 292 283 
3 292 282 283 
3 292 293 282 
3 293 281 282 
3 293 294 281 
3 294 280 281 
3 294 295 280 
3 280 295 279 
3 295 296 279 
3 296 278 279 
3 267 89 1273 
3 296 297 278 
3 297 277 278 
3 307 89 267 
3 297 298 277 
3 298 276 277 
3 298 299 276 
3 276 299 275 
3 299 300 275 
3 266 267 1273 
3 275 300 274 
3 300 301 274 
3 274 301 273 
3 301 302 273 
3 273 302 272 
3 302 303 272 
3 272 303 271 
3 303 304 271 
3 271 304 270 
3 304 305 270 
3 89 365 1273 
3 305 306 269 
3 305 269 270 
3 306 307 268 
3 269 306 268 
3 268 307 267 
3 365 266 1273 
3 97 98 1274 
3 288 287 1274 
3 98 288 1274 
3 287 97 1274 
3 365 88 266 
3 325 326 288 
3 289 325 288 
3 324 325 289 
3 290 324 289 
3 323 324 290 
3 291 323 290 
3 322 323 291 
3 292 322 291 
3 321 322 292 
3 321 292 293 
3 320 321 293 
3 294 320 293 
3 319 320 294 
3 295 319 294 
3 318 319 295 
3 296 318 295 
3 90 306 1275 
3 317 318 296 
3 317 296 297 
3 306 307 1275 
3 317 297 316 
3 316 297 298 
3 306 90 308 
3 315 316 298 
3 315 298 299 
3 314 315 299 
3 314 299 300 
3 313 314 300 
3 301 313 300 
3 366 90 1275 
3 312 313 301 
3 312 301 302 
3 311 312 302 
3 311 302 303 
3 310 303 304 
3 310 311 303 
3 304 305 309 
3 310 304 309 
3 305 306 308 
3 305 308 309 
3 307 366 1275 
3 99 98 1276 
3 288 326 1276 
3 98 288 1276 
3 326 99 1276 
3 307 89 366 
3 325 326 327 
3 328 325 327 
3 324 325 328 
3 329 324 328 
3 323 324 329 
3 330 323 329 
3 322 323 330 
3 331 322 330 
3 321 322 331 
3 332 321 331 
3 320 321 332 
3 333 320 332 
3 319 320 333 
3 319 333 334 
3 318 319 334 
3 309 91 1277 
3 335 318 334 
3 91 309 343 
3 318 335 317 
3 335 336 317 
3 317 336 316 
3 336 337 316 
3 337 315 316 
3 315 337 338 
3 308 309 1277 
3 315 338 314 
3 338 339 314 
3 339 313 314 
3 339 340 313 
3 340 312 313 
3 341 312 340 
3 312 341 311 
3 311 341 342 
3 310 342 343 
3 310 311 342 
3 91 367 1277 
3 309 310 343 
3 367 308 1277 
3 99 100 1278 
3 327 326 1278 
3 100 327 1278 
3 326 99 1278 
3 90 308 367 
3 358 359 327 
3 328 358 327 
3 357 358 328 
3 329 357 328 
3 356 357 329 
3 330 356 329 
3 355 356 330 
3 331 355 330 
3 354 355 331 
3 332 354 331 
3 353 354 332 
3 333 353 332 
3 352 353 333 
3 92 342 1279 
3 352 333 334 
3 351 352 334 
3 342 343 1279 
3 335 351 334 
3 351 335 350 
3 342 92 344 
3 335 336 350 
3 336 349 350 
3 336 337 349 
3 337 348 349 
3 337 338 348 
3 368 92 1279 
3 338 347 348 
3 338 339 347 
3 339 340 346 
3 339 346 347 
3 340 341 345 
3 340 345 346 
3 341 342 344 
3 341 344 345 
3 343 368 1279 
3 101 100 1280 
3 327 359 1280 
3 100 327 1280 
3 359 101 1280 
3 91 368 343 
3 358 359 102 
3 358 102 103 
3 357 358 103 
3 357 103 104 
3 356 357 104 
3 356 104 105 
3 355 356 105 
3 355 105 106 
3 354 355 106 
3 354 106 107 
3 353 354 107 
3 353 107 108 
3 345 83 1281 
3 352 353 108 
3 115 83 345 
3 352 108 109 
3 351 352 109 
3 110 351 109 
3 350 351 110 
3 111 350 110 
3 349 350 111 
3 349 111 112 
3 344 345 1281 
3 349 112 348 
3 112 113 348 
3 113 347 348 
3 113 114 347 
3 114 115 346 
3 347 114 346 
3 346 115 345 
3 83 369 1281 
3 369 344 1281 
3 101 1 1282 
3 102 359 1282 
3 1 102 1282 
3 359 101 1282 
3 369 92 344 

CELL_TYPES 2424
5
5
5
5
5
5
5
5
5
5
5
5
5
5
5
5
5
5
5
5
5
5
5
5
5
5
5
5
5
5
5
5
5
5
5
5
5
5
5
5
5
5
5
5
5
5
5
5
5
5
5
5
5
5
5
5
5
5
5
5
5
5
5
5
5
5
5
5
5
5
5
5
5
5
5
5
5
5
5
5
5
5
5
5
5
5
5
5
5
5
5
5
5
5
5
5
5
5
5
5
5
5
5
5
5
5
5
5
5
5
5
5
5
5
5
5
5
5
5
5
5
5
5
5
5
5
5
5
5
5
5
5
5
5
5
5
5
5
5
5
5
5
5
5
5
5
5
5
5
5
5
5
5
5
5
5
5
5
5
5
5
5
5
5
5
5
5
5
5
5
5
5
5
5
5
5
5
5
5
5
5
5
5
5
5
5
5
5
5
5
5
5
5
5
5
5
5
5
5
5
5
5
5
5
5
5
5
5
5
5
5
5
5
5
5
5
5
5
5
5
5
5
5
5
5
5
5
5
5
5
5
5
5
5
5
5
5
5
5
5
5
5
5
5
5
5
5
5
5
5
5
5
5
5
5
5
5
5
5
5
5
5
5
5
5
5
5
5
5
5
5
5
5
5
5
5
5
5
5
5
5
5
5
5
5
5
5
5
5
5
5
5
5
5
5
5
5
5
5
5
5
5
5
5
5
5
5
5
5
5
5
5
5
5
5
5
5
5
5
5
5
5
5
5
5
5
5
5
5
5
5
5
5
5
5
5
5
5
5
5
5
5
5
5
5
5
5
5
5
5
5
5
5
5
5
5
5
5
5
5
5
5
5
5
5
5
5
5
5
5
5
5
5
5
5
5
5
5
5
5
5
5
5
5
5
5
5
5
5
5
5
5
5
5
5
5
5
5
5
5
5
5
5
5
5
5
5
5
5
5
5
5
5
5
5
5
5
5
5
5
5
5
5
5
5
5
5
5
5
5
5
5
5
5
5
5
5
5
5
5
5
5
5
5
5
5
5
5
5
5
5
5
5
5
5
5
5
5
5
5
5
5
5
5
5
5
5
5
5
5
5
5
5
5
5
5
5
5
5
5
5
5
5
5
5
5
5
5
5
5
5
5
5
5
5
5
5
5
5
5
5
5
5
5
5
5
5
5
5
5
5
5
5
5
5
5
5
5
5
5
5
5
5
5
5
5
5
5
5
5
5
5
5
5
5
5
5
5
5
5
5
5
5
5
5
5
5
5
5
5
5
5
5
5
5
5
5
5
5
5
5
5
5
5
5
5
5
5
5
5
5
5
5
5
5
5
5
5
5
5
5
5
5
5
5
5
5
5
5
5
5
5
5
5
5
5
5
5
5
5
5
5
5
5
5
5
5
5
5
5
5
5
5
5
5
5
5
5
5
5
5
5
5
5
5
5
5
5
5
5
5
5
5
5
5
5
5
5
5
5
5
5
5
5
5
5
5
5
5
5
5
5
5
5
5
5
5
5
5
5
5
5
5
5
5
5
5
5
5
5
5
5
5
5
5
5
5
5
5
5
5
5
5
5
5
5
5
5
5
5
5
5
5
5
5
5
5
5
5
5
5
5
5
5
5
5
5
5
5
5
5
5
5
5
5
5
5
5
5
5
5
5
5
5
5
5
5
5
5
5
5
5
5
5
5
5
5
5
5
5
5
5
5
5
5
5
5
5
5
5
5
5
5
5
5
5
5
5
5
5
5
5
5
5
5
5
5
5
5
5
5
5
5
5
5
5
5
5
5
5
5
5
5
5
5
5
5
5
5
5
5
5
5
5
5
5
5
5
5
5
5
5
5
5
5
5
5
5
5
5
5
5
5
5
5
5
5
5
5
5
5
5
5
5
5
5
5
5
5
5
5
5
5
5
5
5
5
5
5
5
5
5
5
5
5
5
5
5
5
5
5
5
5
5
5
5
5
5
5
5
5
5
5
5
5
5
5
5
5
5
5
5
5
5
5
5
5
5
5
5
5
5
5
5
5
5
5
5
5
5
5
5
5
5
5
5
5
5
5
5
5
5
5
5
5
5
5
5
5
5
5
5
5
5
5
5
5
5
5
5
5
5
5
5
5
5
5
5
5
5
5
5
5
5
5
5
5
5
5
5
5
5
5
5
5
5
5
5
5
5
5
5
5
5
5
5
5
5
5
5
5
5
5
5
5
5
5
5
5
5
5
5
5
5
5
5
5
5
5
5
5
5
5
5
5
5
5
5
5
5
5
5
5
5
5
5
5
5
5
5
5
5
5
5
5
5
5
5
5
5
5
5
5
5
5
5
5
5
5
5
5
5
5
5
5
5
5
5
5
5
5
5
5
5
5
5
5
5
5
5
5
5
5
5
5
5
5
5
5
5
5
5
5
5
5
5
5
5
5
5
5
5
5
5
5
5
5
5
5
5
5
5
5
5
5
5
5
5
5
5
5
5
5
5
5
5
5
5
5
5
5
5
5
5
5
5
5
5
5
5
5
5
5
5
5
5
5
5
5
5
5
5
5
5
5
5
5
5
5
5
5
5
5
5
5
5
5
5
5
5
5
5
5
5
5
5
5
5
5
5
5
5
5
5
5
5
5
5
5
5
5
5
5
5
5
5
5
5
5
5
5
5
5
5
5
5
5
5
5
5
5
5
5
5
5
5
5
5
5
5
5
5
5
5
5
5
5
5
5
5
5
5
5
5
5
5
5
5
5
5
5
5
5
5
5
5
5
5
5
5
5
5
5
5
5
5
5
5
5
5
5
5
5
5
5
5
5
5
5
5
5
5
5
5
5
5
5
5
5
5
5
5
5
5
5
5
5
5
5
5
5
5
5
5
5
5
5
5
5
5
5
5
5
5
5
5
5
5
5
5
5
5
5
5
5
5
5
5
5
5
5
5
5
5
5
5
5
5
5
5
5
5
5
5
5
5
5
5
5
5
5
5
5
5
5
5
5
5
5
5
5
5
5
5
5
5
5
5
5
5
5
5
5
5
5
5
5
5
5
5
5
5
5
5
5
5
5
5
5
5
5
5
5
5
5
5
5
5
5
5
5
5
5
5
5
5
5
5
5
5
5
5
5
5
5
5
5
5
5
5
5
5
5
5
5
5
5
5
5
5
5
5
5
5
5
5
5
5
5
5
5
5
5
5
5
5
5
5
5
5
5
5
5
5
5
5
5
5
5
5
5
5
5
5
5
5
5
5
5
5
5
5
5
5
5
5
5
5
5
5
5
5
5
5
5
5
5
5
5
5
5
5
5
5
5
5
5
5
5
5
5
5
5
5
5
5
5
5
5
5
5
5
5
5
5
5
5
5
5
5
5
5
5
5
5
5
5
5
5
5
5
5
5
5
5
5
5
5
5
5
5
5
5
5
5
5
5
5
5
5
5
5
5
5
5
5
5
5
5
5
5
5
5
5
5
5
5
5
5
5
5
5
5
5
5
5
5
5
5
5
5
5
5
5
5
5
5
5
5
5
5
5
5
5
5
5
5
5
5
5
5
5
5
5
5
5
5
5
5
5
5
5
5
5
5
5
5
5
5
5
5
5
5
5
5
5
5
5
5
5
5
5
5
5
5
5
5
5
5
5
5
5
5
5
5
5
5
5
5
5
5
5
5
5
5
5
5
5
5
5
5
5
5
5
5
5
5
5
5
5
5
5
5
5
5
5
5
5
5
5
5
5
5
5
5
5
5
5
5
5
5
5
5
5
5
5
5
5
5
5
5
5
5
5
5
5
5
5
5
5
5
5
5
5
5
5
5
5
5
5
5
5
5
5
5
5
5
5
5
5
5
5
5
5
5
5
5
5
5
5
5
5
5
5
5
5
5
5
5
5
5
5
5
5
5
5
5
5
5
5
5
5
5
5
5
5
5
5
5
5
5
5
5
5
5
5
5
5
5
5
5
5
5
5
5
5
5
5
5
5
5
5
5
5
5
5
5
5
5
5
5
5
5
5
5
5
5
5
5
5
5
5
5
5
5
5
5
5
5
5
5
5
5
5
5
5
5
5
5
5
5
5
5
5
5
5
5
5
5
5
5
5
5
5
5
5
5
5
5
5
5
5
5
5
5
5
5
5
5
5
5
5
5
5
5
5
5
5
5
5
5
5
5
5
5
5
5
5
5
5
5
5
5
5
5
5
5
5
5
5
5
5
5
5
5
5
5
5
5
5
5
5
5
5
5
5
5
5
5
5
5
5
5
5
5
5
5
5
5
5
5
5
5
5
5
5
5
5
5
5
5
5
5
5
5
5
5
5
5
5
5
5
5
5
5
5
5
5
5
5
5
5
5
5
5
5
5
5
5
5
5
5
5
5
5
5
5
5
5
5
5
5
5
5
5
5
5
5
5
5
5
5
5
5
5
5
5
5
5
5
5
5
5
5
5
5
5
5
5
5
5
5
5
5
5
5
5
5
5
5
5
5
5
5
5
5
5
5
5
5
5
5
5
5
5
5
5
5
5
5
5
5
5
5
5
5
5
5
5
5
5
5
5
5
5
5
5
5
5
5
5
5
5
5
5
5
5
5
5
5
5
5
5
5
5
5
5
5
5
5
5
5
5
5
5
5
5
5
5
5
5
5
5
5
5
5
5
5
5
5
5
5
5
5
5
5
5
5
5
5
5
5
5
5
5
5
5
5
5
5
5
5
5
5
5
5
5
5
5
5
5
5
5
5
5
5
5
5
5
5
5
5
5
5
5
5
5
5
5
5
5
5
5
5
5
5
5
5
5
5
5
5
5
5
5
5
5
5
5
5
5
5
5
5
5
5
5
5
5
5
5
5
5
5
5
5
5
5
5
5
5
5
5
5
5
5
5
5
5
5
5
5
5
5
5
5
5
5
5
5
5
5
5
5
5
5
5
5
5
5
5
5
5
5
5
5
5
5
5
5
5
5
5
5
5
5
5
5
5
5
5
5
5
5
5
5
5
5
5
5
5
5
5
5
5
5
5
5
5
5
5
5
5
5
5
5
5
5
5
5
5
5
5
5
5
5
5
5
5
5
5
5
5
5
5
5
5
5
5
5
5
5
5
5
5
5
5
5
5
5
5
5
5
5
5
5
5
5
5
5
5
5
5
5
5
5
5
5
5
5
5
5
5
5
5
5
5
5
5
5
5
5
5
5
5
5
5
5
5
5
5
5
5
5
5
5
5
5
5
5
5
5
5
5
5
5
5
5
5
5
5
5
5
5
5
5
5
5
5
5
5
5
5
5
5
5
5
5
5
5
5
5
5
5
5
5
5
5
5
5
5
5
5
5
5
5
5
5
5
5
5
5
5
5
5
5
5
5
5
5
5
5
5
5
5
5
5
5
5
5
5
5
5
5
5
5
5
5
5
5
5
5
5
5
5
5
5
5
5
5
5
5
5
5
5
5
5
5
5
5
5
5
5
5
5
5
5
5
5
5
5
5
5
5
5
5
5
5
5
5
5
5
5
5
5
5
5
5
5
5
5
5
5
5

POINT_DATA 1283

VECTORS coord float
0.0 0.0 0.0 
5.000000000000e+01 -1.000000000000e+01 0.0 
0.0 -2.000000000000e+01 0.0 
5.000000000000e+01 -2.000000000000e+01 0.0 
0.0 -9.999999999991e-01 0.0 
0.0 -1.999999999998e+00 0.0 
0.0 -2.999999999997e+00 0.0 
0.0 -3.999999999994e+00 0.0 
0.0 -4.999999999991e+00 0.0 
0.0 -5.999999999988e+00 0.0 
0.0 -6.999999999985e+00 0.0 
0.0 -7.999999999982e+00 0.0 
0.0 -8.999999999983e+00 0.0 
0.0 -9.999999999985e+00 0.0 
0.0 -1.099999999999e+01 0.0 
0.0 -1.199999999999e+01 0.0 
0.0 -1.299999999999e+01 0.0 
0.0 -1.399999999999e+01 0.0 
0.0 -1.499999999999e+01 0.0 
0.0 -1.599999999999e+01 0.0 
0.0 -1.700000000000e+01 0.0 
0.0 -1.800000000000e+01 0.0 
0.0 -1.900000000000e+01 0.0 
4.900000000001e+01 -2.000000000000e+01 0.0 
4.800000000001e+01 -2.000000000000e+01 0.0 
4.700000000002e+01 -2.000000000000e+01 0.0 
4.600000000003e+01 -2.000000000000e+01 0.0 
4.500000000004e+01 -2.000000000000e+01 0.0 
4.400000000004e+01 -2.000000000000e+01 0.0 
4.300000000005e+01 -2.000000000000e+01 0.0 
4.200000000006e+01 -2.000000000000e+01 0.0 
4.100000000006e+01 -2.000000000000e+01 0.0 
4.000000000007e+01 -2.000000000000e+01 0.0 
3.900000000008e+01 -2.000000000000e+01 0.0 
3.800000000009e+01 -2.000000000000e+01 0.0 
3.700000000009e+01 -2.000000000000e+01 0.0 
3.600000000010e+01 -2.000000000000e+01 0.0 
3.500000000011e+01 -2.000000000000e+01 0.0 
3.400000000011e+01 -2.000000000000e+01 0.0 
3.300000000012e+01 -2.000000000000e+01 0.0 
3.200000000013e+01 -2.000000000000e+01 0.0 
3.100000000013e+01 -2.000000000000e+01 0.0 
3.000000000013e+01 -2.000000000000e+01 0.0 
2.900000000013e+01 -2.000000000000e+01 0.0 
2.800000000013e+01 -2.000000000000e+01 0.0 
2.700000000013e+01 -2.000000000000e+01 0.0 
2.600000000013e+01 -2.000000000000e+01 0.0 
2.500000000013e+01 -2.000000000000e+01 0.0 
2.400000000013e+01 -2.000000000000e+01 0.0 
2.300000000013e+01 -2.000000000000e+01 0.0 
2.200000000013e+01 -2.000000000000e+01 0.0 
2.100000000013e+01 -2.000000000000e+01 0.0 
2.000000000013e+01 -2.000000000000e+01 0.0 
1.900000000013e+01 -2.000000000000e+01 0.0 
1.800000000013e+01 -2.000000000000e+01 0.0 
1.700000000012e+01 -2.000000000000e+01 0.0 
1.600000000011e+01 -2.000000000000e+01 0.0 
1.500000000011e+01 -2.000000000000e+01 0.0 
1.400000000010e+01 -2.000000000000e+01 0.0 
1.300000000009e+01 -2.000000000000e+01 0.0 
1.200000000009e+01 -2.000000000000e+01 0.0 
1.100000000008e+01 -2.000000000000e+01 0.0 
1.000000000007e+01 -2.000000000000e+01 0.0 
9.000000000064e+00 -2.000000000000e+01 0.0 
8.000000000057e+00 -2.000000000000e+01 0.0 
7.000000000050e+00 -2.000000000000e+01 0.0 
6.000000000043e+00 -2.000000000000e+01 0.0 
5.000000000036e+00 -2.000000000000e+01 0.0 
4.000000000028e+00 -2.000000000000e+01 0.0 
3.000000000021e+00 -2.000000000000e+01 0.0 
2.000000000014e+00 -2.000000000000e+01 0.0 
1.000000000007e+00 -2.000000000000e+01 0.0 
5.000000000000e+01 -1.100000000000e+01 0.0 
5.000000000000e+01 -1.200000000000e+01 0.0 
5.000000000000e+01 -1.300000000000e+01 0.0 
5.000000000000e+01 -1.400000000000e+01 0.0 
5.000000000000e+01 -1.500000000000e+01 0.0 
5.000000000000e+01 -1.600000000000e+01 0.0 
5.000000000000e+01 -1.700000000000e+01 0.0 
5.000000000000e+01 -1.800000000000e+01 0.0 
5.000000000000e+01 -1.900000000000e+01 0.0 
2.000000000000e+01 0.0 0.0 
5.000000000000e+01 0.0 0.0 
3.500000000000e+01 -1.000000000000e+01 0.0 
2.150000000000e+01 -1.000000000000e+00 0.0 
2.300000000000e+01 -2.000000000000e+00 0.0 
2.450000000000e+01 -3.000000000000e+00 0.0 
2.600000000000e+01 -4.000000000000e+00 0.0 
2.750000000000e+01 -5.000000000000e+00 0.0 
2.900000000000e+01 -6.000000000000e+00 0.0 
3.050000000000e+01 -7.000000000000e+00 0.0 
3.200000000000e+01 -8.000000000000e+00 0.0 
3.350000000000e+01 -9.000000000000e+00 0.0 
5.000000000000e+01 -1.000000000000e+00 0.0 
5.000000000000e+01 -2.000000000000e+00 0.0 
5.000000000000e+01 -3.000000000000e+00 0.0 
5.000000000000e+01 -4.000000000000e+00 0.0 
5.000000000000e+01 -5.000000000000e+00 0.0 
5.000000000000e+01 -6.000000000000e+00 0.0 
5.000000000000e+01 -7.000000000000e+00 0.0 
5.000000000000e+01 -8.000000000000e+00 0.0 
5.000000000000e+01 -9.000000000000e+00 0.0 
4.900000000000e+01 -1.000000000000e+01 0.0 
4.800000000000e+01 -1.000000000000e+01 0.0 
4.700000000000e+01 -1.000000000000e+01 0.0 
4.600000000000e+01 -1.000000000000e+01 0.0 
4.500000000000e+01 -1.000000000000e+01 0.0 
4.400000000000e+01 -1.000000000000e+01 0.0 
4.300000000000e+01 -1.000000000000e+01 0.0 
4.200000000000e+01 -1.000000000000e+01 0.0 
4.100000000000e+01 -1.000000000000e+01 0.0 
4.000000000000e+01 -1.000000000000e+01 0.0 
3.900000000000e+01 -1.000000000000e+01 0.0 
3.800000000000e+01 -1.000000000000e+01 0.0 
3.700000000000e+01 -1.000000000000e+01 0.0 
3.600000000000e+01 -1.000000000000e+01 0.0 
1.900000000000e+01 0.0 0.0 
1.800000000000e+01 0.0 0.0 
1.700000000000e+01 0.0 0.0 
1.600000000000e+01 0.0 0.0 
1.500000000000e+01 0.0 0.0 
1.400000000000e+01 0.0 0.0 
1.300000000000e+01 0.0 0.0 
1.200000000000e+01 0.0 0.0 
1.100000000000e+01 0.0 0.0 
1.000000000000e+01 0.0 0.0 
9.000000000000e+00 0.0 0.0 
8.000000000000e+00 0.0 0.0 
7.000000000000e+00 0.0 0.0 
6.000000000000e+00 0.0 0.0 
5.000000000000e+00 0.0 0.0 
4.000000000000e+00 0.0 0.0 
3.000000000000e+00 0.0 0.0 
2.000000000000e+00 0.0 0.0 
1.000000000000e+00 0.0 0.0 
2.100000000000e+01 0.0 0.0 
2.199999999999e+01 0.0 0.0 
2.299999999999e+01 0.0 0.0 
2.399999999999e+01 0.0 0.0 
2.499999999998e+01 0.0 0.0 
2.599999999998e+01 0.0 0.0 
2.699999999998e+01 0.0 0.0 
2.799999999997e+01 0.0 0.0 
2.899999999996e+01 0.0 0.0 
2.999999999995e+01 0.0 0.0 
3.099999999993e+01 0.0 0.0 
3.199999999992e+01 0.0 0.0 
3.299999999990e+01 0.0 0.0 
3.399999999989e+01 0.0 0.0 
3.499999999987e+01 0.0 0.0 
3.599999999988e+01 0.0 0.0 
3.699999999989e+01 0.0 0.0 
3.799999999990e+01 0.0 0.0 
3.899999999990e+01 0.0 0.0 
3.999999999991e+01 0.0 0.0 
4.099999999992e+01 0.0 0.0 
4.199999999993e+01 0.0 0.0 
4.299999999994e+01 0.0 0.0 
4.399999999995e+01 0.0 0.0 
4.499999999996e+01 0.0 0.0 
4.599999999997e+01 0.0 0.0 
4.699999999997e+01 0.0 0.0 
4.799999999998e+01 0.0 0.0 
4.899999999999e+01 0.0 0.0 
4.901724137931e+01 -1.000000000000e+00 0.0 
4.803448275862e+01 -1.000000000000e+00 0.0 
4.705172413793e+01 -1.000000000000e+00 0.0 
4.606896551724e+01 -1.000000000000e+00 0.0 
4.508620689655e+01 -1.000000000000e+00 0.0 
4.410344827586e+01 -1.000000000000e+00 0.0 
4.312068965517e+01 -1.000000000000e+00 0.0 
4.213793103448e+01 -1.000000000000e+00 0.0 
4.115517241379e+01 -1.000000000000e+00 0.0 
4.017241379310e+01 -1.000000000000e+00 0.0 
3.918965517241e+01 -1.000000000000e+00 0.0 
3.820689655172e+01 -1.000000000000e+00 0.0 
3.722413793103e+01 -1.000000000000e+00 0.0 
3.624137931034e+01 -1.000000000000e+00 0.0 
3.525862068966e+01 -1.000000000000e+00 0.0 
3.427586206897e+01 -1.000000000000e+00 0.0 
3.329310344828e+01 -1.000000000000e+00 0.0 
3.231034482759e+01 -1.000000000000e+00 0.0 
3.132758620690e+01 -1.000000000000e+00 0.0 
3.034482758621e+01 -1.000000000000e+00 0.0 
2.936206896552e+01 -1.000000000000e+00 0.0 
2.837931034483e+01 -1.000000000000e+00 0.0 
2.739655172414e+01 -1.000000000000e+00 0.0 
2.641379310345e+01 -1.000000000000e+00 0.0 
2.543103448276e+01 -1.000000000000e+00 0.0 
2.444827586207e+01 -1.000000000000e+00 0.0 
2.346551724138e+01 -1.000000000000e+00 0.0 
2.248275862069e+01 -1.000000000000e+00 0.0 
2.400000000000e+01 -2.000000000000e+00 0.0 
2.500000000000e+01 -2.000000000000e+00 0.0 
2.600000000000e+01 -2.000000000000e+00 0.0 
2.700000000000e+01 -2.000000000000e+00 0.0 
2.800000000000e+01 -2.000000000000e+00 0.0 
2.900000000000e+01 -2.000000000000e+00 0.0 
3.000000000000e+01 -2.000000000000e+00 0.0 
3.100000000000e+01 -2.000000000000e+00 0.0 
3.200000000000e+01 -2.000000000000e+00 0.0 
3.300000000000e+01 -2.000000000000e+00 0.0 
3.400000000000e+01 -2.000000000000e+00 0.0 
3.500000000000e+01 -2.000000000000e+00 0.0 
3.600000000000e+01 -2.000000000000e+00 0.0 
3.700000000000e+01 -2.000000000000e+00 0.0 
3.800000000000e+01 -2.000000000000e+00 0.0 
3.900000000000e+01 -2.000000000000e+00 0.0 
4.000000000000e+01 -2.000000000000e+00 0.0 
4.100000000000e+01 -2.000000000000e+00 0.0 
4.200000000000e+01 -2.000000000000e+00 0.0 
4.300000000000e+01 -2.000000000000e+00 0.0 
4.400000000000e+01 -2.000000000000e+00 0.0 
4.500000000000e+01 -2.000000000000e+00 0.0 
4.600000000000e+01 -2.000000000000e+00 0.0 
4.700000000000e+01 -2.000000000000e+00 0.0 
4.800000000000e+01 -2.000000000000e+00 0.0 
4.900000000000e+01 -2.000000000000e+00 0.0 
2.548076923077e+01 -3.000000000000e+00 0.0 
2.646153846153e+01 -3.000000000000e+00 0.0 
2.744230769230e+01 -3.000000000000e+00 0.0 
2.842307692306e+01 -3.000000000000e+00 0.0 
2.940384615383e+01 -3.000000000000e+00 0.0 
3.038461538459e+01 -3.000000000000e+00 0.0 
3.136538461536e+01 -3.000000000000e+00 0.0 
3.234615384612e+01 -3.000000000000e+00 0.0 
3.332692307687e+01 -3.000000000000e+00 0.0 
3.430769230762e+01 -3.000000000000e+00 0.0 
3.528846153837e+01 -3.000000000000e+00 0.0 
3.626923076912e+01 -3.000000000000e+00 0.0 
3.724999999988e+01 -3.000000000000e+00 0.0 
3.823076923065e+01 -3.000000000000e+00 0.0 
3.921153846143e+01 -3.000000000000e+00 0.0 
4.019230769221e+01 -3.000000000000e+00 0.0 
4.117307692299e+01 -3.000000000000e+00 0.0 
4.215384615377e+01 -3.000000000000e+00 0.0 
4.313461538455e+01 -3.000000000000e+00 0.0 
4.411538461533e+01 -3.000000000000e+00 0.0 
4.509615384611e+01 -3.000000000000e+00 0.0 
4.607692307688e+01 -3.000000000000e+00 0.0 
4.705769230766e+01 -3.000000000000e+00 0.0 
4.803846153844e+01 -3.000000000000e+00 0.0 
4.901923076922e+01 -3.000000000000e+00 0.0 
4.900000000000e+01 -4.000000000000e+00 0.0 
4.800000000000e+01 -4.000000000000e+00 0.0 
4.700000000000e+01 -4.000000000000e+00 0.0 
4.600000000000e+01 -4.000000000000e+00 0.0 
4.500000000000e+01 -4.000000000000e+00 0.0 
4.400000000000e+01 -4.000000000000e+00 0.0 
4.300000000000e+01 -4.000000000000e+00 0.0 
4.200000000000e+01 -4.000000000000e+00 0.0 
4.100000000000e+01 -4.000000000000e+00 0.0 
4.000000000000e+01 -4.000000000000e+00 0.0 
3.900000000000e+01 -4.000000000000e+00 0.0 
3.800000000000e+01 -4.000000000000e+00 0.0 
3.700000000000e+01 -4.000000000000e+00 0.0 
3.600000000000e+01 -4.000000000000e+00 0.0 
3.500000000000e+01 -4.000000000000e+00 0.0 
3.400000000000e+01 -4.000000000000e+00 0.0 
3.300000000000e+01 -4.000000000000e+00 0.0 
3.200000000000e+01 -4.000000000000e+00 0.0 
3.100000000000e+01 -4.000000000000e+00 0.0 
3.000000000000e+01 -4.000000000000e+00 0.0 
2.900000000000e+01 -4.000000000000e+00 0.0 
2.800000000000e+01 -4.000000000000e+00 0.0 
2.700000000000e+01 -4.000000000000e+00 0.0 
2.847826086957e+01 -5.000000000000e+00 0.0 
2.945652173913e+01 -5.000000000000e+00 0.0 
3.043478260870e+01 -5.000000000000e+00 0.0 
3.141304347826e+01 -5.000000000000e+00 0.0 
3.239130434783e+01 -5.000000000000e+00 0.0 
3.336956521739e+01 -5.000000000000e+00 0.0 
3.434782608696e+01 -5.000000000000e+00 0.0 
3.532608695652e+01 -5.000000000000e+00 0.0 
3.630434782609e+01 -5.000000000000e+00 0.0 
3.728260869565e+01 -5.000000000000e+00 0.0 
3.826086956522e+01 -5.000000000000e+00 0.0 
3.923913043478e+01 -5.000000000000e+00 0.0 
4.021739130435e+01 -5.000000000000e+00 0.0 
4.119565217391e+01 -5.000000000000e+00 0.0 
4.217391304348e+01 -5.000000000000e+00 0.0 
4.315217391304e+01 -5.000000000000e+00 0.0 
4.413043478261e+01 -5.000000000000e+00 0.0 
4.510869565217e+01 -5.000000000000e+00 0.0 
4.608695652174e+01 -5.000000000000e+00 0.0 
4.706521739130e+01 -5.000000000000e+00 0.0 
4.804347826087e+01 -5.000000000000e+00 0.0 
4.902173913043e+01 -5.000000000000e+00 0.0 
4.900000000001e+01 -6.000000000000e+00 0.0 
4.800000000003e+01 -6.000000000000e+00 0.0 
4.700000000004e+01 -6.000000000000e+00 0.0 
4.600000000006e+01 -6.000000000000e+00 0.0 
4.500000000007e+01 -6.000000000000e+00 0.0 
4.400000000009e+01 -6.000000000000e+00 0.0 
4.300000000010e+01 -6.000000000000e+00 0.0 
4.200000000012e+01 -6.000000000000e+00 0.0 
4.100000000013e+01 -6.000000000000e+00 0.0 
4.000000000014e+01 -6.000000000000e+00 0.0 
3.900000000014e+01 -6.000000000000e+00 0.0 
3.800000000012e+01 -6.000000000000e+00 0.0 
3.700000000010e+01 -6.000000000000e+00 0.0 
3.600000000008e+01 -6.000000000000e+00 0.0 
3.500000000006e+01 -6.000000000000e+00 0.0 
3.400000000005e+01 -6.000000000000e+00 0.0 
3.300000000003e+01 -6.000000000000e+00 0.0 
3.200000000001e+01 -6.000000000000e+00 0.0 
3.100000000000e+01 -6.000000000000e+00 0.0 
3.000000000000e+01 -6.000000000000e+00 0.0 
3.147499999998e+01 -7.000000000000e+00 0.0 
3.244999999998e+01 -7.000000000000e+00 0.0 
3.342499999998e+01 -7.000000000000e+00 0.0 
3.439999999998e+01 -7.000000000000e+00 0.0 
3.537499999998e+01 -7.000000000000e+00 0.0 
3.634999999998e+01 -7.000000000000e+00 0.0 
3.732499999998e+01 -7.000000000000e+00 0.0 
3.829999999998e+01 -7.000000000000e+00 0.0 
3.927499999999e+01 -7.000000000000e+00 0.0 
4.024999999999e+01 -7.000000000000e+00 0.0 
4.122499999999e+01 -7.000000000000e+00 0.0 
4.219999999999e+01 -7.000000000000e+00 0.0 
4.317499999999e+01 -7.000000000000e+00 0.0 
4.414999999999e+01 -7.000000000000e+00 0.0 
4.512499999999e+01 -7.000000000000e+00 0.0 
4.609999999999e+01 -7.000000000000e+00 0.0 
4.707500000000e+01 -7.000000000000e+00 0.0 
4.805000000000e+01 -7.000000000000e+00 0.0 
4.902500000000e+01 -7.000000000000e+00 0.0 
4.900000000000e+01 -8.000000000000e+00 0.0 
4.800000000000e+01 -8.000000000000e+00 0.0 
4.700000000000e+01 -8.000000000000e+00 0.0 
4.600000000000e+01 -8.000000000000e+00 0.0 
4.500000000000e+01 -8.000000000000e+00 0.0 
4.400000000000e+01 -8.000000000000e+00 0.0 
4.300000000000e+01 -8.000000000000e+00 0.0 
4.200000000000e+01 -8.000000000000e+00 0.0 
4.100000000000e+01 -8.000000000000e+00 0.0 
4.000000000000e+01 -8.000000000000e+00 0.0 
3.900000000000e+01 -8.000000000000e+00 0.0 
3.800000000000e+01 -8.000000000000e+00 0.0 
3.700000000000e+01 -8.000000000000e+00 0.0 
3.600000000000e+01 -8.000000000000e+00 0.0 
3.500000000000e+01 -8.000000000000e+00 0.0 
3.400000000000e+01 -8.000000000000e+00 0.0 
3.300000000000e+01 -8.000000000000e+00 0.0 
3.447058823527e+01 -9.000000000000e+00 0.0 
3.544117647055e+01 -9.000000000000e+00 0.0 
3.641176470582e+01 -9.000000000000e+00 0.0 
3.738235294109e+01 -9.000000000000e+00 0.0 
3.835294117637e+01 -9.000000000000e+00 0.0 
3.932352941164e+01 -9.000000000000e+00 0.0 
4.029411764691e+01 -9.000000000000e+00 0.0 
4.126470588219e+01 -9.000000000000e+00 0.0 
4.223529411748e+01 -9.000000000000e+00 0.0 
4.320588235279e+01 -9.000000000000e+00 0.0 
4.417647058811e+01 -9.000000000000e+00 0.0 
4.514705882342e+01 -9.000000000000e+00 0.0 
4.611764705874e+01 -9.000000000000e+00 0.0 
4.708823529405e+01 -9.000000000000e+00 0.0 
4.805882352937e+01 -9.000000000000e+00 0.0 
4.902941176468e+01 -9.000000000000e+00 0.0 
2.075000000000e+01 -5.000000000006e-01 0.0 
2.225000000000e+01 -1.500000000000e+00 0.0 
2.375000000000e+01 -2.500000000000e+00 0.0 
2.525000000000e+01 -3.500000000000e+00 0.0 
2.675000000000e+01 -4.500000000000e+00 0.0 
2.825000000000e+01 -5.500000000000e+00 0.0 
2.975000000000e+01 -6.500000000000e+00 0.0 
3.125000000000e+01 -7.500000000000e+00 0.0 
3.275000000000e+01 -8.500000000000e+00 0.0 
3.425000000000e+01 -9.500000000000e+00 0.0 
2.226951693683e+01 -2.403913980114e+00 0.0 
1.650149491944e+01 -1.913490915758e+01 0.0 
1.050042386896e+01 -8.504605092970e-01 0.0 
1.553146524712e+01 -8.281255032105e-01 0.0 
1.150000000008e+01 -1.913397459621e+01 0.0 
2.530060260647e+01 -4.428336431260e+00 0.0 
8.651114563942e-01 -1.052096295641e+01 0.0 
2.050000000013e+01 -1.913397459622e+01 0.0 
2.819198729811e+01 -6.399519052838e+00 0.0 
2.445670302931e+01 -1.915649188023e+01 0.0 
3.117591465718e+01 -8.394293040695e+00 0.0 
7.465053044742e+00 -1.920411160581e+01 0.0 
6.398295709691e+00 -8.230098819370e-01 0.0 
2.849659607461e+01 -1.914296187762e+01 0.0 
3.418732642882e+01 -1.040265792588e+01 0.0 
8.386450935063e-01 -6.533605142809e+00 0.0 
9.178661865596e-01 -1.329769195597e+01 0.0 
3.149448624493e+01 -1.910466733764e+01 0.0 
3.552916747426e+01 -1.914628590759e+01 0.0 
4.449210346537e+01 -1.914359085008e+01 0.0 
4.140975975145e+01 -1.906941860733e+01 0.0 
3.847475958753e+01 -1.916622382724e+01 0.0 
3.653774794640e+01 -1.088712800241e+01 0.0 
4.047886341787e+01 -1.090139014048e+01 0.0 
4.348006339825e+01 -1.092792621489e+01 0.0 
4.919519968029e+01 -1.451526755068e+01 0.0 
4.500000000032e+00 -1.913397459621e+01 0.0 
1.856136921614e+01 -8.212235170404e-01 0.0 
3.499895312306e+00 -8.661165539723e-01 0.0 
9.076088696565e-01 -1.642306201891e+01 0.0 
4.655174095477e+01 -1.086183387525e+01 0.0 
9.430688970604e-01 -3.496112672958e+00 0.0 
3.353992337063e+01 -1.901202090820e+01 0.0 
2.249746016977e+01 -1.921262287282e+01 0.0 
2.650122741777e+01 -1.916123026018e+01 0.0 
1.863571384842e+01 -1.908325534840e+01 0.0 
1.450089971693e+01 -1.917691901860e+01 0.0 
1.350044695317e+01 -8.659695299584e-01 0.0 
3.849987469880e+01 -1.084154983397e+01 0.0 
9.454419857884e+00 -1.900818879936e+01 0.0 
4.917398660523e+01 -1.645692866081e+01 0.0 
8.500000000000e+00 -8.660254037844e-01 0.0 
8.660319230785e-01 -8.500111697188e+00 0.0 
4.649022621545e+01 -1.930506220113e+01 0.0 
2.667688107845e+01 -5.420288124331e+00 0.0 
2.379251615665e+01 -3.412225477429e+00 0.0 
2.966631491830e+01 -7.389030232731e+00 0.0 
3.267915035995e+01 -9.396934932445e+00 0.0 
2.074836922338e+01 -1.320054020319e+00 0.0 
4.915985743621e+01 -1.261973384855e+01 0.0 
2.527129768623e+00 -1.931592414663e+01 0.0 
1.538676247410e+00 -8.436956619311e-01 0.0 
4.908096641539e+01 -1.842484004551e+01 0.0 
3.478612492673e+01 -1.090889364140e+01 0.0 
3.409757055860e+01 -1.131991530427e+01 0.0 
3.501895309466e+01 -1.177687842717e+01 0.0 
3.407758073088e+01 -1.224293381580e+01 0.0 
3.484541875390e+01 -1.277051428430e+01 0.0 
3.400322025842e+01 -1.319022775640e+01 0.0 
3.321672625034e+01 -1.266779191233e+01 0.0 
3.315244139236e+01 -1.360984106532e+01 0.0 
3.236335186892e+01 -1.308463225210e+01 0.0 
3.478337442841e+01 -1.372341158982e+01 0.0 
3.230105923633e+01 -1.403023731610e+01 0.0 
3.150954055289e+01 -1.350301767700e+01 0.0 
3.144604792090e+01 -1.444931742516e+01 0.0 
3.065653897123e+01 -1.392357262981e+01 0.0 
3.071897610812e+01 -1.297447031198e+01 0.0 
2.986790411740e+01 -1.339226181535e+01 0.0 
2.993181466745e+01 -1.244703272398e+01 0.0 
2.908023061869e+01 -1.286254537734e+01 0.0 
2.901619051372e+01 -1.380881655279e+01 0.0 
2.822986160390e+01 -1.327695262116e+01 0.0 
2.829453476870e+01 -1.233265343811e+01 0.0 
2.744542905518e+01 -1.274510491105e+01 0.0 
2.751120089246e+01 -1.180368086886e+01 0.0 
2.666218649885e+01 -1.221619339205e+01 0.0 
2.672371209234e+01 -1.127125228527e+01 0.0 
2.587763216302e+01 -1.168539979114e+01 0.0 
2.581165585299e+01 -1.262994410089e+01 0.0 
2.502890882577e+01 -1.209827323619e+01 0.0 
2.509631327757e+01 -1.115492410304e+01 0.0 
2.424662989877e+01 -1.156630981079e+01 0.0 
2.431704046904e+01 -1.062389179334e+01 0.0 
2.346445438728e+01 -1.103427680694e+01 0.0 
2.339382552877e+01 -1.197964871788e+01 0.0 
2.260936050780e+01 -1.144513277642e+01 0.0 
2.268075012022e+01 -1.049911928216e+01 0.0 
2.182525737661e+01 -1.090920811464e+01 0.0 
2.189682319817e+01 -9.961716944568e+00 0.0 
2.104174127792e+01 -1.037266986667e+01 0.0 
2.111304367575e+01 -9.424179358711e+00 0.0 
2.025306185381e+01 -9.832727364719e+00 0.0 
2.018141124247e+01 -1.079140628871e+01 0.0 
1.938594498257e+01 -1.025147354112e+01 0.0 
1.946106490453e+01 -9.288010758448e+00 0.0 
1.858929958352e+01 -9.706319802516e+00 0.0 
1.851540991219e+01 -1.067205988724e+01 0.0 
1.771485303178e+01 -1.012504443115e+01 0.0 
1.764134552256e+01 -1.109360378538e+01 0.0 
1.683745148095e+01 -1.054496365337e+01 0.0 
1.691852964353e+01 -9.582555261178e+00 0.0 
1.603603813062e+01 -1.000160132379e+01 0.0 
1.595824239350e+01 -1.096750698862e+01 0.0 
1.515080624291e+01 -1.041639501931e+01 0.0 
1.523171602559e+01 -9.451711491453e+00 0.0 
1.434621060709e+01 -9.871956467464e+00 0.0 
1.426777178765e+01 -1.083749501371e+01 0.0 
1.345775282374e+01 -1.028803175500e+01 0.0 
1.354103873368e+01 -9.324918457162e+00 0.0 
1.265072018622e+01 -9.742612837270e+00 0.0 
1.257285762070e+01 -1.071557782384e+01 0.0 
1.175874815690e+01 -1.015972324288e+01 0.0 
1.184203019714e+01 -9.193604071377e+00 0.0 
1.094927709905e+01 -9.612103238656e+00 0.0 
1.086938022910e+01 -1.058685085646e+01 0.0 
1.005424098961e+01 -1.002939116380e+01 0.0 
9.977974613295e+00 -1.101324897989e+01 0.0 
1.012915646404e+01 -9.051815821181e+00 0.0 
9.237127782494e+00 -9.471239055559e+00 0.0 
9.308426593771e+00 -8.483376461131e+00 0.0 
8.418806073345e+00 -8.910712374517e+00 0.0 
2.253688464062e+01 -1.239459402279e+01 0.0 
8.495126726666e+00 -7.921646665254e+00 0.0 
9.389727383206e+00 -7.512103628377e+00 0.0 
7.601560812974e+00 -8.349460349344e+00 0.0 
7.525680547759e+00 -9.339736686940e+00 0.0 
7.677888324502e+00 -7.359727833346e+00 0.0 
6.782001206724e+00 -7.788454494773e+00 0.0 
6.858778622885e+00 -6.797338062822e+00 0.0 
2.196596590865e+01 -8.979025665442e+00 0.0 
2.816540108272e+01 -1.422634142353e+01 0.0 
5.961601194403e+00 -7.226824010712e+00 0.0 
6.038171749656e+00 -6.234825887079e+00 0.0 
6.936257279557e+00 -5.805287640737e+00 0.0 
6.115068918323e+00 -5.242109758768e+00 0.0 
3.564391741903e+01 -1.329240553876e+01 0.0 
3.558115605778e+01 -1.425902892003e+01 0.0 
3.645445282201e+01 -1.381970786460e+01 0.0 
3.639744204358e+01 -1.479198128612e+01 0.0 
3.727266909778e+01 -1.435399586226e+01 0.0 
5.216667013081e+00 -5.671788584287e+00 0.0 
3.220697293295e+01 -1.499594545107e+01 0.0 
3.551112158269e+01 -1.523479869250e+01 0.0 
2.836056961467e+01 -1.139032434851e+01 0.0 
2.516730388602e+01 -1.021382726837e+01 0.0 
1.844436907403e+01 -1.164097215196e+01 0.0 
5.885434318740e+00 -8.218694781467e+00 0.0 
5.064071066867e+00 -7.656614643901e+00 0.0 
4.988089103470e+00 -8.649722082718e+00 0.0 
1.079421050408e+01 -1.157014985435e+01 0.0 
9.902420005256e+00 -1.199903342656e+01 0.0 
1.071994252214e+01 -1.255727909771e+01 0.0 
9.826974788171e+00 -1.298659581767e+01 0.0 
1.064607883789e+01 -1.354595476388e+01 0.0 
9.751541265343e+00 -1.397556905071e+01 0.0 
8.932296185869e+00 -1.341553353988e+01 0.0 
8.856399248106e+00 -1.440570715508e+01 0.0 
8.036186803543e+00 -1.384470558472e+01 0.0 
1.057112875118e+01 -1.453516759081e+01 0.0 
1.146582585687e+01 -1.410539926903e+01 0.0 
7.959894480382e+00 -1.483563350928e+01 0.0 
7.138792279156e+00 -1.427465094140e+01 0.0 
7.062506792418e+00 -1.526615385482e+01 0.0 
6.240693558277e+00 -1.470508863040e+01 0.0 
6.316957575451e+00 -1.371212581281e+01 0.0 
5.418183007107e+00 -1.414253605022e+01 0.0 
5.494748364428e+00 -1.314886770603e+01 0.0 
1.756825565873e+01 -1.206433872514e+01 0.0 
1.837565773345e+01 -1.261356468266e+01 0.0 
1.749574831391e+01 -1.303769280014e+01 0.0 
1.830539187332e+01 -1.358828364284e+01 0.0 
1.742278925170e+01 -1.401367746928e+01 0.0 
1.823303007798e+01 -1.456432294258e+01 0.0 
1.734941694138e+01 -1.499213734361e+01 0.0 
1.653760041637e+01 -1.443920312098e+01 0.0 
3.056237977307e+01 -1.487132260174e+01 0.0 
1.866469084762e+01 -8.742953000418e+00 0.0 
1.953669694916e+01 -8.326038909849e+00 0.0 
1.874194303780e+01 -7.780688158966e+00 0.0 
1.961032016741e+01 -7.366854697285e+00 0.0 
1.881715755159e+01 -6.821102209649e+00 0.0 
1.968369797150e+01 -6.407747217358e+00 0.0 
1.889237123259e+01 -5.858375520026e+00 0.0 
1.802038875366e+01 -6.276202618170e+00 0.0 
1.809793837984e+01 -5.307629520489e+00 0.0 
1.721985207997e+01 -5.728242054488e+00 0.0 
1.729850893523e+01 -4.756990819347e+00 0.0 
1.641745664240e+01 -5.174636548624e+00 0.0 
2.495978509456e+01 -1.304406404294e+01 0.0 
1.911567814831e+01 -1.413854250293e+01 0.0 
1.904387332608e+01 -1.511463127723e+01 0.0 
1.992115934240e+01 -1.468788025898e+01 0.0 
7.013706899628e+00 -4.812582868662e+00 0.0 
5.342091874585e+00 -1.513658157269e+01 0.0 
1.139098043784e+01 -1.509488509480e+01 0.0 
1.228151810610e+01 -1.465617481983e+01 0.0 
1.646373110164e+01 -1.541993323337e+01 0.0 
5.293328636712e+00 -4.678385108584e+00 0.0 
1.975965862987e+01 -5.448124345648e+00 0.0 
2.054318374236e+01 -5.992561293251e+00 0.0 
3.721453439063e+01 -1.533216152738e+01 0.0 
3.809302733893e+01 -1.489235527381e+01 0.0 
1.220852788900e+01 -1.565304565230e+01 0.0 
4.394120899730e+00 -5.108397613210e+00 0.0 
8.779354620288e+00 -1.539524721159e+01 0.0 
1.817791047702e+01 -4.338570146253e+00 0.0 
4.518860013839e+00 -1.457343189307e+01 0.0 
4.442712140414e+00 -1.556841391069e+01 0.0 
8.115343466391e+00 -1.285760324283e+01 0.0 
1.985334703171e+01 -1.566478400426e+01 0.0 
2.071953850276e+01 -1.522074243119e+01 0.0 
1.634012953883e+01 -6.154777738301e+00 0.0 
1.553479994708e+01 -5.593730508879e+00 0.0 
1.561265946942e+01 -4.617761762647e+00 0.0 
1.470674212978e+01 -5.064576488228e+00 0.0 
1.464498299883e+01 -6.026514471420e+00 0.0 
1.383271561817e+01 -5.467796261169e+00 0.0 
1.389241253067e+01 -4.504338666645e+00 0.0 
1.301868735463e+01 -4.907185188626e+00 0.0 
1.294514184846e+01 -5.888160903592e+00 0.0 
1.212955968622e+01 -5.328262335277e+00 0.0 
1.220721122383e+01 -4.341264976687e+00 0.0 
1.131324345897e+01 -4.766773516508e+00 0.0 
5.266597955397e+00 -1.613148974258e+01 0.0 
1.737805990867e+01 -3.786677807525e+00 0.0 
3.078438094513e+01 -1.203225297748e+01 0.0 
1.131569882285e+01 -1.608511932110e+01 0.0 
1.728478341782e+01 -1.596017432313e+01 0.0 
3.803465906019e+01 -1.587509751228e+01 0.0 
3.891681276677e+01 -1.543395196905e+01 0.0 
3.897340985302e+01 -1.444710288980e+01 0.0 
3.980095968193e+01 -1.499059496613e+01 0.0 
3.974334598189e+01 -1.597921884150e+01 0.0 
4.062964983717e+01 -1.553518690417e+01 0.0 
4.068729602479e+01 -1.454434445295e+01 0.0 
4.151772679790e+01 -1.508974196007e+01 0.0 
4.157505195739e+01 -1.409694289912e+01 0.0 
4.240699932656e+01 -1.464347955968e+01 0.0 
4.234898051011e+01 -1.563721375790e+01 0.0 
4.323934606035e+01 -1.519082036405e+01 0.0 
4.329740528208e+01 -1.419587509788e+01 0.0 
4.413056841369e+01 -1.474359631875e+01 0.0 
4.418850110108e+01 -1.374786684042e+01 0.0 
4.502219770667e+01 -1.429605103525e+01 0.0 
4.496411937907e+01 -1.529215882720e+01 0.0 
4.490027319897e+00 -4.154167794594e+00 0.0 
1.565080385988e+01 -1.486411982419e+01 0.0 
1.557610691279e+01 -1.584855627870e+01 0.0 
4.195350646612e+00 -8.089117689096e+00 0.0 
4.124027797830e+00 -9.082831955007e+00 0.0 
4.917944318925e+00 -9.643530901533e+00 0.0 
4.020105689502e+00 -1.007439673661e+01 0.0 
4.587185899277e+01 -1.484039992728e+01 0.0 
4.580078661551e+01 -1.584043391042e+01 0.0 
2.061956522375e+01 -5.046701343981e+00 0.0 
2.139572955529e+01 -5.579553449826e+00 0.0 
3.715344357292e+01 -1.631485124583e+01 0.0 
3.618886196443e+00 -1.500471207167e+01 0.0 
3.695606940204e+00 -1.400939692294e+01 0.0 
2.438890661143e+01 -9.686110599723e+00 0.0 
2.523267572778e+01 -9.276766000622e+00 0.0 
2.446094171539e+01 -8.751904591412e+00 0.0 
2.529089822738e+01 -8.321495612547e+00 0.0 
2.606882688827e+01 -8.864724051119e+00 0.0 
2.452116646430e+01 -7.792756462004e+00 0.0 
1.235543269617e+01 -1.365845617339e+01 0.0 
4.318116874181e+01 -1.618567469992e+01 0.0 
7.835066111909e+00 -5.376366223896e+00 0.0 
7.905687335704e+00 -4.382539065697e+00 0.0 
3.542640009567e+00 -1.600035116542e+01 0.0 
1.572431503071e+01 -1.388358386695e+01 0.0 
2.574684696680e+01 -1.357896141127e+01 0.0 
2.488842657651e+01 -1.399674354505e+01 0.0 
2.568301775611e+01 -1.453552048595e+01 0.0 
2.481535572009e+01 -1.495542756508e+01 0.0 
2.561729699688e+01 -1.549784648532e+01 0.0 
2.474623061296e+01 -1.592058894178e+01 0.0 
2.394234041695e+01 -1.537572575827e+01 0.0 
2.065825452567e+01 -1.621899055217e+01 0.0 
2.387180528935e+01 -1.634552264687e+01 0.0 
4.585364400844e+01 -1.383912334080e+01 0.0 
1.998744432052e+01 -1.370317155541e+01 0.0 
1.205356951443e+01 -6.313580285498e+00 0.0 
5.396543905849e+00 -3.731818611283e+00 0.0 
1.139652573295e+01 -3.745819399350e+00 0.0 
3.574124306703e+00 -4.551456826011e+00 0.0 
3.494140761930e+00 -5.539787055649e+00 0.0 
1.213651452413e+01 -1.664505033022e+01 0.0 
2.555045568519e+01 -1.646529356744e+01 0.0 
2.641671114986e+01 -1.603899382371e+01 0.0 
2.612920721894e+01 -7.906435260873e+00 0.0 
2.690339829698e+01 -8.456969591431e+00 0.0 
1.978024383368e+01 -1.664410216353e+01 0.0 
3.732829979082e+01 -1.336926601859e+01 0.0 
4.074336584605e+01 -1.355133328401e+01 0.0 
4.163204691081e+01 -1.310280943992e+01 0.0 
3.773826114429e+00 -3.493444309145e+00 0.0 
1.228783001032e+01 -3.374822835872e+00 0.0 
4.057110462520e+01 -1.652588478000e+01 0.0 
2.132535497898e+01 -6.523623360525e+00 0.0 
2.216932532211e+01 -6.110044769206e+00 0.0 
1.825781152128e+01 -3.370146817147e+00 0.0 
1.745679445888e+01 -2.812942552063e+00 0.0 
4.666517057280e+01 -1.539981381543e+01 0.0 
4.660575894464e+01 -1.639014410186e+01 0.0 
4.838230979954e+00 -1.063643436446e+01 0.0 
3.938942630206e+00 -1.106778981745e+01 0.0 
1.302967218620e+01 -1.621373452436e+01 0.0 
1.049548003190e+01 -4.204825123240e+00 0.0 
4.573571907195e+01 -1.683820511148e+01 0.0 
1.483686335807e+01 -1.430849689310e+01 0.0 
1.490982658890e+01 -1.332679386284e+01 0.0 
3.190805600162e+00 -9.510968358545e+00 0.0 
2.146625721848e+01 -4.642437303115e+00 0.0 
2.069866208266e+01 -4.111852942193e+00 0.0 
1.286859345584e+01 -6.873252723348e+00 0.0 
1.041794493184e+01 -5.194814260291e+00 0.0 
2.671081808965e+00 -4.976806516331e+00 0.0 
1.295786792925e+01 -1.720506531799e+01 0.0 
3.968438206511e+01 -1.696869067241e+01 0.0 
2.308550456051e+01 -1.579963151273e+01 0.0 
2.315593682844e+01 -1.482967445235e+01 0.0 
2.299471449450e+01 -1.677069968132e+01 0.0 
1.057344714696e+01 -3.214252277840e+00 0.0 
1.124057603753e+01 -1.707713739755e+01 0.0 
2.718402535754e+00 -1.543629882103e+01 0.0 
2.638549692805e+01 -1.696744916809e+01 0.0 
2.723416349007e+01 -1.658104204545e+01 0.0 
2.210193351704e+01 -7.046769643417e+00 0.0 
2.295180925161e+01 -6.657397605239e+00 0.0 
2.301355235833e+01 -5.709111896800e+00 0.0 
2.379052718281e+01 -6.254965406962e+00 0.0 
3.243528601237e+01 -1.214181853533e+01 0.0 
2.287977995457e+01 -7.583722368300e+00 0.0 
2.999876029544e+01 -1.150837653096e+01 0.0 
3.084435366963e+01 -1.109693775882e+01 0.0 
3.006650579669e+01 -1.057778994262e+01 0.0 
2.683802665066e+01 -9.386863216633e+00 0.0 
2.768641973621e+01 -8.988883915666e+00 0.0 
2.040296980397e+01 -7.903629133404e+00 0.0 
1.925235024054e+01 -1.218872783130e+01 0.0 
5.735667000424e+00 -1.020577277283e+01 0.0 
6.396559909872e+00 -1.272326295703e+01 0.0 
1.161199420714e+01 -1.212812778229e+01 0.0 
4.229046132615e+01 -1.663084237572e+01 0.0 
4.312275399692e+01 -1.718087491556e+01 0.0 
4.335502068163e+01 -1.320039231514e+01 0.0 
4.424630298089e+01 -1.275160688731e+01 0.0 
7.090116643816e+00 -3.818998061530e+00 0.0 
7.989472176569e+00 -3.389238711200e+00 0.0 
9.085824861778e+00 -1.144036167408e+01 0.0 
1.041972423731e+01 -1.651614080893e+01 0.0 
3.797525112640e+01 -1.686052038746e+01 0.0 
3.709114253394e+01 -1.730125999865e+01 0.0 
3.626966748340e+01 -1.675477052919e+01 0.0 
1.385164591440e+01 -1.677597757552e+01 0.0 
1.787152588784e+01 -8.198993896093e+00 0.0 
1.668849729812e+01 -1.248560611628e+01 0.0 
1.659546177905e+01 -3.232482605530e+00 0.0 
2.332214717345e+01 -1.292598167641e+01 0.0 
7.168238450786e+00 -2.824711686516e+00 0.0 
2.894878403906e+01 -1.475427524446e+01 0.0 
2.646763248247e+00 -1.643270107952e+01 0.0 
3.467431944285e+00 -1.699648837348e+01 0.0 
2.059475877282e+01 -1.719473628526e+01 0.0 
3.333868355437e+01 -1.080596971682e+01 0.0 
2.246451062637e+01 -1.334557761546e+01 0.0 
2.167821896388e+01 -1.280847834858e+01 0.0 
3.089653185767e+01 -1.017198487212e+01 0.0 
3.012604365669e+01 -9.657298805968e+00 0.0 
2.929627299435e+01 -1.006100135274e+01 0.0 
2.936201435219e+01 -9.136748899251e+00 0.0 
1.198219052702e+01 -7.291887238230e+00 0.0 
1.116702076035e+01 -6.731976101053e+00 0.0 
2.551388807505e+01 -1.746927036981e+01 0.0 
2.378639090370e+01 -1.728678807149e+01 0.0 
2.718543627188e+01 -1.748668016909e+01 0.0 
2.804681050301e+01 -1.712626668293e+01 0.0 
1.970737034667e+01 -1.762317646822e+01 0.0 
1.889535776135e+01 -1.707158098231e+01 0.0 
2.593777711283e+00 -5.971157087874e+00 0.0 
2.773468281110e+01 -8.067164273938e+00 0.0 
4.051205884347e+01 -1.751819982458e+01 0.0 
3.166903145421e+01 -1.068032992414e+01 0.0 
1.033042452886e+01 -1.748285844336e+01 0.0 
9.519274604626e+00 -1.694349240233e+01 0.0 
1.668308673328e+01 -2.255861778986e+00 0.0 
1.570531902832e+01 -2.676795860126e+00 0.0 
4.655826903379e+01 -1.736656245706e+01 0.0 
2.384148070773e+01 -5.328744256413e+00 0.0 
2.460255123641e+01 -5.852182672816e+00 0.0 
2.306638135119e+01 -4.798935440613e+00 0.0 
8.467720450578e-01 -1.849576263072e+01 0.0 
4.849657322345e+01 -1.084860705506e+01 0.0 
2.565860899507e+00 -1.742859793981e+01 0.0 
2.764418872564e+01 -9.927142821799e+00 0.0 
4.565165880064e+01 -1.785336695404e+01 0.0 
2.162231831329e+01 -1.376528337468e+01 0.0 
2.360646352969e+01 -9.136041963102e+00 0.0 
1.392738739903e+01 -1.578285505772e+01 0.0 
4.756405947478e+01 -1.683706841809e+01 0.0 
4.740895034054e+01 -1.793766756892e+01 0.0 
4.080779328826e+01 -1.257387192544e+01 0.0 
4.168907939671e+01 -1.210739129181e+01 0.0 
3.991197722154e+01 -1.300815793917e+01 0.0 
1.905536506762e+01 -3.940076697685e+00 0.0 
1.923879596617e+01 -2.875000734166e+00 0.0 
4.401386745746e+01 -1.673483229438e+01 0.0 
4.247233362525e+00 -7.094581653070e+00 0.0 
3.286051630211e+00 -7.635300020553e+00 0.0 
9.609533347623e+00 -4.594311677967e+00 0.0 
9.523554636369e+00 -5.595597029530e+00 0.0 
5.660336628893e+00 -1.119290329628e+01 0.0 
6.558070063295e+00 -1.076385809362e+01 0.0 
2.809866407414e+01 -1.518037766799e+01 0.0 
2.888868674504e+01 -1.570360690070e+01 0.0 
2.654431550819e+01 -1.411217777162e+01 0.0 
1.402158265969e+01 -1.375404617952e+01 0.0 
1.409592494026e+01 -1.277071998942e+01 0.0 
1.499355196178e+01 -1.235270737023e+01 0.0 
4.221535326155e+01 -1.759335617494e+01 0.0 
4.305583287033e+01 -1.822663146802e+01 0.0 
1.280748808359e+01 -7.834332838285e+00 0.0 
1.368988389326e+01 -7.420529606172e+00 0.0 
1.110091796060e+01 -7.683966794328e+00 0.0 
3.963446145980e+01 -1.794331310122e+01 0.0 
3.423932362213e+00 -1.796415590455e+01 0.0 
4.280814572302e+00 -1.752272834860e+01 0.0 
8.050136380041e+00 -2.421582378631e+00 0.0 
8.888674091650e+00 -2.984264211327e+00 0.0 
2.152839430898e+01 -3.732609965436e+00 0.0 
2.077799585292e+01 -3.183896021866e+00 0.0 
3.618719395821e+01 -1.770276572576e+01 0.0 
3.538165138340e+01 -1.718709995539e+01 0.0 
3.702925326420e+01 -1.828844288807e+01 0.0 
1.756739438711e+00 -5.353284859169e+00 0.0 
2.233710191104e+01 -1.527265621324e+01 0.0 
1.389483555057e+01 -1.771797164730e+01 0.0 
1.475634224300e+01 -1.728357428390e+01 0.0 
1.298797563052e+01 -1.825968924755e+01 0.0 
2.145331271866e+01 -1.673705379077e+01 0.0 
2.133282821169e+01 -1.769400773673e+01 0.0 
2.292139194136e+01 -1.774915400288e+01 0.0 
1.750750053243e+01 -1.861475593469e+00 0.0 
4.830478841772e+01 -1.752611802221e+01 0.0 
4.341203507805e+01 -1.220326745522e+01 0.0 
1.685254151866e+01 -1.443085301632e+00 0.0 
4.431538535165e+01 -1.171841387375e+01 0.0 
4.511308610496e+01 -1.229557320599e+01 0.0 
4.510133242889e+01 -1.123680627466e+01 0.0 
1.846818030617e+00 -4.410877617069e+00 0.0 
3.995468694584e+01 -1.186571542989e+01 0.0 
3.901387459804e+01 -1.242507616755e+01 0.0 
8.966735877533e+00 -1.837818700423e+00 0.0 
4.049310011091e+01 -1.848269508791e+01 0.0 
7.278862053803e+00 -1.918523922691e+00 0.0 
6.429715522129e+00 -2.316676521184e+00 0.0 
9.443505505022e+00 -1.792198868094e+01 0.0 
8.620386951051e+00 -1.737590365556e+01 0.0 
8.571868171503e+00 -1.834436667826e+01 0.0 
7.758629848526e+00 -1.775677907213e+01 0.0 
7.806648388584e+00 -1.680761266021e+01 0.0 
6.908555145436e+00 -1.723746463044e+01 0.0 
4.251709122090e+01 -1.156937480156e+01 0.0 
6.931136405615e+00 -1.832465719263e+01 0.0 
6.015545461353e+00 -1.768865355295e+01 0.0 
5.960535926343e+00 -1.872011001764e+01 0.0 
3.023253444786e+01 -8.761960642196e+00 0.0 
2.454622702599e+01 -6.749421992767e+00 0.0 
2.537499741604e+01 -6.347634963783e+00 0.0 
2.544077378460e+01 -5.431358513649e+00 0.0 
2.801367161747e+01 -1.820907270221e+01 0.0 
2.884507806914e+01 -1.762032095326e+01 0.0 
1.821474531936e+00 -1.588901260460e+01 0.0 
1.821006262604e+00 -1.489370287756e+01 0.0 
4.599962488908e+01 -1.176478780598e+01 0.0 
4.705457470007e+01 -1.172182804229e+01 0.0 
4.667668314802e+01 -1.263464558483e+01 0.0 
4.759648056504e+01 -1.252380987933e+01 0.0 
4.728041618103e+01 -1.341928568376e+01 0.0 
4.825209352360e+01 -1.330491640804e+01 0.0 
4.778118233428e+01 -1.420151961695e+01 0.0 
2.388192727579e+01 -1.826934810142e+01 0.0 
2.381714684947e+01 -4.385917965223e+00 0.0 
3.172733219247e+01 -9.758744265248e+00 0.0 
1.882012070658e+01 -1.805540597212e+01 0.0 
1.805667505243e+01 -1.742221226236e+01 0.0 
2.852599958080e+01 -8.597196079481e+00 0.0 
2.856486123437e+01 -7.661382718527e+00 0.0 
1.111792842875e+01 -1.818223852980e+01 0.0 
2.203322722466e+01 -7.986646678802e+00 0.0 
3.955703676900e+01 -1.903246763601e+01 0.0 
1.944842206513e+01 -8.038750575182e-01 0.0 
1.909882767783e+01 -1.746322740933e+00 0.0 
2.281147422941e+01 -8.525912918334e+00 0.0 
2.850633001468e+01 -9.533271335986e+00 0.0 
2.532883344309e+01 -7.308951659710e+00 0.0 
2.620475466461e+01 -6.979208585400e+00 0.0 
1.396278270396e+01 -1.475095389807e+01 0.0 
9.791001166724e+00 -2.554159793552e+00 0.0 
2.229293380421e+01 -4.269762271052e+00 0.0 
4.677238984118e+01 -1.430071795514e+01 0.0 
2.228658385918e+01 -3.344747535984e+00 0.0 
8.940223674553e-01 -1.543595733415e+01 0.0 
2.118566862474e+01 -8.435876987696e+00 0.0 
2.678325936437e+01 -1.032621195706e+01 0.0 
2.223400220487e+01 -5.179046761770e+00 0.0 
2.375370625384e+01 -7.251580562134e+00 0.0 
3.156971327386e+01 -1.255534750737e+01 0.0 
3.328226391312e+01 -1.172914813316e+01 0.0 
3.250948774219e+01 -1.120157009348e+01 0.0 
2.032993445717e+01 -8.867880112202e+00 0.0 
2.697226974856e+01 -7.536633082045e+00 0.0 
2.707377810386e+01 -6.590835263295e+00 0.0 
2.914099246827e+01 -1.191678458549e+01 0.0 
3.544824072239e+01 -1.621126558525e+01 0.0 
3.456511855436e+01 -1.665054783843e+01 0.0 
3.448395810225e+01 -1.759117813016e+01 0.0 
3.368378673938e+01 -1.708037781328e+01 0.0 
3.375560452567e+01 -1.610973066913e+01 0.0 
3.288001547988e+01 -1.654324255651e+01 0.0 
3.282475929147e+01 -1.749725654692e+01 0.0 
3.199880906313e+01 -1.697294088625e+01 0.0 
3.197001272932e+01 -1.811667776864e+01 0.0 
3.111884713021e+01 -1.742166785755e+01 0.0 
3.120418962865e+01 -1.642155709385e+01 0.0 
3.034666704371e+01 -1.683123833816e+01 0.0 
3.026224379976e+01 -1.772592851714e+01 0.0 
3.046632362943e+01 -1.582232843075e+01 0.0 
1.961344017324e+01 -1.857459447985e+01 0.0 
2.274975894774e+01 -9.532738811922e+00 0.0 
1.833923246887e+01 -2.396746883672e+00 0.0 
1.988859500848e+01 -2.249244376594e+00 0.0 
2.758045562861e+01 -1.086434261689e+01 0.0 
3.247300178163e+01 -1.909930104252e+01 0.0 
3.461947482503e+01 -1.911879848019e+01 0.0 
2.047161538662e+01 -6.941478180358e+00 0.0 
2.750230940214e+01 -1.915490590764e+01 0.0 
3.165081350803e+01 -1.161860780120e+01 0.0 
1.897456727641e+01 -4.889634688522e+00 0.0 
2.549338539756e+01 -1.914858252089e+01 0.0 
3.462873135081e+01 -1.567482276144e+01 0.0 
3.384432415243e+01 -1.512280684518e+01 0.0 
3.471433767690e+01 -1.469086942990e+01 0.0 
3.651470373046e+01 -1.918207952149e+01 0.0 
3.901742690249e+01 -1.345028556517e+01 0.0 
2.153224102692e+01 -1.920169709333e+01 0.0 
1.918382939341e+01 -1.316226275662e+01 0.0 
2.005389162382e+01 -1.271962165174e+01 0.0 
2.011472087878e+01 -1.175029352900e+01 0.0 
3.210679478412e+01 -1.598038618242e+01 0.0 
1.752175226543e+01 -1.914713022656e+01 0.0 
1.696897240059e+01 -1.832772588765e+01 0.0 
1.599682523337e+01 -1.832599992024e+01 0.0 
1.644507199462e+01 -1.743697981535e+01 0.0 
1.549987712903e+01 -1.915192375101e+01 0.0 
3.050250861901e+01 -1.918943550234e+01 0.0 
2.949944061527e+01 -1.922950455235e+01 0.0 
1.375892575273e+01 -6.447160534926e+00 0.0 
1.457223670180e+01 -7.006709243857e+00 0.0 
1.450818793236e+01 -7.965943451779e+00 0.0 
1.538804712402e+01 -7.553409623699e+00 0.0 
1.545817644768e+01 -6.580929593419e+00 0.0 
1.626506893751e+01 -7.129032608911e+00 0.0 
1.619833811522e+01 -8.086588580887e+00 0.0 
1.714448609609e+01 -6.697429609777e+00 0.0 
2.887616543568e+01 -1.668015232137e+01 0.0 
1.349814589130e+01 -1.918225301544e+01 0.0 
1.153887772210e+01 -1.311384581217e+01 0.0 
1.242708159886e+01 -1.267046795531e+01 0.0 
1.249799674267e+01 -1.169005616014e+01 0.0 
6.631723893693e+00 -9.774184881867e+00 0.0 
7.451471631867e+00 -1.033148796006e+01 0.0 
7.377795355458e+00 -1.132196345268e+01 0.0 
5.810931797536e+00 -9.211654212252e+00 0.0 
2.402683899133e+01 -1.441378562320e+01 0.0 
1.249768692036e+01 -1.917388426624e+01 0.0 
1.580373499437e+01 -1.290751860664e+01 0.0 
8.344650507834e+00 -9.898403995170e+00 0.0 
3.750622115305e+01 -1.086526401533e+01 0.0 
3.699391251667e+01 -1.171695900794e+01 0.0 
3.606517829518e+01 -1.173717504500e+01 0.0 
3.650257641795e+01 -1.270047380221e+01 0.0 
3.808951488918e+01 -1.183518714175e+01 0.0 
4.760380962420e+00 -1.162484888315e+01 0.0 
3.861210370848e+00 -1.205657631736e+01 0.0 
3.038284309476e+00 -1.149851280664e+01 0.0 
2.961598794889e+00 -1.248856794980e+01 0.0 
2.138953225512e+00 -1.193212674534e+01 0.0 
2.227383593457e+00 -1.096258903918e+01 0.0 
2.043265419276e+00 -1.292158472959e+01 0.0 
1.252449446028e+00 -1.225502002753e+01 0.0 
3.949985210740e+01 -1.086594001795e+01 0.0 
1.453499444792e+01 -8.768805922472e-01 0.0 
1.403518950933e+01 -1.749965556633e+00 0.0 
1.300715031023e+01 -1.714737233040e+00 0.0 
1.350929389899e+01 -2.527443911291e+00 0.0 
1.449600910711e+01 -2.595486162864e+00 0.0 
1.395693872901e+01 -3.484211041558e+00 0.0 
1.495105865208e+01 -3.364609636216e+00 0.0 
1.508822528740e+01 -1.766586020494e+00 0.0 
1.250223858430e+01 -8.634590186802e-01 0.0 
1.200279523409e+01 -1.709044504992e+00 0.0 
1.150086239419e+01 -8.592789190668e-01 0.0 
1.101482754194e+01 -1.677730591922e+00 0.0 
1.148018564526e+01 -2.659323866909e+00 0.0 
8.800552119754e+00 -3.989875954728e+00 0.0 
3.452790439430e+00 -1.901136170646e+01 0.0 
8.658451825200e-01 -9.503462241795e+00 0.0 
1.694787786797e+00 -9.000589234502e+00 0.0 
1.703436717094e+00 -8.038819004041e+00 0.0 
2.594197971110e+00 -8.563955242845e+00 0.0 
1.630513735412e+00 -9.907244747511e+00 0.0 
8.566859292791e-01 -7.512203837972e+00 0.0 
1.685461277022e+00 -7.164280248030e+00 0.0 
2.506394468801e+00 -8.623386730818e-01 0.0 
2.007475081581e+00 -1.727729545205e+00 0.0 
9.211534699767e-01 -1.628791366312e+00 0.0 
1.500000000020e+00 -2.598063549486e+00 0.0 
2.482078929963e+00 -2.553580088725e+00 0.0 
2.999795253092e+00 -1.732169015019e+00 0.0 
3.999712607169e+00 -1.728832897453e+00 0.0 
4.499752199340e+00 -8.656478679175e-01 0.0 
4.964377774841e+00 -1.730129617941e+00 0.0 
4.425017908337e+00 -2.597541756243e+00 0.0 
5.446573195014e+00 -8.410144840023e-01 0.0 
4.915722346614e+01 -1.550640962770e+01 0.0 
4.826794919243e+01 -1.600000000000e+01 0.0 
1.053139533193e+01 -1.911782884365e+01 0.0 
4.156049861949e+01 -1.095160998589e+01 0.0 
9.494526624416e+00 -8.650570090219e-01 0.0 
4.555762166964e+01 -1.897098103585e+01 0.0 
4.250656411371e+01 -1.914387356218e+01 0.0 
4.350906466345e+01 -1.917234727395e+01 0.0 
8.759665722424e-01 -1.746422130609e+01 0.0 
1.698936011838e+00 -1.795012186674e+01 0.0 
4.742476811029e+01 -1.900090177972e+01 0.0 
7.749196752349e+00 -6.368049313489e+00 0.0 
3.361572113416e+01 -1.798765193915e+01 0.0 
4.484660149212e+01 -1.728661231383e+01 0.0 
1.984038172228e+01 -4.502575320116e+00 0.0 
1.035080352627e+01 -6.166639575753e+00 0.0 
2.753558010652e+00 -1.444909521181e+01 0.0 
7.217069543032e+00 -1.328635391078e+01 0.0 
4.364336727739e+00 -1.655585677381e+01 0.0 
4.595208426108e+00 -1.357919665443e+01 0.0 
6.164967006980e+00 -1.569873454630e+01 0.0 
1.487855768353e+01 -1.826523774028e+01 0.0 
2.791876456372e+00 -4.019632415181e+00 0.0 
4.246464893515e+01 -1.364898659620e+01 0.0 
4.503855590351e+01 -1.329552780944e+01 0.0 
4.407239109604e+01 -1.573900004093e+01 0.0 
5.141054449252e+00 -6.664290382472e+00 0.0 
3.141083947149e+00 -1.055790764912e+01 0.0 
6.196463198741e+00 -4.256497932609e+00 0.0 
2.599618716181e+01 -1.836893455464e+01 0.0 
2.923057372337e+01 -1.098461757645e+01 0.0 
1.168343877486e+01 -1.114079645041e+01 0.0 
6.706222096238e+00 -8.780364234441e+00 0.0 
8.567858614669e+00 -6.943121440850e+00 0.0 
1.123755132901e+01 -5.753525820030e+00 0.0 
2.353456234423e+01 -1.008536320953e+01 0.0 
9.162073319168e+00 -1.045593739109e+01 0.0 
9.676343469685e+00 -1.496493008366e+01 0.0 
4.490637882905e+01 -1.628778970202e+01 0.0 
7.398129387772e+00 -9.639977982323e-01 0.0 
1.049641705805e+01 -1.552503975272e+01 0.0 
9.010356286268e+00 -1.242805042052e+01 0.0 
3.985573925497e+01 -1.399863651620e+01 0.0 
1.816196318262e+01 -1.554066497931e+01 0.0 
1.306332244168e+01 -3.963646550326e+00 0.0 
4.145850903932e+01 -1.608094559275e+01 0.0 
3.794664933633e+01 -1.779020121986e+01 0.0 
3.819614412903e+01 -1.290749321016e+01 0.0 
6.270014188119e+00 -3.255093186826e+00 0.0 
4.251165370388e+01 -1.263870364997e+01 0.0 
1.207347709171e+01 -1.763942826023e+01 0.0 
3.633240829927e+01 -1.577330481104e+01 0.0 
4.319052668832e+00 -6.101812561904e+00 0.0 
1.676492415806e+01 -1.151547901392e+01 0.0 
2.594059220037e+01 -1.074225223009e+01 0.0 
3.340750911501e+01 -9.898764354137e+00 0.0 
4.397619591281e+01 -1.769773736461e+01 0.0 
2.175611595028e+01 -1.185718747128e+01 0.0 
1.641818733106e+01 -1.640685203215e+01 0.0 
1.661211421753e+01 -1.346121366338e+01 0.0 
3.428853504935e+00 -6.551993389271e+00 0.0 
8.700728832502e+00 -1.638460872825e+01 0.0 
1.931369795309e+01 -1.121629383702e+01 0.0 
4.139798872363e+01 -1.706922153459e+01 0.0 
2.647837478700e+01 -1.507353829290e+01 0.0 
1.779469616424e+01 -9.161615782908e+00 0.0 
3.885879219319e+01 -1.642026488918e+01 0.0 
1.338194936770e+01 -1.125916521471e+01 0.0 
1.897071181111e+01 -1.609204322578e+01 0.0 
2.844308548793e+01 -1.046221003096e+01 0.0 
2.659854702194e+01 -1.316109415760e+01 0.0 
2.979604503271e+01 -1.433296157755e+01 0.0 
2.417694041347e+01 -1.251231397779e+01 0.0 
1.807401327411e+00 -1.388891148480e+01 0.0 
9.599810618782e+00 -1.595439365034e+01 0.0 
1.652144692160e+01 -4.205392788472e+00 0.0 
2.367839450246e+01 -8.188385218643e+00 0.0 
3.814894930468e+01 -1.390748338767e+01 0.0 
2.466448215774e+01 -1.685878545680e+01 0.0 
4.134044524611e+01 -1.806610045954e+01 0.0 
2.600511411958e+01 -9.801774120648e+00 0.0 
7.882158050716e+00 -1.582364037353e+01 0.0 
3.881607873422e+01 -1.737970515013e+01 0.0 
8.270182347708e+00 -1.088622154920e+01 0.0 
8.672520392520e-01 -4.532984309881e+00 0.0 
1.993447205337e+01 -3.579061902667e+00 0.0 
1.794616079549e+01 -7.238038888498e+00 0.0 
2.097277068165e+01 -1.132450168636e+01 0.0 
8.194803300681e+00 -1.187214224265e+01 0.0 
3.522279404911e+01 -1.823342818178e+01 0.0 
6.984481050295e+00 -1.625271465557e+01 0.0 
1.309433007797e+01 -1.521718594215e+01 0.0 
2.150246167611e+01 -1.885399038185e+00 0.0 
3.250689370209e+01 -1.028789870535e+01 0.0 
6.085886272238e+00 -1.668342132851e+01 0.0 
1.588455661727e+01 -1.193498985921e+01 0.0 
1.809323400821e+01 -1.651110084195e+01 0.0 
1.348885082381e+00 -1.136065576512e+01 0.0 
2.497670221995e+01 -1.834631276173e+01 0.0 
2.937062818424e+01 -8.233711194470e+00 0.0 
5.185823744469e+00 -1.711566910207e+01 0.0 
1.477497877209e+01 -1.530177014512e+01 0.0 
2.125346158933e+01 -7.473003997367e+00 0.0 
4.751561118290e+01 -1.084897772632e+01 0.0 
5.056026576843e+00 -1.825750475525e+01 0.0 
1.473948554523e+01 -1.634577436309e+01 0.0 
2.410566630936e+01 -1.345970002612e+01 0.0 
1.507337507513e+01 -1.138527895328e+01 0.0 
3.189857338687e+01 -8.887781229006e+00 0.0 
7.298712468334e+00 -1.230231046246e+01 0.0 
2.738235495295e+01 -1.368931690364e+01 0.0 
3.750141041969e+01 -1.920449893070e+01 0.0 
1.557271965640e+01 -1.683317951731e+01 0.0 
3.393731848929e+01 -1.413034777044e+01 0.0 
6.482156824153e+00 -1.174575135362e+01 0.0 
2.077971718439e+01 -1.421279621836e+01 0.0 
3.455084320178e+00 -2.562590040585e+00 0.0 
3.099056096250e+01 -9.270280416035e+00 0.0 
5.580176125418e+00 -1.217387969259e+01 0.0 
1.707247630389e+01 -7.660651981710e+00 0.0 
1.418658814174e+01 -1.180390575393e+01 0.0 
2.049103025389e+01 -1.811296706038e+01 0.0 
4.680386172316e+00 -1.260396879301e+01 0.0 
1.699679896554e+01 -8.624561788199e+00 0.0 
3.779470168555e+00 -1.303424899720e+01 0.0 
3.036589870126e+01 -7.879832518349e+00 0.0 
3.306993001774e+01 -1.457671062095e+01 0.0 
2.840150110165e+00 -1.346530088269e+01 0.0 
2.732011135052e+01 -1.464591214560e+01 0.0 
5.423639259568e+00 -2.659711955016e+00 0.0 
2.324455961696e+01 -1.387269388211e+01 0.0 
1.752768355571e+00 -1.693128613594e+01 0.0 
1.020244783051e+01 -8.076834012808e+00 0.0 
1.330873875224e+01 -1.222417528206e+01 0.0 
3.297727364880e+01 -1.555480372087e+01 0.0 
2.890929955439e+01 -6.868664170731e+00 0.0 
1.323294664622e+01 -1.320754260334e+01 0.0 
2.726532861246e+01 -1.560593120806e+01 0.0 
2.240020643398e+01 -1.429299177247e+01 0.0 
2.090445823633e+01 -1.228128621332e+01 0.0 
1.315809881502e+01 -1.420739326938e+01 0.0 
2.781328038068e+01 -7.181956082300e+00 0.0 
8.614200829057e+00 -5.936933226306e+00 0.0 
8.714765730069e+00 -4.979270529687e+00 0.0 
1.611881701099e+01 -9.041973294003e+00 0.0 
2.806830314340e+01 -1.614622947108e+01 0.0 
2.084435391396e+00 -3.385085422913e+00 0.0 
3.133211811152e+01 -1.542347619750e+01 0.0 
9.693114650768e+00 -3.590281506442e+00 0.0 
1.531883592202e+01 -8.504584946143e+00 0.0 
2.151589117094e+01 -1.578915763018e+01 0.0 
4.918943882696e+01 -1.355538828056e+01 0.0 
1.443236615188e+01 -8.918701794549e+00 0.0 
8.276250966452e-01 -5.537685192197e+00 0.0 
1.362790867918e+01 -8.374718262212e+00 0.0 
2.083767477370e+01 -1.324843956035e+01 0.0 
1.273834678703e+01 -8.790890389337e+00 0.0 
1.192275845670e+01 -8.242261327467e+00 0.0 
4.477236023583e+01 -1.824312396664e+01 0.0 
1.102989384254e+01 -8.649855800911e+00 0.0 
4.849096516045e+01 -1.917293752213e+01 0.0 
1.588996752238e+00 -1.910230934687e+01 0.0 
4.904245197583e+01 -1.159839008158e+01 0.0 
2.753852929608e+01 -5.782128488093e+00 0.0 
1.756133602833e+01 -8.306130313187e-01 0.0 
2.615423700951e+01 -6.153865090092e+00 0.0 
1.028818761294e+01 -7.122020845892e+00 0.0 
2.970818901196e+01 -1.527821347593e+01 0.0 
4.801461623449e+01 -1.164472570985e+01 0.0 
9.455722100419e+00 -6.546069291118e+00 0.0 
3.089099236677e+01 -1.835339328261e+01 0.0 
2.350000000013e+01 -1.920825896750e+01 0.0 
4.830620531887e+01 -1.506626155470e+01 0.0 
1.725381944701e+01 -1.688794487850e+01 0.0 
2.156246225273e+01 -1.475893794002e+01 0.0 
4.919319648787e+01 -1.742767505896e+01 0.0 
4.437935623576e+01 -1.077662927266e+01 0.0 
1.001520521978e+01 -1.652692675208e+00 0.0 
9.067160240050e-01 -1.441937727541e+01 0.0 
2.603365149390e+01 -4.755996613848e+00 0.0 
2.458344439002e+01 -4.873645517696e+00 0.0 
2.304312390142e+01 -3.836552768096e+00 0.0 
2.546923202198e+00 -6.902480355749e+00 0.0 
1.251534969393e+01 -2.490989965776e+00 0.0 
2.454061833377e+01 -3.933354231935e+00 0.0 
1.788186558740e+01 -1.827424884923e+01 0.0 
4.090785243552e+01 -1.166553231904e+01 0.0 
2.230128851568e+01 -1.623015738726e+01 0.0 
2.302362347568e+01 -2.916239960270e+00 0.0 
3.878119254461e+01 -1.830091164002e+01 0.0 
2.210081359958e+01 -1.829238229150e+01 0.0 
8.443704882233e+00 -1.921993252862e+01 0.0 
2.218405824691e+01 -1.724557581508e+01 0.0 
2.151157503963e+01 -2.790636689331e+00 0.0 
3.741658958955e+01 -1.250400191722e+01 0.0 
2.697247663737e+01 -1.838290202309e+01 0.0 
4.743362342862e+01 -1.585850773010e+01 0.0 
6.671345075358e+00 -1.924977576322e+01 0.0 
3.900825404537e+01 -1.157220003875e+01 0.0 
4.649692961375e+01 -1.836335837481e+01 0.0 
1.578831424832e+01 -3.678284023361e+00 0.0 
4.814208768888e+01 -1.841249298770e+01 0.0 
2.964123298315e+01 -1.625739458193e+01 0.0 
4.580760351902e+01 -1.284294554687e+01 0.0 
3.561520879615e+01 -1.245548941949e+01 0.0 
2.555418095658e+00 -1.841101588290e+01 0.0 
3.288468366144e+01 -1.834258164109e+01 0.0 
2.065894391445e+01 -2.240688571739e+00 0.0 
4.739171429915e+01 -1.496536413446e+01 0.0 
3.478086729185e+00 -8.576434653209e+00 0.0 
1.606010630246e+01 -1.588421807951e+00 0.0 
1.018329200594e+01 -1.834320874317e+01 0.0 
2.957213339430e+01 -1.720496954591e+01 0.0 
4.142712790164e+00 -1.837794506222e+01 0.0 
6.698721532573e-01 -2.499999999997e+00 0.0 
8.037039123140e+00 -1.571229354954e+00 0.0 
1.203541361428e+01 -1.847784298001e+01 0.0 
2.899968332038e+01 -1.848264722179e+01 0.0 
1.469229460948e+01 -4.219485753730e+00 0.0 
4.049590781957e+01 -1.932812501995e+01 0.0 
1.996211678340e+01 -1.506329754720e+00 0.0 
4.250588298353e+01 -1.067383247529e+01 0.0 
5.831497011152e+00 -1.635396227234e+00 0.0 
5.317606125670e+00 -1.923927974868e+01 0.0 
4.208546426993e+01 -1.842830665025e+01 0.0 
2.327553405011e+00 -9.459409929662e+00 0.0 
3.568351902251e+01 -1.096637218582e+01 0.0 
1.682104374890e+00 -6.231413350963e+00 0.0 
2.451812238018e+01 -1.766524914339e+01 0.0 
1.058003429638e+01 -2.391839617098e+00 0.0 
4.399988753123e+01 -1.851998776342e+01 0.0 
1.400000000010e+01 -1.852293523028e+01 0.0 
3.604719565984e+01 -1.850662876800e+01 0.0 
1.951297136734e+01 -1.938092349694e+01 0.0 
1.821365318472e+01 -1.531276353287e+00 0.0 
2.298031859732e+01 -1.854635324722e+01 0.0 
1.552168066204e+01 -1.764280741977e+01 0.0 
4.572957713638e+01 -1.073347898229e+01 0.0 
3.429637429624e+01 -1.838861552790e+01 0.0 
2.427434426052e+00 -7.705577451869e+00 0.0 
4.662792031485e+00 -3.359424455416e+00 0.0 
4.926794919243e+01 -1.926794919243e+01 0.0 
7.320508075690e-01 -7.320508075688e-01 0.0 
4.926794919243e+01 -1.073205080757e+01 0.0 
7.320508075705e-01 -1.926794919243e+01 0.0 
2.917460242467e+00 -3.202866455310e+00 0.0 
4.838200575963e+01 -1.232674147454e+01 0.0 
2.998445708009e+01 -1.854403752148e+01 0.0 
5.949940090766e-01 -1.152762038165e+01 0.0 
4.844763495759e+01 -1.678092548787e+01 0.0 
1.301685480160e+01 -3.170056592566e+00 0.0 
1.650046335855e+01 -6.731535384067e-01 0.0 
4.854881540991e+01 -1.405224059779e+01 0.0 
2.119545114693e+01 -1.846813384545e+01 0.0 
3.797852849897e+01 -1.857978513215e+01 0.0 
4.649823708745e+01 -1.338351810816e+01 0.0 
2.012685900976e+01 -2.889659035009e+00 0.0 
2.953271913273e+01 -1.791558075192e+01 0.0 
2.408509097292e+00 -1.021949208421e+01 0.0 
2.642589566221e+01 -1.773216561448e+01 0.0 
1.730010270775e+01 -1.763165076721e+01 0.0 
2.017406551304e+01 -8.513536440582e-01 0.0 
5.254761581934e-01 -1.249999999999e+01 0.0 
6.640448215642e+00 -1.545337834885e+00 0.0 
7.843361506349e+00 -1.852719839527e+01 0.0 
1.588442191088e+00 -1.066158564320e+01 0.0 
2.131250000000e+01 -4.209183673460e-01 0.0 
4.950862068966e+01 -5.000000000001e-01 0.0 
2.280866189488e+01 -1.416779325160e+00 0.0 
4.950862068966e+01 -1.500000000000e+00 0.0 
2.431250000000e+01 -2.420918367347e+00 0.0 
4.950961538461e+01 -2.500000000000e+00 0.0 
2.580823483239e+01 -3.416278049680e+00 0.0 
4.950961538461e+01 -3.500000000000e+00 0.0 
2.731250000000e+01 -4.420918367347e+00 0.0 
4.951086956522e+01 -4.500000000000e+00 0.0 
2.880770112393e+01 -5.415638864241e+00 0.0 
4.951086956522e+01 -5.500000000000e+00 0.0 
3.031250000000e+01 -6.420918367347e+00 0.0 
4.951250000000e+01 -6.500000000000e+00 0.0 
3.180701530612e+01 -7.414795918363e+00 0.0 
4.951250000000e+01 -7.500000000000e+00 0.0 
3.331250000000e+01 -8.420918367347e+00 0.0 
4.951470588234e+01 -8.500000000000e+00 0.0 
3.480610198624e+01 -9.413633635267e+00 0.0 
4.951470588234e+01 -9.500000000000e+00 0.0 

SCALARS node_number int
LOOKUP_TABLE default
1
2
3
4
5
6
7
8
9
10
11
12
13
14
15
16
17
18
19
20
21
22
23
24
25
26
27
28
29
30
31
32
33
34
35
36
37
38
39
40
41
42
43
44
45
46
47
48
49
50
51
52
53
54
55
56
57
58
59
60
61
62
63
64
65
66
67
68
69
70
71
72
73
74
75
76
77
78
79
80
81
82
83
84
85
86
87
88
89
90
91
92
93
94
95
96
97
98
99
100
101
102
104
105
106
107
108
109
110
111
112
113
114
115
116
117
118
119
120
121
122
123
124
125
126
127
128
129
130
131
132
133
134
135
136
137
138
139
140
141
142
143
144
145
146
147
148
149
150
151
152
153
154
155
156
157
158
159
160
161
162
163
164
165
166
167
168
169
170
171
172
173
174
175
176
177
178
179
180
181
182
183
184
185
186
187
188
189
190
191
192
193
194
195
196
197
198
199
200
201
202
203
204
205
206
207
208
209
210
211
212
213
214
215
216
217
218
219
220
221
222
223
224
225
226
227
228
229
230
231
232
233
234
235
236
237
238
239
240
241
242
243
244
245
246
247
248
249
250
251
252
253
254
255
256
257
258
259
260
261
262
263
264
265
266
267
268
269
270
271
272
273
274
275
276
277
278
279
280
281
282
283
284
285
286
287
288
289
290
291
292
293
294
295
296
297
298
299
300
301
302
303
304
305
306
307
308
309
310
311
312
313
314
315
316
317
318
319
320
321
322
323
324
325
326
327
328
329
330
331
332
333
334
335
336
337
338
339
340
341
342
343
344
345
346
347
348
349
350
351
352
353
354
355
356
357
358
359
360
361
362
363
364
365
366
367
368
369
370
371
372
373
374
375
376
377
378
379
380
381
382
383
384
385
386
387
388
389
390
391
392
393
394
395
396
397
398
399
400
401
402
403
404
405
406
407
408
409
410
411
412
413
414
415
416
417
418
419
420
421
422
423
424
425
426
427
428
429
430
431
432
433
434
435
436
437
438
439
440
441
442
443
444
445
446
447
448
449
450
451
452
453
454
455
456
457
458
459
460
461
462
463
464
465
466
467
468
469
470
471
472
473
474
475
476
477
478
479
480
481
482
483
484
485
486
487
488
489
490
491
492
493
494
495
496
497
498
499
500
501
502
503
504
505
506
507
508
509
510
511
512
513
514
515
516
517
518
519
520
521
522
523
524
525
526
527
528
529
530
531
532
533
534
535
536
537
538
539
540
541
542
543
544
545
546
547
548
549
550
551
552
553
554
555
556
557
558
559
560
561
562
563
564
565
566
567
568
569
570
571
572
573
574
575
576
577
578
579
580
581
582
583
584
585
586
587
588
589
590
591
592
593
594
595
596
597
598
599
600
601
602
603
604
605
606
607
608
609
610
611
612
613
614
615
616
617
618
619
620
621
622
623
624
625
626
627
628
629
630
631
632
633
634
635
636
637
638
639
640
641
642
643
644
645
646
647
648
649
650
651
652
653
654
655
656
657
658
659
660
661
662
663
664
665
666
667
668
669
670
671
672
673
674
675
676
677
678
679
680
681
682
683
684
685
686
687
688
689
690
691
692
693
694
695
696
697
698
699
700
701
702
703
704
705
706
707
708
709
710
711
712
713
714
715
716
717
718
719
720
721
722
723
724
725
726
727
728
729
730
731
732
733
734
735
736
737
738
739
740
741
742
743
744
745
746
747
748
749
750
751
752
753
754
755
756
757
758
759
760
761
762
763
764
765
766
767
768
769
770
771
772
773
774
775
776
777
778
779
780
781
782
783
784
785
786
787
788
789
790
791
792
793
794
795
796
797
798
799
800
801
802
803
804
805
806
807
808
809
810
811
812
813
814
815
816
817
818
819
820
821
822
823
824
825
826
827
828
829
830
831
832
833
834
835
836
837
838
839
840
841
842
843
844
845
846
847
848
849
850
851
852
853
854
855
856
857
858
859
860
861
862
863
864
865
866
867
868
869
870
871
872
873
874
875
876
877
878
879
880
881
882
883
884
885
886
887
888
889
890
891
892
893
894
895
896
897
898
899
900
901
902
903
904
905
906
907
908
909
910
911
912
913
914
915
916
917
918
919
920
921
922
923
924
925
926
927
928
929
930
931
932
933
934
935
936
937
938
939
940
941
942
943
944
945
946
947
948
949
950
951
952
953
954
955
956
957
958
959
960
961
962
963
964
965
966
967
968
969
970
971
972
973
974
975
976
977
978
979
980
981
982
983
984
985
986
987
988
989
990
991
992
993
994
995
996
997
998
999
1000
1001
1002
1003
1004
1005
1006
1007
1008
1009
1010
1011
1012
1013
1014
1015
1016
1017
1018
1019
1020
1021
1022
1023
1024
1025
1026
1027
1028
1029
1030
1031
1032
1033
1034
1035
1036
1037
1038
1039
1040
1041
1042
1043
1044
1045
1046
1047
1048
1049
1050
1051
1052
1053
1054
1055
1056
1057
1058
1059
1060
1061
1062
1063
1064
1065
1066
1067
1068
1069
1070
1071
1072
1073
1074
1075
1076
1077
1078
1079
1080
1081
1082
1083
1084
1085
1086
1087
1088
1089
1090
1091
1092
1093
1094
1095
1096
1097
1098
1099
1100
1101
1102
1103
1104
1105
1106
1107
1108
1109
1110
1111
1112
1113
1114
1115
1116
1117
1118
1119
1120
1121
1122
1123
1124
1125
1126
1127
1128
1129
1130
1131
1132
1133
1134
1135
1136
1137
1138
1139
1140
1141
1142
1143
1144
1145
1146
1147
1148
1149
1150
1151
1152
1153
1154
1155
1156
1157
1158
1159
1160
1161
1162
1163
1164
1165
1166
1167
1168
1169
1170
1171
1172
1173
1174
1175
1176
1177
1178
1179
1180
1181
1182
1183
1184
1185
1186
1187
1188
1189
1190
1191
1192
1193
1194
1195
1196
1197
1198
1199
1200
1201
1202
1203
1204
1205
1206
1207
1208
1209
1210
1211
1212
1213
1214
1215
1216
1217
1218
1219
1220
1221
1222
1223
1224
1225
1226
1227
1228
1229
1230
1231
1232
1233
1234
1235
1236
1237
1238
1239
1240
1241
1242
1243
1244
1245
1246
1247
1248
1249
1250
1251
1252
1253
1254
1255
1256
1257
1258
1259
1260
1261
1262
1263
1264
1265
1266
1267
1268
1269
1270
1271
1272
1273
1274
1275
1276
1277
1278
1279
1280
1281
1282
1283
1284

VECTORS node_mesh_deformation float
0.0 8.236844123849e-02 0.0 
0.000000000000e+00 6.244981232098e-02 0.0 
0.0 0.000000000000e+00 0.0 
0.000000000000e+00 0.000000000000e+00 0.0 
0.0 8.225539876877e-02 0.0 
0.0 8.174091170972e-02 0.0 
0.0 8.081976755252e-02 0.0 
0.0 7.948375251592e-02 0.0 
0.0 7.771042382145e-02 0.0 
0.0 7.551230032694e-02 0.0 
0.0 7.289110432980e-02 0.0 
0.0 6.984298139401e-02 0.0 
0.0 6.637062700469e-02 0.0 
0.0 6.247166148295e-02 0.0 
0.0 5.813918472962e-02 0.0 
0.0 5.337560882477e-02 0.0 
0.0 4.818782626460e-02 0.0 
0.0 4.259485102294e-02 0.0 
0.0 3.656367473682e-02 0.0 
0.0 3.010426786543e-02 0.0 
0.0 2.321983706571e-02 0.0 
0.0 1.590440906082e-02 0.0 
0.0 8.157854308504e-03 0.0 
0.000000000000e+00 0.000000000000e+00 0.0 
0.000000000000e+00 0.000000000000e+00 0.0 
0.000000000000e+00 0.000000000000e+00 0.0 
0.000000000000e+00 0.000000000000e+00 0.0 
0.000000000000e+00 0.000000000000e+00 0.0 
0.000000000000e+00 0.000000000000e+00 0.0 
0.000000000000e+00 0.000000000000e+00 0.0 
0.000000000000e+00 0.000000000000e+00 0.0 
0.000000000000e+00 0.000000000000e+00 0.0 
0.000000000000e+00 0.000000000000e+00 0.0 
0.000000000000e+00 0.000000000000e+00 0.0 
0.000000000000e+00 0.000000000000e+00 0.0 
0.000000000000e+00 0.000000000000e+00 0.0 
0.000000000000e+00 0.000000000000e+00 0.0 
0.000000000000e+00 0.000000000000e+00 0.0 
0.000000000000e+00 0.000000000000e+00 0.0 
0.000000000000e+00 0.000000000000e+00 0.0 
0.000000000000e+00 0.000000000000e+00 0.0 
0.000000000000e+00 0.000000000000e+00 0.0 
0.000000000000e+00 0.000000000000e+00 0.0 
0.000000000000e+00 0.000000000000e+00 0.0 
0.000000000000e+00 0.000000000000e+00 0.0 
0.000000000000e+00 0.000000000000e+00 0.0 
0.000000000000e+00 0.000000000000e+00 0.0 
0.000000000000e+00 0.000000000000e+00 0.0 
0.000000000000e+00 0.000000000000e+00 0.0 
0.000000000000e+00 0.000000000000e+00 0.0 
0.000000000000e+00 0.000000000000e+00 0.0 
0.000000000000e+00 0.000000000000e+00 0.0 
0.000000000000e+00 0.000000000000e+00 0.0 
0.000000000000e+00 0.000000000000e+00 0.0 
0.000000000000e+00 0.000000000000e+00 0.0 
0.000000000000e+00 0.000000000000e+00 0.0 
0.000000000000e+00 0.000000000000e+00 0.0 
0.000000000000e+00 0.000000000000e+00 0.0 
0.000000000000e+00 0.000000000000e+00 0.0 
0.000000000000e+00 0.000000000000e+00 0.0 
0.000000000000e+00 0.000000000000e+00 0.0 
0.000000000000e+00 0.000000000000e+00 0.0 
0.000000000000e+00 0.000000000000e+00 0.0 
0.000000000000e+00 0.000000000000e+00 0.0 
0.000000000000e+00 0.000000000000e+00 0.0 
0.000000000000e+00 0.000000000000e+00 0.0 
0.000000000000e+00 0.000000000000e+00 0.0 
0.000000000000e+00 0.000000000000e+00 0.0 
0.000000000000e+00 0.000000000000e+00 0.0 
0.000000000000e+00 0.000000000000e+00 0.0 
0.000000000000e+00 0.000000000000e+00 0.0 
0.000000000000e+00 0.000000000000e+00 0.0 
0.000000000000e+00 5.812143663891e-02 0.0 
0.000000000000e+00 5.336893315627e-02 0.0 
0.000000000000e+00 4.818516687146e-02 0.0 
0.000000000000e+00 4.258245384834e-02 0.0 
0.000000000000e+00 3.654769321708e-02 0.0 
0.000000000000e+00 3.009003261319e-02 0.0 
0.000000000000e+00 2.320615910209e-02 0.0 
0.000000000000e+00 1.589530970897e-02 0.0 
0.000000000000e+00 8.159169706527e-03 0.0 
1.957336998970e-05 8.233522049300e-02 0.0 
0.000000000000e+00 8.233630834584e-02 0.0 
-8.629551786044e-06 6.246981404609e-02 0.0 
1.456480696049e-07 8.224203515912e-02 0.0 
-1.662192312324e-05 8.171978400835e-02 0.0 
-1.588362167837e-05 8.081326011355e-02 0.0 
-1.374296346413e-05 7.948074096239e-02 0.0 
-1.409905663152e-05 7.771034500188e-02 0.0 
-1.520693796309e-05 7.551368630800e-02 0.0 
-1.396905938122e-05 7.289148858578e-02 0.0 
-1.336850534273e-05 6.984290717640e-02 0.0 
-1.386480666099e-05 6.636716381155e-02 0.0 
0.000000000000e+00 8.225560651269e-02 0.0 
0.000000000000e+00 8.173109172099e-02 0.0 
0.000000000000e+00 8.081769950288e-02 0.0 
0.000000000000e+00 7.945432218076e-02 0.0 
0.000000000000e+00 7.769774167104e-02 0.0 
0.000000000000e+00 7.548474899591e-02 0.0 
0.000000000000e+00 7.287733561386e-02 0.0 
0.000000000000e+00 6.981267997682e-02 0.0 
0.000000000000e+00 6.635625482621e-02 0.0 
7.664362556170e-06 6.245080928026e-02 0.0 
3.036540157098e-06 6.245325309534e-02 0.0 
4.087435556244e-06 6.245567424530e-02 0.0 
4.938478816996e-06 6.245097520020e-02 0.0 
2.082880548926e-06 6.245761188359e-02 0.0 
7.828615196104e-07 6.245344174431e-02 0.0 
3.899064466850e-07 6.245549692862e-02 0.0 
-7.341605204658e-06 6.245352034686e-02 0.0 
-5.093277692936e-06 6.246248304119e-02 0.0 
-2.749680390934e-06 6.245914151584e-02 0.0 
-2.929065786361e-06 6.245803825817e-02 0.0 
-3.231847820473e-06 6.246374961185e-02 0.0 
-5.411404835343e-06 6.246584983064e-02 0.0 
-8.027964540247e-06 6.246413753716e-02 0.0 
1.067418921608e-05 8.234957272495e-02 0.0 
1.688853025783e-05 8.236122701399e-02 0.0 
2.768540340270e-05 8.235511979594e-02 0.0 
-4.197328847155e-06 8.235148763573e-02 0.0 
-7.116959688247e-06 8.236297518105e-02 0.0 
4.487046183499e-07 8.236269712970e-02 0.0 
5.638427078125e-06 8.235910700154e-02 0.0 
5.169745989519e-06 8.235773786828e-02 0.0 
2.894749879800e-06 8.235606648832e-02 0.0 
2.655576031074e-06 8.236043905209e-02 0.0 
-5.793483392580e-06 8.235995959810e-02 0.0 
-3.607950045392e-07 8.236976461317e-02 0.0 
2.406391544074e-05 8.236227855415e-02 0.0 
1.576356254862e-05 8.235268709583e-02 0.0 
1.425960492796e-06 8.235797060820e-02 0.0 
6.217784132012e-07 8.236163000156e-02 0.0 
8.042385868379e-06 8.236171311409e-02 0.0 
1.773677409012e-05 8.236518886600e-02 0.0 
2.605162258584e-06 8.235698203262e-02 0.0 
3.506513070306e-05 8.233911121579e-02 0.0 
3.733596577504e-05 8.234481889784e-02 0.0 
1.862044857859e-06 8.235587855716e-02 0.0 
3.238927270388e-06 8.235969699346e-02 0.0 
-2.083093036731e-06 8.236458559203e-02 0.0 
4.915856948173e-07 8.236843825863e-02 0.0 
1.925458910534e-06 8.237241205421e-02 0.0 
4.426915957367e-06 8.237424406058e-02 0.0 
5.728253864135e-06 8.237575845536e-02 0.0 
6.786287446658e-06 8.237695967449e-02 0.0 
7.351276270384e-06 8.237824218657e-02 0.0 
7.768111611739e-06 8.237949607553e-02 0.0 
8.035781092985e-06 8.238068540164e-02 0.0 
8.252430973243e-06 8.238168782520e-02 0.0 
8.439681238315e-06 8.238239998566e-02 0.0 
8.625527421202e-06 8.238273306719e-02 0.0 
8.820923966368e-06 8.238263604826e-02 0.0 
9.039104497788e-06 8.238209251343e-02 0.0 
9.293306085567e-06 8.238112014985e-02 0.0 
9.604487779313e-06 8.237975754141e-02 0.0 
1.000876432755e-05 8.237803866499e-02 0.0 
1.056047242542e-05 8.237596337065e-02 0.0 
1.132300375417e-05 8.237347240800e-02 0.0 
1.233814014512e-05 8.237042867912e-02 0.0 
1.354148319166e-05 8.236661773996e-02 0.0 
1.454305680682e-05 8.236181890911e-02 0.0 
1.408216686372e-05 8.235612217709e-02 0.0 
8.586395637167e-06 8.235135842972e-02 0.0 
-2.242701783217e-05 8.234280126846e-02 0.0 
1.076755809493e-05 8.221648274861e-02 0.0 
1.508414820961e-05 8.220142164427e-02 0.0 
1.159174631482e-05 8.220526813122e-02 0.0 
9.462237891000e-06 8.221021303237e-02 0.0 
8.482791493236e-06 8.221452282764e-02 0.0 
8.001588739148e-06 8.221802111646e-02 0.0 
7.757885242654e-06 8.222085732918e-02 0.0 
7.662176720657e-06 8.222320440282e-02 0.0 
7.684829604671e-06 8.222517855530e-02 0.0 
7.813769066445e-06 8.222683166499e-02 0.0 
8.038200547844e-06 8.222816473492e-02 0.0 
8.340565948117e-06 8.222914791543e-02 0.0 
8.691221651702e-06 8.222974428862e-02 0.0 
9.048997902994e-06 8.222993409713e-02 0.0 
9.366466436234e-06 8.222972502873e-02 0.0 
9.597049825061e-06 8.222916046686e-02 0.0 
9.691912069343e-06 8.222830758117e-02 0.0 
9.616064183149e-06 8.222727424761e-02 0.0 
9.319126078822e-06 8.222614487276e-02 0.0 
8.813067299940e-06 8.222503450065e-02 0.0 
7.956921646013e-06 8.222391745429e-02 0.0 
7.027847392038e-06 8.222281784011e-02 0.0 
5.533862154294e-06 8.222120208271e-02 0.0 
4.900750408154e-06 8.221872188254e-02 0.0 
1.910887430512e-06 8.221439881266e-02 0.0 
1.628370810636e-06 8.220983825885e-02 0.0 
-8.135312963731e-06 8.221090763507e-02 0.0 
9.728879213355e-07 8.219331146487e-02 0.0 
-4.707057307485e-06 8.171461825829e-02 0.0 
1.017586235719e-06 8.172661211493e-02 0.0 
7.037640575192e-06 8.172504150769e-02 0.0 
7.107992779254e-06 8.173009410369e-02 0.0 
8.932958433405e-06 8.173017192052e-02 0.0 
9.037968659698e-06 8.173172341116e-02 0.0 
9.544079212276e-06 8.173248015931e-02 0.0 
9.572221955523e-06 8.173369705783e-02 0.0 
9.647912790456e-06 8.173477435013e-02 0.0 
9.543640750564e-06 8.173586190001e-02 0.0 
9.369944898197e-06 8.173676287724e-02 0.0 
9.092003878663e-06 8.173740560512e-02 0.0 
8.755455290554e-06 8.173769376366e-02 0.0 
8.376286167788e-06 8.173758457291e-02 0.0 
7.988291265804e-06 8.173705945448e-02 0.0 
7.618119383324e-06 8.173613593135e-02 0.0 
7.291075419857e-06 8.173485666805e-02 0.0 
7.029341404063e-06 8.173326604296e-02 0.0 
6.859169523921e-06 8.173138506705e-02 0.0 
6.817086983801e-06 8.172920017497e-02 0.0 
6.960821281154e-06 8.172666742302e-02 0.0 
7.386046377178e-06 8.172375677386e-02 0.0 
8.246376033583e-06 8.172061136524e-02 0.0 
9.763291188847e-06 8.171808837490e-02 0.0 
1.224069266925e-05 8.172020295243e-02 0.0 
1.735372455158e-05 8.175286738352e-02 0.0 
7.018025129923e-07 8.080596032498e-02 0.0 
1.402413259299e-05 8.081871015373e-02 0.0 
9.868431714466e-06 8.081176432448e-02 0.0 
1.113577772927e-05 8.081610187431e-02 0.0 
9.800256641768e-06 8.081501436146e-02 0.0 
9.939069663290e-06 8.081714491289e-02 0.0 
9.506773686496e-06 8.081784184707e-02 0.0 
9.323245407700e-06 8.081924461640e-02 0.0 
9.015697699510e-06 8.082022208253e-02 0.0 
8.760731468271e-06 8.082116031252e-02 0.0 
8.479580579035e-06 8.082170834489e-02 0.0 
8.207508926716e-06 8.082191606269e-02 0.0 
7.915726193630e-06 8.082169107223e-02 0.0 
7.591497997339e-06 8.082104767477e-02 0.0 
7.230287245363e-06 8.082001484349e-02 0.0 
6.852953404746e-06 8.081866626617e-02 0.0 
6.485578580850e-06 8.081706144034e-02 0.0 
6.160370993769e-06 8.081523813258e-02 0.0 
5.923416935616e-06 8.081321531580e-02 0.0 
5.850864859269e-06 8.081101344123e-02 0.0 
6.065317677439e-06 8.080871183149e-02 0.0 
6.740916489889e-06 8.080659341995e-02 0.0 
8.004959113350e-06 8.080543408898e-02 0.0 
9.172621233233e-06 8.080599751778e-02 0.0 
5.403212114174e-06 8.078981255304e-02 0.0 
3.708026383720e-06 7.948151556643e-02 0.0 
5.279658175539e-06 7.946342011476e-02 0.0 
5.343005121006e-06 7.946217645204e-02 0.0 
5.056583802343e-06 7.946307933101e-02 0.0 
4.885846607294e-06 7.946474943398e-02 0.0 
4.940496410200e-06 7.946667354444e-02 0.0 
5.192371183682e-06 7.946863626779e-02 0.0 
5.568756300534e-06 7.947054512271e-02 0.0 
6.008602817076e-06 7.947234122848e-02 0.0 
6.466197497446e-06 7.947397302959e-02 0.0 
6.909767570562e-06 7.947537126690e-02 0.0 
7.304929532381e-06 7.947644712263e-02 0.0 
7.611833837018e-06 7.947707328826e-02 0.0 
7.897371588683e-06 7.947718925052e-02 0.0 
8.173852975801e-06 7.947677457090e-02 0.0 
8.622834791083e-06 7.947600741128e-02 0.0 
8.933810896394e-06 7.947473992110e-02 0.0 
9.687770358369e-06 7.947367600785e-02 0.0 
9.672704955221e-06 7.947172753485e-02 0.0 
1.113091902383e-05 7.947183964131e-02 0.0 
9.574212040064e-06 7.946727846528e-02 0.0 
1.406657262493e-05 7.947354020372e-02 0.0 
2.580524679274e-06 7.946230778117e-02 0.0 
7.372313604037e-07 7.769257585591e-02 0.0 
1.326564802184e-05 7.770671134031e-02 0.0 
9.776482489343e-06 7.769990318479e-02 0.0 
1.094672025204e-05 7.770515882576e-02 0.0 
9.482224946566e-06 7.770457381279e-02 0.0 
9.132917277554e-06 7.770712781353e-02 0.0 
8.270292660484e-06 7.770781955270e-02 0.0 
7.856884820967e-06 7.770897289803e-02 0.0 
7.513628489164e-06 7.770922360235e-02 0.0 
7.223412737289e-06 7.770898480867e-02 0.0 
6.770871863182e-06 7.770805569297e-02 0.0 
6.250785126838e-06 7.770678161550e-02 0.0 
5.724028518728e-06 7.770526192712e-02 0.0 
5.201199755334e-06 7.770357620921e-02 0.0 
4.698308615048e-06 7.770181499734e-02 0.0 
4.255595470681e-06 7.770004866060e-02 0.0 
3.975570137982e-06 7.769837975972e-02 0.0 
3.909887531961e-06 7.769685092939e-02 0.0 
4.020044151787e-06 7.769552648242e-02 0.0 
4.062553685458e-06 7.769446092214e-02 0.0 
3.467704139837e-06 7.769257480579e-02 0.0 
1.842220427761e-06 7.767102324357e-02 0.0 
1.560544937718e-06 7.551260761913e-02 0.0 
2.506984706940e-06 7.549685370647e-02 0.0 
2.853854930152e-06 7.549737414745e-02 0.0 
2.900787329452e-06 7.549851589315e-02 0.0 
2.927258570651e-06 7.549968869351e-02 0.0 
3.080125082988e-06 7.550098502735e-02 0.0 
3.462539176269e-06 7.550246151594e-02 0.0 
3.962738894359e-06 7.550421892556e-02 0.0 
4.464592464615e-06 7.550604970634e-02 0.0 
5.002050357916e-06 7.550782464843e-02 0.0 
5.663939326439e-06 7.550939130983e-02 0.0 
6.395835455919e-06 7.551075554159e-02 0.0 
7.007314152929e-06 7.551188850556e-02 0.0 
7.198705411327e-06 7.551192168475e-02 0.0 
7.960684285990e-06 7.551125311493e-02 0.0 
8.437421605834e-06 7.550912583166e-02 0.0 
1.085383163968e-05 7.550882879981e-02 0.0 
9.963745391417e-06 7.550420464943e-02 0.0 
1.427810250476e-05 7.550907201535e-02 0.0 
2.677859409772e-06 7.549780150797e-02 0.0 
3.019689625461e-06 7.287777313467e-02 0.0 
1.471238554984e-05 7.289087046499e-02 0.0 
9.306376909990e-06 7.288392936470e-02 0.0 
8.894284512451e-06 7.289038964762e-02 0.0 
7.107300191933e-06 7.289061507848e-02 0.0 
7.153892326528e-06 7.289261355863e-02 0.0 
6.256090181012e-06 7.289110407168e-02 0.0 
5.247960004340e-06 7.288957925377e-02 0.0 
4.262008935996e-06 7.288816013146e-02 0.0 
3.614216751657e-06 7.288666263711e-02 0.0 
3.292394218590e-06 7.288486952488e-02 0.0 
2.750630891057e-06 7.288290019958e-02 0.0 
2.285115556333e-06 7.288127694612e-02 0.0 
2.142310428610e-06 7.288024835384e-02 0.0 
2.203781065191e-06 7.287927396607e-02 0.0 
2.303590946440e-06 7.287829749790e-02 0.0 
2.425205664736e-06 7.287702975601e-02 0.0 
2.027468511301e-06 7.287401903386e-02 0.0 
1.010035390436e-06 7.285090520893e-02 0.0 
1.327756912417e-06 6.984020488388e-02 0.0 
2.354443942920e-06 6.982565600796e-02 0.0 
2.054236119875e-06 6.982760343474e-02 0.0 
2.053288930881e-06 6.982841477249e-02 0.0 
1.577375506656e-06 6.982936311136e-02 0.0 
1.289396308835e-06 6.983001158150e-02 0.0 
1.090226284362e-06 6.983063773189e-02 0.0 
1.789435764010e-06 6.983217579885e-02 0.0 
1.547183963169e-06 6.983510494500e-02 0.0 
1.737325753481e-06 6.983651525609e-02 0.0 
2.958493880101e-06 6.983748886397e-02 0.0 
4.181867041098e-06 6.983918709849e-02 0.0 
5.515307137216e-06 6.984110310202e-02 0.0 
7.464319203621e-06 6.984398522786e-02 0.0 
6.115414926455e-06 6.983832709260e-02 0.0 
1.237275598953e-05 6.983962679096e-02 0.0 
2.701091489143e-06 6.982749820556e-02 0.0 
8.211714472850e-07 6.635531246130e-02 0.0 
9.698797711621e-06 6.637679425814e-02 0.0 
3.891940743017e-06 6.636849320533e-02 0.0 
2.118781203819e-06 6.636733327560e-02 0.0 
1.375762941791e-06 6.636518673226e-02 0.0 
-2.373300702629e-07 6.636295562293e-02 0.0 
-1.131296599510e-06 6.636371930270e-02 0.0 
-4.300193836571e-07 6.636273579510e-02 0.0 
-1.025011961531e-06 6.635705172462e-02 0.0 
1.950436896436e-07 6.635795356971e-02 0.0 
5.544681869196e-07 6.635722689715e-02 0.0 
2.299687260177e-06 6.635760805993e-02 0.0 
2.138591341350e-06 6.635562947148e-02 0.0 
3.209675249138e-06 6.635629469134e-02 0.0 
4.197911977144e-06 6.635095799496e-02 0.0 
1.228677604104e-08 6.632399838908e-02 0.0 
2.028074951710e-05 8.233413387829e-02 0.0 
-7.458521270820e-06 8.202521348096e-02 0.0 
-8.374222908003e-06 8.132430514446e-02 0.0 
-5.675315058795e-06 8.020307516543e-02 0.0 
-8.981784162643e-06 7.864909436862e-02 0.0 
-1.256385898074e-05 7.666438960776e-02 0.0 
-5.575896643961e-06 7.425791767909e-02 0.0 
-4.321622395054e-06 7.142344519119e-02 0.0 
-5.418215387465e-06 6.816077974023e-02 0.0 
-3.726023763306e-06 6.447212773254e-02 0.0 
-8.746275117488e-06 8.140595643462e-02 0.0 
1.744682478488e-07 7.086709285179e-03 0.0 
1.887572409487e-07 8.225727355213e-02 0.0 
1.756708154765e-05 8.227669921821e-02 0.0 
-5.697154232820e-07 7.094685586463e-03 0.0 
-4.798254909844e-06 7.876780163862e-02 0.0 
-3.792789974755e-06 6.027572427651e-02 0.0 
-1.348396729384e-06 7.102123364685e-03 0.0 
-7.921432985114e-06 7.451461143375e-02 0.0 
1.753058125331e-06 6.918445603564e-03 0.0 
-8.449860263937e-06 6.852391171317e-02 0.0 
2.365129061488e-06 6.536373246433e-03 0.0 
1.601891021785e-05 8.226046051184e-02 0.0 
2.146701206129e-06 7.024183253794e-03 0.0 
-3.652837989421e-06 6.077052715053e-02 0.0 
2.884076193643e-06 7.416648741394e-02 0.0 
5.088758812111e-07 4.658461542502e-02 0.0 
7.195161515483e-07 7.336008536964e-03 0.0 
-1.791587074251e-06 6.996330920746e-03 0.0 
3.148684250220e-06 7.011209116609e-03 0.0 
-2.052734600966e-06 7.619021310020e-03 0.0 
1.277750875772e-06 6.831116089657e-03 0.0 
-5.133094752807e-06 5.865178057402e-02 0.0 
-8.954554964191e-06 5.857648915038e-02 0.0 
-6.942517600805e-07 5.847167101147e-02 0.0 
5.568894501096e-06 3.952972226996e-02 0.0 
-7.518269772078e-06 7.098292962695e-03 0.0 
9.655730888625e-06 8.226918782256e-02 0.0 
2.697210201852e-06 8.225776319464e-02 0.0 
1.227414102578e-06 2.724390261789e-02 0.0 
3.283198637405e-07 5.876031292644e-02 0.0 
2.578136945708e-06 8.022539061488e-02 0.0 
-3.013438742983e-07 8.070461957519e-03 0.0 
1.364745561006e-06 6.462788882104e-03 0.0 
-2.098464086941e-07 6.873256843754e-03 0.0 
8.313591024489e-07 7.512345622438e-03 0.0 
-3.539609453540e-06 6.746313995482e-03 0.0 
5.935150602099e-06 8.225635890697e-02 0.0 
-1.026298771478e-05 5.884430470056e-02 0.0 
-8.066993295586e-08 8.108823868291e-03 0.0 
-2.045281121354e-06 2.699907860253e-02 0.0 
-3.466707612532e-06 8.225302947640e-02 0.0 
1.592497696823e-06 6.815801703875e-02 0.0 
-4.528205856502e-06 5.711117308866e-03 0.0 
-5.423340734723e-06 7.683725941626e-02 0.0 
-8.471021015310e-06 8.030843122356e-02 0.0 
-7.648962217388e-06 7.175406835078e-02 0.0 
-8.002504124249e-06 6.486953878690e-02 0.0 
1.663754239445e-05 8.212421451457e-02 0.0 
5.765003621150e-06 5.021395851192e-02 0.0 
1.077566990748e-06 5.622580102294e-03 0.0 
-1.119049447040e-05 8.228382792433e-02 0.0 
-2.629184500336e-06 1.267386471627e-02 0.0 
-1.123456721075e-05 5.853516009925e-02 0.0 
-1.752105676189e-05 5.666000497755e-02 0.0 
-1.194698324269e-05 5.448493598469e-02 0.0 
-1.064935240436e-05 5.216476497187e-02 0.0 
-1.598117209056e-05 4.943115733490e-02 0.0 
-1.043901271203e-05 4.716917924597e-02 0.0 
-9.129984555045e-06 4.997154190444e-02 0.0 
-7.725024140370e-06 4.483426199987e-02 0.0 
-7.384939564758e-06 4.774538840295e-02 0.0 
-6.294694877340e-06 4.419258997865e-02 0.0 
-5.358008877465e-06 4.242019573895e-02 0.0 
-5.490809130038e-06 4.543635806514e-02 0.0 
-3.468237892434e-06 3.993854050152e-02 0.0 
-4.014623097959e-06 4.304044752002e-02 0.0 
-5.256467108694e-06 4.834132187348e-02 0.0 
-3.733185739208e-06 4.605517629738e-02 0.0 
-4.653597898141e-06 5.112123123492e-02 0.0 
-3.318239023997e-06 4.894051908230e-02 0.0 
-2.037951151834e-06 4.370085004590e-02 0.0 
-1.934572832596e-06 4.669238425663e-02 0.0 
-2.974414673673e-06 5.170728455817e-02 0.0 
-1.754752350536e-06 4.956332952503e-02 0.0 
-2.619802831560e-06 5.434984019962e-02 0.0 
-1.729668653638e-06 5.229829268795e-02 0.0 
-2.299480804879e-06 5.688868727786e-02 0.0 
-1.711171734087e-06 5.492336026242e-02 0.0 
-1.150705692510e-06 5.016839798226e-02 0.0 
-1.316018792608e-06 5.289139376749e-02 0.0 
-1.723754554206e-06 5.742658219921e-02 0.0 
-1.444573666021e-06 5.549508291077e-02 0.0 
-1.744653324920e-06 5.981227817683e-02 0.0 
-1.594218900891e-06 5.797817075211e-02 0.0 
-1.256506688918e-06 5.348174092029e-02 0.0 
-1.577582661838e-06 5.607017850297e-02 0.0 
-1.868418021189e-06 6.035371935501e-02 0.0 
-1.745308566115e-06 5.854377008636e-02 0.0 
-2.060475313925e-06 6.261739732141e-02 0.0 
-1.708945031709e-06 6.089803272078e-02 0.0 
-1.754321576897e-06 6.475916291253e-02 0.0 
-1.619539535369e-06 6.314347022148e-02 0.0 
-1.331632393686e-06 5.907167167756e-02 0.0 
-1.210948642694e-06 6.141381049042e-02 0.0 
-1.150489211454e-06 6.528338206055e-02 0.0 
-8.225679835050e-07 6.365280563469e-02 0.0 
-8.145763388256e-07 5.960156227906e-02 0.0 
-5.819305535226e-07 6.194610941557e-02 0.0 
-6.428292671501e-07 5.770968218812e-02 0.0 
-4.062404244110e-07 6.015959970424e-02 0.0 
-2.122587723363e-07 6.414543222804e-02 0.0 
-1.212930911265e-08 6.245946640793e-02 0.0 
-1.979358135173e-07 5.828580011501e-02 0.0 
1.855141640306e-07 6.071663008387e-02 0.0 
5.566041334504e-07 6.465896414568e-02 0.0 
8.534501976243e-07 6.299105121186e-02 0.0 
4.165437097470e-07 5.887212936809e-02 0.0 
9.352609264823e-07 6.126493545351e-02 0.0 
1.429994066271e-06 6.514843884097e-02 0.0 
1.491213405203e-06 6.351270947277e-02 0.0 
1.025172300828e-06 5.941413350794e-02 0.0 
1.405187258996e-06 6.180486909596e-02 0.0 
2.052432714450e-06 6.564706409747e-02 0.0 
1.750079240637e-06 6.403140962817e-02 0.0 
1.265432883812e-06 5.997940092286e-02 0.0 
1.333358191857e-06 6.234584921539e-02 0.0 
9.347574465579e-07 5.807920620816e-02 0.0 
1.844976482701e-06 6.617654172007e-02 0.0 
1.153967508216e-06 6.458246940193e-02 0.0 
1.873719947199e-06 6.821607839359e-02 0.0 
8.034022460635e-07 6.669497277953e-02 0.0 
-1.147304978133e-06 5.138715617098e-02 0.0 
1.494159283411e-06 7.009561639772e-02 0.0 
2.759118194362e-06 7.138285699342e-02 0.0 
1.143716650276e-07 6.867612141485e-02 0.0 
-1.179467457035e-07 6.509022086246e-02 0.0 
7.303085487465e-07 7.184188423727e-02 0.0 
-7.839356594985e-07 7.052262867157e-02 0.0 
1.414430323976e-07 7.345544693628e-02 0.0 
-1.948251316719e-06 6.643840768209e-02 0.0 
-4.997933302775e-07 4.126726747564e-02 0.0 
-1.729556082353e-06 7.223727941527e-02 0.0 
7.853944463676e-07 7.493592212862e-02 0.0 
2.209322226499e-06 7.597164230797e-02 0.0 
2.837678128920e-06 7.721568802368e-02 0.0 
-7.043844021837e-06 4.661478135523e-02 0.0 
-3.474036873286e-06 4.108102260529e-02 0.0 
-4.110613396335e-06 4.364813198542e-02 0.0 
-2.322851862857e-06 3.786104289314e-02 0.0 
-3.154570755726e-06 4.051702146954e-02 0.0 
1.317180726268e-06 7.628422849372e-02 0.0 
-2.568886358745e-06 3.658884863374e-02 0.0 
-1.476148618451e-06 3.509086219338e-02 0.0 
-3.568462204839e-06 5.633264329657e-02 0.0 
-1.929518973043e-06 6.157274385960e-02 0.0 
-6.528587519483e-07 5.513764447107e-02 0.0 
-2.097521143440e-06 6.912041145624e-02 0.0 
-4.364996150308e-06 7.093949019188e-02 0.0 
-2.496893606541e-06 6.763648552582e-02 0.0 
9.371731888308e-07 5.548138906155e-02 0.0 
8.297952778236e-07 5.339026994809e-02 0.0 
8.960269042291e-07 5.055128119955e-02 0.0 
9.458573906329e-07 4.827734530000e-02 0.0 
1.109027779833e-06 4.519722855586e-02 0.0 
1.217954583410e-06 4.274043055128e-02 0.0 
1.064809286078e-06 4.592690988693e-02 0.0 
1.455093190827e-06 4.020187617363e-02 0.0 
1.258437048790e-06 4.349695390201e-02 0.0 
1.386525807945e-06 3.942319770568e-02 0.0 
1.340704628205e-06 4.198319411559e-02 0.0 
1.887331815276e-06 3.758609294818e-02 0.0 
1.550292603625e-06 4.098395183722e-02 0.0 
2.303971688100e-06 3.488777422383e-02 0.0 
1.773160969165e-06 3.838908201654e-02 0.0 
1.182232000296e-06 4.425626035611e-02 0.0 
1.307661122496e-06 4.176484075160e-02 0.0 
9.371803342262e-07 4.739776194663e-02 0.0 
-3.331335385326e-07 5.306247842544e-02 0.0 
-1.384319006092e-07 5.025422597525e-02 0.0 
1.714422133148e-07 4.799952041411e-02 0.0 
3.812947184656e-07 4.495562800151e-02 0.0 
7.261386549828e-07 4.251746778493e-02 0.0 
9.578463284754e-07 3.924388904042e-02 0.0 
1.421386926381e-06 3.661413371587e-02 0.0 
8.701965263924e-07 4.000118220719e-02 0.0 
-2.058939411853e-06 3.736427722740e-02 0.0 
-8.291530804172e-07 6.729805393200e-02 0.0 
-1.189612110153e-06 6.875201984409e-02 0.0 
-5.651105645654e-07 7.054424724520e-02 0.0 
-9.240603340288e-07 7.181781774400e-02 0.0 
2.514078332183e-07 7.338842450654e-02 0.0 
-2.367458193930e-07 7.449128291379e-02 0.0 
1.814056989957e-06 7.584784504523e-02 0.0 
2.073410453107e-06 7.482990007144e-02 0.0 
4.627199007956e-06 7.707783115951e-02 0.0 
4.083160924040e-06 7.615165531245e-02 0.0 
7.585763167839e-06 7.817741607441e-02 0.0 
5.823587816423e-06 7.735723889951e-02 0.0 
-8.995999891681e-07 4.796371087310e-02 0.0 
3.520525631018e-07 4.178415621915e-02 0.0 
4.742480577136e-07 3.584256635642e-02 0.0 
2.049241771829e-07 3.848945620906e-02 0.0 
4.279393221118e-06 7.806906763403e-02 0.0 
1.594879711853e-06 3.570912568779e-02 0.0 
1.761225906449e-06 3.597170741691e-02 0.0 
1.440922426710e-06 3.868815520703e-02 0.0 
1.651714960360e-06 3.390579481514e-02 0.0 
4.010005216770e-06 7.832680067550e-02 0.0 
8.094281653825e-07 7.677439239230e-02 0.0 
-9.169137946685e-07 7.552531484946e-02 0.0 
-2.108681528057e-06 3.447148512249e-02 0.0 
-2.525879239101e-06 3.723816482814e-02 0.0 
2.238473307159e-06 3.239586721767e-02 0.0 
2.068196331528e-06 7.749998769992e-02 0.0 
2.039142790622e-06 3.406260325165e-02 0.0 
6.866790542404e-06 7.892747313156e-02 0.0 
8.482107025642e-07 3.919167106327e-02 0.0 
6.954539495396e-07 3.294811795206e-02 0.0 
8.566111517894e-07 4.896866794458e-02 0.0 
-3.501727761090e-07 3.231384366572e-02 0.0 
-1.295504645782e-07 3.517096444302e-02 0.0 
3.415862753542e-06 7.513618580392e-02 0.0 
4.884946251948e-06 7.645969960855e-02 0.0 
8.181478630576e-06 7.843866019787e-02 0.0 
8.446581812649e-06 7.758975074209e-02 0.0 
5.298693791289e-06 7.545552535816e-02 0.0 
7.251266220365e-06 7.674165108697e-02 0.0 
7.829468763987e-06 7.864707944865e-02 0.0 
7.077432572444e-06 7.789655033325e-02 0.0 
6.016740446313e-06 7.578478190806e-02 0.0 
6.000448431465e-06 7.703924714627e-02 0.0 
5.958740706191e-06 7.892749578801e-02 0.0 
5.349445094893e-06 7.816198693439e-02 0.0 
1.969389808565e-06 2.922679693057e-02 0.0 
9.920823998755e-06 7.980104118584e-02 0.0 
-5.692858529471e-06 5.322411451687e-02 0.0 
2.074858850065e-06 2.953816490002e-02 0.0 
1.592599872424e-06 3.037197796790e-02 0.0 
-1.850034252016e-06 3.093871213476e-02 0.0 
-1.918403192747e-06 3.381612907364e-02 0.0 
-1.774473922467e-06 3.995461680090e-02 0.0 
-1.862293288468e-06 3.662446909295e-02 0.0 
-1.517758022374e-06 3.024447834831e-02 0.0 
-2.358594528573e-06 3.316046847858e-02 0.0 
-2.211740969926e-06 3.936711995416e-02 0.0 
-3.046955178831e-06 3.600173438464e-02 0.0 
-2.582879609747e-06 4.203093030567e-02 0.0 
-3.202523892298e-06 3.876302566819e-02 0.0 
-3.218833420249e-06 3.249736762851e-02 0.0 
-3.495265573861e-06 3.536365441685e-02 0.0 
-3.022068170822e-06 4.144756113757e-02 0.0 
-4.023522521379e-06 3.814962577995e-02 0.0 
-3.629051512632e-06 4.404837780752e-02 0.0 
-4.884530589777e-06 4.085138699945e-02 0.0 
-3.188867495396e-06 3.471970506645e-02 0.0 
6.365017812371e-06 7.924112888421e-02 0.0 
9.861640766218e-07 3.741116271238e-02 0.0 
1.813760064806e-06 3.111377278076e-02 0.0 
-8.765097917696e-06 6.955286835982e-02 0.0 
3.254216850657e-06 6.606045034678e-02 0.0 
3.321221866415e-07 6.390635942996e-02 0.0 
-3.825385412881e-06 6.216247285933e-02 0.0 
-1.568483483538e-06 3.755319158595e-02 0.0 
-4.756342562473e-06 3.116319965556e-02 0.0 
-3.973681828029e-07 7.761007370116e-02 0.0 
-1.632101401583e-06 7.648071887936e-02 0.0 
-1.563507993296e-06 2.798760233978e-02 0.0 
-8.404795361905e-07 3.653719964107e-02 0.0 
1.151132730026e-06 4.254395594017e-02 0.0 
-1.996966595641e-06 6.373220986990e-02 0.0 
-2.048797199450e-06 6.532569946882e-02 0.0 
-2.110986415005e-06 6.726397592502e-02 0.0 
-2.047252021242e-06 6.876632519192e-02 0.0 
-2.463584550583e-06 6.686019192189e-02 0.0 
-2.646728237465e-06 7.050218641746e-02 0.0 
1.251106267475e-06 4.456142129854e-02 0.0 
-2.603546228386e-06 2.885879628792e-02 0.0 
3.762342976721e-06 7.692850056159e-02 0.0 
4.637136988173e-06 7.884725506210e-02 0.0 
4.693528015132e-07 3.010480368864e-02 0.0 
4.555781210058e-07 4.327319244714e-02 0.0 
-3.890172912691e-07 4.500821264979e-02 0.0 
-1.691946494020e-07 4.261486181477e-02 0.0 
6.823958358382e-07 3.941875770424e-02 0.0 
6.755989225837e-07 3.684205698860e-02 0.0 
1.639878902893e-06 3.340231797031e-02 0.0 
1.874972031857e-06 3.063510650916e-02 0.0 
4.803640543116e-07 3.418636790892e-02 0.0 
-8.834557050363e-07 2.862942528593e-02 0.0 
2.916270034348e-06 2.777295538839e-02 0.0 
-4.776469680223e-06 4.351907998144e-02 0.0 
-1.663826338927e-07 4.430185682762e-02 0.0 
5.239077184527e-06 7.474003512268e-02 0.0 
9.613844625278e-06 7.988095892483e-02 0.0 
2.062498635880e-06 7.986316758892e-02 0.0 
2.518528606998e-06 7.856675443491e-02 0.0 
7.455949675439e-07 7.658765297460e-02 0.0 
2.292181616070e-06 2.571411115570e-02 0.0 
2.637196129029e-06 2.695593786076e-02 0.0 
2.227562195145e-06 2.984489752487e-02 0.0 
-2.675512920547e-06 7.014495944081e-02 0.0 
-3.546124073495e-06 6.830739018625e-02 0.0 
-1.798122461594e-06 2.571390872777e-02 0.0 
-2.742159395552e-06 4.619105986466e-02 0.0 
-1.805753150563e-06 4.516773439310e-02 0.0 
-4.169915825969e-07 4.764630121413e-02 0.0 
1.831574272249e-06 8.023039141556e-02 0.0 
1.362648482939e-08 8.037210617040e-02 0.0 
-1.631647897682e-06 2.653603091200e-02 0.0 
-1.797281480975e-06 7.418617226908e-02 0.0 
-2.151176232701e-06 7.523791006257e-02 0.0 
1.302992114205e-05 8.037627709256e-02 0.0 
1.571628020258e-05 8.102234496031e-02 0.0 
-5.129875503940e-06 3.403104183088e-02 0.0 
-4.024447505913e-06 2.747170614606e-02 0.0 
-2.026290827573e-06 5.976326094078e-02 0.0 
-1.555858901714e-06 5.783159599623e-02 0.0 
3.080977563741e-06 2.867008362617e-02 0.0 
4.216420560255e-06 7.915153148619e-02 0.0 
-2.342959334101e-06 2.436224527155e-02 0.0 
7.872708920331e-07 4.078251068010e-02 0.0 
3.299215318719e-07 4.641958103333e-02 0.0 
-3.956158529661e-07 6.444248323850e-02 0.0 
-1.041714785543e-06 7.838232056865e-02 0.0 
1.606647224150e-06 7.929527104855e-02 0.0 
4.442753525069e-06 7.325080498159e-02 0.0 
5.403988488695e-06 7.731527679814e-02 0.0 
3.101786174575e-07 7.776452550182e-02 0.0 
2.373259144761e-06 2.175693579616e-02 0.0 
-1.081359300770e-06 2.344168534526e-02 0.0 
1.002236501790e-06 3.143149038908e-02 0.0 
3.509529840073e-07 3.762019061544e-02 0.0 
5.576484834791e-06 2.483323392580e-02 0.0 
4.072084520246e-06 8.057038923554e-02 0.0 
1.378941954400e-06 2.267452641274e-02 0.0 
-3.706011733051e-07 3.380070810157e-02 0.0 
2.270781852332e-06 2.344966510991e-02 0.0 
1.426958348816e-06 2.615592554757e-02 0.0 
-2.203987669702e-06 7.275061374731e-02 0.0 
-2.633391190443e-06 7.383064560832e-02 0.0 
-2.323484284972e-06 7.618746829334e-02 0.0 
-2.866824132752e-06 7.487653696059e-02 0.0 
-9.388740487282e-06 5.267523613459e-02 0.0 
-2.995606656953e-06 7.115627231435e-02 0.0 
-5.195009791237e-06 5.577490421229e-02 0.0 
-6.788475168662e-06 5.769722652564e-02 0.0 
-6.130743017252e-06 6.001823939028e-02 0.0 
-3.246899140663e-06 6.490762809165e-02 0.0 
-4.393735760999e-06 6.640819254722e-02 0.0 
-1.636396525839e-06 7.014930526446e-02 0.0 
-5.046199333947e-07 5.243580520383e-02 0.0 
-3.571469546770e-07 6.161152495098e-02 0.0 
5.667682678734e-07 4.968152065381e-02 0.0 
9.143921460009e-07 5.274552726105e-02 0.0 
-2.239679787408e-06 2.581190987551e-02 0.0 
-1.158502414000e-06 2.192963971248e-02 0.0 
-4.665142512295e-07 4.711329078565e-02 0.0 
-2.827916034676e-08 4.952731695510e-02 0.0 
4.697938460474e-06 7.974812421219e-02 0.0 
6.406764061495e-06 8.034351344609e-02 0.0 
6.639170173628e-07 5.609833943619e-02 0.0 
1.725319837220e-06 2.660678509136e-02 0.0 
-1.363825980150e-06 2.420860252896e-02 0.0 
-1.166026400767e-06 2.106565781359e-02 0.0 
-1.388889792509e-06 2.495217657629e-02 0.0 
4.408512911169e-06 2.479867868061e-02 0.0 
-2.330278299212e-07 6.918267929971e-02 0.0 
-5.706766970093e-08 5.092168435503e-02 0.0 
1.039651604273e-05 8.055088679637e-02 0.0 
-9.777558460655e-07 4.859912294426e-02 0.0 
9.679341621549e-06 8.100357135374e-02 0.0 
-3.350804114177e-07 3.808445529279e-02 0.0 
1.582728628602e-06 2.717931404851e-02 0.0 
3.058935698519e-06 2.324537664139e-02 0.0 
9.343223439373e-07 2.182601778772e-02 0.0 
-9.654701194961e-06 5.901266334063e-02 0.0 
-9.007391490456e-07 4.631131017589e-02 0.0 
-8.126021597832e-07 4.922486701494e-02 0.0 
-7.121963253809e-06 6.175366103650e-02 0.0 
-6.288993457559e-06 6.385208255529e-02 0.0 
-5.403086330347e-06 6.221470231323e-02 0.0 
-5.525459755518e-06 6.585984816363e-02 0.0 
3.711987409005e-06 7.204768925605e-02 0.0 
4.462876084688e-06 7.363731411511e-02 0.0 
3.197263833243e-06 1.984806071829e-02 0.0 
8.911046645466e-06 2.116291973761e-02 0.0 
-5.087780699853e-06 1.971420845157e-02 0.0 
-2.186511771640e-07 2.231671874847e-02 0.0 
-9.295956715505e-08 1.870830372825e-02 0.0 
-4.221651231262e-06 2.270520071958e-02 0.0 
-6.291613074971e-07 7.559178362297e-02 0.0 
-4.284074158534e-06 6.962305576154e-02 0.0 
1.910041262931e-07 1.948146097223e-02 0.0 
-7.890411239941e-06 5.956939568180e-02 0.0 
4.240978677572e-06 1.974386963731e-02 0.0 
3.179896511440e-06 2.361803832037e-02 0.0 
2.077091241404e-05 8.154260398663e-02 0.0 
1.108482485002e-05 8.117736947850e-02 0.0 
2.200811991315e-06 2.059244850313e-02 0.0 
-3.020832540557e-06 7.702566480460e-02 0.0 
-3.226071648044e-06 7.585814880252e-02 0.0 
-2.830958464983e-06 7.808923457432e-02 0.0 
-1.244703409120e-06 1.212374834117e-02 0.0 
-6.864119939110e-08 5.881590213945e-02 0.0 
2.709222563180e-06 2.013848562644e-02 0.0 
-3.814564699667e-06 6.276375959025e-02 0.0 
-3.304476585697e-06 1.700899517982e-02 0.0 
-5.132801845775e-07 4.394702341671e-02 0.0 
-1.939764388226e-06 6.585677751562e-02 0.0 
2.296622897191e-06 3.154417334895e-02 0.0 
-1.189888592990e-06 2.438447919142e-02 0.0 
3.510181016964e-07 1.637951385818e-02 0.0 
1.217967167122e-06 5.046561250279e-02 0.0 
6.494790056877e-06 5.284601638404e-02 0.0 
-1.745140103537e-06 4.816392030575e-02 0.0 
5.729356491457e-06 7.957378520697e-02 0.0 
7.639316176977e-06 8.097039354390e-02 0.0 
-2.099248405329e-06 2.508670473060e-02 0.0 
1.138190268257e-06 7.262867980863e-02 0.0 
-1.534080783738e-06 7.102532821041e-02 0.0 
4.628073842383e-06 7.847662827779e-02 0.0 
4.262511183128e-06 7.645112920320e-02 0.0 
-6.629195681285e-07 5.725631573987e-02 0.0 
-9.460918803939e-08 5.919998805589e-02 0.0 
1.125572808292e-06 3.542841930052e-02 0.0 
8.445316588279e-07 3.206153935278e-02 0.0 
3.123767804425e-07 4.194029684354e-02 0.0 
9.417515141052e-07 4.401636996375e-02 0.0 
4.398841788600e-07 4.943037672603e-02 0.0 
9.545411217005e-08 5.160658654761e-02 0.0 
9.474594619974e-07 1.893407331332e-02 0.0 
7.053641724042e-07 1.419785318352e-02 0.0 
2.877742845797e-06 7.037970135821e-02 0.0 
2.961127972156e-06 7.166464472632e-02 0.0 
3.185430449193e-06 7.085324169384e-02 0.0 
-4.602854268398e-06 1.633451607123e-02 0.0 
6.403073314676e-06 1.617746185953e-02 0.0 
5.304963571540e-06 1.945437802446e-02 0.0 
7.340512501841e-06 8.139889001810e-02 0.0 
1.558284063563e-06 8.083757422676e-02 0.0 
-7.295345696434e-07 7.987131485686e-02 0.0 
4.119802547109e-06 8.060188276784e-02 0.0 
1.160494420560e-07 1.812891330651e-02 0.0 
-1.901739416610e-06 2.188820481053e-02 0.0 
-1.782651665394e-06 1.372693951405e-02 0.0 
1.004317547348e-06 7.699463123779e-02 0.0 
9.287384585832e-07 3.484325062028e-02 0.0 
2.025496682379e-06 1.801346997528e-02 0.0 
6.958391988832e-06 2.118759423643e-02 0.0 
-4.078925019968e-07 1.394643802062e-02 0.0 
1.431951982767e-06 2.507139421921e-02 0.0 
3.212680336873e-06 1.819151160305e-02 0.0 
3.342392165706e-06 1.778133667765e-02 0.0 
1.579285586573e-05 8.182590555538e-02 0.0 
2.449566302687e-06 1.942413182597e-02 0.0 
-5.025285858551e-07 5.236591961308e-02 0.0 
2.765960135775e-05 8.205824460087e-02 0.0 
3.026389030936e-06 5.475943307797e-02 0.0 
6.396081786875e-06 5.188878355797e-02 0.0 
2.460671872484e-06 5.704004545388e-02 0.0 
-2.373822583834e-06 7.881374317419e-02 0.0 
-1.460726551272e-06 5.405662892901e-02 0.0 
-2.482971204643e-06 5.123680108152e-02 0.0 
-2.618764431972e-06 8.185830065342e-02 0.0 
1.201580417387e-07 1.222588709991e-02 0.0 
6.529391527010e-06 8.178193221953e-02 0.0 
1.372474732264e-05 8.148574349363e-02 0.0 
5.670525231594e-06 1.648859778753e-02 0.0 
4.334706044773e-06 2.051891451029e-02 0.0 
-3.322991847909e-06 1.329059274336e-02 0.0 
2.958395642239e-06 1.772614700043e-02 0.0 
4.534566697245e-06 2.457799997275e-02 0.0 
3.784104128712e-06 2.152295398442e-02 0.0 
7.873045149154e-07 5.548234868113e-02 0.0 
3.136979652041e-06 1.344719787458e-02 0.0 
2.808310912705e-06 1.823247135876e-02 0.0 
-2.129765864112e-06 1.037426762242e-02 0.0 
-7.515625757293e-06 6.723407633937e-02 0.0 
-5.041053825039e-06 7.358021054834e-02 0.0 
-9.951376327422e-06 7.464288166050e-02 0.0 
-2.259407533955e-06 7.680999174684e-02 0.0 
-1.072065391128e-06 1.433328547882e-02 0.0 
5.232029035795e-06 1.873141298665e-02 0.0 
7.359455185263e-07 3.084302280139e-02 0.0 
6.598791091328e-07 3.722819517964e-02 0.0 
3.603051638379e-06 5.453810137405e-02 0.0 
-1.547029171434e-09 5.474244650016e-02 0.0 
5.230206198803e-06 5.014233205804e-02 0.0 
2.262741070069e-06 5.072600524953e-02 0.0 
-2.377424095812e-06 4.590797431327e-02 0.0 
-2.695132465647e-06 4.654032340167e-02 0.0 
2.407515090397e-06 4.141857668713e-02 0.0 
-1.817538201720e-06 1.386423455173e-02 0.0 
-3.867942599101e-06 7.883717750876e-02 0.0 
-7.342944357447e-06 6.344740156249e-02 0.0 
-6.018976176136e-06 1.548781003535e-02 0.0 
-8.320775958026e-06 2.018285385784e-02 0.0 
-5.350462465969e-06 6.781798201273e-02 0.0 
-5.643188263349e-06 7.092290743038e-02 0.0 
2.255807341811e-06 1.453880161259e-02 0.0 
-2.446129041545e-06 6.987878280177e-02 0.0 
-1.544137312237e-06 7.919362354631e-03 0.0 
2.148823768877e-05 8.227474132343e-02 0.0 
2.040831419592e-05 8.192132853423e-02 0.0 
-2.463050083890e-06 6.806115443482e-02 0.0 
-4.650551414187e-06 6.433958552987e-02 0.0 
-2.939364591725e-06 7.198879171873e-02 0.0 
-1.392608975692e-06 7.294962444603e-02 0.0 
1.634342158496e-06 3.810678921353e-02 0.0 
-7.042519348133e-06 8.128404583700e-02 0.0 
-2.840400263437e-06 7.903337900890e-02 0.0 
-3.073471361859e-07 4.082552802756e-02 0.0 
-5.099947326670e-06 8.039622120439e-02 0.0 
7.026939545796e-07 3.380059507360e-02 0.0 
-1.930035580244e-06 6.837408821230e-02 0.0 
-2.632737633235e-06 6.109918998785e-02 0.0 
-2.041144249176e-06 7.733839340075e-02 0.0 
-3.865977003414e-06 7.215663371772e-02 0.0 
-7.020618909337e-06 5.055979282848e-02 0.0 
-1.299143816880e-05 5.471318627242e-02 0.0 
-9.118263662344e-06 5.721594710954e-02 0.0 
-1.474026692705e-06 6.684604522310e-02 0.0 
-3.496675603287e-06 7.130833064980e-02 0.0 
-1.106685886043e-06 7.401738166716e-02 0.0 
-4.248127481787e-06 5.379594979383e-02 0.0 
-1.204109118191e-06 2.869033048330e-02 0.0 
-1.006992427222e-06 2.567650994305e-02 0.0 
5.937775426901e-08 1.894907821761e-02 0.0 
6.569060673201e-07 2.264474749760e-02 0.0 
-7.892373474760e-07 2.936999465978e-02 0.0 
6.373884389177e-07 2.641681566019e-02 0.0 
2.217507585556e-06 1.963672604261e-02 0.0 
-5.216026544019e-07 2.341229108327e-02 0.0 
2.124449565599e-06 1.503666556890e-02 0.0 
-2.942922407101e-06 2.019152228971e-02 0.0 
-3.350557449266e-07 2.725531079643e-02 0.0 
-4.947346710082e-07 2.441122348399e-02 0.0 
-4.378540978678e-07 1.794871799241e-02 0.0 
-1.065258206978e-06 3.128369199159e-02 0.0 
1.194050128106e-06 1.151309384413e-02 0.0 
-2.167881966386e-06 6.433553754782e-02 0.0 
1.349394482375e-05 8.143033763949e-02 0.0 
6.038525700802e-06 8.154502368691e-02 0.0 
-3.170362038674e-06 5.874901054353e-02 0.0 
6.324493703858e-06 7.369967831849e-03 0.0 
-5.977577181682e-06 7.217860555713e-03 0.0 
-1.297094058827e-06 7.305042531223e-02 0.0 
-5.087314605134e-07 6.929711468583e-03 0.0 
-7.250123349678e-06 5.524835262090e-02 0.0 
3.586065894012e-06 7.792480554489e-02 0.0 
4.102906814296e-07 6.978419356784e-03 0.0 
-1.369850942012e-06 3.225484292036e-02 0.0 
-2.439123193199e-06 3.579421729192e-02 0.0 
-2.793407830382e-06 3.847738762091e-02 0.0 
-4.718207101462e-06 6.711569819231e-03 0.0 
4.637138104613e-07 4.573291634945e-02 0.0 
-4.229483590024e-06 6.551250610805e-03 0.0 
1.890752798772e-08 4.732020764378e-02 0.0 
-4.113680311946e-07 4.969512387887e-02 0.0 
-8.954602037647e-07 5.460697209623e-02 0.0 
-3.612483112647e-07 3.023573472690e-02 0.0 
1.389083532644e-06 6.983012027401e-03 0.0 
1.281282152377e-06 1.341155364945e-02 0.0 
-4.680326643580e-06 1.342531843173e-02 0.0 
2.881142435740e-07 2.008553961003e-02 0.0 
-2.741342353119e-07 6.955498729301e-03 0.0 
5.348665119698e-07 6.646996899629e-03 0.0 
7.485252453421e-07 6.324977742182e-03 0.0 
5.073231692521e-06 7.439863290583e-02 0.0 
3.054581810602e-06 7.287612689015e-02 0.0 
1.606482834760e-06 6.995598693718e-02 0.0 
1.432320212658e-06 7.125845534463e-02 0.0 
2.995318380883e-06 7.404426156119e-02 0.0 
1.679631974838e-06 7.252225484816e-02 0.0 
6.411865669520e-07 6.955868742855e-02 0.0 
1.941735661148e-06 7.372870715244e-02 0.0 
1.753893357659e-06 2.546480680456e-02 0.0 
1.213968802816e-06 6.709006529789e-03 0.0 
1.077137081751e-06 4.758853520699e-02 0.0 
1.044756588797e-06 4.995931263664e-02 0.0 
8.899457029088e-07 5.490461595006e-02 0.0 
-5.932637581196e-07 6.338547062531e-02 0.0 
-1.617825695632e-08 6.107949820080e-02 0.0 
2.007652479818e-07 5.665522205968e-02 0.0 
-1.411041306021e-06 6.557908821669e-02 0.0 
-8.676032337007e-08 4.015109831949e-02 0.0 
-4.280955868907e-06 6.774953168073e-03 0.0 
1.510182414677e-07 4.870157876462e-02 0.0 
4.608864792033e-07 6.288239756071e-02 0.0 
-4.784559777704e-06 5.874996931612e-02 0.0 
-1.562387168974e-05 5.477237952930e-02 0.0 
-1.039623167287e-05 5.467412734654e-02 0.0 
-8.829343087768e-06 4.981560592270e-02 0.0 
-1.138062211936e-05 5.420217728800e-02 0.0 
-3.682432776486e-07 5.521987679320e-02 0.0 
3.947412152705e-07 5.310437354551e-02 0.0 
-1.292023368293e-07 5.582362197443e-02 0.0 
1.341268500710e-06 5.090802225098e-02 0.0 
-1.162774290187e-07 5.371969266784e-02 0.0 
-6.938404855106e-07 5.830613611893e-02 0.0 
1.575714729363e-06 4.862814982415e-02 0.0 
-3.131156583347e-06 5.211242473109e-02 0.0 
-4.784867591923e-06 5.873611290353e-02 0.0 
9.699569050170e-06 8.226151385740e-02 0.0 
1.016041012214e-05 8.189961917655e-02 0.0 
7.034012408980e-06 8.191390792098e-02 0.0 
1.273792234180e-05 8.130515222481e-02 0.0 
8.843908410938e-06 8.124675522664e-02 0.0 
1.250403663633e-05 8.023649659177e-02 0.0 
1.397458939145e-05 8.038325192411e-02 0.0 
1.599311180200e-05 8.190403017673e-02 0.0 
3.917457416236e-06 8.225689710447e-02 0.0 
4.812577426350e-06 8.192220251193e-02 0.0 
2.668877970180e-06 8.225676903561e-02 0.0 
1.100065325943e-06 8.193491468144e-02 0.0 
4.270117878846e-06 8.119336553917e-02 0.0 
5.103728527800e-06 7.949124413323e-02 0.0 
-2.230542169190e-06 8.084881017460e-03 0.0 
8.025293941616e-07 6.446127289448e-02 0.0 
5.157309830750e-06 6.636300892192e-02 0.0 
-2.790992447377e-06 6.971632016855e-02 0.0 
-1.416702835044e-07 6.794979421075e-02 0.0 
-7.165494281036e-06 6.284057582825e-02 0.0 
5.675235189573e-07 7.138290691190e-02 0.0 
5.452467729539e-06 7.242005896965e-02 0.0 
-1.433285530705e-06 8.226206740718e-02 0.0 
-1.105407698798e-05 8.192271174087e-02 0.0 
-1.264680060253e-05 8.198280368902e-02 0.0 
-6.799939003876e-06 8.126515426164e-02 0.0 
-9.175585116594e-06 8.128210218666e-02 0.0 
-3.639632458974e-06 8.190797010410e-02 0.0 
1.589193596274e-06 8.191222658730e-02 0.0 
5.182072135845e-06 8.226120272147e-02 0.0 
7.560787827821e-06 8.191882844280e-02 0.0 
8.768595005648e-07 8.124316872433e-02 0.0 
1.300359719103e-05 8.226537194757e-02 0.0 
-2.262000577957e-06 3.333578908637e-02 0.0 
-1.545748972376e-06 3.010352311008e-02 0.0 
-5.759510214531e-06 7.223207421706e-03 0.0 
-4.641034657027e-06 5.835743307888e-02 0.0 
9.876210942394e-07 8.226193542748e-02 0.0 
-1.624899731212e-06 8.411359831538e-03 0.0 
-5.551745509536e-06 7.013557033780e-03 0.0 
3.303365346596e-06 6.786367934925e-03 0.0 
-9.089644532612e-07 1.987750686646e-02 0.0 
-9.187294653934e-07 1.628475381047e-02 0.0 
-7.785919578396e-06 8.167755503848e-03 0.0 
1.766650454371e-06 7.459520673729e-02 0.0 
-1.529062757299e-06 1.599227494404e-02 0.0 
-2.360804785440e-06 2.116881918855e-02 0.0 
1.972738836287e-06 7.864043186255e-02 0.0 
4.807581728272e-06 7.510650645547e-02 0.0 
-1.107119781185e-06 3.994387664116e-02 0.0 
9.769746549537e-07 4.664324923638e-02 0.0 
1.565386122948e-06 2.633439979563e-02 0.0 
1.306091827580e-06 4.501000694390e-02 0.0 
2.392318208422e-06 3.209729810379e-02 0.0 
-2.601806071922e-06 1.389769149810e-02 0.0 
4.003913766759e-06 7.945446770203e-02 0.0 
-1.528597074696e-06 4.461164802243e-02 0.0 
-3.186844367065e-06 4.658569204117e-02 0.0 
-3.113674786448e-06 3.183109807184e-02 0.0 
1.350079923412e-07 7.382238866401e-02 0.0 
-2.537184649487e-06 6.010755101615e-02 0.0 
5.773737091097e-06 7.906291071041e-02 0.0 
2.862525381175e-06 1.309507246127e-02 0.0 
-4.846927652125e-06 5.820823578980e-02 0.0 
1.014738547411e-06 5.749591801309e-02 0.0 
-9.786686119284e-07 6.716787256566e-02 0.0 
2.331651357323e-06 7.304945754826e-02 0.0 
5.420497679154e-06 7.609585674104e-02 0.0 
-1.837742019006e-06 6.210858260907e-02 0.0 
8.231860419983e-07 6.054657540529e-02 0.0 
1.495695675757e-06 3.678397486514e-02 0.0 
-3.055677396446e-06 2.816666877911e-02 0.0 
8.899161755060e-06 8.224015813502e-02 0.0 
1.629757148791e-06 3.322792080691e-02 0.0 
8.031387039864e-07 5.122002304483e-02 0.0 
-9.896517667585e-07 4.260735375690e-02 0.0 
1.053431187614e-06 3.312387324484e-02 0.0 
9.627506074139e-06 7.953926167606e-02 0.0 
-2.807338894684e-06 2.956278022399e-02 0.0 
-1.204141170774e-06 1.747772766413e-02 0.0 
2.504807611103e-06 4.870265819022e-02 0.0 
4.920253154239e-06 8.051973674682e-02 0.0 
2.083916690765e-06 5.012073568761e-02 0.0 
2.412167061649e-06 1.859512942012e-02 0.0 
-1.525305989958e-06 3.161202410703e-02 0.0 
6.256572095964e-07 7.527384844666e-02 0.0 
-4.165413898249e-07 5.574032324918e-02 0.0 
-1.960473280604e-06 5.929188905848e-02 0.0 
-3.645175333133e-06 6.287964819571e-02 0.0 
-3.021540990744e-07 1.816144139941e-02 0.0 
-1.367484259163e-06 5.408486417834e-02 0.0 
1.261589542167e-06 2.735870795728e-02 0.0 
3.781207027487e-07 4.567134465788e-02 0.0 
-8.333821637230e-07 7.413121585332e-02 0.0 
3.347745909821e-06 2.750657490447e-02 0.0 
-9.136058309878e-07 5.714230655367e-02 0.0 
-1.151535364841e-06 2.272506177328e-02 0.0 
1.285271537199e-06 3.610319552559e-02 0.0 
-5.447498985234e-07 6.576352888350e-02 0.0 
-1.047813803723e-06 2.726603025806e-02 0.0 
6.979585105427e-07 5.694857849117e-02 0.0 
-4.327333371634e-07 2.948526274417e-02 0.0 
-4.463537376154e-06 6.051832828102e-02 0.0 
-8.268701385816e-07 4.732761805531e-02 0.0 
-2.160378503646e-06 4.063502752050e-02 0.0 
-1.101705070283e-06 5.078073930057e-02 0.0 
-1.143476229037e-06 4.324704906603e-02 0.0 
1.861454071772e-06 3.040912185297e-02 0.0 
1.098454578141e-05 7.914990814589e-02 0.0 
-2.804125823985e-06 6.921432559468e-02 0.0 
-2.338177942818e-06 4.313750959269e-02 0.0 
4.021963206924e-06 2.422009993761e-02 0.0 
5.536579948284e-06 1.540598042856e-02 0.0 
-2.264527417140e-06 6.327060658093e-02 0.0 
2.874929563745e-06 3.127577722688e-02 0.0 
-2.205132140887e-06 2.049648984208e-02 0.0 
4.275829148526e-07 5.865307794608e-02 0.0 
-3.833690734312e-06 7.859426818797e-02 0.0 
7.883953287546e-06 8.009395582791e-02 0.0 
4.763130228014e-07 7.220193110680e-02 0.0 
-1.434691352387e-06 5.663763513236e-02 0.0 
5.293684477436e-07 5.401685188139e-02 0.0 
7.623475397622e-07 1.414840656161e-02 0.0 
3.057263155526e-06 2.840603094467e-02 0.0 
1.769492774528e-06 3.519887230951e-02 0.0 
1.166440842582e-06 8.181546574411e-02 0.0 
-7.469937145288e-06 6.126595735558e-02 0.0 
2.572993880179e-06 2.544699044265e-02 0.0 
-1.620185905438e-07 5.370657630406e-02 0.0 
-7.075340633378e-07 2.663796771566e-02 0.0 
7.452838524102e-07 5.647207552901e-02 0.0 
-4.313523234600e-06 1.327195397250e-02 0.0 
-6.306962003322e-06 6.907078147437e-02 0.0 
1.397351161891e-06 2.239947433142e-02 0.0 
1.515263923224e-06 3.466053675526e-02 0.0 
-1.955385265262e-06 7.149544024568e-02 0.0 
-3.564999602190e-07 5.880798446374e-02 0.0 
5.447924884550e-07 1.396391298367e-02 0.0 
3.115556074462e-06 2.777248325151e-02 0.0 
-7.320158701418e-07 4.567725085360e-02 0.0 
-5.650058731987e-08 5.635792933248e-02 0.0 
-6.478789131847e-06 6.678009131439e-02 0.0 
4.839080025576e-07 5.186430889333e-02 0.0 
-6.873691518194e-07 4.438319218463e-02 0.0 
3.204171704851e-06 6.529925979287e-03 0.0 
2.083974800726e-06 2.440065656324e-02 0.0 
-5.277816228499e-06 4.183507364470e-02 0.0 
2.552802680356e-08 5.463489414996e-02 0.0 
5.172984174351e-08 4.134498794651e-02 0.0 
-7.245818167689e-07 8.127347281723e-02 0.0 
-6.839967387151e-06 6.535626772565e-02 0.0 
2.601565149973e-07 5.251592983183e-02 0.0 
4.825996349211e-07 7.092371494545e-02 0.0 
1.365069888237e-07 5.435141675916e-02 0.0 
6.570769688352e-06 1.505060164722e-02 0.0 
8.488680185437e-07 5.030830067155e-02 0.0 
-5.561697591361e-08 6.772090342131e-02 0.0 
1.744890635980e-06 4.802025528931e-02 0.0 
-5.071750386776e-06 7.023091116149e-02 0.0 
-3.711762758485e-06 3.916940145484e-02 0.0 
2.048588656045e-06 4.564906276935e-02 0.0 
8.884087350225e-07 3.874762532011e-02 0.0 
5.849107274969e-06 8.119171146976e-02 0.0 
-6.517900530412e-07 4.333252367767e-02 0.0 
1.077134773375e-06 2.370631705072e-02 0.0 
2.639367192359e-06 6.959144347256e-02 0.0 
7.455504054121e-07 5.226106033528e-02 0.0 
-1.337567248072e-06 3.303294260166e-02 0.0 
-4.314464362665e-06 7.326019033667e-02 0.0 
8.692029123125e-07 4.707612664529e-02 0.0 
1.852028489679e-06 3.270027123341e-02 0.0 
1.270117202523e-07 4.087101172213e-02 0.0 
-8.911025624059e-07 5.196571163262e-02 0.0 
1.274946500374e-06 4.138182968226e-02 0.0 
-2.949869749358e-06 7.236844472292e-02 0.0 
3.220843732166e-06 7.566159745444e-02 0.0 
4.561850161622e-06 7.774783422370e-02 0.0 
1.620712630768e-07 6.621219523803e-02 0.0 
1.692688147870e-06 2.912221946258e-02 0.0 
-9.583225470067e-06 8.035852498889e-02 0.0 
-2.320001843970e-06 3.388075843044e-02 0.0 
3.372296799142e-06 8.007967453173e-02 0.0 
8.922262590971e-07 6.814378170668e-02 0.0 
6.266939784894e-07 3.149948567597e-02 0.0 
-2.066604977813e-06 4.512674628708e-02 0.0 
1.235859945936e-06 6.666769172468e-02 0.0 
-1.010423302916e-06 7.658137652898e-02 0.0 
2.010453926005e-06 6.859289551727e-02 0.0 
-3.972675806097e-07 4.684656875316e-02 0.0 
2.197775804902e-06 6.713132398193e-02 0.0 
2.961731237150e-06 6.904190951958e-02 0.0 
-6.206931892905e-06 1.406787661055e-02 0.0 
2.454152637554e-06 6.763399797652e-02 0.0 
-8.673950247839e-06 6.784959541282e-03 0.0 
8.795143662255e-07 7.365914541996e-03 0.0 
1.267172564212e-06 5.533523540011e-02 0.0 
-1.579030996979e-05 7.602466511213e-02 0.0 
1.067219762874e-05 8.227445638049e-02 0.0 
-1.210238237448e-05 7.513270925006e-02 0.0 
3.483527908799e-06 7.254287490004e-02 0.0 
-9.011183301766e-07 3.480864084831e-02 0.0 
2.620903522654e-06 5.510954492422e-02 0.0 
3.660559144691e-06 7.413411648721e-02 0.0 
2.803962722453e-06 1.321680079868e-02 0.0 
-2.788174757740e-06 6.496021034636e-03 0.0 
4.994892393029e-07 3.615863367392e-02 0.0 
-1.133471165815e-06 2.401286546839e-02 0.0 
2.034904511561e-07 3.805348726949e-02 0.0 
-5.524537485257e-07 2.013193031000e-02 0.0 
-2.397626772677e-07 5.912212086141e-02 0.0 
9.490214480934e-08 8.194618621108e-02 0.0 
7.361499357872e-07 4.011902702993e-02 0.0 
-6.951190574256e-06 7.818162813718e-02 0.0 
-4.581996762454e-06 7.794980831292e-02 0.0 
-5.229300288789e-06 7.971590511872e-02 0.0 
2.341654402827e-06 7.317368818691e-02 0.0 
8.842687241994e-06 8.133103349411e-02 0.0 
-4.089748983915e-06 7.957506480275e-02 0.0 
-3.743336474571e-06 1.382373156329e-02 0.0 
1.197378445283e-06 5.501180521953e-02 0.0 
2.647393621658e-06 2.855576919326e-02 0.0 
-6.689986463471e-06 8.090183161416e-02 0.0 
-6.128874950662e-06 1.362681839896e-02 0.0 
1.863581548633e-06 1.369707585321e-02 0.0 
5.650618836839e-06 6.400152227471e-03 0.0 
2.880529741844e-06 2.146461196712e-02 0.0 
-4.792982675639e-06 8.104457234840e-02 0.0 
-2.242444949729e-06 5.082336317479e-02 0.0 
1.368611478370e-06 1.298316307821e-02 0.0 
1.499578701214e-06 3.105131787983e-02 0.0 
-5.299071077935e-06 6.164116621182e-03 0.0 
-6.879689372852e-06 5.545717563182e-02 0.0 
-1.300171142304e-06 1.314777240693e-02 0.0 
1.678359482504e-05 7.996198726511e-02 0.0 
-6.631653086231e-06 1.275752708436e-02 0.0 
3.784823761066e-07 2.837184551205e-02 0.0 
1.397052386665e-06 4.903391401969e-02 0.0 
-1.543134676751e-05 5.107386116956e-02 0.0 
1.754788551800e-06 1.278063117801e-02 0.0 
-4.249347291818e-06 1.329485176395e-02 0.0 
2.503121756092e-06 8.156227511276e-02 0.0 
9.088808639035e-08 3.677240073317e-02 0.0 
-1.718586565946e-06 6.788912278087e-02 0.0 
2.221661034696e-05 8.199827359390e-02 0.0 
6.385405445286e-06 1.329140537000e-02 0.0 
3.074856337548e-06 2.175204701085e-02 0.0 
3.070165731422e-06 1.302732434462e-02 0.0 
-5.558237486492e-06 8.133191284628e-02 0.0 
-7.153138085414e-06 8.198931492208e-02 0.0 
-8.861167000163e-07 1.225151372344e-02 0.0 
-2.413991328609e-06 1.221600168601e-02 0.0 
1.324797127111e-05 7.913726583313e-02 0.0 
-2.607471763838e-06 5.525560653680e-03 0.0 
2.613613091285e-05 8.203949967343e-02 0.0 
-2.528367495813e-06 5.957897362540e-02 0.0 
1.674556314768e-05 8.196935893834e-02 0.0 
-2.732628647806e-07 6.247135783365e-03 0.0 
4.854113178965e-06 1.263747239411e-02 0.0 
-5.134580050026e-06 6.461849148619e-02 0.0 
-7.994735831574e-06 5.829958968038e-02 0.0 
2.551266459427e-06 7.495273853807e-02 0.0 
5.313803011830e-06 1.839615524495e-02 0.0 
-4.012782223839e-06 8.141643103401e-02 0.0 
-1.732009430100e-06 1.192406301769e-02 0.0 
-3.904148808687e-07 1.190209191863e-02 0.0 
-2.832383529494e-06 1.203169530542e-02 0.0 
-2.073515954493e-06 5.098850323442e-03 0.0 
9.744133127043e-06 8.201477124602e-02 0.0 
1.852802533620e-07 1.172135645757e-02 0.0 
4.564907856164e-06 1.856259819667e-02 0.0 
3.959890428007e-06 5.931754583812e-02 0.0 
3.023012652648e-06 1.294361702171e-02 0.0 
4.414495145433e-06 7.077801682018e-02 0.0 
8.065202944607e-06 8.038501934521e-02 0.0 
-1.845049659721e-06 6.014493312975e-03 0.0 
-1.032419221925e-05 8.228598830228e-02 0.0 
-1.197550560050e-06 5.931911067996e-02 0.0 
2.611814821751e-06 6.012825402728e-03 0.0 
-8.450186324893e-06 8.057965930584e-02 0.0 
2.215311646125e-06 5.172363597928e-02 0.0 
-3.269812225426e-07 1.173979821780e-02 0.0 
-6.377220361120e-06 5.568719725599e-02 0.0 
5.334139956403e-06 2.475045846476e-02 0.0 
6.286598877026e-06 8.061528430321e-02 0.0 
1.822130417040e-05 8.229490252632e-02 0.0 
1.757254551649e-06 4.228336579565e-02 0.0 
6.071999440138e-06 1.233020241429e-02 0.0 
-2.643478168807e-06 1.146250891840e-02 0.0 
1.371948727069e-06 4.609066337786e-02 0.0 
6.971547570345e-07 8.093208142219e-02 0.0 
1.360845647724e-06 1.653089058241e-02 0.0 
-6.422294893671e-06 6.155338108227e-02 0.0 
-6.792076732154e-07 1.789574520213e-02 0.0 
-6.468475973520e-06 1.863902505475e-02 0.0 
2.952342712348e-05 8.227731262932e-02 0.0 
3.455004063291e-06 5.083790505364e-02 0.0 
1.955040266921e-05 8.200053737614e-02 0.0 
1.300194561793e-06 1.187008848218e-02 0.0 
-8.648203237094e-06 5.963860381485e-02 0.0 
2.686083308134e-05 8.232084658024e-02 0.0 
-9.330112440864e-06 8.233184564358e-02 0.0 
3.087481101005e-06 8.204220467072e-02 0.0 
1.566641114437e-05 8.204481115065e-02 0.0 
3.359905342393e-06 8.138051284352e-02 0.0 
-1.529084613594e-06 8.132611018099e-02 0.0 
9.051642940960e-06 8.030026988875e-02 0.0 
1.015655976744e-05 8.019043902581e-02 0.0 
8.418915559361e-06 7.877002549962e-02 0.0 
-6.397486416176e-06 7.863069474188e-02 0.0 
6.486929891025e-06 7.683251817560e-02 0.0 
8.701400737721e-06 7.664627793981e-02 0.0 
9.729115131307e-06 7.444638077984e-02 0.0 
-7.226272032312e-06 7.423604648960e-02 0.0 
1.057176350727e-05 7.166530713636e-02 0.0 
8.392074022368e-06 7.140004360514e-02 0.0 
9.375377238996e-06 6.841664872195e-02 0.0 
-8.354673774136e-06 6.813772037703e-02 0.0 
1.030353008247e-05 6.479539966216e-02 0.0 
6.973434118152e-06 6.445111086795e-02 0.0 

VECTORS node_bounda_dof_materi_velocity_x float
1.000000000000e+00 0.0 0.0 
1.000000000000e+00 0.0 0.0 
1.000000000000e+00 0.0 0.0 
1.000000000000e+00 0.0 0.0 
1.000000000000e+00 0.0 0.0 
1.000000000000e+00 0.0 0.0 
1.000000000000e+00 0.0 0.0 
1.000000000000e+00 0.0 0.0 
1.000000000000e+00 0.0 0.0 
1.000000000000e+00 0.0 0.0 
1.000000000000e+00 0.0 0.0 
1.000000000000e+00 0.0 0.0 
1.000000000000e+00 0.0 0.0 
1.000000000000e+00 0.0 0.0 
1.000000000000e+00 0.0 0.0 
1.000000000000e+00 0.0 0.0 
1.000000000000e+00 0.0 0.0 
1.000000000000e+00 0.0 0.0 
1.000000000000e+00 0.0 0.0 
1.000000000000e+00 0.0 0.0 
1.000000000000e+00 0.0 0.0 
1.000000000000e+00 0.0 0.0 
1.000000000000e+00 0.0 0.0 
1.000000000000e+00 0.0 0.0 
1.000000000000e+00 0.0 0.0 
1.000000000000e+00 0.0 0.0 
1.000000000000e+00 0.0 0.0 
1.000000000000e+00 0.0 0.0 
1.000000000000e+00 0.0 0.0 
1.000000000000e+00 0.0 0.0 
1.000000000000e+00 0.0 0.0 
1.000000000000e+00 0.0 0.0 
1.000000000000e+00 0.0 0.0 
1.000000000000e+00 0.0 0.0 
1.000000000000e+00 0.0 0.0 
1.000000000000e+00 0.0 0.0 
1.000000000000e+00 0.0 0.0 
1.000000000000e+00 0.0 0.0 
1.000000000000e+00 0.0 0.0 
1.000000000000e+00 0.0 0.0 
1.000000000000e+00 0.0 0.0 
1.000000000000e+00 0.0 0.0 
1.000000000000e+00 0.0 0.0 
1.000000000000e+00 0.0 0.0 
1.000000000000e+00 0.0 0.0 
1.000000000000e+00 0.0 0.0 
1.000000000000e+00 0.0 0.0 
1.000000000000e+00 0.0 0.0 
1.000000000000e+00 0.0 0.0 
1.000000000000e+00 0.0 0.0 
1.000000000000e+00 0.0 0.0 
1.000000000000e+00 0.0 0.0 
1.000000000000e+00 0.0 0.0 
1.000000000000e+00 0.0 0.0 
1.000000000000e+00 0.0 0.0 
1.000000000000e+00 0.0 0.0 
1.000000000000e+00 0.0 0.0 
1.000000000000e+00 0.0 0.0 
1.000000000000e+00 0.0 0.0 
1.000000000000e+00 0.0 0.0 
1.000000000000e+00 0.0 0.0 
1.000000000000e+00 0.0 0.0 
1.000000000000e+00 0.0 0.0 
1.000000000000e+00 0.0 0.0 
1.000000000000e+00 0.0 0.0 
1.000000000000e+00 0.0 0.0 
1.000000000000e+00 0.0 0.0 
1.000000000000e+00 0.0 0.0 
1.000000000000e+00 0.0 0.0 
1.000000000000e+00 0.0 0.0 
1.000000000000e+00 0.0 0.0 
1.000000000000e+00 0.0 0.0 
1.000000000000e+00 0.0 0.0 
1.000000000000e+00 0.0 0.0 
1.000000000000e+00 0.0 0.0 
1.000000000000e+00 0.0 0.0 
1.000000000000e+00 0.0 0.0 
1.000000000000e+00 0.0 0.0 
1.000000000000e+00 0.0 0.0 
1.000000000000e+00 0.0 0.0 
1.000000000000e+00 0.0 0.0 
0.0 0.0 0.0 
1.000000000000e+00 0.0 0.0 
0.0 0.0 0.0 
0.0 0.0 0.0 
0.0 0.0 0.0 
0.0 0.0 0.0 
0.0 0.0 0.0 
0.0 0.0 0.0 
0.0 0.0 0.0 
0.0 0.0 0.0 
0.0 0.0 0.0 
0.0 0.0 0.0 
1.000000000000e+00 0.0 0.0 
1.000000000000e+00 0.0 0.0 
1.000000000000e+00 0.0 0.0 
1.000000000000e+00 0.0 0.0 
1.000000000000e+00 0.0 0.0 
1.000000000000e+00 0.0 0.0 
1.000000000000e+00 0.0 0.0 
1.000000000000e+00 0.0 0.0 
1.000000000000e+00 0.0 0.0 
0.0 0.0 0.0 
0.0 0.0 0.0 
0.0 0.0 0.0 
0.0 0.0 0.0 
0.0 0.0 0.0 
0.0 0.0 0.0 
0.0 0.0 0.0 
0.0 0.0 0.0 
0.0 0.0 0.0 
0.0 0.0 0.0 
0.0 0.0 0.0 
0.0 0.0 0.0 
0.0 0.0 0.0 
0.0 0.0 0.0 
0.0 0.0 0.0 
0.0 0.0 0.0 
0.0 0.0 0.0 
0.0 0.0 0.0 
0.0 0.0 0.0 
0.0 0.0 0.0 
0.0 0.0 0.0 
0.0 0.0 0.0 
0.0 0.0 0.0 
0.0 0.0 0.0 
0.0 0.0 0.0 
0.0 0.0 0.0 
0.0 0.0 0.0 
0.0 0.0 0.0 
0.0 0.0 0.0 
0.0 0.0 0.0 
0.0 0.0 0.0 
0.0 0.0 0.0 
0.0 0.0 0.0 
0.0 0.0 0.0 
0.0 0.0 0.0 
0.0 0.0 0.0 
0.0 0.0 0.0 
0.0 0.0 0.0 
0.0 0.0 0.0 
0.0 0.0 0.0 
0.0 0.0 0.0 
0.0 0.0 0.0 
0.0 0.0 0.0 
0.0 0.0 0.0 
0.0 0.0 0.0 
0.0 0.0 0.0 
0.0 0.0 0.0 
0.0 0.0 0.0 
0.0 0.0 0.0 
0.0 0.0 0.0 
0.0 0.0 0.0 
0.0 0.0 0.0 
0.0 0.0 0.0 
0.0 0.0 0.0 
0.0 0.0 0.0 
0.0 0.0 0.0 
0.0 0.0 0.0 
0.0 0.0 0.0 
0.0 0.0 0.0 
0.0 0.0 0.0 
0.0 0.0 0.0 
0.0 0.0 0.0 
0.0 0.0 0.0 
0.0 0.0 0.0 
0.0 0.0 0.0 
0.0 0.0 0.0 
0.0 0.0 0.0 
0.0 0.0 0.0 
0.0 0.0 0.0 
0.0 0.0 0.0 
0.0 0.0 0.0 
0.0 0.0 0.0 
0.0 0.0 0.0 
0.0 0.0 0.0 
0.0 0.0 0.0 
0.0 0.0 0.0 
0.0 0.0 0.0 
0.0 0.0 0.0 
0.0 0.0 0.0 
0.0 0.0 0.0 
0.0 0.0 0.0 
0.0 0.0 0.0 
0.0 0.0 0.0 
0.0 0.0 0.0 
0.0 0.0 0.0 
0.0 0.0 0.0 
0.0 0.0 0.0 
0.0 0.0 0.0 
0.0 0.0 0.0 
0.0 0.0 0.0 
0.0 0.0 0.0 
0.0 0.0 0.0 
0.0 0.0 0.0 
0.0 0.0 0.0 
0.0 0.0 0.0 
0.0 0.0 0.0 
0.0 0.0 0.0 
0.0 0.0 0.0 
0.0 0.0 0.0 
0.0 0.0 0.0 
0.0 0.0 0.0 
0.0 0.0 0.0 
0.0 0.0 0.0 
0.0 0.0 0.0 
0.0 0.0 0.0 
0.0 0.0 0.0 
0.0 0.0 0.0 
0.0 0.0 0.0 
0.0 0.0 0.0 
0.0 0.0 0.0 
0.0 0.0 0.0 
0.0 0.0 0.0 
0.0 0.0 0.0 
0.0 0.0 0.0 
0.0 0.0 0.0 
0.0 0.0 0.0 
0.0 0.0 0.0 
0.0 0.0 0.0 
0.0 0.0 0.0 
0.0 0.0 0.0 
0.0 0.0 0.0 
0.0 0.0 0.0 
0.0 0.0 0.0 
0.0 0.0 0.0 
0.0 0.0 0.0 
0.0 0.0 0.0 
0.0 0.0 0.0 
0.0 0.0 0.0 
0.0 0.0 0.0 
0.0 0.0 0.0 
0.0 0.0 0.0 
0.0 0.0 0.0 
0.0 0.0 0.0 
0.0 0.0 0.0 
0.0 0.0 0.0 
0.0 0.0 0.0 
0.0 0.0 0.0 
0.0 0.0 0.0 
0.0 0.0 0.0 
0.0 0.0 0.0 
0.0 0.0 0.0 
0.0 0.0 0.0 
0.0 0.0 0.0 
0.0 0.0 0.0 
0.0 0.0 0.0 
0.0 0.0 0.0 
0.0 0.0 0.0 
0.0 0.0 0.0 
0.0 0.0 0.0 
0.0 0.0 0.0 
0.0 0.0 0.0 
0.0 0.0 0.0 
0.0 0.0 0.0 
0.0 0.0 0.0 
0.0 0.0 0.0 
0.0 0.0 0.0 
0.0 0.0 0.0 
0.0 0.0 0.0 
0.0 0.0 0.0 
0.0 0.0 0.0 
0.0 0.0 0.0 
0.0 0.0 0.0 
0.0 0.0 0.0 
0.0 0.0 0.0 
0.0 0.0 0.0 
0.0 0.0 0.0 
0.0 0.0 0.0 
0.0 0.0 0.0 
0.0 0.0 0.0 
0.0 0.0 0.0 
0.0 0.0 0.0 
0.0 0.0 0.0 
0.0 0.0 0.0 
0.0 0.0 0.0 
0.0 0.0 0.0 
0.0 0.0 0.0 
0.0 0.0 0.0 
0.0 0.0 0.0 
0.0 0.0 0.0 
0.0 0.0 0.0 
0.0 0.0 0.0 
0.0 0.0 0.0 
0.0 0.0 0.0 
0.0 0.0 0.0 
0.0 0.0 0.0 
0.0 0.0 0.0 
0.0 0.0 0.0 
0.0 0.0 0.0 
0.0 0.0 0.0 
0.0 0.0 0.0 
0.0 0.0 0.0 
0.0 0.0 0.0 
0.0 0.0 0.0 
0.0 0.0 0.0 
0.0 0.0 0.0 
0.0 0.0 0.0 
0.0 0.0 0.0 
0.0 0.0 0.0 
0.0 0.0 0.0 
0.0 0.0 0.0 
0.0 0.0 0.0 
0.0 0.0 0.0 
0.0 0.0 0.0 
0.0 0.0 0.0 
0.0 0.0 0.0 
0.0 0.0 0.0 
0.0 0.0 0.0 
0.0 0.0 0.0 
0.0 0.0 0.0 
0.0 0.0 0.0 
0.0 0.0 0.0 
0.0 0.0 0.0 
0.0 0.0 0.0 
0.0 0.0 0.0 
0.0 0.0 0.0 
0.0 0.0 0.0 
0.0 0.0 0.0 
0.0 0.0 0.0 
0.0 0.0 0.0 
0.0 0.0 0.0 
0.0 0.0 0.0 
0.0 0.0 0.0 
0.0 0.0 0.0 
0.0 0.0 0.0 
0.0 0.0 0.0 
0.0 0.0 0.0 
0.0 0.0 0.0 
0.0 0.0 0.0 
0.0 0.0 0.0 
0.0 0.0 0.0 
0.0 0.0 0.0 
0.0 0.0 0.0 
0.0 0.0 0.0 
0.0 0.0 0.0 
0.0 0.0 0.0 
0.0 0.0 0.0 
0.0 0.0 0.0 
0.0 0.0 0.0 
0.0 0.0 0.0 
0.0 0.0 0.0 
0.0 0.0 0.0 
0.0 0.0 0.0 
0.0 0.0 0.0 
0.0 0.0 0.0 
0.0 0.0 0.0 
0.0 0.0 0.0 
0.0 0.0 0.0 
0.0 0.0 0.0 
0.0 0.0 0.0 
0.0 0.0 0.0 
0.0 0.0 0.0 
0.0 0.0 0.0 
0.0 0.0 0.0 
0.0 0.0 0.0 
0.0 0.0 0.0 
0.0 0.0 0.0 
0.0 0.0 0.0 
0.0 0.0 0.0 
0.0 0.0 0.0 
0.0 0.0 0.0 
0.0 0.0 0.0 
0.0 0.0 0.0 
0.0 0.0 0.0 
0.0 0.0 0.0 
0.0 0.0 0.0 
0.0 0.0 0.0 
0.0 0.0 0.0 
0.0 0.0 0.0 
0.0 0.0 0.0 
0.0 0.0 0.0 
0.0 0.0 0.0 
0.0 0.0 0.0 
0.0 0.0 0.0 
0.0 0.0 0.0 
0.0 0.0 0.0 
0.0 0.0 0.0 
0.0 0.0 0.0 
0.0 0.0 0.0 
0.0 0.0 0.0 
0.0 0.0 0.0 
0.0 0.0 0.0 
0.0 0.0 0.0 
0.0 0.0 0.0 
0.0 0.0 0.0 
0.0 0.0 0.0 
0.0 0.0 0.0 
0.0 0.0 0.0 
0.0 0.0 0.0 
0.0 0.0 0.0 
0.0 0.0 0.0 
0.0 0.0 0.0 
0.0 0.0 0.0 
0.0 0.0 0.0 
0.0 0.0 0.0 
0.0 0.0 0.0 
0.0 0.0 0.0 
0.0 0.0 0.0 
0.0 0.0 0.0 
0.0 0.0 0.0 
0.0 0.0 0.0 
0.0 0.0 0.0 
0.0 0.0 0.0 
0.0 0.0 0.0 
0.0 0.0 0.0 
0.0 0.0 0.0 
0.0 0.0 0.0 
0.0 0.0 0.0 
0.0 0.0 0.0 
0.0 0.0 0.0 
0.0 0.0 0.0 
0.0 0.0 0.0 
0.0 0.0 0.0 
0.0 0.0 0.0 
0.0 0.0 0.0 
0.0 0.0 0.0 
0.0 0.0 0.0 
0.0 0.0 0.0 
0.0 0.0 0.0 
0.0 0.0 0.0 
0.0 0.0 0.0 
0.0 0.0 0.0 
0.0 0.0 0.0 
0.0 0.0 0.0 
0.0 0.0 0.0 
0.0 0.0 0.0 
0.0 0.0 0.0 
0.0 0.0 0.0 
0.0 0.0 0.0 
0.0 0.0 0.0 
0.0 0.0 0.0 
0.0 0.0 0.0 
0.0 0.0 0.0 
0.0 0.0 0.0 
0.0 0.0 0.0 
0.0 0.0 0.0 
0.0 0.0 0.0 
0.0 0.0 0.0 
0.0 0.0 0.0 
0.0 0.0 0.0 
0.0 0.0 0.0 
0.0 0.0 0.0 
0.0 0.0 0.0 
0.0 0.0 0.0 
0.0 0.0 0.0 
0.0 0.0 0.0 
0.0 0.0 0.0 
0.0 0.0 0.0 
0.0 0.0 0.0 
0.0 0.0 0.0 
0.0 0.0 0.0 
0.0 0.0 0.0 
0.0 0.0 0.0 
0.0 0.0 0.0 
0.0 0.0 0.0 
0.0 0.0 0.0 
0.0 0.0 0.0 
0.0 0.0 0.0 
0.0 0.0 0.0 
0.0 0.0 0.0 
0.0 0.0 0.0 
0.0 0.0 0.0 
0.0 0.0 0.0 
0.0 0.0 0.0 
0.0 0.0 0.0 
0.0 0.0 0.0 
0.0 0.0 0.0 
0.0 0.0 0.0 
0.0 0.0 0.0 
0.0 0.0 0.0 
0.0 0.0 0.0 
0.0 0.0 0.0 
0.0 0.0 0.0 
0.0 0.0 0.0 
0.0 0.0 0.0 
0.0 0.0 0.0 
0.0 0.0 0.0 
0.0 0.0 0.0 
0.0 0.0 0.0 
0.0 0.0 0.0 
0.0 0.0 0.0 
0.0 0.0 0.0 
0.0 0.0 0.0 
0.0 0.0 0.0 
0.0 0.0 0.0 
0.0 0.0 0.0 
0.0 0.0 0.0 
0.0 0.0 0.0 
0.0 0.0 0.0 
0.0 0.0 0.0 
0.0 0.0 0.0 
0.0 0.0 0.0 
0.0 0.0 0.0 
0.0 0.0 0.0 
0.0 0.0 0.0 
0.0 0.0 0.0 
0.0 0.0 0.0 
0.0 0.0 0.0 
0.0 0.0 0.0 
0.0 0.0 0.0 
0.0 0.0 0.0 
0.0 0.0 0.0 
0.0 0.0 0.0 
0.0 0.0 0.0 
0.0 0.0 0.0 
0.0 0.0 0.0 
0.0 0.0 0.0 
0.0 0.0 0.0 
0.0 0.0 0.0 
0.0 0.0 0.0 
0.0 0.0 0.0 
0.0 0.0 0.0 
0.0 0.0 0.0 
0.0 0.0 0.0 
0.0 0.0 0.0 
0.0 0.0 0.0 
0.0 0.0 0.0 
0.0 0.0 0.0 
0.0 0.0 0.0 
0.0 0.0 0.0 
0.0 0.0 0.0 
0.0 0.0 0.0 
0.0 0.0 0.0 
0.0 0.0 0.0 
0.0 0.0 0.0 
0.0 0.0 0.0 
0.0 0.0 0.0 
0.0 0.0 0.0 
0.0 0.0 0.0 
0.0 0.0 0.0 
0.0 0.0 0.0 
0.0 0.0 0.0 
0.0 0.0 0.0 
0.0 0.0 0.0 
0.0 0.0 0.0 
0.0 0.0 0.0 
0.0 0.0 0.0 
0.0 0.0 0.0 
0.0 0.0 0.0 
0.0 0.0 0.0 
0.0 0.0 0.0 
0.0 0.0 0.0 
0.0 0.0 0.0 
0.0 0.0 0.0 
0.0 0.0 0.0 
0.0 0.0 0.0 
0.0 0.0 0.0 
0.0 0.0 0.0 
0.0 0.0 0.0 
0.0 0.0 0.0 
0.0 0.0 0.0 
0.0 0.0 0.0 
0.0 0.0 0.0 
0.0 0.0 0.0 
0.0 0.0 0.0 
0.0 0.0 0.0 
0.0 0.0 0.0 
0.0 0.0 0.0 
0.0 0.0 0.0 
0.0 0.0 0.0 
0.0 0.0 0.0 
0.0 0.0 0.0 
0.0 0.0 0.0 
0.0 0.0 0.0 
0.0 0.0 0.0 
0.0 0.0 0.0 
0.0 0.0 0.0 
0.0 0.0 0.0 
0.0 0.0 0.0 
0.0 0.0 0.0 
0.0 0.0 0.0 
0.0 0.0 0.0 
0.0 0.0 0.0 
0.0 0.0 0.0 
0.0 0.0 0.0 
0.0 0.0 0.0 
0.0 0.0 0.0 
0.0 0.0 0.0 
0.0 0.0 0.0 
0.0 0.0 0.0 
0.0 0.0 0.0 
0.0 0.0 0.0 
0.0 0.0 0.0 
0.0 0.0 0.0 
0.0 0.0 0.0 
0.0 0.0 0.0 
0.0 0.0 0.0 
0.0 0.0 0.0 
0.0 0.0 0.0 
0.0 0.0 0.0 
0.0 0.0 0.0 
0.0 0.0 0.0 
0.0 0.0 0.0 
0.0 0.0 0.0 
0.0 0.0 0.0 
0.0 0.0 0.0 
0.0 0.0 0.0 
0.0 0.0 0.0 
0.0 0.0 0.0 
0.0 0.0 0.0 
0.0 0.0 0.0 
0.0 0.0 0.0 
0.0 0.0 0.0 
0.0 0.0 0.0 
0.0 0.0 0.0 
0.0 0.0 0.0 
0.0 0.0 0.0 
0.0 0.0 0.0 
0.0 0.0 0.0 
0.0 0.0 0.0 
0.0 0.0 0.0 
0.0 0.0 0.0 
0.0 0.0 0.0 
0.0 0.0 0.0 
0.0 0.0 0.0 
0.0 0.0 0.0 
0.0 0.0 0.0 
0.0 0.0 0.0 
0.0 0.0 0.0 
0.0 0.0 0.0 
0.0 0.0 0.0 
0.0 0.0 0.0 
0.0 0.0 0.0 
0.0 0.0 0.0 
0.0 0.0 0.0 
0.0 0.0 0.0 
0.0 0.0 0.0 
0.0 0.0 0.0 
0.0 0.0 0.0 
0.0 0.0 0.0 
0.0 0.0 0.0 
0.0 0.0 0.0 
0.0 0.0 0.0 
0.0 0.0 0.0 
0.0 0.0 0.0 
0.0 0.0 0.0 
0.0 0.0 0.0 
0.0 0.0 0.0 
0.0 0.0 0.0 
0.0 0.0 0.0 
0.0 0.0 0.0 
0.0 0.0 0.0 
0.0 0.0 0.0 
0.0 0.0 0.0 
0.0 0.0 0.0 
0.0 0.0 0.0 
0.0 0.0 0.0 
0.0 0.0 0.0 
0.0 0.0 0.0 
0.0 0.0 0.0 
0.0 0.0 0.0 
0.0 0.0 0.0 
0.0 0.0 0.0 
0.0 0.0 0.0 
0.0 0.0 0.0 
0.0 0.0 0.0 
0.0 0.0 0.0 
0.0 0.0 0.0 
0.0 0.0 0.0 
0.0 0.0 0.0 
0.0 0.0 0.0 
0.0 0.0 0.0 
0.0 0.0 0.0 
0.0 0.0 0.0 
0.0 0.0 0.0 
0.0 0.0 0.0 
0.0 0.0 0.0 
0.0 0.0 0.0 
0.0 0.0 0.0 
0.0 0.0 0.0 
0.0 0.0 0.0 
0.0 0.0 0.0 
0.0 0.0 0.0 
0.0 0.0 0.0 
0.0 0.0 0.0 
0.0 0.0 0.0 
0.0 0.0 0.0 
0.0 0.0 0.0 
0.0 0.0 0.0 
0.0 0.0 0.0 
0.0 0.0 0.0 
0.0 0.0 0.0 
0.0 0.0 0.0 
0.0 0.0 0.0 
0.0 0.0 0.0 
0.0 0.0 0.0 
0.0 0.0 0.0 
0.0 0.0 0.0 
0.0 0.0 0.0 
0.0 0.0 0.0 
0.0 0.0 0.0 
0.0 0.0 0.0 
0.0 0.0 0.0 
0.0 0.0 0.0 
0.0 0.0 0.0 
0.0 0.0 0.0 
0.0 0.0 0.0 
0.0 0.0 0.0 
0.0 0.0 0.0 
0.0 0.0 0.0 
0.0 0.0 0.0 
0.0 0.0 0.0 
0.0 0.0 0.0 
0.0 0.0 0.0 
0.0 0.0 0.0 
0.0 0.0 0.0 
0.0 0.0 0.0 
0.0 0.0 0.0 
0.0 0.0 0.0 
0.0 0.0 0.0 
0.0 0.0 0.0 
0.0 0.0 0.0 
0.0 0.0 0.0 
0.0 0.0 0.0 
0.0 0.0 0.0 
0.0 0.0 0.0 
0.0 0.0 0.0 
0.0 0.0 0.0 
0.0 0.0 0.0 
0.0 0.0 0.0 
0.0 0.0 0.0 
0.0 0.0 0.0 
0.0 0.0 0.0 
0.0 0.0 0.0 
0.0 0.0 0.0 
0.0 0.0 0.0 
0.0 0.0 0.0 
0.0 0.0 0.0 
0.0 0.0 0.0 
0.0 0.0 0.0 
0.0 0.0 0.0 
0.0 0.0 0.0 
0.0 0.0 0.0 
0.0 0.0 0.0 
0.0 0.0 0.0 
0.0 0.0 0.0 
0.0 0.0 0.0 
0.0 0.0 0.0 
0.0 0.0 0.0 
0.0 0.0 0.0 
0.0 0.0 0.0 
0.0 0.0 0.0 
0.0 0.0 0.0 
0.0 0.0 0.0 
0.0 0.0 0.0 
0.0 0.0 0.0 
0.0 0.0 0.0 
0.0 0.0 0.0 
0.0 0.0 0.0 
0.0 0.0 0.0 
0.0 0.0 0.0 
0.0 0.0 0.0 
0.0 0.0 0.0 
0.0 0.0 0.0 
0.0 0.0 0.0 
0.0 0.0 0.0 
0.0 0.0 0.0 
0.0 0.0 0.0 
0.0 0.0 0.0 
0.0 0.0 0.0 
0.0 0.0 0.0 
0.0 0.0 0.0 
0.0 0.0 0.0 
0.0 0.0 0.0 
0.0 0.0 0.0 
0.0 0.0 0.0 
0.0 0.0 0.0 
0.0 0.0 0.0 
0.0 0.0 0.0 
0.0 0.0 0.0 
0.0 0.0 0.0 
0.0 0.0 0.0 
0.0 0.0 0.0 
0.0 0.0 0.0 
0.0 0.0 0.0 
0.0 0.0 0.0 
0.0 0.0 0.0 
0.0 0.0 0.0 
0.0 0.0 0.0 
0.0 0.0 0.0 
0.0 0.0 0.0 
0.0 0.0 0.0 
0.0 0.0 0.0 
0.0 0.0 0.0 
0.0 0.0 0.0 
0.0 0.0 0.0 
0.0 0.0 0.0 
0.0 0.0 0.0 
0.0 0.0 0.0 
0.0 0.0 0.0 
0.0 0.0 0.0 
0.0 0.0 0.0 
0.0 0.0 0.0 
0.0 0.0 0.0 
0.0 0.0 0.0 
0.0 0.0 0.0 
0.0 0.0 0.0 
0.0 0.0 0.0 
0.0 0.0 0.0 
0.0 0.0 0.0 
0.0 0.0 0.0 
0.0 0.0 0.0 
0.0 0.0 0.0 
0.0 0.0 0.0 
0.0 0.0 0.0 
0.0 0.0 0.0 
0.0 0.0 0.0 
0.0 0.0 0.0 
0.0 0.0 0.0 
0.0 0.0 0.0 
0.0 0.0 0.0 
0.0 0.0 0.0 
0.0 0.0 0.0 
0.0 0.0 0.0 
0.0 0.0 0.0 
0.0 0.0 0.0 
0.0 0.0 0.0 
0.0 0.0 0.0 
0.0 0.0 0.0 
0.0 0.0 0.0 
0.0 0.0 0.0 
0.0 0.0 0.0 
0.0 0.0 0.0 
0.0 0.0 0.0 
0.0 0.0 0.0 
0.0 0.0 0.0 
0.0 0.0 0.0 
0.0 0.0 0.0 
0.0 0.0 0.0 
0.0 0.0 0.0 
0.0 0.0 0.0 
0.0 0.0 0.0 
0.0 0.0 0.0 
0.0 0.0 0.0 
0.0 0.0 0.0 
0.0 0.0 0.0 
0.0 0.0 0.0 
0.0 0.0 0.0 
0.0 0.0 0.0 
0.0 0.0 0.0 
0.0 0.0 0.0 
0.0 0.0 0.0 
0.0 0.0 0.0 
0.0 0.0 0.0 
0.0 0.0 0.0 
0.0 0.0 0.0 
0.0 0.0 0.0 
0.0 0.0 0.0 
0.0 0.0 0.0 
0.0 0.0 0.0 
0.0 0.0 0.0 
0.0 0.0 0.0 
0.0 0.0 0.0 
0.0 0.0 0.0 
0.0 0.0 0.0 
0.0 0.0 0.0 
0.0 0.0 0.0 
0.0 0.0 0.0 
0.0 0.0 0.0 
0.0 0.0 0.0 
0.0 0.0 0.0 
0.0 0.0 0.0 
0.0 0.0 0.0 
0.0 0.0 0.0 
0.0 0.0 0.0 
0.0 0.0 0.0 
0.0 0.0 0.0 
0.0 0.0 0.0 
0.0 0.0 0.0 
0.0 0.0 0.0 
0.0 0.0 0.0 
0.0 0.0 0.0 
0.0 0.0 0.0 
0.0 0.0 0.0 
0.0 0.0 0.0 
0.0 0.0 0.0 
0.0 0.0 0.0 
0.0 0.0 0.0 
0.0 0.0 0.0 
0.0 0.0 0.0 
0.0 0.0 0.0 
0.0 0.0 0.0 
0.0 0.0 0.0 
0.0 0.0 0.0 
0.0 0.0 0.0 
0.0 0.0 0.0 
0.0 0.0 0.0 
0.0 0.0 0.0 
0.0 0.0 0.0 
0.0 0.0 0.0 
0.0 0.0 0.0 
0.0 0.0 0.0 
0.0 0.0 0.0 
0.0 0.0 0.0 
0.0 0.0 0.0 
0.0 0.0 0.0 
0.0 0.0 0.0 
0.0 0.0 0.0 
0.0 0.0 0.0 
0.0 0.0 0.0 
0.0 0.0 0.0 
0.0 0.0 0.0 
0.0 0.0 0.0 
0.0 0.0 0.0 
0.0 0.0 0.0 
0.0 0.0 0.0 
0.0 0.0 0.0 
0.0 0.0 0.0 
0.0 0.0 0.0 
0.0 0.0 0.0 
0.0 0.0 0.0 
0.0 0.0 0.0 
0.0 0.0 0.0 
0.0 0.0 0.0 
0.0 0.0 0.0 
0.0 0.0 0.0 
0.0 0.0 0.0 
0.0 0.0 0.0 
0.0 0.0 0.0 
0.0 0.0 0.0 
0.0 0.0 0.0 
0.0 0.0 0.0 
0.0 0.0 0.0 
0.0 0.0 0.0 
0.0 0.0 0.0 
0.0 0.0 0.0 
0.0 0.0 0.0 
0.0 0.0 0.0 
0.0 0.0 0.0 
0.0 0.0 0.0 
0.0 0.0 0.0 
0.0 0.0 0.0 
0.0 0.0 0.0 
0.0 0.0 0.0 
0.0 0.0 0.0 
0.0 0.0 0.0 
0.0 0.0 0.0 
0.0 0.0 0.0 
0.0 0.0 0.0 
0.0 0.0 0.0 
0.0 0.0 0.0 
0.0 0.0 0.0 
0.0 0.0 0.0 
0.0 0.0 0.0 
0.0 0.0 0.0 
0.0 0.0 0.0 
0.0 0.0 0.0 
0.0 0.0 0.0 
0.0 0.0 0.0 
0.0 0.0 0.0 
0.0 0.0 0.0 
0.0 0.0 0.0 
0.0 0.0 0.0 
0.0 0.0 0.0 
0.0 0.0 0.0 
0.0 0.0 0.0 
0.0 0.0 0.0 
0.0 0.0 0.0 
0.0 0.0 0.0 
0.0 0.0 0.0 
0.0 0.0 0.0 
0.0 0.0 0.0 
0.0 0.0 0.0 
0.0 0.0 0.0 
0.0 0.0 0.0 
0.0 0.0 0.0 
0.0 0.0 0.0 
0.0 0.0 0.0 
0.0 0.0 0.0 
0.0 0.0 0.0 
0.0 0.0 0.0 
0.0 0.0 0.0 
0.0 0.0 0.0 
0.0 0.0 0.0 
0.0 0.0 0.0 
0.0 0.0 0.0 
0.0 0.0 0.0 
0.0 0.0 0.0 
0.0 0.0 0.0 
0.0 0.0 0.0 
0.0 0.0 0.0 
0.0 0.0 0.0 
0.0 0.0 0.0 
0.0 0.0 0.0 
0.0 0.0 0.0 
0.0 0.0 0.0 
0.0 0.0 0.0 
0.0 0.0 0.0 
0.0 0.0 0.0 
0.0 0.0 0.0 
0.0 0.0 0.0 
0.0 0.0 0.0 
0.0 0.0 0.0 
0.0 0.0 0.0 
0.0 0.0 0.0 
0.0 0.0 0.0 
0.0 0.0 0.0 
0.0 0.0 0.0 
0.0 0.0 0.0 
0.0 0.0 0.0 
0.0 0.0 0.0 
0.0 0.0 0.0 
0.0 0.0 0.0 
0.0 0.0 0.0 
0.0 0.0 0.0 
0.0 0.0 0.0 
0.0 0.0 0.0 
0.0 0.0 0.0 
0.0 0.0 0.0 
0.0 0.0 0.0 
0.0 0.0 0.0 
0.0 0.0 0.0 
0.0 0.0 0.0 
0.0 0.0 0.0 
0.0 0.0 0.0 
0.0 0.0 0.0 
0.0 0.0 0.0 
0.0 0.0 0.0 
0.0 0.0 0.0 
0.0 0.0 0.0 
0.0 0.0 0.0 
0.0 0.0 0.0 
0.0 0.0 0.0 
0.0 0.0 0.0 
0.0 0.0 0.0 
0.0 0.0 0.0 
0.0 0.0 0.0 
0.0 0.0 0.0 
0.0 0.0 0.0 
0.0 0.0 0.0 
0.0 0.0 0.0 
0.0 0.0 0.0 
0.0 0.0 0.0 
0.0 0.0 0.0 
0.0 0.0 0.0 
0.0 0.0 0.0 
0.0 0.0 0.0 
0.0 0.0 0.0 
0.0 0.0 0.0 
0.0 0.0 0.0 
0.0 0.0 0.0 
0.0 0.0 0.0 
0.0 0.0 0.0 
0.0 0.0 0.0 
0.0 0.0 0.0 
0.0 0.0 0.0 
0.0 0.0 0.0 
0.0 0.0 0.0 
0.0 0.0 0.0 
0.0 0.0 0.0 
0.0 0.0 0.0 
0.0 0.0 0.0 
0.0 0.0 0.0 
0.0 0.0 0.0 
0.0 0.0 0.0 
0.0 0.0 0.0 
0.0 0.0 0.0 
0.0 0.0 0.0 
0.0 0.0 0.0 
0.0 0.0 0.0 
0.0 0.0 0.0 
0.0 0.0 0.0 
0.0 0.0 0.0 
0.0 0.0 0.0 
0.0 0.0 0.0 
0.0 0.0 0.0 
0.0 0.0 0.0 
0.0 0.0 0.0 
0.0 0.0 0.0 
0.0 0.0 0.0 
0.0 0.0 0.0 
0.0 0.0 0.0 
0.0 0.0 0.0 
0.0 0.0 0.0 
0.0 0.0 0.0 
0.0 0.0 0.0 
0.0 0.0 0.0 
0.0 0.0 0.0 
0.0 0.0 0.0 
0.0 0.0 0.0 
0.0 0.0 0.0 
0.0 0.0 0.0 
0.0 0.0 0.0 
0.0 0.0 0.0 
0.0 0.0 0.0 
0.0 0.0 0.0 
0.0 0.0 0.0 
0.0 0.0 0.0 
0.0 0.0 0.0 
0.0 0.0 0.0 
0.0 0.0 0.0 
0.0 0.0 0.0 
0.0 0.0 0.0 
0.0 0.0 0.0 
0.0 0.0 0.0 
0.0 0.0 0.0 
0.0 0.0 0.0 
0.0 0.0 0.0 
0.0 0.0 0.0 
0.0 0.0 0.0 
0.0 0.0 0.0 
0.0 0.0 0.0 
0.0 0.0 0.0 
0.0 0.0 0.0 
0.0 0.0 0.0 
0.0 0.0 0.0 
0.0 0.0 0.0 
0.0 0.0 0.0 
0.0 0.0 0.0 
0.0 0.0 0.0 
0.0 0.0 0.0 
0.0 0.0 0.0 
0.0 0.0 0.0 
0.0 0.0 0.0 
0.0 0.0 0.0 
0.0 0.0 0.0 
0.0 0.0 0.0 
0.0 0.0 0.0 
0.0 0.0 0.0 
0.0 0.0 0.0 
0.0 0.0 0.0 
0.0 0.0 0.0 
0.0 0.0 0.0 
0.0 0.0 0.0 
0.0 0.0 0.0 
0.0 0.0 0.0 
0.0 0.0 0.0 
0.0 0.0 0.0 
0.0 0.0 0.0 
0.0 0.0 0.0 
0.0 0.0 0.0 
0.0 0.0 0.0 
0.0 0.0 0.0 
0.0 0.0 0.0 
0.0 0.0 0.0 
0.0 0.0 0.0 
0.0 0.0 0.0 
0.0 0.0 0.0 
0.0 0.0 0.0 
0.0 0.0 0.0 
0.0 0.0 0.0 
0.0 0.0 0.0 
0.0 0.0 0.0 
0.0 0.0 0.0 
0.0 0.0 0.0 
0.0 0.0 0.0 
0.0 0.0 0.0 
0.0 0.0 0.0 
0.0 0.0 0.0 
0.0 0.0 0.0 
0.0 0.0 0.0 
0.0 0.0 0.0 
0.0 0.0 0.0 
0.0 0.0 0.0 
0.0 0.0 0.0 
0.0 0.0 0.0 
0.0 0.0 0.0 
0.0 0.0 0.0 
0.0 0.0 0.0 
0.0 0.0 0.0 
0.0 0.0 0.0 
0.0 0.0 0.0 
0.0 0.0 0.0 
0.0 0.0 0.0 
0.0 0.0 0.0 
0.0 0.0 0.0 
0.0 0.0 0.0 
0.0 0.0 0.0 
0.0 0.0 0.0 
0.0 0.0 0.0 
0.0 0.0 0.0 
0.0 0.0 0.0 
0.0 0.0 0.0 
0.0 0.0 0.0 
0.0 0.0 0.0 
0.0 0.0 0.0 
0.0 0.0 0.0 
0.0 0.0 0.0 
0.0 0.0 0.0 
0.0 0.0 0.0 
0.0 0.0 0.0 
0.0 0.0 0.0 
0.0 0.0 0.0 
0.0 0.0 0.0 
0.0 0.0 0.0 
0.0 0.0 0.0 
0.0 0.0 0.0 
0.0 0.0 0.0 
0.0 0.0 0.0 
0.0 0.0 0.0 
0.0 0.0 0.0 
0.0 0.0 0.0 
0.0 0.0 0.0 
0.0 0.0 0.0 
0.0 0.0 0.0 
0.0 0.0 0.0 
0.0 0.0 0.0 
0.0 0.0 0.0 
0.0 0.0 0.0 
0.0 0.0 0.0 
0.0 0.0 0.0 
0.0 0.0 0.0 
0.0 0.0 0.0 
0.0 0.0 0.0 
0.0 0.0 0.0 
0.0 0.0 0.0 
0.0 0.0 0.0 
0.0 0.0 0.0 
0.0 0.0 0.0 
0.0 0.0 0.0 
0.0 0.0 0.0 
0.0 0.0 0.0 
0.0 0.0 0.0 
0.0 0.0 0.0 
0.0 0.0 0.0 
0.0 0.0 0.0 
0.0 0.0 0.0 
0.0 0.0 0.0 
0.0 0.0 0.0 
0.0 0.0 0.0 
0.0 0.0 0.0 
0.0 0.0 0.0 
0.0 0.0 0.0 
0.0 0.0 0.0 
0.0 0.0 0.0 
0.0 0.0 0.0 
0.0 0.0 0.0 
0.0 0.0 0.0 
0.0 0.0 0.0 
0.0 0.0 0.0 
0.0 0.0 0.0 
0.0 0.0 0.0 
0.0 0.0 0.0 
0.0 0.0 0.0 
0.0 0.0 0.0 
0.0 0.0 0.0 
0.0 0.0 0.0 
0.0 0.0 0.0 
0.0 0.0 0.0 
0.0 0.0 0.0 
0.0 0.0 0.0 
0.0 0.0 0.0 
0.0 0.0 0.0 
0.0 0.0 0.0 
0.0 0.0 0.0 
0.0 0.0 0.0 
0.0 0.0 0.0 
0.0 0.0 0.0 
0.0 0.0 0.0 
0.0 0.0 0.0 
0.0 0.0 0.0 
0.0 0.0 0.0 
0.0 0.0 0.0 
0.0 0.0 0.0 
0.0 0.0 0.0 
0.0 0.0 0.0 
0.0 0.0 0.0 
0.0 0.0 0.0 
0.0 0.0 0.0 
0.0 0.0 0.0 
0.0 0.0 0.0 
0.0 0.0 0.0 
0.0 0.0 0.0 
0.0 0.0 0.0 
0.0 0.0 0.0 
0.0 0.0 0.0 
0.0 0.0 0.0 
0.0 0.0 0.0 
0.0 0.0 0.0 
0.0 0.0 0.0 
0.0 0.0 0.0 
0.0 0.0 0.0 
0.0 0.0 0.0 
0.0 0.0 0.0 
0.0 0.0 0.0 
0.0 0.0 0.0 
0.0 0.0 0.0 
0.0 0.0 0.0 
0.0 0.0 0.0 
0.0 0.0 0.0 
0.0 0.0 0.0 
0.0 0.0 0.0 

VECTORS node_bounda_dof_materi_velocity_y float
0.0 0.0 0.0 
0.0 0.0 0.0 
0.0 1.000000000000e+00 0.0 
0.0 1.000000000000e+00 0.0 
0.0 0.0 0.0 
0.0 0.0 0.0 
0.0 0.0 0.0 
0.0 0.0 0.0 
0.0 0.0 0.0 
0.0 0.0 0.0 
0.0 0.0 0.0 
0.0 0.0 0.0 
0.0 0.0 0.0 
0.0 0.0 0.0 
0.0 0.0 0.0 
0.0 0.0 0.0 
0.0 0.0 0.0 
0.0 0.0 0.0 
0.0 0.0 0.0 
0.0 0.0 0.0 
0.0 0.0 0.0 
0.0 0.0 0.0 
0.0 0.0 0.0 
0.0 1.000000000000e+00 0.0 
0.0 1.000000000000e+00 0.0 
0.0 1.000000000000e+00 0.0 
0.0 1.000000000000e+00 0.0 
0.0 1.000000000000e+00 0.0 
0.0 1.000000000000e+00 0.0 
0.0 1.000000000000e+00 0.0 
0.0 1.000000000000e+00 0.0 
0.0 1.000000000000e+00 0.0 
0.0 1.000000000000e+00 0.0 
0.0 1.000000000000e+00 0.0 
0.0 1.000000000000e+00 0.0 
0.0 1.000000000000e+00 0.0 
0.0 1.000000000000e+00 0.0 
0.0 1.000000000000e+00 0.0 
0.0 1.000000000000e+00 0.0 
0.0 1.000000000000e+00 0.0 
0.0 1.000000000000e+00 0.0 
0.0 1.000000000000e+00 0.0 
0.0 1.000000000000e+00 0.0 
0.0 1.000000000000e+00 0.0 
0.0 1.000000000000e+00 0.0 
0.0 1.000000000000e+00 0.0 
0.0 1.000000000000e+00 0.0 
0.0 1.000000000000e+00 0.0 
0.0 1.000000000000e+00 0.0 
0.0 1.000000000000e+00 0.0 
0.0 1.000000000000e+00 0.0 
0.0 1.000000000000e+00 0.0 
0.0 1.000000000000e+00 0.0 
0.0 1.000000000000e+00 0.0 
0.0 1.000000000000e+00 0.0 
0.0 1.000000000000e+00 0.0 
0.0 1.000000000000e+00 0.0 
0.0 1.000000000000e+00 0.0 
0.0 1.000000000000e+00 0.0 
0.0 1.000000000000e+00 0.0 
0.0 1.000000000000e+00 0.0 
0.0 1.000000000000e+00 0.0 
0.0 1.000000000000e+00 0.0 
0.0 1.000000000000e+00 0.0 
0.0 1.000000000000e+00 0.0 
0.0 1.000000000000e+00 0.0 
0.0 1.000000000000e+00 0.0 
0.0 1.000000000000e+00 0.0 
0.0 1.000000000000e+00 0.0 
0.0 1.000000000000e+00 0.0 
0.0 1.000000000000e+00 0.0 
0.0 1.000000000000e+00 0.0 
0.0 0.0 0.0 
0.0 0.0 0.0 
0.0 0.0 0.0 
0.0 0.0 0.0 
0.0 0.0 0.0 
0.0 0.0 0.0 
0.0 0.0 0.0 
0.0 0.0 0.0 
0.0 0.0 0.0 
0.0 0.0 0.0 
0.0 0.0 0.0 
0.0 0.0 0.0 
0.0 0.0 0.0 
0.0 0.0 0.0 
0.0 0.0 0.0 
0.0 0.0 0.0 
0.0 0.0 0.0 
0.0 0.0 0.0 
0.0 0.0 0.0 
0.0 0.0 0.0 
0.0 0.0 0.0 
0.0 0.0 0.0 
0.0 0.0 0.0 
0.0 0.0 0.0 
0.0 0.0 0.0 
0.0 0.0 0.0 
0.0 0.0 0.0 
0.0 0.0 0.0 
0.0 0.0 0.0 
0.0 0.0 0.0 
0.0 0.0 0.0 
0.0 0.0 0.0 
0.0 0.0 0.0 
0.0 0.0 0.0 
0.0 0.0 0.0 
0.0 0.0 0.0 
0.0 0.0 0.0 
0.0 0.0 0.0 
0.0 0.0 0.0 
0.0 0.0 0.0 
0.0 0.0 0.0 
0.0 0.0 0.0 
0.0 0.0 0.0 
0.0 0.0 0.0 
0.0 0.0 0.0 
0.0 0.0 0.0 
0.0 0.0 0.0 
0.0 0.0 0.0 
0.0 0.0 0.0 
0.0 0.0 0.0 
0.0 0.0 0.0 
0.0 0.0 0.0 
0.0 0.0 0.0 
0.0 0.0 0.0 
0.0 0.0 0.0 
0.0 0.0 0.0 
0.0 0.0 0.0 
0.0 0.0 0.0 
0.0 0.0 0.0 
0.0 0.0 0.0 
0.0 0.0 0.0 
0.0 0.0 0.0 
0.0 0.0 0.0 
0.0 0.0 0.0 
0.0 0.0 0.0 
0.0 0.0 0.0 
0.0 0.0 0.0 
0.0 0.0 0.0 
0.0 0.0 0.0 
0.0 0.0 0.0 
0.0 0.0 0.0 
0.0 0.0 0.0 
0.0 0.0 0.0 
0.0 0.0 0.0 
0.0 0.0 0.0 
0.0 0.0 0.0 
0.0 0.0 0.0 
0.0 0.0 0.0 
0.0 0.0 0.0 
0.0 0.0 0.0 
0.0 0.0 0.0 
0.0 0.0 0.0 
0.0 0.0 0.0 
0.0 0.0 0.0 
0.0 0.0 0.0 
0.0 0.0 0.0 
0.0 0.0 0.0 
0.0 0.0 0.0 
0.0 0.0 0.0 
0.0 0.0 0.0 
0.0 0.0 0.0 
0.0 0.0 0.0 
0.0 0.0 0.0 
0.0 0.0 0.0 
0.0 0.0 0.0 
0.0 0.0 0.0 
0.0 0.0 0.0 
0.0 0.0 0.0 
0.0 0.0 0.0 
0.0 0.0 0.0 
0.0 0.0 0.0 
0.0 0.0 0.0 
0.0 0.0 0.0 
0.0 0.0 0.0 
0.0 0.0 0.0 
0.0 0.0 0.0 
0.0 0.0 0.0 
0.0 0.0 0.0 
0.0 0.0 0.0 
0.0 0.0 0.0 
0.0 0.0 0.0 
0.0 0.0 0.0 
0.0 0.0 0.0 
0.0 0.0 0.0 
0.0 0.0 0.0 
0.0 0.0 0.0 
0.0 0.0 0.0 
0.0 0.0 0.0 
0.0 0.0 0.0 
0.0 0.0 0.0 
0.0 0.0 0.0 
0.0 0.0 0.0 
0.0 0.0 0.0 
0.0 0.0 0.0 
0.0 0.0 0.0 
0.0 0.0 0.0 
0.0 0.0 0.0 
0.0 0.0 0.0 
0.0 0.0 0.0 
0.0 0.0 0.0 
0.0 0.0 0.0 
0.0 0.0 0.0 
0.0 0.0 0.0 
0.0 0.0 0.0 
0.0 0.0 0.0 
0.0 0.0 0.0 
0.0 0.0 0.0 
0.0 0.0 0.0 
0.0 0.0 0.0 
0.0 0.0 0.0 
0.0 0.0 0.0 
0.0 0.0 0.0 
0.0 0.0 0.0 
0.0 0.0 0.0 
0.0 0.0 0.0 
0.0 0.0 0.0 
0.0 0.0 0.0 
0.0 0.0 0.0 
0.0 0.0 0.0 
0.0 0.0 0.0 
0.0 0.0 0.0 
0.0 0.0 0.0 
0.0 0.0 0.0 
0.0 0.0 0.0 
0.0 0.0 0.0 
0.0 0.0 0.0 
0.0 0.0 0.0 
0.0 0.0 0.0 
0.0 0.0 0.0 
0.0 0.0 0.0 
0.0 0.0 0.0 
0.0 0.0 0.0 
0.0 0.0 0.0 
0.0 0.0 0.0 
0.0 0.0 0.0 
0.0 0.0 0.0 
0.0 0.0 0.0 
0.0 0.0 0.0 
0.0 0.0 0.0 
0.0 0.0 0.0 
0.0 0.0 0.0 
0.0 0.0 0.0 
0.0 0.0 0.0 
0.0 0.0 0.0 
0.0 0.0 0.0 
0.0 0.0 0.0 
0.0 0.0 0.0 
0.0 0.0 0.0 
0.0 0.0 0.0 
0.0 0.0 0.0 
0.0 0.0 0.0 
0.0 0.0 0.0 
0.0 0.0 0.0 
0.0 0.0 0.0 
0.0 0.0 0.0 
0.0 0.0 0.0 
0.0 0.0 0.0 
0.0 0.0 0.0 
0.0 0.0 0.0 
0.0 0.0 0.0 
0.0 0.0 0.0 
0.0 0.0 0.0 
0.0 0.0 0.0 
0.0 0.0 0.0 
0.0 0.0 0.0 
0.0 0.0 0.0 
0.0 0.0 0.0 
0.0 0.0 0.0 
0.0 0.0 0.0 
0.0 0.0 0.0 
0.0 0.0 0.0 
0.0 0.0 0.0 
0.0 0.0 0.0 
0.0 0.0 0.0 
0.0 0.0 0.0 
0.0 0.0 0.0 
0.0 0.0 0.0 
0.0 0.0 0.0 
0.0 0.0 0.0 
0.0 0.0 0.0 
0.0 0.0 0.0 
0.0 0.0 0.0 
0.0 0.0 0.0 
0.0 0.0 0.0 
0.0 0.0 0.0 
0.0 0.0 0.0 
0.0 0.0 0.0 
0.0 0.0 0.0 
0.0 0.0 0.0 
0.0 0.0 0.0 
0.0 0.0 0.0 
0.0 0.0 0.0 
0.0 0.0 0.0 
0.0 0.0 0.0 
0.0 0.0 0.0 
0.0 0.0 0.0 
0.0 0.0 0.0 
0.0 0.0 0.0 
0.0 0.0 0.0 
0.0 0.0 0.0 
0.0 0.0 0.0 
0.0 0.0 0.0 
0.0 0.0 0.0 
0.0 0.0 0.0 
0.0 0.0 0.0 
0.0 0.0 0.0 
0.0 0.0 0.0 
0.0 0.0 0.0 
0.0 0.0 0.0 
0.0 0.0 0.0 
0.0 0.0 0.0 
0.0 0.0 0.0 
0.0 0.0 0.0 
0.0 0.0 0.0 
0.0 0.0 0.0 
0.0 0.0 0.0 
0.0 0.0 0.0 
0.0 0.0 0.0 
0.0 0.0 0.0 
0.0 0.0 0.0 
0.0 0.0 0.0 
0.0 0.0 0.0 
0.0 0.0 0.0 
0.0 0.0 0.0 
0.0 0.0 0.0 
0.0 0.0 0.0 
0.0 0.0 0.0 
0.0 0.0 0.0 
0.0 0.0 0.0 
0.0 0.0 0.0 
0.0 0.0 0.0 
0.0 0.0 0.0 
0.0 0.0 0.0 
0.0 0.0 0.0 
0.0 0.0 0.0 
0.0 0.0 0.0 
0.0 0.0 0.0 
0.0 0.0 0.0 
0.0 0.0 0.0 
0.0 0.0 0.0 
0.0 0.0 0.0 
0.0 0.0 0.0 
0.0 0.0 0.0 
0.0 0.0 0.0 
0.0 0.0 0.0 
0.0 0.0 0.0 
0.0 0.0 0.0 
0.0 0.0 0.0 
0.0 0.0 0.0 
0.0 0.0 0.0 
0.0 0.0 0.0 
0.0 0.0 0.0 
0.0 0.0 0.0 
0.0 0.0 0.0 
0.0 0.0 0.0 
0.0 0.0 0.0 
0.0 0.0 0.0 
0.0 0.0 0.0 
0.0 0.0 0.0 
0.0 0.0 0.0 
0.0 0.0 0.0 
0.0 0.0 0.0 
0.0 0.0 0.0 
0.0 0.0 0.0 
0.0 0.0 0.0 
0.0 0.0 0.0 
0.0 0.0 0.0 
0.0 0.0 0.0 
0.0 0.0 0.0 
0.0 0.0 0.0 
0.0 0.0 0.0 
0.0 0.0 0.0 
0.0 0.0 0.0 
0.0 0.0 0.0 
0.0 0.0 0.0 
0.0 0.0 0.0 
0.0 0.0 0.0 
0.0 0.0 0.0 
0.0 0.0 0.0 
0.0 0.0 0.0 
0.0 0.0 0.0 
0.0 0.0 0.0 
0.0 0.0 0.0 
0.0 0.0 0.0 
0.0 0.0 0.0 
0.0 0.0 0.0 
0.0 0.0 0.0 
0.0 0.0 0.0 
0.0 0.0 0.0 
0.0 0.0 0.0 
0.0 0.0 0.0 
0.0 0.0 0.0 
0.0 0.0 0.0 
0.0 0.0 0.0 
0.0 0.0 0.0 
0.0 0.0 0.0 
0.0 0.0 0.0 
0.0 0.0 0.0 
0.0 0.0 0.0 
0.0 0.0 0.0 
0.0 0.0 0.0 
0.0 0.0 0.0 
0.0 0.0 0.0 
0.0 0.0 0.0 
0.0 0.0 0.0 
0.0 0.0 0.0 
0.0 0.0 0.0 
0.0 0.0 0.0 
0.0 0.0 0.0 
0.0 0.0 0.0 
0.0 0.0 0.0 
0.0 0.0 0.0 
0.0 0.0 0.0 
0.0 0.0 0.0 
0.0 0.0 0.0 
0.0 0.0 0.0 
0.0 0.0 0.0 
0.0 0.0 0.0 
0.0 0.0 0.0 
0.0 0.0 0.0 
0.0 0.0 0.0 
0.0 0.0 0.0 
0.0 0.0 0.0 
0.0 0.0 0.0 
0.0 0.0 0.0 
0.0 0.0 0.0 
0.0 0.0 0.0 
0.0 0.0 0.0 
0.0 0.0 0.0 
0.0 0.0 0.0 
0.0 0.0 0.0 
0.0 0.0 0.0 
0.0 0.0 0.0 
0.0 0.0 0.0 
0.0 0.0 0.0 
0.0 0.0 0.0 
0.0 0.0 0.0 
0.0 0.0 0.0 
0.0 0.0 0.0 
0.0 0.0 0.0 
0.0 0.0 0.0 
0.0 0.0 0.0 
0.0 0.0 0.0 
0.0 0.0 0.0 
0.0 0.0 0.0 
0.0 0.0 0.0 
0.0 0.0 0.0 
0.0 0.0 0.0 
0.0 0.0 0.0 
0.0 0.0 0.0 
0.0 0.0 0.0 
0.0 0.0 0.0 
0.0 0.0 0.0 
0.0 0.0 0.0 
0.0 0.0 0.0 
0.0 0.0 0.0 
0.0 0.0 0.0 
0.0 0.0 0.0 
0.0 0.0 0.0 
0.0 0.0 0.0 
0.0 0.0 0.0 
0.0 0.0 0.0 
0.0 0.0 0.0 
0.0 0.0 0.0 
0.0 0.0 0.0 
0.0 0.0 0.0 
0.0 0.0 0.0 
0.0 0.0 0.0 
0.0 0.0 0.0 
0.0 0.0 0.0 
0.0 0.0 0.0 
0.0 0.0 0.0 
0.0 0.0 0.0 
0.0 0.0 0.0 
0.0 0.0 0.0 
0.0 0.0 0.0 
0.0 0.0 0.0 
0.0 0.0 0.0 
0.0 0.0 0.0 
0.0 0.0 0.0 
0.0 0.0 0.0 
0.0 0.0 0.0 
0.0 0.0 0.0 
0.0 0.0 0.0 
0.0 0.0 0.0 
0.0 0.0 0.0 
0.0 0.0 0.0 
0.0 0.0 0.0 
0.0 0.0 0.0 
0.0 0.0 0.0 
0.0 0.0 0.0 
0.0 0.0 0.0 
0.0 0.0 0.0 
0.0 0.0 0.0 
0.0 0.0 0.0 
0.0 0.0 0.0 
0.0 0.0 0.0 
0.0 0.0 0.0 
0.0 0.0 0.0 
0.0 0.0 0.0 
0.0 0.0 0.0 
0.0 0.0 0.0 
0.0 0.0 0.0 
0.0 0.0 0.0 
0.0 0.0 0.0 
0.0 0.0 0.0 
0.0 0.0 0.0 
0.0 0.0 0.0 
0.0 0.0 0.0 
0.0 0.0 0.0 
0.0 0.0 0.0 
0.0 0.0 0.0 
0.0 0.0 0.0 
0.0 0.0 0.0 
0.0 0.0 0.0 
0.0 0.0 0.0 
0.0 0.0 0.0 
0.0 0.0 0.0 
0.0 0.0 0.0 
0.0 0.0 0.0 
0.0 0.0 0.0 
0.0 0.0 0.0 
0.0 0.0 0.0 
0.0 0.0 0.0 
0.0 0.0 0.0 
0.0 0.0 0.0 
0.0 0.0 0.0 
0.0 0.0 0.0 
0.0 0.0 0.0 
0.0 0.0 0.0 
0.0 0.0 0.0 
0.0 0.0 0.0 
0.0 0.0 0.0 
0.0 0.0 0.0 
0.0 0.0 0.0 
0.0 0.0 0.0 
0.0 0.0 0.0 
0.0 0.0 0.0 
0.0 0.0 0.0 
0.0 0.0 0.0 
0.0 0.0 0.0 
0.0 0.0 0.0 
0.0 0.0 0.0 
0.0 0.0 0.0 
0.0 0.0 0.0 
0.0 0.0 0.0 
0.0 0.0 0.0 
0.0 0.0 0.0 
0.0 0.0 0.0 
0.0 0.0 0.0 
0.0 0.0 0.0 
0.0 0.0 0.0 
0.0 0.0 0.0 
0.0 0.0 0.0 
0.0 0.0 0.0 
0.0 0.0 0.0 
0.0 0.0 0.0 
0.0 0.0 0.0 
0.0 0.0 0.0 
0.0 0.0 0.0 
0.0 0.0 0.0 
0.0 0.0 0.0 
0.0 0.0 0.0 
0.0 0.0 0.0 
0.0 0.0 0.0 
0.0 0.0 0.0 
0.0 0.0 0.0 
0.0 0.0 0.0 
0.0 0.0 0.0 
0.0 0.0 0.0 
0.0 0.0 0.0 
0.0 0.0 0.0 
0.0 0.0 0.0 
0.0 0.0 0.0 
0.0 0.0 0.0 
0.0 0.0 0.0 
0.0 0.0 0.0 
0.0 0.0 0.0 
0.0 0.0 0.0 
0.0 0.0 0.0 
0.0 0.0 0.0 
0.0 0.0 0.0 
0.0 0.0 0.0 
0.0 0.0 0.0 
0.0 0.0 0.0 
0.0 0.0 0.0 
0.0 0.0 0.0 
0.0 0.0 0.0 
0.0 0.0 0.0 
0.0 0.0 0.0 
0.0 0.0 0.0 
0.0 0.0 0.0 
0.0 0.0 0.0 
0.0 0.0 0.0 
0.0 0.0 0.0 
0.0 0.0 0.0 
0.0 0.0 0.0 
0.0 0.0 0.0 
0.0 0.0 0.0 
0.0 0.0 0.0 
0.0 0.0 0.0 
0.0 0.0 0.0 
0.0 0.0 0.0 
0.0 0.0 0.0 
0.0 0.0 0.0 
0.0 0.0 0.0 
0.0 0.0 0.0 
0.0 0.0 0.0 
0.0 0.0 0.0 
0.0 0.0 0.0 
0.0 0.0 0.0 
0.0 0.0 0.0 
0.0 0.0 0.0 
0.0 0.0 0.0 
0.0 0.0 0.0 
0.0 0.0 0.0 
0.0 0.0 0.0 
0.0 0.0 0.0 
0.0 0.0 0.0 
0.0 0.0 0.0 
0.0 0.0 0.0 
0.0 0.0 0.0 
0.0 0.0 0.0 
0.0 0.0 0.0 
0.0 0.0 0.0 
0.0 0.0 0.0 
0.0 0.0 0.0 
0.0 0.0 0.0 
0.0 0.0 0.0 
0.0 0.0 0.0 
0.0 0.0 0.0 
0.0 0.0 0.0 
0.0 0.0 0.0 
0.0 0.0 0.0 
0.0 0.0 0.0 
0.0 0.0 0.0 
0.0 0.0 0.0 
0.0 0.0 0.0 
0.0 0.0 0.0 
0.0 0.0 0.0 
0.0 0.0 0.0 
0.0 0.0 0.0 
0.0 0.0 0.0 
0.0 0.0 0.0 
0.0 0.0 0.0 
0.0 0.0 0.0 
0.0 0.0 0.0 
0.0 0.0 0.0 
0.0 0.0 0.0 
0.0 0.0 0.0 
0.0 0.0 0.0 
0.0 0.0 0.0 
0.0 0.0 0.0 
0.0 0.0 0.0 
0.0 0.0 0.0 
0.0 0.0 0.0 
0.0 0.0 0.0 
0.0 0.0 0.0 
0.0 0.0 0.0 
0.0 0.0 0.0 
0.0 0.0 0.0 
0.0 0.0 0.0 
0.0 0.0 0.0 
0.0 0.0 0.0 
0.0 0.0 0.0 
0.0 0.0 0.0 
0.0 0.0 0.0 
0.0 0.0 0.0 
0.0 0.0 0.0 
0.0 0.0 0.0 
0.0 0.0 0.0 
0.0 0.0 0.0 
0.0 0.0 0.0 
0.0 0.0 0.0 
0.0 0.0 0.0 
0.0 0.0 0.0 
0.0 0.0 0.0 
0.0 0.0 0.0 
0.0 0.0 0.0 
0.0 0.0 0.0 
0.0 0.0 0.0 
0.0 0.0 0.0 
0.0 0.0 0.0 
0.0 0.0 0.0 
0.0 0.0 0.0 
0.0 0.0 0.0 
0.0 0.0 0.0 
0.0 0.0 0.0 
0.0 0.0 0.0 
0.0 0.0 0.0 
0.0 0.0 0.0 
0.0 0.0 0.0 
0.0 0.0 0.0 
0.0 0.0 0.0 
0.0 0.0 0.0 
0.0 0.0 0.0 
0.0 0.0 0.0 
0.0 0.0 0.0 
0.0 0.0 0.0 
0.0 0.0 0.0 
0.0 0.0 0.0 
0.0 0.0 0.0 
0.0 0.0 0.0 
0.0 0.0 0.0 
0.0 0.0 0.0 
0.0 0.0 0.0 
0.0 0.0 0.0 
0.0 0.0 0.0 
0.0 0.0 0.0 
0.0 0.0 0.0 
0.0 0.0 0.0 
0.0 0.0 0.0 
0.0 0.0 0.0 
0.0 0.0 0.0 
0.0 0.0 0.0 
0.0 0.0 0.0 
0.0 0.0 0.0 
0.0 0.0 0.0 
0.0 0.0 0.0 
0.0 0.0 0.0 
0.0 0.0 0.0 
0.0 0.0 0.0 
0.0 0.0 0.0 
0.0 0.0 0.0 
0.0 0.0 0.0 
0.0 0.0 0.0 
0.0 0.0 0.0 
0.0 0.0 0.0 
0.0 0.0 0.0 
0.0 0.0 0.0 
0.0 0.0 0.0 
0.0 0.0 0.0 
0.0 0.0 0.0 
0.0 0.0 0.0 
0.0 0.0 0.0 
0.0 0.0 0.0 
0.0 0.0 0.0 
0.0 0.0 0.0 
0.0 0.0 0.0 
0.0 0.0 0.0 
0.0 0.0 0.0 
0.0 0.0 0.0 
0.0 0.0 0.0 
0.0 0.0 0.0 
0.0 0.0 0.0 
0.0 0.0 0.0 
0.0 0.0 0.0 
0.0 0.0 0.0 
0.0 0.0 0.0 
0.0 0.0 0.0 
0.0 0.0 0.0 
0.0 0.0 0.0 
0.0 0.0 0.0 
0.0 0.0 0.0 
0.0 0.0 0.0 
0.0 0.0 0.0 
0.0 0.0 0.0 
0.0 0.0 0.0 
0.0 0.0 0.0 
0.0 0.0 0.0 
0.0 0.0 0.0 
0.0 0.0 0.0 
0.0 0.0 0.0 
0.0 0.0 0.0 
0.0 0.0 0.0 
0.0 0.0 0.0 
0.0 0.0 0.0 
0.0 0.0 0.0 
0.0 0.0 0.0 
0.0 0.0 0.0 
0.0 0.0 0.0 
0.0 0.0 0.0 
0.0 0.0 0.0 
0.0 0.0 0.0 
0.0 0.0 0.0 
0.0 0.0 0.0 
0.0 0.0 0.0 
0.0 0.0 0.0 
0.0 0.0 0.0 
0.0 0.0 0.0 
0.0 0.0 0.0 
0.0 0.0 0.0 
0.0 0.0 0.0 
0.0 0.0 0.0 
0.0 0.0 0.0 
0.0 0.0 0.0 
0.0 0.0 0.0 
0.0 0.0 0.0 
0.0 0.0 0.0 
0.0 0.0 0.0 
0.0 0.0 0.0 
0.0 0.0 0.0 
0.0 0.0 0.0 
0.0 0.0 0.0 
0.0 0.0 0.0 
0.0 0.0 0.0 
0.0 0.0 0.0 
0.0 0.0 0.0 
0.0 0.0 0.0 
0.0 0.0 0.0 
0.0 0.0 0.0 
0.0 0.0 0.0 
0.0 0.0 0.0 
0.0 0.0 0.0 
0.0 0.0 0.0 
0.0 0.0 0.0 
0.0 0.0 0.0 
0.0 0.0 0.0 
0.0 0.0 0.0 
0.0 0.0 0.0 
0.0 0.0 0.0 
0.0 0.0 0.0 
0.0 0.0 0.0 
0.0 0.0 0.0 
0.0 0.0 0.0 
0.0 0.0 0.0 
0.0 0.0 0.0 
0.0 0.0 0.0 
0.0 0.0 0.0 
0.0 0.0 0.0 
0.0 0.0 0.0 
0.0 0.0 0.0 
0.0 0.0 0.0 
0.0 0.0 0.0 
0.0 0.0 0.0 
0.0 0.0 0.0 
0.0 0.0 0.0 
0.0 0.0 0.0 
0.0 0.0 0.0 
0.0 0.0 0.0 
0.0 0.0 0.0 
0.0 0.0 0.0 
0.0 0.0 0.0 
0.0 0.0 0.0 
0.0 0.0 0.0 
0.0 0.0 0.0 
0.0 0.0 0.0 
0.0 0.0 0.0 
0.0 0.0 0.0 
0.0 0.0 0.0 
0.0 0.0 0.0 
0.0 0.0 0.0 
0.0 0.0 0.0 
0.0 0.0 0.0 
0.0 0.0 0.0 
0.0 0.0 0.0 
0.0 0.0 0.0 
0.0 0.0 0.0 
0.0 0.0 0.0 
0.0 0.0 0.0 
0.0 0.0 0.0 
0.0 0.0 0.0 
0.0 0.0 0.0 
0.0 0.0 0.0 
0.0 0.0 0.0 
0.0 0.0 0.0 
0.0 0.0 0.0 
0.0 0.0 0.0 
0.0 0.0 0.0 
0.0 0.0 0.0 
0.0 0.0 0.0 
0.0 0.0 0.0 
0.0 0.0 0.0 
0.0 0.0 0.0 
0.0 0.0 0.0 
0.0 0.0 0.0 
0.0 0.0 0.0 
0.0 0.0 0.0 
0.0 0.0 0.0 
0.0 0.0 0.0 
0.0 0.0 0.0 
0.0 0.0 0.0 
0.0 0.0 0.0 
0.0 0.0 0.0 
0.0 0.0 0.0 
0.0 0.0 0.0 
0.0 0.0 0.0 
0.0 0.0 0.0 
0.0 0.0 0.0 
0.0 0.0 0.0 
0.0 0.0 0.0 
0.0 0.0 0.0 
0.0 0.0 0.0 
0.0 0.0 0.0 
0.0 0.0 0.0 
0.0 0.0 0.0 
0.0 0.0 0.0 
0.0 0.0 0.0 
0.0 0.0 0.0 
0.0 0.0 0.0 
0.0 0.0 0.0 
0.0 0.0 0.0 
0.0 0.0 0.0 
0.0 0.0 0.0 
0.0 0.0 0.0 
0.0 0.0 0.0 
0.0 0.0 0.0 
0.0 0.0 0.0 
0.0 0.0 0.0 
0.0 0.0 0.0 
0.0 0.0 0.0 
0.0 0.0 0.0 
0.0 0.0 0.0 
0.0 0.0 0.0 
0.0 0.0 0.0 
0.0 0.0 0.0 
0.0 0.0 0.0 
0.0 0.0 0.0 
0.0 0.0 0.0 
0.0 0.0 0.0 
0.0 0.0 0.0 
0.0 0.0 0.0 
0.0 0.0 0.0 
0.0 0.0 0.0 
0.0 0.0 0.0 
0.0 0.0 0.0 
0.0 0.0 0.0 
0.0 0.0 0.0 
0.0 0.0 0.0 
0.0 0.0 0.0 
0.0 0.0 0.0 
0.0 0.0 0.0 
0.0 0.0 0.0 
0.0 0.0 0.0 
0.0 0.0 0.0 
0.0 0.0 0.0 
0.0 0.0 0.0 
0.0 0.0 0.0 
0.0 0.0 0.0 
0.0 0.0 0.0 
0.0 0.0 0.0 
0.0 0.0 0.0 
0.0 0.0 0.0 
0.0 0.0 0.0 
0.0 0.0 0.0 
0.0 0.0 0.0 
0.0 0.0 0.0 
0.0 0.0 0.0 
0.0 0.0 0.0 
0.0 0.0 0.0 
0.0 0.0 0.0 
0.0 0.0 0.0 
0.0 0.0 0.0 
0.0 0.0 0.0 
0.0 0.0 0.0 
0.0 0.0 0.0 
0.0 0.0 0.0 
0.0 0.0 0.0 
0.0 0.0 0.0 
0.0 0.0 0.0 
0.0 0.0 0.0 
0.0 0.0 0.0 
0.0 0.0 0.0 
0.0 0.0 0.0 
0.0 0.0 0.0 
0.0 0.0 0.0 
0.0 0.0 0.0 
0.0 0.0 0.0 
0.0 0.0 0.0 
0.0 0.0 0.0 
0.0 0.0 0.0 
0.0 0.0 0.0 
0.0 0.0 0.0 
0.0 0.0 0.0 
0.0 0.0 0.0 
0.0 0.0 0.0 
0.0 0.0 0.0 
0.0 0.0 0.0 
0.0 0.0 0.0 
0.0 0.0 0.0 
0.0 0.0 0.0 
0.0 0.0 0.0 
0.0 0.0 0.0 
0.0 0.0 0.0 
0.0 0.0 0.0 
0.0 0.0 0.0 
0.0 0.0 0.0 
0.0 0.0 0.0 
0.0 0.0 0.0 
0.0 0.0 0.0 
0.0 0.0 0.0 
0.0 0.0 0.0 
0.0 0.0 0.0 
0.0 0.0 0.0 
0.0 0.0 0.0 
0.0 0.0 0.0 
0.0 0.0 0.0 
0.0 0.0 0.0 
0.0 0.0 0.0 
0.0 0.0 0.0 
0.0 0.0 0.0 
0.0 0.0 0.0 
0.0 0.0 0.0 
0.0 0.0 0.0 
0.0 0.0 0.0 
0.0 0.0 0.0 
0.0 0.0 0.0 
0.0 0.0 0.0 
0.0 0.0 0.0 
0.0 0.0 0.0 
0.0 0.0 0.0 
0.0 0.0 0.0 
0.0 0.0 0.0 
0.0 0.0 0.0 
0.0 0.0 0.0 
0.0 0.0 0.0 
0.0 0.0 0.0 
0.0 0.0 0.0 
0.0 0.0 0.0 
0.0 0.0 0.0 
0.0 0.0 0.0 
0.0 0.0 0.0 
0.0 0.0 0.0 
0.0 0.0 0.0 
0.0 0.0 0.0 
0.0 0.0 0.0 
0.0 0.0 0.0 
0.0 0.0 0.0 
0.0 0.0 0.0 
0.0 0.0 0.0 
0.0 0.0 0.0 
0.0 0.0 0.0 
0.0 0.0 0.0 
0.0 0.0 0.0 
0.0 0.0 0.0 
0.0 0.0 0.0 
0.0 0.0 0.0 
0.0 0.0 0.0 
0.0 0.0 0.0 
0.0 0.0 0.0 
0.0 0.0 0.0 
0.0 0.0 0.0 
0.0 0.0 0.0 
0.0 0.0 0.0 
0.0 0.0 0.0 
0.0 0.0 0.0 
0.0 0.0 0.0 
0.0 0.0 0.0 
0.0 0.0 0.0 
0.0 0.0 0.0 
0.0 0.0 0.0 
0.0 0.0 0.0 
0.0 0.0 0.0 
0.0 0.0 0.0 
0.0 0.0 0.0 
0.0 0.0 0.0 
0.0 0.0 0.0 
0.0 0.0 0.0 
0.0 0.0 0.0 
0.0 0.0 0.0 
0.0 0.0 0.0 
0.0 0.0 0.0 
0.0 0.0 0.0 
0.0 0.0 0.0 
0.0 0.0 0.0 
0.0 0.0 0.0 
0.0 0.0 0.0 
0.0 0.0 0.0 
0.0 0.0 0.0 
0.0 0.0 0.0 
0.0 0.0 0.0 
0.0 0.0 0.0 
0.0 0.0 0.0 
0.0 0.0 0.0 
0.0 0.0 0.0 
0.0 0.0 0.0 
0.0 0.0 0.0 
0.0 0.0 0.0 
0.0 0.0 0.0 
0.0 0.0 0.0 
0.0 0.0 0.0 
0.0 0.0 0.0 
0.0 0.0 0.0 
0.0 0.0 0.0 
0.0 0.0 0.0 
0.0 0.0 0.0 
0.0 0.0 0.0 
0.0 0.0 0.0 
0.0 0.0 0.0 
0.0 0.0 0.0 
0.0 0.0 0.0 
0.0 0.0 0.0 
0.0 0.0 0.0 
0.0 0.0 0.0 
0.0 0.0 0.0 
0.0 0.0 0.0 
0.0 0.0 0.0 
0.0 0.0 0.0 
0.0 0.0 0.0 
0.0 0.0 0.0 
0.0 0.0 0.0 
0.0 0.0 0.0 
0.0 0.0 0.0 
0.0 0.0 0.0 
0.0 0.0 0.0 
0.0 0.0 0.0 
0.0 0.0 0.0 
0.0 0.0 0.0 
0.0 0.0 0.0 
0.0 0.0 0.0 
0.0 0.0 0.0 
0.0 0.0 0.0 
0.0 0.0 0.0 
0.0 0.0 0.0 
0.0 0.0 0.0 
0.0 0.0 0.0 
0.0 0.0 0.0 
0.0 0.0 0.0 
0.0 0.0 0.0 
0.0 0.0 0.0 
0.0 0.0 0.0 
0.0 0.0 0.0 
0.0 0.0 0.0 
0.0 0.0 0.0 
0.0 0.0 0.0 
0.0 0.0 0.0 
0.0 0.0 0.0 
0.0 0.0 0.0 
0.0 0.0 0.0 
0.0 0.0 0.0 
0.0 0.0 0.0 
0.0 0.0 0.0 
0.0 0.0 0.0 
0.0 0.0 0.0 
0.0 0.0 0.0 
0.0 0.0 0.0 
0.0 0.0 0.0 
0.0 0.0 0.0 
0.0 0.0 0.0 
0.0 0.0 0.0 
0.0 0.0 0.0 
0.0 0.0 0.0 
0.0 0.0 0.0 
0.0 0.0 0.0 
0.0 0.0 0.0 
0.0 0.0 0.0 
0.0 0.0 0.0 
0.0 0.0 0.0 
0.0 0.0 0.0 
0.0 0.0 0.0 
0.0 0.0 0.0 
0.0 0.0 0.0 
0.0 0.0 0.0 
0.0 0.0 0.0 
0.0 0.0 0.0 
0.0 0.0 0.0 
0.0 0.0 0.0 
0.0 0.0 0.0 
0.0 0.0 0.0 
0.0 0.0 0.0 
0.0 0.0 0.0 
0.0 0.0 0.0 
0.0 0.0 0.0 
0.0 0.0 0.0 
0.0 0.0 0.0 
0.0 0.0 0.0 
0.0 0.0 0.0 
0.0 0.0 0.0 
0.0 0.0 0.0 
0.0 0.0 0.0 
0.0 0.0 0.0 
0.0 0.0 0.0 
0.0 0.0 0.0 
0.0 0.0 0.0 
0.0 0.0 0.0 
0.0 0.0 0.0 
0.0 0.0 0.0 
0.0 0.0 0.0 
0.0 0.0 0.0 
0.0 0.0 0.0 
0.0 0.0 0.0 
0.0 0.0 0.0 
0.0 0.0 0.0 
0.0 0.0 0.0 
0.0 0.0 0.0 
0.0 0.0 0.0 
0.0 0.0 0.0 
0.0 0.0 0.0 
0.0 0.0 0.0 
0.0 0.0 0.0 
0.0 0.0 0.0 
0.0 0.0 0.0 
0.0 0.0 0.0 
0.0 0.0 0.0 
0.0 0.0 0.0 
0.0 0.0 0.0 
0.0 0.0 0.0 
0.0 0.0 0.0 
0.0 0.0 0.0 
0.0 0.0 0.0 
0.0 0.0 0.0 
0.0 0.0 0.0 
0.0 0.0 0.0 
0.0 0.0 0.0 
0.0 0.0 0.0 
0.0 0.0 0.0 
0.0 0.0 0.0 
0.0 0.0 0.0 
0.0 0.0 0.0 
0.0 0.0 0.0 
0.0 0.0 0.0 
0.0 0.0 0.0 
0.0 0.0 0.0 
0.0 0.0 0.0 
0.0 0.0 0.0 
0.0 0.0 0.0 
0.0 0.0 0.0 
0.0 0.0 0.0 
0.0 0.0 0.0 
0.0 0.0 0.0 
0.0 0.0 0.0 
0.0 0.0 0.0 
0.0 0.0 0.0 
0.0 0.0 0.0 
0.0 0.0 0.0 
0.0 0.0 0.0 
0.0 0.0 0.0 
0.0 0.0 0.0 
0.0 0.0 0.0 
0.0 0.0 0.0 
0.0 0.0 0.0 
0.0 0.0 0.0 
0.0 0.0 0.0 
0.0 0.0 0.0 
0.0 0.0 0.0 
0.0 0.0 0.0 
0.0 0.0 0.0 
0.0 0.0 0.0 
0.0 0.0 0.0 
0.0 0.0 0.0 
0.0 0.0 0.0 
0.0 0.0 0.0 
0.0 0.0 0.0 
0.0 0.0 0.0 
0.0 0.0 0.0 
0.0 0.0 0.0 
0.0 0.0 0.0 
0.0 0.0 0.0 
0.0 0.0 0.0 
0.0 0.0 0.0 
0.0 0.0 0.0 
0.0 0.0 0.0 
0.0 0.0 0.0 
0.0 0.0 0.0 
0.0 0.0 0.0 
0.0 0.0 0.0 
0.0 0.0 0.0 
0.0 0.0 0.0 
0.0 0.0 0.0 
0.0 0.0 0.0 
0.0 0.0 0.0 
0.0 0.0 0.0 
0.0 0.0 0.0 
0.0 0.0 0.0 
0.0 0.0 0.0 
0.0 0.0 0.0 
0.0 0.0 0.0 
0.0 0.0 0.0 
0.0 0.0 0.0 
0.0 0.0 0.0 
0.0 0.0 0.0 
0.0 0.0 0.0 
0.0 0.0 0.0 
0.0 0.0 0.0 
0.0 0.0 0.0 
0.0 0.0 0.0 
0.0 0.0 0.0 
0.0 0.0 0.0 
0.0 0.0 0.0 
0.0 0.0 0.0 
0.0 0.0 0.0 
0.0 0.0 0.0 
0.0 0.0 0.0 
0.0 0.0 0.0 
0.0 0.0 0.0 
0.0 0.0 0.0 
0.0 0.0 0.0 
0.0 0.0 0.0 
0.0 0.0 0.0 
0.0 0.0 0.0 
0.0 0.0 0.0 

SCALARS node_boundary float
LOOKUP_TABLE default
1.000000000000e+00 
1.000000000000e+00 
1.000000000000e+00 
1.000000000000e+00 
1.000000000000e+00 
1.000000000000e+00 
1.000000000000e+00 
1.000000000000e+00 
1.000000000000e+00 
1.000000000000e+00 
1.000000000000e+00 
1.000000000000e+00 
1.000000000000e+00 
1.000000000000e+00 
1.000000000000e+00 
1.000000000000e+00 
1.000000000000e+00 
1.000000000000e+00 
1.000000000000e+00 
1.000000000000e+00 
1.000000000000e+00 
1.000000000000e+00 
1.000000000000e+00 
1.000000000000e+00 
1.000000000000e+00 
1.000000000000e+00 
1.000000000000e+00 
1.000000000000e+00 
1.000000000000e+00 
1.000000000000e+00 
1.000000000000e+00 
1.000000000000e+00 
1.000000000000e+00 
1.000000000000e+00 
1.000000000000e+00 
1.000000000000e+00 
1.000000000000e+00 
1.000000000000e+00 
1.000000000000e+00 
1.000000000000e+00 
1.000000000000e+00 
1.000000000000e+00 
1.000000000000e+00 
1.000000000000e+00 
1.000000000000e+00 
1.000000000000e+00 
1.000000000000e+00 
1.000000000000e+00 
1.000000000000e+00 
1.000000000000e+00 
1.000000000000e+00 
1.000000000000e+00 
1.000000000000e+00 
1.000000000000e+00 
1.000000000000e+00 
1.000000000000e+00 
1.000000000000e+00 
1.000000000000e+00 
1.000000000000e+00 
1.000000000000e+00 
1.000000000000e+00 
1.000000000000e+00 
1.000000000000e+00 
1.000000000000e+00 
1.000000000000e+00 
1.000000000000e+00 
1.000000000000e+00 
1.000000000000e+00 
1.000000000000e+00 
1.000000000000e+00 
1.000000000000e+00 
1.000000000000e+00 
1.000000000000e+00 
1.000000000000e+00 
1.000000000000e+00 
1.000000000000e+00 
1.000000000000e+00 
1.000000000000e+00 
1.000000000000e+00 
1.000000000000e+00 
1.000000000000e+00 
1.000000000000e+00 
1.000000000000e+00 
0.0
0.0
0.0
0.0
0.0
0.0
0.0
0.0
0.0
0.0
1.000000000000e+00 
1.000000000000e+00 
1.000000000000e+00 
1.000000000000e+00 
1.000000000000e+00 
1.000000000000e+00 
1.000000000000e+00 
1.000000000000e+00 
1.000000000000e+00 
0.0
0.0
0.0
0.0
0.0
0.0
0.0
0.0
0.0
0.0
0.0
0.0
0.0
0.0
1.000000000000e+00 
1.000000000000e+00 
1.000000000000e+00 
1.000000000000e+00 
1.000000000000e+00 
1.000000000000e+00 
1.000000000000e+00 
1.000000000000e+00 
1.000000000000e+00 
1.000000000000e+00 
1.000000000000e+00 
1.000000000000e+00 
1.000000000000e+00 
1.000000000000e+00 
1.000000000000e+00 
1.000000000000e+00 
1.000000000000e+00 
1.000000000000e+00 
1.000000000000e+00 
1.000000000000e+00 
1.000000000000e+00 
1.000000000000e+00 
1.000000000000e+00 
1.000000000000e+00 
1.000000000000e+00 
1.000000000000e+00 
1.000000000000e+00 
1.000000000000e+00 
1.000000000000e+00 
1.000000000000e+00 
1.000000000000e+00 
1.000000000000e+00 
1.000000000000e+00 
1.000000000000e+00 
1.000000000000e+00 
1.000000000000e+00 
1.000000000000e+00 
1.000000000000e+00 
1.000000000000e+00 
1.000000000000e+00 
1.000000000000e+00 
1.000000000000e+00 
1.000000000000e+00 
1.000000000000e+00 
1.000000000000e+00 
1.000000000000e+00 
1.000000000000e+00 
1.000000000000e+00 
0.0
0.0
0.0
0.0
0.0
0.0
0.0
0.0
0.0
0.0
0.0
0.0
0.0
0.0
0.0
0.0
0.0
0.0
0.0
0.0
0.0
0.0
0.0
0.0
0.0
0.0
0.0
0.0
0.0
0.0
0.0
0.0
0.0
0.0
0.0
0.0
0.0
0.0
0.0
0.0
0.0
0.0
0.0
0.0
0.0
0.0
0.0
0.0
0.0
0.0
0.0
0.0
0.0
0.0
0.0
0.0
0.0
0.0
0.0
0.0
0.0
0.0
0.0
0.0
0.0
0.0
0.0
0.0
0.0
0.0
0.0
0.0
0.0
0.0
0.0
0.0
0.0
0.0
0.0
0.0
0.0
0.0
0.0
0.0
0.0
0.0
0.0
0.0
0.0
0.0
0.0
0.0
0.0
0.0
0.0
0.0
0.0
0.0
0.0
0.0
0.0
0.0
0.0
0.0
0.0
0.0
0.0
0.0
0.0
0.0
0.0
0.0
0.0
0.0
0.0
0.0
0.0
0.0
0.0
0.0
0.0
0.0
0.0
0.0
0.0
0.0
0.0
0.0
0.0
0.0
0.0
0.0
0.0
0.0
0.0
0.0
0.0
0.0
0.0
0.0
0.0
0.0
0.0
0.0
0.0
0.0
0.0
0.0
0.0
0.0
0.0
0.0
0.0
0.0
0.0
0.0
0.0
0.0
0.0
0.0
0.0
0.0
0.0
0.0
0.0
0.0
0.0
0.0
0.0
0.0
0.0
0.0
0.0
0.0
0.0
0.0
0.0
0.0
0.0
0.0
0.0
0.0
0.0
0.0
0.0
0.0
0.0
0.0
0.0
0.0
0.0
0.0
0.0
0.0
0.0
0.0
0.0
0.0
0.0
0.0
0.0
0.0
0.0
0.0
0.0
0.0
0.0
0.0
0.0
0.0
0.0
0.0
0.0
0.0
0.0
0.0
0.0
0.0
0.0
0.0
0.0
0.0
0.0
0.0
0.0
0.0
0.0
0.0
0.0
0.0
0.0
0.0
0.0
0.0
0.0
0.0
0.0
0.0
0.0
0.0
0.0
0.0
0.0
0.0
0.0
0.0
0.0
0.0
0.0
0.0
0.0
0.0
0.0
0.0
0.0
0.0
0.0
0.0
0.0
0.0
0.0
0.0
0.0
0.0
0.0
0.0
0.0
0.0
0.0
0.0
0.0
0.0
0.0
0.0
0.0
0.0
0.0
0.0
0.0
0.0
0.0
0.0
0.0
0.0
0.0
0.0
0.0
0.0
0.0
0.0
0.0
0.0
0.0
0.0
0.0
0.0
0.0
0.0
0.0
0.0
0.0
0.0
0.0
0.0
0.0
0.0
0.0
0.0
0.0
0.0
0.0
0.0
0.0
0.0
0.0
0.0
0.0
0.0
0.0
0.0
0.0
0.0
0.0
0.0
0.0
0.0
0.0
0.0
0.0
0.0
0.0
0.0
0.0
0.0
0.0
0.0
0.0
0.0
0.0
0.0
0.0
0.0
0.0
0.0
0.0
0.0
0.0
0.0
0.0
0.0
0.0
0.0
0.0
0.0
0.0
0.0
0.0
0.0
0.0
0.0
0.0
0.0
0.0
0.0
0.0
0.0
0.0
0.0
0.0
0.0
0.0
0.0
0.0
0.0
0.0
0.0
0.0
0.0
0.0
0.0
0.0
0.0
0.0
0.0
0.0
0.0
0.0
0.0
0.0
0.0
0.0
0.0
0.0
0.0
0.0
0.0
0.0
0.0
0.0
0.0
0.0
0.0
0.0
0.0
0.0
0.0
0.0
0.0
0.0
0.0
0.0
0.0
0.0
0.0
0.0
0.0
0.0
0.0
0.0
0.0
0.0
0.0
0.0
0.0
0.0
0.0
0.0
0.0
0.0
0.0
0.0
0.0
0.0
0.0
0.0
0.0
0.0
0.0
0.0
0.0
0.0
0.0
0.0
0.0
0.0
0.0
0.0
0.0
0.0
0.0
0.0
0.0
0.0
0.0
0.0
0.0
0.0
0.0
0.0
0.0
0.0
0.0
0.0
0.0
0.0
0.0
0.0
0.0
0.0
0.0
0.0
0.0
0.0
0.0
0.0
0.0
0.0
0.0
0.0
0.0
0.0
0.0
0.0
0.0
0.0
0.0
0.0
0.0
0.0
0.0
0.0
0.0
0.0
0.0
0.0
0.0
0.0
0.0
0.0
0.0
0.0
0.0
0.0
0.0
0.0
0.0
0.0
0.0
0.0
0.0
0.0
0.0
0.0
0.0
0.0
0.0
0.0
0.0
0.0
0.0
0.0
0.0
0.0
0.0
0.0
0.0
0.0
0.0
0.0
0.0
0.0
0.0
0.0
0.0
0.0
0.0
0.0
0.0
0.0
0.0
0.0
0.0
0.0
0.0
0.0
0.0
0.0
0.0
0.0
0.0
0.0
0.0
0.0
0.0
0.0
0.0
0.0
0.0
0.0
0.0
0.0
0.0
0.0
0.0
0.0
0.0
0.0
0.0
0.0
0.0
0.0
0.0
0.0
0.0
0.0
0.0
0.0
0.0
0.0
0.0
0.0
0.0
0.0
0.0
0.0
0.0
0.0
0.0
0.0
0.0
0.0
0.0
0.0
0.0
0.0
0.0
0.0
0.0
0.0
0.0
0.0
0.0
0.0
0.0
0.0
0.0
0.0
0.0
0.0
0.0
0.0
0.0
0.0
0.0
0.0
0.0
0.0
0.0
0.0
0.0
0.0
0.0
0.0
0.0
0.0
0.0
0.0
0.0
0.0
0.0
0.0
0.0
0.0
0.0
0.0
0.0
0.0
0.0
0.0
0.0
0.0
0.0
0.0
0.0
0.0
0.0
0.0
0.0
0.0
0.0
0.0
0.0
0.0
0.0
0.0
0.0
0.0
0.0
0.0
0.0
0.0
0.0
0.0
0.0
0.0
0.0
0.0
0.0
0.0
0.0
0.0
0.0
0.0
0.0
0.0
0.0
0.0
0.0
0.0
0.0
0.0
0.0
0.0
0.0
0.0
0.0
0.0
0.0
0.0
0.0
0.0
0.0
0.0
0.0
0.0
0.0
0.0
0.0
0.0
0.0
0.0
0.0
0.0
0.0
0.0
0.0
0.0
0.0
0.0
0.0
0.0
0.0
0.0
0.0
0.0
0.0
0.0
0.0
0.0
0.0
0.0
0.0
0.0
0.0
0.0
0.0
0.0
0.0
0.0
0.0
0.0
0.0
0.0
0.0
0.0
0.0
0.0
0.0
0.0
0.0
0.0
0.0
0.0
0.0
0.0
0.0
0.0
0.0
0.0
0.0
0.0
0.0
0.0
0.0
0.0
0.0
0.0
0.0
0.0
0.0
0.0
0.0
0.0
0.0
0.0
0.0
0.0
0.0
0.0
0.0
0.0
0.0
0.0
0.0
0.0
0.0
0.0
0.0
0.0
0.0
0.0
0.0
0.0
0.0
0.0
0.0
0.0
0.0
0.0
0.0
0.0
0.0
0.0
0.0
0.0
0.0
0.0
0.0
0.0
0.0
0.0
0.0
0.0
0.0
0.0
0.0
0.0
0.0
0.0
0.0
0.0
0.0
0.0
0.0
0.0
0.0
0.0
0.0
0.0
0.0
0.0
0.0
0.0
0.0
0.0
0.0
0.0
0.0
0.0
0.0
0.0
0.0
0.0
0.0
0.0
0.0
0.0
0.0
0.0
0.0
0.0
0.0
0.0
0.0
0.0
0.0
0.0
0.0
0.0
0.0
0.0
0.0
0.0
0.0
0.0
0.0
0.0
0.0
0.0
0.0
0.0
0.0
0.0
0.0
0.0
0.0
0.0
0.0
0.0
0.0
0.0
0.0
0.0
0.0
0.0
0.0
0.0
0.0
0.0
0.0
0.0
0.0
0.0
0.0
0.0
0.0
0.0
0.0
0.0
0.0
0.0
0.0
0.0
0.0
0.0
0.0
0.0
0.0
0.0
0.0
0.0
0.0
0.0
0.0
0.0
0.0
0.0
0.0
0.0
0.0
0.0
0.0
0.0
0.0
0.0
0.0
0.0
0.0
0.0
0.0
0.0
0.0
0.0
0.0
0.0
0.0
0.0
0.0
0.0
0.0
0.0
0.0
0.0
0.0
0.0
0.0
0.0
0.0
0.0
0.0
0.0
0.0
0.0
0.0
0.0
0.0
0.0
0.0
0.0
0.0
0.0
0.0
0.0
0.0
0.0
0.0
0.0
0.0
0.0
0.0
0.0
0.0
0.0
0.0
0.0
0.0
0.0
0.0
0.0
0.0
0.0
0.0
0.0
0.0
0.0
0.0
0.0
0.0
0.0
0.0
0.0
0.0
0.0
0.0
0.0
0.0
0.0
0.0
0.0
0.0
0.0
0.0
0.0
0.0
0.0
0.0
0.0
0.0
0.0
0.0
0.0
0.0
0.0
0.0
0.0
0.0
0.0
0.0
0.0
0.0
0.0
0.0
0.0
0.0
0.0
0.0
0.0
0.0
0.0
0.0
0.0
0.0
0.0
0.0
0.0
0.0
0.0
0.0
0.0
0.0
0.0
0.0
0.0
0.0
0.0
0.0
0.0
0.0
0.0
0.0
0.0
0.0
0.0
0.0
0.0
0.0
0.0
0.0
0.0
0.0
0.0
0.0
0.0
0.0
0.0
0.0
0.0
0.0
0.0
0.0
0.0
0.0
0.0
0.0
0.0
0.0
0.0
0.0
0.0
0.0
0.0
0.0
0.0
0.0
0.0
0.0
0.0
0.0
0.0
0.0
0.0
0.0
0.0
0.0
0.0
0.0
0.0
0.0
0.0
0.0
0.0
0.0
0.0
0.0
0.0
0.0
0.0
0.0
0.0
0.0
0.0
0.0
0.0
0.0
0.0
0.0
0.0
0.0
0.0
0.0
0.0
0.0
0.0
0.0
0.0
0.0
0.0
0.0
0.0

VECTORS node_force_gravity float
0.0 -1.962000000000e+01 0.0 
0.0 -1.962000000000e+01 0.0 
0.0 -1.962000000000e+01 0.0 
0.0 -1.962000000000e+01 0.0 
0.0 -1.962000000000e+01 0.0 
0.0 -1.962000000000e+01 0.0 
0.0 -1.962000000000e+01 0.0 
0.0 -1.962000000000e+01 0.0 
0.0 -1.962000000000e+01 0.0 
0.0 -1.962000000000e+01 0.0 
0.0 -1.962000000000e+01 0.0 
0.0 -1.962000000000e+01 0.0 
0.0 -1.962000000000e+01 0.0 
0.0 -1.962000000000e+01 0.0 
0.0 -1.962000000000e+01 0.0 
0.0 -1.962000000000e+01 0.0 
0.0 -1.962000000000e+01 0.0 
0.0 -1.962000000000e+01 0.0 
0.0 -1.962000000000e+01 0.0 
0.0 -1.962000000000e+01 0.0 
0.0 -1.962000000000e+01 0.0 
0.0 -1.962000000000e+01 0.0 
0.0 -1.962000000000e+01 0.0 
0.0 -1.962000000000e+01 0.0 
0.0 -1.962000000000e+01 0.0 
0.0 -1.962000000000e+01 0.0 
0.0 -1.962000000000e+01 0.0 
0.0 -1.962000000000e+01 0.0 
0.0 -1.962000000000e+01 0.0 
0.0 -1.962000000000e+01 0.0 
0.0 -1.962000000000e+01 0.0 
0.0 -1.962000000000e+01 0.0 
0.0 -1.962000000000e+01 0.0 
0.0 -1.962000000000e+01 0.0 
0.0 -1.962000000000e+01 0.0 
0.0 -1.962000000000e+01 0.0 
0.0 -1.962000000000e+01 0.0 
0.0 -1.962000000000e+01 0.0 
0.0 -1.962000000000e+01 0.0 
0.0 -1.962000000000e+01 0.0 
0.0 -1.962000000000e+01 0.0 
0.0 -1.962000000000e+01 0.0 
0.0 -1.962000000000e+01 0.0 
0.0 -1.962000000000e+01 0.0 
0.0 -1.962000000000e+01 0.0 
0.0 -1.962000000000e+01 0.0 
0.0 -1.962000000000e+01 0.0 
0.0 -1.962000000000e+01 0.0 
0.0 -1.962000000000e+01 0.0 
0.0 -1.962000000000e+01 0.0 
0.0 -1.962000000000e+01 0.0 
0.0 -1.962000000000e+01 0.0 
0.0 -1.962000000000e+01 0.0 
0.0 -1.962000000000e+01 0.0 
0.0 -1.962000000000e+01 0.0 
0.0 -1.962000000000e+01 0.0 
0.0 -1.962000000000e+01 0.0 
0.0 -1.962000000000e+01 0.0 
0.0 -1.962000000000e+01 0.0 
0.0 -1.962000000000e+01 0.0 
0.0 -1.962000000000e+01 0.0 
0.0 -1.962000000000e+01 0.0 
0.0 -1.962000000000e+01 0.0 
0.0 -1.962000000000e+01 0.0 
0.0 -1.962000000000e+01 0.0 
0.0 -1.962000000000e+01 0.0 
0.0 -1.962000000000e+01 0.0 
0.0 -1.962000000000e+01 0.0 
0.0 -1.962000000000e+01 0.0 
0.0 -1.962000000000e+01 0.0 
0.0 -1.962000000000e+01 0.0 
0.0 -1.962000000000e+01 0.0 
0.0 -1.962000000000e+01 0.0 
0.0 -1.962000000000e+01 0.0 
0.0 -1.962000000000e+01 0.0 
0.0 -1.962000000000e+01 0.0 
0.0 -1.962000000000e+01 0.0 
0.0 -1.962000000000e+01 0.0 
0.0 -1.962000000000e+01 0.0 
0.0 -1.962000000000e+01 0.0 
0.0 -1.962000000000e+01 0.0 
0.0 -1.962000000000e+01 0.0 
0.0 -1.962000000000e+01 0.0 
0.0 -1.962000000000e+01 0.0 
0.0 -1.962000000000e+01 0.0 
0.0 -1.962000000000e+01 0.0 
0.0 -1.962000000000e+01 0.0 
0.0 -1.962000000000e+01 0.0 
0.0 -1.962000000000e+01 0.0 
0.0 -1.962000000000e+01 0.0 
0.0 -1.962000000000e+01 0.0 
0.0 -1.962000000000e+01 0.0 
0.0 -1.962000000000e+01 0.0 
0.0 -1.962000000000e+01 0.0 
0.0 -1.962000000000e+01 0.0 
0.0 -1.962000000000e+01 0.0 
0.0 -1.962000000000e+01 0.0 
0.0 -1.962000000000e+01 0.0 
0.0 -1.962000000000e+01 0.0 
0.0 -1.962000000000e+01 0.0 
0.0 -1.962000000000e+01 0.0 
0.0 -1.962000000000e+01 0.0 
0.0 -1.962000000000e+01 0.0 
0.0 -1.962000000000e+01 0.0 
0.0 -1.962000000000e+01 0.0 
0.0 -1.962000000000e+01 0.0 
0.0 -1.962000000000e+01 0.0 
0.0 -1.962000000000e+01 0.0 
0.0 -1.962000000000e+01 0.0 
0.0 -1.962000000000e+01 0.0 
0.0 -1.962000000000e+01 0.0 
0.0 -1.962000000000e+01 0.0 
0.0 -1.962000000000e+01 0.0 
0.0 -1.962000000000e+01 0.0 
0.0 -1.962000000000e+01 0.0 
0.0 -1.962000000000e+01 0.0 
0.0 -1.962000000000e+01 0.0 
0.0 -1.962000000000e+01 0.0 
0.0 -1.962000000000e+01 0.0 
0.0 -1.962000000000e+01 0.0 
0.0 -1.962000000000e+01 0.0 
0.0 -1.962000000000e+01 0.0 
0.0 -1.962000000000e+01 0.0 
0.0 -1.962000000000e+01 0.0 
0.0 -1.962000000000e+01 0.0 
0.0 -1.962000000000e+01 0.0 
0.0 -1.962000000000e+01 0.0 
0.0 -1.962000000000e+01 0.0 
0.0 -1.962000000000e+01 0.0 
0.0 -1.962000000000e+01 0.0 
0.0 -1.962000000000e+01 0.0 
0.0 -1.962000000000e+01 0.0 
0.0 -1.962000000000e+01 0.0 
0.0 -1.962000000000e+01 0.0 
0.0 -1.962000000000e+01 0.0 
0.0 -1.962000000000e+01 0.0 
0.0 -1.962000000000e+01 0.0 
0.0 -1.962000000000e+01 0.0 
0.0 -1.962000000000e+01 0.0 
0.0 -1.962000000000e+01 0.0 
0.0 -1.962000000000e+01 0.0 
0.0 -1.962000000000e+01 0.0 
0.0 -1.962000000000e+01 0.0 
0.0 -1.962000000000e+01 0.0 
0.0 -1.962000000000e+01 0.0 
0.0 -1.962000000000e+01 0.0 
0.0 -1.962000000000e+01 0.0 
0.0 -1.962000000000e+01 0.0 
0.0 -1.962000000000e+01 0.0 
0.0 -1.962000000000e+01 0.0 
0.0 -1.962000000000e+01 0.0 
0.0 -1.962000000000e+01 0.0 
0.0 -1.962000000000e+01 0.0 
0.0 -1.962000000000e+01 0.0 
0.0 -1.962000000000e+01 0.0 
0.0 -1.962000000000e+01 0.0 
0.0 -1.962000000000e+01 0.0 
0.0 -1.962000000000e+01 0.0 
0.0 -1.962000000000e+01 0.0 
0.0 -1.962000000000e+01 0.0 
0.0 -1.962000000000e+01 0.0 
0.0 -1.962000000000e+01 0.0 
0.0 -1.962000000000e+01 0.0 
0.0 -1.962000000000e+01 0.0 
0.0 -1.962000000000e+01 0.0 
0.0 -1.962000000000e+01 0.0 
0.0 -1.962000000000e+01 0.0 
0.0 -1.962000000000e+01 0.0 
0.0 -1.962000000000e+01 0.0 
0.0 -1.962000000000e+01 0.0 
0.0 -1.962000000000e+01 0.0 
0.0 -1.962000000000e+01 0.0 
0.0 -1.962000000000e+01 0.0 
0.0 -1.962000000000e+01 0.0 
0.0 -1.962000000000e+01 0.0 
0.0 -1.962000000000e+01 0.0 
0.0 -1.962000000000e+01 0.0 
0.0 -1.962000000000e+01 0.0 
0.0 -1.962000000000e+01 0.0 
0.0 -1.962000000000e+01 0.0 
0.0 -1.962000000000e+01 0.0 
0.0 -1.962000000000e+01 0.0 
0.0 -1.962000000000e+01 0.0 
0.0 -1.962000000000e+01 0.0 
0.0 -1.962000000000e+01 0.0 
0.0 -1.962000000000e+01 0.0 
0.0 -1.962000000000e+01 0.0 
0.0 -1.962000000000e+01 0.0 
0.0 -1.962000000000e+01 0.0 
0.0 -1.962000000000e+01 0.0 
0.0 -1.962000000000e+01 0.0 
0.0 -1.962000000000e+01 0.0 
0.0 -1.962000000000e+01 0.0 
0.0 -1.962000000000e+01 0.0 
0.0 -1.962000000000e+01 0.0 
0.0 -1.962000000000e+01 0.0 
0.0 -1.962000000000e+01 0.0 
0.0 -1.962000000000e+01 0.0 
0.0 -1.962000000000e+01 0.0 
0.0 -1.962000000000e+01 0.0 
0.0 -1.962000000000e+01 0.0 
0.0 -1.962000000000e+01 0.0 
0.0 -1.962000000000e+01 0.0 
0.0 -1.962000000000e+01 0.0 
0.0 -1.962000000000e+01 0.0 
0.0 -1.962000000000e+01 0.0 
0.0 -1.962000000000e+01 0.0 
0.0 -1.962000000000e+01 0.0 
0.0 -1.962000000000e+01 0.0 
0.0 -1.962000000000e+01 0.0 
0.0 -1.962000000000e+01 0.0 
0.0 -1.962000000000e+01 0.0 
0.0 -1.962000000000e+01 0.0 
0.0 -1.962000000000e+01 0.0 
0.0 -1.962000000000e+01 0.0 
0.0 -1.962000000000e+01 0.0 
0.0 -1.962000000000e+01 0.0 
0.0 -1.962000000000e+01 0.0 
0.0 -1.962000000000e+01 0.0 
0.0 -1.962000000000e+01 0.0 
0.0 -1.962000000000e+01 0.0 
0.0 -1.962000000000e+01 0.0 
0.0 -1.962000000000e+01 0.0 
0.0 -1.962000000000e+01 0.0 
0.0 -1.962000000000e+01 0.0 
0.0 -1.962000000000e+01 0.0 
0.0 -1.962000000000e+01 0.0 
0.0 -1.962000000000e+01 0.0 
0.0 -1.962000000000e+01 0.0 
0.0 -1.962000000000e+01 0.0 
0.0 -1.962000000000e+01 0.0 
0.0 -1.962000000000e+01 0.0 
0.0 -1.962000000000e+01 0.0 
0.0 -1.962000000000e+01 0.0 
0.0 -1.962000000000e+01 0.0 
0.0 -1.962000000000e+01 0.0 
0.0 -1.962000000000e+01 0.0 
0.0 -1.962000000000e+01 0.0 
0.0 -1.962000000000e+01 0.0 
0.0 -1.962000000000e+01 0.0 
0.0 -1.962000000000e+01 0.0 
0.0 -1.962000000000e+01 0.0 
0.0 -1.962000000000e+01 0.0 
0.0 -1.962000000000e+01 0.0 
0.0 -1.962000000000e+01 0.0 
0.0 -1.962000000000e+01 0.0 
0.0 -1.962000000000e+01 0.0 
0.0 -1.962000000000e+01 0.0 
0.0 -1.962000000000e+01 0.0 
0.0 -1.962000000000e+01 0.0 
0.0 -1.962000000000e+01 0.0 
0.0 -1.962000000000e+01 0.0 
0.0 -1.962000000000e+01 0.0 
0.0 -1.962000000000e+01 0.0 
0.0 -1.962000000000e+01 0.0 
0.0 -1.962000000000e+01 0.0 
0.0 -1.962000000000e+01 0.0 
0.0 -1.962000000000e+01 0.0 
0.0 -1.962000000000e+01 0.0 
0.0 -1.962000000000e+01 0.0 
0.0 -1.962000000000e+01 0.0 
0.0 -1.962000000000e+01 0.0 
0.0 -1.962000000000e+01 0.0 
0.0 -1.962000000000e+01 0.0 
0.0 -1.962000000000e+01 0.0 
0.0 -1.962000000000e+01 0.0 
0.0 -1.962000000000e+01 0.0 
0.0 -1.962000000000e+01 0.0 
0.0 -1.962000000000e+01 0.0 
0.0 -1.962000000000e+01 0.0 
0.0 -1.962000000000e+01 0.0 
0.0 -1.962000000000e+01 0.0 
0.0 -1.962000000000e+01 0.0 
0.0 -1.962000000000e+01 0.0 
0.0 -1.962000000000e+01 0.0 
0.0 -1.962000000000e+01 0.0 
0.0 -1.962000000000e+01 0.0 
0.0 -1.962000000000e+01 0.0 
0.0 -1.962000000000e+01 0.0 
0.0 -1.962000000000e+01 0.0 
0.0 -1.962000000000e+01 0.0 
0.0 -1.962000000000e+01 0.0 
0.0 -1.962000000000e+01 0.0 
0.0 -1.962000000000e+01 0.0 
0.0 -1.962000000000e+01 0.0 
0.0 -1.962000000000e+01 0.0 
0.0 -1.962000000000e+01 0.0 
0.0 -1.962000000000e+01 0.0 
0.0 -1.962000000000e+01 0.0 
0.0 -1.962000000000e+01 0.0 
0.0 -1.962000000000e+01 0.0 
0.0 -1.962000000000e+01 0.0 
0.0 -1.962000000000e+01 0.0 
0.0 -1.962000000000e+01 0.0 
0.0 -1.962000000000e+01 0.0 
0.0 -1.962000000000e+01 0.0 
0.0 -1.962000000000e+01 0.0 
0.0 -1.962000000000e+01 0.0 
0.0 -1.962000000000e+01 0.0 
0.0 -1.962000000000e+01 0.0 
0.0 -1.962000000000e+01 0.0 
0.0 -1.962000000000e+01 0.0 
0.0 -1.962000000000e+01 0.0 
0.0 -1.962000000000e+01 0.0 
0.0 -1.962000000000e+01 0.0 
0.0 -1.962000000000e+01 0.0 
0.0 -1.962000000000e+01 0.0 
0.0 -1.962000000000e+01 0.0 
0.0 -1.962000000000e+01 0.0 
0.0 -1.962000000000e+01 0.0 
0.0 -1.962000000000e+01 0.0 
0.0 -1.962000000000e+01 0.0 
0.0 -1.962000000000e+01 0.0 
0.0 -1.962000000000e+01 0.0 
0.0 -1.962000000000e+01 0.0 
0.0 -1.962000000000e+01 0.0 
0.0 -1.962000000000e+01 0.0 
0.0 -1.962000000000e+01 0.0 
0.0 -1.962000000000e+01 0.0 
0.0 -1.962000000000e+01 0.0 
0.0 -1.962000000000e+01 0.0 
0.0 -1.962000000000e+01 0.0 
0.0 -1.962000000000e+01 0.0 
0.0 -1.962000000000e+01 0.0 
0.0 -1.962000000000e+01 0.0 
0.0 -1.962000000000e+01 0.0 
0.0 -1.962000000000e+01 0.0 
0.0 -1.962000000000e+01 0.0 
0.0 -1.962000000000e+01 0.0 
0.0 -1.962000000000e+01 0.0 
0.0 -1.962000000000e+01 0.0 
0.0 -1.962000000000e+01 0.0 
0.0 -1.962000000000e+01 0.0 
0.0 -1.962000000000e+01 0.0 
0.0 -1.962000000000e+01 0.0 
0.0 -1.962000000000e+01 0.0 
0.0 -1.962000000000e+01 0.0 
0.0 -1.962000000000e+01 0.0 
0.0 -1.962000000000e+01 0.0 
0.0 -1.962000000000e+01 0.0 
0.0 -1.962000000000e+01 0.0 
0.0 -1.962000000000e+01 0.0 
0.0 -1.962000000000e+01 0.0 
0.0 -1.962000000000e+01 0.0 
0.0 -1.962000000000e+01 0.0 
0.0 -1.962000000000e+01 0.0 
0.0 -1.962000000000e+01 0.0 
0.0 -1.962000000000e+01 0.0 
0.0 -1.962000000000e+01 0.0 
0.0 -1.962000000000e+01 0.0 
0.0 -1.962000000000e+01 0.0 
0.0 -1.962000000000e+01 0.0 
0.0 -1.962000000000e+01 0.0 
0.0 -1.962000000000e+01 0.0 
0.0 -1.962000000000e+01 0.0 
0.0 -1.962000000000e+01 0.0 
0.0 -1.962000000000e+01 0.0 
0.0 -1.962000000000e+01 0.0 
0.0 -1.962000000000e+01 0.0 
0.0 -1.962000000000e+01 0.0 
0.0 -1.962000000000e+01 0.0 
0.0 -1.962000000000e+01 0.0 
0.0 -1.962000000000e+01 0.0 
0.0 -1.962000000000e+01 0.0 
0.0 -1.962000000000e+01 0.0 
0.0 -1.962000000000e+01 0.0 
0.0 -1.962000000000e+01 0.0 
0.0 -1.962000000000e+01 0.0 
0.0 -1.962000000000e+01 0.0 
0.0 -1.962000000000e+01 0.0 
0.0 -1.962000000000e+01 0.0 
0.0 -1.962000000000e+01 0.0 
0.0 -1.962000000000e+01 0.0 
0.0 -1.962000000000e+01 0.0 
0.0 -1.962000000000e+01 0.0 
0.0 -1.962000000000e+01 0.0 
0.0 -1.962000000000e+01 0.0 
0.0 -1.962000000000e+01 0.0 
0.0 -1.962000000000e+01 0.0 
0.0 -1.962000000000e+01 0.0 
0.0 -1.962000000000e+01 0.0 
0.0 -1.962000000000e+01 0.0 
0.0 -1.962000000000e+01 0.0 
0.0 -1.962000000000e+01 0.0 
0.0 -1.962000000000e+01 0.0 
0.0 -1.962000000000e+01 0.0 
0.0 -1.962000000000e+01 0.0 
0.0 -1.962000000000e+01 0.0 
0.0 -1.962000000000e+01 0.0 
0.0 -1.962000000000e+01 0.0 
0.0 -1.962000000000e+01 0.0 
0.0 -1.962000000000e+01 0.0 
0.0 -1.962000000000e+01 0.0 
0.0 -1.962000000000e+01 0.0 
0.0 -1.962000000000e+01 0.0 
0.0 -1.962000000000e+01 0.0 
0.0 -1.962000000000e+01 0.0 
0.0 -1.962000000000e+01 0.0 
0.0 -1.962000000000e+01 0.0 
0.0 -1.962000000000e+01 0.0 
0.0 -1.962000000000e+01 0.0 
0.0 -1.962000000000e+01 0.0 
0.0 -1.962000000000e+01 0.0 
0.0 -1.962000000000e+01 0.0 
0.0 -1.962000000000e+01 0.0 
0.0 -1.962000000000e+01 0.0 
0.0 -1.962000000000e+01 0.0 
0.0 -1.962000000000e+01 0.0 
0.0 -1.962000000000e+01 0.0 
0.0 -1.962000000000e+01 0.0 
0.0 -1.962000000000e+01 0.0 
0.0 -1.962000000000e+01 0.0 
0.0 -1.962000000000e+01 0.0 
0.0 -1.962000000000e+01 0.0 
0.0 -1.962000000000e+01 0.0 
0.0 -1.962000000000e+01 0.0 
0.0 -1.962000000000e+01 0.0 
0.0 -1.962000000000e+01 0.0 
0.0 -1.962000000000e+01 0.0 
0.0 -1.962000000000e+01 0.0 
0.0 -1.962000000000e+01 0.0 
0.0 -1.962000000000e+01 0.0 
0.0 -1.962000000000e+01 0.0 
0.0 -1.962000000000e+01 0.0 
0.0 -1.962000000000e+01 0.0 
0.0 -1.962000000000e+01 0.0 
0.0 -1.962000000000e+01 0.0 
0.0 -1.962000000000e+01 0.0 
0.0 -1.962000000000e+01 0.0 
0.0 -1.962000000000e+01 0.0 
0.0 -1.962000000000e+01 0.0 
0.0 -1.962000000000e+01 0.0 
0.0 -1.962000000000e+01 0.0 
0.0 -1.962000000000e+01 0.0 
0.0 -1.962000000000e+01 0.0 
0.0 -1.962000000000e+01 0.0 
0.0 -1.962000000000e+01 0.0 
0.0 -1.962000000000e+01 0.0 
0.0 -1.962000000000e+01 0.0 
0.0 -1.962000000000e+01 0.0 
0.0 -1.962000000000e+01 0.0 
0.0 -1.962000000000e+01 0.0 
0.0 -1.962000000000e+01 0.0 
0.0 -1.962000000000e+01 0.0 
0.0 -1.962000000000e+01 0.0 
0.0 -1.962000000000e+01 0.0 
0.0 -1.962000000000e+01 0.0 
0.0 -1.962000000000e+01 0.0 
0.0 -1.962000000000e+01 0.0 
0.0 -1.962000000000e+01 0.0 
0.0 -1.962000000000e+01 0.0 
0.0 -1.962000000000e+01 0.0 
0.0 -1.962000000000e+01 0.0 
0.0 -1.962000000000e+01 0.0 
0.0 -1.962000000000e+01 0.0 
0.0 -1.962000000000e+01 0.0 
0.0 -1.962000000000e+01 0.0 
0.0 -1.962000000000e+01 0.0 
0.0 -1.962000000000e+01 0.0 
0.0 -1.962000000000e+01 0.0 
0.0 -1.962000000000e+01 0.0 
0.0 -1.962000000000e+01 0.0 
0.0 -1.962000000000e+01 0.0 
0.0 -1.962000000000e+01 0.0 
0.0 -1.962000000000e+01 0.0 
0.0 -1.962000000000e+01 0.0 
0.0 -1.962000000000e+01 0.0 
0.0 -1.962000000000e+01 0.0 
0.0 -1.962000000000e+01 0.0 
0.0 -1.962000000000e+01 0.0 
0.0 -1.962000000000e+01 0.0 
0.0 -1.962000000000e+01 0.0 
0.0 -1.962000000000e+01 0.0 
0.0 -1.962000000000e+01 0.0 
0.0 -1.962000000000e+01 0.0 
0.0 -1.962000000000e+01 0.0 
0.0 -1.962000000000e+01 0.0 
0.0 -1.962000000000e+01 0.0 
0.0 -1.962000000000e+01 0.0 
0.0 -1.962000000000e+01 0.0 
0.0 -1.962000000000e+01 0.0 
0.0 -1.962000000000e+01 0.0 
0.0 -1.962000000000e+01 0.0 
0.0 -1.962000000000e+01 0.0 
0.0 -1.962000000000e+01 0.0 
0.0 -1.962000000000e+01 0.0 
0.0 -1.962000000000e+01 0.0 
0.0 -1.962000000000e+01 0.0 
0.0 -1.962000000000e+01 0.0 
0.0 -1.962000000000e+01 0.0 
0.0 -1.962000000000e+01 0.0 
0.0 -1.962000000000e+01 0.0 
0.0 -1.962000000000e+01 0.0 
0.0 -1.962000000000e+01 0.0 
0.0 -1.962000000000e+01 0.0 
0.0 -1.962000000000e+01 0.0 
0.0 -1.962000000000e+01 0.0 
0.0 -1.962000000000e+01 0.0 
0.0 -1.962000000000e+01 0.0 
0.0 -1.962000000000e+01 0.0 
0.0 -1.962000000000e+01 0.0 
0.0 -1.962000000000e+01 0.0 
0.0 -1.962000000000e+01 0.0 
0.0 -1.962000000000e+01 0.0 
0.0 -1.962000000000e+01 0.0 
0.0 -1.962000000000e+01 0.0 
0.0 -1.962000000000e+01 0.0 
0.0 -1.962000000000e+01 0.0 
0.0 -1.962000000000e+01 0.0 
0.0 -1.962000000000e+01 0.0 
0.0 -1.962000000000e+01 0.0 
0.0 -1.962000000000e+01 0.0 
0.0 -1.962000000000e+01 0.0 
0.0 -1.962000000000e+01 0.0 
0.0 -1.962000000000e+01 0.0 
0.0 -1.962000000000e+01 0.0 
0.0 -1.962000000000e+01 0.0 
0.0 -1.962000000000e+01 0.0 
0.0 -1.962000000000e+01 0.0 
0.0 -1.962000000000e+01 0.0 
0.0 -1.962000000000e+01 0.0 
0.0 -1.962000000000e+01 0.0 
0.0 -1.962000000000e+01 0.0 
0.0 -1.962000000000e+01 0.0 
0.0 -1.962000000000e+01 0.0 
0.0 -1.962000000000e+01 0.0 
0.0 -1.962000000000e+01 0.0 
0.0 -1.962000000000e+01 0.0 
0.0 -1.962000000000e+01 0.0 
0.0 -1.962000000000e+01 0.0 
0.0 -1.962000000000e+01 0.0 
0.0 -1.962000000000e+01 0.0 
0.0 -1.962000000000e+01 0.0 
0.0 -1.962000000000e+01 0.0 
0.0 -1.962000000000e+01 0.0 
0.0 -1.962000000000e+01 0.0 
0.0 -1.962000000000e+01 0.0 
0.0 -1.962000000000e+01 0.0 
0.0 -1.962000000000e+01 0.0 
0.0 -1.962000000000e+01 0.0 
0.0 -1.962000000000e+01 0.0 
0.0 -1.962000000000e+01 0.0 
0.0 -1.962000000000e+01 0.0 
0.0 -1.962000000000e+01 0.0 
0.0 -1.962000000000e+01 0.0 
0.0 -1.962000000000e+01 0.0 
0.0 -1.962000000000e+01 0.0 
0.0 -1.962000000000e+01 0.0 
0.0 -1.962000000000e+01 0.0 
0.0 -1.962000000000e+01 0.0 
0.0 -1.962000000000e+01 0.0 
0.0 -1.962000000000e+01 0.0 
0.0 -1.962000000000e+01 0.0 
0.0 -1.962000000000e+01 0.0 
0.0 -1.962000000000e+01 0.0 
0.0 -1.962000000000e+01 0.0 
0.0 -1.962000000000e+01 0.0 
0.0 -1.962000000000e+01 0.0 
0.0 -1.962000000000e+01 0.0 
0.0 -1.962000000000e+01 0.0 
0.0 -1.962000000000e+01 0.0 
0.0 -1.962000000000e+01 0.0 
0.0 -1.962000000000e+01 0.0 
0.0 -1.962000000000e+01 0.0 
0.0 -1.962000000000e+01 0.0 
0.0 -1.962000000000e+01 0.0 
0.0 -1.962000000000e+01 0.0 
0.0 -1.962000000000e+01 0.0 
0.0 -1.962000000000e+01 0.0 
0.0 -1.962000000000e+01 0.0 
0.0 -1.962000000000e+01 0.0 
0.0 -1.962000000000e+01 0.0 
0.0 -1.962000000000e+01 0.0 
0.0 -1.962000000000e+01 0.0 
0.0 -1.962000000000e+01 0.0 
0.0 -1.962000000000e+01 0.0 
0.0 -1.962000000000e+01 0.0 
0.0 -1.962000000000e+01 0.0 
0.0 -1.962000000000e+01 0.0 
0.0 -1.962000000000e+01 0.0 
0.0 -1.962000000000e+01 0.0 
0.0 -1.962000000000e+01 0.0 
0.0 -1.962000000000e+01 0.0 
0.0 -1.962000000000e+01 0.0 
0.0 -1.962000000000e+01 0.0 
0.0 -1.962000000000e+01 0.0 
0.0 -1.962000000000e+01 0.0 
0.0 -1.962000000000e+01 0.0 
0.0 -1.962000000000e+01 0.0 
0.0 -1.962000000000e+01 0.0 
0.0 -1.962000000000e+01 0.0 
0.0 -1.962000000000e+01 0.0 
0.0 -1.962000000000e+01 0.0 
0.0 -1.962000000000e+01 0.0 
0.0 -1.962000000000e+01 0.0 
0.0 -1.962000000000e+01 0.0 
0.0 -1.962000000000e+01 0.0 
0.0 -1.962000000000e+01 0.0 
0.0 -1.962000000000e+01 0.0 
0.0 -1.962000000000e+01 0.0 
0.0 -1.962000000000e+01 0.0 
0.0 -1.962000000000e+01 0.0 
0.0 -1.962000000000e+01 0.0 
0.0 -1.962000000000e+01 0.0 
0.0 -1.962000000000e+01 0.0 
0.0 -1.962000000000e+01 0.0 
0.0 -1.962000000000e+01 0.0 
0.0 -1.962000000000e+01 0.0 
0.0 -1.962000000000e+01 0.0 
0.0 -1.962000000000e+01 0.0 
0.0 -1.962000000000e+01 0.0 
0.0 -1.962000000000e+01 0.0 
0.0 -1.962000000000e+01 0.0 
0.0 -1.962000000000e+01 0.0 
0.0 -1.962000000000e+01 0.0 
0.0 -1.962000000000e+01 0.0 
0.0 -1.962000000000e+01 0.0 
0.0 -1.962000000000e+01 0.0 
0.0 -1.962000000000e+01 0.0 
0.0 -1.962000000000e+01 0.0 
0.0 -1.962000000000e+01 0.0 
0.0 -1.962000000000e+01 0.0 
0.0 -1.962000000000e+01 0.0 
0.0 -1.962000000000e+01 0.0 
0.0 -1.962000000000e+01 0.0 
0.0 -1.962000000000e+01 0.0 
0.0 -1.962000000000e+01 0.0 
0.0 -1.962000000000e+01 0.0 
0.0 -1.962000000000e+01 0.0 
0.0 -1.962000000000e+01 0.0 
0.0 -1.962000000000e+01 0.0 
0.0 -1.962000000000e+01 0.0 
0.0 -1.962000000000e+01 0.0 
0.0 -1.962000000000e+01 0.0 
0.0 -1.962000000000e+01 0.0 
0.0 -1.962000000000e+01 0.0 
0.0 -1.962000000000e+01 0.0 
0.0 -1.962000000000e+01 0.0 
0.0 -1.962000000000e+01 0.0 
0.0 -1.962000000000e+01 0.0 
0.0 -1.962000000000e+01 0.0 
0.0 -1.962000000000e+01 0.0 
0.0 -1.962000000000e+01 0.0 
0.0 -1.962000000000e+01 0.0 
0.0 -1.962000000000e+01 0.0 
0.0 -1.962000000000e+01 0.0 
0.0 -1.962000000000e+01 0.0 
0.0 -1.962000000000e+01 0.0 
0.0 -1.962000000000e+01 0.0 
0.0 -1.962000000000e+01 0.0 
0.0 -1.962000000000e+01 0.0 
0.0 -1.962000000000e+01 0.0 
0.0 -1.962000000000e+01 0.0 
0.0 -1.962000000000e+01 0.0 
0.0 -1.962000000000e+01 0.0 
0.0 -1.962000000000e+01 0.0 
0.0 -1.962000000000e+01 0.0 
0.0 -1.962000000000e+01 0.0 
0.0 -1.962000000000e+01 0.0 
0.0 -1.962000000000e+01 0.0 
0.0 -1.962000000000e+01 0.0 
0.0 -1.962000000000e+01 0.0 
0.0 -1.962000000000e+01 0.0 
0.0 -1.962000000000e+01 0.0 
0.0 -1.962000000000e+01 0.0 
0.0 -1.962000000000e+01 0.0 
0.0 -1.962000000000e+01 0.0 
0.0 -1.962000000000e+01 0.0 
0.0 -1.962000000000e+01 0.0 
0.0 -1.962000000000e+01 0.0 
0.0 -1.962000000000e+01 0.0 
0.0 -1.962000000000e+01 0.0 
0.0 -1.962000000000e+01 0.0 
0.0 -1.962000000000e+01 0.0 
0.0 -1.962000000000e+01 0.0 
0.0 -1.962000000000e+01 0.0 
0.0 -1.962000000000e+01 0.0 
0.0 -1.962000000000e+01 0.0 
0.0 -1.962000000000e+01 0.0 
0.0 -1.962000000000e+01 0.0 
0.0 -1.962000000000e+01 0.0 
0.0 -1.962000000000e+01 0.0 
0.0 -1.962000000000e+01 0.0 
0.0 -1.962000000000e+01 0.0 
0.0 -1.962000000000e+01 0.0 
0.0 -1.962000000000e+01 0.0 
0.0 -1.962000000000e+01 0.0 
0.0 -1.962000000000e+01 0.0 
0.0 -1.962000000000e+01 0.0 
0.0 -1.962000000000e+01 0.0 
0.0 -1.962000000000e+01 0.0 
0.0 -1.962000000000e+01 0.0 
0.0 -1.962000000000e+01 0.0 
0.0 -1.962000000000e+01 0.0 
0.0 -1.962000000000e+01 0.0 
0.0 -1.962000000000e+01 0.0 
0.0 -1.962000000000e+01 0.0 
0.0 -1.962000000000e+01 0.0 
0.0 -1.962000000000e+01 0.0 
0.0 -1.962000000000e+01 0.0 
0.0 -1.962000000000e+01 0.0 
0.0 -1.962000000000e+01 0.0 
0.0 -1.962000000000e+01 0.0 
0.0 -1.962000000000e+01 0.0 
0.0 -1.962000000000e+01 0.0 
0.0 -1.962000000000e+01 0.0 
0.0 -1.962000000000e+01 0.0 
0.0 -1.962000000000e+01 0.0 
0.0 -1.962000000000e+01 0.0 
0.0 -1.962000000000e+01 0.0 
0.0 -1.962000000000e+01 0.0 
0.0 -1.962000000000e+01 0.0 
0.0 -1.962000000000e+01 0.0 
0.0 -1.962000000000e+01 0.0 
0.0 -1.962000000000e+01 0.0 
0.0 -1.962000000000e+01 0.0 
0.0 -1.962000000000e+01 0.0 
0.0 -1.962000000000e+01 0.0 
0.0 -1.962000000000e+01 0.0 
0.0 -1.962000000000e+01 0.0 
0.0 -1.962000000000e+01 0.0 
0.0 -1.962000000000e+01 0.0 
0.0 -1.962000000000e+01 0.0 
0.0 -1.962000000000e+01 0.0 
0.0 -1.962000000000e+01 0.0 
0.0 -1.962000000000e+01 0.0 
0.0 -1.962000000000e+01 0.0 
0.0 -1.962000000000e+01 0.0 
0.0 -1.962000000000e+01 0.0 
0.0 -1.962000000000e+01 0.0 
0.0 -1.962000000000e+01 0.0 
0.0 -1.962000000000e+01 0.0 
0.0 -1.962000000000e+01 0.0 
0.0 -1.962000000000e+01 0.0 
0.0 -1.962000000000e+01 0.0 
0.0 -1.962000000000e+01 0.0 
0.0 -1.962000000000e+01 0.0 
0.0 -1.962000000000e+01 0.0 
0.0 -1.962000000000e+01 0.0 
0.0 -1.962000000000e+01 0.0 
0.0 -1.962000000000e+01 0.0 
0.0 -1.962000000000e+01 0.0 
0.0 -1.962000000000e+01 0.0 
0.0 -1.962000000000e+01 0.0 
0.0 -1.962000000000e+01 0.0 
0.0 -1.962000000000e+01 0.0 
0.0 -1.962000000000e+01 0.0 
0.0 -1.962000000000e+01 0.0 
0.0 -1.962000000000e+01 0.0 
0.0 -1.962000000000e+01 0.0 
0.0 -1.962000000000e+01 0.0 
0.0 -1.962000000000e+01 0.0 
0.0 -1.962000000000e+01 0.0 
0.0 -1.962000000000e+01 0.0 
0.0 -1.962000000000e+01 0.0 
0.0 -1.962000000000e+01 0.0 
0.0 -1.962000000000e+01 0.0 
0.0 -1.962000000000e+01 0.0 
0.0 -1.962000000000e+01 0.0 
0.0 -1.962000000000e+01 0.0 
0.0 -1.962000000000e+01 0.0 
0.0 -1.962000000000e+01 0.0 
0.0 -1.962000000000e+01 0.0 
0.0 -1.962000000000e+01 0.0 
0.0 -1.962000000000e+01 0.0 
0.0 -1.962000000000e+01 0.0 
0.0 -1.962000000000e+01 0.0 
0.0 -1.962000000000e+01 0.0 
0.0 -1.962000000000e+01 0.0 
0.0 -1.962000000000e+01 0.0 
0.0 -1.962000000000e+01 0.0 
0.0 -1.962000000000e+01 0.0 
0.0 -1.962000000000e+01 0.0 
0.0 -1.962000000000e+01 0.0 
0.0 -1.962000000000e+01 0.0 
0.0 -1.962000000000e+01 0.0 
0.0 -1.962000000000e+01 0.0 
0.0 -1.962000000000e+01 0.0 
0.0 -1.962000000000e+01 0.0 
0.0 -1.962000000000e+01 0.0 
0.0 -1.962000000000e+01 0.0 
0.0 -1.962000000000e+01 0.0 
0.0 -1.962000000000e+01 0.0 
0.0 -1.962000000000e+01 0.0 
0.0 -1.962000000000e+01 0.0 
0.0 -1.962000000000e+01 0.0 
0.0 -1.962000000000e+01 0.0 
0.0 -1.962000000000e+01 0.0 
0.0 -1.962000000000e+01 0.0 
0.0 -1.962000000000e+01 0.0 
0.0 -1.962000000000e+01 0.0 
0.0 -1.962000000000e+01 0.0 
0.0 -1.962000000000e+01 0.0 
0.0 -1.962000000000e+01 0.0 
0.0 -1.962000000000e+01 0.0 
0.0 -1.962000000000e+01 0.0 
0.0 -1.962000000000e+01 0.0 
0.0 -1.962000000000e+01 0.0 
0.0 -1.962000000000e+01 0.0 
0.0 -1.962000000000e+01 0.0 
0.0 -1.962000000000e+01 0.0 
0.0 -1.962000000000e+01 0.0 
0.0 -1.962000000000e+01 0.0 
0.0 -1.962000000000e+01 0.0 
0.0 -1.962000000000e+01 0.0 
0.0 -1.962000000000e+01 0.0 
0.0 -1.962000000000e+01 0.0 
0.0 -1.962000000000e+01 0.0 
0.0 -1.962000000000e+01 0.0 
0.0 -1.962000000000e+01 0.0 
0.0 -1.962000000000e+01 0.0 
0.0 -1.962000000000e+01 0.0 
0.0 -1.962000000000e+01 0.0 
0.0 -1.962000000000e+01 0.0 
0.0 -1.962000000000e+01 0.0 
0.0 -1.962000000000e+01 0.0 
0.0 -1.962000000000e+01 0.0 
0.0 -1.962000000000e+01 0.0 
0.0 -1.962000000000e+01 0.0 
0.0 -1.962000000000e+01 0.0 
0.0 -1.962000000000e+01 0.0 
0.0 -1.962000000000e+01 0.0 
0.0 -1.962000000000e+01 0.0 
0.0 -1.962000000000e+01 0.0 
0.0 -1.962000000000e+01 0.0 
0.0 -1.962000000000e+01 0.0 
0.0 -1.962000000000e+01 0.0 
0.0 -1.962000000000e+01 0.0 
0.0 -1.962000000000e+01 0.0 
0.0 -1.962000000000e+01 0.0 
0.0 -1.962000000000e+01 0.0 
0.0 -1.962000000000e+01 0.0 
0.0 -1.962000000000e+01 0.0 
0.0 -1.962000000000e+01 0.0 
0.0 -1.962000000000e+01 0.0 
0.0 -1.962000000000e+01 0.0 
0.0 -1.962000000000e+01 0.0 
0.0 -1.962000000000e+01 0.0 
0.0 -1.962000000000e+01 0.0 
0.0 -1.962000000000e+01 0.0 
0.0 -1.962000000000e+01 0.0 
0.0 -1.962000000000e+01 0.0 
0.0 -1.962000000000e+01 0.0 
0.0 -1.962000000000e+01 0.0 
0.0 -1.962000000000e+01 0.0 
0.0 -1.962000000000e+01 0.0 
0.0 -1.962000000000e+01 0.0 
0.0 -1.962000000000e+01 0.0 
0.0 -1.962000000000e+01 0.0 
0.0 -1.962000000000e+01 0.0 
0.0 -1.962000000000e+01 0.0 
0.0 -1.962000000000e+01 0.0 
0.0 -1.962000000000e+01 0.0 
0.0 -1.962000000000e+01 0.0 
0.0 -1.962000000000e+01 0.0 
0.0 -1.962000000000e+01 0.0 
0.0 -1.962000000000e+01 0.0 
0.0 -1.962000000000e+01 0.0 
0.0 -1.962000000000e+01 0.0 
0.0 -1.962000000000e+01 0.0 
0.0 -1.962000000000e+01 0.0 
0.0 -1.962000000000e+01 0.0 
0.0 -1.962000000000e+01 0.0 
0.0 -1.962000000000e+01 0.0 
0.0 -1.962000000000e+01 0.0 
0.0 -1.962000000000e+01 0.0 
0.0 -1.962000000000e+01 0.0 
0.0 -1.962000000000e+01 0.0 
0.0 -1.962000000000e+01 0.0 
0.0 -1.962000000000e+01 0.0 
0.0 -1.962000000000e+01 0.0 
0.0 -1.962000000000e+01 0.0 
0.0 -1.962000000000e+01 0.0 
0.0 -1.962000000000e+01 0.0 
0.0 -1.962000000000e+01 0.0 
0.0 -1.962000000000e+01 0.0 
0.0 -1.962000000000e+01 0.0 
0.0 -1.962000000000e+01 0.0 
0.0 -1.962000000000e+01 0.0 
0.0 -1.962000000000e+01 0.0 
0.0 -1.962000000000e+01 0.0 
0.0 -1.962000000000e+01 0.0 
0.0 -1.962000000000e+01 0.0 
0.0 -1.962000000000e+01 0.0 
0.0 -1.962000000000e+01 0.0 
0.0 -1.962000000000e+01 0.0 
0.0 -1.962000000000e+01 0.0 
0.0 -1.962000000000e+01 0.0 
0.0 -1.962000000000e+01 0.0 
0.0 -1.962000000000e+01 0.0 
0.0 -1.962000000000e+01 0.0 
0.0 -1.962000000000e+01 0.0 
0.0 -1.962000000000e+01 0.0 
0.0 -1.962000000000e+01 0.0 
0.0 -1.962000000000e+01 0.0 
0.0 -1.962000000000e+01 0.0 
0.0 -1.962000000000e+01 0.0 
0.0 -1.962000000000e+01 0.0 
0.0 -1.962000000000e+01 0.0 
0.0 -1.962000000000e+01 0.0 
0.0 -1.962000000000e+01 0.0 
0.0 -1.962000000000e+01 0.0 
0.0 -1.962000000000e+01 0.0 
0.0 -1.962000000000e+01 0.0 
0.0 -1.962000000000e+01 0.0 
0.0 -1.962000000000e+01 0.0 
0.0 -1.962000000000e+01 0.0 
0.0 -1.962000000000e+01 0.0 
0.0 -1.962000000000e+01 0.0 
0.0 -1.962000000000e+01 0.0 
0.0 -1.962000000000e+01 0.0 
0.0 -1.962000000000e+01 0.0 
0.0 -1.962000000000e+01 0.0 
0.0 -1.962000000000e+01 0.0 
0.0 -1.962000000000e+01 0.0 
0.0 -1.962000000000e+01 0.0 
0.0 -1.962000000000e+01 0.0 
0.0 -1.962000000000e+01 0.0 
0.0 -1.962000000000e+01 0.0 
0.0 -1.962000000000e+01 0.0 
0.0 -1.962000000000e+01 0.0 
0.0 -1.962000000000e+01 0.0 
0.0 -1.962000000000e+01 0.0 
0.0 -1.962000000000e+01 0.0 
0.0 -1.962000000000e+01 0.0 
0.0 -1.962000000000e+01 0.0 
0.0 -1.962000000000e+01 0.0 
0.0 -1.962000000000e+01 0.0 
0.0 -1.962000000000e+01 0.0 
0.0 -1.962000000000e+01 0.0 
0.0 -1.962000000000e+01 0.0 
0.0 -1.962000000000e+01 0.0 
0.0 -1.962000000000e+01 0.0 
0.0 -1.962000000000e+01 0.0 
0.0 -1.962000000000e+01 0.0 
0.0 -1.962000000000e+01 0.0 
0.0 -1.962000000000e+01 0.0 
0.0 -1.962000000000e+01 0.0 
0.0 -1.962000000000e+01 0.0 
0.0 -1.962000000000e+01 0.0 
0.0 -1.962000000000e+01 0.0 
0.0 -1.962000000000e+01 0.0 
0.0 -1.962000000000e+01 0.0 
0.0 -1.962000000000e+01 0.0 
0.0 -1.962000000000e+01 0.0 
0.0 -1.962000000000e+01 0.0 
0.0 -1.962000000000e+01 0.0 
0.0 -1.962000000000e+01 0.0 
0.0 -1.962000000000e+01 0.0 
0.0 -1.962000000000e+01 0.0 
0.0 -1.962000000000e+01 0.0 
0.0 -1.962000000000e+01 0.0 
0.0 -1.962000000000e+01 0.0 
0.0 -1.962000000000e+01 0.0 
0.0 -1.962000000000e+01 0.0 
0.0 -1.962000000000e+01 0.0 
0.0 -1.962000000000e+01 0.0 
0.0 -1.962000000000e+01 0.0 
0.0 -1.962000000000e+01 0.0 
0.0 -1.962000000000e+01 0.0 
0.0 -1.962000000000e+01 0.0 
0.0 -1.962000000000e+01 0.0 
0.0 -1.962000000000e+01 0.0 
0.0 -1.962000000000e+01 0.0 
0.0 -1.962000000000e+01 0.0 
0.0 -1.962000000000e+01 0.0 
0.0 -1.962000000000e+01 0.0 
0.0 -1.962000000000e+01 0.0 
0.0 -1.962000000000e+01 0.0 
0.0 -1.962000000000e+01 0.0 
0.0 -1.962000000000e+01 0.0 
0.0 -1.962000000000e+01 0.0 
0.0 -1.962000000000e+01 0.0 
0.0 -1.962000000000e+01 0.0 
0.0 -1.962000000000e+01 0.0 
0.0 -1.962000000000e+01 0.0 
0.0 -1.962000000000e+01 0.0 
0.0 -1.962000000000e+01 0.0 
0.0 -1.962000000000e+01 0.0 
0.0 -1.962000000000e+01 0.0 
0.0 -1.962000000000e+01 0.0 
0.0 -1.962000000000e+01 0.0 
0.0 -1.962000000000e+01 0.0 
0.0 -1.962000000000e+01 0.0 
0.0 -1.962000000000e+01 0.0 
0.0 -1.962000000000e+01 0.0 
0.0 -1.962000000000e+01 0.0 
0.0 -1.962000000000e+01 0.0 
0.0 -1.962000000000e+01 0.0 
0.0 -1.962000000000e+01 0.0 
0.0 -1.962000000000e+01 0.0 
0.0 -1.962000000000e+01 0.0 
0.0 -1.962000000000e+01 0.0 
0.0 -1.962000000000e+01 0.0 
0.0 -1.962000000000e+01 0.0 
0.0 -1.962000000000e+01 0.0 
0.0 -1.962000000000e+01 0.0 
0.0 -1.962000000000e+01 0.0 
0.0 -1.962000000000e+01 0.0 
0.0 -1.962000000000e+01 0.0 
0.0 -1.962000000000e+01 0.0 
0.0 -1.962000000000e+01 0.0 
0.0 -1.962000000000e+01 0.0 
0.0 -1.962000000000e+01 0.0 
0.0 -1.962000000000e+01 0.0 
0.0 -1.962000000000e+01 0.0 
0.0 -1.962000000000e+01 0.0 
0.0 -1.962000000000e+01 0.0 
0.0 -1.962000000000e+01 0.0 
0.0 -1.962000000000e+01 0.0 
0.0 -1.962000000000e+01 0.0 
0.0 -1.962000000000e+01 0.0 
0.0 -1.962000000000e+01 0.0 
0.0 -1.962000000000e+01 0.0 
0.0 -1.962000000000e+01 0.0 
0.0 -1.962000000000e+01 0.0 
0.0 -1.962000000000e+01 0.0 
0.0 -1.962000000000e+01 0.0 
0.0 -1.962000000000e+01 0.0 
0.0 -1.962000000000e+01 0.0 
0.0 -1.962000000000e+01 0.0 
0.0 -1.962000000000e+01 0.0 
0.0 -1.962000000000e+01 0.0 
0.0 -1.962000000000e+01 0.0 
0.0 -1.962000000000e+01 0.0 
0.0 -1.962000000000e+01 0.0 
0.0 -1.962000000000e+01 0.0 
0.0 -1.962000000000e+01 0.0 
0.0 -1.962000000000e+01 0.0 
0.0 -1.962000000000e+01 0.0 
0.0 -1.962000000000e+01 0.0 
0.0 -1.962000000000e+01 0.0 
0.0 -1.962000000000e+01 0.0 
0.0 -1.962000000000e+01 0.0 
0.0 -1.962000000000e+01 0.0 
0.0 -1.962000000000e+01 0.0 
0.0 -1.962000000000e+01 0.0 
0.0 -1.962000000000e+01 0.0 
0.0 -1.962000000000e+01 0.0 
0.0 -1.962000000000e+01 0.0 
0.0 -1.962000000000e+01 0.0 
0.0 -1.962000000000e+01 0.0 
0.0 -1.962000000000e+01 0.0 
0.0 -1.962000000000e+01 0.0 
0.0 -1.962000000000e+01 0.0 
0.0 -1.962000000000e+01 0.0 
0.0 -1.962000000000e+01 0.0 
0.0 -1.962000000000e+01 0.0 
0.0 -1.962000000000e+01 0.0 
0.0 -1.962000000000e+01 0.0 
0.0 -1.962000000000e+01 0.0 
0.0 -1.962000000000e+01 0.0 
0.0 -1.962000000000e+01 0.0 
0.0 -1.962000000000e+01 0.0 
0.0 -1.962000000000e+01 0.0 
0.0 -1.962000000000e+01 0.0 
0.0 -1.962000000000e+01 0.0 
0.0 -1.962000000000e+01 0.0 
0.0 -1.962000000000e+01 0.0 
0.0 -1.962000000000e+01 0.0 
0.0 -1.962000000000e+01 0.0 
0.0 -1.962000000000e+01 0.0 
0.0 -1.962000000000e+01 0.0 
0.0 -1.962000000000e+01 0.0 
0.0 -1.962000000000e+01 0.0 
0.0 -1.962000000000e+01 0.0 
0.0 -1.962000000000e+01 0.0 
0.0 -1.962000000000e+01 0.0 
0.0 -1.962000000000e+01 0.0 
0.0 -1.962000000000e+01 0.0 
0.0 -1.962000000000e+01 0.0 
0.0 -1.962000000000e+01 0.0 
0.0 -1.962000000000e+01 0.0 
0.0 -1.962000000000e+01 0.0 
0.0 -1.962000000000e+01 0.0 
0.0 -1.962000000000e+01 0.0 
0.0 -1.962000000000e+01 0.0 
0.0 -1.962000000000e+01 0.0 
0.0 -1.962000000000e+01 0.0 
0.0 -1.962000000000e+01 0.0 
0.0 -1.962000000000e+01 0.0 
0.0 -1.962000000000e+01 0.0 
0.0 -1.962000000000e+01 0.0 
0.0 -1.962000000000e+01 0.0 
0.0 -1.962000000000e+01 0.0 
0.0 -1.962000000000e+01 0.0 
0.0 -1.962000000000e+01 0.0 
0.0 -1.962000000000e+01 0.0 
0.0 -1.962000000000e+01 0.0 
0.0 -1.962000000000e+01 0.0 
0.0 -1.962000000000e+01 0.0 
0.0 -1.962000000000e+01 0.0 
0.0 -1.962000000000e+01 0.0 
0.0 -1.962000000000e+01 0.0 
0.0 -1.962000000000e+01 0.0 
0.0 -1.962000000000e+01 0.0 
0.0 -1.962000000000e+01 0.0 
0.0 -1.962000000000e+01 0.0 
0.0 -1.962000000000e+01 0.0 
0.0 -1.962000000000e+01 0.0 
0.0 -1.962000000000e+01 0.0 
0.0 -1.962000000000e+01 0.0 
0.0 -1.962000000000e+01 0.0 
0.0 -1.962000000000e+01 0.0 
0.0 -1.962000000000e+01 0.0 
0.0 -1.962000000000e+01 0.0 
0.0 -1.962000000000e+01 0.0 
0.0 -1.962000000000e+01 0.0 
0.0 -1.962000000000e+01 0.0 
0.0 -1.962000000000e+01 0.0 
0.0 -1.962000000000e+01 0.0 
0.0 -1.962000000000e+01 0.0 
0.0 -1.962000000000e+01 0.0 
0.0 -1.962000000000e+01 0.0 
0.0 -1.962000000000e+01 0.0 
0.0 -1.962000000000e+01 0.0 
0.0 -1.962000000000e+01 0.0 
0.0 -1.962000000000e+01 0.0 
0.0 -1.962000000000e+01 0.0 
0.0 -1.962000000000e+01 0.0 
0.0 -1.962000000000e+01 0.0 
0.0 -1.962000000000e+01 0.0 
0.0 -1.962000000000e+01 0.0 
0.0 -1.962000000000e+01 0.0 
0.0 -1.962000000000e+01 0.0 
0.0 -1.962000000000e+01 0.0 
0.0 -1.962000000000e+01 0.0 
0.0 -1.962000000000e+01 0.0 
0.0 -1.962000000000e+01 0.0 
0.0 -1.962000000000e+01 0.0 
0.0 -1.962000000000e+01 0.0 
0.0 -1.962000000000e+01 0.0 
0.0 -1.962000000000e+01 0.0 
0.0 -1.962000000000e+01 0.0 
0.0 -1.962000000000e+01 0.0 
0.0 -1.962000000000e+01 0.0 
0.0 -1.962000000000e+01 0.0 
0.0 -1.962000000000e+01 0.0 
0.0 -1.962000000000e+01 0.0 
0.0 -1.962000000000e+01 0.0 
0.0 -1.962000000000e+01 0.0 
0.0 -1.962000000000e+01 0.0 
0.0 -1.962000000000e+01 0.0 
0.0 -1.962000000000e+01 0.0 
0.0 -1.962000000000e+01 0.0 
0.0 -1.962000000000e+01 0.0 
0.0 -1.962000000000e+01 0.0 
0.0 -1.962000000000e+01 0.0 
0.0 -1.962000000000e+01 0.0 
0.0 -1.962000000000e+01 0.0 
0.0 -1.962000000000e+01 0.0 
0.0 -1.962000000000e+01 0.0 
0.0 -1.962000000000e+01 0.0 
0.0 -1.962000000000e+01 0.0 
0.0 -1.962000000000e+01 0.0 
0.0 -1.962000000000e+01 0.0 
0.0 -1.962000000000e+01 0.0 
0.0 -1.962000000000e+01 0.0 
0.0 -1.962000000000e+01 0.0 
0.0 -1.962000000000e+01 0.0 
0.0 -1.962000000000e+01 0.0 
0.0 -1.962000000000e+01 0.0 
0.0 -1.962000000000e+01 0.0 
0.0 -1.962000000000e+01 0.0 
0.0 -1.962000000000e+01 0.0 
0.0 -1.962000000000e+01 0.0 
0.0 -1.962000000000e+01 0.0 
0.0 -1.962000000000e+01 0.0 
0.0 -1.962000000000e+01 0.0 
0.0 -1.962000000000e+01 0.0 
0.0 -1.962000000000e+01 0.0 
0.0 -1.962000000000e+01 0.0 
0.0 -1.962000000000e+01 0.0 
0.0 -1.962000000000e+01 0.0 
0.0 -1.962000000000e+01 0.0 
0.0 -1.962000000000e+01 0.0 
0.0 -1.962000000000e+01 0.0 
0.0 -1.962000000000e+01 0.0 
0.0 -1.962000000000e+01 0.0 
0.0 -1.962000000000e+01 0.0 
0.0 -1.962000000000e+01 0.0 
0.0 -1.962000000000e+01 0.0 
0.0 -1.962000000000e+01 0.0 
0.0 -1.962000000000e+01 0.0 
0.0 -1.962000000000e+01 0.0 
0.0 -1.962000000000e+01 0.0 
0.0 -1.962000000000e+01 0.0 
0.0 -1.962000000000e+01 0.0 
0.0 -1.962000000000e+01 0.0 
0.0 -1.962000000000e+01 0.0 
0.0 -1.962000000000e+01 0.0 
0.0 -1.962000000000e+01 0.0 
0.0 -1.962000000000e+01 0.0 
0.0 -1.962000000000e+01 0.0 
0.0 -1.962000000000e+01 0.0 
0.0 -1.962000000000e+01 0.0 
0.0 -1.962000000000e+01 0.0 
0.0 -1.962000000000e+01 0.0 
0.0 -1.962000000000e+01 0.0 
0.0 -1.962000000000e+01 0.0 
0.0 -1.962000000000e+01 0.0 
0.0 -1.962000000000e+01 0.0 
0.0 -1.962000000000e+01 0.0 
0.0 -1.962000000000e+01 0.0 
0.0 -1.962000000000e+01 0.0 
0.0 -1.962000000000e+01 0.0 
0.0 -1.962000000000e+01 0.0 
0.0 -1.962000000000e+01 0.0 
0.0 -1.962000000000e+01 0.0 
0.0 -1.962000000000e+01 0.0 
0.0 -1.962000000000e+01 0.0 
0.0 -1.962000000000e+01 0.0 
0.0 -1.962000000000e+01 0.0 
0.0 -1.962000000000e+01 0.0 
0.0 -1.962000000000e+01 0.0 
0.0 -1.962000000000e+01 0.0 
0.0 -1.962000000000e+01 0.0 
0.0 -1.962000000000e+01 0.0 
0.0 -1.962000000000e+01 0.0 
0.0 -1.962000000000e+01 0.0 
0.0 -1.962000000000e+01 0.0 
0.0 -1.962000000000e+01 0.0 
0.0 -1.962000000000e+01 0.0 
0.0 -1.962000000000e+01 0.0 
0.0 -1.962000000000e+01 0.0 
0.0 -1.962000000000e+01 0.0 
0.0 -1.962000000000e+01 0.0 
0.0 -1.962000000000e+01 0.0 
0.0 -1.962000000000e+01 0.0 
0.0 -1.962000000000e+01 0.0 
0.0 -1.962000000000e+01 0.0 
0.0 -1.962000000000e+01 0.0 
0.0 -1.962000000000e+01 0.0 
0.0 -1.962000000000e+01 0.0 
0.0 -1.962000000000e+01 0.0 
0.0 -1.962000000000e+01 0.0 
0.0 -1.962000000000e+01 0.0 
0.0 -1.962000000000e+01 0.0 
0.0 -1.962000000000e+01 0.0 
0.0 -1.962000000000e+01 0.0 
0.0 -1.962000000000e+01 0.0 
0.0 -1.962000000000e+01 0.0 
0.0 -1.962000000000e+01 0.0 
0.0 -1.962000000000e+01 0.0 
0.0 -1.962000000000e+01 0.0 
0.0 -1.962000000000e+01 0.0 
0.0 -1.962000000000e+01 0.0 
0.0 -1.962000000000e+01 0.0 
0.0 -1.962000000000e+01 0.0 
0.0 -1.962000000000e+01 0.0 
0.0 -1.962000000000e+01 0.0 
0.0 -1.962000000000e+01 0.0 
0.0 -1.962000000000e+01 0.0 
0.0 -1.962000000000e+01 0.0 
0.0 -1.962000000000e+01 0.0 
0.0 -1.962000000000e+01 0.0 
0.0 -1.962000000000e+01 0.0 
0.0 -1.962000000000e+01 0.0 
0.0 -1.962000000000e+01 0.0 
0.0 -1.962000000000e+01 0.0 
0.0 -1.962000000000e+01 0.0 
0.0 -1.962000000000e+01 0.0 
0.0 -1.962000000000e+01 0.0 
0.0 -1.962000000000e+01 0.0 
0.0 -1.962000000000e+01 0.0 
0.0 -1.962000000000e+01 0.0 
0.0 -1.962000000000e+01 0.0 
0.0 -1.962000000000e+01 0.0 
0.0 -1.962000000000e+01 0.0 
0.0 -1.962000000000e+01 0.0 
0.0 -1.962000000000e+01 0.0 
0.0 -1.962000000000e+01 0.0 
0.0 -1.962000000000e+01 0.0 
0.0 -1.962000000000e+01 0.0 
0.0 -1.962000000000e+01 0.0 
0.0 -1.962000000000e+01 0.0 
0.0 -1.962000000000e+01 0.0 
0.0 -1.962000000000e+01 0.0 
0.0 -1.962000000000e+01 0.0 
0.0 -1.962000000000e+01 0.0 
0.0 -1.962000000000e+01 0.0 
0.0 -1.962000000000e+01 0.0 
0.0 -1.962000000000e+01 0.0 

VECTORS node_rhside_materi_fixed float
-1.560876107823e+00 0.0 0.0 
8.336118011425e+01 0.0 0.0 
-8.233286888169e+01 -1.964161129250e+02 0.0 
8.234984036310e+01 -1.964439021524e+02 0.0 
-7.892827535271e+00 0.0 0.0 
-1.664132242436e+01 0.0 0.0 
-2.410555556433e+01 0.0 0.0 
-3.326120703990e+01 0.0 0.0 
-4.146034587975e+01 0.0 0.0 
-4.990552728872e+01 0.0 0.0 
-5.833753542941e+01 0.0 0.0 
-6.673204751796e+01 0.0 0.0 
-7.508504222066e+01 0.0 0.0 
-8.334045494223e+01 0.0 0.0 
-9.201229944295e+01 0.0 0.0 
-1.005654648940e+02 0.0 0.0 
-1.085943586962e+02 0.0 0.0 
-1.171826644917e+02 0.0 0.0 
-1.256052039103e+02 0.0 0.0 
-1.340125342765e+02 0.0 0.0 
-1.424134986597e+02 0.0 0.0 
-1.507752122898e+02 0.0 0.0 
-1.596587308297e+02 0.0 0.0 
-1.039185460849e-01 -3.918975556079e+02 0.0 
-2.991712261159e-01 -3.928836966480e+02 0.0 
6.563830796777e-01 -3.921381894381e+02 0.0 
-5.141861604158e-01 -3.922247380346e+02 0.0 
1.594399775267e-01 -3.926968551422e+02 0.0 
1.233818552078e-01 -3.921216972782e+02 0.0 
-9.226262442975e-02 -3.924455890458e+02 0.0 
-9.198324659351e-03 -3.927387500949e+02 0.0 
5.067601420415e-01 -3.920972914154e+02 0.0 
-4.589412073602e-01 -3.922515883785e+02 0.0 
1.061916721739e-01 -3.927497543566e+02 0.0 
1.684233273251e-01 -3.921396990837e+02 0.0 
-3.165514383756e-02 -3.925597848983e+02 0.0 
-9.210035381150e-02 -3.923444739636e+02 0.0 
-5.364407078901e-04 -3.922175074106e+02 0.0 
-2.861390686711e-01 -3.925528982640e+02 0.0 
1.586461621415e-01 -3.924609904968e+02 0.0 
1.131943615319e-01 -3.925081418998e+02 0.0 
8.817897516914e-02 -3.924390143715e+02 0.0 
1.020886090042e-01 -3.922063355238e+02 0.0 
-1.926001325823e-01 -3.923132960251e+02 0.0 
4.767117227189e-02 -3.925148492876e+02 0.0 
-6.734326137089e-02 -3.923647066244e+02 0.0 
2.614997165207e-02 -3.923264350315e+02 0.0 
6.580696547891e-02 -3.925873611946e+02 0.0 
5.119255851247e-02 -3.923786405375e+02 0.0 
5.448822261383e-02 -3.922211799017e+02 0.0 
3.263961779822e-03 -3.923572657724e+02 0.0 
-2.993221227871e-02 -3.926131756433e+02 0.0 
4.570940218297e-01 -3.923538344267e+02 0.0 
-4.593739521031e-01 -3.920502218122e+02 0.0 
-1.237147198261e-01 -3.927957919415e+02 0.0 
4.204817221188e-02 -3.922803426891e+02 0.0 
1.308998471239e-01 -3.925062239193e+02 0.0 
-4.377453433422e-02 -3.924433672223e+02 0.0 
1.174910651437e-01 -3.922338012551e+02 0.0 
-2.750268486703e-02 -3.925143996100e+02 0.0 
-8.607419965470e-02 -3.923121809852e+02 0.0 
-2.048066353969e-02 -3.923485134952e+02 0.0 
-1.367712752408e-01 -3.927299376025e+02 0.0 
3.336850952669e-01 -3.923630443508e+02 0.0 
2.842603048141e-02 -3.923413374696e+02 0.0 
8.783262815216e-02 -3.920908498252e+02 0.0 
-1.786661274178e-02 -3.928629605566e+02 0.0 
-1.856729360559e-01 -3.920677118097e+02 0.0 
-1.980007667132e-01 -3.927855137520e+02 0.0 
5.302435312814e-01 -3.920920092326e+02 0.0 
-1.939199532741e-01 -3.923991244981e+02 0.0 
6.888288442050e-02 -3.922173570984e+02 0.0 
9.145730337972e+01 0.0 0.0 
1.002879245964e+02 0.0 0.0 
1.086879163609e+02 0.0 0.0 
1.169870800257e+02 0.0 0.0 
1.253938845294e+02 0.0 0.0 
1.341276976764e+02 0.0 0.0 
1.424670556403e+02 0.0 0.0 
1.505394772197e+02 0.0 0.0 
1.597392395655e+02 0.0 0.0 
0.0 0.0 0.0 
1.565659627334e+00 0.0 0.0 
0.0 0.0 0.0 
0.0 0.0 0.0 
0.0 0.0 0.0 
0.0 0.0 0.0 
0.0 0.0 0.0 
0.0 0.0 0.0 
0.0 0.0 0.0 
0.0 0.0 0.0 
0.0 0.0 0.0 
0.0 0.0 0.0 
8.400883341868e+00 0.0 0.0 
1.645387837811e+01 0.0 0.0 
2.471273523917e+01 0.0 0.0 
3.305532752877e+01 0.0 0.0 
4.145017058408e+01 0.0 0.0 
4.985057654582e+01 0.0 0.0 
5.825439452592e+01 0.0 0.0 
6.667926983136e+01 0.0 0.0 
7.509735595981e+01 0.0 0.0 
0.0 0.0 0.0 
0.0 0.0 0.0 
0.0 0.0 0.0 
0.0 0.0 0.0 
0.0 0.0 0.0 
0.0 0.0 0.0 
0.0 0.0 0.0 
0.0 0.0 0.0 
0.0 0.0 0.0 
0.0 0.0 0.0 
0.0 0.0 0.0 
0.0 0.0 0.0 
0.0 0.0 0.0 
0.0 0.0 0.0 
0.0 0.0 0.0 
0.0 0.0 0.0 
0.0 0.0 0.0 
0.0 0.0 0.0 
0.0 0.0 0.0 
0.0 0.0 0.0 
0.0 0.0 0.0 
0.0 0.0 0.0 
0.0 0.0 0.0 
0.0 0.0 0.0 
0.0 0.0 0.0 
0.0 0.0 0.0 
0.0 0.0 0.0 
0.0 0.0 0.0 
0.0 0.0 0.0 
0.0 0.0 0.0 
0.0 0.0 0.0 
0.0 0.0 0.0 
0.0 0.0 0.0 
0.0 0.0 0.0 
0.0 0.0 0.0 
0.0 0.0 0.0 
0.0 0.0 0.0 
0.0 0.0 0.0 
0.0 0.0 0.0 
0.0 0.0 0.0 
0.0 0.0 0.0 
0.0 0.0 0.0 
0.0 0.0 0.0 
0.0 0.0 0.0 
0.0 0.0 0.0 
0.0 0.0 0.0 
0.0 0.0 0.0 
0.0 0.0 0.0 
0.0 0.0 0.0 
0.0 0.0 0.0 
0.0 0.0 0.0 
0.0 0.0 0.0 
0.0 0.0 0.0 
0.0 0.0 0.0 
0.0 0.0 0.0 
0.0 0.0 0.0 
0.0 0.0 0.0 
0.0 0.0 0.0 
0.0 0.0 0.0 
0.0 0.0 0.0 
0.0 0.0 0.0 
0.0 0.0 0.0 
0.0 0.0 0.0 
0.0 0.0 0.0 
0.0 0.0 0.0 
0.0 0.0 0.0 
0.0 0.0 0.0 
0.0 0.0 0.0 
0.0 0.0 0.0 
0.0 0.0 0.0 
0.0 0.0 0.0 
0.0 0.0 0.0 
0.0 0.0 0.0 
0.0 0.0 0.0 
0.0 0.0 0.0 
0.0 0.0 0.0 
0.0 0.0 0.0 
0.0 0.0 0.0 
0.0 0.0 0.0 
0.0 0.0 0.0 
0.0 0.0 0.0 
0.0 0.0 0.0 
0.0 0.0 0.0 
0.0 0.0 0.0 
0.0 0.0 0.0 
0.0 0.0 0.0 
0.0 0.0 0.0 
0.0 0.0 0.0 
0.0 0.0 0.0 
0.0 0.0 0.0 
0.0 0.0 0.0 
0.0 0.0 0.0 
0.0 0.0 0.0 
0.0 0.0 0.0 
0.0 0.0 0.0 
0.0 0.0 0.0 
0.0 0.0 0.0 
0.0 0.0 0.0 
0.0 0.0 0.0 
0.0 0.0 0.0 
0.0 0.0 0.0 
0.0 0.0 0.0 
0.0 0.0 0.0 
0.0 0.0 0.0 
0.0 0.0 0.0 
0.0 0.0 0.0 
0.0 0.0 0.0 
0.0 0.0 0.0 
0.0 0.0 0.0 
0.0 0.0 0.0 
0.0 0.0 0.0 
0.0 0.0 0.0 
0.0 0.0 0.0 
0.0 0.0 0.0 
0.0 0.0 0.0 
0.0 0.0 0.0 
0.0 0.0 0.0 
0.0 0.0 0.0 
0.0 0.0 0.0 
0.0 0.0 0.0 
0.0 0.0 0.0 
0.0 0.0 0.0 
0.0 0.0 0.0 
0.0 0.0 0.0 
0.0 0.0 0.0 
0.0 0.0 0.0 
0.0 0.0 0.0 
0.0 0.0 0.0 
0.0 0.0 0.0 
0.0 0.0 0.0 
0.0 0.0 0.0 
0.0 0.0 0.0 
0.0 0.0 0.0 
0.0 0.0 0.0 
0.0 0.0 0.0 
0.0 0.0 0.0 
0.0 0.0 0.0 
0.0 0.0 0.0 
0.0 0.0 0.0 
0.0 0.0 0.0 
0.0 0.0 0.0 
0.0 0.0 0.0 
0.0 0.0 0.0 
0.0 0.0 0.0 
0.0 0.0 0.0 
0.0 0.0 0.0 
0.0 0.0 0.0 
0.0 0.0 0.0 
0.0 0.0 0.0 
0.0 0.0 0.0 
0.0 0.0 0.0 
0.0 0.0 0.0 
0.0 0.0 0.0 
0.0 0.0 0.0 
0.0 0.0 0.0 
0.0 0.0 0.0 
0.0 0.0 0.0 
0.0 0.0 0.0 
0.0 0.0 0.0 
0.0 0.0 0.0 
0.0 0.0 0.0 
0.0 0.0 0.0 
0.0 0.0 0.0 
0.0 0.0 0.0 
0.0 0.0 0.0 
0.0 0.0 0.0 
0.0 0.0 0.0 
0.0 0.0 0.0 
0.0 0.0 0.0 
0.0 0.0 0.0 
0.0 0.0 0.0 
0.0 0.0 0.0 
0.0 0.0 0.0 
0.0 0.0 0.0 
0.0 0.0 0.0 
0.0 0.0 0.0 
0.0 0.0 0.0 
0.0 0.0 0.0 
0.0 0.0 0.0 
0.0 0.0 0.0 
0.0 0.0 0.0 
0.0 0.0 0.0 
0.0 0.0 0.0 
0.0 0.0 0.0 
0.0 0.0 0.0 
0.0 0.0 0.0 
0.0 0.0 0.0 
0.0 0.0 0.0 
0.0 0.0 0.0 
0.0 0.0 0.0 
0.0 0.0 0.0 
0.0 0.0 0.0 
0.0 0.0 0.0 
0.0 0.0 0.0 
0.0 0.0 0.0 
0.0 0.0 0.0 
0.0 0.0 0.0 
0.0 0.0 0.0 
0.0 0.0 0.0 
0.0 0.0 0.0 
0.0 0.0 0.0 
0.0 0.0 0.0 
0.0 0.0 0.0 
0.0 0.0 0.0 
0.0 0.0 0.0 
0.0 0.0 0.0 
0.0 0.0 0.0 
0.0 0.0 0.0 
0.0 0.0 0.0 
0.0 0.0 0.0 
0.0 0.0 0.0 
0.0 0.0 0.0 
0.0 0.0 0.0 
0.0 0.0 0.0 
0.0 0.0 0.0 
0.0 0.0 0.0 
0.0 0.0 0.0 
0.0 0.0 0.0 
0.0 0.0 0.0 
0.0 0.0 0.0 
0.0 0.0 0.0 
0.0 0.0 0.0 
0.0 0.0 0.0 
0.0 0.0 0.0 
0.0 0.0 0.0 
0.0 0.0 0.0 
0.0 0.0 0.0 
0.0 0.0 0.0 
0.0 0.0 0.0 
0.0 0.0 0.0 
0.0 0.0 0.0 
0.0 0.0 0.0 
0.0 0.0 0.0 
0.0 0.0 0.0 
0.0 0.0 0.0 
0.0 0.0 0.0 
0.0 0.0 0.0 
0.0 0.0 0.0 
0.0 0.0 0.0 
0.0 0.0 0.0 
0.0 0.0 0.0 
0.0 0.0 0.0 
0.0 0.0 0.0 
0.0 0.0 0.0 
0.0 0.0 0.0 
0.0 0.0 0.0 
0.0 0.0 0.0 
0.0 0.0 0.0 
0.0 0.0 0.0 
0.0 0.0 0.0 
0.0 0.0 0.0 
0.0 0.0 0.0 
0.0 0.0 0.0 
0.0 0.0 0.0 
0.0 0.0 0.0 
0.0 0.0 0.0 
0.0 0.0 0.0 
0.0 0.0 0.0 
0.0 0.0 0.0 
0.0 0.0 0.0 
0.0 0.0 0.0 
0.0 0.0 0.0 
0.0 0.0 0.0 
0.0 0.0 0.0 
0.0 0.0 0.0 
0.0 0.0 0.0 
0.0 0.0 0.0 
0.0 0.0 0.0 
0.0 0.0 0.0 
0.0 0.0 0.0 
0.0 0.0 0.0 
0.0 0.0 0.0 
0.0 0.0 0.0 
0.0 0.0 0.0 
0.0 0.0 0.0 
0.0 0.0 0.0 
0.0 0.0 0.0 
0.0 0.0 0.0 
0.0 0.0 0.0 
0.0 0.0 0.0 
0.0 0.0 0.0 
0.0 0.0 0.0 
0.0 0.0 0.0 
0.0 0.0 0.0 
0.0 0.0 0.0 
0.0 0.0 0.0 
0.0 0.0 0.0 
0.0 0.0 0.0 
0.0 0.0 0.0 
0.0 0.0 0.0 
0.0 0.0 0.0 
0.0 0.0 0.0 
0.0 0.0 0.0 
0.0 0.0 0.0 
0.0 0.0 0.0 
0.0 0.0 0.0 
0.0 0.0 0.0 
0.0 0.0 0.0 
0.0 0.0 0.0 
0.0 0.0 0.0 
0.0 0.0 0.0 
0.0 0.0 0.0 
0.0 0.0 0.0 
0.0 0.0 0.0 
0.0 0.0 0.0 
0.0 0.0 0.0 
0.0 0.0 0.0 
0.0 0.0 0.0 
0.0 0.0 0.0 
0.0 0.0 0.0 
0.0 0.0 0.0 
0.0 0.0 0.0 
0.0 0.0 0.0 
0.0 0.0 0.0 
0.0 0.0 0.0 
0.0 0.0 0.0 
0.0 0.0 0.0 
0.0 0.0 0.0 
0.0 0.0 0.0 
0.0 0.0 0.0 
0.0 0.0 0.0 
0.0 0.0 0.0 
0.0 0.0 0.0 
0.0 0.0 0.0 
0.0 0.0 0.0 
0.0 0.0 0.0 
0.0 0.0 0.0 
0.0 0.0 0.0 
0.0 0.0 0.0 
0.0 0.0 0.0 
0.0 0.0 0.0 
0.0 0.0 0.0 
0.0 0.0 0.0 
0.0 0.0 0.0 
0.0 0.0 0.0 
0.0 0.0 0.0 
0.0 0.0 0.0 
0.0 0.0 0.0 
0.0 0.0 0.0 
0.0 0.0 0.0 
0.0 0.0 0.0 
0.0 0.0 0.0 
0.0 0.0 0.0 
0.0 0.0 0.0 
0.0 0.0 0.0 
0.0 0.0 0.0 
0.0 0.0 0.0 
0.0 0.0 0.0 
0.0 0.0 0.0 
0.0 0.0 0.0 
0.0 0.0 0.0 
0.0 0.0 0.0 
0.0 0.0 0.0 
0.0 0.0 0.0 
0.0 0.0 0.0 
0.0 0.0 0.0 
0.0 0.0 0.0 
0.0 0.0 0.0 
0.0 0.0 0.0 
0.0 0.0 0.0 
0.0 0.0 0.0 
0.0 0.0 0.0 
0.0 0.0 0.0 
0.0 0.0 0.0 
0.0 0.0 0.0 
0.0 0.0 0.0 
0.0 0.0 0.0 
0.0 0.0 0.0 
0.0 0.0 0.0 
0.0 0.0 0.0 
0.0 0.0 0.0 
0.0 0.0 0.0 
0.0 0.0 0.0 
0.0 0.0 0.0 
0.0 0.0 0.0 
0.0 0.0 0.0 
0.0 0.0 0.0 
0.0 0.0 0.0 
0.0 0.0 0.0 
0.0 0.0 0.0 
0.0 0.0 0.0 
0.0 0.0 0.0 
0.0 0.0 0.0 
0.0 0.0 0.0 
0.0 0.0 0.0 
0.0 0.0 0.0 
0.0 0.0 0.0 
0.0 0.0 0.0 
0.0 0.0 0.0 
0.0 0.0 0.0 
0.0 0.0 0.0 
0.0 0.0 0.0 
0.0 0.0 0.0 
0.0 0.0 0.0 
0.0 0.0 0.0 
0.0 0.0 0.0 
0.0 0.0 0.0 
0.0 0.0 0.0 
0.0 0.0 0.0 
0.0 0.0 0.0 
0.0 0.0 0.0 
0.0 0.0 0.0 
0.0 0.0 0.0 
0.0 0.0 0.0 
0.0 0.0 0.0 
0.0 0.0 0.0 
0.0 0.0 0.0 
0.0 0.0 0.0 
0.0 0.0 0.0 
0.0 0.0 0.0 
0.0 0.0 0.0 
0.0 0.0 0.0 
0.0 0.0 0.0 
0.0 0.0 0.0 
0.0 0.0 0.0 
0.0 0.0 0.0 
0.0 0.0 0.0 
0.0 0.0 0.0 
0.0 0.0 0.0 
0.0 0.0 0.0 
0.0 0.0 0.0 
0.0 0.0 0.0 
0.0 0.0 0.0 
0.0 0.0 0.0 
0.0 0.0 0.0 
0.0 0.0 0.0 
0.0 0.0 0.0 
0.0 0.0 0.0 
0.0 0.0 0.0 
0.0 0.0 0.0 
0.0 0.0 0.0 
0.0 0.0 0.0 
0.0 0.0 0.0 
0.0 0.0 0.0 
0.0 0.0 0.0 
0.0 0.0 0.0 
0.0 0.0 0.0 
0.0 0.0 0.0 
0.0 0.0 0.0 
0.0 0.0 0.0 
0.0 0.0 0.0 
0.0 0.0 0.0 
0.0 0.0 0.0 
0.0 0.0 0.0 
0.0 0.0 0.0 
0.0 0.0 0.0 
0.0 0.0 0.0 
0.0 0.0 0.0 
0.0 0.0 0.0 
0.0 0.0 0.0 
0.0 0.0 0.0 
0.0 0.0 0.0 
0.0 0.0 0.0 
0.0 0.0 0.0 
0.0 0.0 0.0 
0.0 0.0 0.0 
0.0 0.0 0.0 
0.0 0.0 0.0 
0.0 0.0 0.0 
0.0 0.0 0.0 
0.0 0.0 0.0 
0.0 0.0 0.0 
0.0 0.0 0.0 
0.0 0.0 0.0 
0.0 0.0 0.0 
0.0 0.0 0.0 
0.0 0.0 0.0 
0.0 0.0 0.0 
0.0 0.0 0.0 
0.0 0.0 0.0 
0.0 0.0 0.0 
0.0 0.0 0.0 
0.0 0.0 0.0 
0.0 0.0 0.0 
0.0 0.0 0.0 
0.0 0.0 0.0 
0.0 0.0 0.0 
0.0 0.0 0.0 
0.0 0.0 0.0 
0.0 0.0 0.0 
0.0 0.0 0.0 
0.0 0.0 0.0 
0.0 0.0 0.0 
0.0 0.0 0.0 
0.0 0.0 0.0 
0.0 0.0 0.0 
0.0 0.0 0.0 
0.0 0.0 0.0 
0.0 0.0 0.0 
0.0 0.0 0.0 
0.0 0.0 0.0 
0.0 0.0 0.0 
0.0 0.0 0.0 
0.0 0.0 0.0 
0.0 0.0 0.0 
0.0 0.0 0.0 
0.0 0.0 0.0 
0.0 0.0 0.0 
0.0 0.0 0.0 
0.0 0.0 0.0 
0.0 0.0 0.0 
0.0 0.0 0.0 
0.0 0.0 0.0 
0.0 0.0 0.0 
0.0 0.0 0.0 
0.0 0.0 0.0 
0.0 0.0 0.0 
0.0 0.0 0.0 
0.0 0.0 0.0 
0.0 0.0 0.0 
0.0 0.0 0.0 
0.0 0.0 0.0 
0.0 0.0 0.0 
0.0 0.0 0.0 
0.0 0.0 0.0 
0.0 0.0 0.0 
0.0 0.0 0.0 
0.0 0.0 0.0 
0.0 0.0 0.0 
0.0 0.0 0.0 
0.0 0.0 0.0 
0.0 0.0 0.0 
0.0 0.0 0.0 
0.0 0.0 0.0 
0.0 0.0 0.0 
0.0 0.0 0.0 
0.0 0.0 0.0 
0.0 0.0 0.0 
0.0 0.0 0.0 
0.0 0.0 0.0 
0.0 0.0 0.0 
0.0 0.0 0.0 
0.0 0.0 0.0 
0.0 0.0 0.0 
0.0 0.0 0.0 
0.0 0.0 0.0 
0.0 0.0 0.0 
0.0 0.0 0.0 
0.0 0.0 0.0 
0.0 0.0 0.0 
0.0 0.0 0.0 
0.0 0.0 0.0 
0.0 0.0 0.0 
0.0 0.0 0.0 
0.0 0.0 0.0 
0.0 0.0 0.0 
0.0 0.0 0.0 
0.0 0.0 0.0 
0.0 0.0 0.0 
0.0 0.0 0.0 
0.0 0.0 0.0 
0.0 0.0 0.0 
0.0 0.0 0.0 
0.0 0.0 0.0 
0.0 0.0 0.0 
0.0 0.0 0.0 
0.0 0.0 0.0 
0.0 0.0 0.0 
0.0 0.0 0.0 
0.0 0.0 0.0 
0.0 0.0 0.0 
0.0 0.0 0.0 
0.0 0.0 0.0 
0.0 0.0 0.0 
0.0 0.0 0.0 
0.0 0.0 0.0 
0.0 0.0 0.0 
0.0 0.0 0.0 
0.0 0.0 0.0 
0.0 0.0 0.0 
0.0 0.0 0.0 
0.0 0.0 0.0 
0.0 0.0 0.0 
0.0 0.0 0.0 
0.0 0.0 0.0 
0.0 0.0 0.0 
0.0 0.0 0.0 
0.0 0.0 0.0 
0.0 0.0 0.0 
0.0 0.0 0.0 
0.0 0.0 0.0 
0.0 0.0 0.0 
0.0 0.0 0.0 
0.0 0.0 0.0 
0.0 0.0 0.0 
0.0 0.0 0.0 
0.0 0.0 0.0 
0.0 0.0 0.0 
0.0 0.0 0.0 
0.0 0.0 0.0 
0.0 0.0 0.0 
0.0 0.0 0.0 
0.0 0.0 0.0 
0.0 0.0 0.0 
0.0 0.0 0.0 
0.0 0.0 0.0 
0.0 0.0 0.0 
0.0 0.0 0.0 
0.0 0.0 0.0 
0.0 0.0 0.0 
0.0 0.0 0.0 
0.0 0.0 0.0 
0.0 0.0 0.0 
0.0 0.0 0.0 
0.0 0.0 0.0 
0.0 0.0 0.0 
0.0 0.0 0.0 
0.0 0.0 0.0 
0.0 0.0 0.0 
0.0 0.0 0.0 
0.0 0.0 0.0 
0.0 0.0 0.0 
0.0 0.0 0.0 
0.0 0.0 0.0 
0.0 0.0 0.0 
0.0 0.0 0.0 
0.0 0.0 0.0 
0.0 0.0 0.0 
0.0 0.0 0.0 
0.0 0.0 0.0 
0.0 0.0 0.0 
0.0 0.0 0.0 
0.0 0.0 0.0 
0.0 0.0 0.0 
0.0 0.0 0.0 
0.0 0.0 0.0 
0.0 0.0 0.0 
0.0 0.0 0.0 
0.0 0.0 0.0 
0.0 0.0 0.0 
0.0 0.0 0.0 
0.0 0.0 0.0 
0.0 0.0 0.0 
0.0 0.0 0.0 
0.0 0.0 0.0 
0.0 0.0 0.0 
0.0 0.0 0.0 
0.0 0.0 0.0 
0.0 0.0 0.0 
0.0 0.0 0.0 
0.0 0.0 0.0 
0.0 0.0 0.0 
0.0 0.0 0.0 
0.0 0.0 0.0 
0.0 0.0 0.0 
0.0 0.0 0.0 
0.0 0.0 0.0 
0.0 0.0 0.0 
0.0 0.0 0.0 
0.0 0.0 0.0 
0.0 0.0 0.0 
0.0 0.0 0.0 
0.0 0.0 0.0 
0.0 0.0 0.0 
0.0 0.0 0.0 
0.0 0.0 0.0 
0.0 0.0 0.0 
0.0 0.0 0.0 
0.0 0.0 0.0 
0.0 0.0 0.0 
0.0 0.0 0.0 
0.0 0.0 0.0 
0.0 0.0 0.0 
0.0 0.0 0.0 
0.0 0.0 0.0 
0.0 0.0 0.0 
0.0 0.0 0.0 
0.0 0.0 0.0 
0.0 0.0 0.0 
0.0 0.0 0.0 
0.0 0.0 0.0 
0.0 0.0 0.0 
0.0 0.0 0.0 
0.0 0.0 0.0 
0.0 0.0 0.0 
0.0 0.0 0.0 
0.0 0.0 0.0 
0.0 0.0 0.0 
0.0 0.0 0.0 
0.0 0.0 0.0 
0.0 0.0 0.0 
0.0 0.0 0.0 
0.0 0.0 0.0 
0.0 0.0 0.0 
0.0 0.0 0.0 
0.0 0.0 0.0 
0.0 0.0 0.0 
0.0 0.0 0.0 
0.0 0.0 0.0 
0.0 0.0 0.0 
0.0 0.0 0.0 
0.0 0.0 0.0 
0.0 0.0 0.0 
0.0 0.0 0.0 
0.0 0.0 0.0 
0.0 0.0 0.0 
0.0 0.0 0.0 
0.0 0.0 0.0 
0.0 0.0 0.0 
0.0 0.0 0.0 
0.0 0.0 0.0 
0.0 0.0 0.0 
0.0 0.0 0.0 
0.0 0.0 0.0 
0.0 0.0 0.0 
0.0 0.0 0.0 
0.0 0.0 0.0 
0.0 0.0 0.0 
0.0 0.0 0.0 
0.0 0.0 0.0 
0.0 0.0 0.0 
0.0 0.0 0.0 
0.0 0.0 0.0 
0.0 0.0 0.0 
0.0 0.0 0.0 
0.0 0.0 0.0 
0.0 0.0 0.0 
0.0 0.0 0.0 
0.0 0.0 0.0 
0.0 0.0 0.0 
0.0 0.0 0.0 
0.0 0.0 0.0 
0.0 0.0 0.0 
0.0 0.0 0.0 
0.0 0.0 0.0 
0.0 0.0 0.0 
0.0 0.0 0.0 
0.0 0.0 0.0 
0.0 0.0 0.0 
0.0 0.0 0.0 
0.0 0.0 0.0 
0.0 0.0 0.0 
0.0 0.0 0.0 
0.0 0.0 0.0 
0.0 0.0 0.0 
0.0 0.0 0.0 
0.0 0.0 0.0 
0.0 0.0 0.0 
0.0 0.0 0.0 
0.0 0.0 0.0 
0.0 0.0 0.0 
0.0 0.0 0.0 
0.0 0.0 0.0 
0.0 0.0 0.0 
0.0 0.0 0.0 
0.0 0.0 0.0 
0.0 0.0 0.0 
0.0 0.0 0.0 
0.0 0.0 0.0 
0.0 0.0 0.0 
0.0 0.0 0.0 
0.0 0.0 0.0 
0.0 0.0 0.0 
0.0 0.0 0.0 
0.0 0.0 0.0 
0.0 0.0 0.0 
0.0 0.0 0.0 
0.0 0.0 0.0 
0.0 0.0 0.0 
0.0 0.0 0.0 
0.0 0.0 0.0 
0.0 0.0 0.0 
0.0 0.0 0.0 
0.0 0.0 0.0 
0.0 0.0 0.0 
0.0 0.0 0.0 
0.0 0.0 0.0 
0.0 0.0 0.0 
0.0 0.0 0.0 
0.0 0.0 0.0 
0.0 0.0 0.0 
0.0 0.0 0.0 
0.0 0.0 0.0 
0.0 0.0 0.0 
0.0 0.0 0.0 
0.0 0.0 0.0 
0.0 0.0 0.0 
0.0 0.0 0.0 
0.0 0.0 0.0 
0.0 0.0 0.0 
0.0 0.0 0.0 
0.0 0.0 0.0 
0.0 0.0 0.0 
0.0 0.0 0.0 
0.0 0.0 0.0 
0.0 0.0 0.0 
0.0 0.0 0.0 
0.0 0.0 0.0 
0.0 0.0 0.0 
0.0 0.0 0.0 
0.0 0.0 0.0 
0.0 0.0 0.0 
0.0 0.0 0.0 
0.0 0.0 0.0 
0.0 0.0 0.0 
0.0 0.0 0.0 
0.0 0.0 0.0 
0.0 0.0 0.0 
0.0 0.0 0.0 
0.0 0.0 0.0 
0.0 0.0 0.0 
0.0 0.0 0.0 
0.0 0.0 0.0 
0.0 0.0 0.0 
0.0 0.0 0.0 
0.0 0.0 0.0 
0.0 0.0 0.0 
0.0 0.0 0.0 
0.0 0.0 0.0 
0.0 0.0 0.0 
0.0 0.0 0.0 
0.0 0.0 0.0 
0.0 0.0 0.0 
0.0 0.0 0.0 
0.0 0.0 0.0 
0.0 0.0 0.0 
0.0 0.0 0.0 
0.0 0.0 0.0 
0.0 0.0 0.0 
0.0 0.0 0.0 
0.0 0.0 0.0 
0.0 0.0 0.0 
0.0 0.0 0.0 
0.0 0.0 0.0 
0.0 0.0 0.0 
0.0 0.0 0.0 
0.0 0.0 0.0 
0.0 0.0 0.0 
0.0 0.0 0.0 
0.0 0.0 0.0 
0.0 0.0 0.0 
0.0 0.0 0.0 
0.0 0.0 0.0 
0.0 0.0 0.0 
0.0 0.0 0.0 
0.0 0.0 0.0 
0.0 0.0 0.0 
0.0 0.0 0.0 
0.0 0.0 0.0 
0.0 0.0 0.0 
0.0 0.0 0.0 
0.0 0.0 0.0 
0.0 0.0 0.0 
0.0 0.0 0.0 
0.0 0.0 0.0 
0.0 0.0 0.0 
0.0 0.0 0.0 
0.0 0.0 0.0 
0.0 0.0 0.0 
0.0 0.0 0.0 
0.0 0.0 0.0 
0.0 0.0 0.0 
0.0 0.0 0.0 
0.0 0.0 0.0 
0.0 0.0 0.0 
0.0 0.0 0.0 
0.0 0.0 0.0 
0.0 0.0 0.0 
0.0 0.0 0.0 
0.0 0.0 0.0 
0.0 0.0 0.0 
0.0 0.0 0.0 
0.0 0.0 0.0 
0.0 0.0 0.0 
0.0 0.0 0.0 
0.0 0.0 0.0 
0.0 0.0 0.0 
0.0 0.0 0.0 
0.0 0.0 0.0 
0.0 0.0 0.0 
0.0 0.0 0.0 
0.0 0.0 0.0 
0.0 0.0 0.0 
0.0 0.0 0.0 
0.0 0.0 0.0 
0.0 0.0 0.0 
0.0 0.0 0.0 
0.0 0.0 0.0 
0.0 0.0 0.0 
0.0 0.0 0.0 
0.0 0.0 0.0 
0.0 0.0 0.0 
0.0 0.0 0.0 
0.0 0.0 0.0 
0.0 0.0 0.0 
0.0 0.0 0.0 
0.0 0.0 0.0 
0.0 0.0 0.0 
0.0 0.0 0.0 
0.0 0.0 0.0 
0.0 0.0 0.0 
0.0 0.0 0.0 
0.0 0.0 0.0 
0.0 0.0 0.0 
0.0 0.0 0.0 
0.0 0.0 0.0 
0.0 0.0 0.0 
0.0 0.0 0.0 
0.0 0.0 0.0 
0.0 0.0 0.0 
0.0 0.0 0.0 
0.0 0.0 0.0 
0.0 0.0 0.0 
0.0 0.0 0.0 
0.0 0.0 0.0 
0.0 0.0 0.0 
0.0 0.0 0.0 
0.0 0.0 0.0 
0.0 0.0 0.0 
0.0 0.0 0.0 
0.0 0.0 0.0 
0.0 0.0 0.0 
0.0 0.0 0.0 
0.0 0.0 0.0 
0.0 0.0 0.0 
0.0 0.0 0.0 
0.0 0.0 0.0 
0.0 0.0 0.0 
0.0 0.0 0.0 
0.0 0.0 0.0 
0.0 0.0 0.0 
0.0 0.0 0.0 
0.0 0.0 0.0 
0.0 0.0 0.0 
0.0 0.0 0.0 
0.0 0.0 0.0 
0.0 0.0 0.0 
0.0 0.0 0.0 
0.0 0.0 0.0 
0.0 0.0 0.0 
0.0 0.0 0.0 
0.0 0.0 0.0 
0.0 0.0 0.0 
0.0 0.0 0.0 
0.0 0.0 0.0 
0.0 0.0 0.0 
0.0 0.0 0.0 
0.0 0.0 0.0 
0.0 0.0 0.0 
0.0 0.0 0.0 
0.0 0.0 0.0 
0.0 0.0 0.0 
0.0 0.0 0.0 
0.0 0.0 0.0 
0.0 0.0 0.0 
0.0 0.0 0.0 
0.0 0.0 0.0 
0.0 0.0 0.0 
0.0 0.0 0.0 
0.0 0.0 0.0 
0.0 0.0 0.0 
0.0 0.0 0.0 
0.0 0.0 0.0 
0.0 0.0 0.0 
0.0 0.0 0.0 
0.0 0.0 0.0 
0.0 0.0 0.0 
0.0 0.0 0.0 
0.0 0.0 0.0 
0.0 0.0 0.0 
0.0 0.0 0.0 
0.0 0.0 0.0 
0.0 0.0 0.0 
0.0 0.0 0.0 
0.0 0.0 0.0 
0.0 0.0 0.0 
0.0 0.0 0.0 
0.0 0.0 0.0 
0.0 0.0 0.0 
0.0 0.0 0.0 
0.0 0.0 0.0 
0.0 0.0 0.0 
0.0 0.0 0.0 
0.0 0.0 0.0 
0.0 0.0 0.0 
0.0 0.0 0.0 
0.0 0.0 0.0 
0.0 0.0 0.0 
0.0 0.0 0.0 
0.0 0.0 0.0 
0.0 0.0 0.0 
0.0 0.0 0.0 
0.0 0.0 0.0 
0.0 0.0 0.0 
0.0 0.0 0.0 
0.0 0.0 0.0 
0.0 0.0 0.0 
0.0 0.0 0.0 
0.0 0.0 0.0 
0.0 0.0 0.0 
0.0 0.0 0.0 
0.0 0.0 0.0 
0.0 0.0 0.0 
0.0 0.0 0.0 
0.0 0.0 0.0 
0.0 0.0 0.0 
0.0 0.0 0.0 
0.0 0.0 0.0 
0.0 0.0 0.0 
0.0 0.0 0.0 
0.0 0.0 0.0 
0.0 0.0 0.0 
0.0 0.0 0.0 
0.0 0.0 0.0 
0.0 0.0 0.0 
0.0 0.0 0.0 
0.0 0.0 0.0 
0.0 0.0 0.0 
0.0 0.0 0.0 
0.0 0.0 0.0 
0.0 0.0 0.0 
0.0 0.0 0.0 
0.0 0.0 0.0 
0.0 0.0 0.0 
0.0 0.0 0.0 
0.0 0.0 0.0 
0.0 0.0 0.0 
0.0 0.0 0.0 
0.0 0.0 0.0 
0.0 0.0 0.0 
0.0 0.0 0.0 
0.0 0.0 0.0 
0.0 0.0 0.0 
0.0 0.0 0.0 
0.0 0.0 0.0 
0.0 0.0 0.0 
0.0 0.0 0.0 
0.0 0.0 0.0 
0.0 0.0 0.0 
0.0 0.0 0.0 
0.0 0.0 0.0 
0.0 0.0 0.0 
0.0 0.0 0.0 
0.0 0.0 0.0 
0.0 0.0 0.0 
0.0 0.0 0.0 
0.0 0.0 0.0 
0.0 0.0 0.0 
0.0 0.0 0.0 
0.0 0.0 0.0 
0.0 0.0 0.0 
0.0 0.0 0.0 
0.0 0.0 0.0 
0.0 0.0 0.0 
0.0 0.0 0.0 
0.0 0.0 0.0 
0.0 0.0 0.0 
0.0 0.0 0.0 
0.0 0.0 0.0 
0.0 0.0 0.0 
0.0 0.0 0.0 
0.0 0.0 0.0 
0.0 0.0 0.0 
0.0 0.0 0.0 
0.0 0.0 0.0 
0.0 0.0 0.0 
0.0 0.0 0.0 
0.0 0.0 0.0 
0.0 0.0 0.0 
0.0 0.0 0.0 
0.0 0.0 0.0 
0.0 0.0 0.0 
0.0 0.0 0.0 
0.0 0.0 0.0 
0.0 0.0 0.0 
0.0 0.0 0.0 
0.0 0.0 0.0 
0.0 0.0 0.0 
0.0 0.0 0.0 
0.0 0.0 0.0 
0.0 0.0 0.0 
0.0 0.0 0.0 
0.0 0.0 0.0 
0.0 0.0 0.0 
0.0 0.0 0.0 
0.0 0.0 0.0 
0.0 0.0 0.0 
0.0 0.0 0.0 
0.0 0.0 0.0 
0.0 0.0 0.0 
0.0 0.0 0.0 
0.0 0.0 0.0 
0.0 0.0 0.0 
0.0 0.0 0.0 
0.0 0.0 0.0 
0.0 0.0 0.0 
0.0 0.0 0.0 
0.0 0.0 0.0 
0.0 0.0 0.0 
0.0 0.0 0.0 
0.0 0.0 0.0 
0.0 0.0 0.0 
0.0 0.0 0.0 
0.0 0.0 0.0 
0.0 0.0 0.0 
0.0 0.0 0.0 
0.0 0.0 0.0 
0.0 0.0 0.0 
0.0 0.0 0.0 
0.0 0.0 0.0 
0.0 0.0 0.0 
0.0 0.0 0.0 
0.0 0.0 0.0 
0.0 0.0 0.0 
0.0 0.0 0.0 
0.0 0.0 0.0 
0.0 0.0 0.0 
0.0 0.0 0.0 
0.0 0.0 0.0 
0.0 0.0 0.0 
0.0 0.0 0.0 
0.0 0.0 0.0 
0.0 0.0 0.0 
0.0 0.0 0.0 
0.0 0.0 0.0 
0.0 0.0 0.0 
0.0 0.0 0.0 
0.0 0.0 0.0 
0.0 0.0 0.0 
0.0 0.0 0.0 
0.0 0.0 0.0 
0.0 0.0 0.0 
0.0 0.0 0.0 
0.0 0.0 0.0 
0.0 0.0 0.0 
0.0 0.0 0.0 
0.0 0.0 0.0 
0.0 0.0 0.0 
0.0 0.0 0.0 
0.0 0.0 0.0 
0.0 0.0 0.0 
0.0 0.0 0.0 
0.0 0.0 0.0 
0.0 0.0 0.0 
0.0 0.0 0.0 
0.0 0.0 0.0 
0.0 0.0 0.0 
0.0 0.0 0.0 
0.0 0.0 0.0 
0.0 0.0 0.0 
0.0 0.0 0.0 
0.0 0.0 0.0 
0.0 0.0 0.0 
0.0 0.0 0.0 
0.0 0.0 0.0 
0.0 0.0 0.0 
0.0 0.0 0.0 
0.0 0.0 0.0 
0.0 0.0 0.0 
0.0 0.0 0.0 
0.0 0.0 0.0 
0.0 0.0 0.0 
0.0 0.0 0.0 
0.0 0.0 0.0 
0.0 0.0 0.0 
0.0 0.0 0.0 
0.0 0.0 0.0 
0.0 0.0 0.0 
0.0 0.0 0.0 
0.0 0.0 0.0 
0.0 0.0 0.0 
0.0 0.0 0.0 
0.0 0.0 0.0 
0.0 0.0 0.0 
0.0 0.0 0.0 
0.0 0.0 0.0 
0.0 0.0 0.0 
0.0 0.0 0.0 
0.0 0.0 0.0 
0.0 0.0 0.0 
0.0 0.0 0.0 
0.0 0.0 0.0 
0.0 0.0 0.0 
0.0 0.0 0.0 
0.0 0.0 0.0 
0.0 0.0 0.0 
0.0 0.0 0.0 
0.0 0.0 0.0 
0.0 0.0 0.0 
0.0 0.0 0.0 
0.0 0.0 0.0 

VECTORS node_materi_velocity float
0.0 -1.943695147156e-01 0.0 
0.0 -1.457272545190e-01 0.0 
0.0 0.0 0.0 
0.0 0.0 0.0 
0.0 -1.938597691655e-01 0.0 
0.0 -1.923849768052e-01 0.0 
0.0 -1.899586767714e-01 0.0 
0.0 -1.865746036277e-01 0.0 
0.0 -1.821936958200e-01 0.0 
0.0 -1.768449110530e-01 0.0 
0.0 -1.705321965591e-01 0.0 
0.0 -1.632466618414e-01 0.0 
0.0 -1.549943192773e-01 0.0 
0.0 -1.457696752096e-01 0.0 
0.0 -1.355569550139e-01 0.0 
0.0 -1.243616289587e-01 0.0 
0.0 -1.121993932590e-01 0.0 
0.0 -9.911358138508e-02 0.0 
0.0 -8.502895336379e-02 0.0 
0.0 -6.996823078872e-02 0.0 
0.0 -5.393871902515e-02 0.0 
0.0 -3.692679632968e-02 0.0 
0.0 -1.893215841854e-02 0.0 
0.0 0.0 0.0 
0.0 0.0 0.0 
0.0 0.0 0.0 
0.0 0.0 0.0 
0.0 0.0 0.0 
0.0 0.0 0.0 
0.0 0.0 0.0 
0.0 0.0 0.0 
0.0 0.0 0.0 
0.0 0.0 0.0 
0.0 0.0 0.0 
0.0 0.0 0.0 
0.0 0.0 0.0 
0.0 0.0 0.0 
0.0 0.0 0.0 
0.0 0.0 0.0 
0.0 0.0 0.0 
0.0 0.0 0.0 
0.0 0.0 0.0 
0.0 0.0 0.0 
0.0 0.0 0.0 
0.0 0.0 0.0 
0.0 0.0 0.0 
0.0 0.0 0.0 
0.0 0.0 0.0 
0.0 0.0 0.0 
0.0 0.0 0.0 
0.0 0.0 0.0 
0.0 0.0 0.0 
0.0 0.0 0.0 
0.0 0.0 0.0 
0.0 0.0 0.0 
0.0 0.0 0.0 
0.0 0.0 0.0 
0.0 0.0 0.0 
0.0 0.0 0.0 
0.0 0.0 0.0 
0.0 0.0 0.0 
0.0 0.0 0.0 
0.0 0.0 0.0 
0.0 0.0 0.0 
0.0 0.0 0.0 
0.0 0.0 0.0 
0.0 0.0 0.0 
0.0 0.0 0.0 
0.0 0.0 0.0 
0.0 0.0 0.0 
0.0 0.0 0.0 
0.0 0.0 0.0 
0.0 -1.355229180456e-01 0.0 
0.0 -1.243518830859e-01 0.0 
0.0 -1.121978959670e-01 0.0 
0.0 -9.908903396050e-02 0.0 
0.0 -8.499544130559e-02 0.0 
0.0 -6.993796711901e-02 0.0 
0.0 -5.390906181888e-02 0.0 
0.0 -3.690698523921e-02 0.0 
0.0 -1.893557998301e-02 0.0 
-6.833357672812e-07 -1.943530940974e-01 0.0 
0.0 -1.942938235813e-01 0.0 
1.750362478437e-05 -1.457694657401e-01 0.0 
-6.335773645837e-06 -1.938432226854e-01 0.0 
-7.138101295613e-07 -1.923910233209e-01 0.0 
6.525353341635e-06 -1.899682974725e-01 0.0 
1.267070605264e-05 -1.865813816141e-01 0.0 
2.027932769016e-05 -1.822032493385e-01 0.0 
2.650672219098e-05 -1.768554504159e-01 0.0 
2.601476259277e-05 -1.705391541487e-01 0.0 
2.625982441647e-05 -1.632517271083e-01 0.0 
2.857232938116e-05 -1.549910057931e-01 0.0 
0.0 -1.938523257938e-01 0.0 
0.0 -1.923518258632e-01 0.0 
0.0 -1.899528437599e-01 0.0 
0.0 -1.865124930340e-01 0.0 
0.0 -1.821731322640e-01 0.0 
0.0 -1.767915221764e-01 0.0 
0.0 -1.705104079614e-01 0.0 
0.0 -1.631866716772e-01 0.0 
0.0 -1.549698675590e-01 0.0 
-1.757864982231e-05 -1.457294813370e-01 0.0 
-7.135054151793e-06 -1.457349028090e-01 0.0 
-9.650726525171e-06 -1.457401758426e-01 0.0 
-1.172205932964e-05 -1.457291444822e-01 0.0 
-5.351663229904e-06 -1.457439041262e-01 0.0 
-2.520312504475e-06 -1.457340209012e-01 0.0 
-1.757478935597e-06 -1.457383454205e-01 0.0 
1.572363479565e-05 -1.457335156638e-01 0.0 
1.044993712883e-05 -1.457536648359e-01 0.0 
4.944048366697e-06 -1.457458134042e-01 0.0 
5.173992965053e-06 -1.457431030008e-01 0.0 
5.677206547577e-06 -1.457559523797e-01 0.0 
1.046222586372e-05 -1.457606002850e-01 0.0 
1.626101547309e-05 -1.457565918138e-01 0.0 
4.606276933361e-06 -1.943414597679e-01 0.0 
6.584844247095e-07 -1.943385082340e-01 0.0 
-4.624050100681e-06 -1.943386523612e-01 0.0 
2.477752197474e-05 -1.943380788831e-01 0.0 
2.458708520656e-05 -1.943542047835e-01 0.0 
1.433163858564e-05 -1.943474017305e-01 0.0 
4.133072872436e-06 -1.943315969550e-01 0.0 
-6.445611412526e-07 -1.943303377633e-01 0.0 
-1.365117033512e-06 -1.943285945374e-01 0.0 
-2.086784973064e-06 -1.943346836632e-01 0.0 
6.080456830921e-06 -1.943391401297e-01 0.0 
1.144595594630e-05 -1.943390524715e-01 0.0 
-2.131728645207e-06 -1.943199490951e-01 0.0 
8.632007329759e-06 -1.943246555144e-01 0.0 
1.615402700486e-05 -1.943376097534e-01 0.0 
8.593972585542e-06 -1.943382272804e-01 0.0 
-7.868071958300e-06 -1.943393050203e-01 0.0 
-2.291179570028e-05 -1.943563797662e-01 0.0 
-1.758995557559e-05 -1.943224158052e-01 0.0 
-5.175579598572e-05 -1.942661866185e-01 0.0 
-8.725950958858e-05 -1.943293897515e-01 0.0 
-6.076431467475e-05 -1.943036521971e-01 0.0 
-6.263302757389e-05 -1.943247113844e-01 0.0 
-5.273448971603e-05 -1.943216314355e-01 0.0 
-5.122595100460e-05 -1.943283469483e-01 0.0 
-4.695140747600e-05 -1.943290407028e-01 0.0 
-4.449509844612e-05 -1.943307461482e-01 0.0 
-4.051274596313e-05 -1.943308079767e-01 0.0 
-3.682516911435e-05 -1.943318004888e-01 0.0 
-3.314077593749e-05 -1.943332328611e-01 0.0 
-3.010818887010e-05 -1.943352504707e-01 0.0 
-2.768124520264e-05 -1.943373636549e-01 0.0 
-2.593341103399e-05 -1.943392895811e-01 0.0 
-2.474461457307e-05 -1.943407090405e-01 0.0 
-2.397306932339e-05 -1.943414069250e-01 0.0 
-2.341980683108e-05 -1.943412494193e-01 0.0 
-2.288394536990e-05 -1.943402008828e-01 0.0 
-2.217260370383e-05 -1.943383083524e-01 0.0 
-2.112484047631e-05 -1.943356870502e-01 0.0 
-1.961745215674e-05 -1.943324879562e-01 0.0 
-1.754957845521e-05 -1.943288601245e-01 0.0 
-1.480157404137e-05 -1.943249273931e-01 0.0 
-1.116967799373e-05 -1.943207937559e-01 0.0 
-6.261471868770e-06 -1.943165916109e-01 0.0 
6.809527122114e-07 -1.943126118720e-01 0.0 
1.109060999708e-05 -1.943096203569e-01 0.0 
2.748079622137e-05 -1.943103586296e-01 0.0 
4.784776408426e-05 -1.943511482213e-01 0.0 
4.426227065544e-06 -1.937810585013e-01 0.0 
6.809585067826e-06 -1.938189301155e-01 0.0 
3.711175697482e-06 -1.938224086517e-01 0.0 
-5.819457169922e-07 -1.938264621022e-01 0.0 
-4.726871903975e-06 -1.938310545036e-01 0.0 
-8.414464325185e-06 -1.938356514403e-01 0.0 
-1.159937771278e-05 -1.938400641271e-01 0.0 
-1.430921101899e-05 -1.938442221601e-01 0.0 
-1.658809071307e-05 -1.938480603033e-01 0.0 
-1.848429000548e-05 -1.938514772995e-01 0.0 
-2.005452659194e-05 -1.938543317461e-01 0.0 
-2.137352133818e-05 -1.938564628401e-01 0.0 
-2.254337510683e-05 -1.938577343885e-01 0.0 
-2.369065348232e-05 -1.938580728780e-01 0.0 
-2.495268227527e-05 -1.938574962310e-01 0.0 
-2.645535595268e-05 -1.938560987471e-01 0.0 
-2.831367481301e-05 -1.938541106248e-01 0.0 
-3.058562321093e-05 -1.938517622268e-01 0.0 
-3.333316603628e-05 -1.938495305377e-01 0.0 
-3.644673063322e-05 -1.938474730105e-01 0.0 
-4.008946188374e-05 -1.938465919102e-01 0.0 
-4.363255513547e-05 -1.938455254805e-01 0.0 
-4.787027271672e-05 -1.938465512154e-01 0.0 
-5.024075680146e-05 -1.938425585614e-01 0.0 
-5.583423198967e-05 -1.938439178918e-01 0.0 
-5.581215882260e-05 -1.938307900298e-01 0.0 
-6.937199914264e-05 -1.938439158668e-01 0.0 
-4.189172077599e-05 -1.938122139202e-01 0.0 
-3.751719931960e-05 -1.923589682209e-01 0.0 
-6.128285604795e-05 -1.923877922275e-01 0.0 
-5.023780705216e-05 -1.923771890848e-01 0.0 
-5.173398955819e-05 -1.923863137846e-01 0.0 
-4.514344666807e-05 -1.923825479056e-01 0.0 
-4.220598870706e-05 -1.923842613021e-01 0.0 
-3.774996898508e-05 -1.923846682021e-01 0.0 
-3.475289731166e-05 -1.923870249786e-01 0.0 
-3.170823630397e-05 -1.923894223813e-01 0.0 
-2.926072086475e-05 -1.923921283572e-01 0.0 
-2.707007642811e-05 -1.923945049201e-01 0.0 
-2.523687042937e-05 -1.923962986039e-01 0.0 
-2.360309346740e-05 -1.923972156598e-01 0.0 
-2.209861421088e-05 -1.923971300786e-01 0.0 
-2.059347117616e-05 -1.923959987733e-01 0.0 
-1.898380537259e-05 -1.923938960236e-01 0.0 
-1.718943254030e-05 -1.923909878054e-01 0.0 
-1.517619298225e-05 -1.923874763093e-01 0.0 
-1.294236939521e-05 -1.923835434446e-01 0.0 
-1.051764088766e-05 -1.923793340804e-01 0.0 
-7.974020635237e-06 -1.923749666605e-01 0.0 
-5.449744986793e-06 -1.923705845402e-01 0.0 
-3.190411117676e-06 -1.923664861278e-01 0.0 
-1.609440017336e-06 -1.923635070815e-01 0.0 
-1.314861054515e-06 -1.923653694191e-01 0.0 
-2.555934832372e-06 -1.924114024064e-01 0.0 
-3.022563565927e-05 -1.899405805870e-01 0.0 
-5.770631807550e-05 -1.899703287193e-01 0.0 
-4.514200251859e-05 -1.899495918790e-01 0.0 
-4.486023066985e-05 -1.899583017885e-01 0.0 
-3.889031204935e-05 -1.899540152581e-01 0.0 
-3.650776040158e-05 -1.899585170342e-01 0.0 
-3.314903274109e-05 -1.899598604139e-01 0.0 
-3.065040041318e-05 -1.899633187354e-01 0.0 
-2.818568443470e-05 -1.899659074145e-01 0.0 
-2.612723323067e-05 -1.899685008035e-01 0.0 
-2.426008584332e-05 -1.899701414383e-01 0.0 
-2.259772232630e-05 -1.899709085230e-01 0.0 
-2.099826541063e-05 -1.899705516426e-01 0.0 
-1.935007355922e-05 -1.899691168356e-01 0.0 
-1.756879919048e-05 -1.899667141326e-01 0.0 
-1.564383664984e-05 -1.899635883884e-01 0.0 
-1.359575968621e-05 -1.899599712027e-01 0.0 
-1.147475368526e-05 -1.899560624358e-01 0.0 
-9.368411147486e-06 -1.899520319697e-01 0.0 
-7.417390358088e-06 -1.899480398651e-01 0.0 
-5.814223111482e-06 -1.899442780146e-01 0.0 
-4.773536804844e-06 -1.899410469114e-01 0.0 
-4.419210519098e-06 -1.899387745134e-01 0.0 
-4.308459940919e-06 -1.899357271965e-01 0.0 
-2.468060583080e-06 -1.898898547996e-01 0.0 
-3.047982384326e-06 -1.865753757584e-01 0.0 
-4.255867296688e-06 -1.865366455870e-01 0.0 
-4.726861305681e-06 -1.865360926289e-01 0.0 
-5.201375865600e-06 -1.865381729480e-01 0.0 
-6.053541209168e-06 -1.865410313575e-01 0.0 
-7.369689732998e-06 -1.865443937113e-01 0.0 
-9.071308294355e-06 -1.865481104306e-01 0.0 
-1.100382602148e-05 -1.865520230704e-01 0.0 
-1.303706889670e-05 -1.865559339045e-01 0.0 
-1.507458458035e-05 -1.865596274027e-01 0.0 
-1.705594701626e-05 -1.865628462679e-01 0.0 
-1.892196212902e-05 -1.865653004545e-01 0.0 
-2.060693793432e-05 -1.865666337332e-01 0.0 
-2.229296603937e-05 -1.865666740624e-01 0.0 
-2.403615191014e-05 -1.865653793835e-01 0.0 
-2.627740854880e-05 -1.865631971313e-01 0.0 
-2.831560749406e-05 -1.865598707812e-01 0.0 
-3.148902482206e-05 -1.865571112869e-01 0.0 
-3.299016028239e-05 -1.865525867382e-01 0.0 
-3.796012847498e-05 -1.865531223395e-01 0.0 
-3.597466616883e-05 -1.865436281133e-01 0.0 
-4.787382820654e-05 -1.865593942597e-01 0.0 
-2.289144086178e-05 -1.865364008524e-01 0.0 
-1.301212390602e-05 -1.821607138116e-01 0.0 
-4.079496959525e-05 -1.821917117700e-01 0.0 
-3.201315381161e-05 -1.821755215307e-01 0.0 
-3.374280852901e-05 -1.821872961378e-01 0.0 
-2.942016652357e-05 -1.821860617901e-01 0.0 
-2.761642362601e-05 -1.821921752929e-01 0.0 
-2.464667921804e-05 -1.821941208428e-01 0.0 
-2.272066042408e-05 -1.821971104002e-01 0.0 
-2.098595676702e-05 -1.821979730054e-01 0.0 
-1.940951763259e-05 -1.821976219972e-01 0.0 
-1.750350620569e-05 -1.821956023183e-01 0.0 
-1.548438956599e-05 -1.821927336796e-01 0.0 
-1.348967152223e-05 -1.821892984149e-01 0.0 
-1.154097547303e-05 -1.821855480625e-01 0.0 
-9.669610686109e-06 -1.821817617616e-01 0.0 
-7.955151912792e-06 -1.821781579118e-01 0.0 
-6.607704356775e-06 -1.821749821155e-01 0.0 
-5.718128514247e-06 -1.821722443295e-01 0.0 
-5.225856781322e-06 -1.821698394115e-01 0.0 
-4.834762583245e-06 -1.821674781706e-01 0.0 
-3.983972185171e-06 -1.821624397391e-01 0.0 
-2.097212965893e-06 -1.821122073382e-01 0.0 
-2.363623492157e-06 -1.768551734335e-01 0.0 
-3.736880134065e-06 -1.768194525516e-01 0.0 
-4.314233541148e-06 -1.768207435087e-01 0.0 
-4.604760688656e-06 -1.768230981935e-01 0.0 
-5.025780132985e-06 -1.768252359703e-01 0.0 
-5.800037512910e-06 -1.768275765928e-01 0.0 
-7.133169846419e-06 -1.768304100734e-01 0.0 
-8.775157072958e-06 -1.768340335189e-01 0.0 
-1.047222688780e-05 -1.768379699413e-01 0.0 
-1.230836099667e-05 -1.768418816520e-01 0.0 
-1.448626376155e-05 -1.768453634567e-01 0.0 
-1.687614062948e-05 -1.768483732972e-01 0.0 
-1.903287957996e-05 -1.768508044352e-01 0.0 
-2.025773871013e-05 -1.768506597470e-01 0.0 
-2.278864916790e-05 -1.768488565725e-01 0.0 
-2.465223066947e-05 -1.768437104853e-01 0.0 
-3.089346650912e-05 -1.768427847724e-01 0.0 
-2.952845130968e-05 -1.768321422472e-01 0.0 
-3.992556171912e-05 -1.768433770737e-01 0.0 
-1.394786835695e-05 -1.768182132382e-01 0.0 
-1.250150507853e-05 -1.705074504270e-01 0.0 
-3.881904789154e-05 -1.705371593304e-01 0.0 
-2.607996600914e-05 -1.705213941043e-01 0.0 
-2.463840450108e-05 -1.705362829310e-01 0.0 
-2.000701540588e-05 -1.705370106390e-01 0.0 
-1.952355333483e-05 -1.705417769206e-01 0.0 
-1.688329807502e-05 -1.705385205835e-01 0.0 
-1.400989691124e-05 -1.705351959146e-01 0.0 
-1.122408073741e-05 -1.705320941243e-01 0.0 
-9.258862578957e-06 -1.705288260166e-01 0.0 
-8.092121787128e-06 -1.705249341636e-01 0.0 
-6.477298365427e-06 -1.705207257749e-01 0.0 
-5.079331362845e-06 -1.705174107412e-01 0.0 
-4.446722107926e-06 -1.705155455447e-01 0.0 
-4.306368692628e-06 -1.705138467639e-01 0.0 
-4.310213035202e-06 -1.705120957349e-01 0.0 
-4.503733030953e-06 -1.705095381622e-01 0.0 
-3.753815168966e-06 -1.705028213368e-01 0.0 
-1.840039663514e-06 -1.704500958861e-01 0.0 
-2.847319111086e-06 -1.632493951824e-01 0.0 
-5.075607669969e-06 -1.632160980828e-01 0.0 
-4.391310359807e-06 -1.632202893754e-01 0.0 
-4.488230777573e-06 -1.632217683130e-01 0.0 
-3.565876959572e-06 -1.632234758180e-01 0.0 
-3.107560861552e-06 -1.632244784942e-01 0.0 
-2.878031981640e-06 -1.632254688650e-01 0.0 
-4.727337839295e-06 -1.632286106623e-01 0.0 
-4.471107584920e-06 -1.632350029141e-01 0.0 
-5.246064663126e-06 -1.632379997571e-01 0.0 
-8.415086142115e-06 -1.632400420926e-01 0.0 
-1.162426568383e-05 -1.632437507228e-01 0.0 
-1.510307908188e-05 -1.632479524109e-01 0.0 
-1.998146039366e-05 -1.632543487642e-01 0.0 
-1.731640016668e-05 -1.632412919467e-01 0.0 
-3.193113200602e-05 -1.632441325781e-01 0.0 
-1.017702608935e-05 -1.632164644617e-01 0.0 
-4.734611456964e-06 -1.549639886935e-01 0.0 
-2.473974911552e-05 -1.550130232019e-01 0.0 
-1.124645043718e-05 -1.549942274360e-01 0.0 
-6.920317296652e-06 -1.549917263057e-01 0.0 
-4.936973165527e-06 -1.549869904499e-01 0.0 
-9.828686319111e-07 -1.549820778495e-01 0.0 
1.309104548904e-06 -1.549840173950e-01 0.0 
-6.359917258547e-08 -1.549820166170e-01 0.0 
1.491200964686e-06 -1.549693555429e-01 0.0 
-1.111956971684e-06 -1.549717603217e-01 0.0 
-1.766789163014e-06 -1.549704988223e-01 0.0 
-5.589903031942e-06 -1.549717839067e-01 0.0 
-5.083056181176e-06 -1.549676713865e-01 0.0 
-7.414226212387e-06 -1.549695260717e-01 0.0 
-9.601089131059e-06 -1.549576077784e-01 0.0 
-3.874954215745e-08 -1.548962819005e-01 0.0 
-1.372638438003e-05 -1.942050362100e-01 0.0 
-2.350740366620e-05 -1.932449428444e-01 0.0 
-1.567203327680e-05 -1.913068056495e-01 0.0 
-9.477028813683e-06 -1.883998190177e-01 0.0 
5.927656314715e-06 -1.845140671816e-01 0.0 
1.891585902483e-05 -1.796484935775e-01 0.0 
5.867473081893e-06 -1.738232979321e-01 0.0 
4.914739071123e-06 -1.670235878892e-01 0.0 
8.788575542521e-06 -1.592484013896e-01 0.0 
5.942904354159e-06 -1.505024826754e-01 0.0 
-8.559622554178e-06 -1.915263800594e-01 0.0 
-8.878667901769e-07 -1.644580935388e-02 0.0 
-2.811159839928e-06 -1.939749372455e-01 0.0 
1.171685730923e-05 -1.940215169580e-01 0.0 
7.380236897836e-07 -1.646403846895e-02 0.0 
-3.848748662014e-06 -1.848145812966e-01 0.0 
8.423679725484e-06 -1.405886004890e-01 0.0 
2.875154260165e-06 -1.648138580655e-02 0.0 
1.096099344546e-05 -1.744444971740e-01 0.0 
-3.835500952196e-06 -1.605501706166e-02 0.0 
1.551731850307e-05 -1.601123289614e-01 0.0 
-5.833828835748e-06 -1.516755195895e-02 0.0 
2.432861693568e-05 -1.939923024219e-01 0.0 
-4.589328057348e-06 -1.630037574023e-02 0.0 
6.364372664321e-06 -1.417601017004e-01 0.0 
-6.152244084930e-06 -1.735968164243e-01 0.0 
-1.460420962407e-06 -1.084446989784e-01 0.0 
-1.399206782052e-06 -1.702391604845e-02 0.0 
4.123902130389e-06 -1.623549142020e-02 0.0 
-7.324546335371e-06 -1.627038376502e-02 0.0 
4.518544300091e-06 -1.768080776323e-02 0.0 
-2.990207102300e-06 -1.585216183766e-02 0.0 
1.008838379983e-05 -1.367669961741e-01 0.0 
1.920292923661e-05 -1.365911722159e-01 0.0 
6.910762635134e-07 -1.363441134029e-01 0.0 
-1.281746616605e-05 -9.195647256689e-02 0.0 
1.680029927488e-05 -1.647192494305e-02 0.0 
-1.204641430859e-05 -1.940166182730e-01 0.0 
6.325812820265e-06 -1.939667352429e-01 0.0 
-3.031339187977e-06 -6.330570383905e-02 0.0 
-1.250137460000e-06 -1.370253805956e-01 0.0 
-4.923227125448e-06 -1.884359206446e-01 0.0 
8.420041191369e-07 -1.872921657381e-02 0.0 
-3.112865401837e-06 -1.499748306535e-02 0.0 
7.445088291204e-07 -1.595030677297e-02 0.0 
-2.277891800092e-06 -1.743355336067e-02 0.0 
7.540556495287e-06 -1.565561381337e-02 0.0 
-5.079296150847e-07 -1.939676586397e-01 0.0 
2.195624287008e-05 -1.372214779625e-01 0.0 
-4.210371886891e-07 -1.881801904829e-02 0.0 
4.565919413994e-06 -6.273807517184e-02 0.0 
-1.012587194974e-05 -1.939664081718e-01 0.0 
-3.657110524996e-06 -1.592372087683e-01 0.0 
1.022923374667e-05 -1.325248042630e-02 0.0 
2.309439218677e-06 -1.800732524038e-01 0.0 
-3.362405270671e-06 -1.886811396683e-01 0.0 
1.229537803127e-05 -1.678158095007e-01 0.0 
1.552051235944e-05 -1.514433386513e-01 0.0 
-1.778101699797e-05 -1.934771222912e-01 0.0 
-1.328386035993e-05 -1.169508622352e-01 0.0 
-2.622114106417e-06 -1.304677067241e-02 0.0 
-1.469826404902e-05 -1.940221482672e-01 0.0 
5.935848170024e-06 -2.942055902895e-02 0.0 
2.393289376669e-05 -1.364937789930e-01 0.0 
3.850798125357e-05 -1.320807765986e-01 0.0 
2.596957847016e-05 -1.269685179600e-01 0.0 
2.329822350068e-05 -1.215226230339e-01 0.0 
3.558232139620e-05 -1.151134149018e-01 0.0 
2.320955088699e-05 -1.098158438513e-01 0.0 
2.013742179935e-05 -1.163800883101e-01 0.0 
1.730090224353e-05 -1.043521191675e-01 0.0 
1.647180572825e-05 -1.111652769518e-01 0.0 
1.382981790850e-05 -1.028509047118e-01 0.0 
1.217901166549e-05 -9.870777443405e-02 0.0 
1.245612043322e-05 -1.057610975118e-01 0.0 
8.121953525234e-06 -9.290985342508e-02 0.0 
9.360301610484e-06 -1.001581916229e-01 0.0 
1.186978441012e-05 -1.125615192624e-01 0.0 
8.680055961223e-06 -1.072098247864e-01 0.0 
1.041293407599e-05 -1.190766545878e-01 0.0 
7.660059575440e-06 -1.139661470229e-01 0.0 
5.031234275936e-06 -1.017031421541e-01 0.0 
4.712620084135e-06 -1.087023150144e-01 0.0 
6.758771070144e-06 -1.204524133295e-01 0.0 
4.166221401523e-06 -1.154267800676e-01 0.0 
5.779397963899e-06 -1.266554348201e-01 0.0 
3.908921566923e-06 -1.218404726692e-01 0.0 
4.809851259725e-06 -1.326234449322e-01 0.0 
3.588598536515e-06 -1.280044842329e-01 0.0 
2.626232229327e-06 -1.168463695783e-01 0.0 
2.676152693890e-06 -1.232338617034e-01 0.0 
3.248038932903e-06 -1.338908125391e-01 0.0 
2.550398629372e-06 -1.293496061877e-01 0.0 
2.822714785255e-06 -1.395095608129e-01 0.0 
2.380775691161e-06 -1.351905134206e-01 0.0 
1.970605415997e-06 -1.246209070517e-01 0.0 
2.177369455205e-06 -1.307025664705e-01 0.0 
2.418807005459e-06 -1.407872958344e-01 0.0 
2.000560476652e-06 -1.365227883245e-01 0.0 
2.241823910575e-06 -1.461296501760e-01 0.0 
1.385949355577e-06 -1.420709792738e-01 0.0 
9.903801816016e-07 -1.511938311132e-01 0.0 
7.632742182225e-07 -1.473719323500e-01 0.0 
4.914030404705e-07 -1.377655918458e-01 0.0 
-7.694867503293e-08 -1.432866908851e-01 0.0 
-5.056125601903e-07 -1.524335719947e-01 0.0 
-1.027886869773e-06 -1.485741063020e-01 0.0 
-8.739070161813e-07 -1.390125513838e-01 0.0 
-1.353913562751e-06 -1.445410400037e-01 0.0 
-1.138545091857e-06 -1.345566192278e-01 0.0 
-1.525450591127e-06 -1.403257573170e-01 0.0 
-1.860936414125e-06 -1.497366852255e-01 0.0 
-1.999916964613e-06 -1.457508723395e-01 0.0 
-1.775870379953e-06 -1.359107879828e-01 0.0 
-2.167510100554e-06 -1.416371125782e-01 0.0 
-2.565840305307e-06 -1.509492679081e-01 0.0 
-2.958932389794e-06 -1.470046329856e-01 0.0 
-2.484921034891e-06 -1.372897259786e-01 0.0 
-2.981104688445e-06 -1.429289785495e-01 0.0 
-3.318037520335e-06 -1.521063575543e-01 0.0 
-3.421360560529e-06 -1.482364183631e-01 0.0 
-3.162627621181e-06 -1.385653886687e-01 0.0 
-3.350634549267e-06 -1.442023750352e-01 0.0 
-3.800252452928e-06 -1.532867678229e-01 0.0 
-3.462294322595e-06 -1.494625009247e-01 0.0 
-3.285879779429e-06 -1.398968068953e-01 0.0 
-2.969718503604e-06 -1.454791719160e-01 0.0 
-2.844135632644e-06 -1.354210836873e-01 0.0 
-3.076237801973e-06 -1.545415530608e-01 0.0 
-2.200696581880e-06 -1.507659329199e-01 0.0 
-2.709105521341e-06 -1.593828361402e-01 0.0 
-1.210005499645e-06 -1.557705848237e-01 0.0 
1.522206619635e-06 -1.197062221852e-01 0.0 
-1.676017209899e-06 -1.638571792367e-01 0.0 
-3.292012608353e-06 -1.669303035378e-01 0.0 
3.564614391298e-07 -1.604759073118e-01 0.0 
1.148812461836e-07 -1.519668156247e-01 0.0 
-4.968962042095e-08 -1.680275827099e-01 0.0 
2.249739517648e-06 -1.648738327651e-01 0.0 
9.774972339540e-07 -1.718950289895e-01 0.0 
1.326155915224e-06 -1.551727973252e-01 0.0 
1.661651443284e-06 -9.601544290277e-02 0.0 
4.248927243687e-06 -1.689707672296e-01 0.0 
-7.575927013153e-07 -1.754581155125e-01 0.0 
-2.591557429707e-06 -1.779675211213e-01 0.0 
-4.306668884313e-06 -1.809913463980e-01 0.0 
1.530279765673e-05 -1.085175081289e-01 0.0 
7.443597172895e-06 -9.557752421511e-02 0.0 
8.687421253646e-06 -1.015772902549e-01 0.0 
4.841180851632e-06 -8.805797451550e-02 0.0 
6.555580877883e-06 -9.425987827487e-02 0.0 
-1.822398604548e-06 -1.787189753593e-01 0.0 
6.063616809805e-06 -8.508977980211e-02 0.0 
3.110110670159e-06 -8.159417759680e-02 0.0 
7.657935368594e-06 -1.313139032138e-01 0.0 
3.224436586748e-06 -1.436602941620e-01 0.0 
-1.040098376465e-06 -1.285093052683e-01 0.0 
4.544603106202e-06 -1.615304699619e-01 0.0 
9.783139559242e-06 -1.658653775877e-01 0.0 
5.125552054965e-06 -1.580009242678e-01 0.0 
-3.206270072787e-06 -1.293116530420e-01 0.0 
-3.148481738322e-06 -1.243998762198e-01 0.0 
-3.555216659879e-06 -1.177403380911e-01 0.0 
-3.754839955054e-06 -1.124117208187e-01 0.0 
-4.291833564079e-06 -1.052022149100e-01 0.0 
-4.545785384677e-06 -9.945672581077e-02 0.0 
-4.088020615395e-06 -1.069088673884e-01 0.0 
-5.064494719400e-06 -9.352473759146e-02 0.0 
-4.544113475244e-06 -1.012246981147e-01 0.0 
-5.012766965684e-06 -9.170666584099e-02 0.0 
-4.951631077525e-06 -9.768742298355e-02 0.0 
-5.986204565632e-06 -8.741682750198e-02 0.0 
-5.163751269277e-06 -9.535101610029e-02 0.0 
-6.824353158575e-06 -8.112064069636e-02 0.0 
-5.563276983324e-06 -8.929062408848e-02 0.0 
-4.241166500200e-06 -1.029994820027e-01 0.0 
-4.410084835623e-06 -9.717487331313e-02 0.0 
-3.569068585782e-06 -1.103499624736e-01 0.0 
-1.715562308850e-06 -1.236351472530e-01 0.0 
-1.996572467353e-06 -1.170486509741e-01 0.0 
-2.701726948653e-06 -1.117651453140e-01 0.0 
-2.957792534325e-06 -1.046409741678e-01 0.0 
-3.773282170527e-06 -9.893900980338e-02 0.0 
-4.039606534793e-06 -9.129120332933e-02 0.0 
-5.135974008633e-06 -8.515182109207e-02 0.0 
-4.093616177973e-06 -9.305898428041e-02 0.0 
5.123484874081e-06 -8.689988444007e-02 0.0 
-1.114089589857e-06 -1.572094397643e-01 0.0 
-6.812542518705e-07 -1.606660682782e-01 0.0 
-1.662804936865e-06 -1.649347592176e-01 0.0 
-1.459460414228e-06 -1.679793086129e-01 0.0 
-3.152426880860e-06 -1.717426987941e-01 0.0 
-2.978831374674e-06 -1.743979905867e-01 0.0 
-5.717530655354e-06 -1.776744342954e-01 0.0 
-5.674074919434e-06 -1.752111196928e-01 0.0 
-9.386131900866e-06 -1.806627831790e-01 0.0 
-8.083542273167e-06 -1.784071958251e-01 0.0 
-1.294375419779e-05 -1.833534030937e-01 0.0 
-9.352802622209e-06 -1.813395194271e-01 0.0 
1.985252167589e-06 -1.116814871051e-01 0.0 
-2.572357913439e-06 -9.722595040341e-02 0.0 
-2.607909322711e-06 -8.335220486329e-02 0.0 
-1.863368450202e-06 -8.953021004533e-02 0.0 
-5.569725542815e-06 -1.830865652793e-01 0.0 
-4.991632753930e-06 -8.303601208200e-02 0.0 
-5.905765506858e-06 -8.365051561206e-02 0.0 
-5.255675515117e-06 -8.999090538082e-02 0.0 
-5.657177659876e-06 -7.883337981339e-02 0.0 
-6.453987724554e-06 -1.837104741880e-01 0.0 
-4.853357657581e-06 -1.799264875997e-01 0.0 
-2.988228492050e-06 -1.768970803315e-01 0.0 
4.365135881212e-06 -8.014948439794e-02 0.0 
5.156820128750e-06 -8.660434897628e-02 0.0 
-6.974585199783e-06 -7.531141896922e-02 0.0 
-2.833184268610e-06 -1.816775554082e-01 0.0 
-6.352838771057e-06 -7.919668353750e-02 0.0 
-1.044812168214e-05 -1.852068348862e-01 0.0 
-3.181832340928e-06 -9.116386266314e-02 0.0 
-2.731202407360e-06 -7.659662843828e-02 0.0 
-3.497008534797e-06 -1.140303812025e-01 0.0 
-3.657604001804e-07 -7.512275552285e-02 0.0 
-7.139859810004e-07 -8.178570772221e-02 0.0 
-6.387957743623e-06 -1.759459139966e-01 0.0 
-7.159333348776e-06 -1.791496051220e-01 0.0 
-1.130446941349e-05 -1.839890171878e-01 0.0 
-1.234210544565e-05 -1.819020334753e-01 0.0 
-7.945905063108e-06 -1.767134700887e-01 0.0 
-9.959305301711e-06 -1.798328371711e-01 0.0 
-8.303304395293e-06 -1.845006977527e-01 0.0 
-7.661324923895e-06 -1.826548840583e-01 0.0 
-7.507210868206e-06 -1.775104228806e-01 0.0 
-5.886116864320e-06 -1.805595950598e-01 0.0 
-4.205307083172e-06 -1.851969124750e-01 0.0 
-3.315347189679e-06 -1.833097754034e-01 0.0 
-5.705225951252e-06 -6.792449532915e-02 0.0 
-1.259576770522e-05 -1.873835161097e-01 0.0 
1.242687163812e-05 -1.240095406124e-01 0.0 
-6.483263182269e-06 -6.865136582717e-02 0.0 
-5.273150143866e-06 -7.059591489880e-02 0.0 
3.783968881065e-06 -7.191364586680e-02 0.0 
3.800699342073e-06 -7.862138426563e-02 0.0 
3.306711367480e-06 -9.294661380656e-02 0.0 
3.553491484642e-06 -8.517246288084e-02 0.0 
2.917499536517e-06 -7.029616059360e-02 0.0 
4.731377759748e-06 -7.709284409917e-02 0.0 
4.257140496584e-06 -9.157483767649e-02 0.0 
6.222092585349e-06 -8.371972706586e-02 0.0 
5.041355366474e-06 -9.779794603776e-02 0.0 
6.527521464948e-06 -9.016464264958e-02 0.0 
6.681439842278e-06 -7.554711887537e-02 0.0 
7.275723857002e-06 -8.223139421397e-02 0.0 
6.099339536226e-06 -9.643510560269e-02 0.0 
8.475427690366e-06 -8.873292585093e-02 0.0 
7.500286659135e-06 -1.025149263621e-01 0.0 
1.046682156518e-05 -9.504266089104e-02 0.0 
6.676692398504e-06 -8.072959427646e-02 0.0 
-1.061059918615e-05 -1.859679699218e-01 0.0 
-4.318074685253e-06 -8.701117700952e-02 0.0 
-5.982509496906e-06 -7.232398554003e-02 0.0 
1.964740752927e-05 -1.625572949294e-01 0.0 
-8.089454620827e-06 -1.542611976697e-01 0.0 
-1.627840240788e-06 -1.491627376778e-01 0.0 
7.831528173096e-06 -1.450413951738e-01 0.0 
3.025621727600e-06 -8.734098024847e-02 0.0 
1.036057173550e-05 -7.243780174800e-02 0.0 
-4.860900737013e-06 -1.819686264052e-01 0.0 
-3.604073084872e-06 -1.792166133246e-01 0.0 
3.281558300929e-06 -6.503844451783e-02 0.0 
8.957532603493e-07 -8.496751165499e-02 0.0 
-3.716340419712e-06 -9.899505855018e-02 0.0 
2.835156419250e-06 -1.487625019654e-01 0.0 
2.811540025473e-06 -1.525321755014e-01 0.0 
2.314712609390e-06 -1.571295266207e-01 0.0 
1.821039858601e-06 -1.606983309757e-01 0.0 
3.400164923136e-06 -1.561679194961e-01 0.0 
2.392816567195e-06 -1.648359833777e-01 0.0 
-4.787399047663e-06 -1.037155916294e-01 0.0 
5.356067272924e-06 -6.706826152287e-02 0.0 
-3.921596927795e-06 -1.802965959804e-01 0.0 
-3.474948328261e-06 -1.850096264964e-01 0.0 
-1.976703344986e-06 -6.996968993740e-02 0.0 
-3.261144445070e-06 -1.007047266801e-01 0.0 
1.112337835619e-06 -1.047631064584e-01 0.0 
5.043384612473e-07 -9.916683470229e-02 0.0 
-1.180697673063e-06 -9.169885604501e-02 0.0 
-1.297790803323e-06 -8.568384908824e-02 0.0 
-3.277083809822e-06 -7.765943604713e-02 0.0 
-3.959113406485e-06 -7.120914474680e-02 0.0 
-1.033015272738e-06 -7.948853592501e-02 0.0 
1.214652793864e-06 -6.653696237035e-02 0.0 
-6.510390295519e-06 -6.454160665188e-02 0.0 
1.027656928744e-05 -1.012779379398e-01 0.0 
-1.263345515467e-06 -1.031125027289e-01 0.0 
-6.164199567322e-06 -1.749861461546e-01 0.0 
-1.618944432601e-05 -1.875727302076e-01 0.0 
4.532077285839e-06 -1.875320193108e-01 0.0 
-3.156557788338e-06 -1.842951715757e-01 0.0 
-1.769072917306e-07 -1.794510726574e-01 0.0 
-6.875357979411e-06 -5.974586513154e-02 0.0 
-5.523742603307e-06 -6.263833501074e-02 0.0 
-4.476416470095e-06 -6.936731119748e-02 0.0 
2.643228522454e-06 -1.639794778008e-01 0.0 
5.279546210695e-06 -1.596029864592e-01 0.0 
3.164535033102e-06 -5.974738277297e-02 0.0 
5.386750910329e-06 -1.075257514595e-01 0.0 
3.198053401906e-06 -1.051321046348e-01 0.0 
-2.437377194284e-09 -1.109334076894e-01 0.0 
3.777444653282e-07 -1.884442911970e-01 0.0 
9.808377652323e-06 -1.888167588766e-01 0.0 
3.214694507690e-06 -6.165865526926e-02 0.0 
-1.575591411623e-06 -1.736662420773e-01 0.0 
-2.178617540899e-06 -1.762051339951e-01 0.0 
-1.692399799919e-05 -1.888372501630e-01 0.0 
-1.515272012570e-05 -1.904996462908e-01 0.0 
1.126145685244e-05 -7.912369735988e-02 0.0 
8.804562298166e-06 -6.383780947411e-02 0.0 
3.537136477348e-06 -1.393836151165e-01 0.0 
2.520017656010e-06 -1.348342879762e-01 0.0 
-8.808917246735e-06 -6.662965023947e-02 0.0 
-2.086373904904e-07 -1.857578349440e-01 0.0 
4.944105425191e-06 -5.659871303948e-02 0.0 
-3.946072695777e-06 -9.488333617708e-02 0.0 
-2.962413162219e-06 -1.080644243521e-01 0.0 
2.710889476067e-07 -1.504279163898e-01 0.0 
-7.473870371041e-06 -1.838682893027e-01 0.0 
-1.018562978488e-05 -1.861239028848e-01 0.0 
-5.988958154383e-06 -1.714021984505e-01 0.0 
-4.168737017808e-06 -1.812372013641e-01 0.0 
1.409687222373e-06 -1.823228489118e-01 0.0 
-6.894695106625e-06 -5.053685472767e-02 0.0 
2.064580923450e-06 -5.445588961980e-02 0.0 
-2.419479543276e-06 -7.306578930339e-02 0.0 
-1.059006681901e-06 -8.750068036521e-02 0.0 
-1.276067742199e-05 -5.769707845551e-02 0.0 
-1.334895312103e-06 -1.893267476517e-01 0.0 
-4.635509381740e-06 -5.267130180917e-02 0.0 
8.012993988527e-08 -7.858420179707e-02 0.0 
-4.589833088095e-06 -5.447609584287e-02 0.0 
-2.583803276682e-06 -6.077512867678e-02 0.0 
-2.358803087042e-07 -1.702171671797e-01 0.0 
2.844269160168e-08 -1.728112512577e-01 0.0 
-3.136802172248e-06 -1.785061251197e-01 0.0 
-2.317754608948e-07 -1.753308538357e-01 0.0 
2.060812239047e-05 -1.227207015528e-01 0.0 
2.454796187573e-06 -1.664003819475e-01 0.0 
1.115247645772e-05 -1.300012630930e-01 0.0 
1.435586801074e-05 -1.345214013467e-01 0.0 
1.263933231008e-05 -1.399877993825e-01 0.0 
5.651086289473e-06 -1.515391584263e-01 0.0 
7.701992667046e-06 -1.550927071140e-01 0.0 
-1.578457957336e-07 -1.639953446680e-01 0.0 
-1.126098756386e-06 -1.221657466389e-01 0.0 
-1.756528787183e-07 -1.437428423012e-01 0.0 
-2.775813125999e-06 -1.156997400511e-01 0.0 
-3.517844428461e-06 -1.228872640208e-01 0.0 
4.576886709238e-06 -5.997280077109e-02 0.0 
2.187995120215e-06 -5.093792918503e-02 0.0 
1.985704113854e-07 -1.096858716683e-01 0.0 
-7.555281541143e-07 -1.153402521171e-01 0.0 
-3.345372333719e-06 -1.872534483712e-01 0.0 
-3.827013863148e-06 -1.887604726769e-01 0.0 
-2.535060054154e-06 -1.307611529220e-01 0.0 
-5.548434970873e-06 -6.182379112429e-02 0.0 
2.817737279530e-06 -5.624044650046e-02 0.0 
2.498601595919e-06 -4.892767265393e-02 0.0 
3.036136518235e-06 -5.797103415327e-02 0.0 
-1.167922973582e-05 -5.761537952747e-02 0.0 
-1.960443946679e-06 -1.616881131086e-01 0.0 
-2.267141150964e-06 -1.186121899999e-01 0.0 
-8.859493234524e-06 -1.892765165273e-01 0.0 
1.607336617384e-06 -1.131708073594e-01 0.0 
-7.072330829434e-06 -1.904562244917e-01 0.0 
1.337769414069e-06 -8.858170174200e-02 0.0 
-4.264276762236e-06 -6.315538666552e-02 0.0 
-7.724280659637e-06 -5.399835746241e-02 0.0 
-2.731780140364e-06 -5.069903776683e-02 0.0 
2.033260026505e-05 -1.376171113001e-01 0.0 
1.215998452127e-06 -1.078140799124e-01 0.0 
5.472096661057e-07 -1.146373597285e-01 0.0 
1.439932921162e-05 -1.440799877876e-01 0.0 
1.217813004426e-05 -1.490375129645e-01 0.0 
1.072111108038e-05 -1.451696807144e-01 0.0 
1.005156815041e-05 -1.537905680759e-01 0.0 
-4.634256275859e-06 -1.685188440998e-01 0.0 
-5.050453573149e-06 -1.723320793186e-01 0.0 
-6.831475864090e-06 -4.609712105979e-02 0.0 
-2.014606909720e-05 -4.915623558712e-02 0.0 
1.219993603822e-05 -4.578578645165e-02 0.0 
1.164387425480e-06 -5.183955092715e-02 0.0 
-4.820796738786e-07 -4.344751034714e-02 0.0 
8.606584698951e-06 -5.274458045819e-02 0.0 
2.656483750175e-06 -1.770351443401e-01 0.0 
6.201454385898e-06 -1.627321133229e-01 0.0 
-7.998546409202e-07 -4.524352998872e-02 0.0 
1.642289931618e-05 -1.389290814835e-01 0.0 
-1.098495959503e-05 -4.585399475195e-02 0.0 
-8.703531043894e-06 -5.486675217347e-02 0.0 
-1.466032795245e-05 -1.918711575734e-01 0.0 
-4.337543628033e-06 -1.908820982189e-01 0.0 
-5.308122330501e-06 -4.782746246658e-02 0.0 
-2.847719223204e-06 -1.805446253353e-01 0.0 
-5.026540828838e-07 -1.777028444586e-01 0.0 
-5.592622556320e-06 -1.831513157294e-01 0.0 
2.721486299240e-06 -2.814202906101e-02 0.0 
-6.350655449627e-08 -1.371569866014e-01 0.0 
-6.690976552430e-06 -4.677070395339e-02 0.0 
7.315572684396e-06 -1.464684660180e-01 0.0 
7.237368025672e-06 -3.949491991595e-02 0.0 
1.196194947329e-07 -1.022828348350e-01 0.0 
2.015583827779e-06 -1.537928048198e-01 0.0 
-7.134973262876e-06 -7.332672141068e-02 0.0 
2.461094652557e-06 -5.664988811041e-02 0.0 
-9.884084636015e-07 -3.803168331159e-02 0.0 
-3.809266524104e-06 -1.175382503421e-01 0.0 
-1.583478081846e-05 -1.231219256049e-01 0.0 
2.981550049547e-06 -1.121449252468e-01 0.0 
-8.215075813568e-06 -1.868144442993e-01 0.0 
-5.204847103033e-06 -1.903541898060e-01 0.0 
4.293904343420e-06 -5.828480993249e-02 0.0 
-2.461542217216e-06 -1.699039638905e-01 0.0 
3.498428700875e-06 -1.660656685850e-01 0.0 
-1.733925943369e-06 -1.840902386659e-01 0.0 
-2.974974392353e-06 -1.791332513510e-01 0.0 
2.907516012830e-07 -1.334820602489e-01 0.0 
-8.541539738390e-07 -1.380581550462e-01 0.0 
-1.913128269966e-06 -8.238394856403e-02 0.0 
-1.251823222022e-06 -7.453233109694e-02 0.0 
-2.740317921272e-07 -9.758916236701e-02 0.0 
-4.269572093478e-06 -1.024416377780e-01 0.0 
-3.062863238898e-06 -1.151147419772e-01 0.0 
-2.391280286034e-06 -1.202170630377e-01 0.0 
-2.555303423057e-06 -4.397053501342e-02 0.0 
-1.913046517604e-06 -3.296107700010e-02 0.0 
-4.147628085611e-06 -1.645334720345e-01 0.0 
-4.354360358287e-06 -1.676021452132e-01 0.0 
-3.966222307226e-06 -1.656641572672e-01 0.0 
1.022326490820e-05 -3.792688218113e-02 0.0 
-1.515796477333e-05 -3.756142576958e-02 0.0 
-1.287907837231e-05 -4.517978588399e-02 0.0 
-4.044582093609e-06 -1.914964866744e-01 0.0 
6.418419434033e-06 -1.900204640494e-01 0.0 
-1.203406683600e-05 -1.875687319568e-01 0.0 
-1.717647457648e-05 -1.894103291410e-01 0.0 
-3.039595018740e-07 -4.209817826559e-02 0.0 
4.348347710255e-06 -5.084114486734e-02 0.0 
3.992023969324e-06 -3.186667947628e-02 0.0 
-7.344443114653e-07 -1.804415132271e-01 0.0 
-2.572439718625e-06 -8.102108759056e-02 0.0 
-5.894711409353e-06 -4.183086091989e-02 0.0 
-1.728937720696e-05 -4.921291389952e-02 0.0 
-1.127618337128e-07 -3.237732255728e-02 0.0 
-3.733932123791e-06 -5.825144332697e-02 0.0 
-7.658763749145e-06 -4.224561149262e-02 0.0 
-7.614200863077e-06 -4.129192967578e-02 0.0 
-3.150333589384e-06 -1.926543346894e-01 0.0 
-5.729835292487e-06 -4.511058720151e-02 0.0 
2.369739722127e-07 -1.219956374257e-01 0.0 
-3.641330333461e-06 -1.933193253051e-01 0.0 
-7.724385144104e-06 -1.276155243479e-01 0.0 
-1.532104422965e-05 -1.208773188876e-01 0.0 
-6.330043626200e-06 -1.329769868060e-01 0.0 
7.531308209961e-06 -1.849061748009e-01 0.0 
2.176176603588e-06 -1.259626707527e-01 0.0 
4.558663903661e-06 -1.193460495684e-01 0.0 
5.148144502295e-06 -1.927303817885e-01 0.0 
-5.034133646108e-07 -2.837967394464e-02 0.0 
9.281104313285e-06 -1.925367920739e-01 0.0 
-5.203724927286e-06 -1.917238604690e-01 0.0 
-1.403871978309e-05 -3.828554003259e-02 0.0 
-1.115060528032e-05 -4.765647109327e-02 0.0 
6.678885092551e-06 -3.085333624976e-02 0.0 
-7.826177814973e-06 -4.116195586891e-02 0.0 
-1.171195704800e-05 -5.710042705971e-02 0.0 
-9.806080828647e-06 -4.999151793072e-02 0.0 
-2.787113837280e-06 -1.293131816186e-01 0.0 
-7.968197783064e-06 -3.121679056005e-02 0.0 
-7.361160058671e-06 -4.233882180480e-02 0.0 
4.260639402307e-06 -2.407885450714e-02 0.0 
1.396156264724e-05 -1.570487297383e-01 0.0 
5.991541853119e-06 -1.722060566838e-01 0.0 
1.616108186923e-05 -1.747619866419e-01 0.0 
-4.417373418457e-06 -1.800117757568e-01 0.0 
2.970957029215e-06 -3.327626100564e-02 0.0 
-1.131193354665e-05 -4.350011286541e-02 0.0 
-2.176254122530e-06 -7.168966962190e-02 0.0 
-2.054249409183e-06 -8.657963441742e-02 0.0 
-8.842373220643e-06 -1.270958286504e-01 0.0 
-4.736540744551e-07 -1.275763954864e-01 0.0 
-1.246272715479e-05 -1.167822159833e-01 0.0 
-5.562082669940e-06 -1.181502760158e-01 0.0 
4.976458668444e-06 -1.068653042872e-01 0.0 
5.848213729791e-06 -1.083454639122e-01 0.0 
-5.832694210924e-06 -9.636785671438e-02 0.0 
4.317502062225e-06 -3.218725252755e-02 0.0 
-5.552968404089e-06 -1.849951318906e-01 0.0 
1.440872236583e-05 -1.480798228327e-01 0.0 
1.299448942040e-05 -3.596043680157e-02 0.0 
1.790926869391e-05 -4.687641166108e-02 0.0 
9.191307952367e-06 -1.584372544390e-01 0.0 
8.407766389809e-06 -1.658306951329e-01 0.0 
-6.200529678770e-06 -3.375350230812e-02 0.0 
1.549551635877e-06 -1.633517841169e-01 0.0 
3.393498876830e-06 -1.837784840230e-02 0.0 
-1.042284186918e-05 -1.940488213680e-01 0.0 
-2.555244313015e-05 -1.929023777027e-01 0.0 
2.356132332855e-06 -1.590253133196e-01 0.0 
8.686365790600e-06 -1.501923505567e-01 0.0 
2.320030217908e-06 -1.683866578069e-01 0.0 
-2.007804359586e-06 -1.706860515357e-01 0.0 
-5.794953642827e-06 -8.863434195773e-02 0.0 
1.987644063722e-05 -1.911802214569e-01 0.0 
-7.766203331632e-06 -1.854827258110e-01 0.0 
2.212523214245e-07 -9.498241986562e-02 0.0 
-8.686049779320e-06 -1.889042577160e-01 0.0 
-1.863318406543e-06 -7.858383341668e-02 0.0 
7.272746127278e-07 -1.597691013910e-01 0.0 
5.014681827691e-06 -1.425405129200e-01 0.0 
-5.205797000687e-06 -1.813096334004e-01 0.0 
4.147076840468e-06 -1.687923968479e-01 0.0 
1.556110948584e-05 -1.177594440395e-01 0.0 
2.848113955169e-05 -1.275051279173e-01 0.0 
1.945095881891e-05 -1.333882833650e-01 0.0 
-1.791110953404e-08 -1.561388317949e-01 0.0 
3.718435729329e-06 -1.667544031495e-01 0.0 
-3.809082674244e-06 -1.732488792329e-01 0.0 
9.369909223105e-06 -1.253531344233e-01 0.0 
2.652343631319e-06 -6.667523463655e-02 0.0 
2.368582428365e-06 -5.965733013514e-02 0.0 
-1.088040759272e-09 -4.400538101200e-02 0.0 
-1.282039546832e-06 -5.260173618419e-02 0.0 
1.932207835439e-06 -6.825886754636e-02 0.0 
-1.156688899943e-06 -6.138117891816e-02 0.0 
-4.732839907010e-06 -4.560463485276e-02 0.0 
1.613022135644e-06 -5.438774567229e-02 0.0 
-4.471431813718e-06 -3.491026045646e-02 0.0 
7.210203903325e-06 -4.689497155359e-02 0.0 
1.270587739761e-06 -6.333382631330e-02 0.0 
1.722890356622e-06 -5.671286809236e-02 0.0 
1.537866291325e-06 -4.168012492963e-02 0.0 
2.985989818666e-06 -7.271865636116e-02 0.0 
-3.167659548248e-06 -2.672490895466e-02 0.0 
2.523958763658e-06 -1.501913391075e-01 0.0 
-9.536157396008e-06 -1.915686851941e-01 0.0 
-2.675257612917e-06 -1.918637628055e-01 0.0 
6.533846712741e-06 -1.370004548465e-01 0.0 
-1.422163144113e-05 -1.710309116172e-02 0.0 
1.371310808318e-05 -1.674973783669e-02 0.0 
-1.501912750971e-06 -1.709344009713e-01 0.0 
1.453454233428e-06 -1.608106359518e-02 0.0 
1.558480828743e-05 -1.287628423509e-01 0.0 
-7.557806043016e-06 -1.827359341753e-01 0.0 
-7.101867248828e-07 -1.619434449778e-02 0.0 
3.068474849004e-06 -7.498129438184e-02 0.0 
5.529214147483e-06 -8.323535912168e-02 0.0 
6.112900584353e-06 -8.949708181135e-02 0.0 
1.075201829987e-05 -1.557432115427e-02 0.0 
-1.971621201559e-06 -1.064542564848e-01 0.0 
9.545859112605e-06 -1.520282907603e-02 0.0 
-2.060960652387e-06 -1.101754626510e-01 0.0 
-9.735513446329e-07 -1.157391318719e-01 0.0 
-1.685404587577e-07 -1.272636963034e-01 0.0 
1.184503165533e-06 -7.027616006740e-02 0.0 
-3.595857405730e-06 -1.620536036001e-02 0.0 
-3.760950640256e-06 -3.113555966654e-02 0.0 
9.750580275274e-06 -3.116741777881e-02 0.0 
-1.916031622844e-06 -4.664934239950e-02 0.0 
1.055606790766e-07 -1.614092668522e-02 0.0 
-9.650577232644e-07 -1.542481340490e-02 0.0 
-1.440483794718e-06 -1.467732373356e-02 0.0 
-7.337763744557e-06 -1.741621740908e-01 0.0 
-4.810074525321e-06 -1.705037126113e-01 0.0 
-2.923911834228e-06 -1.635240410690e-01 0.0 
-2.943417861773e-06 -1.666331595886e-01 0.0 
-5.056150361239e-06 -1.733111500961e-01 0.0 
-3.975364066819e-06 -1.696587400436e-01 0.0 
-2.557101220678e-06 -1.625801358531e-01 0.0 
-4.986810586549e-06 -1.725565788051e-01 0.0 
-3.312552570497e-06 -5.916581239130e-02 0.0 
-3.301796069549e-06 -1.556872007348e-02 0.0 
-4.205735978376e-06 -1.107992981425e-01 0.0 
-4.130406690325e-06 -1.163534373339e-01 0.0 
-3.417363694390e-06 -1.279570921269e-01 0.0 
6.590759977336e-07 -1.479331719608e-01 0.0 
-7.003513812270e-07 -1.424892019544e-01 0.0 
-1.614895374938e-06 -1.320695999246e-01 0.0 
2.554063988078e-06 -1.531225435279e-01 0.0 
1.468329302262e-07 -9.341015926020e-02 0.0 
9.215817015697e-06 -1.572181380157e-02 0.0 
-2.649549588152e-06 -1.134083412570e-01 0.0 
-1.272767436119e-06 -1.467458356392e-01 0.0 
9.372545047943e-06 -1.369982951079e-01 0.0 
3.429892568402e-05 -1.276440013672e-01 0.0 
2.238823257637e-05 -1.274131633760e-01 0.0 
1.912627859493e-05 -1.160133360801e-01 0.0 
2.469454840722e-05 -1.263044563519e-01 0.0 
-3.786531595039e-07 -1.286936890937e-01 0.0 
-2.000565020214e-06 -1.237253614781e-01 0.0 
-5.776647703711e-07 -1.301114683278e-01 0.0 
-3.961633759893e-06 -1.185728449376e-01 0.0 
-3.892989101058e-07 -1.251691551516e-01 0.0 
9.642125919928e-07 -1.359505327673e-01 0.0 
-4.242997500380e-06 -1.132297636918e-01 0.0 
6.740510552015e-06 -1.213964407488e-01 0.0 
9.590581790418e-06 -1.369667958249e-01 0.0 
4.829972255477e-06 -1.939765600833e-01 0.0 
-7.529308804700e-06 -1.928494133163e-01 0.0 
-1.414676978638e-06 -1.928958434649e-01 0.0 
-1.402858736284e-05 -1.912309932078e-01 0.0 
-1.077183737546e-06 -1.910691210385e-01 0.0 
-1.453264697692e-05 -1.884678823563e-01 0.0 
-1.658682475418e-05 -1.888411189684e-01 0.0 
-7.736892598896e-06 -1.928459980378e-01 0.0 
-2.771415615308e-06 -1.939676168277e-01 0.0 
1.608633503387e-06 -1.929178187520e-01 0.0 
-2.079692811319e-06 -1.939718555937e-01 0.0 
-6.561964202250e-06 -1.929574046616e-01 0.0 
-2.057098831928e-06 -1.909305786090e-01 0.0 
-2.154289648892e-06 -1.866105313209e-01 0.0 
4.773156114002e-06 -1.876206639731e-02 0.0 
-1.977810623072e-06 -1.504723465314e-01 0.0 
-1.196937476349e-05 -1.549769692901e-01 0.0 
6.403106847591e-06 -1.629449622205e-01 0.0 
7.286443627105e-08 -1.587415450948e-01 0.0 
1.598550128331e-05 -1.466420884688e-01 0.0 
-1.144919001833e-06 -1.669214413709e-01 0.0 
-1.205188578949e-05 -1.694029510414e-01 0.0 
-3.497698732698e-06 -1.939801899691e-01 0.0 
8.155437807450e-06 -1.928969456500e-01 0.0 
3.225246528798e-07 -1.930781170348e-01 0.0 
1.184911686527e-05 -1.911065865450e-01 0.0 
1.840637058585e-05 -1.911571567050e-01 0.0 
8.214764387146e-06 -1.928684109518e-01 0.0 
4.788306321123e-06 -1.928810138847e-01 0.0 
1.368323863196e-05 -1.939752266770e-01 0.0 
5.688962746139e-06 -1.928932884235e-01 0.0 
8.393740502129e-06 -1.910570819162e-01 0.0 
2.266313740942e-05 -1.939984554397e-01 0.0 
5.038943361383e-06 -7.750309637879e-02 0.0 
3.306187025609e-06 -6.996866975613e-02 0.0 
1.256928653895e-05 -1.676239031446e-02 0.0 
9.488063193608e-06 -1.360751481627e-01 0.0 
-5.527752551000e-07 -1.939799830572e-01 0.0 
3.545212696833e-06 -1.952016412372e-02 0.0 
1.249805933794e-05 -1.627560482367e-02 0.0 
-7.679945297887e-06 -1.574815710732e-02 0.0 
1.892231643892e-06 -4.616371993058e-02 0.0 
1.799720346687e-06 -3.781061002812e-02 0.0 
1.764508940549e-05 -1.895482441623e-02 0.0 
-1.121136378695e-06 -1.746403842513e-01 0.0 
3.710281731882e-06 -3.713189413628e-02 0.0 
4.985800189409e-06 -4.916813707482e-02 0.0 
-6.159984370647e-06 -1.844983149143e-01 0.0 
-4.821479830162e-06 -1.758733416386e-01 0.0 
1.691754504202e-06 -9.291986618678e-02 0.0 
-3.813553957845e-06 -1.085845717347e-01 0.0 
-4.559525139869e-06 -6.118822674253e-02 0.0 
-4.272682003491e-06 -1.047616589255e-01 0.0 
-6.867261783212e-06 -7.461376338034e-02 0.0 
4.926778592744e-06 -3.226455703939e-02 0.0 
-6.700317170814e-06 -1.864972226477e-01 0.0 
2.610972691681e-06 -1.038318954053e-01 0.0 
6.540661074902e-06 -1.084514994676e-01 0.0 
6.496552757459e-06 -7.399426609021e-02 0.0 
6.798156873975e-08 -1.727720306832e-01 0.0 
4.983194036311e-06 -1.401936290105e-01 0.0 
-8.899730778337e-06 -1.855368272771e-01 0.0 
-6.121850947607e-06 -3.040012837542e-02 0.0 
1.017895280624e-05 -1.357253726597e-01 0.0 
-3.223453907767e-06 -1.340489846011e-01 0.0 
2.043105901410e-06 -1.568910507902e-01 0.0 
-2.181424782603e-06 -1.709221853341e-01 0.0 
-5.204818191679e-06 -1.782668623341e-01 0.0 
2.450343135981e-06 -1.449271382831e-01 0.0 
-2.291969166936e-06 -1.412333547091e-01 0.0 
-5.202100461175e-06 -8.554536960160e-02 0.0 
6.463745180917e-06 -6.545632398456e-02 0.0 
1.177657519240e-05 -1.938820233302e-01 0.0 
-5.513517594766e-06 -7.725076036865e-02 0.0 
-3.257783445268e-06 -1.193076630980e-01 0.0 
1.410499467223e-06 -9.914478616642e-02 0.0 
-4.010756343149e-06 -7.701077892297e-02 0.0 
-1.115865539276e-05 -1.867180958258e-01 0.0 
5.807201730985e-06 -6.870810476926e-02 0.0 
2.561618352164e-06 -4.058435439407e-02 0.0 
-6.710699170512e-06 -1.134066946280e-01 0.0 
-1.927936286849e-06 -1.891987142686e-01 0.0 
-5.700969718690e-06 -1.167306109524e-01 0.0 
-6.806697383557e-06 -4.318294784746e-02 0.0 
3.208883727483e-06 -7.348272940004e-02 0.0 
-6.029065672121e-07 -1.762683346764e-01 0.0 
-1.510657429050e-06 -1.299240694435e-01 0.0 
3.716679070048e-06 -1.382813122271e-01 0.0 
6.000241239363e-06 -1.467379271384e-01 0.0 
3.182888712504e-07 -4.217426141338e-02 0.0 
1.513696211246e-06 -1.260376948712e-01 0.0 
-4.492987895243e-06 -6.357614334386e-02 0.0 
-3.140288751468e-06 -1.063144473940e-01 0.0 
2.545126815937e-06 -1.735106802113e-01 0.0 
-9.174619880620e-06 -6.391880505500e-02 0.0 
-4.686834882010e-07 -1.332232372937e-01 0.0 
2.169273999424e-06 -5.278858488247e-02 0.0 
-2.376257535798e-06 -8.395894820081e-02 0.0 
-1.427166587242e-06 -1.535686369594e-01 0.0 
1.966728163403e-06 -6.335816324120e-02 0.0 
-3.006310281061e-06 -1.327621395213e-01 0.0 
-2.928346824208e-07 -6.853052345656e-02 0.0 
9.083875677107e-06 -1.411683407119e-01 0.0 
2.131407632131e-06 -1.101907095595e-01 0.0 
5.348252263566e-06 -9.453740032327e-02 0.0 
2.073081797281e-06 -1.182832594377e-01 0.0 
2.031568902034e-06 -1.006378258750e-01 0.0 
-5.927825887330e-06 -7.068034803558e-02 0.0 
-1.718891055664e-05 -1.857532735513e-01 0.0 
3.051999344069e-06 -1.617676116864e-01 0.0 
4.537368069751e-06 -1.003838200807e-01 0.0 
-8.832522395128e-06 -5.626939369702e-02 0.0 
-1.293150369142e-05 -3.576899692696e-02 0.0 
3.798934282045e-06 -1.476687001009e-01 0.0 
-8.134650788911e-06 -7.269950345154e-02 0.0 
4.734197157669e-06 -4.760386399948e-02 0.0 
-1.817575427260e-06 -1.367713690084e-01 0.0 
9.784434717370e-06 -1.843663223192e-01 0.0 
-1.701300521626e-05 -1.881200335627e-01 0.0 
-3.091344842534e-06 -1.688954429634e-01 0.0 
1.163328789304e-06 -1.320370232762e-01 0.0 
-2.480860871633e-06 -1.258702327099e-01 0.0 
-1.665333295182e-06 -3.284596646695e-02 0.0 
-8.390252786108e-06 -6.601314495347e-02 0.0 
-6.008720549692e-06 -8.184814310002e-02 0.0 
-2.048261192153e-05 -1.926070239164e-01 0.0 
1.505858754770e-05 -1.429284431629e-01 0.0 
-7.093734732799e-06 -5.912276543217e-02 0.0 
-1.942549616908e-06 -1.251456883363e-01 0.0 
2.705331423963e-07 -6.189842433859e-02 0.0 
-2.096180465394e-06 -1.316354597956e-01 0.0 
1.013798140262e-05 -3.081107462913e-02 0.0 
1.066012867387e-05 -1.614145756685e-01 0.0 
-4.196698411417e-06 -5.203026523698e-02 0.0 
-5.455018553342e-06 -8.059307015116e-02 0.0 
-6.290616443079e-08 -1.672107549246e-01 0.0 
4.499003860962e-07 -1.371386382903e-01 0.0 
-1.928017861647e-06 -3.241707018355e-02 0.0 
-8.848062559307e-06 -6.453949638048e-02 0.0 
1.454868813842e-06 -1.063295116011e-01 0.0 
-1.897970215681e-06 -1.313743694224e-01 0.0 
1.156945730394e-05 -1.559704610907e-01 0.0 
-2.536221896647e-06 -1.208178810023e-01 0.0 
1.982108030942e-06 -1.032999429706e-01 0.0 
-7.346105844520e-06 -1.515271284825e-02 0.0 
-6.300711572196e-06 -5.668919410912e-02 0.0 
1.175298651097e-05 -9.733990174168e-02 0.0 
-1.387047781962e-06 -1.273206622986e-01 0.0 
-1.357901724295e-06 -9.620013306905e-02 0.0 
5.652462833161e-06 -1.911386250917e-01 0.0 
1.288097854980e-05 -1.525962431855e-01 0.0 
-1.958708134936e-06 -1.223455080998e-01 0.0 
-2.649532859249e-06 -1.658371744796e-01 0.0 
-2.185113348186e-06 -1.266585850094e-01 0.0 
-1.539860536640e-05 -3.494448030522e-02 0.0 
-3.221959680237e-06 -1.171677244430e-01 0.0 
-1.954083960041e-06 -1.582106852063e-01 0.0 
-5.097760341315e-06 -1.118067275223e-01 0.0 
7.164008453320e-06 -1.641775306686e-01 0.0 
8.438243068155e-06 -9.111323232091e-02 0.0 
-5.552257836754e-06 -1.062560837406e-01 0.0 
-1.448618485023e-06 -9.013082262971e-02 0.0 
1.097616806925e-06 -1.909205236394e-01 0.0 
1.070347663500e-06 -1.008454358567e-01 0.0 
-2.860085158993e-06 -5.507083375970e-02 0.0 
-3.507876259242e-06 -1.626554418098e-01 0.0 
-3.481176217371e-06 -1.217512803003e-01 0.0 
3.228142169596e-06 -7.679561938675e-02 0.0 
3.765264361040e-06 -1.714255325961e-01 0.0 
-3.967374550943e-06 -1.096003761690e-01 0.0 
-3.562330937032e-06 -7.602193487011e-02 0.0 
-9.192796248979e-07 -9.509252343670e-02 0.0 
2.580932689020e-07 -1.210634756063e-01 0.0 
-4.952450769168e-06 -9.628285510204e-02 0.0 
1.534948866029e-06 -1.692889215548e-01 0.0 
-2.430941852243e-06 -1.772182449908e-01 0.0 
-3.328608545499e-06 -1.822995953390e-01 0.0 
-2.045080874680e-06 -1.546292681486e-01 0.0 
-3.156775952865e-06 -6.768318289084e-02 0.0 
2.275609187966e-05 -1.887726680931e-01 0.0 
5.697018234641e-06 -7.877284188283e-02 0.0 
1.770612393985e-06 -1.880848081904e-01 0.0 
-2.681371808245e-06 -1.592124912251e-01 0.0 
-2.056096000295e-06 -7.322449810072e-02 0.0 
4.573834881433e-06 -1.050387622111e-01 0.0 
-3.099605757251e-06 -1.557071191089e-01 0.0 
3.044868607402e-06 -1.794380067187e-01 0.0 
-3.590503742684e-06 -1.602784598627e-01 0.0 
-5.830326935234e-07 -1.090671386958e-01 0.0 
-3.977767759448e-06 -1.568061573059e-01 0.0 
-4.555447079865e-06 -1.613464259800e-01 0.0 
1.386995461309e-05 -3.265931105036e-02 0.0 
-3.849320925141e-06 -1.579995989590e-01 0.0 
1.971690673919e-05 -1.574481251151e-02 0.0 
-2.142436208929e-06 -1.709253834432e-02 0.0 
-3.045248205705e-06 -1.289696471579e-01 0.0 
2.711582369869e-05 -1.780965103282e-01 0.0 
4.178741281991e-06 -1.940072625040e-01 0.0 
2.024425383954e-05 -1.759415844424e-01 0.0 
-3.749746369318e-06 -1.697062043072e-01 0.0 
2.636891166009e-06 -8.093746536918e-02 0.0 
-6.298889807823e-06 -1.284394157322e-01 0.0 
-3.592702288615e-06 -1.735291707224e-01 0.0 
-5.977670267079e-06 -3.068225477862e-02 0.0 
6.432542609678e-06 -1.507468236068e-02 0.0 
-1.383237134645e-06 -8.408616507662e-02 0.0 
1.224409753630e-06 -5.578711402372e-02 0.0 
-1.292833946207e-06 -8.851253214116e-02 0.0 
1.185430364304e-06 -4.675721171215e-02 0.0 
-2.258945318093e-07 -1.378781943033e-01 0.0 
-5.997079066142e-06 -1.929952730690e-01 0.0 
-1.964238204133e-06 -9.332882432899e-02 0.0 
2.702651477499e-06 -1.833644803370e-01 0.0 
-1.382575913643e-06 -1.828030079773e-01 0.0 
-6.145462721588e-06 -1.871884682319e-01 0.0 
-4.801584555318e-06 -1.712092691355e-01 0.0 
-8.132099951948e-06 -1.913036574628e-01 0.0 
-8.496136321270e-06 -1.868274833592e-01 0.0 
7.760707539118e-06 -3.209324394172e-02 0.0 
-3.839925908809e-06 -1.282077324992e-01 0.0 
-6.343004764640e-06 -6.636525096103e-02 0.0 
-1.113124678978e-05 -1.902081538702e-01 0.0 
1.378839211044e-05 -3.163426644233e-02 0.0 
-4.357460144492e-06 -3.179854613763e-02 0.0 
-1.334035800375e-05 -1.485175427622e-02 0.0 
-6.769840462211e-06 -4.985802198006e-02 0.0 
-6.439632342490e-06 -1.905566424894e-01 0.0 
4.027359681498e-06 -1.183768230466e-01 0.0 
-2.661485970604e-06 -3.014020122103e-02 0.0 
-3.737341907514e-06 -7.217681832358e-02 0.0 
1.169026071868e-05 -1.430358817417e-02 0.0 
1.442961843009e-05 -1.292540762966e-01 0.0 
2.763326508096e-06 -3.052149266583e-02 0.0 
-2.631494333663e-05 -1.877773531673e-01 0.0 
1.500275655930e-05 -2.961541794833e-02 0.0 
-2.117039456768e-07 -6.593470237228e-02 0.0 
-3.837020260673e-06 -1.141850967366e-01 0.0 
3.414356087272e-05 -1.189641305418e-01 0.0 
-4.353932001170e-06 -2.966795543079e-02 0.0 
9.953075073742e-06 -3.086364999537e-02 0.0 
-6.818971440106e-06 -1.919050471138e-01 0.0 
-5.757316488239e-07 -8.551920768513e-02 0.0 
3.499286588457e-06 -1.585997179216e-01 0.0 
9.913877640614e-06 -1.931280993131e-01 0.0 
-1.550680453566e-05 -3.085573857145e-02 0.0 
-6.379530690460e-06 -5.052549458683e-02 0.0 
-7.547848687229e-06 -3.024151631352e-02 0.0 
7.291557523034e-06 -1.912979780553e-01 0.0 
1.915380782646e-05 -1.931288371682e-01 0.0 
1.097897205625e-06 -2.844012822149e-02 0.0 
5.964882263698e-06 -2.835758616017e-02 0.0 
-1.969387504941e-05 -1.857136557136e-01 0.0 
5.839023831048e-06 -1.282166477914e-02 0.0 
-3.504810471765e-05 -1.932322056121e-01 0.0 
4.781943282253e-06 -1.389536776786e-01 0.0 
1.716132304782e-05 -1.930506225772e-01 0.0 
2.847867677799e-07 -1.449631243633e-02 0.0 
-1.133276097122e-05 -2.933624284231e-02 0.0 
1.128031368647e-05 -1.508459903875e-01 0.0 
1.659254652331e-05 -1.359373914198e-01 0.0 
-4.905721012043e-06 -1.754907805862e-01 0.0 
-1.181774153044e-05 -4.272154470843e-02 0.0 
1.212115877469e-05 -1.915345777555e-01 0.0 
3.697086621762e-06 -2.767921752077e-02 0.0 
-2.500647432088e-09 -2.762861400686e-02 0.0 
6.465412975866e-06 -2.792892950709e-02 0.0 
4.517586364314e-06 -1.183161487290e-02 0.0 
-6.940835959401e-06 -1.931938821600e-01 0.0 
-3.845104894614e-07 -2.720915971259e-02 0.0 
-1.164903192696e-05 -4.310820867944e-02 0.0 
-9.623631317979e-06 -1.383386903489e-01 0.0 
-6.744975882891e-06 -3.004743575612e-02 0.0 
-9.956916465162e-06 -1.654776549919e-01 0.0 
-1.086595450118e-05 -1.888437559148e-01 0.0 
4.182484771218e-06 -1.395654314116e-02 0.0 
-5.907509634368e-06 -1.940714403796e-01 0.0 
2.625537225474e-06 -1.383434981521e-01 0.0 
-6.007161417401e-06 -1.395244854135e-02 0.0 
2.069967872529e-05 -1.893375956205e-01 0.0 
-5.324196704329e-06 -1.204910146390e-01 0.0 
1.167081019091e-06 -2.725129536919e-02 0.0 
1.435729734552e-05 -1.297899887222e-01 0.0 
-1.232187359751e-05 -5.750310675436e-02 0.0 
-2.171609673468e-06 -1.894404862060e-01 0.0 
1.440408679989e-05 -1.941125133474e-01 0.0 
-4.237693998456e-06 -9.838957898548e-02 0.0 
-1.407471068768e-05 -2.862346567460e-02 0.0 
5.915816989974e-06 -2.660683150876e-02 0.0 
-3.676242458595e-06 -1.072936892741e-01 0.0 
9.709956316487e-07 -1.902570801462e-01 0.0 
-2.552411851282e-06 -3.838439668786e-02 0.0 
1.405746761580e-05 -1.436030295481e-01 0.0 
2.068189773816e-06 -4.155796122628e-02 0.0 
1.365870252537e-05 -4.328646686957e-02 0.0 
-1.824137702678e-05 -1.939703695064e-01 0.0 
-8.046354169826e-06 -1.184086025537e-01 0.0 
8.438181125986e-06 -1.931563657994e-01 0.0 
-3.741186318155e-06 -2.755366745410e-02 0.0 
1.929264215942e-05 -1.390890778803e-01 0.0 
-6.510611514003e-05 -1.941972699737e-01 0.0 
3.132765572287e-05 -1.942007215071e-01 0.0 
-5.788083318416e-05 -1.933256846131e-01 0.0 
-1.822814637148e-05 -1.932252558231e-01 0.0 
-5.037361227297e-05 -1.914568940829e-01 0.0 
1.635435178660e-05 -1.912765091957e-01 0.0 
-4.429125929855e-05 -1.886470714564e-01 0.0 
-1.941577784587e-05 -1.883577303664e-01 0.0 
-3.372802825417e-05 -1.848150694740e-01 0.0 
1.656289368424e-05 -1.844680672612e-01 0.0 
-2.459519419217e-05 -1.800593415704e-01 0.0 
-1.904250255036e-05 -1.796079245496e-01 0.0 
-2.906460656952e-05 -1.742791654430e-01 0.0 
1.690967104546e-05 -1.737764538652e-01 0.0 
-2.905564688779e-05 -1.676035028294e-01 0.0 
-1.897742068208e-05 -1.669740015127e-01 0.0 
-2.491402913278e-05 -1.598583050903e-01 0.0 
1.909113122264e-05 -1.591996546306e-01 0.0 
-2.600898829827e-05 -1.512685448203e-01 0.0 
-1.592674916955e-05 -1.504581288267e-01 0.0 

VECTORS node_materi_displacement float
0.0 8.236844123849e-02 0.0 
0.0 6.244981232098e-02 0.0 
0.0 0.0 0.0 
0.0 0.0 0.0 
0.0 8.225539876877e-02 0.0 
0.0 8.174091170972e-02 0.0 
0.0 8.081976755252e-02 0.0 
0.0 7.948375251592e-02 0.0 
0.0 7.771042382145e-02 0.0 
0.0 7.551230032694e-02 0.0 
0.0 7.289110432980e-02 0.0 
0.0 6.984298139401e-02 0.0 
0.0 6.637062700468e-02 0.0 
0.0 6.247166148295e-02 0.0 
0.0 5.813918472962e-02 0.0 
0.0 5.337560882477e-02 0.0 
0.0 4.818782626460e-02 0.0 
0.0 4.259485102294e-02 0.0 
0.0 3.656367473682e-02 0.0 
0.0 3.010426786543e-02 0.0 
0.0 2.321983706570e-02 0.0 
0.0 1.590440906082e-02 0.0 
0.0 8.157854308505e-03 0.0 
0.0 0.0 0.0 
0.0 0.0 0.0 
0.0 0.0 0.0 
0.0 0.0 0.0 
0.0 0.0 0.0 
0.0 0.0 0.0 
0.0 0.0 0.0 
0.0 0.0 0.0 
0.0 0.0 0.0 
0.0 0.0 0.0 
0.0 0.0 0.0 
0.0 0.0 0.0 
0.0 0.0 0.0 
0.0 0.0 0.0 
0.0 0.0 0.0 
0.0 0.0 0.0 
0.0 0.0 0.0 
0.0 0.0 0.0 
0.0 0.0 0.0 
0.0 0.0 0.0 
0.0 0.0 0.0 
0.0 0.0 0.0 
0.0 0.0 0.0 
0.0 0.0 0.0 
0.0 0.0 0.0 
0.0 0.0 0.0 
0.0 0.0 0.0 
0.0 0.0 0.0 
0.0 0.0 0.0 
0.0 0.0 0.0 
0.0 0.0 0.0 
0.0 0.0 0.0 
0.0 0.0 0.0 
0.0 0.0 0.0 
0.0 0.0 0.0 
0.0 0.0 0.0 
0.0 0.0 0.0 
0.0 0.0 0.0 
0.0 0.0 0.0 
0.0 0.0 0.0 
0.0 0.0 0.0 
0.0 0.0 0.0 
0.0 0.0 0.0 
0.0 0.0 0.0 
0.0 0.0 0.0 
0.0 0.0 0.0 
0.0 0.0 0.0 
0.0 0.0 0.0 
0.0 0.0 0.0 
0.0 5.812143663891e-02 0.0 
0.0 5.336893315628e-02 0.0 
0.0 4.818516687146e-02 0.0 
0.0 4.258245384834e-02 0.0 
0.0 3.654769321708e-02 0.0 
0.0 3.009003261319e-02 0.0 
0.0 2.320615910209e-02 0.0 
0.0 1.589530970897e-02 0.0 
0.0 8.159169706526e-03 0.0 
1.957336999123e-05 8.233522049300e-02 0.0 
0.0 8.233630834584e-02 0.0 
-8.629551786288e-06 6.246981404609e-02 0.0 
1.456480691007e-07 8.224203515912e-02 0.0 
-1.662192312247e-05 8.171978400835e-02 0.0 
-1.588362167808e-05 8.081326011355e-02 0.0 
-1.374296346403e-05 7.948074096239e-02 0.0 
-1.409905663148e-05 7.771034500188e-02 0.0 
-1.520693796459e-05 7.551368630800e-02 0.0 
-1.396905938061e-05 7.289148858578e-02 0.0 
-1.336850534149e-05 6.984290717640e-02 0.0 
-1.386480666339e-05 6.636716381155e-02 0.0 
0.0 8.225560651269e-02 0.0 
0.0 8.173109172099e-02 0.0 
0.0 8.081769950288e-02 0.0 
0.0 7.945432218076e-02 0.0 
0.0 7.769774167104e-02 0.0 
0.0 7.548474899591e-02 0.0 
0.0 7.287733561386e-02 0.0 
0.0 6.981267997682e-02 0.0 
0.0 6.635625482621e-02 0.0 
7.664362554759e-06 6.245080928026e-02 0.0 
3.036540154991e-06 6.245325309534e-02 0.0 
4.087435558920e-06 6.245567424530e-02 0.0 
4.938478817054e-06 6.245097520020e-02 0.0 
2.082880550139e-06 6.245761188360e-02 0.0 
7.828615168854e-07 6.245344174431e-02 0.0 
3.899064498883e-07 6.245549692862e-02 0.0 
-7.341605206036e-06 6.245352034686e-02 0.0 
-5.093277691434e-06 6.246248304119e-02 0.0 
-2.749680394266e-06 6.245914151584e-02 0.0 
-2.929065783738e-06 6.245803825817e-02 0.0 
-3.231847817708e-06 6.246374961186e-02 0.0 
-5.411404838270e-06 6.246584983064e-02 0.0 
-8.027964540533e-06 6.246413753716e-02 0.0 
1.067418921661e-05 8.234957272495e-02 0.0 
1.688853025930e-05 8.236122701399e-02 0.0 
2.768540340433e-05 8.235511979594e-02 0.0 
-4.197328846300e-06 8.235148763573e-02 0.0 
-7.116959687478e-06 8.236297518105e-02 0.0 
4.487046188012e-07 8.236269712970e-02 0.0 
5.638427078975e-06 8.235910700154e-02 0.0 
5.169745989533e-06 8.235773786828e-02 0.0 
2.894749879041e-06 8.235606648832e-02 0.0 
2.655576030951e-06 8.236043905209e-02 0.0 
-5.793483391710e-06 8.235995959810e-02 0.0 
-3.607950048368e-07 8.236976461317e-02 0.0 
2.406391544059e-05 8.236227855415e-02 0.0 
1.576356254890e-05 8.235268709583e-02 0.0 
1.425960492516e-06 8.235797060820e-02 0.0 
6.217784131981e-07 8.236163000156e-02 0.0 
8.042385868234e-06 8.236171311409e-02 0.0 
1.773677409014e-05 8.236518886600e-02 0.0 
2.605162258544e-06 8.235698203262e-02 0.0 
3.506513070389e-05 8.233911121579e-02 0.0 
3.733596577653e-05 8.234481889784e-02 0.0 
1.862044859577e-06 8.235587855716e-02 0.0 
3.238927271436e-06 8.235969699346e-02 0.0 
-2.083093035939e-06 8.236458559203e-02 0.0 
4.915856951648e-07 8.236843825863e-02 0.0 
1.925458909084e-06 8.237241205421e-02 0.0 
4.426915958589e-06 8.237424406058e-02 0.0 
5.728253865556e-06 8.237575845536e-02 0.0 
6.786287445409e-06 8.237695967449e-02 0.0 
7.351276271078e-06 8.237824218657e-02 0.0 
7.768111615086e-06 8.237949607553e-02 0.0 
8.035781094035e-06 8.238068540164e-02 0.0 
8.252430976065e-06 8.238168782520e-02 0.0 
8.439681240774e-06 8.238239998566e-02 0.0 
8.625527423514e-06 8.238273306719e-02 0.0 
8.820923969894e-06 8.238263604826e-02 0.0 
9.039104500235e-06 8.238209251343e-02 0.0 
9.293306088974e-06 8.238112014985e-02 0.0 
9.604487779042e-06 8.237975754141e-02 0.0 
1.000876432942e-05 8.237803866499e-02 0.0 
1.056047242572e-05 8.237596337065e-02 0.0 
1.132300375214e-05 8.237347240800e-02 0.0 
1.233814014839e-05 8.237042867912e-02 0.0 
1.354148319505e-05 8.236661773996e-02 0.0 
1.454305680361e-05 8.236181890911e-02 0.0 
1.408216686167e-05 8.235612217709e-02 0.0 
8.586395637902e-06 8.235135842972e-02 0.0 
-2.242701782966e-05 8.234280126846e-02 0.0 
1.076755809765e-05 8.221648274861e-02 0.0 
1.508414821291e-05 8.220142164427e-02 0.0 
1.159174631186e-05 8.220526813122e-02 0.0 
9.462237888668e-06 8.221021303237e-02 0.0 
8.482791494201e-06 8.221452282764e-02 0.0 
8.001588736675e-06 8.221802111646e-02 0.0 
7.757885240300e-06 8.222085732918e-02 0.0 
7.662176722226e-06 8.222320440282e-02 0.0 
7.684829604809e-06 8.222517855530e-02 0.0 
7.813769063358e-06 8.222683166499e-02 0.0 
8.038200544763e-06 8.222816473492e-02 0.0 
8.340565949740e-06 8.222914791543e-02 0.0 
8.691221651518e-06 8.222974428862e-02 0.0 
9.048997900089e-06 8.222993409713e-02 0.0 
9.366466434451e-06 8.222972502873e-02 0.0 
9.597049822896e-06 8.222916046686e-02 0.0 
9.691912065932e-06 8.222830758117e-02 0.0 
9.616064183971e-06 8.222727424761e-02 0.0 
9.319126078475e-06 8.222614487276e-02 0.0 
8.813067298284e-06 8.222503450065e-02 0.0 
7.956921647535e-06 8.222391745429e-02 0.0 
7.027847392311e-06 8.222281784011e-02 0.0 
5.533862154728e-06 8.222120208271e-02 0.0 
4.900750407589e-06 8.221872188254e-02 0.0 
1.910887431402e-06 8.221439881266e-02 0.0 
1.628370809859e-06 8.220983825885e-02 0.0 
-8.135312964225e-06 8.221090763507e-02 0.0 
9.728879208546e-07 8.219331146487e-02 0.0 
-4.707057307288e-06 8.171461825829e-02 0.0 
1.017586236061e-06 8.172661211493e-02 0.0 
7.037640574492e-06 8.172504150769e-02 0.0 
7.107992778329e-06 8.173009410369e-02 0.0 
8.932958432004e-06 8.173017192052e-02 0.0 
9.037968660554e-06 8.173172341116e-02 0.0 
9.544079213707e-06 8.173248015931e-02 0.0 
9.572221956867e-06 8.173369705783e-02 0.0 
9.647912787666e-06 8.173477435013e-02 0.0 
9.543640747492e-06 8.173586190001e-02 0.0 
9.369944901324e-06 8.173676287724e-02 0.0 
9.092003881700e-06 8.173740560512e-02 0.0 
8.755455293416e-06 8.173769376366e-02 0.0 
8.376286165557e-06 8.173758457291e-02 0.0 
7.988291263728e-06 8.173705945448e-02 0.0 
7.618119383451e-06 8.173613593135e-02 0.0 
7.291075421086e-06 8.173485666805e-02 0.0 
7.029341406076e-06 8.173326604296e-02 0.0 
6.859169522979e-06 8.173138506705e-02 0.0 
6.817086980870e-06 8.172920017497e-02 0.0 
6.960821283903e-06 8.172666742302e-02 0.0 
7.386046377255e-06 8.172375677386e-02 0.0 
8.246376030673e-06 8.172061136524e-02 0.0 
9.763291188726e-06 8.171808837490e-02 0.0 
1.224069266742e-05 8.172020295243e-02 0.0 
1.735372455306e-05 8.175286738352e-02 0.0 
7.018025136629e-07 8.080596032498e-02 0.0 
1.402413259313e-05 8.081871015373e-02 0.0 
9.868431713123e-06 8.081176432448e-02 0.0 
1.113577773077e-05 8.081610187431e-02 0.0 
9.800256640048e-06 8.081501436146e-02 0.0 
9.939069664926e-06 8.081714491289e-02 0.0 
9.506773687477e-06 8.081784184707e-02 0.0 
9.323245405502e-06 8.081924461640e-02 0.0 
9.015697700580e-06 8.082022208253e-02 0.0 
8.760731466084e-06 8.082116031252e-02 0.0 
8.479580578226e-06 8.082170834489e-02 0.0 
8.207508927107e-06 8.082191606269e-02 0.0 
7.915726191230e-06 8.082169107223e-02 0.0 
7.591497995924e-06 8.082104767477e-02 0.0 
7.230287243243e-06 8.082001484349e-02 0.0 
6.852953402475e-06 8.081866626617e-02 0.0 
6.485578583864e-06 8.081706144034e-02 0.0 
6.160370991637e-06 8.081523813258e-02 0.0 
5.923416933257e-06 8.081321531580e-02 0.0 
5.850864858251e-06 8.081101344123e-02 0.0 
6.065317674467e-06 8.080871183149e-02 0.0 
6.740916488826e-06 8.080659341995e-02 0.0 
8.004959116739e-06 8.080543408898e-02 0.0 
9.172621231815e-06 8.080599751778e-02 0.0 
5.403212114636e-06 8.078981255304e-02 0.0 
3.708026385640e-06 7.948151556643e-02 0.0 
5.279658177195e-06 7.946342011476e-02 0.0 
5.343005120746e-06 7.946217645204e-02 0.0 
5.056583801399e-06 7.946307933101e-02 0.0 
4.885846609745e-06 7.946474943398e-02 0.0 
4.940496408931e-06 7.946667354444e-02 0.0 
5.192371184875e-06 7.946863626779e-02 0.0 
5.568756298414e-06 7.947054512271e-02 0.0 
6.008602819206e-06 7.947234122848e-02 0.0 
6.466197497273e-06 7.947397302959e-02 0.0 
6.909767567559e-06 7.947537126690e-02 0.0 
7.304929532354e-06 7.947644712263e-02 0.0 
7.611833839008e-06 7.947707328826e-02 0.0 
7.897371589514e-06 7.947718925052e-02 0.0 
8.173852974069e-06 7.947677457090e-02 0.0 
8.622834791885e-06 7.947600741128e-02 0.0 
8.933810898243e-06 7.947473992110e-02 0.0 
9.687770359633e-06 7.947367600785e-02 0.0 
9.672704954237e-06 7.947172753485e-02 0.0 
1.113091902527e-05 7.947183964131e-02 0.0 
9.574212040258e-06 7.946727846528e-02 0.0 
1.406657262594e-05 7.947354020372e-02 0.0 
2.580524678707e-06 7.946230778117e-02 0.0 
7.372313608782e-07 7.769257585591e-02 0.0 
1.326564802319e-05 7.770671134031e-02 0.0 
9.776482488891e-06 7.769990318479e-02 0.0 
1.094672025090e-05 7.770515882576e-02 0.0 
9.482224945070e-06 7.770457381279e-02 0.0 
9.132917274104e-06 7.770712781353e-02 0.0 
8.270292661669e-06 7.770781955270e-02 0.0 
7.856884821929e-06 7.770897289803e-02 0.0 
7.513628490315e-06 7.770922360235e-02 0.0 
7.223412734396e-06 7.770898480867e-02 0.0 
6.770871866167e-06 7.770805569297e-02 0.0 
6.250785125341e-06 7.770678161550e-02 0.0 
5.724028520449e-06 7.770526192712e-02 0.0 
5.201199758503e-06 7.770357620921e-02 0.0 
4.698308612831e-06 7.770181499734e-02 0.0 
4.255595473614e-06 7.770004866060e-02 0.0 
3.975570138499e-06 7.769837975972e-02 0.0 
3.909887528858e-06 7.769685092939e-02 0.0 
4.020044154112e-06 7.769552648242e-02 0.0 
4.062553687345e-06 7.769446092214e-02 0.0 
3.467704139790e-06 7.769257480578e-02 0.0 
1.842220428915e-06 7.767102324357e-02 0.0 
1.560544940702e-06 7.551260761913e-02 0.0 
2.506984703412e-06 7.549685370647e-02 0.0 
2.853854933667e-06 7.549737414745e-02 0.0 
2.900787327124e-06 7.549851589315e-02 0.0 
2.927258568609e-06 7.549968869351e-02 0.0 
3.080125084003e-06 7.550098502735e-02 0.0 
3.462539175377e-06 7.550246151594e-02 0.0 
3.962738896553e-06 7.550421892556e-02 0.0 
4.464592462784e-06 7.550604970634e-02 0.0 
5.002050360279e-06 7.550782464843e-02 0.0 
5.663939327827e-06 7.550939130983e-02 0.0 
6.395835454656e-06 7.551075554159e-02 0.0 
7.007314154923e-06 7.551188850556e-02 0.0 
7.198705408880e-06 7.551192168475e-02 0.0 
7.960684287767e-06 7.551125311493e-02 0.0 
8.437421603234e-06 7.550912583166e-02 0.0 
1.085383163703e-05 7.550882879981e-02 0.0 
9.963745388974e-06 7.550420464943e-02 0.0 
1.427810250377e-05 7.550907201535e-02 0.0 
2.677859411023e-06 7.549780150796e-02 0.0 
3.019689623868e-06 7.287777313467e-02 0.0 
1.471238554776e-05 7.289087046499e-02 0.0 
9.306376913057e-06 7.288392936470e-02 0.0 
8.894284515108e-06 7.289038964762e-02 0.0 
7.107300189367e-06 7.289061507848e-02 0.0 
7.153892324034e-06 7.289261355863e-02 0.0 
6.256090179084e-06 7.289110407168e-02 0.0 
5.247960005332e-06 7.288957925377e-02 0.0 
4.262008938119e-06 7.288816013146e-02 0.0 
3.614216751244e-06 7.288666263711e-02 0.0 
3.292394217320e-06 7.288486952488e-02 0.0 
2.750630891093e-06 7.288290019958e-02 0.0 
2.285115558657e-06 7.288127694612e-02 0.0 
2.142310431634e-06 7.288024835384e-02 0.0 
2.203781067151e-06 7.287927396607e-02 0.0 
2.303590943258e-06 7.287829749790e-02 0.0 
2.425205664208e-06 7.287702975601e-02 0.0 
2.027468510696e-06 7.287401903386e-02 0.0 
1.010035390132e-06 7.285090520893e-02 0.0 
1.327756911475e-06 6.984020488388e-02 0.0 
2.354443943850e-06 6.982565600796e-02 0.0 
2.054236116770e-06 6.982760343474e-02 0.0 
2.053288929376e-06 6.982841477249e-02 0.0 
1.577375507721e-06 6.982936311136e-02 0.0 
1.289396310667e-06 6.983001158150e-02 0.0 
1.090226283591e-06 6.983063773189e-02 0.0 
1.789435767550e-06 6.983217579885e-02 0.0 
1.547183959872e-06 6.983510494500e-02 0.0 
1.737325750646e-06 6.983651525609e-02 0.0 
2.958493878608e-06 6.983748886397e-02 0.0 
4.181867040861e-06 6.983918709848e-02 0.0 
5.515307133907e-06 6.984110310202e-02 0.0 
7.464319206240e-06 6.984398522786e-02 0.0 
6.115414924844e-06 6.983832709260e-02 0.0 
1.237275598869e-05 6.983962679096e-02 0.0 
2.701091488251e-06 6.982749820556e-02 0.0 
8.211714508096e-07 6.635531246130e-02 0.0 
9.698797711735e-06 6.637679425814e-02 0.0 
3.891940742923e-06 6.636849320533e-02 0.0 
2.118781201274e-06 6.636733327560e-02 0.0 
1.375762941748e-06 6.636518673226e-02 0.0 
-2.373300726113e-07 6.636295562293e-02 0.0 
-1.131296600903e-06 6.636371930270e-02 0.0 
-4.300193805034e-07 6.636273579510e-02 0.0 
-1.025011961443e-06 6.635705172462e-02 0.0 
1.950436892715e-07 6.635795356971e-02 0.0 
5.544681844950e-07 6.635722689715e-02 0.0 
2.299687259678e-06 6.635760805993e-02 0.0 
2.138591339184e-06 6.635562947148e-02 0.0 
3.209675249019e-06 6.635629469134e-02 0.0 
4.197911980234e-06 6.635095799496e-02 0.0 
1.228677417018e-08 6.632399838908e-02 0.0 
2.028074951696e-05 8.233413387829e-02 0.0 
-7.458521269358e-06 8.202521348096e-02 0.0 
-8.374222907501e-06 8.132430514446e-02 0.0 
-5.675315058464e-06 8.020307516543e-02 0.0 
-8.981784163990e-06 7.864909436862e-02 0.0 
-1.256385898194e-05 7.666438960776e-02 0.0 
-5.575896643810e-06 7.425791767909e-02 0.0 
-4.321622395794e-06 7.142344519119e-02 0.0 
-5.418215384392e-06 6.816077974023e-02 0.0 
-3.726023765509e-06 6.447212773254e-02 0.0 
-8.746275118341e-06 8.140595643462e-02 0.0 
1.744682470226e-07 7.086709285178e-03 0.0 
1.887572406753e-07 8.225727355213e-02 0.0 
1.756708154840e-05 8.227669921821e-02 0.0 
-5.697154229381e-07 7.094685586462e-03 0.0 
-4.798254908233e-06 7.876780163862e-02 0.0 
-3.792789974803e-06 6.027572427651e-02 0.0 
-1.348396728632e-06 7.102123364684e-03 0.0 
-7.921432985227e-06 7.451461143375e-02 0.0 
1.753058123729e-06 6.918445603564e-03 0.0 
-8.449860263079e-06 6.852391171317e-02 0.0 
2.365129061305e-06 6.536373246432e-03 0.0 
1.601891021808e-05 8.226046051184e-02 0.0 
2.146701205217e-06 7.024183253795e-03 0.0 
-3.652837987016e-06 6.077052715053e-02 0.0 
2.884076193632e-06 7.416648741394e-02 0.0 
5.088758812162e-07 4.658461542502e-02 0.0 
7.195161528498e-07 7.336008536965e-03 0.0 
-1.791587072792e-06 6.996330920744e-03 0.0 
3.148684249697e-06 7.011209116607e-03 0.0 
-2.052734604372e-06 7.619021310019e-03 0.0 
1.277750878163e-06 6.831116089656e-03 0.0 
-5.133094753393e-06 5.865178057402e-02 0.0 
-8.954554961604e-06 5.857648915038e-02 0.0 
-6.942517636215e-07 5.847167101147e-02 0.0 
5.568894503889e-06 3.952972226996e-02 0.0 
-7.518269772499e-06 7.098292962693e-03 0.0 
9.655730890286e-06 8.226918782256e-02 0.0 
2.697210201960e-06 8.225776319464e-02 0.0 
1.227414102623e-06 2.724390261789e-02 0.0 
3.283198620058e-07 5.876031292644e-02 0.0 
2.578136945717e-06 8.022539061488e-02 0.0 
-3.013438762468e-07 8.070461957519e-03 0.0 
1.364745561835e-06 6.462788882105e-03 0.0 
-2.098464084015e-07 6.873256843754e-03 0.0 
8.313591018869e-07 7.512345622436e-03 0.0 
-3.539609453983e-06 6.746313995482e-03 0.0 
5.935150602785e-06 8.225635890697e-02 0.0 
-1.026298771387e-05 5.884430470056e-02 0.0 
-8.066993382343e-08 8.108823868292e-03 0.0 
-2.045281121909e-06 2.699907860253e-02 0.0 
-3.466707612891e-06 8.225302947640e-02 0.0 
1.592497696813e-06 6.815801703875e-02 0.0 
-4.528205854916e-06 5.711117308865e-03 0.0 
-5.423340733886e-06 7.683725941626e-02 0.0 
-8.471021015238e-06 8.030843122356e-02 0.0 
-7.648962219107e-06 7.175406835078e-02 0.0 
-8.002504124670e-06 6.486953878690e-02 0.0 
1.663754239409e-05 8.212421451457e-02 0.0 
5.765003624573e-06 5.021395851192e-02 0.0 
1.077566990725e-06 5.622580102293e-03 0.0 
-1.119049447051e-05 8.228382792433e-02 0.0 
-2.629184498491e-06 1.267386471627e-02 0.0 
-1.123456721141e-05 5.853516009925e-02 0.0 
-1.752105675913e-05 5.666000497755e-02 0.0 
-1.194698324048e-05 5.448493598469e-02 0.0 
-1.064935240701e-05 5.216476497187e-02 0.0 
-1.598117208771e-05 4.943115733490e-02 0.0 
-1.043901270949e-05 4.716917924597e-02 0.0 
-9.129984552641e-06 4.997154190444e-02 0.0 
-7.725024139024e-06 4.483426199987e-02 0.0 
-7.384939562099e-06 4.774538840295e-02 0.0 
-6.294694876340e-06 4.419258997865e-02 0.0 
-5.358008878846e-06 4.242019573895e-02 0.0 
-5.490809128995e-06 4.543635806514e-02 0.0 
-3.468237893153e-06 3.993854050152e-02 0.0 
-4.014623097619e-06 4.304044752002e-02 0.0 
-5.256467108910e-06 4.834132187348e-02 0.0 
-3.733185740166e-06 4.605517629739e-02 0.0 
-4.653597897936e-06 5.112123123492e-02 0.0 
-3.318239024861e-06 4.894051908230e-02 0.0 
-2.037951153462e-06 4.370085004590e-02 0.0 
-1.934572831535e-06 4.669238425663e-02 0.0 
-2.974414674163e-06 5.170728455817e-02 0.0 
-1.754752349201e-06 4.956332952503e-02 0.0 
-2.619802832962e-06 5.434984019962e-02 0.0 
-1.729668653214e-06 5.229829268795e-02 0.0 
-2.299480805543e-06 5.688868727786e-02 0.0 
-1.711171734127e-06 5.492336026242e-02 0.0 
-1.150705694157e-06 5.016839798226e-02 0.0 
-1.316018794189e-06 5.289139376749e-02 0.0 
-1.723754554110e-06 5.742658219921e-02 0.0 
-1.444573665648e-06 5.549508291077e-02 0.0 
-1.744653325655e-06 5.981227817683e-02 0.0 
-1.594218899865e-06 5.797817075211e-02 0.0 
-1.256506687699e-06 5.348174092029e-02 0.0 
-1.577582660954e-06 5.607017850298e-02 0.0 
-1.868418019716e-06 6.035371935501e-02 0.0 
-1.745308565388e-06 5.854377008637e-02 0.0 
-2.060475313505e-06 6.261739732141e-02 0.0 
-1.708945031243e-06 6.089803272078e-02 0.0 
-1.754321578034e-06 6.475916291253e-02 0.0 
-1.619539535934e-06 6.314347022148e-02 0.0 
-1.331632392622e-06 5.907167167756e-02 0.0 
-1.210948643145e-06 6.141381049042e-02 0.0 
-1.150489211056e-06 6.528338206055e-02 0.0 
-8.225679845008e-07 6.365280563469e-02 0.0 
-8.145763389573e-07 5.960156227906e-02 0.0 
-5.819305531507e-07 6.194610941557e-02 0.0 
-6.428292679421e-07 5.770968218812e-02 0.0 
-4.062404232568e-07 6.015959970424e-02 0.0 
-2.122587732172e-07 6.414543222804e-02 0.0 
-1.212930981658e-08 6.245946640794e-02 0.0 
-1.979358139155e-07 5.828580011501e-02 0.0 
1.855141641098e-07 6.071663008387e-02 0.0 
5.566041330176e-07 6.465896414568e-02 0.0 
8.534501982892e-07 6.299105121186e-02 0.0 
4.165437098514e-07 5.887212936809e-02 0.0 
9.352609262185e-07 6.126493545351e-02 0.0 
1.429994065963e-06 6.514843884097e-02 0.0 
1.491213405875e-06 6.351270947277e-02 0.0 
1.025172299973e-06 5.941413350794e-02 0.0 
1.405187258274e-06 6.180486909596e-02 0.0 
2.052432714971e-06 6.564706409747e-02 0.0 
1.750079241251e-06 6.403140962817e-02 0.0 
1.265432883957e-06 5.997940092286e-02 0.0 
1.333358191238e-06 6.234584921539e-02 0.0 
9.347574473809e-07 5.807920620816e-02 0.0 
1.844976481825e-06 6.617654172007e-02 0.0 
1.153967507781e-06 6.458246940193e-02 0.0 
1.873719946459e-06 6.821607839359e-02 0.0 
8.034022468636e-07 6.669497277953e-02 0.0 
-1.147304977942e-06 5.138715617098e-02 0.0 
1.494159282966e-06 7.009561639772e-02 0.0 
2.759118194516e-06 7.138285699342e-02 0.0 
1.143716648506e-07 6.867612141485e-02 0.0 
-1.179467459857e-07 6.509022086246e-02 0.0 
7.303085491739e-07 7.184188423727e-02 0.0 
-7.839356597595e-07 7.052262867157e-02 0.0 
1.414430323504e-07 7.345544693628e-02 0.0 
-1.948251317362e-06 6.643840768209e-02 0.0 
-4.997933314708e-07 4.126726747564e-02 0.0 
-1.729556082634e-06 7.223727941527e-02 0.0 
7.853944461164e-07 7.493592212862e-02 0.0 
2.209322226748e-06 7.597164230797e-02 0.0 
2.837678128628e-06 7.721568802368e-02 0.0 
-7.043844020243e-06 4.661478135523e-02 0.0 
-3.474036870990e-06 4.108102260529e-02 0.0 
-4.110613399332e-06 4.364813198542e-02 0.0 
-2.322851862793e-06 3.786104289314e-02 0.0 
-3.154570753506e-06 4.051702146954e-02 0.0 
1.317180726118e-06 7.628422849372e-02 0.0 
-2.568886355776e-06 3.658884863374e-02 0.0 
-1.476148621202e-06 3.509086219338e-02 0.0 
-3.568462205255e-06 5.633264329657e-02 0.0 
-1.929518971542e-06 6.157274385960e-02 0.0 
-6.528587502774e-07 5.513764447107e-02 0.0 
-2.097521143017e-06 6.912041145624e-02 0.0 
-4.364996150404e-06 7.093949019188e-02 0.0 
-2.496893606507e-06 6.763648552582e-02 0.0 
9.371731888983e-07 5.548138906155e-02 0.0 
8.297952772630e-07 5.339026994809e-02 0.0 
8.960269045483e-07 5.055128119955e-02 0.0 
9.458573901348e-07 4.827734530000e-02 0.0 
1.109027780536e-06 4.519722855586e-02 0.0 
1.217954582901e-06 4.274043055128e-02 0.0 
1.064809285270e-06 4.592690988693e-02 0.0 
1.455093190825e-06 4.020187617363e-02 0.0 
1.258437049123e-06 4.349695390201e-02 0.0 
1.386525807711e-06 3.942319770568e-02 0.0 
1.340704628115e-06 4.198319411560e-02 0.0 
1.887331815333e-06 3.758609294818e-02 0.0 
1.550292603709e-06 4.098395183722e-02 0.0 
2.303971687664e-06 3.488777422383e-02 0.0 
1.773160969103e-06 3.838908201654e-02 0.0 
1.182232000194e-06 4.425626035611e-02 0.0 
1.307661122599e-06 4.176484075160e-02 0.0 
9.371803340428e-07 4.739776194663e-02 0.0 
-3.331335374607e-07 5.306247842544e-02 0.0 
-1.384319007479e-07 5.025422597525e-02 0.0 
1.714422144065e-07 4.799952041411e-02 0.0 
3.812947171230e-07 4.495562800151e-02 0.0 
7.261386558367e-07 4.251746778493e-02 0.0 
9.578463267958e-07 3.924388904042e-02 0.0 
1.421386927514e-06 3.661413371587e-02 0.0 
8.701965248239e-07 4.000118220719e-02 0.0 
-2.058939411526e-06 3.736427722740e-02 0.0 
-8.291530814240e-07 6.729805393200e-02 0.0 
-1.189612108738e-06 6.875201984409e-02 0.0 
-5.651105632806e-07 7.054424724520e-02 0.0 
-9.240603345487e-07 7.181781774400e-02 0.0 
2.514078345870e-07 7.338842450654e-02 0.0 
-2.367458207877e-07 7.449128291379e-02 0.0 
1.814056990939e-06 7.584784504523e-02 0.0 
2.073410454369e-06 7.482990007144e-02 0.0 
4.627199006450e-06 7.707783115951e-02 0.0 
4.083160925433e-06 7.615165531245e-02 0.0 
7.585763168109e-06 7.817741607441e-02 0.0 
5.823587815844e-06 7.735723889951e-02 0.0 
-8.995999876625e-07 4.796371087310e-02 0.0 
3.520525617676e-07 4.178415621915e-02 0.0 
4.742480574267e-07 3.584256635642e-02 0.0 
2.049241780517e-07 3.848945620906e-02 0.0 
4.279393220727e-06 7.806906763403e-02 0.0 
1.594879711566e-06 3.570912568779e-02 0.0 
1.761225905674e-06 3.597170741691e-02 0.0 
1.440922427241e-06 3.868815520703e-02 0.0 
1.651714959141e-06 3.390579481514e-02 0.0 
4.010005217112e-06 7.832680067550e-02 0.0 
8.094281650646e-07 7.677439239230e-02 0.0 
-9.169137949386e-07 7.552531484946e-02 0.0 
-2.108681528766e-06 3.447148512249e-02 0.0 
-2.525879237941e-06 3.723816482814e-02 0.0 
2.238473307147e-06 3.239586721767e-02 0.0 
2.068196331352e-06 7.749998769992e-02 0.0 
2.039142791158e-06 3.406260325165e-02 0.0 
6.866790540954e-06 7.892747313156e-02 0.0 
8.482107027211e-07 3.919167106327e-02 0.0 
6.954539490978e-07 3.294811795206e-02 0.0 
8.566111517024e-07 4.896866794458e-02 0.0 
-3.501727768099e-07 3.231384366572e-02 0.0 
-1.295504634471e-07 3.517096444302e-02 0.0 
3.415862755317e-06 7.513618580392e-02 0.0 
4.884946252001e-06 7.645969960855e-02 0.0 
8.181478630134e-06 7.843866019787e-02 0.0 
8.446581812226e-06 7.758975074209e-02 0.0 
5.298693791856e-06 7.545552535816e-02 0.0 
7.251266220913e-06 7.674165108697e-02 0.0 
7.829468764738e-06 7.864707944865e-02 0.0 
7.077432571827e-06 7.789655033325e-02 0.0 
6.016740445886e-06 7.578478190806e-02 0.0 
6.000448431077e-06 7.703924714627e-02 0.0 
5.958740707008e-06 7.892749578801e-02 0.0 
5.349445094879e-06 7.816198693439e-02 0.0 
1.969389808706e-06 2.922679693057e-02 0.0 
9.920824000346e-06 7.980104118584e-02 0.0 
-5.692858528931e-06 5.322411451687e-02 0.0 
2.074858850080e-06 2.953816490002e-02 0.0 
1.592599872907e-06 3.037197796790e-02 0.0 
-1.850034251227e-06 3.093871213476e-02 0.0 
-1.918403191503e-06 3.381612907364e-02 0.0 
-1.774473919362e-06 3.995461680090e-02 0.0 
-1.862293289472e-06 3.662446909295e-02 0.0 
-1.517758020928e-06 3.024447834831e-02 0.0 
-2.358594526566e-06 3.316046847858e-02 0.0 
-2.211740969925e-06 3.936711995416e-02 0.0 
-3.046955177864e-06 3.600173438464e-02 0.0 
-2.582879609540e-06 4.203093030567e-02 0.0 
-3.202523893975e-06 3.876302566819e-02 0.0 
-3.218833420221e-06 3.249736762851e-02 0.0 
-3.495265571413e-06 3.536365441685e-02 0.0 
-3.022068171844e-06 4.144756113757e-02 0.0 
-4.023522519322e-06 3.814962577995e-02 0.0 
-3.629051515179e-06 4.404837780752e-02 0.0 
-4.884530588565e-06 4.085138699945e-02 0.0 
-3.188867492348e-06 3.471970506645e-02 0.0 
6.365017812712e-06 7.924112888421e-02 0.0 
9.861640765132e-07 3.741116271238e-02 0.0 
1.813760065033e-06 3.111377278076e-02 0.0 
-8.765097917773e-06 6.955286835982e-02 0.0 
3.254216850610e-06 6.606045034678e-02 0.0 
3.321221866599e-07 6.390635942995e-02 0.0 
-3.825385412518e-06 6.216247285933e-02 0.0 
-1.568483484164e-06 3.755319158595e-02 0.0 
-4.756342565751e-06 3.116319965556e-02 0.0 
-3.973681840523e-07 7.761007370116e-02 0.0 
-1.632101403152e-06 7.648071887936e-02 0.0 
-1.563507995938e-06 2.798760233978e-02 0.0 
-8.404795361872e-07 3.653719964108e-02 0.0 
1.151132730151e-06 4.254395594017e-02 0.0 
-1.996966596182e-06 6.373220986990e-02 0.0 
-2.048797198170e-06 6.532569946882e-02 0.0 
-2.110986415401e-06 6.726397592502e-02 0.0 
-2.047252021064e-06 6.876632519192e-02 0.0 
-2.463584550944e-06 6.686019192189e-02 0.0 
-2.646728237713e-06 7.050218641746e-02 0.0 
1.251106268082e-06 4.456142129854e-02 0.0 
-2.603546224983e-06 2.885879628792e-02 0.0 
3.762342976967e-06 7.692850056159e-02 0.0 
4.637136988144e-06 7.884725506210e-02 0.0 
4.693528015586e-07 3.010480368864e-02 0.0 
4.555781206599e-07 4.327319244714e-02 0.0 
-3.890172927933e-07 4.500821264979e-02 0.0 
-1.691946482507e-07 4.261486181477e-02 0.0 
6.823958360231e-07 3.941875770424e-02 0.0 
6.755989241154e-07 3.684205698859e-02 0.0 
1.639878901207e-06 3.340231797031e-02 0.0 
1.874972033464e-06 3.063510650916e-02 0.0 
4.803640542874e-07 3.418636790892e-02 0.0 
-8.834557057489e-07 2.862942528594e-02 0.0 
2.916270034853e-06 2.777295538839e-02 0.0 
-4.776469682656e-06 4.351907998144e-02 0.0 
-1.663826324816e-07 4.430185682762e-02 0.0 
5.239077184112e-06 7.474003512268e-02 0.0 
9.613844625034e-06 7.988095892483e-02 0.0 
2.062498636304e-06 7.986316758892e-02 0.0 
2.518528606805e-06 7.856675443491e-02 0.0 
7.455949676209e-07 7.658765297460e-02 0.0 
2.292181615573e-06 2.571411115570e-02 0.0 
2.637196128813e-06 2.695593786076e-02 0.0 
2.227562195981e-06 2.984489752487e-02 0.0 
-2.675512919949e-06 7.014495944081e-02 0.0 
-3.546124074180e-06 6.830739018625e-02 0.0 
-1.798122462097e-06 2.571390872778e-02 0.0 
-2.742159392845e-06 4.619105986466e-02 0.0 
-1.805753149864e-06 4.516773439310e-02 0.0 
-4.169915838693e-07 4.764630121413e-02 0.0 
1.831574272071e-06 8.023039141556e-02 0.0 
1.362648557250e-08 8.037210617040e-02 0.0 
-1.631647894277e-06 2.653603091200e-02 0.0 
-1.797281481425e-06 7.418617226908e-02 0.0 
-2.151176233219e-06 7.523791006257e-02 0.0 
1.302992114361e-05 8.037627709256e-02 0.0 
1.571628020121e-05 8.102234496031e-02 0.0 
-5.129875501157e-06 3.403104183088e-02 0.0 
-4.024447506777e-06 2.747170614606e-02 0.0 
-2.026290827793e-06 5.976326094078e-02 0.0 
-1.555858901780e-06 5.783159599623e-02 0.0 
3.080977564420e-06 2.867008362617e-02 0.0 
4.216420559802e-06 7.915153148618e-02 0.0 
-2.342959330986e-06 2.436224527155e-02 0.0 
7.872708921414e-07 4.078251068010e-02 0.0 
3.299215320039e-07 4.641958103333e-02 0.0 
-3.956158528279e-07 6.444248323850e-02 0.0 
-1.041714786229e-06 7.838232056865e-02 0.0 
1.606647225140e-06 7.929527104855e-02 0.0 
4.442753525849e-06 7.325080498159e-02 0.0 
5.403988488562e-06 7.731527679814e-02 0.0 
3.101786174227e-07 7.776452550182e-02 0.0 
2.373259144613e-06 2.175693579615e-02 0.0 
-1.081359297333e-06 2.344168534526e-02 0.0 
1.002236500601e-06 3.143149038908e-02 0.0 
3.509529827909e-07 3.762019061544e-02 0.0 
5.576484834421e-06 2.483323392580e-02 0.0 
4.072084519654e-06 8.057038923554e-02 0.0 
1.378941954721e-06 2.267452641273e-02 0.0 
-3.706011733836e-07 3.380070810157e-02 0.0 
2.270781852160e-06 2.344966510991e-02 0.0 
1.426958350258e-06 2.615592554758e-02 0.0 
-2.203987671444e-06 7.275061374731e-02 0.0 
-2.633391191986e-06 7.383064560832e-02 0.0 
-2.323484284520e-06 7.618746829334e-02 0.0 
-2.866824131040e-06 7.487653696059e-02 0.0 
-9.388740484757e-06 5.267523613459e-02 0.0 
-2.995606657554e-06 7.115627231435e-02 0.0 
-5.195009790645e-06 5.577490421229e-02 0.0 
-6.788475168544e-06 5.769722652564e-02 0.0 
-6.130743018792e-06 6.001823939028e-02 0.0 
-3.246899139221e-06 6.490762809165e-02 0.0 
-4.393735759407e-06 6.640819254722e-02 0.0 
-1.636396524835e-06 7.014930526446e-02 0.0 
-5.046199322689e-07 5.243580520383e-02 0.0 
-3.571469542835e-07 6.161152495098e-02 0.0 
5.667682679544e-07 4.968152065381e-02 0.0 
9.143921451697e-07 5.274552726105e-02 0.0 
-2.239679784886e-06 2.581190987551e-02 0.0 
-1.158502412082e-06 2.192963971248e-02 0.0 
-4.665142521414e-07 4.711329078565e-02 0.0 
-2.827915704010e-08 4.952731695510e-02 0.0 
4.697938460711e-06 7.974812421219e-02 0.0 
6.406764061315e-06 8.034351344609e-02 0.0 
6.639170177743e-07 5.609833943619e-02 0.0 
1.725319837774e-06 2.660678509136e-02 0.0 
-1.363825979848e-06 2.420860252896e-02 0.0 
-1.166026400758e-06 2.106565781359e-02 0.0 
-1.388889795336e-06 2.495217657629e-02 0.0 
4.408512910466e-06 2.479867868061e-02 0.0 
-2.330278306766e-07 6.918267929971e-02 0.0 
-5.706766804997e-08 5.092168435503e-02 0.0 
1.039651604310e-05 8.055088679637e-02 0.0 
-9.777558458650e-07 4.859912294426e-02 0.0 
9.679341621837e-06 8.100357135374e-02 0.0 
-3.350804120765e-07 3.808445529279e-02 0.0 
1.582728628783e-06 2.717931404851e-02 0.0 
3.058935698669e-06 2.324537664140e-02 0.0 
9.343223446293e-07 2.182601778772e-02 0.0 
-9.654701196675e-06 5.901266334064e-02 0.0 
-9.007391496033e-07 4.631131017589e-02 0.0 
-8.126021584514e-07 4.922486701494e-02 0.0 
-7.121963253852e-06 6.175366103650e-02 0.0 
-6.288993457308e-06 6.385208255529e-02 0.0 
-5.403086330026e-06 6.221470231323e-02 0.0 
-5.525459754871e-06 6.585984816363e-02 0.0 
3.711987408978e-06 7.204768925605e-02 0.0 
4.462876085492e-06 7.363731411511e-02 0.0 
3.197263834954e-06 1.984806071829e-02 0.0 
8.911046645713e-06 2.116291973761e-02 0.0 
-5.087780700630e-06 1.971420845157e-02 0.0 
-2.186511773530e-07 2.231671874847e-02 0.0 
-9.295956598402e-08 1.870830372825e-02 0.0 
-4.221651230521e-06 2.270520071958e-02 0.0 
-6.291613075137e-07 7.559178362297e-02 0.0 
-4.284074158685e-06 6.962305576154e-02 0.0 
1.910041265363e-07 1.948146097223e-02 0.0 
-7.890411239092e-06 5.956939568180e-02 0.0 
4.240978676944e-06 1.974386963731e-02 0.0 
3.179896510606e-06 2.361803832037e-02 0.0 
2.077091241536e-05 8.154260398663e-02 0.0 
1.108482485050e-05 8.117736947850e-02 0.0 
2.200811990325e-06 2.059244850314e-02 0.0 
-3.020832541125e-06 7.702566480460e-02 0.0 
-3.226071649297e-06 7.585814880252e-02 0.0 
-2.830958464314e-06 7.808923457432e-02 0.0 
-1.244703409104e-06 1.212374834118e-02 0.0 
-6.864120272455e-08 5.881590213945e-02 0.0 
2.709222562979e-06 2.013848562644e-02 0.0 
-3.814564700499e-06 6.276375959025e-02 0.0 
-3.304476585796e-06 1.700899517982e-02 0.0 
-5.132801837895e-07 4.394702341671e-02 0.0 
-1.939764389985e-06 6.585677751562e-02 0.0 
2.296622898002e-06 3.154417334895e-02 0.0 
-1.189888590040e-06 2.438447919142e-02 0.0 
3.510181035461e-07 1.637951385818e-02 0.0 
1.217967167814e-06 5.046561250279e-02 0.0 
6.494790059393e-06 5.284601638404e-02 0.0 
-1.745140106341e-06 4.816392030575e-02 0.0 
5.729356489735e-06 7.957378520697e-02 0.0 
7.639316178454e-06 8.097039354390e-02 0.0 
-2.099248404998e-06 2.508670473060e-02 0.0 
1.138190268272e-06 7.262867980863e-02 0.0 
-1.534080783620e-06 7.102532821041e-02 0.0 
4.628073841668e-06 7.847662827779e-02 0.0 
4.262511182422e-06 7.645112920320e-02 0.0 
-6.629195676878e-07 5.725631573987e-02 0.0 
-9.460918780369e-08 5.919998805588e-02 0.0 
1.125572806893e-06 3.542841930052e-02 0.0 
8.445316580939e-07 3.206153935278e-02 0.0 
3.123767811723e-07 4.194029684354e-02 0.0 
9.417515136451e-07 4.401636996375e-02 0.0 
4.398841787948e-07 4.943037672604e-02 0.0 
9.545411219246e-08 5.160658654761e-02 0.0 
9.474594606293e-07 1.893407331332e-02 0.0 
7.053641758326e-07 1.419785318352e-02 0.0 
2.877742845498e-06 7.037970135821e-02 0.0 
2.961127972336e-06 7.166464472631e-02 0.0 
3.185430448312e-06 7.085324169384e-02 0.0 
-4.602854267500e-06 1.633451607123e-02 0.0 
6.403073314625e-06 1.617746185953e-02 0.0 
5.304963571483e-06 1.945437802446e-02 0.0 
7.340512501917e-06 8.139889001810e-02 0.0 
1.558284064169e-06 8.083757422676e-02 0.0 
-7.295345703109e-07 7.987131485686e-02 0.0 
4.119802548599e-06 8.060188276784e-02 0.0 
1.160494449473e-07 1.812891330651e-02 0.0 
-1.901739418599e-06 2.188820481053e-02 0.0 
-1.782651667151e-06 1.372693951405e-02 0.0 
1.004317547302e-06 7.699463123779e-02 0.0 
9.287384593421e-07 3.484325062028e-02 0.0 
2.025496681715e-06 1.801346997527e-02 0.0 
6.958391988159e-06 2.118759423643e-02 0.0 
-4.078925021416e-07 1.394643802062e-02 0.0 
1.431951983781e-06 2.507139421921e-02 0.0 
3.212680338037e-06 1.819151160305e-02 0.0 
3.342392166070e-06 1.778133667765e-02 0.0 
1.579285586642e-05 8.182590555538e-02 0.0 
2.449566305352e-06 1.942413182597e-02 0.0 
-5.025285842225e-07 5.236591961308e-02 0.0 
2.765960135849e-05 8.205824460087e-02 0.0 
3.026389027928e-06 5.475943307797e-02 0.0 
6.396081787498e-06 5.188878355797e-02 0.0 
2.460671874028e-06 5.704004545388e-02 0.0 
-2.373822583921e-06 7.881374317419e-02 0.0 
-1.460726549404e-06 5.405662892901e-02 0.0 
-2.482971207318e-06 5.123680108152e-02 0.0 
-2.618764431358e-06 8.185830065342e-02 0.0 
1.201580393525e-07 1.222588709991e-02 0.0 
6.529391526803e-06 8.178193221953e-02 0.0 
1.372474732262e-05 8.148574349363e-02 0.0 
5.670525230754e-06 1.648859778753e-02 0.0 
4.334706044647e-06 2.051891451030e-02 0.0 
-3.322991848443e-06 1.329059274336e-02 0.0 
2.958395642166e-06 1.772614700043e-02 0.0 
4.534566697359e-06 2.457799997275e-02 0.0 
3.784104128844e-06 2.152295398442e-02 0.0 
7.873045141357e-07 5.548234868113e-02 0.0 
3.136979652331e-06 1.344719787458e-02 0.0 
2.808310912916e-06 1.823247135876e-02 0.0 
-2.129765863836e-06 1.037426762242e-02 0.0 
-7.515625757578e-06 6.723407633937e-02 0.0 
-5.041053825883e-06 7.358021054834e-02 0.0 
-9.951376328084e-06 7.464288166050e-02 0.0 
-2.259407532977e-06 7.680999174684e-02 0.0 
-1.072065391679e-06 1.433328547882e-02 0.0 
5.232029036642e-06 1.873141298665e-02 0.0 
7.359455185759e-07 3.084302280139e-02 0.0 
6.598791090720e-07 3.722819517964e-02 0.0 
3.603051636970e-06 5.453810137405e-02 0.0 
-1.547030885267e-09 5.474244650016e-02 0.0 
5.230206197439e-06 5.014233205804e-02 0.0 
2.262741072156e-06 5.072600524953e-02 0.0 
-2.377424096842e-06 4.590797431327e-02 0.0 
-2.695132463170e-06 4.654032340167e-02 0.0 
2.407515092285e-06 4.141857668713e-02 0.0 
-1.817538200309e-06 1.386423455172e-02 0.0 
-3.867942598785e-06 7.883717750876e-02 0.0 
-7.342944356553e-06 6.344740156249e-02 0.0 
-6.018976177365e-06 1.548781003534e-02 0.0 
-8.320775958689e-06 2.018285385784e-02 0.0 
-5.350462467068e-06 6.781798201273e-02 0.0 
-5.643188263395e-06 7.092290743038e-02 0.0 
2.255807341607e-06 1.453880161259e-02 0.0 
-2.446129040826e-06 6.987878280177e-02 0.0 
-1.544137314535e-06 7.919362354631e-03 0.0 
2.148823768769e-05 8.227474132343e-02 0.0 
2.040831419497e-05 8.192132853423e-02 0.0 
-2.463050085061e-06 6.806115443482e-02 0.0 
-4.650551412450e-06 6.433958552987e-02 0.0 
-2.939364593242e-06 7.198879171873e-02 0.0 
-1.392608976234e-06 7.294962444603e-02 0.0 
1.634342159173e-06 3.810678921353e-02 0.0 
-7.042519347287e-06 8.128404583700e-02 0.0 
-2.840400262019e-06 7.903337900890e-02 0.0 
-3.073471397073e-07 4.082552802756e-02 0.0 
-5.099947326245e-06 8.039622120439e-02 0.0 
7.026939546279e-07 3.380059507359e-02 0.0 
-1.930035580072e-06 6.837408821230e-02 0.0 
-2.632737633586e-06 6.109918998785e-02 0.0 
-2.041144250832e-06 7.733839340075e-02 0.0 
-3.865977001662e-06 7.215663371772e-02 0.0 
-7.020618908238e-06 5.055979282848e-02 0.0 
-1.299143817078e-05 5.471318627242e-02 0.0 
-9.118263663631e-06 5.721594710954e-02 0.0 
-1.474026690980e-06 6.684604522310e-02 0.0 
-3.496675603680e-06 7.130833064980e-02 0.0 
-1.106685885996e-06 7.401738166716e-02 0.0 
-4.248127480953e-06 5.379594979383e-02 0.0 
-1.204109118843e-06 2.869033048330e-02 0.0 
-1.006992429201e-06 2.567650994305e-02 0.0 
5.937775346562e-08 1.894907821761e-02 0.0 
6.569060694682e-07 2.264474749760e-02 0.0 
-7.892373442903e-07 2.936999465978e-02 0.0 
6.373884407891e-07 2.641681566019e-02 0.0 
2.217507584941e-06 1.963672604261e-02 0.0 
-5.216026528767e-07 2.341229108327e-02 0.0 
2.124449567015e-06 1.503666556890e-02 0.0 
-2.942922405722e-06 2.019152228971e-02 0.0 
-3.350557438385e-07 2.725531079643e-02 0.0 
-4.947346715973e-07 2.441122348399e-02 0.0 
-4.378540996188e-07 1.794871799241e-02 0.0 
-1.065258206694e-06 3.128369199159e-02 0.0 
1.194050128772e-06 1.151309384413e-02 0.0 
-2.167881967396e-06 6.433553754782e-02 0.0 
1.349394482413e-05 8.143033763949e-02 0.0 
6.038525700141e-06 8.154502368691e-02 0.0 
-3.170362038827e-06 5.874901054353e-02 0.0 
6.324493705736e-06 7.369967831848e-03 0.0 
-5.977577183041e-06 7.217860555713e-03 0.0 
-1.297094060474e-06 7.305042531223e-02 0.0 
-5.087314595163e-07 6.929711468584e-03 0.0 
-7.250123348047e-06 5.524835262090e-02 0.0 
3.586065892239e-06 7.792480554489e-02 0.0 
4.102906824900e-07 6.978419356783e-03 0.0 
-1.369850944152e-06 3.225484292036e-02 0.0 
-2.439123195241e-06 3.579421729192e-02 0.0 
-2.793407831935e-06 3.847738762091e-02 0.0 
-4.718207102372e-06 6.711569819231e-03 0.0 
4.637138102162e-07 4.573291634944e-02 0.0 
-4.229483590932e-06 6.551250610804e-03 0.0 
1.890752816934e-08 4.732020764378e-02 0.0 
-4.113680327455e-07 4.969512387887e-02 0.0 
-8.954602037460e-07 5.460697209624e-02 0.0 
-3.612483097489e-07 3.023573472690e-02 0.0 
1.389083532753e-06 6.983012027400e-03 0.0 
1.281282153153e-06 1.341155364946e-02 0.0 
-4.680326644297e-06 1.342531843172e-02 0.0 
2.881142432848e-07 2.008553961003e-02 0.0 
-2.741342349096e-07 6.955498729300e-03 0.0 
5.348665129301e-07 6.646996899628e-03 0.0 
7.485252463980e-07 6.324977742182e-03 0.0 
5.073231692081e-06 7.439863290583e-02 0.0 
3.054581810095e-06 7.287612689015e-02 0.0 
1.606482834293e-06 6.995598693718e-02 0.0 
1.432320213159e-06 7.125845534463e-02 0.0 
2.995318381029e-06 7.404426156119e-02 0.0 
1.679631974469e-06 7.252225484816e-02 0.0 
6.411865662581e-07 6.955868742855e-02 0.0 
1.941735660954e-06 7.372870715244e-02 0.0 
1.753893356097e-06 2.546480680456e-02 0.0 
1.213968802182e-06 6.709006529789e-03 0.0 
1.077137081862e-06 4.758853520699e-02 0.0 
1.044756588087e-06 4.995931263664e-02 0.0 
8.899457023240e-07 5.490461595006e-02 0.0 
-5.932637578812e-07 6.338547062531e-02 0.0 
-1.617825704769e-08 6.107949820080e-02 0.0 
2.007652483283e-07 5.665522205968e-02 0.0 
-1.411041305609e-06 6.557908821669e-02 0.0 
-8.676032456339e-08 4.015109831949e-02 0.0 
-4.280955869708e-06 6.774953168072e-03 0.0 
1.510182407358e-07 4.870157876462e-02 0.0 
4.608864795780e-07 6.288239756071e-02 0.0 
-4.784559781029e-06 5.874996931612e-02 0.0 
-1.562387168953e-05 5.477237952930e-02 0.0 
-1.039623167458e-05 5.467412734654e-02 0.0 
-8.829343085605e-06 4.981560592270e-02 0.0 
-1.138062211678e-05 5.420217728800e-02 0.0 
-3.682432775005e-07 5.521987679320e-02 0.0 
3.947412153775e-07 5.310437354551e-02 0.0 
-1.292023367149e-07 5.582362197443e-02 0.0 
1.341268500898e-06 5.090802225098e-02 0.0 
-1.162774287975e-07 5.371969266784e-02 0.0 
-6.938404855383e-07 5.830613611893e-02 0.0 
1.575714729374e-06 4.862814982415e-02 0.0 
-3.131156583372e-06 5.211242473109e-02 0.0 
-4.784867588658e-06 5.873611290353e-02 0.0 
9.699569050662e-06 8.226151385740e-02 0.0 
1.016041012174e-05 8.189961917655e-02 0.0 
7.034012409203e-06 8.191390792098e-02 0.0 
1.273792234256e-05 8.130515222481e-02 0.0 
8.843908410512e-06 8.124675522664e-02 0.0 
1.250403663711e-05 8.023649659177e-02 0.0 
1.397458939147e-05 8.038325192411e-02 0.0 
1.599311180242e-05 8.190403017673e-02 0.0 
3.917457415383e-06 8.225689710447e-02 0.0 
4.812577425585e-06 8.192220251193e-02 0.0 
2.668877970603e-06 8.225676903561e-02 0.0 
1.100065326756e-06 8.193491468144e-02 0.0 
4.270117879236e-06 8.119336553917e-02 0.0 
5.103728526930e-06 7.949124413323e-02 0.0 
-2.230542169069e-06 8.084881017460e-03 0.0 
8.025293941331e-07 6.446127289448e-02 0.0 
5.157309830854e-06 6.636300892192e-02 0.0 
-2.790992447352e-06 6.971632016855e-02 0.0 
-1.416702837143e-07 6.794979421075e-02 0.0 
-7.165494281119e-06 6.284057582825e-02 0.0 
5.675235189819e-07 7.138290691190e-02 0.0 
5.452467729648e-06 7.242005896965e-02 0.0 
-1.433285530713e-06 8.226206740718e-02 0.0 
-1.105407698781e-05 8.192271174087e-02 0.0 
-1.264680060255e-05 8.198280368902e-02 0.0 
-6.799939003773e-06 8.126515426164e-02 0.0 
-9.175585116808e-06 8.128210218666e-02 0.0 
-3.639632459165e-06 8.190797010410e-02 0.0 
1.589193596348e-06 8.191222658730e-02 0.0 
5.182072136082e-06 8.226120272147e-02 0.0 
7.560787828052e-06 8.191882844280e-02 0.0 
8.768595005452e-07 8.124316872433e-02 0.0 
1.300359719121e-05 8.226537194757e-02 0.0 
-2.262000574856e-06 3.333578908637e-02 0.0 
-1.545748972279e-06 3.010352311008e-02 0.0 
-5.759510214857e-06 7.223207421705e-03 0.0 
-4.641034658140e-06 5.835743307888e-02 0.0 
9.876210942273e-07 8.226193542748e-02 0.0 
-1.624899730374e-06 8.411359831538e-03 0.0 
-5.551745510640e-06 7.013557033779e-03 0.0 
3.303365346370e-06 6.786367934926e-03 0.0 
-9.089644532924e-07 1.987750686646e-02 0.0 
-9.187294653174e-07 1.628475381047e-02 0.0 
-7.785919581694e-06 8.167755503848e-03 0.0 
1.766650454640e-06 7.459520673729e-02 0.0 
-1.529062759010e-06 1.599227494404e-02 0.0 
-2.360804785724e-06 2.116881918855e-02 0.0 
1.972738835083e-06 7.864043186255e-02 0.0 
4.807581727580e-06 7.510650645547e-02 0.0 
-1.107119781118e-06 3.994387664116e-02 0.0 
9.769746550355e-07 4.664324923638e-02 0.0 
1.565386123247e-06 2.633439979563e-02 0.0 
1.306091827361e-06 4.501000694390e-02 0.0 
2.392318208556e-06 3.209729810379e-02 0.0 
-2.601806072673e-06 1.389769149810e-02 0.0 
4.003913766769e-06 7.945446770203e-02 0.0 
-1.528597076029e-06 4.461164802243e-02 0.0 
-3.186844364097e-06 4.658569204117e-02 0.0 
-3.113674784007e-06 3.183109807184e-02 0.0 
1.350079920861e-07 7.382238866401e-02 0.0 
-2.537184649589e-06 6.010755101615e-02 0.0 
5.773737091418e-06 7.906291071040e-02 0.0 
2.862525380538e-06 1.309507246126e-02 0.0 
-4.846927651415e-06 5.820823578980e-02 0.0 
1.014738546824e-06 5.749591801310e-02 0.0 
-9.786686116699e-07 6.716787256566e-02 0.0 
2.331651357166e-06 7.304945754826e-02 0.0 
5.420497679602e-06 7.609585674104e-02 0.0 
-1.837742020303e-06 6.210858260907e-02 0.0 
8.231860413443e-07 6.054657540529e-02 0.0 
1.495695674887e-06 3.678397486514e-02 0.0 
-3.055677398724e-06 2.816666877911e-02 0.0 
8.899161755285e-06 8.224015813502e-02 0.0 
1.629757149275e-06 3.322792080691e-02 0.0 
8.031387037226e-07 5.122002304483e-02 0.0 
-9.896517653170e-07 4.260735375690e-02 0.0 
1.053431187099e-06 3.312387324484e-02 0.0 
9.627506073613e-06 7.953926167606e-02 0.0 
-2.807338896637e-06 2.956278022399e-02 0.0 
-1.204141172852e-06 1.747772766412e-02 0.0 
2.504807609588e-06 4.870265819022e-02 0.0 
4.920253154455e-06 8.051973674682e-02 0.0 
2.083916691077e-06 5.012073568761e-02 0.0 
2.412167061059e-06 1.859512942012e-02 0.0 
-1.525305989370e-06 3.161202410703e-02 0.0 
6.256572100302e-07 7.527384844666e-02 0.0 
-4.165413898368e-07 5.574032324918e-02 0.0 
-1.960473281540e-06 5.929188905848e-02 0.0 
-3.645175329800e-06 6.287964819572e-02 0.0 
-3.021541013933e-07 1.816144139941e-02 0.0 
-1.367484258071e-06 5.408486417834e-02 0.0 
1.261589543304e-06 2.735870795728e-02 0.0 
3.781207040147e-07 4.567134465788e-02 0.0 
-8.333821635833e-07 7.413121585332e-02 0.0 
3.347745909019e-06 2.750657490447e-02 0.0 
-9.136058310124e-07 5.714230655367e-02 0.0 
-1.151535364368e-06 2.272506177328e-02 0.0 
1.285271536235e-06 3.610319552559e-02 0.0 
-5.447498969534e-07 6.576352888350e-02 0.0 
-1.047813805811e-06 2.726603025806e-02 0.0 
6.979585098476e-07 5.694857849117e-02 0.0 
-4.327333356902e-07 2.948526274417e-02 0.0 
-4.463537377334e-06 6.051832828102e-02 0.0 
-8.268701382299e-07 4.732761805531e-02 0.0 
-2.160378505106e-06 4.063502752051e-02 0.0 
-1.101705069152e-06 5.078073930057e-02 0.0 
-1.143476229027e-06 4.324704906603e-02 0.0 
1.861454072372e-06 3.040912185297e-02 0.0 
1.098454578097e-05 7.914990814589e-02 0.0 
-2.804125825130e-06 6.921432559468e-02 0.0 
-2.338177940311e-06 4.313750959269e-02 0.0 
4.021963207457e-06 2.422009993761e-02 0.0 
5.536579950061e-06 1.540598042856e-02 0.0 
-2.264527415760e-06 6.327060658093e-02 0.0 
2.874929564183e-06 3.127577722688e-02 0.0 
-2.205132143721e-06 2.049648984208e-02 0.0 
4.275829150913e-07 5.865307794609e-02 0.0 
-3.833690734325e-06 7.859426818797e-02 0.0 
7.883953288970e-06 8.009395582791e-02 0.0 
4.763130217489e-07 7.220193110680e-02 0.0 
-1.434691353089e-06 5.663763513236e-02 0.0 
5.293684471506e-07 5.401685188139e-02 0.0 
7.623475390569e-07 1.414840656161e-02 0.0 
3.057263155884e-06 2.840603094467e-02 0.0 
1.769492774804e-06 3.519887230951e-02 0.0 
1.166440841559e-06 8.181546574411e-02 0.0 
-7.469937142968e-06 6.126595735558e-02 0.0 
2.572993880038e-06 2.544699044265e-02 0.0 
-1.620185906574e-07 5.370657630406e-02 0.0 
-7.075340635793e-07 2.663796771566e-02 0.0 
7.452838524801e-07 5.647207552901e-02 0.0 
-4.313523234404e-06 1.327195397250e-02 0.0 
-6.306962002961e-06 6.907078147437e-02 0.0 
1.397351161621e-06 2.239947433142e-02 0.0 
1.515263922573e-06 3.466053675527e-02 0.0 
-1.955385266225e-06 7.149544024568e-02 0.0 
-3.564999626912e-07 5.880798446374e-02 0.0 
5.447924882884e-07 1.396391298367e-02 0.0 
3.115556074370e-06 2.777248325151e-02 0.0 
-7.320158692432e-07 4.567725085360e-02 0.0 
-5.650058752721e-08 5.635792933248e-02 0.0 
-6.478789130683e-06 6.678009131438e-02 0.0 
4.839080026466e-07 5.186430889333e-02 0.0 
-6.873691500952e-07 4.438319218463e-02 0.0 
3.204171703522e-06 6.529925979287e-03 0.0 
2.083974801344e-06 2.440065656325e-02 0.0 
-5.277816228489e-06 4.183507364470e-02 0.0 
2.552802702985e-08 5.463489414996e-02 0.0 
5.172984209849e-08 4.134498794651e-02 0.0 
-7.245818169678e-07 8.127347281723e-02 0.0 
-6.839967387206e-06 6.535626772565e-02 0.0 
2.601565145691e-07 5.251592983183e-02 0.0 
4.825996352798e-07 7.092371494545e-02 0.0 
1.365069896132e-07 5.435141675916e-02 0.0 
6.570769689887e-06 1.505060164722e-02 0.0 
8.488680184138e-07 5.030830067155e-02 0.0 
-5.561697450428e-08 6.772090342131e-02 0.0 
1.744890635824e-06 4.802025528930e-02 0.0 
-5.071750387469e-06 7.023091116149e-02 0.0 
-3.711762759834e-06 3.916940145484e-02 0.0 
2.048588655958e-06 4.564906276935e-02 0.0 
8.884087352985e-07 3.874762532011e-02 0.0 
5.849107275285e-06 8.119171146976e-02 0.0 
-6.517900545125e-07 4.333252367767e-02 0.0 
1.077134773287e-06 2.370631705072e-02 0.0 
2.639367191510e-06 6.959144347256e-02 0.0 
7.455504061331e-07 5.226106033528e-02 0.0 
-1.337567248892e-06 3.303294260166e-02 0.0 
-4.314464362123e-06 7.326019033667e-02 0.0 
8.692029128732e-07 4.707612664529e-02 0.0 
1.852028490036e-06 3.270027123341e-02 0.0 
1.270117185906e-07 4.087101172213e-02 0.0 
-8.911025626387e-07 5.196571163262e-02 0.0 
1.274946500377e-06 4.138182968226e-02 0.0 
-2.949869750689e-06 7.236844472292e-02 0.0 
3.220843731647e-06 7.566159745444e-02 0.0 
4.561850162141e-06 7.774783422370e-02 0.0 
1.620712629911e-07 6.621219523803e-02 0.0 
1.692688148306e-06 2.912221946257e-02 0.0 
-9.583225469953e-06 8.035852498889e-02 0.0 
-2.320001843314e-06 3.388075843044e-02 0.0 
3.372296799124e-06 8.007967453173e-02 0.0 
8.922262592630e-07 6.814378170668e-02 0.0 
6.266939781287e-07 3.149948567597e-02 0.0 
-2.066604980962e-06 4.512674628708e-02 0.0 
1.235859946372e-06 6.666769172468e-02 0.0 
-1.010423302942e-06 7.658137652898e-02 0.0 
2.010453926838e-06 6.859289551727e-02 0.0 
-3.972675819942e-07 4.684656875316e-02 0.0 
2.197775804211e-06 6.713132398193e-02 0.0 
2.961731236664e-06 6.904190951958e-02 0.0 
-6.206931895714e-06 1.406787661055e-02 0.0 
2.454152637181e-06 6.763399797652e-02 0.0 
-8.673950246096e-06 6.784959541281e-03 0.0 
8.795143662805e-07 7.365914541996e-03 0.0 
1.267172560714e-06 5.533523540012e-02 0.0 
-1.579030996962e-05 7.602466511213e-02 0.0 
1.067219762759e-05 8.227445638049e-02 0.0 
-1.210238237599e-05 7.513270925006e-02 0.0 
3.483527909015e-06 7.254287490004e-02 0.0 
-9.011183304773e-07 3.480864084831e-02 0.0 
2.620903520976e-06 5.510954492422e-02 0.0 
3.660559144467e-06 7.413411648721e-02 0.0 
2.803962721323e-06 1.321680079868e-02 0.0 
-2.788174756550e-06 6.496021034636e-03 0.0 
4.994892389463e-07 3.615863367392e-02 0.0 
-1.133471166844e-06 2.401286546839e-02 0.0 
2.034904523122e-07 3.805348726949e-02 0.0 
-5.524537460311e-07 2.013193031000e-02 0.0 
-2.397626790094e-07 5.912212086141e-02 0.0 
9.490214507367e-08 8.194618621108e-02 0.0 
7.361499357428e-07 4.011902702993e-02 0.0 
-6.951190576014e-06 7.818162813718e-02 0.0 
-4.581996762828e-06 7.794980831292e-02 0.0 
-5.229300289624e-06 7.971590511872e-02 0.0 
2.341654402904e-06 7.317368818691e-02 0.0 
8.842687241599e-06 8.133103349411e-02 0.0 
-4.089748984620e-06 7.957506480275e-02 0.0 
-3.743336474876e-06 1.382373156329e-02 0.0 
1.197378441740e-06 5.501180521953e-02 0.0 
2.647393620548e-06 2.855576919326e-02 0.0 
-6.689986464241e-06 8.090183161416e-02 0.0 
-6.128874951635e-06 1.362681839896e-02 0.0 
1.863581549713e-06 1.369707585321e-02 0.0 
5.650618836700e-06 6.400152227470e-03 0.0 
2.880529742275e-06 2.146461196712e-02 0.0 
-4.792982675668e-06 8.104457234840e-02 0.0 
-2.242444953058e-06 5.082336317478e-02 0.0 
1.368611477161e-06 1.298316307821e-02 0.0 
1.499578703921e-06 3.105131787983e-02 0.0 
-5.299071077515e-06 6.164116621182e-03 0.0 
-6.879689370103e-06 5.545717563182e-02 0.0 
-1.300171141690e-06 1.314777240693e-02 0.0 
1.678359482553e-05 7.996198726511e-02 0.0 
-6.631653085388e-06 1.275752708436e-02 0.0 
3.784823772665e-07 2.837184551205e-02 0.0 
1.397052388312e-06 4.903391401969e-02 0.0 
-1.543134677073e-05 5.107386116956e-02 0.0 
1.754788551901e-06 1.278063117801e-02 0.0 
-4.249347293656e-06 1.329485176395e-02 0.0 
2.503121755152e-06 8.156227511276e-02 0.0 
9.088808701754e-08 3.677240073317e-02 0.0 
-1.718586565790e-06 6.788912278087e-02 0.0 
2.221661034705e-05 8.199827359390e-02 0.0 
6.385405444760e-06 1.329140537000e-02 0.0 
3.074856337494e-06 2.175204701085e-02 0.0 
3.070165731836e-06 1.302732434462e-02 0.0 
-5.558237486542e-06 8.133191284628e-02 0.0 
-7.153138085855e-06 8.198931492208e-02 0.0 
-8.861166993859e-07 1.225151372344e-02 0.0 
-2.413991327705e-06 1.221600168601e-02 0.0 
1.324797127078e-05 7.913726583313e-02 0.0 
-2.607471764255e-06 5.525560653681e-03 0.0 
2.613613091222e-05 8.203949967343e-02 0.0 
-2.528367499351e-06 5.957897362540e-02 0.0 
1.674556314790e-05 8.196935893834e-02 0.0 
-2.732628644512e-07 6.247135783366e-03 0.0 
4.854113181546e-06 1.263747239411e-02 0.0 
-5.134580050216e-06 6.461849148619e-02 0.0 
-7.994735828524e-06 5.829958968038e-02 0.0 
2.551266459455e-06 7.495273853807e-02 0.0 
5.313803012682e-06 1.839615524495e-02 0.0 
-4.012782222993e-06 8.141643103401e-02 0.0 
-1.732009427400e-06 1.192406301770e-02 0.0 
-3.904148811272e-07 1.190209191863e-02 0.0 
-2.832383530929e-06 1.203169530542e-02 0.0 
-2.073515955813e-06 5.098850323443e-03 0.0 
9.744133128717e-06 8.201477124602e-02 0.0 
1.852802549650e-07 1.172135645757e-02 0.0 
4.564907856165e-06 1.856259819667e-02 0.0 
3.959890429692e-06 5.931754583812e-02 0.0 
3.023012654796e-06 1.294361702171e-02 0.0 
4.414495145615e-06 7.077801682018e-02 0.0 
8.065202944917e-06 8.038501934521e-02 0.0 
-1.845049662713e-06 6.014493312976e-03 0.0 
-1.032419221927e-05 8.228598830228e-02 0.0 
-1.197550561850e-06 5.931911067996e-02 0.0 
2.611814821790e-06 6.012825402727e-03 0.0 
-8.450186325045e-06 8.057965930584e-02 0.0 
2.215311645937e-06 5.172363597928e-02 0.0 
-3.269812210054e-07 1.173979821780e-02 0.0 
-6.377220361091e-06 5.568719725599e-02 0.0 
5.334139959752e-06 2.475045846476e-02 0.0 
6.286598877179e-06 8.061528430321e-02 0.0 
1.822130417049e-05 8.229490252632e-02 0.0 
1.757254553273e-06 4.228336579565e-02 0.0 
6.071999441501e-06 1.233020241429e-02 0.0 
-2.643478166338e-06 1.146250891840e-02 0.0 
1.371948726670e-06 4.609066337786e-02 0.0 
6.971547581909e-07 8.093208142219e-02 0.0 
1.360845648898e-06 1.653089058241e-02 0.0 
-6.422294893835e-06 6.155338108227e-02 0.0 
-6.792076746440e-07 1.789574520213e-02 0.0 
-6.468475974529e-06 1.863902505475e-02 0.0 
2.952342712358e-05 8.227731262932e-02 0.0 
3.455004063258e-06 5.083790505364e-02 0.0 
1.955040266944e-05 8.200053737614e-02 0.0 
1.300194561749e-06 1.187008848218e-02 0.0 
-8.648203236992e-06 5.963860381485e-02 0.0 
2.686083308004e-05 8.232084658024e-02 0.0 
-9.330112440728e-06 8.233184564358e-02 0.0 
3.087481101609e-06 8.204220467072e-02 0.0 
1.566641114189e-05 8.204481115065e-02 0.0 
3.359905343677e-06 8.138051284352e-02 0.0 
-1.529084612673e-06 8.132611018099e-02 0.0 
9.051642941559e-06 8.030026988875e-02 0.0 
1.015655977092e-05 8.019043902581e-02 0.0 
8.418915560158e-06 7.877002549962e-02 0.0 
-6.397486415943e-06 7.863069474187e-02 0.0 
6.486929891973e-06 7.683251817560e-02 0.0 
8.701400737360e-06 7.664627793981e-02 0.0 
9.729115131642e-06 7.444638077984e-02 0.0 
-7.226272029550e-06 7.423604648960e-02 0.0 
1.057176350552e-05 7.166530713636e-02 0.0 
8.392074019057e-06 7.140004360514e-02 0.0 
9.375377237723e-06 6.841664872195e-02 0.0 
-8.354673777507e-06 6.813772037703e-02 0.0 
1.030353008486e-05 6.479539966216e-02 0.0 
6.973434119846e-06 6.445111086796e-02 0.0 

TENSORS node_materi_stress float
-3.868141185042e+00 2.883328751799e-02 0.0 
2.883328751799e-02 -8.484309412114e+00 0.0 
0.0 0.0 -3.623988454227e+00 
-8.346399849608e+01 4.499497816178e-01 0.0 
4.499497816178e-01 -1.967151174456e+02 0.0 
0.0 0.0 -8.365373478250e+01 
-1.638986525384e+02 -3.907974350593e-01 0.0 
-3.907974350593e-01 -3.836052310804e+02 0.0 
0.0 0.0 -1.638511650856e+02 
-1.639111029782e+02 3.896326183677e-01 0.0 
3.896326183677e-01 -3.836835505107e+02 0.0 
0.0 0.0 -1.638783960467e+02 
-8.873278036797e+00 -2.463407989884e-01 0.0 
-2.463407989884e-01 -2.069461240524e+01 0.0 
0.0 0.0 -8.682535982665e+00 
-1.667035108762e+01 -5.697849882079e-01 0.0 
-5.697849882079e-01 -4.009237931994e+01 0.0 
0.0 0.0 -1.662881912227e+01 
-2.436669931317e+01 -4.332410711596e-01 0.0 
-4.332410711596e-01 -5.821054660352e+01 0.0 
0.0 0.0 -2.437317377501e+01 
-3.312667844727e+01 -3.785260986360e-01 0.0 
-3.785260986360e-01 -7.873126523914e+01 0.0 
0.0 0.0 -3.315738310592e+01 
-4.151031559924e+01 -2.788702453685e-01 0.0 
-2.788702453685e-01 -9.848349140961e+01 0.0 
0.0 0.0 -4.159814210265e+01 
-5.001808252220e+01 -2.632849254090e-01 0.0 
-2.632849254090e-01 -1.179769839115e+02 0.0 
0.0 0.0 -4.999851993012e+01 
-5.841425326699e+01 -2.916431527580e-01 0.0 
-2.916431527580e-01 -1.374635347953e+02 0.0 
0.0 0.0 -5.836333641867e+01 
-6.674131447020e+01 -2.607103174277e-01 0.0 
-2.607103174277e-01 -1.569527535171e+02 0.0 
0.0 0.0 -6.670822039620e+01 
-7.511011774192e+01 -2.605527185645e-01 0.0 
-2.605527185645e-01 -1.764602082927e+02 0.0 
0.0 0.0 -7.507109781040e+01 
-8.344707124893e+01 -3.330331871780e-01 0.0 
-3.330331871780e-01 -1.961788549611e+02 0.0 
0.0 0.0 -8.348777786299e+01 
-9.191096823210e+01 -5.016130420600e-01 0.0 
-5.016130420600e-01 -2.164160803135e+02 0.0 
0.0 0.0 -9.209811456369e+01 
-1.005084198346e+02 -5.324967594475e-01 0.0 
-5.324967594475e-01 -2.360391397004e+02 0.0 
0.0 0.0 -1.005642678605e+02 
-1.083749788547e+02 -6.941992328756e-01 0.0 
-6.941992328756e-01 -2.539203584140e+02 0.0 
0.0 0.0 -1.082886011806e+02 
-1.167232192972e+02 -2.717671691789e-01 0.0 
-2.717671691789e-01 -2.736086236895e+02 0.0 
0.0 0.0 -1.166995528960e+02 
-1.253917447416e+02 -2.582669054944e-01 0.0 
-2.582669054944e-01 -2.938272739983e+02 0.0 
0.0 0.0 -1.253657056220e+02 
-1.338116751372e+02 -2.653863835418e-01 0.0 
-2.653863835418e-01 -3.134506714953e+02 0.0 
0.0 0.0 -1.337787039897e+02 
-1.422586615011e+02 -2.446562560802e-01 0.0 
-2.446562560802e-01 -3.332472317098e+02 0.0 
0.0 0.0 -1.422517679633e+02 
-1.507639131997e+02 -3.039484068189e-01 0.0 
-3.039484068189e-01 -3.532168608601e+02 0.0 
0.0 0.0 -1.507942322179e+02 
-1.590470909165e+02 -3.921562592677e-01 0.0 
-3.921562592677e-01 -3.723283581999e+02 0.0 
0.0 0.0 -1.590126347349e+02 
-1.644269954686e+02 2.563897888946e-02 0.0 
2.563897888946e-02 -3.847601737810e+02 0.0 
0.0 0.0 -1.643561507749e+02 
-1.638527387157e+02 1.187300540110e-02 0.0 
1.187300540110e-02 -3.837247229026e+02 0.0 
0.0 0.0 -1.638732384855e+02 
-1.639776996243e+02 2.559645110201e-01 0.0 
2.559645110201e-01 -3.839810359708e+02 0.0 
0.0 0.0 -1.639876206785e+02 
-1.639206458942e+02 -1.214524447496e-01 0.0 
-1.214524447496e-01 -3.839425797628e+02 0.0 
0.0 0.0 -1.639589676971e+02 
-1.636394260869e+02 3.293214532580e-02 0.0 
3.293214532580e-02 -3.832946123252e+02 0.0 
0.0 0.0 -1.636802115237e+02 
-1.639576018062e+02 -5.141042088436e-03 0.0 
-5.141042088436e-03 -3.839093434982e+02 0.0 
0.0 0.0 -1.639600835913e+02 
-1.641499341127e+02 -1.273712509053e-02 0.0 
-1.273712509053e-02 -3.840931276745e+02 0.0 
0.0 0.0 -1.640729185362e+02 
-1.638426741519e+02 3.729330022581e-02 0.0 
3.729330022581e-02 -3.837348947047e+02 0.0 
0.0 0.0 -1.638732706570e+02 
-1.642001280603e+02 1.713370210624e-01 0.0 
1.713370210624e-01 -3.844256973437e+02 0.0 
0.0 0.0 -1.641877476212e+02 
-1.641280903557e+02 -1.107573293212e-01 0.0 
-1.107573293212e-01 -3.843543678291e+02 0.0 
0.0 0.0 -1.641447374554e+02 
-1.638395696775e+02 2.684596438195e-02 0.0 
2.684596438195e-02 -3.837009443087e+02 0.0 
0.0 0.0 -1.638621541959e+02 
-1.640772922850e+02 1.864581603632e-02 0.0 
1.864581603632e-02 -3.842406865261e+02 0.0 
0.0 0.0 -1.640953936433e+02 
-1.643592458227e+02 -1.068039034090e-04 0.0 
-1.068039034090e-04 -3.846034603570e+02 0.0 
0.0 0.0 -1.642888118539e+02 
-1.640546325377e+02 1.101171177343e-02 0.0 
1.101171177343e-02 -3.842174324724e+02 0.0 
0.0 0.0 -1.640816195030e+02 
-1.640254813473e+02 4.181886312529e-02 0.0 
4.181886312529e-02 -3.839282256147e+02 0.0 
0.0 0.0 -1.639861120886e+02 
-1.635984814838e+02 -4.002824450557e-02 0.0 
-4.002824450557e-02 -3.832240690406e+02 0.0 
0.0 0.0 -1.636467651573e+02 
-1.635147613514e+02 1.037195780320e-02 0.0 
1.037195780320e-02 -3.830558583697e+02 0.0 
0.0 0.0 -1.635711859163e+02 
-1.639485313636e+02 -6.279528921671e-03 0.0 
-6.279528921671e-03 -3.837120416052e+02 0.0 
0.0 0.0 -1.638981718906e+02 
-1.640406598841e+02 1.756876549557e-02 0.0 
1.756876549557e-02 -3.840903487753e+02 0.0 
0.0 0.0 -1.640393025978e+02 
-1.641876895739e+02 2.064441772343e-02 0.0 
2.064441772343e-02 -3.844444462165e+02 0.0 
0.0 0.0 -1.641896407371e+02 
-1.641265949409e+02 -6.721884471067e-02 0.0 
-6.721884471067e-02 -3.843312918093e+02 0.0 
0.0 0.0 -1.641373660251e+02 
-1.641000713308e+02 5.028795596404e-03 0.0 
5.028795596404e-03 -3.841556454509e+02 0.0 
0.0 0.0 -1.640767150345e+02 
-1.640415425368e+02 -1.220518709290e-02 0.0 
-1.220518709290e-02 -3.841058246903e+02 0.0 
0.0 0.0 -1.640442101681e+02 
-1.640010827198e+02 7.189062168106e-03 0.0 
7.189062168106e-03 -3.840210758575e+02 0.0 
0.0 0.0 -1.640066475732e+02 
-1.640646150571e+02 5.678073847621e-03 0.0 
5.678073847621e-03 -3.841898283993e+02 0.0 
0.0 0.0 -1.640763330369e+02 
-1.642425986871e+02 1.988426449324e-02 0.0 
1.988426449324e-02 -3.844278474064e+02 0.0 
0.0 0.0 -1.642011338281e+02 
-1.641663976937e+02 2.341424526380e-02 0.0 
2.341424526380e-02 -3.845105745773e+02 0.0 
0.0 0.0 -1.642030916813e+02 
-1.643358680899e+02 1.794723578804e-02 0.0 
1.794723578804e-02 -3.846166620180e+02 0.0 
0.0 0.0 -1.642857590324e+02 
-1.641296134252e+02 2.303487518093e-02 0.0 
2.303487518093e-02 -3.843919567350e+02 0.0 
0.0 0.0 -1.641564710480e+02 
-1.644729214319e+02 1.429082345148e-01 0.0 
1.429082345148e-01 -3.850665665193e+02 0.0 
0.0 0.0 -1.644618463854e+02 
-1.643076870687e+02 -1.394472185682e-01 0.0 
-1.394472185682e-01 -3.848207124301e+02 0.0 
0.0 0.0 -1.643385198497e+02 
-1.639187191434e+02 -4.518512616083e-02 0.0 
-4.518512616083e-02 -3.838285413139e+02 0.0 
0.0 0.0 -1.639241781372e+02 
-1.639216527251e+02 -1.294431940918e-03 0.0 
-1.294431940918e-03 -3.837831703394e+02 0.0 
0.0 0.0 -1.639114469194e+02 
-1.640454448463e+02 3.153427963052e-02 0.0 
3.153427963052e-02 -3.840937262384e+02 0.0 
0.0 0.0 -1.640417513254e+02 
-1.641344673157e+02 5.914489299190e-03 0.0 
5.914489299190e-03 -3.842170585244e+02 0.0 
0.0 0.0 -1.641054577520e+02 
-1.640371045036e+02 4.077043322137e-02 0.0 
4.077043322137e-02 -3.842250978110e+02 0.0 
0.0 0.0 -1.640786606944e+02 
-1.642381877795e+02 6.527985728751e-03 0.0 
6.527985728751e-03 -3.843957204720e+02 0.0 
0.0 0.0 -1.641901724754e+02 
-1.639755955159e+02 -1.884426996945e-04 0.0 
-1.884426996945e-04 -3.840549107610e+02 0.0 
0.0 0.0 -1.640091518831e+02 
-1.639870513616e+02 2.521331101428e-02 0.0 
2.521331101428e-02 -3.838146578539e+02 0.0 
0.0 0.0 -1.639405127647e+02 
-1.636557719569e+02 -9.182782678920e-03 0.0 
-9.182782678920e-03 -3.833597667308e+02 0.0 
0.0 0.0 -1.637046616063e+02 
-1.637901571661e+02 5.904066342100e-02 0.0 
5.904066342100e-02 -3.836926333948e+02 0.0 
0.0 0.0 -1.638448371683e+02 
-1.643207636631e+02 -4.441982681204e-02 0.0 
-4.441982681204e-02 -3.846471927214e+02 0.0 
0.0 0.0 -1.642903869153e+02 
-1.645379425296e+02 4.130817472271e-02 0.0 
4.130817472271e-02 -3.849675311606e+02 0.0 
0.0 0.0 -1.644516421070e+02 
-1.632232850747e+02 4.303487852952e-02 0.0 
4.303487852952e-02 -3.823472677942e+02 0.0 
0.0 0.0 -1.632711658607e+02 
-1.643190742204e+02 -1.624986791610e-02 0.0 
-1.624986791610e-02 -3.844989504445e+02 0.0 
0.0 0.0 -1.642454073995e+02 
-1.637549427157e+02 -3.380909298037e-03 0.0 
-3.380909298037e-03 -3.835930197050e+02 0.0 
0.0 0.0 -1.638043887262e+02 
-1.639894084420e+02 1.619738411087e-01 0.0 
1.619738411087e-01 -3.840715731284e+02 0.0 
0.0 0.0 -1.640182944711e+02 
-1.643361897537e+02 -6.736566216970e-02 0.0 
-6.736566216970e-02 -3.847690010378e+02 0.0 
0.0 0.0 -1.643315572374e+02 
-1.642542206358e+02 3.067475775871e-03 0.0 
3.067475775871e-03 -3.846658232372e+02 0.0 
0.0 0.0 -1.642760131619e+02 
-9.223226982972e+01 3.148224333574e-01 0.0 
3.148224333574e-01 -2.165357182015e+02 0.0 
0.0 0.0 -9.223039640937e+01 
-1.005125096457e+02 3.565167848134e-01 0.0 
3.565167848134e-01 -2.362176116812e+02 0.0 
0.0 0.0 -1.006190363981e+02 
-1.089153895013e+02 3.467316661976e-01 0.0 
3.467316661976e-01 -2.557040730318e+02 0.0 
0.0 0.0 -1.089858387599e+02 
-1.171122965148e+02 3.702113029353e-01 0.0 
3.702113029353e-01 -2.747924971449e+02 0.0 
0.0 0.0 -1.171714380979e+02 
-1.254650395904e+02 3.259882556191e-01 0.0 
3.259882556191e-01 -2.942850023230e+02 0.0 
0.0 0.0 -1.255250125740e+02 
-1.340287502638e+02 3.574979687691e-01 0.0 
3.574979687691e-01 -3.138533019833e+02 0.0 
0.0 0.0 -1.339646156741e+02 
-1.422725362766e+02 3.179345431002e-01 0.0 
3.179345431002e-01 -3.331767157714e+02 0.0 
0.0 0.0 -1.422347756144e+02 
-1.505096868640e+02 3.662434270751e-01 0.0 
3.662434270751e-01 -3.523676123519e+02 0.0 
0.0 0.0 -1.504631897648e+02 
-1.589725802235e+02 4.045255171436e-01 0.0 
4.045255171436e-01 -3.720390008800e+02 0.0 
0.0 0.0 -1.589034743311e+02 
-3.275874678916e+00 -5.575248834635e-02 0.0 
-5.575248834635e-02 -7.181856325745e+00 0.0 
0.0 0.0 -3.126663217829e+00 
-3.826213479593e+00 6.993529947164e-01 0.0 
6.993529947164e-01 -7.224891010836e+00 0.0 
0.0 0.0 -2.951018656745e+00 
-8.367715305261e+01 2.370300237352e-02 0.0 
2.370300237352e-02 -1.966983444369e+02 0.0 
0.0 0.0 -8.371264924686e+01 
-8.161353300159e+00 -6.697227396651e-02 0.0 
-6.697227396651e-02 -1.879331596307e+01 0.0 
0.0 0.0 -7.880595764240e+00 
-1.622590218999e+01 -1.154735216056e-01 0.0 
-1.154735216056e-01 -3.868232595695e+01 0.0 
0.0 0.0 -1.607246844408e+01 
-2.461340707290e+01 -1.007925387529e-01 0.0 
-1.007925387529e-01 -5.835599721294e+01 0.0 
0.0 0.0 -2.449082128575e+01 
-3.272391615446e+01 -7.312386128825e-02 0.0 
-7.312386128825e-02 -7.748184662638e+01 0.0 
0.0 0.0 -3.266172883425e+01 
-4.119732875586e+01 -7.115974029070e-02 0.0 
-7.115974029070e-02 -9.717914109085e+01 0.0 
0.0 0.0 -4.111294095401e+01 
-4.980852165618e+01 1.251517713325e-02 0.0 
1.251517713325e-02 -1.169916988644e+02 0.0 
0.0 0.0 -4.964006615618e+01 
-5.815679058425e+01 -6.199146721958e-03 0.0 
-6.199146721958e-03 -1.366297684845e+02 0.0 
0.0 0.0 -5.803596772064e+01 
-6.656277673785e+01 -4.430662114908e-03 0.0 
-4.430662114908e-03 -1.562925180246e+02 0.0 
0.0 0.0 -6.645658842874e+01 
-7.499306697051e+01 1.009003637278e-02 0.0 
1.009003637278e-02 -1.759768396183e+02 0.0 
0.0 0.0 -7.489097197664e+01 
-8.510224780310e+00 5.569070137550e-01 0.0 
5.569070137550e-01 -1.975342203387e+01 0.0 
0.0 0.0 -8.198973452744e+00 
-1.645404560354e+01 8.254012563094e-01 0.0 
8.254012563094e-01 -3.927961011523e+01 0.0 
0.0 0.0 -1.632009671563e+01 
-2.470567086661e+01 6.621900648632e-01 0.0 
6.621900648632e-01 -5.891284947081e+01 0.0 
0.0 0.0 -2.468555610123e+01 
-3.305528949692e+01 8.152428956501e-01 0.0 
8.152428956501e-01 -7.852265979539e+01 0.0 
0.0 0.0 -3.307338478769e+01 
-4.145183835603e+01 6.625144550392e-01 0.0 
6.625144550392e-01 -9.812791993742e+01 0.0 
0.0 0.0 -4.147392748804e+01 
-4.984983686010e+01 8.210978407678e-01 0.0 
8.210978407678e-01 -1.177363130637e+02 0.0 
0.0 0.0 -4.987584497712e+01 
-5.825495206096e+01 6.670677344679e-01 0.0 
6.670677344679e-01 -1.373458977520e+02 0.0 
0.0 0.0 -5.828025494390e+01 
-6.665908832170e+01 8.026373817653e-01 0.0 
8.026373817653e-01 -1.569335294900e+02 0.0 
0.0 0.0 -6.667778534350e+01 
-7.505433947577e+01 5.682922410714e-01 0.0 
5.682922410714e-01 -1.764108581644e+02 0.0 
0.0 0.0 -7.503955929204e+01 
-8.257249674720e+01 -2.207555857310e-01 0.0 
-2.207555857310e-01 -1.941095395408e+02 0.0 
0.0 0.0 -8.260461088641e+01 
-8.317975844183e+01 -1.766471871542e-02 0.0 
-1.766471871542e-02 -1.953119312299e+02 0.0 
0.0 0.0 -8.314750690152e+01 
-8.312420300908e+01 -1.831260229196e-02 0.0 
-1.831260229196e-02 -1.953562546987e+02 0.0 
0.0 0.0 -8.314413731233e+01 
-8.304337405706e+01 2.736386903524e-02 0.0 
2.736386903524e-02 -1.951181821571e+02 0.0 
0.0 0.0 -8.304846686426e+01 
-8.426422132819e+01 -1.978349800376e-02 0.0 
-1.978349800376e-02 -1.977593693738e+02 0.0 
0.0 0.0 -8.420707721060e+01 
-8.319982838746e+01 -2.284392000544e-02 0.0 
-2.284392000544e-02 -1.954206017796e+02 0.0 
0.0 0.0 -8.318612905012e+01 
-8.321462987320e+01 2.354297776814e-02 0.0 
2.354297776814e-02 -1.952208208474e+02 0.0 
0.0 0.0 -8.313063521617e+01 
-8.325012800319e+01 -4.850359841815e-02 0.0 
-4.850359841815e-02 -1.953932214949e+02 0.0 
0.0 0.0 -8.319300484942e+01 
-8.330838686474e+01 -1.085777561998e-02 0.0 
-1.085777561998e-02 -1.957967064228e+02 0.0 
0.0 0.0 -8.333152798626e+01 
-8.322758400869e+01 -5.192344017244e-02 0.0 
-5.192344017244e-02 -1.956811108552e+02 0.0 
0.0 0.0 -8.327260845917e+01 
-8.327761991227e+01 -2.978108333494e-02 0.0 
-2.978108333494e-02 -1.955901993880e+02 0.0 
0.0 0.0 -8.326034579007e+01 
-8.319270751384e+01 -1.530519801825e-02 0.0 
-1.530519801825e-02 -1.954846942564e+02 0.0 
0.0 0.0 -8.320322053107e+01 
-8.327104197165e+01 -6.373628733985e-02 0.0 
-6.373628733985e-02 -1.955269495352e+02 0.0 
0.0 0.0 -8.323939745205e+01 
-8.336837479069e+01 -8.649094289545e-02 0.0 
-8.649094289545e-02 -1.958141896150e+02 0.0 
0.0 0.0 -8.335476932172e+01 
-3.078352746906e+00 3.117778101802e-02 0.0 
3.117778101802e-02 -7.527090730794e+00 0.0 
0.0 0.0 -3.095532884928e+00 
-3.244151499644e+00 5.412906138685e-02 0.0 
5.412906138685e-02 -7.785731730499e+00 0.0 
0.0 0.0 -3.225835696638e+00 
-3.079327061430e+00 9.188555193956e-03 0.0 
9.188555193956e-03 -7.223319387177e+00 0.0 
0.0 0.0 -2.991212442330e+00 
-3.002938899688e+00 -1.398217085876e-02 0.0 
-1.398217085876e-02 -7.150241932003e+00 0.0 
0.0 0.0 -2.946096365242e+00 
-3.265826667410e+00 4.660865311413e-02 0.0 
4.660865311413e-02 -8.058844534078e+00 0.0 
0.0 0.0 -3.320179815497e+00 
-3.356783516447e+00 3.138725007345e-03 0.0 
3.138725007345e-03 -8.383982683280e+00 0.0 
0.0 0.0 -3.449213206830e+00 
-3.345384234079e+00 4.323946781260e-03 0.0 
4.323946781260e-03 -8.314096689965e+00 0.0 
0.0 0.0 -3.423336338173e+00 
-3.362835309116e+00 2.533315688652e-02 0.0 
2.533315688652e-02 -8.215069736212e+00 0.0 
0.0 0.0 -3.398120173348e+00 
-3.371609071331e+00 2.965998471878e-02 0.0 
2.965998471878e-02 -8.198850802913e+00 0.0 
0.0 0.0 -3.394442343203e+00 
-3.432922194774e+00 3.056672808322e-02 0.0 
3.056672808322e-02 -8.206855054226e+00 0.0 
0.0 0.0 -3.415879565624e+00 
-3.485979796586e+00 7.783472278107e-02 0.0 
7.783472278107e-02 -8.332227107655e+00 0.0 
0.0 0.0 -3.471137894918e+00 
-3.767536038901e+00 -2.542358984354e-02 0.0 
-2.542358984354e-02 -8.880622407743e+00 0.0 
0.0 0.0 -3.731116778662e+00 
-3.619205173112e+00 -9.656264199739e-02 0.0 
-9.656264199739e-02 -8.584219049907e+00 0.0 
0.0 0.0 -3.592917009147e+00 
-3.288296519083e+00 -6.153774148151e-02 0.0 
-6.153774148151e-02 -7.845876653619e+00 0.0 
0.0 0.0 -3.258476881359e+00 
-3.252582410404e+00 -2.776742360500e-02 0.0 
-2.776742360500e-02 -8.002557670887e+00 0.0 
0.0 0.0 -3.299504507934e+00 
-3.281621677269e+00 -2.299338920140e-02 0.0 
-2.299338920140e-02 -8.264558898079e+00 0.0 
0.0 0.0 -3.389605775037e+00 
-3.258773836259e+00 5.082821124928e-03 0.0 
5.082821124928e-03 -8.293925261065e+00 0.0 
0.0 0.0 -3.391193643314e+00 
-3.184320365416e+00 -5.237180219050e-02 0.0 
-5.237180219050e-02 -7.902751066664e+00 0.0 
0.0 0.0 -3.249014133514e+00 
-3.138783741046e+00 1.015336221095e-01 0.0 
1.015336221095e-01 -7.307937867724e+00 0.0 
0.0 0.0 -3.042432757020e+00 
-2.133206281555e+00 -7.123188040579e-02 0.0 
-7.123188040579e-02 -4.154703613256e+00 0.0 
0.0 0.0 -1.858700886774e+00 
-3.673729890081e+00 -7.018729318606e-02 0.0 
-7.018729318606e-02 -8.816029808532e+00 0.0 
0.0 0.0 -3.613594576251e+00 
-4.007361606511e+00 -1.694596034453e-03 0.0 
-1.694596034453e-03 -9.643990916062e+00 0.0 
0.0 0.0 -4.050961312327e+00 
-3.879217626558e+00 -3.082414713316e-02 0.0 
-3.082414713316e-02 -9.524615743823e+00 0.0 
0.0 0.0 -3.976705566670e+00 
-3.952091106976e+00 -1.301434291558e-02 0.0 
-1.301434291558e-02 -9.622450923308e+00 0.0 
0.0 0.0 -4.027918164641e+00 
-3.944921556247e+00 -9.854931170245e-03 0.0 
-9.854931170245e-03 -9.573861884127e+00 0.0 
0.0 0.0 -4.011190587668e+00 
-3.965286365851e+00 -4.462294453933e-03 0.0 
-4.462294453933e-03 -9.602872597300e+00 0.0 
0.0 0.0 -4.026003244501e+00 
-3.963936341659e+00 -1.788259260742e-03 0.0 
-1.788259260742e-03 -9.592130030516e+00 0.0 
0.0 0.0 -4.022375467208e+00 
-3.970573028517e+00 -2.628816317587e-03 0.0 
-2.628816317587e-03 -9.604179799709e+00 0.0 
0.0 0.0 -4.027981404023e+00 
-3.976513306923e+00 -5.244821461113e-03 0.0 
-5.244821461113e-03 -9.600739855791e+00 0.0 
0.0 0.0 -4.028731504370e+00 
-3.986420768022e+00 -7.484689347007e-03 0.0 
-7.484689347007e-03 -9.601788069139e+00 0.0 
0.0 0.0 -4.032018206704e+00 
-3.996936068948e+00 -8.384219973345e-03 0.0 
-8.384219973345e-03 -9.599620397937e+00 0.0 
0.0 0.0 -4.034522495621e+00 
-4.007606217745e+00 -8.170392997828e-03 0.0 
-8.170392997828e-03 -9.599155497682e+00 0.0 
0.0 0.0 -4.037584070184e+00 
-4.017033784293e+00 -6.999711074450e-03 0.0 
-6.999711074450e-03 -9.598241526968e+00 0.0 
0.0 0.0 -4.040138148934e+00 
-4.024449748058e+00 -5.167541836021e-03 0.0 
-5.167541836021e-03 -9.597787989126e+00 0.0 
0.0 0.0 -4.042226876711e+00 
-4.029214655914e+00 -2.892879530467e-03 0.0 
-2.892879530467e-03 -9.597414995126e+00 0.0 
0.0 0.0 -4.043544450868e+00 
-4.031037621905e+00 -4.580607226426e-04 0.0 
-4.580607226426e-04 -9.597280060818e+00 0.0 
0.0 0.0 -4.044050860373e+00 
-4.029875806467e+00 1.921955989554e-03 0.0 
1.921955989554e-03 -9.597272633024e+00 0.0 
0.0 0.0 -4.043700087403e+00 
-4.025924142571e+00 4.075352416909e-03 0.0 
4.075352416909e-03 -9.597380473482e+00 0.0 
0.0 0.0 -4.042546940372e+00 
-4.019495634651e+00 5.958669680360e-03 0.0 
5.958669680360e-03 -9.597472861522e+00 0.0 
0.0 0.0 -4.040646104408e+00 
-4.010802167151e+00 7.707556759289e-03 0.0 
7.707556759289e-03 -9.597366363220e+00 0.0 
0.0 0.0 -4.038006114667e+00 
-3.999719960607e+00 9.642542940904e-03 0.0 
9.642542940904e-03 -9.596862032989e+00 0.0 
0.0 0.0 -4.034530153634e+00 
-3.985617150196e+00 1.222159544566e-02 0.0 
1.222159544566e-02 -9.595763270071e+00 0.0 
0.0 0.0 -4.029969681636e+00 
-3.967234259572e+00 1.598146147143e-02 0.0 
1.598146147143e-02 -9.593819174051e+00 0.0 
0.0 0.0 -4.023871585643e+00 
-3.942646562787e+00 2.141345830580e-02 0.0 
2.141345830580e-02 -9.590680691675e+00 0.0 
0.0 0.0 -4.015553731894e+00 
-3.909601643813e+00 2.847175026402e-02 0.0 
2.847175026402e-02 -9.586044105042e+00 0.0 
0.0 0.0 -4.004249280212e+00 
-3.869891323084e+00 3.250727646240e-02 0.0 
3.250727646240e-02 -9.582984699776e+00 0.0 
0.0 0.0 -3.991418362414e+00 
-3.903778489281e+00 -3.919435921152e-02 0.0 
-3.919435921152e-02 -9.651052216437e+00 0.0 
0.0 0.0 -4.022004767271e+00 
-4.036522793120e+00 -1.971772083212e-01 0.0 
-1.971772083212e-01 -9.362753360932e+00 0.0 
0.0 0.0 -3.808101510003e+00 
-8.480478286171e+00 -3.921638637673e-01 0.0 
-3.921638637673e-01 -1.969549616771e+01 0.0 
0.0 0.0 -8.246361947809e+00 
-8.324126518634e+00 4.908160234419e-02 0.0 
4.908160234419e-02 -1.960734991547e+01 0.0 
0.0 0.0 -8.346584387963e+00 
-8.327483834064e+00 3.463422280208e-02 0.0 
3.463422280208e-02 -1.968784226817e+01 0.0 
0.0 0.0 -8.403244238446e+00 
-8.351007347906e+00 3.094597300962e-02 0.0 
3.094597300962e-02 -1.970080839607e+01 0.0 
0.0 0.0 -8.412380782118e+00 
-8.368885687490e+00 2.547837838739e-02 0.0 
2.547837838739e-02 -1.970152929238e+01 0.0 
0.0 0.0 -8.417287941058e+00 
-8.382473409720e+00 2.014000341296e-02 0.0 
2.014000341296e-02 -1.970258947878e+01 0.0 
0.0 0.0 -8.421350020084e+00 
-8.393178252863e+00 1.583355126728e-02 0.0 
1.583355126728e-02 -1.970372916324e+01 0.0 
0.0 0.0 -8.424735899184e+00 
-8.401887044896e+00 1.258074676778e-02 0.0 
1.258074676778e-02 -1.970458353989e+01 0.0 
0.0 0.0 -8.427527565525e+00 
-8.409114236988e+00 1.006026153361e-02 0.0 
1.006026153361e-02 -1.970502761638e+01 0.0 
0.0 0.0 -8.429803876053e+00 
-8.415076809510e+00 7.869902698355e-03 0.0 
7.869902698355e-03 -1.970506211160e+01 0.0 
0.0 0.0 -8.431607697380e+00 
-8.419739520005e+00 5.647997118360e-03 0.0 
5.647997118360e-03 -1.970476664568e+01 0.0 
0.0 0.0 -8.432935202631e+00 
-8.422874012415e+00 3.159994168437e-03 0.0 
3.159994168437e-03 -1.970431289361e+01 0.0 
0.0 0.0 -8.433751429639e+00 
-8.424174708930e+00 3.880195025454e-04 0.0 
3.880195025454e-04 -1.970389853526e+01 0.0 
0.0 0.0 -8.434014197251e+00 
-8.423428527645e+00 -2.509064387907e-03 0.0 
-2.509064387907e-03 -1.970370067847e+01 0.0 
0.0 0.0 -8.433706786189e+00 
-8.420594454539e+00 -5.282283056117e-03 0.0 
-5.282283056117e-03 -1.970372020597e+01 0.0 
0.0 0.0 -8.432829277612e+00 
-8.415845902992e+00 -7.726573403010e-03 0.0 
-7.726573403010e-03 -1.970417126892e+01 0.0 
0.0 0.0 -8.431472954783e+00 
-8.409463765201e+00 -9.498038176497e-03 0.0 
-9.498038176497e-03 -1.970466783179e+01 0.0 
0.0 0.0 -8.429665050922e+00 
-8.402058890516e+00 -1.056179242892e-02 0.0 
-1.056179242892e-02 -1.970604501808e+01 0.0 
0.0 0.0 -8.427724107814e+00 
-8.394021578187e+00 -1.042641927030e-02 0.0 
-1.042641927030e-02 -1.970619145040e+01 0.0 
0.0 0.0 -8.425403067679e+00 
-8.386405096291e+00 -9.716613962061e-03 0.0 
-9.716613962061e-03 -1.970995840297e+01 0.0 
0.0 0.0 -8.423892561834e+00 
-8.379254112781e+00 -6.346204720405e-03 0.0 
-6.346204720405e-03 -1.970637376048e+01 0.0 
0.0 0.0 -8.421230988046e+00 
-8.375255989627e+00 -5.051745748270e-03 0.0 
-5.051745748270e-03 -1.971554978134e+01 0.0 
0.0 0.0 -8.421845324795e+00 
-8.371027085270e+00 -5.970807123266e-04 0.0 
-5.970807123266e-04 -1.969034144612e+01 0.0 
0.0 0.0 -8.415693506299e+00 
-8.368120899817e+00 -1.257849478520e-02 0.0 
-1.257849478520e-02 -1.972577510306e+01 0.0 
0.0 0.0 -8.421535314054e+00 
-8.350314933392e+00 -2.916634267384e-03 0.0 
-2.916634267384e-03 -1.965134295069e+01 0.0 
0.0 0.0 -8.401811351051e+00 
-8.365214635136e+00 -4.748349164589e-02 0.0 
-4.748349164589e-02 -1.976908185937e+01 0.0 
0.0 0.0 -8.410531820512e+00 
-8.742306112457e+00 2.135279826329e-02 0.0 
2.135279826329e-02 -2.062604092390e+01 0.0 
0.0 0.0 -8.715266015670e+00 
-7.597123178343e+00 -2.071028812973e-02 0.0 
-2.071028812973e-02 -1.703172637335e+01 0.0 
0.0 0.0 -7.350745100716e+00 
-1.562363064139e+01 -7.545499238817e-02 0.0 
-7.545499238817e-02 -3.664109932189e+01 0.0 
0.0 0.0 -1.529410630559e+01 
-1.678613504534e+01 -1.773917947613e-02 0.0 
-1.773917947613e-02 -4.019252207688e+01 0.0 
0.0 0.0 -1.674540777684e+01 
-1.634266941267e+01 -6.468961373187e-02 0.0 
-6.468961373187e-02 -3.925192845680e+01 0.0 
0.0 0.0 -1.636194874875e+01 
-1.625158343275e+01 -8.083650348309e-04 0.0 
-8.083650348309e-04 -3.919088143905e+01 0.0 
0.0 0.0 -1.631227781050e+01 
-1.629041787460e+01 -1.458220702844e-02 0.0 
-1.458220702844e-02 -3.925552562551e+01 0.0 
0.0 0.0 -1.634455847931e+01 
-1.628378867807e+01 -8.905106314109e-03 0.0 
-8.905106314109e-03 -3.923773591180e+01 0.0 
0.0 0.0 -1.633549248542e+01 
-1.629916179539e+01 -1.778762325530e-02 0.0 
-1.778762325530e-02 -3.924763741964e+01 0.0 
0.0 0.0 -1.634345479152e+01 
-1.630335292733e+01 -1.694925406921e-02 0.0 
-1.694925406921e-02 -3.923938235699e+01 0.0 
0.0 0.0 -1.634203214535e+01 
-1.631105380521e+01 -1.834569904709e-02 0.0 
-1.834569904709e-02 -3.923949376295e+01 0.0 
0.0 0.0 -1.634468525368e+01 
-1.631687434875e+01 -1.655037078875e-02 0.0 
-1.655037078875e-02 -3.923626852447e+01 0.0 
0.0 0.0 -1.634555025791e+01 
-1.632287346342e+01 -1.427865478483e-02 0.0 
-1.427865478483e-02 -3.923477862144e+01 0.0 
0.0 0.0 -1.634707788938e+01 
-1.632752993071e+01 -1.035434883590e-02 0.0 
-1.035434883590e-02 -3.923308409504e+01 0.0 
0.0 0.0 -1.634807577928e+01 
-1.633088122570e+01 -5.910956713152e-03 0.0 
-5.910956713152e-03 -3.923228922686e+01 0.0 
0.0 0.0 -1.634894292847e+01 
-1.633240854273e+01 -1.035370294108e-03 0.0 
-1.035370294108e-03 -3.923191590139e+01 0.0 
0.0 0.0 -1.634934647047e+01 
-1.633209006364e+01 3.639456234275e-03 0.0 
3.639456234275e-03 -3.923219156958e+01 0.0 
0.0 0.0 -1.634936096068e+01 
-1.633019098315e+01 7.729384638138e-03 0.0 
7.729384638138e-03 -3.923287711971e+01 0.0 
0.0 0.0 -1.634898803050e+01 
-1.632716863365e+01 1.104579693693e-02 0.0 
1.104579693693e-02 -3.923355828413e+01 0.0 
0.0 0.0 -1.634825633819e+01 
-1.632336960664e+01 1.383149338277e-02 0.0 
1.383149338277e-02 -3.923375011291e+01 0.0 
0.0 0.0 -1.634715214584e+01 
-1.631908198897e+01 1.652692202375e-02 0.0 
1.652692202375e-02 -3.923319055062e+01 0.0 
0.0 0.0 -1.634571836090e+01 
-1.631460444246e+01 1.965212581911e-02 0.0 
1.965212581911e-02 -3.923178293538e+01 0.0 
0.0 0.0 -1.634405516668e+01 
-1.631035685708e+01 2.376814866913e-02 0.0 
2.376814866913e-02 -3.922966003577e+01 0.0 
0.0 0.0 -1.634238878463e+01 
-1.630706317624e+01 2.946145146883e-02 0.0 
2.946145146883e-02 -3.922745132825e+01 0.0 
0.0 0.0 -1.634123784087e+01 
-1.630626443755e+01 3.732507817702e-02 0.0 
3.732507817702e-02 -3.922687369504e+01 0.0 
0.0 0.0 -1.634182983469e+01 
-1.631153361055e+01 4.576668776776e-02 0.0 
4.576668776776e-02 -3.923128307015e+01 0.0 
0.0 0.0 -1.634721635980e+01 
-1.633356729093e+01 -8.394487918277e-03 0.0 
-8.394487918277e-03 -3.923823903800e+01 0.0 
0.0 0.0 -1.636815431150e+01 
-1.640183341799e+01 -2.592958896250e-01 0.0 
-2.592958896250e-01 -3.925471448695e+01 0.0 
0.0 0.0 -1.633710554193e+01 
-2.394647636177e+01 -1.072024090488e-01 0.0 
-1.072024090488e-01 -5.615572572605e+01 0.0 
0.0 0.0 -2.363066062635e+01 
-2.509344071471e+01 1.948376673895e-02 0.0 
1.948376673895e-02 -5.975108888026e+01 0.0 
0.0 0.0 -2.505335887849e+01 
-2.462026756200e+01 -4.932447545420e-02 0.0 
-4.932447545420e-02 -5.891454586146e+01 0.0 
0.0 0.0 -2.466044402704e+01 
-2.453972249978e+01 -1.058678632338e-02 0.0 
-1.058678632338e-02 -5.883241851742e+01 0.0 
0.0 0.0 -2.461164230516e+01 
-2.458545134733e+01 -2.763352746267e-02 0.0 
-2.763352746267e-02 -5.889153893802e+01 0.0 
0.0 0.0 -2.464309708560e+01 
-2.457445929626e+01 -2.166405322328e-02 0.0 
-2.166405322328e-02 -5.885745014882e+01 0.0 
0.0 0.0 -2.462957283352e+01 
-2.458886950398e+01 -2.408630581488e-02 0.0 
-2.408630581488e-02 -5.886819281520e+01 0.0 
0.0 0.0 -2.463711869575e+01 
-2.458905889255e+01 -2.236911224865e-02 0.0 
-2.236911224865e-02 -5.885827810769e+01 0.0 
0.0 0.0 -2.463420110007e+01 
-2.459675488742e+01 -2.086474024664e-02 0.0 
-2.086474024664e-02 -5.885756275533e+01 0.0 
0.0 0.0 -2.463629529283e+01 
-2.460040235246e+01 -1.682770455893e-02 0.0 
-1.682770455893e-02 -5.885301902799e+01 0.0 
0.0 0.0 -2.463602641414e+01 
-2.460531421716e+01 -1.176844186480e-02 0.0 
-1.176844186480e-02 -5.885163239953e+01 0.0 
0.0 0.0 -2.463708398501e+01 
-2.460786766207e+01 -5.550718945223e-03 0.0 
-5.550718945223e-03 -5.885047913934e+01 0.0 
0.0 0.0 -2.463750404042e+01 
-2.460878337991e+01 8.906947571961e-04 0.0 
8.906947571961e-04 -5.885109185852e+01 0.0 
0.0 0.0 -2.463796257153e+01 
-2.460782345103e+01 6.714953517854e-03 0.0 
6.714953517854e-03 -5.885263765747e+01 0.0 
0.0 0.0 -2.463813833255e+01 
-2.460613155824e+01 1.135641256274e-02 0.0 
1.135641256274e-02 -5.885450493159e+01 0.0 
0.0 0.0 -2.463819094695e+01 
-2.460411187891e+01 1.498416750811e-02 0.0 
1.498416750811e-02 -5.885568671466e+01 0.0 
0.0 0.0 -2.463793957807e+01 
-2.460210670327e+01 1.797258687069e-02 0.0 
1.797258687069e-02 -5.885573584550e+01 0.0 
0.0 0.0 -2.463735276463e+01 
-2.460064765179e+01 2.070800759080e-02 0.0 
2.070800759080e-02 -5.885445503726e+01 0.0 
0.0 0.0 -2.463653080672e+01 
-2.460044476123e+01 2.354914282152e-02 0.0 
2.354914282152e-02 -5.885187628601e+01 0.0 
0.0 0.0 -2.463569631417e+01 
-2.460241591652e+01 2.681859770816e-02 0.0 
2.681859770816e-02 -5.884847135640e+01 0.0 
0.0 0.0 -2.463526618188e+01 
-2.460750274123e+01 3.065036776804e-02 0.0 
3.065036776804e-02 -5.884553786012e+01 0.0 
0.0 0.0 -2.463591218040e+01 
-2.461697870810e+01 3.486244257157e-02 0.0 
3.486244257157e-02 -5.884527837964e+01 0.0 
0.0 0.0 -2.463867712632e+01 
-2.463265608669e+01 4.041419509213e-02 0.0 
4.041419509213e-02 -5.884955589107e+01 0.0 
0.0 0.0 -2.464466359333e+01 
-2.465078594924e+01 5.669918298122e-02 0.0 
5.669918298122e-02 -5.886061859245e+01 0.0 
0.0 0.0 -2.465342136251e+01 
-2.469525206933e+01 -4.191480337475e-01 0.0 
-4.191480337475e-01 -5.889658327602e+01 0.0 
0.0 0.0 -2.467755060360e+01 
-3.305926544058e+01 -2.998802774822e-01 0.0 
-2.998802774822e-01 -7.850190937204e+01 0.0 
0.0 0.0 -3.306835244379e+01 
-3.305298027310e+01 -5.508427708926e-02 0.0 
-5.508427708926e-02 -7.847036676807e+01 0.0 
0.0 0.0 -3.305700411235e+01 
-3.304324796683e+01 1.870814226430e-02 0.0 
1.870814226430e-02 -7.846205861146e+01 0.0 
0.0 0.0 -3.305159197349e+01 
-3.303425366563e+01 2.155428840282e-02 0.0 
2.155428840282e-02 -7.846010181676e+01 0.0 
0.0 0.0 -3.304830664472e+01 
-3.302656933103e+01 2.076207745077e-02 0.0 
2.076207745077e-02 -7.846230423642e+01 0.0 
0.0 0.0 -3.304666207023e+01 
-3.302056047503e+01 2.007612351941e-02 0.0 
2.007612351941e-02 -7.846598797809e+01 0.0 
0.0 0.0 -3.304596453594e+01 
-3.301643304010e+01 1.956370113802e-02 0.0 
1.956370113802e-02 -7.846893283444e+01 0.0 
0.0 0.0 -3.304560976236e+01 
-3.301423399134e+01 1.863639688245e-02 0.0 
1.863639688245e-02 -7.847032822687e+01 0.0 
0.0 0.0 -3.304536866546e+01 
-3.301314579765e+01 1.693646679263e-02 0.0 
1.693646679263e-02 -7.847019440999e+01 0.0 
0.0 0.0 -3.304500206229e+01 
-3.301257763924e+01 1.425844171157e-02 0.0 
1.425844171157e-02 -7.846862805232e+01 0.0 
0.0 0.0 -3.304436170747e+01 
-3.301229448599e+01 1.048220278480e-02 0.0 
1.048220278480e-02 -7.846590083727e+01 0.0 
0.0 0.0 -3.304345859698e+01 
-3.301265742409e+01 5.189695739425e-03 0.0 
5.189695739425e-03 -7.846234530909e+01 0.0 
0.0 0.0 -3.304250081995e+01 
-3.301339135426e+01 -2.406134706920e-03 0.0 
-2.406134706920e-03 -7.846048113594e+01 0.0 
0.0 0.0 -3.304216174706e+01 
-3.301194831935e+01 -1.042229193422e-02 0.0 
-1.042229193422e-02 -7.846077421059e+01 0.0 
0.0 0.0 -3.304181675898e+01 
-3.300898020224e+01 -1.822639249828e-02 0.0 
-1.822639249828e-02 -7.846527938095e+01 0.0 
0.0 0.0 -3.304227787496e+01 
-3.300388522620e+01 -2.165528036417e-02 0.0 
-2.165528036417e-02 -7.846712376925e+01 0.0 
0.0 0.0 -3.304130269864e+01 
-3.300464755953e+01 -2.722972061408e-02 0.0 
-2.722972061408e-02 -7.847774518297e+01 0.0 
0.0 0.0 -3.304471782275e+01 
-3.299735405296e+01 -2.291613323012e-02 0.0 
-2.291613323012e-02 -7.847215982641e+01 0.0 
0.0 0.0 -3.304085416381e+01 
-3.301244300340e+01 -3.247141513694e-02 0.0 
-3.247141513694e-02 -7.849765800622e+01 0.0 
0.0 0.0 -3.305303030288e+01 
-3.298381099676e+01 -1.819665876139e-02 0.0 
-1.819665876139e-02 -7.844889978269e+01 0.0 
0.0 0.0 -3.302981323383e+01 
-3.307689380628e+01 -6.529322777074e-02 0.0 
-6.529322777074e-02 -7.853877326396e+01 0.0 
0.0 0.0 -3.308470012107e+01 
-3.352754624075e+01 2.140519543617e-02 0.0 
2.140519543617e-02 -7.943959843374e+01 0.0 
0.0 0.0 -3.349014340235e+01 
-3.241150757760e+01 -5.993266485331e-02 0.0 
-5.993266485331e-02 -7.587407570923e+01 0.0 
0.0 0.0 -3.208567498605e+01 
-4.085428022258e+01 -1.029033292386e-01 0.0 
-1.029033292386e-01 -9.548907996493e+01 0.0 
0.0 0.0 -4.050300805625e+01 
-4.199513143377e+01 1.893938417025e-02 0.0 
1.893938417025e-02 -9.904122570603e+01 0.0 
0.0 0.0 -4.191090714194e+01 
-4.150485174125e+01 -4.922350401057e-02 0.0 
-4.922350401057e-02 -9.816382410405e+01 0.0 
0.0 0.0 -4.150060275359e+01 
-4.139878555608e+01 -1.313206270517e-02 0.0 
-1.313206270517e-02 -9.807008134567e+01 0.0 
0.0 0.0 -4.144066007052e+01 
-4.142876155280e+01 -2.791534824747e-02 0.0 
-2.791534824747e-02 -9.812236562583e+01 0.0 
0.0 0.0 -4.146533815359e+01 
-4.140309877906e+01 -2.293707742598e-02 0.0 
-2.293707742598e-02 -9.808628374471e+01 0.0 
0.0 0.0 -4.144681475713e+01 
-4.141664383247e+01 -2.491639237108e-02 0.0 
-2.491639237108e-02 -9.809236743843e+01 0.0 
0.0 0.0 -4.145270338127e+01 
-4.141705510322e+01 -1.821800462767e-02 0.0 
-1.821800462767e-02 -9.807752160494e+01 0.0 
0.0 0.0 -4.144837301245e+01 
-4.142299010918e+01 -8.606629606104e-03 0.0 
-8.606629606104e-03 -9.807712325333e+01 0.0 
0.0 0.0 -4.145003400875e+01 
-4.142076202800e+01 1.737080171376e-03 0.0 
1.737080171376e-03 -9.807903009539e+01 0.0 
0.0 0.0 -4.144993763702e+01 
-4.142054590826e+01 7.606357970670e-03 0.0 
7.606357970670e-03 -9.808572885240e+01 0.0 
0.0 0.0 -4.145188242820e+01 
-4.142263480105e+01 1.106066583336e-02 0.0 
1.106066583336e-02 -9.808975635574e+01 0.0 
0.0 0.0 -4.145371734704e+01 
-4.142570005393e+01 1.403732277308e-02 0.0 
1.403732277308e-02 -9.809263748150e+01 0.0 
0.0 0.0 -4.145550126063e+01 
-4.142831277313e+01 1.603503629041e-02 0.0 
1.603503629041e-02 -9.809457309853e+01 0.0 
0.0 0.0 -4.145686576150e+01 
-4.143085678821e+01 1.658912807855e-02 0.0 
1.658912807855e-02 -9.809476356804e+01 0.0 
0.0 0.0 -4.145768610687e+01 
-4.143507388728e+01 1.553776617660e-02 0.0 
1.553776617660e-02 -9.809263349749e+01 0.0 
0.0 0.0 -4.145831221543e+01 
-4.144118123176e+01 1.453992276416e-02 0.0 
1.453992276416e-02 -9.808838954368e+01 0.0 
0.0 0.0 -4.145887123263e+01 
-4.144758795311e+01 1.439976977874e-02 0.0 
1.439976977874e-02 -9.808472799742e+01 0.0 
0.0 0.0 -4.145969478516e+01 
-4.145374477532e+01 1.524141141799e-02 0.0 
1.524141141799e-02 -9.808473044760e+01 0.0 
0.0 0.0 -4.146154256688e+01 
-4.145823740763e+01 1.816739609981e-02 0.0 
1.816739609981e-02 -9.809153982309e+01 0.0 
0.0 0.0 -4.146493316922e+01 
-4.145852003491e+01 3.807734259425e-02 0.0 
3.807734259425e-02 -9.810816172017e+01 0.0 
0.0 0.0 -4.147000452652e+01 
-4.145368172079e+01 -4.295240410180e-01 0.0 
-4.295240410180e-01 -9.812435562799e+01 0.0 
0.0 0.0 -4.147341120463e+01 
-4.985178468317e+01 -2.927860240758e-01 0.0 
-2.927860240758e-01 -1.177284270456e+02 0.0 
0.0 0.0 -4.987406351863e+01 
-4.985956268227e+01 -5.493793549245e-02 0.0 
-5.493793549245e-02 -1.177079545578e+02 0.0 
0.0 0.0 -4.987025517202e+01 
-4.986362571581e+01 1.097701116040e-02 0.0 
1.097701116040e-02 -1.176993179254e+02 0.0 
0.0 0.0 -4.986888309235e+01 
-4.986196055665e+01 9.894097709682e-03 0.0 
9.894097709682e-03 -1.176989651177e+02 0.0 
0.0 0.0 -4.986827770231e+01 
-4.985869765712e+01 8.090244611916e-03 0.0 
8.090244611916e-03 -1.177032476877e+02 0.0 
0.0 0.0 -4.986858360345e+01 
-4.985297619986e+01 7.773137408021e-03 0.0 
7.773137408021e-03 -1.177093641929e+02 0.0 
0.0 0.0 -4.986870211782e+01 
-4.984608449687e+01 1.048807329169e-02 0.0 
1.048807329169e-02 -1.177133342374e+02 0.0 
0.0 0.0 -4.986782562028e+01 
-4.984137430271e+01 1.282338218588e-02 0.0 
1.282338218588e-02 -1.177110663592e+02 0.0 
0.0 0.0 -4.986573219857e+01 
-4.983914648157e+01 1.156026270495e-02 0.0 
1.156026270495e-02 -1.177075884837e+02 0.0 
0.0 0.0 -4.986402048959e+01 
-4.983222451578e+01 8.156706920559e-03 0.0 
8.156706920559e-03 -1.177047848587e+02 0.0 
0.0 0.0 -4.986110281234e+01 
-4.982498940104e+01 6.207444469883e-03 0.0 
6.207444469883e-03 -1.177020492117e+02 0.0 
0.0 0.0 -4.985811158382e+01 
-4.982171821434e+01 5.497821218347e-03 0.0 
5.497821218347e-03 -1.176952478278e+02 0.0 
0.0 0.0 -4.985508981265e+01 
-4.982254978908e+01 -7.011597863989e-05 0.0 
-7.011597863989e-05 -1.176795331734e+02 0.0 
0.0 0.0 -4.985062488873e+01 
-4.982758548633e+01 -1.797142142910e-02 0.0 
-1.797142142910e-02 -1.176835514864e+02 0.0 
0.0 0.0 -4.985334109183e+01 
-4.981330155713e+01 -2.482553269935e-02 0.0 
-2.482553269935e-02 -1.176871276076e+02 0.0 
0.0 0.0 -4.985012874941e+01 
-4.981653797323e+01 -3.448240196458e-02 0.0 
-3.448240196458e-02 -1.177278291974e+02 0.0 
0.0 0.0 -4.986331015118e+01 
-4.978855602218e+01 -7.155788417551e-03 0.0 
-7.155788417551e-03 -1.176869485875e+02 0.0 
0.0 0.0 -4.984265138290e+01 
-4.990111751605e+01 -4.823092068972e-02 0.0 
-4.823092068972e-02 -1.177612405835e+02 0.0 
0.0 0.0 -4.989870742988e+01 
-5.037653531526e+01 3.146776356927e-02 0.0 
3.146776356927e-02 -1.186935515510e+02 0.0 
0.0 0.0 -5.032102605987e+01 
-4.926596664628e+01 -2.138307264453e-02 0.0 
-2.138307264453e-02 -1.151203344188e+02 0.0 
0.0 0.0 -4.891589031951e+01 
-5.764967104957e+01 -4.069873433913e-02 0.0 
-4.069873433913e-02 -1.346935251244e+02 0.0 
0.0 0.0 -5.730295885220e+01 
-5.875915164020e+01 4.593375535680e-02 0.0 
4.593375535680e-02 -1.382991136472e+02 0.0 
0.0 0.0 -5.871747958623e+01 
-5.827865464773e+01 -5.199904871342e-02 0.0 
-5.199904871342e-02 -1.374201301924e+02 0.0 
0.0 0.0 -5.830963545204e+01 
-5.818217419321e+01 -3.342900629869e-02 0.0 
-3.342900629869e-02 -1.372945006833e+02 0.0 
0.0 0.0 -5.824300246294e+01 
-5.824078410541e+01 -3.762382081035e-02 0.0 
-3.762382081035e-02 -1.373127275362e+02 0.0 
0.0 0.0 -5.826605349249e+01 
-5.822003780902e+01 -5.429681244883e-03 0.0 
-5.429681244883e-03 -1.372781618911e+02 0.0 
0.0 0.0 -5.824945991003e+01 
-5.822433132976e+01 4.036039304692e-03 0.0 
4.036039304692e-03 -1.373161960201e+02 0.0 
0.0 0.0 -5.826215820497e+01 
-5.822942367253e+01 1.197629433004e-03 0.0 
1.197629433004e-03 -1.373289669557e+02 0.0 
0.0 0.0 -5.826751718847e+01 
-5.823610042814e+01 -2.200335256906e-03 0.0 
-2.200335256906e-03 -1.373299038248e+02 0.0 
0.0 0.0 -5.826980127589e+01 
-5.825183939392e+01 5.929790394949e-04 0.0 
5.929790394949e-04 -1.373265342230e+02 0.0 
0.0 0.0 -5.827351208508e+01 
-5.826089267273e+01 9.946321522929e-03 0.0 
9.946321522929e-03 -1.373342250581e+02 0.0 
0.0 0.0 -5.827853531926e+01 
-5.825857925336e+01 8.471851873511e-03 0.0 
8.471851873511e-03 -1.373437679968e+02 0.0 
0.0 0.0 -5.828070417505e+01 
-5.826980026207e+01 2.341987939384e-03 0.0 
2.341987939384e-03 -1.373406769246e+02 0.0 
0.0 0.0 -5.828314315600e+01 
-5.827489346381e+01 2.702496356568e-03 0.0 
2.702496356568e-03 -1.373301193643e+02 0.0 
0.0 0.0 -5.828150384842e+01 
-5.827868891302e+01 6.576843641505e-03 0.0 
6.576843641505e-03 -1.373245468590e+02 0.0 
0.0 0.0 -5.828097073160e+01 
-5.827651491318e+01 1.093043712080e-02 0.0 
1.093043712080e-02 -1.373197246333e+02 0.0 
0.0 0.0 -5.827887186396e+01 
-5.827625065972e+01 2.399793719437e-02 0.0 
2.399793719437e-02 -1.373245865372e+02 0.0 
0.0 0.0 -5.828025115907e+01 
-5.826190453340e+01 5.281881369326e-02 0.0 
5.281881369326e-02 -1.373419816728e+02 0.0 
0.0 0.0 -5.828116586185e+01 
-5.825607830607e+01 -4.209762381399e-01 0.0 
-4.209762381399e-01 -1.373510964423e+02 0.0 
0.0 0.0 -5.828215242452e+01 
-6.663717617011e+01 -2.875056923120e-01 0.0 
-2.875056923120e-01 -1.569737597588e+02 0.0 
0.0 0.0 -6.668328077866e+01 
-6.667591545524e+01 -2.508864389621e-02 0.0 
-2.508864389621e-02 -1.569303146246e+02 0.0 
0.0 0.0 -6.668186902396e+01 
-6.668556898222e+01 1.600345090196e-02 0.0 
1.600345090196e-02 -1.569179479973e+02 0.0 
0.0 0.0 -6.668105509386e+01 
-6.668451622629e+01 1.282339611939e-02 0.0 
1.282339611939e-02 -1.569322342851e+02 0.0 
0.0 0.0 -6.668502515343e+01 
-6.670078568691e+01 3.005728678286e-03 0.0 
3.005728678286e-03 -1.569353518288e+02 0.0 
0.0 0.0 -6.669084125472e+01 
-6.669188779907e+01 -4.105416823936e-03 0.0 
-4.105416823936e-03 -1.569477373584e+02 0.0 
0.0 0.0 -6.669188754723e+01 
-6.669131573458e+01 -8.906266999091e-03 0.0 
-8.906266999091e-03 -1.569685092327e+02 0.0 
0.0 0.0 -6.669794749020e+01 
-6.667500014771e+01 1.042208114790e-02 0.0 
1.042208114790e-02 -1.569596043765e+02 0.0 
0.0 0.0 -6.669038135726e+01 
-6.667540214561e+01 -3.986498105224e-03 0.0 
-3.986498105224e-03 -1.569253009970e+02 0.0 
0.0 0.0 -6.668021094279e+01 
-6.665112679359e+01 -2.059978196092e-02 0.0 
-2.059978196092e-02 -1.569428986264e+02 0.0 
0.0 0.0 -6.667820762598e+01 
-6.663487883433e+01 -1.064246367943e-02 0.0 
-1.064246367943e-02 -1.569533608730e+02 0.0 
0.0 0.0 -6.667647191219e+01 
-6.663161337315e+01 -6.040096882339e-03 0.0 
-6.040096882339e-03 -1.569378641523e+02 0.0 
0.0 0.0 -6.667084325764e+01 
-6.661072391021e+01 -2.617337087054e-03 0.0 
-2.617337087054e-03 -1.569247281703e+02 0.0 
0.0 0.0 -6.666063562415e+01 
-6.658332959168e+01 -8.138172059094e-03 0.0 
-8.138172059094e-03 -1.568282779835e+02 0.0 
0.0 0.0 -6.662348227255e+01 
-6.666736977841e+01 -9.243578485988e-02 0.0 
-9.243578485988e-02 -1.569546965105e+02 0.0 
0.0 0.0 -6.668661988669e+01 
-6.714646506471e+01 1.580269436706e-02 0.0 
1.580269436706e-02 -1.579734457314e+02 0.0 
0.0 0.0 -6.713597323884e+01 
-6.604131046231e+01 -2.488502181706e-02 0.0 
-2.488502181706e-02 -1.544018322921e+02 0.0 
0.0 0.0 -6.573294282633e+01 
-7.441032493276e+01 -6.745240251168e-02 0.0 
-6.745240251168e-02 -1.739827749486e+02 0.0 
0.0 0.0 -7.411792996440e+01 
-7.541691667586e+01 7.127556930096e-03 0.0 
7.127556930096e-03 -1.774471395978e+02 0.0 
0.0 0.0 -7.545921688210e+01 
-7.499222764109e+01 -4.863059156103e-02 0.0 
-4.863059156103e-02 -1.765540164515e+02 0.0 
0.0 0.0 -7.506387322777e+01 
-7.505043448085e+01 -4.264311634522e-02 0.0 
-4.264311634522e-02 -1.765355655102e+02 0.0 
0.0 0.0 -7.507579999732e+01 
-7.505854730004e+01 -1.247738421796e-02 0.0 
-1.247738421796e-02 -1.765752193322e+02 0.0 
0.0 0.0 -7.509012998968e+01 
-7.506852021116e+01 -3.184055249382e-02 0.0 
-3.184055249382e-02 -1.766037594379e+02 0.0 
0.0 0.0 -7.510168389471e+01 
-7.506279972419e+01 -4.191749090016e-02 0.0 
-4.191749090016e-02 -1.765410664591e+02 0.0 
0.0 0.0 -7.508115985500e+01 
-7.507092738479e+01 2.748781078282e-03 0.0 
2.748781078282e-03 -1.765418127372e+02 0.0 
0.0 0.0 -7.508382203658e+01 
-7.516954837292e+01 -1.942965662914e-02 0.0 
-1.942965662914e-02 -1.766230749433e+02 0.0 
0.0 0.0 -7.513778699488e+01 
-7.512147332598e+01 -1.945570077721e-03 0.0 
-1.945570077721e-03 -1.765755384768e+02 0.0 
0.0 0.0 -7.510910354084e+01 
-7.512813980482e+01 -9.844070194560e-03 0.0 
-9.844070194560e-03 -1.765605221359e+02 0.0 
0.0 0.0 -7.510659858221e+01 
-7.512677372996e+01 3.033879483235e-02 0.0 
3.033879483235e-02 -1.765475913362e+02 0.0 
0.0 0.0 -7.510230951984e+01 
-7.509952136147e+01 1.187511420693e-02 0.0 
1.187511420693e-02 -1.765651138258e+02 0.0 
0.0 0.0 -7.509939055619e+01 
-7.508720378479e+01 3.896976766698e-02 0.0 
3.896976766698e-02 -1.764995595117e+02 0.0 
0.0 0.0 -7.507602898894e+01 
-7.510068125579e+01 1.357450146725e-01 0.0 
1.357450146725e-01 -1.766246835850e+02 0.0 
0.0 0.0 -7.511760945223e+01 
-7.502088654360e+01 -4.509331775677e-01 0.0 
-4.509331775677e-01 -1.766933203355e+02 0.0 
0.0 0.0 -7.511426206374e+01 
-5.000000699642e+00 -1.010417860983e-02 0.0 
-1.010417860983e-02 -1.098699007821e+01 0.0 
0.0 0.0 -4.659314084884e+00 
-1.303581763694e+01 -2.008758214665e-01 0.0 
-2.008758214665e-01 -3.066698662763e+01 0.0 
0.0 0.0 -1.271737595902e+01 
-2.143126147035e+01 -1.944068147711e-01 0.0 
-1.944068147711e-01 -5.042527139098e+01 0.0 
0.0 0.0 -2.115695985840e+01 
-2.983439786341e+01 -1.943924981703e-01 0.0 
-1.943924981703e-01 -7.014579658435e+01 0.0 
0.0 0.0 -2.959405833433e+01 
-3.811567275034e+01 -7.800131261355e-02 0.0 
-7.800131261355e-02 -8.943097690785e+01 0.0 
0.0 0.0 -3.786399489746e+01 
-4.668745979296e+01 -1.328426815183e-01 0.0 
-1.328426815183e-01 -1.091479487512e+02 0.0 
0.0 0.0 -4.635062256323e+01 
-5.495199358242e+01 -8.606276521633e-02 0.0 
-8.606276521633e-02 -1.287272799810e+02 0.0 
0.0 0.0 -5.470378206902e+01 
-6.338580224114e+01 -1.185585511265e-01 0.0 
-1.185585511265e-01 -1.483827378322e+02 0.0 
0.0 0.0 -6.313056202199e+01 
-7.179642432698e+01 -9.415237592299e-02 0.0 
-9.415237592299e-02 -1.680257399946e+02 0.0 
0.0 0.0 -7.154664929648e+01 
-8.028936417725e+01 -1.022076340161e-01 0.0 
-1.022076340161e-01 -1.878211067556e+02 0.0 
0.0 0.0 -8.003314127986e+01 
-1.963678259827e+01 -7.609878839979e-02 0.0 
-7.609878839979e-02 -4.714913733464e+01 0.0 
0.0 0.0 -1.963577597987e+01 
-1.605245909685e+02 5.616890168735e-02 0.0 
5.616890168735e-02 -3.757542882011e+02 0.0 
0.0 0.0 -1.604836637509e+02 
-7.152444168924e+00 5.436704344552e-02 0.0 
5.436704344552e-02 -1.675796751865e+01 0.0 
0.0 0.0 -7.160423531129e+00 
-6.831504225370e+00 7.145861311483e-02 0.0 
7.145861311483e-02 -1.614619825387e+01 0.0 
0.0 0.0 -6.880218474337e+00 
-1.604819575704e+02 -8.530308857734e-02 0.0 
-8.530308857734e-02 -3.757838582367e+02 0.0 
0.0 0.0 -1.604797447421e+02 
-3.652887966280e+01 -1.088345438429e-01 0.0 
-1.088345438429e-01 -8.688940781867e+01 0.0 
0.0 0.0 -3.662548624444e+01 
-8.802009205366e+01 3.331656869840e-02 0.0 
3.331656869840e-02 -2.070289672487e+02 0.0 
0.0 0.0 -8.811471779070e+01 
-1.601950956785e+02 -5.326360906749e-02 0.0 
-5.326360906749e-02 -3.751102284638e+02 0.0 
0.0 0.0 -1.601915972427e+02 
-5.266449666498e+01 1.243391161209e-01 0.0 
1.243391161209e-01 -1.243778347145e+02 0.0 
0.0 0.0 -5.271269941384e+01 
-1.605984147449e+02 -1.526757345791e-02 0.0 
-1.526757345791e-02 -3.760029258922e+02 0.0 
0.0 0.0 -1.605804021911e+02 
-6.984509483542e+01 -1.647552664916e-02 0.0 
-1.647552664916e-02 -1.645013886757e+02 0.0 
0.0 0.0 -6.990394505334e+01 
-1.611886162415e+02 -5.079989561557e-02 0.0 
-5.079989561557e-02 -3.770910452926e+02 0.0 
0.0 0.0 -1.610838984602e+02 
-6.978618815494e+00 -2.612478021649e-02 0.0 
-2.612478021649e-02 -1.614676783707e+01 0.0 
0.0 0.0 -6.947299622920e+00 
-1.606124410745e+02 -2.339280249876e-02 0.0 
-2.339280249876e-02 -3.761016399218e+02 0.0 
0.0 0.0 -1.606142242989e+02 
-8.697602290050e+01 -6.529504498693e-02 0.0 
-6.529504498693e-02 -2.044385040292e+02 0.0 
0.0 0.0 -8.702435807890e+01 
-5.463471486836e+01 -2.578467197322e-02 0.0 
-2.578467197322e-02 -1.286377241559e+02 0.0 
0.0 0.0 -5.458173170728e+01 
-1.111418651089e+02 -5.339483694979e-02 0.0 
-5.339483694979e-02 -2.607097618999e+02 0.0 
0.0 0.0 -1.111554881027e+02 
-1.603340592219e+02 3.897329413352e-02 0.0 
3.897329413352e-02 -3.752903842046e+02 0.0 
0.0 0.0 -1.602873330280e+02 
-1.606087101442e+02 -6.997033262084e-02 0.0 
-6.997033262084e-02 -3.760948779633e+02 0.0 
0.0 0.0 -1.606110764322e+02 
-1.604276671948e+02 6.973158218190e-02 0.0 
6.973158218190e-02 -3.758136104542e+02 0.0 
0.0 0.0 -1.604723832947e+02 
-1.598022528852e+02 -4.419855872968e-02 0.0 
-4.419855872968e-02 -3.741954743448e+02 0.0 
0.0 0.0 -1.597993181690e+02 
-1.606898636832e+02 8.688540246943e-02 0.0 
8.688540246943e-02 -3.764138054009e+02 0.0 
0.0 0.0 -1.607311007252e+02 
-9.095102767926e+01 -4.765045393823e-02 0.0 
-4.765045393823e-02 -2.135064433424e+02 0.0 
0.0 0.0 -9.093724130649e+01 
-9.098622526413e+01 -4.787324680634e-02 0.0 
-4.787324680634e-02 -2.136200833527e+02 0.0 
0.0 0.0 -9.098189258505e+01 
-9.159343409431e+01 4.855164565071e-02 0.0 
4.855164565071e-02 -2.149645632595e+02 0.0 
0.0 0.0 -9.156739920614e+01 
-1.214007552657e+02 1.387489974150e-01 0.0 
1.387489974150e-01 -2.846758860419e+02 0.0 
0.0 0.0 -1.214229923923e+02 
-1.605457755869e+02 4.347360501754e-02 0.0 
4.347360501754e-02 -3.758781375128e+02 0.0 
0.0 0.0 -1.605271739299e+02 
-6.917482091868e+00 6.514305766845e-02 0.0 
6.514305766845e-02 -1.612966657933e+01 0.0 
0.0 0.0 -6.914408475071e+00 
-7.173814723717e+00 -1.132180652385e-02 0.0 
-1.132180652385e-02 -1.713183057139e+01 0.0 
0.0 0.0 -7.280693875102e+00 
-1.377296196950e+02 4.456036656067e-03 0.0 
4.456036656067e-03 -3.226454931911e+02 0.0 
0.0 0.0 -1.377125338658e+02 
-9.047248785727e+01 -7.959448630756e-02 0.0 
-7.959448630756e-02 -2.126590720893e+02 0.0 
0.0 0.0 -9.053946798397e+01 
-2.864028366652e+01 -1.053494962403e-02 0.0 
-1.053494962403e-02 -6.842390839011e+01 0.0 
0.0 0.0 -2.871925761699e+01 
-1.590735409116e+02 -2.121437435736e-02 0.0 
-2.121437435736e-02 -3.726436282166e+02 0.0 
0.0 0.0 -1.591151507385e+02 
-1.609842177077e+02 -5.435464780173e-02 0.0 
-5.435464780173e-02 -3.769483650639e+02 0.0 
0.0 0.0 -1.609797748315e+02 
-1.605703846301e+02 -1.951621127769e-02 0.0 
-1.951621127769e-02 -3.760467262751e+02 0.0 
0.0 0.0 -1.605851332715e+02 
-1.598454918122e+02 -5.123162036157e-02 0.0 
-5.123162036157e-02 -3.743451934885e+02 0.0 
0.0 0.0 -1.598572055902e+02 
-1.606785787259e+02 6.405141891106e-02 0.0 
6.405141891106e-02 -3.763399001629e+02 0.0 
0.0 0.0 -1.607055436666e+02 
-7.255624587603e+00 -1.411442677413e-02 0.0 
-1.411442677413e-02 -1.718262932064e+01 0.0 
0.0 0.0 -7.320677796690e+00 
-9.071343177765e+01 -5.854127124044e-02 0.0 
-5.854127124044e-02 -2.129293610274e+02 0.0 
0.0 0.0 -9.069283784153e+01 
-1.591463765287e+02 -4.239677587179e-02 0.0 
-4.239677587179e-02 -3.727684778701e+02 0.0 
0.0 0.0 -1.591744563196e+02 
-1.378166254427e+02 1.213676855259e-01 0.0 
1.213676855259e-01 -3.230505222281e+02 0.0 
0.0 0.0 -1.378601443012e+02 
-7.358210283258e+00 5.168819742933e-02 0.0 
5.168819742933e-02 -1.704767797633e+01 0.0 
0.0 0.0 -7.322635277381e+00 
-7.095173345239e+01 2.623571273242e-02 0.0 
2.623571273242e-02 -1.668233387522e+02 0.0 
0.0 0.0 -7.093252166139e+01 
-1.615971973580e+02 4.128748947026e-02 0.0 
4.128748947026e-02 -3.786049380588e+02 0.0 
0.0 0.0 -1.616606406250e+02 
-4.514991068587e+01 5.660720077225e-02 0.0 
5.660720077225e-02 -1.070607519474e+02 0.0 
0.0 0.0 -4.526319878998e+01 
-2.814688580884e+01 -4.714598237044e-02 0.0 
-4.714598237044e-02 -6.717898907916e+01 0.0 
0.0 0.0 -2.819776246640e+01 
-6.123501837976e+01 2.725490330228e-02 0.0 
2.725490330228e-02 -1.444606012680e+02 0.0 
0.0 0.0 -6.130868589433e+01 
-7.833861551024e+01 2.598948656442e-02 0.0 
2.598948656442e-02 -1.842347126916e+02 0.0 
0.0 0.0 -7.837199846056e+01 
-1.073872085510e+01 1.063323314825e-01 0.0 
1.063323314825e-01 -2.577358642345e+01 0.0 
0.0 0.0 -1.060296021725e+01 
-1.054954061565e+02 3.253775411828e-02 0.0 
3.253775411828e-02 -2.475247569801e+02 0.0 
0.0 0.0 -1.055060489410e+02 
-1.618488669526e+02 5.034614817850e-02 0.0 
5.034614817850e-02 -3.790884568569e+02 0.0 
0.0 0.0 -1.618811971428e+02 
-6.933731940670e+00 -8.261654340103e-02 0.0 
-8.261654340103e-02 -1.631949101563e+01 0.0 
0.0 0.0 -6.931832628369e+00 
-1.542966457283e+02 3.624186739184e-04 0.0 
3.624186739184e-04 -3.610954027971e+02 0.0 
0.0 0.0 -1.542176145576e+02 
-9.106818348558e+01 -4.488195415407e-02 0.0 
-4.488195415407e-02 -2.137139397948e+02 0.0 
0.0 0.0 -9.103463698410e+01 
-9.443767731702e+01 -2.154826683531e-02 0.0 
-2.154826683531e-02 -2.216809376799e+02 0.0 
0.0 0.0 -9.443558449906e+01 
-9.849436462944e+01 -8.867745065701e-02 0.0 
-8.867745065701e-02 -2.310098805669e+02 0.0 
0.0 0.0 -9.845127355890e+01 
-1.023089723394e+02 3.119517007308e-02 0.0 
3.119517007308e-02 -2.402153588210e+02 0.0 
0.0 0.0 -1.023572993481e+02 
-1.067425952782e+02 -1.767196305252e-03 0.0 
-1.767196305252e-03 -2.504512644622e+02 0.0 
0.0 0.0 -1.067581579221e+02 
-1.102435777319e+02 2.873822381567e-02 0.0 
2.873822381567e-02 -2.587296261510e+02 0.0 
0.0 0.0 -1.102919611648e+02 
-1.058852205566e+02 2.758930941220e-02 0.0 
2.758930941220e-02 -2.485180079769e+02 0.0 
0.0 0.0 -1.059209685600e+02 
-1.138502542691e+02 3.537375566625e-02 0.0 
3.537375566625e-02 -2.670707643443e+02 0.0 
0.0 0.0 -1.138763055840e+02 
-1.093987873602e+02 2.183853630866e-02 0.0 
2.183853630866e-02 -2.567135584772e+02 0.0 
0.0 0.0 -1.094337037512e+02 
-1.148632514398e+02 3.700531028258e-02 0.0 
3.700531028258e-02 -2.692392518151e+02 0.0 
0.0 0.0 -1.148307509765e+02 
-1.174082512035e+02 4.275713325495e-02 0.0 
4.275713325495e-02 -2.753588635607e+02 0.0 
0.0 0.0 -1.174301344293e+02 
-1.129243600970e+02 2.500603013540e-02 0.0 
2.500603013540e-02 -2.649155096139e+02 0.0 
0.0 0.0 -1.129519609133e+02 
-1.209526583194e+02 3.522450679562e-02 0.0 
3.522450679562e-02 -2.836067953816e+02 0.0 
0.0 0.0 -1.209678361103e+02 
-1.164505253749e+02 2.793392332493e-02 0.0 
2.793392332493e-02 -2.731331307324e+02 0.0 
0.0 0.0 -1.164750968322e+02 
-1.084846028007e+02 1.359772540923e-02 0.0 
1.359772540923e-02 -2.545691721488e+02 0.0 
0.0 0.0 -1.085161324848e+02 
-1.119861270602e+02 1.274797698119e-02 0.0 
1.274797698119e-02 -2.627370230688e+02 0.0 
0.0 0.0 -1.120169450387e+02 
-1.040596890511e+02 2.299403692315e-03 0.0 
2.299403692315e-03 -2.442233292896e+02 0.0 
0.0 0.0 -1.040849055022e+02 
-1.075457197571e+02 6.494772249910e-03 0.0 
6.494772249910e-03 -2.523644359442e+02 0.0 
0.0 0.0 -1.075730467104e+02 
-1.154976131009e+02 9.667637408624e-03 0.0 
9.667637408624e-03 -2.709224661062e+02 0.0 
0.0 0.0 -1.155260237621e+02 
-1.110415596342e+02 1.381961165181e-02 0.0 
1.381961165181e-02 -2.605110777689e+02 0.0 
0.0 0.0 -1.110657912209e+02 
-1.030921534870e+02 5.556287375010e-03 0.0 
5.556287375010e-03 -2.419656396495e+02 0.0 
0.0 0.0 -1.031173379409e+02 
-1.065754544355e+02 9.149040742486e-03 0.0 
9.149040742486e-03 -2.500760604304e+02 0.0 
0.0 0.0 -1.065954544598e+02 
-9.864942031564e+01 -4.194951436923e-04 0.0 
-4.194951436923e-04 -2.315821759960e+02 0.0 
0.0 0.0 -9.866947889348e+01 
-1.021264898756e+02 5.447035040330e-03 0.0 
5.447035040330e-03 -2.396743570206e+02 0.0 
0.0 0.0 -1.021402540688e+02 
-9.418615009677e+01 6.326610512496e-04 0.0 
6.326610512496e-04 -2.211587685495e+02 0.0 
0.0 0.0 -9.420347559387e+01 
-9.767008738807e+01 5.224696136673e-03 0.0 
5.224696136673e-03 -2.292642372034e+02 0.0 
0.0 0.0 -9.768029737743e+01 
-1.056215307199e+02 9.544814610683e-03 0.0 
9.544814610683e-03 -2.478033294057e+02 0.0 
0.0 0.0 -1.056274580377e+02 
-1.011489665270e+02 3.714382915995e-03 0.0 
3.714382915995e-03 -2.373695772707e+02 0.0 
0.0 0.0 -1.011555631393e+02 
-9.321220393560e+01 1.871849063310e-04 0.0 
1.871849063310e-04 -2.188527341507e+02 0.0 
0.0 0.0 -9.321948142589e+01 
-9.667901442340e+01 -8.895445276359e-04 0.0 
-8.895445276359e-04 -2.269402544522e+02 0.0 
0.0 0.0 -9.668578066268e+01 
-8.875054145614e+01 -4.123043440177e-03 0.0 
-4.123043440177e-03 -2.084397815663e+02 0.0 
0.0 0.0 -8.875709690673e+01 
-9.219656519372e+01 -7.155356739592e-03 0.0 
-7.155356739592e-03 -2.164728848769e+02 0.0 
0.0 0.0 -9.220083502118e+01 
-1.001506283231e+02 -4.131088509632e-03 0.0 
-4.131088509632e-03 -2.350349393245e+02 0.0 
0.0 0.0 -1.001556702943e+02 
-9.566007546226e+01 -2.487365276520e-03 0.0 
-2.487365276520e-03 -2.245572898167e+02 0.0 
0.0 0.0 -9.566520958368e+01 
-8.766923904133e+01 -2.001019149636e-03 0.0 
-2.001019149636e-03 -2.059079133910e+02 0.0 
0.0 0.0 -8.767314572969e+01 
-9.114941317321e+01 1.760853144043e-03 0.0 
1.760853144043e-03 -2.140469774672e+02 0.0 
0.0 0.0 -9.115891719214e+01 
-8.311628644034e+01 1.126024761586e-02 0.0 
1.126024761586e-02 -1.953068738020e+02 0.0 
0.0 0.0 -8.312694807270e+01 
-8.664168970785e+01 -2.009014854505e-03 0.0 
-2.009014854505e-03 -2.035390013907e+02 0.0 
0.0 0.0 -8.665420732956e+01 
-7.856557058282e+01 6.835894452831e-03 0.0 
6.835894452831e-03 -1.846903688922e+02 0.0 
0.0 0.0 -7.857678184250e+01 
-8.209333687918e+01 -5.006415852671e-03 0.0 
-5.006415852671e-03 -1.929235945658e+02 0.0 
0.0 0.0 -8.210507943348e+01 
-9.015563149485e+01 -1.654951541887e-03 0.0 
-1.654951541887e-03 -2.117400795942e+02 0.0 
0.0 0.0 -9.016871332671e+01 
-8.561747437765e+01 6.217622987535e-04 0.0 
6.217622987535e-04 -2.011489270580e+02 0.0 
0.0 0.0 -8.562992043070e+01 
-7.752140909131e+01 -7.715114389230e-04 0.0 
-7.715114389230e-04 -1.822525907628e+02 0.0 
0.0 0.0 -7.753219995622e+01 
-8.104294457233e+01 1.534963809675e-03 0.0 
1.534963809675e-03 -1.904607781297e+02 0.0 
0.0 0.0 -8.105111681060e+01 
-8.916127712197e+01 4.120297252962e-03 0.0 
4.120297252962e-03 -2.094025206500e+02 0.0 
0.0 0.0 -8.916913933159e+01 
-8.457211430678e+01 3.347305901566e-03 0.0 
3.347305901566e-03 -1.986853595513e+02 0.0 
0.0 0.0 -8.457724215744e+01 
-9.270801609731e+01 5.526694340104e-03 0.0 
5.526694340104e-03 -2.176672903680e+02 0.0 
0.0 0.0 -9.271259193961e+01 
-8.810979219324e+01 1.887114080548e-03 0.0 
1.887114080548e-03 -2.069355074478e+02 0.0 
0.0 0.0 -8.811358989233e+01 
-8.000843638320e+01 2.263931767052e-03 0.0 
2.263931767052e-03 -1.880300877238e+02 0.0 
0.0 0.0 -8.001155723209e+01 
-8.352744265069e+01 -1.951828763323e-03 0.0 
-1.951828763323e-03 -1.962397476546e+02 0.0 
0.0 0.0 -8.353015709158e+01 
-9.164498390233e+01 -2.529520645238e-04 0.0 
-2.529520645238e-04 -2.151798716439e+02 0.0 
0.0 0.0 -9.164745666387e+01 
-8.702995342914e+01 -1.052051217300e-03 0.0 
-1.052051217300e-03 -2.044140693953e+02 0.0 
0.0 0.0 -8.703320684732e+01 
-7.894637484917e+01 8.723217375500e-04 0.0 
8.723217375500e-04 -1.855536902821e+02 0.0 
0.0 0.0 -7.895001953940e+01 
-8.244922778703e+01 -7.236101828963e-03 0.0 
-7.236101828963e-03 -1.937209216168e+02 0.0 
0.0 0.0 -8.245104482113e+01 
-9.055614072416e+01 -5.687251568483e-03 0.0 
-5.687251568483e-03 -2.126440419492e+02 0.0 
0.0 0.0 -9.056005480202e+01 
-8.596127630779e+01 -1.101320252121e-02 0.0 
-1.101320252121e-02 -2.019112498345e+02 0.0 
0.0 0.0 -8.596175784268e+01 
-7.787683778631e+01 -8.484824163878e-03 0.0 
-8.484824163878e-03 -1.830465230640e+02 0.0 
0.0 0.0 -7.787700825509e+01 
-8.138091739687e+01 -1.382780538975e-02 0.0 
-1.382780538975e-02 -1.912179674835e+02 0.0 
0.0 0.0 -8.137966546410e+01 
-8.953012764116e+01 -1.233982642477e-02 0.0 
-1.233982642477e-02 -2.102334878028e+02 0.0 
0.0 0.0 -8.952908463320e+01 
-8.489986381726e+01 -8.956464006232e-03 0.0 
-8.956464006232e-03 -1.994228278224e+02 0.0 
0.0 0.0 -8.489680749189e+01 
-7.678153243967e+01 -1.283259452203e-02 0.0 
-1.283259452203e-02 -1.804741084022e+02 0.0 
0.0 0.0 -7.677669225255e+01 
-8.027382806033e+01 -1.489609056312e-02 0.0 
-1.489609056312e-02 -1.886143281943e+02 0.0 
0.0 0.0 -8.026644687640e+01 
-8.846935359445e+01 -8.997823666787e-03 0.0 
-8.997823666787e-03 -2.077429870805e+02 0.0 
0.0 0.0 -8.846370220250e+01 
-8.379372211392e+01 -1.139473285044e-02 0.0 
-1.139473285044e-02 -1.968166834428e+02 0.0 
0.0 0.0 -8.378312166701e+01 
-9.205097771498e+01 -6.898191007042e-03 0.0 
-6.898191007042e-03 -2.160916483659e+02 0.0 
0.0 0.0 -9.204278782426e+01 
-7.557245924492e+01 -1.669855041057e-02 0.0 
-1.669855041057e-02 -1.776306901334e+02 0.0 
0.0 0.0 -7.556094481350e+01 
-7.908928130884e+01 -9.247731848054e-03 0.0 
-9.247731848054e-03 -1.858256654249e+02 0.0 
0.0 0.0 -7.907448402012e+01 
-7.082537192674e+01 -1.862442024400e-02 0.0 
-1.862442024400e-02 -1.665408271464e+02 0.0 
0.0 0.0 -7.080985972194e+01 
-7.437857318001e+01 -6.553345176242e-03 0.0 
-6.553345176242e-03 -1.748147566825e+02 0.0 
0.0 0.0 -7.435799895874e+01 
-1.036330589550e+02 -5.628000683830e-03 0.0 
-5.628000683830e-03 -2.431690870033e+02 0.0 
0.0 0.0 -1.036406437875e+02 
-6.609338786264e+01 -1.604064900023e-02 0.0 
-1.604064900023e-02 -1.554727079415e+02 0.0 
0.0 0.0 -6.606982874123e+01 
-6.263696938352e+01 -2.414002971963e-02 0.0 
-2.414002971963e-02 -1.474393242407e+02 0.0 
0.0 0.0 -6.262288808727e+01 
-6.967009462457e+01 -5.448744624596e-04 0.0 
-5.448744624596e-04 -1.638094495859e+02 0.0 
0.0 0.0 -6.964386326315e+01 
-7.799362876606e+01 1.980562820155e-03 0.0 
1.980562820155e-03 -1.832542218908e+02 0.0 
0.0 0.0 -7.797435519706e+01 
-6.134930649855e+01 -6.760629923609e-03 0.0 
-6.760629923609e-03 -1.443951843670e+02 0.0 
0.0 0.0 -6.132334725967e+01 
-6.495681453483e+01 2.510154374608e-03 0.0 
2.510154374608e-03 -1.527959976997e+02 0.0 
0.0 0.0 -6.492584367037e+01 
-5.660422328534e+01 -1.102924163572e-02 0.0 
-1.102924163572e-02 -1.333448013401e+02 0.0 
0.0 0.0 -5.658470738762e+01 
-7.489974934597e+01 1.055655937302e-02 0.0 
1.055655937302e-02 -1.761406637698e+02 0.0 
0.0 0.0 -7.491212393473e+01 
-1.190252532122e+02 1.912014733483e-02 0.0 
1.912014733483e-02 -2.791341193423e+02 0.0 
0.0 0.0 -1.190478117664e+02 
-6.023689628700e+01 -6.674470229631e-03 0.0 
-6.674470229631e-03 -1.417923967320e+02 0.0 
0.0 0.0 -6.020878790571e+01 
-5.185321750118e+01 -1.109860929898e-03 0.0 
-1.109860929898e-03 -1.223063213344e+02 0.0 
0.0 0.0 -5.184786165066e+01 
-4.823553174231e+01 -1.456276838968e-02 0.0 
-1.456276838968e-02 -1.138716931502e+02 0.0 
0.0 0.0 -4.823216746776e+01 
-4.350498501833e+01 -7.520607225077e-03 0.0 
-7.520607225077e-03 -1.028286358280e+02 0.0 
0.0 0.0 -4.350008625389e+01 
-1.113400104885e+02 7.668530498539e-02 0.0 
7.668530498539e-02 -2.608754085505e+02 0.0 
0.0 0.0 -1.112646257117e+02 
-1.193691386741e+02 -4.356571792401e-03 0.0 
-4.356571792401e-03 -2.797997439718e+02 0.0 
0.0 0.0 -1.193506647938e+02 
-1.155380796450e+02 3.282062697841e-02 0.0 
3.282062697841e-02 -2.708093570334e+02 0.0 
0.0 0.0 -1.155042310035e+02 
-1.238476581995e+02 8.714646836928e-03 0.0 
8.714646836928e-03 -2.903198992451e+02 0.0 
0.0 0.0 -1.238502672334e+02 
-1.201573389715e+02 3.584074777380e-02 0.0 
3.584074777380e-02 -2.816583255948e+02 0.0 
0.0 0.0 -1.201446993699e+02 
-4.712303174682e+01 2.470568806894e-02 0.0 
2.470568806894e-02 -1.112468322755e+02 0.0 
0.0 0.0 -4.711095920670e+01 
-1.255573775825e+02 3.126917417477e-02 0.0 
3.126917417477e-02 -2.942870611070e+02 0.0 
0.0 0.0 -1.255533316068e+02 
-1.275347728632e+02 -1.405324631848e-02 0.0 
-1.405324631848e-02 -2.989044313379e+02 0.0 
0.0 0.0 -1.275317612603e+02 
-9.519510810549e+01 -4.398141119136e-03 0.0 
-4.398141119136e-03 -2.235387799096e+02 0.0 
0.0 0.0 -9.522016640453e+01 
-8.529937885411e+01 -3.211196793141e-03 0.0 
-3.211196793141e-03 -2.003867666578e+02 0.0 
0.0 0.0 -8.530584365358e+01 
-9.730897328440e+01 1.168644473564e-02 0.0 
1.168644473564e-02 -2.284082091974e+02 0.0 
0.0 0.0 -9.731515474453e+01 
-6.858632861333e+01 1.789891036218e-02 0.0 
1.789891036218e-02 -1.612445349256e+02 0.0 
0.0 0.0 -6.854925906167e+01 
-6.389291438138e+01 -7.800278291357e-03 0.0 
-7.800278291357e-03 -1.502932426268e+02 0.0 
0.0 0.0 -6.385584710246e+01 
-7.219603544646e+01 4.301039073481e-02 0.0 
4.301039073481e-02 -1.697560739589e+02 0.0 
0.0 0.0 -7.218563282160e+01 
-9.673270316674e+01 -3.200634023494e-03 0.0 
-3.200634023494e-03 -2.270266479329e+02 0.0 
0.0 0.0 -9.672780532990e+01 
-1.003359510110e+02 -3.832337793938e-03 0.0 
-3.832337793938e-03 -2.354332740507e+02 0.0 
0.0 0.0 -1.003307675185e+02 
-1.050267325798e+02 -2.341134518404e-03 0.0 
-2.341134518404e-03 -2.463810986496e+02 0.0 
0.0 0.0 -1.050223493688e+02 
-1.086364707065e+02 -2.436921299723e-03 0.0 
-2.436921299723e-03 -2.548082122816e+02 0.0 
0.0 0.0 -1.086334048964e+02 
-1.133364298205e+02 -2.200662494292e-03 0.0 
-2.200662494292e-03 -2.657717483136e+02 0.0 
0.0 0.0 -1.133324534402e+02 
-1.169502236824e+02 -4.427158768871e-03 0.0 
-4.427158768871e-03 -2.742120593478e+02 0.0 
0.0 0.0 -1.169486849090e+02 
-1.122455937290e+02 8.019510867381e-04 0.0 
8.019510867381e-04 -2.632330369234e+02 0.0 
0.0 0.0 -1.122435891957e+02 
-1.205614278155e+02 1.823422772849e-03 0.0 
1.823422772849e-03 -2.826497936592e+02 0.0 
0.0 0.0 -1.205633664424e+02 
-1.158559026847e+02 5.573663611793e-03 0.0 
5.573663611793e-03 -2.716592020737e+02 0.0 
0.0 0.0 -1.158545314275e+02 
-1.216570879780e+02 -6.263049746254e-03 0.0 
-6.263049746254e-03 -2.851847738078e+02 0.0 
0.0 0.0 -1.216525585357e+02 
-1.180181521322e+02 2.272358874712e-03 0.0 
2.272358874712e-03 -2.766981405187e+02 0.0 
0.0 0.0 -1.180148877953e+02 
-1.241742928073e+02 9.569106518746e-03 0.0 
9.569106518746e-03 -2.910793608380e+02 0.0 
0.0 0.0 -1.241760960936e+02 
-1.194700428919e+02 6.051083485590e-03 0.0 
6.051083485590e-03 -2.800870897350e+02 0.0 
0.0 0.0 -1.194671397881e+02 
-1.278016002105e+02 1.002192534222e-02 0.0 
1.002192534222e-02 -2.995179585646e+02 0.0 
0.0 0.0 -1.277958676325e+02 
-1.230927946173e+02 8.025829395578e-03 0.0 
8.025829395578e-03 -2.885191278205e+02 0.0 
0.0 0.0 -1.230835767314e+02 
-1.147449089536e+02 3.733979551352e-03 0.0 
3.733979551352e-03 -2.690577953795e+02 0.0 
0.0 0.0 -1.147408112999e+02 
-1.183594694472e+02 2.417401715171e-03 0.0 
2.417401715171e-03 -2.774746844837e+02 0.0 
0.0 0.0 -1.183502461793e+02 
-1.100352817230e+02 8.369427769944e-03 0.0 
8.369427769944e-03 -2.580841949338e+02 0.0 
0.0 0.0 -1.100358429971e+02 
-1.008691661632e+02 1.163646628371e-02 0.0 
1.163646628371e-02 -2.367084874514e+02 0.0 
0.0 0.0 -1.008732960844e+02 
-1.054848939380e+02 1.543016206644e-02 0.0 
1.543016206644e-02 -2.474864153277e+02 0.0 
0.0 0.0 -1.054913927797e+02 
-1.090526804399e+02 1.353008453195e-02 0.0 
1.353008453195e-02 -2.558011515476e+02 0.0 
0.0 0.0 -1.090561495963e+02 
-1.136770481218e+02 1.830949260958e-02 0.0 
1.830949260958e-02 -2.666083600723e+02 0.0 
0.0 0.0 -1.136856224582e+02 
-1.172585179669e+02 1.720673669962e-02 0.0 
1.720673669962e-02 -2.749463317634e+02 0.0 
0.0 0.0 -1.172614549191e+02 
-1.218777567796e+02 2.186642779381e-02 0.0 
2.186642779381e-02 -2.857634397225e+02 0.0 
0.0 0.0 -1.218923589506e+02 
-1.254571135735e+02 1.925859409643e-02 0.0 
1.925859409643e-02 -2.940917565872e+02 0.0 
0.0 0.0 -1.254646610482e+02 
-1.208412913653e+02 1.208492697845e-02 0.0 
1.208492697845e-02 -2.832875421139e+02 0.0 
0.0 0.0 -1.208386500438e+02 
-1.244441771651e+02 2.324487722656e-02 0.0 
2.324487722656e-02 -2.917764132396e+02 0.0 
0.0 0.0 -1.244661771214e+02 
-7.294468530918e+01 -9.006344592862e-04 0.0 
-9.006344592862e-04 -1.715622588210e+02 0.0 
0.0 0.0 -7.295208323906e+01 
-6.942879883718e+01 -7.161610372191e-04 0.0 
-7.161610372191e-04 -1.633636742919e+02 0.0 
0.0 0.0 -6.943774193873e+01 
-6.485769721179e+01 -5.815444235686e-03 0.0 
-5.815444235686e-03 -1.526951935626e+02 0.0 
0.0 0.0 -6.486586723231e+01 
-6.135131436059e+01 -3.390864636593e-03 0.0 
-3.390864636593e-03 -1.445155147378e+02 0.0 
0.0 0.0 -6.136004872951e+01 
-5.677742170787e+01 -1.226721250944e-02 0.0 
-1.226721250944e-02 -1.338483175905e+02 0.0 
0.0 0.0 -5.678772178950e+01 
-5.328980979993e+01 -8.416544255493e-03 0.0 
-8.416544255493e-03 -1.257087668326e+02 0.0 
0.0 0.0 -5.329957298975e+01 
-4.867574822053e+01 -1.691329671127e-02 0.0 
-1.691329671127e-02 -1.149663102826e+02 0.0 
0.0 0.0 -4.869261755093e+01 
-5.219032677603e+01 -2.503486693269e-02 0.0 
-2.503486693269e-02 -1.231346166152e+02 0.0 
0.0 0.0 -5.219748301736e+01 
-4.404574992752e+01 -3.143539999220e-02 0.0 
-3.143539999220e-02 -1.041623536395e+02 0.0 
0.0 0.0 -4.406243107011e+01 
-4.760196959376e+01 -3.176948730377e-02 0.0 
-3.176948730377e-02 -1.123793196485e+02 0.0 
0.0 0.0 -4.759438677269e+01 
-3.940619500404e+01 -3.461197029974e-02 0.0 
-3.461197029974e-02 -9.332008835213e+01 0.0 
0.0 0.0 -3.941788500685e+01 
-4.297313720322e+01 -3.562288198145e-02 0.0 
-3.562288198145e-02 -1.015289976902e+02 0.0 
0.0 0.0 -4.295064046802e+01 
-1.091140975154e+02 7.433908631877e-03 0.0 
7.433908631877e-03 -2.559402983295e+02 0.0 
0.0 0.0 -1.091163187535e+02 
-1.182896895977e+02 1.847979373274e-02 0.0 
1.847979373274e-02 -2.773936825720e+02 0.0 
0.0 0.0 -1.183050116509e+02 
-1.265079589194e+02 9.581814360152e-03 0.0 
9.581814360152e-03 -2.965869776736e+02 0.0 
0.0 0.0 -1.265284809779e+02 
-1.228663372477e+02 1.084245826611e-02 0.0 
1.084245826611e-02 -2.880620750703e+02 0.0 
0.0 0.0 -1.228785236954e+02 
-3.985909342625e+01 -5.630625839195e-03 0.0 
-5.630625839195e-03 -9.440258071376e+01 0.0 
0.0 0.0 -3.987850224200e+01 
-1.267326925040e+02 9.596857608983e-03 0.0 
9.596857608983e-03 -2.969669608130e+02 0.0 
0.0 0.0 -1.267098959951e+02 
-1.263563221321e+02 4.391235760975e-03 0.0 
4.391235760975e-03 -2.961445991194e+02 0.0 
0.0 0.0 -1.263502763754e+02 
-1.226653639093e+02 1.285156387597e-02 0.0 
1.285156387597e-02 -2.875508187857e+02 0.0 
0.0 0.0 -1.226648548085e+02 
-1.290700025702e+02 1.164417357114e-03 0.0 
1.164417357114e-03 -3.024993857101e+02 0.0 
0.0 0.0 -1.290708164841e+02 
-3.884246508886e+01 6.211198197552e-03 0.0 
6.211198197552e-03 -9.194036427689e+01 0.0 
0.0 0.0 -3.883484880972e+01 
-4.525338877493e+01 -1.219768316594e-03 0.0 
-1.219768316594e-03 -1.069527984546e+02 0.0 
0.0 0.0 -4.526185616887e+01 
-4.981108742882e+01 -5.881829904291e-03 0.0 
-5.881829904291e-03 -1.175664477433e+02 0.0 
0.0 0.0 -4.981326055162e+01 
-1.283716130652e+02 2.399397068429e-02 0.0 
2.399397068429e-02 -3.008793543493e+02 0.0 
0.0 0.0 -1.283752902243e+02 
-1.246737275655e+02 3.325160469102e-02 0.0 
3.325160469102e-02 -2.921964155061e+02 0.0 
0.0 0.0 -1.246610429215e+02 
-1.310549414382e+02 1.411118468765e-02 0.0 
1.411118468765e-02 -3.071017875038e+02 0.0 
0.0 0.0 -1.310470186826e+02 
-4.246523863900e+01 1.720072486986e-02 0.0 
1.720072486986e-02 -1.003360892533e+02 0.0 
0.0 0.0 -4.244039836768e+01 
-1.288758704131e+02 8.598156691115e-03 0.0 
8.598156691115e-03 -3.020778739203e+02 0.0 
0.0 0.0 -1.288861233000e+02 
-3.592182532625e+01 -4.266236538983e-02 0.0 
-4.266236538983e-02 -8.521271379211e+01 0.0 
0.0 0.0 -3.594036173551e+01 
-1.219979391380e+02 -6.826905919477e-03 0.0 
-6.826905919477e-03 -2.859128701820e+02 0.0 
0.0 0.0 -1.219732427960e+02 
-1.303636298600e+02 5.819543810066e-03 0.0 
5.819543810066e-03 -3.054066590890e+02 0.0 
0.0 0.0 -1.303310866847e+02 
-1.075546082299e+02 4.383235689080e-03 0.0 
4.383235689080e-03 -2.522789344314e+02 0.0 
0.0 0.0 -1.075500627984e+02 
-1.311447981389e+02 -6.546620039326e-03 0.0 
-6.546620039326e-03 -3.073753562879e+02 0.0 
0.0 0.0 -1.311560463280e+02 
-1.274233226006e+02 5.341626077450e-03 0.0 
5.341626077450e-03 -2.986447322843e+02 0.0 
0.0 0.0 -1.274204164655e+02 
-5.117527951374e+01 -1.919895253725e-02 0.0 
-1.919895253725e-02 -1.207019286334e+02 0.0 
0.0 0.0 -5.116316244415e+01 
-4.650587814222e+01 1.717121768342e-02 0.0 
1.717121768342e-02 -1.098594259856e+02 0.0 
0.0 0.0 -4.650959123835e+01 
-3.844575462792e+01 4.941210094788e-03 0.0 
4.941210094788e-03 -9.105737694713e+01 0.0 
0.0 0.0 -3.845093947252e+01 
-4.216342153549e+01 -1.259453984578e-03 0.0 
-1.259453984578e-03 -9.966557783794e+01 0.0 
0.0 0.0 -4.214869981203e+01 
-5.013103068680e+01 -4.811161656225e-03 0.0 
-4.811161656225e-03 -1.183265851973e+02 0.0 
0.0 0.0 -5.013728476522e+01 
-4.548445272556e+01 -3.453828711898e-02 0.0 
-3.453828711898e-02 -1.073801045719e+02 0.0 
0.0 0.0 -4.545936718924e+01 
-3.742453995126e+01 -6.796445488211e-02 0.0 
-6.796445488211e-02 -8.846259908607e+01 0.0 
0.0 0.0 -3.736614171120e+01 
-4.079121700278e+01 -2.382566925167e-02 0.0 
-2.382566925167e-02 -9.640331418053e+01 0.0 
0.0 0.0 -4.075835935499e+01 
-4.898897707330e+01 -2.262838699026e-02 0.0 
-2.262838699026e-02 -1.155588697669e+02 0.0 
0.0 0.0 -4.896435405205e+01 
-4.427310494800e+01 -1.152295235267e-02 0.0 
-1.152295235267e-02 -1.045491774286e+02 0.0 
0.0 0.0 -4.424668471298e+01 
-3.605751837630e+01 1.770652691766e-03 0.0 
1.770652691766e-03 -8.525887295470e+01 0.0 
0.0 0.0 -3.599491739930e+01 
-3.949104427738e+01 1.062754663900e-02 0.0 
1.062754663900e-02 -9.341470590618e+01 0.0 
0.0 0.0 -3.947172505507e+01 
-1.350677803344e+02 1.532093354593e-02 0.0 
1.532093354593e-02 -3.164133338561e+02 0.0 
0.0 0.0 -1.350443342572e+02 
-3.130179557820e+01 -1.369426400391e-02 0.0 
-1.369426400391e-02 -7.431702714399e+01 0.0 
0.0 0.0 -3.128564681666e+01 
-1.005673599977e+02 5.426077503898e-03 0.0 
5.426077503898e-03 -2.361008772090e+02 0.0 
0.0 0.0 -1.006004711620e+02 
-1.346893903910e+02 -1.162997203723e-03 0.0 
-1.162997203723e-03 -3.155735743407e+02 0.0 
0.0 0.0 -1.346788894195e+02 
-1.335778197743e+02 1.766997238849e-03 0.0 
1.766997238849e-03 -3.130833838982e+02 0.0 
0.0 0.0 -1.335983611018e+02 
-1.329370580201e+02 2.423044259700e-02 0.0 
2.423044259700e-02 -3.115005957827e+02 0.0 
0.0 0.0 -1.329312961408e+02 
-1.292186834293e+02 2.475494168246e-02 0.0 
2.475494168246e-02 -3.028174310187e+02 0.0 
0.0 0.0 -1.292108343344e+02 
-1.209158791570e+02 4.502499145749e-03 0.0 
4.502499145749e-03 -2.834123485950e+02 0.0 
0.0 0.0 -1.208984683256e+02 
-1.254725794158e+02 7.848136399977e-03 0.0 
7.848136399977e-03 -2.941229175539e+02 0.0 
0.0 0.0 -1.254786490909e+02 
-1.337899866428e+02 2.887258963819e-02 0.0 
2.887258963819e-02 -3.135369278698e+02 0.0 
0.0 0.0 -1.337980743538e+02 
-1.300420979558e+02 1.295985148036e-02 0.0 
1.295985148036e-02 -3.048292548683e+02 0.0 
0.0 0.0 -1.300614058472e+02 
-1.217042822980e+02 5.518552576156e-03 0.0 
5.518552576156e-03 -2.853796675325e+02 0.0 
0.0 0.0 -1.217251849492e+02 
-1.262911133374e+02 4.816765442400e-03 0.0 
4.816765442400e-03 -2.960610099073e+02 0.0 
0.0 0.0 -1.263056369734e+02 
-1.179539230148e+02 5.164553280137e-03 0.0 
5.164553280137e-03 -2.765744465696e+02 0.0 
0.0 0.0 -1.179585108753e+02 
-1.225340468223e+02 -4.073030059721e-03 0.0 
-4.073030059721e-03 -2.872690332270e+02 0.0 
0.0 0.0 -1.225409240148e+02 
-1.308936279361e+02 4.580096756683e-03 0.0 
4.580096756683e-03 -3.067634883603e+02 0.0 
0.0 0.0 -1.308971348889e+02 
-1.271338954512e+02 8.174287192623e-03 0.0 
8.174287192623e-03 -2.980036985119e+02 0.0 
0.0 0.0 -1.271412781889e+02 
-1.187519898337e+02 -1.515568635135e-02 0.0 
-1.515568635135e-02 -2.784948379849e+02 0.0 
0.0 0.0 -1.187740483456e+02 
-1.233566096269e+02 1.466630555442e-02 0.0 
1.466630555442e-02 -2.892140666247e+02 0.0 
0.0 0.0 -1.233712028755e+02 
-1.149501918740e+02 -5.423733126609e-03 0.0 
-5.423733126609e-03 -2.696663736382e+02 0.0 
0.0 0.0 -1.149849696537e+02 
-1.195722238708e+02 3.538453297162e-02 0.0 
3.538453297162e-02 -2.803145644424e+02 0.0 
0.0 0.0 -1.195660364940e+02 
-1.279870584510e+02 5.982210709456e-03 0.0 
5.982210709456e-03 -2.999592400042e+02 0.0 
0.0 0.0 -1.279838895366e+02 
-3.448677201398e+01 2.267693176334e-03 0.0 
2.267693176334e-03 -8.156267120336e+01 0.0 
0.0 0.0 -3.441483296520e+01 
-1.244243265921e+02 -5.322184966234e-03 0.0 
-5.322184966234e-03 -2.916582033741e+02 0.0 
0.0 0.0 -1.244247589898e+02 
-1.327213938248e+02 -3.794491712485e-02 0.0 
-3.794491712485e-02 -3.110675694688e+02 0.0 
0.0 0.0 -1.327366889881e+02 
-6.768296870038e+01 9.165046024477e-02 0.0 
9.165046024477e-02 -1.593568189148e+02 0.0 
0.0 0.0 -6.771193628455e+01 
-7.574394805940e+01 1.006163840801e-01 0.0 
1.006163840801e-01 -1.780623085557e+02 0.0 
0.0 0.0 -7.574187698454e+01 
-8.049615036271e+01 -9.852447166287e-03 0.0 
-9.852447166287e-03 -1.891751431434e+02 0.0 
0.0 0.0 -8.050138805183e+01 
-8.423820909405e+01 8.401726368082e-03 0.0 
8.401726368082e-03 -1.978267855184e+02 0.0 
0.0 0.0 -8.421949838373e+01 
-1.241464346372e+02 2.693568712659e-02 0.0 
2.693568712659e-02 -2.909511310943e+02 0.0 
0.0 0.0 -1.241292697195e+02 
-1.325517513137e+02 -1.893228487173e-02 0.0 
-1.893228487173e-02 -3.107040105887e+02 0.0 
0.0 0.0 -1.325767285707e+02 
-4.188017403585e+01 -5.528633587504e-03 0.0 
-5.528633587504e-03 -9.900101433973e+01 0.0 
0.0 0.0 -4.186435651267e+01 
-4.636335676731e+01 -2.361790813970e-02 0.0 
-2.361790813970e-02 -1.094877133406e+02 0.0 
0.0 0.0 -4.635532103236e+01 
-1.366307155724e+02 1.595701342138e-02 0.0 
1.595701342138e-02 -3.201424935881e+02 0.0 
0.0 0.0 -1.366319627481e+02 
-1.256512413036e+02 -2.036797574119e-03 0.0 
-2.036797574119e-03 -2.944291545646e+02 0.0 
0.0 0.0 -1.256241187605e+02 
-1.172845731757e+02 -2.161444998721e-02 0.0 
-2.161444998721e-02 -2.749439491845e+02 0.0 
0.0 0.0 -1.172685567081e+02 
-8.084147497244e+01 -4.336964190804e-03 0.0 
-4.336964190804e-03 -1.899821272965e+02 0.0 
0.0 0.0 -8.084708068069e+01 
-7.738514752827e+01 -9.873875445782e-03 0.0 
-9.873875445782e-03 -1.819200598535e+02 0.0 
0.0 0.0 -7.739156221453e+01 
-7.291010822113e+01 6.278498156562e-03 0.0 
6.278498156562e-03 -1.714516054195e+02 0.0 
0.0 0.0 -7.290851409220e+01 
-6.932864115112e+01 -1.717283220397e-02 0.0 
-1.717283220397e-02 -1.631123268654e+02 0.0 
0.0 0.0 -6.933229040495e+01 
-7.390466394210e+01 -3.704515615259e-02 0.0 
-3.704515615259e-02 -1.738472606151e+02 0.0 
0.0 0.0 -7.392557736717e+01 
-6.476311909151e+01 3.870692624714e-02 0.0 
3.870692624714e-02 -1.524112701772e+02 0.0 
0.0 0.0 -6.475231678061e+01 
-1.142928356249e+02 5.088257864821e-03 0.0 
5.088257864821e-03 -2.680163169325e+02 0.0 
0.0 0.0 -1.142927457672e+02 
-1.355066952152e+02 1.946083288010e-02 0.0 
1.946083288010e-02 -3.175189077280e+02 0.0 
0.0 0.0 -1.355076808830e+02 
-4.464258463719e+01 -3.287696244000e-02 0.0 
-3.287696244000e-02 -1.055246840076e+02 0.0 
0.0 0.0 -4.465018059345e+01 
-3.631469083359e+01 -1.544891330897e-02 0.0 
-1.544891330897e-02 -8.611117045437e+01 0.0 
0.0 0.0 -3.632775838639e+01 
-1.339843881364e+02 3.976398000284e-03 0.0 
3.976398000284e-03 -3.139356586281e+02 0.0 
0.0 0.0 -1.339760140293e+02 
-1.161735547780e+02 -1.085834828416e-03 0.0 
-1.085834828416e-03 -2.724046920058e+02 0.0 
0.0 0.0 -1.161734740351e+02 
-1.136079985672e+02 1.520394536773e-02 0.0 
1.520394536773e-02 -2.664172055570e+02 0.0 
0.0 0.0 -1.136075612373e+02 
-1.171242385872e+02 1.058509314210e-02 0.0 
1.058509314210e-02 -2.746108282601e+02 0.0 
0.0 0.0 -1.171205200542e+02 
-1.216501783974e+02 1.910785865349e-02 0.0 
1.910785865349e-02 -2.851689910093e+02 0.0 
0.0 0.0 -1.216457508220e+02 
-1.251886049763e+02 7.466617789180e-03 0.0 
7.466617789180e-03 -2.934070696352e+02 0.0 
0.0 0.0 -1.251787023834e+02 
-1.297352741479e+02 2.230400811996e-02 0.0 
2.230400811996e-02 -3.040378219141e+02 0.0 
0.0 0.0 -1.297319288186e+02 
-1.332473236664e+02 1.216911072357e-02 0.0 
1.216911072357e-02 -3.122422163758e+02 0.0 
0.0 0.0 -1.332468620127e+02 
-1.287336759297e+02 -1.763939478573e-03 0.0 
-1.763939478573e-03 -3.017030820323e+02 0.0 
0.0 0.0 -1.287310273886e+02 
-1.357886493186e+02 -3.165782245192e-02 0.0 
-3.165782245192e-02 -3.180796707543e+02 0.0 
0.0 0.0 -1.357604960219e+02 
-1.367997108447e+02 1.460707822148e-02 0.0 
1.460707822148e-02 -3.205844160876e+02 0.0 
0.0 0.0 -1.368152380797e+02 
-1.157217070295e+02 -3.371696660782e-02 0.0 
-3.371696660782e-02 -2.710937280769e+02 0.0 
0.0 0.0 -1.156446305319e+02 
-1.146055134268e+02 2.929384554002e-03 0.0 
2.929384554002e-03 -2.687846476222e+02 0.0 
0.0 0.0 -1.146170483147e+02 
-5.253221850658e+01 -1.692258274495e-02 0.0 
-1.692258274495e-02 -1.238516041951e+02 0.0 
0.0 0.0 -5.251514681050e+01 
-3.063010141382e+01 6.069489850695e-02 0.0 
6.069489850695e-02 -7.290255876375e+01 0.0 
0.0 0.0 -3.065979805327e+01 
-3.092818702207e+01 2.671513102924e-03 0.0 
2.671513102924e-03 -7.358799008641e+01 0.0 
0.0 0.0 -3.095485313254e+01 
-3.770109734187e+01 -2.569176406831e-02 0.0 
-2.569176406831e-02 -8.919053517322e+01 0.0 
0.0 0.0 -3.766748975453e+01 
-4.607041030940e+01 -1.324247488878e-02 0.0 
-1.324247488878e-02 -1.087255557694e+02 0.0 
0.0 0.0 -4.603878982364e+01 
-1.394165385266e+02 5.070688242323e-03 0.0 
5.070688242323e-03 -3.265840069561e+02 0.0 
0.0 0.0 -1.394001636448e+02 
-1.378088561706e+02 2.159215709612e-02 0.0 
2.159215709612e-02 -3.229358317705e+02 0.0 
0.0 0.0 -1.378234063823e+02 
-1.342138285986e+02 2.156158102388e-02 0.0 
2.156158102388e-02 -3.145316357436e+02 0.0 
0.0 0.0 -1.342236393027e+02 
-6.594236875311e+01 -8.159745577417e-02 0.0 
-8.159745577417e-02 -1.552422953884e+02 0.0 
0.0 0.0 -6.595539924244e+01 
-7.051898136315e+01 -2.361137079618e-02 0.0 
-2.361137079618e-02 -1.659627019016e+02 0.0 
0.0 0.0 -7.054450497943e+01 
-1.394523488281e+02 -1.305120437278e-02 0.0 
-1.305120437278e-02 -3.266137182905e+02 0.0 
0.0 0.0 -1.394198201356e+02 
-1.120264156097e+02 4.728511107032e-03 0.0 
4.728511107032e-03 -2.623928876842e+02 0.0 
0.0 0.0 -1.119257909882e+02 
-1.134106173121e+02 3.335208535117e-03 0.0 
3.335208535117e-03 -2.659609790998e+02 0.0 
0.0 0.0 -1.134114789235e+02 
-1.096049696768e+02 -8.521134585267e-03 0.0 
-8.521134585267e-03 -2.570381299235e+02 0.0 
0.0 0.0 -1.095929298801e+02 
-2.881440389110e+01 5.713985798561e-02 0.0 
5.713985798561e-02 -6.821214717081e+01 0.0 
0.0 0.0 -2.870796531857e+01 
-2.791985496032e+01 -1.774249990184e-02 0.0 
-1.774249990184e-02 -6.624126077149e+01 0.0 
0.0 0.0 -2.784833471954e+01 
-1.383881380178e+02 2.543352189411e-02 0.0 
2.543352189411e-02 -3.242788793267e+02 0.0 
0.0 0.0 -1.384001052034e+02 
-5.428382145564e+01 -1.501401420780e-02 0.0 
-1.501401420780e-02 -1.280061756203e+02 0.0 
0.0 0.0 -5.428699912280e+01 
-5.082538112488e+01 -1.993936480842e-02 0.0 
-1.993936480842e-02 -1.199309971271e+02 0.0 
0.0 0.0 -5.082691347558e+01 
-2.772616358082e+01 -1.762458011413e-02 0.0 
-1.762458011413e-02 -6.609368552002e+01 0.0 
0.0 0.0 -2.774595473025e+01 
-2.313114749729e+01 1.468383010245e-02 0.0 
1.468383010245e-02 -5.518456724140e+01 0.0 
0.0 0.0 -2.309471442161e+01 
-1.287137310581e+02 -7.694900311366e-02 0.0 
-7.694900311366e-02 -3.014258722327e+02 0.0 
0.0 0.0 -1.286418809872e+02 
-1.370901069659e+02 -5.517449080810e-02 0.0 
-5.517449080810e-02 -3.210291994562e+02 0.0 
0.0 0.0 -1.370357919266e+02 
-8.891111156080e+01 7.462059389924e-03 0.0 
7.462059389924e-03 -2.086708832362e+02 0.0 
0.0 0.0 -8.887459843911e+01 
-9.253620451724e+01 4.317029712497e-02 0.0 
4.317029712497e-02 -2.172401366065e+02 0.0 
0.0 0.0 -9.253290233714e+01 
-1.357879972844e+02 1.788405207298e-02 0.0 
1.788405207298e-02 -3.181184778888e+02 0.0 
0.0 0.0 -1.357719425520e+02 
-3.468644146349e+01 1.106363857220e-02 0.0 
1.106363857220e-02 -8.228151932058e+01 0.0 
0.0 0.0 -3.469038823522e+01 
-1.410265035990e+02 -4.521363899038e-03 0.0 
-4.521363899038e-03 -3.303189559438e+02 0.0 
0.0 0.0 -1.410036378628e+02 
-1.197659610849e+02 -1.459958467706e-02 0.0 
-1.459958467706e-02 -2.808184014776e+02 0.0 
0.0 0.0 -1.197753087687e+02 
-1.115010760694e+02 -6.888217544558e-03 0.0 
-6.888217544558e-03 -2.615195475763e+02 0.0 
0.0 0.0 -1.115061870937e+02 
-7.951621558565e+01 -5.787038015363e-02 0.0 
-5.787038015363e-02 -1.866169691603e+02 0.0 
0.0 0.0 -7.943995542380e+01 
-3.852637265258e+01 -4.356796628683e-02 0.0 
-4.356796628683e-02 -9.118936597323e+01 0.0 
0.0 0.0 -3.851472158774e+01 
-3.401325977420e+01 -2.837755295557e-02 0.0 
-2.837755295557e-02 -8.063775733883e+01 0.0 
0.0 0.0 -3.399530513391e+01 
-5.719978707650e+01 -2.613227530204e-02 0.0 
-2.613227530204e-02 -1.347635473987e+02 0.0 
0.0 0.0 -5.718900034257e+01 
-4.305112083435e+01 -3.714611645815e-03 0.0 
-3.714611645815e-03 -1.017413639963e+02 0.0 
0.0 0.0 -4.303774544919e+01 
-4.131311578078e+01 -4.327077683181e-03 0.0 
-4.327077683181e-03 -9.760134554622e+01 0.0 
0.0 0.0 -4.127433839810e+01 
-1.441256559625e+02 -3.090427006468e-02 0.0 
-3.090427006468e-02 -3.375761765556e+02 0.0 
0.0 0.0 -1.441105497554e+02 
-1.421054397282e+02 2.949259879818e-02 0.0 
2.949259879818e-02 -3.328564041027e+02 0.0 
0.0 0.0 -1.420885531493e+02 
-1.323089207960e+02 4.084878787535e-02 0.0 
4.084878787535e-02 -3.100897856629e+02 0.0 
0.0 0.0 -1.323196119377e+02 
-1.241574416160e+02 -3.622005883782e-05 0.0 
-3.622005883782e-05 -2.910739239393e+02 0.0 
0.0 0.0 -1.241694096666e+02 
-1.405429104421e+02 3.181513986301e-02 0.0 
3.181513986301e-02 -3.291190394794e+02 0.0 
0.0 0.0 -1.404985849765e+02 
-2.647730594205e+01 2.277211502067e-02 0.0 
2.277211502067e-02 -6.293229677872e+01 0.0 
0.0 0.0 -2.642288081623e+01 
-1.431049946802e+02 7.175295138648e-03 0.0 
7.175295138648e-03 -3.352779874165e+02 0.0 
0.0 0.0 -1.431148946290e+02 
-1.292836659914e+02 5.303776715574e-03 0.0 
5.303776715574e-03 -3.030298434729e+02 0.0 
0.0 0.0 -1.292940528393e+02 
-1.419298696189e+02 -3.384229434681e-02 0.0 
-3.384229434681e-02 -3.327507250078e+02 0.0 
0.0 0.0 -1.420041783880e+02 
-1.386940646034e+02 3.977184707426e-03 0.0 
3.977184707426e-03 -3.250116732372e+02 0.0 
0.0 0.0 -1.387117213522e+02 
-5.871167618145e+01 -2.153245309721e-02 0.0 
-2.153245309721e-02 -1.383671307189e+02 0.0 
0.0 0.0 -5.872364207010e+01 
-5.536834248208e+01 1.309938816875e-02 0.0 
1.309938816875e-02 -1.305831299860e+02 0.0 
0.0 0.0 -5.538544174043e+01 
-4.748646981125e+01 -1.738561428790e-02 0.0 
-1.738561428790e-02 -1.121651318208e+02 0.0 
0.0 0.0 -4.749548048961e+01 
-5.204343781983e+01 -4.455150541718e-02 0.0 
-4.455150541718e-02 -1.228563638727e+02 0.0 
0.0 0.0 -5.206994050775e+01 
-1.014328283319e+02 1.699368448421e-02 0.0 
1.699368448421e-02 -2.382183179287e+02 0.0 
0.0 0.0 -1.014953438782e+02 
-6.329504961051e+01 2.014594719238e-03 0.0 
2.014594719238e-03 -1.490862863363e+02 0.0 
0.0 0.0 -6.331440078403e+01 
-9.616272613153e+01 3.492950837028e-03 0.0 
3.492950837028e-03 -2.257976561185e+02 0.0 
0.0 0.0 -9.618811467502e+01 
-9.270033503847e+01 5.344736726432e-03 0.0 
5.344736726432e-03 -2.177307234137e+02 0.0 
0.0 0.0 -9.272931753565e+01 
-8.834357299216e+01 -3.586941480950e-03 0.0 
-3.586941480950e-03 -2.075599485973e+02 0.0 
0.0 0.0 -8.837105647682e+01 
-7.836358750992e+01 -3.991682951454e-03 0.0 
-3.991682951454e-03 -1.842701798819e+02 0.0 
0.0 0.0 -7.839013021753e+01 
-7.501215512659e+01 6.083931485320e-03 0.0 
6.083931485320e-03 -1.764375000501e+02 0.0 
0.0 0.0 -7.503489655301e+01 
-6.586823418938e+01 2.565612732927e-04 0.0 
2.565612732927e-04 -1.550572550646e+02 0.0 
0.0 0.0 -6.587764677618e+01 
-1.018881631488e+02 1.195809561886e-02 0.0 
1.195809561886e-02 -2.391023080979e+02 0.0 
0.0 0.0 -1.018971413740e+02 
-8.524055784751e+01 -3.508891810804e-03 0.0 
-3.508891810804e-03 -2.001961894868e+02 0.0 
0.0 0.0 -8.523102420029e+01 
-1.064501418200e+02 9.187758656315e-03 0.0 
9.187758656315e-03 -2.497049189658e+02 0.0 
0.0 0.0 -1.064465182357e+02 
-1.013974627437e+02 -3.893518672800e-03 0.0 
-3.893518672800e-03 -2.379123959716e+02 0.0 
0.0 0.0 -1.013929576146e+02 
-1.392047131624e+02 1.419642433913e-02 0.0 
1.419642433913e-02 -3.261517085997e+02 0.0 
0.0 0.0 -1.392069265286e+02 
-1.438524483431e+02 3.542820077472e-02 0.0 
3.542820077472e-02 -3.370297040724e+02 0.0 
0.0 0.0 -1.438646457247e+02 
-1.103660082785e+02 -3.785081696969e-02 0.0 
-3.785081696969e-02 -2.589573259258e+02 0.0 
0.0 0.0 -1.103970002613e+02 
-1.066331136345e+02 -4.825753880577e-03 0.0 
-4.825753880577e-03 -2.500275829910e+02 0.0 
0.0 0.0 -1.065982089877e+02 
-3.152210466870e+01 7.094402556209e-03 0.0 
7.094402556209e-03 -7.492917164847e+01 0.0 
0.0 0.0 -3.153538289515e+01 
-2.794076064995e+01 -2.365552164532e-02 0.0 
-2.365552164532e-02 -6.666966158987e+01 0.0 
0.0 0.0 -2.798312667194e+01 
-9.565059510436e+01 -2.445256839370e-03 0.0 
-2.445256839370e-03 -2.244922725464e+02 0.0 
0.0 0.0 -9.564286029522e+01 
-1.382486859526e+02 -1.901700882932e-02 0.0 
-1.901700882932e-02 -3.239556956690e+02 0.0 
0.0 0.0 -1.382613144865e+02 
-1.411157012099e+02 -1.965342142802e-04 0.0 
-1.965342142802e-04 -3.306126727078e+02 0.0 
0.0 0.0 -1.411185121753e+02 
-1.448073369726e+02 1.062575109628e-02 0.0 
1.062575109628e-02 -3.392460251260e+02 0.0 
0.0 0.0 -1.448160086296e+02 
-1.402822934719e+02 1.261871098976e-02 0.0 
1.261871098976e-02 -3.286451563944e+02 0.0 
0.0 0.0 -1.402782349599e+02 
-1.404281312255e+02 -5.288351249963e-03 0.0 
-5.288351249963e-03 -3.288877939128e+02 0.0 
0.0 0.0 -1.403947775415e+02 
-6.838262856846e+01 -4.976398173366e-03 0.0 
-4.976398173366e-03 -1.609072771092e+02 0.0 
0.0 0.0 -6.838697170329e+01 
-1.044197938935e+02 8.847373544597e-03 0.0 
8.847373544597e-03 -2.449853172761e+02 0.0 
0.0 0.0 -1.044215333509e+02 
-2.664717288088e+01 5.115343722712e-02 0.0 
5.115343722712e-02 -6.353589149922e+01 0.0 
0.0 0.0 -2.665491931403e+01 
-1.081141613427e+02 -2.822596520707e-03 0.0 
-2.822596520707e-03 -2.536149688275e+02 0.0 
0.0 0.0 -1.081187390510e+02 
-2.331048105849e+01 2.663796260602e-02 0.0 
2.663796260602e-02 -5.567075383959e+01 0.0 
0.0 0.0 -2.329437046942e+01 
-1.234596323278e+02 6.187032723535e-03 0.0 
6.187032723535e-03 -2.895081527364e+02 0.0 
0.0 0.0 -1.234903355193e+02 
-1.377009590675e+02 -2.703066856667e-03 0.0 
-2.703066856667e-03 -3.225870714723e+02 0.0 
0.0 0.0 -1.376864091619e+02 
-1.423153665447e+02 -8.269158911453e-04 0.0 
-8.269158911453e-04 -3.333417889937e+02 0.0 
0.0 0.0 -1.422971466615e+02 
-1.439598417021e+02 -8.017486116544e-03 0.0 
-8.017486116544e-03 -3.370957666641e+02 0.0 
0.0 0.0 -1.439166825099e+02 
-9.027961971353e+01 -4.752814607410e-02 0.0 
-4.752814607410e-02 -2.120736601307e+02 0.0 
0.0 0.0 -9.030598395328e+01 
-1.116243732248e+02 -1.146668866808e-02 0.0 
-1.146668866808e-02 -2.618222219832e+02 0.0 
0.0 0.0 -1.116339785624e+02 
-1.071514439871e+02 -7.921846053043e-03 0.0 
-7.921846053043e-03 -2.513977780931e+02 0.0 
0.0 0.0 -1.071647666241e+02 
-8.494390752596e+01 -1.626994945251e-02 0.0 
-1.626994945251e-02 -1.996036017370e+02 0.0 
0.0 0.0 -8.496425277889e+01 
-8.063544446751e+01 -1.686695456655e-02 0.0 
-1.686695456655e-02 -1.895583004402e+02 0.0 
0.0 0.0 -8.065812347230e+01 
-8.397557503281e+01 -1.442560958303e-02 0.0 
-1.442560958303e-02 -1.973555616964e+02 0.0 
0.0 0.0 -8.399934101875e+01 
-7.626027360415e+01 -1.620650371001e-02 0.0 
-1.620650371001e-02 -1.793681809026e+02 0.0 
0.0 0.0 -7.628853635202e+01 
-6.069076865764e+01 -1.596774657507e-02 0.0 
-1.596774657507e-02 -1.429118218669e+02 0.0 
0.0 0.0 -6.068077715736e+01 
-5.599565096867e+01 -6.815118255258e-03 0.0 
-6.815118255258e-03 -1.319468793679e+02 0.0 
0.0 0.0 -5.598275910097e+01 
-1.464787811832e+02 -7.660851830453e-03 0.0 
-7.660851830453e-03 -3.432387881143e+02 0.0 
0.0 0.0 -1.465152707892e+02 
-1.448071360898e+02 -8.747907186924e-02 0.0 
-8.747907186924e-02 -3.392414890241e+02 0.0 
0.0 0.0 -1.448145875342e+02 
-1.465656715757e+02 2.208073409761e-02 0.0 
2.208073409761e-02 -3.434404758717e+02 0.0 
0.0 0.0 -1.466018442342e+02 
-1.435733222032e+02 2.258335610363e-03 0.0 
2.258335610363e-03 -3.360391417397e+02 0.0 
0.0 0.0 -1.434837391829e+02 
-1.477456683075e+02 1.105157050184e-02 0.0 
1.105157050184e-02 -3.456305118882e+02 0.0 
0.0 0.0 -1.476128540587e+02 
-1.430395592350e+02 3.360128182115e-03 0.0 
3.360128182115e-03 -3.348891306059e+02 0.0 
0.0 0.0 -1.429786069523e+02 
-4.935486184263e+01 2.503542600859e-02 0.0 
2.503542600859e-02 -1.165917671999e+02 0.0 
0.0 0.0 -4.938398871275e+01 
-6.724969004953e+01 -9.693549120513e-03 0.0 
-9.693549120513e-03 -1.583401763072e+02 0.0 
0.0 0.0 -6.727695990703e+01 
-1.468032521390e+02 3.983069742012e-02 0.0 
3.983069742012e-02 -3.436194930019e+02 0.0 
0.0 0.0 -1.467268235423e+02 
-8.924469681551e+01 -1.417064609402e-02 0.0 
-1.417064609402e-02 -2.096328375400e+02 0.0 
0.0 0.0 -8.926326030665e+01 
-1.464296490760e+02 1.539354147691e-02 0.0 
1.539354147691e-02 -3.431494343089e+02 0.0 
0.0 0.0 -1.464737250155e+02 
-1.418886536350e+02 -1.588865010320e-02 0.0 
-1.588865010320e-02 -3.324566484458e+02 0.0 
0.0 0.0 -1.419035906243e+02 
-1.859596384662e+01 6.951640380546e-02 0.0 
6.951640380546e-02 -4.435840582036e+01 0.0 
0.0 0.0 -1.848631090010e+01 
-2.175044478488e+01 1.136066191407e-01 0.0 
1.136066191407e-01 -5.208322668878e+01 0.0 
0.0 0.0 -2.175010144210e+01 
-1.455830885069e+02 -7.628077281411e-03 0.0 
-7.628077281411e-03 -3.409047114436e+02 0.0 
0.0 0.0 -1.455463399852e+02 
-4.411281999328e+01 -2.821640079446e-03 0.0 
-2.821640079446e-03 -1.043323195195e+02 0.0 
0.0 0.0 -4.413354185382e+01 
-4.843701802350e+01 -3.263404938628e-02 0.0 
-3.263404938628e-02 -1.145129975658e+02 0.0 
0.0 0.0 -4.848500467679e+01 
-3.965050111018e+01 -3.333326638386e-03 0.0 
-3.333326638386e-03 -9.388055263731e+01 0.0 
0.0 0.0 -3.965931612425e+01 
-1.547350135296e+02 -1.912875165297e-02 0.0 
-1.912875165297e-02 -3.623823093804e+02 0.0 
0.0 0.0 -1.547351968730e+02 
-9.034330041908e+01 1.138957805743e-02 0.0 
1.138957805743e-02 -2.121548547621e+02 0.0 
0.0 0.0 -9.034944655434e+01 
-1.461628083770e+02 -9.370051117736e-03 0.0 
-9.370051117736e-03 -3.421372178511e+02 0.0 
0.0 0.0 -1.460900078684e+02 
-8.287052080721e+01 -3.471631660704e-04 0.0 
-3.471631660704e-04 -1.947771663894e+02 0.0 
0.0 0.0 -8.289430615899e+01 
-1.496417499479e+02 -1.534009753883e-02 0.0 
-1.534009753883e-02 -3.502574166883e+02 0.0 
0.0 0.0 -1.495697499909e+02 
-1.152468575343e+02 -9.425758590232e-03 0.0 
-9.425758590232e-03 -2.702778010173e+02 0.0 
0.0 0.0 -1.152573975655e+02 
-7.621419255422e+01 -3.162647414157e-02 0.0 
-3.162647414157e-02 -1.791731209937e+02 0.0 
0.0 0.0 -7.621619406437e+01 
-1.320487404079e+02 3.338773623562e-02 0.0 
3.338773623562e-02 -3.094603195817e+02 0.0 
0.0 0.0 -1.320527179969e+02 
-1.411460640855e+02 6.683421060334e-02 0.0 
6.683421060334e-02 -3.304747668680e+02 0.0 
0.0 0.0 -1.410862492860e+02 
-1.501956718174e+02 -5.184082484201e-02 0.0 
-5.184082484201e-02 -3.519191714438e+02 0.0 
0.0 0.0 -1.502344529784e+02 
-1.051563478151e+02 -3.973367605822e-02 0.0 
-3.973367605822e-02 -2.464587122974e+02 0.0 
0.0 0.0 -1.050845180337e+02 
-1.009893030914e+02 7.076067054898e-02 0.0 
7.076067054898e-02 -2.369437936881e+02 0.0 
0.0 0.0 -1.009799290339e+02 
-1.086496422388e+02 -1.407208012795e-02 0.0 
-1.407208012795e-02 -2.548179550807e+02 0.0 
0.0 0.0 -1.086402791958e+02 
-3.249607970613e+01 8.616782102638e-04 0.0 
8.616782102638e-04 -7.711704760699e+01 0.0 
0.0 0.0 -3.248393819394e+01 
-2.355989554763e+01 3.248068416005e-02 0.0 
3.248068416005e-02 -5.637362039599e+01 0.0 
0.0 0.0 -2.358005478309e+01 
-1.400660960692e+02 1.503771659499e-02 0.0 
1.503771659499e-02 -3.282077609337e+02 0.0 
0.0 0.0 -1.400821571009e+02 
-5.916254844856e+01 1.416150689650e-02 0.0 
1.416150689650e-02 -1.393996515136e+02 0.0 
0.0 0.0 -5.916865998864e+01 
-6.352584911652e+01 -5.953454766748e-02 0.0 
-5.953454766748e-02 -1.499058009869e+02 0.0 
0.0 0.0 -6.362949503103e+01 
-3.804418486774e+01 6.471633983655e-03 0.0 
6.471633983655e-03 -9.012140016886e+01 0.0 
0.0 0.0 -3.804967551098e+01 
-4.634304128386e+01 -5.755900414701e-03 0.0 
-5.755900414701e-03 -1.094299024111e+02 0.0 
0.0 0.0 -4.633188310848e+01 
-9.356464737491e+01 8.786360506063e-03 0.0 
8.786360506063e-03 -2.195861809367e+02 0.0 
0.0 0.0 -9.354524849347e+01 
-8.993748532973e+01 5.255510256989e-03 0.0 
5.255510256989e-03 -2.111542033711e+02 0.0 
0.0 0.0 -8.992750661024e+01 
-1.270584010015e+02 1.477696601731e-02 0.0 
1.477696601731e-02 -2.978667002620e+02 0.0 
0.0 0.0 -1.270775303790e+02 
-1.315171945387e+02 -1.897431627452e-03 0.0 
-1.897431627452e-03 -3.083006407680e+02 0.0 
0.0 0.0 -1.315453505920e+02 
-1.180941187361e+02 2.012263958912e-02 0.0 
2.012263958912e-02 -2.768994178293e+02 0.0 
0.0 0.0 -1.180980609696e+02 
-1.151220602178e+02 -4.119773216483e-03 0.0 
-4.119773216483e-03 -2.699750622563e+02 0.0 
0.0 0.0 -1.151291367422e+02 
-1.068543844576e+02 -2.904659076116e-03 0.0 
-2.904659076116e-03 -2.506829189642e+02 0.0 
0.0 0.0 -1.068611910265e+02 
-1.033097872318e+02 2.602429173054e-03 0.0 
2.602429173054e-03 -2.423960008868e+02 0.0 
0.0 0.0 -1.033117364356e+02 
-1.472869562379e+02 3.986917881787e-02 0.0 
3.986917881787e-02 -3.451503048632e+02 0.0 
0.0 0.0 -1.473311783303e+02 
-1.528780333693e+02 6.269233246560e-03 0.0 
6.269233246560e-03 -3.581599520713e+02 0.0 
0.0 0.0 -1.529113956322e+02 
-6.530311729868e+01 -1.299174567934e-02 0.0 
-1.299174567934e-02 -1.537006788027e+02 0.0 
0.0 0.0 -6.530113883042e+01 
-6.180919876794e+01 -1.949834253323e-02 0.0 
-1.949834253323e-02 -1.455555867849e+02 0.0 
0.0 0.0 -6.180943566587e+01 
-6.407034443725e+01 -1.265289954363e-02 0.0 
-1.265289954363e-02 -1.507934415097e+02 0.0 
0.0 0.0 -6.405913578408e+01 
-1.504639905626e+02 2.441319520691e-02 0.0 
2.441319520691e-02 -3.521873449926e+02 0.0 
0.0 0.0 -1.503954006666e+02 
-1.505870167326e+02 -6.852429229742e-02 0.0 
-6.852429229742e-02 -3.526099674383e+02 0.0 
0.0 0.0 -1.505590952513e+02 
-1.467804629813e+02 5.732254666387e-02 0.0 
5.732254666387e-02 -3.440006943175e+02 0.0 
0.0 0.0 -1.468343471896e+02 
-1.983651892345e+01 5.032990456216e-02 0.0 
5.032990456216e-02 -4.759248314416e+01 0.0 
0.0 0.0 -1.982870062028e+01 
-2.425933697312e+01 2.906744508859e-02 0.0 
2.906744508859e-02 -5.824493605075e+01 0.0 
0.0 0.0 -2.435128190716e+01 
-3.070692004171e+01 -2.315484803592e-02 0.0 
-2.315484803592e-02 -7.302983815649e+01 0.0 
0.0 0.0 -3.072102745946e+01 
-2.638987009369e+01 5.750836694929e-02 0.0 
5.750836694929e-02 -6.268539791240e+01 0.0 
0.0 0.0 -2.632258040183e+01 
-1.482682082224e+02 -1.462401622673e-03 0.0 
-1.462401622673e-03 -3.473305125342e+02 0.0 
0.0 0.0 -1.482796162270e+02 
-1.439864160814e+02 -4.592439832907e-04 0.0 
-4.592439832907e-04 -3.373094231070e+02 0.0 
0.0 0.0 -1.439887517565e+02 
-1.535558805711e+02 -7.222989169758e-05 0.0 
-7.222989169758e-05 -3.595787639633e+02 0.0 
0.0 0.0 -1.535403933603e+02 
-4.411658068350e+01 -5.065061904379e-02 0.0 
-5.065061904379e-02 -1.042322361950e+02 0.0 
0.0 0.0 -4.410464506354e+01 
-1.278845372456e+02 -2.453901641582e-02 0.0 
-2.453901641582e-02 -2.997367856613e+02 0.0 
0.0 0.0 -1.278863968721e+02 
-1.484138762428e+02 -5.025967774079e-02 0.0 
-5.025967774079e-02 -3.475631217280e+02 0.0 
0.0 0.0 -1.483930993913e+02 
-1.447488024116e+02 -7.216124801888e-02 0.0 
-7.216124801888e-02 -3.390965053638e+02 0.0 
0.0 0.0 -1.447535923326e+02 
-1.532001577209e+02 -4.077620337014e-02 0.0 
-4.077620337014e-02 -3.587419755428e+02 0.0 
0.0 0.0 -1.531826399791e+02 
-1.401800092294e+02 7.624587174495e-03 0.0 
7.624587174495e-03 -3.282900459697e+02 0.0 
0.0 0.0 -1.401410165597e+02 
-1.480065268437e+02 2.763518424468e-02 0.0 
2.763518424468e-02 -3.467818352397e+02 0.0 
0.0 0.0 -1.480365086250e+02 
-1.485412965104e+02 -2.545303032169e-02 0.0 
-2.545303032169e-02 -3.478643552233e+02 0.0 
0.0 0.0 -1.485216955201e+02 
-1.509615452215e+01 6.611469646917e-02 0.0 
6.611469646917e-02 -3.626056133679e+01 0.0 
0.0 0.0 -1.500701475768e+01 
-1.473712271480e+02 6.704757422653e-02 0.0 
6.704757422653e-02 -3.451388598874e+02 0.0 
0.0 0.0 -1.473530261106e+02 
-1.016133668889e+02 5.086182129482e-03 0.0 
5.086182129482e-03 -2.384358435018e+02 0.0 
0.0 0.0 -1.016147631172e+02 
-1.189054576697e+01 1.396024343140e-01 0.0 
1.396024343140e-01 -2.826173459467e+01 0.0 
0.0 0.0 -1.178607489944e+01 
-9.794875751931e+01 4.419229786753e-04 0.0 
4.419229786753e-04 -2.296478343242e+02 0.0 
0.0 0.0 -9.787897755305e+01 
-1.027077502949e+02 5.702411885683e-03 0.0 
5.702411885683e-03 -2.409297097947e+02 0.0 
0.0 0.0 -1.026912380269e+02 
-9.360784545750e+01 1.664869487115e-02 0.0 
1.664869487115e-02 -2.196179267724e+02 0.0 
0.0 0.0 -9.356773166896e+01 
-3.596927002437e+01 -3.608136561332e-02 0.0 
-3.608136561332e-02 -8.513583249989e+01 0.0 
0.0 0.0 -3.593153075728e+01 
-9.911753935538e+01 4.135784646443e-02 0.0 
4.135784646443e-02 -2.323981280263e+02 0.0 
0.0 0.0 -9.905470021451e+01 
-1.040912119789e+02 6.075330069882e-02 0.0 
6.075330069882e-02 -2.441069487962e+02 0.0 
0.0 0.0 -1.040594482325e+02 
-1.496742759986e+01 -2.203709554126e-02 0.0 
-2.203709554126e-02 -3.599541101801e+01 0.0 
0.0 0.0 -1.499946484414e+01 
-1.549445638209e+02 -1.470779950348e-02 0.0 
-1.470779950348e-02 -3.626118364419e+02 0.0 
0.0 0.0 -1.548669200788e+02 
-1.552833214323e+01 7.021923124899e-02 0.0 
7.021923124899e-02 -3.748897715236e+01 0.0 
0.0 0.0 -1.550376193153e+01 
-1.891002513512e+01 1.108235907812e-01 0.0 
1.108235907812e-01 -4.527120264154e+01 0.0 
0.0 0.0 -1.885436833300e+01 
-1.503309395768e+02 -6.033185521433e-02 0.0 
-6.033185521433e-02 -3.518458377300e+02 0.0 
0.0 0.0 -1.502530331920e+02 
-1.455006862100e+02 4.066690538048e-03 0.0 
4.066690538048e-03 -3.407743865940e+02 0.0 
0.0 0.0 -1.454825218412e+02 
-1.535157504729e+02 2.547930816492e-02 0.0 
2.547930816492e-02 -3.595600056631e+02 0.0 
0.0 0.0 -1.535227268408e+02 
-1.486932431296e+02 -5.648024165053e-02 0.0 
-5.648024165053e-02 -3.484240241789e+02 0.0 
0.0 0.0 -1.487351801925e+02 
-1.407413814854e+02 1.873498437786e-02 0.0 
1.873498437786e-02 -3.297036708767e+02 0.0 
0.0 0.0 -1.407335157086e+02 
-1.445031725919e+02 -2.703493436559e-02 0.0 
-2.703493436559e-02 -3.384476856998e+02 0.0 
0.0 0.0 -1.444852574875e+02 
-9.680698371881e+01 5.749290973866e-02 0.0 
5.749290973866e-02 -2.273169773503e+02 0.0 
0.0 0.0 -9.683718832074e+01 
-1.537230867460e+02 -7.204661771094e-02 0.0 
-7.204661771094e-02 -3.598751104617e+02 0.0 
0.0 0.0 -1.536794591623e+02 
-1.483792810354e+02 -1.903426685746e-02 0.0 
-1.903426685746e-02 -3.474191404901e+02 0.0 
0.0 0.0 -1.483395264577e+02 
-1.575180414238e+02 -4.077635310814e-02 0.0 
-4.077635310814e-02 -3.689485121361e+02 0.0 
0.0 0.0 -1.575399660679e+02 
-7.308736118656e+01 -1.815671327749e-02 0.0 
-1.815671327749e-02 -1.719516845380e+02 0.0 
0.0 0.0 -7.311171371736e+01 
-5.641469564140e+01 -1.171681621684e-02 0.0 
-1.171681621684e-02 -1.331446252793e+02 0.0 
0.0 0.0 -5.646779627620e+01 
-5.300283349590e+01 -1.043820117890e-02 0.0 
-1.043820117890e-02 -1.251772819516e+02 0.0 
0.0 0.0 -5.305403463424e+01 
-4.489286656845e+01 -1.631608774952e-01 0.0 
-1.631608774952e-01 -1.062491460809e+02 0.0 
0.0 0.0 -4.494260379480e+01 
-1.525950806716e+02 -2.112357312694e-02 0.0 
-2.112357312694e-02 -3.572619106627e+02 0.0 
0.0 0.0 -1.525570974003e+02 
-1.475556305517e+02 -8.709359917731e-02 0.0 
-8.709359917731e-02 -3.455475101896e+02 0.0 
0.0 0.0 -1.475309422224e+02 
-1.332479725349e+02 -4.728673666647e-03 0.0 
-4.728673666647e-03 -3.122491842453e+02 0.0 
0.0 0.0 -1.332491470341e+02 
-1.247810731720e+02 -1.847864256976e-02 0.0 
-1.847864256976e-02 -2.925442565284e+02 0.0 
0.0 0.0 -1.247975989101e+02 
-9.825627160898e+01 -2.986195576984e-02 0.0 
-2.986195576984e-02 -2.307515485211e+02 0.0 
0.0 0.0 -9.830234603901e+01 
-9.784892027189e+01 3.223625885002e-02 0.0 
3.223625885002e-02 -2.297262667761e+02 0.0 
0.0 0.0 -9.787255611441e+01 
-1.054446665408e+02 -1.283876000631e-01 0.0 
-1.283876000631e-01 -2.474876721470e+02 0.0 
0.0 0.0 -1.054797016063e+02 
-1.044297502109e+02 2.782926472413e-02 0.0 
2.782926472413e-02 -2.451130241183e+02 0.0 
0.0 0.0 -1.044628322988e+02 
-1.120486455125e+02 -1.223444785616e-01 0.0 
-1.223444785616e-01 -2.629532474328e+02 0.0 
0.0 0.0 -1.121005678836e+02 
-1.109879157435e+02 5.631410877120e-02 0.0 
5.631410877120e-02 -2.602421276507e+02 0.0 
0.0 0.0 -1.109690130183e+02 
-1.187855095865e+02 1.177067281765e-01 0.0 
1.177067281765e-01 -2.784283302729e+02 0.0 
0.0 0.0 -1.187641519578e+02 
-1.531324206004e+02 -1.042846636742e-01 0.0 
-1.042846636742e-01 -3.587015536801e+02 0.0 
0.0 0.0 -1.531501922841e+02 
-3.618375587096e+01 -4.543042525338e-02 0.0 
-4.543042525338e-02 -8.577030836201e+01 0.0 
0.0 0.0 -3.618621926989e+01 
-8.160570057236e+01 -1.772629281025e-02 0.0 
-1.772629281025e-02 -1.917791758177e+02 0.0 
0.0 0.0 -8.161546291703e+01 
-1.511449092517e+02 4.326640040509e-02 0.0 
4.326640040509e-02 -3.537204942739e+02 0.0 
0.0 0.0 -1.510596210577e+02 
-1.458718578453e+02 1.221507147702e-02 0.0 
1.221507147702e-02 -3.417722459031e+02 0.0 
0.0 0.0 -1.458932311245e+02 
-7.170727904426e+01 -8.885164645298e-03 0.0 
-8.885164645298e-03 -1.687258597831e+02 0.0 
0.0 0.0 -7.172994164820e+01 
-6.414121592145e+01 -4.552847223604e-02 0.0 
-4.552847223604e-02 -1.511488681685e+02 0.0 
0.0 0.0 -6.418702522698e+01 
-1.523741768634e+02 -5.758791957445e-02 0.0 
-5.758791957445e-02 -3.570278030302e+02 0.0 
0.0 0.0 -1.524205939681e+02 
-6.668950609666e+01 -9.454336845482e-03 0.0 
-9.454336845482e-03 -1.569915679244e+02 0.0 
0.0 0.0 -6.670432220632e+01 
-1.595697835436e+02 1.149294343857e-02 0.0 
1.149294343857e-02 -3.736565911356e+02 0.0 
0.0 0.0 -1.595679124037e+02 
-6.856874161188e+00 6.363196946993e-02 0.0 
6.363196946993e-02 -1.616949138833e+01 0.0 
0.0 0.0 -6.869615243957e+00 
-1.431105602146e+01 -1.539490261898e-02 0.0 
-1.539490261898e-02 -3.427261462651e+01 0.0 
0.0 0.0 -1.428739584923e+01 
-7.133083187176e+01 -1.233599740307e-02 0.0 
-1.233599740307e-02 -1.678019364077e+02 0.0 
0.0 0.0 -7.133983048383e+01 
-7.953709186774e+01 -4.922998003189e-03 0.0 
-4.922998003189e-03 -1.869825777928e+02 0.0 
0.0 0.0 -7.955590089815e+01 
-6.112443352783e+01 -3.554308303207e-02 0.0 
-3.554308303207e-02 -1.438879637911e+02 0.0 
0.0 0.0 -6.110371919567e+01 
-5.822093195528e+01 -1.177683360167e-02 0.0 
-1.177683360167e-02 -1.370254965520e+02 0.0 
0.0 0.0 -5.817392855219e+01 
-1.235306340150e+02 -4.366820628803e-03 0.0 
-4.366820628803e-03 -2.895910140705e+02 0.0 
0.0 0.0 -1.235364944257e+02 
-2.119095021823e+01 -2.937117800683e-03 0.0 
-2.937117800683e-03 -5.069448546716e+01 0.0 
0.0 0.0 -2.116563070562e+01 
-3.521529328885e+01 -1.292918754172e-02 0.0 
-1.292918754172e-02 -8.354434160245e+01 0.0 
0.0 0.0 -3.522789046739e+01 
-1.197726034146e+02 -1.152548080993e-01 0.0 
-1.152548080993e-01 -2.806344146232e+02 0.0 
0.0 0.0 -1.197221054113e+02 
-2.747753890226e+01 -3.932455149525e-02 0.0 
-3.932455149525e-02 -6.537725933006e+01 0.0 
0.0 0.0 -2.745643946969e+01 
-1.292413584243e+02 -1.459432977419e-02 0.0 
-1.459432977419e-02 -3.028455812763e+02 0.0 
0.0 0.0 -1.292260819102e+02 
-7.037542567615e+01 9.774944710251e-03 0.0 
9.774944710251e-03 -1.655813288061e+02 0.0 
0.0 0.0 -7.038702634467e+01 
-8.626060406907e+01 7.608064548849e-04 0.0 
7.608064548849e-04 -2.026802076609e+02 0.0 
0.0 0.0 -8.628224351898e+01 
-4.300634513415e+01 -3.498117768386e-02 0.0 
-3.498117768386e-02 -1.016746228738e+02 0.0 
0.0 0.0 -4.300429040238e+01 
-6.011531616797e+01 3.600038617811e-02 0.0 
3.600038617811e-02 -1.416671921956e+02 0.0 
0.0 0.0 -6.013475250908e+01 
-1.049562250031e+02 1.164680964569e-02 0.0 
1.164680964569e-02 -2.463810486880e+02 0.0 
0.0 0.0 -1.050011821073e+02 
-9.792539486135e+01 2.722242620326e-02 0.0 
2.722242620326e-02 -2.300904013310e+02 0.0 
0.0 0.0 -9.800473885772e+01 
-9.360955436937e+01 -1.826181238210e-02 0.0 
-1.826181238210e-02 -2.199409610302e+02 0.0 
0.0 0.0 -9.366515461987e+01 
-7.398655565278e+01 7.510933125103e-03 0.0 
7.510933125103e-03 -1.740053288826e+02 0.0 
0.0 0.0 -7.399756536061e+01 
-6.273343403176e+01 -4.177989176592e-02 0.0 
-4.177989176592e-02 -1.477691524549e+02 0.0 
0.0 0.0 -6.275077594601e+01 
-5.420935065976e+01 -1.431958386776e-02 0.0 
-1.431958386776e-02 -1.279088413492e+02 0.0 
0.0 0.0 -5.423545760269e+01 
-9.962084082585e+01 -3.180725028247e-03 0.0 
-3.180725028247e-03 -2.338646245091e+02 0.0 
0.0 0.0 -9.964563960047e+01 
-1.357469110616e+02 -2.000703931647e-02 0.0 
-2.000703931647e-02 -3.180818170845e+02 0.0 
0.0 0.0 -1.357486184438e+02 
-1.393541353080e+02 -3.459270474507e-02 0.0 
-3.459270474507e-02 -3.265648851397e+02 0.0 
0.0 0.0 -1.393757061343e+02 
-1.473180398631e+02 -1.106567468129e-04 0.0 
-1.106567468129e-04 -3.450895829260e+02 0.0 
0.0 0.0 -1.473222868367e+02 
-1.429474065175e+02 -1.711448593559e-02 0.0 
-1.711448593559e-02 -3.349703102849e+02 0.0 
0.0 0.0 -1.429753150407e+02 
-1.348420511967e+02 -1.028232352065e-02 0.0 
-1.028232352065e-02 -3.160080992641e+02 0.0 
0.0 0.0 -1.348550451382e+02 
-1.384706237428e+02 2.466192518977e-02 0.0 
2.466192518977e-02 -3.244125078000e+02 0.0 
0.0 0.0 -1.384649394629e+02 
-1.465568377748e+02 -4.300450670172e-02 0.0 
-4.300450670172e-02 -3.433696128952e+02 0.0 
0.0 0.0 -1.465779352010e+02 
-1.423648592854e+02 1.616501037285e-04 0.0 
1.616501037285e-04 -3.333543655742e+02 0.0 
0.0 0.0 -1.423157674579e+02 
-1.517922359851e+02 4.682061437243e-02 0.0 
4.682061437243e-02 -3.555485229951e+02 0.0 
0.0 0.0 -1.518022276941e+02 
-1.458322954582e+02 5.933905864158e-02 0.0 
5.933905864158e-02 -3.415829711487e+02 0.0 
0.0 0.0 -1.458245799821e+02 
-1.374411955582e+02 -1.171634324874e-02 0.0 
-1.171634324874e-02 -3.220040557738e+02 0.0 
0.0 0.0 -1.374335753996e+02 
-1.407219934429e+02 -6.112714411865e-03 0.0 
-6.112714411865e-03 -3.298729501377e+02 0.0 
0.0 0.0 -1.407784830742e+02 
-1.484565559467e+02 2.467470945042e-02 0.0 
2.467470945042e-02 -3.478827850576e+02 0.0 
0.0 0.0 -1.485018023013e+02 
-1.325938313745e+02 8.268015947187e-03 0.0 
8.268015947187e-03 -3.107790844078e+02 0.0 
0.0 0.0 -1.326118747347e+02 
-1.556002785676e+02 1.706174897656e-02 0.0 
1.706174897656e-02 -3.641299100502e+02 0.0 
0.0 0.0 -1.555190565853e+02 
-7.954760446135e+01 -1.044204503904e-02 0.0 
-1.044204503904e-02 -1.869589835810e+02 0.0 
0.0 0.0 -7.955197641270e+01 
-1.956850382391e+01 -1.646305988781e-02 0.0 
-1.646305988781e-02 -4.669802728522e+01 0.0 
0.0 0.0 -1.947995933274e+01 
-1.842204396437e+01 -1.115110854591e-01 0.0 
-1.115110854591e-01 -4.426072113968e+01 0.0 
0.0 0.0 -1.840482953122e+01 
-9.074828838154e+01 -6.936772248498e-03 0.0 
-6.936772248498e-03 -2.131584781300e+02 0.0 
0.0 0.0 -9.077202995345e+01 
-1.600146811960e+02 -1.071587973383e-02 0.0 
-1.071587973383e-02 -3.748369701950e+02 0.0 
0.0 0.0 -1.600554954173e+02 
-1.603291031970e+02 -6.924066403892e-04 0.0 
-6.924066403892e-04 -3.755012173858e+02 0.0 
0.0 0.0 -1.603490961748e+02 
-5.781207071106e+01 -6.344583724436e-03 0.0 
-6.344583724436e-03 -1.362509339853e+02 0.0 
0.0 0.0 -5.781890140891e+01 
-1.605073967571e+02 5.195555764659e-03 0.0 
5.195555764659e-03 -3.758174582315e+02 0.0 
0.0 0.0 -1.604974564966e+02 
-9.706199756447e+01 9.053136642073e-03 0.0 
9.053136642073e-03 -2.279630063953e+02 0.0 
0.0 0.0 -9.710750118794e+01 
-4.059901079107e+01 -1.051480551077e-02 0.0 
-1.051480551077e-02 -9.612427700054e+01 0.0 
0.0 0.0 -4.061698633748e+01 
-1.606035572549e+02 3.727109305739e-02 0.0 
3.727109305739e-02 -3.760293916825e+02 0.0 
0.0 0.0 -1.605898846812e+02 
-1.312075611686e+02 -2.956272198407e-02 0.0 
-2.956272198407e-02 -3.074666839885e+02 0.0 
0.0 0.0 -1.312022735471e+02 
-1.265913723010e+02 4.539093237810e-03 0.0 
4.539093237810e-03 -2.966937011870e+02 0.0 
0.0 0.0 -1.265855220464e+02 
-1.229889511181e+02 -1.179732131404e-02 0.0 
-1.179732131404e-02 -2.882425552316e+02 0.0 
0.0 0.0 -1.229694519049e+02 
-1.608987460409e+02 5.534660443839e-02 0.0 
5.534660443839e-02 -3.766101573718e+02 0.0 
0.0 0.0 -1.608526710238e+02 
-1.124651194682e+02 -2.536575298223e-03 0.0 
-2.536575298223e-03 -2.638263191671e+02 0.0 
0.0 0.0 -1.124874315906e+02 
-1.608710719602e+02 3.294160985294e-02 0.0 
3.294160985294e-02 -3.767054555624e+02 0.0 
0.0 0.0 -1.608729582568e+02 
-1.100780251314e+02 1.740742640551e-02 0.0 
1.740742640551e-02 -2.582209522460e+02 0.0 
0.0 0.0 -1.100896932132e+02 
-1.063924638282e+02 4.254167051317e-03 0.0 
4.254167051317e-03 -2.496238793417e+02 0.0 
0.0 0.0 -1.064049029510e+02 
-9.824234155788e+01 1.642697627252e-05 0.0 
1.642697627252e-05 -2.306091556515e+02 0.0 
0.0 0.0 -9.825544916282e+01 
-1.338334619998e+02 2.178937283428e-02 0.0 
2.178937283428e-02 -3.135602256191e+02 0.0 
0.0 0.0 -1.338181062857e+02 
-1.603764115930e+02 -2.192029015823e-02 0.0 
-2.192029015823e-02 -3.756014797336e+02 0.0 
0.0 0.0 -1.603933673980e+02 
-1.535836646914e+02 9.359981238161e-03 0.0 
9.359981238161e-03 -3.597916161964e+02 0.0 
0.0 0.0 -1.536125842663e+02 
-1.536290398827e+02 5.054808509727e-02 0.0 
5.054808509727e-02 -3.597620056774e+02 0.0 
0.0 0.0 -1.536173136680e+02 
-1.460500065590e+02 -3.626486770476e-03 0.0 
-3.626486770476e-03 -3.424238317922e+02 0.0 
0.0 0.0 -1.461421515054e+02 
-1.605364172609e+02 -1.997994017303e-04 0.0 
-1.997994017303e-04 -3.758395082136e+02 0.0 
0.0 0.0 -1.605127776423e+02 
-1.608821922358e+02 1.042364638491e-02 0.0 
1.042364638491e-02 -3.766809941844e+02 0.0 
0.0 0.0 -1.608689559261e+02 
-1.610654374760e+02 1.478327507457e-02 0.0 
1.478327507457e-02 -3.771741579720e+02 0.0 
0.0 0.0 -1.610718786344e+02 
-5.365862181318e+01 -2.927079791575e-02 0.0 
-2.927079791575e-02 -1.265138191378e+02 0.0 
0.0 0.0 -5.365173228529e+01 
-5.830973635051e+01 -1.001669228909e-02 0.0 
-1.001669228909e-02 -1.374007025199e+02 0.0 
0.0 0.0 -5.831313166113e+01 
-6.640438364090e+01 -4.315266939737e-03 0.0 
-4.315266939737e-03 -1.562826240685e+02 0.0 
0.0 0.0 -6.640610231282e+01 
-6.290360715368e+01 -1.799784586133e-03 0.0 
-1.799784586133e-03 -1.480998207683e+02 0.0 
0.0 0.0 -6.290102837660e+01 
-5.474446270068e+01 -1.735763418308e-04 0.0 
-1.735763418308e-04 -1.290670366527e+02 0.0 
0.0 0.0 -5.474344980600e+01 
-5.934482723359e+01 -1.196125032910e-02 0.0 
-1.196125032910e-02 -1.397862942528e+02 0.0 
0.0 0.0 -5.933933644592e+01 
-6.742784931234e+01 3.306394482471e-03 0.0 
3.306394482471e-03 -1.586621462706e+02 0.0 
0.0 0.0 -6.742699867487e+01 
-5.574760768690e+01 -2.071446290597e-02 0.0 
-2.071446290597e-02 -1.314068071220e+02 0.0 
0.0 0.0 -5.574632444268e+01 
-1.396885070944e+02 1.830192312117e-03 0.0 
1.830192312117e-03 -3.272279152839e+02 0.0 
0.0 0.0 -1.396749267135e+02 
-1.607906146330e+02 -3.635036854404e-02 0.0 
-3.635036854404e-02 -3.764972919803e+02 0.0 
0.0 0.0 -1.607863719840e+02 
-1.096959869330e+02 -1.227215490273e-03 0.0 
-1.227215490273e-03 -2.572744818284e+02 0.0 
0.0 0.0 -1.096911406284e+02 
-1.059783422163e+02 -1.034669521217e-03 0.0 
-1.034669521217e-03 -2.486146989316e+02 0.0 
0.0 0.0 -1.059779123444e+02 
-9.773525387309e+01 -1.115496002828e-02 0.0 
-1.115496002828e-02 -2.293783594117e+02 0.0 
0.0 0.0 -9.773408398545e+01 
-8.162233718223e+01 8.514180809439e-03 0.0 
8.514180809439e-03 -1.917483182620e+02 0.0 
0.0 0.0 -8.161119663328e+01 
-8.631521521147e+01 3.795947050784e-03 0.0 
3.795947050784e-03 -2.026974456428e+02 0.0 
0.0 0.0 -8.630379825630e+01 
-9.461574732401e+01 5.282409364648e-03 0.0 
5.282409364648e-03 -2.220746839518e+02 0.0 
0.0 0.0 -9.460712938275e+01 
-7.690291791187e+01 1.664676098485e-02 0.0 
1.664676098485e-02 -1.807640268564e+02 0.0 
0.0 0.0 -7.690008343048e+01 
-1.206324420631e+02 3.120238168729e-03 0.0 
3.120238168729e-03 -2.828075252088e+02 0.0 
0.0 0.0 -1.206319901816e+02 
-1.607202333025e+02 3.214120389834e-02 0.0 
3.214120389834e-02 -3.763032585438e+02 0.0 
0.0 0.0 -1.607070475539e+02 
-1.079613000031e+02 2.325968358947e-03 0.0 
2.325968358947e-03 -2.532443537485e+02 0.0 
0.0 0.0 -1.079616961255e+02 
-8.268496430739e+01 -3.210140833550e-03 0.0 
-3.210140833550e-03 -1.942138823797e+02 0.0 
0.0 0.0 -8.266965400613e+01 
-9.081274428938e+01 1.833114240982e-02 0.0 
1.833114240982e-02 -2.132917120843e+02 0.0 
0.0 0.0 -9.083133691209e+01 
-9.815719187126e+01 -5.845717882924e-02 0.0 
-5.845717882924e-02 -2.302891346246e+02 0.0 
0.0 0.0 -9.813389794874e+01 
-9.824495910228e+01 7.727263238682e-02 0.0 
7.727263238682e-02 -2.305415774829e+02 0.0 
0.0 0.0 -9.823596097556e+01 
-1.062694174222e+02 7.446070441957e-02 0.0 
7.446070441957e-02 -2.489327324817e+02 0.0 
0.0 0.0 -1.061606449712e+02 
-9.895783451617e+01 1.126395109481e-01 0.0 
1.126395109481e-01 -2.320657109041e+02 0.0 
0.0 0.0 -9.890706362607e+01 
-9.717260902006e+01 1.473815387059e-02 0.0 
1.473815387059e-02 -2.280464063591e+02 0.0 
0.0 0.0 -9.716570461375e+01 
-1.007831426401e+02 1.260944622544e-02 0.0 
1.260944622544e-02 -2.365067079113e+02 0.0 
0.0 0.0 -1.007869551654e+02 
-9.620140422059e+01 -4.309237732711e-03 0.0 
-4.309237732711e-03 -2.258055078880e+02 0.0 
0.0 0.0 -9.620207363259e+01 
-1.044201384832e+02 1.221704367424e-02 0.0 
1.221704367424e-02 -2.449537409793e+02 0.0 
0.0 0.0 -1.044121638388e+02 
-9.969217332049e+01 4.500017955237e-02 0.0 
4.500017955237e-02 -2.338394666966e+02 0.0 
0.0 0.0 -9.965949200513e+01 
-9.211102777988e+01 4.920129555388e-02 0.0 
4.920129555388e-02 -2.160564588907e+02 0.0 
0.0 0.0 -9.205024600116e+01 
-1.079421090970e+02 3.524629046653e-02 0.0 
3.524629046653e-02 -2.530433998379e+02 0.0 
0.0 0.0 -1.078956526805e+02 
-1.025881987783e+02 -3.018974410728e-02 0.0 
-3.018974410728e-02 -2.406510155000e+02 0.0 
0.0 0.0 -1.025717642835e+02 
-9.080211533834e+01 5.172855949602e-02 0.0 
5.172855949602e-02 -2.130951383618e+02 0.0 
0.0 0.0 -9.076917611003e+01 
-7.238299453334e+00 2.384436394699e-02 0.0 
2.384436394699e-02 -1.722127805592e+01 0.0 
0.0 0.0 -7.327733058973e+00 
-1.410856391028e+01 -2.912084471771e-02 0.0 
-2.912084471771e-02 -3.400435085278e+01 0.0 
0.0 0.0 -1.416181725442e+01 
-1.398771580457e+01 3.239579022469e-02 0.0 
3.239579022469e-02 -3.350792323872e+01 0.0 
0.0 0.0 -1.397724117617e+01 
-2.068978316857e+01 2.639750475653e-02 0.0 
2.639750475653e-02 -4.957567372592e+01 0.0 
0.0 0.0 -2.067963706835e+01 
-2.113885455042e+01 -6.064680340323e-02 0.0 
-6.064680340323e-02 -5.080653976137e+01 0.0 
0.0 0.0 -2.118361829354e+01 
-2.864047903238e+01 2.920063314697e-03 0.0 
2.920063314697e-03 -6.799468143277e+01 0.0 
0.0 0.0 -2.859054813954e+01 
-2.760878537580e+01 1.159920849458e-01 0.0 
1.159920849458e-01 -6.558111876949e+01 0.0 
0.0 0.0 -2.755697124359e+01 
-1.408486606170e+01 7.939075542528e-02 0.0 
7.939075542528e-02 -3.404151413520e+01 0.0 
0.0 0.0 -1.417834040946e+01 
-7.215514734307e+00 9.652147623711e-03 0.0 
9.652147623711e-03 -1.697313836471e+01 0.0 
0.0 0.0 -7.247301832960e+00 
-1.392879252793e+01 -1.423724666619e-02 0.0 
-1.423724666619e-02 -3.346611655912e+01 0.0 
0.0 0.0 -1.395523307382e+01 
-7.162186016500e+00 8.676267518230e-04 0.0 
8.676267518230e-04 -1.680684760469e+01 0.0 
0.0 0.0 -7.185911411500e+00 
-1.374121237620e+01 -3.889885095702e-03 0.0 
-3.889885095702e-03 -3.296439161791e+01 0.0 
0.0 0.0 -1.374653064196e+01 
-2.167109926648e+01 -2.054733454991e-02 0.0 
-2.054733454991e-02 -5.185457153733e+01 0.0 
0.0 0.0 -2.165770124114e+01 
-3.291610597470e+01 8.881459227506e-03 0.0 
8.881459227506e-03 -7.822778312114e+01 0.0 
0.0 0.0 -3.294316672875e+01 
-1.593588016083e+02 -7.307396954911e-02 0.0 
-7.307396954911e-02 -3.733578257944e+02 0.0 
0.0 0.0 -1.594149882208e+02 
-7.918920976959e+01 -1.872178589884e-02 0.0 
-1.872178589884e-02 -1.861795871191e+02 0.0 
0.0 0.0 -7.921063906661e+01 
-7.508605326501e+01 -7.515391282618e-02 0.0 
-7.515391282618e-02 -1.767710933391e+02 0.0 
0.0 0.0 -7.515714398124e+01 
-6.719620454031e+01 -7.108858281151e-02 0.0 
-7.108858281151e-02 -1.580116576867e+02 0.0 
0.0 0.0 -6.716235866810e+01 
-7.144269686555e+01 2.080979624873e-02 0.0 
2.080979624873e-02 -1.681453643394e+02 0.0 
0.0 0.0 -7.147641836149e+01 
-8.242706201281e+01 -8.409368254965e-02 0.0 
-8.409368254965e-02 -1.939415232774e+02 0.0 
0.0 0.0 -8.251057558707e+01 
-6.274500396770e+01 -5.464639109750e-02 0.0 
-5.464639109750e-02 -1.476502768143e+02 0.0 
0.0 0.0 -6.271858423461e+01 
-5.976417111387e+01 -8.982089575995e-02 0.0 
-8.982089575995e-02 -1.406725585392e+02 0.0 
0.0 0.0 -5.973101889592e+01 
-7.134731278486e+00 2.476468054521e-02 0.0 
2.476468054521e-02 -1.710400081830e+01 0.0 
0.0 0.0 -7.259506958791e+00 
-1.386471594457e+01 3.221044625689e-02 0.0 
3.221044625689e-02 -3.360400714203e+01 0.0 
0.0 0.0 -1.394457719907e+01 
-1.327550046721e+01 -1.264593892334e-01 0.0 
-1.264593892334e-01 -3.197555648915e+01 0.0 
0.0 0.0 -1.320978387463e+01 
-2.080239970813e+01 -5.799764825992e-02 0.0 
-5.799764825992e-02 -5.022868043918e+01 0.0 
0.0 0.0 -2.090932404419e+01 
-2.082958299774e+01 1.541012612623e-02 0.0 
1.541012612623e-02 -4.986997220804e+01 0.0 
0.0 0.0 -2.080986656173e+01 
-1.409104534974e+01 -8.814080368671e-03 0.0 
-8.814080368671e-03 -3.388611874086e+01 0.0 
0.0 0.0 -1.412033077622e+01 
-1.406806660250e+01 -3.358163942608e-02 0.0 
-3.358163942608e-02 -3.389959658695e+01 0.0 
0.0 0.0 -1.412395304679e+01 
-7.140570919953e+00 6.245148801043e-03 0.0 
6.245148801043e-03 -1.699269801763e+01 0.0 
0.0 0.0 -7.234559285925e+00 
-1.399178282129e+01 3.642871744483e-02 0.0 
3.642871744483e-02 -3.377780276731e+01 0.0 
0.0 0.0 -1.409224055165e+01 
-2.118228507885e+01 -3.677746218705e-02 0.0 
-3.677746218705e-02 -5.068568362154e+01 0.0 
0.0 0.0 -2.116039061012e+01 
-6.981448299602e+00 3.205279867729e-03 0.0 
3.205279867729e-03 -1.643058878260e+01 0.0 
0.0 0.0 -7.035348144621e+00 
-1.298276879933e+02 1.142558585499e-01 0.0 
1.142558585499e-01 -3.042597964080e+02 0.0 
0.0 0.0 -1.298262453204e+02 
-1.343330377237e+02 9.049123244737e-02 0.0 
9.049123244737e-02 -3.148918583597e+02 0.0 
0.0 0.0 -1.343674688250e+02 
-1.602146877676e+02 1.416926036648e-02 0.0 
1.416926036648e-02 -3.752441054629e+02 0.0 
0.0 0.0 -1.602376379691e+02 
-9.174605152301e+01 1.011564522807e-01 0.0 
1.011564522807e-01 -2.152546358407e+02 0.0 
0.0 0.0 -9.170020620912e+01 
-7.271953142379e+00 -7.086962726501e-04 0.0 
-7.086962726501e-04 -1.705327725661e+01 0.0 
0.0 0.0 -7.281732763536e+00 
-1.591123498236e+02 3.453531669518e-03 0.0 
3.453531669518e-03 -3.727016625062e+02 0.0 
0.0 0.0 -1.591442036989e+02 
-1.605448097798e+02 4.709784763531e-02 0.0 
4.709784763531e-02 -3.758596479681e+02 0.0 
0.0 0.0 -1.605213373244e+02 
-1.607552417963e+02 -3.847591215056e-02 0.0 
-3.847591215056e-02 -3.762335389453e+02 0.0 
0.0 0.0 -1.606966342225e+02 
-1.463047692153e+02 -3.569535127809e-02 0.0 
-3.569535127809e-02 -3.426992843207e+02 0.0 
0.0 0.0 -1.463012160608e+02 
-1.505655676209e+02 -1.603353559936e-02 0.0 
-1.603353559936e-02 -3.524738015075e+02 0.0 
0.0 0.0 -1.505118107385e+02 
-1.593169355101e+02 -2.426614146311e-02 0.0 
-2.426614146311e-02 -3.732614181608e+02 0.0 
0.0 0.0 -1.593735061013e+02 
-5.298607160159e+01 -1.376669790754e-02 0.0 
-1.376669790754e-02 -1.249264363965e+02 0.0 
0.0 0.0 -5.297375239944e+01 
-1.509620009480e+02 -4.401494933688e-02 0.0 
-4.401494933688e-02 -3.533991219183e+02 0.0 
0.0 0.0 -1.509083368599e+02 
-1.446541198023e+02 -1.123272819191e-02 0.0 
-1.123272819191e-02 -3.389405401546e+02 0.0 
0.0 0.0 -1.446783979871e+02 
-3.733630567507e+01 3.835914757617e-03 0.0 
3.835914757617e-03 -8.838096543942e+01 0.0 
0.0 0.0 -3.731518133435e+01 
-5.124801502832e+01 -2.786638438146e-03 0.0 
-2.786638438146e-03 -1.208606176287e+02 0.0 
0.0 0.0 -5.123258979712e+01 
-1.209645353347e+02 -1.120379532783e-02 0.0 
-1.120379532783e-02 -2.835454302328e+02 0.0 
0.0 0.0 -1.209529896702e+02 
-1.111566730175e+02 3.866099139247e-03 0.0 
3.866099139247e-03 -2.606846582762e+02 0.0 
0.0 0.0 -1.111523993881e+02 
-1.386163671800e+02 8.806737164646e-03 0.0 
8.806737164646e-03 -3.247762248456e+02 0.0 
0.0 0.0 -1.386177776077e+02 
-1.136455889566e+02 -1.173555593549e-03 0.0 
-1.173555593549e-03 -2.665087469762e+02 0.0 
0.0 0.0 -1.136463007799e+02 
-1.314394101127e+02 1.258690458941e-02 0.0 
1.258690458941e-02 -3.079728287515e+02 0.0 
0.0 0.0 -1.314236716593e+02 
-1.530524372244e+02 -9.419091033623e-02 0.0 
-9.419091033623e-02 -3.585098815585e+02 0.0 
0.0 0.0 -1.530686956349e+02 
-3.329001596098e+01 1.849927949397e-02 0.0 
1.849927949397e-02 -7.866339826794e+01 0.0 
0.0 0.0 -3.318602426867e+01 
-1.141538564895e+02 -2.662377743649e-02 0.0 
-2.662377743649e-02 -2.676974243154e+02 0.0 
0.0 0.0 -1.141553842415e+02 
-1.111797092478e+02 -2.739642861935e-02 0.0 
-2.739642861935e-02 -2.607284261917e+02 0.0 
0.0 0.0 -1.111724406319e+02 
-1.317468060357e+02 1.250706299591e-02 0.0 
1.250706299591e-02 -3.087562885086e+02 0.0 
0.0 0.0 -1.317509283633e+02 
-5.544674807158e+01 1.569826880677e-02 0.0 
1.569826880677e-02 -1.307567065866e+02 0.0 
0.0 0.0 -5.546103639744e+01 
-8.823524426483e+01 5.353221956123e-02 0.0 
5.353221956123e-02 -2.071480112523e+02 0.0 
0.0 0.0 -8.821497665514e+01 
-3.513146346000e+01 1.334903898042e-02 0.0 
1.334903898042e-02 -8.345836738899e+01 0.0 
0.0 0.0 -3.517694925470e+01 
-1.539938496852e+02 -1.679827583031e-02 0.0 
-1.679827583031e-02 -3.605738558657e+02 0.0 
0.0 0.0 -1.539703116653e+02 
-9.176521526319e+01 -1.023942296281e-04 0.0 
-1.023942296281e-04 -2.155336924720e+02 0.0 
0.0 0.0 -9.178967232054e+01 
-9.312432089586e+01 -7.698326492560e-03 0.0 
-7.698326492560e-03 -2.186133900050e+02 0.0 
0.0 0.0 -9.312131327026e+01 
-7.329210137928e+01 9.748600683597e-03 0.0 
9.748600683597e-03 -1.722687128371e+02 0.0 
0.0 0.0 -7.326824426490e+01 
-5.781026087642e+01 -1.630167236981e-02 0.0 
-1.630167236981e-02 -1.361543941859e+02 0.0 
0.0 0.0 -5.778939651870e+01 
-4.780823636320e+01 -3.999999440049e-03 0.0 
-3.999999440049e-03 -1.128389376213e+02 0.0 
0.0 0.0 -4.779415219534e+01 
-8.422818256421e+01 -1.905057410091e-02 0.0 
-1.905057410091e-02 -1.978774762624e+02 0.0 
0.0 0.0 -8.423169764797e+01 
-8.736790320615e+01 -5.047075365736e-03 0.0 
-5.047075365736e-03 -2.051530271101e+02 0.0 
0.0 0.0 -8.735627909487e+01 
-1.252672686803e+02 -7.798997306737e-03 0.0 
-7.798997306737e-03 -2.936311090795e+02 0.0 
0.0 0.0 -1.252695133279e+02 
-1.363390479643e+02 1.021255332380e-02 0.0 
1.021255332380e-02 -3.195163607067e+02 0.0 
0.0 0.0 -1.363566226013e+02 
-8.098949563278e+00 -6.509026266769e-02 0.0 
-6.509026266769e-02 -1.898906930302e+01 0.0 
0.0 0.0 -8.011704491012e+00 
-1.299776852259e+02 -1.402456807100e-02 0.0 
-1.402456807100e-02 -3.045980237205e+02 0.0 
0.0 0.0 -1.299727126839e+02 
-1.039420060517e+02 3.546946665348e-04 0.0 
3.546946665348e-04 -2.438492338096e+02 0.0 
0.0 0.0 -1.039373719584e+02 
-1.171221825160e+02 -1.450007721891e-02 0.0 
-1.450007721891e-02 -2.746851212734e+02 0.0 
0.0 0.0 -1.171421911368e+02 
-1.300645632424e+02 2.210000518018e-02 0.0 
2.210000518018e-02 -3.049014254298e+02 0.0 
0.0 0.0 -1.300897966017e+02 
-3.291937819994e+01 1.611140950531e-02 0.0 
1.611140950531e-02 -7.782918126798e+01 0.0 
0.0 0.0 -3.282456784037e+01 
-1.346344960309e+02 3.165798103645e-03 0.0 
3.165798103645e-03 -3.155235272783e+02 0.0 
0.0 0.0 -1.346474069928e+02 
-1.489240321994e+02 -2.821070473909e-02 0.0 
-2.821070473909e-02 -3.489560997950e+02 0.0 
0.0 0.0 -1.489640395983e+02 
-1.079494153105e+02 1.008243304378e-01 0.0 
1.008243304378e-01 -2.531174041223e+02 0.0 
0.0 0.0 -1.079200458298e+02 
-2.686636593292e+01 2.155525916227e-02 0.0 
2.155525916227e-02 -6.409493580328e+01 0.0 
0.0 0.0 -2.688839052086e+01 
-1.055710351832e+02 -2.145891169559e-02 0.0 
-2.145891169559e-02 -2.478459042842e+02 0.0 
0.0 0.0 -1.056250818402e+02 
-1.476824887313e+02 -1.979633587065e-02 0.0 
-1.979633587065e-02 -3.459543818366e+02 0.0 
0.0 0.0 -1.476910611704e+02 
-1.320638520805e+02 1.226962990167e-03 0.0 
1.226962990167e-03 -3.095032264432e+02 0.0 
0.0 0.0 -1.320701235571e+02 
-5.077209186219e+01 4.219749954134e-02 0.0 
4.219749954134e-02 -1.197377312723e+02 0.0 
0.0 0.0 -5.075294694034e+01 
-9.625336385119e+01 6.968631602684e-03 0.0 
6.968631602684e-03 -2.259356518883e+02 0.0 
0.0 0.0 -9.625670472186e+01 
-8.973779227812e+01 -1.418759633525e-03 0.0 
-1.418759633525e-03 -2.107600347261e+02 0.0 
0.0 0.0 -8.974934810126e+01 
-8.275797470870e+01 3.418599080468e-02 0.0 
3.418599080468e-02 -1.942312757852e+02 0.0 
0.0 0.0 -8.269677514817e+01 
-1.481175070239e+02 -3.302117900207e-02 0.0 
-3.302117900207e-02 -3.471564083260e+02 0.0 
0.0 0.0 -1.481821746050e+02 
-9.913520639723e+01 7.897310348668e-04 0.0 
7.897310348668e-04 -2.326845027481e+02 0.0 
0.0 0.0 -9.914591274360e+01 
-1.373052787149e+02 -2.857017357300e-02 0.0 
-2.857017357300e-02 -3.218061353230e+02 0.0 
0.0 0.0 -1.373334242114e+02 
-1.126166136199e+02 9.717503976206e-03 0.0 
9.717503976206e-03 -2.641038059153e+02 0.0 
0.0 0.0 -1.126161258606e+02 
-5.446152199257e+01 1.640175500383e-02 0.0 
1.640175500383e-02 -1.283933908243e+02 0.0 
0.0 0.0 -5.445647384505e+01 
-1.371900811663e+02 2.353695006677e-02 0.0 
2.353695006677e-02 -3.215060118606e+02 0.0 
0.0 0.0 -1.372088279081e+02 
-9.373508993090e+01 3.733219069423e-03 0.0 
3.733219069423e-03 -2.200814253245e+02 0.0 
0.0 0.0 -9.374495457663e+01 
-1.429744170512e+02 1.175452793110e-02 0.0 
1.175452793110e-02 -3.349522927464e+02 0.0 
0.0 0.0 -1.429780129393e+02 
-1.261619652127e+02 2.187828158753e-02 0.0 
2.187828158753e-02 -2.957099451306e+02 0.0 
0.0 0.0 -1.261615731030e+02 
-7.647079233741e+01 2.417016506091e-03 0.0 
2.417016506091e-03 -1.797823316794e+02 0.0 
0.0 0.0 -7.647593720505e+01 
-1.374736634815e+02 2.056336781080e-02 0.0 
2.056336781080e-02 -3.220860853404e+02 0.0 
0.0 0.0 -1.374679246466e+02 
-9.410238969941e+01 -8.485570059702e-03 0.0 
-8.485570059702e-03 -2.209196082339e+02 0.0 
0.0 0.0 -9.410659938001e+01 
-1.347372783148e+02 -5.345852739869e-03 0.0 
-5.345852739869e-03 -3.157841091122e+02 0.0 
0.0 0.0 -1.347564162281e+02 
-8.735320196886e+01 -6.413551912068e-03 0.0 
-6.413551912068e-03 -2.052368287809e+02 0.0 
0.0 0.0 -8.737700922493e+01 
-1.100833780353e+02 1.025458251609e-02 0.0 
1.025458251609e-02 -2.582273479157e+02 0.0 
0.0 0.0 -1.100932177853e+02 
-1.199340199721e+02 1.414767097800e-02 0.0 
1.414767097800e-02 -2.812804871504e+02 0.0 
0.0 0.0 -1.199643521368e+02 
-1.046296497997e+02 1.323661271101e-03 0.0 
1.323661271101e-03 -2.454866651839e+02 0.0 
0.0 0.0 -1.046348944951e+02 
-1.163459720315e+02 -6.972301773741e-02 0.0 
-6.972301773741e-02 -2.727902479794e+02 0.0 
0.0 0.0 -1.163408660032e+02 
-1.335776428328e+02 -1.166099324878e-02 0.0 
-1.166099324878e-02 -3.130652902059e+02 0.0 
0.0 0.0 -1.335928799116e+02 
-3.474302182980e+01 -2.851039308621e-03 0.0 
-2.851039308621e-03 -8.250631375998e+01 0.0 
0.0 0.0 -3.477480067693e+01 
-6.821126334080e+01 1.848733770028e-03 0.0 
1.848733770028e-03 -1.604959755019e+02 0.0 
0.0 0.0 -6.821217165282e+01 
-1.163957105703e+02 1.964815201340e-02 0.0 
1.964815201340e-02 -2.727939109373e+02 0.0 
0.0 0.0 -1.163568864523e+02 
-1.410570665059e+02 2.649529538430e-02 0.0 
2.649529538430e-02 -3.306463843678e+02 0.0 
0.0 0.0 -1.411110352621e+02 
-1.512674952979e+02 -2.773725515087e-02 0.0 
-2.773725515087e-02 -3.541565962631e+02 0.0 
0.0 0.0 -1.512272274683e+02 
-8.182600020497e+01 -1.301113345397e-02 0.0 
-1.301113345397e-02 -1.923132946569e+02 0.0 
0.0 0.0 -8.184178845856e+01 
-1.324878862916e+02 2.108020101878e-02 0.0 
2.108020101878e-02 -3.104717303472e+02 0.0 
0.0 0.0 -1.324878849916e+02 
-1.455233271662e+02 -1.035104821082e-02 0.0 
-1.035104821082e-02 -3.409463101566e+02 0.0 
0.0 0.0 -1.455408911969e+02 
-9.098410710818e+01 -1.908338719572e-03 0.0 
-1.908338719572e-03 -2.135948492103e+02 0.0 
0.0 0.0 -9.097368689554e+01 
-3.802968086607e+01 -1.104248902595e-02 0.0 
-1.104248902595e-02 -9.014406476710e+01 0.0 
0.0 0.0 -3.805212368995e+01 
-2.967613670689e+01 1.737894485771e-02 0.0 
1.737894485771e-02 -7.033948102485e+01 0.0 
0.0 0.0 -2.960468531952e+01 
-6.029427634366e+01 -1.409277801615e-02 0.0 
-1.409277801615e-02 -1.420381940152e+02 0.0 
0.0 0.0 -6.029974110764e+01 
-9.465101438487e+01 -1.634724697180e-03 0.0 
-1.634724697180e-03 -2.222316103044e+02 0.0 
0.0 0.0 -9.466478740677e+01 
-9.927076668039e+01 3.741236385730e-03 0.0 
3.741236385730e-03 -2.329413183473e+02 0.0 
0.0 0.0 -9.926362550832e+01 
-1.528370136114e+02 -3.483839109547e-02 0.0 
-3.483839109547e-02 -3.580543375430e+02 0.0 
0.0 0.0 -1.528674053463e+02 
-1.361229853344e+02 1.402162890648e-02 0.0 
1.402162890648e-02 -3.188886687370e+02 0.0 
0.0 0.0 -1.361034962214e+02 
-1.273467408844e+02 2.599679511569e-02 0.0 
2.599679511569e-02 -2.984706340275e+02 0.0 
0.0 0.0 -1.273452124736e+02 
-1.534559022002e+01 -7.366555652328e-02 0.0 
-7.366555652328e-02 -3.674835819365e+01 0.0 
0.0 0.0 -1.522818452410e+01 
-8.597006598321e+01 -3.849587016778e-02 0.0 
-3.849587016778e-02 -2.018656904980e+02 0.0 
0.0 0.0 -8.595072694436e+01 
-1.397821794376e+02 1.583287410565e-02 0.0 
1.583287410565e-02 -3.273962047010e+02 0.0 
0.0 0.0 -1.397535152416e+02 
-9.979005427177e+01 3.395463722097e-03 0.0 
3.395463722097e-03 -2.341826517685e+02 0.0 
0.0 0.0 -9.979181181208e+01 
-1.381362955446e+02 -7.114181176137e-03 0.0 
-7.114181176137e-03 -3.237561433247e+02 0.0 
0.0 0.0 -1.381677316608e+02 
-9.478511099991e+01 3.422859228739e-03 0.0 
3.422859228739e-03 -2.222598112128e+02 0.0 
0.0 0.0 -9.471347666382e+01 
-1.537880141844e+02 3.748126998548e-02 0.0 
3.748126998548e-02 -3.601109513681e+02 0.0 
0.0 0.0 -1.537696896658e+02 
-6.867917779872e+01 -4.398192554147e-02 0.0 
-4.398192554147e-02 -1.616202437171e+02 0.0 
0.0 0.0 -6.868982645476e+01 
-1.435066867348e+02 1.745260207855e-02 0.0 
1.745260207855e-02 -3.362146394882e+02 0.0 
0.0 0.0 -1.435163978669e+02 
-1.281896880993e+02 -3.028721661108e-02 0.0 
-3.028721661108e-02 -3.004771998206e+02 0.0 
0.0 0.0 -1.282000663760e+02 
-6.226362699491e+01 -1.211307294670e-02 0.0 
-1.211307294670e-02 -1.466462482884e+02 0.0 
0.0 0.0 -6.227296258498e+01 
-9.061554641256e+01 -1.589503832221e-02 0.0 
-1.589503832221e-02 -2.127728236481e+02 0.0 
0.0 0.0 -9.061651101820e+01 
-1.530062732052e+02 -2.775699348649e-02 0.0 
-2.775699348649e-02 -3.583984486957e+02 0.0 
0.0 0.0 -1.530214165703e+02 
-1.365912755322e+02 -1.054884191456e-02 0.0 
-1.054884191456e-02 -3.201313699149e+02 0.0 
0.0 0.0 -1.366167936341e+02 
-1.126085009586e+02 5.378897081062e-03 0.0 
5.378897081062e-03 -2.640906026020e+02 0.0 
0.0 0.0 -1.126097310682e+02 
-9.516340653878e+01 1.370647638713e-03 0.0 
1.370647638713e-03 -2.233875937990e+02 0.0 
0.0 0.0 -9.516530010133e+01 
-7.414631490615e+01 3.566121780029e-02 0.0 
3.566121780029e-02 -1.743047975248e+02 0.0 
0.0 0.0 -7.413533372927e+01 
-1.028829689724e+02 7.044901345605e-03 0.0 
7.044901345605e-03 -2.413692556831e+02 0.0 
0.0 0.0 -1.028756673967e+02 
-1.145426009793e+02 1.974986057359e-02 0.0 
1.974986057359e-02 -2.686583943282e+02 0.0 
0.0 0.0 -1.145602985922e+02 
-1.610068231233e+02 -7.692853898211e-03 0.0 
-7.692853898211e-03 -3.768795279904e+02 0.0 
0.0 0.0 -1.609659053341e+02 
-1.407699075748e+02 1.120160539222e-02 0.0 
1.120160539222e-02 -3.300311132474e+02 0.0 
0.0 0.0 -1.408403062467e+02 
-1.183779624030e+02 2.793838426256e-02 0.0 
2.793838426256e-02 -2.775014823020e+02 0.0 
0.0 0.0 -1.183638334115e+02 
-9.821028138694e+01 9.274201196629e-03 0.0 
9.274201196629e-03 -2.304585286684e+02 0.0 
0.0 0.0 -9.820064301662e+01 
-1.190372802685e+02 4.040956500543e-03 0.0 
4.040956500543e-03 -2.791169723518e+02 0.0 
0.0 0.0 -1.190462757861e+02 
-2.099003458689e+01 1.820315017979e-02 0.0 
1.820315017979e-02 -5.002102654149e+01 0.0 
0.0 0.0 -2.090331833852e+01 
-7.740033622226e+01 -2.132890297115e-02 0.0 
-2.132890297115e-02 -1.819341601807e+02 0.0 
0.0 0.0 -7.740034892089e+01 
-1.017964732280e+02 1.220488078163e-02 0.0 
1.220488078163e-02 -2.388499640877e+02 0.0 
0.0 0.0 -1.017939311947e+02 
-6.385756391889e+01 -6.597609594575e-03 0.0 
-6.597609594575e-03 -1.503372190479e+02 0.0 
0.0 0.0 -6.385843489003e+01 
-9.868631263588e+01 2.813513780476e-04 0.0 
2.813513780476e-04 -2.316219537541e+02 0.0 
0.0 0.0 -9.869247991700e+01 
-1.519174204759e+02 -5.189046705052e-02 0.0 
-5.189046705052e-02 -3.556205074012e+02 0.0 
0.0 0.0 -1.518613783631e+02 
-1.054006448384e+02 7.156202118224e-03 0.0 
7.156202118224e-03 -2.472838631372e+02 0.0 
0.0 0.0 -1.054053523927e+02 
-7.193620579669e+01 1.369782986840e-03 0.0 
1.369782986840e-03 -1.691907459944e+02 0.0 
0.0 0.0 -7.193808553731e+01 
-1.090105017288e+02 -3.469777045787e-03 0.0 
-3.469777045787e-03 -2.557091551380e+02 0.0 
0.0 0.0 -1.090158970600e+02 
-6.564553745664e+01 1.893517576590e-02 0.0 
1.893517576590e-02 -1.544867327175e+02 0.0 
0.0 0.0 -6.563968105224e+01 
-1.219836595838e+02 4.015260907988e-02 0.0 
4.015260907988e-02 -2.859650502231e+02 0.0 
0.0 0.0 -1.219846129421e+02 
-1.126507945122e+02 -1.193797754218e-03 0.0 
-1.193797754218e-03 -2.641039396385e+02 0.0 
0.0 0.0 -1.126264202452e+02 
-1.225731364227e+02 2.551483462267e-02 0.0 
2.551483462267e-02 -2.873716475413e+02 0.0 
0.0 0.0 -1.225834351892e+02 
-2.183092259876e+01 9.728751585750e-02 0.0 
9.728751585750e-02 -5.231856552291e+01 0.0 
0.0 0.0 -2.184484643650e+01 
-1.160979650444e+02 6.584307186316e-03 0.0 
6.584307186316e-03 -2.722529066147e+02 0.0 
0.0 0.0 -1.161052614977e+02 
-1.418352859585e+02 -3.633813889685e-02 0.0 
-3.633813889685e-02 -3.321691665485e+02 0.0 
0.0 0.0 -1.418013357521e+02 
-6.740104731493e+01 -1.305618004575e-02 0.0 
-1.305618004575e-02 -1.585702706417e+02 0.0 
0.0 0.0 -6.739139538698e+01 
-1.022697410474e+02 -8.595310187093e-03 0.0 
-8.595310187093e-03 -2.399845670713e+02 0.0 
0.0 0.0 -1.022762924356e+02 
-1.302177478747e+02 2.402992676952e-02 0.0 
2.402992676952e-02 -3.051873575617e+02 0.0 
0.0 0.0 -1.302215316309e+02 
-5.699579872307e+01 8.211606123913e-02 0.0 
8.211606123913e-02 -1.343998648750e+02 0.0 
0.0 0.0 -5.701869907942e+01 
-1.105242050315e+02 -2.504995652186e-03 0.0 
-2.504995652186e-03 -2.592389404974e+02 0.0 
0.0 0.0 -1.105289436587e+02 
-1.306599027318e+02 2.301502824339e-02 0.0 
2.301502824339e-02 -3.062283297432e+02 0.0 
0.0 0.0 -1.306664697425e+02 
-1.196892056227e+02 -1.999751065365e-02 0.0 
-1.999751065365e-02 -2.806320424567e+02 0.0 
0.0 0.0 -1.196963744238e+02 
-1.027076372463e+02 -4.353631633065e-03 0.0 
-4.353631633065e-03 -2.410313092891e+02 0.0 
0.0 0.0 -1.027216839606e+02 
-1.189002945729e+02 4.845332945541e-03 0.0 
4.845332945541e-03 -2.787663958240e+02 0.0 
0.0 0.0 -1.189000071191e+02 
-5.983353408423e+01 -7.074988242011e-02 0.0 
-7.074988242011e-02 -1.410761892289e+02 0.0 
0.0 0.0 -5.987291699395e+01 
-4.952079985752e+01 -2.958990250093e-02 0.0 
-2.958990250093e-02 -1.168618877171e+02 0.0 
0.0 0.0 -4.951480627240e+01 
-4.127074833622e+01 -1.668632767958e-03 0.0 
-1.668632767958e-03 -9.766463168137e+01 0.0 
0.0 0.0 -4.128061400528e+01 
-7.546169479083e+01 4.346493202725e-03 0.0 
4.346493202725e-03 -1.774176797557e+02 0.0 
0.0 0.0 -7.546381236395e+01 
-1.352031213948e+02 1.198263172129e-02 0.0 
1.198263172129e-02 -3.168218848594e+02 0.0 
0.0 0.0 -1.352075018763e+02 
-2.782628911879e+01 8.989394591124e-02 0.0 
8.989394591124e-02 -6.636997748049e+01 0.0 
0.0 0.0 -2.785887997978e+01 
-1.291231565282e+02 3.233561062640e-02 0.0 
3.233561062640e-02 -3.026187717230e+02 0.0 
0.0 0.0 -1.291225784754e+02 
-2.962756258337e+01 4.243001484052e-02 0.0 
4.243001484052e-02 -7.042578220135e+01 0.0 
0.0 0.0 -2.961600343541e+01 
-7.093729377392e+01 3.392954650246e-03 0.0 
3.392954650246e-03 -1.668554994391e+02 0.0 
0.0 0.0 -7.093783796391e+01 
-1.319608511526e+02 -2.197650709014e-02 0.0 
-2.197650709014e-02 -3.091348606065e+02 0.0 
0.0 0.0 -1.319287135277e+02 
-1.135994424277e+02 1.926408596204e-01 0.0 
1.926408596204e-01 -2.664197681404e+02 0.0 
0.0 0.0 -1.136057631704e+02 
-7.441464039253e+01 -4.212166563059e-03 0.0 
-4.212166563059e-03 -1.749720003993e+02 0.0 
0.0 0.0 -7.441599223754e+01 
-4.635999717717e+01 -3.458682427293e-02 0.0 
-3.458682427293e-02 -1.094911379063e+02 0.0 
0.0 0.0 -4.635534052504e+01 
-6.985877728240e+01 -7.602336801195e-03 0.0 
-7.602336801195e-03 -1.643427858567e+02 0.0 
0.0 0.0 -6.986046894173e+01 
-1.108150097440e+02 -6.579483808409e-03 0.0 
-6.579483808409e-03 -2.599439935403e+02 0.0 
0.0 0.0 -1.108277009853e+02 
-7.332812483386e+01 -9.617361072014e-03 0.0 
-9.617361072014e-03 -1.724319309270e+02 0.0 
0.0 0.0 -7.332801672825e+01 
-6.874032280257e+01 -1.206443053999e-02 0.0 
-1.206443053999e-02 -1.617073863993e+02 0.0 
0.0 0.0 -6.873431276057e+01 
-1.528524868149e+02 2.142556751784e-02 0.0 
2.142556751784e-02 -3.581435967126e+02 0.0 
0.0 0.0 -1.528988250582e+02 
-7.214921912579e+01 -1.832523124441e-02 0.0 
-1.832523124441e-02 -1.696478031627e+02 0.0 
0.0 0.0 -7.213910668654e+01 
-1.609430009809e+02 5.217723163837e-02 0.0 
5.217723163837e-02 -3.765979547099e+02 0.0 
0.0 0.0 -1.608622867073e+02 
-1.599544625866e+02 2.376547890756e-02 0.0 
2.376547890756e-02 -3.745449537942e+02 0.0 
0.0 0.0 -1.599498249142e+02 
-9.697126878149e+01 1.401034885408e-01 0.0 
1.401034885408e-01 -2.276765476650e+02 0.0 
0.0 0.0 -9.699434493395e+01 
-4.796210511859e+01 -9.274757751603e-02 0.0 
-9.274757751603e-02 -1.136032360399e+02 0.0 
0.0 0.0 -4.806960234754e+01 
-7.467201662861e+00 -3.648930997821e-03 0.0 
-3.648930997821e-03 -1.747828338965e+01 0.0 
0.0 0.0 -7.348198045187e+00 
-5.121583361544e+01 6.870027413707e-02 0.0 
6.870027413707e-02 -1.206267489440e+02 0.0 
0.0 0.0 -5.115277476783e+01 
-5.932199039572e+01 -1.451990444553e-02 0.0 
-1.451990444553e-02 -1.397141692251e+02 0.0 
0.0 0.0 -5.931084788625e+01 
-1.279318286163e+02 -1.643215198419e-03 0.0 
-1.643215198419e-03 -2.999414939697e+02 0.0 
0.0 0.0 -1.279619967758e+02 
-9.734611750530e+01 -3.476116764355e-02 0.0 
-3.476116764355e-02 -2.284438536304e+02 0.0 
0.0 0.0 -9.733699134070e+01 
-5.450253974576e+01 -3.564706662934e-02 0.0 
-3.564706662934e-02 -1.284562277384e+02 0.0 
0.0 0.0 -5.448763024524e+01 
-1.538624746197e+02 -4.249211495486e-03 0.0 
-4.249211495486e-03 -3.602565923814e+02 0.0 
0.0 0.0 -1.538357201003e+02 
-1.608424945635e+02 6.740245152917e-02 0.0 
6.740245152917e-02 -3.766599976647e+02 0.0 
0.0 0.0 -1.608507476685e+02 
-1.257532744246e+02 4.736722186624e-02 0.0 
4.736722186624e-02 -2.947565930207e+02 0.0 
0.0 0.0 -1.257529602336e+02 
-1.413069161963e+02 -5.551741488230e-02 0.0 
-5.551741488230e-02 -3.313261252110e+02 0.0 
0.0 0.0 -1.413899124222e+02 
-1.235601806967e+02 -2.306888454546e-02 0.0 
-2.306888454546e-02 -2.896307140037e+02 0.0 
0.0 0.0 -1.235572684101e+02 
-1.454642688336e+02 7.788837195369e-02 0.0 
7.788837195369e-02 -3.409450739343e+02 0.0 
0.0 0.0 -1.455228028304e+02 
-9.007334561667e+01 2.218135098629e-01 0.0 
2.218135098629e-01 -2.113790888788e+02 0.0 
0.0 0.0 -9.003573034863e+01 
-1.372833790898e+01 -4.680379050268e-03 0.0 
-4.680379050268e-03 -3.287947171857e+01 0.0 
0.0 0.0 -1.370537006375e+01 
-1.206356204439e+02 -4.337934884180e-02 0.0 
-4.337934884180e-02 -2.828099256763e+02 0.0 
0.0 0.0 -1.206336638361e+02 
-3.930177489995e+01 -3.609291047600e-02 0.0 
-3.609291047600e-02 -9.329529393019e+01 0.0 
0.0 0.0 -3.937912064904e+01 
-4.050161708221e+01 -5.156185620123e-03 0.0 
-5.156185620123e-03 -9.583151638410e+01 0.0 
0.0 0.0 -4.049994003989e+01 
-3.175962846610e+01 -1.297507496820e-02 0.0 
-1.297507496820e-02 -7.549182559281e+01 0.0 
0.0 0.0 -3.177543621767e+01 
-5.724161066503e+01 -1.109525353344e-02 0.0 
-1.109525353344e-02 -1.352000132017e+02 0.0 
0.0 0.0 -5.733248716002e+01 
-2.057830067963e+01 -2.395455345025e-02 0.0 
-2.395455345025e-02 -4.914549971931e+01 0.0 
0.0 0.0 -2.051714011968e+01 
-3.253886573990e+01 -4.410578775397e-02 0.0 
-4.410578775397e-02 -7.720411736972e+01 0.0 
0.0 0.0 -3.252289493289e+01 
-1.530250370044e+02 7.216421044425e-02 0.0 
7.216421044425e-02 -3.585972699041e+02 0.0 
0.0 0.0 -1.530866920726e+02 
-9.767257428824e+01 1.884927299738e-01 0.0 
1.884927299738e-01 -2.289084403369e+02 0.0 
0.0 0.0 -9.757430438753e+01 
-1.361510493678e+02 3.648071103949e-02 0.0 
3.648071103949e-02 -3.189130139470e+02 0.0 
0.0 0.0 -1.361192189944e+02 
-2.398701594269e+01 -5.782014281067e-02 0.0 
-5.782014281067e-02 -5.719609695191e+01 0.0 
0.0 0.0 -2.395493386838e+01 
-1.534248424825e+02 5.787276988877e-02 0.0 
5.787276988877e-02 -3.594423709775e+02 0.0 
0.0 0.0 -1.534601640380e+02 
-1.533590453369e+02 -2.687849887282e-02 0.0 
-2.687849887282e-02 -3.592740723338e+02 0.0 
0.0 0.0 -1.533899353012e+02 
-1.608340315258e+02 6.788749381839e-02 0.0 
6.788749381839e-02 -3.767140926860e+02 0.0 
0.0 0.0 -1.608644372635e+02 
-1.444450427150e+02 1.172216932097e-02 0.0 
1.172216932097e-02 -3.382620059983e+02 0.0 
0.0 0.0 -1.444121146140e+02 
-2.298721462892e+01 -2.561057744223e-02 0.0 
-2.561057744223e-02 -5.490608343017e+01 0.0 
0.0 0.0 -2.296798941773e+01 
-1.047050726230e+02 1.734039738600e-01 0.0 
1.734039738600e-01 -2.452152501591e+02 0.0 
0.0 0.0 -1.045760968346e+02 
-1.538056345228e+02 3.824281065484e-02 0.0 
3.824281065484e-02 -3.603725467793e+02 0.0 
0.0 0.0 -1.538534543906e+02 
-1.324369504537e+02 1.181360915127e-02 0.0 
1.181360915127e-02 -3.101614098851e+02 0.0 
0.0 0.0 -1.323795081016e+02 
-1.614551938664e+02 -2.382077268465e-01 0.0 
-2.382077268465e-01 -3.777932908361e+02 0.0 
0.0 0.0 -1.613745454107e+02 
-9.672292480708e+01 5.376392997516e-03 0.0 
5.376392997516e-03 -2.265598189308e+02 0.0 
0.0 0.0 -9.658482312136e+01 
-1.540220264265e+02 -4.653644123027e-02 0.0 
-4.653644123027e-02 -3.607566071977e+02 0.0 
0.0 0.0 -1.540335900873e+02 
-3.043589986003e+01 5.447683885425e-02 0.0 
5.447683885425e-02 -7.242186262788e+01 0.0 
0.0 0.0 -3.045732874638e+01 
-1.541508446333e+02 -7.315310558060e-02 0.0 
-7.315310558060e-02 -3.610048133470e+02 0.0 
0.0 0.0 -1.541466973941e+02 
-1.360660474755e+02 1.052554834797e-02 0.0 
1.052554834797e-02 -3.189470368048e+02 0.0 
0.0 0.0 -1.361039252841e+02 
-1.076302444335e+02 -1.194451923348e-01 0.0 
-1.194451923348e-01 -2.523353870417e+02 0.0 
0.0 0.0 -1.075896894426e+02 
-1.042215716048e+02 -5.256036500188e-02 0.0 
-5.256036500188e-02 -2.442043062568e+02 0.0 
0.0 0.0 -1.041277633585e+02 
-1.544967826848e+02 -3.488544491972e-02 0.0 
-3.488544491972e-02 -3.616981490189e+02 0.0 
0.0 0.0 -1.544584795111e+02 
-1.536179989623e+02 9.899640235656e-02 0.0 
9.899640235656e-02 -3.600362911164e+02 0.0 
0.0 0.0 -1.536962870236e+02 
-1.851322725749e+01 -5.161505386815e-02 0.0 
-5.161505386815e-02 -4.422310319628e+01 0.0 
0.0 0.0 -1.842089913613e+01 
-1.254063436294e+02 -1.496828713181e-01 0.0 
-1.496828713181e-01 -2.936753811533e+02 0.0 
0.0 0.0 -1.253245174348e+02 
-7.153653492567e+01 7.644969707507e-02 0.0 
7.644969707507e-02 -1.683880980959e+02 0.0 
0.0 0.0 -7.157738990647e+01 
-1.314608162702e+01 1.216965778817e-01 0.0 
1.216965778817e-01 -3.131338197873e+01 0.0 
0.0 0.0 -1.313027885269e+01 
-1.536071521051e+02 -1.546000300155e-01 0.0 
-1.546000300155e-01 -3.599400582147e+02 0.0 
0.0 0.0 -1.536641630959e+02 
-1.437717124015e+02 6.819166407950e-03 0.0 
6.819166407950e-03 -3.370427806292e+02 0.0 
0.0 0.0 -1.438443479092e+02 
-1.538388516004e+02 -1.504148780894e-01 0.0 
-1.504148780894e-01 -3.605279678218e+02 0.0 
0.0 0.0 -1.539100458267e+02 
-2.062951755285e+01 -1.445259036054e-01 0.0 
-1.445259036054e-01 -4.954755603553e+01 0.0 
0.0 0.0 -2.065312207651e+01 
-1.295551600070e+01 -8.553836937939e-02 0.0 
-8.553836937939e-02 -3.103739713515e+01 0.0 
0.0 0.0 -1.287979243060e+01 
-1.548869638230e+02 -4.484797615151e-02 0.0 
-4.484797615151e-02 -3.629021715572e+02 0.0 
0.0 0.0 -1.549367406141e+02 
-1.546841093576e+02 -2.756801672202e-02 0.0 
-2.756801672202e-02 -3.622762505037e+02 0.0 
0.0 0.0 -1.546881079584e+02 
-3.452739168564e+01 -4.963918649220e-02 0.0 
-4.963918649220e-02 -8.169326993982e+01 0.0 
0.0 0.0 -3.446619848764e+01 
-1.620203080313e+02 1.764060086385e-02 0.0 
1.764060086385e-02 -3.793963039435e+02 0.0 
0.0 0.0 -1.620249835924e+02 
-1.235355366705e+01 1.546727637141e-01 0.0 
1.546727637141e-01 -2.977528816292e+01 0.0 
0.0 0.0 -1.232045653404e+01 
-8.926393741153e+01 -2.600979493608e-02 0.0 
-2.600979493608e-02 -2.093103565030e+02 0.0 
0.0 0.0 -8.917228817436e+01 
-1.346332806592e+01 1.024375955136e-01 0.0 
1.024375955136e-01 -3.222176400343e+01 0.0 
0.0 0.0 -1.348129722547e+01 
-1.612519187441e+02 2.067859201727e-01 0.0 
2.067859201727e-01 -3.773534084275e+02 0.0 
0.0 0.0 -1.611815981515e+02 
-1.542894521506e+02 -9.891809347661e-02 0.0 
-9.891809347661e-02 -3.615583826902e+02 0.0 
0.0 0.0 -1.543543504522e+02 
-7.884547677352e+01 -1.495002670314e-01 0.0 
-1.495002670314e-01 -1.853446544196e+02 0.0 
0.0 0.0 -7.885703935794e+01 
-9.128317352269e+01 -1.128872376815e-01 0.0 
-1.128872376815e-01 -2.141013750570e+02 0.0 
0.0 0.0 -9.121536457392e+01 
-5.196673407464e+01 -7.103019002014e-02 0.0 
-7.103019002014e-02 -1.226549574197e+02 0.0 
0.0 0.0 -5.198650744831e+01 
-1.478317564149e+02 -1.592239005734e-01 0.0 
-1.592239005734e-01 -3.464929099204e+02 0.0 
0.0 0.0 -1.478973999006e+02 
-1.933731046195e+01 -5.727143666357e-02 0.0 
-5.727143666357e-02 -4.609385806783e+01 0.0 
0.0 0.0 -1.922935055893e+01 
-1.550808413109e+02 5.734868603157e-02 0.0 
5.734868603157e-02 -3.634484760142e+02 0.0 
0.0 0.0 -1.551587951975e+02 
-1.552446049230e+02 2.297018809182e-02 0.0 
2.297018809182e-02 -3.637630859257e+02 0.0 
0.0 0.0 -1.553023072546e+02 
-1.551516068236e+02 -3.769078601732e-02 0.0 
-3.769078601732e-02 -3.635094649844e+02 0.0 
0.0 0.0 -1.551983215424e+02 
-1.623722828467e+02 -5.574641948795e-03 0.0 
-5.574641948795e-03 -3.802812254915e+02 0.0 
0.0 0.0 -1.623960525015e+02 
-1.266289831689e+01 -1.524345663157e-01 0.0 
-1.524345663157e-01 -3.000784596596e+01 0.0 
0.0 0.0 -1.250307759178e+01 
-1.554291940624e+02 3.886796018129e-02 0.0 
3.886796018129e-02 -3.642399459724e+02 0.0 
0.0 0.0 -1.555007420104e+02 
-1.476672175440e+02 -1.270377081005e-01 0.0 
-1.270377081005e-01 -3.461516315823e+02 0.0 
0.0 0.0 -1.477456547379e+02 
-8.992272358475e+01 -1.876112278575e-01 0.0 
-1.876112278575e-01 -2.111929476367e+02 0.0 
0.0 0.0 -8.993470136643e+01 
-1.540734993357e+02 -1.608866182385e-01 0.0 
-1.608866182385e-01 -3.608440082726e+02 0.0 
0.0 0.0 -1.540752522825e+02 
-6.401726434983e+01 -1.105697743772e-01 0.0 
-1.105697743772e-01 -1.507749845963e+02 0.0 
0.0 0.0 -6.403767468384e+01 
-2.760205490395e+01 1.836306305361e-01 0.0 
1.836306305361e-01 -6.544973931321e+01 0.0 
0.0 0.0 -2.751553826515e+01 
-1.618790341814e+02 1.109583004539e-01 0.0 
1.109583004539e-01 -3.786644971285e+02 0.0 
0.0 0.0 -1.617630593930e+02 
-6.161921707382e+00 2.934151892304e-02 0.0 
2.934151892304e-02 -1.409250248830e+01 0.0 
0.0 0.0 -5.988678333371e+00 
-8.938084448450e+01 8.768278265828e-02 0.0 
8.768278265828e-02 -2.100767922735e+02 0.0 
0.0 0.0 -8.943729102740e+01 
-1.617734278871e+02 -1.658253195787e-01 0.0 
-1.658253195787e-01 -3.787731783135e+02 0.0 
0.0 0.0 -1.617639818602e+02 
-2.644230520625e+01 7.813718034032e-03 0.0 
7.813718034032e-03 -6.256094017663e+01 0.0 
0.0 0.0 -2.630097361486e+01 
-1.031857388274e+02 1.040291079284e-01 0.0 
1.040291079284e-01 -2.420071023604e+02 0.0 
0.0 0.0 -1.031578523563e+02 
-1.551377062641e+02 3.729623472781e-02 0.0 
3.729623472781e-02 -3.631945611819e+02 0.0 
0.0 0.0 -1.550996802338e+02 
-9.678371840883e+01 -3.857655132055e-02 0.0 
-3.857655132055e-02 -2.272617672422e+02 0.0 
0.0 0.0 -9.681364569531e+01 
-1.407358929322e+02 2.436978437123e-01 0.0 
2.436978437123e-01 -3.297947845487e+02 0.0 
0.0 0.0 -1.407592032443e+02 
-2.610460263212e+01 -4.267894987349e-02 0.0 
-4.267894987349e-02 -6.178330311481e+01 0.0 
0.0 0.0 -2.596637172408e+01 
-6.351077908758e+00 -2.317199021349e-02 0.0 
-2.317199021349e-02 -1.461415488252e+01 0.0 
0.0 0.0 -6.306842474917e+00 
-1.180343171050e+02 1.633403902428e-01 0.0 
1.633403902428e-01 -2.766903396204e+02 0.0 
0.0 0.0 -1.180173970176e+02 
-1.547935875863e+02 -1.449692669251e-01 0.0 
-1.449692669251e-01 -3.627356502905e+02 0.0 
0.0 0.0 -1.548587713630e+02 
-1.555956836981e+02 6.557868898694e-02 0.0 
6.557868898694e-02 -3.645892190626e+02 0.0 
0.0 0.0 -1.556554708282e+02 
-1.122142325521e+02 -1.598912055909e-01 0.0 
-1.598912055909e-01 -2.630769825530e+02 0.0 
0.0 0.0 -1.121873645315e+02 
-2.353912487911e+01 2.012229197608e-01 0.0 
2.012229197608e-01 -5.587003748272e+01 0.0 
0.0 0.0 -2.342274870855e+01 
-1.501128527858e+02 -3.897806322145e-02 0.0 
-3.897806322145e-02 -3.517661749482e+02 0.0 
0.0 0.0 -1.501637083202e+02 
-8.534717808884e+01 1.046364144058e-02 0.0 
1.046364144058e-02 -2.001000802848e+02 0.0 
0.0 0.0 -8.523417751208e+01 
-1.485627624495e+02 6.273182547524e-02 0.0 
6.273182547524e-02 -3.483400560630e+02 0.0 
0.0 0.0 -1.486708455538e+02 
-1.477921244273e+02 3.047286053453e-02 0.0 
3.047286053453e-02 -3.466474454721e+02 0.0 
0.0 0.0 -1.479318709698e+02 
-7.029302305812e+00 1.537034976658e-01 0.0 
1.537034976658e-01 -1.639523193532e+01 0.0 
0.0 0.0 -6.894439249447e+00 
-1.040492163017e+02 -7.669152950650e-02 0.0 
-7.669152950650e-02 -2.442510663299e+02 0.0 
0.0 0.0 -1.040900847895e+02 
-1.261967077593e+01 1.591764361171e-01 0.0 
1.591764361171e-01 -3.019449398335e+01 0.0 
0.0 0.0 -1.254580097729e+01 
-1.554424888444e+02 7.614805827291e-02 0.0 
7.614805827291e-02 -3.642218785800e+02 0.0 
0.0 0.0 -1.554993102273e+02 
-8.879437753337e+01 5.329801065654e-02 0.0 
5.329801065654e-02 -2.085054131083e+02 0.0 
0.0 0.0 -8.878993719249e+01 
-3.690021899074e+00 -8.836201969754e-02 0.0 
-8.836201969754e-02 -8.143188963848e+00 0.0 
0.0 0.0 -3.372986509610e+00 
-4.814380443542e+00 2.435642002682e-02 0.0 
2.435642002682e-02 -1.043004832608e+01 0.0 
0.0 0.0 -4.277763524136e+00 
-1.179437527261e+01 2.706462920055e-02 0.0 
2.706462920055e-02 -2.772632833960e+01 0.0 
0.0 0.0 -1.146601310314e+01 
-1.208534717230e+01 2.517705051187e-02 0.0 
2.517705051187e-02 -2.890367755807e+01 0.0 
0.0 0.0 -1.189670741911e+01 
-2.016573887238e+01 6.500090240121e-02 0.0 
6.500090240121e-02 -4.735043129032e+01 0.0 
0.0 0.0 -1.985485104881e+01 
-2.081717832134e+01 2.721364665575e-02 0.0 
2.721364665575e-02 -4.965891489073e+01 0.0 
0.0 0.0 -2.074282796362e+01 
-2.848931176606e+01 6.391531008778e-02 0.0 
6.391531008778e-02 -6.687924121551e+01 0.0 
0.0 0.0 -2.821056589447e+01 
-2.862728001516e+01 9.007442327155e-03 0.0 
9.007442327155e-03 -6.815485258403e+01 0.0 
0.0 0.0 -2.863463977976e+01 
-3.699512335516e+01 1.095882059416e-01 0.0 
1.095882059416e-01 -8.656007424123e+01 0.0 
0.0 0.0 -3.666655927892e+01 
-3.749355626707e+01 1.103085094520e-02 0.0 
1.103085094520e-02 -8.887822631145e+01 0.0 
0.0 0.0 -3.751153477355e+01 
-4.552813861833e+01 7.308596172010e-02 0.0 
7.308596172010e-02 -1.062579472513e+02 0.0 
0.0 0.0 -4.513582576089e+01 
-4.540849820598e+01 1.544081764691e-02 0.0 
1.544081764691e-02 -1.073743269503e+02 0.0 
0.0 0.0 -4.543484754688e+01 
-5.374924341623e+01 1.422323746081e-01 0.0 
1.422323746081e-01 -1.258200048742e+02 0.0 
0.0 0.0 -5.347077448712e+01 
-5.429347916837e+01 1.626365849579e-02 0.0 
1.626365849579e-02 -1.280952427068e+02 0.0 
0.0 0.0 -5.431661656254e+01 
-6.216389912868e+01 1.397082751902e-01 0.0 
1.397082751902e-01 -1.454965292694e+02 0.0 
0.0 0.0 -6.189812851943e+01 
-6.221049195660e+01 1.763412488494e-02 0.0 
1.763412488494e-02 -1.466007134007e+02 0.0 
0.0 0.0 -6.224336160719e+01 
-7.054462427839e+01 1.507447295363e-01 0.0 
1.507447295363e-01 -1.651131893024e+02 0.0 
0.0 0.0 -7.029734407425e+01 
-7.111110571387e+01 -3.063773531288e-02 0.0 
-3.063773531288e-02 -1.673158106187e+02 0.0 
0.0 0.0 -7.112807489977e+01 
-7.896258590479e+01 1.374259524863e-01 0.0 
1.374259524863e-01 -1.848075644709e+02 0.0 
0.0 0.0 -7.873104511270e+01 
-7.887980844506e+01 -1.493804560690e-01 0.0 
-1.493804560690e-01 -1.857473185898e+02 0.0 
0.0 0.0 -7.898813811046e+01 

TENSORS node_materi_strain_total float
-5.748973293251e-06 1.414682369503e-06 0.0 
1.414682369503e-06 1.071080346680e-04 0.0 
0.0 0.0 0.0 
-7.015585307468e-06 -1.712647703901e-05 0.0 
-1.712647703901e-05 4.128515644220e-03 0.0 
0.0 0.0 0.0 
1.783902698227e-06 1.484643638663e-05 0.0 
1.484643638663e-05 8.185763278568e-03 0.0 
0.0 0.0 0.0 
1.260192355246e-06 -1.482533364720e-05 0.0 
-1.482533364720e-05 8.187560181465e-03 0.0 
0.0 0.0 0.0 
-1.393501749247e-05 -3.461935865062e-06 0.0 
-3.461935865062e-06 3.165265236040e-04 0.0 
0.0 0.0 0.0 
-1.128388268279e-05 1.399911854247e-05 0.0 
1.399911854247e-05 7.317669711614e-04 0.0 
0.0 0.0 0.0 
-2.463470697619e-06 1.454412754643e-05 0.0 
1.454412754643e-05 1.117764165723e-03 0.0 
0.0 0.0 0.0 
-7.600646837099e-07 1.444523814465e-05 0.0 
1.444523814465e-05 1.562193564079e-03 0.0 
0.0 0.0 0.0 
-2.870582995862e-06 1.072060823399e-05 0.0 
1.072060823399e-05 1.992444367748e-03 0.0 
0.0 0.0 0.0 
1.058568823672e-06 1.010562735934e-05 0.0 
1.010562735934e-05 2.414470574922e-03 0.0 
0.0 0.0 0.0 
2.067463215442e-06 1.114847827419e-05 0.0 
1.114847827419e-05 2.837553065215e-03 0.0 
0.0 0.0 0.0 
1.249273410867e-06 9.939576673913e-06 0.0 
9.939576673913e-06 3.261421527277e-03 0.0 
0.0 0.0 0.0 
1.383416852037e-06 9.914516484239e-06 0.0 
9.914516484239e-06 3.685243667535e-03 0.0 
0.0 0.0 0.0 
-1.707021042852e-06 1.265935119018e-05 0.0 
1.265935119018e-05 4.115014925970e-03 0.0 
0.0 0.0 0.0 
-7.307079486078e-06 1.906518006949e-05 0.0 
1.906518006949e-05 4.557118412089e-03 0.0 
0.0 0.0 0.0 
-2.331794854908e-06 2.023928136119e-05 0.0 
2.023928136119e-05 4.981341067082e-03 0.0 
0.0 0.0 0.0 
3.071433124280e-06 2.638514284067e-05 0.0 
2.638514284067e-05 5.367534077064e-03 0.0 
0.0 0.0 0.0 
6.937270127239e-07 1.032175514795e-05 0.0 
1.032175514795e-05 5.796320886145e-03 0.0 
0.0 0.0 0.0 
7.983543554394e-07 9.808902464228e-06 0.0 
9.808902464228e-06 6.235568530672e-03 0.0 
0.0 0.0 0.0 
1.083354099466e-06 1.008023586874e-05 0.0 
1.008023586874e-05 6.661806158117e-03 0.0 
0.0 0.0 0.0 
1.212180672135e-07 9.292540831188e-06 0.0 
9.292540831188e-06 7.092340390408e-03 0.0 
0.0 0.0 0.0 
-1.255379638354e-06 1.154670086853e-05 0.0 
1.154670086853e-05 7.526812222115e-03 0.0 
0.0 0.0 0.0 
1.249303045755e-06 1.490047286182e-05 0.0 
1.490047286182e-05 7.940974127461e-03 0.0 
0.0 0.0 0.0 
2.705819783492e-06 -1.000356969378e-06 0.0 
-1.000356969378e-06 8.210337102841e-03 0.0 
0.0 0.0 0.0 
-7.681339894890e-07 -4.966404024103e-07 0.0 
-4.966404024103e-07 8.189333281120e-03 0.0 
0.0 0.0 0.0 
-3.673527061802e-07 -9.796783467304e-06 0.0 
-9.796783467304e-06 8.194739693213e-03 0.0 
0.0 0.0 0.0 
-1.449482003350e-06 4.537667701795e-06 0.0 
4.537667701795e-06 8.194382104889e-03 0.0 
0.0 0.0 0.0 
-1.543588896776e-06 -1.345280685867e-06 0.0 
-1.345280685867e-06 8.180358413704e-03 0.0 
0.0 0.0 0.0 
-8.980971603438e-08 9.203367036428e-08 0.0 
9.203367036428e-08 8.193109795715e-03 0.0 
0.0 0.0 0.0 
2.930926254511e-06 3.747395844656e-07 0.0 
3.747395844656e-07 8.195826878512e-03 0.0 
0.0 0.0 0.0 
-1.163401564826e-06 -1.529759323528e-06 0.0 
-1.529759323528e-06 8.189815581714e-03 0.0 
0.0 0.0 0.0 
4.689571300916e-07 -6.624599944148e-06 0.0 
-6.624599944148e-06 8.204141180894e-03 0.0 
0.0 0.0 0.0 
-6.368675821156e-07 4.107321481884e-06 0.0 
4.107321481884e-06 8.203079694460e-03 0.0 
0.0 0.0 0.0 
-8.649152014595e-07 -1.115750845435e-06 0.0 
-1.115750845435e-06 8.188990565378e-03 0.0 
0.0 0.0 0.0 
-6.953800000264e-07 -7.912855159580e-07 0.0 
-7.912855159580e-07 8.200653065109e-03 0.0 
0.0 0.0 0.0 
2.668657886599e-06 -6.226497339151e-08 0.0 
-6.226497339151e-08 8.207095546010e-03 0.0 
0.0 0.0 0.0 
-1.036014761572e-06 -4.670967668174e-07 0.0 
-4.670967668174e-07 8.200294624906e-03 0.0 
0.0 0.0 0.0 
1.484899711709e-06 -1.618680660595e-06 0.0 
-1.618680660595e-06 8.192923358250e-03 0.0 
0.0 0.0 0.0 
-1.847817407567e-06 1.514085554874e-06 0.0 
1.514085554874e-06 8.179039804265e-03 0.0 
0.0 0.0 0.0 
-2.158249353864e-06 -3.803385686623e-07 0.0 
-3.803385686623e-07 8.175498837291e-03 0.0 
0.0 0.0 0.0 
1.901988787134e-06 2.754028417473e-07 0.0 
2.754028417473e-07 8.187988209304e-03 0.0 
0.0 0.0 0.0 
4.109615033461e-08 -6.114266289433e-07 0.0 
-6.114266289433e-07 8.196972955087e-03 0.0 
0.0 0.0 0.0 
-8.181434555758e-08 -7.113306818918e-07 0.0 
-7.113306818918e-07 8.204681200055e-03 0.0 
0.0 0.0 0.0 
-4.136521328431e-07 2.641450611238e-06 0.0 
2.641450611238e-06 8.202320947217e-03 0.0 
0.0 0.0 0.0 
8.863702723646e-07 -9.950226978353e-08 0.0 
-9.950226978353e-08 8.197899934055e-03 0.0 
0.0 0.0 0.0 
-9.862332620939e-08 5.549052352241e-07 0.0 
5.549052352241e-07 8.197189740927e-03 0.0 
0.0 0.0 0.0 
-2.046160316368e-07 -1.916379360936e-07 0.0 
-1.916379360936e-07 8.195344173948e-03 0.0 
0.0 0.0 0.0 
-4.348997840742e-07 -1.506929239171e-07 0.0 
-1.506929239171e-07 8.199063077340e-03 0.0 
0.0 0.0 0.0 
1.591388240370e-06 -7.141700965417e-07 0.0 
-7.141700965417e-07 8.203324968319e-03 0.0 
0.0 0.0 0.0 
-1.379482220380e-06 -8.782372753134e-07 0.0 
-8.782372753134e-07 8.206360247011e-03 0.0 
0.0 0.0 0.0 
1.924712701070e-06 -7.046105382546e-07 0.0 
-7.046105382546e-07 8.207224895716e-03 0.0 
0.0 0.0 0.0 
-1.002385070984e-06 -9.349159788461e-07 0.0 
-9.349159788461e-07 8.203581334976e-03 0.0 
0.0 0.0 0.0 
4.380025851643e-07 -5.528330985191e-06 0.0 
-5.528330985191e-06 8.217617499443e-03 0.0 
0.0 0.0 0.0 
-1.157235066070e-06 5.173715705464e-06 0.0 
5.173715705464e-06 8.212963902370e-03 0.0 
0.0 0.0 0.0 
-1.918508535370e-07 1.560360980948e-06 0.0 
1.560360980948e-06 8.191004917710e-03 0.0 
0.0 0.0 0.0 
4.004020137671e-07 -1.354801550291e-07 0.0 
-1.354801550291e-07 8.189787049787e-03 0.0 
0.0 0.0 0.0 
1.496240886745e-07 -1.403128116425e-06 0.0 
-1.403128116425e-06 8.196670654487e-03 0.0 
0.0 0.0 0.0 
1.108652194641e-06 -4.423851125330e-07 0.0 
-4.423851125330e-07 8.198970749648e-03 0.0 
0.0 0.0 0.0 
-1.577656538632e-06 -1.775228296139e-06 0.0 
-1.775228296139e-06 8.200330994665e-03 0.0 
0.0 0.0 0.0 
1.825637792940e-06 -4.752659214388e-07 0.0 
-4.752659214388e-07 8.202614765293e-03 0.0 
0.0 0.0 0.0 
-1.278241416232e-06 -2.178155537062e-07 0.0 
-2.178155537062e-07 8.196574372528e-03 0.0 
0.0 0.0 0.0 
1.765358884779e-06 -1.178263824430e-06 0.0 
-1.178263824430e-06 8.190083479008e-03 0.0 
0.0 0.0 0.0 
-1.864843262922e-06 1.383641393137e-07 0.0 
1.383641393137e-07 8.181788780813e-03 0.0 
0.0 0.0 0.0 
-2.084588846540e-06 -2.445942977235e-06 0.0 
-2.445942977235e-06 8.189147351605e-03 0.0 
0.0 0.0 0.0 
1.147535339345e-06 1.500723944360e-06 0.0 
1.500723944360e-06 8.208532770434e-03 0.0 
0.0 0.0 0.0 
3.271729786869e-06 -1.744045978568e-06 0.0 
-1.744045978568e-06 8.214608607283e-03 0.0 
0.0 0.0 0.0 
-1.834764013470e-06 -1.788603907778e-06 0.0 
-1.788603907778e-06 8.159895570283e-03 0.0 
0.0 0.0 0.0 
2.788384286430e-06 4.865311724626e-07 0.0 
4.865311724626e-07 8.204689015581e-03 0.0 
0.0 0.0 0.0 
-1.893909423364e-06 1.939304364932e-08 0.0 
1.939304364932e-08 8.187033299322e-03 0.0 
0.0 0.0 0.0 
-1.111274915274e-06 -6.244790953193e-06 0.0 
-6.244790953193e-06 8.197112957399e-03 0.0 
0.0 0.0 0.0 
1.615801453377e-07 2.502614679797e-06 0.0 
2.502614679797e-06 8.211732633852e-03 0.0 
0.0 0.0 0.0 
-8.439901811874e-07 -1.500679460445e-07 0.0 
-1.500679460445e-07 8.209929263166e-03 0.0 
0.0 0.0 0.0 
2.851213004954e-07 -1.198794770367e-05 0.0 
-1.198794770367e-05 4.556065808494e-03 0.0 
0.0 0.0 0.0 
-3.838755906926e-06 -1.357358136697e-05 0.0 
-1.357358136697e-05 4.985503725437e-03 0.0 
0.0 0.0 0.0 
-2.476788578528e-06 -1.319893394565e-05 0.0 
-1.319893394565e-05 5.408340477087e-03 0.0 
0.0 0.0 0.0 
-2.063233835818e-06 -1.409011883242e-05 0.0 
-1.409011883242e-05 5.822932850592e-03 0.0 
0.0 0.0 0.0 
-2.115918014615e-06 -1.240706285504e-05 0.0 
-1.240706285504e-05 6.246504500260e-03 0.0 
0.0 0.0 0.0 
2.579047875558e-06 -1.360415556176e-05 0.0 
-1.360415556176e-05 6.669686902568e-03 0.0 
0.0 0.0 0.0 
1.548392565646e-06 -1.209802433214e-05 0.0 
-1.209802433214e-05 7.089999582853e-03 0.0 
0.0 0.0 0.0 
1.849269830156e-06 -1.393489106875e-05 0.0 
-1.393489106875e-05 7.506860286578e-03 0.0 
0.0 0.0 0.0 
2.675737583872e-06 -1.539043796970e-05 0.0 
-1.539043796970e-05 7.933938288703e-03 0.0 
0.0 0.0 0.0 
6.727509440613e-06 4.867546554140e-06 0.0 
4.867546554140e-06 6.029419989467e-05 0.0 
0.0 0.0 0.0 
2.070730753867e-05 -2.072717676549e-05 0.0 
-2.072717676549e-05 4.800410666794e-05 0.0 
0.0 0.0 0.0 
-1.251430945283e-06 -1.152841745039e-06 0.0 
-1.152841745039e-06 4.126052539502e-03 0.0 
0.0 0.0 0.0 
-8.627742916719e-06 -2.273268099389e-07 0.0 
-2.273268099389e-07 2.788735377971e-04 0.0 
0.0 0.0 0.0 
-1.025533366371e-06 -2.587474451180e-06 0.0 
-2.587474451180e-06 6.874878022018e-04 0.0 
0.0 0.0 0.0 
3.075117582463e-06 -3.810632376084e-08 0.0 
-3.810632376084e-08 1.116874075439e-03 0.0 
0.0 0.0 0.0 
2.769479401207e-06 1.133572066672e-06 0.0 
1.133572066672e-06 1.534024961741e-03 0.0 
0.0 0.0 0.0 
3.571184242910e-06 1.954014311957e-06 0.0 
1.954014311957e-06 1.961770496253e-03 0.0 
0.0 0.0 0.0 
6.641427859016e-06 -1.015782203486e-06 0.0 
-1.015782203486e-06 2.390982861724e-03 0.0 
0.0 0.0 0.0 
4.770048856049e-06 -2.146505477685e-07 0.0 
-2.146505477685e-07 2.818436705027e-03 0.0 
0.0 0.0 0.0 
4.189477880866e-06 -2.173238440435e-07 0.0 
-2.173238440435e-07 3.245860047056e-03 0.0 
0.0 0.0 0.0 
4.015132441732e-06 -6.995323199834e-07 0.0 
-6.995323199834e-07 3.673586418164e-03 0.0 
0.0 0.0 0.0 
-8.701962230989e-06 -1.851727157159e-05 0.0 
-1.851727157159e-05 2.948214026776e-04 0.0 
0.0 0.0 0.0 
-1.586795917466e-05 -2.742272128681e-05 0.0 
-2.742272128681e-05 7.188164072162e-04 0.0 
0.0 0.0 0.0 
-7.152899393931e-06 -2.286896877519e-05 0.0 
-2.286896877519e-05 1.137027962649e-03 0.0 
0.0 0.0 0.0 
-3.762040803240e-06 -3.050423463044e-05 0.0 
-3.050423463044e-05 1.559844547217e-03 0.0 
0.0 0.0 0.0 
-2.119135539047e-06 -2.497995380129e-05 0.0 
-2.497995380129e-05 1.984601697245e-03 0.0 
0.0 0.0 0.0 
-1.521874541444e-06 -3.115089909877e-05 0.0 
-3.115089909877e-05 2.410194528566e-03 0.0 
0.0 0.0 0.0 
-1.115814040803e-06 -2.534294281914e-05 0.0 
-2.534294281914e-05 2.836018697003e-03 0.0 
0.0 0.0 0.0 
-6.635833028346e-07 -3.052369364993e-05 0.0 
-3.052369364993e-05 3.261401452612e-03 0.0 
0.0 0.0 0.0 
7.052181520972e-07 -2.162377177392e-05 0.0 
-2.162377177392e-05 3.684021668500e-03 0.0 
0.0 0.0 0.0 
-1.033633876760e-06 8.360897095488e-06 0.0 
8.360897095488e-06 4.069344564538e-03 0.0 
0.0 0.0 0.0 
1.410672570275e-06 6.017450271713e-07 0.0 
6.017450271713e-07 4.094445551416e-03 0.0 
0.0 0.0 0.0 
-5.790622028915e-07 5.966605642729e-07 0.0 
5.966605642729e-07 4.096295795278e-03 0.0 
0.0 0.0 0.0 
-2.276662020018e-08 -1.162107683258e-06 0.0 
-1.162107683258e-06 4.090925340659e-03 0.0 
0.0 0.0 0.0 
2.331337038245e-06 6.147058039897e-07 0.0 
6.147058039897e-07 4.147349826472e-03 0.0 
0.0 0.0 0.0 
6.697607186634e-07 7.275123850782e-07 0.0 
7.275123850782e-07 4.097289260160e-03 0.0 
0.0 0.0 0.0 
3.339108539964e-06 -1.035526177744e-06 0.0 
-1.035526177744e-06 4.091839511633e-03 0.0 
0.0 0.0 0.0 
2.317283782508e-06 1.703973848712e-06 0.0 
1.703973848712e-06 4.096052261700e-03 0.0 
0.0 0.0 0.0 
-7.306532892049e-07 2.707983557988e-07 0.0 
2.707983557988e-07 4.106146280147e-03 0.0 
0.0 0.0 0.0 
-1.556324971175e-06 1.824255087308e-06 0.0 
1.824255087308e-06 4.104004140336e-03 0.0 
0.0 0.0 0.0 
8.186422246574e-07 9.669981671298e-07 0.0 
9.669981671298e-07 4.101024218761e-03 0.0 
0.0 0.0 0.0 
-2.389697707309e-07 3.947029024215e-07 0.0 
3.947029024215e-07 4.099197041847e-03 0.0 
0.0 0.0 0.0 
1.356112209731e-06 2.211598682890e-06 0.0 
2.211598682890e-06 4.099445189914e-03 0.0 
0.0 0.0 0.0 
6.519489988791e-07 3.053304391341e-06 0.0 
3.053304391341e-06 4.106004780749e-03 0.0 
0.0 0.0 0.0 
5.380087650201e-06 -5.248307815928e-06 0.0 
-5.248307815928e-06 9.490993000968e-05 0.0 
0.0 0.0 0.0 
-6.034443891097e-06 2.329800472699e-06 0.0 
2.329800472699e-06 1.043773619524e-04 0.0 
0.0 0.0 0.0 
5.518548011415e-06 4.224261642336e-06 0.0 
4.224261642336e-06 9.382126367748e-05 0.0 
0.0 0.0 0.0 
1.338868621259e-05 -1.165516048554e-05 0.0 
-1.165516048554e-05 9.039308678142e-05 0.0 
0.0 0.0 0.0 
1.474323280977e-06 -1.141041157307e-05 0.0 
-1.141041157307e-05 1.076207600955e-04 0.0 
0.0 0.0 0.0 
-3.068365569810e-06 -2.797165814419e-06 0.0 
-2.797165814419e-06 1.184941434274e-04 0.0 
0.0 0.0 0.0 
-8.992158747982e-07 6.543257623207e-07 0.0 
6.543257623207e-07 1.189402077285e-04 0.0 
0.0 0.0 0.0 
1.333214803223e-06 1.525021833991e-06 0.0 
1.525021833991e-06 1.170874698334e-04 0.0 
0.0 0.0 0.0 
1.669445102455e-06 6.937808213685e-07 0.0 
6.937808213685e-07 1.170420739253e-04 0.0 
0.0 0.0 0.0 
2.619680987433e-06 -1.298108152024e-06 0.0 
-1.298108152024e-06 1.166321502365e-04 0.0 
0.0 0.0 0.0 
2.500117023666e-06 -1.386736295590e-06 0.0 
-1.386736295590e-06 1.203637403075e-04 0.0 
0.0 0.0 0.0 
-1.361178177802e-05 1.223209486378e-07 0.0 
1.223209486378e-07 1.311778107785e-04 0.0 
0.0 0.0 0.0 
-7.110066751692e-06 6.235962586690e-06 0.0 
6.235962586690e-06 1.240283514793e-04 0.0 
0.0 0.0 0.0 
8.594432299169e-06 -6.901667329806e-07 0.0 
-6.901667329806e-07 1.108561985392e-04 0.0 
0.0 0.0 0.0 
7.881106959114e-06 -4.605659517173e-06 0.0 
-4.605659517173e-06 1.107029683003e-04 0.0 
0.0 0.0 0.0 
-1.376470460834e-06 -1.184229954250e-06 0.0 
-1.184229954250e-06 1.172799575411e-04 0.0 
0.0 0.0 0.0 
-4.308271937092e-06 3.262069509027e-06 0.0 
3.262069509027e-06 1.184297341584e-04 0.0 
0.0 0.0 0.0 
5.356152111317e-06 9.223473230596e-06 0.0 
9.223473230596e-06 1.056949704294e-04 0.0 
0.0 0.0 0.0 
6.347090863186e-06 1.114655257094e-05 0.0 
1.114655257094e-05 9.545208880894e-05 0.0 
0.0 0.0 0.0 
8.624541884735e-06 8.533105322125e-06 0.0 
8.533105322125e-06 2.635016007043e-05 0.0 
0.0 0.0 0.0 
-1.080443807230e-05 5.819061612339e-06 0.0 
5.819061612339e-06 1.137632184011e-04 0.0 
0.0 0.0 0.0 
-1.445501079607e-05 1.139032908227e-05 0.0 
1.139032908227e-05 1.523003329789e-04 0.0 
0.0 0.0 0.0 
1.996612858823e-06 3.924367969419e-06 0.0 
3.924367969419e-06 1.493898647784e-04 0.0 
0.0 0.0 0.0 
-8.199561742176e-07 9.753961817758e-07 0.0 
9.753961817758e-07 1.520282030428e-04 0.0 
0.0 0.0 0.0 
2.350289552533e-06 3.958428892007e-07 0.0 
3.958428892007e-07 1.515815776147e-04 0.0 
0.0 0.0 0.0 
1.526516411425e-06 -2.426177829176e-07 0.0 
-2.426177829176e-07 1.518359720349e-04 0.0 
0.0 0.0 0.0 
1.774330153766e-06 -2.929278380764e-07 0.0 
-2.929278380764e-07 1.519956496693e-04 0.0 
0.0 0.0 0.0 
1.101581763437e-06 -3.341274773391e-07 0.0 
-3.341274773391e-07 1.521742311356e-04 0.0 
0.0 0.0 0.0 
8.313960518554e-07 -2.972576292445e-07 0.0 
-2.972576292445e-07 1.523201548543e-04 0.0 
0.0 0.0 0.0 
4.989203913712e-07 -2.993610994980e-07 0.0 
-2.993610994980e-07 1.524476425951e-04 0.0 
0.0 0.0 0.0 
3.288841229724e-07 -2.929936918641e-07 0.0 
-2.929936918641e-07 1.525591574308e-04 0.0 
0.0 0.0 0.0 
1.871659692417e-07 -2.913017764807e-07 0.0 
-2.913017764807e-07 1.526495236962e-04 0.0 
0.0 0.0 0.0 
1.024578845839e-07 -2.790679972286e-07 0.0 
-2.790679972286e-07 1.527207385115e-04 0.0 
0.0 0.0 0.0 
4.615591209234e-08 -2.565736187031e-07 0.0 
-2.565736187031e-07 1.527694803150e-04 0.0 
0.0 0.0 0.0 
1.940152372093e-08 -2.179456070291e-07 0.0 
-2.179456070291e-07 1.527956568608e-04 0.0 
0.0 0.0 0.0 
1.650801724947e-08 -1.638814937671e-07 0.0 
-1.638814937671e-07 1.527979848469e-04 0.0 
0.0 0.0 0.0 
3.852485426966e-08 -9.471352586200e-08 0.0 
-9.471352586200e-08 1.527774659783e-04 0.0 
0.0 0.0 0.0 
8.590440581102e-08 -1.223203959292e-08 0.0 
-1.223203959292e-08 1.527353622864e-04 0.0 
0.0 0.0 0.0 
1.623631215401e-07 8.132451855628e-08 0.0 
8.132451855628e-08 1.526728373728e-04 0.0 
0.0 0.0 0.0 
2.749276974967e-07 1.828766098202e-07 0.0 
1.828766098202e-07 1.525888973523e-04 0.0 
0.0 0.0 0.0 
4.303963736888e-07 2.888482776677e-07 0.0 
2.888482776677e-07 1.524784539405e-04 0.0 
0.0 0.0 0.0 
6.250184458138e-07 3.908396174219e-07 0.0 
3.908396174219e-07 1.523299869024e-04 0.0 
0.0 0.0 0.0 
8.221528130884e-07 4.617059463890e-07 0.0 
4.617059463890e-07 1.521233579229e-04 0.0 
0.0 0.0 0.0 
8.981871887729e-07 4.229232629049e-07 0.0 
4.229232629049e-07 1.518275308202e-04 0.0 
0.0 0.0 0.0 
5.124377770634e-07 7.710851261132e-08 0.0 
7.710851261132e-08 1.513992178788e-04 0.0 
0.0 0.0 0.0 
-1.263264315154e-06 -9.390738891630e-07 0.0 
-9.390738891630e-07 1.508048105763e-04 0.0 
0.0 0.0 0.0 
-1.098517086040e-05 -4.828519011208e-06 0.0 
-4.828519011208e-06 1.500170590184e-04 0.0 
0.0 0.0 0.0 
-4.994870138386e-06 3.393704407211e-06 0.0 
3.393704407211e-06 1.049123715137e-04 0.0 
0.0 0.0 0.0 
-5.747798383397e-06 1.710164945299e-05 0.0 
1.710164945299e-05 2.922772038330e-04 0.0 
0.0 0.0 0.0 
-4.596279482424e-06 -1.170896655996e-07 0.0 
-1.170896655996e-07 3.084705675505e-04 0.0 
0.0 0.0 0.0 
1.403785152509e-06 -1.330780580339e-06 0.0 
-1.330780580339e-06 3.178112177084e-04 0.0 
0.0 0.0 0.0 
1.230503497633e-06 -8.565003769157e-07 0.0 
-8.565003769157e-07 3.200383352005e-04 0.0 
0.0 0.0 0.0 
8.057420688804e-07 -4.345537412035e-07 0.0 
-4.345537412035e-07 3.211311566095e-04 0.0 
0.0 0.0 0.0 
5.173026591162e-07 -2.185237589452e-07 0.0 
-2.185237589452e-07 3.217150574747e-04 0.0 
0.0 0.0 0.0 
3.082673202629e-07 -1.358834689306e-07 0.0 
-1.358834689306e-07 3.220406754220e-04 0.0 
0.0 0.0 0.0 
1.448539017993e-07 -1.208687615546e-07 0.0 
-1.208687615546e-07 3.222311039312e-04 0.0 
0.0 0.0 0.0 
1.217208358180e-08 -1.304918608877e-07 0.0 
-1.304918608877e-07 3.223488991336e-04 0.0 
0.0 0.0 0.0 
-9.609972079216e-08 -1.387968287024e-07 0.0 
-1.387968287024e-07 3.224253760746e-04 0.0 
0.0 0.0 0.0 
-1.813233577360e-07 -1.309013348023e-07 0.0 
-1.309013348023e-07 3.224755839202e-04 0.0 
0.0 0.0 0.0 
-2.408209210566e-07 -1.003685944555e-07 0.0 
-1.003685944555e-07 3.225067052472e-04 0.0 
0.0 0.0 0.0 
-2.685892555957e-07 -4.938718754007e-08 0.0 
-4.938718754007e-08 3.225219803064e-04 0.0 
0.0 0.0 0.0 
-2.596591578049e-07 1.303801975750e-08 0.0 
1.303801975750e-08 3.225221700730e-04 0.0 
0.0 0.0 0.0 
-2.110060238758e-07 7.468120720886e-08 0.0 
7.468120720886e-08 3.225066137698e-04 0.0 
0.0 0.0 0.0 
-1.255001938113e-07 1.233747157301e-07 0.0 
1.233747157301e-07 3.224772383787e-04 0.0 
0.0 0.0 0.0 
7.096905655738e-10 1.436000728706e-07 0.0 
1.436000728706e-07 3.224336142510e-04 0.0 
0.0 0.0 0.0 
1.536749373125e-07 1.271787871307e-07 0.0 
1.271787871307e-07 3.223830896961e-04 0.0 
0.0 0.0 0.0 
3.544492125362e-07 5.661037463343e-08 0.0 
5.661037463343e-08 3.223116389207e-04 0.0 
0.0 0.0 0.0 
5.608895129461e-07 -4.325060964259e-08 0.0 
-4.325060964259e-08 3.222544640781e-04 0.0 
0.0 0.0 0.0 
8.662038733324e-07 -2.256934361685e-07 0.0 
-2.256934361685e-07 3.221184221220e-04 0.0 
0.0 0.0 0.0 
1.056247792008e-06 -2.730096259591e-07 0.0 
-2.730096259591e-07 3.220275422481e-04 0.0 
0.0 0.0 0.0 
1.442541942417e-06 -3.631158530955e-07 0.0 
-3.631158530955e-07 3.215672779994e-04 0.0 
0.0 0.0 0.0 
1.479549464093e-06 4.301012384932e-07 0.0 
4.301012384932e-07 3.214441753701e-04 0.0 
0.0 0.0 0.0 
2.542385433624e-06 5.107103101758e-07 0.0 
5.107103101758e-07 3.202802205281e-04 0.0 
0.0 0.0 0.0 
3.474587047858e-06 2.652220414241e-06 0.0 
2.652220414241e-06 3.208243052942e-04 0.0 
0.0 0.0 0.0 
-2.466312310093e-06 -5.177803996129e-07 0.0 
-5.177803996129e-07 3.346485487669e-04 0.0 
0.0 0.0 0.0 
-5.790281179622e-06 9.141359311360e-08 0.0 
9.141359311360e-08 2.532656292205e-04 0.0 
0.0 0.0 0.0 
1.109047400079e-05 -5.229100491946e-07 0.0 
-5.229100491946e-07 6.418093080036e-04 0.0 
0.0 0.0 0.0 
2.980652115110e-06 -2.567939195920e-06 0.0 
-2.567939195920e-06 7.224666704935e-04 0.0 
0.0 0.0 0.0 
4.801113672478e-06 1.053186972495e-06 0.0 
1.053186972495e-06 7.021341248361e-04 0.0 
0.0 0.0 0.0 
3.294491248325e-08 -1.177729072706e-06 0.0 
-1.177729072706e-06 7.024998047573e-04 0.0 
0.0 0.0 0.0 
1.112057201473e-06 -2.639116701985e-07 0.0 
-2.639116701985e-07 7.040314380190e-04 0.0 
0.0 0.0 0.0 
1.343179313699e-07 -3.362104053977e-07 0.0 
-3.362104053977e-07 7.039614582137e-04 0.0 
0.0 0.0 0.0 
3.468678653196e-07 2.447685283989e-07 0.0 
2.447685283989e-07 7.042009775229e-04 0.0 
0.0 0.0 0.0 
4.697196385554e-08 3.834815797309e-07 0.0 
3.834815797309e-07 7.040790491470e-04 0.0 
0.0 0.0 0.0 
9.643041846511e-09 5.956433220448e-07 0.0 
5.956433220448e-07 7.040967337486e-04 0.0 
0.0 0.0 0.0 
-1.320558796943e-07 6.279708893672e-07 0.0 
6.279708893672e-07 7.040479463560e-04 0.0 
0.0 0.0 0.0 
-2.099609661503e-07 5.993878243054e-07 0.0 
5.993878243054e-07 7.040319460631e-04 0.0 
0.0 0.0 0.0 
-2.917119295565e-07 4.636838368594e-07 0.0 
4.636838368594e-07 7.040125326967e-04 0.0 
0.0 0.0 0.0 
-3.386466632671e-07 2.779176208139e-07 0.0 
2.779176208139e-07 7.040106634890e-04 0.0 
0.0 0.0 0.0 
-3.659808417248e-07 5.732902785233e-08 0.0 
5.732902785233e-08 7.040156307686e-04 0.0 
0.0 0.0 0.0 
-3.672877885534e-07 -1.589865665497e-07 0.0 
-1.589865665497e-07 7.040320391184e-04 0.0 
0.0 0.0 0.0 
-3.450658438246e-07 -3.441451018882e-07 0.0 
-3.441451018882e-07 7.040528251860e-04 0.0 
0.0 0.0 0.0 
-2.984428956743e-07 -4.823905083773e-07 0.0 
-4.823905083773e-07 7.040650826377e-04 0.0 
0.0 0.0 0.0 
-2.282652661704e-07 -5.795845550570e-07 0.0 
-5.795845550570e-07 7.040520199678e-04 0.0 
0.0 0.0 0.0 
-1.298572272860e-07 -6.540224426599e-07 0.0 
-6.540224426599e-07 7.039953782731e-04 0.0 
0.0 0.0 0.0 
9.848486748343e-09 -7.298517394717e-07 0.0 
-7.298517394717e-07 7.038651415573e-04 0.0 
0.0 0.0 0.0 
2.186538540783e-07 -8.257514063786e-07 0.0 
-8.257514063786e-07 7.036044759267e-04 0.0 
0.0 0.0 0.0 
5.465686963764e-07 -9.200331990537e-07 0.0 
-9.200331990537e-07 7.031074762056e-04 0.0 
0.0 0.0 0.0 
1.073327522971e-06 -8.347626989354e-07 0.0 
-8.347626989354e-07 7.021891914623e-04 0.0 
0.0 0.0 0.0 
1.907388211856e-06 2.377904970163e-07 0.0 
2.377904970163e-07 7.005787170393e-04 0.0 
0.0 0.0 0.0 
3.320849381520e-06 6.798895424204e-06 0.0 
6.798895424204e-06 6.984969899441e-04 0.0 
0.0 0.0 0.0 
-6.915073807609e-06 1.880501148066e-05 0.0 
1.880501148066e-05 7.107130509568e-04 0.0 
0.0 0.0 0.0 
1.554942295897e-05 7.877911868719e-07 0.0 
7.877911868719e-07 1.065438140022e-03 0.0 
0.0 0.0 0.0 
2.972132448027e-06 -3.072176329892e-06 0.0 
-3.072176329892e-06 1.148114369598e-03 0.0 
0.0 0.0 0.0 
1.236839176337e-06 4.699621722255e-07 0.0 
4.699621722255e-07 1.131211765652e-03 0.0 
0.0 0.0 0.0 
-7.543956725790e-07 -5.784293072443e-07 0.0 
-5.784293072443e-07 1.130168996065e-03 0.0 
0.0 0.0 0.0 
-6.292138687858e-08 3.634415770256e-07 0.0 
3.634415770256e-07 1.131332334366e-03 0.0 
0.0 0.0 0.0 
-3.380910613693e-07 3.473465125121e-07 0.0 
3.473465125121e-07 1.130626952457e-03 0.0 
0.0 0.0 0.0 
-1.941737089635e-07 5.907368055994e-07 0.0 
5.907368055994e-07 1.130786512036e-03 0.0 
0.0 0.0 0.0 
-3.099402262248e-07 6.466902599997e-07 0.0 
6.466902599997e-07 1.130554474229e-03 0.0 
0.0 0.0 0.0 
-2.719598669043e-07 6.738862388904e-07 0.0 
6.738862388904e-07 1.130479933705e-03 0.0 
0.0 0.0 0.0 
-3.033635471716e-07 5.754746733547e-07 0.0 
5.754746733547e-07 1.130350613242e-03 0.0 
0.0 0.0 0.0 
-2.901950087453e-07 4.100861844427e-07 0.0 
4.100861844427e-07 1.130288347519e-03 0.0 
0.0 0.0 0.0 
-3.024212648824e-07 1.829196340241e-07 0.0 
1.829196340241e-07 1.130253689005e-03 0.0 
0.0 0.0 0.0 
-3.251797270528e-07 -6.084338424768e-08 0.0 
-6.084338424768e-08 1.130276693824e-03 0.0 
0.0 0.0 0.0 
-3.605152833116e-07 -2.780607122015e-07 0.0 
-2.780607122015e-07 1.130337413637e-03 0.0 
0.0 0.0 0.0 
-3.794442921164e-07 -4.389562564278e-07 0.0 
-4.389562564278e-07 1.130406355823e-03 0.0 
0.0 0.0 0.0 
-3.729917121461e-07 -5.447410251513e-07 0.0 
-5.447410251513e-07 1.130450001645e-03 0.0 
0.0 0.0 0.0 
-3.370572200049e-07 -6.074350503526e-07 0.0 
-6.074350503526e-07 1.130445814039e-03 0.0 
0.0 0.0 0.0 
-2.608060852838e-07 -6.399875901299e-07 0.0 
-6.399875901299e-07 1.130366888101e-03 0.0 
0.0 0.0 0.0 
-1.232150391717e-07 -6.489600541174e-07 0.0 
-6.489600541174e-07 1.130174159722e-03 0.0 
0.0 0.0 0.0 
1.099902519249e-07 -6.185096474760e-07 0.0 
-6.185096474760e-07 1.129813544277e-03 0.0 
0.0 0.0 0.0 
4.743456819926e-07 -4.643657992213e-07 0.0 
-4.643657992213e-07 1.129234142948e-03 0.0 
0.0 0.0 0.0 
9.597806220156e-07 6.538588655032e-08 0.0 
6.538588655032e-08 1.128475227893e-03 0.0 
0.0 0.0 0.0 
1.228804165180e-06 1.507604622430e-06 0.0 
1.507604622430e-06 1.128109488077e-03 0.0 
0.0 0.0 0.0 
-2.940205340677e-07 3.894089269031e-06 0.0 
3.894089269031e-06 1.130912972964e-03 0.0 
0.0 0.0 0.0 
-5.553029658563e-06 2.051345596438e-05 0.0 
2.051345596438e-05 1.135674293619e-03 0.0 
0.0 0.0 0.0 
-2.900947453768e-06 1.293833128864e-05 0.0 
1.293833128864e-05 1.558826310751e-03 0.0 
0.0 0.0 0.0 
-4.479114076861e-07 4.383027100641e-06 0.0 
4.383027100641e-06 1.556302134453e-03 0.0 
0.0 0.0 0.0 
2.964051197448e-07 7.455686637472e-07 0.0 
7.455686637472e-07 1.555501788245e-03 0.0 
0.0 0.0 0.0 
2.859612370602e-07 -9.173320900396e-08 0.0 
-9.173320900396e-08 1.555668865560e-03 0.0 
0.0 0.0 0.0 
6.394838919510e-08 -4.115682927113e-07 0.0 
-4.115682927113e-07 1.556060226564e-03 0.0 
0.0 0.0 0.0 
-1.622119892297e-07 -5.283615898255e-07 0.0 
-5.283615898255e-07 1.556401186907e-03 0.0 
0.0 0.0 0.0 
-3.251118673719e-07 -5.718198816201e-07 0.0 
-5.718198816201e-07 1.556614426061e-03 0.0 
0.0 0.0 0.0 
-4.130189974472e-07 -5.763915872015e-07 0.0 
-5.763915872015e-07 1.556704259005e-03 0.0 
0.0 0.0 0.0 
-4.506513038109e-07 -5.482287673321e-07 0.0 
-5.482287673321e-07 1.556706563881e-03 0.0 
0.0 0.0 0.0 
-4.542540579059e-07 -4.848326095225e-07 0.0 
-4.848326095225e-07 1.556648185485e-03 0.0 
0.0 0.0 0.0 
-4.295669351340e-07 -3.831155393674e-07 0.0 
-3.831155393674e-07 1.556549800071e-03 0.0 
0.0 0.0 0.0 
-3.662192476310e-07 -2.285453039329e-07 0.0 
-2.285453039329e-07 1.556423508092e-03 0.0 
0.0 0.0 0.0 
-2.965088458836e-07 7.604184177128e-09 0.0 
7.604184177128e-09 1.556344810404e-03 0.0 
0.0 0.0 0.0 
-2.920548182924e-07 2.519519242971e-07 0.0 
2.519519242971e-07 1.556358812351e-03 0.0 
0.0 0.0 0.0 
-3.600307892926e-07 4.794774065551e-07 0.0 
4.794774065551e-07 1.556513551247e-03 0.0 
0.0 0.0 0.0 
-4.436125781530e-07 5.282244872415e-07 0.0 
5.282244872415e-07 1.556635371863e-03 0.0 
0.0 0.0 0.0 
-4.667532085278e-07 6.500024589588e-07 0.0 
6.500024589588e-07 1.556933408168e-03 0.0 
0.0 0.0 0.0 
-5.269924389650e-07 3.787317617737e-07 0.0 
3.787317617737e-07 1.556906071086e-03 0.0 
0.0 0.0 0.0 
-3.551377758352e-07 6.350979126090e-07 0.0 
6.350979126090e-07 1.557442402488e-03 0.0 
0.0 0.0 0.0 
-5.380303115254e-07 -5.212746792733e-08 0.0 
-5.212746792733e-08 1.556526626440e-03 0.0 
0.0 0.0 0.0 
9.289684902806e-07 1.636501464559e-06 0.0 
1.636501464559e-06 1.557845189113e-03 0.0 
0.0 0.0 0.0 
2.490352429179e-06 -1.858621632315e-06 0.0 
-1.858621632315e-06 1.576767491853e-03 0.0 
0.0 0.0 0.0 
1.352642111565e-05 1.105980304839e-06 0.0 
1.105980304839e-06 1.494335043448e-03 0.0 
0.0 0.0 0.0 
1.397069357976e-05 3.145412072322e-06 0.0 
3.145412072322e-06 1.920641175223e-03 0.0 
0.0 0.0 0.0 
3.844160075563e-06 -1.419302321137e-06 0.0 
-1.419302321137e-06 2.002136371976e-03 0.0 
0.0 0.0 0.0 
9.001850033904e-07 1.217291898903e-06 0.0 
1.217291898903e-06 1.984297137274e-03 0.0 
0.0 0.0 0.0 
-8.168141517051e-07 -8.904865376179e-08 0.0 
-8.904865376179e-08 1.982932939205e-03 0.0 
0.0 0.0 0.0 
-5.953487720774e-07 5.498547264545e-07 0.0 
5.498547264545e-07 1.983910116976e-03 0.0 
0.0 0.0 0.0 
-8.675190606248e-07 4.436436507355e-07 0.0 
4.436436507355e-07 1.983177078308e-03 0.0 
0.0 0.0 0.0 
-5.890827651604e-07 6.050220674546e-07 0.0 
6.050220674546e-07 1.983135254787e-03 0.0 
0.0 0.0 0.0 
-4.309030208020e-07 4.364224075881e-07 0.0 
4.364224075881e-07 1.982704614571e-03 0.0 
0.0 0.0 0.0 
-2.953379157529e-07 1.540339965498e-07 0.0 
1.540339965498e-07 1.982615786566e-03 0.0 
0.0 0.0 0.0 
-4.061512767772e-07 -1.618872199679e-07 0.0 
-1.618872199679e-07 1.982700728677e-03 0.0 
0.0 0.0 0.0 
-5.192568672633e-07 -3.160444532613e-07 0.0 
-3.160444532613e-07 1.982906391279e-03 0.0 
0.0 0.0 0.0 
-5.409453500323e-07 -3.890489561351e-07 0.0 
-3.890489561351e-07 1.983024761773e-03 0.0 
0.0 0.0 0.0 
-5.234785912707e-07 -4.558626725553e-07 0.0 
-4.558626725553e-07 1.983103233677e-03 0.0 
0.0 0.0 0.0 
-5.064545756106e-07 -4.973144221312e-07 0.0 
-4.973144221312e-07 1.983152670944e-03 0.0 
0.0 0.0 0.0 
-4.683033769289e-07 -4.928951595632e-07 0.0 
-4.928951595632e-07 1.983133467972e-03 0.0 
0.0 0.0 0.0 
-3.519812543096e-07 -4.268720308280e-07 0.0 
-4.268720308280e-07 1.982994004755e-03 0.0 
0.0 0.0 0.0 
-1.523828336292e-07 -3.388238777677e-07 0.0 
-3.388238777677e-07 1.982725981790e-03 0.0 
0.0 0.0 0.0 
3.919843407270e-08 -2.151551668057e-07 0.0 
-2.151551668057e-07 1.982438477362e-03 0.0 
0.0 0.0 0.0 
9.193440096237e-08 -8.427608897626e-09 0.0 
-8.427608897626e-09 1.982324991888e-03 0.0 
0.0 0.0 0.0 
-2.565742745671e-07 2.048456104060e-07 0.0 
2.048456104060e-07 1.982714344619e-03 0.0 
0.0 0.0 0.0 
-1.176236591553e-06 -5.335017726743e-07 0.0 
-5.335017726743e-07 1.983690428321e-03 0.0 
0.0 0.0 0.0 
-1.905785334118e-06 1.681109087415e-05 0.0 
1.681109087415e-05 1.984441313761e-03 0.0 
0.0 0.0 0.0 
-1.342773051513e-06 1.136172320041e-05 0.0 
1.136172320041e-05 2.409937433905e-03 0.0 
0.0 0.0 0.0 
-6.004373256929e-07 2.497107307507e-06 0.0 
2.497107307507e-06 2.409094965502e-03 0.0 
0.0 0.0 0.0 
-1.032363350732e-07 -6.001633802462e-08 0.0 
-6.001633802462e-08 2.408674141986e-03 0.0 
0.0 0.0 0.0 
1.136106401548e-08 -1.538385591146e-07 0.0 
-1.538385591146e-07 2.408669749388e-03 0.0 
0.0 0.0 0.0 
-6.046182193797e-08 -1.869346435336e-07 0.0 
-1.869346435336e-07 2.408880966044e-03 0.0 
0.0 0.0 0.0 
-2.505460218183e-07 -2.221627284241e-07 0.0 
-2.221627284241e-07 2.409173289316e-03 0.0 
0.0 0.0 0.0 
-4.492050761917e-07 -3.405073438272e-07 0.0 
-3.405073438272e-07 2.409393681517e-03 0.0 
0.0 0.0 0.0 
-5.123046288302e-07 -4.368246358834e-07 0.0 
-4.368246358834e-07 2.409390974184e-03 0.0 
0.0 0.0 0.0 
-4.905240833704e-07 -4.040204788719e-07 0.0 
-4.040204788719e-07 2.409304066523e-03 0.0 
0.0 0.0 0.0 
-6.002597133792e-07 -3.045390941161e-07 0.0 
-3.045390941161e-07 2.409276620945e-03 0.0 
0.0 0.0 0.0 
-7.217410460762e-07 -2.768799986918e-07 0.0 
-2.768799986918e-07 2.409253500787e-03 0.0 
0.0 0.0 0.0 
-6.972211085698e-07 -3.115834023848e-07 0.0 
-3.115834023848e-07 2.409085132340e-03 0.0 
0.0 0.0 0.0 
-4.705379360037e-07 -1.733569225189e-07 0.0 
-1.733569225189e-07 2.408647966286e-03 0.0 
0.0 0.0 0.0 
-3.683062851737e-07 4.269454238058e-07 0.0 
4.269454238058e-07 2.408708083386e-03 0.0 
0.0 0.0 0.0 
-7.888052510063e-07 6.054522456146e-07 0.0 
6.054522456146e-07 2.408998581735e-03 0.0 
0.0 0.0 0.0 
-1.181791269400e-06 8.949208536416e-07 0.0 
8.949208536416e-07 2.410098355726e-03 0.0 
0.0 0.0 0.0 
-1.492390312626e-06 -2.124374939432e-07 0.0 
-2.124374939432e-07 2.409399612722e-03 0.0 
0.0 0.0 0.0 
6.078212100857e-07 1.298566086482e-06 0.0 
1.298566086482e-06 2.410173527671e-03 0.0 
0.0 0.0 0.0 
2.543464539000e-06 -1.758680561376e-06 0.0 
-1.758680561376e-06 2.429660206007e-03 0.0 
0.0 0.0 0.0 
1.369554821999e-05 2.300850317871e-07 0.0 
2.300850317871e-07 2.347279543200e-03 0.0 
0.0 0.0 0.0 
1.347029901420e-05 1.069355863321e-06 0.0 
1.069355863321e-06 2.772599474153e-03 0.0 
0.0 0.0 0.0 
1.914862488445e-06 -2.202013782529e-06 0.0 
-2.202013782529e-06 2.855851790222e-03 0.0 
0.0 0.0 0.0 
-7.798852923642e-07 1.556003287028e-06 0.0 
1.556003287028e-06 2.837855303158e-03 0.0 
0.0 0.0 0.0 
-1.874167498676e-06 9.023926380670e-07 0.0 
9.023926380670e-07 2.835549149396e-03 0.0 
0.0 0.0 0.0 
-4.971849768924e-07 1.126826463915e-06 0.0 
1.126826463915e-06 2.835319569086e-03 0.0 
0.0 0.0 0.0 
-6.477458570446e-07 -2.802461138895e-08 0.0 
-2.802461138895e-08 2.834609241440e-03 0.0 
0.0 0.0 0.0 
-9.757539248996e-07 -3.200468914883e-07 0.0 
-3.200468914883e-07 2.835565623006e-03 0.0 
0.0 0.0 0.0 
-1.007615391217e-06 -1.517077176641e-07 0.0 
-1.517077176641e-07 2.835856588816e-03 0.0 
0.0 0.0 0.0 
-8.723875515130e-07 2.552871568592e-08 0.0 
2.552871568592e-08 2.835825199055e-03 0.0 
0.0 0.0 0.0 
-4.527588269854e-07 -4.793222385512e-08 0.0 
-4.793222385512e-08 2.835578731378e-03 0.0 
0.0 0.0 0.0 
-3.385099888916e-07 -3.864209236788e-07 0.0 
-3.864209236788e-07 2.835696630269e-03 0.0 
0.0 0.0 0.0 
-5.442703063981e-07 -3.255123169452e-07 0.0 
-3.255123169452e-07 2.835977694824e-03 0.0 
0.0 0.0 0.0 
-2.385134840188e-07 -9.239543489513e-08 0.0 
-9.239543489513e-08 2.835745367460e-03 0.0 
0.0 0.0 0.0 
-5.287883501441e-09 -9.902227128897e-08 0.0 
-9.902227128897e-08 2.835362549047e-03 0.0 
0.0 0.0 0.0 
1.300456664022e-07 -2.198690465420e-07 0.0 
-2.198690465420e-07 2.835120704542e-03 0.0 
0.0 0.0 0.0 
6.803651595814e-08 -3.388969679019e-07 0.0 
-3.388969679019e-07 2.834989985538e-03 0.0 
0.0 0.0 0.0 
-1.021778987901e-07 -7.950797272943e-07 0.0 
-7.950797272943e-07 2.835141024645e-03 0.0 
0.0 0.0 0.0 
-8.126733629377e-07 -1.895345334413e-06 0.0 
-1.895345334413e-06 2.835809730683e-03 0.0 
0.0 0.0 0.0 
-1.122613069856e-06 1.606688804902e-05 0.0 
1.606688804902e-05 2.836133552545e-03 0.0 
0.0 0.0 0.0 
-1.708488359328e-06 1.094314660759e-05 0.0 
1.094314660759e-05 3.262731380119e-03 0.0 
0.0 0.0 0.0 
-1.404517756542e-07 9.638676169468e-07 0.0 
9.638676169468e-07 3.261131783333e-03 0.0 
0.0 0.0 0.0 
3.050973456838e-07 -6.203610294550e-07 0.0 
-6.203610294550e-07 3.260709342734e-03 0.0 
0.0 0.0 0.0 
1.483521177570e-07 -5.287133843225e-07 0.0 
-5.287133843225e-07 3.261137840614e-03 0.0 
0.0 0.0 0.0 
5.648227574540e-07 -1.774649752226e-07 0.0 
-1.774649752226e-07 3.261082976296e-03 0.0 
0.0 0.0 0.0 
1.996912997182e-07 8.449580559933e-08 0.0 
8.449580559933e-08 3.261559318346e-03 0.0 
0.0 0.0 0.0 
-3.675058377987e-08 2.679564051964e-07 0.0 
2.679564051964e-07 3.262150709952e-03 0.0 
0.0 0.0 0.0 
-3.470987842147e-07 -4.654193015709e-07 0.0 
-4.654193015709e-07 3.262114349721e-03 0.0 
0.0 0.0 0.0 
8.277894754845e-08 7.714834270107e-08 0.0 
7.714834270107e-08 3.261196305970e-03 0.0 
0.0 0.0 0.0 
-7.346797505914e-07 6.917506784160e-07 0.0 
6.917506784160e-07 3.261932850024e-03 0.0 
0.0 0.0 0.0 
-1.260381510844e-06 2.824436032325e-07 0.0 
2.824436032325e-07 3.262386824261e-03 0.0 
0.0 0.0 0.0 
-1.152190023353e-06 6.470691739018e-08 0.0 
6.470691739018e-08 3.262007442939e-03 0.0 
0.0 0.0 0.0 
-1.552103115384e-06 -1.165889120771e-07 0.0 
-1.165889120771e-07 3.261903377277e-03 0.0 
0.0 0.0 0.0 
-1.189208518123e-06 3.918274721464e-08 0.0 
3.918274721464e-08 3.259669814468e-03 0.0 
0.0 0.0 0.0 
-4.171721271392e-07 3.195093392546e-06 0.0 
3.195093392546e-06 3.262113211320e-03 0.0 
0.0 0.0 0.0 
6.670686321415e-07 -9.609428517334e-07 0.0 
-9.609428517334e-07 3.283821694145e-03 0.0 
0.0 0.0 0.0 
1.196175646969e-05 5.555931032724e-07 0.0 
5.555931032724e-07 3.201409083035e-03 0.0 
0.0 0.0 0.0 
1.131096243521e-05 2.259375758495e-06 0.0 
2.259375758495e-06 3.627101036064e-03 0.0 
0.0 0.0 0.0 
-1.401258496712e-06 -5.447674641157e-07 0.0 
-5.447674641157e-07 3.707803414228e-03 0.0 
0.0 0.0 0.0 
-2.491980055216e-06 1.613845652696e-06 0.0 
1.613845652696e-06 3.688842805511e-03 0.0 
0.0 0.0 0.0 
-7.231223831579e-07 1.424531106325e-06 0.0 
1.424531106325e-06 3.687669077441e-03 0.0 
0.0 0.0 0.0 
-9.626013831402e-07 3.121783784639e-07 0.0 
3.121783784639e-07 3.688623662343e-03 0.0 
0.0 0.0 0.0 
-1.034640804439e-06 1.076238395388e-06 0.0 
1.076238395388e-06 3.689267170794e-03 0.0 
0.0 0.0 0.0 
-4.884659739653e-07 1.477173242388e-06 0.0 
1.477173242388e-06 3.687661964227e-03 0.0 
0.0 0.0 0.0 
-2.978441558203e-07 -2.133214163994e-07 0.0 
-2.133214163994e-07 3.687582729216e-03 0.0 
0.0 0.0 0.0 
1.386718486947e-06 6.302445733101e-07 0.0 
6.302445733101e-07 3.688604121846e-03 0.0 
0.0 0.0 0.0 
6.411352425628e-07 -3.775796572995e-08 0.0 
-3.775796572995e-08 3.687857609434e-03 0.0 
0.0 0.0 0.0 
9.874732545360e-07 2.615565737694e-07 0.0 
2.615565737694e-07 3.687340093219e-03 0.0 
0.0 0.0 0.0 
1.099294243634e-06 -1.260236741981e-06 0.0 
-1.260236741981e-06 3.686963091514e-03 0.0 
0.0 0.0 0.0 
1.708384491650e-07 -5.434977494264e-07 0.0 
-5.434977494264e-07 3.687693342281e-03 0.0 
0.0 0.0 0.0 
5.821268360869e-07 -1.551994140533e-06 0.0 
-1.551994140533e-06 3.686050515100e-03 0.0 
0.0 0.0 0.0 
-4.979037836657e-07 -5.206525966745e-06 0.0 
-5.206525966745e-06 3.689200166488e-03 0.0 
0.0 0.0 0.0 
-3.404902533014e-06 1.712679337708e-05 0.0 
1.712679337708e-05 3.691922407246e-03 0.0 
0.0 0.0 0.0 
-3.662652081404e-06 5.655983577833e-06 0.0 
5.655983577833e-06 1.241118343011e-04 0.0 
0.0 0.0 0.0 
-4.788373464034e-07 -3.771482244145e-06 0.0 
-3.771482244145e-06 5.155774572563e-04 0.0 
0.0 0.0 0.0 
6.664280705430e-06 4.187587905141e-06 0.0 
4.187587905141e-06 9.431844081919e-04 0.0 
0.0 0.0 0.0 
9.113505423745e-06 6.035558275873e-06 0.0 
6.035558275873e-06 1.372249102095e-03 0.0 
0.0 0.0 0.0 
1.006761787042e-05 1.974161409201e-06 0.0 
1.974161409201e-06 1.790579158665e-03 0.0 
0.0 0.0 0.0 
1.306846570009e-05 4.458700625654e-06 0.0 
4.458700625654e-06 2.217817623338e-03 0.0 
0.0 0.0 0.0 
9.611201794287e-06 2.794136241741e-06 0.0 
2.794136241741e-06 2.644689420726e-03 0.0 
0.0 0.0 0.0 
9.848153349664e-06 4.096705754986e-06 0.0 
4.096705754986e-06 3.071605821041e-03 0.0 
0.0 0.0 0.0 
9.626631256680e-06 3.234687984075e-06 0.0 
3.234687984075e-06 3.498445935734e-03 0.0 
0.0 0.0 0.0 
9.853631651994e-06 3.605154529754e-06 0.0 
3.605154529754e-06 3.928423385354e-03 0.0 
0.0 0.0 0.0 
-6.655816837546e-06 -5.111497831824e-06 0.0 
-5.111497831824e-06 8.765213259944e-04 0.0 
0.0 0.0 0.0 
1.586882760640e-06 -2.330416571365e-06 0.0 
-2.330416571365e-06 8.014840701173e-03 0.0 
0.0 0.0 0.0 
7.629299462556e-07 -9.508353062213e-07 0.0 
-9.508353062213e-07 2.544021057782e-04 0.0 
0.0 0.0 0.0 
5.585362522413e-06 -8.366585686505e-06 0.0 
-8.366585686505e-06 2.366610643248e-04 0.0 
0.0 0.0 0.0 
7.495534154467e-08 3.025566970546e-06 0.0 
3.025566970546e-06 8.016299098419e-03 0.0 
0.0 0.0 0.0 
-4.049075041423e-06 3.435967593083e-06 0.0 
3.435967593083e-06 1.741126788141e-03 0.0 
0.0 0.0 0.0 
-3.780597799485e-06 -1.278388294851e-06 0.0 
-1.278388294851e-06 4.351651503497e-03 0.0 
0.0 0.0 0.0 
1.921441776322e-07 1.945553257770e-06 0.0 
1.945553257770e-06 8.001388299883e-03 0.0 
0.0 0.0 0.0 
-1.833899364534e-06 -5.128673595579e-06 0.0 
-5.128673595579e-06 2.555046982190e-03 0.0 
0.0 0.0 0.0 
7.227450149102e-07 6.302408818213e-07 0.0 
6.302408818213e-07 8.020657616365e-03 0.0 
0.0 0.0 0.0 
-2.214837457326e-06 2.977458257152e-07 0.0 
2.977458257152e-07 3.426981288207e-03 0.0 
0.0 0.0 0.0 
3.956535398975e-06 1.754967111233e-06 0.0 
1.754967111233e-06 8.043166400344e-03 0.0 
0.0 0.0 0.0 
8.561629550689e-07 1.857526195203e-06 0.0 
1.857526195203e-06 2.412586544251e-04 0.0 
0.0 0.0 0.0 
-7.656182160476e-08 9.737205243653e-07 0.0 
9.737205243653e-07 8.023340723202e-03 0.0 
0.0 0.0 0.0 
-1.805976480307e-06 2.238295255259e-06 0.0 
2.238295255259e-06 4.294485934815e-03 0.0 
0.0 0.0 0.0 
2.180251121013e-06 1.142683198595e-06 0.0 
1.142683198595e-06 2.645735062131e-03 0.0 
0.0 0.0 0.0 
-7.265801952951e-07 2.004585483302e-06 0.0 
2.004585483302e-06 5.516671946523e-03 0.0 
0.0 0.0 0.0 
1.744012098422e-06 -1.440175435587e-06 0.0 
-1.440175435587e-06 8.005057111939e-03 0.0 
0.0 0.0 0.0 
-1.207148114801e-07 2.617556176602e-06 0.0 
2.617556176602e-06 8.023415662692e-03 0.0 
0.0 0.0 0.0 
-1.684108758282e-06 -2.750959143262e-06 0.0 
-2.750959143262e-06 8.017881013155e-03 0.0 
0.0 0.0 0.0 
1.084090863587e-07 1.569204473099e-06 0.0 
1.569204473099e-06 7.982008950009e-03 0.0 
0.0 0.0 0.0 
-1.587116121970e-06 -3.393700741961e-06 0.0 
-3.393700741961e-06 8.030971260921e-03 0.0 
0.0 0.0 0.0 
6.020078769190e-07 1.601998489435e-06 0.0 
1.601998489435e-06 4.490442870504e-03 0.0 
0.0 0.0 0.0 
2.740592910759e-07 1.661674124515e-06 0.0 
1.661674124515e-06 4.492992062012e-03 0.0 
0.0 0.0 0.0 
1.116959900524e-06 -1.998939856271e-06 0.0 
-1.998939856271e-06 4.521763192175e-03 0.0 
0.0 0.0 0.0 
-6.723699080835e-07 -5.301686906795e-06 0.0 
-5.301686906795e-06 6.037093252540e-03 0.0 
0.0 0.0 0.0 
6.700056970714e-07 -1.774269773702e-06 0.0 
-1.774269773702e-06 8.018297104568e-03 0.0 
0.0 0.0 0.0 
4.880441210238e-06 -3.500748933549e-06 0.0 
-3.500748933549e-06 2.352981981921e-04 0.0 
0.0 0.0 0.0 
1.855264968968e-06 1.781123803885e-06 0.0 
1.781123803885e-06 2.609726107768e-04 0.0 
0.0 0.0 0.0 
4.940757491467e-07 -1.930958410368e-07 0.0 
-1.930958410368e-07 6.861833268978e-03 0.0 
0.0 0.0 0.0 
-2.369425148826e-06 2.908217964060e-06 0.0 
2.908217964060e-06 4.473042051378e-03 0.0 
0.0 0.0 0.0 
-3.137542599476e-06 2.261573318512e-07 0.0 
2.261573318512e-07 1.339120843057e-03 0.0 
0.0 0.0 0.0 
-1.621381504185e-06 8.024490661961e-07 0.0 
8.024490661961e-07 7.949047376354e-03 0.0 
0.0 0.0 0.0 
2.195975462582e-07 2.059421605158e-06 0.0 
2.059421605158e-06 8.041347885373e-03 0.0 
0.0 0.0 0.0 
-5.469657809824e-07 8.246000315194e-07 0.0 
8.246000315194e-07 8.022248672655e-03 0.0 
0.0 0.0 0.0 
-3.925673853766e-07 1.805622271672e-06 0.0 
1.805622271672e-06 7.985025375842e-03 0.0 
0.0 0.0 0.0 
-1.014238222204e-06 -2.654751749396e-06 0.0 
-2.654751749396e-06 8.028743404570e-03 0.0 
0.0 0.0 0.0 
1.491443059720e-06 2.735357415061e-08 0.0 
2.735357415061e-08 2.623858636628e-04 0.0 
0.0 0.0 0.0 
8.887529486986e-07 2.047232639350e-06 0.0 
2.047232639350e-06 4.477752346253e-03 0.0 
0.0 0.0 0.0 
-1.088230220000e-06 1.413690204913e-06 0.0 
1.413690204913e-06 7.951348850276e-03 0.0 
0.0 0.0 0.0 
-1.529241391018e-06 -4.636994788781e-06 0.0 
-4.636994788781e-06 6.871292881970e-03 0.0 
0.0 0.0 0.0 
-2.415816429790e-06 -2.931382536176e-06 0.0 
-2.931382536176e-06 2.623308614774e-04 0.0 
0.0 0.0 0.0 
6.536225211073e-07 -9.619796322262e-07 0.0 
-9.619796322262e-07 3.476172878168e-03 0.0 
0.0 0.0 0.0 
-2.388622130090e-06 -1.642986315355e-06 0.0 
-1.642986315355e-06 8.078801979980e-03 0.0 
0.0 0.0 0.0 
-4.375175541432e-06 -2.661872795924e-06 0.0 
-2.661872795924e-06 2.179762072499e-03 0.0 
0.0 0.0 0.0 
-3.003141066660e-06 -3.642359332366e-07 0.0 
-3.642359332366e-07 1.310640030600e-03 0.0 
0.0 0.0 0.0 
-2.797580519169e-06 -1.388706103195e-06 0.0 
-1.388706103195e-06 2.991827573617e-03 0.0 
0.0 0.0 0.0 
-1.235973830949e-06 -1.278163086216e-06 0.0 
-1.278163086216e-06 3.855283843879e-03 0.0 
0.0 0.0 0.0 
-1.715897948928e-05 1.938027602930e-06 0.0 
1.938027602930e-06 4.281955885746e-04 0.0 
0.0 0.0 0.0 
-1.993394445621e-07 -1.268805985143e-06 0.0 
-1.268805985143e-06 5.229639168896e-03 0.0 
0.0 0.0 0.0 
-1.265994913502e-06 -1.986477034160e-06 0.0 
-1.986477034160e-06 8.088912824705e-03 0.0 
0.0 0.0 0.0 
6.339983199322e-06 7.472415491080e-06 0.0 
7.472415491080e-06 2.399178917995e-04 0.0 
0.0 0.0 0.0 
3.068902142459e-06 -3.545935868526e-08 0.0 
-3.545935868526e-08 7.695982285332e-03 0.0 
0.0 0.0 0.0 
1.296717743426e-06 1.482189605278e-06 0.0 
1.482189605278e-06 4.494681274388e-03 0.0 
0.0 0.0 0.0 
5.510413580989e-08 6.155532470014e-07 0.0 
6.155532470014e-07 4.668324195736e-03 0.0 
0.0 0.0 0.0 
1.623152368513e-06 3.180459298400e-06 0.0 
3.180459298400e-06 4.870340553562e-03 0.0 
0.0 0.0 0.0 
-1.899386088300e-06 -1.351889017936e-06 0.0 
-1.351889017936e-06 5.071867146523e-03 0.0 
0.0 0.0 0.0 
-6.527007222664e-07 -9.059479234914e-08 0.0 
-9.059479234914e-08 5.293731707739e-03 0.0 
0.0 0.0 0.0 
-1.928590658451e-06 -1.224752297472e-06 0.0 
-1.224752297472e-06 5.474145439826e-03 0.0 
0.0 0.0 0.0 
-1.453844633440e-06 -1.180521019947e-06 0.0 
-1.180521019947e-06 5.252067212581e-03 0.0 
0.0 0.0 0.0 
-1.099666771938e-06 -1.443405250734e-06 0.0 
-1.443405250734e-06 5.655011808820e-03 0.0 
0.0 0.0 0.0 
-1.442170638873e-06 -9.211366554776e-07 0.0 
-9.211366554776e-07 5.430114854057e-03 0.0 
0.0 0.0 0.0 
1.151951517434e-06 -1.536423202436e-06 0.0 
-1.536423202436e-06 5.701173347397e-03 0.0 
0.0 0.0 0.0 
-9.505711265160e-07 -1.687207601495e-06 0.0 
-1.687207601495e-06 5.835007327234e-03 0.0 
0.0 0.0 0.0 
-1.170653028885e-06 -9.980990584783e-07 0.0 
-9.980990584783e-07 5.608178905313e-03 0.0 
0.0 0.0 0.0 
-6.933458564877e-07 -1.363546698791e-06 0.0 
-1.363546698791e-06 6.014074169449e-03 0.0 
0.0 0.0 0.0 
-1.048230674446e-06 -1.067233243658e-06 0.0 
-1.067233243658e-06 5.786636536121e-03 0.0 
0.0 0.0 0.0 
-1.320573209322e-06 -5.441283055791e-07 0.0 
-5.441283055791e-07 5.383423526143e-03 0.0 
0.0 0.0 0.0 
-1.279324094550e-06 -4.653069641418e-07 0.0 
-4.653069641418e-07 5.560824784161e-03 0.0 
0.0 0.0 0.0 
-1.078263006715e-06 -8.801756606608e-08 0.0 
-8.801756606608e-08 5.158504692446e-03 0.0 
0.0 0.0 0.0 
-1.135321600472e-06 -1.977218559982e-07 0.0 
-1.977218559982e-07 5.335355351247e-03 0.0 
0.0 0.0 0.0 
-1.159776471804e-06 -3.106538850653e-07 0.0 
-3.106538850653e-07 5.738565981266e-03 0.0 
0.0 0.0 0.0 
-9.797495768941e-07 -4.398414829604e-07 0.0 
-4.398414829604e-07 5.512227004988e-03 0.0 
0.0 0.0 0.0 
-1.036148577827e-06 -1.279658999512e-07 0.0 
-1.279658999512e-07 5.109325332454e-03 0.0 
0.0 0.0 0.0 
-7.899190761681e-07 -2.323799622694e-07 0.0 
-2.323799622694e-07 5.285359439849e-03 0.0 
0.0 0.0 0.0 
-8.157216021913e-07 1.353992308229e-07 0.0 
1.353992308229e-07 4.883563104075e-03 0.0 
0.0 0.0 0.0 
-5.155724203306e-07 -6.491976792854e-08 0.0 
-6.491976792854e-08 5.059165963756e-03 0.0 
0.0 0.0 0.0 
-6.770590345040e-07 1.289614912604e-07 0.0 
1.289614912604e-07 4.656950882406e-03 0.0 
0.0 0.0 0.0 
-3.347006045096e-07 -3.879910777731e-08 0.0 
-3.879910777731e-08 4.832814110635e-03 0.0 
0.0 0.0 0.0 
-1.536245823515e-07 -2.241969045115e-07 0.0 
-2.241969045115e-07 5.235547072079e-03 0.0 
0.0 0.0 0.0 
-1.286896676074e-07 -4.389845156900e-09 0.0 
-4.389845156900e-09 5.008745798186e-03 0.0 
0.0 0.0 0.0 
-1.702805420926e-07 1.530373613264e-07 0.0 
1.530373613264e-07 4.606422868642e-03 0.0 
0.0 0.0 0.0 
-8.374586764800e-08 1.457928365582e-07 0.0 
1.457928365582e-07 4.782022220484e-03 0.0 
0.0 0.0 0.0 
-8.832997224391e-08 2.880263615630e-07 0.0 
2.880263615630e-07 4.380020622495e-03 0.0 
0.0 0.0 0.0 
5.485063207337e-08 3.271004247331e-07 0.0 
3.271004247331e-07 4.554427059531e-03 0.0 
0.0 0.0 0.0 
2.848798484149e-08 2.020786697862e-07 0.0 
2.020786697862e-07 4.957794117809e-03 0.0 
0.0 0.0 0.0 
5.098622981222e-08 6.432510806228e-08 0.0 
6.432510806228e-08 4.730047668169e-03 0.0 
0.0 0.0 0.0 
9.047762557686e-08 3.597468133753e-08 0.0 
3.597468133753e-08 4.324761051301e-03 0.0 
0.0 0.0 0.0 
-1.175630928903e-07 -2.000311554813e-07 0.0 
-2.000311554813e-07 4.501689431510e-03 0.0 
0.0 0.0 0.0 
-1.840335043801e-07 -5.986341281074e-07 0.0 
-5.986341281074e-07 4.094466493801e-03 0.0 
0.0 0.0 0.0 
-2.745333579727e-07 -1.772896376003e-07 0.0 
-1.772896376003e-07 4.273404806798e-03 0.0 
0.0 0.0 0.0 
-2.795071783468e-07 -5.769184924624e-07 0.0 
-5.769184924624e-07 3.863798523602e-03 0.0 
0.0 0.0 0.0 
-3.337353378837e-07 -1.832218569629e-07 0.0 
-1.832218569629e-07 4.042780449325e-03 0.0 
0.0 0.0 0.0 
-3.299617066059e-07 -2.501380876497e-07 0.0 
-2.501380876497e-07 4.451673775716e-03 0.0 
0.0 0.0 0.0 
-4.019331354595e-07 -4.319346849241e-07 0.0 
-4.319346849241e-07 4.221608283799e-03 0.0 
0.0 0.0 0.0 
-4.282830471936e-07 -4.414497639336e-07 0.0 
-4.414497639336e-07 3.811002433913e-03 0.0 
0.0 0.0 0.0 
-3.669586439159e-07 -5.392423342446e-07 0.0 
-5.392423342446e-07 3.989423089568e-03 0.0 
0.0 0.0 0.0 
-2.750523788360e-07 -5.779549347718e-07 0.0 
-5.779549347718e-07 4.400973041771e-03 0.0 
0.0 0.0 0.0 
-2.975814298497e-07 -5.957940353902e-07 0.0 
-5.957940353902e-07 4.168199516792e-03 0.0 
0.0 0.0 0.0 
-1.991853213849e-07 -6.212058419614e-07 0.0 
-6.212058419614e-07 4.580602650324e-03 0.0 
0.0 0.0 0.0 
-2.918185235494e-07 -5.005125670804e-07 0.0 
-5.005125670804e-07 4.347552231750e-03 0.0 
0.0 0.0 0.0 
-3.669265546587e-07 -5.655564006808e-07 0.0 
-5.655564006808e-07 3.936823372390e-03 0.0 
0.0 0.0 0.0 
-3.835241002004e-07 -3.286515630509e-07 0.0 
-3.286515630509e-07 4.115308428183e-03 0.0 
0.0 0.0 0.0 
-2.728818478589e-07 -3.570310335563e-07 0.0 
-3.570310335563e-07 4.526757141644e-03 0.0 
0.0 0.0 0.0 
-4.110210580037e-07 -2.688121958237e-07 0.0 
-2.688121958237e-07 4.293000190877e-03 0.0 
0.0 0.0 0.0 
-5.453997282319e-07 -3.508159455169e-07 0.0 
-3.508159455169e-07 3.883320727116e-03 0.0 
0.0 0.0 0.0 
-4.442702848569e-07 7.513764801257e-08 0.0 
7.513764801257e-08 4.060774297573e-03 0.0 
0.0 0.0 0.0 
-4.171575219332e-07 -3.461663488171e-09 0.0 
-3.461663488171e-09 4.471861715457e-03 0.0 
0.0 0.0 0.0 
-3.351698334986e-07 3.112537506961e-07 0.0 
3.112537506961e-07 4.238694591933e-03 0.0 
0.0 0.0 0.0 
-4.266004829760e-07 2.781126074867e-07 0.0 
2.781126074867e-07 3.828913158022e-03 0.0 
0.0 0.0 0.0 
-2.737375983478e-07 5.559492975357e-07 0.0 
5.559492975357e-07 4.006368296446e-03 0.0 
0.0 0.0 0.0 
-2.075273486390e-07 4.190838773304e-07 0.0 
4.190838773304e-07 4.419456486957e-03 0.0 
0.0 0.0 0.0 
-1.064031696455e-07 3.995550656263e-07 0.0 
3.995550656263e-07 4.184538016592e-03 0.0 
0.0 0.0 0.0 
-8.733142823717e-08 6.637213228815e-07 0.0 
6.637213228815e-07 3.772853117178e-03 0.0 
0.0 0.0 0.0 
1.287347530243e-07 7.257367352165e-07 0.0 
7.257367352165e-07 3.949576308118e-03 0.0 
0.0 0.0 0.0 
7.487731323863e-08 3.901445251085e-07 0.0 
3.901445251085e-07 4.365213853165e-03 0.0 
0.0 0.0 0.0 
3.374436161977e-07 5.341609300530e-07 0.0 
5.341609300530e-07 4.127674133568e-03 0.0 
0.0 0.0 0.0 
2.274795821711e-07 2.717584320546e-07 0.0 
2.717584320546e-07 4.546537064701e-03 0.0 
0.0 0.0 0.0 
4.025686729525e-07 8.631557644343e-07 0.0 
8.631557644343e-07 3.710756491380e-03 0.0 
0.0 0.0 0.0 
5.964345632936e-07 4.623281633855e-07 0.0 
4.623281633855e-07 3.888709422547e-03 0.0 
0.0 0.0 0.0 
7.051512643056e-07 9.428143708342e-07 0.0 
9.428143708342e-07 3.469584258198e-03 0.0 
0.0 0.0 0.0 
9.209580965249e-07 3.062199859851e-07 0.0 
3.062199859851e-07 3.649278523073e-03 0.0 
0.0 0.0 0.0 
-4.444098711254e-08 1.865447563531e-07 0.0 
1.865447563531e-07 5.134531082309e-03 0.0 
0.0 0.0 0.0 
1.165807206327e-06 7.577224663705e-07 0.0 
7.577224663705e-07 3.228806782909e-03 0.0 
0.0 0.0 0.0 
7.533954569835e-07 1.320211721629e-06 0.0 
1.320211721629e-06 3.054443703432e-03 0.0 
0.0 0.0 0.0 
1.211594269616e-06 -4.966622964813e-08 0.0 
-4.966622964813e-08 3.410006074429e-03 0.0 
0.0 0.0 0.0 
8.264165848685e-07 -1.600626772865e-07 0.0 
-1.600626772865e-07 3.832755348249e-03 0.0 
0.0 0.0 0.0 
1.367449181333e-06 2.074910166513e-07 0.0 
2.074910166513e-07 2.987966515819e-03 0.0 
0.0 0.0 0.0 
1.394561534547e-06 -3.504538640795e-07 0.0 
-3.504538640795e-07 3.170668272722e-03 0.0 
0.0 0.0 0.0 
1.121780197400e-06 8.192214552942e-08 0.0 
8.192214552942e-08 2.748012530139e-03 0.0 
0.0 0.0 0.0 
-3.006069316062e-07 -6.350454239903e-07 0.0 
-6.350454239903e-07 3.677991469574e-03 0.0 
0.0 0.0 0.0 
-8.991816818719e-07 -6.448793674658e-07 0.0 
-6.448793674658e-07 5.916810829035e-03 0.0 
0.0 0.0 0.0 
1.182335269671e-06 -1.749583580986e-07 0.0 
-1.749583580986e-07 2.931822798195e-03 0.0 
0.0 0.0 0.0 
4.200509379400e-07 -5.619267024222e-07 0.0 
-5.619267024222e-07 2.508698191391e-03 0.0 
0.0 0.0 0.0 
7.127143189326e-07 1.265105566345e-07 0.0 
1.265105566345e-07 2.324854458727e-03 0.0 
0.0 0.0 0.0 
5.274271574300e-07 -5.204348829562e-07 0.0 
-5.204348829562e-07 2.085340405367e-03 0.0 
0.0 0.0 0.0 
2.810182409811e-06 -3.067118790302e-06 0.0 
-3.067118790302e-06 5.518736145542e-03 0.0 
0.0 0.0 0.0 
6.250171030731e-07 3.901297355269e-08 0.0 
3.901297355269e-08 5.930852684027e-03 0.0 
0.0 0.0 0.0 
1.234146769965e-06 -1.393834463545e-06 0.0 
-1.393834463545e-06 5.735248322205e-03 0.0 
0.0 0.0 0.0 
-1.697479942904e-07 -4.551274591868e-07 0.0 
-4.551274591868e-07 6.159767772851e-03 0.0 
0.0 0.0 0.0 
4.321387706008e-07 -1.502897305278e-06 0.0 
-1.502897305278e-06 5.971307930356e-03 0.0 
0.0 0.0 0.0 
4.139517157572e-07 -1.561637593176e-06 0.0 
-1.561637593176e-06 2.268823114363e-03 0.0 
0.0 0.0 0.0 
3.876829065182e-08 -1.226928968920e-06 0.0 
-1.226928968920e-06 6.245834168736e-03 0.0 
0.0 0.0 0.0 
2.671554076109e-08 4.308162051376e-07 0.0 
4.308162051376e-07 6.346205734802e-03 0.0 
0.0 0.0 0.0 
-1.053762934096e-06 2.378743617915e-07 0.0 
2.378743617915e-07 4.708991149562e-03 0.0 
0.0 0.0 0.0 
-1.642588679888e-07 3.020922598484e-07 0.0 
3.020922598484e-07 4.205187425418e-03 0.0 
0.0 0.0 0.0 
-1.572151576146e-07 -8.079771939515e-07 0.0 
-8.079771939515e-07 4.813899665799e-03 0.0 
0.0 0.0 0.0 
1.446044665158e-06 -9.873132755800e-07 0.0 
-9.873132755800e-07 3.354401202862e-03 0.0 
0.0 0.0 0.0 
1.329036500149e-06 -4.355827370076e-08 0.0 
-4.355827370076e-08 3.116667234877e-03 0.0 
0.0 0.0 0.0 
3.022862178903e-07 -1.888869227420e-06 0.0 
-1.888869227420e-06 3.539960776068e-03 0.0 
0.0 0.0 0.0 
5.976063011115e-08 8.994793810465e-08 0.0 
8.994793810465e-08 4.784204572475e-03 0.0 
0.0 0.0 0.0 
1.050046510483e-07 9.138499805366e-08 0.0 
9.138499805366e-08 4.966848187687e-03 0.0 
0.0 0.0 0.0 
5.496755376792e-08 2.535556638299e-09 0.0 
2.535556638299e-09 5.204730227090e-03 0.0 
0.0 0.0 0.0 
2.391792852663e-08 -4.938746281825e-09 0.0 
-4.938746281825e-09 5.387861565695e-03 0.0 
0.0 0.0 0.0 
5.465746695984e-08 -3.904711880237e-08 0.0 
-3.904711880237e-08 5.626041642298e-03 0.0 
0.0 0.0 0.0 
-2.948688780184e-08 4.200429165675e-08 0.0 
4.200429165675e-08 5.809488822951e-03 0.0 
0.0 0.0 0.0 
-1.097420661752e-08 -1.433085110838e-07 0.0 
-1.433085110838e-07 5.570952377257e-03 0.0 
0.0 0.0 0.0 
-1.613894624423e-07 -2.017561879631e-07 0.0 
-2.017561879631e-07 5.992904710277e-03 0.0 
0.0 0.0 0.0 
-4.055474830030e-08 -3.375869510970e-07 0.0 
-3.375869510970e-07 5.754076039730e-03 0.0 
0.0 0.0 0.0 
9.051840584492e-08 9.182253422621e-08 0.0 
9.182253422621e-08 6.047824803525e-03 0.0 
0.0 0.0 0.0 
3.573096957199e-08 -2.385165379916e-07 0.0 
-2.385165379916e-07 5.863428746411e-03 0.0 
0.0 0.0 0.0 
-1.621573608353e-07 -5.005721957136e-07 0.0 
-5.005721957136e-07 6.176089902657e-03 0.0 
0.0 0.0 0.0 
5.452140831400e-09 -3.620861705231e-07 0.0 
-3.620861705231e-07 5.937207713522e-03 0.0 
0.0 0.0 0.0 
1.151833015448e-07 -5.175728996304e-07 0.0 
-5.175728996304e-07 6.359352952199e-03 0.0 
0.0 0.0 0.0 
2.310313050498e-07 -4.354847309164e-07 0.0 
-4.354847309164e-07 6.120352352818e-03 0.0 
0.0 0.0 0.0 
3.758454889905e-08 -2.731555769675e-07 0.0 
-2.731555769675e-07 5.697581339596e-03 0.0 
0.0 0.0 0.0 
2.127043315370e-07 -2.169554317960e-07 0.0 
-2.169554317960e-07 5.880419983371e-03 0.0 
0.0 0.0 0.0 
-1.564586643762e-07 -4.496559421870e-07 0.0 
-4.496559421870e-07 5.459265727178e-03 0.0 
0.0 0.0 0.0 
-1.260511155269e-07 -7.998034139587e-07 0.0 
-7.998034139587e-07 4.994305108807e-03 0.0 
0.0 0.0 0.0 
-1.345269811659e-07 -8.991776675711e-07 0.0 
-8.991776675711e-07 5.228441238349e-03 0.0 
0.0 0.0 0.0 
-6.246149558686e-08 -8.247502965974e-07 0.0 
-8.247502965974e-07 5.409131104925e-03 0.0 
0.0 0.0 0.0 
-1.935260420990e-07 -9.654750465984e-07 0.0 
-9.654750465984e-07 5.643966355246e-03 0.0 
0.0 0.0 0.0 
-1.847635248501e-08 -9.249605437274e-07 0.0 
-9.249605437274e-07 5.825107222694e-03 0.0 
0.0 0.0 0.0 
-4.148069765268e-07 -1.065417558909e-06 0.0 
-1.065417558909e-06 6.060279250002e-03 0.0 
0.0 0.0 0.0 
-1.824888958094e-07 -9.706926124050e-07 0.0 
-9.706926124050e-07 6.241178054550e-03 0.0 
0.0 0.0 0.0 
1.581369655594e-07 -7.210762908468e-07 0.0 
-7.210762908468e-07 6.006316330536e-03 0.0 
0.0 0.0 0.0 
-9.390865387907e-07 -8.733572633241e-07 0.0 
-8.733572633241e-07 6.191645728060e-03 0.0 
0.0 0.0 0.0 
-4.558863269666e-07 -4.969515870141e-07 0.0 
-4.969515870141e-07 3.578811715595e-03 0.0 
0.0 0.0 0.0 
-5.057619513934e-07 -5.001670985061e-07 0.0 
-5.001670985061e-07 3.400585399483e-03 0.0 
0.0 0.0 0.0 
-6.622035678694e-07 -3.273864578534e-07 0.0 
-3.273864578534e-07 3.168938877566e-03 0.0 
0.0 0.0 0.0 
-7.465908843189e-07 -4.302032371417e-07 0.0 
-4.302032371417e-07 2.991145037173e-03 0.0 
0.0 0.0 0.0 
-1.013572292134e-06 -1.712908164314e-08 0.0 
-1.712908164314e-08 2.759580576128e-03 0.0 
0.0 0.0 0.0 
-1.213082822545e-06 -2.043838169545e-07 0.0 
-2.043838169545e-07 2.582754436326e-03 0.0 
0.0 0.0 0.0 
-1.687265804592e-06 4.067250150240e-07 0.0 
4.067250150240e-07 2.349626585497e-03 0.0 
0.0 0.0 0.0 
-1.020582528155e-06 5.705255039745e-07 0.0 
5.705255039745e-07 2.526889149330e-03 0.0 
0.0 0.0 0.0 
-1.661738549393e-06 1.228097615662e-06 0.0 
1.228097615662e-06 2.114862333984e-03 0.0 
0.0 0.0 0.0 
-5.403089824256e-07 8.679205057552e-07 0.0 
8.679205057552e-07 2.293152385945e-03 0.0 
0.0 0.0 0.0 
-1.326551026063e-06 1.381966565297e-06 0.0 
1.381966565297e-06 1.879198491496e-03 0.0 
0.0 0.0 0.0 
-1.109492915319e-07 1.058856840507e-06 0.0 
1.058856840507e-06 2.057592428112e-03 0.0 
0.0 0.0 0.0 
4.575157377025e-08 -1.695237488389e-07 0.0 
-1.695237488389e-07 5.412183417889e-03 0.0 
0.0 0.0 0.0 
-4.060503404809e-07 -9.211582725846e-07 0.0 
-9.211582725846e-07 5.878378811869e-03 0.0 
0.0 0.0 0.0 
-6.091904664422e-07 -5.545812958467e-07 0.0 
-5.545812958467e-07 6.295519159534e-03 0.0 
0.0 0.0 0.0 
-2.622563859781e-07 -5.771370861907e-07 0.0 
-5.771370861907e-07 6.110114517638e-03 0.0 
0.0 0.0 0.0 
4.939736690061e-08 -2.242775848853e-07 0.0 
-2.242775848853e-07 1.901759088964e-03 0.0 
0.0 0.0 0.0 
7.340864031831e-07 -4.860973703243e-07 0.0 
-4.860973703243e-07 6.303718355779e-03 0.0 
0.0 0.0 0.0 
1.622375359796e-07 -3.351122412748e-07 0.0 
-3.351122412748e-07 6.285896870788e-03 0.0 
0.0 0.0 0.0 
-4.978039406615e-08 -6.682623026995e-07 0.0 
-6.682623026995e-07 6.099236726469e-03 0.0 
0.0 0.0 0.0 
4.034313420368e-08 -2.791478779455e-07 0.0 
-2.791478779455e-07 6.423804328578e-03 0.0 
0.0 0.0 0.0 
3.185460724272e-07 -9.515504553605e-07 0.0 
-9.515504553605e-07 1.849539510631e-03 0.0 
0.0 0.0 0.0 
-1.918599212151e-06 -2.970847160673e-07 0.0 
-2.970847160673e-07 2.175688598606e-03 0.0 
0.0 0.0 0.0 
-1.172924418165e-06 -5.518345375434e-07 0.0 
-5.518345375434e-07 2.405769467083e-03 0.0 
0.0 0.0 0.0 
-2.016644760812e-07 -1.033664483236e-06 0.0 
-1.033664483236e-06 6.389207753398e-03 0.0 
0.0 0.0 0.0 
4.406894494694e-07 -1.399716327704e-06 0.0 
-1.399716327704e-06 6.200263241127e-03 0.0 
0.0 0.0 0.0 
2.542844334171e-07 -7.242805890840e-07 0.0 
-7.242805890840e-07 6.523899311973e-03 0.0 
0.0 0.0 0.0 
7.943371713726e-07 -9.364780026440e-07 0.0 
-9.364780026440e-07 2.031963630997e-03 0.0 
0.0 0.0 0.0 
-4.719102845163e-07 -4.729763690052e-07 0.0 
-4.729763690052e-07 6.415168941075e-03 0.0 
0.0 0.0 0.0 
-2.107221480807e-06 2.625615374962e-06 0.0 
2.625615374962e-06 1.703139181274e-03 0.0 
0.0 0.0 0.0 
7.852216333445e-07 1.486490711490e-07 0.0 
1.486490711490e-07 6.063545635839e-03 0.0 
0.0 0.0 0.0 
1.095166096180e-06 -3.276928157829e-07 0.0 
-3.276928157829e-07 6.486963727674e-03 0.0 
0.0 0.0 0.0 
9.043070919867e-08 -2.764822770076e-07 0.0 
-2.764822770076e-07 5.332920081174e-03 0.0 
0.0 0.0 0.0 
-2.424851121378e-07 1.040504671204e-07 0.0 
1.040504671204e-07 6.529768438306e-03 0.0 
0.0 0.0 0.0 
3.177600724028e-07 -3.169232658845e-07 0.0 
-3.169232658845e-07 6.339814921399e-03 0.0 
0.0 0.0 0.0 
-3.909267497678e-07 3.183402347454e-07 0.0 
3.183402347454e-07 2.474260580231e-03 0.0 
0.0 0.0 0.0 
-1.124419149049e-06 -7.398973047127e-07 0.0 
-7.398973047127e-07 2.239399721552e-03 0.0 
0.0 0.0 0.0 
-1.260602441544e-06 -4.122197897493e-08 0.0 
-4.122197897493e-08 1.831182109809e-03 0.0 
0.0 0.0 0.0 
-2.553671166379e-07 5.777311561102e-07 0.0 
5.777311561102e-07 2.017797728782e-03 0.0 
0.0 0.0 0.0 
-1.104055820711e-06 3.668048346908e-07 0.0 
3.668048346908e-07 2.423412782052e-03 0.0 
0.0 0.0 0.0 
3.346343104652e-07 1.924458164021e-06 0.0 
1.924458164021e-06 2.185008457509e-03 0.0 
0.0 0.0 0.0 
2.016686619736e-06 3.646363582639e-06 0.0 
3.646363582639e-06 1.773313946975e-03 0.0 
0.0 0.0 0.0 
1.046910324098e-06 1.679444336320e-06 0.0 
1.679444336320e-06 1.946085217426e-03 0.0 
0.0 0.0 0.0 
4.273895694758e-07 1.479587756219e-06 0.0 
1.479587756219e-06 2.362519910648e-03 0.0 
0.0 0.0 0.0 
7.097740959046e-07 1.172883350529e-06 0.0 
1.172883350529e-06 2.123126690425e-03 0.0 
0.0 0.0 0.0 
2.501302368674e-06 4.679159754408e-07 0.0 
4.679159754408e-07 1.703267167602e-03 0.0 
0.0 0.0 0.0 
5.774877082458e-07 4.199352764175e-07 0.0 
4.199352764175e-07 1.881200138553e-03 0.0 
0.0 0.0 0.0 
7.716818767323e-07 -7.019541210317e-07 0.0 
-7.019541210317e-07 6.726224970815e-03 0.0 
0.0 0.0 0.0 
-1.409891788318e-07 1.616557065367e-06 0.0 
1.616557065367e-06 1.465292224221e-03 0.0 
0.0 0.0 0.0 
-1.383021640026e-06 -2.649563017730e-07 0.0 
-2.649563017730e-07 4.982202471628e-03 0.0 
0.0 0.0 0.0 
3.486509530711e-07 -1.348901962214e-07 0.0 
-1.348901962214e-07 6.707962007856e-03 0.0 
0.0 0.0 0.0 
-6.760553639129e-07 -2.801849092680e-07 0.0 
-2.801849092680e-07 6.654048356878e-03 0.0 
0.0 0.0 0.0 
1.676460708588e-07 -1.040440697767e-06 0.0 
-1.040440697767e-06 6.619816066736e-03 0.0 
0.0 0.0 0.0 
2.656710011243e-07 -1.072387703949e-06 0.0 
-1.072387703949e-06 6.431097312882e-03 0.0 
0.0 0.0 0.0 
6.438312454097e-07 -3.166861912554e-07 0.0 
-3.166861912554e-07 6.009305137953e-03 0.0 
0.0 0.0 0.0 
-2.418300856603e-07 -4.384934539616e-07 0.0 
-4.384934539616e-07 6.242387178305e-03 0.0 
0.0 0.0 0.0 
-3.297104843777e-07 -1.224993892840e-06 0.0 
-1.224993892840e-06 6.664249558375e-03 0.0 
0.0 0.0 0.0 
-7.357418715011e-07 -6.274490055637e-07 0.0 
-6.274490055637e-07 6.475207900709e-03 0.0 
0.0 0.0 0.0 
-7.821949638183e-07 -3.561611445136e-07 0.0 
-3.561611445136e-07 6.052628664699e-03 0.0 
0.0 0.0 0.0 
-5.308074568037e-07 -3.230483991897e-07 0.0 
-3.230483991897e-07 6.284584958772e-03 0.0 
0.0 0.0 0.0 
-1.370082594228e-07 -3.467843692919e-07 0.0 
-3.467843692919e-07 5.861012342916e-03 0.0 
0.0 0.0 0.0 
-2.152250939506e-07 1.196814008745e-08 0.0 
1.196814008745e-08 6.093395950769e-03 0.0 
0.0 0.0 0.0 
-1.016116900991e-07 -3.062114481911e-07 0.0 
-3.062114481911e-07 6.516923771831e-03 0.0 
0.0 0.0 0.0 
-2.240284659634e-07 -4.438125446303e-07 0.0 
-4.438125446303e-07 6.326620559237e-03 0.0 
0.0 0.0 0.0 
-7.663562727004e-07 4.326526878510e-07 0.0 
4.326526878510e-07 5.902961779568e-03 0.0 
0.0 0.0 0.0 
-4.717612248073e-07 -6.889253566479e-07 0.0 
-6.889253566479e-07 6.135720274702e-03 0.0 
0.0 0.0 0.0 
-1.223221034038e-06 6.482037756059e-08 0.0 
6.482037756059e-08 5.711305639712e-03 0.0 
0.0 0.0 0.0 
3.454902372709e-07 -1.471536811083e-06 0.0 
-1.471536811083e-06 5.941974648308e-03 0.0 
0.0 0.0 0.0 
2.133492140547e-07 -3.430288979674e-07 0.0 
-3.430288979674e-07 6.368877712320e-03 0.0 
0.0 0.0 0.0 
2.983518002986e-06 -1.498949753113e-07 0.0 
-1.498949753113e-07 1.623317759613e-03 0.0 
0.0 0.0 0.0 
1.165165458561e-08 -4.425727482913e-08 0.0 
-4.425727482913e-08 6.188300575856e-03 0.0 
0.0 0.0 0.0 
-5.385338499401e-07 1.215675842791e-06 0.0 
1.215675842791e-06 6.610260918126e-03 0.0 
0.0 0.0 0.0 
-1.267733521437e-06 -3.684116236459e-06 0.0 
-3.684116236459e-06 3.314795070527e-03 0.0 
0.0 0.0 0.0 
-8.001930272098e-08 -3.993750641251e-06 0.0 
-3.993750641251e-06 3.720671331265e-03 0.0 
0.0 0.0 0.0 
-3.105076569754e-07 1.748639570270e-07 0.0 
1.748639570270e-07 3.962143968669e-03 0.0 
0.0 0.0 0.0 
5.472344896303e-07 -4.645103111201e-07 0.0 
-4.645103111201e-07 4.149810369375e-03 0.0 
0.0 0.0 0.0 
7.722772616033e-07 -1.131297890467e-06 0.0 
-1.131297890467e-06 6.172884472265e-03 0.0 
0.0 0.0 0.0 
-8.504235369799e-07 6.222606012598e-07 0.0 
6.222606012598e-07 6.602779305190e-03 0.0 
0.0 0.0 0.0 
-1.559052338211e-06 -7.453954460555e-07 0.0 
-7.453954460555e-07 2.002832256444e-03 0.0 
0.0 0.0 0.0 
-8.525548098233e-07 -3.250349427672e-07 0.0 
-3.250349427672e-07 2.229915539585e-03 0.0 
0.0 0.0 0.0 
-1.134226838932e-07 -7.106943539107e-07 0.0 
-7.106943539107e-07 6.807711839470e-03 0.0 
0.0 0.0 0.0 
8.673201908708e-07 -1.428361188170e-08 0.0 
-1.428361188170e-08 6.248571375575e-03 0.0 
0.0 0.0 0.0 
4.346174584483e-07 7.244010800170e-07 0.0 
7.244010800170e-07 5.825395434078e-03 0.0 
0.0 0.0 0.0 
-7.462726880902e-08 3.103593596229e-07 0.0 
3.103593596229e-07 3.978938753713e-03 0.0 
0.0 0.0 0.0 
-1.983295380518e-07 5.658670796801e-07 0.0 
5.658670796801e-07 3.803957516209e-03 0.0 
0.0 0.0 0.0 
1.639763697418e-07 -9.045710580577e-08 0.0 
-9.045710580577e-08 3.576173888419e-03 0.0 
0.0 0.0 0.0 
-1.442435021426e-07 8.326335913470e-07 0.0 
8.326335913470e-07 3.395288052542e-03 0.0 
0.0 0.0 0.0 
-8.493829401675e-07 1.582742572667e-06 0.0 
1.582742572667e-06 3.628999796828e-03 0.0 
0.0 0.0 0.0 
4.592922085248e-07 -1.347333556201e-06 0.0 
-1.347333556201e-06 3.162301080162e-03 0.0 
0.0 0.0 0.0 
-9.546577326806e-08 -3.597025211836e-07 0.0 
-3.597025211836e-07 5.674825486689e-03 0.0 
0.0 0.0 0.0 
4.497037224086e-09 -8.623754281847e-07 0.0 
-8.623754281847e-07 6.750551633626e-03 0.0 
0.0 0.0 0.0 
5.108756731727e-07 1.372177175106e-06 0.0 
1.372177175106e-06 2.143209713747e-03 0.0 
0.0 0.0 0.0 
3.040935167194e-07 1.040094187431e-06 0.0 
1.040094187431e-06 1.721017006238e-03 0.0 
0.0 0.0 0.0 
1.719331087132e-07 -2.392884188555e-07 0.0 
-2.392884188555e-07 6.672693743413e-03 0.0 
0.0 0.0 0.0 
3.949484905785e-09 -2.295410722657e-07 0.0 
-2.295410722657e-07 5.769968805542e-03 0.0 
0.0 0.0 0.0 
9.919604001170e-08 -4.613252983172e-07 0.0 
-4.613252983172e-07 5.639877882638e-03 0.0 
0.0 0.0 0.0 
2.732665430975e-07 -3.116301517880e-07 0.0 
-3.116301517880e-07 5.817767072057e-03 0.0 
0.0 0.0 0.0 
2.553585031576e-07 -6.303838926193e-07 0.0 
-6.303838926193e-07 6.047248721570e-03 0.0 
0.0 0.0 0.0 
5.044748117392e-07 -2.125560626834e-07 0.0 
-2.125560626834e-07 6.226080006746e-03 0.0 
0.0 0.0 0.0 
2.129808727158e-07 -7.696672410126e-07 0.0 
-7.696672410126e-07 6.457249249774e-03 0.0 
0.0 0.0 0.0 
1.358066308484e-07 -4.069247372835e-07 0.0 
-4.069247372835e-07 6.635494977064e-03 0.0 
0.0 0.0 0.0 
2.585488270886e-07 1.056953736536e-07 0.0 
1.056953736536e-07 6.406394777051e-03 0.0 
0.0 0.0 0.0 
1.254199471205e-06 1.102247968092e-06 0.0 
1.102247968092e-06 6.761719173465e-03 0.0 
0.0 0.0 0.0 
-4.499876164836e-07 -5.275366619044e-07 0.0 
-5.275366619044e-07 6.816964513075e-03 0.0 
0.0 0.0 0.0 
3.066747072326e-06 1.164617269628e-06 0.0 
1.164617269628e-06 5.740431758789e-03 0.0 
0.0 0.0 0.0 
-2.294079080034e-07 -3.020156576358e-07 0.0 
-3.020156576358e-07 5.691212636077e-03 0.0 
0.0 0.0 0.0 
2.652823866134e-07 1.312282824485e-06 0.0 
1.312282824485e-06 2.542622509674e-03 0.0 
0.0 0.0 0.0 
-9.003488499748e-07 -2.710830020458e-06 0.0 
-2.710830020458e-06 1.436773118971e-03 0.0 
0.0 0.0 0.0 
-8.242921946862e-07 3.009398174636e-07 0.0 
3.009398174636e-07 1.451260608731e-03 0.0 
0.0 0.0 0.0 
1.353565945716e-06 1.005102684390e-06 0.0 
1.005102684390e-06 1.789683582886e-03 0.0 
0.0 0.0 0.0 
9.833197052907e-07 5.232989721559e-07 0.0 
5.232989721559e-07 2.214099958276e-03 0.0 
0.0 0.0 0.0 
5.918962309170e-07 -3.868567750980e-07 0.0 
-3.868567750980e-07 6.947057279053e-03 0.0 
0.0 0.0 0.0 
-4.744400528556e-07 -7.556062829638e-07 0.0 
-7.556062829638e-07 6.868161659491e-03 0.0 
0.0 0.0 0.0 
-3.262233736478e-07 -7.415309168360e-07 0.0 
-7.415309168360e-07 6.685545650349e-03 0.0 
0.0 0.0 0.0 
-5.988475008841e-07 3.230758774683e-06 0.0 
3.230758774683e-06 3.224693027841e-03 0.0 
0.0 0.0 0.0 
-1.098981744385e-06 9.866030268512e-07 0.0 
9.866030268512e-07 3.457967210381e-03 0.0 
0.0 0.0 0.0 
1.398341537543e-06 3.663952576701e-07 0.0 
3.663952576701e-07 6.947096136403e-03 0.0 
0.0 0.0 0.0 
3.803660080126e-06 -3.385922084731e-07 0.0 
-3.385922084731e-07 5.551267812521e-03 0.0 
0.0 0.0 0.0 
-9.111325397863e-10 -2.828991639967e-07 0.0 
-2.828991639967e-07 5.630365510983e-03 0.0 
0.0 0.0 0.0 
5.147158154325e-07 1.659583971353e-07 0.0 
1.659583971353e-07 5.436247905378e-03 0.0 
0.0 0.0 0.0 
5.482039851861e-06 -2.156247579478e-06 0.0 
-2.156247579478e-06 1.331967592872e-03 0.0 
0.0 0.0 0.0 
3.847158316842e-06 8.614870539203e-07 0.0 
8.614870539203e-07 1.289228027801e-03 0.0 
0.0 0.0 0.0 
-4.657950067507e-07 -1.090329277573e-06 0.0 
-1.090329277573e-06 6.897691509758e-03 0.0 
0.0 0.0 0.0 
-6.403857751673e-07 -2.248876942601e-07 0.0 
-2.248876942601e-07 2.632150975769e-03 0.0 
0.0 0.0 0.0 
-4.566125922182e-07 -1.273519704170e-07 0.0 
-1.273519704170e-07 2.456404072063e-03 0.0 
0.0 0.0 0.0 
-3.152805339616e-06 3.205136428843e-06 0.0 
3.205136428843e-06 1.287955085392e-03 0.0 
0.0 0.0 0.0 
-1.084990628619e-06 2.349417467881e-06 0.0 
2.349417467881e-06 1.049213870186e-03 0.0 
0.0 0.0 0.0 
2.856420764493e-06 2.840770049299e-06 0.0 
2.840770049299e-06 6.399571935797e-03 0.0 
0.0 0.0 0.0 
2.167793774728e-06 2.020176325448e-06 0.0 
2.020176325448e-06 6.825817933354e-03 0.0 
0.0 0.0 0.0 
1.256818821127e-06 -4.486261861936e-07 0.0 
-4.486261861936e-07 4.385063822517e-03 0.0 
0.0 0.0 0.0 
-4.544565477641e-08 -1.769406498876e-06 0.0 
-1.769406498876e-06 4.571855266764e-03 0.0 
0.0 0.0 0.0 
5.881717295246e-07 -8.823579892427e-07 0.0 
-8.823579892427e-07 6.763088982316e-03 0.0 
0.0 0.0 0.0 
-2.705059931607e-07 4.617959850562e-07 0.0 
4.617959850562e-07 1.639358676253e-03 0.0 
0.0 0.0 0.0 
9.478635801807e-07 8.182903284800e-08 0.0 
8.182903284800e-08 7.028209778347e-03 0.0 
0.0 0.0 0.0 
-3.761108221904e-07 3.105185936030e-07 0.0 
3.105185936030e-07 5.952987213970e-03 0.0 
0.0 0.0 0.0 
-2.546689904144e-07 7.425762305619e-10 0.0 
7.425762305619e-10 5.533623716039e-03 0.0 
0.0 0.0 0.0 
2.711728726441e-06 2.107248448693e-06 0.0 
2.107248448693e-06 3.905372865978e-03 0.0 
0.0 0.0 0.0 
-1.847543786034e-06 -3.536734479925e-07 0.0 
-3.536734479925e-07 1.832966790165e-03 0.0 
0.0 0.0 0.0 
-3.346318453353e-06 -1.820106325021e-07 0.0 
-1.820106325021e-07 1.605307462887e-03 0.0 
0.0 0.0 0.0 
-1.381504450282e-07 1.439608103842e-06 0.0 
1.439608103842e-06 2.779933998257e-03 0.0 
0.0 0.0 0.0 
5.298650146239e-07 1.167588930048e-06 0.0 
1.167588930048e-06 2.061720638026e-03 0.0 
0.0 0.0 0.0 
1.407027789576e-06 4.463845808781e-07 0.0 
4.463845808781e-07 1.972205916846e-03 0.0 
0.0 0.0 0.0 
5.643824823413e-07 9.699966943061e-07 0.0 
9.699966943061e-07 7.185870025702e-03 0.0 
0.0 0.0 0.0 
6.152086418261e-07 -1.236925209299e-06 0.0 
-1.236925209299e-06 7.083614363121e-03 0.0 
0.0 0.0 0.0 
-2.320976759858e-07 -1.550734968000e-06 0.0 
-1.550734968000e-06 6.588798140193e-03 0.0 
0.0 0.0 0.0 
-2.615270125091e-07 1.226560129374e-08 0.0 
1.226560129374e-08 6.175615189816e-03 0.0 
0.0 0.0 0.0 
1.835308084378e-06 -1.212697397956e-06 0.0 
-1.212697397956e-06 7.001394770089e-03 0.0 
0.0 0.0 0.0 
2.472997447952e-06 -8.362775362290e-07 0.0 
-8.362775362290e-07 1.217882022571e-03 0.0 
0.0 0.0 0.0 
-4.128776883901e-07 -4.617886467339e-07 0.0 
-4.617886467339e-07 7.136420146507e-03 0.0 
0.0 0.0 0.0 
-5.625892538127e-07 -2.716318666946e-07 0.0 
-2.716318666946e-07 6.436072471751e-03 0.0 
0.0 0.0 0.0 
-2.783324233757e-06 1.357379325613e-06 0.0 
1.357379325613e-06 7.082461345495e-03 0.0 
0.0 0.0 0.0 
-6.584276396141e-07 -7.710028719608e-08 0.0 
-7.710028719608e-08 6.913448836247e-03 0.0 
0.0 0.0 0.0 
-5.586252233939e-07 2.841328597561e-07 0.0 
2.841328597561e-07 2.857155228762e-03 0.0 
0.0 0.0 0.0 
-6.718778122935e-07 -8.962861262974e-07 0.0 
-8.962861262974e-07 2.688013533955e-03 0.0 
0.0 0.0 0.0 
-5.316884494714e-07 -7.571829084303e-08 0.0 
-7.571829084303e-08 2.287554049638e-03 0.0 
0.0 0.0 0.0 
-1.006496008519e-06 1.503626718648e-06 0.0 
1.503626718648e-06 2.520378565729e-03 0.0 
0.0 0.0 0.0 
-2.478102367291e-06 -7.737875604613e-07 0.0 
-7.737875604613e-07 5.028716804751e-03 0.0 
0.0 0.0 0.0 
-6.405976539040e-07 -2.900439448634e-07 0.0 
-2.900439448634e-07 3.090185331505e-03 0.0 
0.0 0.0 0.0 
-1.092480599392e-06 -1.653019470553e-07 0.0 
-1.653019470553e-07 4.758194978751e-03 0.0 
0.0 0.0 0.0 
-1.219401906061e-06 -3.058946280564e-07 0.0 
-3.058946280564e-07 4.583020320125e-03 0.0 
0.0 0.0 0.0 
-1.171292356032e-06 5.652836003470e-08 0.0 
5.652836003470e-08 4.362001263118e-03 0.0 
0.0 0.0 0.0 
-1.099545065442e-06 2.882638245970e-07 0.0 
2.882638245970e-07 3.855692635641e-03 0.0 
0.0 0.0 0.0 
-1.003290659015e-06 -1.925510374137e-07 0.0 
-1.925510374137e-07 3.685602978604e-03 0.0 
0.0 0.0 0.0 
-5.284905548371e-07 -5.450447124569e-07 0.0 
-5.450447124569e-07 3.220012231017e-03 0.0 
0.0 0.0 0.0 
-1.849329426817e-07 -7.522323285230e-07 0.0 
-7.522323285230e-07 5.046235442168e-03 0.0 
0.0 0.0 0.0 
2.948993922206e-07 -5.170895839294e-08 0.0 
-5.170895839294e-08 4.201272457650e-03 0.0 
0.0 0.0 0.0 
3.080620096056e-08 -4.827584420261e-07 0.0 
-4.827584420261e-07 5.277082560433e-03 0.0 
0.0 0.0 0.0 
2.719305264298e-08 6.096409931268e-08 0.0 
6.096409931268e-08 5.020727321115e-03 0.0 
0.0 0.0 0.0 
-6.460213773189e-08 -6.617247467595e-07 0.0 
-6.617247467595e-07 6.938175942356e-03 0.0 
0.0 0.0 0.0 
-4.351302839896e-07 -1.461065829471e-06 0.0 
-1.461065829471e-06 7.174672840662e-03 0.0 
0.0 0.0 0.0 
-1.089555944226e-06 1.286788718773e-06 0.0 
1.286788718773e-06 5.478586717828e-03 0.0 
0.0 0.0 0.0 
1.441868411093e-06 3.423239356174e-08 0.0 
3.423239356174e-08 5.283447703520e-03 0.0 
0.0 0.0 0.0 
2.525219890970e-07 -2.496596810593e-07 0.0 
-2.496596810593e-07 1.478005913396e-03 0.0 
0.0 0.0 0.0 
-2.138586142638e-06 1.829188829937e-06 0.0 
1.829188829937e-06 1.299167985173e-03 0.0 
0.0 0.0 0.0 
2.357771943610e-07 5.243761982795e-08 0.0 
5.243761982795e-08 4.729070684177e-03 0.0 
0.0 0.0 0.0 
-5.337055138943e-07 5.491513698286e-07 0.0 
5.491513698286e-07 6.890494586287e-03 0.0 
0.0 0.0 0.0 
-1.596522789712e-07 -9.708777806791e-08 0.0 
-9.708777806791e-08 7.035217029295e-03 0.0 
0.0 0.0 0.0 
-3.908820367012e-07 -4.929432059727e-07 0.0 
-4.929432059727e-07 7.222903734763e-03 0.0 
0.0 0.0 0.0 
7.867421258911e-08 -5.657257874923e-07 0.0 
-5.657257874923e-07 6.992374257356e-03 0.0 
0.0 0.0 0.0 
1.271430207617e-06 -9.259077920420e-09 0.0 
-9.259077920420e-09 6.996753091214e-03 0.0 
0.0 0.0 0.0 
-5.079230679013e-07 -3.651643136838e-07 0.0 
-3.651643136838e-07 3.347434734373e-03 0.0 
0.0 0.0 0.0 
-7.598798566303e-08 -6.702658446280e-07 0.0 
-6.702658446280e-07 5.174187956094e-03 0.0 
0.0 0.0 0.0 
-5.748852327329e-07 -9.089358137425e-07 0.0 
-9.089358137425e-07 1.231754651851e-03 0.0 
0.0 0.0 0.0 
4.234252824290e-08 1.405198001086e-07 0.0 
1.405198001086e-07 5.361527635326e-03 0.0 
0.0 0.0 0.0 
-1.366266900264e-06 4.724872197521e-07 0.0 
4.724872197521e-07 1.059751107246e-03 0.0 
0.0 0.0 0.0 
-1.231534863218e-06 -1.759914533948e-07 0.0 
-1.759914533948e-07 6.142402947245e-03 0.0 
0.0 0.0 0.0 
4.081647102342e-07 3.541103341595e-08 0.0 
3.541103341595e-08 6.860581232430e-03 0.0 
0.0 0.0 0.0 
5.703518549486e-07 -5.527444669650e-08 0.0 
-5.527444669650e-08 7.094166262757e-03 0.0 
0.0 0.0 0.0 
1.793864008300e-06 2.119475261616e-07 0.0 
2.119475261616e-07 7.174688944802e-03 0.0 
0.0 0.0 0.0 
-1.027875829303e-06 1.590979039078e-06 0.0 
1.590979039078e-06 4.460053199210e-03 0.0 
0.0 0.0 0.0 
-1.300252220338e-07 4.082790219851e-07 0.0 
4.082790219851e-07 5.539900545241e-03 0.0 
0.0 0.0 0.0 
-2.596316866869e-07 2.064814962674e-07 0.0 
2.064814962674e-07 5.313408074165e-03 0.0 
0.0 0.0 0.0 
-8.701361223403e-07 4.571394351205e-07 0.0 
4.571394351205e-07 4.189040273628e-03 0.0 
0.0 0.0 0.0 
-9.717027269855e-07 4.956993333706e-07 0.0 
4.956993333706e-07 3.970820575519e-03 0.0 
0.0 0.0 0.0 
-1.037094393512e-06 4.997102110338e-07 0.0 
4.997102110338e-07 4.140206621229e-03 0.0 
0.0 0.0 0.0 
-1.198037062796e-06 4.960311732326e-07 0.0 
4.960311732326e-07 3.749497159240e-03 0.0 
0.0 0.0 0.0 
1.208132871522e-08 1.108635300762e-06 0.0 
1.108635300762e-06 2.956782596310e-03 0.0 
0.0 0.0 0.0 
3.109180278793e-07 9.602269923090e-07 0.0 
9.602269923090e-07 2.718310591722e-03 0.0 
0.0 0.0 0.0 
-1.322965947951e-06 3.514896897135e-07 0.0 
3.514896897135e-07 7.309672042453e-03 0.0 
0.0 0.0 0.0 
-1.659446281869e-07 3.350234161473e-06 0.0 
3.350234161473e-06 7.222234541662e-03 0.0 
0.0 0.0 0.0 
-1.361226894166e-06 -7.669637157026e-07 0.0 
-7.669637157026e-07 7.314165827313e-03 0.0 
0.0 0.0 0.0 
3.393706599316e-06 -1.700235005563e-08 0.0 
-1.700235005563e-08 7.151363204859e-03 0.0 
0.0 0.0 0.0 
5.180090751751e-06 -5.397648425395e-07 0.0 
-5.397648425395e-07 7.358689484509e-03 0.0 
0.0 0.0 0.0 
2.452652883604e-06 -2.806221426819e-07 0.0 
-2.806221426819e-07 7.126470856218e-03 0.0 
0.0 0.0 0.0 
-1.220213888024e-06 -7.116676599094e-07 0.0 
-7.116676599094e-07 2.385792557825e-03 0.0 
0.0 0.0 0.0 
-1.186627944738e-06 3.191886971177e-07 0.0 
3.191886971177e-07 3.292533533625e-03 0.0 
0.0 0.0 0.0 
2.891391935878e-06 -1.628485254589e-06 0.0 
-1.628485254589e-06 7.316482770424e-03 0.0 
0.0 0.0 0.0 
-7.904820139385e-07 3.682794121392e-07 0.0 
3.682794121392e-07 4.406916900984e-03 0.0 
0.0 0.0 0.0 
-1.715353407964e-06 -7.700082603262e-07 0.0 
-7.700082603262e-07 7.308037885032e-03 0.0 
0.0 0.0 0.0 
-6.238540161315e-07 4.335776522128e-07 0.0 
4.335776522128e-07 7.075268669910e-03 0.0 
0.0 0.0 0.0 
1.792615943833e-07 2.789021108982e-06 0.0 
2.789021108982e-06 8.139741711406e-04 0.0 
0.0 0.0 0.0 
2.464343962878e-06 -1.085085725810e-06 0.0 
-1.085085725810e-06 9.832837919553e-04 0.0 
0.0 0.0 0.0 
1.475577265727e-06 2.171033666612e-07 0.0 
2.171033666612e-07 7.257979278589e-03 0.0 
0.0 0.0 0.0 
-9.001046943162e-07 -3.599579075564e-07 0.0 
-3.599579075564e-07 2.117643813843e-03 0.0 
0.0 0.0 0.0 
-1.928118801416e-06 1.166397478237e-06 0.0 
1.166397478237e-06 2.339774893234e-03 0.0 
0.0 0.0 0.0 
-7.475750404458e-07 -1.238240826335e-06 0.0 
-1.238240826335e-06 1.889983007109e-03 0.0 
0.0 0.0 0.0 
-8.611168920517e-08 7.037899792185e-07 0.0 
7.037899792185e-07 7.725448650990e-03 0.0 
0.0 0.0 0.0 
-2.981504478491e-08 -4.933352652668e-07 0.0 
-4.933352652668e-07 4.461023608243e-03 0.0 
0.0 0.0 0.0 
2.652933423127e-06 2.897149574032e-07 0.0 
2.897149574032e-07 7.284389915928e-03 0.0 
0.0 0.0 0.0 
-1.016358229781e-06 1.018986956783e-07 0.0 
1.018986956783e-07 4.084033638189e-03 0.0 
0.0 0.0 0.0 
2.793627236615e-06 4.975579209770e-07 0.0 
4.975579209770e-07 7.460649250567e-03 0.0 
0.0 0.0 0.0 
-1.640378406997e-07 2.747725645264e-07 0.0 
2.747725645264e-07 5.723629460496e-03 0.0 
0.0 0.0 0.0 
1.044994466885e-07 1.256141434793e-06 0.0 
1.256141434793e-06 3.743851044191e-03 0.0 
0.0 0.0 0.0 
-1.614280527214e-07 -1.483524468736e-06 0.0 
-1.483524468736e-06 6.575253088679e-03 0.0 
0.0 0.0 0.0 
2.378555029984e-06 -2.597777369553e-06 0.0 
-2.597777369553e-06 7.030950813125e-03 0.0 
0.0 0.0 0.0 
-1.403369017032e-06 1.916137195203e-06 0.0 
1.916137195203e-06 7.498528210291e-03 0.0 
0.0 0.0 0.0 
2.788400061626e-06 1.348962552704e-06 0.0 
1.348962552704e-06 5.205424934309e-03 0.0 
0.0 0.0 0.0 
4.358781983127e-07 -2.850789934151e-06 0.0 
-2.850789934151e-06 4.999672278752e-03 0.0 
0.0 0.0 0.0 
3.871868270259e-07 3.739205336840e-07 0.0 
3.739205336840e-07 5.388102407746e-03 0.0 
0.0 0.0 0.0 
-2.516699881309e-06 1.553504899609e-06 0.0 
1.553504899609e-06 1.527912931439e-03 0.0 
0.0 0.0 0.0 
-5.613471056622e-06 2.000754256216e-06 0.0 
2.000754256216e-06 1.079245304927e-03 0.0 
0.0 0.0 0.0 
-5.603311336958e-07 -6.829865150051e-07 0.0 
-6.829865150051e-07 6.983021808166e-03 0.0 
0.0 0.0 0.0 
-4.255768934665e-07 -7.751557270531e-07 0.0 
-7.751557270531e-07 2.880902929879e-03 0.0 
0.0 0.0 0.0 
-4.135112432056e-06 2.206645226757e-06 0.0 
2.206645226757e-06 3.110758152265e-03 0.0 
0.0 0.0 0.0 
-6.280943306199e-08 7.700087738330e-07 0.0 
7.700087738330e-07 1.809081029760e-03 0.0 
0.0 0.0 0.0 
7.878146373042e-07 1.082830015131e-06 0.0 
1.082830015131e-06 2.228324763927e-03 0.0 
0.0 0.0 0.0 
6.362504092842e-07 -4.919756302807e-07 0.0 
-4.919756302807e-07 4.622439441631e-03 0.0 
0.0 0.0 0.0 
3.346767611008e-07 -3.468553058363e-07 0.0 
-3.468553058363e-07 4.439296377644e-03 0.0 
0.0 0.0 0.0 
-7.554685748460e-07 -4.857317495561e-07 0.0 
-4.857317495561e-07 6.323752690468e-03 0.0 
0.0 0.0 0.0 
-1.121499837886e-06 1.313518812049e-07 0.0 
1.313518812049e-07 6.550660406297e-03 0.0 
0.0 0.0 0.0 
-1.108215598548e-07 -6.564100128196e-07 0.0 
-6.564100128196e-07 5.867792240459e-03 0.0 
0.0 0.0 0.0 
-3.381265006134e-07 -6.928464570305e-08 0.0 
-6.928464570305e-08 5.717417965187e-03 0.0 
0.0 0.0 0.0 
-3.767732772072e-07 -1.191435609643e-07 0.0 
-1.191435609643e-07 5.298276706839e-03 0.0 
0.0 0.0 0.0 
-1.898757294912e-07 -3.774224414428e-07 0.0 
-3.774224414428e-07 5.118100706762e-03 0.0 
0.0 0.0 0.0 
-1.671699117967e-06 -1.630533798362e-06 0.0 
-1.630533798362e-06 7.351666670780e-03 0.0 
0.0 0.0 0.0 
-1.252231629025e-06 -3.479587406855e-07 0.0 
-3.479587406855e-07 7.634143248752e-03 0.0 
0.0 0.0 0.0 
-4.148381720359e-07 7.723011646713e-07 0.0 
7.723011646713e-07 3.191411801753e-03 0.0 
0.0 0.0 0.0 
-6.551664717784e-07 9.127909553723e-07 0.0 
9.127909553723e-07 3.014623416751e-03 0.0 
0.0 0.0 0.0 
2.559824579714e-07 9.753415503096e-07 0.0 
9.753415503096e-07 3.127791523419e-03 0.0 
0.0 0.0 0.0 
2.582651192536e-06 -1.034998095251e-06 0.0 
-1.034998095251e-06 7.502788918246e-03 0.0 
0.0 0.0 0.0 
9.697086495083e-07 2.516762488004e-06 0.0 
2.516762488004e-06 7.512639696950e-03 0.0 
0.0 0.0 0.0 
-2.145700297773e-06 -2.284468644118e-06 0.0 
-2.284468644118e-06 7.326901939331e-03 0.0 
0.0 0.0 0.0 
-4.902705062278e-06 -2.135723544934e-06 0.0 
-2.135723544934e-06 8.860740466191e-04 0.0 
0.0 0.0 0.0 
-5.380915566289e-06 -1.049884505423e-06 0.0 
-1.049884505423e-06 1.118767883563e-03 0.0 
0.0 0.0 0.0 
-4.576514276359e-06 -2.397002917266e-06 0.0 
-2.397002917266e-06 1.440127391356e-03 0.0 
0.0 0.0 0.0 
-4.202333256542e-06 -3.503554128579e-06 0.0 
-3.503554128579e-06 1.217220969482e-03 0.0 
0.0 0.0 0.0 
-4.979421235525e-07 -1.541578225347e-08 0.0 
-1.541578225347e-08 7.398606524075e-03 0.0 
0.0 0.0 0.0 
-1.684798633939e-07 -4.770227107733e-08 0.0 
-4.770227107733e-08 7.180729942909e-03 0.0 
0.0 0.0 0.0 
5.422598514977e-07 -7.380146036968e-08 0.0 
-7.380146036968e-08 7.664282487175e-03 0.0 
0.0 0.0 0.0 
6.282678785182e-07 2.386007510414e-06 0.0 
2.386007510414e-06 2.116258194768e-03 0.0 
0.0 0.0 0.0 
1.316964875301e-07 9.021782260270e-07 0.0 
9.021782260270e-07 6.363651873117e-03 0.0 
0.0 0.0 0.0 
8.000206568141e-07 1.700447761710e-06 0.0 
1.700447761710e-06 7.402727473447e-03 0.0 
0.0 0.0 0.0 
-1.555146596499e-07 2.531135987284e-06 0.0 
2.531135987284e-06 7.219142116743e-03 0.0 
0.0 0.0 0.0 
6.638772196738e-07 1.337763184414e-06 0.0 
1.337763184414e-06 7.645712043909e-03 0.0 
0.0 0.0 0.0 
1.652546712953e-06 -3.535795106350e-07 0.0 
-3.535795106350e-07 6.983417642735e-03 0.0 
0.0 0.0 0.0 
-1.007561652574e-06 -1.111433271252e-06 0.0 
-1.111433271252e-06 7.386363673082e-03 0.0 
0.0 0.0 0.0 
8.610440602556e-07 9.642647568677e-07 0.0 
9.642647568677e-07 7.409124089178e-03 0.0 
0.0 0.0 0.0 
-8.866109139916e-06 -6.614303836205e-07 0.0 
-6.614303836205e-07 6.422392239504e-04 0.0 
0.0 0.0 0.0 
7.795494258075e-07 -2.587423655630e-06 0.0 
-2.587423655630e-06 7.350256259500e-03 0.0 
0.0 0.0 0.0 
5.267974904447e-08 -3.499004207549e-07 0.0 
-3.499004207549e-07 5.032204308833e-03 0.0 
0.0 0.0 0.0 
-5.492820157915e-06 -3.673369384970e-06 0.0 
-3.673369384970e-06 4.686364133392e-04 0.0 
0.0 0.0 0.0 
2.782592509890e-06 -1.697540142123e-07 0.0 
-1.697540142123e-07 4.840057614317e-03 0.0 
0.0 0.0 0.0 
7.670349418028e-07 -3.604765253118e-07 0.0 
-3.604765253118e-07 5.086027496625e-03 0.0 
0.0 0.0 0.0 
1.674697373296e-06 -7.765018625859e-07 0.0 
-7.765018625859e-07 4.622570744211e-03 0.0 
0.0 0.0 0.0 
1.558142672905e-06 1.852911928161e-06 0.0 
1.852911928161e-06 1.701018357698e-03 0.0 
0.0 0.0 0.0 
2.457724066596e-06 -1.737736685205e-06 0.0 
-1.737736685205e-06 4.900075960089e-03 0.0 
0.0 0.0 0.0 
1.245094749303e-06 -2.478030018860e-06 0.0 
-2.478030018860e-06 5.155022728349e-03 0.0 
0.0 0.0 0.0 
-5.388704642189e-07 -2.670795613455e-07 0.0 
-2.670795613455e-07 6.333644342999e-04 0.0 
0.0 0.0 0.0 
2.939445532479e-06 4.507092846628e-07 0.0 
4.507092846628e-07 7.729123873098e-03 0.0 
0.0 0.0 0.0 
-1.172275248753e-05 -3.476681985045e-07 0.0 
-3.476681985045e-07 6.712806495786e-04 0.0 
0.0 0.0 0.0 
-1.280243372962e-06 1.235450984621e-06 0.0 
1.235450984621e-06 8.340600759973e-04 0.0 
0.0 0.0 0.0 
2.920924492333e-06 2.111047283092e-06 0.0 
2.111047283092e-06 7.495032353810e-03 0.0 
0.0 0.0 0.0 
6.330802074794e-07 -3.214999892492e-07 0.0 
-3.214999892492e-07 7.255484256623e-03 0.0 
0.0 0.0 0.0 
-3.053787047125e-07 -1.147176397220e-06 0.0 
-1.147176397220e-06 7.664053252324e-03 0.0 
0.0 0.0 0.0 
-1.651129664382e-06 1.985780466829e-06 0.0 
1.985780466829e-06 7.422698909386e-03 0.0 
0.0 0.0 0.0 
2.242212348569e-07 -8.654153923650e-07 0.0 
-8.654153923650e-07 7.015146336087e-03 0.0 
0.0 0.0 0.0 
6.044679542091e-07 8.806225111158e-07 0.0 
8.806225111158e-07 7.204997066594e-03 0.0 
0.0 0.0 0.0 
-1.044674304007e-06 -2.345087849530e-06 0.0 
-2.345087849530e-06 4.791112177334e-03 0.0 
0.0 0.0 0.0 
1.608369138206e-06 2.580889952726e-06 0.0 
2.580889952726e-06 7.670129386049e-03 0.0 
0.0 0.0 0.0 
1.436647182348e-06 5.868199908305e-07 0.0 
5.868199908305e-07 7.399594148539e-03 0.0 
0.0 0.0 0.0 
-8.798429644297e-07 1.401766360470e-06 0.0 
1.401766360470e-06 7.868363286359e-03 0.0 
0.0 0.0 0.0 
-9.937470035748e-07 4.575658866713e-07 0.0 
4.575658866713e-07 3.588317045287e-03 0.0 
0.0 0.0 0.0 
-2.038454252506e-06 5.133409523165e-07 0.0 
5.133409523165e-07 2.744702563210e-03 0.0 
0.0 0.0 0.0 
-2.104237776209e-06 4.169542430840e-07 0.0 
4.169542430840e-07 2.571948939922e-03 0.0 
0.0 0.0 0.0 
-2.089540686272e-06 5.938871834237e-06 0.0 
5.938871834237e-06 2.160808040182e-03 0.0 
0.0 0.0 0.0 
1.437523917299e-06 8.767239156036e-07 0.0 
8.767239156036e-07 7.613322499710e-03 0.0 
0.0 0.0 0.0 
9.087584249556e-07 3.374312023432e-06 0.0 
3.374312023432e-06 7.359066714323e-03 0.0 
0.0 0.0 0.0 
-2.097999569443e-07 1.326884118251e-07 0.0 
1.326884118251e-07 6.636244915058e-03 0.0 
0.0 0.0 0.0 
-8.136824267146e-07 6.539826530936e-07 0.0 
6.539826530936e-07 6.208371881081e-03 0.0 
0.0 0.0 0.0 
-1.588291582985e-06 1.005334364524e-06 0.0 
1.005334364524e-06 4.865849230047e-03 0.0 
0.0 0.0 0.0 
-7.127764982869e-07 -1.331827715630e-06 0.0 
-1.331827715630e-06 4.843159722536e-03 0.0 
0.0 0.0 0.0 
-1.162348118218e-06 4.772035067605e-06 0.0 
4.772035067605e-06 5.229295084218e-03 0.0 
0.0 0.0 0.0 
-1.068612704547e-06 -1.143739414564e-06 0.0 
-1.143739414564e-06 5.177631343221e-03 0.0 
0.0 0.0 0.0 
-1.803296847217e-06 4.563008016806e-06 0.0 
4.563008016806e-06 5.565602530646e-03 0.0 
0.0 0.0 0.0 
9.085494960180e-07 -2.202055343461e-06 0.0 
-2.202055343461e-06 5.505510819697e-03 0.0 
0.0 0.0 0.0 
9.783374232593e-07 -4.544822212389e-06 0.0 
-4.544822212389e-06 5.900651320742e-03 0.0 
0.0 0.0 0.0 
-5.943668642975e-07 3.992278400430e-06 0.0 
3.992278400430e-06 7.645261968882e-03 0.0 
0.0 0.0 0.0 
-3.410520154993e-07 6.899288037450e-07 0.0 
6.899288037450e-07 1.713786513924e-03 0.0 
0.0 0.0 0.0 
-4.125161031469e-07 4.389249541584e-07 0.0 
4.389249541584e-07 4.018856728981e-03 0.0 
0.0 0.0 0.0 
3.345869165320e-06 -1.788799317868e-06 0.0 
-1.788799317868e-06 7.535270480129e-03 0.0 
0.0 0.0 0.0 
-7.057741165199e-07 -6.360675960911e-07 0.0 
-6.360675960911e-07 7.277403166507e-03 0.0 
0.0 0.0 0.0 
-1.000042217240e-06 2.499995247680e-07 0.0 
2.499995247680e-07 3.518156351592e-03 0.0 
0.0 0.0 0.0 
-1.841547662843e-06 1.525309105033e-06 0.0 
1.525309105033e-06 3.136671307968e-03 0.0 
0.0 0.0 0.0 
-1.787784270735e-06 1.988265170839e-06 0.0 
1.988265170839e-06 7.609584879246e-03 0.0 
0.0 0.0 0.0 
-4.930496179667e-07 1.701860934418e-08 0.0 
1.701860934418e-08 3.261907085410e-03 0.0 
0.0 0.0 0.0 
5.581198438330e-08 -5.387812556174e-07 0.0 
-5.387812556174e-07 7.970348829161e-03 0.0 
0.0 0.0 0.0 
1.073907142387e-05 2.704795828661e-06 0.0 
2.704795828661e-06 2.236038449932e-04 0.0 
0.0 0.0 0.0 
4.174382188186e-06 4.434730434646e-06 0.0 
4.434730434646e-06 5.917970016701e-04 0.0 
0.0 0.0 0.0 
-1.696093455683e-07 3.537598190647e-07 0.0 
3.537598190647e-07 3.496747056495e-03 0.0 
0.0 0.0 0.0 
-8.538049906156e-07 1.787865364254e-07 0.0 
1.787865364254e-07 3.914712719830e-03 0.0 
0.0 0.0 0.0 
7.184865996601e-07 1.484636791161e-06 0.0 
1.484636791161e-06 2.977233690406e-03 0.0 
0.0 0.0 0.0 
1.637236673254e-06 4.743552589794e-07 0.0 
4.743552589794e-07 2.827985024614e-03 0.0 
0.0 0.0 0.0 
-2.568158278260e-07 -5.407672013600e-08 0.0 
-5.407672013600e-08 6.143583494093e-03 0.0 
0.0 0.0 0.0 
2.881263278335e-07 -1.524552455342e-06 0.0 
-1.524552455342e-06 9.526152440108e-04 0.0 
0.0 0.0 0.0 
-2.131455020168e-06 -2.247424224364e-06 0.0 
-2.247424224364e-06 1.666110554672e-03 0.0 
0.0 0.0 0.0 
2.067465755262e-06 4.289207027016e-06 0.0 
4.289207027016e-06 5.948141713778e-03 0.0 
0.0 0.0 0.0 
-2.354046629719e-06 -3.137029011060e-06 0.0 
-3.137029011060e-06 1.271121701505e-03 0.0 
0.0 0.0 0.0 
4.003588074952e-07 5.307525519355e-07 0.0 
5.307525519355e-07 6.431678405940e-03 0.0 
0.0 0.0 0.0 
-4.024578315794e-07 -7.818078204539e-07 0.0 
-7.818078204539e-07 3.448579681312e-03 0.0 
0.0 0.0 0.0 
-8.744230332406e-07 1.248707761261e-07 0.0 
1.248707761261e-07 4.255565163483e-03 0.0 
0.0 0.0 0.0 
-7.935050670982e-07 -2.195598973488e-07 0.0 
-2.195598973488e-07 2.059719233190e-03 0.0 
0.0 0.0 0.0 
-6.643567623995e-07 -1.414983395258e-06 0.0 
-1.414983395258e-06 2.929082715215e-03 0.0 
0.0 0.0 0.0 
-1.829002731490e-06 -5.207723017831e-07 0.0 
-5.207723017831e-07 5.205770668991e-03 0.0 
0.0 0.0 0.0 
-3.084602313500e-06 -1.205844445027e-06 0.0 
-1.205844445027e-06 4.852387566516e-03 0.0 
0.0 0.0 0.0 
-2.188268352373e-06 5.214836436565e-07 0.0 
5.214836436565e-07 4.631483441492e-03 0.0 
0.0 0.0 0.0 
-4.072151550035e-07 -7.323538501245e-07 0.0 
-7.323538501245e-07 3.631704537340e-03 0.0 
0.0 0.0 0.0 
-8.129674886614e-07 1.581193583715e-06 0.0 
1.581193583715e-06 3.062616210959e-03 0.0 
0.0 0.0 0.0 
-1.107586745525e-06 3.209422152870e-07 0.0 
3.209422152870e-07 2.631316073778e-03 0.0 
0.0 0.0 0.0 
-1.055959404491e-06 1.531508360491e-07 0.0 
1.531508360491e-07 4.933392547024e-03 0.0 
0.0 0.0 0.0 
-1.531625630213e-07 6.774556973811e-07 0.0 
6.774556973811e-07 6.762957959987e-03 0.0 
0.0 0.0 0.0 
-9.124911223105e-07 1.254933355145e-06 0.0 
1.254933355145e-06 6.947592120190e-03 0.0 
0.0 0.0 0.0 
-2.394087435335e-07 -3.923257088187e-08 0.0 
-3.923257088187e-08 7.349794773046e-03 0.0 
0.0 0.0 0.0 
-1.151653097238e-06 6.145699454243e-07 0.0 
6.145699454243e-07 7.130309353365e-03 0.0 
0.0 0.0 0.0 
-5.969256150854e-07 3.364257544659e-07 0.0 
3.364257544659e-07 6.718075894782e-03 0.0 
0.0 0.0 0.0 
1.162655538511e-07 -9.657631650269e-07 0.0 
-9.657631650269e-07 6.900358297757e-03 0.0 
0.0 0.0 0.0 
-8.834420151353e-07 1.623206775880e-06 0.0 
1.623206775880e-06 7.312671203718e-03 0.0 
0.0 0.0 0.0 
1.777329522501e-06 -7.666137837711e-09 0.0 
-7.666137837711e-09 7.093904412499e-03 0.0 
0.0 0.0 0.0 
-4.438273749947e-07 -1.764328367275e-06 0.0 
-1.764328367275e-06 7.577072817475e-03 0.0 
0.0 0.0 0.0 
2.205122897799e-07 -2.232887510225e-06 0.0 
-2.232887510225e-06 7.273325863778e-03 0.0 
0.0 0.0 0.0 
1.985497269004e-07 4.546676140328e-07 0.0 
4.546676140328e-07 6.847943654006e-03 0.0 
0.0 0.0 0.0 
-2.220299289498e-06 2.646617275361e-07 0.0 
2.646617275361e-07 7.019914783498e-03 0.0 
0.0 0.0 0.0 
-1.775954888853e-06 -8.939262137575e-07 0.0 
-8.939262137575e-07 7.411023615769e-03 0.0 
0.0 0.0 0.0 
-7.746334308815e-07 -2.918981965867e-07 0.0 
-2.918981965867e-07 6.604442698677e-03 0.0 
0.0 0.0 0.0 
3.174412794238e-06 -7.621781002739e-07 0.0 
-7.621781002739e-07 7.761519076726e-03 0.0 
0.0 0.0 0.0 
5.131918728862e-08 3.323280268174e-07 0.0 
3.323280268174e-07 3.912985234658e-03 0.0 
0.0 0.0 0.0 
-1.120453371232e-06 2.481882130850e-06 0.0 
2.481882130850e-06 8.654552651308e-04 0.0 
0.0 0.0 0.0 
-6.025732727988e-06 9.148351916560e-06 0.0 
9.148351916560e-06 8.187048587471e-04 0.0 
0.0 0.0 0.0 
-9.838888395119e-07 3.764925302260e-07 0.0 
3.764925302260e-07 4.483361635820e-03 0.0 
0.0 0.0 0.0 
-1.586979937407e-06 4.288631452912e-07 0.0 
4.288631452912e-07 7.996662523064e-03 0.0 
0.0 0.0 0.0 
-7.954077302919e-07 1.805996553364e-09 0.0 
1.805996553364e-09 8.010796604385e-03 0.0 
0.0 0.0 0.0 
-7.581534487988e-07 -4.015933646956e-07 0.0 
-4.015933646956e-07 2.811482559889e-03 0.0 
0.0 0.0 0.0 
3.797725869522e-07 -1.104195394447e-07 0.0 
-1.104195394447e-07 8.016921397679e-03 0.0 
0.0 0.0 0.0 
-1.838745804191e-06 -4.627381142504e-07 0.0 
-4.627381142504e-07 4.805615391323e-03 0.0 
0.0 0.0 0.0 
-2.424691964172e-06 7.784048089717e-07 0.0 
7.784048089717e-07 1.940630001149e-03 0.0 
0.0 0.0 0.0 
5.457357999950e-07 -1.347497752111e-06 0.0 
-1.347497752111e-06 8.021354716206e-03 0.0 
0.0 0.0 0.0 
1.021126757964e-07 1.043935996909e-06 0.0 
1.043935996909e-06 6.532204744600e-03 0.0 
0.0 0.0 0.0 
1.150534929365e-07 -2.490930316176e-07 0.0 
-2.490930316176e-07 6.298123038456e-03 0.0 
0.0 0.0 0.0 
6.453977319243e-07 3.453556265538e-07 0.0 
3.453556265538e-07 6.114282763642e-03 0.0 
0.0 0.0 0.0 
1.723954328829e-06 -2.165128209218e-06 0.0 
-2.165128209218e-06 8.033824350589e-03 0.0 
0.0 0.0 0.0 
-8.442061782410e-07 -6.178812792974e-08 0.0 
-6.178812792974e-08 5.584379729733e-03 0.0 
0.0 0.0 0.0 
-1.690161592164e-08 -1.293175268693e-06 0.0 
-1.293175268693e-06 8.036152213460e-03 0.0 
0.0 0.0 0.0 
-2.712553617834e-07 -9.159035608256e-07 0.0 
-9.159035608256e-07 5.461711158600e-03 0.0 
0.0 0.0 0.0 
-2.647243869114e-07 -3.848992627372e-07 0.0 
-3.848992627372e-07 5.274869386377e-03 0.0 
0.0 0.0 0.0 
-3.024339175206e-07 -2.641809278547e-07 0.0 
-2.641809278547e-07 4.861694593734e-03 0.0 
0.0 0.0 0.0 
4.788422155640e-07 -8.470900980159e-07 0.0 
-8.470900980159e-07 6.664392611995e-03 0.0 
0.0 0.0 0.0 
-6.051027742944e-07 6.601755920116e-07 0.0 
6.601755920116e-07 8.012434443134e-03 0.0 
0.0 0.0 0.0 
-1.038567984483e-06 -5.418095658639e-07 0.0 
-5.418095658639e-07 7.669110110521e-03 0.0 
0.0 0.0 0.0 
4.899732242899e-07 -2.122573974700e-06 0.0 
-2.122573974700e-06 7.667840724946e-03 0.0 
0.0 0.0 0.0 
-3.436219805808e-06 -6.295137896174e-08 0.0 
-6.295137896174e-08 7.292780260475e-03 0.0 
0.0 0.0 0.0 
9.192308630390e-07 -2.021888832440e-07 0.0 
-2.021888832440e-07 8.017009167531e-03 0.0 
0.0 0.0 0.0 
4.784457824739e-07 -3.355735189309e-07 0.0 
-3.355735189309e-07 8.035778413980e-03 0.0 
0.0 0.0 0.0 
-2.620833666941e-07 -4.864939717127e-07 0.0 
-4.864939717127e-07 8.046770100498e-03 0.0 
0.0 0.0 0.0 
-4.479258791101e-07 1.462328640066e-06 0.0 
1.462328640066e-06 2.600939170598e-03 0.0 
0.0 0.0 0.0 
-9.070654304333e-07 3.796828480981e-07 0.0 
3.796828480981e-07 2.837588004109e-03 0.0 
0.0 0.0 0.0 
-7.071400976999e-07 5.938731227335e-08 0.0 
5.938731227335e-08 3.247622654961e-03 0.0 
0.0 0.0 0.0 
-6.041885758368e-07 -2.251693446525e-07 0.0 
-2.251693446525e-07 3.069737146999e-03 0.0 
0.0 0.0 0.0 
-8.181405130222e-07 -2.232197445337e-07 0.0 
-2.232197445337e-07 2.656426086890e-03 0.0 
0.0 0.0 0.0 
-4.934071427728e-07 -5.010990225031e-09 0.0 
-5.010990225031e-09 2.888904281918e-03 0.0 
0.0 0.0 0.0 
-5.140847672188e-07 -5.862672114378e-07 0.0 
-5.862672114378e-07 3.298980834181e-03 0.0 
0.0 0.0 0.0 
-6.292004786449e-07 2.881834837665e-07 0.0 
2.881834837665e-07 2.706664293299e-03 0.0 
0.0 0.0 0.0 
4.767253116156e-07 -1.023923275194e-08 0.0 
-1.023923275194e-08 6.961213605480e-03 0.0 
0.0 0.0 0.0 
1.643925958509e-07 1.159248083909e-06 0.0 
1.159248083909e-06 8.031693748949e-03 0.0 
0.0 0.0 0.0 
7.056283875725e-08 -8.014431146173e-08 0.0 
-8.014431146173e-08 5.441390172631e-03 0.0 
0.0 0.0 0.0 
-1.210593339832e-07 -1.040788340461e-07 0.0 
-1.040788340461e-07 5.253298808849e-03 0.0 
0.0 0.0 0.0 
-1.418092154445e-07 3.176722815786e-07 0.0 
3.176722815786e-07 4.835368999473e-03 0.0 
0.0 0.0 0.0 
4.374413389852e-07 -4.884935022133e-07 0.0 
-4.884935022133e-07 4.017570139942e-03 0.0 
0.0 0.0 0.0 
4.444290672515e-07 -2.421094603083e-07 0.0 
-2.421094603083e-07 4.255435697591e-03 0.0 
0.0 0.0 0.0 
2.829730914033e-07 -3.103262477699e-07 0.0 
-3.103262477699e-07 4.676565873713e-03 0.0 
0.0 0.0 0.0 
8.572808281778e-08 -8.632950879849e-07 0.0 
-8.632950879849e-07 3.779125588996e-03 0.0 
0.0 0.0 0.0 
1.870690102638e-07 -6.520221937101e-08 0.0 
-6.520221937101e-08 5.995848425490e-03 0.0 
0.0 0.0 0.0 
4.984386062779e-07 -1.444587615240e-06 0.0 
-1.444587615240e-06 8.027368437827e-03 0.0 
0.0 0.0 0.0 
-5.587159216761e-08 -3.878148473445e-07 0.0 
-3.878148473445e-07 5.353688465787e-03 0.0 
0.0 0.0 0.0 
6.260917701691e-07 1.144762649111e-07 0.0 
1.144762649111e-07 4.070975618804e-03 0.0 
0.0 0.0 0.0 
-6.128935697662e-07 -8.908264857104e-07 0.0 
-8.908264857104e-07 4.486283247010e-03 0.0 
0.0 0.0 0.0 
9.213646426180e-07 2.033737181839e-06 0.0 
2.033737181839e-06 4.854957720314e-03 0.0 
0.0 0.0 0.0 
3.552189420756e-07 -3.130622153307e-06 0.0 
-3.130622153307e-06 4.860697453300e-03 0.0 
0.0 0.0 0.0 
4.118112652567e-06 -3.001566762737e-06 0.0 
-3.001566762737e-06 5.258681293346e-03 0.0 
0.0 0.0 0.0 
1.979526397593e-06 -4.461127405203e-06 0.0 
-4.461127405203e-06 4.893088887137e-03 0.0 
0.0 0.0 0.0 
1.160472415385e-07 -7.029264629406e-07 0.0 
-7.029264629406e-07 4.806535147962e-03 0.0 
0.0 0.0 0.0 
-3.218899962132e-07 -5.944954671797e-07 0.0 
-5.944954671797e-07 4.990581007434e-03 0.0 
0.0 0.0 0.0 
-2.185673434463e-07 7.249288810845e-08 0.0 
7.249288810845e-08 4.758058783909e-03 0.0 
0.0 0.0 0.0 
1.083470237232e-07 -5.495817954260e-07 0.0 
-5.495817954260e-07 5.173952948513e-03 0.0 
0.0 0.0 0.0 
1.038628227997e-06 -1.770483690018e-06 0.0 
-1.770483690018e-06 4.932091330428e-03 0.0 
0.0 0.0 0.0 
2.112254289144e-06 -1.930758674778e-06 0.0 
-1.930758674778e-06 4.545261339661e-03 0.0 
0.0 0.0 0.0 
1.561772192312e-06 -1.395986629864e-06 0.0 
-1.395986629864e-06 5.349112932849e-03 0.0 
0.0 0.0 0.0 
4.167466133668e-07 1.114418903289e-06 0.0 
1.114418903289e-06 5.080362388838e-03 0.0 
0.0 0.0 0.0 
1.361863912086e-06 -2.132230776531e-06 0.0 
-2.132230776531e-06 4.481136317904e-03 0.0 
0.0 0.0 0.0 
3.690699660386e-06 -1.991883438893e-06 0.0 
-1.991883438893e-06 2.603289123391e-04 0.0 
0.0 0.0 0.0 
2.752445060946e-06 2.643217727795e-06 0.0 
2.643217727795e-06 5.879177305982e-04 0.0 
0.0 0.0 0.0 
2.658364931518e-06 -1.465642427739e-06 0.0 
-1.465642427739e-06 5.776493489626e-04 0.0 
0.0 0.0 0.0 
1.777381687403e-06 1.772809101579e-07 0.0 
1.772809101579e-07 9.274777451966e-04 0.0 
0.0 0.0 0.0 
5.794251896248e-07 4.464968730678e-06 0.0 
4.464968730678e-06 9.557880536896e-04 0.0 
0.0 0.0 0.0 
2.684805204045e-06 1.517924498362e-06 0.0 
1.517924498362e-06 1.328116220755e-03 0.0 
0.0 0.0 0.0 
1.916719624795e-06 -2.624197064177e-06 0.0 
-2.624197064177e-06 1.276999943172e-03 0.0 
0.0 0.0 0.0 
5.483803876623e-06 1.210734106080e-06 0.0 
1.210734106080e-06 5.895971876866e-04 0.0 
0.0 0.0 0.0 
1.533497713146e-06 -3.235451215456e-07 0.0 
-3.235451215456e-07 2.584255574760e-04 0.0 
0.0 0.0 0.0 
2.972793342863e-06 3.319149421787e-09 0.0 
3.319149421787e-09 5.772957922233e-04 0.0 
0.0 0.0 0.0 
2.249230955487e-06 9.134528999518e-07 0.0 
9.134528999518e-07 2.548808843571e-04 0.0 
0.0 0.0 0.0 
3.616002485218e-06 -1.779086889655e-07 0.0 
-1.779086889655e-07 5.664955149243e-04 0.0 
0.0 0.0 0.0 
3.272815466415e-06 3.773062962937e-07 0.0 
3.773062962937e-07 9.769998996594e-04 0.0 
0.0 0.0 0.0 
-9.859914602006e-07 6.534344594739e-07 0.0 
6.534344594739e-07 1.550603890518e-03 0.0 
0.0 0.0 0.0 
-2.182691698620e-06 2.683780314956e-06 0.0 
2.683780314956e-06 7.964782385483e-03 0.0 
0.0 0.0 0.0 
-9.557707572605e-07 7.171573283356e-07 0.0 
7.171573283356e-07 3.897436047311e-03 0.0 
0.0 0.0 0.0 
-2.845197769274e-06 2.868993931954e-06 0.0 
2.868993931954e-06 3.693839020088e-03 0.0 
0.0 0.0 0.0 
1.193695693865e-06 2.771235962675e-06 0.0 
2.771235962675e-06 3.284522173869e-03 0.0 
0.0 0.0 0.0 
-1.450796868482e-06 -8.090466055176e-07 0.0 
-8.090466055176e-07 3.505856112386e-03 0.0 
0.0 0.0 0.0 
-3.350537777928e-06 3.179941934539e-06 0.0 
3.179941934539e-06 4.067120056631e-03 0.0 
0.0 0.0 0.0 
1.025714469823e-06 2.163853174921e-06 0.0 
2.163853174921e-06 3.059396272314e-03 0.0 
0.0 0.0 0.0 
1.239918779613e-06 3.577606862878e-06 0.0 
3.577606862878e-06 2.907762909827e-03 0.0 
0.0 0.0 0.0 
4.498194810780e-06 1.012039642275e-06 0.0 
1.012039642275e-06 2.581250811045e-04 0.0 
0.0 0.0 0.0 
4.234158207661e-06 -4.766836431821e-06 0.0 
-4.766836431821e-06 5.802661310811e-04 0.0 
0.0 0.0 0.0 
-5.734933269227e-06 -2.318251634353e-06 0.0 
-2.318251634353e-06 5.478940979497e-04 0.0 
0.0 0.0 0.0 
-3.160027135389e-06 -1.479087261926e-07 0.0 
-1.479087261926e-07 9.443231663885e-04 0.0 
0.0 0.0 0.0 
3.592357220768e-06 -2.683081650640e-06 0.0 
-2.683081650640e-06 9.343573600010e-04 0.0 
0.0 0.0 0.0 
6.383778931029e-06 -4.843906021757e-07 0.0 
-4.843906021757e-07 5.841012766491e-04 0.0 
0.0 0.0 0.0 
4.504609974587e-06 2.671422105840e-06 0.0 
2.671422105840e-06 5.853501411203e-04 0.0 
0.0 0.0 0.0 
4.780881028362e-06 -5.722494062433e-07 0.0 
-5.722494062433e-07 2.563525647652e-04 0.0 
0.0 0.0 0.0 
7.711163890571e-06 1.255038625991e-06 0.0 
1.255038625991e-06 5.829820022751e-04 0.0 
0.0 0.0 0.0 
4.544599702228e-06 2.196034801218e-06 0.0 
2.196034801218e-06 9.511354939639e-04 0.0 
0.0 0.0 0.0 
7.996380248546e-06 -2.290976232393e-06 0.0 
-2.290976232393e-06 2.445301141289e-04 0.0 
0.0 0.0 0.0 
2.055758035283e-07 -4.368841141393e-06 0.0 
-4.368841141393e-06 6.462252291309e-03 0.0 
0.0 0.0 0.0 
-1.179169662617e-06 -3.485199902433e-06 0.0 
-3.485199902433e-06 6.693872801831e-03 0.0 
0.0 0.0 0.0 
-8.858193729459e-07 -7.499393546713e-07 0.0 
-7.499393546713e-07 8.005015149063e-03 0.0 
0.0 0.0 0.0 
1.854587942234e-06 -4.001380560027e-06 0.0 
-4.001380560027e-06 4.527805844754e-03 0.0 
0.0 0.0 0.0 
2.986167558524e-06 9.511925285470e-07 0.0 
9.511925285470e-07 2.604112901147e-04 0.0 
0.0 0.0 0.0 
-1.184376384363e-06 -2.177093369981e-07 0.0 
-2.177093369981e-07 7.950031272861e-03 0.0 
0.0 0.0 0.0 
8.968706112407e-07 -1.902011056357e-06 0.0 
-1.902011056357e-06 8.017810433069e-03 0.0 
0.0 0.0 0.0 
2.238758606073e-06 1.355688537848e-06 0.0 
1.355688537848e-06 8.025341883250e-03 0.0 
0.0 0.0 0.0 
1.289208367838e-08 1.333832834287e-06 0.0 
1.333832834287e-06 7.297751049985e-03 0.0 
0.0 0.0 0.0 
1.943017589268e-06 5.641997636720e-07 0.0 
5.641997636720e-07 7.509289656443e-03 0.0 
0.0 0.0 0.0 
-2.115984451323e-06 8.677660350470e-07 0.0 
8.677660350470e-07 7.962566827786e-03 0.0 
0.0 0.0 0.0 
1.059355017300e-06 5.196172558990e-07 0.0 
5.196172558990e-07 2.564861384270e-03 0.0 
0.0 0.0 0.0 
1.968217463381e-06 1.653906481933e-06 0.0 
1.653906481933e-06 7.529378171005e-03 0.0 
0.0 0.0 0.0 
-8.677030813679e-07 3.279891626462e-07 0.0 
3.279891626462e-07 7.216338803798e-03 0.0 
0.0 0.0 0.0 
-2.116978809141e-06 -4.553503258245e-08 0.0 
-4.553503258245e-08 1.772659595162e-03 0.0 
0.0 0.0 0.0 
6.613498497732e-07 9.537636758763e-07 0.0 
9.537636758763e-07 2.477067737509e-03 0.0 
0.0 0.0 0.0 
2.554595542511e-07 3.526058652672e-07 0.0 
3.526058652672e-07 6.012379880025e-03 0.0 
0.0 0.0 0.0 
6.464787335088e-08 -2.734587323256e-07 0.0 
-2.734587323256e-07 5.515603827945e-03 0.0 
0.0 0.0 0.0 
-1.770713921601e-07 -4.391786749401e-07 0.0 
-4.391786749401e-07 6.908360304077e-03 0.0 
0.0 0.0 0.0 
-1.852109990745e-07 -7.317130435144e-08 0.0 
-7.317130435144e-08 5.642357844185e-03 0.0 
0.0 0.0 0.0 
4.861363589459e-07 -6.092181027542e-07 0.0 
-6.092181027542e-07 6.542928214363e-03 0.0 
0.0 0.0 0.0 
-5.930180516962e-07 3.370735061677e-06 0.0 
3.370735061677e-06 7.641138898237e-03 0.0 
0.0 0.0 0.0 
4.343884868752e-06 -7.556824007079e-07 0.0 
-7.556824007079e-07 1.559695272058e-03 0.0 
0.0 0.0 0.0 
4.886577809060e-09 8.599243497559e-07 0.0 
8.599243497559e-07 5.668048649676e-03 0.0 
0.0 0.0 0.0 
4.017361267354e-07 9.055953047615e-07 0.0 
9.055953047615e-07 5.516377628277e-03 0.0 
0.0 0.0 0.0 
-8.998871860640e-08 -5.961236456600e-07 0.0 
-5.961236456600e-07 6.560174606698e-03 0.0 
0.0 0.0 0.0 
-6.140321594147e-07 -1.063379058201e-06 0.0 
-1.063379058201e-06 2.693070871742e-03 0.0 
0.0 0.0 0.0 
5.821918563909e-07 -2.131200330844e-06 0.0 
-2.131200330844e-06 4.352348709929e-03 0.0 
0.0 0.0 0.0 
-1.246485964335e-06 -1.387818041016e-06 0.0 
-1.387818041016e-06 1.665041830575e-03 0.0 
0.0 0.0 0.0 
9.309975416520e-07 7.059462991434e-07 0.0 
7.059462991434e-07 7.685391704686e-03 0.0 
0.0 0.0 0.0 
-1.057255905434e-06 4.848049917915e-09 0.0 
4.848049917915e-09 4.535141055154e-03 0.0 
0.0 0.0 0.0 
-6.588694758299e-08 2.656486179489e-07 0.0 
2.656486179489e-07 4.601462005408e-03 0.0 
0.0 0.0 0.0 
1.005260998369e-06 -5.689263837171e-07 0.0 
-5.689263837171e-07 3.594022492719e-03 0.0 
0.0 0.0 0.0 
1.228511352610e-06 8.976305765324e-07 0.0 
8.976305765324e-07 2.808879703911e-03 0.0 
0.0 0.0 0.0 
3.443139205417e-07 1.019030374228e-06 0.0 
1.019030374228e-06 2.303196542684e-03 0.0 
0.0 0.0 0.0 
7.127252952636e-08 7.842076719061e-07 0.0 
7.842076719061e-07 4.150331449658e-03 0.0 
0.0 0.0 0.0 
4.194214589711e-07 2.137435640978e-07 0.0 
2.137435640978e-07 4.308766974721e-03 0.0 
0.0 0.0 0.0 
-1.650951410581e-07 1.510447435366e-07 0.0 
1.510447435366e-07 6.231480255127e-03 0.0 
0.0 0.0 0.0 
-5.939244688835e-07 -4.944630111760e-07 0.0 
-4.944630111760e-07 6.794167157642e-03 0.0 
0.0 0.0 0.0 
-1.417455579094e-05 3.204413220167e-06 0.0 
3.204413220167e-06 3.013933773059e-04 0.0 
0.0 0.0 0.0 
1.216708627368e-07 3.711314080944e-07 0.0 
3.711314080944e-07 6.469615902086e-03 0.0 
0.0 0.0 0.0 
9.773799558577e-08 -9.711616403777e-08 0.0 
-9.711616403777e-08 5.149729568310e-03 0.0 
0.0 0.0 0.0 
-7.542346144492e-07 3.992108889635e-07 0.0 
3.992108889635e-07 5.820264269627e-03 0.0 
0.0 0.0 0.0 
-8.212640891236e-07 -1.046302004840e-06 0.0 
-1.046302004840e-06 6.476298460148e-03 0.0 
0.0 0.0 0.0 
4.293001691876e-06 2.470817297439e-07 0.0 
2.470817297439e-07 1.540937491216e-03 0.0 
0.0 0.0 0.0 
-4.818786649522e-07 -2.491899624492e-07 0.0 
-2.491899624492e-07 6.707444995828e-03 0.0 
0.0 0.0 0.0 
-1.567175185772e-06 9.791309325632e-07 0.0 
9.791309325632e-07 7.434378867982e-03 0.0 
0.0 0.0 0.0 
1.122340680911e-06 -3.999499634216e-06 0.0 
-3.999499634216e-06 5.350867794125e-03 0.0 
0.0 0.0 0.0 
-1.058443838871e-07 -6.466997488039e-07 0.0 
-6.466997488039e-07 1.243372260011e-03 0.0 
0.0 0.0 0.0 
-1.973708302757e-06 6.576983144350e-07 0.0 
6.576983144350e-07 5.237562091638e-03 0.0 
0.0 0.0 0.0 
-3.444551295121e-07 5.516993406530e-07 0.0 
5.516993406530e-07 7.368332588945e-03 0.0 
0.0 0.0 0.0 
-3.162117975427e-07 -1.504797780669e-07 0.0 
-1.504797780669e-07 6.576637283702e-03 0.0 
0.0 0.0 0.0 
5.055320072371e-07 -1.885989478303e-06 0.0 
-1.885989478303e-06 2.453434129085e-03 0.0 
0.0 0.0 0.0 
-1.955016798079e-07 -6.439624864898e-07 0.0 
-6.439624864898e-07 4.760334596431e-03 0.0 
0.0 0.0 0.0 
-4.125009124833e-07 2.310881467293e-07 0.0 
2.310881467293e-07 4.430800487976e-03 0.0 
0.0 0.0 0.0 
2.364353687020e-06 -1.568574036380e-06 0.0 
-1.568574036380e-06 4.070930027242e-03 0.0 
0.0 0.0 0.0 
-2.424323952514e-06 1.150509442462e-06 0.0 
1.150509442462e-06 7.395540503249e-03 0.0 
0.0 0.0 0.0 
-1.567824797951e-07 -1.400479496241e-07 0.0 
-1.400479496241e-07 4.906716909334e-03 0.0 
0.0 0.0 0.0 
-9.959099605550e-07 8.717358419160e-07 0.0 
8.717358419160e-07 6.843748950613e-03 0.0 
0.0 0.0 0.0 
4.989442936587e-08 -6.640767798780e-07 0.0 
-6.640767798780e-07 5.589538070097e-03 0.0 
0.0 0.0 0.0 
-3.085187324133e-08 -6.448247816861e-07 0.0 
-6.448247816861e-07 2.641700939803e-03 0.0 
0.0 0.0 0.0 
-7.845295143527e-07 -1.051603076846e-06 0.0 
-1.051603076846e-06 6.837433622850e-03 0.0 
0.0 0.0 0.0 
-2.501420284055e-07 -4.913097301789e-07 0.0 
-4.913097301789e-07 4.632944933254e-03 0.0 
0.0 0.0 0.0 
-1.364672409336e-07 -5.662114114659e-07 0.0 
-5.662114114659e-07 7.129444171405e-03 0.0 
0.0 0.0 0.0 
6.065719822719e-08 -7.398912107936e-07 0.0 
-7.398912107936e-07 6.276426469897e-03 0.0 
0.0 0.0 0.0 
-4.017171383504e-07 -6.138070059475e-07 0.0 
-6.138070059475e-07 3.757513339033e-03 0.0 
0.0 0.0 0.0 
1.787012067211e-07 -8.990666004992e-07 0.0 
-8.990666004992e-07 6.849799331294e-03 0.0 
0.0 0.0 0.0 
-3.909267607405e-07 1.724028509308e-07 0.0 
1.724028509308e-07 4.651678648609e-03 0.0 
0.0 0.0 0.0 
-5.704403283069e-07 3.475547654231e-08 0.0 
3.475547654231e-08 6.712636323373e-03 0.0 
0.0 0.0 0.0 
-1.028022166320e-06 2.856160802468e-07 0.0 
2.856160802468e-07 4.311361722503e-03 0.0 
0.0 0.0 0.0 
-3.474070091232e-07 -2.636186856031e-07 0.0 
-2.636186856031e-07 5.462197632761e-03 0.0 
0.0 0.0 0.0 
-1.247271850635e-06 -5.063067277966e-07 0.0 
-5.063067277966e-07 5.963696192111e-03 0.0 
0.0 0.0 0.0 
-2.121831867615e-08 4.102912611480e-08 0.0 
4.102912611480e-08 5.184994250141e-03 0.0 
0.0 0.0 0.0 
-4.874854168483e-09 2.599826121513e-06 0.0 
2.599826121513e-06 5.778827265003e-03 0.0 
0.0 0.0 0.0 
-6.482063783508e-07 2.842317812524e-07 0.0 
2.842317812524e-07 6.653948638514e-03 0.0 
0.0 0.0 0.0 
-2.072140934728e-06 4.077840204797e-08 0.0 
4.077840204797e-08 1.645040111884e-03 0.0 
0.0 0.0 0.0 
1.043153540585e-07 -4.514496345518e-08 0.0 
-4.514496345518e-08 3.337961587057e-03 0.0 
0.0 0.0 0.0 
1.453930920695e-06 -8.985811338522e-07 0.0 
-8.985811338522e-07 5.778255295538e-03 0.0 
0.0 0.0 0.0 
-1.949034689364e-06 -9.616072832562e-07 0.0 
-9.616072832562e-07 7.036280530432e-03 0.0 
0.0 0.0 0.0 
1.527301532541e-06 9.415254229511e-07 0.0 
9.415254229511e-07 7.546000725718e-03 0.0 
0.0 0.0 0.0 
-6.090906406834e-07 6.800614437121e-07 0.0 
6.800614437121e-07 4.030094464659e-03 0.0 
0.0 0.0 0.0 
-8.718248678541e-08 -9.467330715780e-07 0.0 
-9.467330715780e-07 6.597412658046e-03 0.0 
0.0 0.0 0.0 
-7.065043553893e-07 2.879826192359e-07 0.0 
2.879826192359e-07 7.259968153707e-03 0.0 
0.0 0.0 0.0 
3.767356704376e-07 1.869761040187e-08 0.0 
1.869761040187e-08 4.492232991259e-03 0.0 
0.0 0.0 0.0 
-4.250093135205e-07 7.328565244162e-07 0.0 
7.328565244162e-07 1.810164321566e-03 0.0 
0.0 0.0 0.0 
-2.546945081339e-06 2.285585923910e-07 0.0 
2.285585923910e-07 1.381772768458e-03 0.0 
0.0 0.0 0.0 
-7.281866442610e-07 5.129508718699e-09 0.0 
5.129508718699e-09 2.937529570432e-03 0.0 
0.0 0.0 0.0 
-2.968147157686e-07 -1.466200294992e-07 0.0 
-1.466200294992e-07 4.679623955379e-03 0.0 
0.0 0.0 0.0 
2.120260801375e-07 -2.290651150814e-07 0.0 
-2.290651150814e-07 4.912687526897e-03 0.0 
0.0 0.0 0.0 
-1.215109662143e-06 1.276984253411e-06 0.0 
1.276984253411e-06 7.631909051854e-03 0.0 
0.0 0.0 0.0 
6.479780092864e-07 -6.741718949379e-07 0.0 
-6.741718949379e-07 6.780006988847e-03 0.0 
0.0 0.0 0.0 
1.638331814657e-08 -1.189436529287e-06 0.0 
-1.189436529287e-06 6.336434359912e-03 0.0 
0.0 0.0 0.0 
-1.095916466374e-05 -2.611183671153e-06 0.0 
-2.611183671153e-06 6.593491574908e-04 0.0 
0.0 0.0 0.0 
7.044700792158e-07 1.236295379546e-06 0.0 
1.236295379546e-06 4.237524158218e-03 0.0 
0.0 0.0 0.0 
9.921754507240e-07 -7.345551073404e-07 0.0 
-7.345551073404e-07 6.964735558553e-03 0.0 
0.0 0.0 0.0 
-1.664858368759e-07 -4.607468809914e-07 0.0 
-4.607468809914e-07 4.939579252746e-03 0.0 
0.0 0.0 0.0 
-1.068231599566e-06 8.551440377904e-08 0.0 
8.551440377904e-08 6.886092831301e-03 0.0 
0.0 0.0 0.0 
2.521833177838e-06 -1.644650952026e-07 0.0 
-1.644650952026e-07 4.679873764295e-03 0.0 
0.0 0.0 0.0 
7.545990085012e-07 -1.373259983720e-06 0.0 
-1.373259983720e-06 7.675359502966e-03 0.0 
0.0 0.0 0.0 
-4.884735342140e-07 1.452342000883e-06 0.0 
1.452342000883e-06 3.363623308007e-03 0.0 
0.0 0.0 0.0 
-4.688906656651e-07 -7.839177970234e-07 0.0 
-7.839177970234e-07 7.156989968689e-03 0.0 
0.0 0.0 0.0 
-3.890321475334e-07 9.216850962777e-07 0.0 
9.216850962777e-07 6.380130203778e-03 0.0 
0.0 0.0 0.0 
-5.151093386095e-07 -9.521640993422e-08 0.0 
-9.521640993422e-08 3.037143063844e-03 0.0 
0.0 0.0 0.0 
1.564171282868e-07 5.119446496201e-07 0.0 
5.119446496201e-07 4.474397176207e-03 0.0 
0.0 0.0 0.0 
-6.437005809014e-07 9.305590168946e-07 0.0 
9.305590168946e-07 7.639062761050e-03 0.0 
0.0 0.0 0.0 
-9.496912018829e-07 1.828122688748e-07 0.0 
1.828122688748e-07 6.807411065044e-03 0.0 
0.0 0.0 0.0 
1.299158171967e-07 -1.330699731126e-07 0.0 
-1.330699731126e-07 5.589175163116e-03 0.0 
0.0 0.0 0.0 
-2.624172308156e-07 -3.471290979338e-07 0.0 
-3.471290979338e-07 4.705148335150e-03 0.0 
0.0 0.0 0.0 
4.492791290112e-07 -1.668254229761e-06 0.0 
-1.668254229761e-06 3.638827020661e-03 0.0 
0.0 0.0 0.0 
1.986485018331e-07 -3.869658560364e-07 0.0 
-3.869658560364e-07 5.095852553490e-03 0.0 
0.0 0.0 0.0 
-6.841457798982e-07 -6.451841519297e-07 0.0 
-6.451841519297e-07 5.689050224994e-03 0.0 
0.0 0.0 0.0 
1.532670097541e-06 2.160013659077e-07 0.0 
2.160013659077e-07 8.039758672997e-03 0.0 
0.0 0.0 0.0 
-2.629146441705e-06 -6.393966521598e-07 0.0 
-6.393966521598e-07 7.023196075516e-03 0.0 
0.0 0.0 0.0 
4.341133202542e-07 -1.164586439203e-06 0.0 
-1.164586439203e-06 5.880993182769e-03 0.0 
0.0 0.0 0.0 
2.828637237403e-07 -4.905466938974e-07 0.0 
-4.905466938974e-07 4.858780387242e-03 0.0 
0.0 0.0 0.0 
-1.178203056784e-07 -2.832243367133e-07 0.0 
-2.832243367133e-07 5.915674482580e-03 0.0 
0.0 0.0 0.0 
6.411757946504e-06 -1.512856554854e-06 0.0 
-1.512856554854e-06 9.354587051933e-04 0.0 
0.0 0.0 0.0 
-5.323525231749e-08 5.737001318852e-07 0.0 
5.737001318852e-07 3.804803329901e-03 0.0 
0.0 0.0 0.0 
-2.658384040677e-08 -6.055939288448e-07 0.0 
-6.055939288448e-07 5.041289686593e-03 0.0 
0.0 0.0 0.0 
-5.513693322838e-07 -2.898447967829e-07 0.0 
-2.898447967829e-07 3.117948126844e-03 0.0 
0.0 0.0 0.0 
-4.176632559250e-07 -2.392297286311e-07 0.0 
-2.392297286311e-07 4.884169023061e-03 0.0 
0.0 0.0 0.0 
2.246174641118e-06 1.886750152288e-06 0.0 
1.886750152288e-06 7.577017891745e-03 0.0 
0.0 0.0 0.0 
-3.346737894224e-07 -3.998889049900e-07 0.0 
-3.998889049900e-07 5.224711752500e-03 0.0 
0.0 0.0 0.0 
-4.436273461176e-07 -5.747044856366e-07 0.0 
-5.747044856366e-07 3.527533772202e-03 0.0 
0.0 0.0 0.0 
-3.833986888154e-07 2.697628327320e-08 0.0 
2.697628327320e-08 5.407824601967e-03 0.0 
0.0 0.0 0.0 
2.387933710768e-07 -1.063589318209e-06 0.0 
-1.063589318209e-06 3.208357966512e-03 0.0 
0.0 0.0 0.0 
-1.501823873410e-07 -1.597423353378e-06 0.0 
-1.597423353378e-06 6.065121545197e-03 0.0 
0.0 0.0 0.0 
7.344842965125e-07 -3.310616599610e-08 0.0 
-3.310616599610e-08 5.589765647658e-03 0.0 
0.0 0.0 0.0 
-3.896102941566e-07 -8.764865192330e-07 0.0 
-8.764865192330e-07 6.095509918995e-03 0.0 
0.0 0.0 0.0 
3.741022885838e-06 -1.480537363882e-06 0.0 
-1.480537363882e-06 9.873571417809e-04 0.0 
0.0 0.0 0.0 
-7.010730061300e-08 -2.289374294856e-07 0.0 
-2.289374294856e-07 5.766567893806e-03 0.0 
0.0 0.0 0.0 
1.153628763536e-06 1.335873427791e-06 0.0 
1.335873427791e-06 7.068465683831e-03 0.0 
0.0 0.0 0.0 
3.736204011728e-07 8.947298390938e-07 0.0 
8.947298390938e-07 3.296599675848e-03 0.0 
0.0 0.0 0.0 
-4.121294649810e-07 1.499293323470e-07 0.0 
1.499293323470e-07 5.065892638147e-03 0.0 
0.0 0.0 0.0 
-2.542800193924e-07 -9.611648731915e-07 0.0 
-9.611648731915e-07 6.482810262468e-03 0.0 
0.0 0.0 0.0 
-8.702799477733e-07 -3.494689208619e-06 0.0 
-3.494689208619e-06 2.772413112002e-03 0.0 
0.0 0.0 0.0 
-2.905397920213e-07 -9.631184054538e-08 0.0 
-9.631184054538e-08 5.484172301039e-03 0.0 
0.0 0.0 0.0 
-2.395469811770e-07 -7.928860901068e-07 0.0 
-7.928860901068e-07 6.505152254753e-03 0.0 
0.0 0.0 0.0 
-5.114355320727e-08 7.311905757096e-07 0.0 
7.311905757096e-07 5.948597086697e-03 0.0 
0.0 0.0 0.0 
-2.984070904636e-07 -9.799154684794e-09 0.0 
-9.799154684794e-09 5.088152850737e-03 0.0 
0.0 0.0 0.0 
-5.974912392626e-08 -3.826704595145e-07 0.0 
-3.826704595145e-07 5.908346646688e-03 0.0 
0.0 0.0 0.0 
-1.611121609661e-06 2.498552200762e-06 0.0 
2.498552200762e-06 2.917683944532e-03 0.0 
0.0 0.0 0.0 
8.286509874944e-07 1.595787807677e-06 0.0 
1.595787807677e-06 2.389652556919e-03 0.0 
0.0 0.0 0.0 
2.503960648455e-07 8.204794027072e-07 0.0 
8.204794027072e-07 1.972539398944e-03 0.0 
0.0 0.0 0.0 
-4.838109423274e-07 -6.019427491880e-07 0.0 
-6.019427491880e-07 3.706431116327e-03 0.0 
0.0 0.0 0.0 
-1.856383384606e-07 -3.851274832916e-07 0.0 
-3.851274832916e-07 6.735354041925e-03 0.0 
0.0 0.0 0.0 
-1.002306273553e-06 -3.706917421026e-06 0.0 
-3.706917421026e-06 1.294843714364e-03 0.0 
0.0 0.0 0.0 
-8.424506301822e-08 -1.235367932826e-06 0.0 
-1.235367932826e-06 6.426882310957e-03 0.0 
0.0 0.0 0.0 
-8.262119512622e-08 -1.193685056360e-06 0.0 
-1.193685056360e-06 1.381272193719e-03 0.0 
0.0 0.0 0.0 
-5.676476543999e-07 -4.452818840601e-07 0.0 
-4.452818840601e-07 3.477137054673e-03 0.0 
0.0 0.0 0.0 
1.420287886448e-06 7.671609308995e-07 0.0 
7.671609308995e-07 6.567292872459e-03 0.0 
0.0 0.0 0.0 
-4.791288882311e-08 -7.354117011912e-06 0.0 
-7.354117011912e-06 5.640143162031e-03 0.0 
0.0 0.0 0.0 
-5.530424682469e-07 -4.679801807838e-09 0.0 
-4.679801807838e-09 3.653528247967e-03 0.0 
0.0 0.0 0.0 
5.129657576301e-07 1.564609169263e-06 0.0 
1.564609169263e-06 2.230316610062e-03 0.0 
0.0 0.0 0.0 
-5.995411394381e-07 3.339543940068e-07 0.0 
3.339543940068e-07 3.422687119334e-03 0.0 
0.0 0.0 0.0 
-2.486993008570e-07 1.004614203172e-07 0.0 
1.004614203172e-07 5.499106417107e-03 0.0 
0.0 0.0 0.0 
-4.017554103841e-07 5.042300870403e-07 0.0 
5.042300870403e-07 3.598309776250e-03 0.0 
0.0 0.0 0.0 
-9.437903118285e-08 7.842192083286e-07 0.0 
7.842192083286e-07 3.365147391978e-03 0.0 
0.0 0.0 0.0 
-1.726412958129e-06 -9.110240472247e-07 0.0 
-9.110240472247e-07 7.633956901138e-03 0.0 
0.0 0.0 0.0 
2.227380424917e-07 1.004798265555e-06 0.0 
1.004798265555e-06 3.537448258624e-03 0.0 
0.0 0.0 0.0 
3.103847770432e-06 -2.017261303965e-06 0.0 
-2.017261303965e-06 8.032818663521e-03 0.0 
0.0 0.0 0.0 
1.266040751442e-07 -9.492002275135e-07 0.0 
-9.492002275135e-07 7.989609192557e-03 0.0 
0.0 0.0 0.0 
-6.658252246058e-07 -5.365263603226e-06 0.0 
-5.365263603226e-06 4.798559483295e-03 0.0 
0.0 0.0 0.0 
-4.029168238051e-06 3.021866859599e-06 0.0 
3.021866859599e-06 2.321869239127e-03 0.0 
0.0 0.0 0.0 
-7.718366798772e-06 1.370740990915e-06 0.0 
1.370740990915e-06 2.651485336197e-04 0.0 
0.0 0.0 0.0 
2.199164028704e-06 -2.748896493517e-06 0.0 
-2.748896493517e-06 2.471502991212e-03 0.0 
0.0 0.0 0.0 
4.744286462947e-07 1.163258961162e-06 0.0 
1.163258961162e-06 2.886822044283e-03 0.0 
0.0 0.0 0.0 
-1.226792752089e-06 1.016766395325e-07 0.0 
1.016766395325e-07 6.369130523067e-03 0.0 
0.0 0.0 0.0 
5.489141591449e-07 1.245816962740e-06 0.0 
1.245816962740e-06 4.814728648517e-03 0.0 
0.0 0.0 0.0 
8.904627029812e-07 1.972478019639e-06 0.0 
1.972478019639e-06 2.641810181689e-03 0.0 
0.0 0.0 0.0 
9.676173320557e-07 2.018489324390e-07 0.0 
2.018489324390e-07 7.678724514769e-03 0.0 
0.0 0.0 0.0 
-2.695511695331e-07 -2.538946913178e-06 0.0 
-2.538946913178e-06 8.035321703620e-03 0.0 
0.0 0.0 0.0 
1.665844743418e-07 -1.851037884195e-06 0.0 
-1.851037884195e-06 6.255784631896e-03 0.0 
0.0 0.0 0.0 
-3.059225207935e-06 1.916163005295e-06 0.0 
1.916163005295e-06 7.051455511240e-03 0.0 
0.0 0.0 0.0 
3.313528181096e-07 8.020962070136e-07 0.0 
8.020962070136e-07 6.143948165312e-03 0.0 
0.0 0.0 0.0 
-2.127585342959e-06 -2.981807812563e-06 0.0 
-2.981807812563e-06 7.260370907558e-03 0.0 
0.0 0.0 0.0 
1.574225825429e-06 -8.584018493577e-06 0.0 
-8.584018493577e-06 4.443627426315e-03 0.0 
0.0 0.0 0.0 
1.178531578087e-06 2.104688592360e-08 0.0 
2.104688592360e-08 5.649750423545e-04 0.0 
0.0 0.0 0.0 
-1.238006780239e-07 1.624544243346e-06 0.0 
1.624544243346e-06 5.996586550289e-03 0.0 
0.0 0.0 0.0 
-3.015130388495e-06 4.899735950188e-07 0.0 
4.899735950188e-07 1.880064530486e-03 0.0 
0.0 0.0 0.0 
-1.657180889181e-07 -1.578868126559e-07 0.0 
-1.578868126559e-07 1.933000218908e-03 0.0 
0.0 0.0 0.0 
-1.621655209931e-06 -1.889396342050e-06 0.0 
-1.889396342050e-06 1.490133275374e-03 0.0 
0.0 0.0 0.0 
-3.581520575428e-06 5.520242737696e-07 0.0 
5.520242737696e-07 2.791025385292e-03 0.0 
0.0 0.0 0.0 
4.003639301679e-06 1.605275390237e-06 0.0 
1.605275390237e-06 9.170896861559e-04 0.0 
0.0 0.0 0.0 
3.471895376565e-07 6.075442862658e-07 0.0 
6.075442862658e-07 1.527811967992e-03 0.0 
0.0 0.0 0.0 
-2.267488872868e-06 -2.910018613762e-06 0.0 
-2.910018613762e-06 7.643659537448e-03 0.0 
0.0 0.0 0.0 
3.820686639822e-06 -7.328945246149e-06 0.0 
-7.328945246149e-06 4.823648063219e-03 0.0 
0.0 0.0 0.0 
1.388449837621e-06 -1.419071024810e-06 0.0 
-1.419071024810e-06 6.779795220221e-03 0.0 
0.0 0.0 0.0 
-1.285452891668e-06 -1.559214909387e-06 0.0 
-1.559214909387e-06 1.091365171116e-03 0.0 
0.0 0.0 0.0 
-1.374612905725e-06 -2.297713217673e-06 0.0 
-2.297713217673e-06 7.662129994046e-03 0.0 
0.0 0.0 0.0 
-1.073164343739e-06 9.930659862843e-07 0.0 
9.930659862843e-07 7.657850895457e-03 0.0 
0.0 0.0 0.0 
-1.177002253439e-06 -2.770920136090e-06 0.0 
-2.770920136090e-06 8.037147984242e-03 0.0 
0.0 0.0 0.0 
1.398594686027e-06 -4.778111611878e-07 0.0 
-4.778111611878e-07 7.200222499439e-03 0.0 
0.0 0.0 0.0 
-6.644515039918e-06 -3.681855836165e-06 0.0 
-3.681855836165e-06 1.048486216891e-03 0.0 
0.0 0.0 0.0 
4.912865323248e-06 -6.767025516951e-06 0.0 
-6.767025516951e-06 5.177555764049e-03 0.0 
0.0 0.0 0.0 
-1.802704021929e-06 -1.379231598065e-06 0.0 
-1.379231598065e-06 7.682241690092e-03 0.0 
0.0 0.0 0.0 
2.312317813428e-06 -5.138295348049e-07 0.0 
-5.138295348049e-07 6.589601639043e-03 0.0 
0.0 0.0 0.0 
3.039202196065e-06 8.892033619691e-06 0.0 
8.892033619691e-06 8.058839480502e-03 0.0 
0.0 0.0 0.0 
5.322467429192e-06 -3.762700645530e-07 0.0 
-3.762700645530e-07 4.772009282652e-03 0.0 
0.0 0.0 0.0 
-3.904368197268e-07 1.698616896326e-06 0.0 
1.698616896326e-06 7.690129343789e-03 0.0 
0.0 0.0 0.0 
-1.751383503260e-06 -1.521375965062e-06 0.0 
-1.521375965062e-06 1.427004503733e-03 0.0 
0.0 0.0 0.0 
2.171950064689e-07 2.742172594751e-06 0.0 
2.742172594751e-06 7.695242082673e-03 0.0 
0.0 0.0 0.0 
-1.505821413209e-06 -3.555872078608e-07 0.0 
-3.555872078608e-07 6.782183324073e-03 0.0 
0.0 0.0 0.0 
1.691325573353e-06 4.415006608827e-06 0.0 
4.415006608827e-06 5.333432437549e-03 0.0 
0.0 0.0 0.0 
3.537057956926e-06 1.825316567064e-06 0.0 
1.825316567064e-06 5.156201464249e-03 0.0 
0.0 0.0 0.0 
1.381059142288e-06 1.258275848396e-06 0.0 
1.258275848396e-06 7.709939048970e-03 0.0 
0.0 0.0 0.0 
-3.037591575050e-06 -3.763435950221e-06 0.0 
-3.763435950221e-06 7.675716717685e-03 0.0 
0.0 0.0 0.0 
-6.306618018418e-06 3.525620789267e-06 0.0 
3.525620789267e-06 8.190854616490e-04 0.0 
0.0 0.0 0.0 
3.256992146383e-06 5.619745504481e-06 0.0 
5.619745504481e-06 6.230980553827e-03 0.0 
0.0 0.0 0.0 
-1.741460479643e-06 -3.014444495847e-06 0.0 
-3.014444495847e-06 3.511244197452e-03 0.0 
0.0 0.0 0.0 
5.552780227106e-06 -9.819720918851e-07 0.0 
-9.819720918851e-07 5.314959755077e-04 0.0 
0.0 0.0 0.0 
-2.195850478359e-06 5.683409779746e-06 0.0 
5.683409779746e-06 7.673069510451e-03 0.0 
0.0 0.0 0.0 
-2.813314756822e-06 -2.097566267822e-07 0.0 
-2.097566267822e-07 7.175913524127e-03 0.0 
0.0 0.0 0.0 
-2.776611077682e-06 5.612188066019e-06 0.0 
5.612188066019e-06 7.686267680931e-03 0.0 
0.0 0.0 0.0 
-5.373633213446e-06 1.020182738370e-06 0.0 
1.020182738370e-06 9.294228916596e-04 0.0 
0.0 0.0 0.0 
-7.514404743136e-06 5.715124058414e-07 0.0 
5.715124058414e-07 5.286772731917e-04 0.0 
0.0 0.0 0.0 
-1.903667628000e-06 1.493856033244e-06 0.0 
1.493856033244e-06 7.737238997427e-03 0.0 
0.0 0.0 0.0 
-1.767634055424e-07 1.116718394438e-06 0.0 
1.116718394438e-06 7.723017026330e-03 0.0 
0.0 0.0 0.0 
1.702512097542e-06 2.988446665180e-06 0.0 
2.988446665180e-06 1.626670398374e-03 0.0 
0.0 0.0 0.0 
-1.852924699897e-07 -7.792547521794e-07 0.0 
-7.792547521794e-07 8.095150839384e-03 0.0 
0.0 0.0 0.0 
-3.014612888153e-06 7.995503696398e-06 0.0 
7.995503696398e-06 5.033407031719e-04 0.0 
0.0 0.0 0.0 
3.608200309380e-06 8.377124673304e-07 0.0 
8.377124673304e-07 4.397873022446e-03 0.0 
0.0 0.0 0.0 
5.845368454012e-06 -4.179466675260e-07 0.0 
-4.179466675260e-07 5.495950359235e-04 0.0 
0.0 0.0 0.0 
2.643207936326e-06 -8.000570920159e-06 0.0 
-8.000570920159e-06 8.049488285658e-03 0.0 
0.0 0.0 0.0 
-2.463905158256e-06 3.649593974122e-06 0.0 
3.649593974122e-06 7.708522783062e-03 0.0 
0.0 0.0 0.0 
-6.184075697524e-07 5.649842697327e-06 0.0 
5.649842697327e-06 3.879172058852e-03 0.0 
0.0 0.0 0.0 
2.631592740054e-06 4.071390314106e-06 0.0 
4.071390314106e-06 4.502516147504e-03 0.0 
0.0 0.0 0.0 
-6.759933294798e-07 2.999536958435e-06 0.0 
2.999536958435e-06 2.517104099999e-03 0.0 
0.0 0.0 0.0 
-2.408450648317e-06 6.097185383975e-06 0.0 
6.097185383975e-06 7.380792219883e-03 0.0 
0.0 0.0 0.0 
5.045642128954e-06 6.407886037280e-07 0.0 
6.407886037280e-07 8.503985306931e-04 0.0 
0.0 0.0 0.0 
-2.941228132447e-06 -2.284355421476e-06 0.0 
-2.284355421476e-06 7.749758213346e-03 0.0 
0.0 0.0 0.0 
-2.183078600870e-06 -1.089221535753e-06 0.0 
-1.089221535753e-06 7.755994250053e-03 0.0 
0.0 0.0 0.0 
-1.825055937643e-06 1.373467335669e-06 0.0 
1.373467335669e-06 7.750700678972e-03 0.0 
0.0 0.0 0.0 
-8.607291128948e-07 9.927109513040e-08 0.0 
9.927109513040e-08 8.114200939245e-03 0.0 
0.0 0.0 0.0 
1.718569151610e-06 3.822324301179e-06 0.0 
3.822324301179e-06 5.026899729406e-04 0.0 
0.0 0.0 0.0 
-2.638644676334e-06 -1.475740779986e-06 0.0 
-1.475740779986e-06 7.766448620302e-03 0.0 
0.0 0.0 0.0 
-2.938987605061e-06 4.622799549898e-06 0.0 
4.622799549898e-06 7.373599728087e-03 0.0 
0.0 0.0 0.0 
-2.921477357143e-07 6.998431401291e-06 0.0 
6.998431401291e-06 4.440327681296e-03 0.0 
0.0 0.0 0.0 
-1.254173094933e-07 6.088498177643e-06 0.0 
6.088498177643e-06 7.692045138658e-03 0.0 
0.0 0.0 0.0 
-9.106983217766e-07 4.264890901962e-06 0.0 
4.264890901962e-06 3.128236589171e-03 0.0 
0.0 0.0 0.0 
4.530739546960e-06 -6.435878916758e-06 0.0 
-6.435878916758e-06 1.272781375634e-03 0.0 
0.0 0.0 0.0 
4.440188079569e-06 -4.235938186571e-06 0.0 
-4.235938186571e-06 8.077143818469e-03 0.0 
0.0 0.0 0.0 
-4.980617663120e-06 4.499264652536e-07 0.0 
4.499264652536e-07 1.954363104307e-04 0.0 
0.0 0.0 0.0 
-1.936339099018e-06 -3.362151031704e-06 0.0 
-3.362151031704e-06 4.416675754701e-03 0.0 
0.0 0.0 0.0 
3.197040790104e-07 6.283939965006e-06 0.0 
6.283939965006e-06 8.081400166102e-03 0.0 
0.0 0.0 0.0 
6.802313986443e-06 -1.160964454872e-06 0.0 
-1.160964454872e-06 1.208691458911e-03 0.0 
0.0 0.0 0.0 
1.264212750174e-06 -4.016290414154e-06 0.0 
-4.016290414154e-06 5.109128371243e-03 0.0 
0.0 0.0 0.0 
1.409155431712e-06 -1.360667072718e-06 0.0 
-1.360667072718e-06 7.742332537740e-03 0.0 
0.0 0.0 0.0 
-1.340946218583e-06 1.452731122418e-06 0.0 
1.452731122418e-06 4.790209288060e-03 0.0 
0.0 0.0 0.0 
-7.753218084883e-07 -9.303866706717e-06 0.0 
-9.303866706717e-06 7.017515741266e-03 0.0 
0.0 0.0 0.0 
6.659288087940e-06 2.517830902294e-06 0.0 
2.517830902294e-06 1.190622071927e-03 0.0 
0.0 0.0 0.0 
5.504906605040e-06 -3.195540733513e-06 0.0 
-3.195540733513e-06 2.074947446750e-04 0.0 
0.0 0.0 0.0 
8.218134238680e-07 -6.259346517367e-06 0.0 
-6.259346517367e-06 5.862943385742e-03 0.0 
0.0 0.0 0.0 
-2.382553983793e-06 5.454105623485e-06 0.0 
5.454105623485e-06 7.733611037800e-03 0.0 
0.0 0.0 0.0 
-2.308367150117e-06 -2.580414581690e-06 0.0 
-2.580414581690e-06 7.774364632629e-03 0.0 
0.0 0.0 0.0 
1.177140986752e-06 5.970966886131e-06 0.0 
5.970966886131e-06 5.567033006722e-03 0.0 
0.0 0.0 0.0 
-3.020953024735e-06 -5.888928478698e-06 0.0 
-5.888928478698e-06 1.069529747923e-03 0.0 
0.0 0.0 0.0 
-1.974221227186e-06 1.539216964051e-06 0.0 
1.539216964051e-06 7.495452193626e-03 0.0 
0.0 0.0 0.0 
4.105060189885e-06 -4.526536722651e-07 0.0 
-4.526536722651e-07 4.197727525648e-03 0.0 
0.0 0.0 0.0 
-4.075931829539e-06 -2.314316876265e-06 0.0 
-2.314316876265e-06 7.421745286780e-03 0.0 
0.0 0.0 0.0 
-5.228992621320e-06 -1.343143393336e-06 0.0 
-1.343143393336e-06 7.385291235199e-03 0.0 
0.0 0.0 0.0 
-3.899606945246e-06 4.462476618925e-06 0.0 
4.462476618925e-06 2.228180594255e-04 0.0 
0.0 0.0 0.0 
-1.764649418612e-06 2.901664406809e-06 0.0 
2.901664406809e-06 5.159519144927e-03 0.0 
0.0 0.0 0.0 
-6.611437108694e-06 -1.126162204162e-06 0.0 
-1.126162204162e-06 5.101589898481e-04 0.0 
0.0 0.0 0.0 
-2.198676282461e-06 -3.068102333186e-06 0.0 
-3.068102333186e-06 7.766178108265e-03 0.0 
0.0 0.0 0.0 
-2.420933402636e-08 -2.059945740087e-06 0.0 
-2.059945740087e-06 4.382121810161e-03 0.0 
0.0 0.0 0.0 
1.127631516384e-06 4.314726521407e-06 0.0 
4.314726521407e-06 7.922520032577e-05 0.0 
0.0 0.0 0.0 
5.864346825563e-06 -1.792940992297e-07 0.0 
-1.792940992297e-07 1.039322211007e-04 0.0 
0.0 0.0 0.0 
-2.593759993119e-06 -9.085847605400e-06 0.0 
-9.085847605400e-06 4.466236126116e-04 0.0 
0.0 0.0 0.0 
-1.424529211649e-05 2.581049678160e-06 0.0 
2.581049678160e-06 4.936405244864e-04 0.0 
0.0 0.0 0.0 
5.678609556775e-06 -8.536648911158e-06 0.0 
-8.536648911158e-06 8.774952402288e-04 0.0 
0.0 0.0 0.0 
-1.138996364211e-05 4.226526289501e-06 0.0 
4.226526289501e-06 9.386454702725e-04 0.0 
0.0 0.0 0.0 
1.128772755404e-05 -5.177921101085e-06 0.0 
-5.177921101085e-06 1.300801746826e-03 0.0 
0.0 0.0 0.0 
-4.681679699331e-06 3.807189444646e-07 0.0 
3.807189444646e-07 1.335441209431e-03 0.0 
0.0 0.0 0.0 
1.315210374023e-05 -5.073245033619e-06 0.0 
-5.073245033619e-06 1.726838324237e-03 0.0 
0.0 0.0 0.0 
-2.714274782795e-06 5.832018409393e-08 0.0 
5.832018409393e-08 1.783980205896e-03 0.0 
0.0 0.0 0.0 
1.533887708993e-05 -3.431048833586e-06 0.0 
-3.431048833586e-06 2.154066666905e-03 0.0 
0.0 0.0 0.0 
-1.808299473105e-06 -4.799518783805e-07 0.0 
-4.799518783805e-07 2.185263571558e-03 0.0 
0.0 0.0 0.0 
1.087583454554e-05 -5.926290005360e-06 0.0 
-5.926290005360e-06 2.580969396678e-03 0.0 
0.0 0.0 0.0 
-1.199120238105e-06 -5.453792456302e-07 0.0 
-5.453792456302e-07 2.635062405677e-03 0.0 
0.0 0.0 0.0 
1.033504036269e-05 -5.747481452457e-06 0.0 
-5.747481452457e-06 3.008667639733e-03 0.0 
0.0 0.0 0.0 
-1.282961429178e-06 -6.621323521308e-07 0.0 
-6.621323521308e-07 3.037168904727e-03 0.0 
0.0 0.0 0.0 
9.598710171199e-06 -6.085090471922e-06 0.0 
-6.085090471922e-06 3.435156688129e-03 0.0 
0.0 0.0 0.0 
-5.435289582023e-07 1.159262378159e-06 0.0 
1.159262378159e-06 3.486931356344e-03 0.0 
0.0 0.0 0.0 
8.963456401195e-06 -5.504564071106e-06 0.0 
-5.504564071106e-06 3.863312947751e-03 0.0 
0.0 0.0 0.0 
-3.944075838730e-06 5.664937592218e-06 0.0 
5.664937592218e-06 3.888886269466e-03 0.0 
0.0 0.0 0.0 

TENSORS node_materi_strain_plasti float
-1.741775845211e-05 -2.168405097446e-06 0.0 
-2.168405097446e-06 1.395813736689e-04 0.0 
0.0 0.0 -3.282868849617e-05 
-7.193710724364e-04 -1.122442495584e-04 0.0 
-1.122442495584e-04 4.531072016065e-03 0.0 
0.0 0.0 -6.959116756397e-04 
-1.326721611229e-03 9.743109485019e-05 0.0 
9.743109485019e-05 8.921087027136e-03 0.0 
0.0 0.0 -1.332621093165e-03 
-1.328526300077e-03 -9.718698781147e-05 0.0 
-9.718698781147e-05 8.927311597372e-03 0.0 
0.0 0.0 -1.332621093165e-03 
-8.193859278094e-05 3.577520009453e-05 0.0 
3.577520009453e-05 3.368763971302e-04 0.0 
0.0 0.0 -8.453455331316e-05 
-1.695924659271e-04 1.267609683743e-04 0.0 
1.267609683743e-04 8.452299049113e-04 0.0 
0.0 0.0 -1.619080202416e-04 
-2.296336673595e-04 1.041833740939e-04 0.0 
1.041833740939e-04 1.224476071287e-03 0.0 
0.0 0.0 -2.266090766362e-04 
-2.971855348456e-04 9.450166671955e-05 0.0 
9.450166671955e-05 1.745895085854e-03 0.0 
0.0 0.0 -2.937643997455e-04 
-3.715291688780e-04 6.977872566520e-05 0.0 
6.977872566520e-05 2.214517262813e-03 0.0 
0.0 0.0 -3.610469555860e-04 
-4.249688263073e-04 6.584730845625e-05 0.0 
6.584730845625e-05 2.664484643095e-03 0.0 
0.0 0.0 -4.277228197774e-04 
-4.875317281638e-04 7.284843635977e-05 0.0 
7.284843635977e-05 3.123402469253e-03 0.0 
0.0 0.0 -4.940119848999e-04 
-5.560650258811e-04 6.506894170195e-05 0.0 
6.506894170195e-05 3.586726731214e-03 0.0 
0.0 0.0 -5.601824523721e-04 
-6.219544696599e-04 6.499150418632e-05 0.0 
6.499150418632e-05 4.044891981262e-03 0.0 
0.0 0.0 -6.267196139102e-04 
-6.989301157160e-04 8.304445482453e-05 0.0 
8.304445482453e-05 4.516508974108e-03 0.0 
0.0 0.0 -6.936951881209e-04 
-7.842461813792e-04 1.250766207627e-04 0.0 
1.250766207627e-04 5.027932232893e-03 0.0 
0.0 0.0 -7.607197531558e-04 
-8.342478146059e-04 1.327780010266e-04 0.0 
1.327780010266e-04 5.490101288131e-03 0.0 
0.0 0.0 -8.270758575053e-04 
-8.797786789152e-04 1.730981527131e-04 0.0 
1.730981527131e-04 5.870913224211e-03 0.0 
0.0 0.0 -8.903361771248e-04 
-9.530636179412e-04 6.774981962024e-05 0.0 
6.774981962024e-05 6.360455625450e-03 0.0 
0.0 0.0 -9.558084330571e-04 
-1.021468397639e-03 6.438406854748e-05 0.0 
6.438406854748e-05 6.838909130196e-03 0.0 
0.0 0.0 -1.024523475697e-03 
-1.087303877607e-03 6.616077821805e-05 0.0 
6.616077821805e-05 7.302617105742e-03 0.0 
0.0 0.0 -1.091244731156e-03 
-1.157611465321e-03 6.099216604961e-05 0.0 
6.099216604961e-05 7.775325521779e-03 0.0 
0.0 0.0 -1.158330123333e-03 
-1.229956863987e-03 7.577779225234e-05 0.0 
7.577779225234e-05 8.251739665694e-03 0.0 
0.0 0.0 -1.226073836101e-03 
-1.285597262298e-03 9.777469733004e-05 0.0 
9.777469733004e-05 8.717344745921e-03 0.0 
0.0 0.0 -1.289832767750e-03 
-1.328056332164e-03 -6.444803612929e-06 0.0 
-6.444803612929e-06 8.942057407760e-03 0.0 
0.0 0.0 -1.336902025401e-03 
-1.335490548137e-03 -3.051268407678e-06 0.0 
-3.051268407678e-06 8.928554519845e-03 0.0 
0.0 0.0 -1.332945767435e-03 
-1.336130347494e-03 -6.396074884476e-05 0.0 
-6.396074884476e-05 8.918857970665e-03 0.0 
0.0 0.0 -1.334903170087e-03 
-1.339230604727e-03 3.012709249351e-05 0.0 
3.012709249351e-05 8.923856553285e-03 0.0 
0.0 0.0 -1.334459899807e-03 
-1.337146058389e-03 -8.398799894874e-06 0.0 
-8.398799894874e-06 8.911324906834e-03 0.0 
0.0 0.0 -1.332067731643e-03 
-1.335355832928e-03 1.075181302724e-06 0.0 
1.075181302724e-06 8.911332561918e-03 0.0 
0.0 0.0 -1.335050935171e-03 
-1.325449513940e-03 2.957247517956e-06 0.0 
2.957247517956e-06 8.920139941522e-03 0.0 
0.0 0.0 -1.335055123498e-03 
-1.337345353037e-03 -9.523690686198e-06 0.0 
-9.523690686198e-06 8.921732771433e-03 0.0 
0.0 0.0 -1.333530254363e-03 
-1.334717977068e-03 -4.294761687245e-05 0.0 
-4.294761687245e-05 8.930458145260e-03 0.0 
0.0 0.0 -1.336259905589e-03 
-1.337792100019e-03 2.741258004611e-05 0.0 
2.741258004611e-05 8.934606220421e-03 0.0 
0.0 0.0 -1.335712483792e-03 
-1.336136187727e-03 -6.884802183741e-06 0.0 
-6.884802183741e-06 8.921957108707e-03 0.0 
0.0 0.0 -1.333313947604e-03 
-1.338126723765e-03 -4.814512478211e-06 0.0 
-4.814512478211e-06 8.924502617003e-03 0.0 
0.0 0.0 -1.335862559377e-03 
-1.327324523368e-03 -1.060172701921e-07 0.0 
-1.060172701921e-07 8.942333996565e-03 0.0 
0.0 0.0 -1.336097458551e-03 
-1.338609928482e-03 -2.842890241030e-06 0.0 
-2.842890241030e-06 8.932107808072e-03 0.0 
0.0 0.0 -1.335235043394e-03 
-1.329400644355e-03 -1.048596426291e-05 0.0 
-1.048596426291e-05 8.921074213048e-03 0.0 
0.0 0.0 -1.334297546486e-03 
-1.338340837827e-03 9.966400157380e-06 0.0 
9.966400157380e-06 8.903421378777e-03 0.0 
0.0 0.0 -1.332308435384e-03 
-1.339067962771e-03 -2.558483156546e-06 0.0 
-2.558483156546e-06 8.895896267544e-03 0.0 
0.0 0.0 -1.332019584455e-03 
-1.327125647707e-03 1.639257363251e-06 0.0 
1.639257363251e-06 8.917700513123e-03 0.0 
0.0 0.0 -1.333392124151e-03 
-1.334568721853e-03 -4.268105943785e-06 0.0 
-4.268105943785e-06 8.928545997729e-03 0.0 
0.0 0.0 -1.334727449481e-03 
-1.336827804858e-03 -5.001027102512e-06 0.0 
-5.001027102512e-06 8.928021219148e-03 0.0 
0.0 0.0 -1.336576889699e-03 
-1.337235537648e-03 1.693416763899e-05 0.0 
1.693416763899e-05 8.930023700079e-03 0.0 
0.0 0.0 -1.335888391555e-03 
-1.331872643832e-03 -1.070662442944e-06 0.0 
-1.070662442944e-06 8.931108733201e-03 0.0 
0.0 0.0 -1.334783226448e-03 
-1.335383687196e-03 3.225376233217e-06 0.0 
3.225376233217e-06 8.925108831379e-03 0.0 
0.0 0.0 -1.335053869153e-03 
-1.335647092676e-03 -1.629379981325e-06 0.0 
-1.629379981325e-06 8.920485307702e-03 0.0 
0.0 0.0 -1.334960189349e-03 
-1.336340449165e-03 -1.285585314755e-06 0.0 
-1.285585314755e-06 8.933772799625e-03 0.0 
0.0 0.0 -1.334889991128e-03 
-1.330589077276e-03 -4.874946038578e-06 0.0 
-4.874946038578e-06 8.935469598915e-03 0.0 
0.0 0.0 -1.335774086633e-03 
-1.341165284707e-03 -5.814943729686e-06 0.0 
-5.814943729686e-06 8.933862901487e-03 0.0 
0.0 0.0 -1.336605656894e-03 
-1.330240946256e-03 -4.520075279769e-06 0.0 
-4.520075279769e-06 8.938118272604e-03 0.0 
0.0 0.0 -1.336508443943e-03 
-1.338673330008e-03 -5.862543655719e-06 0.0 
-5.862543655719e-06 8.942517447788e-03 0.0 
0.0 0.0 -1.335343284290e-03 
-1.336600650314e-03 -3.582742261962e-05 0.0 
-3.582742261962e-05 8.951381047284e-03 0.0 
0.0 0.0 -1.337998490269e-03 
-1.341076503417e-03 3.451828262941e-05 0.0 
3.451828262941e-05 8.946627943271e-03 0.0 
0.0 0.0 -1.337247094005e-03 
-1.334448453648e-03 1.095281049644e-05 0.0 
1.095281049644e-05 8.923080866366e-03 0.0 
0.0 0.0 -1.333783489999e-03 
-1.333263826439e-03 -4.659210696582e-08 0.0 
-4.659210696582e-08 8.908320836892e-03 0.0 
0.0 0.0 -1.334548731617e-03 
-1.334150017560e-03 -8.272198035474e-06 0.0 
-8.272198035474e-06 8.929832025163e-03 0.0 
0.0 0.0 -1.334619746794e-03 
-1.331619300726e-03 -1.909948370259e-06 0.0 
-1.909948370259e-06 8.928586538444e-03 0.0 
0.0 0.0 -1.335242115105e-03 
-1.340870630612e-03 -1.061733168398e-05 0.0 
-1.061733168398e-05 8.926675419192e-03 0.0 
0.0 0.0 -1.335691437541e-03 
-1.329659514104e-03 -2.082049369195e-06 0.0 
-2.082049369195e-06 8.934711562866e-03 0.0 
0.0 0.0 -1.335646478247e-03 
-1.339117702311e-03 -4.029677061321e-07 0.0 
-4.029677061321e-07 8.924836081587e-03 0.0 
0.0 0.0 -1.334931242407e-03 
-1.328302087749e-03 -6.726834891335e-06 0.0 
-6.726834891335e-06 8.915098302923e-03 0.0 
0.0 0.0 -1.334100791702e-03 
-1.338339244626e-03 1.868410609640e-06 0.0 
1.868410609640e-06 8.913909047127e-03 0.0 
0.0 0.0 -1.332237298415e-03 
-1.340573467967e-03 -1.512560094744e-05 0.0 
-1.512560094744e-05 8.916790452845e-03 0.0 
0.0 0.0 -1.333749945600e-03 
-1.332872318884e-03 1.070088453614e-05 0.0 
1.070088453614e-05 8.939654193892e-03 0.0 
0.0 0.0 -1.336652505695e-03 
-1.326343527950e-03 -1.064817557574e-05 0.0 
-1.064817557574e-05 8.953327537606e-03 0.0 
0.0 0.0 -1.337094627689e-03 
-1.334975160234e-03 -1.103658676067e-05 0.0 
-1.103658676067e-05 8.887287544370e-03 0.0 
0.0 0.0 -1.328990728106e-03 
-1.326727222271e-03 3.789706117049e-06 0.0 
3.789706117049e-06 8.937395178325e-03 0.0 
0.0 0.0 -1.335900064369e-03 
-1.338702731113e-03 6.248103656251e-07 0.0 
6.248103656251e-07 8.926718973225e-03 0.0 
0.0 0.0 -1.332523500780e-03 
-1.338833780446e-03 -4.056504769856e-05 0.0 
-4.056504769856e-05 8.921997078910e-03 0.0 
0.0 0.0 -1.335219049675e-03 
-1.336003357241e-03 1.668194413568e-05 0.0 
1.668194413568e-05 8.951047853454e-03 0.0 
0.0 0.0 -1.336566422126e-03 
-1.338588357839e-03 -8.318316932401e-07 0.0 
-8.318316932401e-07 8.955066587464e-03 0.0 
0.0 0.0 -1.335855682064e-03 
-7.644479361830e-04 -7.854511718928e-05 0.0 
-7.854511718928e-05 4.967324475694e-03 0.0 
0.0 0.0 -7.648954205800e-04 
-8.429692067441e-04 -8.894340543493e-05 0.0 
-8.894340543493e-05 5.465473064469e-03 0.0 
0.0 0.0 -8.298981322982e-04 
-9.045101262401e-04 -8.649802336555e-05 0.0 
-8.649802336555e-05 5.927599153875e-03 0.0 
0.0 0.0 -8.959277352460e-04 
-9.682355907570e-04 -9.235019684030e-05 0.0 
-9.235019684030e-05 6.375436758553e-03 0.0 
0.0 0.0 -9.610467530554e-04 
-1.034301386645e-03 -8.131875668407e-05 0.0 
-8.131875668407e-05 6.841207604472e-03 0.0 
0.0 0.0 -1.026987810050e-03 
-1.084652817885e-03 -8.917462571015e-05 0.0 
-8.917462571015e-05 7.307643626561e-03 0.0 
0.0 0.0 -1.092790196867e-03 
-1.153469442186e-03 -7.930470280165e-05 0.0 
-7.930470280165e-05 7.768901773096e-03 0.0 
0.0 0.0 -1.158290425478e-03 
-1.218602686822e-03 -9.135197616384e-05 0.0 
-9.135197616384e-05 8.209166370611e-03 0.0 
0.0 0.0 -1.224481705251e-03 
-1.280117147855e-03 -1.008986322443e-04 0.0 
-1.008986322443e-04 8.709401710635e-03 0.0 
0.0 0.0 -1.288782062784e-03 
-4.998221742882e-06 1.939885775498e-05 0.0 
1.939885775498e-05 7.577606565304e-05 0.0 
0.0 0.0 -2.465739114440e-05 
5.004779060436e-05 -1.626755392818e-04 0.0 
-1.626755392818e-04 8.300775355245e-05 0.0 
0.0 0.0 -4.650973491449e-05 
-6.988773385000e-04 -6.414203901489e-06 0.0 
-6.414203901489e-06 4.541118799231e-03 0.0 
0.0 0.0 -6.945495707198e-04 
-6.231017920372e-05 1.115387386765e-05 0.0 
1.115387386765e-05 3.108003828603e-04 0.0 
0.0 0.0 -7.801475606665e-05 
-1.460576770734e-04 1.484046150929e-05 0.0 
1.484046150929e-05 7.770591630460e-04 0.0 
0.0 0.0 -1.583297350193e-04 
-2.114848956374e-04 1.739449406964e-05 0.0 
1.739449406964e-05 1.245945048977e-03 0.0 
0.0 0.0 -2.251841147728e-04 
-2.826384836080e-04 1.494194675664e-05 0.0 
1.494194675664e-05 1.693936406411e-03 0.0 
0.0 0.0 -2.907975307606e-04 
-3.467236823258e-04 1.624238360764e-05 0.0 
1.624238360764e-05 2.160989176577e-03 0.0 
0.0 0.0 -3.576084760620e-04 
-4.034182833337e-04 -4.200861776736e-06 0.0 
-4.200861776736e-06 2.629562399744e-03 0.0 
0.0 0.0 -4.246591878591e-04 
-4.761223259385e-04 6.452176696025e-07 0.0 
6.452176696025e-07 3.097474449594e-03 0.0 
0.0 0.0 -4.913636896408e-04 
-5.446829016033e-04 3.333337451638e-07 0.0 
3.333337451638e-07 3.565252150871e-03 0.0 
0.0 0.0 -5.580753662734e-04 
-6.120040484324e-04 -3.148004277915e-06 0.0 
-3.148004277915e-06 4.032884488981e-03 0.0 
0.0 0.0 -6.248674136757e-04 
-6.706821994265e-05 -1.335650921940e-04 0.0 
-1.335650921940e-04 3.441989069413e-04 0.0 
0.0 0.0 -8.534137276735e-05 
-1.642590555560e-04 -1.979149936673e-04 0.0 
-1.979149936673e-04 8.153075685150e-04 0.0 
0.0 0.0 -1.600000000000e-04 
-2.320762863941e-04 -1.605175487933e-04 0.0 
-1.605175487933e-04 1.276726721346e-03 0.0 
0.0 0.0 -2.266666666667e-04 
-2.986636326699e-04 -2.023172378402e-04 0.0 
-2.023172378402e-04 1.738781714550e-03 0.0 
0.0 0.0 -2.933333333333e-04 
-3.640335269793e-04 -1.647957464760e-04 0.0 
-1.647957464760e-04 2.201281042858e-03 0.0 
0.0 0.0 -3.600000000000e-04 
-4.304425780171e-04 -2.046254239306e-04 0.0 
-2.046254239306e-04 2.664768429398e-03 0.0 
0.0 0.0 -4.266666666667e-04 
-4.966420638955e-04 -1.663109596127e-04 0.0 
-1.663109596127e-04 3.128374407042e-03 0.0 
0.0 0.0 -4.933333333333e-04 
-5.622839918589e-04 -2.001712001392e-04 0.0 
-2.001712001392e-04 3.590232611973e-03 0.0 
0.0 0.0 -5.600000000000e-04 
-6.246804992584e-04 -1.417515320002e-04 0.0 
-1.417515320002e-04 4.042867570769e-03 0.0 
0.0 0.0 -6.266666666667e-04 
-6.913130996727e-04 5.498609571768e-05 0.0 
5.498609571768e-05 4.454824349021e-03 0.0 
0.0 0.0 -6.874962403976e-04 
-6.868874145389e-04 4.265374631682e-06 0.0 
4.265374631682e-06 4.486723904769e-03 0.0 
0.0 0.0 -6.910932206029e-04 
-6.934978988667e-04 4.367505525820e-06 0.0 
4.367505525820e-06 4.491335876748e-03 0.0 
0.0 0.0 -6.911911970487e-04 
-6.907997940409e-04 -7.067285999291e-06 0.0 
-7.067285999291e-06 4.485601554890e-03 0.0 
0.0 0.0 -6.903356507966e-04 
-6.907918205776e-04 4.658551261964e-06 0.0 
4.658551261964e-06 4.562156077984e-03 0.0 
0.0 0.0 -6.980756478071e-04 
-6.892878188424e-04 5.414637571099e-06 0.0 
5.414637571099e-06 4.494915586897e-03 0.0 
0.0 0.0 -6.911448554634e-04 
-6.797647522222e-04 -6.151835168632e-06 0.0 
-6.151835168632e-06 4.487621365133e-03 0.0 
0.0 0.0 -6.903833977050e-04 
-6.832908759363e-04 1.181523808990e-05 0.0 
1.181523808990e-05 4.498914041665e-03 0.0 
0.0 0.0 -6.905588330458e-04 
-6.949806625349e-04 2.423611152395e-06 0.0 
2.423611152395e-06 4.508372842652e-03 0.0 
0.0 0.0 -6.922444453805e-04 
-6.970682970385e-04 1.264857313784e-05 0.0 
1.264857313784e-05 4.510203072304e-03 0.0 
0.0 0.0 -6.916098530255e-04 
-6.888508586807e-04 7.096050778982e-06 0.0 
7.096050778982e-06 4.506612582973e-03 0.0 
0.0 0.0 -6.911665914957e-04 
-6.923116819991e-04 3.442306794673e-06 0.0 
3.442306794673e-06 4.500662587744e-03 0.0 
0.0 0.0 -6.911615840689e-04 
-6.874005628903e-04 1.547082050469e-05 0.0 
1.547082050469e-05 4.496710901948e-03 0.0 
0.0 0.0 -6.914992001314e-04 
-6.904170598993e-04 2.109837221789e-05 0.0 
2.109837221789e-05 4.507680445908e-03 0.0 
0.0 0.0 -6.922481495424e-04 
-2.592440264170e-05 -1.590076434165e-05 0.0 
-1.590076434165e-05 1.361807839619e-04 0.0 
0.0 0.0 -2.981554499673e-05 
-3.446067835921e-05 -4.722769694990e-06 0.0 
-4.722769694990e-06 1.514232641041e-04 0.0 
0.0 0.0 -3.001360406192e-05 
-1.576164107189e-05 6.855840384387e-06 0.0 
6.855840384387e-06 1.420727738414e-04 0.0 
0.0 0.0 -2.891678940537e-05 
-1.058332407340e-05 -2.088674468891e-05 0.0 
-2.088674468891e-05 1.367187831328e-04 0.0 
0.0 0.0 -2.889836327124e-05 
-3.364373544555e-05 -3.089965635258e-05 0.0 
-3.089965635258e-05 1.595260388365e-04 0.0 
0.0 0.0 -3.040745255895e-05 
-4.176671741931e-05 -6.138377296778e-06 0.0 
-6.138377296778e-06 1.798263625009e-04 0.0 
0.0 0.0 -3.068777868300e-05 
-3.824342451581e-05 5.591674158897e-07 0.0 
5.591674158897e-07 1.791426173783e-04 0.0 
0.0 0.0 -3.058835961954e-05 
-3.226360630243e-05 -1.341036859016e-06 0.0 
-1.341036859016e-06 1.722310666212e-04 0.0 
0.0 0.0 -3.053879953887e-05 
-3.075195274388e-05 -3.753502375185e-06 0.0 
-3.753502375185e-06 1.736984769830e-04 0.0 
0.0 0.0 -3.044251428418e-05 
-2.638860610343e-05 -7.894449171806e-06 0.0 
-7.894449171806e-06 1.709687444738e-04 0.0 
0.0 0.0 -3.048531495051e-05 
-2.681419529694e-05 -1.626482453990e-05 0.0 
-1.626482453990e-05 1.776638784057e-04 0.0 
0.0 0.0 -3.060061046523e-05 
-4.178895109071e-05 4.651397470156e-06 0.0 
4.651397470156e-06 1.936858804511e-04 0.0 
0.0 0.0 -3.133350520012e-05 
-3.584663091299e-05 2.920944978626e-05 0.0 
2.920944978626e-05 1.814285478668e-04 0.0 
0.0 0.0 -3.101487170496e-05 
-1.892508329030e-05 9.286208390834e-06 0.0 
9.286208390834e-06 1.578481945027e-04 0.0 
0.0 0.0 -3.010388419214e-05 
-2.660519595212e-05 -4.398298942812e-06 0.0 
-4.398298942812e-06 1.591906609278e-04 0.0 
0.0 0.0 -3.041972112533e-05 
-4.134075465171e-05 1.617060886410e-06 0.0 
1.617060886410e-06 1.756452327158e-04 0.0 
0.0 0.0 -3.060566238437e-05 
-4.636580504523e-05 5.643116689733e-06 0.0 
5.643116689733e-06 1.798643178415e-04 0.0 
0.0 0.0 -3.058114983003e-05 
-3.066571027210e-05 2.752472550755e-05 0.0 
2.752472550755e-05 1.500341931887e-04 0.0 
0.0 0.0 -3.041506914824e-05 
-1.475246436935e-05 4.693943976226e-06 0.0 
4.693943976226e-06 1.322021267255e-04 0.0 
0.0 0.0 -2.944997384815e-05 
1.692696891603e-05 2.941306991459e-05 0.0 
2.941306991459e-05 3.248696658237e-05 0.0 
0.0 0.0 -1.548804051647e-05 
-4.138069273306e-05 2.380392071026e-05 0.0 
2.380392071026e-05 1.791647480562e-04 0.0 
0.0 0.0 -3.578798185940e-05 
-5.082624455940e-05 2.307438814385e-05 0.0 
2.307438814385e-05 2.192517875247e-04 0.0 
0.0 0.0 -3.259259259259e-05 
-3.904493454344e-05 1.319158810859e-05 0.0 
1.319158810859e-05 2.124309690206e-04 0.0 
0.0 0.0 -3.259259259259e-05 
-3.998422709777e-05 4.206611802252e-06 0.0 
4.206611802252e-06 2.191099310162e-04 0.0 
0.0 0.0 -3.259259259259e-05 
-3.598561909654e-05 2.499873847911e-06 0.0 
2.499873847911e-06 2.159019788634e-04 0.0 
0.0 0.0 -3.259259259259e-05 
-3.632820566417e-05 2.882288061798e-07 0.0 
2.882288061798e-07 2.173868714997e-04 0.0 
0.0 0.0 -3.259259259259e-05 
-3.588298665307e-05 -2.758907376241e-07 0.0 
-2.758907376241e-07 2.169299340449e-04 0.0 
0.0 0.0 -3.259259259259e-05 
-3.646640337304e-05 -2.125934596298e-07 0.0 
-2.125934596298e-07 2.176669809839e-04 0.0 
0.0 0.0 -3.259259259259e-05 
-3.628677365279e-05 3.145871281038e-07 0.0 
3.145871281038e-07 2.174497675330e-04 0.0 
0.0 0.0 -3.259259259259e-05 
-3.604545022034e-05 6.986239544852e-07 0.0 
6.986239544852e-07 2.173832528950e-04 0.0 
0.0 0.0 -3.259259259259e-05 
-3.552119878126e-05 8.672774116517e-07 0.0 
8.672774116517e-07 2.170898645204e-04 0.0 
0.0 0.0 -3.259259259259e-05 
-3.500350716805e-05 8.335978999955e-07 0.0 
8.335978999955e-07 2.168746029683e-04 0.0 
0.0 0.0 -3.259259259259e-05 
-3.449251297687e-05 6.551472584475e-07 0.0 
6.551472584475e-07 2.166452534967e-04 0.0 
0.0 0.0 -3.259259259259e-05 
-3.408712116375e-05 3.825600141707e-07 0.0 
3.825600141707e-07 2.164736656132e-04 0.0 
0.0 0.0 -3.259259259259e-05 
-3.381510663148e-05 6.554123788932e-08 0.0 
6.554123788932e-08 2.163533262521e-04 0.0 
0.0 0.0 -3.259259259259e-05 
-3.370389857587e-05 -2.483657956094e-07 0.0 
-2.483657956094e-07 2.163000711077e-04 0.0 
0.0 0.0 -3.259259259259e-05 
-3.375217208609e-05 -5.225660899133e-07 0.0 
-5.225660899133e-07 2.163093088211e-04 0.0 
0.0 0.0 -3.259259259259e-05 
-3.394733066284e-05 -7.308584981167e-07 0.0 
-7.308584981167e-07 2.163764907116e-04 0.0 
0.0 0.0 -3.259259259259e-05 
-3.426327018327e-05 -8.701870408165e-07 0.0 
-8.701870408165e-07 2.164867118783e-04 0.0 
0.0 0.0 -3.259259259259e-05 
-3.467534034648e-05 -9.702232853031e-07 0.0 
-9.702232853031e-07 2.166223411158e-04 0.0 
0.0 0.0 -3.259259259259e-05 
-3.517907961463e-05 -1.093677554421e-06 0.0 
-1.093677554421e-06 2.167694390401e-04 0.0 
0.0 0.0 -3.259259259259e-05 
-3.581146020490e-05 -1.336730642404e-06 0.0 
-1.336730642404e-06 2.169209867890e-04 0.0 
0.0 0.0 -3.259259259259e-05 
-3.667900803895e-05 -1.846708095604e-06 0.0 
-1.846708095604e-06 2.170743711406e-04 0.0 
0.0 0.0 -3.259259259259e-05 
-3.801302672643e-05 -2.865819580528e-06 0.0 
-2.865819580528e-06 2.172274228901e-04 0.0 
0.0 0.0 -3.259259259259e-05 
-4.028294997010e-05 -4.780886353875e-06 0.0 
-4.780886353875e-06 2.173769915863e-04 0.0 
0.0 0.0 -3.259259259259e-05 
-4.438820031628e-05 -7.512742365142e-06 0.0 
-7.512742365142e-06 2.176294487032e-04 0.0 
0.0 0.0 -3.259259259259e-05 
-5.382404087881e-05 -2.863349092419e-06 0.0 
-2.863349092419e-06 2.200900601684e-04 0.0 
0.0 0.0 -3.259259259259e-05 
-2.708822579352e-05 4.096479159009e-05 0.0 
4.096479159009e-05 1.833145539578e-04 0.0 
0.0 0.0 -4.188986685863e-05 
-6.588640828231e-05 1.021783686257e-04 0.0 
1.021783686257e-04 3.374401436671e-04 0.0 
0.0 0.0 -8.042869255693e-05 
-7.539986430870e-05 -8.741657070859e-06 0.0 
-8.741657070859e-06 3.488796771163e-04 0.0 
0.0 0.0 -6.885723615117e-05 
-7.191902270882e-05 -8.664826446373e-06 0.0 
-8.664826446373e-06 3.623861408026e-04 0.0 
0.0 0.0 -6.675690614821e-05 
-7.096612353908e-05 -7.076969408832e-06 0.0 
-7.076969408832e-06 3.648244656715e-04 0.0 
0.0 0.0 -6.687759607169e-05 
-7.031155676720e-05 -5.285359736221e-06 0.0 
-5.285359736221e-06 3.655096368638e-04 0.0 
0.0 0.0 -6.692243686021e-05 
-6.979659333683e-05 -3.927981442804e-06 0.0 
-3.927981442804e-06 3.658112207973e-04 0.0 
0.0 0.0 -6.694458976440e-05 
-6.938248373733e-05 -3.016249157524e-06 0.0 
-3.016249157524e-06 3.659310032636e-04 0.0 
0.0 0.0 -6.695575504308e-05 
-6.903823188021e-05 -2.422400296192e-06 0.0 
-2.422400296192e-06 3.659483810491e-04 0.0 
0.0 0.0 -6.696090732751e-05 
-6.874350863248e-05 -2.004762387601e-06 0.0 
-2.004762387601e-06 3.659057112978e-04 0.0 
0.0 0.0 -6.696257866377e-05 
-6.849104193314e-05 -1.641710125120e-06 0.0 
-1.641710125120e-06 3.658291600436e-04 0.0 
0.0 0.0 -6.696226526355e-05 
-6.828605899036e-05 -1.240788836787e-06 0.0 
-1.240788836787e-06 3.657398658464e-04 0.0 
0.0 0.0 -6.696110980504e-05 
-6.814383989167e-05 -7.484695114401e-07 0.0 
-7.484695114401e-07 3.656617226466e-04 0.0 
0.0 0.0 -6.696030947779e-05 
-6.808186331041e-05 -1.660310888547e-07 0.0 
-1.660310888547e-07 3.656181045332e-04 0.0 
0.0 0.0 -6.696051840035e-05 
-6.811257327461e-05 4.609805334188e-07 0.0 
4.609805334188e-07 3.656261756942e-04 0.0 
0.0 0.0 -6.696213170962e-05 
-6.823569872621e-05 1.064958144145e-06 0.0 
1.064958144145e-06 3.656861528581e-04 0.0 
0.0 0.0 -6.696434136942e-05 
-6.844865780178e-05 1.586022154649e-06 0.0 
1.586022154649e-06 3.658089458181e-04 0.0 
0.0 0.0 -6.696881311943e-05 
-6.872169695032e-05 1.933526763001e-06 0.0 
1.933526763001e-06 3.659622267146e-04 0.0 
0.0 0.0 -6.697162854505e-05 
-6.905111487950e-05 2.085068261940e-06 0.0 
2.085068261940e-06 3.661904309349e-04 0.0 
0.0 0.0 -6.698047098434e-05 
-6.934266926980e-05 1.920466756119e-06 0.0 
1.920466756119e-06 3.663359093631e-04 0.0 
0.0 0.0 -6.697738939306e-05 
-6.968912336370e-05 1.597711867472e-06 0.0 
1.597711867472e-06 3.667124044469e-04 0.0 
0.0 0.0 -6.700109919630e-05 
-6.973561691186e-05 6.486219458665e-07 0.0 
6.486219458665e-07 3.665336374711e-04 0.0 
0.0 0.0 -6.696382492893e-05 
-7.000792168898e-05 3.296166777818e-07 0.0 
3.296166777818e-07 3.671221680492e-04 0.0 
0.0 0.0 -6.702642709971e-05 
-6.927635142133e-05 -6.227377160543e-07 0.0 
-6.227377160543e-07 3.651889625761e-04 0.0 
0.0 0.0 -6.684780354123e-05 
-7.025859889049e-05 3.040474906422e-06 0.0 
3.040474906422e-06 3.673693912969e-04 0.0 
0.0 0.0 -6.710889912068e-05 
-6.849970504165e-05 1.526970560032e-06 0.0 
1.526970560032e-06 3.619938915516e-04 0.0 
0.0 0.0 -6.657906761146e-05 
-6.910337754079e-05 1.353491271377e-05 0.0 
1.353491271377e-05 3.699148334727e-04 0.0 
0.0 0.0 -6.865047518935e-05 
-7.578492820862e-05 -4.736712498195e-06 0.0 
-4.736712498195e-06 3.901861166726e-04 0.0 
0.0 0.0 -7.566209095340e-05 
-4.560764192083e-05 3.772610462047e-06 0.0 
3.772610462047e-06 2.687573511056e-04 0.0 
0.0 0.0 -6.117012746886e-05 
-1.113783985107e-04 1.203304524889e-05 0.0 
1.203304524889e-05 7.114326190948e-04 0.0 
0.0 0.0 -1.510276482808e-04 
-1.527081061741e-04 -2.061087282645e-06 0.0 
-2.061087282645e-06 8.272556531888e-04 0.0 
0.0 0.0 -1.592184548918e-04 
-1.512984695940e-04 1.331924032518e-05 0.0 
1.331924032518e-05 7.981703253947e-04 0.0 
0.0 0.0 -1.544287074729e-04 
-1.599246778953e-04 -2.215341539375e-06 0.0 
-2.215341539375e-06 7.972813424957e-04 0.0 
0.0 0.0 -1.546974434027e-04 
-1.581950999215e-04 1.999759211200e-06 0.0 
1.999759211200e-06 8.017002859748e-04 0.0 
0.0 0.0 -1.546149713817e-04 
-1.590776714749e-04 8.711309503169e-07 0.0 
8.711309503169e-07 8.007582290638e-04 0.0 
0.0 0.0 -1.547309927694e-04 
-1.581975233319e-04 3.572725087716e-06 0.0 
3.572725087716e-06 8.011911404276e-04 0.0 
0.0 0.0 -1.547056648660e-04 
-1.580244562606e-04 3.704833864791e-06 0.0 
3.704833864791e-06 8.004635048260e-04 0.0 
0.0 0.0 -1.547192293301e-04 
-1.576036836101e-04 4.371207812252e-06 0.0 
4.371207812252e-06 8.002815367676e-04 0.0 
0.0 0.0 -1.546986011181e-04 
-1.573101416105e-04 4.124672715451e-06 0.0 
4.124672715451e-06 7.998840225206e-04 0.0 
0.0 0.0 -1.546928402701e-04 
-1.569888602877e-04 3.673742477981e-06 0.0 
3.673742477981e-06 7.996181604363e-04 0.0 
0.0 0.0 -1.546811824052e-04 
-1.567462473684e-04 2.722121471942e-06 0.0 
2.722121471942e-06 7.993726914993e-04 0.0 
0.0 0.0 -1.546738952296e-04 
-1.565712080567e-04 1.580401071907e-06 0.0 
1.580401071907e-06 7.992334621964e-04 0.0 
0.0 0.0 -1.546672138198e-04 
-1.564973254304e-04 2.941222400167e-07 0.0 
2.941222400167e-07 7.991749239304e-04 0.0 
0.0 0.0 -1.546633908507e-04 
-1.565256674844e-04 -9.488122137070e-07 0.0 
-9.488122137070e-07 7.992157899371e-04 0.0 
0.0 0.0 -1.546615686189e-04 
-1.566363033046e-04 -2.028050207720e-06 0.0 
-2.028050207720e-06 7.993277195599e-04 0.0 
0.0 0.0 -1.546621600236e-04 
-1.567901597657e-04 -2.879385819155e-06 0.0 
-2.879385819155e-06 7.994604688096e-04 0.0 
0.0 0.0 -1.546641158093e-04 
-1.569550033321e-04 -3.556627963128e-06 0.0 
-3.556627963128e-06 7.995582591122e-04 0.0 
0.0 0.0 -1.546655846681e-04 
-1.571025695262e-04 -4.172711369437e-06 0.0 
-4.172711369437e-06 7.995787413170e-04 0.0 
0.0 0.0 -1.546642267320e-04 
-1.571999507241e-04 -4.866071954256e-06 0.0 
-4.866071954256e-06 7.994774784002e-04 0.0 
0.0 0.0 -1.546574031113e-04 
-1.571985320819e-04 -5.771315248739e-06 0.0 
-5.771315248739e-06 7.991935654768e-04 0.0 
0.0 0.0 -1.546410855482e-04 
-1.570230029365e-04 -6.946717986038e-06 0.0 
-6.946717986038e-06 7.986382110800e-04 0.0 
0.0 0.0 -1.546077673654e-04 
-1.565497805683e-04 -8.139205615221e-06 0.0 
-8.139205615221e-06 7.976855523537e-04 0.0 
0.0 0.0 -1.545407736726e-04 
-1.555603596835e-04 -7.457311552378e-06 0.0 
-7.457311552378e-06 7.961559223087e-04 0.0 
0.0 0.0 -1.543752429606e-04 
-1.532358648800e-04 1.505283542091e-05 0.0 
1.505283542091e-05 7.936784937623e-04 0.0 
0.0 0.0 -1.535591724784e-04 
-1.586292465192e-04 8.255464382965e-05 0.0 
8.255464382965e-05 8.062485708882e-04 0.0 
0.0 0.0 -1.573239219699e-04 
-1.757189766350e-04 2.015733327553e-05 0.0 
2.015733327553e-05 1.169996428695e-03 0.0 
0.0 0.0 -2.186390966643e-04 
-2.228638103157e-04 -9.521538894536e-06 0.0 
-9.521538894536e-06 1.291581809780e-03 0.0 
0.0 0.0 -2.293097019027e-04 
-2.289117877934e-04 9.489500089846e-06 0.0 
9.489500089846e-06 1.273233924635e-03 0.0 
0.0 0.0 -2.266666666667e-04 
-2.336541121386e-04 6.781843482313e-07 0.0 
6.781843482313e-07 1.269302934461e-03 0.0 
0.0 0.0 -2.266666666667e-04 
-2.317255520371e-04 5.516694580913e-06 0.0 
5.516694580913e-06 1.272863961575e-03 0.0 
0.0 0.0 -2.266666666667e-04 
-2.317812642911e-04 4.449795583727e-06 0.0 
4.449795583727e-06 1.270376319783e-03 0.0 
0.0 0.0 -2.266666666667e-04 
-2.310424369959e-04 5.356433285779e-06 0.0 
5.356433285779e-06 1.270812935721e-03 0.0 
0.0 0.0 -2.266666666667e-04 
-2.308889315447e-04 5.170693309765e-06 0.0 
5.170693309765e-06 1.269974481556e-03 0.0 
0.0 0.0 -2.266666666667e-04 
-2.303654616689e-04 4.964327453866e-06 0.0 
4.964327453866e-06 1.269656447122e-03 0.0 
0.0 0.0 -2.266666666667e-04 
-2.300574488920e-04 4.067751470256e-06 0.0 
4.067751470256e-06 1.269156639776e-03 0.0 
0.0 0.0 -2.266666666667e-04 
-2.297102415552e-04 2.860035625450e-06 0.0 
2.860035625450e-06 1.268882543445e-03 0.0 
0.0 0.0 -2.266666666667e-04 
-2.295375740557e-04 1.327963885220e-06 0.0 
1.327963885220e-06 1.268711530911e-03 0.0 
0.0 0.0 -2.266666666667e-04 
-2.295207096673e-04 -2.760738597427e-07 0.0 
-2.760738597427e-07 1.268747898697e-03 0.0 
0.0 0.0 -2.266666666667e-04 
-2.296544716819e-04 -1.720046700831e-06 0.0 
-1.720046700831e-06 1.268927355130e-03 0.0 
0.0 0.0 -2.266666666667e-04 
-2.298245913135e-04 -2.846357357064e-06 0.0 
-2.846357357064e-06 1.269153567826e-03 0.0 
0.0 0.0 -2.266666666667e-04 
-2.299713923060e-04 -3.686737751708e-06 0.0 
-3.686737751708e-06 1.269321420150e-03 0.0 
0.0 0.0 -2.266666666667e-04 
-2.300583825379e-04 -4.330118491625e-06 0.0 
-4.330118491625e-06 1.269372347715e-03 0.0 
0.0 0.0 -2.266666666667e-04 
-2.300373461787e-04 -4.869363162665e-06 0.0 
-4.869363162665e-06 1.269253654748e-03 0.0 
0.0 0.0 -2.266666666667e-04 
-2.298450162938e-04 -5.379771530632e-06 0.0 
-5.379771530632e-06 1.268909757281e-03 0.0 
0.0 0.0 -2.266666666667e-04 
-2.294036994122e-04 -5.885576231033e-06 0.0 
-5.885576231033e-06 1.268291326069e-03 0.0 
0.0 0.0 -2.266666666667e-04 
-2.286544723799e-04 -6.241462011569e-06 0.0 
-6.241462011569e-06 1.267401701856e-03 0.0 
0.0 0.0 -2.266666666667e-04 
-2.275874156242e-04 -5.912051605971e-06 0.0 
-5.912051605971e-06 1.266380669848e-03 0.0 
0.0 0.0 -2.266666666667e-04 
-2.264785130765e-04 -3.989917904443e-06 0.0 
-3.989917904443e-06 1.265866820548e-03 0.0 
0.0 0.0 -2.266666666667e-04 
-2.271890896838e-04 -2.039679845349e-06 0.0 
-2.039679845349e-06 1.268870066226e-03 0.0 
0.0 0.0 -2.266666666667e-04 
-2.306855692958e-04 1.136792377783e-04 0.0 
1.136792377783e-04 1.274657125229e-03 0.0 
0.0 0.0 -2.266666666667e-04 
-2.970218210651e-04 7.785591067420e-05 0.0 
7.785591067420e-05 1.736401244533e-03 0.0 
0.0 0.0 -2.933333333333e-04 
-2.941299774760e-04 1.831399556342e-05 0.0 
1.831399556342e-05 1.732126897949e-03 0.0 
0.0 0.0 -2.933333333333e-04 
-2.937600754571e-04 -1.751607331651e-06 0.0 
-1.751607331651e-06 1.731075563536e-03 0.0 
0.0 0.0 -2.933333333333e-04 
-2.942652969506e-04 -3.919543074497e-06 0.0 
-3.919543074497e-06 1.731357780471e-03 0.0 
0.0 0.0 -2.933333333333e-04 
-2.950107556751e-04 -4.421896676889e-06 0.0 
-4.421896676889e-06 1.732082547633e-03 0.0 
0.0 0.0 -2.933333333333e-04 
-2.956972306013e-04 -4.536584589682e-06 0.0 
-4.536584589682e-06 1.732803218560e-03 0.0 
0.0 0.0 -2.933333333333e-04 
-2.961870944633e-04 -4.534681293830e-06 0.0 
-4.534681293830e-06 1.733302425641e-03 0.0 
0.0 0.0 -2.933333333333e-04 
-2.964446907551e-04 -4.383091967362e-06 0.0 
-4.383091967362e-06 1.733534087661e-03 0.0 
0.0 0.0 -2.933333333333e-04 
-2.965448609062e-04 -4.032111778719e-06 0.0 
-4.032111778719e-06 1.733556567348e-03 0.0 
0.0 0.0 -2.933333333333e-04 
-2.965422066374e-04 -3.441128449051e-06 0.0 
-3.441128449051e-06 1.733417935372e-03 0.0 
0.0 0.0 -2.933333333333e-04 
-2.964637898873e-04 -2.583146228101e-06 0.0 
-2.583146228101e-06 1.733161460896e-03 0.0 
0.0 0.0 -2.933333333333e-04 
-2.962859802227e-04 -1.356637869366e-06 0.0 
-1.356637869366e-06 1.732810030484e-03 0.0 
0.0 0.0 -2.933333333333e-04 
-2.961232762222e-04 4.322717175538e-07 0.0 
4.322717175538e-07 1.732599157441e-03 0.0 
0.0 0.0 -2.933333333333e-04 
-2.962139862529e-04 2.310434450526e-06 0.0 
2.310434450526e-06 1.732668458157e-03 0.0 
0.0 0.0 -2.933333333333e-04 
-2.965791624248e-04 4.118196179478e-06 0.0 
4.118196179478e-06 1.733173681766e-03 0.0 
0.0 0.0 -2.933333333333e-04 
-2.970197935224e-04 4.810030904273e-06 0.0 
4.810030904273e-06 1.733539864650e-03 0.0 
0.0 0.0 -2.933333333333e-04 
-2.972728426878e-04 6.019823157692e-06 0.0 
6.019823157692e-06 1.734462446054e-03 0.0 
0.0 0.0 -2.933333333333e-04 
-2.976303353794e-04 4.729593283435e-06 0.0 
4.729593283435e-06 1.734285895178e-03 0.0 
0.0 0.0 -2.933333333333e-04 
-2.972060370648e-04 6.898574448954e-06 0.0 
6.898574448954e-06 1.735976803444e-03 0.0 
0.0 0.0 -2.933333333333e-04 
-2.978582241911e-04 3.049832582786e-06 0.0 
3.049832582786e-06 1.732847460673e-03 0.0 
0.0 0.0 -2.933333333333e-04 
-2.930809121252e-04 1.459049574271e-05 0.0 
1.459049574271e-05 1.737198194830e-03 0.0 
0.0 0.0 -2.933333333333e-04 
-2.902738991463e-04 -7.427477140233e-06 0.0 
-7.427477140233e-06 1.761638628587e-03 0.0 
0.0 0.0 -2.960058309038e-04 
-2.435748903376e-04 1.260028918425e-05 0.0 
1.260028918425e-05 1.641234534695e-03 0.0 
0.0 0.0 -2.853401360544e-04 
-3.075534139628e-04 2.412740121267e-05 0.0 
2.412740121267e-05 2.105219673239e-03 0.0 
0.0 0.0 -3.519676952907e-04 
-3.514953782151e-04 -6.121431231784e-06 0.0 
-6.121431231784e-06 2.223151637376e-03 0.0 
0.0 0.0 -3.626389769158e-04 
-3.587315693995e-04 1.096665782630e-05 0.0 
1.096665782630e-05 2.201776320981e-03 0.0 
0.0 0.0 -3.600000000000e-04 
-3.644459387370e-04 2.098126894706e-06 0.0 
2.098126894706e-06 2.197482783051e-03 0.0 
0.0 0.0 -3.600000000000e-04 
-3.637653208407e-04 5.938369815804e-06 0.0 
5.938369815804e-06 2.200852497904e-03 0.0 
0.0 0.0 -3.600000000000e-04 
-3.646562371602e-04 4.863047388640e-06 0.0 
4.863047388640e-06 2.198597723898e-03 0.0 
0.0 0.0 -3.600000000000e-04 
-3.637142436613e-04 5.528885479230e-06 0.0 
5.528885479230e-06 2.198572806408e-03 0.0 
0.0 0.0 -3.600000000000e-04 
-3.631451218203e-04 4.030632283972e-06 0.0 
4.030632283972e-06 2.197230825920e-03 0.0 
0.0 0.0 -3.600000000000e-04 
-3.626391425451e-04 1.799883791491e-06 0.0 
1.799883791491e-06 2.196963521096e-03 0.0 
0.0 0.0 -3.600000000000e-04 
-3.629347040581e-04 -6.248683363075e-07 0.0 
-6.248683363075e-07 2.197222075070e-03 0.0 
0.0 0.0 -3.600000000000e-04 
-3.632350885950e-04 -1.950524288105e-06 0.0 
-1.950524288105e-06 2.197839748043e-03 0.0 
0.0 0.0 -3.600000000000e-04 
-3.632347660019e-04 -2.695279990052e-06 0.0 
-2.695279990052e-06 2.198148142527e-03 0.0 
0.0 0.0 -3.600000000000e-04 
-3.631062498386e-04 -3.344861292445e-06 0.0 
-3.344861292445e-06 2.198321706153e-03 0.0 
0.0 0.0 -3.600000000000e-04 
-3.629810469011e-04 -3.774035134601e-06 0.0 
-3.774035134601e-06 2.198420640153e-03 0.0 
0.0 0.0 -3.600000000000e-04 
-3.627935109947e-04 -3.861239186074e-06 0.0 
-3.861239186074e-06 2.198346847940e-03 0.0 
0.0 0.0 -3.600000000000e-04 
-3.623659696942e-04 -3.546956865600e-06 0.0 
-3.546956865600e-06 2.197968515867e-03 0.0 
0.0 0.0 -3.600000000000e-04 
-3.616855162427e-04 -3.197901034656e-06 0.0 
-3.197901034656e-06 2.197284235415e-03 0.0 
0.0 0.0 -3.600000000000e-04 
-3.610100603434e-04 -2.926270428592e-06 0.0 
-2.926270428592e-06 2.196608022425e-03 0.0 
0.0 0.0 -3.600000000000e-04 
-3.605838742006e-04 -2.658699863581e-06 0.0 
-2.658699863581e-06 2.196334608217e-03 0.0 
0.0 0.0 -3.600000000000e-04 
-3.608368736123e-04 -2.739324103154e-06 0.0 
-2.739324103154e-06 2.197020254621e-03 0.0 
0.0 0.0 -3.600000000000e-04 
-3.621715591980e-04 -7.667076261686e-06 0.0 
-7.667076261686e-06 2.198997385104e-03 0.0 
0.0 0.0 -3.600000000000e-04 
-3.636156739341e-04 1.080730155248e-04 0.0 
1.080730155248e-04 2.200856497118e-03 0.0 
0.0 0.0 -3.600000000000e-04 
-4.299402721252e-04 7.347302390729e-05 0.0 
7.347302390729e-05 2.663982272910e-03 0.0 
0.0 0.0 -4.266666666667e-04 
-4.281937864377e-04 1.451679010037e-05 0.0 
1.451679010037e-05 2.661695578936e-03 0.0 
0.0 0.0 -4.266666666667e-04 
-4.272255423018e-04 -2.022714610518e-06 0.0 
-2.022714610518e-06 2.660645160847e-03 0.0 
0.0 0.0 -4.266666666667e-04 
-4.272027915601e-04 -2.022654054574e-06 0.0 
-2.022654054574e-06 2.660662658724e-03 0.0 
0.0 0.0 -4.266666666667e-04 
-4.275839105045e-04 -1.776178353133e-06 0.0 
-1.776178353133e-06 2.661218520015e-03 0.0 
0.0 0.0 -4.266666666667e-04 
-4.282801255787e-04 -1.791669274238e-06 0.0 
-1.791669274238e-06 2.662030669155e-03 0.0 
0.0 0.0 -4.266666666667e-04 
-4.290001024384e-04 -2.498947391547e-06 0.0 
-2.498947391547e-06 2.662671095001e-03 0.0 
0.0 0.0 -4.266666666667e-04 
-4.292899889364e-04 -3.096368850653e-06 0.0 
-3.096368850653e-06 2.662653268105e-03 0.0 
0.0 0.0 -4.266666666667e-04 
-4.293129381118e-04 -2.811819826603e-06 0.0 
-2.811819826603e-06 2.662413292682e-03 0.0 
0.0 0.0 -4.266666666667e-04 
-4.297697120825e-04 -2.022907387796e-06 0.0 
-2.022907387796e-06 2.662395731629e-03 0.0 
0.0 0.0 -4.266666666667e-04 
-4.302589968875e-04 -1.629717038830e-06 0.0 
-1.629717038830e-06 2.662394761870e-03 0.0 
0.0 0.0 -4.266666666667e-04 
-4.302560929618e-04 -1.576122482616e-06 0.0 
-1.576122482616e-06 2.661898826988e-03 0.0 
0.0 0.0 -4.266666666667e-04 
-4.295703799059e-04 -3.345604087402e-07 0.0 
-3.345604087402e-07 2.660486684286e-03 0.0 
0.0 0.0 -4.266666666667e-04 
-4.292671254285e-04 3.968937228656e-06 0.0 
3.968937228656e-06 2.660659650919e-03 0.0 
0.0 0.0 -4.266666666667e-04 
-4.306471619154e-04 5.513996825783e-06 0.0 
5.513996825783e-06 2.661538482777e-03 0.0 
0.0 0.0 -4.266666666667e-04 
-4.319020466915e-04 7.766791381144e-06 0.0 
7.766791381144e-06 2.665023339729e-03 0.0 
0.0 0.0 -4.266666666667e-04 
-4.328473215748e-04 8.154616711558e-07 0.0 
8.154616711558e-07 2.662572037119e-03 0.0 
0.0 0.0 -4.266666666667e-04 
-4.258499713217e-04 1.095715842585e-05 0.0 
1.095715842585e-05 2.664926400988e-03 0.0 
0.0 0.0 -4.266666666667e-04 
-4.219848975642e-04 -8.971773474757e-06 0.0 
-8.971773474757e-06 2.691197449249e-03 0.0 
0.0 0.0 -4.293391642371e-04 
-3.746379728484e-04 4.166569321959e-06 0.0 
4.166569321959e-06 2.570236127040e-03 0.0 
0.0 0.0 -4.186734693878e-04 
-4.417760951276e-04 9.193159012092e-06 0.0 
9.193159012092e-06 3.032321566953e-03 0.0 
0.0 0.0 -4.852947845805e-04 
-4.904405177129e-04 -1.236587849357e-05 0.0 
-1.236587849357e-05 3.156055993877e-03 0.0 
0.0 0.0 -4.959669582118e-04 
-4.967982216663e-04 1.212517501771e-05 0.0 
1.212517501771e-05 3.134098180657e-03 0.0 
0.0 0.0 -4.933333333333e-04 
-5.004792842088e-04 7.599146367907e-06 0.0 
7.599146367907e-06 3.126678995157e-03 0.0 
0.0 0.0 -4.933333333333e-04 
-4.960205318575e-04 8.775115201624e-06 0.0 
8.775115201624e-06 3.126031319544e-03 0.0 
0.0 0.0 -4.933333333333e-04 
-4.965309946115e-04 8.850955263351e-07 0.0 
8.850955263351e-07 3.123763413131e-03 0.0 
0.0 0.0 -4.933333333333e-04 
-4.975874164433e-04 -1.339673929123e-06 0.0 
-1.339673929123e-06 3.126915566987e-03 0.0 
0.0 0.0 -4.933333333333e-04 
-4.976423867723e-04 -5.110045370489e-07 0.0 
-5.110045370489e-07 3.127848901976e-03 0.0 
0.0 0.0 -4.933333333333e-04 
-4.971264610240e-04 4.324488759022e-07 0.0 
4.324488759022e-07 3.127700753298e-03 0.0 
0.0 0.0 -4.933333333333e-04 
-4.956643920610e-04 -1.986474812227e-07 0.0 
-1.986474812227e-07 3.126840649999e-03 0.0 
0.0 0.0 -4.933333333333e-04 
-4.952008726881e-04 -2.496870911332e-06 0.0 
-2.496870911332e-06 3.127189740971e-03 0.0 
0.0 0.0 -4.933333333333e-04 
-4.957950968528e-04 -2.119478958632e-06 0.0 
-2.119478958632e-06 3.128109892710e-03 0.0 
0.0 0.0 -4.933333333333e-04 
-4.947282309581e-04 -5.907354459501e-07 0.0 
-5.907354459501e-07 3.127398294072e-03 0.0 
0.0 0.0 -4.933333333333e-04 
-4.939115212163e-04 -6.664772443831e-07 0.0 
-6.664772443831e-07 3.126242560420e-03 0.0 
0.0 0.0 -4.933333333333e-04 
-4.934010452772e-04 -1.579724324278e-06 0.0 
-1.579724324278e-06 3.125563968915e-03 0.0 
0.0 0.0 -4.933333333333e-04 
-4.934695658846e-04 -2.572403036742e-06 0.0 
-2.572403036742e-06 3.125197225552e-03 0.0 
0.0 0.0 -4.933333333333e-04 
-4.937822211755e-04 -5.749801901612e-06 0.0 
-5.749801901612e-06 3.125650090747e-03 0.0 
0.0 0.0 -4.933333333333e-04 
-4.958153218285e-04 -1.294595170899e-05 0.0 
-1.294595170899e-05 3.127747100962e-03 0.0 
0.0 0.0 -4.933333333333e-04 
-4.967157033350e-04 1.051029907090e-04 0.0 
1.051029907090e-04 3.128775367421e-03 0.0 
0.0 0.0 -4.933333333333e-04 
-5.657042211010e-04 7.172061321592e-05 0.0 
7.172061321592e-05 3.594572891729e-03 0.0 
0.0 0.0 -5.600000000000e-04 
-5.606564277312e-04 6.276433509236e-06 0.0 
6.276433509236e-06 3.589330402058e-03 0.0 
0.0 0.0 -5.600000000000e-04 
-5.593036989964e-04 -4.014653548583e-06 0.0 
-4.014653548583e-06 3.587906727700e-03 0.0 
0.0 0.0 -5.600000000000e-04 
-5.598957549005e-04 -3.280148762673e-06 0.0 
-3.280148762673e-06 3.589229298695e-03 0.0 
0.0 0.0 -5.600000000000e-04 
-5.585733264525e-04 -8.759229213482e-07 0.0 
-8.759229213482e-07 3.588940559384e-03 0.0 
0.0 0.0 -5.600000000000e-04 
-5.598002868747e-04 8.805971940142e-07 0.0 
8.805971940142e-07 3.590399635312e-03 0.0 
0.0 0.0 -5.600000000000e-04 
-5.606115027376e-04 2.079665756902e-06 0.0 
2.079665756902e-06 3.592266060973e-03 0.0 
0.0 0.0 -5.600000000000e-04 
-5.616801369451e-04 -2.737332668778e-06 0.0 
-2.737332668778e-06 3.592113678054e-03 0.0 
0.0 0.0 -5.600000000000e-04 
-5.603339834742e-04 8.452896903076e-07 0.0 
8.452896903076e-07 3.589104110669e-03 0.0 
0.0 0.0 -5.600000000000e-04 
-5.630816852247e-04 4.954130230059e-06 0.0 
4.954130230059e-06 3.591539403390e-03 0.0 
0.0 0.0 -5.600000000000e-04 
-5.648651149249e-04 2.409580910900e-06 0.0 
2.409580910900e-06 3.593050534195e-03 0.0 
0.0 0.0 -5.600000000000e-04 
-5.645521133458e-04 1.176363961052e-06 0.0 
1.176363961052e-06 3.591815920478e-03 0.0 
0.0 0.0 -5.600000000000e-04 
-5.658777849897e-04 2.204939376018e-07 0.0 
2.204939376018e-07 3.591458064609e-03 0.0 
0.0 0.0 -5.600000000000e-04 
-5.646691075266e-04 1.488981984672e-06 0.0 
1.488981984672e-06 3.584085442749e-03 0.0 
0.0 0.0 -5.600000000000e-04 
-5.620855148441e-04 2.241238949414e-05 0.0 
2.241238949414e-05 3.592013185388e-03 0.0 
0.0 0.0 -5.600000000000e-04 
-5.610961373633e-04 -4.661019393758e-06 0.0 
-4.661019393758e-06 3.625654344184e-03 0.0 
0.0 0.0 -5.626724975705e-04 
-5.133198511328e-04 5.424589988168e-06 0.0 
5.424589988168e-06 3.504617598641e-03 0.0 
0.0 0.0 -5.520068027211e-04 
-5.819676487162e-04 1.621050128568e-05 0.0 
1.621050128568e-05 3.968047816962e-03 0.0 
0.0 0.0 -6.186195084094e-04 
-6.343601883411e-04 -2.324978129448e-06 0.0 
-2.324978129448e-06 4.083322615344e-03 0.0 
0.0 0.0 -6.292929119699e-04 
-6.353679309005e-04 1.165699384264e-05 0.0 
1.165699384264e-05 4.057988551565e-03 0.0 
0.0 0.0 -6.266666666667e-04 
-6.295881338101e-04 1.024053571249e-05 0.0 
1.024053571249e-05 4.054182088558e-03 0.0 
0.0 0.0 -6.266666666667e-04 
-6.303664344858e-04 2.787103354708e-06 0.0 
2.787103354708e-06 4.057331405365e-03 0.0 
0.0 0.0 -6.266666666667e-04 
-6.305754933791e-04 7.671505889705e-06 0.0 
7.671505889705e-06 4.059447051202e-03 0.0 
0.0 0.0 -6.266666666667e-04 
-6.287463439774e-04 1.022004490747e-05 0.0 
1.022004490747e-05 4.054187203252e-03 0.0 
0.0 0.0 -6.266666666667e-04 
-6.280820473115e-04 -9.030982197010e-07 0.0 
-9.030982197010e-07 4.053941923266e-03 0.0 
0.0 0.0 -6.266666666667e-04 
-6.225272954156e-04 4.628296295670e-06 0.0 
4.628296295670e-06 4.057329077379e-03 0.0 
0.0 0.0 -6.266666666667e-04 
-6.249534833788e-04 2.617162153450e-07 0.0 
2.617162153450e-07 4.054948637219e-03 0.0 
0.0 0.0 -6.266666666667e-04 
-6.238122874529e-04 2.229418647929e-06 0.0 
2.229418647929e-06 4.053346801204e-03 0.0 
0.0 0.0 -6.266666666667e-04 
-6.234471408791e-04 -7.779197921569e-06 0.0 
-7.779197921569e-06 4.052220848929e-03 0.0 
0.0 0.0 -6.266666666667e-04 
-6.264844917596e-04 -3.145348628054e-06 0.0 
-3.145348628054e-06 4.054722692316e-03 0.0 
0.0 0.0 -6.266666666667e-04 
-6.251160575234e-04 -9.858748010009e-06 0.0 
-9.858748010009e-06 4.049423160403e-03 0.0 
0.0 0.0 -6.266666666667e-04 
-6.286316808084e-04 -3.394218781005e-05 0.0 
-3.394218781005e-05 4.059813257993e-03 0.0 
0.0 0.0 -6.266666666667e-04 
-6.381641142781e-04 1.124153375325e-04 0.0 
1.124153375325e-04 4.068774124134e-03 0.0 
0.0 0.0 -6.266666666667e-04 
-2.097628893549e-05 1.306335811470e-05 0.0 
1.306335811470e-05 1.352984738679e-04 0.0 
0.0 0.0 -4.683981013311e-05 
-1.043418936054e-04 2.727551123256e-05 0.0 
2.727551123256e-05 5.717549693390e-04 0.0 
0.0 0.0 -1.314613350118e-04 
-1.684472374073e-04 4.207235703727e-05 0.0 
4.207235703727e-05 1.042057531603e-03 0.0 
0.0 0.0 -1.988843244818e-04 
-2.358197999292e-04 4.576581623460e-05 0.0 
4.576581623460e-05 1.512721513540e-03 0.0 
0.0 0.0 -2.657627312065e-04 
-2.992106949204e-04 1.746855033808e-05 0.0 
1.746855033808e-05 1.971118758993e-03 0.0 
0.0 0.0 -3.310903933743e-04 
-3.554966514658e-04 3.194346604781e-05 0.0 
3.194346604781e-05 2.438311747236e-03 0.0 
0.0 0.0 -3.977576770754e-04 
-4.339038949759e-04 2.050581845431e-05 0.0 
2.050581845431e-05 2.896351248714e-03 0.0 
0.0 0.0 -4.650267612653e-04 
-4.998008163795e-04 2.874356037189e-05 0.0 
2.874356037189e-05 3.362017349155e-03 0.0 
0.0 0.0 -5.317697887215e-04 
-5.672864552025e-04 2.278912112814e-05 0.0 
2.278912112814e-05 3.826790215475e-03 0.0 
0.0 0.0 -5.985602557689e-04 
-6.332370943918e-04 2.492629895563e-05 0.0 
2.492629895563e-05 4.302559779817e-03 0.0 
0.0 0.0 -6.652967104836e-04 
-1.935964666812e-04 2.967460992316e-06 0.0 
2.967460992316e-06 9.892888486110e-04 0.0 
0.0 0.0 -1.870278901045e-04 
-1.298255034363e-03 -1.439677610187e-05 0.0 
-1.439677610187e-05 8.770849623045e-03 0.0 
0.0 0.0 -1.303388942653e-03 
-5.711706292193e-05 -1.132529147633e-05 0.0 
-1.132529147633e-05 2.965576224762e-04 0.0 
0.0 0.0 -5.718844814378e-05 
-5.424579011881e-05 -2.911933097958e-05 0.0 
-2.911933097958e-05 2.725297638317e-04 0.0 
0.0 0.0 -5.560925106410e-05 
-1.303094143304e-03 2.083700262783e-05 0.0 
2.083700262783e-05 8.775603321897e-03 0.0 
0.0 0.0 -1.303360877099e-03 
-3.337502689384e-04 2.573658945227e-05 0.0 
2.573658945227e-05 1.945399262405e-03 0.0 
0.0 0.0 -3.213286234882e-04 
-7.420382513691e-04 -8.331648497424e-06 0.0 
-8.331648497424e-06 4.783425200817e-03 0.0 
0.0 0.0 -7.300567563597e-04 
-1.300502925116e-03 1.312346542057e-05 0.0 
1.312346542057e-05 8.760360600138e-03 0.0 
0.0 0.0 -1.300998267065e-03 
-4.558051091763e-04 -3.180946065212e-05 0.0 
-3.180946065212e-05 2.815581106164e-03 0.0 
0.0 0.0 -4.497936382440e-04 
-1.301730818783e-03 3.906861163013e-06 0.0 
3.906861163013e-06 8.781071212001e-03 0.0 
0.0 0.0 -1.304014651794e-03 
-5.931132187703e-04 3.451249603952e-06 0.0 
3.451249603952e-06 3.770920661498e-03 0.0 
0.0 0.0 -5.857980290939e-04 
-1.294626432424e-03 1.231524946250e-05 0.0 
1.231524946250e-05 8.803233335001e-03 0.0 
0.0 0.0 -1.307658508868e-03 
-5.100449476858e-05 8.243347627931e-06 0.0 
8.243347627931e-06 2.661035943334e-04 0.0 
0.0 0.0 -5.457498774670e-05 
-1.304712708061e-03 6.002193481849e-06 0.0 
6.002193481849e-06 8.782841008775e-03 0.0 
0.0 0.0 -1.304481600125e-03 
-7.263025570845e-04 1.579439830825e-05 0.0 
1.579439830825e-05 4.732739805173e-03 0.0 
0.0 0.0 -7.203075318094e-04 
-4.572752679378e-04 6.754709539216e-06 0.0 
6.754709539216e-06 2.913924238746e-03 0.0 
0.0 0.0 -4.640473930190e-04 
-9.144584483086e-04 1.326427603790e-05 0.0 
1.326427603790e-05 6.048992087784e-03 0.0 
0.0 0.0 -9.125512086551e-04 
-1.295486455605e-03 -9.635721854317e-06 0.0 
-9.635721854317e-06 8.767400550756e-03 0.0 
0.0 0.0 -1.301280071178e-03 
-1.304620553661e-03 1.736330334082e-05 0.0 
1.736330334082e-05 8.785218481020e-03 0.0 
0.0 0.0 -1.304294760550e-03 
-1.308798115864e-03 -1.758872586472e-05 0.0 
-1.758872586472e-05 8.782113468746e-03 0.0 
0.0 0.0 -1.303238611779e-03 
-1.297364651419e-03 1.079949245934e-05 0.0 
1.079949245934e-05 8.741492182535e-03 0.0 
0.0 0.0 -1.297727402575e-03 
-1.310467176952e-03 -2.184753791196e-05 0.0 
-2.184753791196e-05 8.795852425490e-03 0.0 
0.0 0.0 -1.305306183856e-03 
-7.504043158260e-04 1.146340899483e-05 0.0 
1.146340899483e-05 4.928957716144e-03 0.0 
0.0 0.0 -7.522011426764e-04 
-7.523353912946e-04 1.162137769546e-05 0.0 
1.162137769546e-05 4.926512636401e-03 0.0 
0.0 0.0 -7.529849494387e-04 
-7.546537283985e-04 -1.241349829200e-05 0.0 
-1.241349829200e-05 4.950472109635e-03 0.0 
0.0 0.0 -7.580270452736e-04 
-9.976077557880e-04 -3.465320003220e-05 0.0 
-3.465320003220e-05 6.602229680106e-03 0.0 
0.0 0.0 -9.950081682429e-04 
-1.300592036334e-03 -1.108396441711e-05 0.0 
-1.108396441711e-05 8.788475349475e-03 0.0 
0.0 0.0 -1.302874185639e-03 
-4.947082956209e-05 -1.829296119630e-05 0.0 
-1.829296119630e-05 2.690780974868e-04 0.0 
0.0 0.0 -5.461765089469e-05 
-6.582489508630e-05 5.524694071904e-06 0.0 
5.524694071904e-06 3.064286723342e-04 0.0 
0.0 0.0 -5.841730026856e-05 
-1.120911548220e-03 -1.158571369125e-06 0.0 
-1.158571369125e-06 7.515613535503e-03 0.0 
0.0 0.0 -1.122886395833e-03 
-7.582082522979e-04 1.961281355476e-05 0.0 
1.961281355476e-05 4.902933380827e-03 0.0 
0.0 0.0 -7.500338828344e-04 
-2.694321437334e-04 2.278372598534e-06 0.0 
2.278372598534e-06 1.494554554088e-03 0.0 
0.0 0.0 -2.594501920933e-04 
-1.298427704971e-03 5.282056354334e-06 0.0 
5.282056354334e-06 8.696713485831e-03 0.0 
0.0 0.0 -1.293200138473e-03 
-1.306703206650e-03 1.354031549595e-05 0.0 
1.354031549595e-05 8.802982423650e-03 0.0 
0.0 0.0 -1.307307853467e-03 
-1.306558631645e-03 5.032010017838e-06 0.0 
5.032010017838e-06 8.775985095811e-03 0.0 
0.0 0.0 -1.304733450272e-03 
-1.299335994773e-03 1.249139207268e-05 0.0 
1.249139207268e-05 8.749655727550e-03 0.0 
0.0 0.0 -1.297928233296e-03 
-1.308929768589e-03 -1.641174944338e-05 0.0 
-1.641174944338e-05 8.785621003878e-03 0.0 
0.0 0.0 -1.305578568836e-03 
-6.266603041308e-05 2.501207789150e-06 0.0 
2.501207789150e-06 3.071735198218e-04 0.0 
0.0 0.0 -5.851952868526e-05 
-7.474245186294e-04 1.424161896037e-05 0.0 
1.424161896037e-05 4.916877911110e-03 0.0 
0.0 0.0 -7.500980793755e-04 
-1.296702677324e-03 1.017615489427e-05 0.0 
1.017615489427e-05 8.704965271547e-03 0.0 
0.0 0.0 -1.293180865222e-03 
-1.128899365850e-03 -3.031105506872e-05 0.0 
-3.031105506872e-05 7.537413441575e-03 0.0 
0.0 0.0 -1.123598490052e-03 
-5.732050020511e-05 -1.482205262677e-05 0.0 
-1.482205262677e-05 2.925850224953e-04 0.0 
0.0 0.0 -5.798785095132e-05 
-5.914251289981e-04 -6.471482804739e-06 0.0 
-6.471482804739e-06 3.820964198355e-03 0.0 
0.0 0.0 -5.937437734062e-04 
-1.319868342544e-03 -1.044247080556e-05 0.0 
-1.044247080556e-05 8.859569502417e-03 0.0 
0.0 0.0 -1.311981303940e-03 
-4.039407312574e-04 -1.513566039237e-05 0.0 
-1.513566039237e-05 2.425755132442e-03 0.0 
0.0 0.0 -3.897472533596e-04 
-2.622920170020e-04 7.443498411070e-06 0.0 
7.443498411070e-06 1.467365751784e-03 0.0 
0.0 0.0 -2.548795656134e-04 
-5.270389969687e-04 -7.501595445452e-06 0.0 
-7.501595445452e-06 3.294996993381e-03 0.0 
0.0 0.0 -5.178568985205e-04 
-6.568994839779e-04 -7.061170510265e-06 0.0 
-7.061170510265e-06 4.237934581571e-03 0.0 
0.0 0.0 -6.527703211191e-04 
-1.172487669235e-04 -1.455488225111e-05 0.0 
-1.455488225111e-05 4.809709659116e-04 0.0 
0.0 0.0 -1.118557093815e-04 
-8.696005125465e-04 -8.177489350787e-06 0.0 
-8.177489350787e-06 5.725890687358e-03 0.0 
0.0 0.0 -8.684787984471e-04 
-1.317974587429e-03 -1.269961975259e-05 0.0 
-1.269961975259e-05 8.865515668911e-03 0.0 
0.0 0.0 -1.313906642692e-03 
-5.185989643578e-05 2.926503183834e-05 0.0 
2.926503183834e-05 2.746618289318e-04 0.0 
0.0 0.0 -5.836448670120e-05 
-1.244012605559e-03 -1.337379541830e-07 0.0 
-1.337379541830e-07 8.417025004517e-03 0.0 
0.0 0.0 -1.253930875827e-03 
-7.490231005429e-04 1.074391793059e-05 0.0 
1.074391793059e-05 4.928373640173e-03 0.0 
0.0 0.0 -7.532271817479e-04 
-7.806985373677e-04 4.966139412122e-06 0.0 
4.966139412122e-06 5.109831204569e-03 0.0 
0.0 0.0 -7.809350190597e-04 
-8.062001814621e-04 2.173167671068e-05 0.0 
2.173167671068e-05 5.343609321704e-03 0.0 
0.0 0.0 -8.115578932774e-04 
-8.489268176994e-04 -8.110940848539e-06 0.0 
-8.110940848539e-06 5.566485028911e-03 0.0 
0.0 0.0 -8.428390908522e-04 
-8.804673106023e-04 1.251244415453e-07 0.0 
1.251244415453e-07 5.795279077470e-03 0.0 
0.0 0.0 -8.784658474099e-04 
-9.121627378671e-04 -7.430796722992e-06 0.0 
-7.430796722992e-06 6.000836909727e-03 0.0 
0.0 0.0 -9.060409163497e-04 
-8.756777626728e-04 -7.143189004676e-06 0.0 
-7.143189004676e-06 5.761383353658e-03 0.0 
0.0 0.0 -8.711257577415e-04 
-9.375016757267e-04 -9.018261483619e-06 0.0 
-9.018261483619e-06 6.200512371454e-03 0.0 
0.0 0.0 -9.341442283280e-04 
-9.034456709669e-04 -5.627619604456e-06 0.0 
-5.627619604456e-06 5.955351813444e-03 0.0 
0.0 0.0 -8.989774131092e-04 
-9.375397006910e-04 -9.487100187186e-06 0.0 
-9.487100187186e-06 6.248793060300e-03 0.0 
0.0 0.0 -9.415083590319e-04 
-9.651447206159e-04 -1.078565163385e-05 0.0 
-1.078565163385e-05 6.396664073004e-03 0.0 
0.0 0.0 -9.622976032585e-04 
-9.304266532056e-04 -6.330576673760e-06 0.0 
-6.330576673760e-06 6.148924780633e-03 0.0 
0.0 0.0 -9.268639294333e-04 
-9.923459703203e-04 -8.832674575488e-06 0.0 
-8.832674575488e-06 6.591396283471e-03 0.0 
0.0 0.0 -9.903372159162e-04 
-9.579486406670e-04 -6.976346530304e-06 0.0 
-6.976346530304e-06 6.343540435811e-03 0.0 
0.0 0.0 -9.547708836903e-04 
-8.957338589247e-04 -3.445195682092e-06 0.0 
-3.445195682092e-06 5.904490313780e-03 0.0 
0.0 0.0 -8.916807130883e-04 
-9.234034349690e-04 -3.140263271689e-06 0.0 
-3.140263271689e-06 6.097553141781e-03 0.0 
0.0 0.0 -9.194532194038e-04 
-8.597658352201e-04 -5.745984388002e-07 0.0 
-5.745984388002e-07 5.659471370407e-03 0.0 
0.0 0.0 -8.565021464485e-04 
-8.876676417698e-04 -1.521204235314e-06 0.0 
-1.521204235314e-06 5.852313305850e-03 0.0 
0.0 0.0 -8.841639842141e-04 
-9.508204613182e-04 -2.297031587625e-06 0.0 
-2.297031587625e-06 6.292146332209e-03 0.0 
0.0 0.0 -9.471984275390e-04 
-9.148993498349e-04 -3.275082318902e-06 0.0 
-3.275082318902e-06 6.045345094116e-03 0.0 
0.0 0.0 -9.118195294070e-04 
-8.520584533063e-04 -1.219021611571e-06 0.0 
-1.219021611571e-06 5.605756351829e-03 0.0 
0.0 0.0 -8.488396520500e-04 
-8.789321886970e-04 -2.050593653236e-06 0.0 
-2.050593653236e-06 5.797286878756e-03 0.0 
0.0 0.0 -8.764089341820e-04 
-8.161164546335e-04 3.435109532191e-07 0.0 
3.435109532191e-07 5.359457664966e-03 0.0 
0.0 0.0 -8.135623229517e-04 
-8.427829602136e-04 -1.073992276181e-06 0.0 
-1.073992276181e-06 5.550412011619e-03 0.0 
0.0 0.0 -8.410744910442e-04 
-7.803403629458e-04 1.482617336376e-07 0.0 
1.482617336376e-07 5.112144953619e-03 0.0 
0.0 0.0 -7.781617608290e-04 
-8.069161494671e-04 -9.832122125779e-07 0.0 
-9.832122125779e-07 5.303670065228e-03 0.0 
0.0 0.0 -8.056965831182e-04 
-8.693622760752e-04 -2.102828341541e-06 0.0 
-2.102828341541e-06 5.742393281941e-03 0.0 
0.0 0.0 -8.686949506212e-04 
-8.339431778097e-04 -6.526060624196e-07 0.0 
-6.526060624196e-07 5.495228078517e-03 0.0 
0.0 0.0 -8.332427817419e-04 
-7.711323033224e-04 2.736293388887e-07 0.0 
2.736293388887e-07 5.056666474078e-03 0.0 
0.0 0.0 -7.703313069557e-04 
-7.984646574761e-04 4.457733912400e-07 0.0 
4.457733912400e-07 5.248286890054e-03 0.0 
0.0 0.0 -7.977945042040e-04 
-7.355637814562e-04 1.290713586090e-06 0.0 
1.290713586090e-06 4.810484252267e-03 0.0 
0.0 0.0 -7.349073124327e-04 
-7.625544307914e-04 1.894462684329e-06 0.0 
1.894462684329e-06 4.999988831075e-03 0.0 
0.0 0.0 -7.622392297106e-04 
-8.257237067376e-04 1.120212681242e-06 0.0 
1.120212681242e-06 5.439584299338e-03 0.0 
0.0 0.0 -8.253152238873e-04 
-7.900934727742e-04 5.597935307213e-07 0.0 
5.597935307213e-07 5.191568262959e-03 0.0 
0.0 0.0 -7.896995018144e-04 
-7.266613947029e-04 4.187926819453e-07 0.0 
4.187926819453e-07 4.748654817893e-03 0.0 
0.0 0.0 -7.264132926704e-04 
-7.549260771137e-04 -7.052768559301e-07 0.0 
-7.052768559301e-07 4.942867002026e-03 0.0 
0.0 0.0 -7.539848323805e-04 
-6.914939078145e-04 -3.149044509631e-06 0.0 
-3.149044509631e-06 4.497991263929e-03 0.0 
0.0 0.0 -6.903858661722e-04 
-7.195945743336e-04 -6.350033753085e-09 0.0 
-6.350033753085e-09 4.694794432778e-03 0.0 
0.0 0.0 -7.182351804274e-04 
-6.554914090724e-04 -2.338725356749e-06 0.0 
-2.338725356749e-06 4.247612436471e-03 0.0 
0.0 0.0 -6.542402593883e-04 
-6.835277346369e-04 5.013350338705e-07 0.0 
5.013350338705e-07 4.443250069824e-03 0.0 
0.0 0.0 -6.821763112594e-04 
-7.475539329935e-04 -2.134179080389e-07 0.0 
-2.134179080389e-07 4.889262543532e-03 0.0 
0.0 0.0 -7.460902125261e-04 
-7.115638396740e-04 -9.716415016321e-07 0.0 
-9.716415016321e-07 4.638756710994e-03 0.0 
0.0 0.0 -7.100832486075e-04 
-6.472258987921e-04 -7.491708784540e-07 0.0 
-7.491708784540e-07 4.191362599469e-03 0.0 
0.0 0.0 -6.458624074531e-04 
-6.748538623222e-04 -1.344545062166e-06 0.0 
-1.344545062166e-06 4.385359401490e-03 0.0 
0.0 0.0 -6.737786430284e-04 
-7.391037565522e-04 -1.870094726724e-06 0.0 
-1.870094726724e-06 4.833803711944e-03 0.0 
0.0 0.0 -7.381473126730e-04 
-7.024920060125e-04 -1.771787760385e-06 0.0 
-1.771787760385e-06 4.579736205562e-03 0.0 
0.0 0.0 -7.017500108595e-04 
-7.668451599419e-04 -2.200372036208e-06 0.0 
-2.200372036208e-06 5.029184891420e-03 0.0 
0.0 0.0 -7.662494016216e-04 
-7.304037803269e-04 -1.328124908123e-06 0.0 
-1.328124908123e-06 4.775158829539e-03 0.0 
0.0 0.0 -7.297828278826e-04 
-6.661738894366e-04 -1.523527640984e-06 0.0 
-1.523527640984e-06 4.327585164653e-03 0.0 
0.0 0.0 -6.655364893108e-04 
-6.940255140087e-04 -3.189861404591e-07 0.0 
-3.189861404591e-07 4.522445273198e-03 0.0 
0.0 0.0 -6.934067383651e-04 
-7.582740677644e-04 -6.702170425951e-07 0.0 
-6.702170425951e-07 4.970550121083e-03 0.0 
0.0 0.0 -7.577868799165e-04 
-7.219132454206e-04 -3.552688473154e-07 0.0 
-3.552688473154e-07 4.715591284682e-03 0.0 
0.0 0.0 -7.212202614536e-04 
-6.579749567302e-04 -8.528343255424e-07 0.0 
-8.528343255424e-07 4.269380617602e-03 0.0 
0.0 0.0 -6.571136838490e-04 
-6.854396942303e-04 1.404532946379e-06 0.0 
1.404532946379e-06 4.463099019341e-03 0.0 
0.0 0.0 -6.848379476561e-04 
-7.499209568980e-04 9.788669448940e-07 0.0 
9.788669448940e-07 4.910836491420e-03 0.0 
0.0 0.0 -7.491645792950e-04 
-7.130866886284e-04 2.531462605068e-06 0.0 
2.531462605068e-06 4.656380230421e-03 0.0 
0.0 0.0 -7.127097857715e-04 
-6.490463142765e-04 2.026928070046e-06 0.0 
2.026928070046e-06 4.209801950481e-03 0.0 
0.0 0.0 -6.486049398320e-04 
-6.764658608434e-04 3.508718195961e-06 0.0 
3.508718195961e-06 4.404145734277e-03 0.0 
0.0 0.0 -6.763006240845e-04 
-7.410587565243e-04 2.977071001621e-06 0.0 
2.977071001621e-06 4.853988703533e-03 0.0 
0.0 0.0 -7.409416231994e-04 
-7.040690402047e-04 2.351563892333e-06 0.0 
2.351563892333e-06 4.597607851949e-03 0.0 
0.0 0.0 -7.042275185679e-04 
-6.395068044754e-04 3.551759029581e-06 0.0 
3.551759029581e-06 4.148883800447e-03 0.0 
0.0 0.0 -6.398389559308e-04 
-6.666949009551e-04 4.033462501374e-06 0.0 
4.033462501374e-06 4.341905952590e-03 0.0 
0.0 0.0 -6.674633383154e-04 
-7.319239687128e-04 2.339911819127e-06 0.0 
2.339911819127e-06 4.794577675996e-03 0.0 
0.0 0.0 -7.324886333286e-04 
-6.941465830900e-04 3.043408887515e-06 0.0 
3.043408887515e-06 4.534944571325e-03 0.0 
0.0 0.0 -6.954027321055e-04 
-7.599625173411e-04 1.739203305330e-06 0.0 
1.739203305330e-06 4.991507953981e-03 0.0 
0.0 0.0 -7.608997874520e-04 
-6.288087524291e-04 4.620726933368e-06 0.0 
4.620726933368e-06 4.080538413552e-03 0.0 
0.0 0.0 -6.302092384919e-04 
-6.562200550336e-04 2.527596513767e-06 0.0 
2.527596513767e-06 4.273760246295e-03 0.0 
0.0 0.0 -6.580989212857e-04 
-5.905021683275e-04 5.113861583962e-06 0.0 
5.113861583962e-06 3.817210818870e-03 0.0 
0.0 0.0 -5.925517106747e-04 
-6.180070563344e-04 1.748353135852e-06 0.0 
1.748353135852e-06 4.012241935297e-03 0.0 
0.0 0.0 -6.207111136070e-04 
-8.536335610934e-04 1.348609631237e-06 0.0 
1.348609631237e-06 5.632618076260e-03 0.0 
0.0 0.0 -8.529317679587e-04 
-5.517808621481e-04 4.295824092782e-06 0.0 
4.295824092782e-06 3.553884541992e-03 0.0 
0.0 0.0 -5.549884598765e-04 
-5.256512596245e-04 6.824695261327e-06 0.0 
6.824695261327e-06 3.365117692800e-03 0.0 
0.0 0.0 -5.276250340903e-04 
-5.798411198688e-04 -4.887552469946e-09 0.0 
-4.887552469946e-09 3.751124839276e-03 0.0 
0.0 0.0 -5.833260987948e-04 
-6.468648656294e-04 -6.634229100666e-07 0.0 
-6.634229100666e-07 4.212613913655e-03 0.0 
0.0 0.0 -6.493616581942e-04 
-5.137698154976e-04 1.586824553395e-06 0.0 
1.586824553395e-06 3.290773483107e-03 0.0 
0.0 0.0 -5.173870653820e-04 
-5.418307247047e-04 -1.136001153091e-06 0.0 
-1.136001153091e-06 3.490016299043e-03 0.0 
0.0 0.0 -5.459094278256e-04 
-4.770030151011e-04 2.075579507917e-06 0.0 
2.075579507917e-06 3.029794249274e-03 0.0 
0.0 0.0 -4.798161731008e-04 
-6.265889875599e-04 -3.099894472637e-06 0.0 
-3.099894472637e-06 4.044775427509e-03 0.0 
0.0 0.0 -6.252159162693e-04 
-9.779259260500e-04 -4.603917606302e-06 0.0 
-4.603917606302e-06 6.486620776824e-03 0.0 
0.0 0.0 -9.750716696758e-04 
-5.048311626822e-04 8.069914569389e-07 0.0 
8.069914569389e-07 3.230775089179e-03 0.0 
0.0 0.0 -5.084495576641e-04 
-4.414277464692e-04 -9.314775103287e-07 0.0 
-9.314775103287e-07 2.769397101649e-03 0.0 
0.0 0.0 -4.423119711188e-04 
-4.126781969750e-04 2.777234300813e-06 0.0 
2.777234300813e-06 2.568725273303e-03 0.0 
0.0 0.0 -4.136824817550e-04 
-3.752383636154e-04 2.627021531010e-07 0.0 
2.627021531010e-07 2.307149796782e-03 0.0 
0.0 0.0 -3.761903503575e-04 
-9.032923406135e-04 -1.942635711141e-05 0.0 
-1.942635711141e-05 6.054768473392e-03 0.0 
0.0 0.0 -9.126358703463e-04 
-9.750351070606e-04 8.331650577882e-07 0.0 
8.331650577882e-07 6.501449499714e-03 0.0 
0.0 0.0 -9.772611937912e-04 
-9.426936007589e-04 -8.476577603346e-06 0.0 
-8.476577603346e-06 6.285634427722e-03 0.0 
0.0 0.0 -9.468612964576e-04 
-1.013350986754e-03 -2.420793703441e-06 0.0 
-2.420793703441e-06 6.752430832338e-03 0.0 
0.0 0.0 -1.012955122490e-03 
-9.819905249802e-04 -9.218190891349e-06 0.0 
-9.218190891349e-06 6.546568860747e-03 0.0 
0.0 0.0 -9.835180958883e-04 
-4.033189249179e-04 -7.405594451634e-06 0.0 
-7.405594451634e-06 2.507023825451e-03 0.0 
0.0 0.0 -4.047791634435e-04 
-1.026297749493e-03 -7.873848128133e-06 0.0 
-7.873848128133e-06 6.842470359288e-03 0.0 
0.0 0.0 -1.026687169009e-03 
-1.041976492741e-03 3.297528438812e-06 0.0 
3.297528438812e-06 6.953471480802e-03 0.0 
0.0 0.0 -1.042264213861e-03 
-7.894126093117e-04 1.238093184233e-06 0.0 
1.238093184233e-06 5.169984540206e-03 0.0 
0.0 0.0 -7.861871271282e-04 
-7.083334352114e-04 1.160791963841e-06 0.0 
1.160791963841e-06 4.619009573669e-03 0.0 
0.0 0.0 -7.076088937226e-04 
-8.034448321062e-04 -3.641604808747e-06 0.0 
-3.641604808747e-06 5.283437919380e-03 0.0 
0.0 0.0 -8.027518904046e-04 
-5.699317647335e-04 -5.077104347272e-06 0.0 
-5.077104347272e-06 3.690391390143e-03 0.0 
0.0 0.0 -5.745905038755e-04 
-5.325923514100e-04 1.264931689767e-06 0.0 
1.264931689767e-06 3.434700451156e-03 0.0 
0.0 0.0 -5.371338854166e-04 
-6.021414154153e-04 -1.123287284887e-05 0.0 
-1.123287284887e-05 3.895898666929e-03 0.0 
0.0 0.0 -6.033452624549e-04 
-7.975586205945e-04 7.346724402816e-07 0.0 
7.346724402816e-07 5.250837552225e-03 0.0 
0.0 0.0 -7.980428604176e-04 
-8.260589898796e-04 8.470418803898e-07 0.0 
8.470418803898e-07 5.449813526142e-03 0.0 
0.0 0.0 -8.266132305475e-04 
-8.633840041631e-04 4.108677631333e-07 0.0 
4.108677631333e-07 5.709024598085e-03 0.0 
0.0 0.0 -8.638188500004e-04 
-8.921637692903e-04 4.125221993883e-07 0.0 
4.125221993883e-07 5.908664068470e-03 0.0 
0.0 0.0 -8.924533907576e-04 
-9.293171742377e-04 3.033539280725e-07 0.0 
3.033539280725e-07 6.168083546012e-03 0.0 
0.0 0.0 -9.297164513315e-04 
-9.582709124814e-04 8.513827699177e-07 0.0 
8.513827699177e-07 6.368400937687e-03 0.0 
0.0 0.0 -9.583747859490e-04 
-9.209100768105e-04 -4.256218772023e-07 0.0 
-4.256218772023e-07 6.108351576790e-03 0.0 
0.0 0.0 -9.210728288235e-04 
-9.873571107966e-04 -7.195723232201e-07 0.0 
-7.195723232201e-07 6.568673837727e-03 0.0 
0.0 0.0 -9.870277070005e-04 
-9.496224461858e-04 -1.641275594905e-06 0.0 
-1.641275594905e-06 6.308003890192e-03 0.0 
0.0 0.0 -9.497007337289e-04 
-9.952004913145e-04 1.269240357803e-06 0.0 
1.269240357803e-06 6.627713601016e-03 0.0 
0.0 0.0 -9.956835613869e-04 
-9.665012269537e-04 -8.709086142666e-07 0.0 
-8.709086142666e-07 6.427165842683e-03 0.0 
0.0 0.0 -9.668198671257e-04 
-1.015999965498e-03 -2.659789521343e-06 0.0 
-2.659789521343e-06 6.768164853945e-03 0.0 
0.0 0.0 -1.015681523326e-03 
-9.780689760981e-04 -1.773026811882e-06 0.0 
-1.773026811882e-06 6.507705614272e-03 0.0 
0.0 0.0 -9.783260305705e-04 
-1.043750394909e-03 -2.772279525245e-06 0.0 
-2.772279525245e-06 6.967527210065e-03 0.0 
0.0 0.0 -1.044362401637e-03 
-1.005977853166e-03 -2.262113223733e-06 0.0 
-2.262113223733e-06 6.706658029639e-03 0.0 
0.0 0.0 -1.007007767922e-03 
-9.404749716457e-04 -1.193534276169e-06 0.0 
-1.193534276169e-06 6.246239019973e-03 0.0 
0.0 0.0 -9.408676861799e-04 
-9.684909118554e-04 -8.529271608882e-07 0.0 
-8.529271608882e-07 6.444829778042e-03 0.0 
0.0 0.0 -9.695029660748e-04 
-9.037723104013e-04 -2.350012697831e-06 0.0 
-2.350012697831e-06 5.986848649888e-03 0.0 
0.0 0.0 -9.035672079865e-04 
-8.314464570683e-04 -3.616594317094e-06 0.0 
-3.616594317094e-06 5.479880314984e-03 0.0 
0.0 0.0 -8.309624794500e-04 
-8.682753299778e-04 -4.472916759992e-06 0.0 
-4.472916759992e-06 5.735257211893e-03 0.0 
0.0 0.0 -8.675775700443e-04 
-8.962132157840e-04 -3.994715245399e-06 0.0 
-3.994715245399e-06 5.931796623670e-03 0.0 
0.0 0.0 -8.958500940740e-04 
-9.334915543322e-04 -5.104595478857e-06 0.0 
-5.104595478857e-06 6.188168080628e-03 0.0 
0.0 0.0 -9.325549191312e-04 
-9.611906856984e-04 -4.832422115389e-06 0.0 
-4.832422115389e-06 6.384949120317e-03 0.0 
0.0 0.0 -9.609176734917e-04 
-9.993166695243e-04 -5.921015935411e-06 0.0 
-5.921015935411e-06 6.642197475408e-03 0.0 
0.0 0.0 -9.976363410588e-04 
-1.026869107811e-03 -5.279541534857e-06 0.0 
-5.279541534857e-06 6.837737939095e-03 0.0 
0.0 0.0 -1.026032504441e-03 
-9.888890578615e-04 -3.536873257957e-06 0.0 
-3.536873257957e-06 6.582021445560e-03 0.0 
0.0 0.0 -9.892761093610e-04 
-1.020948249731e-03 -5.775826579251e-06 0.0 
-5.775826579251e-06 6.785097853957e-03 0.0 
0.0 0.0 -1.018102500310e-03 
-6.106564943980e-04 -8.377932010853e-07 0.0 
-8.377932010853e-07 3.937861241286e-03 0.0 
0.0 0.0 -6.095594541484e-04 
-5.829707017919e-04 -8.761996172276e-07 0.0 
-8.761996172276e-07 3.743841342214e-03 0.0 
0.0 0.0 -5.816898710390e-04 
-5.468224651884e-04 3.532374184788e-07 0.0 
3.532374184788e-07 3.491149788400e-03 0.0 
0.0 0.0 -5.454521931755e-04 
-5.191424428683e-04 -2.726566039406e-07 0.0 
-2.726566039406e-07 3.297674531074e-03 0.0 
0.0 0.0 -5.176388733440e-04 
-4.833226440277e-04 2.092058671683e-06 0.0 
2.092058671683e-06 3.045002640289e-03 0.0 
0.0 0.0 -4.814163979944e-04 
-4.557758029647e-04 1.050100037043e-06 0.0 
1.050100037043e-06 2.852852491029e-03 0.0 
0.0 0.0 -4.537165770244e-04 
-4.203756978464e-04 3.745088126668e-06 0.0 
3.745088126668e-06 2.598843361212e-03 0.0 
0.0 0.0 -4.172264234068e-04 
-4.466735727578e-04 5.480427942949e-06 0.0 
5.480427942949e-06 2.790981770740e-03 0.0 
0.0 0.0 -4.450327826477e-04 
-3.836326554130e-04 7.904997896639e-06 0.0 
7.904997896639e-06 2.342835906920e-03 0.0 
0.0 0.0 -3.805252178390e-04 
-4.084193757356e-04 7.242552144164e-06 0.0 
7.242552144164e-06 2.535005811079e-03 0.0 
0.0 0.0 -4.085362445790e-04 
-3.461331758914e-04 8.763341315882e-06 0.0 
8.763341315882e-06 2.084280570054e-03 0.0 
0.0 0.0 -3.437934912881e-04 
-3.698709012629e-04 8.292346557800e-06 0.0 
8.292346557800e-06 2.277114687721e-03 0.0 
0.0 0.0 -3.717096690223e-04 
-8.965032625882e-04 -1.627591660537e-06 0.0 
-1.627591660537e-06 5.934603885101e-03 0.0 
0.0 0.0 -8.963565068603e-04 
-9.708908500796e-04 -5.045480792177e-06 0.0 
-5.045480792177e-06 6.444533853224e-03 0.0 
0.0 0.0 -9.691568884624e-04 
-1.036699855876e-03 -2.770010414120e-06 0.0 
-2.770010414120e-06 6.900219655108e-03 0.0 
0.0 0.0 -1.034312087004e-03 
-1.006639220865e-03 -3.033633605174e-06 0.0 
-3.033633605174e-06 6.698197690662e-03 0.0 
0.0 0.0 -1.005320805676e-03 
-3.491849021404e-04 5.274199756900e-07 0.0 
5.274199756900e-07 2.108115059856e-03 0.0 
0.0 0.0 -3.475522021424e-04 
-1.033063842021e-03 -2.635650059539e-06 0.0 
-2.635650059539e-06 6.905166544597e-03 0.0 
0.0 0.0 -1.035773625862e-03 
-1.032236772368e-03 -1.431372014452e-06 0.0 
-1.431372014452e-06 6.887149851833e-03 0.0 
0.0 0.0 -1.032922975483e-03 
-1.003745583219e-03 -3.564129010567e-06 0.0 
-3.564129010567e-06 6.683661322661e-03 0.0 
0.0 0.0 -1.003739924893e-03 
-1.054629030311e-03 -7.601280977908e-07 0.0 
-7.601280977908e-07 7.036563315422e-03 0.0 
0.0 0.0 -1.054598834243e-03 
-3.382801587767e-04 -2.979708598297e-06 0.0 
-2.979708598297e-06 2.049061231215e-03 0.0 
0.0 0.0 -3.392587823741e-04 
-3.925929468367e-04 -3.827429239249e-07 0.0 
-3.827429239249e-07 2.409736501278e-03 0.0 
0.0 0.0 -3.899405068163e-04 
-4.274717193387e-04 -8.415189167638e-08 0.0 
-8.415189167638e-08 2.658832617141e-03 0.0 
0.0 0.0 -4.261104576107e-04 
-1.049394948444e-03 -6.226283885082e-06 0.0 
-6.226283885082e-06 7.001982288460e-03 0.0 
0.0 0.0 -1.048874596840e-03 
-1.017918189327e-03 -8.563044135185e-06 0.0 
-8.563044135185e-06 6.794247194180e-03 0.0 
0.0 0.0 -1.019458214591e-03 
-1.069216758149e-03 -3.894499857361e-06 0.0 
-3.894499857361e-06 7.146438403505e-03 0.0 
0.0 0.0 -1.070157681403e-03 
-3.646275857636e-04 -4.854414982731e-06 0.0 
-4.854414982731e-06 2.250210390791e-03 0.0 
0.0 0.0 -3.675747464493e-04 
-1.054357939260e-03 -2.436299897803e-06 0.0 
-2.436299897803e-06 7.029823091953e-03 0.0 
0.0 0.0 -1.052997445444e-03 
-3.197645753904e-04 1.264604075083e-05 0.0 
1.264604075083e-05 1.895364248012e-03 0.0 
0.0 0.0 -3.160508651072e-04 
-9.953050425208e-04 1.480628501674e-06 0.0 
1.480628501674e-06 6.643084749548e-03 0.0 
0.0 0.0 -9.982306137915e-04 
-1.060585647238e-03 -1.664106558644e-06 0.0 
-1.664106558644e-06 7.103829563321e-03 0.0 
0.0 0.0 -1.064501221861e-03 
-8.833816014428e-04 -1.312725406789e-06 0.0 
-1.312725406789e-06 5.848632048973e-03 0.0 
0.0 0.0 -8.838659695519e-04 
-1.072126527592e-03 1.342848407724e-06 0.0 
1.342848407724e-06 7.156046509616e-03 0.0 
0.0 0.0 -1.070909199420e-03 
-1.040873144494e-03 -1.559728385194e-06 0.0 
-1.559728385194e-06 6.945723517804e-03 0.0 
0.0 0.0 -1.041442769611e-03 
-4.361432558224e-04 3.964498909280e-06 0.0 
3.964498909280e-06 2.732385665183e-03 0.0 
0.0 0.0 -4.368024751037e-04 
-4.014490958451e-04 -4.456139007885e-06 0.0 
-4.456139007885e-06 2.476345149205e-03 0.0 
0.0 0.0 -4.000028750317e-04 
-3.379276697082e-04 -9.389203743799e-07 0.0 
-9.389203743799e-07 2.030025360652e-03 0.0 
0.0 0.0 -3.362177140684e-04 
-3.635969428549e-04 1.373767669547e-06 0.0 
1.373767669547e-06 2.244616072891e-03 0.0 
0.0 0.0 -3.646174584383e-04 
-4.300938244296e-04 1.567544356461e-06 0.0 
1.567544356461e-06 2.681550340782e-03 0.0 
0.0 0.0 -4.284477484795e-04 
-3.889085083712e-04 9.835552761999e-06 0.0 
9.835552761999e-06 2.418297915731e-03 0.0 
0.0 0.0 -3.914172224959e-04 
-3.204770754165e-04 1.907323267818e-05 0.0 
1.907323267818e-05 1.962571053019e-03 0.0 
0.0 0.0 -3.275549428413e-04 
-3.502907991612e-04 7.488671342929e-06 0.0 
7.488671342929e-06 2.156719423535e-03 0.0 
0.0 0.0 -3.541853722931e-04 
-4.167106155496e-04 6.881429257417e-06 0.0 
6.881429257417e-06 2.610903268491e-03 0.0 
0.0 0.0 -4.192720002935e-04 
-3.788914181042e-04 4.343078442188e-06 0.0 
4.343078442188e-06 2.349536149817e-03 0.0 
0.0 0.0 -3.818909459020e-04 
-3.084459074469e-04 6.289188176421e-07 0.0 
6.289188176421e-07 1.890259859557e-03 0.0 
0.0 0.0 -3.163726278224e-04 
-3.419617535017e-04 -1.002237531258e-06 0.0 
-1.002237531258e-06 2.083935112305e-03 0.0 
0.0 0.0 -3.442135738104e-04 
-1.099071483736e-03 -4.059536723357e-06 0.0 
-4.059536723357e-06 7.365286043721e-03 0.0 
0.0 0.0 -1.101875158976e-03 
-2.778270531889e-04 5.606786558078e-06 0.0 
5.606786558078e-06 1.634146459113e-03 0.0 
0.0 0.0 -2.790856233436e-04 
-8.331232600789e-04 -1.470432704222e-06 0.0 
-1.470432704222e-06 5.468049203594e-03 0.0 
0.0 0.0 -8.288706041983e-04 
-1.097753538925e-03 -6.819421046418e-08 0.0 
-6.819421046418e-08 7.345996197340e-03 0.0 
0.0 0.0 -1.099012274073e-03 
-1.093116720620e-03 -8.666493399366e-07 0.0 
-8.666493399366e-07 7.286837829642e-03 0.0 
0.0 0.0 -1.090660416876e-03 
-1.084365567575e-03 -6.280824779015e-06 0.0 
-6.280824779015e-06 7.252032631151e-03 0.0 
0.0 0.0 -1.085032576515e-03 
-1.054657705810e-03 -6.435631966191e-06 0.0 
-6.435631966191e-06 7.045218181684e-03 0.0 
0.0 0.0 -1.055603631703e-03 
-9.875851288997e-04 -1.413805567774e-06 0.0 
-1.413805567774e-06 6.584177510452e-03 0.0 
0.0 0.0 -9.897378988699e-04 
-1.026769546168e-03 -2.237330550586e-06 0.0 
-2.237330550586e-06 6.840866959104e-03 0.0 
0.0 0.0 -1.026001677571e-03 
-1.092973095107e-03 -7.454569989634e-06 0.0 
-7.454569989634e-06 7.301089234385e-03 0.0 
0.0 0.0 -1.091942449670e-03 
-1.064751991023e-03 -3.501272267722e-06 0.0 
-3.501272267722e-06 7.095620902661e-03 0.0 
0.0 0.0 -1.062342898562e-03 
-9.988564979816e-04 -1.668871402228e-06 0.0 
-1.668871402228e-06 6.635005463114e-03 0.0 
0.0 0.0 -9.962627399151e-04 
-1.034436478479e-03 -1.481002808395e-06 0.0 
-1.481002808395e-06 6.886326563749e-03 0.0 
0.0 0.0 -1.032646955902e-03 
-9.669903561008e-04 -1.588757973808e-06 0.0 
-1.588757973808e-06 6.424013170772e-03 0.0 
0.0 0.0 -9.664557332607e-04 
-1.003700280699e-03 7.299281571933e-07 0.0 
7.299281571933e-07 6.676052297610e-03 0.0 
0.0 0.0 -1.002889032254e-03 
-1.069539961128e-03 -1.406306334207e-06 0.0 
-1.406306334207e-06 7.137459283332e-03 0.0 
0.0 0.0 -1.069134413525e-03 
-1.040251277345e-03 -2.304501535982e-06 0.0 
-2.304501535982e-06 6.929939891367e-03 0.0 
0.0 0.0 -1.039387411609e-03 
-9.757356294361e-04 3.492291009935e-06 0.0 
3.492291009935e-06 6.469291385121e-03 0.0 
0.0 0.0 -9.730575354659e-04 
-1.011311036558e-03 -3.920010342729e-06 0.0 
-3.920010342729e-06 6.721391753202e-03 0.0 
0.0 0.0 -1.009574527126e-03 
-9.473976655285e-04 1.069754497067e-06 0.0 
1.069754497067e-06 6.259448801403e-03 0.0 
0.0 0.0 -9.431603702596e-04 
-9.787243902099e-04 -9.076392670580e-06 0.0 
-9.076392670580e-06 6.505694726987e-03 0.0 
0.0 0.0 -9.796061197752e-04 
-1.045613844249e-03 -1.722974318907e-06 0.0 
-1.722974318907e-06 6.974649094867e-03 0.0 
0.0 0.0 -1.046101832713e-03 
-2.943775444909e-04 -6.928567678538e-07 0.0 
-6.928567678538e-07 1.805789486149e-03 0.0 
0.0 0.0 -3.035957800550e-04 
-1.017758437714e-03 8.339975111556e-07 0.0 
8.339975111556e-07 6.780275813963e-03 0.0 
0.0 0.0 -1.017732614895e-03 
-1.085695951343e-03 9.008470653890e-06 0.0 
9.008470653890e-06 7.238624846316e-03 0.0 
0.0 0.0 -1.083831836677e-03 
-5.709103913775e-04 -2.325431224868e-05 0.0 
-2.325431224868e-05 3.664168357293e-03 0.0 
0.0 0.0 -5.671321338944e-04 
-6.324387949388e-04 -2.542767452305e-05 0.0 
-2.542767452305e-05 4.079572971033e-03 0.0 
0.0 0.0 -6.325382687906e-04 
-6.703304024063e-04 2.057485422877e-06 0.0 
2.057485422877e-06 4.353279279577e-03 0.0 
0.0 0.0 -6.695659616924e-04 
-6.965174910300e-04 -2.385319859374e-06 0.0 
-2.385319859374e-06 4.560833435242e-03 0.0 
0.0 0.0 -6.986863204145e-04 
-1.013217864429e-03 -6.931448216209e-06 0.0 
-6.931448216209e-06 6.760757040862e-03 0.0 
0.0 0.0 -1.015477767897e-03 
-1.085754476307e-03 4.526117246953e-06 0.0 
4.526117246953e-06 7.228792746516e-03 0.0 
0.0 0.0 -1.082739357160e-03 
-3.632786350414e-04 -5.324944036104e-07 0.0 
-5.324944036104e-07 2.218076515491e-03 0.0 
0.0 0.0 -3.630904347118e-04 
-3.989196443092e-04 3.443700858681e-06 0.0 
3.443700858681e-06 2.465366928233e-03 0.0 
0.0 0.0 -3.987635198617e-04 
-1.114604240908e-03 -4.187271034194e-06 0.0 
-4.187271034194e-06 7.457266297093e-03 0.0 
0.0 0.0 -1.114382729655e-03 
-1.023827423401e-03 3.244776890839e-07 0.0 
3.244776890839e-07 6.846372715936e-03 0.0 
0.0 0.0 -1.027045364000e-03 
-9.591711885291e-04 5.195306824484e-06 0.0 
5.195306824484e-06 6.383348184143e-03 0.0 
0.0 0.0 -9.609938998495e-04 
-6.727539858769e-04 1.372459178985e-06 0.0 
1.372459178985e-06 4.373266699251e-03 0.0 
0.0 0.0 -6.721935305596e-04 
-6.457182263887e-04 2.843205903296e-06 0.0 
2.843205903296e-06 4.180265241662e-03 0.0 
0.0 0.0 -6.449639573754e-04 
-6.090109741668e-04 -1.269187225416e-06 0.0 
-1.269187225416e-06 3.932858286179e-03 0.0 
0.0 0.0 -6.093131083769e-04 
-5.816903259702e-04 4.641891431383e-06 0.0 
4.641891431383e-06 3.732340485873e-03 0.0 
0.0 0.0 -5.812298138028e-04 
-6.200283683434e-04 9.586645545116e-06 0.0 
9.586645545116e-06 3.992414838426e-03 0.0 
0.0 0.0 -6.173664885638e-04 
-5.434193891668e-04 -9.403867661907e-06 0.0 
-9.403867661907e-06 3.478668698050e-03 0.0 
0.0 0.0 -5.448148816535e-04 
-9.373928058819e-04 -1.601369738936e-06 0.0 
-1.601369738936e-06 6.221929865538e-03 0.0 
0.0 0.0 -9.373051277721e-04 
-1.105789133782e-03 -5.097961888920e-06 0.0 
-5.097961888920e-06 7.391609738888e-03 0.0 
0.0 0.0 -1.105708206284e-03 
-3.854345613970e-04 8.443027839813e-06 0.0 
8.443027839813e-06 2.371646984252e-03 0.0 
0.0 0.0 -3.852871208612e-04 
-3.201910169614e-04 4.758000015084e-06 0.0 
4.758000015084e-06 1.911169802832e-03 0.0 
0.0 0.0 -3.193625892355e-04 
-1.092402492623e-03 -1.167819157760e-06 0.0 
-1.167819157760e-06 7.309660398486e-03 0.0 
0.0 0.0 -1.093300181677e-03 
-9.522712570359e-04 -2.708707742726e-07 0.0 
-2.708707742726e-07 6.324723503682e-03 0.0 
0.0 0.0 -9.522822042369e-04 
-9.318364452749e-04 -3.558001127041e-06 0.0 
-3.558001127041e-06 6.182417451607e-03 0.0 
0.0 0.0 -9.319735432435e-04 
-9.592391997822e-04 -2.458009781540e-06 0.0 
-2.458009781540e-06 6.375907434676e-03 0.0 
0.0 0.0 -9.598347391831e-04 
-9.950739296232e-04 -4.572796618511e-06 0.0 
-4.572796618511e-06 6.625947379230e-03 0.0 
0.0 0.0 -9.957130113267e-04 
-1.022389104434e-03 -1.719325875491e-06 0.0 
-1.719325875491e-06 6.820013246431e-03 0.0 
0.0 0.0 -1.023751803962e-03 
-1.059370439720e-03 -5.405362556151e-06 0.0 
-5.405362556151e-06 7.072199763533e-03 0.0 
0.0 0.0 -1.059873349132e-03 
-1.087678763415e-03 -2.923161999985e-06 0.0 
-2.923161999985e-06 7.265128234670e-03 0.0 
0.0 0.0 -1.087854580038e-03 
-1.051303081442e-03 5.171402569264e-07 0.0 
5.171402569264e-07 7.018896459243e-03 0.0 
0.0 0.0 -1.051791170495e-03 
-1.103769166383e-03 7.691851827851e-06 0.0 
7.691851827851e-06 7.404894528321e-03 0.0 
0.0 0.0 -1.107463318235e-03 
-1.117712624745e-03 -3.586966882199e-06 0.0 
-3.586966882199e-06 7.467456065743e-03 0.0 
0.0 0.0 -1.115916943430e-03 
-9.389683298366e-04 8.173508751278e-06 0.0 
8.173508751278e-06 6.277342985551e-03 0.0 
0.0 0.0 -9.487150400336e-04 
-9.410739694122e-04 -1.111791304632e-06 0.0 
-1.111791304632e-06 6.241243045591e-03 0.0 
0.0 0.0 -9.398448712237e-04 
-4.457204000865e-04 5.557813324762e-06 0.0 
5.557813324762e-06 2.807268937135e-03 0.0 
0.0 0.0 -4.474652294669e-04 
-2.787239558753e-04 -1.594210911545e-05 0.0 
-1.594210911545e-05 1.590980471387e-03 0.0 
0.0 0.0 -2.752498982733e-04 
-2.801629165477e-04 1.388173637535e-07 0.0 
1.388173637535e-07 1.614413284500e-03 0.0 
0.0 0.0 -2.770275614452e-04 
-3.257086370933e-04 6.463444473954e-06 0.0 
6.463444473954e-06 1.982032803988e-03 0.0 
0.0 0.0 -3.299748606085e-04 
-3.924316838372e-04 3.341960258366e-06 0.0 
3.341960258366e-06 2.447443434601e-03 0.0 
0.0 0.0 -3.961554456411e-04 
-1.134349550786e-03 -1.652632845532e-06 0.0 
-1.652632845532e-06 7.607275251226e-03 0.0 
0.0 0.0 -1.136360603439e-03 
-1.125800754315e-03 -5.253853129255e-06 0.0 
-5.253853129255e-06 7.520991050392e-03 0.0 
0.0 0.0 -1.124065295910e-03 
-1.096791908378e-03 -5.220402544478e-06 0.0 
-5.220402544478e-06 7.320289406060e-03 0.0 
0.0 0.0 -1.095615423988e-03 
-5.557080703907e-04 2.060507655022e-05 0.0 
2.060507655022e-05 3.553838567094e-03 0.0 
0.0 0.0 -5.539799138139e-04 
-5.938414920039e-04 6.065843658374e-06 0.0 
6.065843658374e-06 3.806784454423e-03 0.0 
0.0 0.0 -5.905304635153e-04 
-1.132061157024e-03 2.994999273289e-06 0.0 
2.994999273289e-06 7.609332849678e-03 0.0 
0.0 0.0 -1.136278651916e-03 
-9.052603845710e-04 -1.496793008832e-06 0.0 
-1.496793008832e-06 6.089428360264e-03 0.0 
0.0 0.0 -9.177848451843e-04 
-9.302886435713e-04 -1.143901140747e-06 0.0 
-1.143901140747e-06 6.175006027383e-03 0.0 
0.0 0.0 -9.302130594432e-04 
-8.986318941468e-04 1.808913455717e-06 0.0 
1.808913455717e-06 5.958837749668e-03 0.0 
0.0 0.0 -9.001900590098e-04 
-2.448154097378e-04 -1.421673720980e-05 0.0 
-1.421673720980e-05 1.469020257813e-03 0.0 
0.0 0.0 -2.595221258752e-04 
-2.425141975507e-04 4.798340757492e-06 0.0 
4.798340757492e-06 1.427444744679e-03 0.0 
0.0 0.0 -2.525597767350e-04 
-1.129866785975e-03 -6.589135683459e-06 0.0 
-6.589135683459e-06 7.556758245339e-03 0.0 
0.0 0.0 -1.128363834889e-03 
-4.625030533362e-04 2.152653740832e-06 0.0 
2.152653740832e-06 2.905591162520e-03 0.0 
0.0 0.0 -4.615872697407e-04 
-4.348533942840e-04 3.201452625959e-06 0.0 
3.201452625959e-06 2.712395630356e-03 0.0 
0.0 0.0 -4.342639779644e-04 
-2.556862254962e-04 9.465200077470e-06 0.0 
9.465200077470e-06 1.446637132955e-03 0.0 
0.0 0.0 -2.508181872060e-04 
-2.123142658657e-04 2.153637718006e-06 0.0 
2.153637718006e-06 1.175585796085e-03 0.0 
0.0 0.0 -2.143868084631e-04 
-1.042731456099e-03 1.901936730496e-05 0.0 
1.901936730496e-05 6.995442815012e-03 0.0 
0.0 0.0 -1.051814883004e-03 
-1.110984337992e-03 1.360393105763e-05 0.0 
1.360393105763e-05 7.468547826848e-03 0.0 
0.0 0.0 -1.117859435171e-03 
-7.312716402703e-04 -2.190675999974e-06 0.0 
-2.190675999974e-06 4.814374156657e-03 0.0 
0.0 0.0 -7.356929296387e-04 
-7.645892286358e-04 -1.102166449941e-05 0.0 
-1.102166449941e-05 5.018862629850e-03 0.0 
0.0 0.0 -7.648299719236e-04 
-1.105578814045e-03 -4.864618337802e-06 0.0 
-4.864618337802e-06 7.407304501986e-03 0.0 
0.0 0.0 -1.107558395918e-03 
-3.066920262703e-04 -9.941053824018e-07 0.0 
-9.941053824018e-07 1.825477502809e-03 0.0 
0.0 0.0 -3.060794667268e-04 
-1.146252104278e-03 9.473611415292e-07 0.0 
9.473611415292e-07 7.693660702169e-03 0.0 
0.0 0.0 -1.149181664990e-03 
-9.819770468004e-04 3.151631864564e-06 0.0 
3.151631864564e-06 6.525650668115e-03 0.0 
0.0 0.0 -9.807908033776e-04 
-9.159380280943e-04 1.195442860184e-06 0.0 
1.195442860184e-06 6.068082639928e-03 0.0 
0.0 0.0 -9.152404036620e-04 
-6.511413906152e-04 1.424536279068e-05 0.0 
1.424536279068e-05 4.294241389317e-03 0.0 
0.0 0.0 -6.604623333687e-04 
-3.374810340454e-04 6.844433927066e-06 0.0 
6.844433927066e-06 2.031763814607e-03 0.0 
0.0 0.0 -3.366432492119e-04 
-3.027001806187e-04 4.554754580628e-06 0.0 
4.554754580628e-06 1.781580953441e-03 0.0 
0.0 0.0 -3.009099309908e-04 
-4.837618896287e-04 7.408810593372e-06 0.0 
7.408810593372e-06 3.065907824054e-03 0.0 
0.0 0.0 -4.845585894574e-04 
-3.706525314116e-04 2.979043878704e-06 0.0 
2.979043878704e-06 2.283251894813e-03 0.0 
0.0 0.0 -3.723415964733e-04 
-3.535775650443e-04 1.642795960174e-06 0.0 
1.642795960174e-06 2.183712345689e-03 0.0 
0.0 0.0 -3.583452993329e-04 
-1.171956394673e-03 7.296733533157e-06 0.0 
7.296733533157e-06 7.865937936914e-03 0.0 
0.0 0.0 -1.173829981771e-03 
-1.155496536768e-03 -7.585900876950e-06 0.0 
-7.585900876950e-06 7.757441294242e-03 0.0 
0.0 0.0 -1.157575248917e-03 
-1.081331483118e-03 -1.018192650106e-05 0.0 
-1.018192650106e-05 7.219793718708e-03 0.0 
0.0 0.0 -1.080172819833e-03 
-1.016976595983e-03 3.080934611936e-08 0.0 
3.080934611936e-08 6.767850029250e-03 0.0 
0.0 0.0 -1.015677837919e-03 
-1.139278177336e-03 -7.940019038833e-06 0.0 
-7.940019038833e-06 7.665797132760e-03 0.0 
0.0 0.0 -1.144955025780e-03 
-2.327287223154e-04 -5.619721676041e-06 0.0 
-5.619721676041e-06 1.369838176642e-03 0.0 
0.0 0.0 -2.399185640008e-04 
-1.167065302037e-03 -2.167295117500e-06 0.0 
-2.167295117500e-06 7.816099518397e-03 0.0 
0.0 0.0 -1.165794428787e-03 
-1.057599608467e-03 -1.462585030755e-06 0.0 
-1.462585030755e-06 7.053925433098e-03 0.0 
0.0 0.0 -1.056136825731e-03 
-1.166821884924e-03 8.580756338006e-06 0.0 
8.580756338006e-06 7.754116842770e-03 0.0 
0.0 0.0 -1.157598467365e-03 
-1.133408506306e-03 -8.435792570126e-07 0.0 
-8.435792570126e-07 7.569033753462e-03 0.0 
0.0 0.0 -1.131219827106e-03 
-4.984456519411e-04 4.300557589695e-06 0.0 
4.300557589695e-06 3.150357815837e-03 0.0 
0.0 0.0 -4.968499830348e-04 
-4.727344614058e-04 -4.063132868511e-06 0.0 
-4.063132868511e-06 2.963684111716e-03 0.0 
0.0 0.0 -4.705806478706e-04 
-4.091383170964e-04 2.862069894884e-06 0.0 
2.862069894884e-06 2.529363987017e-03 0.0 
0.0 0.0 -4.078257031896e-04 
-4.471058786427e-04 1.072951437627e-05 0.0 
1.072951437627e-05 2.788633828474e-03 0.0 
0.0 0.0 -4.438024830152e-04 
-8.440631779025e-04 -4.493147098186e-06 0.0 
-4.493147098186e-06 5.518369027804e-03 0.0 
0.0 0.0 -8.361670615231e-04 
-5.357092529257e-04 -9.292843077280e-07 0.0 
-9.292843077280e-07 3.402933662769e-03 0.0 
0.0 0.0 -5.333915535664e-04 
-7.972227851670e-04 -9.360487058621e-07 0.0 
-9.360487058621e-07 5.222669072684e-03 0.0 
0.0 0.0 -7.939299641313e-04 
-7.702508874020e-04 -1.538210288694e-06 0.0 
-1.538210288694e-06 5.031866795854e-03 0.0 
0.0 0.0 -7.665196690739e-04 
-7.355056886190e-04 7.347932434340e-07 0.0 
7.347932434340e-07 4.791036993934e-03 0.0 
0.0 0.0 -7.319524942586e-04 
-6.561872916338e-04 1.268419360779e-06 0.0 
1.268419360779e-06 4.239606973166e-03 0.0 
0.0 0.0 -6.527873785750e-04 
-6.291613184762e-04 -1.439650198950e-06 0.0 
-1.439650198950e-06 4.053875822961e-03 0.0 
0.0 0.0 -6.261871041946e-04 
-5.548406946331e-04 -1.134560045618e-06 0.0 
-1.134560045618e-06 3.546628030902e-03 0.0 
0.0 0.0 -5.534964465553e-04 
-8.399940984115e-04 -3.577201230982e-06 0.0 
-3.577201230982e-06 5.537581821643e-03 0.0 
0.0 0.0 -8.390310526140e-04 
-7.058409553933e-04 5.047899970867e-07 0.0 
5.047899970867e-07 4.614117323526e-03 0.0 
0.0 0.0 -7.069621042110e-04 
-8.747594299032e-04 -2.558061717813e-06 0.0 
-2.558061717813e-06 5.788017369400e-03 0.0 
0.0 0.0 -8.751042800696e-04 
-8.345970192924e-04 7.968047685773e-07 0.0 
7.968047685773e-07 5.508873449258e-03 0.0 
0.0 0.0 -8.350146568664e-04 
-1.135366159085e-03 -3.784163045634e-06 0.0 
-3.784163045634e-06 7.595187475630e-03 0.0 
0.0 0.0 -1.135109731873e-03 
-1.173430748718e-03 -9.063019793227e-06 0.0 
-9.063019793227e-06 7.855172062360e-03 0.0 
0.0 0.0 -1.171938512032e-03 
-9.103494794309e-04 9.134385712292e-06 0.0 
9.134385712292e-06 6.008446285683e-03 0.0 
0.0 0.0 -9.065739516476e-04 
-8.719468559850e-04 9.049287930901e-07 0.0 
9.049287930901e-07 5.790867004059e-03 0.0 
0.0 0.0 -8.764137937918e-04 
-2.822142401262e-04 -1.729015805195e-06 0.0 
-1.729015805195e-06 1.647043850495e-03 0.0 
0.0 0.0 -2.813159824896e-04 
-2.590672524344e-04 7.758668078397e-06 0.0 
7.758668078397e-06 1.453070456664e-03 0.0 
0.0 0.0 -2.532569443854e-04 
-7.885436432884e-04 5.287197584801e-07 0.0 
5.287197584801e-07 5.190389624089e-03 0.0 
0.0 0.0 -7.894497706086e-04 
-1.129157536929e-03 4.394584270073e-06 0.0 
4.394584270073e-06 7.545263270116e-03 0.0 
0.0 0.0 -1.127529358476e-03 
-1.150499129859e-03 -1.601096256606e-07 0.0 
-1.601096256606e-07 7.703368893988e-03 0.0 
0.0 0.0 -1.150095860580e-03 
-1.180515255213e-03 -2.827683268633e-06 0.0 
-2.827683268633e-06 7.908952217123e-03 0.0 
0.0 0.0 -1.179372829571e-03 
-1.142938913333e-03 -3.318694813209e-06 0.0 
-3.318694813209e-06 7.657003561438e-03 0.0 
0.0 0.0 -1.143369325256e-03 
-1.140111309187e-03 8.981293941528e-07 0.0 
8.981293941528e-07 7.659653688633e-03 0.0 
0.0 0.0 -1.144273392007e-03 
-5.742583376343e-04 1.322470560158e-07 0.0 
1.322470560158e-07 3.685291735877e-03 0.0 
0.0 0.0 -5.733740095480e-04 
-8.593234151619e-04 -2.874076436986e-06 0.0 
-2.874076436986e-06 5.675695790787e-03 0.0 
0.0 0.0 -8.590966742019e-04 
-2.435677437140e-04 -1.068446741352e-05 0.0 
-1.068446741352e-05 1.382271228051e-03 0.0 
0.0 0.0 -2.423215009416e-04 
-8.888171571716e-04 7.702896638063e-07 0.0 
7.702896638063e-07 5.879388839658e-03 0.0 
0.0 0.0 -8.884627649733e-04 
-2.162237035634e-04 -3.672272412206e-06 0.0 
-3.672272412206e-06 1.184819371308e-03 0.0 
0.0 0.0 -2.162536877156e-04 
-1.014212058360e-03 -1.424401912202e-06 0.0 
-1.424401912202e-06 6.732806316095e-03 0.0 
0.0 0.0 -1.010319580236e-03 
-1.121146682577e-03 5.393536553208e-07 0.0 
5.393536553208e-07 7.512550218556e-03 0.0 
0.0 0.0 -1.122815839103e-03 
-1.157064342210e-03 3.278319440551e-08 0.0 
3.278319440551e-08 7.769042756358e-03 0.0 
0.0 0.0 -1.159213750608e-03 
-1.166424981014e-03 1.813592645858e-06 0.0 
1.813592645858e-06 7.856112587899e-03 0.0 
0.0 0.0 -1.171959308352e-03 
-7.504080630279e-04 1.142017006433e-05 0.0 
1.142017006433e-05 4.900584458038e-03 0.0 
0.0 0.0 -7.470952864203e-04 
-9.172347539122e-04 2.804117413103e-06 0.0 
2.804117413103e-06 6.075069916316e-03 0.0 
0.0 0.0 -9.162722660995e-04 
-8.822868772853e-04 1.786082975062e-06 0.0 
1.786082975062e-06 5.828052429250e-03 0.0 
0.0 0.0 -8.808726170640e-04 
-7.075025449257e-04 3.734403442010e-06 0.0 
3.734403442010e-06 4.602949033638e-03 0.0 
0.0 0.0 -7.048691535495e-04 
-6.736902723486e-04 3.915004124942e-06 0.0 
3.915004124942e-06 4.364959797177e-03 0.0 
0.0 0.0 -6.707530558731e-04 
-7.003926698376e-04 3.499859416460e-06 0.0 
3.499859416460e-06 4.548937086678e-03 0.0 
0.0 0.0 -6.972958566626e-04 
-6.396081130525e-04 3.801189656200e-06 0.0 
3.801189656200e-06 4.126284090508e-03 0.0 
0.0 0.0 -6.359606378414e-04 
-5.113814833483e-04 4.985013341203e-06 0.0 
4.985013341203e-06 3.258506878652e-03 0.0 
0.0 0.0 -5.122594947013e-04 
-4.735906672379e-04 3.101741148863e-06 0.0 
3.101741148863e-06 2.998270021668e-03 0.0 
0.0 0.0 -4.750188804659e-04 
-1.196527535369e-03 2.030860363372e-06 0.0 
2.030860363372e-06 8.017120294099e-03 0.0 
0.0 0.0 -1.192042136895e-03 
-1.179471908673e-03 2.186350744695e-05 0.0 
2.186350744695e-05 7.917990259976e-03 0.0 
0.0 0.0 -1.178660172201e-03 
-1.197525366512e-03 -5.361254674991e-06 0.0 
-5.361254674991e-06 8.017772106938e-03 0.0 
0.0 0.0 -1.193029175878e-03 
-1.157007599871e-03 -4.254495392408e-07 0.0 
-4.254495392408e-07 7.831852404544e-03 0.0 
0.0 0.0 -1.168165168231e-03 
-1.184219832489e-03 -2.995135238731e-06 0.0 
-2.995135238731e-06 8.054139615854e-03 0.0 
0.0 0.0 -1.200910491468e-03 
-1.156433585434e-03 -1.143666503597e-06 0.0 
-1.143666503597e-06 7.807020133364e-03 0.0 
0.0 0.0 -1.164168769488e-03 
-4.264796299706e-04 -5.762809161309e-06 0.0 
-5.762809161309e-06 2.638842137297e-03 0.0 
0.0 0.0 -4.227350873389e-04 
-5.681760473819e-04 2.318592575124e-06 0.0 
2.318592575124e-06 3.626581176623e-03 0.0 
0.0 0.0 -5.646260317871e-04 
-1.184636686047e-03 -1.016095806200e-05 0.0 
-1.016095806200e-05 8.009054334469e-03 0.0 
0.0 0.0 -1.194151889699e-03 
-7.414862310133e-04 3.192804147242e-06 0.0 
3.192804147242e-06 4.838396811126e-03 0.0 
0.0 0.0 -7.390869131010e-04 
-1.198370689590e-03 -4.208230376649e-06 0.0 
-4.208230376649e-06 8.000236790466e-03 0.0 
0.0 0.0 -1.192835421428e-03 
-1.157965586969e-03 3.621187988980e-06 0.0 
3.621187988980e-06 7.751872966735e-03 0.0 
0.0 0.0 -1.156047193884e-03 
-1.679677723564e-04 -6.471467774982e-06 0.0 
-6.471467774982e-06 9.157850137994e-04 0.0 
0.0 0.0 -1.776502893165e-04 
-2.010012491603e-04 -2.186198543601e-05 0.0 
-2.186198543601e-05 1.109886420371e-03 0.0 
0.0 0.0 -2.034953494974e-04 
-1.179928424182e-03 1.756406795434e-06 0.0 
1.756406795434e-06 7.951460578279e-03 0.0 
0.0 0.0 -1.184588873336e-03 
-3.838885301584e-04 -2.308315346756e-07 0.0 
-2.308315346756e-07 2.344842445821e-03 0.0 
0.0 0.0 -3.811925308841e-04 
-4.219559892701e-04 7.989363516761e-06 0.0 
7.989363516761e-06 2.586701229719e-03 0.0 
0.0 0.0 -4.158690271831e-04 
-3.474814854535e-04 -1.898705035349e-06 0.0 
-1.898705035349e-06 2.092244309525e-03 0.0 
0.0 0.0 -3.459699425273e-04 
-1.258412294817e-03 4.723230244952e-06 0.0 
4.723230244952e-06 8.451854294521e-03 0.0 
0.0 0.0 -1.258310293365e-03 
-7.484881504011e-04 -2.960864060488e-06 0.0 
-2.960864060488e-06 4.893199602045e-03 0.0 
0.0 0.0 -7.479256703001e-04 
-1.180456674817e-03 2.203572108547e-06 0.0 
2.203572108547e-06 7.969948982011e-03 0.0 
0.0 0.0 -1.189418985649e-03 
-6.915459890032e-04 2.639723401421e-07 0.0 
2.639723401421e-07 4.488659587491e-03 0.0 
0.0 0.0 -6.884682336192e-04 
-1.207477073685e-03 3.654066082018e-06 0.0 
3.654066082018e-06 8.169097270233e-03 0.0 
0.0 0.0 -1.216510697198e-03 
-9.459891485395e-04 2.183343284693e-06 0.0 
2.183343284693e-06 6.276634781059e-03 0.0 
0.0 0.0 -9.449116413281e-04 
-6.354655665353e-04 7.994205054124e-06 0.0 
7.994205054124e-06 4.117898953292e-03 0.0 
0.0 0.0 -6.353966017694e-04 
-1.078683645924e-03 -8.754256551645e-06 0.0 
-8.754256551645e-06 7.202760317135e-03 0.0 
0.0 0.0 -1.078177493492e-03 
-1.141578224773e-03 -1.678015124368e-05 0.0 
-1.678015124368e-05 7.703318796330e-03 0.0 
0.0 0.0 -1.149140729088e-03 
-1.226390364052e-03 1.281801736302e-05 0.0 
1.281801736302e-05 8.221773688784e-03 0.0 
0.0 0.0 -1.221625961084e-03 
-8.548571335587e-04 9.585095622167e-06 0.0 
9.585095622167e-06 5.710330831809e-03 0.0 
0.0 0.0 -8.638707813346e-04 
-8.315226367925e-04 -1.796676276346e-05 0.0 
-1.796676276346e-05 5.471080815741e-03 0.0 
0.0 0.0 -8.327709333130e-04 
-8.913153694948e-04 3.187001622880e-06 0.0 
3.187001622880e-06 5.908304703834e-03 0.0 
0.0 0.0 -8.925140200429e-04 
-2.901697666162e-04 2.957652242772e-06 0.0 
2.957652242772e-06 1.700907778148e-03 0.0 
0.0 0.0 -2.887053311254e-04 
-2.259876589124e-04 -1.628476741978e-06 0.0 
-1.628476741978e-06 1.207242233753e-03 0.0 
0.0 0.0 -2.186270541161e-04 
-1.144042553285e-03 -3.972510573142e-06 0.0 
-3.972510573142e-06 7.644643748638e-03 0.0 
0.0 0.0 -1.142090266074e-03 
-5.015691225624e-04 -4.004972649499e-06 0.0 
-4.004972649499e-06 3.172327891301e-03 0.0 
0.0 0.0 -5.006138788623e-04 
-5.490396028458e-04 1.473261204921e-05 0.0 
1.473261204921e-05 3.431798845594e-03 0.0 
0.0 0.0 -5.359218444892e-04 
-3.334097721274e-04 4.182676571656e-07 0.0 
4.182676571656e-07 2.008435002854e-03 0.0 
0.0 0.0 -3.328711069468e-04 
-3.967994371980e-04 3.163349435476e-06 0.0 
3.163349435476e-06 2.463726324997e-03 0.0 
0.0 0.0 -3.985542937016e-04 
-7.704918098594e-04 -2.506920414946e-06 0.0 
-2.506920414946e-06 5.073323433467e-03 0.0 
0.0 0.0 -7.728092966600e-04 
-7.429755971663e-04 -1.604665722884e-06 0.0 
-1.604665722884e-06 4.873825415622e-03 0.0 
0.0 0.0 -7.441750962829e-04 
-1.041105417575e-03 -3.532804275446e-06 0.0 
-3.532804275446e-06 6.930458439110e-03 0.0 
0.0 0.0 -1.038692069610e-03 
-1.077691050121e-03 5.915919111681e-07 0.0 
5.915919111681e-07 7.178307862229e-03 0.0 
0.0 0.0 -1.074129358999e-03 
-9.680145315127e-04 -4.800744221087e-06 0.0 
-4.800744221087e-06 6.431374472253e-03 0.0 
0.0 0.0 -9.675620497173e-04 
-9.449072701309e-04 5.755247327842e-07 0.0 
5.755247327842e-07 6.268683015175e-03 0.0 
0.0 0.0 -9.439558448496e-04 
-8.793469056982e-04 2.651871179316e-07 0.0 
2.651871179316e-07 5.812169911194e-03 0.0 
0.0 0.0 -8.783802297791e-04 
-8.506353188413e-04 -1.205932606215e-06 0.0 
-1.205932606215e-06 5.614865789540e-03 0.0 
0.0 0.0 -8.502765121185e-04 
-1.205371287344e-03 -1.017172525849e-05 0.0 
-1.017172525849e-05 8.044519540676e-03 0.0 
0.0 0.0 -1.199867006878e-03 
-1.246871842620e-03 -1.782584577441e-06 0.0 
-1.782584577441e-06 8.370823131876e-03 0.0 
0.0 0.0 -1.242728214876e-03 
-5.491066158241e-04 3.796504913762e-06 0.0 
3.796504913762e-06 3.515286504074e-03 0.0 
0.0 0.0 -5.488632449009e-04 
-5.218883337207e-04 5.205294616504e-06 0.0 
5.205294616504e-06 3.322312941731e-03 0.0 
0.0 0.0 -5.212126360957e-04 
-5.377854580404e-04 4.143852354849e-06 0.0 
4.143852354849e-06 3.445251353484e-03 0.0 
0.0 0.0 -5.390128571062e-04 
-1.214529256448e-03 -6.301616693034e-06 0.0 
-6.301616693034e-06 8.215301645721e-03 0.0 
0.0 0.0 -1.223056365294e-03 
-1.220614911318e-03 1.691106897423e-05 0.0 
1.691106897423e-05 8.234319209605e-03 0.0 
0.0 0.0 -1.224004481682e-03 
-1.202636442924e-03 -1.450484537664e-05 0.0 
-1.450484537664e-05 8.019827799738e-03 0.0 
0.0 0.0 -1.195820777905e-03 
-1.923031463658e-04 -1.299529721398e-05 0.0 
-1.299529721398e-05 1.005842812599e-03 0.0 
0.0 0.0 -1.880780275778e-04 
-2.380587333974e-04 -7.138126159536e-06 0.0 
-7.138126159536e-06 1.256954979671e-03 0.0 
0.0 0.0 -2.247092568812e-04 
-2.809188805545e-04 -7.804988416387e-07 0.0 
-7.804988416387e-07 1.601881524077e-03 0.0 
0.0 0.0 -2.751197234063e-04 
-2.390831316059e-04 -1.697522519504e-05 0.0 
-1.697522519504e-05 1.345355817379e-03 0.0 
0.0 0.0 -2.407125716443e-04 
-1.208745358061e-03 2.226513834230e-07 0.0 
2.226513834230e-07 8.094728759758e-03 0.0 
0.0 0.0 -1.207258722210e-03 
-1.173002429905e-03 -1.580225171759e-08 0.0 
-1.580225171759e-08 7.865013445176e-03 0.0 
0.0 0.0 -1.172631524865e-03 
-1.245587066994e-03 -1.350830728451e-07 0.0 
-1.350830728451e-07 8.403006214559e-03 0.0 
0.0 0.0 -1.247471551777e-03 
-3.784912276642e-04 1.355145565509e-05 0.0 
1.355145565509e-05 2.351827936340e-03 0.0 
0.0 0.0 -3.801539159394e-04 
-1.045351836581e-03 6.057785964129e-06 0.0 
6.057785964129e-06 6.969505785323e-03 0.0 
0.0 0.0 -1.045322365442e-03 
-1.205298536187e-03 1.211257299849e-05 0.0 
1.211257299849e-05 8.100207033565e-03 0.0 
0.0 0.0 -1.207899217314e-03 
-1.178583019777e-03 1.757022163117e-05 0.0 
1.757022163117e-05 7.916687945301e-03 0.0 
0.0 0.0 -1.178012378629e-03 
-1.242442001561e-03 9.743401619652e-06 0.0 
9.743401619652e-06 8.382783963078e-03 0.0 
0.0 0.0 -1.244624083072e-03 
-1.137070212873e-03 -2.028754131516e-06 0.0 
-2.028754131516e-06 7.646903784891e-03 0.0 
0.0 0.0 -1.142102124289e-03 
-1.209034666392e-03 -7.012965144915e-06 0.0 
-7.012965144915e-06 8.081623741308e-03 0.0 
0.0 0.0 -1.205428683694e-03 
-1.206763234680e-03 6.340388102828e-06 0.0 
6.340388102828e-06 8.101632159503e-03 0.0 
0.0 0.0 -1.209323031234e-03 
-1.526588308959e-04 -1.278274148856e-05 0.0 
-1.278274148856e-05 7.096255753314e-04 0.0 
0.0 0.0 -1.515181680101e-04 
-1.197635794990e-03 -1.679642684386e-05 0.0 
-1.679642684386e-05 8.038463106289e-03 0.0 
0.0 0.0 -1.199992767657e-03 
-8.372255126925e-04 -1.581405743953e-06 0.0 
-1.581405743953e-06 5.516497338344e-03 0.0 
0.0 0.0 -8.371571859873e-04 
-1.098991945020e-04 -3.154449405104e-05 0.0 
-3.154449405104e-05 5.330743413541e-04 0.0 
0.0 0.0 -1.134605161963e-04 
-7.981850025034e-04 -4.161080113950e-07 0.0 
-4.161080113950e-07 5.308479178574e-03 0.0 
0.0 0.0 -8.070151920887e-04 
-8.429634412097e-04 -1.709371110809e-06 0.0 
-1.709371110809e-06 5.581100165216e-03 0.0 
0.0 0.0 -8.451615393777e-04 
-7.696584184700e-04 -4.438777502839e-06 0.0 
-4.438777502839e-06 5.046252634616e-03 0.0 
0.0 0.0 -7.748096441827e-04 
-3.107010397172e-04 9.959927229299e-06 0.0 
9.959927229299e-06 1.894638977858e-03 0.0 
0.0 0.0 -3.155299188714e-04 
-8.095068364426e-04 -1.064416675758e-05 0.0 
-1.064416675758e-05 5.359424365734e-03 0.0 
0.0 0.0 -8.174106193842e-04 
-8.516632903957e-04 -1.548663215885e-05 0.0 
-1.548663215885e-05 5.659882039523e-03 0.0 
0.0 0.0 -8.556612431672e-04 
-1.454483653541e-04 3.285604104460e-06 0.0 
3.285604104460e-06 7.139538730244e-04 0.0 
0.0 0.0 -1.421329337195e-04 
-1.249632985061e-03 3.450770483262e-06 0.0 
3.450770483262e-06 8.450128189206e-03 0.0 
0.0 0.0 -1.259301554906e-03 
-1.652376678941e-04 -1.286666981350e-05 0.0 
-1.286666981350e-05 7.455520390207e-04 0.0 
0.0 0.0 -1.556443337539e-04 
-1.771144640534e-04 -1.673852043284e-05 0.0 
-1.673852043284e-05 9.409763732997e-04 0.0 
0.0 0.0 -1.806578101979e-04 
-1.211541890789e-03 1.467961613667e-05 0.0 
1.467961613667e-05 8.216069586299e-03 0.0 
0.0 0.0 -1.221214701962e-03 
-1.182137557378e-03 -1.347893005093e-06 0.0 
-1.347893005093e-06 7.946617508211e-03 0.0 
0.0 0.0 -1.184344882880e-03 
-1.248636598491e-03 -6.710766209692e-06 0.0 
-6.710766209692e-06 8.399111666310e-03 0.0 
0.0 0.0 -1.247726601234e-03 
-1.216304493113e-03 1.376146948642e-05 0.0 
1.376146948642e-05 8.121468603000e-03 0.0 
0.0 0.0 -1.211018817991e-03 
-1.146160367712e-03 -4.978228076893e-06 0.0 
-4.978228076893e-06 7.680298396241e-03 0.0 
0.0 0.0 -1.147066289601e-03 
-1.174333499691e-03 6.447300312268e-06 0.0 
6.447300312268e-06 7.890872304648e-03 0.0 
0.0 0.0 -1.176490610025e-03 
-8.022613359355e-04 -1.465561338710e-05 0.0 
-1.465561338710e-05 5.265642214057e-03 0.0 
0.0 0.0 -7.985989294648e-04 
-1.243628943204e-03 1.764986030868e-05 0.0 
1.764986030868e-05 8.400828657624e-03 0.0 
0.0 0.0 -1.249018369598e-03 
-1.202560827820e-03 4.472912903621e-06 0.0 
4.472912903621e-06 8.095627160272e-03 0.0 
0.0 0.0 -1.207442871744e-03 
-1.280707394095e-03 9.871433926351e-06 0.0 
9.871433926351e-06 8.646120131381e-03 0.0 
0.0 0.0 -1.277927415301e-03 
-6.139046463498e-04 4.062295408107e-06 0.0 
4.062295408107e-06 3.949909662933e-03 0.0 
0.0 0.0 -6.108003466767e-04 
-4.855763441254e-04 3.057596715552e-06 0.0 
3.057596715552e-06 3.031592722143e-03 0.0 
0.0 0.0 -4.789358348571e-04 
-4.592668061051e-04 2.643196690510e-06 0.0 
2.643196690510e-06 2.831145132009e-03 0.0 
0.0 0.0 -4.527251363391e-04 
-3.939664762502e-04 4.015896243431e-05 0.0 
4.015896243431e-05 2.394779108390e-03 0.0 
0.0 0.0 -3.875663759467e-04 
-1.235451159508e-03 5.414867173210e-06 0.0 
5.414867173210e-06 8.338545045283e-03 0.0 
0.0 0.0 -1.240180566941e-03 
-1.197541601819e-03 2.184484790426e-05 0.0 
2.184484790426e-05 8.058909055166e-03 0.0 
0.0 0.0 -1.200590015451e-03 
-1.087867486780e-03 1.085013592536e-06 0.0 
1.085013592536e-06 7.270465583492e-03 0.0 
0.0 0.0 -1.087555896896e-03 
-1.022984886136e-03 4.510930018279e-06 0.0 
4.510930018279e-06 6.802736585016e-03 0.0 
0.0 0.0 -1.020738973070e-03 
-8.163996236660e-04 7.186741062486e-06 0.0 
7.186741062486e-06 5.339991771102e-03 0.0 
0.0 0.0 -8.108182148135e-04 
-8.104965103200e-04 -8.251273631930e-06 0.0 
-8.251273631930e-06 5.308853861974e-03 0.0 
0.0 0.0 -8.077352941366e-04 
-8.720514006204e-04 3.179792081281e-05 0.0 
3.179792081281e-05 5.733381675574e-03 0.0 
0.0 0.0 -8.678526801547e-04 
-8.648510791426e-04 -7.111218047977e-06 0.0 
-7.111218047977e-06 5.661166370703e-03 0.0 
0.0 0.0 -8.609153521579e-04 
-9.263549734801e-04 3.033239231763e-05 0.0 
3.033239231763e-05 6.105443762298e-03 0.0 
0.0 0.0 -9.200517378055e-04 
-9.083479877114e-04 -1.416522287393e-05 0.0 
-1.416522287393e-05 6.036653926986e-03 0.0 
0.0 0.0 -9.108947733944e-04 
-9.698621139042e-04 -2.949214397537e-05 0.0 
-2.949214397537e-05 6.467199866666e-03 0.0 
0.0 0.0 -9.726914458129e-04 
-1.247222366311e-03 2.606056517105e-05 0.0 
2.606056517105e-05 8.375150940582e-03 0.0 
0.0 0.0 -1.245087786853e-03 
-3.186375953883e-04 9.254464651410e-06 0.0 
9.254464651410e-06 1.904578218722e-03 0.0 
0.0 0.0 -3.180830487989e-04 
-6.795655702328e-04 3.950407328760e-06 0.0 
3.950407328760e-06 4.416747400763e-03 0.0 
0.0 0.0 -6.783069842581e-04 
-1.217523867403e-03 -1.107710803928e-05 0.0 
-1.107710803928e-05 8.250220171501e-03 0.0 
0.0 0.0 -1.228261380050e-03 
-1.189954932966e-03 -3.389414248199e-06 0.0 
-3.389414248199e-06 7.976695802146e-03 0.0 
0.0 0.0 -1.187396807988e-03 
-6.030585832721e-04 2.040094254721e-06 0.0 
2.040094254721e-06 3.869813641297e-03 0.0 
0.0 0.0 -6.000944487132e-04 
-5.459736888774e-04 1.094222006431e-05 0.0 
1.094222006431e-05 3.457763009942e-03 0.0 
0.0 0.0 -5.401620014017e-04 
-1.244604975369e-03 1.395843640125e-05 0.0 
1.395843640125e-05 8.345755076324e-03 0.0 
0.0 0.0 -1.238794375355e-03 
-5.618086059147e-04 1.672788938572e-06 0.0 
1.672788938572e-06 3.593027472553e-03 0.0 
0.0 0.0 -5.600314934590e-04 
-1.295241739404e-03 -3.069672707253e-06 0.0 
-3.069672707253e-06 8.734931616820e-03 0.0 
0.0 0.0 -1.295459716840e-03 
-4.726518995237e-05 -5.619949717465e-06 0.0 
-5.619949717465e-06 2.661811301103e-04 0.0 
0.0 0.0 -5.690003420298e-05 
-1.291194022147e-04 1.153791065658e-05 0.0 
1.153791065658e-05 6.783732708889e-04 0.0 
0.0 0.0 -1.353443326634e-04 
-5.978702258073e-04 2.845759187995e-06 0.0 
2.845759187995e-06 3.846572588730e-03 0.0 
0.0 0.0 -5.969207367497e-04 
-6.645061217588e-04 1.210892726737e-06 0.0 
1.210892726737e-06 4.303380572845e-03 0.0 
0.0 0.0 -6.620222007989e-04 
-5.132181813278e-04 9.130074641215e-06 0.0 
9.130074641215e-06 3.278288147999e-03 0.0 
0.0 0.0 -5.157319100482e-04 
-4.860075133994e-04 2.990028342248e-06 0.0 
2.990028342248e-06 3.124396954495e-03 0.0 
0.0 0.0 -4.917183783407e-04 
-1.011317378684e-03 6.487621353872e-07 0.0 
6.487621353872e-07 6.733904614894e-03 0.0 
0.0 0.0 -1.010552660601e-03 
-1.970258742010e-04 -2.540004491898e-06 0.0 
-2.540004491898e-06 1.065332307301e-03 0.0 
0.0 0.0 -1.995083582888e-04 
-3.139166667020e-04 -2.253789274830e-06 0.0 
-2.253789274830e-06 1.850494599455e-03 0.0 
0.0 0.0 -3.106934562087e-04 
-9.732483420248e-04 2.855591412457e-05 0.0 
2.855591412457e-05 6.524849625929e-03 0.0 
0.0 0.0 -9.796923013958e-04 
-2.492954901946e-04 5.421975703906e-07 0.0 
5.421975703906e-07 1.421478567984e-03 0.0 
0.0 0.0 -2.487700610537e-04 
-1.054075874997e-03 3.591188931398e-06 0.0 
3.591188931398e-06 7.044165573929e-03 0.0 
0.0 0.0 -1.055800198362e-03 
-5.906078188001e-04 -3.257939390685e-06 0.0 
-3.257939390685e-06 3.796619652219e-03 0.0 
0.0 0.0 -5.891999696964e-04 
-7.180999395262e-04 1.178684334054e-07 0.0 
1.178684334054e-07 4.675154024113e-03 0.0 
0.0 0.0 -7.153500975001e-04 
-3.728153202837e-04 5.624284337172e-06 0.0 
5.624284337172e-06 2.280349559801e-03 0.0 
0.0 0.0 -3.721998919698e-04 
-5.103591414383e-04 -9.070033728056e-06 0.0 
-9.070033728056e-06 3.229749929793e-03 0.0 
0.0 0.0 -5.080103017801e-04 
-8.695833745558e-04 -3.060324942152e-06 0.0 
-3.060324942152e-06 5.711345853531e-03 0.0 
0.0 0.0 -8.638580894607e-04 
-8.186088136840e-04 -7.130242765285e-06 0.0 
-7.130242765285e-06 5.325410070609e-03 0.0 
0.0 0.0 -8.086477316853e-04 
-7.808475722582e-04 4.208348100211e-06 0.0 
4.208348100211e-06 5.088284712977e-03 0.0 
0.0 0.0 -7.738406155293e-04 
-6.192436331633e-04 -2.766602775267e-06 0.0 
-2.766602775267e-06 3.995359302638e-03 0.0 
0.0 0.0 -6.178822433291e-04 
-5.311490319336e-04 1.040423507352e-05 0.0 
1.040423507352e-05 3.373878795457e-03 0.0 
0.0 0.0 -5.288330985435e-04 
-4.650941372062e-04 3.123945634320e-06 0.0 
3.123945634320e-06 2.898874049441e-03 0.0 
0.0 0.0 -4.617239487405e-04 
-8.245081772930e-04 8.576273436609e-07 0.0 
8.576273436609e-07 5.414129368543e-03 0.0 
0.0 0.0 -8.213029907542e-04 
-1.107776256753e-03 4.822798209617e-06 0.0 
4.822798209617e-06 7.407183480602e-03 0.0 
0.0 0.0 -1.107475121065e-03 
-1.139123580733e-03 8.505935532769e-06 0.0 
8.505935532769e-06 7.608538315330e-03 0.0 
0.0 0.0 -1.136341617999e-03 
-1.199876040135e-03 -5.928463898284e-08 0.0 
-5.928463898284e-08 8.046533922637e-03 0.0 
0.0 0.0 -1.199268560344e-03 
-1.168168474149e-03 4.195650786351e-06 0.0 
4.195650786351e-06 7.812169121329e-03 0.0 
0.0 0.0 -1.164598082371e-03 
-1.102136352719e-03 2.455120919178e-06 0.0 
2.455120919178e-06 7.358887921961e-03 0.0 
0.0 0.0 -1.100413285504e-03 
-1.128466826395e-03 -6.206260029614e-06 0.0 
-6.206260029614e-06 7.555420673368e-03 0.0 
0.0 0.0 -1.129075729544e-03 
-1.196306272628e-03 1.070052804672e-05 0.0 
1.070052804672e-05 8.004295185816e-03 0.0 
0.0 0.0 -1.193594387005e-03 
-1.153224420722e-03 -4.335162698839e-08 0.0 
-4.335162698839e-08 7.767660328472e-03 0.0 
0.0 0.0 -1.159256375294e-03 
-1.235596637609e-03 -1.164422989244e-05 0.0 
-1.164422989244e-05 8.301735673801e-03 0.0 
0.0 0.0 -1.234286862126e-03 
-1.186419994292e-03 -1.475121185166e-05 0.0 
-1.475121185166e-05 7.963391228364e-03 0.0 
0.0 0.0 -1.187309181180e-03 
-1.120005548931e-03 2.940168057848e-06 0.0 
2.940168057848e-06 7.498615446152e-03 0.0 
0.0 0.0 -1.120864512401e-03 
-1.154875778754e-03 1.588860619796e-06 0.0 
1.588860619796e-06 7.686132635796e-03 0.0 
0.0 0.0 -1.147759711419e-03 
-1.213465252650e-03 -6.064802065588e-06 0.0 
-6.064802065588e-06 8.128624196229e-03 0.0 
0.0 0.0 -1.207767947030e-03 
-1.084932373400e-03 -2.016919157352e-06 0.0 
-2.016919157352e-06 7.235951787837e-03 0.0 
0.0 0.0 -1.082593982084e-03 
-1.254330692315e-03 -4.481726023152e-06 0.0 
-4.481726023152e-06 8.484172233715e-03 0.0 
0.0 0.0 -1.264544343569e-03 
-6.624416308103e-04 2.474610527068e-06 0.0 
2.474610527068e-06 4.298662523578e-03 0.0 
0.0 0.0 -6.621140475474e-04 
-1.785384896329e-04 7.817361308921e-06 0.0 
7.817361308921e-06 9.797346640556e-04 0.0 
0.0 0.0 -1.850918921636e-04 
-1.812548087705e-04 3.762529197936e-05 0.0 
3.762529197936e-05 9.321215546565e-04 0.0 
0.0 0.0 -1.767209935827e-04 
-7.539589003549e-04 1.955358916858e-06 0.0 
1.955358916858e-06 4.924010090496e-03 0.0 
0.0 0.0 -7.509174086159e-04 
-1.304930514548e-03 2.715145444446e-06 0.0 
2.715145444446e-06 8.760435441101e-03 0.0 
0.0 0.0 -1.299806302097e-03 
-1.304281806298e-03 1.236291441075e-07 0.0 
1.236291441075e-07 8.779429009152e-03 0.0 
0.0 0.0 -1.301753673823e-03 
-4.909194379315e-04 2.965411161778e-07 0.0 
2.965411161778e-07 3.101621980483e-03 0.0 
0.0 0.0 -4.895692906686e-04 
-1.302172698065e-03 -1.121402078097e-06 0.0 
-1.121402078097e-06 8.776859442822e-03 0.0 
0.0 0.0 -1.303413959896e-03 
-8.069978020622e-04 -2.494686579793e-06 0.0 
-2.494686579793e-06 5.276076784830e-03 0.0 
0.0 0.0 -8.012154088905e-04 
-3.570511327705e-04 3.379375906477e-06 0.0 
3.379375906477e-06 2.154968683645e-03 0.0 
0.0 0.0 -3.530685601169e-04 
-1.302556100553e-03 -9.155318300837e-06 0.0 
-9.155318300837e-06 8.779430224672e-03 0.0 
0.0 0.0 -1.304286792737e-03 
-1.070880273795e-03 7.212077137724e-06 0.0 
7.212077137724e-06 7.154951258216e-03 0.0 
0.0 0.0 -1.071440646998e-03 
-1.034235002280e-03 -1.284962224456e-06 0.0 
-1.284962224456e-06 6.899499474228e-03 0.0 
0.0 0.0 -1.034857077839e-03 
-1.003722632452e-03 2.735580280874e-06 0.0 
2.735580280874e-06 6.699806917378e-03 0.0 
0.0 0.0 -1.006057961993e-03 
-1.300150248326e-03 -1.392366785442e-05 0.0 
-1.392366785442e-05 8.797329976127e-03 0.0 
0.0 0.0 -1.305867370806e-03 
-9.260727886855e-04 3.160967958324e-07 0.0 
3.160967958324e-07 6.120955206479e-03 0.0 
0.0 0.0 -9.232948652302e-04 
-1.306196713142e-03 -8.296229578561e-06 0.0 
-8.296229578561e-06 8.804073325104e-03 0.0 
0.0 0.0 -1.306016332489e-03 
-9.052728605033e-04 -4.849094365273e-06 0.0 
-4.849094365273e-06 5.990555075409e-03 0.0 
0.0 0.0 -9.039903713831e-04 
-8.761060883680e-04 -1.507187481036e-06 0.0 
-1.507187481036e-06 5.787161046779e-03 0.0 
0.0 0.0 -8.747633066757e-04 
-8.116067085345e-04 -5.312091982633e-07 0.0 
-5.312091982633e-07 5.336659872116e-03 0.0 
0.0 0.0 -8.101682821885e-04 
-1.090435695547e-03 -5.471004820640e-06 0.0 
-5.471004820640e-06 7.297274492399e-03 0.0 
0.0 0.0 -1.092245366321e-03 
-1.304752605298e-03 5.119868144783e-06 0.0 
5.119868144783e-06 8.772978853590e-03 0.0 
0.0 0.0 -1.302677999426e-03 
-1.251945645214e-03 -2.706015879676e-06 0.0 
-2.706015879676e-06 8.407016214184e-03 0.0 
0.0 0.0 -1.248400714067e-03 
-1.246920299523e-03 -1.300681603293e-05 0.0 
-1.300681603293e-05 8.402409073512e-03 0.0 
0.0 0.0 -1.248426544684e-03 
-1.200536970879e-03 5.026882822924e-07 0.0 
5.026882822924e-07 8.002917905198e-03 0.0 
0.0 0.0 -1.189114855724e-03 
-1.300430795451e-03 -3.697458701881e-07 0.0 
-3.697458701881e-07 8.777742711435e-03 0.0 
0.0 0.0 -1.303398793257e-03 
-1.305040401458e-03 -2.477912411246e-06 0.0 
-2.477912411246e-06 8.792831145886e-03 0.0 
0.0 0.0 -1.306665994082e-03 
-1.309321026579e-03 -3.535422289685e-06 0.0 
-3.535422289685e-06 8.803291043654e-03 0.0 
0.0 0.0 -1.308500709484e-03 
-4.563282024571e-04 7.998262252195e-06 0.0 
7.998262252195e-06 2.871636865217e-03 0.0 
0.0 0.0 -4.564773689951e-04 
-4.946429183726e-04 2.495592359639e-06 0.0 
2.495592359639e-06 3.130328514227e-03 0.0 
0.0 0.0 -4.934415926888e-04 
-5.584596756046e-04 8.667542274345e-07 0.0 
8.667542274345e-07 3.577137698620e-03 0.0 
0.0 0.0 -5.576035839405e-04 
-5.302623041630e-04 -1.383760277086e-07 0.0 
-1.383760277086e-07 3.381956619872e-03 0.0 
0.0 0.0 -5.298816096007e-04 
-4.659671190879e-04 -4.163529231500e-07 0.0 
-4.163529231500e-07 2.931155601344e-03 0.0 
0.0 0.0 -4.652367627802e-04 
-5.016537237261e-04 2.063261409927e-06 0.0 
2.063261409927e-06 3.184734037305e-03 0.0 
0.0 0.0 -5.016361848483e-04 
-5.661735479295e-04 -1.745642799837e-06 0.0 
-1.745642799837e-06 3.632429034736e-03 0.0 
0.0 0.0 -5.657331850765e-04 
-4.736975024202e-04 4.166873871235e-06 0.0 
4.166873871235e-06 2.986059562016e-03 0.0 
0.0 0.0 -4.731795164401e-04 
-1.136859235010e-03 -3.377117996041e-07 0.0 
-3.377117996041e-07 7.623291641590e-03 0.0 
0.0 0.0 -1.138512926666e-03 
-1.305247072706e-03 8.619226715452e-06 0.0 
8.619226715452e-06 8.792398553622e-03 0.0 
0.0 0.0 -1.305779161548e-03 
-9.003036646772e-04 5.242872872387e-08 0.0 
5.242872872387e-08 5.967493708530e-03 0.0 
0.0 0.0 -9.007942405787e-04 
-8.714438606503e-04 -2.881495108122e-08 0.0 
-2.881495108122e-08 5.762779516703e-03 0.0 
0.0 0.0 -8.713600568839e-04 
-8.060291522058e-04 2.568870968060e-06 0.0 
2.568870968060e-06 5.307363937555e-03 0.0 
0.0 0.0 -8.059887332522e-04 
-6.767854044607e-04 -2.452778344729e-06 0.0 
-2.452778344729e-06 4.414816973838e-03 0.0 
0.0 0.0 -6.781883600425e-04 
-7.139648610369e-04 -1.142183076086e-06 0.0 
-1.142183076086e-06 4.673969170683e-03 0.0 
0.0 0.0 -7.153987595530e-04 
-7.802120795526e-04 -1.536270118745e-06 0.0 
-1.536270118745e-06 5.133033430624e-03 0.0 
0.0 0.0 -7.812419408864e-04 
-6.404629301344e-04 -4.612028746678e-06 0.0 
-4.612028746678e-06 4.156213633446e-03 0.0 
0.0 0.0 -6.407943132712e-04 
-9.874131908799e-04 -6.712457213217e-07 0.0 
-6.712457213217e-07 6.570776206516e-03 0.0 
0.0 0.0 -9.876394229526e-04 
-1.303361853095e-03 -8.460317239526e-06 0.0 
-8.460317239526e-06 8.788997264875e-03 0.0 
0.0 0.0 -1.305003056577e-03 
-8.872565026320e-04 -1.178797543573e-06 0.0 
-1.178797543573e-06 5.871190587017e-03 0.0 
0.0 0.0 -8.871663004355e-04 
-6.846436599198e-04 7.853769409709e-07 0.0 
7.853769409709e-07 4.472455721995e-03 0.0 
0.0 0.0 -6.865966444657e-04 
-7.539028914794e-04 -4.959050989123e-06 0.0 
-4.959050989123e-06 4.922681506756e-03 0.0 
0.0 0.0 -7.516786372745e-04 
-8.065421024266e-04 1.420005202741e-05 0.0 
1.420005202741e-05 5.322326400601e-03 0.0 
0.0 0.0 -8.094822736869e-04 
-8.086043951130e-04 -1.965516725366e-05 0.0 
-1.965516725366e-05 5.337498560082e-03 0.0 
0.0 0.0 -8.097394517040e-04 
-8.597670883848e-04 -1.890965562487e-05 0.0 
-1.890965562487e-05 5.752558822544e-03 0.0 
0.0 0.0 -8.733121467894e-04 
-8.092120706639e-04 -2.844643670808e-05 0.0 
-2.844643670808e-05 5.361887279047e-03 0.0 
0.0 0.0 -8.155917408702e-04 
-8.008122296240e-04 -3.960466263451e-06 0.0 
-3.960466263451e-06 5.274822743462e-03 0.0 
0.0 0.0 -8.015266587451e-04 
-8.309313177437e-04 -3.374628280102e-06 0.0 
-3.374628280102e-06 5.475720121039e-03 0.0 
0.0 0.0 -8.302790088839e-04 
-7.940624788884e-04 8.919203165534e-07 0.0 
8.919203165534e-07 5.224020544311e-03 0.0 
0.0 0.0 -7.937858958383e-04 
-8.582675862212e-04 -3.216784494388e-06 0.0 
-3.216784494388e-06 5.673950666655e-03 0.0 
0.0 0.0 -8.590670690980e-04 
-8.174868470622e-04 -1.134099850245e-05 0.0 
-1.134099850245e-05 5.408679153658e-03 0.0 
0.0 0.0 -8.213578559547e-04 
-7.534944197864e-04 -1.238974191223e-05 0.0 
-1.238974191223e-05 4.986891128186e-03 0.0 
0.0 0.0 -7.608744282309e-04 
-8.810221771506e-04 -8.901330273928e-06 0.0 
-8.901330273928e-06 5.862708610279e-03 0.0 
0.0 0.0 -8.866101721103e-04 
-8.418977428013e-04 7.461726785173e-06 0.0 
7.461726785173e-06 5.581554122099e-03 0.0 
0.0 0.0 -8.437388122980e-04 
-7.467365547974e-04 -1.323074519904e-05 0.0 
-1.323074519904e-05 4.916042254111e-03 0.0 
0.0 0.0 -7.509531518293e-04 
-6.281984343026e-05 -8.116789961930e-06 0.0 
-8.116789961930e-06 3.039228182762e-04 0.0 
0.0 0.0 -5.875963060191e-05 
-1.355333239518e-04 1.033404853999e-05 0.0 
1.033404853999e-05 6.720001517331e-04 0.0 
0.0 0.0 -1.336704791874e-04 
-1.282422711095e-04 -8.546555161091e-06 0.0 
-8.546555161091e-06 6.602474725937e-04 0.0 
0.0 0.0 -1.318084371690e-04 
-1.928083139696e-04 -4.221005670817e-06 0.0 
-4.221005670817e-06 1.041957248050e-03 0.0 
0.0 0.0 -1.954650243430e-04 
-2.029746956204e-04 1.944205005125e-05 0.0 
1.944205005125e-05 1.074330231207e-03 0.0 
0.0 0.0 -1.996745964068e-04 
-2.516532851573e-04 2.529704688843e-06 0.0 
2.529704688843e-06 1.468491691138e-03 0.0 
0.0 0.0 -2.586654344069e-04 
-2.430663838691e-04 -2.535368885229e-05 0.0 
-2.535368885229e-05 1.426461466079e-03 0.0 
0.0 0.0 -2.494736616194e-04 
-1.355920943443e-04 -1.133959606156e-05 0.0 
-1.133959606156e-05 6.743890404386e-04 0.0 
0.0 0.0 -1.329747880817e-04 
-5.916993316135e-05 -2.320129164534e-06 0.0 
-2.320129164534e-06 2.981065881978e-04 0.0 
0.0 0.0 -5.794854899120e-05 
-1.308876834567e-04 2.474427720982e-06 0.0 
2.474427720982e-06 6.544145800914e-04 0.0 
0.0 0.0 -1.315689628225e-04 
-5.700489183936e-05 1.676517162921e-06 0.0 
1.676517162921e-06 2.920832994483e-04 0.0 
0.0 0.0 -5.719792189481e-05 
-1.267870388794e-04 3.184293719907e-07 0.0 
3.184293719907e-07 6.426508649646e-04 0.0 
0.0 0.0 -1.299421249981e-04 
-1.994525793344e-04 4.316150581238e-06 0.0 
4.316150581238e-06 1.086316860704e-03 0.0 
0.0 0.0 -2.038865569970e-04 
-2.958463202673e-04 -2.325840138200e-07 0.0 
-2.325840138200e-07 1.726726422813e-03 0.0 
0.0 0.0 -2.925150634556e-04 
-1.301927001702e-03 1.803371535176e-05 0.0 
1.803371535176e-05 8.724914391627e-03 0.0 
0.0 0.0 -1.294874803588e-03 
-6.623633125061e-04 4.679424212470e-06 0.0 
4.679424212470e-06 4.281040174428e-03 0.0 
0.0 0.0 -6.595503360071e-04 
-6.354861751500e-04 1.876466608711e-05 0.0 
1.876466608711e-05 4.076331016795e-03 0.0 
0.0 0.0 -6.264797819744e-04 
-5.600446600074e-04 1.786449294601e-05 0.0 
1.786449294601e-05 3.606391450714e-03 0.0 
0.0 0.0 -5.641716646261e-04 
-6.018396249447e-04 -5.225124560815e-06 0.0 
-5.225124560815e-06 3.865969919156e-03 0.0 
0.0 0.0 -5.974662984275e-04 
-6.971605018600e-04 2.093612217768e-05 0.0 
2.093612217768e-05 4.459125829408e-03 0.0 
0.0 0.0 -6.865721209800e-04 
-5.253766316691e-04 1.379974747341e-05 0.0 
1.379974747341e-05 3.365120840458e-03 0.0 
0.0 0.0 -5.286920563404e-04 
-4.997160733495e-04 2.272416899081e-05 0.0 
2.272416899081e-05 3.215754431319e-03 0.0 
0.0 0.0 -5.038291843518e-04 
-6.458044435335e-05 -2.268465343287e-06 0.0 
-2.268465343287e-06 3.061057402813e-04 0.0 
0.0 0.0 -5.826474687103e-05 
-1.365107396446e-04 -1.511681688150e-05 0.0 
-1.511681688150e-05 6.671209083265e-04 0.0 
0.0 0.0 -1.338235891287e-04 
-1.329944671514e-04 1.728312419841e-05 0.0 
1.728312419841e-05 6.296869018316e-04 0.0 
0.0 0.0 -1.329549719063e-04 
-2.100970973320e-04 9.757108246001e-06 0.0 
9.757108246001e-06 1.064616598962e-03 0.0 
0.0 0.0 -1.976702944042e-04 
-1.907673612492e-04 -8.037251829827e-06 0.0 
-8.037251829827e-06 1.054607848416e-03 0.0 
0.0 0.0 -1.960684762570e-04 
-1.291399276806e-04 5.589927262183e-07 0.0 
5.589927262183e-07 6.717799826529e-04 0.0 
0.0 0.0 -1.329856363161e-04 
-1.332115243410e-04 1.116366171220e-05 0.0 
1.116366171220e-05 6.698553752902e-04 0.0 
0.0 0.0 -1.328726424774e-04 
-6.123018265424e-05 -2.226991271334e-06 0.0 
-2.226991271334e-06 2.966407899736e-04 0.0 
0.0 0.0 -5.786540529839e-05 
-1.318562850821e-04 -3.804233771788e-06 0.0 
-3.804233771788e-06 6.638255964620e-04 0.0 
0.0 0.0 -1.308611123410e-04 
-1.930153503724e-04 1.076682971486e-05 0.0 
1.076682971486e-05 1.064256298509e-03 0.0 
0.0 0.0 -1.994574706984e-04 
-5.202007941151e-05 -5.137534308526e-06 0.0 
-5.137534308526e-06 2.737802621695e-04 0.0 
0.0 0.0 -5.534513975842e-05 
-1.060096701056e-03 -2.854203109810e-05 0.0 
-2.854203109810e-05 7.080511066382e-03 0.0 
0.0 0.0 -1.060427308513e-03 
-1.101245431622e-03 -2.265554676241e-05 0.0 
-2.265554676241e-05 7.326835296988e-03 0.0 
0.0 0.0 -1.097082233180e-03 
-1.303771853134e-03 -3.955883839532e-06 0.0 
-3.955883839532e-06 8.773017437093e-03 0.0 
0.0 0.0 -1.300897016293e-03 
-7.525731418622e-04 -2.553654618204e-05 0.0 
-2.553654618204e-05 4.964909214712e-03 0.0 
0.0 0.0 -7.584009903415e-04 
-5.671099606197e-05 2.025225744353e-06 0.0 
2.025225744353e-06 2.971089711715e-04 0.0 
0.0 0.0 -5.884959645353e-05 
-1.296052575560e-03 -1.034030830046e-06 0.0 
-1.034030830046e-06 8.715505616406e-03 0.0 
0.0 0.0 -1.292107529982e-03 
-1.300241625373e-03 -1.196764903617e-05 0.0 
-1.196764903617e-05 8.782711832524e-03 0.0 
0.0 0.0 -1.303172775453e-03 
-1.297505069925e-03 9.380535181792e-06 0.0 
9.380535181792e-06 8.784349503541e-03 0.0 
0.0 0.0 -1.304823151597e-03 
-1.190737660973e-03 8.854859890109e-06 0.0 
8.854859890109e-06 7.990764728896e-03 0.0 
0.0 0.0 -1.191058493115e-03 
-1.217720710694e-03 3.907545697899e-06 0.0 
3.907545697899e-06 8.218811643119e-03 0.0 
0.0 0.0 -1.224322658093e-03 
-1.301588133362e-03 5.941663257033e-06 0.0 
5.941663257033e-06 8.722214772172e-03 0.0 
0.0 0.0 -1.294569364341e-03 
-4.491538872292e-04 3.425462149105e-06 0.0 
3.425462149105e-06 2.829494640627e-03 0.0 
0.0 0.0 -4.512809064328e-04 
-1.219121534789e-03 1.093707084892e-05 0.0 
1.093707084892e-05 8.264877250953e-03 0.0 
0.0 0.0 -1.225740639889e-03 
-1.181600644536e-03 2.602984545223e-06 0.0 
2.602984545223e-06 7.898254142128e-03 0.0 
0.0 0.0 -1.178628832109e-03 
-3.271245572877e-04 -7.559619564851e-07 0.0 
-7.559619564851e-07 1.969290585494e-03 0.0 
0.0 0.0 -3.268383546744e-04 
-4.353641825211e-04 2.390544681031e-06 0.0 
2.390544681031e-06 2.735090082528e-03 0.0 
0.0 0.0 -4.373623857420e-04 
-9.887113880157e-04 2.647202920691e-06 0.0 
2.647202920691e-06 6.590846789922e-03 0.0 
0.0 0.0 -9.899674718230e-04 
-9.119629022756e-04 -1.217041315454e-06 0.0 
-1.217041315454e-06 6.048161892543e-03 0.0 
0.0 0.0 -9.123979313600e-04 
-1.130689760044e-03 -2.404858458419e-06 0.0 
-2.404858458419e-06 7.563292742476e-03 0.0 
0.0 0.0 -1.130390451587e-03 
-9.324694232768e-04 5.707369417901e-08 0.0 
5.707369417901e-08 6.185987888161e-03 0.0 
0.0 0.0 -9.322225209316e-04 
-1.071273223037e-03 -3.400166334340e-06 0.0 
-3.400166334340e-06 7.166794807332e-03 0.0 
0.0 0.0 -1.073123358692e-03 
-1.246132006402e-03 2.306789458163e-05 0.0 
2.306789458163e-05 8.374889379432e-03 0.0 
0.0 0.0 -1.244129926109e-03 
-2.805652380377e-04 -4.717906580370e-06 0.0 
-4.717906580370e-06 1.732830044642e-03 0.0 
0.0 0.0 -2.939217362394e-04 
-9.366102056304e-04 6.334636788504e-06 0.0 
6.334636788504e-06 6.210934504197e-03 0.0 
0.0 0.0 -9.364826870394e-04 
-9.120035044512e-04 6.559904903544e-06 0.0 
6.559904903544e-06 6.042070421320e-03 0.0 
0.0 0.0 -9.130351872960e-04 
-1.076387052139e-03 -3.360138210610e-06 0.0 
-3.360138210610e-06 7.184148688862e-03 0.0 
0.0 0.0 -1.075939795031e-03 
-4.728102684627e-04 -4.847791376242e-06 0.0 
-4.847791376242e-06 2.971951481931e-03 0.0 
0.0 0.0 -4.709579147287e-04 
-7.280869989337e-04 -1.354131871897e-05 0.0 
-1.354131871897e-05 4.780585004203e-03 0.0 
0.0 0.0 -7.304257169629e-04 
-3.156217836785e-04 -5.089469505304e-06 0.0 
-5.089469505304e-06 1.850033331779e-03 0.0 
0.0 0.0 -3.104331955072e-04 
-1.248490279357e-03 4.323593742207e-06 0.0 
4.323593742207e-06 8.417241528006e-03 0.0 
0.0 0.0 -1.251461238623e-03 
-7.622164195474e-04 2.744443297139e-08 0.0 
2.744443297139e-08 4.979735740211e-03 0.0 
0.0 0.0 -7.590395520047e-04 
-7.692339302932e-04 1.865673827941e-06 0.0 
1.865673827941e-06 5.052106796517e-03 0.0 
0.0 0.0 -7.694287042311e-04 
-6.089514047186e-04 -2.827610219258e-06 0.0 
-2.827610219258e-06 3.952389816829e-03 0.0 
0.0 0.0 -6.120242822960e-04 
-4.863994982411e-04 4.620884363832e-06 0.0 
4.620884363832e-06 3.095071946727e-03 0.0 
0.0 0.0 -4.894362539292e-04 
-4.085285658609e-04 2.731393984732e-06 0.0 
2.731393984732e-06 2.545768838986e-03 0.0 
0.0 0.0 -4.100935076628e-04 
-6.992575820324e-04 4.870514854637e-06 0.0 
4.870514854637e-06 4.559959934010e-03 0.0 
0.0 0.0 -6.990242139688e-04 
-7.223263303115e-04 1.302313524923e-06 0.0 
1.302313524923e-06 4.731940689569e-03 0.0 
0.0 0.0 -7.237531747479e-04 
-1.024699739881e-03 1.653915686908e-06 0.0 
1.653915686908e-06 6.828723699735e-03 0.0 
0.0 0.0 -1.024340108609e-03 
-1.114669738223e-03 -2.759101931811e-06 0.0 
-2.759101931811e-06 7.438940293733e-03 0.0 
0.0 0.0 -1.112552678551e-03 
-7.837510010112e-05 1.769113863607e-05 0.0 
1.769113863607e-05 3.475076993490e-04 0.0 
0.0 0.0 -7.176178390651e-05 
-1.061119640742e-03 3.173187948495e-06 0.0 
3.173187948495e-06 7.087064478518e-03 0.0 
0.0 0.0 -1.061672265243e-03 
-8.547259828446e-04 -2.557127369416e-07 0.0 
-2.557127369416e-07 5.648936137093e-03 0.0 
0.0 0.0 -8.552253422611e-04 
-9.623974161653e-04 3.311768495871e-06 0.0 
3.311768495871e-06 6.381924133008e-03 0.0 
0.0 0.0 -9.599091010803e-04 
-1.065648191468e-03 -5.923271574245e-06 0.0 
-5.923271574245e-06 7.096345784584e-03 0.0 
0.0 0.0 -1.062640036239e-03 
-2.783998705011e-04 -2.298480854765e-06 0.0 
-2.298480854765e-06 1.715267207971e-03 0.0 
0.0 0.0 -2.909097700217e-04 
-1.100348444179e-03 -1.047118262863e-06 0.0 
-1.047118262863e-06 7.347575470432e-03 0.0 
0.0 0.0 -1.098747615487e-03 
-1.217488030174e-03 6.848117353235e-06 0.0 
6.848117353235e-06 8.139341092548e-03 0.0 
0.0 0.0 -1.212453547082e-03 
-8.838417845426e-04 -2.547521654431e-05 0.0 
-2.547521654431e-05 5.856172789859e-03 0.0 
0.0 0.0 -8.875094802107e-04 
-2.462642296247e-04 -5.029644419068e-06 0.0 
-5.029644419068e-06 1.395111957816e-03 0.0 
0.0 0.0 -2.442495876194e-04 
-8.759046619095e-04 5.034941322772e-06 0.0 
5.034941322772e-06 5.740576630140e-03 0.0 
0.0 0.0 -8.692469099983e-04 
-1.203793389362e-03 4.534763565553e-06 0.0 
4.534763565553e-06 8.059936526887e-03 0.0 
0.0 0.0 -1.202705989510e-03 
-1.079080060508e-03 -5.136331410959e-07 0.0 
-5.136331410959e-07 7.205755043523e-03 0.0 
0.0 0.0 -1.078220320736e-03 
-4.314372885713e-04 -1.108621221044e-05 0.0 
-1.108621221044e-05 2.708353444584e-03 0.0 
0.0 0.0 -4.336020471383e-04 
-7.948364969142e-04 -2.495821117445e-06 0.0 
-2.495821117445e-06 5.224923007330e-03 0.0 
0.0 0.0 -7.943514531093e-04 
-7.442299034792e-04 7.080946299362e-07 0.0 
7.080946299362e-07 4.865637424934e-03 0.0 
0.0 0.0 -7.428158978947e-04 
-6.789224573102e-04 -9.062719812238e-06 0.0 
-9.062719812238e-06 4.471649261705e-03 0.0 
0.0 0.0 -6.865907729104e-04 
-1.214586438871e-03 8.024689911949e-06 0.0 
8.024689911949e-06 8.094834481891e-03 0.0 
0.0 0.0 -1.206557591227e-03 
-8.183792108392e-04 -4.169826119585e-07 0.0 
-4.169826119585e-07 5.384604412960e-03 0.0 
0.0 0.0 -8.172945450070e-04 
-1.123489439230e-03 6.695635103151e-06 0.0 
6.695635103151e-06 7.497291039553e-03 0.0 
0.0 0.0 -1.120054252910e-03 
-9.239887439884e-04 -3.012520915632e-06 0.0 
-3.012520915632e-06 6.128004255690e-03 0.0 
0.0 0.0 -9.240809108919e-04 
-4.625644487372e-04 -4.132620430702e-06 0.0 
-4.132620430702e-06 2.914638302916e-03 0.0 
0.0 0.0 -4.629711029823e-04 
-1.121328625940e-03 -6.182944165265e-06 0.0 
-6.182944165265e-06 7.491651595506e-03 0.0 
0.0 0.0 -1.118919378802e-03 
-7.755037056980e-04 -1.629710765725e-06 0.0 
-1.629710765725e-06 5.087191610180e-03 0.0 
0.0 0.0 -7.743986277066e-04 
-1.165062879850e-03 -3.169874330988e-06 0.0 
-3.169874330988e-06 7.809274989077e-03 0.0 
0.0 0.0 -1.164614768972e-03 
-1.031438669585e-03 -5.272017896759e-06 0.0 
-5.272017896759e-06 6.875819044251e-03 0.0 
0.0 0.0 -1.031533309622e-03 
-6.383681651354e-04 -1.646563539617e-06 0.0 
-1.646563539617e-06 4.132113027582e-03 0.0 
0.0 0.0 -6.375205594687e-04 
-1.120494149395e-03 -5.362450288203e-06 0.0 
-5.362450288203e-06 7.500323563236e-03 0.0 
0.0 0.0 -1.121170216299e-03 
-7.780649319143e-04 1.815637845543e-06 0.0 
1.815637845543e-06 5.106477756252e-03 0.0 
0.0 0.0 -7.773091661689e-04 
-1.101658644117e-03 9.961254279952e-07 0.0 
9.961254279952e-07 7.356355521752e-03 0.0 
0.0 0.0 -1.099429584637e-03 
-7.271456150642e-04 1.682914491919e-06 0.0 
1.682914491919e-06 4.735785920808e-03 0.0 
0.0 0.0 -7.240542973723e-04 
-9.053111554421e-04 -2.304698340662e-06 0.0 
-2.304698340662e-06 5.989601996014e-03 0.0 
0.0 0.0 -9.041109700986e-04 
-9.863008524358e-04 -3.464876425113e-06 0.0 
-3.464876425113e-06 6.537147458197e-03 0.0 
0.0 0.0 -9.824247929831e-04 
-8.612973840953e-04 -1.473763680946e-07 0.0 
-1.473763680946e-07 5.687311619382e-03 0.0 
0.0 0.0 -8.608216255090e-04 
-9.529955923155e-04 1.728497531751e-05 0.0 
1.728497531751e-05 6.336375010902e-03 0.0 
0.0 0.0 -9.534332399069e-04 
-1.092284604608e-03 2.589702392293e-06 0.0 
2.589702392293e-06 7.290468944473e-03 0.0 
0.0 0.0 -1.090315851396e-03 
-3.119597294079e-04 5.757369509236e-07 0.0 
5.757369509236e-07 1.828570008309e-03 0.0 
0.0 0.0 -3.071334217218e-04 
-5.718786607335e-04 -4.107371137153e-07 0.0 
-4.107371137153e-07 3.675898340669e-03 0.0 
0.0 0.0 -5.719042557127e-04 
-9.488327861295e-04 -5.202841950027e-06 0.0 
-5.202841950027e-06 6.331676782321e-03 0.0 
0.0 0.0 -9.536514739466e-04 
-1.157212024015e-03 -6.515732433124e-06 0.0 
-6.515732433124e-06 7.701144359915e-03 0.0 
0.0 0.0 -1.150585697120e-03 
-1.224312444037e-03 6.690841738719e-06 0.0 
6.690841738719e-06 8.269264616708e-03 0.0 
0.0 0.0 -1.229329624135e-03 
-6.820956806615e-04 3.615386019446e-06 0.0 
3.615386019446e-06 4.429302489243e-03 0.0 
0.0 0.0 -6.801182747099e-04 
-1.081664045678e-03 -5.547367653078e-06 0.0 
-5.547367653078e-06 7.227268260236e-03 0.0 
0.0 0.0 -1.081576975854e-03 
-1.187584404498e-03 2.370146928347e-06 0.0 
2.370146928347e-06 7.946791552093e-03 0.0 
0.0 0.0 -1.185355684152e-03 
-7.511569300737e-04 3.681739321963e-07 0.0 
3.681739321963e-07 4.931952546785e-03 0.0 
0.0 0.0 -7.524367508395e-04 
-3.356805227239e-04 3.379744479997e-06 0.0 
3.379744479997e-06 2.005119320146e-03 0.0 
0.0 0.0 -3.333104686742e-04 
-2.618377986137e-04 -2.555233257220e-06 0.0 
-2.555233257220e-06 1.542022096797e-03 0.0 
0.0 0.0 -2.654833071040e-04 
-5.104550227812e-04 2.453007206903e-06 0.0 
2.453007206903e-06 3.238650363468e-03 0.0 
0.0 0.0 -5.092532232582e-04 
-7.832353398933e-04 -9.887778153971e-09 0.0 
-9.887778153971e-09 5.137653853930e-03 0.0 
0.0 0.0 -7.817448632792e-04 
-8.173389799679e-04 -1.106611203689e-06 0.0 
-1.106611203689e-06 5.390375532825e-03 0.0 
0.0 0.0 -8.181699076277e-04 
-1.246124432281e-03 8.592622963370e-06 0.0 
8.592622963370e-06 8.369587963902e-03 0.0 
0.0 0.0 -1.242275372262e-03 
-1.107849420052e-03 -3.778759467000e-06 0.0 
-3.778759467000e-06 7.425444910215e-03 0.0 
0.0 0.0 -1.110186454522e-03 
-1.040708302916e-03 -6.884984211962e-06 0.0 
-6.884984211962e-06 6.941970815521e-03 0.0 
0.0 0.0 -1.040857148505e-03 
-1.527209700993e-04 7.546329121728e-06 0.0 
7.546329121728e-06 7.439800217049e-04 0.0 
0.0 0.0 -1.519369657486e-04 
-7.102565865705e-04 9.145208254839e-06 0.0 
9.145208254839e-06 4.653234839291e-03 0.0 
0.0 0.0 -7.126371066839e-04 
-1.135597595821e-03 -4.213475059661e-06 0.0 
-4.213475059661e-06 7.626732622695e-03 0.0 
0.0 0.0 -1.139074001596e-03 
-8.226822624900e-04 -1.510040807146e-06 0.0 
-1.510040807146e-06 5.420363658064e-03 0.0 
0.0 0.0 -8.223634564932e-04 
-1.130518051871e-03 1.404153544755e-06 0.0 
1.404153544755e-06 7.542933512680e-03 0.0 
0.0 0.0 -1.126725356868e-03 
-7.730615027956e-04 -9.222257900533e-07 0.0 
-9.222257900533e-07 5.135473060459e-03 0.0 
0.0 0.0 -7.817916451012e-04 
-1.247411460160e-03 -9.243273431591e-06 0.0 
-9.243273431591e-06 8.408376939559e-03 0.0 
0.0 0.0 -1.249754184115e-03 
-5.771690213087e-04 1.052821776229e-05 0.0 
1.052821776229e-05 3.703652171226e-03 0.0 
0.0 0.0 -5.757576642514e-04 
-1.170100609579e-03 -4.592953287663e-06 0.0 
-4.592953287663e-06 7.841109684677e-03 0.0 
0.0 0.0 -1.168790087466e-03 
-1.048740829087e-03 7.093154405142e-06 0.0 
7.093154405142e-06 6.993148920806e-03 0.0 
0.0 0.0 -1.047452346298e-03 
-5.261911269690e-04 1.909166490892e-06 0.0 
1.909166490892e-06 3.348024093927e-03 0.0 
0.0 0.0 -5.248669331578e-04 
-7.497340550746e-04 3.779029275090e-06 0.0 
3.779029275090e-06 4.910648048132e-03 0.0 
0.0 0.0 -7.498068730476e-04 
-1.245763281564e-03 6.672330238115e-06 0.0 
6.672330238115e-06 8.371772027766e-03 0.0 
0.0 0.0 -1.243807156011e-03 
-1.117703748533e-03 2.194090469607e-06 0.0 
2.194090469607e-06 7.455079503703e-03 0.0 
0.0 0.0 -1.114542488500e-03 
-9.240113812816e-04 -1.198482106943e-06 0.0 
-1.198482106943e-06 6.127698402996e-03 0.0 
0.0 0.0 -9.240346875991e-04 
-7.861216138726e-04 -9.318371199111e-07 0.0 
-9.318371199111e-07 5.164682558518e-03 0.0 
0.0 0.0 -7.856950878877e-04 
-6.177367695525e-04 -9.517786211573e-06 0.0 
-9.517786211573e-06 3.998918706787e-03 0.0 
0.0 0.0 -6.191377506773e-04 
-8.459389819467e-04 -1.995047945311e-06 0.0 
-1.995047945311e-06 5.590510800112e-03 0.0 
0.0 0.0 -8.467704336814e-04 
-9.417404110639e-04 -4.713677469948e-06 0.0 
-4.713677469948e-06 6.237570578551e-03 0.0 
0.0 0.0 -9.395224721591e-04 
-1.301810218994e-03 1.765430740839e-06 0.0 
1.765430740839e-06 8.802491938361e-03 0.0 
0.0 0.0 -1.306889097489e-03 
-1.157353199815e-03 -3.220404905638e-06 0.0 
-3.220404905638e-06 7.685679656852e-03 0.0 
0.0 0.0 -1.148622835147e-03 
-9.680073786691e-04 -7.171826150583e-06 0.0 
-7.171826150583e-06 6.444265355765e-03 0.0 
0.0 0.0 -9.696660045843e-04 
-8.086257517038e-04 -2.588621595211e-06 0.0 
-2.588621595211e-06 5.331381971752e-03 0.0 
0.0 0.0 -8.097439408559e-04 
-9.758814597954e-04 -1.266881133521e-06 0.0 
-1.266881133521e-06 6.485358460050e-03 0.0 
0.0 0.0 -9.749840279683e-04 
-1.830817571470e-04 -6.180925807537e-06 0.0 
-6.180925807537e-06 1.047535156777e-03 0.0 
0.0 0.0 -1.970089232863e-04 
-6.448165884168e-04 4.844410112103e-06 0.0 
4.844410112103e-06 4.184395435775e-03 0.0 
0.0 0.0 -6.447622526173e-04 
-8.380376970069e-04 -3.326700526506e-06 0.0 
-3.326700526506e-06 5.530905952602e-03 0.0 
0.0 0.0 -8.382314227178e-04 
-5.380831595537e-04 5.638960694939e-07 0.0 
5.638960694939e-07 3.435054469080e-03 0.0 
0.0 0.0 -5.374563060555e-04 
-8.145911171393e-04 -5.272270294572e-07 0.0 
-5.272270294572e-07 5.360444702331e-03 0.0 
0.0 0.0 -8.136389561866e-04 
-1.227174802196e-03 1.276784792667e-05 0.0 
1.276784792667e-05 8.302917635780e-03 0.0 
0.0 0.0 -1.234277959947e-03 
-8.676280294557e-04 -2.040186177139e-06 0.0 
-2.040186177139e-06 5.731120870230e-03 0.0 
0.0 0.0 -8.668853676281e-04 
-6.021329393958e-04 -1.386838022325e-06 0.0 
-1.386838022325e-06 3.881394728410e-03 0.0 
0.0 0.0 -6.015264011954e-04 
-8.964491756309e-04 6.553805878161e-07 0.0 
6.553805878161e-07 5.929532426753e-03 0.0 
0.0 0.0 -8.955981815692e-04 
-5.512424861372e-04 -5.409275769173e-06 0.0 
-5.409275769173e-06 3.527258760375e-03 0.0 
0.0 0.0 -5.519888345566e-04 
-9.985595773763e-04 -1.015463228060e-05 0.0 
-1.015463228060e-05 6.646851321069e-03 0.0 
0.0 0.0 -9.983267706061e-04 
-9.215064714085e-04 1.407126120723e-07 0.0 
1.407126120723e-07 6.123536504565e-03 0.0 
0.0 0.0 -9.243533921793e-04 
-1.004433427129e-03 -6.175544373061e-06 0.0 
-6.175544373061e-06 6.679704057184e-03 0.0 
0.0 0.0 -1.003151257071e-03 
-2.014979142818e-04 -1.982424414306e-05 0.0 
-1.982424414306e-05 1.118628598720e-03 0.0 
0.0 0.0 -2.040322045631e-04 
-9.524490800155e-04 -1.599154771266e-06 0.0 
-1.599154771266e-06 6.321577882661e-03 0.0 
0.0 0.0 -9.517466134248e-04 
-1.151323095747e-03 8.970357597703e-06 0.0 
8.970357597703e-06 7.737810625971e-03 0.0 
0.0 0.0 -1.155419075730e-03 
-5.642242598448e-04 4.052530886118e-06 0.0 
4.052530886118e-06 3.629354201895e-03 0.0 
0.0 0.0 -5.654343806685e-04 
-8.430123869833e-04 1.789712430457e-06 0.0 
1.789712430457e-06 5.558821852331e-03 0.0 
0.0 0.0 -8.420324705410e-04 
-1.064235786948e-03 -6.087517053101e-06 0.0 
-6.087517053101e-06 7.102031703649e-03 0.0 
0.0 0.0 -1.063653581392e-03 
-4.868392782288e-04 -2.122282903202e-05 0.0 
-2.122282903202e-05 3.049667270729e-03 0.0 
0.0 0.0 -4.839843007303e-04 
-9.081670479201e-04 2.415755652881e-07 0.0 
2.415755652881e-07 6.014517114267e-03 0.0 
0.0 0.0 -9.074658271045e-04 
-1.068096740286e-03 -5.575043742402e-06 0.0 
-5.575043742402e-06 7.125147388201e-03 0.0 
0.0 0.0 -1.067288052377e-03 
-9.808487270250e-04 4.928616331384e-06 0.0 
4.928616331384e-06 6.520553626334e-03 0.0 
0.0 0.0 -9.801762873724e-04 
-8.470889807538e-04 7.350311736951e-07 0.0 
7.350311736951e-07 5.583629027931e-03 0.0 
0.0 0.0 -8.455731917576e-04 
-9.738610544212e-04 -1.605198629590e-06 0.0 
-1.605198629590e-06 6.476533283027e-03 0.0 
0.0 0.0 -9.738262179588e-04 
-5.107285056985e-04 1.726041735434e-05 0.0 
1.726041735434e-05 3.222108758113e-03 0.0 
0.0 0.0 -5.057041985798e-04 
-4.224983753940e-04 8.320492048848e-06 0.0 
8.320492048848e-06 2.639215696168e-03 0.0 
0.0 0.0 -4.238464704258e-04 
-3.592226638991e-04 1.930188485194e-06 0.0 
1.930188485194e-06 2.185168436497e-03 0.0 
0.0 0.0 -3.586180353125e-04 
-6.301304693072e-04 -1.957277653515e-06 0.0 
-1.957277653515e-06 4.076615728565e-03 0.0 
0.0 0.0 -6.294631353604e-04 
-1.103647244802e-03 -2.847244464940e-06 0.0 
-2.847244464940e-06 7.378786394117e-03 0.0 
0.0 0.0 -1.103081964739e-03 
-2.559482480597e-04 -2.299545213333e-05 0.0 
-2.299545213333e-05 1.449439224095e-03 0.0 
0.0 0.0 -2.521214004998e-04 
-1.054932560315e-03 -8.075575040894e-06 0.0 
-8.075575040894e-06 7.041307941420e-03 0.0 
0.0 0.0 -1.054898413167e-03 
-2.650995954687e-04 -9.741906018410e-06 0.0 
-9.741906018410e-06 1.540523614087e-03 0.0 
0.0 0.0 -2.660187670962e-04 
-5.941857965254e-04 -1.478675907496e-06 0.0 
-1.478675907496e-06 3.826673915507e-03 0.0 
0.0 0.0 -5.935709857392e-04 
-1.072876015775e-03 5.343583090757e-06 0.0 
5.343583090757e-06 7.192683716525e-03 0.0 
0.0 0.0 -1.077081564483e-03 
-9.321388457540e-04 -4.809931635802e-05 0.0 
-4.809931635802e-05 6.189086367178e-03 0.0 
0.0 0.0 -9.315431351609e-04 
-6.217808576270e-04 7.207492673146e-07 0.0 
7.207492673146e-07 4.019499781701e-03 0.0 
0.0 0.0 -6.211106552582e-04 
-3.980785928309e-04 9.124267879167e-06 0.0 
9.124267879167e-06 2.462820491612e-03 0.0 
0.0 0.0 -3.989951351066e-04 
-5.857792725331e-04 1.985647166888e-06 0.0 
1.985647166888e-06 3.767357559114e-03 0.0 
0.0 0.0 -5.850331209179e-04 
-9.112445775697e-04 1.341366700758e-06 0.0 
1.341366700758e-06 6.030641515549e-03 0.0 
0.0 0.0 -9.098959706900e-04 
-6.128747489382e-04 2.675469426563e-06 0.0 
2.675469426563e-06 3.959229262623e-03 0.0 
0.0 0.0 -6.124823626799e-04 
-5.756573688349e-04 3.659606376921e-06 0.0 
3.659606376921e-06 3.704306399129e-03 0.0 
0.0 0.0 -5.760838601101e-04 
-1.248717565768e-03 -5.535813130875e-06 0.0 
-5.535813130875e-06 8.366851373818e-03 0.0 
0.0 0.0 -1.242975171717e-03 
-6.019390184711e-04 5.185969946808e-06 0.0 
5.185969946808e-06 3.892334269077e-03 0.0 
0.0 0.0 -6.030381679152e-04 
-1.295271260153e-03 -1.307857609192e-05 0.0 
-1.307857609192e-05 8.801391727423e-03 0.0 
0.0 0.0 -1.305370344976e-03 
-1.297876901994e-03 -6.017750132337e-06 0.0 
-6.017750132337e-06 8.756844234735e-03 0.0 
0.0 0.0 -1.298405437673e-03 
-8.024513087945e-04 -3.501513188686e-05 0.0 
-3.501513188686e-05 5.274019348334e-03 0.0 
0.0 0.0 -7.997855503562e-04 
-4.254874939528e-04 2.211998048864e-05 0.0 
2.211998048864e-05 2.578130903576e-03 0.0 
0.0 0.0 -4.121418992062e-04 
-6.508445551723e-05 3.373963354785e-06 0.0 
3.373963354785e-06 3.129607731290e-04 0.0 
0.0 0.0 -6.767973558354e-05 
-4.292600751844e-04 -1.740584050413e-05 0.0 
-1.740584050413e-05 2.722306669060e-03 0.0 
0.0 0.0 -4.369243393394e-04 
-4.999202719491e-04 4.843301359549e-06 0.0 
4.843301359549e-06 3.182731173832e-03 0.0 
0.0 0.0 -5.013603847490e-04 
-1.049593438910e-03 4.881772467910e-07 0.0 
4.881772467910e-07 6.980157933883e-03 0.0 
0.0 0.0 -1.045752072333e-03 
-8.016418655660e-04 8.516902983695e-06 0.0 
8.516902983695e-06 5.282246051091e-03 0.0 
0.0 0.0 -8.029817139903e-04 
-4.608886666597e-04 1.012378092170e-05 0.0 
1.012378092170e-05 2.916090626050e-03 0.0 
0.0 0.0 -4.630712860745e-04 
-1.246806949158e-03 1.140227857429e-06 0.0 
1.140227857429e-06 8.413894031447e-03 0.0 
0.0 0.0 -1.250093291501e-03 
-1.307722546221e-03 -1.676098542475e-05 0.0 
-1.676098542475e-05 8.791128539895e-03 0.0 
0.0 0.0 -1.306737725957e-03 
-1.028575866269e-03 -1.191239422521e-05 0.0 
-1.191239422521e-05 6.846657277970e-03 0.0 
0.0 0.0 -1.028769680629e-03 
-1.163087821654e-03 1.345534459019e-05 0.0 
1.345534459019e-05 7.719562356736e-03 0.0 
0.0 0.0 -1.152835590205e-03 
-1.010012111677e-03 5.602799068574e-06 0.0 
5.602799068574e-06 6.735304706068e-03 0.0 
0.0 0.0 -1.010595862668e-03 
-1.192917845756e-03 -1.946426676376e-05 0.0 
-1.946426676376e-05 7.943592006894e-03 0.0 
0.0 0.0 -1.185717314024e-03 
-7.402744024553e-04 -5.561571203005e-05 0.0 
-5.561571203005e-05 4.875197844443e-03 0.0 
0.0 0.0 -7.451086181774e-04 
-1.274079564101e-04 8.533594738937e-07 0.0 
8.533594738937e-07 6.386951496409e-04 0.0 
0.0 0.0 -1.305770345747e-04 
-9.879127130266e-04 1.076817561927e-05 0.0 
1.076817561927e-05 6.567110452729e-03 0.0 
0.0 0.0 -9.879584850274e-04 
-3.534515362331e-04 7.236051672545e-06 0.0 
7.236051672545e-06 2.087202708593e-03 0.0 
0.0 0.0 -3.437331075899e-04 
-3.524709716392e-04 5.779652155094e-07 0.0 
5.779652155094e-07 2.140761807693e-03 0.0 
0.0 0.0 -3.524505972177e-04 
-2.862323044565e-04 -1.529779689612e-06 0.0 
-1.529779689612e-06 1.660184670344e-03 0.0 
0.0 0.0 -2.832406441101e-04 
-4.971401695179e-04 3.027225826669e-06 0.0 
3.027225826669e-06 3.086653370969e-03 0.0 
0.0 0.0 -4.856826860430e-04 
-1.849802147030e-04 7.362673378517e-06 0.0 
7.362673378517e-06 1.024898749324e-03 0.0 
0.0 0.0 -1.942844358666e-04 
-2.871589559832e-04 8.860091783220e-06 0.0 
8.860091783220e-06 1.702387296045e-03 0.0 
0.0 0.0 -2.888902821290e-04 
-1.252722980053e-03 -1.832850037119e-05 0.0 
-1.832850037119e-05 8.369674222349e-03 0.0 
0.0 0.0 -1.245112051941e-03 
-7.926742292647e-04 -4.732996368776e-05 0.0 
-4.732996368776e-05 5.282443543312e-03 0.0 
0.0 0.0 -8.050116406322e-04 
-1.106262153398e-03 -9.161465296465e-06 0.0 
-9.161465296465e-06 7.422861484469e-03 0.0 
0.0 0.0 -1.110409235593e-03 
-2.195876704695e-04 6.903728268407e-06 0.0 
6.903728268407e-06 1.223775342103e-03 0.0 
0.0 0.0 -2.210826640180e-04 
-1.251801969841e-03 -1.462670654940e-05 0.0 
-1.462670654940e-05 8.397461752409e-03 0.0 
0.0 0.0 -1.247366155457e-03 
-1.250359073208e-03 6.645071777191e-06 0.0 
6.645071777191e-06 8.395286537502e-03 0.0 
0.0 0.0 -1.246608778627e-03 
-1.310061522223e-03 -1.730900586737e-05 0.0 
-1.730900586737e-05 8.803293803047e-03 0.0 
0.0 0.0 -1.306249356034e-03 
-1.172119357565e-03 -2.987465004677e-06 0.0 
-2.987465004677e-06 7.878008992010e-03 0.0 
0.0 0.0 -1.176371721005e-03 
-2.180388128944e-04 -2.924544915675e-06 0.0 
-2.924544915675e-06 1.180274271759e-03 0.0 
0.0 0.0 -2.130604828246e-04 
-8.442593127821e-04 -4.359073983630e-05 0.0 
-4.359073983630e-05 5.668047935442e-03 0.0 
0.0 0.0 -8.603500797662e-04 
-1.256774464996e-03 -9.387217042970e-06 0.0 
-9.387217042970e-06 8.415646483150e-03 0.0 
0.0 0.0 -1.250827372426e-03 
-1.072962494745e-03 -3.075351322496e-06 0.0 
-3.075351322496e-06 7.220489030587e-03 0.0 
0.0 0.0 -1.080253149739e-03 
-1.299956315864e-03 5.907340655945e-05 0.0 
5.907340655945e-05 8.822006705032e-03 0.0 
0.0 0.0 -1.309985050881e-03 
-7.806106637019e-04 -1.684448248675e-06 0.0 
-1.684448248675e-06 5.212548371629e-03 0.0 
0.0 0.0 -7.979019438933e-04 
-1.254167562389e-03 1.146355027257e-05 0.0 
1.146355027257e-05 8.413941643761e-03 0.0 
0.0 0.0 -1.252774941638e-03 
-2.773224831107e-04 -1.248540399819e-05 0.0 
-1.248540399819e-05 1.578602427722e-03 0.0 
0.0 0.0 -2.737139294578e-04 
-1.253589576776e-03 1.816421682347e-05 0.0 
1.816421682347e-05 8.411285343410e-03 0.0 
0.0 0.0 -1.254166199180e-03 
-1.115104807484e-03 -2.535602796036e-06 0.0 
-2.535602796036e-06 7.430825592014e-03 0.0 
0.0 0.0 -1.110316242656e-03 
-8.788088159188e-04 2.953384655569e-05 0.0 
2.953384655569e-05 5.848517526204e-03 0.0 
0.0 0.0 -8.840149073763e-04 
-8.453655219936e-04 1.276109640112e-05 0.0 
1.276109640112e-05 5.644378390582e-03 0.0 
0.0 0.0 -8.570326279659e-04 
-1.251636506986e-03 8.563362149544e-06 0.0 
8.563362149544e-06 8.428656629745e-03 0.0 
0.0 0.0 -1.256337174517e-03 
-1.259327999631e-03 -2.468624830891e-05 0.0 
-2.468624830891e-05 8.412107540714e-03 0.0 
0.0 0.0 -1.249505442739e-03 
-1.752421740852e-04 1.599785091568e-05 0.0 
1.599785091568e-05 9.248205746742e-04 0.0 
0.0 0.0 -1.769373265848e-04 
-1.014009013286e-03 3.718452203742e-05 0.0 
3.718452203742e-05 6.827048883928e-03 0.0 
0.0 0.0 -1.024357608964e-03 
-6.037112023629e-04 -1.928016981804e-05 0.0 
-1.928016981804e-05 3.870166564208e-03 0.0 
0.0 0.0 -5.984289768806e-04 
-1.136473903534e-04 -2.305801768327e-05 0.0 
-2.305801768327e-05 5.992740239482e-04 0.0 
0.0 0.0 -1.205697443558e-04 
-1.256657915508e-03 3.816415809552e-05 0.0 
3.816415809552e-05 8.403684845898e-03 0.0 
0.0 0.0 -1.249521112489e-03 
-1.181297459508e-03 -1.601502097609e-06 0.0 
-1.601502097609e-06 7.855797415998e-03 0.0 
0.0 0.0 -1.172189067419e-03 
-1.260809781498e-03 3.729628833421e-05 0.0 
3.729628833421e-05 8.413738862441e-03 0.0 
0.0 0.0 -1.251863004148e-03 
-2.027346260532e-04 2.709152210168e-05 0.0 
2.709152210168e-05 1.045860090397e-03 0.0 
0.0 0.0 -1.953152674555e-04 
-1.282550990439e-04 1.596967550411e-05 0.0 
1.596967550411e-05 5.957593377885e-04 0.0 
0.0 0.0 -1.273034037094e-04 
-1.264740521524e-03 1.076136126608e-05 0.0 
1.076136126608e-05 8.488256231164e-03 0.0 
0.0 0.0 -1.258522865334e-03 
-1.257630123801e-03 7.011893020694e-06 0.0 
7.011893020694e-06 8.461160637007e-03 0.0 
0.0 0.0 -1.257106814994e-03 
-2.964921431859e-04 1.458101898901e-05 0.0 
1.458101898901e-05 1.817377003358e-03 0.0 
0.0 0.0 -3.034980657766e-04 
-1.315300675602e-03 -4.616213654092e-06 0.0 
-4.616213654092e-06 8.874722920157e-03 0.0 
0.0 0.0 -1.314710167832e-03 
-1.230668747668e-04 -1.081893831765e-05 0.0 
-1.081893831765e-05 5.709731362741e-04 0.0 
0.0 0.0 -1.229206800733e-04 
-7.274132408296e-04 6.183789390248e-06 0.0 
6.183789390248e-06 4.811004360547e-03 0.0 
0.0 0.0 -7.389643750272e-04 
-1.204537552605e-04 -1.859174322407e-05 0.0 
-1.859174322407e-05 6.217166808925e-04 0.0 
0.0 0.0 -1.247417965529e-04 
-1.299793796178e-03 -5.184403467026e-05 0.0 
-5.184403467026e-05 8.811604799613e-03 0.0 
0.0 0.0 -1.308531455474e-03 
-1.262934174837e-03 2.444499081752e-05 0.0 
2.444499081752e-05 8.445031740868e-03 0.0 
0.0 0.0 -1.254845750201e-03 
-6.580718270352e-04 3.721306501344e-05 0.0 
3.721306501344e-05 4.264446760778e-03 0.0 
0.0 0.0 -6.564513288157e-04 
-7.456337922437e-04 2.770990182635e-05 0.0 
2.770990182635e-05 4.941313475091e-03 0.0 
0.0 0.0 -7.541421605440e-04 
-4.450321519268e-04 1.831097352036e-05 0.0 
1.831097352036e-05 2.791375237210e-03 0.0 
0.0 0.0 -4.426424662127e-04 
-1.211596464916e-03 3.979318020067e-05 0.0 
3.979318020067e-05 8.090084984478e-03 0.0 
0.0 0.0 -1.203498912175e-03 
-1.699334618160e-04 1.120862622914e-05 0.0 
1.120862622914e-05 9.446237105804e-04 0.0 
0.0 0.0 -1.843356288727e-04 
-1.269994123481e-03 -1.450914975509e-05 0.0 
-1.450914975509e-05 8.504040731719e-03 0.0 
0.0 0.0 -1.260296891839e-03 
-1.268600913962e-03 -6.159942340754e-06 0.0 
-6.159942340754e-06 8.509424202183e-03 0.0 
0.0 0.0 -1.261416966621e-03 
-1.266492101745e-03 9.280004247673e-06 0.0 
9.280004247673e-06 8.502341661499e-03 0.0 
0.0 0.0 -1.260618436842e-03 
-1.320646394007e-03 1.164813461385e-06 0.0 
1.164813461385e-06 8.896090470956e-03 0.0 
0.0 0.0 -1.317725628150e-03 
-1.063917710965e-04 3.406664009707e-05 0.0 
3.406664009707e-05 5.707022560972e-04 0.0 
0.0 0.0 -1.219614697575e-04 
-1.271929683323e-03 -9.688594658061e-06 0.0 
-9.688594658061e-06 8.520583266263e-03 0.0 
0.0 0.0 -1.263090216482e-03 
-1.211976787312e-03 3.126546850388e-05 0.0 
3.126546850388e-05 8.084092320638e-03 0.0 
0.0 0.0 -1.202239909569e-03 
-7.453046702514e-04 4.651614229788e-05 0.0 
4.651614229788e-05 4.880400084605e-03 0.0 
0.0 0.0 -7.439744481034e-04 
-1.252851707889e-03 4.006401018330e-05 0.0 
4.006401018330e-05 8.422629498426e-03 0.0 
0.0 0.0 -1.252574368527e-03 
-5.410687361656e-04 2.769520936264e-05 0.0 
2.769520936264e-05 3.454688790362e-03 0.0 
0.0 0.0 -5.383891422301e-04 
-2.371733345551e-04 -4.470106712643e-05 0.0 
-4.470106712643e-05 1.418248240622e-03 0.0 
0.0 0.0 -2.492021827984e-04 
-1.298998890690e-03 -2.770464845181e-05 0.0 
-2.770464845181e-05 8.833071909488e-03 0.0 
0.0 0.0 -1.313490227100e-03 
-4.294380069032e-05 -4.186010349487e-06 0.0 
-4.186010349487e-06 2.320436162997e-04 0.0 
0.0 0.0 -5.297760877488e-05 
-7.470694764219e-04 -2.192265105751e-05 0.0 
-2.192265105751e-05 4.855390412225e-03 0.0 
0.0 0.0 -7.402411036050e-04 
-1.312354484328e-03 4.131093532365e-05 0.0 
4.131093532365e-05 8.846630708308e-03 0.0 
0.0 0.0 -1.313492844077e-03 
-2.211400451138e-04 -3.676306702309e-06 0.0 
-3.676306702309e-06 1.335213202641e-03 0.0 
0.0 0.0 -2.401910970207e-04 
-8.452827785452e-04 -2.606429286923e-05 0.0 
-2.606429286923e-05 5.603903241888e-03 0.0 
0.0 0.0 -8.489638187885e-04 
-1.255507124853e-03 -9.186014831589e-06 0.0 
-9.186014831589e-06 8.480922712531e-03 0.0 
0.0 0.0 -1.260211869575e-03 
-8.025976065576e-04 9.592064473732e-06 0.0 
9.592064473732e-06 5.261098351640e-03 0.0 
0.0 0.0 -7.986629621775e-04 
-1.151240916671e-03 -6.084869299023e-05 0.0 
-6.084869299023e-05 7.669030971500e-03 0.0 
0.0 0.0 -1.148445367820e-03 
-2.192829735373e-04 1.243334644933e-05 0.0 
1.243334644933e-05 1.310510961281e-03 0.0 
0.0 0.0 -2.379222736554e-04 
-3.921137447337e-05 -2.374603163355e-06 0.0 
-2.374603163355e-06 2.327919393127e-04 0.0 
0.0 0.0 -4.855001867800e-05 
-9.645913781641e-04 -4.083102734348e-05 0.0 
-4.083102734348e-05 6.424950689754e-03 0.0 
0.0 0.0 -9.668795991591e-04 
-1.266746155896e-03 3.603621751399e-05 0.0 
3.603621751399e-05 8.474273100537e-03 0.0 
0.0 0.0 -1.258714341260e-03 
-1.271487619191e-03 -1.652780192111e-05 0.0 
-1.652780192111e-05 8.532655002207e-03 0.0 
0.0 0.0 -1.263997700767e-03 
-9.164544161815e-04 3.965640940801e-05 0.0 
3.965640940801e-05 6.111358236627e-03 0.0 
0.0 0.0 -9.199601189493e-04 
-2.093975888614e-04 -4.665649638260e-05 0.0 
-4.665649638260e-05 1.197818786362e-03 0.0 
0.0 0.0 -2.164625706183e-04 
-1.227420417668e-03 9.834631553152e-06 0.0 
9.834631553152e-06 8.219790599597e-03 0.0 
0.0 0.0 -1.221038716794e-03 
-6.921621610821e-04 -2.719005194231e-06 0.0 
-2.719005194231e-06 4.614590635001e-03 0.0 
0.0 0.0 -7.060606045913e-04 
-1.222382248160e-03 -1.550215016824e-05 0.0 
-1.550215016824e-05 8.147929268757e-03 0.0 
0.0 0.0 -1.208939113964e-03 
-1.221146925072e-03 -7.968249279325e-06 0.0 
-7.968249279325e-06 8.100682442682e-03 0.0 
0.0 0.0 -1.203806565432e-03 
-5.670525863277e-05 -1.771698635756e-05 0.0 
-1.771698635756e-05 2.585053466943e-04 0.0 
0.0 0.0 -6.449378323916e-05 
-8.615762060500e-04 1.909652726141e-05 0.0 
1.909652726141e-05 5.665696184107e-03 0.0 
0.0 0.0 -8.562696210230e-04 
-1.225143862683e-04 -2.984290666861e-05 0.0 
-2.984290666861e-05 5.860977302170e-04 0.0 
0.0 0.0 -1.223049983750e-04 
-1.270837356719e-03 -1.933520143368e-05 0.0 
-1.933520143368e-05 8.510135783999e-03 0.0 
0.0 0.0 -1.263714160583e-03 
-7.340830126836e-04 -1.335821332731e-05 0.0 
-1.335821332731e-05 4.821918862365e-03 0.0 
0.0 0.0 -7.344436328926e-04 
-9.214826177734e-06 2.394553645705e-05 0.0 
2.394553645705e-05 1.165585821231e-04 0.0 
0.0 0.0 -3.781885811439e-05 
-6.665272760022e-07 -4.580367669776e-06 0.0 
-4.580367669776e-06 1.507592301525e-04 0.0 
0.0 0.0 -5.303767378338e-05 
-9.274400012163e-05 -2.286289760556e-05 0.0 
-2.286289760556e-05 5.335063887975e-04 0.0 
0.0 0.0 -1.186082948162e-04 
-1.245631801735e-04 7.980772675943e-07 0.0 
7.980772675943e-07 5.409112698627e-04 0.0 
0.0 0.0 -1.266666666667e-04 
-1.533981872306e-04 -2.834012090519e-05 0.0 
-2.834012090519e-05 1.002826480207e-03 0.0 
0.0 0.0 -1.860204081633e-04 
-1.982795993064e-04 3.736020492006e-06 0.0 
3.736020492006e-06 1.084706337289e-03 0.0 
0.0 0.0 -1.933333333333e-04 
-2.171382535679e-04 -2.143449595072e-05 0.0 
-2.143449595072e-05 1.462578214749e-03 0.0 
0.0 0.0 -2.525839566596e-04 
-2.653195259643e-04 -7.998521144443e-07 0.0 
-7.998521144443e-07 1.467192985801e-03 0.0 
0.0 0.0 -2.600000000000e-04 
-2.777260844818e-04 -2.914177909712e-05 0.0 
-2.914177909712e-05 1.926657240018e-03 0.0 
0.0 0.0 -3.193537414966e-04 
-3.309390786781e-04 -1.795373795647e-06 0.0 
-1.795373795647e-06 2.009093472513e-03 0.0 
0.0 0.0 -3.266666666667e-04 
-3.365637611374e-04 -1.953033103199e-05 0.0 
-1.953033103199e-05 2.395340660532e-03 0.0 
0.0 0.0 -3.859030858720e-04 
-3.974252423505e-04 -3.636312148893e-06 0.0 
-3.636312148893e-06 2.393351786518e-03 0.0 
0.0 0.0 -3.933333333333e-04 
-4.176772664277e-04 -3.650619160946e-05 0.0 
-3.650619160946e-05 2.860283649269e-03 0.0 
0.0 0.0 -4.526870748299e-04 
-4.632043610658e-04 -3.909792630531e-06 0.0 
-3.909792630531e-06 2.935876671509e-03 0.0 
0.0 0.0 -4.600000000000e-04 
-4.858491939109e-04 -3.571106393788e-05 0.0 
-3.571106393788e-05 3.331481419020e-03 0.0 
0.0 0.0 -5.192176870747e-04 
-5.307983311465e-04 -4.380846350984e-06 0.0 
-4.380846350984e-06 3.321472726831e-03 0.0 
0.0 0.0 -5.266666666667e-04 
-5.549907469666e-04 -3.829926739680e-05 0.0 
-3.829926739680e-05 3.794910893621e-03 0.0 
0.0 0.0 -5.860204081633e-04 
-5.953475250696e-04 7.629065543884e-06 0.0 
7.629065543884e-06 3.863201785318e-03 0.0 
0.0 0.0 -5.933333333333e-04 
-6.234948668458e-04 -3.482962657316e-05 0.0 
-3.482962657316e-05 4.267925272266e-03 0.0 
0.0 0.0 -6.525251918948e-04 
-6.733326468399e-04 3.722248756973e-05 0.0 
3.722248756973e-05 4.248015244343e-03 0.0 
0.0 0.0 -6.600000000000e-04 

SCALARS node_materi_plasti_kappa_shear float
LOOKUP_TABLE default
1.154246033666e-04
3.030366954187e-03
5.919693902231e-03
5.923852315190e-03
2.859947626271e-04
6.218445993993e-04
8.718334659107e-04
1.197083009525e-03
1.504800919970e-03
1.797006115044e-03
2.096281833338e-03
2.401455262769e-03
2.703248692656e-03
3.016765538726e-03
3.359027883223e-03
3.663996831824e-03
3.908074174929e-03
4.228433772035e-03
4.543227631705e-03
4.848753617487e-03
5.161467818816e-03
5.477271259315e-03
5.779376537800e-03
5.932061195851e-03
5.925336573631e-03
5.920984287689e-03
5.924407700450e-03
5.915528138253e-03
5.915864416856e-03
5.918097125373e-03
5.921994664725e-03
5.927387718192e-03
5.930449677587e-03
5.921712747723e-03
5.924515498722e-03
5.931743115084e-03
5.928847067526e-03
5.919544915052e-03
5.911436947505e-03
5.907167024861e-03
5.916691287179e-03
5.925466264875e-03
5.926352037367e-03
5.927462665333e-03
5.926179788313e-03
5.923807961778e-03
5.921183308973e-03
5.929039143344e-03
5.928617810733e-03
5.930983770204e-03
5.930261081197e-03
5.934897168252e-03
5.940412066917e-03
5.938845524630e-03
5.922011629466e-03
5.913355498151e-03
5.926067531878e-03
5.924785671547e-03
5.926499683681e-03
5.927876554226e-03
5.924703349372e-03
5.915717987273e-03
5.917408892843e-03
5.920280365368e-03
5.931958681328e-03
5.938110150402e-03
5.906803770761e-03
5.928713183382e-03
5.925023434436e-03
5.923453604397e-03
5.939442334279e-03
5.942268996102e-03
3.313640150810e-03
3.643609585951e-03
3.947542440607e-03
4.242858391353e-03
4.550358348146e-03
4.852089997296e-03
5.156894848885e-03
5.448757344777e-03
5.772918013305e-03
7.718373836249e-05
1.792707430140e-04
3.026620073330e-03
2.389909338174e-04
5.538783408392e-04
8.579966173550e-04
1.150050340834e-03
1.455650881850e-03
1.761739050222e-03
2.071596637440e-03
2.380436576739e-03
2.688785350789e-03
3.277372110208e-04
6.193205685113e-04
9.082535612245e-04
1.203400472496e-03
1.503243346297e-03
1.805240586308e-03
2.108589051748e-03
2.410886229173e-03
2.706771452633e-03
2.974381815992e-03
2.988250338394e-03
2.992834626340e-03
2.988540146830e-03
3.040036634150e-03
2.993658303481e-03
2.986565369329e-03
2.994325014933e-03
3.003444053817e-03
3.004893136958e-03
3.000286560445e-03
2.997851424533e-03
2.994316307864e-03
3.001824735141e-03
9.621576344536e-05
1.072789967255e-04
9.631852337867e-05
9.634646192605e-05
1.161697218308e-04
1.255618245920e-04
1.234927640208e-04
1.176143698925e-04
1.181040846592e-04
1.155364499888e-04
1.206715439587e-04
1.365993450730e-04
1.279414962217e-04
1.070815165248e-04
1.087456221067e-04
1.225517974272e-04
1.266454771602e-04
1.116507655708e-04
1.010315185056e-04
5.450451261537e-05
1.451730833031e-04
1.533013519332e-04
1.444170035368e-04
1.476549760448e-04
1.445059590904e-04
1.454291922753e-04
1.450303472817e-04
1.456298307166e-04
1.454507908545e-04
1.453416968968e-04
1.450167519480e-04
1.447384888771e-04
1.444539499564e-04
1.442344162340e-04
1.440845007400e-04
1.440213344292e-04
1.440415769106e-04
1.441385920349e-04
1.442960123818e-04
1.444967110968e-04
1.447321190635e-04
1.450107351003e-04
1.453666106979e-04
1.458789129848e-04
1.467217162431e-04
1.482904950964e-04
1.528995133300e-04
1.841948790034e-04
2.950315993293e-04
2.479048269101e-04
2.495103223030e-04
2.505634734324e-04
2.507188278460e-04
2.507178362387e-04
2.506539839463e-04
2.505572304746e-04
2.504426806602e-04
2.503217412026e-04
2.502075946084e-04
2.501187360323e-04
2.500744189203e-04
2.500888250269e-04
2.501618427479e-04
2.502990246328e-04
2.504706906561e-04
2.507029281172e-04
2.508701397801e-04
2.511946650774e-04
2.510889542999e-04
2.515282755538e-04
2.501547885588e-04
2.518140086682e-04
2.481083659817e-04
2.542544376698e-04
2.728254471063e-04
1.884937437020e-04
4.881740067564e-04
5.705598397605e-04
5.496770030567e-04
5.513121964267e-04
5.532048107727e-04
5.529186954317e-04
5.529140938231e-04
5.524461273711e-04
5.522177989996e-04
5.518995171653e-04
5.516459978478e-04
5.514259830927e-04
5.512881971492e-04
5.512295761408e-04
5.512616439860e-04
5.513616064872e-04
5.514874833064e-04
5.515964532685e-04
5.516554683963e-04
5.516297897224e-04
5.514711385285e-04
5.511068398275e-04
5.504224154813e-04
5.492067354213e-04
5.483054994119e-04
5.891091678189e-04
7.904255727578e-04
8.783000424664e-04
8.670380613553e-04
8.657947099438e-04
8.672635734924e-04
8.658146930652e-04
8.658546933484e-04
8.653242019037e-04
8.649872547731e-04
8.646047193751e-04
8.643408386468e-04
8.641883682695e-04
8.642034570515e-04
8.643474733228e-04
8.645303581457e-04
8.646730498603e-04
8.647307615589e-04
8.646592228384e-04
8.644084069494e-04
8.639276918068e-04
8.632012764269e-04
8.623034044442e-04
8.616810527115e-04
8.652010616203e-04
8.934809853961e-04
1.187992031409e-03
1.170134596188e-03
1.168919802431e-03
1.169232374386e-03
1.169868085339e-03
1.170482980653e-03
1.170912721050e-03
1.171120299723e-03
1.171160922491e-03
1.171078166626e-03
1.170905132217e-03
1.170648727803e-03
1.170479286423e-03
1.170547781896e-03
1.170950149661e-03
1.171291949906e-03
1.171904111755e-03
1.171902869802e-03
1.172775691022e-03
1.171191663991e-03
1.172612854848e-03
1.187833400543e-03
1.100890959270e-03
1.406472201895e-03
1.491080212999e-03
1.478875045824e-03
1.477895659223e-03
1.479619060523e-03
1.478564647702e-03
1.478277220900e-03
1.477332716482e-03
1.477027418563e-03
1.477261296584e-03
1.477705681800e-03
1.477884862686e-03
1.477949264049e-03
1.477971194428e-03
1.477874591721e-03
1.477531872393e-03
1.476939422515e-03
1.476353314810e-03
1.476071760447e-03
1.476543377434e-03
1.479007895978e-03
1.494609376958e-03
1.795031686062e-03
1.783773745531e-03
1.782623055880e-03
1.782626379155e-03
1.783057178786e-03
1.783727354425e-03
1.784306026727e-03
1.784380359053e-03
1.784248010391e-03
1.784368936443e-03
1.784509361012e-03
1.784222028420e-03
1.783208560618e-03
1.783225774654e-03
1.784136159459e-03
1.786530570038e-03
1.785403695648e-03
1.784867355603e-03
1.800532715687e-03
1.713377617146e-03
2.018704063446e-03
2.107896464569e-03
2.095467463099e-03
2.092115637880e-03
2.090444484697e-03
2.089262768386e-03
2.091381496790e-03
2.091935832999e-03
2.091701405459e-03
2.090782435672e-03
2.090851254199e-03
2.091553502457e-03
2.090833695651e-03
2.089930293994e-03
2.089391547646e-03
2.089200621047e-03
2.089561437809e-03
2.092034405906e-03
2.102852006717e-03
2.407656875407e-03
2.395972459848e-03
2.394599199124e-03
2.395531468110e-03
2.394981263883e-03
2.396176998543e-03
2.397491354676e-03
2.397714307114e-03
2.395585196248e-03
2.397789855342e-03
2.399172565538e-03
2.398368259276e-03
2.398547875961e-03
2.393984296182e-03
2.398022086534e-03
2.418470853755e-03
2.331238587604e-03
2.637929620288e-03
2.723228742168e-03
2.707307494023e-03
2.703362484179e-03
2.705380261164e-03
2.706672240760e-03
2.703116806963e-03
2.702772263136e-03
2.703136713816e-03
2.702441216446e-03
2.701188865917e-03
2.700451988879e-03
2.702758821159e-03
2.699325300696e-03
2.707024502910e-03
2.723902039593e-03
1.348703824165e-04
4.158504436415e-04
7.205477140506e-04
1.028419111740e-03
1.324751298754e-03
1.629703414510e-03
1.935057087960e-03
2.241665025770e-03
2.548701800634e-03
2.861688706248e-03
7.103606478164e-04
5.814911313878e-03
2.047918518275e-04
1.970502068753e-04
5.819197632046e-03
1.328946267278e-03
3.191329080053e-03
5.810273490245e-03
1.892382905539e-03
5.822030968611e-03
2.522985579042e-03
5.833950524206e-03
1.864247367510e-04
5.824179591591e-03
3.155514371104e-03
1.957918245127e-03
4.023649944342e-03
5.811714724389e-03
5.825466270030e-03
5.824996473377e-03
5.797525205523e-03
5.833870913861e-03
3.279705906600e-03
3.278932509466e-03
3.299538154266e-03
4.392988308338e-03
5.825782847880e-03
1.875803799628e-04
2.130243859940e-04
4.990941270632e-03
3.266764248665e-03
1.027578116983e-03
5.770593586357e-03
5.837121425949e-03
5.820649096205e-03
5.802522940310e-03
5.827315517430e-03
2.124904197991e-04
3.271394634805e-03
5.775055632193e-03
5.005410343617e-03
2.049450714895e-04
2.556345996281e-03
5.876876022666e-03
1.638575426776e-03
1.018536859922e-03
2.209222523540e-03
2.829980156742e-03
3.757872655430e-04
3.812034731290e-03
5.879774981019e-03
2.000834389720e-04
5.582228690945e-03
3.282968380463e-03
3.405879163641e-03
3.554924991576e-03
3.706761369563e-03
3.858428676321e-03
3.994172834541e-03
3.835090176788e-03
4.124628089981e-03
3.963011153954e-03
4.154617485841e-03
4.253890367715e-03
4.090560016023e-03
4.382096032079e-03
4.218726563058e-03
3.929419603329e-03
4.056695462337e-03
3.767499058174e-03
3.894823734662e-03
4.184913419616e-03
4.022005877425e-03
3.732190171091e-03
3.858313833382e-03
3.569562641982e-03
3.695377336778e-03
3.406514106271e-03
3.532562577704e-03
3.821712444257e-03
3.658737601044e-03
3.369644961438e-03
3.495886750392e-03
3.207187652528e-03
3.332149617847e-03
3.621982769517e-03
3.458496973122e-03
3.166845774337e-03
3.294707675905e-03
3.002130027115e-03
3.131260622861e-03
2.837304896117e-03
2.965670032421e-03
3.259556182238e-03
3.094478366317e-03
2.799648397582e-03
2.927396624230e-03
3.222929756525e-03
3.055408384458e-03
3.351641860097e-03
3.184131490321e-03
2.889094859221e-03
3.017387565719e-03
3.312807633971e-03
3.144807155985e-03
2.850539984923e-03
2.978148191045e-03
3.273453875391e-03
3.105701933788e-03
2.811118638057e-03
2.939152856274e-03
3.235930558971e-03
3.066878938369e-03
2.770729598448e-03
2.897992444106e-03
3.196676201024e-03
3.025458962526e-03
3.326539777395e-03
2.725836099392e-03
2.853445082624e-03
2.552546008883e-03
2.681203652163e-03
3.749361599789e-03
2.379164116958e-03
2.254416588919e-03
2.509143601858e-03
2.813194765712e-03
2.206243071564e-03
2.337199456257e-03
2.035089294135e-03
2.704627779472e-03
4.313057656759e-03
2.166880539926e-03
1.864421071359e-03
1.732868546084e-03
1.561342170473e-03
4.024498791055e-03
4.321449536869e-03
4.179690524695e-03
4.487558501959e-03
4.351378253477e-03
1.692293086120e-03
4.547507496043e-03
4.620310667296e-03
3.444574795783e-03
3.081228819560e-03
3.519317618785e-03
2.468789982299e-03
2.300880945692e-03
2.604574973058e-03
3.497581244636e-03
3.628764160508e-03
3.799698635942e-03
3.931379681523e-03
4.102448612731e-03
4.234588908537e-03
4.063072780301e-03
4.366751221426e-03
4.194735028229e-03
4.405545622725e-03
4.273365102485e-03
4.498318737704e-03
4.326379418243e-03
4.629602997623e-03
4.457503609016e-03
4.153929470569e-03
4.284864263682e-03
3.982884066865e-03
3.648745610141e-03
3.817193794493e-03
3.946719407469e-03
4.115926409861e-03
4.245574739592e-03
4.415539763342e-03
4.544399560802e-03
4.375426891281e-03
4.509920023172e-03
2.632653377112e-03
2.504948411976e-03
2.338614636793e-03
2.211400256375e-03
2.045332097660e-03
1.919061142858e-03
1.752635209565e-03
1.878513981748e-03
1.584910331352e-03
1.710339413602e-03
1.415942396810e-03
1.540924270131e-03
3.948384266438e-03
4.285218450736e-03
4.585788453075e-03
4.452548000313e-03
1.432045145505e-03
4.588120534621e-03
4.576656745919e-03
4.442906503729e-03
4.675416510747e-03
1.391840176144e-03
1.627976054006e-03
1.791438559948e-03
4.652375729059e-03
4.515073750359e-03
4.747734229222e-03
1.522378979602e-03
4.671085369189e-03
1.291851135584e-03
4.415253925120e-03
4.718848314431e-03
3.891705484867e-03
4.754278458359e-03
4.616084921715e-03
1.839848146906e-03
1.672605894671e-03
1.378135101855e-03
1.515420670763e-03
1.805900116599e-03
1.632448232839e-03
1.332653763525e-03
1.460848178870e-03
1.759405537371e-03
1.587950129179e-03
1.285510927899e-03
1.415480434626e-03
4.891516996896e-03
1.121510096864e-03
3.641366942473e-03
4.879243427220e-03
4.841045972056e-03
4.817221487039e-03
4.680859314151e-03
4.376749942027e-03
4.546436710308e-03
4.850021688501e-03
4.714841530376e-03
4.411085338888e-03
4.576823668989e-03
4.271643822444e-03
4.438121527056e-03
4.742306724662e-03
4.605607762388e-03
4.302170490177e-03
4.468415119196e-03
4.164526586705e-03
4.326213013675e-03
4.634793358128e-03
1.226849014185e-03
4.506378239639e-03
4.809738295993e-03
2.453146888506e-03
2.728545033659e-03
2.907124081246e-03
3.043059147020e-03
4.493803980504e-03
4.803851567309e-03
1.501869364537e-03
1.664240495932e-03
4.952759396910e-03
4.548949919362e-03
4.244032685451e-03
2.918967585879e-03
2.792586959038e-03
2.629168594187e-03
2.499093692646e-03
2.668968419875e-03
2.332626947431e-03
4.138292167915e-03
4.909939925648e-03
1.603914124137e-03
1.302913386403e-03
4.855203702972e-03
4.205737706829e-03
4.111791117138e-03
4.239349827017e-03
4.404279031402e-03
4.532163345971e-03
4.698797086860e-03
4.826101189866e-03
4.663500232458e-03
4.917627217648e-03
4.959771601570e-03
4.174662190372e-03
4.151213148999e-03
1.888480938751e-03
1.096487228566e-03
1.112867725487e-03
1.347315636886e-03
1.652113615696e-03
5.051413102721e-03
4.995155339568e-03
4.862932033424e-03
2.379373966366e-03
2.546273267233e-03
5.051913667085e-03
4.046495241742e-03
4.106805891897e-03
3.964719198022e-03
1.001701890259e-03
9.814910827122e-04
5.018736248123e-03
1.953490702354e-03
1.826326942528e-03
1.000603477325e-03
8.270248169059e-04
4.649062039121e-03
4.959360782526e-03
3.209003612840e-03
3.344763241722e-03
4.919412739713e-03
1.246851632543e-03
5.108760944892e-03
4.338688324758e-03
4.036566623443e-03
2.862194265683e-03
1.379647792169e-03
1.216950747748e-03
2.058445277619e-03
1.544704251302e-03
1.478187698947e-03
5.222097844678e-03
5.150166074507e-03
4.796698922503e-03
4.498570299624e-03
5.089656245451e-03
9.457015925928e-04
5.189931181500e-03
4.686738709315e-03
5.150549732461e-03
5.027069730600e-03
2.114316632000e-03
1.991901980435e-03
1.705778784395e-03
1.877221421128e-03
3.675799238899e-03
2.280051155843e-03
3.479503618634e-03
3.353779208918e-03
3.194968393760e-03
2.831556800728e-03
2.708824037533e-03
2.375496384323e-03
3.686936591630e-03
3.078073203987e-03
3.851596386181e-03
3.667740788258e-03
5.044158210038e-03
5.215830386065e-03
3.998289725651e-03
3.853491964182e-03
1.131663708096e-03
1.005870343686e-03
3.457686078413e-03
5.011327749084e-03
5.115127262102e-03
5.250667570774e-03
5.084339547061e-03
5.085185550635e-03
2.466333230067e-03
3.777777636612e-03
9.588302078742e-04
3.912004250684e-03
8.314503266492e-04
4.475699055473e-03
4.989278594651e-03
5.157849786265e-03
5.214381496867e-03
3.266010047436e-03
4.041180497852e-03
3.878621153168e-03
3.070483235828e-03
2.913482248638e-03
3.035157386404e-03
2.755770959431e-03
2.184615498058e-03
2.013559352505e-03
5.319773126116e-03
5.255640298353e-03
5.321605394694e-03
5.197016645099e-03
5.342046142709e-03
5.180952194182e-03
1.777196002727e-03
2.427249311879e-03
5.314454420742e-03
3.225902650504e-03
5.312357786980e-03
5.147322410379e-03
6.540445478406e-04
7.723794913411e-04
5.277227190096e-03
1.587049601255e-03
1.745337399366e-03
1.421339300996e-03
5.610035015994e-03
3.257775872683e-03
5.289370763037e-03
2.995256057925e-03
5.420258365800e-03
4.174507003320e-03
2.750543209626e-03
4.785821545599e-03
5.111095174845e-03
5.457139877325e-03
3.797889722827e-03
3.646479732755e-03
3.931549897695e-03
1.164427047641e-03
8.448239735480e-04
5.077361997568e-03
2.130717764018e-03
2.299994958429e-03
1.365911109574e-03
1.662041853713e-03
3.380077755549e-03
3.249013876935e-03
4.605823304079e-03
4.769919328613e-03
4.276226867883e-03
4.169358572453e-03
3.867935193715e-03
3.737504250769e-03
5.341787835815e-03
5.553309217008e-03
2.353647089942e-03
2.227016294383e-03
2.307076216506e-03
5.450349556697e-03
5.463341176944e-03
5.325739410321e-03
7.148670898350e-04
8.870883348093e-04
1.101873869960e-03
9.316626042025e-04
5.373764850267e-03
5.221517258001e-03
5.572702457976e-03
1.582372335378e-03
4.632172669378e-03
5.375893312072e-03
5.254154539084e-03
5.559534277686e-03
5.076810545238e-03
5.365925183894e-03
5.378240200423e-03
5.392140300882e-04
5.334646512646e-03
3.675752576569e-03
3.994140177194e-04
3.535833562514e-03
3.716995656290e-03
3.370679194070e-03
1.282169154075e-03
3.567296707678e-03
3.765939256375e-03
5.126327859221e-04
5.605887865963e-03
5.560267422024e-04
6.660332016854e-04
5.449756143397e-03
5.274590684749e-03
5.572244234080e-03
5.392478454778e-03
5.099677131758e-03
5.238383322142e-03
3.509567093749e-03
5.572364392840e-03
5.374148307929e-03
5.737141131835e-03
2.638726436383e-03
2.039901378839e-03
1.905448348708e-03
1.617406521166e-03
5.530794330127e-03
5.348359015461e-03
4.829734702657e-03
4.521447046327e-03
3.557349194756e-03
3.532569652196e-03
3.813584889458e-03
3.767894522616e-03
4.058668074403e-03
4.012436085661e-03
4.295379223318e-03
5.556472121404e-03
1.300890945793e-03
2.946721722792e-03
5.471988497703e-03
5.293800497184e-03
2.587723201717e-03
2.314665718403e-03
5.537328889683e-03
2.406283520918e-03
5.792762283983e-03
1.858040090612e-04
4.857765212982e-04
2.573038789786e-03
2.873030274744e-03
2.199216706967e-03
2.091680435174e-03
4.476442988489e-03
7.504877515353e-04
1.263024816417e-03
4.334362747608e-03
9.849535248274e-04
4.679903303412e-03
2.540562741112e-03
3.118474233540e-03
1.542099058054e-03
2.168158947901e-03
3.802386178974e-03
3.549362578402e-03
3.391116114852e-03
2.670946485909e-03
2.260803135557e-03
1.949223813238e-03
3.605674145861e-03
4.919767447334e-03
5.053137848748e-03
5.341032503505e-03
5.187217989567e-03
4.888560595270e-03
5.017653317247e-03
5.314535410036e-03
5.156798542278e-03
5.508315270460e-03
5.286399283860e-03
4.980351695302e-03
5.106165886696e-03
5.394021959470e-03
4.807746362982e-03
5.628111934766e-03
2.871243858978e-03
6.965101933152e-04
6.551789095587e-04
3.282360146456e-03
5.809860564826e-03
5.821157866103e-03
2.082528349660e-03
5.819524766679e-03
3.515099545658e-03
1.460932159611e-03
5.821354656771e-03
4.753391499877e-03
4.585238946775e-03
4.452711673430e-03
5.831503303158e-03
4.073161563167e-03
5.837134571400e-03
3.985700881929e-03
3.851791908227e-03
3.554575317505e-03
4.847344029507e-03
5.817888275316e-03
5.575635814432e-03
5.571525256645e-03
5.311966086722e-03
5.819541179727e-03
5.830698806893e-03
5.838402623042e-03
1.930986719212e-03
2.101024040918e-03
2.394475490464e-03
2.266384359489e-03
1.970817861414e-03
2.136867911929e-03
2.431134490451e-03
2.006483688020e-03
5.062450549600e-03
5.830124137920e-03
3.970119493304e-03
3.835301643933e-03
3.534841884466e-03
2.946573758729e-03
3.117318954907e-03
3.419825569632e-03
2.776365598311e-03
4.367919564161e-03
5.827346570942e-03
3.906600699280e-03
2.984402664609e-03
3.276820545210e-03
3.539493379070e-03
3.549133742473e-03
3.824596042644e-03
3.567726925698e-03
3.513236360802e-03
3.646056828441e-03
3.479442829320e-03
3.776440321699e-03
3.600754084133e-03
3.319682840169e-03
3.899235541114e-03
3.712790048005e-03
3.270946734921e-03
2.113632266739e-04
4.663590485078e-04
4.566049970039e-04
7.156745567247e-04
7.373279452377e-04
1.003154234088e-03
9.722585000682e-04
4.717549759512e-04
2.060508248568e-04
4.540770013058e-04
2.016183866916e-04
4.467968440683e-04
7.550412036772e-04
1.182852220765e-03
5.788845613533e-03
2.859709310104e-03
2.724978007808e-03
2.413348020450e-03
2.580932184492e-03
2.979254934651e-03
2.254988964791e-03
2.151777952318e-03
2.124248935492e-04
4.645380525494e-04
4.620287622044e-04
7.358870940255e-04
7.228556758076e-04
4.637229493946e-04
4.638167508819e-04
2.058552859172e-04
4.611112548755e-04
7.280621305049e-04
1.906731245643e-04
4.704546691336e-03
4.866377932286e-03
5.817051415440e-03
3.306461396406e-03
2.060812032613e-04
5.781234699132e-03
5.822288119502e-03
5.823020880709e-03
5.305314190989e-03
5.454685450902e-03
5.787205338867e-03
1.904164271810e-03
5.481003932717e-03
5.244910374535e-03
1.337919885917e-03
1.840104844977e-03
4.380249884781e-03
4.023192351168e-03
5.022936148851e-03
4.114296708411e-03
4.760794110996e-03
5.555554324813e-03
1.179594138024e-03
4.131571153262e-03
4.020912679793e-03
4.773210184270e-03
1.997971753623e-03
3.186209854797e-03
1.264320056221e-03
5.581499467917e-03
3.319123411055e-03
3.366608306896e-03
2.641689808122e-03
2.077782102881e-03
1.716997042932e-03
3.042088607286e-03
3.155408692379e-03
4.538280633475e-03
4.941818270038e-03
2.600596271960e-04
4.708539861147e-03
3.760089428882e-03
4.244105085551e-03
4.715328609436e-03
1.167410736667e-03
4.880974533881e-03
5.403313920794e-03
3.898336749169e-03
9.671126416541e-04
3.824252090179e-03
5.351558397039e-03
4.786917829570e-03
1.824211420534e-03
3.480609807162e-03
3.243878701939e-03
2.980785244645e-03
5.375575519211e-03
3.585995865997e-03
4.980015277352e-03
4.076017659109e-03
1.959475074490e-03
4.975844888606e-03
3.389984283037e-03
5.185084528177e-03
4.569389381663e-03
2.760527645323e-03
4.981119205121e-03
3.402542523838e-03
4.886475886782e-03
3.158193069385e-03
3.984904577625e-03
4.346595079122e-03
3.785347613028e-03
4.212795144997e-03
4.843183184598e-03
1.250416126476e-03
2.458873987470e-03
4.209667670053e-03
5.115121627223e-03
5.486043343848e-03
2.956453768341e-03
4.801040750307e-03
5.276018678210e-03
3.287319671934e-03
1.360173557846e-03
1.054118268605e-03
2.172491032492e-03
3.423285296841e-03
3.589532674148e-03
5.552240847616e-03
4.931191158355e-03
4.613419327886e-03
5.464000382780e-04
3.101627176124e-03
5.063754079328e-03
3.609293720743e-03
5.009794558602e-03
3.416052821844e-03
5.575482653537e-03
2.475536180774e-03
5.206362114330e-03
4.647615435026e-03
2.244695150429e-03
3.268136202907e-03
5.555008699614e-03
4.952886856145e-03
4.075675641162e-03
3.440761170649e-03
2.670689667684e-03
3.721275175177e-03
4.148714793035e-03
5.835319629331e-03
5.106135759620e-03
4.284472671237e-03
3.550391241370e-03
4.312448323242e-03
7.156855192345e-04
2.792869111198e-03
3.682084945283e-03
2.301558692687e-03
3.569870679035e-03
5.507448749153e-03
3.814302881920e-03
2.595277141504e-03
3.945212643466e-03
2.359824458181e-03
4.418520852231e-03
4.072359630917e-03
4.440337999663e-03
7.757686492746e-04
4.203718467632e-03
5.137853672774e-03
2.428401079217e-03
3.700926420415e-03
4.718919712422e-03
2.045517196664e-03
4.001751556342e-03
4.734200010830e-03
4.335389309683e-03
3.717467635180e-03
4.306468150559e-03
2.158315669710e-03
1.778111948175e-03
1.480789573342e-03
2.723576269686e-03
4.901358873080e-03
9.907929562043e-04
4.678560104240e-03
1.061568277770e-03
2.558752785224e-03
4.777870338073e-03
4.115757970203e-03
2.685651994210e-03
1.661993244650e-03
2.519680303368e-03
4.012449715584e-03
2.645863061594e-03
2.477781824869e-03
5.552773111685e-03
2.601556434606e-03
5.832588277671e-03
5.807498199141e-03
3.510356051034e-03
1.737451315662e-03
2.405479085723e-04
1.829108936978e-03
2.134121346790e-03
4.639057668376e-03
3.513173410346e-03
1.958554503757e-03
5.579740788868e-03
5.830554327362e-03
4.549382429434e-03
5.128190593651e-03
4.477241356342e-03
5.275457844279e-03
3.249070074697e-03
4.477567605621e-04
4.366937944894e-03
1.414652943865e-03
1.454830351756e-03
1.141526190888e-03
2.071482774289e-03
7.048676555722e-04
1.168371653297e-03
5.554008919411e-03
3.515193931760e-03
4.930134979137e-03
8.572356047718e-04
5.572156000341e-03
5.569776879399e-03
5.838339516943e-03
5.230953075188e-03
8.277135440665e-04
3.767849181542e-03
5.583236268412e-03
4.792801184414e-03
5.849741729017e-03
3.467504393821e-03
5.585086652784e-03
1.085481836247e-03
5.581941862217e-03
4.937207249790e-03
3.891365713394e-03
3.752927955089e-03
5.593723576573e-03
5.582903556172e-03
6.530334131599e-04
4.532821262706e-03
2.586505146794e-03
4.309456059287e-04
5.577341518437e-03
5.218037136216e-03
5.584899765061e-03
7.371716874997e-04
4.403063957911e-04
5.630357557197e-03
5.612012503027e-03
1.230585207076e-03
5.884366405666e-03
4.092504687394e-04
3.203199811466e-03
4.370733977465e-04
5.843994283019e-03
5.604234858726e-03
2.845335710462e-03
3.286444788878e-03
1.873211432721e-03
5.369777350956e-03
6.577588307219e-04
5.641946929749e-03
5.644321122624e-03
5.639466704751e-03
5.898898139880e-03
4.211607310232e-04
5.652386425481e-03
5.366048530729e-03
3.253953958084e-03
5.587679770306e-03
2.309938481824e-03
9.687550335973e-04
5.854893632795e-03
1.859115235788e-04
3.234858844656e-03
5.866847427828e-03
9.109470946293e-04
3.727440323860e-03
5.623149802079e-03
3.507013142730e-03
5.092976750136e-03
8.975669244277e-04
1.659950822664e-04
4.270563646727e-03
5.623311015091e-03
5.659663736694e-03
4.061400799491e-03
8.220481444570e-04
5.453937277557e-03
3.071062049363e-03
5.407469273276e-03
5.377966207611e-03
2.102243503153e-04
3.774256867795e-03
4.259532598859e-04
5.646002650816e-03
3.210355763876e-03
1.036751196044e-04
2.088992406567e-04
3.761936923109e-04
4.582839405489e-04
6.812530931540e-04
7.823421882474e-04
9.833305910442e-04
1.031318664959e-03
1.287275284106e-03
1.374254474633e-03
1.593862915393e-03
1.630621312590e-03
1.904403431918e-03
1.978503866699e-03
2.215256382710e-03
2.237857692827e-03
2.521729557575e-03
2.586604075054e-03
2.833800295395e-03
2.849139881866e-03

SCALARS node_materi_plasti_phimob float
LOOKUP_TABLE default
1.826773729947e+01
1.758167173604e+01
2.049213672757e+01
2.049375253540e+01
-3.187181898558e+01
-7.368987853707e+00
2.373786652254e+00
8.027722739675e+00
1.128215445373e+01
1.331486721268e+01
1.479369646878e+01
1.591381453759e+01
1.677895457345e+01
1.750115906410e+01
1.813510283778e+01
1.856778520914e+01
1.888302358212e+01
1.923130620747e+01
1.953485877660e+01
1.979108102773e+01
2.002255592837e+01
2.023306544007e+01
2.039947863319e+01
2.049992558164e+01
2.050072042321e+01
2.050056354644e+01
2.050645553472e+01
2.050168645018e+01
2.049824001367e+01
2.049411009202e+01
2.050300951734e+01
2.050107145560e+01
2.050499948594e+01
2.050097066910e+01
2.050435985392e+01
2.049868018733e+01
2.050612237649e+01
2.049525099572e+01
2.050277748544e+01
2.050319807281e+01
2.049276984461e+01
2.049906951944e+01
2.050245657408e+01
2.050348450484e+01
2.049814909109e+01
2.049987118772e+01
2.049982044668e+01
2.050254055396e+01
2.049916273499e+01
2.051062220740e+01
2.050012303784e+01
2.050750313263e+01
2.050632996306e+01
2.051189249082e+01
2.049823857984e+01
2.049599365175e+01
2.049894318849e+01
2.049827489254e+01
2.050938879944e+01
2.049847170139e+01
2.050625191138e+01
2.049385521154e+01
2.050400075879e+01
2.050799588702e+01
2.050167025224e+01
2.050058335476e+01
2.049681198826e+01
2.049762389520e+01
2.050601858355e+01
2.050542643939e+01
2.050434717044e+01
2.050860172229e+01
1.806885427075e+01
1.857055455236e+01
1.895323950994e+01
1.927481577663e+01
1.956628694055e+01
1.979355891709e+01
2.001797742108e+01
2.021379272320e+01
2.039227254661e+01
1.690358882143e+01
1.747487548775e+01
1.753790359095e+01
-3.516242972328e+01
-8.276324490533e+00
2.458921421528e+00
7.843599205658e+00
1.110461159875e+01
1.323318128754e+01
1.477512545617e+01
1.591107267370e+01
1.678785287342e+01
-3.326588771975e+01
-7.836237497348e+00
2.674248166449e+00
8.071242975410e+00
1.123513254835e+01
1.336705122332e+01
1.484945145211e+01
1.597667586912e+01
1.681165148380e+01
1.744275957305e+01
1.744919572692e+01
1.746105136259e+01
1.745368587381e+01
1.751813917850e+01
1.745206230629e+01
1.743756417975e+01
1.745317134298e+01
1.747980714988e+01
1.747984660897e+01
1.745932391060e+01
1.746506238419e+01
1.745563751455e+01
1.747236436241e+01
4.048260367164e+01
-1.043074920626e+01
-1.113472636316e+01
-1.136427197600e+01
-6.076354514878e+01
-5.968401694555e+01
-5.991686336136e+01
-6.025972706039e+01
-6.031131471361e+01
-6.029438685685e+01
-5.987463278434e+01
-5.810771846253e+01
-5.907790283747e+01
-6.148642909696e+01
-6.096015732538e+01
-6.007422049712e+01
-5.996477751715e+01
-9.628872753989e+00
4.028721529599e+01
8.999999999681e+01
-1.732213385218e+01
-5.570219852766e+01
-5.606136694462e+01
-5.576466124262e+01
-5.592098700800e+01
-5.583241940945e+01
-5.586692916551e+01
-5.582937782549e+01
-5.584239267838e+01
-5.584190369350e+01
-5.585212524436e+01
-5.585681704571e+01
-5.586250598434e+01
-5.586604580478e+01
-5.586860334323e+01
-5.586956896197e+01
-5.586929196587e+01
-5.586786365721e+01
-5.586579714496e+01
-5.586375041480e+01
-5.586234126739e+01
-5.586191873934e+01
-5.586301955560e+01
-5.586622564871e+01
-5.587173343409e+01
-5.586962667424e+01
-5.565285676612e+01
-1.632921194901e+01
-3.306471567115e+01
-3.517859413755e+01
-3.550289419644e+01
-3.549757347194e+01
-3.550433569988e+01
-3.551005628378e+01
-3.551475365413e+01
-3.551886045329e+01
-3.552259460527e+01
-3.552623827939e+01
-3.552966048580e+01
-3.553240440307e+01
-3.553395433100e+01
-3.553388620780e+01
-3.553222584245e+01
-3.552860940340e+01
-3.552404943910e+01
-3.551690828850e+01
-3.551204621096e+01
-3.549971059278e+01
-3.550335697543e+01
-3.548184784388e+01
-3.553150032660e+01
-3.545473740238e+01
-3.559972673502e+01
-3.532605056904e+01
-3.339804226221e+01
-3.884344113897e+01
-9.996976198267e+00
-7.767980515838e+00
-8.591116526471e+00
-8.617765386087e+00
-8.592948535006e+00
-8.602388238438e+00
-8.606379050019e+00
-8.617325526532e+00
-8.623995639063e+00
-8.631656340526e+00
-8.638040126158e+00
-8.643363643584e+00
-8.646869475193e+00
-8.648468813164e+00
-8.647998573687e+00
-8.645877088352e+00
-8.642894667636e+00
-8.639827001861e+00
-8.637214585512e+00
-8.635230140599e+00
-8.633905442342e+00
-8.633194614624e+00
-8.632398999086e+00
-8.631356887077e+00
-8.663554226319e+00
-8.597617574255e+00
1.555275404260e+00
2.761092153812e+00
2.448526121840e+00
2.418128526019e+00
2.425031890088e+00
2.408859655830e+00
2.405282485444e+00
2.398325674426e+00
2.392213379924e+00
2.386446581494e+00
2.381942549104e+00
2.379291516091e+00
2.379005889446e+00
2.380713608011e+00
2.383219847388e+00
2.385549177133e+00
2.387133914201e+00
2.387445136086e+00
2.385973985049e+00
2.382340785291e+00
2.376679157616e+00
2.369648707547e+00
2.364750350778e+00
2.429997786013e+00
2.707003743635e+00
7.899740723922e+00
7.856183297766e+00
7.861921563315e+00
7.866825043495e+00
7.872626995116e+00
7.878050807977e+00
7.881963527556e+00
7.883972617167e+00
7.884572651034e+00
7.884174008571e+00
7.883061204681e+00
7.881217799232e+00
7.879958562255e+00
7.881000061962e+00
7.884858079984e+00
7.888852319336e+00
7.893351708324e+00
7.895347138554e+00
7.899279488980e+00
7.895672313301e+00
7.913804467187e+00
8.111811762812e+00
7.364659014692e+00
1.076329393487e+01
1.125785149336e+01
1.114451149012e+01
1.113978205716e+01
1.114193349999e+01
1.114125098351e+01
1.113666904617e+01
1.113120170250e+01
1.112805688576e+01
1.112976304235e+01
1.113219934712e+01
1.113257257828e+01
1.113202871866e+01
1.113134123023e+01
1.113004477775e+01
1.112707021482e+01
1.112237276197e+01
1.111769050464e+01
1.111445482027e+01
1.111533316471e+01
1.113741307963e+01
1.123918716753e+01
1.329582212629e+01
1.326470716922e+01
1.326143295030e+01
1.326212682085e+01
1.326483889010e+01
1.326915060926e+01
1.327336253150e+01
1.327488087969e+01
1.327496927515e+01
1.327723675866e+01
1.327965344259e+01
1.327919123694e+01
1.327446666684e+01
1.327347653314e+01
1.328070237990e+01
1.329077639129e+01
1.329280555661e+01
1.328748300956e+01
1.338051837143e+01
1.299944170029e+01
1.457346317422e+01
1.487518514467e+01
1.481620792857e+01
1.480730820590e+01
1.479097872957e+01
1.478891640050e+01
1.479617108729e+01
1.479719253141e+01
1.479477086705e+01
1.478789858020e+01
1.478613386590e+01
1.478911740998e+01
1.478405832630e+01
1.477970221234e+01
1.477720764971e+01
1.477639261644e+01
1.477834150252e+01
1.479372398312e+01
1.484729262348e+01
1.594740571474e+01
1.591094642067e+01
1.590548685054e+01
1.590756522601e+01
1.590539805859e+01
1.590785849752e+01
1.591331127057e+01
1.591552159513e+01
1.590945511670e+01
1.592058814329e+01
1.592838048603e+01
1.592656189802e+01
1.593107262625e+01
1.592432758430e+01
1.593482493033e+01
1.599788072277e+01
1.575645931842e+01
1.665780382900e+01
1.685626222064e+01
1.681555287524e+01
1.679324814553e+01
1.679482399894e+01
1.679640950504e+01
1.678840961122e+01
1.678592366510e+01
1.678142880792e+01
1.677842228544e+01
1.677662708396e+01
1.677667753603e+01
1.678211138379e+01
1.677748792042e+01
1.680153492877e+01
1.685094724569e+01
1.138355029225e+00
-1.571318413564e+01
-8.682709971711e-01
6.077030859258e+00
9.919771267588e+00
1.241974783658e+01
1.417968887159e+01
1.544794345620e+01
1.641802941248e+01
1.718337214620e+01
-2.620237048277e+00
2.042575706795e+01
-4.051547810902e+01
-4.186333378983e+01
2.043580484803e+01
9.606429914798e+00
1.785418119900e+01
2.042598431855e+01
1.390785509940e+01
2.043314949943e+01
1.631466091997e+01
2.043444243523e+01
-4.153030200445e+01
2.043571161453e+01
1.775986753526e+01
1.417337273641e+01
1.902437425332e+01
2.042202629819e+01
2.043851992237e+01
2.043941023882e+01
2.041854776627e+01
2.044370219323e+01
1.798855360065e+01
1.800005272594e+01
1.801921767561e+01
1.941833899818e+01
2.043770716488e+01
-1.618989637702e+01
-3.983306693059e+01
1.990211515718e+01
1.798676393624e+01
5.577402176857e+00
2.041703252357e+01
2.044579058255e+01
2.043443856532e+01
2.042143368978e+01
2.044428533601e+01
-3.976388456186e+01
1.798014744162e+01
2.041575528073e+01
1.992412671737e+01
-3.984288638460e+01
1.638921287690e+01
2.046762931716e+01
1.232448275812e+01
5.327039269644e+00
1.529105810274e+01
1.710283465801e+01
-2.239373568850e+01
1.878347004101e+01
2.046531002702e+01
-1.573964659932e+01
2.029593464968e+01
1.800268814228e+01
1.820831545066e+01
1.841628585783e+01
1.863895048956e+01
1.884058216136e+01
1.899824035274e+01
1.880066983700e+01
1.913524745476e+01
1.895533798763e+01
1.916084004157e+01
1.926953374674e+01
1.909857308650e+01
1.939490779419e+01
1.923453210668e+01
1.891468408055e+01
1.906178857246e+01
1.871144045289e+01
1.887181477181e+01
1.919971133943e+01
1.902046335425e+01
1.866526511168e+01
1.882561952978e+01
1.843912210518e+01
1.861354259754e+01
1.819128646047e+01
1.838268409881e+01
1.877658943058e+01
1.856198423978e+01
1.812969351698e+01
1.832722849999e+01
1.785182420276e+01
1.806744721726e+01
1.851067597804e+01
1.826982518259e+01
1.777880371754e+01
1.800578277090e+01
1.746021705671e+01
1.771344211974e+01
1.710102342977e+01
1.738341584786e+01
1.794514540612e+01
1.764213568499e+01
1.701220068660e+01
1.730000946405e+01
1.787888529163e+01
1.756395904120e+01
1.809812872282e+01
1.780793615342e+01
1.721499527771e+01
1.748643633458e+01
1.803275022428e+01
1.773507757784e+01
1.712846655177e+01
1.740521459020e+01
1.796585672608e+01
1.766003319139e+01
1.703664838089e+01
1.732135204089e+01
1.789826760417e+01
1.758315913455e+01
1.693928055970e+01
1.723112926018e+01
1.782739205705e+01
1.750044439268e+01
1.805324903690e+01
1.682886188615e+01
1.713238405918e+01
1.636802695190e+01
1.671613838878e+01
1.868396678666e+01
1.584052045121e+01
1.541009187598e+01
1.624308606755e+01
1.703922330650e+01
1.523063815020e+01
1.570015209406e+01
1.452111366100e+01
1.677985715213e+01
1.932878222551e+01
1.507472632149e+01
1.368426889003e+01
1.293003756720e+01
1.175009120665e+01
1.901132676303e+01
1.932978791728e+01
1.918467893000e+01
1.948922129949e+01
1.935927382857e+01
1.266660904163e+01
1.954430082532e+01
1.960739472830e+01
1.825258434522e+01
1.761703490560e+01
1.836113717169e+01
1.612178674440e+01
1.557149885406e+01
1.651725694737e+01
1.832482722651e+01
1.851569139975e+01
1.874470406159e+01
1.890756256879e+01
1.910318404751e+01
1.924374547993e+01
1.905982467863e+01
1.937614714504e+01
1.920239976102e+01
1.941251626767e+01
1.928295068255e+01
1.949964442880e+01
1.933576008414e+01
1.961473728449e+01
1.946083167939e+01
1.915875084093e+01
1.929456963970e+01
1.896904320367e+01
1.854661261311e+01
1.877028976855e+01
1.892820304946e+01
1.912132518210e+01
1.925692449952e+01
1.942637979483e+01
1.954371679544e+01
1.938454053644e+01
1.951548039564e+01
1.659207287445e+01
1.623395444563e+01
1.570752956563e+01
1.525098903683e+01
1.457009870458e+01
1.397035847289e+01
1.305019678174e+01
1.376165746341e+01
1.192393883734e+01
1.278544024801e+01
1.052449012733e+01
1.158847946948e+01
1.893057423255e+01
1.929938385148e+01
1.958182588469e+01
1.945941390999e+01
1.067898195262e+01
1.957857089626e+01
1.956898195673e+01
1.944820662966e+01
1.965571517951e+01
1.030620029570e+01
1.223238582628e+01
1.328145659030e+01
1.963503406582e+01
1.951339385776e+01
1.971395598622e+01
1.144161888902e+01
1.965263071061e+01
9.246186664036e+00
1.942141536526e+01
1.968990345964e+01
1.885964114360e+01
1.972167989148e+01
1.960446361986e+01
1.354681750565e+01
1.253709562029e+01
1.018669543037e+01
1.138073490459e+01
1.335081877721e+01
1.226136990169e+01
9.748279954855e+00
1.093224126323e+01
1.308368073452e+01
1.194316454479e+01
9.212206422669e+00
1.051248964525e+01
1.982781341324e+01
7.051217165858e+00
1.854377477888e+01
1.981874702762e+01
1.979543060133e+01
1.976970303788e+01
1.965852540499e+01
1.938528225143e+01
1.954413300708e+01
1.979772766896e+01
1.969112226052e+01
1.942257157855e+01
1.957293167518e+01
1.928355395616e+01
1.944636027342e+01
1.971170322137e+01
1.959745202286e+01
1.931857711218e+01
1.947691187138e+01
1.918078427605e+01
1.934206019603e+01
1.962292351127e+01
8.557795423803e+00
1.950763278500e+01
1.976915143905e+01
1.606368223193e+01
1.685847823831e+01
1.726253794491e+01
1.753458454075e+01
1.949848887370e+01
1.976725206367e+01
1.128119238626e+01
1.249437849445e+01
1.987495588231e+01
1.954326528617e+01
1.925439173833e+01
1.728322276561e+01
1.699849021397e+01
1.658383494137e+01
1.621952581967e+01
1.669270737980e+01
1.568406117544e+01
1.914245718848e+01
1.984394218622e+01
1.206958914888e+01
9.387385399949e+00
1.979951326613e+01
1.921501483801e+01
1.911549609193e+01
1.924998123962e+01
1.941262457479e+01
1.953058570084e+01
1.967503117635e+01
1.978004252497e+01
1.964528710843e+01
1.984784526836e+01
1.988411931181e+01
1.918677505547e+01
1.915900609127e+01
1.380746863188e+01
6.757731668677e+00
6.891561722946e+00
9.872380827323e+00
1.240117912255e+01
1.994683145874e+01
1.991074785778e+01
1.981026459684e+01
1.584457139007e+01
1.636036201953e+01
1.994674137251e+01
1.903546647288e+01
1.910962327528e+01
1.894909280255e+01
5.428940137917e+00
4.960529560430e+00
1.992578287961e+01
1.414424354690e+01
1.349073419003e+01
4.964978846533e+00
1.147714231583e+00
1.963806274099e+01
1.988109400719e+01
1.784930981489e+01
1.808501390049e+01
1.984910153177e+01
8.703827930459e+00
1.998997559247e+01
1.935056787643e+01
1.903201830617e+01
1.715364768754e+01
1.020003309100e+01
8.389659454477e+00
1.462173727967e+01
1.161675066090e+01
1.108873211829e+01
2.006771685017e+01
2.001730427070e+01
1.975631099116e+01
1.950268217235e+01
1.997421455143e+01
3.983601351564e+00
2.004790495378e+01
1.966535090366e+01
2.003553602553e+01
1.993746312780e+01
1.487380155398e+01
1.434322252363e+01
1.277721446892e+01
1.375148616010e+01
1.859978363860e+01
1.551852966035e+01
1.830705601533e+01
1.810934067318e+01
1.783547930426e+01
1.709312496629e+01
1.679701244828e+01
1.583111400940e+01
1.859959412519e+01
1.760761855798e+01
1.881049181450e+01
1.856956226316e+01
1.994469490613e+01
2.006564948044e+01
1.899480873800e+01
1.881620257119e+01
7.199520700889e+00
5.139738376225e+00
1.826393454731e+01
1.992227288691e+01
1.999462060041e+01
2.008814973321e+01
1.997195911628e+01
1.997186172607e+01
1.611681352750e+01
1.871874014874e+01
4.184426190207e+00
1.888800324559e+01
1.371183669105e+00
1.948571852745e+01
1.990173082979e+01
2.002164350521e+01
2.006061134342e+01
1.796495001644e+01
1.903903281821e+01
1.884880285561e+01
1.759906578599e+01
1.727649526334e+01
1.753084575151e+01
1.691294408482e+01
1.514596788156e+01
1.442470322124e+01
2.013976513087e+01
2.009248755472e+01
2.014381186528e+01
2.004555709314e+01
2.014120468163e+01
2.003630572948e+01
1.320994448246e+01
1.600612387954e+01
2.012549895250e+01
1.788976037974e+01
2.013691823574e+01
2.001746195566e+01
-4.326145646428e+00
-3.413562965711e-01
2.010238149666e+01
1.195186522406e+01
1.303200914927e+01
1.060653754816e+01
2.031420536950e+01
1.795661718366e+01
2.010997481507e+01
1.744879213103e+01
2.019171292206e+01
1.918360198201e+01
1.689294197684e+01
1.974607372079e+01
1.999061722157e+01
2.022437806113e+01
1.873960013714e+01
1.855644024246e+01
1.891031486596e+01
7.674625764482e+00
1.569395738867e+00
1.997094468244e+01
1.494113531343e+01
1.560081351806e+01
1.003207694395e+01
1.248348916308e+01
1.814157434738e+01
1.792152085782e+01
1.959902554479e+01
1.973815428230e+01
1.928836663250e+01
1.917736004293e+01
1.883275055880e+01
1.866594783370e+01
2.015734441515e+01
2.028511069222e+01
1.575529016473e+01
1.530695457460e+01
1.559718183294e+01
2.021078462660e+01
2.021951279028e+01
2.014843441753e+01
-2.387866013480e+00
2.389788048571e+00
6.789481804202e+00
3.916110973528e+00
2.017280331690e+01
2.006784818731e+01
2.028716456739e+01
1.191994692885e+01
1.962073226890e+01
2.017111304131e+01
2.009075912468e+01
2.027775178163e+01
1.996433993164e+01
2.017138628573e+01
2.017498820464e+01
-1.052217574704e+01
2.015223517438e+01
1.858790649290e+01
-1.886947294325e+01
1.837871144545e+01
1.863887954794e+01
1.813983637991e+01
9.204614266163e+00
1.844370781639e+01
1.870180831294e+01
-1.140996942044e+01
2.030827125869e+01
-9.273824901845e+00
-3.696357068885e+00
2.020729645224e+01
2.010296672393e+01
2.029727077654e+01
2.018979555506e+01
1.998354443646e+01
2.007605334193e+01
1.834777128839e+01
2.028738762306e+01
2.016601337268e+01
2.037924985716e+01
1.661760478805e+01
1.454948411353e+01
1.396424139441e+01
1.218135803014e+01
2.026420251670e+01
2.015388208172e+01
1.978058425341e+01
1.952456404940e+01
1.843102592006e+01
1.840119416800e+01
1.878554138257e+01
1.873261674230e+01
1.907377277465e+01
1.900767088640e+01
1.930902904229e+01
2.028468588813e+01
9.337191376318e+00
1.734582730196e+01
2.022564755661e+01
2.012129975161e+01
1.647972414806e+01
1.564707069811e+01
2.027576685107e+01
1.593166470030e+01
2.041383008071e+01
-1.579552683169e+01
-1.296572802263e+01
1.643219406329e+01
1.718569748107e+01
1.520708012394e+01
1.477480394649e+01
1.947964293482e+01
-9.026960283328e-01
8.958876469553e+00
1.934403438677e+01
4.741045547061e+00
1.965808470065e+01
1.633583973492e+01
1.769187080709e+01
1.162229861554e+01
1.508640373673e+01
1.876155238657e+01
1.842730236400e+01
1.817486130148e+01
1.669407658173e+01
1.544413958365e+01
1.416923816497e+01
1.849184371109e+01
1.985088530401e+01
1.995394101565e+01
2.015054460899e+01
2.004835281848e+01
1.982900493343e+01
1.992535057162e+01
2.013652334960e+01
2.001901428352e+01
2.025674610640e+01
2.011273009133e+01
1.989655284345e+01
1.999993536930e+01
2.018761145392e+01
1.976672383800e+01
2.032312220919e+01
1.717804647069e+01
-2.954691047717e+00
-4.117980788735e+00
1.798764591206e+01
2.043793807224e+01
2.043737461804e+01
1.473155487505e+01
2.043053578733e+01
1.836508170285e+01
1.091991711172e+01
2.043260818780e+01
1.971910615558e+01
1.957713751003e+01
1.945603089848e+01
2.043693436410e+01
1.908050655126e+01
2.044516565599e+01
1.897516171742e+01
1.881423190306e+01
1.841444183121e+01
1.979419010474e+01
2.043278885764e+01
2.030370508340e+01
2.029343409983e+01
2.014436405642e+01
2.042910612011e+01
2.043597726892e+01
2.044367356902e+01
1.402315561529e+01
1.480467402619e+01
1.588931352628e+01
1.545157888737e+01
1.421986029770e+01
1.495394793143e+01
1.600639552835e+01
1.439117098511e+01
1.995712023989e+01
2.044157338160e+01
1.895270315450e+01
1.879023517444e+01
1.838095582684e+01
1.733630584011e+01
1.768012874443e+01
1.820489409630e+01
1.695233070248e+01
1.937825911260e+01
2.043789424420e+01
1.887943482907e+01
1.741655556343e+01
1.799341594411e+01
1.841012851329e+01
1.841807749191e+01
1.878740658607e+01
1.843999147157e+01
1.834876445521e+01
1.854211334997e+01
1.829910322349e+01
1.871633065155e+01
1.847925163749e+01
1.805051840661e+01
1.886982380281e+01
1.864038583227e+01
1.797992166800e+01
-3.972032621276e+01
-1.288959836081e+01
-1.339513482471e+01
-1.406615566849e+00
-7.930762046332e-01
5.396235819719e+00
4.823196899881e+00
-1.301530483671e+01
-4.017184504097e+01
-1.352192756968e+01
-4.046939759253e+01
-1.395187451043e+01
-4.990106291480e-01
7.920736602538e+00
2.042125350377e+01
1.716561044219e+01
1.683830662577e+01
1.598033615068e+01
1.646881342391e+01
1.745324118617e+01
1.542683828084e+01
1.501647402923e+01
-3.989860235124e+01
-1.324601648261e+01
-1.505443516585e+01
-1.136136406107e+00
-1.263041246414e+00
-1.304823765382e+01
-1.307124361971e+01
-4.012838383723e+01
-1.330565675458e+01
-9.196954243713e-01
-4.122196169013e+01
1.968258843290e+01
1.982716471108e+01
2.043684545136e+01
1.802708063051e+01
-4.009557181917e+01
2.041230691570e+01
2.043649374650e+01
2.043185700589e+01
2.012233237201e+01
2.021405634235e+01
2.042012520677e+01
1.389550368647e+01
2.022580740078e+01
2.008985676975e+01
9.757448343763e+00
1.356023708602e+01
1.938947607083e+01
1.901434900491e+01
1.993003073354e+01
1.911747020649e+01
1.972417295893e+01
2.028229297881e+01
7.985181545762e+00
1.913834604659e+01
1.901812791634e+01
1.973726128638e+01
1.435190964340e+01
1.781376000531e+01
8.955222524672e+00
2.029917607513e+01
1.805079914920e+01
1.811931072397e+01
1.661178518412e+01
1.471224531229e+01
1.282601063585e+01
1.753845599328e+01
1.775222442047e+01
1.953574627237e+01
1.987204046374e+01
-3.588973915916e+01
1.968213535007e+01
1.869358652573e+01
1.925827956308e+01
1.969366270469e+01
7.815346356325e+00
1.982305822574e+01
2.019421602534e+01
1.887846840001e+01
4.361657935354e+00
1.879423138566e+01
2.015775178711e+01
1.974718276064e+01
1.346258747847e+01
1.830193688359e+01
1.791808022380e+01
1.741609562488e+01
2.018213318091e+01
1.846055252468e+01
1.990116797589e+01
1.907552532111e+01
1.417257849471e+01
1.989536396172e+01
1.816142236550e+01
2.004308367729e+01
1.956401179918e+01
1.691747491530e+01
1.989698652653e+01
1.818016707794e+01
1.982836375684e+01
1.776755555447e+01
1.897487826772e+01
1.936403708577e+01
1.873023547517e+01
1.922343600544e+01
1.979367909711e+01
8.779548390723e+00
1.609631056410e+01
1.921692836093e+01
2.000745981532e+01
2.023505730035e+01
1.736553667509e+01
1.975815702299e+01
2.010831930409e+01
1.798711568371e+01
1.004094777330e+01
6.113813155151e+00
1.510006346169e+01
1.821638449804e+01
1.846029507850e+01
2.028142072536e+01
1.985769360012e+01
1.960129701654e+01
-9.923037145254e+00
1.765870306788e+01
1.995496816008e+01
1.849050690015e+01
1.992562595757e+01
1.821507348973e+01
2.029601853946e+01
1.615768559449e+01
2.005962943224e+01
1.963156004005e+01
1.537567470274e+01
1.796856333306e+01
2.028471929954e+01
1.988146850689e+01
1.907601985798e+01
1.824007556345e+01
1.670568592793e+01
1.864218140500e+01
1.915890420135e+01
2.044019964988e+01
2.000493578100e+01
1.929535437190e+01
1.840395831328e+01
1.932446565044e+01
-1.239405451443e+00
1.699818817449e+01
1.859032374071e+01
1.557711264926e+01
1.843481407173e+01
2.024714216805e+01
1.876558423463e+01
1.648930556015e+01
1.892711987269e+01
1.580748391509e+01
1.942585846949e+01
1.907306410026e+01
1.944893495406e+01
-2.529236937661e-01
1.921494452340e+01
2.000757970171e+01
1.599796652141e+01
1.861737403249e+01
1.969153984874e+01
1.462773557729e+01
1.899132979223e+01
1.970576932649e+01
1.934732648516e+01
1.864202432316e+01
1.931614169669e+01
1.506431406199e+01
1.321036817123e+01
1.111534876656e+01
1.682538279531e+01
1.983755606038e+01
5.074268955310e+00
1.965863070681e+01
6.095904507574e+00
1.638725659604e+01
1.973766114398e+01
1.912233445507e+01
1.672857333989e+01
1.249705019673e+01
1.627521679642e+01
1.900668464274e+01
1.662465506746e+01
1.615057263848e+01
2.028716366172e+01
1.650433114662e+01
2.043234050852e+01
2.041973552346e+01
1.835136224997e+01
1.301823157118e+01
-3.893996967049e+01
1.356191021472e+01
1.494741679490e+01
1.963001287596e+01
1.836119194352e+01
1.416854399378e+01
2.029106629531e+01
2.044479533283e+01
1.955441868147e+01
2.002233201563e+01
1.947823732994e+01
2.012060769556e+01
1.792568765036e+01
-1.393734165491e+01
1.937944824991e+01
1.060031088282e+01
1.087501362965e+01
7.350946297126e+00
1.470809290346e+01
-1.636358182627e+00
7.707775008880e+00
2.029069468325e+01
1.836007055262e+01
1.985835825274e+01
1.992820658486e+00
2.029493657181e+01
2.029361602018e+01
2.044852510338e+01
2.007340265629e+01
1.080956565859e+00
1.871117591050e+01
2.030401915844e+01
1.975389959798e+01
2.044597848352e+01
1.830089695246e+01
2.030306677576e+01
6.647744523304e+00
2.030555942609e+01
1.987069510088e+01
1.886246780961e+01
1.869473364346e+01
2.030488921966e+01
2.031221559095e+01
-4.543068478398e+00
1.952886754417e+01
1.648482704935e+01
-1.606407391312e+01
2.030591800154e+01
2.008113154490e+01
2.031142385329e+01
-1.342149630043e+00
-1.537125729767e+01
2.032798583808e+01
2.031540384711e+01
8.596798607786e+00
2.046214860566e+01
-1.693351677796e+01
1.786299358761e+01
-1.487288139341e+01
2.044201548881e+01
2.032174406723e+01
1.714956290585e+01
1.799188269558e+01
1.373438455144e+01
2.017667523418e+01
-3.181250836070e+00
2.033984615772e+01
2.033827463386e+01
2.033340379699e+01
2.047369839336e+01
-1.668185602758e+01
2.034517432041e+01
2.017711130795e+01
1.793869377351e+01
2.030628022466e+01
1.564023773307e+01
4.801690030513e+00
2.044580797290e+01
-1.480089881212e+01
1.791964606231e+01
2.045690221807e+01
3.908630737587e+00
1.865870680118e+01
2.031820579349e+01
1.836327641588e+01
2.000448210815e+01
3.662249444677e+00
-1.870932780409e+01
1.928541857843e+01
2.033277005065e+01
2.034580238279e+01
1.906658193096e+01
1.600425815468e+00
2.022664150905e+01
1.759267474185e+01
2.020475106410e+01
2.019555859952e+01
-3.955559490370e+01
1.872981536155e+01
-1.631223567916e+01
2.034455159577e+01
1.787356282867e+01
2.007907057640e+01
-1.339142234264e+01
-1.855816582260e+01
-1.692700635882e+01
-2.180461103665e+00
-8.882442750811e-01
5.322908084297e+00
5.783753318176e+00
9.508570304543e+00
9.996791503048e+00
1.214420172751e+01
1.238661401441e+01
1.398870786696e+01
1.423280189170e+01
1.531610454995e+01
1.544032414247e+01
1.632039161636e+01
1.646589982279e+01
1.711274416446e+01
1.720185553950e+01

SCALARS node_materi_stress_average_a_sig float
LOOKUP_TABLE default
-5.325479683794e+00
-1.212776169081e+02
-2.371183495681e+02
-2.371576831786e+02
-1.275014214157e+01
-2.446384984328e+01
-3.565013989723e+01
-4.833844226411e+01
-6.053064970383e+01
-7.266452878795e+01
-8.474704149364e+01
-9.680076279451e+01
-1.088804746150e+02
-1.210379013577e+02
-1.334750543698e+02
-1.457039424651e+02
-1.568613128164e+02
-1.690104652943e+02
-1.815282414540e+02
-1.936803502074e+02
-2.059192203914e+02
-2.182583354259e+02
-2.301293612838e+02
-2.378477733415e+02
-2.371502333679e+02
-2.373154520912e+02
-2.372740644514e+02
-2.368714166453e+02
-2.372756762986e+02
-2.374386601078e+02
-2.371502798378e+02
-2.376045243418e+02
-2.375423985467e+02
-2.371342227274e+02
-2.374711241515e+02
-2.377505060112e+02
-2.374512281711e+02
-2.373132730169e+02
-2.368231052272e+02
-2.367139352125e+02
-2.371862482865e+02
-2.373901037524e+02
-2.376072588425e+02
-2.375317509251e+02
-2.374441439387e+02
-2.373971924651e+02
-2.373429353835e+02
-2.374435921644e+02
-2.376238599739e+02
-2.376266879841e+02
-2.377460963801e+02
-2.375593470694e+02
-2.380004447789e+02
-2.378223064495e+02
-2.372238128648e+02
-2.372054233280e+02
-2.373936408034e+02
-2.374856611974e+02
-2.374469543363e+02
-2.376080269090e+02
-2.373465527200e+02
-2.372474073267e+02
-2.369067334314e+02
-2.371092092431e+02
-2.377527810999e+02
-2.379857052657e+02
-2.362805729099e+02
-2.376878106881e+02
-2.370507837156e+02
-2.373597586805e+02
-2.378122493430e+02
-2.377320190116e+02
-1.336661281469e+02
-1.457830525750e+02
-1.578684337644e+02
-1.696920772525e+02
-1.817583514958e+02
-1.939488893071e+02
-2.058946758875e+02
-2.177801629936e+02
-2.299716851449e+02
-4.528131407497e+00
-4.667374382391e+00
-1.213627155788e+02
-1.161175500916e+01
-2.366023219701e+01
-3.582007519053e+01
-4.762249720503e+01
-5.982980360024e+01
-7.214676222560e+01
-8.427417559648e+01
-9.643729439707e+01
-1.086202928552e+02
-1.215420675564e+01
-2.401791747813e+01
-3.610135881288e+01
-4.821711136000e+01
-6.035122859383e+01
-7.248733163362e+01
-8.462703491897e+01
-9.675680105172e+01
-1.088349189774e+02
-1.197622157248e+02
-1.205463988577e+02
-1.205415316734e+02
-1.204033410262e+02
-1.220768893042e+02
-1.206021864057e+02
-1.205220286456e+02
-1.206121181158e+02
-1.208122070913e+02
-1.207271011077e+02
-1.207093883634e+02
-1.206268741004e+02
-1.206791296530e+02
-1.208457779091e+02
-4.566992120876e+00
-4.751906308927e+00
-4.431286296979e+00
-4.366425732311e+00
-4.881617005662e+00
-5.063326468852e+00
-5.027605754073e+00
-4.992008406225e+00
-4.988300739149e+00
-5.018552271541e+00
-5.096448266387e+00
-5.459758408435e+00
-5.265447077388e+00
-4.797550018020e+00
-4.851548196408e+00
-4.978595450129e+00
-4.981297580213e+00
-4.778695188531e+00
-4.496384788597e+00
-2.715536927195e+00
-5.367784758288e+00
-5.900771278300e+00
-5.793512979017e+00
-5.867486731641e+00
-5.843324676014e+00
-5.864720735884e+00
-5.859480613127e+00
-5.867578077416e+00
-5.868661555694e+00
-5.873409014622e+00
-5.877026320836e+00
-5.881448595204e+00
-5.885137820065e+00
-5.888154871298e+00
-5.890058033969e+00
-5.890789514365e+00
-5.890282842298e+00
-5.888617185475e+00
-5.885871533527e+00
-5.882058215013e+00
-5.877037382410e+00
-5.870450033968e+00
-5.861641673089e+00
-5.849626995452e+00
-5.833298343022e+00
-5.814764795091e+00
-5.858945157663e+00
-5.735792554685e+00
-1.214077880056e+01
-1.209268694069e+01
-1.213952344689e+01
-1.215473217537e+01
-1.216256764031e+01
-1.216880430286e+01
-1.217388110509e+01
-1.217799938344e+01
-1.218131524314e+01
-1.218391553950e+01
-1.218581378944e+01
-1.218697944522e+01
-1.218736248048e+01
-1.218694533077e+01
-1.218571464604e+01
-1.218383004223e+01
-1.218126554930e+01
-1.217860933880e+01
-1.217520536542e+01
-1.217341868703e+01
-1.216895295377e+01
-1.217088369859e+01
-1.215902067923e+01
-1.217181043898e+01
-1.213448974504e+01
-1.218160943834e+01
-1.269453768401e+01
-1.065986488414e+01
-2.251961208962e+01
-2.457468829969e+01
-2.398551553941e+01
-2.391824756076e+01
-2.396350065981e+01
-2.395233902510e+01
-2.396341800219e+01
-2.396158914322e+01
-2.396507760728e+01
-2.396623104371e+01
-2.396824332475e+01
-2.396956326834e+01
-2.397070446034e+01
-2.397122363820e+01
-2.397121419797e+01
-2.397068537779e+01
-2.396966108532e+01
-2.396809062180e+01
-2.396599696683e+01
-2.396348084818e+01
-2.396080189249e+01
-2.395858411512e+01
-2.395832265576e+01
-2.396334434683e+01
-2.397998688014e+01
-2.399788448229e+01
-3.457762090472e+01
-3.663262949116e+01
-3.606508581683e+01
-3.599459444079e+01
-3.604002912365e+01
-3.602049409287e+01
-3.603139367165e+01
-3.602717936677e+01
-3.603020431186e+01
-3.602981593153e+01
-3.603134353390e+01
-3.603195028061e+01
-3.603261260332e+01
-3.603286648035e+01
-3.603294247893e+01
-3.603257939055e+01
-3.603173177114e+01
-3.603054449859e+01
-3.602933912047e+01
-3.602871781827e+01
-3.602965092725e+01
-3.603364473802e+01
-3.604229185703e+01
-3.605494196807e+01
-3.608979531632e+01
-4.820984241880e+01
-4.819345038451e+01
-4.818563285059e+01
-4.818088737570e+01
-4.817851187923e+01
-4.817750432968e+01
-4.817699187897e+01
-4.817664362789e+01
-4.817611408998e+01
-4.817518913301e+01
-4.817388464008e+01
-4.817250118437e+01
-4.817201141242e+01
-4.817151309631e+01
-4.817217915272e+01
-4.817077056470e+01
-4.817570352175e+01
-4.817012268106e+01
-4.818771043750e+01
-4.815417467109e+01
-4.823345573044e+01
-4.881909602561e+01
-4.679041942429e+01
-5.894878941458e+01
-6.098242142725e+01
-6.038975953296e+01
-6.030317565742e+01
-6.033882177741e+01
-6.031206576030e+01
-6.032057155072e+01
-6.031431657354e+01
-6.031671579042e+01
-6.031657658681e+01
-6.031938572962e+01
-6.032203616794e+01
-6.032461293202e+01
-6.032658387772e+01
-6.032776882104e+01
-6.032867320006e+01
-6.032948066936e+01
-6.033067024523e+01
-6.033333926326e+01
-6.033823679998e+01
-6.034556209387e+01
-6.035048285114e+01
-7.248475841580e+01
-7.247925747070e+01
-7.247727557784e+01
-7.247640112556e+01
-7.247684298277e+01
-7.247701417019e+01
-7.247574811819e+01
-7.247272428682e+01
-7.247025181830e+01
-7.246603739561e+01
-7.246171673219e+01
-7.245735195161e+01
-7.245090261705e+01
-7.245482602154e+01
-7.245018597138e+01
-7.246922577393e+01
-7.243938533086e+01
-7.252035517649e+01
-7.313037097536e+01
-7.110073046152e+01
-8.321538500873e+01
-8.525858162456e+01
-8.466947343073e+01
-8.457322577980e+01
-8.460652171138e+01
-8.458255320338e+01
-8.460089518496e+01
-8.460863593890e+01
-8.461193517629e+01
-8.461729523401e+01
-8.462455101671e+01
-8.462768380841e+01
-8.463120678089e+01
-8.462883889217e+01
-8.462806883454e+01
-8.462503713683e+01
-8.462702945199e+01
-8.462835068934e+01
-8.462977572430e+01
-9.676473890252e+01
-9.676269970128e+01
-9.676152402446e+01
-9.676725855495e+01
-9.677565959015e+01
-9.677717090156e+01
-9.678592415251e+01
-9.677499529381e+01
-9.676030469514e+01
-9.675741101531e+01
-9.675490387316e+01
-9.674677359437e+01
-9.673202923488e+01
-9.667836328257e+01
-9.676956205855e+01
-9.741862801166e+01
-9.539202852691e+01
-1.075036766152e+02
-1.094410910519e+02
-1.088700391068e+02
-1.088872666628e+02
-1.089079655407e+02
-1.089246545146e+02
-1.088950086794e+02
-1.088988540528e+02
-1.089768034370e+02
-1.089353717812e+02
-1.089317535076e+02
-1.089255581953e+02
-1.089213419145e+02
-1.088875974285e+02
-1.089476580977e+02
-1.089428229810e+02
-6.882101620912e+00
-1.880672674120e+01
-3.100449757324e+01
-4.319141759403e+01
-5.513688151855e+01
-6.739534370245e+01
-7.946101854414e+01
-9.163303403177e+01
-1.037896045394e+02
-1.160478707376e+02
-2.880723197093e+01
-2.322541809735e+02
-1.035694507290e+01
-9.952640317860e+00
-2.322485201831e+02
-5.334792457530e+01
-1.277212590310e+02
-2.318323071283e+02
-7.658501026444e+01
-2.323939142761e+02
-1.014168095215e+02
-2.331211866648e+02
-1.002422875849e+01
-2.324427684317e+02
-1.261462950029e+02
-7.928472357718e+01
-1.610023717038e+02
-2.319705921515e+02
-2.324382215132e+02
-2.322378869812e+02
-2.312656817997e+02
-2.326115899364e+02
-1.317982374427e+02
-1.318627337340e+02
-1.327084655200e+02
-1.758332112333e+02
-2.323170290099e+02
-9.987185715425e+00
-1.052877972340e+01
-1.993625489173e+02
-1.312236759769e+02
-4.192781655787e+01
-2.302774399556e+02
-2.329707858677e+02
-2.324007480589e+02
-2.313492969637e+02
-2.325746741851e+02
-1.058631056831e+01
-1.314452102155e+02
-2.303631035728e+02
-1.995757639907e+02
-1.057617451232e+01
-1.029025312887e+02
-2.339542586806e+02
-6.582462047442e+01
-4.117454578480e+01
-8.900143518070e+01
-1.136484422208e+02
-1.570508916527e+01
-1.528420706925e+02
-2.342728403174e+02
-1.006168519489e+01
-2.232032210277e+02
-1.319389200881e+02
-1.368513998320e+02
-1.426518395851e+02
-1.482938768362e+02
-1.546506725542e+02
-1.597550550159e+02
-1.534413990312e+02
-1.649324413992e+02
-1.585153498629e+02
-1.663110847438e+02
-1.700657497311e+02
-1.635972768747e+02
-1.751757632704e+02
-1.686862509798e+02
-1.571899691448e+02
-1.622466983892e+02
-1.507893079476e+02
-1.558277341372e+02
-1.673153676564e+02
-1.608728095413e+02
-1.493917103591e+02
-1.544156564419e+02
-1.429670250684e+02
-1.479803669883e+02
-1.365161314134e+02
-1.415382073230e+02
-1.530174393877e+02
-1.465580356456e+02
-1.350948065041e+02
-1.401016831794e+02
-1.286491399764e+02
-1.336234283639e+02
-1.451137459806e+02
-1.386275249542e+02
-1.270834327207e+02
-1.321184359442e+02
-1.205167027717e+02
-1.256116328094e+02
-1.139442404392e+02
-1.190406702928e+02
-1.306881414719e+02
-1.241321072888e+02
-1.124353999368e+02
-1.175182798375e+02
-1.292443123679e+02
-1.226115720052e+02
-1.343626328017e+02
-1.277196298445e+02
-1.160166937797e+02
-1.210991157989e+02
-1.328241040700e+02
-1.261590765572e+02
-1.144833615569e+02
-1.195403980750e+02
-1.312534124918e+02
-1.246114279950e+02
-1.129334563685e+02
-1.179928501148e+02
-1.297642333591e+02
-1.230731663772e+02
-1.113441110315e+02
-1.163848677103e+02
-1.282253476258e+02
-1.214645090746e+02
-1.333951379684e+02
-1.095880313973e+02
-1.146631435846e+02
-1.027253529317e+02
-1.078504429404e+02
-1.501475965820e+02
-9.587864151512e+01
-9.089972723716e+01
-1.010411358245e+02
-1.130740686180e+02
-8.902261270841e+01
-9.422621863498e+01
-8.217791067101e+01
-1.086508456835e+02
-1.724023947736e+02
-8.741269364158e+01
-7.533580016207e+01
-7.011313078676e+01
-6.327790236673e+01
-1.611600149169e+02
-1.728398491466e+02
-1.672838892273e+02
-1.793392748926e+02
-1.739867879787e+02
-6.849360774301e+01
-1.817992567654e+02
-1.846569884871e+02
-1.379846848065e+02
-1.236639963885e+02
-1.410107790754e+02
-9.946004086686e+01
-9.268066803689e+01
-1.047125807423e+02
-1.401623854765e+02
-1.453666641934e+02
-1.521433935327e+02
-1.573593626282e+02
-1.641468771914e+02
-1.693703226464e+02
-1.625740732827e+02
-1.745915293057e+02
-1.677898787286e+02
-1.761648067738e+02
-1.709103934821e+02
-1.798099165796e+02
-1.730080908050e+02
-1.850384754692e+02
-1.782318330564e+02
-1.661811718777e+02
-1.713948000367e+02
-1.593851065513e+02
-1.461503165663e+02
-1.528209006818e+02
-1.579699938613e+02
-1.646570102174e+02
-1.698221015498e+02
-1.765111851509e+02
-1.816711770697e+02
-1.749891611743e+02
-1.802289225087e+02
-1.058196757897e+02
-1.007434050226e+02
-9.413958600223e+01
-8.907562594263e+01
-8.247115369594e+01
-7.743271654074e+01
-7.077822535135e+01
-7.584080880286e+01
-6.409017821238e+01
-6.919189200499e+01
-5.738138945434e+01
-6.248425845381e+01
-1.580569048661e+02
-1.713294612736e+02
-1.832078058570e+02
-1.779356453378e+02
-5.804672546067e+01
-1.834698497707e+02
-1.829503992090e+02
-1.776270125012e+02
-1.868800682548e+02
-5.653922605849e+01
-6.582268113281e+01
-7.239693190790e+01
-1.858754192129e+02
-1.805103953310e+02
-1.897345825415e+02
-6.174724208665e+01
-1.866132892111e+02
-5.235830028462e+01
-1.766280173720e+02
-1.887004585446e+02
-1.557945351532e+02
-1.898920669183e+02
-1.844961571168e+02
-7.434679019710e+01
-6.762496512206e+01
-5.598469034919e+01
-6.132589972849e+01
-7.286496688309e+01
-6.610797482891e+01
-5.441776024951e+01
-5.931763017943e+01
-7.117073363075e+01
-6.435632236319e+01
-5.243710291010e+01
-5.745915841288e+01
-1.955084828159e+02
-4.563482317962e+01
-1.457562361229e+02
-1.949806180504e+02
-1.934198549248e+02
-1.924563166479e+02
-1.870823162608e+02
-1.750755653592e+02
-1.816913820202e+02
-1.937083296221e+02
-1.883109195571e+02
-1.762697115932e+02
-1.828859200727e+02
-1.708289601532e+02
-1.774480013547e+02
-1.895180837284e+02
-1.840929573840e+02
-1.720069587214e+02
-1.786472930424e+02
-1.665338450553e+02
-1.731509416024e+02
-1.853100626639e+02
-5.015475872751e+01
-1.801690963187e+02
-1.921752174272e+02
-9.825057463324e+01
-1.098493778666e+02
-1.167242271860e+02
-1.220948309987e+02
-1.797422784837e+02
-1.919441634910e+02
-6.091518162942e+01
-6.740213038008e+01
-1.978017239695e+02
-1.819015048762e+02
-1.698323596894e+02
-1.172235609832e+02
-1.122322565321e+02
-1.057567425776e+02
-1.005910861405e+02
-1.072258339748e+02
-9.397556868310e+01
-1.655339661082e+02
-1.961777612754e+02
-6.493914974609e+01
-5.291787322478e+01
-1.939653535979e+02
-1.682505736063e+02
-1.645442551205e+02
-1.696185289672e+02
-1.761549734096e+02
-1.812581256650e+02
-1.878350082935e+02
-1.929121340183e+02
-1.863892617835e+02
-1.965429386982e+02
-1.980664550040e+02
-1.674866885461e+02
-1.660024031212e+02
-7.629965650405e+01
-4.473081941028e+01
-4.515701008034e+01
-5.485304075654e+01
-6.694491863415e+01
-2.018002363758e+02
-1.995226981078e+02
-1.943230345483e+02
-9.571335446131e+01
-1.023420627481e+02
-2.018286290847e+02
-1.621150314274e+02
-1.642610251118e+02
-1.587453431601e+02
-4.191150546016e+01
-4.066981681712e+01
-2.003557075160e+02
-7.885899873293e+01
-7.386109724251e+01
-4.052193461037e+01
-3.380347638677e+01
-1.862604947593e+02
-1.983850327829e+02
-1.288188644120e+02
-1.341030811536e+02
-1.965594725751e+02
-5.055278300643e+01
-2.041163658019e+02
-1.734532237771e+02
-1.615089369131e+02
-1.151910467233e+02
-5.607682007118e+01
-4.954877408231e+01
-8.305077827261e+01
-6.261007675994e+01
-6.006293324170e+01
-2.086041274245e+02
-2.056834656601e+02
-1.915727727989e+02
-1.798002584073e+02
-2.033868449660e+02
-3.861082784566e+01
-2.071659589086e+02
-1.872025207679e+02
-2.055615910049e+02
-2.008058197309e+02
-8.526748299014e+01
-8.044563806950e+01
-6.904902737388e+01
-7.565658073341e+01
-1.470488300462e+02
-9.189857891027e+01
-1.393828323084e+02
-1.343867919959e+02
-1.280915260221e+02
-1.136746325364e+02
-1.088281839099e+02
-9.560104534338e+01
-1.476292042069e+02
-1.235559238449e+02
-1.542005263405e+02
-1.469009387766e+02
-2.015211160969e+02
-2.082489327134e+02
-1.599067781552e+02
-1.544196352044e+02
-4.599555307078e+01
-4.086451630392e+01
-1.385952426486e+02
-2.001552320360e+02
-2.042822953643e+02
-2.096231235761e+02
-2.030685616088e+02
-2.032369008933e+02
-9.922562579364e+01
-1.512755481735e+02
-3.894599456471e+01
-1.566159564071e+02
-3.409186845584e+01
-1.788193735278e+02
-1.993248132339e+02
-2.059847674000e+02
-2.083240969587e+02
-1.308864212658e+02
-1.616935245901e+02
-1.552379962347e+02
-1.231705873473e+02
-1.169506227933e+02
-1.217768259160e+02
-1.106389969529e+02
-8.809445589397e+01
-8.130842981252e+01
-2.120776133622e+02
-2.096210708827e+02
-2.122026638938e+02
-2.076987343752e+02
-2.136630114181e+02
-2.069690989311e+02
-7.177687258508e+01
-9.762227542127e+01
-2.123831895610e+02
-1.293802648874e+02
-2.120176028001e+02
-2.054162975684e+02
-2.714689352236e+01
-3.186125763858e+01
-2.106780466452e+02
-6.419289378885e+01
-7.047834008870e+01
-5.773012329058e+01
-2.239508399276e+02
-1.309492005785e+02
-2.114633446988e+02
-1.201806644519e+02
-2.164896388757e+02
-1.669273520390e+02
-1.105345025374e+02
-1.911872593288e+02
-2.042356934132e+02
-2.174497654132e+02
-1.522331927154e+02
-1.463043419378e+02
-1.573692921718e+02
-4.736568850235e+01
-3.450452357557e+01
-2.027853380346e+02
-8.591028665026e+01
-9.235371504482e+01
-5.540508684919e+01
-6.736827560114e+01
-1.355653589350e+02
-1.303397317704e+02
-1.840008772141e+02
-1.904543952996e+02
-1.710305325117e+02
-1.667420864054e+02
-1.547994981494e+02
-1.496725081847e+02
-2.132561464771e+02
-2.213164603576e+02
-9.476831164394e+01
-8.972474040625e+01
-9.297430724367e+01
-2.176822454072e+02
-2.179186931407e+02
-2.125385014961e+02
-2.908590089597e+01
-3.561851831035e+01
-4.481926188588e+01
-3.846594946930e+01
-2.146261123279e+02
-2.084281969816e+02
-2.222250126316e+02
-6.415115398067e+01
-1.851692399263e+02
-2.147900324540e+02
-2.095329667027e+02
-2.217082577476e+02
-2.028703572529e+02
-2.142749569028e+02
-2.149757824179e+02
-2.212124353887e+01
-2.132877043820e+02
-1.472213245026e+02
-1.731278508703e+01
-1.418251897989e+02
-1.487762327055e+02
-1.355978346329e+02
-5.234554442718e+01
-1.435234558654e+02
-1.507525363359e+02
-2.198743448734e+01
-2.241411067805e+02
-2.284035707571e+01
-2.767853203655e+01
-2.174766034996e+02
-2.105858648817e+02
-2.221994943256e+02
-2.152841491670e+02
-2.037261893569e+02
-2.091453719264e+02
-1.403203831300e+02
-2.224258854567e+02
-2.147126493277e+02
-2.280021732093e+02
-1.060502531473e+02
-8.200903906562e+01
-7.707805002724e+01
-6.536153881471e+01
-2.208046962449e+02
-2.135446943212e+02
-1.929154346048e+02
-1.807076428702e+02
-1.424367220563e+02
-1.418159143875e+02
-1.528040134313e+02
-1.513352022093e+02
-1.623674869429e+02
-1.607330188041e+02
-1.719926639391e+02
-2.216613888548e+02
-5.271342783429e+01
-1.183334464357e+02
-2.186416748611e+02
-2.111791116243e+02
-1.040543601585e+02
-9.315903643897e+01
-2.206075246206e+02
-9.679513207580e+01
-2.309314290276e+02
-9.965326931159e+00
-2.095702216573e+01
-1.034908662544e+02
-1.153585235196e+02
-8.870537217152e+01
-8.447345235316e+01
-1.788860475037e+02
-3.101702213034e+01
-5.132917511956e+01
-1.733763744830e+02
-4.010374590067e+01
-1.871043405369e+02
-1.021145936090e+02
-1.250743517496e+02
-6.256175280344e+01
-8.730575362422e+01
-1.521128185995e+02
-1.420068450167e+02
-1.357385566731e+02
-1.073298166320e+02
-9.108445414424e+01
-7.878454987055e+01
-1.443770349785e+02
-1.965257821966e+02
-2.017649088607e+02
-2.132433032086e+02
-2.069643439477e+02
-1.952350651997e+02
-2.004493570019e+02
-2.121681286237e+02
-2.060116641058e+02
-2.197143288914e+02
-2.110799488630e+02
-1.989596089105e+02
-2.037911422182e+02
-2.149470477685e+02
-1.919949301723e+02
-2.250830817344e+02
-1.153528548183e+02
-2.858216348062e+01
-2.702919821176e+01
-1.315595988217e+02
-2.316357156028e+02
-2.320598055859e+02
-8.396063536843e+01
-2.322741038284e+02
-1.407108350492e+02
-5.911342470970e+01
-2.324076112062e+02
-1.899588395681e+02
-1.832901985115e+02
-1.780669860848e+02
-2.327871914788e+02
-1.629262900753e+02
-2.328164952598e+02
-1.594628901968e+02
-1.541404153736e+02
-1.423689821241e+02
-1.937372646348e+02
-2.321237529082e+02
-2.223292883847e+02
-2.223361197427e+02
-2.115386632856e+02
-2.322962343723e+02
-2.328107141154e+02
-2.331038246942e+02
-7.794139107876e+01
-8.467452351052e+01
-9.636437000741e+01
-9.130148543287e+01
-7.951831638644e+01
-8.615681931077e+01
-9.783899808592e+01
-8.096691308388e+01
-2.021971163639e+02
-2.326914261991e+02
-1.588872031300e+02
-1.535236511641e+02
-1.416158990901e+02
-1.183272840258e+02
-1.251054863702e+02
-1.370991868862e+02
-1.115223427329e+02
-1.746906524845e+02
-2.325768464667e+02
-1.563891166257e+02
-1.198561668977e+02
-1.316452644286e+02
-1.421934081482e+02
-1.423408325203e+02
-1.537875982917e+02
-1.433102030154e+02
-1.407949066643e+02
-1.460256019056e+02
-1.394029952471e+02
-1.512620144338e+02
-1.443970440074e+02
-1.334059108906e+02
-1.562937205384e+02
-1.486036595206e+02
-1.315554766034e+02
-1.059577018941e+01
-2.075824400582e+01
-2.049096007315e+01
-3.031503132095e+01
-3.104300420178e+01
-4.174190286823e+01
-4.024895846296e+01
-2.076824020212e+01
-1.047865164399e+01
-2.045004738696e+01
-1.038498167756e+01
-2.015071154536e+01
-3.172779068165e+01
-4.802901860820e+01
-2.307105385412e+02
-1.148598119851e+02
-1.090047635285e+02
-9.745674029837e+01
-1.036881598555e+02
-1.196263869591e+02
-9.103795500555e+01
-8.672258284966e+01
-1.049941301853e+01
-2.047110009522e+01
-1.948694694367e+01
-3.064680139717e+01
-3.050314058917e+01
-2.069916495561e+01
-2.069720541208e+01
-1.045594274117e+01
-2.062060871342e+01
-3.100945310350e+01
-1.014912840894e+01
-1.879712432406e+02
-1.945307883028e+02
-2.318988103999e+02
-1.329002978576e+02
-1.053565438751e+01
-2.303194053429e+02
-2.323085983574e+02
-2.325618049880e+02
-2.117684231990e+02
-2.178503932890e+02
-2.306506199241e+02
-7.696208679919e+01
-2.184231532420e+02
-2.094243526480e+02
-5.434415081628e+01
-7.444707415139e+01
-1.751543184126e+02
-1.609979102273e+02
-2.006701232111e+02
-1.646002122376e+02
-1.902786368412e+02
-2.215436714726e+02
-4.837981283253e+01
-1.653355550155e+02
-1.610268586905e+02
-1.907513409692e+02
-8.055483035186e+01
-1.278660773908e+02
-5.125559336790e+01
-2.228460057387e+02
-1.330295266852e+02
-1.349530080570e+02
-1.062763528271e+02
-8.391801719368e+01
-6.948044205993e+01
-1.221124521582e+02
-1.266257364704e+02
-1.813892970292e+02
-1.974040104241e+02
-1.169990778577e+01
-1.881828072101e+02
-1.505762039399e+02
-1.696498316421e+02
-1.883519284246e+02
-4.785770910276e+01
-1.949351434340e+02
-2.156147238642e+02
-1.563289550875e+02
-3.928323075235e+01
-1.530140071025e+02
-2.137759772461e+02
-1.912124006936e+02
-7.375425669161e+01
-1.394819068205e+02
-1.300823917018e+02
-1.198953418807e+02
-2.144853633183e+02
-1.436552072963e+02
-1.988149460831e+02
-1.631121817986e+02
-7.910379555396e+01
-1.986349736450e+02
-1.358538232774e+02
-2.069682409123e+02
-1.826778278154e+02
-1.109096870740e+02
-1.990092244895e+02
-1.363761991045e+02
-1.950926012184e+02
-1.266556799916e+02
-1.594679812454e+02
-1.737262864198e+02
-1.515837364929e+02
-1.684923620047e+02
-1.934119376501e+02
-5.067471208891e+01
-9.897313683185e+01
-1.685155026533e+02
-2.042714953786e+02
-2.188837730097e+02
-1.186603611068e+02
-1.918158338768e+02
-2.106701761732e+02
-1.318508810713e+02
-5.540862310771e+01
-4.320676768375e+01
-8.754407048882e+01
-1.371824706987e+02
-1.438252368453e+02
-2.212529188336e+02
-1.970383834309e+02
-1.843875291285e+02
-2.244071097926e+01
-1.245954944752e+02
-2.023106331268e+02
-1.445881726174e+02
-2.000200568434e+02
-1.372527996255e+02
-2.225562184061e+02
-9.966308265687e+01
-2.077459080300e+02
-1.856223180986e+02
-9.039427928942e+01
-1.313349603596e+02
-2.214753794904e+02
-1.977798130271e+02
-1.631029448763e+02
-1.379054334797e+02
-1.075288153867e+02
-1.490426306841e+02
-1.659204312999e+02
-2.329507521493e+02
-2.038804423563e+02
-1.714144260388e+02
-1.422898176907e+02
-1.724001761355e+02
-3.063812648897e+01
-1.122449484413e+02
-1.474801228368e+02
-9.268440595227e+01
-1.430002487690e+02
-2.197997687467e+02
-1.526966201227e+02
-1.043550124428e+02
-1.579118513089e+02
-9.525731707545e+01
-1.766444409164e+02
-1.631270514653e+02
-1.775094063844e+02
-3.199811151939e+01
-1.681520443856e+02
-2.052685960863e+02
-9.778757111452e+01
-1.481768668514e+02
-1.885422123558e+02
-8.280478755917e+01
-1.600973630625e+02
-1.891849007392e+02
-1.733392075010e+02
-1.488202101653e+02
-1.721888991720e+02
-8.692754676904e+01
-7.196583128235e+01
-6.007199800763e+01
-1.094477289702e+02
-1.957441693768e+02
-4.068504885969e+01
-1.869548355755e+02
-4.322311607338e+01
-1.029102103923e+02
-1.910081417623e+02
-1.645416579129e+02
-1.079342110098e+02
-6.740215853617e+01
-1.013540106936e+02
-1.605289014232e+02
-1.063626908297e+02
-9.972734065416e+01
-2.212983028619e+02
-1.046453763250e+02
-2.328010807994e+02
-2.314830804317e+02
-1.405473871268e+02
-6.987831450200e+01
-1.076456103257e+01
-7.433178577575e+01
-8.611566916903e+01
-1.852784397873e+02
-1.410423208255e+02
-7.914879924312e+01
-2.226515957005e+02
-2.327844132989e+02
-1.820876092263e+02
-2.046743179432e+02
-1.789160543702e+02
-2.106440485328e+02
-1.304960549480e+02
-2.010439323043e+01
-1.746930699854e+02
-5.732539649306e+01
-5.894435783540e+01
-4.634229675886e+01
-8.325803700892e+01
-3.008031350621e+01
-4.742195934750e+01
-2.215696663270e+02
-1.413851063376e+02
-1.970610941031e+02
-3.504601558766e+01
-2.221091258327e+02
-2.220076843240e+02
-2.328041871584e+02
-2.090397211091e+02
-3.362042915894e+01
-1.514988065389e+02
-2.226772118976e+02
-1.916592894802e+02
-2.335410100377e+02
-1.399558556197e+02
-2.229374079039e+02
-4.443836374476e+01
-2.231007851248e+02
-1.970390031881e+02
-1.558517736393e+02
-1.508512137400e+02
-2.235511370716e+02
-2.224501923674e+02
-2.705240986330e+01
-1.814687474058e+02
-1.038340076427e+02
-1.919658081948e+01
-2.224037911386e+02
-2.082196136467e+02
-2.227589550830e+02
-3.027673188830e+01
-1.895756852215e+01
-2.242419586648e+02
-2.238828226066e+02
-5.022895337103e+01
-2.344805318557e+02
-1.814976612134e+01
-1.292488606963e+02
-1.972212976494e+01
-2.332623084410e+02
-2.234007284310e+02
-1.143490568504e+02
-1.321999710512e+02
-7.553606631422e+01
-2.140740220786e+02
-2.822017302957e+01
-2.245627041742e+02
-2.247699993678e+02
-2.246197977835e+02
-2.350165202799e+02
-1.839127395821e+01
-2.250566273484e+02
-2.138548346214e+02
-1.303501241960e+02
-2.229975866303e+02
-9.294330787665e+01
-4.018911082744e+01
-2.341021969010e+02
-8.747700843018e+00
-1.296316425951e+02
-2.341035293536e+02
-3.843473966592e+01
-1.494502311814e+02
-2.244773158933e+02
-1.402863771154e+02
-2.037632935751e+02
-3.795142582367e+01
-9.090691755398e+00
-1.709140179143e+02
-2.241293364133e+02
-2.252801245297e+02
-1.624928598789e+02
-3.427730369012e+01
-2.173475786848e+02
-1.235604786286e+02
-2.151912213554e+02
-2.141238136231e+02
-1.010632449686e+01
-1.507967891403e+02
-1.845332191219e+01
-2.250545592173e+02
-1.286965759447e+02
-5.068732457511e+00
-6.507397431253e+00
-1.699557223845e+01
-1.762857738316e+01
-2.912367373717e+01
-3.040630705857e+01
-4.119303962535e+01
-4.180559079298e+01
-5.340725229177e+01
-5.462777245069e+01
-6.564063721017e+01
-6.607255756771e+01
-7.768000759250e+01
-7.890177947922e+01
-8.985285230585e+01
-9.035152232150e+01
-1.019850525517e+02
-1.031849970775e+02
-1.141670651628e+02
-1.145384217151e+02

SCALARS node_materi_stress_size_dev_sd_sig float
LOOKUP_TABLE default
3.872825308957e+00
9.239398054291e+01
1.794099112524e+02
1.794576519912e+02
9.737118182487e+00
1.915793759052e+01
2.763753503372e+01
3.722730943796e+01
4.648426275946e+01
5.549744780837e+01
6.456558221490e+01
7.367176846791e+01
8.276875704422e+01
9.202970723284e+01
1.015841592969e+02
1.106401394359e+02
1.188766379663e+02
1.281066356765e+02
1.375381503736e+02
1.466885687281e+02
1.559447127561e+02
1.652903221908e+02
1.741583769234e+02
1.799302196090e+02
1.795163557049e+02
1.796282865447e+02
1.796315960825e+02
1.793310663284e+02
1.795888320318e+02
1.796143161779e+02
1.795287643336e+02
1.798186421145e+02
1.798072750469e+02
1.795068452987e+02
1.797552711845e+02
1.798574095795e+02
1.797511576992e+02
1.795659231606e+02
1.793038417837e+02
1.792315248974e+02
1.794567176464e+02
1.796703744442e+02
1.798380945410e+02
1.797920101130e+02
1.796841599509e+02
1.796806457457e+02
1.796433006216e+02
1.797267005951e+02
1.797974352976e+02
1.798952917137e+02
1.798789773038e+02
1.798324895943e+02
1.801185919124e+02
1.800356531569e+02
1.795534007022e+02
1.795203440668e+02
1.796701828229e+02
1.797085277138e+02
1.797657901012e+02
1.797774783177e+02
1.796803106679e+02
1.795074949549e+02
1.793676052348e+02
1.795273205410e+02
1.799081895191e+02
1.800152572747e+02
1.788944489970e+02
1.798061994937e+02
1.794768554395e+02
1.796846894873e+02
1.799845531984e+02
1.799564238713e+02
1.014950819588e+02
1.107604356416e+02
1.198247111140e+02
1.287222717870e+02
1.378172161040e+02
1.468531917769e+02
1.558886762828e+02
1.648361053795e+02
1.739971636835e+02
3.252803809420e+00
3.342530354173e+00
9.226693458021e+01
8.798329930736e+00
1.839927690493e+01
2.760125910189e+01
3.657025771893e+01
4.574355915918e+01
5.492373817484e+01
6.412230139298e+01
7.330741688599e+01
8.249461802504e+01
9.342956641541e+00
1.872833251638e+01
2.795395057449e+01
3.713446922513e+01
4.627629747586e+01
5.543062530968e+01
6.457405072056e+01
7.370988126851e+01
8.276718768252e+01
9.105704157078e+01
9.156870857723e+01
9.162895307393e+01
9.150662674569e+01
9.269174234919e+01
9.163347672175e+01
9.148698798574e+01
9.158780743421e+01
9.183688373164e+01
9.179957391805e+01
9.170989975222e+01
9.168173417596e+01
9.166953058133e+01
9.181725973081e+01
3.625654059240e+00
3.716473150415e+00
3.420120482861e+00
3.409758860912e+00
3.892041111863e+00
4.067484218611e+00
4.025494959114e+00
3.947669255875e+00
3.932361590246e+00
3.905115340991e+00
3.964545836987e+00
4.189919050738e+00
4.066984795865e+00
3.734496125129e+00
3.859525095607e+00
4.025322514592e+00
4.058210492411e+00
3.827161604595e+00
3.447101098608e+00
1.776126598207e+00
4.224600753922e+00
4.584593340229e+00
4.570376786179e+00
4.599222514581e+00
4.569217856841e+00
4.578487971190e+00
4.571730686636e+00
4.576565341902e+00
4.570998910900e+00
4.566439221714e+00
4.559320887405e+00
4.553306465149e+00
4.547644841571e+00
4.543377402710e+00
4.540579573707e+00
4.539514659988e+00
4.540128071544e+00
4.542307680618e+00
4.545797103879e+00
4.550358314952e+00
4.555923065485e+00
4.562698803225e+00
4.571196567160e+00
4.582226417047e+00
4.596819715868e+00
4.616136883995e+00
4.645446699705e+00
4.453775126713e+00
9.270686164906e+00
9.203820381889e+00
9.245049725103e+00
9.242223658231e+00
9.233438355872e+00
9.227049666618e+00
9.222196973243e+00
9.218180344562e+00
9.214650740051e+00
9.211499831433e+00
9.208807140145e+00
9.206819884823e+00
9.205841629261e+00
9.206111114247e+00
9.207645847293e+00
9.210512458654e+00
9.214269223743e+00
9.219218205091e+00
9.223575062713e+00
9.230386655773e+00
9.231469558195e+00
9.240352578433e+00
9.224000596179e+00
9.251773678937e+00
9.206300349587e+00
9.293015807449e+00
9.714133668736e+00
7.805903994239e+00
1.729711775217e+01
1.912789995139e+01
1.869768970716e+01
1.870512928533e+01
1.872887963044e+01
1.872075137968e+01
1.871931244825e+01
1.871143422668e+01
1.870729595670e+01
1.870192572916e+01
1.869762954588e+01
1.869393023233e+01
1.869155390463e+01
1.869045847802e+01
1.869080846669e+01
1.869229898386e+01
1.869439228508e+01
1.869655596555e+01
1.869844113593e+01
1.869980692478e+01
1.870049962892e+01
1.870052883922e+01
1.870017098934e+01
1.869945868460e+01
1.868748585110e+01
1.868937816655e+01
2.642905155359e+01
2.831424216362e+01
2.798486036017e+01
2.797055814999e+01
2.798732641631e+01
2.796948873801e+01
2.796929418089e+01
2.796230720524e+01
2.795771973278e+01
2.795262242176e+01
2.794904573537e+01
2.794688515190e+01
2.794682308563e+01
2.794840754930e+01
2.795060537823e+01
2.795250191126e+01
2.795360460031e+01
2.795349423345e+01
2.795181630000e+01
2.794841149969e+01
2.794368134728e+01
2.793847902607e+01
2.793313941865e+01
2.793125064353e+01
2.793878831262e+01
3.710247805872e+01
3.708157999866e+01
3.708090708276e+01
3.708432645565e+01
3.708993371910e+01
3.709568022512e+01
3.709991538255e+01
3.710205074101e+01
3.710253407453e+01
3.710174623999e+01
3.710000098774e+01
3.709733797497e+01
3.709565369064e+01
3.709662614826e+01
3.710133556797e+01
3.710532528059e+01
3.711230091204e+01
3.711229148362e+01
3.712199233443e+01
3.710333239374e+01
3.711639749615e+01
3.750232482714e+01
3.562090484025e+01
4.475345935805e+01
4.661237109355e+01
4.626364432537e+01
4.625483725554e+01
4.627522561886e+01
4.626380144630e+01
4.626083374381e+01
4.625030416724e+01
4.624687093719e+01
4.624937593228e+01
4.625414160919e+01
4.625582947061e+01
4.625620342942e+01
4.625616106592e+01
4.625494296434e+01
4.625122483645e+01
4.624503625640e+01
4.623909388307e+01
4.623582809395e+01
4.623817163619e+01
4.624958228481e+01
4.626734672825e+01
5.541350035966e+01
5.539366979912e+01
5.538546673930e+01
5.538610526818e+01
5.539080883663e+01
5.539809091800e+01
5.540450571188e+01
5.540543308843e+01
5.540420128032e+01
5.540592890735e+01
5.540787082978e+01
5.540488653761e+01
5.539353687131e+01
5.539365837701e+01
5.540372951013e+01
5.543027374685e+01
5.541673516690e+01
5.540858438878e+01
5.580330328328e+01
5.391336096014e+01
6.304809102665e+01
6.496115873331e+01
6.460614189758e+01
6.457014268379e+01
6.455167967646e+01
6.453868029519e+01
6.456280013469e+01
6.456896067157e+01
6.456606620510e+01
6.455537195120e+01
6.455590569282e+01
6.456375675670e+01
6.455565400669e+01
6.454562325637e+01
6.453974189122e+01
6.453755013370e+01
6.454107175995e+01
6.456079384843e+01
6.457291436271e+01
7.374181765164e+01
7.368998646322e+01
7.367627528730e+01
7.368674769542e+01
7.368027499196e+01
7.369359290543e+01
7.370831364944e+01
7.371079358669e+01
7.368677095214e+01
7.371187552801e+01
7.372775887854e+01
7.371873517831e+01
7.372070785730e+01
7.366830591488e+01
7.371155192735e+01
7.416420617860e+01
7.227229202425e+01
8.142025313078e+01
8.329006516084e+01
8.289564813794e+01
8.285193096120e+01
8.287512692990e+01
8.288965220330e+01
8.284918456086e+01
8.284536732733e+01
8.284943169672e+01
8.284194776797e+01
8.282799010651e+01
8.281975120275e+01
8.284636443220e+01
8.280742252259e+01
8.288731305161e+01
8.297955096675e+01
5.033229752741e+00
1.453031491755e+01
2.378787279741e+01
3.301381950884e+01
4.200203932115e+01
5.113718868441e+01
6.033897904357e+01
6.950434524687e+01
7.867318838374e+01
8.790420826469e+01
2.246441232517e+01
1.757510407050e+02
7.839998463805e+00
7.586279659090e+00
1.757942105444e+02
4.108010471724e+01
9.713174337521e+01
1.754789155239e+02
5.853429068123e+01
1.758844022489e+02
7.726252950270e+01
1.763263761725e+02
7.498672056252e+00
1.759454692021e+02
9.588803202882e+01
6.044485695650e+01
1.221161385092e+02
1.755301920489e+02
1.759427810628e+02
1.758436614750e+02
1.750525415606e+02
1.761210711616e+02
1.000717292904e+02
1.001319175793e+02
1.007427589280e+02
1.333046531035e+02
1.758257426113e+02
7.523536316437e+00
8.087421634535e+00
1.509901543442e+02
9.973765850331e+01
3.245100405205e+01
1.743622639958e+02
1.763358184985e+02
1.759296775903e+02
1.751335060814e+02
1.760757475332e+02
8.078963177137e+00
9.979733120941e+01
1.744102632655e+02
1.512251774337e+02
7.926317666921e+00
7.828669108707e+01
1.771601930138e+02
5.050386751659e+01
3.184889866665e+01
6.792336014774e+01
8.645018378573e+01
1.233263086944e+01
1.159621438142e+02
1.773621994187e+02
7.665106217488e+00
1.688827516739e+02
1.001535589157e+02
1.038945459015e+02
1.082161344949e+02
1.125803774619e+02
1.173312841583e+02
1.212186100370e+02
1.164445984759e+02
1.250933985589e+02
1.202677588799e+02
1.260607577001e+02
1.289572162605e+02
1.240889924997e+02
1.328003602547e+02
1.279207875897e+02
1.192646830935e+02
1.230750130254e+02
1.144328398875e+02
1.182328323750e+02
1.268922647930e+02
1.220314607740e+02
1.133794467938e+02
1.171595907482e+02
1.085309525546e+02
1.123017447154e+02
1.036656364613e+02
1.074420056802e+02
1.160885335402e+02
1.112209700903e+02
1.025820924530e+02
1.063550949204e+02
9.772317935618e+01
1.014694475113e+02
1.101305205900e+02
1.052420389366e+02
9.653987852207e+01
1.003415613069e+02
9.159888009434e+01
9.544114546374e+01
8.664595889562e+01
9.048773324466e+01
9.926794599017e+01
9.432595543790e+01
8.550824674650e+01
8.933595090305e+01
9.817335482384e+01
9.317098133529e+01
1.020269524682e+02
9.701923990139e+01
8.819803499025e+01
9.202810355971e+01
1.008648039814e+02
9.584240117831e+01
8.704302066125e+01
9.085221635036e+01
9.968275637023e+01
9.467256163917e+01
8.587061969136e+01
8.968208909075e+01
9.855430823251e+01
9.350885717032e+01
8.466661175325e+01
8.846266395343e+01
9.738882202063e+01
9.228719081698e+01
1.012821276267e+02
8.333490106671e+01
8.715593526848e+01
7.815767996763e+01
8.201420163582e+01
1.139275937270e+02
7.298753264746e+01
6.924659059194e+01
7.687517260668e+01
8.595278392047e+01
6.781727631278e+01
7.173303995887e+01
6.266639039256e+01
8.265781038371e+01
1.307191360502e+02
6.660126610242e+01
5.752690505843e+01
5.359307884403e+01
4.843955925792e+01
1.221259767370e+02
1.309985834280e+02
1.267922965087e+02
1.359229510707e+02
1.318701735341e+02
5.236180483431e+01
1.377688685882e+02
1.399239711287e+02
1.047819408868e+02
9.396581962724e+01
1.070395556798e+02
7.567025100365e+01
7.056071098708e+01
7.966170829585e+01
1.063865601034e+02
1.103086187004e+02
1.154171461227e+02
1.193499789055e+02
1.244645397833e+02
1.284043794900e+02
1.232815494919e+02
1.323438051107e+02
1.272134213096e+02
1.335216458362e+02
1.295630006996e+02
1.362766818759e+02
1.311444550686e+02
1.402081605756e+02
1.350737992761e+02
1.259976171639e+02
1.299207946429e+02
1.208812028877e+02
1.109106566134e+02
1.159411057049e+02
1.198182101916e+02
1.248643956982e+02
1.287503641294e+02
1.338061424463e+02
1.376865310002e+02
1.326378877500e+02
1.366172220300e+02
8.051789157957e+01
7.669385390016e+01
7.171568075502e+01
6.789971992261e+01
6.292392079949e+01
5.912584660707e+01
5.411913699646e+01
5.792285960809e+01
4.907821289222e+01
5.289359986851e+01
4.401576515300e+01
4.781987331733e+01
1.198821846100e+02
1.299016141542e+02
1.388605606245e+02
1.348767811664e+02
4.452665009333e+01
1.390050062640e+02
1.386340160165e+02
1.346286192181e+02
1.416041660979e+02
4.335736369867e+01
5.037390063500e+01
5.532113350930e+01
1.408504838595e+02
1.367868887928e+02
1.437448838415e+02
4.726150218436e+01
1.414146586585e+02
4.023832181311e+01
1.338460644873e+02
1.429353226657e+02
1.181687733915e+02
1.438870566473e+02
1.398028822323e+02
5.677322520156e+01
5.172644510545e+01
4.295509376161e+01
4.695632532303e+01
5.567888446678e+01
5.054785594577e+01
4.169637299122e+01
4.542051972272e+01
5.436415429026e+01
4.922599935028e+01
4.019831898230e+01
4.403637707419e+01
1.480775987511e+02
3.512838940000e+01
1.106491385711e+02
1.476956049383e+02
1.465572941439e+02
1.457988744227e+02
1.417459926716e+02
1.326849203750e+02
1.376999470418e+02
1.467594669416e+02
1.427052354255e+02
1.336318599997e+02
1.386106113920e+02
1.295112424079e+02
1.345027457678e+02
1.435957081846e+02
1.395115965694e+02
1.304204866873e+02
1.354160908729e+02
1.263110380823e+02
1.312481070856e+02
1.404159922295e+02
3.846671349405e+01
1.365457122899e+02
1.456128087002e+02
7.483967433434e+01
8.354355821526e+01
8.873388891771e+01
9.275232460308e+01
1.362024777559e+02
1.454505171967e+02
4.664543028085e+01
5.154411302548e+01
1.498362318544e+02
1.378176632101e+02
1.287348842851e+02
8.911068124127e+01
8.534978097922e+01
8.045944684024e+01
7.657257282566e+01
8.159426876174e+01
7.156884705272e+01
1.255147337865e+02
1.486119493566e+02
4.970694697505e+01
4.065332746745e+01
1.469330160319e+02
1.275622223533e+02
1.247683754337e+02
1.285887809929e+02
1.335143617364e+02
1.373538445438e+02
1.423188035382e+02
1.461489073837e+02
1.412300099847e+02
1.488514973356e+02
1.500532463141e+02
1.268922109689e+02
1.258820271550e+02
5.823901022754e+01
3.450330645005e+01
3.482070226134e+01
4.205469259301e+01
5.117062936682e+01
1.528282836580e+02
1.511496059504e+02
1.472248711323e+02
7.290785700481e+01
7.791906076296e+01
1.528299008763e+02
1.228148109577e+02
1.245564971583e+02
1.203835873874e+02
3.221176533659e+01
3.131854572027e+01
1.517742736197e+02
6.019275662316e+01
5.642388066581e+01
3.131888382390e+01
2.618640227514e+01
1.410482565521e+02
1.502078393160e+02
9.779835450258e+01
1.018217006186e+02
1.488787709106e+02
3.885961032661e+01
1.545659760106e+02
1.314949525418e+02
1.224874829351e+02
8.747858709278e+01
4.300395544359e+01
3.807609606618e+01
6.333496001426e+01
4.792584457479e+01
4.597498653405e+01
1.579578621337e+02
1.557544101796e+02
1.451531153703e+02
1.362818514440e+02
1.539898701620e+02
2.978763660947e+01
1.569045503629e+02
1.418589198384e+02
1.557742557810e+02
1.521204826950e+02
6.503352890823e+01
6.140564007398e+01
5.280623390404e+01
5.780772970336e+01
1.116593740480e+02
7.004035277120e+01
1.058361139116e+02
1.020750549026e+02
9.732854505890e+01
8.646153677575e+01
8.280416520944e+01
7.281868823348e+01
1.120312163171e+02
9.386477266029e+01
1.169685158130e+02
1.114658156189e+02
1.526406803147e+02
1.577235974496e+02
1.213116641799e+02
1.170953465160e+02
3.543630362801e+01
3.160475124804e+01
1.052019470340e+02
1.516239855585e+02
1.547224817653e+02
1.587549847178e+02
1.537992914927e+02
1.538902888005e+02
7.554428649789e+01
1.147705597963e+02
3.011643754209e+01
1.187990431031e+02
2.642865850825e+01
1.355655166771e+02
1.509648190126e+02
1.559798595690e+02
1.577124454125e+02
9.943367888770e+01
1.226321098715e+02
1.177712005747e+02
9.361094631204e+01
8.892588546681e+01
9.256467280691e+01
8.417572104991e+01
6.713729200801e+01
6.201918280704e+01
1.606389785408e+02
1.587519906384e+02
1.607328422210e+02
1.571842685082e+02
1.616265474313e+02
1.566694087424e+02
5.488682762497e+01
7.436394147536e+01
1.607310085356e+02
9.828892969179e+01
1.606030426160e+02
1.555920201780e+02
2.108008326173e+01
2.476727399992e+01
1.594944423118e+02
4.916055814975e+01
5.393125132993e+01
4.427505363073e+01
1.695432344097e+02
9.945620988860e+01
1.600421647956e+02
9.136168472117e+01
1.638314091804e+02
1.265779332635e+02
8.406480784397e+01
1.448543316914e+02
1.546106924589e+02
1.646907339964e+02
1.154022467201e+02
1.110102489795e+02
1.193497519645e+02
3.643782551213e+01
2.678410735490e+01
1.536104710951e+02
6.551082849417e+01
7.048671048072e+01
4.251862785417e+01
5.151476296520e+01
1.029040725011e+02
9.897711015778e+01
1.394565850264e+02
1.443315861483e+02
1.296623774855e+02
1.264340579650e+02
1.174327280648e+02
1.135626222124e+02
1.615367069166e+02
1.675983665545e+02
7.217711678874e+01
6.837854832797e+01
7.081369086494e+01
1.647344416508e+02
1.649624770632e+02
1.610076713563e+02
2.266595412784e+01
2.771169584152e+01
3.455077556413e+01
2.966279492407e+01
1.625290337771e+02
1.578466207257e+02
1.682233028664e+02
4.908915286908e+01
1.403160183645e+02
1.626131763448e+02
1.586823123463e+02
1.678313534414e+02
1.536071233804e+02
1.622871257578e+02
1.627546025806e+02
1.731742408502e+01
1.614840548430e+02
1.117145145766e+02
1.341132647212e+01
1.075603447938e+02
1.128644993380e+02
1.029031835445e+02
4.015977843182e+01
1.088488237093e+02
1.143353723705e+02
1.715624067754e+01
1.695913261530e+02
1.794110555550e+01
2.154713904674e+01
1.645680618348e+02
1.594477249022e+02
1.682315857236e+02
1.630624013581e+02
1.542902767774e+02
1.583623507750e+02
1.065486657633e+02
1.683402670630e+02
1.625315991116e+02
1.726233160702e+02
8.071244603446e+01
6.262806040846e+01
5.890930059216e+01
5.007743126169e+01
1.671252783507e+02
1.616698196050e+02
1.461533980115e+02
1.369713220031e+02
1.081631439315e+02
1.076677641791e+02
1.159634702057e+02
1.148539155586e+02
1.231920212688e+02
1.218732974706e+02
1.303566436347e+02
1.678393043106e+02
4.048629590636e+01
8.995228414433e+01
1.654371136170e+02
1.599432730938e+02
7.920609010818e+01
7.102278557587e+01
1.670800594089e+02
7.372527803843e+01
1.748019110709e+02
7.599056792797e+00
1.630822669023e+01
7.876465553294e+01
8.772119442393e+01
6.758461635563e+01
6.436285735006e+01
1.355853402442e+02
2.409987931194e+01
3.945536517322e+01
1.313638405514e+02
3.095365950953e+01
1.417534929182e+02
7.773056009871e+01
9.504737525500e+01
4.790331259095e+01
6.657891397634e+01
1.154545368874e+02
1.078799053083e+02
1.031264736231e+02
8.166049273826e+01
6.942431976874e+01
6.016473028948e+01
1.095994678259e+02
1.488751330092e+02
1.528481394876e+02
1.614780549239e+02
1.567746538894e+02
1.479161550729e+02
1.518232372408e+02
1.606883571822e+02
1.559623243959e+02
1.663622459152e+02
1.598329293687e+02
1.506980562563e+02
1.544180530334e+02
1.628123693525e+02
1.454802847319e+02
1.702969012571e+02
8.769924026003e+01
2.218741184113e+01
2.110481203982e+01
9.993781083569e+01
1.753850051679e+02
1.756791340187e+02
6.404227586526e+01
1.758039874216e+02
1.068616549849e+02
4.532885575022e+01
1.759000472215e+02
1.439171359234e+02
1.388903585096e+02
1.349369650009e+02
1.761464602690e+02
1.235767942127e+02
1.762272723432e+02
1.209534327899e+02
1.169428832831e+02
1.080717003759e+02
1.467525605773e+02
1.757236132318e+02
1.683562827592e+02
1.683116643800e+02
1.603009521936e+02
1.758038892548e+02
1.762043885254e+02
1.764494030991e+02
5.948884675817e+01
6.457611892820e+01
7.338457462788e+01
6.956346997614e+01
6.068454103478e+01
6.568242668366e+01
7.449283895020e+01
6.177600848933e+01
1.531308300662e+02
1.761255041194e+02
1.204993150574e+02
1.164622730781e+02
1.074866243405e+02
8.992203628424e+01
9.503035467493e+01
1.040733046716e+02
8.480340080816e+01
1.324155854539e+02
1.760281921906e+02
1.186229549795e+02
9.106923144158e+01
9.999607225833e+01
1.078948221227e+02
1.080234655089e+02
1.165285881000e+02
1.087029757413e+02
1.068608289166e+02
1.108162720059e+02
1.058210344089e+02
1.147484630178e+02
1.095441693968e+02
1.012258678196e+02
1.184936885683e+02
1.127345358446e+02
9.986531206426e+01
8.114873260012e+00
1.622319740088e+01
1.594252642821e+01
2.358940363609e+01
2.420546146408e+01
3.215297555653e+01
3.102588869594e+01
1.625689625559e+01
7.954132773983e+00
1.594138764322e+01
7.865165346749e+00
1.569349036725e+01
2.465019057853e+01
3.698578904208e+01
1.747065685632e+02
8.734853415122e+01
8.299654816423e+01
7.416439651076e+01
7.894363970259e+01
9.101717892666e+01
6.933569637877e+01
6.607508229637e+01
8.089492015662e+00
1.608462418541e+01
1.529647658315e+01
2.398306536049e+01
2.371944180927e+01
1.615067210353e+01
1.616967891461e+01
8.006138221814e+00
1.611444485667e+01
2.409842351577e+01
7.693282120333e+00
1.424239007558e+02
1.474116608276e+02
1.755614168602e+02
1.008631597418e+02
7.982428240879e+00
1.743819407609e+02
1.758134251938e+02
1.759612326214e+02
1.603569086312e+02
1.648793347257e+02
1.746618516975e+02
5.874409505108e+01
1.653111414717e+02
1.586242881353e+02
4.168641717733e+01
5.684475052003e+01
1.327514595028e+02
1.220908335785e+02
1.519983119988e+02
1.248119552842e+02
1.441453594635e+02
1.677487166388e+02
3.708974806895e+01
1.253671801098e+02
1.221089897217e+02
1.445259554094e+02
6.148449529089e+01
9.710017246136e+01
3.944019995960e+01
1.686814805848e+02
1.010465553957e+02
1.024626243299e+02
8.082380740959e+01
6.397624067623e+01
5.310309630516e+01
9.279282864688e+01
9.617589709136e+01
1.374675841159e+02
1.495564759558e+02
8.928050894386e+00
1.425789407959e+02
1.142356650202e+02
1.286414347035e+02
1.427434032572e+02
3.670747511451e+01
1.476900050128e+02
1.633091736390e+02
1.185412441398e+02
3.038802779222e+01
1.161448899698e+02
1.618848256653e+02
1.448760822478e+02
5.631805790589e+01
1.058837813695e+02
9.880952988816e+01
9.104257693101e+01
1.624881951001e+02
1.090381732767e+02
1.506328349815e+02
1.236889744544e+02
6.036718358216e+01
1.504856781623e+02
1.031573240078e+02
1.567478120059e+02
1.384355094422e+02
8.435141840741e+01
1.507377569739e+02
1.035441074795e+02
1.478163061263e+02
9.624186086749e+01
1.209550289008e+02
1.317264590071e+02
1.150071303980e+02
1.277383390522e+02
1.465448312115e+02
3.898559757940e+01
7.534978118273e+01
1.277144517160e+02
1.547770064023e+02
1.656747036087e+02
9.020605519594e+01
1.453232037203e+02
1.595550281158e+02
1.001155060529e+02
4.254205985402e+01
3.323069900831e+01
6.674140139748e+01
1.041634980293e+02
1.091444640231e+02
1.675468445857e+02
1.492355139599e+02
1.397227024786e+02
1.752372387635e+01
9.463629293757e+01
1.531979152478e+02
1.097303789573e+02
1.515451392883e+02
1.041119139084e+02
1.684694625681e+02
7.588174112056e+01
1.573414220734e+02
1.406679340558e+02
6.889431298312e+01
9.974060793508e+01
1.676958317206e+02
1.498494436341e+02
1.236841161105e+02
1.046938374730e+02
8.178355757416e+01
1.130765610173e+02
1.258277970384e+02
1.762760327673e+02
1.545023960279e+02
1.299295844710e+02
1.079841775988e+02
1.307008491370e+02
2.373920058116e+01
8.535150999915e+01
1.119047458174e+02
7.060998777930e+01
1.085389787628e+02
1.663457740027e+02
1.158452412709e+02
7.940723218495e+01
1.197767464618e+02
7.254092810390e+01
1.338898676291e+02
1.236709271317e+02
1.345532214518e+02
2.488775407750e+01
1.274969975669e+02
1.554208332002e+02
7.444330211790e+01
1.124410107510e+02
1.428605474307e+02
6.319091511562e+01
1.214231386030e+02
1.433483431732e+02
1.314063524900e+02
1.129350713418e+02
1.305302426104e+02
6.631835347001e+01
5.498623095084e+01
4.604138588300e+01
8.324584887373e+01
1.482893120777e+02
3.145774992445e+01
1.416588199832e+02
3.331638086774e+01
7.831666495765e+01
1.446750982018e+02
1.247749905081e+02
8.210418896586e+01
5.154828493721e+01
7.714518009469e+01
1.217581248956e+02
8.091796410899e+01
7.590974519139e+01
1.676005777596e+02
7.961139343674e+01
1.761145085505e+02
1.752142989466e+02
1.067111777105e+02
5.355208798257e+01
8.223029210210e+00
5.669961948538e+01
6.564449174247e+01
1.404329891875e+02
1.070445905373e+02
6.038904213343e+01
1.685310151318e+02
1.762109099492e+02
1.379907763267e+02
1.551161823759e+02
1.355972155143e+02
1.595855559797e+02
9.906158123452e+01
1.564622168896e+01
1.324155787367e+02
4.405401093017e+01
4.517735885678e+01
3.570074240838e+01
6.361570334200e+01
2.335005366073e+01
3.647560037703e+01
1.678238914134e+02
1.071941084157e+02
1.492375245129e+02
2.712833127253e+01
1.681982094297e+02
1.681163104457e+02
1.762529461969e+02
1.582643332685e+02
2.606952460708e+01
1.147790318938e+02
1.686416672732e+02
1.451348708603e+02
1.766725714740e+02
1.060678051325e+02
1.687933705427e+02
3.427273668184e+01
1.688972830191e+02
1.493062420978e+02
1.181679349039e+02
1.143337646929e+02
1.691948537412e+02
1.685079360699e+02
2.102994661837e+01
1.374246744333e+02
7.906237041122e+01
1.484099223358e+01
1.684469844471e+02
1.577755217329e+02
1.687320333847e+02
2.360273393128e+01
1.479529957906e+01
1.698234000974e+02
1.694966455588e+02
3.853584858431e+01
1.774848504324e+02
1.423999786330e+01
9.805493470000e+01
1.530955363528e+01
1.764750850298e+02
1.692079425473e+02
8.695175144199e+01
1.003084630192e+02
5.770870934778e+01
1.621795167242e+02
2.189098702607e+01
1.700996650365e+02
1.702310779100e+02
1.701044191522e+02
1.779122036707e+02
1.422941888283e+01
1.704640720380e+02
1.620299326746e+02
9.901218925205e+01
1.688268512705e+02
7.082922354472e+01
3.093897558462e+01
1.770520243295e+02
6.547296039123e+00
9.852487061554e+01
1.771835659308e+02
2.954861140633e+01
1.133586504710e+02
1.698932450562e+02
1.065226790673e+02
1.543568078334e+02
2.918819555415e+01
6.764984822160e+00
1.295492140223e+02
1.697575021217e+02
1.706181295108e+02
1.231900973802e+02
2.644724904390e+01
1.646284995494e+02
9.374151980886e+01
1.630733944809e+02
1.623076742468e+02
7.705963840215e+00
1.144577017322e+02
1.438179700371e+01
1.704444994106e+02
9.774549312020e+01
3.774161579235e+00
4.819330907245e+00
1.314454508908e+01
1.380981122888e+01
2.232439948142e+01
2.357962272094e+01
3.145979097451e+01
3.227112617729e+01
4.060470910061e+01
4.194807253587e+01
4.974672301037e+01
5.058413837535e+01
5.895988670262e+01
6.024944840545e+01
6.814985350574e+01
6.889091672875e+01
7.731635335509e+01
7.854389785027e+01
8.651696244725e+01
8.721302074728e+01

SCALARS node_materi_strain_total_average_a_ept float
LOOKUP_TABLE default
3.378635379157e-05
1.373833352971e-03
2.729182393755e-03
2.729606791273e-03
1.008638353705e-04
2.401610294929e-04
3.717668983419e-04
5.204778331318e-04
6.631912615839e-04
8.051763812487e-04
9.465401761433e-04
1.087556933563e-03
1.228875694796e-03
1.371102634976e-03
1.516603777534e-03
1.659669757409e-03
1.790201836729e-03
1.932338204386e-03
2.078788961676e-03
2.220963170739e-03
2.364153869492e-03
2.508518947492e-03
2.647407810169e-03
2.737680974208e-03
2.729521715710e-03
2.731457446836e-03
2.730977540962e-03
2.726271608269e-03
2.731006662000e-03
2.732919268255e-03
2.729550726716e-03
2.734870046008e-03
2.734147608959e-03
2.729375216725e-03
2.733319228370e-03
2.736588067966e-03
2.733086203381e-03
2.731469419321e-03
2.725730662286e-03
2.724446862646e-03
2.729963399364e-03
2.732338017079e-03
2.734866461903e-03
2.733969098362e-03
2.732928768109e-03
2.732363705867e-03
2.731713185972e-03
2.732876059185e-03
2.734972118853e-03
2.734993588264e-03
2.736383202806e-03
2.734192983302e-03
2.739351834010e-03
2.737268889101e-03
2.730271022285e-03
2.730062483933e-03
2.732273426192e-03
2.733359800614e-03
2.732917779376e-03
2.734813467695e-03
2.731765377037e-03
2.730616279298e-03
2.726641312517e-03
2.729020920920e-03
2.736560101924e-03
2.739293445690e-03
2.719353602090e-03
2.735825799956e-03
2.728379796633e-03
2.732000560828e-03
2.737298071332e-03
2.736361757661e-03
1.518783643265e-03
1.660554989843e-03
1.801954562836e-03
1.940289872252e-03
2.081462860749e-03
2.224088650148e-03
2.363849325139e-03
2.502903185469e-03
2.645538008762e-03
2.234056977843e-05
2.290380473554e-05
1.374933702852e-03
9.008193162679e-05
2.288207562785e-04
3.733163976739e-04
5.122648137141e-04
6.551138934986e-04
7.992080965276e-04
9.410689179609e-04
1.083349841645e-03
1.225867183535e-03
9.537314681554e-05
2.343161493472e-04
3.766250210850e-04
5.186941688046e-04
6.608275205686e-04
8.028908846747e-04
9.449676276542e-04
1.086912623103e-03
1.228242295551e-03
1.356103643554e-03
1.365285407996e-03
1.365238911025e-03
1.363634191346e-03
1.383227054503e-03
1.365986340293e-03
1.365059540058e-03
1.366123181827e-03
1.368471875619e-03
1.367482605122e-03
1.367280953662e-03
1.366319357359e-03
1.366933767375e-03
1.368885576583e-03
3.343000588663e-05
3.278097268710e-05
3.311327056297e-05
3.459392433134e-05
3.636502779215e-05
3.847525928587e-05
3.934699728456e-05
3.947356154556e-05
3.957050634259e-05
3.975061040799e-05
4.095461911038e-05
3.918867633349e-05
3.897276157585e-05
3.981687694611e-05
3.952802508647e-05
3.863449569344e-05
3.804048740710e-05
3.701704084692e-05
3.393305989071e-05
1.165823398505e-05
3.431959344294e-05
4.594844072760e-05
5.046215921241e-05
5.040274895619e-05
5.131062238909e-05
5.112082948210e-05
5.125665994103e-05
5.109193763301e-05
5.105051696871e-05
5.098218766215e-05
5.096268051793e-05
5.094556322180e-05
5.094106546538e-05
5.093854540901e-05
5.093835279486e-05
5.093816428804e-05
5.093866361087e-05
5.094042223074e-05
5.094506683144e-05
5.095460834993e-05
5.096961677139e-05
5.098500178274e-05
5.098183691200e-05
5.090857266965e-05
5.063721855197e-05
4.984718208704e-05
4.634396271935e-05
3.330583379178e-05
9.550980181653e-05
1.012914293560e-04
1.064050009536e-04
1.070896128994e-04
1.073122995595e-04
1.074107867113e-04
1.074496475808e-04
1.074586526110e-04
1.074536904057e-04
1.074430921179e-04
1.074314201875e-04
1.074219614421e-04
1.074177970169e-04
1.074208369717e-04
1.074318692486e-04
1.074505793950e-04
1.074781079805e-04
1.075122548778e-04
1.075553627111e-04
1.076051178637e-04
1.076615419984e-04
1.076945966800e-04
1.076699399806e-04
1.076412416114e-04
1.076075353206e-04
1.080996307807e-04
1.107274121523e-04
8.249178268030e-05
2.176332606681e-04
2.418157742029e-04
2.356450795029e-04
2.341775832233e-04
2.350478317401e-04
2.346985920484e-04
2.348492817961e-04
2.347086737036e-04
2.347021255968e-04
2.346386301588e-04
2.346073283656e-04
2.345736069224e-04
2.345573389419e-04
2.345498833090e-04
2.345549171099e-04
2.345692531141e-04
2.345888799140e-04
2.346079182339e-04
2.346218403486e-04
2.346249966814e-04
2.346077099269e-04
2.345513483007e-04
2.344208396617e-04
2.341620350837e-04
2.339392797752e-04
2.345993257164e-04
3.603291876602e-04
3.836955006819e-04
3.774828682761e-04
3.764715334642e-04
3.770898043265e-04
3.767629537986e-04
3.768641127755e-04
3.767481780010e-04
3.767359912792e-04
3.766824165651e-04
3.766660508369e-04
3.766504225800e-04
3.766505046991e-04
3.766589661179e-04
3.766756371771e-04
3.766923366443e-04
3.767029189398e-04
3.767020273386e-04
3.766836482275e-04
3.766411781762e-04
3.765694962099e-04
3.764783361718e-04
3.764460974140e-04
3.768729841432e-04
3.767070879869e-04
5.186417877656e-04
5.186180743484e-04
5.185993977883e-04
5.186516089324e-04
5.187080583176e-04
5.187463249725e-04
5.187631047313e-04
5.187637466693e-04
5.187519708589e-04
5.187313104756e-04
5.187067443787e-04
5.186857629481e-04
5.186827671860e-04
5.186889191775e-04
5.187178401525e-04
5.187305864283e-04
5.188222183197e-04
5.187930262158e-04
5.190290882375e-04
5.186628653761e-04
5.195913858677e-04
5.264192814273e-04
5.026204881878e-04
6.448706229342e-04
6.686601773505e-04
6.617324407593e-04
6.607053750179e-04
6.611049227346e-04
6.607698530823e-04
6.608487240074e-04
6.607579038499e-04
6.607734828835e-04
6.607648591334e-04
6.607957114707e-04
6.608279388075e-04
6.608599183619e-04
6.608820721227e-04
6.608883881985e-04
6.608806745002e-04
6.608578663189e-04
6.608258919321e-04
6.608056420962e-04
6.608192567814e-04
6.608380639100e-04
6.608451761422e-04
8.028648869512e-04
8.028315093919e-04
8.028569685504e-04
8.028937034839e-04
8.029401680741e-04
8.029742477646e-04
8.029814921469e-04
8.029595565185e-04
8.029378474798e-04
8.028921204105e-04
8.028439199137e-04
8.027959704103e-04
8.027258094499e-04
8.027799257003e-04
8.027365921615e-04
8.029721881521e-04
8.026357408031e-04
8.035937829602e-04
8.107345568485e-04
7.869916971400e-04
9.286899243892e-04
9.525888842367e-04
9.456918059552e-04
9.445583272992e-04
9.449407947031e-04
9.446538318610e-04
9.448632896937e-04
9.449496578083e-04
9.449842705013e-04
9.450419908502e-04
9.451193734266e-04
9.451444748392e-04
9.451689513253e-04
9.451190870544e-04
9.450835834028e-04
9.450193406848e-04
9.450129489154e-04
9.449990191066e-04
9.450036464918e-04
1.087007630587e-03
1.086997110519e-03
1.087004813360e-03
1.087095397577e-03
1.087215933018e-03
1.087253003215e-03
1.087371319789e-03
1.087255750312e-03
1.087093028306e-03
1.087066056758e-03
1.087042147583e-03
1.086951750972e-03
1.086783758054e-03
1.086160201983e-03
1.087232013064e-03
1.094829587593e-03
1.071123613168e-03
1.212803999500e-03
1.235467385244e-03
1.228783608485e-03
1.228981985019e-03
1.229220353653e-03
1.229410843330e-03
1.229057832751e-03
1.229094961687e-03
1.229996946778e-03
1.229499581559e-03
1.229442522158e-03
1.229354128586e-03
1.229288060243e-03
1.228877547312e-03
1.229567420901e-03
1.229505834904e-03
4.014972740655e-05
1.716995399700e-04
3.166162296324e-04
4.604542025063e-04
6.002155921786e-04
7.436286963459e-04
8.847668741733e-04
1.027151324797e-03
1.169357522330e-03
1.312759005669e-03
2.899551697190e-04
2.672142527978e-03
8.505501190817e-05
8.074880894908e-05
2.672124684587e-03
5.790259043664e-04
1.449290301899e-03
2.667193481354e-03
8.510710276085e-04
2.673793453793e-03
1.141588816917e-03
2.682374311914e-03
8.070493912674e-05
2.674421387127e-03
1.430893319445e-03
8.826384377506e-04
1.838648455443e-03
2.668933708012e-03
2.674431649293e-03
2.672065634799e-03
2.660705786365e-03
2.676461381600e-03
1.497014959460e-03
1.497755373768e-03
1.507626717359e-03
2.012140294211e-03
2.672989036755e-03
8.005954646744e-05
8.760929191527e-05
2.287442448243e-03
1.490224208743e-03
4.453277668191e-04
2.649141998283e-03
2.680522494307e-03
2.673900568958e-03
2.661544269486e-03
2.675909722116e-03
8.795910224083e-05
1.492880366401e-03
2.650086873352e-03
2.289921213526e-03
8.663834834921e-05
1.158942166896e-03
2.692137785950e-03
7.251289656525e-04
4.358789631776e-04
9.963433310327e-04
1.284682623349e-03
1.370122030284e-04
1.743146609817e-03
2.695882276597e-03
8.208595833295e-05
2.566350395825e-03
1.498659330710e-03
1.556126433291e-03
1.623987901977e-03
1.689989253478e-03
1.764359669005e-03
1.824072283056e-03
1.750204455982e-03
1.884637380683e-03
1.809557561139e-03
1.900775099638e-03
1.944685585369e-03
1.869002750761e-03
2.004460274531e-03
1.928529435149e-03
1.794034317645e-03
1.853181820022e-03
1.719142143146e-03
1.778073343216e-03
1.912468734931e-03
1.837082418470e-03
1.702763061292e-03
1.761523173591e-03
1.627582460824e-03
1.686216797112e-03
1.552091274457e-03
1.610826470010e-03
1.745131149166e-03
1.669539036173e-03
1.535417529367e-03
1.593979491539e-03
1.459977430841e-03
1.518160636721e-03
1.652607535264e-03
1.576699551466e-03
1.441617176309e-03
1.500523956139e-03
1.364760820099e-03
1.424376757813e-03
1.287839672141e-03
1.347482237996e-03
1.483781271337e-03
1.407068783554e-03
1.270191383622e-03
1.329685376975e-03
1.466899329797e-03
1.389300645121e-03
1.526801155001e-03
1.449086804409e-03
1.312152148612e-03
1.371641634694e-03
1.508828086599e-03
1.430863056606e-03
1.294258442463e-03
1.353443342429e-03
1.490481519312e-03
1.412786474033e-03
1.276162185846e-03
1.335364852949e-03
1.473082986536e-03
1.394810537807e-03
1.257588595250e-03
1.316568347624e-03
1.455096243493e-03
1.376003859061e-03
1.515588181428e-03
1.237053020018e-03
1.296435285703e-03
1.156763136487e-03
1.216733160390e-03
1.711495547107e-03
1.076657530039e-03
1.018399032963e-03
1.137072556233e-03
1.277860588278e-03
9.964446550000e-04
1.057354278086e-03
9.163781034456e-04
1.225896954214e-03
1.971970549118e-03
9.776683778217e-04
8.363727474431e-04
7.751890576818e-04
6.952892775081e-04
1.840515442651e-03
1.977159233710e-03
1.912160822992e-03
2.053199341619e-03
1.990580023042e-03
7.564123553595e-04
2.081957645675e-03
2.115410816781e-03
1.569312462209e-03
1.401674388850e-03
1.604580816881e-03
1.118615749176e-03
1.039332090459e-03
1.180087687429e-03
1.594754777702e-03
1.655651064113e-03
1.734928398214e-03
1.795961827874e-03
1.875365433255e-03
1.936486445354e-03
1.856980467683e-03
1.997581106938e-03
1.918011828327e-03
2.015971773977e-03
1.954488159127e-03
2.058642581765e-03
1.979071055221e-03
2.119822711834e-03
2.040194461374e-03
1.899206308048e-03
1.960210895901e-03
1.819703089505e-03
1.664726352564e-03
1.742768903789e-03
1.803022881143e-03
1.881257609735e-03
1.941696248781e-03
2.019954814342e-03
2.080331855218e-03
2.002158155834e-03
2.063568880507e-03
1.192785276423e-03
1.133359879177e-03
1.056092224666e-03
9.967994820964e-04
9.195223346120e-04
8.605137845013e-04
7.826464398974e-04
8.419561889339e-04
7.044001984784e-04
7.642040256543e-04
6.259573134899e-04
6.858271596068e-04
1.804076389821e-03
1.959324253843e-03
2.098303323022e-03
2.036617420417e-03
6.339361621103e-04
2.101484147394e-03
2.095353036108e-03
2.033062315358e-03
2.141281557237e-03
6.166193522346e-04
7.245899997978e-04
8.015321808884e-04
2.129668696307e-03
2.066901310192e-03
2.174717865469e-03
6.775859893894e-04
2.138232343597e-03
5.670106532643e-04
2.021443619158e-03
2.162686297923e-03
1.777670170628e-03
2.176508651065e-03
2.113377560490e-03
8.246232178271e-04
7.460917674678e-04
6.099738357893e-04
6.725141205551e-04
8.074362420771e-04
7.284476972730e-04
5.917768778648e-04
6.490440425833e-04
7.876491000724e-04
7.079454881737e-04
5.685894899904e-04
6.272592087539e-04
2.242332217564e-03
4.883837450140e-04
1.660273149996e-03
2.236103552936e-03
2.217790767171e-03
2.206661237602e-03
2.143787661295e-03
2.003316323066e-03
2.080715116073e-03
2.221306615963e-03
2.158157386279e-03
2.017282156578e-03
2.094684717105e-03
1.953625111552e-03
2.031060241892e-03
2.172274053380e-03
2.108798843590e-03
1.967398474432e-03
2.045082837826e-03
1.903360806226e-03
1.980773379515e-03
2.123030353845e-03
5.421004258718e-04
2.062770742503e-03
2.203240794759e-03
1.104509112335e-03
1.240197103988e-03
1.320611153671e-03
1.383452534621e-03
2.057885583176e-03
2.200642960551e-03
6.670910680353e-04
7.430209949251e-04
2.269199472262e-03
2.083146231922e-03
1.941943350512e-03
1.326288042148e-03
1.267919728890e-03
1.192112621596e-03
1.131714603013e-03
1.209383471296e-03
1.054253457457e-03
1.891576673639e-03
2.250185376888e-03
7.145735298066e-04
5.737736999182e-04
2.224288558841e-03
1.923324251676e-03
1.879992359559e-03
1.939346779533e-03
2.015834693358e-03
2.075528160519e-03
2.152487410216e-03
2.211876927898e-03
2.135551108626e-03
2.254324457645e-03
2.272171508486e-03
1.914499501954e-03
1.896994409390e-03
8.476292640203e-04
4.786242567071e-04
4.834787721789e-04
5.970123829440e-04
7.383610926604e-04
2.315883058428e-03
2.289229073146e-03
2.228406475658e-03
1.074698060113e-03
1.152289409545e-03
2.316164825980e-03
1.851690490867e-03
1.876788199950e-03
1.812254207065e-03
4.458165442413e-04
4.310250620393e-04
2.299075238251e-03
8.771701966647e-04
8.186491531570e-04
4.282674266842e-04
3.493762931858e-04
2.134142785521e-03
2.275995242376e-03
1.462106880446e-03
1.523936607037e-03
2.254559051348e-03
5.463627234200e-04
2.343052547309e-03
1.984203701049e-03
1.844456349016e-03
1.302694864902e-03
6.103730821262e-04
5.339870481445e-04
9.265986159372e-04
6.874168343467e-04
6.578709815452e-04
2.395478136062e-03
2.361409857254e-03
2.196188680839e-03
2.058451220935e-03
2.334410026058e-03
4.067850066730e-04
2.378669089606e-03
2.145169960832e-03
2.359892673754e-03
2.304263469536e-03
9.521988678463e-04
8.957805520476e-04
7.623407870627e-04
8.397906899067e-04
1.675412900795e-03
1.029848244617e-03
1.585700832717e-03
1.527266972740e-03
1.453609990254e-03
1.284864363525e-03
1.228199895982e-03
1.073161246821e-03
1.682016836408e-03
1.400522452347e-03
1.759037788878e-03
1.673584838056e-03
2.312703780073e-03
2.391412570126e-03
1.825832387294e-03
1.761629857310e-03
4.927528117950e-04
4.323431330102e-04
1.576435487124e-03
2.296653626924e-03
2.345019125672e-03
2.407504284242e-03
2.330817643856e-03
2.332674840474e-03
1.115642270435e-03
1.724703989369e-03
4.103932555393e-04
1.787189992618e-03
3.527949467819e-04
2.047057137460e-03
2.286996465713e-03
2.364912204871e-03
2.392160936270e-03
1.486341774460e-03
1.846590173340e-03
1.771049480826e-03
1.396056712502e-03
1.323282957597e-03
1.379723175612e-03
1.249433040726e-03
9.855982258795e-04
9.062071699165e-04
2.436116358835e-03
2.407356199011e-03
2.437601533473e-03
2.384918970486e-03
2.454623191754e-03
2.376307836367e-03
7.948574479789e-04
1.097115635227e-03
2.439791387453e-03
1.468708806323e-03
2.435440843875e-03
2.358214938631e-03
2.713844775783e-04
3.285827119727e-04
2.419818285285e-03
7.055812363829e-04
7.792822581440e-04
6.297451440228e-04
2.575120846434e-03
1.486997931066e-03
2.429014283117e-03
1.361005759987e-03
2.487814292601e-03
1.907821807552e-03
1.247985181212e-03
2.191697220209e-03
2.344443122718e-03
2.499041613758e-03
1.736071111457e-03
1.666702718983e-03
1.796163198191e-03
5.084654105193e-04
3.578772779568e-04
2.327487159011e-03
9.601591176617e-04
1.035541013278e-03
6.030060734423e-04
7.430375261882e-04
1.541025230680e-03
1.479877018135e-03
2.107665740631e-03
2.183179635486e-03
1.955893806300e-03
1.905693279562e-03
1.765966644520e-03
1.705970277011e-03
2.449998323887e-03
2.544297005708e-03
1.063665654527e-03
1.004656083426e-03
1.042682501959e-03
2.501790523146e-03
2.504536468533e-03
2.441585413011e-03
2.937237805189e-04
3.711289893321e-04
4.785169590265e-04
4.043395454086e-04
2.466036193984e-03
2.393520487682e-03
2.554941582342e-03
7.056288208822e-04
2.121261189868e-03
2.467842498034e-03
2.406328867361e-03
2.548791973710e-03
2.328356729816e-03
2.461785370477e-03
2.469995044413e-03
2.111243716035e-04
2.450345269642e-03
1.677418996194e-03
1.543811977271e-04
1.614280068942e-03
1.695598177189e-03
1.541415147195e-03
5.675255001237e-04
1.634177894719e-03
1.718755941033e-03
2.109418546119e-04
2.577354439543e-03
2.198526323637e-04
2.775932775415e-04
2.499317759434e-03
2.418705778943e-03
2.554582624540e-03
2.473682593241e-03
2.338456852441e-03
2.401867178183e-03
1.596689167677e-03
2.557245918396e-03
2.467010265240e-03
2.622494481131e-03
1.195774432761e-03
9.142213696526e-04
8.566149007151e-04
7.195728331653e-04
2.538253341209e-03
2.453325157583e-03
2.212011705034e-03
2.069186066218e-03
1.621420312821e-03
1.614148982013e-03
1.742710912033e-03
1.725520910172e-03
1.854599744599e-03
1.835473123064e-03
1.967209886055e-03
2.548222534006e-03
5.711484873027e-04
1.339481404293e-03
2.512872116431e-03
2.425565797464e-03
1.172385436458e-03
1.044943253435e-03
2.535932364992e-03
1.087138011931e-03
2.656801547048e-03
7.811430547236e-05
1.986571279528e-04
1.165525815716e-03
1.304619638280e-03
9.926507256685e-04
9.432074204291e-04
2.047775559422e-03
3.176344567796e-04
5.546596998838e-04
1.983403059844e-03
4.229225516250e-04
2.144026254916e-03
1.149392407827e-03
1.418230246817e-03
6.863085760410e-04
9.761394528175e-04
1.734647222086e-03
1.616434321401e-03
1.543098391047e-03
1.210432440728e-03
1.020601081157e-03
8.767361623441e-04
1.644112195873e-03
2.254268265808e-03
2.315559876356e-03
2.449851788101e-03
2.376385900089e-03
2.239159656389e-03
2.300158187770e-03
2.437262587234e-03
2.365227247341e-03
2.525542996700e-03
2.424515458689e-03
2.282714067911e-03
2.339231494736e-03
2.469749220293e-03
2.201222688415e-03
2.588231163173e-03
1.304345517948e-03
2.881116039199e-04
2.708930420064e-04
1.494125915660e-03
2.665025181042e-03
2.670000398885e-03
9.369081354800e-04
2.672433723422e-03
1.601258881840e-03
6.460684363951e-04
2.673966817335e-03
2.177435619092e-03
2.099412697316e-03
2.038309387125e-03
2.678516101639e-03
1.861178507852e-03
2.678711770615e-03
1.820479967746e-03
1.758201553997e-03
1.620464053272e-03
2.221623818070e-03
2.670609780120e-03
2.556023847512e-03
2.556110232724e-03
2.429781346890e-03
2.672642799465e-03
2.678752286588e-03
2.682169339044e-03
8.668304149063e-04
9.455603128929e-04
1.082305171621e-03
1.023044319474e-03
8.852026487922e-04
9.628036249251e-04
1.099488916471e-03
9.020116976067e-04
2.320563443597e-03
2.677286047182e-03
1.813820245157e-03
1.751059249838e-03
1.611742396753e-03
1.339335860427e-03
1.418626708886e-03
1.558949615601e-03
1.259737105693e-03
1.998678498167e-03
2.675955625478e-03
1.784544198065e-03
1.357200570191e-03
1.495223451147e-03
1.618626361652e-03
1.620350890747e-03
1.754266468666e-03
1.631689471178e-03
1.602217065068e-03
1.663419705813e-03
1.585946738855e-03
1.724687098512e-03
1.644376652885e-03
1.515791197984e-03
1.783558235014e-03
1.693593045151e-03
1.494166060605e-03
8.800653733316e-05
1.968900585530e-04
1.934359046314e-04
3.097517089613e-04
3.187891596264e-04
4.436003419864e-04
4.263055542657e-04
1.983603305211e-04
8.665301839639e-05
1.934228618554e-04
8.571003843752e-05
1.900371724698e-04
3.267575717086e-04
5.165392996858e-04
2.654199897928e-03
1.298826758851e-03
1.230331274106e-03
1.095238623188e-03
1.168135105173e-03
1.354589839618e-03
1.020140662261e-03
9.696676095356e-04
8.754109197174e-05
1.948334297629e-04
1.807197215602e-04
3.137210464177e-04
3.126499057406e-04
1.968283518601e-04
1.966182503650e-04
8.704448193120e-05
1.968977220552e-04
3.185600312220e-04
8.417549812583e-05
2.154152622371e-03
2.230897877389e-03
2.668043109897e-03
1.509886810899e-03
8.779915255776e-05
2.649615632159e-03
2.672902434560e-03
2.675860213952e-03
2.432587980690e-03
2.503744224677e-03
2.653483614445e-03
8.553069130958e-04
2.510448796156e-03
2.405157033572e-03
5.901808721177e-04
8.259096957863e-04
2.004211779860e-03
1.838556158606e-03
2.302727744228e-03
1.880724211062e-03
2.181138116907e-03
2.546848626728e-03
5.213463856421e-04
1.889351178751e-03
1.838926454801e-03
2.186694872660e-03
8.974856131943e-04
1.450976967262e-03
5.545984482034e-04
2.562107567409e-03
1.511361266416e-03
1.533798706153e-03
1.198342584573e-03
9.367027384211e-04
7.678469522016e-04
1.383467574063e-03
1.436395465393e-03
2.077105053329e-03
2.264524411058e-03
9.573960717164e-05
2.156579190983e-03
1.716609102102e-03
1.939836678338e-03
2.158492398686e-03
5.150768309692e-04
2.235654372388e-03
2.477603897599e-03
1.783996711602e-03
4.144221385423e-04
1.745196127778e-03
2.455996044605e-03
2.192107023968e-03
8.179798870306e-04
1.586713031584e-03
1.476795995688e-03
1.357764793643e-03
2.464372059766e-03
1.635520042285e-03
2.280917680218e-03
1.863195988176e-03
8.805566959766e-04
2.278883031112e-03
1.544231597075e-03
2.376435901388e-03
2.092162375698e-03
1.252370540632e-03
2.283326010834e-03
1.550429240616e-03
2.237355294348e-03
1.436777900112e-03
1.820616741917e-03
1.987482973420e-03
1.728324343941e-03
1.926274130049e-03
2.217766810712e-03
5.476559903165e-04
1.112688634137e-03
1.926569742153e-03
2.344777165247e-03
2.515842675750e-03
1.343161791339e-03
2.199108491853e-03
2.419753883117e-03
1.497536575643e-03
6.032464374174e-04
4.597419411254e-04
9.789337945960e-04
1.559775713554e-03
1.637633184326e-03
2.543564647397e-03
2.260218322285e-03
2.112150247744e-03
2.161299976090e-04
1.412742876099e-03
2.321909244668e-03
1.646470922303e-03
2.295008199900e-03
1.560798532491e-03
2.558704700658e-03
1.121044944824e-03
2.385507026008e-03
2.126580390544e-03
1.012209318168e-03
1.491517864445e-03
2.546139686823e-03
2.268820457947e-03
1.863101692978e-03
1.568295305973e-03
1.213092099930e-03
1.698683733997e-03
1.896122026405e-03
2.680430447698e-03
2.340188976358e-03
1.960475765363e-03
1.619687750322e-03
1.971852220758e-03
3.139568210466e-04
1.268250031550e-03
1.680421034251e-03
1.039132252504e-03
1.627917119935e-03
2.526421355462e-03
1.741459026237e-03
1.175696714952e-03
1.802480401093e-03
1.069532253294e-03
2.021657120936e-03
1.863500043985e-03
2.031706769567e-03
3.303660548889e-04
1.922165928835e-03
2.356539770865e-03
1.098991098750e-03
1.688493502894e-03
2.160851994150e-03
9.238476106848e-04
1.827960587082e-03
2.168304235924e-03
1.982848647715e-03
1.695951481216e-03
1.969428965855e-03
9.720242743073e-04
7.968270693022e-04
6.575965983362e-04
1.235315768462e-03
2.245056134529e-03
4.312804693635e-04
2.142266021965e-03
4.603965241746e-04
1.158856469006e-03
2.189571053449e-03
1.880031749714e-03
1.217658401833e-03
7.436098586066e-04
1.140695859398e-03
1.832952572602e-03
1.199302673613e-03
1.121684337649e-03
2.544076829393e-03
1.179223665556e-03
2.678640837097e-03
2.663245265544e-03
1.599297886023e-03
7.726133569631e-04
8.581005560699e-05
8.245673850801e-04
9.624321576430e-04
2.122634576772e-03
1.605092520892e-03
8.809002147974e-04
2.559897377367e-03
2.678350717484e-03
2.085317072124e-03
2.349465428677e-03
2.048093172710e-03
2.419414440738e-03
1.481733884047e-03
1.887178579775e-04
1.998820916537e-03
6.256831333657e-04
6.442781669398e-04
4.961705400546e-04
9.291479549054e-04
3.070311084859e-04
5.093863858431e-04
2.547130682858e-03
1.609156249953e-03
2.260394556686e-03
3.633599060749e-04
2.553585127047e-03
2.552259243704e-03
2.678656993996e-03
2.400540364708e-03
3.472805672838e-04
1.727489543124e-03
2.560146328690e-03
2.197304652285e-03
2.687292894233e-03
1.592443916694e-03
2.563246302323e-03
4.750843734101e-04
2.565153092560e-03
2.260225834220e-03
1.778374587708e-03
1.719912840735e-03
2.570440036037e-03
2.557559708703e-03
2.709262812102e-04
2.078079181991e-03
1.169834245658e-03
1.790162519116e-04
2.556957886658e-03
2.391033403124e-03
2.561163689951e-03
3.080164194820e-04
1.737209561495e-04
2.578445109933e-03
2.574280087641e-03
5.427909701573e-04
2.698321848971e-03
1.667753634279e-04
1.467160407585e-03
1.851468014592e-04
2.684043831198e-03
2.568686292634e-03
1.292851217094e-03
1.501715913415e-03
8.388093688900e-04
2.459461256412e-03
2.851480576074e-04
2.582272328404e-03
2.584603723817e-03
2.582958541011e-03
2.704446736711e-03
1.681361806974e-04
2.587936658542e-03
2.456886913494e-03
1.480011844520e-03
2.563973240449e-03
1.042441963616e-03
4.257707050604e-04
2.693861335516e-03
6.348523092253e-05
1.471579805201e-03
2.693906623394e-03
4.051645909657e-04
1.703464194664e-03
2.581247231057e-03
1.596289447281e-03
2.338913473152e-03
3.990937866717e-04
7.099988376000e-05
1.954588399722e-03
2.577076161272e-03
2.590685421826e-03
1.856070049236e-03
3.555029316328e-04
2.497825990800e-03
1.400610861946e-03
2.472556451650e-03
2.460020747526e-03
7.297281749343e-05
1.719251498503e-03
1.678491842465e-04
2.587993143994e-03
1.460699200276e-03
2.678427728072e-05
3.659885597543e-05
1.480099508728e-04
1.597984107900e-04
2.943912832619e-04
3.090851688768e-04
4.373631581268e-04
4.435865099106e-04
5.799968093258e-04
5.937553103709e-04
7.231351813315e-04
7.278184240281e-04
8.639484104078e-04
8.779544284796e-04
1.006334226699e-03
1.011961981099e-03
1.148251799434e-03
1.162129275795e-03
1.290758801384e-03
1.294980731209e-03

SCALARS node_materi_strain_total_size_dev_sd_ept float
LOOKUP_TABLE default
8.991457795700e-05
3.373873594288e-03
6.682952555065e-03
6.684633362372e-03
2.643608424111e-04
6.024700959134e-04
9.138894802147e-04
1.275999653140e-03
1.628067785252e-03
1.971026765516e-03
2.316062463382e-03
2.662466765693e-03
3.008456909853e-03
3.360640410146e-03
3.723955897067e-03
4.068300924208e-03
4.381478746380e-03
4.732415510634e-03
5.091013388870e-03
5.438918409662e-03
5.790837104844e-03
6.146150708027e-03
6.483302504273e-03
6.702607948818e-03
6.686876272445e-03
6.691141261159e-03
6.691279875709e-03
6.679865203185e-03
6.689682801598e-03
6.690668420518e-03
6.687431778132e-03
6.698468332459e-03
6.698049057502e-03
6.686636112179e-03
6.696089188293e-03
6.699976243960e-03
6.695935547749e-03
6.688888176169e-03
6.678912874796e-03
6.676148145732e-03
6.684688040541e-03
6.692783670273e-03
6.699127623794e-03
6.697336930035e-03
6.693195438620e-03
6.693017705857e-03
6.691554038752e-03
6.694684527007e-03
6.697337278033e-03
6.701028440901e-03
6.700385517904e-03
6.698605501346e-03
6.709482340123e-03
6.706333426081e-03
6.688006197875e-03
6.686769669978e-03
6.692492775613e-03
6.693979053991e-03
6.696186858762e-03
6.696661755177e-03
6.692996858481e-03
6.686454777528e-03
6.681164017474e-03
6.687262900218e-03
6.701770847331e-03
6.705865016063e-03
6.663276479548e-03
6.697962501224e-03
6.685458016309e-03
6.693374251678e-03
6.704786589309e-03
6.703723760505e-03
3.719934393139e-03
4.072260059689e-03
4.416942441862e-03
4.755289048759e-03
5.101143783238e-03
5.444757956487e-03
5.788353678799e-03
6.128602620246e-03
6.476977967560e-03
4.723063379896e-05
4.492956422817e-05
3.369419196417e-03
2.313022441945e-04
5.617624982423e-04
9.106710500088e-04
1.251398060221e-03
1.600325351079e-03
1.949524165683e-03
2.299299062911e-03
2.648524957986e-03
2.997833086863e-03
2.457499764311e-04
5.947610084416e-04
9.318747296495e-04
1.275875879088e-03
1.621671158960e-03
1.969030071019e-03
2.316332526291e-03
2.663543901724e-03
3.007858692921e-03
3.323049019553e-03
3.342525146031e-03
3.344848043963e-03
3.340236252262e-03
3.385345701854e-03
3.345149435070e-03
3.339610941342e-03
3.343467909769e-03
3.352952748161e-03
3.351541889329e-03
3.348138372958e-03
3.347077979028e-03
3.346630949675e-03
3.352275520386e-03
7.575773060677e-05
8.785287491461e-05
7.469341738675e-05
7.093401008214e-05
8.875556815337e-05
9.810651576583e-05
9.748784181710e-05
9.508637259684e-05
9.489532055226e-05
9.419638147720e-05
9.729174765424e-05
1.130737436823e-04
1.046648510442e-04
8.722248914192e-05
8.759160310705e-05
9.634010141417e-05
9.861140546796e-05
8.520255933483e-05
7.710720088428e-05
2.250773583426e-05
9.794399020292e-05
1.316436110865e-04
1.212964589434e-04
1.244742476858e-04
1.228188585132e-04
1.233555542409e-04
1.233866354773e-04
1.238033727858e-04
1.240315752948e-04
1.242705174691e-04
1.244306712778e-04
1.245621555419e-04
1.246547783873e-04
1.247174473799e-04
1.247495922886e-04
1.247525086600e-04
1.247266258056e-04
1.246728467648e-04
1.245906712287e-04
1.244764946962e-04
1.243234713250e-04
1.241237682662e-04
1.238756441799e-04
1.236030552598e-04
1.234083220460e-04
1.236576959318e-04
1.273936125772e-04
8.790195213898e-05
2.422345292596e-04
2.537624544077e-04
2.589274222328e-04
2.608121196374e-04
2.618748894593e-04
2.624684933615e-04
2.628194214436e-04
2.630415337527e-04
2.631918696153e-04
2.632985316510e-04
2.633743329230e-04
2.634240301713e-04
2.634478230148e-04
2.634443191727e-04
2.634117537480e-04
2.633528705528e-04
2.632657322102e-04
2.631620368521e-04
2.630217794855e-04
2.628909922100e-04
2.626558721562e-04
2.625045223078e-04
2.619721568930e-04
2.618568430139e-04
2.604769856666e-04
2.605720354223e-04
2.742527860852e-04
2.091945037141e-04
5.195671514601e-04
5.886896949365e-04
5.713420935620e-04
5.735776576961e-04
5.743859260739e-04
5.747274931984e-04
5.748362387710e-04
5.748592168829e-04
5.748892561802e-04
5.749073461119e-04
5.749260370899e-04
5.749433277302e-04
5.749607357983e-04
5.749758304494e-04
5.749898000292e-04
5.749978548439e-04
5.749890149569e-04
5.749498629169e-04
5.748635847554e-04
5.747003878200e-04
5.744025917533e-04
5.738633197781e-04
5.728986089115e-04
5.712431303423e-04
5.690507561671e-04
5.837444518622e-04
8.636492838863e-04
9.362305293314e-04
9.231262550289e-04
9.230876184926e-04
9.237548145154e-04
9.232912277079e-04
9.233629800629e-04
9.232208743296e-04
9.231445397883e-04
9.230516423155e-04
9.229952478391e-04
9.229717966427e-04
9.229998427292e-04
9.230639322406e-04
9.231280797921e-04
9.231611935995e-04
9.231431755844e-04
9.230476351198e-04
9.228341000726e-04
9.224444106522e-04
9.218224609144e-04
9.210045911279e-04
9.205987616858e-04
9.235230523366e-04
9.300020702442e-04
1.274093705882e-03
1.270913386135e-03
1.269941339856e-03
1.270081589321e-03
1.270491882016e-03
1.270862695271e-03
1.271103361094e-03
1.271212614187e-03
1.271229840908e-03
1.271183595096e-03
1.271093111535e-03
1.270964048692e-03
1.270871283009e-03
1.270880946590e-03
1.271035181085e-03
1.271168821157e-03
1.271421730846e-03
1.271423795055e-03
1.271791722956e-03
1.271118377637e-03
1.271598296513e-03
1.286412474517e-03
1.214635981309e-03
1.562531001454e-03
1.633171626030e-03
1.619805369008e-03
1.619391535947e-03
1.620099118810e-03
1.619611704677e-03
1.619463926686e-03
1.619047600519e-03
1.618919610349e-03
1.619034218191e-03
1.619248377822e-03
1.619353916541e-03
1.619410889793e-03
1.619444326814e-03
1.619413064053e-03
1.619251652289e-03
1.618951269577e-03
1.618638264809e-03
1.618524047451e-03
1.618984265431e-03
1.620157038086e-03
1.621242469478e-03
1.968319673170e-03
1.967266145442e-03
1.966716350744e-03
1.966665988874e-03
1.966867774304e-03
1.967184071641e-03
1.967445174844e-03
1.967468770364e-03
1.967388901894e-03
1.967411271438e-03
1.967442000686e-03
1.967294524169e-03
1.966844968861e-03
1.966852384868e-03
1.967261399249e-03
1.968320115691e-03
1.967876117551e-03
1.967651206754e-03
1.982773261564e-03
1.910979103429e-03
2.258339357379e-03
2.331013956420e-03
2.317418649408e-03
2.315982041977e-03
2.315232284033e-03
2.314713240696e-03
2.315628133077e-03
2.315878685569e-03
2.315797812305e-03
2.315425200264e-03
2.315474876147e-03
2.315788366567e-03
2.315473779464e-03
2.315065989995e-03
2.314813293565e-03
2.314731904483e-03
2.314924941227e-03
2.315762344327e-03
2.316263241142e-03
2.664751717478e-03
2.662760640997e-03
2.662233627571e-03
2.662647439348e-03
2.662432554127e-03
2.662970514716e-03
2.663549931593e-03
2.663647008258e-03
2.662721842073e-03
2.663657181319e-03
2.664242415276e-03
2.663888429887e-03
2.663966829484e-03
2.661994884203e-03
2.663678442314e-03
2.680957241945e-03
2.609070032380e-03
2.956910456818e-03
3.027981131980e-03
3.012946264586e-03
3.011265124112e-03
3.012141698261e-03
3.012696894722e-03
3.011163545267e-03
3.011020307139e-03
3.011166819998e-03
3.010861421289e-03
3.010297548270e-03
3.009944601253e-03
3.010919361507e-03
3.009410818956e-03
3.012431609933e-03
3.015930290042e-03
1.031752921093e-04
4.211966236747e-04
7.674234826213e-04
1.116767340269e-03
1.457911726999e-03
1.805539986020e-03
2.155470449064e-03
2.503951545034e-03
2.852550879231e-03
3.203533168556e-03
7.184456752606e-04
6.543443113192e-03
2.074120452384e-04
1.913597259453e-04
6.545251603957e-03
1.423288272050e-03
3.554653461566e-03
6.533028327801e-03
2.086948817980e-03
6.548544541734e-03
2.799023178147e-03
6.565603682066e-03
1.966558175057e-04
6.551061669299e-03
3.507172030412e-03
2.159344703504e-03
4.504641328907e-03
6.535390205787e-03
6.551141783985e-03
6.547261232215e-03
6.517239137073e-03
6.557910365773e-03
3.666186206663e-03
3.668401530338e-03
3.691549356104e-03
4.929546218158e-03
6.546639140067e-03
1.902234957184e-04
2.123448287529e-04
5.602461714985e-03
3.653193554421e-03
1.094670781138e-03
6.491032131106e-03
6.565644051942e-03
6.550362025644e-03
6.519906688918e-03
6.555856714250e-03
2.136308880941e-04
3.655707849573e-03
6.492693771550e-03
5.611015391118e-03
2.152252142422e-04
2.838016793169e-03
6.597289970923e-03
1.781561100697e-03
1.071361359383e-03
2.443960681730e-03
3.148331301452e-03
3.568422245443e-04
4.270064260216e-03
6.605087163149e-03
1.936443918959e-04
6.282490723779e-03
3.669363223368e-03
3.811648347918e-03
3.975956470541e-03
4.141938264175e-03
4.322580330209e-03
4.470408922507e-03
4.288888899606e-03
4.617747260732e-03
4.434259284690e-03
4.654518841625e-03
4.764652246279e-03
4.579537110862e-03
4.910754457145e-03
4.725197184375e-03
4.396086191061e-03
4.540916843067e-03
4.212341713953e-03
4.356762978366e-03
4.685993072249e-03
4.501114580256e-03
4.172169738938e-03
4.315800443380e-03
3.987745640484e-03
4.131002210419e-03
3.802660915737e-03
3.946112846021e-03
4.274869013750e-03
4.089676357309e-03
3.761198047448e-03
3.904538987946e-03
3.576307946963e-03
3.718651758490e-03
4.048010326101e-03
3.862046934883e-03
3.531115675326e-03
3.675662035984e-03
3.343193134000e-03
3.489332505853e-03
3.154892503931e-03
3.301052679802e-03
3.634911148282e-03
3.447092884093e-03
3.111845380380e-03
3.257500222345e-03
3.593491829242e-03
3.403442251997e-03
3.740127825474e-03
3.549880743609e-03
3.214552730384e-03
3.360291877220e-03
3.696193171914e-03
3.505387809080e-03
3.170940817107e-03
3.315789719056e-03
3.651430116815e-03
3.461016510527e-03
3.126468700404e-03
3.271297869101e-03
3.608555885499e-03
3.416704469774e-03
3.080557467045e-03
3.224763160561e-03
3.564151660693e-03
3.370094149574e-03
3.712139123619e-03
3.029655899182e-03
3.174874549676e-03
2.832616164954e-03
2.979247560021e-03
4.192345224748e-03
2.635834106652e-03
2.493636023949e-03
2.783763802143e-03
3.129094316973e-03
2.439106394613e-03
2.588270711870e-03
2.243285013589e-03
3.003190323662e-03
4.831423029200e-03
2.393340763071e-03
2.048172186477e-03
1.897944827645e-03
1.702458189762e-03
4.504884468193e-03
4.842265796813e-03
4.682307303784e-03
5.029498667788e-03
4.875376561752e-03
1.852318660227e-03
5.099686711985e-03
5.181644413610e-03
3.845305457061e-03
3.433588241959e-03
3.930596968534e-03
2.738267314830e-03
2.544205738598e-03
2.890243704789e-03
3.906262281009e-03
4.055371698003e-03
4.249621994839e-03
4.399160782486e-03
4.593621451770e-03
4.743439799267e-03
4.548668053264e-03
4.893252102388e-03
4.698199993589e-03
4.937991322266e-03
4.787454948801e-03
5.042822540480e-03
4.847707599568e-03
5.192342971228e-03
4.997152492634e-03
4.652040355625e-03
4.801255986821e-03
4.457535721331e-03
4.077884663445e-03
4.269059505554e-03
4.416562706995e-03
4.608358442909e-03
4.756187853706e-03
4.948366869418e-03
5.095975229814e-03
4.904072296006e-03
5.055841142224e-03
2.922273746671e-03
2.776772941405e-03
2.587698185961e-03
2.442564623184e-03
2.253602008454e-03
2.109305599843e-03
1.919151353942e-03
2.063613285801e-03
1.727457539472e-03
1.872572104138e-03
1.534902236270e-03
1.680063146529e-03
4.419010584680e-03
4.799842156018e-03
5.140518647770e-03
4.988994748660e-03
1.552759660284e-03
5.146664867193e-03
5.132347093029e-03
4.980026345989e-03
5.244997815751e-03
1.510013257261e-03
1.777226134239e-03
1.964781718804e-03
5.216848821423e-03
5.062314223126e-03
5.326637772875e-03
1.658767694283e-03
5.238156216364e-03
1.391473340075e-03
4.950543750173e-03
5.296136681453e-03
4.354274112482e-03
5.331632603047e-03
5.176307506311e-03
2.020384968329e-03
1.828921730325e-03
1.495668837263e-03
1.647629412216e-03
1.979159201577e-03
1.783917412734e-03
1.447091356469e-03
1.588546474905e-03
1.928816107018e-03
1.733236785904e-03
1.389691949410e-03
1.535757891914e-03
5.491624770249e-03
1.196465838030e-03
4.068516034583e-03
5.476885717123e-03
5.433283766644e-03
5.404988945220e-03
5.250860730225e-03
4.906314297448e-03
5.096986555224e-03
5.441471863371e-03
5.287285577141e-03
4.942269996724e-03
5.131558866688e-03
4.785552498264e-03
4.975324827675e-03
5.321087478772e-03
5.165755555241e-03
4.820061043299e-03
5.009987327377e-03
4.663760986463e-03
4.851461390999e-03
5.200079801821e-03
1.324217081826e-03
5.052721505565e-03
5.397475581454e-03
2.707041553887e-03
3.037953339269e-03
3.235203784684e-03
3.388082656330e-03
5.039824068724e-03
5.391494016616e-03
1.635942881084e-03
1.821066625670e-03
5.558519836931e-03
5.101583118758e-03
4.756238142902e-03
3.248820384660e-03
3.105999379932e-03
2.919866814729e-03
2.772300225278e-03
2.963413591628e-03
2.581821238095e-03
4.633514609398e-03
5.511800627252e-03
1.749715952757e-03
1.405081142024e-03
5.448161447543e-03
4.711158200599e-03
4.604900558160e-03
4.750075386744e-03
4.937453739294e-03
5.083367108515e-03
5.272235100073e-03
5.417803550126e-03
5.230693884750e-03
5.520408852857e-03
5.566211982999e-03
4.685791701087e-03
4.646949336536e-03
2.075935122681e-03
1.173494339952e-03
1.185286060662e-03
1.460718940553e-03
1.807403892431e-03
5.672006917058e-03
5.608024313416e-03
5.458858450884e-03
2.633199308217e-03
2.823867513278e-03
5.671709482066e-03
4.531039174577e-03
4.597174578468e-03
4.438467717093e-03
1.085320158604e-03
1.051083907353e-03
5.632131914736e-03
2.149403779827e-03
2.005831971598e-03
1.052910167912e-03
8.571292664468e-04
5.224064411315e-03
5.572372949731e-03
3.579876690632e-03
3.732923585758e-03
5.521799067127e-03
1.338641360657e-03
5.738122330688e-03
4.860747280226e-03
4.518288816055e-03
3.187618503469e-03
1.497366027156e-03
1.312096342402e-03
2.269863919604e-03
1.683172386928e-03
1.609725402549e-03
5.867008072737e-03
5.783496031126e-03
5.379826356873e-03
5.042475458987e-03
5.715866034730e-03
9.933891535427e-04
5.827031250207e-03
5.255260872986e-03
5.783942413905e-03
5.645076159425e-03
2.333085601298e-03
2.195028570321e-03
1.867997162020e-03
2.058292603311e-03
4.106942278195e-03
2.523387354499e-03
3.885496018700e-03
3.742518364777e-03
3.562037392625e-03
3.148608863889e-03
3.009691918315e-03
2.629344872077e-03
4.120309623052e-03
3.430204212162e-03
4.308707345432e-03
4.099395590895e-03
5.665023386000e-03
5.858273857343e-03
4.473692569238e-03
4.313328465890e-03
1.206683748074e-03
1.061643520740e-03
3.861173793271e-03
5.626283221225e-03
5.744295831024e-03
5.897635828406e-03
5.709217611414e-03
5.712305988126e-03
2.733376446598e-03
4.224737903874e-03
1.005959061096e-03
4.377651701141e-03
8.658417286422e-04
5.015753858879e-03
5.601474494570e-03
5.792129667472e-03
5.857376795751e-03
3.642038583983e-03
4.523362974229e-03
4.338485533533e-03
3.420692408797e-03
3.242558267943e-03
3.380888095973e-03
3.061940904846e-03
2.414198457368e-03
2.219364798627e-03
5.968862422958e-03
5.896999461057e-03
5.972547284942e-03
5.837678624101e-03
6.006231206420e-03
5.817738068871e-03
1.948490067466e-03
2.688826980435e-03
5.972703554598e-03
3.598555376118e-03
5.967688459135e-03
5.777187414844e-03
6.645456618509e-04
8.018451518299e-04
5.925512963333e-03
1.729416591868e-03
1.911206549811e-03
1.543470943442e-03
6.307837643435e-03
3.642422762389e-03
5.946596714966e-03
3.335014509033e-03
6.090454472045e-03
4.673390870755e-03
3.056799432448e-03
5.368737979518e-03
5.739777680714e-03
6.123096248734e-03
4.249074187302e-03
4.082039377385e-03
4.399209165555e-03
1.248566324033e-03
8.835052388449e-04
5.701842280716e-03
2.352421407942e-03
2.541615145742e-03
1.477134519326e-03
1.819098656822e-03
3.773946342446e-03
3.624533723774e-03
5.163630942478e-03
5.349049736962e-03
4.791077635215e-03
4.668390267026e-03
4.326178644474e-03
4.178989280600e-03
6.003293728360e-03
6.233763164649e-03
2.605946426828e-03
2.461697565207e-03
2.553726959251e-03
6.124947583381e-03
6.133649815410e-03
5.983267425338e-03
7.254925206451e-04
9.156760103282e-04
1.177736769756e-03
9.955891190605e-04
6.041140224858e-03
5.863110230165e-03
6.257639082003e-03
1.727664443440e-03
5.195846389232e-03
6.043975569431e-03
5.894469432063e-03
6.242427020205e-03
5.701262120791e-03
6.031352266772e-03
6.049173151066e-03
5.280437508361e-04
6.001141996001e-03
4.108756136241e-03
3.849371164633e-04
3.950755002200e-03
4.152410987510e-03
3.773629860989e-03
1.388242474400e-03
3.999893038538e-03
4.208551675673e-03
5.173601662276e-04
6.309603566882e-03
5.529465031078e-04
6.815326983098e-04
6.118476905377e-03
5.923819668958e-03
6.257798160930e-03
6.061283114653e-03
5.727751593138e-03
5.882608844816e-03
3.912354673529e-03
6.261978972028e-03
6.041156956193e-03
6.424851251153e-03
2.930254449980e-03
2.241873034906e-03
2.100847176903e-03
1.765166028000e-03
6.215665130610e-03
6.008283741401e-03
5.418556939098e-03
5.069446715508e-03
3.973598090034e-03
3.954714824760e-03
4.270181495529e-03
4.227954925280e-03
4.545036389853e-03
4.494860971474e-03
4.817466561332e-03
6.242575474452e-03
1.399440423877e-03
3.281551259118e-03
6.151157613208e-03
5.942263023604e-03
2.872971006549e-03
2.561834446245e-03
6.213930660828e-03
2.663537292131e-03
6.507739827390e-03
1.783903159744e-04
4.815459343210e-04
2.855151305073e-03
3.196698182493e-03
2.430608767838e-03
2.308372092223e-03
5.016319766064e-03
7.776924779487e-04
1.361248279079e-03
4.855797341611e-03
1.038838365414e-03
5.251280043552e-03
2.815918053010e-03
3.475011447103e-03
1.682077780899e-03
2.391858127953e-03
4.251240900079e-03
3.963218108099e-03
3.782484139804e-03
2.965440777413e-03
2.500948623286e-03
2.148912938626e-03
4.028529315660e-03
5.521994663816e-03
5.673058049052e-03
6.001180043567e-03
5.822343490207e-03
5.485529729236e-03
5.634071658227e-03
5.971132172910e-03
5.791423242866e-03
6.186835751777e-03
5.938556517591e-03
5.591241561031e-03
5.732643079723e-03
6.051800736334e-03
5.392821168794e-03
6.335958329648e-03
3.194918149123e-03
7.071078431869e-04
6.710679691761e-04
3.661051222468e-03
6.529895615350e-03
6.541112786015e-03
2.295875545173e-03
6.545633876633e-03
3.924519471037e-03
1.585508946302e-03
6.549186193101e-03
5.333481357381e-03
5.142348969479e-03
4.992027533571e-03
6.558887140627e-03
4.559971641569e-03
6.561497961037e-03
4.459579418782e-03
4.307020930560e-03
3.969680504770e-03
5.441258437547e-03
6.542372440508e-03
6.262226267541e-03
6.260566433507e-03
5.955933475285e-03
6.545485338646e-03
6.560990301321e-03
6.570267308290e-03
2.123841835443e-03
2.317251362325e-03
2.651961531124e-03
2.506676600458e-03
2.169296922007e-03
2.358981927247e-03
2.693816598001e-03
2.210239093572e-03
5.683612495704e-03
6.557783578035e-03
4.442847666015e-03
4.289349941663e-03
3.948120175797e-03
3.280153785554e-03
3.474367291117e-03
3.818284553553e-03
3.085608366098e-03
4.895513371225e-03
6.554115724501e-03
4.371291171734e-03
3.323682106326e-03
3.663285387273e-03
3.963681330684e-03
3.968600311552e-03
4.292017170677e-03
3.994387435916e-03
3.924472265093e-03
4.074923833542e-03
3.885027963086e-03
4.224470732047e-03
4.026612535370e-03
3.710329324392e-03
4.366895415739e-03
4.147928694145e-03
3.658277873144e-03
2.110858764171e-04
4.789276789186e-04
4.705717648508e-04
7.565578802473e-04
7.801867893747e-04
1.083310076557e-03
1.041891081017e-03
4.791840830138e-04
2.103808283644e-04
4.701511020683e-04
2.072012571778e-04
4.610725826216e-04
7.963844975695e-04
1.266465833357e-03
6.504109956260e-03
3.182633632148e-03
3.017171876376e-03
2.681316797747e-03
2.863112226734e-03
3.322161360384e-03
2.497569829907e-03
2.373677833397e-03
2.089509783404e-04
4.721143509524e-04
4.497251686604e-04
7.723299730084e-04
7.614467075206e-04
4.743325025731e-04
4.761230335564e-04
2.073883403663e-04
4.728895097351e-04
7.747564429713e-04
1.965015839707e-04
5.276326594415e-03
5.466007935664e-03
6.536429249783e-03
3.696185423406e-03
2.114206545747e-04
6.491656933516e-03
6.546149242590e-03
6.551750710844e-03
5.958583816190e-03
6.130516301953e-03
6.502272725286e-03
2.093768333887e-03
6.146908614282e-03
5.892470248617e-03
1.448235526641e-03
2.022247847357e-03
4.908983353004e-03
4.503445291722e-03
5.640724892772e-03
4.607041503245e-03
5.342080132481e-03
6.239207718543e-03
1.271716631825e-03
4.627940507841e-03
4.503939655551e-03
5.356396941120e-03
2.199134393606e-03
3.553441463881e-03
1.360011539333e-03
6.274716085769e-03
3.703358863939e-03
3.757104911990e-03
2.934096877418e-03
2.292939652775e-03
1.880412104730e-03
3.388702523329e-03
3.517922300269e-03
5.088049728062e-03
5.547656783083e-03
2.521134770292e-04
5.282369618823e-03
4.204696686669e-03
4.752533854697e-03
5.288211068341e-03
1.256421298129e-03
5.476802653933e-03
6.070784982681e-03
4.368510798983e-03
1.015252824604e-03
4.277257632080e-03
6.016359044751e-03
5.369930957943e-03
2.003016003050e-03
3.886876844432e-03
3.617901878516e-03
3.322936366100e-03
6.039423723587e-03
4.006381592660e-03
5.588304377798e-03
4.563818450650e-03
2.156952573289e-03
5.583061683846e-03
3.782885885629e-03
5.821222558259e-03
5.124656096922e-03
3.068160930391e-03
5.592764925538e-03
3.798239325230e-03
5.481077503397e-03
3.520631892075e-03
4.460007542165e-03
4.869846879653e-03
4.233538740136e-03
4.718396126298e-03
5.433190976364e-03
1.344016374756e-03
2.725391638281e-03
4.717332410917e-03
5.745895011837e-03
6.160660512538e-03
3.290807180145e-03
5.386800637106e-03
5.928027639381e-03
3.667739086170e-03
1.478166882693e-03
1.129254009410e-03
2.398780186859e-03
3.821018145085e-03
4.011106025476e-03
6.231924034130e-03
5.535588090214e-03
5.173670575146e-03
5.428982627849e-04
3.459636865729e-03
5.686277854863e-03
4.033217593000e-03
5.622907408468e-03
3.820071816917e-03
6.266597051460e-03
2.746587138691e-03
5.843849377545e-03
5.209513489299e-03
2.480027250327e-03
3.653266212475e-03
6.237531570986e-03
5.558615615964e-03
4.563489377785e-03
3.841844695639e-03
2.970907357282e-03
4.160665127287e-03
4.645369473576e-03
6.563809854618e-03
5.735489299964e-03
4.801633892440e-03
3.967062160731e-03
4.830176106172e-03
7.611977540605e-04
3.106630749341e-03
4.116206734518e-03
2.546019143513e-03
3.988077843598e-03
6.185692984685e-03
4.266095956300e-03
2.880400505963e-03
4.415626828109e-03
2.619516260350e-03
4.952212832683e-03
4.563724717333e-03
4.977122227584e-03
8.046535366175e-04
4.708411601559e-03
5.770907463170e-03
2.691510144525e-03
4.136452285244e-03
5.293296401075e-03
2.264026595115e-03
4.477926552175e-03
5.311532490126e-03
4.857030172083e-03
4.154581235431e-03
4.824169258974e-03
2.382939594679e-03
1.950806240356e-03
1.610469878956e-03
3.026485987972e-03
5.499469361641e-03
1.057657885120e-03
5.247562116989e-03
1.127839018353e-03
2.839302355946e-03
5.361592550040e-03
4.605188912171e-03
2.983319127068e-03
1.820837849674e-03
2.794857164223e-03
4.490103124481e-03
2.938171745653e-03
2.747670094582e-03
6.233804766537e-03
2.888223829809e-03
6.557502821278e-03
6.523437041503e-03
3.918286608383e-03
1.897450147721e-03
2.197202289245e-04
2.017080282770e-03
2.356887242230e-03
5.200874205943e-03
3.930985800331e-03
2.156667346869e-03
6.269257327908e-03
6.560923726755e-03
5.107759427306e-03
5.758739282826e-03
5.016377529876e-03
5.928938295861e-03
3.627584408864e-03
4.608198113658e-04
4.896243496760e-03
1.536298818529e-03
1.578355743941e-03
1.217354234939e-03
2.280326373960e-03
7.471749264163e-04
1.247311828715e-03
6.241949139144e-03
3.936946932845e-03
5.535113235315e-03
8.916239046757e-04
6.256665045451e-03
6.253047394660e-03
6.562785581404e-03
5.878386200848e-03
8.588266597382e-04
4.225463175386e-03
6.273260457400e-03
5.379443505723e-03
6.578786502661e-03
3.894158230233e-03
6.279124176836e-03
1.165861940632e-03
6.283051379094e-03
5.538244369535e-03
4.354043510168e-03
4.208578403106e-03
6.294575384891e-03
6.268439175206e-03
6.713884697910e-04
5.086251387159e-03
2.867633263449e-03
4.317178228219e-04
6.265936820129e-03
5.860257733576e-03
6.276950153190e-03
7.610752426723e-04
4.347641508961e-04
6.318206852870e-03
6.305889358803e-03
1.327483044437e-03
6.609738720954e-03
4.123672416423e-04
3.589376346865e-03
4.463756343387e-04
6.571310584836e-03
6.294990738434e-03
3.167593294194e-03
3.675219678120e-03
2.055487297366e-03
6.027381266329e-03
6.922974046303e-04
6.328853001814e-03
6.333634400404e-03
6.329166109759e-03
6.625568744485e-03
4.097804984654e-04
6.342356584424e-03
6.021722711247e-03
3.625645153481e-03
6.280585660373e-03
2.554573471886e-03
1.037416849186e-03
6.593151081302e-03
1.616460306313e-04
3.606994553706e-03
6.598311074509e-03
9.841285346330e-04
4.171073696992e-03
6.321013131609e-03
3.911737599062e-03
5.730109265906e-03
9.694381834562e-04
1.672777496974e-04
4.786745944966e-03
6.315444579132e-03
6.348685787005e-03
4.544990770669e-03
8.745429455484e-04
6.120817607307e-03
3.425755578130e-03
6.061495212189e-03
6.032201202245e-03
1.836513698747e-04
4.213452339217e-03
4.192712684522e-04
6.341957152953e-03
3.577998544630e-03
6.452088902870e-05
8.257077366258e-05
3.659557999464e-04
4.090117640418e-04
7.142669031940e-04
7.711159785175e-04
1.057547456530e-03
1.092299618485e-03
1.404637374924e-03
1.457723102422e-03
1.752566278169e-03
1.784999056797e-03
2.102943409760e-03
2.152009288808e-03
2.452371937339e-03
2.480362135878e-03
2.800896477770e-03
2.847289923081e-03
3.150738489023e-03
3.176883830581e-03


CELL_DATA 2424

SCALARS element_number int
LOOKUP_TABLE default
407
408
409
410
411
412
413
414
415
416
417
418
419
420
421
422
423
424
425
426
427
428
429
430
431
432
433
434
435
436
437
438
439
440
441
442
443
444
445
446
447
448
449
450
451
452
453
454
455
456
457
458
459
460
461
462
463
464
465
466
467
468
469
470
471
472
473
474
475
476
477
478
479
480
481
482
483
484
485
486
487
488
489
490
491
492
493
494
495
496
497
498
499
500
501
502
503
504
505
506
507
508
509
510
511
512
513
514
515
516
517
518
519
520
521
522
523
524
525
526
527
528
529
530
531
532
533
534
535
536
537
538
539
540
541
542
543
544
545
546
547
548
549
550
551
552
553
554
555
556
557
558
559
560
561
562
563
564
565
566
567
568
569
570
571
572
573
574
575
576
577
578
579
580
581
582
583
584
585
586
587
588
589
590
591
592
593
594
595
596
597
598
599
600
601
602
603
604
605
606
607
608
609
610
611
612
613
614
615
616
617
618
619
620
621
622
623
624
625
626
627
628
629
630
631
632
633
634
635
636
637
638
639
640
641
642
643
644
645
646
647
648
649
650
651
652
653
654
655
656
657
658
659
660
661
662
663
664
665
666
667
668
669
670
671
672
673
674
675
676
677
678
679
680
681
682
683
684
685
686
687
688
689
690
691
692
693
694
695
696
697
698
699
700
701
702
703
704
705
706
707
708
709
710
711
712
713
714
715
716
717
718
719
720
721
722
723
724
725
726
727
728
729
730
731
732
733
734
735
736
737
738
739
740
741
742
743
744
745
746
747
748
749
750
751
752
753
754
755
756
757
758
759
760
761
762
763
764
765
766
767
768
769
770
771
772
773
774
775
776
777
778
779
780
781
782
783
784
785
786
787
788
789
790
791
792
793
794
795
796
797
798
799
800
801
802
803
804
805
806
807
808
809
810
811
812
813
814
815
816
817
818
819
820
821
822
823
824
825
826
827
828
829
830
831
832
833
834
835
836
837
838
839
840
841
842
843
844
845
846
847
848
849
850
851
852
853
854
855
856
857
858
859
860
861
862
863
864
865
866
867
868
869
870
871
872
873
874
875
876
877
878
879
880
881
882
883
884
885
886
887
888
889
890
891
892
893
894
895
896
897
898
899
900
901
902
903
904
905
906
907
908
909
910
911
912
913
914
915
916
917
918
919
920
921
922
923
924
925
926
927
928
929
930
931
932
933
934
935
936
937
938
939
940
941
942
943
944
945
946
947
948
949
950
951
952
953
954
955
956
957
958
959
960
961
962
963
964
965
966
967
968
969
970
971
972
973
974
975
976
977
978
979
980
981
982
983
984
985
986
987
988
989
990
991
992
993
994
995
996
997
998
999
1000
1001
1002
1003
1004
1005
1006
1007
1008
1009
1010
1011
1012
1013
1014
1015
1016
1017
1018
1019
1020
1021
1022
1023
1024
1025
1026
1027
1028
1029
1030
1031
1032
1033
1034
1035
1036
1037
1038
1039
1040
1041
1042
1043
1044
1045
1046
1047
1048
1049
1050
1051
1052
1053
1054
1055
1056
1057
1058
1059
1060
1061
1062
1063
1064
1065
1066
1067
1068
1069
1070
1071
1072
1073
1074
1075
1076
1077
1078
1079
1080
1081
1082
1083
1084
1085
1086
1087
1088
1089
1090
1091
1092
1093
1094
1095
1096
1097
1098
1099
1100
1101
1102
1103
1104
1105
1106
1107
1108
1109
1110
1111
1112
1113
1114
1115
1116
1117
1118
1119
1120
1121
1122
1123
1124
1125
1126
1127
1128
1129
1130
1131
1132
1133
1134
1135
1136
1137
1138
1139
1140
1141
1142
1143
1144
1145
1146
1147
1148
1149
1150
1151
1152
1153
1154
1155
1156
1157
1158
1159
1160
1161
1162
1163
1164
1165
1166
1167
1168
1169
1170
1171
1172
1173
1174
1175
1176
1177
1178
1179
1180
1181
1182
1183
1184
1185
1186
1187
1188
1189
1190
1191
1192
1193
1194
1195
1196
1197
1198
1199
1200
1201
1202
1203
1204
1205
1206
1207
1208
1209
1210
1211
1212
1213
1214
1215
1216
1217
1218
1219
1220
1221
1222
1223
1224
1225
1226
1227
1228
1229
1230
1231
1232
1233
1234
1235
1236
1237
1238
1239
1240
1241
1242
1243
1244
1245
1246
1247
1248
1249
1250
1251
1252
1253
1254
1255
1256
1257
1258
1259
1260
1261
1262
1263
1264
1265
1266
1267
1268
1269
1270
1271
1272
1273
1274
1275
1276
1277
1278
1279
1280
1281
1282
1283
1284
1285
1286
1287
1288
1289
1290
1291
1292
1293
1294
1295
1296
1297
1298
1299
1300
1301
1302
1303
1304
1305
1306
1307
1308
1309
1310
1311
1312
1313
1314
1315
1316
1317
1318
1319
1320
1321
1322
1323
1324
1325
1326
1327
1328
1329
1330
1331
1332
1333
1334
1335
1336
1337
1338
1339
1340
1341
1342
1343
1344
1345
1346
1347
1348
1349
1350
1351
1352
1353
1354
1355
1356
1357
1358
1359
1360
1361
1362
1363
1364
1365
1366
1367
1368
1369
1370
1371
1372
1373
1374
1375
1376
1377
1378
1379
1380
1381
1382
1383
1384
1385
1386
1387
1388
1389
1390
1391
1392
1393
1394
1395
1396
1397
1398
1399
1400
1401
1402
1403
1404
1405
1406
1407
1408
1409
1410
1411
1412
1413
1414
1415
1416
1417
1418
1419
1420
1421
1422
1423
1424
1425
1426
1427
1428
1429
1430
1431
1432
1433
1434
1435
1436
1437
1438
1439
1440
1441
1442
1443
1444
1445
1446
1447
1448
1449
1450
1451
1452
1453
1454
1455
1456
1457
1458
1459
1460
1461
1462
1463
1464
1465
1466
1467
1468
1469
1470
1471
1472
1473
1474
1475
1476
1477
1478
1479
1480
1481
1482
1483
1484
1485
1486
1487
1488
1489
1490
1491
1492
1493
1494
1495
1496
1497
1498
1499
1500
1501
1502
1503
1504
1505
1506
1507
1508
1509
1510
1511
1512
1513
1514
1515
1516
1517
1518
1519
1520
1521
1522
1523
1524
1525
1526
1527
1528
1529
1530
1531
1532
1533
1534
1535
1536
1537
1538
1539
1540
1541
1542
1543
1544
1545
1546
1547
1548
1549
1550
1551
1552
1553
1554
1555
1556
1557
1558
1559
1560
1561
1562
1563
1564
1565
1566
1567
1568
1569
1570
1571
1572
1573
1574
1575
1576
1577
1578
1579
1580
1581
1582
1583
1584
1585
1586
1587
1588
1589
1590
1591
1592
1593
1594
1595
1596
1597
1598
1599
1600
1601
1602
1603
1604
1605
1606
1607
1608
1609
1610
1611
1612
1613
1614
1615
1616
1617
1618
1619
1620
1621
1622
1623
1624
1625
1626
1627
1628
1629
1630
1631
1632
1633
1634
1635
1636
1637
1638
1639
1640
1641
1642
1643
1644
1645
1646
1647
1648
1649
1650
1651
1652
1653
1654
1655
1656
1657
1658
1659
1660
1661
1662
1663
1664
1665
1666
1667
1668
1669
1670
1671
1672
1673
1674
1675
1676
1677
1678
1679
1680
1681
1682
1683
1684
1685
1686
1687
1688
1689
1690
1691
1692
1693
1694
1695
1696
1697
1698
1699
1700
1701
1702
1703
1704
1705
1706
1707
1708
1709
1710
1711
1712
1713
1714
1715
1716
1717
1718
1719
1720
1721
1722
1723
1724
1725
1726
1727
1728
1729
1730
1731
1732
1733
1734
1735
1736
1737
1738
1739
1740
1741
1742
1743
1744
1745
1746
1747
1748
1749
1750
1751
1752
1753
1754
1755
1756
1757
1758
1759
1760
1761
1762
1763
1764
1765
1766
1767
1768
1769
1770
1771
1772
1773
1774
1775
1776
1777
1778
1779
1780
1781
1782
1783
1784
1785
1786
1787
1788
1789
1790
1791
1792
1793
1794
1795
1796
1797
1798
1799
1800
1801
1802
1803
1804
1805
1806
1807
1808
1809
1810
1811
1812
1813
1814
1815
1816
1817
1818
1819
1820
1821
1822
1823
1824
1825
1826
1827
1828
1829
1830
1831
1832
1833
1834
1835
1836
1837
1838
1839
1840
1841
1842
1843
1844
1845
1846
1847
1848
1849
1850
1851
1852
1853
1854
1855
1856
1857
1858
1859
1860
1861
1862
1863
1864
1865
1866
1867
1868
1869
1870
1871
1872
1873
1874
1875
1876
1877
1878
1879
1880
1881
1882
1883
1884
1885
1886
1887
1888
1889
1890
1891
1892
1893
1894
1895
1896
1897
1898
1899
1900
1901
1902
1903
1904
1905
1906
1907
1908
1909
1910
1911
1912
1913
1914
1915
1916
1917
1918
1919
1920
1921
1922
1923
1924
1925
1926
1927
1928
1929
1930
1931
1932
1933
1934
1935
1936
1937
1938
1939
1940
1941
1942
1943
1944
1945
1946
1947
1948
1949
1950
1951
1952
1953
1954
1955
1956
1957
1958
1959
1960
1961
1962
1963
1964
1965
1966
1967
1968
1969
1970
1971
1972
1973
1974
1975
1976
1977
1978
1979
1980
1981
1982
1983
1984
1985
1986
1987
1988
1989
1990
1991
1992
1993
1994
1995
1996
1997
1998
1999
2000
2001
2002
2003
2004
2005
2006
2007
2008
2009
2010
2011
2012
2013
2014
2015
2016
2017
2018
2019
2020
2021
2022
2023
2024
2025
2026
2027
2028
2029
2030
2031
2032
2033
2034
2035
2036
2037
2038
2039
2040
2041
2042
2043
2044
2045
2046
2047
2048
2049
2050
2051
2052
2053
2054
2055
2056
2057
2058
2059
2060
2061
2062
2063
2064
2065
2066
2067
2068
2069
2070
2071
2072
2073
2074
2075
2076
2077
2078
2079
2080
2081
2082
2083
2084
2085
2086
2087
2088
2089
2090
2091
2092
2093
2094
2095
2096
2097
2098
2099
2100
2101
2102
2103
2104
2105
2106
2107
2108
2109
2110
2111
2112
2113
2114
2115
2116
2117
2118
2119
2120
2121
2122
2123
2124
2125
2126
2127
2128
2129
2130
2131
2132
2133
2134
2135
2136
2137
2138
2139
2140
2141
2142
2143
2144
2145
2146
2147
2148
2149
2150
2151
2152
2153
2154
2155
2156
2157
2158
2159
2160
2161
2162
2163
2164
2165
2166
2167
2168
2169
2170
2171
2172
2173
2174
2175
2176
2177
2178
2179
2180
2181
2182
2183
2184
2185
2186
2187
2188
2189
2190
2191
2192
2193
2194
2195
2196
2197
2198
2199
2200
2201
2202
2203
2204
2205
2206
2207
2208
2209
2210
2211
2212
2213
2214
2215
2216
2217
2218
2219
2220
2221
2222
2223
2224
2225
2226
2227
2228
2229
2230
2231
2232
2233
2234
2235
2236
2237
2238
2239
2240
2241
2242
2243
2244
2245
2246
2247
2248
2249
2250
2251
2252
2253
2254
2255
2256
2257
2258
2259
2260
2261
2262
2263
2264
2265
2266
2267
2268
2269
2270
2271
2272
2273
2274
2275
2276
2277
2278
2279
2280
2281
2282
2283
2284
2285
2286
2287
2288
2289
2290
2291
2292
2293
2294
2295
2296
2297
2298
2299
2300
2301
2302
2303
2304
2305
2306
2307
2308
2309
2310
2311
2312
2313
2314
2315
2316
2317
2318
2319
2320
2321
2322
2323
2324
2325
2326
2327
2328
2329
2330
2331
2332
2333
2334
2335
2336
2337
2338
2339
2340
2341
2342
2343
2344
2345
2346
2347
2348
2349
2350
2351
2352
2353
2354
2355
2356
2357
2358
2359
2360
2361
2362
2363
2364
2365
2366
2367
2368
2369
2370
2371
2372
2373
2374
2375
2376
2377
2378
2379
2380
2381
2382
2383
2384
2385
2386
2387
2388
2389
2390
2391
2392
2393
2394
2395
2396
2397
2398
2399
2400
2401
2402
2403
2404
2405
2406
2407
2408
2409
2410
2411
2412
2413
2414
2415
2416
2417
2418
2419
2420
2421
2422
2423
2424
2425
2426
2427
2428
2429
2430
2431
2432
2433
2434
2435
2436
2437
2438
2439
2440
2441
2442
2443
2444
2445
2446
2447
2448
2449
2450
2451
2452
2453
2454
2455
2456
2457
2458
2459
2460
2461
2462
2463
2464
2465
2466
2467
2468
2469
2470
2471
2472
2473
2474
2475
2476
2477
2478
2479
2480
2481
2482
2483
2484
2485
2486
2487
2488
2489
2490
2491
2492
2493
2494
2495
2496
2497
2498
2499
2500
2501
2502
2503
2504
2505
2506
2507
2508
2509
2510
2511
2512
2513
2514
2515
2516
2517
2518
2519
2520
2521
2522
2523
2524
2525
2526
2527
2528
2529
2530
2531
2532
2533
2534
2535
2536
2537
2538
2539
2540
2541
2542
2543
2544
2545
2546
2547
2548
2549
2550
2551
2552
2553
2554
2555
2556
2557
2558
2559
2560
2561
2562
2563
2564
2565
2566
2567
2568
2569
2570
2571
2572
2573
2574
2575
2576
2577
2578
2579
2580
2581
2582
2583
2584
2585
2586
2587
2588
2589
2590
2591
2592
2593
2594
2595
2596
2597
2598
2599
2600
2601
2602
2603
2604
2605
2606
2607
2608
2609
2610
2611
2612
2613
2614
2615
2616
2617
2618
2619
2620
2621
2622
2623
2624
2625
2626
2627
2628
2629
2630
2631
2632
2633
2634
2635
2636
2637
2638
2639
2640
2641
2642
2643
2644
2645
2646
2647
2648
2649
2650
2651
2652
2653
2654
2655
2656
2657
2658
2659
2660
2661
2662
2663
2664
2665
2666
2667
2668
2669
2670
2671
2672
2673
2674
2675
2676
2677
2678
2679
2680
2681
2682
2683
2684
2685
2686
2687
2688
2689
2690
2691
2692
2693
2694
2695
2696
2697
2698
2699
2700
2701
2702
2703
2704
2705
2706
2707
2708
2709
2710
2711
2712
2713
2714
2715
2716
2717
2718
2719
2720
2721
2722
2723
2724
2725
2726
2727
2728
2729
2730
2731
2732
2733
2734
2735
2736
2737
2738
2739
2740
2741
2742
2743
2744
2745
2746
2747
2748
2749
2750
2751
2752
2753
2754
2755
2756
2757
2758
2759
2760
2761
2762
2763
2764
2765
2766
2767
2768
2769
2770
2771
2772
2773
2774
2775
2776
2777
2778
2779
2780
2781
2782
2783
2784
2785
2786
2787
2788
2789
2790
2791
2792
2793
2794
2795
2796
2797
2798
2799
2800
2801
2802
2803
2804
2805
2806
2807
2808
2809
2810
2811
2812
2813
2814
2815
2816
2817
2818
2819
2820
2821
2822
2823
2824
2825
2826
2827
2828
2829
2830

SCALARS element_group int
LOOKUP_TABLE default
0
0
0
0
0
0
0
0
0
0
0
0
0
0
0
0
0
0
0
0
0
0
0
0
0
0
0
0
0
0
0
0
0
0
0
0
0
0
0
0
0
0
0
0
0
0
0
0
0
0
0
0
0
0
0
0
0
0
0
0
0
0
0
0
0
0
0
0
0
0
0
0
0
0
0
0
0
0
0
0
0
0
0
0
0
0
0
0
0
0
0
0
0
0
0
0
0
0
0
0
0
0
0
0
0
0
0
0
0
0
0
0
0
0
0
0
0
0
0
0
0
0
0
0
0
0
0
0
0
0
0
0
0
0
0
0
0
0
0
0
0
0
0
0
0
0
0
0
0
0
0
0
0
0
0
0
0
0
0
0
0
0
0
0
0
0
0
0
0
0
0
0
0
0
0
0
0
0
0
0
0
0
0
0
0
0
0
0
0
0
0
0
0
0
0
0
0
0
0
0
0
0
0
0
0
0
0
0
0
0
0
0
0
0
0
0
0
0
0
0
0
0
0
0
0
0
0
0
0
0
0
0
0
0
0
0
0
0
0
0
0
0
0
0
0
0
0
0
0
0
0
0
0
0
0
0
0
0
0
0
0
0
0
0
0
0
0
0
0
0
0
0
0
0
0
0
0
0
0
0
0
0
0
0
0
0
0
0
0
0
0
0
0
0
0
0
0
0
0
0
0
0
0
0
0
0
0
0
0
0
0
0
0
0
0
0
0
0
0
0
0
0
0
0
0
0
0
0
0
0
0
0
0
0
0
0
0
0
0
0
0
0
0
0
0
0
0
0
0
0
0
0
0
0
0
0
0
0
0
0
0
0
0
0
0
0
0
0
0
0
0
0
0
0
0
0
0
0
0
0
0
0
0
0
0
0
0
0
0
0
0
0
0
0
0
0
0
0
0
0
0
0
0
0
0
0
0
0
0
0
0
0
0
0
0
0
0
0
0
0
0
0
0
0
0
0
0
0
0
0
0
0
0
0
0
0
0
0
0
0
0
0
0
0
0
0
0
0
0
0
0
0
0
0
0
0
0
0
0
0
0
0
0
0
0
0
0
0
0
0
0
0
0
0
0
0
0
0
0
0
0
0
0
0
0
0
0
0
0
0
0
0
0
0
0
0
0
0
0
0
0
0
0
0
0
0
0
0
0
0
0
0
0
0
0
0
0
0
0
0
0
0
0
0
0
0
0
0
0
0
0
0
0
0
0
0
0
0
0
0
0
0
0
0
0
0
0
0
0
0
0
0
0
0
0
0
0
0
0
0
0
0
0
0
0
0
0
0
0
0
0
0
0
0
0
0
0
0
0
0
0
0
0
0
0
0
0
0
0
0
0
0
0
0
0
0
0
0
0
0
0
0
0
0
0
0
0
0
0
0
0
0
0
0
0
0
0
0
0
0
0
0
0
0
0
0
0
0
0
0
0
0
0
0
0
0
0
0
0
0
0
0
0
0
0
0
0
0
0
0
0
0
0
0
0
0
0
0
0
0
0
0
0
0
0
0
0
0
0
0
0
0
0
0
0
0
0
0
0
0
0
0
0
0
0
0
0
0
0
0
0
0
0
0
0
0
0
0
0
0
0
0
0
0
0
0
0
0
0
0
0
0
0
0
0
0
0
0
0
0
0
0
0
0
0
0
0
0
0
0
0
0
0
0
0
0
0
0
0
0
0
0
0
0
0
0
0
0
0
0
0
0
0
0
0
0
0
0
0
0
0
0
0
0
0
0
0
0
0
0
0
0
0
0
0
0
0
0
0
0
0
0
0
0
0
0
0
0
0
0
0
0
0
0
0
0
0
0
0
0
0
0
0
0
0
0
0
0
0
0
0
0
0
0
0
0
0
0
0
0
0
0
0
0
0
0
0
0
0
0
0
0
0
0
0
0
0
0
0
0
0
0
0
0
0
0
0
0
0
0
0
0
0
0
0
0
0
0
0
0
0
0
0
0
0
0
0
0
0
0
0
0
0
0
0
0
0
0
0
0
0
0
0
0
0
0
0
0
0
0
0
0
0
0
0
0
0
0
0
0
0
0
0
0
0
0
0
0
0
0
0
0
0
0
0
0
0
0
0
0
0
0
0
0
0
0
0
0
0
0
0
0
0
0
0
0
0
0
0
0
0
0
0
0
0
0
0
0
0
0
0
0
0
0
0
0
0
0
0
0
0
0
0
0
0
0
0
0
0
0
0
0
0
0
0
0
0
0
0
0
0
0
0
0
0
0
0
0
0
0
0
0
0
0
0
0
0
0
0
0
0
0
0
0
0
0
0
0
0
0
0
0
0
0
0
0
0
0
0
0
0
0
0
0
0
0
0
0
0
0
0
0
0
0
0
0
0
0
0
0
0
0
0
0
0
0
0
0
0
0
0
0
0
0
0
0
0
0
0
0
0
0
0
0
0
0
0
0
0
0
0
0
0
0
0
0
0
0
0
0
0
0
0
0
0
0
0
0
0
0
0
0
0
0
0
0
0
0
0
0
0
0
0
0
0
0
0
0
0
0
0
0
0
0
0
0
0
0
0
0
0
0
0
0
0
0
0
0
0
0
0
0
0
0
0
0
0
0
0
0
0
0
0
0
0
0
0
0
0
0
0
0
0
0
0
0
0
0
0
0
0
0
0
0
0
0
0
0
0
0
0
0
0
0
0
0
0
0
0
0
0
0
0
0
0
0
0
0
0
0
0
0
0
0
0
0
0
0
0
0
0
0
0
0
0
0
0
0
0
0
0
0
0
0
0
0
0
0
0
0
0
0
0
0
0
0
0
0
0
0
0
0
0
0
0
0
0
0
0
0
0
0
0
0
0
0
0
0
0
0
0
0
0
0
0
0
0
0
0
0
0
0
0
0
0
0
0
0
0
0
0
0
0
0
0
0
0
0
0
0
0
0
0
0
0
0
0
0
0
0
0
0
0
0
0
0
0
0
0
0
0
0
0
0
0
0
0
0
0
0
0
0
0
0
0
0
0
0
0
0
0
0
0
0
0
0
0
0
0
0
0
0
0
0
0
0
0
0
0
0
0
0
0
0
0
0
0
0
0
0
0
0
0
0
0
0
0
0
0
0
0
0
0
0
0
0
0
0
0
0
0
0
0
0
0
0
0
0
0
0
0
0
0
0
0
0
0
0
0
0
0
0
0
0
0
0
0
0
0
0
0
0
0
0
0
0
0
0
0
0
0
0
0
0
0
0
0
0
0
0
0
0
0
0
0
0
0
0
0
0
0
0
0
0
0
0
0
0
0
0
0
0
0
0
0
0
0
0
0
0
0
0
0
0
0
0
0
0
0
0
0
0
0
0
0
0
0
0
0
0
0
0
0
0
0
0
0
0
0
0
0
0
0
0
0
0
0
0
0
0
0
0
0
0
0
0
0
0
0
0
0
0
0
0
0
0
0
0
0
0
0
0
0
0
0
0
0
0
0
0
0
0
0
0
0
0
0
0
0
0
0
0
0
0
0
0
0
0
0
0
0
0
0
0
0
0
0
0
0
0
0
0
0
0
0
0
0
0
0
0
0
0
0
0
0
0
0
0
0
0
0
0
0
0
0
0
0
0
0
0
0
0
0
0
0
0
0
0
0
0
0
0
0
0
0
0
0
0
0
0
0
0
0
0
0
0
0
0
0
0
0
0
0
0
0
0
0
0
0
0
0
0
0
0
0
0
0
0
0
0
0
0
0
0
0
0
0
0
0
0
0
0
0
0
0
0
0
0
0
0
0
0
0
0
0
0
0
0
0
0
0
0
0
0
0
0
0
0
0
0
0
0
0
0
0
0
0
0
0
0
0
0
0
0
0
0
0
0
0
0
0
0
0
0
0
0
0
0
0
0
0
0
0
0
0
0
0
0
0
0
0
0
0
0
0
0
0
0
0
0
0
0
0
0
0
0
0
0
0
0
0
0
0
0
0
0
0
0
0
0
0
0
0
0
0
0
0
0
0
0
0
0
0
0
0
0
0
0
0
0
0
0
0
0
0
0
0
0
0
0
0
0
0
0
0
0
0
0
0
0
0
0
0
0
0
0
0
0
0
0
0
0
0
0
0
0
0
0
0
0
0
0
0
0
0
0
0
0
0
0
0
0
0
0
0
0
0
0
0
0
0
0
0
0
0
0
0
0
0
0
0
0
0
0
0
0
0
0
0
0
0
0
0
0
0
0
0
0
0
0
0
0
0
0
0
0
0
0
0
0
0
0
0
0
0
0
0
0
0
0
0
0
0
0
0
0
0
0
0
0
0
0
0
0
0
0
0
0
0
0
0
0
0
0
0
0
0
0
0
0
0
0
0
0
0
0
0
0
0
0
0
0
0
0
0
0
0
0
0
0
0
0
0
0
0
0
0
0
0
0
0
0
0
0
0
0
0
0
0
0
0
0
0
0
0
0
0
0
0
0
0
0
0
0
0
0
0
0
0
0
0
0
0
0
0
0
0
0
0
0
0
0
0
0
0
0
0
0
0
0
0
0
0
0
0
0
0
0
0
0
0
0
0
0
0
0
0
0
0
0
0
0
0
0
0
0
0
0
0
0
0
0
0
0
0
0
0
0
0
0
0
0
0
0
0
0
0
0
0
0
0
0
0
0
0
0
0
0
0
0
0
0
0
0
0
0
0
0
0
0
0
0
0
0
0
0
0
0
0
0
0
0
0
0
0
0
0
0
0
0
0
0
0
0
0
0
0
0
0
0
0
0
0
0
0
0
0
0
0
0
0
0
0
0
0
0
0
0
0
0
0
0
0
0
0
0
0
0
0
0
0
0
0
0
0
0
0
0
0
0
0
0
0
0
0
0
0
0
0
0
0
0
0
0
0
0
0
0
0
0
0
0
0
0
0
0
0
0
0
0
0
0
0
0
0
0
0
0
0
0
0
0
0
0
0
0
0
0
0
0
0
0
0
0
0
0
0
0
0
0
0
0
0
0
0
0
0
0
0
0
0
0
0
0
0
0
0
0
0
0
0
0
0
0
0
0
0
0
0
0
0
0
0
0
0
0
0
0
0
0
0
0
0
0
0
0
0
0
0
0
0
0
0
0
0
0
0
0
0
0
0
0
0
0
0
0
0
0
0
0
0
0
0
0
0
0
0
0
0
0
0
0
0
0
0
0
0
0
0
0
0
0
0
0
0
0
0
0
0
0
0
0
0
0
0
0
0
0
0
0
0
0
0
0
0
0
0
0
0
0
0
0
0
0
0
0
0
0
0
0
0
0
0
0
0
0
0
0
0
0
0
0
0
0
0
0
0
0
0
0
0
0
0
0
0
0
0
0
0
0
0
0
0
0
0
0
0
0
0
0
0
0
0
0
0
0
0
0
0
0
0
0
0
0
0
0
0
0
0
0
0
0
0
0
0
0
0
0
0
0
0
0
0
0
0
0
0
0
0
0
0
0
0
0
0
0
0
0
0
0
0
0
0
0
0
0
0
0
0
0
0
0
0
0
0
0
0
0
0
0
0
0
0
0


VECTORS element_materi_velocity float
8.538726747708e-06 -1.771395473217e-01 0.0 
6.248203461326e-06 -1.764212386931e-01 0.0 
-6.697423345633e-06 -2.301242255555e-02 0.0 
6.473335816662e-06 -2.916933346455e-02 0.0 
-3.044610487379e-06 -1.295034184620e-01 0.0 
-1.114418261537e-05 -1.917067767714e-01 0.0 
-2.265444969459e-06 -1.286517583922e-01 0.0 
6.045439879921e-06 -1.786755375343e-01 0.0 
-6.196878671846e-07 -1.292176441491e-01 0.0 
4.515302410200e-06 -2.984552556850e-02 0.0 
3.456973630761e-07 -1.143569678063e-01 0.0 
1.982390925728e-07 -1.811498361659e-01 0.0 
-1.565549287804e-06 -2.819036793441e-02 0.0 
7.514171046790e-06 -1.196857335161e-01 0.0 
-3.039494105505e-06 -1.993575481584e-02 0.0 
1.021254988675e-05 -2.090959916945e-02 0.0 
1.032322921021e-05 -1.331735462645e-01 0.0 
-1.343114920973e-05 -1.916084175676e-01 0.0 
8.454724321390e-06 -1.873715878462e-01 0.0 
4.130838600628e-06 -1.859028059215e-01 0.0 
8.217511778532e-06 -3.055813169668e-02 0.0 
5.420402224177e-06 -1.717196504417e-01 0.0 
4.569326538959e-06 -1.688483830946e-01 0.0 
-6.085770007855e-06 -4.110277728626e-02 0.0 
1.106681691963e-05 -1.083721259315e-01 0.0 
-1.223949853584e-06 -1.074374295150e-01 0.0 
1.678572892693e-05 -1.424878163246e-01 0.0 
3.539994170882e-06 -2.635111473945e-02 0.0 
1.437216583510e-05 -1.087027114879e-01 0.0 
-3.234778213469e-07 -3.390801065538e-02 0.0 
-7.333850706587e-06 -1.902641127419e-01 0.0 
-1.843500900847e-06 -1.935589243392e-01 0.0 
-2.913329393701e-06 -2.762566720452e-02 0.0 
-1.631552531507e-06 -7.061925601482e-02 0.0 
-2.593623959744e-06 -2.931896511021e-02 0.0 
5.316966706996e-06 -1.279414756043e-02 0.0 
1.515142056696e-06 -1.285838898116e-02 0.0 
2.516312690685e-06 -2.670629970563e-02 0.0 
-3.969200462638e-06 -1.388663617452e-01 0.0 
-7.101779391361e-06 -1.390198604270e-01 0.0 
1.059523325814e-05 -1.608802786918e-01 0.0 
2.368926849988e-06 -2.232664369718e-02 0.0 
-4.575820298976e-06 -1.848150242110e-01 0.0 
1.934302169146e-05 -1.394002120510e-01 0.0 
4.638144139471e-07 -4.042945264754e-02 0.0 
-5.143893546334e-06 -1.848752077424e-01 0.0 
-4.383873321492e-06 -1.915990724317e-01 0.0 
5.069589812280e-06 -3.471552139293e-02 0.0 
-3.478743049373e-06 -1.932239904791e-01 0.0 
1.456094358032e-05 -1.249681940723e-01 0.0 
1.045442436498e-05 -1.650203601007e-01 0.0 
5.527099538622e-06 -1.832380034490e-01 0.0 
-1.910442926651e-05 -1.858266753562e-01 0.0 
1.003983838615e-05 -1.644693052793e-01 0.0 
5.390558972795e-06 -2.194373190794e-02 0.0 
-2.350273939062e-06 -1.745783980206e-01 0.0 
4.031619671102e-06 -1.814152807550e-01 0.0 
-2.356970572350e-06 -7.119306895921e-02 0.0 
4.807982600206e-06 -1.902133327350e-01 0.0 
5.512590983866e-06 -2.109804573862e-02 0.0 
1.201160724991e-05 -1.937540432062e-01 0.0 
-6.247167156593e-06 -4.098283259782e-02 0.0 
2.261432866321e-06 -1.643548221945e-01 0.0 
-2.086521438007e-05 -1.874440426164e-01 0.0 
-4.912913553499e-06 -2.866381586589e-02 0.0 
8.156136260705e-06 -1.683573457432e-01 0.0 
6.892211369014e-06 -1.935199793219e-01 0.0 
-3.949436287617e-06 -2.753881042785e-02 0.0 
3.800277139359e-07 -1.892631151905e-01 0.0 
-5.497226490146e-08 -2.188590011368e-02 0.0 
-6.096448101726e-07 -9.993792526747e-02 0.0 
1.131166292277e-06 -6.125949467434e-03 0.0 
8.792473114652e-07 -3.523995728837e-02 0.0 
1.075082176266e-07 -1.931076210018e-01 0.0 
-7.253063785618e-06 -1.720343335877e-01 0.0 
-2.972124251979e-06 -2.727649287828e-02 0.0 
1.767599635035e-06 -2.654771335325e-02 0.0 
-8.654253096895e-06 -1.887669599394e-01 0.0 
-6.981565112405e-07 -1.894483763427e-01 0.0 
-6.879704927346e-06 -1.886925872568e-01 0.0 
4.094452035411e-06 -1.890931189321e-01 0.0 
5.846393310464e-06 -1.302538584893e-01 0.0 
2.895619879083e-06 -1.723274326539e-01 0.0 
1.142257815664e-05 -1.752632955784e-01 0.0 
-8.107621458145e-06 -1.230552393920e-01 0.0 
-2.750369861253e-06 -1.226798099989e-01 0.0 
-6.623062370941e-07 -9.351542820713e-02 0.0 
-6.211061355144e-07 -7.786033918973e-02 0.0 
3.317865264356e-06 -7.160844151910e-02 0.0 
-3.395547844555e-06 -1.291349354223e-01 0.0 
-4.672366063154e-07 -1.932352126382e-01 0.0 
2.165011918995e-05 -1.301063575852e-01 0.0 
-6.047973388497e-07 -7.541055105211e-02 0.0 
-1.898770230327e-06 -8.059406369511e-02 0.0 
1.344305915100e-07 -1.141000341332e-02 0.0 
-3.093216613422e-07 -1.866335906274e-02 0.0 
8.732125608032e-06 -1.307278476248e-01 0.0 
-3.046015891826e-06 -2.712387706468e-02 0.0 
-9.539372495685e-07 -1.101116961195e-01 0.0 
9.851514602586e-07 -1.676840623811e-01 0.0 
3.827630879527e-06 -1.347806691533e-01 0.0 
-7.342966645283e-07 -2.049226416683e-02 0.0 
-1.354305309168e-06 -8.117424598803e-02 0.0 
-6.262021451949e-06 -4.130072653677e-02 0.0 
1.314581357058e-06 -1.723115006471e-01 0.0 
-5.447795047047e-06 -1.922548441309e-01 0.0 
2.772889438618e-07 -4.634838790613e-02 0.0 
6.766465902175e-07 -6.626512539671e-02 0.0 
2.936645655269e-06 -1.936146916930e-01 0.0 
5.052356060339e-06 -2.112843585431e-02 0.0 
4.602164309129e-06 -7.946379422802e-02 0.0 
-1.861661660496e-06 -1.936697755266e-01 0.0 
2.298558308097e-06 -1.543364857490e-01 0.0 
1.379714301737e-05 -1.424278272005e-01 0.0 
2.356859908534e-06 -1.611356438671e-01 0.0 
5.491102575851e-06 -1.712782319948e-01 0.0 
2.177962214568e-06 -1.646403240534e-01 0.0 
-2.360836699962e-06 -2.150770319142e-02 0.0 
-4.253281111489e-06 -1.152624469288e-01 0.0 
3.568129546074e-06 -1.684762326228e-01 0.0 
9.355157488411e-06 -1.897618312322e-01 0.0 
2.216500625338e-05 -1.331332294576e-01 0.0 
-2.184863973115e-06 -6.137388820697e-02 0.0 
4.177145086927e-06 -1.686114789698e-01 0.0 
-1.124707190137e-05 -1.916895711732e-01 0.0 
1.295305273986e-05 -1.522155090363e-01 0.0 
-2.128541109339e-06 -1.634282895572e-01 0.0 
1.332258478560e-05 -1.562263444125e-01 0.0 
3.284718255509e-06 -1.962738216234e-02 0.0 
-1.014502611969e-05 -1.906240062481e-01 0.0 
-2.587895478367e-06 -1.067078911025e-01 0.0 
1.055314583373e-05 -2.886730855872e-02 0.0 
7.901310380681e-06 -1.505845078962e-01 0.0 
1.411995323337e-05 -1.565857672951e-01 0.0 
-9.988853835814e-06 -2.931976588411e-02 0.0 
7.929234789993e-07 -2.768172581115e-02 0.0 
5.563579990179e-07 -9.337910882640e-02 0.0 
8.361938050701e-06 -1.459430524289e-01 0.0 
-1.139019516898e-06 -2.519155221254e-02 0.0 
9.309747297792e-06 -1.541400576905e-01 0.0 
9.683558408153e-07 -2.166161297703e-02 0.0 
1.448837078522e-06 -2.597807430201e-02 0.0 
7.337069639402e-06 -1.193626580089e-01 0.0 
4.507814445488e-06 -9.453377935130e-02 0.0 
8.526555470004e-06 -1.545741040366e-01 0.0 
1.221429653454e-05 -1.604461964561e-01 0.0 
7.644431691415e-06 -1.415457538588e-01 0.0 
3.217957457370e-06 -1.656534634939e-01 0.0 
-2.419734470800e-06 -1.339459440180e-01 0.0 
2.068749003912e-06 -1.547964832508e-01 0.0 
4.725360126341e-06 -1.932752090428e-01 0.0 
-4.889444905952e-06 -1.259666925097e-01 0.0 
9.893993873158e-06 -1.894383917609e-01 0.0 
1.499594075766e-05 -1.474838682156e-01 0.0 
1.933753037478e-06 -2.122261881078e-02 0.0 
3.302281077564e-06 -1.721097691225e-01 0.0 
-1.960602006620e-06 -8.616409738770e-02 0.0 
-3.216232664705e-06 -1.825431216769e-01 0.0 
-1.973789888376e-06 -8.091937261082e-02 0.0 
-3.522054918366e-06 -1.305658682441e-01 0.0 
1.743946627985e-06 -1.591832982539e-01 0.0 
-2.689226156500e-06 -6.335540240689e-02 0.0 
6.770719239699e-06 -1.895305924330e-01 0.0 
-2.583780454912e-06 -4.655071591374e-02 0.0 
1.715288880751e-05 -1.336934023998e-01 0.0 
2.441477575336e-06 -2.637683714671e-02 0.0 
-3.135881522675e-06 -1.315220164971e-01 0.0 
2.210105239881e-06 -1.693346766844e-01 0.0 
1.219311371550e-05 -1.470365696509e-01 0.0 
-9.220881934059e-07 -1.160832474269e-01 0.0 
-1.854490200991e-06 -1.827302791301e-01 0.0 
1.200994054609e-06 -1.594312276111e-01 0.0 
4.836110300487e-06 -8.714903249132e-02 0.0 
-6.572047332874e-06 -1.341532998650e-01 0.0 
2.620975954832e-06 -1.623977689845e-01 0.0 
1.383289734307e-05 -1.518312075249e-01 0.0 
-1.768313699294e-06 -5.956284873643e-02 0.0 
1.281079990778e-06 -1.559230598021e-01 0.0 
2.304847906569e-06 -2.110565064996e-02 0.0 
5.876417640131e-07 -2.649917527395e-02 0.0 
1.146584378306e-05 -1.737965408733e-01 0.0 
3.874755690114e-06 -1.533384839574e-01 0.0 
-4.236577030094e-06 -5.563822661749e-02 0.0 
9.967668258880e-06 -1.578807993945e-01 0.0 
1.066265409677e-05 -1.769051156137e-01 0.0 
1.828071554388e-05 -1.379779459427e-01 0.0 
2.474571834901e-06 -1.581952432753e-01 0.0 
3.363540324851e-06 -2.281661964637e-02 0.0 
3.492087381645e-06 -7.738718641875e-02 0.0 
-1.333064234360e-06 -5.484675250978e-02 0.0 
-5.020278798783e-06 -1.869549132636e-01 0.0 
1.688408841878e-07 -1.636584003279e-01 0.0 
2.717369713312e-06 -7.079427608784e-02 0.0 
-2.166633567700e-06 -1.942477917444e-01 0.0 
1.155775315717e-05 -1.574179578276e-01 0.0 
-7.146018125175e-06 -7.281976264744e-02 0.0 
7.982634200295e-06 -1.922881448800e-01 0.0 
-7.308966772906e-07 -2.863618215540e-02 0.0 
9.128771888584e-06 -9.597517024609e-02 0.0 
-3.477811662119e-06 -1.583988646099e-01 0.0 
-6.761863536518e-06 -7.248551735722e-02 0.0 
2.750045730642e-05 -1.244486039593e-01 0.0 
9.513463062252e-06 -1.139719701954e-01 0.0 
-2.003324630166e-06 -3.394559916134e-02 0.0 
-2.735022974487e-06 -1.738898670158e-01 0.0 
5.452793266719e-06 -1.373881375663e-01 0.0 
1.412251597876e-05 -1.290979281033e-01 0.0 
5.555536142469e-06 -8.888959454108e-02 0.0 
1.854796316561e-05 -1.282906090896e-01 0.0 
1.697748189426e-05 -1.384152693371e-01 0.0 
-1.068093311095e-06 -1.027932581646e-01 0.0 
-2.573717248462e-06 -6.712710879303e-02 0.0 
-1.600723310264e-05 -1.936559391145e-01 0.0 
4.809122268571e-06 -1.732921717370e-01 0.0 
1.451286630732e-06 -1.671399774953e-01 0.0 
6.288033741609e-06 -1.420031445949e-01 0.0 
1.085318811729e-06 -6.948431945744e-02 0.0 
-1.014430937762e-05 -1.884295558893e-01 0.0 
-6.312882485131e-06 -8.126973548947e-02 0.0 
-8.265349388274e-06 -1.328038352685e-01 0.0 
7.379733613912e-07 -1.634438801442e-01 0.0 
-5.405615611326e-06 -8.937396786096e-02 0.0 
9.831953543890e-06 -1.931917270679e-01 0.0 
4.097162034506e-06 -8.202418459666e-02 0.0 
1.484779108469e-05 -1.936768971838e-01 0.0 
5.060106685064e-06 -1.916236313264e-01 0.0 
-5.803836665343e-06 -1.868345849727e-01 0.0 
-2.911508263365e-06 -1.795503638936e-01 0.0 
2.943643050161e-06 -7.441690220506e-02 0.0 
-2.679169627074e-06 -1.818410284520e-01 0.0 
-6.188207629546e-06 -1.833145583136e-01 0.0 
-1.133153558832e-05 -1.865622253116e-01 0.0 
2.011580726375e-06 -1.882386011869e-01 0.0 
-5.592069654782e-06 -6.419644099767e-02 0.0 
1.545452520478e-05 -1.340711083937e-01 0.0 
-5.977552448852e-06 -2.885500282680e-02 0.0 
-5.954326414802e-06 -1.941356331363e-01 0.0 
-3.507072237944e-06 -1.786736308384e-01 0.0 
1.014603569851e-06 -1.553785766098e-01 0.0 
9.419734338680e-06 -1.618941750801e-01 0.0 
-6.128315153015e-06 -8.085137783986e-02 0.0 
8.724694361469e-07 -2.366407904234e-02 0.0 
5.910000682519e-06 -8.433287716992e-02 0.0 
-2.489657539232e-06 -1.740764906298e-01 0.0 
-7.043761209470e-06 -6.451755867654e-02 0.0 
-4.643634215019e-07 -1.008037830608e-01 0.0 
7.758552586147e-06 -1.364942329241e-01 0.0 
7.798367080936e-06 -9.002411422490e-02 0.0 
-4.118723832343e-06 -3.343321184200e-02 0.0 
5.665812282651e-07 -1.557005880997e-01 0.0 
-4.645073909752e-06 -1.809890247498e-01 0.0 
1.754701253486e-05 -1.172151408480e-01 0.0 
3.077507569293e-06 -1.039983772715e-02 0.0 
4.513737385821e-06 -1.378150900265e-01 0.0 
-4.860696882942e-08 -1.327508418143e-01 0.0 
-7.259584816630e-06 -1.238181467067e-01 0.0 
-1.269403771843e-07 -1.903503316495e-01 0.0 
2.284674025369e-05 -1.278713709450e-01 0.0 
-2.021910884881e-06 -1.738325744600e-01 0.0 
-7.310955409077e-06 -1.846828977963e-01 0.0 
-1.574643723961e-05 -1.891668567849e-01 0.0 
2.990446009654e-06 -7.391738054446e-02 0.0 
1.452426313713e-05 -1.235106090009e-01 0.0 
3.197297583911e-06 -1.651319973040e-01 0.0 
2.965787959012e-06 -6.604299939662e-02 0.0 
4.315046069993e-06 -7.804626058411e-02 0.0 
9.068932465981e-06 -1.307974700989e-01 0.0 
-7.039219667105e-07 -2.022931023106e-02 0.0 
-5.877742344483e-07 -1.275508934120e-01 0.0 
1.031177325227e-05 -1.248103507014e-01 0.0 
2.329961909139e-06 -1.496370940701e-01 0.0 
-7.560635199256e-07 -1.217228582714e-01 0.0 
-6.042898118651e-06 -1.801122853568e-01 0.0 
2.225851402007e-05 -1.306080536391e-01 0.0 
7.991684949937e-08 -1.519814453799e-01 0.0 
-5.139824057227e-06 -1.729719347121e-01 0.0 
5.731866461745e-06 -8.371473694311e-02 0.0 
-2.260550983506e-06 -1.942321954249e-01 0.0 
2.307556124717e-05 -1.222019725934e-01 0.0 
-1.980068179958e-06 -1.711039000570e-01 0.0 
-3.662829208819e-06 -1.789104602400e-01 0.0 
-7.553822866412e-06 -1.803577172166e-01 0.0 
1.482967854910e-05 -1.115619395010e-01 0.0 
6.342502024457e-06 -1.923019587715e-01 0.0 
5.066478775307e-06 -1.630298343105e-01 0.0 
-1.386870251135e-06 -1.160267803873e-01 0.0 
1.725134672125e-05 -1.230809959811e-01 0.0 
2.527114561844e-05 -1.236901669411e-01 0.0 
-1.055500083275e-05 -1.902533750543e-01 0.0 
-5.116710798997e-06 -1.727204109484e-01 0.0 
-6.720462924374e-06 -1.763914084356e-01 0.0 
-6.994837681672e-07 -1.702297779727e-01 0.0 
8.573481242204e-06 -9.056283106142e-02 0.0 
3.880403487493e-06 -1.634456224698e-01 0.0 
-4.015926405316e-07 -1.564128240226e-01 0.0 
1.838392358201e-07 -1.599677592846e-01 0.0 
-1.011464030527e-05 -1.886686280894e-01 0.0 
2.464369635033e-06 -1.453019244083e-01 0.0 
-9.495439982317e-06 -1.873185718280e-01 0.0 
5.945670071189e-06 -1.099507641896e-02 0.0 
-4.459875773997e-06 -1.194410257851e-02 0.0 
4.038376288763e-06 -1.329697471307e-01 0.0 
-3.606805841435e-06 -1.770738528393e-01 0.0 
-5.312948064309e-06 -1.816845096775e-01 0.0 
9.147634291510e-06 -1.194653120113e-01 0.0 
-4.234162295548e-06 -1.795973981121e-01 0.0 
-6.201147151213e-06 -1.761355564049e-01 0.0 
8.973587950648e-06 -1.360692055285e-01 0.0 
-2.492493836291e-07 -2.619097488869e-02 0.0 
-5.742215703785e-07 -1.673801668546e-01 0.0 
-6.071049743618e-07 -1.025167022000e-01 0.0 
-9.091380179558e-06 -1.856399156902e-01 0.0 
2.548705724788e-06 -1.059884683286e-02 0.0 
-3.817734104645e-06 -1.793607733538e-01 0.0 
6.657060015078e-06 -1.316565976268e-01 0.0 
-1.186239849830e-05 -1.869528431162e-01 0.0 
-3.016994261563e-06 -1.068091717771e-01 0.0 
5.785810967633e-07 -1.515681984194e-01 0.0 
-5.937376649889e-06 -1.735094442654e-01 0.0 
1.264507203553e-05 -1.295107350173e-01 0.0 
-8.018471726607e-07 -1.003404571282e-02 0.0 
-7.661868206107e-07 -1.642135738530e-01 0.0 
-1.727877292042e-06 -1.164632867547e-01 0.0 
-9.897855663972e-06 -1.858536413814e-01 0.0 
9.151965443812e-07 -9.951521881926e-02 0.0 
-5.585374987229e-06 -8.892178005326e-02 0.0 
-2.072098952116e-06 -1.781272014302e-01 0.0 
8.068094384037e-07 -1.059146559660e-01 0.0 
7.326543541829e-07 -1.067712345605e-02 0.0 
-7.317537019767e-06 -7.393483825006e-02 0.0 
-7.880881684389e-07 -1.081624315112e-02 0.0 
1.071139936523e-06 -1.071054220561e-01 0.0 
3.582121952918e-06 -8.018533539014e-02 0.0 
-4.664436727871e-06 -1.828970243184e-01 0.0 
1.379817651081e-05 -1.395297295056e-01 0.0 
1.133076072394e-05 -1.243624860977e-01 0.0 
1.156986337474e-05 -1.185492381542e-01 0.0 
3.580016646280e-06 -1.432034354967e-01 0.0 
-1.515229225693e-06 -1.074978718648e-02 0.0 
2.285754570813e-05 -1.144983249169e-01 0.0 
2.275489954522e-05 -1.328368408608e-01 0.0 
-2.856703857127e-07 -1.602667482470e-01 0.0 
-2.405608045920e-06 -1.843334551086e-01 0.0 
1.507698363121e-05 -1.436962973680e-01 0.0 
-1.113378313847e-06 -1.755494100710e-01 0.0 
-4.246303827864e-07 -1.339134714574e-01 0.0 
-6.697914444329e-06 -1.737931189303e-01 0.0 
-1.039739653644e-06 -1.676363514174e-01 0.0 
3.509965610642e-06 -7.549184034996e-02 0.0 
-1.762325673848e-06 -1.758408367909e-01 0.0 
1.271589225951e-05 -1.348368212741e-01 0.0 
-2.338441884688e-06 -1.106216959310e-01 0.0 
-3.386220676873e-06 -1.282977802496e-01 0.0 
2.144331236923e-06 -1.006677071379e-02 0.0 
1.206375361397e-05 -1.532922702596e-01 0.0 
-6.248142593050e-06 -1.753916314410e-01 0.0 
-3.774473163870e-06 -1.621063993454e-01 0.0 
3.747018122630e-06 -1.774922022858e-01 0.0 
-1.194049588994e-06 -1.778594412099e-01 0.0 
1.356037680313e-06 -6.266591068433e-02 0.0 
6.732034800879e-06 -1.261405837878e-01 0.0 
7.933509576025e-06 -1.623333542982e-01 0.0 
1.307226385532e-05 -1.443684333782e-01 0.0 
-1.957916401941e-06 -1.121297124023e-02 0.0 
6.159101719807e-06 -2.849574470132e-02 0.0 
5.469454670782e-07 -6.201502821928e-02 0.0 
4.903529860280e-06 -8.257124510495e-02 0.0 
-3.267815074446e-06 -1.335238217989e-01 0.0 
2.621477768064e-06 -1.602819094242e-01 0.0 
-4.516573229203e-06 -1.773329708273e-01 0.0 
-2.530239556587e-06 -1.713733326646e-01 0.0 
5.707698645455e-06 -1.320931115330e-01 0.0 
-2.685659830195e-06 -1.127783262170e-01 0.0 
2.453528756343e-08 -1.474630631800e-01 0.0 
1.006250238991e-06 -6.017264462190e-02 0.0 
-6.486103534447e-06 -1.756365628756e-01 0.0 
2.957044343824e-06 -1.483183238763e-01 0.0 
1.023377949569e-05 -1.303599233920e-01 0.0 
2.315764164488e-06 -1.567866776993e-01 0.0 
-5.206946074393e-06 -1.137566907006e-02 0.0 
4.851704067438e-06 -1.182631813683e-02 0.0 
4.835120308254e-06 -2.890825356848e-02 0.0 
-3.688538271059e-06 -1.223992644939e-01 0.0 
3.175526182216e-06 -6.549740269038e-02 0.0 
-3.859047983924e-06 -1.807340220615e-01 0.0 
-1.267839867654e-06 -1.645267120362e-01 0.0 
-8.740334512908e-06 -1.849190711203e-01 0.0 
6.394331087880e-06 -1.591426022987e-01 0.0 
2.278867304639e-05 -1.303155842757e-01 0.0 
-1.381650767440e-06 -1.067482570645e-01 0.0 
4.927639849032e-06 -2.652430050114e-02 0.0 
1.993155971683e-06 -6.425511692227e-02 0.0 
1.907244997269e-05 -1.167553556049e-01 0.0 
1.032092481578e-05 -1.129493328789e-01 0.0 
-9.130686542007e-06 -1.828685174135e-01 0.0 
-2.336809843597e-06 -1.922686006742e-01 0.0 
2.030646196486e-06 -1.504979288696e-01 0.0 
3.098396768302e-06 -1.390202225047e-01 0.0 
2.394863226564e-06 -1.457027617059e-01 0.0 
-1.182728893940e-05 -1.915633488218e-01 0.0 
-6.166154633063e-06 -1.208362958285e-01 0.0 
-7.058677327585e-07 -1.862618593924e-01 0.0 
-2.452760679131e-06 -1.763626631323e-01 0.0 
3.518689302553e-08 -5.380308895072e-03 0.0 
-1.899690626369e-06 -9.662288772588e-02 0.0 
2.910724035677e-05 -1.324010052720e-01 0.0 
4.739149087617e-06 -1.902801617483e-01 0.0 
4.176765059928e-06 -1.428301750827e-01 0.0 
1.519453335800e-06 -1.508320928715e-01 0.0 
1.329567144306e-05 -1.120273536046e-01 0.0 
-2.009937284022e-06 -1.032589982460e-02 0.0 
1.505936551284e-05 -1.391768235393e-01 0.0 
7.929579956230e-06 -1.199238982586e-01 0.0 
-6.194125237207e-07 -1.470672844061e-01 0.0 
2.696466969563e-06 -6.710461971784e-02 0.0 
-3.951329032387e-06 -1.166799998324e-01 0.0 
-1.045291274640e-06 -1.079381311180e-02 0.0 
-4.664022606841e-07 -5.674638682818e-03 0.0 
1.374634043463e-06 -5.411830473399e-03 0.0 
2.806680397123e-07 -6.243072191270e-03 0.0 
1.122873548461e-05 -1.061602694657e-01 0.0 
2.456421704269e-06 -6.763249735445e-02 0.0 
3.364604592910e-06 -5.487218117973e-02 0.0 
2.677581602403e-06 -1.564661419911e-01 0.0 
3.774313218762e-06 -1.599167945853e-01 0.0 
1.752081962407e-06 -1.526489220930e-01 0.0 
-1.688402037788e-07 -6.074726088290e-02 0.0 
1.144070141255e-08 -1.071488375692e-02 0.0 
3.345609286603e-06 -5.849580455239e-02 0.0 
-1.432619170829e-06 -1.096756990839e-01 0.0 
3.123091256646e-06 -5.905790321301e-02 0.0 
-2.155398039499e-07 -9.275361435024e-02 0.0 
2.960769263751e-06 -1.439774523134e-01 0.0 
7.698251668437e-06 -1.587540249586e-01 0.0 
-7.506800297644e-06 -1.839869395309e-01 0.0 
4.730561294991e-06 -2.195475889410e-02 0.0 
2.176189678395e-06 -1.608879469914e-01 0.0 
-9.384484696940e-07 -3.576944135478e-02 0.0 
9.390210484423e-07 -1.522636794586e-01 0.0 
-8.268093304825e-06 -1.771684780475e-01 0.0 
4.190965255703e-06 -2.135369917932e-02 0.0 
-7.953517193337e-07 -1.730778508109e-01 0.0 
-3.216859077548e-07 -5.141604468301e-03 0.0 
2.603378773142e-06 -2.184213005554e-02 0.0 
5.568130145189e-06 -1.208448760724e-01 0.0 
-2.344341170061e-06 -1.932823596691e-01 0.0 
-1.529776019116e-06 -5.433458580077e-03 0.0 
-2.748224945387e-06 -2.126224312681e-02 0.0 
-8.414324703125e-06 -1.769028271169e-01 0.0 
-2.530370366717e-06 -1.040141290741e-01 0.0 
4.140337790923e-06 -1.056140496086e-02 0.0 
-2.085323228253e-06 -1.940917957922e-01 0.0 
2.653803018038e-06 -1.528080680292e-01 0.0 
6.377150243240e-06 -1.143736251223e-01 0.0 
4.832723596849e-06 -1.270397841405e-01 0.0 
7.928871887281e-06 -1.257064836555e-01 0.0 
-5.427913485533e-06 -1.814648453425e-01 0.0 
2.481696097068e-07 -5.316768924323e-03 0.0 
-7.669854673061e-07 -1.567696933457e-01 0.0 
-1.387095850697e-05 -1.903018605493e-01 0.0 
-5.847737645656e-06 -2.464600332437e-02 0.0 
-3.817605617833e-06 -1.936347325003e-01 0.0 
1.098360309168e-05 -1.493325872516e-01 0.0 
-1.073221848955e-05 -1.894593741210e-01 0.0 
1.529673640990e-05 -1.433124491597e-01 0.0 
-1.494574731969e-06 -1.088372323796e-02 0.0 
-1.278500317399e-06 -5.351672353887e-03 0.0 
1.328592184469e-05 -1.181101679714e-01 0.0 
-7.545026635029e-06 -1.917165091875e-01 0.0 
-9.279737037029e-06 -1.915742220581e-01 0.0 
-9.879472692436e-06 -1.902559988675e-01 0.0 
-7.935325603948e-06 -6.315530175468e-02 0.0 
1.791995151060e-05 -1.338030975497e-01 0.0 
3.009578143531e-05 -1.270361758499e-01 0.0 
-1.037621800612e-06 -4.999161021782e-03 0.0 
1.867444544175e-05 -1.335080764741e-01 0.0 
4.958640143420e-06 -1.060327085815e-02 0.0 
-7.279910486115e-07 -8.619418142448e-02 0.0 
1.856197583883e-06 -1.126484104333e-01 0.0 
7.216656546489e-06 -1.748902959281e-01 0.0 
-1.965554693764e-06 -1.035046385944e-01 0.0 
-1.046268846683e-05 -1.864775975921e-01 0.0 
9.583847533883e-07 -5.493795268850e-03 0.0 
-4.740543813709e-06 -5.701030387242e-03 0.0 
4.571036027726e-06 -5.583245945562e-03 0.0 
-3.759599022239e-06 -1.171423000848e-01 0.0 
4.074739716415e-06 -1.575513125859e-01 0.0 
2.702738113495e-06 -1.443997336871e-01 0.0 
-4.017595400778e-06 -1.112472837145e-01 0.0 
-7.592972666974e-07 -5.811184453557e-03 0.0 
-2.722630996182e-06 -1.765933119111e-01 0.0 
-3.991644096610e-06 -1.698676832428e-01 0.0 
-3.559134740441e-06 -1.668869710896e-01 0.0 
2.530034306225e-06 -1.054739386826e-01 0.0 
1.412920141913e-06 -1.040811129562e-02 0.0 
-7.657524382060e-06 -1.923254166630e-01 0.0 
-2.959555967256e-07 -5.481936451294e-03 0.0 
-5.500732876055e-06 -1.707560106384e-01 0.0 
-4.801612649059e-07 -4.892441244518e-03 0.0 
3.401227333236e-06 -5.564722198642e-02 0.0 
-1.363123662028e-06 -1.942102626315e-01 0.0 
2.433694461003e-06 -1.491608150228e-01 0.0 
2.938765471695e-06 -5.731238377501e-02 0.0 
4.844847444761e-07 -5.360354531726e-03 0.0 
9.970047327276e-06 -1.066431785572e-01 0.0 
-1.503833832638e-06 -8.001833519787e-02 0.0 
-1.313205706579e-05 -1.877009879942e-01 0.0 
1.357866004058e-06 -3.631743994828e-02 0.0 
-4.830315532760e-06 -1.678459385661e-01 0.0 
-4.029448905945e-06 -1.672099662978e-01 0.0 
-1.069088721436e-06 -1.935978773464e-01 0.0 
-2.367289082943e-07 -5.398114832593e-03 0.0 
-6.190382690415e-06 -1.823869122297e-01 0.0 
-9.207706748478e-06 -6.585725039254e-02 0.0 
3.238796852265e-06 -1.191512151893e-01 0.0 
-5.025583864997e-06 -1.754907610971e-01 0.0 
-4.269880916111e-06 -1.701493407653e-01 0.0 
8.917683204216e-06 -1.134175421324e-01 0.0 
3.181953037535e-06 -5.067609692008e-03 0.0 
2.017258600752e-06 -1.534287351578e-01 0.0 
-4.998235213435e-06 -9.713130666461e-02 0.0 
3.170930054436e-06 -1.283763861584e-01 0.0 
-2.805518895717e-06 -1.144654097890e-01 0.0 
-3.158627716423e-06 -1.662906784951e-01 0.0 
-4.374513905455e-06 -1.102894423686e-01 0.0 
3.517772179822e-06 -1.333922029997e-01 0.0 
-1.276995666996e-06 -9.108232220428e-02 0.0 
-2.347878562117e-06 -9.003612177068e-02 0.0 
2.873717449177e-06 -1.342499931799e-01 0.0 
-1.561156505881e-06 -1.510941177942e-01 0.0 
-1.330029753742e-06 -1.733628477507e-01 0.0 
3.047257665230e-06 -1.571813547600e-01 0.0 
-6.483963414707e-07 -8.679979185014e-02 0.0 
-1.387589866735e-06 -1.225745676271e-01 0.0 
-2.607687037001e-07 -1.086224534637e-02 0.0 
2.360174908872e-06 -5.030345242873e-02 0.0 
-4.731678346550e-06 -1.784591351123e-01 0.0 
-1.198619135243e-06 -5.401786786669e-03 0.0 
1.700587614947e-06 -2.624959559974e-02 0.0 
2.220397130895e-06 -1.411465781116e-01 0.0 
-3.150638466141e-06 -1.932376384736e-01 0.0 
1.971340315383e-06 -1.043017795835e-02 0.0 
3.618182802579e-07 -5.208814911044e-02 0.0 
-6.944644255715e-06 -1.743582651406e-01 0.0 
2.513518831762e-06 -5.218537937791e-03 0.0 
-4.483066873327e-06 -1.045629786787e-01 0.0 
6.210875055738e-06 -1.554116173332e-01 0.0 
2.397226161724e-05 -1.218026130871e-01 0.0 
-8.782935403507e-07 -1.279660964003e-01 0.0 
-3.315856136338e-06 -1.287493005546e-01 0.0 
-2.957702398480e-06 -1.073924974297e-01 0.0 
1.056523500128e-05 -9.656262942161e-02 0.0 
9.497117516030e-06 -1.455101239943e-01 0.0 
-9.810382771274e-07 -8.214622443013e-02 0.0 
-4.349450385430e-06 -1.139325987621e-01 0.0 
-7.892972298600e-07 -1.514944120292e-01 0.0 
-3.189918994185e-06 -9.771937596686e-02 0.0 
-4.923614171951e-06 -1.681515048616e-01 0.0 
-3.610177861348e-06 -1.090945979295e-01 0.0 
2.390320386251e-07 -1.942098505154e-01 0.0 
7.491195234900e-07 -1.698096001283e-01 0.0 
-5.893694085742e-06 -1.710555059182e-01 0.0 
-2.984764524441e-07 -1.428268429871e-01 0.0 
2.325650717275e-06 -1.355601252418e-01 0.0 
-4.648255367855e-06 -1.040674375851e-01 0.0 
7.901123091163e-07 -1.116050934079e-01 0.0 
-6.553456196637e-06 -1.746329224952e-01 0.0 
-1.100598689850e-06 -5.189573357826e-03 0.0 
5.212537518601e-06 -1.148605028038e-01 0.0 
-2.463517504248e-07 -1.384276858654e-01 0.0 
4.618180310782e-06 -1.213075625190e-01 0.0 
-1.235769516079e-07 -1.432447231027e-01 0.0 
-1.831889855960e-06 -1.940899367283e-01 0.0 
2.221506539567e-05 -1.159061850651e-01 0.0 
-1.831134493210e-06 -1.588878255351e-01 0.0 
1.854125389162e-05 -1.941051377920e-01 0.0 
5.778811192807e-07 -1.440963983652e-01 0.0 
-5.371024033167e-06 -9.044294799214e-02 0.0 
5.464550265172e-06 -5.707439136629e-02 0.0 
-2.327793163698e-06 -1.195903642103e-01 0.0 
-2.667747678802e-06 -1.138966095489e-01 0.0 
2.173498472765e-05 -1.371526631997e-01 0.0 
1.233533148853e-05 -1.399919084834e-01 0.0 
2.465978808225e-06 -2.086457115960e-02 0.0 
4.102457121054e-06 -1.274894672781e-01 0.0 
1.581639058135e-05 -1.942202402358e-01 0.0 
1.457053073311e-07 -1.884638226824e-01 0.0 
-8.591530301861e-07 -1.932604263482e-01 0.0 
-2.999539511070e-06 -1.766268890214e-01 0.0 
-1.525397268023e-06 -6.009928749825e-02 0.0 
5.247816571249e-06 -5.763642366396e-02 0.0 
-7.151761513002e-06 -7.126527887603e-02 0.0 
-6.444292172073e-08 -1.715209986503e-01 0.0 
-3.528682737327e-06 -1.096830615091e-01 0.0 
-9.127614029728e-06 -5.826062816487e-02 0.0 
-1.332262912885e-05 -1.871425337196e-01 0.0 
-3.074459480299e-06 -1.590530467596e-01 0.0 
-6.449682958752e-06 -1.699737362789e-01 0.0 
3.317946901827e-06 -1.072861742351e-02 0.0 
3.071939005232e-06 -5.240604600525e-03 0.0 
6.794386322487e-07 -1.506971347635e-01 0.0 
1.217411733304e-06 -1.388695058889e-01 0.0 
-3.426443720376e-06 -1.233130850513e-01 0.0 
-1.162110611738e-05 -4.955305144896e-02 0.0 
-3.152083946767e-06 -1.867935434981e-01 0.0 
-7.552953475310e-06 -6.722897811341e-02 0.0 
6.290336523130e-06 -1.922771280748e-01 0.0 
2.501902895238e-07 -1.486760411690e-01 0.0 
-1.056466910001e-06 -1.375389856417e-01 0.0 
6.442961176178e-06 -1.932387200265e-01 0.0 
-5.868098637186e-06 -1.548955081966e-01 0.0 
1.743592870760e-06 -4.966562835760e-02 0.0 
1.281041274079e-05 -1.942170212369e-01 0.0 
9.974384903831e-06 -1.398419638557e-01 0.0 
1.227054171221e-05 -1.427613960910e-01 0.0 
-3.498349791504e-06 -1.000260527849e-01 0.0 
-2.432387695588e-06 -1.703501514514e-01 0.0 
-5.595804665855e-06 -1.716357295683e-01 0.0 
-6.815290234453e-06 -1.835535495047e-01 0.0 
-1.022958004777e-05 -4.863961800730e-02 0.0 
-2.029176281123e-06 -2.084825988206e-02 0.0 
5.688509427501e-06 -6.807600813857e-02 0.0 
1.752370769780e-06 -1.750799183260e-01 0.0 
1.048100152451e-05 -1.913103557650e-01 0.0 
1.184619114491e-05 -1.447316643538e-01 0.0 
1.304697651968e-05 -1.394733284048e-01 0.0 
1.188721170603e-05 -1.425207762208e-01 0.0 
1.750013434875e-05 -1.941037639567e-01 0.0 
8.053502566408e-06 -1.932498429951e-01 0.0 
1.280364175286e-05 -1.917202296333e-01 0.0 
-4.027626633439e-06 -1.804502274603e-01 0.0 
3.680959491571e-06 -1.936051120546e-01 0.0 
7.477123461907e-06 -1.459010118297e-01 0.0 
1.371130492375e-05 -1.941174272749e-01 0.0 
-9.117321914826e-07 -1.748343114541e-01 0.0 
-2.116610736850e-07 -9.940519362240e-02 0.0 
1.093581412757e-05 -1.429068444477e-01 0.0 
-4.486699563890e-06 -5.150182539462e-02 0.0 
-4.752077202429e-06 -9.819876791153e-02 0.0 
1.754196576098e-06 -1.111203480717e-01 0.0 
-3.816396672777e-07 -1.669000999238e-01 0.0 
1.159219092682e-05 -1.923075044356e-01 0.0 
4.166019779312e-06 -5.425201607890e-03 0.0 
5.672201212676e-06 -1.131880419563e-02 0.0 
4.494867096768e-07 -1.185486154472e-01 0.0 
1.124585313124e-05 -1.397679271484e-01 0.0 
-2.264565981245e-06 -1.664231182109e-01 0.0 
-5.001497211086e-06 -1.067284695744e-02 0.0 
-2.544763578732e-06 -1.776348337844e-01 0.0 
8.503992486415e-06 -1.428382825909e-01 0.0 
1.224027254185e-05 -1.399771255961e-01 0.0 
1.389634337575e-05 -1.482520179353e-01 0.0 
3.584006099957e-06 -5.191440384755e-03 0.0 
1.606038013350e-06 -1.067458731033e-02 0.0 
8.265785924450e-06 -1.936076586015e-01 0.0 
9.534341345923e-06 -1.940933964001e-01 0.0 
-4.843921742413e-07 -1.900924744669e-01 0.0 
-1.377607394475e-06 -1.371100569625e-01 0.0 
2.137812763273e-06 -3.737211967324e-02 0.0 
2.036048816351e-05 -1.942379335415e-01 0.0 
4.303683266995e-06 -7.006994710226e-02 0.0 
6.217893742009e-06 -1.940972068178e-01 0.0 
-3.389876767689e-06 -1.012174957364e-01 0.0 
5.985593947662e-06 -1.942155524417e-01 0.0 
1.458289868256e-05 -1.942260555324e-01 0.0 
-3.431616164865e-06 -1.085402680358e-01 0.0 
-1.192044126842e-05 -4.557985637199e-02 0.0 
1.663992729104e-06 -1.038595416379e-01 0.0 
9.994646521245e-06 -1.406877980287e-01 0.0 
4.290834487299e-06 -1.932485155236e-01 0.0 
-4.083945141632e-06 -1.040954982374e-01 0.0 
5.881696468497e-06 -6.318274805409e-03 0.0 
9.291441050721e-06 -1.073576828084e-02 0.0 
6.569541040723e-06 -1.428185707433e-01 0.0 
-3.890945102765e-06 -9.359162932336e-02 0.0 
-2.559981765962e-06 -5.249385702439e-03 0.0 
-2.016975314600e-06 -8.052918575305e-02 0.0 
6.775693108532e-06 -1.923605497432e-01 0.0 
-3.346841658089e-06 -1.936330946287e-01 0.0 
-2.073433862896e-06 -1.933324036506e-01 0.0 
-1.219036841665e-06 -1.591593966290e-01 0.0 
7.170140025283e-07 -1.060294568991e-02 0.0 
1.978616056675e-06 -2.842104141706e-02 0.0 
-1.370258616067e-05 -1.941195726675e-01 0.0 
2.148623034137e-06 -1.456102074100e-01 0.0 
-8.740380354724e-07 -4.348923557469e-03 0.0 
7.191151796295e-06 -1.174466378012e-02 0.0 
4.435770076245e-06 -1.107547626114e-02 0.0 
-2.592840934889e-06 -8.481833675043e-02 0.0 
1.521973137998e-06 -6.219503470324e-02 0.0 
1.591052038001e-06 -6.254022132436e-03 0.0 
5.600099758294e-06 -5.490641647684e-03 0.0 
3.201620925126e-06 -7.005971288988e-02 0.0 
-1.840000510830e-05 -1.942336479462e-01 0.0 
-1.195571725519e-06 -1.426054932415e-01 0.0 
1.153230491071e-05 -1.426968834854e-01 0.0 
-1.679985956911e-06 -1.940954100774e-01 0.0 
-1.944609611916e-06 -5.055850652984e-03 0.0 
4.049416450087e-06 -1.186013645425e-02 0.0 
-1.403457295630e-07 -6.272673016098e-03 0.0 
-1.142585546376e-05 -1.942252915852e-01 0.0 
2.350571149169e-06 -1.942147558479e-01 0.0 
2.460078965945e-07 -5.488012822985e-03 0.0 
4.189762179650e-06 -5.587463438153e-03 0.0 
-4.272488722017e-06 -9.201364927766e-02 0.0 
-7.540974438271e-06 -1.428315669735e-01 0.0 
1.679647787128e-06 -7.747883493447e-02 0.0 
-4.427953453310e-06 -1.178335470961e-01 0.0 
-8.259070176199e-06 -1.428737902491e-01 0.0 
1.027629854008e-05 -1.942123023438e-01 0.0 
2.466846942496e-06 -1.942148669243e-01 0.0 
1.146965534252e-06 -1.942179356167e-01 0.0 
-2.087687282168e-06 -1.942127384821e-01 0.0 
2.807893241828e-06 -1.406384102375e-01 0.0 
-6.592702076908e-07 -1.504121136728e-01 0.0 
-1.532730124638e-06 -1.940951771196e-01 0.0 
-4.868069874689e-07 -1.065858912075e-01 0.0 
-1.816906689364e-06 -1.940965346553e-01 0.0 
-9.967357007666e-07 -5.284053945886e-03 0.0 
-2.441515445124e-06 -5.423461255005e-03 0.0 
1.506181433364e-06 -5.893602587742e-03 0.0 
-1.641075708483e-06 -1.883230670146e-01 0.0 
-2.050748028310e-06 -1.736579746788e-01 0.0 
1.181737565611e-06 -6.506721374574e-03 0.0 
-1.010446395992e-06 -6.240421788431e-02 0.0 
3.409744582224e-06 -4.417493475434e-03 0.0 
6.307438812972e-07 -4.567641176180e-02 0.0 
9.071620997467e-07 -2.800032793641e-02 0.0 
-1.878307049356e-06 -1.549012915257e-01 0.0 
-1.259777879513e-06 -1.193018262958e-02 0.0 
4.591482147834e-06 -1.092421485001e-02 0.0 
-3.797025146952e-07 -5.446938093159e-02 0.0 
1.537905981044e-06 -3.707751510709e-02 0.0 
-3.762775517201e-07 -9.229414546399e-02 0.0 
2.845758806811e-07 -1.940889574741e-01 0.0 
-1.530580935550e-06 -1.538082865385e-01 0.0 
1.401177959584e-05 -1.936223235134e-01 0.0 
-9.781405230541e-06 -4.941796695312e-02 0.0 
1.012495702364e-06 -1.482661859300e-01 0.0 
-4.331984499494e-06 -6.856978350332e-02 0.0 
-4.322090266290e-06 -1.827975959187e-01 0.0 
4.351738309153e-06 -1.918983355619e-01 0.0 
-8.387628057271e-06 -5.345545669631e-02 0.0 
3.246941469885e-06 -1.445292493227e-01 0.0 
5.336924402539e-07 -1.630345374532e-01 0.0 
-3.089143630739e-06 -6.925151503941e-02 0.0 
-1.419049701177e-06 -4.659738620784e-02 0.0 
-1.600676508943e-06 -1.631351039935e-01 0.0 
-6.045342073919e-06 -8.298427998736e-02 0.0 
-4.043047541812e-06 -1.073879822352e-01 0.0 
-2.000806500097e-06 -9.170881095610e-02 0.0 
8.892125681457e-07 -8.549052654628e-02 0.0 
-1.152716259531e-06 -1.609367557533e-01 0.0 
9.819681673797e-06 -1.497175331157e-01 0.0 
2.416641944200e-06 -1.403016491794e-01 0.0 
-4.073439973869e-06 -1.035081059298e-01 0.0 
-4.655086922286e-06 -6.237447802178e-02 0.0 
-1.383457863943e-06 -7.895116861213e-02 0.0 
-2.959212451176e-06 -1.814868971270e-01 0.0 
2.291117040121e-06 -4.797369847401e-02 0.0 
8.036413152954e-06 -6.429144142053e-02 0.0 
-1.016448702550e-05 -1.269833781147e-01 0.0 
-4.989398250934e-06 -9.588037406380e-02 0.0 
-3.954866393347e-06 -9.770013163392e-02 0.0 
-1.278478713848e-06 -4.750301129620e-02 0.0 
1.985844873408e-06 -5.610505335037e-02 0.0 
-3.614270865153e-06 -1.134156372297e-01 0.0 
-9.857740661799e-06 -4.611016239512e-02 0.0 
5.538131274813e-06 -6.752939372311e-02 0.0 
-2.031273979419e-06 -7.895104581867e-02 0.0 
-8.378479556794e-06 -4.118237676519e-02 0.0 
5.722424546757e-06 -4.842059001008e-02 0.0 
8.539647218018e-06 -8.816839367281e-02 0.0 
-5.290054516689e-06 -9.101486814553e-02 0.0 
-2.055549782893e-06 -1.818079332138e-01 0.0 
-2.564240532659e-06 -1.834349372372e-01 0.0 
2.507327280906e-06 -1.914157775041e-01 0.0 
-1.564674069677e-06 -1.936103729774e-01 0.0 
2.813515130952e-06 -5.608799499339e-02 0.0 
-6.226511324768e-06 -5.464148269377e-02 0.0 
-1.080824974413e-06 -1.936190970578e-01 0.0 
-1.425502223769e-06 -5.379118648107e-02 0.0 
-7.933652509289e-06 -1.212776984509e-01 0.0 
-4.476020370848e-06 -7.585237861648e-02 0.0 
-2.053616722445e-06 -7.056975946666e-02 0.0 
-4.550310718744e-06 -1.688383602285e-01 0.0 
-2.120133648294e-06 -7.114308602816e-02 0.0 
-9.791824333318e-06 -1.271566100138e-01 0.0 
-3.073291256981e-06 -9.062311953201e-02 0.0 
-3.689572813143e-06 -3.254482229067e-02 0.0 
2.735517040290e-06 -1.825568456466e-01 0.0 
-4.099299334248e-06 -3.989058773731e-02 0.0 
6.687628620536e-06 -8.016945875764e-02 0.0 
1.296421226939e-06 -1.796030219697e-01 0.0 
-3.988397080108e-06 -1.787479314512e-01 0.0 
-9.170294947101e-10 -1.304103854155e-01 0.0 
4.599398868916e-06 -1.028786345444e-01 0.0 
3.681089955846e-06 -1.651250233189e-01 0.0 
1.014219696204e-05 -7.179976952733e-02 0.0 
7.923004193408e-06 -9.455385969311e-02 0.0 
1.149744973042e-06 -1.338531214864e-01 0.0 
-9.412165503180e-08 -8.602790080042e-02 0.0 
-3.336067149172e-07 -7.784046779649e-02 0.0 
8.215883438513e-06 -7.963415978545e-02 0.0 
-1.108467707891e-05 -1.857503914391e-01 0.0 
4.629560768818e-06 -1.397530994222e-01 0.0 
-1.750353156763e-06 -5.849581448805e-02 0.0 
6.545663445627e-06 -7.339339478374e-02 0.0 
-6.285888961731e-07 -1.494884435071e-01 0.0 
-3.951558655962e-06 -1.079465503506e-01 0.0 
-1.129761870244e-05 -4.693625443311e-02 0.0 
6.723045230429e-06 -8.770441180532e-02 0.0 
-1.098779388918e-05 -1.916750461845e-01 0.0 
-9.983171478114e-07 -1.915722923449e-01 0.0 
-1.092600259360e-05 -1.830743403863e-01 0.0 
-4.753503048164e-06 -6.171875804745e-02 0.0 
8.814178638228e-06 -9.543017103469e-02 0.0 
7.027380471763e-07 -1.199317865307e-01 0.0 
-1.066612568388e-07 -1.156739204037e-01 0.0 
-7.526323444257e-06 -5.897079003289e-02 0.0 
4.693315876375e-08 -1.290844461827e-01 0.0 
-1.270717497332e-06 -7.717794334356e-02 0.0 
-6.412592858986e-07 -1.820230310483e-01 0.0 
-8.533485475562e-06 -4.079008811990e-02 0.0 
1.892833657951e-06 -1.343038640621e-01 0.0 
1.110575553694e-06 -1.799331688263e-01 0.0 
5.111579955139e-06 -1.400231040535e-01 0.0 
6.484431573470e-06 -1.617989239392e-01 0.0 
-7.905509656893e-07 -1.751068885411e-01 0.0 
-2.864643390126e-06 -1.189905879270e-01 0.0 
1.132448782762e-05 -1.940647582824e-01 0.0 
4.365553062989e-06 -1.940624946578e-01 0.0 
-3.723618254710e-06 -9.830686004627e-02 0.0 
-5.533447081034e-06 -1.839802323019e-01 0.0 
-4.738176106383e-06 -9.648832646808e-02 0.0 
-4.406157242441e-06 -1.023116899459e-01 0.0 
-2.462209381105e-07 -1.560711025867e-01 0.0 
-6.519175766616e-06 -1.776853880316e-01 0.0 
4.040316367459e-06 -5.932633049300e-02 0.0 
-2.303036361434e-06 -1.908250109192e-01 0.0 
5.561168321136e-06 -1.582731389556e-01 0.0 
-8.156212083933e-06 -4.999436505834e-02 0.0 
-4.463137503054e-06 -1.862358108982e-01 0.0 
2.314442972135e-06 -1.091803500492e-01 0.0 
-2.747646442002e-06 -1.216504712969e-01 0.0 
-3.549111508376e-06 -1.870078491815e-01 0.0 
-8.412308536600e-06 -5.418151268324e-02 0.0 
6.477017964192e-06 -8.314382953027e-02 0.0 
-6.632590393106e-06 -1.837853331727e-01 0.0 
1.396952428535e-06 -5.224397355566e-02 0.0 
1.403192802132e-06 -5.162708832318e-02 0.0 
-3.703190199237e-06 -1.813690016518e-01 0.0 
8.157551313419e-06 -1.717849003775e-01 0.0 
-4.155983952278e-06 -1.806818109329e-01 0.0 
-1.672427162646e-06 -8.424266758547e-02 0.0 
-2.179954516826e-06 -1.241365582478e-01 0.0 
2.238614032620e-06 -5.150128533816e-02 0.0 
3.945988912186e-06 -5.876366688013e-02 0.0 
-4.194516643494e-06 -9.045824935276e-02 0.0 
-4.988331524293e-06 -8.983383649454e-02 0.0 
-4.130015401598e-06 -1.851165467156e-01 0.0 
-3.634889167406e-06 -8.359883439447e-02 0.0 
6.828228388076e-06 -8.264771857964e-02 0.0 
-1.642865813456e-06 -1.246178228057e-01 0.0 
7.358351295243e-06 -9.589431927191e-02 0.0 
6.437743657402e-06 -7.494892487074e-02 0.0 
-1.807637425449e-08 -1.380918400082e-01 0.0 
5.751400760599e-06 -6.591180000242e-02 0.0 
4.361937052338e-06 -1.452209801914e-01 0.0 
-1.940404485865e-08 -1.295570392607e-01 0.0 
8.989668290432e-06 -1.661088788025e-01 0.0 
-2.559045113198e-06 -1.633901063049e-01 0.0 
7.283497027865e-06 -8.913314188920e-02 0.0 
-3.112095161620e-06 -1.348765145415e-01 0.0 
-2.295553396726e-06 -1.783894790899e-01 0.0 
-4.981308928730e-06 -1.902377279477e-01 0.0 
6.634194952726e-06 -8.961038082208e-02 0.0 
-2.551939671778e-06 -1.781389943440e-01 0.0 
-6.170146656955e-06 -3.893178245854e-02 0.0 
7.216224282110e-06 -8.115226207253e-02 0.0 
-5.854706829465e-06 -7.519142359716e-02 0.0 
2.989424721391e-06 -2.125138460597e-02 0.0 
4.387499958443e-09 -1.499101697444e-01 0.0 
-4.194351737805e-06 -1.811402653151e-01 0.0 
-4.748239008767e-06 -1.888233818466e-01 0.0 
-5.850460470392e-06 -8.858742696171e-02 0.0 
9.094683975842e-06 -1.015906994328e-01 0.0 
-6.119362032525e-07 -1.914965010800e-01 0.0 
6.192223303044e-06 -1.654555382598e-01 0.0 
7.468927538400e-07 -1.845754154535e-01 0.0 
2.969627546431e-06 -1.033176242254e-01 0.0 
1.151869971449e-05 -1.621411989283e-01 0.0 
-4.507139567455e-06 -1.017200953165e-01 0.0 
6.894764670977e-06 -1.661756424683e-01 0.0 
7.256140780537e-06 -6.483094625735e-02 0.0 
1.489610592109e-06 -1.721079705772e-01 0.0 
-5.801179352030e-06 -8.671274954365e-02 0.0 
-2.037100117222e-06 -1.836950916580e-01 0.0 
-5.231356436718e-06 -9.466418057232e-02 0.0 
1.789913952644e-06 -1.354185433685e-01 0.0 
-6.418297308371e-06 -8.167500938839e-02 0.0 
-3.060666048916e-06 -1.660253501254e-01 0.0 
-2.815729245593e-06 -1.843717477117e-01 0.0 
-3.178637102954e-06 -1.148896901574e-01 0.0 
-3.726019317158e-06 -1.017964661024e-01 0.0 
3.278303631422e-06 -1.479537232547e-01 0.0 
8.169256433074e-06 -1.020030289069e-01 0.0 
-4.229634133055e-06 -1.809379463672e-01 0.0 
4.165516421655e-06 -9.816829611634e-02 0.0 
-3.159710164608e-06 -1.864122284735e-01 0.0 
-1.067906073632e-05 -5.622523440266e-02 0.0 
-3.841763942033e-06 -9.419974662225e-02 0.0 
-1.612346057698e-06 -8.266839014382e-02 0.0 
-7.601182734821e-07 -4.262318039951e-02 0.0 
-3.303322823663e-06 -1.238172891176e-01 0.0 
-1.051438760963e-05 -1.856066772242e-01 0.0 
-4.129548651709e-06 -1.062591046726e-01 0.0 
-1.124240347401e-05 -4.633542898601e-02 0.0 
-5.282969805443e-06 -1.719456898577e-01 0.0 
-5.807390506822e-06 -8.231346651694e-02 0.0 
7.415901434943e-06 -8.165286205170e-02 0.0 
-8.375947031271e-06 -1.799993813700e-01 0.0 
-4.565542936680e-06 -1.005527676982e-01 0.0 
-6.548828239921e-06 -1.171978612121e-01 0.0 
1.674901091461e-06 -1.766656324029e-01 0.0 
2.492054665097e-06 -1.685798763281e-01 0.0 
2.824863418722e-06 -1.288247601434e-01 0.0 
-5.991436331162e-06 -8.796282809954e-02 0.0 
4.776932474435e-06 -1.557700214605e-01 0.0 
2.584629701929e-06 -1.346832268070e-01 0.0 
5.930323138924e-06 -9.056077191773e-02 0.0 
4.428473193308e-06 -1.087688926489e-01 0.0 
-2.045501664641e-07 -1.112012542221e-01 0.0 
2.308515640650e-06 -1.350464617715e-01 0.0 
-5.555735844961e-06 -6.104881958688e-02 0.0 
-3.867296726338e-06 -1.117847579399e-01 0.0 
-1.755141778364e-06 -1.161373733488e-01 0.0 
1.450598075084e-06 -4.539765922745e-02 0.0 
4.496880422788e-08 -7.448180853847e-02 0.0 
-5.198270920092e-06 -9.405542106938e-02 0.0 
6.376114629129e-06 -7.443130727568e-02 0.0 
-8.431870901382e-07 -1.600345571241e-01 0.0 
8.521704454524e-07 -1.644591075956e-01 0.0 
-5.938276218290e-06 -1.852922803092e-01 0.0 
-4.616795304813e-06 -9.878853552060e-02 0.0 
2.945816175087e-06 -1.610984511724e-01 0.0 
4.726616507701e-06 -9.726482803087e-02 0.0 
2.745657130395e-06 -1.046211527873e-01 0.0 
-1.017516828168e-06 -1.340261586266e-01 0.0 
-1.117416927240e-06 -1.711967174318e-01 0.0 
-2.091564077318e-06 -1.682189222082e-01 0.0 
1.059182377060e-06 -1.682654814882e-01 0.0 
-4.564151303969e-07 -1.641202230861e-01 0.0 
-6.258708401822e-06 -1.832049129848e-01 0.0 
-6.777735453821e-06 -6.790288330931e-02 0.0 
-3.169416876057e-06 -1.498277419672e-01 0.0 
5.382174791268e-06 -6.644911251519e-02 0.0 
-3.366269550431e-06 -1.445205609517e-01 0.0 
-4.197486301270e-06 -1.056902205132e-01 0.0 
-3.066295814584e-06 -1.297108709830e-01 0.0 
2.198912312439e-06 -1.360042168765e-01 0.0 
-6.553462462401e-06 -1.834128826210e-01 0.0 
-7.056301315882e-06 -5.344969589514e-02 0.0 
-7.273666218515e-06 -4.409293295641e-02 0.0 
-1.141305431902e-07 -9.801704162348e-02 0.0 
-1.865042743628e-06 -1.596702000669e-01 0.0 
-3.486179451085e-06 -1.181839783765e-01 0.0 
5.079277897619e-06 -9.681054788585e-02 0.0 
8.381495289077e-07 -1.564445912422e-01 0.0 
2.388484285473e-06 -1.532282778020e-01 0.0 
1.186438703704e-06 -1.724003044751e-01 0.0 
-5.751711541107e-06 -1.779375345161e-01 0.0 
-2.039935867622e-06 -1.553064512946e-01 0.0 
-8.373365790412e-07 -1.756497071850e-01 0.0 
-1.204332709184e-06 -1.791323209140e-01 0.0 
-2.842559141707e-06 -1.301940376097e-01 0.0 
-4.566100239824e-06 -9.996344359687e-02 0.0 
-3.883350944957e-06 -6.153951190571e-02 0.0 
7.030267497832e-06 -1.941803416323e-01 0.0 
-3.086024866192e-06 -1.473466563631e-01 0.0 
-3.524082520908e-06 -1.485751870737e-01 0.0 
-2.662013301731e-06 -1.548967740403e-01 0.0 
2.549963560320e-06 -1.041877497108e-01 0.0 
-3.033244638559e-06 -1.402656874995e-01 0.0 
4.700016123890e-06 -1.692027251668e-01 0.0 
-2.748884295819e-06 -1.502622192989e-01 0.0 
7.833669771642e-06 -7.287457333634e-02 0.0 
2.463192970255e-06 -1.695137907205e-01 0.0 
-4.734664014523e-06 -1.904595997431e-01 0.0 
-4.724346466301e-06 -1.873296633056e-01 0.0 
-5.473157110717e-06 -1.751950292691e-01 0.0 
-2.383151533619e-06 -1.672365560362e-01 0.0 
-3.188364290052e-06 -1.432435951937e-01 0.0 
-3.239297535209e-06 -1.449461599120e-01 0.0 
3.360309018896e-07 -1.855332098861e-01 0.0 
-9.005703797065e-06 -1.874360905844e-01 0.0 
-1.374552156137e-06 -1.130690002270e-01 0.0 
-7.857745343402e-07 -1.759197802396e-01 0.0 
-6.454537962970e-06 -7.587110013615e-02 0.0 
-4.425747627741e-06 -6.988836075178e-02 0.0 
1.797004325705e-05 -1.106324948098e-01 0.0 
2.732258322553e-06 -6.213690182755e-02 0.0 
3.593506729007e-06 -5.280015535186e-02 0.0 
-4.731797264717e-07 -1.385074931875e-01 0.0 
-2.278013006227e-06 -8.443908009765e-02 0.0 
-4.468923712391e-06 -1.830220943127e-01 0.0 
-1.921811061645e-06 -1.462483744227e-01 0.0 
1.539384482585e-06 -1.464648201877e-01 0.0 
-9.149114619178e-06 -1.792550362287e-01 0.0 
3.378382618330e-06 -1.871818968875e-01 0.0 
1.549768952729e-06 -1.607469302890e-01 0.0 
-3.537727108263e-06 -1.489838812609e-01 0.0 
-3.311540910326e-06 -1.436680606890e-01 0.0 
-9.988224052294e-07 -1.729814430833e-01 0.0 
-3.238534586661e-06 -1.344191481795e-01 0.0 
-3.240167589770e-06 -1.477572514890e-01 0.0 
-2.537121175080e-06 -1.419771571808e-01 0.0 
-1.302377204308e-06 -1.676023157603e-01 0.0 
-4.334290785711e-06 -9.238327172529e-02 0.0 
5.173529482803e-06 -9.103083692670e-02 0.0 
-2.244422456825e-06 -1.461124176086e-01 0.0 
-5.998043514473e-06 -6.035617758929e-02 0.0 
-7.018217552140e-06 -1.802416339995e-01 0.0 
-4.300722783230e-06 -4.158167940161e-02 0.0 
-3.245572026072e-06 -1.389389161016e-01 0.0 
-2.392196363986e-06 -4.287197493273e-02 0.0 
5.801304645171e-06 -1.081238680638e-01 0.0 
-4.802094081893e-06 -1.807120775991e-01 0.0 
1.370231260898e-05 -1.052113829659e-01 0.0 
2.865965725460e-06 -5.673552122407e-02 0.0 
-3.195433865544e-06 -1.330948734390e-01 0.0 
2.120160052101e-06 -1.629258264614e-01 0.0 
9.979458522978e-06 -9.960971418659e-02 0.0 
3.396384863233e-06 -1.386108063094e-01 0.0 
-9.961923290043e-07 -1.853462357297e-01 0.0 
4.371116806807e-06 -2.822813484269e-02 0.0 
9.961815277484e-07 -1.875388673022e-01 0.0 
1.317011427109e-05 -4.519380964028e-02 0.0 
3.199331134693e-06 -4.987573614023e-02 0.0 
-4.689622841034e-06 -8.630118036777e-02 0.0 
-9.638088718747e-07 -1.100827926753e-01 0.0 
3.621190601319e-06 -6.968255332068e-02 0.0 
-2.808319371044e-06 -1.424077791712e-01 0.0 
-1.584077717556e-06 -1.230643678318e-01 0.0 
3.829330396911e-06 -4.587543392988e-02 0.0 
-5.539811317211e-06 -8.608893024352e-02 0.0 
4.180669913658e-06 -8.461338155217e-02 0.0 
-4.670199477361e-06 -9.531977197095e-02 0.0 
-5.917582957129e-06 -1.828037971977e-01 0.0 
3.423896787744e-06 -7.803000258002e-02 0.0 
1.101981243375e-06 -2.580184916744e-02 0.0 
-5.880912148023e-06 -4.320258398825e-02 0.0 
-2.487461417473e-06 -1.458261531817e-01 0.0 
-1.030811468068e-06 -1.104986380157e-01 0.0 
-7.179395971450e-06 -1.169286480822e-01 0.0 
-3.286656078821e-06 -1.393827221772e-01 0.0 
-4.920217603845e-06 -9.223625375112e-02 0.0 
-5.477350022436e-06 -8.420264727390e-02 0.0 
-4.115213150001e-06 -1.889694623772e-01 0.0 
-3.949596303629e-06 -1.746050412254e-01 0.0 
-1.767079311898e-06 -1.406624725464e-01 0.0 
-2.564094265218e-06 -1.465303378240e-01 0.0 
2.551277870799e-06 -1.398757375055e-01 0.0 
2.973332300891e-06 -3.718336203817e-02 0.0 
-2.390522784595e-06 -5.319584998503e-02 0.0 
2.266729444962e-06 -5.046566684363e-02 0.0 
6.889550546972e-06 -1.510334438528e-01 0.0 
3.810221021069e-06 -7.236719159419e-02 0.0 
-4.937460188418e-06 -9.284227766795e-02 0.0 
-4.439177705017e-06 -4.417603894095e-02 0.0 
4.088076946101e-06 -8.605744901616e-02 0.0 
-2.701941101061e-06 -1.407112034375e-01 0.0 
-1.580100189335e-06 -1.448678275154e-01 0.0 
3.734122926969e-06 -7.752048919120e-02 0.0 
1.493140263407e-06 -5.378602495926e-02 0.0 
6.236911386204e-06 -7.599165023683e-02 0.0 
5.070203613894e-06 -8.412913628051e-02 0.0 
-6.726597300699e-06 -6.245696377778e-02 0.0 
3.763013352725e-06 -5.197982452610e-02 0.0 
-5.848405249303e-06 -6.924197244004e-02 0.0 
-3.700214671906e-06 -1.128760837684e-01 0.0 
1.300689041377e-05 -1.528941619628e-01 0.0 
-5.355433937458e-06 -7.819370526809e-02 0.0 
5.131629564896e-06 -8.840989210914e-02 0.0 
-1.752829813457e-06 -1.788882884813e-01 0.0 
-1.981099148374e-06 -1.410995909668e-01 0.0 
-2.077266706207e-06 -1.255790402654e-01 0.0 
-2.552030650110e-06 -1.111515901520e-01 0.0 
-7.941434213000e-06 -1.785642097496e-01 0.0 
-1.795434656622e-06 -1.452711049607e-01 0.0 
-3.590227079882e-06 -9.829039576684e-02 0.0 
1.117979873224e-05 -1.402942842522e-01 0.0 
-2.557054951245e-06 -1.358051971061e-01 0.0 
1.957486078557e-06 -9.992823012401e-02 0.0 
8.953019028288e-07 -1.348703242333e-01 0.0 
-1.092694544998e-05 -1.923874487415e-01 0.0 
-3.387035046215e-06 -1.187064200455e-01 0.0 
-5.319253947345e-06 -7.938951412098e-02 0.0 
8.090513814303e-07 -4.457967044415e-02 0.0 
-1.298068592391e-06 -1.289003572497e-01 0.0 
-2.980441745915e-06 -1.248228974133e-01 0.0 
2.955231121904e-06 -9.861724282589e-02 0.0 
-4.169695068612e-06 -1.899854142634e-01 0.0 
-4.962255948827e-06 -8.568139506196e-02 0.0 
-2.228143469489e-06 -1.180041608556e-01 0.0 
1.132358719135e-05 -1.352381450451e-01 0.0 
-5.242795007208e-06 -8.483426527041e-02 0.0 
-1.008243860349e-05 -1.794827802450e-01 0.0 
-5.967515427964e-06 -7.651754726930e-02 0.0 
-6.858916823198e-06 -5.115522256889e-02 0.0 
-4.316287571318e-06 -9.179401140826e-02 0.0 
5.586890692028e-06 -7.650689197810e-02 0.0 
-3.320961703844e-06 -7.236531062676e-02 0.0 
-6.105854914903e-06 -5.186670492939e-02 0.0 
-2.183571410184e-07 -1.865985939761e-01 0.0 
2.756900773115e-06 -9.242128761794e-02 0.0 
-4.708158671100e-06 -5.039869752881e-02 0.0 
4.584424666141e-06 -6.915320137923e-02 0.0 
-3.144267217835e-06 -1.051150430951e-01 0.0 
-1.339303081912e-06 -1.398078055162e-01 0.0 
-1.018334771872e-06 -1.277160768825e-01 0.0 
-1.489082861004e-05 -1.889068041878e-01 0.0 
4.184454146549e-06 -6.048983014094e-02 0.0 
5.884376523315e-07 -1.764100291817e-01 0.0 
9.505474407850e-06 -1.822635229746e-01 0.0 
-2.096639827515e-06 -7.879384325335e-02 0.0 
1.977458246204e-07 -4.202442253284e-02 0.0 
-8.641311540300e-06 -1.823294729940e-01 0.0 
2.963661153244e-06 -1.226949051715e-01 0.0 
3.553634064732e-06 -8.558015365101e-02 0.0 
-1.971110557943e-06 -1.315704005476e-01 0.0 
-7.633364571536e-06 -1.788116795152e-01 0.0 
1.256155838248e-06 -1.666564444147e-01 0.0 
-1.851861607870e-06 -1.869105890591e-01 0.0 
-1.020157171422e-05 -1.820785227997e-01 0.0 
-9.041094903983e-06 -1.846245592123e-01 0.0 
-2.137953908285e-06 -1.174829811804e-01 0.0 
1.135304151784e-06 -1.024234466751e-02 0.0 
1.879452488709e-05 -1.769828137225e-01 0.0 
-9.676252068279e-06 -5.548067610725e-02 0.0 
-8.825296732735e-07 -1.527390393537e-01 0.0 
5.416589692128e-06 -9.374934911061e-02 0.0 
-1.199588119505e-05 -1.853145846965e-01 0.0 
-4.604718107965e-06 -4.203237504414e-02 0.0 
-7.675095799943e-06 -1.848566307864e-01 0.0 
1.194004433199e-06 -1.698267708956e-01 0.0 
-3.552757400218e-06 -8.388472903853e-02 0.0 
-3.050014196896e-06 -1.380855022465e-01 0.0 
5.491358955340e-07 -5.899446097005e-02 0.0 
2.586509506885e-06 -1.612443738949e-01 0.0 
3.720058416425e-06 -8.104496050411e-02 0.0 
7.039664815156e-06 -4.405084253563e-02 0.0 
3.073710482816e-06 -9.196402890792e-02 0.0 
-7.681992406532e-07 -4.511275505774e-02 0.0 
3.183798795514e-06 -7.129773112454e-02 0.0 
3.294421487175e-06 -6.439751229503e-02 0.0 
-5.291414255080e-06 -1.821311429731e-01 0.0 
-9.673742572512e-06 -6.457291185542e-02 0.0 
4.247162783963e-06 -7.904645970291e-02 0.0 
4.953971236723e-07 -1.323554371418e-01 0.0 
1.472587123531e-05 -1.707260871938e-01 0.0 
3.114916732756e-06 -3.537761870112e-02 0.0 
-6.925912491885e-06 -1.778494457224e-01 0.0 
-1.731073228302e-07 -1.732276595927e-01 0.0 
1.337809142262e-06 -6.713570022205e-02 0.0 
1.620402530641e-06 -1.864589488638e-01 0.0 
2.176250187454e-06 -1.301713289810e-01 0.0 
-4.806626831883e-06 -7.758617163795e-02 0.0 
2.625985742538e-06 -4.858415784949e-02 0.0 
2.062222021123e-06 -4.096417679860e-02 0.0 
-4.395445628858e-06 -8.448460111479e-02 0.0 
2.316269541124e-06 -6.270340448487e-02 0.0 
6.023766099974e-08 -1.476973984099e-01 0.0 
-3.376585938571e-06 -7.699523181514e-02 0.0 
1.556396066355e-05 -1.634625479863e-01 0.0 
3.490320183757e-06 -4.842932152519e-02 0.0 
1.762713909438e-05 -1.552275819447e-01 0.0 
1.350515832489e-05 -1.507438052023e-01 0.0 
-7.942296269491e-07 -1.335816979819e-01 0.0 
9.936967267617e-06 -1.460106833720e-01 0.0 
1.095138245956e-06 -1.140525539420e-01 0.0 
1.876111247602e-06 -1.415744725914e-01 0.0 
-1.603992800044e-06 -1.353868715811e-01 0.0 
-9.272201794825e-06 -1.814927139123e-01 0.0 
-1.122121890263e-06 -1.393700702051e-01 0.0 
1.528037955398e-06 -5.323025671348e-02 0.0 
-2.530416528361e-06 -4.496754699384e-02 0.0 
-6.824564708534e-06 -7.977100483034e-02 0.0 
-1.644159371365e-08 -5.129797696231e-02 0.0 
-2.824112001466e-06 -1.376602813498e-01 0.0 
2.856144774666e-06 -6.383741853615e-02 0.0 
-1.391551037345e-06 -1.349354819961e-01 0.0 
-9.969430220920e-06 -5.770169664797e-02 0.0 
2.894975680665e-06 -7.075856936681e-02 0.0 
3.618525969875e-06 -7.289021943860e-02 0.0 
-3.669062366656e-06 -9.943748049260e-02 0.0 
-6.595808536623e-07 -1.436244495236e-01 0.0 
-4.863330720499e-06 -6.216058068370e-02 0.0 
7.123783270866e-06 -1.076263713211e-01 0.0 
-1.026863606931e-05 -1.816802185950e-01 0.0 
-7.714583031156e-06 -1.780936995657e-01 0.0 
2.460765260412e-06 -1.575633143756e-01 0.0 
3.374584110922e-06 -1.222304421601e-01 0.0 
-8.086991873372e-06 -5.048436838923e-02 0.0 
4.435308297009e-06 -7.955582641368e-02 0.0 
-1.085235816235e-06 -1.440425658965e-01 0.0 
9.899045585412e-07 -1.041809927950e-01 0.0 
-5.141105232995e-06 -7.100181268535e-02 0.0 
3.730390079367e-06 -6.105178164033e-02 0.0 
1.675433224482e-06 -5.367900365710e-02 0.0 
5.493233285988e-06 -1.007231499384e-01 0.0 
-9.220755186002e-06 -6.516053243954e-02 0.0 
-1.454921609919e-06 -1.293719453081e-01 0.0 
-5.377558350675e-06 -7.157783623243e-02 0.0 
2.300593245510e-06 -1.297203422200e-01 0.0 
5.674014329774e-06 -4.666221193347e-02 0.0 
5.445093497640e-06 -4.363386612814e-02 0.0 
-2.703052283695e-06 -1.122305942360e-01 0.0 
-1.013780945727e-05 -1.808077940326e-01 0.0 
-7.230182420262e-06 -6.510149147026e-02 0.0 
1.700049551005e-06 -1.191659788654e-01 0.0 
-5.368160349986e-07 -1.480981230606e-01 0.0 
-3.205099290216e-06 -1.056728675038e-01 0.0 
-7.264074332070e-06 -7.459640410290e-02 0.0 
-1.012669969772e-05 -1.810333727820e-01 0.0 
-1.831120296288e-06 -1.240571355655e-01 0.0 
1.091902854131e-05 -9.912624179031e-02 0.0 
-6.217197734296e-06 -5.116395082465e-02 0.0 
7.535246669933e-06 -9.332264316269e-02 0.0 
-3.834172991581e-06 -7.174642910790e-02 0.0 
1.531723987909e-05 -1.047417235178e-01 0.0 
2.736336526129e-05 -1.154839605957e-01 0.0 
3.801835267785e-06 -1.021403000238e-01 0.0 
3.826095016544e-06 -6.034082889591e-02 0.0 
-7.887369813529e-06 -7.193833068135e-02 0.0 
5.359178962615e-06 -8.700457054970e-02 0.0 
3.017414639136e-06 -4.045956884143e-02 0.0 
2.021595830996e-05 -1.101826837763e-01 0.0 
-1.579112824467e-06 -1.612774373635e-01 0.0 
-1.313904560490e-05 -5.713164023150e-02 0.0 
-3.854028110971e-06 -4.460037059938e-02 0.0 
1.897208714368e-06 -1.310876832221e-01 0.0 
1.890060496946e-06 -1.250098985691e-01 0.0 
-1.189714348957e-06 -1.531173943419e-01 0.0 
4.138400153442e-06 -8.056339610449e-02 0.0 
4.283395164885e-06 -1.517919260077e-01 0.0 
6.276092043218e-07 -1.082447581587e-01 0.0 
3.336879743552e-06 -1.521229316994e-01 0.0 
-1.088834801771e-06 -7.566849461423e-02 0.0 
-7.814255966018e-06 -4.087847259682e-02 0.0 
-1.547338854706e-06 -1.492821207296e-01 0.0 
-1.220266035515e-05 -1.890532263093e-01 0.0 
7.930183043997e-07 -4.192842986663e-02 0.0 
5.993780267187e-06 -1.468493791214e-01 0.0 
-2.189334866253e-06 -1.317742268034e-01 0.0 
-1.350698246076e-05 -4.938174790614e-02 0.0 
5.253965870242e-06 -8.748911239611e-02 0.0 
-5.827588373187e-06 -7.847413372489e-02 0.0 
1.046534585134e-06 -1.468789142457e-01 0.0 
-1.289084710422e-05 -1.905491067971e-01 0.0 
-6.334598215123e-06 -4.320904043484e-02 0.0 
2.429212363602e-06 -1.172539061289e-01 0.0 
-1.311752051832e-06 -8.917201694553e-02 0.0 
-5.648350518498e-06 -5.440385063780e-02 0.0 
-7.150663958431e-06 -1.926149391893e-01 0.0 
-5.547814647757e-06 -7.782549266861e-02 0.0 
-1.046803442342e-06 -1.706037993244e-01 0.0 
6.876584347286e-06 -1.011209733298e-01 0.0 
-2.838030434359e-06 -1.202394983049e-01 0.0 
-1.269655673255e-06 -1.488945944217e-01 0.0 
-8.430022782518e-06 -5.837580943879e-02 0.0 
1.448513896382e-06 -1.135637031523e-01 0.0 
-1.500566707926e-06 -1.574887299441e-01 0.0 
1.907940744178e-06 -1.110969877139e-01 0.0 
-9.285788271668e-06 -1.906765907732e-01 0.0 
-1.918524095403e-06 -8.501404706013e-02 0.0 
-2.303833449427e-06 -7.629783574761e-02 0.0 
-7.920314179129e-07 -3.504465334374e-02 0.0 
-4.253313273205e-06 -7.050230526822e-02 0.0 
-4.584076782839e-06 -1.722210471538e-01 0.0 
-6.981736171040e-06 -8.041232388329e-02 0.0 
-4.744923898983e-06 -3.646406695344e-02 0.0 
-5.230370218160e-06 -2.605025835548e-02 0.0 
8.353133168335e-07 -6.780022058413e-02 0.0 
3.925761945533e-07 -1.428080716936e-01 0.0 
1.453262079347e-07 -9.854293240191e-02 0.0 
-7.211767307864e-06 -5.279942595450e-02 0.0 
-5.070889278355e-07 -1.309183825715e-01 0.0 
-2.844662673210e-06 -7.818414329405e-02 0.0 
4.333633188660e-06 -9.331159428784e-02 0.0 
-9.412286874341e-06 -6.527102515491e-02 0.0 
-5.663259484323e-06 -6.991829984284e-02 0.0 
-3.483654533025e-06 -1.399680649095e-01 0.0 
-2.249553440064e-06 -1.400101759002e-01 0.0 
8.788194000175e-06 -9.223580255375e-02 0.0 
-6.580500050461e-07 -9.218317994518e-02 0.0 
-3.041862993497e-06 -1.150340642627e-01 0.0 
2.676885044430e-06 -9.543342893295e-02 0.0 
1.194370832329e-06 -1.201270922616e-01 0.0 
-6.621925040667e-06 -4.881558172935e-02 0.0 
8.802088714234e-07 -1.424028344899e-01 0.0 
-3.445437648940e-06 -1.033495822864e-02 0.0 
2.925859440814e-05 -1.268573058642e-01 0.0 
1.737757428695e-06 -1.254821611756e-01 0.0 
-3.078550950566e-06 -1.197360923368e-01 0.0 
-4.848010818550e-06 -1.748760842608e-01 0.0 
-2.214868216117e-06 -1.362552922132e-01 0.0 
1.200642821485e-06 -1.052038094219e-01 0.0 
3.402183533526e-06 -1.158193207654e-01 0.0 
6.694727661054e-06 -9.463171434843e-02 0.0 
3.620975291288e-07 -8.899369773627e-02 0.0 
-6.090606926400e-07 -8.183266046766e-02 0.0 
1.767052644359e-05 -1.903454704477e-01 0.0 
-1.794104010105e-06 -1.415835197856e-01 0.0 
4.821567466403e-06 -1.472494571491e-01 0.0 
7.796203278424e-06 -1.006351389109e-01 0.0 
6.610679582710e-06 -9.386515879542e-02 0.0 
8.928795511754e-06 -5.383980548595e-02 0.0 
3.261478239123e-06 -1.843782072556e-01 0.0 
-1.261539419745e-05 -1.836939367220e-01 0.0 
2.433211040181e-06 -1.236222424429e-01 0.0 
-1.263564748202e-06 -1.420021355340e-01 0.0 
1.669769432666e-05 -1.510574238610e-01 0.0 
6.102506085948e-06 -1.463335038381e-01 0.0 
6.990733092724e-06 -9.507092966184e-02 0.0 
-7.068838297512e-06 -1.841969480681e-01 0.0 
-2.210659381072e-06 -1.262525712123e-01 0.0 
-5.251867578501e-06 -7.997607756690e-02 0.0 
-1.316182245888e-05 -1.834820653574e-01 0.0 
1.864097908512e-06 -2.102014539619e-02 0.0 
3.172887533534e-06 -5.573415791371e-02 0.0 
-6.501500515061e-07 -1.329536258646e-01 0.0 
-7.783085577865e-06 -7.327776303379e-02 0.0 
6.278169885471e-06 -1.916922402975e-01 0.0 
-5.065348297315e-06 -8.803691609533e-02 0.0 
2.244828886253e-06 -1.177328694154e-01 0.0 
1.075786593539e-05 -1.917213975828e-01 0.0 
2.921835414841e-06 -5.513930562016e-02 0.0 
-1.424281081989e-05 -1.854967309182e-01 0.0 
6.353180833575e-06 -1.011501224213e-01 0.0 
2.888853809460e-06 -1.162925172690e-01 0.0 
-2.183467117042e-06 -1.367670693264e-01 0.0 
-4.295060096311e-06 -1.098898017108e-01 0.0 
3.371184263121e-06 -4.814288829800e-02 0.0 
-4.998508443983e-06 -9.666311737077e-02 0.0 
1.883674610221e-06 -1.186916579496e-01 0.0 
2.198028614217e-06 -1.240845908924e-01 0.0 
-1.677526307785e-05 -1.932317298154e-01 0.0 
-1.288139049880e-05 -1.874711020627e-01 0.0 
-6.434008699044e-06 -6.400671503190e-02 0.0 
2.420723006390e-05 -1.092600544883e-01 0.0 
-1.182966059595e-05 -5.665574531200e-02 0.0 
-6.247926282527e-07 -1.703647213939e-01 0.0 
1.334553701697e-06 -6.881188861709e-02 0.0 
-7.062580287508e-06 -5.500161658918e-02 0.0 
1.089907138958e-05 -1.420383800463e-01 0.0 
-6.105126134973e-06 -6.337229115152e-02 0.0 
-7.360622575965e-06 -7.391584967672e-02 0.0 
7.020134017717e-07 -9.963550185452e-02 0.0 
-2.277832117682e-06 -1.311342515468e-01 0.0 
-2.757901457018e-06 -1.253130162433e-01 0.0 
8.939754581046e-07 -4.256416411543e-02 0.0 
-3.676315534029e-06 -1.220206032537e-01 0.0 
1.956659232359e-06 -1.106000618654e-01 0.0 
-2.946661781629e-07 -1.213554345939e-01 0.0 
-6.079660421531e-06 -8.238348915002e-02 0.0 
1.559195159067e-06 -1.315325021573e-01 0.0 
-3.575896096111e-06 -1.690963987494e-01 0.0 
-2.286413452008e-06 -1.190554065311e-01 0.0 
-2.238197908692e-06 -1.651727717632e-01 0.0 
3.905751984523e-06 -9.494074807312e-02 0.0 
-2.567107216154e-06 -1.654735768505e-01 0.0 
2.785459852787e-06 -1.026725669626e-01 0.0 
2.861427719642e-06 -6.105784275111e-02 0.0 
-1.344352627725e-06 -6.914657557271e-02 0.0 
1.516612873844e-06 -1.368769302915e-01 0.0 
1.047793869442e-05 -1.018907741996e-01 0.0 
-7.450416434040e-06 -6.658322458866e-02 0.0 
-6.555407489088e-06 -6.722034138055e-02 0.0 
-1.479170319254e-05 -1.878847551962e-01 0.0 
7.317136630677e-07 -9.648206950103e-02 0.0 
-4.495292110578e-06 -4.226205240845e-02 0.0 
5.381389880579e-06 -1.659505766702e-01 0.0 
-2.040523014299e-06 -1.217886368165e-01 0.0 
-1.751654604730e-05 -1.924594489401e-01 0.0 
-5.665219698489e-06 -5.969250866610e-02 0.0 
-3.972615547610e-06 -1.719497538168e-01 0.0 
1.418343725505e-06 -1.260670185653e-01 0.0 
-1.121573883834e-06 -8.883279097747e-02 0.0 
1.219207091271e-05 -1.023153123519e-01 0.0 
2.157164565381e-05 -1.088272759142e-01 0.0 
1.837734259571e-06 -1.120980860480e-01 0.0 
1.778220007449e-05 -1.597781723868e-01 0.0 
1.195951506863e-05 -1.555540670439e-01 0.0 
-4.820483167513e-06 -6.038099576955e-02 0.0 
-4.569074789258e-06 -1.031996076335e-01 0.0 
-2.158121283300e-06 -1.260833391565e-01 0.0 
-4.573055311458e-06 -8.749586111259e-02 0.0 
-1.743025808637e-06 -1.303268485875e-01 0.0 
-2.635525553420e-06 -1.685243003250e-01 0.0 
1.553928575431e-05 -1.594901965295e-01 0.0 
2.828337445568e-05 -1.212015186319e-01 0.0 
-5.445293430289e-06 -1.428712389806e-01 0.0 
-3.004457781540e-06 -6.983503938679e-02 0.0 
1.013560395117e-06 -1.372911981319e-01 0.0 
-6.349448196174e-06 -3.503896653568e-02 0.0 
-3.100205347920e-06 -6.330529668237e-02 0.0 
-1.906782732307e-06 -1.245606492599e-01 0.0 
-1.676179506003e-06 -3.294491549850e-02 0.0 
-2.386906013323e-06 -1.622093318463e-01 0.0 
-8.596383085302e-06 -4.262970985489e-02 0.0 
1.711762409502e-06 -1.125945261328e-01 0.0 
5.272463727503e-08 -9.391875849405e-02 0.0 
-1.260555650069e-05 -5.712259660249e-02 0.0 
-3.097739860852e-06 -1.588599436703e-01 0.0 
1.279827956982e-06 -1.036932716324e-01 0.0 
-1.872130070847e-06 -1.308102819138e-01 0.0 
2.759912354865e-06 -1.096391441993e-01 0.0 
4.169217209139e-07 -1.669265687404e-01 0.0 
-1.516908675141e-06 -8.787143046416e-02 0.0 
-1.947116898730e-06 -1.363074233278e-01 0.0 
-3.282261463096e-06 -1.144776113132e-01 0.0 
3.620316505533e-06 -1.091430126842e-01 0.0 
-1.988269771858e-05 -1.928714583390e-01 0.0 
-9.399765178745e-07 -1.093062577655e-01 0.0 
-7.895101558663e-06 -1.903290934216e-01 0.0 
-5.673254601978e-06 -1.892306560385e-01 0.0 
-2.233027601536e-06 -1.212794277840e-01 0.0 
-3.540850227936e-06 -6.872145824812e-02 0.0 
1.626411843549e-05 -1.033355501016e-01 0.0 
1.515804969245e-05 -1.675108314393e-01 0.0 
-2.448701948173e-06 -5.050904282751e-03 0.0 
-1.261439167461e-05 -1.938417937289e-01 0.0 
9.198688675837e-06 -1.637711491731e-01 0.0 
-2.546418957706e-06 -1.206634633414e-01 0.0 
-6.822032310525e-07 -1.281737524808e-01 0.0 
1.315281260189e-05 -1.485712479792e-01 0.0 
-2.901629799908e-06 -1.594812171343e-01 0.0 
-3.859652486213e-06 -1.159016979344e-01 0.0 
1.314819814226e-06 -1.057259444695e-01 0.0 
-1.494871896655e-06 -9.628094861442e-02 0.0 
-1.622781426505e-06 -5.772435501716e-02 0.0 
-1.111953979060e-05 -1.862474171206e-01 0.0 
-1.285365710246e-06 -1.324828057565e-01 0.0 
-1.853106991559e-06 -1.227356405455e-01 0.0 
-1.911167671180e-06 -1.742602715254e-01 0.0 
2.293508256153e-05 -1.367782190974e-01 0.0 
1.742114654716e-05 -1.038359549201e-01 0.0 
-1.275852203559e-06 -8.564720370315e-02 0.0 
6.218511180477e-06 -1.922960166427e-01 0.0 
-8.709742136182e-07 -1.933269741662e-01 0.0 
-2.985948840884e-06 -1.846399177188e-01 0.0 
-1.867059286652e-06 -1.231955916716e-01 0.0 
-1.953367082949e-06 -1.541922128601e-01 0.0 
-2.849567168082e-06 -1.631232306276e-01 0.0 
-3.870569170873e-06 -1.693508311094e-01 0.0 
-2.767863282239e-06 -1.161317368749e-01 0.0 
8.893623847816e-06 -9.163692885236e-02 0.0 
-3.440095013922e-06 -1.175666044811e-01 0.0 
-1.747395653803e-06 -1.538386691304e-01 0.0 
8.648591793055e-08 -9.700664265578e-02 0.0 
7.054819645779e-06 -1.248542655392e-01 0.0 
-5.184763958103e-07 -7.384905606443e-02 0.0 
-3.686653040474e-06 -1.180349779793e-01 0.0 
-2.916578800318e-06 -1.166210650055e-01 0.0 
1.374432666583e-05 -1.742418267287e-01 0.0 
-2.203612714867e-06 -1.504431361321e-01 0.0 
-4.870550645987e-06 -1.122118854002e-01 0.0 
-2.747877094873e-06 -9.869475624615e-02 0.0 
-2.903341826165e-06 -1.113958401378e-01 0.0 
7.309371824733e-06 -1.710215466763e-01 0.0 
-3.687903423170e-06 -1.107597819474e-01 0.0 
-4.030830728861e-06 -1.641380257035e-01 0.0 
-7.532571944180e-06 -1.871918172530e-01 0.0 
-6.204155060213e-06 -4.303034280640e-02 0.0 
-5.731697995813e-08 -1.859776272668e-01 0.0 
-3.905299862581e-06 -1.605393630677e-01 0.0 
-4.328302564181e-07 -1.152899153913e-01 0.0 
1.269783670574e-05 -1.672467575688e-01 0.0 
-4.585629699009e-06 -1.126862307900e-01 0.0 
-1.035791825843e-06 -1.766265780653e-01 0.0 
2.947015116347e-05 -1.318476911839e-01 0.0 
-4.197467341681e-06 -1.112453702969e-01 0.0 
-2.558781554713e-06 -1.322368168364e-01 0.0 
-1.846055017849e-06 -1.267360477418e-01 0.0 
-2.109193515357e-05 -1.926661153734e-01 0.0 
-2.190174606404e-06 -5.566613121278e-02 0.0 
-3.125525222460e-06 -1.516060365496e-01 0.0 
-1.728203254819e-06 -5.533753325569e-02 0.0 
-3.026462144330e-07 -9.447954655288e-02 0.0 
-4.362260921506e-06 -1.051878149993e-01 0.0 
-4.788786199261e-06 -1.056859566044e-01 0.0 
-2.185422018466e-06 -1.584733630693e-01 0.0 
2.909721543554e-06 -1.905973013387e-01 0.0 
-1.484744459023e-05 -1.923336718438e-01 0.0 
-2.525614584088e-06 -9.939033615920e-02 0.0 
-1.081271711282e-05 -5.681386812970e-02 0.0 
-4.385308554317e-06 -1.651764757823e-01 0.0 
-1.366302604316e-06 -9.055964439918e-02 0.0 
4.814339737046e-07 -1.697640679791e-01 0.0 
-5.666984372351e-07 -8.951007136551e-02 0.0 
-1.454869594454e-06 -2.621922299952e-02 0.0 
7.105853533973e-08 -1.942281410331e-01 0.0 
6.572302246397e-06 -5.248270837171e-03 0.0 
-7.141454029764e-07 -5.697512781438e-03 0.0 
-1.015082735235e-06 -1.296148160965e-01 0.0 
-3.733126924302e-06 -1.527764478306e-01 0.0 
8.906831358559e-07 -1.001950355727e-01 0.0 
-1.780564831320e-06 -1.578224784248e-01 0.0 
-2.011348135737e-06 -1.906143661256e-01 0.0 
-1.486646752178e-05 -1.933091229644e-01 0.0 
6.391347891250e-06 -4.133390317952e-02 0.0 
1.263938565906e-05 -9.805770864081e-02 0.0 
1.593363040513e-05 -1.413411154778e-01 0.0 
8.656805524940e-07 -1.037656647411e-02 0.0 
4.276434441591e-06 -1.819993416193e-01 0.0 
1.106559069280e-06 -1.002405514201e-02 0.0 
1.249737727422e-05 -9.760175107668e-02 0.0 
-3.462617683236e-06 -1.540012176482e-01 0.0 
1.377517698242e-06 -1.067819182724e-01 0.0 
-4.111155764080e-06 -1.571464503696e-01 0.0 
-5.763684560666e-06 -1.851116386173e-01 0.0 
-4.123663437411e-06 -1.616700607354e-01 0.0 
6.627529523227e-06 -8.559082503667e-02 0.0 
-4.605112824553e-06 -5.499897479287e-02 0.0 
-3.336049006757e-06 -1.560306455086e-01 0.0 
-2.308025897340e-06 -8.284556868795e-02 0.0 
4.652925993733e-06 -1.941528094042e-01 0.0 
-2.430764329410e-06 -1.549303424273e-01 0.0 
3.563188050839e-06 -7.609661535160e-02 0.0 
-3.169664796312e-06 -1.629895271626e-01 0.0 
-4.255474083231e-06 -1.692341469643e-01 0.0 
1.297894244337e-06 -1.072767743762e-01 0.0 
-1.417660880721e-05 -1.862274119409e-01 0.0 
1.656819686918e-05 -1.801243373568e-01 0.0 
1.899755872300e-05 -1.773965003599e-01 0.0 
-3.544820422095e-06 -1.700552261891e-01 0.0 
-2.909717601485e-06 -1.211748690956e-01 0.0 
9.783727564838e-07 -1.263793979179e-01 0.0 
-2.462402319284e-06 -8.337056856688e-02 0.0 
-1.079632725824e-06 -3.749582892956e-02 0.0 
1.204648654464e-05 -1.740347603147e-01 0.0 
-3.053919979771e-06 -8.451524467410e-02 0.0 
4.169802365612e-06 -3.640074955944e-02 0.0 
-2.188020255323e-06 -1.619119909315e-01 0.0 
-9.458973041092e-06 -1.902129305485e-01 0.0 
3.818279660419e-06 -1.662584793424e-01 0.0 
-3.301616730941e-06 -1.274901706495e-01 0.0 
9.076124526850e-07 -8.135049940271e-02 0.0 
-2.890866615539e-06 -1.270573349437e-01 0.0 
-7.082285562549e-06 -1.895771011716e-01 0.0 
-3.766603294439e-06 -1.090522519747e-01 0.0 
-3.261087846979e-06 -1.827809217344e-01 0.0 
4.176271998161e-07 -1.267880650620e-01 0.0 
-3.503804669071e-06 -1.154887994821e-01 0.0 
4.556888302429e-07 -1.012506797353e-01 0.0 
2.273859716756e-06 -1.011846823598e-01 0.0 
-3.022046559857e-06 -1.704605531981e-01 0.0 
-9.053249652603e-06 -1.890098773874e-01 0.0 
-4.396465804530e-06 -1.027749563497e-01 0.0 
-2.100867804995e-06 -1.801725427309e-01 0.0 
-1.970809422265e-06 -1.932851597845e-01 0.0 
2.373759511443e-06 -3.769491866010e-02 0.0 
1.917116592766e-06 -5.446811623429e-02 0.0 
-5.123401036107e-06 -1.933092049920e-01 0.0 
-5.005658835158e-06 -9.578627827927e-02 0.0 
-3.227049108512e-06 -1.799381454367e-01 0.0 
-2.491225052911e-06 -1.773850750742e-01 0.0 
-3.100970055527e-06 -6.816008214591e-02 0.0 
1.387794406539e-07 -1.017298127280e-01 0.0 
-3.471668314308e-06 -7.644939808947e-02 0.0 
-2.782272623601e-06 -1.552896260807e-01 0.0 
-2.699290088729e-06 -1.431187064436e-01 0.0 
-1.119518395132e-06 -2.214538264473e-02 0.0 
-3.575051267185e-06 -1.825352726053e-01 0.0 
-2.847242761827e-06 -6.331972408879e-02 0.0 
7.729997154177e-07 -1.205795100687e-01 0.0 
7.862360972934e-06 -1.867253551806e-01 0.0 
4.369542767885e-06 -8.745825004417e-02 0.0 
-1.968644751140e-06 -1.500389419045e-01 0.0 
-2.860188426829e-06 -1.917173516079e-01 0.0 
-2.727296963565e-06 -1.628085955556e-01 0.0 
-6.547460680445e-07 -9.249045302595e-02 0.0 
6.314152211319e-06 -8.619419324933e-02 0.0 
7.569323046379e-08 -1.877231302620e-01 0.0 
6.333875810714e-06 -1.276072964222e-01 0.0 
-2.107242481618e-06 -7.486648751727e-02 0.0 
-1.525125110074e-06 -6.600430126601e-02 0.0 
-3.741281645262e-06 -1.660086011281e-01 0.0 
-2.671032163190e-06 -1.761752012431e-01 0.0 
7.409008049474e-08 -1.149226580102e-01 0.0 
1.524611627144e-06 -1.054418973795e-01 0.0 
-7.858454764476e-06 -1.918101647118e-01 0.0 
-2.679609363030e-06 -2.549687878981e-02 0.0 
-1.142184082750e-06 -2.223198591030e-02 0.0 
-7.217768423321e-06 -1.221371746774e-01 0.0 
9.135051965158e-06 -2.931299900859e-02 0.0 
-2.780644924132e-06 -2.104366141066e-02 0.0 
-2.874792817451e-06 -1.512203400009e-01 0.0 
-3.628769674156e-06 -1.563969915743e-01 0.0 
1.346331643774e-07 -2.647805465609e-02 0.0 
-2.403062867296e-06 -1.941207963370e-01 0.0 
1.014956202467e-06 -1.794922045306e-01 0.0 
4.350484575903e-06 -1.231983440082e-01 0.0 
-3.516545078971e-06 -1.664306498849e-01 0.0 
-3.622925311733e-06 -1.638015487150e-01 0.0 
3.841536289375e-06 -1.849201477492e-01 0.0 
3.646582336964e-06 -1.826505999741e-01 0.0 
-1.824338609775e-06 -1.239028845313e-01 0.0 
-2.427851301201e-06 -1.588072984089e-01 0.0 
1.333420035982e-07 -1.739183645623e-01 0.0 
-3.778308008847e-06 -7.348404261833e-02 0.0 
-6.391395613166e-06 -1.000643541172e-02 0.0 
-4.587131730813e-06 -1.122325777484e-02 0.0 
-3.572388613437e-06 -1.523829777411e-01 0.0 
2.036013656913e-05 -1.309266702037e-01 0.0 
4.980499249473e-06 -1.938130337188e-01 0.0 
-1.777729416769e-06 -1.884923068333e-01 0.0 
-1.693778226017e-05 -1.876742190128e-01 0.0 
-7.273971265656e-06 -1.866806278912e-01 0.0 
2.793215577172e-08 -1.086624444198e-01 0.0 
-4.445777147112e-06 -1.647995807048e-01 0.0 
-3.204673778054e-06 -1.598365400135e-01 0.0 
-7.201861954385e-07 -1.922853985233e-01 0.0 
-5.622092841898e-06 -4.979030188934e-02 0.0 
-4.226947641642e-06 -1.608953517735e-01 0.0 
8.697707609391e-06 -4.044078934704e-02 0.0 
2.509438347737e-06 -6.422150530270e-02 0.0 
1.245399871489e-05 -1.156654564258e-02 0.0 
-1.588183438449e-06 -1.004643633891e-02 0.0 
-5.443036188545e-06 -1.234241308264e-01 0.0 
-4.068340152645e-06 -1.575442642540e-01 0.0 
2.210367013789e-05 -1.799827510814e-01 0.0 
-3.703955900221e-06 -1.535829559022e-01 0.0 
3.896753572894e-06 -4.767862724722e-03 0.0 
-6.801559824506e-06 -1.913751857502e-01 0.0 
-1.005522844575e-05 -1.900653663960e-01 0.0 
6.468070529980e-06 -5.485398334113e-02 0.0 
8.283688840470e-06 -1.336246842926e-01 0.0 
-1.177734762002e-06 -3.879354614800e-02 0.0 
-2.877411719954e-06 -7.536302210833e-02 0.0 
-6.054178778382e-06 -5.011835893322e-02 0.0 
1.499058743204e-06 -6.512207560860e-02 0.0 
-8.380706878703e-06 -1.193543804568e-01 0.0 
-4.054642829365e-06 -1.730362388894e-01 0.0 
-4.540559924210e-06 -1.726372084215e-01 0.0 
-6.146132433051e-06 -9.147740554299e-02 0.0 
-5.615592450214e-06 -5.815823875602e-02 0.0 
1.431398193208e-05 -1.394869931359e-01 0.0 
-1.970831992074e-06 -1.342450135413e-01 0.0 
-4.111542184073e-06 -1.247220290781e-01 0.0 
-9.333479236989e-06 -1.207194147582e-01 0.0 
-1.317066006639e-05 -1.893119893045e-01 0.0 
-3.796385503710e-06 -1.761785879040e-01 0.0 
-1.965301731243e-06 -2.546281720940e-02 0.0 
4.326736700556e-06 -1.079715113813e-01 0.0 
1.408360358744e-06 -1.834596987804e-02 0.0 
9.234666425238e-07 -3.975245042061e-02 0.0 
3.107637614548e-06 -8.801885581148e-02 0.0 
7.028069206759e-06 -3.994082827863e-02 0.0 
-1.439693028255e-06 -1.544296106604e-01 0.0 
8.881707606201e-06 -1.624075604787e-01 0.0 
-1.089743126982e-05 -3.682107854384e-02 0.0 
4.631280783648e-06 -1.933318714363e-01 0.0 
-8.650989053686e-07 -1.784567668440e-01 0.0 
2.144180869893e-06 -5.024894120228e-03 0.0 
7.894434658620e-07 -1.898975251571e-01 0.0 
-2.107547832061e-06 -1.310514831696e-01 0.0 
-1.271494424844e-06 -4.030832295258e-02 0.0 
6.752456745050e-06 -1.924519018770e-01 0.0 
2.138435913097e-05 -1.936804601463e-01 0.0 
3.452522710380e-06 -1.016749084745e-02 0.0 
9.997880423836e-06 -1.402541138350e-01 0.0 
-6.581906787516e-06 -2.759534917750e-02 0.0 
5.886153141412e-06 -3.550509015928e-02 0.0 
1.238513536723e-06 -1.403453788340e-01 0.0 
-4.936169661999e-06 -1.937392543123e-01 0.0 
1.745491756800e-05 -2.143835162536e-02 0.0 
-8.652594006755e-06 -1.891123365872e-01 0.0 
-5.267036970627e-06 -3.542261828528e-02 0.0 
9.492892259331e-08 -4.832104145444e-03 0.0 
2.496011176714e-07 -3.712618176820e-02 0.0 
-1.826944110225e-05 -1.858398813021e-01 0.0 
2.100694459091e-05 -1.241084269219e-01 0.0 
-2.053988802515e-07 -1.548548349242e-01 0.0 
-3.657180161187e-06 -7.353694555077e-02 0.0 
2.464246874826e-06 -9.437666893150e-03 0.0 
2.320631084116e-06 -7.718597707051e-02 0.0 
7.465648547405e-07 -9.755056077856e-03 0.0 
-3.027997979956e-06 -1.919604517018e-01 0.0 
2.660900779308e-06 -2.319974441379e-02 0.0 
-1.444681663618e-05 -1.838682354589e-01 0.0 
2.062071373027e-05 -1.897558068062e-01 0.0 
4.154944813533e-06 -2.518292828654e-02 0.0 
7.069818415021e-06 -2.512331004588e-02 0.0 
2.909703114422e-06 -1.985972904203e-02 0.0 
-4.760107767371e-06 -1.328235684858e-01 0.0 
3.189848691302e-05 -1.203486878012e-01 0.0 
-6.501429536514e-06 -1.852741699241e-01 0.0 
-1.925215657084e-06 -2.445278785090e-02 0.0 
-5.201898469021e-06 -1.659418560846e-01 0.0 
-7.674816794979e-06 -1.905241521337e-01 0.0 
-4.044344296242e-06 -6.594706412957e-02 0.0 
-8.899117959175e-06 -1.432705796524e-01 0.0 
3.384492481105e-06 -3.396459574966e-02 0.0 
1.394161590406e-06 -1.096404104139e-02 0.0 
1.394161590406e-06 -4.652181047052e-03 0.0 
-7.832488403319e-06 -1.942544569668e-01 0.0 
-1.969169878123e-06 -1.941002414202e-01 0.0 
8.751790751580e-07 -1.398645569056e-01 0.0 
-4.984370865612e-06 -1.432667446694e-01 0.0 
-2.002387139134e-06 -4.650816180449e-03 0.0 
-2.002387139134e-06 -1.096153565329e-02 0.0 
-6.761083010169e-06 -1.937239018938e-01 0.0 
1.696615536128e-05 -1.941573697295e-01 0.0 
-7.451648307061e-06 -3.594612412702e-02 0.0 
-9.215436188474e-06 -4.135501094103e-02 0.0 
-7.032936407335e-06 -1.877520056779e-01 0.0 
-6.511853972064e-06 -3.331080462769e-02 0.0 
-3.168925044078e-06 -1.130175649303e-01 0.0 
7.593659023668e-06 -1.353118480750e-01 0.0 
5.071561770914e-07 -1.030471378090e-01 0.0 
-9.287637347716e-06 -1.882088214627e-01 0.0 
-1.594851096577e-06 -8.820871438948e-02 0.0 
-4.581990640416e-07 -1.902737871568e-01 0.0 
6.437250199906e-06 -1.447415249828e-01 0.0 
-1.090907652221e-06 -3.320455835915e-02 0.0 
3.951434547681e-07 -4.585775292341e-02 0.0 
6.894932201870e-06 -1.340046830022e-01 0.0 
-1.679355214826e-06 -1.156622515223e-01 0.0 
-3.628379012627e-06 -3.935173688716e-02 0.0 
-3.301262402211e-06 -5.854200311681e-02 0.0 
3.911213327698e-07 -7.380149961280e-02 0.0 
-6.850435909237e-07 -1.399854428691e-01 0.0 
-8.437053919232e-07 -9.566516668175e-02 0.0 
-2.803799072944e-06 -3.563292774502e-02 0.0 
-9.945605244442e-07 -1.776558127178e-01 0.0 
-3.120338053723e-06 -1.936500644572e-01 0.0 
-3.117706392790e-06 -4.737705937632e-02 0.0 
-1.259402415947e-06 -6.276048442037e-02 0.0 
-1.024428133774e-05 -1.897131205900e-01 0.0 
-3.817875114675e-06 -9.294786692549e-02 0.0 
4.675202233885e-06 -2.182516921796e-02 0.0 
-9.160579929888e-06 -4.836268648841e-02 0.0 
-2.837078663973e-06 -3.987658013245e-02 0.0 
-1.141553055513e-06 -1.002957015641e-01 0.0 
-2.367446323899e-05 -1.933944682276e-01 0.0 
7.100337948285e-06 -1.848199763775e-01 0.0 
-1.577649739910e-06 -1.803501592571e-01 0.0 
1.915085465348e-05 -1.206780534980e-01 0.0 
-6.974980254574e-07 -9.529596347097e-02 0.0 
7.007763251362e-07 -3.427151864475e-02 0.0 
6.289861110985e-07 -2.191071922080e-02 0.0 
-2.646047809066e-06 -1.923724398932e-01 0.0 
-1.459614978993e-07 -1.924957518287e-01 0.0 
-3.815937264440e-06 -1.883985332831e-01 0.0 
3.635659175012e-06 -8.654177497021e-02 0.0 
4.139903204980e-07 -1.702618726439e-01 0.0 
4.156486437154e-06 -3.301928845970e-02 0.0 
1.225181781138e-05 -1.882024954538e-01 0.0 
1.288815521781e-05 -3.831003080146e-02 0.0 
-7.827991083793e-06 -1.229559694821e-01 0.0 
6.918445220921e-07 -2.066628609300e-02 0.0 
-7.174387243302e-06 -6.570937290664e-02 0.0 
2.521935734801e-05 -1.207968766659e-01 0.0 
3.400317462536e-06 -2.551308819345e-02 0.0 
8.539117049263e-07 -2.454207461110e-02 0.0 
1.355183715617e-05 -2.492692982960e-02 0.0 
-9.172363398713e-06 -1.913019942802e-01 0.0 
9.581951392105e-06 -3.905500420765e-02 0.0 
-1.545076360186e-07 -2.072385719639e-02 0.0 
1.310955958614e-05 -4.075204082412e-02 0.0 
-8.624507549614e-06 -5.797345046553e-02 0.0 
-4.446786001250e-06 -4.950584758739e-03 0.0 
1.803725679666e-06 -7.319694136754e-02 0.0 
-9.782518221080e-06 -1.941240949906e-01 0.0 
-1.188339125166e-05 -1.891785678624e-01 0.0 
-1.039591347504e-06 -4.963949586961e-02 0.0 
9.011371404384e-07 -1.131030897114e-01 0.0 
-3.081729402304e-06 -3.808308980410e-02 0.0 
-9.048239582426e-06 -4.961567670378e-02 0.0 
-7.638457719217e-06 -1.919099122976e-02 0.0 
5.442892414363e-06 -7.171277505252e-02 0.0 
-5.512324383043e-07 -2.010256018572e-02 0.0 
-3.969776618901e-06 -3.512552612569e-02 0.0 
-1.940520670548e-06 -3.466679954208e-02 0.0 
-8.936795603324e-06 -1.686966250563e-01 0.0 
1.952143960978e-06 -9.823713377706e-03 0.0 
1.532548103020e-05 -1.344807833614e-01 0.0 
1.564190734422e-06 -3.928129168279e-02 0.0 
1.167365246839e-06 -1.918075203420e-01 0.0 
-5.196871412480e-06 -5.308786068876e-02 0.0 
-2.062391179441e-06 -9.228982808838e-02 0.0 
2.538027391971e-06 -1.922536906318e-01 0.0 
-1.745444904260e-05 -1.876023810820e-01 0.0 
-1.592026579399e-06 -6.654428195351e-02 0.0 
1.894614222269e-06 -2.109755180974e-02 0.0 
2.761504267738e-06 -3.758589615381e-02 0.0 
-8.866053931304e-06 -2.668311059546e-02 0.0 
-4.205801138474e-06 -1.145046383639e-01 0.0 
6.934837023042e-06 -1.936590895568e-01 0.0 
-1.400981216185e-05 -1.925549816856e-01 0.0 
1.340382911072e-05 -1.931825508575e-01 0.0 
1.022090136660e-05 -1.906805156214e-01 0.0 
-1.088369905803e-05 -1.941761666046e-01 0.0 
8.536290083291e-06 -1.482923121085e-01 0.0 
-8.734291108977e-06 -3.800002838458e-02 0.0 
2.976838966205e-06 -3.786672632813e-02 0.0 
2.834289330855e-05 -1.141983511908e-01 0.0 
5.019079832300e-06 -1.584727368402e-01 0.0 
-1.351016130460e-05 -3.833175778533e-02 0.0 
-8.003876847057e-06 -4.152855987278e-02 0.0 
-2.618278678597e-06 -2.466839630519e-02 0.0 
-2.238382381465e-06 -3.403276360758e-02 0.0 
-7.001338935870e-06 -5.106380661451e-02 0.0 
8.666840115256e-06 -1.919033574271e-01 0.0 
-2.795926881765e-06 -1.927728607305e-01 0.0 
-1.186163061096e-05 -3.766090932236e-02 0.0 
6.487733013726e-06 -1.918275605450e-01 0.0 
2.430519174345e-06 -1.912138772106e-01 0.0 
-1.502753345320e-05 -1.926630644405e-01 0.0 
8.130110015380e-06 -1.923873719722e-01 0.0 
3.683912637035e-06 -2.020866016401e-02 0.0 
-2.164319612269e-08 -1.977842854465e-02 0.0 
5.961776702035e-06 -3.417092999484e-02 0.0 
9.783889061266e-07 -1.909377504621e-02 0.0 
-1.174637356870e-05 -4.967010556269e-02 0.0 
9.211021893905e-07 -1.075855746501e-01 0.0 
1.946341277016e-06 -4.273888259712e-03 0.0 
-1.344642829678e-05 -1.840387956472e-01 0.0 
6.249366380768e-06 -1.434751795876e-01 0.0 
-8.110765662753e-06 -1.906583789589e-01 0.0 
1.517114106779e-05 -1.933141221468e-01 0.0 
5.695028680888e-06 -1.032274579313e-02 0.0 
1.635638763317e-05 -1.333725169899e-01 0.0 
1.491950404810e-05 -1.905444591391e-01 0.0 
5.098813402094e-06 -1.508216827155e-01 0.0 
1.897159829357e-06 -2.342873508764e-02 0.0 
-8.939856028565e-06 -3.635859159423e-02 0.0 
7.113777802042e-06 -1.991291402719e-02 0.0 
-7.703283628822e-06 -1.728301826840e-01 0.0 
-6.542442314931e-06 -1.924723006812e-01 0.0 
-3.467553076451e-06 -2.441958599336e-02 0.0 
7.966463836803e-06 -9.900451884223e-03 0.0 
-2.716532542110e-06 -1.034832896189e-02 0.0 
-1.399036600769e-07 -1.342786877852e-01 0.0 
1.009442313686e-06 -3.551339449921e-02 0.0 
8.909962007925e-06 -1.896401706364e-01 0.0 
7.421942484194e-06 -3.294181744839e-02 0.0 
1.664270703649e-05 -1.933997635995e-01 0.0 
1.412086592769e-06 -1.961764929790e-02 0.0 
2.974660603691e-06 -2.567012913141e-02 0.0 
-1.484656446604e-05 -1.933709593785e-01 0.0 
-1.359877767426e-05 -4.938239133085e-02 0.0 
2.316127765366e-06 -7.893990778953e-02 0.0 
-3.769135003832e-06 -1.989925279770e-02 0.0 
1.505862121438e-06 -3.943871624300e-03 0.0 
-4.160441761025e-06 -9.846160458781e-02 0.0 
-4.128201662971e-07 -1.911781083588e-02 0.0 
1.498706726270e-06 -3.429102474655e-02 0.0 
-2.597220998131e-06 -8.865774315871e-02 0.0 
1.526517143836e-06 -3.133109273907e-02 0.0 
-1.160315060433e-06 -1.623880541024e-01 0.0 
-7.531942702541e-06 -1.403644051422e-01 0.0 
-1.227069763438e-06 -3.356278063864e-02 0.0 
3.372777647081e-06 -2.077089405104e-02 0.0 
-1.273190975299e-05 -1.941386681507e-01 0.0 
-5.005539717110e-06 -1.404099886968e-01 0.0 
-1.095225039387e-06 -2.034221200697e-02 0.0 
-1.255533267111e-05 -1.874614853480e-01 0.0 
2.660573420758e-06 -4.035712297854e-02 0.0 
-1.011927397256e-06 -3.706157030147e-02 0.0 
3.414164966494e-06 -2.553630411205e-02 0.0 
4.792368673267e-06 -1.880930364884e-01 0.0 
-2.841077807125e-06 -1.913419633552e-01 0.0 
4.785765781840e-06 -1.299028575649e-01 0.0 
-1.483255719302e-06 -6.340328389411e-02 0.0 
1.151918622465e-05 -1.942630815306e-01 0.0 
-1.473498652282e-06 -1.920390206489e-02 0.0 
-1.407391493196e-06 -1.010342998707e-01 0.0 
-1.173962471302e-06 -1.883251136361e-01 0.0 
-3.720836981648e-06 -1.103137365149e-01 0.0 
3.455178060814e-06 -2.482369820027e-02 0.0 
2.103647725232e-06 -1.241867400782e-01 0.0 
-1.658292613493e-05 -1.938841760025e-01 0.0 
-3.753357439868e-06 -1.675841975708e-01 0.0 
6.668291414702e-06 -1.399157304420e-01 0.0 
-2.682118056609e-06 -1.183232082571e-01 0.0 
-1.237735993441e-05 -3.527118582415e-02 0.0 
1.456727438940e-05 -1.421065889460e-01 0.0 
6.053558095338e-06 -1.355583568144e-01 0.0 
4.171853503995e-06 -1.924723394474e-01 0.0 
-1.629493013526e-06 -3.318965319092e-02 0.0 
3.226097574648e-06 -4.727328117360e-02 0.0 
-1.107282805370e-05 -1.892624809500e-01 0.0 
9.945079893478e-06 -1.970730489387e-02 0.0 
-1.809370442363e-06 -1.972900531556e-02 0.0 
-1.610725115756e-07 -1.348233773038e-01 0.0 
2.061451537589e-06 -1.039246017029e-01 0.0 
1.644520368618e-05 -1.431113986324e-01 0.0 
1.143810745574e-05 -1.395475467319e-01 0.0 
8.540047139835e-06 -1.371043793883e-01 0.0 
1.093079365764e-05 -4.864999751812e-02 0.0 
-1.651106576979e-07 -1.898536341818e-01 0.0 
3.868879947145e-06 -3.916131629965e-02 0.0 
-5.728389727364e-06 -1.223602354623e-01 0.0 
5.571333999372e-06 -2.469775326292e-02 0.0 
4.322360218720e-06 -4.857430776426e-02 0.0 
-6.658663291354e-06 -1.127536673313e-01 0.0 
-2.464692083472e-06 -4.353000540144e-02 0.0 
-8.696978193773e-06 -3.422254110161e-02 0.0 
-2.962103906523e-06 -2.520828029608e-02 0.0 
-2.369016624747e-05 -1.935598991366e-01 0.0 
-6.747958696131e-06 -4.413666804670e-02 0.0 
-2.633154378079e-06 -3.674736523781e-02 0.0 
6.798593082173e-06 -1.926436162819e-01 0.0 
1.377442752853e-05 -1.470303694681e-01 0.0 
-2.123744120454e-05 -1.937504654955e-01 0.0 
5.084515304475e-08 -3.577193899556e-02 0.0 
1.969452540588e-05 -1.939837122794e-01 0.0 
2.737938179115e-05 -1.941601456555e-01 0.0 
1.266718566223e-05 -1.939838991323e-01 0.0 
1.409419397198e-05 -1.941474625461e-01 0.0 
4.739946659189e-06 -1.939861637036e-01 0.0 
3.729872330765e-06 -1.941495647771e-01 0.0 
-1.542621636252e-06 -1.939900428259e-01 0.0 
-3.435797020178e-06 -1.941534193288e-01 0.0 
-6.467602699310e-06 -1.939944325183e-01 0.0 
-8.615204729227e-06 -1.941576789357e-01 0.0 
-1.039450667723e-05 -1.939988364411e-01 0.0 
-1.252354324929e-05 -1.941619284254e-01 0.0 
-1.357005425771e-05 -1.940030712268e-01 0.0 
-1.555345450519e-05 -1.941660032259e-01 0.0 
-1.614896006242e-05 -1.940070475293e-01 0.0 
-1.791837377501e-05 -1.941698027947e-01 0.0 
-1.822994429176e-05 -1.940106751863e-01 0.0 
-1.974219421284e-05 -1.941732174353e-01 0.0 
-1.988788569124e-05 -1.940138320319e-01 0.0 
-2.111732359069e-05 -1.941761090496e-01 0.0 
-2.120021721132e-05 -1.940163676462e-01 0.0 
-2.214335680397e-05 -1.941783240251e-01 0.0 
-2.226694727164e-05 -1.940181327038e-01 0.0 
-5.290046612482e-05 -1.941232941369e-01 0.0 
-2.294904243594e-05 -1.941797282302e-01 0.0 
-2.321794514008e-05 -1.940190188953e-01 0.0 
-2.369450987893e-05 -1.941802430741e-01 0.0 
-6.804047357144e-05 -1.942642821146e-01 0.0 
-2.420546836033e-05 -1.940189920113e-01 0.0 
-2.455678872391e-05 -1.941798707321e-01 0.0 
-4.516233467014e-05 -1.939949421190e-01 0.0 
-2.538421760034e-05 -1.940181013395e-01 0.0 
-2.571112718658e-05 -1.941786991229e-01 0.0 
-2.690081393323e-05 -1.940164996510e-01 0.0 
-2.730944368321e-05 -1.941769212870e-01 0.0 
-2.886018107553e-05 -1.940144121688e-01 0.0 
-2.945835242789e-05 -1.941747921175e-01 0.0 
-3.134232603910e-05 -1.940121810784e-01 0.0 
-3.219404361462e-05 -1.941726712898e-01 0.0 
-3.430689086899e-05 -1.940100788031e-01 0.0 
-2.838942438863e-05 -1.940818429564e-01 0.0 
-3.547089189502e-05 -1.941708354534e-01 0.0 
-3.778712054377e-05 -1.940086218032e-01 0.0 
-3.914245898707e-05 -1.941697334586e-01 0.0 
-4.141158766078e-05 -1.940076417891e-01 0.0 
-4.288013318157e-05 -1.941690265351e-01 0.0 
-4.643892621295e-05 -1.941687793555e-01 0.0 
-4.533264209944e-05 -1.940076076147e-01 0.0 
-4.947270509402e-05 -1.941666487375e-01 0.0 
-4.835414566473e-05 -1.940060501599e-01 0.0 
-5.326489090343e-05 -1.941646320919e-01 0.0 
-5.243364659858e-05 -1.940049411338e-01 0.0 
-5.705989203751e-05 -1.941590442832e-01 0.0 
-5.479362684277e-05 -1.939987797857e-01 0.0 
-6.425644713043e-05 -1.941574264827e-01 0.0 
-6.330518167977e-05 -1.941484186229e-01 0.0 
-6.260572851304e-05 -1.939998057603e-01 0.0 
-5.734267819779e-05 -1.939865939947e-01 0.0 
-4.352943183526e-05 -1.942228309341e-01 0.0 
1.044255190762e-05 -1.941156236274e-01 0.0 
2.786721562423e-05 -1.941109760766e-01 0.0 
2.639180660238e-05 -1.942818977699e-01 0.0 
1.191796092947e-05 -1.939447019341e-01 0.0 
-2.205517204435e-05 -1.942747723086e-01 0.0 
2.893292433666e-06 -1.933371303411e-01 0.0 
9.795963936465e-07 -1.928652339803e-01 0.0 
3.068633236931e-06 -1.933355693954e-01 0.0 
2.622915418770e-07 -1.928504283841e-01 0.0 
5.065966543844e-07 -1.933374592785e-01 0.0 
-1.793932284001e-06 -1.928521517705e-01 0.0 
-2.833076246214e-06 -1.933413342445e-01 0.0 
-4.455676002815e-06 -1.928560417239e-01 0.0 
-6.197027071984e-06 -1.933457634947e-01 0.0 
-7.279409982405e-06 -1.928604008804e-01 0.0 
-9.329287557733e-06 -1.933502274093e-01 0.0 
-1.003034641189e-05 -1.928647882893e-01 0.0 
-1.214207653981e-05 -1.933545401225e-01 0.0 
-1.258974043396e-05 -1.928690332283e-01 0.0 
-1.461322370909e-05 -1.933586086360e-01 0.0 
-1.490221769684e-05 -1.928730266857e-01 0.0 
-1.674952456693e-05 -1.933623379707e-01 0.0 
-1.694997184267e-05 -1.928766471381e-01 0.0 
-1.857608304591e-05 -1.933655989503e-01 0.0 
-1.874258816828e-05 -1.928797385250e-01 0.0 
-2.013728443424e-05 -1.933682302033e-01 0.0 
-2.031693262898e-05 -1.928821192123e-01 0.0 
-4.265554748545e-05 -1.931868746002e-01 0.0 
-2.150345587373e-05 -1.933700653339e-01 0.0 
-2.174515349796e-05 -1.928836210801e-01 0.0 
-2.277754760001e-05 -1.933709791150e-01 0.0 
-3.586766953060e-05 -1.928646358028e-01 0.0 
-2.313078705353e-05 -1.928841395388e-01 0.0 
-2.408214307500e-05 -1.933709282563e-01 0.0 
-2.459754872401e-05 -1.928836701649e-01 0.0 
-2.554830288577e-05 -1.933699645273e-01 0.0 
-2.625410093672e-05 -1.928823007570e-01 0.0 
-5.638151770093e-05 -1.936606048000e-01 0.0 
-2.727970239793e-05 -1.933682380973e-01 0.0 
-2.821482403529e-05 -1.928802479674e-01 0.0 
-2.938667296290e-05 -1.933660004029e-01 0.0 
-3.051819345989e-05 -1.928777709885e-01 0.0 
-3.187567518373e-05 -1.933635717153e-01 0.0 
-3.326476655064e-05 -1.928753259659e-01 0.0 
-3.484426466039e-05 -1.933613428422e-01 0.0 
-3.631653230999e-05 -1.928730553970e-01 0.0 
-3.809538716735e-05 -1.933595777076e-01 0.0 
-4.001513985863e-05 -1.928718404715e-01 0.0 
-4.197600190876e-05 -1.933587928976e-01 0.0 
-4.366066350354e-05 -1.928707782294e-01 0.0 
-2.736734899331e-05 -1.929872169261e-01 0.0 
-4.824923631433e-05 -1.928718043019e-01 0.0 
-4.554875817342e-05 -1.933582082005e-01 0.0 
-5.073751780394e-05 -1.928686871436e-01 0.0 
-4.994833969212e-05 -1.933584745205e-01 0.0 
-5.578496502993e-05 -1.928696330680e-01 0.0 
-5.210426528110e-05 -1.933545551793e-01 0.0 
-5.153740473005e-05 -1.928591834928e-01 0.0 
-5.764308228674e-05 -1.933541667164e-01 0.0 
-5.423378576161e-05 -1.933445580392e-01 0.0 
-4.109331920878e-05 -1.934609471259e-01 0.0 
-6.076048790492e-06 -1.931431358267e-01 0.0 
-5.452618046101e-06 -1.931392389103e-01 0.0 
-6.928027067949e-06 -1.926628280309e-01 0.0 
-4.600639768644e-06 -1.936195467061e-01 0.0 
-2.391163269601e-05 -1.936334598166e-01 0.0 
-3.110818452124e-06 -1.907456614675e-01 0.0 
-2.726418609268e-06 -1.915708330073e-01 0.0 
-3.347510504844e-06 -1.907466237097e-01 0.0 
-2.447837196983e-06 -1.915558836714e-01 0.0 
-3.600729113759e-06 -1.907477761688e-01 0.0 
-3.191129313285e-06 -1.915570133736e-01 0.0 
-4.592723678001e-06 -1.907506036846e-01 0.0 
-4.818126405317e-06 -1.915604495609e-01 0.0 
-6.227119485454e-06 -1.907543008066e-01 0.0 
-6.947051993373e-06 -1.915645303553e-01 0.0 
-8.253274046937e-06 -1.907583461651e-01 0.0 
-9.286690890129e-06 -1.915687775702e-01 0.0 
-1.045360190680e-05 -1.907624761620e-01 0.0 
-1.164492132271e-05 -1.915729799869e-01 0.0 
-1.267096092223e-05 -1.907665256944e-01 0.0 
-1.390477402122e-05 -1.915769969855e-01 0.0 
-1.480526310610e-05 -1.907703453002e-01 0.0 
-1.600315405746e-05 -1.915806841677e-01 0.0 
-1.680068946021e-05 -1.907737634421e-01 0.0 
-1.791401236779e-05 -1.915838659872e-01 0.0 
-3.504370499310e-05 -1.912709945943e-01 0.0 
-1.863422604076e-05 -1.907765756639e-01 0.0 
-1.964245003599e-05 -1.915863372108e-01 0.0 
-2.031393671534e-05 -1.907785557505e-01 0.0 
-4.972455588018e-05 -1.920678848438e-01 0.0 
-2.123011693256e-05 -1.915878934982e-01 0.0 
-2.189820064927e-05 -1.907795300814e-01 0.0 
-2.832771278853e-05 -1.907655567623e-01 0.0 
-2.276647666819e-05 -1.915884180871e-01 0.0 
-2.348696721234e-05 -1.907794218737e-01 0.0 
-2.436668324670e-05 -1.915878852340e-01 0.0 
-2.520806316779e-05 -1.907783136152e-01 0.0 
-2.614472669605e-05 -1.915864347758e-01 0.0 
-2.712766469783e-05 -1.907763043794e-01 0.0 
-2.817216057585e-05 -1.915841802306e-01 0.0 
-2.936560190421e-05 -1.907737848357e-01 0.0 
-3.053978586063e-05 -1.915816231580e-01 0.0 
-1.984009740271e-05 -1.909106657350e-01 0.0 
-3.183588981941e-05 -1.907708671769e-01 0.0 
-3.320338878557e-05 -1.915787692579e-01 0.0 
-3.480323015144e-05 -1.907684674756e-01 0.0 
-3.633687556611e-05 -1.915767367383e-01 0.0 
-3.961542324716e-05 -1.915743149207e-01 0.0 
-3.771601381200e-05 -1.907657334981e-01 0.0 
-4.406988868166e-05 -1.915750369987e-01 0.0 
-4.198551047542e-05 -1.907655261162e-01 0.0 
-4.733981291495e-05 -1.915728178564e-01 0.0 
-4.504855995217e-05 -1.907634805244e-01 0.0 
-5.322603822862e-05 -1.915779438629e-01 0.0 
-4.724876625313e-05 -1.915685206331e-01 0.0 
-5.152743671743e-05 -1.907687447943e-01 0.0 
-4.605658692898e-05 -1.907626994637e-01 0.0 
-3.452094828979e-05 -1.917075559844e-01 0.0 
5.451450595533e-06 -1.911937262729e-01 0.0 
3.776785457049e-06 -1.911925888006e-01 0.0 
4.599472318076e-06 -1.920132458218e-01 0.0 
4.628763734506e-06 -1.903730692517e-01 0.0 
-1.796768090866e-05 -1.920189323971e-01 0.0 
-3.274834302775e-06 -1.888003192515e-01 0.0 
-3.870769873978e-06 -1.876825828473e-01 0.0 
-4.327845918902e-06 -1.888037157656e-01 0.0 
-4.467313040489e-06 -1.876705042431e-01 0.0 
-4.639869543208e-06 -1.888053046846e-01 0.0 
-4.900591325375e-06 -1.876717708294e-01 0.0 
-5.263045260642e-06 -1.888078326247e-01 0.0 
-5.689713395417e-06 -1.876744941067e-01 0.0 
-6.428384892913e-06 -1.888111164124e-01 0.0 
-6.946873766751e-06 -1.876778216446e-01 0.0 
-8.051830412857e-06 -1.888148218487e-01 0.0 
-8.603136391613e-06 -1.876815120372e-01 0.0 
-9.971491042368e-06 -1.888187349454e-01 0.0 
-1.051662933370e-05 -1.876853986456e-01 0.0 
-1.202477979765e-05 -1.888226855696e-01 0.0 
-1.254555153480e-05 -1.876893093925e-01 0.0 
-1.409222174425e-05 -1.888264978319e-01 0.0 
-1.458516337563e-05 -1.876930498985e-01 0.0 
-1.609574014022e-05 -1.888299766412e-01 0.0 
-2.977562377381e-05 -1.883995939299e-01 0.0 
-1.656644359569e-05 -1.876963959344e-01 0.0 
-1.799160658865e-05 -1.888328924120e-01 0.0 
-1.844266090150e-05 -1.876990878526e-01 0.0 
-2.264235096155e-05 -1.876960370619e-01 0.0 
-1.975676703296e-05 -1.888349896442e-01 0.0 
-2.017572182466e-05 -1.877008286101e-01 0.0 
-2.140097522375e-05 -1.888360312996e-01 0.0 
-2.183254209999e-05 -1.877014054395e-01 0.0 
-2.305025806966e-05 -1.888359080079e-01 0.0 
-4.407440434444e-05 -1.895193269209e-01 0.0 
-2.352973459761e-05 -1.877007316281e-01 0.0 
-2.480782366138e-05 -1.888346738751e-01 0.0 
-2.548026456320e-05 -1.876990257728e-01 0.0 
-2.686344207139e-05 -1.888325351164e-01 0.0 
-2.759290015919e-05 -1.876963251090e-01 0.0 
-2.905056411398e-05 -1.888296989770e-01 0.0 
-3.015167757644e-05 -1.876934336012e-01 0.0 
-3.176281932544e-05 -1.888267634787e-01 0.0 
-3.254273928185e-05 -1.876898528130e-01 0.0 
-3.421565114168e-05 -1.888236547288e-01 0.0 
-3.581934971965e-05 -1.876880753706e-01 0.0 
-1.369919401987e-05 -1.878760906960e-01 0.0 
-3.760836889772e-05 -1.876835885703e-01 0.0 
-3.778606697530e-05 -1.888218848773e-01 0.0 
-4.290290834841e-05 -1.876871080538e-01 0.0 
-3.990840296268e-05 -1.888186483866e-01 0.0 
-3.863575719564e-05 -1.876817956637e-01 0.0 
-4.595868713166e-05 -1.888224293090e-01 0.0 
-4.191325381863e-05 -1.888187738169e-01 0.0 
-2.799797459050e-05 -1.889958236870e-01 0.0 
-6.471925948623e-06 -1.882743557201e-01 0.0 
-8.310606937759e-06 -1.882743203081e-01 0.0 
-7.487920076732e-06 -1.871485330529e-01 0.0 
-7.294612809650e-06 -1.894001429753e-01 0.0 
-1.105910371044e-05 -1.894362323590e-01 0.0 
-3.043055845130e-06 -1.836166742786e-01 0.0 
-3.762607288728e-06 -1.850914870282e-01 0.0 
-4.358200688368e-06 -1.836221878322e-01 0.0 
-4.605830395205e-06 -1.850800721288e-01 0.0 
-4.929160223416e-06 -1.836244700703e-01 0.0 
-5.051364650867e-06 -1.850813683295e-01 0.0 
-5.381787053723e-06 -1.836267522296e-01 0.0 
-5.657681863005e-06 -1.850838162116e-01 0.0 
-6.126458026730e-06 -1.836294192675e-01 0.0 
-6.676978432980e-06 -1.850868023948e-01 0.0 
-7.310848667521e-06 -1.836325112462e-01 0.0 
-8.132049980048e-06 -1.850902206846e-01 0.0 
-8.898690297752e-06 -1.836360100347e-01 0.0 
-9.914915000647e-06 -1.850939650875e-01 0.0 
-1.073813739354e-05 -1.836397776315e-01 0.0 
-1.186062346373e-05 -1.850978350124e-01 0.0 
-1.268923863065e-05 -1.836435934606e-01 0.0 
-1.386710833309e-05 -1.851016199074e-01 0.0 
-2.044084292352e-05 -1.845259043574e-01 0.0 
-1.468288188952e-05 -1.836472198324e-01 0.0 
-1.587164038753e-05 -1.851050691167e-01 0.0 
-1.668128092931e-05 -1.836503940886e-01 0.0 
-3.483109910750e-05 -1.859702881953e-01 0.0 
-1.782713845032e-05 -1.851079163469e-01 0.0 
-1.353554147414e-05 -1.836411191366e-01 0.0 
-1.861166198910e-05 -1.836528415900e-01 0.0 
-1.964613923198e-05 -1.851098520616e-01 0.0 
-2.033413744464e-05 -1.836540762453e-01 0.0 
-2.129528691357e-05 -1.851104269337e-01 0.0 
-2.199986107682e-05 -1.836539191560e-01 0.0 
-2.301659279119e-05 -1.851097212820e-01 0.0 
-2.380116385075e-05 -1.836522035422e-01 0.0 
-2.498674655899e-05 -1.851075657859e-01 0.0 
-2.507014749765e-06 -1.838441286647e-01 0.0 
-2.618017046428e-05 -1.836498310890e-01 0.0 
-2.740314655629e-05 -1.851050810684e-01 0.0 
-2.845073254788e-05 -1.836460359547e-01 0.0 
-2.974159961323e-05 -1.851010146194e-01 0.0 
-3.274066454449e-05 -1.850989980543e-01 0.0 
-3.155066662488e-05 -1.836434897383e-01 0.0 
-3.432114752299e-05 -1.850937435362e-01 0.0 
-3.291537420767e-05 -1.836384681356e-01 0.0 
-3.824325474635e-05 -1.850961540743e-01 0.0 
-3.228687276046e-05 -1.850879120615e-01 0.0 
-3.692275062728e-05 -1.836401185468e-01 0.0 
-2.992725322337e-05 -1.836320178983e-01 0.0 
-1.689727093375e-05 -1.852885125026e-01 0.0 
5.520964561412e-06 -1.843845641864e-01 0.0 
3.805899444672e-06 -1.843852167859e-01 0.0 
4.504970433304e-06 -1.858519786845e-01 0.0 
4.821893572781e-06 -1.829178022878e-01 0.0 
-1.431026164809e-06 -1.858772832160e-01 0.0 
-2.814936214407e-06 -1.803766068369e-01 0.0 
-3.361491937131e-06 -1.786123552414e-01 0.0 
-4.185204967494e-06 -1.803831234871e-01 0.0 
-4.295292086153e-06 -1.786025580770e-01 0.0 
-4.791617635238e-06 -1.803860203636e-01 0.0 
-4.714950337042e-06 -1.786045603712e-01 0.0 
-5.182915328075e-06 -1.803883939781e-01 0.0 
-5.116223111963e-06 -1.786068594978e-01 0.0 
-5.783871001336e-06 -1.803908208051e-01 0.0 
-5.811174000890e-06 -1.786092648929e-01 0.0 
-6.787631260825e-06 -1.803935722067e-01 0.0 
-6.962786424040e-06 -1.786120481927e-01 0.0 
-8.252644148440e-06 -1.803967765823e-01 0.0 
-8.525979201829e-06 -1.786154017846e-01 0.0 
-9.995247744031e-06 -1.804004477810e-01 0.0 
-1.026278647793e-05 -1.786191838409e-01 0.0 
-1.183429129435e-05 -1.804042721396e-01 0.0 
-1.296114719882e-05 -1.797021679188e-01 0.0 
-1.209008646890e-05 -1.786230500027e-01 0.0 
-1.376080736163e-05 -1.804079712489e-01 0.0 
-9.412038587076e-06 -1.786217918081e-01 0.0 
-1.409300477474e-05 -1.786266595961e-01 0.0 
-1.582471984441e-05 -1.804112331516e-01 0.0 
-1.628863686557e-05 -1.786297796908e-01 0.0 
-1.792972148925e-05 -1.804138658709e-01 0.0 
-1.843951261401e-05 -1.786322665765e-01 0.0 
-2.613409589781e-05 -1.814705890507e-01 0.0 
-1.980945132652e-05 -1.804154664793e-01 0.0 
-2.009219168570e-05 -1.786331457292e-01 0.0 
-2.132145196707e-05 -1.804152477176e-01 0.0 
-2.192234943403e-05 -1.786322089066e-01 0.0 
-2.338532960334e-05 -1.804133626052e-01 0.0 
-2.402918635180e-05 -1.786288959669e-01 0.0 
-2.563844450451e-05 -1.804100022070e-01 0.0 
-2.772070693487e-05 -1.786262235169e-01 0.0 
-2.931001888623e-05 -1.804070072851e-01 0.0 
-2.994736144746e-05 -1.786203296032e-01 0.0 
6.942462341213e-06 -1.788544285213e-01 0.0 
-3.439894051927e-05 -1.786209384862e-01 0.0 
-3.089714212076e-05 -1.804018333917e-01 0.0 
-2.862886129589e-05 -1.786123706142e-01 0.0 
-3.522717468658e-05 -1.804020649140e-01 0.0 
-2.891866392127e-05 -1.803951488463e-01 0.0 
-6.230486357787e-06 -1.806228496532e-01 0.0 
-6.347500850121e-06 -1.795241929967e-01 0.0 
-7.834446336137e-06 -1.795251017738e-01 0.0 
-7.135375347506e-06 -1.777515400532e-01 0.0 
-7.046571838752e-06 -1.812977547173e-01 0.0 
8.727687602989e-06 -1.813374855759e-01 0.0 
-2.652492774879e-06 -1.726026968855e-01 0.0 
-3.284772931730e-06 -1.747258157740e-01 0.0 
-3.998142777995e-06 -1.726106040169e-01 0.0 
-4.184948902055e-06 -1.747165780742e-01 0.0 
-4.376059869101e-06 -1.726141258019e-01 0.0 
-4.409735755002e-06 -1.747186458124e-01 0.0 
-4.407114138829e-06 -1.726163468974e-01 0.0 
-4.645636504756e-06 -1.747207269759e-01 0.0 
-4.592956977847e-06 -1.726182094263e-01 0.0 
-5.090846584607e-06 -1.747227860359e-01 0.0 
-5.108696994560e-06 -1.726201776262e-01 0.0 
-6.004179574058e-06 -1.747251324691e-01 0.0 
-6.229933191564e-06 -1.726228488631e-01 0.0 
-7.461875094935e-06 -1.747283897891e-01 0.0 
-7.781525741838e-06 -1.726265644858e-01 0.0 
-9.113168582627e-06 -1.747323125413e-01 0.0 
-1.432513523196e-05 -1.738872322218e-01 0.0 
-9.274403751294e-06 -1.726305767072e-01 0.0 
-1.067981682114e-05 -1.747362258700e-01 0.0 
-2.764601221520e-05 -1.759802519183e-01 0.0 
-1.093043477101e-05 -1.726342672643e-01 0.0 
-1.267290183188e-05 -1.747397797444e-01 0.0 
-8.804101401628e-06 -1.726299938831e-01 0.0 
-1.324008047007e-05 -1.726375511652e-01 0.0 
-1.512410043409e-05 -1.747429775562e-01 0.0 
-1.592311187191e-05 -1.726406965984e-01 0.0 
-1.759743942815e-05 -1.747458994386e-01 0.0 
-1.847991032994e-05 -1.726437006465e-01 0.0 
-1.960472387497e-05 -1.747477470343e-01 0.0 
9.392097017124e-07 -1.728805391746e-01 0.0 
-1.992943581694e-05 -1.726431491022e-01 0.0 
-2.101780109463e-05 -1.747455089862e-01 0.0 
-2.247802302495e-05 -1.726407167142e-01 0.0 
-2.402642811281e-05 -1.747429499963e-01 0.0 
-2.720855439591e-05 -1.747359631207e-01 0.0 
-2.512353372656e-05 -1.726337958402e-01 0.0 
-3.308032190345e-05 -1.747373621167e-01 0.0 
-3.193082680327e-05 -1.726337794024e-01 0.0 
-2.731850603578e-05 -1.747276565826e-01 0.0 
-2.694966809325e-05 -1.726255840016e-01 0.0 
-1.238166728153e-05 -1.749735588711e-01 0.0 
5.636557015155e-06 -1.736927946677e-01 0.0 
4.235335963264e-06 -1.736939077283e-01 0.0 
4.848682517769e-06 -1.758077164917e-01 0.0 
5.023210460650e-06 -1.715789859043e-01 0.0 
6.142108971973e-06 -1.758323205288e-01 0.0 
-2.813724647855e-06 -1.680674374684e-01 0.0 
-3.892247316674e-06 -1.656561048673e-01 0.0 
-4.444385289963e-06 -1.680761525272e-01 0.0 
-4.656883686910e-06 -1.656486418734e-01 0.0 
-4.401752141987e-06 -1.680806410908e-01 0.0 
-4.396584724194e-06 -1.656513844745e-01 0.0 
-4.368270835135e-06 -1.680825702706e-01 0.0 
-4.120158809925e-06 -1.656530302983e-01 0.0 
-4.106322586709e-06 -1.680842893755e-01 0.0 
-3.706719976350e-06 -1.656544999523e-01 0.0 
-4.211204777441e-06 -1.680858115933e-01 0.0 
-3.688308068679e-06 -1.656557860335e-01 0.0 
-4.811553903304e-06 -1.680878684604e-01 0.0 
-4.694222728788e-06 -1.656582684341e-01 0.0 
-6.432252663950e-06 -1.680914235336e-01 0.0 
-1.387162345429e-05 -1.671307964227e-01 0.0 
-5.763522403781e-06 -1.656628492467e-01 0.0 
-7.578749854804e-06 -1.656684503002e-01 0.0 
-7.274030650335e-06 -1.680962543648e-01 0.0 
-6.325344942334e-06 -1.656672762293e-01 0.0 
-8.576335993164e-06 -1.680996399660e-01 0.0 
-8.295077180884e-06 -1.656700453247e-01 0.0 
-1.121635459692e-05 -1.681024440438e-01 0.0 
-1.134974957906e-05 -1.656729962433e-01 0.0 
-2.679206661929e-05 -1.695493708623e-01 0.0 
-1.417248689003e-05 -1.681058224070e-01 0.0 
-1.453688094691e-05 -1.656767412391e-01 0.0 
-1.716997683058e-05 -1.681094166384e-01 0.0 
-1.820269760346e-05 -1.656813593652e-01 0.0 
-1.983734304479e-05 -1.681110454412e-01 0.0 
-1.910162532207e-05 -1.656775504499e-01 0.0 
-2.065394002454e-05 -1.681048618389e-01 0.0 
-2.462864555793e-05 -1.656739024853e-01 0.0 
-2.272937470150e-05 -1.656606637147e-01 0.0 
-2.754983417208e-05 -1.681006032045e-01 0.0 
7.063055332669e-07 -1.659596059423e-01 0.0 
-2.502534666334e-05 -1.680916726321e-01 0.0 
-1.221413763173e-05 -1.683781803819e-01 0.0 
-6.325806894028e-06 -1.668903603838e-01 0.0 
-7.888259818894e-06 -1.668911641937e-01 0.0 
-7.274913264390e-06 -1.644700227908e-01 0.0 
-6.939153448532e-06 -1.693115017867e-01 0.0 
6.142665528453e-06 -1.693567308216e-01 0.0 
-4.162385928101e-06 -1.577010949538e-01 0.0 
-5.841338637371e-06 -1.604743670145e-01 0.0 
-7.363641004472e-06 -1.577144106443e-01 0.0 
-5.627048080721e-06 -1.604686378433e-01 0.0 
-5.629530917790e-06 -1.577191622779e-01 0.0 
-4.654199106186e-06 -1.604699096917e-01 0.0 
-5.053729996897e-06 -1.577204078688e-01 0.0 
-4.548003589696e-06 -1.604723426792e-01 0.0 
-3.640856384843e-06 -1.577219195157e-01 0.0 
-2.813408994713e-06 -1.604728177115e-01 0.0 
-1.995435665417e-06 -1.577222458794e-01 0.0 
-2.365849938292e-06 -1.604739025603e-01 0.0 
-8.329293295461e-07 -1.577221949099e-01 0.0 
-9.424277252546e-06 -1.593644811539e-01 0.0 
-2.038056285416e-06 -1.604744783567e-01 0.0 
-1.099912015731e-06 -1.577266609407e-01 0.0 
-2.234072907605e-05 -1.621063007100e-01 0.0 
-3.087348198934e-06 -1.604818767311e-01 0.0 
-1.075200736200e-06 -1.577336789754e-01 0.0 
-2.697804693942e-06 -1.577330423549e-01 0.0 
-2.802689233047e-06 -1.604856733554e-01 0.0 
-1.639942915378e-06 -1.577346983339e-01 0.0 
-4.881339812384e-06 -1.604867065664e-01 0.0 
-4.778309313185e-06 -1.577363701307e-01 0.0 
-8.325441663825e-06 -1.604902610884e-01 0.0 
4.148958596969e-06 -1.580325707577e-01 0.0 
-7.827185382003e-06 -1.577408224928e-01 0.0 
-1.121588735412e-05 -1.604944764798e-01 0.0 
-1.544366330424e-05 -1.604988428704e-01 0.0 
-1.108994893857e-05 -1.577446353842e-01 0.0 
-2.067920322529e-05 -1.605028879709e-01 0.0 
-1.865588664879e-05 -1.577538664674e-01 0.0 
-1.799404787656e-05 -1.604831377394e-01 0.0 
-1.559692024639e-05 -1.577394346140e-01 0.0 
-8.767493226534e-06 -1.607743903139e-01 0.0 
6.363710407546e-06 -1.591187312889e-01 0.0 
5.401687523132e-06 -1.591151105711e-01 0.0 
5.414604037184e-06 -1.618785738300e-01 0.0 
6.350793893494e-06 -1.563552680300e-01 0.0 
8.290457956549e-06 -1.619055309865e-01 0.0 
-9.072829498509e-06 -1.518611236720e-01 0.0 
-1.143826436839e-05 -1.488073306415e-01 0.0 
-8.050123165080e-06 -1.518873455530e-01 0.0 
-8.066668963117e-06 -1.488148682411e-01 0.0 
-7.382669639578e-06 -1.518924577669e-01 0.0 
-8.818614011997e-06 -1.488123305704e-01 0.0 
-7.465006180920e-06 -1.518895332585e-01 0.0 
-7.554541863830e-06 -1.488149441717e-01 0.0 
-4.236118474953e-06 -1.518953956184e-01 0.0 
-3.212921632465e-06 -1.488161412832e-01 0.0 
-1.799686213058e-06 -1.518920933484e-01 0.0 
-1.796582803919e-06 -1.488147088812e-01 0.0 
-1.108170420981e-05 -1.506836779207e-01 0.0 
-4.594116475315e-07 -1.518931537617e-01 0.0 
3.008297047314e-06 -1.488463602519e-01 0.0 
5.152452274912e-06 -1.488137388757e-01 0.0 
5.717078862583e-06 -1.518949626079e-01 0.0 
8.703324250632e-06 -1.488230657056e-01 0.0 
3.898480835051e-06 -1.519065662827e-01 0.0 
5.567696681478e-06 -1.488278318784e-01 0.0 
1.756761427897e-06 -1.519039695496e-01 0.0 
3.045057566613e-06 -1.488236647515e-01 0.0 
-1.849444962358e-05 -1.537485189052e-01 0.0 
-2.486162774619e-07 -1.519040571001e-01 0.0 
1.971408782368e-06 -1.488286819435e-01 0.0 
-2.060027971534e-06 -1.519115563784e-01 0.0 
3.073038371550e-06 -1.488360929902e-01 0.0 
5.158930299877e-06 -1.488371398450e-01 0.0 
-2.568180623371e-06 -1.519155180089e-01 0.0 
-6.575061359871e-06 -1.519212808173e-01 0.0 
-8.541530532449e-07 -1.491801644119e-01 0.0 
-8.266898467024e-06 -1.522450053964e-01 0.0 
-5.308916389848e-06 -1.503850836349e-01 0.0 
-1.118138284467e-05 -1.503612973547e-01 0.0 
-1.116846633062e-05 -1.473049548942e-01 0.0 
-5.321832903901e-06 -1.534414260954e-01 0.0 
9.926874092785e-06 -1.534858257207e-01 0.0 

VECTORS element_materi_displacement float
0.0 0.0 0.0 
0.0 0.0 0.0 
0.0 0.0 0.0 
0.0 0.0 0.0 
0.0 0.0 0.0 
0.0 0.0 0.0 
0.0 0.0 0.0 
0.0 0.0 0.0 
0.0 0.0 0.0 
0.0 0.0 0.0 
0.0 0.0 0.0 
0.0 0.0 0.0 
0.0 0.0 0.0 
0.0 0.0 0.0 
0.0 0.0 0.0 
0.0 0.0 0.0 
0.0 0.0 0.0 
0.0 0.0 0.0 
0.0 0.0 0.0 
0.0 0.0 0.0 
0.0 0.0 0.0 
0.0 0.0 0.0 
0.0 0.0 0.0 
0.0 0.0 0.0 
0.0 0.0 0.0 
0.0 0.0 0.0 
0.0 0.0 0.0 
0.0 0.0 0.0 
0.0 0.0 0.0 
0.0 0.0 0.0 
0.0 0.0 0.0 
0.0 0.0 0.0 
0.0 0.0 0.0 
0.0 0.0 0.0 
0.0 0.0 0.0 
0.0 0.0 0.0 
0.0 0.0 0.0 
0.0 0.0 0.0 
0.0 0.0 0.0 
0.0 0.0 0.0 
0.0 0.0 0.0 
0.0 0.0 0.0 
0.0 0.0 0.0 
0.0 0.0 0.0 
0.0 0.0 0.0 
0.0 0.0 0.0 
0.0 0.0 0.0 
0.0 0.0 0.0 
0.0 0.0 0.0 
0.0 0.0 0.0 
0.0 0.0 0.0 
0.0 0.0 0.0 
0.0 0.0 0.0 
0.0 0.0 0.0 
0.0 0.0 0.0 
0.0 0.0 0.0 
0.0 0.0 0.0 
0.0 0.0 0.0 
0.0 0.0 0.0 
0.0 0.0 0.0 
0.0 0.0 0.0 
0.0 0.0 0.0 
0.0 0.0 0.0 
0.0 0.0 0.0 
0.0 0.0 0.0 
0.0 0.0 0.0 
0.0 0.0 0.0 
0.0 0.0 0.0 
0.0 0.0 0.0 
0.0 0.0 0.0 
0.0 0.0 0.0 
0.0 0.0 0.0 
0.0 0.0 0.0 
0.0 0.0 0.0 
0.0 0.0 0.0 
0.0 0.0 0.0 
0.0 0.0 0.0 
0.0 0.0 0.0 
0.0 0.0 0.0 
0.0 0.0 0.0 
0.0 0.0 0.0 
0.0 0.0 0.0 
0.0 0.0 0.0 
0.0 0.0 0.0 
0.0 0.0 0.0 
0.0 0.0 0.0 
0.0 0.0 0.0 
0.0 0.0 0.0 
0.0 0.0 0.0 
0.0 0.0 0.0 
0.0 0.0 0.0 
0.0 0.0 0.0 
0.0 0.0 0.0 
0.0 0.0 0.0 
0.0 0.0 0.0 
0.0 0.0 0.0 
0.0 0.0 0.0 
0.0 0.0 0.0 
0.0 0.0 0.0 
0.0 0.0 0.0 
0.0 0.0 0.0 
0.0 0.0 0.0 
0.0 0.0 0.0 
0.0 0.0 0.0 
0.0 0.0 0.0 
0.0 0.0 0.0 
0.0 0.0 0.0 
0.0 0.0 0.0 
0.0 0.0 0.0 
0.0 0.0 0.0 
0.0 0.0 0.0 
0.0 0.0 0.0 
0.0 0.0 0.0 
0.0 0.0 0.0 
0.0 0.0 0.0 
0.0 0.0 0.0 
0.0 0.0 0.0 
0.0 0.0 0.0 
0.0 0.0 0.0 
0.0 0.0 0.0 
0.0 0.0 0.0 
0.0 0.0 0.0 
0.0 0.0 0.0 
0.0 0.0 0.0 
0.0 0.0 0.0 
0.0 0.0 0.0 
0.0 0.0 0.0 
0.0 0.0 0.0 
0.0 0.0 0.0 
0.0 0.0 0.0 
0.0 0.0 0.0 
0.0 0.0 0.0 
0.0 0.0 0.0 
0.0 0.0 0.0 
0.0 0.0 0.0 
0.0 0.0 0.0 
0.0 0.0 0.0 
0.0 0.0 0.0 
0.0 0.0 0.0 
0.0 0.0 0.0 
0.0 0.0 0.0 
0.0 0.0 0.0 
0.0 0.0 0.0 
0.0 0.0 0.0 
0.0 0.0 0.0 
0.0 0.0 0.0 
0.0 0.0 0.0 
0.0 0.0 0.0 
0.0 0.0 0.0 
0.0 0.0 0.0 
0.0 0.0 0.0 
0.0 0.0 0.0 
0.0 0.0 0.0 
0.0 0.0 0.0 
0.0 0.0 0.0 
0.0 0.0 0.0 
0.0 0.0 0.0 
0.0 0.0 0.0 
0.0 0.0 0.0 
0.0 0.0 0.0 
0.0 0.0 0.0 
0.0 0.0 0.0 
0.0 0.0 0.0 
0.0 0.0 0.0 
0.0 0.0 0.0 
0.0 0.0 0.0 
0.0 0.0 0.0 
0.0 0.0 0.0 
0.0 0.0 0.0 
0.0 0.0 0.0 
0.0 0.0 0.0 
0.0 0.0 0.0 
0.0 0.0 0.0 
0.0 0.0 0.0 
0.0 0.0 0.0 
0.0 0.0 0.0 
0.0 0.0 0.0 
0.0 0.0 0.0 
0.0 0.0 0.0 
0.0 0.0 0.0 
0.0 0.0 0.0 
0.0 0.0 0.0 
0.0 0.0 0.0 
0.0 0.0 0.0 
0.0 0.0 0.0 
0.0 0.0 0.0 
0.0 0.0 0.0 
0.0 0.0 0.0 
0.0 0.0 0.0 
0.0 0.0 0.0 
0.0 0.0 0.0 
0.0 0.0 0.0 
0.0 0.0 0.0 
0.0 0.0 0.0 
0.0 0.0 0.0 
0.0 0.0 0.0 
0.0 0.0 0.0 
0.0 0.0 0.0 
0.0 0.0 0.0 
0.0 0.0 0.0 
0.0 0.0 0.0 
0.0 0.0 0.0 
0.0 0.0 0.0 
0.0 0.0 0.0 
0.0 0.0 0.0 
0.0 0.0 0.0 
0.0 0.0 0.0 
0.0 0.0 0.0 
0.0 0.0 0.0 
0.0 0.0 0.0 
0.0 0.0 0.0 
0.0 0.0 0.0 
0.0 0.0 0.0 
0.0 0.0 0.0 
0.0 0.0 0.0 
0.0 0.0 0.0 
0.0 0.0 0.0 
0.0 0.0 0.0 
0.0 0.0 0.0 
0.0 0.0 0.0 
0.0 0.0 0.0 
0.0 0.0 0.0 
0.0 0.0 0.0 
0.0 0.0 0.0 
0.0 0.0 0.0 
0.0 0.0 0.0 
0.0 0.0 0.0 
0.0 0.0 0.0 
0.0 0.0 0.0 
0.0 0.0 0.0 
0.0 0.0 0.0 
0.0 0.0 0.0 
0.0 0.0 0.0 
0.0 0.0 0.0 
0.0 0.0 0.0 
0.0 0.0 0.0 
0.0 0.0 0.0 
0.0 0.0 0.0 
0.0 0.0 0.0 
0.0 0.0 0.0 
0.0 0.0 0.0 
0.0 0.0 0.0 
0.0 0.0 0.0 
0.0 0.0 0.0 
0.0 0.0 0.0 
0.0 0.0 0.0 
0.0 0.0 0.0 
0.0 0.0 0.0 
0.0 0.0 0.0 
0.0 0.0 0.0 
0.0 0.0 0.0 
0.0 0.0 0.0 
0.0 0.0 0.0 
0.0 0.0 0.0 
0.0 0.0 0.0 
0.0 0.0 0.0 
0.0 0.0 0.0 
0.0 0.0 0.0 
0.0 0.0 0.0 
0.0 0.0 0.0 
0.0 0.0 0.0 
0.0 0.0 0.0 
0.0 0.0 0.0 
0.0 0.0 0.0 
0.0 0.0 0.0 
0.0 0.0 0.0 
0.0 0.0 0.0 
0.0 0.0 0.0 
0.0 0.0 0.0 
0.0 0.0 0.0 
0.0 0.0 0.0 
0.0 0.0 0.0 
0.0 0.0 0.0 
0.0 0.0 0.0 
0.0 0.0 0.0 
0.0 0.0 0.0 
0.0 0.0 0.0 
0.0 0.0 0.0 
0.0 0.0 0.0 
0.0 0.0 0.0 
0.0 0.0 0.0 
0.0 0.0 0.0 
0.0 0.0 0.0 
0.0 0.0 0.0 
0.0 0.0 0.0 
0.0 0.0 0.0 
0.0 0.0 0.0 
0.0 0.0 0.0 
0.0 0.0 0.0 
0.0 0.0 0.0 
0.0 0.0 0.0 
0.0 0.0 0.0 
0.0 0.0 0.0 
0.0 0.0 0.0 
0.0 0.0 0.0 
0.0 0.0 0.0 
0.0 0.0 0.0 
0.0 0.0 0.0 
0.0 0.0 0.0 
0.0 0.0 0.0 
0.0 0.0 0.0 
0.0 0.0 0.0 
0.0 0.0 0.0 
0.0 0.0 0.0 
0.0 0.0 0.0 
0.0 0.0 0.0 
0.0 0.0 0.0 
0.0 0.0 0.0 
0.0 0.0 0.0 
0.0 0.0 0.0 
0.0 0.0 0.0 
0.0 0.0 0.0 
0.0 0.0 0.0 
0.0 0.0 0.0 
0.0 0.0 0.0 
0.0 0.0 0.0 
0.0 0.0 0.0 
0.0 0.0 0.0 
0.0 0.0 0.0 
0.0 0.0 0.0 
0.0 0.0 0.0 
0.0 0.0 0.0 
0.0 0.0 0.0 
0.0 0.0 0.0 
0.0 0.0 0.0 
0.0 0.0 0.0 
0.0 0.0 0.0 
0.0 0.0 0.0 
0.0 0.0 0.0 
0.0 0.0 0.0 
0.0 0.0 0.0 
0.0 0.0 0.0 
0.0 0.0 0.0 
0.0 0.0 0.0 
0.0 0.0 0.0 
0.0 0.0 0.0 
0.0 0.0 0.0 
0.0 0.0 0.0 
0.0 0.0 0.0 
0.0 0.0 0.0 
0.0 0.0 0.0 
0.0 0.0 0.0 
0.0 0.0 0.0 
0.0 0.0 0.0 
0.0 0.0 0.0 
0.0 0.0 0.0 
0.0 0.0 0.0 
0.0 0.0 0.0 
0.0 0.0 0.0 
0.0 0.0 0.0 
0.0 0.0 0.0 
0.0 0.0 0.0 
0.0 0.0 0.0 
0.0 0.0 0.0 
0.0 0.0 0.0 
0.0 0.0 0.0 
0.0 0.0 0.0 
0.0 0.0 0.0 
0.0 0.0 0.0 
0.0 0.0 0.0 
0.0 0.0 0.0 
0.0 0.0 0.0 
0.0 0.0 0.0 
0.0 0.0 0.0 
0.0 0.0 0.0 
0.0 0.0 0.0 
0.0 0.0 0.0 
0.0 0.0 0.0 
0.0 0.0 0.0 
0.0 0.0 0.0 
0.0 0.0 0.0 
0.0 0.0 0.0 
0.0 0.0 0.0 
0.0 0.0 0.0 
0.0 0.0 0.0 
0.0 0.0 0.0 
0.0 0.0 0.0 
0.0 0.0 0.0 
0.0 0.0 0.0 
0.0 0.0 0.0 
0.0 0.0 0.0 
0.0 0.0 0.0 
0.0 0.0 0.0 
0.0 0.0 0.0 
0.0 0.0 0.0 
0.0 0.0 0.0 
0.0 0.0 0.0 
0.0 0.0 0.0 
0.0 0.0 0.0 
0.0 0.0 0.0 
0.0 0.0 0.0 
0.0 0.0 0.0 
0.0 0.0 0.0 
0.0 0.0 0.0 
0.0 0.0 0.0 
0.0 0.0 0.0 
0.0 0.0 0.0 
0.0 0.0 0.0 
0.0 0.0 0.0 
0.0 0.0 0.0 
0.0 0.0 0.0 
0.0 0.0 0.0 
0.0 0.0 0.0 
0.0 0.0 0.0 
0.0 0.0 0.0 
0.0 0.0 0.0 
0.0 0.0 0.0 
0.0 0.0 0.0 
0.0 0.0 0.0 
0.0 0.0 0.0 
0.0 0.0 0.0 
0.0 0.0 0.0 
0.0 0.0 0.0 
0.0 0.0 0.0 
0.0 0.0 0.0 
0.0 0.0 0.0 
0.0 0.0 0.0 
0.0 0.0 0.0 
0.0 0.0 0.0 
0.0 0.0 0.0 
0.0 0.0 0.0 
0.0 0.0 0.0 
0.0 0.0 0.0 
0.0 0.0 0.0 
0.0 0.0 0.0 
0.0 0.0 0.0 
0.0 0.0 0.0 
0.0 0.0 0.0 
0.0 0.0 0.0 
0.0 0.0 0.0 
0.0 0.0 0.0 
0.0 0.0 0.0 
0.0 0.0 0.0 
0.0 0.0 0.0 
0.0 0.0 0.0 
0.0 0.0 0.0 
0.0 0.0 0.0 
0.0 0.0 0.0 
0.0 0.0 0.0 
0.0 0.0 0.0 
0.0 0.0 0.0 
0.0 0.0 0.0 
0.0 0.0 0.0 
0.0 0.0 0.0 
0.0 0.0 0.0 
0.0 0.0 0.0 
0.0 0.0 0.0 
0.0 0.0 0.0 
0.0 0.0 0.0 
0.0 0.0 0.0 
0.0 0.0 0.0 
0.0 0.0 0.0 
0.0 0.0 0.0 
0.0 0.0 0.0 
0.0 0.0 0.0 
0.0 0.0 0.0 
0.0 0.0 0.0 
0.0 0.0 0.0 
0.0 0.0 0.0 
0.0 0.0 0.0 
0.0 0.0 0.0 
0.0 0.0 0.0 
0.0 0.0 0.0 
0.0 0.0 0.0 
0.0 0.0 0.0 
0.0 0.0 0.0 
0.0 0.0 0.0 
0.0 0.0 0.0 
0.0 0.0 0.0 
0.0 0.0 0.0 
0.0 0.0 0.0 
0.0 0.0 0.0 
0.0 0.0 0.0 
0.0 0.0 0.0 
0.0 0.0 0.0 
0.0 0.0 0.0 
0.0 0.0 0.0 
0.0 0.0 0.0 
0.0 0.0 0.0 
0.0 0.0 0.0 
0.0 0.0 0.0 
0.0 0.0 0.0 
0.0 0.0 0.0 
0.0 0.0 0.0 
0.0 0.0 0.0 
0.0 0.0 0.0 
0.0 0.0 0.0 
0.0 0.0 0.0 
0.0 0.0 0.0 
0.0 0.0 0.0 
0.0 0.0 0.0 
0.0 0.0 0.0 
0.0 0.0 0.0 
0.0 0.0 0.0 
0.0 0.0 0.0 
0.0 0.0 0.0 
0.0 0.0 0.0 
0.0 0.0 0.0 
0.0 0.0 0.0 
0.0 0.0 0.0 
0.0 0.0 0.0 
0.0 0.0 0.0 
0.0 0.0 0.0 
0.0 0.0 0.0 
0.0 0.0 0.0 
0.0 0.0 0.0 
0.0 0.0 0.0 
0.0 0.0 0.0 
0.0 0.0 0.0 
0.0 0.0 0.0 
0.0 0.0 0.0 
0.0 0.0 0.0 
0.0 0.0 0.0 
0.0 0.0 0.0 
0.0 0.0 0.0 
0.0 0.0 0.0 
0.0 0.0 0.0 
0.0 0.0 0.0 
0.0 0.0 0.0 
0.0 0.0 0.0 
0.0 0.0 0.0 
0.0 0.0 0.0 
0.0 0.0 0.0 
0.0 0.0 0.0 
0.0 0.0 0.0 
0.0 0.0 0.0 
0.0 0.0 0.0 
0.0 0.0 0.0 
0.0 0.0 0.0 
0.0 0.0 0.0 
0.0 0.0 0.0 
0.0 0.0 0.0 
0.0 0.0 0.0 
0.0 0.0 0.0 
0.0 0.0 0.0 
0.0 0.0 0.0 
0.0 0.0 0.0 
0.0 0.0 0.0 
0.0 0.0 0.0 
0.0 0.0 0.0 
0.0 0.0 0.0 
0.0 0.0 0.0 
0.0 0.0 0.0 
0.0 0.0 0.0 
0.0 0.0 0.0 
0.0 0.0 0.0 
0.0 0.0 0.0 
0.0 0.0 0.0 
0.0 0.0 0.0 
0.0 0.0 0.0 
0.0 0.0 0.0 
0.0 0.0 0.0 
0.0 0.0 0.0 
0.0 0.0 0.0 
0.0 0.0 0.0 
0.0 0.0 0.0 
0.0 0.0 0.0 
0.0 0.0 0.0 
0.0 0.0 0.0 
0.0 0.0 0.0 
0.0 0.0 0.0 
0.0 0.0 0.0 
0.0 0.0 0.0 
0.0 0.0 0.0 
0.0 0.0 0.0 
0.0 0.0 0.0 
0.0 0.0 0.0 
0.0 0.0 0.0 
0.0 0.0 0.0 
0.0 0.0 0.0 
0.0 0.0 0.0 
0.0 0.0 0.0 
0.0 0.0 0.0 
0.0 0.0 0.0 
0.0 0.0 0.0 
0.0 0.0 0.0 
0.0 0.0 0.0 
0.0 0.0 0.0 
0.0 0.0 0.0 
0.0 0.0 0.0 
0.0 0.0 0.0 
0.0 0.0 0.0 
0.0 0.0 0.0 
0.0 0.0 0.0 
0.0 0.0 0.0 
0.0 0.0 0.0 
0.0 0.0 0.0 
0.0 0.0 0.0 
0.0 0.0 0.0 
0.0 0.0 0.0 
0.0 0.0 0.0 
0.0 0.0 0.0 
0.0 0.0 0.0 
0.0 0.0 0.0 
0.0 0.0 0.0 
0.0 0.0 0.0 
0.0 0.0 0.0 
0.0 0.0 0.0 
0.0 0.0 0.0 
0.0 0.0 0.0 
0.0 0.0 0.0 
0.0 0.0 0.0 
0.0 0.0 0.0 
0.0 0.0 0.0 
0.0 0.0 0.0 
0.0 0.0 0.0 
0.0 0.0 0.0 
0.0 0.0 0.0 
0.0 0.0 0.0 
0.0 0.0 0.0 
0.0 0.0 0.0 
0.0 0.0 0.0 
0.0 0.0 0.0 
0.0 0.0 0.0 
0.0 0.0 0.0 
0.0 0.0 0.0 
0.0 0.0 0.0 
0.0 0.0 0.0 
0.0 0.0 0.0 
0.0 0.0 0.0 
0.0 0.0 0.0 
0.0 0.0 0.0 
0.0 0.0 0.0 
0.0 0.0 0.0 
0.0 0.0 0.0 
0.0 0.0 0.0 
0.0 0.0 0.0 
0.0 0.0 0.0 
0.0 0.0 0.0 
0.0 0.0 0.0 
0.0 0.0 0.0 
0.0 0.0 0.0 
0.0 0.0 0.0 
0.0 0.0 0.0 
0.0 0.0 0.0 
0.0 0.0 0.0 
0.0 0.0 0.0 
0.0 0.0 0.0 
0.0 0.0 0.0 
0.0 0.0 0.0 
0.0 0.0 0.0 
0.0 0.0 0.0 
0.0 0.0 0.0 
0.0 0.0 0.0 
0.0 0.0 0.0 
0.0 0.0 0.0 
0.0 0.0 0.0 
0.0 0.0 0.0 
0.0 0.0 0.0 
0.0 0.0 0.0 
0.0 0.0 0.0 
0.0 0.0 0.0 
0.0 0.0 0.0 
0.0 0.0 0.0 
0.0 0.0 0.0 
0.0 0.0 0.0 
0.0 0.0 0.0 
0.0 0.0 0.0 
0.0 0.0 0.0 
0.0 0.0 0.0 
0.0 0.0 0.0 
0.0 0.0 0.0 
0.0 0.0 0.0 
0.0 0.0 0.0 
0.0 0.0 0.0 
0.0 0.0 0.0 
0.0 0.0 0.0 
0.0 0.0 0.0 
0.0 0.0 0.0 
0.0 0.0 0.0 
0.0 0.0 0.0 
0.0 0.0 0.0 
0.0 0.0 0.0 
0.0 0.0 0.0 
0.0 0.0 0.0 
0.0 0.0 0.0 
0.0 0.0 0.0 
0.0 0.0 0.0 
0.0 0.0 0.0 
0.0 0.0 0.0 
0.0 0.0 0.0 
0.0 0.0 0.0 
0.0 0.0 0.0 
0.0 0.0 0.0 
0.0 0.0 0.0 
0.0 0.0 0.0 
0.0 0.0 0.0 
0.0 0.0 0.0 
0.0 0.0 0.0 
0.0 0.0 0.0 
0.0 0.0 0.0 
0.0 0.0 0.0 
0.0 0.0 0.0 
0.0 0.0 0.0 
0.0 0.0 0.0 
0.0 0.0 0.0 
0.0 0.0 0.0 
0.0 0.0 0.0 
0.0 0.0 0.0 
0.0 0.0 0.0 
0.0 0.0 0.0 
0.0 0.0 0.0 
0.0 0.0 0.0 
0.0 0.0 0.0 
0.0 0.0 0.0 
0.0 0.0 0.0 
0.0 0.0 0.0 
0.0 0.0 0.0 
0.0 0.0 0.0 
0.0 0.0 0.0 
0.0 0.0 0.0 
0.0 0.0 0.0 
0.0 0.0 0.0 
0.0 0.0 0.0 
0.0 0.0 0.0 
0.0 0.0 0.0 
0.0 0.0 0.0 
0.0 0.0 0.0 
0.0 0.0 0.0 
0.0 0.0 0.0 
0.0 0.0 0.0 
0.0 0.0 0.0 
0.0 0.0 0.0 
0.0 0.0 0.0 
0.0 0.0 0.0 
0.0 0.0 0.0 
0.0 0.0 0.0 
0.0 0.0 0.0 
0.0 0.0 0.0 
0.0 0.0 0.0 
0.0 0.0 0.0 
0.0 0.0 0.0 
0.0 0.0 0.0 
0.0 0.0 0.0 
0.0 0.0 0.0 
0.0 0.0 0.0 
0.0 0.0 0.0 
0.0 0.0 0.0 
0.0 0.0 0.0 
0.0 0.0 0.0 
0.0 0.0 0.0 
0.0 0.0 0.0 
0.0 0.0 0.0 
0.0 0.0 0.0 
0.0 0.0 0.0 
0.0 0.0 0.0 
0.0 0.0 0.0 
0.0 0.0 0.0 
0.0 0.0 0.0 
0.0 0.0 0.0 
0.0 0.0 0.0 
0.0 0.0 0.0 
0.0 0.0 0.0 
0.0 0.0 0.0 
0.0 0.0 0.0 
0.0 0.0 0.0 
0.0 0.0 0.0 
0.0 0.0 0.0 
0.0 0.0 0.0 
0.0 0.0 0.0 
0.0 0.0 0.0 
0.0 0.0 0.0 
0.0 0.0 0.0 
0.0 0.0 0.0 
0.0 0.0 0.0 
0.0 0.0 0.0 
0.0 0.0 0.0 
0.0 0.0 0.0 
0.0 0.0 0.0 
0.0 0.0 0.0 
0.0 0.0 0.0 
0.0 0.0 0.0 
0.0 0.0 0.0 
0.0 0.0 0.0 
0.0 0.0 0.0 
0.0 0.0 0.0 
0.0 0.0 0.0 
0.0 0.0 0.0 
0.0 0.0 0.0 
0.0 0.0 0.0 
0.0 0.0 0.0 
0.0 0.0 0.0 
0.0 0.0 0.0 
0.0 0.0 0.0 
0.0 0.0 0.0 
0.0 0.0 0.0 
0.0 0.0 0.0 
0.0 0.0 0.0 
0.0 0.0 0.0 
0.0 0.0 0.0 
0.0 0.0 0.0 
0.0 0.0 0.0 
0.0 0.0 0.0 
0.0 0.0 0.0 
0.0 0.0 0.0 
0.0 0.0 0.0 
0.0 0.0 0.0 
0.0 0.0 0.0 
0.0 0.0 0.0 
0.0 0.0 0.0 
0.0 0.0 0.0 
0.0 0.0 0.0 
0.0 0.0 0.0 
0.0 0.0 0.0 
0.0 0.0 0.0 
0.0 0.0 0.0 
0.0 0.0 0.0 
0.0 0.0 0.0 
0.0 0.0 0.0 
0.0 0.0 0.0 
0.0 0.0 0.0 
0.0 0.0 0.0 
0.0 0.0 0.0 
0.0 0.0 0.0 
0.0 0.0 0.0 
0.0 0.0 0.0 
0.0 0.0 0.0 
0.0 0.0 0.0 
0.0 0.0 0.0 
0.0 0.0 0.0 
0.0 0.0 0.0 
0.0 0.0 0.0 
0.0 0.0 0.0 
0.0 0.0 0.0 
0.0 0.0 0.0 
0.0 0.0 0.0 
0.0 0.0 0.0 
0.0 0.0 0.0 
0.0 0.0 0.0 
0.0 0.0 0.0 
0.0 0.0 0.0 
0.0 0.0 0.0 
0.0 0.0 0.0 
0.0 0.0 0.0 
0.0 0.0 0.0 
0.0 0.0 0.0 
0.0 0.0 0.0 
0.0 0.0 0.0 
0.0 0.0 0.0 
0.0 0.0 0.0 
0.0 0.0 0.0 
0.0 0.0 0.0 
0.0 0.0 0.0 
0.0 0.0 0.0 
0.0 0.0 0.0 
0.0 0.0 0.0 
0.0 0.0 0.0 
0.0 0.0 0.0 
0.0 0.0 0.0 
0.0 0.0 0.0 
0.0 0.0 0.0 
0.0 0.0 0.0 
0.0 0.0 0.0 
0.0 0.0 0.0 
0.0 0.0 0.0 
0.0 0.0 0.0 
0.0 0.0 0.0 
0.0 0.0 0.0 
0.0 0.0 0.0 
0.0 0.0 0.0 
0.0 0.0 0.0 
0.0 0.0 0.0 
0.0 0.0 0.0 
0.0 0.0 0.0 
0.0 0.0 0.0 
0.0 0.0 0.0 
0.0 0.0 0.0 
0.0 0.0 0.0 
0.0 0.0 0.0 
0.0 0.0 0.0 
0.0 0.0 0.0 
0.0 0.0 0.0 
0.0 0.0 0.0 
0.0 0.0 0.0 
0.0 0.0 0.0 
0.0 0.0 0.0 
0.0 0.0 0.0 
0.0 0.0 0.0 
0.0 0.0 0.0 
0.0 0.0 0.0 
0.0 0.0 0.0 
0.0 0.0 0.0 
0.0 0.0 0.0 
0.0 0.0 0.0 
0.0 0.0 0.0 
0.0 0.0 0.0 
0.0 0.0 0.0 
0.0 0.0 0.0 
0.0 0.0 0.0 
0.0 0.0 0.0 
0.0 0.0 0.0 
0.0 0.0 0.0 
0.0 0.0 0.0 
0.0 0.0 0.0 
0.0 0.0 0.0 
0.0 0.0 0.0 
0.0 0.0 0.0 
0.0 0.0 0.0 
0.0 0.0 0.0 
0.0 0.0 0.0 
0.0 0.0 0.0 
0.0 0.0 0.0 
0.0 0.0 0.0 
0.0 0.0 0.0 
0.0 0.0 0.0 
0.0 0.0 0.0 
0.0 0.0 0.0 
0.0 0.0 0.0 
0.0 0.0 0.0 
0.0 0.0 0.0 
0.0 0.0 0.0 
0.0 0.0 0.0 
0.0 0.0 0.0 
0.0 0.0 0.0 
0.0 0.0 0.0 
0.0 0.0 0.0 
0.0 0.0 0.0 
0.0 0.0 0.0 
0.0 0.0 0.0 
0.0 0.0 0.0 
0.0 0.0 0.0 
0.0 0.0 0.0 
0.0 0.0 0.0 
0.0 0.0 0.0 
0.0 0.0 0.0 
0.0 0.0 0.0 
0.0 0.0 0.0 
0.0 0.0 0.0 
0.0 0.0 0.0 
0.0 0.0 0.0 
0.0 0.0 0.0 
0.0 0.0 0.0 
0.0 0.0 0.0 
0.0 0.0 0.0 
0.0 0.0 0.0 
0.0 0.0 0.0 
0.0 0.0 0.0 
0.0 0.0 0.0 
0.0 0.0 0.0 
0.0 0.0 0.0 
0.0 0.0 0.0 
0.0 0.0 0.0 
0.0 0.0 0.0 
0.0 0.0 0.0 
0.0 0.0 0.0 
0.0 0.0 0.0 
0.0 0.0 0.0 
0.0 0.0 0.0 
0.0 0.0 0.0 
0.0 0.0 0.0 
0.0 0.0 0.0 
0.0 0.0 0.0 
0.0 0.0 0.0 
0.0 0.0 0.0 
0.0 0.0 0.0 
0.0 0.0 0.0 
0.0 0.0 0.0 
0.0 0.0 0.0 
0.0 0.0 0.0 
0.0 0.0 0.0 
0.0 0.0 0.0 
0.0 0.0 0.0 
0.0 0.0 0.0 
0.0 0.0 0.0 
0.0 0.0 0.0 
0.0 0.0 0.0 
0.0 0.0 0.0 
0.0 0.0 0.0 
0.0 0.0 0.0 
0.0 0.0 0.0 
0.0 0.0 0.0 
0.0 0.0 0.0 
0.0 0.0 0.0 
0.0 0.0 0.0 
0.0 0.0 0.0 
0.0 0.0 0.0 
0.0 0.0 0.0 
0.0 0.0 0.0 
0.0 0.0 0.0 
0.0 0.0 0.0 
0.0 0.0 0.0 
0.0 0.0 0.0 
0.0 0.0 0.0 
0.0 0.0 0.0 
0.0 0.0 0.0 
0.0 0.0 0.0 
0.0 0.0 0.0 
0.0 0.0 0.0 
0.0 0.0 0.0 
0.0 0.0 0.0 
0.0 0.0 0.0 
0.0 0.0 0.0 
0.0 0.0 0.0 
0.0 0.0 0.0 
0.0 0.0 0.0 
0.0 0.0 0.0 
0.0 0.0 0.0 
0.0 0.0 0.0 
0.0 0.0 0.0 
0.0 0.0 0.0 
0.0 0.0 0.0 
0.0 0.0 0.0 
0.0 0.0 0.0 
0.0 0.0 0.0 
0.0 0.0 0.0 
0.0 0.0 0.0 
0.0 0.0 0.0 
0.0 0.0 0.0 
0.0 0.0 0.0 
0.0 0.0 0.0 
0.0 0.0 0.0 
0.0 0.0 0.0 
0.0 0.0 0.0 
0.0 0.0 0.0 
0.0 0.0 0.0 
0.0 0.0 0.0 
0.0 0.0 0.0 
0.0 0.0 0.0 
0.0 0.0 0.0 
0.0 0.0 0.0 
0.0 0.0 0.0 
0.0 0.0 0.0 
0.0 0.0 0.0 
0.0 0.0 0.0 
0.0 0.0 0.0 
0.0 0.0 0.0 
0.0 0.0 0.0 
0.0 0.0 0.0 
0.0 0.0 0.0 
0.0 0.0 0.0 
0.0 0.0 0.0 
0.0 0.0 0.0 
0.0 0.0 0.0 
0.0 0.0 0.0 
0.0 0.0 0.0 
0.0 0.0 0.0 
0.0 0.0 0.0 
0.0 0.0 0.0 
0.0 0.0 0.0 
0.0 0.0 0.0 
0.0 0.0 0.0 
0.0 0.0 0.0 
0.0 0.0 0.0 
0.0 0.0 0.0 
0.0 0.0 0.0 
0.0 0.0 0.0 
0.0 0.0 0.0 
0.0 0.0 0.0 
0.0 0.0 0.0 
0.0 0.0 0.0 
0.0 0.0 0.0 
0.0 0.0 0.0 
0.0 0.0 0.0 
0.0 0.0 0.0 
0.0 0.0 0.0 
0.0 0.0 0.0 
0.0 0.0 0.0 
0.0 0.0 0.0 
0.0 0.0 0.0 
0.0 0.0 0.0 
0.0 0.0 0.0 
0.0 0.0 0.0 
0.0 0.0 0.0 
0.0 0.0 0.0 
0.0 0.0 0.0 
0.0 0.0 0.0 
0.0 0.0 0.0 
0.0 0.0 0.0 
0.0 0.0 0.0 
0.0 0.0 0.0 
0.0 0.0 0.0 
0.0 0.0 0.0 
0.0 0.0 0.0 
0.0 0.0 0.0 
0.0 0.0 0.0 
0.0 0.0 0.0 
0.0 0.0 0.0 
0.0 0.0 0.0 
0.0 0.0 0.0 
0.0 0.0 0.0 
0.0 0.0 0.0 
0.0 0.0 0.0 
0.0 0.0 0.0 
0.0 0.0 0.0 
0.0 0.0 0.0 
0.0 0.0 0.0 
0.0 0.0 0.0 
0.0 0.0 0.0 
0.0 0.0 0.0 
0.0 0.0 0.0 
0.0 0.0 0.0 
0.0 0.0 0.0 
0.0 0.0 0.0 
0.0 0.0 0.0 
0.0 0.0 0.0 
0.0 0.0 0.0 
0.0 0.0 0.0 
0.0 0.0 0.0 
0.0 0.0 0.0 
0.0 0.0 0.0 
0.0 0.0 0.0 
0.0 0.0 0.0 
0.0 0.0 0.0 
0.0 0.0 0.0 
0.0 0.0 0.0 
0.0 0.0 0.0 
0.0 0.0 0.0 
0.0 0.0 0.0 
0.0 0.0 0.0 
0.0 0.0 0.0 
0.0 0.0 0.0 
0.0 0.0 0.0 
0.0 0.0 0.0 
0.0 0.0 0.0 
0.0 0.0 0.0 
0.0 0.0 0.0 
0.0 0.0 0.0 
0.0 0.0 0.0 
0.0 0.0 0.0 
0.0 0.0 0.0 
0.0 0.0 0.0 
0.0 0.0 0.0 
0.0 0.0 0.0 
0.0 0.0 0.0 
0.0 0.0 0.0 
0.0 0.0 0.0 
0.0 0.0 0.0 
0.0 0.0 0.0 
0.0 0.0 0.0 
0.0 0.0 0.0 
0.0 0.0 0.0 
0.0 0.0 0.0 
0.0 0.0 0.0 
0.0 0.0 0.0 
0.0 0.0 0.0 
0.0 0.0 0.0 
0.0 0.0 0.0 
0.0 0.0 0.0 
0.0 0.0 0.0 
0.0 0.0 0.0 
0.0 0.0 0.0 
0.0 0.0 0.0 
0.0 0.0 0.0 
0.0 0.0 0.0 
0.0 0.0 0.0 
0.0 0.0 0.0 
0.0 0.0 0.0 
0.0 0.0 0.0 
0.0 0.0 0.0 
0.0 0.0 0.0 
0.0 0.0 0.0 
0.0 0.0 0.0 
0.0 0.0 0.0 
0.0 0.0 0.0 
0.0 0.0 0.0 
0.0 0.0 0.0 
0.0 0.0 0.0 
0.0 0.0 0.0 
0.0 0.0 0.0 
0.0 0.0 0.0 
0.0 0.0 0.0 
0.0 0.0 0.0 
0.0 0.0 0.0 
0.0 0.0 0.0 
0.0 0.0 0.0 
0.0 0.0 0.0 
0.0 0.0 0.0 
0.0 0.0 0.0 
0.0 0.0 0.0 
0.0 0.0 0.0 
0.0 0.0 0.0 
0.0 0.0 0.0 
0.0 0.0 0.0 
0.0 0.0 0.0 
0.0 0.0 0.0 
0.0 0.0 0.0 
0.0 0.0 0.0 
0.0 0.0 0.0 
0.0 0.0 0.0 
0.0 0.0 0.0 
0.0 0.0 0.0 
0.0 0.0 0.0 
0.0 0.0 0.0 
0.0 0.0 0.0 
0.0 0.0 0.0 
0.0 0.0 0.0 
0.0 0.0 0.0 
0.0 0.0 0.0 
0.0 0.0 0.0 
0.0 0.0 0.0 
0.0 0.0 0.0 
0.0 0.0 0.0 
0.0 0.0 0.0 
0.0 0.0 0.0 
0.0 0.0 0.0 
0.0 0.0 0.0 
0.0 0.0 0.0 
0.0 0.0 0.0 
0.0 0.0 0.0 
0.0 0.0 0.0 
0.0 0.0 0.0 
0.0 0.0 0.0 
0.0 0.0 0.0 
0.0 0.0 0.0 
0.0 0.0 0.0 
0.0 0.0 0.0 
0.0 0.0 0.0 
0.0 0.0 0.0 
0.0 0.0 0.0 
0.0 0.0 0.0 
0.0 0.0 0.0 
0.0 0.0 0.0 
0.0 0.0 0.0 
0.0 0.0 0.0 
0.0 0.0 0.0 
0.0 0.0 0.0 
0.0 0.0 0.0 
0.0 0.0 0.0 
0.0 0.0 0.0 
0.0 0.0 0.0 
0.0 0.0 0.0 
0.0 0.0 0.0 
0.0 0.0 0.0 
0.0 0.0 0.0 
0.0 0.0 0.0 
0.0 0.0 0.0 
0.0 0.0 0.0 
0.0 0.0 0.0 
0.0 0.0 0.0 
0.0 0.0 0.0 
0.0 0.0 0.0 
0.0 0.0 0.0 
0.0 0.0 0.0 
0.0 0.0 0.0 
0.0 0.0 0.0 
0.0 0.0 0.0 
0.0 0.0 0.0 
0.0 0.0 0.0 
0.0 0.0 0.0 
0.0 0.0 0.0 
0.0 0.0 0.0 
0.0 0.0 0.0 
0.0 0.0 0.0 
0.0 0.0 0.0 
0.0 0.0 0.0 
0.0 0.0 0.0 
0.0 0.0 0.0 
0.0 0.0 0.0 
0.0 0.0 0.0 
0.0 0.0 0.0 
0.0 0.0 0.0 
0.0 0.0 0.0 
0.0 0.0 0.0 
0.0 0.0 0.0 
0.0 0.0 0.0 
0.0 0.0 0.0 
0.0 0.0 0.0 
0.0 0.0 0.0 
0.0 0.0 0.0 
0.0 0.0 0.0 
0.0 0.0 0.0 
0.0 0.0 0.0 
0.0 0.0 0.0 
0.0 0.0 0.0 
0.0 0.0 0.0 
0.0 0.0 0.0 
0.0 0.0 0.0 
0.0 0.0 0.0 
0.0 0.0 0.0 
0.0 0.0 0.0 
0.0 0.0 0.0 
0.0 0.0 0.0 
0.0 0.0 0.0 
0.0 0.0 0.0 
0.0 0.0 0.0 
0.0 0.0 0.0 
0.0 0.0 0.0 
0.0 0.0 0.0 
0.0 0.0 0.0 
0.0 0.0 0.0 
0.0 0.0 0.0 
0.0 0.0 0.0 
0.0 0.0 0.0 
0.0 0.0 0.0 
0.0 0.0 0.0 
0.0 0.0 0.0 
0.0 0.0 0.0 
0.0 0.0 0.0 
0.0 0.0 0.0 
0.0 0.0 0.0 
0.0 0.0 0.0 
0.0 0.0 0.0 
0.0 0.0 0.0 
0.0 0.0 0.0 
0.0 0.0 0.0 
0.0 0.0 0.0 
0.0 0.0 0.0 
0.0 0.0 0.0 
0.0 0.0 0.0 
0.0 0.0 0.0 
0.0 0.0 0.0 
0.0 0.0 0.0 
0.0 0.0 0.0 
0.0 0.0 0.0 
0.0 0.0 0.0 
0.0 0.0 0.0 
0.0 0.0 0.0 
0.0 0.0 0.0 
0.0 0.0 0.0 
0.0 0.0 0.0 
0.0 0.0 0.0 
0.0 0.0 0.0 
0.0 0.0 0.0 
0.0 0.0 0.0 
0.0 0.0 0.0 
0.0 0.0 0.0 
0.0 0.0 0.0 
0.0 0.0 0.0 
0.0 0.0 0.0 
0.0 0.0 0.0 
0.0 0.0 0.0 
0.0 0.0 0.0 
0.0 0.0 0.0 
0.0 0.0 0.0 
0.0 0.0 0.0 
0.0 0.0 0.0 
0.0 0.0 0.0 
0.0 0.0 0.0 
0.0 0.0 0.0 
0.0 0.0 0.0 
0.0 0.0 0.0 
0.0 0.0 0.0 
0.0 0.0 0.0 
0.0 0.0 0.0 
0.0 0.0 0.0 
0.0 0.0 0.0 
0.0 0.0 0.0 
0.0 0.0 0.0 
0.0 0.0 0.0 
0.0 0.0 0.0 
0.0 0.0 0.0 
0.0 0.0 0.0 
0.0 0.0 0.0 
0.0 0.0 0.0 
0.0 0.0 0.0 
0.0 0.0 0.0 
0.0 0.0 0.0 
0.0 0.0 0.0 
0.0 0.0 0.0 
0.0 0.0 0.0 
0.0 0.0 0.0 
0.0 0.0 0.0 
0.0 0.0 0.0 
0.0 0.0 0.0 
0.0 0.0 0.0 
0.0 0.0 0.0 
0.0 0.0 0.0 
0.0 0.0 0.0 
0.0 0.0 0.0 
0.0 0.0 0.0 
0.0 0.0 0.0 
0.0 0.0 0.0 
0.0 0.0 0.0 
0.0 0.0 0.0 
0.0 0.0 0.0 
0.0 0.0 0.0 
0.0 0.0 0.0 
0.0 0.0 0.0 
0.0 0.0 0.0 
0.0 0.0 0.0 
0.0 0.0 0.0 
0.0 0.0 0.0 
0.0 0.0 0.0 
0.0 0.0 0.0 
0.0 0.0 0.0 
0.0 0.0 0.0 
0.0 0.0 0.0 
0.0 0.0 0.0 
0.0 0.0 0.0 
0.0 0.0 0.0 
0.0 0.0 0.0 
0.0 0.0 0.0 
0.0 0.0 0.0 
0.0 0.0 0.0 
0.0 0.0 0.0 
0.0 0.0 0.0 
0.0 0.0 0.0 
0.0 0.0 0.0 
0.0 0.0 0.0 
0.0 0.0 0.0 
0.0 0.0 0.0 
0.0 0.0 0.0 
0.0 0.0 0.0 
0.0 0.0 0.0 
0.0 0.0 0.0 
0.0 0.0 0.0 
0.0 0.0 0.0 
0.0 0.0 0.0 
0.0 0.0 0.0 
0.0 0.0 0.0 
0.0 0.0 0.0 
0.0 0.0 0.0 
0.0 0.0 0.0 
0.0 0.0 0.0 
0.0 0.0 0.0 
0.0 0.0 0.0 
0.0 0.0 0.0 
0.0 0.0 0.0 
0.0 0.0 0.0 
0.0 0.0 0.0 
0.0 0.0 0.0 
0.0 0.0 0.0 
0.0 0.0 0.0 
0.0 0.0 0.0 
0.0 0.0 0.0 
0.0 0.0 0.0 
0.0 0.0 0.0 
0.0 0.0 0.0 
0.0 0.0 0.0 
0.0 0.0 0.0 
0.0 0.0 0.0 
0.0 0.0 0.0 
0.0 0.0 0.0 
0.0 0.0 0.0 
0.0 0.0 0.0 
0.0 0.0 0.0 
0.0 0.0 0.0 
0.0 0.0 0.0 
0.0 0.0 0.0 
0.0 0.0 0.0 
0.0 0.0 0.0 
0.0 0.0 0.0 
0.0 0.0 0.0 
0.0 0.0 0.0 
0.0 0.0 0.0 
0.0 0.0 0.0 
0.0 0.0 0.0 
0.0 0.0 0.0 
0.0 0.0 0.0 
0.0 0.0 0.0 
0.0 0.0 0.0 
0.0 0.0 0.0 
0.0 0.0 0.0 
0.0 0.0 0.0 
0.0 0.0 0.0 
0.0 0.0 0.0 
0.0 0.0 0.0 
0.0 0.0 0.0 
0.0 0.0 0.0 
0.0 0.0 0.0 
0.0 0.0 0.0 
0.0 0.0 0.0 
0.0 0.0 0.0 
0.0 0.0 0.0 
0.0 0.0 0.0 
0.0 0.0 0.0 
0.0 0.0 0.0 
0.0 0.0 0.0 
0.0 0.0 0.0 
0.0 0.0 0.0 
0.0 0.0 0.0 
0.0 0.0 0.0 
0.0 0.0 0.0 
0.0 0.0 0.0 
0.0 0.0 0.0 
0.0 0.0 0.0 
0.0 0.0 0.0 
0.0 0.0 0.0 
0.0 0.0 0.0 
0.0 0.0 0.0 
0.0 0.0 0.0 
0.0 0.0 0.0 
0.0 0.0 0.0 
0.0 0.0 0.0 
0.0 0.0 0.0 
0.0 0.0 0.0 
0.0 0.0 0.0 
0.0 0.0 0.0 
0.0 0.0 0.0 
0.0 0.0 0.0 
0.0 0.0 0.0 
0.0 0.0 0.0 
0.0 0.0 0.0 
0.0 0.0 0.0 
0.0 0.0 0.0 
0.0 0.0 0.0 
0.0 0.0 0.0 
0.0 0.0 0.0 
0.0 0.0 0.0 
0.0 0.0 0.0 
0.0 0.0 0.0 
0.0 0.0 0.0 
0.0 0.0 0.0 
0.0 0.0 0.0 
0.0 0.0 0.0 
0.0 0.0 0.0 
0.0 0.0 0.0 
0.0 0.0 0.0 
0.0 0.0 0.0 
0.0 0.0 0.0 
0.0 0.0 0.0 
0.0 0.0 0.0 
0.0 0.0 0.0 
0.0 0.0 0.0 
0.0 0.0 0.0 
0.0 0.0 0.0 
0.0 0.0 0.0 
0.0 0.0 0.0 
0.0 0.0 0.0 
0.0 0.0 0.0 
0.0 0.0 0.0 
0.0 0.0 0.0 
0.0 0.0 0.0 
0.0 0.0 0.0 
0.0 0.0 0.0 
0.0 0.0 0.0 
0.0 0.0 0.0 
0.0 0.0 0.0 
0.0 0.0 0.0 
0.0 0.0 0.0 
0.0 0.0 0.0 
0.0 0.0 0.0 
0.0 0.0 0.0 
0.0 0.0 0.0 
0.0 0.0 0.0 
0.0 0.0 0.0 
0.0 0.0 0.0 
0.0 0.0 0.0 
0.0 0.0 0.0 
0.0 0.0 0.0 
0.0 0.0 0.0 
0.0 0.0 0.0 
0.0 0.0 0.0 
0.0 0.0 0.0 
0.0 0.0 0.0 
0.0 0.0 0.0 
0.0 0.0 0.0 
0.0 0.0 0.0 
0.0 0.0 0.0 
0.0 0.0 0.0 
0.0 0.0 0.0 
0.0 0.0 0.0 
0.0 0.0 0.0 
0.0 0.0 0.0 
0.0 0.0 0.0 
0.0 0.0 0.0 
0.0 0.0 0.0 
0.0 0.0 0.0 
0.0 0.0 0.0 
0.0 0.0 0.0 
0.0 0.0 0.0 
0.0 0.0 0.0 
0.0 0.0 0.0 
0.0 0.0 0.0 
0.0 0.0 0.0 
0.0 0.0 0.0 
0.0 0.0 0.0 
0.0 0.0 0.0 
0.0 0.0 0.0 
0.0 0.0 0.0 
0.0 0.0 0.0 
0.0 0.0 0.0 
0.0 0.0 0.0 
0.0 0.0 0.0 
0.0 0.0 0.0 
0.0 0.0 0.0 
0.0 0.0 0.0 
0.0 0.0 0.0 
0.0 0.0 0.0 
0.0 0.0 0.0 
0.0 0.0 0.0 
0.0 0.0 0.0 
0.0 0.0 0.0 
0.0 0.0 0.0 
0.0 0.0 0.0 
0.0 0.0 0.0 
0.0 0.0 0.0 
0.0 0.0 0.0 
0.0 0.0 0.0 
0.0 0.0 0.0 
0.0 0.0 0.0 
0.0 0.0 0.0 
0.0 0.0 0.0 
0.0 0.0 0.0 
0.0 0.0 0.0 
0.0 0.0 0.0 
0.0 0.0 0.0 
0.0 0.0 0.0 
0.0 0.0 0.0 
0.0 0.0 0.0 
0.0 0.0 0.0 
0.0 0.0 0.0 
0.0 0.0 0.0 
0.0 0.0 0.0 
0.0 0.0 0.0 
0.0 0.0 0.0 
0.0 0.0 0.0 
0.0 0.0 0.0 
0.0 0.0 0.0 
0.0 0.0 0.0 
0.0 0.0 0.0 
0.0 0.0 0.0 
0.0 0.0 0.0 
0.0 0.0 0.0 
0.0 0.0 0.0 
0.0 0.0 0.0 
0.0 0.0 0.0 
0.0 0.0 0.0 
0.0 0.0 0.0 
0.0 0.0 0.0 
0.0 0.0 0.0 
0.0 0.0 0.0 
0.0 0.0 0.0 
0.0 0.0 0.0 
0.0 0.0 0.0 
0.0 0.0 0.0 
0.0 0.0 0.0 
0.0 0.0 0.0 
0.0 0.0 0.0 
0.0 0.0 0.0 
0.0 0.0 0.0 
0.0 0.0 0.0 
0.0 0.0 0.0 
0.0 0.0 0.0 
0.0 0.0 0.0 
0.0 0.0 0.0 
0.0 0.0 0.0 
0.0 0.0 0.0 
0.0 0.0 0.0 
0.0 0.0 0.0 
0.0 0.0 0.0 
0.0 0.0 0.0 
0.0 0.0 0.0 
0.0 0.0 0.0 
0.0 0.0 0.0 
0.0 0.0 0.0 
0.0 0.0 0.0 
0.0 0.0 0.0 
0.0 0.0 0.0 
0.0 0.0 0.0 
0.0 0.0 0.0 
0.0 0.0 0.0 
0.0 0.0 0.0 
0.0 0.0 0.0 
0.0 0.0 0.0 
0.0 0.0 0.0 
0.0 0.0 0.0 
0.0 0.0 0.0 
0.0 0.0 0.0 
0.0 0.0 0.0 
0.0 0.0 0.0 
0.0 0.0 0.0 
0.0 0.0 0.0 
0.0 0.0 0.0 
0.0 0.0 0.0 
0.0 0.0 0.0 
0.0 0.0 0.0 
0.0 0.0 0.0 
0.0 0.0 0.0 
0.0 0.0 0.0 
0.0 0.0 0.0 
0.0 0.0 0.0 
0.0 0.0 0.0 
0.0 0.0 0.0 
0.0 0.0 0.0 
0.0 0.0 0.0 
0.0 0.0 0.0 
0.0 0.0 0.0 
0.0 0.0 0.0 
0.0 0.0 0.0 
0.0 0.0 0.0 
0.0 0.0 0.0 
0.0 0.0 0.0 
0.0 0.0 0.0 
0.0 0.0 0.0 
0.0 0.0 0.0 
0.0 0.0 0.0 
0.0 0.0 0.0 
0.0 0.0 0.0 
0.0 0.0 0.0 
0.0 0.0 0.0 
0.0 0.0 0.0 
0.0 0.0 0.0 
0.0 0.0 0.0 
0.0 0.0 0.0 
0.0 0.0 0.0 
0.0 0.0 0.0 
0.0 0.0 0.0 
0.0 0.0 0.0 
0.0 0.0 0.0 
0.0 0.0 0.0 
0.0 0.0 0.0 
0.0 0.0 0.0 
0.0 0.0 0.0 
0.0 0.0 0.0 
0.0 0.0 0.0 
0.0 0.0 0.0 
0.0 0.0 0.0 
0.0 0.0 0.0 
0.0 0.0 0.0 
0.0 0.0 0.0 
0.0 0.0 0.0 
0.0 0.0 0.0 
0.0 0.0 0.0 
0.0 0.0 0.0 
0.0 0.0 0.0 
0.0 0.0 0.0 
0.0 0.0 0.0 
0.0 0.0 0.0 
0.0 0.0 0.0 
0.0 0.0 0.0 
0.0 0.0 0.0 
0.0 0.0 0.0 
0.0 0.0 0.0 
0.0 0.0 0.0 
0.0 0.0 0.0 
0.0 0.0 0.0 
0.0 0.0 0.0 
0.0 0.0 0.0 
0.0 0.0 0.0 
0.0 0.0 0.0 
0.0 0.0 0.0 
0.0 0.0 0.0 
0.0 0.0 0.0 
0.0 0.0 0.0 
0.0 0.0 0.0 
0.0 0.0 0.0 
0.0 0.0 0.0 
0.0 0.0 0.0 
0.0 0.0 0.0 
0.0 0.0 0.0 
0.0 0.0 0.0 
0.0 0.0 0.0 
0.0 0.0 0.0 
0.0 0.0 0.0 
0.0 0.0 0.0 
0.0 0.0 0.0 
0.0 0.0 0.0 
0.0 0.0 0.0 
0.0 0.0 0.0 
0.0 0.0 0.0 
0.0 0.0 0.0 
0.0 0.0 0.0 
0.0 0.0 0.0 
0.0 0.0 0.0 
0.0 0.0 0.0 
0.0 0.0 0.0 
0.0 0.0 0.0 
0.0 0.0 0.0 
0.0 0.0 0.0 
0.0 0.0 0.0 
0.0 0.0 0.0 
0.0 0.0 0.0 
0.0 0.0 0.0 
0.0 0.0 0.0 
0.0 0.0 0.0 
0.0 0.0 0.0 
0.0 0.0 0.0 
0.0 0.0 0.0 
0.0 0.0 0.0 
0.0 0.0 0.0 
0.0 0.0 0.0 
0.0 0.0 0.0 
0.0 0.0 0.0 
0.0 0.0 0.0 
0.0 0.0 0.0 
0.0 0.0 0.0 
0.0 0.0 0.0 
0.0 0.0 0.0 
0.0 0.0 0.0 
0.0 0.0 0.0 
0.0 0.0 0.0 
0.0 0.0 0.0 
0.0 0.0 0.0 
0.0 0.0 0.0 
0.0 0.0 0.0 
0.0 0.0 0.0 
0.0 0.0 0.0 
0.0 0.0 0.0 
0.0 0.0 0.0 
0.0 0.0 0.0 
0.0 0.0 0.0 
0.0 0.0 0.0 
0.0 0.0 0.0 
0.0 0.0 0.0 
0.0 0.0 0.0 
0.0 0.0 0.0 
0.0 0.0 0.0 
0.0 0.0 0.0 
0.0 0.0 0.0 
0.0 0.0 0.0 
0.0 0.0 0.0 
0.0 0.0 0.0 
0.0 0.0 0.0 
0.0 0.0 0.0 
0.0 0.0 0.0 
0.0 0.0 0.0 
0.0 0.0 0.0 
0.0 0.0 0.0 
0.0 0.0 0.0 
0.0 0.0 0.0 
0.0 0.0 0.0 
0.0 0.0 0.0 
0.0 0.0 0.0 
0.0 0.0 0.0 
0.0 0.0 0.0 
0.0 0.0 0.0 
0.0 0.0 0.0 
0.0 0.0 0.0 
0.0 0.0 0.0 
0.0 0.0 0.0 
0.0 0.0 0.0 
0.0 0.0 0.0 
0.0 0.0 0.0 
0.0 0.0 0.0 
0.0 0.0 0.0 
0.0 0.0 0.0 
0.0 0.0 0.0 
0.0 0.0 0.0 
0.0 0.0 0.0 
0.0 0.0 0.0 
0.0 0.0 0.0 
0.0 0.0 0.0 
0.0 0.0 0.0 
0.0 0.0 0.0 
0.0 0.0 0.0 
0.0 0.0 0.0 
0.0 0.0 0.0 
0.0 0.0 0.0 
0.0 0.0 0.0 
0.0 0.0 0.0 
0.0 0.0 0.0 
0.0 0.0 0.0 
0.0 0.0 0.0 
0.0 0.0 0.0 
0.0 0.0 0.0 
0.0 0.0 0.0 
0.0 0.0 0.0 
0.0 0.0 0.0 
0.0 0.0 0.0 
0.0 0.0 0.0 
0.0 0.0 0.0 
0.0 0.0 0.0 
0.0 0.0 0.0 
0.0 0.0 0.0 
0.0 0.0 0.0 
0.0 0.0 0.0 
0.0 0.0 0.0 
0.0 0.0 0.0 
0.0 0.0 0.0 
0.0 0.0 0.0 
0.0 0.0 0.0 
0.0 0.0 0.0 
0.0 0.0 0.0 
0.0 0.0 0.0 
0.0 0.0 0.0 
0.0 0.0 0.0 
0.0 0.0 0.0 
0.0 0.0 0.0 
0.0 0.0 0.0 
0.0 0.0 0.0 
0.0 0.0 0.0 
0.0 0.0 0.0 
0.0 0.0 0.0 
0.0 0.0 0.0 
0.0 0.0 0.0 
0.0 0.0 0.0 
0.0 0.0 0.0 
0.0 0.0 0.0 
0.0 0.0 0.0 
0.0 0.0 0.0 
0.0 0.0 0.0 
0.0 0.0 0.0 
0.0 0.0 0.0 
0.0 0.0 0.0 
0.0 0.0 0.0 
0.0 0.0 0.0 
0.0 0.0 0.0 
0.0 0.0 0.0 
0.0 0.0 0.0 
0.0 0.0 0.0 
0.0 0.0 0.0 
0.0 0.0 0.0 
0.0 0.0 0.0 
0.0 0.0 0.0 
0.0 0.0 0.0 
0.0 0.0 0.0 
0.0 0.0 0.0 
0.0 0.0 0.0 
0.0 0.0 0.0 
0.0 0.0 0.0 
0.0 0.0 0.0 
0.0 0.0 0.0 
0.0 0.0 0.0 
0.0 0.0 0.0 
0.0 0.0 0.0 
0.0 0.0 0.0 
0.0 0.0 0.0 
0.0 0.0 0.0 
0.0 0.0 0.0 
0.0 0.0 0.0 
0.0 0.0 0.0 
0.0 0.0 0.0 
0.0 0.0 0.0 
0.0 0.0 0.0 
0.0 0.0 0.0 
0.0 0.0 0.0 
0.0 0.0 0.0 
0.0 0.0 0.0 
0.0 0.0 0.0 
0.0 0.0 0.0 
0.0 0.0 0.0 
0.0 0.0 0.0 
0.0 0.0 0.0 
0.0 0.0 0.0 
0.0 0.0 0.0 
0.0 0.0 0.0 
0.0 0.0 0.0 
0.0 0.0 0.0 
0.0 0.0 0.0 
0.0 0.0 0.0 
0.0 0.0 0.0 
0.0 0.0 0.0 
0.0 0.0 0.0 
0.0 0.0 0.0 
0.0 0.0 0.0 
0.0 0.0 0.0 
0.0 0.0 0.0 
0.0 0.0 0.0 
0.0 0.0 0.0 
0.0 0.0 0.0 
0.0 0.0 0.0 
0.0 0.0 0.0 
0.0 0.0 0.0 
0.0 0.0 0.0 
0.0 0.0 0.0 
0.0 0.0 0.0 
0.0 0.0 0.0 
0.0 0.0 0.0 
0.0 0.0 0.0 
0.0 0.0 0.0 
0.0 0.0 0.0 
0.0 0.0 0.0 
0.0 0.0 0.0 
0.0 0.0 0.0 
0.0 0.0 0.0 
0.0 0.0 0.0 
0.0 0.0 0.0 
0.0 0.0 0.0 
0.0 0.0 0.0 
0.0 0.0 0.0 
0.0 0.0 0.0 
0.0 0.0 0.0 
0.0 0.0 0.0 
0.0 0.0 0.0 
0.0 0.0 0.0 
0.0 0.0 0.0 
0.0 0.0 0.0 
0.0 0.0 0.0 
0.0 0.0 0.0 
0.0 0.0 0.0 
0.0 0.0 0.0 
0.0 0.0 0.0 
0.0 0.0 0.0 
0.0 0.0 0.0 
0.0 0.0 0.0 
0.0 0.0 0.0 
0.0 0.0 0.0 
0.0 0.0 0.0 
0.0 0.0 0.0 
0.0 0.0 0.0 
0.0 0.0 0.0 
0.0 0.0 0.0 
0.0 0.0 0.0 
0.0 0.0 0.0 
0.0 0.0 0.0 
0.0 0.0 0.0 
0.0 0.0 0.0 
0.0 0.0 0.0 
0.0 0.0 0.0 
0.0 0.0 0.0 
0.0 0.0 0.0 
0.0 0.0 0.0 
0.0 0.0 0.0 
0.0 0.0 0.0 
0.0 0.0 0.0 
0.0 0.0 0.0 
0.0 0.0 0.0 
0.0 0.0 0.0 
0.0 0.0 0.0 
0.0 0.0 0.0 
0.0 0.0 0.0 
0.0 0.0 0.0 
0.0 0.0 0.0 
0.0 0.0 0.0 
0.0 0.0 0.0 
0.0 0.0 0.0 
0.0 0.0 0.0 
0.0 0.0 0.0 
0.0 0.0 0.0 
0.0 0.0 0.0 
0.0 0.0 0.0 
0.0 0.0 0.0 
0.0 0.0 0.0 
0.0 0.0 0.0 
0.0 0.0 0.0 
0.0 0.0 0.0 
0.0 0.0 0.0 
0.0 0.0 0.0 
0.0 0.0 0.0 
0.0 0.0 0.0 
0.0 0.0 0.0 
0.0 0.0 0.0 
0.0 0.0 0.0 
0.0 0.0 0.0 
0.0 0.0 0.0 
0.0 0.0 0.0 
0.0 0.0 0.0 
0.0 0.0 0.0 
0.0 0.0 0.0 
0.0 0.0 0.0 
0.0 0.0 0.0 
0.0 0.0 0.0 
0.0 0.0 0.0 
0.0 0.0 0.0 
0.0 0.0 0.0 
0.0 0.0 0.0 
0.0 0.0 0.0 
0.0 0.0 0.0 
0.0 0.0 0.0 
0.0 0.0 0.0 
0.0 0.0 0.0 
0.0 0.0 0.0 
0.0 0.0 0.0 
0.0 0.0 0.0 
0.0 0.0 0.0 
0.0 0.0 0.0 
0.0 0.0 0.0 
0.0 0.0 0.0 
0.0 0.0 0.0 
0.0 0.0 0.0 
0.0 0.0 0.0 
0.0 0.0 0.0 
0.0 0.0 0.0 
0.0 0.0 0.0 
0.0 0.0 0.0 
0.0 0.0 0.0 
0.0 0.0 0.0 
0.0 0.0 0.0 
0.0 0.0 0.0 
0.0 0.0 0.0 
0.0 0.0 0.0 
0.0 0.0 0.0 
0.0 0.0 0.0 
0.0 0.0 0.0 
0.0 0.0 0.0 
0.0 0.0 0.0 
0.0 0.0 0.0 
0.0 0.0 0.0 
0.0 0.0 0.0 
0.0 0.0 0.0 
0.0 0.0 0.0 
0.0 0.0 0.0 
0.0 0.0 0.0 
0.0 0.0 0.0 
0.0 0.0 0.0 
0.0 0.0 0.0 
0.0 0.0 0.0 
0.0 0.0 0.0 
0.0 0.0 0.0 
0.0 0.0 0.0 
0.0 0.0 0.0 
0.0 0.0 0.0 
0.0 0.0 0.0 
0.0 0.0 0.0 
0.0 0.0 0.0 
0.0 0.0 0.0 
0.0 0.0 0.0 
0.0 0.0 0.0 
0.0 0.0 0.0 
0.0 0.0 0.0 
0.0 0.0 0.0 
0.0 0.0 0.0 
0.0 0.0 0.0 
0.0 0.0 0.0 
0.0 0.0 0.0 
0.0 0.0 0.0 
0.0 0.0 0.0 
0.0 0.0 0.0 
0.0 0.0 0.0 
0.0 0.0 0.0 
0.0 0.0 0.0 
0.0 0.0 0.0 
0.0 0.0 0.0 
0.0 0.0 0.0 
0.0 0.0 0.0 
0.0 0.0 0.0 
0.0 0.0 0.0 
0.0 0.0 0.0 
0.0 0.0 0.0 
0.0 0.0 0.0 
0.0 0.0 0.0 
0.0 0.0 0.0 
0.0 0.0 0.0 
0.0 0.0 0.0 
0.0 0.0 0.0 
0.0 0.0 0.0 
0.0 0.0 0.0 
0.0 0.0 0.0 
0.0 0.0 0.0 
0.0 0.0 0.0 
0.0 0.0 0.0 
0.0 0.0 0.0 
0.0 0.0 0.0 
0.0 0.0 0.0 
0.0 0.0 0.0 
0.0 0.0 0.0 
0.0 0.0 0.0 
0.0 0.0 0.0 
0.0 0.0 0.0 
0.0 0.0 0.0 
0.0 0.0 0.0 
0.0 0.0 0.0 
0.0 0.0 0.0 
0.0 0.0 0.0 
0.0 0.0 0.0 
0.0 0.0 0.0 
0.0 0.0 0.0 
0.0 0.0 0.0 
0.0 0.0 0.0 
0.0 0.0 0.0 
0.0 0.0 0.0 
0.0 0.0 0.0 
0.0 0.0 0.0 
0.0 0.0 0.0 
0.0 0.0 0.0 
0.0 0.0 0.0 
0.0 0.0 0.0 
0.0 0.0 0.0 
0.0 0.0 0.0 
0.0 0.0 0.0 
0.0 0.0 0.0 
0.0 0.0 0.0 
0.0 0.0 0.0 
0.0 0.0 0.0 
0.0 0.0 0.0 
0.0 0.0 0.0 
0.0 0.0 0.0 
0.0 0.0 0.0 
0.0 0.0 0.0 
0.0 0.0 0.0 
0.0 0.0 0.0 
0.0 0.0 0.0 
0.0 0.0 0.0 
0.0 0.0 0.0 
0.0 0.0 0.0 
0.0 0.0 0.0 
0.0 0.0 0.0 
0.0 0.0 0.0 
0.0 0.0 0.0 
0.0 0.0 0.0 
0.0 0.0 0.0 
0.0 0.0 0.0 
0.0 0.0 0.0 
0.0 0.0 0.0 
0.0 0.0 0.0 
0.0 0.0 0.0 
0.0 0.0 0.0 
0.0 0.0 0.0 
0.0 0.0 0.0 
0.0 0.0 0.0 
0.0 0.0 0.0 
0.0 0.0 0.0 
0.0 0.0 0.0 
0.0 0.0 0.0 
0.0 0.0 0.0 
0.0 0.0 0.0 
0.0 0.0 0.0 
0.0 0.0 0.0 
0.0 0.0 0.0 
0.0 0.0 0.0 
0.0 0.0 0.0 
0.0 0.0 0.0 
0.0 0.0 0.0 
0.0 0.0 0.0 
0.0 0.0 0.0 
0.0 0.0 0.0 
0.0 0.0 0.0 
0.0 0.0 0.0 
0.0 0.0 0.0 
0.0 0.0 0.0 
0.0 0.0 0.0 
0.0 0.0 0.0 
0.0 0.0 0.0 
0.0 0.0 0.0 
0.0 0.0 0.0 
0.0 0.0 0.0 
0.0 0.0 0.0 
0.0 0.0 0.0 
0.0 0.0 0.0 
0.0 0.0 0.0 
0.0 0.0 0.0 
0.0 0.0 0.0 
0.0 0.0 0.0 
0.0 0.0 0.0 
0.0 0.0 0.0 
0.0 0.0 0.0 
0.0 0.0 0.0 
0.0 0.0 0.0 
0.0 0.0 0.0 
0.0 0.0 0.0 
0.0 0.0 0.0 
0.0 0.0 0.0 
0.0 0.0 0.0 
0.0 0.0 0.0 
0.0 0.0 0.0 
0.0 0.0 0.0 
0.0 0.0 0.0 
0.0 0.0 0.0 
0.0 0.0 0.0 
0.0 0.0 0.0 
0.0 0.0 0.0 
0.0 0.0 0.0 
0.0 0.0 0.0 
0.0 0.0 0.0 
0.0 0.0 0.0 
0.0 0.0 0.0 
0.0 0.0 0.0 
0.0 0.0 0.0 
0.0 0.0 0.0 
0.0 0.0 0.0 
0.0 0.0 0.0 
0.0 0.0 0.0 
0.0 0.0 0.0 
0.0 0.0 0.0 
0.0 0.0 0.0 
0.0 0.0 0.0 
0.0 0.0 0.0 
0.0 0.0 0.0 
0.0 0.0 0.0 
0.0 0.0 0.0 
0.0 0.0 0.0 
0.0 0.0 0.0 
0.0 0.0 0.0 
0.0 0.0 0.0 
0.0 0.0 0.0 
0.0 0.0 0.0 
0.0 0.0 0.0 
0.0 0.0 0.0 
0.0 0.0 0.0 
0.0 0.0 0.0 
0.0 0.0 0.0 
0.0 0.0 0.0 
0.0 0.0 0.0 
0.0 0.0 0.0 
0.0 0.0 0.0 
0.0 0.0 0.0 
0.0 0.0 0.0 
0.0 0.0 0.0 
0.0 0.0 0.0 
0.0 0.0 0.0 
0.0 0.0 0.0 
0.0 0.0 0.0 
0.0 0.0 0.0 
0.0 0.0 0.0 
0.0 0.0 0.0 
0.0 0.0 0.0 
0.0 0.0 0.0 
0.0 0.0 0.0 
0.0 0.0 0.0 
0.0 0.0 0.0 
0.0 0.0 0.0 
0.0 0.0 0.0 
0.0 0.0 0.0 
0.0 0.0 0.0 
0.0 0.0 0.0 
0.0 0.0 0.0 
0.0 0.0 0.0 
0.0 0.0 0.0 
0.0 0.0 0.0 
0.0 0.0 0.0 
0.0 0.0 0.0 
0.0 0.0 0.0 
0.0 0.0 0.0 
0.0 0.0 0.0 
0.0 0.0 0.0 
0.0 0.0 0.0 
0.0 0.0 0.0 
0.0 0.0 0.0 
0.0 0.0 0.0 
0.0 0.0 0.0 
0.0 0.0 0.0 
0.0 0.0 0.0 
0.0 0.0 0.0 
0.0 0.0 0.0 
0.0 0.0 0.0 
0.0 0.0 0.0 
0.0 0.0 0.0 
0.0 0.0 0.0 
0.0 0.0 0.0 
0.0 0.0 0.0 
0.0 0.0 0.0 
0.0 0.0 0.0 
0.0 0.0 0.0 
0.0 0.0 0.0 
0.0 0.0 0.0 
0.0 0.0 0.0 
0.0 0.0 0.0 
0.0 0.0 0.0 
0.0 0.0 0.0 
0.0 0.0 0.0 
0.0 0.0 0.0 
0.0 0.0 0.0 
0.0 0.0 0.0 
0.0 0.0 0.0 
0.0 0.0 0.0 
0.0 0.0 0.0 
0.0 0.0 0.0 
0.0 0.0 0.0 
0.0 0.0 0.0 
0.0 0.0 0.0 
0.0 0.0 0.0 
0.0 0.0 0.0 
0.0 0.0 0.0 
0.0 0.0 0.0 
0.0 0.0 0.0 
0.0 0.0 0.0 
0.0 0.0 0.0 
0.0 0.0 0.0 
0.0 0.0 0.0 
0.0 0.0 0.0 
0.0 0.0 0.0 
0.0 0.0 0.0 
0.0 0.0 0.0 
0.0 0.0 0.0 
0.0 0.0 0.0 
0.0 0.0 0.0 
0.0 0.0 0.0 
0.0 0.0 0.0 
0.0 0.0 0.0 
0.0 0.0 0.0 
0.0 0.0 0.0 
0.0 0.0 0.0 
0.0 0.0 0.0 
0.0 0.0 0.0 
0.0 0.0 0.0 
0.0 0.0 0.0 
0.0 0.0 0.0 
0.0 0.0 0.0 
0.0 0.0 0.0 
0.0 0.0 0.0 
0.0 0.0 0.0 
0.0 0.0 0.0 
0.0 0.0 0.0 
0.0 0.0 0.0 
0.0 0.0 0.0 
0.0 0.0 0.0 
0.0 0.0 0.0 
0.0 0.0 0.0 
0.0 0.0 0.0 
0.0 0.0 0.0 
0.0 0.0 0.0 
0.0 0.0 0.0 
0.0 0.0 0.0 
0.0 0.0 0.0 
0.0 0.0 0.0 
0.0 0.0 0.0 
0.0 0.0 0.0 
0.0 0.0 0.0 
0.0 0.0 0.0 
0.0 0.0 0.0 
0.0 0.0 0.0 
0.0 0.0 0.0 
0.0 0.0 0.0 
0.0 0.0 0.0 
0.0 0.0 0.0 
0.0 0.0 0.0 
0.0 0.0 0.0 
0.0 0.0 0.0 
0.0 0.0 0.0 
0.0 0.0 0.0 
0.0 0.0 0.0 
0.0 0.0 0.0 
0.0 0.0 0.0 
0.0 0.0 0.0 
0.0 0.0 0.0 
0.0 0.0 0.0 
0.0 0.0 0.0 
0.0 0.0 0.0 
0.0 0.0 0.0 
0.0 0.0 0.0 
0.0 0.0 0.0 
0.0 0.0 0.0 
0.0 0.0 0.0 
0.0 0.0 0.0 
0.0 0.0 0.0 
0.0 0.0 0.0 
0.0 0.0 0.0 
0.0 0.0 0.0 
0.0 0.0 0.0 
0.0 0.0 0.0 
0.0 0.0 0.0 
0.0 0.0 0.0 
0.0 0.0 0.0 
0.0 0.0 0.0 
0.0 0.0 0.0 
0.0 0.0 0.0 
0.0 0.0 0.0 
0.0 0.0 0.0 
0.0 0.0 0.0 
0.0 0.0 0.0 
0.0 0.0 0.0 
0.0 0.0 0.0 
0.0 0.0 0.0 
0.0 0.0 0.0 
0.0 0.0 0.0 
0.0 0.0 0.0 
0.0 0.0 0.0 
0.0 0.0 0.0 
0.0 0.0 0.0 
0.0 0.0 0.0 
0.0 0.0 0.0 
0.0 0.0 0.0 
0.0 0.0 0.0 

TENSORS element_materi_stress float
-4.967305069256e+01 -9.425835280769e-01 0.0 
-9.425835280769e-01 -1.186325714851e+02 0.0 
0.0 0.0 -5.009168665330e+01 
-4.989862336503e+01 1.055221781504e+00 0.0 
1.055221781504e+00 -1.166712590206e+02 0.0 
0.0 0.0 -4.957096471568e+01 
-1.564362698238e+02 1.240704220597e-01 0.0 
1.240704220597e-01 -3.658451498712e+02 0.0 
0.0 0.0 -1.562844259085e+02 
-1.545972944005e+02 7.004321237715e-01 0.0 
7.004321237715e-01 -3.622186986389e+02 0.0 
0.0 0.0 -1.546447979118e+02 
-9.655806720773e+01 -9.248399002684e-01 0.0 
-9.248399002684e-01 -2.266951869060e+02 0.0 
0.0 0.0 -9.657597623411e+01 
-1.880412872166e+01 -8.408075938589e-01 0.0 
-8.408075938589e-01 -4.577331169512e+01 0.0 
0.0 0.0 -1.897323212503e+01 
-9.688723860175e+01 -1.082019415502e+00 0.0 
-1.082019415502e+00 -2.270535197383e+02 0.0 
0.0 0.0 -9.678222750200e+01 
-4.805772570696e+01 -1.647305725775e-01 0.0 
-1.647305725775e-01 -1.136834260183e+02 0.0 
0.0 0.0 -4.812234551758e+01 
-9.680854723411e+01 1.152708478542e+00 0.0 
1.152708478542e+00 -2.273609743133e+02 0.0 
0.0 0.0 -9.685085646421e+01 
-1.540417271849e+02 -8.997244732537e-01 0.0 
-8.997244732537e-01 -3.606456861838e+02 0.0 
0.0 0.0 -1.540062240106e+02 
-1.067292797833e+02 -5.939744988867e-01 0.0 
-5.939744988867e-01 -2.501422205069e+02 0.0 
0.0 0.0 -1.066614500871e+02 
-4.223752979803e+01 -6.089213061675e-03 0.0 
-6.089213061675e-03 -1.000914201867e+02 0.0 
0.0 0.0 -4.229868499541e+01 
-1.550088150385e+02 -9.062688748334e-01 0.0 
-9.062688748334e-01 -3.628230876223e+02 0.0 
0.0 0.0 -1.549495707982e+02 
-1.037171959052e+02 -7.473291616448e-01 0.0 
-7.473291616448e-01 -2.432152150338e+02 0.0 
0.0 0.0 -1.036797232817e+02 
-1.584357063882e+02 7.344422329832e-01 0.0 
7.344422329832e-01 -3.709793169344e+02 0.0 
0.0 0.0 -1.584245069968e+02 
-1.579009223724e+02 -8.184311307285e-01 0.0 
-8.184311307285e-01 -3.701759047674e+02 0.0 
0.0 0.0 -1.580230481420e+02 
-9.452645250136e+01 -2.016513291251e-02 0.0 
-2.016513291251e-02 -2.222946420107e+02 0.0 
0.0 0.0 -9.464632835361e+01 
-1.897097755190e+01 8.184447903455e-01 0.0 
8.184447903455e-01 -4.525090860173e+01 0.0 
0.0 0.0 -1.886656584609e+01 
-3.173550483586e+01 4.827988760398e-01 0.0 
4.827988760398e-01 -7.625170948251e+01 0.0 
0.0 0.0 -3.199616429551e+01 
-3.337193276495e+01 -4.371832275741e-01 0.0 
-4.371832275741e-01 -7.917585365560e+01 0.0 
0.0 0.0 -3.336433592616e+01 
-1.543953088926e+02 9.108782792624e-01 0.0 
9.108782792624e-01 -3.612317701302e+02 0.0 
0.0 0.0 -1.542881237068e+02 
-5.615717491749e+01 -3.733541071225e-01 0.0 
-3.733541071225e-01 -1.323064322985e+02 0.0 
0.0 0.0 -5.613908216480e+01 
-6.070935872328e+01 3.995181822730e-01 0.0 
3.995181822730e-01 -1.431509514520e+02 0.0 
0.0 0.0 -6.075809305260e+01 
-1.487341606150e+02 6.082261128973e-01 0.0 
6.082261128973e-01 -3.483146539127e+02 0.0 
0.0 0.0 -1.487146443583e+02 
-1.111617577607e+02 -8.822902557775e-01 0.0 
-8.822902557775e-01 -2.603728635663e+02 0.0 
0.0 0.0 -1.110603863981e+02 
-1.123135167083e+02 5.814270925753e-01 0.0 
5.814270925753e-01 -2.633793067897e+02 0.0 
0.0 0.0 -1.123078470494e+02 
-8.741608703514e+01 7.148274424708e-02 0.0 
7.148274424708e-02 -2.052618515479e+02 0.0 
0.0 0.0 -8.740338157491e+01 
-1.567936036655e+02 -5.252542848746e-02 0.0 
-5.252542848746e-02 -3.674266562085e+02 0.0 
0.0 0.0 -1.568660779622e+02 
-1.111484010154e+02 1.014358073745e+00 0.0 
1.014358073745e+00 -2.606003441762e+02 0.0 
0.0 0.0 -1.111246235575e+02 
-1.520725910797e+02 -6.034935829575e-01 0.0 
-6.034935829575e-01 -3.564572755871e+02 0.0 
0.0 0.0 -1.521589600000e+02 
-2.472494989631e+01 -1.182469689877e-01 0.0 
-1.182469689877e-01 -5.899086286891e+01 0.0 
0.0 0.0 -2.471474382957e+01 
-1.031076509655e+01 -1.216800834236e-01 0.0 
-1.216800834236e-01 -2.572946919032e+01 0.0 
0.0 0.0 -1.041207028606e+01 
-1.560939794911e+02 -2.229046787966e-01 0.0 
-2.229046787966e-01 -3.663525859017e+02 0.0 
0.0 0.0 -1.563339696178e+02 
-1.334140011883e+02 7.389653507283e-01 0.0 
7.389653507283e-01 -3.125203876300e+02 0.0 
0.0 0.0 -1.333803166455e+02 
-1.548713977359e+02 8.332780259166e-01 0.0 
8.332780259166e-01 -3.620211592663e+02 0.0 
0.0 0.0 -1.546677671007e+02 
-1.620419618605e+02 -1.553512982099e+00 0.0 
-1.553512982099e+00 -3.799392857584e+02 0.0 
0.0 0.0 -1.621943742857e+02 
-1.620926449935e+02 1.635915693460e+00 0.0 
1.635915693460e+00 -3.796798740469e+02 0.0 
0.0 0.0 -1.621317557121e+02 
-1.553916736030e+02 -7.048657755850e-01 0.0 
-7.048657755850e-01 -3.635499947745e+02 0.0 
0.0 0.0 -1.552825005132e+02 
-8.876692487819e+01 1.271626294986e+00 0.0 
1.271626294986e+00 -2.081420894771e+02 0.0 
0.0 0.0 -8.867270430659e+01 
-8.904131379319e+01 -1.431854588509e+00 0.0 
-1.431854588509e+00 -2.088928545047e+02 0.0 
0.0 0.0 -8.898025048937e+01 
-6.951145258331e+01 5.458666052489e-01 0.0 
5.458666052489e-01 -1.634955892761e+02 0.0 
0.0 0.0 -6.950211255781e+01 
-1.568704240028e+02 -4.249957836825e-02 0.0 
-4.249957836825e-02 -3.668860594773e+02 0.0 
0.0 0.0 -1.567269450440e+02 
-3.650077557313e+01 -8.767086083464e-01 0.0 
-8.767086083464e-01 -8.654855102456e+01 0.0 
0.0 0.0 -3.651479797931e+01 
-8.784578795078e+01 -2.237746169299e-01 0.0 
-2.237746169299e-01 -2.059821511949e+02 0.0 
0.0 0.0 -8.774838174370e+01 
-1.497836875247e+02 3.934282895028e-01 0.0 
3.934282895028e-01 -3.511571396828e+02 0.0 
0.0 0.0 -1.498822481622e+02 
-3.640968450487e+01 7.576022540312e-01 0.0 
7.576022540312e-01 -8.629680417523e+01 0.0 
0.0 0.0 -3.641194660403e+01 
-1.809689303608e+01 4.309193778497e-02 0.0 
4.309193778497e-02 -4.346389507041e+01 0.0 
0.0 0.0 -1.806823643195e+01 
-1.508745746141e+02 -2.535669683122e-01 0.0 
-2.535669683122e-01 -3.529949798430e+02 0.0 
0.0 0.0 -1.507608663371e+02 
-1.099989699853e+01 1.376253655560e-02 0.0 
1.376253655560e-02 -2.591051823399e+01 0.0 
0.0 0.0 -1.106299800106e+01 
-1.002440837871e+02 7.252650084309e-01 0.0 
7.252650084309e-01 -2.346832654687e+02 0.0 
0.0 0.0 -1.000782047767e+02 
-6.517688242997e+01 4.526170353991e-01 0.0 
4.526170353991e-01 -1.535413264036e+02 0.0 
0.0 0.0 -6.521546265008e+01 
-4.053119217201e+01 2.878454298244e-01 0.0 
2.878454298244e-01 -9.576862932937e+01 0.0 
0.0 0.0 -4.048994645041e+01 
-3.448575693353e+01 5.948763522338e-01 0.0 
5.948763522338e-01 -8.184621544720e+01 0.0 
0.0 0.0 -3.449959171422e+01 
-6.481974751702e+01 -5.214767042314e-01 0.0 
-5.214767042314e-01 -1.523977197222e+02 0.0 
0.0 0.0 -6.476524017177e+01 
-1.570669139312e+02 3.131055956014e-02 0.0 
3.131055956014e-02 -3.674045163520e+02 0.0 
0.0 0.0 -1.569414290850e+02 
-5.348267253803e+01 5.846152201818e-01 0.0 
5.846152201818e-01 -1.263524723547e+02 0.0 
0.0 0.0 -5.355054346783e+01 
-4.195509016967e+01 -5.758137370792e-01 0.0 
-5.758137370792e-01 -9.901755508064e+01 0.0 
0.0 0.0 -4.189179357509e+01 
-1.333829198051e+02 -7.329074521253e-01 0.0 
-7.329074521253e-01 -3.125649589652e+02 0.0 
0.0 0.0 -1.333843636311e+02 
-2.445375689775e+01 -8.512131280038e-02 0.0 
-8.512131280038e-02 -5.855269258847e+01 0.0 
0.0 0.0 -2.450193484587e+01 
-1.580440512421e+02 8.247338801026e-01 0.0 
8.247338801026e-01 -3.702706595455e+02 0.0 
0.0 0.0 -1.580944132363e+02 
-9.072698058282e+00 4.930320250883e-01 0.0 
4.930320250883e-01 -2.251158878224e+01 0.0 
0.0 0.0 -9.075286052158e+00 
-1.486691129822e+02 -9.151361594644e-01 0.0 
-9.151361594644e-01 -3.481320415271e+02 0.0 
0.0 0.0 -1.486403463528e+02 
-6.507235708939e+01 -9.064930070121e-01 0.0 
-9.064930070121e-01 -1.531956675583e+02 0.0 
0.0 0.0 -6.508040739431e+01 
-3.105139077010e+01 -4.775967733138e-01 0.0 
-4.775967733138e-01 -7.338905595705e+01 0.0 
0.0 0.0 -3.093213401815e+01 
-1.548009660466e+02 7.309856985564e-01 0.0 
7.309856985564e-01 -3.624332402617e+02 0.0 
0.0 0.0 -1.547702618925e+02 
-6.014749127054e+01 -4.223236421820e-01 0.0 
-4.223236421820e-01 -1.418942850800e+02 0.0 
0.0 0.0 -6.021253290517e+01 
-9.470766858351e+00 -2.076320835238e-01 0.0 
-2.076320835238e-01 -2.134143471848e+01 0.0 
0.0 0.0 -9.545614427802e+00 
-1.562961807682e+02 3.185024080936e-01 0.0 
3.185024080936e-01 -3.661113708002e+02 0.0 
0.0 0.0 -1.563222654705e+02 
-2.652992981573e+01 8.489300807763e-01 0.0 
8.489300807763e-01 -6.335921404222e+01 0.0 
0.0 0.0 -2.656674315739e+01 
-1.568681934401e+02 1.572107798413e-02 0.0 
1.572107798413e-02 -3.671224608037e+02 0.0 
0.0 0.0 -1.567971962731e+02 
-1.169274834345e+02 6.791375034578e-01 0.0 
6.791375034578e-01 -2.739856470844e+02 0.0 
0.0 0.0 -1.168739391557e+02 
-1.638027268285e+02 1.838340514998e-02 0.0 
1.838340514998e-02 -3.835396959331e+02 0.0 
0.0 0.0 -1.638027268285e+02 
-1.505341939455e+02 -6.467866971691e-03 0.0 
-6.467866971691e-03 -3.527041067605e+02 0.0 
0.0 0.0 -1.505714902118e+02 
-1.235300545473e+01 -9.513364915067e-01 0.0 
-9.513364915067e-01 -2.967119646097e+01 0.0 
0.0 0.0 -1.220726057471e+01 
-5.578747475109e+01 -6.077023639980e-01 0.0 
-6.077023639980e-01 -1.317306526651e+02 0.0 
0.0 0.0 -5.585543822486e+01 
-1.554784100659e+02 6.934972641688e-01 0.0 
6.934972641688e-01 -3.638890771570e+02 0.0 
0.0 0.0 -1.554102461669e+02 
-1.567287999026e+02 2.166989625583e-02 0.0 
2.166989625583e-02 -3.673961854537e+02 0.0 
0.0 0.0 -1.568374956069e+02 
-2.784573230062e+01 7.291119610750e-01 0.0 
7.291119610750e-01 -6.622023979117e+01 0.0 
0.0 0.0 -2.781979162754e+01 
-2.490643461905e+01 5.224185841570e-02 0.0 
5.224185841570e-02 -5.886308516268e+01 0.0 
0.0 0.0 -2.473085593452e+01 
-2.772941237419e+01 -8.160677270616e-01 0.0 
-8.160677270616e-01 -6.626399382053e+01 0.0 
0.0 0.0 -2.779802185842e+01 
-2.621651744515e+01 -8.746673194277e-01 0.0 
-8.746673194277e-01 -6.284625893111e+01 0.0 
0.0 0.0 -2.631883291288e+01 
-9.481800889816e+01 -1.295937259884e-01 0.0 
-1.295937259884e-01 -2.221444875838e+02 0.0 
0.0 0.0 -9.468874894460e+01 
-5.646767038028e+01 3.968366430119e-01 0.0 
3.968366430119e-01 -1.335574493984e+02 0.0 
0.0 0.0 -5.660753593360e+01 
-5.090809043566e+01 -8.998409123141e-02 0.0 
-8.998409123141e-02 -1.204047540273e+02 0.0 
0.0 0.0 -5.099385333888e+01 
-1.009773781699e+02 9.878491761232e-01 0.0 
9.878491761232e-01 -2.374921513430e+02 0.0 
0.0 0.0 -1.011408588539e+02 
-1.011394428372e+02 -8.948048634192e-01 0.0 
-8.948048634192e-01 -2.375342517328e+02 0.0 
0.0 0.0 -1.012021083710e+02 
-1.204528946724e+02 7.404331382268e-01 0.0 
7.404331382268e-01 -2.824624919706e+02 0.0 
0.0 0.0 -1.204746159929e+02 
-1.298060999332e+02 -7.789911976433e-01 0.0 
-7.789911976433e-01 -3.041292662350e+02 0.0 
0.0 0.0 -1.297806098505e+02 
-1.334261335832e+02 8.421563789835e-01 0.0 
8.421563789835e-01 -3.127012981871e+02 0.0 
0.0 0.0 -1.334382295311e+02 
-9.629955700896e+01 1.175959118914e+00 0.0 
1.175959118914e+00 -2.259157072093e+02 0.0 
0.0 0.0 -9.626457926549e+01 
-1.094859178100e+01 -1.317458113395e-01 0.0 
-1.317458113395e-01 -2.574462731361e+01 0.0 
0.0 0.0 -1.096408094771e+01 
-9.521220885859e+01 -8.516475631608e-02 0.0 
-8.516475631608e-02 -2.233777622183e+02 0.0 
0.0 0.0 -9.517699132306e+01 
-1.301429331108e+02 4.414960113868e-01 0.0 
4.414960113868e-01 -3.052971317129e+02 0.0 
0.0 0.0 -1.302320194471e+02 
-1.287453599732e+02 -4.514295844743e-01 0.0 
-4.514295844743e-01 -3.017281297223e+02 0.0 
0.0 0.0 -1.287420469086e+02 
-1.637581993669e+02 8.461574003235e-02 0.0 
8.461574003235e-02 -3.836616437062e+02 0.0 
0.0 0.0 -1.638259529219e+02 
-1.593057576882e+02 5.961435490295e-01 0.0 
5.961435490295e-01 -3.732148981547e+02 0.0 
0.0 0.0 -1.593561967529e+02 
-9.463039330579e+01 4.392718070354e-01 0.0 
4.392718070354e-01 -2.216646058619e+02 0.0 
0.0 0.0 -9.448849975031e+01 
-1.564543847559e+02 5.007441558058e-03 0.0 
5.007441558058e-03 -3.669706018747e+02 0.0 
0.0 0.0 -1.566274959892e+02 
-1.096963048466e+02 6.196971794606e-01 0.0 
6.196971794606e-01 -2.570515975244e+02 0.0 
0.0 0.0 -1.096243707113e+02 
-6.215765006697e+01 5.533997483890e-01 0.0 
5.533997483890e-01 -1.462400775213e+02 0.0 
0.0 0.0 -6.211931827648e+01 
-9.272068506479e+01 7.251553645204e-01 0.0 
7.251553645204e-01 -2.174019070799e+02 0.0 
0.0 0.0 -9.263677764340e+01 
-1.581702032977e+02 -7.760360332323e-01 0.0 
-7.760360332323e-01 -3.707307737088e+02 0.0 
0.0 0.0 -1.582702931019e+02 
-1.279305557147e+02 8.890009578040e-01 0.0 
8.890009578040e-01 -2.998003818083e+02 0.0 
0.0 0.0 -1.279192812569e+02 
-1.487817633726e+02 8.617304911608e-01 0.0 
8.617304911608e-01 -3.485845509751e+02 0.0 
0.0 0.0 -1.488098943043e+02 
-5.621911875614e+01 8.170605610703e-01 0.0 
8.170605610703e-01 -1.325756462761e+02 0.0 
0.0 0.0 -5.623842950966e+01 
-1.773448328941e+01 -2.112269740904e-01 0.0 
-2.112269740904e-01 -4.283736063491e+01 0.0 
0.0 0.0 -1.777155317729e+01 
-1.461565771862e+02 7.995302980535e-01 0.0 
7.995302980535e-01 -3.422574299232e+02 0.0 
0.0 0.0 -1.461242021328e+02 
-1.366370584723e+02 -2.928815294678e-01 0.0 
-2.928815294678e-01 -3.204499004904e+02 0.0 
0.0 0.0 -1.367260876888e+02 
-1.016702311799e+01 2.193601375421e-01 0.0 
2.193601375421e-01 -2.545125476715e+01 0.0 
0.0 0.0 -1.028548336554e+01 
-1.576643277768e+02 3.438638092183e-01 0.0 
3.438638092183e-01 -3.683995504349e+02 0.0 
0.0 0.0 -1.574191634635e+02 
-1.283155793049e+02 -7.340618399527e-01 0.0 
-7.340618399527e-01 -3.008172661419e+02 0.0 
0.0 0.0 -1.283398536340e+02 
-9.082644153154e+00 5.378093038844e-01 0.0 
5.378093038844e-01 -2.199419147672e+01 0.0 
0.0 0.0 -8.923050688962e+00 
-7.529325519249e+01 -8.382352040581e-01 0.0 
-8.382352040581e-01 -1.770018832285e+02 0.0 
0.0 0.0 -7.528854152630e+01 
-8.657402042646e+01 5.878402971775e-01 0.0 
5.878402971775e-01 -2.032118361370e+02 0.0 
0.0 0.0 -8.653575696903e+01 
-6.791798424243e+01 2.857696144734e-01 0.0 
2.857696144734e-01 -1.599484306261e+02 0.0 
0.0 0.0 -6.795992446055e+01 
-5.697897002943e+01 -6.713024996532e-01 0.0 
-6.713024996532e-01 -1.338753342875e+02 0.0 
0.0 0.0 -5.685629129507e+01 
-6.519856414296e+01 9.008531283707e-01 0.0 
9.008531283707e-01 -1.534431928499e+02 0.0 
0.0 0.0 -6.519252709785e+01 
-1.572937773014e+02 -4.449029795250e-01 0.0 
-4.449029795250e-01 -3.686681689924e+02 0.0 
0.0 0.0 -1.573885838881e+02 
-1.070171168277e+02 -7.468816012591e-01 0.0 
-7.468816012591e-01 -2.505189401991e+02 0.0 
0.0 0.0 -1.068608171080e+02 
-6.056996760792e+01 -9.448953817730e-01 0.0 
-9.448953817730e-01 -1.425780808412e+02 0.0 
0.0 0.0 -6.054441453474e+01 
-2.528516729263e+01 9.292938564316e-01 0.0 
9.292938564316e-01 -6.054996066087e+01 0.0 
0.0 0.0 -2.535053838605e+01 
-9.475908394668e+01 -5.162157143390e-01 0.0 
-5.162157143390e-01 -2.221143646592e+02 0.0 
0.0 0.0 -9.466203458177e+01 
-1.378264168067e+02 3.677150738185e-01 0.0 
3.677150738185e-01 -3.222518094555e+02 0.0 
0.0 0.0 -1.376234678787e+02 
-6.059521379434e+01 1.006624129957e+00 0.0 
1.006624129957e+00 -1.427228500862e+02 0.0 
0.0 0.0 -6.059541916416e+01 
-1.929367458063e+01 5.868970843360e-01 0.0 
5.868970843360e-01 -4.579154844599e+01 0.0 
0.0 0.0 -1.912556690799e+01 
-7.801406400774e+01 6.088301744776e-01 0.0 
6.088301744776e-01 -1.833640920276e+02 0.0 
0.0 0.0 -7.801344681060e+01 
-6.708316783266e+01 -2.892616672604e-01 0.0 
-2.892616672604e-01 -1.584809192621e+02 0.0 
0.0 0.0 -6.726922612842e+01 
-7.353087038714e+01 -6.273644063902e-01 0.0 
-6.273644063902e-01 -1.727938771769e+02 0.0 
0.0 0.0 -7.349742426922e+01 
-1.586686038680e+02 -6.651797099345e-01 0.0 
-6.651797099345e-01 -3.715860538102e+02 0.0 
0.0 0.0 -1.586763973034e+02 
-2.236450100404e+01 -7.287033242952e-01 0.0 
-7.287033242952e-01 -5.367037869123e+01 0.0 
0.0 0.0 -2.241046390858e+01 
-1.119496041742e+02 -6.758674374298e-01 0.0 
-6.758674374298e-01 -2.623426600992e+02 0.0 
0.0 0.0 -1.118876792820e+02 
-1.545017754316e+02 -9.209264256873e-01 0.0 
-9.209264256873e-01 -3.622467028882e+02 0.0 
0.0 0.0 -1.546245434959e+02 
-7.889513090367e+01 -7.068710307049e-01 0.0 
-7.068710307049e-01 -1.854739058304e+02 0.0 
0.0 0.0 -7.891071102022e+01 
-7.385865857683e+01 6.197730222510e-01 0.0 
6.197730222510e-01 -1.736908556890e+02 0.0 
0.0 0.0 -7.386485427976e+01 
-1.547289679886e+02 -1.012342616353e+00 0.0 
-1.012342616353e+00 -3.620131181500e+02 0.0 
0.0 0.0 -1.546226258416e+02 
-1.552568487277e+02 1.051529695869e+00 0.0 
1.051529695869e+00 -3.634633677183e+02 0.0 
0.0 0.0 -1.552160649338e+02 
-1.204816966064e+02 -7.121048847852e-01 0.0 
-7.121048847852e-01 -2.825310284789e+02 0.0 
0.0 0.0 -1.205038175256e+02 
-8.352975007168e+01 7.023205338501e-01 0.0 
7.023205338501e-01 -1.963020699195e+02 0.0 
0.0 0.0 -8.354954599736e+01 
-1.573369310928e+02 -2.946330405456e-01 0.0 
-2.946330405456e-01 -3.684982398329e+02 0.0 
0.0 0.0 -1.573505512777e+02 
-7.559924335466e+01 -7.192222169359e-01 0.0 
-7.192222169359e-01 -1.777817526961e+02 0.0 
0.0 0.0 -7.561429881522e+01 
-1.573052074609e+02 3.120345143153e-02 0.0 
3.120345143153e-02 -3.676014336923e+02 0.0 
0.0 0.0 -1.570719923460e+02 
-1.568975425501e+02 -3.054006888232e-01 0.0 
-3.054006888232e-01 -3.676636576428e+02 0.0 
0.0 0.0 -1.569683600579e+02 
-1.033492820984e+02 1.079449441975e+00 0.0 
1.079449441975e+00 -2.425393016676e+02 0.0 
0.0 0.0 -1.033665751298e+02 
-1.200509516727e+02 -7.813255898639e-01 0.0 
-7.813255898639e-01 -2.811762305280e+02 0.0 
0.0 0.0 -1.199681546602e+02 
-7.564286504761e+01 7.326962976693e-01 0.0 
7.326962976693e-01 -1.778876167066e+02 0.0 
0.0 0.0 -7.565914452626e+01 
-6.912286919350e+01 -6.535482844493e-01 0.0 
-6.535482844493e-01 -1.628131556331e+02 0.0 
0.0 0.0 -6.918080744798e+01 
-8.672548820389e+01 -7.249354191781e-01 0.0 
-7.249354191781e-01 -2.037915659930e+02 0.0 
0.0 0.0 -8.675511625908e+01 
-6.437415657119e+01 6.768358332806e-01 0.0 
6.768358332806e-01 -1.515974554142e+02 0.0 
0.0 0.0 -6.439148359561e+01 
-9.385018716186e+01 7.880821942113e-01 0.0 
7.880821942113e-01 -2.202329935000e+02 0.0 
0.0 0.0 -9.382495419855e+01 
-7.541256662843e+01 8.662909759292e-01 0.0 
8.662909759292e-01 -1.773516520048e+02 0.0 
0.0 0.0 -7.542926558998e+01 
-1.078307206964e+01 2.689183040559e-01 0.0 
2.689183040559e-01 -2.517826930350e+01 0.0 
0.0 0.0 -1.080658000404e+01 
-1.001715189400e+02 5.413227286960e-02 0.0 
5.413227286960e-02 -2.352002968519e+02 0.0 
0.0 0.0 -1.002115447376e+02 
-2.465583618348e+01 -1.696093802887e-02 0.0 
-1.696093802887e-02 -5.975943283573e+01 0.0 
0.0 0.0 -2.492458070576e+01 
-8.228747533441e+01 6.152194136201e-01 0.0 
6.152194136201e-01 -1.933788226503e+02 0.0 
0.0 0.0 -8.229988939540e+01 
-1.573486876666e+02 -1.852334717559e-02 0.0 
-1.852334717559e-02 -3.679978576430e+02 0.0 
0.0 0.0 -1.572039635929e+02 
-5.605142933189e+01 -9.157341498789e-01 0.0 
-9.157341498789e-01 -1.323209455390e+02 0.0 
0.0 0.0 -5.611171246127e+01 
-1.249384235623e+02 -8.199040776628e-01 0.0 
-8.199040776628e-01 -2.928453373814e+02 0.0 
0.0 0.0 -1.249351282831e+02 
-4.075366654769e+01 8.885425880891e-01 0.0 
8.885425880891e-01 -9.627657668964e+01 0.0 
0.0 0.0 -4.070907297120e+01 
-1.278058883820e+02 -9.500355316767e-01 0.0 
-9.500355316767e-01 -2.995094281939e+02 0.0 
0.0 0.0 -1.277945949728e+02 
-9.438985170143e+01 -2.652590744508e-02 0.0 
-2.652590744508e-02 -2.218857381209e+02 0.0 
0.0 0.0 -9.448267694669e+01 
-7.064603542492e+01 -8.360177011370e-01 0.0 
-8.360177011370e-01 -1.662228986849e+02 0.0 
0.0 0.0 -7.066068023295e+01 
-1.374880102432e+02 8.657025876575e-01 0.0 
8.657025876575e-01 -3.221567783667e+02 0.0 
0.0 0.0 -1.374934365829e+02 
-2.539326918015e+01 -7.080500341748e-01 0.0 
-7.080500341748e-01 -6.015184132583e+01 0.0 
0.0 0.0 -2.526353315179e+01 
-1.461149744572e+02 -8.829054755629e-01 0.0 
-8.829054755629e-01 -3.419854049790e+02 0.0 
0.0 0.0 -1.460301138309e+02 
-9.308672070143e+01 -7.227527371703e-01 0.0 
-7.227527371703e-01 -2.186922816288e+02 0.0 
0.0 0.0 -9.313370069905e+01 
-1.567691644366e+02 -5.278972381156e-02 0.0 
-5.278972381156e-02 -3.675024912217e+02 0.0 
0.0 0.0 -1.568814966975e+02 
-9.400687929743e+01 -9.775525964006e-02 0.0 
-9.775525964006e-02 -2.208060568238e+02 0.0 
0.0 0.0 -9.404388083636e+01 
-5.918827153621e+01 -6.526450967544e-01 0.0 
-6.526450967544e-01 -1.395563953256e+02 0.0 
0.0 0.0 -5.922340005856e+01 
-8.217187392106e+01 -6.211507906782e-01 0.0 
-6.211507906782e-01 -1.926387831946e+02 0.0 
0.0 0.0 -8.204319713471e+01 
-1.067627211872e+02 5.000562948321e-01 0.0 
5.000562948321e-01 -2.512029591897e+02 0.0 
0.0 0.0 -1.069897041131e+02 
-4.087356346002e+01 -9.950149549471e-01 0.0 
-9.950149549471e-01 -9.708445276429e+01 0.0 
0.0 0.0 -4.098740486729e+01 
-7.082314737125e+01 8.443940518519e-01 0.0 
8.443940518519e-01 -1.666241936715e+02 0.0 
0.0 0.0 -7.083420231282e+01 
-1.243734196452e+02 9.293304657861e-01 0.0 
9.293304657861e-01 -2.916638969619e+02 0.0 
0.0 0.0 -1.244111949821e+02 
-9.380010206803e+01 -6.196323390711e-01 0.0 
-6.196323390711e-01 -2.206134541533e+02 0.0 
0.0 0.0 -9.392406686640e+01 
-6.707907872805e+01 -6.868648160092e-01 0.0 
-6.868648160092e-01 -1.578844883230e+02 0.0 
0.0 0.0 -6.708907011530e+01 
-7.760733295635e+01 -5.868527399052e-01 0.0 
-5.868527399052e-01 -1.825198439237e+02 0.0 
0.0 0.0 -7.763815306402e+01 
-1.393650419974e+02 -8.292456284422e-01 0.0 
-8.292456284422e-01 -3.263988419421e+02 0.0 
0.0 0.0 -1.393291651819e+02 
-7.512295899629e+01 2.262213193215e-01 0.0 
2.262213193215e-01 -1.767608170260e+02 0.0 
0.0 0.0 -7.516513280670e+01 
-1.572344521478e+02 -2.146931881608e-01 0.0 
-2.146931881608e-01 -3.677974336179e+02 0.0 
0.0 0.0 -1.571095657297e+02 
-1.567600201266e+02 1.389770578705e-01 0.0 
1.389770578705e-01 -3.673232697483e+02 0.0 
0.0 0.0 -1.568249869625e+02 
-5.452831594571e+01 5.483216029063e-01 0.0 
5.483216029063e-01 -1.285022353169e+02 0.0 
0.0 0.0 -5.450916537877e+01 
-7.589670845211e+01 -2.887370522759e-01 0.0 
-2.887370522759e-01 -1.779072422510e+02 0.0 
0.0 0.0 -7.574118521094e+01 
-1.415287657525e+02 7.809635165341e-01 0.0 
7.809635165341e-01 -3.316982256421e+02 0.0 
0.0 0.0 -1.415680974184e+02 
-7.246781895519e+01 6.281152981456e-01 0.0 
6.281152981456e-01 -1.704778093121e+02 0.0 
0.0 0.0 -7.248368848017e+01 
-4.873192251132e+01 -6.619496576941e-01 0.0 
-6.619496576941e-01 -1.154604037328e+02 0.0 
0.0 0.0 -4.885769787323e+01 
-8.972048268555e+01 -7.127864173447e-01 0.0 
-7.127864173447e-01 -2.108104141060e+02 0.0 
0.0 0.0 -8.975926903747e+01 
-7.232387267093e+01 6.786862613951e-01 0.0 
6.786862613951e-01 -1.701054390899e+02 0.0 
0.0 0.0 -7.232879352824e+01 
-1.565075440827e+02 -4.946897695845e-01 0.0 
-4.946897695845e-01 -3.667775421071e+02 0.0 
0.0 0.0 -1.565855258570e+02 
-1.295275353507e+02 -7.775791028030e-01 0.0 
-7.775791028030e-01 -3.035575665749e+02 0.0 
0.0 0.0 -1.295255305777e+02 
-1.419219418621e+02 -9.165489107289e-01 0.0 
-9.165489107289e-01 -3.323812114070e+02 0.0 
0.0 0.0 -1.418909459807e+02 
-3.213131338827e+01 8.573106441412e-01 0.0 
8.573106441412e-01 -7.635940969641e+01 0.0 
0.0 0.0 -3.214721692540e+01 
-6.638826664139e+01 7.841291523168e-01 0.0 
7.841291523168e-01 -1.562609159864e+02 0.0 
0.0 0.0 -6.639475478833e+01 
-1.331858694476e+02 -7.782470493651e-01 0.0 
-7.782470493651e-01 -3.120039527538e+02 0.0 
0.0 0.0 -1.331569466604e+02 
-2.407723248782e+00 -2.856609470584e-02 0.0 
-2.856609470584e-02 -6.674696639710e+00 0.0 
0.0 0.0 -2.324725966547e+00 
-7.239243270215e+01 -6.254238158297e-01 0.0 
-6.254238158297e-01 -1.704113418422e+02 0.0 
0.0 0.0 -7.244113236331e+01 
-1.325436700726e+02 9.270934530885e-01 0.0 
9.270934530885e-01 -3.106072614671e+02 0.0 
0.0 0.0 -1.325452794619e+02 
-1.709626010936e+01 3.640288783037e-01 0.0 
3.640288783037e-01 -4.221619351873e+01 0.0 
0.0 0.0 -1.739373608843e+01 
-1.550508963417e+02 -9.442767784634e-01 0.0 
-9.442767784634e-01 -3.626114618766e+02 0.0 
0.0 0.0 -1.548987074655e+02 
-1.188386610466e+02 -7.814663029857e-01 0.0 
-7.814663029857e-01 -2.785240662788e+02 0.0 
0.0 0.0 -1.188088181976e+02 
-7.138132768969e+01 -7.509380246420e-01 0.0 
-7.509380246420e-01 -1.678512484410e+02 0.0 
0.0 0.0 -7.136977283921e+01 
-1.324188290346e+02 -9.610571986574e-01 0.0 
-9.610571986574e-01 -3.103703798408e+02 0.0 
0.0 0.0 -1.324367626626e+02 
-1.013914390488e+02 3.955771558368e-02 0.0 
3.955771558368e-02 -2.378039897721e+02 0.0 
0.0 0.0 -1.013586286462e+02 
-1.083851206561e+02 6.462580223325e-01 0.0 
6.462580223325e-01 -2.535963127043e+02 0.0 
0.0 0.0 -1.081944300081e+02 
-1.520300445122e+02 5.689575993930e-01 0.0 
5.689575993930e-01 -3.559987711635e+02 0.0 
0.0 0.0 -1.520086447027e+02 
-5.355595993593e+01 -8.125778751822e-01 0.0 
-8.125778751822e-01 -1.262352134212e+02 0.0 
0.0 0.0 -5.353735200715e+01 
-9.013054100494e+01 -7.422956861591e-01 0.0 
-7.422956861591e-01 -2.117111663466e+02 0.0 
0.0 0.0 -9.015251220547e+01 
-9.656192004906e+01 -7.085515068521e-01 0.0 
-7.085515068521e-01 -2.267473074783e+02 0.0 
0.0 0.0 -9.659276825821e+01 
-1.235365263858e+02 7.699921193965e-01 0.0 
7.699921193965e-01 -2.895554226440e+02 0.0 
0.0 0.0 -1.235275847090e+02 
-9.758991814836e+01 7.291132093586e-01 0.0 
7.291132093586e-01 -2.292443781689e+02 0.0 
0.0 0.0 -9.765028889517e+01 
-8.977069068833e+01 6.449648561394e-01 0.0 
6.449648561394e-01 -2.108209176112e+02 0.0 
0.0 0.0 -8.977748248987e+01 
-1.149566447818e+02 7.927058564023e-01 0.0 
7.927058564023e-01 -2.695866734339e+02 0.0 
0.0 0.0 -1.149629954647e+02 
-1.355936231334e+02 8.317534964868e-01 0.0 
8.317534964868e-01 -3.177615176417e+02 0.0 
0.0 0.0 -1.356065422325e+02 
-9.934133002970e+00 1.253253290727e-03 0.0 
1.253253290727e-03 -2.449537661701e+01 0.0 
0.0 0.0 -9.928852885993e+00 
-5.486258054818e+01 -4.333617834537e-01 0.0 
-4.333617834537e-01 -1.288164206314e+02 0.0 
0.0 0.0 -5.470370035388e+01 
-6.186104111762e+01 -7.436859071169e-01 0.0 
-7.436859071169e-01 -1.458117602268e+02 0.0 
0.0 0.0 -6.190184040334e+01 
-8.687939514216e+01 7.205974915077e-01 0.0 
7.205974915077e-01 -2.041383635611e+02 0.0 
0.0 0.0 -8.690532761098e+01 
-1.344993761903e+02 8.415980653076e-01 0.0 
8.415980653076e-01 -3.151683438364e+02 0.0 
0.0 0.0 -1.345003160080e+02 
-2.828695913511e+01 -7.135833048887e-01 0.0 
-7.135833048887e-01 -6.677553022854e+01 0.0 
0.0 0.0 -2.811874680910e+01 
-1.278599377319e+02 8.851409078708e-01 0.0 
8.851409078708e-01 -2.996541104718e+02 0.0 
0.0 0.0 -1.278542144611e+02 
-9.346888617950e+01 9.390422214247e-01 0.0 
9.390422214247e-01 -2.192891915630e+02 0.0 
0.0 0.0 -9.342742332276e+01 
-6.620200243198e+01 -7.907258846064e-01 0.0 
-7.907258846064e-01 -1.558643671627e+02 0.0 
0.0 0.0 -6.621991087839e+01 
-1.232189969913e+02 8.417663378932e-01 0.0 
8.417663378932e-01 -2.888339049965e+02 0.0 
0.0 0.0 -1.232158705964e+02 
-1.191641263085e+01 8.061621934185e-01 0.0 
8.061621934185e-01 -2.875733764678e+01 0.0 
0.0 0.0 -1.180212508329e+01 
-1.270165423348e+02 -8.131424243851e-01 0.0 
-8.131424243851e-01 -2.976424130083e+02 0.0 
0.0 0.0 -1.269976866029e+02 
-9.857755356091e+00 -2.556962830408e-01 0.0 
-2.556962830408e-01 -2.383279462558e+01 0.0 
0.0 0.0 -9.707164994502e+00 
-1.789897784809e+01 3.948189100864e-02 0.0 
3.948189100864e-02 -4.289322892090e+01 0.0 
0.0 0.0 -1.783766203070e+01 
-3.233115642141e+01 -9.389822518977e-01 0.0 
-9.389822518977e-01 -7.657481457437e+01 0.0 
0.0 0.0 -3.227179129873e+01 
-4.524577199023e+01 -6.889358195137e-01 0.0 
-6.889358195137e-01 -1.068956587916e+02 0.0 
0.0 0.0 -4.524242923456e+01 
-1.317209870353e+02 7.442360686374e-01 0.0 
7.442360686374e-01 -3.086717816607e+02 0.0 
0.0 0.0 -1.317178306088e+02 
-4.234489017837e+01 7.805965773710e-01 0.0 
7.805965773710e-01 -1.001868408205e+02 0.0 
0.0 0.0 -4.235951929965e+01 
-3.907232134961e+01 -7.211438105775e-01 0.0 
-7.211438105775e-01 -9.251645465725e+01 0.0 
0.0 0.0 -3.907663280206e+01 
-3.316071564077e+01 7.374896758288e-01 0.0 
7.374896758288e-01 -7.869253344445e+01 0.0 
0.0 0.0 -3.315597472556e+01 
-2.865967874031e+01 -7.524712825217e-01 0.0 
-7.524712825217e-01 -6.822237279998e+01 0.0 
0.0 0.0 -2.866461546209e+01 
-1.367995625960e+02 -8.024567613538e-01 0.0 
-8.024567613538e-01 -3.206106696706e+02 0.0 
0.0 0.0 -1.368230696800e+02 
-9.317161301564e+01 7.533512056622e-01 0.0 
7.533512056622e-01 -2.188105385051e+02 0.0 
0.0 0.0 -9.319464545623e+01 
-1.548272588028e+02 -9.946438949873e-01 0.0 
-9.946438949873e-01 -3.625804037964e+02 0.0 
0.0 0.0 -1.548222987798e+02 
-4.318524635832e+00 -8.968178181885e-03 0.0 
-8.968178181885e-03 -8.788408678409e+00 0.0 
0.0 0.0 -4.473779519125e+00 
-4.680056022666e+01 -7.503513854424e-01 0.0 
-7.503513854424e-01 -1.105422584757e+02 0.0 
0.0 0.0 -4.680284561070e+01 
-7.441645824855e+01 -8.228275639258e-01 0.0 
-8.228275639258e-01 -1.749991930771e+02 0.0 
0.0 0.0 -7.442469539769e+01 
-6.770673260470e+01 -7.435899719814e-01 0.0 
-7.435899719814e-01 -1.593976757466e+02 0.0 
0.0 0.0 -6.773132250540e+01 
-1.277327578446e+02 -8.961646879788e-01 0.0 
-8.961646879788e-01 -2.994250655973e+02 0.0 
0.0 0.0 -1.277473470326e+02 
-1.575718905605e+02 -7.860411614452e-01 0.0 
-7.860411614452e-01 -3.692525816224e+02 0.0 
0.0 0.0 -1.576473416549e+02 
-1.262150897383e+02 8.241274465202e-01 0.0 
8.241274465202e-01 -2.958375909010e+02 0.0 
0.0 0.0 -1.262158041918e+02 
-5.388880306164e+01 7.496930174563e-01 0.0 
7.496930174563e-01 -1.270911939079e+02 0.0 
0.0 0.0 -5.389399909086e+01 
-1.367827820127e+02 7.650628881145e-01 0.0 
7.650628881145e-01 -3.206188854046e+02 0.0 
0.0 0.0 -1.368205002252e+02 
-1.159506365929e+02 -1.031363518469e+00 0.0 
-1.031363518469e+00 -2.720403534534e+02 0.0 
0.0 0.0 -1.159972970139e+02 
-9.136018861027e+01 7.175683354619e-01 0.0 
7.175683354619e-01 -2.145924375957e+02 0.0 
0.0 0.0 -9.138578786178e+01 
-1.223446454053e+02 -8.208508441118e-01 0.0 
-8.208508441118e-01 -2.867026945167e+02 0.0 
0.0 0.0 -1.223142019766e+02 
-1.521862555372e+02 6.379947215378e-01 0.0 
6.379947215378e-01 -3.565112447791e+02 0.0 
0.0 0.0 -1.522092500949e+02 
-7.458892851711e+01 8.218971465269e-01 0.0 
8.218971465269e-01 -1.754184674454e+02 0.0 
0.0 0.0 -7.460221878874e+01 
-4.365538608228e+01 6.753979621540e-01 0.0 
6.753979621540e-01 -1.032026567327e+02 0.0 
0.0 0.0 -4.365741284451e+01 
-1.054984576611e+02 7.624071014457e-01 0.0 
7.624071014457e-01 -2.476417686784e+02 0.0 
0.0 0.0 -1.055420679019e+02 
-1.640097477103e+02 -3.989017774540e-01 0.0 
-3.989017774540e-01 -3.841892156550e+02 0.0 
0.0 0.0 -1.640596890096e+02 
-9.028206913911e+01 7.545802582536e-01 0.0 
7.545802582536e-01 -2.120455560560e+02 0.0 
0.0 0.0 -9.029828755853e+01 
-9.427166015746e+01 7.652118623529e-01 0.0 
7.652118623529e-01 -2.213374078802e+02 0.0 
0.0 0.0 -9.428272041129e+01 
-1.017002370296e+02 2.084739372425e-01 0.0 
2.084739372425e-01 -2.389333462555e+02 0.0 
0.0 0.0 -1.017900749855e+02 
-2.403236135748e+01 4.698265061816e-01 0.0 
4.698265061816e-01 -5.736254949141e+01 0.0 
0.0 0.0 -2.401847325467e+01 
-9.731482402205e+01 -7.404435597397e-01 0.0 
-7.404435597397e-01 -2.287956441278e+02 0.0 
0.0 0.0 -9.743314044494e+01 
-5.371725971217e+01 -7.585002361755e-01 0.0 
-7.585002361755e-01 -1.266926807653e+02 0.0 
0.0 0.0 -5.372298214323e+01 
-3.649999407961e+01 -6.967425644019e-01 0.0 
-6.967425644019e-01 -8.652264264976e+01 0.0 
0.0 0.0 -3.650679101881e+01 
-2.624561125613e+01 7.868214189178e-01 0.0 
7.868214189178e-01 -6.241366619190e+01 0.0 
0.0 0.0 -2.619778323441e+01 
-1.315610351030e+02 -7.819485452248e-01 0.0 
-7.819485452248e-01 -3.083224714693e+02 0.0 
0.0 0.0 -1.315650519717e+02 
-1.010987452270e+02 7.296683893737e-01 0.0 
7.296683893737e-01 -2.373722280302e+02 0.0 
0.0 0.0 -1.011412919772e+02 
-6.426370701804e+01 -7.161389606060e-01 0.0 
-7.161389606060e-01 -1.512298605326e+02 0.0 
0.0 0.0 -6.424807026518e+01 
-1.362607701085e+02 7.693069834422e-01 0.0 
7.693069834422e-01 -3.192940228132e+02 0.0 
0.0 0.0 -1.362664378765e+02 
-1.298151092227e+02 8.367594849759e-01 0.0 
8.367594849759e-01 -3.041498273016e+02 0.0 
0.0 0.0 -1.297894809573e+02 
-9.577022218689e+01 7.165668930832e-01 0.0 
7.165668930832e-01 -2.248929507003e+02 0.0 
0.0 0.0 -9.579895186616e+01 
-1.579784776760e+02 -3.047254492646e-01 0.0 
-3.047254492646e-01 -3.691333445519e+02 0.0 
0.0 0.0 -1.577335466684e+02 
-9.774176991498e+01 -7.770193367953e-01 0.0 
-7.770193367953e-01 -2.294349587741e+02 0.0 
0.0 0.0 -9.775301860671e+01 
-1.001894139603e+02 7.347589887099e-01 0.0 
7.347589887099e-01 -2.351718180207e+02 0.0 
0.0 0.0 -1.002083695943e+02 
-8.033722712717e+01 7.182212151846e-01 0.0 
7.182212151846e-01 -1.887749621226e+02 0.0 
0.0 0.0 -8.033365677492e+01 
-1.023769791129e+02 7.944677680096e-01 0.0 
7.944677680096e-01 -2.402466719902e+02 0.0 
0.0 0.0 -1.023870953309e+02 
-4.452622689864e+01 -7.678374993958e-01 0.0 
-7.678374993958e-01 -1.052762665227e+02 0.0 
0.0 0.0 -4.454074802639e+01 
-9.433902176665e+01 -1.816423109568e-01 0.0 
-1.816423109568e-01 -2.219710895560e+02 0.0 
0.0 0.0 -9.449303339679e+01 
-7.813540426412e+01 7.655339839181e-01 0.0 
7.655339839181e-01 -1.836917241322e+02 0.0 
0.0 0.0 -7.814813851890e+01 
-5.538241660640e+01 7.616849867542e-01 0.0 
7.616849867542e-01 -1.305254641240e+02 0.0 
0.0 0.0 -5.537236421911e+01 
-1.259900010504e+02 -7.812942490858e-01 0.0 
-7.812942490858e-01 -2.953065755836e+02 0.0 
0.0 0.0 -1.259889729902e+02 
-2.508810356106e+00 1.310676159418e-01 0.0 
1.310676159418e-01 -7.118166874262e+00 0.0 
0.0 0.0 -2.488093169110e+00 
-1.019696314535e+02 7.988927431059e-01 0.0 
7.988927431059e-01 -2.394575579264e+02 0.0 
0.0 0.0 -1.020281568140e+02 
-5.724946151113e+01 -7.680677175740e-01 0.0 
-7.680677175740e-01 -1.349390932436e+02 0.0 
0.0 0.0 -5.725656642643e+01 
-4.697615007555e+01 7.065814277353e-01 0.0 
7.065814277353e-01 -1.109065997979e+02 0.0 
0.0 0.0 -4.696482496204e+01 
-4.469295261645e+01 7.413236769246e-01 0.0 
7.413236769246e-01 -1.057137264334e+02 0.0 
0.0 0.0 -4.472200371496e+01 
-1.088572410859e+02 -7.307092195860e-01 0.0 
-7.307092195860e-01 -2.554531642497e+02 0.0 
0.0 0.0 -1.088931216007e+02 
-1.721026302488e+01 4.427653053699e-01 0.0 
4.427653053699e-01 -4.125277232110e+01 0.0 
0.0 0.0 -1.713891060380e+01 
-6.655084440080e+01 -7.334936469682e-01 0.0 
-7.334936469682e-01 -1.566918504434e+02 0.0 
0.0 0.0 -6.657280845326e+01 
-1.059142453684e+02 -7.674694969559e-01 0.0 
-7.674694969559e-01 -2.485039058710e+02 0.0 
0.0 0.0 -1.059254453718e+02 
-1.008630682453e+02 -7.265097405196e-01 0.0 
-7.265097405196e-01 -2.369113045608e+02 0.0 
0.0 0.0 -1.009323118418e+02 
-1.015462040031e+02 1.015554047492e-01 0.0 
1.015554047492e-01 -2.387619003053e+02 0.0 
0.0 0.0 -1.016924312925e+02 
-2.349817608340e+01 -7.327455608592e-01 0.0 
-7.327455608592e-01 -5.637029126959e+01 0.0 
0.0 0.0 -2.356054020590e+01 
-5.519394382171e+01 -7.895154218478e-01 0.0 
-7.895154218478e-01 -1.301032752035e+02 0.0 
0.0 0.0 -5.518916570757e+01 
-5.067555999137e+01 8.132532822885e-01 0.0 
8.132532822885e-01 -1.196276499262e+02 0.0 
0.0 0.0 -5.069096297528e+01 
-5.893703402378e+01 6.759678373185e-01 0.0 
6.759678373185e-01 -1.389071513282e+02 0.0 
0.0 0.0 -5.895325560560e+01 
-1.225159919452e+02 8.511270866287e-01 0.0 
8.511270866287e-01 -2.872242034954e+02 0.0 
0.0 0.0 -1.225220586322e+02 
-6.670962418177e+01 6.858118841911e-01 0.0 
6.858118841911e-01 -1.570633606683e+02 0.0 
0.0 0.0 -6.673189545502e+01 
-7.338755925271e+01 -7.632529202369e-01 0.0 
-7.632529202369e-01 -1.726012243365e+02 0.0 
0.0 0.0 -7.339663507675e+01 
-6.983375084660e+01 -7.782172339018e-01 0.0 
-7.782172339018e-01 -1.643208354936e+02 0.0 
0.0 0.0 -6.984637590206e+01 
-2.821475190804e+01 8.370611470846e-01 0.0 
8.370611470846e-01 -6.751919968460e+01 0.0 
0.0 0.0 -2.832018547779e+01 
-8.355689554076e+01 -7.937722572992e-01 0.0 
-7.937722572992e-01 -1.963042678144e+02 0.0 
0.0 0.0 -8.355834900655e+01 
-3.137338873891e+01 7.257754965799e-01 0.0 
7.257754965799e-01 -7.464485264178e+01 0.0 
0.0 0.0 -3.140547241421e+01 
-1.641583034163e+02 1.027231462619e-02 0.0 
1.027231462619e-02 -3.839756820513e+02 0.0 
0.0 0.0 -1.640401956403e+02 
-1.633141649895e+02 1.188830171848e-01 0.0 
1.188830171848e-01 -3.829639639583e+02 0.0 
0.0 0.0 -1.634834386843e+02 
-9.362013463423e+01 -7.486646824379e-01 0.0 
-7.486646824379e-01 -2.198340610939e+02 0.0 
0.0 0.0 -9.363625871845e+01 
-4.918973143404e+01 -7.639474089956e-01 0.0 
-7.639474089956e-01 -1.161291074880e+02 0.0 
0.0 0.0 -4.919565167660e+01 
-4.251769464818e+01 7.242491558007e-01 0.0 
7.242491558007e-01 -1.004551568084e+02 0.0 
0.0 0.0 -4.249185543699e+01 
-1.034991375010e+02 -7.449833473580e-01 0.0 
-7.449833473580e-01 -2.429210265576e+02 0.0 
0.0 0.0 -1.035260492176e+02 
-4.592184794439e+01 7.502131477929e-01 0.0 
7.502131477929e-01 -1.084910400758e+02 0.0 
0.0 0.0 -4.592386640605e+01 
-5.053925624066e+01 -7.966227002017e-01 0.0 
-7.966227002017e-01 -1.192119709307e+02 0.0 
0.0 0.0 -5.052536815142e+01 
-9.117021931581e+01 -7.116596115668e-01 0.0 
-7.116596115668e-01 -2.141479655404e+02 0.0 
0.0 0.0 -9.119545545687e+01 
-1.568163496224e+02 1.538701318654e-01 0.0 
1.538701318654e-01 -3.678089975975e+02 0.0 
0.0 0.0 -1.569876041660e+02 
-6.174607095592e+01 -7.841631419711e-01 0.0 
-7.841631419711e-01 -1.454402112397e+02 0.0 
0.0 0.0 -6.175588465869e+01 
-1.147940411058e+02 -7.872147765794e-01 0.0 
-7.872147765794e-01 -2.692457519295e+02 0.0 
0.0 0.0 -1.148119379106e+02 
-3.453699591155e+01 -7.534153264622e-01 0.0 
-7.534153264622e-01 -8.194616956057e+01 0.0 
0.0 0.0 -3.454494964164e+01 
-1.642364781389e+02 -3.186832093974e-02 0.0 
-3.186832093974e-02 -3.842616866873e+02 0.0 
0.0 0.0 -1.641494494478e+02 
-4.574983225925e+01 -7.566209017728e-01 0.0 
-7.566209017728e-01 -1.080695998574e+02 0.0 
0.0 0.0 -4.574582963501e+01 
-9.461328485718e+01 -7.444579405906e-01 0.0 
-7.444579405906e-01 -2.221672771473e+02 0.0 
0.0 0.0 -9.463416860133e+01 
-3.169391431798e+01 -8.125910381515e-01 0.0 
-8.125910381515e-01 -7.544283869925e+01 0.0 
0.0 0.0 -3.174102590517e+01 
-1.119715029925e+02 -7.604412623046e-01 0.0 
-7.604412623046e-01 -2.625951087601e+02 0.0 
0.0 0.0 -1.119699835258e+02 
-7.795682136237e+01 -7.726304206435e-01 0.0 
-7.726304206435e-01 -1.832650165140e+02 0.0 
0.0 0.0 -7.796655136292e+01 
-5.415350999049e+01 -7.670265316707e-01 0.0 
-7.670265316707e-01 -1.277156259838e+02 0.0 
0.0 0.0 -5.416074079229e+01 
-9.669948940053e+01 7.411816842261e-01 0.0 
7.411816842261e-01 -2.270718645533e+02 0.0 
0.0 0.0 -9.673140618616e+01 
-1.641795429316e+02 7.980341632248e-02 0.0 
7.980341632248e-02 -3.844384451394e+02 0.0 
0.0 0.0 -1.641853964213e+02 
-6.530669893059e+01 -7.611036780809e-01 0.0 
-7.611036780809e-01 -1.537564598772e+02 0.0 
0.0 0.0 -6.531894764233e+01 
-1.060841660586e+02 7.877356493455e-01 0.0 
7.877356493455e-01 -2.488894511310e+02 0.0 
0.0 0.0 -1.060920851569e+02 
-3.473598345797e+01 6.580229455628e-01 0.0 
6.580229455628e-01 -8.230665625956e+01 0.0 
0.0 0.0 -3.471279191526e+01 
-1.166275524445e+02 -8.431672057757e-01 0.0 
-8.431672057757e-01 -2.734866550760e+02 0.0 
0.0 0.0 -1.166342622562e+02 
-1.230624675117e+02 -8.323199874426e-01 0.0 
-8.323199874426e-01 -2.884647596852e+02 0.0 
0.0 0.0 -1.230581681591e+02 
-4.817698546733e+01 7.124599814441e-01 0.0 
7.124599814441e-01 -1.137992213668e+02 0.0 
0.0 0.0 -4.819286205024e+01 
-1.129734757586e+02 7.503487338083e-01 0.0 
7.503487338083e-01 -2.651278914798e+02 0.0 
0.0 0.0 -1.130304101715e+02 
-1.640322137780e+02 -5.221102139264e-02 0.0 
-5.221102139264e-02 -3.841018417956e+02 0.0 
0.0 0.0 -1.640402166721e+02 
-1.314987035535e+02 -7.627213062589e-01 0.0 
-7.627213062589e-01 -3.081831585025e+02 0.0 
0.0 0.0 -1.315045586168e+02 
-1.640430266983e+02 6.923464130669e-02 0.0 
6.923464130669e-02 -3.840868227666e+02 0.0 
0.0 0.0 -1.640389548395e+02 
-1.123541586437e+02 8.399843900923e-01 0.0 
8.399843900923e-01 -2.631796758105e+02 0.0 
0.0 0.0 -1.122601503363e+02 
-1.285470151396e+02 7.566401437362e-01 0.0 
7.566401437362e-01 -3.013466006221e+02 0.0 
0.0 0.0 -1.285680847285e+02 
-4.022837330989e+01 7.763189526961e-01 0.0 
7.763189526961e-01 -9.524026795819e+01 0.0 
0.0 0.0 -4.024059238042e+01 
-8.887520553281e+01 7.224609828553e-01 0.0 
7.224609828553e-01 -2.087883927326e+02 0.0 
0.0 0.0 -8.889907947962e+01 
-1.000255580765e+02 -7.371741950110e-01 0.0 
-7.371741950110e-01 -2.348016797273e+02 0.0 
0.0 0.0 -1.000481713411e+02 
-1.046076677519e+02 7.486110076763e-01 0.0 
7.486110076763e-01 -2.454959355706e+02 0.0 
0.0 0.0 -1.046310809967e+02 
-8.587071404024e+01 7.455539286779e-01 0.0 
7.455539286779e-01 -2.017220922183e+02 0.0 
0.0 0.0 -8.587784187756e+01 
-1.640215885435e+02 4.761334194385e-02 0.0 
4.761334194385e-02 -3.841675530668e+02 0.0 
0.0 0.0 -1.640567424831e+02 
-1.077002827756e+02 -5.782950463063e-01 0.0 
-5.782950463063e-01 -2.522181783299e+02 0.0 
0.0 0.0 -1.075755383317e+02 
-9.417468997048e+01 6.923337744641e-01 0.0 
6.923337744641e-01 -2.212821305385e+02 0.0 
0.0 0.0 -9.423704615268e+01 
-7.001686967376e+01 7.717350430878e-01 0.0 
7.717350430878e-01 -1.647347053739e+02 0.0 
0.0 0.0 -7.002547251431e+01 
-3.701289713579e+01 -7.489372965826e-01 0.0 
-7.489372965826e-01 -8.774653243502e+01 0.0 
0.0 0.0 -3.702782887125e+01 
-8.540095527580e+01 7.252396939487e-01 0.0 
7.252396939487e-01 -2.006442780594e+02 0.0 
0.0 0.0 -8.541357000057e+01 
-5.130534559731e+01 -7.526277270606e-01 0.0 
-7.526277270606e-01 -1.210954961484e+02 0.0 
0.0 0.0 -5.132025252373e+01 
-9.432516851119e+01 1.650692650712e-01 0.0 
1.650692650712e-01 -2.215041514635e+02 0.0 
0.0 0.0 -9.434879599240e+01 
-5.432906332454e+01 7.444987351797e-01 0.0 
7.444987351797e-01 -1.281113434661e+02 0.0 
0.0 0.0 -5.433212203720e+01 
-6.191774808803e+01 7.691592261890e-01 0.0 
7.691592261890e-01 -1.458304024166e+02 0.0 
0.0 0.0 -6.192444515139e+01 
-1.306453374633e+02 -8.293341548739e-01 0.0 
-8.293341548739e-01 -3.061485884233e+02 0.0 
0.0 0.0 -1.306381777660e+02 
-5.147287536496e+01 7.291563874707e-01 0.0 
7.291563874707e-01 -1.214428707187e+02 0.0 
0.0 0.0 -5.147472382510e+01 
-9.215143386438e+01 -7.356096303095e-01 0.0 
-7.356096303095e-01 -2.164705970662e+02 0.0 
0.0 0.0 -9.218660927918e+01 
-1.094945986531e+02 -7.559309818876e-01 0.0 
-7.559309818876e-01 -2.568482952550e+02 0.0 
0.0 0.0 -1.095028681724e+02 
-9.717842279100e+01 -7.941080969228e-01 0.0 
-7.941080969228e-01 -2.280733379010e+02 0.0 
0.0 0.0 -9.717552820760e+01 
-1.645108774077e+02 8.267552527684e-03 0.0 
8.267552527684e-03 -3.846909567093e+02 0.0 
0.0 0.0 -1.643605502351e+02 
-7.690021474652e+01 6.718248809562e-01 0.0 
6.718248809562e-01 -1.809122333887e+02 0.0 
0.0 0.0 -7.694373444057e+01 
-5.157464125167e+01 -7.905748296221e-01 0.0 
-7.905748296221e-01 -1.216869070999e+02 0.0 
0.0 0.0 -5.157846450547e+01 
-6.819237817035e+01 7.211101475119e-01 0.0 
7.211101475119e-01 -1.604190220184e+02 0.0 
0.0 0.0 -6.818342005662e+01 
-4.895414618095e+01 5.947022376745e-01 0.0 
5.947022376745e-01 -1.158130210764e+02 0.0 
0.0 0.0 -4.903015017720e+01 
-4.805983096007e+01 -7.845730927787e-01 0.0 
-7.845730927787e-01 -1.135136959925e+02 0.0 
0.0 0.0 -4.807205808576e+01 
-1.380849522798e+02 8.049247720857e-01 0.0 
8.049247720857e-01 -3.235322948857e+02 0.0 
0.0 0.0 -1.380851741496e+02 
-9.921664126767e+01 7.496292740594e-01 0.0 
7.496292740594e-01 -2.329043491966e+02 0.0 
0.0 0.0 -9.923629713927e+01 
-6.778189048246e+01 7.528280577381e-01 0.0 
7.528280577381e-01 -1.596074601668e+02 0.0 
0.0 0.0 -6.781680519477e+01 
-8.438505093391e+01 -7.427765379725e-01 0.0 
-7.427765379725e-01 -1.983240946915e+02 0.0 
0.0 0.0 -8.441274368763e+01 
-1.638947834989e+02 -9.407098342934e-02 0.0 
-9.407098342934e-02 -3.838090847686e+02 0.0 
0.0 0.0 -1.639111604803e+02 
-1.555034791555e+02 5.789261407012e-01 0.0 
5.789261407012e-01 -3.642622107467e+02 0.0 
0.0 0.0 -1.555297069707e+02 
-1.378879295076e+02 -7.967199331954e-01 0.0 
-7.967199331954e-01 -3.229493683618e+02 0.0 
0.0 0.0 -1.378511893608e+02 
-1.272118506718e+02 7.819900710024e-01 0.0 
7.819900710024e-01 -2.981227117332e+02 0.0 
0.0 0.0 -1.272003687215e+02 
-9.372849592772e+01 7.567809143379e-01 0.0 
7.567809143379e-01 -2.200218375711e+02 0.0 
0.0 0.0 -9.372510004965e+01 
-7.001241102361e+01 7.211823065889e-01 0.0 
7.211823065889e-01 -1.647450186094e+02 0.0 
0.0 0.0 -7.002722888989e+01 
-4.934964155096e+01 7.517746232678e-01 0.0 
7.517746232678e-01 -1.165405423550e+02 0.0 
0.0 0.0 -4.936705517178e+01 
-5.742041401746e+01 7.511997271068e-01 0.0 
7.511997271068e-01 -1.353444708612e+02 0.0 
0.0 0.0 -5.742946546360e+01 
-9.478083247078e+01 7.319025854673e-01 0.0 
7.319025854673e-01 -2.225500581362e+02 0.0 
0.0 0.0 -9.479926718208e+01 
-1.086053983233e+02 7.764999577024e-01 0.0 
7.764999577024e-01 -2.547467705455e+02 0.0 
0.0 0.0 -1.086056506606e+02 
-8.224204337920e+01 7.953723507210e-01 0.0 
7.953723507210e-01 -1.931829734724e+02 0.0 
0.0 0.0 -8.222750505549e+01 
-1.388743536699e+02 -8.131411103532e-01 0.0 
-8.131411103532e-01 -3.254712954233e+02 0.0 
0.0 0.0 -1.389036947280e+02 
-5.177846515214e+01 7.468818883652e-01 0.0 
7.468818883652e-01 -1.221157268323e+02 0.0 
0.0 0.0 -5.176825759534e+01 
-8.143646566075e+01 7.475238894798e-01 0.0 
7.475238894798e-01 -1.913585882353e+02 0.0 
0.0 0.0 -8.143851616881e+01 
-9.557866658464e+01 -7.288480179967e-01 0.0 
-7.288480179967e-01 -2.244138586157e+02 0.0 
0.0 0.0 -9.559775756010e+01 
-7.348125689629e+01 7.881059547037e-01 0.0 
7.881059547037e-01 -1.727850438514e+02 0.0 
0.0 0.0 -7.347989022430e+01 
-1.641221361165e+02 8.238334270072e-02 0.0 
8.238334270072e-02 -3.837813895423e+02 0.0 
0.0 0.0 -1.639710576976e+02 
-1.633997693544e+02 -2.127329945237e-01 0.0 
-2.127329945237e-01 -3.830822985618e+02 0.0 
0.0 0.0 -1.635446203748e+02 
-1.551984592699e+02 9.038980108239e-01 0.0 
9.038980108239e-01 -3.630656894430e+02 0.0 
0.0 0.0 -1.550792446139e+02 
-1.019444192172e+02 7.778404216186e-01 0.0 
7.778404216186e-01 -2.391866187861e+02 0.0 
0.0 0.0 -1.019393114010e+02 
-1.361197825529e+02 -7.739718926878e-01 0.0 
-7.739718926878e-01 -3.189517045513e+02 0.0 
0.0 0.0 -1.361214461312e+02 
-4.350766612898e+01 -7.183489042931e-01 0.0 
-7.183489042931e-01 -1.029082874823e+02 0.0 
0.0 0.0 -4.352478608337e+01 
-6.549037479203e+01 7.524039071255e-01 0.0 
7.524039071255e-01 -1.541670495619e+02 0.0 
0.0 0.0 -6.549722730619e+01 
-3.665255747598e+01 7.031861772028e-01 0.0 
7.031861772028e-01 -8.692852406405e+01 0.0 
0.0 0.0 -3.667432446201e+01 
-7.117168628149e+01 7.118088135505e-01 0.0 
7.118088135505e-01 -1.674688844916e+02 0.0 
0.0 0.0 -7.119217123192e+01 
-9.488093180102e+01 7.021239065539e-02 0.0 
7.021239065539e-02 -2.222941119020e+02 0.0 
0.0 0.0 -9.475251311090e+01 
-1.121015596669e+02 -8.595302700972e-01 0.0 
-8.595302700972e-01 -2.628424910574e+02 0.0 
0.0 0.0 -1.120832152173e+02 
-1.567398354745e+02 7.044852218162e-03 0.0 
7.044852218162e-03 -3.672451007804e+02 0.0 
0.0 0.0 -1.567954808765e+02 
-1.365863665664e+02 -8.599199326617e-01 0.0 
-8.599199326617e-01 -3.199858016030e+02 0.0 
0.0 0.0 -1.365716504508e+02 
-1.053610704609e+02 -7.214976467455e-01 0.0 
-7.214976467455e-01 -2.472592541097e+02 0.0 
0.0 0.0 -1.053860973712e+02 
-1.079370678866e+02 -7.389679114262e-01 0.0 
-7.389679114262e-01 -2.532960458446e+02 0.0 
0.0 0.0 -1.079699341194e+02 
-3.987923727396e+01 -7.846890028177e-01 0.0 
-7.846890028177e-01 -9.445346666224e+01 0.0 
0.0 0.0 -3.989981118086e+01 
-1.710163422145e+01 -1.628014294832e-01 0.0 
-1.628014294832e-01 -4.184117114603e+01 0.0 
0.0 0.0 -1.728284161024e+01 
-7.896501837209e+01 -8.061955259180e-01 0.0 
-8.061955259180e-01 -1.856233122818e+02 0.0 
0.0 0.0 -7.897649919617e+01 
-8.933844460315e+01 7.475666262080e-01 0.0 
7.475666262080e-01 -2.098096860509e+02 0.0 
0.0 0.0 -8.934443919620e+01 
-8.372066390716e+01 7.910385259273e-01 0.0 
7.910385259273e-01 -1.966978240337e+02 0.0 
0.0 0.0 -8.372554638227e+01 
-1.901690817741e+01 -8.202038515157e-01 0.0 
-8.202038515157e-01 -4.571343266671e+01 0.0 
0.0 0.0 -1.901910225324e+01 
-1.013964819954e+02 -3.196539741978e-01 0.0 
-3.196539741978e-01 -2.381748363156e+02 0.0 
0.0 0.0 -1.014713954933e+02 
-3.390249049522e+01 7.972722352971e-01 0.0 
7.972722352971e-01 -8.053991568957e+01 0.0 
0.0 0.0 -3.393272185544e+01 
-5.022359323804e+01 -7.789206648423e-01 0.0 
-7.789206648423e-01 -1.185255642994e+02 0.0 
0.0 0.0 -5.022474726125e+01 
-1.641339595402e+02 -1.211447623723e-03 0.0 
-1.211447623723e-03 -3.843125722605e+02 0.0 
0.0 0.0 -1.641339595402e+02 
-1.188500843598e+02 8.132582001101e-01 0.0 
8.132582001101e-01 -2.787038101351e+02 0.0 
0.0 0.0 -1.188661683485e+02 
-9.380433563951e+01 -7.399712713387e-01 0.0 
-7.399712713387e-01 -2.208740381704e+02 0.0 
0.0 0.0 -9.400351214298e+01 
-2.443680798588e+01 -5.628844057519e-01 0.0 
-5.628844057519e-01 -5.858968728401e+01 0.0 
0.0 0.0 -2.450794858097e+01 
-8.569841675834e+01 -7.546190336691e-01 0.0 
-7.546190336691e-01 -2.013542622679e+02 0.0 
0.0 0.0 -8.571580370788e+01 
-7.913527003061e+01 8.176951194379e-01 0.0 
8.176951194379e-01 -1.860227328986e+02 0.0 
0.0 0.0 -7.914740087878e+01 
-1.090090583183e+02 7.762032415500e-01 0.0 
7.762032415500e-01 -2.557915787144e+02 0.0 
0.0 0.0 -1.090401911098e+02 
-1.640846732196e+02 -1.601076921870e-01 0.0 
-1.601076921870e-01 -3.843052816873e+02 0.0 
0.0 0.0 -1.641169864721e+02 
-8.874234836841e+01 -7.407643152235e-01 0.0 
-7.407643152235e-01 -2.084956401466e+02 0.0 
0.0 0.0 -8.877139655450e+01 
-1.036475123271e+02 7.574569305540e-01 0.0 
7.574569305540e-01 -2.432603938827e+02 0.0 
0.0 0.0 -1.036723718629e+02 
-8.206530491560e+01 -7.859216865337e-01 0.0 
-7.859216865337e-01 -1.927691617958e+02 0.0 
0.0 0.0 -8.205034001342e+01 
-1.352600789358e+02 -8.002002943199e-01 0.0 
-8.002002943199e-01 -3.169359448813e+02 0.0 
0.0 0.0 -1.352588071451e+02 
-1.054728150256e+02 -7.873012976996e-01 0.0 
-7.873012976996e-01 -2.474195565417e+02 0.0 
0.0 0.0 -1.054677114702e+02 
-1.641815996491e+02 3.566558615982e-02 0.0 
3.566558615982e-02 -3.841901695518e+02 0.0 
0.0 0.0 -1.641115307602e+02 
-1.639716459946e+02 -9.451172683484e-03 0.0 
-9.451172683484e-03 -3.839338406541e+02 0.0 
0.0 0.0 -1.639716459946e+02 
-1.640007726133e+02 2.653962674973e-02 0.0 
2.653962674973e-02 -3.840018027644e+02 0.0 
0.0 0.0 -1.640007726133e+02 
-1.634783070850e+02 4.003613007071e-03 0.0 
4.003613007071e-03 -3.827827165316e+02 0.0 
0.0 0.0 -1.634783070850e+02 
-1.123983194301e+02 -7.342891538451e-01 0.0 
-7.342891538451e-01 -2.636847507473e+02 0.0 
0.0 0.0 -1.124249210532e+02 
-1.353905705706e+02 7.390744020348e-01 0.0 
7.390744020348e-01 -3.172786642241e+02 0.0 
0.0 0.0 -1.354007704384e+02 
-1.416391848970e+02 -8.355784883361e-01 0.0 
-8.355784883361e-01 -3.316877584466e+02 0.0 
0.0 0.0 -1.415980830031e+02 
-7.330795023276e+01 -8.129276473656e-01 0.0 
-8.129276473656e-01 -1.724320487037e+02 0.0 
0.0 0.0 -7.332199968093e+01 
-6.984112903927e+01 -7.997997596851e-01 0.0 
-7.997997596851e-01 -1.643978877461e+02 0.0 
0.0 0.0 -6.987170503562e+01 
-7.754983977539e+01 8.028639998515e-01 0.0 
8.028639998515e-01 -1.822245830104e+02 0.0 
0.0 0.0 -7.753232683572e+01 
-1.390675605577e+02 8.043795213903e-01 0.0 
8.043795213903e-01 -3.258959790399e+02 0.0 
0.0 0.0 -1.390890618793e+02 
-1.639816315525e+02 2.068453077375e-02 0.0 
2.068453077375e-02 -3.840127888233e+02 0.0 
0.0 0.0 -1.639983261128e+02 
-1.397805652260e+02 -7.830707522934e-01 0.0 
-7.830707522934e-01 -3.274604397054e+02 0.0 
0.0 0.0 -1.397723014794e+02 
-1.105850774543e+02 8.152221728241e-01 0.0 
8.152221728241e-01 -2.594152554040e+02 0.0 
0.0 0.0 -1.106000998575e+02 
-1.398980299610e+02 7.316343038597e-01 0.0 
7.316343038597e-01 -3.278062419769e+02 0.0 
0.0 0.0 -1.399112815814e+02 
-1.212331650717e+02 7.664811839769e-01 0.0 
7.664811839769e-01 -2.841933211565e+02 0.0 
0.0 0.0 -1.212279458685e+02 
-8.472085415924e+01 -7.371333638599e-01 0.0 
-7.371333638599e-01 -1.990356892785e+02 0.0 
0.0 0.0 -8.472696303132e+01 
-7.104512382095e+01 -7.041384525075e-01 0.0 
-7.041384525075e-01 -1.672028440704e+02 0.0 
0.0 0.0 -7.107439036739e+01 
-3.783390882699e+01 -7.698933126498e-01 0.0 
-7.698933126498e-01 -8.954844563173e+01 0.0 
0.0 0.0 -3.781470633762e+01 
-1.569320360877e+02 -3.777073890648e-01 0.0 
-3.777073890648e-01 -3.676484098502e+02 0.0 
0.0 0.0 -1.569741337814e+02 
-6.889930752172e+01 -7.937577285096e-01 0.0 
-7.937577285096e-01 -1.620729896197e+02 0.0 
0.0 0.0 -6.889168914243e+01 
-1.506690688440e+02 3.853414096111e-02 0.0 
3.853414096111e-02 -3.522735310316e+02 0.0 
0.0 0.0 -1.504827799627e+02 
-7.737239914691e+01 -7.807983964706e-01 0.0 
-7.807983964706e-01 -1.818093524882e+02 0.0 
0.0 0.0 -7.735452549054e+01 
-4.965835614353e+01 7.365652168959e-01 0.0 
7.365652168959e-01 -1.171226789950e+02 0.0 
0.0 0.0 -4.963431054155e+01 
-1.571271298332e+02 -1.755205308614e-01 0.0 
-1.755205308614e-01 -3.676773942805e+02 0.0 
0.0 0.0 -1.570413572341e+02 
-5.464774796803e+01 -7.526866291041e-01 0.0 
-7.526866291041e-01 -1.288930146510e+02 0.0 
0.0 0.0 -5.466222878572e+01 
-1.641073069594e+02 -7.077172136508e-03 0.0 
-7.077172136508e-03 -3.842503829052e+02 0.0 
0.0 0.0 -1.641073069594e+02 
-1.567034645655e+02 5.668113623929e-02 0.0 
5.668113623929e-02 -3.673414298676e+02 0.0 
0.0 0.0 -1.568134683299e+02 
-1.025210234379e+02 -7.382548763739e-01 0.0 
-7.382548763739e-01 -2.406347766823e+02 0.0 
0.0 0.0 -1.025467400360e+02 
-1.067273011968e+01 8.617003624144e-03 0.0 
8.617003624144e-03 -2.495690973549e+01 0.0 
0.0 0.0 -1.071594078538e+01 
-1.640188927724e+02 -3.075585092930e-02 0.0 
-3.075585092930e-02 -3.840440831356e+02 0.0 
0.0 0.0 -1.640188927724e+02 
-1.570617029092e+02 8.799297443550e-02 0.0 
8.799297443550e-02 -3.677088405680e+02 0.0 
0.0 0.0 -1.570311630431e+02 
-4.944487972413e+01 -7.991912788142e-01 0.0 
-7.991912788142e-01 -1.167007715093e+02 0.0 
0.0 0.0 -4.944369537001e+01 
-1.142818121892e+02 7.906942061231e-01 0.0 
7.906942061231e-01 -2.680267946549e+02 0.0 
0.0 0.0 -1.142925820532e+02 
-1.640329499036e+02 -1.787993592542e-02 0.0 
-1.787993592542e-02 -3.843454593368e+02 0.0 
0.0 0.0 -1.641135227721e+02 
-4.646130600377e+00 1.288638130154e-02 0.0 
1.288638130154e-02 -9.037190361416e+00 0.0 
0.0 0.0 -4.674909431326e+00 
-7.684590221060e+01 -7.377037811321e-01 0.0 
-7.377037811321e-01 -1.806510230737e+02 0.0 
0.0 0.0 -7.684907758528e+01 
-1.069822944376e+02 -7.420477250937e-01 0.0 
-7.420477250937e-01 -2.510513660448e+02 0.0 
0.0 0.0 -1.070100981447e+02 
-9.807000908450e+01 -7.507435944520e-01 0.0 
-7.507435944520e-01 -2.302304879481e+02 0.0 
0.0 0.0 -9.809014910977e+01 
-9.904009239513e+01 -7.540357971618e-01 0.0 
-7.540357971618e-01 -2.325276992773e+02 0.0 
0.0 0.0 -9.907033750174e+01 
-4.231382022145e+01 -7.808678680281e-01 0.0 
-7.808678680281e-01 -1.000442949149e+02 0.0 
0.0 0.0 -4.230743454092e+01 
-1.639926922615e+02 5.418808555266e-03 0.0 
5.418808555266e-03 -3.839829486101e+02 0.0 
0.0 0.0 -1.639926922615e+02 
-7.356984430568e+01 7.583805268877e-01 0.0 
7.583805268877e-01 -1.730211427242e+02 0.0 
0.0 0.0 -7.357729610897e+01 
-2.378961524348e+01 7.262759342331e-01 0.0 
7.262759342331e-01 -5.684326209503e+01 0.0 
0.0 0.0 -2.378986320155e+01 
-1.574794759831e+02 -2.405820319729e-01 0.0 
-2.405820319729e-01 -3.689656544300e+02 0.0 
0.0 0.0 -1.575335391239e+02 
-1.006982949982e+01 -8.849508404606e-03 0.0 
-8.849508404606e-03 -2.493600055059e+01 0.0 
0.0 0.0 -1.010174901512e+01 
-8.002177730416e+01 -7.448836724116e-01 0.0 
-7.448836724116e-01 -1.881330045942e+02 0.0 
0.0 0.0 -8.004643456950e+01 
-2.470905360917e+01 -3.354934187436e-02 0.0 
-3.354934187436e-02 -5.882094973392e+01 0.0 
0.0 0.0 -2.465900100293e+01 
-8.529585284345e+01 -7.450625799208e-01 0.0 
-7.450625799208e-01 -2.003333692888e+02 0.0 
0.0 0.0 -8.528876663966e+01 
-1.639581933697e+02 2.968424116675e-02 0.0 
2.968424116675e-02 -3.838003931386e+02 0.0 
0.0 0.0 -1.639275759525e+02 
-1.641433322823e+02 -2.604296757629e-02 0.0 
-2.604296757629e-02 -3.843344419920e+02 0.0 
0.0 0.0 -1.641433322823e+02 
-1.044107794813e+02 -7.411789143896e-01 0.0 
-7.411789143896e-01 -2.451162478946e+02 0.0 
0.0 0.0 -1.044581082127e+02 
-1.728647598182e+01 1.133633002451e-01 0.0 
1.133633002451e-01 -4.219066141980e+01 0.0 
0.0 0.0 -1.744314122049e+01 
-1.902898589101e+01 -7.481239610142e-01 0.0 
-7.481239610142e-01 -4.558817364107e+01 0.0 
0.0 0.0 -1.898514785962e+01 
-2.428127148976e+01 -1.573127734969e-01 0.0 
-1.573127734969e-01 -5.853550884029e+01 0.0 
0.0 0.0 -2.444503409901e+01 
-1.378350552405e+02 7.924701870110e-01 0.0 
7.924701870110e-01 -3.230358623288e+02 0.0 
0.0 0.0 -1.378612752708e+02 
-9.452072163310e+01 -1.180472191539e-01 0.0 
-1.180472191539e-01 -2.218827300448e+02 0.0 
0.0 0.0 -9.452103550337e+01 
-9.835772505719e+01 8.463226703104e-01 0.0 
8.463226703104e-01 -2.309902137080e+02 0.0 
0.0 0.0 -9.840438162955e+01 
-1.642631979523e+02 -2.297761547581e-02 0.0 
-2.297761547581e-02 -3.846141285554e+02 0.0 
0.0 0.0 -1.642631979523e+02 
-9.437977837533e+01 1.698300046935e-01 0.0 
1.698300046935e-01 -2.220518650493e+02 0.0 
0.0 0.0 -9.452949302738e+01 
-1.639556398106e+02 -6.784319313615e-02 0.0 
-6.784319313615e-02 -3.841663625444e+02 0.0 
0.0 0.0 -1.640366007065e+02 
-1.245873043058e+02 -7.691770003461e-01 0.0 
-7.691770003461e-01 -2.920041469349e+02 0.0 
0.0 0.0 -1.245774353722e+02 
-1.082022573199e+02 -8.092173029395e-01 0.0 
-8.092173029395e-01 -2.538989869468e+02 0.0 
0.0 0.0 -1.082303732800e+02 
-5.205455407769e+01 -7.275804037931e-01 0.0 
-7.275804037931e-01 -1.234172676078e+02 0.0 
0.0 0.0 -5.224154650564e+01 
-1.141082510646e+02 -7.658069910163e-01 0.0 
-7.658069910163e-01 -2.676420111598e+02 0.0 
0.0 0.0 -1.141250786673e+02 
-3.362830132009e+01 6.878396524162e-01 0.0 
6.878396524162e-01 -7.951355031574e+01 0.0 
0.0 0.0 -3.354255549075e+01 
-1.641223614623e+02 1.843279115596e-02 0.0 
1.843279115596e-02 -3.842855100786e+02 0.0 
0.0 0.0 -1.641223614623e+02 
-1.637518119796e+02 -9.177075678225e-02 0.0 
-9.177075678225e-02 -3.834208946192e+02 0.0 
0.0 0.0 -1.637518119796e+02 
-1.639173680122e+02 8.864464799995e-02 0.0 
8.864464799995e-02 -3.838071920284e+02 0.0 
0.0 0.0 -1.639173680122e+02 
-1.056478626122e+02 7.784259685173e-01 0.0 
7.784259685173e-01 -2.478263993606e+02 0.0 
0.0 0.0 -1.056422785919e+02 
-7.283335326836e+01 8.130373171724e-01 0.0 
8.130373171724e-01 -1.712035163697e+02 0.0 
0.0 0.0 -7.281106089143e+01 
-8.488963806181e+01 7.287403022545e-01 0.0 
7.287403022545e-01 -1.994289841891e+02 0.0 
0.0 0.0 -8.489558667529e+01 
-1.090951439410e+02 -7.835038149296e-01 0.0 
-7.835038149296e-01 -2.558718054975e+02 0.0 
0.0 0.0 -1.090900848316e+02 
-1.639991525450e+02 -1.560720236887e-02 0.0 
-1.560720236887e-02 -3.839980226051e+02 0.0 
0.0 0.0 -1.639991525450e+02 
-5.039905016141e+01 7.438714022690e-01 0.0 
7.438714022690e-01 -1.189250643652e+02 0.0 
0.0 0.0 -5.039723435798e+01 
-5.878348218193e+01 -7.786316805502e-01 0.0 
-7.786316805502e-01 -1.384696139681e+02 0.0 
0.0 0.0 -5.877592884500e+01 
-6.231317804126e+01 -7.440738664301e-01 0.0 
-7.440738664301e-01 -1.467460967159e+02 0.0 
0.0 0.0 -6.231778242715e+01 
-1.129169467021e+02 -7.726607955049e-01 0.0 
-7.726607955049e-01 -2.648564024035e+02 0.0 
0.0 0.0 -1.129320047317e+02 
-1.638914421850e+02 9.685416423730e-02 0.0 
9.685416423730e-02 -3.841622603393e+02 0.0 
0.0 0.0 -1.640161107573e+02 
-1.743002862861e+01 -7.281333675698e-02 0.0 
-7.281333675698e-02 -4.173792230300e+01 0.0 
0.0 0.0 -1.735038527948e+01 
-1.639445434193e+02 -7.690344305223e-03 0.0 
-7.690344305223e-03 -3.838706013118e+02 0.0 
0.0 0.0 -1.639445434193e+02 
-5.765982660565e+01 -7.832492861861e-01 0.0 
-7.832492861861e-01 -1.358858963294e+02 0.0 
0.0 0.0 -5.766371688052e+01 
-1.642762188307e+02 -1.079299101567e-02 0.0 
-1.079299101567e-02 -3.846445106050e+02 0.0 
0.0 0.0 -1.642762188307e+02 
-1.417246665751e+02 7.563662598012e-01 0.0 
7.563662598012e-01 -3.321132287667e+02 0.0 
0.0 0.0 -1.417513686025e+02 
-2.714406424135e+00 1.303753197824e-02 0.0 
1.303753197824e-02 -7.722905555948e+00 0.0 
0.0 0.0 -2.731193594025e+00 
-8.014857210067e+01 -7.499012912047e-01 0.0 
-7.499012912047e-01 -1.883765126821e+02 0.0 
0.0 0.0 -8.015752543483e+01 
-1.408460512332e+02 7.960002736304e-01 0.0 
7.960002736304e-01 -3.299673277281e+02 0.0 
0.0 0.0 -1.408440136884e+02 
-1.640997215708e+02 1.017665155868e-02 0.0 
1.017665155868e-02 -3.842326836653e+02 0.0 
0.0 0.0 -1.640997215709e+02 
-1.125447239359e+02 7.712080828899e-01 0.0 
7.712080828899e-01 -2.640304741212e+02 0.0 
0.0 0.0 -1.125725594171e+02 
-1.281086810153e+02 -7.899718557145e-01 0.0 
-7.899718557145e-01 -3.002944832133e+02 0.0 
0.0 0.0 -1.281209492686e+02 
-2.999534779450e+01 -7.924724944821e-01 0.0 
-7.924724944821e-01 -7.128067082360e+01 0.0 
0.0 0.0 -2.998280558543e+01 
-1.504220690008e+02 -2.650107294139e-02 0.0 
-2.650107294139e-02 -3.517850226782e+02 0.0 
0.0 0.0 -1.502621275037e+02 
-6.119911567031e+01 -7.634609969672e-01 0.0 
-7.634609969672e-01 -1.441366721001e+02 0.0 
0.0 0.0 -6.120073633111e+01 
-6.247028894792e+01 7.234496100438e-01 0.0 
7.234496100438e-01 -1.470933576411e+02 0.0 
0.0 0.0 -6.246909397671e+01 
-1.031555034044e+01 -5.504278599259e-02 0.0 
-5.504278599259e-02 -2.576642724320e+01 0.0 
0.0 0.0 -1.042459327509e+01 
-1.640289243453e+02 -4.536152824700e-03 0.0 
-4.536152824700e-03 -3.840674901391e+02 0.0 
0.0 0.0 -1.640289243453e+02 
-4.134309640176e+01 7.416703794233e-01 0.0 
7.416703794233e-01 -9.785103567111e+01 0.0 
0.0 0.0 -4.135823962186e+01 
-1.364338403716e+02 8.212735372059e-01 0.0 
8.212735372059e-01 -3.196650000415e+02 0.0 
0.0 0.0 -1.364296521239e+02 
-1.041890636407e+02 9.271307220954e-01 0.0 
9.271307220954e-01 -2.443609519973e+02 0.0 
0.0 0.0 -1.041650046914e+02 
-5.201131885800e+01 7.572021333666e-01 0.0 
7.572021333666e-01 -1.226663134379e+02 0.0 
0.0 0.0 -5.200328968878e+01 
-5.893255119321e+01 7.663011853290e-01 0.0 
7.663011853290e-01 -1.388518949832e+02 0.0 
0.0 0.0 -5.893533385291e+01 
-1.080992891301e+02 7.515518795629e-01 0.0 
7.515518795629e-01 -2.536534700168e+02 0.0 
0.0 0.0 -1.081258277441e+02 
-1.642335289097e+02 6.855177031224e-02 0.0 
6.855177031224e-02 -3.845449007894e+02 0.0 
0.0 0.0 -1.642335289097e+02 
-7.627946460574e+01 -7.582283640654e-01 0.0 
-7.582283640654e-01 -1.793647159158e+02 0.0 
0.0 0.0 -7.629325415645e+01 
-1.185653861337e+02 8.085493189774e-01 0.0 
8.085493189774e-01 -2.779795524387e+02 0.0 
0.0 0.0 -1.185634815717e+02 
-9.709417095320e+01 -7.457735203726e-01 0.0 
-7.457735203726e-01 -2.279183333137e+02 0.0 
0.0 0.0 -9.710375128007e+01 
-1.074839300673e+02 7.544195824787e-01 0.0 
7.544195824787e-01 -2.521451911400e+02 0.0 
0.0 0.0 -1.074887363622e+02 
-6.349889243495e+01 7.438173979167e-01 0.0 
7.438173979167e-01 -1.494629417039e+02 0.0 
0.0 0.0 -6.348855024165e+01 
-1.102188321332e+02 7.919341723445e-01 0.0 
7.919341723445e-01 -2.584951139859e+02 0.0 
0.0 0.0 -1.102141838357e+02 
-9.378863923157e+01 7.506395333228e-01 0.0 
7.506395333228e-01 -2.201921715372e+02 0.0 
0.0 0.0 -9.379424323065e+01 
-1.222033552406e+02 7.882992507996e-01 0.0 
7.882992507996e-01 -2.864732812771e+02 0.0 
0.0 0.0 -1.222029909553e+02 
-1.223290252008e+02 -7.682317376971e-01 0.0 
-7.682317376971e-01 -2.868070894264e+02 0.0 
0.0 0.0 -1.223408343882e+02 
-9.262568173413e+01 -7.459923200206e-01 0.0 
-7.459923200206e-01 -2.174894766077e+02 0.0 
0.0 0.0 -9.263454750256e+01 
-7.843862531562e+01 -7.844721353454e-01 0.0 
-7.844721353454e-01 -1.843052941126e+02 0.0 
0.0 0.0 -7.842317582848e+01 
-5.483135987606e+01 7.265846753323e-01 0.0 
7.265846753323e-01 -1.292756748195e+02 0.0 
0.0 0.0 -5.483211040868e+01 
-7.265321682113e+01 -7.680325810736e-01 0.0 
-7.680325810736e-01 -1.707873853991e+02 0.0 
0.0 0.0 -7.263218066607e+01 
-1.247533738586e+02 7.633757079620e-01 0.0 
7.633757079620e-01 -2.924601811750e+02 0.0 
0.0 0.0 -1.247640665101e+02 
-1.013118034389e+02 -7.540356458693e-01 0.0 
-7.540356458693e-01 -2.377540117376e+02 0.0 
0.0 0.0 -1.013197445530e+02 
-1.640578315794e+02 1.035046308205e-01 0.0 
1.035046308205e-01 -3.840980051428e+02 0.0 
0.0 0.0 -1.640467510167e+02 
-1.444877137702e+02 7.589226567647e-01 0.0 
7.589226567647e-01 -3.383405658134e+02 0.0 
0.0 0.0 -1.444484838751e+02 
-4.713405036479e+01 -7.551146230832e-01 0.0 
-7.551146230832e-01 -1.112704021999e+02 0.0 
0.0 0.0 -4.712133576939e+01 
-1.638622213863e+02 -2.587719268428e-02 0.0 
-2.587719268428e-02 -3.836785165680e+02 0.0 
0.0 0.0 -1.638622213863e+02 
-1.572020055343e+02 2.666988803078e-02 0.0 
2.666988803078e-02 -3.676055989155e+02 0.0 
0.0 0.0 -1.570422813349e+02 
-8.708063230860e+01 -7.446370110601e-01 0.0 
-7.446370110601e-01 -2.045430330943e+02 0.0 
0.0 0.0 -8.708709962087e+01 
-1.088494822285e+01 3.723219173303e-02 0.0 
3.723219173303e-02 -2.558321528178e+01 0.0 
0.0 0.0 -1.091823257308e+01 
-1.644062211423e+02 -1.735095705804e-02 0.0 
-1.735095705804e-02 -3.844676962916e+02 0.0 
0.0 0.0 -1.642621752302e+02 
-1.434505506111e+02 6.725641183322e-01 0.0 
6.725641183322e-01 -3.361650479362e+02 0.0 
0.0 0.0 -1.434846795642e+02 
-5.302026541066e+01 -8.035656381415e-01 0.0 
-8.035656381415e-01 -1.249929345395e+02 0.0 
0.0 0.0 -5.300395998505e+01 
-1.640329642680e+02 5.082323646103e-02 0.0 
5.082323646103e-02 -3.840769166253e+02 0.0 
0.0 0.0 -1.640329642680e+02 
-1.139587751162e+02 7.857199162918e-01 0.0 
7.857199162918e-01 -2.672208987547e+02 0.0 
0.0 0.0 -1.139539021613e+02 
-7.434206175357e+01 -7.245161481990e-01 0.0 
-7.245161481990e-01 -1.748986687557e+02 0.0 
0.0 0.0 -7.437221915277e+01 
-1.019311630253e+02 -6.937997995823e-01 0.0 
-6.937997995823e-01 -2.391428235152e+02 0.0 
0.0 0.0 -1.019221959622e+02 
-9.790001499868e+01 7.880696359786e-01 0.0 
7.880696359786e-01 -2.297848490836e+02 0.0 
0.0 0.0 -9.790545922468e+01 
-9.735229275838e+01 7.825288114412e-01 0.0 
7.825288114412e-01 -2.284738060935e+02 0.0 
0.0 0.0 -9.734782965556e+01 
-1.121533885215e+02 7.581886924665e-01 0.0 
7.581886924665e-01 -2.630261272869e+02 0.0 
0.0 0.0 -1.121538547425e+02 
-1.189854808642e+02 7.926934531996e-01 0.0 
7.926934531996e-01 -2.789080232084e+02 0.0 
0.0 0.0 -1.189680512218e+02 
-8.337540726659e+01 -7.308120757130e-01 0.0 
-7.308120757130e-01 -1.959571780219e+02 0.0 
0.0 0.0 -8.339977558656e+01 
-1.269659169118e+02 -7.990747989609e-01 0.0 
-7.990747989609e-01 -2.976086226815e+02 0.0 
0.0 0.0 -1.269723618780e+02 
-1.083936629637e+02 9.970249729972e-02 0.0 
9.970249729972e-02 -2.546202902361e+02 0.0 
0.0 0.0 -1.085041859599e+02 
-7.862352485132e+01 7.796502450478e-01 0.0 
7.796502450478e-01 -1.847200215558e+02 0.0 
0.0 0.0 -7.860306392214e+01 
-1.176843277949e+02 -7.499688244776e-01 0.0 
-7.499688244776e-01 -2.759808279891e+02 0.0 
0.0 0.0 -1.176995467352e+02 
-6.136550766248e+01 7.165763159850e-01 0.0 
7.165763159850e-01 -1.444767584189e+02 0.0 
0.0 0.0 -6.135267982442e+01 
-1.104863791948e+02 -7.704656105379e-01 0.0 
-7.704656105379e-01 -2.591189604724e+02 0.0 
0.0 0.0 -1.104816019002e+02 
-2.670762295562e+00 4.682100631965e-02 0.0 
4.682100631965e-02 -7.813697001187e+00 0.0 
0.0 0.0 -2.745337789025e+00 
-5.937669566985e+01 6.903388333905e-01 0.0 
6.903388333905e-01 -1.399353567961e+02 0.0 
0.0 0.0 -5.939361573979e+01 
-5.783933967057e+01 7.293174635718e-01 0.0 
7.293174635718e-01 -1.362692899875e+02 0.0 
0.0 0.0 -5.783258889743e+01 
-8.570521918064e+01 -7.745480444123e-01 0.0 
-7.745480444123e-01 -2.012810784962e+02 0.0 
0.0 0.0 -8.569588930305e+01 
-9.159287344214e+01 -7.555760459946e-01 0.0 
-7.555760459946e-01 -2.150604634952e+02 0.0 
0.0 0.0 -9.159600108119e+01 
-1.137824927699e+02 -7.926382374662e-01 0.0 
-7.926382374662e-01 -2.668131168303e+02 0.0 
0.0 0.0 -1.137786828801e+02 
-1.094259503507e+02 7.476716755473e-01 0.0 
7.476716755473e-01 -2.565003166680e+02 0.0 
0.0 0.0 -1.093778801056e+02 
-5.319957481404e+01 7.547609036691e-01 0.0 
7.547609036691e-01 -1.254157719774e+02 0.0 
0.0 0.0 -5.318460403742e+01 
-1.641869070579e+02 -2.536610103424e-02 0.0 
-2.536610103424e-02 -3.844361164684e+02 0.0 
0.0 0.0 -1.641869070579e+02 
-1.071453570563e+02 7.605899182661e-01 0.0 
7.605899182661e-01 -2.514152528133e+02 0.0 
0.0 0.0 -1.071681829609e+02 
-8.931810137452e+01 -7.791599518193e-01 0.0 
-7.791599518193e-01 -2.096917973314e+02 0.0 
0.0 0.0 -8.930296961179e+01 
-1.026947307758e+02 7.494075810277e-01 0.0 
7.494075810277e-01 -2.410061068654e+02 0.0 
0.0 0.0 -1.027102512924e+02 
-8.586324898252e+01 7.830058155692e-01 0.0 
7.830058155692e-01 -2.016800683871e+02 0.0 
0.0 0.0 -8.586299521089e+01 
-4.703337207651e+00 1.614093236169e-02 0.0 
1.614093236169e-02 -9.108606651502e+00 0.0 
0.0 0.0 -4.717829136995e+00 
-1.063848410962e+02 7.489152035423e-01 0.0 
7.489152035423e-01 -2.497072751097e+02 0.0 
0.0 0.0 -1.064276348618e+02 
-7.103030572741e+01 -8.372070815506e-01 0.0 
-8.372070815506e-01 -1.672224093021e+02 0.0 
0.0 0.0 -7.107581450885e+01 
-4.543699563582e+00 -3.463003909547e-02 0.0 
-3.463003909547e-02 -8.874024376562e+00 0.0 
0.0 0.0 -4.579991970689e+00 
-8.460374381836e+01 -8.163484397896e-01 0.0 
-8.163484397896e-01 -1.986673606511e+02 0.0 
0.0 0.0 -8.458133134083e+01 
-1.221005695093e+02 -7.829941687769e-01 0.0 
-7.829941687769e-01 -2.862411065652e+02 0.0 
0.0 0.0 -1.221025028224e+02 
-1.404933446373e+02 -7.837216517115e-01 0.0 
-7.837216517115e-01 -3.291236691726e+02 0.0 
0.0 0.0 -1.404851041430e+02 
-1.039653136707e+02 7.596692420163e-01 0.0 
7.596692420163e-01 -2.439236512253e+02 0.0 
0.0 0.0 -1.039666894688e+02 
-1.072958808567e+02 -7.607878523805e-01 0.0 
-7.607878523805e-01 -2.516924510427e+02 0.0 
0.0 0.0 -1.072964995698e+02 
-9.085908684535e+01 5.999664490875e-01 0.0 
5.999664490875e-01 -2.133465307997e+02 0.0 
0.0 0.0 -9.086168529351e+01 
-8.683688828413e+01 2.918845879984e-02 0.0 
2.918845879984e-02 -2.044550750072e+02 0.0 
0.0 0.0 -8.698758898740e+01 
-1.576327798123e+02 8.972879868811e-02 0.0 
8.972879868811e-02 -3.684393944781e+02 0.0 
0.0 0.0 -1.574216522871e+02 
-9.823331424707e+01 7.590170856356e-01 0.0 
7.590170856356e-01 -2.305812817161e+02 0.0 
0.0 0.0 -9.824437878895e+01 
-2.608540287806e+00 -1.726837184531e-02 0.0 
-1.726837184531e-02 -7.227348681672e+00 0.0 
0.0 0.0 -2.550766690843e+00 
-2.873062395050e+01 8.020777222103e-01 0.0 
8.020777222103e-01 -6.864283244434e+01 0.0 
0.0 0.0 -2.881203691845e+01 
-1.079242306893e+01 4.885835594049e-02 0.0 
4.885835594049e-02 -2.528193561562e+01 0.0 
0.0 0.0 -1.081582086276e+01 
-5.053908524278e+01 6.420113387174e-01 0.0 
6.420113387174e-01 -1.192230725317e+02 0.0 
0.0 0.0 -5.052864733234e+01 
-1.393246834705e+02 8.228412982877e-01 0.0 
8.228412982877e-01 -3.264850997105e+02 0.0 
0.0 0.0 -1.393429349543e+02 
-1.405837614090e+02 7.965191055046e-01 0.0 
7.965191055046e-01 -3.294327811068e+02 0.0 
0.0 0.0 -1.406049627547e+02 
-1.329239275341e+02 -7.739732809138e-01 0.0 
-7.739732809138e-01 -3.115750407091e+02 0.0 
0.0 0.0 -1.329496904730e+02 
-5.726051665412e+01 7.801844066295e-01 0.0 
7.801844066295e-01 -1.348645536275e+02 0.0 
0.0 0.0 -5.723752108449e+01 
-1.106652797449e+02 7.815411241401e-01 0.0 
7.815411241401e-01 -2.595526337363e+02 0.0 
0.0 0.0 -1.106653740444e+02 
-1.399232113264e+02 -7.666409432436e-01 0.0 
-7.666409432436e-01 -3.276440044206e+02 0.0 
0.0 0.0 -1.398701647241e+02 
-3.201770640408e+01 6.989459529932e-01 0.0 
6.989459529932e-01 -7.593716288808e+01 0.0 
0.0 0.0 -3.198646078765e+01 
-7.110595938322e+01 8.998903689515e-01 0.0 
8.998903689515e-01 -1.672994609379e+02 0.0 
0.0 0.0 -7.112162609634e+01 
-5.870391606066e+01 -7.762639505975e-01 0.0 
-7.762639505975e-01 -1.378847737622e+02 0.0 
0.0 0.0 -5.857660694687e+01 
-1.638569217357e+02 -6.578303836955e-02 0.0 
-6.578303836955e-02 -3.840017143884e+02 0.0 
0.0 0.0 -1.639575908372e+02 
-1.641214351382e+02 6.230101527853e-02 0.0 
6.230101527853e-02 -3.842833486559e+02 0.0 
0.0 0.0 -1.641214351382e+02 
-7.893709262229e+01 6.800742221843e-01 0.0 
6.800742221843e-01 -1.857812069199e+02 0.0 
0.0 0.0 -7.901548986267e+01 
-8.955661990902e+01 7.812090311506e-01 0.0 
7.812090311506e-01 -2.101339501077e+02 0.0 
0.0 0.0 -8.950717100502e+01 
-1.007889640576e+02 -7.807469189915e-01 0.0 
-7.807469189915e-01 -2.364946571465e+02 0.0 
0.0 0.0 -1.007850863612e+02 
-1.446844394047e+02 -7.149576026860e-01 0.0 
-7.149576026860e-01 -3.385500800790e+02 0.0 
0.0 0.0 -1.445703558451e+02 
-3.197896680048e+01 -7.897599419537e-01 0.0 
-7.897599419537e-01 -7.601310003229e+01 0.0 
0.0 0.0 -3.199762004983e+01 
-1.351777871197e+02 -7.784858934313e-01 0.0 
-7.784858934313e-01 -3.166622461004e+02 0.0 
0.0 0.0 -1.351520099660e+02 
-1.757099414695e+01 -1.226676848656e-01 0.0 
-1.226676848656e-01 -4.253145756315e+01 0.0 
0.0 0.0 -1.763073551303e+01 
-8.110036037189e+01 7.850508344265e-01 0.0 
7.850508344265e-01 -1.906921067256e+02 0.0 
0.0 0.0 -8.113774012925e+01 
-9.056234518045e+01 7.908698956207e-01 0.0 
7.908698956207e-01 -2.126263492169e+02 0.0 
0.0 0.0 -9.055660831921e+01 
-1.083916006002e+01 -4.092141566490e-02 0.0 
-4.092141566490e-02 -2.555196273836e+01 0.0 
0.0 0.0 -1.089793200929e+01 
-7.525071260887e+01 -7.866351404818e-01 0.0 
-7.866351404818e-01 -1.764878095034e+02 0.0 
0.0 0.0 -7.512155663367e+01 
-1.441988779409e+02 -6.914750029175e-01 0.0 
-6.914750029175e-01 -3.378568777553e+02 0.0 
0.0 0.0 -1.442167267088e+02 
-2.591791874550e+00 -2.141382488139e-02 0.0 
-2.141382488139e-02 -7.715665156758e+00 0.0 
0.0 0.0 -2.692237109392e+00 
-8.712623795283e+01 -5.628086870126e-02 0.0 
-5.628086870126e-02 -2.046028578748e+02 0.0 
0.0 0.0 -8.711872874829e+01 
-8.725431137800e+01 -6.281242066160e-03 0.0 
-6.281242066160e-03 -2.047098618567e+02 0.0 
0.0 0.0 -8.718925197040e+01 
-1.168183402800e+02 7.777995905599e-01 0.0 
7.777995905599e-01 -2.738977646656e+02 0.0 
0.0 0.0 -1.168148314837e+02 
-5.852903724286e+01 7.663389116092e-01 0.0 
7.663389116092e-01 -1.377286096285e+02 0.0 
0.0 0.0 -5.847729406142e+01 
-5.657491923094e+01 -7.904216999294e-01 0.0 
-7.904216999294e-01 -1.332898573691e+02 0.0 
0.0 0.0 -5.655943298001e+01 
-3.921983284934e+01 6.604966080556e-01 0.0 
6.604966080556e-01 -9.283547266414e+01 0.0 
0.0 0.0 -3.921659165404e+01 
-1.447374200701e+02 -7.011957209343e-01 0.0 
-7.011957209343e-01 -3.389705246603e+02 0.0 
0.0 0.0 -1.447123834191e+02 
-1.571558065970e+02 3.220022650752e-02 0.0 
3.220022650752e-02 -3.680820483123e+02 0.0 
0.0 0.0 -1.571713564728e+02 
-1.351385162635e+02 7.853078340665e-01 0.0 
7.853078340665e-01 -3.166555691141e+02 0.0 
0.0 0.0 -1.351382256133e+02 
-5.244791680626e+01 6.561053947008e-01 0.0 
6.561053947008e-01 -1.238331779131e+02 0.0 
0.0 0.0 -5.248432841582e+01 
-1.946814698285e+01 -9.751473474696e-01 0.0 
-9.751473474696e-01 -4.735526528919e+01 0.0 
0.0 0.0 -1.964702368161e+01 
-8.453572247498e+01 7.201140911119e-01 0.0 
7.201140911119e-01 -1.986589827327e+02 0.0 
0.0 0.0 -8.455841156230e+01 
-8.760020035976e+01 1.063471544174e-03 0.0 
1.063471544174e-03 -2.053860582716e+02 0.0 
0.0 0.0 -8.749587758940e+01 
-8.723054373749e+01 1.374747998408e-01 0.0 
1.374747998408e-01 -2.050809514151e+02 0.0 
0.0 0.0 -8.729344854578e+01 
-4.557415068857e+00 -4.462007408830e-02 0.0 
-4.462007408830e-02 -9.064659174230e+00 0.0 
0.0 0.0 -4.655509723566e+00 
-1.082932532776e+01 -8.273455279571e-03 0.0 
-8.273455279571e-03 -2.543337993968e+01 0.0 
0.0 0.0 -1.090014095019e+01 
-1.730924286203e+01 1.742995159734e-01 0.0 
1.742995159734e-01 -4.199794477082e+01 0.0 
0.0 0.0 -1.739215628986e+01 
-4.396389774660e+01 -8.011078587945e-01 0.0 
-8.011078587945e-01 -1.039156171642e+02 0.0 
0.0 0.0 -4.396385447325e+01 
-1.015265542008e+01 -6.834825215474e-04 0.0 
-6.834825215474e-04 -2.561268824950e+01 0.0 
0.0 0.0 -1.032960310087e+01 
-8.312683716859e+01 -7.523741763981e-01 0.0 
-7.523741763981e-01 -1.959852859014e+02 0.0 
0.0 0.0 -8.333363692099e+01 
-4.544042433261e+00 -8.165735092961e-02 0.0 
-8.165735092961e-02 -9.057122279975e+00 0.0 
0.0 0.0 -4.648684779123e+00 
-5.232191801099e+01 -8.141967007394e-01 0.0 
-8.141967007394e-01 -1.233906591844e+02 0.0 
0.0 0.0 -5.231377315861e+01 
-1.159782546889e+02 -2.387410392098e-01 0.0 
-2.387410392098e-01 -2.716916413606e+02 0.0 
0.0 0.0 -1.159009688148e+02 
-8.712966263931e+01 -4.187013849954e-02 0.0 
-4.187013849954e-02 -2.046232807001e+02 0.0 
0.0 0.0 -8.712588300183e+01 
-1.438671568298e+02 8.099905940588e-01 0.0 
8.099905940588e-01 -3.366304418674e+02 0.0 
0.0 0.0 -1.437492796092e+02 
-1.174099071418e+02 -7.844524092735e-01 0.0 
-7.844524092735e-01 -2.752735092891e+02 0.0 
0.0 0.0 -1.174050249293e+02 
-1.083069300348e+02 -3.145979093351e-01 0.0 
-3.145979093351e-01 -2.541510715112e+02 0.0 
0.0 0.0 -1.083374004638e+02 
-6.250574311766e+01 -8.138251919400e-01 0.0 
-8.138251919400e-01 -1.471258960193e+02 0.0 
0.0 0.0 -6.248949174108e+01 
-1.750828485435e+01 2.812949815638e-02 0.0 
2.812949815638e-02 -4.230031503899e+01 0.0 
0.0 0.0 -1.754257996800e+01 
-1.639433892901e+02 8.240139451893e-02 0.0 
8.240139451893e-02 -3.838679083436e+02 0.0 
0.0 0.0 -1.639433892901e+02 
-1.637366913369e+02 3.342410590372e-03 0.0 
3.342410590372e-03 -3.836915781706e+02 0.0 
0.0 0.0 -1.638284808523e+02 
-1.041901596607e+02 -9.277055137743e-01 0.0 
-9.277055137743e-01 -2.441631809889e+02 0.0 
0.0 0.0 -1.041060021949e+02 
-8.704933008231e+01 2.887807369854e-02 0.0 
2.887807369854e-02 -2.048161922653e+02 0.0 
0.0 0.0 -8.715965670427e+01 
-6.340189862465e+01 4.846929686281e-01 0.0 
4.846929686281e-01 -1.491027763451e+02 0.0 
0.0 0.0 -6.335140249093e+01 
-1.639475822182e+02 9.070260171908e-02 0.0 
9.070260171908e-02 -3.839025096934e+02 0.0 
0.0 0.0 -1.639550275735e+02 
-4.889302611983e+01 7.676647395063e-01 0.0 
7.676647395063e-01 -1.154127309258e+02 0.0 
0.0 0.0 -4.889172711369e+01 
-8.713190768987e+01 1.508408816533e-02 0.0 
1.508408816533e-02 -2.044636326275e+02 0.0 
0.0 0.0 -8.707866209522e+01 
-8.734917843382e+01 -3.030840274621e-02 0.0 
-3.030840274621e-02 -2.046659147348e+02 0.0 
0.0 0.0 -8.720452795060e+01 
-8.102852301640e+01 -7.237317190820e-01 0.0 
-7.237317190820e-01 -1.904346489568e+02 0.0 
0.0 0.0 -8.103895159195e+01 
-1.642074851893e+02 7.433870170672e-02 0.0 
7.433870170672e-02 -3.844841321083e+02 0.0 
0.0 0.0 -1.642074851893e+02 
-1.644179170367e+02 -6.537627448056e-02 0.0 
-6.537627448056e-02 -3.842049839864e+02 0.0 
0.0 0.0 -1.641868703069e+02 
-1.014031032549e+01 -5.905874759446e-03 0.0 
-5.905874759446e-03 -2.543972406138e+01 0.0 
0.0 0.0 -1.027401031606e+01 
-4.701452055421e+00 -2.582056410126e-03 0.0 
-2.582056410126e-03 -9.141526489348e+00 0.0 
0.0 0.0 -4.730148370727e+00 
-2.360273183845e+01 -7.636761844798e-01 0.0 
-7.636761844798e-01 -5.682663083121e+01 0.0 
0.0 0.0 -2.372880880090e+01 
-9.039491799471e+01 -7.860723954349e-01 0.0 
-7.860723954349e-01 -2.122194119317e+02 0.0 
0.0 0.0 -9.038429897792e+01 
-1.505901615973e+02 -9.416541771889e-01 0.0 
-9.416541771889e-01 -3.526856560953e+02 0.0 
0.0 0.0 -1.505827453078e+02 
-2.556452395591e+00 1.624719973942e-01 0.0 
1.624719973942e-01 -7.158478524464e+00 0.0 
0.0 0.0 -2.514479276016e+00 
-1.337953552240e+02 8.559636775742e-01 0.0 
8.559636775742e-01 -3.135934419983e+02 0.0 
0.0 0.0 -1.338166391667e+02 
-4.706298656401e+00 -1.236766637131e-02 0.0 
-1.236766637131e-02 -9.181413013397e+00 0.0 
0.0 0.0 -4.747263541675e+00 
-1.155299572167e+02 -7.808439138902e-01 0.0 
-7.808439138902e-01 -2.709149665384e+02 0.0 
0.0 0.0 -1.155334771265e+02 
-2.667066719564e+00 -3.722747148441e-02 0.0 
-3.722747148441e-02 -8.009602238648e+00 0.0 
0.0 0.0 -2.803000687463e+00 
-2.696985173377e+00 5.901131287776e-02 0.0 
5.901131287776e-02 -7.960932797795e+00 0.0 
0.0 0.0 -2.797375391352e+00 
-1.108542260454e+02 -7.810168589087e-01 0.0 
-7.810168589087e-01 -2.600262777632e+02 0.0 
0.0 0.0 -1.108641511426e+02 
-1.463966324748e+02 -7.845185780406e-01 0.0 
-7.845185780406e-01 -3.428712996673e+02 0.0 
0.0 0.0 -1.463803796426e+02 
-1.152816769662e+02 3.778109168493e-01 0.0 
3.778109168493e-01 -2.703078113882e+02 0.0 
0.0 0.0 -1.152768465063e+02 
-8.795815834494e+01 7.090369256736e-01 0.0 
7.090369256736e-01 -2.066297556148e+02 0.0 
0.0 0.0 -8.797637418791e+01 
-1.079850629268e+01 4.218537641377e-02 0.0 
4.218537641377e-02 -2.553919915890e+01 0.0 
0.0 0.0 -1.088380575997e+01 
-1.142557171819e+02 7.860385070826e-01 0.0 
7.860385070826e-01 -2.679385082132e+02 0.0 
0.0 0.0 -1.142582676185e+02 
-1.636083519887e+02 1.010499715912e-01 0.0 
1.010499715912e-01 -3.830861546402e+02 0.0 
0.0 0.0 -1.636083519887e+02 
-1.638676775381e+02 5.830369468768e-01 0.0 
5.830369468768e-01 -3.837904581314e+02 0.0 
0.0 0.0 -1.638974407009e+02 
-8.714877302174e+01 -4.839639765075e-02 0.0 
-4.839639765075e-02 -2.046784194062e+02 0.0 
0.0 0.0 -8.714815772838e+01 
-1.202031927686e+02 -7.639015320410e-01 0.0 
-7.639015320410e-01 -2.817989098691e+02 0.0 
0.0 0.0 -1.202006307913e+02 
-1.640884960114e+02 -5.523649530996e-02 0.0 
-5.523649530996e-02 -3.842064906933e+02 0.0 
0.0 0.0 -1.640884960114e+02 
-1.282819569596e+02 8.349451483693e-01 0.0 
8.349451483693e-01 -3.007058786231e+02 0.0 
0.0 0.0 -1.282963506748e+02 
-1.694650209673e+01 -1.946226166346e-01 0.0 
-1.946226166346e-01 -4.124089923678e+01 0.0 
0.0 0.0 -1.705622040006e+01 
-1.009153215338e+01 3.549289123149e-04 0.0 
3.549289123149e-04 -2.541787564402e+01 0.0 
0.0 0.0 -1.025282233922e+01 
-1.053422740821e+01 1.429159747201e-01 0.0 
1.429159747201e-01 -2.512780900268e+01 0.0 
0.0 0.0 -1.053987843730e+01 
-7.093083077660e+01 -7.833676209351e-01 0.0 
-7.833676209351e-01 -1.666718850657e+02 0.0 
0.0 0.0 -7.088081475268e+01 
-1.638330239903e+02 4.813469147054e-01 0.0 
4.813469147054e-01 -3.838992496018e+02 0.0 
0.0 0.0 -1.639196820776e+02 
-1.550790846619e+02 9.324183266926e-01 0.0 
9.324183266926e-01 -3.629395164643e+02 0.0 
0.0 0.0 -1.550055803379e+02 
-4.540993397827e+00 4.649851077927e-02 0.0 
4.649851077927e-02 -9.108951122348e+00 0.0 
0.0 0.0 -4.663661467723e+00 
-8.342109376865e+01 7.448949140608e-01 0.0 
7.448949140608e-01 -1.961144805775e+02 0.0 
0.0 0.0 -8.346067230383e+01 
-1.644761636703e+02 -2.261060673235e-02 0.0 
-2.261060673235e-02 -3.851110485641e+02 0.0 
0.0 0.0 -1.644761636703e+02 
-1.635792982100e+02 -1.483870798680e-01 0.0 
-1.483870798680e-01 -3.835128225950e+02 0.0 
0.0 0.0 -1.637276362415e+02 
-1.641487641243e+02 -7.578650207500e-03 0.0 
-7.578650207500e-03 -3.838817303207e+02 0.0 
0.0 0.0 -1.640091483335e+02 
-1.254767675359e+02 -8.592234325595e-01 0.0 
-8.592234325595e-01 -2.943120358138e+02 0.0 
0.0 0.0 -1.255366410049e+02 
-1.382490927390e+02 8.671861327637e-01 0.0 
8.671861327637e-01 -3.237086373773e+02 0.0 
0.0 0.0 -1.381873190349e+02 
-1.636590376655e+02 2.718521535304e-02 0.0 
2.718521535304e-02 -3.832044212194e+02 0.0 
0.0 0.0 -1.636590376655e+02 
-1.640264922717e+02 1.110591366209e-01 0.0 
1.110591366209e-01 -3.840618153005e+02 0.0 
0.0 0.0 -1.640264922717e+02 
-1.339860147389e+02 -7.043629307868e-01 0.0 
-7.043629307868e-01 -3.137537369088e+02 0.0 
0.0 0.0 -1.339219254943e+02 
-2.444956670931e+00 -2.367003905127e-01 0.0 
-2.367003905127e-01 -6.762608184194e+00 0.0 
0.0 0.0 -2.362269456537e+00 
-8.703135274661e+01 4.858863167169e-03 0.0 
4.858863167169e-03 -2.043846460370e+02 0.0 
0.0 0.0 -8.702479963507e+01 
-8.723859102435e+01 -1.222063898992e-01 0.0 
-1.222063898992e-01 -2.051085797307e+02 0.0 
0.0 0.0 -8.730415122651e+01 
-4.657689379450e+00 2.714627652559e-02 0.0 
2.714627652559e-02 -9.108596841614e+00 0.0 
0.0 0.0 -4.706037608671e+00 
-1.643490349198e+02 -4.374004348045e-02 0.0 
-4.374004348045e-02 -3.848144148128e+02 0.0 
0.0 0.0 -1.643490349198e+02 
-1.634810042166e+02 -1.036373097116e-01 0.0 
-1.036373097116e-01 -3.832779063327e+02 0.0 
0.0 0.0 -1.636276731648e+02 
-1.636223513674e+02 -4.212926583538e-03 0.0 
-4.212926583538e-03 -3.831188198573e+02 0.0 
0.0 0.0 -1.636223513674e+02 
-2.567011027491e+00 3.308647316188e-02 0.0 
3.308647316188e-02 -7.836693893450e+00 0.0 
0.0 0.0 -2.721111476282e+00 
-2.551621101837e+00 -4.498428631268e-02 0.0 
-4.498428631268e-02 -7.936485048132e+00 0.0 
0.0 0.0 -2.746431844991e+00 
-1.639484296737e+02 2.916694991934e-03 0.0 
2.916694991934e-03 -3.838796692386e+02 0.0 
0.0 0.0 -1.639484296737e+02 
-1.638639602868e+02 8.030188825841e-02 0.0 
8.030188825841e-02 -3.836825740025e+02 0.0 
0.0 0.0 -1.638639602868e+02 
-1.210672079217e+02 9.275174950865e-01 0.0 
9.275174950865e-01 -2.844454394914e+02 0.0 
0.0 0.0 -1.212537942239e+02 
-8.684024439947e+01 -1.283241286403e-01 0.0 
-1.283241286403e-01 -2.040505673637e+02 0.0 
0.0 0.0 -8.686724352894e+01 
-1.298511433136e+02 9.096707043304e-01 0.0 
9.096707043304e-01 -3.040975316638e+02 0.0 
0.0 0.0 -1.297846024932e+02 
-1.042840067944e+02 9.008223076574e-01 0.0 
9.008223076574e-01 -2.452824315264e+02 0.0 
0.0 0.0 -1.044699314962e+02 
-8.708294403570e+01 -5.327538408606e-02 0.0 
-5.327538408606e-02 -2.041377429492e+02 0.0 
0.0 0.0 -8.696620609548e+01 
-2.712649705860e+00 -1.327148135038e-01 0.0 
-1.327148135038e-01 -7.436256902625e+00 0.0 
0.0 0.0 -2.644671982546e+00 
-2.975737603006e+00 1.616360861658e-01 0.0 
1.616360861658e-01 -8.170821692215e+00 0.0 
0.0 0.0 -2.943967788566e+00 
-2.826813173686e+00 5.130567715888e-02 0.0 
5.130567715888e-02 -7.714250332799e+00 0.0 
0.0 0.0 -2.762319051945e+00 
-2.754290189483e+00 6.305604087657e-02 0.0 
6.305604087657e-02 -7.836456491374e+00 0.0 
0.0 0.0 -2.777224004257e+00 
-8.761406671428e+01 -9.293561876916e-01 0.0 
-9.293561876916e-01 -2.061346163688e+02 0.0 
0.0 0.0 -8.772460492494e+01 
-7.930605326386e+01 -8.146382879031e-01 0.0 
-8.146382879031e-01 -1.862874679368e+02 0.0 
0.0 0.0 -7.927805636021e+01 
-4.655388613068e+00 2.056240501856e-02 0.0 
2.056240501856e-02 -9.111609297953e+00 0.0 
0.0 0.0 -4.707126844242e+00 
-1.127059985266e+02 -8.852963055891e-01 0.0 
-8.852963055891e-01 -2.642467955133e+02 0.0 
0.0 0.0 -1.126858382120e+02 
-4.717663221153e+00 -2.266153378579e-02 0.0 
-2.266153378579e-02 -9.069858338503e+00 0.0 
0.0 0.0 -4.708095640670e+00 
-1.639577828373e+02 -2.246125203649e-02 0.0 
-2.246125203649e-02 -3.839014932869e+02 0.0 
0.0 0.0 -1.639577828373e+02 
-1.638367271891e+02 -5.088923267443e-02 0.0 
-5.088923267443e-02 -3.836190301079e+02 0.0 
0.0 0.0 -1.638367271891e+02 
-1.638479418285e+02 2.613609556814e-02 0.0 
2.613609556814e-02 -3.836451975998e+02 0.0 
0.0 0.0 -1.638479418285e+02 
-2.883005698978e+01 -9.530522395326e-01 0.0 
-9.530522395326e-01 -6.838967989605e+01 0.0 
0.0 0.0 -2.876592106575e+01 
-5.420797944044e+01 -8.274431779433e-01 0.0 
-8.274431779433e-01 -1.275360987379e+02 0.0 
0.0 0.0 -5.412322345352e+01 
-1.635886020453e+02 1.854491465093e-02 0.0 
1.854491465093e-02 -3.830400714389e+02 0.0 
0.0 0.0 -1.635886020453e+02 
-1.382149242902e+02 -7.561333037103e-01 0.0 
-7.561333037103e-01 -3.237023606207e+02 0.0 
0.0 0.0 -1.381751854733e+02 
-1.644570693461e+02 8.380661459230e-02 0.0 
8.380661459230e-02 -3.850664951409e+02 0.0 
0.0 0.0 -1.644570693461e+02 
-1.466051394317e+02 -8.054934126455e-01 0.0 
-8.054934126455e-01 -3.434920723516e+02 0.0 
0.0 0.0 -1.466291635350e+02 
-1.550877257340e+02 -9.286879545375e-01 0.0 
-9.286879545375e-01 -3.633264362386e+02 0.0 
0.0 0.0 -1.551242485918e+02 
-7.509346918529e+01 8.163477531448e-01 0.0 
8.163477531448e-01 -1.764212718757e+02 0.0 
0.0 0.0 -7.505442231831e+01 
-1.634929490264e+02 1.311407540009e-01 0.0 
1.311407540009e-01 -3.832247354289e+02 0.0 
0.0 0.0 -1.636153053366e+02 
-1.637162662913e+02 -4.667088634919e-01 0.0 
-4.667088634919e-01 -3.837211727086e+02 0.0 
0.0 0.0 -1.638312317000e+02 
-1.419559207814e+02 8.276579481152e-01 0.0 
8.276579481152e-01 -3.325472621571e+02 0.0 
0.0 0.0 -1.419509548815e+02 
-1.505988744333e+02 8.223361467261e-01 0.0 
8.223361467261e-01 -3.528320739901e+02 0.0 
0.0 0.0 -1.506292845270e+02 
-1.215591511590e+02 7.477735606015e-01 0.0 
7.477735606015e-01 -2.848228709173e+02 0.0 
0.0 0.0 -1.215146066229e+02 
-4.698323687113e+00 3.378305508546e-03 0.0 
3.378305508546e-03 -9.118990830062e+00 0.0 
0.0 0.0 -4.721670538032e+00 
-7.622645708146e+01 8.092815446677e-01 0.0 
8.092815446677e-01 -1.796589982779e+02 0.0 
0.0 0.0 -7.636563660782e+01 
-1.002313086764e+01 1.202661782251e-01 0.0 
1.202661782251e-01 -2.516123328440e+01 0.0 
0.0 0.0 -1.015530924561e+01 
-1.448044539943e+02 6.939041967029e-01 0.0 
6.939041967029e-01 -3.392009873240e+02 0.0 
0.0 0.0 -1.448016323955e+02 
-8.100127262873e+01 -7.748106404022e-01 0.0 
-7.748106404022e-01 -1.903118537178e+02 0.0 
0.0 0.0 -8.099393790396e+01 
-1.344229214209e+02 -7.482232833715e-01 0.0 
-7.482232833715e-01 -3.148968208868e+02 0.0 
0.0 0.0 -1.343959226923e+02 
-4.050621778906e+01 7.791499479966e-01 0.0 
7.791499479966e-01 -9.593904737803e+01 0.0 
0.0 0.0 -4.053357955013e+01 
-1.736849564013e+01 -4.229405347928e-01 0.0 
-4.229405347928e-01 -4.133450409396e+01 0.0 
0.0 0.0 -1.721089992023e+01 
-1.428184178028e+02 7.589522513459e-01 0.0 
7.589522513459e-01 -3.345447156208e+02 0.0 
0.0 0.0 -1.428089400271e+02 
-8.493133862701e+01 7.906446315960e-01 0.0 
7.906446315960e-01 -1.991756634374e+02 0.0 
0.0 0.0 -8.483210061933e+01 
-6.654205924405e+01 -8.038829448769e-01 0.0 
-8.038829448769e-01 -1.569991256644e+02 0.0 
0.0 0.0 -6.666235547252e+01 
-1.345944482752e+02 7.648785689087e-01 0.0 
7.648785689087e-01 -3.153135141909e+02 0.0 
0.0 0.0 -1.345723887398e+02 
-1.457936795222e+02 -7.821756983878e-01 0.0 
-7.821756983878e-01 -3.412462774303e+02 0.0 
0.0 0.0 -1.457119870857e+02 
-6.678736951633e+01 8.150618605920e-01 0.0 
8.150618605920e-01 -1.570604794664e+02 0.0 
0.0 0.0 -6.675435469483e+01 
-1.269549572774e+02 8.132050556313e-01 0.0 
8.132050556313e-01 -2.975535931810e+02 0.0 
0.0 0.0 -1.269525651375e+02 
-1.116042667870e+02 -7.754239470498e-01 0.0 
-7.754239470498e-01 -2.617367002065e+02 0.0 
0.0 0.0 -1.116022900981e+02 
-1.213524059986e+02 -8.121175195081e-01 0.0 
-8.121175195081e-01 -2.843908532786e+02 0.0 
0.0 0.0 -1.213229777832e+02 
-1.250548418560e+02 -7.472733617248e-01 0.0 
-7.472733617248e-01 -2.931274013775e+02 0.0 
0.0 0.0 -1.250546729701e+02 
-6.880144606830e+01 -7.624598450066e-01 0.0 
-7.624598450066e-01 -1.619014638779e+02 0.0 
0.0 0.0 -6.881087298385e+01 
-8.018015456223e+01 6.923505038153e-01 0.0 
6.923505038153e-01 -1.884929435822e+02 0.0 
0.0 0.0 -8.020192944332e+01 
-8.830637233824e+01 7.406789501851e-01 0.0 
7.406789501851e-01 -2.073859622146e+02 0.0 
0.0 0.0 -8.830770036585e+01 
-1.140870661366e+02 -7.808744956685e-01 0.0 
-7.808744956685e-01 -2.675212095123e+02 0.0 
0.0 0.0 -1.140824826947e+02 
-1.382739431118e+02 8.193308448154e-01 0.0 
8.193308448154e-01 -3.239592564319e+02 0.0 
0.0 0.0 -1.382699598631e+02 
-1.288445914518e+02 -7.832866562487e-01 0.0 
-7.832866562487e-01 -3.020601233444e+02 0.0 
0.0 0.0 -1.288714144388e+02 
-4.221056251441e+01 -7.917504219311e-01 0.0 
-7.917504219311e-01 -9.974310340296e+01 0.0 
0.0 0.0 -4.218609977521e+01 
-1.453880117998e+02 -8.783812868393e-01 0.0 
-8.783812868393e-01 -3.400677902003e+02 0.0 
0.0 0.0 -1.452367406000e+02 
-1.366820611394e+02 -8.377240990100e-01 0.0 
-8.377240990100e-01 -3.203286535020e+02 0.0 
0.0 0.0 -1.367032143924e+02 
-9.829345295375e+01 -9.399577404077e-01 0.0 
-9.399577404077e-01 -2.307781285829e+02 0.0 
0.0 0.0 -9.832147446099e+01 
-1.188201053811e+02 -7.786864822146e-01 0.0 
-7.786864822146e-01 -2.785664571391e+02 0.0 
0.0 0.0 -1.188159687560e+02 
-1.177141521795e+02 -7.912105230781e-01 0.0 
-7.912105230781e-01 -2.759599015940e+02 0.0 
0.0 0.0 -1.177022161321e+02 
-1.458624680762e+02 8.465125275807e-01 0.0 
8.465125275807e-01 -3.419360737542e+02 0.0 
0.0 0.0 -1.459395625491e+02 
-1.412606618444e+02 -7.436644086374e-01 0.0 
-7.436644086374e-01 -3.309512872601e+02 0.0 
0.0 0.0 -1.412635847313e+02 
-1.081843838152e+02 7.817393139040e-01 0.0 
7.817393139040e-01 -2.537512154304e+02 0.0 
0.0 0.0 -1.081806797737e+02 
-1.465747931841e+02 7.789361599433e-01 0.0 
7.789361599433e-01 -3.431483399323e+02 0.0 
0.0 0.0 -1.465169399349e+02 
-1.350026221368e+02 -7.759858552140e-01 0.0 
-7.759858552140e-01 -3.163346044639e+02 0.0 
0.0 0.0 -1.350011679802e+02 
-1.288985975861e+02 7.247078312557e-01 0.0 
7.247078312557e-01 -3.020812417485e+02 0.0 
0.0 0.0 -1.288939518004e+02 
-1.488835479229e+02 8.767243359836e-01 0.0 
8.767243359836e-01 -3.486539718638e+02 0.0 
0.0 0.0 -1.488612559360e+02 
-1.453109913447e+02 8.269910671555e-01 0.0 
8.269910671555e-01 -3.404398686612e+02 0.0 
0.0 0.0 -1.453252580018e+02 
-1.238366756367e+02 8.267391595772e-01 0.0 
8.267391595772e-01 -2.903039761213e+02 0.0 
0.0 0.0 -1.238421955274e+02 
-1.222917821226e+02 7.794497334956e-01 0.0 
7.794497334956e-01 -2.866606592344e+02 0.0 
0.0 0.0 -1.222857324071e+02 
-4.178782493067e+01 -7.642732146686e-01 0.0 
-7.642732146686e-01 -9.876301457901e+01 0.0 
0.0 0.0 -4.176525185290e+01 
-3.887598288342e+01 -7.629529918198e-01 0.0 
-7.629529918198e-01 -9.199494420614e+01 0.0 
0.0 0.0 -3.886127812687e+01 
-1.980967303400e+01 9.343279063607e-01 0.0 
9.343279063607e-01 -4.787255427893e+01 0.0 
0.0 0.0 -1.990466819388e+01 
-1.026155989925e+01 -2.065913403805e-02 0.0 
-2.065913403805e-02 -2.543612731673e+01 0.0 
0.0 0.0 -1.030930616479e+01 
-1.414392259619e+02 8.159937514811e-01 0.0 
8.159937514811e-01 -3.312444233961e+02 0.0 
0.0 0.0 -1.414050948074e+02 
-1.417575869070e+02 -7.743117505653e-01 0.0 
-7.743117505653e-01 -3.320048600644e+02 0.0 
0.0 0.0 -1.417287340914e+02 
-1.016668224734e+01 -3.662658035007e-02 0.0 
-3.662658035007e-02 -2.507947277318e+01 0.0 
0.0 0.0 -1.017384650616e+01 
-1.427059501587e+02 7.802153810971e-01 0.0 
7.802153810971e-01 -3.341134513418e+02 0.0 
0.0 0.0 -1.426458204501e+02 
-1.024356510616e+02 -8.566661746819e-01 0.0 
-8.566661746819e-01 -2.398286707661e+02 0.0 
0.0 0.0 -1.022792965483e+02 
-1.310235588529e+02 8.011861727847e-01 0.0 
8.011861727847e-01 -3.069360216608e+02 0.0 
0.0 0.0 -1.309878741541e+02 
-1.333360178872e+02 -7.731455953218e-01 0.0 
-7.731455953218e-01 -3.124640827458e+02 0.0 
0.0 0.0 -1.333400301899e+02 
-5.997704802581e+01 -7.391406654169e-01 0.0 
-7.391406654169e-01 -1.412530943184e+02 0.0 
0.0 0.0 -5.996904270325e+01 
-1.335079944969e+02 7.957154327320e-01 0.0 
7.957154327320e-01 -3.128600549765e+02 0.0 
0.0 0.0 -1.335104148420e+02 
-9.837331964186e+01 1.084523128979e+00 0.0 
1.084523128979e+00 -2.307481333248e+02 0.0 
0.0 0.0 -9.833643589001e+01 
-1.224846369772e+02 7.909339093542e-01 0.0 
7.909339093542e-01 -2.872015620669e+02 0.0 
0.0 0.0 -1.225058597132e+02 
-1.527285167400e+02 -8.972506695264e-01 0.0 
-8.972506695264e-01 -3.573828573998e+02 0.0 
0.0 0.0 -1.526334122419e+02 
-4.036529500771e+01 -5.869141423140e-01 0.0 
-5.869141423140e-01 -9.545894050880e+01 0.0 
0.0 0.0 -4.034727065495e+01 
-1.495474818632e+02 6.700158985036e-01 0.0 
6.700158985036e-01 -3.504434649200e+02 0.0 
0.0 0.0 -1.495972840350e+02 
-1.284840174455e+02 7.536411354000e-01 0.0 
7.536411354000e-01 -3.011204499090e+02 0.0 
0.0 0.0 -1.284813402064e+02 
-4.541058629796e+01 -8.156745514277e-01 0.0 
-8.156745514277e-01 -1.071765671254e+02 0.0 
0.0 0.0 -4.537614602702e+01 
-4.730302656417e+01 7.277913252146e-01 0.0 
7.277913252146e-01 -1.116354777248e+02 0.0 
0.0 0.0 -4.728155128668e+01 
-9.557161808887e+01 -7.998128487042e-01 0.0 
-7.998128487042e-01 -2.242908821719e+02 0.0 
0.0 0.0 -9.555875007823e+01 
-1.144537960857e+02 -8.144055165669e-01 0.0 
-8.144055165669e-01 -2.685777808490e+02 0.0 
0.0 0.0 -1.145094730804e+02 
-6.430777847487e+01 -7.773120032476e-01 0.0 
-7.773120032476e-01 -1.512800578304e+02 0.0 
0.0 0.0 -6.427635089158e+01 
-1.330751525528e+02 8.057839591217e-01 0.0 
8.057839591217e-01 -3.118392354592e+02 0.0 
0.0 0.0 -1.330743164036e+02 
-1.199407856257e+02 8.968550746947e-01 0.0 
8.968550746947e-01 -2.810418080109e+02 0.0 
0.0 0.0 -1.198947780910e+02 
-9.295769258489e+01 -7.552274041858e-01 0.0 
-7.552274041858e-01 -2.181799076206e+02 0.0 
0.0 0.0 -9.294128006164e+01 
-1.250702351529e+02 7.392827937958e-01 0.0 
7.392827937958e-01 -2.932853162467e+02 0.0 
0.0 0.0 -1.251066654199e+02 
-1.298883151037e+02 8.005300470610e-01 0.0 
8.005300470610e-01 -3.043820821467e+02 0.0 
0.0 0.0 -1.298811191751e+02 
-1.282026123320e+02 -8.732353744439e-01 0.0 
-8.732353744439e-01 -3.006699451558e+02 0.0 
0.0 0.0 -1.282617672463e+02 
-3.489708898272e+01 7.346147998307e-01 0.0 
7.346147998307e-01 -8.269716878623e+01 0.0 
0.0 0.0 -3.487827733069e+01 
-8.828457432901e+01 -7.509455192950e-01 0.0 
-7.509455192950e-01 -2.072645095088e+02 0.0 
0.0 0.0 -8.826472515133e+01 
-1.398801117100e+02 -8.358918563608e-01 0.0 
-8.358918563608e-01 -3.275927379031e+02 0.0 
0.0 0.0 -1.398418548839e+02 
-1.322458258797e+02 7.947133117790e-01 0.0 
7.947133117790e-01 -3.099153217760e+02 0.0 
0.0 0.0 -1.322483442967e+02 
-7.983553767182e+01 -8.695148898329e-01 0.0 
-8.695148898329e-01 -1.874920138525e+02 0.0 
0.0 0.0 -7.979826545731e+01 
-1.117948562290e+02 7.820542010870e-01 0.0 
7.820542010870e-01 -2.621752089773e+02 0.0 
0.0 0.0 -1.117910195619e+02 
-1.461638626610e+02 8.109556454692e-01 0.0 
8.109556454692e-01 -3.423838572397e+02 0.0 
0.0 0.0 -1.461643159702e+02 
-1.238268211022e+02 -7.636515888135e-01 0.0 
-7.636515888135e-01 -2.900344560003e+02 0.0 
0.0 0.0 -1.237583831307e+02 
-1.900114848000e+01 8.762825495049e-01 0.0 
8.762825495049e-01 -4.582394856187e+01 0.0 
0.0 0.0 -1.904752911256e+01 
-1.929570232022e+01 8.433729112865e-01 0.0 
8.433729112865e-01 -4.659517080939e+01 0.0 
0.0 0.0 -1.936726193888e+01 
-4.004467168352e+01 7.279011675025e-01 0.0 
7.279011675025e-01 -9.488113797272e+01 0.0 
0.0 0.0 -4.007774289687e+01 
-1.380708257879e+02 -8.033504228457e-01 0.0 
-8.033504228457e-01 -3.235222622452e+02 0.0 
0.0 0.0 -1.380779264099e+02 
-1.190805889916e+02 -7.765178271594e-01 0.0 
-7.765178271594e-01 -2.793017669898e+02 0.0 
0.0 0.0 -1.191147067944e+02 
-1.041727667613e+02 8.610369104040e-01 0.0 
8.610369104040e-01 -2.440193797466e+02 0.0 
0.0 0.0 -1.040576439524e+02 
-1.062166534805e+02 -7.616311334924e-01 0.0 
-7.616311334924e-01 -2.491350355999e+02 0.0 
0.0 0.0 -1.062055067241e+02 
-1.400246627978e+02 7.768835142309e-01 0.0 
7.768835142309e-01 -3.280071990003e+02 0.0 
0.0 0.0 -1.400095585394e+02 
-9.657259336581e+01 -7.599860071325e-01 0.0 
-7.599860071325e-01 -2.266456985942e+02 0.0 
0.0 0.0 -9.656548758800e+01 
-1.297427786525e+02 -7.843850546160e-01 0.0 
-7.843850546160e-01 -3.039727540079e+02 0.0 
0.0 0.0 -1.297146597981e+02 
-4.201508386834e+01 7.336464177001e-01 0.0 
7.336464177001e-01 -9.920652079704e+01 0.0 
0.0 0.0 -4.196648139961e+01 
-1.488767425233e+02 -9.627993726061e-01 0.0 
-9.627993726061e-01 -3.487602417489e+02 0.0 
0.0 0.0 -1.488910952817e+02 
-9.313270009653e+01 7.954400568633e-01 0.0 
7.954400568633e-01 -2.186039080917e+02 0.0 
0.0 0.0 -9.312098245648e+01 
-4.548292949195e+01 7.819937217451e-01 0.0 
7.819937217451e-01 -1.075630151462e+02 0.0 
0.0 0.0 -4.551378339146e+01 
-8.844507670145e+01 8.574258017014e-01 0.0 
8.574258017014e-01 -2.077089492910e+02 0.0 
0.0 0.0 -8.844620779775e+01 
-6.793396035576e+01 -7.484085271042e-01 0.0 
-7.484085271042e-01 -1.597198689442e+02 0.0 
0.0 0.0 -6.789614878998e+01 
-5.250357845743e+01 7.763432948266e-01 0.0 
7.763432948266e-01 -1.238234524104e+02 0.0 
0.0 0.0 -5.249810926034e+01 
-1.037737171818e+02 -7.537226239573e-01 0.0 
-7.537226239573e-01 -2.434034531643e+02 0.0 
0.0 0.0 -1.037531511038e+02 
-4.974798910001e+00 6.339124857906e-02 0.0 
6.339124857906e-02 -9.422075314976e+00 0.0 
0.0 0.0 -4.914731494216e+00 
-5.156703610224e+00 -1.754249462892e-02 0.0 
-1.754249462892e-02 -9.576720598895e+00 0.0 
0.0 0.0 -5.030034996741e+00 
-1.178786486594e+02 7.726922371584e-01 0.0 
7.726922371584e-01 -2.763736007406e+02 0.0 
0.0 0.0 -1.178756748200e+02 
-3.854921717367e+01 7.042283081783e-01 0.0 
7.042283081783e-01 -9.108402545220e+01 0.0 
0.0 0.0 -3.848997278776e+01 
-1.190063078049e+02 7.909059873842e-01 0.0 
7.909059873842e-01 -2.789906658642e+02 0.0 
0.0 0.0 -1.189990921007e+02 
-1.154043154595e+02 7.799833542048e-01 0.0 
7.799833542048e-01 -2.705968455528e+02 0.0 
0.0 0.0 -1.154003483037e+02 
-7.373459728168e+01 -7.854824318474e-01 0.0 
-7.854824318474e-01 -1.733090082176e+02 0.0 
0.0 0.0 -7.371308164979e+01 
-4.832834209780e+01 -7.895395989273e-01 0.0 
-7.895395989273e-01 -1.140138724246e+02 0.0 
0.0 0.0 -4.830266435672e+01 
-1.397745254432e+02 8.166398768371e-01 0.0 
8.166398768371e-01 -3.274478333326e+02 0.0 
0.0 0.0 -1.397667076327e+02 
-2.083453146837e+01 3.821938863625e-01 0.0 
3.821938863625e-01 -5.006677714863e+01 0.0 
0.0 0.0 -2.087039258510e+01 
-7.156000032369e+01 -6.977670665001e-01 0.0 
-6.977670665001e-01 -1.683480132888e+02 0.0 
0.0 0.0 -7.157240408375e+01 
-1.444376165036e+02 6.657891755771e-01 0.0 
6.657891755771e-01 -3.382636851635e+02 0.0 
0.0 0.0 -1.444103905001e+02 
-3.335217023945e+01 -7.579135457180e-01 0.0 
-7.579135457180e-01 -7.874761267248e+01 0.0 
0.0 0.0 -3.322993487358e+01 
-1.108374304611e+02 7.692966151592e-01 0.0 
7.692966151592e-01 -2.600828700401e+02 0.0 
0.0 0.0 -1.108760901504e+02 
-1.024429733503e+02 8.922189521118e-01 0.0 
8.922189521118e-01 -2.401665254343e+02 0.0 
0.0 0.0 -1.023828496354e+02 
-3.221344965819e+01 7.722913408161e-01 0.0 
7.722913408161e-01 -7.648983219649e+01 0.0 
0.0 0.0 -3.221098455641e+01 
-1.424665062378e+02 7.178976178278e-01 0.0 
7.178976178278e-01 -3.337862029903e+02 0.0 
0.0 0.0 -1.424758127684e+02 
-1.267828595118e+02 7.952644119896e-01 0.0 
7.952644119896e-01 -2.971793391834e+02 0.0 
0.0 0.0 -1.267886596086e+02 
-3.824147358817e+01 -7.203052271524e-01 0.0 
-7.203052271524e-01 -9.054383381612e+01 0.0 
0.0 0.0 -3.823559222129e+01 
-1.434028445520e+02 7.407246604844e-01 0.0 
7.407246604844e-01 -3.359036317726e+02 0.0 
0.0 0.0 -1.433919428974e+02 
-1.431774650477e+02 -6.830552024261e-01 0.0 
-6.830552024261e-01 -3.354898985281e+02 0.0 
0.0 0.0 -1.432002090727e+02 
-4.305109722939e+01 8.228115822939e-01 0.0 
8.228115822939e-01 -1.016995172979e+02 0.0 
0.0 0.0 -4.302518435819e+01 
-5.676909223032e+01 8.551795134861e-01 0.0 
8.551795134861e-01 -1.339954296882e+02 0.0 
0.0 0.0 -5.682935657556e+01 
-4.414836529345e+01 7.768005156789e-01 0.0 
7.768005156789e-01 -1.043464084819e+02 0.0 
0.0 0.0 -4.414843213261e+01 
-1.263099550519e+02 7.832515427416e-01 0.0 
7.832515427416e-01 -2.958789656595e+02 0.0 
0.0 0.0 -1.262566762134e+02 
-1.001857323134e+02 -7.657379052046e-01 0.0 
-7.657379052046e-01 -2.351140757344e+02 0.0 
0.0 0.0 -1.001899424143e+02 
-1.432512280997e+02 -7.374876480240e-01 0.0 
-7.374876480240e-01 -3.357321163962e+02 0.0 
0.0 0.0 -1.432950033488e+02 
-1.396040522041e+02 -7.665719767224e-01 0.0 
-7.665719767224e-01 -3.271093496119e+02 0.0 
0.0 0.0 -1.396140205448e+02 
-1.226443560317e+02 7.882135107564e-01 0.0 
7.882135107564e-01 -2.874320216911e+02 0.0 
0.0 0.0 -1.226229133168e+02 
-1.224492173487e+02 -7.785685761857e-01 0.0 
-7.785685761857e-01 -2.870058000275e+02 0.0 
0.0 0.0 -1.224365052129e+02 
-3.560409083289e+01 -7.911501959180e-01 0.0 
-7.911501959180e-01 -8.446340874354e+01 0.0 
0.0 0.0 -3.562024987293e+01 
-1.260881169068e+02 -7.817906835871e-01 0.0 
-7.817906835871e-01 -2.954418781285e+02 0.0 
0.0 0.0 -1.260589985106e+02 
-1.266369419239e+02 -7.906997953965e-01 0.0 
-7.906997953965e-01 -2.968522627784e+02 0.0 
0.0 0.0 -1.266467614107e+02 
-1.004131283215e+02 7.618797742624e-01 0.0 
7.618797742624e-01 -2.355493513856e+02 0.0 
0.0 0.0 -1.003887439121e+02 
-1.192321551846e+02 7.992506313963e-01 0.0 
7.992506313963e-01 -2.796286279824e+02 0.0 
0.0 0.0 -1.192582349501e+02 
-1.314006144256e+02 8.066495060727e-01 0.0 
8.066495060727e-01 -3.079259467897e+02 0.0 
0.0 0.0 -1.313979683646e+02 
-8.958770086877e+01 -7.646615431132e-01 0.0 
-7.646615431132e-01 -2.104143253254e+02 0.0 
0.0 0.0 -8.960060785826e+01 
-1.358446914476e+02 -7.841761153312e-01 0.0 
-7.841761153312e-01 -3.183606126782e+02 0.0 
0.0 0.0 -1.358615912377e+02 
-8.385056091104e+01 -8.444897804709e-01 0.0 
-8.444897804709e-01 -1.972015475472e+02 0.0 
0.0 0.0 -8.391563253748e+01 
-9.672193726887e+01 7.997753808798e-01 0.0 
7.997753808798e-01 -2.270602173857e+02 0.0 
0.0 0.0 -9.673464639638e+01 
-6.330434631429e+01 -9.002549178388e-01 0.0 
-9.002549178388e-01 -1.490201194665e+02 0.0 
0.0 0.0 -6.329733973423e+01 
-6.680200394795e+01 7.303819261352e-01 0.0 
7.303819261352e-01 -1.571368166786e+02 0.0 
0.0 0.0 -6.678164618798e+01 
-1.228582761434e+02 -7.899458657079e-01 0.0 
-7.899458657079e-01 -2.880839442271e+02 0.0 
0.0 0.0 -1.228826661111e+02 
-9.268849364871e+01 7.666117898697e-01 0.0 
7.666117898697e-01 -2.175793219233e+02 0.0 
0.0 0.0 -9.268034467160e+01 
-4.778498946394e+01 7.935853096710e-01 0.0 
7.935853096710e-01 -1.127791369598e+02 0.0 
0.0 0.0 -4.776923792713e+01 
-2.392144163144e+01 6.687912823707e-01 0.0 
6.687912823707e-01 -5.721921251036e+01 0.0 
0.0 0.0 -2.394219624254e+01 
-1.230346876095e+02 7.885484316879e-01 0.0 
7.885484316879e-01 -2.884226191078e+02 0.0 
0.0 0.0 -1.230371920152e+02 
-4.758240482554e+01 -7.928806008160e-01 0.0 
-7.928806008160e-01 -1.123412907346e+02 0.0 
0.0 0.0 -4.757710866804e+01 
-1.498315699763e+02 -8.076368141785e-01 0.0 
-8.076368141785e-01 -3.503528963970e+02 0.0 
0.0 0.0 -1.496553399120e+02 
-1.275077329402e+02 -7.837753878580e-01 0.0 
-7.837753878580e-01 -2.988247874431e+02 0.0 
0.0 0.0 -1.274997561150e+02 
-1.308191668275e+02 -7.706329533285e-01 0.0 
-7.706329533285e-01 -3.065077734866e+02 0.0 
0.0 0.0 -1.307980820942e+02 
-1.569232689993e+02 9.685201997580e-02 0.0 
9.685201997580e-02 -3.674422901299e+02 0.0 
0.0 0.0 -1.569096677388e+02 
-8.008216632399e+01 8.672901145098e-01 0.0 
8.672901145098e-01 -1.881180294733e+02 0.0 
0.0 0.0 -8.006005873918e+01 
-4.283614392958e+01 -7.873622135063e-01 0.0 
-7.873622135063e-01 -1.012525102269e+02 0.0 
0.0 0.0 -4.282659624693e+01 
-2.719735002062e+01 -8.316573488356e-01 0.0 
-8.316573488356e-01 -6.482636152451e+01 0.0 
0.0 0.0 -2.720711346354e+01 
-1.237320386707e+02 7.916402900009e-01 0.0 
7.916402900009e-01 -2.900215957224e+02 0.0 
0.0 0.0 -1.237260903179e+02 
-1.153440659823e+02 -8.062186408726e-01 0.0 
-8.062186408726e-01 -2.705514262796e+02 0.0 
0.0 0.0 -1.153686476786e+02 
-1.930756863524e+01 -6.724355678600e-01 0.0 
-6.724355678600e-01 -4.606801687503e+01 0.0 
0.0 0.0 -1.921267565308e+01 
-6.456518718314e+01 7.910299324823e-01 0.0 
7.910299324823e-01 -1.517341046998e+02 0.0 
0.0 0.0 -6.448978756487e+01 
-3.756228866576e+01 7.054307661216e-01 0.0 
7.054307661216e-01 -8.849083268017e+01 0.0 
0.0 0.0 -3.741593640378e+01 
-1.146783342164e+02 7.457327194358e-01 0.0 
7.457327194358e-01 -2.689317557114e+02 0.0 
0.0 0.0 -1.146830269783e+02 
-6.834297704376e+01 8.401474402385e-01 0.0 
8.401474402385e-01 -1.602413309567e+02 0.0 
0.0 0.0 -6.817529240015e+01 
-1.152155121404e+02 -7.725528793966e-01 0.0 
-7.725528793966e-01 -2.701646168448e+02 0.0 
0.0 0.0 -1.152140386956e+02 
-6.330318120485e+01 8.350160155515e-01 0.0 
8.350160155515e-01 -1.492785681605e+02 0.0 
0.0 0.0 -6.337452480959e+01 
-1.368453867107e+02 8.297140355299e-01 0.0 
8.297140355299e-01 -3.207093307308e+02 0.0 
0.0 0.0 -1.368664152325e+02 
-5.596058068950e+01 -8.026708583216e-01 0.0 
-8.026708583216e-01 -1.318520096614e+02 0.0 
0.0 0.0 -5.594377710528e+01 
-1.248178422509e+02 7.893200941246e-01 0.0 
7.893200941246e-01 -2.925859835383e+02 0.0 
0.0 0.0 -1.248211477368e+02 
-3.903686273565e+01 7.758099127295e-01 0.0 
7.758099127295e-01 -9.240831998365e+01 0.0 
0.0 0.0 -3.903355481579e+01 
-1.201072036546e+02 7.900343583435e-01 0.0 
7.900343583435e-01 -2.815774100487e+02 0.0 
0.0 0.0 -1.201053841110e+02 
-9.225566398911e+01 6.607281026376e-01 0.0 
6.607281026376e-01 -2.166609838828e+02 0.0 
0.0 0.0 -9.227499436156e+01 
-1.271773594424e+02 -7.763099178255e-01 0.0 
-7.763099178255e-01 -2.980519782866e+02 0.0 
0.0 0.0 -1.271688013187e+02 
-6.331786878800e+01 -7.564099359492e-01 0.0 
-7.564099359492e-01 -1.490867451999e+02 0.0 
0.0 0.0 -6.332138419637e+01 
-3.704251135298e+01 -8.444446779242e-01 0.0 
-8.444446779242e-01 -8.771219701967e+01 0.0 
0.0 0.0 -3.702641251180e+01 
-1.071731988191e+02 7.730945396119e-01 0.0 
7.730945396119e-01 -2.511991533908e+02 0.0 
0.0 0.0 -1.071117056630e+02 
-1.156890737088e+02 7.687110449668e-01 0.0 
7.687110449668e-01 -2.713122716865e+02 0.0 
0.0 0.0 -1.157004036186e+02 
-8.126301479606e+01 -7.667756993162e-01 0.0 
-7.667756993162e-01 -1.909824789810e+02 0.0 
0.0 0.0 -8.127364813312e+01 
-1.154044058864e+02 8.351010204033e-01 0.0 
8.351010204033e-01 -2.706539532527e+02 0.0 
0.0 0.0 -1.154175077417e+02 
-4.374623994365e+01 7.839291290151e-01 0.0 
7.839291290151e-01 -1.033959364603e+02 0.0 
0.0 0.0 -4.374265292119e+01 
-1.174795381062e+02 -7.774157509645e-01 0.0 
-7.774157509645e-01 -2.755108919513e+02 0.0 
0.0 0.0 -1.174971290173e+02 
-3.345977648610e+01 7.746061280225e-01 0.0 
7.746061280225e-01 -7.962984051895e+01 0.0 
0.0 0.0 -3.352688510152e+01 
-1.414572584043e+02 8.213585849335e-01 0.0 
8.213585849335e-01 -3.314728130051e+02 0.0 
0.0 0.0 -1.414790214228e+02 
-1.203649468889e+02 7.626834162388e-01 0.0 
7.626834162388e-01 -2.821952749147e+02 0.0 
0.0 0.0 -1.203680665411e+02 
-1.271050920707e+02 7.765396842044e-01 0.0 
7.765396842044e-01 -2.979808591030e+02 0.0 
0.0 0.0 -1.271257853521e+02 
-1.481946881152e+02 8.267680390944e-01 0.0 
8.267680390944e-01 -3.472590461302e+02 0.0 
0.0 0.0 -1.482361202736e+02 
-1.009669115611e+02 7.766025320085e-01 0.0 
7.766025320085e-01 -2.369056795096e+02 0.0 
0.0 0.0 -1.009617773212e+02 
-3.457799578959e+01 -7.732172334736e-01 0.0 
-7.732172334736e-01 -8.209135970785e+01 0.0 
0.0 0.0 -3.460080664923e+01 
-1.128814115467e+02 7.791923918831e-01 0.0 
7.791923918831e-01 -2.647165736139e+02 0.0 
0.0 0.0 -1.128793955482e+02 
-1.459596188606e+02 -8.305503998076e-01 0.0 
-8.305503998076e-01 -3.419332229815e+02 0.0 
0.0 0.0 -1.459678525526e+02 
-5.673531225736e+01 7.455066452906e-01 0.0 
7.455066452906e-01 -1.336788137032e+02 0.0 
0.0 0.0 -5.672423778817e+01 
-1.273717390562e+02 7.991736752141e-01 0.0 
7.991736752141e-01 -2.984782698834e+02 0.0 
0.0 0.0 -1.273550026819e+02 
-1.276242288651e+02 8.122471230783e-01 0.0 
8.122471230783e-01 -2.991412969845e+02 0.0 
0.0 0.0 -1.276296577549e+02 
-4.478560039424e+01 -7.945661420863e-01 0.0 
-7.945661420863e-01 -1.057039226229e+02 0.0 
0.0 0.0 -4.474685690514e+01 
-1.164943641971e+02 7.856187673655e-01 0.0 
7.856187673655e-01 -2.731489490577e+02 0.0 
0.0 0.0 -1.164929939764e+02 
-1.055718126240e+02 7.730825480197e-01 0.0 
7.730825480197e-01 -2.474643015865e+02 0.0 
0.0 0.0 -1.055108342632e+02 
-5.033257042994e+01 7.524357855874e-01 0.0 
7.524357855874e-01 -1.186886640087e+02 0.0 
0.0 0.0 -5.030637033159e+01 
-6.089244891422e+01 7.818949761826e-01 0.0 
7.818949761826e-01 -1.432868864410e+02 0.0 
0.0 0.0 -6.085380060657e+01 
-9.725950722635e+01 7.506853522489e-01 0.0 
7.506853522489e-01 -2.282946722115e+02 0.0 
0.0 0.0 -9.726625383136e+01 
-1.235410820452e+02 -7.741121400245e-01 0.0 
-7.741121400245e-01 -2.895956131025e+02 0.0 
0.0 0.0 -1.235410085443e+02 
-7.449854252203e+01 7.185206323335e-01 0.0 
7.185206323335e-01 -1.752555593047e+02 0.0 
0.0 0.0 -7.452623054801e+01 
-9.279823996193e+01 7.403508585027e-01 0.0 
7.403508585027e-01 -2.178806847201e+02 0.0 
0.0 0.0 -9.280367740462e+01 
-1.220532459077e+02 -7.895892110065e-01 0.0 
-7.895892110065e-01 -2.861642609155e+02 0.0 
0.0 0.0 -1.220652520470e+02 
-1.106927746346e+02 -8.452673219920e-01 0.0 
-8.452673219920e-01 -2.597532427150e+02 0.0 
0.0 0.0 -1.107338052049e+02 
-1.091896274396e+02 -7.727648003659e-01 0.0 
-7.727648003659e-01 -2.561130079040e+02 0.0 
0.0 0.0 -1.091907906031e+02 
-9.206034534179e+01 -6.826879302672e-01 0.0 
-6.826879302672e-01 -2.161575367678e+02 0.0 
0.0 0.0 -9.206536463289e+01 
-1.389233426877e+02 7.597497788791e-01 0.0 
7.597497788791e-01 -3.254794237703e+02 0.0 
0.0 0.0 -1.389208299374e+02 
-1.092676408408e+02 7.787744009230e-01 0.0 
7.787744009230e-01 -2.562792227239e+02 0.0 
0.0 0.0 -1.092640590694e+02 
-1.061853458295e+02 7.240450745365e-01 0.0 
7.240450745365e-01 -2.493647541924e+02 0.0 
0.0 0.0 -1.062650300066e+02 
-1.470233528974e+02 1.020256649955e+00 0.0 
1.020256649955e+00 -3.440309172959e+02 0.0 
0.0 0.0 -1.469162810580e+02 
-1.316842048005e+02 8.126169848861e-01 0.0 
8.126169848861e-01 -3.086252063636e+02 0.0 
0.0 0.0 -1.316928233492e+02 
-1.199192131003e+02 -7.762885186789e-01 0.0 
-7.762885186789e-01 -2.811523273071e+02 0.0 
0.0 0.0 -1.199214621222e+02 
-1.312486237397e+02 -7.777536765788e-01 0.0 
-7.777536765788e-01 -3.075961211839e+02 0.0 
0.0 0.0 -1.312534234771e+02 
-7.031875471592e+01 7.787965094012e-01 0.0 
7.787965094012e-01 -1.653219562917e+02 0.0 
0.0 0.0 -7.029221330229e+01 
-6.560111332353e+01 7.828132359143e-01 0.0 
7.828132359143e-01 -1.543016529016e+02 0.0 
0.0 0.0 -6.557082986754e+01 
-3.570497331175e+01 7.985159715729e-01 0.0 
7.985159715729e-01 -8.485632977655e+01 0.0 
0.0 0.0 -3.576839092649e+01 
-1.175829684883e+02 7.760236057296e-01 0.0 
7.760236057296e-01 -2.756855077693e+02 0.0 
0.0 0.0 -1.175805428773e+02 
-6.922447557672e+01 7.970793239438e-01 0.0 
7.970793239438e-01 -1.627422763103e+02 0.0 
0.0 0.0 -6.919002556611e+01 
-1.184418562184e+02 7.921525007204e-01 0.0 
7.921525007204e-01 -2.776714173453e+02 0.0 
0.0 0.0 -1.184339820691e+02 
-1.138625086605e+02 8.045930345009e-01 0.0 
8.045930345009e-01 -2.669743728697e+02 0.0 
0.0 0.0 -1.138510644590e+02 
-9.332161658361e+01 7.744157008729e-01 0.0 
7.744157008729e-01 -2.190955600847e+02 0.0 
0.0 0.0 -9.332515300048e+01 
-5.709249764042e+01 -7.877262009024e-01 0.0 
-7.877262009024e-01 -1.344704167485e+02 0.0 
0.0 0.0 -5.706887431669e+01 
-6.072318882428e+01 -7.639366525859e-01 0.0 
-7.639366525859e-01 -1.430556124661e+02 0.0 
0.0 0.0 -6.073364038713e+01 
-6.068629698579e+01 -7.877305683920e-01 0.0 
-7.877305683920e-01 -1.428512467157e+02 0.0 
0.0 0.0 -6.066126311045e+01 
-6.541342547077e+01 -7.867758180933e-01 0.0 
-7.867758180933e-01 -1.538754002902e+02 0.0 
0.0 0.0 -6.538664772830e+01 
-3.922701558378e+01 -7.959921355710e-01 0.0 
-7.959921355710e-01 -9.289467273826e+01 0.0 
0.0 0.0 -3.923650649661e+01 
-1.353161810667e+02 7.984819273526e-01 0.0 
7.984819273526e-01 -3.170487816069e+02 0.0 
0.0 0.0 -1.353094888021e+02 
-7.957898398580e+01 -7.699963362410e-01 0.0 
-7.699963362410e-01 -1.869865148961e+02 0.0 
0.0 0.0 -7.956964966456e+01 
-1.360097333421e+02 8.137871228860e-01 0.0 
8.137871228860e-01 -3.186995909857e+02 0.0 
0.0 0.0 -1.360127972983e+02 
-8.426319308891e+01 -7.723679777265e-01 0.0 
-7.723679777265e-01 -1.979366840012e+02 0.0 
0.0 0.0 -8.425996312703e+01 
-1.127041433953e+02 -7.857656737071e-01 0.0 
-7.857656737071e-01 -2.642995458468e+02 0.0 
0.0 0.0 -1.127011067726e+02 
-9.609805127980e+01 -7.844247149937e-01 0.0 
-7.844247149937e-01 -2.255449519472e+02 0.0 
0.0 0.0 -9.609290096809e+01 
-9.175799671106e+01 7.502617233436e-01 0.0 
7.502617233436e-01 -2.154559296936e+02 0.0 
0.0 0.0 -9.176417792141e+01 
-3.945099101370e+01 7.607254811930e-01 0.0 
7.607254811930e-01 -9.335779582638e+01 0.0 
0.0 0.0 -3.944263605202e+01 
-1.421892029690e+02 -7.319043525434e-01 0.0 
-7.319043525434e-01 -3.332852523901e+02 0.0 
0.0 0.0 -1.422423366077e+02 
-1.475797478267e+02 8.560051293370e-01 0.0 
8.560051293370e-01 -3.459411172119e+02 0.0 
0.0 0.0 -1.476562595116e+02 
-1.175464295245e+02 -7.372086460452e-01 0.0 
-7.372086460452e-01 -2.756036286776e+02 0.0 
0.0 0.0 -1.175450174606e+02 
-7.012450883896e+01 -7.995121329048e-01 0.0 
-7.995121329048e-01 -1.648907951862e+02 0.0 
0.0 0.0 -7.010459120755e+01 
-1.043938724660e+02 -7.835989746382e-01 0.0 
-7.835989746382e-01 -2.449088276594e+02 0.0 
0.0 0.0 -1.043908100376e+02 
-1.182546897625e+02 -8.201145183532e-01 0.0 
-8.201145183532e-01 -2.773243000319e+02 0.0 
0.0 0.0 -1.182736969383e+02 
-7.392390302168e+01 7.890632960038e-01 0.0 
7.890632960038e-01 -1.737348138150e+02 0.0 
0.0 0.0 -7.389761505101e+01 
-7.700741764156e+01 7.224524593176e-01 0.0 
7.224524593176e-01 -1.810419663205e+02 0.0 
0.0 0.0 -7.701481518861e+01 
-5.608974116563e+01 7.857076588450e-01 0.0 
7.857076588450e-01 -1.322579284923e+02 0.0 
0.0 0.0 -5.610430089737e+01 
-4.849052876041e+01 7.608633841673e-01 0.0 
7.608633841673e-01 -1.144250958176e+02 0.0 
0.0 0.0 -4.847468737341e+01 
-7.503142807654e+01 7.716998745911e-01 0.0 
7.716998745911e-01 -1.763414647309e+02 0.0 
0.0 0.0 -7.501186784222e+01 
-5.119801040504e+01 -7.667439697844e-01 0.0 
-7.667439697844e-01 -1.207841097477e+02 0.0 
0.0 0.0 -5.119463604581e+01 
-4.668554512476e+01 8.031886191179e-01 0.0 
8.031886191179e-01 -1.101746895029e+02 0.0 
0.0 0.0 -4.665807038829e+01 
-9.628284087577e+01 7.740923030478e-01 0.0 
7.740923030478e-01 -2.259654096691e+02 0.0 
0.0 0.0 -9.627447516346e+01 
-1.163123346001e+02 -7.844921403595e-01 0.0 
-7.844921403595e-01 -2.727270887350e+02 0.0 
0.0 0.0 -1.163118270005e+02 
-1.381423447152e+02 -7.009081455523e-01 0.0 
-7.009081455523e-01 -3.237553309998e+02 0.0 
0.0 0.0 -1.381693027145e+02 
-3.170166903475e+00 -2.203643610675e-01 0.0 
-2.203643610675e-01 -8.894324932119e+00 0.0 
0.0 0.0 -3.219347550678e+00 
-8.179387860884e+01 -7.568958236941e-01 0.0 
-7.568958236941e-01 -1.921816355319e+02 0.0 
0.0 0.0 -8.179265424223e+01 
-8.070541825645e+01 -7.597437218495e-01 0.0 
-7.597437218495e-01 -1.896386980209e+02 0.0 
0.0 0.0 -8.070323488320e+01 
-7.484919664348e+01 -7.870764340233e-01 0.0 
-7.870764340233e-01 -1.759419818040e+02 0.0 
0.0 0.0 -7.483735353423e+01 
-1.137063146718e+02 -8.003373931426e-01 0.0 
-8.003373931426e-01 -2.666445879055e+02 0.0 
0.0 0.0 -1.137052707732e+02 
-8.782022192054e+01 -7.858364031870e-01 0.0 
-7.858364031870e-01 -2.062198658116e+02 0.0 
0.0 0.0 -8.781202631964e+01 
-5.960564129465e+01 -8.186965273185e-01 0.0 
-8.186965273185e-01 -1.403433932672e+02 0.0 
0.0 0.0 -5.958471036856e+01 
-7.976215792620e+01 7.540058640407e-01 0.0 
7.540058640407e-01 -1.873986662795e+02 0.0 
0.0 0.0 -7.974824726171e+01 
-1.320212777016e+02 -7.917733658280e-01 0.0 
-7.917733658280e-01 -3.095564487756e+02 0.0 
0.0 0.0 -1.320733179432e+02 
-5.960537409671e+01 7.893809297926e-01 0.0 
7.893809297926e-01 -1.407006384266e+02 0.0 
0.0 0.0 -5.969180375700e+01 
-2.265895252887e+01 -6.888023826294e-01 0.0 
-6.888023826294e-01 -5.399251181587e+01 0.0 
0.0 0.0 -2.259543930342e+01 
-3.093089297420e+01 -7.459922336019e-01 0.0 
-7.459922336019e-01 -7.361584814734e+01 0.0 
0.0 0.0 -3.096402233646e+01 
-5.186463387891e+01 -7.827051307400e-01 0.0 
-7.827051307400e-01 -1.222862138786e+02 0.0 
0.0 0.0 -5.184525432724e+01 
-6.185964528557e+01 -7.778055438420e-01 0.0 
-7.778055438420e-01 -1.456034432836e+02 0.0 
0.0 0.0 -6.183892657074e+01 
-8.535097190640e+01 -7.773159430194e-01 0.0 
-7.773159430194e-01 -2.004877350729e+02 0.0 
0.0 0.0 -8.535161209380e+01 
-8.445931223716e+01 7.465028967109e-01 0.0 
7.465028967109e-01 -1.983763888518e+02 0.0 
0.0 0.0 -8.445071032668e+01 
-3.529294032057e+01 8.765165730593e-01 0.0 
8.765165730593e-01 -8.372391516486e+01 0.0 
0.0 0.0 -3.530505664563e+01 
-3.089691208701e+01 8.360543837632e-01 0.0 
8.360543837632e-01 -7.393419813757e+01 0.0 
0.0 0.0 -3.104933306737e+01 
-1.080396072116e+02 9.282378390394e-01 0.0 
9.282378390394e-01 -2.538120806804e+02 0.0 
0.0 0.0 -1.081555063676e+02 
-5.139167566560e+01 8.283891382895e-01 0.0 
8.283891382895e-01 -1.212142645494e+02 0.0 
0.0 0.0 -5.138178206448e+01 
-1.304403836476e+02 -7.726488000585e-01 0.0 
-7.726488000585e-01 -3.056582336258e+02 0.0 
0.0 0.0 -1.304295851820e+02 
-1.337128661224e+02 -7.450723221829e-01 0.0 
-7.450723221829e-01 -3.133333063552e+02 0.0 
0.0 0.0 -1.337138517433e+02 
-1.099366844360e+02 7.650448316963e-01 0.0 
7.650448316963e-01 -2.579611364310e+02 0.0 
0.0 0.0 -1.099693462601e+02 
-1.378781382057e+02 -7.616244642987e-01 0.0 
-7.616244642987e-01 -3.230834792529e+02 0.0 
0.0 0.0 -1.378884852376e+02 
-1.427341405866e+02 -6.988071780523e-01 0.0 
-6.988071780523e-01 -3.341433527799e+02 0.0 
0.0 0.0 -1.426632480100e+02 
-8.976551635176e+01 7.730883880126e-01 0.0 
7.730883880126e-01 -2.108195050643e+02 0.0 
0.0 0.0 -8.977550642482e+01 
-1.256029901464e+02 -7.448282361016e-01 0.0 
-7.448282361016e-01 -2.944064033601e+02 0.0 
0.0 0.0 -1.256028180519e+02 
-4.021836276785e+01 7.637969457156e-01 0.0 
7.637969457156e-01 -9.508895625242e+01 0.0 
0.0 0.0 -4.019219570608e+01 
-8.331861935210e+01 7.726840918554e-01 0.0 
7.726840918554e-01 -1.956918062455e+02 0.0 
0.0 0.0 -8.330312767928e+01 
-8.255589170471e+01 -7.465909276459e-01 0.0 
-7.465909276459e-01 -1.940189544844e+02 0.0 
0.0 0.0 -8.257245385673e+01 
-4.598768102319e+01 -7.122608720986e-01 0.0 
-7.122608720986e-01 -1.087288684076e+02 0.0 
0.0 0.0 -4.601496482924e+01 
-3.193154812621e+01 7.861262075266e-01 0.0 
7.861262075266e-01 -7.583239912319e+01 0.0 
0.0 0.0 -3.192918417482e+01 
-6.902877393385e+01 -7.816840381534e-01 0.0 
-7.816840381534e-01 -1.623138659994e+02 0.0 
0.0 0.0 -6.900279197998e+01 
-8.090529047664e+01 7.421920762714e-01 0.0 
7.421920762714e-01 -1.900942397999e+02 0.0 
0.0 0.0 -8.089985908298e+01 
-8.554007287842e+01 7.477971236038e-01 0.0 
7.477971236038e-01 -2.009174576252e+02 0.0 
0.0 0.0 -8.553725915108e+01 
-5.479004580186e+01 -7.238476169836e-01 0.0 
-7.238476169836e-01 -1.292399050362e+02 0.0 
0.0 0.0 -5.480898525143e+01 
-9.250150569486e+01 -7.797753034751e-01 0.0 
-7.797753034751e-01 -2.171614709774e+02 0.0 
0.0 0.0 -9.249889300169e+01 
-8.198629348760e+01 7.387033425195e-01 0.0 
7.387033425195e-01 -1.926336316289e+02 0.0 
0.0 0.0 -8.198597753494e+01 
-8.640096842976e+01 -7.582978763165e-01 0.0 
-7.582978763165e-01 -2.029511604763e+02 0.0 
0.0 0.0 -8.640563867181e+01 
-6.204198891668e+01 7.586711653023e-01 0.0 
7.586711653023e-01 -1.460078359185e+02 0.0 
0.0 0.0 -6.201494745056e+01 
-1.214632716704e+02 7.890501254643e-01 0.0 
7.890501254643e-01 -2.847383809074e+02 0.0 
0.0 0.0 -1.214604957733e+02 
-1.221800745241e+02 8.015841395731e-01 0.0 
8.015841395731e-01 -2.864811484304e+02 0.0 
0.0 0.0 -1.221983668864e+02 
-8.286733365688e+01 -7.523238954393e-01 0.0 
-7.523238954393e-01 -1.946987565829e+02 0.0 
0.0 0.0 -8.286982707194e+01 
-1.387790758880e+02 -7.755371625236e-01 0.0 
-7.755371625236e-01 -3.250852736598e+02 0.0 
0.0 0.0 -1.387593048643e+02 
-4.494172357952e+01 7.605749366485e-01 0.0 
7.605749366485e-01 -1.061040380420e+02 0.0 
0.0 0.0 -4.491372848646e+01 
-1.485244053418e+02 -8.260797686687e-01 0.0 
-8.260797686687e-01 -3.477942644623e+02 0.0 
0.0 0.0 -1.484956009412e+02 
-8.890181322663e+01 -7.824943401438e-01 0.0 
-7.824943401438e-01 -2.087656965689e+02 0.0 
0.0 0.0 -8.890025293867e+01 
-1.480748774424e+02 -9.322462954650e-01 0.0 
-9.322462954650e-01 -3.462111778916e+02 0.0 
0.0 0.0 -1.478858166002e+02 
-1.116081824923e+02 7.625679725913e-01 0.0 
7.625679725913e-01 -2.618324439844e+02 0.0 
0.0 0.0 -1.116321879430e+02 
-4.360264637344e+01 -7.881748893660e-01 0.0 
-7.881748893660e-01 -1.029896639333e+02 0.0 
0.0 0.0 -4.357769309202e+01 
-1.134572595090e+02 7.754360977206e-01 0.0 
7.754360977206e-01 -2.661612184292e+02 0.0 
0.0 0.0 -1.134855433815e+02 
-1.406959377638e+02 -7.672639134806e-01 0.0 
-7.672639134806e-01 -3.296209001910e+02 0.0 
0.0 0.0 -1.406950513864e+02 
-9.354328809227e+01 -7.769559931047e-01 0.0 
-7.769559931047e-01 -2.196058638309e+02 0.0 
0.0 0.0 -9.354474557696e+01 
-6.723018258576e+01 7.421244994617e-01 0.0 
7.421244994617e-01 -1.582452571148e+02 0.0 
0.0 0.0 -6.724263191017e+01 
-1.169997516734e+02 7.832321022097e-01 0.0 
7.832321022097e-01 -2.743827467029e+02 0.0 
0.0 0.0 -1.170147495129e+02 
-8.916677986523e+01 -7.560025619485e-01 0.0 
-7.560025619485e-01 -2.094120651831e+02 0.0 
0.0 0.0 -8.917365351449e+01 
-3.521009337537e+01 -8.093494867702e-01 0.0 
-8.093494867702e-01 -8.329481942007e+01 0.0 
0.0 0.0 -3.515147383863e+01 
-1.548265822119e+02 -8.245975262478e-01 0.0 
-8.245975262478e-01 -3.622800899258e+02 0.0 
0.0 0.0 -1.547320016413e+02 
-3.038809304939e+01 -8.115269765468e-01 0.0 
-8.115269765468e-01 -7.247133383702e+01 0.0 
0.0 0.0 -3.045782806592e+01 
-1.473498223859e+02 7.844056789608e-01 0.0 
7.844056789608e-01 -3.447864769343e+02 0.0 
0.0 0.0 -1.472408897961e+02 
-1.440997413011e+02 -7.570007988378e-01 0.0 
-7.570007988378e-01 -3.377026412899e+02 0.0 
0.0 0.0 -1.441407147773e+02 
-1.250540982806e+02 7.871229087865e-01 0.0 
7.871229087865e-01 -2.931076863900e+02 0.0 
0.0 0.0 -1.250485354012e+02 
-1.098244895980e+02 -8.901426608903e-01 0.0 
-8.901426608903e-01 -2.576517591619e+02 0.0 
0.0 0.0 -1.098428746280e+02 
-1.342912215376e+02 8.175489041005e-01 0.0 
8.175489041005e-01 -3.147307611459e+02 0.0 
0.0 0.0 -1.343065948051e+02 
-8.659161861610e+01 7.403229253312e-01 0.0 
7.403229253312e-01 -2.033806688077e+02 0.0 
0.0 0.0 -8.659168622714e+01 
-1.014804551525e+02 7.831852670410e-01 0.0 
7.831852670410e-01 -2.381365561017e+02 0.0 
0.0 0.0 -1.014851033763e+02 
-1.463115239561e+02 -7.688456816507e-01 0.0 
-7.688456816507e-01 -3.423912407696e+02 0.0 
0.0 0.0 -1.462108294177e+02 
-1.246288691379e+02 -7.822093746767e-01 0.0 
-7.822093746767e-01 -2.921554284393e+02 0.0 
0.0 0.0 -1.246352892731e+02 
-1.259583892866e+02 7.990077732010e-01 0.0 
7.990077732010e-01 -2.952783693820e+02 0.0 
0.0 0.0 -1.259710276006e+02 
-1.191866762504e+02 -8.172912948663e-01 0.0 
-8.172912948663e-01 -2.794877407218e+02 0.0 
0.0 0.0 -1.192023250917e+02 
-4.005702610900e+01 -7.766584923542e-01 0.0 
-7.766584923542e-01 -9.467343810165e+01 0.0 
0.0 0.0 -4.001913926320e+01 
-1.297285879336e+02 8.105877017203e-01 0.0 
8.105877017203e-01 -3.040096097802e+02 0.0 
0.0 0.0 -1.297214593141e+02 
-1.574222031820e+02 1.240607373363e-02 0.0 
1.240607373363e-02 -3.680417699127e+02 0.0 
0.0 0.0 -1.572391919284e+02 
-1.474559171566e+02 -8.775076870772e-01 0.0 
-8.775076870772e-01 -3.453366937638e+02 0.0 
0.0 0.0 -1.474377832761e+02 
-8.313566053908e+01 -7.823276522068e-01 0.0 
-7.823276522068e-01 -1.952747793769e+02 0.0 
0.0 0.0 -8.312313197481e+01 
-1.100174544701e+02 8.129666876110e-01 0.0 
8.129666876110e-01 -2.579607257363e+02 0.0 
0.0 0.0 -1.099934540619e+02 
-1.052821001945e+02 -8.686668841347e-01 0.0 
-8.686668841347e-01 -2.470717835388e+02 0.0 
0.0 0.0 -1.053061651200e+02 
-8.908339497653e+01 7.708780558073e-01 0.0 
7.708780558073e-01 -2.091841909180e+02 0.0 
0.0 0.0 -8.908027576836e+01 
-1.210245404570e+02 -7.905128450214e-01 0.0 
-7.905128450214e-01 -2.837146552434e+02 0.0 
0.0 0.0 -1.210217587101e+02 
-1.257351973059e+02 -7.875656309842e-01 0.0 
-7.875656309842e-01 -2.946843246419e+02 0.0 
0.0 0.0 -1.257258565843e+02 
-2.748187121457e+01 8.405588813039e-01 0.0 
8.405588813039e-01 -6.532324950240e+01 0.0 
0.0 0.0 -2.744153621509e+01 
-5.264080722432e+01 -7.711515067943e-01 0.0 
-7.711515067943e-01 -1.242081931397e+02 0.0 
0.0 0.0 -5.265470010920e+01 
-8.749273432487e+01 -7.599957396086e-01 0.0 
-7.599957396086e-01 -2.054962443825e+02 0.0 
0.0 0.0 -8.749669361220e+01 
-8.305261099879e+01 7.521650718199e-01 0.0 
7.521650718199e-01 -1.951387106438e+02 0.0 
0.0 0.0 -8.305739649277e+01 
-8.813039021659e+01 -7.582703637259e-01 0.0 
-7.582703637259e-01 -2.069941685514e+02 0.0 
0.0 0.0 -8.813736763041e+01 
-1.510121671783e+02 7.696801001771e-01 0.0 
7.696801001771e-01 -3.532130066061e+02 0.0 
0.0 0.0 -1.508675521353e+02 
-1.424288483938e+02 -6.932322342718e-01 0.0 
-6.932322342718e-01 -3.337512691160e+02 0.0 
0.0 0.0 -1.424540352529e+02 
-1.442545967115e+02 7.876689620708e-01 0.0 
7.876689620708e-01 -3.379415899296e+02 0.0 
0.0 0.0 -1.442588559923e+02 
-7.897606295228e+01 7.275241091035e-01 0.0 
7.275241091035e-01 -1.856930804460e+02 0.0 
0.0 0.0 -7.900074301949e+01 
-1.324274209620e+02 -7.592329357162e-01 0.0 
-7.592329357162e-01 -3.103300360186e+02 0.0 
0.0 0.0 -1.324272370942e+02 
-1.211959436068e+02 7.789917088621e-01 0.0 
7.789917088621e-01 -2.841289848781e+02 0.0 
0.0 0.0 -1.211974785455e+02 
-1.470193058544e+02 -8.035763797763e-01 0.0 
-8.035763797763e-01 -3.445250480390e+02 0.0 
0.0 0.0 -1.470633061680e+02 
-1.251558304283e+02 8.126786983627e-01 0.0 
8.126786983627e-01 -2.932901067720e+02 0.0 
0.0 0.0 -1.251337811601e+02 
-8.800599607476e+01 7.692832337806e-01 0.0 
7.692832337806e-01 -2.066438854408e+02 0.0 
0.0 0.0 -8.799496445467e+01 
-8.395118074199e+01 -7.551171934079e-01 0.0 
-7.551171934079e-01 -1.972334086986e+02 0.0 
0.0 0.0 -8.395537683218e+01 
-1.295417328832e+02 -7.709547265882e-01 0.0 
-7.709547265882e-01 -3.036663296639e+02 0.0 
0.0 0.0 -1.295624187641e+02 
-1.426691995584e+02 8.413121520042e-01 0.0 
8.413121520042e-01 -3.341995889913e+02 0.0 
0.0 0.0 -1.426606365649e+02 
-1.304002133548e+02 -7.930555209781e-01 0.0 
-7.930555209781e-01 -3.056332078322e+02 0.0 
0.0 0.0 -1.304100263561e+02 
-1.258016005955e+02 -7.841004937494e-01 0.0 
-7.841004937494e-01 -2.949480726479e+02 0.0 
0.0 0.0 -1.258249019730e+02 
-1.376403545251e+02 -8.170075005544e-01 0.0 
-8.170075005544e-01 -3.225779817930e+02 0.0 
0.0 0.0 -1.376655008954e+02 
-1.437529942877e+02 7.944367439467e-01 0.0 
7.944367439467e-01 -3.364439516017e+02 0.0 
0.0 0.0 -1.436590837668e+02 
-1.340623161260e+02 -7.939249521304e-01 0.0 
-7.939249521304e-01 -3.141000559138e+02 0.0 
0.0 0.0 -1.340487116119e+02 
-1.079968014280e+02 -7.818226792229e-01 0.0 
-7.818226792229e-01 -2.533176944967e+02 0.0 
0.0 0.0 -1.079943487774e+02 
-7.673853931704e+01 -6.674326878421e-01 0.0 
-6.674326878421e-01 -1.803869313987e+02 0.0 
0.0 0.0 -7.673764121472e+01 
-1.296195192660e+02 7.661789663588e-01 0.0 
7.661789663588e-01 -3.038026233778e+02 0.0 
0.0 0.0 -1.296266427931e+02 
-1.233614324382e+02 -7.728057562822e-01 0.0 
-7.728057562822e-01 -2.891640428557e+02 0.0 
0.0 0.0 -1.233576425882e+02 
-4.647627378735e+01 -7.424457185500e-01 0.0 
-7.424457185500e-01 -1.097514548715e+02 0.0 
0.0 0.0 -4.646831859766e+01 
-8.767901506319e+01 7.510981997204e-01 0.0 
7.510981997204e-01 -2.059237911007e+02 0.0 
0.0 0.0 -8.768084184917e+01 
-9.913743874120e+01 -7.498171573067e-01 0.0 
-7.498171573067e-01 -2.326622157837e+02 0.0 
0.0 0.0 -9.913989635746e+01 
-1.096668453745e+02 7.862775696805e-01 0.0 
7.862775696805e-01 -2.572397354940e+02 0.0 
0.0 0.0 -1.096719742606e+02 
-4.697972498143e+01 -8.028075361349e-01 0.0 
-8.028075361349e-01 -1.109084183421e+02 0.0 
0.0 0.0 -4.696644299705e+01 
-8.414450216214e+01 7.534862182546e-01 0.0 
7.534862182546e-01 -1.976793662889e+02 0.0 
0.0 0.0 -8.414716053531e+01 
-1.178720269220e+02 7.921022106688e-01 0.0 
7.921022106688e-01 -2.763878443365e+02 0.0 
0.0 0.0 -1.178779613776e+02 
-8.778223024400e+01 -7.323594299743e-01 0.0 
-7.323594299743e-01 -2.062615056325e+02 0.0 
0.0 0.0 -8.781312076295e+01 
-9.141026249028e+01 -7.811153545596e-01 0.0 
-7.811153545596e-01 -2.145964554034e+02 0.0 
0.0 0.0 -9.140201536810e+01 
-1.168462644075e+02 8.181087541753e-01 0.0 
8.181087541753e-01 -2.737898097624e+02 0.0 
0.0 0.0 -1.167908222510e+02 
-9.263778179917e+01 -7.011107970665e-01 0.0 
-7.011107970665e-01 -2.174173927269e+02 0.0 
0.0 0.0 -9.261655235784e+01 
-1.557965299776e+01 -9.051098099015e-01 0.0 
-9.051098099015e-01 -3.824402107083e+01 0.0 
0.0 0.0 -1.574710222058e+01 
-1.045749545622e+02 7.785990069637e-01 0.0 
7.785990069637e-01 -2.453274093489e+02 0.0 
0.0 0.0 -1.045707091733e+02 
-1.284611670701e+02 -7.659170548905e-01 0.0 
-7.659170548905e-01 -3.010603231680e+02 0.0 
0.0 0.0 -1.284564470714e+02 
-1.469325150229e+02 -8.114302001347e-01 0.0 
-8.114302001347e-01 -3.441030593543e+02 0.0 
0.0 0.0 -1.469106723131e+02 
-9.669607223893e+01 -7.592265975904e-01 0.0 
-7.592265975904e-01 -2.269807723569e+02 0.0 
0.0 0.0 -9.670305337874e+01 
-9.969907532111e+01 -7.842641791517e-01 0.0 
-7.842641791517e-01 -2.339473661697e+02 0.0 
0.0 0.0 -9.969393244724e+01 
-1.175891326132e+02 7.905878879978e-01 0.0 
7.905878879978e-01 -2.758108828020e+02 0.0 
0.0 0.0 -1.176200046246e+02 
-2.396445769014e+01 -9.072849305358e-01 0.0 
-9.072849305358e-01 -5.806470399214e+01 0.0 
0.0 0.0 -2.420874850469e+01 
-1.248717415086e+02 -7.587375810205e-01 0.0 
-7.587375810205e-01 -2.926968968202e+02 0.0 
0.0 0.0 -1.248705914986e+02 
-1.050477280783e+02 7.796003600943e-01 0.0 
7.796003600943e-01 -2.464524913505e+02 0.0 
0.0 0.0 -1.050500658286e+02 
-9.233179490286e+01 7.466488754034e-01 0.0 
7.466488754034e-01 -2.168561187280e+02 0.0 
0.0 0.0 -9.235637408926e+01 
-1.258981323527e+02 7.694792475764e-01 0.0 
7.694792475764e-01 -2.950899866683e+02 0.0 
0.0 0.0 -1.258964357063e+02 
-4.619549006710e+01 6.918596951779e-01 0.0 
6.918596951779e-01 -1.090752518906e+02 0.0 
0.0 0.0 -4.618122258730e+01 
-1.306150429299e+02 7.769012252585e-01 0.0 
7.769012252585e-01 -3.060696774679e+02 0.0 
0.0 0.0 -1.306054161193e+02 
-1.434988427339e+02 -8.031643209348e-01 0.0 
-8.031643209348e-01 -3.361603776662e+02 0.0 
0.0 0.0 -1.434977661200e+02 
-1.212712587033e+02 -7.481204468440e-01 0.0 
-7.481204468440e-01 -2.843268385467e+02 0.0 
0.0 0.0 -1.212794291750e+02 
-1.305286861306e+02 7.987972668257e-01 0.0 
7.987972668257e-01 -3.059600304346e+02 0.0 
0.0 0.0 -1.305466149696e+02 
-1.329140869353e+02 8.059570811555e-01 0.0 
8.059570811555e-01 -3.114225251285e+02 0.0 
0.0 0.0 -1.329009836191e+02 
-1.437026815534e+02 8.122460647601e-01 0.0 
8.122460647601e-01 -3.365401637032e+02 0.0 
0.0 0.0 -1.436728535770e+02 
-3.238522994007e+01 -9.411726976145e-01 0.0 
-9.411726976145e-01 -7.791261117958e+01 0.0 
0.0 0.0 -3.268935233590e+01 
-1.214090289155e+02 7.844431567622e-01 0.0 
7.844431567622e-01 -2.845802558977e+02 0.0 
0.0 0.0 -1.213967854440e+02 
-1.443837011433e+02 7.652805659687e-01 0.0 
7.652805659687e-01 -3.380943533030e+02 0.0 
0.0 0.0 -1.443434163339e+02 
-1.341309573013e+02 -7.825396149075e-01 0.0 
-7.825396149075e-01 -3.143919659352e+02 0.0 
0.0 0.0 -1.341568769710e+02 
-1.130626777969e+02 -7.533172244498e-01 0.0 
-7.533172244498e-01 -2.651666627042e+02 0.0 
0.0 0.0 -1.130688021503e+02 
-8.872221694613e+01 7.674398435859e-01 0.0 
7.674398435859e-01 -2.083637901545e+02 0.0 
0.0 0.0 -8.872580213018e+01 
-9.759080349239e+01 -7.513938101849e-01 0.0 
-7.513938101849e-01 -2.290189941337e+02 0.0 
0.0 0.0 -9.758293928784e+01 
-2.714281752796e+01 -8.226939159850e-01 0.0 
-8.226939159850e-01 -6.444935848359e+01 0.0 
0.0 0.0 -2.707765280346e+01 
-1.387323055311e+02 -7.984527677132e-01 0.0 
-7.984527677132e-01 -3.250787143868e+02 0.0 
0.0 0.0 -1.387433059753e+02 
-5.019085120470e+01 -7.887779056418e-01 0.0 
-7.887779056418e-01 -1.183438786034e+02 0.0 
0.0 0.0 -5.016041894244e+01 
-4.067203082089e+01 -7.424233220640e-01 0.0 
-7.424233220640e-01 -9.704186644244e+01 0.0 
0.0 0.0 -4.091416917900e+01 
-1.293251347841e+02 7.557119818288e-01 0.0 
7.557119818288e-01 -3.030293249529e+02 0.0 
0.0 0.0 -1.293063379211e+02 
-1.481093625369e+02 -7.688804942055e-01 0.0 
-7.688804942055e-01 -3.469305069023e+02 0.0 
0.0 0.0 -1.481119608318e+02 
-4.145711396670e+01 7.323550983655e-01 0.0 
7.323550983655e-01 -9.799211508695e+01 0.0 
0.0 0.0 -4.143476871609e+01 
-1.017250185781e+02 7.572733979297e-01 0.0 
7.572733979297e-01 -2.387148131807e+02 0.0 
0.0 0.0 -1.017319495276e+02 
-1.249807788135e+02 -7.794428460944e-01 0.0 
-7.794428460944e-01 -2.929543006180e+02 0.0 
0.0 0.0 -1.249805238294e+02 
-9.521713448894e+01 7.829590625215e-01 0.0 
7.829590625215e-01 -2.234765501875e+02 0.0 
0.0 0.0 -9.520810540295e+01 
-4.717787028009e+01 7.651850678416e-01 0.0 
7.651850678416e-01 -1.113467163680e+02 0.0 
0.0 0.0 -4.715737599442e+01 
-6.252191257199e+01 -7.577016850538e-01 0.0 
-7.577016850538e-01 -1.472987650439e+02 0.0 
0.0 0.0 -6.254620328477e+01 
-3.204820823181e+01 -6.576481277677e-01 0.0 
-6.576481277677e-01 -7.553659682087e+01 0.0 
0.0 0.0 -3.187544151581e+01 
-4.136527605766e+01 -7.742523122526e-01 0.0 
-7.742523122526e-01 -9.768588732687e+01 0.0 
0.0 0.0 -4.131534901536e+01 
-3.662596631960e+01 -7.690162858840e-01 0.0 
-7.690162858840e-01 -8.681934321969e+01 0.0 
0.0 0.0 -3.663359286179e+01 
-1.048714949500e+02 -7.546508859114e-01 0.0 
-7.546508859114e-01 -2.460504422471e+02 0.0 
0.0 0.0 -1.048765811591e+02 
-1.646051846674e+02 -1.971939271593e-02 0.0 
-1.971939271593e-02 -3.847077578693e+02 0.0 
0.0 0.0 -1.643938827610e+02 
-4.910465370731e+01 -6.969901131565e-01 0.0 
-6.969901131565e-01 -1.165109727281e+02 0.0 
0.0 0.0 -4.928468793062e+01 
-1.412665242850e+02 -7.690974505653e-01 0.0 
-7.690974505653e-01 -3.310227633417e+02 0.0 
0.0 0.0 -1.412867862880e+02 
-7.689966333436e+01 -7.610434110124e-01 0.0 
-7.610434110124e-01 -1.807948684365e+02 0.0 
0.0 0.0 -7.690835953126e+01 
-1.206162288732e+02 8.305753570286e-01 0.0 
8.305753570286e-01 -2.826920774527e+02 0.0 
0.0 0.0 -1.205924918978e+02 
-3.524286480199e+01 -7.887274490683e-01 0.0 
-7.887274490683e-01 -8.363315246633e+01 0.0 
0.0 0.0 -3.526280518050e+01 
-1.483451970717e+02 7.677867226509e-01 0.0 
7.677867226509e-01 -3.475875286205e+02 0.0 
0.0 0.0 -1.483798177077e+02 
-3.687987164759e+01 7.043568698005e-01 0.0 
7.043568698005e-01 -8.712702801001e+01 0.0 
0.0 0.0 -3.680206989728e+01 
-5.887418368479e+01 -7.920038501587e-01 0.0 
-7.920038501587e-01 -1.384564829213e+02 0.0 
0.0 0.0 -5.879919998183e+01 
-1.258888350504e+02 -7.492987472065e-01 0.0 
-7.492987472065e-01 -2.951433128496e+02 0.0 
0.0 0.0 -1.259096443700e+02 
-9.011612381552e+01 7.581492797776e-01 0.0 
7.581492797776e-01 -2.116023361479e+02 0.0 
0.0 0.0 -9.011553798901e+01 
-1.400550474483e+02 7.746303632087e-01 0.0 
7.746303632087e-01 -3.279670868059e+02 0.0 
0.0 0.0 -1.400066402763e+02 
-6.905195446409e+01 7.795563700436e-01 0.0 
7.795563700436e-01 -1.624206471335e+02 0.0 
0.0 0.0 -6.904178047929e+01 
-1.280121138819e+02 7.693490599474e-01 0.0 
7.693490599474e-01 -3.000704563896e+02 0.0 
0.0 0.0 -1.280247710815e+02 
-1.472498252330e+02 -7.857092401528e-01 0.0 
-7.857092401528e-01 -3.444001718596e+02 0.0 
0.0 0.0 -1.470949991278e+02 
-1.212169586622e+02 -7.965522406011e-01 0.0 
-7.965522406011e-01 -2.842486399815e+02 0.0 
0.0 0.0 -1.212396795931e+02 
-1.469306108495e+02 7.381729894236e-01 0.0 
7.381729894236e-01 -3.444352108398e+02 0.0 
0.0 0.0 -1.470097465068e+02 
-1.334351923038e+02 8.108504737558e-01 0.0 
8.108504737558e-01 -3.126452127075e+02 0.0 
0.0 0.0 -1.334241215034e+02 
-1.371380290839e+02 8.076418547223e-01 0.0 
8.076418547223e-01 -3.213237140217e+02 0.0 
0.0 0.0 -1.371385229317e+02 
-4.118978841978e+01 -7.191918519922e-01 0.0 
-7.191918519922e-01 -9.742879861533e+01 0.0 
0.0 0.0 -4.118557611053e+01 
-1.365115743549e+02 -7.337564812735e-01 0.0 
-7.337564812735e-01 -3.199011446167e+02 0.0 
0.0 0.0 -1.365238156915e+02 
-1.287364675993e+02 -7.568012506893e-01 0.0 
-7.568012506893e-01 -3.016908571887e+02 0.0 
0.0 0.0 -1.287281974364e+02 
-9.410209730173e+01 -7.646337524557e-01 0.0 
-7.646337524557e-01 -2.209607764379e+02 0.0 
0.0 0.0 -9.411886212188e+01 
-5.738326586123e+01 -7.433525255153e-01 0.0 
-7.433525255153e-01 -1.360331430304e+02 0.0 
0.0 0.0 -5.762492266750e+01 
-1.519963828381e+02 7.764583026965e-01 0.0 
7.764583026965e-01 -3.553253830162e+02 0.0 
0.0 0.0 -1.517965297563e+02 
-4.802156473872e+01 -7.958800303737e-01 0.0 
-7.958800303737e-01 -1.134353788040e+02 0.0 
0.0 0.0 -4.803708306283e+01 
-5.509815958886e+01 8.766784810160e-01 0.0 
8.766784810160e-01 -1.297021950703e+02 0.0 
0.0 0.0 -5.504010639776e+01 
-1.352166393205e+02 -8.078735494922e-01 0.0 
-8.078735494922e-01 -3.168252735503e+02 0.0 
0.0 0.0 -1.352125738612e+02 
-3.343311485110e+01 6.583565435373e-01 0.0 
6.583565435373e-01 -7.943120889183e+01 0.0 
0.0 0.0 -3.345929712288e+01 
-9.626384783322e+01 7.412585184362e-01 0.0 
7.412585184362e-01 -2.259550545728e+02 0.0 
0.0 0.0 -9.626567072179e+01 
-1.294514350630e+02 -7.283699646481e-01 0.0 
-7.283699646481e-01 -3.034455473251e+02 0.0 
0.0 0.0 -1.294690947164e+02 
-1.451893161139e+02 7.247959586954e-01 0.0 
7.247959586954e-01 -3.401155625519e+02 0.0 
0.0 0.0 -1.451914635997e+02 
-1.489766498581e+02 7.072685910451e-01 0.0 
7.072685910451e-01 -3.490928828555e+02 0.0 
0.0 0.0 -1.490208598141e+02 
-1.260654552299e+02 7.955504652680e-01 0.0 
7.955504652680e-01 -2.955402525462e+02 0.0 
0.0 0.0 -1.260817123328e+02 
-1.380249957995e+02 8.270212498556e-01 0.0 
8.270212498556e-01 -3.234168883304e+02 0.0 
0.0 0.0 -1.380325652390e+02 
-8.147415157900e+01 -7.655862290299e-01 0.0 
-7.655862290299e-01 -1.914930231465e+02 0.0 
0.0 0.0 -8.149015241764e+01 
-1.302960481306e+02 7.969596681887e-01 0.0 
7.969596681887e-01 -3.053563084650e+02 0.0 
0.0 0.0 -1.302957069787e+02 
-6.582409344913e+01 -7.551555420434e-01 0.0 
-7.551555420434e-01 -1.556787450924e+02 0.0 
0.0 0.0 -6.605085156247e+01 
-1.445934735523e+02 -7.180863411340e-01 0.0 
-7.180863411340e-01 -3.389761220097e+02 0.0 
0.0 0.0 -1.446708786686e+02 
-7.423746262751e+01 -7.405479278112e-01 0.0 
-7.405479278112e-01 -1.753404802786e+02 0.0 
0.0 0.0 -7.447338287182e+01 
-7.902859314546e+01 -5.917919298463e-01 0.0 
-5.917919298463e-01 -1.852553856354e+02 0.0 
0.0 0.0 -7.888519363425e+01 
-9.314387729376e+01 -7.622896920190e-01 0.0 
-7.622896920190e-01 -2.186975058196e+02 0.0 
0.0 0.0 -9.315241493402e+01 
-8.286255152414e+01 -8.175066630006e-01 0.0 
-8.175066630006e-01 -1.952387159312e+02 0.0 
0.0 0.0 -8.303038023661e+01 
-1.077099219482e+02 7.456648843831e-01 0.0 
7.456648843831e-01 -2.527017196137e+02 0.0 
0.0 0.0 -1.077234924686e+02 
-8.724024231888e+01 7.562513049540e-01 0.0 
7.562513049540e-01 -2.049353860191e+02 0.0 
0.0 0.0 -8.725268850139e+01 
-9.226218643685e+01 7.686329267046e-01 0.0 
7.686329267046e-01 -2.166214034022e+02 0.0 
0.0 0.0 -9.226507695172e+01 
-4.227161085960e+01 -7.899210973227e-01 0.0 
-7.899210973227e-01 -9.991266775141e+01 0.0 
0.0 0.0 -4.225528358330e+01 
-8.854410000899e+01 -7.627397230548e-01 0.0 
-7.627397230548e-01 -2.079556701763e+02 0.0 
0.0 0.0 -8.854993105558e+01 
-1.424830138998e+02 -7.710334368623e-01 0.0 
-7.710334368623e-01 -3.338458046677e+02 0.0 
0.0 0.0 -1.424986455703e+02 
-1.468477859717e+02 -9.721284809841e-01 0.0 
-9.721284809841e-01 -3.438124031135e+02 0.0 
0.0 0.0 -1.467980567256e+02 
-1.282273393210e+02 -7.633505727069e-01 0.0 
-7.633505727069e-01 -3.005635848992e+02 0.0 
0.0 0.0 -1.282372772661e+02 
-1.435016148489e+02 -7.785812228204e-01 0.0 
-7.785812228204e-01 -3.360020429447e+02 0.0 
0.0 0.0 -1.434510973381e+02 
-8.992877141231e+01 -7.690429960421e-01 0.0 
-7.690429960421e-01 -2.111814918175e+02 0.0 
0.0 0.0 -8.993307896895e+01 
-1.370266656878e+02 -7.728955363296e-01 0.0 
-7.728955363296e-01 -3.210036489166e+02 0.0 
0.0 0.0 -1.370090943813e+02 
-9.208593254746e+01 -7.631233710454e-01 0.0 
-7.631233710454e-01 -2.162188317604e+02 0.0 
0.0 0.0 -9.209142929236e+01 
-1.401964334635e+02 -7.609222933451e-01 0.0 
-7.609222933451e-01 -3.283425261273e+02 0.0 
0.0 0.0 -1.401616878773e+02 
-1.332752434973e+02 -7.493431269604e-01 0.0 
-7.493431269604e-01 -3.123144990457e+02 0.0 
0.0 0.0 -1.332769227629e+02 
-1.325570718383e+02 7.925686940601e-01 0.0 
7.925686940601e-01 -3.106612790181e+02 0.0 
0.0 0.0 -1.325655052569e+02 
-1.166371036836e+02 -7.588239498787e-01 0.0 
-7.588239498787e-01 -2.734856140311e+02 0.0 
0.0 0.0 -1.166368153144e+02 
-8.500216174780e+01 -7.627180438479e-01 0.0 
-7.627180438479e-01 -1.997161596964e+02 0.0 
0.0 0.0 -8.501549643327e+01 
-1.382382791051e+02 7.340958159668e-01 0.0 
7.340958159668e-01 -3.239342643893e+02 0.0 
0.0 0.0 -1.382517630483e+02 
-1.114379026542e+02 -7.455770767570e-01 0.0 
-7.455770767570e-01 -2.614679151792e+02 0.0 
0.0 0.0 -1.114717453500e+02 
-4.238329045844e+01 8.233936255934e-01 0.0 
8.233936255934e-01 -1.003286825298e+02 0.0 
0.0 0.0 -4.241359189646e+01 
-4.823438695886e+01 7.340141401331e-01 0.0 
7.340141401331e-01 -1.138764136343e+02 0.0 
0.0 0.0 -4.823324017795e+01 
-7.217481059251e+01 -7.209822854839e-01 0.0 
-7.209822854839e-01 -1.697379625184e+02 0.0 
0.0 0.0 -7.217383193329e+01 
-1.015592466843e+02 -7.411436372575e-01 0.0 
-7.411436372575e-01 -2.383447623785e+02 0.0 
0.0 0.0 -1.015712027188e+02 
-1.438963329979e+02 -7.978999650568e-01 0.0 
-7.978999650568e-01 -3.369736532586e+02 0.0 
0.0 0.0 -1.438609958769e+02 
-1.288585724836e+02 8.158200498389e-01 0.0 
8.158200498389e-01 -3.020101058429e+02 0.0 
0.0 0.0 -1.288606034980e+02 
-8.519039074591e+01 7.649651535540e-01 0.0 
7.649651535540e-01 -2.001307230587e+02 0.0 
0.0 0.0 -8.519633414138e+01 
-1.141550540160e+02 7.745004631575e-01 0.0 
7.745004631575e-01 -2.676926820838e+02 0.0 
0.0 0.0 -1.141543208299e+02 
-1.331652262604e+02 -7.890974647372e-01 0.0 
-7.890974647372e-01 -3.120439627900e+02 0.0 
0.0 0.0 -1.331627567151e+02 
-1.388762976042e+02 8.089375913285e-01 0.0 
8.089375913285e-01 -3.254216759672e+02 0.0 
0.0 0.0 -1.388893920714e+02 
-1.425109668415e+02 5.748861284620e-01 0.0 
5.748861284620e-01 -3.342442786477e+02 0.0 
0.0 0.0 -1.426265736468e+02 
-1.159802318978e+02 -7.456437565631e-01 0.0 
-7.456437565631e-01 -2.718864480972e+02 0.0 
0.0 0.0 -1.159600039985e+02 
-1.362235328733e+02 -7.742954865139e-01 0.0 
-7.742954865139e-01 -3.192273214097e+02 0.0 
0.0 0.0 -1.362352562849e+02 
-9.687815825875e+01 7.763943132723e-01 0.0 
7.763943132723e-01 -2.273891176756e+02 0.0 
0.0 0.0 -9.688018278029e+01 
-1.332482630357e+02 7.674367296454e-01 0.0 
7.674367296454e-01 -3.122848217145e+02 0.0 
0.0 0.0 -1.332599254250e+02 
-9.608766737020e+01 -7.513740578412e-01 0.0 
-7.513740578412e-01 -2.255609757071e+02 0.0 
0.0 0.0 -9.609459292319e+01 
-1.462346346641e+02 7.566391495639e-01 0.0 
7.566391495639e-01 -3.425819501626e+02 0.0 
0.0 0.0 -1.462449754480e+02 
-1.480740328923e+02 8.410172232751e-01 0.0 
8.410172232751e-01 -3.463659362467e+02 0.0 
0.0 0.0 -1.479319907417e+02 
-1.084225674144e+02 -7.590790174589e-01 0.0 
-7.590790174589e-01 -2.543249274351e+02 0.0 
0.0 0.0 -1.084242484548e+02 
-4.340168629361e+01 -8.112823513220e-01 0.0 
-8.112823513220e-01 -1.026139983304e+02 0.0 
0.0 0.0 -4.340470538719e+01 
-1.362364595006e+02 -7.351568267123e-01 0.0 
-7.351568267123e-01 -3.193011333033e+02 0.0 
0.0 0.0 -1.362612778412e+02 
-1.042119942071e+02 7.421796132870e-01 0.0 
7.421796132870e-01 -2.445131972454e+02 0.0 
0.0 0.0 -1.042175574357e+02 
-8.166183181203e+01 7.613389808399e-01 0.0 
7.613389808399e-01 -1.919135618006e+02 0.0 
0.0 0.0 -8.167261808379e+01 
-1.132447690254e+02 7.823497052370e-01 0.0 
7.823497052370e-01 -2.655726500546e+02 0.0 
0.0 0.0 -1.132452257240e+02 
-1.316697785373e+02 8.169954039348e-01 0.0 
8.169954039348e-01 -3.085492592675e+02 0.0 
0.0 0.0 -1.316657113415e+02 
-4.364291292483e+01 7.331517647581e-01 0.0 
7.331517647581e-01 -1.030744536523e+02 0.0 
0.0 0.0 -4.361520997313e+01 
-1.002410883007e+02 -7.554836592036e-01 0.0 
-7.554836592036e-01 -2.352415449769e+02 0.0 
0.0 0.0 -1.002447899833e+02 
-1.168245305653e+02 -7.198368872367e-01 0.0 
-7.198368872367e-01 -2.740195988398e+02 0.0 
0.0 0.0 -1.168532388215e+02 
-1.440768035007e+02 8.280591960005e-01 0.0 
8.280591960005e-01 -3.373760327207e+02 0.0 
0.0 0.0 -1.440358508664e+02 
-1.203535320168e+02 -7.056296876589e-01 0.0 
-7.056296876589e-01 -2.822052090932e+02 0.0 
0.0 0.0 -1.203676223330e+02 
-1.327134746789e+02 -7.764795517572e-01 0.0 
-7.764795517572e-01 -3.110078307894e+02 0.0 
0.0 0.0 -1.327163916405e+02 
-1.132820110085e+02 -7.196499466791e-01 0.0 
-7.196499466791e-01 -2.658048089648e+02 0.0 
0.0 0.0 -1.133260459920e+02 
-1.059711818046e+02 -7.980840471995e-01 0.0 
-7.980840471995e-01 -2.491842001150e+02 0.0 
0.0 0.0 -1.061466145759e+02 
-1.149445525658e+02 -7.420650666393e-01 0.0 
-7.420650666393e-01 -2.696291883849e+02 0.0 
0.0 0.0 -1.149721222852e+02 
-1.388397877301e+02 -8.229172084395e-01 0.0 
-8.229172084395e-01 -3.252273595613e+02 0.0 
0.0 0.0 -1.388201441874e+02 
-1.331461471788e+02 8.042201412087e-01 0.0 
8.042201412087e-01 -3.120284471623e+02 0.0 
0.0 0.0 -1.331523783023e+02 
-1.241994460756e+02 -7.371576638392e-01 0.0 
-7.371576638392e-01 -2.911223823366e+02 0.0 
0.0 0.0 -1.241965485237e+02 
-1.489371889258e+02 -7.055714003952e-01 0.0 
-7.055714003952e-01 -3.488225996743e+02 0.0 
0.0 0.0 -1.489279365800e+02 
-1.097279328677e+02 -7.320194755434e-01 0.0 
-7.320194755434e-01 -2.575800007690e+02 0.0 
0.0 0.0 -1.097923800910e+02 
-6.898956749598e+01 7.592769494216e-01 0.0 
7.592769494216e-01 -1.623311116827e+02 0.0 
0.0 0.0 -6.899620375360e+01 
-1.409754347711e+02 8.069370848356e-01 0.0 
8.069370848356e-01 -3.302829814301e+02 0.0 
0.0 0.0 -1.409775248604e+02 
-1.473327348656e+02 8.939275001255e-01 0.0 
8.939275001255e-01 -3.449388816454e+02 0.0 
0.0 0.0 -1.472814849533e+02 
-9.505089556085e+01 -7.503246250757e-01 0.0 
-7.503246250757e-01 -2.231469331324e+02 0.0 
0.0 0.0 -9.505934860797e+01 
-9.956343234872e+01 -7.577163333403e-01 0.0 
-7.577163333403e-01 -2.336614756232e+02 0.0 
0.0 0.0 -9.956747239157e+01 
-7.708546038331e+01 7.648785504316e-01 0.0 
7.648785504316e-01 -1.812156501978e+02 0.0 
0.0 0.0 -7.709033317435e+01 
-1.278723389982e+02 -7.679425215961e-01 0.0 
-7.679425215961e-01 -2.997194244178e+02 0.0 
0.0 0.0 -1.278775290248e+02 
-7.779165546177e+01 -7.717804997431e-01 0.0 
-7.717804997431e-01 -1.829418730511e+02 0.0 
0.0 0.0 -7.782005855387e+01 
-1.110775165736e+02 -7.879708602414e-01 0.0 
-7.879708602414e-01 -2.605635698854e+02 0.0 
0.0 0.0 -1.110923259377e+02 
-7.797629537317e+01 7.225340309557e-01 0.0 
7.225340309557e-01 -1.833111762759e+02 0.0 
0.0 0.0 -7.798624149473e+01 
-1.305489263963e+02 -7.834856882334e-01 0.0 
-7.834856882334e-01 -3.059955807498e+02 0.0 
0.0 0.0 -1.305633521438e+02 
-1.487930648969e+02 6.217020720871e-01 0.0 
6.217020720871e-01 -3.484761360607e+02 0.0 
0.0 0.0 -1.487807602873e+02 
-8.060663798710e+01 7.637472018393e-01 0.0 
7.637472018393e-01 -1.894348596320e+02 0.0 
0.0 0.0 -8.061244928573e+01 
-2.736219609051e+01 8.230206726873e-01 0.0 
8.230206726873e-01 -6.492347099836e+01 0.0 
0.0 0.0 -2.728570012666e+01 
-1.481113498553e+02 -7.869511587767e-01 0.0 
-7.869511587767e-01 -3.468508650453e+02 0.0 
0.0 0.0 -1.480886644702e+02 
-8.221729756961e+01 -7.207186635747e-01 0.0 
-7.207186635747e-01 -1.932640125865e+02 0.0 
0.0 0.0 -8.224439304684e+01 
-9.452566152480e+01 -7.556264380567e-01 0.0 
-7.556264380567e-01 -2.219064667722e+02 0.0 
0.0 0.0 -9.452963848909e+01 
-1.446805079748e+02 -8.041840870873e-01 0.0 
-8.041840870873e-01 -3.384564760836e+02 0.0 
0.0 0.0 -1.445410952175e+02 
-1.243148280332e+02 7.999082013581e-01 0.0 
7.999082013581e-01 -2.914328984617e+02 0.0 
0.0 0.0 -1.243243179484e+02 
-1.295110970560e+02 7.775819331107e-01 0.0 
7.775819331107e-01 -3.035587587737e+02 0.0 
0.0 0.0 -1.295209567489e+02 
-8.274005363358e+01 7.434720129673e-01 0.0 
7.434720129673e-01 -1.944178489336e+02 0.0 
0.0 0.0 -8.274737077015e+01 
-2.246212175080e+01 -7.666582988113e-01 0.0 
-7.666582988113e-01 -5.347918966850e+01 0.0 
0.0 0.0 -2.238239342579e+01 
-1.480155063620e+02 9.312766582584e-01 0.0 
9.312766582584e-01 -3.471250232726e+02 0.0 
0.0 0.0 -1.481421588904e+02 
-1.050409065749e+02 -7.441417642679e-01 0.0 
-7.441417642679e-01 -2.464459042588e+02 0.0 
0.0 0.0 -1.050460432501e+02 
-1.232429370235e+02 8.572829269942e-01 0.0 
8.572829269942e-01 -2.889436264711e+02 0.0 
0.0 0.0 -1.232559690484e+02 
-1.419280948393e+02 -7.440971706016e-01 0.0 
-7.440971706016e-01 -3.325711577011e+02 0.0 
0.0 0.0 -1.419497757621e+02 
-1.461341100997e+01 -5.016703176135e-01 0.0 
-5.016703176135e-01 -3.543947237757e+01 0.0 
0.0 0.0 -1.461586501626e+01 
-1.293450294712e+02 -8.001246536916e-01 0.0 
-8.001246536916e-01 -3.031388404742e+02 0.0 
0.0 0.0 -1.293451609836e+02 
-5.835308093744e+01 7.538113497287e-01 0.0 
7.538113497287e-01 -1.375120223388e+02 0.0 
0.0 0.0 -5.835953098287e+01 
-1.161425363630e+02 8.059289232962e-01 0.0 
8.059289232962e-01 -2.722063654427e+02 0.0 
0.0 0.0 -1.161046705417e+02 
-1.035068695000e+02 7.812536962074e-01 0.0 
7.812536962074e-01 -2.428246671452e+02 0.0 
0.0 0.0 -1.034994609936e+02 
-8.041815941059e+01 -7.582114471071e-01 0.0 
-7.582114471071e-01 -1.889937055879e+02 0.0 
0.0 0.0 -8.042355949956e+01 
-1.403615246492e+02 7.887834921278e-01 0.0 
7.887834921278e-01 -3.287547338760e+02 0.0 
0.0 0.0 -1.403348775576e+02 
-1.075519215318e+02 -7.645620556405e-01 0.0 
-7.645620556405e-01 -2.523055515126e+02 0.0 
0.0 0.0 -1.075572419133e+02 
-7.232213026745e+01 -7.644365774777e-01 0.0 
-7.644365774777e-01 -1.701093160069e+02 0.0 
0.0 0.0 -7.232943388231e+01 
-1.096905223982e+02 7.651547853296e-01 0.0 
7.651547853296e-01 -2.572775383703e+02 0.0 
0.0 0.0 -1.096904182306e+02 
-2.267697692166e+01 7.757218587861e-01 0.0 
7.757218587861e-01 -5.396661204732e+01 0.0 
0.0 0.0 -2.259307669069e+01 
-1.257771535000e+02 7.766758293422e-01 0.0 
7.766758293422e-01 -2.947778580492e+02 0.0 
0.0 0.0 -1.257665034647e+02 
-1.306912378208e+02 7.910334657393e-01 0.0 
7.910334657393e-01 -3.063934618460e+02 0.0 
0.0 0.0 -1.307254099000e+02 
-1.512542675893e+02 5.876840899581e-01 0.0 
5.876840899581e-01 -3.541561100770e+02 0.0 
0.0 0.0 -1.512231132999e+02 
-1.338803884034e+02 7.910111230627e-01 0.0 
7.910111230627e-01 -3.137082937488e+02 0.0 
0.0 0.0 -1.338766046456e+02 
-5.633955475690e+01 7.377441665187e-01 0.0 
7.377441665187e-01 -1.328003857062e+02 0.0 
0.0 0.0 -5.634198213894e+01 
-1.284330764718e+02 7.918114180547e-01 0.0 
7.918114180547e-01 -3.010012461321e+02 0.0 
0.0 0.0 -1.284302967812e+02 
-1.510108733757e+02 -7.260564492730e-01 0.0 
-7.260564492730e-01 -3.531284353312e+02 0.0 
0.0 0.0 -1.508417926121e+02 
-1.559986795746e+02 7.341111139322e-01 0.0 
7.341111139322e-01 -3.651594978369e+02 0.0 
0.0 0.0 -1.559474532234e+02 
-1.353480093334e+02 7.619976473600e-01 0.0 
7.619976473600e-01 -3.172165952792e+02 0.0 
0.0 0.0 -1.353693813838e+02 
-8.621348390650e+01 7.622690209311e-01 0.0 
7.622690209311e-01 -2.025369873148e+02 0.0 
0.0 0.0 -8.622514136638e+01 
-1.177044683612e+02 7.756792284035e-01 0.0 
7.756792284035e-01 -2.759597694808e+02 0.0 
0.0 0.0 -1.176992713526e+02 
-1.424962097308e+02 -6.891028873031e-01 0.0 
-6.891028873031e-01 -3.340500526307e+02 0.0 
0.0 0.0 -1.425638787084e+02 
-9.570774267246e+01 7.702436539978e-01 0.0 
7.702436539978e-01 -2.247589088390e+02 0.0 
0.0 0.0 -9.573999545345e+01 
-1.291421985846e+02 -7.409220135893e-01 0.0 
-7.409220135893e-01 -3.026447615062e+02 0.0 
0.0 0.0 -1.291360880272e+02 
-1.204758199329e+02 -7.656055625556e-01 0.0 
-7.656055625556e-01 -2.823729634436e+02 0.0 
0.0 0.0 -1.204546350129e+02 
-1.367411486254e+02 7.930216201836e-01 0.0 
7.930216201836e-01 -3.203340295268e+02 0.0 
0.0 0.0 -1.367225534457e+02 
-1.342103931697e+02 7.510873555453e-01 0.0 
7.510873555453e-01 -3.145052571566e+02 0.0 
0.0 0.0 -1.342146950979e+02 
-8.697199739121e+01 3.717244162240e-02 0.0 
3.717244162240e-02 -2.043523130958e+02 0.0 
0.0 0.0 -8.699729314611e+01 
-8.698567689402e+01 -1.369989767853e-01 0.0 
-1.369989767853e-01 -2.042919728957e+02 0.0 
0.0 0.0 -8.698329493693e+01 
-1.215418880496e+02 8.261748243428e-01 0.0 
8.261748243428e-01 -2.849929317003e+02 0.0 
0.0 0.0 -1.215604459250e+02 
-1.210666736118e+02 -7.439702744775e-01 0.0 
-7.439702744775e-01 -2.837930052113e+02 0.0 
0.0 0.0 -1.210579036469e+02 
-1.071160100333e+02 7.716270559925e-01 0.0 
7.716270559925e-01 -2.512499389312e+02 0.0 
0.0 0.0 -1.071097846894e+02 
-1.195676056426e+02 7.723226506866e-01 0.0 
7.723226506866e-01 -2.804022785010e+02 0.0 
0.0 0.0 -1.195909652431e+02 
-1.030296768169e+02 -7.565066837641e-01 0.0 
-7.565066837641e-01 -2.417686956424e+02 0.0 
0.0 0.0 -1.030395117378e+02 
-1.443536521833e+02 -5.282720729972e-01 0.0 
-5.282720729972e-01 -3.385142095271e+02 0.0 
0.0 0.0 -1.444603585131e+02 
-8.604010652948e+01 -7.630968632592e-01 0.0 
-7.630968632592e-01 -2.021369673535e+02 0.0 
0.0 0.0 -8.605312216488e+01 
-1.640090264063e+02 1.333384208464e-01 0.0 
1.333384208464e-01 -3.842020751978e+02 0.0 
0.0 0.0 -1.640633304812e+02 
-9.850026984451e+01 -6.184189810278e-01 0.0 
-6.184189810278e-01 -2.309605974205e+02 0.0 
0.0 0.0 -9.843826017951e+01 
-9.973140687756e+01 7.571725709717e-01 0.0 
7.571725709717e-01 -2.340638823828e+02 0.0 
0.0 0.0 -9.973858677812e+01 
-1.033143080005e+02 -7.758743234997e-01 0.0 
-7.758743234997e-01 -2.423834359499e+02 0.0 
0.0 0.0 -1.033093231851e+02 
-5.282329629409e+01 7.402909561037e-01 0.0 
7.402909561037e-01 -1.246237544407e+02 0.0 
0.0 0.0 -5.283411522044e+01 
-9.159462998918e+01 7.754701513053e-01 0.0 
7.754701513053e-01 -2.150199245693e+02 0.0 
0.0 0.0 -9.158436636755e+01 
-1.130241453412e+02 -7.452268633242e-01 0.0 
-7.452268633242e-01 -2.650559708180e+02 0.0 
0.0 0.0 -1.130240348478e+02 
-1.060155201399e+02 -7.456566259567e-01 0.0 
-7.456566259567e-01 -2.487601888811e+02 0.0 
0.0 0.0 -1.060327127063e+02 
-1.196907625860e+02 -7.385665746379e-01 0.0 
-7.385665746379e-01 -2.806097817780e+02 0.0 
0.0 0.0 -1.196901633092e+02 
-1.229552649288e+02 -7.496360934346e-01 0.0 
-7.496360934346e-01 -2.883039289964e+02 0.0 
0.0 0.0 -1.229777581775e+02 
-1.275195896737e+02 7.731268405114e-01 0.0 
7.731268405114e-01 -2.989734804802e+02 0.0 
0.0 0.0 -1.275479210462e+02 
-2.443200920497e+01 4.090899379829e-01 0.0 
4.090899379829e-01 -5.861175379799e+01 0.0 
0.0 0.0 -2.451312890089e+01 
-8.674225079148e+01 -7.842769223693e-01 0.0 
-7.842769223693e-01 -2.036913116245e+02 0.0 
0.0 0.0 -8.673006872480e+01 
-8.235590480024e+01 7.470204723709e-01 0.0 
7.470204723709e-01 -1.935678851471e+02 0.0 
0.0 0.0 -8.237713698421e+01 
-1.158598635649e+02 -7.180458272591e-01 0.0 
-7.180458272591e-01 -2.717880913431e+02 0.0 
0.0 0.0 -1.158943864724e+02 
-1.205469616279e+02 7.711280236131e-01 0.0 
7.711280236131e-01 -2.827075123870e+02 0.0 
0.0 0.0 -1.205763422045e+02 
-1.421348847434e+02 -7.221816287931e-01 0.0 
-7.221816287931e-01 -3.328682221225e+02 0.0 
0.0 0.0 -1.421009320598e+02 
-3.711686350093e+01 -8.408825999128e-01 0.0 
-8.408825999128e-01 -8.837290692954e+01 0.0 
0.0 0.0 -3.724693112914e+01 
-3.903328205878e+01 7.062421663200e-01 0.0 
7.062421663200e-01 -9.226465489193e+01 0.0 
0.0 0.0 -3.898938108521e+01 
-1.005685318633e+02 -7.494225217376e-01 0.0 
-7.494225217376e-01 -2.360144622320e+02 0.0 
0.0 0.0 -1.005748982286e+02 
-8.692146061824e+01 7.830755623439e-01 0.0 
7.830755623439e-01 -2.041056989441e+02 0.0 
0.0 0.0 -8.690814786869e+01 
-7.892119508763e+01 8.582627956907e-01 0.0 
8.582627956907e-01 -1.856385876177e+02 0.0 
0.0 0.0 -7.896793481159e+01 
-8.330706295780e+01 6.845072809746e-01 0.0 
6.845072809746e-01 -1.957260510936e+02 0.0 
0.0 0.0 -8.330993421543e+01 
-1.198344732594e+02 7.623454722323e-01 0.0 
7.623454722323e-01 -2.809227915677e+02 0.0 
0.0 0.0 -1.198271794481e+02 
-3.806797211651e+01 7.380719612962e-01 0.0 
7.380719612962e-01 -9.001304504967e+01 0.0 
0.0 0.0 -3.802430514985e+01 
-9.866952614302e+01 -7.670365552367e-01 0.0 
-7.670365552367e-01 -2.315387773347e+02 0.0 
0.0 0.0 -9.866249104331e+01 
-1.286177591999e+02 7.692618943926e-01 0.0 
7.692618943926e-01 -3.014603370143e+02 0.0 
0.0 0.0 -1.286234288642e+02 
-3.873342211461e+01 -8.255876573509e-01 0.0 
-8.255876573509e-01 -9.166707513544e+01 0.0 
0.0 0.0 -3.872014917502e+01 
-1.570111893088e+02 1.152585382103e-01 0.0 
1.152585382103e-01 -3.678046998409e+02 0.0 
0.0 0.0 -1.570447667449e+02 
-1.415657374153e+02 7.252939592284e-01 0.0 
7.252939592284e-01 -3.316709859326e+02 0.0 
0.0 0.0 -1.415710170044e+02 
-9.418795710976e+01 7.752356250761e-01 0.0 
7.752356250761e-01 -2.210357404656e+02 0.0 
0.0 0.0 -9.416710927259e+01 
-1.318680317976e+02 -7.654649193539e-01 0.0 
-7.654649193539e-01 -3.090019297462e+02 0.0 
0.0 0.0 -1.318609884631e+02 
-1.749163269302e+01 1.976399747419e-02 0.0 
1.976399747419e-02 -4.229270742312e+01 0.0 
0.0 0.0 -1.753530203484e+01 
-1.239803171001e+02 8.003259817725e-01 0.0 
8.003259817725e-01 -2.906734661155e+02 0.0 
0.0 0.0 -1.239961349647e+02 
-1.052056639660e+02 7.536653536955e-01 0.0 
7.536653536955e-01 -2.468292784272e+02 0.0 
0.0 0.0 -1.052104827180e+02 
-1.771068840949e+01 -3.810905513459e-02 0.0 
-3.810905513459e-02 -4.216419946338e+01 0.0 
0.0 0.0 -1.756246636186e+01 
-1.415141461855e+02 -7.175468126851e-01 0.0 
-7.175468126851e-01 -3.314652771094e+02 0.0 
0.0 0.0 -1.414938269885e+02 
-3.537161220566e+01 7.568727036823e-01 0.0 
7.568727036823e-01 -8.405071255567e+01 0.0 
0.0 0.0 -3.542669742840e+01 
-1.160379151892e+02 7.563187148765e-01 0.0 
7.563187148765e-01 -2.721861419077e+02 0.0 
0.0 0.0 -1.160672171291e+02 
-1.061861183219e+02 7.618014012449e-01 0.0 
7.618014012449e-01 -2.491233143341e+02 0.0 
0.0 0.0 -1.061928297968e+02 
-9.117941681178e+01 7.612733896049e-01 0.0 
7.612733896049e-01 -2.140980808432e+02 0.0 
0.0 0.0 -9.118324929651e+01 
-1.100278893473e+02 -7.978002685787e-01 0.0 
-7.978002685787e-01 -2.580839659018e+02 0.0 
0.0 0.0 -1.100335565747e+02 
-1.450785211948e+02 -7.187515281217e-01 0.0 
-7.187515281217e-01 -3.399412246328e+02 0.0 
0.0 0.0 -1.451059237483e+02 
-1.183817125634e+02 -8.105365751661e-01 0.0 
-8.105365751661e-01 -2.775581442918e+02 0.0 
0.0 0.0 -1.183819570566e+02 
-1.040423697949e+02 -7.495496932815e-01 0.0 
-7.495496932815e-01 -2.441176775637e+02 0.0 
0.0 0.0 -1.040480142076e+02 
-1.007344583845e+02 7.504154216819e-01 0.0 
7.504154216819e-01 -2.364012552347e+02 0.0 
0.0 0.0 -1.007407140858e+02 
-1.185196143689e+01 -7.268682531572e-01 0.0 
-7.268682531572e-01 -2.824606244812e+01 0.0 
0.0 0.0 -1.162940716550e+01 
-3.067357643900e+01 -7.495835483329e-01 0.0 
-7.495835483329e-01 -7.290830547194e+01 0.0 
0.0 0.0 -3.067456457328e+01 
-1.373123065466e+02 7.122784557597e-01 0.0 
7.122784557597e-01 -3.217466196865e+02 0.0 
0.0 0.0 -1.373176778699e+02 
-1.107929111002e+02 8.614937112699e-01 0.0 
8.614937112699e-01 -2.599796162497e+02 0.0 
0.0 0.0 -1.108317582050e+02 
-1.406465026357e+02 -7.258937739525e-01 0.0 
-7.258937739525e-01 -3.297454061875e+02 0.0 
0.0 0.0 -1.407175726470e+02 
-5.817858480871e+01 -7.769306115590e-01 0.0 
-7.769306115590e-01 -1.371060471338e+02 0.0 
0.0 0.0 -5.818538958277e+01 
-1.342340776486e+02 -7.882692491892e-01 0.0 
-7.882692491892e-01 -3.145966351043e+02 0.0 
0.0 0.0 -1.342492138259e+02 
-1.419830695521e+02 7.622008272951e-01 0.0 
7.622008272951e-01 -3.327515008575e+02 0.0 
0.0 0.0 -1.420203711229e+02 
-8.654510271380e+01 -7.125517084903e-01 0.0 
-7.125517084903e-01 -2.029170110328e+02 0.0 
0.0 0.0 -8.643863412399e+01 
-1.371104390011e+02 -6.685853309634e-01 0.0 
-6.685853309634e-01 -3.213164675710e+02 0.0 
0.0 0.0 -1.371280719716e+02 
-1.320580128355e+02 7.925668212016e-01 0.0 
7.925668212016e-01 -3.094353883978e+02 0.0 
0.0 0.0 -1.320480203700e+02 
-1.165215986785e+02 -7.553801371170e-01 0.0 
-7.553801371170e-01 -2.732101524429e+02 0.0 
0.0 0.0 -1.165195253364e+02 
-9.503424876654e+01 -7.826054906839e-01 0.0 
-7.826054906839e-01 -2.230561980046e+02 0.0 
0.0 0.0 -9.502713403136e+01 
-9.988251318329e+01 7.837510290059e-01 0.0 
7.837510290059e-01 -2.343682814620e+02 0.0 
0.0 0.0 -9.987523839360e+01 
-1.483896095761e+02 8.141971345700e-01 0.0 
8.141971345700e-01 -3.476663097046e+02 0.0 
0.0 0.0 -1.484167757842e+02 
-1.017616236927e+02 -7.852508815274e-01 0.0 
-7.852508815274e-01 -2.387853014594e+02 0.0 
0.0 0.0 -1.017640775456e+02 
-1.095273717621e+02 -7.416752953147e-01 0.0 
-7.416752953147e-01 -2.569136439115e+02 0.0 
0.0 0.0 -1.095323047021e+02 
-1.022204082831e+02 -7.887339644955e-01 0.0 
-7.887339644955e-01 -2.398957307695e+02 0.0 
0.0 0.0 -1.022348417158e+02 
-1.267705609806e+02 -7.928805853031e-01 0.0 
-7.928805853031e-01 -2.971386112412e+02 0.0 
0.0 0.0 -1.267727516666e+02 
-9.521160828457e+01 7.560849091386e-01 0.0 
7.560849091386e-01 -2.235297445638e+02 0.0 
0.0 0.0 -9.522240585450e+01 
-5.970668157040e+01 -7.761097325515e-01 0.0 
-7.761097325515e-01 -1.406648225728e+02 0.0 
0.0 0.0 -5.971145124297e+01 
-1.037763156542e+02 -7.591729673466e-01 0.0 
-7.591729673466e-01 -2.434820136303e+02 0.0 
0.0 0.0 -1.037774987854e+02 
-6.423329885903e+01 -7.659748298377e-01 0.0 
-7.659748298377e-01 -1.512429091577e+02 0.0 
0.0 0.0 -6.424286240502e+01 
-1.193895200613e+02 -7.455613703064e-01 0.0 
-7.455613703064e-01 -2.800168286803e+02 0.0 
0.0 0.0 -1.194219046225e+02 
-6.442929898855e+01 7.497895266605e-01 0.0 
7.497895266605e-01 -1.516631720192e+02 0.0 
0.0 0.0 -6.442774130231e+01 
-1.151146398266e+02 7.790249474813e-01 0.0 
7.790249474813e-01 -2.699971035466e+02 0.0 
0.0 0.0 -1.151335230120e+02 
-1.389100410299e+02 7.721264235705e-01 0.0 
7.721264235705e-01 -3.256086015558e+02 0.0 
0.0 0.0 -1.389555927757e+02 
-1.340856675784e+02 -7.508297564361e-01 0.0 
-7.508297564361e-01 -3.142630556814e+02 0.0 
0.0 0.0 -1.341046169779e+02 
-9.055510385529e+01 -7.570711824361e-01 0.0 
-7.570711824361e-01 -2.126708383003e+02 0.0 
0.0 0.0 -9.056778264666e+01 
-1.152505468855e+02 -7.648518769872e-01 0.0 
-7.648518769872e-01 -2.701439956694e+02 0.0 
0.0 0.0 -1.152183627665e+02 
-1.355127606354e+02 -7.638549473751e-01 0.0 
-7.638549473751e-01 -3.174634047477e+02 0.0 
0.0 0.0 -1.354928496149e+02 
-1.356974218792e+02 7.945787496499e-01 0.0 
7.945787496499e-01 -3.179001577071e+02 0.0 
0.0 0.0 -1.356792738759e+02 
-3.015766473657e+01 7.246376707354e-01 0.0 
7.246376707354e-01 -7.172100593348e+01 0.0 
0.0 0.0 -3.016360120102e+01 
-1.184488779292e+02 -7.456472095780e-01 0.0 
-7.456472095780e-01 -2.777875894013e+02 0.0 
0.0 0.0 -1.184709401992e+02 
-1.480079877894e+02 -9.805342700255e-01 0.0 
-9.805342700255e-01 -3.464974989100e+02 0.0 
0.0 0.0 -1.479516460098e+02 
-6.332494001774e+01 -7.122204946630e-01 0.0 
-7.122204946630e-01 -1.493015101618e+02 0.0 
0.0 0.0 -6.338793505387e+01 
-1.024124444585e+02 7.717989331562e-01 0.0 
7.717989331562e-01 -2.402864792732e+02 0.0 
0.0 0.0 -1.024096771195e+02 
-1.588794039533e+01 5.917716092709e-01 0.0 
5.917716092709e-01 -3.828366545515e+01 0.0 
0.0 0.0 -1.585148175514e+01 
-1.391482329635e+02 -7.546692807125e-01 0.0 
-7.546692807125e-01 -3.259092458960e+02 0.0 
0.0 0.0 -1.391172436579e+02 
-5.614851665595e+01 -7.758036043559e-01 0.0 
-7.758036043559e-01 -1.323848600059e+02 0.0 
0.0 0.0 -5.616001299855e+01 
-9.851406689704e+01 -5.696237886884e-01 0.0 
-5.696237886884e-01 -2.310148248723e+02 0.0 
0.0 0.0 -9.845866753082e+01 
-1.231144463986e+02 -8.725470182092e-01 0.0 
-8.725470182092e-01 -2.885934014304e+02 0.0 
0.0 0.0 -1.231123543487e+02 
-1.153931920290e+02 7.606469138720e-01 0.0 
7.606469138720e-01 -2.704881448153e+02 0.0 
0.0 0.0 -1.153644010533e+02 
-1.109116244749e+02 -6.994963997782e-01 0.0 
-6.994963997782e-01 -2.597391589447e+02 0.0 
0.0 0.0 -1.107952350259e+02 
-1.085279663533e+02 -7.507754810327e-01 0.0 
-7.507754810327e-01 -2.545803476512e+02 0.0 
0.0 0.0 -1.085324942013e+02 
-7.041022192485e+01 7.870484895108e-01 0.0 
7.870484895108e-01 -1.658364003762e+02 0.0 
0.0 0.0 -7.047398669032e+01 
-7.480635313448e+01 6.310061684703e-01 0.0 
6.310061684703e-01 -1.758917584850e+02 0.0 
0.0 0.0 -7.480943348583e+01 
-1.392953800625e+02 7.696861962535e-01 0.0 
7.696861962535e-01 -3.263299834992e+02 0.0 
0.0 0.0 -1.392876090685e+02 
-1.147807008017e+02 8.310211370780e-01 0.0 
8.310211370780e-01 -2.691680081465e+02 0.0 
0.0 0.0 -1.147846126845e+02 
-9.932910653921e+01 7.583192032026e-01 0.0 
7.583192032026e-01 -2.330998662135e+02 0.0 
0.0 0.0 -9.932869182580e+01 
-1.238447953444e+02 -8.211827422839e-01 0.0 
-8.211827422839e-01 -2.903266888885e+02 0.0 
0.0 0.0 -1.238514452699e+02 
-9.562715197341e+01 -7.553279875918e-01 0.0 
-7.553279875918e-01 -2.244788577968e+02 0.0 
0.0 0.0 -9.563180293105e+01 
-6.090830723112e+01 7.457978054690e-01 0.0 
7.457978054690e-01 -1.434730146291e+02 0.0 
0.0 0.0 -6.091439655807e+01 
-7.050904702633e+01 -5.987003793616e-01 0.0 
-5.987003793616e-01 -1.654228131592e+02 0.0 
0.0 0.0 -7.037955805566e+01 
-1.027086532084e+02 7.022359743955e-01 0.0 
7.022359743955e-01 -2.413070430577e+02 0.0 
0.0 0.0 -1.028047088798e+02 
-8.702372198185e+01 -3.121524163336e-02 0.0 
-3.121524163336e-02 -2.044969319386e+02 0.0 
0.0 0.0 -8.705619617613e+01 
-1.342047487117e+02 7.745145683646e-01 0.0 
7.745145683646e-01 -3.146229223308e+02 0.0 
0.0 0.0 -1.342483013127e+02 
-9.071874020518e+01 7.549815662928e-01 0.0 
7.549815662928e-01 -2.130540132534e+02 0.0 
0.0 0.0 -9.073182603756e+01 
-1.517534011857e+02 -7.089956807326e-01 0.0 
-7.089956807326e-01 -3.548024212952e+02 0.0 
0.0 0.0 -1.515667467443e+02 
-1.373657216264e+02 -8.983037852710e-01 0.0 
-8.983037852710e-01 -3.217719480707e+02 0.0 
0.0 0.0 -1.373413009091e+02 
-1.004256655899e+02 7.707195674799e-01 0.0 
7.707195674799e-01 -2.356641557182e+02 0.0 
0.0 0.0 -1.004269463924e+02 
-1.526824972617e+02 8.566957714798e-01 0.0 
8.566957714798e-01 -3.576308287877e+02 0.0 
0.0 0.0 -1.526939978148e+02 
-6.799178534269e+01 7.635119045811e-01 0.0 
7.635119045811e-01 -1.599806607793e+02 0.0 
0.0 0.0 -6.799173383661e+01 
-1.477187836109e+02 -7.422432867692e-01 0.0 
-7.422432867692e-01 -3.461092784161e+02 0.0 
0.0 0.0 -1.477484186081e+02 
-1.086989084362e+02 7.536088883009e-01 0.0 
7.536088883009e-01 -2.549769699947e+02 0.0 
0.0 0.0 -1.087027635293e+02 
-1.199905011183e+02 -7.502229319063e-01 0.0 
-7.502229319063e-01 -2.813284202966e+02 0.0 
0.0 0.0 -1.199956764245e+02 
-1.408661468733e+02 7.371012121606e-01 0.0 
7.371012121606e-01 -3.299766723626e+02 0.0 
0.0 0.0 -1.408528457708e+02 
-7.154815929707e+01 7.370557366613e-01 0.0 
7.370557366613e-01 -1.682423392988e+02 0.0 
0.0 0.0 -7.153714957875e+01 
-1.139944401954e+02 -7.514030722211e-01 0.0 
-7.514030722211e-01 -2.673753327827e+02 0.0 
0.0 0.0 -1.140109318934e+02 
-9.580844000124e+01 7.543020850813e-01 0.0 
7.543020850813e-01 -2.248850164567e+02 0.0 
0.0 0.0 -9.580803693737e+01 
-1.106217637763e+02 7.639606241866e-01 0.0 
7.639606241866e-01 -2.594989255008e+02 0.0 
0.0 0.0 -1.106362067831e+02 
-6.271375619404e+01 7.412006984108e-01 0.0 
7.412006984108e-01 -1.476939258688e+02 0.0 
0.0 0.0 -6.272230461885e+01 
-1.236261275438e+02 -8.437437691830e-01 0.0 
-8.437437691830e-01 -2.898367774915e+02 0.0 
0.0 0.0 -1.236388715106e+02 
-9.100037561445e+01 -7.602271966931e-01 0.0 
-7.602271966931e-01 -2.136739167246e+02 0.0 
0.0 0.0 -9.100228770172e+01 
-1.069229650477e+02 -7.674495265144e-01 0.0 
-7.674495265144e-01 -2.508023788789e+02 0.0 
0.0 0.0 -1.069176031780e+02 
-1.104543314266e+02 -7.351523766948e-01 0.0 
-7.351523766948e-01 -2.591411118395e+02 0.0 
0.0 0.0 -1.104786329798e+02 
-1.380163221569e+01 4.746222240763e-01 0.0 
4.746222240763e-01 -3.440588649225e+01 0.0 
0.0 0.0 -1.406225561238e+01 
-1.104280549811e+02 -8.230834059423e-01 0.0 
-8.230834059423e-01 -2.590316929952e+02 0.0 
0.0 0.0 -1.104379243929e+02 
-2.364839966415e+01 7.851863362354e-01 0.0 
7.851863362354e-01 -5.626046112371e+01 0.0 
0.0 0.0 -2.357265823636e+01 
-2.625783838844e+01 -8.335360915062e-01 0.0 
-8.335360915062e-01 -6.289060372992e+01 0.0 
0.0 0.0 -2.634453263551e+01 
-1.022199231241e+02 -7.509699895850e-01 0.0 
-7.509699895850e-01 -2.398229430979e+02 0.0 
0.0 0.0 -1.022128598666e+02 
-1.347458665763e+02 8.007185304144e-01 0.0 
8.007185304144e-01 -3.158014020233e+02 0.0 
0.0 0.0 -1.347641805799e+02 
-1.142576391242e+02 -7.118395138821e-01 0.0 
-7.118395138821e-01 -2.677965013939e+02 0.0 
0.0 0.0 -1.142162421554e+02 
-6.200730792036e+01 7.795290052499e-01 0.0 
7.795290052499e-01 -1.462889731572e+02 0.0 
0.0 0.0 -6.208888432327e+01 
-1.642650676115e+02 -5.493972070101e-02 0.0 
-5.493972070101e-02 -3.846184910934e+02 0.0 
0.0 0.0 -1.642650676115e+02 
-7.818820233507e+00 -4.723337764425e-01 0.0 
-4.723337764425e-01 -1.779656765842e+01 0.0 
0.0 0.0 -7.392194383997e+00 
-6.632385548110e+01 5.303935612262e-01 0.0 
5.303935612262e-01 -1.561952980865e+02 0.0 
0.0 0.0 -6.635574607028e+01 
-1.026470535158e+02 -7.461884429722e-01 0.0 
-7.461884429722e-01 -2.408526299156e+02 0.0 
0.0 0.0 -1.026499050294e+02 
-9.777670977888e+01 7.820546729997e-01 0.0 
7.820546729997e-01 -2.294566959609e+02 0.0 
0.0 0.0 -9.777002172194e+01 
-8.123136202843e+01 6.619521987588e-01 0.0 
6.619521987588e-01 -1.909345558351e+02 0.0 
0.0 0.0 -8.124977535906e+01 
-7.034090896897e+01 -7.327077934621e-01 0.0 
-7.327077934621e-01 -1.654620354704e+02 0.0 
0.0 0.0 -7.034088333183e+01 
-1.064444738820e+02 7.943698367153e-01 0.0 
7.943698367153e-01 -2.497176369150e+02 0.0 
0.0 0.0 -1.064486332391e+02 
-1.131953804585e+02 7.659274213910e-01 0.0 
7.659274213910e-01 -2.654527504514e+02 0.0 
0.0 0.0 -1.131944392730e+02 
-1.187049679195e+02 -8.147195250540e-01 0.0 
-8.147195250540e-01 -2.783284426049e+02 0.0 
0.0 0.0 -1.187100231573e+02 
-1.399087515306e+02 -8.142691919699e-01 0.0 
-8.142691919699e-01 -3.280762716229e+02 0.0 
0.0 0.0 -1.399955069460e+02 
-3.328868171266e+01 -7.286320881958e-01 0.0 
-7.286320881958e-01 -7.895672033493e+01 0.0 
0.0 0.0 -3.327362061428e+01 
-9.398804015048e+01 -7.638702784925e-01 0.0 
-7.638702784925e-01 -2.206101863293e+02 0.0 
0.0 0.0 -9.397946794393e+01 
-1.012085812099e+02 -7.503587595170e-01 0.0 
-7.503587595170e-01 -2.374795692837e+02 0.0 
0.0 0.0 -1.012064451481e+02 
-5.366505700361e+01 8.165995946110e-01 0.0 
8.165995946110e-01 -1.264963620307e+02 0.0 
0.0 0.0 -5.364842571031e+01 
-9.065093434701e+01 -8.789546570345e-01 0.0 
-8.789546570345e-01 -2.128437781785e+02 0.0 
0.0 0.0 -9.064841375766e+01 
-1.143269603984e+02 8.039634647069e-01 0.0 
8.039634647069e-01 -2.681301632685e+02 0.0 
0.0 0.0 -1.143371371001e+02 
-1.250081084708e+02 7.805635668023e-01 0.0 
7.805635668023e-01 -2.929322956975e+02 0.0 
0.0 0.0 -1.249821212505e+02 
-1.753697706179e+01 -4.348540346113e-02 0.0 
-4.348540346113e-02 -4.214834779602e+01 0.0 
0.0 0.0 -1.750559745734e+01 
-1.105339073136e+01 1.009077726642e+00 0.0 
1.009077726642e+00 -2.665602953818e+01 0.0 
0.0 0.0 -1.091282608086e+01 
-3.721197872587e+01 7.451073189156e-01 0.0 
7.451073189156e-01 -8.820194532564e+01 0.0 
0.0 0.0 -3.722417721545e+01 
-1.013873770843e+02 7.765063641959e-01 0.0 
7.765063641959e-01 -2.379126586037e+02 0.0 
0.0 0.0 -1.013900107064e+02 
-7.607245624411e+01 7.502866846500e-01 0.0 
7.502866846500e-01 -1.788350153094e+02 0.0 
0.0 0.0 -7.607224146606e+01 
-6.702914905101e+01 7.343949574094e-01 0.0 
7.343949574094e-01 -1.577219765360e+02 0.0 
0.0 0.0 -6.702533767610e+01 
-5.989235956857e+01 7.472871517017e-01 0.0 
7.472871517017e-01 -1.410697253175e+02 0.0 
0.0 0.0 -5.988862546581e+01 
-1.058008143642e+02 -7.484049612281e-01 0.0 
-7.484049612281e-01 -2.481985582839e+02 0.0 
0.0 0.0 -1.057998117944e+02 
-1.213529378651e+02 -7.479482894007e-01 0.0 
-7.479482894007e-01 -2.844734547263e+02 0.0 
0.0 0.0 -1.213479177774e+02 
-1.048206073746e+02 -7.529997289578e-01 0.0 
-7.529997289578e-01 -2.459302062767e+02 0.0 
0.0 0.0 -1.048252440954e+02 
-7.587827943139e+01 -7.506167428527e-01 0.0 
-7.506167428527e-01 -1.784014932619e+02 0.0 
0.0 0.0 -7.588393180798e+01 
-1.186215527216e+02 8.077162502674e-01 0.0 
8.077162502674e-01 -2.781503028984e+02 0.0 
0.0 0.0 -1.186315566860e+02 
-1.001550640092e+02 -6.595673007885e-01 0.0 
-6.595673007885e-01 -2.346711926500e+02 0.0 
0.0 0.0 -1.000478769978e+02 
-1.316018747545e+02 -8.552292960494e-01 0.0 
-8.552292960494e-01 -3.082971549509e+02 0.0 
0.0 0.0 -1.315697089116e+02 
-1.050106084336e+02 7.780985735719e-01 0.0 
7.780985735719e-01 -2.463773908734e+02 0.0 
0.0 0.0 -1.050163997921e+02 
-1.059894860640e+02 7.695332094638e-01 0.0 
7.695332094638e-01 -2.486594875906e+02 0.0 
0.0 0.0 -1.059946920964e+02 
-5.348574255574e+01 7.915863603970e-01 0.0 
7.915863603970e-01 -1.263925367365e+02 0.0 
0.0 0.0 -5.356348378766e+01 
-7.958350896464e+01 7.442268223739e-01 0.0 
7.442268223739e-01 -1.870439444206e+02 0.0 
0.0 0.0 -7.958823601556e+01 
-1.084238746760e+02 -7.397938567205e-01 0.0 
-7.397938567205e-01 -2.543047959975e+02 0.0 
0.0 0.0 -1.084186012020e+02 
-1.172889617448e+02 -6.805946482889e-01 0.0 
-6.805946482889e-01 -2.751834127605e+02 0.0 
0.0 0.0 -1.173417123516e+02 
-1.094814418314e+02 -7.243383710730e-01 0.0 
-7.243383710730e-01 -2.570811483864e+02 0.0 
0.0 0.0 -1.095687770653e+02 
-5.787541527944e+01 6.185362510934e-01 0.0 
6.185362510934e-01 -1.366081602145e+02 0.0 
0.0 0.0 -5.794507264818e+01 
-1.094133268466e+02 -7.576168171703e-01 0.0 
-7.576168171703e-01 -2.566347722668e+02 0.0 
0.0 0.0 -1.094144297340e+02 
-6.592421812390e+01 7.165801980586e-01 0.0 
7.165801980586e-01 -1.551439091389e+02 0.0 
0.0 0.0 -6.592043817885e+01 
-3.141205294317e+01 -8.159811681541e-01 0.0 
-8.159811681541e-01 -7.469166125531e+01 0.0 
0.0 0.0 -3.143111425954e+01 
-1.482197914514e+02 7.687005200737e-01 0.0 
7.687005200737e-01 -3.468091006117e+02 0.0 
0.0 0.0 -1.481086676190e+02 
-3.375740614699e+01 -7.741612029819e-01 0.0 
-7.741612029819e-01 -8.010368868147e+01 0.0 
0.0 0.0 -3.375832844854e+01 
-6.925234421153e+01 -7.448854900428e-01 0.0 
-7.448854900428e-01 -1.629251964913e+02 0.0 
0.0 0.0 -6.925326221084e+01 
-1.068300177695e+02 7.951219288678e-01 0.0 
7.951219288678e-01 -2.506500190203e+02 0.0 
0.0 0.0 -1.068440110369e+02 
-6.208799204456e+01 -5.671531284489e-01 0.0 
-5.671531284489e-01 -1.457296604298e+02 0.0 
0.0 0.0 -6.194529574231e+01 
-1.087137699731e+02 7.925783000936e-01 0.0 
7.925783000936e-01 -2.549733787206e+02 0.0 
0.0 0.0 -1.087061446081e+02 
-5.020207656714e+01 8.747391949578e-01 0.0 
8.747391949578e-01 -1.184155204130e+02 0.0 
0.0 0.0 -5.018527909404e+01 
-9.445371216852e+01 6.617661889913e-01 0.0 
6.617661889913e-01 -2.210704678020e+02 0.0 
0.0 0.0 -9.425725399115e+01 
-1.095844904509e+02 7.578729446947e-01 0.0 
7.578729446947e-01 -2.570864848016e+02 0.0 
0.0 0.0 -1.096012925757e+02 
-9.471040755025e+01 7.472474860683e-01 0.0 
7.472474860683e-01 -2.223463829785e+02 0.0 
0.0 0.0 -9.471703715864e+01 
-9.886251998647e+01 7.748447272098e-01 0.0 
7.748447272098e-01 -2.319768287109e+02 0.0 
0.0 0.0 -9.885180460922e+01 
-1.553859570285e+01 5.363125677411e-01 0.0 
5.363125677411e-01 -3.742777351099e+01 0.0 
0.0 0.0 -1.548991076415e+01 
-1.414321655518e+02 8.001336087316e-01 0.0 
8.001336087316e-01 -3.321748537644e+02 0.0 
0.0 0.0 -1.416821057948e+02 
-7.852988787137e+01 7.214250331725e-01 0.0 
7.214250331725e-01 -1.845692317102e+02 0.0 
0.0 0.0 -7.852973587447e+01 
-1.415483946338e+02 -8.299979880010e-01 0.0 
-8.299979880010e-01 -3.318267864103e+02 0.0 
0.0 0.0 -1.416125543132e+02 
-1.201840092004e+02 7.854003801194e-01 0.0 
7.854003801194e-01 -2.818178028363e+02 0.0 
0.0 0.0 -1.202005436110e+02 
-1.130271984215e+02 -7.748176822486e-01 0.0 
-7.748176822486e-01 -2.650592142411e+02 0.0 
0.0 0.0 -1.130259237988e+02 
-1.131962310164e+02 7.108210873855e-01 0.0 
7.108210873855e-01 -2.654968386375e+02 0.0 
0.0 0.0 -1.132079208962e+02 
-7.135323796219e+01 -7.464496906505e-01 0.0 
-7.464496906505e-01 -1.678301528270e+02 0.0 
0.0 0.0 -7.135501723676e+01 
-2.284887159851e+01 -6.377636080962e-01 0.0 
-6.377636080962e-01 -5.427839916142e+01 0.0 
0.0 0.0 -2.273818122798e+01 
-1.551554229212e+01 -4.429819967958e-01 0.0 
-4.429819967958e-01 -3.714001178640e+01 0.0 
0.0 0.0 -1.539666622356e+01 
-1.166938037993e+02 -7.740383833120e-01 0.0 
-7.740383833120e-01 -2.735203172918e+02 0.0 
0.0 0.0 -1.166642363273e+02 
-1.407126923270e+02 -7.571979196797e-01 0.0 
-7.571979196797e-01 -3.299876990045e+02 0.0 
0.0 0.0 -1.408101173995e+02 
-6.482491088433e+01 7.017941361140e-01 0.0 
7.017941361140e-01 -1.525479444350e+02 0.0 
0.0 0.0 -6.481185659579e+01 
-1.220438807188e+02 -7.611684084235e-01 0.0 
-7.611684084235e-01 -2.861012792559e+02 0.0 
0.0 0.0 -1.220435479924e+02 
-5.871840517285e+01 -7.623339461471e-01 0.0 
-7.623339461471e-01 -1.383722835534e+02 0.0 
0.0 0.0 -5.872720661787e+01 
-1.231205783804e+02 8.007216554929e-01 0.0 
8.007216554929e-01 -2.886846272239e+02 0.0 
0.0 0.0 -1.231415616813e+02 
-1.567543911111e+02 -4.383046368493e-01 0.0 
-4.383046368493e-01 -3.673403962360e+02 0.0 
0.0 0.0 -1.568284362041e+02 
-2.628203729455e+00 2.104789038630e-02 0.0 
2.104789038630e-02 -7.393712480670e+00 0.0 
0.0 0.0 -2.606574863037e+00 
-1.641717451622e+02 1.370078898424e-01 0.0 
1.370078898424e-01 -3.844007387118e+02 0.0 
0.0 0.0 -1.641717451622e+02 
-1.642031681745e+02 -1.407461294529e-02 0.0 
-1.407461294529e-02 -3.844740590738e+02 0.0 
0.0 0.0 -1.642031681745e+02 
-9.603260582596e+01 7.911870037752e-01 0.0 
7.911870037752e-01 -2.255442953275e+02 0.0 
0.0 0.0 -9.607307034604e+01 
-7.745510562496e+01 7.113796437647e-01 0.0 
7.113796437647e-01 -1.820509745024e+02 0.0 
0.0 0.0 -7.745182403822e+01 
-1.167087093454e+02 7.636446064429e-01 0.0 
7.636446064429e-01 -2.736489292470e+02 0.0 
0.0 0.0 -1.167072915777e+02 
-7.251408654463e+01 7.591411142032e-01 0.0 
7.591411142032e-01 -1.705389653899e+02 0.0 
0.0 0.0 -7.251591558036e+01 
-2.297172840445e+01 7.210489976440e-01 0.0 
7.210489976440e-01 -5.481320348659e+01 0.0 
0.0 0.0 -2.293547956731e+01 
-1.157169561015e+01 6.674584096868e-01 0.0 
6.674584096868e-01 -2.811487411636e+01 0.0 
0.0 0.0 -1.150597091795e+01 
-1.486642312569e+02 6.414383762274e-01 0.0 
6.414383762274e-01 -3.486084857749e+02 0.0 
0.0 0.0 -1.487818151096e+02 
-1.179908802236e+02 8.423670007827e-01 0.0 
8.423670007827e-01 -2.767011687036e+02 0.0 
0.0 0.0 -1.180076146782e+02 
-8.763139901490e+01 7.327690285417e-01 0.0 
7.327690285417e-01 -2.065589371391e+02 0.0 
0.0 0.0 -8.785710084621e+01 
-1.643863225217e+02 3.878426332294e-02 0.0 
3.878426332294e-02 -3.844867706270e+02 0.0 
0.0 0.0 -1.642619279446e+02 
-4.176989173777e+01 8.414226570487e-01 0.0 
8.414226570487e-01 -9.909823471561e+01 0.0 
0.0 0.0 -4.186043793601e+01 
-1.640378538715e+02 4.630885353417e-02 0.0 
4.630885353417e-02 -3.844552655763e+02 0.0 
0.0 0.0 -1.641479358343e+02 
-1.178370566805e+02 -7.474633409658e-01 0.0 
-7.474633409658e-01 -2.762473079291e+02 0.0 
0.0 0.0 -1.178253093829e+02 
-7.631492992730e+01 7.167578917409e-01 0.0 
7.167578917409e-01 -1.793633900812e+02 0.0 
0.0 0.0 -7.630349600256e+01 
-1.119984424794e+02 -7.447519154986e-01 0.0 
-7.447519154986e-01 -2.626744658249e+02 0.0 
0.0 0.0 -1.120018724913e+02 
-7.265408748594e+01 -7.270039103015e-01 0.0 
-7.270039103015e-01 -1.708504303941e+02 0.0 
0.0 0.0 -7.265135536401e+01 
-3.576209184978e+01 -8.589172351177e-01 0.0 
-8.589172351177e-01 -8.478421015781e+01 0.0 
0.0 0.0 -3.576389060228e+01 
-6.803738617336e+01 -7.530617470600e-01 0.0 
-7.530617470600e-01 -1.600428507398e+02 0.0 
0.0 0.0 -6.802407107394e+01 
-1.248917052687e+02 -7.739193185866e-01 0.0 
-7.739193185866e-01 -2.927109954377e+02 0.0 
0.0 0.0 -1.248808102119e+02 
-1.419644903756e+02 8.144964524706e-01 0.0 
8.144964524706e-01 -3.324622265443e+02 0.0 
0.0 0.0 -1.419280150760e+02 
-7.375435930827e+01 -7.295863767446e-01 0.0 
-7.295863767446e-01 -1.734267290493e+02 0.0 
0.0 0.0 -7.375432650726e+01 
-1.265259786885e+02 -7.569647557763e-01 0.0 
-7.569647557763e-01 -2.965928902712e+02 0.0 
0.0 0.0 -1.265356606879e+02 
-4.295214064847e+00 6.934866740706e-02 0.0 
6.934866740706e-02 -8.177075365958e+00 0.0 
0.0 0.0 -4.242942352483e+00 
-7.482248251508e+01 -7.217576714644e-01 0.0 
-7.217576714644e-01 -1.759346064150e+02 0.0 
0.0 0.0 -7.482712667902e+01 
-1.308404072701e+02 8.255966498673e-01 0.0 
8.255966498673e-01 -3.066574333697e+02 0.0 
0.0 0.0 -1.308493521919e+02 
-6.659693475645e+01 -7.642954919235e-01 0.0 
-7.642954919235e-01 -1.566915651799e+02 0.0 
0.0 0.0 -6.658654998091e+01 
-6.014097387237e+01 7.133770268896e-01 0.0 
7.133770268896e-01 -1.416114629429e+02 0.0 
0.0 0.0 -6.012573104457e+01 
-1.121813316066e+02 7.461395837083e-01 0.0 
7.461395837083e-01 -2.631019508236e+02 0.0 
0.0 0.0 -1.121849847290e+02 
-3.326548945629e+01 -8.013499275327e-01 0.0 
-8.013499275327e-01 -7.845851226616e+01 0.0 
0.0 0.0 -3.311720051674e+01 
-4.430694281547e+01 4.740856420203e-01 0.0 
4.740856420203e-01 -1.057043294257e+02 0.0 
0.0 0.0 -4.460338167236e+01 
-4.986364799340e+01 7.179400048270e-01 0.0 
7.179400048270e-01 -1.170948630982e+02 0.0 
0.0 0.0 -4.968755332749e+01 
-5.847870135612e+01 -7.368767419000e-01 0.0 
-7.368767419000e-01 -1.377598522810e+02 0.0 
0.0 0.0 -5.847156609115e+01 
-1.028451728766e+02 7.630113725123e-01 0.0 
7.630113725123e-01 -2.413419989381e+02 0.0 
0.0 0.0 -1.028561515444e+02 
-9.857740208536e+01 -7.699758739644e-01 0.0 
-7.699758739644e-01 -2.313949012136e+02 0.0 
0.0 0.0 -9.859169098969e+01 
-1.266779500975e+02 8.084314757535e-01 0.0 
8.084314757535e-01 -2.969131961967e+02 0.0 
0.0 0.0 -1.266773438882e+02 
-1.498216769275e+02 -5.321591774494e-01 0.0 
-5.321591774494e-01 -3.508456081632e+02 0.0 
0.0 0.0 -1.498001855272e+02 
-5.359960959192e+01 -5.212666770241e-01 0.0 
-5.212666770241e-01 -1.260468234685e+02 0.0 
0.0 0.0 -5.349392991814e+01 
-1.257183072095e+02 9.900335516994e-01 0.0 
9.900335516994e-01 -2.946178346497e+02 0.0 
0.0 0.0 -1.257008425578e+02 
-1.502366306607e+02 -4.936174766882e-01 0.0 
-4.936174766882e-01 -3.519907622288e+02 0.0 
0.0 0.0 -1.502682178668e+02 
-6.780738925511e+01 -7.676545720101e-01 0.0 
-7.676545720101e-01 -1.595581883986e+02 0.0 
0.0 0.0 -6.780967329611e+01 
-2.367363512105e+01 -8.810034538074e-01 0.0 
-8.810034538074e-01 -5.635763897709e+01 0.0 
0.0 0.0 -2.360938222944e+01 
-6.362365529375e+01 6.270544281270e-01 0.0 
6.270544281270e-01 -1.497685085095e+02 0.0 
0.0 0.0 -6.361764914096e+01 
-9.825527351760e+01 7.547638754287e-01 0.0 
7.547638754287e-01 -2.305971969220e+02 0.0 
0.0 0.0 -9.825574113188e+01 
-1.273533868299e+02 -7.841097001415e-01 0.0 
-7.841097001415e-01 -2.986206518536e+02 0.0 
0.0 0.0 -1.273922116050e+02 
-9.806047380853e+01 -7.650750724860e-01 0.0 
-7.650750724860e-01 -2.301843777068e+02 0.0 
0.0 0.0 -9.807345545460e+01 
-2.630974396492e+01 4.768014249345e-01 0.0 
4.768014249345e-01 -6.285932414376e+01 0.0 
0.0 0.0 -2.635072043260e+01 
-1.110444957335e+02 8.057373841986e-01 0.0 
8.057373841986e-01 -2.604505255420e+02 0.0 
0.0 0.0 -1.110485063827e+02 
-4.023991575155e+01 -8.659149153735e-01 0.0 
-8.659149153735e-01 -9.536634361004e+01 0.0 
0.0 0.0 -4.028187780848e+01 
-9.874113457708e+01 7.708059852418e-01 0.0 
7.708059852418e-01 -2.317793880573e+02 0.0 
0.0 0.0 -9.875615679033e+01 
-1.062514285069e+02 -8.133909917654e-01 0.0 
-8.133909917654e-01 -2.492808904863e+02 0.0 
0.0 0.0 -1.062596956980e+02 
-1.155247965160e+02 -7.607038797478e-01 0.0 
-7.607038797478e-01 -2.709458706595e+02 0.0 
0.0 0.0 -1.155412001527e+02 
-1.155635292329e+02 6.839344320293e-01 0.0 
6.839344320293e-01 -2.703976828986e+02 0.0 
0.0 0.0 -1.153883636395e+02 
-5.864641647627e+01 7.050288257944e-01 0.0 
7.050288257944e-01 -1.381130937129e+02 0.0 
0.0 0.0 -5.862785305675e+01 
-2.691202464565e+01 -7.790364809005e-01 0.0 
-7.790364809005e-01 -6.408870219127e+01 0.0 
0.0 0.0 -2.690021805108e+01 
-1.145962419174e+02 -8.349670715608e-01 0.0 
-8.349670715608e-01 -2.687326159928e+02 0.0 
0.0 0.0 -1.145986573731e+02 
-4.464151177416e+01 -7.975865699496e-01 0.0 
-7.975865699496e-01 -1.053347220982e+02 0.0 
0.0 0.0 -4.459287016170e+01 
-1.104323926781e+01 -8.567772466738e-01 0.0 
-8.567772466738e-01 -2.637297025617e+01 0.0 
0.0 0.0 -1.082486285719e+01 
-1.498606614508e+02 -6.882204974627e-01 0.0 
-6.882204974627e-01 -3.508396048862e+02 0.0 
0.0 0.0 -1.498100799011e+02 
-1.419792016116e+02 -7.679149554584e-01 0.0 
-7.679149554584e-01 -3.324977942316e+02 0.0 
0.0 0.0 -1.419430987530e+02 
-1.055425453390e+01 8.180371194990e-02 0.0 
8.180371194990e-02 -2.471845030356e+01 0.0 
0.0 0.0 -1.056385928481e+01 
-1.193616476516e+02 8.341081568716e-01 0.0 
8.341081568716e-01 -2.798409418314e+02 0.0 
0.0 0.0 -1.193607768449e+02 
-4.543551079204e+01 7.104893729123e-01 0.0 
7.104893729123e-01 -1.073971236653e+02 0.0 
0.0 0.0 -4.544979033719e+01 
-4.868341418055e+01 -8.451260265504e-01 0.0 
-8.451260265504e-01 -1.149238958623e+02 0.0 
0.0 0.0 -4.868219301284e+01 
-1.347063854303e+02 -7.748675253150e-01 0.0 
-7.748675253150e-01 -3.156405752621e+02 0.0 
0.0 0.0 -1.347040882077e+02 
-1.157007511728e+02 7.526321955298e-01 0.0 
7.526321955298e-01 -2.713146694044e+02 0.0 
0.0 0.0 -1.157046261732e+02 
-1.301475669423e+02 -7.564240606914e-01 0.0 
-7.564240606914e-01 -3.050092022291e+02 0.0 
0.0 0.0 -1.301470307514e+02 
-7.502591076229e+01 7.250595444219e-01 0.0 
7.250595444219e-01 -1.764020011000e+02 0.0 
0.0 0.0 -7.502837355869e+01 
-8.705977021273e+01 -8.464661265637e-02 0.0 
-8.464661265637e-02 -2.043720880621e+02 0.0 
0.0 0.0 -8.702955748244e+01 
-1.564695892191e+02 1.534217706698e-01 0.0 
1.534217706698e-01 -3.667657607695e+02 0.0 
0.0 0.0 -1.565706049966e+02 
-4.037344119504e+01 -8.083319497103e-01 0.0 
-8.083319497103e-01 -9.555968905021e+01 0.0 
0.0 0.0 -4.037993907358e+01 
-1.375414600110e+02 7.017309264744e-01 0.0 
7.017309264744e-01 -3.223723457105e+02 0.0 
0.0 0.0 -1.375741417165e+02 
-1.032102487581e+02 7.682880889031e-01 0.0 
7.682880889031e-01 -2.422028595537e+02 0.0 
0.0 0.0 -1.032239324935e+02 
-3.224940669993e+01 -6.684658957777e-01 0.0 
-6.684658957777e-01 -7.566902934291e+01 0.0 
0.0 0.0 -3.197553081285e+01 
-1.237974325588e+02 -7.499333840818e-01 0.0 
-7.499333840818e-01 -2.902526006773e+02 0.0 
0.0 0.0 -1.238150099709e+02 
-7.939756173245e+01 -7.482025778810e-01 0.0 
-7.482025778810e-01 -1.865963831519e+02 0.0 
0.0 0.0 -7.939818346530e+01 
-1.755142922473e+01 -7.728793442321e-02 0.0 
-7.728793442321e-02 -4.206072637347e+01 0.0 
0.0 0.0 -1.748364667946e+01 
-6.686439001972e+01 -7.326067011916e-01 0.0 
-7.326067011916e-01 -1.573464007029e+02 0.0 
0.0 0.0 -6.686323721679e+01 
-1.213610258208e+02 -7.763730856422e-01 0.0 
-7.763730856422e-01 -2.844202600624e+02 0.0 
0.0 0.0 -1.213343857649e+02 
-1.251045423424e+02 8.013260077035e-01 0.0 
8.013260077035e-01 -2.933292905160e+02 0.0 
0.0 0.0 -1.251301498575e+02 
-3.076736364490e+01 7.626965169929e-01 0.0 
7.626965169929e-01 -7.298691405036e+01 0.0 
0.0 0.0 -3.072628330858e+01 
-9.899374245490e+01 4.730294103557e-01 0.0 
4.730294103557e-01 -2.315386476368e+02 0.0 
0.0 0.0 -9.875971702751e+01 
-1.310733256814e+02 -7.957823557648e-01 0.0 
-7.957823557648e-01 -3.072325621229e+02 0.0 
0.0 0.0 -1.310917663413e+02 
-1.362940178776e+02 7.218004190960e-01 0.0 
7.218004190960e-01 -3.191705649520e+02 0.0 
0.0 0.0 -1.362393748489e+02 
-6.324936949725e+01 -7.199962953003e-01 0.0 
-7.199962953003e-01 -1.488862746037e+02 0.0 
0.0 0.0 -6.324069323029e+01 
-5.023811068797e+01 -7.724086215497e-01 0.0 
-7.724086215497e-01 -1.184830368141e+02 0.0 
0.0 0.0 -5.021634425062e+01 
-1.066666120048e+02 -8.016279543511e-01 0.0 
-8.016279543511e-01 -2.502649571201e+02 0.0 
0.0 0.0 -1.066794707375e+02 
-1.129807198781e+02 8.637110620082e-01 0.0 
8.637110620082e-01 -2.647486391827e+02 0.0 
0.0 0.0 -1.129188077182e+02 
-1.726947872232e+01 6.793955977487e-02 0.0 
6.793955977487e-02 -4.143185520428e+01 0.0 
0.0 0.0 -1.721040017798e+01 
-1.571573316138e+02 -6.033794517480e-03 0.0 
-6.033794517480e-03 -3.681664062849e+02 0.0 
0.0 0.0 -1.571971213696e+02 
-1.563697247754e+02 -7.495662476936e-02 0.0 
-7.495662476936e-02 -3.666578372772e+02 0.0 
0.0 0.0 -1.565082686158e+02 
-1.012726503220e+02 7.683859669163e-01 0.0 
7.683859669163e-01 -2.373883160542e+02 0.0 
0.0 0.0 -1.011982899129e+02 
-1.549884463740e+02 9.142486275658e-01 0.0 
9.142486275658e-01 -3.627027270577e+02 0.0 
0.0 0.0 -1.549073520295e+02 
-1.571350959299e+02 -3.508998766761e-01 0.0 
-3.508998766761e-01 -3.679837315934e+02 0.0 
0.0 0.0 -1.571356482570e+02 
-7.832640219732e+01 -7.421359412867e-01 0.0 
-7.421359412867e-01 -1.841041225306e+02 0.0 
0.0 0.0 -7.832915741838e+01 
-7.394896521441e+01 7.192321571210e-01 0.0 
7.192321571210e-01 -1.738886024132e+02 0.0 
0.0 0.0 -7.395127028827e+01 
-1.567614493950e+02 1.460686347598e-01 0.0 
1.460686347598e-01 -3.675796745885e+02 0.0 
0.0 0.0 -1.569023371951e+02 
-4.595440413371e+00 1.027167783246e-02 0.0 
1.027167783246e-02 -8.845315836565e+00 0.0 
0.0 0.0 -4.582839057767e+00 
-4.564419155901e+01 -8.371507932415e-01 0.0 
-8.371507932415e-01 -1.079793325837e+02 0.0 
0.0 0.0 -4.568705724281e+01 
-1.003566155862e+02 -8.516627926605e-01 0.0 
-8.516627926605e-01 -2.359880610480e+02 0.0 
0.0 0.0 -1.005034029902e+02 
-6.343811447876e+01 6.987268474181e-01 0.0 
6.987268474181e-01 -1.493311743082e+02 0.0 
0.0 0.0 -6.343078663607e+01 
-6.576240358931e+01 -7.396270437201e-01 0.0 
-7.396270437201e-01 -1.548043955126e+02 0.0 
0.0 0.0 -6.577003973059e+01 
-3.591935314152e+01 5.153535410777e-01 0.0 
5.153535410777e-01 -8.571482073411e+01 0.0 
0.0 0.0 -3.609025216269e+01 
-4.120347160215e+01 7.227696176613e-01 0.0 
7.227696176613e-01 -9.760039105303e+01 0.0 
0.0 0.0 -4.124115879655e+01 
-1.013136334718e+02 6.601340695839e-01 0.0 
6.601340695839e-01 -2.374878350917e+02 0.0 
0.0 0.0 -1.012404405690e+02 
-7.154092132648e+01 7.479753921883e-01 0.0 
7.479753921883e-01 -1.682659764102e+02 0.0 
0.0 0.0 -7.154206932101e+01 
-5.340605737971e+01 -6.804522793696e-01 0.0 
-6.804522793696e-01 -1.261377552902e+02 0.0 
0.0 0.0 -5.346314380096e+01 
-1.317818552207e+02 -8.102672999891e-01 0.0 
-8.102672999891e-01 -3.089406011001e+02 0.0 
0.0 0.0 -1.318167368962e+02 
-1.644226838103e+02 1.076425068204e-02 0.0 
1.076425068204e-02 -3.846824947465e+02 0.0 
0.0 0.0 -1.643315535670e+02 
-1.635575478717e+02 2.816186044843e-01 0.0 
2.816186044843e-01 -3.835144117223e+02 0.0 
0.0 0.0 -1.637215878782e+02 
-7.724764222737e+01 -7.437872773575e-01 0.0 
-7.437872773575e-01 -1.815793080506e+02 0.0 
0.0 0.0 -7.724808508339e+01 
-9.447651824833e+01 -4.191789592418e-01 0.0 
-4.191789592418e-01 -2.213289747815e+02 0.0 
0.0 0.0 -9.434164790895e+01 
-8.815424167596e+00 -2.893620402820e-01 0.0 
-2.893620402820e-01 -2.136258315689e+01 0.0 
0.0 0.0 -8.653402197346e+00 
-2.842977095986e+01 8.630743149113e-01 0.0 
8.630743149113e-01 -6.781392252262e+01 0.0 
0.0 0.0 -2.847310804475e+01 
-3.131292134731e+01 4.225320899871e-01 0.0 
4.225320899871e-01 -7.429105909566e+01 0.0 
0.0 0.0 -3.128119413289e+01 
-3.274068931438e+01 7.559928686835e-01 0.0 
7.559928686835e-01 -7.779943451982e+01 0.0 
0.0 0.0 -3.276203715026e+01 
-1.112146878212e+02 7.846214487522e-01 0.0 
7.846214487522e-01 -2.608848667432e+02 0.0 
0.0 0.0 -1.112298663693e+02 
-6.466691388493e+01 -7.301212114937e-01 0.0 
-7.301212114937e-01 -1.522244629568e+02 0.0 
0.0 0.0 -6.466741305251e+01 
-7.051037324695e+01 7.326725345208e-01 0.0 
7.326725345208e-01 -1.658678825350e+02 0.0 
0.0 0.0 -7.051347673458e+01 
-1.699989149455e+01 6.342244074064e-01 0.0 
6.342244074064e-01 -4.208038789198e+01 0.0 
0.0 0.0 -1.732408381596e+01 
-1.431405823833e+02 -1.246286655865e-01 0.0 
-1.246286655865e-01 -3.356773353358e+02 0.0 
0.0 0.0 -1.432453753157e+02 
-6.941060423892e+01 7.273607103841e-01 0.0 
7.273607103841e-01 -1.632970737104e+02 0.0 
0.0 0.0 -6.941230338481e+01 
-1.487726488648e+02 -7.916224674896e-01 0.0 
-7.916224674896e-01 -3.483357949220e+02 0.0 
0.0 0.0 -1.487325331360e+02 
-1.368197867478e+02 5.742648880502e-01 0.0 
5.742648880502e-01 -3.201927645857e+02 0.0 
0.0 0.0 -1.367037654000e+02 
-1.637781189963e+02 -2.024388452302e-01 0.0 
-2.024388452302e-01 -3.836872753556e+02 0.0 
0.0 0.0 -1.638396183056e+02 
-1.643292374162e+02 -1.654117668315e-01 0.0 
-1.654117668315e-01 -3.847218954755e+02 0.0 
0.0 0.0 -1.643153398675e+02 
-1.012209163168e+02 -6.224589569925e-01 0.0 
-6.224589569925e-01 -2.378261081897e+02 0.0 
0.0 0.0 -1.013141073520e+02 
-7.284803414791e+01 7.086454391173e-01 0.0 
7.086454391173e-01 -1.712815561599e+02 0.0 
0.0 0.0 -7.283887709235e+01 
-4.505879365587e+01 -6.231959151191e-01 0.0 
-6.231959151191e-01 -1.061796621630e+02 0.0 
0.0 0.0 -4.497153674567e+01 
-7.612125864613e+01 -7.524650941345e-01 0.0 
-7.524650941345e-01 -1.789287515358e+02 0.0 
0.0 0.0 -7.611500305457e+01 
-1.644213506366e+02 8.860963844292e-02 0.0 
8.860963844292e-02 -3.849831514854e+02 0.0 
0.0 0.0 -1.644213506366e+02 
-2.001415923392e+01 7.727664393195e-01 0.0 
7.727664393195e-01 -4.803560471437e+01 0.0 
0.0 0.0 -2.001492918449e+01 
-2.429520401915e+01 6.590740562200e-01 0.0 
6.590740562200e-01 -5.799708986887e+01 0.0 
0.0 0.0 -2.428768816641e+01 
-1.419979018705e+02 5.980403546168e-01 0.0 
5.980403546168e-01 -3.329611564022e+02 0.0 
0.0 0.0 -1.420877174818e+02 
-9.468476871881e+01 -4.521577728067e-02 0.0 
-4.521577728067e-02 -2.219705402543e+02 0.0 
0.0 0.0 -9.459659269193e+01 
-1.496063517586e+02 -8.260473432054e-01 0.0 
-8.260473432054e-01 -3.504051040185e+02 0.0 
0.0 0.0 -1.496034367331e+02 
-1.311556686559e+02 8.171965050752e-01 0.0 
8.171965050752e-01 -3.074127124771e+02 0.0 
0.0 0.0 -1.311705143399e+02 
-1.440419106948e+02 -7.893101732481e-01 0.0 
-7.893101732481e-01 -3.373892725344e+02 0.0 
0.0 0.0 -1.440293549688e+02 
-1.368043669180e+02 8.854130144011e-01 0.0 
8.854130144011e-01 -3.206717167158e+02 0.0 
0.0 0.0 -1.368428250901e+02 
-1.030485603044e+02 -7.317889777714e-01 0.0 
-7.317889777714e-01 -2.414348644759e+02 0.0 
0.0 0.0 -1.029450274341e+02 
-5.538016425025e+01 6.927804551408e-01 0.0 
6.927804551408e-01 -1.305108732884e+02 0.0 
0.0 0.0 -5.536731126160e+01 
-5.524461891955e+01 -7.351307189213e-01 0.0 
-7.351307189213e-01 -1.301853779265e+02 0.0 
0.0 0.0 -5.522899905383e+01 
-1.214881433002e+02 -7.469512146448e-01 0.0 
-7.469512146448e-01 -2.843128109839e+02 0.0 
0.0 0.0 -1.213402862852e+02 
-1.403428939788e+02 9.293406694786e-01 0.0 
9.293406694786e-01 -3.286666175030e+02 0.0 
0.0 0.0 -1.403028534445e+02 
-8.742992752682e+01 -1.602929017798e-01 0.0 
-1.602929017798e-01 -2.050391924523e+02 0.0 
0.0 0.0 -8.734073599375e+01 
-9.411894952753e+01 -3.843587717465e-02 0.0 
-3.843587717465e-02 -2.209360319435e+02 0.0 
0.0 0.0 -9.411649444131e+01 
-1.010140182242e+02 2.570160734628e-01 0.0 
2.570160734628e-01 -2.368039879500e+02 0.0 
0.0 0.0 -1.009454018523e+02 
-1.030928110261e+02 9.613551156392e-01 0.0 
9.613551156392e-01 -2.423261164959e+02 0.0 
0.0 0.0 -1.032256782566e+02 
-2.618640203964e+01 -6.721900645420e-01 0.0 
-6.721900645420e-01 -6.273510366627e+01 0.0 
0.0 0.0 -2.627645171177e+01 
-5.041491121319e+01 -7.042484023464e-01 0.0 
-7.042484023464e-01 -1.188952611949e+02 0.0 
0.0 0.0 -5.039305172243e+01 
-1.570458955651e+02 -3.540285902052e-01 0.0 
-3.540285902052e-01 -3.681293086240e+02 0.0 
0.0 0.0 -1.571525612567e+02 
-1.115857418978e+02 8.670462289598e-01 0.0 
8.670462289598e-01 -2.615147253045e+02 0.0 
0.0 0.0 -1.115301401607e+02 
-1.591557765159e+02 -5.904810154813e-01 0.0 
-5.904810154813e-01 -3.727272652238e+02 0.0 
0.0 0.0 -1.591649125219e+02 
-1.501914178999e+02 6.652354490126e-01 0.0 
6.652354490126e-01 -3.518441922101e+02 0.0 
0.0 0.0 -1.502106830330e+02 
-1.239724268306e+02 7.709798690257e-01 0.0 
7.709798690257e-01 -2.907317479071e+02 0.0 
0.0 0.0 -1.240112524213e+02 
-1.493363345465e+02 5.929044409163e-01 0.0 
5.929044409163e-01 -3.500633676686e+02 0.0 
0.0 0.0 -1.494199106645e+02 
-7.505442407397e+01 -6.025037384371e-01 0.0 
-6.025037384371e-01 -1.759783612111e+02 0.0 
0.0 0.0 -7.490983558552e+01 
-6.788220443424e+01 -6.241510500555e-01 0.0 
-6.241510500555e-01 -1.604744463856e+02 0.0 
0.0 0.0 -6.810699524595e+01 
-1.499525983234e+02 -5.633917736196e-01 0.0 
-5.633917736196e-01 -3.515800379341e+02 0.0 
0.0 0.0 -1.500597908773e+02 
-1.051100843361e+01 -2.228675126470e-01 0.0 
-2.228675126470e-01 -2.450566821277e+01 0.0 
0.0 0.0 -1.055768766494e+01 
-4.835062234148e+01 2.616903542264e-01 0.0 
2.616903542264e-01 -1.139531478308e+02 0.0 
0.0 0.0 -4.829113105168e+01 
-1.641981412572e+02 4.691149773305e-02 0.0 
4.691149773305e-02 -3.844623296002e+02 0.0 
0.0 0.0 -1.641981412572e+02 
-2.401873205456e+01 7.551807439421e-01 0.0 
7.551807439421e-01 -5.736978668502e+01 0.0 
0.0 0.0 -2.401655562188e+01 
-9.426776416955e+01 -9.096184103353e-02 0.0 
-9.096184103353e-02 -2.210555405514e+02 0.0 
0.0 0.0 -9.419699141629e+01 
-1.500570606679e+02 1.826696686669e-01 0.0 
1.826696686669e-01 -3.520517735383e+02 0.0 
0.0 0.0 -1.502326502619e+02 
-1.624148121013e+01 -5.716979423427e-01 0.0 
-5.716979423427e-01 -3.883491942942e+01 0.0 
0.0 0.0 -1.612292019186e+01 
-9.623895381800e+00 1.697474887336e-01 0.0 
1.697474887336e-01 -2.382494380170e+01 0.0 
0.0 0.0 -9.634651755051e+00 
-1.641806458243e+02 4.396285832787e-01 0.0 
4.396285832787e-01 -3.842977025322e+02 0.0 
0.0 0.0 -1.641435045070e+02 
-8.712853856351e+01 -3.615019113058e-01 0.0 
-3.615019113058e-01 -2.043320997489e+02 0.0 
0.0 0.0 -8.703819149373e+01 
-1.556541733410e+02 -8.839605266654e-01 0.0 
-8.839605266654e-01 -3.642757251258e+02 0.0 
0.0 0.0 -1.555789695400e+02 
-1.501502526838e+02 -4.603096694039e-02 0.0 
-4.603096694039e-02 -3.521275309632e+02 0.0 
0.0 0.0 -1.502833350941e+02 
-8.695226058457e+01 2.198493761830e-01 0.0 
2.198493761830e-01 -2.040113063281e+02 0.0 
0.0 0.0 -8.688907007381e+01 
-9.839499265582e+00 1.085080770305e-02 0.0 
1.085080770305e-02 -2.354029709314e+01 0.0 
0.0 0.0 -9.613938907617e+00 
-1.569644078430e+02 3.874143691647e-01 0.0 
3.874143691647e-01 -3.676247327039e+02 0.0 
0.0 0.0 -1.569767421641e+02 
-2.645124353256e+01 9.372929927000e-01 0.0 
9.372929927000e-01 -6.310129483937e+01 0.0 
0.0 0.0 -2.646576151158e+01 
-1.508179595733e+02 -5.013911049845e-01 0.0 
-5.013911049845e-01 -3.535417944296e+02 0.0 
0.0 0.0 -1.509079262009e+02 
-1.643371828083e+02 1.127164314267e-03 0.0 
1.127164314267e-03 -3.847867598860e+02 0.0 
0.0 0.0 -1.643371828083e+02 
-1.500264060160e+02 5.921071577286e-01 0.0 
5.921071577286e-01 -3.518416258199e+02 0.0 
0.0 0.0 -1.501604095508e+02 
-3.412447411712e+01 -8.016599037458e-01 0.0 
-8.016599037458e-01 -8.094446736196e+01 0.0 
0.0 0.0 -3.412068244373e+01 
-1.016570513978e+02 -8.977214823146e-02 0.0 
-8.977214823146e-02 -2.383472424256e+02 0.0 
0.0 0.0 -1.016012881470e+02 
-7.556207967646e+01 5.298478105700e-01 0.0 
5.298478105700e-01 -1.785129615737e+02 0.0 
0.0 0.0 -7.582251237505e+01 
-1.319953502149e+02 8.080765101728e-01 0.0 
8.080765101728e-01 -3.092049041110e+02 0.0 
0.0 0.0 -1.319600762978e+02 
-1.644759713684e+02 3.691987100434e-01 0.0 
3.691987100434e-01 -3.849998493938e+02 0.0 
0.0 0.0 -1.644427462287e+02 
-1.301385399378e+02 -5.065464189585e-01 0.0 
-5.065464189585e-01 -3.051841974134e+02 0.0 
0.0 0.0 -1.301968212054e+02 
-1.641034771960e+02 -4.438276556808e-01 0.0 
-4.438276556808e-01 -3.845497745998e+02 0.0 
0.0 0.0 -1.641959755388e+02 
-1.732238884976e+01 -6.541762553806e-01 0.0 
-6.541762553806e-01 -4.093205908465e+01 0.0 
0.0 0.0 -1.707633438032e+01 
-1.579907371264e+02 4.995352294821e-01 0.0 
4.995352294821e-01 -3.698056452011e+02 0.0 
0.0 0.0 -1.579389146982e+02 
-3.837611334006e+01 -5.032838825100e-01 0.0 
-5.032838825100e-01 -9.104757370054e+01 0.0 
0.0 0.0 -3.842710611218e+01 
-2.403826101086e+01 -3.609714413519e-01 0.0 
-3.609714413519e-01 -5.735799885927e+01 0.0 
0.0 0.0 -2.401887796104e+01 
-1.572099592770e+02 4.031028942572e-01 0.0 
4.031028942572e-01 -3.684395617384e+02 0.0 
0.0 0.0 -1.572948563046e+02 
-1.574527451141e+02 2.281868692900e-01 0.0 
2.281868692900e-01 -3.686845371189e+02 0.0 
0.0 0.0 -1.574411846699e+02 
-1.586707462255e+02 6.644095240886e-01 0.0 
6.644095240886e-01 -3.715743558209e+02 0.0 
0.0 0.0 -1.586735306139e+02 
-9.370317529848e+01 -8.234871472459e-01 0.0 
-8.234871472459e-01 -2.198571631818e+02 0.0 
0.0 0.0 -9.366810154407e+01 
-1.024351853306e+02 -8.045025818867e-01 0.0 
-8.045025818867e-01 -2.404349390384e+02 0.0 
0.0 0.0 -1.024610373107e+02 
-3.567716794055e+01 8.266930753079e-01 0.0 
8.266930753079e-01 -8.463143883562e+01 0.0 
0.0 0.0 -3.569258203285e+01 
-1.577424944920e+02 3.249777178783e-01 0.0 
3.249777178783e-01 -3.691148840251e+02 0.0 
0.0 0.0 -1.576572135552e+02 
-6.361133113108e+01 -6.890604384842e-01 0.0 
-6.890604384842e-01 -1.492614035357e+02 0.0 
0.0 0.0 -6.346182040004e+01 
-2.274845795341e+01 6.821812641065e-01 0.0 
6.821812641065e-01 -5.331759937128e+01 0.0 
0.0 0.0 -2.241981719741e+01 
-1.361374199718e+02 -7.454721018876e-01 0.0 
-7.454721018876e-01 -3.188267296228e+02 0.0 
0.0 0.0 -1.360892448784e+02 
-8.679575281078e+01 7.971481625022e-02 0.0 
7.971481625022e-02 -2.036210296237e+02 0.0 
0.0 0.0 -8.672503473035e+01 
-1.518304622606e+02 -6.111489536542e-01 0.0 
-6.111489536542e-01 -3.555769127556e+02 0.0 
0.0 0.0 -1.518222125049e+02 
-1.634084213795e+02 7.465583052020e-01 0.0 
7.465583052020e-01 -3.824016036753e+02 0.0 
0.0 0.0 -1.633430075164e+02 
-1.644137845769e+02 3.270693153340e-02 0.0 
3.270693153340e-02 -3.849654973462e+02 0.0 
0.0 0.0 -1.644137845769e+02 
-2.552097867577e+00 3.831617843788e-01 0.0 
3.831617843788e-01 -6.550169546185e+00 0.0 
0.0 0.0 -2.330680224129e+00 
-5.184184502507e+00 -3.254952093428e-01 0.0 
-3.254952093428e-01 -1.041844927804e+01 0.0 
0.0 0.0 -4.917296684325e+00 
-8.780364345412e+01 6.801188113712e-01 0.0 
6.801188113712e-01 -2.060837414777e+02 0.0 
0.0 0.0 -8.776621547954e+01 
-8.637466599952e+01 -1.096693490361e-01 0.0 
-1.096693490361e-01 -2.035637781302e+02 0.0 
0.0 0.0 -8.658153323893e+01 
-1.643661300591e+02 -4.748745273879e-02 0.0 
-4.748745273879e-02 -3.848543034712e+02 0.0 
0.0 0.0 -1.643661300591e+02 
-1.634311750176e+02 -7.341074173798e-01 0.0 
-7.341074173798e-01 -3.823561586895e+02 0.0 
0.0 0.0 -1.633362001121e+02 
-9.571385329042e+00 -6.069077567677e-01 0.0 
-6.069077567677e-01 -2.288866626777e+01 0.0 
0.0 0.0 -9.338015479043e+00 
-4.137800913482e+00 -1.415876177590e-01 0.0 
-1.415876177590e-01 -8.193076956641e+00 0.0 
0.0 0.0 -4.199689708243e+00 
-1.503325382495e+02 -5.067700380797e-01 0.0 
-5.067700380797e-01 -3.523811666208e+02 0.0 
0.0 0.0 -1.504141114611e+02 
-1.490366806687e+02 -9.863053925292e-01 0.0 
-9.863053925292e-01 -3.490271864824e+02 0.0 
0.0 0.0 -1.490191601453e+02 
-3.118115239727e+01 5.900212841918e-01 0.0 
5.900212841918e-01 -7.360265911158e+01 0.0 
0.0 0.0 -3.103514345265e+01 
-1.521241092505e+02 5.247716339278e-01 0.0 
5.247716339278e-01 -3.564240580361e+02 0.0 
0.0 0.0 -1.521644501860e+02 
-1.074282694198e+02 2.090191931947e-01 0.0 
2.090191931947e-01 -2.517978823538e+02 0.0 
0.0 0.0 -1.073678455321e+02 
-9.229205379366e+01 7.811369969552e-01 0.0 
7.811369969552e-01 -2.172626345286e+02 0.0 
0.0 0.0 -9.246640649668e+01 
-1.155334088104e+02 -3.937380724378e-01 0.0 
-3.937380724378e-01 -2.713440388279e+02 0.0 
0.0 0.0 -1.156632342915e+02 
-2.936107437039e+01 -5.905107622168e-01 0.0 
-5.905107622168e-01 -6.948866072353e+01 0.0 
0.0 0.0 -2.925492052818e+01 
-1.238160451528e+02 8.137908438117e-01 0.0 
8.137908438117e-01 -2.902231244482e+02 0.0 
0.0 0.0 -1.238117508803e+02 
-2.477191426827e+01 -1.243635223549e-01 0.0 
-1.243635223549e-01 -5.898093007092e+01 0.0 
0.0 0.0 -2.472585330176e+01 
-8.436826403907e+01 7.583757371550e-01 0.0 
7.583757371550e-01 -1.976401735377e+02 0.0 
0.0 0.0 -8.420253127303e+01 
-1.519879817005e+02 -4.511517898318e-01 0.0 
-4.511517898318e-01 -3.556397674963e+02 0.0 
0.0 0.0 -1.518883247590e+02 
-1.465893144793e+02 8.545324519954e-01 0.0 
8.545324519954e-01 -3.433237157052e+02 0.0 
0.0 0.0 -1.465739090553e+02 
-9.252530773220e+01 -4.427932304638e-01 0.0 
-4.427932304638e-01 -2.163802385137e+02 0.0 
0.0 0.0 -9.227166387376e+01 
-1.069698331743e+02 7.370712754606e-01 0.0 
7.370712754606e-01 -2.510667510351e+02 0.0 
0.0 0.0 -1.070109752628e+02 
-1.504770872777e+02 -3.265975731248e-01 0.0 
-3.265975731248e-01 -3.528804434161e+02 0.0 
0.0 0.0 -1.506072592081e+02 
-1.402363977551e+02 8.690020073366e-01 0.0 
8.690020073366e-01 -3.285667768035e+02 0.0 
0.0 0.0 -1.402409523676e+02 
-1.320371836039e+02 8.371834490942e-01 0.0 
8.371834490942e-01 -3.095455395809e+02 0.0 
0.0 0.0 -1.320748169555e+02 
-8.698667053209e+01 -4.250717998022e-02 0.0 
-4.250717998022e-02 -2.042911101729e+02 0.0 
0.0 0.0 -8.698333421151e+01 
-1.194106443821e+02 8.487382754494e-01 0.0 
8.487382754494e-01 -2.800039382409e+02 0.0 
0.0 0.0 -1.194243747869e+02 
-1.506262369238e+02 -4.912154807576e-01 0.0 
-4.912154807576e-01 -3.529553713093e+02 0.0 
0.0 0.0 -1.506744824699e+02 
-4.801435491820e+01 -4.727053406654e-01 0.0 
-4.727053406654e-01 -1.136321292740e+02 0.0 
0.0 0.0 -4.809394525765e+01 
-1.017249696881e+01 1.999671687355e-01 0.0 
1.999671687355e-01 -2.494984906648e+01 0.0 
0.0 0.0 -1.013670381059e+01 
-1.454168659005e+02 5.825497214538e-01 0.0 
5.825497214538e-01 -3.409223753351e+02 0.0 
0.0 0.0 -1.455017723707e+02 
-1.374845293337e+02 -7.143550483795e-01 0.0 
-7.143550483795e-01 -3.222129018554e+02 0.0 
0.0 0.0 -1.375092293567e+02 
-2.439282731295e+01 4.431414825078e-01 0.0 
4.431414825078e-01 -5.767554592540e+01 0.0 
0.0 0.0 -2.422051197151e+01 
-1.216747499878e+02 6.408420324391e-01 0.0 
6.408420324391e-01 -2.853563826692e+02 0.0 
0.0 0.0 -1.217093397971e+02 
-1.566418232452e+02 1.680313926291e-01 0.0 
1.680313926291e-01 -3.671438693776e+02 0.0 
0.0 0.0 -1.567357077868e+02 
-1.445794557080e+02 -4.838980712639e-01 0.0 
-4.838980712639e-01 -3.388575640039e+02 0.0 
0.0 0.0 -1.446311059136e+02 
-1.502978261606e+02 1.176821624670e-01 0.0 
1.176821624670e-01 -3.524149444548e+02 0.0 
0.0 0.0 -1.504138311846e+02 
-1.161026335442e+02 8.463678836944e-01 0.0 
8.463678836944e-01 -2.721588154929e+02 0.0 
0.0 0.0 -1.160784347111e+02 
-1.033455587258e+01 -8.882151527432e-02 0.0 
-8.882151527432e-02 -2.451774312606e+01 0.0 
0.0 0.0 -1.033248074882e+01 
-3.627495649801e+01 -4.174835431102e-01 0.0 
-4.174835431102e-01 -8.598538491285e+01 0.0 
0.0 0.0 -3.627810242326e+01 
-4.446414834187e+01 8.631281378284e-01 0.0 
8.631281378284e-01 -1.051661007070e+02 0.0 
0.0 0.0 -4.448907471465e+01 
-1.019992206258e+02 -1.330491900379e-01 0.0 
-1.330491900379e-01 -2.384777335138e+02 0.0 
0.0 0.0 -1.017430862419e+02 
-1.192835041501e+02 -8.673608344520e-01 0.0 
-8.673608344520e-01 -2.796540099003e+02 0.0 
0.0 0.0 -1.192812542151e+02 
-1.518567707115e+02 6.563431997298e-01 0.0 
6.563431997298e-01 -3.558485771234e+02 0.0 
0.0 0.0 -1.519116043505e+02 
-1.567201189990e+02 -2.753194151978e-01 0.0 
-2.753194151978e-01 -3.670323687701e+02 0.0 
0.0 0.0 -1.567257463307e+02 
-1.728785628545e+01 1.338171046948e-01 0.0 
1.338171046948e-01 -4.157648371092e+01 0.0 
0.0 0.0 -1.725930199891e+01 
-1.663187467998e+01 -2.320414508836e-01 0.0 
-2.320414508836e-01 -4.010013635615e+01 0.0 
0.0 0.0 -1.661960331084e+01 
-2.882111766577e+01 -8.256133039057e-01 0.0 
-8.256133039057e-01 -6.819117740171e+01 0.0 
0.0 0.0 -2.870368852025e+01 
-1.243546374002e+02 -1.123004938559e+00 0.0 
-1.123004938559e+00 -2.910816230198e+02 0.0 
0.0 0.0 -1.242308781260e+02 
-5.886730966741e+01 7.305302985896e-01 0.0 
7.305302985896e-01 -1.390313690516e+02 0.0 
0.0 0.0 -5.896960361571e+01 
-1.525678893524e+02 6.040222363594e-01 0.0 
6.040222363594e-01 -3.573519801544e+02 0.0 
0.0 0.0 -1.525759608521e+02 
-2.984671677762e+01 6.938731366032e-01 0.0 
6.938731366032e-01 -7.056994056455e+01 0.0 
0.0 0.0 -2.972499720265e+01 
-1.493782722947e+02 -3.896167041903e-01 0.0 
-3.896167041903e-01 -3.499987283119e+02 0.0 
0.0 0.0 -1.494131001820e+02 
-1.012469033435e+02 -7.188200353600e-01 0.0 
-7.188200353600e-01 -2.370236315453e+02 0.0 
0.0 0.0 -1.010811604666e+02 
-1.576686111181e+02 -5.774598422158e-03 0.0 
-5.774598422158e-03 -3.687207110903e+02 0.0 
0.0 0.0 -1.575167966625e+02 
-1.365304851447e+02 9.395864801431e-01 0.0 
9.395864801431e-01 -3.198740926088e+02 0.0 
0.0 0.0 -1.365213733260e+02 
-1.019449351184e+02 3.526879222324e-01 0.0 
3.526879222324e-01 -2.385017947763e+02 0.0 
0.0 0.0 -1.017340189684e+02 
-1.572753193566e+02 1.927728733761e-01 0.0 
1.927728733761e-01 -3.683553545249e+02 0.0 
0.0 0.0 -1.572892021645e+02 
-1.574934486741e+02 -3.129917505751e-01 0.0 
-3.129917505751e-01 -3.690830407065e+02 0.0 
0.0 0.0 -1.575729468142e+02 
-1.576010035627e+02 -2.498463699443e-01 0.0 
-2.498463699443e-01 -3.686954793674e+02 0.0 
0.0 0.0 -1.574889448790e+02 
-2.036395260720e+01 -8.108021326095e-01 0.0 
-8.108021326095e-01 -4.830201453942e+01 0.0 
0.0 0.0 -2.019979014399e+01 
-1.494105889909e+02 -7.006454981667e-01 0.0 
-7.006454981667e-01 -3.499550554339e+02 0.0 
0.0 0.0 -1.494096933274e+02 
-1.571026319778e+02 -1.171560175925e-01 0.0 
-1.171560175925e-01 -3.679343238241e+02 0.0 
0.0 0.0 -1.571110867406e+02 
-1.496366494985e+02 4.189575735329e-01 0.0 
4.189575735329e-01 -3.505831060444e+02 0.0 
0.0 0.0 -1.496659266629e+02 
-1.401182916758e+02 -9.023799916810e-01 0.0 
-9.023799916810e-01 -3.279651387361e+02 0.0 
0.0 0.0 -1.400250291236e+02 
-1.641905722593e+02 -1.002836876377e-01 0.0 
-1.002836876377e-01 -3.844446686049e+02 0.0 
0.0 0.0 -1.641905722593e+02 
-1.318835267349e+02 -8.406196688233e-01 0.0 
-8.406196688233e-01 -3.091518231773e+02 0.0 
0.0 0.0 -1.319106049737e+02 
-4.703496339111e+00 -8.358510572429e-03 0.0 
-8.358510572429e-03 -9.537538193139e+00 0.0 
0.0 0.0 -4.824053260200e+00 
-2.668777970165e+01 8.021967714865e-01 0.0 
8.021967714865e-01 -6.391197746213e+01 0.0 
0.0 0.0 -2.677992714913e+01 
-1.447143355149e+02 7.138199050921e-01 0.0 
7.138199050921e-01 -3.394145601080e+02 0.0 
0.0 0.0 -1.448386686869e+02 
-1.081346883370e+02 -6.358662567382e-01 0.0 
-6.358662567382e-01 -2.531156604842e+02 0.0 
0.0 0.0 -1.079751046464e+02 
-1.502660287188e+02 7.835673200665e-01 0.0 
7.835673200665e-01 -3.516278627069e+02 0.0 
0.0 0.0 -1.501681674277e+02 
-1.447162835859e+02 8.860881796799e-01 0.0 
8.860881796799e-01 -3.388344147143e+02 0.0 
0.0 0.0 -1.446652094901e+02 
-1.580585830277e+02 1.944289711369e-01 0.0 
1.944289711369e-01 -3.698453360310e+02 0.0 
0.0 0.0 -1.579711757176e+02 
-1.332637535492e+02 -9.457010358541e-01 0.0 
-9.457010358541e-01 -3.116188325341e+02 0.0 
0.0 0.0 -1.330647758250e+02 
-1.575054596561e+02 5.345778640952e-02 0.0 
5.345778640952e-02 -3.690200275818e+02 0.0 
0.0 0.0 -1.575576461714e+02 
-1.515517748671e+02 6.575756679982e-01 0.0 
6.575756679982e-01 -3.551397147140e+02 0.0 
0.0 0.0 -1.516074468743e+02 
-1.515405190048e+02 -6.757144626211e-01 0.0 
-6.757144626211e-01 -3.549618125522e+02 0.0 
0.0 0.0 -1.515506994671e+02 
-6.115323690470e+01 4.690787982078e-01 0.0 
4.690787982078e-01 -1.442774393473e+02 0.0 
0.0 0.0 -6.122920287561e+01 
-1.648434420324e+02 7.905492920566e-02 0.0 
7.905492920566e-02 -3.851050271836e+02 0.0 
0.0 0.0 -1.645845407648e+02 
-9.410856468500e+01 -5.890859044835e-02 0.0 
-5.890859044835e-02 -2.204510558917e+02 0.0 
0.0 0.0 -9.396788617301e+01 
-1.499418116007e+02 7.398182959318e-01 0.0 
7.398182959318e-01 -3.508235900323e+02 0.0 
0.0 0.0 -1.498296204899e+02 
-1.741695120235e+01 2.899323626231e-01 0.0 
2.899323626231e-01 -4.123368161562e+01 0.0 
0.0 0.0 -1.719518984539e+01 
-1.438223771287e+02 4.980686212668e-01 0.0 
4.980686212668e-01 -3.362952550998e+02 0.0 
0.0 0.0 -1.436352896685e+02 
-1.225540224518e+02 1.167610855597e-01 0.0 
1.167610855597e-01 -2.870857887653e+02 0.0 
0.0 0.0 -1.224919433651e+02 
-1.740673891297e+01 3.438332447715e-01 0.0 
3.438332447715e-01 -4.173376826938e+01 0.0 
0.0 0.0 -1.734215215470e+01 
-3.052176404367e+01 8.966100035756e-01 0.0 
8.966100035756e-01 -7.320266714293e+01 0.0 
0.0 0.0 -3.071732935598e+01 
-1.355260583102e+02 -8.735563199509e-01 0.0 
-8.735563199509e-01 -3.176700929287e+02 0.0 
0.0 0.0 -1.355588453717e+02 
-1.570493039315e+02 7.714597188620e-02 0.0 
7.714597188620e-02 -3.679829860181e+02 0.0 
0.0 0.0 -1.571096869849e+02 
-1.508124617152e+02 6.711598668761e-01 0.0 
6.711598668761e-01 -3.534621719326e+02 0.0 
0.0 0.0 -1.508823900943e+02 
-1.560744712688e+02 -9.396847136068e-01 0.0 
-9.396847136068e-01 -3.652339897947e+02 0.0 
0.0 0.0 -1.559925383191e+02 
-1.068780682668e+02 -9.881343978264e-01 0.0 
-9.881343978264e-01 -2.506980562077e+02 0.0 
0.0 0.0 -1.068728373424e+02 
-1.026759470706e+01 -1.765032611832e-03 0.0 
-1.765032611832e-03 -2.451917777507e+01 0.0 
0.0 0.0 -1.003603174464e+01 
-1.628651642094e+01 -7.805289900015e-01 0.0 
-7.805289900015e-01 -3.845275445801e+01 0.0 
0.0 0.0 -1.602178126368e+01 
-1.134921482524e+01 -8.298171093224e-01 0.0 
-8.298171093224e-01 -2.792105422773e+01 0.0 
0.0 0.0 -1.137249557302e+01 
-2.293630836360e+01 6.823467111727e-01 0.0 
6.823467111727e-01 -5.434607825545e+01 0.0 
0.0 0.0 -2.278471598571e+01 
-4.211387370517e+00 -4.476723326967e-01 0.0 
-4.476723326967e-01 -9.451812163667e+00 0.0 
0.0 0.0 -3.894581659576e+00 
-8.223842630306e+01 -5.212492608779e-01 0.0 
-5.212492608779e-01 -1.927126130760e+02 0.0 
0.0 0.0 -8.208531181373e+01 
-1.502989766191e+02 -7.760030130587e-01 0.0 
-7.760030130587e-01 -3.515946128793e+02 0.0 
0.0 0.0 -1.501680768495e+02 
-1.504014252588e+02 -7.031618532037e-01 0.0 
-7.031618532037e-01 -3.522637171403e+02 0.0 
0.0 0.0 -1.503995427197e+02 
-1.076360157508e+02 7.277501653674e-01 0.0 
7.277501653674e-01 -2.520626293674e+02 0.0 
0.0 0.0 -1.075095935355e+02 
-7.170510288145e+01 1.096912340073e+00 0.0 
1.096912340073e+00 -1.687784352307e+02 0.0 
0.0 0.0 -7.174506143364e+01 
-1.504302202384e+02 6.443050276672e-01 0.0 
6.443050276672e-01 -3.523707723453e+02 0.0 
0.0 0.0 -1.504402977751e+02 
-1.490533846722e+02 -9.152492725408e-01 0.0 
-9.152492725408e-01 -3.489929365886e+02 0.0 
0.0 0.0 -1.490138963782e+02 
-1.575589631061e+02 -3.515752946937e-01 0.0 
-3.515752946937e-01 -3.691544803412e+02 0.0 
0.0 0.0 -1.576140330342e+02 
-1.510816005965e+02 1.487012714581e-01 0.0 
1.487012714581e-01 -3.539989362368e+02 0.0 
0.0 0.0 -1.511241610500e+02 
-1.435427645404e+02 -7.969629956165e-01 0.0 
-7.969629956165e-01 -3.363398205200e+02 0.0 
0.0 0.0 -1.435647755181e+02 
-1.685254646529e+01 -3.888311981338e-01 0.0 
-3.888311981338e-01 -4.051099495052e+01 0.0 
0.0 0.0 -1.680906242474e+01 
-1.549973606756e+01 6.875988863472e-01 0.0 
6.875988863472e-01 -3.650915318226e+01 0.0 
0.0 0.0 -1.520266677494e+01 
-1.506234732681e+02 6.340978738023e-01 0.0 
6.340978738023e-01 -3.530319080925e+02 0.0 
0.0 0.0 -1.506966144082e+02 
-1.703399991567e+01 -1.569073831004e-01 0.0 
-1.569073831004e-01 -4.117236470977e+01 0.0 
0.0 0.0 -1.706190938763e+01 
-2.025130889517e+01 -1.101851717889e+00 0.0 
-1.101851717889e+00 -4.887217322948e+01 0.0 
0.0 0.0 -2.033704463739e+01 
-1.445136111970e+01 -7.410483377604e-01 0.0 
-7.410483377604e-01 -3.434056602955e+01 0.0 
0.0 0.0 -1.423757814478e+01 
-1.613621719144e+01 7.066699333240e-01 0.0 
7.066699333240e-01 -3.873356494004e+01 0.0 
0.0 0.0 -1.606093463944e+01 
-1.573128147752e+02 3.943067733862e-02 0.0 
3.943067733862e-02 -3.687135797591e+02 0.0 
0.0 0.0 -1.574079183603e+02 
-1.576237448157e+02 3.045207528030e-01 0.0 
3.045207528030e-01 -3.692841867097e+02 0.0 
0.0 0.0 -1.576723794576e+02 
-1.517203396257e+02 -7.576963189971e-01 0.0 
-7.576963189971e-01 -3.559066489361e+02 0.0 
0.0 0.0 -1.518880965686e+02 
-1.578658027903e+02 -3.767842805691e-04 0.0 
-3.767842805691e-04 -3.700546481110e+02 0.0 
0.0 0.0 -1.579761352704e+02 
-1.444419905776e+02 6.091099817353e-01 0.0 
6.091099817353e-01 -3.387569902358e+02 0.0 
0.0 0.0 -1.445596942440e+02 
-1.118451677656e+02 -1.062593304594e+00 0.0 
-1.062593304594e+00 -2.618804954399e+02 0.0 
0.0 0.0 -1.117176989617e+02 
-1.645717965282e+02 4.824638434047e-02 0.0 
4.824638434047e-02 -3.853341918991e+02 0.0 
0.0 0.0 -1.645717965282e+02 
-3.867267826652e+01 4.669870221824e-01 0.0 
4.669870221824e-01 -9.112720317234e+01 0.0 
0.0 0.0 -3.853996443166e+01 
-8.688042104561e+01 -1.244100701154e-02 0.0 
-1.244100701154e-02 -2.033890766312e+02 0.0 
0.0 0.0 -8.668084930303e+01 
-2.347861687596e+01 -2.359332037346e-01 0.0 
-2.359332037346e-01 -5.588254866274e+01 0.0 
0.0 0.0 -2.340834966161e+01 
-1.053200862793e+01 -1.742635027233e-01 0.0 
-1.742635027233e-01 -2.443132337702e+01 0.0 
0.0 0.0 -1.063585948196e+01 
-1.645935475812e+02 -1.609359046834e-01 0.0 
-1.609359046834e-01 -3.846482761471e+02 0.0 
0.0 0.0 -1.643725471185e+02 
-9.503594581817e+01 2.366418190285e-01 0.0 
2.366418190285e-01 -2.228329282697e+02 0.0 
0.0 0.0 -9.496066222635e+01 
-2.397901164471e+01 -1.199776988688e-01 0.0 
-1.199776988688e-01 -5.678762131777e+01 0.0 
0.0 0.0 -2.382998988874e+01 
-7.863016957180e+01 -9.368936566304e-01 0.0 
-9.368936566304e-01 -1.853227117977e+02 0.0 
0.0 0.0 -7.878586441085e+01 
-1.581427586550e+02 -7.122698709004e-02 0.0 
-7.122698709004e-02 -3.701608250139e+02 0.0 
0.0 0.0 -1.580910751007e+02 
-1.511094742846e+02 6.597450605153e-01 0.0 
6.597450605153e-01 -3.541824102800e+02 0.0 
0.0 0.0 -1.511875653694e+02 
-1.575386416520e+02 2.738784279763e-02 0.0 
2.738784279763e-02 -3.691787601115e+02 0.0 
0.0 0.0 -1.576152205291e+02 
-5.592716921106e+01 5.803296116841e-01 0.0 
5.803296116841e-01 -1.317783055796e+02 0.0 
0.0 0.0 -5.591164243720e+01 
-1.583675175276e+01 6.178994279694e-01 0.0 
6.178994279694e-01 -3.768277364587e+01 0.0 
0.0 0.0 -1.565585761959e+01 
-1.574810248846e+02 4.656998037699e-01 0.0 
4.656998037699e-01 -3.691294760187e+02 0.0 
0.0 0.0 -1.575831502710e+02 
-1.646954566665e+02 -9.279788470739e-02 0.0 
-9.279788470739e-02 -3.849142852849e+02 0.0 
0.0 0.0 -1.644829225854e+02 
-1.641933636739e+02 7.076449301170e-02 0.0 
7.076449301170e-02 -3.846691071665e+02 0.0 
0.0 0.0 -1.642587412521e+02 
-9.286056020907e+01 -5.268385150744e-01 0.0 
-5.268385150744e-01 -2.179791177994e+02 0.0 
0.0 0.0 -9.285190340254e+01 
-1.504299996191e+02 1.655315463335e-02 0.0 
1.655315463335e-02 -3.524422480219e+02 0.0 
0.0 0.0 -1.504616742923e+02 
-2.476814081460e+01 3.761483738694e-01 0.0 
3.761483738694e-01 -5.818059066019e+01 0.0 
0.0 0.0 -2.448461944244e+01 
-1.524349430630e+02 -6.666639358888e-01 0.0 
-6.666639358888e-01 -3.574418640880e+02 0.0 
0.0 0.0 -1.525630421453e+02 
-1.015891397563e+01 3.315371702837e-02 0.0 
3.315371702837e-02 -2.349051200097e+01 0.0 
0.0 0.0 -1.020258554052e+01 
-1.575734986532e+02 4.091707031192e-02 0.0 
4.091707031192e-02 -3.694215813065e+02 0.0 
0.0 0.0 -1.576985239879e+02 
-1.569319894416e+02 -4.474891463226e-01 0.0 
-4.474891463226e-01 -3.678421439561e+02 0.0 
0.0 0.0 -1.570322400193e+02 
-1.030848487735e+01 2.463831694245e-01 0.0 
2.463831694245e-01 -2.399043437662e+01 0.0 
0.0 0.0 -1.039894731082e+01 
-1.447106255918e+02 5.628696654308e-01 0.0 
5.628696654308e-01 -3.394607479004e+02 0.0 
0.0 0.0 -1.448514120477e+02 
-1.290128108690e+02 7.451329052669e-01 0.0 
7.451329052669e-01 -3.016817002651e+02 0.0 
0.0 0.0 -1.288083533402e+02 
-1.577263524856e+02 1.218798339418e-01 0.0 
1.218798339418e-01 -3.693565069825e+02 0.0 
0.0 0.0 -1.577248578404e+02 
-1.648204314652e+02 4.109320234514e-02 0.0 
4.109320234514e-02 -3.859143400854e+02 0.0 
0.0 0.0 -1.648204314652e+02 
-1.173651438820e+02 1.201712233198e+00 0.0 
1.201712233198e+00 -2.751837825519e+02 0.0 
0.0 0.0 -1.173646779302e+02 
-1.580856864034e+02 -5.349684838534e-02 0.0 
-5.349684838534e-02 -3.702116986769e+02 0.0 
0.0 0.0 -1.580892155241e+02 
-1.520041956495e+02 6.146094578026e-01 0.0 
6.146094578026e-01 -3.562649709801e+02 0.0 
0.0 0.0 -1.520807499889e+02 
-1.223648874527e+02 -3.587382438395e-02 0.0 
-3.587382438395e-02 -2.867996639938e+02 0.0 
0.0 0.0 -1.223493654340e+02 
-1.527174200082e+02 5.790563832838e-02 0.0 
5.790563832838e-02 -3.574612954381e+02 0.0 
0.0 0.0 -1.526536146339e+02 
-6.748567313147e+01 5.190356304631e-01 0.0 
5.190356304631e-01 -1.581847703350e+02 0.0 
0.0 0.0 -6.730113303995e+01 
-8.650756307227e+01 9.467375061750e-02 0.0 
9.467375061750e-02 -2.035482083387e+02 0.0 
0.0 0.0 -8.661673142330e+01 
-1.522025540856e+02 -5.791829086833e-01 0.0 
-5.791829086833e-01 -3.567758181748e+02 0.0 
0.0 0.0 -1.522935116781e+02 
-1.584302346291e+02 -4.654000804638e-01 0.0 
-4.654000804638e-01 -3.707758825005e+02 0.0 
0.0 0.0 -1.583618351389e+02 
-4.419296684631e+00 1.581394724625e-01 0.0 
1.581394724625e-01 -8.611035872793e+00 0.0 
0.0 0.0 -4.434348590394e+00 
-8.663160220061e+01 -2.192689419008e-01 0.0 
-2.192689419008e-01 -2.037656813515e+02 0.0 
0.0 0.0 -8.671918506564e+01 
-1.586223719980e+02 4.863265941142e-01 0.0 
4.863265941142e-01 -3.713024796716e+02 0.0 
0.0 0.0 -1.585774555009e+02 
-3.069952970263e+01 -5.370394602724e-01 0.0 
-5.370394602724e-01 -7.270072738153e+01 0.0 
0.0 0.0 -3.062007712525e+01 
-1.499045086253e+02 -1.320395699153e-01 0.0 
-1.320395699153e-01 -3.519430294652e+02 0.0 
0.0 0.0 -1.501542614271e+02 
-1.512580989451e+02 5.527081355331e-01 0.0 
5.527081355331e-01 -3.539155928555e+02 0.0 
0.0 0.0 -1.511521075402e+02 
-1.570548481665e+02 6.202453056886e-01 0.0 
6.202453056886e-01 -3.680013384053e+02 0.0 
0.0 0.0 -1.571168559715e+02 
-2.957939578348e+01 -5.500037800818e-01 0.0 
-5.500037800818e-01 -6.990854948136e+01 0.0 
0.0 0.0 -2.944638357945e+01 
-2.141742163686e+01 -1.922722907444e-01 0.0 
-1.922722907444e-01 -5.089573155727e+01 0.0 
0.0 0.0 -2.129394595824e+01 
-9.582678418837e+01 -1.356619935444e+00 0.0 
-1.356619935444e+00 -2.258509900431e+02 0.0 
0.0 0.0 -9.610333226944e+01 
-1.374579227908e+02 -3.227994196690e-01 0.0 
-3.227994196690e-01 -3.225746690881e+02 0.0 
0.0 0.0 -1.376097775636e+02 
-2.314563389990e+00 -6.283089221149e-02 0.0 
-6.283089221149e-02 -6.099170314904e+00 0.0 
0.0 0.0 -2.124120111468e+00 
-1.580354315685e+02 1.184265210682e-01 0.0 
1.184265210682e-01 -3.702264085975e+02 0.0 
0.0 0.0 -1.580785520498e+02 
-1.148594659716e+02 -1.545588021954e-01 0.0 
-1.545588021954e-01 -2.693286934601e+02 0.0 
0.0 0.0 -1.148564478295e+02 
-2.944043298946e+01 6.719970872710e-01 0.0 
6.719970872710e-01 -6.931092538932e+01 0.0 
0.0 0.0 -2.922540751363e+01 
-1.087979396110e+02 -2.645032645360e-01 0.0 
-2.645032645360e-01 -2.556046312725e+02 0.0 
0.0 0.0 -1.089207712651e+02 
-1.573323947926e+02 4.874800670262e-01 0.0 
4.874800670262e-01 -3.687035384557e+02 0.0 
0.0 0.0 -1.574107799745e+02 
-1.007078066977e+02 1.165450243334e+00 0.0 
1.165450243334e+00 -2.365500316830e+02 0.0 
0.0 0.0 -1.007773515142e+02 
-7.300631900341e+00 7.756430290611e-01 0.0 
7.756430290611e-01 -1.782649525801e+01 0.0 
0.0 0.0 -7.112135472130e+00 
-6.075291274925e+01 -5.626411948123e-01 0.0 
-5.626411948123e-01 -1.436703905013e+02 0.0 
0.0 0.0 -6.092699097517e+01 
-8.843155460650e+01 -4.281586133886e-01 0.0 
-4.281586133886e-01 -2.075188764873e+02 0.0 
0.0 0.0 -8.838512932814e+01 
-1.049906686176e+02 -1.406320586232e+00 0.0 
-1.406320586232e+00 -2.457163973749e+02 0.0 
0.0 0.0 -1.048121197978e+02 
-1.517393957643e+02 5.767692447997e-01 0.0 
5.767692447997e-01 -3.556087564523e+02 0.0 
0.0 0.0 -1.518044456650e+02 
-8.585725770374e+01 6.925257814136e-01 0.0 
6.925257814136e-01 -2.021997429183e+02 0.0 
0.0 0.0 -8.601710018660e+01 
-9.166577874837e+01 -3.495007728415e-01 0.0 
-3.495007728415e-01 -2.147404754827e+02 0.0 
0.0 0.0 -9.152187626932e+01 
-1.516487725641e+01 -4.326369733527e-01 0.0 
-4.326369733527e-01 -3.685871841518e+01 0.0 
0.0 0.0 -1.520707870148e+01 
-1.520692510761e+02 -5.635780854971e-01 0.0 
-5.635780854971e-01 -3.567448683843e+02 0.0 
0.0 0.0 -1.522442358381e+02 
-1.453426663117e+02 -6.495801158096e-01 0.0 
-6.495801158096e-01 -3.410769429741e+02 0.0 
0.0 0.0 -1.455258827857e+02 
-2.638546937197e+01 -3.427896858554e-01 0.0 
-3.427896858554e-01 -6.221075519267e+01 0.0 
0.0 0.0 -2.617886736939e+01 
-1.584472736549e+02 3.337242307051e-01 0.0 
3.337242307051e-01 -3.702652168357e+02 0.0 
0.0 0.0 -1.582137471472e+02 
-1.582540986871e+02 -6.046228149009e-01 0.0 
-6.046228149009e-01 -3.706838425684e+02 0.0 
0.0 0.0 -1.582813823767e+02 
-9.323375055917e+01 6.140719079315e-01 0.0 
6.140719079315e-01 -2.189916426086e+02 0.0 
0.0 0.0 -9.326761795034e+01 
-1.147840823833e+02 -1.243422975824e-01 0.0 
-1.243422975824e-01 -2.692700284367e+02 0.0 
0.0 0.0 -1.148162332460e+02 
-8.611101514629e+01 -6.574250899243e-01 0.0 
-6.574250899243e-01 -2.020924487276e+02 0.0 
0.0 0.0 -8.606103916218e+01 
-8.903380857395e+01 4.417082516223e-01 0.0 
4.417082516223e-01 -2.083686264803e+02 0.0 
0.0 0.0 -8.882073051627e+01 
-9.130402749448e+01 1.391818830127e-01 0.0 
1.391818830127e-01 -2.151257719324e+02 0.0 
0.0 0.0 -9.152893982806e+01 
-1.447336162791e+02 -6.163148452651e-01 0.0 
-6.163148452651e-01 -3.394357856030e+02 0.0 
0.0 0.0 -1.448508205646e+02 
-2.385006161183e+01 -5.020893531949e-01 0.0 
-5.020893531949e-01 -5.655883487305e+01 0.0 
0.0 0.0 -2.372266894546e+01 
-1.504955921612e+02 5.585858233987e-01 0.0 
5.585858233987e-01 -3.528215823530e+02 0.0 
0.0 0.0 -1.505951523543e+02 
-1.004975748731e+02 -2.925623743454e-01 0.0 
-2.925623743454e-01 -2.358612076616e+02 0.0 
0.0 0.0 -1.005076347604e+02 
-1.574467058327e+02 5.851003739709e-01 0.0 
5.851003739709e-01 -3.688428017666e+02 0.0 
0.0 0.0 -1.574868522798e+02 
-1.445355950498e+02 5.277921112605e-01 0.0 
5.277921112605e-01 -3.391477752846e+02 0.0 
0.0 0.0 -1.447050111003e+02 
-1.093311173405e+02 2.374441815843e-01 0.0 
2.374441815843e-01 -2.561580643261e+02 0.0 
0.0 0.0 -1.092467545000e+02 
-1.471022306874e+02 -4.785386439038e-01 0.0 
-4.785386439038e-01 -3.448431720801e+02 0.0 
0.0 0.0 -1.471836208303e+02 
-1.513736064765e+02 -5.064157364438e-01 0.0 
-5.064157364438e-01 -3.549047997572e+02 0.0 
0.0 0.0 -1.514835218701e+02 
-1.572750047658e+02 9.102708421577e-02 0.0 
9.102708421577e-02 -3.689106778666e+02 0.0 
0.0 0.0 -1.574557047897e+02 
-9.488184051231e+00 -6.634755972607e-02 0.0 
-6.634755972607e-02 -2.215712898613e+01 0.0 
0.0 0.0 -9.307626772270e+00 
-1.471257943809e+02 5.478639175091e-01 0.0 
5.478639175091e-01 -3.450160826408e+02 0.0 
0.0 0.0 -1.472425631065e+02 
-1.514689225274e+02 -7.388909055084e-01 0.0 
-7.388909055084e-01 -3.549314281409e+02 0.0 
0.0 0.0 -1.515201052005e+02 
-1.600039466066e+01 6.448995265318e-01 0.0 
6.448995265318e-01 -3.803310722822e+01 0.0 
0.0 0.0 -1.581005056666e+01 
-8.189999986417e+01 4.695308240570e-01 0.0 
4.695308240570e-01 -1.922677433996e+02 0.0 
0.0 0.0 -8.185032297913e+01 
-9.442811867861e+00 5.152528622633e-01 0.0 
5.152528622633e-01 -2.300318507567e+01 0.0 
0.0 0.0 -9.333799083059e+00 
-1.521498963252e+02 4.167696774674e-01 0.0 
4.167696774674e-01 -3.565788964411e+02 0.0 
0.0 0.0 -1.522186378299e+02 
-5.728681844801e+00 1.265499873478e-01 0.0 
1.265499873478e-01 -1.158530738186e+01 0.0 
0.0 0.0 -5.609249484109e+00 
-3.292530753179e+00 -1.213898918137e-01 0.0 
-1.213898918137e-01 -9.439002200807e+00 0.0 
0.0 0.0 -3.419459886196e+00 
-5.298547913563e+00 -5.936066151155e-02 0.0 
-5.936066151155e-02 -1.027773593929e+01 0.0 
0.0 0.0 -5.339551822523e+00 
-3.120256801101e+00 6.316747569069e-02 0.0 
6.316747569069e-02 -9.236418509212e+00 0.0 
0.0 0.0 -3.307002593094e+00 
-5.319697124488e+00 -1.401434922586e-02 0.0 
-1.401434922586e-02 -1.027374548697e+01 0.0 
0.0 0.0 -5.344699450105e+00 
-3.169720043665e+00 4.836870292237e-02 0.0 
4.836870292237e-02 -9.238790103141e+00 0.0 
0.0 0.0 -3.322553044042e+00 
-5.337185765087e+00 4.408536270936e-03 0.0 
4.408536270936e-03 -1.026954313982e+01 0.0 
0.0 0.0 -5.348685338140e+00 
-3.221899122687e+00 3.263801159876e-02 0.0 
3.263801159876e-02 -9.249799072160e+00 0.0 
0.0 0.0 -3.341509458454e+00 
-5.343229217597e+00 8.891770159821e-03 0.0 
8.891770159821e-03 -1.026414511542e+01 0.0 
0.0 0.0 -5.348878966571e+00 
-3.262811348077e+00 2.271059315881e-02 0.0 
2.271059315881e-02 -9.258097887448e+00 0.0 
0.0 0.0 -3.356272770658e+00 
-5.345331393070e+00 8.516732149662e-03 0.0 
8.516732149662e-03 -1.025975534864e+01 0.0 
0.0 0.0 -5.348192689180e+00 
-3.293560037569e+00 1.671705910583e-02 0.0 
1.671705910583e-02 -9.263604286064e+00 0.0 
0.0 0.0 -3.367149297090e+00 
-5.346487132754e+00 6.857433550132e-03 0.0 
6.857433550132e-03 -1.025666009837e+01 0.0 
0.0 0.0 -5.347610836003e+00 
-3.316804280264e+00 1.309029368101e-02 0.0 
1.309029368101e-02 -9.267025425784e+00 0.0 
0.0 0.0 -3.375148911814e+00 
-5.347577255328e+00 5.113440117622e-03 0.0 
5.113440117622e-03 -1.025457149015e+01 0.0 
0.0 0.0 -5.347311290310e+00 
-3.334778346228e+00 1.072389502408e-02 0.0 
1.072389502408e-02 -9.268989183033e+00 0.0 
0.0 0.0 -3.381130258778e+00 
-5.348746860189e+00 3.585370683572e-03 0.0 
3.585370683572e-03 -1.025314090459e+01 0.0 
0.0 0.0 -5.347232996101e+00 
-3.348881295036e+00 8.813404570220e-03 0.0 
8.813404570220e-03 -9.269969002035e+00 0.0 
0.0 0.0 -3.385655089121e+00 
-5.349904845366e+00 2.278197938260e-03 0.0 
2.278197938260e-03 -1.025210566533e+01 0.0 
0.0 0.0 -5.347269819876e+00 
-3.359700763552e+00 6.784406532600e-03 0.0 
6.784406532600e-03 -9.270343917199e+00 0.0 
0.0 0.0 -3.389013404225e+00 
-5.350868557245e+00 1.132644434396e-03 0.0 
1.132644434396e-03 -1.025130428079e+01 0.0 
0.0 0.0 -5.347318518077e+00 
-3.367203106916e+00 4.309006283730e-03 0.0 
4.309006283730e-03 -9.270493222457e+00 0.0 
0.0 0.0 -3.391308898812e+00 
-5.351398923387e+00 1.031562681179e-04 0.0 
1.031562681179e-04 -1.025065189814e+01 0.0 
0.0 0.0 -5.347281913123e+00 
-3.956437274844e+00 2.916065991826e-01 0.0 
2.916065991826e-01 -1.098487226804e+01 0.0 
0.0 0.0 -4.082392862866e+00 
-3.371025389098e+00 1.353705416813e-03 0.0 
1.353705416813e-03 -9.270672778479e+00 0.0 
0.0 0.0 -3.392509450273e+00 
-5.351290593295e+00 -8.367361126345e-04 0.0 
-8.367361126345e-04 -1.025012045605e+01 0.0 
0.0 0.0 -5.347089981470e+00 
-3.370796883321e+00 -1.891151472106e-03 0.0 
-1.891151472106e-03 -9.271046947926e+00 0.0 
0.0 0.0 -3.392553149374e+00 
-1.915377385221e+00 -4.672057018023e-01 0.0 
-4.672057018023e-01 -3.804196504648e+00 0.0 
0.0 0.0 -1.315872166961e+00 
-5.350446397074e+00 -1.665628451546e-03 0.0 
-1.665628451546e-03 -1.024972815975e+01 0.0 
0.0 0.0 -5.346719033715e+00 
-3.366400687347e+00 -5.121858667749e-03 0.0 
-5.121858667749e-03 -9.271469877697e+00 0.0 
0.0 0.0 -3.391361169513e+00 
-5.545672734471e+00 -7.389839195727e-02 0.0 
-7.389839195727e-02 -1.075005593379e+01 0.0 
0.0 0.0 -5.555385267144e+00 
-5.348893080480e+00 -2.382684048069e-03 0.0 
-2.382684048069e-03 -1.024950411771e+01 0.0 
0.0 0.0 -5.346185826123e+00 
-3.358055476345e+00 -7.998082792245e-03 0.0 
-7.998082792245e-03 -9.272389971975e+00 0.0 
0.0 0.0 -3.389133634496e+00 
-5.346595678833e+00 -2.904220665773e-03 0.0 
-2.904220665773e-03 -1.024945513764e+01 0.0 
0.0 0.0 -5.345481911607e+00 
-3.346450197700e+00 -1.009682976533e-02 0.0 
-1.009682976533e-02 -9.272879471291e+00 0.0 
0.0 0.0 -3.385798900698e+00 
-5.343787033413e+00 -3.357966081466e-03 0.0 
-3.357966081466e-03 -1.024958259472e+01 0.0 
0.0 0.0 -5.344677555106e+00 
-3.332581422120e+00 -1.105638314669e-02 0.0 
-1.105638314669e-02 -9.275004427038e+00 0.0 
0.0 0.0 -3.382275754748e+00 
-5.340174982045e+00 -3.490351128213e-03 0.0 
-3.490351128213e-03 -1.024980712867e+01 0.0 
0.0 0.0 -5.343661299882e+00 
-3.318051802680e+00 -1.060592564514e-02 0.0 
-1.060592564514e-02 -9.274049638101e+00 0.0 
0.0 0.0 -3.377630432234e+00 
-5.336839149591e+00 -3.861410904892e-03 0.0 
-3.861410904892e-03 -1.025020772956e+01 0.0 
0.0 0.0 -5.342780730410e+00 
-6.184923234042e+00 -1.697720521658e-01 0.0 
-1.697720521658e-01 -1.218715105405e+01 0.0 
0.0 0.0 -5.296742500242e+00 
-3.304371351795e+00 -7.986731490995e-03 0.0 
-7.986731490995e-03 -9.281106839762e+00 0.0 
0.0 0.0 -3.375643457467e+00 
-5.330946897284e+00 -3.402312743264e-03 0.0 
-3.402312743264e-03 -1.025016024644e+01 0.0 
0.0 0.0 -5.340998809784e+00 
-3.294221671690e+00 -4.345420149081e-03 0.0 
-4.345420149081e-03 -9.270952481170e+00 0.0 
0.0 0.0 -3.369552245858e+00 
-5.330062869893e+00 -4.427720815370e-03 0.0 
-4.427720815370e-03 -1.025095167176e+01 0.0 
0.0 0.0 -5.340971029164e+00 
-3.287434543968e+00 8.866920116890e-04 0.0 
8.866920116890e-04 -9.290635246193e+00 0.0 
0.0 0.0 -3.373420937048e+00 
-3.284220045932e+00 -4.057999401776e-03 0.0 
-4.057999401776e-03 -9.235814327853e+00 0.0 
0.0 0.0 -3.356010312135e+00 
-5.320154435077e+00 -2.193470392140e-03 0.0 
-2.193470392140e-03 -1.024994051750e+01 0.0 
0.0 0.0 -5.337695152440e+00 
-3.275189100928e+00 -4.544895595670e-03 0.0 
-4.544895595670e-03 -9.318531481930e+00 0.0 
0.0 0.0 -3.378116174857e+00 
-5.336449950693e+00 -4.783988364352e-03 0.0 
-4.783988364352e-03 -1.025427198212e+01 0.0 
0.0 0.0 -5.343883246510e+00 
-3.265714858132e+00 -3.222357966297e-02 0.0 
-3.222357966297e-02 -9.155922555502e+00 0.0 
0.0 0.0 -3.326491224090e+00 
-5.293860709680e+00 7.203681747900e-03 0.0 
7.203681747900e-03 -1.024713161495e+01 0.0 
0.0 0.0 -5.328964364056e+00 
-3.246699617759e+00 -1.126460596746e-02 0.0 
-1.126460596746e-02 -9.453591808986e+00 0.0 
0.0 0.0 -3.410087428023e+00 
-5.343858845036e+00 4.445156883682e-03 0.0 
4.445156883682e-03 -1.025783840544e+01 0.0 
0.0 0.0 -5.347175841808e+00 
-3.217529909306e+00 -1.099156973460e-01 0.0 
-1.099156973460e-01 -8.889042008924e+00 0.0 
0.0 0.0 -3.231971575469e+00 
-3.277432165789e+00 -3.125167816722e-02 0.0 
-3.125167816722e-02 -9.724994527652e+00 0.0 
0.0 0.0 -3.500728008032e+00 
-5.173423352611e+00 2.870786191401e-02 0.0 
2.870786191401e-02 -1.023121341356e+01 0.0 
0.0 0.0 -5.288057696518e+00 
-5.527122744439e+00 1.360835874099e-01 0.0 
1.360835874099e-01 -1.031793621161e+01 0.0 
0.0 0.0 -5.420184353481e+00 
-2.703349702190e+00 -8.076924004649e-03 0.0 
-8.076924004649e-03 -5.596536028655e+00 0.0 
0.0 0.0 -2.796938508369e+00 
-5.230332010015e+00 9.579616428465e-01 0.0 
9.579616428465e-01 -9.656095946503e+00 0.0 
0.0 0.0 -4.137303006187e+00 
-4.702783625330e+00 -1.234613275405e+00 0.0 
-1.234613275405e+00 -1.163301778589e+01 0.0 
0.0 0.0 -4.438962362405e+00 
-2.422094949171e+00 4.407443465862e-01 0.0 
4.407443465862e-01 -4.793686075169e+00 0.0 
0.0 0.0 -1.764734307302e+00 
-6.902311189650e+00 -6.666703392042e-02 0.0 
-6.666703392042e-02 -1.563739349676e+01 0.0 
0.0 0.0 -6.770054420650e+00 
-1.780891757255e+00 2.615869845896e-01 0.0 
2.615869845896e-01 -3.063378306466e+00 0.0 
0.0 0.0 -1.463291984991e+00 
-1.130614235101e+01 3.702046656046e-01 0.0 
3.702046656046e-01 -2.757466691019e+01 0.0 
0.0 0.0 -1.126424277836e+01 
-1.242768550196e+01 -1.273097024884e-01 0.0 
-1.273097024884e-01 -2.939446359681e+01 0.0 
0.0 0.0 -1.246777409325e+01 
-1.189117074729e+01 1.057952169263e-01 0.0 
1.057952169263e-01 -2.937292346384e+01 0.0 
0.0 0.0 -1.197922826334e+01 
-1.240173613072e+01 4.957328945476e-02 0.0 
4.957328945476e-02 -2.950376504741e+01 0.0 
0.0 0.0 -1.243019546677e+01 
-1.193349428722e+01 6.264436547810e-02 0.0 
6.264436547810e-02 -2.946246516228e+01 0.0 
0.0 0.0 -1.201878783485e+01 
-1.239796722058e+01 3.946363137711e-02 0.0 
3.946363137711e-02 -2.949341020783e+01 0.0 
0.0 0.0 -1.241509624874e+01 
-1.194797964641e+01 4.480495123505e-02 0.0 
4.480495123505e-02 -2.946689627639e+01 0.0 
0.0 0.0 -1.202446277684e+01 
-1.240021344187e+01 2.894829576838e-02 0.0 
2.894829576838e-02 -2.948716551979e+01 0.0 
0.0 0.0 -1.240986103774e+01 
-1.196280693130e+01 3.317870529139e-02 0.0 
3.317870529139e-02 -2.947162663070e+01 0.0 
0.0 0.0 -1.203033006860e+01 
-1.240355889569e+01 2.236557631507e-02 0.0 
2.236557631507e-02 -2.948520206724e+01 0.0 
0.0 0.0 -1.240828187675e+01 
-1.197710267259e+01 2.517664340304e-02 0.0 
2.517664340304e-02 -2.947670982323e+01 0.0 
0.0 0.0 -1.203614374875e+01 
-1.240651715339e+01 1.812912158562e-02 0.0 
1.812912158562e-02 -2.948482766326e+01 0.0 
0.0 0.0 -1.240805215778e+01 
-1.199007112780e+01 1.960431780942e-02 0.0 
1.960431780942e-02 -2.948081775987e+01 0.0 
0.0 0.0 -1.204126666630e+01 
-1.240886801221e+01 1.526411867260e-02 0.0 
1.526411867260e-02 -2.948482867681e+01 0.0 
0.0 0.0 -1.240829401390e+01 
-1.200151446102e+01 1.555487677592e-02 0.0 
1.555487677592e-02 -2.948359778840e+01 0.0 
0.0 0.0 -1.204553367482e+01 
-1.241070762549e+01 1.310498708200e-02 0.0 
1.310498708200e-02 -2.948477128050e+01 0.0 
0.0 0.0 -1.240867825872e+01 
-1.201136087368e+01 1.227899951846e-02 0.0 
1.227899951846e-02 -2.948509505159e+01 0.0 
0.0 0.0 -1.204893677758e+01 
-1.241214991035e+01 1.109553937414e-02 0.0 
1.109553937414e-02 -2.948458230461e+01 0.0 
0.0 0.0 -1.240908245743e+01 
-1.201941707243e+01 9.167904105483e-03 0.0 
9.167904105483e-03 -2.948547974146e+01 0.0 
0.0 0.0 -1.205146904417e+01 
-1.241325852576e+01 8.744142641161e-03 0.0 
8.744142641161e-03 -2.948437118953e+01 0.0 
0.0 0.0 -1.240945569880e+01 
-1.202528735567e+01 5.780687058259e-03 0.0 
5.780687058259e-03 -2.948499507979e+01 0.0 
0.0 0.0 -1.205308473064e+01 
-1.241404187498e+01 5.672785092428e-03 0.0 
5.672785092428e-03 -2.948435780991e+01 0.0 
0.0 0.0 -1.240975871913e+01 
-1.208968898763e+01 4.850096847719e-01 0.0 
4.850096847719e-01 -3.082032429560e+01 0.0 
0.0 0.0 -1.247300398497e+01 
-1.202844425629e+01 1.961685873693e-03 0.0 
1.961685873693e-03 -2.948407507055e+01 0.0 
0.0 0.0 -1.205375579805e+01 
-1.241440927123e+01 1.881306495618e-03 0.0 
1.881306495618e-03 -2.948462837096e+01 0.0 
0.0 0.0 -1.240993130329e+01 
-1.202847982028e+01 -2.135000926336e-03 0.0 
-2.135000926336e-03 -2.948324263736e+01 0.0 
0.0 0.0 -1.205351673729e+01 
-1.294386235536e+01 -1.533460377938e-01 0.0 
-1.533460377938e-01 -3.008384986560e+01 0.0 
0.0 0.0 -1.250831366629e+01 
-1.241432530834e+01 -2.343096954198e-03 0.0 
-2.343096954198e-03 -2.948525110637e+01 0.0 
0.0 0.0 -1.240994773722e+01 
-1.202523216356e+01 -6.182772410620e-03 0.0 
-6.182772410620e-03 -2.948281476334e+01 0.0 
0.0 0.0 -1.205241407807e+01 
-1.241366784848e+01 -6.462921810581e-03 0.0 
-6.462921810581e-03 -2.948597058367e+01 0.0 
0.0 0.0 -1.240976747306e+01 
-1.201892655029e+01 -9.877832948137e-03 0.0 
-9.877832948137e-03 -2.948283373366e+01 0.0 
0.0 0.0 -1.205052808518e+01 
-1.241272175635e+01 -1.042680130381e-02 0.0 
-1.042680130381e-02 -2.948727763081e+01 0.0 
0.0 0.0 -1.240947330207e+01 
-1.039242368836e+01 -1.967011458710e-01 0.0 
-1.967011458710e-01 -2.433044653379e+01 0.0 
0.0 0.0 -1.001686106665e+01 
-1.200988287565e+01 -1.276981866002e-02 0.0 
-1.276981866002e-02 -2.948356702175e+01 0.0 
0.0 0.0 -1.204803496922e+01 
-1.241097240435e+01 -1.313013305182e-02 0.0 
-1.313013305182e-02 -2.948798041546e+01 0.0 
0.0 0.0 -1.240890594356e+01 
-1.199909440126e+01 -1.472926083457e-02 0.0 
-1.472926083457e-02 -2.948454234989e+01 0.0 
0.0 0.0 -1.204509102535e+01 
-1.240975397678e+01 -1.571329595421e-02 0.0 
-1.571329595421e-02 -2.949040337737e+01 0.0 
0.0 0.0 -1.240847148432e+01 
-1.198696152748e+01 -1.502349742835e-02 0.0 
-1.502349742835e-02 -2.948693023079e+01 0.0 
0.0 0.0 -1.204216752748e+01 
-1.240668569162e+01 -1.467213368716e-02 0.0 
-1.467213368716e-02 -2.948930228991e+01 0.0 
0.0 0.0 -1.240749801575e+01 
-1.197541631571e+01 -1.490519682804e-02 0.0 
-1.490519682804e-02 -2.948685168534e+01 0.0 
0.0 0.0 -1.203868040032e+01 
-1.240730759411e+01 -1.752353408758e-02 0.0 
-1.752353408758e-02 -2.949601647537e+01 0.0 
0.0 0.0 -1.240756495984e+01 
-1.196354926926e+01 -1.062049771759e-02 0.0 
-1.062049771759e-02 -2.949540744135e+01 0.0 
0.0 0.0 -1.203768701318e+01 
-1.239944821085e+01 -5.950904966836e-03 0.0 
-5.950904966836e-03 -2.948509853713e+01 0.0 
0.0 0.0 -1.240528644746e+01 
-1.195729575771e+01 -9.330371930291e-03 0.0 
-9.330371930291e-03 -2.948567218505e+01 0.0 
0.0 0.0 -1.203289038283e+01 
-1.240638929488e+01 -1.630828700120e-02 0.0 
-1.630828700120e-02 -2.950454556482e+01 0.0 
0.0 0.0 -1.240756868560e+01 
-1.405526325467e+01 -2.065543748181e-01 0.0 
-2.065543748181e-01 -3.216124575841e+01 0.0 
0.0 0.0 -1.346495270392e+01 
-1.238031007315e+01 2.194796952783e-02 0.0 
2.194796952783e-02 -2.945570157739e+01 0.0 
0.0 0.0 -1.240116784312e+01 
-1.195019903623e+01 1.062683637689e-03 0.0 
1.062683637689e-03 -2.951155350272e+01 0.0 
0.0 0.0 -1.203852576169e+01 
-1.241197416616e+01 -5.635327581068e-02 0.0 
-5.635327581068e-02 -2.953819563711e+01 0.0 
0.0 0.0 -1.241191668679e+01 
-1.195482897054e+01 -1.555767928121e-02 0.0 
-1.555767928121e-02 -2.943476676914e+01 0.0 
0.0 0.0 -1.201687872190e+01 
-1.231911447947e+01 6.203585190116e-02 0.0 
6.203585190116e-02 -2.939065182454e+01 0.0 
0.0 0.0 -1.238748047284e+01 
-1.193642250090e+01 -1.434811407218e-03 0.0 
-1.434811407218e-03 -2.956175313314e+01 0.0 
0.0 0.0 -1.204945269021e+01 
-1.263229603878e+01 -2.088945923967e-01 0.0 
-2.088945923967e-01 -2.966761321946e+01 0.0 
0.0 0.0 -1.237809667710e+01 
-1.194291820713e+01 -5.752610506686e-02 0.0 
-5.752610506686e-02 -2.929476017055e+01 0.0 
0.0 0.0 -1.197130351330e+01 
-1.185209174950e+01 -4.036866524201e-02 0.0 
-4.036866524201e-02 -2.970947413825e+01 0.0 
0.0 0.0 -1.206846976632e+01 
-1.064012515980e+01 2.650435271938e-02 0.0 
2.650435271938e-02 -2.359329677059e+01 0.0 
0.0 0.0 -9.909234657024e+00 
-1.190267038594e+01 1.476549637347e+00 0.0 
1.476549637347e+00 -2.986352432060e+01 0.0 
0.0 0.0 -1.212985841196e+01 
-1.223736517061e+01 -1.408241334978e+00 0.0 
-1.408241334978e+00 -2.788591705991e+01 0.0 
0.0 0.0 -1.163698466915e+01 
-1.419576759701e+01 1.726160909314e-01 0.0 
1.726160909314e-01 -3.400859448013e+01 0.0 
0.0 0.0 -1.406130862314e+01 
-1.000558553563e+01 -1.402161912533e-01 0.0 
-1.402161912533e-01 -2.385667437163e+01 0.0 
0.0 0.0 -9.758677972178e+00 
-1.019996257720e+01 1.500154708783e-02 0.0 
1.500154708783e-02 -2.347362826270e+01 0.0 
0.0 0.0 -9.702077251970e+00 
-2.122359332943e+01 3.345733705562e-01 0.0 
3.345733705562e-01 -5.083180346412e+01 0.0 
0.0 0.0 -2.121661903807e+01 
-2.044433447904e+01 -1.862788841819e-01 0.0 
-1.862788841819e-01 -4.910196139556e+01 0.0 
0.0 0.0 -2.046388876238e+01 
-2.045621961625e+01 7.202110373753e-02 0.0 
7.202110373753e-02 -4.907863804362e+01 0.0 
0.0 0.0 -2.046045729796e+01 
-2.038025727030e+01 3.583204904200e-02 0.0 
3.583204904200e-02 -4.897768268078e+01 0.0 
0.0 0.0 -2.040738198532e+01 
-2.039844689584e+01 4.879696883087e-02 0.0 
4.879696883087e-02 -4.898328861414e+01 0.0 
0.0 0.0 -2.041452065299e+01 
-2.035729985867e+01 3.828982242369e-02 0.0 
3.828982242369e-02 -4.896708670845e+01 0.0 
0.0 0.0 -2.039731597014e+01 
-2.038456957047e+01 4.008866290737e-02 0.0 
4.008866290737e-02 -4.897824531640e+01 0.0 
0.0 0.0 -2.040884446606e+01 
-2.034955688731e+01 3.235510535052e-02 0.0 
3.235510535052e-02 -4.896843814141e+01 0.0 
0.0 0.0 -2.039539850862e+01 
-2.037682792225e+01 3.283931208779e-02 0.0 
3.283931208779e-02 -4.897978553065e+01 0.0 
0.0 0.0 -2.040698403587e+01 
-2.034941497905e+01 2.708171399982e-02 0.0 
2.708171399982e-02 -4.897249007970e+01 0.0 
0.0 0.0 -2.039657151762e+01 
-2.037257869986e+01 2.697643456519e-02 0.0 
2.697643456519e-02 -4.898219910145e+01 0.0 
0.0 0.0 -2.040643334039e+01 
-2.035296874190e+01 2.287940214600e-02 0.0 
2.287940214600e-02 -4.897653147971e+01 0.0 
0.0 0.0 -2.039885006648e+01 
-2.037106134731e+01 2.245516391983e-02 0.0 
2.245516391983e-02 -4.898418016219e+01 0.0 
0.0 0.0 -2.040657245285e+01 
-2.035814027213e+01 1.958063078118e-02 0.0 
1.958063078118e-02 -4.897951187047e+01 0.0 
0.0 0.0 -2.040129564278e+01 
-2.037146641882e+01 1.886091279301e-02 0.0 
1.886091279301e-02 -4.898528256016e+01 0.0 
0.0 0.0 -2.040702469369e+01 
-2.036379514416e+01 1.679600603780e-02 0.0 
1.679600603780e-02 -4.898115112737e+01 0.0 
0.0 0.0 -2.040348388146e+01 
-2.037295825331e+01 1.565278506851e-02 0.0 
1.565278506851e-02 -4.898542387057e+01 0.0 
0.0 0.0 -2.040751463716e+01 
-2.036924583284e+01 1.406064321573e-02 0.0 
1.406064321573e-02 -4.898147704283e+01 0.0 
0.0 0.0 -2.040521686270e+01 
-2.037493016559e+01 1.229546467740e-02 0.0 
1.229546467740e-02 -4.898472431206e+01 0.0 
0.0 0.0 -2.040789634329e+01 
-2.037401029490e+01 1.091108760765e-02 0.0 
1.091108760765e-02 -4.898071511430e+01 0.0 
0.0 0.0 -2.040641762276e+01 
-2.048890450341e+01 5.074493202114e-01 0.0 
5.074493202114e-01 -5.041292866882e+01 0.0 
0.0 0.0 -2.087054995167e+01 
-2.037690899124e+01 8.301486217608e-03 0.0 
8.301486217608e-03 -4.898345752576e+01 0.0 
0.0 0.0 -2.040810995510e+01 
-2.037763885635e+01 6.966119211724e-03 0.0 
6.966119211724e-03 -4.897936599894e+01 0.0 
0.0 0.0 -2.040710145659e+01 
-2.037848415046e+01 3.286797225147e-03 0.0 
3.286797225147e-03 -4.898217324957e+01 0.0 
0.0 0.0 -2.040819722001e+01 
-1.874483237391e+01 -1.302962491133e-01 0.0 
-1.302962491133e-01 -4.393019800144e+01 0.0 
0.0 0.0 -1.840250911261e+01 
-2.037952197254e+01 2.068043507037e-03 0.0 
2.068043507037e-03 -4.897854891753e+01 0.0 
0.0 0.0 -2.040742126702e+01 
-2.037852926577e+01 -2.312334800170e-03 0.0 
-2.312334800170e-03 -4.898139047062e+01 0.0 
0.0 0.0 -2.040797592092e+01 
-2.124364653785e+01 -1.698385484278e-01 0.0 
-1.698385484278e-01 -4.948021648589e+01 0.0 
0.0 0.0 -2.081715890712e+01 
-2.037918561820e+01 -3.371139086601e-03 0.0 
-3.371139086601e-03 -4.897843390548e+01 0.0 
0.0 0.0 -2.040728585710e+01 
-2.037662465282e+01 -8.260145551507e-03 0.0 
-8.260145551507e-03 -4.898137409236e+01 0.0 
0.0 0.0 -2.040739962355e+01 
-2.037625176278e+01 -8.845664465407e-03 0.0 
-8.845664465407e-03 -4.897989090995e+01 0.0 
0.0 0.0 -2.040684280182e+01 
-2.037221648532e+01 -1.296463620241e-02 0.0 
-1.296463620241e-02 -4.898196604008e+01 0.0 
0.0 0.0 -2.040625475762e+01 
-2.037139518104e+01 -1.354823628507e-02 0.0 
-1.354823628507e-02 -4.898056567206e+01 0.0 
0.0 0.0 -2.040558825593e+01 
-2.036818695614e+01 -1.824452306893e-02 0.0 
-1.824452306893e-02 -4.898375235878e+01 0.0 
0.0 0.0 -2.040558179448e+01 
-2.036408160700e+01 -1.755241633930e-02 0.0 
-1.755241633930e-02 -4.898552862978e+01 0.0 
0.0 0.0 -2.040488307103e+01 
-2.036032311544e+01 -1.872576419562e-02 0.0 
-1.872576419562e-02 -4.898541010561e+01 0.0 
0.0 0.0 -2.040371996631e+01 
-2.035702058768e+01 -1.945135435699e-02 0.0 
-1.945135435699e-02 -4.898374626870e+01 0.0 
0.0 0.0 -2.040223005691e+01 
-2.239525317483e+01 -1.876034719181e-01 0.0 
-1.876034719181e-01 -5.173235923883e+01 0.0 
0.0 0.0 -2.183828372410e+01 
-2.035962369709e+01 -2.434327499081e-02 0.0 
-2.434327499081e-02 -4.898969354680e+01 0.0 
0.0 0.0 -2.040479517317e+01 
-2.034627735060e+01 -2.087063786501e-02 0.0 
-2.087063786501e-02 -4.899688686413e+01 0.0 
0.0 0.0 -2.040294926442e+01 
-2.034304222194e+01 -1.443923626083e-02 0.0 
-1.443923626083e-02 -4.898875278236e+01 0.0 
0.0 0.0 -2.039953850129e+01 
-2.034138839003e+01 -1.928478568660e-02 0.0 
-1.928478568660e-02 -4.897848404483e+01 0.0 
0.0 0.0 -2.039596173046e+01 
-2.032024024685e+01 -1.925249092871e-02 0.0 
-1.925249092871e-02 -4.902847231242e+01 0.0 
0.0 0.0 -2.040461376778e+01 
-2.036303706125e+01 -3.409352614446e-02 0.0 
-3.409352614446e-02 -4.900234570678e+01 0.0 
0.0 0.0 -2.040961483041e+01 
-2.032603664385e+01 -1.363127600763e-02 0.0 
-1.363127600763e-02 -4.893942075817e+01 0.0 
0.0 0.0 -2.037963722061e+01 
-2.029332191428e+01 1.104269295000e-02 0.0 
1.104269295000e-02 -4.898320611321e+01 0.0 
0.0 0.0 -2.038295840825e+01 
-2.027461544890e+01 -1.672223594631e-02 0.0 
-1.672223594631e-02 -4.909544120072e+01 0.0 
0.0 0.0 -2.041101699489e+01 
-2.040495675059e+01 -6.384209638103e-02 0.0 
-6.384209638103e-02 -4.902649114924e+01 0.0 
0.0 0.0 -2.042943436995e+01 
-2.033708828939e+01 -3.361380882991e-02 0.0 
-3.361380882991e-02 -4.871197991996e+01 0.0 
0.0 0.0 -2.031472046280e+01 
-2.013123317679e+01 -1.271039334408e-01 0.0 
-1.271039334408e-01 -4.917128616747e+01 0.0 
0.0 0.0 -2.039075580328e+01 
-2.015068364834e+01 9.544884013129e-02 0.0 
9.544884013129e-02 -4.890920352997e+01 0.0 
0.0 0.0 -2.031796615349e+01 
-2.092018386330e+01 -2.316677048037e-01 0.0 
-2.316677048037e-01 -4.913770405861e+01 0.0 
0.0 0.0 -2.061736637657e+01 
-1.903396543735e+01 7.045401042480e-02 0.0 
7.045401042480e-02 -4.332623925220e+01 0.0 
0.0 0.0 -1.830806140686e+01 
-2.100336251053e+01 1.478462924351e+00 0.0 
1.478462924351e+00 -4.869429375820e+01 0.0 
0.0 0.0 -2.050929688062e+01 
-2.066539699419e+01 -1.403907695053e+00 0.0 
-1.403907695053e+00 -5.068828108686e+01 0.0 
0.0 0.0 -2.100610342432e+01 
-1.871438192067e+01 1.739763726084e-01 0.0 
1.739763726084e-01 -4.455202790200e+01 0.0 
0.0 0.0 -1.857992294680e+01 
-2.288557185998e+01 -1.396770152834e-01 0.0 
-1.396770152834e-01 -5.470105681587e+01 0.0 
0.0 0.0 -2.287598860275e+01 
-1.853473589342e+01 9.721579791987e-03 0.0 
9.721579791987e-03 -4.312922145440e+01 0.0 
0.0 0.0 -1.809918720434e+01 
-2.811990358015e+01 2.869016484573e-01 0.0 
2.869016484573e-01 -6.692319404912e+01 0.0 
0.0 0.0 -2.811292928878e+01 
-2.882530972459e+01 -2.085574334096e-01 0.0 
-2.085574334096e-01 -6.859816074264e+01 0.0 
0.0 0.0 -2.882704114017e+01 
-2.883535496599e+01 4.153529272768e-02 0.0 
4.153529272768e-02 -6.862995385966e+01 0.0 
0.0 0.0 -2.883959264769e+01 
-2.887251685807e+01 1.519804956527e-02 0.0 
1.519804956527e-02 -6.871686415901e+01 0.0 
0.0 0.0 -2.887681430512e+01 
-2.885314091372e+01 2.910170664945e-02 0.0 
2.910170664945e-02 -6.871090798918e+01 0.0 
0.0 0.0 -2.886921467087e+01 
-2.886689351951e+01 2.446210591149e-02 0.0 
2.446210591149e-02 -6.872100852021e+01 0.0 
0.0 0.0 -2.887637061191e+01 
-2.884152149037e+01 2.843538870652e-02 0.0 
2.843538870652e-02 -6.871113312950e+01 0.0 
0.0 0.0 -2.886579638596e+01 
-2.885852725128e+01 2.304078867233e-02 0.0 
2.304078867233e-02 -6.872240690408e+01 0.0 
0.0 0.0 -2.887428024661e+01 
-2.883401332569e+01 2.714294888369e-02 0.0 
2.714294888369e-02 -6.871321813867e+01 0.0 
0.0 0.0 -2.886416943931e+01 
-2.885089860183e+01 2.163393016295e-02 0.0 
2.163393016295e-02 -6.872517522177e+01 0.0 
0.0 0.0 -2.887282214708e+01 
-2.883076197046e+01 2.523724654951e-02 0.0 
2.523724654951e-02 -6.871796006618e+01 0.0 
0.0 0.0 -2.886461661099e+01 
-2.884489513188e+01 2.071934730646e-02 0.0 
2.071934730646e-02 -6.872774364408e+01 0.0 
0.0 0.0 -2.887179163279e+01 
-2.883040267599e+01 2.302726244215e-02 0.0 
2.302726244215e-02 -6.872264326244e+01 0.0 
0.0 0.0 -2.886591378153e+01 
-2.884114082334e+01 1.982934229094e-02 0.0 
1.982934229094e-02 -6.872934458138e+01 0.0 
0.0 0.0 -2.887114562142e+01 
-2.883167437315e+01 2.049473331768e-02 0.0 
2.049473331768e-02 -6.872576778692e+01 0.0 
0.0 0.0 -2.886723264802e+01 
-2.883908993302e+01 1.850582371819e-02 0.0 
1.850582371819e-02 -6.872973755507e+01 0.0 
0.0 0.0 -2.887064824643e+01 
-2.883365609718e+01 1.752526028896e-02 0.0 
1.752526028896e-02 -6.872705217294e+01 0.0 
0.0 0.0 -2.886821248104e+01 
-2.883819265961e+01 1.649295096256e-02 0.0 
1.649295096256e-02 -6.872894967902e+01 0.0 
0.0 0.0 -2.887014270159e+01 
-2.883568826494e+01 1.387790083548e-02 0.0 
1.387790083548e-02 -6.872649321055e+01 0.0 
0.0 0.0 -2.886865444265e+01 
-2.879350662827e+01 5.672273841020e-01 0.0 
5.672273841020e-01 -6.988959756695e+01 0.0 
0.0 0.0 -2.920493125857e+01 
-2.883792884592e+01 1.345035618504e-02 0.0 
1.345035618504e-02 -6.872721637803e+01 0.0 
0.0 0.0 -2.886954356718e+01 
-2.883732278685e+01 9.302179853277e-03 0.0 
9.302179853277e-03 -6.872442304884e+01 0.0 
0.0 0.0 -2.886852375071e+01 
-2.883848981157e+01 8.972640215286e-03 0.0 
8.972640215286e-03 -6.872513830058e+01 0.0 
0.0 0.0 -2.886908843365e+01 
-2.964055926362e+01 -6.979305872161e-02 0.0 
-6.979305872161e-02 -6.916610596810e+01 0.0 
0.0 0.0 -2.924199956952e+01 
-2.883809610969e+01 3.460498384082e-03 0.0 
3.460498384082e-03 -6.872126782112e+01 0.0 
0.0 0.0 -2.886780917925e+01 
-2.884059746151e+01 2.248413659659e-03 0.0 
2.248413659659e-03 -6.872424876297e+01 0.0 
0.0 0.0 -2.886945386734e+01 
-2.883747131949e+01 -3.407249432579e-03 0.0 
-3.407249432579e-03 -6.871892192930e+01 0.0 
0.0 0.0 -2.886691797464e+01 
-2.883997708670e+01 -5.481615234333e-03 0.0 
-5.481615234333e-03 -6.872419580057e+01 0.0 
0.0 0.0 -2.886925186618e+01 
-2.883541802940e+01 -1.047182956615e-02 0.0 
-1.047182956615e-02 -6.871855863771e+01 0.0 
0.0 0.0 -2.886619300013e+01 
-2.705508915418e+01 -1.417354391713e-01 0.0 
-1.417354391713e-01 -6.345248307067e+01 0.0 
0.0 0.0 -2.675227166745e+01 
-2.883934572505e+01 -1.367180796442e-02 0.0 
-1.367180796442e-02 -6.872647696498e+01 0.0 
0.0 0.0 -2.886974680701e+01 
-2.883202864761e+01 -1.639656743889e-02 0.0 
-1.639656743889e-02 -6.872152775209e+01 0.0 
0.0 0.0 -2.886606691991e+01 
-2.883053648731e+01 -1.850382258800e-02 0.0 
-1.850382258800e-02 -6.872686871663e+01 0.0 
0.0 0.0 -2.886722156118e+01 
-2.882805035736e+01 -2.130844177025e-02 0.0 
-2.130844177025e-02 -6.872343362828e+01 0.0 
0.0 0.0 -2.886544519569e+01 
-2.883640561038e+01 -2.604010547911e-02 0.0 
-2.604010547911e-02 -6.873447172418e+01 0.0 
0.0 0.0 -2.887126320037e+01 
-2.882348167819e+01 -2.331719062667e-02 0.0 
-2.331719062667e-02 -6.873278008538e+01 0.0 
0.0 0.0 -2.886687852907e+01 
-2.881516935232e+01 -2.228953929169e-02 0.0 
-2.228953929169e-02 -6.873041889536e+01 0.0 
0.0 0.0 -2.886367647430e+01 
-2.881873492458e+01 -2.608755003010e-02 0.0 
-2.608755003010e-02 -6.872761974428e+01 0.0 
0.0 0.0 -2.886390640066e+01 
-2.885122661751e+01 -3.636405936628e-02 0.0 
-3.636405936628e-02 -6.875115452739e+01 0.0 
0.0 0.0 -2.888071434347e+01 
-2.881431221218e+01 -2.241307637627e-02 0.0 
-2.241307637627e-02 -6.875504942625e+01 0.0 
0.0 0.0 -2.887080849153e+01 
-2.878059812014e+01 -7.271424161229e-03 0.0 
-7.271424161229e-03 -6.872126156748e+01 0.0 
0.0 0.0 -2.885055790628e+01 
-3.073064482170e+01 -1.826930277360e-01 0.0 
-1.826930277360e-01 -7.127889183135e+01 0.0 
0.0 0.0 -3.020286099591e+01 
-2.892897964100e+01 -7.642560045652e-02 0.0 
-7.642560045652e-02 -6.879786043719e+01 0.0 
0.0 0.0 -2.891805202346e+01 
-2.880437777201e+01 -3.248227071031e-02 0.0 
-3.248227071031e-02 -6.869880736523e+01 0.0 
0.0 0.0 -2.885095554117e+01 
-2.864169723438e+01 6.739866478036e-02 0.0 
6.739866478036e-02 -6.866292697641e+01 0.0 
0.0 0.0 -2.879138726324e+01 
-2.880275144860e+01 -1.458996948600e-02 0.0 
-1.458996948600e-02 -6.883854169328e+01 0.0 
0.0 0.0 -2.889238794256e+01 
-2.936480436130e+01 -2.114527811991e-01 0.0 
-2.114527811991e-01 -6.892166682705e+01 0.0 
0.0 0.0 -2.908594135650e+01 
-2.876957100700e+01 -4.989873379601e-02 0.0 
-4.989873379601e-02 -6.854392441419e+01 0.0 
0.0 0.0 -2.879404862636e+01 
-2.875697415589e+01 -4.947984553404e-02 0.0 
-4.947984553404e-02 -6.899054804758e+01 0.0 
0.0 0.0 -2.892425666104e+01 
-2.737800646009e+01 1.286232315646e-02 0.0 
1.286232315646e-02 -6.289599239308e+01 0.0 
0.0 0.0 -2.668219965595e+01 
-2.843884190098e+01 1.470309323985e+00 0.0 
1.470309323985e+00 -6.913320804504e+01 0.0 
0.0 0.0 -2.887161498381e+01 
-2.878213945728e+01 -1.432443537563e+00 0.0 
-1.432443537563e+00 -6.711232497602e+01 0.0 
0.0 0.0 -2.836833932999e+01 
-3.079323150744e+01 1.584989564858e-01 0.0 
1.584989564858e-01 -7.325103805092e+01 0.0 
0.0 0.0 -3.081328086751e+01 
-2.649490719494e+01 -1.603349736000e-01 0.0 
-1.603349736000e-01 -6.312283926413e+01 0.0 
0.0 0.0 -2.648532393772e+01 
-2.695069897843e+01 1.426884839450e-02 0.0 
1.426884839450e-02 -6.279667218056e+01 0.0 
0.0 0.0 -2.652421134770e+01 
-3.801083596939e+01 2.935992747794e-01 0.0 
2.935992747794e-01 -9.008540741386e+01 0.0 
0.0 0.0 -3.802887301497e+01 
-3.729193099599e+01 -2.195452894066e-01 0.0 
-2.195452894066e-01 -8.835361037589e+01 0.0 
0.0 0.0 -3.729366241156e+01 
-3.726464587145e+01 3.484120057274e-02 0.0 
3.484120057274e-02 -8.831033246180e+01 0.0 
0.0 0.0 -3.727249349997e+01 
-3.722812322253e+01 6.022517414881e-03 0.0 
6.022517414881e-03 -8.821327900944e+01 0.0 
0.0 0.0 -3.723242066959e+01 
-3.722300039974e+01 2.010962854617e-02 0.0 
2.010962854617e-02 -8.820847161222e+01 0.0 
0.0 0.0 -3.722944160359e+01 
-3.721581288743e+01 1.735484549856e-02 0.0 
1.735484549856e-02 -8.820182037869e+01 0.0 
0.0 0.0 -3.722528997984e+01 
-3.721548905760e+01 1.842384699187e-02 0.0 
1.842384699187e-02 -8.820141714595e+01 0.0 
0.0 0.0 -3.722507186106e+01 
-3.720727778758e+01 1.760875463615e-02 0.0 
1.760875463615e-02 -8.820282482212e+01 0.0 
0.0 0.0 -3.722303078291e+01 
-3.720850176908e+01 1.763841427887e-02 0.0 
1.763841427887e-02 -8.820332826267e+01 0.0 
0.0 0.0 -3.722354900953e+01 
-3.720019725072e+01 1.750762807064e-02 0.0 
1.750762807064e-02 -8.820687206918e+01 0.0 
0.0 0.0 -3.722212079597e+01 
-3.720189396057e+01 1.766073159723e-02 0.0 
1.766073159723e-02 -8.820751801665e+01 0.0 
0.0 0.0 -3.722282359317e+01 
-3.719471593471e+01 1.769785742966e-02 0.0 
1.769785742966e-02 -8.821065885069e+01 0.0 
0.0 0.0 -3.722161243562e+01 
-3.719658507644e+01 1.823742286835e-02 0.0 
1.823742286835e-02 -8.821118727855e+01 0.0 
0.0 0.0 -3.722233170650e+01 
-3.719085859825e+01 1.787097449057e-02 0.0 
1.787097449057e-02 -8.821201938950e+01 0.0 
0.0 0.0 -3.722086339633e+01 
-3.719406558673e+01 1.803399134398e-02 0.0 
1.803399134398e-02 -8.821323152547e+01 0.0 
0.0 0.0 -3.722218913366e+01 
-3.718857463352e+01 1.708351613337e-02 0.0 
1.708351613337e-02 -8.821186852290e+01 0.0 
0.0 0.0 -3.722013294693e+01 
-3.719210236677e+01 1.675711994731e-02 0.0 
1.675711994731e-02 -8.821345383324e+01 0.0 
0.0 0.0 -3.722166686000e+01 
-3.718725909580e+01 1.525412970537e-02 0.0 
1.525412970537e-02 -8.821010469678e+01 0.0 
0.0 0.0 -3.721920913777e+01 
-3.730616102922e+01 5.883108829800e-01 0.0 
5.883108829800e-01 -8.957799440413e+01 0.0 
0.0 0.0 -3.766524663001e+01 
-3.718991508456e+01 1.416180757667e-02 0.0 
1.416180757667e-02 -8.821183088119e+01 0.0 
0.0 0.0 -3.722052378972e+01 
-3.718648188464e+01 1.231350500432e-02 0.0 
1.231350500432e-02 -8.820717346837e+01 0.0 
0.0 0.0 -3.721809660590e+01 
-3.718754312466e+01 1.058137618172e-02 0.0 
1.058137618172e-02 -8.820879067544e+01 0.0 
0.0 0.0 -3.721890014003e+01 
-3.545391759844e+01 -1.023930580604e-01 0.0 
-1.023930580604e-01 -8.312959771371e+01 0.0 
0.0 0.0 -3.517505459365e+01 
-3.718600046232e+01 8.273159269177e-03 0.0 
8.273159269177e-03 -8.820266315235e+01 0.0 
0.0 0.0 -3.721659908440e+01 
-3.798996265056e+01 -5.437599248867e-02 0.0 
-5.437599248867e-02 -8.868645572765e+01 0.0 
0.0 0.0 -3.760292551346e+01 
-3.718721520257e+01 5.869467129273e-03 0.0 
5.869467129273e-03 -8.820495963873e+01 0.0 
0.0 0.0 -3.721765245239e+01 
-3.718554549685e+01 2.313995779072e-03 0.0 
2.313995779072e-03 -8.819579417876e+01 0.0 
0.0 0.0 -3.721440190268e+01 
-3.719139371881e+01 -3.734963503335e-03 0.0 
-3.734963503335e-03 -8.820296311406e+01 0.0 
0.0 0.0 -3.721830704986e+01 
-3.718536304217e+01 -6.375389510006e-03 0.0 
-6.375389510006e-03 -8.819676303000e+01 0.0 
0.0 0.0 -3.721463782165e+01 
-3.718817372847e+01 -1.182963570410e-02 0.0 
-1.182963570410e-02 -8.820268518031e+01 0.0 
0.0 0.0 -3.721725767264e+01 
-3.718341230431e+01 -1.470347362633e-02 0.0 
-1.470347362633e-02 -8.819596564994e+01 0.0 
0.0 0.0 -3.721381338628e+01 
-3.718633106566e+01 -2.468088182688e-02 0.0 
-2.468088182688e-02 -8.820669066099e+01 0.0 
0.0 0.0 -3.721790651799e+01 
-3.718222698350e+01 -2.140180154514e-02 0.0 
-2.140180154514e-02 -8.821414654109e+01 0.0 
0.0 0.0 -3.721891205738e+01 
-3.929078749466e+01 -1.043933825636e-01 0.0 
-1.043933825636e-01 -9.092168333985e+01 0.0 
0.0 0.0 -3.866374125035e+01 
-3.716872698472e+01 -1.886857638160e-02 0.0 
-1.886857638160e-02 -8.820711185945e+01 0.0 
0.0 0.0 -3.721275165325e+01 
-3.717736493397e+01 -2.380893442096e-02 0.0 
-2.380893442096e-02 -8.819671014590e+01 0.0 
0.0 0.0 -3.721222252396e+01 
-3.719452429772e+01 -4.120360272661e-02 0.0 
-4.120360272661e-02 -8.822154104303e+01 0.0 
0.0 0.0 -3.722481960223e+01 
-3.718093948459e+01 -2.671895113946e-02 0.0 
-2.671895113946e-02 -8.825054920399e+01 0.0 
0.0 0.0 -3.722944660658e+01 
-3.717087721247e+01 -2.526943308517e-02 0.0 
-2.526943308517e-02 -8.816367258230e+01 0.0 
0.0 0.0 -3.720036493843e+01 
-3.714717672628e+01 -7.672664680108e-04 0.0 
-7.672664680108e-04 -8.820954400514e+01 0.0 
0.0 0.0 -3.720701621943e+01 
-3.718797097148e+01 -2.705101944760e-02 0.0 
-2.705101944760e-02 -8.833846488728e+01 0.0 
0.0 0.0 -3.725793075763e+01 
-3.726967288660e+01 -7.645947838507e-02 0.0 
-7.645947838507e-02 -8.825634504662e+01 0.0 
0.0 0.0 -3.725780537996e+01 
-3.714636716325e+01 -4.132479636543e-02 0.0 
-4.132479636543e-02 -8.797176465576e+01 0.0 
0.0 0.0 -3.713543954570e+01 
-3.716670980434e+01 -8.775261416294e-02 0.0 
-8.775261416294e-02 -8.855462297300e+01 0.0 
0.0 0.0 -3.731639983320e+01 
-3.705457231270e+01 7.537515857275e-02 0.0 
7.537515857275e-02 -8.816523978318e+01 0.0 
0.0 0.0 -3.716594362877e+01 
-3.777485754610e+01 -2.390650509339e-01 0.0 
-2.390650509339e-01 -8.840692284812e+01 0.0 
0.0 0.0 -3.745453411827e+01 
-3.592962729833e+01 5.682838141045e-02 0.0 
5.682838141045e-02 -8.261102150723e+01 0.0 
0.0 0.0 -3.516219464167e+01 
-3.768137605320e+01 1.476969894619e+00 0.0 
1.476969894619e+00 -8.792157532450e+01 0.0 
0.0 0.0 -3.728088541331e+01 
-3.734306376372e+01 -1.432689246711e+00 0.0 
-1.432689246711e+00 -8.990672160682e+01 0.0 
0.0 0.0 -3.777493561116e+01 
-3.530770852608e+01 1.551934075096e-01 0.0 
1.551934075096e-01 -8.378481776108e+01 0.0 
0.0 0.0 -3.532775788615e+01 
-3.964207672528e+01 -1.553506516370e-01 0.0 
-1.553506516370e-01 -9.389979055337e+01 0.0 
0.0 0.0 -3.966256018360e+01 
-3.532316278801e+01 1.669437298481e-02 0.0 
1.669437298481e-02 -8.242551419169e+01 0.0 
0.0 0.0 -3.492460309391e+01 
-4.490148329461e+01 2.969784824633e-01 0.0 
2.969784824633e-01 -1.061635845060e+02 0.0 
0.0 0.0 -4.491952034019e+01 
-4.562681452981e+01 -2.066047943804e-01 0.0 
-2.066047943804e-01 -1.078472545225e+02 0.0 
0.0 0.0 -4.564222071570e+01 
-4.565540954821e+01 2.919518153708e-02 0.0 
2.919518153708e-02 -1.078887810409e+02 0.0 
0.0 0.0 -4.566325717673e+01 
-4.568807098897e+01 6.329691792478e-03 0.0 
6.329691792478e-03 -1.079631638334e+02 0.0 
0.0 0.0 -4.569537044670e+01 
-4.569017441486e+01 1.250615673549e-02 0.0 
1.250615673549e-02 -1.079652109808e+02 0.0 
0.0 0.0 -4.569661561871e+01 
-4.569277144490e+01 1.157863462023e-02 0.0 
1.157863462023e-02 -1.079673388458e+02 0.0 
0.0 0.0 -4.569803308720e+01 
-4.568522044739e+01 1.147535611564e-02 0.0 
1.147535611564e-02 -1.079641237221e+02 0.0 
0.0 0.0 -4.569480325086e+01 
-4.569072117266e+01 9.048635022306e-03 0.0 
9.048635022306e-03 -1.079704424333e+02 0.0 
0.0 0.0 -4.569834908179e+01 
-4.567831748435e+01 1.220361162758e-02 0.0 
1.220361162758e-02 -1.079662315983e+02 0.0 
0.0 0.0 -4.569336472480e+01 
-4.568614911855e+01 8.724601476228e-03 0.0 
8.724601476228e-03 -1.079752236563e+02 0.0 
0.0 0.0 -4.569841183245e+01 
-4.567202780728e+01 1.350454953441e-02 0.0 
1.350454953441e-02 -1.079711636590e+02 0.0 
0.0 0.0 -4.569295743988e+01 
-4.567775171050e+01 1.066872697549e-02 0.0 
1.066872697549e-02 -1.079786904668e+02 0.0 
0.0 0.0 -4.569693265320e+01 
-4.566746883416e+01 1.545730865446e-02 0.0 
1.545730865446e-02 -1.079765827132e+02 0.0 
0.0 0.0 -4.569321546421e+01 
-4.567211289409e+01 1.422342188022e-02 0.0 
1.422342188022e-02 -1.079790326194e+02 0.0 
0.0 0.0 -4.569534365403e+01 
-4.566404973958e+01 1.571164923370e-02 0.0 
1.571164923370e-02 -1.079765278821e+02 0.0 
0.0 0.0 -4.569217328651e+01 
-4.567009260965e+01 1.462370950903e-02 0.0 
1.462370950903e-02 -1.079781612108e+02 0.0 
0.0 0.0 -4.569447614614e+01 
-4.566099170251e+01 1.400023157509e-02 0.0 
1.400023157509e-02 -1.079741956166e+02 0.0 
0.0 0.0 -4.569055619574e+01 
-4.581446782818e+01 6.118333394341e-01 0.0 
6.118333394341e-01 -1.092395612208e+02 0.0 
0.0 0.0 -4.611620871469e+01 
-4.566586434406e+01 1.320680275918e-02 0.0 
1.320680275918e-02 -1.079753861409e+02 0.0 
0.0 0.0 -4.569237514548e+01 
-4.565806772989e+01 1.084384507488e-02 0.0 
1.084384507488e-02 -1.079708537203e+02 0.0 
0.0 0.0 -4.568867643505e+01 
-4.656238567356e+01 -7.453425820862e-02 0.0 
-7.453425820862e-02 -1.084373029442e+02 0.0 
0.0 0.0 -4.609990658533e+01 
-4.565777739319e+01 1.070577898600e-02 0.0 
1.070577898600e-02 -1.079713109626e+02 0.0 
0.0 0.0 -4.568872650675e+01 
-4.565602358940e+01 7.757682176544e-03 0.0 
7.757682176544e-03 -1.079685784265e+02 0.0 
0.0 0.0 -4.568738060477e+01 
-4.565131531916e+01 9.012471864886e-03 0.0 
9.012471864886e-03 -1.079658423018e+02 0.0 
0.0 0.0 -4.568514728630e+01 
-4.565517775148e+01 4.143991202419e-03 0.0 
4.143991202419e-03 -1.079635389195e+02 0.0 
0.0 0.0 -4.568561500130e+01 
-4.565113844534e+01 6.555543409357e-03 0.0 
6.555543409357e-03 -1.079576433275e+02 0.0 
0.0 0.0 -4.568263453186e+01 
-4.395704606833e+01 -1.608055216923e-01 0.0 
-1.608055216923e-01 -1.028320294000e+02 0.0 
0.0 0.0 -4.363672264049e+01 
-4.565410155298e+01 -4.725552988533e-03 0.0 
-4.725552988533e-03 -1.079492813938e+02 0.0 
0.0 0.0 -4.568101488403e+01 
-4.566751771239e+01 -9.714481804430e-03 0.0 
-9.714481804430e-03 -1.079608548873e+02 0.0 
0.0 0.0 -4.568851177990e+01 
-4.565139090028e+01 -1.525975412623e-02 0.0 
-1.525975412623e-02 -1.079501919145e+02 0.0 
0.0 0.0 -4.568047484444e+01 
-4.564427174071e+01 -1.812122093369e-02 0.0 
-1.812122093369e-02 -1.079572593296e+02 0.0 
0.0 0.0 -4.568045932110e+01 
-4.564875087992e+01 -2.471306154877e-02 0.0 
-2.471306154877e-02 -1.079523368942e+02 0.0 
0.0 0.0 -4.568032633225e+01 
-4.566580479966e+01 -3.760618787222e-02 0.0 
-3.760618787222e-02 -1.079817844566e+02 0.0 
0.0 0.0 -4.569427677687e+01 
-4.564802228133e+01 -2.222784505189e-02 0.0 
-2.222784505189e-02 -1.079921342182e+02 0.0 
0.0 0.0 -4.569204694987e+01 
-4.558107954335e+01 -4.827822624378e-03 0.0 
-4.827822624378e-03 -1.079518467090e+02 0.0 
0.0 0.0 -4.565987787571e+01 
-4.564887463325e+01 -2.668568335043e-02 0.0 
-2.668568335043e-02 -1.079483584926e+02 0.0 
0.0 0.0 -4.567916993776e+01 
-4.574089876285e+01 -6.360616946437e-02 0.0 
-6.360616946437e-02 -1.080310400716e+02 0.0 
0.0 0.0 -4.573158165032e+01 
-4.786055813503e+01 -1.193892695073e-01 0.0 
-1.193892695073e-01 -1.106477456768e+02 0.0 
0.0 0.0 -4.715249114354e+01 
-4.549351387310e+01 6.898667401408e-02 0.0 
6.898667401408e-02 -1.079042503295e+02 0.0 
0.0 0.0 -4.561932926079e+01 
-4.566015541208e+01 -8.510416335934e-03 0.0 
-8.510416335934e-03 -1.080731609387e+02 0.0 
0.0 0.0 -4.571999490522e+01 
-4.620935360650e+01 -1.915300472177e-01 0.0 
-1.915300472177e-01 -1.081736206453e+02 0.0 
0.0 0.0 -4.591489227554e+01 
-4.565131722594e+01 -3.677245597093e-02 0.0 
-3.677245597093e-02 -1.078135151718e+02 0.0 
0.0 0.0 -4.563944971931e+01 
-4.565622344426e+01 -3.890318161489e-02 0.0 
-3.890318161489e-02 -1.082357590902e+02 0.0 
0.0 0.0 -4.576759476033e+01 
-4.448048244179e+01 -3.929470135407e-02 0.0 
-3.929470135407e-02 -1.023124527077e+02 0.0 
0.0 0.0 -4.363788054483e+01 
-4.521937918589e+01 1.480647693336e+00 0.0 
1.480647693336e+00 -1.083381522713e+02 0.0 
0.0 0.0 -4.566725943716e+01 
-4.556010911195e+01 -1.427472988841e+00 0.0 
-1.427472988841e+00 -1.063384680873e+02 0.0 
0.0 0.0 -4.516957315978e+01 
-4.758998306632e+01 1.607976822542e-01 0.0 
1.607976822542e-01 -1.124685258420e+02 0.0 
0.0 0.0 -4.761755267248e+01 
-4.326452145976e+01 -1.522091161617e-01 0.0 
-1.522091161617e-01 -1.023521616005e+02 0.0 
0.0 0.0 -4.328500491808e+01 
-4.375662282434e+01 -3.612609479975e-02 0.0 
-3.612609479975e-02 -1.021419961331e+02 0.0 
0.0 0.0 -4.336958568724e+01 
-5.480534066933e+01 3.081815666852e-01 0.0 
3.081815666852e-01 -1.292951397790e+02 0.0 
0.0 0.0 -5.483014413449e+01 
-5.408238726348e+01 -2.062309674597e-01 0.0 
-2.062309674597e-01 -1.275769242344e+02 0.0 
0.0 0.0 -5.409779344937e+01 
-5.407185397944e+01 3.933720581341e-02 0.0 
3.933720581341e-02 -1.275373126945e+02 0.0 
0.0 0.0 -5.408275000219e+01 
-5.403283978370e+01 8.346069742374e-03 0.0 
8.346069742374e-03 -1.274342910211e+02 0.0 
0.0 0.0 -5.404013924144e+01 
-5.404479513109e+01 1.564679429733e-02 0.0 
1.564679429733e-02 -1.274377914902e+02 0.0 
0.0 0.0 -5.404477598640e+01 
-5.403310253134e+01 1.145471977447e-02 0.0 
1.145471977447e-02 -1.274281113808e+02 0.0 
0.0 0.0 -5.403836417365e+01 
-5.403833376317e+01 8.185011707152e-03 0.0 
8.185011707152e-03 -1.274312486728e+02 0.0 
0.0 0.0 -5.404087473080e+01 
-5.403161398045e+01 7.622229018289e-03 0.0 
7.622229018289e-03 -1.274325256515e+02 0.0 
0.0 0.0 -5.403924188958e+01 
-5.403746549920e+01 5.531198681384e-03 0.0 
5.531198681384e-03 -1.274357101365e+02 0.0 
0.0 0.0 -5.404195269071e+01 
-5.402791868749e+01 5.411191845714e-03 0.0 
5.411191845714e-03 -1.274393526505e+02 0.0 
0.0 0.0 -5.404018140139e+01 
-5.403136788043e+01 3.362204411705e-03 0.0 
3.362204411705e-03 -1.274416535943e+02 0.0 
0.0 0.0 -5.404190644243e+01 
-5.402264199491e+01 4.967550204579e-03 0.0 
4.967550204579e-03 -1.274501011304e+02 0.0 
0.0 0.0 -5.404182293760e+01 
-5.402042618265e+01 8.831202728738e-03 0.0 
8.831202728738e-03 -1.274472501099e+02 0.0 
0.0 0.0 -5.404030288778e+01 
-5.401610536493e+01 8.780229306647e-03 0.0 
8.780229306647e-03 -1.274483483846e+02 0.0 
0.0 0.0 -5.403933612487e+01 
-5.401554347873e+01 1.315019103102e-02 0.0 
1.315019103102e-02 -1.274455855682e+02 0.0 
0.0 0.0 -5.403833871407e+01 
-5.401034172931e+01 1.045109215466e-02 0.0 
1.045109215466e-02 -1.274387424900e+02 0.0 
0.0 0.0 -5.403472526580e+01 
-5.407014870519e+01 5.917343831569e-01 0.0 
5.917343831569e-01 -1.288737140052e+02 0.0 
0.0 0.0 -5.448315881311e+01 
-5.402150609606e+01 1.030669405837e-02 0.0 
1.030669405837e-02 -1.274431504877e+02 0.0 
0.0 0.0 -5.403939697513e+01 
-5.400608240782e+01 6.773046173401e-03 0.0 
6.773046173401e-03 -1.274358949563e+02 0.0 
0.0 0.0 -5.403259320924e+01 
-5.230538829934e+01 -5.614438687428e-02 0.0 
-5.614438687428e-02 -1.223977015952e+02 0.0 
0.0 0.0 -5.201092696837e+01 
-5.400508975003e+01 3.831872248834e-03 0.0 
3.831872248834e-03 -1.274376802310e+02 0.0 
0.0 0.0 -5.403283099432e+01 
-5.400046546966e+01 3.578896281053e-03 0.0 
3.578896281053e-03 -1.274375831411e+02 0.0 
0.0 0.0 -5.403141458322e+01 
-5.491492961476e+01 -8.486109241946e-02 0.0 
-8.486109241946e-02 -1.279601174262e+02 0.0 
0.0 0.0 -5.446251411228e+01 
-5.398914929401e+01 2.832539211914e-03 0.0 
2.832539211914e-03 -1.274340614192e+02 0.0 
0.0 0.0 -5.402696321395e+01 
-5.399520534079e+01 3.357298298900e-03 0.0 
3.357298298900e-03 -1.274349190190e+02 0.0 
0.0 0.0 -5.402903730794e+01 
-5.398488215445e+01 6.465652857948e-03 0.0 
6.465652857948e-03 -1.274285124694e+02 0.0 
0.0 0.0 -5.402401838715e+01 
-5.399259027484e+01 3.451969676572e-03 0.0 
3.451969676572e-03 -1.274210309297e+02 0.0 
0.0 0.0 -5.402408636136e+01 
-5.398116760804e+01 9.538238950090e-03 0.0 
9.538238950090e-03 -1.274112476148e+02 0.0 
0.0 0.0 -5.401772456685e+01 
-5.398878314086e+01 -5.526413114895e-03 0.0 
-5.526413114895e-03 -1.273771408870e+02 0.0 
0.0 0.0 -5.400977720837e+01 
-5.599122190794e+01 -1.031070779003e-01 0.0 
-1.031070779003e-01 -1.301979309346e+02 0.0 
0.0 0.0 -5.545674585276e+01 
-5.402043975852e+01 -3.453299389217e-02 0.0 
-3.453299389217e-02 -1.274179807466e+02 0.0 
0.0 0.0 -5.403152615155e+01 
-5.399310966523e+01 -2.467366470319e-02 0.0 
-2.467366470319e-02 -1.274378811535e+02 0.0 
0.0 0.0 -5.402929724563e+01 
-5.394777480201e+01 -1.389712612233e-02 0.0 
-1.389712612233e-02 -1.274117031586e+02 0.0 
0.0 0.0 -5.400784338818e+01 
-5.398009745526e+01 -2.994193501588e-02 0.0 
-2.994193501588e-02 -1.273818006530e+02 0.0 
0.0 0.0 -5.400856943247e+01 
-5.399808478582e+01 -2.301089072560e-02 0.0 
-2.301089072560e-02 -1.275915256081e+02 0.0 
0.0 0.0 -5.407688311818e+01 
-5.402613897397e+01 -8.927973049752e-02 0.0 
-8.927973049752e-02 -1.274678835393e+02 0.0 
0.0 0.0 -5.404820675398e+01 
-5.396139909342e+01 -1.716246044117e-02 0.0 
-1.716246044117e-02 -1.272122075095e+02 0.0 
0.0 0.0 -5.395208198089e+01 
-5.380099931441e+01 9.235829610065e-02 0.0 
9.235829610065e-02 -1.273867131340e+02 0.0 
0.0 0.0 -5.395631373453e+01 
-5.399109588197e+01 -7.113872970378e-02 0.0 
-7.113872970378e-02 -1.277319416835e+02 0.0 
0.0 0.0 -5.411691126965e+01 
-5.455964207289e+01 -1.979544222071e-01 0.0 
-1.979544222071e-01 -1.276148429684e+02 0.0 
0.0 0.0 -5.425234551239e+01 
-5.263021475248e+01 1.364465800502e-01 0.0 
1.364465800502e-01 -1.218106729616e+02 0.0 
0.0 0.0 -5.193226631422e+01 
-5.448585743655e+01 1.484507919939e+00 0.0 
1.484507919939e+00 -1.271370440337e+02 0.0 
0.0 0.0 -5.408687044107e+01 
-5.414403177820e+01 -1.426375240870e+00 0.0 
-1.426375240870e+00 -1.291359892860e+02 0.0 
0.0 0.0 -5.458400631925e+01 
-5.210412775163e+01 1.584380675423e-01 0.0 
1.584380675423e-01 -1.230015301077e+02 0.0 
0.0 0.0 -5.213169735779e+01 
-5.643989970712e+01 -1.515161126279e-01 0.0 
-1.515161126279e-01 -1.331064073997e+02 0.0 
0.0 0.0 -5.646389213204e+01 
-5.223223410152e+01 9.636685799814e-02 0.0 
9.636685799814e-02 -1.216669492761e+02 0.0 
0.0 0.0 -5.176975501329e+01 
-6.171373142331e+01 3.161507241291e-01 0.0 
3.161507241291e-01 -1.454147182049e+02 0.0 
0.0 0.0 -6.173853488847e+01 
-6.242477432525e+01 -1.858084146663e-01 0.0 
-1.858084146663e-01 -1.470870161222e+02 0.0 
0.0 0.0 -6.245353713424e+01 
-6.247333953963e+01 4.528276765784e-02 0.0 
4.528276765784e-02 -1.471407790016e+02 0.0 
0.0 0.0 -6.248423556237e+01 
-6.252229721645e+01 2.273519470604e-02 0.0 
2.273519470604e-02 -1.472018594459e+02 0.0 
0.0 0.0 -6.251724699870e+01 
-6.251237830802e+01 1.263959094921e-02 0.0 
1.263959094921e-02 -1.471954855697e+02 0.0 
0.0 0.0 -6.251235916332e+01 
-6.251401195520e+01 8.166534782319e-03 0.0 
8.166534782319e-03 -1.472121492837e+02 0.0 
0.0 0.0 -6.251784837168e+01 
-6.251646779028e+01 9.489971214300e-03 0.0 
9.489971214300e-03 -1.472135614028e+02 0.0 
0.0 0.0 -6.251900875791e+01 
-6.253505737290e+01 4.763442058776e-03 0.0 
4.763442058776e-03 -1.472218228170e+02 0.0 
0.0 0.0 -6.252706405696e+01 
-6.251319507215e+01 3.869209169131e-03 0.0 
3.869209169131e-03 -1.472124124734e+02 0.0 
0.0 0.0 -6.251768226366e+01 
-6.253066691352e+01 -3.069544107155e-03 0.0 
-3.069544107155e-03 -1.472293830874e+02 0.0 
0.0 0.0 -6.252801500026e+01 
-6.250874673010e+01 1.110718138630e-03 0.0 
1.110718138630e-03 -1.472222042436e+02 0.0 
0.0 0.0 -6.251928529209e+01 
-6.253332441843e+01 -8.240141924933e-03 0.0 
-8.240141924933e-03 -1.472445765985e+02 0.0 
0.0 0.0 -6.253337030507e+01 
-6.250229436589e+01 4.020394077584e-03 0.0 
4.020394077584e-03 -1.472382758708e+02 0.0 
0.0 0.0 -6.252217107102e+01 
-6.249629938700e+01 4.467298288824e-03 0.0 
4.467298288824e-03 -1.472386148672e+02 0.0 
0.0 0.0 -6.252047427625e+01 
-6.250080674098e+01 1.158179580825e-02 0.0 
1.158179580825e-02 -1.472445331801e+02 0.0 
0.0 0.0 -6.252360197632e+01 
-6.245880618057e+01 6.378495246356e-01 0.0 
6.378495246356e-01 -1.485345222086e+02 0.0 
0.0 0.0 -6.289799851674e+01 
-6.252644259550e+01 1.489978725679e-02 0.0 
1.489978725679e-02 -1.472286997691e+02 0.0 
0.0 0.0 -6.252654270937e+01 
-6.334197031516e+01 -8.233062655490e-02 0.0 
-8.233062655490e-02 -1.477392129998e+02 0.0 
0.0 0.0 -6.292435499448e+01 
-6.249071539579e+01 -7.116311715148e-04 0.0 
-7.116311715148e-04 -1.472046388537e+02 0.0 
0.0 0.0 -6.250860627486e+01 
-6.250694101318e+01 -8.488133837454e-03 0.0 
-8.488133837454e-03 -1.472237326935e+02 0.0 
0.0 0.0 -6.251920211200e+01 
-6.248070170066e+01 -8.153973234662e-03 0.0 
-8.153973234662e-03 -1.472141081158e+02 0.0 
0.0 0.0 -6.250844294495e+01 
-6.246716853173e+01 -1.117418872732e-02 0.0 
-1.117418872732e-02 -1.472238787225e+02 0.0 
0.0 0.0 -6.250731417627e+01 
-6.247402782272e+01 -4.117157321253e-03 0.0 
-4.117157321253e-03 -1.472321113195e+02 0.0 
0.0 0.0 -6.251184174266e+01 
-6.246552441267e+01 1.170582746819e-05 0.0 
1.170582746819e-05 -1.472223197069e+02 0.0 
0.0 0.0 -6.250635323587e+01 
-6.076058589781e+01 -7.576381755880e-02 0.0 
-7.576381755880e-02 -1.420837118932e+02 0.0 
0.0 0.0 -6.045328933731e+01 
-6.246775301054e+01 -1.364262276955e-03 0.0 
-1.364262276955e-03 -1.472218778002e+02 0.0 
0.0 0.0 -6.250688924323e+01 
-6.245442276287e+01 4.926847353937e-03 0.0 
4.926847353937e-03 -1.472072490525e+02 0.0 
0.0 0.0 -6.249850154462e+01 
-6.246517216780e+01 1.197789266557e-03 0.0 
1.197789266557e-03 -1.472072582542e+02 0.0 
0.0 0.0 -6.250172912660e+01 
-6.240641019966e+01 2.663804447446e-02 0.0 
2.663804447446e-02 -1.471491299156e+02 0.0 
0.0 0.0 -6.246666203456e+01 
-6.245825397923e+01 -2.989275315334e-02 0.0 
-2.989275315334e-02 -1.471062139283e+02 0.0 
0.0 0.0 -6.246934037225e+01 
-6.256869448657e+01 -8.868796822594e-02 0.0 
-8.868796822594e-02 -1.472373497478e+02 0.0 
0.0 0.0 -6.254181327031e+01 
-6.245643194088e+01 -3.405841876512e-02 0.0 
-3.405841876512e-02 -1.472652364826e+02 0.0 
0.0 0.0 -6.251650052704e+01 
-6.224128039164e+01 2.056401643198e-02 0.0 
2.056401643198e-02 -1.471370706100e+02 0.0 
0.0 0.0 -6.241350530048e+01 
-6.297472460955e+01 -2.026409168581e-01 0.0 
-2.026409168581e-01 -1.474487643998e+02 0.0 
0.0 0.0 -6.272704670279e+01 
-6.244132159547e+01 -5.396084382327e-02 0.0 
-5.396084382327e-02 -1.471033096561e+02 0.0 
0.0 0.0 -6.246338937549e+01 
-6.440709964206e+01 -1.049618533470e-01 0.0 
-1.049618533470e-01 -1.499221866091e+02 0.0 
0.0 0.0 -6.389878587535e+01 
-6.243065860714e+01 -3.546020647663e-02 0.0 
-3.546020647663e-02 -1.475225848171e+02 0.0 
0.0 0.0 -6.258597302727e+01 
-6.102910479427e+01 1.017092470309e-01 0.0 
1.017092470309e-01 -1.414456963668e+02 0.0 
0.0 0.0 -6.034244034832e+01 
-6.201926405622e+01 1.484239850060e+00 0.0 
1.484239850060e+00 -1.475523283891e+02 0.0 
0.0 0.0 -6.247147773361e+01 
-6.235867921454e+01 -1.423337646657e+00 0.0 
-1.423337646657e+00 -1.455665127987e+02 0.0 
0.0 0.0 -6.197755760398e+01 
-6.438923751170e+01 1.585950156359e-01 0.0 
1.585950156359e-01 -1.516962012293e+02 0.0 
0.0 0.0 -6.442563162229e+01 
-6.007478704396e+01 -1.489607194987e-01 0.0 
-1.489607194987e-01 -1.415878111856e+02 0.0 
0.0 0.0 -6.009877946888e+01 
-6.064266803571e+01 8.381640882348e-02 0.0 
8.381640882348e-02 -1.413248404084e+02 0.0 
0.0 0.0 -6.019025253322e+01 
-7.149694244710e+01 3.487311771623e-01 0.0 
3.487311771623e-01 -1.685507722027e+02 0.0 
0.0 0.0 -7.161431439494e+01 
-7.086561238581e+01 -1.666009429750e-01 0.0 
-1.666009429750e-01 -1.667823049302e+02 0.0 
0.0 0.0 -7.089437519480e+01 
-7.093232536153e+01 9.449960530482e-02 0.0 
9.449960530482e-02 -1.667667598672e+02 0.0 
0.0 0.0 -7.090972556862e+01 
-7.083714390280e+01 3.935992659532e-02 0.0 
3.935992659532e-02 -1.666031683807e+02 0.0 
0.0 0.0 -7.083209368505e+01 
-7.087607827924e+01 3.300250719563e-03 0.0 
3.300250719563e-03 -1.666287273752e+02 0.0 
0.0 0.0 -7.085144169632e+01 
-7.085150423161e+01 9.819207659312e-03 0.0 
9.819207659312e-03 -1.666662979287e+02 0.0 
0.0 0.0 -7.085534064809e+01 
-7.083991969656e+01 2.627448972257e-02 0.0 
2.627448972257e-02 -1.666559006056e+02 0.0 
0.0 0.0 -7.084874609065e+01 
-7.085013631122e+01 1.842673127906e-02 0.0 
1.842673127906e-02 -1.666236736731e+02 0.0 
0.0 0.0 -7.084214299528e+01 
-7.091493188312e+01 -1.241750681940e-03 0.0 
-1.241750681940e-03 -1.666586299730e+02 0.0 
0.0 0.0 -7.087206855684e+01 
-7.086072656855e+01 -4.713715648158e-03 0.0 
-4.713715648158e-03 -1.666661889491e+02 0.0 
0.0 0.0 -7.085807465529e+01 
-7.086483621445e+01 -2.783134159444e-03 0.0 
-2.783134159444e-03 -1.666668577678e+02 0.0 
0.0 0.0 -7.085950819468e+01 
-7.085302594937e+01 -6.936683242555e-03 0.0 
-6.936683242555e-03 -1.666572135040e+02 0.0 
0.0 0.0 -7.085307183601e+01 
-7.090907179548e+01 -2.944274923874e-02 0.0 
-2.944274923874e-02 -1.666927417788e+02 0.0 
0.0 0.0 -7.088054407228e+01 
-7.086094869242e+01 6.002206989123e-01 0.0 
6.002206989123e-01 -1.681725588740e+02 0.0 
0.0 0.0 -7.131005226992e+01 
-7.085387849130e+01 -1.730571995472e-02 0.0 
-1.730571995472e-02 -1.667396327772e+02 0.0 
0.0 0.0 -7.087805338056e+01 
-7.083923833961e+01 3.982403643490e-02 0.0 
3.982403643490e-02 -1.666946961781e+02 0.0 
0.0 0.0 -7.086018035533e+01 
-6.908006387443e+01 -5.533391157548e-02 0.0 
-5.533391157548e-02 -1.616945560178e+02 0.0 
0.0 0.0 -6.883238596767e+01 
-7.083333533185e+01 9.065289053355e-03 0.0 
9.065289053355e-03 -1.666114494872e+02 0.0 
0.0 0.0 -7.083343544571e+01 
-7.086739343331e+01 -1.745569946748e-02 0.0 
-1.745569946748e-02 -1.666447162730e+02 0.0 
0.0 0.0 -7.085363291190e+01 
-7.165762184536e+01 -9.340618097730e-02 0.0 
-9.340618097730e-02 -1.672220904967e+02 0.0 
0.0 0.0 -7.126391370263e+01 
-7.082758510406e+01 -2.122860046504e-02 0.0 
-2.122860046504e-02 -1.666385689056e+02 0.0 
0.0 0.0 -7.083984620289e+01 
-7.080927755441e+01 -4.722076732282e-02 0.0 
-4.722076732282e-02 -1.666547485048e+02 0.0 
0.0 0.0 -7.083920781776e+01 
-7.081508685749e+01 -2.733302817823e-02 0.0 
-2.733302817823e-02 -1.667023548159e+02 0.0 
0.0 0.0 -7.085523250203e+01 
-7.078966269909e+01 -8.181195711335e-03 0.0 
-8.181195711335e-03 -1.666751983370e+02 0.0 
0.0 0.0 -7.083945831081e+01 
-7.079780268230e+01 -1.306091796591e-02 0.0 
-1.306091796591e-02 -1.666643023360e+02 0.0 
0.0 0.0 -7.083863150549e+01 
-7.280523780598e+01 -8.312764739822e-02 0.0 
-8.312764739822e-02 -1.694935125268e+02 0.0 
0.0 0.0 -7.228962509984e+01 
-7.081934694608e+01 -8.693814628729e-03 0.0 
-8.693814628729e-03 -1.666665690887e+02 0.0 
0.0 0.0 -7.084577481044e+01 
-7.078483042445e+01 -1.806013960385e-02 0.0 
-1.806013960385e-02 -1.666448669295e+02 0.0 
0.0 0.0 -7.082890920620e+01 
-7.078120458141e+01 -5.091806411165e-03 0.0 
-5.091806411165e-03 -1.666903168063e+02 0.0 
0.0 0.0 -7.084145641632e+01 
-7.077230332509e+01 -2.531475760227e-02 0.0 
-2.531475760227e-02 -1.666495480635e+02 0.0 
0.0 0.0 -7.082655541658e+01 
-7.073051580338e+01 -4.290488719056e-02 0.0 
-4.290488719056e-02 -1.662815994870e+02 0.0 
0.0 0.0 -7.070363458712e+01 
-7.055489849984e+01 9.111033815198e-02 0.0 
9.111033815198e-02 -1.665050580159e+02 0.0 
0.0 0.0 -7.071798695473e+01 
-7.076929444410e+01 -1.048240015406e-01 0.0 
-1.048240015406e-01 -1.670357700657e+02 0.0 
0.0 0.0 -7.094151935294e+01 
-7.123800160391e+01 -3.047034498690e-01 0.0 
-3.047034498690e-01 -1.667711526702e+02 0.0 
0.0 0.0 -7.100274628223e+01 
-6.943224674073e+01 1.412197782066e-01 0.0 
1.412197782066e-01 -1.610921297912e+02 0.0 
0.0 0.0 -6.875731295957e+01 
-7.132679310692e+01 1.442555569042e+00 0.0 
1.442555569042e+00 -1.662618045450e+02 0.0 
0.0 0.0 -7.087657929557e+01 
-7.094737344122e+01 -1.472934543448e+00 0.0 
-1.472934543448e+00 -1.684687687857e+02 0.0 
0.0 0.0 -7.142484266807e+01 
-6.890105861195e+01 1.251590923234e-01 0.0 
1.251590923234e-01 -1.622237837965e+02 0.0 
0.0 0.0 -6.893745272254e+01 
-7.326919769540e+01 -2.173310591691e-01 0.0 
-2.173310591691e-01 -1.723088853477e+02 0.0 
0.0 0.0 -7.327342491292e+01 
-6.898819862684e+01 8.523575235616e-02 0.0 
8.523575235616e-02 -1.609137457270e+02 0.0 
0.0 0.0 -6.857058330616e+01 
-7.857025642835e+01 4.628068484612e-01 0.0 
4.628068484612e-01 -1.850551714923e+02 0.0 
0.0 0.0 -7.868762837620e+01 
-7.945014188670e+01 1.958400513344e-02 0.0 
1.958400513344e-02 -1.863278712682e+02 0.0 
0.0 0.0 -7.933340394648e+01 
-7.928880902527e+01 5.544939494804e-02 0.0 
5.544939494804e-02 -1.862652217493e+02 0.0 
0.0 0.0 -7.926620923236e+01 
-7.924725682743e+01 4.046789013076e-02 0.0 
4.046789013076e-02 -1.863518465783e+02 0.0 
0.0 0.0 -7.927973102171e+01 
-7.934160931247e+01 7.415383033767e-04 0.0 
7.415383033767e-04 -1.863816331194e+02 0.0 
0.0 0.0 -7.931697272956e+01 
-7.932038814208e+01 -2.871811353469e-02 0.0 
-2.871811353469e-02 -1.865042360964e+02 0.0 
0.0 0.0 -7.934738727155e+01 
-7.936762850689e+01 5.983331237146e-02 0.0 
5.983331237146e-02 -1.865538878297e+02 0.0 
0.0 0.0 -7.937645490098e+01 
-7.942866741089e+01 8.700357714721e-02 0.0 
8.700357714721e-02 -1.864311636907e+02 0.0 
0.0 0.0 -7.935794933046e+01 
-7.935935857107e+01 -8.263590844263e-03 0.0 
-8.263590844263e-03 -1.863622922449e+02 0.0 
0.0 0.0 -7.931649524480e+01 
-7.939776162048e+01 -5.206438239982e-02 0.0 
-5.206438239982e-02 -1.864940680135e+02 0.0 
0.0 0.0 -7.936754889019e+01 
-7.937122397125e+01 1.000215256627e-02 0.0 
1.000215256627e-02 -1.865150958670e+02 0.0 
0.0 0.0 -7.936589595148e+01 
-7.935219124160e+01 2.729363927034e-02 0.0 
2.729363927034e-02 -1.864666025253e+02 0.0 
0.0 0.0 -7.934563813006e+01 
-7.924520924891e+01 6.540472875288e-01 0.0 
6.540472875288e-01 -1.878388944267e+02 0.0 
0.0 0.0 -7.972523110269e+01 
-7.937849078373e+01 -9.806645662183e-03 0.0 
-9.806645662183e-03 -1.864547194180e+02 0.0 
0.0 0.0 -7.934996306053e+01 
-7.949052433818e+01 -1.695545149113e-01 0.0 
-1.695545149113e-01 -1.867688719217e+02 0.0 
0.0 0.0 -7.947781887796e+01 
-7.969306283711e+01 -8.849635933791e-02 0.0 
-8.849635933791e-02 -1.866185741446e+02 0.0 
0.0 0.0 -7.949349109452e+01 
-7.934354799031e+01 -1.135050201617e-02 0.0 
-1.135050201617e-02 -1.865380853631e+02 0.0 
0.0 0.0 -7.936449000603e+01 
-7.922465384514e+01 4.529338932166e-02 0.0 
4.529338932166e-02 -1.864005416663e+02 0.0 
0.0 0.0 -7.928755865343e+01 
-7.931739536850e+01 -4.888382685658e-02 0.0 
-4.888382685658e-02 -1.863613874551e+02 0.0 
0.0 0.0 -7.930363484710e+01 
-7.923893685320e+01 -7.788809767075e-02 0.0 
-7.788809767075e-02 -1.864427199980e+02 0.0 
0.0 0.0 -7.930449705536e+01 
-7.931621003163e+01 -3.882795361828e-02 0.0 
-3.882795361828e-02 -1.865042576183e+02 0.0 
0.0 0.0 -7.934614029497e+01 
-7.937366303891e+01 -5.309987589419e-02 0.0 
-5.309987589419e-02 -1.865364961129e+02 0.0 
0.0 0.0 -7.937304774555e+01 
-7.750756652338e+01 -9.486853932012e-02 0.0 
-9.486853932012e-02 -1.814001374823e+02 0.0 
0.0 0.0 -7.727231120170e+01 
-7.930722108540e+01 -1.638049423807e-02 0.0 
-1.638049423807e-02 -1.865495012384e+02 0.0 
0.0 0.0 -7.935701669713e+01 
-7.935722125445e+01 1.136880901913e-02 0.0 
1.136880901913e-02 -1.864875841354e+02 0.0 
0.0 0.0 -7.935344161697e+01 
-7.928002913291e+01 -3.991669178285e-02 0.0 
-3.991669178285e-02 -1.864081608580e+02 0.0 
0.0 0.0 -7.930645699726e+01 
-7.942053608239e+01 -6.568571381140e-02 0.0 
-6.568571381140e-02 -1.864704322101e+02 0.0 
0.0 0.0 -7.936729048773e+01 
-7.946769775258e+01 -1.710664069834e-01 0.0 
-1.710664069834e-01 -1.865410967307e+02 0.0 
0.0 0.0 -7.940263834498e+01 
-7.922556097421e+01 -9.818758064220e-02 0.0 
-9.818758064220e-02 -1.863738159114e+02 0.0 
0.0 0.0 -7.927981306570e+01 
-7.915170071341e+01 -8.323333587917e-02 0.0 
-8.323333587917e-02 -1.865642631809e+02 0.0 
0.0 0.0 -7.931478916830e+01 
-8.124851225625e+01 -8.154224886121e-02 0.0 
-8.154224886121e-02 -1.892389888970e+02 0.0 
0.0 0.0 -8.074625034596e+01 
-7.784905559063e+01 7.206731059749e-02 0.0 
7.206731059749e-02 -1.807522370776e+02 0.0 
0.0 0.0 -7.718038780046e+01 
-7.874622093861e+01 1.302172233635e+00 0.0 
1.302172233635e+00 -1.863499776615e+02 0.0 
0.0 0.0 -7.912885958004e+01 
-7.896640308742e+01 -1.572643709190e+00 0.0 
-1.572643709190e+00 -1.850535590815e+02 0.0 
0.0 0.0 -7.880598865067e+01 
-8.093146359208e+01 -7.282256949855e-02 0.0 
-7.282256949855e-02 -1.908629725129e+02 0.0 
0.0 0.0 -8.113833083148e+01 
-7.687514616213e+01 -2.542277792224e-01 0.0 
-2.542277792224e-01 -1.807227651034e+02 0.0 
0.0 0.0 -7.687937337964e+01 
-7.744040958919e+01 1.210204460395e-01 0.0 
1.210204460395e-01 -1.807152618990e+02 0.0 
0.0 0.0 -7.704670144646e+01 

TENSORS element_materi_strain_total float
-1.583489021773e-05 3.545234291397e-05 0.0 
3.545234291397e-05 2.436137898137e-03 0.0 
0.0 0.0 0.0 
1.216559706729e-05 -4.039399457052e-05 0.0 
-4.039399457052e-05 2.381484347100e-03 0.0 
0.0 0.0 0.0 
5.735381766847e-06 -4.699766015538e-06 0.0 
-4.699766015538e-06 7.798149416825e-03 0.0 
0.0 0.0 0.0 
-1.749462029577e-06 -2.669164553234e-05 0.0 
-2.669164553234e-05 7.722469070785e-03 0.0 
0.0 0.0 0.0 
-5.899045572022e-07 3.500171004910e-05 0.0 
3.500171004910e-05 4.777430696128e-03 0.0 
0.0 0.0 0.0 
-1.193308107661e-05 3.751035883305e-05 0.0 
3.751035883305e-05 8.506050024939e-04 0.0 
0.0 0.0 0.0 
4.104680466410e-06 4.098742716917e-05 0.0 
4.098742716917e-05 4.783150950023e-03 0.0 
0.0 0.0 0.0 
-2.658095617281e-06 6.127967382745e-06 0.0 
6.127967382745e-06 2.322718785651e-03 0.0 
0.0 0.0 0.0 
-1.491377717877e-06 -4.398692433702e-05 0.0 
-4.398692433702e-05 4.792232151925e-03 0.0 
0.0 0.0 0.0 
1.393721450027e-06 3.412859935540e-05 0.0 
3.412859935540e-05 7.686968541432e-03 0.0 
0.0 0.0 0.0 
2.368695767085e-06 2.254403243454e-05 0.0 
2.254403243454e-05 5.285748162251e-03 0.0 
0.0 0.0 0.0 
-2.517167527638e-06 -4.181830701198e-07 0.0 
-4.181830701198e-07 2.027540490054e-03 0.0 
0.0 0.0 0.0 
2.170214840280e-06 3.440937544452e-05 0.0 
3.440937544452e-05 7.734052998434e-03 0.0 
0.0 0.0 0.0 
1.454429234826e-06 2.823916999767e-05 0.0 
2.823916999767e-05 5.135573542624e-03 0.0 
0.0 0.0 0.0 
3.788262676885e-07 -2.799076774528e-05 0.0 
-2.799076774528e-05 7.912023596515e-03 0.0 
0.0 0.0 0.0 
-4.612228770795e-06 3.105159281909e-05 0.0 
3.105159281909e-05 7.896603779530e-03 0.0 
0.0 0.0 0.0 
-4.452827360280e-06 5.970316748053e-07 0.0 
5.970316748053e-07 4.683512596338e-03 0.0 
0.0 0.0 0.0 
-5.284480362189e-07 -2.829749533184e-05 0.0 
-2.829749533184e-05 8.341078417557e-04 0.0 
0.0 0.0 0.0 
-1.020129105023e-05 -1.759991756661e-05 0.0 
-1.759991756661e-05 1.513013466374e-03 0.0 
0.0 0.0 0.0 
7.261025463112e-07 1.717291359329e-05 0.0 
1.717291359329e-05 1.571055845934e-03 0.0 
0.0 0.0 0.0 
4.120702591370e-06 -3.472432631790e-05 0.0 
-3.472432631790e-05 7.698535938887e-03 0.0 
0.0 0.0 0.0 
6.629149038595e-07 1.382150009559e-05 0.0 
1.382150009559e-05 2.726315653180e-03 0.0 
0.0 0.0 0.0 
-1.968680136910e-06 -1.539062093750e-05 0.0 
-1.539062093750e-05 2.962914287245e-03 0.0 
0.0 0.0 0.0 
7.671544877130e-07 -2.333872891720e-05 0.0 
-2.333872891720e-05 7.419035600915e-03 0.0 
0.0 0.0 0.0 
3.824003959041e-06 3.338371091190e-05 0.0 
3.338371091190e-05 5.507382461551e-03 0.0 
0.0 0.0 0.0 
9.275146872767e-09 -2.215022059342e-05 0.0 
-2.215022059342e-05 5.574344037896e-03 0.0 
0.0 0.0 0.0 
6.015872457965e-07 -2.953955039249e-06 0.0 
-2.953955039249e-06 4.311324792866e-03 0.0 
0.0 0.0 0.0 
-2.685163579486e-06 2.048913015154e-06 0.0 
2.048913015154e-06 7.835773360432e-03 0.0 
0.0 0.0 0.0 
8.522552534806e-07 -3.872027213343e-05 0.0 
-3.872027213343e-05 5.513588451134e-03 0.0 
0.0 0.0 0.0 
-3.272012803257e-06 2.273445216633e-05 0.0 
2.273445216633e-05 7.597721470156e-03 0.0 
0.0 0.0 0.0 
1.462719274148e-06 6.527833072398e-06 0.0 
6.527833072398e-06 1.133869987586e-03 0.0 
0.0 0.0 0.0 
4.477598716912e-06 4.916705271482e-06 0.0 
4.916705271482e-06 4.102950289488e-04 0.0 
0.0 0.0 0.0 
-9.185314240434e-06 8.496669245482e-06 0.0 
8.496669245482e-06 7.815569100379e-03 0.0 
0.0 0.0 0.0 
1.111710639545e-06 -2.811411399898e-05 0.0 
-2.811411399898e-05 6.641580803258e-03 0.0 
0.0 0.0 0.0 
7.714647450197e-06 -3.187337892094e-05 0.0 
-3.187337892094e-05 7.714066116649e-03 0.0 
0.0 0.0 0.0 
-5.832703340647e-06 5.891017323666e-05 0.0 
5.891017323666e-05 8.109282987470e-03 0.0 
0.0 0.0 0.0 
-1.506352713232e-06 -6.235332273369e-05 0.0 
-6.235332273369e-05 8.101800807232e-03 0.0 
0.0 0.0 0.0 
4.233406954990e-06 2.666685776055e-05 0.0 
2.666685776055e-05 7.748470167215e-03 0.0 
0.0 0.0 0.0 
3.741004104052e-06 -4.849475583786e-05 0.0 
-4.849475583786e-05 4.372340480248e-03 0.0 
0.0 0.0 0.0 
2.469016061379e-06 5.430560674614e-05 0.0 
5.430560674614e-05 4.389194034146e-03 0.0 
0.0 0.0 0.0 
2.705705131056e-07 -2.098396315948e-05 0.0 
-2.098396315948e-05 3.404035970736e-03 0.0 
0.0 0.0 0.0 
5.443928089877e-06 1.415154180609e-06 0.0 
1.415154180609e-06 7.820685139362e-03 0.0 
0.0 0.0 0.0 
-6.093782906058e-07 3.299229414726e-05 0.0 
3.299229414726e-05 1.731443376223e-03 0.0 
0.0 0.0 0.0 
3.737512009439e-06 8.270354047725e-06 0.0 
8.270354047725e-06 4.325633955202e-03 0.0 
0.0 0.0 0.0 
-3.655462223251e-06 -1.498575468756e-05 0.0 
-1.498575468756e-05 7.482923394785e-03 0.0 
0.0 0.0 0.0 
-6.164978814116e-07 -2.955492158006e-05 0.0 
-2.955492158006e-05 1.725745899970e-03 0.0 
0.0 0.0 0.0 
2.321446217923e-06 1.545602806518e-06 0.0 
1.545602806518e-06 7.957169233606e-04 0.0 
0.0 0.0 0.0 
4.387175145171e-06 9.608931322099e-06 0.0 
9.608931322099e-06 7.519406733772e-03 0.0 
0.0 0.0 0.0 
5.481085332937e-06 3.484727385401e-06 0.0 
3.484727385401e-06 4.084130183040e-04 0.0 
0.0 0.0 0.0 
6.362684832562e-06 -2.774355255513e-05 0.0 
-2.774355255513e-05 4.948070744159e-03 0.0 
0.0 0.0 0.0 
-1.563509239189e-06 -1.742616763169e-05 0.0 
-1.742616763169e-05 3.188522565606e-03 0.0 
0.0 0.0 0.0 
1.960513184018e-06 -1.026778589123e-05 0.0 
-1.026778589123e-05 1.931884535574e-03 0.0 
0.0 0.0 0.0 
-1.427145334909e-06 -2.183385695899e-05 0.0 
-2.183385695899e-05 1.631388014741e-03 0.0 
0.0 0.0 0.0 
2.062723203133e-06 1.948278590575e-05 0.0 
1.948278590575e-05 3.162237709679e-03 0.0 
0.0 0.0 0.0 
4.734089281477e-06 -1.233035754989e-06 0.0 
-1.233035754989e-06 7.832519750820e-03 0.0 
0.0 0.0 0.0 
-2.615504368642e-06 -2.194270973839e-05 0.0 
-2.194270973839e-05 2.598462267721e-03 0.0 
0.0 0.0 0.0 
2.747670769354e-06 2.230491641689e-05 0.0 
2.230491641689e-05 2.001598978000e-03 0.0 
0.0 0.0 0.0 
-2.253339164149e-07 2.783590169793e-05 0.0 
2.783590169793e-05 6.643121247833e-03 0.0 
0.0 0.0 0.0 
1.571520910515e-06 3.521223563339e-06 0.0 
3.521223563339e-06 1.123731086468e-03 0.0 
0.0 0.0 0.0 
-1.880377751062e-06 -3.143318257101e-05 0.0 
-3.143318257101e-05 7.897493220875e-03 0.0 
0.0 0.0 0.0 
1.487753397145e-06 -2.044083832312e-05 0.0 
-2.044083832312e-05 3.413141670412e-04 0.0 
0.0 0.0 0.0 
1.223439731968e-06 3.477456894089e-05 0.0 
3.477456894089e-05 7.414760480167e-03 0.0 
0.0 0.0 0.0 
-3.191307446082e-07 3.462194386125e-05 0.0 
3.462194386125e-05 3.179918033497e-03 0.0 
0.0 0.0 0.0 
3.299304213389e-06 1.919039558056e-05 0.0 
1.919039558056e-05 1.445842289684e-03 0.0 
0.0 0.0 0.0 
1.094627084308e-06 -2.788196997695e-05 0.0 
-2.788196997695e-05 7.726019850459e-03 0.0 
0.0 0.0 0.0 
-2.504568187622e-06 1.569690104887e-05 0.0 
1.569690104887e-05 2.936000236746e-03 0.0 
0.0 0.0 0.0 
8.411519349494e-06 4.699646321510e-06 0.0 
4.699646321510e-06 3.155201000709e-04 0.0 
0.0 0.0 0.0 
-1.052884393338e-06 -1.207057509436e-05 0.0 
-1.207057509436e-05 7.806817210396e-03 0.0 
0.0 0.0 0.0 
-1.075810188267e-06 -3.159467351982e-05 0.0 
-3.159467351982e-05 1.229329750497e-03 0.0 
0.0 0.0 0.0 
2.695351150495e-06 -5.308461879375e-07 0.0 
-5.308461879375e-07 7.827032438159e-03 0.0 
0.0 0.0 0.0 
1.841607854880e-06 -2.588870431042e-05 0.0 
-2.588870431042e-05 5.803990934121e-03 0.0 
0.0 0.0 0.0 
0.0 -7.979770868657e-07 0.0 
-7.979770868657e-07 8.185113645137e-03 0.0 
0.0 0.0 0.0 
-1.350046220372e-06 2.793140972121e-07 0.0 
2.793140972121e-07 7.515291983810e-03 0.0 
0.0 0.0 0.0 
-1.372930897481e-05 2.763379974877e-05 0.0 
2.763379974877e-05 5.144870590430e-04 0.0 
0.0 0.0 0.0 
-2.663043993101e-06 2.328801400796e-05 0.0 
2.328801400796e-05 2.715120881267e-03 0.0 
0.0 0.0 0.0 
2.585485680440e-06 -2.648011900166e-05 0.0 
-2.648011900166e-05 7.757012600902e-03 0.0 
0.0 0.0 0.0 
-4.194177348538e-06 -8.534752983322e-07 0.0 
-8.534752983322e-07 7.836148292784e-03 0.0 
0.0 0.0 0.0 
-1.219547573705e-06 -3.201449372854e-05 0.0 
-3.201449372854e-05 1.287289872647e-03 0.0 
0.0 0.0 0.0 
8.055616861791e-06 -1.486775776896e-06 0.0 
-1.486775776896e-06 1.127585599703e-03 0.0 
0.0 0.0 0.0 
-3.386472659406e-06 2.932198099861e-05 0.0 
2.932198099861e-05 1.289890151681e-03 0.0 
0.0 0.0 0.0 
-3.248600027206e-06 3.285805767992e-05 0.0 
3.285805767992e-05 1.219416941201e-03 0.0 
0.0 0.0 0.0 
4.990499247182e-06 4.768183070646e-06 0.0 
4.768183070646e-06 4.676187801954e-03 0.0 
0.0 0.0 0.0 
-5.459319063816e-06 -1.528018999030e-05 0.0 
-1.528018999030e-05 2.755920865343e-03 0.0 
0.0 0.0 0.0 
-3.313654118542e-06 2.964853558900e-06 0.0 
2.964853558900e-06 2.469342715840e-03 0.0 
0.0 0.0 0.0 
-6.125362656317e-06 -3.771855280321e-05 0.0 
-3.771855280321e-05 5.014375856524e-03 0.0 
0.0 0.0 0.0 
-2.291842952196e-06 3.386284687097e-05 0.0 
3.386284687097e-05 5.013647777266e-03 0.0 
0.0 0.0 0.0 
-1.021701049653e-06 -2.819299041715e-05 0.0 
-2.819299041715e-05 5.989413730936e-03 0.0 
0.0 0.0 0.0 
7.859914696873e-07 2.961119238476e-05 0.0 
2.961119238476e-05 6.459406871377e-03 0.0 
0.0 0.0 0.0 
-5.665117773779e-07 -3.200694132808e-05 0.0 
-3.200694132808e-05 6.646146346365e-03 0.0 
0.0 0.0 0.0 
1.420833058763e-06 -4.486859042477e-05 0.0 
-4.486859042477e-05 4.759634653432e-03 0.0 
0.0 0.0 0.0 
2.138482584346e-06 7.111958428996e-06 0.0 
7.111958428996e-06 4.086014671760e-04 0.0 
0.0 0.0 0.0 
1.338844029419e-06 3.037105645725e-06 0.0 
3.037105645725e-06 4.704625145621e-03 0.0 
0.0 0.0 0.0 
-3.255960090431e-06 -1.683855645923e-05 0.0 
-1.683855645923e-05 6.486278731334e-03 0.0 
0.0 0.0 0.0 
2.742084759255e-07 1.710017961432e-05 0.0 
1.710017961432e-05 6.407235913242e-03 0.0 
0.0 0.0 0.0 
-2.594745604378e-06 -3.315518789021e-06 0.0 
-3.315518789021e-06 8.188872555844e-03 0.0 
0.0 0.0 0.0 
-1.857724871601e-06 -2.278486912809e-05 0.0 
-2.278486912809e-05 7.961083028336e-03 0.0 
0.0 0.0 0.0 
5.465674475458e-06 -1.686494366926e-05 0.0 
-1.686494366926e-05 4.665571589209e-03 0.0 
0.0 0.0 0.0 
-6.607296390682e-06 -4.021435859793e-07 0.0 
-4.021435859793e-07 7.827700073013e-03 0.0 
0.0 0.0 0.0 
2.931943134055e-06 -2.360600759048e-05 0.0 
-2.360600759048e-05 5.435302938536e-03 0.0 
0.0 0.0 0.0 
1.284399459234e-06 -2.089652351023e-05 0.0 
-2.089652351023e-05 3.028298320548e-03 0.0 
0.0 0.0 0.0 
3.310406792023e-06 -2.772591506117e-05 0.0 
-2.772591506117e-05 4.573814480946e-03 0.0 
0.0 0.0 0.0 
-3.859716525390e-06 2.943430721540e-05 0.0 
2.943430721540e-05 7.908437409386e-03 0.0 
0.0 0.0 0.0 
6.359062632022e-07 -3.389332872173e-05 0.0 
-3.389332872173e-05 6.364795862918e-03 0.0 
0.0 0.0 0.0 
-9.414178541167e-07 -3.280562412152e-05 0.0 
-3.280562412152e-05 7.425522459482e-03 0.0 
0.0 0.0 0.0 
-7.730656235161e-07 -3.128809037184e-05 0.0 
-3.128809037184e-05 2.731490995498e-03 0.0 
0.0 0.0 0.0 
5.611788330917e-06 1.056675347879e-05 0.0 
1.056675347879e-05 7.811468503736e-04 0.0 
0.0 0.0 0.0 
1.110122261894e-06 -3.044106541296e-05 0.0 
-3.044106541296e-05 7.287674295041e-03 0.0 
0.0 0.0 0.0 
-3.257588303440e-06 1.107674919695e-05 0.0 
1.107674919695e-05 6.815547091918e-03 0.0 
0.0 0.0 0.0 
7.998143952470e-06 -3.194957337411e-06 0.0 
-3.194957337411e-06 3.991327563360e-04 0.0 
0.0 0.0 0.0 
9.287264572722e-06 -1.320014774040e-05 0.0 
-1.320014774040e-05 7.852110971236e-03 0.0 
0.0 0.0 0.0 
-1.015123814230e-06 2.791527631593e-05 0.0 
2.791527631593e-05 6.388112107391e-03 0.0 
0.0 0.0 0.0 
-1.397263465752e-05 -3.822443946334e-05 0.0 
-3.822443946334e-05 3.220500420495e-04 0.0 
0.0 0.0 0.0 
4.137684264105e-07 3.186867114743e-05 0.0 
3.186867114743e-05 3.696432207908e-03 0.0 
0.0 0.0 0.0 
1.431592660195e-06 -2.257395989567e-05 0.0 
-2.257395989567e-05 4.266443724494e-03 0.0 
0.0 0.0 0.0 
-1.786445061991e-06 -1.091173168924e-05 0.0 
-1.091173168924e-05 3.327947779582e-03 0.0 
0.0 0.0 0.0 
4.594839552619e-06 2.557003009312e-05 0.0 
2.557003009312e-05 2.758073598871e-03 0.0 
0.0 0.0 0.0 
1.692438649226e-07 -3.408677040124e-05 0.0 
-3.408677040124e-05 3.185065726765e-03 0.0 
0.0 0.0 0.0 
-3.634856045043e-06 1.673549724030e-05 0.0 
1.673549724030e-05 7.863378196941e-03 0.0 
0.0 0.0 0.0 
6.146835559662e-06 2.835065579684e-05 0.0 
2.835065579684e-05 5.291990532929e-03 0.0 
0.0 0.0 0.0 
1.027122327635e-06 3.608317548473e-05 0.0 
3.608317548473e-05 2.948390533505e-03 0.0 
0.0 0.0 0.0 
-4.964073881508e-06 -3.582032829066e-05 0.0 
-3.582032829066e-05 1.168246859426e-03 0.0 
0.0 0.0 0.0 
3.726867681797e-06 1.941310662740e-05 0.0 
1.941310662740e-05 4.676165022321e-03 0.0 
0.0 0.0 0.0 
7.828994134096e-06 -1.402725829909e-05 0.0 
-1.402725829909e-05 6.849927505217e-03 0.0 
0.0 0.0 0.0 
-2.906499818600e-08 -3.822857749795e-05 0.0 
-3.822857749795e-05 2.951961032149e-03 0.0 
0.0 0.0 0.0 
-4.339123081509e-06 -2.587169432784e-05 0.0 
-2.587169432784e-05 8.510055241291e-04 0.0 
0.0 0.0 0.0 
-2.201124482681e-08 -2.338925597842e-05 0.0 
-2.338925597842e-05 3.835835351114e-03 0.0 
0.0 0.0 0.0 
-7.247292893475e-06 1.098273942289e-05 0.0 
1.098273942289e-05 3.298355712831e-03 0.0 
0.0 0.0 0.0 
1.286622115071e-06 2.353418185070e-05 0.0 
2.353418185070e-05 3.605678205679e-03 0.0 
0.0 0.0 0.0 
-3.060345682426e-07 2.518419313965e-05 0.0 
2.518419313965e-05 7.925504593958e-03 0.0 
0.0 0.0 0.0 
-1.051909532201e-05 2.546094175620e-05 0.0 
2.546094175620e-05 1.025030940690e-03 0.0 
0.0 0.0 0.0 
2.153165419960e-06 2.563485628955e-05 0.0 
2.563485628955e-05 5.550913625631e-03 0.0 
0.0 0.0 0.0 
-4.612246730873e-06 3.496591321321e-05 0.0 
3.496591321321e-05 7.724304267386e-03 0.0 
0.0 0.0 0.0 
-7.020930856694e-07 2.690373060860e-05 0.0 
2.690373060860e-05 3.881802619485e-03 0.0 
0.0 0.0 0.0 
-2.986811554750e-07 -2.380915806970e-05 0.0 
-2.380915806970e-05 3.625784318637e-03 0.0 
0.0 0.0 0.0 
4.003988185675e-06 3.830020091200e-05 0.0 
3.830020091200e-05 7.715476727220e-03 0.0 
0.0 0.0 0.0 
1.471774908390e-06 -4.002325542524e-05 0.0 
-4.002325542524e-05 7.748263761604e-03 0.0 
0.0 0.0 0.0 
-1.032458755268e-06 2.701765632032e-05 0.0 
2.701765632032e-05 5.990908843787e-03 0.0 
0.0 0.0 0.0 
-9.058653843708e-07 -2.664223002978e-05 0.0 
-2.664223002978e-05 4.117191358405e-03 0.0 
0.0 0.0 0.0 
-5.139435629298e-07 1.097925054134e-05 0.0 
1.097925054134e-05 7.858184103101e-03 0.0 
0.0 0.0 0.0 
-6.826267076043e-07 2.725484206121e-05 0.0 
2.725484206121e-05 3.714775977586e-03 0.0 
0.0 0.0 0.0 
8.875814475173e-06 -1.291151762188e-06 0.0 
-1.291151762188e-06 7.834945750521e-03 0.0 
0.0 0.0 0.0 
-2.705408948422e-06 1.169880438910e-05 0.0 
1.169880438910e-05 7.841124798489e-03 0.0 
0.0 0.0 0.0 
-6.459126492553e-07 -4.121279248740e-05 0.0 
-4.121279248740e-05 5.121781818246e-03 0.0 
0.0 0.0 0.0 
3.284699169770e-06 2.960224448272e-05 0.0 
2.960224448272e-05 5.959416364429e-03 0.0 
0.0 0.0 0.0 
-7.985313403847e-07 -2.784956165203e-05 0.0 
-2.784956165203e-05 3.717091824858e-03 0.0 
0.0 0.0 0.0 
-2.199644549616e-06 2.451073098760e-05 0.0 
2.451073098760e-05 3.390336230897e-03 0.0 
0.0 0.0 0.0 
-1.217265534925e-06 2.763668986587e-05 0.0 
2.763668986587e-05 4.279970814742e-03 0.0 
0.0 0.0 0.0 
-5.829546735336e-07 -2.581804699574e-05 0.0 
-2.581804699574e-05 3.144855303840e-03 0.0 
0.0 0.0 0.0 
1.101435495920e-06 -3.012437999373e-05 0.0 
-3.012437999373e-05 4.636214379509e-03 0.0 
0.0 0.0 0.0 
-4.670970047416e-07 -3.310932233238e-05 0.0 
-3.310932233238e-05 3.704401413571e-03 0.0 
0.0 0.0 0.0 
5.366075815472e-06 -1.332415395101e-05 0.0 
-1.332415395101e-05 3.925685302097e-04 0.0 
0.0 0.0 0.0 
-1.312017415711e-06 -2.119861602932e-06 0.0 
-2.119861602932e-06 4.962337619629e-03 0.0 
0.0 0.0 0.0 
-1.025809847965e-05 9.776522308174e-08 0.0 
9.776522308174e-08 1.155150464618e-03 0.0 
0.0 0.0 0.0 
-5.026732913249e-07 -2.362822903701e-05 0.0 
-2.362822903701e-05 4.053627719111e-03 0.0 
0.0 0.0 0.0 
5.503154450137e-06 4.947174516455e-07 0.0 
4.947174516455e-07 7.844748351432e-03 0.0 
0.0 0.0 0.0 
-2.168712394335e-06 3.485496876004e-05 0.0 
3.485496876004e-05 2.726605459570e-03 0.0 
0.0 0.0 0.0 
-6.592019319296e-08 3.114133934170e-05 0.0 
3.114133934170e-05 6.214603301841e-03 0.0 
0.0 0.0 0.0 
1.168744383939e-06 -3.403682273225e-05 0.0 
-3.403682273225e-05 1.942728749095e-03 0.0 
0.0 0.0 0.0 
6.444945346296e-07 3.607158465405e-05 0.0 
3.607158465405e-05 6.358470317456e-03 0.0 
0.0 0.0 0.0 
-3.352637252485e-06 8.960000623548e-07 0.0 
8.960000623548e-07 4.673939052291e-03 0.0 
0.0 0.0 0.0 
-3.528135853470e-07 3.160796337594e-05 0.0 
3.160796337594e-05 3.462478592197e-03 0.0 
0.0 0.0 0.0 
-3.603743107261e-07 -3.295670161015e-05 0.0 
-3.295670161015e-05 6.851573349005e-03 0.0 
0.0 0.0 0.0 
5.302429264997e-06 2.646127391518e-05 0.0 
2.646127391518e-05 1.156387248962e-03 0.0 
0.0 0.0 0.0 
3.105075769616e-06 3.352036009729e-05 0.0 
3.352036009729e-05 7.280909650833e-03 0.0 
0.0 0.0 0.0 
-1.861737232822e-06 2.731359012044e-05 0.0 
2.731359012044e-05 4.604218215069e-03 0.0 
0.0 0.0 0.0 
-4.341413880726e-06 1.883096769513e-06 0.0 
1.883096769513e-06 7.838458480848e-03 0.0 
0.0 0.0 0.0 
-1.197451858115e-06 3.661069562086e-06 0.0 
3.661069562086e-06 4.649494657876e-03 0.0 
0.0 0.0 0.0 
-1.179396723838e-06 2.467339241236e-05 0.0 
2.467339241236e-05 2.883279986782e-03 0.0 
0.0 0.0 0.0 
4.915745741352e-06 2.333763341338e-05 0.0 
2.333763341338e-05 4.035264662507e-03 0.0 
0.0 0.0 0.0 
-8.839080423151e-06 -1.903711982654e-05 0.0 
-1.903711982654e-05 5.313588206166e-03 0.0 
0.0 0.0 0.0 
-4.339425881628e-06 3.727392996537e-05 0.0 
3.727392996537e-05 1.962767512965e-03 0.0 
0.0 0.0 0.0 
-3.557829626466e-07 -3.248355143997e-05 0.0 
-3.248355143997e-05 3.471166576240e-03 0.0 
0.0 0.0 0.0 
-1.305413460995e-06 -3.543420550319e-05 0.0 
-3.543420550319e-05 6.189240633211e-03 0.0 
0.0 0.0 0.0 
-4.549033250201e-06 2.342384342837e-05 0.0 
2.342384342837e-05 4.646836814704e-03 0.0 
0.0 0.0 0.0 
-1.784011591788e-07 2.606652973201e-05 0.0 
2.606652973201e-05 3.281203752063e-03 0.0 
0.0 0.0 0.0 
-1.156536225899e-06 2.201064057584e-05 0.0 
2.201064057584e-05 3.818026939921e-03 0.0 
0.0 0.0 0.0 
1.345215350668e-06 3.159484168333e-05 0.0 
3.159484168333e-05 6.942781152756e-03 0.0 
0.0 0.0 0.0 
-1.796257546371e-06 -8.681082728352e-06 0.0 
-8.681082728352e-06 3.693156584012e-03 0.0 
0.0 0.0 0.0 
4.796386238404e-06 8.185804696414e-06 0.0 
8.185804696414e-06 7.840584967845e-03 0.0 
0.0 0.0 0.0 
-2.467386877703e-06 -5.193683345979e-06 0.0 
-5.193683345979e-06 7.833583405292e-03 0.0 
0.0 0.0 0.0 
4.593340616754e-07 -2.082476787813e-05 0.0 
-2.082476787813e-05 2.643305343121e-03 0.0 
0.0 0.0 0.0 
5.720938759834e-06 1.092839131367e-05 0.0 
1.092839131367e-05 3.714880612063e-03 0.0 
0.0 0.0 0.0 
-1.430393425816e-06 -2.990686120278e-05 0.0 
-2.990686120278e-05 7.058867833239e-03 0.0 
0.0 0.0 0.0 
-7.631523515350e-07 -2.399446547330e-05 0.0 
-2.399446547330e-05 3.556151941938e-03 0.0 
0.0 0.0 0.0 
-4.936001677724e-06 2.497828085041e-05 0.0 
2.497828085041e-05 2.362168767068e-03 0.0 
0.0 0.0 0.0 
-1.505599740659e-06 2.688238053496e-05 0.0 
2.688238053496e-05 4.432824643353e-03 0.0 
0.0 0.0 0.0 
-3.948101590101e-08 -2.582572615367e-05 0.0 
-2.582572615367e-05 3.546851795193e-03 0.0 
0.0 0.0 0.0 
-2.945468280502e-06 1.871855726059e-05 0.0 
1.871855726059e-05 7.822076241094e-03 0.0 
0.0 0.0 0.0 
-2.652103126000e-08 2.952693609516e-05 0.0 
2.952693609516e-05 6.447288714238e-03 0.0 
0.0 0.0 0.0 
1.037127629333e-06 3.482051489692e-05 0.0 
3.482051489692e-05 7.073131047419e-03 0.0 
0.0 0.0 0.0 
-1.625699286967e-06 -3.437524871487e-05 0.0 
-3.437524871487e-05 1.509385985843e-03 0.0 
0.0 0.0 0.0 
-3.751058612611e-07 -3.037496153187e-05 0.0 
-3.037496153187e-05 3.245984140971e-03 0.0 
0.0 0.0 0.0 
1.006067424036e-06 2.958260039508e-05 0.0 
2.958260039508e-05 6.630332098077e-03 0.0 
0.0 0.0 0.0 
8.899180774513e-06 -1.142022044591e-05 0.0 
-1.142022044591e-05 8.508230650217e-05 0.0 
0.0 0.0 0.0 
-1.921481177281e-06 2.356452753880e-05 0.0 
2.356452753880e-05 3.555244742628e-03 0.0 
0.0 0.0 0.0 
-5.285196058580e-08 -3.547462832097e-05 0.0 
-3.547462832097e-05 6.600085767370e-03 0.0 
0.0 0.0 0.0 
9.858975504429e-06 -9.538725132092e-06 0.0 
-9.538725132092e-06 7.694560863452e-04 0.0 
0.0 0.0 0.0 
5.731927038344e-06 3.588853636415e-05 0.0 
3.588853636415e-05 7.727927818321e-03 0.0 
0.0 0.0 0.0 
1.055292353058e-06 2.958910862751e-05 0.0 
2.958910862751e-05 5.902956803311e-03 0.0 
0.0 0.0 0.0 
3.235638716959e-07 2.887227697670e-05 0.0 
2.887227697670e-05 3.498247330610e-03 0.0 
0.0 0.0 0.0 
-6.583243606917e-07 3.631911974435e-05 0.0 
3.631911974435e-05 6.595204893442e-03 0.0 
0.0 0.0 0.0 
1.245841946274e-06 -1.685943377264e-06 0.0 
-1.685943377264e-06 5.018118112903e-03 0.0 
0.0 0.0 0.0 
7.241252050427e-06 -2.473509561994e-05 0.0 
-2.473509561994e-05 5.358660748846e-03 0.0 
0.0 0.0 0.0 
8.260254424908e-07 -2.184463034846e-05 0.0 
-2.184463034846e-05 7.586003457885e-03 0.0 
0.0 0.0 0.0 
1.124712469380e-06 3.139762386141e-05 0.0 
3.139762386141e-05 2.593220980695e-03 0.0 
0.0 0.0 0.0 
-8.752087822250e-07 2.836202514593e-05 0.0 
2.836202514593e-05 4.451775344619e-03 0.0 
0.0 0.0 0.0 
-1.277192362092e-06 2.683597328000e-05 0.0 
2.683597328000e-05 4.778953369728e-03 0.0 
0.0 0.0 0.0 
2.435492778563e-07 -2.938415075842e-05 0.0 
-2.938415075842e-05 6.142977337893e-03 0.0 
0.0 0.0 0.0 
-2.407601270349e-06 -2.785158255970e-05 0.0 
-2.785158255970e-05 4.833700847094e-03 0.0 
0.0 0.0 0.0 
-3.426783174998e-07 -2.470060537757e-05 0.0 
-2.470060537757e-05 4.432531731441e-03 0.0 
0.0 0.0 0.0 
-2.328961345999e-08 -3.030815427268e-05 0.0 
-3.030815427268e-05 5.708538467081e-03 0.0 
0.0 0.0 0.0 
-5.351426841660e-07 -3.156031069723e-05 0.0 
-3.156031069723e-05 6.755969755715e-03 0.0 
0.0 0.0 0.0 
1.341402698452e-05 -2.455558198900e-06 0.0 
-2.455558198900e-06 3.753956411829e-04 0.0 
0.0 0.0 0.0 
5.964986309559e-06 1.636803174791e-05 0.0 
1.636803174791e-05 2.647837713117e-03 0.0 
0.0 0.0 0.0 
-1.639519470520e-06 2.831172275648e-05 0.0 
2.831172275648e-05 3.020299071780e-03 0.0 
0.0 0.0 0.0 
-1.088424904649e-06 -2.726251298708e-05 0.0 
-2.726251298708e-05 4.287436921834e-03 0.0 
0.0 0.0 0.0 
-1.520408320355e-07 -3.202770213596e-05 0.0 
-3.202770213596e-05 6.699619381410e-03 0.0 
0.0 0.0 0.0 
1.844955514141e-06 2.936968050042e-05 0.0 
2.936968050042e-05 1.301413632520e-03 0.0 
0.0 0.0 0.0 
1.924782502272e-07 -3.387087540227e-05 0.0 
-3.387087540227e-05 6.362034379400e-03 0.0 
0.0 0.0 0.0 
1.743412367139e-06 -3.584264118699e-05 0.0 
-3.584264118699e-05 4.615367567188e-03 0.0 
0.0 0.0 0.0 
-6.180269459533e-07 2.968124270573e-05 0.0 
2.968124270573e-05 3.237528595068e-03 0.0 
0.0 0.0 0.0 
6.344310099493e-08 -3.220337190114e-05 0.0 
-3.220337190114e-05 6.127032994043e-03 0.0 
0.0 0.0 0.0 
-1.765511299368e-05 -2.645310093507e-05 0.0 
-2.645310093507e-05 4.872523540314e-04 0.0 
0.0 0.0 0.0 
6.282581710426e-07 3.081897736818e-05 0.0 
3.081897736818e-05 6.318530940732e-03 0.0 
0.0 0.0 0.0 
-8.197877756078e-06 1.215439138887e-05 0.0 
1.215439138887e-05 3.705504633051e-04 0.0 
0.0 0.0 0.0 
5.255390585379e-06 7.580643865453e-07 0.0 
7.580643865453e-07 7.807540479485e-04 0.0 
0.0 0.0 0.0 
2.609352200755e-06 3.444980905890e-05 0.0 
3.444980905890e-05 1.512865296872e-03 0.0 
0.0 0.0 0.0 
6.453246850224e-07 2.696364332762e-05 0.0 
2.696364332762e-05 2.172944179201e-03 0.0 
0.0 0.0 0.0 
1.907507218846e-08 -2.838426361570e-05 0.0 
-2.838426361570e-05 6.558423860426e-03 0.0 
0.0 0.0 0.0 
-8.624954150882e-08 -2.879025726606e-05 0.0 
-2.879025726606e-05 2.027875267407e-03 0.0 
0.0 0.0 0.0 
-5.641621690922e-07 2.575076852971e-05 0.0 
2.575076852971e-05 1.860694767912e-03 0.0 
0.0 0.0 0.0 
7.872156577715e-07 -2.654964110447e-05 0.0 
-2.654964110447e-05 1.561702542397e-03 0.0 
0.0 0.0 0.0 
-3.761871948393e-07 2.941615657307e-05 0.0 
2.941615657307e-05 1.333355442405e-03 0.0 
0.0 0.0 0.0 
-8.357646349433e-07 3.029670321611e-05 0.0 
3.029670321611e-05 6.817744888657e-03 0.0 
0.0 0.0 0.0 
-1.001287026514e-06 -2.876154094912e-05 0.0 
-2.876154094912e-05 4.606395441162e-03 0.0 
0.0 0.0 0.0 
1.110416654182e-07 3.772387482601e-05 0.0 
3.772387482601e-05 7.729636426359e-03 0.0 
0.0 0.0 0.0 
1.345542321873e-05 -7.772421090967e-07 0.0 
-7.772421090967e-07 9.553839440124e-05 0.0 
0.0 0.0 0.0 
-2.691084567408e-07 2.762216149748e-05 0.0 
2.762216149748e-05 2.252334746091e-03 0.0 
0.0 0.0 0.0 
-1.399448222861e-07 3.100633672363e-05 0.0 
3.100633672363e-05 3.653142573576e-03 0.0 
0.0 0.0 0.0 
-1.015992153519e-06 2.807133482522e-05 0.0 
2.807133482522e-05 3.315546917454e-03 0.0 
0.0 0.0 0.0 
-5.686457692500e-07 3.385592670823e-05 0.0 
3.385592670823e-05 6.357389072530e-03 0.0 
0.0 0.0 0.0 
-2.930025037151e-06 2.975034727895e-05 0.0 
2.975034727895e-05 7.875865308614e-03 0.0 
0.0 0.0 0.0 
-1.521273199634e-07 -3.138278315750e-05 0.0 
-3.138278315750e-05 6.279617867624e-03 0.0 
0.0 0.0 0.0 
-1.022143692131e-06 -2.923747386662e-05 0.0 
-2.923747386662e-05 2.612566724945e-03 0.0 
0.0 0.0 0.0 
-1.395768329804e-06 -2.931196368764e-05 0.0 
-2.931196368764e-05 6.818155021371e-03 0.0 
0.0 0.0 0.0 
-1.979137741803e-06 3.917835944019e-05 0.0 
3.917835944019e-05 5.763392417645e-03 0.0 
0.0 0.0 0.0 
-1.094911856403e-06 -2.719221519636e-05 0.0 
-2.719221519636e-05 4.514638916832e-03 0.0 
0.0 0.0 0.0 
1.062238033755e-06 3.111201037542e-05 0.0 
3.111201037542e-05 6.080648341762e-03 0.0 
0.0 0.0 0.0 
-7.813250954003e-07 -2.426876460783e-05 0.0 
-2.426876460783e-05 7.597711798412e-03 0.0 
0.0 0.0 0.0 
-4.602022638522e-07 -3.168647889981e-05 0.0 
-3.168647889981e-05 3.662358208886e-03 0.0 
0.0 0.0 0.0 
-7.131545908257e-07 -2.702640345225e-05 0.0 
-2.702640345225e-05 2.092555300725e-03 0.0 
0.0 0.0 0.0 
-1.785602901316e-06 -2.907822413465e-05 0.0 
-2.907822413465e-05 5.233152629899e-03 0.0 
0.0 0.0 0.0 
-1.910602746347e-06 1.506038569377e-05 0.0 
1.506038569377e-05 8.200034918789e-03 0.0 
0.0 0.0 0.0 
-6.437030654061e-07 -2.851759015055e-05 0.0 
-2.851759015055e-05 4.458942428413e-03 0.0 
0.0 0.0 0.0 
-2.681539381655e-07 -2.942768441498e-05 0.0 
-2.942768441498e-05 4.660188797637e-03 0.0 
0.0 0.0 0.0 
-3.238035489073e-06 -8.052401926789e-06 0.0 
-8.052401926789e-06 5.044316961217e-03 0.0 
0.0 0.0 0.0 
2.914806912058e-06 -1.804978157163e-05 0.0 
-1.804978157163e-05 1.096635813643e-03 0.0 
0.0 0.0 0.0 
-4.569447177416e-06 2.798491628214e-05 0.0 
2.798491628214e-05 4.824901395886e-03 0.0 
0.0 0.0 0.0 
-8.119430763287e-07 2.816203359445e-05 0.0 
2.816203359445e-05 2.603907261232e-03 0.0 
0.0 0.0 0.0 
-2.985997468397e-06 2.735079390071e-05 0.0 
2.735079390071e-05 1.732135174271e-03 0.0 
0.0 0.0 0.0 
1.262360356469e-06 -2.781370245718e-05 0.0 
-2.781370245718e-05 1.209429162048e-03 0.0 
0.0 0.0 0.0 
-2.326999145597e-07 2.963250439610e-05 0.0 
2.963250439610e-05 6.550952773478e-03 0.0 
0.0 0.0 0.0 
-1.752810812494e-06 -2.781768281394e-05 0.0 
-2.781768281394e-05 5.009998231166e-03 0.0 
0.0 0.0 0.0 
7.470538390120e-07 2.731645332157e-05 0.0 
2.731645332157e-05 3.136303513451e-03 0.0 
0.0 0.0 0.0 
-3.040558391731e-07 -2.934082264222e-05 0.0 
-2.934082264222e-05 6.789357631994e-03 0.0 
0.0 0.0 0.0 
8.538728968333e-07 -3.183211276405e-05 0.0 
-3.183211276405e-05 6.459767573033e-03 0.0 
0.0 0.0 0.0 
-1.224826248869e-06 -2.719650564611e-05 0.0 
-2.719650564611e-05 4.738540998472e-03 0.0 
0.0 0.0 0.0 
9.281517456827e-06 1.142730392355e-05 0.0 
1.142730392355e-05 7.868003016231e-03 0.0 
0.0 0.0 0.0 
-2.473235526379e-07 2.925714240171e-05 0.0 
2.925714240171e-05 4.836201547451e-03 0.0 
0.0 0.0 0.0 
-8.584123711852e-07 -2.792509550563e-05 0.0 
-2.792509550563e-05 4.961750023931e-03 0.0 
0.0 0.0 0.0 
3.275233377842e-07 -2.730466886676e-05 0.0 
-2.730466886676e-05 3.952415355748e-03 0.0 
0.0 0.0 0.0 
-2.058816862549e-07 -3.048704434202e-05 0.0 
-3.048704434202e-05 5.071066770470e-03 0.0 
0.0 0.0 0.0 
-2.108229523512e-06 2.921932434880e-05 0.0 
2.921932434880e-05 2.139191475935e-03 0.0 
0.0 0.0 0.0 
-5.834153506079e-06 6.709116506591e-06 0.0 
6.709116506591e-06 4.677118636949e-03 0.0 
0.0 0.0 0.0 
-4.631325348781e-07 -2.957872188306e-05 0.0 
-2.957872188306e-05 3.842200937714e-03 0.0 
0.0 0.0 0.0 
-3.991255602687e-07 -2.938575138607e-05 0.0 
-2.938575138607e-05 2.687672942249e-03 0.0 
0.0 0.0 0.0 
-6.408091379750e-08 2.963767178505e-05 0.0 
2.963767178505e-05 6.268055941260e-03 0.0 
0.0 0.0 0.0 
-6.214341042643e-06 -3.547460892775e-06 0.0 
-3.547460892775e-06 1.041090891256e-04 0.0 
0.0 0.0 0.0 
-2.328415954045e-06 -3.051019090688e-05 0.0 
-3.051019090688e-05 5.055575552865e-03 0.0 
0.0 0.0 0.0 
-8.179373348627e-07 2.867995869989e-05 0.0 
2.867995869989e-05 2.783122284602e-03 0.0 
0.0 0.0 0.0 
-5.631167901976e-07 -2.825987833820e-05 0.0 
-2.825987833820e-05 2.260100469797e-03 0.0 
0.0 0.0 0.0 
-2.146700142758e-06 -2.823836179547e-05 0.0 
-2.823836179547e-05 2.148942130569e-03 0.0 
0.0 0.0 0.0 
-1.473246725281e-06 2.770343018912e-05 0.0 
2.770343018912e-05 5.402733396920e-03 0.0 
0.0 0.0 0.0 
1.244898967467e-06 -2.018388515982e-05 0.0 
-2.018388515982e-05 7.464462204754e-04 0.0 
0.0 0.0 0.0 
-9.461168538616e-07 2.788106492417e-05 0.0 
2.788106492417e-05 3.256535615697e-03 0.0 
0.0 0.0 0.0 
-2.291565786017e-07 2.893583187453e-05 0.0 
2.893583187453e-05 5.250552670605e-03 0.0 
0.0 0.0 0.0 
-2.731846120874e-06 2.750481423682e-05 0.0 
2.750481423682e-05 5.000426243721e-03 0.0 
0.0 0.0 0.0 
-5.538630682089e-06 -4.048533289803e-06 0.0 
-4.048533289803e-06 5.041832783489e-03 0.0 
0.0 0.0 0.0 
-5.988545981217e-06 3.132224023302e-05 0.0 
3.132224023302e-05 1.077706641186e-03 0.0 
0.0 0.0 0.0 
-5.992461941107e-07 2.954874387712e-05 0.0 
2.954874387712e-05 2.678593018422e-03 0.0 
0.0 0.0 0.0 
-1.450730540697e-06 -3.095468262284e-05 0.0 
-3.095468262284e-05 2.451721332373e-03 0.0 
0.0 0.0 0.0 
-8.406198730437e-07 -2.568236165527e-05 0.0 
-2.568236165527e-05 2.870096100245e-03 0.0 
0.0 0.0 0.0 
-3.504740929694e-07 -3.244076274588e-05 0.0 
-3.244076274588e-05 6.092570652890e-03 0.0 
0.0 0.0 0.0 
-1.031448184863e-06 -2.596042020156e-05 0.0 
-2.596042020156e-05 3.264594322681e-03 0.0 
0.0 0.0 0.0 
-3.666391714674e-07 2.857238969610e-05 0.0 
2.857238969610e-05 3.601264336708e-03 0.0 
0.0 0.0 0.0 
-4.656841334771e-07 2.916656551957e-05 0.0 
2.916656551957e-05 3.421297993132e-03 0.0 
0.0 0.0 0.0 
-7.009567948413e-06 -2.928913869606e-05 0.0 
-2.928913869606e-05 1.321881096332e-03 0.0 
0.0 0.0 0.0 
1.927673338731e-07 3.019649509679e-05 0.0 
3.019649509679e-05 4.116006408800e-03 0.0 
0.0 0.0 0.0 
-4.498871033709e-06 -3.182021401379e-05 0.0 
-3.182021401379e-05 1.472899552661e-03 0.0 
0.0 0.0 0.0 
4.454699135126e-06 -4.150323844756e-07 0.0 
-4.150323844756e-07 8.192670807226e-03 0.0 
0.0 0.0 0.0 
-6.474748061591e-06 -4.499391512913e-06 0.0 
-4.499391512913e-06 8.175341423599e-03 0.0 
0.0 0.0 0.0 
-5.850662211371e-07 2.863323470112e-05 0.0 
2.863323470112e-05 4.628023539505e-03 0.0 
0.0 0.0 0.0 
-1.370399144829e-06 2.856409330278e-05 0.0 
2.856409330278e-05 2.374746478783e-03 0.0 
0.0 0.0 0.0 
-1.101397564596e-06 -2.909968911063e-05 0.0 
-2.909968911063e-05 2.033639737143e-03 0.0 
0.0 0.0 0.0 
-1.123569145833e-06 2.834618811034e-05 0.0 
2.834618811034e-05 5.130187954184e-03 0.0 
0.0 0.0 0.0 
-1.724843838202e-06 -2.931795633326e-05 0.0 
-2.931795633326e-05 2.208878962743e-03 0.0 
0.0 0.0 0.0 
-4.655163826639e-07 2.997431134387e-05 0.0 
2.997431134387e-05 2.442257137190e-03 0.0 
0.0 0.0 0.0 
-1.063874545348e-06 2.708723183577e-05 0.0 
2.708723183577e-05 4.504987024310e-03 0.0 
0.0 0.0 0.0 
-6.502479354409e-06 -5.964931236838e-06 0.0 
-5.964931236838e-06 7.846057864253e-03 0.0 
0.0 0.0 0.0 
-5.743678971326e-07 2.928737877862e-05 0.0 
2.928737877862e-05 3.011093177338e-03 0.0 
0.0 0.0 0.0 
-4.372303659128e-07 2.982120265524e-05 0.0 
2.982120265524e-05 5.701312444180e-03 0.0 
0.0 0.0 0.0 
-2.404516683430e-06 2.593337067666e-05 0.0 
2.593337067666e-05 1.633060365170e-03 0.0 
0.0 0.0 0.0 
3.325956583922e-06 9.846853218554e-07 0.0 
9.846853218554e-07 8.198994787379e-03 0.0 
0.0 0.0 0.0 
-1.149967116421e-06 2.784707686684e-05 0.0 
2.784707686684e-05 2.199642663304e-03 0.0 
0.0 0.0 0.0 
-8.626099682330e-07 2.840231343050e-05 0.0 
2.840231343050e-05 4.679038843072e-03 0.0 
0.0 0.0 0.0 
-4.349495563161e-06 3.304992159745e-05 0.0 
3.304992159745e-05 1.491145082617e-03 0.0 
0.0 0.0 0.0 
6.366528970680e-08 2.863138474343e-05 0.0 
2.863138474343e-05 5.556814219557e-03 0.0 
0.0 0.0 0.0 
-2.373573801950e-07 2.903038301688e-05 0.0 
2.903038301688e-05 3.832860338227e-03 0.0 
0.0 0.0 0.0 
-1.210369211191e-06 2.909925820916e-05 0.0 
2.909925820916e-05 2.627373556743e-03 0.0 
0.0 0.0 0.0 
-1.356805565900e-06 -2.823288935422e-05 0.0 
-2.823288935422e-05 4.786015764814e-03 0.0 
0.0 0.0 0.0 
-2.454430366727e-07 -2.949669434073e-06 0.0 
-2.949669434073e-06 8.204614734793e-03 0.0 
0.0 0.0 0.0 
-6.760557059726e-07 2.844031604965e-05 0.0 
2.844031604965e-05 3.191914887405e-03 0.0 
0.0 0.0 0.0 
-1.626470602645e-07 -3.025584928273e-05 0.0 
-3.025584928273e-05 5.258884582796e-03 0.0 
0.0 0.0 0.0 
-3.068189419086e-06 -2.747394660631e-05 0.0 
-2.747394660631e-05 1.640358416960e-03 0.0 
0.0 0.0 0.0 
-2.575395330329e-07 3.190427581386e-05 0.0 
3.190427581386e-05 5.794030736823e-03 0.0 
0.0 0.0 0.0 
1.110674263671e-07 3.144347098270e-05 0.0 
3.144347098270e-05 6.118994166293e-03 0.0 
0.0 0.0 0.0 
-7.857490706975e-07 -2.755674071708e-05 0.0 
-2.755674071708e-05 2.323343403511e-03 0.0 
0.0 0.0 0.0 
-2.152656617294e-06 -2.868534699487e-05 0.0 
-2.868534699487e-05 5.613202614445e-03 0.0 
0.0 0.0 0.0 
-2.958699786282e-07 2.090798507295e-06 0.0 
2.090798507295e-06 8.197190147929e-03 0.0 
0.0 0.0 0.0 
-2.498458598899e-07 2.879839671163e-05 0.0 
2.879839671163e-05 6.547578983343e-03 0.0 
0.0 0.0 0.0 
1.232884510038e-07 -2.566029446727e-06 0.0 
-2.566029446727e-06 8.196852736152e-03 0.0 
0.0 0.0 0.0 
3.558398459447e-06 -3.209372586498e-05 0.0 
-3.209372586498e-05 5.568453249377e-03 0.0 
0.0 0.0 0.0 
-9.010919549413e-07 -2.874023925200e-05 0.0 
-2.874023925200e-05 6.399555900898e-03 0.0 
0.0 0.0 0.0 
-8.745394277643e-07 -3.041360699201e-05 0.0 
-3.041360699201e-05 1.919818075702e-03 0.0 
0.0 0.0 0.0 
-1.046801322291e-06 -2.756876166600e-05 0.0 
-2.756876166600e-05 4.388651372277e-03 0.0 
0.0 0.0 0.0 
-9.720942186764e-07 2.798910195626e-05 0.0 
2.798910195626e-05 4.953774921444e-03 0.0 
0.0 0.0 0.0 
-1.028381434565e-06 -2.848232937530e-05 0.0 
-2.848232937530e-05 5.186163112514e-03 0.0 
0.0 0.0 0.0 
-2.492680346577e-07 -2.815601147847e-05 0.0 
-2.815601147847e-05 4.234368759791e-03 0.0 
0.0 0.0 0.0 
-1.304699352223e-06 -1.732171579451e-06 0.0 
-1.732171579451e-06 8.198961813316e-03 0.0 
0.0 0.0 0.0 
4.717816747268e-06 2.181669394233e-05 0.0 
2.181669394233e-05 5.329823903994e-03 0.0 
0.0 0.0 0.0 
-2.442546375492e-06 -2.649979713834e-05 0.0 
-2.649979713834e-05 4.660723816109e-03 0.0 
0.0 0.0 0.0 
-4.502754461511e-07 -2.989826055043e-05 0.0 
-2.989826055043e-05 3.430245409376e-03 0.0 
0.0 0.0 0.0 
-1.678836643038e-07 2.957039852684e-05 0.0 
2.957039852684e-05 1.757018595899e-03 0.0 
0.0 0.0 0.0 
-5.797072741842e-07 -2.774874988168e-05 0.0 
-2.774874988168e-05 4.211521913356e-03 0.0 
0.0 0.0 0.0 
-4.491616732993e-07 2.830435145719e-05 0.0 
2.830435145719e-05 2.481688219780e-03 0.0 
0.0 0.0 0.0 
-7.100681170824e-07 -6.394307781394e-06 0.0 
-6.394307781394e-06 4.664510439916e-03 0.0 
0.0 0.0 0.0 
-8.628392316190e-07 -2.809457094433e-05 0.0 
-2.809457094433e-05 2.635861055865e-03 0.0 
0.0 0.0 0.0 
-6.294542850283e-07 -2.989130654028e-05 0.0 
-2.989130654028e-05 3.019537777880e-03 0.0 
0.0 0.0 0.0 
1.755833496375e-07 3.146011743319e-05 0.0 
3.146011743319e-05 6.503531984510e-03 0.0 
0.0 0.0 0.0 
-3.707709326228e-07 -2.848810533895e-05 0.0 
-2.848810533895e-05 2.489083428039e-03 0.0 
0.0 0.0 0.0 
-1.446409503725e-06 2.788542099942e-05 0.0 
2.788542099942e-05 4.555724336294e-03 0.0 
0.0 0.0 0.0 
-1.595208399818e-07 2.847416646868e-05 0.0 
2.847416646868e-05 5.431883453862e-03 0.0 
0.0 0.0 0.0 
-8.073176804846e-08 3.012233160034e-05 0.0 
3.012233160034e-05 4.806992468954e-03 0.0 
0.0 0.0 0.0 
5.774138103209e-06 -3.314251104134e-07 0.0 
-3.314251104134e-07 8.207205761007e-03 0.0 
0.0 0.0 0.0 
-1.787893325278e-06 -2.568531568067e-05 0.0 
-2.568531568067e-05 3.783309112686e-03 0.0 
0.0 0.0 0.0 
-9.476738810354e-07 2.968611033193e-05 0.0 
2.968611033193e-05 2.495539255004e-03 0.0 
0.0 0.0 0.0 
2.859100820540e-07 -2.700261965029e-05 0.0 
-2.700261965029e-05 3.336958645611e-03 0.0 
0.0 0.0 0.0 
-3.175785116105e-06 -2.258148665418e-05 0.0 
-2.258148665418e-05 2.368988003874e-03 0.0 
0.0 0.0 0.0 
-3.700303168319e-07 2.969646126377e-05 0.0 
2.969646126377e-05 2.317042888572e-03 0.0 
0.0 0.0 0.0 
-1.140487065898e-07 -3.060643145315e-05 0.0 
-3.060643145315e-05 6.881305905035e-03 0.0 
0.0 0.0 0.0 
-8.387080515648e-07 -2.839975837555e-05 0.0 
-2.839975837555e-05 4.912372746760e-03 0.0 
0.0 0.0 0.0 
-1.514991448404e-06 -2.870306103300e-05 0.0 
-2.870306103300e-05 3.320263134686e-03 0.0 
0.0 0.0 0.0 
-1.146403579955e-06 2.809605895157e-05 0.0 
2.809605895157e-05 4.161356511823e-03 0.0 
0.0 0.0 0.0 
-5.755525606110e-07 3.413294397225e-06 0.0 
3.413294397225e-06 8.190760730230e-03 0.0 
0.0 0.0 0.0 
-9.089194585865e-07 -2.216342004217e-05 0.0 
-2.216342004217e-05 7.766157007308e-03 0.0 
0.0 0.0 0.0 
1.305723542400e-06 3.027416927482e-05 0.0 
3.027416927482e-05 6.868042000175e-03 0.0 
0.0 0.0 0.0 
3.251076718946e-07 -2.981632170785e-05 0.0 
-2.981632170785e-05 6.329084071546e-03 0.0 
0.0 0.0 0.0 
-5.669437042055e-08 -2.883738596195e-05 0.0 
-2.883738596195e-05 4.632063831611e-03 0.0 
0.0 0.0 0.0 
-6.605487723466e-07 -2.723101432429e-05 0.0 
-2.723101432429e-05 3.431163076773e-03 0.0 
0.0 0.0 0.0 
-1.739169504744e-06 -2.904027706039e-05 0.0 
-2.904027706039e-05 2.383868342586e-03 0.0 
0.0 0.0 0.0 
-9.394615836378e-07 -2.915866588440e-05 0.0 
-2.915866588440e-05 2.791973039002e-03 0.0 
0.0 0.0 0.0 
-7.649119906361e-07 -2.768734507750e-05 0.0 
-2.768734507750e-05 4.687308973820e-03 0.0 
0.0 0.0 0.0 
-2.334518856006e-08 -2.984598614999e-05 0.0 
-2.984598614999e-05 5.386249047552e-03 0.0 
0.0 0.0 0.0 
6.035158675033e-07 -3.036793713918e-05 0.0 
-3.036793713918e-05 4.048614756291e-03 0.0 
0.0 0.0 0.0 
-1.204791713505e-06 3.086596671965e-05 0.0 
3.086596671965e-05 6.923950844848e-03 0.0 
0.0 0.0 0.0 
-3.250054891879e-07 -2.892237350349e-05 0.0 
-2.892237350349e-05 2.504650518176e-03 0.0 
0.0 0.0 0.0 
3.370166368200e-10 -2.824438338297e-05 0.0 
-2.824438338297e-05 4.008958848861e-03 0.0 
0.0 0.0 0.0 
-8.363040757686e-07 2.770264101349e-05 0.0 
2.770264101349e-05 4.727985793747e-03 0.0 
0.0 0.0 0.0 
7.843267568752e-08 -2.978018364428e-05 0.0 
-2.978018364428e-05 3.605359629485e-03 0.0 
0.0 0.0 0.0 
5.705966361402e-06 -3.086487451363e-06 0.0 
-3.086487451363e-06 8.187854067348e-03 0.0 
0.0 0.0 0.0 
-5.543452222700e-06 8.086481595745e-06 0.0 
8.086481595745e-06 8.177532113031e-03 0.0 
0.0 0.0 0.0 
4.463373394437e-06 -3.437486896825e-05 0.0 
-3.437486896825e-05 7.738332987872e-03 0.0 
0.0 0.0 0.0 
5.235392475100e-08 -2.969052008688e-05 0.0 
-2.969052008688e-05 5.048391794642e-03 0.0 
0.0 0.0 0.0 
-1.326152907488e-07 2.932939933505e-05 0.0 
2.932939933505e-05 6.781855869420e-03 0.0 
0.0 0.0 0.0 
-6.021859726424e-07 2.669042680855e-05 0.0 
2.669042680855e-05 2.086319199679e-03 0.0 
0.0 0.0 0.0 
-5.659968527194e-07 -2.921246661374e-05 0.0 
-2.921246661374e-05 3.200764641962e-03 0.0 
0.0 0.0 0.0 
-2.414675402074e-06 -2.585794535019e-05 0.0 
-2.585794535019e-05 1.741186089970e-03 0.0 
0.0 0.0 0.0 
-9.672620254753e-07 -2.700649066343e-05 0.0 
-2.700649066343e-05 3.490734153576e-03 0.0 
0.0 0.0 0.0 
4.926560766449e-06 -2.854845631200e-06 0.0 
-2.854845631200e-06 4.679511787268e-03 0.0 
0.0 0.0 0.0 
6.939042900278e-07 3.251964366983e-05 0.0 
3.251964366983e-05 5.562360736580e-03 0.0 
0.0 0.0 0.0 
-2.080552143346e-06 -4.813425941858e-07 0.0 
-4.813425941858e-07 7.831556392387e-03 0.0 
0.0 0.0 0.0 
4.837815688052e-07 3.271371631193e-05 0.0 
3.271371631193e-05 6.803942655840e-03 0.0 
0.0 0.0 0.0 
-1.045700779745e-06 2.730754171949e-05 0.0 
2.730754171949e-05 5.224544159041e-03 0.0 
0.0 0.0 0.0 
-1.356863217339e-06 2.808758364040e-05 0.0 
2.808758364040e-05 5.355747541693e-03 0.0 
0.0 0.0 0.0 
-2.383422441965e-06 3.043475235095e-05 0.0 
3.043475235095e-05 1.903881962757e-03 0.0 
0.0 0.0 0.0 
3.711130742934e-06 4.888119275539e-06 0.0 
4.888119275539e-06 7.607863049166e-04 0.0 
0.0 0.0 0.0 
-1.900890254092e-07 3.053429336367e-05 0.0 
3.053429336367e-05 3.884024225161e-03 0.0 
0.0 0.0 0.0 
-1.162019614975e-07 -2.826396420905e-05 0.0 
-2.826396420905e-05 4.409917832252e-03 0.0 
0.0 0.0 0.0 
3.104205581472e-08 -3.019150024783e-05 0.0 
-3.019150024783e-05 4.124631796762e-03 0.0 
0.0 0.0 0.0 
-8.530969015763e-06 2.428605951260e-05 0.0 
2.428605951260e-05 8.520158624401e-04 0.0 
0.0 0.0 0.0 
-2.668706120978e-06 1.205895869702e-05 0.0 
1.205895869702e-05 5.027567838568e-03 0.0 
0.0 0.0 0.0 
-1.433314714472e-06 -2.940712932921e-05 0.0 
-2.940712932921e-05 1.601413489809e-03 0.0 
0.0 0.0 0.0 
-5.242105856063e-07 2.872552367788e-05 0.0 
2.872552367788e-05 2.426217120533e-03 0.0 
0.0 0.0 0.0 
0.0 -1.616212193397e-07 0.0 
-1.616212193397e-07 8.201501619201e-03 0.0 
0.0 0.0 0.0 
-4.205171707516e-07 -3.112307799263e-05 0.0 
-3.112307799263e-05 5.906826520989e-03 0.0 
0.0 0.0 0.0 
-7.603158632796e-06 2.792675576493e-05 0.0 
2.792675576493e-05 4.654090581448e-03 0.0 
0.0 0.0 0.0 
-2.543095073859e-06 2.182009707798e-05 0.0 
2.182009707798e-05 1.125240823352e-03 0.0 
0.0 0.0 0.0 
-6.605372848689e-07 2.886857891247e-05 0.0 
2.886857891247e-05 4.226546300715e-03 0.0 
0.0 0.0 0.0 
-2.979141892068e-07 -3.136599223482e-05 0.0 
-3.136599223482e-05 3.892735436701e-03 0.0 
0.0 0.0 0.0 
-1.319664382549e-06 -2.955505978461e-05 0.0 
-2.955505978461e-05 5.410004082135e-03 0.0 
0.0 0.0 0.0 
-1.240956398529e-06 6.186213623937e-06 0.0 
6.186213623937e-06 8.202106081986e-03 0.0 
0.0 0.0 0.0 
-1.187915655843e-06 2.800642992159e-05 0.0 
2.800642992159e-05 4.382381636474e-03 0.0 
0.0 0.0 0.0 
-1.054997651129e-06 -2.873450307831e-05 0.0 
-2.873450307831e-05 5.137522143885e-03 0.0 
0.0 0.0 0.0 
6.058574013590e-07 2.982511295202e-05 0.0 
2.982511295202e-05 4.039606716446e-03 0.0 
0.0 0.0 0.0 
-3.950197002833e-08 3.034963435877e-05 0.0 
3.034963435877e-05 6.738012980563e-03 0.0 
0.0 0.0 0.0 
4.772796602381e-08 2.981838972470e-05 0.0 
2.981838972470e-05 5.227275078227e-03 0.0 
0.0 0.0 0.0 
2.659110817094e-06 -1.249911193615e-06 0.0 
-1.249911193615e-06 8.197888983145e-03 0.0 
0.0 0.0 0.0 
0.0 4.018149806778e-07 0.0 
4.018149806778e-07 8.193612101292e-03 0.0 
0.0 0.0 0.0 
0.0 -1.049289855185e-06 0.0 
-1.049289855185e-06 8.195168596765e-03 0.0 
0.0 0.0 0.0 
0.0 -1.525051890010e-07 0.0 
-1.525051890010e-07 8.168656629003e-03 0.0 
0.0 0.0 0.0 
-1.121865247256e-06 2.788626742636e-05 0.0 
2.788626742636e-05 5.581395060658e-03 0.0 
0.0 0.0 0.0 
-4.958462399562e-07 -2.816452785512e-05 0.0 
-2.816452785512e-05 6.745644629822e-03 0.0 
0.0 0.0 0.0 
1.486601894918e-06 3.177927676918e-05 0.0 
3.177927676918e-05 7.057794224559e-03 0.0 
0.0 0.0 0.0 
-5.122497076515e-07 3.110543395987e-05 0.0 
3.110543395987e-05 3.597940023795e-03 0.0 
0.0 0.0 0.0 
-1.226837292201e-06 3.053884406645e-05 0.0 
3.053884406645e-05 3.423885341766e-03 0.0 
0.0 0.0 0.0 
6.948495157033e-07 -3.073747589860e-05 0.0 
-3.073747589860e-05 3.810495337053e-03 0.0 
0.0 0.0 0.0 
-9.255890673909e-07 -3.062188994502e-05 0.0 
-3.062188994502e-05 6.933048239235e-03 0.0 
0.0 0.0 0.0 
-6.138480949103e-07 -6.907676768907e-07 0.0 
-6.907676768907e-07 8.195345447199e-03 0.0 
0.0 0.0 0.0 
2.373570702208e-07 2.969510637120e-05 0.0 
2.969510637120e-05 6.966568971545e-03 0.0 
0.0 0.0 0.0 
-3.809060445947e-07 -3.123277452704e-05 0.0 
-3.123277452704e-05 5.487675671027e-03 0.0 
0.0 0.0 0.0 
-5.991497967761e-07 -2.788742468385e-05 0.0 
-2.788742468385e-05 6.974431541914e-03 0.0 
0.0 0.0 0.0 
3.435327291523e-07 -2.907146620546e-05 0.0 
-2.907146620546e-05 6.025955326129e-03 0.0 
0.0 0.0 0.0 
-9.102695375240e-08 2.819763373231e-05 0.0 
2.819763373231e-05 4.175664829789e-03 0.0 
0.0 0.0 0.0 
-1.224959301993e-06 2.672090842051e-05 0.0 
2.672090842051e-05 3.485108313031e-03 0.0 
0.0 0.0 0.0 
-1.859670653359e-06 2.792223197317e-05 0.0 
2.792223197317e-05 1.798112107099e-03 0.0 
0.0 0.0 0.0 
-1.620434662231e-06 1.426779198298e-05 0.0 
1.426779198298e-05 7.840535592863e-03 0.0 
0.0 0.0 0.0 
3.787916711406e-07 3.036639209677e-05 0.0 
3.036639209677e-05 3.372281824937e-03 0.0 
0.0 0.0 0.0 
7.131990665155e-06 -1.416221258337e-06 0.0 
-1.416221258337e-06 7.502353464170e-03 0.0 
0.0 0.0 0.0 
7.473928151924e-07 2.954111367573e-05 0.0 
2.954111367573e-05 3.801457904996e-03 0.0 
0.0 0.0 0.0 
3.501168481801e-07 -2.741247974182e-05 0.0 
-2.741247974182e-05 2.396683161866e-03 0.0 
0.0 0.0 0.0 
3.277045779404e-06 6.469933417956e-06 0.0 
6.469933417956e-06 7.838667568366e-03 0.0 
0.0 0.0 0.0 
-5.491864295548e-07 2.811091405456e-05 0.0 
2.811091405456e-05 2.651273554618e-03 0.0 
0.0 0.0 0.0 
0.0 3.299345792193e-07 0.0 
3.299345792193e-07 8.200454027816e-03 0.0 
0.0 0.0 0.0 
-4.223605227116e-06 -2.182382436505e-06 0.0 
-2.182382436505e-06 7.834977991692e-03 0.0 
0.0 0.0 0.0 
-1.024846196906e-06 2.817329346482e-05 0.0 
2.817329346482e-05 5.080334381677e-03 0.0 
0.0 0.0 0.0 
3.747935737985e-06 -3.521696219379e-07 0.0 
-3.521696219379e-07 3.934826759593e-04 0.0 
0.0 0.0 0.0 
0.0 1.252395400597e-06 0.0 
1.252395400597e-06 8.195881922110e-03 0.0 
0.0 0.0 0.0 
1.198608744923e-06 -3.524219835163e-06 0.0 
-3.524219835163e-06 7.840172220427e-03 0.0 
0.0 0.0 0.0 
-8.310557811919e-07 3.072338284132e-05 0.0 
3.072338284132e-05 2.387929413897e-03 0.0 
0.0 0.0 0.0 
-2.556999670889e-07 -3.032360478845e-05 0.0 
-3.032360478845e-05 5.674769541212e-03 0.0 
0.0 0.0 0.0 
-3.007155212953e-06 6.227961216959e-07 0.0 
6.227961216959e-07 8.203446132077e-03 0.0 
0.0 0.0 0.0 
2.494165348921e-06 1.116819712800e-06 0.0 
1.116819712800e-06 1.158603764750e-04 0.0 
0.0 0.0 0.0 
-2.302502077889e-09 2.823378251282e-05 0.0 
2.823378251282e-05 3.776136738278e-03 0.0 
0.0 0.0 0.0 
-1.128156278285e-06 2.828266280688e-05 0.0 
2.828266280688e-05 5.306767085244e-03 0.0 
0.0 0.0 0.0 
-7.801244455985e-07 2.868320716244e-05 0.0 
2.868320716244e-05 4.854092047303e-03 0.0 
0.0 0.0 0.0 
-1.237646934160e-06 2.872618012250e-05 0.0 
2.872618012250e-05 4.904368367925e-03 0.0 
0.0 0.0 0.0 
-8.183871610390e-07 2.816553803696e-05 0.0 
2.816553803696e-05 2.025018535241e-03 0.0 
0.0 0.0 0.0 
0.0 -1.250917852887e-07 0.0 
-1.250917852887e-07 8.194450177942e-03 0.0 
0.0 0.0 0.0 
-4.093089601698e-07 -2.939165408454e-05 0.0 
-2.939165408454e-05 3.610379085786e-03 0.0 
0.0 0.0 0.0 
-2.855906469867e-06 -2.482490600019e-05 0.0 
-2.482490600019e-05 1.087077684320e-03 0.0 
0.0 0.0 0.0 
-2.101994805326e-06 8.971303731852e-06 0.0 
8.971303731852e-06 7.869216565211e-03 0.0 
0.0 0.0 0.0 
2.482932496717e-06 1.694452724174e-06 0.0 
1.694452724174e-06 3.914980243509e-04 0.0 
0.0 0.0 0.0 
-1.039198586072e-06 2.819827393751e-05 0.0 
2.819827393751e-05 3.939869898231e-03 0.0 
0.0 0.0 0.0 
2.130181816051e-06 3.153396573916e-06 0.0 
3.153396573916e-06 1.129643394913e-03 0.0 
0.0 0.0 0.0 
2.304334232317e-07 2.810055263918e-05 0.0 
2.810055263918e-05 4.204452468405e-03 0.0 
0.0 0.0 0.0 
1.201206041301e-06 -1.321637092666e-06 0.0 
-1.321637092666e-06 8.189828923436e-03 0.0 
0.0 0.0 0.0 
0.0 1.039147153801e-06 0.0 
1.039147153801e-06 8.201990522001e-03 0.0 
0.0 0.0 0.0 
-1.910845446429e-06 2.811808849656e-05 0.0 
2.811808849656e-05 5.178309430103e-03 0.0 
0.0 0.0 0.0 
-3.988990272319e-06 -3.393159173360e-06 0.0 
-3.393159173360e-06 7.687819925022e-04 0.0 
0.0 0.0 0.0 
-2.622273534314e-06 3.294619127091e-05 0.0 
3.294619127091e-05 8.410492984610e-04 0.0 
0.0 0.0 0.0 
-4.060594228972e-06 8.389385625807e-06 0.0 
8.389385625807e-06 1.125569173402e-03 0.0 
0.0 0.0 0.0 
-1.056448471926e-06 -3.029760286179e-05 0.0 
-3.029760286179e-05 6.870763096795e-03 0.0 
0.0 0.0 0.0 
7.356412989878e-08 4.289299354772e-06 0.0 
4.289299354772e-06 4.672673066076e-03 0.0 
0.0 0.0 0.0 
-1.838881663274e-06 -3.235122132457e-05 0.0 
-3.235122132457e-05 4.871392410519e-03 0.0 
0.0 0.0 0.0 
0.0 8.666403396339e-07 0.0 
8.666403396339e-07 8.207996726126e-03 0.0 
0.0 0.0 0.0 
-5.595412028048e-06 -6.644040209763e-06 0.0 
-6.644040209763e-06 4.678759657380e-03 0.0 
0.0 0.0 0.0 
-3.108044284716e-06 2.532269619072e-06 0.0 
2.532269619072e-06 8.200064489712e-03 0.0 
0.0 0.0 0.0 
5.298762395523e-07 2.930400611340e-05 0.0 
2.930400611340e-05 6.195525219871e-03 0.0 
0.0 0.0 0.0 
-1.046866539789e-06 3.060113340582e-05 0.0 
3.060113340582e-05 5.368768933433e-03 0.0 
0.0 0.0 0.0 
-7.122258615877e-06 2.774370382794e-05 0.0 
2.774370382794e-05 2.535501997348e-03 0.0 
0.0 0.0 0.0 
-4.396016801689e-07 2.890680889006e-05 0.0 
2.890680889006e-05 5.666501032100e-03 0.0 
0.0 0.0 0.0 
-1.854184199512e-07 -2.530228255468e-05 0.0 
-2.530228255468e-05 1.579716512927e-03 0.0 
0.0 0.0 0.0 
0.0 -7.784972142502e-07 0.0 
-7.784972142502e-07 8.200825672837e-03 0.0 
0.0 0.0 0.0 
0.0 3.510880995927e-06 0.0 
3.510880995927e-06 8.182498459272e-03 0.0 
0.0 0.0 0.0 
0.0 -3.391719742124e-06 0.0 
-3.391719742124e-06 8.190930670761e-03 0.0 
0.0 0.0 0.0 
1.037170527241e-07 -2.970076357635e-05 0.0 
-2.970076357635e-05 5.236104539233e-03 0.0 
0.0 0.0 0.0 
8.061943128634e-07 -3.118732900495e-05 0.0 
-3.118732900495e-05 3.571056566033e-03 0.0 
0.0 0.0 0.0 
-6.288851817082e-08 -2.759885453001e-05 0.0 
-2.759885453001e-05 4.184216506689e-03 0.0 
0.0 0.0 0.0 
7.112372313323e-08 2.968177544850e-05 0.0 
2.968177544850e-05 5.410926667299e-03 0.0 
0.0 0.0 0.0 
0.0 4.534300257096e-07 0.0 
4.534300257096e-07 8.194588983243e-03 0.0 
0.0 0.0 0.0 
-9.582496410809e-07 -2.932878078945e-05 0.0 
-2.932878078945e-05 2.434874711493e-03 0.0 
0.0 0.0 0.0 
-5.136459044763e-07 2.924288380232e-05 0.0 
2.924288380232e-05 2.860541989715e-03 0.0 
0.0 0.0 0.0 
-9.350315275380e-07 2.813281200774e-05 0.0 
2.813281200774e-05 3.040588913820e-03 0.0 
0.0 0.0 0.0 
-5.508052823844e-07 2.921905454480e-05 0.0 
2.921905454480e-05 5.606621991060e-03 0.0 
0.0 0.0 0.0 
-4.732969615895e-06 -3.917729758109e-06 0.0 
-3.917729758109e-06 8.200320010185e-03 0.0 
0.0 0.0 0.0 
2.861203010962e-06 3.386470246111e-06 0.0 
3.386470246111e-06 7.564761586059e-04 0.0 
0.0 0.0 0.0 
0.0 1.008381076686e-07 0.0 
1.008381076686e-07 8.191867186267e-03 0.0 
0.0 0.0 0.0 
-9.431308386487e-07 2.992738488758e-05 0.0 
2.992738488758e-05 2.804701944507e-03 0.0 
0.0 0.0 0.0 
0.0 4.857428091784e-07 0.0 
4.857428091784e-07 8.208974837556e-03 0.0 
0.0 0.0 0.0 
-1.104592042389e-06 -2.873421501076e-05 0.0 
-2.873421501076e-05 7.068140694162e-03 0.0 
0.0 0.0 0.0 
2.274996110385e-06 1.630153731433e-06 0.0 
1.630153731433e-06 1.165332720914e-04 0.0 
0.0 0.0 0.0 
-1.411438952381e-07 2.862663174082e-05 0.0 
2.862663174082e-05 3.943945618645e-03 0.0 
0.0 0.0 0.0 
3.096909173550e-09 -3.035844854707e-05 0.0 
-3.035844854707e-05 7.021128021493e-03 0.0 
0.0 0.0 0.0 
0.0 -3.009910163335e-07 0.0 
-3.009910163335e-07 8.199928896910e-03 0.0 
0.0 0.0 0.0 
-1.185819527794e-06 -2.931932023689e-05 0.0 
-2.931932023689e-05 5.588921929754e-03 0.0 
0.0 0.0 0.0 
-2.871945927740e-07 3.005724594282e-05 0.0 
3.005724594282e-05 6.375973386452e-03 0.0 
0.0 0.0 0.0 
-4.218277327772e-06 2.790433528570e-05 0.0 
2.790433528570e-05 1.403543252852e-03 0.0 
0.0 0.0 0.0 
6.136842596982e-06 8.184323432662e-07 0.0 
8.184323432662e-07 7.492075324232e-03 0.0 
0.0 0.0 0.0 
-6.897048245857e-07 2.931412970304e-05 0.0 
2.931412970304e-05 2.983750532310e-03 0.0 
0.0 0.0 0.0 
-6.215662947673e-07 -2.747144925791e-05 0.0 
-2.747144925791e-05 3.048012990652e-03 0.0 
0.0 0.0 0.0 
3.611339618015e-06 3.351557019506e-06 0.0 
3.351557019506e-06 4.091782194027e-04 0.0 
0.0 0.0 0.0 
0.0 2.409456538986e-07 0.0 
2.409456538986e-07 8.196236896704e-03 0.0 
0.0 0.0 0.0 
-2.509126806327e-06 -2.823813460098e-05 0.0 
-2.823813460098e-05 1.978443173396e-03 0.0 
0.0 0.0 0.0 
1.525310107109e-07 -3.144023142892e-05 0.0 
-3.144023142892e-05 6.796840531229e-03 0.0 
0.0 0.0 0.0 
9.598757806373e-07 -3.541360792771e-05 0.0 
-3.541360792771e-05 5.160647197790e-03 0.0 
0.0 0.0 0.0 
2.434117707395e-07 -2.791991066984e-05 0.0 
-2.791991066984e-05 2.516784837888e-03 0.0 
0.0 0.0 0.0 
-8.694554788358e-07 -2.931533781365e-05 0.0 
-2.931533781365e-05 2.868989563067e-03 0.0 
0.0 0.0 0.0 
-1.130257652693e-06 -2.854355422248e-05 0.0 
-2.854355422248e-05 5.363404600909e-03 0.0 
0.0 0.0 0.0 
0.0 -2.649046843984e-06 0.0 
-2.649046843984e-06 8.206472200014e-03 0.0 
0.0 0.0 0.0 
-5.956674804519e-07 2.859082718887e-05 0.0 
2.859082718887e-05 3.749129915810e-03 0.0 
0.0 0.0 0.0 
-5.332604136044e-09 -3.091284569140e-05 0.0 
-3.091284569140e-05 5.891261930439e-03 0.0 
0.0 0.0 0.0 
-2.645192791473e-07 2.851630656135e-05 0.0 
2.851630656135e-05 4.803435081203e-03 0.0 
0.0 0.0 0.0 
-2.829442014018e-07 -2.894963221538e-05 0.0 
-2.894963221538e-05 5.329952806299e-03 0.0 
0.0 0.0 0.0 
-2.512420494982e-07 -2.872343488763e-05 0.0 
-2.872343488763e-05 3.099008851269e-03 0.0 
0.0 0.0 0.0 
7.034951998719e-08 -3.026026050841e-05 0.0 
-3.026026050841e-05 5.467891355548e-03 0.0 
0.0 0.0 0.0 
-1.562784660569e-07 -2.836884855309e-05 0.0 
-2.836884855309e-05 4.635632003674e-03 0.0 
0.0 0.0 0.0 
7.017378500507e-08 -2.987099097443e-05 0.0 
-2.987099097443e-05 6.075737008912e-03 0.0 
0.0 0.0 0.0 
-2.552326230365e-07 2.902630832938e-05 0.0 
2.902630832938e-05 6.082862461125e-03 0.0 
0.0 0.0 0.0 
-1.809513351381e-07 2.851288972510e-05 0.0 
2.851288972510e-05 4.576693675983e-03 0.0 
0.0 0.0 0.0 
6.333604063435e-07 2.989032951362e-05 0.0 
2.989032951362e-05 3.855620783158e-03 0.0 
0.0 0.0 0.0 
-4.632823585871e-07 -2.847472737528e-05 0.0 
-2.847472737528e-05 2.659415113301e-03 0.0 
0.0 0.0 0.0 
8.465850414030e-07 2.895144685933e-05 0.0 
2.895144685933e-05 3.562031820052e-03 0.0 
0.0 0.0 0.0 
-2.307377720001e-07 -2.899275818954e-05 0.0 
-2.899275818954e-05 6.205772876927e-03 0.0 
0.0 0.0 0.0 
-1.671022389349e-07 2.835895370497e-05 0.0 
2.835895370497e-05 5.016988766106e-03 0.0 
0.0 0.0 0.0 
4.488722660234e-07 -4.148601237603e-06 0.0 
-4.148601237603e-06 8.196643157993e-03 0.0 
0.0 0.0 0.0 
1.410118749545e-06 -2.893009449430e-05 0.0 
-2.893009449430e-05 7.202456493636e-03 0.0 
0.0 0.0 0.0 
4.187675373135e-07 2.966927712871e-05 0.0 
2.966927712871e-05 2.268746754839e-03 0.0 
0.0 0.0 0.0 
0.0 8.143585199095e-07 0.0 
8.143585199095e-07 8.187665039658e-03 0.0 
0.0 0.0 0.0 
6.128546819362e-06 -1.212692382282e-06 0.0 
-1.212692382282e-06 7.835841239055e-03 0.0 
0.0 0.0 0.0 
1.613013855817e-08 2.822566297191e-05 0.0 
2.822566297191e-05 4.295093701915e-03 0.0 
0.0 0.0 0.0 
2.938244345163e-06 -1.537042589679e-06 0.0 
-1.537042589679e-06 4.035101444009e-04 0.0 
0.0 0.0 0.0 
5.476913378821e-06 4.229525348242e-07 0.0 
4.229525348242e-07 8.202613752103e-03 0.0 
0.0 0.0 0.0 
-1.393684059492e-06 -2.561885229763e-05 0.0 
-2.561885229763e-05 7.156380152572e-03 0.0 
0.0 0.0 0.0 
-5.871880404129e-08 3.100343762046e-05 0.0 
3.100343762046e-05 2.567631776014e-03 0.0 
0.0 0.0 0.0 
0.0 -2.150219440115e-06 0.0 
-2.150219440115e-06 8.196415842366e-03 0.0 
0.0 0.0 0.0 
9.636802977830e-08 -3.001240640843e-05 0.0 
-3.001240640843e-05 5.657492332221e-03 0.0 
0.0 0.0 0.0 
-1.241777784600e-06 2.762587385845e-05 0.0 
2.762587385845e-05 3.652175664021e-03 0.0 
0.0 0.0 0.0 
2.748359220206e-07 2.621447065256e-05 0.0 
2.621447065256e-05 5.047641642267e-03 0.0 
0.0 0.0 0.0 
-9.748653939656e-08 -3.032242832761e-05 0.0 
-3.032242832761e-05 4.843718315579e-03 0.0 
0.0 0.0 0.0 
3.953630933751e-08 -2.980403325818e-05 0.0 
-2.980403325818e-05 4.815664537209e-03 0.0 
0.0 0.0 0.0 
-5.591763174717e-08 -2.911497416364e-05 0.0 
-2.911497416364e-05 5.566212361867e-03 0.0 
0.0 0.0 0.0 
5.579408839385e-07 -3.024749014551e-05 0.0 
-3.024749014551e-05 5.911499086608e-03 0.0 
0.0 0.0 0.0 
-1.039843196660e-06 2.776761357472e-05 0.0 
2.776761357472e-05 4.109783256269e-03 0.0 
0.0 0.0 0.0 
-3.793694314247e-08 3.024794713782e-05 0.0 
3.024794713782e-05 6.317458519008e-03 0.0 
0.0 0.0 0.0 
-4.021669039234e-06 -3.892036392708e-06 0.0 
-3.892036392708e-06 5.385491829929e-03 0.0 
0.0 0.0 0.0 
8.973831402415e-07 -2.966528420991e-05 0.0 
-2.966528420991e-05 3.864562127075e-03 0.0 
0.0 0.0 0.0 
-4.162738858060e-07 2.828303869360e-05 0.0 
2.828303869360e-05 5.847720710035e-03 0.0 
0.0 0.0 0.0 
5.706881345269e-08 -2.681147349013e-05 0.0 
-2.681147349013e-05 2.990884433402e-03 0.0 
0.0 0.0 0.0 
6.899807813987e-08 2.916602300845e-05 0.0 
2.916602300845e-05 5.481616497920e-03 0.0 
0.0 0.0 0.0 
4.686810894938e-07 1.546030965859e-06 0.0 
1.546030965859e-06 1.175833399838e-04 0.0 
0.0 0.0 0.0 
-7.096854909294e-07 -2.669017897112e-05 0.0 
-2.669017897112e-05 2.891265019015e-03 0.0 
0.0 0.0 0.0 
-3.419274673400e-07 -2.737318282281e-05 0.0 
-2.737318282281e-05 2.812827671439e-03 0.0 
0.0 0.0 0.0 
3.440268139254e-07 2.931488708024e-05 0.0 
2.931488708024e-05 4.224753398890e-03 0.0 
0.0 0.0 0.0 
1.330854326742e-07 2.874590167196e-05 0.0 
2.874590167196e-05 4.523628781169e-03 0.0 
0.0 0.0 0.0 
3.409074089689e-08 2.999239945123e-05 0.0 
2.999239945123e-05 5.648651063258e-03 0.0 
0.0 0.0 0.0 
1.867718443016e-06 -2.858587878729e-05 0.0 
-2.858587878729e-05 5.424002559756e-03 0.0 
0.0 0.0 0.0 
1.140633953955e-07 -2.807539574494e-05 0.0 
-2.807539574494e-05 2.576812394020e-03 0.0 
0.0 0.0 0.0 
0.0 7.422643098075e-07 0.0 
7.422643098075e-07 8.204257131445e-03 0.0 
0.0 0.0 0.0 
-9.325363549140e-07 -2.881567034005e-05 0.0 
-2.881567034005e-05 5.314587269233e-03 0.0 
0.0 0.0 0.0 
5.033685614997e-07 2.945936506019e-05 0.0 
2.945936506019e-05 4.407513675746e-03 0.0 
0.0 0.0 0.0 
-6.231289602088e-07 -2.835931521976e-05 0.0 
-2.835931521976e-05 5.088231631816e-03 0.0 
0.0 0.0 0.0 
-2.159633749610e-08 -2.994479024976e-05 0.0 
-2.994479024976e-05 4.233575915761e-03 0.0 
0.0 0.0 0.0 
1.255967209790e-06 1.398880804680e-06 0.0 
1.398880804680e-06 1.171457974252e-04 0.0 
0.0 0.0 0.0 
-1.722083652345e-06 -2.861130715404e-05 0.0 
-2.861130715404e-05 5.278017891930e-03 0.0 
0.0 0.0 0.0 
-1.887841248549e-06 3.184339907109e-05 0.0 
3.184339907109e-05 3.485956403869e-03 0.0 
0.0 0.0 0.0 
3.145341949340e-06 -3.001270054940e-06 0.0 
-3.001270054940e-06 1.085686749847e-04 0.0 
0.0 0.0 0.0 
7.489114934867e-07 3.084830306284e-05 0.0 
3.084830306284e-05 4.167942956274e-03 0.0 
0.0 0.0 0.0 
-1.561271555373e-07 2.960790948534e-05 0.0 
2.960790948534e-05 6.070853755374e-03 0.0 
0.0 0.0 0.0 
3.824721617196e-07 2.970111676432e-05 0.0 
2.970111676432e-05 7.002500389603e-03 0.0 
0.0 0.0 0.0 
-1.436639950336e-07 -2.919953198410e-05 0.0 
-2.919953198410e-05 5.151202378266e-03 0.0 
0.0 0.0 0.0 
-9.090144148516e-08 2.865197896595e-05 0.0 
2.865197896595e-05 5.320049358460e-03 0.0 
0.0 0.0 0.0 
-1.185124665071e-07 -2.302406773820e-05 0.0 
-2.302406773820e-05 4.487304697992e-03 0.0 
0.0 0.0 0.0 
-5.632962769120e-06 -1.294866138666e-06 0.0 
-1.294866138666e-06 4.296413981526e-03 0.0 
0.0 0.0 0.0 
7.999100205103e-06 -3.483218139670e-06 0.0 
-3.483218139670e-06 7.853611138874e-03 0.0 
0.0 0.0 0.0 
-4.133397020212e-07 -2.869976283388e-05 0.0 
-2.869976283388e-05 4.861562960773e-03 0.0 
0.0 0.0 0.0 
1.433760205649e-05 -5.718307206263e-06 0.0 
-5.718307206263e-06 1.072980160823e-04 0.0 
0.0 0.0 0.0 
-3.960429265093e-06 -2.944920088052e-05 0.0 
-2.944920088052e-05 1.343699733692e-03 0.0 
0.0 0.0 0.0 
2.198442352164e-06 -4.176074138601e-06 0.0 
-4.176074138601e-06 3.993549938699e-04 0.0 
0.0 0.0 0.0 
9.327669578951e-07 -2.376210484234e-05 0.0 
-2.376210484234e-05 2.441181022845e-03 0.0 
0.0 0.0 0.0 
-7.061244652329e-07 -3.121370711528e-05 0.0 
-3.121370711528e-05 6.945536976676e-03 0.0 
0.0 0.0 0.0 
-7.455039635618e-07 -3.039193637694e-05 0.0 
-3.039193637694e-05 7.009697303917e-03 0.0 
0.0 0.0 0.0 
-1.060545498310e-06 2.927828461704e-05 0.0 
2.927828461704e-05 6.621772538112e-03 0.0 
0.0 0.0 0.0 
1.368838559168e-06 -2.985005562555e-05 0.0 
-2.985005562555e-05 2.780787389369e-03 0.0 
0.0 0.0 0.0 
-1.216270048010e-07 -2.985115102104e-05 0.0 
-2.985115102104e-05 5.491119363862e-03 0.0 
0.0 0.0 0.0 
2.004089952434e-06 2.894742580987e-05 0.0 
2.894742580987e-05 6.969451182231e-03 0.0 
0.0 0.0 0.0 
5.420695496916e-07 -2.517817273747e-05 0.0 
-2.517817273747e-05 1.500720155770e-03 0.0 
0.0 0.0 0.0 
-6.855698301278e-07 -3.415670067959e-05 0.0 
-3.415670067959e-05 3.487143347465e-03 0.0 
0.0 0.0 0.0 
4.862770435432e-06 2.966441414459e-05 0.0 
2.966441414459e-05 2.845504018775e-03 0.0 
0.0 0.0 0.0 
-3.834724248697e-06 2.266493300622e-06 0.0 
2.266493300622e-06 8.196512438993e-03 0.0 
0.0 0.0 0.0 
0.0 -2.591014608948e-06 0.0 
-2.591014608948e-06 8.200973412330e-03 0.0 
0.0 0.0 0.0 
-3.126228122263e-06 -2.584803416540e-05 0.0 
-2.584803416540e-05 3.889728329964e-03 0.0 
0.0 0.0 0.0 
1.776305528445e-06 -2.987589195109e-05 0.0 
-2.987589195109e-05 4.416562303090e-03 0.0 
0.0 0.0 0.0 
5.548310699766e-10 2.962038019225e-05 0.0 
2.962038019225e-05 4.989935508426e-03 0.0 
0.0 0.0 0.0 
4.349754355815e-06 2.697563159792e-05 0.0 
2.697563159792e-05 7.205375459764e-03 0.0 
0.0 0.0 0.0 
-2.703385074687e-07 3.136416356004e-05 0.0 
3.136416356004e-05 1.501211464235e-03 0.0 
0.0 0.0 0.0 
9.423343909631e-07 2.940896356482e-05 0.0 
2.940896356482e-05 6.731330717052e-03 0.0 
0.0 0.0 0.0 
6.195508002849e-06 5.868678088113e-06 0.0 
5.868678088113e-06 7.740349668459e-04 0.0 
0.0 0.0 0.0 
-1.494052251694e-06 -3.006048119084e-05 0.0 
-3.006048119084e-05 3.995516368368e-03 0.0 
0.0 0.0 0.0 
2.010274111619e-07 -3.019548350845e-05 0.0 
-3.019548350845e-05 4.471295167513e-03 0.0 
0.0 0.0 0.0 
5.214893061822e-06 3.610250726676e-06 0.0 
3.610250726676e-06 4.022104470138e-04 0.0 
0.0 0.0 0.0 
4.776326230083e-06 2.992273726044e-05 0.0 
2.992273726044e-05 3.684388407837e-03 0.0 
0.0 0.0 0.0 
-7.418563234829e-07 2.621050525239e-05 0.0 
2.621050525239e-05 7.192878556050e-03 0.0 
0.0 0.0 0.0 
8.041820793725e-07 -4.231598257602e-06 0.0 
-4.231598257602e-06 1.139013839881e-04 0.0 
0.0 0.0 0.0 
3.713314615794e-07 1.934257771289e-06 0.0 
1.934257771289e-06 4.297064864229e-03 0.0 
0.0 0.0 0.0 
2.616559702240e-06 1.758670092665e-08 0.0 
1.758670092665e-08 4.298452686754e-03 0.0 
0.0 0.0 0.0 
1.578487853759e-07 -2.985900303141e-05 0.0 
-2.985900303141e-05 5.802285325668e-03 0.0 
0.0 0.0 0.0 
2.100954681117e-06 -2.904593201899e-05 0.0 
-2.904593201899e-05 2.843340262696e-03 0.0 
0.0 0.0 0.0 
9.031621694966e-08 3.058013335742e-05 0.0 
3.058013335742e-05 2.747697182356e-03 0.0 
0.0 0.0 0.0 
-1.833101234694e-06 -2.756954565780e-05 0.0 
-2.756954565780e-05 1.867611579374e-03 0.0 
0.0 0.0 0.0 
8.829017286160e-07 2.650554828956e-05 0.0 
2.650554828956e-05 7.216210945566e-03 0.0 
0.0 0.0 0.0 
-5.712173173356e-07 -1.164363635918e-06 0.0 
-1.164363635918e-06 7.849171611674e-03 0.0 
0.0 0.0 0.0 
2.981832425419e-08 -2.998740745929e-05 0.0 
-2.998740745929e-05 6.731800534764e-03 0.0 
0.0 0.0 0.0 
-1.492256972435e-06 -2.498919008020e-05 0.0 
-2.498919008020e-05 2.542100427441e-03 0.0 
0.0 0.0 0.0 
-8.056582014859e-06 3.483822992963e-05 0.0 
3.483822992963e-05 8.853850919914e-04 0.0 
0.0 0.0 0.0 
-1.015981647812e-06 -2.745266278988e-05 0.0 
-2.745266278988e-05 4.168541808375e-03 0.0 
0.0 0.0 0.0 
4.077401843050e-06 -1.859919368551e-07 0.0 
-1.859919368551e-07 4.312440820828e-03 0.0 
0.0 0.0 0.0 
-2.248327514609e-06 -5.381099966882e-06 0.0 
-5.381099966882e-06 4.308515510880e-03 0.0 
0.0 0.0 0.0 
8.501536741479e-06 -3.867073087653e-06 0.0 
-3.867073087653e-06 1.109095048304e-04 0.0 
0.0 0.0 0.0 
6.191102544184e-06 3.978625003328e-06 0.0 
3.978625003328e-06 4.000129056727e-04 0.0 
0.0 0.0 0.0 
-2.257211722756e-06 -1.049818768418e-05 0.0 
-1.049818768418e-05 7.656830752256e-04 0.0 
0.0 0.0 0.0 
7.610814425352e-07 3.025930828881e-05 0.0 
3.025930828881e-05 2.108275437612e-03 0.0 
0.0 0.0 0.0 
4.176169355663e-06 1.057504513391e-06 0.0 
1.057504513391e-06 4.055049603968e-04 0.0 
0.0 0.0 0.0 
-8.032355355514e-06 2.859304690513e-05 0.0 
2.859304690513e-05 4.113520429921e-03 0.0 
0.0 0.0 0.0 
9.069003308104e-06 -7.076970413899e-06 0.0 
-7.076970413899e-06 1.104927330584e-04 0.0 
0.0 0.0 0.0 
8.523566228380e-07 3.072666648101e-05 0.0 
3.072666648101e-05 2.531716470051e-03 0.0 
0.0 0.0 0.0 
3.097706233968e-06 8.997817038844e-06 0.0 
8.997817038844e-06 5.753367605022e-03 0.0 
0.0 0.0 0.0 
3.027820338897e-07 1.411743033162e-06 0.0 
1.411743033162e-06 4.297535100261e-03 0.0 
0.0 0.0 0.0 
4.447482127690e-06 -3.073386001428e-05 0.0 
-3.073386001428e-05 7.163805385754e-03 0.0 
0.0 0.0 0.0 
8.669084938795e-08 2.968974877491e-05 0.0 
2.968974877491e-05 5.832474748647e-03 0.0 
0.0 0.0 0.0 
-9.774894633718e-07 1.188763793690e-05 0.0 
1.188763793690e-05 5.373973499757e-03 0.0 
0.0 0.0 0.0 
6.624639201647e-07 3.096983775536e-05 0.0 
3.096983775536e-05 3.048122935802e-03 0.0 
0.0 0.0 0.0 
7.480884306021e-06 -4.695101849204e-06 0.0 
-4.695101849204e-06 7.691368366156e-04 0.0 
0.0 0.0 0.0 
0.0 -3.242363081778e-06 0.0 
-3.242363081778e-06 8.192197698790e-03 0.0 
0.0 0.0 0.0 
-3.490204694478e-06 -2.439836349980e-07 0.0 
-2.439836349980e-07 8.189871381106e-03 0.0 
0.0 0.0 0.0 
3.245855177969e-06 3.510816896135e-05 0.0 
3.510816896135e-05 5.155371149993e-03 0.0 
0.0 0.0 0.0 
-4.088469588548e-06 -1.250638420360e-06 0.0 
-1.250638420360e-06 4.303573084704e-03 0.0 
0.0 0.0 0.0 
1.920495604324e-06 -1.829221335330e-05 0.0 
-1.829221335330e-05 3.090670383785e-03 0.0 
0.0 0.0 0.0 
-2.694291481031e-07 -3.557827870042e-06 0.0 
-3.557827870042e-06 8.193042094264e-03 0.0 
0.0 0.0 0.0 
8.005936806832e-07 -2.939673414110e-05 0.0 
-2.939673414110e-05 2.358121520507e-03 0.0 
0.0 0.0 0.0 
2.179557020643e-06 -7.747640606932e-07 0.0 
-7.747640606932e-07 4.293276125581e-03 0.0 
0.0 0.0 0.0 
5.609493122227e-06 9.867577082505e-07 0.0 
9.867577082505e-07 4.296165997673e-03 0.0 
0.0 0.0 0.0 
-4.446020058779e-07 2.728859140705e-05 0.0 
2.728859140705e-05 3.989675981979e-03 0.0 
0.0 0.0 0.0 
0.0 -2.884270064339e-06 0.0 
-2.884270064339e-06 8.205650788241e-03 0.0 
0.0 0.0 0.0 
8.792778763533e-06 2.370959007870e-06 0.0 
2.370959007870e-06 8.195747405319e-03 0.0 
0.0 0.0 0.0 
2.483940992448e-06 2.987401889507e-06 0.0 
2.987401889507e-06 4.024053920990e-04 0.0 
0.0 0.0 0.0 
2.487013993191e-06 -2.237782222109e-07 0.0 
-2.237782222109e-07 1.179680627099e-04 0.0 
0.0 0.0 0.0 
-5.995861690922e-06 3.063931267611e-05 0.0 
3.063931267611e-05 1.086894653865e-03 0.0 
0.0 0.0 0.0 
3.747298191747e-07 2.980479847499e-05 0.0 
2.980479847499e-05 4.462367993905e-03 0.0 
0.0 0.0 0.0 
1.773380777781e-07 3.577688154680e-05 0.0 
3.577688154680e-05 7.514656676773e-03 0.0 
0.0 0.0 0.0 
2.919630841092e-06 -1.971047143719e-05 0.0 
-1.971047143719e-05 9.680988138228e-05 0.0 
0.0 0.0 0.0 
-6.723011757304e-07 -3.257801566679e-05 0.0 
-3.257801566679e-05 6.665434425078e-03 0.0 
0.0 0.0 0.0 
3.550290057053e-06 -1.071864418847e-06 0.0 
-1.071864418847e-06 1.191970810879e-04 0.0 
0.0 0.0 0.0 
-1.562584911463e-07 2.943519155651e-05 0.0 
2.943519155651e-05 5.737724812913e-03 0.0 
0.0 0.0 0.0 
-5.189722460219e-06 1.241598436958e-07 0.0 
1.241598436958e-07 1.207256833486e-04 0.0 
0.0 0.0 0.0 
-7.565664306264e-06 -7.443792868106e-06 0.0 
-7.443792868106e-06 1.155596658458e-04 0.0 
0.0 0.0 0.0 
-4.600427531143e-07 2.946114379694e-05 0.0 
2.946114379694e-05 5.501318934256e-03 0.0 
0.0 0.0 0.0 
5.106197837890e-07 2.973872756308e-05 0.0 
2.973872756308e-05 7.301243436392e-03 0.0 
0.0 0.0 0.0 
3.654827269717e-07 -1.444468022224e-05 0.0 
-1.444468022224e-05 5.724472759736e-03 0.0 
0.0 0.0 0.0 
-8.463724802121e-07 -2.694339356874e-05 0.0 
-2.694339356874e-05 4.341598964459e-03 0.0 
0.0 0.0 0.0 
7.502213412058e-06 -3.137790888070e-06 0.0 
-3.137790888070e-06 3.996753145605e-04 0.0 
0.0 0.0 0.0 
-2.406179694381e-07 -3.001379175413e-05 0.0 
-3.001379175413e-05 5.673412194469e-03 0.0 
0.0 0.0 0.0 
0.0 -3.896473551694e-06 0.0 
-3.896473551694e-06 8.175127668225e-03 0.0 
0.0 0.0 0.0 
-1.102058118541e-06 -2.223588321232e-05 0.0 
-2.223588321232e-05 8.190920924592e-03 0.0 
0.0 0.0 0.0 
1.793853894316e-07 1.674956044966e-06 0.0 
1.674956044966e-06 4.298769826016e-03 0.0 
0.0 0.0 0.0 
1.332989494340e-07 2.879095255372e-05 0.0 
2.879095255372e-05 5.974035184920e-03 0.0 
0.0 0.0 0.0 
0.0 1.995622827304e-06 0.0 
1.995622827304e-06 8.199535531427e-03 0.0 
0.0 0.0 0.0 
-3.563670882833e-07 -3.175568620300e-05 0.0 
-3.175568620300e-05 6.384950694959e-03 0.0 
0.0 0.0 0.0 
9.695015390498e-07 3.679851015311e-06 0.0 
3.679851015311e-06 7.480521613106e-04 0.0 
0.0 0.0 0.0 
1.018376172879e-05 -4.760868615890e-06 0.0 
-4.760868615890e-06 4.006555084055e-04 0.0 
0.0 0.0 0.0 
1.525799982804e-06 -9.188920568888e-06 0.0 
-9.188920568888e-06 3.983938903689e-04 0.0 
0.0 0.0 0.0 
1.838844105428e-06 2.979144896769e-05 0.0 
2.979144896769e-05 3.472354389320e-03 0.0 
0.0 0.0 0.0 
-3.333824745821e-06 -1.839389259482e-05 0.0 
-1.839389259482e-05 8.194309289637e-03 0.0 
0.0 0.0 0.0 
2.860814384276e-06 -3.545957355519e-05 0.0 
-3.545957355519e-05 7.736140002449e-03 0.0 
0.0 0.0 0.0 
1.063123272438e-05 4.029870934204e-06 0.0 
4.029870934204e-06 1.075959267141e-04 0.0 
0.0 0.0 0.0 
-1.663773746552e-06 -2.831690651519e-05 0.0 
-2.831690651519e-05 4.113602502856e-03 0.0 
0.0 0.0 0.0 
0.0 7.876078255150e-07 0.0 
7.876078255150e-07 8.219234861998e-03 0.0 
0.0 0.0 0.0 
-5.681728270091e-06 5.526942298186e-06 0.0 
5.526942298186e-06 8.186902471865e-03 0.0 
0.0 0.0 0.0 
5.296076654338e-06 5.852887440336e-08 0.0 
5.852887440336e-08 8.190024513771e-03 0.0 
0.0 0.0 0.0 
-2.112142452160e-06 3.265595384337e-05 0.0 
3.265595384337e-05 6.247092265633e-03 0.0 
0.0 0.0 0.0 
2.476087112901e-06 -3.298075690471e-05 0.0 
-3.298075690471e-05 6.883873511102e-03 0.0 
0.0 0.0 0.0 
0.0 -1.128088090277e-06 0.0 
-1.128088090277e-06 8.177794720562e-03 0.0 
0.0 0.0 0.0 
0.0 -4.340675076962e-06 0.0 
-4.340675076962e-06 8.196402705537e-03 0.0 
0.0 0.0 0.0 
2.577070327581e-06 2.676665002108e-05 0.0 
2.676665002108e-05 6.667526592711e-03 0.0 
0.0 0.0 0.0 
1.513161183153e-05 1.710970414645e-05 0.0 
1.710970414645e-05 9.194658454059e-05 0.0 
0.0 0.0 0.0 
3.929550669302e-07 -3.417609230703e-07 0.0 
-3.417609230703e-07 4.292193963770e-03 0.0 
0.0 0.0 0.0 
-2.343597297116e-06 4.490081040976e-06 0.0 
4.490081040976e-06 4.309180148816e-03 0.0 
0.0 0.0 0.0 
4.190179865748e-06 2.352677298884e-06 0.0 
2.352677298884e-06 1.177763765161e-04 0.0 
0.0 0.0 0.0 
0.0 1.485842159883e-06 0.0 
1.485842159883e-06 8.212675664237e-03 0.0 
0.0 0.0 0.0 
-5.594529788766e-06 3.720155401755e-06 0.0 
3.720155401755e-06 8.181604047231e-03 0.0 
0.0 0.0 0.0 
0.0 -4.066798891323e-08 0.0 
-4.066798891323e-08 8.175773638214e-03 0.0 
0.0 0.0 0.0 
-9.694388221959e-06 6.530844611133e-06 0.0 
6.530844611133e-06 1.175424000337e-04 0.0 
0.0 0.0 0.0 
-7.420607455066e-06 9.026866170637e-07 0.0 
9.026866170637e-07 1.199704259254e-04 0.0 
0.0 0.0 0.0 
0.0 -3.289253527925e-07 0.0 
-3.289253527925e-07 8.192237266261e-03 0.0 
0.0 0.0 0.0 
0.0 -3.264394994901e-06 0.0 
-3.264394994901e-06 8.187988656993e-03 0.0 
0.0 0.0 0.0 
-6.919597777877e-06 -3.527878260687e-05 0.0 
-3.527878260687e-05 6.034760631257e-03 0.0 
0.0 0.0 0.0 
-8.510432580877e-07 4.751727693096e-06 0.0 
4.751727693096e-06 4.285344351689e-03 0.0 
0.0 0.0 0.0 
2.683986186192e-06 -3.459835980163e-05 0.0 
-3.459835980163e-05 6.457660603891e-03 0.0 
0.0 0.0 0.0 
-6.861934953695e-06 -3.426846096447e-05 0.0 
-3.426846096447e-05 5.183766284814e-03 0.0 
0.0 0.0 0.0 
4.627822399739e-06 1.961682565309e-06 0.0 
1.961682565309e-06 4.284830536204e-03 0.0 
0.0 0.0 0.0 
8.300352891677e-06 6.649077062262e-06 0.0 
6.649077062262e-06 1.167019045505e-04 0.0 
0.0 0.0 0.0 
-5.432688386819e-06 -4.677590107203e-06 0.0 
-4.677590107203e-06 1.291331971909e-04 0.0 
0.0 0.0 0.0 
8.449059422766e-06 -1.264693881177e-06 0.0 
-1.264693881177e-06 1.135893615758e-04 0.0 
0.0 0.0 0.0 
2.391738480600e-07 -6.656309801275e-07 0.0 
-6.656309801275e-07 1.187325732095e-04 0.0 
0.0 0.0 0.0 
-4.384163389326e-06 3.532648373693e-05 0.0 
3.532648373693e-05 4.332476753327e-03 0.0 
0.0 0.0 0.0 
9.268740073232e-07 3.096847634878e-05 0.0 
3.096847634878e-05 3.898965521726e-03 0.0 
0.0 0.0 0.0 
4.483980035053e-06 1.782075101608e-06 0.0 
1.782075101608e-06 1.183686621558e-04 0.0 
0.0 0.0 0.0 
5.544118397705e-07 3.365027535666e-05 0.0 
3.365027535666e-05 5.592975241650e-03 0.0 
0.0 0.0 0.0 
-8.291903085267e-07 -1.963999594769e-06 0.0 
-1.963999594769e-06 1.175745159243e-04 0.0 
0.0 0.0 0.0 
0.0 7.662433395813e-07 0.0 
7.662433395813e-07 8.192985495153e-03 0.0 
0.0 0.0 0.0 
0.0 1.838306053831e-06 0.0 
1.838306053831e-06 8.186751761455e-03 0.0 
0.0 0.0 0.0 
0.0 -1.102931253809e-06 0.0 
-1.102931253809e-06 8.187377665247e-03 0.0 
0.0 0.0 0.0 
2.733773697416e-06 3.628422774923e-05 0.0 
3.628422774923e-05 1.336015036602e-03 0.0 
0.0 0.0 0.0 
3.438971045044e-06 3.152152908620e-05 0.0 
3.152152908620e-05 2.621195997146e-03 0.0 
0.0 0.0 0.0 
0.0 -7.895382820809e-07 0.0 
-7.895382820809e-07 8.174154339761e-03 0.0 
0.0 0.0 0.0 
1.352360189166e-06 2.874362922043e-05 0.0 
2.874362922043e-05 6.884430799717e-03 0.0 
0.0 0.0 0.0 
0.0 -3.257993637897e-06 0.0 
-3.257993637897e-06 8.218170486823e-03 0.0 
0.0 0.0 0.0 
-1.037670251502e-06 3.062179852551e-05 0.0 
3.062179852551e-05 7.315428004869e-03 0.0 
0.0 0.0 0.0 
-1.469939184151e-06 3.530563137824e-05 0.0 
3.530563137824e-05 7.746554752308e-03 0.0 
0.0 0.0 0.0 
1.384532443360e-06 -3.101637586375e-05 0.0 
-3.101637586375e-05 3.684411091560e-03 0.0 
0.0 0.0 0.0 
-4.630766690328e-06 -5.084609829353e-06 0.0 
-5.084609829353e-06 8.180169139895e-03 0.0 
0.0 0.0 0.0 
-4.348446010050e-06 1.766053502536e-05 0.0 
1.766053502536e-05 8.190821488083e-03 0.0 
0.0 0.0 0.0 
4.896426397671e-08 -3.148780525238e-05 0.0 
-3.148780525238e-05 7.077162366639e-03 0.0 
0.0 0.0 0.0 
-1.258529479409e-06 -3.128732729817e-05 0.0 
-3.128732729817e-05 7.518453909168e-03 0.0 
0.0 0.0 0.0 
1.517824996355e-06 -2.852036731488e-05 0.0 
-2.852036731488e-05 6.039571542197e-03 0.0 
0.0 0.0 0.0 
2.023393746331e-06 2.927864774073e-07 0.0 
2.927864774073e-07 1.185115998530e-04 0.0 
0.0 0.0 0.0 
-5.420813347645e-06 -3.097661954899e-05 0.0 
-3.097661954899e-05 3.757562705193e-03 0.0 
0.0 0.0 0.0 
8.217509819497e-06 -2.077073762829e-06 0.0 
-2.077073762829e-06 3.929181392912e-04 0.0 
0.0 0.0 0.0 
4.182936819142e-08 -2.654243651925e-05 0.0 
-2.654243651925e-05 7.221580516902e-03 0.0 
0.0 0.0 0.0 
2.564593590826e-07 2.926324151830e-05 0.0 
2.926324151830e-05 3.986523526660e-03 0.0 
0.0 0.0 0.0 
8.955656309872e-07 2.834208699122e-05 0.0 
2.834208699122e-05 6.693248934464e-03 0.0 
0.0 0.0 0.0 
-2.413756705621e-08 -2.979172954150e-05 0.0 
-2.979172954150e-05 1.934968898086e-03 0.0 
0.0 0.0 0.0 
4.860908703552e-06 2.367510123215e-05 0.0 
2.367510123215e-05 7.437986148693e-04 0.0 
0.0 0.0 0.0 
2.453131053848e-07 -2.895968253792e-05 0.0 
-2.895968253792e-05 7.120422909888e-03 0.0 
0.0 0.0 0.0 
3.630575964753e-06 -3.023055670010e-05 0.0 
-3.023055670010e-05 4.177731579717e-03 0.0 
0.0 0.0 0.0 
-4.638910029109e-06 3.062956922317e-05 0.0 
3.062956922317e-05 3.264952776118e-03 0.0 
0.0 0.0 0.0 
7.006743356630e-07 -2.918507661531e-05 0.0 
-2.918507661531e-05 6.702382265714e-03 0.0 
0.0 0.0 0.0 
3.192435410693e-06 2.969135193666e-05 0.0 
2.969135193666e-05 7.264649967424e-03 0.0 
0.0 0.0 0.0 
1.246512207009e-06 -3.094255670132e-05 0.0 
-3.094255670132e-05 3.263787256709e-03 0.0 
0.0 0.0 0.0 
3.575028295622e-08 -3.110252488048e-05 0.0 
-3.110252488048e-05 6.316535259284e-03 0.0 
0.0 0.0 0.0 
-2.195911086300e-08 2.937042676337e-05 0.0 
2.937042676337e-05 5.538465463206e-03 0.0 
0.0 0.0 0.0 
9.526662778647e-07 3.077860877691e-05 0.0 
3.077860877691e-05 6.030433149309e-03 0.0 
0.0 0.0 0.0 
-1.670816377475e-07 2.833494781689e-05 0.0 
2.833494781689e-05 6.220753455538e-03 0.0 
0.0 0.0 0.0 
-5.662955718799e-07 2.848867291193e-05 0.0 
2.848867291193e-05 3.368944035660e-03 0.0 
0.0 0.0 0.0 
-9.938702290047e-07 -2.636167534416e-05 0.0 
-2.636167534416e-05 3.947631282374e-03 0.0 
0.0 0.0 0.0 
1.662446207362e-07 -2.814914374245e-05 0.0 
-2.814914374245e-05 4.356919294876e-03 0.0 
0.0 0.0 0.0 
4.048667423540e-08 2.956210633452e-05 0.0 
2.956210633452e-05 5.664229494517e-03 0.0 
0.0 0.0 0.0 
1.224660461929e-08 -3.123608918802e-05 0.0 
-3.123608918802e-05 6.890546624602e-03 0.0 
0.0 0.0 0.0 
-1.194849092112e-06 2.972711780415e-05 0.0 
2.972711780415e-05 6.415289714775e-03 0.0 
0.0 0.0 0.0 
1.157188646905e-06 3.118290029819e-05 0.0 
3.118290029819e-05 2.017566508076e-03 0.0 
0.0 0.0 0.0 
5.822700740898e-06 3.331616239769e-05 0.0 
3.331616239769e-05 7.237947429816e-03 0.0 
0.0 0.0 0.0 
-7.108886541651e-07 3.176465625043e-05 0.0 
3.176465625043e-05 6.811848561348e-03 0.0 
0.0 0.0 0.0 
-9.189663614517e-07 3.559923297386e-05 0.0 
3.559923297386e-05 4.866172521244e-03 0.0 
0.0 0.0 0.0 
3.848656282557e-08 2.947828473078e-05 0.0 
2.947828473078e-05 5.904185292188e-03 0.0 
0.0 0.0 0.0 
3.013127640727e-07 2.996604707599e-05 0.0 
2.996604707599e-05 5.847503014435e-03 0.0 
0.0 0.0 0.0 
-2.845218244119e-06 -3.224864090531e-05 0.0 
-3.224864090531e-05 7.282228482754e-03 0.0 
0.0 0.0 0.0 
-1.515736791635e-08 2.820601358952e-05 0.0 
2.820601358952e-05 7.042346000706e-03 0.0 
0.0 0.0 0.0 
7.009250957424e-08 -2.982935964647e-05 0.0 
-2.982935964647e-05 5.364900829379e-03 0.0 
0.0 0.0 0.0 
2.089255901172e-06 -2.970054572583e-05 0.0 
-2.970054572583e-05 7.306584196522e-03 0.0 
0.0 0.0 0.0 
8.654370042827e-08 2.937956004805e-05 0.0 
2.937956004805e-05 6.724807571435e-03 0.0 
0.0 0.0 0.0 
-1.480872757753e-09 -2.759537112195e-05 0.0 
-2.759537112195e-05 6.415235776801e-03 0.0 
0.0 0.0 0.0 
7.837423210422e-07 -3.348592882241e-05 0.0 
-3.348592882241e-05 7.426678836080e-03 0.0 
0.0 0.0 0.0 
-4.775498267939e-07 -3.153675426957e-05 0.0 
-3.153675426957e-05 7.248730893660e-03 0.0 
0.0 0.0 0.0 
-1.145612354980e-07 -3.156109750468e-05 0.0 
-3.156109750468e-05 6.159222461652e-03 0.0 
0.0 0.0 0.0 
1.586959570421e-07 -2.979590483960e-05 0.0 
-2.979590483960e-05 6.079838648529e-03 0.0 
0.0 0.0 0.0 
6.343378398110e-07 2.889816507889e-05 0.0 
2.889816507889e-05 1.997933504028e-03 0.0 
0.0 0.0 0.0 
5.325339647033e-07 2.999657610483e-05 0.0 
2.999657610483e-05 1.850027239027e-03 0.0 
0.0 0.0 0.0 
-8.932359350511e-06 -3.592347704017e-05 0.0 
-3.592347704017e-05 8.950255199971e-04 0.0 
0.0 0.0 0.0 
2.015113051979e-06 -9.954748871802e-07 0.0 
-9.954748871802e-07 4.031924538836e-04 0.0 
0.0 0.0 0.0 
1.385412282451e-06 -3.110725218876e-05 0.0 
-3.110725218876e-05 7.048112308149e-03 0.0 
0.0 0.0 0.0 
9.677069743308e-07 2.937131468656e-05 0.0 
2.937131468656e-05 7.064966679334e-03 0.0 
0.0 0.0 0.0 
1.239388829122e-06 -7.419951438217e-09 0.0 
-7.419951438217e-09 3.947651598406e-04 0.0 
0.0 0.0 0.0 
2.184577574171e-06 -2.967853828983e-05 0.0 
-2.967853828983e-05 7.110242638001e-03 0.0 
0.0 0.0 0.0 
6.069754017846e-06 3.242492872950e-05 0.0 
3.242492872950e-05 5.059860335945e-03 0.0 
0.0 0.0 0.0 
1.225437469721e-06 -3.058152762724e-05 0.0 
-3.058152762724e-05 6.520110050788e-03 0.0 
0.0 0.0 0.0 
-3.073624746941e-07 2.932360646728e-05 0.0 
2.932360646728e-05 6.640946158855e-03 0.0 
0.0 0.0 0.0 
5.128957258904e-10 2.866754797580e-05 0.0 
2.866754797580e-05 2.920586439980e-03 0.0 
0.0 0.0 0.0 
-2.534240739482e-07 -3.031849836096e-05 0.0 
-3.031849836096e-05 6.649522171100e-03 0.0 
0.0 0.0 0.0 
1.547347539654e-06 -4.138813453279e-05 0.0 
-4.138813453279e-05 4.864462899502e-03 0.0 
0.0 0.0 0.0 
-6.489767160334e-07 -3.029642276747e-05 0.0 
-3.029642276747e-05 6.091592605755e-03 0.0 
0.0 0.0 0.0 
3.552908738103e-06 3.397465232918e-05 0.0 
3.397465232918e-05 7.615172408360e-03 0.0 
0.0 0.0 0.0 
7.461430959754e-07 2.275476438938e-05 0.0 
2.275476438938e-05 1.925582807791e-03 0.0 
0.0 0.0 0.0 
-1.940598704842e-06 -2.564985106033e-05 0.0 
-2.564985106033e-05 7.466675499729e-03 0.0 
0.0 0.0 0.0 
2.058958599171e-07 -2.876354259605e-05 0.0 
-2.876354259605e-05 6.394088746879e-03 0.0 
0.0 0.0 0.0 
1.115852528155e-06 3.116668821042e-05 0.0 
3.116668821042e-05 2.180307063449e-03 0.0 
0.0 0.0 0.0 
1.033248931970e-06 -2.670115518856e-05 0.0 
-2.670115518856e-05 2.276532855515e-03 0.0 
0.0 0.0 0.0 
2.854016849518e-07 3.033545331595e-05 0.0 
3.033545331595e-05 4.724956327771e-03 0.0 
0.0 0.0 0.0 
-2.030924500018e-06 3.081930226005e-05 0.0 
3.081930226005e-05 5.688027048929e-03 0.0 
0.0 0.0 0.0 
1.336348376846e-06 2.921510027385e-05 0.0 
2.921510027385e-05 3.137947044326e-03 0.0 
0.0 0.0 0.0 
1.411738748125e-07 -3.072700837250e-05 0.0 
-3.072700837250e-05 6.627001151281e-03 0.0 
0.0 0.0 0.0 
1.871978145163e-06 -3.421997483914e-05 0.0 
-3.421997483914e-05 5.957094754839e-03 0.0 
0.0 0.0 0.0 
4.964632187576e-07 2.855574869519e-05 0.0 
2.855574869519e-05 4.592004968117e-03 0.0 
0.0 0.0 0.0 
-1.565684597304e-06 -2.817385600851e-05 0.0 
-2.817385600851e-05 6.224779918348e-03 0.0 
0.0 0.0 0.0 
1.128663529304e-07 -3.052310891902e-05 0.0 
-3.052310891902e-05 6.465143411891e-03 0.0 
0.0 0.0 0.0 
-2.134420741706e-06 3.310709131998e-05 0.0 
3.310709131998e-05 6.385306280465e-03 0.0 
0.0 0.0 0.0 
8.698175151256e-07 -2.824553098519e-05 0.0 
-2.824553098519e-05 1.648685281817e-03 0.0 
0.0 0.0 0.0 
5.960933724403e-07 2.839938131125e-05 0.0 
2.839938131125e-05 4.354849661797e-03 0.0 
0.0 0.0 0.0 
1.629250594215e-06 3.169986963630e-05 0.0 
3.169986963630e-05 6.968267071336e-03 0.0 
0.0 0.0 0.0 
-1.780603320345e-08 -3.033231142160e-05 0.0 
-3.033231142160e-05 6.585303446505e-03 0.0 
0.0 0.0 0.0 
1.267999679699e-06 3.287771093038e-05 0.0 
3.287771093038e-05 3.924980286651e-03 0.0 
0.0 0.0 0.0 
6.270540842124e-08 -2.986000039860e-05 0.0 
-2.986000039860e-05 5.547964405806e-03 0.0 
0.0 0.0 0.0 
-6.259006857245e-08 -3.101134789778e-05 0.0 
-3.101134789778e-05 7.290725166735e-03 0.0 
0.0 0.0 0.0 
2.710924597471e-06 2.892059979289e-05 0.0 
2.892059979289e-05 6.152160053769e-03 0.0 
0.0 0.0 0.0 
-6.235776172314e-06 -3.077268315522e-05 0.0 
-3.077268315522e-05 8.478510401424e-04 0.0 
0.0 0.0 0.0 
-7.259283221650e-06 -2.990083813011e-05 0.0 
-2.990083813011e-05 8.659241208591e-04 0.0 
0.0 0.0 0.0 
-1.995551530798e-06 -2.751309979209e-05 0.0 
-2.751309979209e-05 1.913443670664e-03 0.0 
0.0 0.0 0.0 
-4.030312396042e-07 3.045462852195e-05 0.0 
3.045462852195e-05 6.881233729803e-03 0.0 
0.0 0.0 0.0 
-1.199538074648e-06 2.939238439328e-05 0.0 
2.939238439328e-05 5.920657759105e-03 0.0 
0.0 0.0 0.0 
4.170613948862e-06 -3.278498759307e-05 0.0 
-3.278498759307e-05 5.151926560088e-03 0.0 
0.0 0.0 0.0 
5.249921781747e-07 2.880504755407e-05 0.0 
2.880504755407e-05 5.264476559419e-03 0.0 
0.0 0.0 0.0 
5.579152755342e-07 -2.974326244896e-05 0.0 
-2.974326244896e-05 6.977960959232e-03 0.0 
0.0 0.0 0.0 
1.025083418149e-07 2.876281335671e-05 0.0 
2.876281335671e-05 4.776154289847e-03 0.0 
0.0 0.0 0.0 
9.162050733647e-07 2.973030921998e-05 0.0 
2.973030921998e-05 6.455910269615e-03 0.0 
0.0 0.0 0.0 
1.663937324814e-06 -2.767595425608e-05 0.0 
-2.767595425608e-05 2.007083616453e-03 0.0 
0.0 0.0 0.0 
-6.155207252778e-07 3.645492896463e-05 0.0 
3.645492896463e-05 7.429584817783e-03 0.0 
0.0 0.0 0.0 
2.925633488804e-07 -3.038874153526e-05 0.0 
-3.038874153526e-05 4.601291466107e-03 0.0 
0.0 0.0 0.0 
-1.186103811390e-06 -2.927762288742e-05 0.0 
-2.927762288742e-05 2.189719257296e-03 0.0 
0.0 0.0 0.0 
-2.186513848867e-07 -3.271786385412e-05 0.0 
-3.271786385412e-05 4.364842008390e-03 0.0 
0.0 0.0 0.0 
1.400057188627e-06 2.813691599940e-05 0.0 
2.813691599940e-05 3.321471247383e-03 0.0 
0.0 0.0 0.0 
6.113975632438e-07 -3.006338888235e-05 0.0 
-3.006338888235e-05 2.541213287452e-03 0.0 
0.0 0.0 0.0 
5.773477731452e-07 2.858745895936e-05 0.0 
2.858745895936e-05 5.140089838676e-03 0.0 
0.0 0.0 0.0 
-5.205842701361e-06 5.493908210185e-06 0.0 
5.493908210185e-06 1.256101986942e-04 0.0 
0.0 0.0 0.0 
-1.097794650184e-05 -1.520349534507e-06 0.0 
-1.520349534507e-06 1.346272839515e-04 0.0 
0.0 0.0 0.0 
-4.980996126669e-08 -2.948962198280e-05 0.0 
-2.948962198280e-05 5.856636416776e-03 0.0 
0.0 0.0 0.0 
2.348849198697e-06 -2.671528789705e-05 0.0 
-2.671528789705e-05 1.830454994595e-03 0.0 
0.0 0.0 0.0 
1.509907645580e-07 -3.020395124433e-05 0.0 
-3.020395124433e-05 5.913352357654e-03 0.0 
0.0 0.0 0.0 
4.817221843645e-08 -2.979024527018e-05 0.0 
-2.979024527018e-05 5.730985031436e-03 0.0 
0.0 0.0 0.0 
9.540235328398e-07 2.984370797010e-05 0.0 
2.984370797010e-05 3.616549819398e-03 0.0 
0.0 0.0 0.0 
5.227691499687e-07 3.066704951133e-05 0.0 
3.066704951133e-05 2.328798424399e-03 0.0 
0.0 0.0 0.0 
3.267756081282e-07 -3.117075357313e-05 0.0 
-3.117075357313e-05 6.966148308971e-03 0.0 
0.0 0.0 0.0 
-7.726978045297e-06 -1.102331083287e-05 0.0 
-1.102331083287e-05 9.468663192749e-04 0.0 
0.0 0.0 0.0 
-6.152620157795e-07 2.630820841889e-05 0.0 
2.630820841889e-05 3.509867831470e-03 0.0 
0.0 0.0 0.0 
1.039755473053e-06 -2.552590464652e-05 0.0 
-2.552590464652e-05 7.200568115275e-03 0.0 
0.0 0.0 0.0 
4.880932089391e-06 2.874828159176e-05 0.0 
2.874828159176e-05 1.561268076286e-03 0.0 
0.0 0.0 0.0 
-1.368174989747e-06 -2.940022843950e-05 0.0 
-2.940022843950e-05 5.503133402549e-03 0.0 
0.0 0.0 0.0 
2.405967010510e-06 -3.408004611954e-05 0.0 
-3.408004611954e-05 5.068770157990e-03 0.0 
0.0 0.0 0.0 
1.092777700773e-06 -2.926688800247e-05 0.0 
-2.926688800247e-05 1.511430218801e-03 0.0 
0.0 0.0 0.0 
-3.977975254754e-07 -2.747685858775e-05 0.0 
-2.747685858775e-05 7.104032718549e-03 0.0 
0.0 0.0 0.0 
-1.887043610260e-07 -3.037651343672e-05 0.0 
-3.037651343672e-05 6.308713598732e-03 0.0 
0.0 0.0 0.0 
6.421290832392e-09 2.689402921900e-05 0.0 
2.689402921900e-05 1.819702473577e-03 0.0 
0.0 0.0 0.0 
4.234657420277e-07 -2.828320168129e-05 0.0 
-2.828320168129e-05 7.149854865570e-03 0.0 
0.0 0.0 0.0 
-8.456527471612e-07 2.585541859514e-05 0.0 
2.585541859514e-05 7.141413370210e-03 0.0 
0.0 0.0 0.0 
8.962477755503e-07 -3.179092962454e-05 0.0 
-3.179092962454e-05 2.061246034765e-03 0.0 
0.0 0.0 0.0 
-2.445554861841e-06 -3.238403478066e-05 0.0 
-3.238403478066e-05 2.763655929247e-03 0.0 
0.0 0.0 0.0 
6.311556839389e-07 -3.027308003198e-05 0.0 
-3.027308003198e-05 2.117721555227e-03 0.0 
0.0 0.0 0.0 
1.871440082457e-06 -2.988609125117e-05 0.0 
-2.988609125117e-05 6.279616424899e-03 0.0 
0.0 0.0 0.0 
-3.520348509367e-07 2.901370191775e-05 0.0 
2.901370191775e-05 4.960368208338e-03 0.0 
0.0 0.0 0.0 
-1.741972954106e-06 2.798480388905e-05 0.0 
2.798480388905e-05 7.147132571423e-03 0.0 
0.0 0.0 0.0 
-3.388545268823e-07 2.903171070553e-05 0.0 
2.903171070553e-05 6.959083257335e-03 0.0 
0.0 0.0 0.0 
6.740466520494e-07 -3.009119057986e-05 0.0 
-3.009119057986e-05 6.096570389052e-03 0.0 
0.0 0.0 0.0 
3.500071037443e-07 2.947904757704e-05 0.0 
2.947904757704e-05 6.087452450100e-03 0.0 
0.0 0.0 0.0 
2.055967405212e-07 3.015784420747e-05 0.0 
3.015784420747e-05 1.685290313545e-03 0.0 
0.0 0.0 0.0 
9.616739848894e-07 2.961414238783e-05 0.0 
2.961414238783e-05 6.270514420564e-03 0.0 
0.0 0.0 0.0 
-3.283090667106e-07 2.992790522036e-05 0.0 
2.992790522036e-05 6.301672370697e-03 0.0 
0.0 0.0 0.0 
7.289632868446e-07 -2.904323633058e-05 0.0 
-2.904323633058e-05 4.969355416359e-03 0.0 
0.0 0.0 0.0 
-9.068672703894e-07 -3.052996287470e-05 0.0 
-3.052996287470e-05 5.927629470701e-03 0.0 
0.0 0.0 0.0 
1.431098970439e-07 -3.080068945414e-05 0.0 
-3.080068945414e-05 6.542052503866e-03 0.0 
0.0 0.0 0.0 
-3.434426596449e-07 2.873808534653e-05 0.0 
2.873808534653e-05 4.422928357629e-03 0.0 
0.0 0.0 0.0 
-5.784074175175e-07 2.970398596146e-05 0.0 
2.970398596146e-05 6.769070714663e-03 0.0 
0.0 0.0 0.0 
-2.660153588296e-06 3.198798716743e-05 0.0 
3.198798716743e-05 4.137641274971e-03 0.0 
0.0 0.0 0.0 
-6.656227629076e-07 -3.051748141713e-05 0.0 
-3.051748141713e-05 4.785479534897e-03 0.0 
0.0 0.0 0.0 
1.103430584681e-07 3.393947200847e-05 0.0 
3.393947200847e-05 3.089687982360e-03 0.0 
0.0 0.0 0.0 
1.036388474374e-06 -2.751363477750e-05 0.0 
-2.751363477750e-05 3.265116981563e-03 0.0 
0.0 0.0 0.0 
-8.564743627648e-07 2.989945996463e-05 0.0 
2.989945996463e-05 6.111356637882e-03 0.0 
0.0 0.0 0.0 
2.192906560783e-07 -2.914060555896e-05 0.0 
-2.914060555896e-05 4.578888708035e-03 0.0 
0.0 0.0 0.0 
7.307720617522e-07 -3.095268366584e-05 0.0 
-3.095268366584e-05 2.301444287276e-03 0.0 
0.0 0.0 0.0 
-3.184394920086e-06 -2.530722810174e-05 0.0 
-2.530722810174e-05 1.093898392691e-03 0.0 
0.0 0.0 0.0 
-3.751719934719e-08 -3.012327816475e-05 0.0 
-3.012327816475e-05 6.118359005284e-03 0.0 
0.0 0.0 0.0 
6.197009203568e-07 2.950629162541e-05 0.0 
2.950629162541e-05 2.292078481510e-03 0.0 
0.0 0.0 0.0 
6.647739520638e-06 3.053701165337e-05 0.0 
3.053701165337e-05 7.461024161667e-03 0.0 
0.0 0.0 0.0 
3.849784333543e-07 2.967885657890e-05 0.0 
2.967885657890e-05 6.344179561460e-03 0.0 
0.0 0.0 0.0 
6.768431632942e-07 2.918001332937e-05 0.0 
2.918001332937e-05 6.511043763529e-03 0.0 
0.0 0.0 0.0 
5.440626922315e-07 -3.876186988147e-06 0.0 
-3.876186988147e-06 7.834691479861e-03 0.0 
0.0 0.0 0.0 
6.675428940728e-07 -3.310372072157e-05 0.0 
-3.310372072157e-05 3.938817404722e-03 0.0 
0.0 0.0 0.0 
4.111728464373e-07 2.906673530488e-05 0.0 
2.906673530488e-05 2.051856068535e-03 0.0 
0.0 0.0 0.0 
-5.132701730304e-07 3.299497372820e-05 0.0 
3.299497372820e-05 1.257873447754e-03 0.0 
0.0 0.0 0.0 
1.206080555427e-07 -3.023647229130e-05 0.0 
-3.023647229130e-05 6.153014825702e-03 0.0 
0.0 0.0 0.0 
-8.097972843402e-07 3.052847917614e-05 0.0 
3.052847917614e-05 5.730335973416e-03 0.0 
0.0 0.0 0.0 
-1.125915019218e-06 2.778647614004e-05 0.0 
2.778647614004e-05 8.517482673780e-04 0.0 
0.0 0.0 0.0 
2.863992426994e-06 -3.045600365325e-05 0.0 
-3.045600365325e-05 3.147102458797e-03 0.0 
0.0 0.0 0.0 
5.434866866327e-06 -2.634732901270e-05 0.0 
-2.634732901270e-05 1.772604092852e-03 0.0 
0.0 0.0 0.0 
-1.035692204221e-07 -2.850505587367e-05 0.0 
-2.850505587367e-05 5.694887605795e-03 0.0 
0.0 0.0 0.0 
6.239208649728e-06 -3.220521841774e-05 0.0 
-3.220521841774e-05 3.330676390521e-03 0.0 
0.0 0.0 0.0 
-4.915934082028e-08 2.924871386132e-05 0.0 
2.924871386132e-05 5.721633376383e-03 0.0 
0.0 0.0 0.0 
-2.906875657627e-06 -3.188820043169e-05 0.0 
-3.188820043169e-05 3.096564357905e-03 0.0 
0.0 0.0 0.0 
-7.149652230254e-07 -3.164695475702e-05 0.0 
-3.164695475702e-05 6.820119087508e-03 0.0 
0.0 0.0 0.0 
9.052392038189e-07 3.004499052833e-05 0.0 
3.004499052833e-05 2.715963165844e-03 0.0 
0.0 0.0 0.0 
-2.068130195987e-07 -3.015398869842e-05 0.0 
-3.015398869842e-05 6.208818990465e-03 0.0 
0.0 0.0 0.0 
6.495553961372e-08 -2.838061144188e-05 0.0 
-2.838061144188e-05 1.859174209613e-03 0.0 
0.0 0.0 0.0 
-2.197138848636e-08 -3.017414593509e-05 0.0 
-3.017414593509e-05 5.969573193541e-03 0.0 
0.0 0.0 0.0 
-9.285465746300e-07 -2.519893330263e-05 0.0 
-2.519893330263e-05 4.559678576540e-03 0.0 
0.0 0.0 0.0 
2.095852982276e-07 2.938725215139e-05 0.0 
2.938725215139e-05 6.327490130624e-03 0.0 
0.0 0.0 0.0 
-7.347985538919e-07 2.826861669053e-05 0.0 
2.826861669053e-05 3.091067796718e-03 0.0 
0.0 0.0 0.0 
6.674707335730e-07 3.205776104168e-05 0.0 
3.205776104168e-05 1.757938663234e-03 0.0 
0.0 0.0 0.0 
2.466428894676e-06 -2.954134617438e-05 0.0 
-2.954134617438e-05 5.308436495298e-03 0.0 
0.0 0.0 0.0 
-4.819494235919e-07 -2.947925248300e-05 0.0 
-2.947925248300e-05 5.746484022439e-03 0.0 
0.0 0.0 0.0 
-3.492408718886e-07 2.935211344839e-05 0.0 
2.935211344839e-05 4.000924386059e-03 0.0 
0.0 0.0 0.0 
-3.860647245224e-07 -3.188961188499e-05 0.0 
-3.188961188499e-05 5.732376887070e-03 0.0 
0.0 0.0 0.0 
-2.750453276246e-08 -2.876145332099e-05 0.0 
-2.876145332099e-05 2.098276261083e-03 0.0 
0.0 0.0 0.0 
-6.423891950602e-07 2.940616182541e-05 0.0 
2.940616182541e-05 5.838143599435e-03 0.0 
0.0 0.0 0.0 
-2.074131511987e-06 -2.928234945286e-05 0.0 
-2.928234945286e-05 1.583422642721e-03 0.0 
0.0 0.0 0.0 
-8.905201197562e-07 -3.139307452130e-05 0.0 
-3.139307452130e-05 7.054036459725e-03 0.0 
0.0 0.0 0.0 
-1.189399921886e-07 -2.926079809220e-05 0.0 
-2.926079809220e-05 5.982740928329e-03 0.0 
0.0 0.0 0.0 
-6.037927068325e-07 -2.969929850151e-05 0.0 
-2.969929850151e-05 6.325783787638e-03 0.0 
0.0 0.0 0.0 
-1.555940120301e-06 -3.154952268945e-05 0.0 
-3.154952268945e-05 7.397416309531e-03 0.0 
0.0 0.0 0.0 
1.041285320191e-07 -2.958814454002e-05 0.0 
-2.958814454002e-05 4.998844186409e-03 0.0 
0.0 0.0 0.0 
-8.562446930371e-07 2.833405767510e-05 0.0 
2.833405767510e-05 1.636366729939e-03 0.0 
0.0 0.0 0.0 
-1.088020118445e-09 -2.974247559561e-05 0.0 
-2.974247559561e-05 5.603165965610e-03 0.0 
0.0 0.0 0.0 
-3.655702581762e-07 3.140391167511e-05 0.0 
3.140391167511e-05 7.281060829094e-03 0.0 
0.0 0.0 0.0 
1.438111549845e-07 -2.768407809107e-05 0.0 
-2.768407809107e-05 2.756199015252e-03 0.0 
0.0 0.0 0.0 
5.165100454008e-07 -3.051706930908e-05 0.0 
-3.051706930908e-05 6.336619060638e-03 0.0 
0.0 0.0 0.0 
-1.381048388982e-07 -3.101319269731e-05 0.0 
-3.101319269731e-05 6.351275757410e-03 0.0 
0.0 0.0 0.0 
9.111544438944e-07 3.084365341954e-05 0.0 
3.084365341954e-05 2.148173565221e-03 0.0 
0.0 0.0 0.0 
-2.834360812720e-08 -2.999842236942e-05 0.0 
-2.999842236942e-05 5.786417100759e-03 0.0 
0.0 0.0 0.0 
2.384586099913e-06 -2.955344342209e-05 0.0 
-2.955344342209e-05 5.227425691332e-03 0.0 
0.0 0.0 0.0 
8.043721271278e-07 -2.846283589819e-05 0.0 
-2.846283589819e-05 2.430583584821e-03 0.0 
0.0 0.0 0.0 
1.701571562318e-06 -3.011554037817e-05 0.0 
-3.011554037817e-05 2.963833633963e-03 0.0 
0.0 0.0 0.0 
-1.235798079424e-07 -2.840532480524e-05 0.0 
-2.840532480524e-05 4.811568722983e-03 0.0 
0.0 0.0 0.0 
-1.034232625097e-07 2.930134788133e-05 0.0 
2.930134788133e-05 6.143854561883e-03 0.0 
0.0 0.0 0.0 
-1.180448325311e-06 -2.715925382297e-05 0.0 
-2.715925382297e-05 3.659878164543e-03 0.0 
0.0 0.0 0.0 
-2.404336307826e-08 -2.805433288202e-05 0.0 
-2.805433288202e-05 4.585145377067e-03 0.0 
0.0 0.0 0.0 
-4.217350875191e-07 2.987655516526e-05 0.0 
2.987655516526e-05 6.069504891376e-03 0.0 
0.0 0.0 0.0 
-1.447756644901e-06 3.199703881122e-05 0.0 
3.199703881122e-05 5.496009269920e-03 0.0 
0.0 0.0 0.0 
1.488657863646e-09 2.922062675876e-05 0.0 
2.922062675876e-05 5.416390263496e-03 0.0 
0.0 0.0 0.0 
-3.795648439997e-07 2.584545314529e-05 0.0 
2.584545314529e-05 4.548514639549e-03 0.0 
0.0 0.0 0.0 
5.463744634504e-08 -2.907176653163e-05 0.0 
-2.907176653163e-05 6.923320192956e-03 0.0 
0.0 0.0 0.0 
4.955521215599e-08 -2.971631029496e-05 0.0 
-2.971631029496e-05 5.419802016642e-03 0.0 
0.0 0.0 0.0 
-2.936340490756e-06 -2.768775366217e-05 0.0 
-2.768775366217e-05 5.270948256375e-03 0.0 
0.0 0.0 0.0 
3.982501465494e-06 -3.877874181047e-05 0.0 
-3.877874181047e-05 7.324927180691e-03 0.0 
0.0 0.0 0.0 
-1.367579012257e-07 -3.102255589205e-05 0.0 
-3.102255589205e-05 6.556875178241e-03 0.0 
0.0 0.0 0.0 
-1.846004499262e-07 2.938790637185e-05 0.0 
2.938790637185e-05 5.960402698685e-03 0.0 
0.0 0.0 0.0 
-1.268752251038e-07 2.944691986343e-05 0.0 
2.944691986343e-05 6.535007080284e-03 0.0 
0.0 0.0 0.0 
1.256173836506e-06 -2.958142755820e-05 0.0 
-2.958142755820e-05 3.442849992666e-03 0.0 
0.0 0.0 0.0 
1.445759729268e-06 -2.991959020380e-05 0.0 
-2.991959020380e-05 3.203258594959e-03 0.0 
0.0 0.0 0.0 
-1.465211830975e-06 -3.119580022330e-05 0.0 
-3.119580022330e-05 1.694736764818e-03 0.0 
0.0 0.0 0.0 
1.344609201759e-08 -2.964161006069e-05 0.0 
-2.964161006069e-05 5.841465935050e-03 0.0 
0.0 0.0 0.0 
1.423090644215e-06 -3.058401012785e-05 0.0 
-3.058401012785e-05 3.386798080579e-03 0.0 
0.0 0.0 0.0 
3.477002341601e-07 -3.026831075918e-05 0.0 
-3.026831075918e-05 5.884614929713e-03 0.0 
0.0 0.0 0.0 
4.769320616216e-07 -3.074697622160e-05 0.0 
-3.074697622160e-05 5.652156977664e-03 0.0 
0.0 0.0 0.0 
-1.202489712249e-07 -2.986776846261e-05 0.0 
-2.986776846261e-05 4.611511694547e-03 0.0 
0.0 0.0 0.0 
1.355761604760e-06 3.006417924845e-05 0.0 
3.006417924845e-05 2.772170975314e-03 0.0 
0.0 0.0 0.0 
-8.506395436925e-07 2.856094486604e-05 0.0 
2.856094486604e-05 2.959557592191e-03 0.0 
0.0 0.0 0.0 
1.291277673010e-06 2.974886074991e-05 0.0 
2.974886074991e-05 2.954561234158e-03 0.0 
0.0 0.0 0.0 
1.293960545379e-06 2.994394522491e-05 0.0 
2.994394522491e-05 3.194026225916e-03 0.0 
0.0 0.0 0.0 
1.878997324400e-07 2.949779179119e-05 0.0 
2.949779179119e-05 1.869561564497e-03 0.0 
0.0 0.0 0.0 
2.170811659319e-07 -3.055114577864e-05 0.0 
-3.055114577864e-05 6.740040000463e-03 0.0 
0.0 0.0 0.0 
2.298011023694e-07 2.944591602106e-05 0.0 
2.944591602106e-05 3.914090624382e-03 0.0 
0.0 0.0 0.0 
-6.371723026977e-08 -3.106100015885e-05 0.0 
-3.106100015885e-05 6.776211079867e-03 0.0 
0.0 0.0 0.0 
-8.499283643548e-08 2.945893538079e-05 0.0 
2.945893538079e-05 4.152194434150e-03 0.0 
0.0 0.0 0.0 
1.076089528596e-08 2.976451982786e-05 0.0 
2.976451982786e-05 5.594088153926e-03 0.0 
0.0 0.0 0.0 
7.184867456544e-08 2.980389489431e-05 0.0 
2.980389489431e-05 4.751992447612e-03 0.0 
0.0 0.0 0.0 
3.596171804787e-09 -2.861156766235e-05 0.0 
-2.861156766235e-05 4.532286324281e-03 0.0 
0.0 0.0 0.0 
5.838616996545e-07 -2.996766432140e-05 0.0 
-2.996766432140e-05 1.879380475156e-03 0.0 
0.0 0.0 0.0 
-2.069779687419e-06 2.765096539745e-05 0.0 
2.765096539745e-05 7.093862215068e-03 0.0 
0.0 0.0 0.0 
-2.936123592368e-06 -3.274399562340e-05 0.0 
-3.274399562340e-05 7.369189259469e-03 0.0 
0.0 0.0 0.0 
1.250279706433e-07 2.813976040045e-05 0.0 
2.813976040045e-05 5.839462287607e-03 0.0 
0.0 0.0 0.0 
9.010368611229e-07 3.056201405002e-05 0.0 
3.056201405002e-05 3.433570243160e-03 0.0 
0.0 0.0 0.0 
7.259715051333e-10 2.971827611042e-05 0.0 
2.971827611042e-05 5.172768444528e-03 0.0 
0.0 0.0 0.0 
-6.627850832608e-07 3.103545081556e-05 0.0 
3.103545081556e-05 5.877510908814e-03 0.0 
0.0 0.0 0.0 
1.150326752075e-06 -3.013708931248e-05 0.0 
-3.013708931248e-05 3.625740765288e-03 0.0 
0.0 0.0 0.0 
-1.507387602517e-07 -2.735265391523e-05 0.0 
-2.735265391523e-05 3.784709980018e-03 0.0 
0.0 0.0 0.0 
-5.074355212686e-07 -3.041914368486e-05 0.0 
-3.041914368486e-05 2.725305818650e-03 0.0 
0.0 0.0 0.0 
2.925273634435e-07 -2.811041984103e-05 0.0 
-2.811041984103e-05 2.337865923198e-03 0.0 
0.0 0.0 0.0 
8.837708020959e-07 -2.921201984973e-05 0.0 
-2.921201984973e-05 3.682518172979e-03 0.0 
0.0 0.0 0.0 
1.606313997371e-07 2.851237386478e-05 0.0 
2.851237386478e-05 2.476184107614e-03 0.0 
0.0 0.0 0.0 
8.026225286617e-07 -3.064226489468e-05 0.0 
-3.064226489468e-05 2.245631829030e-03 0.0 
0.0 0.0 0.0 
2.622289778653e-07 -2.946384634292e-05 0.0 
-2.946384634292e-05 4.761076380200e-03 0.0 
0.0 0.0 0.0 
-7.840274773852e-08 2.970778058162e-05 0.0 
2.970778058162e-05 5.777264418259e-03 0.0 
0.0 0.0 0.0 
-9.882256781779e-07 2.672311710009e-05 0.0 
2.672311710009e-05 6.886237184254e-03 0.0 
0.0 0.0 0.0 
-2.442471044539e-05 6.564902487623e-06 0.0 
6.564902487623e-06 1.297729511931e-04 0.0 
0.0 0.0 0.0 
-3.466845756028e-07 2.866002669459e-05 0.0 
2.866002669459e-05 4.027329622238e-03 0.0 
0.0 0.0 0.0 
-2.259471105770e-07 2.897653810221e-05 0.0 
2.897653810221e-05 3.972000639917e-03 0.0 
0.0 0.0 0.0 
4.472479613327e-07 3.012880838141e-05 0.0 
3.012880838141e-05 3.673954618962e-03 0.0 
0.0 0.0 0.0 
9.067314787892e-08 3.027531426059e-05 0.0 
3.027531426059e-05 5.645161274013e-03 0.0 
0.0 0.0 0.0 
1.839853638330e-07 2.993673950547e-05 0.0 
2.993673950547e-05 4.332034990346e-03 0.0 
0.0 0.0 0.0 
7.942955693174e-07 3.068084676551e-05 0.0 
3.068084676551e-05 2.900784667593e-03 0.0 
0.0 0.0 0.0 
5.483304408305e-07 -2.852177683391e-05 0.0 
-2.852177683391e-05 3.922973342007e-03 0.0 
0.0 0.0 0.0 
-1.889336337713e-06 2.999932176273e-05 0.0 
2.999932176273e-05 6.578312003657e-03 0.0 
0.0 0.0 0.0 
-3.433677892239e-06 -3.035736234459e-05 0.0 
-3.035736234459e-05 2.910280662606e-03 0.0 
0.0 0.0 0.0 
8.741118537881e-07 2.934435847523e-05 0.0 
2.934435847523e-05 1.020984305136e-03 0.0 
0.0 0.0 0.0 
-8.159105813199e-07 2.789473099685e-05 0.0 
2.789473099685e-05 1.450626625800e-03 0.0 
0.0 0.0 0.0 
4.282070389383e-07 3.049640775520e-05 0.0 
3.049640775520e-05 2.508362118822e-03 0.0 
0.0 0.0 0.0 
1.058186544167e-06 2.987783115300e-05 0.0 
2.987783115300e-05 3.014282578956e-03 0.0 
0.0 0.0 0.0 
-3.464308594436e-07 2.951304611034e-05 0.0 
2.951304611034e-05 4.207776798187e-03 0.0 
0.0 0.0 0.0 
2.430725294378e-07 -2.827919703508e-05 0.0 
-2.827919703508e-05 4.161657441275e-03 0.0 
0.0 0.0 0.0 
-7.829520048963e-07 -3.237280311559e-05 0.0 
-3.237280311559e-05 1.671289610561e-03 0.0 
0.0 0.0 0.0 
-5.113310112770e-06 -3.289002416454e-05 0.0 
-3.289002416454e-05 1.459578823238e-03 0.0 
0.0 0.0 0.0 
-4.394915317119e-06 -3.545466749233e-05 0.0 
-3.545466749233e-05 5.368311212872e-03 0.0 
0.0 0.0 0.0 
2.073418163828e-07 -3.194274154084e-05 0.0 
-3.194274154084e-05 2.485395238001e-03 0.0 
0.0 0.0 0.0 
3.493837694712e-07 2.920326312644e-05 0.0 
2.920326312644e-05 6.492524258647e-03 0.0 
0.0 0.0 0.0 
3.564511374954e-08 2.840354666156e-05 0.0 
2.840354666156e-05 6.659293410756e-03 0.0 
0.0 0.0 0.0 
-1.361782488996e-06 -2.918855440955e-05 0.0 
-2.918855440955e-05 5.457191647106e-03 0.0 
0.0 0.0 0.0 
-4.126212311828e-07 2.883691489018e-05 0.0 
2.883691489018e-05 6.871714342980e-03 0.0 
0.0 0.0 0.0 
2.703717543628e-06 2.663837583975e-05 0.0 
2.663837583975e-05 7.110416768641e-03 0.0 
0.0 0.0 0.0 
-3.179273050380e-07 -2.981542288840e-05 0.0 
-2.981542288840e-05 4.431697344009e-03 0.0 
0.0 0.0 0.0 
8.119873196044e-08 2.841009428619e-05 0.0 
2.841009428619e-05 6.248027921415e-03 0.0 
0.0 0.0 0.0 
7.289748982231e-07 -2.825572037866e-05 0.0 
-2.825572037866e-05 1.917562484582e-03 0.0 
0.0 0.0 0.0 
6.391153679619e-07 -2.934201671072e-05 0.0 
-2.934201671072e-05 4.103104377978e-03 0.0 
0.0 0.0 0.0 
-4.026626012621e-07 2.817100680117e-05 0.0 
2.817100680117e-05 4.066579038897e-03 0.0 
0.0 0.0 0.0 
-2.122903647539e-06 2.720714155024e-05 0.0 
2.720714155024e-05 2.215397835579e-03 0.0 
0.0 0.0 0.0 
2.712022870721e-07 -2.959737088484e-05 0.0 
-2.959737088484e-05 1.499194597733e-03 0.0 
0.0 0.0 0.0 
1.169321221628e-06 2.955245650158e-05 0.0 
2.955245650158e-05 3.377611048348e-03 0.0 
0.0 0.0 0.0 
2.566029211337e-08 -2.808425402404e-05 0.0 
-2.808425402404e-05 3.981836354111e-03 0.0 
0.0 0.0 0.0 
-1.325027290111e-07 -2.841867249345e-05 0.0 
-2.841867249345e-05 4.217047523858e-03 0.0 
0.0 0.0 0.0 
-9.053483284172e-07 2.714575259081e-05 0.0 
2.714575259081e-05 2.660474735991e-03 0.0 
0.0 0.0 0.0 
-7.679522240345e-08 2.964819589923e-05 0.0 
2.964819589923e-05 4.569902047158e-03 0.0 
0.0 0.0 0.0 
-3.228537474032e-07 -2.812680898026e-05 0.0 
-2.812680898026e-05 4.037150808334e-03 0.0 
0.0 0.0 0.0 
-4.966600209988e-07 2.858957470090e-05 0.0 
2.858957470090e-05 4.261326959141e-03 0.0 
0.0 0.0 0.0 
1.449096976414e-06 -2.874239329401e-05 0.0 
-2.874239329401e-05 3.022994675196e-03 0.0 
0.0 0.0 0.0 
1.855205864487e-07 -3.026737667155e-05 0.0 
-3.026737667155e-05 6.037776962619e-03 0.0 
0.0 0.0 0.0 
-6.732307176183e-07 -3.062345048623e-05 0.0 
-3.062345048623e-05 6.076492385293e-03 0.0 
0.0 0.0 0.0 
-4.200218515216e-07 2.826318432014e-05 0.0 
2.826318432014e-05 4.081954740804e-03 0.0 
0.0 0.0 0.0 
7.068014253875e-07 2.930448519334e-05 0.0 
2.930448519334e-05 6.914475108862e-03 0.0 
0.0 0.0 0.0 
7.249523834574e-07 -2.814873852726e-05 0.0 
-2.814873852726e-05 2.157020142366e-03 0.0 
0.0 0.0 0.0 
1.089446985070e-06 3.120186671820e-05 0.0 
3.120186671820e-05 7.407660736684e-03 0.0 
0.0 0.0 0.0 
-1.853400228846e-07 2.974798446906e-05 0.0 
2.974798446906e-05 4.387543649486e-03 0.0 
0.0 0.0 0.0 
7.179931316159e-06 3.551511660452e-05 0.0 
3.551511660452e-05 7.370755335035e-03 0.0 
0.0 0.0 0.0 
-1.000799165318e-06 -2.892260312042e-05 0.0 
-2.892260312042e-05 5.541002703925e-03 0.0 
0.0 0.0 0.0 
7.104743455777e-07 3.074028119332e-05 0.0 
3.074028119332e-05 2.089143360276e-03 0.0 
0.0 0.0 0.0 
-1.207031694261e-06 -2.954338153472e-05 0.0 
-2.954338153472e-05 5.635275194721e-03 0.0 
0.0 0.0 0.0 
-2.359051887169e-08 2.907410112643e-05 0.0 
2.907410112643e-05 7.013620673090e-03 0.0 
0.0 0.0 0.0 
-2.959168736716e-07 2.944079744484e-05 0.0 
2.944079744484e-05 4.623111209594e-03 0.0 
0.0 0.0 0.0 
-3.936317346520e-07 -2.848555685493e-05 0.0 
-2.848555685493e-05 3.289114578037e-03 0.0 
0.0 0.0 0.0 
-6.999577066846e-07 -2.979936247984e-05 0.0 
-2.979936247984e-05 5.813664148452e-03 0.0 
0.0 0.0 0.0 
-1.801524027734e-07 2.892716544889e-05 0.0 
2.892716544889e-05 4.401289895758e-03 0.0 
0.0 0.0 0.0 
2.303399578629e-06 3.117273117559e-05 0.0 
3.117273117559e-05 1.660901875791e-03 0.0 
0.0 0.0 0.0 
3.576710673858e-06 3.124947015009e-05 0.0 
3.124947015009e-05 7.721656905534e-03 0.0 
0.0 0.0 0.0 
-2.412992813450e-06 3.133969756951e-05 0.0 
3.133969756951e-05 1.427430876605e-03 0.0 
0.0 0.0 0.0 
4.260006666756e-06 -2.998240147267e-05 0.0 
-2.998240147267e-05 7.340751934685e-03 0.0 
0.0 0.0 0.0 
-1.511559689860e-06 2.867839795636e-05 0.0 
2.867839795636e-05 7.189737333922e-03 0.0 
0.0 0.0 0.0 
2.604583257959e-07 -3.018316384245e-05 0.0 
-3.018316384245e-05 6.219638023342e-03 0.0 
0.0 0.0 0.0 
-6.233186425897e-07 3.368942047386e-05 0.0 
3.368942047386e-05 5.450047433897e-03 0.0 
0.0 0.0 0.0 
-5.988139109014e-07 -3.121345602014e-05 0.0 
-3.121345602014e-05 6.690285341264e-03 0.0 
0.0 0.0 0.0 
-3.160157645565e-07 -2.832979041212e-05 0.0 
-2.832979041212e-05 4.270573844757e-03 0.0 
0.0 0.0 0.0 
-1.132077090960e-07 -3.014168019029e-05 0.0 
-3.014168019029e-05 5.025254357384e-03 0.0 
0.0 0.0 0.0 
3.806679928386e-06 2.912238575841e-05 0.0 
2.912238575841e-05 7.289420075790e-03 0.0 
0.0 0.0 0.0 
-3.352275893542e-07 2.960369144326e-05 0.0 
2.960369144326e-05 6.199514419032e-03 0.0 
0.0 0.0 0.0 
-4.830304635162e-07 -3.051994202229e-05 0.0 
-3.051994202229e-05 6.267575988785e-03 0.0 
0.0 0.0 0.0 
-6.364264635295e-07 3.084859166800e-05 0.0 
3.084859166800e-05 5.924233713191e-03 0.0 
0.0 0.0 0.0 
1.278946434757e-06 3.014484814548e-05 0.0 
3.014484814548e-05 1.908369807730e-03 0.0 
0.0 0.0 0.0 
2.453890319831e-07 -3.095263956268e-05 0.0 
-3.095263956268e-05 6.456991980049e-03 0.0 
0.0 0.0 0.0 
7.008397502783e-06 -3.992516458491e-07 0.0 
-3.992516458491e-07 7.845032340188e-03 0.0 
0.0 0.0 0.0 
6.557130856066e-07 3.317171122967e-05 0.0 
3.317171122967e-05 7.354513951835e-03 0.0 
0.0 0.0 0.0 
4.267824011972e-07 2.983064447964e-05 0.0 
2.983064447964e-05 4.094085240195e-03 0.0 
0.0 0.0 0.0 
9.806190310879e-07 -3.106727281861e-05 0.0 
-3.106727281861e-05 5.456069745824e-03 0.0 
0.0 0.0 0.0 
-8.460041057701e-07 3.286750182578e-05 0.0 
3.286750182578e-05 5.220283479942e-03 0.0 
0.0 0.0 0.0 
-3.529661107837e-08 -2.928320104080e-05 0.0 
-2.928320104080e-05 4.396605498027e-03 0.0 
0.0 0.0 0.0 
1.331181365138e-08 2.992131545342e-05 0.0 
2.992131545342e-05 6.015937830401e-03 0.0 
0.0 0.0 0.0 
2.751040122373e-07 2.978989783296e-05 0.0 
2.978989783296e-05 6.254146666717e-03 0.0 
0.0 0.0 0.0 
3.011150078613e-06 -3.208281879311e-05 0.0 
-3.208281879311e-05 1.268078109657e-03 0.0 
0.0 0.0 0.0 
-1.389385675066e-06 2.896606190702e-05 0.0 
2.896606190702e-05 2.550249748041e-03 0.0 
0.0 0.0 0.0 
-3.426350757563e-07 2.850352490673e-05 0.0 
2.850352490673e-05 4.316413756882e-03 0.0 
0.0 0.0 0.0 
-5.392522851588e-07 -2.888537222478e-05 0.0 
-2.888537222478e-05 4.091541888732e-03 0.0 
0.0 0.0 0.0 
-5.486770182639e-08 2.893478633305e-05 0.0 
2.893478633305e-05 4.348485513189e-03 0.0 
0.0 0.0 0.0 
5.479069240533e-06 -2.937576451821e-05 0.0 
-2.937576451821e-05 7.523818263778e-03 0.0 
0.0 0.0 0.0 
-1.042220965641e-06 2.633322060211e-05 0.0 
2.633322060211e-05 7.103765096210e-03 0.0 
0.0 0.0 0.0 
-1.239439740841e-07 -3.005907717759e-05 0.0 
-3.005907717759e-05 7.194331159294e-03 0.0 
0.0 0.0 0.0 
-1.085120415967e-06 -2.754976679657e-05 0.0 
-2.754976679657e-05 3.886705296650e-03 0.0 
0.0 0.0 0.0 
-4.984445700629e-08 2.875156888573e-05 0.0 
2.875156888573e-05 6.594488621210e-03 0.0 
0.0 0.0 0.0 
-1.349493599090e-07 -2.975750445666e-05 0.0 
-2.975750445666e-05 6.025010634462e-03 0.0 
0.0 0.0 0.0 
-1.672275348974e-06 3.043889835787e-05 0.0 
3.043889835787e-05 7.338100479181e-03 0.0 
0.0 0.0 0.0 
8.030287248495e-07 -3.103585246889e-05 0.0 
-3.103585246889e-05 6.223855888444e-03 0.0 
0.0 0.0 0.0 
3.926898595186e-07 -2.920736055687e-05 0.0 
-2.920736055687e-05 4.341203163203e-03 0.0 
0.0 0.0 0.0 
-3.091693381307e-07 2.826397691766e-05 0.0 
2.826397691766e-05 4.136775850265e-03 0.0 
0.0 0.0 0.0 
-7.973846932741e-07 2.917859593735e-05 0.0 
2.917859593735e-05 6.449987026037e-03 0.0 
0.0 0.0 0.0 
3.057307589316e-07 -3.210681249327e-05 0.0 
-3.210681249327e-05 7.112914385875e-03 0.0 
0.0 0.0 0.0 
-3.521286345842e-07 3.001987639259e-05 0.0 
3.001987639259e-05 6.492496051490e-03 0.0 
0.0 0.0 0.0 
-8.749874140790e-07 2.967193186258e-05 0.0 
2.967193186258e-05 6.260573513711e-03 0.0 
0.0 0.0 0.0 
-1.022266661432e-06 3.090064998449e-05 0.0 
3.090064998449e-05 6.860796901971e-03 0.0 
0.0 0.0 0.0 
3.713686967055e-06 -3.034212301468e-05 0.0 
-3.034212301468e-05 7.159701953513e-03 0.0 
0.0 0.0 0.0 
4.533835615828e-07 3.001913698547e-05 0.0 
3.001913698547e-05 6.675929850033e-03 0.0 
0.0 0.0 0.0 
-6.144262432173e-09 2.963219920001e-05 0.0 
2.963219920001e-05 5.355500486328e-03 0.0 
0.0 0.0 0.0 
-2.535232690448e-08 2.514857370348e-05 0.0 
2.514857370348e-05 3.771191896137e-03 0.0 
0.0 0.0 0.0 
-1.804471998490e-07 -2.936696975667e-05 0.0 
-2.936696975667e-05 6.452172188482e-03 0.0 
0.0 0.0 0.0 
7.017270564624e-08 2.926237502812e-05 0.0 
2.926237502812e-05 6.134559690584e-03 0.0 
0.0 0.0 0.0 
7.754439468322e-08 2.773742010252e-05 0.0 
2.773742010252e-05 2.236812949986e-03 0.0 
0.0 0.0 0.0 
-3.256956776498e-07 -2.893547092327e-05 0.0 
-2.893547092327e-05 4.325666122020e-03 0.0 
0.0 0.0 0.0 
-2.239963495798e-07 2.821240816355e-05 0.0 
2.821240816355e-05 4.906644909960e-03 0.0 
0.0 0.0 0.0 
-9.857855232109e-08 -3.020770506837e-05 0.0 
-3.020770506837e-05 5.440343693170e-03 0.0 
0.0 0.0 0.0 
-4.497141395943e-07 3.015402066654e-05 0.0 
3.015402066654e-05 2.261492906324e-03 0.0 
0.0 0.0 0.0 
-3.359248078594e-07 -2.911193840572e-05 0.0 
-2.911193840572e-05 4.146443316186e-03 0.0 
0.0 0.0 0.0 
-1.099346997879e-07 -3.038634914217e-05 0.0 
-3.038634914217e-05 5.856418311691e-03 0.0 
0.0 0.0 0.0 
-1.287300221309e-06 2.779010545675e-05 0.0 
2.779010545675e-05 4.333814517664e-03 0.0 
0.0 0.0 0.0 
2.348339611657e-07 2.970172865129e-05 0.0 
2.970172865129e-05 4.514026698810e-03 0.0 
0.0 0.0 0.0 
2.092836647760e-06 -3.125576716988e-05 0.0 
-3.125576716988e-05 5.799604144248e-03 0.0 
0.0 0.0 0.0 
9.200352675265e-07 2.649630818416e-05 0.0 
2.649630818416e-05 4.575172101214e-03 0.0 
0.0 0.0 0.0 
-1.143267416470e-05 2.569193936302e-05 0.0 
2.569193936302e-05 6.861680746160e-04 0.0 
0.0 0.0 0.0 
8.969777476331e-08 -2.968584172542e-05 0.0 
-2.968584172542e-05 5.181844327134e-03 0.0 
0.0 0.0 0.0 
2.318903284948e-07 2.889032413977e-05 0.0 
2.889032413977e-05 6.392499743601e-03 0.0 
0.0 0.0 0.0 
7.551457079646e-07 3.081843129438e-05 0.0 
3.081843129438e-05 7.327925654973e-03 0.0 
0.0 0.0 0.0 
-2.187273114851e-07 2.850261061015e-05 0.0 
2.850261061015e-05 4.782989623958e-03 0.0 
0.0 0.0 0.0 
1.013979755715e-07 2.976397159196e-05 0.0 
2.976397159196e-05 4.934563340237e-03 0.0 
0.0 0.0 0.0 
-1.158411480295e-06 -3.021038310405e-05 0.0 
-3.021038310405e-05 5.844877674486e-03 0.0 
0.0 0.0 0.0 
-1.026060137732e-05 3.130283633952e-05 0.0 
3.130283633952e-05 1.116556727628e-03 0.0 
0.0 0.0 0.0 
1.295560736470e-07 2.860911499293e-05 0.0 
2.860911499293e-05 6.210782210450e-03 0.0 
0.0 0.0 0.0 
-6.799524421286e-08 -2.999157413565e-05 0.0 
-2.999157413565e-05 5.205988386505e-03 0.0 
0.0 0.0 0.0 
-1.084857861100e-06 -2.841099079165e-05 0.0 
-2.841099079165e-05 4.563919032274e-03 0.0 
0.0 0.0 0.0 
-4.138289266820e-09 -2.941251195564e-05 0.0 
-2.941251195564e-05 6.263084991805e-03 0.0 
0.0 0.0 0.0 
-1.464365120274e-07 -2.577970002541e-05 0.0 
-2.577970002541e-05 2.222193497855e-03 0.0 
0.0 0.0 0.0 
3.106183497081e-07 -2.971331417231e-05 0.0 
-2.971331417231e-05 6.501482636175e-03 0.0 
0.0 0.0 0.0 
1.575993557879e-08 3.034195036469e-05 0.0 
3.034195036469e-05 7.155376737855e-03 0.0 
0.0 0.0 0.0 
-1.873745543168e-07 2.820389164486e-05 0.0 
2.820389164486e-05 6.029009824958e-03 0.0 
0.0 0.0 0.0 
-6.740585259957e-07 -3.050668989262e-05 0.0 
-3.050668989262e-05 6.499729312030e-03 0.0 
0.0 0.0 0.0 
6.572373947300e-07 -3.062280073877e-05 0.0 
-3.062280073877e-05 6.617418577680e-03 0.0 
0.0 0.0 0.0 
1.111485192107e-06 -3.108213154584e-05 0.0 
-3.108213154584e-05 7.163160150852e-03 0.0 
0.0 0.0 0.0 
-1.181609650458e-05 3.428086897437e-05 0.0 
3.428086897437e-05 1.549894284924e-03 0.0 
0.0 0.0 0.0 
4.551257386520e-07 -2.997104998345e-05 0.0 
-2.997104998345e-05 6.034743774466e-03 0.0 
0.0 0.0 0.0 
1.684665529078e-06 -2.916999934673e-05 0.0 
-2.916999934673e-05 7.196440282712e-03 0.0 
0.0 0.0 0.0 
-9.861762212404e-07 2.962486610175e-05 0.0 
2.962486610175e-05 6.683096222425e-03 0.0 
0.0 0.0 0.0 
-1.211483076080e-07 2.836760355713e-05 0.0 
2.836760355713e-05 5.612662421507e-03 0.0 
0.0 0.0 0.0 
-2.390124852480e-07 -2.964179120742e-05 0.0 
-2.964179120742e-05 4.378452340219e-03 0.0 
0.0 0.0 0.0 
1.940381890719e-07 2.842239167623e-05 0.0 
2.842239167623e-05 4.827590673110e-03 0.0 
0.0 0.0 0.0 
7.446143752698e-07 3.415087417630e-05 0.0 
3.415087417630e-05 1.249199852129e-03 0.0 
0.0 0.0 0.0 
-4.085634540685e-07 3.023603558997e-05 0.0 
3.023603558997e-05 6.915031003183e-03 0.0 
0.0 0.0 0.0 
8.787958831746e-07 2.985599559257e-05 0.0 
2.985599559257e-05 2.423060151875e-03 0.0 
0.0 0.0 0.0 
-8.927910081669e-06 2.731442939871e-05 0.0 
2.731442939871e-05 1.964178001957e-03 0.0 
0.0 0.0 0.0 
8.512441025399e-07 -2.867817217157e-05 0.0 
-2.867817217157e-05 6.435012091360e-03 0.0 
0.0 0.0 0.0 
-7.316594363704e-08 2.912582916268e-05 0.0 
2.912582916268e-05 7.389644638633e-03 0.0 
0.0 0.0 0.0 
6.011972140119e-07 -2.692265309186e-05 0.0 
-2.692265309186e-05 1.981069403968e-03 0.0 
0.0 0.0 0.0 
-1.831544613751e-07 -2.864405162741e-05 0.0 
-2.864405162741e-05 5.038094649792e-03 0.0 
0.0 0.0 0.0 
-9.959615465682e-09 2.949535984980e-05 0.0 
2.949535984980e-05 6.216915474007e-03 0.0 
0.0 0.0 0.0 
3.163916553195e-07 -2.985821295695e-05 0.0 
-2.985821295695e-05 4.706988967082e-03 0.0 
0.0 0.0 0.0 
-1.069527327813e-07 -2.945890958949e-05 0.0 
-2.945890958949e-05 2.270896959025e-03 0.0 
0.0 0.0 0.0 
-7.995161412921e-07 2.851359700823e-05 0.0 
2.851359700823e-05 3.051393349294e-03 0.0 
0.0 0.0 0.0 
7.266096210712e-06 2.530895965874e-05 0.0 
2.530895965874e-05 1.489985557442e-03 0.0 
0.0 0.0 0.0 
1.122829649924e-06 3.009454558235e-05 0.0 
3.009454558235e-05 1.974001702245e-03 0.0 
0.0 0.0 0.0 
-3.939833341793e-07 3.012550793569e-05 0.0 
3.012550793569e-05 1.738289702933e-03 0.0 
0.0 0.0 0.0 
-1.061054863971e-07 2.837704836231e-05 0.0 
2.837704836231e-05 5.197292576778e-03 0.0 
0.0 0.0 0.0 
8.005973659797e-06 6.835421482229e-07 0.0 
6.835421482229e-07 8.207066142811e-03 0.0 
0.0 0.0 0.0 
-6.677669313171e-06 2.592289020144e-05 0.0 
2.592289020144e-05 2.386270789128e-03 0.0 
0.0 0.0 0.0 
-8.384511112070e-07 2.908271360099e-05 0.0 
2.908271360099e-05 7.044233306315e-03 0.0 
0.0 0.0 0.0 
-3.874261537140e-07 2.846854575391e-05 0.0 
2.846854575391e-05 3.779409359499e-03 0.0 
0.0 0.0 0.0 
8.594093672265e-07 -3.172058810753e-05 0.0 
-3.172058810753e-05 5.993571886745e-03 0.0 
0.0 0.0 0.0 
-2.042253496537e-06 3.081823618111e-05 0.0 
3.081823618111e-05 1.668458125865e-03 0.0 
0.0 0.0 0.0 
-1.320672727623e-06 -2.940209563144e-05 0.0 
-2.940209563144e-05 7.404202422936e-03 0.0 
0.0 0.0 0.0 
3.159194802649e-06 -2.596595186366e-05 0.0 
-2.596595186366e-05 1.743588682337e-03 0.0 
0.0 0.0 0.0 
2.609861710079e-06 2.997950253487e-05 0.0 
2.997950253487e-05 2.859179970784e-03 0.0 
0.0 0.0 0.0 
-6.316538423423e-07 2.828598811667e-05 0.0 
2.828598811667e-05 6.264189680168e-03 0.0 
0.0 0.0 0.0 
-2.282792364028e-07 -2.893126630485e-05 0.0 
-2.893126630485e-05 4.449195909007e-03 0.0 
0.0 0.0 0.0 
2.006985386549e-06 -2.956337486114e-05 0.0 
-2.956337486114e-05 6.976238769932e-03 0.0 
0.0 0.0 0.0 
4.626065466251e-07 -2.953467434109e-05 0.0 
-2.953467434109e-05 3.379803850163e-03 0.0 
0.0 0.0 0.0 
-5.680620676074e-07 -2.936054518744e-05 0.0 
-2.936054518744e-05 6.371789805699e-03 0.0 
0.0 0.0 0.0 
6.013130036120e-06 2.973766469090e-05 0.0 
2.973766469090e-05 7.331607614525e-03 0.0 
0.0 0.0 0.0 
-8.611205123410e-07 3.013871505750e-05 0.0 
3.013871505750e-05 6.028108826484e-03 0.0 
0.0 0.0 0.0 
-3.098778485366e-06 -2.808945670094e-05 0.0 
-2.808945670094e-05 7.336786132351e-03 0.0 
0.0 0.0 0.0 
3.749312338375e-07 -3.095228485131e-05 0.0 
-3.095228485131e-05 6.644582999696e-03 0.0 
0.0 0.0 0.0 
-8.137492124582e-08 -3.081713586149e-05 0.0 
-3.081713586149e-05 6.833352786608e-03 0.0 
0.0 0.0 0.0 
-2.059826455292e-06 2.703044204665e-05 0.0 
2.703044204665e-05 1.969003158191e-03 0.0 
0.0 0.0 0.0 
-5.493754609009e-07 2.775165058561e-05 0.0 
2.775165058561e-05 6.802490408214e-03 0.0 
0.0 0.0 0.0 
2.745628024936e-07 2.864513451756e-05 0.0 
2.864513451756e-05 6.406631790138e-03 0.0 
0.0 0.0 0.0 
-4.171110119522e-07 2.883135398465e-05 0.0 
2.883135398465e-05 4.652085715560e-03 0.0 
0.0 0.0 0.0 
-9.067322425449e-06 2.779016746930e-05 0.0 
2.779016746930e-05 2.811450676266e-03 0.0 
0.0 0.0 0.0 
7.708834719899e-06 -2.964660998749e-05 0.0 
-2.964660998749e-05 7.568261972694e-03 0.0 
0.0 0.0 0.0 
-1.623101569925e-06 3.013788794956e-05 0.0 
3.013788794956e-05 2.316264284812e-03 0.0 
0.0 0.0 0.0 
1.972235748937e-06 -3.347009872019e-05 0.0 
-3.347009872019e-05 2.669229869626e-03 0.0 
0.0 0.0 0.0 
3.381009430203e-07 3.059563537322e-05 0.0 
3.059563537322e-05 6.734857143314e-03 0.0 
0.0 0.0 0.0 
-5.934641800209e-07 -2.504532021621e-05 0.0 
-2.504532021621e-05 1.577236961155e-03 0.0 
0.0 0.0 0.0 
1.578514439160e-07 -2.817065642838e-05 0.0 
-2.817065642838e-05 4.760436648149e-03 0.0 
0.0 0.0 0.0 
-5.475601199123e-07 2.747983601495e-05 0.0 
2.747983601495e-05 6.444582773381e-03 0.0 
0.0 0.0 0.0 
-1.402526225158e-07 -2.765440194807e-05 0.0 
-2.765440194807e-05 7.241680985167e-03 0.0 
0.0 0.0 0.0 
-1.744320539232e-06 -2.697176784374e-05 0.0 
-2.697176784374e-05 7.437428596259e-03 0.0 
0.0 0.0 0.0 
-4.946281608742e-07 -3.048265189895e-05 0.0 
-3.048265189895e-05 6.272744367408e-03 0.0 
0.0 0.0 0.0 
-3.209059319387e-07 -3.156533489358e-05 0.0 
-3.156533489358e-05 6.878912914958e-03 0.0 
0.0 0.0 0.0 
-5.211323369503e-07 2.871817352257e-05 0.0 
2.871817352257e-05 4.011846427226e-03 0.0 
0.0 0.0 0.0 
7.136896873483e-08 -3.021696217013e-05 0.0 
-3.021696217013e-05 6.486020237375e-03 0.0 
0.0 0.0 0.0 
-8.514785586944e-06 2.830682211424e-05 0.0 
2.830682211424e-05 3.238014114669e-03 0.0 
0.0 0.0 0.0 
-3.002470265745e-06 2.733301196646e-05 0.0 
2.733301196646e-05 7.218039396528e-03 0.0 
0.0 0.0 0.0 
-8.873983212476e-06 2.782015367006e-05 0.0 
2.782015367006e-05 3.665319006747e-03 0.0 
0.0 0.0 0.0 
5.556652841632e-06 2.218772151828e-05 0.0 
2.218772151828e-05 3.874549202374e-03 0.0 
0.0 0.0 0.0 
-2.265181755501e-07 2.862244950167e-05 0.0 
2.862244950167e-05 4.602935237222e-03 0.0 
0.0 0.0 0.0 
-6.300452999097e-06 3.081077318371e-05 0.0 
3.081077318371e-05 4.096525127641e-03 0.0 
0.0 0.0 0.0 
-2.749058896079e-07 -2.841202820123e-05 0.0 
-2.841202820123e-05 5.341775997789e-03 0.0 
0.0 0.0 0.0 
-2.607074047756e-07 -2.896527542275e-05 0.0 
-2.896527542275e-05 4.303734763372e-03 0.0 
0.0 0.0 0.0 
-2.510398605660e-07 -2.963651476654e-05 0.0 
-2.963651476654e-05 4.557967528886e-03 0.0 
0.0 0.0 0.0 
-5.616115049678e-07 2.982360147264e-05 0.0 
2.982360147264e-05 2.023203067644e-03 0.0 
0.0 0.0 0.0 
-2.354334410759e-07 2.858273666278e-05 0.0 
2.858273666278e-05 4.369614575174e-03 0.0 
0.0 0.0 0.0 
-6.027259580321e-07 2.919833236314e-05 0.0 
2.919833236314e-05 7.105621914933e-03 0.0 
0.0 0.0 0.0 
1.818621364613e-06 3.696426868243e-05 0.0 
3.696426868243e-05 7.321114526534e-03 0.0 
0.0 0.0 0.0 
-4.720039952222e-07 2.888526511603e-05 0.0 
2.888526511603e-05 6.382293744482e-03 0.0 
0.0 0.0 0.0 
2.073007726811e-06 2.949092314451e-05 0.0 
2.949092314451e-05 7.150804175009e-03 0.0 
0.0 0.0 0.0 
-4.507548175825e-07 2.908231539648e-05 0.0 
2.908231539648e-05 4.440140569072e-03 0.0 
0.0 0.0 0.0 
6.222110018328e-07 2.927335843879e-05 0.0 
2.927335843879e-05 6.826104909282e-03 0.0 
0.0 0.0 0.0 
-2.731295737357e-07 2.861966715281e-05 0.0 
2.861966715281e-05 4.549260598064e-03 0.0 
0.0 0.0 0.0 
1.234445768050e-06 2.878891597924e-05 0.0 
2.878891597924e-05 6.985166001185e-03 0.0 
0.0 0.0 0.0 
-9.392617095205e-08 2.836595629183e-05 0.0 
2.836595629183e-05 6.637605744961e-03 0.0 
0.0 0.0 0.0 
-3.962078246600e-07 -3.024365106212e-05 0.0 
-3.024365106212e-05 6.601825065002e-03 0.0 
0.0 0.0 0.0 
8.213907265464e-08 2.858301825370e-05 0.0 
2.858301825370e-05 5.793380276217e-03 0.0 
0.0 0.0 0.0 
-4.686458585645e-07 2.858418323380e-05 0.0 
2.858418323380e-05 4.190590517907e-03 0.0 
0.0 0.0 0.0 
-4.575406886698e-07 -2.783948259212e-05 0.0 
-2.783948259212e-05 6.889905321117e-03 0.0 
0.0 0.0 0.0 
-1.374149709576e-06 2.838547836799e-05 0.0 
2.838547836799e-05 5.533247619337e-03 0.0 
0.0 0.0 0.0 
-2.038800085646e-06 -3.103084598270e-05 0.0 
-3.103084598270e-05 2.032921997504e-03 0.0 
0.0 0.0 0.0 
-6.690711285007e-07 -2.826768818108e-05 0.0 
-2.826768818108e-05 2.325610752894e-03 0.0 
0.0 0.0 0.0 
2.170685873271e-07 2.752459465618e-05 0.0 
2.752459465618e-05 3.538751307633e-03 0.0 
0.0 0.0 0.0 
-4.058454973199e-07 2.833032710524e-05 0.0 
2.833032710524e-05 5.030136428865e-03 0.0 
0.0 0.0 0.0 
1.255358108576e-06 3.020358790628e-05 0.0 
3.020358790628e-05 7.172718078112e-03 0.0 
0.0 0.0 0.0 
-1.346092347587e-07 -3.114328531589e-05 0.0 
-3.114328531589e-05 6.413735293483e-03 0.0 
0.0 0.0 0.0 
-2.815405215628e-07 -2.957390765588e-05 0.0 
-2.957390765588e-05 4.199488881766e-03 0.0 
0.0 0.0 0.0 
7.571895133118e-08 -2.932726688148e-05 0.0 
-2.932726688148e-05 5.667679330785e-03 0.0 
0.0 0.0 0.0 
1.825571478431e-07 2.978624908835e-05 0.0 
2.978624908835e-05 6.631134526291e-03 0.0 
0.0 0.0 0.0 
-5.001634780788e-07 -3.088182050709e-05 0.0 
-3.088182050709e-05 6.922516851074e-03 0.0 
0.0 0.0 0.0 
-4.376809543460e-06 -2.178226909151e-05 0.0 
-2.178226909151e-05 7.115647743124e-03 0.0 
0.0 0.0 0.0 
7.395412500166e-07 2.819603385841e-05 0.0 
2.819603385841e-05 5.758860946550e-03 0.0 
0.0 0.0 0.0 
-4.422339875410e-07 2.923026491989e-05 0.0 
2.923026491989e-05 6.787589798203e-03 0.0 
0.0 0.0 0.0 
-1.085601455397e-07 -2.992268980748e-05 0.0 
-2.992268980748e-05 4.791787069980e-03 0.0 
0.0 0.0 0.0 
-3.819558707097e-07 -2.941044188960e-05 0.0 
-2.941044188960e-05 6.636599279302e-03 0.0 
0.0 0.0 0.0 
-4.916663998156e-08 2.865604759624e-05 0.0 
2.865604759624e-05 4.751946742734e-03 0.0 
0.0 0.0 0.0 
-4.264381181507e-07 -2.887935644483e-05 0.0 
-2.887935644483e-05 7.295372932903e-03 0.0 
0.0 0.0 0.0 
5.392017722983e-06 -3.190278109837e-05 0.0 
-3.190278109837e-05 7.374883610293e-03 0.0 
0.0 0.0 0.0 
-2.088117068144e-08 2.855667640933e-05 0.0 
2.855667640933e-05 5.377104012415e-03 0.0 
0.0 0.0 0.0 
-1.152584482411e-06 3.081509516210e-05 0.0 
3.081509516210e-05 2.081031202211e-03 0.0 
0.0 0.0 0.0 
-7.851116546886e-07 2.796186111395e-05 0.0 
2.796186111395e-05 6.789181597046e-03 0.0 
0.0 0.0 0.0 
1.577705699418e-08 -2.821004271599e-05 0.0 
-2.821004271599e-05 5.163764858606e-03 0.0 
0.0 0.0 0.0 
-4.220591259818e-07 -2.943743158858e-05 0.0 
-2.943743158858e-05 4.020914456547e-03 0.0 
0.0 0.0 0.0 
3.993978769934e-08 -3.005055090433e-05 0.0 
-3.005055090433e-05 5.621395539174e-03 0.0 
0.0 0.0 0.0 
1.220056073947e-07 -3.126544014389e-05 0.0 
-3.126544014389e-05 6.555371520808e-03 0.0 
0.0 0.0 0.0 
3.021952261761e-07 -2.825764144147e-05 0.0 
-2.825764144147e-05 2.090589681064e-03 0.0 
0.0 0.0 0.0 
-1.417107964308e-07 2.837746467720e-05 0.0 
2.837746467720e-05 4.962518638238e-03 0.0 
0.0 0.0 0.0 
-1.202152417279e-06 2.731951183282e-05 0.0 
2.731951183282e-05 5.806001548990e-03 0.0 
0.0 0.0 0.0 
1.467929276577e-06 -3.161881395501e-05 0.0 
-3.161881395501e-05 7.181369043782e-03 0.0 
0.0 0.0 0.0 
-6.397330646335e-07 2.681832860402e-05 0.0 
2.681832860402e-05 5.983573476971e-03 0.0 
0.0 0.0 0.0 
3.086759048365e-08 2.956665128558e-05 0.0 
2.956665128558e-05 6.608666510019e-03 0.0 
0.0 0.0 0.0 
-1.779659243639e-06 2.727236823743e-05 0.0 
2.727236823743e-05 5.627792096656e-03 0.0 
0.0 0.0 0.0 
-6.733335985332e-06 3.018426223075e-05 0.0 
3.018426223075e-05 5.268818127294e-03 0.0 
0.0 0.0 0.0 
-1.103017343240e-06 2.828663177449e-05 0.0 
2.828663177449e-05 5.710386973071e-03 0.0 
0.0 0.0 0.0 
9.037689414626e-07 3.114208999712e-05 0.0 
3.114208999712e-05 6.917196248658e-03 0.0 
0.0 0.0 0.0 
-3.118364240162e-07 -3.073158988163e-05 0.0 
-3.073158988163e-05 6.631305927935e-03 0.0 
0.0 0.0 0.0 
6.224952731060e-08 2.789337659749e-05 0.0 
2.789337659749e-05 6.177103778222e-03 0.0 
0.0 0.0 0.0 
3.016308747217e-07 2.674235272422e-05 0.0 
2.674235272422e-05 7.430685576519e-03 0.0 
0.0 0.0 0.0 
-2.539920847533e-06 2.770491397872e-05 0.0 
2.770491397872e-05 5.449432382274e-03 0.0 
0.0 0.0 0.0 
-5.339936842708e-07 -2.946689993104e-05 0.0 
-2.946689993104e-05 3.378249363207e-03 0.0 
0.0 0.0 0.0 
5.685475668038e-08 -3.066669329966e-05 0.0 
-3.066669329966e-05 7.027486402204e-03 0.0 
0.0 0.0 0.0 
1.941459051524e-06 -3.410551259139e-05 0.0 
-3.410551259139e-05 7.345539914490e-03 0.0 
0.0 0.0 0.0 
-5.572327321790e-08 2.845838292350e-05 0.0 
2.845838292350e-05 4.699409638629e-03 0.0 
0.0 0.0 0.0 
9.553709046095e-08 2.882241782117e-05 0.0 
2.882241782117e-05 4.927858948619e-03 0.0 
0.0 0.0 0.0 
-3.362768921100e-07 -2.963422769019e-05 0.0 
-2.963422769019e-05 3.788503072587e-03 0.0 
0.0 0.0 0.0 
-2.636298485070e-07 2.908023649224e-05 0.0 
2.908023649224e-05 6.364042556622e-03 0.0 
0.0 0.0 0.0 
-1.111259704478e-06 2.951400597269e-05 0.0 
2.951400597269e-05 3.826706703317e-03 0.0 
0.0 0.0 0.0 
-3.132803714223e-07 2.990320957748e-05 0.0 
2.990320957748e-05 5.512600552987e-03 0.0 
0.0 0.0 0.0 
-4.049538390172e-07 -2.727156041575e-05 0.0 
-2.727156041575e-05 3.834425470776e-03 0.0 
0.0 0.0 0.0 
-3.690233250087e-07 2.962735377826e-05 0.0 
2.962735377826e-05 6.499857473640e-03 0.0 
0.0 0.0 0.0 
5.715390802852e-07 -2.362344865914e-05 0.0 
-2.362344865914e-05 7.422572356510e-03 0.0 
0.0 0.0 0.0 
-4.145294815183e-07 -2.956316287095e-05 0.0 
-2.956316287095e-05 3.967233204224e-03 0.0 
0.0 0.0 0.0 
3.411557634614e-06 -3.024624398777e-05 0.0 
-3.024624398777e-05 1.259596494895e-03 0.0 
0.0 0.0 0.0 
7.974778961639e-07 2.986098586143e-05 0.0 
2.986098586143e-05 7.387631410118e-03 0.0 
0.0 0.0 0.0 
-1.099380053105e-06 2.752548151303e-05 0.0 
2.752548151303e-05 4.051094818019e-03 0.0 
0.0 0.0 0.0 
-3.690765755238e-07 2.848542272480e-05 0.0 
2.848542272480e-05 4.673078807694e-03 0.0 
0.0 0.0 0.0 
5.434981462438e-06 3.058100824973e-05 0.0 
3.058100824973e-05 7.202738126046e-03 0.0 
0.0 0.0 0.0 
-4.279450188660e-07 -3.054023249688e-05 0.0 
-3.054023249688e-05 6.184051205851e-03 0.0 
0.0 0.0 0.0 
-4.450351805962e-07 -2.971952081031e-05 0.0 
-2.971952081031e-05 6.447308026424e-03 0.0 
0.0 0.0 0.0 
-1.389618132785e-07 -2.861676636182e-05 0.0 
-2.861676636182e-05 4.075115545324e-03 0.0 
0.0 0.0 0.0 
1.047840394897e-06 3.284327250325e-05 0.0 
3.284327250325e-05 1.010508851170e-03 0.0 
0.0 0.0 0.0 
-4.904348343437e-06 -3.553080546353e-05 0.0 
-3.553080546353e-05 7.395945463336e-03 0.0 
0.0 0.0 0.0 
-8.370734960739e-08 2.842980283117e-05 0.0 
2.842980283117e-05 5.205931903539e-03 0.0 
0.0 0.0 0.0 
-2.874496289884e-07 -3.273985179255e-05 0.0 
-3.273985179255e-05 6.129271347147e-03 0.0 
0.0 0.0 0.0 
-7.576676546162e-07 2.835772815993e-05 0.0 
2.835772815993e-05 7.077637438357e-03 0.0 
0.0 0.0 0.0 
-1.121100010093e-05 2.770237470540e-05 0.0 
2.770237470540e-05 6.251218152578e-04 0.0 
0.0 0.0 0.0 
-8.453224087379e-08 3.027079878715e-05 0.0 
3.027079878715e-05 6.438025628636e-03 0.0 
0.0 0.0 0.0 
-6.930744073097e-07 -2.941015085423e-05 0.0 
-2.941015085423e-05 2.838668133336e-03 0.0 
0.0 0.0 0.0 
1.390624694286e-06 -3.078785090815e-05 0.0 
-3.078785090815e-05 5.765523263749e-03 0.0 
0.0 0.0 0.0 
2.186040251040e-07 -2.981451742559e-05 0.0 
-2.981451742559e-05 5.127442143586e-03 0.0 
0.0 0.0 0.0 
-3.058033115622e-07 2.835738394147e-05 0.0 
2.835738394147e-05 3.957632249102e-03 0.0 
0.0 0.0 0.0 
9.269528846723e-07 -3.013533244179e-05 0.0 
-3.013533244179e-05 6.994254149503e-03 0.0 
0.0 0.0 0.0 
3.848094021208e-08 2.907563608335e-05 0.0 
2.907563608335e-05 5.333024056893e-03 0.0 
0.0 0.0 0.0 
-5.020166996550e-07 2.855385351785e-05 0.0 
2.855385351785e-05 3.547385376828e-03 0.0 
0.0 0.0 0.0 
9.867777883699e-08 -2.896745320855e-05 0.0 
-2.896745320855e-05 5.441299668472e-03 0.0 
0.0 0.0 0.0 
5.547456254140e-06 -2.802591854666e-05 0.0 
-2.802591854666e-05 1.021395312085e-03 0.0 
0.0 0.0 0.0 
5.060767145348e-07 -2.944767766416e-05 0.0 
-2.944767766416e-05 6.255928577139e-03 0.0 
0.0 0.0 0.0 
-1.146463585400e-06 -3.027141673041e-05 0.0 
-3.027141673041e-05 6.508828948876e-03 0.0 
0.0 0.0 0.0 
1.156702578831e-06 -2.228264674995e-05 0.0 
-2.228264674995e-05 7.546005036576e-03 0.0 
0.0 0.0 0.0 
2.384028769953e-07 -3.000840219593e-05 0.0 
-3.000840219593e-05 6.667363853419e-03 0.0 
0.0 0.0 0.0 
-6.731823033457e-07 -2.860859099081e-05 0.0 
-2.860859099081e-05 2.736789274616e-03 0.0 
0.0 0.0 0.0 
1.586795073116e-08 -3.024981790997e-05 0.0 
-3.024981790997e-05 6.391596226887e-03 0.0 
0.0 0.0 0.0 
6.418138593922e-06 2.749645995379e-05 0.0 
2.749645995379e-05 7.521582067678e-03 0.0 
0.0 0.0 0.0 
2.037363408647e-06 -2.800335746632e-05 0.0 
-2.800335746632e-05 7.784375634517e-03 0.0 
0.0 0.0 0.0 
-6.455007396378e-07 -2.912477909302e-05 0.0 
-2.912477909302e-05 6.743778527995e-03 0.0 
0.0 0.0 0.0 
-3.383915265776e-07 -2.937919573547e-05 0.0 
-2.937919573547e-05 4.251672599475e-03 0.0 
0.0 0.0 0.0 
2.987475624661e-07 -2.939006531905e-05 0.0 
-2.939006531905e-05 5.847139206914e-03 0.0 
0.0 0.0 0.0 
-2.682344258043e-06 2.609626836622e-05 0.0 
2.609626836622e-05 7.110932859033e-03 0.0 
0.0 0.0 0.0 
-1.427219774697e-06 -2.933106600940e-05 0.0 
-2.933106600940e-05 4.735854798058e-03 0.0 
0.0 0.0 0.0 
3.451928303200e-07 2.824139763640e-05 0.0 
2.824139763640e-05 6.426861498543e-03 0.0 
0.0 0.0 0.0 
7.794955096951e-07 2.896291681104e-05 0.0 
2.896291681104e-05 5.986680809731e-03 0.0 
0.0 0.0 0.0 
6.260461249408e-07 -3.030309616805e-05 0.0 
-3.030309616805e-05 6.811393684928e-03 0.0 
0.0 0.0 0.0 
-2.204102169667e-07 -2.872721902907e-05 0.0 
-2.872721902907e-05 6.685025639147e-03 0.0 
0.0 0.0 0.0 
-7.740368912490e-07 -1.510966915022e-06 0.0 
-1.510966915022e-06 4.291838254020e-03 0.0 
0.0 0.0 0.0 
2.919981312299e-07 5.140150329040e-06 0.0 
5.140150329040e-06 4.290035031075e-03 0.0 
0.0 0.0 0.0 
-8.344568429575e-07 -3.144872793392e-05 0.0 
-3.144872793392e-05 6.044270101409e-03 0.0 
0.0 0.0 0.0 
4.509262543362e-07 2.837657591528e-05 0.0 
2.837657591528e-05 6.017197327432e-03 0.0 
0.0 0.0 0.0 
1.476694204694e-07 -2.946935476323e-05 0.0 
-2.946935476323e-05 5.310568030425e-03 0.0 
0.0 0.0 0.0 
-9.575279736884e-07 -2.929355832145e-05 0.0 
-2.929355832145e-05 5.944444901853e-03 0.0 
0.0 0.0 0.0 
-1.131056339698e-07 2.870181322834e-05 0.0 
2.870181322834e-05 5.104096963784e-03 0.0 
0.0 0.0 0.0 
-4.004849177064e-06 1.988181969097e-05 0.0 
1.988181969097e-05 7.208107996389e-03 0.0 
0.0 0.0 0.0 
-3.034364354226e-07 2.872679629912e-05 0.0 
2.872679629912e-05 4.242986847987e-03 0.0 
0.0 0.0 0.0 
-2.086140000079e-06 -5.154032883397e-06 0.0 
-5.154032883397e-06 8.200403993197e-03 0.0 
0.0 0.0 0.0 
2.332347755596e-06 2.331761574597e-05 0.0 
2.331761574597e-05 4.868979212186e-03 0.0 
0.0 0.0 0.0 
-2.842948676474e-08 -2.885852767753e-05 0.0 
-2.885852767753e-05 4.936665668164e-03 0.0 
0.0 0.0 0.0 
1.036399674970e-07 2.941044587697e-05 0.0 
2.941044587697e-05 5.117892019368e-03 0.0 
0.0 0.0 0.0 
-1.117008411544e-06 -2.860428525938e-05 0.0 
-2.860428525938e-05 2.559243531038e-03 0.0 
0.0 0.0 0.0 
3.796899492592e-07 -2.951328514468e-05 0.0 
-2.951328514468e-05 4.523198812476e-03 0.0 
0.0 0.0 0.0 
1.214864582266e-07 2.844678229415e-05 0.0 
2.844678229415e-05 5.610211878399e-03 0.0 
0.0 0.0 0.0 
-6.477604336252e-07 2.848012263047e-05 0.0 
2.848012263047e-05 5.256627855621e-03 0.0 
0.0 0.0 0.0 
-3.104719636937e-08 2.794187722499e-05 0.0 
2.794187722499e-05 5.948736501021e-03 0.0 
0.0 0.0 0.0 
-8.956505056501e-07 2.857301638722e-05 0.0 
2.857301638722e-05 6.116041122060e-03 0.0 
0.0 0.0 0.0 
-1.131258731690e-06 -2.932737491861e-05 0.0 
-2.932737491861e-05 6.348013911414e-03 0.0 
0.0 0.0 0.0 
-2.495252811596e-06 -1.605090326237e-05 0.0 
-1.605090326237e-05 1.126885996682e-03 0.0 
0.0 0.0 0.0 
4.434172147239e-07 2.981275066593e-05 0.0 
2.981275066593e-05 4.276983555666e-03 0.0 
0.0 0.0 0.0 
-8.792841091898e-07 -2.822675777705e-05 0.0 
-2.822675777705e-05 4.057595167297e-03 0.0 
0.0 0.0 0.0 
-1.410679044467e-06 2.731169323462e-05 0.0 
2.731169323462e-05 5.757534344557e-03 0.0 
0.0 0.0 0.0 
-1.231329455842e-06 -2.930100601022e-05 0.0 
-2.930100601022e-05 5.994730256333e-03 0.0 
0.0 0.0 0.0 
1.417939286652e-06 2.729178118978e-05 0.0 
2.729178118978e-05 7.083021463262e-03 0.0 
0.0 0.0 0.0 
-4.420503568525e-06 3.209680690095e-05 0.0 
3.209680690095e-05 1.773328694481e-03 0.0 
0.0 0.0 0.0 
7.024684660628e-07 -2.713144727151e-05 0.0 
-2.713144727151e-05 1.855939667775e-03 0.0 
0.0 0.0 0.0 
-7.821286673870e-08 2.861907540619e-05 0.0 
2.861907540619e-05 4.979185103583e-03 0.0 
0.0 0.0 0.0 
5.374170903849e-07 -2.983403462147e-05 0.0 
-2.983403462147e-05 4.285976152501e-03 0.0 
0.0 0.0 0.0 
-1.729293831243e-06 -3.291646759753e-05 0.0 
-3.291646759753e-05 3.885967789504e-03 0.0 
0.0 0.0 0.0 
-5.954486925752e-08 -2.628093436352e-05 0.0 
-2.628093436352e-05 4.104423052711e-03 0.0 
0.0 0.0 0.0 
2.020234599609e-07 -2.911447581614e-05 0.0 
-2.911447581614e-05 5.955426877332e-03 0.0 
0.0 0.0 0.0 
-1.458608401395e-06 -2.885447811909e-05 0.0 
-2.885447811909e-05 1.807716910184e-03 0.0 
0.0 0.0 0.0 
1.970085306002e-07 2.906183685176e-05 0.0 
2.906183685176e-05 4.882243158008e-03 0.0 
0.0 0.0 0.0 
-1.912802319870e-07 -2.948968646625e-05 0.0 
-2.948968646625e-05 6.401361682381e-03 0.0 
0.0 0.0 0.0 
-5.520810640869e-07 3.122351720634e-05 0.0 
3.122351720634e-05 1.843432286840e-03 0.0 
0.0 0.0 0.0 
-1.244217938345e-06 -4.339377628458e-06 0.0 
-4.339377628458e-06 7.843380188157e-03 0.0 
0.0 0.0 0.0 
-2.489093373637e-07 -2.768674651602e-05 0.0 
-2.768674651602e-05 7.058237892648e-03 0.0 
0.0 0.0 0.0 
7.180569454590e-07 -2.962857874110e-05 0.0 
-2.962857874110e-05 4.653844763281e-03 0.0 
0.0 0.0 0.0 
1.682068837550e-07 2.896718982853e-05 0.0 
2.896718982853e-05 6.565395955829e-03 0.0 
0.0 0.0 0.0 
1.710814564015e-06 -9.475949170001e-07 0.0 
-9.475949170001e-07 7.684356447777e-04 0.0 
0.0 0.0 0.0 
-6.175731106506e-07 -3.066744914614e-05 0.0 
-3.066744914614e-05 6.167211914388e-03 0.0 
0.0 0.0 0.0 
-3.896424083383e-08 -2.854214743699e-05 0.0 
-2.854214743699e-05 5.214259328014e-03 0.0 
0.0 0.0 0.0 
8.697112768408e-06 -2.723779602592e-07 0.0 
-2.723779602592e-07 7.630786109953e-04 0.0 
0.0 0.0 0.0 
7.388064449110e-07 2.717065192729e-05 0.0 
2.717065192729e-05 7.053351526219e-03 0.0 
0.0 0.0 0.0 
-2.519030808723e-06 -2.879430792421e-05 0.0 
-2.879430792421e-05 1.678235982330e-03 0.0 
0.0 0.0 0.0 
-1.218175415429e-06 -2.871372256850e-05 0.0 
-2.871372256850e-05 5.766092668714e-03 0.0 
0.0 0.0 0.0 
-2.232354832099e-07 -2.882409745209e-05 0.0 
-2.882409745209e-05 5.264344858158e-03 0.0 
0.0 0.0 0.0 
-3.958352020605e-07 -2.923024522641e-05 0.0 
-2.923024522641e-05 4.503376568887e-03 0.0 
0.0 0.0 0.0 
-3.405795262479e-07 3.016960670590e-05 0.0 
3.016960670590e-05 5.459128769098e-03 0.0 
0.0 0.0 0.0 
-1.085997275663e-06 2.722829809195e-05 0.0 
2.722829809195e-05 7.238304928972e-03 0.0 
0.0 0.0 0.0 
-9.556737246008e-08 3.064005859423e-05 0.0 
3.064005859423e-05 5.882142304085e-03 0.0 
0.0 0.0 0.0 
-2.549849331679e-09 2.856830376659e-05 0.0 
2.856830376659e-05 5.155163808189e-03 0.0 
0.0 0.0 0.0 
-4.652119300896e-08 -2.845359802092e-05 0.0 
-2.845359802092e-05 4.987593700553e-03 0.0 
0.0 0.0 0.0 
-1.092775964162e-05 1.548439766085e-05 0.0 
1.548439766085e-05 4.818715004757e-04 0.0 
0.0 0.0 0.0 
-9.828923273059e-07 2.894895668423e-05 0.0 
2.894895668423e-05 1.435542734336e-03 0.0 
0.0 0.0 0.0 
-8.224227476816e-08 -2.703801096662e-05 0.0 
-2.703801096662e-05 6.842106755652e-03 0.0 
0.0 0.0 0.0 
-1.565463998654e-06 -3.289075651237e-05 0.0 
-3.289075651237e-05 5.501143009881e-03 0.0 
0.0 0.0 0.0 
-2.577531511339e-06 2.763377263409e-05 0.0 
2.763377263409e-05 7.016927235851e-03 0.0 
0.0 0.0 0.0 
-3.915545820909e-07 2.897677558106e-05 0.0 
2.897677558106e-05 2.829823514722e-03 0.0 
0.0 0.0 0.0 
-6.728569283965e-07 2.992616150373e-05 0.0 
2.992616150373e-05 6.687432431510e-03 0.0 
0.0 0.0 0.0 
-1.336854624112e-06 -2.892201571966e-05 0.0 
-2.892201571966e-05 7.081810779904e-03 0.0 
0.0 0.0 0.0 
4.070969579439e-06 2.683456270678e-05 0.0 
2.683456270678e-05 4.258931731862e-03 0.0 
0.0 0.0 0.0 
-5.686253404802e-07 2.547498798844e-05 0.0 
2.547498798844e-05 6.832959153391e-03 0.0 
0.0 0.0 0.0 
2.802548835223e-07 -3.027493705777e-05 0.0 
-3.027493705777e-05 6.574766012272e-03 0.0 
0.0 0.0 0.0 
2.413335205009e-07 2.879899392031e-05 0.0 
2.879899392031e-05 5.787276710628e-03 0.0 
0.0 0.0 0.0 
2.087682937635e-07 2.970016924459e-05 0.0 
2.970016924459e-05 4.697882465924e-03 0.0 
0.0 0.0 0.0 
2.277440085408e-07 -2.987411228127e-05 0.0 
-2.987411228127e-05 4.943676407416e-03 0.0 
0.0 0.0 0.0 
-1.114710145411e-06 -3.100959057000e-05 0.0 
-3.100959057000e-05 7.406158668816e-03 0.0 
0.0 0.0 0.0 
-2.692975004104e-07 2.971683523224e-05 0.0 
2.971683523224e-05 5.039799372107e-03 0.0 
0.0 0.0 0.0 
-1.244824814339e-07 2.833029092458e-05 0.0 
2.833029092458e-05 5.433474923648e-03 0.0 
0.0 0.0 0.0 
-3.168974881396e-07 2.978439920986e-05 0.0 
2.978439920986e-05 5.063502654601e-03 0.0 
0.0 0.0 0.0 
-1.408486162147e-07 2.996120057725e-05 0.0 
2.996120057725e-05 6.307594115587e-03 0.0 
0.0 0.0 0.0 
-1.764769644863e-07 -2.891807460764e-05 0.0 
-2.891807460764e-05 4.707779851664e-03 0.0 
0.0 0.0 0.0 
-7.677104097992e-07 2.900633522548e-05 0.0 
2.900633522548e-05 2.907872600441e-03 0.0 
0.0 0.0 0.0 
-8.506658588647e-08 2.855023950428e-05 0.0 
2.855023950428e-05 5.141603429021e-03 0.0 
0.0 0.0 0.0 
-7.648150903705e-07 2.861197931247e-05 0.0 
2.861197931247e-05 3.137545883497e-03 0.0 
0.0 0.0 0.0 
-1.304989223572e-06 2.839385055749e-05 0.0 
2.839385055749e-05 5.936221020695e-03 0.0 
0.0 0.0 0.0 
-3.784735231882e-07 -2.911211637567e-05 0.0 
-2.911211637567e-05 3.146510117542e-03 0.0 
0.0 0.0 0.0 
-7.614459409666e-07 -2.952248525822e-05 0.0 
-2.952248525822e-05 5.718235513799e-03 0.0 
0.0 0.0 0.0 
-1.592614596424e-06 -2.953074424654e-05 0.0 
-2.953074424654e-05 6.926545922665e-03 0.0 
0.0 0.0 0.0 
-5.728086648338e-07 2.836602915385e-05 0.0 
2.836602915385e-05 6.679610818404e-03 0.0 
0.0 0.0 0.0 
-2.321972252251e-07 2.861068486443e-05 0.0 
2.861068486443e-05 4.471832309198e-03 0.0 
0.0 0.0 0.0 
1.167020449389e-06 2.893400393957e-05 0.0 
2.893400393957e-05 5.720832378442e-03 0.0 
0.0 0.0 0.0 
6.519615107781e-07 2.891222849021e-05 0.0 
2.891222849021e-05 6.749066129366e-03 0.0 
0.0 0.0 0.0 
5.816632524525e-07 -3.034279622065e-05 0.0 
-3.034279622065e-05 6.758584189746e-03 0.0 
0.0 0.0 0.0 
-5.970269615019e-06 -2.833065546038e-05 0.0 
-2.833065546038e-05 1.413171448220e-03 0.0 
0.0 0.0 0.0 
-8.521538642503e-07 2.844353734656e-05 0.0 
2.844353734656e-05 5.887471189270e-03 0.0 
0.0 0.0 0.0 
2.054837586973e-06 3.715934546906e-05 0.0 
3.715934546906e-05 7.379329559621e-03 0.0 
0.0 0.0 0.0 
-2.481544811417e-06 2.690346835830e-05 0.0 
2.690346835830e-05 3.096780706074e-03 0.0 
0.0 0.0 0.0 
2.802456489093e-09 -2.948669065493e-05 0.0 
-2.948669065493e-05 5.072445179163e-03 0.0 
0.0 0.0 0.0 
-1.213719658977e-05 -3.532682550197e-05 0.0 
-3.532682550197e-05 6.835334191904e-04 0.0 
0.0 0.0 0.0 
1.069187671288e-06 2.857379557692e-05 0.0 
2.857379557692e-05 6.932421760807e-03 0.0 
0.0 0.0 0.0 
-1.093457874579e-06 2.907971917363e-05 0.0 
2.907971917363e-05 2.727887797616e-03 0.0 
0.0 0.0 0.0 
1.896662448875e-06 2.161347551764e-05 0.0 
2.161347551764e-05 4.870365041616e-03 0.0 
0.0 0.0 0.0 
3.065974216732e-07 3.307793590656e-05 0.0 
3.307793590656e-05 6.121410025136e-03 0.0 
0.0 0.0 0.0 
1.012044372528e-06 -2.905278317933e-05 0.0 
-2.905278317933e-05 5.728363016596e-03 0.0 
0.0 0.0 0.0 
4.363052285683e-06 2.644520982338e-05 0.0 
2.644520982338e-05 5.493390999362e-03 0.0 
0.0 0.0 0.0 
-6.555937903663e-09 2.864647454316e-05 0.0 
2.864647454316e-05 5.382575746073e-03 0.0 
0.0 0.0 0.0 
-2.385882276079e-06 -3.025263821703e-05 0.0 
-3.025263821703e-05 3.456023987046e-03 0.0 
0.0 0.0 0.0 
-6.910216610034e-08 -2.429270954203e-05 0.0 
-2.429270954203e-05 3.673496945484e-03 0.0 
0.0 0.0 0.0 
1.813940726514e-07 -2.938329677580e-05 0.0 
-2.938329677580e-05 6.941941125557e-03 0.0 
0.0 0.0 0.0 
-2.357553976484e-07 -3.178717367865e-05 0.0 
-3.178717367865e-05 5.699877497709e-03 0.0 
0.0 0.0 0.0 
-1.493155589172e-07 -2.910992163328e-05 0.0 
-2.910992163328e-05 4.916103802866e-03 0.0 
0.0 0.0 0.0 
-2.455174520355e-07 3.098682805844e-05 0.0 
3.098682805844e-05 6.159527892560e-03 0.0 
0.0 0.0 0.0 
-2.816407743689e-07 2.836671319800e-05 0.0 
2.836671319800e-05 4.728809520585e-03 0.0 
0.0 0.0 0.0 
-6.914806642833e-07 -2.894654929278e-05 0.0 
-2.894654929278e-05 2.968571748882e-03 0.0 
0.0 0.0 0.0 
5.042584571902e-06 2.238025593236e-05 0.0 
2.238025593236e-05 3.443900694722e-03 0.0 
0.0 0.0 0.0 
-3.709198906465e-06 -2.686515425829e-05 0.0 
-2.686515425829e-05 5.096353594939e-03 0.0 
0.0 0.0 0.0 
-1.050895403920e-06 1.087531303956e-06 0.0 
1.087531303956e-06 4.295096675094e-03 0.0 
0.0 0.0 0.0 
-1.534470161380e-06 -2.965559668515e-05 0.0 
-2.965559668515e-05 6.687834172652e-03 0.0 
0.0 0.0 0.0 
-3.092346678724e-07 -2.899018400575e-05 0.0 
-2.899018400575e-05 4.480180336011e-03 0.0 
0.0 0.0 0.0 
7.212819803648e-06 2.684959171396e-05 0.0 
2.684959171396e-05 7.557111462429e-03 0.0 
0.0 0.0 0.0 
7.766625242933e-07 3.410368206193e-05 0.0 
3.410368206193e-05 6.842727230834e-03 0.0 
0.0 0.0 0.0 
-1.169289282066e-07 -2.966841537294e-05 0.0 
-2.966841537294e-05 4.971664222830e-03 0.0 
0.0 0.0 0.0 
-4.948929371862e-07 -3.271192298212e-05 0.0 
-3.271192298212e-05 7.622296965277e-03 0.0 
0.0 0.0 0.0 
-4.715327042160e-07 -2.958497541124e-05 0.0 
-2.958497541124e-05 3.327421698958e-03 0.0 
0.0 0.0 0.0 
-9.897904438283e-07 2.814230218647e-05 0.0 
2.814230218647e-05 7.371733640938e-03 0.0 
0.0 0.0 0.0 
4.549417575994e-08 -2.859193350134e-05 0.0 
-2.859193350134e-05 5.391187814431e-03 0.0 
0.0 0.0 0.0 
-2.326827952537e-09 2.855929956819e-05 0.0 
2.855929956819e-05 5.963734676096e-03 0.0 
0.0 0.0 0.0 
5.246844412277e-07 -2.824274071976e-05 0.0 
-2.824274071976e-05 7.020693460582e-03 0.0 
0.0 0.0 0.0 
5.030995666733e-07 -2.773180208543e-05 0.0 
-2.773180208543e-05 3.506756403691e-03 0.0 
0.0 0.0 0.0 
-6.059824750881e-07 2.868436421355e-05 0.0 
2.868436421355e-05 5.661065812262e-03 0.0 
0.0 0.0 0.0 
-1.476183881799e-07 -2.902589479474e-05 0.0 
-2.902589479474e-05 4.737551055812e-03 0.0 
0.0 0.0 0.0 
-5.587001327134e-07 -2.892512554865e-05 0.0 
-2.892512554865e-05 5.489993016091e-03 0.0 
0.0 0.0 0.0 
-4.385263379092e-07 -2.873158313893e-05 0.0 
-2.873158313893e-05 3.059760821625e-03 0.0 
0.0 0.0 0.0 
-2.723812735361e-07 3.207132526210e-05 0.0 
3.207132526210e-05 6.148700130610e-03 0.0 
0.0 0.0 0.0 
-2.886613106323e-07 2.858545617848e-05 0.0 
2.858545617848e-05 4.494134865681e-03 0.0 
0.0 0.0 0.0 
1.095014554586e-07 2.906411116829e-05 0.0 
2.906411116829e-05 5.300855625700e-03 0.0 
0.0 0.0 0.0 
-9.525423786405e-07 2.805241523956e-05 0.0 
2.805241523956e-05 5.482382484657e-03 0.0 
0.0 0.0 0.0 
-1.608842561018e-05 -1.040848805855e-05 0.0 
-1.040848805855e-05 6.140478355996e-04 0.0 
0.0 0.0 0.0 
-1.435236959280e-07 3.111995365413e-05 0.0 
3.111995365413e-05 5.479249655345e-03 0.0 
0.0 0.0 0.0 
-3.208671626065e-06 -3.704087911209e-05 0.0 
-3.704087911209e-05 1.071962213597e-03 0.0 
0.0 0.0 0.0 
-3.505314071339e-06 3.075552216728e-05 0.0 
3.075552216728e-05 1.220954210041e-03 0.0 
0.0 0.0 0.0 
1.736036192579e-07 2.842449390439e-05 0.0 
2.842449390439e-05 5.062301752131e-03 0.0 
0.0 0.0 0.0 
-6.760064124034e-07 -3.036437904514e-05 0.0 
-3.036437904514e-05 6.713342025169e-03 0.0 
0.0 0.0 0.0 
1.488843208053e-06 2.693817217170e-05 0.0 
2.693817217170e-05 5.669687168624e-03 0.0 
0.0 0.0 0.0 
-3.081169403729e-06 -2.999687245284e-05 0.0 
-2.999687245284e-05 3.031633276698e-03 0.0 
0.0 0.0 0.0 
0.0 2.013932995942e-06 0.0 
2.013932995942e-06 8.208569706978e-03 0.0 
0.0 0.0 0.0 
-2.385341643363e-05 2.614166556368e-05 0.0 
2.614166556368e-05 2.558873176652e-04 0.0 
0.0 0.0 0.0 
-1.176653290913e-06 -2.050346371152e-05 0.0 
-2.050346371152e-05 3.246050872314e-03 0.0 
0.0 0.0 0.0 
-2.484328305297e-07 2.813016405460e-05 0.0 
2.813016405460e-05 5.084650984721e-03 0.0 
0.0 0.0 0.0 
1.292700124722e-07 -2.988488852111e-05 0.0 
-2.988488852111e-05 4.837120266443e-03 0.0 
0.0 0.0 0.0 
-8.153868958916e-07 -2.533073212180e-05 0.0 
-2.533073212180e-05 4.000654225862e-03 0.0 
0.0 0.0 0.0 
-5.913496597953e-07 2.765224830565e-05 0.0 
2.765224830565e-05 3.446975841132e-03 0.0 
0.0 0.0 0.0 
-2.869103880032e-07 -3.037852407181e-05 0.0 
-3.037852407181e-05 5.277306483471e-03 0.0 
0.0 0.0 0.0 
1.835727339028e-07 -2.903060151596e-05 0.0 
-2.903060151596e-05 5.618821982839e-03 0.0 
0.0 0.0 0.0 
3.139075688274e-08 3.082515030235e-05 0.0 
3.082515030235e-05 5.898484469919e-03 0.0 
0.0 0.0 0.0 
-3.353654125515e-06 3.099967332804e-05 0.0 
3.099967332804e-05 6.981331182841e-03 0.0 
0.0 0.0 0.0 
-3.502895303487e-06 2.774044913191e-05 0.0 
2.774044913191e-05 1.568942642005e-03 0.0 
0.0 0.0 0.0 
2.631771720552e-07 2.891346852386e-05 0.0 
2.891346852386e-05 4.644795344674e-03 0.0 
0.0 0.0 0.0 
-6.254785811510e-08 2.839027124500e-05 0.0 
2.839027124500e-05 5.011577126117e-03 0.0 
0.0 0.0 0.0 
1.269843478369e-06 -3.083569735062e-05 0.0 
-3.083569735062e-05 2.598953258193e-03 0.0 
0.0 0.0 0.0 
1.113026695254e-07 3.318618742539e-05 0.0 
3.318618742539e-05 4.476301876536e-03 0.0 
0.0 0.0 0.0 
-4.995826748955e-07 -3.067379849959e-05 0.0 
-3.067379849959e-05 5.677774058953e-03 0.0 
0.0 0.0 0.0 
7.971857181044e-07 -2.969443299185e-05 0.0 
-2.969443299185e-05 6.216122434528e-03 0.0 
0.0 0.0 0.0 
5.231400682204e-06 5.311718444132e-07 0.0 
5.311718444132e-07 7.650014903127e-04 0.0 
0.0 0.0 0.0 
-2.060409870519e-05 -3.909668819859e-05 0.0 
-3.909668819859e-05 4.390021805489e-04 0.0 
0.0 0.0 0.0 
2.922045849729e-07 -2.757378169338e-05 0.0 
-2.757378169338e-05 1.766924617066e-03 0.0 
0.0 0.0 0.0 
-2.619736145792e-07 -2.965276201818e-05 0.0 
-2.965276201818e-05 5.021062771139e-03 0.0 
0.0 0.0 0.0 
-3.388392831871e-07 -2.904124566266e-05 0.0 
-2.904124566266e-05 3.737011092542e-03 0.0 
0.0 0.0 0.0 
-4.805678087694e-07 -2.817174604296e-05 0.0 
-2.817174604296e-05 3.278696245252e-03 0.0 
0.0 0.0 0.0 
-4.623845943907e-07 -2.898112403762e-05 0.0 
-2.898112403762e-05 2.916541093134e-03 0.0 
0.0 0.0 0.0 
-8.660936379190e-08 2.832012887421e-05 0.0 
2.832012887421e-05 5.244444539096e-03 0.0 
0.0 0.0 0.0 
8.264337925112e-08 2.837669480950e-05 0.0 
2.837669480950e-05 6.032604141472e-03 0.0 
0.0 0.0 0.0 
-3.489402511381e-07 2.851182069549e-05 0.0 
2.851182069549e-05 5.195344760852e-03 0.0 
0.0 0.0 0.0 
-4.767532435501e-07 2.804530859967e-05 0.0 
2.804530859967e-05 3.727683920564e-03 0.0 
0.0 0.0 0.0 
-3.740498877303e-07 -3.060381090437e-05 0.0 
-3.060381090437e-05 5.895153333888e-03 0.0 
0.0 0.0 0.0 
4.135360504698e-06 2.490334445852e-05 0.0 
2.490334445852e-05 4.948764739213e-03 0.0 
0.0 0.0 0.0 
1.426201222898e-06 3.242831376663e-05 0.0 
3.242831376663e-05 6.549078595940e-03 0.0 
0.0 0.0 0.0 
-4.052768395324e-07 -2.968506533772e-05 0.0 
-2.968506533772e-05 5.205076479532e-03 0.0 
0.0 0.0 0.0 
-3.364564785668e-07 -2.939477619247e-05 0.0 
-2.939477619247e-05 5.254560335630e-03 0.0 
0.0 0.0 0.0 
-2.969865810165e-06 -3.049213151222e-05 0.0 
-3.049213151222e-05 2.599299187678e-03 0.0 
0.0 0.0 0.0 
-5.505240147086e-07 -2.870493229409e-05 0.0 
-2.870493229409e-05 3.915579782648e-03 0.0 
0.0 0.0 0.0 
9.547674872934e-09 2.803670929477e-05 0.0 
2.803670929477e-05 5.377172375620e-03 0.0 
0.0 0.0 0.0 
-1.819701526462e-06 2.586255837317e-05 0.0 
2.586255837317e-05 5.831324897401e-03 0.0 
0.0 0.0 0.0 
-3.118028578775e-06 2.752579139108e-05 0.0 
2.752579139108e-05 5.438542123329e-03 0.0 
0.0 0.0 0.0 
-2.631637062156e-06 -2.387905095855e-05 0.0 
-2.387905095855e-05 2.821120976709e-03 0.0 
0.0 0.0 0.0 
-1.939278438945e-07 2.867954810580e-05 0.0 
2.867954810580e-05 5.427828435495e-03 0.0 
0.0 0.0 0.0 
-3.844378932971e-07 -2.706494334952e-05 0.0 
-2.706494334952e-05 3.222808398869e-03 0.0 
0.0 0.0 0.0 
-1.766803657155e-06 2.816201324451e-05 0.0 
2.816201324451e-05 1.473722943436e-03 0.0 
0.0 0.0 0.0 
4.359065256976e-06 -2.932803560244e-05 0.0 
-2.932803560244e-05 7.384649728887e-03 0.0 
0.0 0.0 0.0 
8.844713539347e-08 3.044475185511e-05 0.0 
3.044475185511e-05 1.591438107755e-03 0.0 
0.0 0.0 0.0 
-5.621501213415e-07 2.846890447953e-05 0.0 
2.846890447953e-05 3.391842526516e-03 0.0 
0.0 0.0 0.0 
-3.119808279495e-07 -3.042976144588e-05 0.0 
-3.042976144588e-05 5.297168896215e-03 0.0 
0.0 0.0 0.0 
5.556933754480e-06 2.110924652124e-05 0.0 
2.110924652124e-05 3.015853738748e-03 0.0 
0.0 0.0 0.0 
9.153509794579e-08 -3.020705927614e-05 0.0 
-3.020705927614e-05 5.391655372551e-03 0.0 
0.0 0.0 0.0 
9.576062127703e-07 -3.313405646640e-05 0.0 
-3.313405646640e-05 2.424092233109e-03 0.0 
0.0 0.0 0.0 
7.447527152316e-06 -2.536195039152e-05 0.0 
-2.536195039152e-05 4.651876395735e-03 0.0 
0.0 0.0 0.0 
-8.041966902406e-07 -2.893343526558e-05 0.0 
-2.893343526558e-05 5.437897085767e-03 0.0 
0.0 0.0 0.0 
-4.746027508773e-07 -2.861804716457e-05 0.0 
-2.861804716457e-05 4.682673543190e-03 0.0 
0.0 0.0 0.0 
3.455039601086e-07 -2.958836487184e-05 0.0 
-2.958836487184e-05 4.891704611095e-03 0.0 
0.0 0.0 0.0 
-9.106951933679e-07 -1.118378748089e-05 0.0 
-1.118378748089e-05 6.704889640661e-04 0.0 
0.0 0.0 0.0 
-9.390720932201e-06 -3.045042734982e-05 0.0 
-3.045042734982e-05 7.072919887569e-03 0.0 
0.0 0.0 0.0 
-4.178414427791e-07 -2.756973333678e-05 0.0 
-2.756973333678e-05 3.861957359554e-03 0.0 
0.0 0.0 0.0 
-2.357528305574e-06 3.135668919226e-05 0.0 
3.135668919226e-05 7.062066223241e-03 0.0 
0.0 0.0 0.0 
-4.201545205085e-07 -2.986583277279e-05 0.0 
-2.986583277279e-05 5.974559373854e-03 0.0 
0.0 0.0 0.0 
-1.240262936797e-07 2.935222599462e-05 0.0 
2.935222599462e-05 5.610869918165e-03 0.0 
0.0 0.0 0.0 
-6.274997331746e-07 -2.712039768195e-05 0.0 
-2.712039768195e-05 5.620586991864e-03 0.0 
0.0 0.0 0.0 
-5.063994358290e-07 2.791048796612e-05 0.0 
2.791048796612e-05 3.498168255984e-03 0.0 
0.0 0.0 0.0 
6.265532471961e-06 2.393263911203e-05 0.0 
2.393263911203e-05 1.028268965739e-03 0.0 
0.0 0.0 0.0 
-4.895189175902e-06 2.127766489630e-05 0.0 
2.127766489630e-05 6.641029597425e-04 0.0 
0.0 0.0 0.0 
9.385494645908e-07 2.934595868820e-05 0.0 
2.934595868820e-05 5.794274586160e-03 0.0 
0.0 0.0 0.0 
-3.673653013903e-06 2.857682167738e-05 0.0 
2.857682167738e-05 7.022737449296e-03 0.0 
0.0 0.0 0.0 
2.533244107816e-07 -2.622265412697e-05 0.0 
-2.622265412697e-05 3.166061322477e-03 0.0 
0.0 0.0 0.0 
4.418229671010e-08 2.903948406936e-05 0.0 
2.903948406936e-05 6.067655669301e-03 0.0 
0.0 0.0 0.0 
-4.352073224023e-07 2.881791350232e-05 0.0 
2.881791350232e-05 2.858392876664e-03 0.0 
0.0 0.0 0.0 
-8.252944634357e-07 -3.035641813339e-05 0.0 
-3.035641813339e-05 6.124285274156e-03 0.0 
0.0 0.0 0.0 
-2.834609934665e-06 1.644919290897e-05 0.0 
1.644919290897e-05 7.834090044838e-03 0.0 
0.0 0.0 0.0 
-1.079687314498e-05 9.646650232059e-06 0.0 
9.646650232059e-06 1.012404258125e-04 0.0 
0.0 0.0 0.0 
0.0 -5.243830108450e-06 0.0 
-5.243830108450e-06 8.203684392401e-03 0.0 
0.0 0.0 0.0 
0.0 4.898760854945e-07 0.0 
4.898760854945e-07 8.205404073568e-03 0.0 
0.0 0.0 0.0 
-1.323351444205e-06 -3.010277627699e-05 0.0 
-3.010277627699e-05 4.752503482635e-03 0.0 
0.0 0.0 0.0 
-1.788015382420e-07 -2.692829184808e-05 0.0 
-2.692829184808e-05 3.807202702082e-03 0.0 
0.0 0.0 0.0 
2.407361723300e-07 -2.898928852313e-05 0.0 
-2.898928852313e-05 5.796825743289e-03 0.0 
0.0 0.0 0.0 
-3.749232017070e-07 -2.944199753353e-05 0.0 
-2.944199753353e-05 3.556642210893e-03 0.0 
0.0 0.0 0.0 
4.914206529705e-06 -2.690196717454e-05 0.0 
-2.690196717454e-05 1.040011486193e-03 0.0 
0.0 0.0 0.0 
-2.142519112913e-05 -2.477545212702e-05 0.0 
-2.477545212702e-05 4.816477125948e-04 0.0 
0.0 0.0 0.0 
-4.426716885053e-06 -2.448968222769e-05 0.0 
-2.448968222769e-05 7.427931357293e-03 0.0 
0.0 0.0 0.0 
-7.627699402102e-07 -3.209971102008e-05 0.0 
-3.209971102008e-05 5.864100880155e-03 0.0 
0.0 0.0 0.0 
-8.539620795944e-06 -2.809674968261e-05 0.0 
-2.809674968261e-05 4.343429122146e-03 0.0 
0.0 0.0 0.0 
4.774164721111e-06 -1.420870366532e-06 0.0 
-1.420870366532e-06 8.203254846438e-03 0.0 
0.0 0.0 0.0 
-2.970374632261e-06 -3.186439165719e-05 0.0 
-3.186439165719e-05 2.005880914250e-03 0.0 
0.0 0.0 0.0 
-4.138446661139e-06 -1.740565088680e-06 0.0 
-1.740565088680e-06 8.206354478389e-03 0.0 
0.0 0.0 0.0 
3.457145636432e-07 2.832435020866e-05 0.0 
2.832435020866e-05 5.853779787779e-03 0.0 
0.0 0.0 0.0 
3.633690948135e-07 -2.701448787322e-05 0.0 
-2.701448787322e-05 3.748516628627e-03 0.0 
0.0 0.0 0.0 
7.491423859030e-08 2.836793523828e-05 0.0 
2.836793523828e-05 5.558362981437e-03 0.0 
0.0 0.0 0.0 
-2.778804619741e-07 2.785466753349e-05 0.0 
2.785466753349e-05 3.563833529234e-03 0.0 
0.0 0.0 0.0 
-1.013273942529e-08 3.151030827347e-05 0.0 
3.151030827347e-05 1.691836579158e-03 0.0 
0.0 0.0 0.0 
2.306049571299e-07 2.900995196643e-05 0.0 
2.900995196643e-05 3.328721469176e-03 0.0 
0.0 0.0 0.0 
3.091986620074e-07 2.939841913729e-05 0.0 
2.939841913729e-05 6.211456614639e-03 0.0 
0.0 0.0 0.0 
1.253158706804e-06 -3.103154946629e-05 0.0 
-3.103154946629e-05 7.074778529855e-03 0.0 
0.0 0.0 0.0 
-5.177822781643e-07 2.767994437565e-05 0.0 
2.767994437565e-05 3.619978993367e-03 0.0 
0.0 0.0 0.0 
-3.699467983065e-07 2.886423552692e-05 0.0 
2.886423552692e-05 6.295851788396e-03 0.0 
0.0 0.0 0.0 
-4.530215071519e-06 6.010217841945e-06 0.0 
6.010217841945e-06 9.346325897508e-05 0.0 
0.0 0.0 0.0 
-6.354125725583e-07 2.708241497026e-05 0.0 
2.708241497026e-05 3.674413632943e-03 0.0 
0.0 0.0 0.0 
-4.580530909015e-07 -3.144727332963e-05 0.0 
-3.144727332963e-05 6.514847238767e-03 0.0 
0.0 0.0 0.0 
4.593639202355e-07 2.942352050624e-05 0.0 
2.942352050624e-05 3.255589128832e-03 0.0 
0.0 0.0 0.0 
5.353211420811e-07 -2.648981078373e-05 0.0 
-2.648981078373e-05 2.928243717510e-03 0.0 
0.0 0.0 0.0 
8.193860723260e-08 -2.836678007025e-05 0.0 
-2.836678007025e-05 5.567662292399e-03 0.0 
0.0 0.0 0.0 
5.260773347393e-06 3.177780364791e-05 0.0 
3.177780364791e-05 1.554305864681e-03 0.0 
0.0 0.0 0.0 
-1.135846406619e-05 -1.859780974482e-05 0.0 
-1.859780974482e-05 2.153335466495e-03 0.0 
0.0 0.0 0.0 
6.754197214631e-06 -2.770896392688e-05 0.0 
-2.770896392688e-05 2.393132681972e-03 0.0 
0.0 0.0 0.0 
4.134030542335e-07 2.859194424035e-05 0.0 
2.859194424035e-05 2.844148775552e-03 0.0 
0.0 0.0 0.0 
-5.691136386599e-07 -2.922963862614e-05 0.0 
-2.922963862614e-05 5.095411659035e-03 0.0 
0.0 0.0 0.0 
-2.866325971018e-07 2.912975199366e-05 0.0 
2.912975199366e-05 4.878743443154e-03 0.0 
0.0 0.0 0.0 
3.960095207312e-08 -3.064594702047e-05 0.0 
-3.064594702047e-05 6.302642258959e-03 0.0 
0.0 0.0 0.0 
7.643961759118e-07 2.025580891210e-05 0.0 
2.025580891210e-05 7.474350850500e-03 0.0 
0.0 0.0 0.0 
4.190156606354e-06 1.927526701210e-05 0.0 
1.927526701210e-05 2.588828330457e-03 0.0 
0.0 0.0 0.0 
8.250740664018e-07 -3.767935405464e-05 0.0 
-3.767935405464e-05 6.252477834123e-03 0.0 
0.0 0.0 0.0 
-1.188539521246e-06 1.883310379785e-05 0.0 
1.883310379785e-05 7.499872874126e-03 0.0 
0.0 0.0 0.0 
-4.933162082166e-07 2.866419512783e-05 0.0 
2.866419512783e-05 3.318275454268e-03 0.0 
0.0 0.0 0.0 
9.492313890469e-08 2.875612685203e-05 0.0 
2.875612685203e-05 1.074348270072e-03 0.0 
0.0 0.0 0.0 
1.510677272165e-08 -2.388075782385e-05 0.0 
-2.388075782385e-05 3.105779278685e-03 0.0 
0.0 0.0 0.0 
-2.005687048667e-07 -2.884602453911e-05 0.0 
-2.884602453911e-05 4.861855319930e-03 0.0 
0.0 0.0 0.0 
-1.535591953927e-06 2.986371927060e-05 0.0 
2.986371927060e-05 6.340521365612e-03 0.0 
0.0 0.0 0.0 
-6.954381810420e-07 2.890664227280e-05 0.0 
2.890664227280e-05 4.853095340860e-03 0.0 
0.0 0.0 0.0 
-7.952631822739e-06 -1.558705491222e-05 0.0 
-1.558705491222e-05 1.222136600927e-03 0.0 
0.0 0.0 0.0 
-2.486578626337e-07 -3.085718410193e-05 0.0 
-3.085718410193e-05 5.510438203239e-03 0.0 
0.0 0.0 0.0 
-1.528794958183e-06 3.252323277704e-05 0.0 
3.252323277704e-05 1.923067245996e-03 0.0 
0.0 0.0 0.0 
-3.592358279736e-07 -2.954325240634e-05 0.0 
-2.954325240634e-05 4.887122076688e-03 0.0 
0.0 0.0 0.0 
-4.514483769036e-07 3.073028572611e-05 0.0 
3.073028572611e-05 5.267887653482e-03 0.0 
0.0 0.0 0.0 
-3.957514733699e-07 2.892104198278e-05 0.0 
2.892104198278e-05 5.738262295762e-03 0.0 
0.0 0.0 0.0 
6.806388459957e-06 -2.611219586093e-05 0.0 
-2.611219586093e-05 5.723679756530e-03 0.0 
0.0 0.0 0.0 
1.113467042568e-06 -2.637576015904e-05 0.0 
-2.637576015904e-05 2.851655755110e-03 0.0 
0.0 0.0 0.0 
-3.525309026586e-06 2.513527269152e-05 0.0 
2.513527269152e-05 1.246507356615e-03 0.0 
0.0 0.0 0.0 
-1.798872006908e-07 3.154511837710e-05 0.0 
3.154511837710e-05 5.690395199238e-03 0.0 
0.0 0.0 0.0 
1.830946632531e-06 3.022841709769e-05 0.0 
3.022841709769e-05 2.138743972568e-03 0.0 
0.0 0.0 0.0 
-6.399263622670e-06 3.048080337203e-05 0.0 
3.048080337203e-05 4.316962461173e-04 0.0 
0.0 0.0 0.0 
2.002251252575e-06 2.615299460491e-05 0.0 
2.615299460491e-05 7.473591464168e-03 0.0 
0.0 0.0 0.0 
1.484346730418e-06 2.918477816425e-05 0.0 
2.918477816425e-05 7.075275844339e-03 0.0 
0.0 0.0 0.0 
9.934233917708e-07 -1.011763544547e-06 0.0 
-1.011763544547e-06 3.887084398020e-04 0.0 
0.0 0.0 0.0 
-2.179530012025e-08 -3.193412513134e-05 0.0 
-3.193412513134e-05 5.931637718759e-03 0.0 
0.0 0.0 0.0 
2.905221763161e-07 -2.659808307321e-05 0.0 
-2.659808307321e-05 2.184197208394e-03 0.0 
0.0 0.0 0.0 
7.087361579838e-07 3.240934492321e-05 0.0 
3.240934492321e-05 2.347418692186e-03 0.0 
0.0 0.0 0.0 
9.288271796137e-08 2.953626058891e-05 0.0 
2.953626058891e-05 6.709512319617e-03 0.0 
0.0 0.0 0.0 
8.336685475285e-08 -2.867140524023e-05 0.0 
-2.867140524023e-05 5.746078075615e-03 0.0 
0.0 0.0 0.0 
5.741845487961e-08 2.884497454473e-05 0.0 
2.884497454473e-05 6.478475723421e-03 0.0 
0.0 0.0 0.0 
-5.780200253991e-07 -2.784631091090e-05 0.0 
-2.784631091090e-05 3.684518206557e-03 0.0 
0.0 0.0 0.0 
1.300019033312e-06 3.060950012064e-06 0.0 
3.060950012064e-06 4.291497846613e-03 0.0 
0.0 0.0 0.0 
-3.853094802442e-06 -6.026936003915e-06 0.0 
-6.026936003915e-06 7.822088464009e-03 0.0 
0.0 0.0 0.0 
5.284581485743e-07 3.135095659442e-05 0.0 
3.135095659442e-05 1.926276525694e-03 0.0 
0.0 0.0 0.0 
-1.152374674129e-06 -2.689192335285e-05 0.0 
-2.689192335285e-05 6.856080952949e-03 0.0 
0.0 0.0 0.0 
-2.803269232299e-07 -2.935363355809e-05 0.0 
-2.935363355809e-05 5.113605890610e-03 0.0 
0.0 0.0 0.0 
1.068252139502e-05 2.540482605684e-05 0.0 
2.540482605684e-05 1.491969397663e-03 0.0 
0.0 0.0 0.0 
-7.542671737193e-07 2.853694611545e-05 0.0 
2.853694611545e-05 6.158423500533e-03 0.0 
0.0 0.0 0.0 
-3.263431737066e-07 2.801372301791e-05 0.0 
2.801372301791e-05 3.905792850561e-03 0.0 
0.0 0.0 0.0 
4.749133537763e-06 3.520573704544e-06 0.0 
3.520573704544e-06 7.619765353235e-04 0.0 
0.0 0.0 0.0 
-5.751886859029e-07 2.748380686626e-05 0.0 
2.748380686626e-05 3.270597318871e-03 0.0 
0.0 0.0 0.0 
8.118858785267e-07 2.950994799978e-05 0.0 
2.950994799978e-05 6.031176286110e-03 0.0 
0.0 0.0 0.0 
-1.092973769379e-06 -3.046944935313e-05 0.0 
-3.046944935313e-05 6.225479126236e-03 0.0 
0.0 0.0 0.0 
8.869722196714e-07 -2.825683506164e-05 0.0 
-2.825683506164e-05 1.436792013957e-03 0.0 
0.0 0.0 0.0 
8.695386100044e-06 -1.800860524100e-05 0.0 
-1.800860524100e-05 4.878830570223e-03 0.0 
0.0 0.0 0.0 
-7.294301487271e-07 3.032461177611e-05 0.0 
3.032461177611e-05 6.527234633829e-03 0.0 
0.0 0.0 0.0 
2.261416581772e-06 -2.752440021442e-05 0.0 
-2.752440021442e-05 6.784998282025e-03 0.0 
0.0 0.0 0.0 
2.302212600558e-07 2.788963392062e-05 0.0 
2.788963392062e-05 3.086177545761e-03 0.0 
0.0 0.0 0.0 
1.002473295264e-06 2.964078172364e-05 0.0 
2.964078172364e-05 2.425481452762e-03 0.0 
0.0 0.0 0.0 
-2.353688783874e-07 3.035370127869e-05 0.0 
3.035370127869e-05 5.288774143156e-03 0.0 
0.0 0.0 0.0 
2.549597796886e-06 -3.285413226357e-05 0.0 
-3.285413226357e-05 5.602713023119e-03 0.0 
0.0 0.0 0.0 
3.746457971632e-06 -1.618618825511e-06 0.0 
-1.618618825511e-06 7.499532595858e-04 0.0 
0.0 0.0 0.0 
-1.488289705476e-06 3.149087800168e-07 0.0 
3.149087800168e-07 7.851430136546e-03 0.0 
0.0 0.0 0.0 
-5.303165450665e-06 2.851273610152e-06 0.0 
2.851273610152e-06 7.820562670962e-03 0.0 
0.0 0.0 0.0 
3.036129494260e-06 -2.926530768438e-05 0.0 
-2.926530768438e-05 5.007991724904e-03 0.0 
0.0 0.0 0.0 
3.056452655414e-06 -3.486563672459e-05 0.0 
-3.486563672459e-05 7.731059379222e-03 0.0 
0.0 0.0 0.0 
-4.767959538299e-08 1.337999041379e-05 0.0 
1.337999041379e-05 7.847057139619e-03 0.0 
0.0 0.0 0.0 
-5.491676200453e-07 2.798612046627e-05 0.0 
2.798612046627e-05 3.851916111014e-03 0.0 
0.0 0.0 0.0 
-5.185512484962e-07 -2.729463800274e-05 0.0 
-2.729463800274e-05 3.630030858340e-03 0.0 
0.0 0.0 0.0 
-5.287402307763e-06 -5.732403486395e-06 0.0 
-5.732403486395e-06 7.840144677724e-03 0.0 
0.0 0.0 0.0 
-1.092117485668e-06 8.902120788131e-07 0.0 
8.902120788131e-07 1.077825709190e-04 0.0 
0.0 0.0 0.0 
-1.220870786800e-06 3.192940945822e-05 0.0 
3.192940945822e-05 2.198123494513e-03 0.0 
0.0 0.0 0.0 
-5.791798161514e-06 3.235971812818e-05 0.0 
3.235971812818e-05 4.981715792687e-03 0.0 
0.0 0.0 0.0 
4.395637063226e-07 -2.608263063328e-05 0.0 
-2.608263063328e-05 3.095869000580e-03 0.0 
0.0 0.0 0.0 
-9.502315120313e-07 2.814480657186e-05 0.0 
2.814480657186e-05 3.215638962731e-03 0.0 
0.0 0.0 0.0 
-7.093733741526e-06 -2.073877353652e-05 0.0 
-2.073877353652e-05 1.716978576880e-03 0.0 
0.0 0.0 0.0 
-1.495298346810e-06 -2.811786188144e-05 0.0 
-2.811786188144e-05 1.972939518100e-03 0.0 
0.0 0.0 0.0 
2.859630640506e-06 -2.526233336479e-05 0.0 
-2.526233336479e-05 5.010476646125e-03 0.0 
0.0 0.0 0.0 
-5.453471739747e-07 -2.887210449266e-05 0.0 
-2.887210449266e-05 3.507621083284e-03 0.0 
0.0 0.0 0.0 
-2.379994149093e-06 2.595569685968e-05 0.0 
2.595569685968e-05 2.593642171455e-03 0.0 
0.0 0.0 0.0 
-1.135757103921e-06 3.079265830323e-05 0.0 
3.079265830323e-05 6.564183164262e-03 0.0 
0.0 0.0 0.0 
3.442606018034e-06 -6.055485899044e-07 0.0 
-6.055485899044e-07 8.208308992129e-03 0.0 
0.0 0.0 0.0 
-6.253766539621e-06 -1.091903920589e-05 0.0 
-1.091903920589e-05 8.187054761665e-03 0.0 
0.0 0.0 0.0 
-4.358896054102e-07 2.831988489446e-05 0.0 
2.831988489446e-05 3.797031306301e-03 0.0 
0.0 0.0 0.0 
5.190689899015e-06 1.576034944070e-05 0.0 
1.576034944070e-05 4.658414527196e-03 0.0 
0.0 0.0 0.0 
-9.586045841559e-06 5.812739778023e-06 0.0 
5.812739778023e-06 3.203015630007e-04 0.0 
0.0 0.0 0.0 
-3.037834019781e-06 -3.535531231393e-05 0.0 
-3.535531231393e-05 1.324086551760e-03 0.0 
0.0 0.0 0.0 
1.429032463918e-06 -1.417890809057e-05 0.0 
-1.417890809057e-05 1.466214881631e-03 0.0 
0.0 0.0 0.0 
-1.604560214141e-06 -2.915569125972e-05 0.0 
-2.915569125972e-05 1.542948228755e-03 0.0 
0.0 0.0 0.0 
-3.408024235041e-07 -2.995417334759e-05 0.0 
-2.995417334759e-05 5.519594896662e-03 0.0 
0.0 0.0 0.0 
-4.725455196031e-07 2.812233617952e-05 0.0 
2.812233617952e-05 3.159267184392e-03 0.0 
0.0 0.0 0.0 
-6.640937832980e-07 -2.793034771073e-05 0.0 
-2.793034771073e-05 3.455822976179e-03 0.0 
0.0 0.0 0.0 
4.816411335762e-06 -1.763237196186e-05 0.0 
-1.763237196186e-05 7.685660023318e-04 0.0 
0.0 0.0 0.0 
-3.890670738915e-06 4.705656648801e-06 0.0 
4.705656648801e-06 7.146665461370e-03 0.0 
0.0 0.0 0.0 
-4.372594868407e-07 -2.739514653442e-05 0.0 
-2.739514653442e-05 3.399917735029e-03 0.0 
0.0 0.0 0.0 
1.572639715341e-06 3.000679312940e-05 0.0 
3.000679312940e-05 7.419435544394e-03 0.0 
0.0 0.0 0.0 
4.520700676913e-06 -2.189954956882e-05 0.0 
-2.189954956882e-05 6.806617822708e-03 0.0 
0.0 0.0 0.0 
-2.304401968467e-06 7.650382452913e-06 0.0 
7.650382452913e-06 8.189187782733e-03 0.0 
0.0 0.0 0.0 
4.847404360131e-07 6.230360128382e-06 0.0 
6.230360128382e-06 8.210558965989e-03 0.0 
0.0 0.0 0.0 
-3.330981322880e-06 2.365049314055e-05 0.0 
2.365049314055e-05 5.020241408863e-03 0.0 
0.0 0.0 0.0 
1.374819134092e-07 -2.666383976808e-05 0.0 
-2.666383976808e-05 3.573083111560e-03 0.0 
0.0 0.0 0.0 
3.606969997572e-06 2.299891149682e-05 0.0 
2.299891149682e-05 2.157397433192e-03 0.0 
0.0 0.0 0.0 
-4.501664152556e-09 2.882750794179e-05 0.0 
2.882750794179e-05 3.739162366161e-03 0.0 
0.0 0.0 0.0 
0.0 -3.531658148118e-06 0.0 
-3.531658148118e-06 8.216365613030e-03 0.0 
0.0 0.0 0.0 
-4.720312767881e-06 -3.703540810453e-05 0.0 
-3.703540810453e-05 8.911001160503e-04 0.0 
0.0 0.0 0.0 
-2.317591257239e-06 -2.752948096764e-05 0.0 
-2.752948096764e-05 1.111055469813e-03 0.0 
0.0 0.0 0.0 
-3.303398285359e-06 -2.292567822501e-05 0.0 
-2.292567822501e-05 7.087059083308e-03 0.0 
0.0 0.0 0.0 
3.461348902167e-06 1.551379317876e-06 0.0 
1.551379317876e-06 4.673057919431e-03 0.0 
0.0 0.0 0.0 
1.761774341968e-07 3.134146407598e-05 0.0 
3.134146407598e-05 7.464964294902e-03 0.0 
0.0 0.0 0.0 
-5.812308012665e-07 -3.099246113559e-05 0.0 
-3.099246113559e-05 6.531089412956e-03 0.0 
0.0 0.0 0.0 
6.320123939751e-07 2.995924417728e-05 0.0 
2.995924417728e-05 7.181567730756e-03 0.0 
0.0 0.0 0.0 
-1.548454765632e-06 -3.362810377201e-05 0.0 
-3.362810377201e-05 6.819707503853e-03 0.0 
0.0 0.0 0.0 
4.094990742498e-06 2.770804415899e-05 0.0 
2.770804415899e-05 5.095542997679e-03 0.0 
0.0 0.0 0.0 
7.138185502686e-07 -2.562078874448e-05 0.0 
-2.562078874448e-05 2.686805805413e-03 0.0 
0.0 0.0 0.0 
5.142441648065e-07 2.869120576749e-05 0.0 
2.869120576749e-05 2.679687420880e-03 0.0 
0.0 0.0 0.0 
5.792608876787e-06 2.836225278518e-05 0.0 
2.836225278518e-05 6.026438441213e-03 0.0 
0.0 0.0 0.0 
1.687016891516e-06 -3.538038373825e-05 0.0 
-3.538038373825e-05 6.991603251747e-03 0.0 
0.0 0.0 0.0 
3.458222428865e-06 5.870171315943e-06 0.0 
5.870171315943e-06 4.305238717567e-03 0.0 
0.0 0.0 0.0 
2.947893444905e-07 1.378418157817e-06 0.0 
1.378418157817e-06 4.651711526234e-03 0.0 
0.0 0.0 0.0 
2.806072283645e-06 -9.870058148295e-06 0.0 
-9.870058148295e-06 4.995432912323e-03 0.0 
0.0 0.0 0.0 
-4.897771837320e-06 -3.669473695813e-05 0.0 
-3.669473695813e-05 5.118768696005e-03 0.0 
0.0 0.0 0.0 
-4.561510380197e-06 2.533095632780e-05 0.0 
2.533095632780e-05 1.218277555904e-03 0.0 
0.0 0.0 0.0 
1.044608143541e-06 2.760395376194e-05 0.0 
2.760395376194e-05 2.433848750520e-03 0.0 
0.0 0.0 0.0 
-4.036595009027e-06 1.335081442621e-05 0.0 
1.335081442621e-05 7.851945694155e-03 0.0 
0.0 0.0 0.0 
2.252189122087e-06 -3.309818490950e-05 0.0 
-3.309818490950e-05 5.532643112204e-03 0.0 
0.0 0.0 0.0 
-2.882232501555e-07 2.234531850575e-05 0.0 
2.234531850575e-05 7.949812195163e-03 0.0 
0.0 0.0 0.0 
-8.033634895099e-07 -2.525246588785e-05 0.0 
-2.525246588785e-05 7.496702836225e-03 0.0 
0.0 0.0 0.0 
-1.564190790782e-06 -2.926560169562e-05 0.0 
-2.926560169562e-05 6.169175361832e-03 0.0 
0.0 0.0 0.0 
-3.219920621245e-06 -2.264386455060e-05 0.0 
-2.264386455060e-05 7.459135689251e-03 0.0 
0.0 0.0 0.0 
5.309215373561e-06 2.277955093504e-05 0.0 
2.277955093504e-05 3.673142762762e-03 0.0 
0.0 0.0 0.0 
-8.745016763179e-06 2.358867486457e-05 0.0 
2.358867486457e-05 3.342316864111e-03 0.0 
0.0 0.0 0.0 
-4.110181508588e-06 2.123604129983e-05 0.0 
2.123604129983e-05 7.492241166519e-03 0.0 
0.0 0.0 0.0 
6.673948089730e-06 1.249465026504e-05 0.0 
1.249465026504e-05 3.846075754139e-04 0.0 
0.0 0.0 0.0 
2.561289687453e-06 -9.489004459575e-06 0.0 
-9.489004459575e-06 2.326722587740e-03 0.0 
0.0 0.0 0.0 
0.0 -1.760787076894e-06 0.0 
-1.760787076894e-06 8.204729536519e-03 0.0 
0.0 0.0 0.0 
-1.826725656295e-06 -3.114666453780e-05 0.0 
-3.114666453780e-05 1.096133303362e-03 0.0 
0.0 0.0 0.0 
2.886715706252e-06 3.370842803323e-06 0.0 
3.370842803323e-06 4.653191130903e-03 0.0 
0.0 0.0 0.0 
-6.621540102780e-06 -7.154967155236e-06 0.0 
-7.154967155236e-06 7.503359197762e-03 0.0 
0.0 0.0 0.0 
-1.020796835949e-08 2.069506559147e-05 0.0 
2.069506559147e-05 6.952291813005e-04 0.0 
0.0 0.0 0.0 
3.227794037386e-06 -7.622796455554e-06 0.0 
-7.622796455554e-06 3.667704820383e-04 0.0 
0.0 0.0 0.0 
1.406871390275e-06 -1.683042441738e-05 0.0 
-1.683042441738e-05 8.200955357981e-03 0.0 
0.0 0.0 0.0 
3.550357071447e-06 1.359884410252e-05 0.0 
1.359884410252e-05 4.289746831634e-03 0.0 
0.0 0.0 0.0 
2.857431318892e-06 3.349829211010e-05 0.0 
3.349829211010e-05 7.765298552443e-03 0.0 
0.0 0.0 0.0 
-4.990944440286e-06 1.575275766849e-06 0.0 
1.575275766849e-06 7.504258594093e-03 0.0 
0.0 0.0 0.0 
2.528690759895e-06 -8.499661782929e-06 0.0 
-8.499661782929e-06 4.283181336517e-03 0.0 
0.0 0.0 0.0 
-1.019953719816e-06 -4.148748167878e-06 0.0 
-4.148748167878e-06 3.625534899647e-04 0.0 
0.0 0.0 0.0 
-4.314935410088e-07 -1.476952394352e-05 0.0 
-1.476952394352e-05 7.839354301252e-03 0.0 
0.0 0.0 0.0 
3.242456603214e-07 -3.457437048972e-05 0.0 
-3.457437048972e-05 1.224253929029e-03 0.0 
0.0 0.0 0.0 
-3.413362132831e-06 1.895407091855e-05 0.0 
1.895407091855e-05 7.534744260574e-03 0.0 
0.0 0.0 0.0 
0.0 -1.796079859681e-07 0.0 
-1.796079859681e-07 8.212132873400e-03 0.0 
0.0 0.0 0.0 
-5.169493764057e-06 -2.251796249056e-05 0.0 
-2.251796249056e-05 7.498581436997e-03 0.0 
0.0 0.0 0.0 
-1.169546901769e-06 3.030258958075e-05 0.0 
3.030258958075e-05 1.611883037309e-03 0.0 
0.0 0.0 0.0 
2.163644727604e-06 3.227819608714e-06 0.0 
3.227819608714e-06 5.029510133085e-03 0.0 
0.0 0.0 0.0 
-1.005155759737e-05 -2.014795211535e-05 0.0 
-2.014795211535e-05 3.734786718549e-03 0.0 
0.0 0.0 0.0 
1.532790429026e-06 -3.077339632115e-05 0.0 
-3.077339632115e-05 6.568784938584e-03 0.0 
0.0 0.0 0.0 
1.314007755493e-06 -1.413181099269e-05 0.0 
-1.413181099269e-05 8.215806748860e-03 0.0 
0.0 0.0 0.0 
-2.068232131114e-06 1.922007881025e-05 0.0 
1.922007881025e-05 6.483322026417e-03 0.0 
0.0 0.0 0.0 
-3.471705198210e-06 1.674240183932e-05 0.0 
1.674240183932e-05 8.208082647234e-03 0.0 
0.0 0.0 0.0 
6.401524681898e-06 3.247200067832e-05 0.0 
3.247200067832e-05 7.357316003704e-04 0.0 
0.0 0.0 0.0 
1.932007503536e-06 -1.915932896617e-05 0.0 
-1.915932896617e-05 7.885761241199e-03 0.0 
0.0 0.0 0.0 
-3.068979288035e-06 1.962262728596e-05 0.0 
1.962262728596e-05 1.831756873884e-03 0.0 
0.0 0.0 0.0 
1.399289448756e-06 1.247174262246e-05 0.0 
1.247174262246e-05 1.098715060071e-03 0.0 
0.0 0.0 0.0 
-3.208663005627e-06 -1.554921346191e-05 0.0 
-1.554921346191e-05 7.858023073696e-03 0.0 
0.0 0.0 0.0 
3.888258368612e-07 -8.740965287535e-06 0.0 
-8.740965287535e-06 7.862188974843e-03 0.0 
0.0 0.0 0.0 
-1.166964256338e-07 -2.536998401568e-05 0.0 
-2.536998401568e-05 7.925168806737e-03 0.0 
0.0 0.0 0.0 
1.466370529002e-06 3.116168066212e-05 0.0 
3.116168066212e-05 4.627886962936e-03 0.0 
0.0 0.0 0.0 
-1.020163079346e-06 3.040843509677e-05 0.0 
3.040843509677e-05 5.076266391229e-03 0.0 
0.0 0.0 0.0 
-1.721275342925e-06 -3.394093812548e-05 0.0 
-3.394093812548e-05 1.688674119477e-03 0.0 
0.0 0.0 0.0 
3.195210180884e-06 -1.229678201919e-05 0.0 
-1.229678201919e-05 7.870219392911e-03 0.0 
0.0 0.0 0.0 
5.561122158104e-06 2.628045102801e-05 0.0 
2.628045102801e-05 3.092501156177e-03 0.0 
0.0 0.0 0.0 
4.752975734101e-06 -2.547632566491e-05 0.0 
-2.547632566491e-05 1.011928997109e-03 0.0 
0.0 0.0 0.0 
2.020918287160e-06 2.829419242201e-05 0.0 
2.829419242201e-05 6.777629237833e-03 0.0 
0.0 0.0 0.0 
2.855598266960e-06 -3.177663278027e-06 0.0 
-3.177663278027e-06 4.274456594794e-03 0.0 
0.0 0.0 0.0 
2.642452880952e-07 2.316914816990e-05 0.0 
2.316914816990e-05 7.577457160713e-03 0.0 
0.0 0.0 0.0 
2.520384710492e-06 -2.839047493915e-05 0.0 
-2.839047493915e-05 8.159169706526e-03 0.0 
0.0 0.0 0.0 
0.0 -1.260192355253e-06 0.0 
-1.260192355253e-06 8.215950656404e-03 0.0 
0.0 0.0 0.0 
2.605162258584e-06 2.624532619621e-06 0.0 
2.624532619621e-06 1.011735996164e-04 0.0 
0.0 0.0 0.0 
-1.410310884509e-05 2.048321193840e-07 0.0 
2.048321193840e-07 1.130424697195e-04 0.0 
0.0 0.0 0.0 
1.635884489870e-06 -2.587885438320e-05 0.0 
-2.587885438320e-05 4.328375682070e-03 0.0 
0.0 0.0 0.0 
-7.664362554727e-06 4.151643881349e-06 0.0 
4.151643881349e-06 4.277614932585e-03 0.0 
0.0 0.0 0.0 
0.0 1.783902698273e-06 0.0 
1.783902698273e-06 8.213672248643e-03 0.0 
0.0 0.0 0.0 
3.567805396454e-06 2.790897007498e-05 0.0 
2.790897007498e-05 8.157854308493e-03 0.0 
0.0 0.0 0.0 
-7.370055710165e-07 2.393928610386e-05 0.0 
2.393928610386e-05 3.476793584982e-04 0.0 
0.0 0.0 0.0 
5.363695545935e-06 -1.227092687245e-05 0.0 
-1.227092687245e-05 8.760927271712e-05 0.0 
0.0 0.0 0.0 
-3.177326027504e-06 1.916399978679e-05 0.0 
1.916399978679e-05 7.509432578416e-03 0.0 
0.0 0.0 0.0 
7.701137429983e-07 3.753792694050e-05 0.0 
3.753792694050e-05 7.434464176772e-03 0.0 
0.0 0.0 0.0 
6.916375322019e-06 -2.193622745470e-05 0.0 
-2.193622745470e-05 1.448995991636e-03 0.0 
0.0 0.0 0.0 
-1.574076521460e-06 -2.011670149155e-05 0.0 
-2.011670149155e-05 7.596488817480e-03 0.0 
0.0 0.0 0.0 
2.084890724285e-06 -7.958270515716e-06 0.0 
-7.958270515716e-06 5.321844429380e-03 0.0 
0.0 0.0 0.0 
-6.818949736864e-06 -2.970479336390e-05 0.0 
-2.970479336390e-05 4.575302578095e-03 0.0 
0.0 0.0 0.0 
-4.775039544991e-06 1.487004885398e-05 0.0 
1.487004885398e-05 5.749213807850e-03 0.0 
0.0 0.0 0.0 
5.310782278167e-06 2.364048948224e-05 0.0 
2.364048948224e-05 1.358889215765e-03 0.0 
0.0 0.0 0.0 
3.773994272649e-07 -3.099341633906e-05 0.0 
-3.099341633906e-05 6.156821992831e-03 0.0 
0.0 0.0 0.0 
4.478747288816e-06 5.462613463206e-06 0.0 
5.462613463206e-06 1.132271618040e-03 0.0 
0.0 0.0 0.0 
6.114172366178e-06 -2.890582845267e-05 0.0 
-2.890582845267e-05 4.143405470374e-03 0.0 
0.0 0.0 0.0 
3.750025113769e-06 1.719511727015e-05 0.0 
1.719511727015e-05 7.577199658962e-03 0.0 
0.0 0.0 0.0 
6.847438536184e-07 -3.249809425596e-05 0.0 
-3.249809425596e-05 7.310849393117e-03 0.0 
0.0 0.0 0.0 
9.440065860344e-06 1.681564680872e-05 0.0 
1.681564680872e-05 4.549166146270e-03 0.0 
0.0 0.0 0.0 
-1.365260781649e-06 -2.810142958474e-05 0.0 
-2.810142958474e-05 5.307117934615e-03 0.0 
0.0 0.0 0.0 
-4.900518872475e-06 1.249506806155e-05 0.0 
1.249506806155e-05 7.520726837833e-03 0.0 
0.0 0.0 0.0 
-2.348442373901e-07 -3.298746120426e-05 0.0 
-3.298746120426e-05 6.990646808814e-03 0.0 
0.0 0.0 0.0 
-1.505214797248e-06 -3.177966714594e-05 0.0 
-3.177966714594e-05 6.577915331813e-03 0.0 
0.0 0.0 0.0 
2.622999648594e-07 1.476412689520e-06 0.0 
1.476412689520e-06 4.290197462269e-03 0.0 
0.0 0.0 0.0 
-2.969404042652e-07 -3.237562881920e-05 0.0 
-3.237562881920e-05 5.935030142017e-03 0.0 
0.0 0.0 0.0 
-1.892225949596e-06 1.863672420872e-05 0.0 
1.863672420872e-05 7.521412550192e-03 0.0 
0.0 0.0 0.0 
-3.059905654301e-06 1.829077749445e-05 0.0 
1.829077749445e-05 2.322041002207e-03 0.0 
0.0 0.0 0.0 
-8.029250994079e-07 -4.874890154859e-06 0.0 
-4.874890154859e-06 3.940387049077e-04 0.0 
0.0 0.0 0.0 
-3.187015685580e-06 -2.208397819434e-05 0.0 
-2.208397819434e-05 7.260189790667e-03 0.0 
0.0 0.0 0.0 
-8.240371760504e-07 2.696729523576e-05 0.0 
2.696729523576e-05 6.852485527514e-03 0.0 
0.0 0.0 0.0 
7.936245093987e-06 -1.560705464630e-05 0.0 
-1.560705464630e-05 1.100488472497e-03 0.0 
0.0 0.0 0.0 
-1.141416418715e-06 -2.442567185052e-05 0.0 
-2.442567185052e-05 6.052094969574e-03 0.0 
0.0 0.0 0.0 
-3.609241098768e-06 -6.494711472864e-06 0.0 
-6.494711472864e-06 7.830376530114e-03 0.0 
0.0 0.0 0.0 
-1.877329085298e-06 1.844278326088e-05 0.0 
1.844278326088e-05 7.214660305200e-03 0.0 
0.0 0.0 0.0 
-4.333366378728e-06 -4.412936482042e-06 0.0 
-4.412936482042e-06 7.510325681041e-03 0.0 
0.0 0.0 0.0 
7.148833198745e-07 -3.219495791260e-05 0.0 
-3.219495791260e-05 5.764811130676e-03 0.0 
0.0 0.0 0.0 
7.042566834370e-06 1.746144862310e-05 0.0 
1.746144862310e-05 3.614961967464e-04 0.0 
0.0 0.0 0.0 
3.699735551255e-07 1.445075649781e-05 0.0 
1.445075649781e-05 1.720096554429e-03 0.0 
0.0 0.0 0.0 
-1.239328419778e-06 -3.309952058561e-05 0.0 
-3.309952058561e-05 2.136272069598e-03 0.0 
0.0 0.0 0.0 
9.737202419924e-06 4.879566541959e-06 0.0 
4.879566541959e-06 5.029099915017e-03 0.0 
0.0 0.0 0.0 
3.206596661531e-07 3.292543056146e-05 0.0 
3.292543056146e-05 5.927160651513e-03 0.0 
0.0 0.0 0.0 
-2.059893318140e-06 -2.506082000377e-05 0.0 
-2.506082000377e-05 7.584248223594e-03 0.0 
0.0 0.0 0.0 
-1.674765636173e-07 1.031166104916e-05 0.0 
1.031166104916e-05 7.826035067330e-03 0.0 
0.0 0.0 0.0 
2.190728857210e-06 -3.853114371575e-06 0.0 
-3.853114371575e-06 7.534090834298e-04 0.0 
0.0 0.0 0.0 
1.167077726238e-06 6.627699639517e-06 0.0 
6.627699639517e-06 7.219126582205e-04 0.0 
0.0 0.0 0.0 
5.342055431123e-06 3.026908766516e-05 0.0 
3.026908766516e-05 1.329782454368e-03 0.0 
0.0 0.0 0.0 
4.844638793244e-06 4.262054284356e-05 0.0 
4.262054284356e-05 6.173953274773e-03 0.0 
0.0 0.0 0.0 
-4.070382559673e-06 -2.772720905887e-05 0.0 
-2.772720905887e-05 2.874509890257e-03 0.0 
0.0 0.0 0.0 
-3.517148895460e-07 -2.305437376135e-05 0.0 
-2.305437376135e-05 7.616278756324e-03 0.0 
0.0 0.0 0.0 
4.858993856383e-06 -2.656501759955e-05 0.0 
-2.656501759955e-05 1.383327900775e-03 0.0 
0.0 0.0 0.0 
-1.231243927258e-06 1.465511314367e-05 0.0 
1.465511314367e-05 7.456374184346e-03 0.0 
0.0 0.0 0.0 
6.371121350490e-06 2.716663517029e-05 0.0 
2.716663517029e-05 4.998883295155e-03 0.0 
0.0 0.0 0.0 
5.830394809836e-06 1.892574953760e-07 0.0 
1.892574953760e-07 7.860145980427e-03 0.0 
0.0 0.0 0.0 
5.146069890216e-07 -3.573768822623e-05 0.0 
-3.573768822623e-05 6.801081420759e-03 0.0 
0.0 0.0 0.0 
7.992888819919e-06 -1.358703769218e-05 0.0 
-1.358703769218e-05 5.030380789394e-03 0.0 
0.0 0.0 0.0 
-5.337734310107e-07 -7.553632281049e-06 0.0 
-7.553632281049e-06 7.855117484815e-03 0.0 
0.0 0.0 0.0 
-3.061947815519e-06 1.182221391558e-05 0.0 
1.182221391558e-05 7.872327206689e-03 0.0 
0.0 0.0 0.0 
4.324440101566e-06 9.467161998960e-06 0.0 
9.467161998960e-06 7.860591932459e-03 0.0 
0.0 0.0 0.0 
3.836283769321e-06 2.914598549375e-05 0.0 
2.914598549375e-05 8.945071464348e-04 0.0 
0.0 0.0 0.0 
3.432775175227e-09 2.653891320763e-05 0.0 
2.653891320763e-05 7.455405952246e-03 0.0 
0.0 0.0 0.0 
-3.125695895445e-07 4.522115999902e-06 0.0 
4.522115999902e-06 7.845904514640e-03 0.0 
0.0 0.0 0.0 
-1.018946539699e-06 -1.610633811368e-05 0.0 
-1.610633811368e-05 7.468987693884e-03 0.0 
0.0 0.0 0.0 
3.711123532923e-06 3.429019141152e-05 0.0 
3.429019141152e-05 6.975489308139e-03 0.0 
0.0 0.0 0.0 
0.0 3.621878263101e-06 0.0 
3.621878263101e-06 8.204613654937e-03 0.0 
0.0 0.0 0.0 
-1.100399841913e-06 3.199490254471e-05 0.0 
3.199490254471e-05 6.569191677716e-03 0.0 
0.0 0.0 0.0 
1.044826649443e-05 -7.244042496105e-07 0.0 
-7.244042496105e-07 6.967515293410e-05 0.0 
0.0 0.0 0.0 
-9.743922167571e-06 -3.406083553738e-05 0.0 
-3.406083553738e-05 1.244395403876e-03 0.0 
0.0 0.0 0.0 
-4.796406106511e-06 -2.709611245845e-05 0.0 
-2.709611245845e-05 7.228327267764e-03 0.0 
0.0 0.0 0.0 
6.068140067539e-06 2.400537437191e-05 0.0 
2.400537437191e-05 5.348726205052e-03 0.0 
0.0 0.0 0.0 
3.623579677647e-06 -2.985709766837e-05 0.0 
-2.985709766837e-05 7.490180555975e-03 0.0 
0.0 0.0 0.0 
2.079393419896e-06 -3.370486363704e-05 0.0 
-3.370486363704e-05 7.212391766342e-03 0.0 
0.0 0.0 0.0 
3.301894363705e-06 -7.562776610510e-06 0.0 
-7.562776610510e-06 7.886009619676e-03 0.0 
0.0 0.0 0.0 
7.685521836276e-06 3.588419824283e-05 0.0 
3.588419824283e-05 6.618981755933e-03 0.0 
0.0 0.0 0.0 
-1.927840474814e-06 -2.091260065054e-06 0.0 
-2.091260065054e-06 7.869957658565e-03 0.0 
0.0 0.0 0.0 
-2.125919644325e-06 -2.520810421383e-05 0.0 
-2.520810421383e-05 7.568674519684e-03 0.0 
0.0 0.0 0.0 
-4.030966184176e-07 2.548886584066e-05 0.0 
2.548886584066e-05 7.564067750509e-03 0.0 
0.0 0.0 0.0 
-2.960562583532e-06 -1.768438737252e-05 0.0 
-1.768438737252e-05 2.987984610661e-03 0.0 
0.0 0.0 0.0 
9.815189360607e-06 -3.186321947470e-06 0.0 
-3.186321947470e-06 8.214784544580e-03 0.0 
0.0 0.0 0.0 
5.457927434227e-06 2.063452002419e-06 0.0 
2.063452002419e-06 4.639224813486e-03 0.0 
0.0 0.0 0.0 
4.329548748849e-06 -2.820512676916e-05 0.0 
-2.820512676916e-05 7.472277155211e-03 0.0 
0.0 0.0 0.0 
9.593514815665e-06 -1.291379060654e-05 0.0 
-1.291379060654e-05 7.425849862963e-04 0.0 
0.0 0.0 0.0 
7.225718903658e-06 -1.898310753679e-05 0.0 
-1.898310753679e-05 7.155338821152e-03 0.0 
0.0 0.0 0.0 
2.519280635882e-06 -4.519802665868e-06 0.0 
-4.519802665868e-06 6.088120554630e-03 0.0 
0.0 0.0 0.0 
-1.182487893958e-05 -2.413126354920e-05 0.0 
-2.413126354920e-05 7.596696972347e-04 0.0 
0.0 0.0 0.0 
-7.911762972546e-06 -3.430463786331e-05 0.0 
-3.430463786331e-05 1.445206962714e-03 0.0 
0.0 0.0 0.0 
-1.292360711558e-06 3.326713300229e-05 0.0 
3.326713300229e-05 6.754307439399e-03 0.0 
0.0 0.0 0.0 
-2.294685522375e-06 -3.040595630210e-06 0.0 
-3.040595630210e-06 7.848042498425e-03 0.0 
0.0 0.0 0.0 
-2.581899942511e-06 -2.556161961699e-05 0.0 
-2.556161961699e-05 7.532553178497e-03 0.0 
0.0 0.0 0.0 
3.216857017208e-06 3.565568391526e-05 0.0 
3.565568391526e-05 7.785494057162e-03 0.0 
0.0 0.0 0.0 
3.354173974124e-07 3.743719681008e-05 0.0 
3.743719681008e-05 5.298464031755e-03 0.0 
0.0 0.0 0.0 
-1.241191825752e-05 -4.764981997423e-06 0.0 
-4.764981997423e-06 3.889924664078e-04 0.0 
0.0 0.0 0.0 
1.139669649830e-05 2.897384290947e-05 0.0 
2.897384290947e-05 6.840753618869e-04 0.0 
0.0 0.0 0.0 
-2.034848188071e-05 3.095612292150e-05 0.0 
3.095612292150e-05 4.729479235579e-04 0.0 
0.0 0.0 0.0 
5.871853732797e-06 -2.689976723263e-05 0.0 
-2.689976723263e-05 1.029083279665e-03 0.0 
0.0 0.0 0.0 
-7.929170219190e-06 1.875800850884e-05 0.0 
1.875800850884e-05 7.841002652786e-05 0.0 
0.0 0.0 0.0 
5.626642826106e-06 1.974544162730e-05 0.0 
1.974544162730e-05 4.036565952944e-03 0.0 
0.0 0.0 0.0 
4.878823509191e-06 2.943580782106e-05 0.0 
2.943580782106e-05 7.488919883052e-03 0.0 
0.0 0.0 0.0 
6.642185468309e-09 2.672770885208e-05 0.0 
2.672770885208e-05 7.505537392214e-03 0.0 
0.0 0.0 0.0 
4.748905350516e-06 -2.782556513433e-05 0.0 
-2.782556513433e-05 5.326418123726e-03 0.0 
0.0 0.0 0.0 
-1.688798400235e-06 -4.184763386125e-05 0.0 
-4.184763386125e-05 3.519656996794e-03 0.0 
0.0 0.0 0.0 
-4.126678757599e-07 -2.469011372321e-05 0.0 
-2.469011372321e-05 7.507841121496e-03 0.0 
0.0 0.0 0.0 
1.533421839950e-06 3.458873189238e-05 0.0 
3.458873189238e-05 7.433447465757e-03 0.0 
0.0 0.0 0.0 
-2.000722733042e-06 1.336023609667e-05 0.0 
1.336023609667e-05 7.872954902977e-03 0.0 
0.0 0.0 0.0 
-1.594377022740e-06 -5.594462506607e-06 0.0 
-5.594462506607e-06 7.543635837705e-03 0.0 
0.0 0.0 0.0 
-8.699979755500e-07 3.035822183364e-05 0.0 
3.035822183364e-05 7.159771090443e-03 0.0 
0.0 0.0 0.0 
2.330231898107e-06 1.245716210626e-05 0.0 
1.245716210626e-05 7.301427635451e-04 0.0 
0.0 0.0 0.0 
5.525524508609e-06 -1.748491953120e-05 0.0 
-1.748491953120e-05 6.432364078179e-04 0.0 
0.0 0.0 0.0 
-2.866116046829e-06 -2.421531957935e-05 0.0 
-2.421531957935e-05 7.523434388919e-03 0.0 
0.0 0.0 0.0 
-2.376006263516e-06 6.392527302434e-08 0.0 
6.392527302434e-08 7.449264771429e-04 0.0 
0.0 0.0 0.0 
-8.297460133977e-06 3.849481942785e-05 0.0 
3.849481942785e-05 9.211441572066e-04 0.0 
0.0 0.0 0.0 
-8.394748524654e-06 3.053641275646e-05 0.0 
3.053641275646e-05 6.060209261145e-04 0.0 
0.0 0.0 0.0 
-1.016749142457e-05 -3.070449053533e-05 0.0 
-3.070449053533e-05 6.936482644826e-04 0.0 
0.0 0.0 0.0 
-3.620938511584e-06 -1.707042088536e-06 0.0 
-1.707042088536e-06 7.864245187287e-03 0.0 
0.0 0.0 0.0 
-1.867467550265e-06 -1.151433288589e-05 0.0 
-1.151433288589e-05 7.876010115325e-03 0.0 
0.0 0.0 0.0 
-6.350663904309e-06 2.870840894478e-05 0.0 
2.870840894478e-05 7.587350306758e-03 0.0 
0.0 0.0 0.0 
-4.147778241315e-06 1.238589836444e-08 0.0 
1.238589836444e-08 7.893429463315e-03 0.0 
0.0 0.0 0.0 
-4.434450068702e-06 -2.337289960701e-05 0.0 
-2.337289960701e-05 7.213563264143e-03 0.0 
0.0 0.0 0.0 
4.995024821319e-06 4.028733556848e-05 0.0 
4.028733556848e-05 5.539420591316e-03 0.0 
0.0 0.0 0.0 
0.0 -1.940444161252e-06 0.0 
-1.940444161252e-06 8.224090519454e-03 0.0 
0.0 0.0 0.0 
4.722087183495e-06 -1.664738147379e-05 0.0 
-1.664738147379e-05 1.830514465625e-03 0.0 
0.0 0.0 0.0 
7.731511656006e-06 3.189868940777e-07 0.0 
3.189868940777e-07 4.267450361918e-03 0.0 
0.0 0.0 0.0 
4.169968549128e-06 9.906662234198e-06 0.0 
9.906662234198e-06 1.063597414586e-03 0.0 
0.0 0.0 0.0 
1.054849688709e-05 8.540663172881e-06 0.0 
8.540663172881e-06 3.807158675468e-04 0.0 
0.0 0.0 0.0 
8.365152859291e-06 5.979876580317e-06 0.0 
5.979876580317e-06 8.205531467806e-03 0.0 
0.0 0.0 0.0 
2.926523045010e-06 -9.208440712909e-06 0.0 
-9.208440712909e-06 4.692109251446e-03 0.0 
0.0 0.0 0.0 
8.729321335776e-06 2.946338229716e-06 0.0 
2.946338229716e-06 1.082644580416e-03 0.0 
0.0 0.0 0.0 
-6.096316047421e-06 3.560051422054e-05 0.0 
3.560051422054e-05 3.881030912845e-03 0.0 
0.0 0.0 0.0 
1.936068090291e-06 2.783967263179e-06 0.0 
2.783967263179e-06 7.893442380737e-03 0.0 
0.0 0.0 0.0 
-2.966430100559e-06 -2.519886629099e-05 0.0 
-2.519886629099e-05 7.548470739613e-03 0.0 
0.0 0.0 0.0 
-2.942129444072e-06 -1.098127531061e-06 0.0 
-1.098127531061e-06 7.874364569055e-03 0.0 
0.0 0.0 0.0 
7.187310564483e-07 -2.179063727746e-05 0.0 
-2.179063727746e-05 2.714796408298e-03 0.0 
0.0 0.0 0.0 
-6.124242704075e-06 -2.522858029626e-05 0.0 
-2.522858029626e-05 6.687147631752e-04 0.0 
0.0 0.0 0.0 
-3.917891317706e-06 -1.789553191364e-05 0.0 
-1.789553191364e-05 7.873522680102e-03 0.0 
0.0 0.0 0.0 
8.117459350476e-06 3.502951555569e-06 0.0 
3.502951555569e-06 8.211376259719e-03 0.0 
0.0 0.0 0.0 
-2.531970543562e-06 -2.723982621901e-06 0.0 
-2.723982621901e-06 8.210711467285e-03 0.0 
0.0 0.0 0.0 
5.428308558209e-07 2.001778754919e-05 0.0 
2.001778754919e-05 4.587318260777e-03 0.0 
0.0 0.0 0.0 
-1.167520516709e-06 -8.286870716180e-07 0.0 
-8.286870716180e-07 7.509520716382e-03 0.0 
0.0 0.0 0.0 
1.253037741811e-05 -1.485590008933e-05 0.0 
-1.485590008933e-05 1.109860818190e-03 0.0 
0.0 0.0 0.0 
-4.906796580384e-06 2.525677503923e-05 0.0 
2.525677503923e-05 7.620187271659e-03 0.0 
0.0 0.0 0.0 
3.867209309449e-06 -2.528152979602e-06 0.0 
-2.528152979602e-06 3.593502029782e-04 0.0 
0.0 0.0 0.0 
-4.746799075028e-06 -1.765966576052e-06 0.0 
-1.765966576052e-06 7.880039145427e-03 0.0 
0.0 0.0 0.0 
-3.862903556695e-06 1.696855296625e-05 0.0 
1.696855296625e-05 7.845705762573e-03 0.0 
0.0 0.0 0.0 
1.073960930631e-05 -1.096569631146e-05 0.0 
-1.096569631146e-05 3.664100035590e-04 0.0 
0.0 0.0 0.0 
-5.251625300184e-06 -2.136116089668e-05 0.0 
-2.136116089668e-05 7.229218952591e-03 0.0 
0.0 0.0 0.0 
7.907024285325e-06 -2.840599823487e-05 0.0 
-2.840599823487e-05 6.402948519121e-03 0.0 
0.0 0.0 0.0 
6.998255486224e-08 -4.734285402067e-06 0.0 
-4.734285402067e-06 7.876834823818e-03 0.0 
0.0 0.0 0.0 
0.0 -1.674684748635e-06 0.0 
-1.674684748635e-06 8.236220076633e-03 0.0 
0.0 0.0 0.0 
1.995393648091e-07 -4.573274978099e-05 0.0 
-4.573274978099e-05 5.830465445615e-03 0.0 
0.0 0.0 0.0 
-1.547013049885e-07 2.089114793396e-06 0.0 
2.089114793396e-06 7.895472452589e-03 0.0 
0.0 0.0 0.0 
-2.973317812405e-06 -2.343127163921e-05 0.0 
-2.343127163921e-05 7.593786927675e-03 0.0 
0.0 0.0 0.0 
7.398085415389e-07 1.303805965271e-06 0.0 
1.303805965271e-06 6.082644507371e-03 0.0 
0.0 0.0 0.0 
2.393975946591e-06 -2.149847473565e-06 0.0 
-2.149847473565e-06 7.617324994865e-03 0.0 
0.0 0.0 0.0 
6.892877508546e-06 -1.967708951333e-05 0.0 
-1.967708951333e-05 3.285908975799e-03 0.0 
0.0 0.0 0.0 
-3.979732123849e-06 -3.716988703043e-06 0.0 
-3.716988703043e-06 4.275783395650e-03 0.0 
0.0 0.0 0.0 
-3.361764237653e-06 2.202708825461e-05 0.0 
2.202708825461e-05 7.604570007591e-03 0.0 
0.0 0.0 0.0 
2.646013656848e-06 1.767873458524e-05 0.0 
1.767873458524e-05 7.906505157133e-03 0.0 
0.0 0.0 0.0 
1.304498499444e-06 1.370542094675e-05 0.0 
1.370542094675e-05 9.323608226985e-05 0.0 
0.0 0.0 0.0 
-3.120113404642e-06 8.296917704250e-06 0.0 
8.296917704250e-06 4.280040669690e-03 0.0 
0.0 0.0 0.0 
1.650042924961e-06 -1.851318286775e-05 0.0 
-1.851318286775e-05 7.918513321583e-03 0.0 
0.0 0.0 0.0 
2.878712601850e-06 2.035536567433e-05 0.0 
2.035536567433e-05 1.430799739764e-03 0.0 
0.0 0.0 0.0 
-9.417059320116e-06 4.824750198542e-06 0.0 
4.824750198542e-06 7.502168607592e-03 0.0 
0.0 0.0 0.0 
3.950994939439e-06 -2.104691194981e-05 0.0 
-2.104691194981e-05 7.539759040301e-03 0.0 
0.0 0.0 0.0 
-2.328970985621e-06 -2.368589507254e-05 0.0 
-2.368589507254e-05 7.848412018405e-03 0.0 
0.0 0.0 0.0 
6.493587873191e-06 2.019801456235e-05 0.0 
2.019801456235e-05 1.368908935101e-03 0.0 
0.0 0.0 0.0 
-4.662720148763e-06 9.160834167206e-06 0.0 
9.160834167206e-06 9.614610481581e-04 0.0 
0.0 0.0 0.0 
-1.071812533204e-05 5.157384983544e-05 0.0 
5.157384983544e-05 4.763575904846e-03 0.0 
0.0 0.0 0.0 
-5.649930409080e-06 1.223580300331e-05 0.0 
1.223580300331e-05 6.862727031021e-03 0.0 
0.0 0.0 0.0 
3.188273225074e-05 -2.984083146994e-06 0.0 
-2.984083146994e-06 8.676010624487e-05 0.0 
0.0 0.0 0.0 
-1.660965464056e-06 -4.586429841235e-06 0.0 
-4.586429841235e-06 7.896573849435e-03 0.0 
0.0 0.0 0.0 
2.891628199109e-07 5.819598460178e-06 0.0 
5.819598460178e-06 5.703207528118e-03 0.0 
0.0 0.0 0.0 
9.628704536135e-06 -2.507687373007e-05 0.0 
-2.507687373007e-05 1.353169246420e-03 0.0 
0.0 0.0 0.0 
-4.508771996647e-06 9.959260886064e-06 0.0 
9.959260886064e-06 5.407095681579e-03 0.0 
0.0 0.0 0.0 
-2.901633074259e-06 -1.850964954174e-05 0.0 
-1.850964954174e-05 7.863576929217e-03 0.0 
0.0 0.0 0.0 
-2.852256041463e-06 -4.431942943293e-05 0.0 
-4.431942943293e-05 4.992664736240e-03 0.0 
0.0 0.0 0.0 
-1.878119681764e-05 -2.654740536303e-05 0.0 
-2.654740536303e-05 2.560968547887e-04 0.0 
0.0 0.0 0.0 
-6.799635798527e-06 2.142274094477e-05 0.0 
2.142274094477e-05 2.976432490388e-03 0.0 
0.0 0.0 0.0 
1.565895163980e-06 1.620198331162e-05 0.0 
1.620198331162e-05 4.360010289753e-03 0.0 
0.0 0.0 0.0 
6.574996808784e-06 5.346342368105e-05 0.0 
5.346342368105e-05 5.187782560161e-03 0.0 
0.0 0.0 0.0 
-2.359267195939e-06 -2.199568383319e-05 0.0 
-2.199568383319e-05 7.578742826539e-03 0.0 
0.0 0.0 0.0 
-6.262547675551e-06 -2.634315009295e-05 0.0 
-2.634315009295e-05 4.247795678244e-03 0.0 
0.0 0.0 0.0 
5.268564985395e-06 1.324280389554e-05 0.0 
1.324280389554e-05 4.515329593842e-03 0.0 
0.0 0.0 0.0 
-1.378023038534e-05 2.622982134794e-05 0.0 
2.622982134794e-05 6.561629671626e-04 0.0 
0.0 0.0 0.0 
-6.701313131519e-06 2.126319461791e-05 0.0 
2.126319461791e-05 7.605652858858e-03 0.0 
0.0 0.0 0.0 
-6.932686152039e-06 2.476916057163e-05 0.0 
2.476916057163e-05 7.265150595449e-03 0.0 
0.0 0.0 0.0 
4.845891590222e-07 1.348121484930e-05 0.0 
1.348121484930e-05 1.205255774146e-03 0.0 
0.0 0.0 0.0 
8.917082680027e-06 -1.271070977926e-05 0.0 
-1.271070977926e-05 7.892717312561e-03 0.0 
0.0 0.0 0.0 
-1.087357382801e-06 2.296399254143e-05 0.0 
2.296399254143e-05 7.906249484504e-03 0.0 
0.0 0.0 0.0 
-1.075934881412e-06 -2.339824991010e-05 0.0 
-2.339824991010e-05 4.610029228381e-03 0.0 
0.0 0.0 0.0 
-1.030827523452e-06 4.679837799317e-06 0.0 
4.679837799317e-06 5.702510544187e-03 0.0 
0.0 0.0 0.0 
1.705966323096e-06 2.495445629943e-05 0.0 
2.495445629943e-05 4.242048890952e-03 0.0 
0.0 0.0 0.0 
7.909430249864e-06 -1.683479325976e-05 0.0 
-1.683479325976e-05 4.375738452004e-03 0.0 
0.0 0.0 0.0 
-8.742460552935e-06 -5.319045542709e-06 0.0 
-5.319045542709e-06 4.529696435764e-03 0.0 
0.0 0.0 0.0 
-4.359001900212e-06 2.325111790138e-05 0.0 
2.325111790138e-05 7.228224639559e-03 0.0 
0.0 0.0 0.0 
6.250739982283e-06 1.972593117139e-05 0.0 
1.972593117139e-05 1.076966010367e-03 0.0 
0.0 0.0 0.0 
-3.765061414862e-06 -2.115737231357e-05 0.0 
-2.115737231357e-05 7.519023372244e-03 0.0 
0.0 0.0 0.0 
-1.846231056923e-07 1.105449100444e-05 0.0 
1.105449100444e-05 4.976204044137e-03 0.0 
0.0 0.0 0.0 
-1.560411001078e-06 -2.234025826068e-05 0.0 
-2.234025826068e-05 7.866456079038e-03 0.0 
0.0 0.0 0.0 
-6.359010906287e-06 -2.026052271976e-05 0.0 
-2.026052271976e-05 7.222816640868e-03 0.0 
0.0 0.0 0.0 
3.368103194124e-06 -9.149615016945e-06 0.0 
-9.149615016945e-06 5.415755196335e-03 0.0 
0.0 0.0 0.0 
-3.137869148850e-06 1.824246409742e-05 0.0 
1.824246409742e-05 7.345536188760e-03 0.0 
0.0 0.0 0.0 
-4.071572344611e-06 1.920116131019e-05 0.0 
1.920116131019e-05 7.564175098066e-03 0.0 
0.0 0.0 0.0 
-6.770946920809e-06 -3.499373209776e-06 0.0 
-3.499373209776e-06 7.869685548668e-03 0.0 
0.0 0.0 0.0 
-1.441089842047e-05 1.668143284604e-05 0.0 
1.668143284604e-05 3.554728846846e-04 0.0 
0.0 0.0 0.0 
-4.487116947116e-06 -2.077532535708e-05 0.0 
-2.077532535708e-05 7.349868606143e-03 0.0 
0.0 0.0 0.0 
-1.974450550279e-06 2.816436582376e-05 0.0 
2.816436582376e-05 7.564194831987e-03 0.0 
0.0 0.0 0.0 
2.708826282172e-06 -1.503376984294e-05 0.0 
-1.503376984294e-05 6.774789617634e-04 0.0 
0.0 0.0 0.0 
1.708254210087e-06 -1.787718155952e-05 0.0 
-1.787718155952e-05 4.028596097859e-03 0.0 
0.0 0.0 0.0 
1.117496423664e-05 1.414475135239e-05 0.0 
1.414475135239e-05 3.544353781924e-04 0.0 
0.0 0.0 0.0 
-2.665645436273e-06 -1.578557227028e-05 0.0 
-1.578557227028e-05 7.600336346377e-03 0.0 
0.0 0.0 0.0 
-4.392319766344e-06 -8.972485672882e-06 0.0 
-8.972485672882e-06 1.265827497507e-04 0.0 
0.0 0.0 0.0 
-3.101341346734e-05 -8.062170944496e-06 0.0 
-8.062170944496e-06 1.496417109188e-04 0.0 
0.0 0.0 0.0 
3.553672109913e-06 -5.144590664334e-06 0.0 
-5.144590664334e-06 1.498018209911e-04 0.0 
0.0 0.0 0.0 
-5.495771223774e-06 -1.278795424792e-06 0.0 
-1.278795424792e-06 1.506076451454e-04 0.0 
0.0 0.0 0.0 
2.166868220188e-06 -1.214576932908e-06 0.0 
-1.214576932908e-06 1.505937879158e-04 0.0 
0.0 0.0 0.0 
-4.608899418779e-07 -3.238493097886e-07 0.0 
-3.238493097886e-07 1.512129986676e-04 0.0 
0.0 0.0 0.0 
9.966296645736e-07 3.820731434811e-07 0.0 
3.820731434811e-07 1.513034349652e-04 0.0 
0.0 0.0 0.0 
1.001573608495e-06 1.731017041414e-07 0.0 
1.731017041414e-07 1.516812200038e-04 0.0 
0.0 0.0 0.0 
4.896449110614e-07 7.706200805178e-07 0.0 
7.706200805178e-07 1.517880448778e-04 0.0 
0.0 0.0 0.0 
1.203343046763e-06 3.250480040556e-07 0.0 
3.250480040556e-07 1.520133275790e-04 0.0 
0.0 0.0 0.0 
2.479789962262e-07 7.381167863041e-07 0.0 
7.381167863041e-07 1.521090139578e-04 0.0 
0.0 0.0 0.0 
1.015136396276e-06 3.219530488075e-07 0.0 
3.219530488075e-07 1.522477322320e-04 0.0 
0.0 0.0 0.0 
9.738761486133e-08 5.943109076781e-07 0.0 
5.943109076781e-07 1.523268417063e-04 0.0 
0.0 0.0 0.0 
7.625313263038e-07 2.562548957801e-07 0.0 
2.562548957801e-07 1.524153867689e-04 0.0 
0.0 0.0 0.0 
-2.305030155636e-08 4.431648101939e-07 0.0 
4.431648101939e-07 1.524818937917e-04 0.0 
0.0 0.0 0.0 
5.517080963191e-07 1.671251270290e-07 0.0 
1.671251270290e-07 1.525380812608e-04 0.0 
0.0 0.0 0.0 
-1.312015542876e-07 3.107321259095e-07 0.0 
3.107321259095e-07 1.525990923752e-04 0.0 
0.0 0.0 0.0 
4.042765504586e-07 7.077257652192e-08 0.0 
7.077257652192e-08 1.526295184209e-04 0.0 
0.0 0.0 0.0 
-2.283688758098e-07 1.974438213159e-07 0.0 
1.974438213159e-07 1.526920045050e-04 0.0 
0.0 0.0 0.0 
3.111816899715e-07 -2.424284216895e-08 0.0 
-2.424284216895e-08 1.526969891925e-04 0.0 
0.0 0.0 0.0 
-3.076700612059e-07 9.816251764766e-08 0.0 
9.816251764766e-08 1.527656783427e-04 0.0 
0.0 0.0 0.0 
2.542015886675e-07 -1.106157942575e-07 0.0 
-1.106157942575e-07 1.527434193240e-04 0.0 
0.0 0.0 0.0 
-3.568075561677e-07 8.940209903552e-09 0.0 
8.940209903552e-09 1.528190457434e-04 0.0 
0.0 0.0 0.0 
-1.085641927645e-05 1.089562087824e-06 0.0 
1.089562087824e-06 1.230034403050e-04 0.0 
0.0 0.0 0.0 
2.181805303092e-07 -1.824649932321e-07 0.0 
-1.824649932321e-07 1.527699328676e-04 0.0 
0.0 0.0 0.0 
-3.640530248372e-07 -7.251712976165e-08 0.0 
-7.251712976165e-08 1.528484699809e-04 0.0 
0.0 0.0 0.0 
1.953965462764e-07 -2.366623583075e-07 0.0 
-2.366623583075e-07 1.527755516921e-04 0.0 
0.0 0.0 0.0 
2.270835072649e-06 1.344251364354e-05 0.0 
1.344251364354e-05 4.762986778806e-05 0.0 
0.0 0.0 0.0 
-3.230381577790e-07 -1.443544658006e-07 0.0 
-1.443544658006e-07 1.528503201877e-04 0.0 
0.0 0.0 0.0 
1.858461826654e-07 -2.728199969793e-07 0.0 
-2.728199969793e-07 1.527610987027e-04 0.0 
0.0 0.0 0.0 
8.417528316595e-07 -6.404527302963e-06 0.0 
-6.404527302963e-06 1.275729866688e-04 0.0 
0.0 0.0 0.0 
-2.346287110155e-07 -2.064992841660e-07 0.0 
-2.064992841660e-07 1.528235258406e-04 0.0 
0.0 0.0 0.0 
1.872502646272e-07 -2.904015749640e-07 0.0 
-2.904015749640e-07 1.527238164016e-04 0.0 
0.0 0.0 0.0 
-9.652649290981e-08 -2.516991243670e-07 0.0 
-2.516991243670e-07 1.527667648553e-04 0.0 
0.0 0.0 0.0 
2.166498820344e-07 -2.951032923547e-07 0.0 
-2.951032923547e-07 1.526716342777e-04 0.0 
0.0 0.0 0.0 
7.717854666467e-08 -2.910237270603e-07 0.0 
-2.910237270603e-07 1.526860076781e-04 0.0 
0.0 0.0 0.0 
2.676694790260e-07 -2.877783100271e-07 0.0 
-2.877783100271e-07 1.525909291327e-04 0.0 
0.0 0.0 0.0 
3.021475458720e-07 -3.024970977784e-07 0.0 
-3.024970977784e-07 1.525784726160e-04 0.0 
0.0 0.0 0.0 
4.168353440193e-07 -2.887056677867e-07 0.0 
-2.887056677867e-07 1.525080705438e-04 0.0 
0.0 0.0 0.0 
5.149370043700e-07 -3.346556117573e-07 0.0 
-3.346556117573e-07 1.524674378519e-04 0.0 
0.0 0.0 0.0 
4.985080400477e-06 3.426830434669e-06 0.0 
3.426830434669e-06 1.228561944013e-04 0.0 
0.0 0.0 0.0 
5.649888257242e-07 -2.747220189501e-07 0.0 
-2.747220189501e-07 1.523674193895e-04 0.0 
0.0 0.0 0.0 
8.711657499827e-07 -2.948671044162e-07 0.0 
-2.948671044162e-07 1.523171199342e-04 0.0 
0.0 0.0 0.0 
1.058033579859e-06 -3.221837643673e-07 0.0 
-3.221837643673e-07 1.522759252390e-04 0.0 
0.0 0.0 0.0 
9.453738034626e-07 -3.837358039988e-07 0.0 
-3.837358039988e-07 1.522461220858e-04 0.0 
0.0 0.0 0.0 
1.301337906989e-06 -2.964628636513e-07 0.0 
-2.964628636513e-07 1.520006460820e-04 0.0 
0.0 0.0 0.0 
2.501457049497e-06 -3.922198832590e-07 0.0 
-3.922198832590e-07 1.519364567868e-04 0.0 
0.0 0.0 0.0 
1.520195504812e-06 -1.901007673188e-07 0.0 
-1.901007673188e-07 1.520498461391e-04 0.0 
0.0 0.0 0.0 
1.433873213941e-06 7.897885941672e-08 0.0 
7.897885941672e-08 1.513607052928e-04 0.0 
0.0 0.0 0.0 
6.442189708356e-07 -4.146123249105e-07 0.0 
-4.146123249105e-07 1.522107540251e-04 0.0 
0.0 0.0 0.0 
2.574678731104e-06 4.842307233674e-07 0.0 
4.842307233674e-07 1.518474115179e-04 0.0 
0.0 0.0 0.0 
3.042316712554e-06 6.243190848180e-07 0.0 
6.243190848180e-07 1.515366160336e-04 0.0 
0.0 0.0 0.0 
-5.322020307341e-06 2.056710892041e-06 0.0 
2.056710892041e-06 1.520501753471e-04 0.0 
0.0 0.0 0.0 
2.874730535840e-07 3.852469299191e-07 0.0 
3.852469299191e-07 1.521870222634e-04 0.0 
0.0 0.0 0.0 
1.376882411863e-06 7.228378317003e-06 0.0 
7.228378317003e-06 1.467484700206e-04 0.0 
0.0 0.0 0.0 
-3.547392091707e-05 1.514869802096e-05 0.0 
1.514869802096e-05 1.568465788426e-04 0.0 
0.0 0.0 0.0 
9.934976471948e-06 2.488014699214e-06 0.0 
2.488014699214e-06 1.493709489675e-04 0.0 
0.0 0.0 0.0 
-9.267993883011e-06 1.179391090886e-05 0.0 
1.179391090886e-05 1.533059500733e-04 0.0 
0.0 0.0 0.0 
8.111029868862e-06 -7.000000804029e-07 0.0 
-7.000000804029e-07 2.341129880867e-05 0.0 
0.0 0.0 0.0 
1.898759724783e-05 -3.651783211107e-05 0.0 
-3.651783211107e-05 8.070183314834e-05 0.0 
0.0 0.0 0.0 
-7.000765149368e-06 3.554599566612e-05 0.0 
3.554599566612e-05 1.281186451978e-04 0.0 
0.0 0.0 0.0 
2.242701782951e-05 -4.936521419898e-06 0.0 
-4.936521419898e-06 1.530638018754e-05 0.0 
0.0 0.0 0.0 
-1.095646262572e-05 5.191181467933e-06 0.0 
5.191181467933e-06 1.916020258692e-04 0.0 
0.0 0.0 0.0 
1.549176071269e-05 1.285680240324e-05 0.0 
1.285680240324e-05 8.009313614554e-06 0.0 
0.0 0.0 0.0 
-4.392319766344e-06 4.407448714236e-06 0.0 
4.407448714236e-06 4.633511351881e-04 0.0 
0.0 0.0 0.0 
5.113031885662e-06 1.766578759558e-05 0.0 
1.766578759558e-05 4.800923321537e-04 0.0 
0.0 0.0 0.0 
3.553672109913e-06 -5.965270216989e-07 0.0 
-5.965270216989e-07 4.813536563006e-04 0.0 
0.0 0.0 0.0 
2.477401478629e-06 1.907445598662e-06 0.0 
1.907445598662e-06 4.870703816209e-04 0.0 
0.0 0.0 0.0 
2.166868220188e-06 -1.657639036965e-06 0.0 
-1.657639036965e-06 4.874400142763e-04 0.0 
0.0 0.0 0.0 
1.516915158151e-06 -7.058716599933e-07 0.0 
-7.058716599933e-07 4.897756664695e-04 0.0 
0.0 0.0 0.0 
9.966296645736e-07 -1.619138465321e-06 0.0 
-1.619138465321e-06 4.899041089086e-04 0.0 
0.0 0.0 0.0 
8.603296535181e-07 -1.061414930390e-06 0.0 
-1.061414930390e-06 4.910372096887e-04 0.0 
0.0 0.0 0.0 
4.896449110614e-07 -1.252563979650e-06 0.0 
-1.252563979650e-06 4.910729212129e-04 0.0 
0.0 0.0 0.0 
4.252250933590e-07 -9.569352521068e-07 0.0 
-9.569352521068e-07 4.916547950748e-04 0.0 
0.0 0.0 0.0 
2.479789962262e-07 -9.354281927916e-07 0.0 
-9.354281927916e-07 4.916522421456e-04 0.0 
0.0 0.0 0.0 
1.437343031263e-07 -8.046504673954e-07 0.0 
-8.046504673954e-07 4.919628311679e-04 0.0 
0.0 0.0 0.0 
9.738761486133e-08 -7.296028961862e-07 0.0 
-7.296028961862e-07 4.919453913224e-04 0.0 
0.0 0.0 0.0 
-4.208254211768e-08 -6.880401968055e-07 0.0 
-6.880401968055e-07 4.921207001956e-04 0.0 
0.0 0.0 0.0 
-2.305030155636e-08 -6.013000899877e-07 0.0 
-6.013000899877e-07 4.920964098023e-04 0.0 
0.0 0.0 0.0 
-1.701718831404e-07 -5.995408633234e-07 0.0 
-5.995408633234e-07 4.922043879121e-04 0.0 
0.0 0.0 0.0 
-1.312015542876e-07 -5.031322751474e-07 0.0 
-5.031322751474e-07 4.921735296592e-04 0.0 
0.0 0.0 0.0 
-2.617340150168e-07 -5.114024495405e-07 0.0 
-5.114024495405e-07 4.922492426374e-04 0.0 
0.0 0.0 0.0 
-2.283688758098e-07 -3.971947712737e-07 0.0 
-3.971947712737e-07 4.922088688502e-04 0.0 
0.0 0.0 0.0 
-3.270439623559e-07 -3.985782790525e-07 0.0 
-3.985782790525e-07 4.922714224713e-04 0.0 
0.0 0.0 0.0 
-3.076700612059e-07 -2.609984552824e-07 0.0 
-2.609984552824e-07 4.922185401595e-04 0.0 
0.0 0.0 0.0 
-3.701718802596e-07 -2.473305754307e-07 0.0 
-2.473305754307e-07 4.922795347064e-04 0.0 
0.0 0.0 0.0 
-3.188989957548e-05 -2.721077726618e-05 0.0 
-2.721077726618e-05 5.273192042161e-04 0.0 
0.0 0.0 0.0 
-3.568075561677e-07 -9.036946931360e-08 0.0 
-9.036946931360e-08 4.922140132075e-04 0.0 
0.0 0.0 0.0 
-3.879949018737e-07 -6.160928866741e-08 0.0 
-6.160928866741e-08 4.922774146694e-04 0.0 
0.0 0.0 0.0 
-3.640530248372e-07 1.016975458308e-07 0.0 
1.016975458308e-07 4.922030053698e-04 0.0 
0.0 0.0 0.0 
1.191486581509e-05 -1.112857685298e-06 0.0 
-1.112857685298e-06 4.935283724394e-04 0.0 
0.0 0.0 0.0 
-3.791691278732e-07 1.379377230034e-07 0.0 
1.379377230034e-07 4.922666898644e-04 0.0 
0.0 0.0 0.0 
-3.230381577790e-07 2.921268035806e-07 0.0 
2.921268035806e-07 4.921889833434e-04 0.0 
0.0 0.0 0.0 
-3.365485883311e-07 3.248297584910e-07 0.0 
3.248297584910e-07 4.922448998490e-04 0.0 
0.0 0.0 0.0 
-2.346287110155e-07 4.548044281274e-07 0.0 
4.548044281274e-07 4.921708546952e-04 0.0 
0.0 0.0 0.0 
-2.779410196441e-07 4.732530918649e-07 0.0 
4.732530918649e-07 4.922202853734e-04 0.0 
0.0 0.0 0.0 
-9.267993883011e-06 2.792027844744e-06 0.0 
2.792027844744e-06 3.765591094433e-04 0.0 
0.0 0.0 0.0 
-9.652649290981e-08 5.607907578853e-07 0.0 
5.607907578853e-07 4.921581831063e-04 0.0 
0.0 0.0 0.0 
-1.736958461507e-07 5.500797031451e-07 0.0 
5.500797031451e-07 4.921816016279e-04 0.0 
0.0 0.0 0.0 
7.717854666467e-08 5.885561199753e-07 0.0 
5.885561199753e-07 4.921374939604e-04 0.0 
0.0 0.0 0.0 
-1.042720402245e-07 5.440307809224e-07 0.0 
5.440307809224e-07 4.921623820000e-04 0.0 
0.0 0.0 0.0 
3.021475458720e-07 5.117849567525e-07 0.0 
5.117849567525e-07 4.921432527893e-04 0.0 
0.0 0.0 0.0 
7.569083071424e-08 3.997005757064e-07 0.0 
3.997005757064e-07 4.920949088307e-04 0.0 
0.0 0.0 0.0 
5.149370043700e-07 3.540350926641e-07 0.0 
3.540350926641e-07 4.920776908925e-04 0.0 
0.0 0.0 0.0 
2.814274324692e-08 2.380911030372e-07 0.0 
2.380911030372e-07 4.921347211564e-04 0.0 
0.0 0.0 0.0 
8.711657499827e-07 5.261488156673e-08 0.0 
5.261488156673e-08 4.921623952441e-04 0.0 
0.0 0.0 0.0 
5.061105532445e-07 -2.537728911760e-07 0.0 
-2.537728911760e-07 4.919200481108e-04 0.0 
0.0 0.0 0.0 
9.453738034626e-07 -1.522159346196e-07 0.0 
-1.522159346196e-07 4.917889221181e-04 0.0 
0.0 0.0 0.0 
1.050102285127e-07 -1.967259346703e-07 0.0 
-1.967259346703e-07 4.920574231386e-04 0.0 
0.0 0.0 0.0 
1.319813754397e-05 -5.696777073858e-06 0.0 
-5.696777073858e-06 5.365825989605e-04 0.0 
0.0 0.0 0.0 
1.824965653707e-06 -1.110003534110e-06 0.0 
-1.110003534110e-06 4.910771206230e-04 0.0 
0.0 0.0 0.0 
1.520195504812e-06 -4.188164514961e-07 0.0 
-4.188164514961e-07 4.920222939249e-04 0.0 
0.0 0.0 0.0 
7.035220384033e-08 1.443297285749e-06 0.0 
1.443297285749e-06 4.915896454711e-04 0.0 
0.0 0.0 0.0 
6.442189708356e-07 3.470578425213e-07 0.0 
3.470578425213e-07 4.901071964976e-04 0.0 
0.0 0.0 0.0 
6.020054338363e-06 -1.636078522750e-06 0.0 
-1.636078522750e-06 4.884636836151e-04 0.0 
0.0 0.0 0.0 
3.042316712554e-06 5.015666833649e-07 0.0 
5.015666833649e-07 4.918601349002e-04 0.0 
0.0 0.0 0.0 
5.724643543426e-06 7.881532617565e-06 0.0 
7.881532617565e-06 4.898434441403e-04 0.0 
0.0 0.0 0.0 
2.874730535840e-07 2.704976962335e-06 0.0 
2.704976962335e-06 4.857864548387e-04 0.0 
0.0 0.0 0.0 
9.934976471948e-06 3.968403843714e-07 0.0 
3.968403843714e-07 4.957077862080e-04 0.0 
0.0 0.0 0.0 
1.758471594204e-05 -6.227863926302e-06 0.0 
-6.227863926302e-06 3.460335378265e-04 0.0 
0.0 0.0 0.0 
-3.188252092035e-05 -5.236487650763e-05 0.0 
-5.236487650763e-05 5.245147917001e-04 0.0 
0.0 0.0 0.0 
3.211539633119e-06 5.681531567811e-05 0.0 
5.681531567811e-05 4.615417069993e-04 0.0 
0.0 0.0 0.0 
-1.735372455303e-05 -3.748681322270e-06 0.0 
-3.748681322270e-06 6.060386392532e-04 0.0 
0.0 0.0 0.0 
-1.095646262572e-05 9.622440864427e-06 0.0 
9.622440864427e-06 3.824669599928e-04 0.0 
0.0 0.0 0.0 
8.417528316595e-07 -1.655376398661e-05 0.0 
-1.655376398661e-05 3.592756124686e-04 0.0 
0.0 0.0 0.0 
-3.843319099861e-06 -2.312857268338e-06 0.0 
-2.312857268338e-06 9.627374782284e-04 0.0 
0.0 0.0 0.0 
5.113031885662e-06 1.796457879901e-05 0.0 
1.796457879901e-05 9.154617589173e-04 0.0 
0.0 0.0 0.0 
1.190557450625e-06 1.844169268529e-06 0.0 
1.844169268529e-06 9.142275298926e-04 0.0 
0.0 0.0 0.0 
2.477401478629e-06 2.007918305141e-06 0.0 
2.007918305141e-06 9.127762807795e-04 0.0 
0.0 0.0 0.0 
1.288827777390e-06 3.253122834126e-07 0.0 
3.253122834126e-07 9.125860899823e-04 0.0 
0.0 0.0 0.0 
1.516915158151e-06 -4.504225081593e-07 0.0 
-4.504225081593e-07 9.138238691075e-04 0.0 
0.0 0.0 0.0 
6.888458499166e-07 -3.007506695431e-07 0.0 
-3.007506695431e-07 9.138517953626e-04 0.0 
0.0 0.0 0.0 
8.603296535181e-07 -8.709779602056e-07 0.0 
-8.709779602056e-07 9.147424992366e-04 0.0 
0.0 0.0 0.0 
2.186577734431e-07 -5.024929245941e-07 0.0 
-5.024929245941e-07 9.148192943607e-04 0.0 
0.0 0.0 0.0 
4.252250933590e-07 -8.758141473748e-07 0.0 
-8.758141473748e-07 9.153181376598e-04 0.0 
0.0 0.0 0.0 
-7.397466472714e-08 -5.718138512716e-07 0.0 
-5.718138512716e-07 9.153949377247e-04 0.0 
0.0 0.0 0.0 
1.437343031263e-07 -8.098665273313e-07 0.0 
-8.098665273313e-07 9.156439117870e-04 0.0 
0.0 0.0 0.0 
-2.416002163885e-07 -6.006664554484e-07 0.0 
-6.006664554484e-07 9.157072176464e-04 0.0 
0.0 0.0 0.0 
-4.208254211768e-08 -7.462838936636e-07 0.0 
-7.462838936636e-07 9.158107972247e-04 0.0 
0.0 0.0 0.0 
-3.315842116436e-07 -6.056366567128e-07 0.0 
-6.056366567128e-07 9.158609254081e-04 0.0 
0.0 0.0 0.0 
-1.701718831404e-07 -6.833329554666e-07 0.0 
-6.833329554666e-07 9.158790490962e-04 0.0 
0.0 0.0 0.0 
-3.745782464204e-07 -5.786805161367e-07 0.0 
-5.786805161367e-07 9.159213980601e-04 0.0 
0.0 0.0 0.0 
-2.617340150168e-07 -6.014182707272e-07 0.0 
-6.014182707272e-07 9.158845124417e-04 0.0 
0.0 0.0 0.0 
-3.847325434903e-07 -5.054425122201e-07 0.0 
-5.054425122201e-07 9.159259749572e-04 0.0 
0.0 0.0 0.0 
-3.270439623559e-07 -4.803067674495e-07 0.0 
-4.803067674495e-07 9.158504744686e-04 0.0 
0.0 0.0 0.0 
-1.982293259906e-05 -2.678661967093e-05 0.0 
-2.678661967093e-05 9.535449581581e-04 0.0 
0.0 0.0 0.0 
-3.682933165106e-07 -3.715794667815e-07 0.0 
-3.715794667815e-07 9.158983203281e-04 0.0 
0.0 0.0 0.0 
-3.701718802596e-07 -3.060770673327e-07 0.0 
-3.060770673327e-07 9.157986589821e-04 0.0 
0.0 0.0 0.0 
-3.305856108859e-07 -1.677544040904e-07 0.0 
-1.677544040904e-07 9.158603920667e-04 0.0 
0.0 0.0 0.0 
5.724643543426e-06 -1.460588424074e-06 0.0 
-1.460588424074e-06 8.026580001763e-04 0.0 
0.0 0.0 0.0 
-3.879949018737e-07 -8.077859446349e-08 0.0 
-8.077859446349e-08 9.157622210783e-04 0.0 
0.0 0.0 0.0 
-2.975039660180e-07 7.839096784307e-08 0.0 
7.839096784307e-08 9.158361501760e-04 0.0 
0.0 0.0 0.0 
1.691062858766e-05 5.014859749370e-07 0.0 
5.014859749370e-07 9.170734622155e-04 0.0 
0.0 0.0 0.0 
-3.791691278732e-07 1.683358135677e-07 0.0 
1.683358135677e-07 9.157483034539e-04 0.0 
0.0 0.0 0.0 
-2.774063894151e-07 3.425253681466e-07 0.0 
3.425253681466e-07 9.158347215361e-04 0.0 
0.0 0.0 0.0 
-3.365485883311e-07 4.017502580940e-07 0.0 
4.017502580940e-07 9.157803828874e-04 0.0 
0.0 0.0 0.0 
-2.866636503729e-07 5.442549850971e-07 0.0 
5.442549850971e-07 9.158584462243e-04 0.0 
0.0 0.0 0.0 
-2.779410196441e-07 5.832104994817e-07 0.0 
5.832104994817e-07 9.158003271506e-04 0.0 
0.0 0.0 0.0 
-2.599655724023e-07 7.429253420401e-07 0.0 
7.429253420401e-07 9.158969113900e-04 0.0 
0.0 0.0 0.0 
-1.736958461507e-07 6.860675514154e-07 0.0 
6.860675514154e-07 9.159343677301e-04 0.0 
0.0 0.0 0.0 
-3.135780520802e-07 7.110296349325e-07 0.0 
7.110296349325e-07 9.159656395203e-04 0.0 
0.0 0.0 0.0 
-1.042720402245e-07 6.880615458128e-07 0.0 
6.880615458128e-07 9.159061932975e-04 0.0 
0.0 0.0 0.0 
1.548387846695e-05 1.048573752949e-06 0.0 
1.048573752949e-06 9.678688602186e-04 0.0 
0.0 0.0 0.0 
-1.871268757725e-07 8.450836548500e-07 0.0 
8.450836548500e-07 9.160248287838e-04 0.0 
0.0 0.0 0.0 
7.569083071424e-08 5.851984182248e-07 0.0 
5.851984182248e-07 9.162488367904e-04 0.0 
0.0 0.0 0.0 
-4.407723691591e-07 3.074981905245e-07 0.0 
3.074981905245e-07 9.161148529018e-04 0.0 
0.0 0.0 0.0 
2.814274324692e-08 4.163660982281e-07 0.0 
4.163660982281e-07 9.158032843102e-04 0.0 
0.0 0.0 0.0 
5.061105532445e-07 9.942548794595e-08 0.0 
9.942548794595e-08 9.170146595303e-04 0.0 
0.0 0.0 0.0 
1.415348489520e-07 9.158864907914e-07 0.0 
9.158864907914e-07 9.161707567857e-04 0.0 
0.0 0.0 0.0 
1.050102285127e-07 -3.034506290155e-07 0.0 
-3.034506290155e-07 9.147264460951e-04 0.0 
0.0 0.0 0.0 
-1.361707778758e-06 -1.210522530850e-06 0.0 
-1.210522530850e-06 9.162612502891e-04 0.0 
0.0 0.0 0.0 
1.824965653707e-06 -9.377128780792e-07 0.0 
-9.377128780792e-07 9.183641981942e-04 0.0 
0.0 0.0 0.0 
1.292195939584e-06 1.383239406180e-06 0.0 
1.383239406180e-06 9.159411461379e-04 0.0 
0.0 0.0 0.0 
7.035220384033e-08 -9.507128877752e-07 0.0 
-9.507128877752e-07 9.086633213466e-04 0.0 
0.0 0.0 0.0 
6.020054338363e-06 8.197166914777e-07 0.0 
8.197166914777e-07 9.198966903103e-04 0.0 
0.0 0.0 0.0 
-4.237185211031e-06 -5.858300264542e-06 0.0 
-5.858300264542e-06 9.151973464114e-04 0.0 
0.0 0.0 0.0 
1.358355223791e-05 6.141332584904e-06 0.0 
6.141332584904e-06 9.123312733734e-04 0.0 
0.0 0.0 0.0 
2.132884881578e-05 -6.947961302575e-06 0.0 
-6.947961302575e-06 7.859091423623e-04 0.0 
0.0 0.0 0.0 
3.118133327762e-06 -5.272858020919e-05 0.0 
-5.272858020919e-05 9.133922181166e-04 0.0 
0.0 0.0 0.0 
-2.581510589306e-05 6.049724675711e-05 0.0 
6.049724675711e-05 9.651613771195e-04 0.0 
0.0 0.0 0.0 
-1.735372455303e-05 -8.487471081605e-07 0.0 
-8.487471081605e-07 8.313199797949e-04 0.0 
0.0 0.0 0.0 
-5.509157450123e-06 9.986185718246e-06 0.0 
9.986185718246e-06 1.044708306059e-03 0.0 
0.0 0.0 0.0 
1.191486581509e-05 -1.894425885159e-06 0.0 
-1.894425885159e-06 7.832091026951e-04 0.0 
0.0 0.0 0.0 
-3.843319099861e-06 -7.366610640400e-06 0.0 
-7.366610640400e-06 1.308614338861e-03 0.0 
0.0 0.0 0.0 
-1.571631791597e-06 1.102443104850e-05 0.0 
1.102443104850e-05 1.341881424110e-03 0.0 
0.0 0.0 0.0 
1.190557450625e-06 2.210824406883e-06 0.0 
2.210824406883e-06 1.342555307773e-03 0.0 
0.0 0.0 0.0 
-6.334694357957e-08 1.954635673863e-06 0.0 
1.954635673863e-06 1.343185887161e-03 0.0 
0.0 0.0 0.0 
1.288827777390e-06 7.027677967525e-07 0.0 
7.027677967525e-07 1.343325832873e-03 0.0 
0.0 0.0 0.0 
2.864213193288e-07 3.797106558679e-07 0.0 
3.797106558679e-07 1.343583541169e-03 0.0 
0.0 0.0 0.0 
6.888458499166e-07 -2.643022390287e-07 0.0 
-2.643022390287e-07 1.343680238866e-03 0.0 
0.0 0.0 0.0 
1.707371917181e-07 -2.535244724369e-07 0.0 
-2.535244724369e-07 1.344122984335e-03 0.0 
0.0 0.0 0.0 
2.186577734431e-07 -5.941465295196e-07 0.0 
-5.941465295196e-07 1.344188045524e-03 0.0 
0.0 0.0 0.0 
-5.464979924152e-08 -5.037181308903e-07 0.0 
-5.037181308903e-07 1.344561909534e-03 0.0 
0.0 0.0 0.0 
-7.397466472714e-08 -6.630723012057e-07 0.0 
-6.630723012057e-07 1.344598940857e-03 0.0 
0.0 0.0 0.0 
-2.518747759250e-07 -5.988856904189e-07 0.0 
-5.988856904189e-07 1.344843260777e-03 0.0 
0.0 0.0 0.0 
-2.416002163885e-07 -6.494554990283e-07 0.0 
-6.494554990283e-07 1.344856689537e-03 0.0 
0.0 0.0 0.0 
-3.763851135208e-07 -6.296674157711e-07 0.0 
-6.296674157711e-07 1.344986679859e-03 0.0 
0.0 0.0 0.0 
-3.315842116436e-07 -6.082156201552e-07 0.0 
-6.082156201552e-07 1.344979018930e-03 0.0 
0.0 0.0 0.0 
-4.398465207611e-07 -6.215013590402e-07 0.0 
-6.215013590402e-07 1.345031076321e-03 0.0 
0.0 0.0 0.0 
-3.745782464204e-07 -5.472431946039e-07 0.0 
-5.472431946039e-07 1.345003416420e-03 0.0 
0.0 0.0 0.0 
-4.575946780383e-07 -5.785231158592e-07 0.0 
-5.785231158592e-07 1.345007044486e-03 0.0 
0.0 0.0 0.0 
-3.847325434903e-07 -4.571385413608e-07 0.0 
-4.571385413608e-07 1.344957663506e-03 0.0 
0.0 0.0 0.0 
-1.428164726414e-05 -2.459107328158e-05 0.0 
-2.459107328158e-05 1.376526470783e-03 0.0 
0.0 0.0 0.0 
-4.435700703409e-07 -4.919427532303e-07 0.0 
-4.919427532303e-07 1.344939357560e-03 0.0 
0.0 0.0 0.0 
-3.682933165106e-07 -3.273274975246e-07 0.0 
-3.273274975246e-07 1.344866344121e-03 0.0 
0.0 0.0 0.0 
-3.951619648168e-07 -3.490480183645e-07 0.0 
-3.490480183645e-07 1.344848826543e-03 0.0 
0.0 0.0 0.0 
1.632348814273e-05 8.999986193918e-07 0.0 
8.999986193918e-07 1.346476813439e-03 0.0 
0.0 0.0 0.0 
-3.305856108859e-07 -1.465778191152e-07 0.0 
-1.465778191152e-07 1.344751939782e-03 0.0 
0.0 0.0 0.0 
-3.069043066350e-07 -1.227736039134e-07 0.0 
-1.227736039134e-07 1.344774325371e-03 0.0 
0.0 0.0 0.0 
-2.975039660180e-07 7.443314825340e-08 0.0 
7.443314825340e-08 1.344675134473e-03 0.0 
0.0 0.0 0.0 
-2.855377505551e-07 1.355253169731e-07 0.0 
1.355253169731e-07 1.344758032785e-03 0.0 
0.0 0.0 0.0 
-2.774063894151e-07 2.983071893609e-07 0.0 
2.983071893609e-07 1.344669791605e-03 0.0 
0.0 0.0 0.0 
1.358355223791e-05 1.813508587780e-06 0.0 
1.813508587780e-06 1.225016385726e-03 0.0 
0.0 0.0 0.0 
-2.764813845646e-07 4.000807329385e-07 0.0 
4.000807329385e-07 1.344814154868e-03 0.0 
0.0 0.0 0.0 
-2.866636503729e-07 4.735985730192e-07 0.0 
4.735985730192e-07 1.344772587996e-03 0.0 
0.0 0.0 0.0 
-4.489818178355e-07 5.216022720873e-07 0.0 
5.216022720873e-07 1.344916852122e-03 0.0 
0.0 0.0 0.0 
-2.599655724023e-07 5.872563684028e-07 0.0 
5.872563684028e-07 1.344858554572e-03 0.0 
0.0 0.0 0.0 
-3.109761063103e-07 7.255211222818e-07 0.0 
7.255211222818e-07 1.345067789634e-03 0.0 
0.0 0.0 0.0 
-3.135780520802e-07 5.905174142699e-07 0.0 
5.905174142699e-07 1.345156339382e-03 0.0 
0.0 0.0 0.0 
-7.539594614192e-07 4.801871356811e-07 0.0 
4.801871356811e-07 1.345200330892e-03 0.0 
0.0 0.0 0.0 
-1.871268757725e-07 5.652621744519e-07 0.0 
5.652621744519e-07 1.345073513499e-03 0.0 
0.0 0.0 0.0 
1.506540536766e-08 8.885185305283e-07 0.0 
8.885185305283e-07 1.345402370163e-03 0.0 
0.0 0.0 0.0 
-4.407723691591e-07 3.528598650169e-07 0.0 
3.528598650169e-07 1.345854670074e-03 0.0 
0.0 0.0 0.0 
-1.458214071048e-06 -3.715521253775e-07 0.0 
-3.715521253775e-07 1.345348389453e-03 0.0 
0.0 0.0 0.0 
1.956088347810e-05 5.368380993301e-06 0.0 
5.368380993301e-06 1.392558616020e-03 0.0 
0.0 0.0 0.0 
1.556706985095e-06 2.079275250489e-06 0.0 
2.079275250489e-06 1.345893882784e-03 0.0 
0.0 0.0 0.0 
1.415348489520e-07 4.630205558892e-07 0.0 
4.630205558892e-07 1.344469761219e-03 0.0 
0.0 0.0 0.0 
-4.492360585640e-06 -3.645959623546e-06 0.0 
-3.645959623546e-06 1.345210867621e-03 0.0 
0.0 0.0 0.0 
-1.361707778758e-06 -1.664357921115e-07 0.0 
-1.664357921115e-07 1.348183695590e-03 0.0 
0.0 0.0 0.0 
1.148604794721e-05 6.719981111346e-06 0.0 
6.719981111346e-06 1.344488356407e-03 0.0 
0.0 0.0 0.0 
1.292195939584e-06 4.725533258779e-07 0.0 
4.725533258779e-07 1.340690570659e-03 0.0 
0.0 0.0 0.0 
-4.237185211031e-06 1.040012332571e-06 0.0 
1.040012332571e-06 1.352588976103e-03 0.0 
0.0 0.0 0.0 
2.628812176431e-05 -3.302500703846e-06 0.0 
-3.302500703846e-06 1.209105514776e-03 0.0 
0.0 0.0 0.0 
-2.071141600324e-05 -5.549540328444e-05 0.0 
-5.549540328444e-05 1.363377322121e-03 0.0 
0.0 0.0 0.0 
1.120188104164e-05 5.551484854502e-05 0.0 
5.551484854502e-05 1.306190257148e-03 0.0 
0.0 0.0 0.0 
-3.708026385607e-06 -5.258492157367e-06 0.0 
-5.258492157367e-06 1.445563254156e-03 0.0 
0.0 0.0 0.0 
-5.509157450123e-06 6.761922674637e-06 0.0 
6.761922674637e-06 1.226634004300e-03 0.0 
0.0 0.0 0.0 
1.691062858766e-05 -1.246796014021e-06 0.0 
-1.246796014021e-06 1.209205513728e-03 0.0 
0.0 0.0 0.0 
-1.661605571135e-06 -1.010040086202e-05 0.0 
-1.010040086202e-05 1.810013399254e-03 0.0 
0.0 0.0 0.0 
-1.571631791597e-06 9.919536943096e-06 0.0 
9.919536943096e-06 1.771632067745e-03 0.0 
0.0 0.0 0.0 
-6.080684263887e-07 -7.125688418271e-08 0.0 
-7.125688418271e-08 1.770761481584e-03 0.0 
0.0 0.0 0.0 
-6.334694357957e-08 1.259991415686e-06 0.0 
1.259991415686e-06 1.767796638344e-03 0.0 
0.0 0.0 0.0 
4.345418957996e-08 9.702299908988e-08 0.0 
9.702299908988e-08 1.767644492553e-03 0.0 
0.0 0.0 0.0 
2.864213193288e-07 7.928344122397e-08 0.0 
7.928344122397e-08 1.767474337371e-03 0.0 
0.0 0.0 0.0 
1.126045503508e-07 -1.537738893192e-07 0.0 
-1.537738893192e-07 1.767435119965e-03 0.0 
0.0 0.0 0.0 
1.707371917181e-07 -3.377927503309e-07 0.0 
-3.377927503309e-07 1.767716971654e-03 0.0 
0.0 0.0 0.0 
-6.714222322568e-08 -2.970716623887e-07 0.0 
-2.970716623887e-07 1.767728634549e-03 0.0 
0.0 0.0 0.0 
-5.464979924152e-08 -4.831562107013e-07 0.0 
-4.831562107013e-07 1.768042813783e-03 0.0 
0.0 0.0 0.0 
-2.862481203181e-07 -3.891990017198e-07 0.0 
-3.891990017198e-07 1.768071264596e-03 0.0 
0.0 0.0 0.0 
-2.518747759250e-07 -5.321382040167e-07 0.0 
-5.321382040167e-07 1.768288931893e-03 0.0 
0.0 0.0 0.0 
-4.525512089515e-07 -4.688397195597e-07 0.0 
-4.688397195597e-07 1.768312843693e-03 0.0 
0.0 0.0 0.0 
-3.763851135208e-07 -5.519327609257e-07 0.0 
-5.519327609257e-07 1.768398150608e-03 0.0 
0.0 0.0 0.0 
-5.140665044756e-07 -5.096525511055e-07 0.0 
-5.096525511055e-07 1.768417021044e-03 0.0 
0.0 0.0 0.0 
-4.398465207611e-07 -5.373798162114e-07 0.0 
-5.373798162114e-07 1.768413607269e-03 0.0 
0.0 0.0 0.0 
-5.344471788460e-07 -5.101704980123e-07 0.0 
-5.101704980123e-07 1.768427875686e-03 0.0 
0.0 0.0 0.0 
-4.575946780383e-07 -4.945546202653e-07 0.0 
-4.945546202653e-07 1.768356363101e-03 0.0 
0.0 0.0 0.0 
-1.301308693946e-05 -2.317044918879e-05 0.0 
-2.317044918879e-05 1.803701737394e-03 0.0 
0.0 0.0 0.0 
-5.384623071869e-07 -4.641736394718e-07 0.0 
-4.641736394718e-07 1.768373393945e-03 0.0 
0.0 0.0 0.0 
-4.435700703409e-07 -4.226629869477e-07 0.0 
-4.226629869477e-07 1.768255290310e-03 0.0 
0.0 0.0 0.0 
-5.316442239778e-07 -3.852700868082e-07 0.0 
-3.852700868082e-07 1.768278210248e-03 0.0 
0.0 0.0 0.0 
1.148604794721e-05 2.944670814120e-06 0.0 
2.944670814120e-06 1.653034097759e-03 0.0 
0.0 0.0 0.0 
-3.951619648168e-07 -3.224418933291e-07 0.0 
-3.224418933291e-07 1.768110771646e-03 0.0 
0.0 0.0 0.0 
1.516598328100e-05 1.209310865215e-06 0.0 
1.209310865215e-06 1.772277209785e-03 0.0 
0.0 0.0 0.0 
-4.625973319961e-07 -2.681913099470e-07 0.0 
-2.681913099470e-07 1.768143665473e-03 0.0 
0.0 0.0 0.0 
-3.069043066350e-07 -1.622391789280e-07 0.0 
-1.622391789280e-07 1.767911519738e-03 0.0 
0.0 0.0 0.0 
-2.966649949032e-07 3.024039580876e-08 0.0 
3.024039580876e-08 1.768019494751e-03 0.0 
0.0 0.0 0.0 
-2.855377505551e-07 9.043902686901e-08 0.0 
9.043902686901e-08 1.767930355305e-03 0.0 
0.0 0.0 0.0 
-3.508842500999e-07 2.666138820830e-07 0.0 
2.666138820830e-07 1.768043645063e-03 0.0 
0.0 0.0 0.0 
-2.764813845646e-07 3.207453975582e-07 0.0 
3.207453975582e-07 1.767936894479e-03 0.0 
0.0 0.0 0.0 
-4.225946805825e-07 6.790703838354e-07 0.0 
6.790703838354e-07 1.768186121309e-03 0.0 
0.0 0.0 0.0 
-4.489818178355e-07 4.817670798920e-07 0.0 
4.817670798920e-07 1.768454696707e-03 0.0 
0.0 0.0 0.0 
2.435881422813e-05 3.166425488522e-06 0.0 
3.166425488522e-06 1.816838860529e-03 0.0 
0.0 0.0 0.0 
-8.817940482242e-07 3.764711565383e-07 0.0 
3.764711565383e-07 1.768433810285e-03 0.0 
0.0 0.0 0.0 
-3.109761063103e-07 4.767289242468e-07 0.0 
4.767289242468e-07 1.768080527859e-03 0.0 
0.0 0.0 0.0 
-3.570700636280e-07 1.139844628596e-06 0.0 
1.139844628596e-06 1.768576952299e-03 0.0 
0.0 0.0 0.0 
-7.539594614192e-07 4.872155286771e-07 0.0 
4.872155286771e-07 1.769518508939e-03 0.0 
0.0 0.0 0.0 
1.506540536766e-08 3.403401829788e-07 0.0 
3.403401829788e-07 1.767373513156e-03 0.0 
0.0 0.0 0.0 
-1.497039645915e-06 -4.891329816748e-07 0.0 
-4.891329816748e-07 1.768868189868e-03 0.0 
0.0 0.0 0.0 
-1.458214071048e-06 3.041619811884e-07 0.0 
3.041619811884e-07 1.771887714581e-03 0.0 
0.0 0.0 0.0 
1.196243045509e-06 2.296259041319e-06 0.0 
2.296259041319e-06 1.768787757502e-03 0.0 
0.0 0.0 0.0 
1.556706985095e-06 7.902053134497e-07 0.0 
7.902053134497e-07 1.762649400982e-03 0.0 
0.0 0.0 0.0 
-4.492360585640e-06 2.459541269576e-06 0.0 
2.459541269576e-06 1.777969603344e-03 0.0 
0.0 0.0 0.0 
-3.566702546198e-06 -3.577875783203e-06 0.0 
-3.577875783203e-06 1.768910609620e-03 0.0 
0.0 0.0 0.0 
1.280682592153e-05 8.302382369496e-06 0.0 
8.302382369496e-06 1.767163684357e-03 0.0 
0.0 0.0 0.0 
2.977663972503e-05 -3.233627248324e-06 0.0 
-3.233627248324e-06 1.633778601265e-03 0.0 
0.0 0.0 0.0 
1.307930556149e-05 -5.587754521878e-05 0.0 
-5.587754521878e-05 1.756580509714e-03 0.0 
0.0 0.0 0.0 
-1.834521964639e-05 5.515883529346e-05 0.0 
5.515883529346e-05 1.812858641853e-03 0.0 
0.0 0.0 0.0 
-3.708026385607e-06 -5.385497861171e-06 0.0 
-5.385497861171e-06 1.673857102877e-03 0.0 
0.0 0.0 0.0 
-1.883158660676e-06 6.337488522874e-06 0.0 
6.337488522874e-06 1.892624569138e-03 0.0 
0.0 0.0 0.0 
1.632348814273e-05 -1.735153800071e-06 0.0 
-1.735153800071e-06 1.635643415713e-03 0.0 
0.0 0.0 0.0 
-1.661605571135e-06 -1.085634423605e-05 0.0 
-1.085634423605e-05 2.158894548039e-03 0.0 
0.0 0.0 0.0 
-9.464397626724e-07 8.377890830148e-06 0.0 
8.377890830148e-06 2.195036146595e-03 0.0 
0.0 0.0 0.0 
-6.080684263887e-07 -4.704364270355e-07 0.0 
-4.704364270355e-07 2.195804926712e-03 0.0 
0.0 0.0 0.0 
-3.468702302056e-07 3.554398685313e-07 0.0 
3.554398685313e-07 2.197120716486e-03 0.0 
0.0 0.0 0.0 
4.345418957996e-08 5.831269034699e-08 0.0 
5.831269034699e-08 2.197157812035e-03 0.0 
0.0 0.0 0.0 
-4.693239341602e-08 -9.203895238968e-09 0.0 
-9.203895238968e-09 2.197109871508e-03 0.0 
0.0 0.0 0.0 
1.126045503508e-07 -1.222069994884e-07 0.0 
-1.222069994884e-07 2.197128317893e-03 0.0 
0.0 0.0 0.0 
-2.647124153210e-08 -9.364704433494e-08 0.0 
-9.364704433494e-08 2.197289714187e-03 0.0 
0.0 0.0 0.0 
-6.714222322568e-08 -2.864386549722e-07 0.0 
-2.864386549722e-07 2.197332105924e-03 0.0 
0.0 0.0 0.0 
-1.528665154460e-07 -1.904748384728e-07 0.0 
-1.904748384728e-07 2.197563819398e-03 0.0 
0.0 0.0 0.0 
-2.862481203181e-07 -3.866028983513e-07 0.0 
-3.866028983513e-07 2.197617252492e-03 0.0 
0.0 0.0 0.0 
-3.824140913933e-07 -3.126194235490e-07 0.0 
-3.126194235490e-07 2.197811827705e-03 0.0 
0.0 0.0 0.0 
-4.525512089515e-07 -4.718329377714e-07 0.0 
-4.718329377714e-07 2.197861908150e-03 0.0 
0.0 0.0 0.0 
-5.001997211984e-07 -4.674243225710e-07 0.0 
-4.674243225710e-07 2.197901708230e-03 0.0 
0.0 0.0 0.0 
-5.140665044756e-07 -4.876886654461e-07 0.0 
-4.876886654461e-07 2.197909176109e-03 0.0 
0.0 0.0 0.0 
-5.018535662593e-07 -4.979923738619e-07 0.0 
-4.979923738619e-07 2.197884699107e-03 0.0 
0.0 0.0 0.0 
-5.344471788460e-07 -4.410026281499e-07 0.0 
-4.410026281499e-07 2.197863646448e-03 0.0 
0.0 0.0 0.0 
-1.101263058234e-05 -2.388980320688e-05 0.0 
-2.388980320688e-05 2.230130981246e-03 0.0 
0.0 0.0 0.0 
-5.374578975204e-07 -4.680626249032e-07 0.0 
-4.680626249032e-07 2.197823135664e-03 0.0 
0.0 0.0 0.0 
-5.384623071869e-07 -3.572120245290e-07 0.0 
-3.572120245290e-07 2.197774987218e-03 0.0 
0.0 0.0 0.0 
1.788479737552e-05 2.211493576145e-06 0.0 
2.211493576145e-06 2.200276788848e-03 0.0 
0.0 0.0 0.0 
-6.618889675236e-07 -4.107689042798e-07 0.0 
-4.107689042798e-07 2.197764942089e-03 0.0 
0.0 0.0 0.0 
-5.316442239778e-07 -2.942060947744e-07 0.0 
-2.942060947744e-07 2.197701746826e-03 0.0 
0.0 0.0 0.0 
-7.318961268155e-07 -3.991329622575e-07 0.0 
-3.991329622575e-07 2.197656037921e-03 0.0 
0.0 0.0 0.0 
-4.625973319961e-07 -2.270243724519e-07 0.0 
-2.270243724519e-07 2.197547915563e-03 0.0 
0.0 0.0 0.0 
-6.114787002298e-07 -3.720280947786e-07 0.0 
-3.720280947786e-07 2.197416488583e-03 0.0 
0.0 0.0 0.0 
1.280682592153e-05 5.383523758026e-06 0.0 
5.383523758026e-06 2.080695615058e-03 0.0 
0.0 0.0 0.0 
-2.966649949032e-07 2.791924048958e-08 0.0 
2.791924048958e-08 2.197165287955e-03 0.0 
0.0 0.0 0.0 
-1.913912539564e-07 1.699967021382e-07 0.0 
1.699967021382e-07 2.197312015618e-03 0.0 
0.0 0.0 0.0 
-3.508842500999e-07 3.389947319106e-07 0.0 
3.389947319106e-07 2.197223920706e-03 0.0 
0.0 0.0 0.0 
-7.619788788826e-07 4.066208620626e-07 0.0 
4.066208620626e-07 2.197501771207e-03 0.0 
0.0 0.0 0.0 
-4.225946805825e-07 6.064891880792e-07 0.0 
6.064891880792e-07 2.197335334660e-03 0.0 
0.0 0.0 0.0 
-4.767373155135e-07 1.062988002445e-06 0.0 
1.062988002445e-06 2.197953796427e-03 0.0 
0.0 0.0 0.0 
-8.817940482242e-07 4.233465939373e-07 0.0 
4.233465939373e-07 2.198447769337e-03 0.0 
0.0 0.0 0.0 
-2.416410033734e-06 -2.654307096638e-07 0.0 
-2.654307096638e-07 2.198189241075e-03 0.0 
0.0 0.0 0.0 
-3.570700636280e-07 5.109013107578e-07 0.0 
5.109013107578e-07 2.197334168990e-03 0.0 
0.0 0.0 0.0 
8.900862480399e-07 1.897167660954e-06 0.0 
1.897167660954e-06 2.198559713210e-03 0.0 
0.0 0.0 0.0 
2.719040936139e-05 4.021651810928e-06 0.0 
4.021651810928e-06 2.244363896939e-03 0.0 
0.0 0.0 0.0 
-4.314357114787e-06 -3.208365551425e-06 0.0 
-3.208365551425e-06 2.198097244158e-03 0.0 
0.0 0.0 0.0 
-1.497039645915e-06 -2.468677885831e-07 0.0 
-2.468677885831e-07 2.200603168548e-03 0.0 
0.0 0.0 0.0 
1.160024309277e-05 6.662773254293e-06 0.0 
6.662773254293e-06 2.197201456222e-03 0.0 
0.0 0.0 0.0 
1.196243045509e-06 7.734751748138e-07 0.0 
7.734751748138e-07 2.193867762000e-03 0.0 
0.0 0.0 0.0 
-3.566702546198e-06 8.449577250050e-07 0.0 
8.449577250050e-07 2.205127523722e-03 0.0 
0.0 0.0 0.0 
3.237090365915e-05 7.604323035794e-07 0.0 
7.604323035794e-07 2.061076174376e-03 0.0 
0.0 0.0 0.0 
-1.778953039633e-05 -5.625555313964e-05 0.0 
-5.625555313964e-05 2.212992675133e-03 0.0 
0.0 0.0 0.0 
1.400003610530e-05 5.445117189629e-05 0.0 
5.445117189629e-05 2.156047689286e-03 0.0 
0.0 0.0 0.0 
-1.560544940715e-06 -5.991220900552e-06 0.0 
-5.991220900552e-06 2.295804886816e-03 0.0 
0.0 0.0 0.0 
-1.883158660676e-06 5.875794630378e-06 0.0 
5.875794630378e-06 2.076209034995e-03 0.0 
0.0 0.0 0.0 
1.516598328100e-05 7.572818680418e-07 0.0 
7.572818680418e-07 2.064664764418e-03 0.0 
0.0 0.0 0.0 
-1.043521149269e-06 -1.159103278929e-05 0.0 
-1.159103278929e-05 2.661109748024e-03 0.0 
0.0 0.0 0.0 
-9.464397626724e-07 8.093053436827e-06 0.0 
8.093053436827e-06 2.623622368243e-03 0.0 
0.0 0.0 0.0 
-4.079355420128e-07 -1.314400370461e-06 0.0 
-1.314400370461e-06 2.622680276602e-03 0.0 
0.0 0.0 0.0 
-3.468702302056e-07 -5.890349296635e-08 0.0 
-5.890349296635e-08 2.620305358371e-03 0.0 
0.0 0.0 0.0 
1.247330472243e-07 -4.311219235054e-07 0.0 
-4.311219235054e-07 2.620246872838e-03 0.0 
0.0 0.0 0.0 
-4.693239341602e-08 -2.746212753154e-07 0.0 
-2.746212753154e-07 2.620104220678e-03 0.0 
0.0 0.0 0.0 
1.023691036384e-07 -1.970362595600e-07 0.0 
-1.970362595600e-07 2.620118244667e-03 0.0 
0.0 0.0 0.0 
-2.647124153210e-08 -2.263158807498e-07 0.0 
-2.263158807498e-07 2.620268127393e-03 0.0 
0.0 0.0 0.0 
6.304680555402e-08 -1.340068591426e-07 0.0 
-1.340068591426e-07 2.620289805929e-03 0.0 
0.0 0.0 0.0 
-1.528665154460e-07 -1.907245835290e-07 0.0 
-1.907245835290e-07 2.620542223435e-03 0.0 
0.0 0.0 0.0 
-1.464667969131e-07 -6.956090503544e-08 0.0 
-6.956090503544e-08 2.620578428545e-03 0.0 
0.0 0.0 0.0 
-3.824140913933e-07 -1.829937216070e-07 0.0 
-1.829937216070e-07 2.620926184319e-03 0.0 
0.0 0.0 0.0 
-4.774516230155e-07 -2.855028794981e-07 0.0 
-2.855028794981e-07 2.620893216638e-03 0.0 
0.0 0.0 0.0 
-5.001997211984e-07 -3.226707779668e-07 0.0 
-3.226707779668e-07 2.620967244059e-03 0.0 
0.0 0.0 0.0 
-5.556546935903e-07 -4.594218797214e-07 0.0 
-4.594218797214e-07 2.620914761817e-03 0.0 
0.0 0.0 0.0 
-5.018535662593e-07 -3.857497957334e-07 0.0 
-3.857497957334e-07 2.620768255785e-03 0.0 
0.0 0.0 0.0 
-1.538812118207e-05 -2.300880469354e-05 0.0 
-2.300880469354e-05 2.658562845499e-03 0.0 
0.0 0.0 0.0 
-3.300743938173e-07 -3.705789763209e-07 0.0 
-3.705789763209e-07 2.620766386333e-03 0.0 
0.0 0.0 0.0 
-5.374578975204e-07 -2.607364742620e-07 0.0 
-2.607364742620e-07 2.620718275801e-03 0.0 
0.0 0.0 0.0 
1.160024309277e-05 1.565367438595e-06 0.0 
1.565367438595e-06 2.506288258062e-03 0.0 
0.0 0.0 0.0 
-6.644022430002e-07 -1.570792973084e-07 0.0 
-1.570792973084e-07 2.620778038411e-03 0.0 
0.0 0.0 0.0 
-6.618889675236e-07 -1.733752394145e-07 0.0 
-1.733752394145e-07 2.620800346486e-03 0.0 
0.0 0.0 0.0 
1.742435795360e-05 2.733926781955e-06 0.0 
2.733926781955e-06 2.624616994239e-03 0.0 
0.0 0.0 0.0 
-1.011231863801e-06 -1.658342169533e-07 0.0 
-1.658342169533e-07 2.620830913105e-03 0.0 
0.0 0.0 0.0 
-7.318961268155e-07 -2.179625744711e-07 0.0 
-2.179625744711e-07 2.620767018295e-03 0.0 
0.0 0.0 0.0 
-1.033979665332e-06 -3.631171260812e-07 0.0 
-3.631171260812e-07 2.620707113082e-03 0.0 
0.0 0.0 0.0 
-6.114787002298e-07 -2.902352842682e-07 0.0 
-2.902352842682e-07 2.620416220593e-03 0.0 
0.0 0.0 0.0 
-9.208227127466e-07 -5.481175770773e-07 0.0 
-5.481175770773e-07 2.620281271565e-03 0.0 
0.0 0.0 0.0 
-1.913912539564e-07 -2.767652161692e-08 0.0 
-2.767652161692e-08 2.619296513401e-03 0.0 
0.0 0.0 0.0 
2.052130534191e-05 3.482515730920e-06 0.0 
3.482515730920e-06 2.671953308574e-03 0.0 
0.0 0.0 0.0 
4.778680473549e-08 1.055630850663e-06 0.0 
1.055630850663e-06 2.620025529249e-03 0.0 
0.0 0.0 0.0 
-7.619788788826e-07 6.181059176774e-07 0.0 
6.181059176774e-07 2.620888750136e-03 0.0 
0.0 0.0 0.0 
-1.832804436663e-06 1.986467866682e-07 0.0 
1.986467866682e-07 2.620724740631e-03 0.0 
0.0 0.0 0.0 
-4.767373155135e-07 7.398627167554e-07 0.0 
7.398627167554e-07 2.619587097352e-03 0.0 
0.0 0.0 0.0 
-2.416410033734e-06 4.087561519894e-07 0.0 
4.087561519894e-07 2.625025673645e-03 0.0 
0.0 0.0 0.0 
-4.226588696810e-07 3.000002366386e-06 0.0 
3.000002366386e-06 2.621386556519e-03 0.0 
0.0 0.0 0.0 
8.900862480399e-07 1.380245187024e-07 0.0 
1.380245187024e-07 2.615415052115e-03 0.0 
0.0 0.0 0.0 
-5.544624240739e-06 -3.964043896398e-06 0.0 
-3.964043896398e-06 2.621873827296e-03 0.0 
0.0 0.0 0.0 
-4.314357114787e-06 2.170863665683e-06 0.0 
2.170863665683e-06 2.628986881866e-03 0.0 
0.0 0.0 0.0 
1.199250863992e-05 7.040574013558e-06 0.0 
7.040574013558e-06 2.619379106126e-03 0.0 
0.0 0.0 0.0 
2.676991092954e-05 -5.744238497409e-06 0.0 
-5.744238497409e-06 2.487073174575e-03 0.0 
0.0 0.0 0.0 
1.482312211198e-05 -5.641454843050e-05 0.0 
-5.641454843050e-05 2.607413382054e-03 0.0 
0.0 0.0 0.0 
-1.702312439023e-05 5.435254129031e-05 0.0 
5.435254129031e-05 2.664416913978e-03 0.0 
0.0 0.0 0.0 
-1.560544940715e-06 -5.942273924404e-06 0.0 
-5.942273924404e-06 2.524567170259e-03 0.0 
0.0 0.0 0.0 
-1.035933733462e-06 5.822764082070e-06 0.0 
5.822764082070e-06 2.743852156416e-03 0.0 
0.0 0.0 0.0 
1.788479737552e-05 -4.159843305905e-06 0.0 
-4.159843305905e-06 2.487710057772e-03 0.0 
0.0 0.0 0.0 
-1.043521149269e-06 -1.199906029653e-05 0.0 
-1.199906029653e-05 3.011292987228e-03 0.0 
0.0 0.0 0.0 
-1.026687032391e-06 7.136617419276e-06 0.0 
7.136617419276e-06 3.047635582098e-03 0.0 
0.0 0.0 0.0 
-4.079355420128e-07 -1.697249406299e-06 0.0 
-1.697249406299e-06 3.048517421901e-03 0.0 
0.0 0.0 0.0 
3.002078270420e-07 -7.994864074864e-07 0.0 
-7.994864074864e-07 3.049572378279e-03 0.0 
0.0 0.0 0.0 
1.247330472243e-07 -4.693167630473e-07 0.0 
-4.693167630473e-07 3.049523839878e-03 0.0 
0.0 0.0 0.0 
9.471874395928e-10 -2.805652310640e-07 0.0 
-2.805652310640e-07 3.049963859182e-03 0.0 
0.0 0.0 0.0 
1.023691036384e-07 -3.807203549190e-07 0.0 
-3.807203549190e-07 3.049982875988e-03 0.0 
0.0 0.0 0.0 
4.759134215604e-07 -1.907112440196e-07 0.0 
-1.907112440196e-07 3.050029397063e-03 0.0 
0.0 0.0 0.0 
6.304680555402e-08 -1.904236808608e-07 0.0 
-1.904236808608e-07 3.050035776213e-03 0.0 
0.0 0.0 0.0 
2.879791971555e-07 8.062355203649e-08 0.0 
8.062355203649e-08 3.050334042856e-03 0.0 
0.0 0.0 0.0 
-1.464667969131e-07 -9.004115120249e-08 0.0 
-9.004115120249e-08 3.050395017302e-03 0.0 
0.0 0.0 0.0 
1.991700271375e-07 2.669420642993e-07 0.0 
2.669420642993e-07 3.050748790544e-03 0.0 
0.0 0.0 0.0 
-4.774516230155e-07 -1.932160163270e-07 0.0 
-1.932160163270e-07 3.050930567411e-03 0.0 
0.0 0.0 0.0 
-6.992094839786e-07 -2.185149661530e-07 0.0 
-2.185149661530e-07 3.051032014122e-03 0.0 
0.0 0.0 0.0 
-5.556546935903e-07 -4.737473820050e-07 0.0 
-4.737473820050e-07 3.051128364897e-03 0.0 
0.0 0.0 0.0 
-1.645141445694e-05 -2.468309223524e-05 0.0 
-2.468309223524e-05 3.086145883928e-03 0.0 
0.0 0.0 0.0 
2.422518077250e-07 -6.192212765361e-07 0.0 
-6.192212765361e-07 3.050423637768e-03 0.0 
0.0 0.0 0.0 
1.606959682965e-05 2.720300737501e-06 0.0 
2.720300737501e-06 3.054897325469e-03 0.0 
0.0 0.0 0.0 
-3.300743938173e-07 -9.806231755994e-09 0.0 
-9.806231755994e-09 3.050178375012e-03 0.0 
0.0 0.0 0.0 
-1.901417907568e-07 2.570576773639e-07 0.0 
2.570576773639e-07 3.050499958786e-03 0.0 
0.0 0.0 0.0 
-6.644022430002e-07 2.535499591527e-07 0.0 
2.535499591527e-07 3.050531353924e-03 0.0 
0.0 0.0 0.0 
-1.221168127952e-06 3.328642082307e-07 0.0 
3.328642082307e-07 3.050939009653e-03 0.0 
0.0 0.0 0.0 
-1.011231863801e-06 6.304688040832e-08 0.0 
6.304688040832e-08 3.051071532753e-03 0.0 
0.0 0.0 0.0 
-1.223373162218e-06 -1.325647999157e-07 0.0 
-1.325647999157e-07 3.050901625637e-03 0.0 
0.0 0.0 0.0 
1.199250863992e-05 2.412803628045e-06 0.0 
2.412803628045e-06 2.933794569653e-03 0.0 
0.0 0.0 0.0 
-1.033979665332e-06 -9.381446897173e-08 0.0 
-9.381446897173e-08 3.050861330024e-03 0.0 
0.0 0.0 0.0 
-1.333440093010e-06 -3.709262317094e-07 0.0 
-3.709262317094e-07 3.050623670802e-03 0.0 
0.0 0.0 0.0 
-9.208227127466e-07 -2.540706608219e-07 0.0 
-2.540706608219e-07 3.050504131970e-03 0.0 
0.0 0.0 0.0 
-1.949012072289e-06 -1.255199244945e-06 0.0 
-1.255199244945e-06 3.049637074815e-03 0.0 
0.0 0.0 0.0 
4.778680473549e-08 8.612854854645e-07 0.0 
8.612854854645e-07 3.047910927641e-03 0.0 
0.0 0.0 0.0 
1.348904281384e-06 3.072090709640e-06 0.0 
3.072090709640e-06 3.050166185157e-03 0.0 
0.0 0.0 0.0 
-1.832804436663e-06 9.551990333796e-07 0.0 
9.551990333796e-07 3.052201281703e-03 0.0 
0.0 0.0 0.0 
-6.257341063853e-06 -1.137616708177e-06 0.0 
-1.137616708177e-06 3.051282735999e-03 0.0 
0.0 0.0 0.0 
9.671664500388e-06 7.311706710674e-06 0.0 
7.311706710674e-06 3.051276510349e-03 0.0 
0.0 0.0 0.0 
-4.226588696810e-07 1.658261633390e-06 0.0 
1.658261633390e-06 3.048112484175e-03 0.0 
0.0 0.0 0.0 
1.949664925482e-05 3.609662515271e-06 0.0 
3.609662515271e-06 3.100896907478e-03 0.0 
0.0 0.0 0.0 
-5.544624240739e-06 9.213367561253e-07 0.0 
9.213367561253e-07 3.059456766964e-03 0.0 
0.0 0.0 0.0 
2.630241801294e-05 -4.329299717908e-06 0.0 
-4.329299717908e-06 2.913833197874e-03 0.0 
0.0 0.0 0.0 
-1.721451080827e-05 -5.644698441083e-05 0.0 
-5.644698441083e-05 3.064655637034e-03 0.0 
0.0 0.0 0.0 
1.444635573655e-05 5.414911852485e-05 0.0 
5.414911852485e-05 3.007975897114e-03 0.0 
0.0 0.0 0.0 
-1.327756911529e-06 -6.017661005238e-06 0.0 
-6.017661005238e-06 3.147890472252e-03 0.0 
0.0 0.0 0.0 
-1.035933733462e-06 5.666997482696e-06 0.0 
5.666997482696e-06 2.928153612509e-03 0.0 
0.0 0.0 0.0 
1.742435795360e-05 -3.612733191405e-06 0.0 
-3.612733191405e-06 2.914986095162e-03 0.0 
0.0 0.0 0.0 
-4.312462333456e-06 -1.329396531264e-05 0.0 
-1.329396531264e-05 3.515389537054e-03 0.0 
0.0 0.0 0.0 
-1.026687032391e-06 6.322507264452e-06 0.0 
6.322507264452e-06 3.475553829235e-03 0.0 
0.0 0.0 0.0 
1.018183298784e-06 -3.640994677396e-06 0.0 
-3.640994677396e-06 3.474374576861e-03 0.0 
0.0 0.0 0.0 
3.002078270420e-07 -1.538188490865e-06 0.0 
-1.538188490865e-06 3.471136911625e-03 0.0 
0.0 0.0 0.0 
1.103540997915e-06 -1.863449176340e-07 0.0 
-1.863449176340e-07 3.471369217931e-03 0.0 
0.0 0.0 0.0 
9.471874395928e-10 -4.482643666333e-07 0.0 
-4.482643666333e-07 3.472689849511e-03 0.0 
0.0 0.0 0.0 
-1.659776150964e-07 -1.071687432358e-06 0.0 
-1.071687432358e-06 3.472545472109e-03 0.0 
0.0 0.0 0.0 
4.759134215604e-07 -8.003316769415e-07 0.0 
-8.003316769415e-07 3.471615589832e-03 0.0 
0.0 0.0 0.0 
1.798104501738e-06 -3.258572510142e-08 0.0 
-3.258572510142e-08 3.471812803367e-03 0.0 
0.0 0.0 0.0 
2.879791971555e-07 6.863892355106e-08 0.0 
6.863892355106e-08 3.472670248443e-03 0.0 
0.0 0.0 0.0 
3.703161466362e-07 2.579254672655e-08 0.0 
2.579254672655e-08 3.472652562066e-03 0.0 
0.0 0.0 0.0 
1.991700271375e-07 1.550188981851e-07 0.0 
1.550188981851e-07 3.472555248865e-03 0.0 
0.0 0.0 0.0 
1.257027034018e-06 1.041578002225e-06 0.0 
1.041578002225e-06 3.472875462654e-03 0.0 
0.0 0.0 0.0 
-1.686751533270e-05 -2.316965682049e-05 0.0 
-2.316965682049e-05 3.512968296390e-03 0.0 
0.0 0.0 0.0 
-6.992094839786e-07 5.559304489490e-07 0.0 
5.559304489490e-07 3.474762176115e-03 0.0 
0.0 0.0 0.0 
-6.130226591905e-07 -1.593053966201e-06 0.0 
-1.593053966201e-06 3.473746117743e-03 0.0 
0.0 0.0 0.0 
9.671664500388e-06 1.726289333327e-06 0.0 
1.726289333327e-06 3.360840904755e-03 0.0 
0.0 0.0 0.0 
2.422518077250e-07 -4.439086674792e-07 0.0 
-4.439086674792e-07 3.471593787683e-03 0.0 
0.0 0.0 0.0 
7.225280451717e-07 5.775749536609e-07 0.0 
5.775749536609e-07 3.472100920555e-03 0.0 
0.0 0.0 0.0 
1.513100775430e-05 3.230788348660e-06 0.0 
3.230788348660e-06 3.478568220449e-03 0.0 
0.0 0.0 0.0 
-1.901417907568e-07 7.011936009530e-07 0.0 
7.011936009530e-07 3.472381156016e-03 0.0 
0.0 0.0 0.0 
-9.210564231310e-07 1.692272491273e-06 0.0 
1.692272491273e-06 3.473027371508e-03 0.0 
0.0 0.0 0.0 
-1.221168127952e-06 9.135661335227e-07 0.0 
9.135661335227e-07 3.474218250259e-03 0.0 
0.0 0.0 0.0 
-1.661974620926e-06 1.797037855820e-07 0.0 
1.797037855820e-07 3.473789537931e-03 0.0 
0.0 0.0 0.0 
-1.223373162218e-06 3.380454115671e-07 0.0 
3.380454115671e-07 3.473400989334e-03 0.0 
0.0 0.0 0.0 
1.975805111831e-05 2.846502762050e-06 0.0 
2.846502762050e-06 3.525975976779e-03 0.0 
0.0 0.0 0.0 
-7.655339643309e-07 1.621627671342e-07 0.0 
1.621627671342e-07 3.473219805007e-03 0.0 
0.0 0.0 0.0 
-1.333440093010e-06 4.853388262366e-07 0.0 
4.853388262366e-07 3.473037236832e-03 0.0 
0.0 0.0 0.0 
-1.949012072289e-06 -5.614087612529e-08 0.0 
-5.614087612529e-08 3.474305264835e-03 0.0 
0.0 0.0 0.0 
-1.826891648959e-06 7.514647149023e-07 0.0 
7.514647149023e-07 3.473312884409e-03 0.0 
0.0 0.0 0.0 
1.348904281384e-06 1.334928651667e-06 0.0 
1.334928651667e-06 3.464029070599e-03 0.0 
0.0 0.0 0.0 
-5.982822331663e-06 -3.721868242413e-06 0.0 
-3.721868242413e-06 3.471970363761e-03 0.0 
0.0 0.0 0.0 
-6.257341063853e-06 3.653627540482e-06 0.0 
3.653627540482e-06 3.483702706901e-03 0.0 
0.0 0.0 0.0 
9.146645238767e-06 1.129233112828e-05 0.0 
1.129233112828e-05 3.471297287563e-03 0.0 
0.0 0.0 0.0 
2.583264039879e-05 -5.743497162575e-06 0.0 
-5.743497162575e-06 3.340841574593e-03 0.0 
0.0 0.0 0.0 
1.721569141999e-05 -5.486670205002e-05 0.0 
-5.486670205002e-05 3.456425150617e-03 0.0 
0.0 0.0 0.0 
-1.804939124062e-05 5.601104340018e-05 0.0 
5.601104340018e-05 3.519478185426e-03 0.0 
0.0 0.0 0.0 
-1.327756911529e-06 -4.763427133625e-06 0.0 
-4.763427133625e-06 3.376634550547e-03 0.0 
0.0 0.0 0.0 
-1.265910065662e-08 8.256135296092e-06 0.0 
8.256135296092e-06 3.595187538788e-03 0.0 
0.0 0.0 0.0 
1.606959682965e-05 -3.602577755418e-06 0.0 
-3.602577755418e-06 3.341141416078e-03 0.0 
0.0 0.0 0.0 
-4.312462333456e-06 -1.765090114423e-05 0.0 
-1.765090114423e-05 3.874006066567e-03 0.0 
0.0 0.0 0.0 
4.627822399739e-06 -7.773340488935e-07 0.0 
-7.773340488935e-07 3.897848653447e-03 0.0 
0.0 0.0 0.0 
1.018183298784e-06 -2.198467881764e-06 0.0 
-2.198467881764e-06 3.898028335763e-03 0.0 
0.0 0.0 0.0 
-1.050895403920e-06 -1.603092104621e-06 0.0 
-1.603092104621e-06 3.900834076915e-03 0.0 
0.0 0.0 0.0 
1.103540997915e-06 -1.448767709187e-07 0.0 
-1.448767709187e-07 3.900559971504e-03 0.0 
0.0 0.0 0.0 
-8.510432580877e-07 9.996401791466e-07 0.0 
9.996401791466e-07 3.904101442446e-03 0.0 
0.0 0.0 0.0 
-1.659776150964e-07 -2.409453188161e-06 0.0 
-2.409453188161e-06 3.904894100184e-03 0.0 
0.0 0.0 0.0 
2.855598266960e-06 -3.419908802560e-06 0.0 
-3.419908802560e-06 3.900972159190e-03 0.0 
0.0 0.0 0.0 
1.798104501738e-06 1.725463732370e-07 0.0 
1.725463732370e-07 3.899938424402e-03 0.0 
0.0 0.0 0.0 
1.300019033312e-06 1.856165414933e-06 0.0 
1.856165414933e-06 3.903049245910e-03 0.0 
0.0 0.0 0.0 
3.703161466362e-07 -5.212180907295e-07 0.0 
-5.212180907295e-07 3.903917275126e-03 0.0 
0.0 0.0 0.0 
3.929550669302e-07 -1.165474792249e-06 0.0 
-1.165474792249e-06 3.902879767274e-03 0.0 
0.0 0.0 0.0 
-1.808694681837e-05 -2.514109752966e-05 0.0 
-2.514109752966e-05 3.940769953185e-03 0.0 
0.0 0.0 0.0 
1.257027034018e-06 2.377556414615e-07 0.0 
2.377556414615e-07 3.902265340619e-03 0.0 
0.0 0.0 0.0 
6.015872457965e-07 6.193217214029e-06 0.0 
6.193217214029e-06 3.909484554224e-03 0.0 
0.0 0.0 0.0 
7.731511656006e-06 3.236997896247e-06 0.0 
3.236997896247e-06 3.903066299703e-03 0.0 
0.0 0.0 0.0 
-6.130226591905e-07 3.022594171789e-07 0.0 
3.022594171789e-07 3.904909334242e-03 0.0 
0.0 0.0 0.0 
-2.248327514609e-06 -1.852145250866e-06 0.0 
-1.852145250866e-06 3.902625231819e-03 0.0 
0.0 0.0 0.0 
7.225280451717e-07 1.729345015310e-06 0.0 
1.729345015310e-06 3.900520983254e-03 0.0 
0.0 0.0 0.0 
-2.343597297116e-06 2.824601233110e-06 0.0 
2.824601233110e-06 3.903594985283e-03 0.0 
0.0 0.0 0.0 
-9.210564231310e-07 1.338052160018e-06 0.0 
1.338052160018e-06 3.904346368745e-03 0.0 
0.0 0.0 0.0 
1.793853894316e-07 1.868478465140e-06 0.0 
1.868478465140e-06 3.904560428453e-03 0.0 
0.0 0.0 0.0 
9.146645238767e-06 3.313706284271e-06 0.0 
3.313706284271e-06 3.789195343325e-03 0.0 
0.0 0.0 0.0 
-1.661974620926e-06 4.653573367923e-07 0.0 
4.653573367923e-07 3.905661067868e-03 0.0 
0.0 0.0 0.0 
3.027820338897e-07 -6.053035855325e-07 0.0 
-6.053035855325e-07 3.903452892297e-03 0.0 
0.0 0.0 0.0 
-7.655339643309e-07 1.333104555241e-06 0.0 
1.333104555241e-06 3.902217681623e-03 0.0 
0.0 0.0 0.0 
2.179557020643e-06 2.298303611019e-06 0.0 
2.298303611019e-06 3.902286469795e-03 0.0 
0.0 0.0 0.0 
2.616559702240e-06 6.277395911385e-06 0.0 
6.277395911385e-06 3.903650606146e-03 0.0 
0.0 0.0 0.0 
-1.826891648959e-06 3.516812163415e-06 0.0 
3.516812163415e-06 3.901940386979e-03 0.0 
0.0 0.0 0.0 
-5.982822331663e-06 2.915410245012e-06 0.0 
2.915410245012e-06 3.907877326935e-03 0.0 
0.0 0.0 0.0 
1.922631749540e-05 2.847565590782e-06 0.0 
2.847565590782e-06 3.955200271249e-03 0.0 
0.0 0.0 0.0 
2.556780968899e-05 -3.038430629815e-06 0.0 
-3.038430629815e-06 3.768086223245e-03 0.0 
0.0 0.0 0.0 
-1.436950061029e-05 -4.953418206968e-05 0.0 
-4.953418206968e-05 3.906442505226e-03 0.0 
0.0 0.0 0.0 
6.270218910753e-06 5.978878629514e-05 0.0 
5.978878629514e-05 3.869441636270e-03 0.0 
0.0 0.0 0.0 
-7.664362554727e-06 2.755484415494e-06 0.0 
2.755484415494e-06 4.001629457001e-03 0.0 
0.0 0.0 0.0 
-1.265910065662e-08 9.649661727923e-06 0.0 
9.649661727923e-06 3.778031479370e-03 0.0 
0.0 0.0 0.0 
1.513100775430e-05 -4.895768120911e-06 0.0 
-4.895768120911e-06 3.771756434902e-03 0.0 
0.0 0.0 0.0 

TENSORS element_materi_strain_plasti float
-4.741889373871e-04 2.342858306946e-04 0.0 
2.342858306946e-04 2.814002888893e-03 0.0 
0.0 0.0 -4.220722639049e-04 
-3.897703972720e-04 -2.636930979351e-04 0.0 
-2.636930979351e-04 2.518846771568e-03 0.0 
0.0 0.0 -4.303330772826e-04 
-1.259341393326e-03 -3.090507185476e-05 0.0 
-3.090507185476e-05 8.411433358411e-03 0.0 
0.0 0.0 -1.278236581085e-03 
-1.261464826866e-03 -1.747915258517e-04 0.0 
-1.747915258517e-04 8.480496286503e-03 0.0 
0.0 0.0 -1.255598393855e-03 
-7.983281552709e-04 2.303090028114e-04 0.0 
2.303090028114e-04 5.254489729699e-03 0.0 
0.0 0.0 -7.961861350945e-04 
-2.059346616286e-04 2.207607006016e-04 0.0 
2.207607006016e-04 1.009101900264e-03 0.0 
0.0 0.0 -1.793459522598e-04 
-7.878967474187e-04 2.695248863587e-04 0.0 
2.695248863587e-04 5.204562819075e-03 0.0 
0.0 0.0 -8.011023898636e-04 
-4.128254064944e-04 4.080923401226e-05 0.0 
4.080923401226e-05 2.687408780313e-03 0.0 
0.0 0.0 -4.045669272905e-04 
-8.029485881418e-04 -2.877766516214e-04 0.0 
-2.877766516214e-04 5.280709952101e-03 0.0 
0.0 0.0 -7.977904104816e-04 
-1.248589478216e-03 2.242094407414e-04 0.0 
2.242094407414e-04 8.399546616313e-03 0.0 
0.0 0.0 -1.253060141438e-03 
-8.734037686267e-04 1.480436446761e-04 0.0 
1.480436446761e-04 5.724300399011e-03 0.0 
0.0 0.0 -8.816510380685e-04 
-3.813204680075e-04 2.190974571174e-07 0.0 
2.190974571174e-07 2.153866306060e-03 0.0 
0.0 0.0 -3.735031833740e-04 
-1.251882997596e-03 2.259053558602e-04 0.0 
2.259053558602e-04 8.467796470942e-03 0.0 
0.0 0.0 -1.259187713256e-03 
-8.479147549375e-04 1.860153946804e-04 0.0 
1.860153946804e-04 5.638680799524e-03 0.0 
0.0 0.0 -8.526168115438e-04 
-1.288189434839e-03 -1.832848558743e-04 0.0 
-1.832848558743e-04 8.626562874010e-03 0.0 
0.0 0.0 -1.289538875031e-03 
-1.301181403367e-03 2.039645816311e-04 0.0 
2.039645816311e-04 8.626062176419e-03 0.0 
0.0 0.0 -1.285984941237e-03 
-7.889097476292e-04 4.689353054445e-06 0.0 
4.689353054445e-06 5.256085596916e-03 0.0 
0.0 0.0 -7.740676797406e-04 
-1.741032192830e-04 -1.984587543236e-04 0.0 
-1.984587543236e-04 9.106845467383e-04 0.0 
0.0 0.0 -1.826237857505e-04 
-3.103934600629e-04 -1.188849736468e-04 0.0 
-1.188849736468e-04 1.808737160777e-03 0.0 
0.0 0.0 -2.776016825098e-04 
-3.017260514233e-04 1.101242532994e-04 0.0 
1.101242532994e-04 1.644506395847e-03 0.0 
0.0 0.0 -3.031105466646e-04 
-1.236978180346e-03 -2.273342210413e-04 0.0 
-2.273342210413e-04 8.474882909105e-03 0.0 
0.0 0.0 -1.250388265701e-03 
-4.788832533263e-04 9.235771209242e-05 0.0 
9.235771209242e-05 2.938553769607e-03 0.0 
0.0 0.0 -4.811142067971e-04 
-5.153479436012e-04 -1.000310601356e-04 0.0 
-1.000310601356e-04 3.322116646267e-03 0.0 
0.0 0.0 -5.091556215902e-04 
-1.207914407075e-03 -1.521033174033e-04 0.0 
-1.521033174033e-04 8.119148175608e-03 0.0 
0.0 0.0 -1.210372970477e-03 
-9.004893154001e-04 2.196977328252e-04 0.0 
2.196977328252e-04 6.011080091783e-03 0.0 
0.0 0.0 -9.130988374533e-04 
-9.174590915307e-04 -1.450811372332e-04 0.0 
-1.450811372332e-04 6.162434229051e-03 0.0 
0.0 0.0 -9.179597371190e-04 
-7.131055436641e-04 -1.829825241466e-05 0.0 
-1.829825241466e-05 4.865076399380e-03 0.0 
0.0 0.0 -7.148082707961e-04 
-1.275014108034e-03 1.320223363480e-05 0.0 
1.320223363480e-05 8.706353732723e-03 0.0 
0.0 0.0 -1.266047838742e-03 
-9.084778585211e-04 -2.532626103826e-04 0.0 
-2.532626103826e-04 6.055345996359e-03 0.0 
0.0 0.0 -9.113908267906e-04 
-1.248671644075e-03 1.500744587119e-04 0.0 
1.500744587119e-04 8.319441606585e-03 0.0 
0.0 0.0 -1.237914324842e-03 
-2.162503473685e-04 3.355180743600e-05 0.0 
3.355180743600e-05 1.390767343688e-03 0.0 
0.0 0.0 -2.185975924268e-04 
-1.102777646678e-04 3.092462500305e-05 0.0 
3.092462500305e-05 6.008114765358e-04 0.0 
0.0 0.0 -1.059755802940e-04 
-1.291285801941e-03 5.563014948237e-05 0.0 
5.563014948237e-05 8.705630370944e-03 0.0 
0.0 0.0 -1.261301343383e-03 
-1.086169392383e-03 -1.843155554575e-04 0.0 
-1.843155554575e-04 7.250914267634e-03 0.0 
0.0 0.0 -1.090200430068e-03 
-1.229627234356e-03 -2.081816156674e-04 0.0 
-2.081816156674e-04 8.461501921680e-03 0.0 
0.0 0.0 -1.254989870190e-03 
-1.333928130876e-03 3.870959300371e-04 0.0 
3.870959300371e-04 8.918766405510e-03 0.0 
0.0 0.0 -1.314886350686e-03 
-1.319549054242e-03 -4.082653656671e-04 0.0 
-4.082653656671e-04 8.897494246722e-03 0.0 
0.0 0.0 -1.314653105918e-03 
-1.251043943053e-03 1.755104499558e-04 0.0 
1.755104499558e-04 8.438640087517e-03 0.0 
0.0 0.0 -1.264739017786e-03 
-7.261695585195e-04 -3.174047361399e-04 0.0 
-3.174047361399e-04 4.739951691414e-03 0.0 
0.0 0.0 -7.380763454960e-04 
-7.293562810949e-04 3.567993421671e-04 0.0 
3.567993421671e-04 4.808642079977e-03 0.0 
0.0 0.0 -7.371174501546e-04 
-5.783756129442e-04 -1.365848045621e-04 0.0 
-1.365848045621e-04 3.784424820314e-03 0.0 
0.0 0.0 -5.794556523337e-04 
-1.262877717034e-03 1.019690194505e-05 0.0 
1.019690194505e-05 8.450550888573e-03 0.0 
0.0 0.0 -1.280756488215e-03 
-3.226099019571e-04 2.179474137412e-04 0.0 
2.179474137412e-04 1.923375161646e-03 0.0 
0.0 0.0 -3.207852484642e-04 
-7.228265239814e-04 5.532830836330e-05 0.0 
5.532830836330e-05 4.629144605835e-03 0.0 
0.0 0.0 -7.350059072715e-04 
-1.225055898073e-03 -9.816574622226e-05 0.0 
-9.816574622226e-05 8.293394798268e-03 0.0 
0.0 0.0 -1.212858513926e-03 
-3.206551623609e-04 -1.904275671922e-04 0.0 
-1.904275671922e-04 1.917970267075e-03 0.0 
0.0 0.0 -3.198426158856e-04 
-1.782809379457e-04 -4.378063603026e-06 0.0 
-4.378063603026e-06 7.801372807212e-04 0.0 
0.0 0.0 -1.830859565219e-04 
-1.220501464306e-03 6.316947048498e-05 0.0 
6.316947048498e-05 8.106622909265e-03 0.0 
0.0 0.0 -1.234743356787e-03 
-9.829459878545e-05 4.583948434498e-06 0.0 
4.583948434498e-06 3.276774367732e-04 0.0 
0.0 0.0 -9.830693056618e-05 
-8.022047642295e-04 -1.811997065716e-04 0.0 
-1.811997065716e-04 5.439298518069e-03 0.0 
0.0 0.0 -8.229436299569e-04 
-5.489987759976e-04 -1.133059547326e-04 0.0 
-1.133059547326e-04 3.572814356686e-03 0.0 
0.0 0.0 -5.440916476828e-04 
-3.388458973029e-04 -7.042877961868e-05 0.0 
-7.042877961868e-05 2.248035829402e-03 0.0 
0.0 0.0 -3.443810396916e-04 
-3.074157494333e-04 -1.467796149718e-04 0.0 
-1.467796149718e-04 1.814374481458e-03 0.0 
0.0 0.0 -3.047895897720e-04 
-5.421593945536e-04 1.293548672116e-04 0.0 
1.293548672116e-04 3.418474043213e-03 0.0 
0.0 0.0 -5.489460876789e-04 
-1.266579725590e-03 -7.893235167067e-06 0.0 
-7.893235167067e-06 8.468672292321e-03 0.0 
0.0 0.0 -1.282189168212e-03 
-4.597210026089e-04 -1.452187243083e-04 0.0 
-1.452187243083e-04 2.937502524048e-03 0.0 
0.0 0.0 -4.512233509908e-04 
-3.611878323951e-04 1.444175472608e-04 0.0 
1.444175472608e-04 2.127268062759e-03 0.0 
0.0 0.0 -3.694212080277e-04 
-1.088084509005e-03 1.827090950976e-04 0.0 
1.827090950976e-04 7.290496234404e-03 0.0 
0.0 0.0 -1.087734043503e-03 
-2.215722591699e-04 2.179680801208e-05 0.0 
2.179680801208e-05 1.355906413413e-03 0.0 
0.0 0.0 -2.189683579105e-04 
-1.291565119731e-03 -2.058202376931e-04 0.0 
-2.058202376931e-04 8.638287399565e-03 0.0 
0.0 0.0 -1.285320035817e-03 
-9.406322495136e-05 -1.263405609949e-04 0.0 
-1.263405609949e-04 5.178868060054e-04 0.0 
0.0 0.0 -9.532668554595e-05 
-1.207108165930e-03 2.281727388556e-04 0.0 
2.281727388556e-04 8.099161405669e-03 0.0 
0.0 0.0 -1.210824713543e-03 
-5.507253245741e-04 2.263693422713e-04 0.0 
2.263693422713e-04 3.467321570737e-03 0.0 
0.0 0.0 -5.497085007362e-04 
-2.633068753573e-04 1.211642318688e-04 0.0 
1.211642318688e-04 1.594924151360e-03 0.0 
0.0 0.0 -2.769417647402e-04 
-1.253722868311e-03 -1.824681277037e-04 0.0 
-1.824681277037e-04 8.465445333241e-03 0.0 
0.0 0.0 -1.257478522087e-03 
-5.218987792326e-04 1.045965667426e-04 0.0 
1.045965667426e-04 3.169150320614e-03 0.0 
0.0 0.0 -5.137572693775e-04 
-6.027079853017e-05 4.538885378714e-05 0.0 
4.538885378714e-05 2.053936984272e-04 0.0 
0.0 0.0 -6.219552852730e-05 
-1.264974411680e-03 -7.934823425827e-05 0.0 
-7.934823425827e-05 8.671954395754e-03 0.0 
0.0 0.0 -1.261660853087e-03 
-2.446973118894e-04 -2.103372277075e-04 0.0 
-2.103372277075e-04 1.398643057908e-03 0.0 
0.0 0.0 -2.404310120911e-04 
-1.273528016320e-03 -3.786679226457e-06 0.0 
-3.786679226457e-06 8.448618323595e-03 0.0 
0.0 0.0 -1.282376455277e-03 
-9.491469453000e-04 -1.694945758869e-04 0.0 
-1.694945758869e-04 6.388198818832e-03 0.0 
0.0 0.0 -9.556290573178e-04 
-1.338499280800e-03 -4.782411066394e-06 0.0 
-4.782411066394e-06 8.836661036334e-03 0.0 
0.0 0.0 -1.338499280800e-03 
-1.237491500558e-03 1.679725136184e-06 0.0 
1.679725136184e-06 8.119391193773e-03 0.0 
0.0 0.0 -1.232909111256e-03 
-1.306267830690e-04 2.201659246920e-04 0.0 
2.201659246920e-04 5.612930774448e-04 0.0 
0.0 0.0 -1.295286970291e-04 
-4.862904107144e-04 1.519111044422e-04 0.0 
1.519111044422e-04 2.949318680169e-03 0.0 
0.0 0.0 -4.777371989943e-04 
-1.254133957623e-03 -1.731664304592e-04 0.0 
-1.731664304592e-04 8.495066883004e-03 0.0 
0.0 0.0 -1.262626981217e-03 
-1.278966520388e-03 -5.463065947674e-06 0.0 
-5.463065947674e-06 8.716306064884e-03 0.0 
0.0 0.0 -1.265352048664e-03 
-2.500278062252e-04 -1.904083940434e-04 0.0 
-1.904083940434e-04 1.447205075698e-03 0.0 
0.0 0.0 -2.510564503189e-04 
-2.134033531635e-04 -1.202880701251e-05 0.0 
-1.202880701251e-05 1.118917748560e-03 0.0 
0.0 0.0 -2.366757893512e-04 
-2.618885880878e-04 2.000957013546e-04 0.0 
2.000957013546e-04 1.434490946595e-03 0.0 
0.0 0.0 -2.525559601288e-04 
-2.561151872774e-04 2.173251173940e-04 0.0 
2.173251173940e-04 1.315804408785e-03 0.0 
0.0 0.0 -2.439992467140e-04 
-7.756433689863e-04 3.199927864594e-05 0.0 
3.199927864594e-05 4.983308918424e-03 0.0 
0.0 0.0 -7.918363975426e-04 
-4.925212314280e-04 -9.934539810266e-05 0.0 
-9.934539810266e-05 3.122416797223e-03 0.0 
0.0 0.0 -4.749402310763e-04 
-4.545793902690e-04 2.152694959791e-05 0.0 
2.152694959791e-05 2.617959458629e-03 0.0 
0.0 0.0 -4.438329512050e-04 
-8.539707940099e-04 -2.466642961344e-04 0.0 
-2.466642961344e-04 5.506675063211e-03 0.0 
0.0 0.0 -8.336771054075e-04 
-8.435305426984e-04 2.228252034013e-04 0.0 
2.228252034013e-04 5.474459253188e-03 0.0 
0.0 0.0 -8.358076868167e-04 
-9.896151407778e-04 -1.847277247936e-04 0.0 
-1.847277247936e-04 6.561076695027e-03 0.0 
0.0 0.0 -9.867109252839e-04 
-1.055581697673e-03 1.942475256944e-04 0.0 
1.942475256944e-04 7.096214809641e-03 0.0 
0.0 0.0 -1.058576829647e-03 
-1.087556198862e-03 -2.099876550133e-04 0.0 
-2.099876550133e-04 7.325766427452e-03 0.0 
0.0 0.0 -1.085941371602e-03 
-7.938707313230e-04 -2.935700947946e-04 0.0 
-2.935700947946e-04 5.166210845136e-03 0.0 
0.0 0.0 -7.983229688164e-04 
-9.891997245649e-05 3.705985749017e-05 0.0 
3.705985749017e-05 3.315907805063e-04 0.0 
0.0 0.0 -9.971606059277e-05 
-7.885073175136e-04 2.083610238624e-05 0.0 
2.083610238624e-05 5.061448418496e-03 0.0 
0.0 0.0 -7.928983479555e-04 
-1.080416093341e-03 -1.102030882255e-04 0.0 
-1.102030882255e-04 7.033104683541e-03 0.0 
0.0 0.0 -1.069439317440e-03 
-1.045886068578e-03 1.124481538708e-04 0.0 
1.124481538708e-04 7.095766026652e-03 0.0 
0.0 0.0 -1.046447409317e-03 
-1.328437641777e-03 -2.129776585032e-05 0.0 
-2.129776585032e-05 9.108372857470e-03 0.0 
0.0 0.0 -1.319970921405e-03 
-1.300424073257e-03 -1.489012867546e-04 0.0 
-1.489012867546e-04 8.723441004214e-03 0.0 
0.0 0.0 -1.294194962782e-03 
-7.712114504191e-04 -1.098703338913e-04 0.0 
-1.098703338913e-04 4.988523523052e-03 0.0 
0.0 0.0 -7.889745663688e-04 
-1.284794183645e-03 -1.672243708689e-06 0.0 
-1.672243708689e-06 8.719527791253e-03 0.0 
0.0 0.0 -1.263183913703e-03 
-8.948346215206e-04 -1.546261929541e-04 0.0 
-1.546261929541e-04 5.902983939671e-03 0.0 
0.0 0.0 -9.040008563810e-04 
-5.152734121650e-04 -1.377156700746e-04 0.0 
-1.377156700746e-04 3.387112186572e-03 0.0 
0.0 0.0 -5.198799001330e-04 
-7.537468891923e-04 -1.811454266392e-04 0.0 
-1.811454266392e-04 5.032849217033e-03 0.0 
0.0 0.0 -7.643292725053e-04 
-1.300051982580e-03 1.933815268577e-04 0.0 
1.933815268577e-04 8.643096299671e-03 0.0 
0.0 0.0 -1.287517816355e-03 
-1.042138929644e-03 -2.218801567962e-04 0.0 
-2.218801567962e-04 6.995297199161e-03 0.0 
0.0 0.0 -1.043751955586e-03 
-1.212978672895e-03 -2.149778667109e-04 0.0 
-2.149778667109e-04 8.151603330808e-03 0.0 
0.0 0.0 -1.209599240962e-03 
-4.772009659134e-04 -2.042000113292e-04 0.0 
-2.042000113292e-04 3.047489558792e-03 0.0 
0.0 0.0 -4.747543016519e-04 
-1.600906628411e-04 5.774618246658e-05 0.0 
5.774618246658e-05 1.025327310925e-03 0.0 
0.0 0.0 -1.624897275554e-04 
-1.185986913304e-03 -1.994673824885e-04 0.0 
-1.994673824885e-04 7.973913807476e-03 0.0 
0.0 0.0 -1.189902873528e-03 
-1.119764034804e-03 7.291963016832e-05 0.0 
7.291963016832e-05 7.561876066394e-03 0.0 
0.0 0.0 -1.108790581071e-03 
-1.060815689674e-04 -4.441233851545e-05 0.0 
-4.441233851545e-05 6.067820639570e-04 0.0 
0.0 0.0 -1.038131581323e-04 
-1.254593141611e-03 -8.600335574532e-05 0.0 
-8.600335574532e-05 8.491952788715e-03 0.0 
0.0 0.0 -1.285127980003e-03 
-1.054610615232e-03 1.830679382237e-04 0.0 
1.830679382237e-04 6.961937164299e-03 0.0 
0.0 0.0 -1.051491716222e-03 
-1.014932494026e-04 -1.696691582667e-04 0.0 
-1.696691582667e-04 3.826202340035e-04 0.0 
0.0 0.0 -1.013520483084e-04 
-6.301709070232e-04 2.090314443316e-04 0.0 
2.090314443316e-04 4.024350450833e-03 0.0 
0.0 0.0 -6.309931931857e-04 
-7.106440805021e-04 -1.470402379688e-04 0.0 
-1.470402379688e-04 4.709551499753e-03 0.0 
0.0 0.0 -7.153918394734e-04 
-5.826588176687e-04 -7.135686322053e-05 0.0 
-7.135686322053e-05 3.565625895428e-03 0.0 
0.0 0.0 -5.772375537024e-04 
-4.700128970004e-04 1.674991601261e-04 0.0 
1.674991601261e-04 2.986365482112e-03 0.0 
0.0 0.0 -4.852398935310e-04 
-5.464898507642e-04 -2.243214163867e-04 0.0 
-2.243214163867e-04 3.519571152392e-03 0.0 
0.0 0.0 -5.471823052058e-04 
-1.295684493703e-03 1.105875109316e-04 0.0 
1.105875109316e-04 8.547279304038e-03 0.0 
0.0 0.0 -1.283833066805e-03 
-8.570047827625e-04 1.861607891453e-04 0.0 
1.861607891453e-04 5.815261551137e-03 0.0 
0.0 0.0 -8.766975940251e-04 
-5.090056138741e-04 2.359482171435e-04 0.0 
2.359482171435e-04 3.233178911117e-03 0.0 
0.0 0.0 -5.122473358773e-04 
-2.401563577846e-04 -2.327182583628e-04 0.0 
-2.327182583628e-04 1.352155075276e-03 0.0 
0.0 0.0 -2.295267891405e-04 
-7.623542819020e-04 1.283036037402e-04 0.0 
1.283036037402e-04 5.225810972112e-03 0.0 
0.0 0.0 -7.744920945421e-04 
-1.103870852233e-03 -9.179179606005e-05 0.0 
-9.179179606005e-05 7.387674560017e-03 0.0 
0.0 0.0 -1.129288753466e-03 
-5.110192863143e-04 -2.509386708551e-04 0.0 
-2.509386708551e-04 3.262724462356e-03 0.0 
0.0 0.0 -5.109724225979e-04 
-1.701414425471e-04 -1.534722166073e-04 0.0 
-1.534722166073e-04 9.835208087659e-04 0.0 
0.0 0.0 -1.803716510945e-04 
-6.470086521654e-04 -1.523090755330e-04 0.0 
-1.523090755330e-04 4.254329431163e-03 0.0 
0.0 0.0 -6.470401313397e-04 
-5.812575166427e-04 7.210416783757e-05 0.0 
7.210416783757e-05 3.739643384109e-03 0.0 
0.0 0.0 -5.578851714504e-04 
-6.125337073479e-04 1.558115274757e-04 0.0 
1.558115274757e-04 3.923971555451e-03 0.0 
0.0 0.0 -6.167189930164e-04 
-1.291653437089e-03 1.656662026679e-04 0.0 
1.656662026679e-04 8.654933890924e-03 0.0 
0.0 0.0 -1.290671971449e-03 
-2.237296866695e-04 1.772304597236e-04 0.0 
1.772304597236e-04 1.151710267161e-03 0.0 
0.0 0.0 -2.092271396208e-04 
-9.141643905242e-04 1.684200684003e-04 0.0 
1.684200684003e-04 6.033430644026e-03 0.0 
0.0 0.0 -9.216843799351e-04 
-1.271942419784e-03 2.295590735455e-04 0.0 
2.295590735455e-04 8.471227576744e-03 0.0 
0.0 0.0 -1.256690274141e-03 
-6.609256603744e-04 1.763317732060e-04 0.0 
1.763317732060e-04 4.239720102404e-03 0.0 
0.0 0.0 -6.588732905211e-04 
-6.147586220519e-04 -1.550456399962e-04 0.0 
-1.550456399962e-04 4.029116054442e-03 0.0 
0.0 0.0 -6.139229799761e-04 
-1.241743830704e-03 2.520731219919e-04 0.0 
2.520731219919e-04 8.466488124430e-03 0.0 
0.0 0.0 -1.254964138299e-03 
-1.256064603940e-03 -2.623116581344e-04 0.0 
-2.623116581344e-04 8.488036362469e-03 0.0 
0.0 0.0 -1.261070974318e-03 
-9.903209289541e-04 1.774668260034e-04 0.0 
1.774668260034e-04 6.556735258886e-03 0.0 
0.0 0.0 -9.873713238705e-04 
-6.942353831373e-04 -1.750200192602e-04 0.0 
-1.750200192602e-04 4.553149239605e-03 0.0 
0.0 0.0 -6.916138708610e-04 
-1.272024970549e-03 7.302822811058e-05 0.0 
7.302822811058e-05 8.719688557752e-03 0.0 
0.0 0.0 -1.270330610962e-03 
-6.345922402826e-04 1.791748683913e-04 0.0 
1.791748683913e-04 4.059488016013e-03 0.0 
0.0 0.0 -6.326048069937e-04 
-1.254086704545e-03 -7.990901772509e-06 0.0 
-7.990901772509e-06 8.463054394801e-03 0.0 
0.0 0.0 -1.283174495648e-03 
-1.276280299661e-03 7.633372817423e-05 0.0 
7.633372817423e-05 8.703927362015e-03 0.0 
0.0 0.0 -1.267437373369e-03 
-8.565153591280e-04 -2.695301549171e-04 0.0 
-2.695301549171e-04 5.568894745570e-03 0.0 
0.0 0.0 -8.543707170918e-04 
-9.713226980400e-04 1.946342578752e-04 0.0 
1.946342578752e-04 6.532485670191e-03 0.0 
0.0 0.0 -9.817831382938e-04 
-6.315283379598e-04 -1.826998149001e-04 0.0 
-1.826998149001e-04 4.113094555246e-03 0.0 
0.0 0.0 -6.293189184696e-04 
-5.902450977429e-04 1.623031646131e-04 0.0 
1.623031646131e-04 3.689468477665e-03 0.0 
0.0 0.0 -5.830241378053e-04 
-7.249782629771e-04 1.809288523893e-04 0.0 
1.809288523893e-04 4.673091201127e-03 0.0 
0.0 0.0 -7.211932326589e-04 
-5.403888112139e-04 -1.689543050934e-04 0.0 
-1.689543050934e-04 3.513114326182e-03 0.0 
0.0 0.0 -5.383041810906e-04 
-7.661110268238e-04 -1.968496736507e-04 0.0 
-1.968496736507e-04 5.166653984338e-03 0.0 
0.0 0.0 -7.693993191400e-04 
-6.294182824657e-04 -2.163757471592e-04 0.0 
-2.163757471592e-04 4.099286379753e-03 0.0 
0.0 0.0 -6.275039421266e-04 
-9.046107145188e-05 -7.326081393839e-05 0.0 
-7.326081393839e-05 3.093039216748e-04 0.0 
0.0 0.0 -9.378979295270e-05 
-8.218888591145e-04 -1.362265050326e-05 0.0 
-1.362265050326e-05 5.568518320124e-03 0.0 
0.0 0.0 -8.171079392438e-04 
-2.708662158631e-04 3.135426371168e-06 0.0 
3.135426371168e-06 1.198400692882e-03 0.0 
0.0 0.0 -2.373169254524e-04 
-6.825469564227e-04 -1.538944897682e-04 0.0 
-1.538944897682e-04 4.493577698030e-03 0.0 
0.0 0.0 -6.809683978454e-04 
-1.266750237588e-03 4.200148413727e-06 0.0 
4.200148413727e-06 8.473073137795e-03 0.0 
0.0 0.0 -1.284796145094e-03 
-4.841925383156e-04 2.284371901658e-04 0.0 
2.284371901658e-04 3.002882293729e-03 0.0 
0.0 0.0 -4.767992880414e-04 
-1.020870051269e-03 2.043993854783e-04 0.0 
2.043993854783e-04 6.818231983257e-03 0.0 
0.0 0.0 -1.021089721936e-03 
-3.490407114895e-04 -2.220876940666e-04 0.0 
-2.220876940666e-04 2.148206482994e-03 0.0 
0.0 0.0 -3.540742325023e-04 
-1.043282338519e-03 2.368159947987e-04 0.0 
2.368159947987e-04 6.958410863996e-03 0.0 
0.0 0.0 -1.044905595188e-03 
-8.013630412540e-04 6.389824081856e-06 0.0 
6.389824081856e-06 5.002686662292e-03 0.0 
0.0 0.0 -7.899655494116e-04 
-5.947683694498e-04 2.081256616156e-04 0.0 
2.081256616156e-04 3.787155443009e-03 0.0 
0.0 0.0 -5.931463391684e-04 
-1.121794229525e-03 -2.159685184143e-04 0.0 
-2.159685184143e-04 7.508906289541e-03 0.0 
0.0 0.0 -1.120963572432e-03 
-2.180914166738e-04 1.756512204206e-04 0.0 
1.756512204206e-04 1.241780399830e-03 0.0 
0.0 0.0 -2.346376350630e-04 
-1.178651579784e-03 2.200776692921e-04 0.0 
2.200776692921e-04 7.962810812677e-03 0.0 
0.0 0.0 -1.189111243166e-03 
-7.770557330009e-04 1.799043213504e-04 0.0 
1.799043213504e-04 5.036915018676e-03 0.0 
0.0 0.0 -7.711223959738e-04 
-1.280064085681e-03 1.291641233303e-05 0.0 
1.291641233303e-05 8.715123744243e-03 0.0 
0.0 0.0 -1.265987209193e-03 
-7.886647595985e-04 2.426638412845e-05 0.0 
2.426638412845e-05 5.002569468986e-03 0.0 
0.0 0.0 -7.842605076999e-04 
-5.085061027866e-04 1.624719349288e-04 0.0 
1.624719349288e-04 3.132188298831e-03 0.0 
0.0 0.0 -5.042822341261e-04 
-6.680122214844e-04 1.543414038776e-04 0.0 
1.543414038776e-04 4.389762745766e-03 0.0 
0.0 0.0 -6.840799553763e-04 
-9.007934225225e-04 -1.247506640907e-04 0.0 
-1.247506640907e-04 5.946782140169e-03 0.0 
0.0 0.0 -8.722824885218e-04 
-3.656654935953e-04 2.470171187882e-04 0.0 
2.470171187882e-04 2.250740956869e-03 0.0 
0.0 0.0 -3.514598124168e-04 
-5.924594186081e-04 -2.113287385343e-04 0.0 
-2.113287385343e-04 3.843594924053e-03 0.0 
0.0 0.0 -5.911455407098e-04 
-1.021044424836e-03 -2.319523584093e-04 0.0 
-2.319523584093e-04 6.800629387681e-03 0.0 
0.0 0.0 -1.016465148841e-03 
-7.832948860764e-04 1.542506256291e-04 0.0 
1.542506256291e-04 5.221219062028e-03 0.0 
0.0 0.0 -7.680022369673e-04 
-5.676669992827e-04 1.711896275723e-04 0.0 
1.711896275723e-04 3.564089172862e-03 0.0 
0.0 0.0 -5.666226778950e-04 
-6.536822883720e-04 1.457424227352e-04 0.0 
1.457424227352e-04 4.156474681676e-03 0.0 
0.0 0.0 -6.498546761489e-04 
-1.132270982308e-03 2.069255922966e-04 0.0 
2.069255922966e-04 7.587995835191e-03 0.0 
0.0 0.0 -1.136725521675e-03 
-6.243703934397e-04 -5.657386080576e-05 0.0 
-5.657386080576e-05 4.179915537147e-03 0.0 
0.0 0.0 -6.189190723244e-04 
-1.269582323065e-03 5.358509534069e-05 0.0 
5.358509534069e-05 8.454036067307e-03 0.0 
0.0 0.0 -1.285202198870e-03 
-1.273584082277e-03 -3.447672338951e-05 0.0 
-3.447672338951e-05 8.706627272042e-03 0.0 
0.0 0.0 -1.265486236287e-03 
-4.574522532321e-04 -1.366919469267e-04 0.0 
-1.366919469267e-04 2.968706494426e-03 0.0 
0.0 0.0 -4.595713030950e-04 
-6.193411254739e-04 7.190453835515e-05 0.0 
7.190453835515e-05 3.976368456989e-03 0.0 
0.0 0.0 -6.385407451345e-04 
-1.157661612575e-03 -1.951807319381e-04 0.0 
-1.951807319381e-04 7.743964299132e-03 0.0 
0.0 0.0 -1.152822474774e-03 
-6.058642039217e-04 -1.568622492918e-04 0.0 
-1.568622492918e-04 3.943482715706e-03 0.0 
0.0 0.0 -6.037256927378e-04 
-4.410111678775e-04 1.646945023678e-04 0.0 
1.646945023678e-04 2.528625053889e-03 0.0 
0.0 0.0 -4.251746348339e-04 
-7.492101616993e-04 1.773144067430e-04 0.0 
1.773144067430e-04 4.849787455535e-03 0.0 
0.0 0.0 -7.443430781256e-04 
-6.015846242072e-04 -1.692904042825e-04 0.0 
-1.692904042825e-04 3.951833046067e-03 0.0 
0.0 0.0 -6.011186688906e-04 
-1.288763796550e-03 1.231833412492e-04 0.0 
1.231833412492e-04 8.478545606423e-03 0.0 
0.0 0.0 -1.279059907835e-03 
-1.060544670799e-03 1.938342500095e-04 0.0 
1.938342500095e-04 7.027045279308e-03 0.0 
0.0 0.0 -1.060691896764e-03 
-1.152244772895e-03 2.285095076535e-04 0.0 
2.285095076535e-04 7.745399107629e-03 0.0 
0.0 0.0 -1.155968210243e-03 
-2.882194771885e-04 -2.173510090809e-04 0.0 
-2.173510090809e-04 1.694759427097e-03 0.0 
0.0 0.0 -2.852154713500e-04 
-5.567709701176e-04 -1.966656427986e-04 0.0 
-1.966656427986e-04 3.599381630168e-03 0.0 
0.0 0.0 -5.558335581882e-04 
-1.085941057106e-03 1.940613560135e-04 0.0 
1.940613560135e-04 7.224719901000e-03 0.0 
0.0 0.0 -1.089453766084e-03 
-2.843827826560e-05 -1.788898447614e-05 0.0 
-1.788898447614e-05 1.853186358372e-04 0.0 
0.0 0.0 -4.453055683374e-05 
-6.135292459430e-04 1.555358498214e-04 0.0 
1.555358498214e-04 3.889243112960e-03 0.0 
0.0 0.0 -6.073871274648e-04 
-1.080867878280e-03 -2.316454551773e-04 0.0 
-2.316454551773e-04 7.249333231753e-03 0.0 
0.0 0.0 -1.080675545910e-03 
-1.764831160191e-04 -8.217578917015e-05 0.0 
-8.217578917015e-05 1.019550636912e-03 0.0 
0.0 0.0 -1.605608400042e-04 
-1.238595889810e-03 2.354517143286e-04 0.0 
2.354517143286e-04 8.471121261651e-03 0.0 
0.0 0.0 -1.257517519450e-03 
-9.713207705103e-04 1.946323764392e-04 0.0 
1.946323764392e-04 6.442137433534e-03 0.0 
0.0 0.0 -9.749624431058e-04 
-5.981973631964e-04 1.879071448913e-04 0.0 
1.879071448913e-04 3.813329018576e-03 0.0 
0.0 0.0 -5.995223474422e-04 
-1.084348145166e-03 2.392214872560e-04 0.0 
2.392214872560e-04 7.212887026288e-03 0.0 
0.0 0.0 -1.082135573042e-03 
-8.219004318722e-04 -1.022855745570e-05 0.0 
-1.022855745570e-05 5.626191621956e-03 0.0 
0.0 0.0 -8.259898420369e-04 
-8.600931526372e-04 -1.614882484442e-04 0.0 
-1.614882484442e-04 5.932770930688e-03 0.0 
0.0 0.0 -8.838609275114e-04 
-1.235110349403e-03 -1.423085779250e-04 0.0 
-1.423085779250e-04 8.282740067778e-03 0.0 
0.0 0.0 -1.237791025003e-03 
-4.556209105529e-04 2.036420794211e-04 0.0 
2.036420794211e-04 2.823352627341e-03 0.0 
0.0 0.0 -4.583583101839e-04 
-7.508195319224e-04 1.853886358928e-04 0.0 
1.853886358928e-04 4.860963236206e-03 0.0 
0.0 0.0 -7.480401524272e-04 
-8.027906713221e-04 1.764875410810e-04 0.0 
1.764875410810e-04 5.221920557136e-03 0.0 
0.0 0.0 -7.988399675000e-04 
-1.007530328557e-03 -1.922336022122e-04 0.0 
-1.922336022122e-04 6.759039767951e-03 0.0 
0.0 0.0 -1.008548823165e-03 
-8.112396533280e-04 -1.820827880749e-04 0.0 
-1.820827880749e-04 5.334789694812e-03 0.0 
0.0 0.0 -8.035999206669e-04 
-7.424823838501e-04 -1.611951191526e-04 0.0 
-1.611951191526e-04 4.887914283700e-03 0.0 
0.0 0.0 -7.415510827328e-04 
-9.420049562243e-04 -1.980186569884e-04 0.0 
-1.980186569884e-04 6.275886053793e-03 0.0 
0.0 0.0 -9.414312740916e-04 
-1.106765657790e-03 -2.072912274522e-04 0.0 
-2.072912274522e-04 7.417848919971e-03 0.0 
0.0 0.0 -1.105110859848e-03 
-8.771550322174e-05 -5.128346968192e-06 0.0 
-5.128346968192e-06 5.622743997178e-04 0.0 
0.0 0.0 -1.015871403443e-04 
-4.452411510459e-04 1.078521059611e-04 0.0 
1.078521059611e-04 2.907946245103e-03 0.0 
0.0 0.0 -4.649757541953e-04 
-5.301149448616e-04 1.855290027466e-04 0.0 
1.855290027466e-04 3.290005967673e-03 0.0 
0.0 0.0 -5.249394872960e-04 
-7.215069587739e-04 -1.794285911688e-04 0.0 
-1.794285911688e-04 4.739905292165e-03 0.0 
0.0 0.0 -7.181710532390e-04 
-1.095309768585e-03 -2.099324022586e-04 0.0 
-2.099324022586e-04 7.373113916822e-03 0.0 
0.0 0.0 -1.095076276885e-03 
-2.412241836646e-04 1.824271338482e-04 0.0 
1.824271338482e-04 1.391269291466e-03 0.0 
0.0 0.0 -2.576475407671e-04 
-1.042666947128e-03 -2.211661748355e-04 0.0 
-2.211661748355e-04 6.991049176526e-03 0.0 
0.0 0.0 -1.043355442177e-03 
-7.709980970027e-04 -2.344526007543e-04 0.0 
-2.344526007543e-04 5.001364750652e-03 0.0 
0.0 0.0 -7.763349569542e-04 
-5.598484848317e-04 1.964216387432e-04 0.0 
1.964216387432e-04 3.545883977613e-03 0.0 
0.0 0.0 -5.576783925304e-04 
-1.005904581142e-03 -2.103129090371e-04 0.0 
-2.103129090371e-04 6.739916943409e-03 0.0 
0.0 0.0 -1.006238978475e-03 
-1.328137378895e-04 -1.926409820627e-04 0.0 
-1.926409820627e-04 5.524811366157e-04 0.0 
0.0 0.0 -1.250635456846e-04 
-1.037748486931e-03 2.025826416298e-04 0.0 
2.025826416298e-04 6.894254509779e-03 0.0 
0.0 0.0 -1.040010908530e-03 
-9.586550230840e-05 6.862947183813e-05 0.0 
6.862947183813e-05 5.313753155375e-04 0.0 
0.0 0.0 -1.007187892234e-04 
-1.713724236673e-04 -5.327399001740e-06 0.0 
-5.327399001740e-06 7.517172537926e-04 0.0 
0.0 0.0 -1.819418517600e-04 
-2.796122854916e-04 2.316565417801e-04 0.0 
2.316565417801e-04 1.675994704223e-03 0.0 
0.0 0.0 -2.873666149908e-04 
-3.926605428350e-04 1.733428287043e-04 0.0 
1.733428287043e-04 2.352552718651e-03 0.0 
0.0 0.0 -3.935955730116e-04 
-1.073504857728e-03 -1.857694457952e-04 0.0 
-1.857694457952e-04 7.207934761623e-03 0.0 
0.0 0.0 -1.073797489760e-03 
-3.651136453237e-04 -1.928839212764e-04 0.0 
-1.928839212764e-04 2.293609592088e-03 0.0 
0.0 0.0 -3.637595386041e-04 
-3.442210319021e-04 1.764997975595e-04 0.0 
1.764997975595e-04 2.032847714738e-03 0.0 
0.0 0.0 -3.432832105208e-04 
-2.910729329918e-04 -1.809308260193e-04 0.0 
-1.809308260193e-04 1.763076573158e-03 0.0 
0.0 0.0 -2.922710279673e-04 
-2.622356291375e-04 1.892606687832e-04 0.0 
1.892606687832e-04 1.448318780246e-03 0.0 
0.0 0.0 -2.614315927221e-04 
-1.120397219207e-03 1.996859117335e-04 0.0 
1.996859117335e-04 7.447331785752e-03 0.0 
0.0 0.0 -1.117524173959e-03 
-7.717946648580e-04 -1.881039575464e-04 0.0 
-1.881039575464e-04 5.076611576995e-03 0.0 
0.0 0.0 -7.687972329812e-04 
-1.256202704630e-03 2.478526914498e-04 0.0 
2.478526914498e-04 8.487594918351e-03 0.0 
0.0 0.0 -1.256743614961e-03 
0.0 0.0 0.0 
0.0 0.0 0.0 
0.0 0.0 0.0 
-4.048716956913e-04 1.853052298050e-04 0.0 
1.853052298050e-04 2.461420572415e-03 0.0 
0.0 0.0 -4.044045206172e-04 
-6.239445424560e-04 2.046361178611e-04 0.0 
2.046361178611e-04 3.992995746549e-03 0.0 
0.0 0.0 -6.230907113744e-04 
-5.740868944919e-04 1.850315981272e-04 0.0 
1.850315981272e-04 3.613473978480e-03 0.0 
0.0 0.0 -5.709397776106e-04 
-1.047068133195e-03 2.230470659994e-04 0.0 
2.230470659994e-04 6.949500072304e-03 0.0 
0.0 0.0 -1.045235091131e-03 
-1.285400109254e-03 1.957478292084e-04 0.0 
1.957478292084e-04 8.698618921316e-03 0.0 
0.0 0.0 -1.275930989368e-03 
-1.029713153133e-03 -2.056143237118e-04 0.0 
-2.056143237118e-04 6.913851891301e-03 0.0 
0.0 0.0 -1.029499106509e-03 
-4.579566149125e-04 -1.884217374257e-04 0.0 
-1.884217374257e-04 2.912212194121e-03 0.0 
0.0 0.0 -4.564841486881e-04 
-1.120831572504e-03 -1.912348279818e-04 0.0 
-1.912348279818e-04 7.467678576310e-03 0.0 
0.0 0.0 -1.116166892424e-03 
-9.572670568062e-04 2.571263954151e-04 0.0 
2.571263954151e-04 6.316374419588e-03 0.0 
0.0 0.0 -9.512440159151e-04 
-7.570218913511e-04 -1.787629418728e-04 0.0 
-1.787629418728e-04 4.987297939344e-03 0.0 
0.0 0.0 -7.537083776970e-04 
-9.994998658216e-04 2.045048337302e-04 0.0 
2.045048337302e-04 6.629510214408e-03 0.0 
0.0 0.0 -1.003200534345e-03 
-1.242505065463e-03 -1.591232809489e-04 0.0 
-1.591232809489e-04 8.294319035880e-03 0.0 
0.0 0.0 -1.239730878702e-03 
-6.222328359965e-04 -2.058351298643e-04 0.0 
-2.058351298643e-04 4.057741749781e-03 0.0 
0.0 0.0 -6.206208101913e-04 
-3.761575650769e-04 -1.711217870112e-04 0.0 
-1.711217870112e-04 2.346047162404e-03 0.0 
0.0 0.0 -3.752687577596e-04 
-8.718273414275e-04 -1.903070125199e-04 0.0 
-1.903070125199e-04 5.767456116596e-03 0.0 
0.0 0.0 -8.662621843288e-04 
-1.329807574370e-03 9.926374614624e-05 0.0 
9.926374614624e-05 9.094631735092e-03 0.0 
0.0 0.0 -1.323568725688e-03 
-7.473763321356e-04 -1.878290917317e-04 0.0 
-1.878290917317e-04 4.922460573442e-03 0.0 
0.0 0.0 -7.453270327203e-04 
-7.780710127091e-04 -1.914920916378e-04 0.0 
-1.914920916378e-04 5.142441463468e-03 0.0 
0.0 0.0 -7.768443034385e-04 
-8.403853568470e-04 -5.224028630894e-05 0.0 
-5.224028630894e-05 5.665674692091e-03 0.0 
0.0 0.0 -8.293613651800e-04 
-2.119957057011e-04 -1.175361575481e-04 0.0 
-1.175361575481e-04 1.307524346165e-03 0.0 
0.0 0.0 -2.161141481901e-04 
-8.208799096498e-04 1.843133829192e-04 0.0 
1.843133829192e-04 5.271529166893e-03 0.0 
0.0 0.0 -8.060563724883e-04 
-4.603670611930e-04 1.877974414593e-04 0.0 
1.877974414593e-04 2.847786037855e-03 0.0 
0.0 0.0 -4.590591740919e-04 
-3.265147701176e-04 1.754702989644e-04 0.0 
1.754702989644e-04 1.892353118097e-03 0.0 
0.0 0.0 -3.229397045850e-04 
-2.372523115321e-04 -1.920097841935e-04 0.0 
-1.920097841935e-04 1.297568945568e-03 0.0 
0.0 0.0 -2.426597671045e-04 
-1.076566808285e-03 1.948027566312e-04 0.0 
1.948027566312e-04 7.152792080089e-03 0.0 
0.0 0.0 -1.075985979751e-03 
-8.366892688468e-04 -1.821112197860e-04 0.0 
-1.821112197860e-04 5.525859000099e-03 0.0 
0.0 0.0 -8.312490730234e-04 
-5.408471440859e-04 1.787636598149e-04 0.0 
1.787636598149e-04 3.420100638870e-03 0.0 
0.0 0.0 -5.429493831729e-04 
-1.110558394075e-03 -1.920281890811e-04 0.0 
-1.920281890811e-04 7.461731149687e-03 0.0 
0.0 0.0 -1.109763131677e-03 
-1.054698518121e-03 -2.087025362573e-04 0.0 
-2.087025362573e-04 7.108835153234e-03 0.0 
0.0 0.0 -1.057773507355e-03 
-7.924197653506e-04 -1.785979394266e-04 0.0 
-1.785979394266e-04 5.231483760846e-03 0.0 
0.0 0.0 -7.887050335656e-04 
-1.257903229921e-03 7.567368571964e-05 0.0 
7.567368571964e-05 8.498216080292e-03 0.0 
0.0 0.0 -1.288412101370e-03 
-8.091181034430e-04 1.931976365146e-04 0.0 
1.931976365146e-04 5.284760522789e-03 0.0 
0.0 0.0 -8.078958932737e-04 
-8.263277637736e-04 -1.832084157210e-04 0.0 
-1.832084157210e-04 5.471677470531e-03 0.0 
0.0 0.0 -8.238265297874e-04 
-6.650106902351e-04 -1.791010150322e-04 0.0 
-1.791010150322e-04 4.378261468460e-03 0.0 
0.0 0.0 -6.656476441012e-04 
-8.423857986255e-04 -1.986818351390e-04 0.0 
-1.986818351390e-04 5.587318921638e-03 0.0 
0.0 0.0 -8.413031780454e-04 
-3.899474951329e-04 1.915304819262e-04 0.0 
1.915304819262e-04 2.337472328750e-03 0.0 
0.0 0.0 -3.865807678710e-04 
-8.089876515703e-04 4.490290024569e-05 0.0 
4.490290024569e-05 5.014601975749e-03 0.0 
0.0 0.0 -7.898058234521e-04 
-6.502027287348e-04 -1.918500009786e-04 0.0 
-1.918500009786e-04 4.255074906530e-03 0.0 
0.0 0.0 -6.486359607860e-04 
-4.676332506753e-04 -1.907969004762e-04 0.0 
-1.907969004762e-04 2.994133619140e-03 0.0 
0.0 0.0 -4.681053320140e-04 
-1.032293230965e-03 1.946996800783e-04 0.0 
1.946996800783e-04 6.836459352288e-03 0.0 
0.0 0.0 -1.032318248600e-03 
-4.933492965949e-05 -2.981330854880e-05 0.0 
-2.981330854880e-05 2.232237160484e-04 0.0 
0.0 0.0 -4.491607815645e-05 
-8.460396934351e-04 -1.994951239521e-04 0.0 
-1.994951239521e-04 5.571843201912e-03 0.0 
0.0 0.0 -8.386390795737e-04 
-4.884576987714e-04 1.904916551126e-04 0.0 
1.904916551126e-04 3.043938579203e-03 0.0 
0.0 0.0 -4.870240021111e-04 
-4.011070509712e-04 -1.789938708172e-04 0.0 
-1.789938708172e-04 2.527031405991e-03 0.0 
0.0 0.0 -4.015254440178e-04 
-3.881231226590e-04 -1.849728275912e-04 0.0 
-1.849728275912e-04 2.413136850469e-03 0.0 
0.0 0.0 -3.834586606452e-04 
-9.010939454830e-04 1.820631251065e-04 0.0 
1.820631251065e-04 5.900115668490e-03 0.0 
0.0 0.0 -8.965110541436e-04 
-1.535639171870e-04 -1.171137565838e-04 0.0 
-1.171137565838e-04 9.290832055632e-04 0.0 
0.0 0.0 -1.609926926485e-04 
-5.642000446768e-04 1.829010286562e-04 0.0 
1.829010286562e-04 3.554613982315e-03 0.0 
0.0 0.0 -5.613503766092e-04 
-8.738800955345e-04 1.908997098881e-04 0.0 
1.908997098881e-04 5.736495439307e-03 0.0 
0.0 0.0 -8.726802719924e-04 
-8.424168210172e-04 1.809379834970e-04 0.0 
1.809379834970e-04 5.460364861261e-03 0.0 
0.0 0.0 -8.336838631977e-04 
-8.483140592107e-04 -2.570000340280e-05 0.0 
-2.570000340280e-05 5.646419876325e-03 0.0 
0.0 0.0 -8.301023967811e-04 
-2.301022018194e-04 1.896537110150e-04 0.0 
1.896537110150e-04 1.205962353600e-03 0.0 
0.0 0.0 -2.187087652219e-04 
-4.708793642351e-04 1.959468275412e-04 0.0 
1.959468275412e-04 2.928096743676e-03 0.0 
0.0 0.0 -4.706942212664e-04 
-4.339228685620e-04 -2.028732675090e-04 0.0 
-2.028732675090e-04 2.736979889631e-03 0.0 
0.0 0.0 -4.311372127493e-04 
-4.979504220915e-04 -1.685324817791e-04 0.0 
-1.685324817791e-04 3.206245351086e-03 0.0 
0.0 0.0 -4.957039317942e-04 
-1.001539925556e-03 -2.124102205074e-04 0.0 
-2.124102205074e-04 6.704131800771e-03 0.0 
0.0 0.0 -1.000663671924e-03 
-5.607402459633e-04 -1.707949003296e-04 0.0 
-1.707949003296e-04 3.631087283813e-03 0.0 
0.0 0.0 -5.577786207633e-04 
-6.163072057110e-04 1.894419522333e-04 0.0 
1.894419522333e-04 3.933506140839e-03 0.0 
0.0 0.0 -6.151539951222e-04 
-5.883906607910e-04 1.932241182488e-04 0.0 
1.932241182488e-04 3.740119885148e-03 0.0 
0.0 0.0 -5.868308051845e-04 
-2.691521273047e-04 -2.036688762201e-04 0.0 
-2.036688762201e-04 1.523725894567e-03 0.0 
0.0 0.0 -2.530049833111e-04 
-6.958714508921e-04 1.979801814588e-04 0.0 
1.979801814588e-04 4.490850522134e-03 0.0 
0.0 0.0 -6.959382511914e-04 
-2.861043400586e-04 -1.894415141014e-04 0.0 
-1.894415141014e-04 1.663430798726e-03 0.0 
0.0 0.0 -2.788248838327e-04 
-1.306755613337e-03 -2.610599304158e-06 0.0 
-2.610599304158e-06 9.100164486650e-03 0.0 
0.0 0.0 -1.321446319728e-03 
-1.339174511630e-03 -2.960517267119e-05 0.0 
-2.960517267119e-05 9.091242340448e-03 0.0 
0.0 0.0 -1.318029376683e-03 
-7.775136936643e-04 1.870350143581e-04 0.0 
1.870350143581e-04 5.054396183358e-03 0.0 
0.0 0.0 -7.755312068111e-04 
-4.251819947504e-04 1.895457374981e-04 0.0 
1.895457374981e-04 2.596133538266e-03 0.0 
0.0 0.0 -4.232985079168e-04 
-3.648329347482e-04 -1.837358985601e-04 0.0 
-1.837358985601e-04 2.280199425849e-03 0.0 
0.0 0.0 -3.659709354871e-04 
-8.573750887322e-04 1.858228230961e-04 0.0 
1.858228230961e-04 5.602884265534e-03 0.0 
0.0 0.0 -8.539191708180e-04 
-3.949528212466e-04 -1.886728582840e-04 0.0 
-1.886728582840e-04 2.475291397225e-03 0.0 
0.0 0.0 -3.930530440640e-04 
-4.332493895502e-04 1.980298907227e-04 0.0 
1.980298907227e-04 2.665937605433e-03 0.0 
0.0 0.0 -4.339875075689e-04 
-7.596321613464e-04 1.775287963431e-04 0.0 
1.775287963431e-04 4.918201734153e-03 0.0 
0.0 0.0 -7.563811545761e-04 
-1.287984799363e-03 -3.860068533034e-05 0.0 
-3.860068533034e-05 8.730948327736e-03 0.0 
0.0 0.0 -1.266640259566e-03 
-5.240495846064e-04 1.944963688322e-04 0.0 
1.944963688322e-04 3.293655739786e-03 0.0 
0.0 0.0 -5.226246958029e-04 
-9.447998235248e-04 1.960929665842e-04 0.0 
1.960929665842e-04 6.232881478096e-03 0.0 
0.0 0.0 -9.428115367422e-04 
-3.107562741713e-04 1.824587312734e-04 0.0 
1.824587312734e-04 1.780558679157e-03 0.0 
0.0 0.0 -3.076624342134e-04 
-1.311994729519e-03 7.493212939932e-06 0.0 
7.493212939932e-06 9.101970930917e-03 0.0 
0.0 0.0 -1.322863172658e-03 
-3.967767638388e-04 1.868417767076e-04 0.0 
1.868417767076e-04 2.404071077719e-03 0.0 
0.0 0.0 -3.959736908235e-04 
-7.861913752228e-04 1.858440032300e-04 0.0 
1.858440032300e-04 5.109311146391e-03 0.0 
0.0 0.0 -7.835188407615e-04 
-2.939612478103e-04 2.069489564745e-04 0.0 
2.069489564745e-04 1.627899719100e-03 0.0 
0.0 0.0 -2.855287480241e-04 
-9.209672284179e-04 1.890725882863e-04 0.0 
1.890725882863e-04 6.061382275032e-03 0.0 
0.0 0.0 -9.211625808215e-04 
-6.527425537756e-04 1.919833722786e-04 0.0 
1.919833722786e-04 4.182126969127e-03 0.0 
0.0 0.0 -6.516619296807e-04 
-4.643737788932e-04 1.911497819079e-04 0.0 
1.911497819079e-04 2.873282577301e-03 0.0 
0.0 0.0 -4.625367401933e-04 
-8.005133107045e-04 -1.849372706410e-04 0.0 
-1.849372706410e-04 5.279390117932e-03 0.0 
0.0 0.0 -7.963903837170e-04 
-1.325618080026e-03 -1.973193103071e-05 0.0 
-1.973193103071e-05 9.091764273344e-03 0.0 
0.0 0.0 -1.324865334549e-03 
-5.527714494018e-04 1.888052696333e-04 0.0 
1.888052696333e-04 3.488692206257e-03 0.0 
0.0 0.0 -5.510338386786e-04 
-8.711724193672e-04 -1.970525444520e-04 0.0 
-1.970525444520e-04 5.796794660819e-03 0.0 
0.0 0.0 -8.703234504572e-04 
-3.052115937338e-04 -1.690052037768e-04 0.0 
-1.690052037768e-04 1.853679927901e-03 0.0 
0.0 0.0 -3.041533380166e-04 
-9.585285003453e-04 2.099575339622e-04 0.0 
2.099575339622e-04 6.326919234623e-03 0.0 
0.0 0.0 -9.576894438039e-04 
-1.007861502229e-03 2.071557397888e-04 0.0 
2.071557397888e-04 6.684066242240e-03 0.0 
0.0 0.0 -1.008345180213e-03 
-4.131133098155e-04 -1.786065448845e-04 0.0 
-1.786065448845e-04 2.602572281114e-03 0.0 
0.0 0.0 -4.109515902261e-04 
-9.327998617517e-04 -1.874311411832e-04 0.0 
-1.874311411832e-04 6.181670543660e-03 0.0 
0.0 0.0 -9.257128893455e-04 
-1.323570257858e-03 1.323150738931e-05 0.0 
1.323150738931e-05 9.099733073090e-03 0.0 
0.0 0.0 -1.322580803729e-03 
-1.076618962997e-03 1.898018198415e-04 0.0 
1.898018198415e-04 7.144327477010e-03 0.0 
0.0 0.0 -1.075861678316e-03 
-1.321614991336e-03 -1.713273005328e-05 0.0 
-1.713273005328e-05 9.105058184061e-03 0.0 
0.0 0.0 -1.322091174222e-03 
-9.079440508185e-04 -2.097847460126e-04 0.0 
-2.097847460126e-04 6.119714420928e-03 0.0 
0.0 0.0 -9.196498359204e-04 
-1.050990778737e-03 -1.886314367516e-04 0.0 
-1.886314367516e-04 7.044669431277e-03 0.0 
0.0 0.0 -1.048263655743e-03 
-3.511245847016e-04 -1.953891657847e-04 0.0 
-1.953891657847e-04 2.144448464187e-03 0.0 
0.0 0.0 -3.491910591611e-04 
-7.374872672360e-04 -1.803640936936e-04 0.0 
-1.803640936936e-04 4.844525720206e-03 0.0 
0.0 0.0 -7.343713905235e-04 
-8.293244045422e-04 1.837550643811e-04 0.0 
1.837550643811e-04 5.409584064822e-03 0.0 
0.0 0.0 -8.263924940540e-04 
-8.620298851759e-04 -1.867239000812e-04 0.0 
-1.867239000812e-04 5.715504193618e-03 0.0 
0.0 0.0 -8.589723558544e-04 
-7.110415388042e-04 -1.855413705945e-04 0.0 
-1.855413705945e-04 4.678427107823e-03 0.0 
0.0 0.0 -7.101745248689e-04 
-1.326686360805e-03 -1.171732242917e-05 0.0 
-1.171732242917e-05 9.109208916885e-03 0.0 
0.0 0.0 -1.322334986692e-03 
-8.655458594579e-04 1.438711959111e-04 0.0 
1.438711959111e-04 5.877137978370e-03 0.0 
0.0 0.0 -8.810748613436e-04 
-7.842175920213e-04 -1.730041151838e-04 0.0 
-1.730041151838e-04 5.148772658244e-03 0.0 
0.0 0.0 -7.763708431881e-04 
-5.855858139709e-04 -1.935639285694e-04 0.0 
-1.935639285694e-04 3.803586164403e-03 0.0 
0.0 0.0 -5.843899590101e-04 
-3.295388154563e-04 1.889565951280e-04 0.0 
1.889565951280e-04 1.906230365352e-03 0.0 
0.0 0.0 -3.280768480529e-04 
-7.085854070096e-04 -1.812057133811e-04 0.0 
-1.812057133811e-04 4.648076014877e-03 0.0 
0.0 0.0 -7.069124235890e-04 
-4.422183154956e-04 1.870641756049e-04 0.0 
1.870641756049e-04 2.708861584455e-03 0.0 
0.0 0.0 -4.404772202000e-04 
-7.723719974628e-04 -4.140062150847e-05 0.0 
-4.140062150847e-05 5.256708913763e-03 0.0 
0.0 0.0 -7.696142143080e-04 
-4.606920221105e-04 -1.852355893198e-04 0.0 
-1.852355893198e-04 2.942829590752e-03 0.0 
0.0 0.0 -4.595640944490e-04 
-5.214756889107e-04 -1.931035456200e-04 0.0 
-1.931035456200e-04 3.354332559651e-03 0.0 
0.0 0.0 -5.202658224677e-04 
-1.068256360121e-03 2.066714883779e-04 0.0 
2.066714883779e-04 7.094366600133e-03 0.0 
0.0 0.0 -1.069052450572e-03 
-4.377877323945e-04 -1.833633178395e-04 0.0 
-1.833633178395e-04 2.778061496653e-03 0.0 
0.0 0.0 -4.372567615832e-04 
-7.685639283948e-04 1.832765112525e-04 0.0 
1.832765112525e-04 4.976704183313e-03 0.0 
0.0 0.0 -7.640689829422e-04 
-9.023009032283e-04 1.879763697979e-04 0.0 
1.879763697979e-04 5.928541464362e-03 0.0 
0.0 0.0 -9.014246907137e-04 
-8.033627654917e-04 1.978900666673e-04 0.0 
1.978900666673e-04 5.248675409053e-03 0.0 
0.0 0.0 -8.035328976187e-04 
-1.305960172853e-03 -2.095892658959e-06 0.0 
-2.095892658959e-06 9.102496999303e-03 0.0 
0.0 0.0 -1.324762665914e-03 
-6.445820078637e-04 -1.678202773937e-04 0.0 
-1.678202773937e-04 4.194265313441e-03 0.0 
0.0 0.0 -6.390224077203e-04 
-4.435428954873e-04 1.964051911317e-04 0.0 
1.964051911317e-04 2.726576725320e-03 0.0 
0.0 0.0 -4.422638729430e-04 
-5.680634224624e-04 -1.789976648693e-04 0.0 
-1.789976648693e-04 3.709617648682e-03 0.0 
0.0 0.0 -5.691257024010e-04 
-4.282333792407e-04 -1.482446945053e-04 0.0 
-1.482446945053e-04 2.644915346169e-03 0.0 
0.0 0.0 -4.184705811166e-04 
-4.155606553471e-04 1.953855919425e-04 0.0 
1.953855919425e-04 2.537485002560e-03 0.0 
0.0 0.0 -4.141309408042e-04 
-1.124019592153e-03 -2.007331567345e-04 0.0 
-2.007331567345e-04 7.565647962713e-03 0.0 
0.0 0.0 -1.123886314723e-03 
-8.186901870458e-04 -1.867352575881e-04 0.0 
-1.867352575881e-04 5.417532343351e-03 0.0 
0.0 0.0 -8.161479701220e-04 
-5.717796681143e-04 -1.878963187406e-04 0.0 
-1.878963187406e-04 3.680777609877e-03 0.0 
0.0 0.0 -5.672387349321e-04 
-7.059258560287e-04 1.849400511517e-04 0.0 
1.849400511517e-04 4.547028472385e-03 0.0 
0.0 0.0 -7.023794137935e-04 
-1.322670125945e-03 2.313222592220e-05 0.0 
2.313222592220e-05 9.105794211902e-03 0.0 
0.0 0.0 -1.320675234999e-03 
-1.261246667212e-03 -1.446740378059e-04 0.0 
-1.446740378059e-04 8.590068615086e-03 0.0 
0.0 0.0 -1.258064670439e-03 
-1.122100566517e-03 1.986464603035e-04 0.0 
1.986464603035e-04 7.484284741315e-03 0.0 
0.0 0.0 -1.126590436115e-03 
-1.036201990782e-03 -1.951775890561e-04 0.0 
-1.951775890561e-04 6.963709654535e-03 0.0 
0.0 0.0 -1.037522200811e-03 
-7.719052834795e-04 -1.888501304091e-04 0.0 
-1.888501304091e-04 5.114447170550e-03 0.0 
0.0 0.0 -7.721428985420e-04 
-5.862259843954e-04 -1.794669617907e-04 0.0 
-1.794669617907e-04 3.806767764826e-03 0.0 
0.0 0.0 -5.842812205453e-04 
-4.235649518209e-04 -1.883881554872e-04 0.0 
-1.883881554872e-04 2.667804805964e-03 0.0 
0.0 0.0 -4.203166018451e-04 
-4.860729007889e-04 -1.885252844673e-04 0.0 
-1.885252844673e-04 3.110387779236e-03 0.0 
0.0 0.0 -4.843489805398e-04 
-7.832353818819e-04 -1.822378049693e-04 0.0 
-1.822378049693e-04 5.173491727743e-03 0.0 
0.0 0.0 -7.808727949117e-04 
-8.901416230107e-04 -1.942852983017e-04 0.0 
-1.942852983017e-04 5.937129717394e-03 0.0 
0.0 0.0 -8.900964085843e-04 
-6.791455967190e-04 -1.986004150700e-04 0.0 
-1.986004150700e-04 4.477294610112e-03 0.0 
0.0 0.0 -6.810091006415e-04 
-1.137984490542e-03 2.026763925672e-04 0.0 
2.026763925672e-04 7.560494271962e-03 0.0 
0.0 0.0 -1.134236807130e-03 
-4.390058928460e-04 -1.873042743236e-04 0.0 
-1.873042743236e-04 2.794180260139e-03 0.0 
0.0 0.0 -4.395655422792e-04 
-6.752152374307e-04 -1.860595742758e-04 0.0 
-1.860595742758e-04 4.431501668800e-03 0.0 
0.0 0.0 -6.750378637491e-04 
-7.938192706807e-04 1.817389384797e-04 0.0 
1.817389384797e-04 5.160116736331e-03 0.0 
0.0 0.0 -7.913284153978e-04 
-6.120290380758e-04 -1.961653994372e-04 0.0 
-1.961653994372e-04 3.987310124629e-03 0.0 
0.0 0.0 -6.122259156574e-04 
-1.301288756895e-03 -2.045275430418e-05 0.0 
-2.045275430418e-05 9.103514886723e-03 0.0 
0.0 0.0 -1.320088186226e-03 
-1.336559860406e-03 5.304668224227e-05 0.0 
5.304668224227e-05 9.092320412842e-03 0.0 
0.0 0.0 -1.318462653075e-03 
-1.241699233935e-03 -2.254253931460e-04 0.0 
-2.254253931460e-04 8.519567921102e-03 0.0 
0.0 0.0 -1.256494544188e-03 
-8.370305663977e-04 -1.942067132543e-04 0.0 
-1.942067132543e-04 5.564466733165e-03 0.0 
0.0 0.0 -8.375255977276e-04 
-1.112341827327e-03 1.928139267360e-04 0.0 
1.928139267360e-04 7.404901105712e-03 0.0 
0.0 0.0 -1.112065035246e-03 
-3.806812841048e-04 1.778946636946e-04 0.0 
1.778946636946e-04 2.279220825059e-03 0.0 
0.0 0.0 -3.785953687517e-04 
-5.494616984378e-04 -1.888416104626e-04 0.0 
-1.888416104626e-04 3.555923799118e-03 0.0 
0.0 0.0 -5.483018170244e-04 
-3.235962926905e-04 -1.736014947489e-04 0.0 
-1.736014947489e-04 1.973084689826e-03 0.0 
0.0 0.0 -3.192951451658e-04 
-5.963652417524e-04 -1.773931756756e-04 0.0 
-1.773931756756e-04 3.870665993091e-03 0.0 
0.0 0.0 -5.936226173563e-04 
-7.754418230907e-04 -1.787983897600e-05 0.0 
-1.787983897600e-05 4.998811631156e-03 0.0 
0.0 0.0 -7.914980036671e-04 
-9.191665137011e-04 2.140245341565e-04 0.0 
2.140245341565e-04 6.074527525348e-03 0.0 
0.0 0.0 -9.214502702889e-04 
-1.272306740568e-03 -2.183792906186e-06 0.0 
-2.183792906186e-06 8.701539900471e-03 0.0 
0.0 0.0 -1.265403586923e-03 
-1.115465796476e-03 2.144802209519e-04 0.0 
2.144802209519e-04 7.405352776166e-03 0.0 
0.0 0.0 -1.117224974728e-03 
-8.719756485576e-04 1.796746755415e-04 0.0 
1.796746755415e-04 5.704231125349e-03 0.0 
0.0 0.0 -8.687609488834e-04 
-8.934000445298e-04 1.842629385947e-04 0.0 
1.842629385947e-04 5.848617048582e-03 0.0 
0.0 0.0 -8.891947744737e-04 
-3.538517022684e-04 1.968822651903e-04 0.0 
1.968822651903e-04 2.082939193951e-03 0.0 
0.0 0.0 -3.496852078947e-04 
-1.730179310378e-04 3.799515299484e-05 0.0 
3.799515299484e-05 9.814996314958e-04 0.0 
0.0 0.0 -1.610244214183e-04 
-6.605957920443e-04 2.008091445531e-04 0.0 
2.008091445531e-04 4.241664916870e-03 0.0 
0.0 0.0 -6.594106982652e-04 
-7.382500259091e-04 -1.861061436275e-04 0.0 
-1.861061436275e-04 4.870305797290e-03 0.0 
0.0 0.0 -7.376142925499e-04 
-6.935826622016e-04 -1.974963449897e-04 0.0 
-1.974963449897e-04 4.557561403420e-03 0.0 
0.0 0.0 -6.931905564144e-04 
-1.927200046455e-04 1.907407866213e-04 0.0 
1.907407866213e-04 9.362068114562e-04 0.0 
0.0 0.0 -1.839988823918e-04 
-8.553897316391e-04 7.952460625498e-05 0.0 
7.952460625498e-05 5.374666730048e-03 0.0 
0.0 0.0 -8.462285223656e-04 
-3.012637912477e-04 -1.970081127766e-04 0.0 
-1.970081127766e-04 1.826424334369e-03 0.0 
0.0 0.0 -2.972104253142e-04 
-4.320291499202e-04 1.924639625951e-04 0.0 
1.924639625951e-04 2.652618994648e-03 0.0 
0.0 0.0 -4.314049239902e-04 
-1.341153861134e-03 -1.132581839007e-07 0.0 
-1.132581839007e-07 8.854160665758e-03 0.0 
0.0 0.0 -1.341153861134e-03 
-9.735832254612e-04 -2.032109106710e-04 0.0 
-2.032109106710e-04 6.501326132665e-03 0.0 
0.0 0.0 -9.717687626070e-04 
-8.038658590280e-04 1.841151985619e-04 0.0 
1.841151985619e-04 5.090192522503e-03 0.0 
0.0 0.0 -7.790007367612e-04 
-2.263569738136e-04 1.412068244863e-04 0.0 
1.412068244863e-04 1.378581130634e-03 0.0 
0.0 0.0 -2.176483604987e-04 
-7.148393686400e-04 1.885377903276e-04 0.0 
1.885377903276e-04 4.617805235716e-03 0.0 
0.0 0.0 -7.126719623954e-04 
-6.583475203356e-04 -2.044658051722e-04 0.0 
-2.044658051722e-04 4.303955154821e-03 0.0 
0.0 0.0 -6.569982659716e-04 
-8.980808506785e-04 -1.936520147712e-04 0.0 
-1.936520147712e-04 5.958242186783e-03 0.0 
0.0 0.0 -8.940630110299e-04 
-1.327874025612e-03 4.012442722696e-05 0.0 
4.012442722696e-05 9.098102111315e-03 0.0 
0.0 0.0 -1.323832587333e-03 
-7.403554818969e-04 1.844120078152e-04 0.0 
1.844120078152e-04 4.792048619543e-03 0.0 
0.0 0.0 -7.366500567795e-04 
-8.545868996671e-04 -1.887615407860e-04 0.0 
-1.887615407860e-04 5.662533660862e-03 0.0 
0.0 0.0 -8.513774089097e-04 
-6.818667097911e-04 1.958766515699e-04 0.0 
1.958766515699e-04 4.409131248910e-03 0.0 
0.0 0.0 -6.837695253815e-04 
-1.105187862003e-03 1.994006530663e-04 0.0 
1.994006530663e-04 7.356411437885e-03 0.0 
0.0 0.0 -1.105258581891e-03 
-8.686753316719e-04 1.961023377173e-04 0.0 
1.961023377173e-04 5.708119835605e-03 0.0 
0.0 0.0 -8.691653677727e-04 
-1.313443091824e-03 -8.681857321598e-06 0.0 
-8.681857321598e-06 9.107589922997e-03 0.0 
0.0 0.0 -1.322174839672e-03 
-1.340103718614e-03 2.441833226493e-06 0.0 
2.441833226493e-06 8.842216911178e-03 0.0 
0.0 0.0 -1.340103718614e-03 
-1.341028575724e-03 -6.698781680324e-06 0.0 
-6.698781680324e-06 8.834191149721e-03 0.0 
0.0 0.0 -1.341028575724e-03 
-1.338044909071e-03 -9.989699658942e-07 0.0 
-9.989699658942e-07 8.789076720715e-03 0.0 
0.0 0.0 -1.338044909071e-03 
-9.278953530001e-04 1.830493215192e-04 0.0 
1.830493215192e-04 6.094694774967e-03 0.0 
0.0 0.0 -9.244680137507e-04 
-1.104382085207e-03 -1.844352853963e-04 0.0 
-1.844352853963e-04 7.413030585339e-03 0.0 
0.0 0.0 -1.103002250422e-03 
-1.150866030357e-03 2.083921581833e-04 0.0 
2.083921581833e-04 7.696092280171e-03 0.0 
0.0 0.0 -1.155914796392e-03 
-6.164628833105e-04 2.031183267964e-04 0.0 
2.031183267964e-04 3.927882065764e-03 0.0 
0.0 0.0 -6.147330147620e-04 
-5.911685103850e-04 1.997096464783e-04 0.0 
1.997096464783e-04 3.740736628945e-03 0.0 
0.0 0.0 -5.872917534094e-04 
-6.414807696813e-04 -2.006380451048e-04 0.0 
-2.006380451048e-04 4.218783169969e-03 0.0 
0.0 0.0 -6.436934073013e-04 
-1.134641282245e-03 -2.006695635977e-04 0.0 
-2.006695635977e-04 7.623716292157e-03 0.0 
0.0 0.0 -1.131852245309e-03 
-1.324500994006e-03 -4.966854021231e-06 0.0 
-4.966854021231e-06 9.095768239117e-03 0.0 
0.0 0.0 -1.322440284024e-03 
-1.140227253108e-03 1.951224764733e-04 0.0 
1.951224764733e-04 7.603009729401e-03 0.0 
0.0 0.0 -1.141180801552e-03 
-9.080174246261e-04 -2.037707256769e-04 0.0 
-2.037707256769e-04 6.042971740774e-03 0.0 
0.0 0.0 -9.063345769726e-04 
-1.140612365318e-03 -1.825914620367e-04 0.0 
-1.825914620367e-04 7.661221724928e-03 0.0 
0.0 0.0 -1.138864741757e-03 
-9.895587303989e-04 -1.909996709669e-04 0.0 
-1.909996709669e-04 6.631323534056e-03 0.0 
0.0 0.0 -9.903545940741e-04 
-7.055944550106e-04 1.841650505337e-04 0.0 
1.841650505337e-04 4.559451876543e-03 0.0 
0.0 0.0 -7.049739924763e-04 
-6.005001548623e-04 1.754924819423e-04 0.0 
1.754924819423e-04 3.808564972462e-03 0.0 
0.0 0.0 -5.967387615352e-04 
-3.335508235583e-04 1.892926381390e-04 0.0 
1.892926381390e-04 1.961394351476e-03 0.0 
0.0 0.0 -3.333553686509e-04 
-1.287482303742e-03 9.400486473721e-05 0.0 
9.400486473721e-05 8.494651886701e-03 0.0 
0.0 0.0 -1.282213402295e-03 
-5.782088747012e-04 1.983174571352e-04 0.0 
1.983174571352e-04 3.685190236892e-03 0.0 
0.0 0.0 -5.792479259103e-04 
-1.207490032650e-03 -9.511693616601e-06 0.0 
-9.511693616601e-06 8.106813054446e-03 0.0 
0.0 0.0 -1.230767059693e-03 
-6.442432414831e-04 1.944206160730e-04 0.0 
1.944206160730e-04 4.149320661563e-03 0.0 
0.0 0.0 -6.465396845166e-04 
-4.198574354174e-04 -1.824962637456e-04 0.0 
-1.824962637456e-04 2.680260699037e-03 0.0 
0.0 0.0 -4.222915044375e-04 
-1.273602229187e-03 4.336342551855e-05 0.0 
4.336342551855e-05 8.460076842639e-03 0.0 
0.0 0.0 -1.284312900220e-03 
-4.687866799152e-04 1.866875104872e-04 0.0 
1.866875104872e-04 2.893520146276e-03 0.0 
0.0 0.0 -4.669824892858e-04 
-1.341987455608e-03 1.886578995433e-06 0.0 
1.886578995433e-06 8.838362897947e-03 0.0 
0.0 0.0 -1.341987455608e-03 
-1.296411374061e-03 -1.418949515449e-05 0.0 
-1.418949515449e-05 8.470243795444e-03 0.0 
0.0 0.0 -1.282654109251e-03 
-8.495078228820e-04 1.843107655011e-04 0.0 
1.843107655011e-04 5.547072023185e-03 0.0 
0.0 0.0 -8.462542048450e-04 
-9.255048927816e-05 -2.197953205394e-06 0.0 
-2.197953205394e-06 3.085086574748e-04 0.0 
0.0 0.0 -9.255350065570e-05 
-1.340954708391e-03 7.835804962273e-06 0.0 
7.835804962273e-06 8.838032502772e-03 0.0 
0.0 0.0 -1.340954708391e-03 
-1.280816053348e-03 -2.230055523915e-05 0.0 
-2.230055523915e-05 8.460310632468e-03 0.0 
0.0 0.0 -1.284661450484e-03 
-4.260944399251e-04 1.999732540104e-04 0.0 
1.999732540104e-04 2.608418284960e-03 0.0 
0.0 0.0 -4.253660281670e-04 
-9.365021749047e-04 -1.977008719716e-04 0.0 
-1.977008719716e-04 6.250684752616e-03 0.0 
0.0 0.0 -9.353130867196e-04 
-1.333005063589e-03 4.344781137131e-06 0.0 
4.344781137131e-06 9.114671664273e-03 0.0 
0.0 0.0 -1.323014926434e-03 
0.0 0.0 0.0 
0.0 0.0 0.0 
0.0 0.0 0.0 
-6.428281947913e-04 1.843362204219e-04 0.0 
1.843362204219e-04 4.123262309836e-03 0.0 
0.0 0.0 -6.425506931502e-04 
-8.851411761515e-04 1.851869312967e-04 0.0 
1.851869312967e-04 5.794563189636e-03 0.0 
0.0 0.0 -8.816033652580e-04 
-8.134395165507e-04 1.874953040299e-04 0.0 
1.874953040299e-04 5.300126487808e-03 0.0 
0.0 0.0 -8.109139232486e-04 
-8.225202755535e-04 1.881518984197e-04 0.0 
1.881518984197e-04 5.356080317152e-03 0.0 
0.0 0.0 -8.186613860469e-04 
-3.691769062860e-04 1.916815065321e-04 0.0 
1.916815065321e-04 2.210779207524e-03 0.0 
0.0 0.0 -3.689119447714e-04 
-1.341360672448e-03 -1.189443720157e-06 0.0 
-1.189443720157e-06 8.827889647213e-03 0.0 
0.0 0.0 -1.341360672448e-03 
-6.134329689946e-04 -1.902359328296e-04 0.0 
-1.902359328296e-04 4.002222739952e-03 0.0 
0.0 0.0 -6.123778370826e-04 
-2.202070906779e-04 -1.755376406008e-04 0.0 
-1.755376406008e-04 1.255756531969e-03 0.0 
0.0 0.0 -2.173296945085e-04 
-1.279142293538e-03 5.964349300567e-05 0.0 
5.964349300567e-05 8.727032320364e-03 0.0 
0.0 0.0 -1.272354826527e-03 
-1.022272037248e-04 4.922820238480e-06 0.0 
4.922820238480e-06 5.965869288915e-04 0.0 
0.0 0.0 -1.019437782286e-04 
-6.710661406479e-04 1.855097177597e-04 0.0 
1.855097177597e-04 4.303579593448e-03 0.0 
0.0 0.0 -6.678899790657e-04 
-2.300720776572e-04 1.212201240606e-05 0.0 
1.212201240606e-05 1.125450156733e-03 0.0 
0.0 0.0 -2.365401520142e-04 
-7.086437154644e-04 1.853452857980e-04 0.0 
1.853452857980e-04 4.588815352963e-03 0.0 
0.0 0.0 -7.094882865497e-04 
-1.317968381893e-03 -7.788542654235e-06 0.0 
-7.788542654235e-06 9.086616382280e-03 0.0 
0.0 0.0 -1.321823097425e-03 
-1.341255375116e-03 6.592408687492e-06 0.0 
6.592408687492e-06 8.854311445215e-03 0.0 
0.0 0.0 -1.341255375116e-03 
-8.673920198820e-04 1.847071888206e-04 0.0 
1.847071888206e-04 5.656037287956e-03 0.0 
0.0 0.0 -8.613793510407e-04 
-1.969643249741e-04 -2.643595705587e-05 0.0 
-2.643595705587e-05 7.486662135304e-04 0.0 
0.0 0.0 -1.793976806842e-04 
-1.826266447966e-04 1.955672024509e-04 0.0 
1.955672024509e-04 9.200601904339e-04 0.0 
0.0 0.0 -1.838036673156e-04 
-2.361898229358e-04 4.404631865774e-05 0.0 
4.404631865774e-05 1.375633081646e-03 0.0 
0.0 0.0 -2.179364692381e-04 
-1.125162068454e-03 -1.979567048055e-04 0.0 
-1.979567048055e-04 7.560228932207e-03 0.0 
0.0 0.0 -1.121833217354e-03 
-7.703836607526e-04 2.904011669621e-05 0.0 
2.904011669621e-05 5.271332940567e-03 0.0 
0.0 0.0 -7.704300227928e-04 
-8.168157235620e-04 -2.113983721696e-04 0.0 
-2.113983721696e-04 5.355765378531e-03 0.0 
0.0 0.0 -8.109332722942e-04 
-1.342502730507e-03 5.716067361742e-06 0.0 
5.716067361742e-06 8.856705817959e-03 0.0 
0.0 0.0 -1.342502730507e-03 
-7.906151483404e-04 -4.272528123306e-05 0.0 
-4.272528123306e-05 5.268742702063e-03 0.0 
0.0 0.0 -7.720444664677e-04 
-1.332977220355e-03 1.682402604841e-05 0.0 
1.682402604841e-05 9.104707937730e-03 0.0 
0.0 0.0 -1.322852565091e-03 
-1.019613459442e-03 1.919320256201e-04 0.0 
1.919320256201e-04 6.758525883042e-03 0.0 
0.0 0.0 -1.020998643257e-03 
-8.942284646778e-04 2.014665993212e-04 0.0 
2.014665993212e-04 5.869620442183e-03 0.0 
0.0 0.0 -8.907448815977e-04 
-4.710891496910e-04 1.816013443134e-04 0.0 
1.816013443134e-04 2.782078830397e-03 0.0 
0.0 0.0 -4.477608806526e-04 
-9.397641453592e-04 1.905534962229e-04 0.0 
1.905534962229e-04 6.187842394577e-03 0.0 
0.0 0.0 -9.378661514434e-04 
-2.865699781096e-04 -1.698301048615e-04 0.0 
-1.698301048615e-04 1.797113955835e-03 0.0 
0.0 0.0 -2.938158648993e-04 
-1.340754991027e-03 -4.752011562200e-06 0.0 
-4.752011562200e-06 8.857728678543e-03 0.0 
0.0 0.0 -1.340754991027e-03 
-1.339984467612e-03 2.292869316744e-05 0.0 
2.292869316744e-05 8.807369741469e-03 0.0 
0.0 0.0 -1.339984467612e-03 
-1.340417744004e-03 -2.214851180424e-05 0.0 
-2.214851180424e-05 8.828867002772e-03 0.0 
0.0 0.0 -1.340417744004e-03 
-8.660623943402e-04 -1.943286950290e-04 0.0 
-1.943286950290e-04 5.772294168294e-03 0.0 
0.0 0.0 -8.666500598261e-04 
-6.034856013850e-04 -2.033011263198e-04 0.0 
-2.033011263198e-04 3.957936150372e-03 0.0 
0.0 0.0 -6.062238016986e-04 
-7.026976706329e-04 -1.815126947841e-04 0.0 
-1.815126947841e-04 4.627441659305e-03 0.0 
0.0 0.0 -7.021192356133e-04 
-8.976477462119e-04 1.951708788181e-04 0.0 
1.951708788181e-04 5.904473226514e-03 0.0 
0.0 0.0 -8.981573260837e-04 
-1.339627896631e-03 3.612108462023e-06 0.0 
3.612108462023e-06 8.853033835610e-03 0.0 
0.0 0.0 -1.339627896631e-03 
-4.295950600907e-04 -1.875952713055e-04 0.0 
-1.875952713055e-04 2.717501457664e-03 0.0 
0.0 0.0 -4.287941800800e-04 
-4.990450639494e-04 1.934485922333e-04 0.0 
1.934485922333e-04 3.125390132284e-03 0.0 
0.0 0.0 -4.991860405784e-04 
-5.285799076226e-04 1.852384275300e-04 0.0 
1.852384275300e-04 3.322934541718e-03 0.0 
0.0 0.0 -5.272458293186e-04 
-9.298142287186e-04 1.923659803105e-04 0.0 
1.923659803105e-04 6.128652270364e-03 0.0 
0.0 0.0 -9.279583942085e-04 
-1.339074735525e-03 -2.462351465068e-05 0.0 
-2.462351465068e-05 9.096799452257e-03 0.0 
0.0 0.0 -1.323537156312e-03 
-1.500618556416e-04 1.939391886343e-05 0.0 
1.939391886343e-05 9.791726158994e-04 0.0 
0.0 0.0 -1.598254822437e-04 
-1.340775759057e-03 1.534669228243e-06 0.0 
1.534669228243e-06 8.827931576809e-03 0.0 
0.0 0.0 -1.340775759057e-03 
-4.918224965486e-04 1.956179793808e-04 0.0 
1.956179793808e-04 3.063033243647e-03 0.0 
0.0 0.0 -4.905422085546e-04 
-1.342877878941e-03 2.842270727739e-06 0.0 
2.842270727739e-06 8.853936486152e-03 0.0 
0.0 0.0 -1.342877878941e-03 
-1.156184618631e-03 -1.885719150537e-04 0.0 
-1.885719150537e-04 7.774113329411e-03 0.0 
0.0 0.0 -1.152765850879e-03 
-4.494164570379e-05 1.000468586638e-06 0.0 
1.000468586638e-06 2.551504228595e-04 0.0 
0.0 0.0 -4.576175375704e-05 
-6.699730055747e-04 1.872361539571e-04 0.0 
1.872361539571e-04 4.302808495342e-03 0.0 
0.0 0.0 -6.690559060524e-04 
-1.145839910847e-03 -1.986902778567e-04 0.0 
-1.986902778567e-04 7.714207575352e-03 0.0 
0.0 0.0 -1.146019594970e-03 
-1.341220131281e-03 -2.365934969506e-06 0.0 
-2.365934969506e-06 8.847703773833e-03 0.0 
0.0 0.0 -1.341220131281e-03 
-9.256050002818e-04 -1.923147081747e-04 0.0 
-1.923147081747e-04 6.153846390776e-03 0.0 
0.0 0.0 -9.220067723808e-04 
-1.050351148173e-03 1.970429468761e-04 0.0 
1.970429468761e-04 6.958336458839e-03 0.0 
0.0 0.0 -1.049000704964e-03 
-2.748725954193e-04 1.931705696150e-04 0.0 
1.931705696150e-04 1.524979906539e-03 0.0 
0.0 0.0 -2.717413095444e-04 
-1.208683908170e-03 6.230383996374e-06 0.0 
6.230383996374e-06 8.102506712124e-03 0.0 
0.0 0.0 -1.228682347183e-03 
-5.192327213783e-04 1.909614988804e-04 0.0 
1.909614988804e-04 3.260562468968e-03 0.0 
0.0 0.0 -5.184025592846e-04 
-5.248109421634e-04 -1.803408309234e-04 0.0 
-1.803408309234e-04 3.388681347671e-03 0.0 
0.0 0.0 -5.242929400402e-04 
-1.101238409147e-04 1.624386361106e-05 0.0 
1.624386361106e-05 6.254833965552e-04 0.0 
0.0 0.0 -1.042847928631e-04 
-1.341079611575e-03 1.268157797412e-06 0.0 
1.268157797412e-06 8.837798036775e-03 0.0 
0.0 0.0 -1.341079611575e-03 
-3.602734137550e-04 -1.850324683020e-04 0.0 
-1.850324683020e-04 2.230825920775e-03 0.0 
0.0 0.0 -3.564518745397e-04 
-1.109985979917e-03 -2.052345426402e-04 0.0 
-2.052345426402e-04 7.476883123942e-03 0.0 
0.0 0.0 -1.110501492391e-03 
-8.524872272040e-04 -2.315298743520e-04 0.0 
-2.315298743520e-04 5.680178330686e-03 0.0 
0.0 0.0 -8.555322119248e-04 
-4.402194268268e-04 -1.870881911232e-04 0.0 
-1.870881911232e-04 2.811358430466e-03 0.0 
0.0 0.0 -4.411586999297e-04 
-4.975783628974e-04 -1.914562144177e-04 0.0 
-1.914562144177e-04 3.191209784275e-03 0.0 
0.0 0.0 -4.964677435772e-04 
-8.901378245668e-04 -1.873561009025e-04 0.0 
-1.873561009025e-04 5.908561179355e-03 0.0 
0.0 0.0 -8.867075537039e-04 
-1.342259935407e-03 -1.718040054209e-05 0.0 
-1.718040054209e-05 8.855152000548e-03 0.0 
0.0 0.0 -1.342259935407e-03 
-6.396775884645e-04 1.886079041491e-04 0.0 
1.886079041491e-04 4.098241029371e-03 0.0 
0.0 0.0 -6.378868265889e-04 
-9.691742763952e-04 -2.019742400055e-04 0.0 
-2.019742400055e-04 6.483311990656e-03 0.0 
0.0 0.0 -9.693340058278e-04 
-8.041747505048e-04 1.863000233206e-04 0.0 
1.863000233206e-04 5.244246416890e-03 0.0 
0.0 0.0 -8.030799362305e-04 
-8.818155169255e-04 -1.886653253937e-04 0.0 
-1.886653253937e-04 5.877887840043e-03 0.0 
0.0 0.0 -8.811160271665e-04 
-5.320000478192e-04 -1.863752187475e-04 0.0 
-1.863752187475e-04 3.439757636019e-03 0.0 
0.0 0.0 -5.326451291888e-04 
-9.026994633866e-04 -1.977891108899e-04 0.0 
-1.977891108899e-04 6.021154653626e-03 0.0 
0.0 0.0 -9.031726653527e-04 
-7.735880944808e-04 -1.868485495488e-04 0.0 
-1.868485495488e-04 5.115539884918e-03 0.0 
0.0 0.0 -7.729461360948e-04 
-9.981479559481e-04 -1.963805187541e-04 0.0 
-1.963805187541e-04 6.683666354433e-03 0.0 
0.0 0.0 -9.982497011217e-04 
-1.004413229733e-03 1.912127845263e-04 0.0 
1.912127845263e-04 6.639387752267e-03 0.0 
0.0 0.0 -1.003134534203e-03 
-7.686187780918e-04 1.863311149204e-04 0.0 
1.863311149204e-04 4.996748422870e-03 0.0 
0.0 0.0 -7.676694601592e-04 
-6.531466934911e-04 1.957558291538e-04 0.0 
1.957558291538e-04 4.207071568820e-03 0.0 
0.0 0.0 -6.551190094499e-04 
-4.645380568116e-04 -1.828907984748e-04 0.0 
-1.828907984748e-04 2.961721166152e-03 0.0 
0.0 0.0 -4.640097282922e-04 
-6.064572421459e-04 1.910285411047e-04 0.0 
1.910285411047e-04 3.887705448155e-03 0.0 
0.0 0.0 -6.091269606258e-04 
-1.019361563877e-03 -1.903039724258e-04 0.0 
-1.903039724258e-04 6.831244999586e-03 0.0 
0.0 0.0 -1.018204129641e-03 
-8.373723247003e-04 1.874174193606e-04 0.0 
1.874174193606e-04 5.476720692713e-03 0.0 
0.0 0.0 -8.365169925761e-04 
-1.320520432489e-03 -2.623800515076e-05 0.0 
-2.623800515076e-05 9.107403832922e-03 0.0 
0.0 0.0 -1.321929620191e-03 
-1.169515206127e-03 -1.894067828278e-04 0.0 
-1.894067828278e-04 7.912550107300e-03 0.0 
0.0 0.0 -1.174325249119e-03 
-4.054788487746e-04 1.902250889252e-04 0.0 
1.902250889252e-04 2.477005508034e-03 0.0 
0.0 0.0 -4.069995479128e-04 
-1.341047338368e-03 6.114097105095e-06 0.0 
6.114097105095e-06 8.810414551587e-03 0.0 
0.0 0.0 -1.341047338368e-03 
-1.246442799579e-03 -7.048165356566e-06 0.0 
-7.048165356566e-06 8.701531217890e-03 0.0 
0.0 0.0 -1.266414110344e-03 
-7.243231333997e-04 1.855217411942e-04 0.0 
1.855217411942e-04 4.688371918965e-03 0.0 
0.0 0.0 -7.237787631415e-04 
-9.766466055395e-05 -9.527665079749e-06 0.0 
-9.527665079749e-06 3.256739367155e-04 0.0 
0.0 0.0 -9.771826121210e-05 
-1.305508824941e-03 3.853404293042e-06 0.0 
3.853404293042e-06 9.105182867572e-03 0.0 
0.0 0.0 -1.323469717371e-03 
-1.171509388478e-03 -1.678154851062e-04 0.0 
-1.678154851062e-04 7.861802012676e-03 0.0 
0.0 0.0 -1.167157861819e-03 
-4.521694521811e-04 2.012915858521e-04 0.0 
2.012915858521e-04 2.804008720375e-03 0.0 
0.0 0.0 -4.535238702637e-04 
-1.341709311524e-03 -1.310979986681e-05 0.0 
-1.310979986681e-05 8.829628018658e-03 0.0 
0.0 0.0 -1.341709311524e-03 
-9.320413057689e-04 -1.962162649741e-04 0.0 
-1.962162649741e-04 6.231458751848e-03 0.0 
0.0 0.0 -9.325599965574e-04 
-6.268046795761e-04 1.808345467381e-04 0.0 
1.808345467381e-04 3.989844982223e-03 0.0 
0.0 0.0 -6.229492605273e-04 
-8.398341044078e-04 1.726875732327e-04 0.0 
1.726875732327e-04 5.514357495571e-03 0.0 
0.0 0.0 -8.408860858065e-04 
-8.060358487985e-04 -1.972435935582e-04 0.0 
-1.972435935582e-04 5.343400692596e-03 0.0 
0.0 0.0 -8.054665293395e-04 
-8.004419744920e-04 -1.952463938328e-04 0.0 
-1.952463938328e-04 5.314426112526e-03 0.0 
0.0 0.0 -8.008683130455e-04 
-9.182717976000e-04 -1.896493216882e-04 0.0 
-1.896493216882e-04 6.134019344384e-03 0.0 
0.0 0.0 -9.181754741429e-04 
-9.700343521080e-04 -1.978951788456e-04 0.0 
-1.978951788456e-04 6.510189924062e-03 0.0 
0.0 0.0 -9.721028620036e-04 
-6.977402691426e-04 1.822093202730e-04 0.0 
1.822093202730e-04 4.487185732323e-03 0.0 
0.0 0.0 -6.945885048819e-04 
-1.040005538332e-03 1.990021927622e-04 0.0 
1.990021927622e-04 6.900874594821e-03 0.0 
0.0 0.0 -1.039409037654e-03 
-8.975501320031e-04 -2.506583898403e-05 0.0 
-2.506583898403e-05 6.020256954512e-03 0.0 
0.0 0.0 -8.839498032872e-04 
-6.495260709226e-04 -1.944699442281e-04 0.0 
-1.944699442281e-04 4.277277504375e-03 0.0 
0.0 0.0 -6.521967345917e-04 
-9.682052284533e-04 1.865606736300e-04 0.0 
1.865606736300e-04 6.381518702333e-03 0.0 
0.0 0.0 -9.664699797409e-04 
-5.143750252184e-04 -1.778295084177e-04 0.0 
-1.778295084177e-04 3.324024151635e-03 0.0 
0.0 0.0 -5.155438399970e-04 
-9.088890292892e-04 1.918794185101e-04 0.0 
1.918794185101e-04 5.978978740211e-03 0.0 
0.0 0.0 -9.093720595694e-04 
-5.184917320349e-05 -5.023579163687e-06 0.0 
-5.023579163687e-06 2.615427770040e-04 0.0 
0.0 0.0 -4.585464485956e-05 
-5.019069719293e-04 -1.730390890633e-04 0.0 
-1.730390890633e-04 3.221983585288e-03 0.0 
0.0 0.0 -4.997308803768e-04 
-4.873333685601e-04 -1.811613926647e-04 0.0 
-1.811613926647e-04 3.131270652529e-03 0.0 
0.0 0.0 -4.875765080988e-04 
-7.115036268068e-04 1.928847685253e-04 0.0 
1.928847685253e-04 4.611615726792e-03 0.0 
0.0 0.0 -7.126562430122e-04 
-7.596608402965e-04 1.884583179830e-04 0.0 
1.884583179830e-04 4.937228765552e-03 0.0 
0.0 0.0 -7.595228636782e-04 
-9.346957466835e-04 1.973754267299e-04 0.0 
1.973754267299e-04 6.167461615292e-03 0.0 
0.0 0.0 -9.350600278798e-04 
-8.902631525084e-04 -1.867681813361e-04 0.0 
-1.867681813361e-04 5.973122971149e-03 0.0 
0.0 0.0 -8.962969588583e-04 
-4.491438895741e-04 -1.869760147925e-04 0.0 
-1.869760147925e-04 2.875737731611e-03 0.0 
0.0 0.0 -4.505554202764e-04 
-1.341827844788e-03 5.881319465549e-06 0.0 
5.881319465549e-06 8.853598786661e-03 0.0 
0.0 0.0 -1.341827844788e-03 
-8.819043585380e-04 -1.894669265129e-04 0.0 
-1.894669265129e-04 5.856756576790e-03 0.0 
0.0 0.0 -8.789935771182e-04 
-7.395748600622e-04 1.939731217691e-04 0.0 
1.939731217691e-04 4.808423671935e-03 0.0 
0.0 0.0 -7.413896480605e-04 
-8.456344442179e-04 -1.866159444843e-04 0.0 
-1.866159444843e-04 5.609212261315e-03 0.0 
0.0 0.0 -8.436662038215e-04 
-7.098621749807e-04 -1.956105885315e-04 0.0 
-1.956105885315e-04 4.679646247114e-03 0.0 
0.0 0.0 -7.098625721847e-04 
0.0 0.0 0.0 
0.0 0.0 0.0 
0.0 0.0 0.0 
-8.787853985480e-04 -1.870345829221e-04 0.0 
-1.870345829221e-04 5.815290073788e-03 0.0 
0.0 0.0 -8.733545218784e-04 
-6.014622352257e-04 2.088026922776e-04 0.0 
2.088026922776e-04 3.826503758406e-03 0.0 
0.0 0.0 -5.956302995864e-04 
0.0 0.0 0.0 
0.0 0.0 0.0 
0.0 0.0 0.0 
-7.014361857610e-04 2.031970023559e-04 0.0 
2.031970023559e-04 4.544280328863e-03 0.0 
0.0 0.0 -7.041275119738e-04 
-1.001578329479e-03 1.949348082253e-04 0.0 
1.949348082253e-04 6.625301000394e-03 0.0 
0.0 0.0 -1.001254648526e-03 
-1.145850176714e-03 1.952473198253e-04 0.0 
1.952473198253e-04 7.640587141445e-03 0.0 
0.0 0.0 -1.146946825052e-03 
-8.534899184109e-04 -1.900750659177e-04 0.0 
-1.900750659177e-04 5.682294137051e-03 0.0 
0.0 0.0 -8.532270185794e-04 
-8.843005196868e-04 1.891738523445e-04 0.0 
1.891738523445e-04 5.802847869315e-03 0.0 
0.0 0.0 -8.841559964380e-04 
-7.498668879057e-04 -1.500423199849e-04 0.0 
-1.500423199849e-04 4.956000169468e-03 0.0 
0.0 0.0 -7.495231765994e-04 
-7.499562203702e-04 -7.649065135971e-06 0.0 
-7.649065135971e-06 4.585920683461e-03 0.0 
0.0 0.0 -7.312625299844e-04 
-1.259814766287e-03 -2.251942805194e-05 0.0 
-2.251942805194e-05 8.482919934012e-03 0.0 
0.0 0.0 -1.286111585339e-03 
-8.096577215198e-04 -1.889624871779e-04 0.0 
-1.889624871779e-04 5.361431513159e-03 0.0 
0.0 0.0 -8.082854548548e-04 
-2.601123029567e-05 -8.443429959340e-06 0.0 
-8.443429959340e-06 2.242861713756e-04 0.0 
0.0 0.0 -4.535587742227e-05 
-2.679801948708e-04 -1.979252069442e-04 0.0 
-1.979252069442e-04 1.544873028567e-03 0.0 
0.0 0.0 -2.569639750501e-04 
-9.553383276929e-05 -1.682092997355e-05 0.0 
-1.682092997355e-05 3.188442541892e-04 0.0 
0.0 0.0 -9.570446632282e-05 
-4.265759374031e-04 -1.588061750624e-04 0.0 
-1.588061750624e-04 2.743578014402e-03 0.0 
0.0 0.0 -4.284133232656e-04 
-1.136810990824e-03 -2.050532392671e-04 0.0 
-2.050532392671e-04 7.627868260152e-03 0.0 
0.0 0.0 -1.134523071099e-03 
-1.147232605264e-03 -1.988471843747e-04 0.0 
-1.988471843747e-04 7.696346442353e-03 0.0 
0.0 0.0 -1.144649651339e-03 
-1.090721102207e-03 1.927119379258e-04 0.0 
1.927119379258e-04 7.225314130525e-03 0.0 
0.0 0.0 -1.087427768671e-03 
-4.794185500659e-04 -1.949320750669e-04 0.0 
-1.949320750669e-04 3.096205477872e-03 0.0 
0.0 0.0 -4.827803379924e-04 
-9.064466102036e-04 -1.951694302264e-04 0.0 
-1.951694302264e-04 6.052913189119e-03 0.0 
0.0 0.0 -9.063168105749e-04 
-1.135504702689e-03 1.907792817820e-04 0.0 
1.907792817820e-04 7.600364314815e-03 0.0 
0.0 0.0 -1.142106164841e-03 
-2.788698608245e-04 -1.715069773271e-04 0.0 
-1.715069773271e-04 1.706769297964e-03 0.0 
0.0 0.0 -2.821198837983e-04 
-5.962549057611e-04 -2.242943986441e-04 0.0 
-2.242943986441e-04 3.850260609285e-03 0.0 
0.0 0.0 -5.942115541274e-04 
-4.821057558984e-04 1.938812463927e-04 0.0 
1.938812463927e-04 3.093517382699e-03 0.0 
0.0 0.0 -4.980019828625e-04 
-1.334956243324e-03 1.593537991863e-05 0.0 
1.593537991863e-05 9.100113722888e-03 0.0 
0.0 0.0 -1.322396863610e-03 
-1.341641872583e-03 -1.598087186617e-05 0.0 
-1.598087186617e-05 8.845353034364e-03 0.0 
0.0 0.0 -1.341641872583e-03 
-6.679494605951e-04 -1.695756001761e-04 0.0 
-1.695756001761e-04 4.277020538631e-03 0.0 
0.0 0.0 -6.580288049735e-04 
-7.324961324261e-04 -1.951613493016e-04 0.0 
-1.951613493016e-04 4.877737690436e-03 0.0 
0.0 0.0 -7.385580096348e-04 
-8.320090833607e-04 1.945702263430e-04 0.0 
1.945702263430e-04 5.445258436908e-03 0.0 
0.0 0.0 -8.323457052078e-04 
-1.163041303964e-03 1.778772476614e-04 0.0 
1.778772476614e-04 7.881722024609e-03 0.0 
0.0 0.0 -1.177278300149e-03 
-2.899237030429e-04 1.996200503921e-04 0.0 
1.996200503921e-04 1.630038568431e-03 0.0 
0.0 0.0 -2.880367495917e-04 
-1.101530990218e-03 1.937554819911e-04 0.0 
1.937554819911e-04 7.342981690998e-03 0.0 
0.0 0.0 -1.104707344597e-03 
-1.602377275385e-04 3.299975488627e-05 0.0 
3.299975488627e-05 1.021185104458e-03 0.0 
0.0 0.0 -1.612556504808e-04 
-6.771993620365e-04 -1.961964403489e-04 0.0 
-1.961964403489e-04 4.422374575330e-03 0.0 
0.0 0.0 -6.724657308136e-04 
-7.463531003114e-04 -1.974750822578e-04 0.0 
-1.974750822578e-04 4.938620865557e-03 0.0 
0.0 0.0 -7.470513223636e-04 
-9.733051936618e-05 1.431354683527e-05 0.0 
1.431354683527e-05 3.247181541799e-04 0.0 
0.0 0.0 -9.745184349161e-05 
-6.107893375519e-04 1.961955655377e-04 0.0 
1.961955655377e-04 4.041501780347e-03 0.0 
0.0 0.0 -6.267591816330e-04 
-1.179150888516e-03 1.722766776771e-04 0.0 
1.722766776771e-04 7.845621701176e-03 0.0 
0.0 0.0 -1.176862138969e-03 
-5.380435756070e-05 -4.751466869097e-06 0.0 
-4.751466869097e-06 2.532858114077e-04 0.0 
0.0 0.0 -4.590328595372e-05 
-7.312532489837e-04 1.362386611746e-05 0.0 
1.362386611746e-05 4.573834094121e-03 0.0 
0.0 0.0 -7.322753781719e-04 
-7.047922472484e-04 1.123922026654e-06 0.0 
1.123922026654e-06 4.847576831705e-03 0.0 
0.0 0.0 -7.130472889423e-04 
-9.547380700052e-04 -1.945366017599e-04 0.0 
-1.945366017599e-04 6.390005998802e-03 0.0 
0.0 0.0 -9.552000144736e-04 
-4.877659469443e-04 -1.909239420502e-04 0.0 
-1.909239420502e-04 3.137535928941e-03 0.0 
0.0 0.0 -4.943513106837e-04 
-4.803168808599e-04 1.981666947026e-04 0.0 
1.981666947026e-04 2.999843219209e-03 0.0 
0.0 0.0 -4.817493388239e-04 
-3.413576717745e-04 -1.696251700452e-04 0.0 
-1.696251700452e-04 2.103971295735e-03 0.0 
0.0 0.0 -3.398054741319e-04 
-1.177842708252e-03 1.745516882077e-04 0.0 
1.745516882077e-04 7.866046843566e-03 0.0 
0.0 0.0 -1.180895453064e-03 
-1.288113258455e-03 -7.910099866472e-06 0.0 
-7.910099866472e-06 8.468043511099e-03 0.0 
0.0 0.0 -1.286194385238e-03 
-1.101033919243e-03 -1.960948394901e-04 0.0 
-1.960948394901e-04 7.394725323298e-03 0.0 
0.0 0.0 -1.101088927253e-03 
-4.503494869687e-04 -1.637033152419e-04 0.0 
-1.637033152419e-04 2.832512250195e-03 0.0 
0.0 0.0 -4.457015571677e-04 
-2.141424004699e-04 2.387020000873e-04 0.0 
2.387020000873e-04 9.652683007765e-04 0.0 
0.0 0.0 -1.905831712289e-04 
-7.028954825783e-04 -1.797251013725e-04 0.0 
-1.797251013725e-04 4.605141056062e-03 0.0 
0.0 0.0 -6.999131133628e-04 
-7.213924053115e-04 -5.563189413670e-07 0.0 
-5.563189413670e-07 4.593100885078e-03 0.0 
0.0 0.0 -7.345111139194e-04 
-7.221802994753e-04 -3.459116523951e-05 0.0 
-3.459116523951e-05 4.860709319501e-03 0.0 
0.0 0.0 -7.144802219086e-04 
0.0 0.0 0.0 
0.0 0.0 0.0 
0.0 0.0 0.0 
-9.462674636508e-05 9.391315588449e-06 0.0 
9.391315588449e-06 3.155479012844e-04 0.0 
0.0 0.0 -9.468049496542e-05 
-1.889846684321e-04 -5.120829147043e-05 0.0 
-5.120829147043e-05 7.312686420689e-04 0.0 
0.0 0.0 -1.795416262981e-04 
-3.813293178289e-04 1.993773121020e-04 0.0 
1.993773121020e-04 2.301443442693e-03 0.0 
0.0 0.0 -3.820941496288e-04 
-1.147287239146e-04 2.233479330516e-06 0.0 
2.233479330516e-06 6.267336868547e-04 0.0 
0.0 0.0 -1.035694276016e-04 
-7.177698882456e-04 1.875976177193e-04 0.0 
1.875976177193e-04 4.537921580666e-03 0.0 
0.0 0.0 -6.918148876825e-04 
0.0 0.0 0.0 
0.0 0.0 0.0 
0.0 0.0 0.0 
-4.466789787722e-04 2.025807610902e-04 0.0 
2.025807610902e-04 2.763058809203e-03 0.0 
0.0 0.0 -4.482372226011e-04 
-9.484602570363e-04 5.937741420738e-05 0.0 
5.937741420738e-05 6.186307546056e-03 0.0 
0.0 0.0 -9.582560723523e-04 
-7.114040901391e-04 1.008097673958e-05 0.0 
1.008097673958e-05 4.858827396879e-03 0.0 
0.0 0.0 -7.120344407548e-04 
-1.154819602250e-03 -2.018660896654e-04 0.0 
-2.018660896654e-04 7.854075905782e-03 0.0 
0.0 0.0 -1.169483110168e-03 
-9.636351090388e-04 1.953512484906e-04 0.0 
1.953512484906e-04 6.363047776900e-03 0.0 
0.0 0.0 -9.641449249716e-04 
-9.024629704430e-04 7.830558015855e-05 0.0 
7.830558015855e-05 5.773999043953e-03 0.0 
0.0 0.0 -8.988447104697e-04 
-5.248669465082e-04 2.030027087803e-04 0.0 
2.030027087803e-04 3.352814556998e-03 0.0 
0.0 0.0 -5.269378630653e-04 
-1.557908844091e-04 -1.426598337885e-05 0.0 
-1.426598337885e-05 1.017280518651e-03 0.0 
0.0 0.0 -1.602995255322e-04 
-1.340974968048e-03 -2.076763454684e-05 0.0 
-2.076763454684e-05 8.825339797415e-03 0.0 
0.0 0.0 -1.340974968048e-03 
-1.331740677566e-03 -1.067318438994e-06 0.0 
-1.067318438994e-06 9.107204473734e-03 0.0 
0.0 0.0 -1.320295381545e-03 
-8.482992821085e-04 2.310186269769e-04 0.0 
2.310186269769e-04 5.616583664962e-03 0.0 
0.0 0.0 -8.588387843224e-04 
-7.462574470129e-04 -7.506809615133e-06 0.0 
-7.506809615133e-06 4.590636784032e-03 0.0 
0.0 0.0 -7.326073368542e-04 
-5.251543525855e-04 -1.205978746021e-04 0.0 
-1.205978746021e-04 3.428806267579e-03 0.0 
0.0 0.0 -5.314511797787e-04 
-1.323491096028e-03 -2.283744003806e-05 0.0 
-2.283744003806e-05 9.085754239402e-03 0.0 
0.0 0.0 -1.322576402756e-03 
-4.157468964118e-04 -1.918553564633e-04 0.0 
-1.918553564633e-04 2.636700862140e-03 0.0 
0.0 0.0 -4.166600706249e-04 
-7.057672473389e-04 -4.164103403377e-06 0.0 
-4.164103403377e-06 4.837446989167e-03 0.0 
0.0 0.0 -7.125614225629e-04 
-7.131316839303e-04 7.226971892511e-06 0.0 
7.226971892511e-06 4.584933787265e-03 0.0 
0.0 0.0 -7.312775522649e-04 
-6.769264019625e-04 1.800240141216e-04 0.0 
1.800240141216e-04 4.359211225871e-03 0.0 
0.0 0.0 -6.755779900756e-04 
-1.341823989366e-03 -1.865391509118e-05 0.0 
-1.865391509118e-05 8.857424336763e-03 0.0 
0.0 0.0 -1.341823989366e-03 
-1.293765856573e-03 1.607380559237e-05 0.0 
1.607380559237e-05 9.094492997413e-03 0.0 
0.0 0.0 -1.322582685247e-03 
-1.126722208426e-04 6.998488737317e-06 0.0 
6.998488737317e-06 6.134703062311e-04 0.0 
0.0 0.0 -1.035688293187e-04 
0.0 0.0 0.0 
0.0 0.0 0.0 
0.0 0.0 0.0 
-2.390355384623e-04 1.936491639954e-04 0.0 
1.936491639954e-04 1.192457136132e-03 0.0 
0.0 0.0 -2.221130066924e-04 
-7.484754656573e-04 1.958621454920e-04 0.0 
1.958621454920e-04 4.871290639516e-03 0.0 
0.0 0.0 -7.497705102653e-04 
-1.223848934685e-03 2.347738204730e-04 0.0 
2.347738204730e-04 8.231542695031e-03 0.0 
0.0 0.0 -1.224669017856e-03 
-3.851215442265e-05 -6.758275575605e-05 0.0 
-6.758275575605e-05 2.149841041377e-04 0.0 
0.0 0.0 -4.506945562690e-05 
-1.095035538177e-03 -2.135230687798e-04 0.0 
-2.135230687798e-04 7.297496536284e-03 0.0 
0.0 0.0 -1.092518628634e-03 
0.0 0.0 0.0 
0.0 0.0 0.0 
0.0 0.0 0.0 
-9.497696422961e-04 1.942166615207e-04 0.0 
1.942166615207e-04 6.260470679264e-03 0.0 
0.0 0.0 -9.493083249531e-04 
-6.288110034395e-05 6.701081411356e-06 0.0 
6.701081411356e-06 2.758850751309e-04 0.0 
0.0 0.0 -4.591043399908e-05 
-6.241905191399e-05 -2.511621330169e-05 0.0 
-2.511621330169e-05 2.635940123717e-04 0.0 
0.0 0.0 -4.615290204994e-05 
-9.135771074388e-04 1.942985431381e-04 0.0 
1.942985431381e-04 6.003773453710e-03 0.0 
0.0 0.0 -9.122568895951e-04 
-1.191044637578e-03 1.954606753199e-04 0.0 
1.954606753199e-04 7.975629465802e-03 0.0 
0.0 0.0 -1.192963836147e-03 
-9.353430265021e-04 -9.437658603170e-05 0.0 
-9.437658603170e-05 6.401376295666e-03 0.0 
0.0 0.0 -9.361271490834e-04 
-7.292657224304e-04 -1.767865209209e-04 0.0 
-1.767865209209e-04 4.795789678295e-03 0.0 
0.0 0.0 -7.268406435589e-04 
-9.710718174901e-05 -1.358771368786e-05 0.0 
-1.358771368786e-05 3.239463226278e-04 0.0 
0.0 0.0 -9.721677466234e-05 
-9.353638871596e-04 -1.962742580693e-04 0.0 
-1.962742580693e-04 6.250401807132e-03 0.0 
0.0 0.0 -9.349022313484e-04 
-1.337797817327e-03 -2.530827551252e-05 0.0 
-2.530827551252e-05 8.814034455446e-03 0.0 
0.0 0.0 -1.337797817327e-03 
-1.326036287352e-03 -1.455315038833e-04 0.0 
-1.455315038833e-04 9.082015863418e-03 0.0 
0.0 0.0 -1.322354755130e-03 
-7.123437340294e-04 1.173862101606e-05 0.0 
1.173862101606e-05 4.855322276952e-03 0.0 
0.0 0.0 -7.125764448434e-04 
-9.860203699540e-04 1.899915039945e-04 0.0 
1.899915039945e-04 6.516626141222e-03 0.0 
0.0 0.0 -9.863757069361e-04 
-1.341607717199e-03 1.356557150833e-05 0.0 
1.356557150833e-05 8.840587029738e-03 0.0 
0.0 0.0 -1.341607717199e-03 
-1.048314093038e-03 -2.082351981234e-04 0.0 
-2.082351981234e-04 7.019832661667e-03 0.0 
0.0 0.0 -1.046710270629e-03 
-1.675301838823e-04 4.109428891396e-05 0.0 
4.109428891396e-05 9.648536059596e-04 0.0 
0.0 0.0 -1.589907658001e-04 
-1.067672517152e-04 -9.583258243249e-06 0.0 
-9.583258243249e-06 6.200113654204e-04 0.0 
0.0 0.0 -1.029725306715e-04 
-1.028842676796e-04 -4.314994342259e-05 0.0 
-4.314994342259e-05 3.453649952318e-04 0.0 
0.0 0.0 -1.039203118081e-04 
-5.871622493136e-04 1.953666188975e-04 0.0 
1.953666188975e-04 3.814212399552e-03 0.0 
0.0 0.0 -5.933358154923e-04 
-1.333672766825e-03 -1.202212504052e-04 0.0 
-1.202212504052e-04 9.086271765214e-03 0.0 
0.0 0.0 -1.322828574513e-03 
-1.249098589656e-03 -2.325383237371e-04 0.0 
-2.325383237371e-04 8.487130897030e-03 0.0 
0.0 0.0 -1.258329778789e-03 
0.0 0.0 0.0 
0.0 0.0 0.0 
0.0 0.0 0.0 
-6.989700289776e-04 -1.857489314676e-04 0.0 
-1.857489314676e-04 4.509333602690e-03 0.0 
0.0 0.0 -6.938761155152e-04 
-1.344798314369e-03 5.494387484637e-06 0.0 
5.494387484637e-06 8.860415151620e-03 0.0 
0.0 0.0 -1.344798314369e-03 
-1.337322942170e-03 3.677431177350e-05 0.0 
3.677431177350e-05 9.118625106116e-03 0.0 
0.0 0.0 -1.318785251170e-03 
-1.303755075695e-03 1.430690451440e-06 0.0 
1.430690451440e-06 9.096198326928e-03 0.0 
0.0 0.0 -1.321151187552e-03 
-1.034449558172e-03 2.142439693304e-04 0.0 
2.142439693304e-04 6.840882471351e-03 0.0 
0.0 0.0 -1.027148381742e-03 
-1.117879717661e-03 -2.162737768218e-04 0.0 
-2.162737768218e-04 7.549121072969e-03 0.0 
0.0 0.0 -1.125709525796e-03 
-1.338030260144e-03 -6.968280175079e-06 0.0 
-6.968280175079e-06 8.819304319896e-03 0.0 
0.0 0.0 -1.338030260144e-03 
-1.340754991027e-03 -2.793160050154e-05 0.0 
-2.793160050154e-05 8.842227493663e-03 0.0 
0.0 0.0 -1.340754991027e-03 
-1.084387157107e-03 1.756228747119e-04 0.0 
1.756228747119e-04 7.304356114432e-03 0.0 
0.0 0.0 -1.092518628634e-03 
-2.311762207506e-05 7.524747598176e-05 0.0 
7.524747598176e-05 1.841595127811e-04 0.0 
0.0 0.0 -4.541545915403e-05 
-7.129930244863e-04 -1.525724795116e-06 0.0 
-1.525724795116e-06 4.814692496190e-03 0.0 
0.0 0.0 -7.139539158865e-04 
-7.213897068280e-04 3.016260299782e-05 0.0 
3.016260299782e-05 4.878464797693e-03 0.0 
0.0 0.0 -7.133642253441e-04 
0.0 0.0 0.0 
0.0 0.0 0.0 
0.0 0.0 0.0 
-1.342313591240e-03 1.055329185638e-05 0.0 
1.055329185638e-05 8.873951644270e-03 0.0 
0.0 0.0 -1.342313591240e-03 
-1.336661786254e-03 2.540411115353e-05 0.0 
2.540411115353e-05 9.107640988403e-03 0.0 
0.0 0.0 -1.318355947622e-03 
-1.337959751097e-03 6.489046299868e-07 0.0 
6.489046299868e-07 8.814031058647e-03 0.0 
0.0 0.0 -1.337959751097e-03 
-6.887950874124e-05 7.326700540873e-06 0.0 
7.326700540873e-06 2.659430667850e-04 0.0 
0.0 0.0 -4.582974829071e-05 
-7.021790639444e-05 9.602649528326e-06 0.0 
9.602649528326e-06 2.736498867396e-04 0.0 
0.0 0.0 -4.591370119938e-05 
-1.340754991027e-03 -1.163411170853e-06 0.0 
-1.163411170853e-06 8.829041487509e-03 0.0 
0.0 0.0 -1.340754991027e-03 
-1.340396196526e-03 -2.044778395459e-05 0.0 
-2.044778395459e-05 8.820055094331e-03 0.0 
0.0 0.0 -1.340396196526e-03 
-1.016763022878e-03 -2.313272643621e-04 0.0 
-2.313272643621e-04 6.613286649783e-03 0.0 
0.0 0.0 -9.936726122374e-04 
-7.156761650400e-04 3.174630435051e-05 0.0 
3.174630435051e-05 4.813106322843e-03 0.0 
0.0 0.0 -7.124851972278e-04 
-1.051691578887e-03 -2.268729750205e-04 0.0 
-2.268729750205e-04 7.069453692283e-03 0.0 
0.0 0.0 -1.060142436171e-03 
-8.856361613045e-04 -2.246794552562e-04 0.0 
-2.246794552562e-04 5.656932423438e-03 0.0 
0.0 0.0 -8.626607521899e-04 
-6.974461573379e-04 1.315776503887e-05 0.0 
1.315776503887e-05 4.815685979733e-03 0.0 
0.0 0.0 -7.121912678902e-04 
-3.076401957522e-05 3.630205513184e-05 0.0 
3.630205513184e-05 2.492584121326e-04 0.0 
0.0 0.0 -4.495577515415e-05 
-4.859098010839e-05 -3.737210181647e-05 0.0 
-3.737210181647e-05 2.860304098853e-04 0.0 
0.0 0.0 -4.591167563965e-05 
-3.185160578243e-05 -1.142237180323e-05 0.0 
-1.142237180323e-05 2.469612253318e-04 0.0 
0.0 0.0 -4.589015575604e-05 
-4.731421252786e-05 -1.226097571219e-05 0.0 
-1.226097571219e-05 2.659450080895e-04 0.0 
0.0 0.0 -4.556578909549e-05 
-7.410966517880e-04 2.317413733404e-04 0.0 
2.317413733404e-04 4.761489269815e-03 0.0 
0.0 0.0 -7.271325101417e-04 
-6.567236663823e-04 2.031409226008e-04 0.0 
2.031409226008e-04 4.278704049819e-03 0.0 
0.0 0.0 -6.600769387058e-04 
0.0 0.0 0.0 
0.0 0.0 0.0 
0.0 0.0 0.0 
-9.198692932468e-04 2.207519103488e-04 0.0 
2.207519103488e-04 6.164531821473e-03 0.0 
0.0 0.0 -9.221709323543e-04 
0.0 0.0 0.0 
0.0 0.0 0.0 
0.0 0.0 0.0 
-1.341471640605e-03 5.425770365487e-06 0.0 
5.425770365487e-06 8.820837432317e-03 0.0 
0.0 0.0 -1.341471640605e-03 
-1.340968685557e-03 1.249741243790e-05 0.0 
1.249741243790e-05 8.807656416615e-03 0.0 
0.0 0.0 -1.340968685557e-03 
-1.339320413496e-03 -6.736119072763e-06 0.0 
-6.736119072763e-06 8.832654043149e-03 0.0 
0.0 0.0 -1.339320413496e-03 
-2.516213945074e-04 2.377641770174e-04 0.0 
2.377641770174e-04 1.477950192533e-03 0.0 
0.0 0.0 -2.599136149544e-04 
-4.499622910390e-04 2.064665423492e-04 0.0 
2.064665423492e-04 2.879856921820e-03 0.0 
0.0 0.0 -4.607467809507e-04 
-1.337132911908e-03 -4.793528436990e-06 0.0 
-4.793528436990e-06 8.820087587172e-03 0.0 
0.0 0.0 -1.337132911908e-03 
-1.120160542764e-03 1.885503644173e-04 0.0 
1.885503644173e-04 7.560722239950e-03 0.0 
0.0 0.0 -1.124956933753e-03 
-1.344556937803e-03 -2.104246713846e-05 0.0 
-2.104246713846e-05 8.860523593132e-03 0.0 
0.0 0.0 -1.344556937803e-03 
-1.195658010449e-03 2.008624552429e-04 0.0 
2.008624552429e-04 8.028011251528e-03 0.0 
0.0 0.0 -1.192538251246e-03 
-1.264541089761e-03 2.315838415430e-04 0.0 
2.315838415430e-04 8.498729307699e-03 0.0 
0.0 0.0 -1.259905836238e-03 
-6.219774932840e-04 -2.035330289393e-04 0.0 
-2.035330289393e-04 4.041759494414e-03 0.0 
0.0 0.0 -6.267460875326e-04 
-1.333336577702e-03 -3.290028368553e-05 0.0 
-3.290028368553e-05 9.106230716714e-03 0.0 
0.0 0.0 -1.318101597465e-03 
-1.336001964470e-03 1.162172730560e-04 0.0 
1.162172730560e-04 9.090958479552e-03 0.0 
0.0 0.0 -1.321689849711e-03 
-1.157015842751e-03 -2.064363215114e-04 0.0 
-2.064363215114e-04 7.737243073859e-03 0.0 
0.0 0.0 -1.157495185000e-03 
-1.229671491752e-03 -2.051129200289e-04 0.0 
-2.051129200289e-04 8.228478437854e-03 0.0 
0.0 0.0 -1.225777420818e-03 
-9.871372975694e-04 -1.866548184674e-04 0.0 
-1.866548184674e-04 6.644402027939e-03 0.0 
0.0 0.0 -9.925156490314e-04 
0.0 0.0 0.0 
0.0 0.0 0.0 
0.0 0.0 0.0 
-6.525071487266e-04 -2.022287068404e-04 0.0 
-2.022287068404e-04 4.165983179946e-03 0.0 
0.0 0.0 -6.350241097613e-04 
-1.062777711571e-04 -2.500028508467e-05 0.0 
-2.500028508467e-05 5.975407209184e-04 0.0 
0.0 0.0 -1.030398215525e-04 
-1.177532662352e-03 -1.733616004670e-04 0.0 
-1.733616004670e-04 7.926724853394e-03 0.0 
0.0 0.0 -1.177819030284e-03 
-6.744770170931e-04 1.928269940396e-04 0.0 
1.928269940396e-04 4.352241427477e-03 0.0 
0.0 0.0 -6.753691525988e-04 
-1.095781442937e-03 1.863762097668e-04 0.0 
1.863762097668e-04 7.297090200674e-03 0.0 
0.0 0.0 -1.099016898379e-03 
-3.528730048209e-04 -1.946361167357e-04 0.0 
-1.946361167357e-04 2.176757571714e-03 0.0 
0.0 0.0 -3.504775146279e-04 
-1.550760112035e-04 1.206598951617e-04 0.0 
1.206598951617e-04 7.508446244134e-04 0.0 
0.0 0.0 -1.735952156319e-04 
-1.160601579575e-03 -1.894710886425e-04 0.0 
-1.894710886425e-04 7.820833929289e-03 0.0 
0.0 0.0 -1.161668299909e-03 
-6.889768412053e-04 -1.975061828768e-04 0.0 
-1.975061828768e-04 4.617261067584e-03 0.0 
0.0 0.0 -7.012080445024e-04 
-5.762009062567e-04 2.005988488917e-04 0.0 
2.005988488917e-04 3.584897669436e-03 0.0 
0.0 0.0 -5.611363230934e-04 
-1.093490207039e-03 -1.909491051748e-04 0.0 
-1.909491051748e-04 7.367841895943e-03 0.0 
0.0 0.0 -1.096102707776e-03 
-1.178635420303e-03 1.949598249272e-04 0.0 
1.949598249272e-04 7.912911661083e-03 0.0 
0.0 0.0 -1.188907866872e-03 
-5.561658818215e-04 -2.031625025719e-04 0.0 
-2.031625025719e-04 3.593153237093e-03 0.0 
0.0 0.0 -5.602736785587e-04 
-1.035403721303e-03 -2.031605927371e-04 0.0 
-2.031605927371e-04 6.949569291118e-03 0.0 
0.0 0.0 -1.035646790376e-03 
-9.180249208977e-04 1.931476710154e-04 0.0 
1.931476710154e-04 6.042341158293e-03 0.0 
0.0 0.0 -9.181742748318e-04 
-9.917755747799e-04 2.023242542686e-04 0.0 
2.023242542686e-04 6.575747416083e-03 0.0 
0.0 0.0 -9.952786863929e-04 
-1.024377024952e-03 1.861972783327e-04 0.0 
1.861972783327e-04 6.794579129447e-03 0.0 
0.0 0.0 -1.024224580100e-03 
-5.802650742356e-04 1.891370522917e-04 0.0 
1.891370522917e-04 3.679117002713e-03 0.0 
0.0 0.0 -5.788817793163e-04 
-6.680148396563e-04 -1.727307713496e-04 0.0 
-1.727307713496e-04 4.367645791481e-03 0.0 
0.0 0.0 -6.651338130661e-04 
-7.292546132973e-04 -1.846826388503e-04 0.0 
-1.846826388503e-04 4.813421317749e-03 0.0 
0.0 0.0 -7.293057621918e-04 
-9.374184943370e-04 1.944757919182e-04 0.0 
1.944757919182e-04 6.178932175002e-03 0.0 
0.0 0.0 -9.378562126457e-04 
-1.124743441142e-03 -2.044895248107e-04 0.0 
-2.044895248107e-04 7.578873023721e-03 0.0 
0.0 0.0 -1.125100902632e-03 
-1.057275381377e-03 1.952239226914e-04 0.0 
1.952239226914e-04 7.019062258926e-03 0.0 
0.0 0.0 -1.053755873404e-03 
-3.652721065736e-04 1.996025403978e-04 0.0 
1.996025403978e-04 2.192815232503e-03 0.0 
0.0 0.0 -3.685493992842e-04 
-1.164581229115e-03 2.188850811809e-04 0.0 
2.188850811809e-04 7.900774321480e-03 0.0 
0.0 0.0 -1.183514100502e-03 
-1.119628239997e-03 2.087348229959e-04 0.0 
2.087348229959e-04 7.433542979004e-03 0.0 
0.0 0.0 -1.117084069417e-03 
-8.143956589139e-04 2.341244742851e-04 0.0 
2.341244742851e-04 5.337741611520e-03 0.0 
0.0 0.0 -8.110481619253e-04 
-9.749777922597e-04 1.939288930454e-04 0.0 
1.939288930454e-04 6.440647276838e-03 0.0 
0.0 0.0 -9.753747863247e-04 
-9.652234430735e-04 1.970752514855e-04 0.0 
1.970752514855e-04 6.378006768513e-03 0.0 
0.0 0.0 -9.665592132828e-04 
-1.194888926874e-03 -2.112261199246e-04 0.0 
-2.112261199246e-04 8.020188826812e-03 0.0 
0.0 0.0 -1.185362187646e-03 
-1.151241251503e-03 1.853138580095e-04 0.0 
1.853138580095e-04 7.714994671460e-03 0.0 
0.0 0.0 -1.150972777267e-03 
-8.863019395197e-04 -1.951602003696e-04 0.0 
-1.951602003696e-04 5.913977900844e-03 0.0 
0.0 0.0 -8.866930489607e-04 
-1.183768845123e-03 -1.944166925085e-04 0.0 
-1.944166925085e-04 8.022430172970e-03 0.0 
0.0 0.0 -1.190872049285e-03 
-1.103203670140e-03 1.932633349999e-04 0.0 
1.932633349999e-04 7.339211362922e-03 0.0 
0.0 0.0 -1.103416240745e-03 
-1.053347130920e-03 -1.808067663282e-04 0.0 
-1.808067663282e-04 7.018991585010e-03 0.0 
0.0 0.0 -1.053748284807e-03 
-1.207301516059e-03 -2.189374092153e-04 0.0 
-2.189374092153e-04 8.148472988394e-03 0.0 
0.0 0.0 -1.210017230578e-03 
-1.183451424094e-03 -2.064186268461e-04 0.0 
-2.064186268461e-04 7.961006455012e-03 0.0 
0.0 0.0 -1.181737430652e-03 
-1.012410866899e-03 -2.064236493361e-04 0.0 
-2.064236493361e-04 6.767125967856e-03 0.0 
0.0 0.0 -1.011817915138e-03 
-9.978825943571e-04 -1.946964301518e-04 0.0 
-1.946964301518e-04 6.692413921007e-03 0.0 
0.0 0.0 -9.985655989920e-04 
-3.618458064176e-04 1.902703540337e-04 0.0 
1.902703540337e-04 2.182295586331e-03 0.0 
0.0 0.0 -3.644364776638e-04 
-3.396688960242e-04 1.922383374584e-04 0.0 
1.922383374584e-04 2.020949841441e-03 0.0 
0.0 0.0 -3.414758422231e-04 
-2.048022796594e-04 -2.337971245162e-04 0.0 
-2.337971245162e-04 1.038657557028e-03 0.0 
0.0 0.0 -1.876370064529e-04 
-1.053265806659e-04 1.589966792234e-06 0.0 
1.589966792234e-06 6.159987105294e-04 0.0 
0.0 0.0 -1.032036840373e-04 
-1.146654591444e-03 -2.036534213009e-04 0.0 
-2.036534213009e-04 7.733548266154e-03 0.0 
0.0 0.0 -1.150998037120e-03 
-1.153371435519e-03 1.929566661378e-04 0.0 
1.929566661378e-04 7.706474852566e-03 0.0 
0.0 0.0 -1.156839719840e-03 
-1.023100123294e-04 6.333767357802e-06 0.0 
6.333767357802e-06 5.922537874641e-04 0.0 
0.0 0.0 -1.029284987275e-04 
-1.152902847458e-03 -1.945944093032e-04 0.0 
-1.945944093032e-04 7.806589318492e-03 0.0 
0.0 0.0 -1.160298666437e-03 
-8.240593874314e-04 2.133386610705e-04 0.0 
2.133386610705e-04 5.515954645069e-03 0.0 
0.0 0.0 -8.436798659344e-04 
-1.063159338098e-03 -2.000353252038e-04 0.0 
-2.000353252038e-04 7.170931875512e-03 0.0 
0.0 0.0 -1.067477449466e-03 
-1.091085119062e-03 1.926591161237e-04 0.0 
1.926591161237e-04 7.245677048731e-03 0.0 
0.0 0.0 -1.090430023688e-03 
-5.083685843408e-04 1.854528112905e-04 0.0 
1.854528112905e-04 3.184990427277e-03 0.0 
0.0 0.0 -5.090628918580e-04 
-1.088419020765e-03 -1.985610050621e-04 0.0 
-1.985610050621e-04 7.308442647816e-03 0.0 
0.0 0.0 -1.087955833448e-03 
-8.052736907314e-04 -2.707602780886e-04 0.0 
-2.707602780886e-04 5.346563189152e-03 0.0 
0.0 0.0 -8.100176300978e-04 
-1.002877096566e-03 -1.976880564897e-04 0.0 
-1.976880564897e-04 6.706443384887e-03 0.0 
0.0 0.0 -1.000388816061e-03 
-1.231169607282e-03 2.234727540429e-04 0.0 
2.234727540429e-04 8.305282306820e-03 0.0 
0.0 0.0 -1.242964905849e-03 
-3.519355017218e-04 1.472413134465e-04 0.0 
1.472413134465e-04 2.089181619658e-03 0.0 
0.0 0.0 -3.542437553904e-04 
-1.221302329282e-03 -1.674357911946e-04 0.0 
-1.674357911946e-04 8.209373583472e-03 0.0 
0.0 0.0 -1.215045542354e-03 
-1.047850802636e-03 -1.881582153281e-04 0.0 
-1.881582153281e-04 7.026769425363e-03 0.0 
0.0 0.0 -1.048288725887e-03 
-3.889604497647e-04 2.037169653350e-04 0.0 
2.037169653350e-04 2.380154464468e-03 0.0 
0.0 0.0 -3.930611257745e-04 
-4.005955795872e-04 -1.795528067477e-04 0.0 
-1.795528067477e-04 2.551679544192e-03 0.0 
0.0 0.0 -4.034900192350e-04 
-7.895600060851e-04 1.993051337406e-04 0.0 
1.993051337406e-04 5.154958880860e-03 0.0 
0.0 0.0 -7.909606353592e-04 
-9.478370252282e-04 2.028022273917e-04 0.0 
2.028022273917e-04 6.213549732246e-03 0.0 
0.0 0.0 -9.409807611877e-04 
-5.389171118930e-04 1.931642811106e-04 0.0 
1.931642811106e-04 3.423254400861e-03 0.0 
0.0 0.0 -5.429771841545e-04 
-1.084906178257e-03 -2.011232363261e-04 0.0 
-2.011232363261e-04 7.274950011924e-03 0.0 
0.0 0.0 -1.085119818393e-03 
-9.758201311387e-04 -2.238948292920e-04 0.0 
-2.238948292920e-04 6.526325342415e-03 0.0 
0.0 0.0 -9.816794289629e-04 
-7.681741524081e-04 1.880175807826e-04 0.0 
1.880175807826e-04 5.011383542904e-03 0.0 
0.0 0.0 -7.700930343086e-04 
-1.026480683520e-03 -1.844900629416e-04 0.0 
-1.844900629416e-04 6.842321728991e-03 0.0 
0.0 0.0 -1.021757709120e-03 
-1.057960421125e-03 -1.998047593286e-04 0.0 
-1.998047593286e-04 7.113469784678e-03 0.0 
0.0 0.0 -1.058696934625e-03 
-1.057942238941e-03 2.175749808769e-04 0.0 
2.175749808769e-04 6.964480207197e-03 0.0 
0.0 0.0 -1.050681058959e-03 
-3.033747618520e-04 -1.838242939411e-04 0.0 
-1.838242939411e-04 1.857406959021e-03 0.0 
0.0 0.0 -3.058749225436e-04 
-7.305418871957e-04 1.869626526336e-04 0.0 
1.869626526336e-04 4.754815575901e-03 0.0 
0.0 0.0 -7.328582426338e-04 
-1.136183616218e-03 2.082876610418e-04 0.0 
2.082876610418e-04 7.610878515336e-03 0.0 
0.0 0.0 -1.141128458404e-03 
-1.078434925953e-03 -1.984149302182e-04 0.0 
-1.984149302182e-04 7.234990828440e-03 0.0 
0.0 0.0 -1.078198857115e-03 
-6.621852882438e-04 2.164713360985e-04 0.0 
2.164713360985e-04 4.271535496369e-03 0.0 
0.0 0.0 -6.666835465145e-04 
-9.149083998473e-04 -1.952760623190e-04 0.0 
-1.952760623190e-04 6.113676858771e-03 0.0 
0.0 0.0 -9.153036164073e-04 
-1.187688204395e-03 -2.025883410102e-04 0.0 
-2.025883410102e-04 8.016876824675e-03 0.0 
0.0 0.0 -1.187586327529e-03 
-1.005326890981e-03 1.902074749801e-04 0.0 
1.902074749801e-04 6.713852212323e-03 0.0 
0.0 0.0 -1.013969106439e-03 
-1.909283182059e-04 -2.134343415579e-04 0.0 
-2.134343415579e-04 9.857203047885e-04 0.0 
0.0 0.0 -1.806728872115e-04 
-1.970147197369e-04 -2.059863142165e-04 0.0 
-2.059863142165e-04 1.002592449070e-03 0.0 
0.0 0.0 -1.835536028976e-04 
-3.515992897123e-04 -1.811957352846e-04 0.0 
-1.811957352846e-04 2.155411981566e-03 0.0 
0.0 0.0 -3.467375663575e-04 
-1.128856114321e-03 2.001566636705e-04 0.0 
2.001566636705e-04 7.510015093798e-03 0.0 
0.0 0.0 -1.127837695838e-03 
-9.816567297486e-04 1.933811921609e-04 0.0 
1.933811921609e-04 6.465198559992e-03 0.0 
0.0 0.0 -9.775003154318e-04 
-8.371572204409e-04 -2.148163729895e-04 0.0 
-2.148163729895e-04 5.710338305933e-03 0.0 
0.0 0.0 -8.513051444990e-04 
-8.730704368828e-04 1.896261582468e-04 0.0 
1.896261582468e-04 5.754508324044e-03 0.0 
0.0 0.0 -8.745614812816e-04 
-1.137329719499e-03 -1.941463340313e-04 0.0 
-1.941463340313e-04 7.669003078820e-03 0.0 
0.0 0.0 -1.139196670502e-03 
-7.981531024245e-04 1.892565346164e-04 0.0 
1.892565346164e-04 5.212239015909e-03 0.0 
0.0 0.0 -7.988714448434e-04 
-1.058279653052e-03 1.954206945734e-04 0.0 
1.954206945734e-04 7.042085544045e-03 0.0 
0.0 0.0 -1.061632825506e-03 
-3.556360797851e-04 -1.825172875802e-04 0.0 
-1.825172875802e-04 2.253382462632e-03 0.0 
0.0 0.0 -3.615122310665e-04 
-1.213390557451e-03 2.397950825143e-04 0.0 
2.397950825143e-04 8.136808344214e-03 0.0 
0.0 0.0 -1.211531131004e-03 
-7.660046426258e-04 -1.986537595935e-04 0.0 
-1.986537595935e-04 5.080766734255e-03 0.0 
0.0 0.0 -7.673127347790e-04 
-3.927767409548e-04 -1.941008242107e-04 0.0 
-1.941008242107e-04 2.469153154105e-03 0.0 
0.0 0.0 -3.889166325194e-04 
-7.314298842456e-04 -2.140562000032e-04 0.0 
-2.140562000032e-04 4.812028074598e-03 0.0 
0.0 0.0 -7.311132045151e-04 
-5.669903072896e-04 1.859979766969e-04 0.0 
1.859979766969e-04 3.622850524897e-03 0.0 
0.0 0.0 -5.716673668464e-04 
-4.441913073698e-04 -1.946929488680e-04 0.0 
-1.946929488680e-04 2.835535865589e-03 0.0 
0.0 0.0 -4.452767020142e-04 
-8.541353571324e-04 1.878201727380e-04 0.0 
1.878201727380e-04 5.598851307335e-03 0.0 
0.0 0.0 -8.564950983273e-04 
0.0 0.0 0.0 
0.0 0.0 0.0 
0.0 0.0 0.0 
0.0 0.0 0.0 
0.0 0.0 0.0 
0.0 0.0 0.0 
-9.633926432213e-04 -1.929125650731e-04 0.0 
-1.929125650731e-04 6.449382072422e-03 0.0 
0.0 0.0 -9.636005660098e-04 
-3.261615758852e-04 -1.754968158783e-04 0.0 
-1.754968158783e-04 2.064243752771e-03 0.0 
0.0 0.0 -3.336449385292e-04 
-9.716625480636e-04 -1.974982736353e-04 0.0 
-1.974982736353e-04 6.511810819199e-03 0.0 
0.0 0.0 -9.724388998540e-04 
-9.434553557208e-04 -1.947776052692e-04 0.0 
-1.947776052692e-04 6.314151919472e-03 0.0 
0.0 0.0 -9.438473481109e-04 
-6.149570530546e-04 1.958377041271e-04 0.0 
1.958377041271e-04 3.946002749694e-03 0.0 
0.0 0.0 -6.177757646845e-04 
-4.134741271646e-04 1.981876295034e-04 0.0 
1.981876295034e-04 2.543324249367e-03 0.0 
0.0 0.0 -4.162223005415e-04 
-1.136715502842e-03 -2.038924191314e-04 0.0 
-2.038924191314e-04 7.650435027918e-03 0.0 
0.0 0.0 -1.137719822027e-03 
-2.155883669569e-04 -8.829356196857e-05 0.0 
-8.829356196857e-05 9.573383583193e-04 0.0 
0.0 0.0 -2.047534254615e-04 
-6.021718484836e-04 1.735627083645e-04 0.0 
1.735627083645e-04 3.837011647565e-03 0.0 
0.0 0.0 -6.004815939294e-04 
-1.172134314024e-03 -1.664552663931e-04 0.0 
-1.664552663931e-04 7.890382462293e-03 0.0 
0.0 0.0 -1.175533656463e-03 
-2.822824235296e-04 1.888682444413e-04 0.0 
1.888682444413e-04 1.684200929602e-03 0.0 
0.0 0.0 -2.977570873278e-04 
-9.136045934539e-04 -1.921452035066e-04 0.0 
-1.921452035066e-04 6.056651557430e-03 0.0 
0.0 0.0 -9.088859120638e-04 
-8.340119380580e-04 -2.228113772718e-04 0.0 
-2.228113772718e-04 5.573887948832e-03 0.0 
0.0 0.0 -8.416286270284e-04 
-2.829330432205e-04 -1.923976084131e-04 0.0 
-1.923976084131e-04 1.716244531209e-03 0.0 
0.0 0.0 -2.842394630762e-04 
-1.159926400282e-03 -1.793893042656e-04 0.0 
-1.793893042656e-04 7.808824689671e-03 0.0 
0.0 0.0 -1.158722036769e-03 
-1.035589941137e-03 -1.985988582850e-04 0.0 
-1.985988582850e-04 6.933992631060e-03 0.0 
0.0 0.0 -1.034898561726e-03 
-3.359494272766e-04 1.786409644777e-04 0.0 
1.786409644777e-04 1.989232140030e-03 0.0 
0.0 0.0 -3.364655670308e-04 
-1.165152170532e-03 -1.849586778465e-04 0.0 
-1.849586778465e-04 7.849581652679e-03 0.0 
0.0 0.0 -1.166520446339e-03 
-1.171818434168e-03 1.701070722775e-04 0.0 
1.701070722775e-04 7.787163600185e-03 0.0 
0.0 0.0 -1.169001632583e-03 
-3.670484435220e-04 -2.062025335134e-04 0.0 
-2.062025335134e-04 2.310354927649e-03 0.0 
0.0 0.0 -3.701904734684e-04 
-4.878019895888e-04 -2.129991852323e-04 0.0 
-2.129991852323e-04 3.076179585064e-03 0.0 
0.0 0.0 -4.801335248058e-04 
-3.784853096696e-04 -1.951915827816e-04 0.0 
-1.951915827816e-04 2.373996755405e-03 0.0 
0.0 0.0 -3.791106726259e-04 
-1.023434568927e-03 -1.955357832442e-04 0.0 
-1.955357832442e-04 6.907952393425e-03 0.0 
0.0 0.0 -1.029923508343e-03 
-8.283537341299e-04 1.907553074043e-04 0.0 
1.907553074043e-04 5.413544228672e-03 0.0 
0.0 0.0 -8.276368238623e-04 
-1.175065292852e-03 1.838008001023e-04 0.0 
1.838008001023e-04 7.798269859187e-03 0.0 
0.0 0.0 -1.169529464977e-03 
-1.141233486497e-03 1.909358973763e-04 0.0 
1.909358973763e-04 7.594915182305e-03 0.0 
0.0 0.0 -1.140030709108e-03 
-9.986353517479e-04 -1.968060563575e-04 0.0 
-1.968060563575e-04 6.710344376515e-03 0.0 
0.0 0.0 -1.001167767022e-03 
-1.002641746751e-03 1.939099816929e-04 0.0 
1.939099816929e-04 6.639482721891e-03 0.0 
0.0 0.0 -1.004093472296e-03 
-3.170641866385e-04 1.974483890407e-04 0.0 
1.974483890407e-04 1.842860083610e-03 0.0 
0.0 0.0 -3.158693332420e-04 
-1.029368673375e-03 1.947386699307e-04 0.0 
1.947386699307e-04 6.837075470330e-03 0.0 
0.0 0.0 -1.032853941699e-03 
-1.038324079738e-03 1.969104416428e-04 0.0 
1.969104416428e-04 6.879456010501e-03 0.0 
0.0 0.0 -1.037144748481e-03 
-8.220289990508e-04 -1.901456335333e-04 0.0 
-1.901456335333e-04 5.481743507948e-03 0.0 
0.0 0.0 -8.248712778174e-04 
-9.784412971014e-04 -1.995967018581e-04 0.0 
-1.995967018581e-04 6.519224964638e-03 0.0 
0.0 0.0 -9.752741834902e-04 
-1.071043316413e-03 -2.014206266275e-04 0.0 
-2.014206266275e-04 7.187990111684e-03 0.0 
0.0 0.0 -1.071415751597e-03 
-7.449992410114e-04 1.900175048327e-04 0.0 
1.900175048327e-04 4.830596508428e-03 0.0 
0.0 0.0 -7.435371925968e-04 
-1.112301323396e-03 1.953318319137e-04 0.0 
1.953318319137e-04 7.388703494557e-03 0.0 
0.0 0.0 -1.110258267496e-03 
-7.048168666415e-04 2.103542029498e-04 0.0 
2.103542029498e-04 4.551180166485e-03 0.0 
0.0 0.0 -6.965171720950e-04 
-7.978310569569e-04 -1.996626955201e-04 0.0 
-1.996626955201e-04 5.282133349968e-03 0.0 
0.0 0.0 -7.960639764766e-04 
-5.335116196932e-04 2.239231297757e-04 0.0 
2.239231297757e-04 3.386453430155e-03 0.0 
0.0 0.0 -5.342291996904e-04 
-5.553576446558e-04 -1.816268034184e-04 0.0 
-1.816268034184e-04 3.628347878161e-03 0.0 
0.0 0.0 -5.581583723280e-04 
-1.010310088917e-03 1.967228699853e-04 0.0 
1.967228699853e-04 6.672709965049e-03 0.0 
0.0 0.0 -1.007339817349e-03 
-7.628577911211e-04 -1.911605880287e-04 0.0 
-1.911605880287e-04 5.057166832743e-03 0.0 
0.0 0.0 -7.637833264599e-04 
-4.056535220845e-04 -1.994601543413e-04 0.0 
-1.994601543413e-04 2.573810220736e-03 0.0 
0.0 0.0 -4.077494273363e-04 
-2.235505229120e-04 -1.665382784811e-04 0.0 
-1.665382784811e-04 1.264629605483e-03 0.0 
0.0 0.0 -2.185673950299e-04 
-1.005369566171e-03 -1.969282844887e-04 0.0 
-1.969282844887e-04 6.726819346583e-03 0.0 
0.0 0.0 -1.005115000480e-03 
-4.096373717980e-04 1.964452207256e-04 0.0 
1.964452207256e-04 2.501615904785e-03 0.0 
0.0 0.0 -4.107160730352e-04 
-1.196795855234e-03 2.010644044310e-04 0.0 
2.010644044310e-04 8.139442919111e-03 0.0 
0.0 0.0 -1.218716866995e-03 
-1.042807145316e-03 1.952121137199e-04 0.0 
1.952121137199e-04 6.924647329534e-03 0.0 
0.0 0.0 -1.043883448597e-03 
-1.067869276876e-03 1.919364052357e-04 0.0 
1.919364052357e-04 7.100655193935e-03 0.0 
0.0 0.0 -1.070373463590e-03 
-1.283006779812e-03 -2.454005743876e-05 0.0 
-2.454005743876e-05 8.441304095904e-03 0.0 
0.0 0.0 -1.284729618418e-03 
-6.611541786482e-04 -2.165377279582e-04 0.0 
-2.165377279582e-04 4.358180230514e-03 0.0 
0.0 0.0 -6.637377122259e-04 
-3.719232158050e-04 1.946095876175e-04 0.0 
1.946095876175e-04 2.237835984063e-03 0.0 
0.0 0.0 -3.731618544808e-04 
-2.509805120977e-04 2.101438879212e-04 0.0 
2.101438879212e-04 1.370179870162e-03 0.0 
0.0 0.0 -2.496210768721e-04 
-1.009272610852e-03 -1.976905948494e-04 0.0 
-1.976905948494e-04 6.773236228030e-03 0.0 
0.0 0.0 -1.009908742814e-03 
-9.502891484141e-04 2.008015227702e-04 0.0 
2.008015227702e-04 6.263291661127e-03 0.0 
0.0 0.0 -9.473489374553e-04 
-1.787867007396e-04 1.721284507092e-04 0.0 
1.721284507092e-04 9.234900215081e-04 0.0 
0.0 0.0 -1.858848441742e-04 
-5.306487836806e-04 -1.980238622701e-04 0.0 
-1.980238622701e-04 3.494279541485e-03 0.0 
0.0 0.0 -5.400474096907e-04 
-3.064883048416e-04 -1.749693241531e-04 0.0 
-1.749693241531e-04 2.001263288359e-03 0.0 
0.0 0.0 -3.246070344129e-04 
-9.392936976826e-04 -1.862704497829e-04 0.0 
-1.862704497829e-04 6.266809515345e-03 0.0 
0.0 0.0 -9.387834224271e-04 
-5.480159981423e-04 -2.100359931435e-04 0.0 
-2.100359931435e-04 3.693369469425e-03 0.0 
0.0 0.0 -5.687878759048e-04 
-9.467150260524e-04 1.924065934847e-04 0.0 
1.924065934847e-04 6.242240235616e-03 0.0 
0.0 0.0 -9.467935652645e-04 
-5.428455294622e-04 -2.085125102257e-04 0.0 
-2.085125102257e-04 3.415670535467e-03 0.0 
0.0 0.0 -5.337555413937e-04 
-1.117346964304e-03 -2.071110090059e-04 0.0 
-2.071110090059e-04 7.492505049919e-03 0.0 
0.0 0.0 -1.114809527198e-03 
-4.745048492879e-04 1.992195964991e-04 0.0 
1.992195964991e-04 2.965213732964e-03 0.0 
0.0 0.0 -4.768663991247e-04 
-1.019084130149e-03 -1.971234603784e-04 0.0 
-1.971234603784e-04 6.834832976306e-03 0.0 
0.0 0.0 -1.018590841688e-03 
-3.372917149944e-04 -1.912349410902e-04 0.0 
-1.912349410902e-04 2.104646860584e-03 0.0 
0.0 0.0 -3.376433569222e-04 
-9.810862783946e-04 -1.972875806497e-04 0.0 
-1.972875806497e-04 6.573374097127e-03 0.0 
0.0 0.0 -9.812220007866e-04 
-7.630262787412e-04 -1.649240710624e-04 0.0 
-1.649240710624e-04 5.040550269950e-03 0.0 
0.0 0.0 -7.604224332210e-04 
-1.040603755793e-03 1.933348900592e-04 0.0 
1.933348900592e-04 6.902261502476e-03 0.0 
0.0 0.0 -1.041555045145e-03 
-5.360677599799e-04 1.876482889456e-04 0.0 
1.876482889456e-04 3.380336319223e-03 0.0 
0.0 0.0 -5.350282927002e-04 
-3.256683131977e-04 2.104859329235e-04 0.0 
2.104859329235e-04 1.909139084910e-03 0.0 
0.0 0.0 -3.277310168338e-04 
-8.709310065231e-04 -1.930857458815e-04 0.0 
-1.930857458815e-04 5.840506173078e-03 0.0 
0.0 0.0 -8.787268422831e-04 
-9.478935846188e-04 -1.922017527602e-04 0.0 
-1.922017527602e-04 6.329496652854e-03 0.0 
0.0 0.0 -9.464297096767e-04 
-6.788789609641e-04 1.916120147783e-04 0.0 
1.916120147783e-04 4.369175427210e-03 0.0 
0.0 0.0 -6.776081642141e-04 
-9.468425740780e-04 -2.085300673065e-04 0.0 
-2.085300673065e-04 6.298374618209e-03 0.0 
0.0 0.0 -9.453210152248e-04 
-3.756080425156e-04 -1.934039556713e-04 0.0 
-1.934039556713e-04 2.352414382127e-03 0.0 
0.0 0.0 -3.758914132629e-04 
-9.664473934007e-04 1.935643871513e-04 0.0 
1.935643871513e-04 6.379409966944e-03 0.0 
0.0 0.0 -9.642804585795e-04 
-3.026576237446e-04 -1.928297610963e-04 0.0 
-1.928297610963e-04 1.798935007683e-03 0.0 
0.0 0.0 -2.947674122297e-04 
-1.153179427147e-03 -2.051549704311e-04 0.0 
-2.051549704311e-04 7.761192827607e-03 0.0 
0.0 0.0 -1.150402778756e-03 
-9.838604339424e-04 -1.907200549991e-04 0.0 
-1.907200549991e-04 6.585836583388e-03 0.0 
0.0 0.0 -9.834711240942e-04 
-1.039448222436e-03 -1.939988089318e-04 0.0 
-1.939988089318e-04 6.961176011231e-03 0.0 
0.0 0.0 -1.037051012011e-03 
-1.209610339595e-03 -2.064055054886e-04 0.0 
-2.064055054886e-04 8.130245976668e-03 0.0 
0.0 0.0 -1.204463612412e-03 
-8.289278457567e-04 -1.937873946282e-04 0.0 
-1.937873946282e-04 5.514638524943e-03 0.0 
0.0 0.0 -8.294769417472e-04 
-3.109821114722e-04 1.906924358190e-04 0.0 
1.906924358190e-04 1.784796369805e-03 0.0 
0.0 0.0 -3.081489256106e-04 
-9.237752216618e-04 -1.945449657843e-04 0.0 
-1.945449657843e-04 6.173770782065e-03 0.0 
0.0 0.0 -9.239488535170e-04 
-1.191042257491e-03 2.067698926502e-04 0.0 
2.067698926502e-04 7.951909524645e-03 0.0 
0.0 0.0 -1.189963100592e-03 
-4.775062598439e-04 -1.845893080325e-04 0.0 
-1.845893080325e-04 3.071724244623e-03 0.0 
0.0 0.0 -4.786098583285e-04 
-1.036708665275e-03 -1.995575756553e-04 0.0 
-1.995575756553e-04 6.972509629402e-03 0.0 
0.0 0.0 -1.038675661098e-03 
-1.042240091366e-03 -2.028158867282e-04 0.0 
-2.028158867282e-04 6.979443732142e-03 0.0 
0.0 0.0 -1.041631482750e-03 
-3.838009065759e-04 1.994121048007e-04 0.0 
1.994121048007e-04 2.344808306372e-03 0.0 
0.0 0.0 -3.880698300753e-04 
-9.524861751469e-04 -1.961707644155e-04 0.0 
-1.961707644155e-04 6.373861031903e-03 0.0 
0.0 0.0 -9.525765839929e-04 
-8.586433483391e-04 -1.931078618343e-04 0.0 
-1.931078618343e-04 5.748348032680e-03 0.0 
0.0 0.0 -8.663127257150e-04 
-4.249902311886e-04 -1.873478746315e-04 0.0 
-1.873478746315e-04 2.710801804411e-03 0.0 
0.0 0.0 -4.280652785065e-04 
-5.063403877371e-04 -1.957595432946e-04 0.0 
-1.957595432946e-04 3.295220362808e-03 0.0 
0.0 0.0 -5.113914792957e-04 
-8.011417777980e-04 -1.869294440003e-04 0.0 
-1.869294440003e-04 5.307962758149e-03 0.0 
0.0 0.0 -8.004334922225e-04 
-1.012906793309e-03 1.927821333669e-04 0.0 
1.927821333669e-04 6.702583928550e-03 0.0 
0.0 0.0 -1.012809740122e-03 
-6.237702296699e-04 -1.788620839171e-04 0.0 
-1.788620839171e-04 4.053757856152e-03 0.0 
0.0 0.0 -6.201901524263e-04 
-7.654836975308e-04 -1.844361479045e-04 0.0 
-1.844361479045e-04 5.061981616524e-03 0.0 
0.0 0.0 -7.649884091348e-04 
-1.002132587578e-03 1.966152402383e-04 0.0 
1.966152402383e-04 6.628701174112e-03 0.0 
0.0 0.0 -1.000670320419e-03 
-9.160037735611e-04 2.105070801011e-04 0.0 
2.105070801011e-04 6.003693375901e-03 0.0 
0.0 0.0 -9.110000341593e-04 
-8.984996443820e-04 1.923871522476e-04 0.0 
1.923871522476e-04 5.918711205323e-03 0.0 
0.0 0.0 -8.984003255416e-04 
-7.635747983664e-04 1.700234808702e-04 0.0 
1.700234808702e-04 4.971193028469e-03 0.0 
0.0 0.0 -7.627602282935e-04 
-1.130358647028e-03 -1.898334947356e-04 0.0 
-1.898334947356e-04 7.609563538777e-03 0.0 
0.0 0.0 -1.130631056169e-03 
-8.949695730274e-04 -1.944201834166e-04 0.0 
-1.944201834166e-04 5.973169188704e-03 0.0 
0.0 0.0 -8.953295484280e-04 
-8.818948229553e-04 -1.808766535773e-04 0.0 
-1.808766535773e-04 5.810855732820e-03 0.0 
0.0 0.0 -8.720525204519e-04 
-1.180322083838e-03 -2.544019696132e-04 0.0 
-2.544019696132e-04 8.044684295215e-03 0.0 
0.0 0.0 -1.193584144721e-03 
-1.074317409630e-03 -2.028987224977e-04 0.0 
-2.028987224977e-04 7.209609754449e-03 0.0 
0.0 0.0 -1.073433710836e-03 
-9.845138767756e-04 1.933324893147e-04 0.0 
1.933324893147e-04 6.502529959442e-03 0.0 
0.0 0.0 -9.841343610905e-04 
-1.074220521467e-03 1.937044770005e-04 0.0 
1.937044770005e-04 7.133220182241e-03 0.0 
0.0 0.0 -1.073677668998e-03 
-5.827062234069e-04 -1.941542500793e-04 0.0 
-1.941542500793e-04 3.817750575136e-03 0.0 
0.0 0.0 -5.862626530914e-04 
-5.447661780291e-04 -1.955268079661e-04 0.0 
-1.955268079661e-04 3.556218869368e-03 0.0 
0.0 0.0 -5.488365039436e-04 
-3.200298242820e-04 -2.008010355192e-04 0.0 
-2.008010355192e-04 1.912733596730e-03 0.0 
0.0 0.0 -3.130684191733e-04 
-9.610361432964e-04 -1.937939784478e-04 0.0 
-1.937939784478e-04 6.432925566233e-03 0.0 
0.0 0.0 -9.612598090090e-04 
-5.730915420071e-04 -1.993284364060e-04 0.0 
-1.993284364060e-04 3.756322275087e-03 0.0 
0.0 0.0 -5.775003002374e-04 
-9.676234080517e-04 -1.978430549766e-04 0.0 
-1.978430549766e-04 6.470709836540e-03 0.0 
0.0 0.0 -9.686535345556e-04 
-9.307775843259e-04 -2.009567450900e-04 0.0 
-2.009567450900e-04 6.218061512745e-03 0.0 
0.0 0.0 -9.322463471790e-04 
-7.694630900908e-04 -1.939675917432e-04 0.0 
-1.939675917432e-04 5.091771385307e-03 0.0 
0.0 0.0 -7.690363516573e-04 
-4.826168522867e-04 1.966675666533e-04 0.0 
1.966675666533e-04 3.022691758795e-03 0.0 
0.0 0.0 -4.860199686152e-04 
-5.166152208990e-04 1.895375761803e-04 0.0 
1.895375761803e-04 3.232772262981e-03 0.0 
0.0 0.0 -5.148587792422e-04 
-5.108840173734e-04 1.960376866878e-04 0.0 
1.960376866878e-04 3.223531247209e-03 0.0 
0.0 0.0 -5.143448975765e-04 
-5.481816317278e-04 1.962623655860e-04 0.0 
1.962623655860e-04 3.484569495256e-03 0.0 
0.0 0.0 -5.517963299543e-04 
-3.453277696027e-04 1.969675537480e-04 0.0 
1.969675537480e-04 2.040898908983e-03 0.0 
0.0 0.0 -3.446931235564e-04 
-1.101052151537e-03 -1.995058256317e-04 0.0 
-1.995058256317e-04 7.411556171306e-03 0.0 
0.0 0.0 -1.101849228969e-03 
-6.632570071373e-04 1.923578636572e-04 0.0 
1.923578636572e-04 4.270077985980e-03 0.0 
0.0 0.0 -6.642957827475e-04 
-1.108318305334e-03 -2.031784349513e-04 0.0 
-2.031784349513e-04 7.443886566257e-03 0.0 
0.0 0.0 -1.107989045227e-03 
-7.011090036509e-04 1.927949869008e-04 0.0 
1.927949869008e-04 4.532588404756e-03 0.0 
0.0 0.0 -7.013039408444e-04 
-9.265731680826e-04 1.957284230983e-04 0.0 
1.957284230983e-04 6.103426765876e-03 0.0 
0.0 0.0 -9.268471029391e-04 
-7.946469523286e-04 1.955747403875e-04 0.0 
1.955747403875e-04 5.185524606882e-03 0.0 
0.0 0.0 -7.951651613512e-04 
-7.572756681299e-04 -1.872685007042e-04 0.0 
-1.872685007042e-04 5.004494979540e-03 0.0 
0.0 0.0 -7.567435594048e-04 
-3.404029927324e-04 -1.917944120496e-04 0.0 
-1.917944120496e-04 2.114741006724e-03 0.0 
0.0 0.0 -3.417109511102e-04 
-1.168366620594e-03 1.821653519024e-04 0.0 
1.821653519024e-04 7.733894625141e-03 0.0 
0.0 0.0 -1.161691925552e-03 
-1.208283455631e-03 -2.138622136652e-04 0.0 
-2.138622136652e-04 8.118515122607e-03 0.0 
0.0 0.0 -1.198716319349e-03 
-9.647894746907e-04 1.840623527821e-04 0.0 
1.840623527821e-04 6.374025584992e-03 0.0 
0.0 0.0 -9.650368815299e-04 
-5.866113351029e-04 1.997061311369e-04 0.0 
1.997061311369e-04 3.745701321029e-03 0.0 
0.0 0.0 -5.892385666867e-04 
-8.606873822814e-04 1.952603744915e-04 0.0 
1.952603744915e-04 5.644314043148e-03 0.0 
0.0 0.0 -8.609535187098e-04 
-9.731621015165e-04 2.042240848123e-04 0.0 
2.042240848123e-04 6.416634786867e-03 0.0 
0.0 0.0 -9.708520278613e-04 
-6.114505218060e-04 -1.970451499323e-04 0.0 
-1.970451499323e-04 4.016656707276e-03 0.0 
0.0 0.0 -6.148791393494e-04 
-6.402153518211e-04 -1.799304007789e-04 0.0 
-1.799304007789e-04 4.195134185684e-03 0.0 
0.0 0.0 -6.394234923164e-04 
-4.756790629449e-04 -1.970276149029e-04 0.0 
-1.970276149029e-04 3.037216567460e-03 0.0 
0.0 0.0 -4.739097840058e-04 
-4.115649622254e-04 -1.881038262711e-04 0.0 
-1.881038262711e-04 2.615008917890e-03 0.0 
0.0 0.0 -4.132304097957e-04 
-6.210949620284e-04 -1.921853512952e-04 0.0 
-1.921853512952e-04 4.079647892730e-03 0.0 
0.0 0.0 -6.236739531379e-04 
-4.389003653302e-04 1.899270358255e-04 0.0 
1.899270358255e-04 2.702990318359e-03 0.0 
0.0 0.0 -4.393534411964e-04 
-3.957050609942e-04 -2.005038904365e-04 0.0 
-2.005038904365e-04 2.512628569390e-03 0.0 
0.0 0.0 -3.988888273503e-04 
-7.912937221892e-04 -1.931036918808e-04 0.0 
-1.931036918808e-04 5.255690323409e-03 0.0 
0.0 0.0 -7.922809795675e-04 
-9.555190717992e-04 1.953941988256e-04 0.0 
1.953941988256e-04 6.303135181036e-03 0.0 
0.0 0.0 -9.554846610150e-04 
-1.131935364223e-03 1.749369794292e-04 0.0 
1.749369794292e-04 7.516475401832e-03 0.0 
0.0 0.0 -1.128610778606e-03 
-7.677587316374e-05 5.132629422694e-05 0.0 
5.132629422694e-05 2.950272314679e-04 0.0 
0.0 0.0 -4.808883996072e-05 
-6.821273879061e-04 1.885153294961e-04 0.0 
1.885153294961e-04 4.394625922574e-03 0.0 
0.0 0.0 -6.818868151028e-04 
-6.732798359077e-04 1.896419879917e-04 0.0 
1.896419879917e-04 4.334337175818e-03 0.0 
0.0 0.0 -6.732431144785e-04 
-6.253359345237e-04 1.966841986602e-04 0.0 
1.966841986602e-04 4.007688208335e-03 0.0 
0.0 0.0 -6.268095852860e-04 
-9.342352764228e-04 1.992757766659e-04 0.0 
1.992757766659e-04 6.164738867849e-03 0.0 
0.0 0.0 -9.344164207832e-04 
-7.286499736728e-04 1.960851222300e-04 0.0 
1.960851222300e-04 4.727094990713e-03 0.0 
0.0 0.0 -7.295442444478e-04 
-5.028967805497e-04 2.032690915996e-04 0.0 
2.032690915996e-04 3.169465929495e-03 0.0 
0.0 0.0 -5.055050897130e-04 
-6.594115462037e-04 -1.877379034349e-04 0.0 
-1.877379034349e-04 4.343026444268e-03 0.0 
0.0 0.0 -6.611654675676e-04 
-1.086852433707e-03 1.972393602690e-04 0.0 
1.972393602690e-04 7.180508805687e-03 0.0 
0.0 0.0 -1.080452943103e-03 
-5.134906191046e-04 -1.975407525199e-04 0.0 
-1.975407525199e-04 3.241783811479e-03 0.0 
0.0 0.0 -5.025663706543e-04 
-2.068765507079e-04 1.780811299395e-04 0.0 
1.780811299395e-04 1.103158600140e-03 0.0 
0.0 0.0 -2.132551421006e-04 
-2.821446593325e-04 1.850947824847e-04 0.0 
1.850947824847e-04 1.595379339776e-03 0.0 
0.0 0.0 -2.784575373548e-04 
-4.423162808512e-04 1.966617048387e-04 0.0 
1.966617048387e-04 2.737975260110e-03 0.0 
0.0 0.0 -4.444240490352e-04 
-5.210766744923e-04 1.945752899053e-04 0.0 
1.945752899053e-04 3.285513932229e-03 0.0 
0.0 0.0 -5.239304829885e-04 
-7.103179674583e-04 1.937608556774e-04 0.0 
1.937608556774e-04 4.594082704701e-03 0.0 
0.0 0.0 -7.099160536912e-04 
-6.974191009825e-04 -1.859522295000e-04 0.0 
-1.859522295000e-04 4.604175499566e-03 0.0 
0.0 0.0 -6.984076724203e-04 
-3.111089899344e-04 -2.166751455615e-04 0.0 
-2.166751455615e-04 1.884393958953e-03 0.0 
0.0 0.0 -3.092759564244e-04 
-2.948433446492e-04 -2.106961415147e-04 0.0 
-2.106961415147e-04 1.651650768654e-03 0.0 
0.0 0.0 -2.765202162382e-04 
-9.029473964606e-04 -2.318038937515e-04 0.0 
-2.318038937515e-04 5.899437226641e-03 0.0 
0.0 0.0 -8.885078876198e-04 
-4.353328022797e-04 -2.074729337185e-04 0.0 
-2.074729337185e-04 2.774644133327e-03 0.0 
0.0 0.0 -4.363975895258e-04 
-1.066115861838e-03 1.923323182630e-04 0.0 
1.923323182630e-04 7.082058213666e-03 0.0 
0.0 0.0 -1.067401112627e-03 
-1.093430528172e-03 1.859529625015e-04 0.0 
1.859529625015e-04 7.265648937776e-03 0.0 
0.0 0.0 -1.093380752811e-03 
-9.055761456836e-04 -1.909848796464e-04 0.0 
-1.909848796464e-04 6.010442057108e-03 0.0 
0.0 0.0 -9.013836717722e-04 
-1.127393681638e-03 1.896887369255e-04 0.0 
1.896887369255e-04 7.503433377311e-03 0.0 
0.0 0.0 -1.126084317643e-03 
-1.155463123535e-03 1.744033292086e-04 0.0 
1.744033292086e-04 7.751673747269e-03 0.0 
0.0 0.0 -1.164310864388e-03 
-7.420687839784e-04 -1.936328330323e-04 0.0 
-1.936328330323e-04 4.896453187980e-03 0.0 
0.0 0.0 -7.408850503417e-04 
-1.028946225618e-03 1.859237494967e-04 0.0 
1.859237494967e-04 6.817745899264e-03 0.0 
0.0 0.0 -1.029042339204e-03 
-3.444765648257e-04 -1.889029113480e-04 0.0 
-1.889029113480e-04 2.157321474184e-03 0.0 
0.0 0.0 -3.474733517438e-04 
-6.874756161392e-04 -1.926159426764e-04 0.0 
-1.926159426764e-04 4.537720382930e-03 0.0 
0.0 0.0 -6.894573431515e-04 
-6.898061862195e-04 1.857511077276e-04 0.0 
1.857511077276e-04 4.440388507088e-03 0.0 
0.0 0.0 -6.879681371099e-04 
-4.019279772504e-04 1.778728342642e-04 0.0 
1.778728342642e-04 2.433102799940e-03 0.0 
0.0 0.0 -3.974404770784e-04 
-2.808996377463e-04 -1.954566177410e-04 0.0 
-1.954566177410e-04 1.711546538442e-03 0.0 
0.0 0.0 -2.813757158202e-04 
-5.769851111882e-04 1.945968129497e-04 0.0 
1.945968129497e-04 3.685550638925e-03 0.0 
0.0 0.0 -5.804062017457e-04 
-6.698465200997e-04 -1.848151346018e-04 0.0 
-1.848151346018e-04 4.407215399786e-03 0.0 
0.0 0.0 -6.703429011759e-04 
-7.069533997817e-04 -1.864555130782e-04 0.0 
-1.864555130782e-04 4.664424843705e-03 0.0 
0.0 0.0 -7.070647534220e-04 
-4.705619805672e-04 1.797584254588e-04 0.0 
1.797584254588e-04 2.905608131468e-03 0.0 
0.0 0.0 -4.680152132766e-04 
-7.664680765081e-04 1.944574444008e-04 0.0 
1.944574444008e-04 4.988010799345e-03 0.0 
0.0 0.0 -7.666177146937e-04 
-6.793079833930e-04 -1.842955306639e-04 0.0 
-1.842955306639e-04 4.467105658874e-03 0.0 
0.0 0.0 -6.790125122095e-04 
-7.192535587873e-04 1.886174479633e-04 0.0 
1.886174479633e-04 4.651675493154e-03 0.0 
0.0 0.0 -7.183521444552e-04 
-5.167516635029e-04 -1.889877885737e-04 0.0 
-1.889877885737e-04 3.361424050145e-03 0.0 
0.0 0.0 -5.205443542100e-04 
-9.916854113118e-04 -1.973034417569e-04 0.0 
-1.973034417569e-04 6.645632539252e-03 0.0 
0.0 0.0 -9.921115096417e-04 
-1.000725886826e-03 -2.001881518318e-04 0.0 
-2.001881518318e-04 6.682457666445e-03 0.0 
0.0 0.0 -9.984673180476e-04 
-6.910740697019e-04 1.869291771831e-04 0.0 
1.869291771831e-04 4.454330638785e-03 0.0 
0.0 0.0 -6.904379518788e-04 
-1.131075422052e-03 1.930354118908e-04 0.0 
1.930354118908e-04 7.540452433703e-03 0.0 
0.0 0.0 -1.133495712197e-03 
-3.818178823842e-04 -1.881304660736e-04 0.0 
-1.881304660736e-04 2.417279904182e-03 0.0 
0.0 0.0 -3.849690761666e-04 
-1.204919198583e-03 2.055908933390e-04 0.0 
2.055908933390e-04 8.107807864514e-03 0.0 
0.0 0.0 -1.208505026952e-03 
-7.381856154466e-04 1.951283212297e-04 0.0 
1.951283212297e-04 4.788651758778e-03 0.0 
0.0 0.0 -7.381355003807e-04 
-1.179893914325e-03 2.326195910896e-04 0.0 
2.326195910896e-04 8.057192319457e-03 0.0 
0.0 0.0 -1.203459118631e-03 
-9.174882615910e-04 -1.900236548233e-04 0.0 
-1.900236548233e-04 6.103327033778e-03 0.0 
0.0 0.0 -9.144069900286e-04 
-3.759838339719e-04 1.980975432101e-04 0.0 
1.980975432101e-04 2.280850535288e-03 0.0 
0.0 0.0 -3.788569260404e-04 
-9.329446838714e-04 -1.934956866743e-04 0.0 
-1.934956866743e-04 6.203824333692e-03 0.0 
0.0 0.0 -9.292863832265e-04 
-1.148316362968e-03 1.911406139228e-04 0.0 
1.911406139228e-04 7.656686617329e-03 0.0 
0.0 0.0 -1.148369591821e-03 
-7.751955477395e-04 1.935539670278e-04 0.0 
1.935539670278e-04 5.048248374235e-03 0.0 
0.0 0.0 -7.747733155264e-04 
-5.636121724150e-04 -1.856060269499e-04 0.0 
-1.856060269499e-04 3.652721039859e-03 0.0 
0.0 0.0 -5.621395992319e-04 
-9.592421645063e-04 -1.953589560094e-04 0.0 
-1.953589560094e-04 6.397497054977e-03 0.0 
0.0 0.0 -9.572423940436e-04 
-7.410203931499e-04 1.888947749689e-04 0.0 
1.888947749689e-04 4.805195564350e-03 0.0 
0.0 0.0 -7.402445244775e-04 
-3.049241937385e-04 2.026327067247e-04 0.0 
2.026327067247e-04 1.807680481835e-03 0.0 
0.0 0.0 -3.123079531677e-04 
-1.247303547099e-03 2.054291781831e-04 0.0 
2.054291781831e-04 8.428743189038e-03 0.0 
0.0 0.0 -1.259077240559e-03 
-2.832321787004e-04 2.033440710738e-04 0.0 
2.033440710738e-04 1.568411261078e-03 0.0 
0.0 0.0 -2.747754844540e-04 
-1.180725818141e-03 -1.959284539652e-04 0.0 
-1.959284539652e-04 8.086063063664e-03 0.0 
0.0 0.0 -1.194426649262e-03 
-1.181044415914e-03 1.885702677113e-04 0.0 
1.885702677113e-04 7.848025462359e-03 0.0 
0.0 0.0 -1.175981821618e-03 
-1.019774229424e-03 -1.968009652079e-04 0.0 
-1.968009652079e-04 6.844195853493e-03 0.0 
0.0 0.0 -1.020516803968e-03 
-9.063963003823e-04 2.216702355020e-04 0.0 
2.216702355020e-04 5.948302852210e-03 0.0 
0.0 0.0 -9.041796124736e-04 
-1.096159842107e-03 -2.041353887510e-04 0.0 
-2.041353887510e-04 7.354511593932e-03 0.0 
0.0 0.0 -1.094228678348e-03 
-7.158215028594e-04 -1.849822212150e-04 0.0 
-1.849822212150e-04 4.721957550486e-03 0.0 
0.0 0.0 -7.154996274706e-04 
-8.342688439829e-04 -1.960354733344e-04 0.0 
-1.960354733344e-04 5.542507863884e-03 0.0 
0.0 0.0 -8.337527902170e-04 
-1.179248762261e-03 1.915113563363e-04 0.0 
1.915113563363e-04 7.953436829066e-03 0.0 
0.0 0.0 -1.191782302182e-03 
-1.022355738208e-03 1.947903411638e-04 0.0 
1.947903411638e-04 6.764095762217e-03 0.0 
0.0 0.0 -1.021464098896e-03 
-1.029803380413e-03 -1.995345647328e-04 0.0 
-1.995345647328e-04 6.892395198165e-03 0.0 
0.0 0.0 -1.028225029406e-03 
-9.800703698298e-04 2.033610077795e-04 0.0 
2.033610077795e-04 6.469215121367e-03 0.0 
0.0 0.0 -9.780777104595e-04 
-3.460311380533e-04 1.949105016323e-04 0.0 
1.949105016323e-04 2.083431817991e-03 0.0 
0.0 0.0 -3.505936111242e-04 
-1.056998258985e-03 -2.024071474235e-04 0.0 
-2.024071474235e-04 7.098571223248e-03 0.0 
0.0 0.0 -1.057861461704e-03 
-1.245215734681e-03 -2.948889405528e-06 0.0 
-2.948889405528e-06 8.708064260567e-03 0.0 
0.0 0.0 -1.268085107495e-03 
-1.199968332554e-03 2.184447548861e-04 0.0 
2.184447548861e-04 8.021680446852e-03 0.0 
0.0 0.0 -1.202195648613e-03 
-6.908555778157e-04 1.952647486751e-04 0.0 
1.952647486751e-04 4.467406980685e-03 0.0 
0.0 0.0 -6.923681691211e-04 
-8.989504497264e-04 -2.030487714898e-04 0.0 
-2.030487714898e-04 5.998411166372e-03 0.0 
0.0 0.0 -9.020111041354e-04 
-8.706850616848e-04 2.163039302349e-04 0.0 
2.163039302349e-04 5.704755713039e-03 0.0 
0.0 0.0 -8.677534307045e-04 
-7.350398663415e-04 -1.921852650882e-04 0.0 
-1.921852650882e-04 4.858429528850e-03 0.0 
0.0 0.0 -7.352749011056e-04 
-9.925381973484e-04 1.968648573772e-04 0.0 
1.968648573772e-04 6.563559215451e-03 0.0 
0.0 0.0 -9.927925938929e-04 
-1.029028532084e-03 1.960911717032e-04 0.0 
1.960911717032e-04 6.822296250893e-03 0.0 
0.0 0.0 -1.030113165296e-03 
-2.401332151859e-04 -2.098625103456e-04 0.0 
-2.098625103456e-04 1.444865681486e-03 0.0 
0.0 0.0 -2.466400652194e-04 
-4.534206567438e-04 1.915983849917e-04 0.0 
1.915983849917e-04 2.786638049385e-03 0.0 
0.0 0.0 -4.508272210452e-04 
-7.276651503282e-04 1.887396446789e-04 0.0 
1.887396446789e-04 4.711996878728e-03 0.0 
0.0 0.0 -7.269793770173e-04 
-6.885109501690e-04 -1.881460235650e-04 0.0 
-1.881460235650e-04 4.526125077483e-03 0.0 
0.0 0.0 -6.875569550716e-04 
-7.327380615622e-04 1.893031023786e-04 0.0 
1.893031023786e-04 4.746976141071e-03 0.0 
0.0 0.0 -7.320784846625e-04 
-1.207414471784e-03 -1.921627464004e-04 0.0 
-1.921627464004e-04 8.251115158096e-03 0.0 
0.0 0.0 -1.225426844749e-03 
-1.165911235799e-03 1.728266951447e-04 0.0 
1.728266951447e-04 7.751919212480e-03 0.0 
0.0 0.0 -1.162686153705e-03 
-1.174125183305e-03 -1.966474411141e-04 0.0 
-1.966474411141e-04 7.895985343999e-03 0.0 
0.0 0.0 -1.173632101657e-03 
-6.588438363323e-04 -1.812037125044e-04 0.0 
-1.812037125044e-04 4.301364332342e-03 0.0 
0.0 0.0 -6.556197767577e-04 
-1.082747471146e-03 1.891035132956e-04 0.0 
1.891035132956e-04 7.201407994730e-03 0.0 
0.0 0.0 -1.082713561900e-03 
-9.901836726999e-04 -1.945402384494e-04 0.0 
-1.945402384494e-04 6.633588115461e-03 0.0 
0.0 0.0 -9.899156953211e-04 
-1.203900706285e-03 2.001643692103e-04 0.0 
2.001643692103e-04 8.020307122063e-03 0.0 
0.0 0.0 -1.198415070424e-03 
-1.018917370980e-03 -2.029360126540e-04 0.0 
-2.029360126540e-04 6.841232066874e-03 0.0 
0.0 0.0 -1.021631336281e-03 
-7.252862927281e-04 -1.917571483024e-04 0.0 
-1.917571483024e-04 4.797885526736e-03 0.0 
0.0 0.0 -7.266350563285e-04 
-6.996186826148e-04 1.874149340260e-04 0.0 
1.874149340260e-04 4.515630015583e-03 0.0 
0.0 0.0 -6.989458521267e-04 
-1.062701287971e-03 1.919893444833e-04 0.0 
1.919893444833e-04 7.044103527011e-03 0.0 
0.0 0.0 -1.060111126929e-03 
-1.159236038185e-03 -2.100410646673e-04 0.0 
-2.100410646673e-04 7.815649065545e-03 0.0 
0.0 0.0 -1.160283895044e-03 
-1.068044840095e-03 1.975027097547e-04 0.0 
1.975027097547e-04 7.089380260529e-03 0.0 
0.0 0.0 -1.066842251349e-03 
-1.033322736071e-03 1.952546159750e-04 0.0 
1.952546159750e-04 6.838585495745e-03 0.0 
0.0 0.0 -1.030428295937e-03 
-1.127957771235e-03 2.034159333984e-04 0.0 
2.034159333984e-04 7.486625778373e-03 0.0 
0.0 0.0 -1.124756152480e-03 
-1.155677614868e-03 -1.983866149801e-04 0.0 
-1.983866149801e-04 7.868967508162e-03 0.0 
0.0 0.0 -1.167530213646e-03 
-1.094507555949e-03 1.976519323402e-04 0.0 
1.976519323402e-04 7.281086392671e-03 0.0 
0.0 0.0 -1.096139997395e-03 
-8.893531318376e-04 1.947803294653e-04 0.0 
1.947803294653e-04 5.843023406601e-03 0.0 
0.0 0.0 -8.895595506238e-04 
-6.419372915529e-04 1.659854799663e-04 0.0 
1.659854799663e-04 4.112940198776e-03 0.0 
0.0 0.0 -6.419897747600e-04 
-1.057958817333e-03 -1.915382936822e-04 0.0 
-1.915382936822e-04 7.093836536897e-03 0.0 
0.0 0.0 -1.057160997780e-03 
-1.010397126926e-03 1.924777478118e-04 0.0 
1.924777478118e-04 6.699973834187e-03 0.0 
0.0 0.0 -1.010795753303e-03 
-4.010552004861e-04 1.841654314204e-04 0.0 
1.841654314204e-04 2.442507368575e-03 0.0 
0.0 0.0 -4.018221946533e-04 
-7.246063133898e-04 -1.880612964647e-04 0.0 
-1.880612964647e-04 4.782342909510e-03 0.0 
0.0 0.0 -7.241222962603e-04 
-8.198364604858e-04 1.863931235936e-04 0.0 
1.863931235936e-04 5.353653336719e-03 0.0 
0.0 0.0 -8.193994707270e-04 
-8.991995514688e-04 -1.967035222147e-04 0.0 
-1.967035222147e-04 5.995025760983e-03 0.0 
0.0 0.0 -8.986564694586e-04 
-4.050243053020e-04 1.994613475965e-04 0.0 
1.994613475965e-04 2.469637685563e-03 0.0 
0.0 0.0 -4.057256964758e-04 
-6.967689891126e-04 -1.888281546422e-04 0.0 
-1.888281546422e-04 4.585730407348e-03 0.0 
0.0 0.0 -6.962026719631e-04 
-9.643194553962e-04 -1.980704148003e-04 0.0 
-1.980704148003e-04 6.448875351116e-03 0.0 
0.0 0.0 -9.636952012155e-04 
-7.333735645701e-04 1.825225121090e-04 0.0 
1.825225121090e-04 4.734280668460e-03 0.0 
0.0 0.0 -7.294090860402e-04 
-7.570403720066e-04 1.947967854262e-04 0.0 
1.947967854262e-04 4.925685443404e-03 0.0 
0.0 0.0 -7.579899565570e-04 
-9.487659951765e-04 -2.043170517302e-04 0.0 
-2.043170517302e-04 6.373556266418e-03 0.0 
0.0 0.0 -9.556638187253e-04 
-7.610430462996e-04 1.745184878598e-04 0.0 
1.745184878598e-04 5.044670069107e-03 0.0 
0.0 0.0 -7.638029664831e-04 
-1.838096952562e-04 2.082695791090e-04 0.0 
2.082695791090e-04 7.724611367138e-04 0.0 
0.0 0.0 -1.578647551136e-04 
-8.576241388509e-04 -1.943288446579e-04 0.0 
-1.943288446579e-04 5.714280224429e-03 0.0 
0.0 0.0 -8.580817703278e-04 
-1.051194806149e-03 1.905396044606e-04 0.0 
1.905396044606e-04 6.972468322912e-03 0.0 
0.0 0.0 -1.051835763028e-03 
-1.194223105728e-03 2.022847639454e-04 0.0 
2.022847639454e-04 8.008401190618e-03 0.0 
0.0 0.0 -1.196871286280e-03 
-8.007996408172e-04 1.886044981360e-04 0.0 
1.886044981360e-04 5.220729595959e-03 0.0 
0.0 0.0 -7.999758813884e-04 
-8.231738978705e-04 1.954670675702e-04 0.0 
1.954670675702e-04 5.384433434041e-03 0.0 
0.0 0.0 -8.237210115815e-04 
-9.659298580920e-04 -1.974560001277e-04 0.0 
-1.974560001277e-04 6.432078237772e-03 0.0 
0.0 0.0 -9.620958722924e-04 
-2.561485936919e-04 2.198683939719e-04 0.0 
2.198683939719e-04 1.251380499119e-03 0.0 
0.0 0.0 -2.247161217206e-04 
-1.023132414130e-03 1.887327440294e-04 0.0 
1.887327440294e-04 6.775332410064e-03 0.0 
0.0 0.0 -1.023361637732e-03 
-8.622181034216e-04 -1.951138773543e-04 0.0 
-1.951138773543e-04 5.740266887697e-03 0.0 
0.0 0.0 -8.619475031456e-04 
-7.647880329061e-04 -1.862411199866e-04 0.0 
-1.862411199866e-04 5.038541863179e-03 0.0 
0.0 0.0 -7.615729788896e-04 
-1.027082371763e-03 -1.922014268245e-04 0.0 
-1.922014268245e-04 6.892038875610e-03 0.0 
0.0 0.0 -1.027225276160e-03 
-3.935518598364e-04 -1.714817472150e-04 0.0 
-1.714817472150e-04 2.494688902106e-03 0.0 
0.0 0.0 -3.946419382404e-04 
-1.063411595146e-03 -1.940895073894e-04 0.0 
-1.940895073894e-04 7.151260433919e-03 0.0 
0.0 0.0 -1.064556537081e-03 
-1.170769687049e-03 1.998990496914e-04 0.0 
1.998990496914e-04 7.807167189230e-03 0.0 
0.0 0.0 -1.170878753521e-03 
-9.957874322238e-04 1.860819940760e-04 0.0 
1.860819940760e-04 6.577964668805e-03 0.0 
0.0 0.0 -9.948919501216e-04 
-1.066802879167e-03 -1.994715727017e-04 0.0 
-1.994715727017e-04 7.144842154603e-03 0.0 
0.0 0.0 -1.064574987933e-03 
-1.080893362265e-03 -2.009448288778e-04 0.0 
-2.009448288778e-04 7.278345089593e-03 0.0 
0.0 0.0 -1.082686220397e-03 
-1.164339334361e-03 -2.029535809834e-04 0.0 
-2.029535809834e-04 7.872490943299e-03 0.0 
0.0 0.0 -1.168035910845e-03 
-3.299141803929e-04 2.316983388686e-04 0.0 
2.316983388686e-04 1.731538717207e-03 0.0 
0.0 0.0 -2.917408095836e-04 
-9.904023149971e-04 -1.959122471390e-04 0.0 
-1.959122471390e-04 6.637118298013e-03 0.0 
0.0 0.0 -9.919185416031e-04 
-1.168730602385e-03 -1.909886301280e-04 0.0 
-1.909886301280e-04 7.900162167174e-03 0.0 
0.0 0.0 -1.173906618061e-03 
-1.099721820410e-03 1.948899321208e-04 0.0 
1.948899321208e-04 7.299287446510e-03 0.0 
0.0 0.0 -1.096489272820e-03 
-9.304220125416e-04 1.873101926856e-04 0.0 
1.873101926856e-04 6.124362452359e-03 0.0 
0.0 0.0 -9.297700869391e-04 
-7.330744366569e-04 -1.923064886364e-04 0.0 
-1.923064886364e-04 4.838398720579e-03 0.0 
0.0 0.0 -7.325247082200e-04 
-8.060696050279e-04 1.870863771178e-04 0.0 
1.870863771178e-04 5.268149186535e-03 0.0 
0.0 0.0 -8.069452076110e-04 
-2.418248245405e-04 2.109020271233e-04 0.0 
2.109020271233e-04 1.359709000534e-03 0.0 
0.0 0.0 -2.482170483719e-04 
-1.134273257583e-03 1.988705509169e-04 0.0 
1.988705509169e-04 7.550007886780e-03 0.0 
0.0 0.0 -1.132911322290e-03 
-4.274524748729e-04 1.964334948297e-04 0.0 
1.964334948297e-04 2.645397720372e-03 0.0 
0.0 0.0 -4.309687334850e-04 
-3.881418594362e-04 1.833155679552e-04 0.0 
1.833155679552e-04 2.160044348329e-03 0.0 
0.0 0.0 -3.582286249851e-04 
-1.052002855886e-03 -1.883464211935e-04 0.0 
-1.883464211935e-04 7.074906707182e-03 0.0 
0.0 0.0 -1.054483161448e-03 
-1.207081545900e-03 1.915242773210e-04 0.0 
1.915242773210e-04 8.072287243083e-03 0.0 
0.0 0.0 -1.206783194404e-03 
-3.547804392097e-04 -1.807868565671e-04 0.0 
-1.807868565671e-04 2.226917608771e-03 0.0 
0.0 0.0 -3.573182248098e-04 
-8.366419951608e-04 -1.885488255626e-04 0.0 
-1.885488255626e-04 5.554595282055e-03 0.0 
0.0 0.0 -8.358581584049e-04 
-1.023802301552e-03 1.940941463560e-04 0.0 
1.940941463560e-04 6.787907294573e-03 0.0 
0.0 0.0 -1.023814440555e-03 
-7.829083596588e-04 -1.954293300843e-04 0.0 
-1.954293300843e-04 5.194152372337e-03 0.0 
0.0 0.0 -7.840072721007e-04 
-4.010673323255e-04 -1.915498976049e-04 0.0 
-1.915498976049e-04 2.542328077149e-03 0.0 
0.0 0.0 -4.027365510179e-04 
-5.321744599270e-04 1.883621527591e-04 0.0 
1.883621527591e-04 3.333505553591e-03 0.0 
0.0 0.0 -5.292697486782e-04 
-2.639771075772e-04 1.646102614639e-04 0.0 
1.646102614639e-04 1.613590548762e-03 0.0 
0.0 0.0 -2.862163191752e-04 
-3.553659692627e-04 1.943928252885e-04 0.0 
1.943928252885e-04 2.154693693140e-03 0.0 
0.0 0.0 -3.608158092454e-04 
-3.249476260035e-04 1.935471720913e-04 0.0 
1.935471720913e-04 1.899890607766e-03 0.0 
0.0 0.0 -3.238926756799e-04 
-8.653379371193e-04 1.875602502826e-04 0.0 
1.875602502826e-04 5.671952828596e-03 0.0 
0.0 0.0 -8.647910268431e-04 
-1.297827382279e-03 4.785112367208e-06 0.0 
4.785112367208e-06 9.109555355960e-03 0.0 
0.0 0.0 -1.324146187826e-03 
-4.467143920628e-04 1.726574000167e-04 0.0 
1.726574000167e-04 2.617142877359e-03 0.0 
0.0 0.0 -4.244337567297e-04 
-1.156016819955e-03 1.914756519666e-04 0.0 
1.914756519666e-04 7.686772050836e-03 0.0 
0.0 0.0 -1.153422328581e-03 
-6.441918423607e-04 1.888512827500e-04 0.0 
1.888512827500e-04 4.126863023303e-03 0.0 
0.0 0.0 -6.430507458085e-04 
-9.827241532880e-04 -2.074075714334e-04 0.0 
-2.074075714334e-04 6.589898560790e-03 0.0 
0.0 0.0 -9.856407671940e-04 
-3.167090590366e-04 1.983492302007e-04 0.0 
1.983492302007e-04 1.826080605665e-03 0.0 
0.0 0.0 -3.129386394028e-04 
-1.211080746195e-03 -1.918872231890e-04 0.0 
-1.918872231890e-04 8.120902711811e-03 0.0 
0.0 0.0 -1.206759618350e-03 
-3.103668027405e-04 -1.740204278261e-04 0.0 
-1.740204278261e-04 1.967988296131e-03 0.0 
0.0 0.0 -3.202688159031e-04 
-4.904887743195e-04 1.972396724306e-04 0.0 
1.972396724306e-04 3.115116694861e-03 0.0 
0.0 0.0 -4.995972236199e-04 
-1.033982221523e-03 1.864504257491e-04 0.0 
1.864504257491e-04 6.836114975340e-03 0.0 
0.0 0.0 -1.031547093314e-03 
-7.437947252401e-04 -1.892750744378e-04 0.0 
-1.892750744378e-04 4.914077369227e-03 0.0 
0.0 0.0 -7.436172176343e-04 
-1.132860593058e-03 -1.933960126785e-04 0.0 
-1.933960126785e-04 7.665930668868e-03 0.0 
0.0 0.0 -1.139062866688e-03 
-5.749455652610e-04 -1.941924528231e-04 0.0 
-1.941924528231e-04 3.751246786669e-03 0.0 
0.0 0.0 -5.762899171568e-04 
-1.046111348023e-03 -1.920749274324e-04 0.0 
-1.920749274324e-04 7.006833931181e-03 0.0 
0.0 0.0 -1.044446328659e-03 
-1.179461128015e-03 1.956649310083e-04 0.0 
1.956649310083e-04 7.993560630903e-03 0.0 
0.0 0.0 -1.198892520503e-03 
-9.969097330870e-04 1.983464851525e-04 0.0 
1.983464851525e-04 6.585106213614e-03 0.0 
0.0 0.0 -9.940794652285e-04 
-1.204741342101e-03 -1.841288982353e-04 0.0 
-1.841288982353e-04 8.066681748081e-03 0.0 
0.0 0.0 -1.194784139986e-03 
-1.085983696521e-03 -2.024519851536e-04 0.0 
-2.024519851536e-04 7.301290877674e-03 0.0 
0.0 0.0 -1.087318097122e-03 
-1.116801267184e-03 -2.016255265415e-04 0.0 
-2.016255265415e-04 7.509256724676e-03 0.0 
0.0 0.0 -1.116677092124e-03 
-3.616370043147e-04 1.787208051053e-04 0.0 
1.787208051053e-04 2.150891016686e-03 0.0 
0.0 0.0 -3.599422446610e-04 
-1.117518330453e-03 1.826877579253e-04 0.0 
1.826877579253e-04 7.419146366892e-03 0.0 
0.0 0.0 -1.115908039155e-03 
-1.052373239860e-03 1.884691524879e-04 0.0 
1.884691524879e-04 6.996291933739e-03 0.0 
0.0 0.0 -1.053364550114e-03 
-7.811189844041e-04 1.901992250616e-04 0.0 
1.901992250616e-04 5.082233377235e-03 0.0 
0.0 0.0 -7.792489223127e-04 
-5.208782508076e-04 1.844281060279e-04 0.0 
1.844281060279e-04 3.081353701983e-03 0.0 
0.0 0.0 -4.908673385051e-04 
-1.207263385308e-03 -1.938793257757e-04 0.0 
-1.938793257757e-04 8.301996435605e-03 0.0 
0.0 0.0 -1.232292820449e-03 
-4.172393042969e-04 1.982283144972e-04 0.0 
1.982283144972e-04 2.530985310794e-03 0.0 
0.0 0.0 -4.142712813041e-04 
-4.585162122278e-04 -2.188978008165e-04 0.0 
-2.188978008165e-04 2.969334744374e-03 0.0 
0.0 0.0 -4.655197245388e-04 
-1.104373486365e-03 2.012226859918e-04 0.0 
2.012226859918e-04 7.350396136819e-03 0.0 
0.0 0.0 -1.105063927110e-03 
-2.968425273524e-04 -1.642057746456e-04 0.0 
-1.642057746456e-04 1.792416919805e-03 0.0 
0.0 0.0 -2.939799329518e-04 
-7.924236500379e-04 -1.848261227190e-04 0.0 
-1.848261227190e-04 5.252920665959e-03 0.0 
0.0 0.0 -7.924235178053e-04 
-1.061921988885e-03 1.812104659022e-04 0.0 
1.812104659022e-04 7.031393709582e-03 0.0 
0.0 0.0 -1.059843925468e-03 
-1.181481514864e-03 -1.809401034033e-04 0.0 
-1.809401034033e-04 7.945597505832e-03 0.0 
0.0 0.0 -1.181155146799e-03 
-1.216519596998e-03 -1.765367581353e-04 0.0 
-1.765367581353e-04 8.170458135963e-03 0.0 
0.0 0.0 -1.210943746944e-03 
-1.030728582983e-03 -1.988607177777e-04 0.0 
-1.988607177777e-04 6.902267769970e-03 0.0 
0.0 0.0 -1.028825005900e-03 
-1.124714132978e-03 -2.064810197621e-04 0.0 
-2.064810197621e-04 7.559899990810e-03 0.0 
0.0 0.0 -1.123737208958e-03 
-6.812903531147e-04 1.901379600770e-04 0.0 
1.901379600770e-04 4.380740483724e-03 0.0 
0.0 0.0 -6.793824814286e-04 
-1.062351922354e-03 -1.985736001596e-04 0.0 
-1.985736001596e-04 7.130265690032e-03 0.0 
0.0 0.0 -1.062452857821e-03 
-5.858181118698e-04 1.875072715160e-04 0.0 
1.875072715160e-04 3.545318163494e-03 0.0 
0.0 0.0 -5.576509564599e-04 
-1.191462796189e-03 1.791343230628e-04 0.0 
1.791343230628e-04 7.859967464318e-03 0.0 
0.0 0.0 -1.181751882508e-03 
-6.536967362184e-04 1.840019481607e-04 0.0 
1.840019481607e-04 4.012532136349e-03 0.0 
0.0 0.0 -6.243763318321e-04 
-6.397657085008e-04 1.469527108766e-04 0.0 
1.469527108766e-04 4.231461376740e-03 0.0 
0.0 0.0 -6.577503189808e-04 
-7.727292442473e-04 1.893751122866e-04 0.0 
1.893751122866e-04 5.025497285819e-03 0.0 
0.0 0.0 -7.717627972493e-04 
-7.120157842108e-04 2.033227012875e-04 0.0 
2.033227012875e-04 4.491531755345e-03 0.0 
0.0 0.0 -6.911701761307e-04 
-8.847543506960e-04 -1.860726363622e-04 0.0 
-1.860726363622e-04 5.886975687793e-03 0.0 
0.0 0.0 -8.833033330409e-04 
-7.223081526863e-04 -1.890141103708e-04 0.0 
-1.890141103708e-04 4.756005682412e-03 0.0 
0.0 0.0 -7.209687761305e-04 
-7.611226546140e-04 -1.925027368286e-04 0.0 
-1.925027368286e-04 5.033487039423e-03 0.0 
0.0 0.0 -7.606211034647e-04 
-3.677272213406e-04 1.965668598146e-04 0.0 
1.965668598146e-04 2.206714062611e-03 0.0 
0.0 0.0 -3.685806404478e-04 
-7.360898597851e-04 1.893736919884e-04 0.0 
1.893736919884e-04 4.769891666686e-03 0.0 
0.0 0.0 -7.353490689725e-04 
-1.164475384932e-03 1.920424604491e-04 0.0 
1.920424604491e-04 7.760458237861e-03 0.0 
0.0 0.0 -1.162517914204e-03 
-1.189135404011e-03 2.424308074021e-04 0.0 
2.424308074021e-04 8.008663372928e-03 0.0 
0.0 0.0 -1.195263893373e-03 
-1.051433761328e-03 1.900846295013e-04 0.0 
1.900846295013e-04 6.962500509983e-03 0.0 
0.0 0.0 -1.050100468764e-03 
-1.163815806160e-03 1.939359249112e-04 0.0 
1.939359249112e-04 7.801481486737e-03 0.0 
0.0 0.0 -1.170266998156e-03 
-7.471505649133e-04 1.914654167736e-04 0.0 
1.914654167736e-04 4.846432176661e-03 0.0 
0.0 0.0 -7.463264885205e-04 
-1.116874559966e-03 1.925152765080e-04 0.0 
1.925152765080e-04 7.452691656896e-03 0.0 
0.0 0.0 -1.119019617531e-03 
-7.641727686351e-04 1.895140519535e-04 0.0 
1.895140519535e-04 4.965709915575e-03 0.0 
0.0 0.0 -7.634232545038e-04 
-1.140149646673e-03 1.894710294716e-04 0.0 
1.894710294716e-04 7.619303377370e-03 0.0 
0.0 0.0 -1.144395376583e-03 
-1.089871366961e-03 1.866180545901e-04 0.0 
1.866180545901e-04 7.246015693997e-03 0.0 
0.0 0.0 -1.089631904438e-03 
-1.081578605974e-03 -1.978658757613e-04 0.0 
-1.978658757613e-04 7.257137764756e-03 0.0 
0.0 0.0 -1.080451501872e-03 
-9.579838523443e-04 1.886955211530e-04 0.0 
1.886955211530e-04 6.320335730528e-03 0.0 
0.0 0.0 -9.580909834143e-04 
-7.089543903964e-04 1.893728274012e-04 0.0 
1.893728274012e-04 4.575360328887e-03 0.0 
0.0 0.0 -7.073300717972e-04 
-1.127664739308e-03 -1.829222399518e-04 0.0 
-1.829222399518e-04 7.564515174457e-03 0.0 
0.0 0.0 -1.126038590206e-03 
-9.212765999104e-04 1.860043167072e-04 0.0 
1.860043167072e-04 6.042010505937e-03 0.0 
0.0 0.0 -9.169694165663e-04 
-3.707997860418e-04 -2.047832537349e-04 0.0 
-2.047832537349e-04 2.273008460466e-03 0.0 
0.0 0.0 -3.661348613279e-04 
-4.119491099640e-04 -1.837644939852e-04 0.0 
-1.837644939852e-04 2.602040481245e-03 0.0 
0.0 0.0 -4.113794265144e-04 
-6.058388203502e-04 1.800194521296e-04 0.0 
1.800194521296e-04 3.855006073365e-03 0.0 
0.0 0.0 -6.061407060701e-04 
-8.399206414718e-04 1.851255513351e-04 0.0 
1.851255513351e-04 5.491811110990e-03 0.0 
0.0 0.0 -8.384786063130e-04 
-1.169227413895e-03 1.987098364224e-04 0.0 
1.987098364224e-04 7.826180536376e-03 0.0 
0.0 0.0 -1.173545322487e-03 
-1.051413170775e-03 -2.036953792705e-04 0.0 
-2.036953792705e-04 7.051256599190e-03 0.0 
0.0 0.0 -1.051102540299e-03 
-7.053171708153e-04 -1.917417752611e-04 0.0 
-1.917417752611e-04 4.643848416984e-03 0.0 
0.0 0.0 -7.045205360201e-04 
-9.343548124899e-04 -1.929012807103e-04 0.0 
-1.929012807103e-04 6.238086933522e-03 0.0 
0.0 0.0 -9.344940742331e-04 
-1.088202517562e-03 1.963493920645e-04 0.0 
1.963493920645e-04 7.240451625201e-03 0.0 
0.0 0.0 -1.088599101970e-03 
-1.132213948578e-03 -2.019794901778e-04 0.0 
-2.019794901778e-04 7.607209750872e-03 0.0 
0.0 0.0 -1.130578931274e-03 
-1.175177652279e-03 -1.432114671164e-04 0.0 
-1.432114671164e-04 7.818239968608e-03 0.0 
0.0 0.0 -1.160781586281e-03 
-9.493017134461e-04 1.856369855211e-04 0.0 
1.856369855211e-04 6.294032018234e-03 0.0 
0.0 0.0 -9.517943393003e-04 
-1.114893974024e-03 1.926717475022e-04 0.0 
1.926717475022e-04 7.405468821271e-03 0.0 
0.0 0.0 -1.113435711030e-03 
-7.974711636665e-04 -1.944203939155e-04 0.0 
-1.944203939155e-04 5.288608064412e-03 0.0 
0.0 0.0 -7.971871449874e-04 
-1.087511397267e-03 -1.918432502511e-04 0.0 
-1.918432502511e-04 7.293095143965e-03 0.0 
0.0 0.0 -1.086118700983e-03 
-7.957657220237e-04 1.875502652183e-04 0.0 
1.875502652183e-04 5.187404479596e-03 0.0 
0.0 0.0 -7.951163407912e-04 
-1.190027282138e-03 -1.889094988141e-04 0.0 
-1.889094988141e-04 8.016045742998e-03 0.0 
0.0 0.0 -1.188704642750e-03 
-1.182786985987e-03 -2.095818808978e-04 0.0 
-2.095818808978e-04 8.112308359412e-03 0.0 
0.0 0.0 -1.200489323427e-03 
-8.931557397796e-04 1.886870491782e-04 0.0 
1.886870491782e-04 5.866647832542e-03 0.0 
0.0 0.0 -8.929891684399e-04 
-3.790334035775e-04 2.022524645534e-04 0.0 
2.022524645534e-04 2.272501623496e-03 0.0 
0.0 0.0 -3.776191643183e-04 
-1.116621675417e-03 1.833509055247e-04 0.0 
1.833509055247e-04 7.407703431036e-03 0.0 
0.0 0.0 -1.113685640909e-03 
-8.560269120279e-04 -1.850645517351e-04 0.0 
-1.850645517351e-04 5.691539379015e-03 0.0 
0.0 0.0 -8.555605426019e-04 
-6.779302938366e-04 -1.908402865227e-04 0.0 
-1.908402865227e-04 4.449768302467e-03 0.0 
0.0 0.0 -6.765734244908e-04 
-9.269459503729e-04 -1.957083840497e-04 0.0 
-1.957083840497e-04 6.192523979842e-03 0.0 
0.0 0.0 -9.269463096178e-04 
-1.072502528949e-03 -2.041434169698e-04 0.0 
-2.041434169698e-04 7.210267326329e-03 0.0 
0.0 0.0 -1.072977024862e-03 
-3.719606472365e-04 -1.835949221077e-04 0.0 
-1.835949221077e-04 2.345098090713e-03 0.0 
0.0 0.0 -3.746637649435e-04 
-8.285830534024e-04 1.877054302830e-04 0.0 
1.877054302830e-04 5.415216649357e-03 0.0 
0.0 0.0 -8.281205301186e-04 
-9.633029216945e-04 1.794107507867e-04 0.0 
1.794107507867e-04 6.339174664891e-03 0.0 
0.0 0.0 -9.596127204057e-04 
-1.165821597608e-03 -2.067678885501e-04 0.0 
-2.067678885501e-04 7.892442231831e-03 0.0 
0.0 0.0 -1.170838755190e-03 
-9.895100639472e-04 1.759458030689e-04 0.0 
1.759458030689e-04 6.529075947432e-03 0.0 
0.0 0.0 -9.876491701490e-04 
-1.085596099012e-03 1.937230915424e-04 0.0 
1.937230915424e-04 7.212019617214e-03 0.0 
0.0 0.0 -1.085374163265e-03 
-9.372562607785e-04 1.792840605659e-04 0.0 
1.792840605659e-04 6.146041579427e-03 0.0 
0.0 0.0 -9.316602363005e-04 
-8.975747507543e-04 1.987030926427e-04 0.0 
1.987030926427e-04 5.753154163109e-03 0.0 
0.0 0.0 -8.756372412555e-04 
-9.482059618595e-04 1.851978750998e-04 0.0 
1.851978750998e-04 6.234676071384e-03 0.0 
0.0 0.0 -9.447135688329e-04 
-1.130898821175e-03 2.049231627904e-04 0.0 
2.049231627904e-04 7.550084487667e-03 0.0 
0.0 0.0 -1.133505030480e-03 
-1.085374007423e-03 -2.008613375728e-04 0.0 
-2.008613375728e-04 7.297255264970e-03 0.0 
0.0 0.0 -1.084522140297e-03 
-1.016986910713e-03 1.835607482604e-04 0.0 
1.835607482604e-04 6.748472102274e-03 0.0 
0.0 0.0 -1.017300281410e-03 
-1.211783257084e-03 1.757837481836e-04 0.0 
1.757837481836e-04 8.121141767086e-03 0.0 
0.0 0.0 -1.212886757924e-03 
-9.118555854046e-04 1.822932037183e-04 0.0 
1.822932037183e-04 5.952136168219e-03 0.0 
0.0 0.0 -9.037302385344e-04 
-5.771676927997e-04 -1.905418044285e-04 0.0 
-1.905418044285e-04 3.749121588691e-03 0.0 
0.0 0.0 -5.760585567884e-04 
-1.146857850750e-03 -2.012024813042e-04 0.0 
-2.012024813042e-04 7.726356069459e-03 0.0 
0.0 0.0 -1.146733564437e-03 
-1.190361811188e-03 -2.231584585379e-04 0.0 
-2.231584585379e-04 8.068085284209e-03 0.0 
0.0 0.0 -1.196744929305e-03 
-7.877111731868e-04 1.869730341935e-04 0.0 
1.869730341935e-04 5.130080362463e-03 0.0 
0.0 0.0 -7.869228524964e-04 
-8.229073892259e-04 1.889823334213e-04 0.0 
1.889823334213e-04 5.378866845597e-03 0.0 
0.0 0.0 -8.226527892688e-04 
-6.410005540226e-04 -1.918474041219e-04 0.0 
-1.918474041219e-04 4.195976321250e-03 0.0 
0.0 0.0 -6.402419685743e-04 
-1.047323379365e-03 1.912705100611e-04 0.0 
1.912705100611e-04 6.951134229714e-03 0.0 
0.0 0.0 -1.046609947212e-03 
-6.536475585395e-04 1.928032985675e-04 0.0 
1.928032985675e-04 4.182884861133e-03 0.0 
0.0 0.0 -6.500746975200e-04 
-9.153598550126e-04 1.963880349301e-04 0.0 
1.963880349301e-04 6.020758345298e-03 0.0 
0.0 0.0 -9.137630964162e-04 
-6.488950437602e-04 -1.797823528638e-04 0.0 
-1.797823528638e-04 4.242459853736e-03 0.0 
0.0 0.0 -6.476280927198e-04 
-1.069873888271e-03 1.950588935170e-04 0.0 
1.950588935170e-04 7.095085750561e-03 0.0 
0.0 0.0 -1.068254633495e-03 
-1.209590731991e-03 -1.550085898134e-04 0.0 
-1.550085898134e-04 8.118970202182e-03 0.0 
0.0 0.0 -1.211228670573e-03 
-6.691229637013e-04 -1.915091740607e-04 0.0 
-1.915091740607e-04 4.390308397494e-03 0.0 
0.0 0.0 -6.682047883386e-04 
-2.351166358341e-04 -2.031494045747e-04 0.0 
-2.031494045747e-04 1.435993492405e-03 0.0 
0.0 0.0 -2.451578436693e-04 
-1.204420763458e-03 1.961268392442e-04 0.0 
1.961268392442e-04 8.059775147050e-03 0.0 
0.0 0.0 -1.207184308065e-03 
-6.887858324241e-04 1.799755313790e-04 0.0 
1.799755313790e-04 4.424727357305e-03 0.0 
0.0 0.0 -6.853381776776e-04 
-7.835288517238e-04 1.879460947128e-04 0.0 
1.879460947128e-04 5.099659123499e-03 0.0 
0.0 0.0 -7.828151049093e-04 
-1.160407951921e-03 2.005539249279e-04 0.0 
2.005539249279e-04 7.864449254895e-03 0.0 
0.0 0.0 -1.177925372349e-03 
-1.016320152694e-03 -1.997312198958e-04 0.0 
-1.997312198958e-04 6.802485040097e-03 0.0 
0.0 0.0 -1.015069748350e-03 
-1.057178896244e-03 -1.942199100265e-04 0.0 
-1.942199100265e-04 7.094939907719e-03 0.0 
0.0 0.0 -1.055879354346e-03 
-6.858748156510e-04 -1.861020149713e-04 0.0 
-1.861020149713e-04 4.508466491458e-03 0.0 
0.0 0.0 -6.851017020021e-04 
-2.031820811394e-04 1.985739834671e-04 0.0 
1.985739834671e-04 1.096275256380e-03 0.0 
0.0 0.0 -2.111397097017e-04 
-1.218012060933e-03 -2.324828983585e-04 0.0 
-2.324828983585e-04 8.157957467951e-03 0.0 
0.0 0.0 -1.202131160132e-03 
-8.665795831994e-04 1.858441781354e-04 0.0 
1.858441781354e-04 5.682543428283e-03 0.0 
0.0 0.0 -8.660506973337e-04 
-1.008559534197e-03 -2.140754109307e-04 0.0 
-2.140754109307e-04 6.735537996686e-03 0.0 
0.0 0.0 -1.007142642412e-03 
-1.160459194418e-03 1.856922992241e-04 0.0 
1.856922992241e-04 7.735308684736e-03 0.0 
0.0 0.0 -1.157822513452e-03 
-1.616552956258e-04 1.423609377971e-04 0.0 
1.423609377971e-04 6.732585101887e-04 0.0 
0.0 0.0 -1.502316149797e-04 
-1.058859563023e-03 1.992298708808e-04 0.0 
1.992298708808e-04 7.024120321951e-03 0.0 
0.0 0.0 -1.058763633038e-03 
-4.932099791949e-04 -1.894809356614e-04 0.0 
-1.894809356614e-04 3.157806772283e-03 0.0 
0.0 0.0 -4.919579008500e-04 
-9.451714429142e-04 -2.012700485210e-04 0.0 
-2.012700485210e-04 6.343190678808e-03 0.0 
0.0 0.0 -9.498437721210e-04 
-8.487405687036e-04 -1.950463421938e-04 0.0 
-1.950463421938e-04 5.654542604036e-03 0.0 
0.0 0.0 -8.496012432876e-04 
-6.717289225013e-04 1.881380853815e-04 0.0 
1.881380853815e-04 4.320340016049e-03 0.0 
0.0 0.0 -6.709551114794e-04 
-1.138399201716e-03 -1.969931368524e-04 0.0 
-1.969931368524e-04 7.687743728139e-03 0.0 
0.0 0.0 -1.141635569211e-03 
-8.863371368954e-04 1.906753618110e-04 0.0 
1.906753618110e-04 5.821740968712e-03 0.0 
0.0 0.0 -8.859145181037e-04 
-6.078808339747e-04 1.896100471318e-04 0.0 
1.896100471318e-04 3.873866771808e-03 0.0 
0.0 0.0 -6.067458373204e-04 
-8.988471733596e-04 -1.905617358742e-04 0.0 
-1.905617358742e-04 5.993481774552e-03 0.0 
0.0 0.0 -8.989548790023e-04 
-1.952954180545e-04 -1.905102926162e-04 0.0 
-1.905102926162e-04 1.173502522438e-03 0.0 
0.0 0.0 -2.081142276587e-04 
-1.024988576596e-03 -1.935191657476e-04 0.0 
-1.935191657476e-04 6.880398785368e-03 0.0 
0.0 0.0 -1.026417656363e-03 
-1.069604476726e-03 -1.976553008556e-04 0.0 
-1.976553008556e-04 7.163110056360e-03 0.0 
0.0 0.0 -1.065496432940e-03 
-1.229744167387e-03 -1.464305357593e-04 0.0 
-1.464305357593e-04 8.209785373221e-03 0.0 
0.0 0.0 -1.233600908384e-03 
-1.090183204667e-03 -1.971253990561e-04 0.0 
-1.971253990561e-04 7.328950110722e-03 0.0 
0.0 0.0 -1.090749533212e-03 
-4.766984691118e-04 -1.850928375115e-04 0.0 
-1.850928375115e-04 3.048442125330e-03 0.0 
0.0 0.0 -4.758149136988e-04 
-1.046974953030e-03 -1.977469482828e-04 0.0 
-1.977469482828e-04 7.033167652259e-03 0.0 
0.0 0.0 -1.047231727503e-03 
-1.207083647933e-03 1.808427044482e-04 0.0 
1.808427044482e-04 8.205581432035e-03 0.0 
0.0 0.0 -1.228155452712e-03 
-1.260668266969e-03 -1.832526413476e-04 0.0 
-1.832526413476e-04 8.522719369677e-03 0.0 
0.0 0.0 -1.267145247477e-03 
-1.104740620517e-03 -1.903291503951e-04 0.0 
-1.903291503951e-04 7.419136809817e-03 0.0 
0.0 0.0 -1.102242875413e-03 
-7.141399757063e-04 -1.908850217657e-04 0.0 
-1.908850217657e-04 4.699621454475e-03 0.0 
0.0 0.0 -7.127912709901e-04 
-9.617225215176e-04 -1.932311968947e-04 0.0 
-1.932311968947e-04 6.435112240426e-03 0.0 
0.0 0.0 -9.624716764950e-04 
-1.172863749534e-03 1.716370371983e-04 0.0 
1.716370371983e-04 7.752633284680e-03 0.0 
0.0 0.0 -1.164316760544e-03 
-7.921196063416e-04 -1.921710320451e-04 0.0 
-1.921710320451e-04 5.233600587143e-03 0.0 
0.0 0.0 -7.878971455476e-04 
-1.056322180914e-03 1.849092776283e-04 0.0 
1.849092776283e-04 7.010189158039e-03 0.0 
0.0 0.0 -1.057196955382e-03 
-9.850942903468e-04 1.906307977984e-04 0.0 
1.906307977984e-04 6.538331902211e-03 0.0 
0.0 0.0 -9.877098122506e-04 
-1.110739431393e-03 -1.980632731679e-04 0.0 
-1.980632731679e-04 7.489376108620e-03 0.0 
0.0 0.0 -1.112977059762e-03 
-1.093828226484e-03 -1.876429130193e-04 0.0 
-1.876429130193e-04 7.351584596061e-03 0.0 
0.0 0.0 -1.093234982489e-03 
-7.343177045735e-04 -9.465157044594e-06 0.0 
-9.465157044594e-06 4.570354151395e-03 0.0 
0.0 0.0 -7.313513689239e-04 
-7.305590051735e-04 3.402678996754e-05 0.0 
3.402678996754e-05 4.568649633296e-03 0.0 
0.0 0.0 -7.310574395863e-04 
-9.952316992060e-04 -2.061010920873e-04 0.0 
-2.061010920873e-04 6.656041030992e-03 0.0 
0.0 0.0 -9.927888931629e-04 
-9.918488233690e-04 1.857079994067e-04 0.0 
1.857079994067e-04 6.564735410895e-03 0.0 
0.0 0.0 -9.930598132463e-04 
-8.773556303313e-04 -1.926873992318e-04 0.0 
-1.926873992318e-04 5.856781784188e-03 0.0 
0.0 0.0 -8.780428295617e-04 
-9.805249871409e-04 -1.924563760953e-04 0.0 
-1.924563760953e-04 6.542490604406e-03 0.0 
0.0 0.0 -9.775429604617e-04 
-8.511934619470e-04 1.885314516425e-04 0.0 
1.885314516425e-04 5.570767617800e-03 0.0 
0.0 0.0 -8.502279965035e-04 
-1.193540881150e-03 1.313307987015e-04 0.0 
1.313307987015e-04 7.848740983510e-03 0.0 
0.0 0.0 -1.180288150054e-03 
-7.169159808387e-04 1.897237155632e-04 0.0 
1.897237155632e-04 4.633470113633e-03 0.0 
0.0 0.0 -7.154845226688e-04 
-1.330586332229e-03 -3.342005871351e-05 0.0 
-3.342005871351e-05 9.092648121720e-03 0.0 
0.0 0.0 -1.323793839065e-03 
-8.042874267729e-04 1.538278548701e-04 0.0 
1.538278548701e-04 5.332999869485e-03 0.0 
0.0 0.0 -8.119939454945e-04 
-8.205821157683e-04 -1.889603009902e-04 0.0 
-1.889603009902e-04 5.445817958641e-03 0.0 
0.0 0.0 -8.199314282332e-04 
-8.518598072760e-04 1.933057744939e-04 0.0 
1.933057744939e-04 5.584111954891e-03 0.0 
0.0 0.0 -8.523954645778e-04 
-4.499586564247e-04 -1.855256695767e-04 0.0 
-1.855256695767e-04 2.857022821909e-03 0.0 
0.0 0.0 -4.479040077299e-04 
-7.538979209402e-04 -1.934413965156e-04 0.0 
-1.934413965156e-04 4.995274109938e-03 0.0 
0.0 0.0 -7.551671247638e-04 
-9.291971374279e-04 1.860662208978e-04 0.0 
1.860662208978e-04 6.122384862718e-03 0.0 
0.0 0.0 -9.293281999836e-04 
-8.759687264253e-04 1.862073937601e-04 0.0 
1.862073937601e-04 5.739375914108e-03 0.0 
0.0 0.0 -8.738309435711e-04 
-9.814387768265e-04 1.839019607205e-04 0.0 
1.839019607205e-04 6.501334764278e-03 0.0 
0.0 0.0 -9.814596669550e-04 
-1.010867161751e-03 1.870829556364e-04 0.0 
1.870829556364e-04 6.678666577386e-03 0.0 
0.0 0.0 -1.008022096355e-03 
-1.044436862417e-03 -1.926634021925e-04 0.0 
-1.926634021925e-04 6.979659342720e-03 0.0 
0.0 0.0 -1.040850218070e-03 
-2.258973833718e-04 -1.030107291084e-04 0.0 
-1.030107291084e-04 1.399562224303e-03 0.0 
0.0 0.0 -2.163717569139e-04 
-7.194022022389e-04 1.955668345425e-04 0.0 
1.955668345425e-04 4.667671693721e-03 0.0 
0.0 0.0 -7.209013985657e-04 
-6.852716132609e-04 -1.859370640984e-04 0.0 
-1.859370640984e-04 4.485062449844e-03 0.0 
0.0 0.0 -6.825522065409e-04 
-9.565981315294e-04 1.790846631941e-04 0.0 
1.790846631941e-04 6.284252226282e-03 0.0 
0.0 0.0 -9.521954671713e-04 
-9.888411307371e-04 -1.922642027800e-04 0.0 
-1.922642027800e-04 6.601876220435e-03 0.0 
0.0 0.0 -9.850634846466e-04 
-1.155748252282e-03 1.797617113704e-04 0.0 
1.797617113704e-04 7.721330663973e-03 0.0 
0.0 0.0 -1.160108757481e-03 
-3.430926826769e-04 2.099465977868e-04 0.0 
2.099465977868e-04 1.967318145224e-03 0.0 
0.0 0.0 -3.273996513303e-04 
-3.332214715971e-04 -1.766782033718e-04 0.0 
-1.766782033718e-04 2.091595055548e-03 0.0 
0.0 0.0 -3.377286911054e-04 
-8.312276761858e-04 1.871380545802e-04 0.0 
1.871380545802e-04 5.435579353952e-03 0.0 
0.0 0.0 -8.305977116616e-04 
-7.164446669360e-04 -1.954011667159e-04 0.0 
-1.954011667159e-04 4.735861933211e-03 0.0 
0.0 0.0 -7.181358556540e-04 
-6.612400540538e-04 -2.145984864481e-04 0.0 
-2.145984864481e-04 4.300984587983e-03 0.0 
0.0 0.0 -6.554599841463e-04 
-6.892288823092e-04 -1.712097974293e-04 0.0 
-1.712097974293e-04 4.548932917262e-03 0.0 
0.0 0.0 -6.889204951115e-04 
-9.785151366904e-04 -1.903688334859e-04 0.0 
-1.903688334859e-04 6.552823194572e-03 0.0 
0.0 0.0 -9.793492904611e-04 
-3.279214625417e-04 -1.856414295295e-04 0.0 
-1.856414295295e-04 2.036611823989e-03 0.0 
0.0 0.0 -3.302473245842e-04 
-8.146691974455e-04 1.910766766112e-04 0.0 
1.910766766112e-04 5.328191831945e-03 0.0 
0.0 0.0 -8.154759146177e-04 
-1.049892567768e-03 -1.923181012939e-04 0.0 
-1.923181012939e-04 7.038288222671e-03 0.0 
0.0 0.0 -1.049209916622e-03 
-3.402244297759e-04 2.055488950202e-04 0.0 
2.055488950202e-04 2.007315154740e-03 0.0 
0.0 0.0 -3.408226701431e-04 
-1.289740643797e-03 -2.865690188003e-05 0.0 
-2.865690188003e-05 8.457698383589e-03 0.0 
0.0 0.0 -1.285586381397e-03 
-1.153161816539e-03 -1.810911126316e-04 0.0 
-1.810911126316e-04 7.745860400322e-03 0.0 
0.0 0.0 -1.152455342817e-03 
-7.730865248008e-04 -1.936313324954e-04 0.0 
-1.936313324954e-04 5.137233279798e-03 0.0 
0.0 0.0 -7.756113943005e-04 
-1.077943790440e-03 1.906149656784e-04 0.0 
1.906149656784e-04 7.162163658694e-03 0.0 
0.0 0.0 -1.078722419643e-03 
-1.818286327115e-04 -5.320949396193e-06 0.0 
-5.320949396193e-06 7.441773179857e-04 0.0 
0.0 0.0 -1.797547709840e-04 
-1.014460031072e-03 -2.000580684662e-04 0.0 
-2.000580684662e-04 6.784645211728e-03 0.0 
0.0 0.0 -1.012471576362e-03 
-8.638932840094e-04 -1.877196228479e-04 0.0 
-1.877196228479e-04 5.746441231772e-03 0.0 
0.0 0.0 -8.634366945984e-04 
-1.573089574220e-04 6.060813636144e-06 0.0 
6.060813636144e-06 7.379677460024e-04 0.0 
0.0 0.0 -1.788519809851e-04 
-1.152359323407e-03 1.787160847200e-04 0.0 
1.787160847200e-04 7.696182759720e-03 0.0 
0.0 0.0 -1.154859126927e-03 
-3.172722260094e-04 -1.887798844867e-04 0.0 
-1.887798844867e-04 1.899275964143e-03 0.0 
0.0 0.0 -3.099791425632e-04 
-9.534030089958e-04 -1.885226890489e-04 0.0 
-1.885226890489e-04 6.348031499756e-03 0.0 
0.0 0.0 -9.496453321265e-04 
-8.720767110960e-04 -1.896937711200e-04 0.0 
-1.896937711200e-04 5.800514782335e-03 0.0 
0.0 0.0 -8.712718144564e-04 
-7.527095169076e-04 -1.904145446510e-04 0.0 
-1.904145446510e-04 4.974920507200e-03 0.0 
0.0 0.0 -7.519815330289e-04 
-9.060865555047e-04 1.986245932988e-04 0.0 
1.986245932988e-04 5.963263483029e-03 0.0 
0.0 0.0 -9.052548162676e-04 
-1.186359257630e-03 1.790401943916e-04 0.0 
1.790401943916e-04 7.910120458871e-03 0.0 
0.0 0.0 -1.182898372388e-03 
-9.717172959483e-04 2.017731235506e-04 0.0 
2.017731235506e-04 6.421670982773e-03 0.0 
0.0 0.0 -9.716005391689e-04 
-8.586682738841e-04 1.870585543686e-04 0.0 
1.870585543686e-04 5.626729716629e-03 0.0 
0.0 0.0 -8.581765416018e-04 
-8.285502932263e-04 -1.869792024667e-04 0.0 
-1.869792024667e-04 5.500044709232e-03 0.0 
0.0 0.0 -8.279616112547e-04 
-1.157597014143e-04 1.569592925356e-04 0.0 
1.569592925356e-04 5.309685908672e-04 0.0 
0.0 0.0 -1.241199786263e-04 
-2.771697128881e-04 1.878257284128e-04 0.0 
1.878257284128e-04 1.577050393967e-03 0.0 
0.0 0.0 -2.761011822561e-04 
-1.118878802421e-03 -1.775376209316e-04 0.0 
-1.775376209316e-04 7.515980410063e-03 0.0 
0.0 0.0 -1.118331045454e-03 
-9.134689604251e-04 -2.151070896449e-04 0.0 
-2.151070896449e-04 6.054442910930e-03 0.0 
0.0 0.0 -9.085367473448e-04 
-1.157427958602e-03 1.810891327533e-04 0.0 
1.810891327533e-04 7.664331777096e-03 0.0 
0.0 0.0 -1.148691026115e-03 
-4.952790128068e-04 1.926215238323e-04 0.0 
1.926215238323e-04 3.096112546519e-03 0.0 
0.0 0.0 -4.942977111402e-04 
-1.099935257767e-03 1.964856595336e-04 0.0 
1.964856595336e-04 7.292900558944e-03 0.0 
0.0 0.0 -1.097950598811e-03 
-1.159977421736e-03 -1.899588415038e-04 0.0 
-1.899588415038e-04 7.782799989863e-03 0.0 
0.0 0.0 -1.155407764312e-03 
-7.046437970110e-04 1.771780882186e-04 0.0 
1.771780882186e-04 4.649202442724e-03 0.0 
0.0 0.0 -7.179420443741e-04 
-1.123089437587e-03 1.668381000105e-04 0.0 
1.668381000105e-04 7.448723404798e-03 0.0 
0.0 0.0 -1.120992621467e-03 
-1.074800466033e-03 -1.979281231238e-04 0.0 
-1.979281231238e-04 7.231750290380e-03 0.0 
0.0 0.0 -1.075946734593e-03 
-9.566951811484e-04 1.885305449409e-04 0.0 
1.885305449409e-04 6.314170866049e-03 0.0 
0.0 0.0 -9.571162043194e-04 
-7.858129650109e-04 1.950519568744e-04 0.0 
1.950519568744e-04 5.127464531984e-03 0.0 
0.0 0.0 -7.866383436874e-04 
-8.200429817129e-04 -1.955984029236e-04 0.0 
-1.955984029236e-04 5.453789901756e-03 0.0 
0.0 0.0 -8.209012074946e-04 
-1.208173698565e-03 -2.031466844655e-04 0.0 
-2.031466844655e-04 8.155254103189e-03 0.0 
0.0 0.0 -1.204704583718e-03 
-8.401419513637e-04 1.955438232626e-04 0.0 
1.955438232626e-04 5.506398965405e-03 0.0 
0.0 0.0 -8.396599866114e-04 
-9.021075521636e-04 1.852176330370e-04 0.0 
1.852176330370e-04 5.931413313431e-03 0.0 
0.0 0.0 -9.015555482168e-04 
-8.449278259680e-04 1.962826855989e-04 0.0 
1.962826855989e-04 5.533739272216e-03 0.0 
0.0 0.0 -8.433600309793e-04 
-1.038695295048e-03 1.973550359404e-04 0.0 
1.973550359404e-04 6.882197727615e-03 0.0 
0.0 0.0 -1.038364586984e-03 
-7.853544279650e-04 -1.888908667993e-04 0.0 
-1.888908667993e-04 5.195025610649e-03 0.0 
0.0 0.0 -7.842421616061e-04 
-5.077615371431e-04 1.925383574265e-04 0.0 
1.925383574265e-04 3.178371744144e-03 0.0 
0.0 0.0 -5.065804551108e-04 
-8.563679286654e-04 1.886904600153e-04 0.0 
1.886904600153e-04 5.609470178926e-03 0.0 
0.0 0.0 -8.561803240471e-04 
-5.442096767108e-04 1.899929291301e-04 0.0 
1.899929291301e-04 3.427592308512e-03 0.0 
0.0 0.0 -5.426160209679e-04 
-9.840239484115e-04 1.860183386348e-04 0.0 
1.860183386348e-04 6.482342277994e-03 0.0 
0.0 0.0 -9.799122972177e-04 
-5.401920244119e-04 -1.881877507058e-04 0.0 
-1.881877507058e-04 3.494301074598e-03 0.0 
0.0 0.0 -5.399485503623e-04 
-9.444560097486e-04 -1.940759614132e-04 0.0 
-1.940759614132e-04 6.297600198433e-03 0.0 
0.0 0.0 -9.420580210740e-04 
-1.136089878121e-03 -1.928967352453e-04 0.0 
-1.928967352453e-04 7.622114445815e-03 0.0 
0.0 0.0 -1.130549445556e-03 
-1.098744179893e-03 1.868758827566e-04 0.0 
1.868758827566e-04 7.288601580292e-03 0.0 
0.0 0.0 -1.096529089934e-03 
-7.525839073148e-04 1.884470413511e-04 0.0 
1.884470413511e-04 4.883223458127e-03 0.0 
0.0 0.0 -7.512528815036e-04 
-9.420690742010e-04 1.904423332236e-04 0.0 
1.904423332236e-04 6.250031840530e-03 0.0 
0.0 0.0 -9.460253849645e-04 
-1.105063984059e-03 1.902259811921e-04 0.0 
1.902259811921e-04 7.362332298090e-03 0.0 
0.0 0.0 -1.107441567342e-03 
-1.102593190183e-03 -1.984125757140e-04 0.0 
-1.984125757140e-04 7.431259929710e-03 0.0 
0.0 0.0 -1.104747680386e-03 
-2.748138935717e-04 -1.822651738482e-04 0.0 
-1.822651738482e-04 1.604872033163e-03 0.0 
0.0 0.0 -2.683291303717e-04 
-9.752435611011e-04 1.861325910200e-04 0.0 
1.861325910200e-04 6.426869973039e-03 0.0 
0.0 0.0 -9.724793438395e-04 
-1.198880595075e-03 2.442779644092e-04 0.0 
2.442779644092e-04 8.051846061103e-03 0.0 
0.0 0.0 -1.205818386895e-03 
-5.437300718268e-04 1.772584891249e-04 0.0 
1.772584891249e-04 3.388245147726e-03 0.0 
0.0 0.0 -5.357889572170e-04 
-8.407105615714e-04 -1.927518630569e-04 0.0 
-1.927518630569e-04 5.595089898141e-03 0.0 
0.0 0.0 -8.409532000723e-04 
-1.642955148473e-04 -1.732273966109e-04 0.0 
-1.732273966109e-04 7.998697341648e-04 0.0 
0.0 0.0 -1.553180670733e-04 
-1.132480187466e-03 1.879569331440e-04 0.0 
1.879569331440e-04 7.560437012022e-03 0.0 
0.0 0.0 -1.136235114959e-03 
-4.806530012621e-04 1.926320631023e-04 0.0 
1.926320631023e-04 2.980823159841e-03 0.0 
0.0 0.0 -4.785631936959e-04 
-8.099198933223e-04 1.419617410746e-04 0.0 
1.419617410746e-04 5.272582332729e-03 0.0 
0.0 0.0 -8.166178341775e-04 
-1.008233793579e-03 2.173973549694e-04 0.0 
2.173973549694e-04 6.687663611020e-03 0.0 
0.0 0.0 -1.008721701990e-03 
-9.403782054792e-04 -1.899510314298e-04 0.0 
-1.899510314298e-04 6.304690927512e-03 0.0 
0.0 0.0 -9.438854677472e-04 
-8.963572268651e-04 1.741364622750e-04 0.0 
1.741364622750e-04 5.997227966098e-03 0.0 
0.0 0.0 -9.108073647308e-04 
-8.940895927012e-04 1.874273657986e-04 0.0 
1.874273657986e-04 5.875054319372e-03 0.0 
0.0 0.0 -8.936906232635e-04 
-5.964027012772e-04 -1.969270146159e-04 0.0 
-1.969270146159e-04 3.828565622584e-03 0.0 
0.0 0.0 -5.884905393267e-04 
-6.222186473160e-04 -1.579598216189e-04 0.0 
-1.579598216189e-04 4.074275639624e-03 0.0 
0.0 0.0 -6.218825813656e-04 
-1.132545466856e-03 -1.921788675689e-04 0.0 
-1.921788675689e-04 7.631342050474e-03 0.0 
0.0 0.0 -1.133400347077e-03 
-9.399834973731e-04 -2.076180111175e-04 0.0 
-2.076180111175e-04 6.274716467853e-03 0.0 
0.0 0.0 -9.394087121358e-04 
-8.165998643397e-04 -1.896618384883e-04 0.0 
-1.896618384883e-04 5.425461381261e-03 0.0 
0.0 0.0 -8.164864906097e-04 
-1.015808219044e-03 2.043119981128e-04 0.0 
2.043119981128e-04 6.724239760090e-03 0.0 
0.0 0.0 -1.014986374720e-03 
-7.921952984754e-04 1.876569442452e-04 0.0 
1.876569442452e-04 5.161072896404e-03 0.0 
0.0 0.0 -7.915105747055e-04 
-5.132154280477e-04 -1.871647182002e-04 0.0 
-1.871647182002e-04 3.302371768383e-03 0.0 
0.0 0.0 -5.119962057136e-04 
-5.745746208365e-04 1.485352442874e-04 0.0 
1.485352442874e-04 3.755895310226e-03 0.0 
0.0 0.0 -5.908395828668e-04 
-8.562635021511e-04 -1.754512107451e-04 0.0 
-1.754512107451e-04 5.627343192984e-03 0.0 
0.0 0.0 -8.442294783838e-04 
-7.160648306051e-04 7.585704491028e-06 0.0 
7.585704491028e-06 4.849167370762e-03 0.0 
0.0 0.0 -7.121995050294e-04 
-1.098907698796e-03 -1.935603852202e-04 0.0 
-1.935603852202e-04 7.356586615962e-03 0.0 
0.0 0.0 -1.093598669875e-03 
-7.500784032912e-04 -1.888438395023e-04 0.0 
-1.888438395023e-04 4.947212343952e-03 0.0 
0.0 0.0 -7.486350631497e-04 
-1.210182417684e-03 1.765917680882e-04 0.0 
1.765917680882e-04 8.247529209770e-03 0.0 
0.0 0.0 -1.233571955743e-03 
-1.118284649088e-03 2.239133535708e-04 0.0 
2.239133535708e-04 7.476894485256e-03 0.0 
0.0 0.0 -1.121177773779e-03 
-8.254740426917e-04 -1.929282224424e-04 0.0 
-1.929282224424e-04 5.485443478807e-03 0.0 
0.0 0.0 -8.252461108756e-04 
-1.242964237003e-03 -2.139177796874e-04 0.0 
-2.139177796874e-04 8.349538837109e-03 0.0 
0.0 0.0 -1.241472629463e-03 
-5.687293433060e-04 -1.915120142832e-04 0.0 
-1.915120142832e-04 3.690790191525e-03 0.0 
0.0 0.0 -5.682622744621e-04 
-1.208040625364e-03 1.849401074129e-04 0.0 
1.849401074129e-04 8.046920265334e-03 0.0 
0.0 0.0 -1.204482468497e-03 
-8.913551845653e-04 -1.878094076415e-04 0.0 
-1.878094076415e-04 5.940020385334e-03 0.0 
0.0 0.0 -8.910665706739e-04 
-9.852542746409e-04 1.871572406668e-04 0.0 
1.871572406668e-04 6.505324580404e-03 0.0 
0.0 0.0 -9.848034212814e-04 
-1.145107580505e-03 -1.842496915474e-04 0.0 
-1.842496915474e-04 7.703101384869e-03 0.0 
0.0 0.0 -1.146785027167e-03 
-5.943655314035e-04 -1.832199318588e-04 0.0 
-1.832199318588e-04 3.893020220943e-03 0.0 
0.0 0.0 -5.958228065582e-04 
-9.389816814797e-04 1.876119276121e-04 0.0 
1.876119276121e-04 6.182064030220e-03 0.0 
0.0 0.0 -9.369464185080e-04 
-7.887299262109e-04 -1.887974843369e-04 0.0 
-1.887974843369e-04 5.230247920474e-03 0.0 
0.0 0.0 -7.886172400246e-04 
-9.083774489982e-04 -1.902700926230e-04 0.0 
-1.902700926230e-04 6.046157002466e-03 0.0 
0.0 0.0 -9.065670216064e-04 
-5.279887302568e-04 -1.859379540024e-04 0.0 
-1.859379540024e-04 3.395303897193e-03 0.0 
0.0 0.0 -5.268093404353e-04 
-1.014606245907e-03 2.103915705159e-04 0.0 
2.103915705159e-04 6.713973890446e-03 0.0 
0.0 0.0 -1.013229387512e-03 
-7.553250635679e-04 1.889436264504e-04 0.0 
1.889436264504e-04 4.904153081957e-03 0.0 
0.0 0.0 -7.548706880268e-04 
-8.804539724126e-04 1.911528069324e-04 0.0 
1.911528069324e-04 5.783141817002e-03 0.0 
0.0 0.0 -8.810281692460e-04 
-9.122003311207e-04 1.835312424396e-04 0.0 
1.835312424396e-04 5.985147494673e-03 0.0 
0.0 0.0 -9.091416541300e-04 
-1.779440610295e-04 -1.030848282903e-04 0.0 
-1.030848282903e-04 7.740733373014e-04 0.0 
0.0 0.0 -1.392682743729e-04 
-9.092484897749e-04 2.049076976716e-04 0.0 
2.049076976716e-04 5.988548295435e-03 0.0 
0.0 0.0 -9.082496170556e-04 
-2.130732635602e-04 -2.101807231717e-04 0.0 
-2.101807231717e-04 1.221567911035e-03 0.0 
0.0 0.0 -2.164288490095e-04 
-2.520548988868e-04 2.059906335290e-04 0.0 
2.059906335290e-04 1.360441870585e-03 0.0 
0.0 0.0 -2.410360834028e-04 
-8.430214645806e-04 1.870171193368e-04 0.0 
1.870171193368e-04 5.521874591652e-03 0.0 
0.0 0.0 -8.438072171805e-04 
-1.100618043992e-03 -1.995199700288e-04 0.0 
-1.995199700288e-04 7.372933681793e-03 0.0 
0.0 0.0 -1.098354823938e-03 
-9.336786887582e-04 1.772618600830e-04 0.0 
1.772618600830e-04 6.184069199665e-03 0.0 
0.0 0.0 -9.387552692591e-04 
-5.316814076804e-04 -1.951121058157e-04 0.0 
-1.951121058157e-04 3.374217008638e-03 0.0 
0.0 0.0 -5.215302833573e-04 
-1.342322198460e-03 1.355075091339e-05 0.0 
1.355075091339e-05 8.860022296973e-03 0.0 
0.0 0.0 -1.342322198460e-03 
-6.904184216633e-05 1.341545190441e-04 0.0 
1.341545190441e-04 2.607547295548e-04 0.0 
0.0 0.0 -8.216266602363e-05 
-5.589210723321e-04 -1.329418113689e-04 0.0 
-1.329418113689e-04 3.609084095351e-03 0.0 
0.0 0.0 -5.549805679787e-04 
-8.477696331988e-04 1.855996582244e-04 0.0 
1.855996582244e-04 5.547050172852e-03 0.0 
0.0 0.0 -8.472740691906e-04 
-8.035495844310e-04 -1.953259203622e-04 0.0 
-1.953259203622e-04 5.337013229194e-03 0.0 
0.0 0.0 -8.042584860449e-04 
-6.757348554203e-04 -1.653998453618e-04 0.0 
-1.653998453618e-04 4.426804148949e-03 0.0 
0.0 0.0 -6.733236465360e-04 
-5.914609098286e-04 1.823071808114e-04 0.0 
1.823071808114e-04 3.765270744377e-03 0.0 
0.0 0.0 -5.908717820549e-04 
-8.740292955770e-04 -1.984478198409e-04 0.0 
-1.984478198409e-04 5.813273429386e-03 0.0 
0.0 0.0 -8.733819075714e-04 
-9.264128048314e-04 -1.908219560730e-04 0.0 
-1.908219560730e-04 6.187717693912e-03 0.0 
0.0 0.0 -9.266779469803e-04 
-9.738255750276e-04 2.028683516141e-04 0.0 
2.028683516141e-04 6.450883656299e-03 0.0 
0.0 0.0 -9.734188451722e-04 
-1.155174733819e-03 2.031393399309e-04 0.0 
2.031393399309e-04 7.608098909852e-03 0.0 
0.0 0.0 -1.144302277022e-03 
-2.998307148874e-04 1.817771268844e-04 0.0 
1.817771268844e-04 1.707947677580e-03 0.0 
0.0 0.0 -2.976331147772e-04 
-7.774732960360e-04 1.902311186531e-04 0.0 
1.902311186531e-04 5.067412702539e-03 0.0 
0.0 0.0 -7.784793977761e-04 
-8.354929195800e-04 1.868427274729e-04 0.0 
1.868427274729e-04 5.469964258699e-03 0.0 
0.0 0.0 -8.356154970834e-04 
-4.516910884494e-04 -2.032153244338e-04 0.0 
-2.032153244338e-04 2.897475389763e-03 0.0 
0.0 0.0 -4.544023106810e-04 
-7.514806211766e-04 2.187245154034e-04 0.0 
2.187245154034e-04 4.887888210751e-03 0.0 
0.0 0.0 -7.518103749233e-04 
-9.376130433125e-04 -2.007012642150e-04 0.0 
-2.007012642150e-04 6.245928942655e-03 0.0 
0.0 0.0 -9.362314798257e-04 
-1.020402468730e-03 -1.946865508961e-04 0.0 
-1.946865508961e-04 6.790144563629e-03 0.0 
0.0 0.0 -1.023451880212e-03 
-1.525732992224e-04 8.599813622089e-06 0.0 
8.599813622089e-06 1.000033467602e-03 0.0 
0.0 0.0 -1.605242656235e-04 
-1.269812495822e-04 -2.531001823485e-04 0.0 
-2.531001823485e-04 4.902479252968e-04 0.0 
0.0 0.0 -1.185594205871e-04 
-3.241357878483e-04 -1.842994986655e-04 0.0 
-1.842994986655e-04 2.004473459914e-03 0.0 
0.0 0.0 -3.233707900025e-04 
-8.334989762748e-04 -1.938999604970e-04 0.0 
-1.938999604970e-04 5.537569679809e-03 0.0 
0.0 0.0 -8.330087554115e-04 
-6.325222328163e-04 -1.881321833313e-04 0.0 
-1.881321833313e-04 4.138956718805e-03 0.0 
0.0 0.0 -6.322020076307e-04 
-5.606822046862e-04 -1.836386180369e-04 0.0 
-1.836386180369e-04 3.638290895272e-03 0.0 
0.0 0.0 -5.605319560360e-04 
-5.042968556975e-04 -1.874920210369e-04 0.0 
-1.874920210369e-04 3.240689773487e-03 0.0 
0.0 0.0 -5.041580933422e-04 
-8.721332834429e-04 1.863637843613e-04 0.0 
1.863637843613e-04 5.722466013089e-03 0.0 
0.0 0.0 -8.721335634590e-04 
-9.951021354220e-04 1.863977597818e-04 0.0 
1.863977597818e-04 6.578139400737e-03 0.0 
0.0 0.0 -9.956198530692e-04 
-8.650795473339e-04 1.875435944103e-04 0.0 
1.875435944103e-04 5.670505538654e-03 0.0 
0.0 0.0 -8.643287579461e-04 
-6.358273554876e-04 1.861975192938e-04 0.0 
1.861975192938e-04 4.071155698746e-03 0.0 
0.0 0.0 -6.348607296063e-04 
-9.711834339353e-04 -2.012117718551e-04 0.0 
-2.012117718551e-04 6.487584772475e-03 0.0 
0.0 0.0 -9.699423737970e-04 
-8.101971348646e-04 1.641316877204e-04 0.0 
1.641316877204e-04 5.432076920036e-03 0.0 
0.0 0.0 -8.236220363599e-04 
-1.071983661584e-03 2.130963721818e-04 0.0 
2.130963721818e-04 7.145357950686e-03 0.0 
0.0 0.0 -1.076197569190e-03 
-8.626714893424e-04 -1.942405500946e-04 0.0 
-1.942405500946e-04 5.738328913224e-03 0.0 
0.0 0.0 -8.617642947636e-04 
-8.702702279883e-04 -1.921753086920e-04 0.0 
-1.921753086920e-04 5.792753129953e-03 0.0 
0.0 0.0 -8.694825820363e-04 
-4.645559553230e-04 -1.981925654933e-04 0.0 
-1.981925654933e-04 2.889937884797e-03 0.0 
0.0 0.0 -4.548485160793e-04 
-6.608554486332e-04 -1.864091804663e-04 0.0 
-1.864091804663e-04 4.336541054873e-03 0.0 
0.0 0.0 -6.598952468720e-04 
-8.926027030231e-04 1.843043537544e-04 0.0 
1.843043537544e-04 5.864339266433e-03 0.0 
0.0 0.0 -8.930692851043e-04 
-9.679615503638e-04 1.696948557831e-04 0.0 
1.696948557831e-04 6.395623785343e-03 0.0 
0.0 0.0 -9.615701295831e-04 
-9.079120183865e-04 1.806035671015e-04 0.0 
1.806035671015e-04 6.008465197654e-03 0.0 
0.0 0.0 -8.972249362023e-04 
-4.966173735405e-04 -1.549710521066e-04 0.0 
-1.549710521066e-04 3.153972529156e-03 0.0 
0.0 0.0 -4.879487645214e-04 
-9.010013592764e-04 1.886793445211e-04 0.0 
1.886793445211e-04 5.923625585035e-03 0.0 
0.0 0.0 -9.007118478548e-04 
-5.518253028034e-04 -1.783371210292e-04 0.0 
-1.783371210292e-04 3.577417440001e-03 0.0 
0.0 0.0 -5.517684601482e-04 
-2.845535083016e-04 1.977607623024e-04 0.0 
1.977607623024e-04 1.633750881917e-03 0.0 
0.0 0.0 -2.811347238918e-04 
-1.188918642902e-03 -1.918974946843e-04 0.0 
-1.918974946843e-04 8.111302423947e-03 0.0 
0.0 0.0 -1.202908440308e-03 
-3.019785591688e-04 1.950774455604e-04 0.0 
1.950774455604e-04 1.726883632229e-03 0.0 
0.0 0.0 -3.019870735033e-04 
-5.828626320578e-04 1.860512938998e-04 0.0 
1.860512938998e-04 3.705650589538e-03 0.0 
0.0 0.0 -5.822209219963e-04 
-8.781768956791e-04 -1.986806572289e-04 0.0 
-1.986806572289e-04 5.833892611308e-03 0.0 
0.0 0.0 -8.766521650092e-04 
-5.060723315699e-04 1.405250353070e-04 0.0 
1.405250353070e-04 3.287884117068e-03 0.0 
0.0 0.0 -5.239962781855e-04 
-8.898132346488e-04 -1.977943572352e-04 0.0 
-1.977943572352e-04 5.946896776319e-03 0.0 
0.0 0.0 -8.905656347129e-04 
-4.258375091185e-04 -2.178895733922e-04 0.0 
-2.178895733922e-04 2.688533932087e-03 0.0 
0.0 0.0 -4.282508963332e-04 
-7.578747057611e-04 -1.654300402082e-04 0.0 
-1.654300402082e-04 5.036141076678e-03 0.0 
0.0 0.0 -7.823486082854e-04 
-9.004251462807e-04 -1.892315142782e-04 0.0 
-1.892315142782e-04 5.992307029229e-03 0.0 
0.0 0.0 -8.981647654366e-04 
-7.810617461964e-04 -1.867589919143e-04 0.0 
-1.867589919143e-04 5.170374097518e-03 0.0 
0.0 0.0 -7.800125773855e-04 
-8.113930582064e-04 -1.934831491267e-04 0.0 
-1.934831491267e-04 5.398532171848e-03 0.0 
0.0 0.0 -8.126672281948e-04 
-1.456223754451e-04 -1.153284200369e-04 0.0 
-1.153284200369e-04 8.334024863152e-04 0.0 
0.0 0.0 -1.489310416055e-04 
-1.183619524390e-03 -1.995906802131e-04 0.0 
-1.995906802131e-04 7.793015624772e-03 0.0 
0.0 0.0 -1.152567315725e-03 
-6.518619288047e-04 -1.801864724235e-04 0.0 
-1.801864724235e-04 4.278312019353e-03 0.0 
0.0 0.0 -6.514572604261e-04 
-1.161957516655e-03 2.065796963047e-04 0.0 
2.065796963047e-04 7.737413579119e-03 0.0 
0.0 0.0 -1.154039482800e-03 
-9.839722502603e-04 -1.958677314329e-04 0.0 
-1.958677314329e-04 6.578387584555e-03 0.0 
0.0 0.0 -9.821191134873e-04 
-9.294100606495e-04 1.930061835790e-04 0.0 
1.930061835790e-04 6.122204066633e-03 0.0 
0.0 0.0 -9.293965016571e-04 
-9.285061071557e-04 -1.774497838440e-04 0.0 
-1.774497838440e-04 6.189509746344e-03 0.0 
0.0 0.0 -9.268654845074e-04 
-5.996189068561e-04 1.852055889783e-04 0.0 
1.852055889783e-04 3.820597089734e-03 0.0 
0.0 0.0 -5.989583036242e-04 
-1.944838745677e-04 1.584109702941e-04 0.0 
1.584109702941e-04 1.163625171840e-03 0.0 
0.0 0.0 -2.103425724855e-04 
-1.545095455239e-04 1.193388759039e-04 0.0 
1.193388759039e-04 6.563556231282e-04 0.0 
0.0 0.0 -1.599169489567e-04 
-9.548054477989e-04 1.928585704838e-04 0.0 
1.928585704838e-04 6.318843775437e-03 0.0 
0.0 0.0 -9.583065114986e-04 
-1.160173340718e-03 1.884012827659e-04 0.0 
1.884012827659e-04 7.692007981726e-03 0.0 
0.0 0.0 -1.148056181429e-03 
-5.412400896945e-04 -1.740896251804e-04 0.0 
-1.740896251804e-04 3.519775267643e-03 0.0 
0.0 0.0 -5.426247857783e-04 
-1.000629830532e-03 1.900148255988e-04 0.0 
1.900148255988e-04 6.622819157878e-03 0.0 
0.0 0.0 -1.000702849114e-03 
-5.014074309498e-04 1.897737110035e-04 0.0 
1.897737110035e-04 3.104700833587e-03 0.0 
0.0 0.0 -5.002094317253e-04 
-1.008257874699e-03 -1.995045898856e-04 0.0 
-1.995045898856e-04 6.739421236299e-03 0.0 
0.0 0.0 -1.005614027492e-03 
-1.275786431468e-03 1.088711895385e-04 0.0 
1.088711895385e-04 8.693642459064e-03 0.0 
0.0 0.0 -1.266534580134e-03 
-5.404710541813e-05 1.564499946383e-05 0.0 
1.564499946383e-05 2.310460762638e-04 0.0 
0.0 0.0 -4.512473402930e-05 
-1.341620833825e-03 -3.423569445624e-05 0.0 
-3.423569445624e-05 8.854172159816e-03 0.0 
0.0 0.0 -1.341620833825e-03 
-1.340051318819e-03 3.419351748173e-06 0.0 
3.419351748173e-06 8.881496154702e-03 0.0 
0.0 0.0 -1.340051318819e-03 
-8.003500561082e-04 -1.973446332084e-04 0.0 
-1.973446332084e-04 5.182732733425e-03 0.0 
0.0 0.0 -7.955197795907e-04 
-6.427190039752e-04 -1.771623886154e-04 0.0 
-1.771623886154e-04 4.219584582941e-03 0.0 
0.0 0.0 -6.428246066218e-04 
-9.539959357727e-04 -1.903436421630e-04 0.0 
-1.903436421630e-04 6.384067375959e-03 0.0 
0.0 0.0 -9.543595451431e-04 
-6.046483611249e-04 -1.904684548623e-04 0.0 
-1.904684548623e-04 3.941030960147e-03 0.0 
0.0 0.0 -6.041149214933e-04 
-2.015327089857e-04 -1.787857606074e-04 0.0 
-1.787857606074e-04 1.215175486256e-03 0.0 
0.0 0.0 -2.095884814006e-04 
-1.358502302165e-04 -1.652436952664e-04 0.0 
-1.652436952664e-04 5.860561493669e-04 0.0 
0.0 0.0 -1.201211790779e-04 
-1.224116731780e-03 -1.601620163348e-04 0.0 
-1.601620163348e-04 8.159917680932e-03 0.0 
0.0 0.0 -1.209499414335e-03 
-9.670306227229e-04 -2.102097021758e-04 0.0 
-2.102097021758e-04 6.456763428288e-03 0.0 
0.0 0.0 -9.648175333861e-04 
-7.505793698934e-04 -1.832067976458e-04 0.0 
-1.832067976458e-04 4.862883335491e-03 0.0 
0.0 0.0 -7.224789237173e-04 
-1.308106101880e-03 -9.564346375706e-06 0.0 
-9.564346375706e-06 9.104818726286e-03 0.0 
0.0 0.0 -1.323661129950e-03 
-3.723881451928e-04 -2.095753772028e-04 0.0 
-2.095753772028e-04 2.251170567837e-03 0.0 
0.0 0.0 -3.615704333793e-04 
-1.338587368780e-03 -1.150799812328e-05 0.0 
-1.150799812328e-05 9.097604261257e-03 0.0 
0.0 0.0 -1.324908485340e-03 
-9.656783964584e-04 1.862090128514e-04 0.0 
1.862090128514e-04 6.391762053029e-03 0.0 
0.0 0.0 -9.670422101491e-04 
-6.322851321103e-04 -1.782670103149e-04 0.0 
-1.782670103149e-04 4.156088603212e-03 0.0 
0.0 0.0 -6.336394413500e-04 
-9.215195886709e-04 1.858262024963e-04 0.0 
1.858262024963e-04 6.065159777351e-03 0.0 
0.0 0.0 -9.212972352143e-04 
-6.095245585206e-04 1.817233461859e-04 0.0 
1.817233461859e-04 3.888318231073e-03 0.0 
0.0 0.0 -6.094834619596e-04 
-3.161972729321e-04 2.118996039673e-04 0.0 
2.118996039673e-04 1.862493464303e-03 0.0 
0.0 0.0 -3.160312483096e-04 
-5.714172847083e-04 1.885506067566e-04 0.0 
1.885506067566e-04 3.631122930928e-03 0.0 
0.0 0.0 -5.728018649490e-04 
-1.022496320278e-03 1.929428534963e-04 0.0 
1.929428534963e-04 6.770909400157e-03 0.0 
0.0 0.0 -1.023749757194e-03 
-1.150976429886e-03 -2.032424840275e-04 0.0 
-2.032424840275e-04 7.758939253249e-03 0.0 
0.0 0.0 -1.155390781228e-03 
-6.187002398340e-04 1.818215273870e-04 0.0 
1.818215273870e-04 3.950326342677e-03 0.0 
0.0 0.0 -6.181853003094e-04 
-1.037480631671e-03 1.889356953884e-04 0.0 
1.889356953884e-04 6.873009589990e-03 0.0 
0.0 0.0 -1.036271578259e-03 
0.0 0.0 0.0 
0.0 0.0 0.0 
0.0 0.0 0.0 
-6.276661230387e-04 1.792694929943e-04 0.0 
1.792694929943e-04 4.010933515785e-03 0.0 
0.0 0.0 -6.266282162577e-04 
-1.067618640436e-03 -2.059979659696e-04 0.0 
-2.059979659696e-04 7.168819223232e-03 0.0 
0.0 0.0 -1.066385360782e-03 
-5.602476022505e-04 1.913249262792e-04 0.0 
1.913249262792e-04 3.548859392025e-03 0.0 
0.0 0.0 -5.616069800515e-04 
-5.034317169211e-04 -1.766316395617e-04 0.0 
-1.766316395617e-04 3.262973984744e-03 0.0 
0.0 0.0 -5.052880831394e-04 
-9.189958469858e-04 -1.860644213166e-04 0.0 
-1.860644213166e-04 6.131142810909e-03 0.0 
0.0 0.0 -9.187611816440e-04 
-2.798438621560e-04 2.024562614015e-04 0.0 
2.024562614015e-04 1.659164072585e-03 0.0 
0.0 0.0 -2.979563435985e-04 
-4.237702008278e-04 -1.193704641065e-04 0.0 
-1.193704641065e-04 2.381332436810e-03 0.0 
0.0 0.0 -3.867203691650e-04 
-3.975764326489e-04 -1.798608620238e-04 0.0 
-1.798608620238e-04 2.707475849368e-03 0.0 
0.0 0.0 -4.195921675762e-04 
-4.963058465455e-04 1.849091904100e-04 0.0 
1.849091904100e-04 3.099739962777e-03 0.0 
0.0 0.0 -4.973376392308e-04 
-8.459383987433e-04 -1.907145818211e-04 0.0 
-1.907145818211e-04 5.622335891913e-03 0.0 
0.0 0.0 -8.444178005646e-04 
-8.162577903273e-04 1.917219888078e-04 0.0 
1.917219888078e-04 5.328762658263e-03 0.0 
0.0 0.0 -8.147327860212e-04 
-1.033805230838e-03 -2.014200165049e-04 0.0 
-2.014200165049e-04 6.928519613423e-03 0.0 
0.0 0.0 -1.033897369924e-03 
-1.221633880436e-03 1.327525419154e-04 0.0 
1.327525419154e-04 8.105302040654e-03 0.0 
0.0 0.0 -1.224260864640e-03 
-4.437323643489e-04 1.289034247084e-04 0.0 
1.289034247084e-04 2.824272473931e-03 0.0 
0.0 0.0 -4.570814260163e-04 
-1.026282183515e-03 -2.469645237372e-04 0.0 
-2.469645237372e-04 6.837925098464e-03 0.0 
0.0 0.0 -1.028620860735e-03 
-1.232340650598e-03 1.232265702216e-04 0.0 
1.232265702216e-04 8.131356307241e-03 0.0 
0.0 0.0 -1.228414553209e-03 
-5.714514367839e-04 1.903885160707e-04 0.0 
1.903885160707e-04 3.625837711505e-03 0.0 
0.0 0.0 -5.707601703556e-04 
-2.135565257302e-04 2.102195190307e-04 0.0 
2.102195190307e-04 1.190116728888e-03 0.0 
0.0 0.0 -2.192200328082e-04 
-5.324811030586e-04 -1.564509498564e-04 0.0 
-1.564509498564e-04 3.456619354267e-03 0.0 
0.0 0.0 -5.330167430730e-04 
-8.085387987626e-04 -1.885177874859e-04 0.0 
-1.885177874859e-04 5.361946972923e-03 0.0 
0.0 0.0 -8.082977034869e-04 
-1.047924752938e-03 1.956397865657e-04 0.0 
1.956397865657e-04 6.924645327261e-03 0.0 
0.0 0.0 -1.043024347135e-03 
-8.126482086337e-04 1.904262971098e-04 0.0 
1.904262971098e-04 5.297787546946e-03 0.0 
0.0 0.0 -8.108276944599e-04 
-2.458088517300e-04 -1.138196901464e-04 0.0 
-1.138196901464e-04 1.452613291321e-03 0.0 
0.0 0.0 -2.343049260409e-04 
-9.102031090636e-04 -2.013755147983e-04 0.0 
-2.013755147983e-04 6.070783801232e-03 0.0 
0.0 0.0 -9.096068616062e-04 
-3.560167896549e-04 2.151383842188e-04 0.0 
2.151383842188e-04 2.131802985450e-03 0.0 
0.0 0.0 -3.508512830963e-04 
-8.140185260576e-04 -1.926928755879e-04 0.0 
-1.926928755879e-04 5.389465675351e-03 0.0 
0.0 0.0 -8.123573650817e-04 
-8.767776688193e-04 2.024483433582e-04 0.0 
2.024483433582e-04 5.751188307413e-03 0.0 
0.0 0.0 -8.756097305517e-04 
-9.509565837624e-04 1.896974231218e-04 0.0 
1.896974231218e-04 6.265385166788e-03 0.0 
0.0 0.0 -9.491391837787e-04 
-9.274205801970e-04 -1.707730266069e-04 0.0 
-1.707730266069e-04 6.212775611049e-03 0.0 
0.0 0.0 -9.494079867578e-04 
-4.906398001625e-04 -1.749565167891e-04 0.0 
-1.749565167891e-04 3.179973922092e-03 0.0 
0.0 0.0 -4.933620968966e-04 
-2.484574972914e-04 1.853035354058e-04 0.0 
1.853035354058e-04 1.372800011643e-03 0.0 
0.0 0.0 -2.459554264611e-04 
-9.419221611826e-04 2.078178624914e-04 0.0 
2.078178624914e-04 6.213877196692e-03 0.0 
0.0 0.0 -9.415329344942e-04 
-3.796687070467e-04 1.987051729866e-04 0.0 
1.987051729866e-04 2.349690832434e-03 0.0 
0.0 0.0 -3.857152600925e-04 
-1.079925297708e-04 2.094696628342e-04 0.0 
2.094696628342e-04 4.385964497386e-04 0.0 
0.0 0.0 -1.205192217350e-04 
-1.217003238982e-03 1.715975421034e-04 0.0 
1.715975421034e-04 8.115367819263e-03 0.0 
0.0 0.0 -1.223389224544e-03 
-1.152822377069e-03 1.914748152746e-04 0.0 
1.914748152746e-04 7.732583850779e-03 0.0 
0.0 0.0 -1.157435638217e-03 
-9.394432781389e-05 -1.620283716041e-05 0.0 
-1.620283716041e-05 3.135234532211e-04 0.0 
0.0 0.0 -9.410533946025e-05 
-9.757772886518e-04 -2.084469974537e-04 0.0 
-2.084469974537e-04 6.524951865197e-03 0.0 
0.0 0.0 -9.758309632659e-04 
-3.896708157340e-04 -1.763476574512e-04 0.0 
-1.763476574512e-04 2.457499880861e-03 0.0 
0.0 0.0 -3.887237773309e-04 
-4.187709573894e-04 2.113072011151e-04 0.0 
2.113072011151e-04 2.560835545987e-03 0.0 
0.0 0.0 -4.195855280820e-04 
-1.100445862982e-03 1.933828922324e-04 0.0 
1.933828922324e-04 7.327011461119e-03 0.0 
0.0 0.0 -1.100737838324e-03 
-9.470047501209e-04 -1.877990577056e-04 0.0 
-1.877990577056e-04 6.324416518396e-03 0.0 
0.0 0.0 -9.467522836136e-04 
-1.064750852218e-03 1.888034529426e-04 0.0 
1.888034529426e-04 7.071897550473e-03 0.0 
0.0 0.0 -1.064854740548e-03 
-6.246803119834e-04 -1.813696095216e-04 0.0 
-1.813696095216e-04 4.082455365693e-03 0.0 
0.0 0.0 -6.238888496032e-04 
-7.066733059563e-04 2.079397955123e-05 0.0 
2.079397955123e-05 4.859565834242e-03 0.0 
0.0 0.0 -7.105917616147e-04 
-1.294146159652e-03 -3.864697892392e-05 0.0 
-3.864697892392e-05 8.444131533072e-03 0.0 
0.0 0.0 -1.281538364137e-03 
-3.542163761972e-04 2.028127844720e-04 0.0 
2.028127844720e-04 2.096644602115e-03 0.0 
0.0 0.0 -3.541816848729e-04 
-1.125206372116e-03 -1.754172072946e-04 0.0 
-1.754172072946e-04 7.521489804146e-03 0.0 
0.0 0.0 -1.121221582973e-03 
-8.491762958406e-04 -1.918772025260e-04 0.0 
-1.918772025260e-04 5.637172269943e-03 0.0 
0.0 0.0 -8.477100451819e-04 
-2.548170229509e-04 1.666770740485e-04 0.0 
1.666770740485e-04 1.576109573106e-03 0.0 
0.0 0.0 -2.892354545592e-04 
-1.017444257442e-03 1.870623454717e-04 0.0 
1.870623454717e-04 6.717348757916e-03 0.0 
0.0 0.0 -1.015166614560e-03 
-6.631831128869e-04 1.857158928685e-04 0.0 
1.857158928685e-04 4.263729749941e-03 0.0 
0.0 0.0 -6.628028861993e-04 
-1.684732311542e-04 2.043772270911e-05 0.0 
2.043772270911e-05 7.313008481942e-04 0.0 
0.0 0.0 -1.790968519484e-04 
-5.636882380034e-04 1.819527752724e-04 0.0 
1.819527752724e-04 3.574156729662e-03 0.0 
0.0 0.0 -5.632129589051e-04 
-9.884210265131e-04 1.935912308442e-04 0.0 
1.935912308442e-04 6.630368017319e-03 0.0 
0.0 0.0 -9.915417172310e-04 
-1.024292652289e-03 -1.998354067082e-04 0.0 
-1.998354067082e-04 6.855679602380e-03 0.0 
0.0 0.0 -1.020980360542e-03 
-2.668718187996e-04 -1.887143997354e-04 0.0 
-1.887143997354e-04 1.647579462571e-03 0.0 
0.0 0.0 -2.713190868338e-04 
-7.786512140660e-04 -1.180089749437e-04 0.0 
-1.180089749437e-04 5.426201302135e-03 0.0 
0.0 0.0 -8.076288038732e-04 
-1.074110154891e-03 1.985848318848e-04 0.0 
1.985848318848e-04 7.134481455861e-03 0.0 
0.0 0.0 -1.071782534217e-03 
-1.102896231441e-03 -1.801608730722e-04 0.0 
-1.801608730722e-04 7.447194143767e-03 0.0 
0.0 0.0 -1.109893377180e-03 
-5.341916501155e-04 1.805786256933e-04 0.0 
1.805786256933e-04 3.363027861628e-03 0.0 
0.0 0.0 -5.351738145117e-04 
-4.305045173777e-04 1.931657245159e-04 0.0 
1.931657245159e-04 2.621086994850e-03 0.0 
0.0 0.0 -4.333934152438e-04 
-8.799765506503e-04 1.996562479782e-04 0.0 
1.996562479782e-04 5.778741680504e-03 0.0 
0.0 0.0 -8.786267582723e-04 
-9.199821990293e-04 -2.154181819419e-04 0.0 
-2.154181819419e-04 6.117399840533e-03 0.0 
0.0 0.0 -9.278975173457e-04 
-1.674260928547e-04 -1.501342801200e-05 0.0 
-1.501342801200e-05 7.277150164987e-04 0.0 
0.0 0.0 -1.762926913357e-04 
-1.274115998275e-03 1.675675276397e-06 0.0 
1.675675276397e-06 8.713591812970e-03 0.0 
0.0 0.0 -1.269179263065e-03 
-1.298508155882e-03 1.869502884699e-05 0.0 
1.869502884699e-05 8.443421948614e-03 0.0 
0.0 0.0 -1.281197857596e-03 
-8.292940884850e-04 -1.917175163009e-04 0.0 
-1.917175163009e-04 5.414946975703e-03 0.0 
0.0 0.0 -8.387747867703e-04 
-1.244952979202e-03 -2.282010355606e-04 0.0 
-2.282010355606e-04 8.516132030964e-03 0.0 
0.0 0.0 -1.255037608383e-03 
-1.285595461777e-03 8.758262611811e-05 0.0 
8.758262611811e-05 8.470225568410e-03 0.0 
0.0 0.0 -1.285499913836e-03 
-6.550628368553e-04 1.846091374222e-04 0.0 
1.846091374222e-04 4.205898052995e-03 0.0 
0.0 0.0 -6.542748834104e-04 
-6.160633711768e-04 -1.792561832398e-04 0.0 
-1.792561832398e-04 4.023102319788e-03 0.0 
0.0 0.0 -6.153450468602e-04 
-1.283033344166e-03 -3.678337033116e-05 0.0 
-3.678337033116e-05 8.728014596535e-03 0.0 
0.0 0.0 -1.265535665854e-03 
0.0 0.0 0.0 
0.0 0.0 0.0 
0.0 0.0 0.0 
-3.991066787644e-04 2.089649564117e-04 0.0 
2.089649564117e-04 2.425063075378e-03 0.0 
0.0 0.0 -3.941707820483e-04 
-8.514609378297e-04 2.123409869842e-04 0.0 
2.123409869842e-04 5.409120252618e-03 0.0 
0.0 0.0 -8.329475646481e-04 
-5.302799896406e-04 -1.732779148190e-04 0.0 
-1.732779148190e-04 3.448271069514e-03 0.0 
0.0 0.0 -5.313546330462e-04 
-5.563051708704e-04 1.844916340552e-04 0.0 
1.844916340552e-04 3.512912497570e-03 0.0 
0.0 0.0 -5.546931404481e-04 
-3.415568276899e-04 -1.308054941932e-04 0.0 
-1.308054941932e-04 1.889315350148e-03 0.0 
0.0 0.0 -3.196518454468e-04 
-3.575678493769e-04 -1.815157908242e-04 0.0 
-1.815157908242e-04 2.264784395116e-03 0.0 
0.0 0.0 -3.528063275151e-04 
-8.197996438865e-04 -1.649479054575e-04 0.0 
-1.649479054575e-04 5.559213606059e-03 0.0 
0.0 0.0 -8.290026594306e-04 
-5.969369916123e-04 -1.873932769646e-04 0.0 
-1.873932769646e-04 3.888936242251e-03 0.0 
0.0 0.0 -5.962921515785e-04 
-4.656748358331e-04 1.698564554768e-04 0.0 
1.698564554768e-04 2.821912241396e-03 0.0 
0.0 0.0 -4.583473518421e-04 
-1.081990949278e-03 2.020316486046e-04 0.0 
2.020316486046e-04 7.171935137813e-03 0.0 
0.0 0.0 -1.077832113627e-03 
-1.313638198111e-03 -3.076900631362e-06 0.0 
-3.076900631362e-06 9.102354608081e-03 0.0 
0.0 0.0 -1.324978758543e-03 
-1.341095485501e-03 -7.065196985573e-05 0.0 
-7.065196985573e-05 9.093683970561e-03 0.0 
0.0 0.0 -1.320624918399e-03 
-6.462169745443e-04 1.855628978642e-04 0.0 
1.855628978642e-04 4.145339439620e-03 0.0 
0.0 0.0 -6.457427040837e-04 
-7.708747032324e-04 1.041783851500e-04 0.0 
1.041783851500e-04 4.982091340538e-03 0.0 
0.0 0.0 -7.877541558771e-04 
-8.769640556113e-05 6.178156653826e-05 0.0 
6.178156653826e-05 4.782988861832e-04 0.0 
0.0 0.0 -9.215226380795e-05 
-2.633621526955e-04 -2.203101725458e-04 0.0 
-2.203101725458e-04 1.488332341374e-03 0.0 
0.0 0.0 -2.565684379859e-04 
-2.684503074307e-04 -1.015967117789e-04 0.0 
-1.015967117789e-04 1.723596733048e-03 0.0 
0.0 0.0 -2.726290318112e-04 
-2.937144985059e-04 -1.893501464246e-04 0.0 
-1.893501464246e-04 1.729218905568e-03 0.0 
0.0 0.0 -2.902597925154e-04 
-9.132607495649e-04 -1.959093978122e-04 0.0 
-1.959093978122e-04 6.073898974161e-03 0.0 
0.0 0.0 -9.116044729693e-04 
-5.464820601322e-04 1.827990156846e-04 0.0 
1.827990156846e-04 3.450683961523e-03 0.0 
0.0 0.0 -5.459662534218e-04 
-5.889189184563e-04 -1.828572680717e-04 0.0 
-1.828572680717e-04 3.834736165112e-03 0.0 
0.0 0.0 -5.879858557453e-04 
-1.839870051548e-04 -1.451969745408e-04 0.0 
-1.451969745408e-04 1.010884541365e-03 0.0 
0.0 0.0 -1.607067486349e-04 
-1.189299804196e-03 3.101361533260e-05 0.0 
3.101361533260e-05 7.702189552740e-03 0.0 
0.0 0.0 -1.176327079312e-03 
-5.798619533544e-04 -1.808661495354e-04 0.0 
-1.808661495354e-04 3.773380412779e-03 0.0 
0.0 0.0 -5.792774345575e-04 
-1.207908513450e-03 1.972281472903e-04 0.0 
1.972281472903e-04 8.083641670665e-03 0.0 
0.0 0.0 -1.212957849656e-03 
-1.102884565855e-03 -1.433383463997e-04 0.0 
-1.433383463997e-04 7.411218118786e-03 0.0 
0.0 0.0 -1.117460450001e-03 
-1.327052993259e-03 5.039016474573e-05 0.0 
5.039016474573e-05 9.117456944273e-03 0.0 
0.0 0.0 -1.319418651152e-03 
-1.323160438534e-03 4.113209317422e-05 0.0 
4.113209317422e-05 9.111232254039e-03 0.0 
0.0 0.0 -1.324849633189e-03 
-8.429214028196e-04 1.551938721598e-04 0.0 
1.551938721598e-04 5.556754036542e-03 0.0 
0.0 0.0 -8.315138651140e-04 
-6.054182665991e-04 -1.761595556498e-04 0.0 
-1.761595556498e-04 3.962557590826e-03 0.0 
0.0 0.0 -6.063493599946e-04 
-3.773225086312e-04 1.540184482810e-04 0.0 
1.540184482810e-04 2.369883884178e-03 0.0 
0.0 0.0 -3.884917441798e-04 
-6.362526417499e-04 1.880822988669e-04 0.0 
1.880822988669e-04 4.081289822239e-03 0.0 
0.0 0.0 -6.367902913543e-04 
-1.343328350294e-03 -2.242232029301e-05 0.0 
-2.242232029301e-05 8.871791449146e-03 0.0 
0.0 0.0 -1.343328350294e-03 
-1.941237960476e-04 -2.080169990244e-04 0.0 
-2.080169990244e-04 1.015510769409e-03 0.0 
0.0 0.0 -1.893367542308e-04 
-2.245210048569e-04 -1.692984650134e-04 0.0 
-1.692984650134e-04 1.259236592297e-03 0.0 
0.0 0.0 -2.228547875044e-04 
-1.167115373107e-03 -1.495116845836e-04 0.0 
-1.495116845836e-04 7.791699083978e-03 0.0 
0.0 0.0 -1.156027955174e-03 
-7.604196719999e-04 1.094016003107e-05 0.0 
1.094016003107e-05 5.257478836262e-03 0.0 
0.0 0.0 -7.715229432315e-04 
-1.218850929264e-03 2.058644676409e-04 0.0 
2.058644676409e-04 8.144525734943e-03 0.0 
0.0 0.0 -1.219279742240e-03 
-1.071479820018e-03 -2.036323164842e-04 0.0 
-2.036323164842e-04 7.177512432405e-03 0.0 
0.0 0.0 -1.069611963270e-03 
-1.173316210076e-03 1.967322517176e-04 0.0 
1.967322517176e-04 7.835584524311e-03 0.0 
0.0 0.0 -1.175036385391e-03 
-1.118458415257e-03 -2.207277967069e-04 0.0 
-2.207277967069e-04 7.508134580034e-03 0.0 
0.0 0.0 -1.113576918908e-03 
-8.412072480000e-04 1.822595111317e-04 0.0 
1.822595111317e-04 5.484810982913e-03 0.0 
0.0 0.0 -8.542750875040e-04 
-4.656106938285e-04 -1.713235230467e-04 0.0 
-1.713235230467e-04 3.001776381545e-03 0.0 
0.0 0.0 -4.674384380614e-04 
-4.697017346435e-04 1.848050694814e-04 0.0 
1.848050694814e-04 2.920597782787e-03 0.0 
0.0 0.0 -4.715697005044e-04 
-9.776991098987e-04 1.861960494421e-04 0.0 
1.861960494421e-04 6.549106674112e-03 0.0 
0.0 0.0 -9.963059934037e-04 
-1.137349181097e-03 -2.318464835195e-04 0.0 
-2.318464835195e-04 7.668040183404e-03 0.0 
0.0 0.0 -1.142506377625e-03 
-7.233340711098e-04 3.952444560705e-05 0.0 
3.952444560705e-05 4.569127107640e-03 0.0 
0.0 0.0 -7.345222264051e-04 
-7.670993363221e-04 9.419055025908e-06 0.0 
9.419055025908e-06 5.242908179151e-03 0.0 
0.0 0.0 -7.676068998053e-04 
-8.154774784067e-04 -6.428956903013e-05 0.0 
-6.428956903013e-05 5.577286133227e-03 0.0 
0.0 0.0 -8.242303029217e-04 
-8.631530775678e-04 -2.400243606271e-04 0.0 
-2.400243606271e-04 5.666444636217e-03 0.0 
0.0 0.0 -8.467401457521e-04 
-2.520894261651e-04 1.671748571762e-04 0.0 
1.671748571762e-04 1.368563506488e-03 0.0 
0.0 0.0 -2.397236108670e-04 
-4.305788114656e-04 1.772776305973e-04 0.0 
1.772776305973e-04 2.648122848143e-03 0.0 
0.0 0.0 -4.335179088089e-04 
-1.282591321733e-03 8.806658448800e-05 0.0 
8.806658448800e-05 8.712918664304e-03 0.0 
0.0 0.0 -1.269310366786e-03 
-9.079866980401e-04 -2.164843828387e-04 0.0 
-2.164843828387e-04 6.067165963345e-03 0.0 
0.0 0.0 -9.150577043801e-04 
-1.296402067617e-03 1.470406796949e-04 0.0 
1.470406796949e-04 8.670707295504e-03 0.0 
0.0 0.0 -1.295322057178e-03 
-1.218050556302e-03 -1.658124096046e-04 0.0 
-1.658124096046e-04 8.300187960416e-03 0.0 
0.0 0.0 -1.215577547940e-03 
-1.017494637499e-03 -1.921677140224e-04 0.0 
-1.921677140224e-04 6.789033766802e-03 0.0 
0.0 0.0 -1.012565562176e-03 
-1.225370251071e-03 -1.480578321934e-04 0.0 
-1.480578321934e-04 8.186203026488e-03 0.0 
0.0 0.0 -1.214907066889e-03 
-6.126094482220e-04 1.499930831992e-04 0.0 
1.499930831992e-04 3.952786327319e-03 0.0 
0.0 0.0 -6.304496659280e-04 
-5.949124951754e-04 1.553635317388e-04 0.0 
1.553635317388e-04 3.760564116659e-03 0.0 
0.0 0.0 -5.666856080635e-04 
-1.240251440986e-03 1.401266566937e-04 0.0 
1.401266566937e-04 8.128078577480e-03 0.0 
0.0 0.0 -1.226851238141e-03 
-8.681779237144e-05 6.361966938889e-05 0.0 
6.361966938889e-05 2.955256088903e-04 0.0 
0.0 0.0 -8.944620707951e-05 
-3.994468741372e-04 -6.433767031839e-05 0.0 
-6.433767031839e-05 2.663800316761e-03 0.0 
0.0 0.0 -4.071640756073e-04 
-1.342405754833e-03 -1.165290042752e-05 0.0 
-1.165290042752e-05 8.847278625245e-03 0.0 
0.0 0.0 -1.342405754833e-03 
-2.282183831112e-04 -1.931913246922e-04 0.0 
-1.931913246922e-04 1.161289386138e-03 0.0 
0.0 0.0 -2.265802816212e-04 
-7.779914563104e-04 2.250840471912e-05 0.0 
2.250840471912e-05 4.976100040424e-03 0.0 
0.0 0.0 -7.870118106326e-04 
-1.235301241696e-03 -4.597267687941e-05 0.0 
-4.597267687941e-05 8.352549433382e-03 0.0 
0.0 0.0 -1.213461936786e-03 
-1.459711515859e-04 1.404844411890e-04 0.0 
1.404844411890e-04 8.229618690863e-04 0.0 
0.0 0.0 -1.562362318669e-04 
-9.769154927044e-05 -4.466849095827e-05 0.0 
-4.466849095827e-05 5.434427193165e-04 0.0 
0.0 0.0 -9.998712429274e-05 
-1.319764072821e-03 -1.098631366031e-04 0.0 
-1.098631366031e-04 9.086194502793e-03 0.0 
0.0 0.0 -1.324389858384e-03 
-7.180738404627e-04 8.985801949804e-05 0.0 
8.985801949804e-05 4.589525670273e-03 0.0 
0.0 0.0 -7.294542769151e-04 
-1.252043255197e-03 2.202164088422e-04 0.0 
2.202164088422e-04 8.539160480101e-03 0.0 
0.0 0.0 -1.261418349269e-03 
-1.248383097869e-03 1.112925247003e-05 0.0 
1.112925247003e-05 8.098072079257e-03 0.0 
0.0 0.0 -1.231858344535e-03 
-7.209227692000e-04 -5.510654877091e-05 0.0 
-5.510654877091e-05 4.575450219389e-03 0.0 
0.0 0.0 -7.289279708929e-04 
-7.887389828835e-05 -1.017830300428e-05 0.0 
-1.017830300428e-05 5.525360744204e-04 0.0 
0.0 0.0 -9.740250892546e-05 
-1.285641185581e-03 -9.669087187560e-05 0.0 
-9.669087187560e-05 8.464210102403e-03 0.0 
0.0 0.0 -1.284140717546e-03 
-2.442885352264e-04 -2.316128597141e-04 0.0 
-2.316128597141e-04 1.339036366237e-03 0.0 
0.0 0.0 -2.433545560381e-04 
-1.243394787484e-03 1.248159333677e-04 0.0 
1.248159333677e-04 8.192432393622e-03 0.0 
0.0 0.0 -1.232184317627e-03 
-1.343095105526e-03 -5.545911197424e-07 0.0 
-5.545911197424e-07 8.861098076103e-03 0.0 
0.0 0.0 -1.343095105526e-03 
-1.242483488035e-03 -1.476678323207e-04 0.0 
-1.476678323207e-04 8.164481882699e-03 0.0 
0.0 0.0 -1.225700354592e-03 
-3.053173479735e-04 1.995595624775e-04 0.0 
1.995595624775e-04 1.753941284829e-03 0.0 
0.0 0.0 -3.044764127662e-04 
-8.209179416884e-04 2.201614491088e-05 0.0 
2.201614491088e-05 5.636691216410e-03 0.0 
0.0 0.0 -8.279144014868e-04 
-6.598213782972e-04 -1.321361913962e-04 0.0 
-1.321361913962e-04 4.200506500251e-03 0.0 
0.0 0.0 -6.271989868224e-04 
-1.073009497438e-03 -2.016133877389e-04 0.0 
-2.016133877389e-04 7.190278966189e-03 0.0 
0.0 0.0 -1.077599360682e-03 
-1.322804215539e-03 -9.225806505956e-05 0.0 
-9.225806505956e-05 9.099454060859e-03 0.0 
0.0 0.0 -1.326997735404e-03 
-1.068734190482e-03 1.262415369066e-04 0.0 
1.262415369066e-04 7.132952485478e-03 0.0 
0.0 0.0 -1.061614915164e-03 
-1.337358869243e-03 1.104149306633e-04 0.0 
1.104149306633e-04 9.089889591753e-03 0.0 
0.0 0.0 -1.325870641008e-03 
-1.438532979018e-04 1.783345522893e-04 0.0 
1.783345522893e-04 7.477808023263e-04 0.0 
0.0 0.0 -1.715795432680e-04 
-1.271233225915e-03 -1.249047643759e-04 0.0 
-1.249047643759e-04 8.707020070809e-03 0.0 
0.0 0.0 -1.277656510522e-03 
-3.430844418630e-04 1.264811275403e-04 0.0 
1.264811275403e-04 2.040518818998e-03 0.0 
0.0 0.0 -3.355960889912e-04 
-2.267326677211e-04 8.751186841259e-05 0.0 
8.751186841259e-05 1.117406703756e-03 0.0 
0.0 0.0 -2.298118214877e-04 
-1.280901782935e-03 -1.009695952618e-04 0.0 
-1.009695952618e-04 8.719202259105e-03 0.0 
0.0 0.0 -1.270335377537e-03 
-1.269212628500e-03 -5.703432125200e-05 0.0 
-5.703432125200e-05 8.728165820739e-03 0.0 
0.0 0.0 -1.270603359501e-03 
-1.290208848840e-03 -1.659042855401e-04 0.0 
-1.659042855401e-04 8.665328582140e-03 0.0 
0.0 0.0 -1.289850838753e-03 
-7.717572245574e-04 2.050611335135e-04 0.0 
2.050611335135e-04 5.043252484980e-03 0.0 
0.0 0.0 -7.762633204683e-04 
-8.522136042616e-04 2.002639843872e-04 0.0 
2.002639843872e-04 5.495330100218e-03 0.0 
0.0 0.0 -8.489529362435e-04 
-3.165071740037e-04 -2.111753426377e-04 0.0 
-2.111753426377e-04 1.888408226457e-03 0.0 
0.0 0.0 -3.134500106614e-04 
-1.262455248765e-03 -8.092303513728e-05 0.0 
-8.092303513728e-05 8.720636871640e-03 0.0 
0.0 0.0 -1.273041473476e-03 
-5.172296523503e-04 1.719980447266e-04 0.0 
1.719980447266e-04 3.374654497821e-03 0.0 
0.0 0.0 -5.357483711987e-04 
-1.781924616035e-04 -1.691974037750e-04 0.0 
-1.691974037750e-04 1.076416545498e-03 0.0 
0.0 0.0 -2.114276361914e-04 
-1.103945436021e-03 1.858035491712e-04 0.0 
1.858035491712e-04 7.419563175353e-03 0.0 
0.0 0.0 -1.110141529071e-03 
-7.006483677025e-04 -2.017256137276e-05 0.0 
-2.017256137276e-05 4.817249357728e-03 0.0 
0.0 0.0 -7.096328662732e-04 
-1.236750495474e-03 1.522707816399e-04 0.0 
1.522707816399e-04 8.254648441428e-03 0.0 
0.0 0.0 -1.237729719596e-03 
-1.313320395878e-03 -1.861843894467e-04 0.0 
-1.861843894467e-04 8.989774958204e-03 0.0 
0.0 0.0 -1.321509982054e-03 
-1.343732204276e-03 -8.189586176297e-06 0.0 
-8.189586176297e-06 8.864848236539e-03 0.0 
0.0 0.0 -1.343732204276e-03 
-2.113977103298e-05 -6.116564405309e-05 0.0 
-6.116564405309e-05 2.124468673954e-04 0.0 
0.0 0.0 -4.293446239042e-05 
-1.369574587125e-05 5.682883385819e-05 0.0 
5.682883385819e-05 6.671587994242e-05 0.0 
0.0 0.0 -2.272291460193e-05 
-7.269437089926e-04 -1.696449694041e-04 0.0 
-1.696449694041e-04 4.683701017331e-03 0.0 
0.0 0.0 -7.318233512793e-04 
-7.351939856936e-04 2.731264159563e-05 0.0 
2.731264159563e-05 4.828327016366e-03 0.0 
0.0 0.0 -7.096011290571e-04 
-1.343732204276e-03 1.179896387127e-05 0.0 
1.179896387127e-05 8.857063084495e-03 0.0 
0.0 0.0 -1.343732204276e-03 
-1.309711018183e-03 1.830632258291e-04 0.0 
1.830632258291e-04 8.985110969777e-03 0.0 
0.0 0.0 -1.321509982054e-03 
-7.839023714476e-05 1.530759167141e-04 0.0 
1.530759167141e-04 4.984351001574e-04 0.0 
0.0 0.0 -9.787861857360e-05 
0.0 0.0 0.0 
0.0 0.0 0.0 
0.0 0.0 0.0 
-1.240428741391e-03 1.261681395074e-04 0.0 
1.261681395074e-04 8.137366373926e-03 0.0 
0.0 0.0 -1.230181737024e-03 
-1.207075559038e-03 2.460354552527e-04 0.0 
2.460354552527e-04 8.184062138694e-03 0.0 
0.0 0.0 -1.209364118140e-03 
-2.516969952369e-04 -1.461428108360e-04 0.0 
-1.461428108360e-04 1.687102641450e-03 0.0 
0.0 0.0 -2.712674790923e-04 
-1.245262172265e-03 -1.311938195306e-04 0.0 
-1.311938195306e-04 8.282968492479e-03 0.0 
0.0 0.0 -1.240191881334e-03 
-8.815159713633e-04 -5.214653451851e-05 0.0 
-5.214653451851e-05 5.742054567636e-03 0.0 
0.0 0.0 -8.888375990210e-04 
-7.830091470663e-04 -1.948066662000e-04 0.0 
-1.948066662000e-04 5.082527524584e-03 0.0 
0.0 0.0 -7.610796297342e-04 
-9.561048422875e-04 9.798803026384e-05 0.0 
9.798803026384e-05 6.427121213030e-03 0.0 
0.0 0.0 -9.400782610458e-04 
-2.481095332731e-04 1.496361777487e-04 0.0 
1.496361777487e-04 1.515795619755e-03 0.0 
0.0 0.0 -2.626203152100e-04 
-1.010907895305e-03 -2.030439122722e-04 0.0 
-2.030439122722e-04 6.762603191825e-03 0.0 
0.0 0.0 -1.011657465016e-03 
-2.096777059838e-04 3.248157080125e-05 0.0 
3.248157080125e-05 1.393633952846e-03 0.0 
0.0 0.0 -2.181484037039e-04 
-6.792638343957e-04 -1.892634513455e-04 0.0 
-1.892634513455e-04 4.524953282507e-03 0.0 
0.0 0.0 -6.997415131527e-04 
-1.228132135990e-03 1.125898781112e-04 0.0 
1.125898781112e-04 8.215057351811e-03 0.0 
0.0 0.0 -1.240519096027e-03 
-1.189706231828e-03 -2.131151468578e-04 0.0 
-2.131151468578e-04 8.025000395541e-03 0.0 
0.0 0.0 -1.191726112421e-03 
-7.376716687014e-04 1.103821202312e-04 0.0 
1.103821202312e-04 4.884590449631e-03 0.0 
0.0 0.0 -7.690942022927e-04 
-8.794968587203e-04 -1.839618802493e-04 0.0 
-1.839618802493e-04 5.894695197839e-03 0.0 
0.0 0.0 -8.745659502648e-04 
-1.233301431487e-03 8.160038213140e-05 0.0 
8.160038213140e-05 8.358065301524e-03 0.0 
0.0 0.0 -1.217119345309e-03 
-1.141574387304e-03 -2.166019370135e-04 0.0 
-2.166019370135e-04 7.685657586840e-03 0.0 
0.0 0.0 -1.140944809983e-03 
-1.081193771009e-03 -2.086711321349e-04 0.0 
-2.086711321349e-04 7.235399972245e-03 0.0 
0.0 0.0 -1.076426999079e-03 
-7.306608964195e-04 1.032073657561e-05 0.0 
1.032073657561e-05 4.566565227243e-03 0.0 
0.0 0.0 -7.312123441678e-04 
-9.778650762194e-04 -2.118658920496e-04 0.0 
-2.118658920496e-04 6.529297964408e-03 0.0 
0.0 0.0 -9.763781674015e-04 
-1.237478436388e-03 1.224174650821e-04 0.0 
1.224174650821e-04 8.159420566097e-03 0.0 
0.0 0.0 -1.231404929774e-03 
-4.267545194733e-04 1.185171473709e-04 0.0 
1.185171473709e-04 2.513528635352e-03 0.0 
0.0 0.0 -4.167967844001e-04 
-9.921663346510e-05 -4.441075622388e-05 0.0 
-4.441075622388e-05 6.032903446548e-04 0.0 
0.0 0.0 -1.015157820784e-04 
-1.196520802042e-03 -1.451432414407e-04 0.0 
-1.451432414407e-04 7.939655555732e-03 0.0 
0.0 0.0 -1.185975225609e-03 
-1.126502929027e-03 1.777561321906e-04 0.0 
1.777561321906e-04 7.477268686063e-03 0.0 
0.0 0.0 -1.123538223191e-03 
-2.078344596567e-04 -1.080252995939e-04 0.0 
-1.080252995939e-04 1.116725601039e-03 0.0 
0.0 0.0 -2.307047010092e-04 
-9.934730169900e-04 -1.599306293238e-04 0.0 
-1.599306293238e-04 6.730831912440e-03 0.0 
0.0 0.0 -9.893338170986e-04 
-1.294485487258e-03 -4.211486433477e-05 0.0 
-4.211486433477e-05 8.454062998903e-03 0.0 
0.0 0.0 -1.282739585886e-03 
-1.188427124013e-03 1.207612322075e-04 0.0 
1.207612322075e-04 7.845258460139e-03 0.0 
0.0 0.0 -1.182073443778e-03 
-1.229516741237e-03 -2.922411445837e-05 0.0 
-2.922411445837e-05 8.351941012254e-03 0.0 
0.0 0.0 -1.215129606110e-03 
-9.509005340637e-04 -2.110936823322e-04 0.0 
-2.110936823322e-04 6.286467037558e-03 0.0 
0.0 0.0 -9.537126495859e-04 
-9.113657589530e-05 5.031862656042e-05 0.0 
5.031862656042e-05 3.206408784026e-04 0.0 
0.0 0.0 -9.835898678883e-05 
-3.211470424961e-04 1.012653271347e-04 0.0 
1.012653271347e-04 1.877306534774e-03 0.0 
0.0 0.0 -3.212443691966e-04 
-3.868345573263e-04 -2.158079183948e-04 0.0 
-2.158079183948e-04 2.373525116556e-03 0.0 
0.0 0.0 -3.834349432650e-04 
-8.152074782469e-04 3.282099269049e-05 0.0 
3.282099269049e-05 5.366100763401e-03 0.0 
0.0 0.0 -8.471429939415e-04 
-9.776446367943e-04 2.161934057613e-04 0.0 
2.161934057613e-04 6.478555405996e-03 0.0 
0.0 0.0 -9.781602908260e-04 
-1.243353399719e-03 -1.638877946274e-04 0.0 
-1.638877946274e-04 8.293874922919e-03 0.0 
0.0 0.0 -1.236541257690e-03 
-1.282980388071e-03 6.834535406594e-05 0.0 
6.834535406594e-05 8.446722746771e-03 0.0 
0.0 0.0 -1.282325209426e-03 
-1.534406041715e-04 -3.090119355691e-05 0.0 
-3.090119355691e-05 9.940803017302e-04 0.0 
0.0 0.0 -1.581060378624e-04 
-1.515974677088e-04 5.347591743218e-05 0.0 
5.347591743218e-05 9.499659581657e-04 0.0 
0.0 0.0 -1.538280640939e-04 
-2.429997348883e-04 2.036444813406e-04 0.0 
2.036444813406e-04 1.479432396382e-03 0.0 
0.0 0.0 -2.585189829319e-04 
-1.003671688667e-03 2.798952750373e-04 0.0 
2.798952750373e-04 6.711627995117e-03 0.0 
0.0 0.0 -1.019242131223e-03 
-5.082641639815e-04 -1.820796698733e-04 0.0 
-1.820796698733e-04 3.225266612081e-03 0.0 
0.0 0.0 -4.953283059016e-04 
-1.242349672414e-03 -1.508059351583e-04 0.0 
-1.508059351583e-04 8.332022443394e-03 0.0 
0.0 0.0 -1.241298427557e-03 
-2.469827383887e-04 -1.734013788770e-04 0.0 
-1.734013788770e-04 1.596418989747e-03 0.0 
0.0 0.0 -2.623907620756e-04 
-1.225402262687e-03 9.684378834699e-05 0.0 
9.684378834699e-05 8.090992196229e-03 0.0 
0.0 0.0 -1.221152601860e-03 
-8.136377301276e-04 1.789287431363e-04 0.0 
1.789287431363e-04 5.446005510680e-03 0.0 
0.0 0.0 -8.343732341398e-04 
-1.267827958096e-03 1.379445383926e-06 0.0 
1.379445383926e-06 8.495733417342e-03 0.0 
0.0 0.0 -1.286815605725e-03 
-1.109817670536e-03 -2.343370330106e-04 0.0 
-2.343370330106e-04 7.482609533299e-03 0.0 
0.0 0.0 -1.111121968474e-03 
-8.202418952196e-04 -8.830664857131e-05 0.0 
-8.830664857131e-05 5.379056120884e-03 0.0 
0.0 0.0 -8.465141837044e-04 
-1.270879538861e-03 -4.852122928062e-05 0.0 
-4.852122928062e-05 8.726187780208e-03 0.0 
0.0 0.0 -1.269142588751e-03 
-1.282679052200e-03 7.789633126418e-05 0.0 
7.789633126418e-05 8.731686959293e-03 0.0 
0.0 0.0 -1.272727265576e-03 
-1.257303152988e-03 6.224102812160e-05 0.0 
6.224102812160e-05 8.713074082016e-03 0.0 
0.0 0.0 -1.271339345674e-03 
-1.734083018693e-04 1.988310073065e-04 0.0 
1.988310073065e-04 9.960919397328e-04 0.0 
0.0 0.0 -1.914719991171e-04 
-1.218228496203e-03 1.745230460975e-04 0.0 
1.745230460975e-04 8.126336924162e-03 0.0 
0.0 0.0 -1.218309553141e-03 
-1.287690608828e-03 2.935127504918e-05 0.0 
2.935127504918e-05 8.450884291377e-03 0.0 
0.0 0.0 -1.286645293131e-03 
-1.215292120313e-03 -1.048319889731e-04 0.0 
-1.048319889731e-04 8.264175100215e-03 0.0 
0.0 0.0 -1.211735819529e-03 
-1.131460186021e-03 2.249929147144e-04 0.0 
2.249929147144e-04 7.604741910755e-03 0.0 
0.0 0.0 -1.143254064081e-03 
-1.342665167303e-03 2.462626238341e-05 0.0 
2.462626238341e-05 8.842656329326e-03 0.0 
0.0 0.0 -1.342665167303e-03 
-1.082512435834e-03 2.096972143521e-04 0.0 
2.096972143521e-04 7.169850347795e-03 0.0 
0.0 0.0 -1.079065255302e-03 
0.0 0.0 0.0 
0.0 0.0 0.0 
0.0 0.0 0.0 
-2.601109826526e-04 -2.071691114658e-04 0.0 
-2.071691114658e-04 1.415839820494e-03 0.0 
0.0 0.0 -2.423809483696e-04 
-1.192508312149e-03 -1.779210084662e-04 0.0 
-1.779210084662e-04 7.961128754995e-03 0.0 
0.0 0.0 -1.176936364471e-03 
-8.685626322098e-04 1.582275665785e-04 0.0 
1.582275665785e-04 5.835782021141e-03 0.0 
0.0 0.0 -8.884613587993e-04 
-1.209889234857e-03 -1.955325308149e-04 0.0 
-1.955325308149e-04 8.188769710118e-03 0.0 
0.0 0.0 -1.221994126432e-03 
-1.170503729369e-03 -2.209983450853e-04 0.0 
-2.209983450853e-04 7.908922597115e-03 0.0 
0.0 0.0 -1.177009544428e-03 
-1.281372639421e-03 -4.882657488475e-05 0.0 
-4.882657488475e-05 8.503605837596e-03 0.0 
0.0 0.0 -1.292249833993e-03 
-1.060591200894e-03 2.356899093670e-04 0.0 
2.356899093670e-04 7.243032913762e-03 0.0 
0.0 0.0 -1.085521458831e-03 
-1.295424128128e-03 -1.344853644109e-05 0.0 
-1.344853644109e-05 8.497735658802e-03 0.0 
0.0 0.0 -1.288973456333e-03 
-1.240273266268e-03 -1.643959908807e-04 0.0 
-1.643959908807e-04 8.288290248441e-03 0.0 
0.0 0.0 -1.233322439334e-03 
-1.236328969747e-03 1.681015718690e-04 0.0 
1.681015718690e-04 8.249087621686e-03 0.0 
0.0 0.0 -1.235043566395e-03 
-5.200406812990e-04 -1.166757664344e-04 0.0 
-1.166757664344e-04 3.385215487565e-03 0.0 
0.0 0.0 -5.104964012366e-04 
-1.293388642315e-03 -2.007549829059e-05 0.0 
-2.007549829059e-05 9.114239519402e-03 0.0 
0.0 0.0 -1.325641941534e-03 
-7.485652657638e-04 1.433772634922e-05 0.0 
1.433772634922e-05 5.220751556451e-03 0.0 
0.0 0.0 -7.662153309038e-04 
-1.203353616892e-03 -1.846454248332e-04 0.0 
-1.846454248332e-04 8.194731648824e-03 0.0 
0.0 0.0 -1.217406395243e-03 
-1.473848137131e-04 -7.608252406775e-05 0.0 
-7.608252406775e-05 7.058205605385e-04 0.0 
0.0 0.0 -1.761976461317e-04 
-1.139762521842e-03 -1.242981094265e-04 0.0 
-1.242981094265e-04 7.914367669760e-03 0.0 
0.0 0.0 -1.163202487293e-03 
-9.847139031094e-04 -2.927819349541e-05 0.0 
-2.927819349541e-05 6.802999958382e-03 0.0 
0.0 0.0 -9.926133712568e-04 
-1.690893902524e-04 -1.078602895255e-04 0.0 
-1.078602895255e-04 9.402080020995e-04 0.0 
0.0 0.0 -1.628620303624e-04 
-2.985531882031e-04 -2.240216763464e-04 0.0 
-2.240216763464e-04 1.642242196626e-03 0.0 
0.0 0.0 -2.736924314970e-04 
-1.111715101681e-03 2.179506947961e-04 0.0 
2.179506947961e-04 7.377812155317e-03 0.0 
0.0 0.0 -1.107581195644e-03 
-1.292896746142e-03 -1.945315972070e-05 0.0 
-1.945315972070e-05 8.475231004044e-03 0.0 
0.0 0.0 -1.285368862661e-03 
-1.232559661219e-03 -1.674576161592e-04 0.0 
-1.674576161592e-04 8.301292046622e-03 0.0 
0.0 0.0 -1.223917301752e-03 
-1.254461742942e-03 2.341900515224e-04 0.0 
2.341900515224e-04 8.559507473306e-03 0.0 
0.0 0.0 -1.264779455601e-03 
-8.799678260909e-04 2.461510225767e-04 0.0 
2.461510225767e-04 5.779390736261e-03 0.0 
0.0 0.0 -8.807565902733e-04 
-9.459318500255e-05 -9.224025008795e-06 0.0 
-9.224025008795e-06 5.593643268762e-04 0.0 
0.0 0.0 -1.022500568216e-04 
-1.184228338263e-04 1.932393774192e-04 0.0 
1.932393774192e-04 8.360742900508e-04 0.0 
0.0 0.0 -1.527632439532e-04 
-1.485774023436e-04 2.057472114589e-04 0.0 
2.057472114589e-04 4.943058849458e-04 0.0 
0.0 0.0 -1.262112556552e-04 
-1.889957332613e-04 -1.720729644019e-04 0.0 
-1.720729644019e-04 1.198989706623e-03 0.0 
0.0 0.0 -2.080055930776e-04 
-2.412796962869e-05 1.151125546851e-04 0.0 
1.151125546851e-04 1.259903231300e-04 0.0 
0.0 0.0 -4.365529435769e-05 
-6.564338874857e-04 1.298407551401e-04 0.0 
1.298407551401e-04 4.516305724261e-03 0.0 
0.0 0.0 -6.753304527203e-04 
-1.206082523732e-03 1.933788045723e-04 0.0 
1.933788045723e-04 8.180269090487e-03 0.0 
0.0 0.0 -1.222305993939e-03 
-1.222663318362e-03 1.753368055928e-04 0.0 
1.753368055928e-04 8.227435580213e-03 0.0 
0.0 0.0 -1.222833113937e-03 
-8.669258191564e-04 -1.817944922657e-04 0.0 
-1.817944922657e-04 5.844176131481e-03 0.0 
0.0 0.0 -8.826313165011e-04 
-6.040048573085e-04 -2.738267400018e-04 0.0 
-2.738267400018e-04 3.891940944486e-03 0.0 
0.0 0.0 -5.988529843847e-04 
-1.222353962553e-03 -1.610597655754e-04 0.0 
-1.610597655754e-04 8.260198203253e-03 0.0 
0.0 0.0 -1.221067908166e-03 
-1.203746913663e-03 2.278206710252e-04 0.0 
2.278206710252e-04 8.189793790316e-03 0.0 
0.0 0.0 -1.208702654310e-03 
-1.279025858978e-03 8.766018994025e-05 0.0 
8.766018994025e-05 8.741593274881e-03 0.0 
0.0 0.0 -1.272252409145e-03 
-1.242705220595e-03 -3.696381206596e-05 0.0 
-3.696381206596e-05 8.148871227430e-03 0.0 
0.0 0.0 -1.237422270938e-03 
-1.174009678725e-03 1.988566962408e-04 0.0 
1.988566962408e-04 7.816359446438e-03 0.0 
0.0 0.0 -1.171232062679e-03 
-1.672054198290e-04 9.231173188905e-05 0.0 
9.231173188905e-05 7.047171557344e-04 0.0 
0.0 0.0 -1.733042685746e-04 
-1.128922232108e-04 -1.541536460293e-04 0.0 
-1.541536460293e-04 8.181726866748e-04 0.0 
0.0 0.0 -1.441637530793e-04 
-1.232867888531e-03 -1.583409372844e-04 0.0 
-1.583409372844e-04 8.274546276781e-03 0.0 
0.0 0.0 -1.223662873675e-03 
-1.809471586289e-04 2.732513028346e-05 0.0 
2.732513028346e-05 7.150332979249e-04 0.0 
0.0 0.0 -1.761523314621e-04 
-2.090612244599e-04 2.679772699564e-04 0.0 
2.679772699564e-04 1.034188635190e-03 0.0 
0.0 0.0 -1.933333333332e-04 
-1.375589269253e-04 1.895212040581e-04 0.0 
1.895212040581e-04 6.272580356086e-04 0.0 
0.0 0.0 -1.476920362276e-04 
-1.616726848356e-04 -1.838984361801e-04 0.0 
-1.838984361801e-04 7.928606863592e-04 0.0 
0.0 0.0 -1.580296812506e-04 
-1.300434401275e-03 -1.024873491577e-05 0.0 
-1.024873491577e-05 8.484073046421e-03 0.0 
0.0 0.0 -1.288571152055e-03 
-1.296196106557e-03 -7.581226292431e-05 0.0 
-7.581226292431e-05 8.500775829958e-03 0.0 
0.0 0.0 -1.290113636706e-03 
-1.257797356609e-03 1.887508465157e-04 0.0 
1.887508465157e-04 8.298916238051e-03 0.0 
0.0 0.0 -1.236907757659e-03 
-1.306315150684e-03 9.008107202752e-08 0.0 
9.008107202752e-08 8.523760771155e-03 0.0 
0.0 0.0 -1.292605224168e-03 
-1.191514572737e-03 -1.523248627148e-04 0.0 
-1.523248627148e-04 7.914354314681e-03 0.0 
0.0 0.0 -1.176879138244e-03 
-9.009707231897e-04 2.647575106000e-04 0.0 
2.647575106000e-04 6.062013665177e-03 0.0 
0.0 0.0 -9.170130443517e-04 
-1.345069444888e-03 -1.224359494152e-05 0.0 
-1.224359494152e-05 8.872525889838e-03 0.0 
0.0 0.0 -1.345069444888e-03 
-3.168516228751e-04 -1.142391801259e-04 0.0 
-1.142391801259e-04 2.071683762697e-03 0.0 
0.0 0.0 -3.330755757467e-04 
-6.832796589934e-04 2.794415003490e-06 0.0 
2.794415003490e-06 4.812526626932e-03 0.0 
0.0 0.0 -7.083073883397e-04 
-1.983733277546e-04 6.070841311573e-05 0.0 
6.070841311573e-05 1.303830959687e-03 0.0 
0.0 0.0 -2.086331215474e-04 
-8.213992574580e-05 4.728700015112e-05 0.0 
4.728700015112e-05 2.774119614063e-04 0.0 
0.0 0.0 -8.368801528307e-05 
-1.296331570259e-03 3.985530997243e-05 0.0 
3.985530997243e-05 9.108859965209e-03 0.0 
0.0 0.0 -1.323850096553e-03 
-7.636750152913e-04 -5.943479672408e-05 0.0 
-5.943479672408e-05 5.297273347084e-03 0.0 
0.0 0.0 -7.731261162940e-04 
-1.898896061389e-04 2.668881093002e-05 0.0 
2.668881093002e-05 1.324161255717e-03 0.0 
0.0 0.0 -2.115341463249e-04 
-6.766397334689e-04 2.335959289237e-04 0.0 
2.335959289237e-04 4.262192913851e-03 0.0 
0.0 0.0 -6.570498647039e-04 
-1.270388897102e-03 1.791394562197e-05 0.0 
1.791394562197e-05 8.744228481245e-03 0.0 
0.0 0.0 -1.276804206569e-03 
-1.238351285998e-03 -1.647535430713e-04 0.0 
-1.647535430713e-04 8.287386498838e-03 0.0 
0.0 0.0 -1.228616961883e-03 
-1.299245503170e-03 -6.943481147044e-06 0.0 
-6.943481147044e-06 8.501206471558e-03 0.0 
0.0 0.0 -1.289666537713e-03 
-4.674755872492e-04 -1.441717405802e-04 0.0 
-1.441717405802e-04 3.063014272079e-03 0.0 
0.0 0.0 -4.695399720401e-04 
-1.457689473942e-04 -1.575597281072e-04 0.0 
-1.575597281072e-04 7.498700715420e-04 0.0 
0.0 0.0 -1.553221962317e-04 
-1.285913149297e-03 -1.165123631474e-04 0.0 
-1.165123631474e-04 8.730182768681e-03 0.0 
0.0 0.0 -1.273144391159e-03 
-1.298815958390e-03 2.309086979375e-05 0.0 
2.309086979375e-05 9.107151826923e-03 0.0 
0.0 0.0 -1.325353038101e-03 
-1.331981550421e-03 -1.771381069916e-05 0.0 
-1.771381069916e-05 9.126640523195e-03 0.0 
0.0 0.0 -1.323783523096e-03 
-7.660500434482e-04 1.313542510446e-04 0.0 
1.313542510446e-04 5.035539676325e-03 0.0 
0.0 0.0 -7.673431308700e-04 
-1.235780327313e-03 -4.526587613016e-06 0.0 
-4.526587613016e-06 8.115023081303e-03 0.0 
0.0 0.0 -1.231867668451e-03 
-1.953177882174e-04 -9.491085164936e-05 0.0 
-9.491085164936e-05 1.122964739939e-03 0.0 
0.0 0.0 -2.324200178898e-04 
-1.257584227981e-03 1.660686322992e-04 0.0 
1.660686322992e-04 8.340961353616e-03 0.0 
0.0 0.0 -1.241575510934e-03 
-8.170589745739e-05 -1.080295024412e-05 0.0 
-1.080295024412e-05 2.725451190137e-04 0.0 
0.0 0.0 -8.178823780987e-05 
-1.306295822847e-03 -1.062422533950e-05 0.0 
-1.062422533950e-05 8.506048519693e-03 0.0 
0.0 0.0 -1.290713494763e-03 
-1.281136683791e-03 1.115018912951e-04 0.0 
1.115018912951e-04 8.702368548137e-03 0.0 
0.0 0.0 -1.268585396830e-03 
-8.090064620293e-05 -6.463780865650e-05 0.0 
-6.463780865650e-05 2.764343947342e-04 0.0 
0.0 0.0 -8.380017794198e-05 
-1.195471399734e-03 -1.402863971347e-04 0.0 
-1.402863971347e-04 7.949772117529e-03 0.0 
0.0 0.0 -1.178018281593e-03 
-1.028233004996e-03 -1.859683667160e-04 0.0 
-1.859683667160e-04 6.977936374389e-03 0.0 
0.0 0.0 -1.053859681778e-03 
-1.289487723471e-03 -3.059440868738e-05 0.0 
-3.059440868738e-05 8.509289695588e-03 0.0 
0.0 0.0 -1.289687241943e-03 
-1.346242744377e-03 -1.047219123710e-05 0.0 
-1.047219123710e-05 8.896960402449e-03 0.0 
0.0 0.0 -1.346242744377e-03 
-9.624911099008e-04 -2.997622866496e-04 0.0 
-2.997622866496e-04 6.376553401582e-03 0.0 
0.0 0.0 -9.627310317561e-04 
-1.292971171235e-03 1.345101664025e-05 0.0 
1.345101664025e-05 8.530939079912e-03 0.0 
0.0 0.0 -1.292510612804e-03 
-1.246115197789e-03 -1.533948492975e-04 0.0 
-1.533948492975e-04 8.325319025632e-03 0.0 
0.0 0.0 -1.236507170568e-03 
-1.007540401079e-03 8.825741490426e-06 0.0 
8.825741490426e-06 6.546914065101e-03 0.0 
0.0 0.0 -1.009625451247e-03 
-1.239682124839e-03 -1.433667225738e-05 0.0 
-1.433667225738e-05 8.247508066060e-03 0.0 
0.0 0.0 -1.247605899893e-03 
-5.439659078653e-04 -1.293203549736e-04 0.0 
-1.293203549736e-04 3.573225901759e-03 0.0 
0.0 0.0 -5.668522599723e-04 
-7.422257193806e-04 -2.384409417979e-05 0.0 
-2.384409417979e-05 4.553525172640e-03 0.0 
0.0 0.0 -7.287847301676e-04 
-1.250463763405e-03 1.444458806810e-04 0.0 
1.444458806810e-04 8.323970461278e-03 0.0 
0.0 0.0 -1.239219007812e-03 
-1.277932458032e-03 1.160268164509e-04 0.0 
1.160268164509e-04 8.651299276670e-03 0.0 
0.0 0.0 -1.286506427510e-03 
0.0 0.0 0.0 
0.0 0.0 0.0 
0.0 0.0 0.0 
-7.391696919876e-04 5.460045200464e-05 0.0 
5.460045200464e-05 4.572310123870e-03 0.0 
0.0 0.0 -7.284590636140e-04 
-1.282539678950e-03 -1.213229753820e-04 0.0 
-1.213229753820e-04 8.668193960288e-03 0.0 
0.0 0.0 -1.288082484959e-03 
-2.668000831652e-04 1.337975711292e-04 0.0 
1.337975711292e-04 1.552550494018e-03 0.0 
0.0 0.0 -2.765646858065e-04 
-1.244314668154e-03 3.253635918241e-05 0.0 
3.253635918241e-05 8.351662046828e-03 0.0 
0.0 0.0 -1.213252366005e-03 
-1.212806318798e-03 -1.378965673920e-04 0.0 
-1.378965673920e-04 8.296055804055e-03 0.0 
0.0 0.0 -1.225943235494e-03 
-1.276740815873e-03 -1.548809764644e-04 0.0 
-1.548809764644e-04 8.705204137735e-03 0.0 
0.0 0.0 -1.269037835114e-03 
-2.467774251027e-04 1.357300176722e-04 0.0 
1.357300176722e-04 1.515114324046e-03 0.0 
0.0 0.0 -2.647987373252e-04 
-1.846190942978e-04 5.164886539677e-05 0.0 
5.164886539677e-05 1.204409405256e-03 0.0 
0.0 0.0 -1.906575996298e-04 
-8.286327452832e-04 3.382951551478e-04 0.0 
3.382951551478e-04 5.239779904281e-03 0.0 
0.0 0.0 -7.939471195916e-04 
-1.139651880695e-03 8.042350541591e-05 0.0 
8.042350541591e-05 7.547907450212e-03 0.0 
0.0 0.0 -1.120841203304e-03 
6.762182202457e-06 4.922521689337e-06 0.0 
4.922521689337e-06 1.951722452606e-04 0.0 
0.0 0.0 -4.162563418682e-05 
-1.297631582513e-03 -2.970012333429e-05 0.0 
-2.970012333429e-05 8.538118962210e-03 0.0 
0.0 0.0 -1.292233508669e-03 
-9.496420787081e-04 3.842938930090e-05 0.0 
3.842938930090e-05 6.134769422349e-03 0.0 
0.0 0.0 -9.501928138396e-04 
-2.319252204202e-04 -1.666332425871e-04 0.0 
-1.666332425871e-04 1.531261602253e-03 0.0 
0.0 0.0 -2.601894661948e-04 
-9.182086126089e-04 6.576575429171e-05 0.0 
6.576575429171e-05 5.823601520570e-03 0.0 
0.0 0.0 -9.030544305944e-04 
-1.281338578084e-03 -1.215158440347e-04 0.0 
-1.215158440347e-04 8.719272788120e-03 0.0 
0.0 0.0 -1.271643562581e-03 
-8.361599263990e-04 -2.906502343770e-04 0.0 
-2.906502343770e-04 5.524370676589e-03 0.0 
0.0 0.0 -8.272804529250e-04 
-9.020963282830e-05 -1.875396024300e-04 0.0 
-1.875396024300e-04 3.251699178446e-04 0.0 
0.0 0.0 -8.776479312233e-05 
-5.428499226707e-04 1.403699556570e-04 0.0 
1.403699556570e-04 3.200704680556e-03 0.0 
0.0 0.0 -5.209635072927e-04 
-7.264103312116e-04 1.066181262773e-04 0.0 
1.066181262773e-04 4.783605203211e-03 0.0 
0.0 0.0 -7.319997505002e-04 
-8.379507721355e-04 3.506890823091e-04 0.0 
3.506890823091e-04 5.706153283525e-03 0.0 
0.0 0.0 -8.599999999992e-04 
-1.240777117315e-03 -1.439647034317e-04 0.0 
-1.439647034317e-04 8.329527072644e-03 0.0 
0.0 0.0 -1.232780192057e-03 
-7.376665261260e-04 -1.727241022976e-04 0.0 
-1.727241022976e-04 4.617911229220e-03 0.0 
0.0 0.0 -7.175509632692e-04 
-7.419227856638e-04 8.706574175028e-05 0.0 
8.706574175028e-05 4.905660942002e-03 0.0 
0.0 0.0 -7.596628988333e-04 
-1.725607618193e-04 1.274500514103e-04 0.0 
1.274500514103e-04 7.075820556251e-04 0.0 
0.0 0.0 -1.551230728613e-04 
-1.262496529076e-03 1.402132573887e-04 0.0 
1.402132573887e-04 8.306889500876e-03 0.0 
0.0 0.0 -1.240629869904e-03 
-1.209173557273e-03 1.621322078836e-04 0.0 
1.621322078836e-04 7.950506271258e-03 0.0 
0.0 0.0 -1.186362110037e-03 
-2.227791697187e-04 8.637930858019e-05 0.0 
8.637930858019e-05 1.298316331418e-03 0.0 
0.0 0.0 -2.411692657676e-04 
-1.261193436875e-03 -8.326695288074e-05 0.0 
-8.326695288074e-05 8.552285249105e-03 0.0 
0.0 0.0 -1.290349483557e-03 
-1.293807969811e-03 1.507292729990e-04 0.0 
1.507292729990e-04 8.596145003785e-03 0.0 
0.0 0.0 -1.290356026000e-03 
-7.679899519872e-04 -1.532356305283e-04 0.0 
-1.532356305283e-04 5.157074227234e-03 0.0 
0.0 0.0 -7.639788432047e-04 
-9.396515753231e-04 3.091234051292e-05 0.0 
3.091234051292e-05 6.333492038285e-03 0.0 
0.0 0.0 -9.358343396975e-04 
-7.048143922741e-04 1.638625948524e-04 0.0 
1.638625948524e-04 4.692848505541e-03 0.0 
0.0 0.0 -7.108516105536e-04 
-7.079275106751e-04 -1.102323501340e-04 0.0 
-1.102323501340e-04 4.802970885948e-03 0.0 
0.0 0.0 -7.343037059241e-04 
-7.780838486789e-04 -3.476295080762e-05 0.0 
-3.476295080762e-05 5.090202749114e-03 0.0 
0.0 0.0 -7.498489858827e-04 
-1.195445771267e-03 1.533301423154e-04 0.0 
1.533301423154e-04 7.905914704818e-03 0.0 
0.0 0.0 -1.180929064624e-03 
-2.101723265820e-04 1.264806835632e-04 0.0 
1.264806835632e-04 1.084941023669e-03 0.0 
0.0 0.0 -2.274637643159e-04 
-1.230210229403e-03 -1.391362873496e-04 0.0 
-1.391362873496e-04 8.342547987840e-03 0.0 
0.0 0.0 -1.217816617926e-03 
-8.387293036436e-04 7.281979356209e-05 0.0 
7.281979356209e-05 5.326094164637e-03 0.0 
0.0 0.0 -8.376728236383e-04 
-1.277193560845e-03 -1.460979146763e-04 0.0 
-1.460979146763e-04 8.720485292524e-03 0.0 
0.0 0.0 -1.272153791098e-03 
-1.202298967755e-03 -1.320050113914e-04 0.0 
-1.320050113914e-04 7.883588282290e-03 0.0 
0.0 0.0 -1.181257232468e-03 
-8.795673226242e-04 -5.945622150851e-05 0.0 
-5.945622150851e-05 6.031279173310e-03 0.0 
0.0 0.0 -8.902468719969e-04 
-1.211224544084e-03 1.194316264715e-04 0.0 
1.194316264715e-04 8.008237221313e-03 0.0 
0.0 0.0 -1.201032862555e-03 
-1.250364770317e-03 1.261810502707e-04 0.0 
1.261810502707e-04 8.225945087577e-03 0.0 
0.0 0.0 -1.236767197193e-03 
-1.292703020779e-03 -2.277677435028e-05 0.0 
-2.277677435028e-05 8.758650210356e-03 0.0 
0.0 0.0 -1.270271405117e-03 
-9.288790837527e-05 4.486310937793e-05 0.0 
4.486310937793e-05 3.125136257930e-04 0.0 
0.0 0.0 -9.412530746476e-05 
-1.213293100967e-03 -1.365137297491e-04 0.0 
-1.365137297491e-04 8.055302576551e-03 0.0 
0.0 0.0 -1.198686027802e-03 
-1.233489147260e-03 1.844031552690e-04 0.0 
1.844031552690e-04 8.360738709544e-03 0.0 
0.0 0.0 -1.227078865044e-03 
-1.296260318671e-04 -1.418501242847e-04 0.0 
-1.418501242847e-04 8.665050242929e-04 0.0 
0.0 0.0 -1.488313462956e-04 
-6.781230104505e-04 -1.171397059556e-04 0.0 
-1.171397059556e-04 4.366860208538e-03 0.0 
0.0 0.0 -6.841365946973e-04 
-7.630078233159e-05 -6.102099342087e-05 0.0 
-6.102099342087e-05 5.288528667040e-04 0.0 
0.0 0.0 -9.692352125104e-05 
-1.239413171189e-03 -1.038112219682e-04 0.0 
-1.038112219682e-04 8.427166424518e-03 0.0 
0.0 0.0 -1.230789928679e-03 
-1.081577854340e-05 -3.988030248605e-05 0.0 
-3.988030248605e-05 4.995572640757e-05 0.0 
0.0 0.0 -1.677426337036e-05 
-9.090282721770e-05 4.916572692049e-06 0.0 
4.916572692049e-06 3.335576004073e-04 0.0 
0.0 0.0 -4.888888888889e-05 
0.0 0.0 0.0 
0.0 0.0 0.0 
0.0 0.0 0.0 
-7.056929541872e-05 -1.350661996930e-05 0.0 
-1.350661996930e-05 3.267125800979e-04 0.0 
0.0 0.0 -4.888888888889e-05 
0.0 0.0 0.0 
0.0 0.0 0.0 
0.0 0.0 0.0 
-6.259530553011e-05 -9.031607126122e-06 0.0 
-9.031607126122e-06 3.261757660118e-04 0.0 
0.0 0.0 -4.888888888889e-05 
0.0 0.0 0.0 
0.0 0.0 0.0 
0.0 0.0 0.0 
-5.825354438017e-05 -5.311051935502e-06 0.0 
-5.311051935502e-06 3.259552087471e-04 0.0 
0.0 0.0 -4.888888888889e-05 
0.0 0.0 0.0 
0.0 0.0 0.0 
0.0 0.0 0.0 
-5.578553579911e-05 -3.286406806082e-06 0.0 
-3.286406806082e-06 3.257270599231e-04 0.0 
0.0 0.0 -4.888888888889e-05 
0.0 0.0 0.0 
0.0 0.0 0.0 
0.0 0.0 0.0 
-5.425148831774e-05 -2.253717480729e-06 0.0 
-2.253717480729e-06 3.254960534986e-04 0.0 
0.0 0.0 -4.888888888889e-05 
0.0 0.0 0.0 
0.0 0.0 0.0 
0.0 0.0 0.0 
-5.318289229696e-05 -1.756474446482e-06 0.0 
-1.756474446482e-06 3.252669068685e-04 0.0 
0.0 0.0 -4.888888888889e-05 
0.0 0.0 0.0 
0.0 0.0 0.0 
0.0 0.0 0.0 
-5.235434654695e-05 -1.524558216782e-06 0.0 
-1.524558216782e-06 3.250414102518e-04 0.0 
0.0 0.0 -4.888888888889e-05 
0.0 0.0 0.0 
0.0 0.0 0.0 
0.0 0.0 0.0 
-5.167167449251e-05 -1.386111639128e-06 0.0 
-1.386111639128e-06 3.248256130957e-04 0.0 
0.0 0.0 -4.888888888889e-05 
0.0 0.0 0.0 
0.0 0.0 0.0 
0.0 0.0 0.0 
-5.111813605731e-05 -1.224449483322e-06 0.0 
-1.224449483322e-06 3.246345225392e-04 0.0 
0.0 0.0 -4.888888888889e-05 
0.0 0.0 0.0 
0.0 0.0 0.0 
0.0 0.0 0.0 
-5.072385593120e-05 -9.681260110282e-07 0.0 
-9.681260110282e-07 3.244949495955e-04 0.0 
0.0 0.0 -4.888888888889e-05 
0.0 0.0 0.0 
0.0 0.0 0.0 
0.0 0.0 0.0 
-8.001520062385e-05 -4.836601968266e-05 0.0 
-4.836601968266e-05 2.524881633572e-04 0.0 
0.0 0.0 -5.824263038547e-05 
-5.053266032708e-05 -5.995722587118e-07 0.0 
-5.995722587118e-07 3.244329768677e-04 0.0 
0.0 0.0 -4.888888888889e-05 
0.0 0.0 0.0 
0.0 0.0 0.0 
0.0 0.0 0.0 
-5.057903540052e-05 -1.455251281166e-07 0.0 
-1.455251281166e-07 3.244672364555e-04 0.0 
0.0 0.0 -4.888888888889e-05 
1.820754582533e-05 1.078673489328e-04 0.0 
1.078673489328e-04 1.056655961022e-04 0.0 
0.0 0.0 -3.602040816325e-05 
0.0 0.0 0.0 
0.0 0.0 0.0 
0.0 0.0 0.0 
-5.086628449392e-05 3.421488417845e-07 0.0 
3.421488417845e-07 3.245927423008e-04 0.0 
0.0 0.0 -4.888888888889e-05 
0.0 0.0 0.0 
0.0 0.0 0.0 
0.0 0.0 0.0 
0.0 0.0 0.0 
0.0 0.0 0.0 
0.0 0.0 0.0 
-5.139507899733e-05 8.055312007277e-07 0.0 
8.055312007277e-07 3.248282545387e-04 0.0 
0.0 0.0 -4.888888888889e-05 
0.0 0.0 0.0 
0.0 0.0 0.0 
0.0 0.0 0.0 
-5.208245993328e-05 1.159910574615e-06 0.0 
1.159910574615e-06 3.251075059514e-04 0.0 
0.0 0.0 -4.888888888889e-05 
0.0 0.0 0.0 
0.0 0.0 0.0 
0.0 0.0 0.0 
-5.292806157088e-05 1.340883125372e-06 0.0 
1.340883125372e-06 3.255163029534e-04 0.0 
0.0 0.0 -4.888888888889e-05 
0.0 0.0 0.0 
0.0 0.0 0.0 
0.0 0.0 0.0 
-5.363553477290e-05 1.260949109583e-06 0.0 
1.260949109583e-06 3.257532906078e-04 0.0 
0.0 0.0 -4.888888888889e-05 
0.0 0.0 0.0 
0.0 0.0 0.0 
0.0 0.0 0.0 
2.494835008759e-05 3.628081657807e-05 0.0 
3.628081657807e-05 1.080805690331e-04 0.0 
0.0 0.0 -5.701239390885e-05 
-5.450081588810e-05 8.349227538722e-07 0.0 
8.349227538722e-07 3.263964680773e-04 0.0 
0.0 0.0 -4.888888888889e-05 
0.0 0.0 0.0 
0.0 0.0 0.0 
0.0 0.0 0.0 
-5.435950507028e-05 1.088386304393e-07 0.0 
1.088386304393e-07 3.259528345216e-04 0.0 
0.0 0.0 -4.888888888889e-05 
0.0 0.0 0.0 
0.0 0.0 0.0 
0.0 0.0 0.0 
-5.503970504884e-05 -7.466190093287e-07 0.0 
-7.466190093287e-07 3.270481084301e-04 0.0 
0.0 0.0 -4.888888888889e-05 
-5.260925491036e-05 -8.105320354358e-08 0.0 
-8.105320354358e-08 3.237416937045e-04 0.0 
0.0 0.0 -4.888888888889e-05 
0.0 0.0 0.0 
0.0 0.0 0.0 
0.0 0.0 0.0 
-5.637536208215e-05 9.457396220829e-07 0.0 
9.457396220829e-07 3.284189207946e-04 0.0 
0.0 0.0 -4.888888888889e-05 
0.0 0.0 0.0 
0.0 0.0 0.0 
0.0 0.0 0.0 
-5.158149520747e-05 6.553881921649e-06 0.0 
6.553881921649e-06 3.192870157957e-04 0.0 
0.0 0.0 -4.888888888889e-05 
0.0 0.0 0.0 
0.0 0.0 0.0 
0.0 0.0 0.0 
-6.837118608584e-05 6.065953485108e-06 0.0 
6.065953485108e-06 3.380427772528e-04 0.0 
0.0 0.0 -4.888888888889e-05 
0.0 0.0 0.0 
0.0 0.0 0.0 
0.0 0.0 0.0 
-4.876361754448e-05 3.350881084065e-05 0.0 
3.350881084065e-05 2.992501298089e-04 0.0 
0.0 0.0 -4.888888888889e-05 
-1.037151161337e-04 3.571435359090e-05 0.0 
3.571435359090e-05 3.585052327653e-04 0.0 
0.0 0.0 -4.888888888889e-05 
0.0 0.0 0.0 
0.0 0.0 0.0 
0.0 0.0 0.0 
0.0 0.0 0.0 
0.0 0.0 0.0 
0.0 0.0 0.0 
0.0 0.0 0.0 
0.0 0.0 0.0 
0.0 0.0 0.0 
5.847508552834e-05 -2.390823489822e-04 0.0 
-2.390823489822e-04 7.042219592448e-05 0.0 
0.0 0.0 -5.524169205121e-05 
-4.825479309335e-05 2.850916257358e-04 0.0 
2.850916257358e-04 2.541515778360e-04 0.0 
0.0 0.0 -6.411853739748e-05 
4.162049568037e-05 -8.626872958141e-05 0.0 
-8.626872958141e-05 9.559331118043e-05 0.0 
0.0 0.0 -3.777777777778e-05 
-5.450689721937e-05 2.193798214874e-05 0.0 
2.193798214874e-05 1.828698356692e-04 0.0 
0.0 0.0 -5.501268790706e-05 
3.257336092276e-05 -1.962813918905e-05 0.0 
-1.962813918905e-05 -8.204696355052e-06 0.0 
0.0 0.0 -1.044371338616e-05 
-1.163165790258e-04 -5.535391127633e-05 0.0 
-5.535391127633e-05 6.058101155025e-04 0.0 
0.0 0.0 -1.155555555556e-04 
-1.147304662290e-04 5.739859028914e-05 0.0 
5.739859028914e-05 3.862584911479e-04 0.0 
0.0 0.0 -1.163691535367e-04 
-1.196335348363e-04 -1.953089164396e-05 0.0 
-1.953089164396e-05 7.176961292327e-04 0.0 
0.0 0.0 -1.155555555556e-04 
-1.205305112011e-04 -4.777812308168e-06 0.0 
-4.777812308168e-06 4.017938639427e-04 0.0 
0.0 0.0 -1.205414368893e-04 
-1.207807947968e-04 -1.417363475680e-05 0.0 
-1.417363475680e-05 7.281142715424e-04 0.0 
0.0 0.0 -1.155555555556e-04 
-1.212331770457e-04 -8.252106092019e-06 0.0 
-8.252106092019e-06 4.041861887160e-04 0.0 
0.0 0.0 -1.212655764301e-04 
-1.211874638618e-04 -1.100446847805e-05 0.0 
-1.100446847805e-05 7.304705677585e-04 0.0 
0.0 0.0 -1.155555555556e-04 
-1.215104164839e-04 -7.140534460634e-06 0.0 
-7.140534460634e-06 4.050911991935e-04 0.0 
0.0 0.0 -1.215346211613e-04 
-1.209179158773e-04 -8.256103543141e-06 0.0 
-8.256103543141e-06 7.315408454839e-04 0.0 
0.0 0.0 -1.155555555556e-04 
-1.216516385185e-04 -5.790570398826e-06 0.0 
-5.790570398826e-06 4.055425618868e-04 0.0 
0.0 0.0 -1.216675385864e-04 
-1.204244698260e-04 -6.234807908777e-06 0.0 
-6.234807908777e-06 7.320568574899e-04 0.0 
0.0 0.0 -1.155555555556e-04 
-1.217238296697e-04 -4.751682009632e-06 0.0 
-4.751682009632e-06 4.057710669395e-04 0.0 
0.0 0.0 -1.217345302585e-04 
-1.198951146105e-04 -4.857287546005e-06 0.0 
-4.857287546005e-06 7.322620416536e-04 0.0 
0.0 0.0 -1.155555555556e-04 
-1.217577799867e-04 -4.021860963527e-06 0.0 
-4.021860963527e-06 4.058771492385e-04 0.0 
0.0 0.0 -1.217654439650e-04 
-1.193936043871e-04 -3.898778821136e-06 0.0 
-3.898778821136e-06 7.322841885341e-04 0.0 
0.0 0.0 -1.155555555556e-04 
-1.217697654130e-04 -3.470612820860e-06 0.0 
-3.470612820860e-06 4.059125333725e-04 0.0 
0.0 0.0 -1.217754719826e-04 
-1.189433354478e-04 -3.134624466828e-06 0.0 
-3.134624466828e-06 7.321961356287e-04 0.0 
0.0 0.0 -1.155555555556e-04 
-1.217694796768e-04 -2.946031723931e-06 0.0 
-2.946031723931e-06 4.059078600331e-04 0.0 
0.0 0.0 -1.217735915813e-04 
-1.185617619817e-04 -2.383492920831e-06 0.0 
-2.383492920831e-06 7.320453515044e-04 0.0 
0.0 0.0 -1.155555555556e-04 
-1.217641244559e-04 -2.312807949239e-06 0.0 
-2.312807949239e-06 4.058863283931e-04 0.0 
0.0 0.0 -1.217666588302e-04 
-1.182723314473e-04 -1.523982667330e-06 0.0 
-1.523982667330e-06 7.318729926417e-04 0.0 
0.0 0.0 -1.155555555556e-04 
-1.217608219071e-04 -1.477943900216e-06 0.0 
-1.477943900216e-06 4.058718212628e-04 0.0 
0.0 0.0 -1.217618568667e-04 
-1.899278510152e-04 -1.384898998928e-04 0.0 
-1.384898998928e-04 7.166445077542e-04 0.0 
0.0 0.0 -1.248173183369e-04 
-1.181060300645e-04 -5.207644900673e-07 0.0 
-5.207644900673e-07 7.317305723796e-04 0.0 
0.0 0.0 -1.155555555556e-04 
-1.217630147493e-04 -4.493117032420e-07 0.0 
-4.493117032420e-07 4.058769390209e-04 0.0 
0.0 0.0 -1.217631104021e-04 
-1.180894747216e-04 5.734619188931e-07 0.0 
5.734619188931e-07 7.316681389312e-04 0.0 
0.0 0.0 -1.155555555556e-04 
-8.811535890983e-05 2.435426451367e-05 0.0 
2.435426451367e-05 4.345192874910e-04 0.0 
0.0 0.0 -1.377777777778e-04 
-1.217725698879e-04 6.820122514011e-07 0.0 
6.820122514011e-07 4.059090804892e-04 0.0 
0.0 0.0 -1.217727902577e-04 
-1.182343596377e-04 1.655934158335e-06 0.0 
1.655934158335e-06 7.317125982890e-04 0.0 
0.0 0.0 -1.155555555556e-04 
-1.217845642684e-04 1.769899297483e-06 0.0 
1.769899297483e-06 4.059520101069e-04 0.0 
0.0 0.0 -1.217860482165e-04 
-1.185289839573e-04 2.621766567265e-06 0.0 
2.621766567265e-06 7.318595664517e-04 0.0 
0.0 0.0 -1.155555555556e-04 
-1.218092870314e-04 2.753818409724e-06 0.0 
2.753818409724e-06 4.060393373700e-04 0.0 
0.0 0.0 -1.218128787166e-04 
-7.931432944909e-05 3.967892097379e-05 0.0 
3.967892097379e-05 5.274051709906e-04 0.0 
0.0 0.0 -1.025950961147e-04 
-1.189585968247e-04 3.335016750175e-06 0.0 
3.335016750175e-06 7.321265165480e-04 0.0 
0.0 0.0 -1.155555555556e-04 
-1.218243738475e-04 3.376049135273e-06 0.0 
3.376049135273e-06 4.060938401448e-04 0.0 
0.0 0.0 -1.218297712703e-04 
-1.194647510965e-04 3.730184117943e-06 0.0 
3.730184117943e-06 7.324454976435e-04 0.0 
0.0 0.0 -1.155555555556e-04 
-1.218759485998e-04 3.811699527241e-06 0.0 
3.811699527241e-06 4.062692090472e-04 0.0 
0.0 0.0 -1.218828259061e-04 
-1.200379280099e-04 3.627642801087e-06 0.0 
3.627642801087e-06 7.329115759650e-04 0.0 
0.0 0.0 -1.155555555556e-04 
-1.218590469522e-04 3.342570990521e-06 0.0 
3.342570990521e-06 4.062091651217e-04 0.0 
0.0 0.0 -1.218643363583e-04 
-1.205235058838e-04 3.291637635522e-06 0.0 
3.291637635522e-06 7.331414244839e-04 0.0 
0.0 0.0 -1.155555555556e-04 
-1.220007574647e-04 3.513594781255e-06 0.0 
3.513594781255e-06 4.066828128796e-04 0.0 
0.0 0.0 -1.220065951778e-04 
-1.211096609456e-04 1.946116034183e-06 0.0 
1.946116034183e-06 7.340537212407e-04 0.0 
0.0 0.0 -1.155555555556e-04 
-1.217828195261e-04 5.239444118994e-07 0.0 
5.239444118994e-07 4.059430351978e-04 0.0 
0.0 0.0 -1.217829495736e-04 
-1.211617159292e-04 1.312832598678e-06 0.0 
1.312832598678e-06 7.332522338664e-04 0.0 
0.0 0.0 -1.155555555556e-04 
-1.221557662324e-04 2.433317877533e-06 0.0 
2.433317877533e-06 4.071924122950e-04 0.0 
0.0 0.0 -1.221585625982e-04 
-7.157004417271e-05 2.440920415409e-05 0.0 
2.440920415409e-05 6.005966514103e-04 0.0 
0.0 0.0 -1.359284294480e-04 
-1.210695289909e-04 -6.024321786376e-06 0.0 
-6.024321786376e-06 4.036054452348e-04 0.0 
0.0 0.0 -1.210868212474e-04 
-1.216903429234e-04 -1.021831400192e-06 0.0 
-1.021831400192e-06 7.352402537036e-04 0.0 
0.0 0.0 -1.155555555556e-04 
-1.225780609744e-04 1.265449571202e-05 0.0 
1.265449571202e-05 4.087693153307e-04 0.0 
0.0 0.0 -1.226533947241e-04 
-1.202889817033e-04 3.390780093785e-06 0.0 
3.390780093785e-06 7.285463828138e-04 0.0 
0.0 0.0 -1.155555555556e-04 
-1.193794040888e-04 -1.402503804170e-05 0.0 
-1.402503804170e-05 3.981530173159e-04 0.0 
0.0 0.0 -1.194744056688e-04 
-1.223091885832e-04 1.251834010648e-06 0.0 
1.251834010648e-06 7.384817288426e-04 0.0 
0.0 0.0 -1.155555555556e-04 
-1.041475962467e-04 5.197146125055e-05 0.0 
5.197146125055e-05 4.119209155643e-04 0.0 
0.0 0.0 -1.319028511361e-04 
-1.177281423705e-04 1.538114546959e-05 0.0 
1.538114546959e-05 7.160415873556e-04 0.0 
0.0 0.0 -1.155555555556e-04 
-1.243733405417e-04 7.790916077359e-06 0.0 
7.790916077359e-06 7.534837206636e-04 0.0 
0.0 0.0 -1.155555555556e-04 
-3.016377584951e-05 -1.704981565730e-05 0.0 
-1.704981565730e-05 2.893792250349e-04 0.0 
0.0 0.0 -1.110923353652e-04 
-1.782388165086e-04 -3.606650234887e-04 0.0 
-3.606650234887e-04 6.347658371153e-04 0.0 
0.0 0.0 -1.266666666667e-04 
-7.142215024098e-05 3.577257960857e-04 0.0 
3.577257960857e-04 4.431158475311e-04 0.0 
0.0 0.0 -1.266666666667e-04 
-1.545895023734e-04 -3.741748507265e-05 0.0 
-3.741748507265e-05 5.970256357480e-04 0.0 
0.0 0.0 -1.488888888889e-04 
-9.400225157095e-05 4.354902154608e-05 0.0 
4.354902154608e-05 4.887377590563e-04 0.0 
0.0 0.0 -1.044444444444e-04 
-6.045263009267e-05 -3.570779613511e-05 0.0 
-3.570779613511e-05 4.372544778428e-04 0.0 
0.0 0.0 -1.044444444444e-04 
-2.076833249592e-04 -6.261843209975e-05 0.0 
-6.261843209975e-05 1.013831239598e-03 0.0 
0.0 0.0 -2.044444444444e-04 
-1.788038948926e-04 6.821749752289e-05 0.0 
6.821749752289e-05 1.192983609349e-03 0.0 
0.0 0.0 -1.822222222222e-04 
-2.036211527419e-04 -8.795319444114e-06 0.0 
-8.795319444114e-06 8.789143056272e-04 0.0 
0.0 0.0 -2.044444444444e-04 
-1.820956293793e-04 -2.195051890332e-06 0.0 
-2.195051890332e-06 1.184424563275e-03 0.0 
0.0 0.0 -1.822222222222e-04 
-2.045486756204e-04 -7.807516697192e-06 0.0 
-7.807516697192e-06 8.729904243925e-04 0.0 
0.0 0.0 -2.044444444444e-04 
-1.841733700579e-04 -7.537747569759e-06 0.0 
-7.537747569759e-06 1.185426221984e-03 0.0 
0.0 0.0 -1.822222222222e-04 
-2.058594228788e-04 -7.550202909698e-06 0.0 
-7.550202909698e-06 8.743109801695e-04 0.0 
0.0 0.0 -2.044444444444e-04 
-1.853348330819e-04 -7.350174181167e-06 0.0 
-7.350174181167e-06 1.186628156301e-03 0.0 
0.0 0.0 -1.822222222222e-04 
-2.068393165181e-04 -6.697133277738e-06 0.0 
-6.697133277738e-06 8.755732016861e-04 0.0 
0.0 0.0 -2.044444444444e-04 
-1.858838971389e-04 -6.445792054719e-06 0.0 
-6.445792054719e-06 1.187453301928e-03 0.0 
0.0 0.0 -1.822222222222e-04 
-2.074524879553e-04 -5.819543027177e-06 0.0 
-5.819543027177e-06 8.764057481272e-04 0.0 
0.0 0.0 -2.044444444444e-04 
-1.860548693828e-04 -5.585496093302e-06 0.0 
-5.585496093302e-06 1.187931856489e-03 0.0 
0.0 0.0 -1.822222222222e-04 
-2.077636738075e-04 -5.093561323668e-06 0.0 
-5.093561323668e-06 8.768776635671e-04 0.0 
0.0 0.0 -2.044444444444e-04 
-1.860044368873e-04 -4.886543789399e-06 0.0 
-4.886543789399e-06 1.188145092514e-03 0.0 
0.0 0.0 -1.822222222222e-04 
-2.078577458117e-04 -4.480498197547e-06 0.0 
-4.480498197547e-06 8.770877182794e-04 0.0 
0.0 0.0 -2.044444444444e-04 
-1.858320846713e-04 -4.277973624153e-06 0.0 
-4.277973624153e-06 1.188165765964e-03 0.0 
0.0 0.0 -1.822222222222e-04 
-2.078139092917e-04 -3.870510444148e-06 0.0 
-3.870510444148e-06 8.771179760665e-04 0.0 
0.0 0.0 -2.044444444444e-04 
-1.856014454919e-04 -3.640014698847e-06 0.0 
-3.640014698847e-06 1.188049283609e-03 0.0 
0.0 0.0 -1.822222222222e-04 
-2.076862457224e-04 -3.142098901856e-06 0.0 
-3.142098901856e-06 8.770288433611e-04 0.0 
0.0 0.0 -2.044444444444e-04 
-1.853579012658e-04 -2.851868720225e-06 0.0 
-2.851868720225e-06 1.187845145957e-03 0.0 
0.0 0.0 -1.822222222222e-04 
-2.444748351667e-04 -1.415311215118e-04 0.0 
-1.415311215118e-04 1.178487621581e-03 0.0 
0.0 0.0 -1.915759637188e-04 
-2.075168212954e-04 -2.182083211282e-06 0.0 
-2.182083211282e-06 8.768728875630e-04 0.0 
0.0 0.0 -2.044444444444e-04 
-1.851458194563e-04 -1.819614798031e-06 0.0 
-1.819614798031e-06 1.187617141541e-03 0.0 
0.0 0.0 -1.822222222222e-04 
-2.073501627497e-04 -9.052203272063e-07 0.0 
-9.052203272063e-07 8.767160924066e-04 0.0 
0.0 0.0 -2.044444444444e-04 
-1.339610819730e-04 1.966350633149e-05 0.0 
1.966350633149e-05 9.907719895893e-04 0.0 
0.0 0.0 -1.693537414966e-04 
-1.850281559792e-04 -5.200180634800e-07 0.0 
-5.200180634800e-07 1.187482173011e-03 0.0 
0.0 0.0 -1.822222222222e-04 
-2.072939918564e-04 5.575866343823e-07 0.0 
5.575866343823e-07 8.766431889280e-04 0.0 
0.0 0.0 -2.044444444444e-04 
-1.505715545267e-04 3.044165367736e-05 0.0 
3.044165367736e-05 8.856495634862e-04 0.0 
0.0 0.0 -2.044444444444e-04 
-1.850367453881e-04 9.210024021461e-07 0.0 
9.210024021461e-07 1.187470023202e-03 0.0 
0.0 0.0 -1.822222222222e-04 
-2.073890149641e-04 2.116809298554e-06 0.0 
2.116809298554e-06 8.766902866105e-04 0.0 
0.0 0.0 -2.044444444444e-04 
-1.852099941938e-04 2.336749023525e-06 0.0 
2.336749023525e-06 1.187666774481e-03 0.0 
0.0 0.0 -1.822222222222e-04 
-2.076810916939e-04 3.335713578613e-06 0.0 
3.335713578613e-06 8.768645351485e-04 0.0 
0.0 0.0 -2.044444444444e-04 
-1.854635630655e-04 3.514781955042e-06 0.0 
3.514781955042e-06 1.187853925438e-03 0.0 
0.0 0.0 -1.822222222222e-04 
-2.079452960058e-04 4.648234682695e-06 0.0 
4.648234682695e-06 8.771161380739e-04 0.0 
0.0 0.0 -2.044444444444e-04 
-1.859320449512e-04 4.414553934975e-06 0.0 
4.414553934975e-06 1.188479205043e-03 0.0 
0.0 0.0 -1.822222222222e-04 
-2.085190829059e-04 4.667858397105e-06 0.0 
4.667858397105e-06 8.774898960371e-04 0.0 
0.0 0.0 -2.044444444444e-04 
-1.862446482625e-04 4.747691180170e-06 0.0 
4.747691180170e-06 1.188526487208e-03 0.0 
0.0 0.0 -1.822222222222e-04 
-1.389325106329e-04 3.461508263837e-05 0.0 
3.461508263837e-05 1.067736357210e-03 0.0 
0.0 0.0 -2.026870748299e-04 
-2.085464325804e-04 5.909668308108e-06 0.0 
5.909668308108e-06 8.778271322765e-04 0.0 
0.0 0.0 -2.044444444444e-04 
-1.870580972560e-04 4.787974066385e-06 0.0 
4.787974066385e-06 1.189945650988e-03 0.0 
0.0 0.0 -1.822222222222e-04 
-2.097815610239e-04 3.117797332926e-06 0.0 
3.117797332926e-06 8.782912017054e-04 0.0 
0.0 0.0 -2.044444444444e-04 
-1.869237689829e-04 4.175428382134e-06 0.0 
4.175428382134e-06 1.188510773778e-03 0.0 
0.0 0.0 -1.822222222222e-04 
-1.890284834827e-04 3.535949403535e-06 0.0 
3.535949403535e-06 1.193304622288e-03 0.0 
0.0 0.0 -1.822222222222e-04 
-2.083396495894e-04 7.741317513289e-06 0.0 
7.741317513289e-06 8.786518771822e-04 0.0 
0.0 0.0 -2.044444444444e-04 
-1.867625953124e-04 1.755853249957e-06 0.0 
1.755853249957e-06 1.185463241573e-03 0.0 
0.0 0.0 -1.822222222222e-04 
-2.135746483668e-04 -4.335111839701e-06 0.0 
-4.335111839701e-06 8.793938291634e-04 0.0 
0.0 0.0 -2.044444444444e-04 
-1.922187238870e-04 1.023095141202e-06 0.0 
1.023095141202e-06 1.199903184922e-03 0.0 
0.0 0.0 -1.822222222222e-04 
-2.052736421826e-04 1.383244218507e-05 0.0 
1.383244218507e-05 8.787971781211e-04 0.0 
0.0 0.0 -2.044444444444e-04 
-1.802133250476e-04 3.924967754967e-06 0.0 
3.924967754967e-06 1.165314696522e-03 0.0 
0.0 0.0 -1.822222222222e-04 
-1.986941288462e-04 2.367078184603e-05 0.0 
2.367078184603e-05 1.209764877429e-03 0.0 
0.0 0.0 -1.822222222222e-04 
-2.231794467689e-04 -2.826106615184e-05 0.0 
-2.826106615184e-05 8.775490301507e-04 0.0 
0.0 0.0 -2.044444444444e-04 
-1.646167100238e-04 5.243840066912e-05 0.0 
5.243840066912e-05 8.685383169281e-04 0.0 
0.0 0.0 -2.044444444444e-04 
-9.622432114965e-05 -2.610795107878e-05 0.0 
-2.610795107878e-05 7.743099524498e-04 0.0 
0.0 0.0 -1.804648526077e-04 
-1.473961787464e-04 -3.617240673058e-04 0.0 
-3.617240673058e-04 9.960919475066e-04 0.0 
0.0 0.0 -1.933333333333e-04 
-2.486763298369e-04 3.643384939900e-04 0.0 
3.643384939900e-04 1.177616774540e-03 0.0 
0.0 0.0 -1.933333333333e-04 
-1.768117245956e-04 -3.185339880178e-05 0.0 
-3.185339880178e-05 1.033346853690e-03 0.0 
0.0 0.0 -1.711111111111e-04 
-2.202341640465e-04 4.418305408562e-05 0.0 
4.418305408562e-05 1.131769773418e-03 0.0 
0.0 0.0 -2.155555555556e-04 
-1.214486922432e-04 -5.473925600928e-06 0.0 
-5.473925600928e-06 9.035898488109e-04 0.0 
0.0 0.0 -1.711111111111e-04 
-2.521277694037e-04 -6.446284034674e-05 0.0 
-6.446284034674e-05 1.534392840313e-03 0.0 
0.0 0.0 -2.488888888889e-04 
-2.728327989193e-04 5.819881722132e-05 0.0 
5.819881722132e-05 1.339822900769e-03 0.0 
0.0 0.0 -2.711111111111e-04 
-2.480655971863e-04 -2.777801925699e-06 0.0 
-2.777801925699e-06 1.653275501699e-03 0.0 
0.0 0.0 -2.488888888889e-04 
-2.715469034664e-04 1.274942756413e-06 0.0 
1.274942756413e-06 1.347101318943e-03 0.0 
0.0 0.0 -2.711111111111e-04 
-2.489931200648e-04 -3.638760225734e-06 0.0 
-3.638760225734e-06 1.658494809349e-03 0.0 
0.0 0.0 -2.488888888889e-04 
-2.716460378005e-04 -3.480677046255e-06 0.0 
-3.480677046255e-06 1.347896604332e-03 0.0 
0.0 0.0 -2.711111111111e-04 
-2.503038673232e-04 -5.457405187188e-06 0.0 
-5.457405187188e-06 1.659164978861e-03 0.0 
0.0 0.0 -2.488888888889e-04 
-2.723056335147e-04 -4.500785648077e-06 0.0 
-4.500785648077e-06 1.348738405761e-03 0.0 
0.0 0.0 -2.711111111111e-04 
-2.512837609625e-04 -5.893070865546e-06 0.0 
-5.893070865546e-06 1.659994488358e-03 0.0 
0.0 0.0 -2.488888888889e-04 
-2.730658014986e-04 -4.757317490025e-06 0.0 
-4.757317490025e-06 1.349543620452e-03 0.0 
0.0 0.0 -2.711111111111e-04 
-2.518969323997e-04 -5.700600670993e-06 0.0 
-5.700600670993e-06 1.660777595862e-03 0.0 
0.0 0.0 -2.488888888889e-04 
-2.736940159659e-04 -4.789124913958e-06 0.0 
-4.789124913958e-06 1.350136879534e-03 0.0 
0.0 0.0 -2.711111111111e-04 
-2.522081182519e-04 -5.290303154696e-06 0.0 
-5.290303154696e-06 1.661328800105e-03 0.0 
0.0 0.0 -2.488888888889e-04 
-2.740879120576e-04 -4.696420828638e-06 0.0 
-4.696420828638e-06 1.350475034167e-03 0.0 
0.0 0.0 -2.711111111111e-04 
-2.523021902561e-04 -4.768851682041e-06 0.0 
-4.768851682041e-06 1.661607619857e-03 0.0 
0.0 0.0 -2.488888888889e-04 
-2.742860114604e-04 -4.450678829233e-06 0.0 
-4.450678829233e-06 1.350596594181e-03 0.0 
0.0 0.0 -2.711111111111e-04 
-2.522583537361e-04 -4.132198172627e-06 0.0 
-4.132198172627e-06 1.661658411941e-03 0.0 
0.0 0.0 -2.488888888889e-04 
-2.743377094271e-04 -4.015824398562e-06 0.0 
-4.015824398562e-06 1.350548093641e-03 0.0 
0.0 0.0 -2.711111111111e-04 
-2.521306901669e-04 -3.319779894205e-06 0.0 
-3.319779894205e-06 1.661525912280e-03 0.0 
0.0 0.0 -2.488888888889e-04 
-3.080779607716e-04 -1.475015598075e-04 0.0 
-1.475015598075e-04 1.635244379832e-03 0.0 
0.0 0.0 -2.581395122151e-04 
-2.742946236910e-04 -3.315280578534e-06 0.0 
-3.315280578534e-06 1.350382112278e-03 0.0 
0.0 0.0 -2.711111111111e-04 
-2.519612657398e-04 -2.267032836284e-06 0.0 
-2.267032836284e-06 1.661266505515e-03 0.0 
0.0 0.0 -2.488888888889e-04 
-2.741581536561e-04 -2.253353674045e-06 0.0 
-2.253353674045e-06 1.350150926122e-03 0.0 
0.0 0.0 -2.711111111111e-04 
-2.202457828127e-04 1.389746075053e-05 0.0 
1.389746075053e-05 1.357677145761e-03 0.0 
0.0 0.0 -2.711111111111e-04 
-2.517946071942e-04 -8.929753581381e-07 0.0 
-8.929753581381e-07 1.660940577633e-03 0.0 
0.0 0.0 -2.488888888889e-04 
-2.739189039234e-04 -6.352722421678e-07 0.0 
-6.352722421678e-07 1.349967660769e-03 0.0 
0.0 0.0 -2.711111111111e-04 
-2.517384363008e-04 7.394561981538e-07 0.0 
7.394561981538e-07 1.660737699433e-03 0.0 
0.0 0.0 -2.488888888889e-04 
-2.739337964166e-04 1.221197274564e-06 0.0 
1.221197274564e-06 1.349964284877e-03 0.0 
0.0 0.0 -2.711111111111e-04 
-2.518334594085e-04 2.411731503521e-06 0.0 
2.411731503521e-06 1.660763702417e-03 0.0 
0.0 0.0 -2.488888888889e-04 
-1.960895555722e-04 2.819449329859e-05 0.0 
2.819449329859e-05 1.449525980771e-03 0.0 
0.0 0.0 -2.359172899929e-04 
-2.740223529325e-04 3.169941513043e-06 0.0 
3.169941513043e-06 1.350175213004e-03 0.0 
0.0 0.0 -2.711111111111e-04 
-2.521255361383e-04 3.789268835446e-06 0.0 
3.789268835446e-06 1.661134749008e-03 0.0 
0.0 0.0 -2.488888888889e-04 
-2.747394659981e-04 4.250533792761e-06 0.0 
4.250533792761e-06 1.350530716705e-03 0.0 
0.0 0.0 -2.711111111111e-04 
-2.523897404502e-04 4.867975976982e-06 0.0 
4.867975976982e-06 1.661439774285e-03 0.0 
0.0 0.0 -2.488888888889e-04 
-2.744430783500e-04 5.964660527608e-06 0.0 
5.964660527608e-06 1.350990306142e-03 0.0 
0.0 0.0 -2.711111111111e-04 
-2.529635273503e-04 5.222681203829e-06 0.0 
5.222681203829e-06 1.662423363150e-03 0.0 
0.0 0.0 -2.488888888889e-04 
-2.760690211444e-04 4.823894415256e-06 0.0 
4.823894415256e-06 1.351429118495e-03 0.0 
0.0 0.0 -2.711111111111e-04 
-2.529908770248e-04 5.652366354121e-06 0.0 
5.652366354121e-06 1.662150892169e-03 0.0 
0.0 0.0 -2.488888888889e-04 
-2.736516486221e-04 8.080140684546e-06 0.0 
8.080140684546e-06 1.351951630548e-03 0.0 
0.0 0.0 -2.711111111111e-04 
-2.542260054684e-04 4.590652968587e-06 0.0 
4.590652968587e-06 1.664711106639e-03 0.0 
0.0 0.0 -2.488888888889e-04 
-2.786325066483e-04 5.172759371913e-07 0.0 
5.172759371913e-07 1.351920484534e-03 0.0 
0.0 0.0 -2.711111111111e-04 
-2.039484749468e-04 4.240355346084e-05 0.0 
4.240355346084e-05 1.529639228524e-03 0.0 
0.0 0.0 -2.692506233262e-04 
-2.686073439389e-04 1.740565458011e-05 0.0 
1.740565458011e-05 1.353255056419e-03 0.0 
0.0 0.0 -2.711111111111e-04 
-2.527840940339e-04 6.556301368232e-06 0.0 
6.556301368232e-06 1.660172474859e-03 0.0 
0.0 0.0 -2.488888888889e-04 
-2.885766075313e-04 -1.897435447569e-05 0.0 
-1.897435447569e-05 1.351855420541e-03 0.0 
0.0 0.0 -2.711111111111e-04 
-2.580190928112e-04 2.196056460017e-06 0.0 
2.196056460017e-06 1.672405909541e-03 0.0 
0.0 0.0 -2.488888888889e-04 
-2.354569360816e-04 5.009177763054e-05 0.0 
5.009177763054e-05 1.348029008299e-03 0.0 
0.0 0.0 -2.711111111111e-04 
-2.497180866270e-04 9.594220509731e-06 0.0 
9.594220509731e-06 1.647902027827e-03 0.0 
0.0 0.0 -2.488888888889e-04 
-2.676238912133e-04 1.065653122438e-05 0.0 
1.065653122438e-05 1.687223118492e-03 0.0 
0.0 0.0 -2.488888888889e-04 
-1.604370229811e-04 -8.834470754811e-06 0.0 
-8.834470754811e-06 1.235903269871e-03 0.0 
0.0 0.0 -2.470284011040e-04 
-3.182184165148e-04 -3.658444227264e-04 0.0 
-3.658444227264e-04 1.559382054094e-03 0.0 
0.0 0.0 -2.600000000000e-04 
-2.129354412600e-04 3.593199102676e-04 0.0 
3.593199102676e-04 1.370669013137e-03 0.0 
0.0 0.0 -2.600000000000e-04 
-2.876678598137e-04 -3.799013677227e-05 0.0 
-3.799013677227e-05 1.519057765608e-03 0.0 
0.0 0.0 -2.822222222222e-04 
-2.424563862687e-04 4.131524077327e-05 0.0 
4.131524077327e-05 1.419663110366e-03 0.0 
0.0 0.0 -2.377777777778e-04 
-1.839048878600e-04 -4.966859083090e-06 0.0 
-4.966859083090e-06 1.370596563687e-03 0.0 
0.0 0.0 -2.377777777778e-04 
-3.410025939663e-04 -7.109134268580e-05 0.0 
-7.109134268580e-05 1.939357491602e-03 0.0 
0.0 0.0 -3.377777777778e-04 
-3.172772433638e-04 5.789359071666e-05 0.0 
5.789359071666e-05 2.125716446876e-03 0.0 
0.0 0.0 -3.155555555556e-04 
-3.390659740094e-04 -6.181655200973e-06 0.0 
-6.181655200973e-06 1.811818636053e-03 0.0 
0.0 0.0 -3.377777777778e-04 
-3.159913479109e-04 1.476079812793e-06 0.0 
1.476079812793e-06 2.115026583353e-03 0.0 
0.0 0.0 -3.155555555556e-04 
-3.382925612550e-04 -3.291622949823e-06 0.0 
-3.291622949823e-06 1.803604871078e-03 0.0 
0.0 0.0 -3.377777777778e-04 
-3.160904822449e-04 -2.849606337303e-06 0.0 
-2.849606337303e-06 2.114329194161e-03 0.0 
0.0 0.0 -3.155555555556e-04 
-3.384956828612e-04 -3.501014590563e-06 0.0 
-3.501014590563e-06 1.803162822433e-03 0.0 
0.0 0.0 -3.377777777778e-04 
-3.167500779591e-04 -3.727769637594e-06 0.0 
-3.727769637594e-06 2.114854677275e-03 0.0 
0.0 0.0 -3.155555555556e-04 
-3.391490141729e-04 -3.651468466448e-06 0.0 
-3.651468466448e-06 1.803753947600e-03 0.0 
0.0 0.0 -3.377777777778e-04 
-3.175102459430e-04 -4.000967953647e-06 0.0 
-4.000967953647e-06 2.115610146350e-03 0.0 
0.0 0.0 -3.155555555556e-04 
-3.398779273901e-04 -3.839591480293e-06 0.0 
-3.839591480293e-06 1.804522559076e-03 0.0 
0.0 0.0 -3.377777777778e-04 
-3.181384604103e-04 -4.131905029174e-06 0.0 
-4.131905029174e-06 2.116228510088e-03 0.0 
0.0 0.0 -3.155555555556e-04 
-3.404617035917e-04 -4.098832736299e-06 0.0 
-4.098832736299e-06 1.805124771049e-03 0.0 
0.0 0.0 -3.377777777778e-04 
-3.185323565021e-04 -4.201501100217e-06 0.0 
-4.201501100217e-06 2.116520558905e-03 0.0 
0.0 0.0 -3.155555555556e-04 
-3.407292183498e-04 -4.145196935167e-06 0.0 
-4.145196935167e-06 1.805418472779e-03 0.0 
0.0 0.0 -3.377777777778e-04 
-3.187304559048e-04 -4.035902428874e-06 0.0 
-4.035902428874e-06 2.116586246076e-03 0.0 
0.0 0.0 -3.155555555556e-04 
-3.408744810369e-04 -3.924908453558e-06 0.0 
-3.924908453558e-06 1.805493857811e-03 0.0 
0.0 0.0 -3.377777777778e-04 
-3.187821538715e-04 -3.633158389462e-06 0.0 
-3.633158389462e-06 2.116456200438e-03 0.0 
0.0 0.0 -3.155555555556e-04 
-3.690431360596e-04 -1.483147847608e-04 0.0 
-1.483147847608e-04 2.100743052422e-03 0.0 
0.0 0.0 -3.249092970522e-04 
-3.409689945327e-04 -3.383060592233e-06 0.0 
-3.383060592233e-06 1.805397786316e-03 0.0 
0.0 0.0 -3.377777777778e-04 
-3.187390681354e-04 -2.979666841310e-06 0.0 
-2.979666841310e-06 2.116197507279e-03 0.0 
0.0 0.0 -3.155555555556e-04 
-3.410270300007e-04 -2.604645378448e-06 0.0 
-2.604645378448e-06 1.805179834428e-03 0.0 
0.0 0.0 -3.377777777778e-04 
-2.670328998004e-04 2.363747169204e-05 0.0 
2.363747169204e-05 1.918142120546e-03 0.0 
0.0 0.0 -3.026870748299e-04 
-3.186025981005e-04 -2.078898059982e-06 0.0 
-2.078898059982e-06 2.115791879757e-03 0.0 
0.0 0.0 -3.155555555556e-04 
-2.890685759485e-04 1.184379376180e-05 0.0 
1.184379376180e-05 1.817294272793e-03 0.0 
0.0 0.0 -3.377777777778e-04 
-3.408782700942e-04 -1.553756922301e-06 0.0 
-1.553756922301e-06 1.804821399400e-03 0.0 
0.0 0.0 -3.377777777778e-04 
-3.183633483678e-04 -7.255709595619e-07 0.0 
-7.255709595619e-07 2.115187739220e-03 0.0 
0.0 0.0 -3.155555555556e-04 
-3.404069314638e-04 7.078744655288e-07 0.0 
7.078744655288e-07 1.804467464759e-03 0.0 
0.0 0.0 -3.377777777778e-04 
-3.183782408610e-04 1.285945568806e-06 0.0 
1.285945568806e-06 2.115270095584e-03 0.0 
0.0 0.0 -3.155555555556e-04 
-3.406492705220e-04 2.583697952876e-06 0.0 
2.583697952876e-06 1.804558473506e-03 0.0 
0.0 0.0 -3.377777777778e-04 
-3.184667973769e-04 3.190092890347e-06 0.0 
3.190092890347e-06 2.115278979552e-03 0.0 
0.0 0.0 -3.155555555556e-04 
-3.409369116605e-04 5.636160284329e-06 0.0 
5.636160284329e-06 1.804991858146e-03 0.0 
0.0 0.0 -3.377777777778e-04 
-3.191839104425e-04 4.673179760941e-06 0.0 
4.673179760941e-06 2.116930574184e-03 0.0 
0.0 0.0 -3.155555555556e-04 
-2.573175860954e-04 2.442770395473e-05 0.0 
2.442770395473e-05 1.988241460667e-03 0.0 
0.0 0.0 -3.360204081633e-04 
-3.424750430989e-04 4.023495552553e-06 0.0 
4.023495552553e-06 1.805722805934e-03 0.0 
0.0 0.0 -3.377777777778e-04 
-3.188875227945e-04 5.080339814793e-06 0.0 
5.080339814793e-06 2.115625010649e-03 0.0 
0.0 0.0 -3.155555555556e-04 
-3.407604408985e-04 9.421647063138e-06 0.0 
9.421647063138e-06 1.806070588280e-03 0.0 
0.0 0.0 -3.377777777778e-04 
-3.205134655889e-04 5.605715921528e-06 0.0 
5.605715921528e-06 2.120236289604e-03 0.0 
0.0 0.0 -3.155555555556e-04 
-3.180960930666e-04 5.060715434054e-06 0.0 
5.060715434054e-06 2.113082397847e-03 0.0 
0.0 0.0 -3.155555555556e-04 
-3.444609068295e-04 -8.452731088944e-07 0.0 
-8.452731088944e-07 1.806865042408e-03 0.0 
0.0 0.0 -3.377777777778e-04 
-3.230769510927e-04 5.297167333293e-06 0.0 
5.297167333293e-06 2.127756228039e-03 0.0 
0.0 0.0 -3.155555555556e-04 
-3.355530174909e-04 1.784549433605e-05 0.0 
1.784549433605e-05 1.806438973057e-03 0.0 
0.0 0.0 -3.377777777778e-04 
-3.130517883833e-04 8.743375330241e-06 0.0 
8.743375330241e-06 2.097353132742e-03 0.0 
0.0 0.0 -3.155555555556e-04 
-3.330210519758e-04 2.012953566073e-05 0.0 
2.012953566073e-05 2.147504497682e-03 0.0 
0.0 0.0 -3.155555555556e-04 
-3.509966610494e-04 -2.022077905235e-05 0.0 
-2.022077905235e-05 1.806627387448e-03 0.0 
0.0 0.0 -3.377777777778e-04 
-2.972095881106e-04 5.804270690087e-05 0.0 
5.804270690087e-05 1.800815152055e-03 0.0 
0.0 0.0 -3.377777777778e-04 
-2.175107159718e-04 -1.631750727446e-05 0.0 
-1.631750727446e-05 1.699502326439e-03 0.0 
0.0 0.0 -3.137981859410e-04 
-2.788781723149e-04 -3.677632055049e-04 0.0 
-3.677632055049e-04 1.918773635351e-03 0.0 
0.0 0.0 -3.266666666667e-04 
-3.824407797580e-04 3.586504733502e-04 0.0 
3.586504733502e-04 2.104280094810e-03 0.0 
0.0 0.0 -3.266666666667e-04 
-3.098900820360e-04 -3.767118635735e-05 0.0 
-3.767118635735e-05 1.957913403149e-03 0.0 
0.0 0.0 -3.044444444444e-04 
-3.525472806036e-04 3.960242332949e-05 0.0 
3.960242332949e-05 2.055406756741e-03 0.0 
0.0 0.0 -3.488888888889e-04 
-2.535791161460e-04 -6.363998917511e-06 0.0 
-6.363998917511e-06 1.836833488631e-03 0.0 
0.0 0.0 -3.044444444444e-04 
-3.854470384108e-04 -7.318895876573e-05 0.0 
-7.318895876573e-05 2.462268997968e-03 0.0 
0.0 0.0 -3.822222222222e-04 
-4.067260869842e-04 5.256727935290e-05 0.0 
5.256727935290e-05 2.270583520964e-03 0.0 
0.0 0.0 -4.044444444444e-04 
-3.835104184538e-04 -6.001370987165e-06 0.0 
-6.001370987165e-06 2.584239217162e-03 0.0 
0.0 0.0 -3.822222222222e-04 
-4.054239343453e-04 -3.862668403001e-07 0.0 
-3.862668403001e-07 2.278107254442e-03 0.0 
0.0 0.0 -4.044444444444e-04 
-3.827370056994e-04 -2.051108453458e-06 0.0 
-2.051108453458e-06 2.589324965641e-03 0.0 
0.0 0.0 -3.822222222222e-04 
-4.049473858376e-04 -2.025371124652e-06 0.0 
-2.025371124652e-06 2.278227481696e-03 0.0 
0.0 0.0 -4.044444444444e-04 
-3.829401273056e-04 -2.233475725688e-06 0.0 
-2.233475725688e-06 2.589358314293e-03 0.0 
0.0 0.0 -3.822222222222e-04 
-4.051320011441e-04 -1.755724159203e-06 0.0 
-1.755724159203e-06 2.278648915763e-03 0.0 
0.0 0.0 -4.044444444444e-04 
-3.835934586173e-04 -2.688169992058e-06 0.0 
-2.688169992058e-06 2.589869457183e-03 0.0 
0.0 0.0 -3.822222222222e-04 
-4.056600794981e-04 -1.893213932825e-06 0.0 
-1.893213932825e-06 2.279331955242e-03 0.0 
0.0 0.0 -4.044444444444e-04 
-3.843223718345e-04 -3.113994382666e-06 0.0 
-3.113994382666e-06 2.590617347037e-03 0.0 
0.0 0.0 -3.822222222222e-04 
-4.064892069025e-04 -2.474484856184e-06 0.0 
-2.474484856184e-06 2.280008615996e-03 0.0 
0.0 0.0 -4.044444444444e-04 
-3.849061480361e-04 -3.622932708983e-06 0.0 
-3.622932708983e-06 2.591309291953e-03 0.0 
0.0 0.0 -3.822222222222e-04 
-4.069579766942e-04 -3.400241771046e-06 0.0 
-3.400241771046e-06 2.280265863003e-03 0.0 
0.0 0.0 -4.044444444444e-04 
-3.851736627943e-04 -3.698729864734e-06 0.0 
-3.698729864734e-06 2.591442129951e-03 0.0 
0.0 0.0 -3.822222222222e-04 
-4.070595378396e-04 -3.530761062622e-06 0.0 
-3.530761062622e-06 2.280248515823e-03 0.0 
0.0 0.0 -4.044444444444e-04 
-3.853189254814e-04 -3.308712062649e-06 0.0 
-3.308712062649e-06 2.591334618481e-03 0.0 
0.0 0.0 -3.822222222222e-04 
-4.286221488410e-04 -1.538307185823e-04 0.0 
-1.538307185823e-04 2.567067218455e-03 0.0 
0.0 0.0 -3.914586414276e-04 
-4.072795051317e-04 -3.225304394731e-06 0.0 
-3.225304394731e-06 2.280128533043e-03 0.0 
0.0 0.0 -4.044444444444e-04 
-3.854134389772e-04 -2.594023862037e-06 0.0 
-2.594023862037e-06 2.591119240828e-03 0.0 
0.0 0.0 -3.822222222222e-04 
-3.464781260891e-04 1.734225857512e-05 0.0 
1.734225857512e-05 2.287295584395e-03 0.0 
0.0 0.0 -4.044444444444e-04 
-4.077885899199e-04 -2.677206166133e-06 0.0 
-2.677206166133e-06 2.280033372710e-03 0.0 
0.0 0.0 -4.044444444444e-04 
-3.854714744452e-04 -1.933077100150e-06 0.0 
-1.933077100150e-06 2.590961113598e-03 0.0 
0.0 0.0 -3.822222222222e-04 
-4.081084443904e-04 -2.360427714429e-06 0.0 
-2.360427714429e-06 2.279760717046e-03 0.0 
0.0 0.0 -4.044444444444e-04 
-3.853227145387e-04 -1.172340553323e-06 0.0 
-1.172340553323e-06 2.590523544031e-03 0.0 
0.0 0.0 -3.822222222222e-04 
-4.077855839762e-04 -1.880350380513e-06 0.0 
-1.880350380513e-06 2.279028361984e-03 0.0 
0.0 0.0 -4.044444444444e-04 
-3.286682295382e-04 3.864000460938e-05 0.0 
3.864000460938e-05 2.388312332005e-03 0.0 
0.0 0.0 -3.692364192054e-04 
-3.848513759082e-04 8.749343323248e-07 0.0 
8.749343323248e-07 2.589303941023e-03 0.0 
0.0 0.0 -3.822222222222e-04 
-4.064553215493e-04 2.023836917044e-06 0.0 
2.023836917044e-06 2.278692862703e-03 0.0 
0.0 0.0 -4.044444444444e-04 
-3.850937149665e-04 3.323013512367e-06 0.0 
3.323013512367e-06 2.589488289002e-03 0.0 
0.0 0.0 -3.822222222222e-04 
-4.083426802909e-04 3.954253352632e-06 0.0 
3.954253352632e-06 2.279268883058e-03 0.0 
0.0 0.0 -4.044444444444e-04 
-3.853813561049e-04 5.496575711278e-06 0.0 
5.496575711278e-06 2.589798472255e-03 0.0 
0.0 0.0 -3.822222222222e-04 
-4.073887531176e-04 8.644381902742e-06 0.0 
8.644381902742e-06 2.280648906445e-03 0.0 
0.0 0.0 -4.044444444444e-04 
-3.869194875434e-04 4.699519663536e-06 0.0 
4.699519663536e-06 2.593344221483e-03 0.0 
0.0 0.0 -3.822222222222e-04 
-4.136900432831e-04 3.059611688979e-07 0.0 
3.059611688979e-07 2.281270984406e-03 0.0 
0.0 0.0 -4.044444444444e-04 
-3.852048853429e-04 5.647321068923e-06 0.0 
5.647321068923e-06 2.589552732633e-03 0.0 
0.0 0.0 -3.822222222222e-04 
-4.027468751107e-04 1.481940469573e-05 0.0 
1.481940469573e-05 2.282290554162e-03 0.0 
0.0 0.0 -4.044444444444e-04 
-3.140135372488e-04 2.873744366980e-05 0.0 
2.873744366980e-05 2.457976087611e-03 0.0 
0.0 0.0 -4.025697525387e-04 
-4.196628018255e-04 -1.837442126529e-05 0.0 
-1.837442126529e-05 2.280568181227e-03 0.0 
0.0 0.0 -4.044444444444e-04 
-3.889053512739e-04 9.814032543957e-07 0.0 
9.814032543957e-07 2.600099780335e-03 0.0 
0.0 0.0 -3.822222222222e-04 
-3.673242193347e-04 4.652408802632e-05 0.0 
4.652408802632e-05 2.277402359379e-03 0.0 
0.0 0.0 -4.044444444444e-04 
-3.799974619353e-04 7.920842717921e-06 0.0 
7.920842717921e-06 2.577842323435e-03 0.0 
0.0 0.0 -3.822222222222e-04 
-3.954411054939e-04 8.433133596591e-06 0.0 
8.433133596591e-06 2.614590654529e-03 0.0 
0.0 0.0 -3.822222222222e-04 
-2.749511289216e-04 8.331946175198e-06 0.0 
8.331946175198e-06 2.168007004057e-03 0.0 
0.0 0.0 -3.803475303165e-04 
-4.499391521729e-04 -3.691567064575e-04 0.0 
-3.691567064575e-04 2.484470054093e-03 0.0 
0.0 0.0 -3.933333333333e-04 
-3.454868480400e-04 3.563309951917e-04 0.0 
3.563309951917e-04 2.297351916339e-03 0.0 
0.0 0.0 -3.933333333333e-04 
-4.195054663633e-04 -3.985404005849e-05 0.0 
-3.985404005849e-05 2.445111450393e-03 0.0 
0.0 0.0 -4.155555555556e-04 
-3.747695028258e-04 3.813450272878e-05 0.0 
3.813450272878e-05 2.346473725249e-03 0.0 
0.0 0.0 -3.711111111111e-04 
-3.224019092818e-04 7.776420168041e-06 0.0 
7.776420168041e-06 2.309384780840e-03 0.0 
0.0 0.0 -3.711111111111e-04 
-4.743042659077e-04 -7.660020380402e-05 0.0 
-7.660020380402e-05 2.865853814990e-03 0.0 
0.0 0.0 -4.711111111111e-04 
-4.511705314287e-04 5.193280790000e-05 0.0 
5.193280790000e-05 3.054035925169e-03 0.0 
0.0 0.0 -4.488888888889e-04 
-4.724633686242e-04 -9.447249748580e-06 0.0 
-9.447249748580e-06 2.739853487715e-03 0.0 
0.0 0.0 -4.711111111111e-04 
-4.498683787897e-04 -1.564459074611e-06 0.0 
-1.564459074611e-06 3.043354068164e-03 0.0 
0.0 0.0 -4.488888888889e-04 
-4.709847188569e-04 -3.574354858548e-06 0.0 
-3.574354858548e-06 2.732085994282e-03 0.0 
0.0 0.0 -4.711111111111e-04 
-4.493918302821e-04 -2.534727311539e-06 0.0 
-2.534727311539e-06 3.042771200855e-03 0.0 
0.0 0.0 -4.488888888889e-04 
-4.712289592024e-04 -1.812807881693e-06 0.0 
-1.812807881693e-06 2.731728430754e-03 0.0 
0.0 0.0 -4.711111111111e-04 
-4.495764455886e-04 -1.773818124670e-06 0.0 
-1.773818124670e-06 3.043241608981e-03 0.0 
0.0 0.0 -4.488888888889e-04 
-4.714369542363e-04 -1.226754823058e-06 0.0 
-1.226754823058e-06 2.732193229008e-03 0.0 
0.0 0.0 -4.711111111111e-04 
-4.501045239425e-04 -1.319389086982e-06 0.0 
-1.319389086982e-06 3.044025953912e-03 0.0 
0.0 0.0 -4.488888888889e-04 
-4.721709199479e-04 -7.219039080997e-07 0.0 
-7.219039080997e-07 2.733000959488e-03 0.0 
0.0 0.0 -4.711111111111e-04 
-4.509336513469e-04 -1.227029478674e-06 0.0 
-1.227029478674e-06 3.045199183253e-03 0.0 
0.0 0.0 -4.488888888889e-04 
-4.733112105119e-04 -2.101747565311e-06 0.0 
-2.101747565311e-06 2.733939753671e-03 0.0 
0.0 0.0 -4.711111111111e-04 
-4.514024211387e-04 -2.167247969086e-06 0.0 
-2.167247969086e-06 3.045303862128e-03 0.0 
0.0 0.0 -4.488888888889e-04 
-4.736423528676e-04 -3.198210204819e-06 0.0 
-3.198210204819e-06 2.733987266950e-03 0.0 
0.0 0.0 -4.711111111111e-04 
-4.515039822841e-04 -2.583022231608e-06 0.0 
-2.583022231608e-06 3.044671970773e-03 0.0 
0.0 0.0 -4.488888888889e-04 
-5.094249609212e-04 -1.485849024676e-04 0.0 
-1.485849024676e-04 3.037014136749e-03 0.0 
0.0 0.0 -4.582426303855e-04 
-4.729917283578e-04 -2.527651589425e-06 0.0 
-2.527651589425e-06 2.733536135201e-03 0.0 
0.0 0.0 -4.711111111111e-04 
-4.517239495761e-04 -1.695467618580e-06 0.0 
-1.695467618580e-06 3.044559982769e-03 0.0 
0.0 0.0 -4.488888888889e-04 
-3.989001830536e-04 1.286242860206e-05 0.0 
1.286242860206e-05 2.848856344771e-03 0.0 
0.0 0.0 -4.360204081633e-04 
-4.741797545259e-04 -9.783497844146e-07 0.0 
-9.783497844146e-07 2.733642750037e-03 0.0 
0.0 0.0 -4.711111111111e-04 
-4.522330343643e-04 -9.670925008782e-07 0.0 
-9.670925008782e-07 3.044890510388e-03 0.0 
0.0 0.0 -4.488888888889e-04 
-4.144774096089e-04 2.017710958328e-05 0.0 
2.017710958328e-05 2.745520392554e-03 0.0 
0.0 0.0 -4.711111111111e-04 
-4.753995493701e-04 -8.226418973050e-07 0.0 
-8.226418973050e-07 2.733890535335e-03 0.0 
0.0 0.0 -4.711111111111e-04 
-4.525528888349e-04 -1.017856854085e-06 0.0 
-1.017856854085e-06 3.044832322142e-03 0.0 
0.0 0.0 -4.488888888889e-04 
-4.755368976101e-04 -1.846947414207e-06 0.0 
-1.846947414207e-06 2.733541044653e-03 0.0 
0.0 0.0 -4.711111111111e-04 
-4.522300284206e-04 -1.178811979142e-06 0.0 
-1.178811979142e-06 3.043706972071e-03 0.0 
0.0 0.0 -4.488888888889e-04 
-4.752002035872e-04 -2.749529905503e-06 0.0 
-2.749529905503e-06 2.732164380164e-03 0.0 
0.0 0.0 -4.711111111111e-04 
-4.508997659937e-04 9.025585633480e-07 0.0 
9.025585633480e-07 3.040023587775e-03 0.0 
0.0 0.0 -4.488888888889e-04 
-4.025111780395e-04 2.483692496455e-05 0.0 
2.483692496455e-05 2.925236968048e-03 0.0 
0.0 0.0 -4.693537414966e-04 
-4.720241450351e-04 8.096980642635e-06 0.0 
8.096980642635e-06 2.731296038601e-03 0.0 
0.0 0.0 -4.711111111111e-04 
-4.527871247353e-04 5.512980383908e-06 0.0 
5.512980383908e-06 3.045188244375e-03 0.0 
0.0 0.0 -4.488888888889e-04 
-4.781498596818e-04 2.806128767874e-06 0.0 
2.806128767874e-06 2.733503698510e-03 0.0 
0.0 0.0 -4.711111111111e-04 
-4.518331975621e-04 6.669660836263e-06 0.0 
6.669660836263e-06 3.040822692016e-03 0.0 
0.0 0.0 -4.488888888889e-04 
-4.581344877275e-04 4.806066696417e-06 0.0 
4.806066696417e-06 3.058516911663e-03 0.0 
0.0 0.0 -4.488888888889e-04 
-4.734463109153e-04 2.147515801901e-05 0.0 
2.147515801901e-05 2.735536322359e-03 0.0 
0.0 0.0 -4.711111111111e-04 
-4.471913195551e-04 3.250875513875e-06 0.0 
3.250875513875e-06 3.026848153488e-03 0.0 
0.0 0.0 -4.488888888889e-04 
-4.901163184293e-04 -2.393685911691e-05 0.0 
-2.393685911691e-05 2.736952886364e-03 0.0 
0.0 0.0 -4.711111111111e-04 
-4.641072462699e-04 1.667244048002e-05 0.0 
1.667244048002e-05 3.071178406626e-03 0.0 
0.0 0.0 -4.488888888889e-04 
-4.324862338949e-04 4.839324787635e-05 0.0 
4.839324787635e-05 2.728573330093e-03 0.0 
0.0 0.0 -4.711111111111e-04 
-3.598727436964e-04 -3.513921753685e-05 0.0 
-3.513921753685e-05 2.630027147507e-03 0.0 
0.0 0.0 -4.471315192744e-04 
-4.105980049468e-04 -3.701438029837e-04 0.0 
-3.701438029837e-04 2.845095093414e-03 0.0 
0.0 0.0 -4.600000000000e-04 
-5.151542512817e-04 3.559434576648e-04 0.0 
3.559434576648e-04 3.032255437761e-03 0.0 
0.0 0.0 -4.600000000000e-04 
-4.417276885855e-04 -3.934714622280e-05 0.0 
-3.934714622280e-05 2.884397119692e-03 0.0 
0.0 0.0 -4.377777777778e-04 
-4.853374994491e-04 3.790832101965e-05 0.0 
3.790832101965e-05 2.981759035168e-03 0.0 
0.0 0.0 -4.822222222222e-04 
-3.798114594225e-04 -2.502327533149e-05 0.0 
-2.502327533149e-05 2.763244671662e-03 0.0 
0.0 0.0 -4.377777777778e-04 
-5.187487103521e-04 -7.879757944209e-05 0.0 
-7.879757944209e-05 3.392117763543e-03 0.0 
0.0 0.0 -5.155555555556e-04 
-5.412972415894e-04 4.648002671404e-05 0.0 
4.648002671404e-05 3.200314872166e-03 0.0 
0.0 0.0 -5.377777777778e-04 
-5.169078130686e-04 -1.124351187329e-05 0.0 
-1.124351187329e-05 3.514306742191e-03 0.0 
0.0 0.0 -5.155555555556e-04 
-5.370398844120e-04 -5.539739897353e-06 0.0 
-5.539739897353e-06 3.206683234812e-03 0.0 
0.0 0.0 -5.377777777778e-04 
-5.154291633013e-04 -3.129495957291e-06 0.0 
-3.129495957291e-06 3.517617017321e-03 0.0 
0.0 0.0 -5.155555555556e-04 
-5.381093200183e-04 -1.976663157730e-06 0.0 
-1.976663157730e-06 3.207914382671e-03 0.0 
0.0 0.0 -5.377777777778e-04 
-5.156734036468e-04 -2.406369053650e-06 0.0 
-2.406369053650e-06 3.519066327430e-03 0.0 
0.0 0.0 -5.155555555556e-04 
-5.366091103083e-04 -1.207085778227e-06 0.0 
-1.207085778227e-06 3.208019600709e-03 0.0 
0.0 0.0 -5.377777777778e-04 
-5.158813986807e-04 -1.051510284371e-06 0.0 
-1.051510284371e-06 3.519134616611e-03 0.0 
0.0 0.0 -5.155555555556e-04 
-5.372599660982e-04 6.933014159799e-07 0.0 
6.933014159799e-07 3.208897054849e-03 0.0 
0.0 0.0 -5.377777777778e-04 
-5.166153643924e-04 -3.726067797675e-07 0.0 
-3.726067797675e-07 3.520203548651e-03 0.0 
0.0 0.0 -5.155555555556e-04 
-5.375825845931e-04 1.962175395587e-06 0.0 
1.962175395587e-06 3.210164447084e-03 0.0 
0.0 0.0 -5.377777777778e-04 
-5.177556549563e-04 -1.083300339435e-06 0.0 
-1.083300339435e-06 3.521881872284e-03 0.0 
0.0 0.0 -5.155555555556e-04 
-5.405721443304e-04 -1.211361635702e-06 0.0 
-1.211361635702e-06 3.211048643113e-03 0.0 
0.0 0.0 -5.377777777778e-04 
-5.180867973121e-04 -2.955006037441e-06 0.0 
-2.955006037441e-06 3.522497958112e-03 0.0 
0.0 0.0 -5.155555555556e-04 
-5.792879928890e-04 -1.599267687406e-04 0.0 
-1.599267687406e-04 3.507819207063e-03 0.0 
0.0 0.0 -5.247732426303e-04 
-5.375442025049e-04 -3.821072344249e-06 0.0 
-3.821072344249e-06 3.209055027385e-03 0.0 
0.0 0.0 -5.377777777778e-04 
-4.855148531560e-04 1.971124341118e-05 0.0 
1.971124341118e-05 3.223296130373e-03 0.0 
0.0 0.0 -5.377777777778e-04 
-5.174361728023e-04 1.037369395506e-07 0.0 
1.037369395506e-07 3.519390087404e-03 0.0 
0.0 0.0 -5.155555555556e-04 
-5.390305481333e-04 1.985391886553e-06 0.0 
1.985391886553e-06 3.209337053627e-03 0.0 
0.0 0.0 -5.377777777778e-04 
-5.186241989704e-04 1.920455278980e-06 0.0 
1.920455278980e-06 3.520577890956e-03 0.0 
0.0 0.0 -5.155555555556e-04 
-5.424782350989e-04 2.602587795864e-06 0.0 
2.602587795864e-06 3.210819048104e-03 0.0 
0.0 0.0 -5.377777777778e-04 
-5.198439938145e-04 8.397343631672e-07 0.0 
8.397343631672e-07 3.522383784968e-03 0.0 
0.0 0.0 -5.155555555556e-04 
-5.425396489499e-04 -2.671586099258e-07 0.0 
-2.671586099258e-07 3.210729830903e-03 0.0 
0.0 0.0 -5.377777777778e-04 
-4.639261431919e-04 1.795800229962e-05 0.0 
1.795800229962e-05 3.319383572120e-03 0.0 
0.0 0.0 -5.025510204081e-04 
-5.199813420545e-04 4.884319006210e-08 0.0 
4.884319006210e-08 3.521715893853e-03 0.0 
0.0 0.0 -5.155555555556e-04 
-5.429313789558e-04 -1.595839338101e-06 0.0 
-1.595839338101e-06 3.209826232599e-03 0.0 
0.0 0.0 -5.377777777778e-04 
-5.196446480316e-04 -7.157581278471e-07 0.0 
-7.157581278471e-07 3.520538878585e-03 0.0 
0.0 0.0 -5.155555555556e-04 
-5.449486155419e-04 -7.127659532130e-06 0.0 
-7.127659532130e-06 3.206562068945e-03 0.0 
0.0 0.0 -5.377777777778e-04 
-5.164685894796e-04 6.903981517509e-06 0.0 
6.903981517509e-06 3.511995524719e-03 0.0 
0.0 0.0 -5.155555555556e-04 
-5.340991680871e-04 2.151676257844e-05 0.0 
2.151676257844e-05 3.208223790984e-03 0.0 
0.0 0.0 -5.377777777778e-04 
-5.225943041262e-04 7.813857319380e-06 0.0 
7.813857319380e-06 3.525980620072e-03 0.0 
0.0 0.0 -5.155555555556e-04 
-5.589612776076e-04 -5.839662931230e-06 0.0 
-5.839662931230e-06 3.211769507264e-03 0.0 
0.0 0.0 -5.377777777778e-04 
-5.066406946919e-04 4.974783901009e-05 0.0 
4.974783901009e-05 3.211603155197e-03 0.0 
0.0 0.0 -5.377777777778e-04 
-5.178907553597e-04 1.266973619615e-05 0.0 
1.266973619615e-05 3.512461130721e-03 0.0 
0.0 0.0 -5.155555555556e-04 
-4.723338447053e-04 2.541271294402e-05 0.0 
2.541271294402e-05 3.400544018691e-03 0.0 
0.0 0.0 -5.358843537414e-04 
-5.345607628738e-04 7.989109301534e-06 0.0 
7.989109301534e-06 3.549518677637e-03 0.0 
0.0 0.0 -5.155555555556e-04 
-4.278487948575e-04 -2.628820225451e-05 0.0 
-2.628820225451e-05 3.098178878207e-03 0.0 
0.0 0.0 -5.136621315192e-04 
-5.830730295150e-04 -3.701622094986e-04 0.0 
-3.701622094986e-04 3.411662693846e-03 0.0 
0.0 0.0 -5.266666666667e-04 
-4.791897713482e-04 3.550100958036e-04 0.0 
3.550100958036e-04 3.225685347325e-03 0.0 
0.0 0.0 -5.266666666667e-04 
-5.533708020514e-04 -3.952512472071e-05 0.0 
-3.952512472071e-05 3.373562060411e-03 0.0 
0.0 0.0 -5.488888888889e-04 
-5.075597216713e-04 3.715385301184e-05 0.0 
3.715385301184e-05 3.274980805740e-03 0.0 
0.0 0.0 -5.044444444444e-04 
-4.478107429422e-04 -2.175364391221e-05 0.0 
-2.175364391221e-05 3.231094822119e-03 0.0 
0.0 0.0 -5.044444444444e-04 
-6.189291422576e-04 -8.703466800009e-05 0.0 
-8.703466800009e-05 3.800993658171e-03 0.0 
0.0 0.0 -6.044444444444e-04 
-5.857416860338e-04 4.152251131124e-05 0.0 
4.152251131124e-05 3.981396628525e-03 0.0 
0.0 0.0 -5.822222222222e-04 
-6.014676124269e-04 -2.366192094096e-05 0.0 
-2.366192094096e-05 3.666428660516e-03 0.0 
0.0 0.0 -6.044444444444e-04 
-5.814843288565e-04 -9.898764258253e-06 0.0 
-9.898764258253e-06 3.966852274136e-03 0.0 
0.0 0.0 -5.822222222222e-04 
-6.012057329272e-04 -9.447332933257e-07 0.0 
-9.447332933257e-07 3.656511754543e-03 0.0 
0.0 0.0 -6.044444444444e-04 
-5.825537644628e-04 -2.598524727547e-06 0.0 
-2.598524727547e-06 3.971861702718e-03 0.0 
0.0 0.0 -5.822222222222e-04 
-6.053753762140e-04 -6.697619749961e-06 0.0 
-6.697619749961e-06 3.660276641183e-03 0.0 
0.0 0.0 -6.044444444444e-04 
-5.810535547528e-04 -4.794630108920e-06 0.0 
-4.794630108920e-06 3.968237137461e-03 0.0 
0.0 0.0 -5.822222222222e-04 
-5.989315183322e-04 1.500653346668e-07 0.0 
1.500653346668e-07 3.657759237214e-03 0.0 
0.0 0.0 -6.044444444444e-04 
-5.817044105427e-04 9.543218927829e-07 0.0 
9.543218927829e-07 3.971595709461e-03 0.0 
0.0 0.0 -5.822222222222e-04 
-6.036123665843e-04 5.339950144235e-07 0.0 
5.339950144235e-07 3.660400636182e-03 0.0 
0.0 0.0 -6.044444444444e-04 
-5.820270290375e-04 1.512396225080e-06 0.0 
1.512396225080e-06 3.971136415647e-03 0.0 
0.0 0.0 -5.822222222222e-04 
-6.007150147334e-04 7.186565872499e-06 0.0 
7.186565872499e-06 3.661043708330e-03 0.0 
0.0 0.0 -6.044444444444e-04 
-6.473657891011e-04 -1.503775681191e-04 0.0 
-1.503775681191e-04 3.972322043345e-03 0.0 
0.0 0.0 -5.915759637188e-04 
-5.850165887748e-04 4.111519023383e-06 0.0 
4.111519023383e-06 3.978321279381e-03 0.0 
0.0 0.0 -5.822222222222e-04 
-6.068724417993e-04 -1.008894091445e-05 0.0 
-1.008894091445e-05 3.663848600166e-03 0.0 
0.0 0.0 -6.044444444444e-04 
-5.382166584107e-04 1.304379000640e-05 0.0 
1.304379000640e-05 3.784609928149e-03 0.0 
0.0 0.0 -5.693537414966e-04 
-5.819886469493e-04 -2.459134104207e-06 0.0 
-2.459134104207e-06 3.967910560167e-03 0.0 
0.0 0.0 -5.822222222222e-04 
-6.025293378773e-04 4.180804481685e-06 0.0 
4.180804481685e-06 3.658439256297e-03 0.0 
0.0 0.0 -6.044444444444e-04 
-5.551920643199e-04 2.265198140005e-05 0.0 
2.265198140005e-05 3.679387987050e-03 0.0 
0.0 0.0 -6.044444444444e-04 
-5.834749925778e-04 5.082011282514e-06 0.0 
5.082011282514e-06 3.970492679137e-03 0.0 
0.0 0.0 -5.822222222222e-04 
-6.079594570241e-04 1.156947798517e-05 0.0 
1.156947798517e-05 3.661485342161e-03 0.0 
0.0 0.0 -6.044444444444e-04 
-5.869226795434e-04 6.564857151272e-06 0.0 
6.564857151272e-06 3.976524406353e-03 0.0 
0.0 0.0 -5.822222222222e-04 
-6.104220387485e-04 1.777481494462e-06 0.0 
1.777481494462e-06 3.663998117975e-03 0.0 
0.0 0.0 -6.044444444444e-04 
-5.869840933944e-04 2.939983270558e-06 0.0 
2.939983270558e-06 3.973848016868e-03 0.0 
0.0 0.0 -5.822222222222e-04 
-5.382425891796e-04 2.010179773979e-05 0.0 
2.010179773979e-05 3.859360506165e-03 0.0 
0.0 0.0 -6.026870748299e-04 
-6.075003933196e-04 1.831253403248e-06 0.0 
1.831253403248e-06 3.662133086902e-03 0.0 
0.0 0.0 -6.044444444444e-04 
-5.873758234003e-04 4.101101850473e-06 0.0 
4.101101850473e-06 3.972642461745e-03 0.0 
0.0 0.0 -5.822222222222e-04 
-5.893930599864e-04 7.702980256847e-07 0.0 
7.702980256847e-07 3.976762054191e-03 0.0 
0.0 0.0 -5.822222222222e-04 
-6.109731840224e-04 5.890820747531e-06 0.0 
5.890820747531e-06 3.662416691587e-03 0.0 
0.0 0.0 -6.044444444444e-04 
-5.785436125316e-04 1.010670441636e-05 0.0 
1.010670441636e-05 3.943008250813e-03 0.0 
0.0 0.0 -5.822222222222e-04 
-6.245615995330e-04 -2.323619509784e-05 0.0 
-2.323619509784e-05 3.657960966842e-03 0.0 
0.0 0.0 -6.044444444444e-04 
-6.034057220520e-04 2.547674868134e-05 0.0 
2.547674868134e-05 4.007426657562e-03 0.0 
0.0 0.0 -5.822222222222e-04 
-5.749090046599e-04 7.539992690053e-05 0.0 
7.539992690053e-05 3.655670285631e-03 0.0 
0.0 0.0 -6.044444444444e-04 
-4.961379511751e-04 -3.596508921430e-05 0.0 
-3.596508921430e-05 3.563351096824e-03 0.0 
0.0 0.0 -5.804648526077e-04 
-5.370991115957e-04 -3.597763694007e-04 0.0 
-3.597763694007e-04 3.763144672232e-03 0.0 
0.0 0.0 -5.933333333333e-04 
-6.527633909015e-04 3.673307409981e-04 0.0 
3.673307409981e-04 3.969951782286e-03 0.0 
0.0 0.0 -5.933333333333e-04 
-5.755930242736e-04 -3.122109693664e-05 0.0 
-3.122109693664e-05 3.812561021402e-03 0.0 
0.0 0.0 -5.711111111111e-04 
-6.159345735075e-04 5.418298751483e-05 0.0 
5.418298751483e-05 3.907149665354e-03 0.0 
0.0 0.0 -6.155555555556e-04 
-5.188481864893e-04 -2.197935258590e-05 0.0 
-2.197935258590e-05 3.695326603665e-03 0.0 
0.0 0.0 -5.711111111111e-04 
-6.633735867021e-04 -1.155216560217e-04 0.0 
-1.155216560217e-04 4.354748692185e-03 0.0 
0.0 0.0 -6.488888888889e-04 
-6.563660005588e-04 -4.949228987583e-06 0.0 
-4.949228987583e-06 4.121813599109e-03 0.0 
0.0 0.0 -6.711111111111e-04 
-6.459120568713e-04 -1.400816422119e-05 0.0 
-1.400816422119e-05 4.433498309450e-03 0.0 
0.0 0.0 -6.488888888889e-04 
-6.749764366867e-04 -1.022061849857e-05 0.0 
-1.022061849857e-05 4.131528536263e-03 0.0 
0.0 0.0 -6.711111111111e-04 
-6.456501773717e-04 -4.182868477560e-07 0.0 
-4.182868477560e-07 4.441719427511e-03 0.0 
0.0 0.0 -6.488888888889e-04 
-6.743020789233e-04 6.977086704307e-06 0.0 
6.977086704307e-06 4.142139451712e-03 0.0 
0.0 0.0 -6.711111111111e-04 
-6.498198206585e-04 -1.519001385404e-05 0.0 
-1.519001385404e-05 4.455827176230e-03 0.0 
0.0 0.0 -6.488888888889e-04 
-6.621266125404e-04 -2.192043764397e-05 0.0 
-2.192043764397e-05 4.131761848184e-03 0.0 
0.0 0.0 -6.711111111111e-04 
-6.433759627766e-04 1.777448492813e-06 0.0 
1.777448492813e-06 4.439463053302e-03 0.0 
0.0 0.0 -6.488888888889e-04 
-6.671926554527e-04 1.273682377917e-05 0.0 
1.273682377917e-05 4.138458681040e-03 0.0 
0.0 0.0 -6.711111111111e-04 
-6.480568110287e-04 -2.776142626278e-06 0.0 
-2.776142626278e-06 4.452403490028e-03 0.0 
0.0 0.0 -6.488888888889e-04 
-6.701502197109e-04 -7.061847058022e-06 0.0 
-7.061847058022e-06 4.137807792637e-03 0.0 
0.0 0.0 -6.711111111111e-04 
-7.177695882629e-04 -1.636503915643e-04 0.0 
-1.636503915643e-04 4.444156976963e-03 0.0 
0.0 0.0 -6.580807474504e-04 
-6.451594591778e-04 2.175329864368e-06 0.0 
2.175329864368e-06 4.446899780492e-03 0.0 
0.0 0.0 -6.488888888889e-04 
-6.694083839792e-04 4.177588367935e-05 0.0 
4.177588367935e-05 4.159153595791e-03 0.0 
0.0 0.0 -6.711111111111e-04 
-6.460833817648e-04 2.181336474440e-05 0.0 
2.181336474440e-05 4.138351275158e-03 0.0 
0.0 0.0 -6.711111111111e-04 
-6.513168862437e-04 2.571939183827e-06 0.0 
2.571939183827e-06 4.455509820746e-03 0.0 
0.0 0.0 -6.488888888889e-04 
-6.788111886778e-04 -1.155514465082e-05 0.0 
-1.155514465082e-05 4.136861537379e-03 0.0 
0.0 0.0 -6.711111111111e-04 
-6.469737823218e-04 1.193188668576e-05 0.0 
1.193188668576e-05 4.441081764841e-03 0.0 
0.0 0.0 -6.488888888889e-04 
-6.791365925950e-04 1.914980606248e-05 0.0 
1.914980606248e-05 4.140018751422e-03 0.0 
0.0 0.0 -6.711111111111e-04 
-6.524039014686e-04 9.406282947205e-06 0.0 
9.406282947205e-06 4.453605425654e-03 0.0 
0.0 0.0 -6.488888888889e-04 
-6.708784002972e-04 1.294093541861e-05 0.0 
1.294093541861e-05 4.143170398070e-03 0.0 
0.0 0.0 -6.711111111111e-04 
-6.063230854436e-04 2.307129271736e-05 0.0 
2.307129271736e-05 4.258254267782e-03 0.0 
0.0 0.0 -6.358585252281e-04 
-6.548664831930e-04 3.770000341516e-06 0.0 
3.770000341516e-06 4.457898616998e-03 0.0 
0.0 0.0 -6.488888888889e-04 
-6.704807604954e-04 -3.181200734381e-06 0.0 
-3.181200734381e-06 4.139523021675e-03 0.0 
0.0 0.0 -6.711111111111e-04 
-6.519448377641e-04 9.585102352842e-06 0.0 
9.585102352842e-06 4.446587571773e-03 0.0 
0.0 0.0 -6.488888888889e-04 
-6.643169358871e-04 1.598213094935e-05 0.0 
1.598213094935e-05 4.135669863508e-03 0.0 
0.0 0.0 -6.711111111111e-04 
-6.628560694171e-04 4.220630236656e-05 0.0 
4.220630236656e-05 4.140094777352e-03 0.0 
0.0 0.0 -6.711111111111e-04 
-6.554176284669e-04 2.405280497148e-05 0.0 
2.405280497148e-05 4.445642855833e-03 0.0 
0.0 0.0 -6.488888888889e-04 
-6.690060439774e-04 2.025793204241e-05 0.0 
2.025793204241e-05 4.465053963584e-03 0.0 
0.0 0.0 -6.488888888889e-04 
-6.064361755080e-04 1.982912098417e-05 0.0 
1.982912098417e-05 4.335884925808e-03 0.0 
0.0 0.0 -6.691918585615e-04 
-5.634506181685e-04 -1.856852842986e-05 0.0 
-1.856852842986e-05 4.033404918511e-03 0.0 
0.0 0.0 -6.469696363393e-04 
-7.075315162009e-04 -3.247782179694e-04 0.0 
-3.247782179694e-04 4.305606072287e-03 0.0 
0.0 0.0 -6.600000000000e-04 
-6.398271965705e-04 3.921691488498e-04 0.0 
3.921691488498e-04 4.184231073606e-03 0.0 
0.0 0.0 -6.600000000000e-04 
-7.078150788587e-04 1.813354754407e-05 0.0 
1.813354754407e-05 4.306653958276e-03 0.0 
0.0 0.0 -6.822222222222e-04 
-6.381567957297e-04 6.336547185439e-05 0.0 
6.336547185439e-05 4.195569873202e-03 0.0 
0.0 0.0 -6.377777777778e-04 
-5.885253976532e-04 -3.076841355533e-05 0.0 
-3.076841355533e-05 4.174142785234e-03 0.0 
0.0 0.0 -6.377777777778e-04 

SCALARS element_materi_plasti_kappa_shear float
LOOKUP_TABLE default
1.898088649643e-03
1.711557051641e-03
5.588972410085e-03
5.625547274701e-03
3.501560146999e-03
7.282216725179e-04
3.474037579751e-03
1.788007566792e-03
3.522688057585e-03
5.576154387883e-03
3.814443258077e-03
1.461439354055e-03
5.618312958953e-03
3.751010953381e-03
5.727607835366e-03
5.730745783213e-03
3.485806207147e-03
6.593526459411e-04
1.219931793149e-03
1.129439279568e-03
5.615624188563e-03
1.975862239362e-03
2.216034645177e-03
5.387839390641e-03
4.000079313324e-03
4.090296639934e-03
3.221108468051e-03
5.760173945043e-03
4.029373913921e-03
5.523089313000e-03
9.290964436138e-04
4.104778426902e-04
5.763354464700e-03
4.818108341585e-03
5.606378478043e-03
5.926561905728e-03
5.911514681661e-03
5.601049808397e-03
3.175213616511e-03
3.219440155070e-03
2.522875806809e-03
5.613228156909e-03
1.314389251867e-03
3.093978597461e-03
5.492839635271e-03
1.306192107028e-03
5.547525844144e-04
5.389503964808e-03
2.459813448032e-04
3.614080566478e-03
2.381012112028e-03
1.496795143349e-03
1.233026261794e-03
2.292287135613e-03
5.625167383412e-03
1.964314716114e-03
1.446321564822e-03
4.840724010361e-03
9.102679910466e-04
5.734895616735e-03
3.755633206833e-04
5.378892164199e-03
2.330546822697e-03
1.083603178692e-03
5.615414212048e-03
2.131250052149e-03
1.604920622128e-04
5.736681007187e-03
9.706183660792e-04
5.615641150241e-03
4.241478972054e-03
5.874633494773e-03
5.400876667698e-03
4.558558305771e-04
1.986901141796e-03
5.633818988721e-03
5.766849763577e-03
9.985176399267e-04
7.761145875021e-04
9.970078257235e-04
9.298249562963e-04
3.329770783062e-03
2.084397622031e-03
1.770967893658e-03
3.674764228873e-03
3.652269385491e-03
4.362468712188e-03
4.711312884167e-03
4.861505206044e-03
3.454836133152e-03
2.515307574217e-04
3.378806059228e-03
4.682474906469e-03
4.702091845048e-03
6.023290360785e-03
5.787399672559e-03
3.332335907633e-03
5.769769997493e-03
3.930413862469e-03
2.258576815210e-03
3.348854702644e-03
5.740322727268e-03
4.646182631344e-03
5.409941681963e-03
2.044498184613e-03
6.875243722321e-04
5.293361504948e-03
5.009713215505e-03
4.133118292856e-04
5.636662395566e-03
4.631075715070e-03
3.269354662114e-04
2.695643369684e-03
3.134173944671e-03
2.394513305480e-03
2.006953041182e-03
2.358433690428e-03
5.680496234390e-03
3.862421047182e-03
2.174327584433e-03
9.453599785676e-04
3.463155550842e-03
4.910807945138e-03
2.193161772477e-03
6.864169327037e-04
2.833893873667e-03
2.488998346477e-03
2.624989890950e-03
5.744770783808e-03
8.095945313105e-04
4.016900758618e-03
5.625509815893e-03
2.834287320742e-03
2.685380764041e-03
5.614532063030e-03
5.633315586868e-03
4.360056895282e-03
3.033874980370e-03
5.768691703589e-03
2.715472649556e-03
5.618615457511e-03
5.760030365689e-03
3.718873437018e-03
4.339715431150e-03
2.744759010980e-03
2.474141180373e-03
3.120734003300e-03
2.345781934128e-03
3.431883328348e-03
2.738129196427e-03
2.430742527302e-04
3.688149105754e-03
8.387704164436e-04
2.991941880911e-03
5.628507851818e-03
2.024064835673e-03
4.530584219247e-03
1.460229167458e-03
4.626313542846e-03
3.347690434935e-03
2.537984777281e-03
4.987375735797e-03
8.656817948044e-04
5.285431651825e-03
3.359806122999e-03
5.766679500674e-03
3.342388058739e-03
2.107011085319e-03
2.928826646772e-03
3.947216798782e-03
1.526615979923e-03
2.569483147169e-03
4.520478967461e-03
3.465735922799e-03
2.391304591019e-03
2.779864257648e-03
5.040184275248e-03
2.772760665208e-03
5.618703717082e-03
5.759844672988e-03
1.983421498389e-03
2.659866027685e-03
5.141665672041e-03
2.630630496975e-03
1.717879912429e-03
3.236040194099e-03
2.634227826825e-03
5.637705462983e-03
4.673436176070e-03
5.143211062278e-03
1.164471534235e-03
2.407331954242e-03
4.803098661724e-03
1.296887470609e-04
2.602557350130e-03
4.814963733127e-03
6.908847608838e-04
5.616315559470e-03
4.285635638516e-03
2.554299594861e-03
4.795742518615e-03
3.724002802598e-03
3.932058578281e-03
5.497749636997e-03
1.904823798155e-03
3.244463136207e-03
3.481704692684e-03
4.488443812894e-03
3.550879868320e-03
3.254436741122e-03
4.171787960097e-03
4.925574717127e-03
3.793743182903e-04
1.944678655638e-03
2.211850110251e-03
3.157287865959e-03
4.893684273428e-03
9.647028340037e-04
4.643736636012e-03
3.342449784473e-03
2.377945774863e-03
4.477091166639e-03
4.380675775183e-04
4.584675247436e-03
3.699679224086e-04
5.360497299544e-04
1.154789664667e-03
1.594668909351e-03
4.784983334352e-03
1.546697935713e-03
1.383435816543e-03
1.200027858935e-03
1.005332530085e-03
4.949781021208e-03
3.380950736680e-03
5.631197498489e-03
0.0
1.665063222897e-03
2.673189362063e-03
2.423854183086e-03
4.621677125615e-03
5.764868817004e-03
4.590764537563e-03
1.954446704586e-03
4.960919873089e-03
4.205568891908e-03
3.320344157998e-03
4.410423547979e-03
5.507586445396e-03
2.709349539675e-03
1.580698985764e-03
3.836309747163e-03
6.017571415290e-03
3.278275707600e-03
3.423215564413e-03
3.753460771055e-03
8.863145511104e-04
3.518014179913e-03
1.918797851399e-03
1.292004175147e-03
9.082232253615e-04
4.755046881876e-03
3.676362788182e-03
2.294435875197e-03
4.952708212389e-03
4.718723855838e-03
3.481414558201e-03
5.642033395162e-03
3.523250685796e-03
3.640046674313e-03
2.917421140027e-03
3.717192777981e-03
1.585318004735e-03
3.357027743210e-03
2.838102944494e-03
2.007874057392e-03
4.547203828395e-03
1.589585432751e-04
3.708601455527e-03
2.047895045112e-03
1.700131027140e-03
1.626515464048e-03
3.929577795643e-03
6.380620704985e-04
2.384202047897e-03
3.820927590901e-03
3.640893065081e-03
3.744578397567e-03
8.473399745815e-04
1.972105034185e-03
1.841129336947e-03
2.144602490372e-03
4.453686851147e-03
2.425319558498e-03
2.633326203696e-03
2.506076668662e-03
1.050423010888e-03
3.001112002867e-03
1.139329181863e-03
6.012684016247e-03
6.015982038197e-03
3.371674230462e-03
1.754085065341e-03
1.538449888003e-03
3.733462517399e-03
1.667297713938e-03
1.800453244169e-03
3.281965826456e-03
5.778410886410e-03
2.212308197419e-03
4.148099921920e-03
1.220247403596e-03
6.015650448016e-03
1.627598388192e-03
3.408069598847e-03
1.126335977517e-03
4.035749165321e-03
2.797696233239e-03
1.935926706622e-03
3.513914298156e-03
6.014293587579e-03
2.340466570169e-03
3.854547700326e-03
1.257539573865e-03
4.211250131042e-03
4.445904991403e-03
1.749623395989e-03
4.109773335894e-03
6.017625920184e-03
4.749940685194e-03
6.020004411071e-03
4.066219120171e-03
4.677049970116e-03
1.453454976364e-03
3.226922138058e-03
3.605874528002e-03
3.801247617448e-03
3.116888250637e-03
6.023922603081e-03
3.900035487013e-03
3.427519582657e-03
2.541127325687e-03
1.304161433012e-03
3.097491959287e-03
1.828369059598e-03
3.480341907346e-03
1.973411461228e-03
2.245667589757e-03
4.717451703464e-03
1.865551334307e-03
3.320796694163e-03
3.948013352555e-03
3.499794145216e-03
6.014761074790e-03
2.797145162977e-03
1.840410315570e-03
2.476504328130e-03
1.777663760712e-03
1.715690849975e-03
5.020957594454e-03
3.604591250536e-03
2.461088412607e-03
3.037406839291e-03
6.020345341033e-03
5.688581187916e-03
4.974163615527e-03
4.623253995230e-03
3.403798714710e-03
2.542077870463e-03
1.793786123597e-03
2.084462978973e-03
3.443262116423e-03
3.946499106711e-03
2.984226002412e-03
5.025076478443e-03
1.876215262827e-03
2.954178187483e-03
3.441589599409e-03
2.662722220518e-03
6.012685245852e-03
6.016133295997e-03
5.644449372993e-03
3.701147822208e-03
4.921131353075e-03
1.545366707812e-03
2.377422492958e-03
1.336075859690e-03
2.584345771663e-03
3.338459339121e-03
4.044137853151e-03
5.756411723275e-03
4.924677558882e-03
3.800097117390e-03
3.895652219981e-03
1.419401544672e-03
6.642135258918e-04
2.837095037860e-03
3.243261720868e-03
3.038062407003e-03
6.767206337307e-04
3.595162726105e-03
1.242964933884e-03
1.791112892290e-03
5.886267587663e-03
4.319899469577e-03
3.400768600181e-03
9.348339381144e-04
3.083946857624e-03
2.871885156030e-03
3.962075947404e-03
6.018407561000e-03
3.198386693765e-03
3.766468143187e-03
2.946356736400e-03
4.889394747190e-03
3.802316230935e-03
6.019114699465e-03
5.878766063712e-03
5.874669666802e-03
5.846896484413e-03
4.057636266581e-03
4.920589971590e-03
5.113499940864e-03
2.631031740165e-03
2.507872621076e-03
2.813875816799e-03
5.059815959048e-03
6.015552509770e-03
5.051955043481e-03
4.017840351881e-03
5.084516464713e-03
4.404291654299e-03
3.045170865042e-03
2.550534457101e-03
1.338384591573e-03
5.646979922163e-03
2.469749811605e-03
5.384355873580e-03
2.775047533559e-03
1.799833226776e-03
5.623003894310e-03
1.949666713895e-03
5.877628319843e-03
5.634831675280e-03
3.696725743160e-03
2.315629071755e-04
5.876846230322e-03
5.625196717779e-03
1.763143550620e-03
4.153888461443e-03
6.029088701749e-03
0.0
2.757791127203e-03
3.859953108443e-03
3.533917503000e-03
3.571063382657e-03
1.501745143730e-03
5.871219529997e-03
2.671327868409e-03
8.692276940891e-04
5.775417212412e-03
4.034087724254e-04
2.877183319107e-03
7.845786155791e-04
3.064343649170e-03
6.008207932275e-03
5.886416939797e-03
3.769097730369e-03
5.416058611576e-04
6.663225248163e-04
9.264097944291e-04
5.017458723071e-03
3.488320970718e-03
3.568311924561e-03
5.888518575312e-03
3.493284622980e-03
6.023303222970e-03
4.495210095570e-03
3.909299515792e-03
1.880309591682e-03
4.118987834466e-03
1.217020428601e-03
5.888099209517e-03
5.858622551973e-03
5.871281062106e-03
3.837749785842e-03
2.642161995129e-03
3.082539161524e-03
3.932200029967e-03
5.884737103442e-03
1.826405636236e-03
2.101531865548e-03
2.230991329468e-03
4.079210194315e-03
6.020724823755e-03
6.550876827097e-04
5.870906118256e-03
2.061330388785e-03
5.887134204678e-03
5.158371209842e-03
1.735033884423e-04
2.876871465871e-03
5.119259939334e-03
5.882578435152e-03
4.090807838191e-03
4.627625074894e-03
1.056059908013e-03
5.381604359168e-03
2.190366286690e-03
2.266492401597e-03
4.233392830062e-04
5.876777887152e-03
1.506277909376e-03
4.962026184372e-03
3.779613678589e-03
1.886868617372e-03
2.137991957806e-03
3.928710791902e-03
5.887503593489e-03
2.741417539434e-03
4.307478873942e-03
3.496708023987e-03
3.907072451988e-03
2.300842511533e-03
4.002515627125e-03
3.405034769092e-03
4.439472514518e-03
4.416922306321e-03
3.333573885478e-03
2.813436354788e-03
1.986436464636e-03
2.602497471918e-03
4.536209320526e-03
3.650011259562e-03
6.021028889714e-03
5.248340798342e-03
1.675475904991e-03
5.860952443922e-03
5.749243689854e-03
3.130366137552e-03
2.446157471384e-04
6.015808451350e-03
5.216828897001e-03
1.891089920309e-03
5.872438978963e-03
4.140650168509e-03
2.670441489397e-03
3.672959727573e-03
3.555689535213e-03
3.535938459604e-03
4.076028772190e-03
4.323837798527e-03
2.998150908977e-03
4.588814172264e-03
3.990156233101e-03
2.851900776380e-03
4.246963853771e-03
2.223560657060e-03
3.981478068334e-03
1.793397212350e-04
2.156315504880e-03
2.097111767555e-03
3.079683430517e-03
3.294455684710e-03
4.105285117446e-03
3.968717882503e-03
1.929111457824e-03
5.886335248325e-03
3.894339398565e-03
3.209529361218e-03
3.730809639925e-03
3.117776647955e-03
0.0
3.867784336933e-03
2.563323944442e-03
0.0
3.036200146822e-03
4.407600196631e-03
5.076924335597e-03
3.778145075046e-03
3.865417070565e-03
3.297599931106e-03
3.075297279978e-03
5.632622103086e-03
3.567491943935e-03
1.510039486835e-04
1.062090790195e-03
2.398810579768e-04
1.837694429977e-03
5.063783013299e-03
5.108968424711e-03
4.804181478442e-03
2.074537259418e-03
4.022688107491e-03
5.049168604237e-03
1.160096365863e-03
2.576389109967e-03
2.078055360937e-03
6.021089235366e-03
5.881485963002e-03
2.857156921414e-03
3.246692301346e-03
3.629498285744e-03
5.229137518708e-03
1.125785695799e-03
4.880206649917e-03
6.831862832841e-04
2.949407645451e-03
3.288357648769e-03
2.441249237015e-04
2.697767110358e-03
5.212641935745e-03
1.752329176366e-04
3.063219008196e-03
3.208047659791e-03
4.245083115866e-03
2.103654506232e-03
2.019431576275e-03
1.421520152248e-03
5.225289819944e-03
5.632171442564e-03
4.908962959162e-03
1.901082200918e-03
7.152422822499e-04
3.069002747989e-03
3.072118229683e-03
3.221248037221e-03
0.0
2.370160903131e-04
5.310782124112e-04
1.561897998935e-03
4.249046179325e-04
3.032717901044e-03
0.0
1.864630217503e-03
4.122518464148e-03
3.216172429738e-03
5.209439031162e-03
4.234717777356e-03
3.854408568460e-03
2.248560931312e-03
6.787283102328e-04
5.869561306561e-03
6.023626633703e-03
3.742684779077e-03
3.077333598062e-03
2.287820883481e-03
6.009559958077e-03
1.773006016400e-03
3.202342050267e-03
3.064099742472e-03
2.912794716067e-03
5.888568312805e-03
6.006021539653e-03
4.166942996850e-04
0.0
8.441431879688e-04
3.250853044044e-03
5.464355466467e-03
1.629622625436e-04
4.849407318230e-03
0.0
4.167229288684e-03
1.911385708273e-04
1.855469029487e-04
3.998077199970e-03
5.296543687334e-03
4.237134437895e-03
3.194088539209e-03
2.435063913799e-04
4.153210895561e-03
5.861217735276e-03
6.009791560538e-03
3.214582083037e-03
4.335922088801e-03
5.878708529905e-03
4.662336340161e-03
6.526260522665e-04
4.186243951470e-04
2.626649538589e-04
2.550412609599e-03
6.014031515604e-03
5.628686910939e-03
0.0
3.011280459441e-03
5.891985303537e-03
6.031512279974e-03
6.009444186578e-03
4.549765932770e-03
5.010826545378e-03
5.864343994050e-03
5.879214029285e-03
4.848773824588e-03
1.474383398765e-04
3.191688509645e-03
3.230904037540e-03
0.0
5.898372924748e-03
6.024797090299e-03
5.861254662737e-03
1.875139568358e-04
1.924224746449e-04
5.871534849748e-03
5.866174925494e-03
4.404639489746e-03
3.191281210692e-03
4.696669621923e-03
3.777426634559e-03
3.187300555971e-03
1.702406008908e-04
1.962141474448e-04
1.658004844312e-04
1.808088655353e-04
3.181347729344e-03
2.857668427393e-03
0.0
4.096797302130e-03
0.0
5.867214387610e-03
5.859324762587e-03
5.872796053912e-03
1.028821985916e-03
1.936630062470e-03
5.864275948506e-03
5.016839626708e-03
5.891943567254e-03
5.328174982673e-03
5.640245512770e-03
2.701665040976e-03
6.022983703665e-03
6.017003585591e-03
5.139388847066e-03
5.463393282501e-03
4.411575174768e-03
0.0
2.784277416710e-03
4.061884078683e-04
5.259286228376e-03
2.908833121132e-03
4.850143225763e-03
1.472710261241e-03
5.420604269259e-04
5.189202363176e-03
3.073447472489e-03
2.406449859391e-03
4.889636581614e-03
5.255592395656e-03
2.405392247394e-03
4.614670723085e-03
4.023251322217e-03
4.374804059547e-03
4.518070815714e-03
2.466020010935e-03
2.911636777842e-03
3.205404967252e-03
4.113353234629e-03
5.029297459228e-03
4.665945937406e-03
1.491277829959e-03
5.243929663885e-03
4.941851688277e-03
3.558682000750e-03
4.285917425276e-03
4.244579152953e-03
5.321773155122e-03
5.122199489663e-03
3.931103671375e-03
5.320806263415e-03
4.878121851522e-03
4.664188533065e-03
5.406777608810e-03
5.283094587083e-03
4.496087669439e-03
4.444458481023e-03
1.481875117849e-03
1.376911560334e-03
7.503612397896e-04
4.158489178225e-04
5.132283977735e-03
5.119873486994e-03
4.012352521064e-04
5.178558947058e-03
3.672287986049e-03
4.759407346753e-03
4.816897172186e-03
2.140610803278e-03
4.851861367702e-03
3.563436395175e-03
4.454648778840e-03
5.513811741196e-03
1.417713283077e-03
5.445572691693e-03
4.665806061983e-03
1.612851643597e-03
1.714759419245e-03
3.438255392646e-03
4.137623841864e-03
2.296870595819e-03
4.830815432738e-03
4.338838747336e-03
3.342675223842e-03
4.545437980776e-03
4.722218982109e-03
4.634762812797e-03
1.261713162161e-03
3.173154214210e-03
5.055839016286e-03
4.803789849080e-03
2.857994266569e-03
4.062765352511e-03
5.318088809597e-03
4.463221862301e-03
7.092725784376e-04
7.188837629254e-04
1.457330486298e-03
4.991375457445e-03
4.302592537165e-03
3.790381226361e-03
3.831560113468e-03
5.088582652342e-03
3.475465703060e-03
4.681796565250e-03
1.519021719428e-03
5.403126934034e-03
3.381852318330e-03
1.662591917742e-03
3.207575975263e-03
2.427493216678e-03
1.903845874229e-03
3.731045389275e-03
0.0
0.0
4.284173046855e-03
1.393362755241e-03
4.325320826384e-03
4.194819161297e-03
2.641355429632e-03
1.719362769164e-03
5.077648961166e-03
6.798414436796e-04
2.568347176664e-03
5.235874665598e-03
1.155384575714e-03
4.027503858662e-03
3.708502873320e-03
1.170523382264e-03
5.180869859233e-03
4.605325228012e-03
1.354425768675e-03
5.208339196432e-03
5.174454579939e-03
1.560392004205e-03
2.066462287853e-03
1.601268088310e-03
4.585233918786e-03
3.608599847270e-03
5.182420533551e-03
5.047083544607e-03
4.455861124158e-03
4.416860348409e-03
1.262227011679e-03
4.546872248422e-03
4.575231375888e-03
3.645268122884e-03
4.332465809534e-03
4.772714813264e-03
3.224253829144e-03
4.911353602778e-03
3.039446067918e-03
3.515433690721e-03
2.274449684327e-03
2.423089078890e-03
4.439297428605e-03
3.365892711140e-03
1.732320824868e-03
8.737837506730e-04
4.468449371054e-03
1.692563081125e-03
5.400363428095e-03
4.604462714681e-03
4.720726376404e-03
5.614884535387e-03
2.906736885668e-03
1.519615723243e-03
9.588952552172e-04
4.497763875840e-03
4.168753252709e-03
6.612546370244e-04
2.334923660638e-03
1.349036943465e-03
4.164466221195e-03
2.463752493733e-03
4.155025201166e-03
2.292333716336e-03
4.974481416777e-03
1.996568548932e-03
4.538601579327e-03
1.422865093935e-03
4.366068561899e-03
3.354002373652e-03
4.590163414602e-03
2.268610930300e-03
1.307910686375e-03
3.881907493683e-03
4.205574957263e-03
2.920421497113e-03
4.187784013099e-03
1.586935699350e-03
4.244922793799e-03
1.226338966711e-03
5.150001748039e-03
4.374413810112e-03
4.622543358684e-03
5.394833408084e-03
3.667741289077e-03
1.224125341458e-03
4.102435654437e-03
5.282422523208e-03
2.057763750215e-03
4.628995763582e-03
4.635584555752e-03
1.589158083945e-03
4.234441115403e-03
3.821646127754e-03
1.821001696294e-03
2.204998645608e-03
3.531838972984e-03
4.458682283978e-03
2.705458114869e-03
3.369397376081e-03
4.409627360569e-03
3.999189459908e-03
3.940589006345e-03
3.315097548747e-03
5.049644574621e-03
3.970188919273e-03
3.865457449799e-03
5.335960465199e-03
4.786774600188e-03
4.326858616178e-03
4.742369029763e-03
2.549037087326e-03
2.376936366428e-03
1.302651264701e-03
4.273366818875e-03
2.508792953611e-03
4.299375558000e-03
4.132696996014e-03
3.389416804487e-03
2.034302780513e-03
2.172486861284e-03
2.165955219120e-03
2.337607654919e-03
1.391516248166e-03
4.919034255652e-03
2.855049591196e-03
4.941701353565e-03
3.027877065094e-03
4.063567962409e-03
3.458337729904e-03
3.331673446639e-03
1.430769057123e-03
5.141025598269e-03
5.386317345378e-03
4.241134245443e-03
2.509978051558e-03
3.760813505748e-03
4.270720268813e-03
2.680282115890e-03
2.797254708148e-03
2.037210772217e-03
1.757966815576e-03
2.721514213298e-03
1.824017326780e-03
1.691969220267e-03
3.496848774705e-03
4.195328690588e-03
4.995266969494e-03
2.135838877743e-04
2.937051639141e-03
2.897351463058e-03
2.682523461315e-03
4.103488450026e-03
3.156230924954e-03
2.130711016344e-03
2.894759596741e-03
4.775391991284e-03
2.173955602432e-03
7.788298120351e-04
1.098630592693e-03
1.847249263452e-03
2.207153680070e-03
3.068504768790e-03
3.066805177260e-03
1.285438509384e-03
1.138227833186e-03
3.930039062681e-03
1.865163626252e-03
4.708651258612e-03
4.829683528524e-03
3.996321467093e-03
4.986241804288e-03
5.148048922335e-03
3.260814721479e-03
4.534131096749e-03
1.457572490377e-03
3.023482251318e-03
2.967208668201e-03
1.645155887212e-03
1.166961927378e-03
2.469642956953e-03
2.937206611966e-03
3.106798960592e-03
1.956772177711e-03
3.328078992345e-03
2.976908204584e-03
3.106378807451e-03
2.248119148986e-03
4.413942525391e-03
4.439751776256e-03
2.976392922480e-03
5.010927287276e-03
1.627877766205e-03
5.381669347488e-03
3.196867194148e-03
5.344914307263e-03
4.057033022443e-03
1.547485956853e-03
4.123901821043e-03
5.087178339347e-03
3.367611906554e-03
2.440942977478e-03
4.251329185006e-03
3.207452396219e-03
1.238538391459e-03
5.593643574323e-03
1.085824202323e-03
5.357726211726e-03
5.214885560155e-03
4.544742657186e-03
3.963126868919e-03
4.882709138368e-03
3.144855381723e-03
3.686700440280e-03
5.279854728997e-03
4.499470890681e-03
4.577778607108e-03
4.305077680676e-03
1.417434976899e-03
4.713217591497e-03
5.753142823153e-03
5.329243380658e-03
2.984954618286e-03
3.988249552619e-03
3.801645055376e-03
3.235172335353e-03
4.367027888534e-03
4.537516687745e-03
9.970547420201e-04
1.879690939538e-03
3.146058965649e-03
3.016269873665e-03
3.169182906176e-03
5.469468509572e-03
5.150681403781e-03
5.240179499594e-03
2.868576175316e-03
4.786586511308e-03
4.405806436379e-03
5.327777423767e-03
4.543377517499e-03
3.194953866718e-03
3.016658390278e-03
4.683655011930e-03
5.186209915555e-03
4.713484120124e-03
4.548206090170e-03
4.976866936040e-03
5.217579174467e-03
4.840160058744e-03
3.891876227783e-03
2.750258353967e-03
4.710107048531e-03
4.455858956637e-03
1.652249011372e-03
3.184856128294e-03
3.569010409292e-03
3.985083673359e-03
1.671830613806e-03
3.055529241679e-03
4.284410717115e-03
3.160882025297e-03
3.286974656951e-03
4.234469480443e-03
3.357266040902e-03
5.832224582000e-04
3.799395819488e-03
4.636565872287e-03
5.317751045333e-03
3.481406310990e-03
3.589447844127e-03
4.274698478407e-03
8.890581030904e-04
4.506465777264e-03
3.816858646074e-03
3.354799917759e-03
4.576186082816e-03
1.676633756965e-03
4.747043128416e-03
5.187298868340e-03
4.376407166304e-03
4.744547438801e-03
4.830907234008e-03
5.222428902797e-03
1.201860364893e-03
4.408544086062e-03
5.240903661220e-03
4.852152895878e-03
4.077198400922e-03
3.222276421180e-03
3.512191017662e-03
9.501978410135e-04
5.017421712005e-03
1.785962296740e-03
1.474080171039e-03
4.696567737555e-03
5.360782323002e-03
1.502195583133e-03
3.694570648950e-03
4.514270677664e-03
3.456703744762e-03
1.710610669055e-03
2.238950842234e-03
1.102844825228e-03
1.463725195595e-03
1.298709706981e-03
3.778806340878e-03
6.016319104850e-03
1.770958764898e-03
5.108227611126e-03
2.760707398476e-03
4.377813891094e-03
1.251866579467e-03
5.389992930062e-03
1.329712956055e-03
2.093643212440e-03
4.546924323321e-03
3.272001809033e-03
5.085454575005e-03
2.505652950449e-03
4.652855770583e-03
5.305274251484e-03
4.381154287587e-03
5.353154153797e-03
4.847010383273e-03
4.984300817298e-03
1.461091507052e-03
4.931565832531e-03
4.651005362572e-03
3.390008201393e-03
2.079335679828e-03
5.500831082514e-03
1.712811546916e-03
1.993152190864e-03
4.885708378640e-03
1.216541976104e-03
3.495171392387e-03
4.675591106622e-03
5.272532937545e-03
5.420840566733e-03
4.583883740699e-03
5.018032232522e-03
2.928193951873e-03
4.734205484298e-03
2.384407325898e-03
5.226115629599e-03
2.691920380854e-03
2.821439891355e-03
3.352681362175e-03
3.005156168196e-03
3.913667205993e-03
3.168162756046e-03
3.350908701417e-03
1.499540076307e-03
3.184302201097e-03
5.155825657334e-03
5.317650690563e-03
4.630365567379e-03
5.181610671434e-03
3.234889799458e-03
4.952004252636e-03
3.313357221721e-03
5.062045811440e-03
4.816274352400e-03
4.818099421099e-03
4.206405183177e-03
3.056304276052e-03
5.021296019776e-03
4.023314824600e-03
1.538746154334e-03
1.749640413363e-03
2.581840747201e-03
3.659895849796e-03
5.198547264466e-03
4.682421595145e-03
3.094059173860e-03
4.145541869622e-03
4.812672239436e-03
5.049278077315e-03
5.190177469339e-03
4.186777916003e-03
4.922584909275e-03
3.519092201106e-03
4.841945469779e-03
3.459285380478e-03
5.318103245047e-03
5.375730321285e-03
3.907284938938e-03
1.543762532817e-03
4.924088818986e-03
3.784631978290e-03
2.966232018542e-03
4.115084444643e-03
4.786551662215e-03
1.580177343230e-03
3.609609721518e-03
4.218839080460e-03
5.235324707913e-03
4.343885302361e-03
4.794481932196e-03
4.091858975395e-03
3.838629298260e-03
4.150165290363e-03
5.016907512540e-03
4.843633938430e-03
4.487236376390e-03
5.391551705940e-03
3.964776956212e-03
2.504722224904e-03
5.126866157334e-03
5.351865102208e-03
3.421523486689e-03
3.585506366848e-03
2.798993443276e-03
4.621665338398e-03
2.797993190934e-03
4.008922037687e-03
2.829376981743e-03
4.717608549950e-03
5.388550033297e-03
2.927070685157e-03
9.888206599125e-04
5.353078015974e-03
2.956776001860e-03
3.401650254318e-03
5.219422455657e-03
4.518245132016e-03
4.710258760873e-03
3.004500417496e-03
7.783076031666e-04
5.413634110948e-03
3.785549847173e-03
4.475770357229e-03
5.138569278830e-03
4.994909691429e-04
4.670933741567e-03
2.116054709690e-03
4.214096454066e-03
3.759983120660e-03
2.888083435173e-03
5.100516085727e-03
3.877479781614e-03
2.594149316670e-03
3.983879265493e-03
8.165376085930e-04
4.568690469439e-03
4.756083401336e-03
5.452995028680e-03
4.864947734128e-03
2.043386112127e-03
4.669335817464e-03
5.443502610785e-03
5.653283028556e-03
4.924221690428e-03
3.131071400812e-03
4.275149951314e-03
5.153531541623e-03
3.483038301481e-03
4.661124208018e-03
4.348587759454e-03
4.969873350217e-03
4.879399467596e-03
3.061812406022e-03
3.059832632554e-03
4.421565437881e-03
4.367095910945e-03
3.892926071110e-03
4.346817112173e-03
3.712232804534e-03
5.218395199065e-03
3.094455246611e-03
6.015990180958e-03
3.548926640244e-03
3.622651461457e-03
3.720989189851e-03
1.917689178557e-03
3.325283759535e-03
4.075520205487e-03
3.823291195348e-03
4.324099751295e-03
4.442674123027e-03
4.635684442584e-03
9.413748427402e-04
3.116803001466e-03
2.990095831993e-03
4.183071766205e-03
4.385629020003e-03
5.129593891229e-03
1.345885066556e-03
1.412365657132e-03
3.622797484364e-03
3.154436867303e-03
2.871305297426e-03
3.029007655749e-03
4.352626062824e-03
1.378394098464e-03
3.551958554456e-03
4.673475020981e-03
1.371021261255e-03
5.626560674904e-03
5.140839489265e-03
3.418542020247e-03
4.761469995819e-03
5.340586268803e-04
4.506684223349e-03
3.820960628806e-03
5.232531716935e-04
5.112554520633e-03
1.291496177795e-03
4.218615333140e-03
3.856857888662e-03
3.312116629244e-03
3.970751915482e-03
5.253907736522e-03
4.273307236225e-03
3.748874096129e-03
3.658427402968e-03
4.072848571604e-04
1.086582957134e-03
4.988340503471e-03
4.027251590836e-03
5.093944963423e-03
2.082136659873e-03
4.849015704641e-03
5.165290452317e-03
3.099958031898e-03
4.951145023831e-03
4.800202598035e-03
4.202189340322e-03
3.419837614494e-03
3.627723820665e-03
5.408792691943e-03
3.669252203194e-03
3.949521165470e-03
3.687500356751e-03
4.577290825851e-03
3.457616430748e-03
2.136542330794e-03
3.737765005846e-03
2.300519927022e-03
4.313534934977e-03
2.336835197399e-03
4.185013498204e-03
5.058632123647e-03
4.845402042790e-03
3.258903797757e-03
4.157867652743e-03
4.893039108893e-03
4.931637404463e-03
1.098595117713e-03
4.276866742040e-03
5.348494697504e-03
2.274754905370e-03
3.720777205155e-03
5.805350037142e-04
5.023459904507e-03
2.007146323956e-03
3.516536072154e-03
4.448684330717e-03
4.188265097600e-03
3.987994876210e-03
3.912543751932e-03
2.560060998670e-03
2.716022476841e-03
5.063727723484e-03
4.170414237267e-03
3.608810319198e-03
4.473149988466e-03
3.442042596625e-03
2.210516303654e-03
2.509306508328e-03
3.743956289805e-03
3.211982025181e-03
4.884087041847e-03
3.294332851053e-03
5.470028085312e-03
4.968312631613e-03
3.648648400585e-03
5.541933827682e-03
2.466546029825e-03
5.345527466215e-03
3.948482313971e-03
4.328605554235e-03
5.112321421619e-03
2.597683647667e-03
4.115029269880e-03
3.480150837066e-03
4.019186076767e-03
2.272393606485e-03
4.466658165346e-03
3.272828574776e-03
3.852140252587e-03
3.985530946530e-03
5.486019707335e-04
3.987424940170e-03
8.554820142324e-04
9.504026979452e-04
3.679756779392e-03
4.895621551102e-03
4.114719913355e-03
2.260582699587e-03
5.890341927598e-03
2.361196323927e-04
2.408933314321e-03
3.696570178526e-03
3.550836608979e-03
2.949897068498e-03
2.521788525811e-03
3.865826064652e-03
4.111851899735e-03
4.291338337804e-03
5.060421643315e-03
1.172731196860e-03
3.380194152908e-03
3.645284340248e-03
1.945070109137e-03
3.263324571413e-03
4.151874911649e-03
4.514501832048e-03
6.678202814272e-04
4.351335771455e-04
1.356777941614e-03
3.683303970356e-03
2.761138937455e-03
2.431180347952e-03
2.170243072617e-03
3.811952085602e-03
4.376533666742e-03
3.777763179950e-03
2.723670872440e-03
4.310662224790e-03
3.611591761329e-03
4.750283438547e-03
3.815774579287e-03
3.851468414051e-03
1.944050795949e-03
2.890987107893e-03
3.905608017060e-03
4.252910968047e-03
3.994175970999e-03
2.110867462038e-03
3.944631663858e-03
2.390664015242e-03
1.124080825948e-03
5.376953591042e-03
1.187499430943e-03
2.482769913719e-03
3.879865431681e-03
2.200126612380e-03
3.952345974418e-03
1.811928905985e-03
3.356343314340e-03
3.983365723056e-03
3.440832380153e-03
3.590886272854e-03
5.778240294564e-04
5.177570466669e-03
2.852018100216e-03
5.139923105349e-03
4.369987342579e-03
4.075819768185e-03
4.112944593259e-03
2.558534294897e-03
8.044732495801e-04
4.846447285547e-04
4.204879470093e-03
5.110788681143e-03
2.351481271792e-03
4.405521083047e-03
2.090274329685e-03
4.476809174747e-03
5.754213561495e-03
1.628784469014e-04
5.886643384746e-03
5.901414175979e-03
3.458575707159e-03
2.812867409509e-03
4.241011420016e-03
2.631198119222e-03
8.395301720450e-04
4.442063176975e-04
5.416028733597e-03
4.290643224770e-03
3.238039868260e-03
6.016407931761e-03
1.526058316679e-03
6.021404174662e-03
4.252293004766e-03
2.770700704573e-03
4.037975120995e-03
2.603169544957e-03
1.275543801189e-03
2.434051418874e-03
4.504021302162e-03
5.149429450184e-03
2.644039120232e-03
4.570681309337e-03
0.0
2.683791218028e-03
4.759413754436e-03
2.380487600569e-03
2.182231533104e-03
4.074582213105e-03
1.142827734401e-03
1.613360141681e-03
1.808060117334e-03
2.084692713343e-03
3.738888209100e-03
3.552566181395e-03
4.601487464017e-03
5.387303345294e-03
1.895037985309e-03
4.547788030597e-03
5.406404464741e-03
2.430574595185e-03
8.388200309560e-04
2.308570276636e-03
3.567446514914e-03
4.605708546548e-03
3.532472732913e-03
9.838862332244e-04
4.035330324992e-03
1.450893591273e-03
3.586284318698e-03
3.831672797715e-03
4.170149154859e-03
4.132286282917e-03
2.127223100425e-03
9.534914560384e-04
4.136513997941e-03
1.590009906794e-03
3.818359164413e-04
5.392622240487e-03
5.134895118372e-03
2.358553379798e-04
4.335577273877e-03
1.652975194542e-03
1.733439247887e-03
4.869520458032e-03
4.202282593856e-03
4.701518647351e-03
2.723483443401e-03
3.214868672807e-03
5.618894135867e-03
1.429456025818e-03
4.994104156300e-03
3.749384831161e-03
1.080098481844e-03
4.468944246879e-03
2.850501028317e-03
5.229780796343e-04
2.395768144624e-03
4.403868178899e-03
4.552935884602e-03
1.122570998337e-03
3.592706244326e-03
4.742720139637e-03
4.941703297220e-03
2.257577943858e-03
1.773224354185e-03
3.849204691396e-03
4.071024716265e-03
5.196053913262e-04
5.764981452673e-03
5.619546678147e-03
3.612944456398e-03
5.643094491975e-03
5.633179208426e-03
2.812315344072e-03
2.684208433063e-03
5.774953852408e-03
0.0
1.642459376677e-03
3.615456688328e-03
2.303853360214e-03
2.356132906425e-03
1.288375400597e-03
1.523495052580e-03
3.689273836909e-03
2.596505031526e-03
1.903570888892e-03
4.768488117706e-03
6.016953446853e-03
6.019036760985e-03
2.772486331110e-03
3.327990862488e-03
3.338379874678e-04
1.033148740315e-03
1.155791037094e-03
1.182207438934e-03
4.038315348238e-03
2.314844929729e-03
2.560267431529e-03
6.984958962330e-04
5.129856721972e-03
2.519676737210e-03
5.369560606069e-03
4.921920194395e-03
6.028148600870e-03
6.024927523322e-03
3.694826416134e-03
2.643467046654e-03
1.596779775992e-03
2.730315514544e-03
5.897744789275e-03
7.273837460651e-04
8.727452914998e-04
5.171338012505e-03
3.477662201300e-03
5.409990092851e-03
4.766370635138e-03
5.205506796535e-03
4.984047288898e-03
3.660646591583e-03
2.009740382611e-03
1.966632147612e-03
4.354966851432e-03
5.090565716970e-03
3.059094088471e-03
3.470038770667e-03
3.693952598066e-03
3.772778857695e-03
9.470076460962e-04
1.787152598033e-03
5.767752696873e-03
4.034960654971e-03
5.756079931259e-03
5.497145112359e-03
4.509775173530e-03
5.432774287522e-03
2.645253503307e-03
2.511337306943e-03
5.406759837386e-03
2.304638287390e-04
1.771966949554e-03
5.883028560639e-03
8.247074295860e-04
3.324809475671e-03
5.529445601793e-03
5.796810560745e-04
3.735041338850e-04
6.010222977965e-03
3.068950323843e-03
5.659948107382e-03
5.391425944959e-03
3.060672020253e-03
3.701494320501e-04
5.629476601577e-03
9.427571928057e-04
5.445974576444e-03
5.891393706380e-03
5.428284510192e-03
1.205305933195e-03
3.730388698424e-03
2.799861645862e-03
4.776394335280e-03
6.019211625132e-03
4.734875419906e-03
6.017874104347e-03
5.525430350757e-04
5.764155817737e-03
1.379826528368e-03
7.818426790371e-04
5.771398210854e-03
5.772672408194e-03
5.750122728570e-03
3.364853212441e-03
3.669284283972e-03
1.289535518306e-03
5.767367083341e-03
2.258902969130e-03
7.533765705703e-04
4.926344783199e-03
3.188420317882e-03
5.482259513434e-03
5.953772275136e-03
5.893932355244e-03
1.556562156404e-04
7.519299109284e-05
3.129847729158e-03
3.204854259840e-03
5.889443725006e-03
5.949944079456e-03
3.717729449495e-04
0.0
5.412787547919e-03
5.428215329942e-03
1.134510679474e-03
5.501228040530e-03
3.826590884489e-03
3.385765392231e-03
4.259215926484e-03
1.033495775153e-03
4.492845514927e-03
9.286955643621e-04
3.016528213224e-03
5.456768976603e-03
5.324962882905e-03
3.256994374191e-03
3.913984556786e-03
5.533514411026e-03
5.100824001865e-03
4.804745634301e-03
3.058531543379e-03
4.339009031687e-03
5.424931143324e-03
1.698845153725e-03
4.086781350245e-04
5.273729960381e-03
4.969714239598e-03
7.789488230218e-04
4.461302677928e-03
5.625097067298e-03
5.215165969830e-03
5.527785936845e-03
4.184635835076e-03
2.450732908034e-04
1.273338932172e-03
1.607268086116e-03
3.578185125380e-03
4.310413086534e-03
5.506795170732e-03
5.617673364480e-03
6.645911850499e-04
6.388748237895e-04
1.019502716968e-03
4.467708076661e-03
2.159520161712e-03
5.529519713859e-03
1.082739524012e-03
5.378468444182e-03
3.624426704377e-03
5.642484205688e-03
4.966747949266e-03
3.587861483021e-03
5.771512121934e-03
5.779451194585e-03
5.760792399076e-03
7.089390944599e-04
5.397932790268e-03
5.622343722044e-03
5.472950722519e-03
5.052268972403e-03
5.880549672383e-03
4.768122438881e-03
0.0
9.845756963830e-04
5.283361989644e-03
3.879740068610e-03
5.433335536349e-03
5.248543119057e-03
5.652713428879e-03
4.807093912347e-03
5.652238210163e-03
5.501769948461e-03
5.478616351915e-03
2.254971077609e-03
6.018212737185e-03
3.451522871175e-03
5.433186761320e-03
5.068656971481e-04
5.235659828438e-03
4.498616084438e-03
6.477069853908e-04
1.135724772343e-03
4.905082491478e-03
5.637492893173e-03
5.504426529729e-03
5.673913725339e-03
3.852881204388e-03
3.799041860717e-04
5.935897059171e-04
4.188938165995e-04
8.250409444333e-04
1.478748655910e-04
2.994768496768e-03
5.427348189453e-03
5.458882754827e-03
3.883455718842e-03
2.608660953034e-03
5.476751558409e-03
5.429576111220e-03
5.784117117048e-03
5.420830804507e-03
5.193598780718e-03
5.135394386583e-04
5.681154926280e-04
5.488737210922e-03
5.166391021770e-04
7.619709822299e-04
4.832364846616e-04
5.799786674798e-04
5.645675802182e-03
5.655037542831e-03
5.514781828190e-03
5.671443408193e-03
5.255264111174e-03
4.033418773149e-03
5.899144122697e-03
1.388436502105e-03
3.180255969687e-03
8.723897877040e-04
2.133422569490e-04
6.015531814482e-03
3.502525969212e-03
8.808568387309e-04
2.855369314806e-03
5.783822611068e-03
5.499347830224e-03
5.655534667043e-03
2.044016280955e-03
5.432286145459e-04
5.780287558168e-03
6.015607847563e-03
6.035949087319e-03
3.352497016113e-03
5.397561630392e-03
7.778562056283e-04
5.539597143374e-03
2.048357633213e-04
5.660676748681e-03
5.761438663708e-03
2.169999861615e-04
5.276842850465e-03
4.633513032721e-03
5.657467102238e-03
5.913925366103e-03
4.247858577438e-03
5.671720231098e-03
5.525428271373e-03
4.362177274661e-03
5.479739394228e-03
2.387201356291e-03
3.053723610195e-03
5.526446984933e-03
5.736294853841e-03
0.0
3.063983621229e-03
5.747940021174e-03
1.061697143843e-03
5.531390322422e-03
5.495470709881e-03
5.762937850711e-03
1.031440225739e-03
8.053626735848e-04
3.509970528096e-03
5.010988788466e-03
1.260771232346e-04
5.677193264911e-03
4.090526400836e-03
1.039673297651e-03
3.888574816327e-03
5.772338171833e-03
3.681185629207e-03
3.038880930972e-04
2.159618659612e-03
3.184608949978e-03
3.800834338169e-03
5.524986598456e-03
3.091083311451e-03
3.266927546244e-03
5.190819916672e-04
5.520367014093e-03
5.284258696945e-03
8.877738012256e-04
5.674860832192e-03
5.710960226183e-03
3.423111596940e-03
4.198163726001e-03
3.122389092001e-03
3.191264477013e-03
3.380114392671e-03
5.252725700940e-03
7.633269386085e-04
5.525012493520e-03
3.559702453178e-03
5.772557366742e-03
5.241338347213e-03
3.993508198578e-03
5.321259532480e-03
5.468684898978e-03
5.796731642521e-03
2.386710946756e-04
5.348756869277e-03
5.540450075665e-03
5.978130445139e-04
2.916813067191e-03
3.606876982128e-04
5.579480516134e-03
5.435102275866e-05
2.347105723577e-04
0.0
2.239879676324e-04
0.0
2.208835176568e-04
0.0
2.192816310725e-04
0.0
2.183551078819e-04
0.0
2.177447242117e-04
0.0
2.172874810891e-04
0.0
2.169088761013e-04
0.0
2.165812571891e-04
0.0
2.163067799562e-04
0.0
2.161089961484e-04
0.0
1.921899187493e-04
2.160157345835e-04
0.0
2.160482687043e-04
1.323421970481e-04
0.0
2.162052335157e-04
0.0
0.0
2.164980151864e-04
0.0
2.168638346827e-04
0.0
2.173516319486e-04
0.0
2.176986238953e-04
0.0
9.016836262018e-05
2.183264667952e-04
0.0
2.180259057682e-04
0.0
2.188635863817e-04
2.162274554634e-04
0.0
2.200601213627e-04
0.0
2.134577559084e-04
0.0
2.295071722259e-04
0.0
2.037438383844e-04
2.561602174152e-04
0.0
0.0
0.0
2.489403774870e-04
3.381168123563e-04
1.096011085410e-04
1.389386642423e-04
3.117134079799e-05
4.203610167562e-04
2.953514174996e-04
4.826549320888e-04
3.016051183327e-04
4.888139157643e-04
3.034725830538e-04
4.902108241195e-04
3.041244099264e-04
4.906961019575e-04
3.044353788759e-04
4.908204287169e-04
3.045894756417e-04
4.907692751073e-04
3.046589286818e-04
4.906276979696e-04
3.046789322111e-04
4.904405776792e-04
3.046700849158e-04
4.902385274316e-04
3.046486418285e-04
4.900516184342e-04
3.046327325226e-04
5.242848370484e-04
4.899190690885e-04
3.046334283079e-04
4.898782815419e-04
3.179874320319e-04
3.046579698897e-04
4.899484300255e-04
3.046944221675e-04
4.901229707787e-04
3.047670239757e-04
3.593970375228e-04
4.904061378559e-04
3.048139778154e-04
4.907401935828e-04
3.049505571778e-04
4.911751859941e-04
3.049001739043e-04
4.914468548867e-04
3.052575087441e-04
4.921371600382e-04
3.046831523221e-04
4.916875076712e-04
3.056298073797e-04
4.086551355002e-04
3.029861267731e-04
4.929887518901e-04
3.070561713850e-04
4.887263972263e-04
2.991538554570e-04
4.950413620353e-04
3.106572465468e-04
4.809972224893e-04
5.043649847567e-04
2.124377591722e-04
5.807884391466e-04
4.761407166554e-04
4.339252431865e-04
3.422813632071e-04
3.029674481017e-04
7.070867900915e-04
7.959193303710e-04
6.253017969558e-04
7.890004012234e-04
6.221363949339e-04
7.902119992200e-04
6.232743378459e-04
7.912403387225e-04
6.242768910902e-04
7.918679183924e-04
6.249264044027e-04
7.921872251415e-04
6.252827381142e-04
7.922910956479e-04
6.254265982603e-04
7.922495576070e-04
6.254272811085e-04
7.921122860893e-04
6.253347160669e-04
7.919206435063e-04
8.190320528747e-04
6.251914668857e-04
7.917245357460e-04
6.250494796087e-04
6.601122070564e-04
7.916106186425e-04
6.249907023649e-04
6.151587336455e-04
7.916064560976e-04
6.250487707079e-04
7.917731340070e-04
6.252393626774e-04
7.919589849500e-04
6.254696238108e-04
7.924602386790e-04
6.258520532773e-04
7.925800824591e-04
7.166216251072e-04
6.260651802570e-04
7.936356142050e-04
6.266718473028e-04
7.927647651834e-04
7.961407180996e-04
6.265012585514e-04
7.909494704049e-04
6.284215167125e-04
8.008724680462e-04
6.258022401422e-04
7.774314409330e-04
8.088075602537e-04
6.308005741966e-04
6.105716282763e-04
5.292464875779e-04
7.647955740985e-04
8.863158103774e-04
6.977730176136e-04
7.804843509002e-04
6.066756825686e-04
1.032528680127e-03
9.323887220942e-04
1.097981050082e-03
9.344020797173e-04
1.101264593356e-03
9.348954780416e-04
1.102037623267e-03
9.355764002203e-04
1.102802067415e-03
9.362623126358e-04
1.103430556904e-03
9.367867162142e-04
1.103836800920e-03
9.370954764910e-04
1.104022627597e-03
9.372218071483e-04
1.104036697632e-03
9.372068093879e-04
1.103920508877e-03
1.117619374062e-03
9.370957662869e-04
1.103719047252e-03
9.369196274770e-04
9.261513620317e-04
1.103480682968e-03
9.367420727141e-04
1.103347186011e-03
9.367450145225e-04
1.103392079913e-03
9.622131899568e-04
9.368969922443e-04
1.103694692331e-03
9.373141550631e-04
1.103951497419e-03
9.375030009138e-04
1.104687114539e-03
9.382209398496e-04
1.104539841040e-03
9.378447695807e-04
1.106370907704e-03
9.392366398972e-04
1.021141825227e-03
9.372679358670e-04
1.103342739752e-03
9.422935496188e-04
1.111907271972e-03
9.260461471264e-04
1.095394210812e-03
1.123312727808e-03
8.323479749310e-04
1.128566703084e-03
9.953026640652e-04
1.042237675871e-03
9.591676168155e-04
9.134543494838e-04
1.317555908262e-03
1.411154381567e-03
1.241457495901e-03
1.403423847767e-03
1.236480862040e-03
1.403051953662e-03
1.236284882551e-03
1.403547908576e-03
1.236815340164e-03
1.404204483020e-03
1.237470339378e-03
1.404743475764e-03
1.237987658795e-03
1.405026198117e-03
1.238234757460e-03
1.405120931524e-03
1.238319585092e-03
1.405059704162e-03
1.421124237200e-03
1.238289863139e-03
1.404896347905e-03
1.238178938020e-03
1.272248389347e-03
1.404621066361e-03
1.230468354784e-03
1.237927192509e-03
1.404201724790e-03
1.237585739367e-03
1.404253981136e-03
1.237710869377e-03
1.404287754182e-03
1.238054426352e-03
1.405452877794e-03
1.320006507428e-03
1.238915382257e-03
1.404614785989e-03
1.238649182603e-03
1.407749646635e-03
1.402917868988e-03
1.240144152721e-03
1.412832891455e-03
1.237451068507e-03
1.392398719858e-03
1.427258914911e-03
1.242071057120e-03
1.224550736858e-03
1.135722002447e-03
1.334507275476e-03
1.464477983734e-03
1.308290235552e-03
1.389742403768e-03
1.221865126859e-03
1.644828616560e-03
1.545981159414e-03
1.713069814165e-03
1.549054825424e-03
1.715773419310e-03
1.548987889924e-03
1.715851555195e-03
1.549284187277e-03
1.716336015095e-03
1.549831225943e-03
1.716979131492e-03
1.550462280830e-03
1.717548348098e-03
1.550748049988e-03
1.717702537870e-03
1.550767686370e-03
1.717681668252e-03
1.725803895536e-03
1.550761344641e-03
1.717583419006e-03
1.537714373053e-03
1.550852574204e-03
1.717508033845e-03
1.550787156715e-03
1.717211703352e-03
1.550270291517e-03
1.580962922022e-03
1.716371127971e-03
1.549692184463e-03
1.716550609062e-03
1.550574202923e-03
1.716818436997e-03
1.551114104077e-03
1.719308097921e-03
1.553274409557e-03
1.716626027886e-03
1.550768170919e-03
1.626829546040e-03
1.554713128758e-03
1.723777182374e-03
1.538464917325e-03
1.708370553989e-03
1.734059786548e-03
1.441855297972e-03
1.718205167646e-03
1.580532811126e-03
1.653228733294e-03
1.570518538296e-03
1.533736984822e-03
1.929041500633e-03
2.023740013829e-03
1.854265828309e-03
2.016530832047e-03
1.849333680069e-03
2.016057688508e-03
1.849195180988e-03
2.016381773036e-03
1.849523099890e-03
2.016986771475e-03
1.850201123651e-03
2.017903593159e-03
1.851073613590e-03
2.018100274694e-03
1.851198313231e-03
2.017765292166e-03
2.038346331878e-03
1.850748802689e-03
2.017763268230e-03
1.885943985980e-03
1.851152239863e-03
2.018100772715e-03
1.841102677324e-03
1.851647953070e-03
2.018159675524e-03
1.851486642937e-03
2.017416700478e-03
1.850595558474e-03
2.014905500803e-03
1.941018760619e-03
1.849191983526e-03
2.018440167145e-03
1.852222603884e-03
2.015647441730e-03
2.027681622993e-03
1.852157743951e-03
2.006230484387e-03
1.857841458147e-03
2.036787414555e-03
1.836927752623e-03
1.752304649194e-03
1.929925313480e-03
2.063297522828e-03
1.919603130811e-03
2.001189499676e-03
1.831777990773e-03
2.258393672976e-03
2.159705713490e-03
2.327059706199e-03
2.161659692035e-03
2.328518888195e-03
2.162672994817e-03
2.329425293706e-03
2.162300175437e-03
2.329523762820e-03
2.162994370433e-03
2.330352635693e-03
2.163819996874e-03
2.331651210940e-03
2.165193397044e-03
2.332104205239e-03
2.349563023748e-03
2.163170879264e-03
2.156618435812e-03
2.330120032603e-03
2.163760401776e-03
2.331149868869e-03
2.165613130817e-03
2.332544467419e-03
2.165577836067e-03
2.195603305539e-03
2.332198422978e-03
2.165170022173e-03
2.331421633703e-03
2.163880370449e-03
2.325581563359e-03
2.161800956061e-03
2.335429634205e-03
2.170950976162e-03
2.156347734429e-03
2.326285427350e-03
2.254719671384e-03
2.352490791724e-03
2.061139530170e-03
2.319973192991e-03
2.181921643346e-03
2.266267734125e-03
2.183268200846e-03
2.140663700466e-03
2.549158764665e-03
2.636150175904e-03
2.465044416633e-03
2.626215054828e-03
2.459129987657e-03
2.629398577210e-03
2.462515755855e-03
2.626876011636e-03
2.459194547671e-03
2.628998715299e-03
2.462069348223e-03
2.628826924734e-03
2.461615336322e-03
2.655480925391e-03
2.633841262142e-03
2.465021985990e-03
2.504855940460e-03
2.626954113001e-03
2.460627946581e-03
2.459281500191e-03
2.628877804265e-03
2.463978196257e-03
2.633359730070e-03
2.466114496976e-03
2.631825731881e-03
2.557842814581e-03
2.464193016864e-03
2.631244525693e-03
2.634203394462e-03
2.465367309286e-03
2.611601312478e-03
2.466838180282e-03
2.656093472301e-03
2.452256167998e-03
2.368738549867e-03
2.524902431015e-03
2.677255740190e-03
2.532401558562e-03
2.611856570448e-03
2.448380073333e-03
2.895347462543e-03
2.762954093961e-03
2.933492103758e-03
2.773940618942e-03
2.938129622360e-03
2.779861874844e-03
2.947517109028e-03
2.770436758339e-03
2.936171750745e-03
2.775705167697e-03
2.944993665868e-03
2.776162261490e-03
2.967674935110e-03
2.940979762038e-03
2.788576165275e-03
2.769633692862e-03
2.947728243539e-03
2.778133822446e-03
2.938167467260e-03
2.780092728751e-03
2.946956698666e-03
2.779489675693e-03
2.817224370005e-03
2.950134646900e-03
2.777240784832e-03
2.942772889533e-03
2.773283112852e-03
2.775691965232e-03
2.943314050847e-03
2.958430064026e-03
2.871806310958e-03
2.678495565508e-03
2.898963514100e-03
2.818430404747e-03
2.887802313650e-03
2.791363294968e-03
2.764226645725e-03

SCALARS element_materi_plasti_phimob float
LOOKUP_TABLE default
1.369180163615e+01
1.317939032648e+01
2.033332547300e+01
2.032266002879e+01
1.833244113358e+01
-2.615770672745e+00
1.832167006218e+01
1.300439950961e+01
1.835824538951e+01
2.029445072965e+01
1.881700581589e+01
1.153447956085e+01
2.031273701582e+01
1.868255558298e+01
2.038851514725e+01
2.041064513119e+01
1.826185757334e+01
-3.167616176262e+00
7.882806773085e+00
8.237619923691e+00
2.029483699065e+01
1.448077689790e+01
1.521365328876e+01
2.017778094445e+01
1.900396044802e+01
1.906563554663e+01
1.776348474923e+01
2.037451583103e+01
1.901559357766e+01
2.027844105501e+01
2.955863558384e+00
-2.057503917547e+01
2.040362874347e+01
1.978211281511e+01
2.029530032321e+01
2.050155302240e+01
2.047451413850e+01
2.031575003632e+01
1.783772479111e+01
1.786309953478e+01
1.624860208315e+01
2.034320792976e+01
9.589074695991e+00
1.777419014387e+01
2.023068875357e+01
9.534135620615e+00
-4.215498254991e+00
2.021654805096e+01
-2.083422615894e+01
1.848821356885e+01
1.578580836487e+01
1.092471399448e+01
8.764396185037e+00
1.569703414700e+01
2.034906235276e+01
1.409056407731e+01
1.134389754189e+01
1.978630791890e+01
2.856525643384e+00
2.039513226361e+01
-2.550712980699e+01
2.017549874960e+01
1.575610912161e+01
6.983776270760e+00
2.031106397351e+01
1.514718659537e+01
-2.820117143050e+01
2.035230397776e+01
4.439774071067e+00
2.035030314718e+01
1.923855414338e+01
2.049468896288e+01
2.023074527098e+01
-1.572160725169e+01
1.448606948559e+01
2.032166575809e+01
2.038255619979e+01
5.208453714136e+00
2.859088207644e+00
5.309566507854e+00
4.351718613534e+00
1.819972192053e+01
1.465300181385e+01
1.361983692749e+01
1.862540990832e+01
1.859086894931e+01
1.938248371574e+01
1.967668789005e+01
1.979110010562e+01
1.830260948805e+01
-2.107554807904e+01
1.824023075500e+01
1.971827539459e+01
1.964684083160e+01
2.051059540738e+01
2.042019057215e+01
1.818667639025e+01
2.039360857837e+01
1.894651463622e+01
1.536123531853e+01
1.808611810793e+01
2.041035281580e+01
1.962088547658e+01
2.018942258322e+01
1.451933704275e+01
-4.544446139496e+00
2.011603420306e+01
1.990301488868e+01
-2.093805757204e+01
2.034971823676e+01
1.964258206813e+01
-2.642932430719e+01
1.682006539309e+01
1.770116968112e+01
1.610493791626e+01
1.457234561138e+01
1.576165447141e+01
2.039075881537e+01
1.881569893510e+01
1.514966999591e+01
3.588581654578e+00
1.820280557083e+01
1.988480739392e+01
1.516776250217e+01
-2.897929156225e+00
1.705900972045e+01
1.610659340796e+01
1.664712477664e+01
2.039660790025e+01
1.013175469267e+00
1.904230139996e+01
2.034083623420e+01
1.714211099328e+01
1.669229187294e+01
2.030213823762e+01
2.031994608719e+01
1.938355485486e+01
1.750500124157e+01
2.037057490676e+01
1.685828570838e+01
2.034340740206e+01
2.037632784916e+01
1.868091781186e+01
1.934858696076e+01
1.686300473280e+01
1.624879112946e+01
1.773605993825e+01
1.567449002339e+01
1.816451347197e+01
1.684355566465e+01
-2.192148084962e+01
1.853047361427e+01
3.504268212318e+00
1.740800179341e+01
2.035300705175e+01
1.452700153671e+01
1.952636473190e+01
1.099648348316e+01
1.961705138351e+01
1.824189852304e+01
1.638275394570e+01
1.990197614500e+01
3.323855448373e+00
2.010944054875e+01
1.814712156137e+01
2.038432868746e+01
1.819467861175e+01
1.498819452892e+01
1.736146230298e+01
1.891912979698e+01
1.120940820741e+01
1.639876763901e+01
1.952180821004e+01
1.822335362557e+01
1.599162171438e+01
1.704205107052e+01
1.994544261933e+01
1.682880598017e+01
2.035260924697e+01
2.037189934758e+01
1.420630984760e+01
1.683293812470e+01
2.001740142072e+01
1.656464961983e+01
1.321527393818e+01
1.793733757094e+01
1.654420911704e+01
2.037031897278e+01
1.967146199156e+01
2.001207488403e+01
7.697545078780e+00
1.591037809426e+01
1.977616126430e+01
8.999999999681e+01
1.657724838905e+01
1.976265188762e+01
-4.614982069645e+00
2.030436261314e+01
1.931248367954e+01
1.644258260679e+01
1.976420116920e+01
1.856936822031e+01
1.887087781158e+01
2.025189162453e+01
1.403597453965e+01
1.795541151681e+01
1.833730098191e+01
1.947901382577e+01
1.840596959372e+01
1.792493233338e+01
1.917460417214e+01
1.985236610205e+01
-2.246859850791e+01
1.420417745173e+01
1.536789117160e+01
1.774466121637e+01
1.981816134356e+01
5.319742894396e+00
1.961938771153e+01
1.813929621971e+01
1.589635668613e+01
1.946943829443e+01
-1.679007665394e+01
1.959109539015e+01
-2.350751399357e+01
-4.579225311353e+00
7.703770991273e+00
1.227711220104e+01
1.973664283382e+01
1.152100938011e+01
1.049343185080e+01
8.150969368568e+00
5.771982164476e+00
1.988859015452e+01
1.814129650319e+01
2.031437147305e+01
-5.855218897870e+01
1.266182233753e+01
1.674711159664e+01
1.607277096305e+01
1.962178678950e+01
2.039191361106e+01
1.956903731616e+01
1.411094756923e+01
1.989231128680e+01
1.922808637209e+01
1.803343074308e+01
1.943583604671e+01
2.026403428210e+01
1.676604049903e+01
1.186857886128e+01
1.879065159206e+01
2.051109840488e+01
1.796227693878e+01
1.820001376349e+01
1.862788295783e+01
2.377710371415e+00
1.841650852042e+01
1.408102080407e+01
9.573320705598e+00
4.082101689778e+00
1.973426553954e+01
1.857970955622e+01
1.564163678642e+01
1.986842508323e+01
1.967699481896e+01
1.829263979051e+01
2.035621502808e+01
1.839296778359e+01
1.852396201470e+01
1.724854466941e+01
1.862959909641e+01
1.211412828181e+01
1.826668402288e+01
1.707767006484e+01
1.435701808065e+01
1.956111903947e+01
8.999999999681e+01
1.862970310846e+01
1.467346117496e+01
1.269004959671e+01
1.217216184458e+01
1.893663883760e+01
-5.633767984967e+00
1.593921684330e+01
1.879677024973e+01
1.857909202071e+01
1.864364423437e+01
2.098716939906e+00
1.432904943722e+01
1.351578083282e+01
1.493686427813e+01
1.944879055776e+01
1.595737545176e+01
1.665035189405e+01
1.629638389447e+01
5.687673507121e+00
1.749803712372e+01
7.338337829295e+00
2.049044153333e+01
2.052734065185e+01
1.816443482705e+01
1.319953268412e+01
1.153151609497e+01
1.869041919189e+01
1.245124974943e+01
1.346309918379e+01
1.802156211213e+01
2.040055732865e+01
1.533022493299e+01
1.917248711223e+01
8.782368979732e+00
2.049481302204e+01
1.240298962034e+01
1.822395500453e+01
7.528902802447e+00
1.905304308513e+01
1.706098929839e+01
1.415961903255e+01
1.834543950401e+01
2.050326970335e+01
1.578579055257e+01
1.880327907800e+01
8.827037030026e+00
1.923856914272e+01
1.946376360824e+01
1.298857896663e+01
1.911514045077e+01
2.050101337869e+01
1.973295599153e+01
2.049886336178e+01
1.905409531173e+01
1.964875646405e+01
1.088134692197e+01
1.787599606539e+01
1.851715871716e+01
1.874131446828e+01
1.766612936501e+01
2.050751131737e+01
1.885118123429e+01
1.821729822904e+01
1.631302383962e+01
9.779708195078e+00
1.763592871350e+01
1.363886145930e+01
1.820704243112e+01
1.418646778785e+01
1.535088274249e+01
1.970430595239e+01
1.365929247744e+01
1.808604254305e+01
1.895342423727e+01
1.835650492791e+01
2.049412589472e+01
1.698903399151e+01
1.368176167872e+01
1.610582801349e+01
1.321394029014e+01
1.296024598795e+01
1.991630601326e+01
1.847427863640e+01
1.608804236227e+01
1.757146008083e+01
2.050048784762e+01
2.033603755815e+01
1.990605519679e+01
1.959819616167e+01
1.816191167532e+01
1.631607050440e+01
1.324416248698e+01
1.470156511242e+01
1.823235705332e+01
1.891217281927e+01
1.739397079703e+01
1.994591126899e+01
1.370874017913e+01
1.733806190018e+01
1.827770459391e+01
1.665321754546e+01
2.048668863347e+01
2.052294024079e+01
2.031077065495e+01
1.860218529929e+01
1.986335263098e+01
1.184615271135e+01
1.580409563853e+01
9.652129091205e+00
1.643903491921e+01
1.820348160461e+01
1.905538233013e+01
2.036904760308e+01
1.987339059898e+01
1.877677699624e+01
1.889555378001e+01
1.078037870232e+01
-5.006499321410e+00
1.714626618814e+01
1.789740596088e+01
1.751180978514e+01
-2.847866133537e+00
1.860685567337e+01
8.541383080881e+00
1.341064103169e+01
2.050095909899e+01
1.932363714356e+01
1.825820884956e+01
2.906541255198e+00
1.765933214387e+01
1.716068787865e+01
1.894149686712e+01
2.050802436800e+01
1.786996844154e+01
1.869669689087e+01
1.738038419880e+01
1.983871118138e+01
1.877030708580e+01
2.049535037256e+01
2.049788965816e+01
2.049844156267e+01
2.048852232438e+01
1.908076474711e+01
1.984568541408e+01
2.000369541243e+01
1.664613585016e+01
1.630874677252e+01
1.701480054802e+01
1.994866756342e+01
2.050219990715e+01
1.995945276321e+01
1.900222828325e+01
1.996781442287e+01
1.940091014267e+01
1.758447953636e+01
1.643159150202e+01
1.003936739432e+01
2.036966486959e+01
1.618396742498e+01
2.020436006888e+01
1.699943202127e+01
1.327669582226e+01
2.035422675104e+01
1.425149060757e+01
2.050045553837e+01
2.038237749043e+01
1.864281700865e+01
-2.223825416825e+01
2.049878466599e+01
2.035829334704e+01
1.324735680470e+01
1.914996625005e+01
2.051892518030e+01
-5.782878989116e+01
1.696179971705e+01
1.885139064278e+01
1.841422608511e+01
1.846963978465e+01
1.148807550834e+01
2.049828794972e+01
1.666668842029e+01
2.208903125775e+00
2.038389184864e+01
-2.178471010727e+01
1.723884053876e+01
2.883834014476e+00
1.761931472544e+01
2.049478700086e+01
2.050113686136e+01
1.874172544571e+01
-4.811731286363e+00
-2.960276118300e+00
2.973520880190e+00
1.991732087538e+01
1.820771682071e+01
1.844134634891e+01
2.050339932016e+01
1.826705026231e+01
2.051757231612e+01
1.951378003076e+01
1.890555262116e+01
1.393611245435e+01
1.914530220618e+01
8.285985586124e+00
2.050074031895e+01
2.049373124219e+01
2.049686989115e+01
1.877826148014e+01
1.658358441695e+01
1.759639263025e+01
1.893150107384e+01
2.049841042817e+01
1.344299911464e+01
1.489681263158e+01
1.540183522155e+01
1.909746581402e+01
2.052715410338e+01
-5.324126419937e+00
2.049737649064e+01
1.473508298345e+01
2.050364448053e+01
2.001866366608e+01
-6.174432196921e+01
1.724048359249e+01
1.998800721286e+01
2.050031223474e+01
1.908724917509e+01
1.963244545837e+01
6.525818224350e+00
2.020150822225e+01
1.524947877394e+01
1.541820710693e+01
-2.051645173744e+01
2.049897348317e+01
1.122738404484e+01
1.987042014961e+01
1.870748241174e+01
1.375442445548e+01
1.492683202483e+01
1.890023454527e+01
2.050284389864e+01
1.691838226285e+01
1.930700284453e+01
1.835716853997e+01
1.886471647187e+01
1.554689858523e+01
1.897941045115e+01
1.816948474485e+01
1.943575753721e+01
1.944412071655e+01
1.810236175624e+01
1.709046278633e+01
1.427110908928e+01
1.656626640970e+01
1.952478304846e+01
1.857598250845e+01
2.049849397585e+01
2.007492430465e+01
1.272639544513e+01
2.049581746374e+01
2.034849532363e+01
1.774878903699e+01
-2.130660842267e+01
2.049272888630e+01
2.006378805812e+01
1.393960770283e+01
2.049905255661e+01
1.913173135977e+01
1.675240563820e+01
1.860074912762e+01
1.839896603499e+01
1.836518707474e+01
1.906118437012e+01
1.931956028705e+01
1.749617594895e+01
1.959474971266e+01
1.894424403092e+01
1.710462540003e+01
1.928060497169e+01
1.526365477067e+01
1.899060935960e+01
-6.142154455001e+01
1.500215902582e+01
1.475372259062e+01
1.764764633483e+01
1.803735029085e+01
1.912500747630e+01
1.893885562403e+01
1.397272018174e+01
2.050195973831e+01
1.885676770672e+01
1.788885964969e+01
1.864709884308e+01
1.766211710024e+01
-5.761331466194e+01
1.883054065173e+01
1.644130470903e+01
-5.833046690915e+01
1.756673867390e+01
1.943300396653e+01
1.997797164089e+01
1.870224851310e+01
1.885475910676e+01
1.799118642437e+01
1.780165234761e+01
2.035236490416e+01
1.841901234172e+01
-6.342373269542e+01
5.957497266762e+00
-2.175876002993e+01
1.346382004451e+01
1.995450769849e+01
1.998802567069e+01
1.978072865916e+01
1.465738283323e+01
1.899980444719e+01
1.995805704575e+01
7.572359455900e+00
1.643101024016e+01
1.483895088368e+01
2.052057922704e+01
2.050072647954e+01
1.718006337176e+01
1.789704534670e+01
1.854492771109e+01
2.007152318677e+01
7.624096489478e+00
1.983306064177e+01
-4.711711866922e+00
1.733108233811e+01
1.796980327948e+01
-2.132376744457e+01
1.678221232843e+01
2.007759270273e+01
-6.174230259923e+01
1.774504793641e+01
1.774128786938e+01
1.924186213837e+01
1.484160562147e+01
1.455123965824e+01
1.053183353860e+01
2.008253229521e+01
2.036725104042e+01
1.983558124615e+01
1.387489196727e+01
-1.741611819697e+00
1.757959208047e+01
1.775617171935e+01
1.778480027193e+01
-5.771443668149e+01
-2.152322837914e+01
-5.023879937697e+00
1.195150053093e+01
-2.064945773758e+01
1.757272518094e+01
-5.773159424044e+01
1.381403249397e+01
1.919892944608e+01
1.774608313531e+01
2.005106249695e+01
1.926365428815e+01
1.890971211339e+01
1.541612793914e+01
-4.890410782969e+00
2.049736161318e+01
2.051612015984e+01
1.869739227402e+01
1.779596490255e+01
1.551997046973e+01
2.049928080846e+01
1.312917906837e+01
1.773554669301e+01
1.773052996277e+01
1.731065778843e+01
2.050235325069e+01
2.048486555829e+01
-2.094428253476e+01
-5.750675709379e+01
2.340090509739e+00
1.795829550374e+01
2.022149826586e+01
-6.363678133373e+01
1.980450013194e+01
-5.737936769551e+01
1.919559814887e+01
-6.075042326897e+01
-6.092225987216e+01
1.901139408973e+01
2.012348261557e+01
1.918291585787e+01
1.781310334285e+01
-2.131291264656e+01
1.914592664703e+01
2.049100767896e+01
2.050362441073e+01
1.774805951975e+01
1.936536542487e+01
2.050010310459e+01
1.963862882303e+01
-5.488082768249e+00
-2.094209049003e+01
-2.181872227018e+01
1.638571110107e+01
2.051690691858e+01
2.031282245045e+01
-5.756642248017e+01
1.750750915276e+01
2.050741110874e+01
2.052715423194e+01
2.048825918571e+01
1.956484198085e+01
1.991289043042e+01
2.049196129083e+01
2.049894022787e+01
1.979477169152e+01
8.999999999681e+01
1.773882191905e+01
1.778663418363e+01
-5.760053497451e+01
2.050501898781e+01
2.052488261533e+01
2.049126323969e+01
-6.132019577860e+01
-6.097360179835e+01
2.049745002755e+01
2.049585642136e+01
1.946100421147e+01
1.774069828707e+01
1.967301462934e+01
1.879236414944e+01
1.771847690257e+01
-6.270508768630e+01
-6.025074063216e+01
-6.178273565798e+01
-6.136083228045e+01
1.783678424098e+01
1.715918379857e+01
-5.759042206287e+01
1.907963286663e+01
-5.773959263212e+01
2.049762763704e+01
2.049533612797e+01
2.049554677900e+01
5.787630045264e+00
1.412335584573e+01
2.049062182387e+01
1.991444237803e+01
2.050705854964e+01
2.013744860505e+01
2.033058624313e+01
1.679196882070e+01
2.051910139870e+01
2.052168623065e+01
2.001577680203e+01
2.023116147204e+01
1.940680794221e+01
-5.757862226510e+01
1.698601152328e+01
-2.133929573496e+01
2.008658151346e+01
1.729986823926e+01
1.981167110941e+01
1.098700945007e+01
-5.611231891097e+00
2.003692168107e+01
1.757290685377e+01
1.600477019848e+01
1.981711897772e+01
2.010199818847e+01
1.593960457257e+01
1.959156498961e+01
1.903789114453e+01
1.940177275192e+01
1.953100308434e+01
1.618377632872e+01
1.724960626140e+01
1.782801562748e+01
1.913681713215e+01
1.992020593422e+01
1.965982137522e+01
1.144485153789e+01
2.008472208359e+01
1.988477105308e+01
1.843039523361e+01
1.931543978098e+01
1.927390922603e+01
2.013473036705e+01
1.999995758712e+01
1.889232336744e+01
2.012324713709e+01
1.983140534675e+01
1.965156592398e+01
2.018109334068e+01
2.010386392677e+01
1.949296227548e+01
1.943730416000e+01
1.132240708725e+01
1.040624863585e+01
-1.577811484432e+00
-2.105183398148e+01
1.999936644089e+01
2.000803512802e+01
-2.160699475735e+01
2.002849334185e+01
1.860026193106e+01
1.971202166247e+01
1.978585004820e+01
1.507098722277e+01
1.979034143889e+01
1.841443262221e+01
1.945267182086e+01
2.025990806214e+01
1.088996822706e+01
2.021244767514e+01
1.963917529137e+01
1.229966506320e+01
1.276061572790e+01
1.826542466547e+01
1.917313303227e+01
1.564207457393e+01
1.977693349907e+01
1.934992558090e+01
1.811365911264e+01
1.954359369472e+01
1.968149578061e+01
1.965069116816e+01
8.899739946843e+00
1.782047990368e+01
1.995867053072e+01
1.975390632986e+01
1.720010601757e+01
1.904503158004e+01
2.012040528410e+01
1.948074603099e+01
-2.728591853957e+00
-2.282893459400e+00
1.084722763318e+01
1.991796853528e+01
1.933812784531e+01
1.869123172917e+01
1.880328552806e+01
1.996503181097e+01
1.832208010806e+01
1.967444032076e+01
1.137213679031e+01
2.018805999613e+01
1.812502899863e+01
1.237406288664e+01
1.783768862205e+01
1.606827454361e+01
1.384989102342e+01
1.868812566054e+01
-5.666325779910e+01
-5.620705172839e+01
1.928139967937e+01
1.026113070976e+01
1.932175059637e+01
1.918808372927e+01
1.667016559364e+01
1.299023181151e+01
1.995937110955e+01
-6.109853774292e-01
1.647308221636e+01
2.007495380156e+01
8.126898443538e+00
1.902150799007e+01
1.861732070724e+01
7.705017684249e+00
2.003227492359e+01
1.958872686236e+01
1.019547798989e+01
2.005130613466e+01
2.005379860399e+01
1.168247974252e+01
1.464146622480e+01
1.199994235159e+01
1.956407183718e+01
1.851767257666e+01
2.006173574848e+01
1.995925941042e+01
1.944724184678e+01
1.944177238986e+01
9.237442891403e+00
1.956009685030e+01
1.958538906991e+01
1.852208279770e+01
1.934083388057e+01
1.972750588719e+01
1.791677178203e+01
1.986039777068e+01
1.755266973366e+01
1.833849478822e+01
1.552463680951e+01
1.594500910688e+01
1.946639497255e+01
1.809927443814e+01
1.287405078824e+01
2.366352220140e+00
1.946496611418e+01
1.283567993494e+01
2.018663519402e+01
1.960796817922e+01
1.970771650840e+01
2.035709626970e+01
1.722365611374e+01
1.163277636056e+01
4.845376086984e+00
1.948597187184e+01
1.919616834949e+01
-2.715932599673e+00
1.565948408480e+01
9.843464369559e+00
1.916306224985e+01
1.607420672115e+01
1.918169110706e+01
1.557940085126e+01
1.988915840960e+01
1.445065733120e+01
1.952451708353e+01
1.047332961776e+01
1.936230268238e+01
1.808463353060e+01
1.959747931753e+01
1.553223774400e+01
9.753095372955e+00
1.883816745663e+01
1.920445764969e+01
1.732930934792e+01
1.919443109401e+01
1.188906300085e+01
1.927396963004e+01
8.398616560121e+00
2.001059333660e+01
1.937303586070e+01
1.960372077890e+01
2.017947799601e+01
1.855351229897e+01
8.822211386289e+00
1.908974189313e+01
2.011774656117e+01
1.457857748514e+01
1.960257611975e+01
1.961518407513e+01
1.213844512368e+01
1.923048043833e+01
1.876558367795e+01
1.341496970345e+01
1.518927256563e+01
1.836491677669e+01
1.948107133334e+01
1.676539249216e+01
1.811104301648e+01
1.943482490821e+01
1.901667181410e+01
1.893771394854e+01
1.806631098229e+01
1.993768040565e+01
1.893925904728e+01
1.883604832106e+01
2.012879619078e+01
1.973940978175e+01
1.935700161380e+01
1.972527201822e+01
1.632924529801e+01
1.580066940875e+01
9.344415035201e+00
1.927069921959e+01
1.621103643741e+01
1.930118226217e+01
1.912697491968e+01
1.814131044258e+01
1.463064241968e+01
1.519013899998e+01
1.516544571854e+01
1.577926041661e+01
1.055358145651e+01
1.983921241252e+01
1.718591940103e+01
1.986083934517e+01
1.754700013403e+01
1.908225929647e+01
1.829626134917e+01
1.804882044109e+01
1.060451634809e+01
2.003794144379e+01
2.017496127184e+01
1.926958899668e+01
1.631095508503e+01
1.872076275821e+01
1.930307242368e+01
1.668676182821e+01
1.697811921733e+01
1.449392961924e+01
1.303077777091e+01
1.679137616963e+01
1.360140464311e+01
1.261370778237e+01
1.830588318363e+01
1.922391854174e+01
1.992555124158e+01
-5.786536302703e+01
1.736393716752e+01
1.727873481379e+01
1.677677728867e+01
1.912303844055e+01
1.779225823814e+01
1.501293975414e+01
1.719960344809e+01
1.976278296071e+01
1.508945121113e+01
1.060171179199e+00
7.110843920115e+00
1.372126488371e+01
1.532822469630e+01
1.762665491978e+01
1.755931365177e+01
9.108536293473e+00
7.295767001834e+00
1.893301983144e+01
1.363443269300e+01
1.969766137991e+01
1.979563192708e+01
1.898152699639e+01
1.991368118615e+01
2.002795018710e+01
1.792675214323e+01
1.954881537096e+01
1.083945081350e+01
1.747448022798e+01
1.743117290462e+01
1.249274153382e+01
7.566612152252e+00
1.619241386010e+01
1.729272183130e+01
1.763803784926e+01
1.427929993975e+01
1.808980048695e+01
1.737904487024e+01
1.770163397357e+01
1.535042810442e+01
1.940946663572e+01
1.944133357633e+01
1.744719670531e+01
1.993178271995e+01
1.218438376513e+01
2.017208763552e+01
1.786575478564e+01
2.014473696721e+01
1.904774911753e+01
1.183413825902e+01
1.912388026274e+01
1.998441698245e+01
1.815338943547e+01
1.601095854490e+01
1.925525337817e+01
1.788682332323e+01
8.997500868818e+00
2.030526894370e+01
6.885228338532e+00
2.013612996419e+01
2.008185060945e+01
1.952967540813e+01
1.897181530666e+01
1.981664201161e+01
1.771231858622e+01
1.858312622207e+01
2.011235607737e+01
1.951933052099e+01
1.956463843445e+01
1.933562165095e+01
1.078000484865e+01
1.967667239349e+01
2.035076754740e+01
2.014837138918e+01
1.746160443436e+01
1.896790559664e+01
1.877334023196e+01
1.787670539329e+01
1.939421925682e+01
1.955131074552e+01
4.954028587383e+00
1.389248180962e+01
1.777538061230e+01
1.746221176428e+01
1.781926231636e+01
2.021665200617e+01
2.003584388457e+01
2.007529528820e+01
1.715392690417e+01
1.975826794117e+01
1.940163467184e+01
2.015275801778e+01
1.953084657237e+01
1.780396718267e+01
1.752807041066e+01
1.967910289741e+01
2.003334736439e+01
1.970161091587e+01
1.956305648002e+01
1.991183753120e+01
2.005086556731e+01
1.980309874888e+01
1.888459268662e+01
1.694966126220e+01
1.967713485228e+01
1.947383675414e+01
1.257451002232e+01
1.778674280606e+01
1.846281003939e+01
1.895966429194e+01
1.269052296166e+01
1.754131641010e+01
1.928436237708e+01
1.780775633664e+01
1.802184982964e+01
1.923537493132e+01
1.809354424170e+01
-7.481395036992e+00
1.872875973104e+01
1.963809965645e+01
2.013560767752e+01
1.833437513639e+01
1.848896907750e+01
1.928275971536e+01
2.926235521606e+00
1.952472104513e+01
1.875344144927e+01
1.809202871917e+01
1.955790993596e+01
1.250294667151e+01
1.970304649879e+01
2.005520867491e+01
1.940643422113e+01
1.970803730828e+01
1.977026711745e+01
2.005669249229e+01
8.277221135934e+00
1.940607062052e+01
2.007226750892e+01
1.981525643135e+01
1.909992896455e+01
1.785648008319e+01
1.837733237862e+01
4.693317248047e+00
1.993670699569e+01
1.338418830870e+01
1.129398585661e+01
1.966287086124e+01
2.016669447449e+01
1.122399803953e+01
1.859609495483e+01
1.952864206149e+01
1.824614219943e+01
1.273247519147e+01
1.544375412471e+01
7.447717174989e+00
1.117877694847e+01
9.624663124605e+00
1.874626227355e+01
2.049025015364e+01
1.334663084636e+01
2.000518655852e+01
1.696977734614e+01
1.937684550868e+01
9.096122299164e+00
2.018096213230e+01
9.641952677811e+00
1.488463694421e+01
1.956495096916e+01
1.794385695953e+01
1.996202937417e+01
1.619967587173e+01
1.962951402636e+01
2.012886606173e+01
1.940967163510e+01
2.016029845828e+01
1.978552021863e+01
1.989089587990e+01
1.115785771049e+01
1.987719598822e+01
1.964614237068e+01
1.819280644726e+01
1.488047971423e+01
2.023295111543e+01
1.295516893637e+01
1.428938612469e+01
1.983675636330e+01
8.320548366012e+00
1.830823434643e+01
1.967528960935e+01
2.009730944101e+01
2.019798547077e+01
1.956925440905e+01
1.991693871182e+01
1.734852377738e+01
1.969528174682e+01
1.599301115565e+01
2.010409859066e+01
1.686429506496e+01
1.710723069982e+01
1.813306268568e+01
1.753352310462e+01
1.887808721341e+01
1.776257654670e+01
1.807791123165e+01
1.146759603674e+01
1.784591515487e+01
2.003461382705e+01
2.013073954603e+01
1.963530830190e+01
2.004940933138e+01
1.793438664503e+01
1.988499485339e+01
1.806845817261e+01
1.996725244715e+01
1.978332881329e+01
1.976479464653e+01
1.923615256645e+01
1.760833780893e+01
1.992417853700e+01
1.904439824253e+01
1.155088094310e+01
1.298497386505e+01
1.652622987166e+01
1.858990918445e+01
2.006085645780e+01
1.965239696349e+01
1.761793351447e+01
1.914074234652e+01
1.977898019337e+01
1.994115645708e+01
2.006363846865e+01
1.920768190354e+01
1.986923979493e+01
1.834223334727e+01
1.978567992173e+01
1.830077770599e+01
2.012474231333e+01
2.014964258979e+01
1.890471908527e+01
1.180372204253e+01
1.987345357113e+01
1.871553004220e+01
1.736019261693e+01
1.910520223216e+01
1.973508355102e+01
1.184292076094e+01
1.852023725009e+01
1.925340442627e+01
2.006470549496e+01
1.937625911423e+01
1.976757613432e+01
1.912255324075e+01
1.886459337398e+01
1.918167457308e+01
1.993344178463e+01
1.978115835243e+01
1.950194155119e+01
2.018358658945e+01
1.898472214159e+01
1.620232469614e+01
1.999255324154e+01
2.014196063150e+01
1.824330979205e+01
1.848562128424e+01
1.698373100922e+01
1.962274463718e+01
1.705748173649e+01
1.902252606445e+01
1.706241692308e+01
1.970749689799e+01
2.017990430497e+01
1.727527059542e+01
4.827971642273e+00
2.016313053480e+01
1.741099249256e+01
1.821137285883e+01
2.006871679100e+01
1.951005865538e+01
1.967474134565e+01
1.744013840131e+01
8.449613456623e-01
2.019902950792e+01
1.875411178407e+01
1.947572543446e+01
2.002233376818e+01
-1.000254843561e+01
1.966664190295e+01
1.484279202658e+01
1.921134383049e+01
1.867766491045e+01
1.726008448861e+01
1.997247629635e+01
1.886796253846e+01
1.654613944621e+01
1.895859520196e+01
1.045846411769e+00
1.955248484349e+01
1.971799412469e+01
2.023369296183e+01
1.979910622322e+01
1.452407431017e+01
1.963766555784e+01
2.021406380853e+01
2.033431952250e+01
1.984794581426e+01
1.769223598142e+01
1.927449932006e+01
2.004971741734e+01
1.829096110344e+01
1.965886694656e+01
1.937219018017e+01
1.987711103814e+01
1.981080426833e+01
1.774873658949e+01
1.773664868103e+01
1.941958386265e+01
1.939460138032e+01
1.884458712472e+01
1.935180077457e+01
1.866098470076e+01
2.010625564537e+01
1.768093756383e+01
2.051201476706e+01
1.841580460116e+01
1.849561494088e+01
1.866884473036e+01
1.392307733110e+01
1.803273643345e+01
1.909605598426e+01
1.880367837483e+01
1.934777152216e+01
1.946891387768e+01
1.961921660274e+01
2.918668560193e+00
1.771870841475e+01
1.741855053415e+01
1.921915255709e+01
1.938851366838e+01
2.001698911140e+01
9.974989807750e+00
1.043796152779e+01
1.853796498393e+01
1.773067235270e+01
1.716250356772e+01
1.747970815402e+01
1.935140220172e+01
1.010417374805e+01
1.843494987114e+01
1.964602644559e+01
1.035940033829e+01
2.036894583133e+01
2.000837659092e+01
1.818496351784e+01
1.974050289940e+01
-4.884006284655e+00
1.950110003415e+01
1.876164839920e+01
-5.072412103008e+00
2.000275997115e+01
9.197547689864e+00
1.922414313479e+01
1.880733075607e+01
1.801232608207e+01
1.897521003711e+01
2.010172985481e+01
1.930107674038e+01
1.870758572875e+01
1.854630676061e+01
-1.745403217020e+01
6.919984659898e+00
1.989685950956e+01
1.902006982478e+01
2.000400629684e+01
1.481689921516e+01
1.981488209955e+01
2.002826121626e+01
1.768449934360e+01
1.989497547495e+01
1.974573272700e+01
1.923115942994e+01
1.823613919822e+01
1.849802956142e+01
2.018003134985e+01
1.859616070996e+01
1.895349470210e+01
1.862370493015e+01
1.958715294248e+01
1.825348040529e+01
1.504172919558e+01
1.869320108001e+01
1.565240141512e+01
1.934850219406e+01
1.566884687491e+01
1.918520040656e+01
1.995154188759e+01
1.981176203189e+01
1.797772040329e+01
1.917800199994e+01
1.984308619266e+01
1.984844688822e+01
6.645592062640e+00
1.931098676434e+01
2.015729986228e+01
1.557496261431e+01
1.862592332347e+01
-7.726053078376e+00
1.994023763050e+01
1.450088865907e+01
1.841768386863e+01
1.946636265049e+01
1.918398904258e+01
1.899098076021e+01
1.891037284531e+01
1.638884555072e+01
1.677869414848e+01
1.994678668043e+01
1.916703558139e+01
1.847158979619e+01
1.949359391423e+01
1.827411209144e+01
1.521244031529e+01
1.631839030079e+01
1.868066883394e+01
1.775578583599e+01
1.982272508402e+01
1.798810689870e+01
2.022886173289e+01
1.989349271847e+01
1.852866920850e+01
2.027221701823e+01
1.608860028929e+01
2.016501703433e+01
1.891753413319e+01
1.936046898075e+01
1.998697637781e+01
1.645952109813e+01
1.914066586023e+01
1.828200046846e+01
1.900335756657e+01
1.545739726134e+01
1.948841524055e+01
1.800035413576e+01
1.883609112881e+01
1.899999767882e+01
-1.059362475590e+01
1.899373506870e+01
1.955030453841e+00
4.346882101553e+00
1.861535693570e+01
1.983029587789e+01
1.913795665526e+01
1.541749140199e+01
2.050343715764e+01
-3.452638531335e+01
1.591790103442e+01
1.863956307487e+01
1.838758607878e+01
1.733038362628e+01
1.634108245358e+01
1.881813746334e+01
1.910266118047e+01
1.931452967381e+01
1.998979310290e+01
8.195968267479e+00
1.817573526484e+01
1.856660517919e+01
1.405644986422e+01
1.797718966818e+01
1.915155946909e+01
1.952546892396e+01
-5.040465208210e+00
-1.938485757325e+01
9.849752418555e+00
1.857762725395e+01
1.689194732587e+01
1.597713159445e+01
1.506167110986e+01
1.878666969635e+01
1.940508102281e+01
1.874370676319e+01
1.687804590163e+01
1.931321693156e+01
1.849402586150e+01
1.972964866320e+01
1.875309860977e+01
1.879782578786e+01
1.410232128421e+01
1.719266045112e+01
1.890236159996e+01
1.927910520802e+01
1.898301646997e+01
1.481834839299e+01
1.894721551142e+01
1.584823731094e+01
7.340397538404e+00
2.015627428102e+01
8.432179851967e+00
1.622681479201e+01
1.883935379011e+01
1.531508369453e+01
1.891464266469e+01
1.339368924485e+01
1.816615681177e+01
1.896052491219e+01
1.822310221077e+01
1.844443845921e+01
-8.394831036845e+00
2.007585881863e+01
1.710321574789e+01
2.002518585267e+01
1.937135148294e+01
1.909584526294e+01
1.910718208809e+01
1.644607111152e+01
1.159912317944e+00
-8.653618878582e+00
1.923334270547e+01
2.001343052500e+01
1.571189942381e+01
1.943022812281e+01
1.489959472096e+01
1.947411695683e+01
2.037432933589e+01
-6.285720267057e+01
2.050169219497e+01
2.050226625788e+01
1.831275556423e+01
1.701057118702e+01
1.923845304299e+01
1.656157805069e+01
1.402254822038e+00
-1.756533597134e+01
2.021082429926e+01
1.929269966522e+01
1.789309851675e+01
2.049417790851e+01
1.144391700598e+01
2.052629386695e+01
1.927842321551e+01
1.690876747417e+01
1.905593851595e+01
1.657222534978e+01
9.282825863097e+00
1.608737860892e+01
1.952364593976e+01
2.001245971096e+01
1.667948003579e+01
1.958172118217e+01
-6.054697641571e+01
1.678169468731e+01
1.971457730215e+01
1.592452296303e+01
1.509164116174e+01
1.906346851500e+01
8.063146894255e+00
1.235575612345e+01
1.324456282658e+01
1.485105436003e+01
1.865257218593e+01
1.843863386731e+01
1.958333976662e+01
2.020242696658e+01
1.400412700449e+01
1.954991035852e+01
2.022281475411e+01
1.606959068191e+01
1.999001694034e+00
1.556389503616e+01
1.841558291307e+01
1.961743777035e+01
1.841068430378e+01
4.274009057082e+00
1.901715091154e+01
1.092352378217e+01
1.844755896639e+01
1.881110661886e+01
1.919998660279e+01
1.916895126196e+01
1.487175224950e+01
4.605052052657e+00
1.915933814114e+01
1.209552122166e+01
-1.981786025317e+01
2.020035446596e+01
2.001284057963e+01
-2.256885043563e+01
1.933619781455e+01
1.234351693861e+01
1.308533543937e+01
1.982283529311e+01
1.920216597515e+01
1.969064825068e+01
1.679906540089e+01
1.773564195873e+01
2.037525797765e+01
1.092099346594e+01
1.991117031235e+01
1.867129144180e+01
7.449112309097e+00
1.949547101498e+01
1.717532102259e+01
-5.109920992330e+00
1.595996326656e+01
1.940241951577e+01
1.954130004407e+01
6.917444845172e+00
1.841045218105e+01
1.972440906088e+01
1.986055689700e+01
1.551535656690e+01
1.339795982315e+01
1.883160294321e+01
1.908433791040e+01
-5.518343945425e+00
2.037354287272e+01
2.038291368947e+01
1.855668211188e+01
2.031012484112e+01
2.036308668496e+01
1.708797030171e+01
1.669914385864e+01
2.039157964908e+01
-5.843504494501e+01
1.242755654745e+01
1.858681160191e+01
1.553998788011e+01
1.583699868170e+01
9.570825728044e+00
1.121156629369e+01
1.855879828337e+01
1.646460217347e+01
1.406864725814e+01
1.975048014405e+01
2.049795310377e+01
2.053068575622e+01
1.699506860524e+01
1.817912728238e+01
-2.754465457708e+01
5.707035876571e+00
7.210408966006e+00
7.995566238241e+00
1.902832477006e+01
1.569944872874e+01
1.636062609946e+01
-4.649195700077e+00
2.007570230234e+01
1.624410661206e+01
2.017660447144e+01
1.986766875201e+01
2.050946139571e+01
2.050336414471e+01
1.860654394343e+01
1.658837710753e+01
1.217920034222e+01
1.689305306878e+01
2.050638711700e+01
-1.620140188631e+00
2.618081641779e+00
2.004345407394e+01
1.819996605624e+01
2.019971317109e+01
1.972577558843e+01
2.006693667958e+01
1.989341437554e+01
1.863911255488e+01
1.435513668199e+01
1.433132411859e+01
1.939015146806e+01
1.997058505338e+01
1.774798582305e+01
1.818389032960e+01
1.854420929149e+01
1.871524232576e+01
4.293796865753e+00
1.343352608701e+01
2.038867224952e+01
1.902855106545e+01
2.040666027584e+01
2.021869972147e+01
1.950843994532e+01
2.021674351648e+01
1.675962455702e+01
1.622237779140e+01
2.023703210074e+01
-2.291040519470e+01
1.297528101704e+01
2.050217343510e+01
2.402400662430e+00
1.817927613113e+01
2.025757072257e+01
-7.344526549880e+00
-2.345834095430e+01
2.049845649773e+01
1.772745763653e+01
2.032478685205e+01
2.024809170993e+01
1.772124049291e+01
-2.399319125866e+01
2.036264156780e+01
4.344679426468e+00
2.025161700430e+01
2.050479367514e+01
2.024600184715e+01
8.588399912609e+00
1.857859418803e+01
1.699580199503e+01
1.974080152337e+01
2.050437407451e+01
1.970849180523e+01
2.052339154858e+01
-5.902408646614e+00
2.037539329065e+01
1.031093797695e+01
2.372427781266e+00
2.038644997988e+01
2.036823032716e+01
2.039536913540e+01
1.815406987805e+01
1.863896621179e+01
9.266889080485e+00
2.036698703202e+01
1.551364945246e+01
6.922223125748e-01
1.985702292024e+01
1.770886532631e+01
2.024885162356e+01
2.048126738802e+01
2.050623768278e+01
8.999999999681e+01
-5.346452539787e+01
1.778471596991e+01
1.779841448647e+01
2.050534142253e+01
2.047893203261e+01
-2.497229024673e+01
-6.045603459107e+01
2.023852817306e+01
2.018519781849e+01
7.026415303701e+00
2.026715179511e+01
1.884926313503e+01
1.815904091880e+01
1.924033820021e+01
6.050840802557e+00
1.948901649888e+01
2.941157065675e+00
1.751719290076e+01
2.024289338905e+01
2.012820125320e+01
1.804017291083e+01
1.885605566176e+01
2.025471944974e+01
1.997436755338e+01
1.975887264539e+01
1.773648815196e+01
1.934308485952e+01
2.023606283892e+01
1.301175790600e+01
-2.181009330751e+01
2.012579520708e+01
1.990728355659e+01
2.440929811983e+00
1.942912166144e+01
2.037696382266e+01
2.009610951881e+01
2.024677668714e+01
1.921186624001e+01
-2.275397138654e+01
9.475274624090e+00
1.211134297428e+01
1.856065020916e+01
1.933302311066e+01
2.026534839049e+01
2.035576783750e+01
-5.411136148846e+00
-6.407163565756e+00
5.717066630589e+00
1.949134584763e+01
1.499364262904e+01
2.026835837131e+01
6.318330095901e+00
2.020415060383e+01
1.853925701492e+01
2.035891583796e+01
1.987259083293e+01
1.856593858744e+01
2.036932043832e+01
2.039077468533e+01
2.036144090029e+01
-1.558039418257e+00
2.019556357788e+01
2.036433624324e+01
2.020854074101e+01
1.995866904249e+01
2.050203866515e+01
1.975109941568e+01
-5.623613403174e+01
4.658276709154e+00
2.012025188167e+01
1.886483953190e+01
2.020468193338e+01
2.007930382949e+01
2.037323168364e+01
1.975786671096e+01
2.038387763719e+01
2.025885735171e+01
2.024641868226e+01
1.529552888436e+01
2.049034395947e+01
1.815644165934e+01
2.019579933025e+01
-5.705769464257e+00
2.004214337374e+01
1.943828078068e+01
-5.316685558504e+00
7.173996215888e+00
1.985662351241e+01
2.037665041696e+01
2.024633037720e+01
2.033299322059e+01
1.883477771835e+01
-2.251258385912e+01
-7.668953809470e+00
-1.768232705295e+01
1.175393088294e+00
-5.614951067616e+01
1.736064640269e+01
2.020198443222e+01
2.021776301973e+01
1.884821396348e+01
1.650838900189e+01
2.022155311329e+01
2.018321806049e+01
2.038584850984e+01
2.024441547165e+01
2.006285915523e+01
-6.128626556578e+00
-9.214132699823e+00
2.024292711021e+01
-5.634333758408e+00
-1.068670750931e+00
-1.104700636184e+01
-7.395368176774e+00
2.039100338222e+01
2.038547928431e+01
2.029278602355e+01
2.040616006568e+01
2.011162565356e+01
1.902846711424e+01
2.050921109006e+01
1.024812535370e+01
1.768660745896e+01
1.800057558457e+00
-2.306549716544e+01
2.048913778260e+01
1.822259913149e+01
2.117359003732e+00
1.719944711020e+01
2.037842228484e+01
2.025510873416e+01
2.039083523285e+01
1.444467499955e+01
-8.238920247948e+00
2.039648259614e+01
2.049184686716e+01
2.051819748646e+01
1.810909127813e+01
2.022688645775e+01
2.586566240097e+00
2.029756837901e+01
-2.451714468426e+01
2.040401560311e+01
2.038476653650e+01
-2.369035456866e+01
2.012454687549e+01
1.962973101005e+01
2.037481291241e+01
2.051387549570e+01
1.926502076217e+01
2.038320129306e+01
2.027433526489e+01
1.943813925088e+01
2.026254149547e+01
1.597131183425e+01
1.775885416117e+01
2.028247127067e+01
2.038272780135e+01
-5.913835410564e+01
1.775669795096e+01
2.038891762384e+01
6.837110149079e+00
2.027426224844e+01
2.022604198104e+01
2.037761121261e+01
6.148470566936e+00
-3.146979780753e-01
1.840948335356e+01
1.994389865211e+01
8.999999999681e+01
2.039235623147e+01
1.916678725680e+01
5.975934989419e+00
1.896649699941e+01
2.038735747378e+01
1.857369752915e+01
-3.418727520071e+01
1.531410508630e+01
1.782406426252e+01
1.872017474471e+01
2.026538721695e+01
1.774147928041e+01
1.800961416617e+01
-8.776351468338e+00
2.030200005533e+01
2.015171893069e+01
3.961581063186e+00
2.036696012520e+01
2.039312252493e+01
1.814931062608e+01
1.917601174366e+01
1.766675127705e+01
1.782841271143e+01
1.812155670828e+01
2.011853401529e+01
2.043484060969e+00
2.024710626132e+01
1.853462368289e+01
2.037995424681e+01
2.012836428293e+01
1.892865607897e+01
2.016453587421e+01
2.026928669139e+01
2.041230548714e+01
-2.644278652787e+01
2.017498170204e+01
2.025595920704e+01
-7.970091595709e+00
1.735898089663e+01
-2.476226808203e+01
2.027518926649e+01
-5.022036482803e+01
-5.612463541022e+01
-5.408822524266e+01
-5.674570964548e+01
-5.410977373545e+01
-5.675339664180e+01
-5.412861062793e+01
-5.673319303254e+01
-5.414726759974e+01
-5.671821631385e+01
-5.416156521443e+01
-5.670927713852e+01
-5.417155570341e+01
-5.670492337609e+01
-5.417831595520e+01
-5.670378447087e+01
-5.418273554054e+01
-5.670473123299e+01
-5.418596291547e+01
-5.670669728643e+01
-5.418846656244e+01
-5.670842712276e+01
-5.419047885005e+01
-5.137701905995e+01
-5.670896992479e+01
-5.419206455150e+01
-5.670767240963e+01
8.999999999681e+01
-5.419315989054e+01
-5.670497772950e+01
-5.271757695201e+01
-5.419368034692e+01
-5.669947933794e+01
-5.419360266805e+01
-5.669443594704e+01
-5.419265614086e+01
-5.668335904923e+01
-5.419078963463e+01
-5.668222704922e+01
-5.418846490754e+01
-4.830669862805e+01
-5.665501912375e+01
-5.418670620884e+01
-5.668545270256e+01
-5.418395898203e+01
-5.661872179187e+01
-5.679816938361e+01
-5.418389632104e+01
-5.652336243293e+01
-5.417572641181e+01
-5.705553858596e+01
-5.418406000510e+01
-5.607137621583e+01
-5.416706892606e+01
-5.791878918874e+01
-5.519393939355e+01
-5.419393542930e+01
-5.399386700070e+01
8.999999999681e+01
-5.505024902131e+01
-4.897184755460e+01
8.999999999681e+01
-3.954359279146e+01
8.999999999681e+01
-1.825810995897e+01
-1.640307072718e+01
-1.597715865828e+01
-1.621795238500e+01
-1.587854551177e+01
-1.623048988252e+01
-1.588462443215e+01
-1.624191562373e+01
-1.589040288320e+01
-1.624776428175e+01
-1.589512140969e+01
-1.625086382635e+01
-1.590013863235e+01
-1.625239519131e+01
-1.590583386140e+01
-1.625281328907e+01
-1.591208451456e+01
-1.625344567498e+01
-1.591846979779e+01
-1.625408500158e+01
-1.592428135105e+01
-1.625436625621e+01
-1.396749370499e+01
-1.592840627589e+01
-1.625410714034e+01
-1.592969924345e+01
-1.544087140370e+01
-1.625318160344e+01
-1.592753954824e+01
-1.625194020032e+01
-1.592205733920e+01
-1.624971321257e+01
-2.283750502518e+01
-1.591312351570e+01
-1.624816606955e+01
-1.590231229338e+01
-1.624413642883e+01
-1.588819618408e+01
-1.624427330522e+01
-1.587832618507e+01
-1.623466312848e+01
-1.585508400299e+01
-1.624449471240e+01
-1.586444524375e+01
-1.622102955048e+01
-1.329986606590e+01
-1.627255570158e+01
-1.581903517413e+01
-1.617467228121e+01
-1.593961896741e+01
-1.631847866599e+01
-1.573098431582e+01
-1.594785884895e+01
-1.614222991121e+01
-1.543383408290e+01
-2.412779849432e+01
-1.495935894457e+01
-1.788402877221e+01
-1.135428759685e+01
-2.351035012165e+01
-2.418995996806e+01
-3.026671841273e-01
-1.099437626534e+00
-1.130075125797e+00
-1.153630835127e+00
-1.163479364487e+00
-1.144043343563e+00
-1.156603105110e+00
-1.136717607442e+00
-1.149132799242e+00
-1.133234492370e+00
-1.143724893349e+00
-1.132723750539e+00
-1.140864147207e+00
-1.134395295839e+00
-1.140276805049e+00
-1.137573070402e+00
-1.141362857396e+00
-1.141682604761e+00
-1.143535847025e+00
-1.146149079676e+00
-4.748389127898e-02
-1.146187540177e+00
-1.150193301405e+00
-1.148528339408e+00
-4.044922410490e+00
-1.152390128860e+00
-1.149218912855e+00
-1.084509412489e+00
-1.152215850041e+00
-1.147700123031e+00
-1.148639526084e+00
-1.143660872494e+00
-1.144170710825e+00
-1.138923408387e+00
-1.134143839910e+00
-1.131221743676e+00
-1.129957667802e+00
-8.153328459027e-02
-1.127067141403e+00
-1.110343107038e+00
-1.114552198583e+00
-1.121795234798e+00
-1.063030075048e+00
-1.119207146394e+00
-1.142131151068e+00
-1.079198697881e+00
-9.704083994297e-01
-1.132531233349e+00
-1.323796403280e+00
-7.903804704674e-01
-1.025540563604e+00
-1.208387022059e+00
-4.547904828300e+00
-1.428333327635e+00
1.236313921620e-01
-3.602970120336e+00
1.354694955485e+00
-4.566465615264e+00
5.401022474220e+00
5.850878883162e+00
5.860265295157e+00
5.882819027856e+00
5.892603107067e+00
5.888876554329e+00
5.900538397043e+00
5.895263049282e+00
5.906727011166e+00
5.901904330367e+00
5.911505555173e+00
5.907345064330e+00
5.914306081886e+00
5.910744545007e+00
5.915156437715e+00
5.912337341294e+00
5.914522439044e+00
5.912507748834e+00
5.912846184100e+00
6.580742560814e+00
5.911734301516e+00
5.910611065588e+00
5.910217181772e+00
5.880367780357e+00
5.908362581697e+00
5.908310692813e+00
5.907499443289e+00
5.908699733800e+00
5.908684805384e+00
4.314197135878e+00
5.910377017458e+00
5.912593993390e+00
5.916521797174e+00
5.916318690107e+00
5.916742551690e+00
5.924508029723e+00
5.928808868535e+00
5.924883701181e+00
5.915917513059e+00
5.942856145446e+00
5.947063221053e+00
6.371598956083e+00
5.896584027599e+00
5.918793148257e+00
6.008993439705e+00
5.996250083996e+00
5.852186624131e+00
5.857388714709e+00
6.110061588580e+00
4.025093684412e+00
6.468062756200e+00
5.362772542324e+00
7.001609692435e+00
4.302568281745e+00
4.075638510287e+00
1.013744435783e+01
9.855646911292e+00
9.852866342670e+00
9.834623326459e+00
9.835603213981e+00
9.837004150198e+00
9.837026552872e+00
9.842241557244e+00
9.841750163241e+00
9.847875859398e+00
9.847173771234e+00
9.852500267362e+00
9.851653492514e+00
9.855231714239e+00
9.853900713057e+00
9.856464951687e+00
9.855101447789e+00
9.856501977557e+00
1.033902062467e+01
9.855688519516e+00
9.855765319903e+00
9.855811745971e+00
8.906623416644e+00
9.854227613336e+00
9.812334117812e+00
9.854459633753e+00
9.851729092018e+00
9.851290625446e+00
9.852221786164e+00
9.853006211782e+00
9.853010817183e+00
9.855665834467e+00
9.860979020231e+00
1.009908615270e+01
9.865808234548e+00
9.856743622264e+00
9.856998940861e+00
9.876308236872e+00
9.847167534125e+00
9.878996977551e+00
9.907540843983e+00
9.835131676212e+00
9.790149190552e+00
1.000613540201e+01
9.913903448362e+00
9.784714659258e+00
8.689551024160e+00
9.705020286117e+00
1.047827176323e+01
9.110279166887e+00
1.069359479596e+01
8.749163654281e+00
1.220758576958e+01
1.238615695874e+01
1.238477813766e+01
1.239225211464e+01
1.239187585282e+01
1.239128398690e+01
1.239393516487e+01
1.239324891422e+01
1.239794067540e+01
1.239696180986e+01
1.240253429269e+01
1.240211731627e+01
1.240644214887e+01
1.240495830283e+01
1.240808229500e+01
1.240566462106e+01
1.240883335281e+01
1.273280577784e+01
1.240684417155e+01
1.240920284271e+01
1.234160300868e+01
1.240948678847e+01
1.240948025313e+01
1.241090589831e+01
1.240831093823e+01
1.240842240704e+01
1.174880610165e+01
1.240436555762e+01
1.240148943417e+01
1.240596769939e+01
1.241163505254e+01
1.240792459963e+01
1.240889313316e+01
1.242074345499e+01
1.244059234903e+01
1.240661929937e+01
1.239245592378e+01
1.252031967586e+01
1.246827260769e+01
1.244022162148e+01
1.234861277907e+01
1.236890192593e+01
1.249297826716e+01
1.157487535468e+01
1.276528177043e+01
1.214159297769e+01
1.286294796864e+01
1.177663334089e+01
1.165289797378e+01
1.428299202012e+01
1.414906760679e+01
1.414297857097e+01
1.413300962652e+01
1.412886383645e+01
1.413131228444e+01
1.412990623300e+01
1.413307434165e+01
1.413141849740e+01
1.413638910208e+01
1.413552173835e+01
1.414137939633e+01
1.414158465863e+01
1.414369336607e+01
1.414322247109e+01
1.414366422211e+01
1.448750546146e+01
1.414007579284e+01
1.414473349054e+01
1.367660930388e+01
1.414561135861e+01
1.414754190006e+01
1.408670038975e+01
1.415142346186e+01
1.414908235373e+01
1.415180379496e+01
1.414662202934e+01
1.414894174146e+01
1.413695883142e+01
1.423833127487e+01
1.413407339284e+01
1.415073478845e+01
1.416318871423e+01
1.414183799140e+01
1.418805175147e+01
1.414453966772e+01
1.411008090170e+01
1.421903311429e+01
1.422702613225e+01
1.408684087045e+01
1.355238542761e+01
1.404154947762e+01
1.453780803213e+01
1.379842567660e+01
1.455342438046e+01
1.358446141536e+01
1.533316153387e+01
1.543043690863e+01
1.542370725833e+01
1.542052277164e+01
1.542096695122e+01
1.542395883853e+01
1.542334755499e+01
1.542117867429e+01
1.542432059693e+01
1.542246070872e+01
1.542810263056e+01
1.542376835038e+01
1.543399318354e+01
1.543630621365e+01
1.543590456689e+01
1.573218533118e+01
1.542290147243e+01
1.538504236657e+01
1.543103467002e+01
1.542910862593e+01
1.543682754326e+01
1.544400122802e+01
1.544321971048e+01
1.544427723060e+01
1.507085427239e+01
1.544334863682e+01
1.544516316454e+01
1.544114715658e+01
1.545053086804e+01
1.542184641268e+01
1.541905347778e+01
1.545697559144e+01
1.550974633012e+01
1.539580294137e+01
1.542756094048e+01
1.549230747216e+01
1.552225915609e+01
1.496907112408e+01
1.569811857404e+01
1.527165639798e+01
1.568680822152e+01
1.510471337634e+01
1.500028625638e+01
1.652960469550e+01
1.641043928252e+01
1.639262913518e+01
1.638794316769e+01
1.638625315241e+01
1.639327622178e+01
1.639520987715e+01
1.638842018933e+01
1.638495295050e+01
1.639105523177e+01
1.639070057992e+01
1.639106348376e+01
1.638851125732e+01
1.667284028740e+01
1.640622513479e+01
1.640271455299e+01
1.612965575624e+01
1.638907763003e+01
1.638851772221e+01
1.635952369923e+01
1.639609057957e+01
1.640526625092e+01
1.641223463203e+01
1.641565967401e+01
1.641089044103e+01
1.644080127040e+01
1.640409702794e+01
1.641159488719e+01
1.642132723898e+01
1.641667244214e+01
1.637063283425e+01
1.646257467406e+01
1.649003510457e+01
1.636250624382e+01
1.603826915140e+01
1.631306446758e+01
1.670842646458e+01
1.620871221335e+01
1.663339614564e+01
1.606772653884e+01
1.717039049821e+01
1.714806033711e+01
1.715808562409e+01
1.717811698076e+01
1.716189946236e+01
1.718107101987e+01
1.717495856915e+01
1.715766787930e+01
1.715885575073e+01
1.716511900854e+01
1.716907898230e+01
1.716722381714e+01
1.742454125801e+01
1.716395559218e+01
1.717703436623e+01
1.714753579824e+01
1.717963051198e+01
1.719299638022e+01
1.716260519315e+01
1.719563515099e+01
1.718234277050e+01
1.717044312643e+01
1.695444000551e+01
1.719251057635e+01
1.716831714296e+01
1.717746913133e+01
1.716130585491e+01
1.716228720394e+01
1.718834952968e+01
1.724210616262e+01
1.719945299790e+01
1.687254239644e+01
1.733743010251e+01
1.710115045078e+01
1.740612638526e+01
1.696271521946e+01
1.690777552442e+01


