# vtk DataFile Version 2.0
Calculation C:\Users\johan\Documents\GitHub\TOCHNOG\standsicherheit_phiC at time 5.000000000000e+00 
ASCII
DATASET UNSTRUCTURED_GRID
Field FieldData 1
Time 1 1 double
5.000000000000e+00

POINTS 1163 float
0.0 0.0 0.0 
5.000000000000e+01 -1.000000000000e+01 0.0 
0.0 -2.000000000000e+01 0.0 
5.000000000000e+01 -2.000000000000e+01 0.0 
0.0 -9.999999999991e-01 0.0 
0.0 -1.999999999998e+00 0.0 
0.0 -2.999999999997e+00 0.0 
0.0 -3.999999999994e+00 0.0 
0.0 -4.999999999991e+00 0.0 
0.0 -5.999999999988e+00 0.0 
0.0 -6.999999999985e+00 0.0 
0.0 -7.999999999982e+00 0.0 
0.0 -8.999999999983e+00 0.0 
0.0 -9.999999999985e+00 0.0 
0.0 -1.099999999999e+01 0.0 
0.0 -1.199999999999e+01 0.0 
0.0 -1.299999999999e+01 0.0 
0.0 -1.399999999999e+01 0.0 
0.0 -1.499999999999e+01 0.0 
0.0 -1.599999999999e+01 0.0 
0.0 -1.700000000000e+01 0.0 
0.0 -1.800000000000e+01 0.0 
0.0 -1.900000000000e+01 0.0 
4.900000000001e+01 -2.000000000000e+01 0.0 
4.800000000001e+01 -2.000000000000e+01 0.0 
4.700000000002e+01 -2.000000000000e+01 0.0 
4.600000000003e+01 -2.000000000000e+01 0.0 
4.500000000004e+01 -2.000000000000e+01 0.0 
4.400000000004e+01 -2.000000000000e+01 0.0 
4.300000000005e+01 -2.000000000000e+01 0.0 
4.200000000006e+01 -2.000000000000e+01 0.0 
4.100000000006e+01 -2.000000000000e+01 0.0 
4.000000000007e+01 -2.000000000000e+01 0.0 
3.900000000008e+01 -2.000000000000e+01 0.0 
3.800000000009e+01 -2.000000000000e+01 0.0 
3.700000000009e+01 -2.000000000000e+01 0.0 
3.600000000010e+01 -2.000000000000e+01 0.0 
3.500000000011e+01 -2.000000000000e+01 0.0 
3.400000000011e+01 -2.000000000000e+01 0.0 
3.300000000012e+01 -2.000000000000e+01 0.0 
3.200000000013e+01 -2.000000000000e+01 0.0 
3.100000000013e+01 -2.000000000000e+01 0.0 
3.000000000013e+01 -2.000000000000e+01 0.0 
2.900000000013e+01 -2.000000000000e+01 0.0 
2.800000000013e+01 -2.000000000000e+01 0.0 
2.700000000013e+01 -2.000000000000e+01 0.0 
2.600000000013e+01 -2.000000000000e+01 0.0 
2.500000000013e+01 -2.000000000000e+01 0.0 
2.400000000013e+01 -2.000000000000e+01 0.0 
2.300000000013e+01 -2.000000000000e+01 0.0 
2.200000000013e+01 -2.000000000000e+01 0.0 
2.100000000013e+01 -2.000000000000e+01 0.0 
2.000000000013e+01 -2.000000000000e+01 0.0 
1.900000000013e+01 -2.000000000000e+01 0.0 
1.800000000013e+01 -2.000000000000e+01 0.0 
1.700000000012e+01 -2.000000000000e+01 0.0 
1.600000000011e+01 -2.000000000000e+01 0.0 
1.500000000011e+01 -2.000000000000e+01 0.0 
1.400000000010e+01 -2.000000000000e+01 0.0 
1.300000000009e+01 -2.000000000000e+01 0.0 
1.200000000009e+01 -2.000000000000e+01 0.0 
1.100000000008e+01 -2.000000000000e+01 0.0 
1.000000000007e+01 -2.000000000000e+01 0.0 
9.000000000064e+00 -2.000000000000e+01 0.0 
8.000000000057e+00 -2.000000000000e+01 0.0 
7.000000000050e+00 -2.000000000000e+01 0.0 
6.000000000043e+00 -2.000000000000e+01 0.0 
5.000000000036e+00 -2.000000000000e+01 0.0 
4.000000000028e+00 -2.000000000000e+01 0.0 
3.000000000021e+00 -2.000000000000e+01 0.0 
2.000000000014e+00 -2.000000000000e+01 0.0 
1.000000000007e+00 -2.000000000000e+01 0.0 
5.000000000000e+01 -1.100000000000e+01 0.0 
5.000000000000e+01 -1.200000000000e+01 0.0 
5.000000000000e+01 -1.300000000000e+01 0.0 
5.000000000000e+01 -1.400000000000e+01 0.0 
5.000000000000e+01 -1.500000000000e+01 0.0 
5.000000000000e+01 -1.600000000000e+01 0.0 
5.000000000000e+01 -1.700000000000e+01 0.0 
5.000000000000e+01 -1.800000000000e+01 0.0 
5.000000000000e+01 -1.900000000000e+01 0.0 
2.000000000000e+01 0.0 0.0 
3.500000000000e+01 -1.000000000000e+01 0.0 
2.150000000000e+01 -1.000000000000e+00 0.0 
2.300000000000e+01 -2.000000000000e+00 0.0 
2.450000000000e+01 -3.000000000000e+00 0.0 
2.600000000000e+01 -4.000000000000e+00 0.0 
2.750000000000e+01 -5.000000000000e+00 0.0 
2.900000000000e+01 -6.000000000000e+00 0.0 
3.050000000000e+01 -7.000000000000e+00 0.0 
3.200000000000e+01 -8.000000000000e+00 0.0 
3.350000000000e+01 -9.000000000000e+00 0.0 
5.000000000000e+01 -4.000000000000e+00 0.0 
5.000000000000e+01 -5.000000000000e+00 0.0 
5.000000000000e+01 -6.000000000000e+00 0.0 
5.000000000000e+01 -7.000000000000e+00 0.0 
5.000000000000e+01 -8.000000000000e+00 0.0 
5.000000000000e+01 -9.000000000000e+00 0.0 
4.900000000000e+01 -1.000000000000e+01 0.0 
4.800000000000e+01 -1.000000000000e+01 0.0 
4.700000000000e+01 -1.000000000000e+01 0.0 
4.600000000000e+01 -1.000000000000e+01 0.0 
4.500000000000e+01 -1.000000000000e+01 0.0 
4.400000000000e+01 -1.000000000000e+01 0.0 
4.300000000000e+01 -1.000000000000e+01 0.0 
4.200000000000e+01 -1.000000000000e+01 0.0 
4.100000000000e+01 -1.000000000000e+01 0.0 
4.000000000000e+01 -1.000000000000e+01 0.0 
3.900000000000e+01 -1.000000000000e+01 0.0 
3.800000000000e+01 -1.000000000000e+01 0.0 
3.700000000000e+01 -1.000000000000e+01 0.0 
3.600000000000e+01 -1.000000000000e+01 0.0 
1.900000000000e+01 0.0 0.0 
1.800000000000e+01 0.0 0.0 
1.700000000000e+01 0.0 0.0 
1.600000000000e+01 0.0 0.0 
1.500000000000e+01 0.0 0.0 
1.400000000000e+01 0.0 0.0 
1.300000000000e+01 0.0 0.0 
1.200000000000e+01 0.0 0.0 
1.100000000000e+01 0.0 0.0 
1.000000000000e+01 0.0 0.0 
9.000000000000e+00 0.0 0.0 
8.000000000000e+00 0.0 0.0 
7.000000000000e+00 0.0 0.0 
6.000000000000e+00 0.0 0.0 
5.000000000000e+00 0.0 0.0 
4.000000000000e+00 0.0 0.0 
3.000000000000e+00 0.0 0.0 
2.000000000000e+00 0.0 0.0 
1.000000000000e+00 0.0 0.0 
4.900000000000e+01 -4.000000000000e+00 0.0 
4.800000000000e+01 -4.000000000000e+00 0.0 
4.700000000000e+01 -4.000000000000e+00 0.0 
4.600000000000e+01 -4.000000000000e+00 0.0 
4.500000000000e+01 -4.000000000000e+00 0.0 
4.400000000000e+01 -4.000000000000e+00 0.0 
4.300000000000e+01 -4.000000000000e+00 0.0 
4.200000000000e+01 -4.000000000000e+00 0.0 
4.100000000000e+01 -4.000000000000e+00 0.0 
4.000000000000e+01 -4.000000000000e+00 0.0 
3.900000000000e+01 -4.000000000000e+00 0.0 
3.800000000000e+01 -4.000000000000e+00 0.0 
3.700000000000e+01 -4.000000000000e+00 0.0 
3.600000000000e+01 -4.000000000000e+00 0.0 
3.500000000000e+01 -4.000000000000e+00 0.0 
3.400000000000e+01 -4.000000000000e+00 0.0 
3.300000000000e+01 -4.000000000000e+00 0.0 
3.200000000000e+01 -4.000000000000e+00 0.0 
3.100000000000e+01 -4.000000000000e+00 0.0 
3.000000000000e+01 -4.000000000000e+00 0.0 
2.900000000000e+01 -4.000000000000e+00 0.0 
2.800000000000e+01 -4.000000000000e+00 0.0 
2.700000000000e+01 -4.000000000000e+00 0.0 
2.847826086957e+01 -5.000000000000e+00 0.0 
2.945652173913e+01 -5.000000000000e+00 0.0 
3.043478260870e+01 -5.000000000000e+00 0.0 
3.141304347826e+01 -5.000000000000e+00 0.0 
3.239130434783e+01 -5.000000000000e+00 0.0 
3.336956521739e+01 -5.000000000000e+00 0.0 
3.434782608696e+01 -5.000000000000e+00 0.0 
3.532608695652e+01 -5.000000000000e+00 0.0 
3.630434782609e+01 -5.000000000000e+00 0.0 
3.728260869565e+01 -5.000000000000e+00 0.0 
3.826086956522e+01 -5.000000000000e+00 0.0 
3.923913043478e+01 -5.000000000000e+00 0.0 
4.021739130435e+01 -5.000000000000e+00 0.0 
4.119565217391e+01 -5.000000000000e+00 0.0 
4.217391304348e+01 -5.000000000000e+00 0.0 
4.315217391304e+01 -5.000000000000e+00 0.0 
4.413043478261e+01 -5.000000000000e+00 0.0 
4.510869565217e+01 -5.000000000000e+00 0.0 
4.608695652174e+01 -5.000000000000e+00 0.0 
4.706521739130e+01 -5.000000000000e+00 0.0 
4.804347826087e+01 -5.000000000000e+00 0.0 
4.902173913043e+01 -5.000000000000e+00 0.0 
4.900000000001e+01 -6.000000000000e+00 0.0 
4.800000000003e+01 -6.000000000000e+00 0.0 
4.700000000004e+01 -6.000000000000e+00 0.0 
4.600000000006e+01 -6.000000000000e+00 0.0 
4.500000000007e+01 -6.000000000000e+00 0.0 
4.400000000009e+01 -6.000000000000e+00 0.0 
4.300000000010e+01 -6.000000000000e+00 0.0 
4.200000000012e+01 -6.000000000000e+00 0.0 
4.100000000013e+01 -6.000000000000e+00 0.0 
4.000000000014e+01 -6.000000000000e+00 0.0 
3.900000000014e+01 -6.000000000000e+00 0.0 
3.800000000012e+01 -6.000000000000e+00 0.0 
3.700000000010e+01 -6.000000000000e+00 0.0 
3.600000000008e+01 -6.000000000000e+00 0.0 
3.500000000006e+01 -6.000000000000e+00 0.0 
3.400000000005e+01 -6.000000000000e+00 0.0 
3.300000000003e+01 -6.000000000000e+00 0.0 
3.200000000001e+01 -6.000000000000e+00 0.0 
3.100000000000e+01 -6.000000000000e+00 0.0 
3.000000000000e+01 -6.000000000000e+00 0.0 
3.147499999998e+01 -7.000000000000e+00 0.0 
3.244999999998e+01 -7.000000000000e+00 0.0 
3.342499999998e+01 -7.000000000000e+00 0.0 
3.439999999998e+01 -7.000000000000e+00 0.0 
3.537499999998e+01 -7.000000000000e+00 0.0 
3.634999999998e+01 -7.000000000000e+00 0.0 
3.732499999998e+01 -7.000000000000e+00 0.0 
3.829999999998e+01 -7.000000000000e+00 0.0 
3.927499999999e+01 -7.000000000000e+00 0.0 
4.024999999999e+01 -7.000000000000e+00 0.0 
4.122499999999e+01 -7.000000000000e+00 0.0 
4.219999999999e+01 -7.000000000000e+00 0.0 
4.317499999999e+01 -7.000000000000e+00 0.0 
4.414999999999e+01 -7.000000000000e+00 0.0 
4.512499999999e+01 -7.000000000000e+00 0.0 
4.609999999999e+01 -7.000000000000e+00 0.0 
4.707500000000e+01 -7.000000000000e+00 0.0 
4.805000000000e+01 -7.000000000000e+00 0.0 
4.902500000000e+01 -7.000000000000e+00 0.0 
4.900000000000e+01 -8.000000000000e+00 0.0 
4.800000000000e+01 -8.000000000000e+00 0.0 
4.700000000000e+01 -8.000000000000e+00 0.0 
4.600000000000e+01 -8.000000000000e+00 0.0 
4.500000000000e+01 -8.000000000000e+00 0.0 
4.400000000000e+01 -8.000000000000e+00 0.0 
4.300000000000e+01 -8.000000000000e+00 0.0 
4.200000000000e+01 -8.000000000000e+00 0.0 
4.100000000000e+01 -8.000000000000e+00 0.0 
4.000000000000e+01 -8.000000000000e+00 0.0 
3.900000000000e+01 -8.000000000000e+00 0.0 
3.800000000000e+01 -8.000000000000e+00 0.0 
3.700000000000e+01 -8.000000000000e+00 0.0 
3.600000000000e+01 -8.000000000000e+00 0.0 
3.500000000000e+01 -8.000000000000e+00 0.0 
3.400000000000e+01 -8.000000000000e+00 0.0 
3.300000000000e+01 -8.000000000000e+00 0.0 
3.447058823527e+01 -9.000000000000e+00 0.0 
3.544117647055e+01 -9.000000000000e+00 0.0 
3.641176470582e+01 -9.000000000000e+00 0.0 
3.738235294109e+01 -9.000000000000e+00 0.0 
3.835294117637e+01 -9.000000000000e+00 0.0 
3.932352941164e+01 -9.000000000000e+00 0.0 
4.029411764691e+01 -9.000000000000e+00 0.0 
4.126470588219e+01 -9.000000000000e+00 0.0 
4.223529411748e+01 -9.000000000000e+00 0.0 
4.320588235279e+01 -9.000000000000e+00 0.0 
4.417647058811e+01 -9.000000000000e+00 0.0 
4.514705882342e+01 -9.000000000000e+00 0.0 
4.611764705874e+01 -9.000000000000e+00 0.0 
4.708823529405e+01 -9.000000000000e+00 0.0 
4.805882352937e+01 -9.000000000000e+00 0.0 
4.902941176468e+01 -9.000000000000e+00 0.0 
2.075000000000e+01 -5.000000000006e-01 0.0 
2.225000000000e+01 -1.500000000000e+00 0.0 
2.375000000000e+01 -2.500000000000e+00 0.0 
2.525000000000e+01 -3.500000000000e+00 0.0 
2.675000000000e+01 -4.500000000000e+00 0.0 
2.825000000000e+01 -5.500000000000e+00 0.0 
2.975000000000e+01 -6.500000000000e+00 0.0 
3.125000000000e+01 -7.500000000000e+00 0.0 
3.275000000000e+01 -8.500000000000e+00 0.0 
3.425000000000e+01 -9.500000000000e+00 0.0 
2.226951693683e+01 -2.403913980114e+00 0.0 
1.650149491944e+01 -1.913490915758e+01 0.0 
1.050042386896e+01 -8.504605092970e-01 0.0 
1.553146524712e+01 -8.281255032105e-01 0.0 
1.150000000008e+01 -1.913397459621e+01 0.0 
2.530060260647e+01 -4.428336431260e+00 0.0 
8.651114563942e-01 -1.052096295641e+01 0.0 
2.050000000013e+01 -1.913397459622e+01 0.0 
2.819198729811e+01 -6.399519052838e+00 0.0 
2.445670302931e+01 -1.915649188023e+01 0.0 
3.117591465718e+01 -8.394293040695e+00 0.0 
7.465053044742e+00 -1.920411160581e+01 0.0 
6.398295709691e+00 -8.230098819370e-01 0.0 
2.849659607461e+01 -1.914296187762e+01 0.0 
3.418732642882e+01 -1.040265792588e+01 0.0 
8.386450935063e-01 -6.533605142809e+00 0.0 
9.178661865596e-01 -1.329769195597e+01 0.0 
3.149448624493e+01 -1.910466733764e+01 0.0 
3.552916747426e+01 -1.914628590759e+01 0.0 
4.449210346537e+01 -1.914359085008e+01 0.0 
4.140975975145e+01 -1.906941860733e+01 0.0 
3.847475958753e+01 -1.916622382724e+01 0.0 
3.653774794640e+01 -1.088712800241e+01 0.0 
4.047886341787e+01 -1.090139014048e+01 0.0 
4.348006339825e+01 -1.092792621489e+01 0.0 
4.919519968029e+01 -1.451526755068e+01 0.0 
4.500000000032e+00 -1.913397459621e+01 0.0 
1.856136921614e+01 -8.212235170404e-01 0.0 
3.499895312306e+00 -8.661165539723e-01 0.0 
9.076088696565e-01 -1.642306201891e+01 0.0 
4.655174095477e+01 -1.086183387525e+01 0.0 
9.430688970604e-01 -3.496112672958e+00 0.0 
3.353992337063e+01 -1.901202090820e+01 0.0 
2.249746016977e+01 -1.921262287282e+01 0.0 
2.650122741777e+01 -1.916123026018e+01 0.0 
1.863571384842e+01 -1.908325534840e+01 0.0 
1.450089971693e+01 -1.917691901860e+01 0.0 
1.350044695317e+01 -8.659695299584e-01 0.0 
3.849987469880e+01 -1.084154983397e+01 0.0 
9.454419857884e+00 -1.900818879936e+01 0.0 
4.917398660523e+01 -1.645692866081e+01 0.0 
8.500000000000e+00 -8.660254037844e-01 0.0 
8.660319230785e-01 -8.500111697188e+00 0.0 
4.649022621545e+01 -1.930506220113e+01 0.0 
2.667688107845e+01 -5.420288124331e+00 0.0 
2.379251615665e+01 -3.412225477429e+00 0.0 
2.966631491830e+01 -7.389030232731e+00 0.0 
3.267915035995e+01 -9.396934932445e+00 0.0 
2.074836922338e+01 -1.320054020319e+00 0.0 
4.915985743621e+01 -1.261973384855e+01 0.0 
2.527129768623e+00 -1.931592414663e+01 0.0 
1.538676247410e+00 -8.436956619311e-01 0.0 
4.908096641539e+01 -1.842484004551e+01 0.0 
3.478612492673e+01 -1.090889364140e+01 0.0 
3.409757055860e+01 -1.131991530427e+01 0.0 
3.501895309466e+01 -1.177687842717e+01 0.0 
3.407758073088e+01 -1.224293381580e+01 0.0 
3.484541875390e+01 -1.277051428430e+01 0.0 
3.400322025842e+01 -1.319022775640e+01 0.0 
3.321672625034e+01 -1.266779191233e+01 0.0 
3.315244139236e+01 -1.360984106532e+01 0.0 
3.236335186892e+01 -1.308463225210e+01 0.0 
3.478337442841e+01 -1.372341158982e+01 0.0 
3.230105923633e+01 -1.403023731610e+01 0.0 
3.150954055289e+01 -1.350301767700e+01 0.0 
3.144604792090e+01 -1.444931742516e+01 0.0 
3.065653897123e+01 -1.392357262981e+01 0.0 
3.071897610812e+01 -1.297447031198e+01 0.0 
2.986790411740e+01 -1.339226181535e+01 0.0 
2.993181466745e+01 -1.244703272398e+01 0.0 
2.908023061869e+01 -1.286254537734e+01 0.0 
2.901619051372e+01 -1.380881655279e+01 0.0 
2.822986160390e+01 -1.327695262116e+01 0.0 
2.829453476870e+01 -1.233265343811e+01 0.0 
2.744542905518e+01 -1.274510491105e+01 0.0 
2.751120089246e+01 -1.180368086886e+01 0.0 
2.666218649885e+01 -1.221619339205e+01 0.0 
2.672371209234e+01 -1.127125228527e+01 0.0 
2.587763216302e+01 -1.168539979114e+01 0.0 
2.581165585299e+01 -1.262994410089e+01 0.0 
2.502890882577e+01 -1.209827323619e+01 0.0 
2.509631327757e+01 -1.115492410304e+01 0.0 
2.424662989877e+01 -1.156630981079e+01 0.0 
2.431704046904e+01 -1.062389179334e+01 0.0 
2.346445438728e+01 -1.103427680694e+01 0.0 
2.339382552877e+01 -1.197964871788e+01 0.0 
2.260936050780e+01 -1.144513277642e+01 0.0 
2.268075012022e+01 -1.049911928216e+01 0.0 
2.182525737661e+01 -1.090920811464e+01 0.0 
2.189682319817e+01 -9.961716944568e+00 0.0 
2.104174127792e+01 -1.037266986667e+01 0.0 
2.111304367575e+01 -9.424179358711e+00 0.0 
2.025306185381e+01 -9.832727364719e+00 0.0 
2.018141124247e+01 -1.079140628871e+01 0.0 
1.938594498257e+01 -1.025147354112e+01 0.0 
1.946106490453e+01 -9.288010758448e+00 0.0 
1.858929958352e+01 -9.706319802516e+00 0.0 
1.851540991219e+01 -1.067205988724e+01 0.0 
1.771485303178e+01 -1.012504443115e+01 0.0 
1.764134552256e+01 -1.109360378538e+01 0.0 
1.683745148095e+01 -1.054496365337e+01 0.0 
1.691852964353e+01 -9.582555261178e+00 0.0 
1.603603813062e+01 -1.000160132379e+01 0.0 
1.595824239350e+01 -1.096750698862e+01 0.0 
1.515080624291e+01 -1.041639501931e+01 0.0 
1.523171602559e+01 -9.451711491453e+00 0.0 
1.434621060709e+01 -9.871956467464e+00 0.0 
1.426777178765e+01 -1.083749501371e+01 0.0 
1.345775282374e+01 -1.028803175500e+01 0.0 
1.354103873368e+01 -9.324918457162e+00 0.0 
1.265072018622e+01 -9.742612837270e+00 0.0 
1.257285762070e+01 -1.071557782384e+01 0.0 
1.175874815690e+01 -1.015972324288e+01 0.0 
1.184203019714e+01 -9.193604071377e+00 0.0 
1.094927709905e+01 -9.612103238656e+00 0.0 
1.086938022910e+01 -1.058685085646e+01 0.0 
1.005424098961e+01 -1.002939116380e+01 0.0 
9.977974613295e+00 -1.101324897989e+01 0.0 
1.012915646404e+01 -9.051815821181e+00 0.0 
9.237127782494e+00 -9.471239055559e+00 0.0 
9.308426593771e+00 -8.483376461131e+00 0.0 
8.418806073345e+00 -8.910712374517e+00 0.0 
2.253688464062e+01 -1.239459402279e+01 0.0 
8.495126726666e+00 -7.921646665254e+00 0.0 
9.389727383206e+00 -7.512103628377e+00 0.0 
7.601560812974e+00 -8.349460349344e+00 0.0 
7.525680547759e+00 -9.339736686940e+00 0.0 
7.677888324502e+00 -7.359727833346e+00 0.0 
6.782001206724e+00 -7.788454494773e+00 0.0 
6.858778622885e+00 -6.797338062822e+00 0.0 
2.196596590865e+01 -8.979025665442e+00 0.0 
2.816540108272e+01 -1.422634142353e+01 0.0 
5.961601194403e+00 -7.226824010712e+00 0.0 
6.038171749656e+00 -6.234825887079e+00 0.0 
6.936257279557e+00 -5.805287640737e+00 0.0 
6.115068918323e+00 -5.242109758768e+00 0.0 
3.564391741903e+01 -1.329240553876e+01 0.0 
3.558115605778e+01 -1.425902892003e+01 0.0 
3.645445282201e+01 -1.381970786460e+01 0.0 
3.639744204358e+01 -1.479198128612e+01 0.0 
3.727266909778e+01 -1.435399586226e+01 0.0 
5.216667013081e+00 -5.671788584287e+00 0.0 
3.220697293295e+01 -1.499594545107e+01 0.0 
3.551112158269e+01 -1.523479869250e+01 0.0 
2.836056961467e+01 -1.139032434851e+01 0.0 
2.516730388602e+01 -1.021382726837e+01 0.0 
1.844436907403e+01 -1.164097215196e+01 0.0 
5.885434318740e+00 -8.218694781467e+00 0.0 
5.064071066867e+00 -7.656614643901e+00 0.0 
4.988089103470e+00 -8.649722082718e+00 0.0 
1.079421050408e+01 -1.157014985435e+01 0.0 
9.902420005256e+00 -1.199903342656e+01 0.0 
1.071994252214e+01 -1.255727909771e+01 0.0 
9.826974788171e+00 -1.298659581767e+01 0.0 
1.064607883789e+01 -1.354595476388e+01 0.0 
9.751541265343e+00 -1.397556905071e+01 0.0 
8.932296185869e+00 -1.341553353988e+01 0.0 
8.856399248106e+00 -1.440570715508e+01 0.0 
8.036186803543e+00 -1.384470558472e+01 0.0 
1.057112875118e+01 -1.453516759081e+01 0.0 
1.146582585687e+01 -1.410539926903e+01 0.0 
7.959894480382e+00 -1.483563350928e+01 0.0 
7.138792279156e+00 -1.427465094140e+01 0.0 
7.062506792418e+00 -1.526615385482e+01 0.0 
6.240693558277e+00 -1.470508863040e+01 0.0 
6.316957575451e+00 -1.371212581281e+01 0.0 
5.418183007107e+00 -1.414253605022e+01 0.0 
5.494748364428e+00 -1.314886770603e+01 0.0 
1.756825565873e+01 -1.206433872514e+01 0.0 
1.837565773345e+01 -1.261356468266e+01 0.0 
1.749574831391e+01 -1.303769280014e+01 0.0 
1.830539187332e+01 -1.358828364284e+01 0.0 
1.742278925170e+01 -1.401367746928e+01 0.0 
1.823303007798e+01 -1.456432294258e+01 0.0 
1.734941694138e+01 -1.499213734361e+01 0.0 
1.653760041637e+01 -1.443920312098e+01 0.0 
3.056237977307e+01 -1.487132260174e+01 0.0 
1.866469084762e+01 -8.742953000418e+00 0.0 
1.953669694916e+01 -8.326038909849e+00 0.0 
1.874194303780e+01 -7.780688158966e+00 0.0 
1.961032016741e+01 -7.366854697285e+00 0.0 
1.881715755159e+01 -6.821102209649e+00 0.0 
1.968369797150e+01 -6.407747217358e+00 0.0 
1.889237123259e+01 -5.858375520026e+00 0.0 
1.802038875366e+01 -6.276202618170e+00 0.0 
1.809793837984e+01 -5.307629520489e+00 0.0 
1.721985207997e+01 -5.728242054488e+00 0.0 
1.729850893523e+01 -4.756990819347e+00 0.0 
1.641745664240e+01 -5.174636548624e+00 0.0 
2.495978509456e+01 -1.304406404294e+01 0.0 
1.911567814831e+01 -1.413854250293e+01 0.0 
1.904387332608e+01 -1.511463127723e+01 0.0 
1.992115934240e+01 -1.468788025898e+01 0.0 
7.013706899628e+00 -4.812582868662e+00 0.0 
5.342091874585e+00 -1.513658157269e+01 0.0 
1.139098043784e+01 -1.509488509480e+01 0.0 
1.228151810610e+01 -1.465617481983e+01 0.0 
1.646373110164e+01 -1.541993323337e+01 0.0 
5.293328636712e+00 -4.678385108584e+00 0.0 
1.975965862987e+01 -5.448124345648e+00 0.0 
2.054318374236e+01 -5.992561293251e+00 0.0 
3.721453439063e+01 -1.533216152738e+01 0.0 
3.809302733893e+01 -1.489235527381e+01 0.0 
1.220852788900e+01 -1.565304565230e+01 0.0 
4.394120899730e+00 -5.108397613210e+00 0.0 
8.779354620288e+00 -1.539524721159e+01 0.0 
1.817791047702e+01 -4.338570146253e+00 0.0 
4.518860013839e+00 -1.457343189307e+01 0.0 
4.442712140414e+00 -1.556841391069e+01 0.0 
8.115343466391e+00 -1.285760324283e+01 0.0 
1.985334703171e+01 -1.566478400426e+01 0.0 
2.071953850276e+01 -1.522074243119e+01 0.0 
1.634012953883e+01 -6.154777738301e+00 0.0 
1.553479994708e+01 -5.593730508879e+00 0.0 
1.561265946942e+01 -4.617761762647e+00 0.0 
1.470674212978e+01 -5.064576488228e+00 0.0 
1.464498299883e+01 -6.026514471420e+00 0.0 
1.383271561817e+01 -5.467796261169e+00 0.0 
1.389241253067e+01 -4.504338666645e+00 0.0 
1.301868735463e+01 -4.907185188626e+00 0.0 
1.294514184846e+01 -5.888160903592e+00 0.0 
1.212955968622e+01 -5.328262335277e+00 0.0 
1.220721122383e+01 -4.341264976687e+00 0.0 
1.131324345897e+01 -4.766773516508e+00 0.0 
5.266597955397e+00 -1.613148974258e+01 0.0 
1.737805990867e+01 -3.786677807525e+00 0.0 
3.078438094513e+01 -1.203225297748e+01 0.0 
1.131569882285e+01 -1.608511932110e+01 0.0 
1.728478341782e+01 -1.596017432313e+01 0.0 
3.803465906019e+01 -1.587509751228e+01 0.0 
3.891681276677e+01 -1.543395196905e+01 0.0 
3.897340985302e+01 -1.444710288980e+01 0.0 
3.980095968193e+01 -1.499059496613e+01 0.0 
3.974334598189e+01 -1.597921884150e+01 0.0 
4.062964983717e+01 -1.553518690417e+01 0.0 
4.068729602479e+01 -1.454434445295e+01 0.0 
4.151772679790e+01 -1.508974196007e+01 0.0 
4.157505195739e+01 -1.409694289912e+01 0.0 
4.240699932656e+01 -1.464347955968e+01 0.0 
4.234898051011e+01 -1.563721375790e+01 0.0 
4.323934606035e+01 -1.519082036405e+01 0.0 
4.329740528208e+01 -1.419587509788e+01 0.0 
4.413056841369e+01 -1.474359631875e+01 0.0 
4.418850110108e+01 -1.374786684042e+01 0.0 
4.502219770667e+01 -1.429605103525e+01 0.0 
4.496411937907e+01 -1.529215882720e+01 0.0 
4.490027319897e+00 -4.154167794594e+00 0.0 
1.565080385988e+01 -1.486411982419e+01 0.0 
1.557610691279e+01 -1.584855627870e+01 0.0 
4.195350646612e+00 -8.089117689096e+00 0.0 
4.124027797830e+00 -9.082831955007e+00 0.0 
4.917944318925e+00 -9.643530901533e+00 0.0 
4.020105689502e+00 -1.007439673661e+01 0.0 
4.587185899277e+01 -1.484039992728e+01 0.0 
4.580078661551e+01 -1.584043391042e+01 0.0 
2.061956522375e+01 -5.046701343981e+00 0.0 
2.139572955529e+01 -5.579553449826e+00 0.0 
3.715344357292e+01 -1.631485124583e+01 0.0 
3.618886196443e+00 -1.500471207167e+01 0.0 
3.695606940204e+00 -1.400939692294e+01 0.0 
2.438890661143e+01 -9.686110599723e+00 0.0 
2.523267572778e+01 -9.276766000622e+00 0.0 
2.446094171539e+01 -8.751904591412e+00 0.0 
2.529089822738e+01 -8.321495612547e+00 0.0 
2.606882688827e+01 -8.864724051119e+00 0.0 
2.452116646430e+01 -7.792756462004e+00 0.0 
1.235543269617e+01 -1.365845617339e+01 0.0 
4.318116874181e+01 -1.618567469992e+01 0.0 
7.835066111909e+00 -5.376366223896e+00 0.0 
7.905687335704e+00 -4.382539065697e+00 0.0 
3.542640009567e+00 -1.600035116542e+01 0.0 
1.572431503071e+01 -1.388358386695e+01 0.0 
2.574684696680e+01 -1.357896141127e+01 0.0 
2.488842657651e+01 -1.399674354505e+01 0.0 
2.568301775611e+01 -1.453552048595e+01 0.0 
2.481535572009e+01 -1.495542756508e+01 0.0 
2.561729699688e+01 -1.549784648532e+01 0.0 
2.474623061296e+01 -1.592058894178e+01 0.0 
2.394234041695e+01 -1.537572575827e+01 0.0 
2.065825452567e+01 -1.621899055217e+01 0.0 
2.387180528935e+01 -1.634552264687e+01 0.0 
4.585364400844e+01 -1.383912334080e+01 0.0 
1.998744432052e+01 -1.370317155541e+01 0.0 
1.205356951443e+01 -6.313580285498e+00 0.0 
5.396543905849e+00 -3.731818611283e+00 0.0 
1.139652573295e+01 -3.745819399350e+00 0.0 
3.574124306703e+00 -4.551456826011e+00 0.0 
3.494140761930e+00 -5.539787055649e+00 0.0 
1.213651452413e+01 -1.664505033022e+01 0.0 
2.555045568519e+01 -1.646529356744e+01 0.0 
2.641671114986e+01 -1.603899382371e+01 0.0 
2.612920721894e+01 -7.906435260873e+00 0.0 
2.690339829698e+01 -8.456969591431e+00 0.0 
1.978024383368e+01 -1.664410216353e+01 0.0 
3.732829979082e+01 -1.336926601859e+01 0.0 
4.074336584605e+01 -1.355133328401e+01 0.0 
4.163204691081e+01 -1.310280943992e+01 0.0 
3.773826114429e+00 -3.493444309145e+00 0.0 
1.228783001032e+01 -3.374822835872e+00 0.0 
4.057110462520e+01 -1.652588478000e+01 0.0 
2.132535497898e+01 -6.523623360525e+00 0.0 
2.216932532211e+01 -6.110044769206e+00 0.0 
1.825781152128e+01 -3.370146817147e+00 0.0 
1.745679445888e+01 -2.812942552063e+00 0.0 
4.666517057280e+01 -1.539981381543e+01 0.0 
4.660575894464e+01 -1.639014410186e+01 0.0 
4.838230979954e+00 -1.063643436446e+01 0.0 
3.938942630206e+00 -1.106778981745e+01 0.0 
1.302967218620e+01 -1.621373452436e+01 0.0 
1.049548003190e+01 -4.204825123240e+00 0.0 
4.573571907195e+01 -1.683820511148e+01 0.0 
1.483686335807e+01 -1.430849689310e+01 0.0 
1.490982658890e+01 -1.332679386284e+01 0.0 
3.190805600162e+00 -9.510968358545e+00 0.0 
2.146625721848e+01 -4.642437303115e+00 0.0 
2.069866208266e+01 -4.111852942193e+00 0.0 
1.286859345584e+01 -6.873252723348e+00 0.0 
1.041794493184e+01 -5.194814260291e+00 0.0 
2.671081808965e+00 -4.976806516331e+00 0.0 
1.295786792925e+01 -1.720506531799e+01 0.0 
3.968438206511e+01 -1.696869067241e+01 0.0 
2.308550456051e+01 -1.579963151273e+01 0.0 
2.315593682844e+01 -1.482967445235e+01 0.0 
2.299471449450e+01 -1.677069968132e+01 0.0 
1.057344714696e+01 -3.214252277840e+00 0.0 
1.124057603753e+01 -1.707713739755e+01 0.0 
2.718402535754e+00 -1.543629882103e+01 0.0 
2.638549692805e+01 -1.696744916809e+01 0.0 
2.723416349007e+01 -1.658104204545e+01 0.0 
2.210193351704e+01 -7.046769643417e+00 0.0 
2.295180925161e+01 -6.657397605239e+00 0.0 
2.301355235833e+01 -5.709111896800e+00 0.0 
2.379052718281e+01 -6.254965406962e+00 0.0 
3.243528601237e+01 -1.214181853533e+01 0.0 
2.287977995457e+01 -7.583722368300e+00 0.0 
2.999876029544e+01 -1.150837653096e+01 0.0 
3.084435366963e+01 -1.109693775882e+01 0.0 
3.006650579669e+01 -1.057778994262e+01 0.0 
2.683802665066e+01 -9.386863216633e+00 0.0 
2.768641973621e+01 -8.988883915666e+00 0.0 
2.040296980397e+01 -7.903629133404e+00 0.0 
1.925235024054e+01 -1.218872783130e+01 0.0 
5.735667000424e+00 -1.020577277283e+01 0.0 
6.396559909872e+00 -1.272326295703e+01 0.0 
1.161199420714e+01 -1.212812778229e+01 0.0 
4.229046132615e+01 -1.663084237572e+01 0.0 
4.312275399692e+01 -1.718087491556e+01 0.0 
4.335502068163e+01 -1.320039231514e+01 0.0 
4.424630298089e+01 -1.275160688731e+01 0.0 
7.090116643816e+00 -3.818998061530e+00 0.0 
7.989472176569e+00 -3.389238711200e+00 0.0 
9.085824861778e+00 -1.144036167408e+01 0.0 
1.041972423731e+01 -1.651614080893e+01 0.0 
3.797525112640e+01 -1.686052038746e+01 0.0 
3.709114253394e+01 -1.730125999865e+01 0.0 
3.626966748340e+01 -1.675477052919e+01 0.0 
1.385164591440e+01 -1.677597757552e+01 0.0 
1.787152588784e+01 -8.198993896093e+00 0.0 
1.668849729812e+01 -1.248560611628e+01 0.0 
1.659546177905e+01 -3.232482605530e+00 0.0 
2.332214717345e+01 -1.292598167641e+01 0.0 
7.168238450786e+00 -2.824711686516e+00 0.0 
2.894878403906e+01 -1.475427524446e+01 0.0 
2.646763248247e+00 -1.643270107952e+01 0.0 
3.467431944285e+00 -1.699648837348e+01 0.0 
2.059475877282e+01 -1.719473628526e+01 0.0 
3.333868355437e+01 -1.080596971682e+01 0.0 
2.246451062637e+01 -1.334557761546e+01 0.0 
2.167821896388e+01 -1.280847834858e+01 0.0 
3.089653185767e+01 -1.017198487212e+01 0.0 
3.012604365669e+01 -9.657298805968e+00 0.0 
2.929627299435e+01 -1.006100135274e+01 0.0 
2.936201435219e+01 -9.136748899251e+00 0.0 
1.198219052702e+01 -7.291887238230e+00 0.0 
1.116702076035e+01 -6.731976101053e+00 0.0 
2.551388807505e+01 -1.746927036981e+01 0.0 
2.378639090370e+01 -1.728678807149e+01 0.0 
2.718543627188e+01 -1.748668016909e+01 0.0 
2.804681050301e+01 -1.712626668293e+01 0.0 
1.970737034667e+01 -1.762317646822e+01 0.0 
1.889535776135e+01 -1.707158098231e+01 0.0 
2.593777711283e+00 -5.971157087874e+00 0.0 
2.773468281110e+01 -8.067164273938e+00 0.0 
4.051205884347e+01 -1.751819982458e+01 0.0 
3.166903145421e+01 -1.068032992414e+01 0.0 
1.033042452886e+01 -1.748285844336e+01 0.0 
9.519274604626e+00 -1.694349240233e+01 0.0 
1.668308673328e+01 -2.255861778986e+00 0.0 
1.570531902832e+01 -2.676795860126e+00 0.0 
4.655826903379e+01 -1.736656245706e+01 0.0 
2.384148070773e+01 -5.328744256413e+00 0.0 
2.460255123641e+01 -5.852182672816e+00 0.0 
2.306638135119e+01 -4.798935440613e+00 0.0 
8.467720450578e-01 -1.849576263072e+01 0.0 
4.849657322345e+01 -1.084860705506e+01 0.0 
2.565860899507e+00 -1.742859793981e+01 0.0 
2.764418872564e+01 -9.927142821799e+00 0.0 
4.565165880064e+01 -1.785336695404e+01 0.0 
2.162231831329e+01 -1.376528337468e+01 0.0 
2.360646352969e+01 -9.136041963102e+00 0.0 
1.392738739903e+01 -1.578285505772e+01 0.0 
4.756405947478e+01 -1.683706841809e+01 0.0 
4.740895034054e+01 -1.793766756892e+01 0.0 
4.080779328826e+01 -1.257387192544e+01 0.0 
4.168907939671e+01 -1.210739129181e+01 0.0 
3.991197722154e+01 -1.300815793917e+01 0.0 
1.905536506762e+01 -3.940076697685e+00 0.0 
1.923879596617e+01 -2.875000734166e+00 0.0 
4.401386745746e+01 -1.673483229438e+01 0.0 
4.247233362525e+00 -7.094581653070e+00 0.0 
3.286051630211e+00 -7.635300020553e+00 0.0 
9.609533347623e+00 -4.594311677967e+00 0.0 
9.523554636369e+00 -5.595597029530e+00 0.0 
5.660336628893e+00 -1.119290329628e+01 0.0 
6.558070063295e+00 -1.076385809362e+01 0.0 
2.809866407414e+01 -1.518037766799e+01 0.0 
2.888868674504e+01 -1.570360690070e+01 0.0 
2.654431550819e+01 -1.411217777162e+01 0.0 
1.402158265969e+01 -1.375404617952e+01 0.0 
1.409592494026e+01 -1.277071998942e+01 0.0 
1.499355196178e+01 -1.235270737023e+01 0.0 
4.221535326155e+01 -1.759335617494e+01 0.0 
4.305583287033e+01 -1.822663146802e+01 0.0 
1.280748808359e+01 -7.834332838285e+00 0.0 
1.368988389326e+01 -7.420529606172e+00 0.0 
1.110091796060e+01 -7.683966794328e+00 0.0 
3.963446145980e+01 -1.794331310122e+01 0.0 
3.423932362213e+00 -1.796415590455e+01 0.0 
4.280814572302e+00 -1.752272834860e+01 0.0 
8.050136380041e+00 -2.421582378631e+00 0.0 
8.888674091650e+00 -2.984264211327e+00 0.0 
2.152839430898e+01 -3.732609965436e+00 0.0 
2.077799585292e+01 -3.183896021866e+00 0.0 
3.618719395821e+01 -1.770276572576e+01 0.0 
3.538165138340e+01 -1.718709995539e+01 0.0 
3.702925326420e+01 -1.828844288807e+01 0.0 
1.756739438711e+00 -5.353284859169e+00 0.0 
2.233710191104e+01 -1.527265621324e+01 0.0 
1.389483555057e+01 -1.771797164730e+01 0.0 
1.475634224300e+01 -1.728357428390e+01 0.0 
1.298797563052e+01 -1.825968924755e+01 0.0 
2.145331271866e+01 -1.673705379077e+01 0.0 
2.133282821169e+01 -1.769400773673e+01 0.0 
2.292139194136e+01 -1.774915400288e+01 0.0 
1.750750053243e+01 -1.861475593469e+00 0.0 
4.830478841772e+01 -1.752611802221e+01 0.0 
4.341203507805e+01 -1.220326745522e+01 0.0 
1.685254151866e+01 -1.443085301632e+00 0.0 
4.431538535165e+01 -1.171841387375e+01 0.0 
4.511308610496e+01 -1.229557320599e+01 0.0 
4.510133242889e+01 -1.123680627466e+01 0.0 
1.846818030617e+00 -4.410877617069e+00 0.0 
3.995468694584e+01 -1.186571542989e+01 0.0 
3.901387459804e+01 -1.242507616755e+01 0.0 
8.966735877533e+00 -1.837818700423e+00 0.0 
4.049310011091e+01 -1.848269508791e+01 0.0 
7.278862053803e+00 -1.918523922691e+00 0.0 
6.429715522129e+00 -2.316676521184e+00 0.0 
9.443505505022e+00 -1.792198868094e+01 0.0 
8.620386951051e+00 -1.737590365556e+01 0.0 
8.571868171503e+00 -1.834436667826e+01 0.0 
7.758629848526e+00 -1.775677907213e+01 0.0 
7.806648388584e+00 -1.680761266021e+01 0.0 
6.908555145436e+00 -1.723746463044e+01 0.0 
4.251709122090e+01 -1.156937480156e+01 0.0 
6.931136405615e+00 -1.832465719263e+01 0.0 
6.015545461353e+00 -1.768865355295e+01 0.0 
5.960535926343e+00 -1.872011001764e+01 0.0 
3.023253444786e+01 -8.761960642196e+00 0.0 
2.454622702599e+01 -6.749421992767e+00 0.0 
2.537499741604e+01 -6.347634963783e+00 0.0 
2.544077378460e+01 -5.431358513649e+00 0.0 
2.801367161747e+01 -1.820907270221e+01 0.0 
2.884507806914e+01 -1.762032095326e+01 0.0 
1.821474531936e+00 -1.588901260460e+01 0.0 
1.821006262604e+00 -1.489370287756e+01 0.0 
4.599962488908e+01 -1.176478780598e+01 0.0 
4.705457470007e+01 -1.172182804229e+01 0.0 
4.667668314802e+01 -1.263464558483e+01 0.0 
4.759648056504e+01 -1.252380987933e+01 0.0 
4.728041618103e+01 -1.341928568376e+01 0.0 
4.825209352360e+01 -1.330491640804e+01 0.0 
4.778118233428e+01 -1.420151961695e+01 0.0 
2.388192727579e+01 -1.826934810142e+01 0.0 
2.381714684947e+01 -4.385917965223e+00 0.0 
3.172733219247e+01 -9.758744265248e+00 0.0 
1.882012070658e+01 -1.805540597212e+01 0.0 
1.805667505243e+01 -1.742221226236e+01 0.0 
2.852599958080e+01 -8.597196079481e+00 0.0 
2.856486123437e+01 -7.661382718527e+00 0.0 
1.111792842875e+01 -1.818223852980e+01 0.0 
2.203322722466e+01 -7.986646678802e+00 0.0 
3.955703676900e+01 -1.903246763601e+01 0.0 
1.944842206513e+01 -8.038750575182e-01 0.0 
1.909882767783e+01 -1.746322740933e+00 0.0 
2.281147422941e+01 -8.525912918334e+00 0.0 
2.850633001468e+01 -9.533271335986e+00 0.0 
2.532883344309e+01 -7.308951659710e+00 0.0 
2.620475466461e+01 -6.979208585400e+00 0.0 
1.396278270396e+01 -1.475095389807e+01 0.0 
9.791001166724e+00 -2.554159793552e+00 0.0 
2.229293380421e+01 -4.269762271052e+00 0.0 
4.677238984118e+01 -1.430071795514e+01 0.0 
2.228658385918e+01 -3.344747535984e+00 0.0 
8.940223674553e-01 -1.543595733415e+01 0.0 
2.118566862474e+01 -8.435876987696e+00 0.0 
2.678325936437e+01 -1.032621195706e+01 0.0 
2.223400220487e+01 -5.179046761770e+00 0.0 
2.375370625384e+01 -7.251580562134e+00 0.0 
3.156971327386e+01 -1.255534750737e+01 0.0 
3.328226391312e+01 -1.172914813316e+01 0.0 
3.250948774219e+01 -1.120157009348e+01 0.0 
2.032993445717e+01 -8.867880112202e+00 0.0 
2.697226974856e+01 -7.536633082045e+00 0.0 
2.707377810386e+01 -6.590835263295e+00 0.0 
2.914099246827e+01 -1.191678458549e+01 0.0 
3.544824072239e+01 -1.621126558525e+01 0.0 
3.456511855436e+01 -1.665054783843e+01 0.0 
3.448395810225e+01 -1.759117813016e+01 0.0 
3.368378673938e+01 -1.708037781328e+01 0.0 
3.375560452567e+01 -1.610973066913e+01 0.0 
3.288001547988e+01 -1.654324255651e+01 0.0 
3.282475929147e+01 -1.749725654692e+01 0.0 
3.199880906313e+01 -1.697294088625e+01 0.0 
3.197001272932e+01 -1.811667776864e+01 0.0 
3.111884713021e+01 -1.742166785755e+01 0.0 
3.120418962865e+01 -1.642155709385e+01 0.0 
3.034666704371e+01 -1.683123833816e+01 0.0 
3.026224379976e+01 -1.772592851714e+01 0.0 
3.046632362943e+01 -1.582232843075e+01 0.0 
1.961344017324e+01 -1.857459447985e+01 0.0 
2.274975894774e+01 -9.532738811922e+00 0.0 
1.833923246887e+01 -2.396746883672e+00 0.0 
1.988859500848e+01 -2.249244376594e+00 0.0 
2.758045562861e+01 -1.086434261689e+01 0.0 
3.247300178163e+01 -1.909930104252e+01 0.0 
3.461947482503e+01 -1.911879848019e+01 0.0 
2.047161538662e+01 -6.941478180358e+00 0.0 
2.750230940214e+01 -1.915490590764e+01 0.0 
3.165081350803e+01 -1.161860780120e+01 0.0 
1.897456727641e+01 -4.889634688522e+00 0.0 
2.549338539756e+01 -1.914858252089e+01 0.0 
3.462873135081e+01 -1.567482276144e+01 0.0 
3.384432415243e+01 -1.512280684518e+01 0.0 
3.471433767690e+01 -1.469086942990e+01 0.0 
3.651470373046e+01 -1.918207952149e+01 0.0 
3.901742690249e+01 -1.345028556517e+01 0.0 
2.153224102692e+01 -1.920169709333e+01 0.0 
1.918382939341e+01 -1.316226275662e+01 0.0 
2.005389162382e+01 -1.271962165174e+01 0.0 
2.011472087878e+01 -1.175029352900e+01 0.0 
3.210679478412e+01 -1.598038618242e+01 0.0 
1.752175226543e+01 -1.914713022656e+01 0.0 
1.696897240059e+01 -1.832772588765e+01 0.0 
1.599682523337e+01 -1.832599992024e+01 0.0 
1.644507199462e+01 -1.743697981535e+01 0.0 
1.549987712903e+01 -1.915192375101e+01 0.0 
3.050250861901e+01 -1.918943550234e+01 0.0 
2.949944061527e+01 -1.922950455235e+01 0.0 
1.375892575273e+01 -6.447160534926e+00 0.0 
1.457223670180e+01 -7.006709243857e+00 0.0 
1.450818793236e+01 -7.965943451779e+00 0.0 
1.538804712402e+01 -7.553409623699e+00 0.0 
1.545817644768e+01 -6.580929593419e+00 0.0 
1.626506893751e+01 -7.129032608911e+00 0.0 
1.619833811522e+01 -8.086588580887e+00 0.0 
1.714448609609e+01 -6.697429609777e+00 0.0 
2.887616543568e+01 -1.668015232137e+01 0.0 
1.349814589130e+01 -1.918225301544e+01 0.0 
1.153887772210e+01 -1.311384581217e+01 0.0 
1.242708159886e+01 -1.267046795531e+01 0.0 
1.249799674267e+01 -1.169005616014e+01 0.0 
6.631723893693e+00 -9.774184881867e+00 0.0 
7.451471631867e+00 -1.033148796006e+01 0.0 
7.377795355458e+00 -1.132196345268e+01 0.0 
5.810931797536e+00 -9.211654212252e+00 0.0 
2.402683899133e+01 -1.441378562320e+01 0.0 
1.249768692036e+01 -1.917388426624e+01 0.0 
1.580373499437e+01 -1.290751860664e+01 0.0 
8.344650507834e+00 -9.898403995170e+00 0.0 
3.750622115305e+01 -1.086526401533e+01 0.0 
3.699391251667e+01 -1.171695900794e+01 0.0 
3.606517829518e+01 -1.173717504500e+01 0.0 
3.650257641795e+01 -1.270047380221e+01 0.0 
3.808951488918e+01 -1.183518714175e+01 0.0 
4.760380962420e+00 -1.162484888315e+01 0.0 
3.861210370848e+00 -1.205657631736e+01 0.0 
3.038284309476e+00 -1.149851280664e+01 0.0 
2.961598794889e+00 -1.248856794980e+01 0.0 
2.138953225512e+00 -1.193212674534e+01 0.0 
2.227383593457e+00 -1.096258903918e+01 0.0 
2.043265419276e+00 -1.292158472959e+01 0.0 
1.252449446028e+00 -1.225502002753e+01 0.0 
3.949985210740e+01 -1.086594001795e+01 0.0 
1.453499444792e+01 -8.768805922472e-01 0.0 
1.403518950933e+01 -1.749965556633e+00 0.0 
1.300715031023e+01 -1.714737233040e+00 0.0 
1.350929389899e+01 -2.527443911291e+00 0.0 
1.449600910711e+01 -2.595486162864e+00 0.0 
1.395693872901e+01 -3.484211041558e+00 0.0 
1.495105865208e+01 -3.364609636216e+00 0.0 
1.508822528740e+01 -1.766586020494e+00 0.0 
1.250223858430e+01 -8.634590186802e-01 0.0 
1.200279523409e+01 -1.709044504992e+00 0.0 
1.150086239419e+01 -8.592789190668e-01 0.0 
1.101482754194e+01 -1.677730591922e+00 0.0 
1.148018564526e+01 -2.659323866909e+00 0.0 
8.800552119754e+00 -3.989875954728e+00 0.0 
3.452790439430e+00 -1.901136170646e+01 0.0 
8.658451825200e-01 -9.503462241795e+00 0.0 
1.694787786797e+00 -9.000589234502e+00 0.0 
1.703436717094e+00 -8.038819004041e+00 0.0 
2.594197971110e+00 -8.563955242845e+00 0.0 
1.630513735412e+00 -9.907244747511e+00 0.0 
8.566859292791e-01 -7.512203837972e+00 0.0 
1.685461277022e+00 -7.164280248030e+00 0.0 
2.506394468801e+00 -8.623386730818e-01 0.0 
2.007475081581e+00 -1.727729545205e+00 0.0 
9.211534699767e-01 -1.628791366312e+00 0.0 
1.500000000020e+00 -2.598063549486e+00 0.0 
2.482078929963e+00 -2.553580088725e+00 0.0 
2.999795253092e+00 -1.732169015019e+00 0.0 
3.999712607169e+00 -1.728832897453e+00 0.0 
4.499752199340e+00 -8.656478679175e-01 0.0 
4.964377774841e+00 -1.730129617941e+00 0.0 
4.425017908337e+00 -2.597541756243e+00 0.0 
5.446573195014e+00 -8.410144840023e-01 0.0 
4.915722346614e+01 -1.550640962770e+01 0.0 
4.826794919243e+01 -1.600000000000e+01 0.0 
1.053139533193e+01 -1.911782884365e+01 0.0 
4.156049861949e+01 -1.095160998589e+01 0.0 
9.494526624416e+00 -8.650570090219e-01 0.0 
4.555762166964e+01 -1.897098103585e+01 0.0 
4.250656411371e+01 -1.914387356218e+01 0.0 
4.350906466345e+01 -1.917234727395e+01 0.0 
8.759665722424e-01 -1.746422130609e+01 0.0 
1.698936011838e+00 -1.795012186674e+01 0.0 
4.742476811029e+01 -1.900090177972e+01 0.0 
7.749196752349e+00 -6.368049313489e+00 0.0 
3.361572113416e+01 -1.798765193915e+01 0.0 
4.484660149212e+01 -1.728661231383e+01 0.0 
1.984038172228e+01 -4.502575320116e+00 0.0 
1.035080352627e+01 -6.166639575753e+00 0.0 
2.753558010652e+00 -1.444909521181e+01 0.0 
7.217069543032e+00 -1.328635391078e+01 0.0 
4.364336727739e+00 -1.655585677381e+01 0.0 
4.595208426108e+00 -1.357919665443e+01 0.0 
6.164967006980e+00 -1.569873454630e+01 0.0 
1.487855768353e+01 -1.826523774028e+01 0.0 
2.791876456372e+00 -4.019632415181e+00 0.0 
4.246464893515e+01 -1.364898659620e+01 0.0 
4.503855590351e+01 -1.329552780944e+01 0.0 
4.407239109604e+01 -1.573900004093e+01 0.0 
5.141054449252e+00 -6.664290382472e+00 0.0 
3.141083947149e+00 -1.055790764912e+01 0.0 
6.196463198741e+00 -4.256497932609e+00 0.0 
2.599618716181e+01 -1.836893455464e+01 0.0 
2.923057372337e+01 -1.098461757645e+01 0.0 
1.168343877486e+01 -1.114079645041e+01 0.0 
6.706222096238e+00 -8.780364234441e+00 0.0 
8.567858614669e+00 -6.943121440850e+00 0.0 
1.123755132901e+01 -5.753525820030e+00 0.0 
2.353456234423e+01 -1.008536320953e+01 0.0 
9.162073319168e+00 -1.045593739109e+01 0.0 
9.676343469685e+00 -1.496493008366e+01 0.0 
4.490637882905e+01 -1.628778970202e+01 0.0 
7.398129387772e+00 -9.639977982323e-01 0.0 
1.049641705805e+01 -1.552503975272e+01 0.0 
9.010356286268e+00 -1.242805042052e+01 0.0 
3.985573925497e+01 -1.399863651620e+01 0.0 
1.816196318262e+01 -1.554066497931e+01 0.0 
1.306332244168e+01 -3.963646550326e+00 0.0 
4.145850903932e+01 -1.608094559275e+01 0.0 
3.794664933633e+01 -1.779020121986e+01 0.0 
3.819614412903e+01 -1.290749321016e+01 0.0 
6.270014188119e+00 -3.255093186826e+00 0.0 
4.251165370388e+01 -1.263870364997e+01 0.0 
1.207347709171e+01 -1.763942826023e+01 0.0 
3.633240829927e+01 -1.577330481104e+01 0.0 
4.319052668832e+00 -6.101812561904e+00 0.0 
1.676492415806e+01 -1.151547901392e+01 0.0 
2.594059220037e+01 -1.074225223009e+01 0.0 
3.340750911501e+01 -9.898764354137e+00 0.0 
4.397619591281e+01 -1.769773736461e+01 0.0 
2.175611595028e+01 -1.185718747128e+01 0.0 
1.641818733106e+01 -1.640685203215e+01 0.0 
1.661211421753e+01 -1.346121366338e+01 0.0 
3.428853504935e+00 -6.551993389271e+00 0.0 
8.700728832502e+00 -1.638460872825e+01 0.0 
1.931369795309e+01 -1.121629383702e+01 0.0 
4.139798872363e+01 -1.706922153459e+01 0.0 
2.647837478700e+01 -1.507353829290e+01 0.0 
1.779469616424e+01 -9.161615782908e+00 0.0 
3.885879219319e+01 -1.642026488918e+01 0.0 
1.338194936770e+01 -1.125916521471e+01 0.0 
1.897071181111e+01 -1.609204322578e+01 0.0 
2.844308548793e+01 -1.046221003096e+01 0.0 
2.659854702194e+01 -1.316109415760e+01 0.0 
2.979604503271e+01 -1.433296157755e+01 0.0 
2.417694041347e+01 -1.251231397779e+01 0.0 
1.807401327411e+00 -1.388891148480e+01 0.0 
9.599810618782e+00 -1.595439365034e+01 0.0 
1.652144692160e+01 -4.205392788472e+00 0.0 
2.367839450246e+01 -8.188385218643e+00 0.0 
3.814894930468e+01 -1.390748338767e+01 0.0 
2.466448215774e+01 -1.685878545680e+01 0.0 
4.134044524611e+01 -1.806610045954e+01 0.0 
2.600511411958e+01 -9.801774120648e+00 0.0 
7.882158050716e+00 -1.582364037353e+01 0.0 
3.881607873422e+01 -1.737970515013e+01 0.0 
8.270182347708e+00 -1.088622154920e+01 0.0 
8.672520392520e-01 -4.532984309881e+00 0.0 
1.993447205337e+01 -3.579061902667e+00 0.0 
1.794616079549e+01 -7.238038888498e+00 0.0 
2.097277068165e+01 -1.132450168636e+01 0.0 
8.194803300681e+00 -1.187214224265e+01 0.0 
3.522279404911e+01 -1.823342818178e+01 0.0 
6.984481050295e+00 -1.625271465557e+01 0.0 
1.309433007797e+01 -1.521718594215e+01 0.0 
2.150246167611e+01 -1.885399038185e+00 0.0 
3.250689370209e+01 -1.028789870535e+01 0.0 
6.085886272238e+00 -1.668342132851e+01 0.0 
1.588455661727e+01 -1.193498985921e+01 0.0 
1.809323400821e+01 -1.651110084195e+01 0.0 
1.348885082381e+00 -1.136065576512e+01 0.0 
2.497670221995e+01 -1.834631276173e+01 0.0 
2.937062818424e+01 -8.233711194470e+00 0.0 
5.185823744469e+00 -1.711566910207e+01 0.0 
1.477497877209e+01 -1.530177014512e+01 0.0 
2.125346158933e+01 -7.473003997367e+00 0.0 
4.751561118290e+01 -1.084897772632e+01 0.0 
5.056026576843e+00 -1.825750475525e+01 0.0 
1.473948554523e+01 -1.634577436309e+01 0.0 
2.410566630936e+01 -1.345970002612e+01 0.0 
1.507337507513e+01 -1.138527895328e+01 0.0 
3.189857338687e+01 -8.887781229006e+00 0.0 
7.298712468334e+00 -1.230231046246e+01 0.0 
2.738235495295e+01 -1.368931690364e+01 0.0 
3.750141041969e+01 -1.920449893070e+01 0.0 
1.557271965640e+01 -1.683317951731e+01 0.0 
3.393731848929e+01 -1.413034777044e+01 0.0 
6.482156824153e+00 -1.174575135362e+01 0.0 
2.077971718439e+01 -1.421279621836e+01 0.0 
3.455084320178e+00 -2.562590040585e+00 0.0 
3.099056096250e+01 -9.270280416035e+00 0.0 
5.580176125418e+00 -1.217387969259e+01 0.0 
1.707247630389e+01 -7.660651981710e+00 0.0 
1.418658814174e+01 -1.180390575393e+01 0.0 
2.049103025389e+01 -1.811296706038e+01 0.0 
4.680386172316e+00 -1.260396879301e+01 0.0 
1.699679896554e+01 -8.624561788199e+00 0.0 
3.779470168555e+00 -1.303424899720e+01 0.0 
3.036589870126e+01 -7.879832518349e+00 0.0 
3.306993001774e+01 -1.457671062095e+01 0.0 
2.840150110165e+00 -1.346530088269e+01 0.0 
2.732011135052e+01 -1.464591214560e+01 0.0 
5.423639259568e+00 -2.659711955016e+00 0.0 
2.324455961696e+01 -1.387269388211e+01 0.0 
1.752768355571e+00 -1.693128613594e+01 0.0 
1.020244783051e+01 -8.076834012808e+00 0.0 
1.330873875224e+01 -1.222417528206e+01 0.0 
3.297727364880e+01 -1.555480372087e+01 0.0 
2.890929955439e+01 -6.868664170731e+00 0.0 
1.323294664622e+01 -1.320754260334e+01 0.0 
2.726532861246e+01 -1.560593120806e+01 0.0 
2.240020643398e+01 -1.429299177247e+01 0.0 
2.090445823633e+01 -1.228128621332e+01 0.0 
1.315809881502e+01 -1.420739326938e+01 0.0 
2.781328038068e+01 -7.181956082300e+00 0.0 
8.614200829057e+00 -5.936933226306e+00 0.0 
8.714765730069e+00 -4.979270529687e+00 0.0 
1.611881701099e+01 -9.041973294003e+00 0.0 
2.806830314340e+01 -1.614622947108e+01 0.0 
2.084435391396e+00 -3.385085422913e+00 0.0 
3.133211811152e+01 -1.542347619750e+01 0.0 
9.693114650768e+00 -3.590281506442e+00 0.0 
1.531883592202e+01 -8.504584946143e+00 0.0 
2.151589117094e+01 -1.578915763018e+01 0.0 
4.918943882696e+01 -1.355538828056e+01 0.0 
1.443236615188e+01 -8.918701794549e+00 0.0 
8.276250966452e-01 -5.537685192197e+00 0.0 
1.362790867918e+01 -8.374718262212e+00 0.0 
2.083767477370e+01 -1.324843956035e+01 0.0 
1.273834678703e+01 -8.790890389337e+00 0.0 
1.192275845670e+01 -8.242261327467e+00 0.0 
4.477236023583e+01 -1.824312396664e+01 0.0 
1.102989384254e+01 -8.649855800911e+00 0.0 
4.849096516045e+01 -1.917293752213e+01 0.0 
1.588996752238e+00 -1.910230934687e+01 0.0 
4.904245197583e+01 -1.159839008158e+01 0.0 
2.753852929608e+01 -5.782128488093e+00 0.0 
1.756133602833e+01 -8.306130313187e-01 0.0 
2.615423700951e+01 -6.153865090092e+00 0.0 
1.028818761294e+01 -7.122020845892e+00 0.0 
2.970818901196e+01 -1.527821347593e+01 0.0 
4.801461623449e+01 -1.164472570985e+01 0.0 
9.455722100419e+00 -6.546069291118e+00 0.0 
3.089099236677e+01 -1.835339328261e+01 0.0 
2.350000000013e+01 -1.920825896750e+01 0.0 
4.830620531887e+01 -1.506626155470e+01 0.0 
1.725381944701e+01 -1.688794487850e+01 0.0 
2.156246225273e+01 -1.475893794002e+01 0.0 
4.919319648787e+01 -1.742767505896e+01 0.0 
4.437935623576e+01 -1.077662927266e+01 0.0 
1.001520521978e+01 -1.652692675208e+00 0.0 
9.067160240050e-01 -1.441937727541e+01 0.0 
2.603365149390e+01 -4.755996613848e+00 0.0 
2.458344439002e+01 -4.873645517696e+00 0.0 
2.304312390142e+01 -3.836552768096e+00 0.0 
2.546923202198e+00 -6.902480355749e+00 0.0 
1.251534969393e+01 -2.490989965776e+00 0.0 
2.454061833377e+01 -3.933354231935e+00 0.0 
1.788186558740e+01 -1.827424884923e+01 0.0 
4.090785243552e+01 -1.166553231904e+01 0.0 
2.230128851568e+01 -1.623015738726e+01 0.0 
2.302362347568e+01 -2.916239960270e+00 0.0 
3.878119254461e+01 -1.830091164002e+01 0.0 
2.210081359958e+01 -1.829238229150e+01 0.0 
8.443704882233e+00 -1.921993252862e+01 0.0 
2.218405824691e+01 -1.724557581508e+01 0.0 
2.151157503963e+01 -2.790636689331e+00 0.0 
3.741658958955e+01 -1.250400191722e+01 0.0 
2.697247663737e+01 -1.838290202309e+01 0.0 
4.743362342862e+01 -1.585850773010e+01 0.0 
6.671345075358e+00 -1.924977576322e+01 0.0 
3.900825404537e+01 -1.157220003875e+01 0.0 
4.649692961375e+01 -1.836335837481e+01 0.0 
1.578831424832e+01 -3.678284023361e+00 0.0 
4.814208768888e+01 -1.841249298770e+01 0.0 
2.964123298315e+01 -1.625739458193e+01 0.0 
4.580760351902e+01 -1.284294554687e+01 0.0 
3.561520879615e+01 -1.245548941949e+01 0.0 
2.555418095658e+00 -1.841101588290e+01 0.0 
3.288468366144e+01 -1.834258164109e+01 0.0 
2.065894391445e+01 -2.240688571739e+00 0.0 
4.739171429915e+01 -1.496536413446e+01 0.0 
3.478086729185e+00 -8.576434653209e+00 0.0 
1.606010630246e+01 -1.588421807951e+00 0.0 
1.018329200594e+01 -1.834320874317e+01 0.0 
2.957213339430e+01 -1.720496954591e+01 0.0 
4.142712790164e+00 -1.837794506222e+01 0.0 
6.698721532573e-01 -2.499999999997e+00 0.0 
8.037039123140e+00 -1.571229354954e+00 0.0 
1.203541361428e+01 -1.847784298001e+01 0.0 
2.899968332038e+01 -1.848264722179e+01 0.0 
1.469229460948e+01 -4.219485753730e+00 0.0 
4.049590781957e+01 -1.932812501995e+01 0.0 
1.996211678340e+01 -1.506329754720e+00 0.0 
4.250588298353e+01 -1.067383247529e+01 0.0 
5.831497011152e+00 -1.635396227234e+00 0.0 
5.317606125670e+00 -1.923927974868e+01 0.0 
4.208546426993e+01 -1.842830665025e+01 0.0 
2.327553405011e+00 -9.459409929662e+00 0.0 
3.568351902251e+01 -1.096637218582e+01 0.0 
1.682104374890e+00 -6.231413350963e+00 0.0 
2.451812238018e+01 -1.766524914339e+01 0.0 
1.058003429638e+01 -2.391839617098e+00 0.0 
4.399988753123e+01 -1.851998776342e+01 0.0 
1.400000000010e+01 -1.852293523028e+01 0.0 
3.604719565984e+01 -1.850662876800e+01 0.0 
1.951297136734e+01 -1.938092349694e+01 0.0 
1.821365318472e+01 -1.531276353287e+00 0.0 
2.298031859732e+01 -1.854635324722e+01 0.0 
1.552168066204e+01 -1.764280741977e+01 0.0 
4.572957713638e+01 -1.073347898229e+01 0.0 
3.429637429624e+01 -1.838861552790e+01 0.0 
2.427434426052e+00 -7.705577451869e+00 0.0 
4.662792031485e+00 -3.359424455416e+00 0.0 
4.926794919243e+01 -1.926794919243e+01 0.0 
7.320508075690e-01 -7.320508075688e-01 0.0 
4.926794919243e+01 -1.073205080757e+01 0.0 
7.320508075705e-01 -1.926794919243e+01 0.0 
2.917460242467e+00 -3.202866455310e+00 0.0 
4.838200575963e+01 -1.232674147454e+01 0.0 
2.998445708009e+01 -1.854403752148e+01 0.0 
5.949940090766e-01 -1.152762038165e+01 0.0 
4.844763495759e+01 -1.678092548787e+01 0.0 
1.301685480160e+01 -3.170056592566e+00 0.0 
1.650046335855e+01 -6.731535384067e-01 0.0 
4.854881540991e+01 -1.405224059779e+01 0.0 
2.119545114693e+01 -1.846813384545e+01 0.0 
3.797852849897e+01 -1.857978513215e+01 0.0 
4.649823708745e+01 -1.338351810816e+01 0.0 
2.012685900976e+01 -2.889659035009e+00 0.0 
2.953271913273e+01 -1.791558075192e+01 0.0 
2.408509097292e+00 -1.021949208421e+01 0.0 
2.642589566221e+01 -1.773216561448e+01 0.0 
1.730010270775e+01 -1.763165076721e+01 0.0 
2.017406551304e+01 -8.513536440582e-01 0.0 
5.254761581934e-01 -1.249999999999e+01 0.0 
6.640448215642e+00 -1.545337834885e+00 0.0 
7.843361506349e+00 -1.852719839527e+01 0.0 
1.588442191088e+00 -1.066158564320e+01 0.0 
2.731250000000e+01 -4.420918367347e+00 0.0 
4.951086956522e+01 -4.500000000000e+00 0.0 
2.880770112393e+01 -5.415638864241e+00 0.0 
4.951086956522e+01 -5.500000000000e+00 0.0 
3.031250000000e+01 -6.420918367347e+00 0.0 
4.951250000000e+01 -6.500000000000e+00 0.0 
3.180701530612e+01 -7.414795918363e+00 0.0 
4.951250000000e+01 -7.500000000000e+00 0.0 
3.331250000000e+01 -8.420918367347e+00 0.0 
4.951470588234e+01 -8.500000000000e+00 0.0 
3.480610198624e+01 -9.413633635267e+00 0.0 
4.951470588234e+01 -9.500000000000e+00 0.0 

CELLS 2186 8744 
3 302 772 1048 
3 772 302 1050 
3 782 275 793 
3 895 660 1084 
3 662 722 888 
3 752 665 791 
3 282 704 706 
3 302 729 1050 
3 704 282 722 
3 655 890 1084 
3 274 849 850 
3 729 302 1064 
3 894 1046 1090 
3 711 842 932 
3 1046 308 1090 
3 301 895 1084 
3 710 281 851 
3 665 752 790 
3 289 709 1031 
3 709 289 969 
3 890 655 1043 
3 1020 266 1026 
3 747 1020 1026 
3 697 696 906 
3 396 552 841 
3 849 274 958 
3 111 82 1111 
3 741 267 983 
3 394 396 841 
3 906 696 1116 
3 646 856 858 
3 299 712 889 
3 782 793 1091 
3 19 287 762 
3 297 716 718 
3 725 66 1082 
3 66 725 1108 
3 744 293 788 
3 708 102 1061 
3 102 708 1122 
3 984 726 1010 
3 262 748 887 
3 1065 263 1069 
3 82 311 1111 
3 703 310 1060 
3 742 1065 1069 
3 856 646 859 
3 310 703 1086 
3 852 853 859 
3 842 711 1083 
3 304 747 984 
3 694 709 969 
3 472 1085 1103 
3 304 984 1010 
3 794 276 974 
3 1067 639 1112 
3 694 969 1038 
3 287 732 762 
3 555 883 1001 
3 890 301 1084 
3 261 1095 1136 
3 1075 701 1077 
3 521 549 755 
3 1085 858 1103 
3 866 685 1090 
3 747 304 1020 
3 1095 705 1136 
3 275 782 1055 
3 582 543 864 
3 271 730 796 
3 958 901 1012 
3 33 32 750 
3 741 983 1113 
3 4 5 876 
3 873 1067 1112 
3 713 278 964 
3 794 974 1123 
3 761 1066 1073 
3 883 555 1125 
3 1066 303 1073 
3 543 556 864 
3 281 710 1071 
3 266 772 1026 
3 772 266 1048 
3 722 662 934 
3 704 722 934 
3 733 958 1063 
3 18 19 762 
3 787 784 1032 
3 662 888 1071 
3 889 712 1062 
3 313 840 1111 
3 886 1057 1081 
3 1081 1057 1093 
3 279 33 750 
3 788 293 1118 
3 710 851 1083 
3 887 748 1096 
3 307 739 1036 
3 755 549 756 
3 888 722 1106 
3 308 866 1090 
3 469 1035 1059 
3 700 1075 1077 
3 590 588 766 
3 853 856 859 
3 893 894 1016 
3 659 886 1081 
3 261 852 859 
3 989 284 1108 
3 434 787 1032 
3 4 876 1127 
3 657 753 789 
3 624 940 978 
3 668 870 1094 
3 728 755 756 
3 523 521 755 
3 297 718 1076 
3 739 307 1131 
3 727 523 755 
3 758 688 1033 
3 311 313 1111 
3 886 659 1134 
3 523 727 766 
3 1078 977 1092 
3 743 993 1002 
3 870 668 1124 
3 993 268 1002 
3 278 713 1104 
3 690 1078 1092 
3 849 958 1012 
3 660 895 1086 
3 597 654 754 
3 268 726 1002 
3 716 297 1096 
3 894 651 1046 
3 733 901 958 
3 754 654 954 
3 698 826 1116 
3 630 746 754 
3 680 891 892 
3 730 271 1102 
3 932 842 1079 
3 539 511 760 
3 746 597 754 
3 726 268 1010 
3 654 792 954 
3 766 592 961 
3 282 706 1061 
3 753 388 789 
3 712 299 1100 
3 1047 1053 1131 
3 877 289 1031 
3 305 743 978 
3 826 698 835 
3 727 590 766 
3 762 733 1063 
3 729 263 1065 
3 1035 695 1059 
3 288 734 735 
3 749 388 753 
3 732 287 1016 
3 582 758 1033 
3 894 653 1016 
3 769 642 797 
3 284 989 1098 
3 1047 652 1053 
3 588 592 766 
3 940 305 978 
3 274 850 1147 
3 263 729 1064 
3 388 749 763 
3 511 562 760 
3 734 288 1122 
3 592 753 961 
3 743 305 993 
3 636 825 1030 
3 870 571 1094 
3 267 741 1056 
3 796 730 1080 
3 728 756 1050 
3 571 870 1110 
3 813 943 997 
3 746 630 984 
3 729 728 1050 
3 769 624 978 
3 753 657 961 
3 277 890 1043 
3 400 809 1019 
3 287 893 1016 
3 742 303 1066 
3 598 763 987 
3 784 809 1032 
3 81 112 751 
3 630 726 984 
3 986 658 990 
3 882 1014 1107 
3 897 290 1123 
3 395 320 802 
3 1017 376 1044 
3 506 986 990 
3 840 313 1089 
3 841 552 1079 
3 696 698 1116 
3 1027 918 1054 
3 764 335 792 
3 594 484 797 
3 401 395 802 
3 591 769 797 
3 642 769 978 
3 540 1000 1040 
3 825 674 1030 
3 751 285 752 
3 756 772 1050 
3 756 549 771 
3 654 764 792 
3 809 779 1019 
3 665 664 970 
3 658 757 976 
3 708 734 1122 
3 763 749 987 
3 454 976 1025 
3 714 924 1148 
3 800 401 802 
3 924 270 1148 
3 882 883 1014 
3 303 742 1069 
3 1027 670 1028 
3 774 401 800 
3 670 669 1028 
3 650 759 765 
3 476 857 929 
3 688 865 1033 
3 943 506 997 
3 642 594 797 
3 685 866 1098 
3 112 285 751 
3 559 589 765 
3 349 388 763 
3 747 746 984 
3 757 658 986 
3 725 989 1108 
3 1011 400 1019 
3 458 440 795 
3 506 990 997 
3 958 274 1063 
3 792 402 954 
3 801 802 998 
3 701 1075 1120 
3 349 763 770 
3 589 650 765 
3 319 591 767 
3 750 32 1104 
3 335 764 939 
3 808 351 947 
3 735 734 736 
3 864 556 1068 
3 591 768 769 
3 558 458 795 
3 664 798 899 
3 646 858 1085 
3 401 774 936 
3 484 767 797 
3 523 766 961 
3 774 613 936 
3 809 400 1032 
3 402 773 915 
3 269 723 1082 
3 599 808 947 
3 327 593 773 
3 657 789 920 
3 599 807 808 
3 441 457 798 
3 839 280 840 
3 353 350 770 
3 470 821 822 
3 801 1011 1019 
3 112 113 285 
3 591 317 768 
3 440 438 795 
3 514 559 765 
3 443 441 798 
3 322 319 767 
3 712 758 1062 
3 550 640 771 
3 599 806 807 
3 767 591 797 
3 839 840 841 
3 560 665 790 
3 470 822 824 
3 471 474 821 
3 756 771 772 
3 801 998 1011 
3 549 550 771 
3 436 353 770 
3 763 598 770 
3 560 664 665 
3 789 345 920 
3 689 759 761 
3 37 276 794 
3 39 290 793 
3 336 335 939 
3 457 440 458 
3 513 514 572 
3 328 327 773 
3 457 458 513 
3 470 471 821 
3 402 915 954 
3 891 680 1109 
3 795 598 987 
3 1000 656 1040 
3 689 572 759 
3 294 57 814 
3 513 458 514 
3 333 402 792 
3 560 464 664 
3 836 529 944 
3 350 349 770 
3 474 818 821 
3 593 484 594 
3 42 815 816 
3 438 436 598 
3 599 427 806 
3 573 572 689 
3 804 489 927 
3 976 757 1025 
3 589 590 648 
3 663 804 927 
3 292 45 796 
3 566 658 976 
3 41 275 815 
3 932 552 962 
3 787 434 1052 
3 650 648 742 
3 595 594 627 
3 327 484 593 
3 327 325 484 
3 403 939 965 
3 267 47 799 
3 394 841 1089 
3 768 624 769 
3 598 436 770 
3 669 865 1028 
3 627 642 743 
3 589 588 590 
3 288 735 988 
3 474 817 818 
3 438 598 795 
3 778 800 801 
3 559 588 589 
3 593 594 595 
3 427 429 806 
3 602 829 916 
3 50 291 805 
3 630 628 726 
3 442 444 824 
3 683 1017 1044 
3 649 728 729 
3 648 590 649 
3 784 781 809 
3 333 331 402 
3 640 746 747 
3 595 627 628 
3 54 293 810 
3 293 744 1070 
3 781 779 809 
3 801 800 802 
3 829 369 916 
3 521 522 549 
3 441 440 457 
3 439 438 440 
3 335 333 792 
3 616 836 944 
3 384 830 831 
3 777 775 778 
3 444 470 824 
3 518 403 519 
3 773 593 915 
3 520 519 521 
3 275 40 793 
3 290 38 794 
3 290 897 1091 
3 602 828 829 
3 613 515 936 
3 589 648 650 
3 437 436 438 
3 664 464 798 
3 550 597 640 
3 838 839 842 
3 804 932 962 
3 814 812 906 
3 785 784 787 
3 319 317 591 
3 326 325 327 
3 464 443 798 
3 861 863 864 
3 388 347 789 
3 341 339 403 
3 347 345 789 
3 258 977 1078 
3 735 736 737 
3 865 669 1033 
3 514 558 559 
3 57 56 814 
3 448 450 540 
3 312 624 768 
3 289 877 1099 
3 939 764 965 
3 349 347 388 
3 325 322 767 
3 271 43 816 
3 627 594 642 
3 331 328 773 
3 384 831 837 
3 775 774 800 
3 602 827 828 
3 44 271 796 
3 41 40 275 
3 37 36 276 
3 39 38 290 
3 324 322 325 
3 778 775 800 
3 783 781 784 
3 521 519 522 
3 549 522 550 
3 833 830 917 
3 777 778 779 
3 46 292 799 
3 692 613 774 
3 806 540 807 
3 692 774 775 
3 533 531 834 
3 341 403 518 
3 640 597 746 
3 513 572 573 
3 279 750 1074 
3 520 521 523 
3 914 633 983 
3 830 384 917 
3 475 478 817 
3 294 814 906 
3 559 587 588 
3 42 41 815 
3 290 794 1123 
3 332 331 333 
3 861 862 863 
3 44 43 271 
3 259 810 811 
3 474 475 817 
3 429 448 806 
3 265 51 805 
3 120 260 862 
3 518 519 520 
3 330 328 331 
3 334 333 335 
3 402 331 773 
3 572 514 765 
3 46 45 292 
3 435 353 436 
3 561 560 790 
3 723 269 1149 
3 862 260 863 
3 629 628 630 
3 856 857 858 
3 743 642 978 
3 259 55 810 
3 48 47 267 
3 484 325 767 
3 853 855 856 
3 702 561 790 
3 856 855 857 
3 946 644 959 
3 838 280 839 
3 314 312 768 
3 50 49 291 
3 296 838 842 
3 276 36 803 
3 536 533 834 
3 663 711 804 
3 649 727 728 
3 448 540 806 
3 664 899 970 
3 52 51 265 
3 40 39 793 
3 38 37 794 
3 602 410 827 
3 405 407 833 
3 341 518 920 
3 410 412 827 
3 54 53 293 
3 514 458 558 
3 821 820 822 
3 818 819 820 
3 553 663 927 
3 58 294 826 
3 853 854 855 
3 56 55 259 
3 817 682 818 
3 43 42 816 
3 783 784 785 
3 119 120 862 
3 518 657 920 
3 612 515 613 
3 45 44 796 
3 324 325 326 
3 579 536 580 
3 573 689 690 
3 812 811 813 
3 574 681 682 
3 818 682 819 
3 852 295 853 
3 47 46 799 
3 798 457 899 
3 566 614 658 
3 663 710 711 
3 900 632 919 
3 818 820 821 
3 326 327 328 
3 51 50 805 
3 407 509 833 
3 418 454 524 
3 338 336 339 
3 677 570 678 
3 822 820 823 
3 827 524 828 
3 339 336 939 
3 675 532 949 
3 448 449 450 
3 340 339 341 
3 377 379 837 
3 559 558 587 
3 405 833 917 
3 580 536 834 
3 404 427 599 
3 56 259 814 
3 691 613 692 
3 575 900 919 
3 55 54 810 
3 259 811 812 
3 346 345 347 
3 853 295 854 
3 59 826 835 
3 776 775 777 
3 478 574 817 
3 58 57 294 
3 412 418 827 
3 550 596 597 
3 317 314 768 
3 404 599 947 
3 408 602 916 
3 570 529 836 
3 802 320 998 
3 629 754 954 
3 450 468 469 
3 737 736 738 
3 379 384 837 
3 429 431 448 
3 574 631 681 
3 601 423 902 
3 118 119 860 
3 588 587 592 
3 574 682 817 
3 830 672 831 
3 344 342 345 
3 418 524 827 
3 553 661 663 
3 478 541 574 
3 59 58 826 
3 330 331 332 
3 600 671 672 
3 332 333 334 
3 600 672 830 
3 860 119 862 
3 316 314 317 
3 869 868 870 
3 270 125 884 
3 509 564 600 
3 418 453 454 
3 898 568 923 
3 678 836 980 
3 678 570 836 
3 312 272 624 
3 296 109 838 
3 693 803 996 
3 334 335 336 
3 125 126 884 
3 688 608 865 
3 854 860 861 
3 670 1027 1054 
3 586 636 1030 
3 666 898 923 
3 463 946 959 
3 387 385 896 
3 425 423 601 
3 566 577 614 
3 483 464 560 
3 300 868 869 
3 273 872 873 
3 262 60 835 
3 60 59 835 
3 868 867 871 
3 600 564 671 
3 408 410 602 
3 614 696 697 
3 608 527 865 
3 461 546 566 
3 882 880 883 
3 509 600 833 
3 831 672 832 
3 286 879 880 
3 300 867 868 
3 612 613 691 
3 126 127 881 
3 110 280 838 
3 110 111 280 
3 529 433 944 
3 273 10 872 
3 574 541 631 
3 759 572 765 
3 719 717 720 
3 799 292 914 
3 603 497 930 
3 649 590 727 
3 712 688 758 
3 595 628 629 
3 106 281 888 
3 105 106 888 
3 126 881 884 
3 881 880 882 
3 875 877 878 
3 451 392 526 
3 286 874 879 
3 867 264 871 
3 261 116 852 
3 392 387 896 
3 740 738 760 
3 108 109 296 
3 636 731 825 
3 412 417 418 
3 737 738 739 
3 10 11 872 
3 875 878 879 
3 30 29 891 
3 278 30 891 
3 663 661 710 
3 281 107 851 
3 872 869 873 
3 28 277 892 
3 526 392 896 
3 109 110 838 
3 108 296 851 
3 627 743 1002 
3 36 35 803 
3 891 29 892 
3 286 880 881 
3 127 286 881 
3 687 608 688 
3 831 832 968 
3 893 651 894 
3 115 116 261 
3 298 885 886 
3 117 295 852 
3 569 529 570 
3 117 118 295 
3 116 117 852 
3 676 570 677 
3 622 685 686 
3 739 738 740 
3 915 629 954 
3 874 875 879 
3 424 425 904 
3 25 24 895 
3 301 25 895 
3 107 108 851 
3 505 433 529 
3 29 28 892 
3 579 580 695 
3 875 876 877 
3 874 309 875 
3 875 309 876 
3 11 12 300 
3 308 69 866 
3 80 79 310 
3 129 309 874 
3 13 264 867 
3 70 69 308 
3 68 284 866 
3 61 262 887 
3 76 283 885 
3 78 77 298 
3 69 68 866 
3 68 67 284 
3 298 77 885 
3 129 130 309 
3 103 104 282 
3 106 107 281 
3 286 128 874 
3 65 64 269 
3 297 62 887 
3 63 62 297 
3 128 129 874 
3 127 128 286 
3 61 60 262 
3 62 61 887 
3 76 75 283 
3 100 101 288 
3 77 76 885 
3 74 73 307 
3 98 99 652 
3 124 125 270 
3 122 123 299 
3 121 122 889 
3 120 121 260 
3 13 14 264 
3 12 13 867 
3 122 299 889 
3 16 17 274 
3 260 121 889 
3 34 33 279 
3 28 27 277 
3 31 30 278 
3 6 7 289 
3 9 10 273 
3 27 26 890 
3 19 20 287 
3 26 25 301 
3 20 21 893 
3 21 22 651 
3 300 12 867 
3 277 27 890 
3 26 301 890 
3 287 20 893 
3 21 651 893 
3 516 517 901 
3 295 118 860 
3 407 508 509 
3 881 882 884 
3 719 720 721 
3 600 830 833 
3 482 466 903 
3 451 526 527 
3 1014 715 1107 
3 622 686 903 
3 509 510 564 
3 300 869 872 
3 466 528 903 
3 659 660 703 
3 11 300 872 
3 454 453 461 
3 416 414 467 
3 516 465 517 
3 584 516 901 
3 435 436 437 
3 629 630 754 
3 345 342 920 
3 424 423 425 
3 528 621 622 
3 732 584 733 
3 575 669 670 
3 647 568 655 
3 563 512 568 
3 708 707 734 
3 422 420 423 
3 465 424 904 
3 659 647 660 
3 563 647 659 
3 467 414 926 
3 622 653 685 
3 525 497 603 
3 732 733 762 
3 723 721 724 
3 655 568 898 
3 502 500 503 
3 418 417 453 
3 462 544 545 
3 481 567 575 
3 687 688 712 
3 854 295 860 
3 563 568 647 
3 622 621 653 
3 861 860 862 
3 780 779 781 
3 706 606 707 
3 452 466 482 
3 528 584 621 
3 631 632 683 
3 621 584 732 
3 706 707 708 
3 448 431 449 
3 723 724 725 
3 694 576 709 
3 718 717 719 
3 511 503 512 
3 545 576 639 
3 575 670 900 
3 847 845 848 
3 499 501 605 
3 386 390 405 
3 562 512 563 
3 502 511 539 
3 671 564 843 
3 733 584 901 
3 528 516 584 
3 511 512 562 
3 504 456 542 
3 564 510 565 
3 537 623 699 
3 503 910 923 
3 509 508 510 
3 416 467 902 
3 716 644 717 
3 502 503 511 
3 645 561 702 
3 619 714 715 
3 445 443 464 
3 528 622 903 
3 501 500 502 
3 849 847 850 
3 605 606 704 
3 566 546 577 
3 843 565 844 
3 466 516 528 
3 545 544 576 
3 719 721 723 
3 564 565 843 
3 639 576 694 
3 565 510 912 
3 405 406 407 
3 391 387 392 
3 846 847 849 
3 124 270 924 
3 299 123 924 
3 517 465 904 
3 462 504 544 
3 422 423 424 
3 423 420 902 
3 379 383 384 
3 478 479 541 
3 525 603 604 
3 791 665 1141 
3 407 507 508 
3 614 577 696 
3 544 504 555 
3 605 501 606 
3 704 606 706 
3 607 527 608 
3 643 610 644 
3 496 494 497 
3 462 456 504 
3 679 603 948 
3 604 603 679 
3 399 456 462 
3 728 727 755 
3 393 392 451 
3 466 465 516 
3 844 845 846 
3 692 775 776 
3 525 604 666 
3 452 424 465 
3 422 424 452 
3 451 527 607 
3 452 465 466 
3 496 497 498 
3 846 845 847 
3 499 500 501 
3 498 497 525 
3 351 352 947 
3 910 666 923 
3 510 571 912 
3 844 565 845 
3 507 406 667 
3 381 378 382 
3 499 498 500 
3 373 375 408 
3 391 393 399 
3 619 608 687 
3 496 498 499 
3 391 392 393 
3 716 717 718 
3 503 500 910 
3 452 482 905 
3 259 812 814 
3 510 508 571 
3 399 393 456 
3 607 608 619 
3 421 420 422 
3 502 539 909 
3 619 687 714 
3 405 390 406 
3 709 576 907 
3 499 605 908 
3 407 406 507 
3 420 416 902 
3 507 667 668 
3 568 512 923 
3 390 387 391 
3 415 419 463 
3 575 567 669 
3 419 416 420 
3 848 845 912 
3 421 422 905 
3 822 823 1004 
3 576 544 907 
3 707 606 909 
3 569 570 676 
3 519 403 965 
3 501 502 909 
3 481 575 919 
3 493 495 553 
3 544 555 907 
3 720 717 946 
3 505 529 569 
3 450 449 468 
3 604 679 680 
3 408 409 410 
3 542 456 913 
3 413 411 414 
3 643 644 716 
3 631 541 632 
3 422 452 905 
3 500 498 910 
3 475 477 478 
3 415 414 416 
3 661 554 662 
3 545 639 945 
3 386 387 390 
3 338 339 340 
3 419 420 421 
3 550 522 596 
3 340 341 342 
3 495 494 496 
3 606 501 909 
3 553 554 661 
3 845 565 912 
3 583 485 610 
3 410 411 412 
3 605 704 934 
3 782 781 783 
3 469 468 537 
3 415 416 419 
3 498 525 910 
3 379 381 383 
3 383 385 386 
3 451 607 913 
3 412 413 417 
3 386 405 917 
3 495 496 908 
3 553 495 554 
3 355 357 404 
3 896 385 918 
3 437 438 439 
3 386 385 387 
3 383 381 385 
3 393 451 913 
3 461 485 546 
3 374 372 376 
3 525 666 910 
3 370 372 373 
3 412 411 413 
3 408 375 409 
3 344 345 346 
3 456 393 913 
3 583 610 643 
3 583 643 748 
3 530 532 675 
3 379 378 381 
3 410 409 411 
3 496 499 908 
3 384 383 917 
3 518 520 657 
3 390 391 911 
3 541 479 919 
3 377 378 379 
3 391 399 911 
3 462 545 937 
3 409 375 609 
3 413 414 415 
3 548 585 586 
3 123 124 924 
3 366 364 367 
3 370 368 371 
3 377 376 378 
3 554 495 908 
3 373 374 375 
3 406 390 911 
3 374 376 377 
3 512 503 923 
3 667 406 911 
3 619 715 933 
3 913 607 933 
3 632 541 919 
3 381 382 918 
3 366 368 369 
3 373 372 374 
3 481 543 567 
3 542 913 933 
3 804 711 932 
3 911 399 937 
3 461 453 485 
3 534 547 548 
3 318 317 319 
3 557 491 578 
3 586 635 636 
3 352 355 947 
3 532 534 949 
3 479 480 481 
3 377 837 921 
3 348 347 349 
3 471 473 474 
3 543 480 556 
3 383 386 917 
3 370 371 372 
3 369 368 370 
3 667 911 937 
3 373 408 916 
3 366 367 368 
3 362 364 365 
3 385 381 918 
3 432 430 433 
3 493 494 495 
3 362 360 363 
3 546 485 583 
3 478 477 479 
3 696 577 698 
3 369 370 916 
3 636 730 731 
3 329 328 330 
3 479 481 919 
3 321 319 322 
3 611 515 612 
3 369 829 952 
3 592 749 753 
3 323 322 324 
3 403 339 939 
3 481 480 543 
3 713 684 750 
3 567 543 582 
3 744 638 745 
3 898 666 941 
3 455 433 505 
3 908 605 934 
3 492 491 557 
3 365 364 366 
3 404 426 427 
3 641 578 684 
3 415 463 922 
3 490 492 493 
3 569 676 757 
3 479 477 480 
3 490 488 491 
3 799 914 983 
3 583 748 935 
3 374 377 921 
3 554 908 934 
3 662 554 934 
3 370 373 916 
3 417 413 922 
3 453 417 925 
3 607 619 933 
3 439 440 441 
3 358 360 361 
3 362 363 364 
3 342 341 920 
3 641 684 713 
3 777 779 780 
3 666 604 941 
3 597 596 654 
3 487 459 515 
3 413 415 922 
3 679 948 964 
3 460 488 489 
3 375 374 921 
3 358 356 359 
3 490 491 492 
3 557 578 641 
3 497 494 930 
3 493 492 494 
3 644 610 959 
3 637 551 638 
3 610 485 925 
3 414 411 926 
3 726 628 1002 
3 432 455 486 
3 397 395 401 
3 399 462 937 
3 361 360 362 
3 678 980 992 
3 427 428 429 
3 444 446 470 
3 358 359 360 
3 429 430 431 
3 595 629 915 
3 609 375 921 
3 489 804 962 
3 722 282 1106 
3 84 249 258 
3 411 409 926 
3 455 505 506 
3 776 777 897 
3 404 357 426 
3 409 609 926 
3 493 553 927 
3 85 250 303 
3 432 433 455 
3 428 426 616 
3 593 595 915 
3 417 922 925 
3 474 473 475 
3 485 453 925 
3 577 546 935 
3 431 430 432 
3 494 492 930 
3 538 536 579 
3 546 583 935 
3 86 251 263 
3 489 490 927 
3 699 623 700 
3 492 557 930 
3 429 428 430 
3 357 356 358 
3 999 671 1003 
3 483 560 561 
3 603 930 948 
3 937 545 945 
3 87 252 302 
3 535 533 536 
3 604 680 941 
3 475 476 477 
3 337 336 338 
3 489 488 490 
3 968 832 973 
3 470 446 471 
3 592 587 749 
3 556 480 929 
3 475 473 476 
3 477 476 929 
3 427 426 428 
3 803 35 996 
3 88 253 266 
3 717 644 946 
3 354 353 435 
3 398 460 962 
3 445 464 483 
3 698 577 935 
3 480 477 929 
3 668 667 945 
3 449 431 928 
3 366 369 952 
3 537 551 623 
3 520 523 961 
3 397 401 936 
3 637 638 744 
3 490 493 927 
3 777 780 897 
3 488 487 951 
3 487 515 611 
3 457 513 899 
3 720 946 966 
3 460 487 488 
3 351 808 972 
3 89 254 304 
3 637 744 788 
3 442 441 443 
3 667 937 945 
3 537 468 551 
3 289 7 969 
3 343 342 344 
3 432 486 928 
3 611 612 931 
3 612 691 693 
3 431 432 928 
3 578 491 951 
3 352 350 353 
3 534 548 949 
3 90 255 268 
3 783 785 786 
3 91 256 305 
3 257 91 940 
3 355 404 947 
3 82 257 272 
3 625 380 626 
3 346 347 348 
3 358 361 938 
3 471 446 472 
3 355 356 357 
3 557 641 948 
3 780 781 782 
3 463 419 966 
3 623 551 637 
3 365 366 952 
3 487 611 951 
3 357 358 938 
3 721 720 975 
3 491 488 951 
3 515 459 936 
3 433 430 944 
3 352 354 355 
3 548 547 585 
3 326 328 329 
3 471 472 473 
3 442 443 444 
3 657 520 961 
3 334 336 337 
3 724 721 979 
3 460 459 487 
3 355 354 356 
3 530 675 955 
3 486 455 943 
3 930 557 948 
3 586 585 635 
3 552 398 962 
3 658 614 990 
3 426 357 938 
3 455 506 943 
3 340 342 343 
3 684 578 967 
3 636 635 730 
3 428 616 944 
3 444 443 445 
3 538 579 581 
3 343 380 618 
3 352 353 354 
3 430 428 944 
3 461 566 976 
3 444 445 446 
3 616 426 938 
3 321 322 323 
3 724 979 985 
3 323 324 434 
3 535 536 538 
3 318 319 321 
3 315 314 316 
3 329 330 389 
3 638 551 953 
3 946 463 966 
3 398 459 460 
3 612 693 931 
3 316 317 318 
3 435 437 615 
3 538 581 634 
3 948 641 964 
3 344 346 942 
3 343 344 380 
3 354 435 950 
3 459 397 936 
3 596 522 965 
3 625 626 656 
3 522 519 965 
3 468 449 953 
3 634 701 741 
3 359 356 950 
3 483 561 617 
3 691 692 974 
3 654 596 764 
3 992 365 1005 
3 634 581 701 
3 398 397 459 
3 922 463 959 
3 348 349 350 
3 617 561 645 
3 985 686 989 
3 337 338 447 
3 450 469 1000 
3 585 547 633 
3 645 702 705 
3 925 922 959 
3 558 795 987 
3 396 398 552 
3 467 973 994 
3 356 354 950 
3 721 975 979 
3 618 380 625 
3 435 615 950 
3 337 447 530 
3 617 645 646 
3 532 533 534 
3 449 928 953 
3 731 730 1102 
3 534 535 547 
3 442 824 971 
3 419 421 966 
3 641 713 964 
3 788 265 1006 
3 551 468 953 
3 351 350 352 
3 530 531 532 
3 903 686 985 
3 847 848 982 
3 534 533 535 
3 460 489 962 
3 720 966 975 
3 610 925 959 
3 100 288 988 
3 652 99 988 
3 321 323 400 
3 532 531 533 
3 601 902 994 
3 329 389 620 
3 626 380 942 
3 813 997 1121 
3 348 350 351 
3 34 279 996 
3 313 312 314 
3 380 344 942 
3 467 926 973 
3 439 441 442 
3 609 921 968 
3 530 447 531 
3 332 334 955 
3 396 397 398 
3 620 389 673 
3 620 673 674 
3 878 877 1031 
3 921 837 968 
3 764 596 965 
3 324 326 956 
3 434 324 956 
3 745 638 981 
3 7 8 969 
3 472 446 960 
3 338 340 957 
3 837 831 968 
3 91 305 940 
3 272 257 940 
3 396 395 397 
3 513 573 899 
3 973 832 994 
3 506 505 986 
3 446 445 960 
3 267 799 983 
3 951 611 967 
3 672 671 999 
3 966 421 975 
3 883 880 1001 
3 569 757 986 
3 447 338 957 
3 879 878 1001 
3 578 951 967 
3 445 483 960 
3 326 329 956 
3 334 337 955 
3 362 365 992 
3 828 524 1021 
3 611 931 967 
3 524 454 1025 
3 343 618 957 
3 340 343 957 
3 249 83 977 
3 483 617 960 
3 535 538 963 
3 315 316 320 
3 538 634 963 
3 587 558 987 
3 779 778 1019 
3 633 547 963 
3 624 272 940 
3 547 535 963 
3 421 905 975 
3 834 531 991 
3 609 968 973 
3 926 609 973 
3 692 776 974 
3 829 828 1018 
3 337 530 955 
3 808 807 1024 
3 454 461 976 
3 942 346 972 
3 971 824 1004 
3 836 616 980 
3 615 437 971 
3 329 620 956 
3 615 971 1004 
3 389 330 995 
3 638 953 981 
3 953 928 981 
3 346 348 972 
3 394 395 396 
3 975 905 979 
3 905 482 979 
3 573 690 970 
3 389 995 1013 
3 724 985 989 
3 640 747 1026 
3 601 999 1003 
3 258 249 977 
3 979 482 985 
3 439 442 971 
3 850 847 982 
3 1000 469 1059 
3 394 320 395 
3 315 320 394 
3 447 957 991 
3 90 268 993 
3 305 256 993 
3 482 903 985 
3 1021 524 1025 
3 678 992 1005 
3 505 569 986 
3 938 361 980 
3 437 439 971 
3 256 90 993 
3 313 314 315 
3 99 100 988 
3 928 486 981 
3 348 351 972 
3 637 788 1006 
3 621 732 1016 
3 616 938 980 
3 725 724 989 
3 1004 823 1008 
3 700 623 1006 
3 957 618 991 
3 580 834 1015 
3 614 697 990 
3 378 376 1017 
3 955 675 995 
3 980 361 992 
3 332 955 995 
3 749 587 987 
3 695 580 1023 
3 361 362 992 
3 902 467 994 
3 330 332 995 
3 1092 306 1105 
3 807 540 1040 
3 761 258 1078 
3 542 933 1014 
3 601 994 999 
3 548 586 1022 
3 320 316 998 
3 89 304 1010 
3 35 34 996 
3 83 248 306 
3 268 255 1010 
3 677 678 1005 
3 671 843 1003 
3 628 627 1002 
3 1034 819 1037 
3 1018 828 1021 
3 531 447 991 
3 540 450 1000 
3 785 1087 1097 
3 899 573 970 
3 832 672 999 
3 1003 843 1007 
3 896 918 1027 
3 311 272 312 
3 316 318 998 
3 18 762 1063 
3 880 879 1001 
3 705 702 1049 
3 865 527 1028 
3 843 844 1007 
3 359 1008 1029 
3 820 819 1034 
3 824 822 1004 
3 425 601 1003 
3 321 400 1011 
3 1007 844 1009 
3 359 950 1008 
3 995 675 1013 
3 711 710 1083 
3 469 537 1035 
3 844 846 1009 
3 425 1003 1007 
3 88 266 1020 
3 363 360 1029 
3 1009 846 1012 
3 283 75 1036 
3 74 307 1036 
3 304 254 1020 
3 904 425 1007 
3 682 681 1039 
3 761 759 1066 
3 623 637 1006 
3 669 567 1033 
3 1039 681 1041 
3 1024 807 1040 
3 255 89 1010 
3 846 849 1012 
3 9 273 1038 
3 311 312 313 
3 904 1007 1009 
3 365 952 1005 
3 994 832 999 
3 752 791 1105 
3 1060 298 1134 
3 367 364 1037 
3 943 813 1058 
3 580 1015 1023 
3 517 904 1009 
3 517 1009 1012 
3 1008 823 1029 
3 582 864 1114 
3 791 1092 1105 
3 901 517 1012 
3 990 697 997 
3 631 683 1042 
3 675 949 1013 
3 772 771 1026 
3 673 389 1013 
3 748 262 1101 
3 113 114 1049 
3 24 23 1045 
3 71 70 1046 
3 73 72 1047 
3 371 368 1041 
3 834 991 1015 
3 950 615 1008 
3 933 715 1014 
3 83 306 977 
3 898 941 1043 
3 318 321 1011 
3 82 272 311 
3 48 267 1056 
3 969 8 1038 
3 291 49 1056 
3 998 318 1011 
3 376 372 1044 
3 991 618 1015 
3 371 1041 1042 
3 650 742 1066 
3 1042 683 1044 
3 400 323 1032 
3 653 621 1016 
3 367 1037 1039 
3 673 1013 1022 
3 1049 114 1136 
3 363 1029 1034 
3 778 801 1019 
3 382 378 1017 
3 683 632 1051 
3 618 625 1015 
3 857 476 1103 
3 87 302 1048 
3 266 253 1048 
3 382 1051 1054 
3 677 1005 1018 
3 942 972 1024 
3 1013 949 1022 
3 782 783 1055 
3 254 88 1020 
3 885 283 1057 
3 730 635 1080 
3 615 1004 1008 
3 258 761 1073 
3 771 640 1026 
3 952 829 1018 
3 620 674 1052 
3 1005 952 1018 
3 665 970 1141 
3 676 677 1021 
3 742 648 1065 
3 972 808 1024 
3 677 1018 1021 
3 1015 625 1023 
3 539 760 1140 
3 918 382 1054 
3 689 761 1078 
3 676 1021 1025 
3 649 729 1065 
3 1049 702 1119 
3 310 79 1060 
3 78 298 1060 
3 863 260 1062 
3 757 676 1025 
3 526 1027 1028 
3 526 896 1027 
3 1022 586 1030 
3 625 656 1023 
3 949 548 1022 
3 363 1034 1037 
3 102 103 1061 
3 297 887 1096 
3 527 526 1028 
3 486 943 1058 
3 626 942 1024 
3 709 907 1031 
3 434 956 1052 
3 360 359 1029 
3 861 864 1068 
3 823 820 1034 
3 17 18 1063 
3 323 434 1032 
3 567 582 1033 
3 850 982 1133 
3 674 673 1030 
3 537 699 1035 
3 1017 683 1051 
3 1038 273 1112 
3 626 1024 1040 
3 75 74 1036 
3 855 854 1068 
3 914 292 1080 
3 793 290 1091 
3 307 1047 1131 
3 750 684 1074 
3 815 275 1055 
3 364 363 1037 
3 367 1039 1041 
3 811 810 1070 
3 285 113 1049 
3 8 9 1038 
3 850 1133 1147 
3 382 1017 1051 
3 819 682 1039 
3 86 263 1064 
3 302 252 1064 
3 710 661 1071 
3 1029 823 1034 
3 945 639 1067 
3 579 695 1072 
3 269 64 1076 
3 63 297 1076 
3 368 367 1041 
3 296 842 1083 
3 705 1049 1136 
3 85 303 1069 
3 858 857 1103 
3 263 251 1069 
3 656 626 1040 
3 681 631 1042 
3 1037 819 1039 
3 859 646 1095 
3 703 1060 1134 
3 1041 681 1042 
3 655 898 1043 
3 563 659 1081 
3 895 24 1045 
3 70 308 1046 
3 307 73 1047 
3 371 1042 1044 
3 253 87 1048 
3 372 371 1044 
3 66 65 1082 
3 84 258 1073 
3 303 250 1073 
3 745 981 1058 
3 888 281 1071 
3 660 647 1084 
3 673 1022 1030 
3 699 700 1077 
3 785 787 1087 
3 736 734 1088 
3 1051 900 1054 
3 632 900 1051 
3 1057 283 1137 
3 1072 699 1077 
3 280 111 1111 
3 652 988 1053 
3 735 737 1053 
3 734 707 1088 
3 617 646 1085 
3 900 670 1054 
3 680 892 1115 
3 909 539 1088 
3 265 788 1118 
3 783 786 1055 
3 956 620 1052 
3 967 931 1074 
3 571 508 1094 
3 507 668 1094 
3 748 643 1096 
3 261 859 1095 
3 694 1038 1112 
3 49 48 1056 
3 6 289 1099 
3 988 735 1053 
3 812 813 1121 
3 687 712 1100 
3 270 884 1107 
3 31 278 1104 
3 105 888 1106 
3 964 278 1109 
3 811 1070 1145 
3 282 104 1106 
3 285 1049 1119 
3 895 1045 1086 
3 542 1014 1125 
3 680 679 1109 
3 67 66 1108 
3 780 782 1091 
3 472 960 1085 
3 842 839 1079 
3 870 868 1110 
3 695 1035 1072 
3 52 265 1118 
3 886 885 1057 
3 293 53 1118 
3 646 645 1095 
3 723 725 1082 
3 473 472 1103 
3 878 1031 1130 
3 294 906 1116 
3 803 693 1117 
3 713 750 1104 
3 706 708 1061 
3 313 315 1089 
3 759 650 1066 
3 815 1055 1132 
3 873 869 1124 
3 690 1092 1141 
3 1035 699 1072 
3 101 102 1122 
3 693 691 1117 
3 3 80 1126 
3 23 3 1126 
3 130 0 1127 
3 0 4 1127 
3 72 1 1128 
3 1 98 1128 
3 2 71 1129 
3 22 2 1129 
3 876 309 1127 
3 115 261 1136 
3 989 686 1098 
3 634 741 1113 
3 555 504 1125 
3 719 723 1149 
3 16 274 1147 
3 264 14 1133 
3 760 738 1140 
3 929 857 1135 
3 695 1023 1059 
3 1014 883 1125 
3 912 571 1143 
3 1055 786 1132 
3 79 78 1060 
3 982 264 1133 
3 737 739 1131 
3 633 914 1144 
3 1087 825 1097 
3 1052 674 1087 
3 103 282 1061 
3 656 1000 1059 
3 974 776 1123 
3 639 694 1112 
3 260 889 1062 
3 585 633 1144 
3 981 486 1058 
3 857 855 1135 
3 740 1057 1137 
3 866 284 1098 
3 633 963 1113 
3 983 633 1113 
3 274 17 1063 
3 751 752 1105 
3 252 86 1064 
3 648 649 1065 
3 839 841 1079 
3 1023 656 1059 
3 941 680 1115 
3 810 293 1070 
3 854 861 1068 
3 863 1062 1114 
3 251 85 1069 
3 760 562 1093 
3 668 945 1067 
3 931 693 1139 
3 1031 907 1130 
3 744 745 1070 
3 661 662 1071 
3 805 291 1075 
3 581 579 1072 
3 841 840 1089 
3 835 698 1101 
3 693 996 1139 
3 1045 310 1086 
3 250 84 1073 
3 684 967 1074 
3 292 796 1080 
3 1070 745 1145 
3 581 1072 1077 
3 64 63 1076 
3 787 1052 1087 
3 81 751 1146 
3 690 689 1078 
3 786 785 1097 
3 552 932 1079 
3 653 894 1090 
3 701 581 1077 
3 269 1076 1149 
3 562 563 1081 
3 265 805 1138 
3 935 748 1101 
3 698 935 1101 
3 1067 873 1124 
3 65 269 1082 
3 851 296 1083 
3 647 655 1084 
3 864 863 1114 
3 659 703 1134 
3 740 760 1093 
3 876 5 1099 
3 960 617 1085 
3 674 825 1087 
3 278 891 1109 
3 703 660 1086 
3 1006 265 1138 
3 707 909 1088 
3 299 924 1100 
3 790 752 1119 
3 924 714 1100 
3 758 582 1114 
3 248 81 1146 
3 571 1110 1143 
3 685 653 1090 
3 897 780 1091 
3 315 394 1089 
3 508 507 1094 
3 643 716 1096 
3 697 906 1121 
3 1075 291 1120 
3 914 1080 1144 
3 825 731 1097 
3 1062 758 1114 
3 645 705 1095 
3 686 685 1098 
3 877 876 1099 
3 5 6 1099 
3 977 306 1092 
3 714 687 1100 
3 262 835 1101 
3 271 816 1102 
3 1043 941 1115 
3 291 1056 1120 
3 997 697 1121 
3 1088 539 1140 
3 32 31 1104 
3 476 473 1103 
3 104 105 1106 
3 855 1068 1135 
3 884 882 1107 
3 284 67 1108 
3 840 280 1111 
3 1001 878 1130 
3 868 871 1110 
3 1102 816 1132 
3 679 964 1109 
3 276 803 1117 
3 273 873 1112 
3 702 790 1119 
3 1076 718 1149 
3 1045 23 1126 
3 71 1046 1129 
3 1047 72 1128 
3 906 812 1121 
3 555 1001 1130 
3 1074 931 1139 
3 270 1107 1148 
3 826 294 1116 
3 974 276 1117 
3 752 285 1119 
3 963 634 1113 
3 562 1081 1093 
3 892 277 1115 
3 53 52 1118 
3 283 1036 1137 
3 816 815 1132 
3 691 974 1117 
3 1057 740 1093 
3 1102 1132 1142 
3 869 870 1124 
3 288 101 1122 
3 741 701 1120 
3 80 310 1126 
3 309 130 1127 
3 98 652 1128 
3 651 22 1129 
3 504 542 1125 
3 813 811 1145 
3 776 897 1123 
3 277 1043 1115 
3 907 555 1130 
3 1092 791 1141 
3 14 15 1133 
3 298 886 1134 
3 114 115 1136 
3 996 279 1139 
3 739 740 1137 
3 556 929 1135 
3 738 736 1140 
3 1056 741 1120 
3 1133 15 1147 
3 306 248 1146 
3 668 1067 1124 
3 848 912 1143 
3 15 16 1147 
3 700 1006 1138 
3 871 264 1150 
3 982 848 1150 
3 715 714 1148 
3 718 719 1149 
3 635 585 1144 
3 970 690 1141 
3 310 1045 1126 
3 1046 651 1129 
3 652 1047 1128 
3 1036 739 1137 
3 1143 871 1150 
3 848 1143 1150 
3 264 982 1150 
3 745 1058 1145 
3 1068 556 1135 
3 1080 635 1144 
3 1053 737 1131 
3 279 1074 1139 
3 1058 813 1145 
3 736 1088 1140 
3 786 1097 1142 
3 1075 700 1138 
3 805 1075 1138 
3 1105 306 1146 
3 1097 731 1142 
3 731 1102 1142 
3 1107 715 1148 
3 1110 871 1143 
3 751 1105 1146 
3 1132 786 1142 
3 131 174 175 
3 131 132 174 
3 132 173 174 
3 132 133 173 
3 133 172 173 
3 133 134 172 
3 134 171 172 
3 134 135 171 
3 135 170 171 
3 135 136 170 
3 136 169 170 
3 136 137 169 
3 137 168 169 
3 137 138 168 
3 168 138 167 
3 138 139 167 
3 139 166 167 
3 139 140 166 
3 87 152 1151 
3 140 165 166 
3 140 141 165 
3 141 164 165 
3 152 153 1151 
3 164 141 142 
3 152 87 154 
3 163 164 142 
3 143 163 142 
3 162 163 143 
3 144 162 143 
3 162 144 161 
3 144 145 161 
3 161 145 160 
3 145 146 160 
3 252 87 1151 
3 160 146 159 
3 146 147 159 
3 159 147 158 
3 147 148 158 
3 148 149 157 
3 148 157 158 
3 149 150 156 
3 157 149 156 
3 150 151 155 
3 151 152 154 
3 156 150 155 
3 155 151 154 
3 153 252 1151 
3 93 92 1152 
3 131 175 1152 
3 92 131 1152 
3 175 93 1152 
3 252 153 86 
3 174 175 176 
3 174 176 177 
3 173 174 177 
3 173 177 178 
3 172 173 178 
3 179 172 178 
3 179 171 172 
3 179 180 171 
3 180 170 171 
3 180 181 170 
3 181 169 170 
3 181 182 169 
3 182 168 169 
3 182 183 168 
3 168 183 167 
3 183 184 167 
3 184 166 167 
3 155 88 1153 
3 184 185 166 
3 185 165 166 
3 195 88 155 
3 185 186 165 
3 186 164 165 
3 186 187 164 
3 164 187 163 
3 187 188 163 
3 154 155 1153 
3 163 188 162 
3 188 189 162 
3 162 189 161 
3 189 190 161 
3 161 190 160 
3 190 191 160 
3 160 191 159 
3 191 192 159 
3 159 192 158 
3 192 193 158 
3 88 253 1153 
3 193 194 157 
3 193 157 158 
3 194 195 156 
3 157 194 156 
3 156 195 155 
3 253 154 1153 
3 93 94 1154 
3 176 175 1154 
3 94 176 1154 
3 175 93 1154 
3 253 87 154 
3 213 214 176 
3 177 213 176 
3 212 213 177 
3 178 212 177 
3 211 212 178 
3 179 211 178 
3 210 211 179 
3 180 210 179 
3 209 210 180 
3 209 180 181 
3 208 209 181 
3 182 208 181 
3 207 208 182 
3 183 207 182 
3 206 207 183 
3 184 206 183 
3 89 194 1155 
3 205 206 184 
3 205 184 185 
3 194 195 1155 
3 205 185 204 
3 204 185 186 
3 194 89 196 
3 203 204 186 
3 203 186 187 
3 202 203 187 
3 202 187 188 
3 201 202 188 
3 189 201 188 
3 254 89 1155 
3 200 201 189 
3 200 189 190 
3 199 200 190 
3 199 190 191 
3 198 191 192 
3 198 199 191 
3 192 193 197 
3 198 192 197 
3 193 194 196 
3 193 196 197 
3 195 254 1155 
3 95 94 1156 
3 176 214 1156 
3 94 176 1156 
3 214 95 1156 
3 195 88 254 
3 213 214 215 
3 216 213 215 
3 212 213 216 
3 217 212 216 
3 211 212 217 
3 218 211 217 
3 210 211 218 
3 219 210 218 
3 209 210 219 
3 220 209 219 
3 208 209 220 
3 221 208 220 
3 207 208 221 
3 207 221 222 
3 206 207 222 
3 197 90 1157 
3 223 206 222 
3 90 197 231 
3 206 223 205 
3 223 224 205 
3 205 224 204 
3 224 225 204 
3 225 203 204 
3 203 225 226 
3 196 197 1157 
3 203 226 202 
3 226 227 202 
3 227 201 202 
3 227 228 201 
3 228 200 201 
3 229 200 228 
3 200 229 199 
3 199 229 230 
3 198 230 231 
3 198 199 230 
3 90 255 1157 
3 197 198 231 
3 255 196 1157 
3 95 96 1158 
3 215 214 1158 
3 96 215 1158 
3 214 95 1158 
3 89 196 255 
3 246 247 215 
3 216 246 215 
3 245 246 216 
3 217 245 216 
3 244 245 217 
3 218 244 217 
3 243 244 218 
3 219 243 218 
3 242 243 219 
3 220 242 219 
3 241 242 220 
3 221 241 220 
3 240 241 221 
3 91 230 1159 
3 240 221 222 
3 239 240 222 
3 230 231 1159 
3 223 239 222 
3 239 223 238 
3 230 91 232 
3 223 224 238 
3 224 237 238 
3 224 225 237 
3 225 236 237 
3 225 226 236 
3 256 91 1159 
3 226 235 236 
3 226 227 235 
3 227 228 234 
3 227 234 235 
3 228 229 233 
3 228 233 234 
3 229 230 232 
3 229 232 233 
3 231 256 1159 
3 97 96 1160 
3 215 247 1160 
3 96 215 1160 
3 247 97 1160 
3 90 256 231 
3 246 247 98 
3 246 98 99 
3 245 246 99 
3 245 99 100 
3 244 245 100 
3 244 100 101 
3 243 244 101 
3 243 101 102 
3 242 243 102 
3 242 102 103 
3 241 242 103 
3 241 103 104 
3 233 82 1161 
3 240 241 104 
3 111 82 233 
3 240 104 105 
3 239 240 105 
3 106 239 105 
3 238 239 106 
3 107 238 106 
3 237 238 107 
3 237 107 108 
3 232 233 1161 
3 237 108 236 
3 108 109 236 
3 109 235 236 
3 109 110 235 
3 110 111 234 
3 235 110 234 
3 234 111 233 
3 82 257 1161 
3 257 232 1161 
3 97 1 1162 
3 98 247 1162 
3 1 98 1162 
3 247 97 1162 
3 257 91 232 

CELL_TYPES 2186
5
5
5
5
5
5
5
5
5
5
5
5
5
5
5
5
5
5
5
5
5
5
5
5
5
5
5
5
5
5
5
5
5
5
5
5
5
5
5
5
5
5
5
5
5
5
5
5
5
5
5
5
5
5
5
5
5
5
5
5
5
5
5
5
5
5
5
5
5
5
5
5
5
5
5
5
5
5
5
5
5
5
5
5
5
5
5
5
5
5
5
5
5
5
5
5
5
5
5
5
5
5
5
5
5
5
5
5
5
5
5
5
5
5
5
5
5
5
5
5
5
5
5
5
5
5
5
5
5
5
5
5
5
5
5
5
5
5
5
5
5
5
5
5
5
5
5
5
5
5
5
5
5
5
5
5
5
5
5
5
5
5
5
5
5
5
5
5
5
5
5
5
5
5
5
5
5
5
5
5
5
5
5
5
5
5
5
5
5
5
5
5
5
5
5
5
5
5
5
5
5
5
5
5
5
5
5
5
5
5
5
5
5
5
5
5
5
5
5
5
5
5
5
5
5
5
5
5
5
5
5
5
5
5
5
5
5
5
5
5
5
5
5
5
5
5
5
5
5
5
5
5
5
5
5
5
5
5
5
5
5
5
5
5
5
5
5
5
5
5
5
5
5
5
5
5
5
5
5
5
5
5
5
5
5
5
5
5
5
5
5
5
5
5
5
5
5
5
5
5
5
5
5
5
5
5
5
5
5
5
5
5
5
5
5
5
5
5
5
5
5
5
5
5
5
5
5
5
5
5
5
5
5
5
5
5
5
5
5
5
5
5
5
5
5
5
5
5
5
5
5
5
5
5
5
5
5
5
5
5
5
5
5
5
5
5
5
5
5
5
5
5
5
5
5
5
5
5
5
5
5
5
5
5
5
5
5
5
5
5
5
5
5
5
5
5
5
5
5
5
5
5
5
5
5
5
5
5
5
5
5
5
5
5
5
5
5
5
5
5
5
5
5
5
5
5
5
5
5
5
5
5
5
5
5
5
5
5
5
5
5
5
5
5
5
5
5
5
5
5
5
5
5
5
5
5
5
5
5
5
5
5
5
5
5
5
5
5
5
5
5
5
5
5
5
5
5
5
5
5
5
5
5
5
5
5
5
5
5
5
5
5
5
5
5
5
5
5
5
5
5
5
5
5
5
5
5
5
5
5
5
5
5
5
5
5
5
5
5
5
5
5
5
5
5
5
5
5
5
5
5
5
5
5
5
5
5
5
5
5
5
5
5
5
5
5
5
5
5
5
5
5
5
5
5
5
5
5
5
5
5
5
5
5
5
5
5
5
5
5
5
5
5
5
5
5
5
5
5
5
5
5
5
5
5
5
5
5
5
5
5
5
5
5
5
5
5
5
5
5
5
5
5
5
5
5
5
5
5
5
5
5
5
5
5
5
5
5
5
5
5
5
5
5
5
5
5
5
5
5
5
5
5
5
5
5
5
5
5
5
5
5
5
5
5
5
5
5
5
5
5
5
5
5
5
5
5
5
5
5
5
5
5
5
5
5
5
5
5
5
5
5
5
5
5
5
5
5
5
5
5
5
5
5
5
5
5
5
5
5
5
5
5
5
5
5
5
5
5
5
5
5
5
5
5
5
5
5
5
5
5
5
5
5
5
5
5
5
5
5
5
5
5
5
5
5
5
5
5
5
5
5
5
5
5
5
5
5
5
5
5
5
5
5
5
5
5
5
5
5
5
5
5
5
5
5
5
5
5
5
5
5
5
5
5
5
5
5
5
5
5
5
5
5
5
5
5
5
5
5
5
5
5
5
5
5
5
5
5
5
5
5
5
5
5
5
5
5
5
5
5
5
5
5
5
5
5
5
5
5
5
5
5
5
5
5
5
5
5
5
5
5
5
5
5
5
5
5
5
5
5
5
5
5
5
5
5
5
5
5
5
5
5
5
5
5
5
5
5
5
5
5
5
5
5
5
5
5
5
5
5
5
5
5
5
5
5
5
5
5
5
5
5
5
5
5
5
5
5
5
5
5
5
5
5
5
5
5
5
5
5
5
5
5
5
5
5
5
5
5
5
5
5
5
5
5
5
5
5
5
5
5
5
5
5
5
5
5
5
5
5
5
5
5
5
5
5
5
5
5
5
5
5
5
5
5
5
5
5
5
5
5
5
5
5
5
5
5
5
5
5
5
5
5
5
5
5
5
5
5
5
5
5
5
5
5
5
5
5
5
5
5
5
5
5
5
5
5
5
5
5
5
5
5
5
5
5
5
5
5
5
5
5
5
5
5
5
5
5
5
5
5
5
5
5
5
5
5
5
5
5
5
5
5
5
5
5
5
5
5
5
5
5
5
5
5
5
5
5
5
5
5
5
5
5
5
5
5
5
5
5
5
5
5
5
5
5
5
5
5
5
5
5
5
5
5
5
5
5
5
5
5
5
5
5
5
5
5
5
5
5
5
5
5
5
5
5
5
5
5
5
5
5
5
5
5
5
5
5
5
5
5
5
5
5
5
5
5
5
5
5
5
5
5
5
5
5
5
5
5
5
5
5
5
5
5
5
5
5
5
5
5
5
5
5
5
5
5
5
5
5
5
5
5
5
5
5
5
5
5
5
5
5
5
5
5
5
5
5
5
5
5
5
5
5
5
5
5
5
5
5
5
5
5
5
5
5
5
5
5
5
5
5
5
5
5
5
5
5
5
5
5
5
5
5
5
5
5
5
5
5
5
5
5
5
5
5
5
5
5
5
5
5
5
5
5
5
5
5
5
5
5
5
5
5
5
5
5
5
5
5
5
5
5
5
5
5
5
5
5
5
5
5
5
5
5
5
5
5
5
5
5
5
5
5
5
5
5
5
5
5
5
5
5
5
5
5
5
5
5
5
5
5
5
5
5
5
5
5
5
5
5
5
5
5
5
5
5
5
5
5
5
5
5
5
5
5
5
5
5
5
5
5
5
5
5
5
5
5
5
5
5
5
5
5
5
5
5
5
5
5
5
5
5
5
5
5
5
5
5
5
5
5
5
5
5
5
5
5
5
5
5
5
5
5
5
5
5
5
5
5
5
5
5
5
5
5
5
5
5
5
5
5
5
5
5
5
5
5
5
5
5
5
5
5
5
5
5
5
5
5
5
5
5
5
5
5
5
5
5
5
5
5
5
5
5
5
5
5
5
5
5
5
5
5
5
5
5
5
5
5
5
5
5
5
5
5
5
5
5
5
5
5
5
5
5
5
5
5
5
5
5
5
5
5
5
5
5
5
5
5
5
5
5
5
5
5
5
5
5
5
5
5
5
5
5
5
5
5
5
5
5
5
5
5
5
5
5
5
5
5
5
5
5
5
5
5
5
5
5
5
5
5
5
5
5
5
5
5
5
5
5
5
5
5
5
5
5
5
5
5
5
5
5
5
5
5
5
5
5
5
5
5
5
5
5
5
5
5
5
5
5
5
5
5
5
5
5
5
5
5
5
5
5
5
5
5
5
5
5
5
5
5
5
5
5
5
5
5
5
5
5
5
5
5
5
5
5
5
5
5
5
5
5
5
5
5
5
5
5
5
5
5
5
5
5
5
5
5
5
5
5
5
5
5
5
5
5
5
5
5
5
5
5
5
5
5
5
5
5
5
5
5
5
5
5
5
5
5
5
5
5
5
5
5
5
5
5
5
5
5
5
5
5
5
5
5
5
5
5
5
5
5
5
5
5
5
5
5
5
5
5
5
5
5
5
5
5
5
5
5
5
5
5
5
5
5
5
5
5
5
5
5
5
5
5
5
5
5
5
5
5
5
5
5
5
5
5
5
5
5
5
5
5
5
5
5
5
5
5
5
5
5
5
5
5
5
5
5
5
5
5
5
5
5
5
5
5
5
5
5
5
5
5
5
5
5
5
5
5
5
5
5
5
5
5
5
5
5
5
5
5
5
5
5
5
5
5
5
5
5
5
5
5
5
5
5
5
5
5
5
5
5
5
5
5
5
5
5
5
5
5
5
5
5
5
5
5
5
5
5
5
5
5
5
5
5
5
5
5
5
5
5
5
5
5
5
5
5
5
5
5
5
5
5
5
5
5
5
5
5
5
5
5
5
5
5
5
5
5
5
5
5
5
5
5
5
5
5
5
5
5
5
5
5
5
5
5
5
5
5
5
5
5
5
5
5
5
5
5
5
5
5
5
5
5
5
5
5
5
5
5
5
5
5
5
5
5
5
5
5
5
5
5
5
5
5
5
5
5
5
5
5
5
5
5
5
5
5
5
5
5
5
5
5
5
5
5
5
5
5
5
5
5
5
5
5
5
5
5
5
5
5
5
5
5
5
5
5
5
5
5
5
5
5
5
5
5
5
5
5
5
5
5
5
5
5
5
5
5
5
5
5
5
5
5
5
5
5
5
5
5
5
5
5
5
5
5
5
5
5
5
5
5
5
5
5
5
5
5
5
5
5
5
5
5
5
5
5
5
5
5
5
5
5
5
5
5
5
5
5
5
5
5
5
5
5
5
5
5
5
5
5
5
5
5
5
5
5
5
5
5
5
5
5
5
5
5
5
5
5
5
5
5
5
5
5
5
5
5
5
5
5
5
5
5
5
5
5
5
5
5
5
5
5
5
5
5
5
5
5
5
5
5
5
5
5
5
5
5
5
5
5
5
5
5
5
5
5
5
5
5
5
5
5
5
5
5
5
5
5
5
5
5
5
5
5
5
5
5
5
5
5
5
5
5
5
5
5
5
5
5
5
5
5
5
5
5
5
5
5
5
5
5
5
5
5
5
5
5
5
5
5
5
5
5
5
5
5
5
5
5
5
5
5
5
5
5
5
5
5
5
5
5
5
5
5
5
5
5
5
5
5
5
5
5
5
5
5
5
5
5
5
5
5
5
5
5
5
5
5
5
5
5
5
5
5
5
5
5
5
5
5
5
5
5
5
5
5
5
5
5
5
5
5
5
5
5
5
5
5
5
5
5
5
5

POINT_DATA 1163

VECTORS coord float
0.0 0.0 0.0 
5.000000000000e+01 -1.000000000000e+01 0.0 
0.0 -2.000000000000e+01 0.0 
5.000000000000e+01 -2.000000000000e+01 0.0 
0.0 -9.999999999991e-01 0.0 
0.0 -1.999999999998e+00 0.0 
0.0 -2.999999999997e+00 0.0 
0.0 -3.999999999994e+00 0.0 
0.0 -4.999999999991e+00 0.0 
0.0 -5.999999999988e+00 0.0 
0.0 -6.999999999985e+00 0.0 
0.0 -7.999999999982e+00 0.0 
0.0 -8.999999999983e+00 0.0 
0.0 -9.999999999985e+00 0.0 
0.0 -1.099999999999e+01 0.0 
0.0 -1.199999999999e+01 0.0 
0.0 -1.299999999999e+01 0.0 
0.0 -1.399999999999e+01 0.0 
0.0 -1.499999999999e+01 0.0 
0.0 -1.599999999999e+01 0.0 
0.0 -1.700000000000e+01 0.0 
0.0 -1.800000000000e+01 0.0 
0.0 -1.900000000000e+01 0.0 
4.900000000001e+01 -2.000000000000e+01 0.0 
4.800000000001e+01 -2.000000000000e+01 0.0 
4.700000000002e+01 -2.000000000000e+01 0.0 
4.600000000003e+01 -2.000000000000e+01 0.0 
4.500000000004e+01 -2.000000000000e+01 0.0 
4.400000000004e+01 -2.000000000000e+01 0.0 
4.300000000005e+01 -2.000000000000e+01 0.0 
4.200000000006e+01 -2.000000000000e+01 0.0 
4.100000000006e+01 -2.000000000000e+01 0.0 
4.000000000007e+01 -2.000000000000e+01 0.0 
3.900000000008e+01 -2.000000000000e+01 0.0 
3.800000000009e+01 -2.000000000000e+01 0.0 
3.700000000009e+01 -2.000000000000e+01 0.0 
3.600000000010e+01 -2.000000000000e+01 0.0 
3.500000000011e+01 -2.000000000000e+01 0.0 
3.400000000011e+01 -2.000000000000e+01 0.0 
3.300000000012e+01 -2.000000000000e+01 0.0 
3.200000000013e+01 -2.000000000000e+01 0.0 
3.100000000013e+01 -2.000000000000e+01 0.0 
3.000000000013e+01 -2.000000000000e+01 0.0 
2.900000000013e+01 -2.000000000000e+01 0.0 
2.800000000013e+01 -2.000000000000e+01 0.0 
2.700000000013e+01 -2.000000000000e+01 0.0 
2.600000000013e+01 -2.000000000000e+01 0.0 
2.500000000013e+01 -2.000000000000e+01 0.0 
2.400000000013e+01 -2.000000000000e+01 0.0 
2.300000000013e+01 -2.000000000000e+01 0.0 
2.200000000013e+01 -2.000000000000e+01 0.0 
2.100000000013e+01 -2.000000000000e+01 0.0 
2.000000000013e+01 -2.000000000000e+01 0.0 
1.900000000013e+01 -2.000000000000e+01 0.0 
1.800000000013e+01 -2.000000000000e+01 0.0 
1.700000000012e+01 -2.000000000000e+01 0.0 
1.600000000011e+01 -2.000000000000e+01 0.0 
1.500000000011e+01 -2.000000000000e+01 0.0 
1.400000000010e+01 -2.000000000000e+01 0.0 
1.300000000009e+01 -2.000000000000e+01 0.0 
1.200000000009e+01 -2.000000000000e+01 0.0 
1.100000000008e+01 -2.000000000000e+01 0.0 
1.000000000007e+01 -2.000000000000e+01 0.0 
9.000000000064e+00 -2.000000000000e+01 0.0 
8.000000000057e+00 -2.000000000000e+01 0.0 
7.000000000050e+00 -2.000000000000e+01 0.0 
6.000000000043e+00 -2.000000000000e+01 0.0 
5.000000000036e+00 -2.000000000000e+01 0.0 
4.000000000028e+00 -2.000000000000e+01 0.0 
3.000000000021e+00 -2.000000000000e+01 0.0 
2.000000000014e+00 -2.000000000000e+01 0.0 
1.000000000007e+00 -2.000000000000e+01 0.0 
5.000000000000e+01 -1.100000000000e+01 0.0 
5.000000000000e+01 -1.200000000000e+01 0.0 
5.000000000000e+01 -1.300000000000e+01 0.0 
5.000000000000e+01 -1.400000000000e+01 0.0 
5.000000000000e+01 -1.500000000000e+01 0.0 
5.000000000000e+01 -1.600000000000e+01 0.0 
5.000000000000e+01 -1.700000000000e+01 0.0 
5.000000000000e+01 -1.800000000000e+01 0.0 
5.000000000000e+01 -1.900000000000e+01 0.0 
2.000000000000e+01 0.0 0.0 
3.500000000000e+01 -1.000000000000e+01 0.0 
2.150000000000e+01 -1.000000000000e+00 0.0 
2.300000000000e+01 -2.000000000000e+00 0.0 
2.450000000000e+01 -3.000000000000e+00 0.0 
2.600000000000e+01 -4.000000000000e+00 0.0 
2.750000000000e+01 -5.000000000000e+00 0.0 
2.900000000000e+01 -6.000000000000e+00 0.0 
3.050000000000e+01 -7.000000000000e+00 0.0 
3.200000000000e+01 -8.000000000000e+00 0.0 
3.350000000000e+01 -9.000000000000e+00 0.0 
5.000000000000e+01 -4.000000000000e+00 0.0 
5.000000000000e+01 -5.000000000000e+00 0.0 
5.000000000000e+01 -6.000000000000e+00 0.0 
5.000000000000e+01 -7.000000000000e+00 0.0 
5.000000000000e+01 -8.000000000000e+00 0.0 
5.000000000000e+01 -9.000000000000e+00 0.0 
4.900000000000e+01 -1.000000000000e+01 0.0 
4.800000000000e+01 -1.000000000000e+01 0.0 
4.700000000000e+01 -1.000000000000e+01 0.0 
4.600000000000e+01 -1.000000000000e+01 0.0 
4.500000000000e+01 -1.000000000000e+01 0.0 
4.400000000000e+01 -1.000000000000e+01 0.0 
4.300000000000e+01 -1.000000000000e+01 0.0 
4.200000000000e+01 -1.000000000000e+01 0.0 
4.100000000000e+01 -1.000000000000e+01 0.0 
4.000000000000e+01 -1.000000000000e+01 0.0 
3.900000000000e+01 -1.000000000000e+01 0.0 
3.800000000000e+01 -1.000000000000e+01 0.0 
3.700000000000e+01 -1.000000000000e+01 0.0 
3.600000000000e+01 -1.000000000000e+01 0.0 
1.900000000000e+01 0.0 0.0 
1.800000000000e+01 0.0 0.0 
1.700000000000e+01 0.0 0.0 
1.600000000000e+01 0.0 0.0 
1.500000000000e+01 0.0 0.0 
1.400000000000e+01 0.0 0.0 
1.300000000000e+01 0.0 0.0 
1.200000000000e+01 0.0 0.0 
1.100000000000e+01 0.0 0.0 
1.000000000000e+01 0.0 0.0 
9.000000000000e+00 0.0 0.0 
8.000000000000e+00 0.0 0.0 
7.000000000000e+00 0.0 0.0 
6.000000000000e+00 0.0 0.0 
5.000000000000e+00 0.0 0.0 
4.000000000000e+00 0.0 0.0 
3.000000000000e+00 0.0 0.0 
2.000000000000e+00 0.0 0.0 
1.000000000000e+00 0.0 0.0 
4.900000000000e+01 -4.000000000000e+00 0.0 
4.800000000000e+01 -4.000000000000e+00 0.0 
4.700000000000e+01 -4.000000000000e+00 0.0 
4.600000000000e+01 -4.000000000000e+00 0.0 
4.500000000000e+01 -4.000000000000e+00 0.0 
4.400000000000e+01 -4.000000000000e+00 0.0 
4.300000000000e+01 -4.000000000000e+00 0.0 
4.200000000000e+01 -4.000000000000e+00 0.0 
4.100000000000e+01 -4.000000000000e+00 0.0 
4.000000000000e+01 -4.000000000000e+00 0.0 
3.900000000000e+01 -4.000000000000e+00 0.0 
3.800000000000e+01 -4.000000000000e+00 0.0 
3.700000000000e+01 -4.000000000000e+00 0.0 
3.600000000000e+01 -4.000000000000e+00 0.0 
3.500000000000e+01 -4.000000000000e+00 0.0 
3.400000000000e+01 -4.000000000000e+00 0.0 
3.300000000000e+01 -4.000000000000e+00 0.0 
3.200000000000e+01 -4.000000000000e+00 0.0 
3.100000000000e+01 -4.000000000000e+00 0.0 
3.000000000000e+01 -4.000000000000e+00 0.0 
2.900000000000e+01 -4.000000000000e+00 0.0 
2.800000000000e+01 -4.000000000000e+00 0.0 
2.700000000000e+01 -4.000000000000e+00 0.0 
2.847826086957e+01 -5.000000000000e+00 0.0 
2.945652173913e+01 -5.000000000000e+00 0.0 
3.043478260870e+01 -5.000000000000e+00 0.0 
3.141304347826e+01 -5.000000000000e+00 0.0 
3.239130434783e+01 -5.000000000000e+00 0.0 
3.336956521739e+01 -5.000000000000e+00 0.0 
3.434782608696e+01 -5.000000000000e+00 0.0 
3.532608695652e+01 -5.000000000000e+00 0.0 
3.630434782609e+01 -5.000000000000e+00 0.0 
3.728260869565e+01 -5.000000000000e+00 0.0 
3.826086956522e+01 -5.000000000000e+00 0.0 
3.923913043478e+01 -5.000000000000e+00 0.0 
4.021739130435e+01 -5.000000000000e+00 0.0 
4.119565217391e+01 -5.000000000000e+00 0.0 
4.217391304348e+01 -5.000000000000e+00 0.0 
4.315217391304e+01 -5.000000000000e+00 0.0 
4.413043478261e+01 -5.000000000000e+00 0.0 
4.510869565217e+01 -5.000000000000e+00 0.0 
4.608695652174e+01 -5.000000000000e+00 0.0 
4.706521739130e+01 -5.000000000000e+00 0.0 
4.804347826087e+01 -5.000000000000e+00 0.0 
4.902173913043e+01 -5.000000000000e+00 0.0 
4.900000000001e+01 -6.000000000000e+00 0.0 
4.800000000003e+01 -6.000000000000e+00 0.0 
4.700000000004e+01 -6.000000000000e+00 0.0 
4.600000000006e+01 -6.000000000000e+00 0.0 
4.500000000007e+01 -6.000000000000e+00 0.0 
4.400000000009e+01 -6.000000000000e+00 0.0 
4.300000000010e+01 -6.000000000000e+00 0.0 
4.200000000012e+01 -6.000000000000e+00 0.0 
4.100000000013e+01 -6.000000000000e+00 0.0 
4.000000000014e+01 -6.000000000000e+00 0.0 
3.900000000014e+01 -6.000000000000e+00 0.0 
3.800000000012e+01 -6.000000000000e+00 0.0 
3.700000000010e+01 -6.000000000000e+00 0.0 
3.600000000008e+01 -6.000000000000e+00 0.0 
3.500000000006e+01 -6.000000000000e+00 0.0 
3.400000000005e+01 -6.000000000000e+00 0.0 
3.300000000003e+01 -6.000000000000e+00 0.0 
3.200000000001e+01 -6.000000000000e+00 0.0 
3.100000000000e+01 -6.000000000000e+00 0.0 
3.000000000000e+01 -6.000000000000e+00 0.0 
3.147499999998e+01 -7.000000000000e+00 0.0 
3.244999999998e+01 -7.000000000000e+00 0.0 
3.342499999998e+01 -7.000000000000e+00 0.0 
3.439999999998e+01 -7.000000000000e+00 0.0 
3.537499999998e+01 -7.000000000000e+00 0.0 
3.634999999998e+01 -7.000000000000e+00 0.0 
3.732499999998e+01 -7.000000000000e+00 0.0 
3.829999999998e+01 -7.000000000000e+00 0.0 
3.927499999999e+01 -7.000000000000e+00 0.0 
4.024999999999e+01 -7.000000000000e+00 0.0 
4.122499999999e+01 -7.000000000000e+00 0.0 
4.219999999999e+01 -7.000000000000e+00 0.0 
4.317499999999e+01 -7.000000000000e+00 0.0 
4.414999999999e+01 -7.000000000000e+00 0.0 
4.512499999999e+01 -7.000000000000e+00 0.0 
4.609999999999e+01 -7.000000000000e+00 0.0 
4.707500000000e+01 -7.000000000000e+00 0.0 
4.805000000000e+01 -7.000000000000e+00 0.0 
4.902500000000e+01 -7.000000000000e+00 0.0 
4.900000000000e+01 -8.000000000000e+00 0.0 
4.800000000000e+01 -8.000000000000e+00 0.0 
4.700000000000e+01 -8.000000000000e+00 0.0 
4.600000000000e+01 -8.000000000000e+00 0.0 
4.500000000000e+01 -8.000000000000e+00 0.0 
4.400000000000e+01 -8.000000000000e+00 0.0 
4.300000000000e+01 -8.000000000000e+00 0.0 
4.200000000000e+01 -8.000000000000e+00 0.0 
4.100000000000e+01 -8.000000000000e+00 0.0 
4.000000000000e+01 -8.000000000000e+00 0.0 
3.900000000000e+01 -8.000000000000e+00 0.0 
3.800000000000e+01 -8.000000000000e+00 0.0 
3.700000000000e+01 -8.000000000000e+00 0.0 
3.600000000000e+01 -8.000000000000e+00 0.0 
3.500000000000e+01 -8.000000000000e+00 0.0 
3.400000000000e+01 -8.000000000000e+00 0.0 
3.300000000000e+01 -8.000000000000e+00 0.0 
3.447058823527e+01 -9.000000000000e+00 0.0 
3.544117647055e+01 -9.000000000000e+00 0.0 
3.641176470582e+01 -9.000000000000e+00 0.0 
3.738235294109e+01 -9.000000000000e+00 0.0 
3.835294117637e+01 -9.000000000000e+00 0.0 
3.932352941164e+01 -9.000000000000e+00 0.0 
4.029411764691e+01 -9.000000000000e+00 0.0 
4.126470588219e+01 -9.000000000000e+00 0.0 
4.223529411748e+01 -9.000000000000e+00 0.0 
4.320588235279e+01 -9.000000000000e+00 0.0 
4.417647058811e+01 -9.000000000000e+00 0.0 
4.514705882342e+01 -9.000000000000e+00 0.0 
4.611764705874e+01 -9.000000000000e+00 0.0 
4.708823529405e+01 -9.000000000000e+00 0.0 
4.805882352937e+01 -9.000000000000e+00 0.0 
4.902941176468e+01 -9.000000000000e+00 0.0 
2.075000000000e+01 -5.000000000006e-01 0.0 
2.225000000000e+01 -1.500000000000e+00 0.0 
2.375000000000e+01 -2.500000000000e+00 0.0 
2.525000000000e+01 -3.500000000000e+00 0.0 
2.675000000000e+01 -4.500000000000e+00 0.0 
2.825000000000e+01 -5.500000000000e+00 0.0 
2.975000000000e+01 -6.500000000000e+00 0.0 
3.125000000000e+01 -7.500000000000e+00 0.0 
3.275000000000e+01 -8.500000000000e+00 0.0 
3.425000000000e+01 -9.500000000000e+00 0.0 
2.226951693683e+01 -2.403913980114e+00 0.0 
1.650149491944e+01 -1.913490915758e+01 0.0 
1.050042386896e+01 -8.504605092970e-01 0.0 
1.553146524712e+01 -8.281255032105e-01 0.0 
1.150000000008e+01 -1.913397459621e+01 0.0 
2.530060260647e+01 -4.428336431260e+00 0.0 
8.651114563942e-01 -1.052096295641e+01 0.0 
2.050000000013e+01 -1.913397459622e+01 0.0 
2.819198729811e+01 -6.399519052838e+00 0.0 
2.445670302931e+01 -1.915649188023e+01 0.0 
3.117591465718e+01 -8.394293040695e+00 0.0 
7.465053044742e+00 -1.920411160581e+01 0.0 
6.398295709691e+00 -8.230098819370e-01 0.0 
2.849659607461e+01 -1.914296187762e+01 0.0 
3.418732642882e+01 -1.040265792588e+01 0.0 
8.386450935063e-01 -6.533605142809e+00 0.0 
9.178661865596e-01 -1.329769195597e+01 0.0 
3.149448624493e+01 -1.910466733764e+01 0.0 
3.552916747426e+01 -1.914628590759e+01 0.0 
4.449210346537e+01 -1.914359085008e+01 0.0 
4.140975975145e+01 -1.906941860733e+01 0.0 
3.847475958753e+01 -1.916622382724e+01 0.0 
3.653774794640e+01 -1.088712800241e+01 0.0 
4.047886341787e+01 -1.090139014048e+01 0.0 
4.348006339825e+01 -1.092792621489e+01 0.0 
4.919519968029e+01 -1.451526755068e+01 0.0 
4.500000000032e+00 -1.913397459621e+01 0.0 
1.856136921614e+01 -8.212235170404e-01 0.0 
3.499895312306e+00 -8.661165539723e-01 0.0 
9.076088696565e-01 -1.642306201891e+01 0.0 
4.655174095477e+01 -1.086183387525e+01 0.0 
9.430688970604e-01 -3.496112672958e+00 0.0 
3.353992337063e+01 -1.901202090820e+01 0.0 
2.249746016977e+01 -1.921262287282e+01 0.0 
2.650122741777e+01 -1.916123026018e+01 0.0 
1.863571384842e+01 -1.908325534840e+01 0.0 
1.450089971693e+01 -1.917691901860e+01 0.0 
1.350044695317e+01 -8.659695299584e-01 0.0 
3.849987469880e+01 -1.084154983397e+01 0.0 
9.454419857884e+00 -1.900818879936e+01 0.0 
4.917398660523e+01 -1.645692866081e+01 0.0 
8.500000000000e+00 -8.660254037844e-01 0.0 
8.660319230785e-01 -8.500111697188e+00 0.0 
4.649022621545e+01 -1.930506220113e+01 0.0 
2.667688107845e+01 -5.420288124331e+00 0.0 
2.379251615665e+01 -3.412225477429e+00 0.0 
2.966631491830e+01 -7.389030232731e+00 0.0 
3.267915035995e+01 -9.396934932445e+00 0.0 
2.074836922338e+01 -1.320054020319e+00 0.0 
4.915985743621e+01 -1.261973384855e+01 0.0 
2.527129768623e+00 -1.931592414663e+01 0.0 
1.538676247410e+00 -8.436956619311e-01 0.0 
4.908096641539e+01 -1.842484004551e+01 0.0 
3.478612492673e+01 -1.090889364140e+01 0.0 
3.409757055860e+01 -1.131991530427e+01 0.0 
3.501895309466e+01 -1.177687842717e+01 0.0 
3.407758073088e+01 -1.224293381580e+01 0.0 
3.484541875390e+01 -1.277051428430e+01 0.0 
3.400322025842e+01 -1.319022775640e+01 0.0 
3.321672625034e+01 -1.266779191233e+01 0.0 
3.315244139236e+01 -1.360984106532e+01 0.0 
3.236335186892e+01 -1.308463225210e+01 0.0 
3.478337442841e+01 -1.372341158982e+01 0.0 
3.230105923633e+01 -1.403023731610e+01 0.0 
3.150954055289e+01 -1.350301767700e+01 0.0 
3.144604792090e+01 -1.444931742516e+01 0.0 
3.065653897123e+01 -1.392357262981e+01 0.0 
3.071897610812e+01 -1.297447031198e+01 0.0 
2.986790411740e+01 -1.339226181535e+01 0.0 
2.993181466745e+01 -1.244703272398e+01 0.0 
2.908023061869e+01 -1.286254537734e+01 0.0 
2.901619051372e+01 -1.380881655279e+01 0.0 
2.822986160390e+01 -1.327695262116e+01 0.0 
2.829453476870e+01 -1.233265343811e+01 0.0 
2.744542905518e+01 -1.274510491105e+01 0.0 
2.751120089246e+01 -1.180368086886e+01 0.0 
2.666218649885e+01 -1.221619339205e+01 0.0 
2.672371209234e+01 -1.127125228527e+01 0.0 
2.587763216302e+01 -1.168539979114e+01 0.0 
2.581165585299e+01 -1.262994410089e+01 0.0 
2.502890882577e+01 -1.209827323619e+01 0.0 
2.509631327757e+01 -1.115492410304e+01 0.0 
2.424662989877e+01 -1.156630981079e+01 0.0 
2.431704046904e+01 -1.062389179334e+01 0.0 
2.346445438728e+01 -1.103427680694e+01 0.0 
2.339382552877e+01 -1.197964871788e+01 0.0 
2.260936050780e+01 -1.144513277642e+01 0.0 
2.268075012022e+01 -1.049911928216e+01 0.0 
2.182525737661e+01 -1.090920811464e+01 0.0 
2.189682319817e+01 -9.961716944568e+00 0.0 
2.104174127792e+01 -1.037266986667e+01 0.0 
2.111304367575e+01 -9.424179358711e+00 0.0 
2.025306185381e+01 -9.832727364719e+00 0.0 
2.018141124247e+01 -1.079140628871e+01 0.0 
1.938594498257e+01 -1.025147354112e+01 0.0 
1.946106490453e+01 -9.288010758448e+00 0.0 
1.858929958352e+01 -9.706319802516e+00 0.0 
1.851540991219e+01 -1.067205988724e+01 0.0 
1.771485303178e+01 -1.012504443115e+01 0.0 
1.764134552256e+01 -1.109360378538e+01 0.0 
1.683745148095e+01 -1.054496365337e+01 0.0 
1.691852964353e+01 -9.582555261178e+00 0.0 
1.603603813062e+01 -1.000160132379e+01 0.0 
1.595824239350e+01 -1.096750698862e+01 0.0 
1.515080624291e+01 -1.041639501931e+01 0.0 
1.523171602559e+01 -9.451711491453e+00 0.0 
1.434621060709e+01 -9.871956467464e+00 0.0 
1.426777178765e+01 -1.083749501371e+01 0.0 
1.345775282374e+01 -1.028803175500e+01 0.0 
1.354103873368e+01 -9.324918457162e+00 0.0 
1.265072018622e+01 -9.742612837270e+00 0.0 
1.257285762070e+01 -1.071557782384e+01 0.0 
1.175874815690e+01 -1.015972324288e+01 0.0 
1.184203019714e+01 -9.193604071377e+00 0.0 
1.094927709905e+01 -9.612103238656e+00 0.0 
1.086938022910e+01 -1.058685085646e+01 0.0 
1.005424098961e+01 -1.002939116380e+01 0.0 
9.977974613295e+00 -1.101324897989e+01 0.0 
1.012915646404e+01 -9.051815821181e+00 0.0 
9.237127782494e+00 -9.471239055559e+00 0.0 
9.308426593771e+00 -8.483376461131e+00 0.0 
8.418806073345e+00 -8.910712374517e+00 0.0 
2.253688464062e+01 -1.239459402279e+01 0.0 
8.495126726666e+00 -7.921646665254e+00 0.0 
9.389727383206e+00 -7.512103628377e+00 0.0 
7.601560812974e+00 -8.349460349344e+00 0.0 
7.525680547759e+00 -9.339736686940e+00 0.0 
7.677888324502e+00 -7.359727833346e+00 0.0 
6.782001206724e+00 -7.788454494773e+00 0.0 
6.858778622885e+00 -6.797338062822e+00 0.0 
2.196596590865e+01 -8.979025665442e+00 0.0 
2.816540108272e+01 -1.422634142353e+01 0.0 
5.961601194403e+00 -7.226824010712e+00 0.0 
6.038171749656e+00 -6.234825887079e+00 0.0 
6.936257279557e+00 -5.805287640737e+00 0.0 
6.115068918323e+00 -5.242109758768e+00 0.0 
3.564391741903e+01 -1.329240553876e+01 0.0 
3.558115605778e+01 -1.425902892003e+01 0.0 
3.645445282201e+01 -1.381970786460e+01 0.0 
3.639744204358e+01 -1.479198128612e+01 0.0 
3.727266909778e+01 -1.435399586226e+01 0.0 
5.216667013081e+00 -5.671788584287e+00 0.0 
3.220697293295e+01 -1.499594545107e+01 0.0 
3.551112158269e+01 -1.523479869250e+01 0.0 
2.836056961467e+01 -1.139032434851e+01 0.0 
2.516730388602e+01 -1.021382726837e+01 0.0 
1.844436907403e+01 -1.164097215196e+01 0.0 
5.885434318740e+00 -8.218694781467e+00 0.0 
5.064071066867e+00 -7.656614643901e+00 0.0 
4.988089103470e+00 -8.649722082718e+00 0.0 
1.079421050408e+01 -1.157014985435e+01 0.0 
9.902420005256e+00 -1.199903342656e+01 0.0 
1.071994252214e+01 -1.255727909771e+01 0.0 
9.826974788171e+00 -1.298659581767e+01 0.0 
1.064607883789e+01 -1.354595476388e+01 0.0 
9.751541265343e+00 -1.397556905071e+01 0.0 
8.932296185869e+00 -1.341553353988e+01 0.0 
8.856399248106e+00 -1.440570715508e+01 0.0 
8.036186803543e+00 -1.384470558472e+01 0.0 
1.057112875118e+01 -1.453516759081e+01 0.0 
1.146582585687e+01 -1.410539926903e+01 0.0 
7.959894480382e+00 -1.483563350928e+01 0.0 
7.138792279156e+00 -1.427465094140e+01 0.0 
7.062506792418e+00 -1.526615385482e+01 0.0 
6.240693558277e+00 -1.470508863040e+01 0.0 
6.316957575451e+00 -1.371212581281e+01 0.0 
5.418183007107e+00 -1.414253605022e+01 0.0 
5.494748364428e+00 -1.314886770603e+01 0.0 
1.756825565873e+01 -1.206433872514e+01 0.0 
1.837565773345e+01 -1.261356468266e+01 0.0 
1.749574831391e+01 -1.303769280014e+01 0.0 
1.830539187332e+01 -1.358828364284e+01 0.0 
1.742278925170e+01 -1.401367746928e+01 0.0 
1.823303007798e+01 -1.456432294258e+01 0.0 
1.734941694138e+01 -1.499213734361e+01 0.0 
1.653760041637e+01 -1.443920312098e+01 0.0 
3.056237977307e+01 -1.487132260174e+01 0.0 
1.866469084762e+01 -8.742953000418e+00 0.0 
1.953669694916e+01 -8.326038909849e+00 0.0 
1.874194303780e+01 -7.780688158966e+00 0.0 
1.961032016741e+01 -7.366854697285e+00 0.0 
1.881715755159e+01 -6.821102209649e+00 0.0 
1.968369797150e+01 -6.407747217358e+00 0.0 
1.889237123259e+01 -5.858375520026e+00 0.0 
1.802038875366e+01 -6.276202618170e+00 0.0 
1.809793837984e+01 -5.307629520489e+00 0.0 
1.721985207997e+01 -5.728242054488e+00 0.0 
1.729850893523e+01 -4.756990819347e+00 0.0 
1.641745664240e+01 -5.174636548624e+00 0.0 
2.495978509456e+01 -1.304406404294e+01 0.0 
1.911567814831e+01 -1.413854250293e+01 0.0 
1.904387332608e+01 -1.511463127723e+01 0.0 
1.992115934240e+01 -1.468788025898e+01 0.0 
7.013706899628e+00 -4.812582868662e+00 0.0 
5.342091874585e+00 -1.513658157269e+01 0.0 
1.139098043784e+01 -1.509488509480e+01 0.0 
1.228151810610e+01 -1.465617481983e+01 0.0 
1.646373110164e+01 -1.541993323337e+01 0.0 
5.293328636712e+00 -4.678385108584e+00 0.0 
1.975965862987e+01 -5.448124345648e+00 0.0 
2.054318374236e+01 -5.992561293251e+00 0.0 
3.721453439063e+01 -1.533216152738e+01 0.0 
3.809302733893e+01 -1.489235527381e+01 0.0 
1.220852788900e+01 -1.565304565230e+01 0.0 
4.394120899730e+00 -5.108397613210e+00 0.0 
8.779354620288e+00 -1.539524721159e+01 0.0 
1.817791047702e+01 -4.338570146253e+00 0.0 
4.518860013839e+00 -1.457343189307e+01 0.0 
4.442712140414e+00 -1.556841391069e+01 0.0 
8.115343466391e+00 -1.285760324283e+01 0.0 
1.985334703171e+01 -1.566478400426e+01 0.0 
2.071953850276e+01 -1.522074243119e+01 0.0 
1.634012953883e+01 -6.154777738301e+00 0.0 
1.553479994708e+01 -5.593730508879e+00 0.0 
1.561265946942e+01 -4.617761762647e+00 0.0 
1.470674212978e+01 -5.064576488228e+00 0.0 
1.464498299883e+01 -6.026514471420e+00 0.0 
1.383271561817e+01 -5.467796261169e+00 0.0 
1.389241253067e+01 -4.504338666645e+00 0.0 
1.301868735463e+01 -4.907185188626e+00 0.0 
1.294514184846e+01 -5.888160903592e+00 0.0 
1.212955968622e+01 -5.328262335277e+00 0.0 
1.220721122383e+01 -4.341264976687e+00 0.0 
1.131324345897e+01 -4.766773516508e+00 0.0 
5.266597955397e+00 -1.613148974258e+01 0.0 
1.737805990867e+01 -3.786677807525e+00 0.0 
3.078438094513e+01 -1.203225297748e+01 0.0 
1.131569882285e+01 -1.608511932110e+01 0.0 
1.728478341782e+01 -1.596017432313e+01 0.0 
3.803465906019e+01 -1.587509751228e+01 0.0 
3.891681276677e+01 -1.543395196905e+01 0.0 
3.897340985302e+01 -1.444710288980e+01 0.0 
3.980095968193e+01 -1.499059496613e+01 0.0 
3.974334598189e+01 -1.597921884150e+01 0.0 
4.062964983717e+01 -1.553518690417e+01 0.0 
4.068729602479e+01 -1.454434445295e+01 0.0 
4.151772679790e+01 -1.508974196007e+01 0.0 
4.157505195739e+01 -1.409694289912e+01 0.0 
4.240699932656e+01 -1.464347955968e+01 0.0 
4.234898051011e+01 -1.563721375790e+01 0.0 
4.323934606035e+01 -1.519082036405e+01 0.0 
4.329740528208e+01 -1.419587509788e+01 0.0 
4.413056841369e+01 -1.474359631875e+01 0.0 
4.418850110108e+01 -1.374786684042e+01 0.0 
4.502219770667e+01 -1.429605103525e+01 0.0 
4.496411937907e+01 -1.529215882720e+01 0.0 
4.490027319897e+00 -4.154167794594e+00 0.0 
1.565080385988e+01 -1.486411982419e+01 0.0 
1.557610691279e+01 -1.584855627870e+01 0.0 
4.195350646612e+00 -8.089117689096e+00 0.0 
4.124027797830e+00 -9.082831955007e+00 0.0 
4.917944318925e+00 -9.643530901533e+00 0.0 
4.020105689502e+00 -1.007439673661e+01 0.0 
4.587185899277e+01 -1.484039992728e+01 0.0 
4.580078661551e+01 -1.584043391042e+01 0.0 
2.061956522375e+01 -5.046701343981e+00 0.0 
2.139572955529e+01 -5.579553449826e+00 0.0 
3.715344357292e+01 -1.631485124583e+01 0.0 
3.618886196443e+00 -1.500471207167e+01 0.0 
3.695606940204e+00 -1.400939692294e+01 0.0 
2.438890661143e+01 -9.686110599723e+00 0.0 
2.523267572778e+01 -9.276766000622e+00 0.0 
2.446094171539e+01 -8.751904591412e+00 0.0 
2.529089822738e+01 -8.321495612547e+00 0.0 
2.606882688827e+01 -8.864724051119e+00 0.0 
2.452116646430e+01 -7.792756462004e+00 0.0 
1.235543269617e+01 -1.365845617339e+01 0.0 
4.318116874181e+01 -1.618567469992e+01 0.0 
7.835066111909e+00 -5.376366223896e+00 0.0 
7.905687335704e+00 -4.382539065697e+00 0.0 
3.542640009567e+00 -1.600035116542e+01 0.0 
1.572431503071e+01 -1.388358386695e+01 0.0 
2.574684696680e+01 -1.357896141127e+01 0.0 
2.488842657651e+01 -1.399674354505e+01 0.0 
2.568301775611e+01 -1.453552048595e+01 0.0 
2.481535572009e+01 -1.495542756508e+01 0.0 
2.561729699688e+01 -1.549784648532e+01 0.0 
2.474623061296e+01 -1.592058894178e+01 0.0 
2.394234041695e+01 -1.537572575827e+01 0.0 
2.065825452567e+01 -1.621899055217e+01 0.0 
2.387180528935e+01 -1.634552264687e+01 0.0 
4.585364400844e+01 -1.383912334080e+01 0.0 
1.998744432052e+01 -1.370317155541e+01 0.0 
1.205356951443e+01 -6.313580285498e+00 0.0 
5.396543905849e+00 -3.731818611283e+00 0.0 
1.139652573295e+01 -3.745819399350e+00 0.0 
3.574124306703e+00 -4.551456826011e+00 0.0 
3.494140761930e+00 -5.539787055649e+00 0.0 
1.213651452413e+01 -1.664505033022e+01 0.0 
2.555045568519e+01 -1.646529356744e+01 0.0 
2.641671114986e+01 -1.603899382371e+01 0.0 
2.612920721894e+01 -7.906435260873e+00 0.0 
2.690339829698e+01 -8.456969591431e+00 0.0 
1.978024383368e+01 -1.664410216353e+01 0.0 
3.732829979082e+01 -1.336926601859e+01 0.0 
4.074336584605e+01 -1.355133328401e+01 0.0 
4.163204691081e+01 -1.310280943992e+01 0.0 
3.773826114429e+00 -3.493444309145e+00 0.0 
1.228783001032e+01 -3.374822835872e+00 0.0 
4.057110462520e+01 -1.652588478000e+01 0.0 
2.132535497898e+01 -6.523623360525e+00 0.0 
2.216932532211e+01 -6.110044769206e+00 0.0 
1.825781152128e+01 -3.370146817147e+00 0.0 
1.745679445888e+01 -2.812942552063e+00 0.0 
4.666517057280e+01 -1.539981381543e+01 0.0 
4.660575894464e+01 -1.639014410186e+01 0.0 
4.838230979954e+00 -1.063643436446e+01 0.0 
3.938942630206e+00 -1.106778981745e+01 0.0 
1.302967218620e+01 -1.621373452436e+01 0.0 
1.049548003190e+01 -4.204825123240e+00 0.0 
4.573571907195e+01 -1.683820511148e+01 0.0 
1.483686335807e+01 -1.430849689310e+01 0.0 
1.490982658890e+01 -1.332679386284e+01 0.0 
3.190805600162e+00 -9.510968358545e+00 0.0 
2.146625721848e+01 -4.642437303115e+00 0.0 
2.069866208266e+01 -4.111852942193e+00 0.0 
1.286859345584e+01 -6.873252723348e+00 0.0 
1.041794493184e+01 -5.194814260291e+00 0.0 
2.671081808965e+00 -4.976806516331e+00 0.0 
1.295786792925e+01 -1.720506531799e+01 0.0 
3.968438206511e+01 -1.696869067241e+01 0.0 
2.308550456051e+01 -1.579963151273e+01 0.0 
2.315593682844e+01 -1.482967445235e+01 0.0 
2.299471449450e+01 -1.677069968132e+01 0.0 
1.057344714696e+01 -3.214252277840e+00 0.0 
1.124057603753e+01 -1.707713739755e+01 0.0 
2.718402535754e+00 -1.543629882103e+01 0.0 
2.638549692805e+01 -1.696744916809e+01 0.0 
2.723416349007e+01 -1.658104204545e+01 0.0 
2.210193351704e+01 -7.046769643417e+00 0.0 
2.295180925161e+01 -6.657397605239e+00 0.0 
2.301355235833e+01 -5.709111896800e+00 0.0 
2.379052718281e+01 -6.254965406962e+00 0.0 
3.243528601237e+01 -1.214181853533e+01 0.0 
2.287977995457e+01 -7.583722368300e+00 0.0 
2.999876029544e+01 -1.150837653096e+01 0.0 
3.084435366963e+01 -1.109693775882e+01 0.0 
3.006650579669e+01 -1.057778994262e+01 0.0 
2.683802665066e+01 -9.386863216633e+00 0.0 
2.768641973621e+01 -8.988883915666e+00 0.0 
2.040296980397e+01 -7.903629133404e+00 0.0 
1.925235024054e+01 -1.218872783130e+01 0.0 
5.735667000424e+00 -1.020577277283e+01 0.0 
6.396559909872e+00 -1.272326295703e+01 0.0 
1.161199420714e+01 -1.212812778229e+01 0.0 
4.229046132615e+01 -1.663084237572e+01 0.0 
4.312275399692e+01 -1.718087491556e+01 0.0 
4.335502068163e+01 -1.320039231514e+01 0.0 
4.424630298089e+01 -1.275160688731e+01 0.0 
7.090116643816e+00 -3.818998061530e+00 0.0 
7.989472176569e+00 -3.389238711200e+00 0.0 
9.085824861778e+00 -1.144036167408e+01 0.0 
1.041972423731e+01 -1.651614080893e+01 0.0 
3.797525112640e+01 -1.686052038746e+01 0.0 
3.709114253394e+01 -1.730125999865e+01 0.0 
3.626966748340e+01 -1.675477052919e+01 0.0 
1.385164591440e+01 -1.677597757552e+01 0.0 
1.787152588784e+01 -8.198993896093e+00 0.0 
1.668849729812e+01 -1.248560611628e+01 0.0 
1.659546177905e+01 -3.232482605530e+00 0.0 
2.332214717345e+01 -1.292598167641e+01 0.0 
7.168238450786e+00 -2.824711686516e+00 0.0 
2.894878403906e+01 -1.475427524446e+01 0.0 
2.646763248247e+00 -1.643270107952e+01 0.0 
3.467431944285e+00 -1.699648837348e+01 0.0 
2.059475877282e+01 -1.719473628526e+01 0.0 
3.333868355437e+01 -1.080596971682e+01 0.0 
2.246451062637e+01 -1.334557761546e+01 0.0 
2.167821896388e+01 -1.280847834858e+01 0.0 
3.089653185767e+01 -1.017198487212e+01 0.0 
3.012604365669e+01 -9.657298805968e+00 0.0 
2.929627299435e+01 -1.006100135274e+01 0.0 
2.936201435219e+01 -9.136748899251e+00 0.0 
1.198219052702e+01 -7.291887238230e+00 0.0 
1.116702076035e+01 -6.731976101053e+00 0.0 
2.551388807505e+01 -1.746927036981e+01 0.0 
2.378639090370e+01 -1.728678807149e+01 0.0 
2.718543627188e+01 -1.748668016909e+01 0.0 
2.804681050301e+01 -1.712626668293e+01 0.0 
1.970737034667e+01 -1.762317646822e+01 0.0 
1.889535776135e+01 -1.707158098231e+01 0.0 
2.593777711283e+00 -5.971157087874e+00 0.0 
2.773468281110e+01 -8.067164273938e+00 0.0 
4.051205884347e+01 -1.751819982458e+01 0.0 
3.166903145421e+01 -1.068032992414e+01 0.0 
1.033042452886e+01 -1.748285844336e+01 0.0 
9.519274604626e+00 -1.694349240233e+01 0.0 
1.668308673328e+01 -2.255861778986e+00 0.0 
1.570531902832e+01 -2.676795860126e+00 0.0 
4.655826903379e+01 -1.736656245706e+01 0.0 
2.384148070773e+01 -5.328744256413e+00 0.0 
2.460255123641e+01 -5.852182672816e+00 0.0 
2.306638135119e+01 -4.798935440613e+00 0.0 
8.467720450578e-01 -1.849576263072e+01 0.0 
4.849657322345e+01 -1.084860705506e+01 0.0 
2.565860899507e+00 -1.742859793981e+01 0.0 
2.764418872564e+01 -9.927142821799e+00 0.0 
4.565165880064e+01 -1.785336695404e+01 0.0 
2.162231831329e+01 -1.376528337468e+01 0.0 
2.360646352969e+01 -9.136041963102e+00 0.0 
1.392738739903e+01 -1.578285505772e+01 0.0 
4.756405947478e+01 -1.683706841809e+01 0.0 
4.740895034054e+01 -1.793766756892e+01 0.0 
4.080779328826e+01 -1.257387192544e+01 0.0 
4.168907939671e+01 -1.210739129181e+01 0.0 
3.991197722154e+01 -1.300815793917e+01 0.0 
1.905536506762e+01 -3.940076697685e+00 0.0 
1.923879596617e+01 -2.875000734166e+00 0.0 
4.401386745746e+01 -1.673483229438e+01 0.0 
4.247233362525e+00 -7.094581653070e+00 0.0 
3.286051630211e+00 -7.635300020553e+00 0.0 
9.609533347623e+00 -4.594311677967e+00 0.0 
9.523554636369e+00 -5.595597029530e+00 0.0 
5.660336628893e+00 -1.119290329628e+01 0.0 
6.558070063295e+00 -1.076385809362e+01 0.0 
2.809866407414e+01 -1.518037766799e+01 0.0 
2.888868674504e+01 -1.570360690070e+01 0.0 
2.654431550819e+01 -1.411217777162e+01 0.0 
1.402158265969e+01 -1.375404617952e+01 0.0 
1.409592494026e+01 -1.277071998942e+01 0.0 
1.499355196178e+01 -1.235270737023e+01 0.0 
4.221535326155e+01 -1.759335617494e+01 0.0 
4.305583287033e+01 -1.822663146802e+01 0.0 
1.280748808359e+01 -7.834332838285e+00 0.0 
1.368988389326e+01 -7.420529606172e+00 0.0 
1.110091796060e+01 -7.683966794328e+00 0.0 
3.963446145980e+01 -1.794331310122e+01 0.0 
3.423932362213e+00 -1.796415590455e+01 0.0 
4.280814572302e+00 -1.752272834860e+01 0.0 
8.050136380041e+00 -2.421582378631e+00 0.0 
8.888674091650e+00 -2.984264211327e+00 0.0 
2.152839430898e+01 -3.732609965436e+00 0.0 
2.077799585292e+01 -3.183896021866e+00 0.0 
3.618719395821e+01 -1.770276572576e+01 0.0 
3.538165138340e+01 -1.718709995539e+01 0.0 
3.702925326420e+01 -1.828844288807e+01 0.0 
1.756739438711e+00 -5.353284859169e+00 0.0 
2.233710191104e+01 -1.527265621324e+01 0.0 
1.389483555057e+01 -1.771797164730e+01 0.0 
1.475634224300e+01 -1.728357428390e+01 0.0 
1.298797563052e+01 -1.825968924755e+01 0.0 
2.145331271866e+01 -1.673705379077e+01 0.0 
2.133282821169e+01 -1.769400773673e+01 0.0 
2.292139194136e+01 -1.774915400288e+01 0.0 
1.750750053243e+01 -1.861475593469e+00 0.0 
4.830478841772e+01 -1.752611802221e+01 0.0 
4.341203507805e+01 -1.220326745522e+01 0.0 
1.685254151866e+01 -1.443085301632e+00 0.0 
4.431538535165e+01 -1.171841387375e+01 0.0 
4.511308610496e+01 -1.229557320599e+01 0.0 
4.510133242889e+01 -1.123680627466e+01 0.0 
1.846818030617e+00 -4.410877617069e+00 0.0 
3.995468694584e+01 -1.186571542989e+01 0.0 
3.901387459804e+01 -1.242507616755e+01 0.0 
8.966735877533e+00 -1.837818700423e+00 0.0 
4.049310011091e+01 -1.848269508791e+01 0.0 
7.278862053803e+00 -1.918523922691e+00 0.0 
6.429715522129e+00 -2.316676521184e+00 0.0 
9.443505505022e+00 -1.792198868094e+01 0.0 
8.620386951051e+00 -1.737590365556e+01 0.0 
8.571868171503e+00 -1.834436667826e+01 0.0 
7.758629848526e+00 -1.775677907213e+01 0.0 
7.806648388584e+00 -1.680761266021e+01 0.0 
6.908555145436e+00 -1.723746463044e+01 0.0 
4.251709122090e+01 -1.156937480156e+01 0.0 
6.931136405615e+00 -1.832465719263e+01 0.0 
6.015545461353e+00 -1.768865355295e+01 0.0 
5.960535926343e+00 -1.872011001764e+01 0.0 
3.023253444786e+01 -8.761960642196e+00 0.0 
2.454622702599e+01 -6.749421992767e+00 0.0 
2.537499741604e+01 -6.347634963783e+00 0.0 
2.544077378460e+01 -5.431358513649e+00 0.0 
2.801367161747e+01 -1.820907270221e+01 0.0 
2.884507806914e+01 -1.762032095326e+01 0.0 
1.821474531936e+00 -1.588901260460e+01 0.0 
1.821006262604e+00 -1.489370287756e+01 0.0 
4.599962488908e+01 -1.176478780598e+01 0.0 
4.705457470007e+01 -1.172182804229e+01 0.0 
4.667668314802e+01 -1.263464558483e+01 0.0 
4.759648056504e+01 -1.252380987933e+01 0.0 
4.728041618103e+01 -1.341928568376e+01 0.0 
4.825209352360e+01 -1.330491640804e+01 0.0 
4.778118233428e+01 -1.420151961695e+01 0.0 
2.388192727579e+01 -1.826934810142e+01 0.0 
2.381714684947e+01 -4.385917965223e+00 0.0 
3.172733219247e+01 -9.758744265248e+00 0.0 
1.882012070658e+01 -1.805540597212e+01 0.0 
1.805667505243e+01 -1.742221226236e+01 0.0 
2.852599958080e+01 -8.597196079481e+00 0.0 
2.856486123437e+01 -7.661382718527e+00 0.0 
1.111792842875e+01 -1.818223852980e+01 0.0 
2.203322722466e+01 -7.986646678802e+00 0.0 
3.955703676900e+01 -1.903246763601e+01 0.0 
1.944842206513e+01 -8.038750575182e-01 0.0 
1.909882767783e+01 -1.746322740933e+00 0.0 
2.281147422941e+01 -8.525912918334e+00 0.0 
2.850633001468e+01 -9.533271335986e+00 0.0 
2.532883344309e+01 -7.308951659710e+00 0.0 
2.620475466461e+01 -6.979208585400e+00 0.0 
1.396278270396e+01 -1.475095389807e+01 0.0 
9.791001166724e+00 -2.554159793552e+00 0.0 
2.229293380421e+01 -4.269762271052e+00 0.0 
4.677238984118e+01 -1.430071795514e+01 0.0 
2.228658385918e+01 -3.344747535984e+00 0.0 
8.940223674553e-01 -1.543595733415e+01 0.0 
2.118566862474e+01 -8.435876987696e+00 0.0 
2.678325936437e+01 -1.032621195706e+01 0.0 
2.223400220487e+01 -5.179046761770e+00 0.0 
2.375370625384e+01 -7.251580562134e+00 0.0 
3.156971327386e+01 -1.255534750737e+01 0.0 
3.328226391312e+01 -1.172914813316e+01 0.0 
3.250948774219e+01 -1.120157009348e+01 0.0 
2.032993445717e+01 -8.867880112202e+00 0.0 
2.697226974856e+01 -7.536633082045e+00 0.0 
2.707377810386e+01 -6.590835263295e+00 0.0 
2.914099246827e+01 -1.191678458549e+01 0.0 
3.544824072239e+01 -1.621126558525e+01 0.0 
3.456511855436e+01 -1.665054783843e+01 0.0 
3.448395810225e+01 -1.759117813016e+01 0.0 
3.368378673938e+01 -1.708037781328e+01 0.0 
3.375560452567e+01 -1.610973066913e+01 0.0 
3.288001547988e+01 -1.654324255651e+01 0.0 
3.282475929147e+01 -1.749725654692e+01 0.0 
3.199880906313e+01 -1.697294088625e+01 0.0 
3.197001272932e+01 -1.811667776864e+01 0.0 
3.111884713021e+01 -1.742166785755e+01 0.0 
3.120418962865e+01 -1.642155709385e+01 0.0 
3.034666704371e+01 -1.683123833816e+01 0.0 
3.026224379976e+01 -1.772592851714e+01 0.0 
3.046632362943e+01 -1.582232843075e+01 0.0 
1.961344017324e+01 -1.857459447985e+01 0.0 
2.274975894774e+01 -9.532738811922e+00 0.0 
1.833923246887e+01 -2.396746883672e+00 0.0 
1.988859500848e+01 -2.249244376594e+00 0.0 
2.758045562861e+01 -1.086434261689e+01 0.0 
3.247300178163e+01 -1.909930104252e+01 0.0 
3.461947482503e+01 -1.911879848019e+01 0.0 
2.047161538662e+01 -6.941478180358e+00 0.0 
2.750230940214e+01 -1.915490590764e+01 0.0 
3.165081350803e+01 -1.161860780120e+01 0.0 
1.897456727641e+01 -4.889634688522e+00 0.0 
2.549338539756e+01 -1.914858252089e+01 0.0 
3.462873135081e+01 -1.567482276144e+01 0.0 
3.384432415243e+01 -1.512280684518e+01 0.0 
3.471433767690e+01 -1.469086942990e+01 0.0 
3.651470373046e+01 -1.918207952149e+01 0.0 
3.901742690249e+01 -1.345028556517e+01 0.0 
2.153224102692e+01 -1.920169709333e+01 0.0 
1.918382939341e+01 -1.316226275662e+01 0.0 
2.005389162382e+01 -1.271962165174e+01 0.0 
2.011472087878e+01 -1.175029352900e+01 0.0 
3.210679478412e+01 -1.598038618242e+01 0.0 
1.752175226543e+01 -1.914713022656e+01 0.0 
1.696897240059e+01 -1.832772588765e+01 0.0 
1.599682523337e+01 -1.832599992024e+01 0.0 
1.644507199462e+01 -1.743697981535e+01 0.0 
1.549987712903e+01 -1.915192375101e+01 0.0 
3.050250861901e+01 -1.918943550234e+01 0.0 
2.949944061527e+01 -1.922950455235e+01 0.0 
1.375892575273e+01 -6.447160534926e+00 0.0 
1.457223670180e+01 -7.006709243857e+00 0.0 
1.450818793236e+01 -7.965943451779e+00 0.0 
1.538804712402e+01 -7.553409623699e+00 0.0 
1.545817644768e+01 -6.580929593419e+00 0.0 
1.626506893751e+01 -7.129032608911e+00 0.0 
1.619833811522e+01 -8.086588580887e+00 0.0 
1.714448609609e+01 -6.697429609777e+00 0.0 
2.887616543568e+01 -1.668015232137e+01 0.0 
1.349814589130e+01 -1.918225301544e+01 0.0 
1.153887772210e+01 -1.311384581217e+01 0.0 
1.242708159886e+01 -1.267046795531e+01 0.0 
1.249799674267e+01 -1.169005616014e+01 0.0 
6.631723893693e+00 -9.774184881867e+00 0.0 
7.451471631867e+00 -1.033148796006e+01 0.0 
7.377795355458e+00 -1.132196345268e+01 0.0 
5.810931797536e+00 -9.211654212252e+00 0.0 
2.402683899133e+01 -1.441378562320e+01 0.0 
1.249768692036e+01 -1.917388426624e+01 0.0 
1.580373499437e+01 -1.290751860664e+01 0.0 
8.344650507834e+00 -9.898403995170e+00 0.0 
3.750622115305e+01 -1.086526401533e+01 0.0 
3.699391251667e+01 -1.171695900794e+01 0.0 
3.606517829518e+01 -1.173717504500e+01 0.0 
3.650257641795e+01 -1.270047380221e+01 0.0 
3.808951488918e+01 -1.183518714175e+01 0.0 
4.760380962420e+00 -1.162484888315e+01 0.0 
3.861210370848e+00 -1.205657631736e+01 0.0 
3.038284309476e+00 -1.149851280664e+01 0.0 
2.961598794889e+00 -1.248856794980e+01 0.0 
2.138953225512e+00 -1.193212674534e+01 0.0 
2.227383593457e+00 -1.096258903918e+01 0.0 
2.043265419276e+00 -1.292158472959e+01 0.0 
1.252449446028e+00 -1.225502002753e+01 0.0 
3.949985210740e+01 -1.086594001795e+01 0.0 
1.453499444792e+01 -8.768805922472e-01 0.0 
1.403518950933e+01 -1.749965556633e+00 0.0 
1.300715031023e+01 -1.714737233040e+00 0.0 
1.350929389899e+01 -2.527443911291e+00 0.0 
1.449600910711e+01 -2.595486162864e+00 0.0 
1.395693872901e+01 -3.484211041558e+00 0.0 
1.495105865208e+01 -3.364609636216e+00 0.0 
1.508822528740e+01 -1.766586020494e+00 0.0 
1.250223858430e+01 -8.634590186802e-01 0.0 
1.200279523409e+01 -1.709044504992e+00 0.0 
1.150086239419e+01 -8.592789190668e-01 0.0 
1.101482754194e+01 -1.677730591922e+00 0.0 
1.148018564526e+01 -2.659323866909e+00 0.0 
8.800552119754e+00 -3.989875954728e+00 0.0 
3.452790439430e+00 -1.901136170646e+01 0.0 
8.658451825200e-01 -9.503462241795e+00 0.0 
1.694787786797e+00 -9.000589234502e+00 0.0 
1.703436717094e+00 -8.038819004041e+00 0.0 
2.594197971110e+00 -8.563955242845e+00 0.0 
1.630513735412e+00 -9.907244747511e+00 0.0 
8.566859292791e-01 -7.512203837972e+00 0.0 
1.685461277022e+00 -7.164280248030e+00 0.0 
2.506394468801e+00 -8.623386730818e-01 0.0 
2.007475081581e+00 -1.727729545205e+00 0.0 
9.211534699767e-01 -1.628791366312e+00 0.0 
1.500000000020e+00 -2.598063549486e+00 0.0 
2.482078929963e+00 -2.553580088725e+00 0.0 
2.999795253092e+00 -1.732169015019e+00 0.0 
3.999712607169e+00 -1.728832897453e+00 0.0 
4.499752199340e+00 -8.656478679175e-01 0.0 
4.964377774841e+00 -1.730129617941e+00 0.0 
4.425017908337e+00 -2.597541756243e+00 0.0 
5.446573195014e+00 -8.410144840023e-01 0.0 
4.915722346614e+01 -1.550640962770e+01 0.0 
4.826794919243e+01 -1.600000000000e+01 0.0 
1.053139533193e+01 -1.911782884365e+01 0.0 
4.156049861949e+01 -1.095160998589e+01 0.0 
9.494526624416e+00 -8.650570090219e-01 0.0 
4.555762166964e+01 -1.897098103585e+01 0.0 
4.250656411371e+01 -1.914387356218e+01 0.0 
4.350906466345e+01 -1.917234727395e+01 0.0 
8.759665722424e-01 -1.746422130609e+01 0.0 
1.698936011838e+00 -1.795012186674e+01 0.0 
4.742476811029e+01 -1.900090177972e+01 0.0 
7.749196752349e+00 -6.368049313489e+00 0.0 
3.361572113416e+01 -1.798765193915e+01 0.0 
4.484660149212e+01 -1.728661231383e+01 0.0 
1.984038172228e+01 -4.502575320116e+00 0.0 
1.035080352627e+01 -6.166639575753e+00 0.0 
2.753558010652e+00 -1.444909521181e+01 0.0 
7.217069543032e+00 -1.328635391078e+01 0.0 
4.364336727739e+00 -1.655585677381e+01 0.0 
4.595208426108e+00 -1.357919665443e+01 0.0 
6.164967006980e+00 -1.569873454630e+01 0.0 
1.487855768353e+01 -1.826523774028e+01 0.0 
2.791876456372e+00 -4.019632415181e+00 0.0 
4.246464893515e+01 -1.364898659620e+01 0.0 
4.503855590351e+01 -1.329552780944e+01 0.0 
4.407239109604e+01 -1.573900004093e+01 0.0 
5.141054449252e+00 -6.664290382472e+00 0.0 
3.141083947149e+00 -1.055790764912e+01 0.0 
6.196463198741e+00 -4.256497932609e+00 0.0 
2.599618716181e+01 -1.836893455464e+01 0.0 
2.923057372337e+01 -1.098461757645e+01 0.0 
1.168343877486e+01 -1.114079645041e+01 0.0 
6.706222096238e+00 -8.780364234441e+00 0.0 
8.567858614669e+00 -6.943121440850e+00 0.0 
1.123755132901e+01 -5.753525820030e+00 0.0 
2.353456234423e+01 -1.008536320953e+01 0.0 
9.162073319168e+00 -1.045593739109e+01 0.0 
9.676343469685e+00 -1.496493008366e+01 0.0 
4.490637882905e+01 -1.628778970202e+01 0.0 
7.398129387772e+00 -9.639977982323e-01 0.0 
1.049641705805e+01 -1.552503975272e+01 0.0 
9.010356286268e+00 -1.242805042052e+01 0.0 
3.985573925497e+01 -1.399863651620e+01 0.0 
1.816196318262e+01 -1.554066497931e+01 0.0 
1.306332244168e+01 -3.963646550326e+00 0.0 
4.145850903932e+01 -1.608094559275e+01 0.0 
3.794664933633e+01 -1.779020121986e+01 0.0 
3.819614412903e+01 -1.290749321016e+01 0.0 
6.270014188119e+00 -3.255093186826e+00 0.0 
4.251165370388e+01 -1.263870364997e+01 0.0 
1.207347709171e+01 -1.763942826023e+01 0.0 
3.633240829927e+01 -1.577330481104e+01 0.0 
4.319052668832e+00 -6.101812561904e+00 0.0 
1.676492415806e+01 -1.151547901392e+01 0.0 
2.594059220037e+01 -1.074225223009e+01 0.0 
3.340750911501e+01 -9.898764354137e+00 0.0 
4.397619591281e+01 -1.769773736461e+01 0.0 
2.175611595028e+01 -1.185718747128e+01 0.0 
1.641818733106e+01 -1.640685203215e+01 0.0 
1.661211421753e+01 -1.346121366338e+01 0.0 
3.428853504935e+00 -6.551993389271e+00 0.0 
8.700728832502e+00 -1.638460872825e+01 0.0 
1.931369795309e+01 -1.121629383702e+01 0.0 
4.139798872363e+01 -1.706922153459e+01 0.0 
2.647837478700e+01 -1.507353829290e+01 0.0 
1.779469616424e+01 -9.161615782908e+00 0.0 
3.885879219319e+01 -1.642026488918e+01 0.0 
1.338194936770e+01 -1.125916521471e+01 0.0 
1.897071181111e+01 -1.609204322578e+01 0.0 
2.844308548793e+01 -1.046221003096e+01 0.0 
2.659854702194e+01 -1.316109415760e+01 0.0 
2.979604503271e+01 -1.433296157755e+01 0.0 
2.417694041347e+01 -1.251231397779e+01 0.0 
1.807401327411e+00 -1.388891148480e+01 0.0 
9.599810618782e+00 -1.595439365034e+01 0.0 
1.652144692160e+01 -4.205392788472e+00 0.0 
2.367839450246e+01 -8.188385218643e+00 0.0 
3.814894930468e+01 -1.390748338767e+01 0.0 
2.466448215774e+01 -1.685878545680e+01 0.0 
4.134044524611e+01 -1.806610045954e+01 0.0 
2.600511411958e+01 -9.801774120648e+00 0.0 
7.882158050716e+00 -1.582364037353e+01 0.0 
3.881607873422e+01 -1.737970515013e+01 0.0 
8.270182347708e+00 -1.088622154920e+01 0.0 
8.672520392520e-01 -4.532984309881e+00 0.0 
1.993447205337e+01 -3.579061902667e+00 0.0 
1.794616079549e+01 -7.238038888498e+00 0.0 
2.097277068165e+01 -1.132450168636e+01 0.0 
8.194803300681e+00 -1.187214224265e+01 0.0 
3.522279404911e+01 -1.823342818178e+01 0.0 
6.984481050295e+00 -1.625271465557e+01 0.0 
1.309433007797e+01 -1.521718594215e+01 0.0 
2.150246167611e+01 -1.885399038185e+00 0.0 
3.250689370209e+01 -1.028789870535e+01 0.0 
6.085886272238e+00 -1.668342132851e+01 0.0 
1.588455661727e+01 -1.193498985921e+01 0.0 
1.809323400821e+01 -1.651110084195e+01 0.0 
1.348885082381e+00 -1.136065576512e+01 0.0 
2.497670221995e+01 -1.834631276173e+01 0.0 
2.937062818424e+01 -8.233711194470e+00 0.0 
5.185823744469e+00 -1.711566910207e+01 0.0 
1.477497877209e+01 -1.530177014512e+01 0.0 
2.125346158933e+01 -7.473003997367e+00 0.0 
4.751561118290e+01 -1.084897772632e+01 0.0 
5.056026576843e+00 -1.825750475525e+01 0.0 
1.473948554523e+01 -1.634577436309e+01 0.0 
2.410566630936e+01 -1.345970002612e+01 0.0 
1.507337507513e+01 -1.138527895328e+01 0.0 
3.189857338687e+01 -8.887781229006e+00 0.0 
7.298712468334e+00 -1.230231046246e+01 0.0 
2.738235495295e+01 -1.368931690364e+01 0.0 
3.750141041969e+01 -1.920449893070e+01 0.0 
1.557271965640e+01 -1.683317951731e+01 0.0 
3.393731848929e+01 -1.413034777044e+01 0.0 
6.482156824153e+00 -1.174575135362e+01 0.0 
2.077971718439e+01 -1.421279621836e+01 0.0 
3.455084320178e+00 -2.562590040585e+00 0.0 
3.099056096250e+01 -9.270280416035e+00 0.0 
5.580176125418e+00 -1.217387969259e+01 0.0 
1.707247630389e+01 -7.660651981710e+00 0.0 
1.418658814174e+01 -1.180390575393e+01 0.0 
2.049103025389e+01 -1.811296706038e+01 0.0 
4.680386172316e+00 -1.260396879301e+01 0.0 
1.699679896554e+01 -8.624561788199e+00 0.0 
3.779470168555e+00 -1.303424899720e+01 0.0 
3.036589870126e+01 -7.879832518349e+00 0.0 
3.306993001774e+01 -1.457671062095e+01 0.0 
2.840150110165e+00 -1.346530088269e+01 0.0 
2.732011135052e+01 -1.464591214560e+01 0.0 
5.423639259568e+00 -2.659711955016e+00 0.0 
2.324455961696e+01 -1.387269388211e+01 0.0 
1.752768355571e+00 -1.693128613594e+01 0.0 
1.020244783051e+01 -8.076834012808e+00 0.0 
1.330873875224e+01 -1.222417528206e+01 0.0 
3.297727364880e+01 -1.555480372087e+01 0.0 
2.890929955439e+01 -6.868664170731e+00 0.0 
1.323294664622e+01 -1.320754260334e+01 0.0 
2.726532861246e+01 -1.560593120806e+01 0.0 
2.240020643398e+01 -1.429299177247e+01 0.0 
2.090445823633e+01 -1.228128621332e+01 0.0 
1.315809881502e+01 -1.420739326938e+01 0.0 
2.781328038068e+01 -7.181956082300e+00 0.0 
8.614200829057e+00 -5.936933226306e+00 0.0 
8.714765730069e+00 -4.979270529687e+00 0.0 
1.611881701099e+01 -9.041973294003e+00 0.0 
2.806830314340e+01 -1.614622947108e+01 0.0 
2.084435391396e+00 -3.385085422913e+00 0.0 
3.133211811152e+01 -1.542347619750e+01 0.0 
9.693114650768e+00 -3.590281506442e+00 0.0 
1.531883592202e+01 -8.504584946143e+00 0.0 
2.151589117094e+01 -1.578915763018e+01 0.0 
4.918943882696e+01 -1.355538828056e+01 0.0 
1.443236615188e+01 -8.918701794549e+00 0.0 
8.276250966452e-01 -5.537685192197e+00 0.0 
1.362790867918e+01 -8.374718262212e+00 0.0 
2.083767477370e+01 -1.324843956035e+01 0.0 
1.273834678703e+01 -8.790890389337e+00 0.0 
1.192275845670e+01 -8.242261327467e+00 0.0 
4.477236023583e+01 -1.824312396664e+01 0.0 
1.102989384254e+01 -8.649855800911e+00 0.0 
4.849096516045e+01 -1.917293752213e+01 0.0 
1.588996752238e+00 -1.910230934687e+01 0.0 
4.904245197583e+01 -1.159839008158e+01 0.0 
2.753852929608e+01 -5.782128488093e+00 0.0 
1.756133602833e+01 -8.306130313187e-01 0.0 
2.615423700951e+01 -6.153865090092e+00 0.0 
1.028818761294e+01 -7.122020845892e+00 0.0 
2.970818901196e+01 -1.527821347593e+01 0.0 
4.801461623449e+01 -1.164472570985e+01 0.0 
9.455722100419e+00 -6.546069291118e+00 0.0 
3.089099236677e+01 -1.835339328261e+01 0.0 
2.350000000013e+01 -1.920825896750e+01 0.0 
4.830620531887e+01 -1.506626155470e+01 0.0 
1.725381944701e+01 -1.688794487850e+01 0.0 
2.156246225273e+01 -1.475893794002e+01 0.0 
4.919319648787e+01 -1.742767505896e+01 0.0 
4.437935623576e+01 -1.077662927266e+01 0.0 
1.001520521978e+01 -1.652692675208e+00 0.0 
9.067160240050e-01 -1.441937727541e+01 0.0 
2.603365149390e+01 -4.755996613848e+00 0.0 
2.458344439002e+01 -4.873645517696e+00 0.0 
2.304312390142e+01 -3.836552768096e+00 0.0 
2.546923202198e+00 -6.902480355749e+00 0.0 
1.251534969393e+01 -2.490989965776e+00 0.0 
2.454061833377e+01 -3.933354231935e+00 0.0 
1.788186558740e+01 -1.827424884923e+01 0.0 
4.090785243552e+01 -1.166553231904e+01 0.0 
2.230128851568e+01 -1.623015738726e+01 0.0 
2.302362347568e+01 -2.916239960270e+00 0.0 
3.878119254461e+01 -1.830091164002e+01 0.0 
2.210081359958e+01 -1.829238229150e+01 0.0 
8.443704882233e+00 -1.921993252862e+01 0.0 
2.218405824691e+01 -1.724557581508e+01 0.0 
2.151157503963e+01 -2.790636689331e+00 0.0 
3.741658958955e+01 -1.250400191722e+01 0.0 
2.697247663737e+01 -1.838290202309e+01 0.0 
4.743362342862e+01 -1.585850773010e+01 0.0 
6.671345075358e+00 -1.924977576322e+01 0.0 
3.900825404537e+01 -1.157220003875e+01 0.0 
4.649692961375e+01 -1.836335837481e+01 0.0 
1.578831424832e+01 -3.678284023361e+00 0.0 
4.814208768888e+01 -1.841249298770e+01 0.0 
2.964123298315e+01 -1.625739458193e+01 0.0 
4.580760351902e+01 -1.284294554687e+01 0.0 
3.561520879615e+01 -1.245548941949e+01 0.0 
2.555418095658e+00 -1.841101588290e+01 0.0 
3.288468366144e+01 -1.834258164109e+01 0.0 
2.065894391445e+01 -2.240688571739e+00 0.0 
4.739171429915e+01 -1.496536413446e+01 0.0 
3.478086729185e+00 -8.576434653209e+00 0.0 
1.606010630246e+01 -1.588421807951e+00 0.0 
1.018329200594e+01 -1.834320874317e+01 0.0 
2.957213339430e+01 -1.720496954591e+01 0.0 
4.142712790164e+00 -1.837794506222e+01 0.0 
6.698721532573e-01 -2.499999999997e+00 0.0 
8.037039123140e+00 -1.571229354954e+00 0.0 
1.203541361428e+01 -1.847784298001e+01 0.0 
2.899968332038e+01 -1.848264722179e+01 0.0 
1.469229460948e+01 -4.219485753730e+00 0.0 
4.049590781957e+01 -1.932812501995e+01 0.0 
1.996211678340e+01 -1.506329754720e+00 0.0 
4.250588298353e+01 -1.067383247529e+01 0.0 
5.831497011152e+00 -1.635396227234e+00 0.0 
5.317606125670e+00 -1.923927974868e+01 0.0 
4.208546426993e+01 -1.842830665025e+01 0.0 
2.327553405011e+00 -9.459409929662e+00 0.0 
3.568351902251e+01 -1.096637218582e+01 0.0 
1.682104374890e+00 -6.231413350963e+00 0.0 
2.451812238018e+01 -1.766524914339e+01 0.0 
1.058003429638e+01 -2.391839617098e+00 0.0 
4.399988753123e+01 -1.851998776342e+01 0.0 
1.400000000010e+01 -1.852293523028e+01 0.0 
3.604719565984e+01 -1.850662876800e+01 0.0 
1.951297136734e+01 -1.938092349694e+01 0.0 
1.821365318472e+01 -1.531276353287e+00 0.0 
2.298031859732e+01 -1.854635324722e+01 0.0 
1.552168066204e+01 -1.764280741977e+01 0.0 
4.572957713638e+01 -1.073347898229e+01 0.0 
3.429637429624e+01 -1.838861552790e+01 0.0 
2.427434426052e+00 -7.705577451869e+00 0.0 
4.662792031485e+00 -3.359424455416e+00 0.0 
4.926794919243e+01 -1.926794919243e+01 0.0 
7.320508075690e-01 -7.320508075688e-01 0.0 
4.926794919243e+01 -1.073205080757e+01 0.0 
7.320508075705e-01 -1.926794919243e+01 0.0 
2.917460242467e+00 -3.202866455310e+00 0.0 
4.838200575963e+01 -1.232674147454e+01 0.0 
2.998445708009e+01 -1.854403752148e+01 0.0 
5.949940090766e-01 -1.152762038165e+01 0.0 
4.844763495759e+01 -1.678092548787e+01 0.0 
1.301685480160e+01 -3.170056592566e+00 0.0 
1.650046335855e+01 -6.731535384067e-01 0.0 
4.854881540991e+01 -1.405224059779e+01 0.0 
2.119545114693e+01 -1.846813384545e+01 0.0 
3.797852849897e+01 -1.857978513215e+01 0.0 
4.649823708745e+01 -1.338351810816e+01 0.0 
2.012685900976e+01 -2.889659035009e+00 0.0 
2.953271913273e+01 -1.791558075192e+01 0.0 
2.408509097292e+00 -1.021949208421e+01 0.0 
2.642589566221e+01 -1.773216561448e+01 0.0 
1.730010270775e+01 -1.763165076721e+01 0.0 
2.017406551304e+01 -8.513536440582e-01 0.0 
5.254761581934e-01 -1.249999999999e+01 0.0 
6.640448215642e+00 -1.545337834885e+00 0.0 
7.843361506349e+00 -1.852719839527e+01 0.0 
1.588442191088e+00 -1.066158564320e+01 0.0 
2.731250000000e+01 -4.420918367347e+00 0.0 
4.951086956522e+01 -4.500000000000e+00 0.0 
2.880770112393e+01 -5.415638864241e+00 0.0 
4.951086956522e+01 -5.500000000000e+00 0.0 
3.031250000000e+01 -6.420918367347e+00 0.0 
4.951250000000e+01 -6.500000000000e+00 0.0 
3.180701530612e+01 -7.414795918363e+00 0.0 
4.951250000000e+01 -7.500000000000e+00 0.0 
3.331250000000e+01 -8.420918367347e+00 0.0 
4.951470588234e+01 -8.500000000000e+00 0.0 
3.480610198624e+01 -9.413633635267e+00 0.0 
4.951470588234e+01 -9.500000000000e+00 0.0 

SCALARS node_number int
LOOKUP_TABLE default
1
2
3
4
5
6
7
8
9
10
11
12
13
14
15
16
17
18
19
20
21
22
23
24
25
26
27
28
29
30
31
32
33
34
35
36
37
38
39
40
41
42
43
44
45
46
47
48
49
50
51
52
53
54
55
56
57
58
59
60
61
62
63
64
65
66
67
68
69
70
71
72
73
74
75
76
77
78
79
80
81
82
84
85
86
87
88
89
90
91
92
93
97
98
99
100
101
102
104
105
106
107
108
109
110
111
112
113
114
115
116
117
118
119
120
121
122
123
124
125
126
127
128
129
130
131
132
133
134
135
136
245
246
247
248
249
250
251
252
253
254
255
256
257
258
259
260
261
262
263
264
265
266
267
268
269
270
271
272
273
274
275
276
277
278
279
280
281
282
283
284
285
286
287
288
289
290
291
292
293
294
295
296
297
298
299
300
301
302
303
304
305
306
307
308
309
310
311
312
313
314
315
316
317
318
319
320
321
322
323
324
325
326
327
328
329
330
331
332
333
334
335
336
337
338
339
340
341
342
343
344
345
346
347
348
349
350
351
352
353
354
355
356
357
358
359
360
361
362
363
364
365
366
367
368
369
370
371
372
373
374
375
376
377
378
379
380
381
382
383
384
385
386
387
388
389
390
391
392
393
394
395
396
397
398
399
400
401
402
403
404
405
406
407
408
409
410
411
412
413
414
415
416
417
418
419
420
421
422
423
424
425
426
427
428
429
430
431
432
433
434
435
436
437
438
439
440
441
442
443
444
445
446
447
448
449
450
451
452
453
454
455
456
457
458
459
460
461
462
463
464
465
466
467
468
469
470
471
472
473
474
475
476
477
478
479
480
481
482
483
484
485
486
487
488
489
490
491
492
493
494
495
496
497
498
499
500
501
502
503
504
505
506
507
508
509
510
511
512
513
514
515
516
517
518
519
520
521
522
523
524
525
526
527
528
529
530
531
532
533
534
535
536
537
538
539
540
541
542
543
544
545
546
547
548
549
550
551
552
553
554
555
556
557
558
559
560
561
562
563
564
565
566
567
568
569
570
571
572
573
574
575
576
577
578
579
580
581
582
583
584
585
586
587
588
589
590
591
592
593
594
595
596
597
598
599
600
601
602
603
604
605
606
607
608
609
610
611
612
613
614
615
616
617
618
619
620
621
622
623
624
625
626
627
628
629
630
631
632
633
634
635
636
637
638
639
640
641
642
643
644
645
646
647
648
649
650
651
652
653
654
655
656
657
658
659
660
661
662
663
664
665
666
667
668
669
670
671
672
673
674
675
676
677
678
679
680
681
682
683
684
685
686
687
688
689
690
691
692
693
694
695
696
697
698
699
700
701
702
703
704
705
706
707
708
709
710
711
712
713
714
715
716
717
718
719
720
721
722
723
724
725
726
727
728
729
730
731
732
733
734
735
736
737
738
739
740
741
742
743
744
745
746
747
748
749
750
751
752
753
754
755
756
757
758
759
760
761
762
763
764
765
766
767
768
769
770
771
772
773
774
775
776
777
778
779
780
781
782
783
784
785
786
787
788
789
790
791
792
793
794
795
796
797
798
799
800
801
802
803
804
805
806
807
808
809
810
811
812
813
814
815
816
817
818
819
820
821
822
823
824
825
826
827
828
829
830
831
832
833
834
835
836
837
838
839
840
841
842
843
844
845
846
847
848
849
850
851
852
853
854
855
856
857
858
859
860
861
862
863
864
865
866
867
868
869
870
871
872
873
874
875
876
877
878
879
880
881
882
883
884
885
886
887
888
889
890
891
892
893
894
895
896
897
898
899
900
901
902
903
904
905
906
907
908
909
910
911
912
913
914
915
916
917
918
919
920
921
922
923
924
925
926
927
928
929
930
931
932
933
934
935
936
937
938
939
940
941
942
943
944
945
946
947
948
949
950
951
952
953
954
955
956
957
958
959
960
961
962
963
964
965
966
967
968
969
970
971
972
973
974
975
976
977
978
979
980
981
982
983
984
985
986
987
988
989
990
991
992
993
994
995
996
997
998
999
1000
1001
1002
1003
1004
1005
1006
1007
1008
1009
1010
1011
1012
1013
1014
1015
1016
1017
1018
1019
1020
1021
1022
1023
1024
1025
1026
1027
1028
1029
1030
1031
1032
1033
1034
1035
1036
1037
1038
1039
1040
1041
1042
1043
1044
1045
1046
1047
1048
1049
1050
1051
1052
1053
1054
1055
1056
1057
1058
1059
1060
1061
1062
1063
1064
1065
1066
1067
1068
1069
1070
1071
1072
1073
1074
1075
1076
1077
1078
1079
1080
1081
1082
1083
1084
1085
1086
1087
1088
1089
1090
1091
1092
1093
1094
1095
1096
1097
1098
1099
1100
1101
1102
1103
1104
1105
1106
1107
1108
1109
1110
1111
1112
1113
1114
1115
1116
1117
1118
1119
1120
1121
1122
1123
1124
1125
1126
1127
1128
1129
1130
1131
1132
1133
1134
1135
1136
1137
1138
1139
1140
1141
1142
1143
1144
1145
1146
1147
1148
1149
1150
1151
1152
1153
1154
1155
1156
1157
1158
1159
1160
1161
1162
1163
1164
1165
1166
1167
1168
1169
1170
1171
1172
1173
1174
1175
1176
1177
1178
1179
1180
1181
1182
1183
1184
1185
1186
1187
1188
1189
1190
1191
1192
1193
1194
1195
1196
1197
1198
1199
1200
1201
1202
1203
1204
1205
1206
1207
1208
1209
1210
1211
1212
1213
1214
1215
1216
1217
1218
1219
1220
1221
1222
1223
1224
1225
1226
1227
1228
1229
1230
1231
1232
1233
1234
1235
1236
1237
1238
1239
1240
1241
1242
1243
1244
1245
1246
1247
1248
1249
1250
1251
1252
1253
1254
1255
1256
1257
1258
1259
1260
1261
1262
1263
1264
1273
1274
1275
1276
1277
1278
1279
1280
1281
1282
1283
1284

VECTORS node_mesh_deformation float
0.0 7.629971053201e-02 0.0 
0.000000000000e+00 1.028030426886e-01 0.0 
0.0 0.000000000000e+00 0.0 
0.000000000000e+00 0.000000000000e+00 0.0 
0.0 7.647072962775e-02 0.0 
0.0 7.614754483589e-02 0.0 
0.0 7.535322094760e-02 0.0 
0.0 7.409807585134e-02 0.0 
0.0 7.237766569603e-02 0.0 
0.0 7.023461782190e-02 0.0 
0.0 6.769105987554e-02 0.0 
0.0 6.475991976779e-02 0.0 
0.0 6.145589572175e-02 0.0 
0.0 5.778419835793e-02 0.0 
0.0 5.373970544622e-02 0.0 
0.0 4.932168812684e-02 0.0 
0.0 4.453269919550e-02 0.0 
0.0 3.938209315918e-02 0.0 
0.0 3.383168402781e-02 0.0 
0.0 2.788208994948e-02 0.0 
0.0 2.152929917997e-02 0.0 
0.0 1.476252492164e-02 0.0 
0.0 7.579549894650e-03 0.0 
0.000000000000e+00 0.000000000000e+00 0.0 
0.000000000000e+00 0.000000000000e+00 0.0 
0.000000000000e+00 0.000000000000e+00 0.0 
0.000000000000e+00 0.000000000000e+00 0.0 
0.000000000000e+00 0.000000000000e+00 0.0 
0.000000000000e+00 0.000000000000e+00 0.0 
0.000000000000e+00 0.000000000000e+00 0.0 
0.000000000000e+00 0.000000000000e+00 0.0 
0.000000000000e+00 0.000000000000e+00 0.0 
0.000000000000e+00 0.000000000000e+00 0.0 
0.000000000000e+00 0.000000000000e+00 0.0 
0.000000000000e+00 0.000000000000e+00 0.0 
0.000000000000e+00 0.000000000000e+00 0.0 
0.000000000000e+00 0.000000000000e+00 0.0 
0.000000000000e+00 0.000000000000e+00 0.0 
0.000000000000e+00 0.000000000000e+00 0.0 
0.000000000000e+00 0.000000000000e+00 0.0 
0.000000000000e+00 0.000000000000e+00 0.0 
0.000000000000e+00 0.000000000000e+00 0.0 
0.000000000000e+00 0.000000000000e+00 0.0 
0.000000000000e+00 0.000000000000e+00 0.0 
0.000000000000e+00 0.000000000000e+00 0.0 
0.000000000000e+00 0.000000000000e+00 0.0 
0.000000000000e+00 0.000000000000e+00 0.0 
0.000000000000e+00 0.000000000000e+00 0.0 
0.000000000000e+00 0.000000000000e+00 0.0 
0.000000000000e+00 0.000000000000e+00 0.0 
0.000000000000e+00 0.000000000000e+00 0.0 
0.000000000000e+00 0.000000000000e+00 0.0 
0.000000000000e+00 0.000000000000e+00 0.0 
0.000000000000e+00 0.000000000000e+00 0.0 
0.000000000000e+00 0.000000000000e+00 0.0 
0.000000000000e+00 0.000000000000e+00 0.0 
0.000000000000e+00 0.000000000000e+00 0.0 
0.000000000000e+00 0.000000000000e+00 0.0 
0.000000000000e+00 0.000000000000e+00 0.0 
0.000000000000e+00 0.000000000000e+00 0.0 
0.000000000000e+00 0.000000000000e+00 0.0 
0.000000000000e+00 0.000000000000e+00 0.0 
0.000000000000e+00 0.000000000000e+00 0.0 
0.000000000000e+00 0.000000000000e+00 0.0 
0.000000000000e+00 0.000000000000e+00 0.0 
0.000000000000e+00 0.000000000000e+00 0.0 
0.000000000000e+00 0.000000000000e+00 0.0 
0.000000000000e+00 0.000000000000e+00 0.0 
0.000000000000e+00 0.000000000000e+00 0.0 
0.000000000000e+00 0.000000000000e+00 0.0 
0.000000000000e+00 0.000000000000e+00 0.0 
0.000000000000e+00 0.000000000000e+00 0.0 
0.000000000000e+00 9.429425684773e-02 0.0 
0.000000000000e+00 8.536828668717e-02 0.0 
0.000000000000e+00 7.602807249354e-02 0.0 
0.000000000000e+00 6.629277798994e-02 0.0 
0.000000000000e+00 5.616237323062e-02 0.0 
0.000000000000e+00 4.565350757468e-02 0.0 
0.000000000000e+00 3.477378850306e-02 0.0 
0.000000000000e+00 2.353195145097e-02 0.0 
0.000000000000e+00 1.193977223729e-02 0.0 
-1.251665123337e-02 4.546012080970e-02 0.0 
1.123269500988e-02 9.988679994717e-02 0.0 
-5.352723367860e-03 6.916390455312e-02 0.0 
3.910428483671e-04 8.729344870192e-02 0.0 
5.038024438964e-03 1.015567650713e-01 0.0 
8.163009322971e-03 1.115543843667e-01 0.0 
1.104307472781e-02 1.161220891336e-01 0.0 
1.261709666530e-02 1.168735334391e-01 0.0 
1.315568084377e-02 1.151077786740e-01 0.0 
1.298431995885e-02 1.114399216840e-01 0.0 
1.229453732368e-02 1.062668089612e-01 0.0 
0.000000000000e+00 1.447467173850e-01 0.0 
0.000000000000e+00 1.388494033306e-01 0.0 
0.000000000000e+00 1.325007014748e-01 0.0 
0.000000000000e+00 1.257464091153e-01 0.0 
0.000000000000e+00 1.185186096405e-01 0.0 
0.000000000000e+00 1.108898139668e-01 0.0 
6.270397106789e-04 1.028053067715e-01 0.0 
1.244873523873e-03 1.028103371185e-01 0.0 
1.875605002773e-03 1.028149114107e-01 0.0 
2.517169853483e-03 1.028104445732e-01 0.0 
3.169971247829e-03 1.028070605253e-01 0.0 
3.838285139722e-03 1.027767638200e-01 0.0 
4.529839128182e-03 1.027337070086e-01 0.0 
5.237792228975e-03 1.026506331857e-01 0.0 
5.983317689939e-03 1.025388368287e-01 0.0 
6.761813303136e-03 1.023583333094e-01 0.0 
7.572055718711e-03 1.021040225174e-01 0.0 
8.422266109832e-03 1.017590249067e-01 0.0 
9.312191129276e-03 1.012937038701e-01 0.0 
1.024634427319e-02 1.006757943257e-01 0.0 
-9.935275924054e-03 3.203449321360e-02 0.0 
-6.058889996080e-03 2.510646394019e-02 0.0 
-1.867212488154e-03 2.257309079171e-02 0.0 
2.559634293739e-03 2.460530676158e-02 0.0 
5.614341139646e-03 3.337832099273e-02 0.0 
7.166140680752e-03 4.378621164418e-02 0.0 
7.688626211209e-03 5.075391364636e-02 0.0 
7.690765520874e-03 5.617541043066e-02 0.0 
7.142822192094e-03 6.052198527778e-02 0.0 
6.586158936150e-03 6.401101606852e-02 0.0 
6.040046118779e-03 6.685115092685e-02 0.0 
5.426200983946e-03 6.911528005224e-02 0.0 
4.844253711393e-03 7.098535379003e-02 0.0 
4.142128115761e-03 7.250745749280e-02 0.0 
3.450993997503e-03 7.372963490628e-02 0.0 
2.788309515200e-03 7.467450970008e-02 0.0 
2.128888618179e-03 7.540366317320e-02 0.0 
1.461848737252e-03 7.593222214971e-02 0.0 
7.408297128986e-04 7.622253217192e-02 0.0 
6.020854475395e-04 1.447817007851e-01 0.0 
1.129548784633e-03 1.447662992836e-01 0.0 
1.653463494549e-03 1.447672886847e-01 0.0 
2.173038166312e-03 1.447653928309e-01 0.0 
2.682330287819e-03 1.447552167670e-01 0.0 
3.176068543006e-03 1.447301894880e-01 0.0 
3.649458258458e-03 1.446817666742e-01 0.0 
4.097951623244e-03 1.445994282826e-01 0.0 
4.517080897202e-03 1.444703988506e-01 0.0 
4.902417339181e-03 1.442792772985e-01 0.0 
5.249599974519e-03 1.440076028152e-01 0.0 
5.554444899609e-03 1.436333120057e-01 0.0 
5.813123645510e-03 1.431301153653e-01 0.0 
6.022339216550e-03 1.424664573561e-01 0.0 
6.180008096301e-03 1.416046150556e-01 0.0 
6.285789196738e-03 1.404990226178e-01 0.0 
6.342779590952e-03 1.390955082078e-01 0.0 
6.357708405673e-03 1.373271168711e-01 0.0 
6.345166820491e-03 1.351125395979e-01 0.0 
6.329523515930e-03 1.323450135891e-01 0.0 
6.358337131729e-03 1.288839126624e-01 0.0 
6.523732638595e-03 1.245691639165e-01 0.0 
6.799037980880e-03 1.191220485865e-01 0.0 
1.015772393396e-02 1.209907954093e-01 0.0 
9.533177514239e-03 1.248423818867e-01 0.0 
8.999217322366e-03 1.279054633111e-01 0.0 
8.564791148089e-03 1.303767495564e-01 0.0 
8.181659981133e-03 1.323481936697e-01 0.0 
7.827266569109e-03 1.339241346324e-01 0.0 
7.480735185219e-03 1.351707923716e-01 0.0 
7.130580810596e-03 1.361506339882e-01 0.0 
6.768462550419e-03 1.369112534800e-01 0.0 
6.389671841340e-03 1.374941201926e-01 0.0 
5.991550096347e-03 1.379330316570e-01 0.0 
5.573349312783e-03 1.382567306046e-01 0.0 
5.135362186422e-03 1.384890130152e-01 0.0 
4.678568306005e-03 1.386498482497e-01 0.0 
4.204459222450e-03 1.387559819254e-01 0.0 
3.714882766559e-03 1.388213980064e-01 0.0 
3.211944668671e-03 1.388577324147e-01 0.0 
2.697754710532e-03 1.388744690476e-01 0.0 
2.174245200173e-03 1.388791776591e-01 0.0 
1.642817311151e-03 1.388772364854e-01 0.0 
1.103453585472e-03 1.388693468955e-01 0.0 
5.532874543519e-04 1.388318242554e-01 0.0 
5.738988075379e-04 1.325367752367e-01 0.0 
1.149733486692e-03 1.325330041208e-01 0.0 
1.721482536077e-03 1.325424008692e-01 0.0 
2.289080912988e-03 1.325477207984e-01 0.0 
2.852866675852e-03 1.325454419454e-01 0.0 
3.412874540757e-03 1.325299795470e-01 0.0 
3.968930167289e-03 1.324934011961e-01 0.0 
4.520648171059e-03 1.324256046074e-01 0.0 
5.067807805375e-03 1.323136993675e-01 0.0 
5.610689276907e-03 1.321421203131e-01 0.0 
6.150236477183e-03 1.318920980049e-01 0.0 
6.688062490340e-03 1.315412804759e-01 0.0 
7.226721009701e-03 1.310628467798e-01 0.0 
7.770017584136e-03 1.304235213243e-01 0.0 
8.325263489731e-03 1.295848167623e-01 0.0 
8.900138942337e-03 1.284986577263e-01 0.0 
9.509589098087e-03 1.271121054958e-01 0.0 
1.016382247038e-02 1.253480684747e-01 0.0 
1.089418599277e-02 1.231426952303e-01 0.0 
1.168248709863e-02 1.203619288401e-01 0.0 
1.220836626415e-02 1.175161232203e-01 0.0 
1.135415441957e-02 1.194569175673e-01 0.0 
1.053298469670e-02 1.209889708580e-01 0.0 
9.771369300417e-03 1.222154568877e-01 0.0 
9.050422582817e-03 1.231703904232e-01 0.0 
8.365298697250e-03 1.239122039898e-01 0.0 
7.705407626467e-03 1.244750659252e-01 0.0 
7.066044479508e-03 1.248970268389e-01 0.0 
6.442662279973e-03 1.252062343808e-01 0.0 
5.831875601253e-03 1.254261047400e-01 0.0 
5.230723453245e-03 1.255762271746e-01 0.0 
4.636567986523e-03 1.256733666316e-01 0.0 
4.048154278941e-03 1.257317579072e-01 0.0 
3.464295035585e-03 1.257628004226e-01 0.0 
2.883791260444e-03 1.257749289416e-01 0.0 
2.305350140880e-03 1.257749782030e-01 0.0 
1.727928574851e-03 1.257677337059e-01 0.0 
1.150757505705e-03 1.257553367785e-01 0.0 
5.750071402346e-04 1.257213415582e-01 0.0 
6.050002016380e-04 1.185507303227e-01 0.0 
1.212001440173e-03 1.185420759322e-01 0.0 
1.821331837334e-03 1.185520580119e-01 0.0 
2.435458985829e-03 1.185579247126e-01 0.0 
3.055206361992e-03 1.185557366305e-01 0.0 
3.683555139638e-03 1.185391184991e-01 0.0 
4.322025836395e-03 1.185012320448e-01 0.0 
4.974311417719e-03 1.184324966680e-01 0.0 
5.641048141783e-03 1.183215537874e-01 0.0 
6.326211017118e-03 1.181501769623e-01 0.0 
7.034077984251e-03 1.179003552311e-01 0.0 
7.767906164737e-03 1.175512682276e-01 0.0 
8.532536470611e-03 1.170760682869e-01 0.0 
9.333807918679e-03 1.164447846397e-01 0.0 
1.017256291211e-02 1.156079460506e-01 0.0 
1.106676238317e-02 1.145401938525e-01 0.0 
1.198995360793e-02 1.131639639305e-01 0.0 
1.132573298666e-02 1.074235620141e-01 0.0 
1.041573907158e-02 1.083523448369e-01 0.0 
9.524688787643e-03 1.090525126549e-01 0.0 
8.681633015215e-03 1.095985503449e-01 0.0 
7.878398461969e-03 1.100103252032e-01 0.0 
7.109731167681e-03 1.103143719601e-01 0.0 
6.372630879937e-03 1.105351558943e-01 0.0 
5.663913908172e-03 1.106865136534e-01 0.0 
4.977491818401e-03 1.107830569302e-01 0.0 
4.314134079301e-03 1.108487220438e-01 0.0 
3.666819582648e-03 1.108834283112e-01 0.0 
3.035843636901e-03 1.109017738960e-01 0.0 
2.414700587146e-03 1.109039421190e-01 0.0 
1.804042877410e-03 1.109011635919e-01 0.0 
1.200972795871e-03 1.108904701248e-01 0.0 
5.978305934136e-04 1.108581052157e-01 0.0 
-8.548174980895e-03 5.872639083075e-02 0.0 
-2.373930210045e-03 7.868701827287e-02 0.0 
2.872632430950e-03 9.493201708114e-02 0.0 
6.840720741227e-03 1.071282815868e-01 0.0 
9.865912841928e-03 1.144043183781e-01 0.0 
1.202251542466e-02 1.168422957155e-01 0.0 
1.301013688105e-02 1.162508222554e-01 0.0 
1.315671500121e-02 1.134804171327e-01 0.0 
1.270561772862e-02 1.090186775500e-01 0.0 
1.181000274295e-02 1.032109535110e-01 0.0 
4.403689968168e-03 7.744712556324e-02 0.0 
1.909926664442e-03 6.472561226694e-03 0.0 
3.982420427702e-03 6.234129465807e-02 0.0 
-4.815699616501e-05 3.058391118211e-02 0.0 
6.489908053595e-04 6.298633222297e-03 0.0 
1.151215839840e-02 1.031395441207e-01 0.0 
-1.408958276752e-04 5.567100570035e-02 0.0 
2.962178273531e-03 7.081763507227e-03 0.0 
1.451344682254e-02 1.108617141630e-01 0.0 
3.396217915625e-03 7.748987525385e-03 0.0 
1.430741282372e-02 1.067851094760e-01 0.0 
8.800100992801e-05 5.915171550747e-03 0.0 
3.203451721996e-03 7.203301157544e-02 0.0 
3.265267065604e-03 8.775969544271e-03 0.0 
1.218570649875e-02 9.572010088158e-02 0.0 
-1.267999760622e-04 6.885360339604e-02 0.0 
-8.979116549257e-05 4.301476032157e-02 0.0 
2.921128022923e-03 9.730390195951e-03 0.0 
2.008069741109e-03 9.775155408569e-03 0.0 
5.968581517450e-04 1.020477552156e-02 0.0 
1.084750430017e-03 1.101141874335e-02 0.0 
1.433760234221e-03 9.752580005760e-03 0.0 
9.872367179426e-03 9.350178618174e-02 0.0 
6.418424383959e-03 9.476711421382e-02 0.0 
4.191712554700e-03 9.487271700098e-02 0.0 
4.078612850833e-04 6.112221051285e-02 0.0 
-5.355766958015e-05 6.522633622119e-03 0.0 
-3.133019858311e-03 3.154158248293e-02 0.0 
1.841918177083e-03 7.517559424051e-02 0.0 
-4.887121345065e-05 2.522609384146e-02 0.0 
2.146040196969e-03 9.550909617033e-02 0.0 
1.002664161699e-04 7.471787173720e-02 0.0 
2.760381262576e-03 1.105216257911e-02 0.0 
3.017763060196e-03 6.820344277152e-03 0.0 
3.364556900706e-03 8.159654929273e-03 0.0 
2.649976136126e-03 7.139582510455e-03 0.0 
1.277360863408e-03 6.025446564482e-03 0.0 
2.370648754688e-03 4.723257412342e-02 0.0 
8.066709987048e-03 9.478285503248e-02 0.0 
3.512399114438e-04 7.244603402921e-03 0.0 
3.028804222183e-04 4.072562496724e-02 0.0 
3.821645054344e-03 6.807245760183e-02 0.0 
-1.601012415016e-04 6.308211339338e-02 0.0 
2.971123370230e-04 8.315886714957e-03 0.0 
1.362552898233e-02 1.085894058656e-01 0.0 
8.586248589392e-03 9.248056566877e-02 0.0 
1.471410345463e-02 1.099110688309e-01 0.0 
1.342384457207e-02 1.019437640541e-01 0.0 
-1.419299551891e-03 5.851195299805e-02 0.0 
4.943465510081e-04 7.963414490798e-02 0.0 
-3.664603551368e-05 5.205464736292e-03 0.0 
8.505087140001e-04 7.623958392506e-02 0.0 
1.646238569109e-04 1.865267904578e-02 0.0 
1.161511678364e-02 9.199446308331e-02 0.0 
1.234905523165e-02 8.778005645199e-02 0.0 
1.133672866641e-02 8.460107816944e-02 0.0 
1.218476526411e-02 7.957814296433e-02 0.0 
1.118650887638e-02 7.540865076539e-02 0.0 
1.179379356230e-02 7.081253622729e-02 0.0 
1.289379870644e-02 7.485547240732e-02 0.0 
1.231723313877e-02 6.610446282808e-02 0.0 
1.350076481936e-02 7.009578872056e-02 0.0 
1.066580573525e-02 6.637413146334e-02 0.0 
1.271879777457e-02 6.130603115342e-02 0.0 
1.397755106201e-02 6.523175832699e-02 0.0 
1.297849799041e-02 5.645977900799e-02 0.0 
1.429326013282e-02 6.029323464175e-02 0.0 
1.518317476629e-02 6.878693013722e-02 0.0 
1.554713871522e-02 6.376829248493e-02 0.0 
1.631410111618e-02 7.190915857492e-02 0.0 
1.671267152928e-02 6.677608458504e-02 0.0 
1.571386806170e-02 5.874747477492e-02 0.0 
1.689207900703e-02 6.166001173430e-02 0.0 
1.777071593662e-02 6.928906586805e-02 0.0 
1.793949293286e-02 6.405743118991e-02 0.0 
1.869716471632e-02 7.125056117960e-02 0.0 
1.882941464569e-02 6.587482528859e-02 0.0 
1.947492478833e-02 7.262281379176e-02 0.0 
1.954175286457e-02 6.710720664105e-02 0.0 
1.867790955706e-02 6.062512235193e-02 0.0 
1.930283062554e-02 6.178520720583e-02 0.0 
2.004296476537e-02 6.771702103341e-02 0.0 
1.968951458900e-02 6.234533088171e-02 0.0 
2.030146246458e-02 6.768569710714e-02 0.0 
1.980649812693e-02 6.229893915756e-02 0.0 
1.902748837674e-02 5.728118187202e-02 0.0 
1.899811374858e-02 5.731154172980e-02 0.0 
1.962405567573e-02 6.166556919633e-02 0.0 
1.865457231416e-02 5.682903662347e-02 0.0 
1.911424738390e-02 6.048001172560e-02 0.0 
1.797659008519e-02 5.588178823408e-02 0.0 
1.825658996727e-02 5.879110210005e-02 0.0 
1.694160880318e-02 5.453202603387e-02 0.0 
1.660135021022e-02 5.184374846294e-02 0.0 
1.542330723031e-02 5.090509256813e-02 0.0 
1.554245856922e-02 5.288437110642e-02 0.0 
1.390860169696e-02 4.979761429640e-02 0.0 
1.379041477474e-02 4.789305010397e-02 0.0 
1.221881967148e-02 4.736265882655e-02 0.0 
1.211807111821e-02 4.541528016109e-02 0.0 
1.054848652041e-02 4.545979118940e-02 0.0 
1.040071390403e-02 4.689114992643e-02 0.0 
8.786639922420e-03 4.562030820755e-02 0.0 
8.957201581371e-03 4.395949782557e-02 0.0 
7.296232751179e-03 4.470618051503e-02 0.0 
6.892657116815e-03 4.603369425392e-02 0.0 
5.578283339160e-03 4.569303627076e-02 0.0 
5.965239981039e-03 4.399409115125e-02 0.0 
4.430956832463e-03 4.547402075741e-02 0.0 
3.883760186371e-03 4.700780264273e-02 0.0 
2.965630361080e-03 4.722165400158e-02 0.0 
3.461452839247e-03 4.523131611899e-02 0.0 
2.204929279445e-03 4.734602345757e-02 0.0 
1.635520695611e-03 4.926955816841e-02 0.0 
1.104638178848e-03 4.965678795914e-02 0.0 
1.589315193080e-03 4.728551597509e-02 0.0 
6.840842914961e-04 4.982444723264e-02 0.0 
1.088200082085e-03 4.702879075551e-02 0.0 
1.870314452184e-04 5.220615913591e-02 0.0 
-4.255308754253e-05 5.249038825054e-02 0.0 
-5.005196030599e-04 5.491913903592e-02 0.0 
-5.696879509056e-04 5.523833942027e-02 0.0 
1.808951554188e-02 5.256780669483e-02 0.0 
-9.326160979466e-04 5.767852611321e-02 0.0 
-9.505028949501e-04 5.696288758055e-02 0.0 
-8.909709157754e-04 5.800063216312e-02 0.0 
-6.037319062635e-04 5.523934291152e-02 0.0 
-1.131155838645e-03 6.043791151107e-02 0.0 
-1.023225968198e-03 6.071473657723e-02 0.0 
-1.126098777851e-03 6.311931272037e-02 0.0 
1.927949147296e-02 6.382276374817e-02 0.0 
1.566015134703e-02 5.375939330023e-02 0.0 
-9.964011636843e-04 6.331813789271e-02 0.0 
-9.647906904462e-04 6.565014707483e-02 0.0 
-1.081035445840e-03 6.521807082150e-02 0.0 
-7.640492343999e-04 6.765617246437e-02 0.0 
1.013219950683e-02 7.105675085696e-02 0.0 
9.509208778965e-03 6.166627136758e-02 0.0 
9.064752203713e-03 6.642192713208e-02 0.0 
8.339729143628e-03 5.675424861689e-02 0.0 
7.982174814792e-03 6.149574799225e-02 0.0 
-7.058690394457e-04 6.797100790881e-02 0.0 
1.161198694233e-02 5.203559617256e-02 0.0 
8.603106980310e-03 5.187317866366e-02 0.0 
1.829224375894e-02 7.669451431504e-02 0.0 
2.044789174059e-02 7.341179194988e-02 0.0 
1.343164673412e-02 4.536950134271e-02 0.0 
-9.116907034210e-04 6.066048233775e-02 0.0 
-8.665473915013e-04 6.319798904446e-02 0.0 
-7.919623373152e-04 6.029818313473e-02 0.0 
1.947941629505e-03 4.444581195241e-02 0.0 
1.378953379806e-03 4.380158372395e-02 0.0 
2.162351430544e-03 4.113120596148e-02 0.0 
1.545628218862e-03 4.012253347907e-02 0.0 
2.228008369897e-03 3.733215661492e-02 0.0 
1.586449333656e-03 3.597466891855e-02 0.0 
1.044610469981e-03 3.893008006560e-02 0.0 
1.067315435327e-03 3.444176696616e-02 0.0 
6.491711438574e-04 3.753878693617e-02 0.0 
2.150029656992e-03 3.303976698867e-02 0.0 
2.928101145791e-03 3.458648810270e-02 0.0 
6.603267859076e-04 3.272625017281e-02 0.0 
3.491608965511e-04 3.594033789038e-02 0.0 
3.547542306626e-04 3.081837860140e-02 0.0 
1.341997057587e-04 3.413642740641e-02 0.0 
8.138420875348e-05 3.912499038158e-02 0.0 
-4.802263659265e-05 3.740468739545e-02 0.0 
-1.285558401287e-04 4.226053191310e-02 0.0 
1.177582649527e-02 4.283223618539e-02 0.0 
1.283197953072e-02 4.223803787426e-02 0.0 
1.119209052222e-02 3.963417070952e-02 0.0 
1.198314940544e-02 3.851313925441e-02 0.0 
1.036520063857e-02 3.583566516937e-02 0.0 
1.088376503199e-02 3.421030866508e-02 0.0 
9.294446086376e-03 3.144890398424e-02 0.0 
8.792821696417e-03 3.339036755405e-02 0.0 
1.308418360939e-02 5.152951079672e-02 0.0 
1.377937971106e-02 5.106214981164e-02 0.0 
1.540102755514e-02 5.426317719523e-02 0.0 
1.339827238493e-02 5.166413182778e-02 0.0 
1.498201336064e-02 5.502136987311e-02 0.0 
1.275420238768e-02 5.156311791519e-02 0.0 
1.427149056035e-02 5.515978252240e-02 0.0 
1.184523615073e-02 5.073380733912e-02 0.0 
1.016136889085e-02 4.820417385854e-02 0.0 
9.018944638317e-03 4.642398162800e-02 0.0 
7.260249217062e-03 4.528173166680e-02 0.0 
5.885997507026e-03 4.270539212343e-02 0.0 
4.209486870867e-03 4.318204386823e-02 0.0 
1.824545954085e-02 5.556827875686e-02 0.0 
1.248983682890e-02 3.720674628416e-02 0.0 
1.111569757761e-02 3.237078297607e-02 0.0 
1.268818160541e-02 3.563654551236e-02 0.0 
-8.182285996385e-04 6.701224476080e-02 0.0 
-7.295080284742e-06 3.213030784789e-02 0.0 
2.698305704117e-03 3.011531859050e-02 0.0 
3.600598773946e-03 3.191293484410e-02 0.0 
7.763782927562e-03 2.886324641316e-02 0.0 
-3.890568690830e-04 6.983132150236e-02 0.0 
1.324695393125e-02 5.470382500743e-02 0.0 
1.540255161290e-02 6.001248002963e-02 0.0 
7.182979722010e-03 5.155088207358e-02 0.0 
6.913809394490e-03 5.632922689399e-02 0.0 
3.189029800172e-03 2.719260463396e-02 0.0 
-4.081873526030e-04 7.004219197926e-02 0.0 
9.933528435653e-04 2.949042567566e-02 0.0 
7.608438399561e-03 4.373003501729e-02 0.0 
-1.201512824363e-04 3.547837262672e-02 0.0 
-8.729729644763e-05 2.993563901308e-02 0.0 
5.561813901345e-04 4.188927088609e-02 0.0 
1.104088041916e-02 3.025262342388e-02 0.0 
1.259673644266e-02 3.382638586832e-02 0.0 
5.630619724652e-03 4.530335223522e-02 0.0 
2.835756387466e-03 4.458168527806e-02 0.0 
1.257313766679e-03 4.228709991158e-02 0.0 
3.483232169224e-04 4.514440449154e-02 0.0 
1.801980894237e-03 4.647189734875e-02 0.0 
-2.448294488229e-04 4.783007186795e-02 0.0 
-1.514873389551e-03 4.681701891865e-02 0.0 
-1.693795458513e-03 5.014100593845e-02 0.0 
-5.929243983491e-04 5.038255394761e-02 0.0 
-1.657666868638e-03 5.302722190409e-02 0.0 
-2.343520158787e-03 5.320949264702e-02 0.0 
-2.080768084701e-03 5.614443190272e-02 0.0 
2.273077308601e-07 2.642215280572e-02 0.0 
4.289890123406e-03 3.923795875511e-02 0.0 
1.572174840604e-02 7.698800898436e-02 0.0 
2.327446702560e-03 2.511480449788e-02 0.0 
8.003637191209e-03 2.655332604608e-02 0.0 
6.056469149321e-03 4.612264376471e-02 0.0 
5.872734348159e-03 5.094725566656e-02 0.0 
6.566357327522e-03 6.107342380555e-02 0.0 
5.604388603274e-03 5.571322333641e-02 0.0 
4.873437517531e-03 4.536118387460e-02 0.0 
4.682759605501e-03 5.018363263105e-02 0.0 
5.267392862727e-03 6.041788431740e-02 0.0 
4.416982517220e-03 5.493658742829e-02 0.0 
4.874659724734e-03 6.503739770965e-02 0.0 
4.089400216174e-03 5.960762745557e-02 0.0 
3.614024809359e-03 4.929331781103e-02 0.0 
3.347236759375e-03 5.403570604639e-02 0.0 
3.711882208265e-03 6.419992236493e-02 0.0 
3.023220528512e-03 5.869873492520e-02 0.0 
3.293171217109e-03 6.870127902991e-02 0.0 
2.651085680640e-03 6.327592109097e-02 0.0 
2.383597422501e-03 5.306508593452e-02 0.0 
-4.140670995856e-05 7.163516612939e-02 0.0 
7.304486988939e-03 3.111262073326e-02 0.0 
6.325479060800e-03 2.639414212487e-02 0.0 
-7.345908253260e-04 6.274709442555e-02 0.0 
-6.643129120230e-04 5.961585842071e-02 0.0 
-6.698236255556e-04 5.704480594479e-02 0.0 
-5.670025763678e-04 5.616152740376e-02 0.0 
2.048203627439e-03 5.777022481400e-02 0.0 
1.798463471260e-03 4.731422760021e-02 0.0 
1.411160508972e-02 6.020280504650e-02 0.0 
1.595373556103e-02 6.613422513384e-02 0.0 
6.138045786500e-03 4.124215296802e-02 0.0 
-1.456389832701e-04 3.335821247060e-02 0.0 
-1.910976334560e-04 3.873864918159e-02 0.0 
2.058003113254e-02 7.275454780318e-02 0.0 
2.048334359856e-02 7.885607363361e-02 0.0 
2.048444629590e-02 7.758902924697e-02 0.0 
2.008763280321e-02 8.418949926780e-02 0.0 
1.998757336151e-02 8.520678951887e-02 0.0 
1.992921026413e-02 8.228584316121e-02 0.0 
3.845921301201e-03 3.608653561113e-02 0.0 
2.869883798191e-03 4.350852289142e-02 0.0 
-1.211067695330e-03 6.442980804464e-02 0.0 
-8.711346683841e-04 6.602348003779e-02 0.0 
-1.179462516321e-04 2.756429979094e-02 0.0 
8.057960610962e-03 3.523282513881e-02 0.0 
1.748454046161e-02 5.386083656348e-02 0.0 
1.686884573791e-02 4.901156899835e-02 0.0 
1.595495243993e-02 4.676259610650e-02 0.0 
1.516442776941e-02 4.209963139051e-02 0.0 
1.407908004156e-02 3.931479519488e-02 0.0 
1.311374026970e-02 3.481785564647e-02 0.0 
1.415665622664e-02 3.764747878156e-02 0.0 
1.064018186064e-02 2.777110418222e-02 0.0 
1.195255815912e-02 3.049556667931e-02 0.0 
2.276149751076e-03 6.785306497391e-02 0.0 
1.406895781871e-02 4.053181762341e-02 0.0 
-7.809603260753e-04 5.259646367890e-02 0.0 
1.029628162188e-04 7.121460228686e-02 0.0 
-2.100762390912e-03 5.676889082376e-02 0.0 
-1.317596998831e-04 7.181193698764e-02 0.0 
-3.934365997811e-04 6.995610315074e-02 0.0 
2.629640845550e-03 2.194666409016e-02 0.0 
1.183400359305e-02 3.150145163741e-02 0.0 
1.278484003022e-02 3.604291126707e-02 0.0 
1.924970675601e-02 9.102526077632e-02 0.0 
1.910575826029e-02 9.165379476927e-02 0.0 
9.096200007431e-03 2.432880833881e-02 0.0 
8.544046156317e-03 7.117505125939e-02 0.0 
5.691567072624e-03 7.031415025915e-02 0.0 
5.191883671863e-03 7.477974808198e-02 0.0 
2.916679883684e-04 7.326126747258e-02 0.0 
-2.293481805943e-03 5.326885716444e-02 0.0 
3.932878559596e-03 3.960604166666e-02 0.0 
1.714345284620e-02 6.490853948944e-02 0.0 
1.743372141635e-02 7.139547038923e-02 0.0 
5.666039371370e-03 4.044236681685e-02 0.0 
2.534847050157e-03 3.535716740140e-02 0.0 
1.517228713844e-03 5.198663884994e-02 0.0 
1.291916030695e-03 4.143050959086e-02 0.0 
-5.282039291350e-04 5.345020929790e-02 0.0 
-4.521307118526e-04 5.231994797068e-02 0.0 
3.581084687980e-03 2.422243042769e-02 0.0 
-1.848665365515e-03 5.945818906992e-02 0.0 
1.478451769941e-03 3.651561231562e-02 0.0 
6.636566391771e-03 3.326809063397e-02 0.0 
7.130005545765e-03 3.703692876101e-02 0.0 
-5.266512321587e-04 5.874448055199e-02 0.0 
1.418814550686e-02 6.710826517594e-02 0.0 
1.216811155267e-02 6.011352912804e-02 0.0 
4.966149041206e-04 5.024950523497e-02 0.0 
-1.807929867685e-03 5.843950517868e-02 0.0 
-1.746658657562e-04 7.165822480950e-02 0.0 
2.799951890077e-03 1.870365926060e-02 0.0 
3.956814368571e-03 3.466876048432e-02 0.0 
1.296285635437e-02 3.343296961601e-02 0.0 
1.494844722776e-02 4.003372027908e-02 0.0 
1.063406235354e-02 2.639225419642e-02 0.0 
-1.209123855951e-03 6.031953232329e-02 0.0 
1.835439632577e-03 1.956962940267e-02 0.0 
-1.346888583726e-04 3.106104426585e-02 0.0 
1.045371498746e-02 2.811633328167e-02 0.0 
1.130322258779e-02 3.231597878941e-02 0.0 
1.849252283198e-02 6.922774209777e-02 0.0 
1.860035780720e-02 7.594115713169e-02 0.0 
1.706961877651e-02 7.881431239184e-02 0.0 
1.808050622335e-02 8.332213600598e-02 0.0 
1.395131061055e-02 7.861388990907e-02 0.0 
1.948865915328e-02 7.287363555151e-02 0.0 
1.672419978637e-02 7.977932655350e-02 0.0 
1.592143571947e-02 8.489230307982e-02 0.0 
1.677452076779e-02 8.737712099586e-02 0.0 
1.965725561245e-02 8.548432321032e-02 0.0 
1.874018964634e-02 9.157916080994e-02 0.0 
1.681413357470e-02 5.834993062590e-02 0.0 
1.446124925841e-02 4.521224874679e-02 0.0 
-5.794227653375e-04 5.431933537913e-02 0.0 
-2.359412332531e-05 4.367396497538e-02 0.0 
2.905311744810e-03 4.197666554111e-02 0.0 
3.007889715910e-03 3.862567387396e-02 0.0 
2.278036940496e-03 3.262683965611e-02 0.0 
3.969860310349e-03 7.399242306836e-02 0.0 
3.474604936478e-03 7.832339706231e-02 0.0 
-2.623008682532e-04 6.848695952573e-02 0.0 
-1.561271086272e-04 6.729114058218e-02 0.0 
6.879997167690e-04 4.654566255186e-02 0.0 
1.615129685975e-03 2.292670427309e-02 0.0 
4.970702247562e-03 3.556909145637e-02 0.0 
4.840495891884e-03 3.058924026534e-02 0.0 
6.097552955701e-03 3.629953165539e-02 0.0 
3.824905526420e-03 2.117449975109e-02 0.0 
1.169953584792e-02 4.925945304399e-02 0.0 
1.014974683471e-02 4.065943847160e-02 0.0 
1.338138055800e-03 3.639180202504e-02 0.0 
1.796041667277e-02 5.192290417259e-02 0.0 
6.508280420228e-04 6.959851235412e-02 0.0 
1.436996891618e-02 5.048427680445e-02 0.0 
-1.111723147029e-04 2.503035365335e-02 0.0 
-1.007558293793e-04 2.134571315385e-02 0.0 
8.412960300525e-03 2.134709797289e-02 0.0 
1.316529493428e-02 9.133304561367e-02 0.0 
1.690762196102e-02 4.743416889320e-02 0.0 
1.692485998661e-02 4.825179587593e-02 0.0 
1.578210250132e-02 9.246666066019e-02 0.0 
1.646765590849e-02 9.467292914868e-02 0.0 
1.752679224857e-02 8.936098149718e-02 0.0 
1.704046897267e-02 9.642736754849e-02 0.0 
1.151575445775e-04 5.184158725987e-02 0.0 
-8.773962071906e-04 5.440288377537e-02 0.0 
9.101337000779e-03 2.306534677191e-02 0.0 
9.463012225204e-03 2.316961755679e-02 0.0 
8.856601904476e-03 2.414545706383e-02 0.0 
9.662747845898e-03 2.809948846397e-02 0.0 
6.854357566223e-03 1.788745809241e-02 0.0 
7.538012360296e-03 2.104651142221e-02 0.0 
-3.413949505968e-04 6.959443670780e-02 0.0 
1.790281955988e-02 9.791367748340e-02 0.0 
3.015114500080e-03 2.867959772701e-02 0.0 
1.500749501144e-02 8.986462274020e-02 0.0 
1.209888340213e-03 1.723934969682e-02 0.0 
1.050950709129e-03 2.061454165484e-02 0.0 
9.074087664729e-05 3.223940000095e-02 0.0 
-1.039010785970e-03 3.597765075790e-02 0.0 
1.014759627395e-03 3.067230650851e-02 0.0 
1.602981669685e-02 8.679921724370e-02 0.0 
1.694613872339e-02 9.108841768494e-02 0.0 
1.486677184359e-02 8.144492587846e-02 0.0 
-2.993779256966e-05 1.125261577455e-02 0.0 
9.265639432883e-04 9.562224826180e-02 0.0 
-9.142211563917e-05 1.858628023423e-02 0.0 
1.911489926219e-02 8.502124061076e-02 0.0 
1.084025768542e-03 2.516638886139e-02 0.0 
1.567501296803e-02 4.332479874523e-02 0.0 
2.042721259841e-02 7.145928182284e-02 0.0 
4.690098102149e-03 2.643916409328e-02 0.0 
8.276404398941e-04 3.657311741150e-02 0.0 
6.103443163781e-04 2.423718520975e-02 0.0 
5.948502776938e-03 7.969022855274e-02 0.0 
5.381564203311e-03 8.414581255504e-02 0.0 
6.528631260053e-03 7.541408416429e-02 0.0 
8.954907653266e-03 4.699780749128e-02 0.0 
6.244755191574e-03 4.484327109244e-02 0.0 
2.194441595606e-03 3.758873906102e-02 0.0 
-7.284840211081e-04 6.555494257626e-02 0.0 
-5.895492422372e-04 6.480467145611e-02 0.0 
-1.577312602420e-03 6.157875824857e-02 0.0 
-1.590862534098e-03 6.024548758046e-02 0.0 
-4.015743459638e-04 5.064296349525e-02 0.0 
-3.776283297787e-04 5.151178787543e-02 0.0 
1.407090750936e-02 4.556717147181e-02 0.0 
1.266179416228e-02 4.195064215994e-02 0.0 
1.651524733687e-02 5.163847101017e-02 0.0 
5.804617859573e-03 3.539502622328e-02 0.0 
6.060686794125e-03 3.886653832027e-02 0.0 
7.417534538645e-03 4.019778990592e-02 0.0 
2.300420237582e-03 2.796507482794e-02 0.0 
1.537602768728e-03 2.083036471746e-02 0.0 
1.483456272878e-03 4.967059302984e-02 0.0 
2.186541459423e-03 4.845935338875e-02 0.0 
-1.692486684277e-04 5.316588963574e-02 0.0 
2.869643771426e-03 2.382872275361e-02 0.0 
-8.124011941524e-05 1.489282631317e-02 0.0 
-7.209529163976e-05 1.780701595388e-02 0.0 
9.875262791503e-04 6.824536660312e-02 0.0 
-6.847303305690e-05 6.567315169090e-02 0.0 
1.145191892730e-02 6.796024572525e-02 0.0 
9.037508248838e-03 6.003630224824e-02 0.0 
4.634893165658e-03 2.599171588392e-02 0.0 
5.929516163761e-03 3.139951454025e-02 0.0 
3.293880071233e-03 1.963812695675e-02 0.0 
-1.541528797946e-04 7.135271444535e-02 0.0 
1.368187422411e-02 3.584408556351e-02 0.0 
2.908938643541e-03 1.565480206455e-02 0.0 
4.001123962446e-03 1.834012488776e-02 0.0 
1.872817857601e-03 1.221250805698e-02 0.0 
1.000748100252e-02 2.516192134779e-02 0.0 
7.512790796195e-03 1.833121735207e-02 0.0 
7.912215827066e-03 1.891236433180e-02 0.0 
4.885946088429e-04 3.120771273124e-02 0.0 
4.620108556708e-04 2.889896383881e-02 0.0 
4.123790216852e-03 8.341104988756e-02 0.0 
-6.647342386756e-04 2.854914053357e-02 0.0 
3.562640310143e-03 8.788026762377e-02 0.0 
2.980202961815e-03 8.262087065639e-02 0.0 
3.077180662423e-03 9.220145785649e-02 0.0 
-1.679652812614e-05 7.308312381496e-02 0.0 
6.771896252502e-03 8.608962093898e-02 0.0 
7.434300729365e-03 8.069823176279e-02 0.0 
1.702509752963e-03 6.655457897845e-02 0.0 
1.949760894114e-03 1.775754259153e-02 0.0 
1.778983615957e-03 7.017128166100e-02 0.0 
1.284642193669e-03 7.133204798303e-02 0.0 
7.354289960002e-04 1.455245597342e-02 0.0 
6.249409108303e-04 1.812924426706e-02 0.0 
3.821672003816e-04 1.185531718337e-02 0.0 
3.295580266416e-04 1.583316726152e-02 0.0 
4.784658602235e-04 2.177755071997e-02 0.0 
2.211245269024e-04 1.928928128502e-02 0.0 
4.831063732951e-03 8.912244650569e-02 0.0 
1.255784897847e-04 1.213674673657e-02 0.0 
5.405645917733e-05 1.650106304699e-02 0.0 
7.029804105940e-06 9.440106751601e-03 0.0 
1.574961211845e-02 1.017058406120e-01 0.0 
1.870273678525e-02 8.695404628972e-02 0.0 
1.748974841563e-02 9.461161057649e-02 0.0 
1.512227065075e-02 9.958577375837e-02 0.0 
6.513096730050e-03 1.784367186121e-02 0.0 
8.054803451845e-03 2.396380327737e-02 0.0 
-9.838410768248e-05 2.847395734812e-02 0.0 
-1.184644903351e-04 3.432415986434e-02 0.0 
2.459896336518e-03 8.750482631431e-02 0.0 
1.795546135448e-03 8.789719200924e-02 0.0 
1.962861486341e-03 7.948785403027e-02 0.0 
1.416758933004e-03 8.053752314632e-02 0.0 
1.520329258497e-03 7.199978355888e-02 0.0 
9.790036896433e-04 7.311280304667e-02 0.0 
1.159569475426e-03 6.428675951767e-02 0.0 
6.475879772797e-03 1.525240147270e-02 0.0 
1.304584808046e-02 8.963224065715e-02 0.0 
1.468219263827e-02 9.742506667501e-02 0.0 
5.306978616556e-03 1.453922626678e-02 0.0 
6.204474688698e-03 1.842804609437e-02 0.0 
1.756497000967e-02 9.748393873976e-02 0.0 
1.643544478391e-02 1.040744810780e-01 0.0 
1.170199016974e-03 1.275898087792e-02 0.0 
1.907441760813e-02 6.676525682112e-02 0.0 
1.454039353476e-03 1.136561485366e-02 0.0 
-3.875896451550e-03 4.009993100973e-02 0.0 
1.595852093011e-03 3.975678068833e-02 0.0 
1.991881357514e-02 6.955125790127e-02 0.0 
1.818580301463e-02 9.079967499593e-02 0.0 
1.910150836011e-02 8.955159796425e-02 0.0 
1.794228205696e-02 9.666046094403e-02 0.0 
5.352433551456e-03 3.129363215506e-02 0.0 
1.386910566765e-04 6.360422853120e-02 0.0 
1.336990442784e-02 7.512696740050e-02 0.0 
1.684376174424e-03 6.327595412457e-02 0.0 
9.668876450611e-03 7.630806295232e-02 0.0 
-5.731912841211e-05 3.126309011278e-02 0.0 
1.823759957240e-02 6.132921065019e-02 0.0 
1.976051979128e-02 7.916536262804e-02 0.0 
1.579678363109e-02 7.333590793989e-02 0.0 
1.946782321551e-02 7.959492568518e-02 0.0 
1.464726334637e-02 7.376189455381e-02 0.0 
1.316881774424e-02 8.330515397604e-02 0.0 
1.408320575648e-02 8.685279902712e-02 0.0 
1.702743801862e-02 5.671838867131e-02 0.0 
1.805007680020e-02 9.769416690763e-02 0.0 
1.630092703554e-02 1.040433006726e-01 0.0 
1.736296559515e-02 7.457008479278e-02 0.0 
7.407810202004e-03 4.177720863645e-02 0.0 
7.316328457350e-03 3.681580729328e-02 0.0 
5.651714305245e-03 2.677373713771e-02 0.0 
7.076712613411e-03 3.193730570956e-02 0.0 
8.745886024812e-03 4.204722763546e-02 0.0 
8.587893555109e-03 3.712973839198e-02 0.0 
6.674425563588e-03 2.719976604842e-02 0.0 
8.261618033156e-03 3.225676186887e-02 0.0 
5.581915194036e-03 2.037522661884e-02 0.0 
7.678195101654e-03 2.721578575726e-02 0.0 
9.874969373559e-03 3.729406625773e-02 0.0 
9.457054538640e-03 3.264515979675e-02 0.0 
7.257129911491e-03 2.369351895083e-02 0.0 
1.151681134403e-02 4.249941479156e-02 0.0 
4.357654489553e-03 1.112530899776e-02 0.0 
1.995344078231e-02 6.573258775540e-02 0.0 
3.133492222904e-03 3.691705624949e-02 0.0 
4.393289069760e-03 4.918604558901e-02 0.0 
1.909477036829e-02 7.823865162672e-02 0.0 
2.734871789372e-03 9.943349710831e-03 0.0 
2.258762948415e-03 9.989074959183e-03 0.0 
1.627811265698e-02 5.942530327303e-02 0.0 
3.327155051917e-03 8.444419089592e-03 0.0 
1.495688519191e-02 8.198262310399e-02 0.0 
1.065663982587e-02 4.917593709362e-02 0.0 
3.440289050022e-03 8.052584107610e-03 0.0 
8.745696002933e-03 4.695388571358e-02 0.0 
1.009467248613e-02 5.205821774780e-02 0.0 
9.858484235828e-03 5.689891970616e-02 0.0 
1.751249026903e-03 9.444633640850e-03 0.0 
7.077889796726e-03 7.094430494409e-02 0.0 
2.907785189457e-03 6.718499497570e-03 0.0 
1.360242669707e-02 4.149236082030e-02 0.0 
1.518202756696e-02 4.488793761711e-02 0.0 
1.601652532564e-02 4.864155393695e-02 0.0 
1.012758299070e-02 4.231925341231e-02 0.0 
2.168199345082e-03 6.476085243154e-03 0.0 
3.755496356742e-03 1.216234080837e-02 0.0 
3.235287567819e-03 1.199367413542e-02 0.0 
5.033805153474e-03 1.778337508226e-02 0.0 
1.598203914504e-03 6.278709248431e-03 0.0 
2.818624790965e-03 8.661017825482e-03 0.0 
2.826057852129e-03 8.073702619662e-03 0.0 
1.037967196330e-03 4.841143776811e-02 0.0 
3.093645643967e-03 4.720366008426e-02 0.0 
4.165052110960e-03 4.728904493259e-02 0.0 
5.388317647233e-03 4.673720438890e-02 0.0 
4.235415318455e-03 4.605664154454e-02 0.0 
6.812432002146e-03 4.652401175038e-02 0.0 
7.739290452722e-03 4.693904860846e-02 0.0 
8.426512796596e-03 4.690415929371e-02 0.0 
1.050160581259e-02 3.294100476520e-02 0.0 
1.043614925241e-03 5.972893301003e-03 0.0 
3.000234111655e-03 3.854726531342e-02 0.0 
3.905345934529e-03 3.968238796741e-02 0.0 
3.775505409617e-03 4.272503013249e-02 0.0 
-6.052409282917e-04 5.491904833092e-02 0.0 
-3.141847185582e-04 5.212705689899e-02 0.0 
-5.673851396892e-05 4.865226778094e-02 0.0 
-7.596673098735e-04 5.766385754914e-02 0.0 
1.601454423749e-02 4.439710367295e-02 0.0 
8.067658059012e-04 6.011917281125e-03 0.0 
8.592251810050e-03 3.875322844971e-02 0.0 
-2.057579546140e-04 5.246276882695e-02 0.0 
8.961354953428e-03 9.419525039938e-02 0.0 
9.388155522757e-03 8.641281618409e-02 0.0 
1.028427283295e-02 8.571174624436e-02 0.0 
9.607966264007e-03 7.714504825579e-02 0.0 
8.368498851567e-03 8.582998367766e-02 0.0 
-3.885534683006e-04 4.950696853300e-02 0.0 
-3.454683720725e-04 4.812818518108e-02 0.0 
-3.580579633358e-04 5.095005488528e-02 0.0 
-2.795363743346e-04 4.652185743568e-02 0.0 
-2.539076617598e-04 4.934118315833e-02 0.0 
-3.139475649152e-04 5.352227991662e-02 0.0 
-1.973623818459e-04 4.470807099465e-02 0.0 
-1.507673395722e-04 4.805111870749e-02 0.0 
7.219043275200e-03 9.487057650031e-02 0.0 
8.233755776335e-04 3.890305713359e-02 0.0 
-1.205971714326e-03 4.329581846316e-02 0.0 
-1.910275557471e-04 5.014912599431e-02 0.0 
-2.145008219388e-03 4.703682423625e-02 0.0 
-2.191275799964e-03 4.135999129470e-02 0.0 
-2.413757492771e-03 4.540135849533e-02 0.0 
-1.542181326066e-03 4.094560693256e-02 0.0 
-1.683247547492e-03 3.623101477236e-02 0.0 
3.276385823993e-03 5.341895326883e-02 0.0 
6.253091666206e-04 5.562754104561e-02 0.0 
3.768676245668e-03 5.840585083356e-02 0.0 
1.333090389346e-03 6.002223185787e-02 0.0 
-1.089011344817e-03 5.734745352943e-02 0.0 
-9.645312822357e-04 6.458156827536e-02 0.0 
-6.155471275937e-05 7.459073141167e-03 0.0 
-1.521058859471e-04 5.958743029659e-02 0.0 
-3.033706538698e-04 6.118853314320e-02 0.0 
-3.157022168900e-04 6.435818109621e-02 0.0 
-4.719820773804e-04 6.232031973851e-02 0.0 
-2.763666590710e-04 5.790454027739e-02 0.0 
-1.545222030789e-04 6.616355856575e-02 0.0 
-2.893210330270e-04 6.694973764537e-02 0.0 
1.346586346596e-03 7.580428957169e-02 0.0 
7.419206880384e-04 7.586917908426e-02 0.0 
3.722884689247e-04 7.625938009592e-02 0.0 
3.355042212332e-04 7.551914663894e-02 0.0 
5.569883332739e-04 7.511117138186e-02 0.0 
1.092150237550e-03 7.532597080021e-02 0.0 
1.420610069232e-03 7.458872316683e-02 0.0 
2.325896551401e-03 7.433856973873e-02 0.0 
1.692360419153e-03 7.365474573600e-02 0.0 
8.698188004255e-04 7.362281734690e-02 0.0 
2.777025780607e-03 7.332546267634e-02 0.0 
3.697928875255e-04 5.088865846967e-02 0.0 
7.039410624472e-04 4.565235774359e-02 0.0 
4.636038059314e-04 6.425719109867e-03 0.0 
5.585428922522e-03 9.450119316715e-02 0.0 
3.926512000117e-03 6.553193412803e-02 0.0 
5.636991847098e-04 1.226201172115e-02 0.0 
8.493885859480e-04 1.016406816267e-02 0.0 
6.919867188060e-04 9.853675906520e-03 0.0 
-4.068365784182e-05 1.842841640587e-02 0.0 
-6.501844316831e-05 1.508235894334e-02 0.0 
3.036910607221e-04 1.192662677258e-02 0.0 
-1.262618811002e-03 6.258834970297e-02 0.0 
5.218112736891e-03 2.225105135183e-02 0.0 
1.595230731546e-03 3.152059068257e-02 0.0 
1.181417583032e-02 5.374713327334e-02 0.0 
-1.445067066539e-03 5.724447435330e-02 0.0 
-1.676948341611e-04 3.663960688902e-02 0.0 
2.798326737885e-04 4.060932419600e-02 0.0 
-7.581178500349e-05 2.401605568582e-02 0.0 
-1.808690344944e-04 4.060315037972e-02 0.0 
1.389875153261e-04 2.871120119667e-02 0.0 
2.776870812287e-03 1.226519511530e-02 0.0 
7.896599441448e-05 7.322489203423e-02 0.0 
4.438681366921e-03 6.956130809910e-02 0.0 
2.868685766771e-03 7.314826753629e-02 0.0 
2.658492570056e-03 4.832667339343e-02 0.0 
-8.499732867815e-04 6.575545072346e-02 0.0 
-4.427070082849e-04 5.480258373559e-02 0.0 
-3.466015996905e-04 6.930508431658e-02 0.0 
6.216817174867e-03 1.539056359950e-02 0.0 
1.761925991073e-02 8.212046664621e-02 0.0 
2.636558360953e-03 4.491441685060e-02 0.0 
-8.333402090734e-04 5.798800490991e-02 0.0 
-1.238370516663e-03 5.979361765651e-02 0.0 
-1.556184096479e-03 5.538626948278e-02 0.0 
2.028465849142e-02 6.701822199970e-02 0.0 
3.620760639809e-04 4.971191946571e-02 0.0 
1.508031876734e-03 3.134767174231e-02 0.0 
2.031822029586e-03 4.248902844190e-02 0.0 
3.325561240154e-03 7.035700579637e-02 0.0 
1.940474105014e-03 2.824208913612e-02 0.0 
9.192987761146e-04 4.295357522112e-02 0.0 
6.156351874225e-03 6.575158169803e-02 0.0 
9.534317162732e-03 2.934790036785e-02 0.0 
-2.465024731224e-03 4.974665924714e-02 0.0 
3.814820195117e-03 4.449588273189e-02 0.0 
3.725600175805e-03 2.533663428176e-02 0.0 
7.993428269295e-03 7.591024064863e-02 0.0 
3.577616599779e-04 7.062916514597e-02 0.0 
4.680458701777e-03 7.927987653510e-02 0.0 
1.942517965878e-03 1.613106152928e-02 0.0 
7.353521245768e-03 4.667904998198e-02 0.0 
-6.329207421523e-04 6.798137417705e-02 0.0 
1.047262698513e-02 4.337379447132e-02 0.0 
2.006913351890e-02 7.334164932965e-02 0.0 
1.287093451153e-02 9.896219672440e-02 0.0 
1.646002048965e-03 2.687354228738e-02 0.0 
1.792582860370e-02 5.277152949623e-02 0.0 
6.523091902338e-03 2.373739005873e-02 0.0 
9.588144210593e-03 3.732404066190e-02 0.0 
-5.446105268323e-04 6.764544724159e-02 0.0 
8.385111636233e-04 2.406098248476e-02 0.0 
1.505910410890e-02 4.834518868030e-02 0.0 
3.067405037349e-03 3.374562739249e-02 0.0 
1.483306303553e-02 4.400262753979e-02 0.0 
1.208685113294e-02 4.865802775837e-02 0.0 
4.975054017279e-03 4.049360989222e-02 0.0 
4.789949886396e-03 4.337408849118e-02 0.0 
9.471120978723e-03 2.698585614437e-02 0.0 
1.842657223926e-02 8.385594978217e-02 0.0 
1.784414219443e-02 5.889480926260e-02 0.0 
1.444550688572e-02 5.542271233080e-02 0.0 
1.876728055810e-02 5.670354591465e-02 0.0 
-1.469060064723e-04 3.983155998019e-02 0.0 
1.322386788432e-03 2.623087394354e-02 0.0 
2.736449082001e-03 4.010192381463e-02 0.0 
2.017494831625e-02 7.563998729379e-02 0.0 
7.551493989844e-03 6.622498888466e-02 0.0 
1.077716131682e-02 2.738834408865e-02 0.0 
2.164892717410e-03 2.257135575899e-02 0.0 
2.023250398349e-02 7.936826103426e-02 0.0 
5.972686127897e-04 2.747301204903e-02 0.0 
3.898276476988e-03 3.002191323104e-02 0.0 
1.189112424687e-04 4.932418680774e-02 0.0 
-2.018049545360e-05 7.315694992415e-02 0.0 
9.681775129241e-03 5.259517333399e-02 0.0 
1.105493558798e-02 4.912503267984e-02 0.0 
1.743485744705e-02 5.250473073429e-02 0.0 
3.782830571364e-04 4.580720360486e-02 0.0 
4.057098197087e-03 1.994986141816e-02 0.0 
3.060393213836e-04 2.527607398569e-02 0.0 
4.196670128733e-03 2.920230063663e-02 0.0 
1.780530015353e-03 6.838270841958e-02 0.0 
1.399330367484e-02 9.448546146582e-02 0.0 
1.068086781348e-04 2.289703957741e-02 0.0 
8.898224975541e-03 4.166896704413e-02 0.0 
7.936109255315e-03 2.396690504629e-02 0.0 
-1.892114899051e-04 5.205947014556e-02 0.0 
6.295517279568e-03 1.511557927461e-02 0.0 
1.622658111040e-02 1.029813116219e-01 0.0 
-1.537746211433e-05 2.034494763461e-02 0.0 
5.933452699589e-03 2.886768174771e-02 0.0 
1.787502788901e-02 6.332506076476e-02 0.0 
1.537080119185e-03 9.561317028696e-02 0.0 
-4.083464672711e-05 1.275482985374e-02 0.0 
4.995922337830e-03 2.361388509143e-02 0.0 
1.754595688304e-02 5.074241590970e-02 0.0 
7.473692027546e-03 4.275109594956e-02 0.0 
1.394563821547e-02 1.045616675203e-01 0.0 
1.438969265841e-04 4.483770168282e-02 0.0 
1.683528210730e-02 5.662536467304e-02 0.0 
1.527265327539e-03 9.258210615148e-03 0.0 
5.197541291459e-03 2.110912473508e-02 0.0 
1.111123408947e-02 6.183979898274e-02 0.0 
-1.779114984979e-04 4.777001930582e-02 0.0 
1.425985405858e-02 3.940746190730e-02 0.0 
7.515003590970e-04 7.448146911423e-02 0.0 
1.525754394234e-02 9.972613243627e-02 0.0 
-2.466590433112e-04 4.662649898676e-02 0.0 
9.344910216882e-03 4.766452511761e-02 0.0 
6.127591206706e-03 4.171445858395e-02 0.0 
5.999265909811e-03 1.481634480257e-02 0.0 
-2.699451739847e-04 4.523398372900e-02 0.0 
1.000363724986e-02 4.763929411216e-02 0.0 
-2.567782230898e-04 4.361639640190e-02 0.0 
1.462581710321e-02 1.085291698627e-01 0.0 
1.142039868127e-02 5.683155611148e-02 0.0 
-2.146504007365e-04 4.179606428802e-02 0.0 
1.537049931738e-02 4.884692728313e-02 0.0 
9.059205854962e-04 7.246673885282e-02 0.0 
1.660823275675e-02 4.620113296770e-02 0.0 
-8.020446937329e-05 2.192220112522e-02 0.0 
-3.735052633846e-04 5.421812811686e-02 0.0 
4.944493251378e-03 4.074566071190e-02 0.0 
1.018610944919e-02 4.716946866353e-02 0.0 
1.467498609778e-02 1.107916323432e-01 0.0 
4.893443572739e-03 3.751697535115e-02 0.0 
1.354306124658e-02 4.078121671786e-02 0.0 
1.546617436685e-02 4.194168552550e-02 0.0 
1.663569140013e-02 4.863746105881e-02 0.0 
4.640013062275e-03 3.366782013564e-02 0.0 
1.655375778934e-02 1.040439953461e-01 0.0 
-1.413681440912e-03 6.174530144077e-02 0.0 
-1.366036801834e-03 6.323798470808e-02 0.0 
8.387727160933e-03 4.662284028752e-02 0.0 
1.207899094758e-02 3.704847863210e-02 0.0 
2.177969592525e-04 7.445885837551e-02 0.0 
1.163574117839e-02 4.712461014696e-02 0.0 
-1.090388477387e-03 6.272479202083e-02 0.0 
6.278045964912e-03 4.671006384233e-02 0.0 
1.213346996369e-02 3.144105716608e-02 0.0 
4.433301617865e-04 7.066988690092e-02 0.0 
4.992383760767e-03 4.678481769442e-02 0.0 
-8.542921416643e-05 7.120307840167e-02 0.0 
3.150081456994e-03 4.798032061055e-02 0.0 
1.557273404759e-02 4.425094356937e-02 0.0 
2.319866814265e-03 4.866713741098e-02 0.0 
9.349889253230e-04 5.073411100251e-02 0.0 
1.101215429145e-03 2.069042866248e-02 0.0 
5.137080674515e-04 5.158721432899e-02 0.0 
1.477701168184e-04 9.894943743259e-03 0.0 
-3.436604478901e-05 6.833775899409e-03 0.0 
5.815510073575e-04 8.900978161192e-02 0.0 
1.366922765055e-02 1.114996124020e-01 0.0 
-1.916410954447e-03 2.650510919804e-02 0.0 
1.630443784694e-02 1.008911942844e-01 0.0 
-9.315785632982e-04 5.584090552231e-02 0.0 
1.300076901415e-02 4.678151205636e-02 0.0 
1.208659605688e-03 8.858954087761e-02 0.0 
-1.344472518191e-03 5.873805561993e-02 0.0 
5.296275572338e-03 1.752682444377e-02 0.0 
3.130282956207e-03 7.063885664117e-03 0.0 
7.986274451355e-04 5.548823266683e-02 0.0 
6.558525374682e-03 2.134950396035e-02 0.0 
1.409060620364e-02 3.773080390537e-02 0.0 
2.280230954526e-04 3.000666615734e-02 0.0 
3.575426469503e-03 9.619589531471e-02 0.0 
1.839558748333e-03 6.361859566732e-02 0.0 
-6.999365706006e-05 3.707091745189e-02 0.0 
1.195140357434e-02 1.076261892270e-01 0.0 
1.410051284392e-02 9.489791412957e-02 0.0 
1.141495151050e-02 8.344640505363e-02 0.0 
-4.240678435390e-04 6.729247812546e-02 0.0 
-1.472159646388e-03 5.259322160927e-02 0.0 
1.028815007014e-02 9.825526974715e-02 0.0 
4.319057616300e-03 1.274766605635e-02 0.0 
6.033740365346e-03 8.805988217925e-02 0.0 
1.164421003574e-02 2.948541012920e-02 0.0 
6.709121777682e-03 8.536129462228e-02 0.0 
2.681575600818e-03 1.969768158417e-02 0.0 
6.047257439288e-03 1.421327958667e-02 0.0 
1.739463614161e-04 5.756113060944e-03 0.0 
9.083740341463e-03 2.219433989704e-02 0.0 
7.277567694210e-03 6.807080055292e-02 0.0 
8.818659994169e-03 7.939915097173e-02 0.0 
6.087292023626e-03 1.569676559323e-02 0.0 
1.078303643396e-03 4.716013157092e-02 0.0 
2.431816706405e-05 5.602058572737e-03 0.0 
7.593314373352e-03 8.848646065535e-02 0.0 
6.737705282518e-04 1.934027432178e-02 0.0 
2.379958939009e-04 3.921198666948e-02 0.0 
3.391474839702e-04 1.878106970728e-02 0.0 
1.110834781366e-02 3.760291674133e-02 0.0 
2.469707545217e-03 7.749994157571e-02 0.0 
1.054170902483e-02 7.886865303742e-02 0.0 
-7.140836148301e-05 1.181670683597e-02 0.0 
4.647654110663e-03 1.822233626457e-02 0.0 
4.630260789156e-03 5.789508027622e-02 0.0 
1.251465388364e-03 5.650951380175e-02 0.0 
-6.093142728538e-04 6.174692605533e-02 0.0 
-1.061968335929e-03 3.074862048594e-02 0.0 
7.919224032911e-04 1.173351499961e-02 0.0 
8.902549980728e-03 2.845470548785e-02 0.0 
-6.615230021101e-05 1.196277663439e-02 0.0 
1.590582520250e-04 7.576102803593e-02 0.0 
2.327223949806e-03 6.887505502445e-02 0.0 
1.296211071562e-03 1.075670309868e-02 0.0 
5.405024790623e-03 1.555363401198e-02 0.0 
-9.801725800802e-04 4.370070581980e-02 0.0 
8.993397788899e-04 7.944514632921e-03 0.0 
4.407090690322e-04 4.825492746513e-02 0.0 
4.889688417066e-03 9.698532433024e-02 0.0 
1.986049028785e-03 7.264544863957e-02 0.0 
-2.207960294331e-05 5.720059711656e-03 0.0 
1.604801571339e-03 1.846259978849e-02 0.0 
-3.999461655475e-04 5.932483519154e-02 0.0 
1.071083932980e-02 9.225593818742e-02 0.0 
-2.347014257231e-04 6.939591999467e-02 0.0 
8.445261624377e-03 2.066715128972e-02 0.0 
1.496939695578e-05 6.109837411327e-02 0.0 
1.097091289971e-03 1.747124178930e-02 0.0 
2.017586591119e-03 1.048699168641e-02 0.0 
3.211003617551e-03 1.704149625638e-02 0.0 
1.964882305913e-03 4.959723255745e-03 0.0 
5.248391028090e-05 3.248039540405e-02 0.0 
5.392212975394e-03 1.251710036875e-02 0.0 
4.060116528889e-03 1.629219039375e-02 0.0 
2.682139708810e-03 9.660048665485e-02 0.0 
4.042928846502e-03 1.804502753290e-02 0.0 
-4.355364867918e-04 6.506929108488e-02 0.0 
3.886869991154e-04 7.255918694473e-02 0.0 
6.417179386631e-05 8.770874403499e-03 0.0 
4.403824868418e-04 7.638198246130e-02 0.0 
4.501951068363e-04 9.661273924790e-02 0.0 
-1.170863724409e-05 5.584981697154e-03 0.0 
3.647260079838e-04 7.421031417335e-02 0.0 
9.594998420752e-04 8.236133916625e-02 0.0 
4.978385128400e-03 1.525795131845e-02 0.0 
-8.631964571970e-05 5.143339571167e-02 0.0 
5.331567751483e-04 3.717858318585e-02 0.0 
-2.398482725848e-03 4.980604207635e-02 0.0 
-5.758878404158e-04 2.540038532553e-02 0.0 
7.665273513737e-04 6.577353755452e-02 0.0 
5.216402995252e-03 1.244998112784e-02 0.0 
2.495979993036e-03 1.644518123724e-02 0.0 
1.978476767405e-03 7.232433124156e-02 0.0 
7.350816675356e-03 5.303275205394e-02 0.0 
6.977055210978e-03 2.142971435997e-02 0.0 
-3.821668725235e-04 5.644798384456e-02 0.0 
8.218497034061e-03 2.138803608570e-02 0.0 
5.268935920501e-03 1.679528849481e-02 0.0 
-4.352038766889e-03 4.989629164064e-02 0.0 
-6.023468408844e-05 4.695788052129e-02 0.0 
2.263288054102e-03 7.146934542316e-02 0.0 
2.272409352431e-04 1.065543183226e-02 0.0 
-2.477869594697e-04 5.493630389320e-02 0.0 
8.766604020156e-03 1.184979407293e-01 0.0 
2.780987971747e-04 1.418521230870e-01 0.0 
1.119521362365e-02 1.197820663310e-01 0.0 
2.864030045515e-04 1.357355732989e-01 0.0 
1.227826639997e-02 1.184848544975e-01 0.0 
2.748086911808e-04 1.291831579091e-01 0.0 
1.247224116808e-02 1.152734522290e-01 0.0 
2.995118250979e-04 1.221910683552e-01 0.0 
1.205906561202e-02 1.104493151386e-01 0.0 
2.869939996231e-04 1.147604036708e-01 0.0 
1.120717248234e-02 1.044658567579e-01 0.0 
3.068237447437e-04 1.068954238331e-01 0.0 

VECTORS node_bounda_dof_materi_velocity_x float
1.000000000000e+00 0.0 0.0 
1.000000000000e+00 0.0 0.0 
1.000000000000e+00 0.0 0.0 
1.000000000000e+00 0.0 0.0 
1.000000000000e+00 0.0 0.0 
1.000000000000e+00 0.0 0.0 
1.000000000000e+00 0.0 0.0 
1.000000000000e+00 0.0 0.0 
1.000000000000e+00 0.0 0.0 
1.000000000000e+00 0.0 0.0 
1.000000000000e+00 0.0 0.0 
1.000000000000e+00 0.0 0.0 
1.000000000000e+00 0.0 0.0 
1.000000000000e+00 0.0 0.0 
1.000000000000e+00 0.0 0.0 
1.000000000000e+00 0.0 0.0 
1.000000000000e+00 0.0 0.0 
1.000000000000e+00 0.0 0.0 
1.000000000000e+00 0.0 0.0 
1.000000000000e+00 0.0 0.0 
1.000000000000e+00 0.0 0.0 
1.000000000000e+00 0.0 0.0 
1.000000000000e+00 0.0 0.0 
1.000000000000e+00 0.0 0.0 
1.000000000000e+00 0.0 0.0 
1.000000000000e+00 0.0 0.0 
1.000000000000e+00 0.0 0.0 
1.000000000000e+00 0.0 0.0 
1.000000000000e+00 0.0 0.0 
1.000000000000e+00 0.0 0.0 
1.000000000000e+00 0.0 0.0 
1.000000000000e+00 0.0 0.0 
1.000000000000e+00 0.0 0.0 
1.000000000000e+00 0.0 0.0 
1.000000000000e+00 0.0 0.0 
1.000000000000e+00 0.0 0.0 
1.000000000000e+00 0.0 0.0 
1.000000000000e+00 0.0 0.0 
1.000000000000e+00 0.0 0.0 
1.000000000000e+00 0.0 0.0 
1.000000000000e+00 0.0 0.0 
1.000000000000e+00 0.0 0.0 
1.000000000000e+00 0.0 0.0 
1.000000000000e+00 0.0 0.0 
1.000000000000e+00 0.0 0.0 
1.000000000000e+00 0.0 0.0 
1.000000000000e+00 0.0 0.0 
1.000000000000e+00 0.0 0.0 
1.000000000000e+00 0.0 0.0 
1.000000000000e+00 0.0 0.0 
1.000000000000e+00 0.0 0.0 
1.000000000000e+00 0.0 0.0 
1.000000000000e+00 0.0 0.0 
1.000000000000e+00 0.0 0.0 
1.000000000000e+00 0.0 0.0 
1.000000000000e+00 0.0 0.0 
1.000000000000e+00 0.0 0.0 
1.000000000000e+00 0.0 0.0 
1.000000000000e+00 0.0 0.0 
1.000000000000e+00 0.0 0.0 
1.000000000000e+00 0.0 0.0 
1.000000000000e+00 0.0 0.0 
1.000000000000e+00 0.0 0.0 
1.000000000000e+00 0.0 0.0 
1.000000000000e+00 0.0 0.0 
1.000000000000e+00 0.0 0.0 
1.000000000000e+00 0.0 0.0 
1.000000000000e+00 0.0 0.0 
1.000000000000e+00 0.0 0.0 
1.000000000000e+00 0.0 0.0 
1.000000000000e+00 0.0 0.0 
1.000000000000e+00 0.0 0.0 
1.000000000000e+00 0.0 0.0 
1.000000000000e+00 0.0 0.0 
1.000000000000e+00 0.0 0.0 
1.000000000000e+00 0.0 0.0 
1.000000000000e+00 0.0 0.0 
1.000000000000e+00 0.0 0.0 
1.000000000000e+00 0.0 0.0 
1.000000000000e+00 0.0 0.0 
1.000000000000e+00 0.0 0.0 
0.0 0.0 0.0 
0.0 0.0 0.0 
0.0 0.0 0.0 
0.0 0.0 0.0 
0.0 0.0 0.0 
0.0 0.0 0.0 
0.0 0.0 0.0 
0.0 0.0 0.0 
0.0 0.0 0.0 
0.0 0.0 0.0 
0.0 0.0 0.0 
1.000000000000e+00 0.0 0.0 
1.000000000000e+00 0.0 0.0 
1.000000000000e+00 0.0 0.0 
1.000000000000e+00 0.0 0.0 
1.000000000000e+00 0.0 0.0 
1.000000000000e+00 0.0 0.0 
0.0 0.0 0.0 
0.0 0.0 0.0 
0.0 0.0 0.0 
0.0 0.0 0.0 
0.0 0.0 0.0 
0.0 0.0 0.0 
0.0 0.0 0.0 
0.0 0.0 0.0 
0.0 0.0 0.0 
0.0 0.0 0.0 
0.0 0.0 0.0 
0.0 0.0 0.0 
0.0 0.0 0.0 
0.0 0.0 0.0 
0.0 0.0 0.0 
0.0 0.0 0.0 
0.0 0.0 0.0 
0.0 0.0 0.0 
0.0 0.0 0.0 
0.0 0.0 0.0 
0.0 0.0 0.0 
0.0 0.0 0.0 
0.0 0.0 0.0 
0.0 0.0 0.0 
0.0 0.0 0.0 
0.0 0.0 0.0 
0.0 0.0 0.0 
0.0 0.0 0.0 
0.0 0.0 0.0 
0.0 0.0 0.0 
0.0 0.0 0.0 
0.0 0.0 0.0 
0.0 0.0 0.0 
0.0 0.0 0.0 
0.0 0.0 0.0 
0.0 0.0 0.0 
0.0 0.0 0.0 
0.0 0.0 0.0 
0.0 0.0 0.0 
0.0 0.0 0.0 
0.0 0.0 0.0 
0.0 0.0 0.0 
0.0 0.0 0.0 
0.0 0.0 0.0 
0.0 0.0 0.0 
0.0 0.0 0.0 
0.0 0.0 0.0 
0.0 0.0 0.0 
0.0 0.0 0.0 
0.0 0.0 0.0 
0.0 0.0 0.0 
0.0 0.0 0.0 
0.0 0.0 0.0 
0.0 0.0 0.0 
0.0 0.0 0.0 
0.0 0.0 0.0 
0.0 0.0 0.0 
0.0 0.0 0.0 
0.0 0.0 0.0 
0.0 0.0 0.0 
0.0 0.0 0.0 
0.0 0.0 0.0 
0.0 0.0 0.0 
0.0 0.0 0.0 
0.0 0.0 0.0 
0.0 0.0 0.0 
0.0 0.0 0.0 
0.0 0.0 0.0 
0.0 0.0 0.0 
0.0 0.0 0.0 
0.0 0.0 0.0 
0.0 0.0 0.0 
0.0 0.0 0.0 
0.0 0.0 0.0 
0.0 0.0 0.0 
0.0 0.0 0.0 
0.0 0.0 0.0 
0.0 0.0 0.0 
0.0 0.0 0.0 
0.0 0.0 0.0 
0.0 0.0 0.0 
0.0 0.0 0.0 
0.0 0.0 0.0 
0.0 0.0 0.0 
0.0 0.0 0.0 
0.0 0.0 0.0 
0.0 0.0 0.0 
0.0 0.0 0.0 
0.0 0.0 0.0 
0.0 0.0 0.0 
0.0 0.0 0.0 
0.0 0.0 0.0 
0.0 0.0 0.0 
0.0 0.0 0.0 
0.0 0.0 0.0 
0.0 0.0 0.0 
0.0 0.0 0.0 
0.0 0.0 0.0 
0.0 0.0 0.0 
0.0 0.0 0.0 
0.0 0.0 0.0 
0.0 0.0 0.0 
0.0 0.0 0.0 
0.0 0.0 0.0 
0.0 0.0 0.0 
0.0 0.0 0.0 
0.0 0.0 0.0 
0.0 0.0 0.0 
0.0 0.0 0.0 
0.0 0.0 0.0 
0.0 0.0 0.0 
0.0 0.0 0.0 
0.0 0.0 0.0 
0.0 0.0 0.0 
0.0 0.0 0.0 
0.0 0.0 0.0 
0.0 0.0 0.0 
0.0 0.0 0.0 
0.0 0.0 0.0 
0.0 0.0 0.0 
0.0 0.0 0.0 
0.0 0.0 0.0 
0.0 0.0 0.0 
0.0 0.0 0.0 
0.0 0.0 0.0 
0.0 0.0 0.0 
0.0 0.0 0.0 
0.0 0.0 0.0 
0.0 0.0 0.0 
0.0 0.0 0.0 
0.0 0.0 0.0 
0.0 0.0 0.0 
0.0 0.0 0.0 
0.0 0.0 0.0 
0.0 0.0 0.0 
0.0 0.0 0.0 
0.0 0.0 0.0 
0.0 0.0 0.0 
0.0 0.0 0.0 
0.0 0.0 0.0 
0.0 0.0 0.0 
0.0 0.0 0.0 
0.0 0.0 0.0 
0.0 0.0 0.0 
0.0 0.0 0.0 
0.0 0.0 0.0 
0.0 0.0 0.0 
0.0 0.0 0.0 
0.0 0.0 0.0 
0.0 0.0 0.0 
0.0 0.0 0.0 
0.0 0.0 0.0 
0.0 0.0 0.0 
0.0 0.0 0.0 
0.0 0.0 0.0 
0.0 0.0 0.0 
0.0 0.0 0.0 
0.0 0.0 0.0 
0.0 0.0 0.0 
0.0 0.0 0.0 
0.0 0.0 0.0 
0.0 0.0 0.0 
0.0 0.0 0.0 
0.0 0.0 0.0 
0.0 0.0 0.0 
0.0 0.0 0.0 
0.0 0.0 0.0 
0.0 0.0 0.0 
0.0 0.0 0.0 
0.0 0.0 0.0 
0.0 0.0 0.0 
0.0 0.0 0.0 
0.0 0.0 0.0 
0.0 0.0 0.0 
0.0 0.0 0.0 
0.0 0.0 0.0 
0.0 0.0 0.0 
0.0 0.0 0.0 
0.0 0.0 0.0 
0.0 0.0 0.0 
0.0 0.0 0.0 
0.0 0.0 0.0 
0.0 0.0 0.0 
0.0 0.0 0.0 
0.0 0.0 0.0 
0.0 0.0 0.0 
0.0 0.0 0.0 
0.0 0.0 0.0 
0.0 0.0 0.0 
0.0 0.0 0.0 
0.0 0.0 0.0 
0.0 0.0 0.0 
0.0 0.0 0.0 
0.0 0.0 0.0 
0.0 0.0 0.0 
0.0 0.0 0.0 
0.0 0.0 0.0 
0.0 0.0 0.0 
0.0 0.0 0.0 
0.0 0.0 0.0 
0.0 0.0 0.0 
0.0 0.0 0.0 
0.0 0.0 0.0 
0.0 0.0 0.0 
0.0 0.0 0.0 
0.0 0.0 0.0 
0.0 0.0 0.0 
0.0 0.0 0.0 
0.0 0.0 0.0 
0.0 0.0 0.0 
0.0 0.0 0.0 
0.0 0.0 0.0 
0.0 0.0 0.0 
0.0 0.0 0.0 
0.0 0.0 0.0 
0.0 0.0 0.0 
0.0 0.0 0.0 
0.0 0.0 0.0 
0.0 0.0 0.0 
0.0 0.0 0.0 
0.0 0.0 0.0 
0.0 0.0 0.0 
0.0 0.0 0.0 
0.0 0.0 0.0 
0.0 0.0 0.0 
0.0 0.0 0.0 
0.0 0.0 0.0 
0.0 0.0 0.0 
0.0 0.0 0.0 
0.0 0.0 0.0 
0.0 0.0 0.0 
0.0 0.0 0.0 
0.0 0.0 0.0 
0.0 0.0 0.0 
0.0 0.0 0.0 
0.0 0.0 0.0 
0.0 0.0 0.0 
0.0 0.0 0.0 
0.0 0.0 0.0 
0.0 0.0 0.0 
0.0 0.0 0.0 
0.0 0.0 0.0 
0.0 0.0 0.0 
0.0 0.0 0.0 
0.0 0.0 0.0 
0.0 0.0 0.0 
0.0 0.0 0.0 
0.0 0.0 0.0 
0.0 0.0 0.0 
0.0 0.0 0.0 
0.0 0.0 0.0 
0.0 0.0 0.0 
0.0 0.0 0.0 
0.0 0.0 0.0 
0.0 0.0 0.0 
0.0 0.0 0.0 
0.0 0.0 0.0 
0.0 0.0 0.0 
0.0 0.0 0.0 
0.0 0.0 0.0 
0.0 0.0 0.0 
0.0 0.0 0.0 
0.0 0.0 0.0 
0.0 0.0 0.0 
0.0 0.0 0.0 
0.0 0.0 0.0 
0.0 0.0 0.0 
0.0 0.0 0.0 
0.0 0.0 0.0 
0.0 0.0 0.0 
0.0 0.0 0.0 
0.0 0.0 0.0 
0.0 0.0 0.0 
0.0 0.0 0.0 
0.0 0.0 0.0 
0.0 0.0 0.0 
0.0 0.0 0.0 
0.0 0.0 0.0 
0.0 0.0 0.0 
0.0 0.0 0.0 
0.0 0.0 0.0 
0.0 0.0 0.0 
0.0 0.0 0.0 
0.0 0.0 0.0 
0.0 0.0 0.0 
0.0 0.0 0.0 
0.0 0.0 0.0 
0.0 0.0 0.0 
0.0 0.0 0.0 
0.0 0.0 0.0 
0.0 0.0 0.0 
0.0 0.0 0.0 
0.0 0.0 0.0 
0.0 0.0 0.0 
0.0 0.0 0.0 
0.0 0.0 0.0 
0.0 0.0 0.0 
0.0 0.0 0.0 
0.0 0.0 0.0 
0.0 0.0 0.0 
0.0 0.0 0.0 
0.0 0.0 0.0 
0.0 0.0 0.0 
0.0 0.0 0.0 
0.0 0.0 0.0 
0.0 0.0 0.0 
0.0 0.0 0.0 
0.0 0.0 0.0 
0.0 0.0 0.0 
0.0 0.0 0.0 
0.0 0.0 0.0 
0.0 0.0 0.0 
0.0 0.0 0.0 
0.0 0.0 0.0 
0.0 0.0 0.0 
0.0 0.0 0.0 
0.0 0.0 0.0 
0.0 0.0 0.0 
0.0 0.0 0.0 
0.0 0.0 0.0 
0.0 0.0 0.0 
0.0 0.0 0.0 
0.0 0.0 0.0 
0.0 0.0 0.0 
0.0 0.0 0.0 
0.0 0.0 0.0 
0.0 0.0 0.0 
0.0 0.0 0.0 
0.0 0.0 0.0 
0.0 0.0 0.0 
0.0 0.0 0.0 
0.0 0.0 0.0 
0.0 0.0 0.0 
0.0 0.0 0.0 
0.0 0.0 0.0 
0.0 0.0 0.0 
0.0 0.0 0.0 
0.0 0.0 0.0 
0.0 0.0 0.0 
0.0 0.0 0.0 
0.0 0.0 0.0 
0.0 0.0 0.0 
0.0 0.0 0.0 
0.0 0.0 0.0 
0.0 0.0 0.0 
0.0 0.0 0.0 
0.0 0.0 0.0 
0.0 0.0 0.0 
0.0 0.0 0.0 
0.0 0.0 0.0 
0.0 0.0 0.0 
0.0 0.0 0.0 
0.0 0.0 0.0 
0.0 0.0 0.0 
0.0 0.0 0.0 
0.0 0.0 0.0 
0.0 0.0 0.0 
0.0 0.0 0.0 
0.0 0.0 0.0 
0.0 0.0 0.0 
0.0 0.0 0.0 
0.0 0.0 0.0 
0.0 0.0 0.0 
0.0 0.0 0.0 
0.0 0.0 0.0 
0.0 0.0 0.0 
0.0 0.0 0.0 
0.0 0.0 0.0 
0.0 0.0 0.0 
0.0 0.0 0.0 
0.0 0.0 0.0 
0.0 0.0 0.0 
0.0 0.0 0.0 
0.0 0.0 0.0 
0.0 0.0 0.0 
0.0 0.0 0.0 
0.0 0.0 0.0 
0.0 0.0 0.0 
0.0 0.0 0.0 
0.0 0.0 0.0 
0.0 0.0 0.0 
0.0 0.0 0.0 
0.0 0.0 0.0 
0.0 0.0 0.0 
0.0 0.0 0.0 
0.0 0.0 0.0 
0.0 0.0 0.0 
0.0 0.0 0.0 
0.0 0.0 0.0 
0.0 0.0 0.0 
0.0 0.0 0.0 
0.0 0.0 0.0 
0.0 0.0 0.0 
0.0 0.0 0.0 
0.0 0.0 0.0 
0.0 0.0 0.0 
0.0 0.0 0.0 
0.0 0.0 0.0 
0.0 0.0 0.0 
0.0 0.0 0.0 
0.0 0.0 0.0 
0.0 0.0 0.0 
0.0 0.0 0.0 
0.0 0.0 0.0 
0.0 0.0 0.0 
0.0 0.0 0.0 
0.0 0.0 0.0 
0.0 0.0 0.0 
0.0 0.0 0.0 
0.0 0.0 0.0 
0.0 0.0 0.0 
0.0 0.0 0.0 
0.0 0.0 0.0 
0.0 0.0 0.0 
0.0 0.0 0.0 
0.0 0.0 0.0 
0.0 0.0 0.0 
0.0 0.0 0.0 
0.0 0.0 0.0 
0.0 0.0 0.0 
0.0 0.0 0.0 
0.0 0.0 0.0 
0.0 0.0 0.0 
0.0 0.0 0.0 
0.0 0.0 0.0 
0.0 0.0 0.0 
0.0 0.0 0.0 
0.0 0.0 0.0 
0.0 0.0 0.0 
0.0 0.0 0.0 
0.0 0.0 0.0 
0.0 0.0 0.0 
0.0 0.0 0.0 
0.0 0.0 0.0 
0.0 0.0 0.0 
0.0 0.0 0.0 
0.0 0.0 0.0 
0.0 0.0 0.0 
0.0 0.0 0.0 
0.0 0.0 0.0 
0.0 0.0 0.0 
0.0 0.0 0.0 
0.0 0.0 0.0 
0.0 0.0 0.0 
0.0 0.0 0.0 
0.0 0.0 0.0 
0.0 0.0 0.0 
0.0 0.0 0.0 
0.0 0.0 0.0 
0.0 0.0 0.0 
0.0 0.0 0.0 
0.0 0.0 0.0 
0.0 0.0 0.0 
0.0 0.0 0.0 
0.0 0.0 0.0 
0.0 0.0 0.0 
0.0 0.0 0.0 
0.0 0.0 0.0 
0.0 0.0 0.0 
0.0 0.0 0.0 
0.0 0.0 0.0 
0.0 0.0 0.0 
0.0 0.0 0.0 
0.0 0.0 0.0 
0.0 0.0 0.0 
0.0 0.0 0.0 
0.0 0.0 0.0 
0.0 0.0 0.0 
0.0 0.0 0.0 
0.0 0.0 0.0 
0.0 0.0 0.0 
0.0 0.0 0.0 
0.0 0.0 0.0 
0.0 0.0 0.0 
0.0 0.0 0.0 
0.0 0.0 0.0 
0.0 0.0 0.0 
0.0 0.0 0.0 
0.0 0.0 0.0 
0.0 0.0 0.0 
0.0 0.0 0.0 
0.0 0.0 0.0 
0.0 0.0 0.0 
0.0 0.0 0.0 
0.0 0.0 0.0 
0.0 0.0 0.0 
0.0 0.0 0.0 
0.0 0.0 0.0 
0.0 0.0 0.0 
0.0 0.0 0.0 
0.0 0.0 0.0 
0.0 0.0 0.0 
0.0 0.0 0.0 
0.0 0.0 0.0 
0.0 0.0 0.0 
0.0 0.0 0.0 
0.0 0.0 0.0 
0.0 0.0 0.0 
0.0 0.0 0.0 
0.0 0.0 0.0 
0.0 0.0 0.0 
0.0 0.0 0.0 
0.0 0.0 0.0 
0.0 0.0 0.0 
0.0 0.0 0.0 
0.0 0.0 0.0 
0.0 0.0 0.0 
0.0 0.0 0.0 
0.0 0.0 0.0 
0.0 0.0 0.0 
0.0 0.0 0.0 
0.0 0.0 0.0 
0.0 0.0 0.0 
0.0 0.0 0.0 
0.0 0.0 0.0 
0.0 0.0 0.0 
0.0 0.0 0.0 
0.0 0.0 0.0 
0.0 0.0 0.0 
0.0 0.0 0.0 
0.0 0.0 0.0 
0.0 0.0 0.0 
0.0 0.0 0.0 
0.0 0.0 0.0 
0.0 0.0 0.0 
0.0 0.0 0.0 
0.0 0.0 0.0 
0.0 0.0 0.0 
0.0 0.0 0.0 
0.0 0.0 0.0 
0.0 0.0 0.0 
0.0 0.0 0.0 
0.0 0.0 0.0 
0.0 0.0 0.0 
0.0 0.0 0.0 
0.0 0.0 0.0 
0.0 0.0 0.0 
0.0 0.0 0.0 
0.0 0.0 0.0 
0.0 0.0 0.0 
0.0 0.0 0.0 
0.0 0.0 0.0 
0.0 0.0 0.0 
0.0 0.0 0.0 
0.0 0.0 0.0 
0.0 0.0 0.0 
0.0 0.0 0.0 
0.0 0.0 0.0 
0.0 0.0 0.0 
0.0 0.0 0.0 
0.0 0.0 0.0 
0.0 0.0 0.0 
0.0 0.0 0.0 
0.0 0.0 0.0 
0.0 0.0 0.0 
0.0 0.0 0.0 
0.0 0.0 0.0 
0.0 0.0 0.0 
0.0 0.0 0.0 
0.0 0.0 0.0 
0.0 0.0 0.0 
0.0 0.0 0.0 
0.0 0.0 0.0 
0.0 0.0 0.0 
0.0 0.0 0.0 
0.0 0.0 0.0 
0.0 0.0 0.0 
0.0 0.0 0.0 
0.0 0.0 0.0 
0.0 0.0 0.0 
0.0 0.0 0.0 
0.0 0.0 0.0 
0.0 0.0 0.0 
0.0 0.0 0.0 
0.0 0.0 0.0 
0.0 0.0 0.0 
0.0 0.0 0.0 
0.0 0.0 0.0 
0.0 0.0 0.0 
0.0 0.0 0.0 
0.0 0.0 0.0 
0.0 0.0 0.0 
0.0 0.0 0.0 
0.0 0.0 0.0 
0.0 0.0 0.0 
0.0 0.0 0.0 
0.0 0.0 0.0 
0.0 0.0 0.0 
0.0 0.0 0.0 
0.0 0.0 0.0 
0.0 0.0 0.0 
0.0 0.0 0.0 
0.0 0.0 0.0 
0.0 0.0 0.0 
0.0 0.0 0.0 
0.0 0.0 0.0 
0.0 0.0 0.0 
0.0 0.0 0.0 
0.0 0.0 0.0 
0.0 0.0 0.0 
0.0 0.0 0.0 
0.0 0.0 0.0 
0.0 0.0 0.0 
0.0 0.0 0.0 
0.0 0.0 0.0 
0.0 0.0 0.0 
0.0 0.0 0.0 
0.0 0.0 0.0 
0.0 0.0 0.0 
0.0 0.0 0.0 
0.0 0.0 0.0 
0.0 0.0 0.0 
0.0 0.0 0.0 
0.0 0.0 0.0 
0.0 0.0 0.0 
0.0 0.0 0.0 
0.0 0.0 0.0 
0.0 0.0 0.0 
0.0 0.0 0.0 
0.0 0.0 0.0 
0.0 0.0 0.0 
0.0 0.0 0.0 
0.0 0.0 0.0 
0.0 0.0 0.0 
0.0 0.0 0.0 
0.0 0.0 0.0 
0.0 0.0 0.0 
0.0 0.0 0.0 
0.0 0.0 0.0 
0.0 0.0 0.0 
0.0 0.0 0.0 
0.0 0.0 0.0 
0.0 0.0 0.0 
0.0 0.0 0.0 
0.0 0.0 0.0 
0.0 0.0 0.0 
0.0 0.0 0.0 
0.0 0.0 0.0 
0.0 0.0 0.0 
0.0 0.0 0.0 
0.0 0.0 0.0 
0.0 0.0 0.0 
0.0 0.0 0.0 
0.0 0.0 0.0 
0.0 0.0 0.0 
0.0 0.0 0.0 
0.0 0.0 0.0 
0.0 0.0 0.0 
0.0 0.0 0.0 
0.0 0.0 0.0 
0.0 0.0 0.0 
0.0 0.0 0.0 
0.0 0.0 0.0 
0.0 0.0 0.0 
0.0 0.0 0.0 
0.0 0.0 0.0 
0.0 0.0 0.0 
0.0 0.0 0.0 
0.0 0.0 0.0 
0.0 0.0 0.0 
0.0 0.0 0.0 
0.0 0.0 0.0 
0.0 0.0 0.0 
0.0 0.0 0.0 
0.0 0.0 0.0 
0.0 0.0 0.0 
0.0 0.0 0.0 
0.0 0.0 0.0 
0.0 0.0 0.0 
0.0 0.0 0.0 
0.0 0.0 0.0 
0.0 0.0 0.0 
0.0 0.0 0.0 
0.0 0.0 0.0 
0.0 0.0 0.0 
0.0 0.0 0.0 
0.0 0.0 0.0 
0.0 0.0 0.0 
0.0 0.0 0.0 
0.0 0.0 0.0 
0.0 0.0 0.0 
0.0 0.0 0.0 
0.0 0.0 0.0 
0.0 0.0 0.0 
0.0 0.0 0.0 
0.0 0.0 0.0 
0.0 0.0 0.0 
0.0 0.0 0.0 
0.0 0.0 0.0 
0.0 0.0 0.0 
0.0 0.0 0.0 
0.0 0.0 0.0 
0.0 0.0 0.0 
0.0 0.0 0.0 
0.0 0.0 0.0 
0.0 0.0 0.0 
0.0 0.0 0.0 
0.0 0.0 0.0 
0.0 0.0 0.0 
0.0 0.0 0.0 
0.0 0.0 0.0 
0.0 0.0 0.0 
0.0 0.0 0.0 
0.0 0.0 0.0 
0.0 0.0 0.0 
0.0 0.0 0.0 
0.0 0.0 0.0 
0.0 0.0 0.0 
0.0 0.0 0.0 
0.0 0.0 0.0 
0.0 0.0 0.0 
0.0 0.0 0.0 
0.0 0.0 0.0 
0.0 0.0 0.0 
0.0 0.0 0.0 
0.0 0.0 0.0 
0.0 0.0 0.0 
0.0 0.0 0.0 
0.0 0.0 0.0 
0.0 0.0 0.0 
0.0 0.0 0.0 
0.0 0.0 0.0 
0.0 0.0 0.0 
0.0 0.0 0.0 
0.0 0.0 0.0 
0.0 0.0 0.0 
0.0 0.0 0.0 
0.0 0.0 0.0 
0.0 0.0 0.0 
0.0 0.0 0.0 
0.0 0.0 0.0 
0.0 0.0 0.0 
0.0 0.0 0.0 
0.0 0.0 0.0 
0.0 0.0 0.0 
0.0 0.0 0.0 
0.0 0.0 0.0 
0.0 0.0 0.0 
0.0 0.0 0.0 
0.0 0.0 0.0 
0.0 0.0 0.0 
0.0 0.0 0.0 
0.0 0.0 0.0 
0.0 0.0 0.0 
0.0 0.0 0.0 
0.0 0.0 0.0 
0.0 0.0 0.0 
0.0 0.0 0.0 
0.0 0.0 0.0 
0.0 0.0 0.0 
0.0 0.0 0.0 
0.0 0.0 0.0 
0.0 0.0 0.0 
0.0 0.0 0.0 
0.0 0.0 0.0 
0.0 0.0 0.0 
0.0 0.0 0.0 
0.0 0.0 0.0 
0.0 0.0 0.0 
0.0 0.0 0.0 
0.0 0.0 0.0 
0.0 0.0 0.0 
0.0 0.0 0.0 
0.0 0.0 0.0 
0.0 0.0 0.0 
0.0 0.0 0.0 
0.0 0.0 0.0 
0.0 0.0 0.0 
0.0 0.0 0.0 
0.0 0.0 0.0 
0.0 0.0 0.0 
0.0 0.0 0.0 
0.0 0.0 0.0 
0.0 0.0 0.0 
0.0 0.0 0.0 
0.0 0.0 0.0 
0.0 0.0 0.0 
0.0 0.0 0.0 
0.0 0.0 0.0 
0.0 0.0 0.0 
0.0 0.0 0.0 
0.0 0.0 0.0 
0.0 0.0 0.0 
0.0 0.0 0.0 
0.0 0.0 0.0 
0.0 0.0 0.0 
0.0 0.0 0.0 
0.0 0.0 0.0 
0.0 0.0 0.0 
0.0 0.0 0.0 
0.0 0.0 0.0 
0.0 0.0 0.0 
0.0 0.0 0.0 
0.0 0.0 0.0 
0.0 0.0 0.0 
0.0 0.0 0.0 
0.0 0.0 0.0 
0.0 0.0 0.0 
0.0 0.0 0.0 
0.0 0.0 0.0 
0.0 0.0 0.0 
0.0 0.0 0.0 
0.0 0.0 0.0 
0.0 0.0 0.0 
0.0 0.0 0.0 
0.0 0.0 0.0 
0.0 0.0 0.0 
0.0 0.0 0.0 
0.0 0.0 0.0 
0.0 0.0 0.0 
0.0 0.0 0.0 
0.0 0.0 0.0 
0.0 0.0 0.0 
0.0 0.0 0.0 
0.0 0.0 0.0 
0.0 0.0 0.0 
0.0 0.0 0.0 
0.0 0.0 0.0 
0.0 0.0 0.0 
0.0 0.0 0.0 
0.0 0.0 0.0 
0.0 0.0 0.0 
0.0 0.0 0.0 
0.0 0.0 0.0 
0.0 0.0 0.0 
0.0 0.0 0.0 
0.0 0.0 0.0 
0.0 0.0 0.0 
0.0 0.0 0.0 
0.0 0.0 0.0 
0.0 0.0 0.0 
0.0 0.0 0.0 
0.0 0.0 0.0 
0.0 0.0 0.0 
0.0 0.0 0.0 
0.0 0.0 0.0 
0.0 0.0 0.0 
0.0 0.0 0.0 
0.0 0.0 0.0 
0.0 0.0 0.0 
0.0 0.0 0.0 
0.0 0.0 0.0 
0.0 0.0 0.0 
0.0 0.0 0.0 
0.0 0.0 0.0 
0.0 0.0 0.0 
0.0 0.0 0.0 
0.0 0.0 0.0 
0.0 0.0 0.0 
0.0 0.0 0.0 
0.0 0.0 0.0 
0.0 0.0 0.0 
0.0 0.0 0.0 
0.0 0.0 0.0 
0.0 0.0 0.0 
0.0 0.0 0.0 
0.0 0.0 0.0 
0.0 0.0 0.0 
0.0 0.0 0.0 
0.0 0.0 0.0 
0.0 0.0 0.0 
0.0 0.0 0.0 
0.0 0.0 0.0 
0.0 0.0 0.0 
0.0 0.0 0.0 
0.0 0.0 0.0 
0.0 0.0 0.0 
0.0 0.0 0.0 
0.0 0.0 0.0 
0.0 0.0 0.0 
0.0 0.0 0.0 
0.0 0.0 0.0 
0.0 0.0 0.0 
0.0 0.0 0.0 
0.0 0.0 0.0 
0.0 0.0 0.0 
0.0 0.0 0.0 
0.0 0.0 0.0 
0.0 0.0 0.0 
0.0 0.0 0.0 
0.0 0.0 0.0 
0.0 0.0 0.0 
0.0 0.0 0.0 
0.0 0.0 0.0 
0.0 0.0 0.0 
0.0 0.0 0.0 
0.0 0.0 0.0 
0.0 0.0 0.0 
0.0 0.0 0.0 
0.0 0.0 0.0 
0.0 0.0 0.0 
0.0 0.0 0.0 
0.0 0.0 0.0 
0.0 0.0 0.0 
0.0 0.0 0.0 
0.0 0.0 0.0 
0.0 0.0 0.0 
0.0 0.0 0.0 
0.0 0.0 0.0 
0.0 0.0 0.0 
0.0 0.0 0.0 
0.0 0.0 0.0 
0.0 0.0 0.0 
0.0 0.0 0.0 
0.0 0.0 0.0 
0.0 0.0 0.0 
0.0 0.0 0.0 
0.0 0.0 0.0 
0.0 0.0 0.0 
0.0 0.0 0.0 
0.0 0.0 0.0 
0.0 0.0 0.0 
0.0 0.0 0.0 
0.0 0.0 0.0 
0.0 0.0 0.0 
0.0 0.0 0.0 
0.0 0.0 0.0 
0.0 0.0 0.0 
0.0 0.0 0.0 
0.0 0.0 0.0 
0.0 0.0 0.0 
0.0 0.0 0.0 
0.0 0.0 0.0 
0.0 0.0 0.0 
0.0 0.0 0.0 
0.0 0.0 0.0 
0.0 0.0 0.0 
0.0 0.0 0.0 
0.0 0.0 0.0 
0.0 0.0 0.0 
0.0 0.0 0.0 
0.0 0.0 0.0 
0.0 0.0 0.0 
0.0 0.0 0.0 
0.0 0.0 0.0 
0.0 0.0 0.0 
0.0 0.0 0.0 
0.0 0.0 0.0 
0.0 0.0 0.0 
0.0 0.0 0.0 
0.0 0.0 0.0 
0.0 0.0 0.0 
0.0 0.0 0.0 
0.0 0.0 0.0 
0.0 0.0 0.0 
0.0 0.0 0.0 
0.0 0.0 0.0 
0.0 0.0 0.0 
0.0 0.0 0.0 
0.0 0.0 0.0 
0.0 0.0 0.0 
0.0 0.0 0.0 
0.0 0.0 0.0 
0.0 0.0 0.0 
0.0 0.0 0.0 
0.0 0.0 0.0 
0.0 0.0 0.0 
0.0 0.0 0.0 
0.0 0.0 0.0 
0.0 0.0 0.0 
0.0 0.0 0.0 
0.0 0.0 0.0 
0.0 0.0 0.0 
0.0 0.0 0.0 
0.0 0.0 0.0 
0.0 0.0 0.0 
0.0 0.0 0.0 
0.0 0.0 0.0 
0.0 0.0 0.0 
0.0 0.0 0.0 
0.0 0.0 0.0 
0.0 0.0 0.0 
0.0 0.0 0.0 
0.0 0.0 0.0 
0.0 0.0 0.0 
0.0 0.0 0.0 
0.0 0.0 0.0 
0.0 0.0 0.0 
0.0 0.0 0.0 
0.0 0.0 0.0 
0.0 0.0 0.0 
0.0 0.0 0.0 
0.0 0.0 0.0 
0.0 0.0 0.0 
0.0 0.0 0.0 
0.0 0.0 0.0 
0.0 0.0 0.0 
0.0 0.0 0.0 
0.0 0.0 0.0 
0.0 0.0 0.0 
0.0 0.0 0.0 
0.0 0.0 0.0 
0.0 0.0 0.0 
0.0 0.0 0.0 
0.0 0.0 0.0 
0.0 0.0 0.0 
0.0 0.0 0.0 
0.0 0.0 0.0 
0.0 0.0 0.0 
0.0 0.0 0.0 
0.0 0.0 0.0 
0.0 0.0 0.0 
0.0 0.0 0.0 
0.0 0.0 0.0 
0.0 0.0 0.0 
0.0 0.0 0.0 
0.0 0.0 0.0 
0.0 0.0 0.0 
0.0 0.0 0.0 
0.0 0.0 0.0 
0.0 0.0 0.0 
0.0 0.0 0.0 
0.0 0.0 0.0 
0.0 0.0 0.0 
0.0 0.0 0.0 
0.0 0.0 0.0 
0.0 0.0 0.0 
0.0 0.0 0.0 
0.0 0.0 0.0 
0.0 0.0 0.0 
0.0 0.0 0.0 
0.0 0.0 0.0 
0.0 0.0 0.0 
0.0 0.0 0.0 
0.0 0.0 0.0 
0.0 0.0 0.0 
0.0 0.0 0.0 
0.0 0.0 0.0 
0.0 0.0 0.0 
0.0 0.0 0.0 
0.0 0.0 0.0 
0.0 0.0 0.0 
0.0 0.0 0.0 
0.0 0.0 0.0 
0.0 0.0 0.0 
0.0 0.0 0.0 
0.0 0.0 0.0 
0.0 0.0 0.0 
0.0 0.0 0.0 
0.0 0.0 0.0 
0.0 0.0 0.0 
0.0 0.0 0.0 
0.0 0.0 0.0 
0.0 0.0 0.0 
0.0 0.0 0.0 
0.0 0.0 0.0 
0.0 0.0 0.0 
0.0 0.0 0.0 
0.0 0.0 0.0 
0.0 0.0 0.0 
0.0 0.0 0.0 
0.0 0.0 0.0 
0.0 0.0 0.0 
0.0 0.0 0.0 
0.0 0.0 0.0 
0.0 0.0 0.0 
0.0 0.0 0.0 
0.0 0.0 0.0 
0.0 0.0 0.0 
0.0 0.0 0.0 
0.0 0.0 0.0 
0.0 0.0 0.0 
0.0 0.0 0.0 
0.0 0.0 0.0 
0.0 0.0 0.0 

VECTORS node_bounda_dof_materi_velocity_y float
0.0 0.0 0.0 
0.0 0.0 0.0 
0.0 1.000000000000e+00 0.0 
0.0 1.000000000000e+00 0.0 
0.0 0.0 0.0 
0.0 0.0 0.0 
0.0 0.0 0.0 
0.0 0.0 0.0 
0.0 0.0 0.0 
0.0 0.0 0.0 
0.0 0.0 0.0 
0.0 0.0 0.0 
0.0 0.0 0.0 
0.0 0.0 0.0 
0.0 0.0 0.0 
0.0 0.0 0.0 
0.0 0.0 0.0 
0.0 0.0 0.0 
0.0 0.0 0.0 
0.0 0.0 0.0 
0.0 0.0 0.0 
0.0 0.0 0.0 
0.0 0.0 0.0 
0.0 1.000000000000e+00 0.0 
0.0 1.000000000000e+00 0.0 
0.0 1.000000000000e+00 0.0 
0.0 1.000000000000e+00 0.0 
0.0 1.000000000000e+00 0.0 
0.0 1.000000000000e+00 0.0 
0.0 1.000000000000e+00 0.0 
0.0 1.000000000000e+00 0.0 
0.0 1.000000000000e+00 0.0 
0.0 1.000000000000e+00 0.0 
0.0 1.000000000000e+00 0.0 
0.0 1.000000000000e+00 0.0 
0.0 1.000000000000e+00 0.0 
0.0 1.000000000000e+00 0.0 
0.0 1.000000000000e+00 0.0 
0.0 1.000000000000e+00 0.0 
0.0 1.000000000000e+00 0.0 
0.0 1.000000000000e+00 0.0 
0.0 1.000000000000e+00 0.0 
0.0 1.000000000000e+00 0.0 
0.0 1.000000000000e+00 0.0 
0.0 1.000000000000e+00 0.0 
0.0 1.000000000000e+00 0.0 
0.0 1.000000000000e+00 0.0 
0.0 1.000000000000e+00 0.0 
0.0 1.000000000000e+00 0.0 
0.0 1.000000000000e+00 0.0 
0.0 1.000000000000e+00 0.0 
0.0 1.000000000000e+00 0.0 
0.0 1.000000000000e+00 0.0 
0.0 1.000000000000e+00 0.0 
0.0 1.000000000000e+00 0.0 
0.0 1.000000000000e+00 0.0 
0.0 1.000000000000e+00 0.0 
0.0 1.000000000000e+00 0.0 
0.0 1.000000000000e+00 0.0 
0.0 1.000000000000e+00 0.0 
0.0 1.000000000000e+00 0.0 
0.0 1.000000000000e+00 0.0 
0.0 1.000000000000e+00 0.0 
0.0 1.000000000000e+00 0.0 
0.0 1.000000000000e+00 0.0 
0.0 1.000000000000e+00 0.0 
0.0 1.000000000000e+00 0.0 
0.0 1.000000000000e+00 0.0 
0.0 1.000000000000e+00 0.0 
0.0 1.000000000000e+00 0.0 
0.0 1.000000000000e+00 0.0 
0.0 1.000000000000e+00 0.0 
0.0 0.0 0.0 
0.0 0.0 0.0 
0.0 0.0 0.0 
0.0 0.0 0.0 
0.0 0.0 0.0 
0.0 0.0 0.0 
0.0 0.0 0.0 
0.0 0.0 0.0 
0.0 0.0 0.0 
0.0 0.0 0.0 
0.0 0.0 0.0 
0.0 0.0 0.0 
0.0 0.0 0.0 
0.0 0.0 0.0 
0.0 0.0 0.0 
0.0 0.0 0.0 
0.0 0.0 0.0 
0.0 0.0 0.0 
0.0 0.0 0.0 
0.0 0.0 0.0 
0.0 0.0 0.0 
0.0 0.0 0.0 
0.0 0.0 0.0 
0.0 0.0 0.0 
0.0 0.0 0.0 
0.0 0.0 0.0 
0.0 0.0 0.0 
0.0 0.0 0.0 
0.0 0.0 0.0 
0.0 0.0 0.0 
0.0 0.0 0.0 
0.0 0.0 0.0 
0.0 0.0 0.0 
0.0 0.0 0.0 
0.0 0.0 0.0 
0.0 0.0 0.0 
0.0 0.0 0.0 
0.0 0.0 0.0 
0.0 0.0 0.0 
0.0 0.0 0.0 
0.0 0.0 0.0 
0.0 0.0 0.0 
0.0 0.0 0.0 
0.0 0.0 0.0 
0.0 0.0 0.0 
0.0 0.0 0.0 
0.0 0.0 0.0 
0.0 0.0 0.0 
0.0 0.0 0.0 
0.0 0.0 0.0 
0.0 0.0 0.0 
0.0 0.0 0.0 
0.0 0.0 0.0 
0.0 0.0 0.0 
0.0 0.0 0.0 
0.0 0.0 0.0 
0.0 0.0 0.0 
0.0 0.0 0.0 
0.0 0.0 0.0 
0.0 0.0 0.0 
0.0 0.0 0.0 
0.0 0.0 0.0 
0.0 0.0 0.0 
0.0 0.0 0.0 
0.0 0.0 0.0 
0.0 0.0 0.0 
0.0 0.0 0.0 
0.0 0.0 0.0 
0.0 0.0 0.0 
0.0 0.0 0.0 
0.0 0.0 0.0 
0.0 0.0 0.0 
0.0 0.0 0.0 
0.0 0.0 0.0 
0.0 0.0 0.0 
0.0 0.0 0.0 
0.0 0.0 0.0 
0.0 0.0 0.0 
0.0 0.0 0.0 
0.0 0.0 0.0 
0.0 0.0 0.0 
0.0 0.0 0.0 
0.0 0.0 0.0 
0.0 0.0 0.0 
0.0 0.0 0.0 
0.0 0.0 0.0 
0.0 0.0 0.0 
0.0 0.0 0.0 
0.0 0.0 0.0 
0.0 0.0 0.0 
0.0 0.0 0.0 
0.0 0.0 0.0 
0.0 0.0 0.0 
0.0 0.0 0.0 
0.0 0.0 0.0 
0.0 0.0 0.0 
0.0 0.0 0.0 
0.0 0.0 0.0 
0.0 0.0 0.0 
0.0 0.0 0.0 
0.0 0.0 0.0 
0.0 0.0 0.0 
0.0 0.0 0.0 
0.0 0.0 0.0 
0.0 0.0 0.0 
0.0 0.0 0.0 
0.0 0.0 0.0 
0.0 0.0 0.0 
0.0 0.0 0.0 
0.0 0.0 0.0 
0.0 0.0 0.0 
0.0 0.0 0.0 
0.0 0.0 0.0 
0.0 0.0 0.0 
0.0 0.0 0.0 
0.0 0.0 0.0 
0.0 0.0 0.0 
0.0 0.0 0.0 
0.0 0.0 0.0 
0.0 0.0 0.0 
0.0 0.0 0.0 
0.0 0.0 0.0 
0.0 0.0 0.0 
0.0 0.0 0.0 
0.0 0.0 0.0 
0.0 0.0 0.0 
0.0 0.0 0.0 
0.0 0.0 0.0 
0.0 0.0 0.0 
0.0 0.0 0.0 
0.0 0.0 0.0 
0.0 0.0 0.0 
0.0 0.0 0.0 
0.0 0.0 0.0 
0.0 0.0 0.0 
0.0 0.0 0.0 
0.0 0.0 0.0 
0.0 0.0 0.0 
0.0 0.0 0.0 
0.0 0.0 0.0 
0.0 0.0 0.0 
0.0 0.0 0.0 
0.0 0.0 0.0 
0.0 0.0 0.0 
0.0 0.0 0.0 
0.0 0.0 0.0 
0.0 0.0 0.0 
0.0 0.0 0.0 
0.0 0.0 0.0 
0.0 0.0 0.0 
0.0 0.0 0.0 
0.0 0.0 0.0 
0.0 0.0 0.0 
0.0 0.0 0.0 
0.0 0.0 0.0 
0.0 0.0 0.0 
0.0 0.0 0.0 
0.0 0.0 0.0 
0.0 0.0 0.0 
0.0 0.0 0.0 
0.0 0.0 0.0 
0.0 0.0 0.0 
0.0 0.0 0.0 
0.0 0.0 0.0 
0.0 0.0 0.0 
0.0 0.0 0.0 
0.0 0.0 0.0 
0.0 0.0 0.0 
0.0 0.0 0.0 
0.0 0.0 0.0 
0.0 0.0 0.0 
0.0 0.0 0.0 
0.0 0.0 0.0 
0.0 0.0 0.0 
0.0 0.0 0.0 
0.0 0.0 0.0 
0.0 0.0 0.0 
0.0 0.0 0.0 
0.0 0.0 0.0 
0.0 0.0 0.0 
0.0 0.0 0.0 
0.0 0.0 0.0 
0.0 0.0 0.0 
0.0 0.0 0.0 
0.0 0.0 0.0 
0.0 0.0 0.0 
0.0 0.0 0.0 
0.0 0.0 0.0 
0.0 0.0 0.0 
0.0 0.0 0.0 
0.0 0.0 0.0 
0.0 0.0 0.0 
0.0 0.0 0.0 
0.0 0.0 0.0 
0.0 0.0 0.0 
0.0 0.0 0.0 
0.0 0.0 0.0 
0.0 0.0 0.0 
0.0 0.0 0.0 
0.0 0.0 0.0 
0.0 0.0 0.0 
0.0 0.0 0.0 
0.0 0.0 0.0 
0.0 0.0 0.0 
0.0 0.0 0.0 
0.0 0.0 0.0 
0.0 0.0 0.0 
0.0 0.0 0.0 
0.0 0.0 0.0 
0.0 0.0 0.0 
0.0 0.0 0.0 
0.0 0.0 0.0 
0.0 0.0 0.0 
0.0 0.0 0.0 
0.0 0.0 0.0 
0.0 0.0 0.0 
0.0 0.0 0.0 
0.0 0.0 0.0 
0.0 0.0 0.0 
0.0 0.0 0.0 
0.0 0.0 0.0 
0.0 0.0 0.0 
0.0 0.0 0.0 
0.0 0.0 0.0 
0.0 0.0 0.0 
0.0 0.0 0.0 
0.0 0.0 0.0 
0.0 0.0 0.0 
0.0 0.0 0.0 
0.0 0.0 0.0 
0.0 0.0 0.0 
0.0 0.0 0.0 
0.0 0.0 0.0 
0.0 0.0 0.0 
0.0 0.0 0.0 
0.0 0.0 0.0 
0.0 0.0 0.0 
0.0 0.0 0.0 
0.0 0.0 0.0 
0.0 0.0 0.0 
0.0 0.0 0.0 
0.0 0.0 0.0 
0.0 0.0 0.0 
0.0 0.0 0.0 
0.0 0.0 0.0 
0.0 0.0 0.0 
0.0 0.0 0.0 
0.0 0.0 0.0 
0.0 0.0 0.0 
0.0 0.0 0.0 
0.0 0.0 0.0 
0.0 0.0 0.0 
0.0 0.0 0.0 
0.0 0.0 0.0 
0.0 0.0 0.0 
0.0 0.0 0.0 
0.0 0.0 0.0 
0.0 0.0 0.0 
0.0 0.0 0.0 
0.0 0.0 0.0 
0.0 0.0 0.0 
0.0 0.0 0.0 
0.0 0.0 0.0 
0.0 0.0 0.0 
0.0 0.0 0.0 
0.0 0.0 0.0 
0.0 0.0 0.0 
0.0 0.0 0.0 
0.0 0.0 0.0 
0.0 0.0 0.0 
0.0 0.0 0.0 
0.0 0.0 0.0 
0.0 0.0 0.0 
0.0 0.0 0.0 
0.0 0.0 0.0 
0.0 0.0 0.0 
0.0 0.0 0.0 
0.0 0.0 0.0 
0.0 0.0 0.0 
0.0 0.0 0.0 
0.0 0.0 0.0 
0.0 0.0 0.0 
0.0 0.0 0.0 
0.0 0.0 0.0 
0.0 0.0 0.0 
0.0 0.0 0.0 
0.0 0.0 0.0 
0.0 0.0 0.0 
0.0 0.0 0.0 
0.0 0.0 0.0 
0.0 0.0 0.0 
0.0 0.0 0.0 
0.0 0.0 0.0 
0.0 0.0 0.0 
0.0 0.0 0.0 
0.0 0.0 0.0 
0.0 0.0 0.0 
0.0 0.0 0.0 
0.0 0.0 0.0 
0.0 0.0 0.0 
0.0 0.0 0.0 
0.0 0.0 0.0 
0.0 0.0 0.0 
0.0 0.0 0.0 
0.0 0.0 0.0 
0.0 0.0 0.0 
0.0 0.0 0.0 
0.0 0.0 0.0 
0.0 0.0 0.0 
0.0 0.0 0.0 
0.0 0.0 0.0 
0.0 0.0 0.0 
0.0 0.0 0.0 
0.0 0.0 0.0 
0.0 0.0 0.0 
0.0 0.0 0.0 
0.0 0.0 0.0 
0.0 0.0 0.0 
0.0 0.0 0.0 
0.0 0.0 0.0 
0.0 0.0 0.0 
0.0 0.0 0.0 
0.0 0.0 0.0 
0.0 0.0 0.0 
0.0 0.0 0.0 
0.0 0.0 0.0 
0.0 0.0 0.0 
0.0 0.0 0.0 
0.0 0.0 0.0 
0.0 0.0 0.0 
0.0 0.0 0.0 
0.0 0.0 0.0 
0.0 0.0 0.0 
0.0 0.0 0.0 
0.0 0.0 0.0 
0.0 0.0 0.0 
0.0 0.0 0.0 
0.0 0.0 0.0 
0.0 0.0 0.0 
0.0 0.0 0.0 
0.0 0.0 0.0 
0.0 0.0 0.0 
0.0 0.0 0.0 
0.0 0.0 0.0 
0.0 0.0 0.0 
0.0 0.0 0.0 
0.0 0.0 0.0 
0.0 0.0 0.0 
0.0 0.0 0.0 
0.0 0.0 0.0 
0.0 0.0 0.0 
0.0 0.0 0.0 
0.0 0.0 0.0 
0.0 0.0 0.0 
0.0 0.0 0.0 
0.0 0.0 0.0 
0.0 0.0 0.0 
0.0 0.0 0.0 
0.0 0.0 0.0 
0.0 0.0 0.0 
0.0 0.0 0.0 
0.0 0.0 0.0 
0.0 0.0 0.0 
0.0 0.0 0.0 
0.0 0.0 0.0 
0.0 0.0 0.0 
0.0 0.0 0.0 
0.0 0.0 0.0 
0.0 0.0 0.0 
0.0 0.0 0.0 
0.0 0.0 0.0 
0.0 0.0 0.0 
0.0 0.0 0.0 
0.0 0.0 0.0 
0.0 0.0 0.0 
0.0 0.0 0.0 
0.0 0.0 0.0 
0.0 0.0 0.0 
0.0 0.0 0.0 
0.0 0.0 0.0 
0.0 0.0 0.0 
0.0 0.0 0.0 
0.0 0.0 0.0 
0.0 0.0 0.0 
0.0 0.0 0.0 
0.0 0.0 0.0 
0.0 0.0 0.0 
0.0 0.0 0.0 
0.0 0.0 0.0 
0.0 0.0 0.0 
0.0 0.0 0.0 
0.0 0.0 0.0 
0.0 0.0 0.0 
0.0 0.0 0.0 
0.0 0.0 0.0 
0.0 0.0 0.0 
0.0 0.0 0.0 
0.0 0.0 0.0 
0.0 0.0 0.0 
0.0 0.0 0.0 
0.0 0.0 0.0 
0.0 0.0 0.0 
0.0 0.0 0.0 
0.0 0.0 0.0 
0.0 0.0 0.0 
0.0 0.0 0.0 
0.0 0.0 0.0 
0.0 0.0 0.0 
0.0 0.0 0.0 
0.0 0.0 0.0 
0.0 0.0 0.0 
0.0 0.0 0.0 
0.0 0.0 0.0 
0.0 0.0 0.0 
0.0 0.0 0.0 
0.0 0.0 0.0 
0.0 0.0 0.0 
0.0 0.0 0.0 
0.0 0.0 0.0 
0.0 0.0 0.0 
0.0 0.0 0.0 
0.0 0.0 0.0 
0.0 0.0 0.0 
0.0 0.0 0.0 
0.0 0.0 0.0 
0.0 0.0 0.0 
0.0 0.0 0.0 
0.0 0.0 0.0 
0.0 0.0 0.0 
0.0 0.0 0.0 
0.0 0.0 0.0 
0.0 0.0 0.0 
0.0 0.0 0.0 
0.0 0.0 0.0 
0.0 0.0 0.0 
0.0 0.0 0.0 
0.0 0.0 0.0 
0.0 0.0 0.0 
0.0 0.0 0.0 
0.0 0.0 0.0 
0.0 0.0 0.0 
0.0 0.0 0.0 
0.0 0.0 0.0 
0.0 0.0 0.0 
0.0 0.0 0.0 
0.0 0.0 0.0 
0.0 0.0 0.0 
0.0 0.0 0.0 
0.0 0.0 0.0 
0.0 0.0 0.0 
0.0 0.0 0.0 
0.0 0.0 0.0 
0.0 0.0 0.0 
0.0 0.0 0.0 
0.0 0.0 0.0 
0.0 0.0 0.0 
0.0 0.0 0.0 
0.0 0.0 0.0 
0.0 0.0 0.0 
0.0 0.0 0.0 
0.0 0.0 0.0 
0.0 0.0 0.0 
0.0 0.0 0.0 
0.0 0.0 0.0 
0.0 0.0 0.0 
0.0 0.0 0.0 
0.0 0.0 0.0 
0.0 0.0 0.0 
0.0 0.0 0.0 
0.0 0.0 0.0 
0.0 0.0 0.0 
0.0 0.0 0.0 
0.0 0.0 0.0 
0.0 0.0 0.0 
0.0 0.0 0.0 
0.0 0.0 0.0 
0.0 0.0 0.0 
0.0 0.0 0.0 
0.0 0.0 0.0 
0.0 0.0 0.0 
0.0 0.0 0.0 
0.0 0.0 0.0 
0.0 0.0 0.0 
0.0 0.0 0.0 
0.0 0.0 0.0 
0.0 0.0 0.0 
0.0 0.0 0.0 
0.0 0.0 0.0 
0.0 0.0 0.0 
0.0 0.0 0.0 
0.0 0.0 0.0 
0.0 0.0 0.0 
0.0 0.0 0.0 
0.0 0.0 0.0 
0.0 0.0 0.0 
0.0 0.0 0.0 
0.0 0.0 0.0 
0.0 0.0 0.0 
0.0 0.0 0.0 
0.0 0.0 0.0 
0.0 0.0 0.0 
0.0 0.0 0.0 
0.0 0.0 0.0 
0.0 0.0 0.0 
0.0 0.0 0.0 
0.0 0.0 0.0 
0.0 0.0 0.0 
0.0 0.0 0.0 
0.0 0.0 0.0 
0.0 0.0 0.0 
0.0 0.0 0.0 
0.0 0.0 0.0 
0.0 0.0 0.0 
0.0 0.0 0.0 
0.0 0.0 0.0 
0.0 0.0 0.0 
0.0 0.0 0.0 
0.0 0.0 0.0 
0.0 0.0 0.0 
0.0 0.0 0.0 
0.0 0.0 0.0 
0.0 0.0 0.0 
0.0 0.0 0.0 
0.0 0.0 0.0 
0.0 0.0 0.0 
0.0 0.0 0.0 
0.0 0.0 0.0 
0.0 0.0 0.0 
0.0 0.0 0.0 
0.0 0.0 0.0 
0.0 0.0 0.0 
0.0 0.0 0.0 
0.0 0.0 0.0 
0.0 0.0 0.0 
0.0 0.0 0.0 
0.0 0.0 0.0 
0.0 0.0 0.0 
0.0 0.0 0.0 
0.0 0.0 0.0 
0.0 0.0 0.0 
0.0 0.0 0.0 
0.0 0.0 0.0 
0.0 0.0 0.0 
0.0 0.0 0.0 
0.0 0.0 0.0 
0.0 0.0 0.0 
0.0 0.0 0.0 
0.0 0.0 0.0 
0.0 0.0 0.0 
0.0 0.0 0.0 
0.0 0.0 0.0 
0.0 0.0 0.0 
0.0 0.0 0.0 
0.0 0.0 0.0 
0.0 0.0 0.0 
0.0 0.0 0.0 
0.0 0.0 0.0 
0.0 0.0 0.0 
0.0 0.0 0.0 
0.0 0.0 0.0 
0.0 0.0 0.0 
0.0 0.0 0.0 
0.0 0.0 0.0 
0.0 0.0 0.0 
0.0 0.0 0.0 
0.0 0.0 0.0 
0.0 0.0 0.0 
0.0 0.0 0.0 
0.0 0.0 0.0 
0.0 0.0 0.0 
0.0 0.0 0.0 
0.0 0.0 0.0 
0.0 0.0 0.0 
0.0 0.0 0.0 
0.0 0.0 0.0 
0.0 0.0 0.0 
0.0 0.0 0.0 
0.0 0.0 0.0 
0.0 0.0 0.0 
0.0 0.0 0.0 
0.0 0.0 0.0 
0.0 0.0 0.0 
0.0 0.0 0.0 
0.0 0.0 0.0 
0.0 0.0 0.0 
0.0 0.0 0.0 
0.0 0.0 0.0 
0.0 0.0 0.0 
0.0 0.0 0.0 
0.0 0.0 0.0 
0.0 0.0 0.0 
0.0 0.0 0.0 
0.0 0.0 0.0 
0.0 0.0 0.0 
0.0 0.0 0.0 
0.0 0.0 0.0 
0.0 0.0 0.0 
0.0 0.0 0.0 
0.0 0.0 0.0 
0.0 0.0 0.0 
0.0 0.0 0.0 
0.0 0.0 0.0 
0.0 0.0 0.0 
0.0 0.0 0.0 
0.0 0.0 0.0 
0.0 0.0 0.0 
0.0 0.0 0.0 
0.0 0.0 0.0 
0.0 0.0 0.0 
0.0 0.0 0.0 
0.0 0.0 0.0 
0.0 0.0 0.0 
0.0 0.0 0.0 
0.0 0.0 0.0 
0.0 0.0 0.0 
0.0 0.0 0.0 
0.0 0.0 0.0 
0.0 0.0 0.0 
0.0 0.0 0.0 
0.0 0.0 0.0 
0.0 0.0 0.0 
0.0 0.0 0.0 
0.0 0.0 0.0 
0.0 0.0 0.0 
0.0 0.0 0.0 
0.0 0.0 0.0 
0.0 0.0 0.0 
0.0 0.0 0.0 
0.0 0.0 0.0 
0.0 0.0 0.0 
0.0 0.0 0.0 
0.0 0.0 0.0 
0.0 0.0 0.0 
0.0 0.0 0.0 
0.0 0.0 0.0 
0.0 0.0 0.0 
0.0 0.0 0.0 
0.0 0.0 0.0 
0.0 0.0 0.0 
0.0 0.0 0.0 
0.0 0.0 0.0 
0.0 0.0 0.0 
0.0 0.0 0.0 
0.0 0.0 0.0 
0.0 0.0 0.0 
0.0 0.0 0.0 
0.0 0.0 0.0 
0.0 0.0 0.0 
0.0 0.0 0.0 
0.0 0.0 0.0 
0.0 0.0 0.0 
0.0 0.0 0.0 
0.0 0.0 0.0 
0.0 0.0 0.0 
0.0 0.0 0.0 
0.0 0.0 0.0 
0.0 0.0 0.0 
0.0 0.0 0.0 
0.0 0.0 0.0 
0.0 0.0 0.0 
0.0 0.0 0.0 
0.0 0.0 0.0 
0.0 0.0 0.0 
0.0 0.0 0.0 
0.0 0.0 0.0 
0.0 0.0 0.0 
0.0 0.0 0.0 
0.0 0.0 0.0 
0.0 0.0 0.0 
0.0 0.0 0.0 
0.0 0.0 0.0 
0.0 0.0 0.0 
0.0 0.0 0.0 
0.0 0.0 0.0 
0.0 0.0 0.0 
0.0 0.0 0.0 
0.0 0.0 0.0 
0.0 0.0 0.0 
0.0 0.0 0.0 
0.0 0.0 0.0 
0.0 0.0 0.0 
0.0 0.0 0.0 
0.0 0.0 0.0 
0.0 0.0 0.0 
0.0 0.0 0.0 
0.0 0.0 0.0 
0.0 0.0 0.0 
0.0 0.0 0.0 
0.0 0.0 0.0 
0.0 0.0 0.0 
0.0 0.0 0.0 
0.0 0.0 0.0 
0.0 0.0 0.0 
0.0 0.0 0.0 
0.0 0.0 0.0 
0.0 0.0 0.0 
0.0 0.0 0.0 
0.0 0.0 0.0 
0.0 0.0 0.0 
0.0 0.0 0.0 
0.0 0.0 0.0 
0.0 0.0 0.0 
0.0 0.0 0.0 
0.0 0.0 0.0 
0.0 0.0 0.0 
0.0 0.0 0.0 
0.0 0.0 0.0 
0.0 0.0 0.0 
0.0 0.0 0.0 
0.0 0.0 0.0 
0.0 0.0 0.0 
0.0 0.0 0.0 
0.0 0.0 0.0 
0.0 0.0 0.0 
0.0 0.0 0.0 
0.0 0.0 0.0 
0.0 0.0 0.0 
0.0 0.0 0.0 
0.0 0.0 0.0 
0.0 0.0 0.0 
0.0 0.0 0.0 
0.0 0.0 0.0 
0.0 0.0 0.0 
0.0 0.0 0.0 
0.0 0.0 0.0 
0.0 0.0 0.0 
0.0 0.0 0.0 
0.0 0.0 0.0 
0.0 0.0 0.0 
0.0 0.0 0.0 
0.0 0.0 0.0 
0.0 0.0 0.0 
0.0 0.0 0.0 
0.0 0.0 0.0 
0.0 0.0 0.0 
0.0 0.0 0.0 
0.0 0.0 0.0 
0.0 0.0 0.0 
0.0 0.0 0.0 
0.0 0.0 0.0 
0.0 0.0 0.0 
0.0 0.0 0.0 
0.0 0.0 0.0 
0.0 0.0 0.0 
0.0 0.0 0.0 
0.0 0.0 0.0 
0.0 0.0 0.0 
0.0 0.0 0.0 
0.0 0.0 0.0 
0.0 0.0 0.0 
0.0 0.0 0.0 
0.0 0.0 0.0 
0.0 0.0 0.0 
0.0 0.0 0.0 
0.0 0.0 0.0 
0.0 0.0 0.0 
0.0 0.0 0.0 
0.0 0.0 0.0 
0.0 0.0 0.0 
0.0 0.0 0.0 
0.0 0.0 0.0 
0.0 0.0 0.0 
0.0 0.0 0.0 
0.0 0.0 0.0 
0.0 0.0 0.0 
0.0 0.0 0.0 
0.0 0.0 0.0 
0.0 0.0 0.0 
0.0 0.0 0.0 
0.0 0.0 0.0 
0.0 0.0 0.0 
0.0 0.0 0.0 
0.0 0.0 0.0 
0.0 0.0 0.0 
0.0 0.0 0.0 
0.0 0.0 0.0 
0.0 0.0 0.0 
0.0 0.0 0.0 
0.0 0.0 0.0 
0.0 0.0 0.0 
0.0 0.0 0.0 
0.0 0.0 0.0 
0.0 0.0 0.0 
0.0 0.0 0.0 
0.0 0.0 0.0 
0.0 0.0 0.0 
0.0 0.0 0.0 
0.0 0.0 0.0 
0.0 0.0 0.0 
0.0 0.0 0.0 
0.0 0.0 0.0 
0.0 0.0 0.0 
0.0 0.0 0.0 
0.0 0.0 0.0 
0.0 0.0 0.0 
0.0 0.0 0.0 
0.0 0.0 0.0 
0.0 0.0 0.0 
0.0 0.0 0.0 
0.0 0.0 0.0 
0.0 0.0 0.0 
0.0 0.0 0.0 
0.0 0.0 0.0 
0.0 0.0 0.0 
0.0 0.0 0.0 
0.0 0.0 0.0 
0.0 0.0 0.0 
0.0 0.0 0.0 
0.0 0.0 0.0 
0.0 0.0 0.0 
0.0 0.0 0.0 
0.0 0.0 0.0 
0.0 0.0 0.0 
0.0 0.0 0.0 
0.0 0.0 0.0 
0.0 0.0 0.0 
0.0 0.0 0.0 
0.0 0.0 0.0 
0.0 0.0 0.0 
0.0 0.0 0.0 
0.0 0.0 0.0 
0.0 0.0 0.0 
0.0 0.0 0.0 
0.0 0.0 0.0 
0.0 0.0 0.0 
0.0 0.0 0.0 
0.0 0.0 0.0 
0.0 0.0 0.0 
0.0 0.0 0.0 
0.0 0.0 0.0 
0.0 0.0 0.0 
0.0 0.0 0.0 
0.0 0.0 0.0 
0.0 0.0 0.0 
0.0 0.0 0.0 
0.0 0.0 0.0 
0.0 0.0 0.0 
0.0 0.0 0.0 
0.0 0.0 0.0 
0.0 0.0 0.0 
0.0 0.0 0.0 
0.0 0.0 0.0 
0.0 0.0 0.0 
0.0 0.0 0.0 
0.0 0.0 0.0 
0.0 0.0 0.0 
0.0 0.0 0.0 
0.0 0.0 0.0 
0.0 0.0 0.0 
0.0 0.0 0.0 
0.0 0.0 0.0 
0.0 0.0 0.0 
0.0 0.0 0.0 
0.0 0.0 0.0 
0.0 0.0 0.0 
0.0 0.0 0.0 
0.0 0.0 0.0 
0.0 0.0 0.0 
0.0 0.0 0.0 
0.0 0.0 0.0 
0.0 0.0 0.0 
0.0 0.0 0.0 
0.0 0.0 0.0 
0.0 0.0 0.0 
0.0 0.0 0.0 
0.0 0.0 0.0 
0.0 0.0 0.0 
0.0 0.0 0.0 
0.0 0.0 0.0 
0.0 0.0 0.0 
0.0 0.0 0.0 
0.0 0.0 0.0 
0.0 0.0 0.0 
0.0 0.0 0.0 
0.0 0.0 0.0 
0.0 0.0 0.0 
0.0 0.0 0.0 
0.0 0.0 0.0 
0.0 0.0 0.0 
0.0 0.0 0.0 
0.0 0.0 0.0 
0.0 0.0 0.0 
0.0 0.0 0.0 
0.0 0.0 0.0 
0.0 0.0 0.0 
0.0 0.0 0.0 
0.0 0.0 0.0 
0.0 0.0 0.0 
0.0 0.0 0.0 
0.0 0.0 0.0 
0.0 0.0 0.0 
0.0 0.0 0.0 
0.0 0.0 0.0 
0.0 0.0 0.0 
0.0 0.0 0.0 
0.0 0.0 0.0 
0.0 0.0 0.0 
0.0 0.0 0.0 
0.0 0.0 0.0 
0.0 0.0 0.0 
0.0 0.0 0.0 
0.0 0.0 0.0 
0.0 0.0 0.0 
0.0 0.0 0.0 
0.0 0.0 0.0 
0.0 0.0 0.0 
0.0 0.0 0.0 
0.0 0.0 0.0 
0.0 0.0 0.0 
0.0 0.0 0.0 
0.0 0.0 0.0 
0.0 0.0 0.0 
0.0 0.0 0.0 
0.0 0.0 0.0 
0.0 0.0 0.0 
0.0 0.0 0.0 
0.0 0.0 0.0 
0.0 0.0 0.0 
0.0 0.0 0.0 
0.0 0.0 0.0 
0.0 0.0 0.0 
0.0 0.0 0.0 
0.0 0.0 0.0 
0.0 0.0 0.0 
0.0 0.0 0.0 
0.0 0.0 0.0 
0.0 0.0 0.0 
0.0 0.0 0.0 
0.0 0.0 0.0 
0.0 0.0 0.0 
0.0 0.0 0.0 
0.0 0.0 0.0 
0.0 0.0 0.0 
0.0 0.0 0.0 
0.0 0.0 0.0 
0.0 0.0 0.0 
0.0 0.0 0.0 
0.0 0.0 0.0 
0.0 0.0 0.0 
0.0 0.0 0.0 
0.0 0.0 0.0 
0.0 0.0 0.0 
0.0 0.0 0.0 
0.0 0.0 0.0 
0.0 0.0 0.0 
0.0 0.0 0.0 
0.0 0.0 0.0 
0.0 0.0 0.0 
0.0 0.0 0.0 
0.0 0.0 0.0 
0.0 0.0 0.0 
0.0 0.0 0.0 
0.0 0.0 0.0 
0.0 0.0 0.0 
0.0 0.0 0.0 
0.0 0.0 0.0 
0.0 0.0 0.0 
0.0 0.0 0.0 
0.0 0.0 0.0 
0.0 0.0 0.0 
0.0 0.0 0.0 
0.0 0.0 0.0 
0.0 0.0 0.0 
0.0 0.0 0.0 
0.0 0.0 0.0 
0.0 0.0 0.0 
0.0 0.0 0.0 
0.0 0.0 0.0 
0.0 0.0 0.0 
0.0 0.0 0.0 
0.0 0.0 0.0 
0.0 0.0 0.0 
0.0 0.0 0.0 
0.0 0.0 0.0 
0.0 0.0 0.0 
0.0 0.0 0.0 
0.0 0.0 0.0 
0.0 0.0 0.0 
0.0 0.0 0.0 
0.0 0.0 0.0 
0.0 0.0 0.0 
0.0 0.0 0.0 
0.0 0.0 0.0 
0.0 0.0 0.0 
0.0 0.0 0.0 
0.0 0.0 0.0 
0.0 0.0 0.0 
0.0 0.0 0.0 
0.0 0.0 0.0 
0.0 0.0 0.0 
0.0 0.0 0.0 
0.0 0.0 0.0 
0.0 0.0 0.0 
0.0 0.0 0.0 
0.0 0.0 0.0 
0.0 0.0 0.0 
0.0 0.0 0.0 
0.0 0.0 0.0 
0.0 0.0 0.0 
0.0 0.0 0.0 
0.0 0.0 0.0 
0.0 0.0 0.0 
0.0 0.0 0.0 
0.0 0.0 0.0 
0.0 0.0 0.0 
0.0 0.0 0.0 
0.0 0.0 0.0 
0.0 0.0 0.0 
0.0 0.0 0.0 
0.0 0.0 0.0 
0.0 0.0 0.0 
0.0 0.0 0.0 
0.0 0.0 0.0 
0.0 0.0 0.0 
0.0 0.0 0.0 
0.0 0.0 0.0 
0.0 0.0 0.0 
0.0 0.0 0.0 
0.0 0.0 0.0 
0.0 0.0 0.0 
0.0 0.0 0.0 
0.0 0.0 0.0 
0.0 0.0 0.0 
0.0 0.0 0.0 
0.0 0.0 0.0 
0.0 0.0 0.0 
0.0 0.0 0.0 
0.0 0.0 0.0 
0.0 0.0 0.0 
0.0 0.0 0.0 
0.0 0.0 0.0 
0.0 0.0 0.0 
0.0 0.0 0.0 
0.0 0.0 0.0 
0.0 0.0 0.0 
0.0 0.0 0.0 
0.0 0.0 0.0 
0.0 0.0 0.0 
0.0 0.0 0.0 
0.0 0.0 0.0 
0.0 0.0 0.0 
0.0 0.0 0.0 
0.0 0.0 0.0 
0.0 0.0 0.0 
0.0 0.0 0.0 
0.0 0.0 0.0 
0.0 0.0 0.0 
0.0 0.0 0.0 
0.0 0.0 0.0 
0.0 0.0 0.0 
0.0 0.0 0.0 
0.0 0.0 0.0 
0.0 0.0 0.0 
0.0 0.0 0.0 
0.0 0.0 0.0 
0.0 0.0 0.0 
0.0 0.0 0.0 
0.0 0.0 0.0 
0.0 0.0 0.0 
0.0 0.0 0.0 
0.0 0.0 0.0 
0.0 0.0 0.0 
0.0 0.0 0.0 
0.0 0.0 0.0 
0.0 0.0 0.0 
0.0 0.0 0.0 
0.0 0.0 0.0 
0.0 0.0 0.0 
0.0 0.0 0.0 
0.0 0.0 0.0 
0.0 0.0 0.0 
0.0 0.0 0.0 
0.0 0.0 0.0 
0.0 0.0 0.0 
0.0 0.0 0.0 
0.0 0.0 0.0 
0.0 0.0 0.0 
0.0 0.0 0.0 
0.0 0.0 0.0 
0.0 0.0 0.0 
0.0 0.0 0.0 
0.0 0.0 0.0 
0.0 0.0 0.0 
0.0 0.0 0.0 
0.0 0.0 0.0 
0.0 0.0 0.0 
0.0 0.0 0.0 
0.0 0.0 0.0 
0.0 0.0 0.0 
0.0 0.0 0.0 
0.0 0.0 0.0 

SCALARS node_boundary float
LOOKUP_TABLE default
1.000000000000e+00 
1.000000000000e+00 
1.000000000000e+00 
1.000000000000e+00 
1.000000000000e+00 
1.000000000000e+00 
1.000000000000e+00 
1.000000000000e+00 
1.000000000000e+00 
1.000000000000e+00 
1.000000000000e+00 
1.000000000000e+00 
1.000000000000e+00 
1.000000000000e+00 
1.000000000000e+00 
1.000000000000e+00 
1.000000000000e+00 
1.000000000000e+00 
1.000000000000e+00 
1.000000000000e+00 
1.000000000000e+00 
1.000000000000e+00 
1.000000000000e+00 
1.000000000000e+00 
1.000000000000e+00 
1.000000000000e+00 
1.000000000000e+00 
1.000000000000e+00 
1.000000000000e+00 
1.000000000000e+00 
1.000000000000e+00 
1.000000000000e+00 
1.000000000000e+00 
1.000000000000e+00 
1.000000000000e+00 
1.000000000000e+00 
1.000000000000e+00 
1.000000000000e+00 
1.000000000000e+00 
1.000000000000e+00 
1.000000000000e+00 
1.000000000000e+00 
1.000000000000e+00 
1.000000000000e+00 
1.000000000000e+00 
1.000000000000e+00 
1.000000000000e+00 
1.000000000000e+00 
1.000000000000e+00 
1.000000000000e+00 
1.000000000000e+00 
1.000000000000e+00 
1.000000000000e+00 
1.000000000000e+00 
1.000000000000e+00 
1.000000000000e+00 
1.000000000000e+00 
1.000000000000e+00 
1.000000000000e+00 
1.000000000000e+00 
1.000000000000e+00 
1.000000000000e+00 
1.000000000000e+00 
1.000000000000e+00 
1.000000000000e+00 
1.000000000000e+00 
1.000000000000e+00 
1.000000000000e+00 
1.000000000000e+00 
1.000000000000e+00 
1.000000000000e+00 
1.000000000000e+00 
1.000000000000e+00 
1.000000000000e+00 
1.000000000000e+00 
1.000000000000e+00 
1.000000000000e+00 
1.000000000000e+00 
1.000000000000e+00 
1.000000000000e+00 
1.000000000000e+00 
1.000000000000e+00 
0.0
1.000000000000e+00 
1.000000000000e+00 
1.000000000000e+00 
1.000000000000e+00 
0.0
0.0
0.0
0.0
0.0
1.000000000000e+00 
1.000000000000e+00 
1.000000000000e+00 
1.000000000000e+00 
1.000000000000e+00 
1.000000000000e+00 
0.0
0.0
0.0
0.0
0.0
0.0
0.0
0.0
0.0
0.0
0.0
0.0
0.0
0.0
1.000000000000e+00 
1.000000000000e+00 
1.000000000000e+00 
1.000000000000e+00 
1.000000000000e+00 
1.000000000000e+00 
1.000000000000e+00 
1.000000000000e+00 
1.000000000000e+00 
1.000000000000e+00 
1.000000000000e+00 
1.000000000000e+00 
1.000000000000e+00 
1.000000000000e+00 
1.000000000000e+00 
1.000000000000e+00 
1.000000000000e+00 
1.000000000000e+00 
1.000000000000e+00 
1.000000000000e+00 
1.000000000000e+00 
1.000000000000e+00 
1.000000000000e+00 
1.000000000000e+00 
1.000000000000e+00 
1.000000000000e+00 
1.000000000000e+00 
1.000000000000e+00 
1.000000000000e+00 
1.000000000000e+00 
1.000000000000e+00 
1.000000000000e+00 
1.000000000000e+00 
1.000000000000e+00 
1.000000000000e+00 
1.000000000000e+00 
1.000000000000e+00 
1.000000000000e+00 
1.000000000000e+00 
1.000000000000e+00 
1.000000000000e+00 
1.000000000000e+00 
0.0
0.0
0.0
0.0
0.0
0.0
0.0
0.0
0.0
0.0
0.0
0.0
0.0
0.0
0.0
0.0
0.0
0.0
0.0
0.0
0.0
0.0
0.0
0.0
0.0
0.0
0.0
0.0
0.0
0.0
0.0
0.0
0.0
0.0
0.0
0.0
0.0
0.0
0.0
0.0
0.0
0.0
0.0
0.0
0.0
0.0
0.0
0.0
0.0
0.0
0.0
0.0
0.0
0.0
0.0
0.0
0.0
0.0
0.0
0.0
0.0
0.0
0.0
0.0
0.0
0.0
0.0
0.0
0.0
0.0
0.0
0.0
0.0
0.0
0.0
0.0
0.0
0.0
0.0
0.0
0.0
0.0
0.0
0.0
0.0
0.0
0.0
0.0
0.0
0.0
0.0
0.0
0.0
0.0
1.000000000000e+00 
1.000000000000e+00 
1.000000000000e+00 
1.000000000000e+00 
0.0
0.0
0.0
0.0
0.0
0.0
0.0
0.0
0.0
0.0
0.0
0.0
0.0
0.0
0.0
0.0
0.0
0.0
0.0
0.0
0.0
0.0
0.0
0.0
0.0
0.0
0.0
0.0
0.0
0.0
0.0
0.0
0.0
0.0
0.0
0.0
0.0
0.0
0.0
0.0
0.0
0.0
0.0
0.0
0.0
0.0
0.0
0.0
0.0
0.0
0.0
0.0
0.0
0.0
0.0
0.0
0.0
0.0
0.0
0.0
0.0
0.0
0.0
0.0
0.0
0.0
0.0
0.0
0.0
0.0
0.0
0.0
0.0
0.0
0.0
0.0
0.0
0.0
0.0
0.0
0.0
0.0
0.0
0.0
0.0
0.0
0.0
0.0
0.0
0.0
0.0
0.0
0.0
0.0
0.0
0.0
0.0
0.0
0.0
0.0
0.0
0.0
0.0
0.0
0.0
0.0
0.0
0.0
0.0
0.0
0.0
0.0
0.0
0.0
0.0
0.0
0.0
0.0
0.0
0.0
0.0
0.0
0.0
0.0
0.0
0.0
0.0
0.0
0.0
0.0
0.0
0.0
0.0
0.0
0.0
0.0
0.0
0.0
0.0
0.0
0.0
0.0
0.0
0.0
0.0
0.0
0.0
0.0
0.0
0.0
0.0
0.0
0.0
0.0
0.0
0.0
0.0
0.0
0.0
0.0
0.0
0.0
0.0
0.0
0.0
0.0
0.0
0.0
0.0
0.0
0.0
0.0
0.0
0.0
0.0
0.0
0.0
0.0
0.0
0.0
0.0
0.0
0.0
0.0
0.0
0.0
0.0
0.0
0.0
0.0
0.0
0.0
0.0
0.0
0.0
0.0
0.0
0.0
0.0
0.0
0.0
0.0
0.0
0.0
0.0
0.0
0.0
0.0
0.0
0.0
0.0
0.0
0.0
0.0
0.0
0.0
0.0
0.0
0.0
0.0
0.0
0.0
0.0
0.0
0.0
0.0
0.0
0.0
0.0
0.0
0.0
0.0
0.0
0.0
0.0
0.0
0.0
0.0
0.0
0.0
0.0
0.0
0.0
0.0
0.0
0.0
0.0
0.0
0.0
0.0
0.0
0.0
0.0
0.0
0.0
0.0
0.0
0.0
0.0
0.0
0.0
0.0
0.0
0.0
0.0
0.0
0.0
0.0
0.0
0.0
0.0
0.0
0.0
0.0
0.0
0.0
0.0
0.0
0.0
0.0
0.0
0.0
0.0
0.0
0.0
0.0
0.0
0.0
0.0
0.0
0.0
0.0
0.0
0.0
0.0
0.0
0.0
0.0
0.0
0.0
0.0
0.0
0.0
0.0
0.0
0.0
0.0
0.0
0.0
0.0
0.0
0.0
0.0
0.0
0.0
0.0
0.0
0.0
0.0
0.0
0.0
0.0
0.0
0.0
0.0
0.0
0.0
0.0
0.0
0.0
0.0
0.0
0.0
0.0
0.0
0.0
0.0
0.0
0.0
0.0
0.0
0.0
0.0
0.0
0.0
0.0
0.0
0.0
0.0
0.0
0.0
0.0
0.0
0.0
0.0
0.0
0.0
0.0
0.0
0.0
0.0
0.0
0.0
0.0
0.0
0.0
0.0
0.0
0.0
0.0
0.0
0.0
0.0
0.0
0.0
0.0
0.0
0.0
0.0
0.0
0.0
0.0
0.0
0.0
0.0
0.0
0.0
0.0
0.0
0.0
0.0
0.0
0.0
0.0
0.0
0.0
0.0
0.0
0.0
0.0
0.0
0.0
0.0
0.0
0.0
0.0
0.0
0.0
0.0
0.0
0.0
0.0
0.0
0.0
0.0
0.0
0.0
0.0
0.0
0.0
0.0
0.0
0.0
0.0
0.0
0.0
0.0
0.0
0.0
0.0
0.0
0.0
0.0
0.0
0.0
0.0
0.0
0.0
0.0
0.0
0.0
0.0
0.0
0.0
0.0
0.0
0.0
0.0
0.0
0.0
0.0
0.0
0.0
0.0
0.0
0.0
0.0
0.0
0.0
0.0
0.0
0.0
0.0
0.0
0.0
0.0
0.0
0.0
0.0
0.0
0.0
0.0
0.0
0.0
0.0
0.0
0.0
0.0
0.0
0.0
0.0
0.0
0.0
0.0
0.0
0.0
0.0
0.0
0.0
0.0
0.0
0.0
0.0
0.0
0.0
0.0
0.0
0.0
0.0
0.0
0.0
0.0
0.0
0.0
0.0
0.0
0.0
0.0
0.0
0.0
0.0
0.0
0.0
0.0
0.0
0.0
0.0
0.0
0.0
0.0
0.0
0.0
0.0
0.0
0.0
0.0
0.0
0.0
0.0
0.0
0.0
0.0
0.0
0.0
0.0
0.0
0.0
0.0
0.0
0.0
0.0
0.0
0.0
0.0
0.0
0.0
0.0
0.0
0.0
0.0
0.0
0.0
0.0
0.0
0.0
0.0
0.0
0.0
0.0
0.0
0.0
0.0
0.0
0.0
0.0
0.0
0.0
0.0
0.0
0.0
0.0
0.0
0.0
0.0
0.0
0.0
0.0
0.0
0.0
0.0
0.0
0.0
0.0
0.0
0.0
0.0
0.0
0.0
0.0
0.0
0.0
0.0
0.0
0.0
0.0
0.0
0.0
0.0
0.0
0.0
0.0
0.0
0.0
0.0
0.0
0.0
0.0
0.0
0.0
0.0
0.0
0.0
0.0
0.0
0.0
0.0
0.0
0.0
0.0
0.0
0.0
0.0
0.0
0.0
0.0
0.0
0.0
0.0
0.0
0.0
0.0
0.0
0.0
0.0
0.0
0.0
0.0
0.0
0.0
0.0
0.0
0.0
0.0
0.0
0.0
0.0
0.0
0.0
0.0
0.0
0.0
0.0
0.0
0.0
0.0
0.0
0.0
0.0
0.0
0.0
0.0
0.0
0.0
0.0
0.0
0.0
0.0
0.0
0.0
0.0
0.0
0.0
0.0
0.0
0.0
0.0
0.0
0.0
0.0
0.0
0.0
0.0
0.0
0.0
0.0
0.0
0.0
0.0
0.0
0.0
0.0
0.0
0.0
0.0
0.0
0.0
0.0
0.0
0.0
0.0
0.0
0.0
0.0
0.0
0.0
0.0
0.0
0.0
0.0
0.0
0.0
0.0
0.0
0.0
0.0
0.0
0.0
0.0
0.0
0.0
0.0
0.0
0.0
0.0
0.0
0.0
0.0
0.0
0.0
0.0
0.0
0.0
0.0
0.0
0.0
0.0
0.0
0.0
0.0
0.0
0.0
0.0
0.0
0.0
0.0
0.0
0.0
0.0
0.0
0.0
0.0
0.0
0.0
0.0
0.0
0.0
0.0
0.0
0.0
0.0
0.0
0.0
0.0
0.0
0.0
0.0
0.0
0.0
0.0
0.0
0.0
0.0
0.0
0.0
0.0
0.0
0.0
0.0
0.0
0.0
0.0
0.0
0.0
0.0
0.0
0.0
0.0
0.0
0.0
0.0
0.0
0.0
0.0
0.0
0.0
0.0
0.0
0.0
0.0
0.0
0.0
0.0
0.0
0.0
0.0
0.0
0.0
0.0
0.0
0.0
0.0
0.0
0.0
0.0
0.0
0.0
0.0
0.0
0.0
0.0
0.0
0.0
0.0
0.0
0.0
0.0
0.0
0.0
0.0
0.0
0.0
0.0
0.0
0.0
0.0
0.0
0.0
0.0
0.0
0.0
0.0
0.0
0.0
0.0
0.0
0.0
0.0
0.0
0.0
0.0
0.0
0.0
0.0
0.0
0.0
0.0
0.0
0.0
0.0
0.0
0.0
0.0
0.0
0.0
0.0
0.0
0.0
0.0
0.0
0.0
0.0
0.0
0.0
0.0
0.0
0.0
0.0
0.0
0.0
0.0
0.0
0.0
0.0
0.0
0.0
0.0
0.0
0.0
0.0
0.0
0.0
0.0
0.0
0.0
0.0
0.0
0.0
0.0
0.0
0.0
0.0
0.0
0.0
0.0
0.0
0.0
0.0
0.0
0.0
0.0
0.0

VECTORS node_force_edge float
0.0 0.0 0.0 
0.0 0.0 0.0 
0.0 0.0 0.0 
0.0 0.0 0.0 
0.0 0.0 0.0 
0.0 0.0 0.0 
0.0 0.0 0.0 
0.0 0.0 0.0 
0.0 0.0 0.0 
0.0 0.0 0.0 
0.0 0.0 0.0 
0.0 0.0 0.0 
0.0 0.0 0.0 
0.0 0.0 0.0 
0.0 0.0 0.0 
0.0 0.0 0.0 
0.0 0.0 0.0 
0.0 0.0 0.0 
0.0 0.0 0.0 
0.0 0.0 0.0 
0.0 0.0 0.0 
0.0 0.0 0.0 
0.0 0.0 0.0 
0.0 0.0 0.0 
0.0 0.0 0.0 
0.0 0.0 0.0 
0.0 0.0 0.0 
0.0 0.0 0.0 
0.0 0.0 0.0 
0.0 0.0 0.0 
0.0 0.0 0.0 
0.0 0.0 0.0 
0.0 0.0 0.0 
0.0 0.0 0.0 
0.0 0.0 0.0 
0.0 0.0 0.0 
0.0 0.0 0.0 
0.0 0.0 0.0 
0.0 0.0 0.0 
0.0 0.0 0.0 
0.0 0.0 0.0 
0.0 0.0 0.0 
0.0 0.0 0.0 
0.0 0.0 0.0 
0.0 0.0 0.0 
0.0 0.0 0.0 
0.0 0.0 0.0 
0.0 0.0 0.0 
0.0 0.0 0.0 
0.0 0.0 0.0 
0.0 0.0 0.0 
0.0 0.0 0.0 
0.0 0.0 0.0 
0.0 0.0 0.0 
0.0 0.0 0.0 
0.0 0.0 0.0 
0.0 0.0 0.0 
0.0 0.0 0.0 
0.0 0.0 0.0 
0.0 0.0 0.0 
0.0 0.0 0.0 
0.0 0.0 0.0 
0.0 0.0 0.0 
0.0 0.0 0.0 
0.0 0.0 0.0 
0.0 0.0 0.0 
0.0 0.0 0.0 
0.0 0.0 0.0 
0.0 0.0 0.0 
0.0 0.0 0.0 
0.0 0.0 0.0 
0.0 0.0 0.0 
0.0 0.0 0.0 
0.0 0.0 0.0 
0.0 0.0 0.0 
0.0 0.0 0.0 
0.0 0.0 0.0 
0.0 0.0 0.0 
0.0 0.0 0.0 
0.0 0.0 0.0 
0.0 0.0 0.0 
0.0 -1.000000000000e+02 0.0 
0.0 0.0 0.0 
0.0 0.0 0.0 
0.0 0.0 0.0 
0.0 0.0 0.0 
0.0 0.0 0.0 
0.0 0.0 0.0 
0.0 0.0 0.0 
0.0 0.0 0.0 
0.0 0.0 0.0 
0.0 0.0 0.0 
0.0 0.0 0.0 
0.0 0.0 0.0 
0.0 0.0 0.0 
0.0 0.0 0.0 
0.0 0.0 0.0 
0.0 0.0 0.0 
0.0 0.0 0.0 
0.0 0.0 0.0 
0.0 0.0 0.0 
0.0 0.0 0.0 
0.0 0.0 0.0 
0.0 0.0 0.0 
0.0 0.0 0.0 
0.0 0.0 0.0 
0.0 0.0 0.0 
0.0 0.0 0.0 
0.0 0.0 0.0 
0.0 0.0 0.0 
0.0 0.0 0.0 
0.0 0.0 0.0 
0.0 -1.000000000000e+02 0.0 
0.0 -1.000000000000e+02 0.0 
0.0 -1.000000000000e+02 0.0 
0.0 -1.000000000000e+02 0.0 
0.0 -1.000000000000e+02 0.0 
0.0 0.0 0.0 
0.0 0.0 0.0 
0.0 0.0 0.0 
0.0 0.0 0.0 
0.0 0.0 0.0 
0.0 0.0 0.0 
0.0 0.0 0.0 
0.0 0.0 0.0 
0.0 0.0 0.0 
0.0 0.0 0.0 
0.0 0.0 0.0 
0.0 0.0 0.0 
0.0 0.0 0.0 
0.0 0.0 0.0 
0.0 0.0 0.0 
0.0 0.0 0.0 
0.0 0.0 0.0 
0.0 0.0 0.0 
0.0 0.0 0.0 
0.0 0.0 0.0 
0.0 0.0 0.0 
0.0 0.0 0.0 
0.0 0.0 0.0 
0.0 0.0 0.0 
0.0 0.0 0.0 
0.0 0.0 0.0 
0.0 0.0 0.0 
0.0 0.0 0.0 
0.0 0.0 0.0 
0.0 0.0 0.0 
0.0 0.0 0.0 
0.0 0.0 0.0 
0.0 0.0 0.0 
0.0 0.0 0.0 
0.0 0.0 0.0 
0.0 0.0 0.0 
0.0 0.0 0.0 
0.0 0.0 0.0 
0.0 0.0 0.0 
0.0 0.0 0.0 
0.0 0.0 0.0 
0.0 0.0 0.0 
0.0 0.0 0.0 
0.0 0.0 0.0 
0.0 0.0 0.0 
0.0 0.0 0.0 
0.0 0.0 0.0 
0.0 0.0 0.0 
0.0 0.0 0.0 
0.0 0.0 0.0 
0.0 0.0 0.0 
0.0 0.0 0.0 
0.0 0.0 0.0 
0.0 0.0 0.0 
0.0 0.0 0.0 
0.0 0.0 0.0 
0.0 0.0 0.0 
0.0 0.0 0.0 
0.0 0.0 0.0 
0.0 0.0 0.0 
0.0 0.0 0.0 
0.0 0.0 0.0 
0.0 0.0 0.0 
0.0 0.0 0.0 
0.0 0.0 0.0 
0.0 0.0 0.0 
0.0 0.0 0.0 
0.0 0.0 0.0 
0.0 0.0 0.0 
0.0 0.0 0.0 
0.0 0.0 0.0 
0.0 0.0 0.0 
0.0 0.0 0.0 
0.0 0.0 0.0 
0.0 0.0 0.0 
0.0 0.0 0.0 
0.0 0.0 0.0 
0.0 0.0 0.0 
0.0 0.0 0.0 
0.0 0.0 0.0 
0.0 0.0 0.0 
0.0 0.0 0.0 
0.0 0.0 0.0 
0.0 0.0 0.0 
0.0 0.0 0.0 
0.0 0.0 0.0 
0.0 0.0 0.0 
0.0 0.0 0.0 
0.0 0.0 0.0 
0.0 0.0 0.0 
0.0 0.0 0.0 
0.0 0.0 0.0 
0.0 0.0 0.0 
0.0 0.0 0.0 
0.0 0.0 0.0 
0.0 0.0 0.0 
0.0 0.0 0.0 
0.0 0.0 0.0 
0.0 0.0 0.0 
0.0 0.0 0.0 
0.0 0.0 0.0 
0.0 0.0 0.0 
0.0 0.0 0.0 
0.0 0.0 0.0 
0.0 0.0 0.0 
0.0 0.0 0.0 
0.0 0.0 0.0 
0.0 0.0 0.0 
0.0 0.0 0.0 
0.0 0.0 0.0 
0.0 0.0 0.0 
0.0 0.0 0.0 
0.0 0.0 0.0 
0.0 0.0 0.0 
0.0 0.0 0.0 
0.0 0.0 0.0 
0.0 0.0 0.0 
0.0 0.0 0.0 
0.0 0.0 0.0 
0.0 0.0 0.0 
0.0 0.0 0.0 
0.0 0.0 0.0 
0.0 0.0 0.0 
0.0 0.0 0.0 
0.0 0.0 0.0 
0.0 0.0 0.0 
0.0 0.0 0.0 
0.0 0.0 0.0 
0.0 0.0 0.0 
0.0 0.0 0.0 
0.0 0.0 0.0 
0.0 0.0 0.0 
0.0 0.0 0.0 
0.0 0.0 0.0 
0.0 0.0 0.0 
0.0 0.0 0.0 
0.0 0.0 0.0 
0.0 0.0 0.0 
0.0 0.0 0.0 
0.0 0.0 0.0 
0.0 0.0 0.0 
0.0 0.0 0.0 
0.0 0.0 0.0 
0.0 0.0 0.0 
0.0 0.0 0.0 
0.0 0.0 0.0 
0.0 0.0 0.0 
0.0 0.0 0.0 
0.0 0.0 0.0 
0.0 0.0 0.0 
0.0 0.0 0.0 
0.0 0.0 0.0 
0.0 0.0 0.0 
0.0 0.0 0.0 
0.0 0.0 0.0 
0.0 0.0 0.0 
0.0 0.0 0.0 
0.0 0.0 0.0 
0.0 0.0 0.0 
0.0 0.0 0.0 
0.0 0.0 0.0 
0.0 0.0 0.0 
0.0 0.0 0.0 
0.0 0.0 0.0 
0.0 0.0 0.0 
0.0 0.0 0.0 
0.0 0.0 0.0 
0.0 0.0 0.0 
0.0 0.0 0.0 
0.0 0.0 0.0 
0.0 0.0 0.0 
0.0 0.0 0.0 
0.0 0.0 0.0 
0.0 0.0 0.0 
0.0 0.0 0.0 
0.0 0.0 0.0 
0.0 0.0 0.0 
0.0 0.0 0.0 
0.0 0.0 0.0 
0.0 0.0 0.0 
0.0 0.0 0.0 
0.0 0.0 0.0 
0.0 0.0 0.0 
0.0 0.0 0.0 
0.0 0.0 0.0 
0.0 0.0 0.0 
0.0 0.0 0.0 
0.0 0.0 0.0 
0.0 0.0 0.0 
0.0 0.0 0.0 
0.0 0.0 0.0 
0.0 0.0 0.0 
0.0 0.0 0.0 
0.0 0.0 0.0 
0.0 0.0 0.0 
0.0 0.0 0.0 
0.0 0.0 0.0 
0.0 0.0 0.0 
0.0 0.0 0.0 
0.0 0.0 0.0 
0.0 0.0 0.0 
0.0 0.0 0.0 
0.0 0.0 0.0 
0.0 0.0 0.0 
0.0 0.0 0.0 
0.0 0.0 0.0 
0.0 0.0 0.0 
0.0 0.0 0.0 
0.0 0.0 0.0 
0.0 0.0 0.0 
0.0 0.0 0.0 
0.0 0.0 0.0 
0.0 0.0 0.0 
0.0 0.0 0.0 
0.0 0.0 0.0 
0.0 0.0 0.0 
0.0 0.0 0.0 
0.0 0.0 0.0 
0.0 0.0 0.0 
0.0 0.0 0.0 
0.0 0.0 0.0 
0.0 0.0 0.0 
0.0 0.0 0.0 
0.0 0.0 0.0 
0.0 0.0 0.0 
0.0 0.0 0.0 
0.0 0.0 0.0 
0.0 0.0 0.0 
0.0 0.0 0.0 
0.0 0.0 0.0 
0.0 0.0 0.0 
0.0 0.0 0.0 
0.0 0.0 0.0 
0.0 0.0 0.0 
0.0 0.0 0.0 
0.0 0.0 0.0 
0.0 0.0 0.0 
0.0 0.0 0.0 
0.0 0.0 0.0 
0.0 0.0 0.0 
0.0 0.0 0.0 
0.0 0.0 0.0 
0.0 0.0 0.0 
0.0 0.0 0.0 
0.0 0.0 0.0 
0.0 0.0 0.0 
0.0 0.0 0.0 
0.0 0.0 0.0 
0.0 0.0 0.0 
0.0 0.0 0.0 
0.0 0.0 0.0 
0.0 0.0 0.0 
0.0 0.0 0.0 
0.0 0.0 0.0 
0.0 0.0 0.0 
0.0 0.0 0.0 
0.0 0.0 0.0 
0.0 0.0 0.0 
0.0 0.0 0.0 
0.0 0.0 0.0 
0.0 0.0 0.0 
0.0 0.0 0.0 
0.0 0.0 0.0 
0.0 0.0 0.0 
0.0 0.0 0.0 
0.0 0.0 0.0 
0.0 0.0 0.0 
0.0 0.0 0.0 
0.0 0.0 0.0 
0.0 0.0 0.0 
0.0 0.0 0.0 
0.0 0.0 0.0 
0.0 0.0 0.0 
0.0 0.0 0.0 
0.0 0.0 0.0 
0.0 0.0 0.0 
0.0 0.0 0.0 
0.0 0.0 0.0 
0.0 0.0 0.0 
0.0 0.0 0.0 
0.0 0.0 0.0 
0.0 0.0 0.0 
0.0 0.0 0.0 
0.0 0.0 0.0 
0.0 0.0 0.0 
0.0 0.0 0.0 
0.0 0.0 0.0 
0.0 0.0 0.0 
0.0 0.0 0.0 
0.0 0.0 0.0 
0.0 0.0 0.0 
0.0 0.0 0.0 
0.0 0.0 0.0 
0.0 0.0 0.0 
0.0 0.0 0.0 
0.0 0.0 0.0 
0.0 0.0 0.0 
0.0 0.0 0.0 
0.0 0.0 0.0 
0.0 0.0 0.0 
0.0 0.0 0.0 
0.0 0.0 0.0 
0.0 0.0 0.0 
0.0 0.0 0.0 
0.0 0.0 0.0 
0.0 0.0 0.0 
0.0 0.0 0.0 
0.0 0.0 0.0 
0.0 0.0 0.0 
0.0 0.0 0.0 
0.0 0.0 0.0 
0.0 0.0 0.0 
0.0 0.0 0.0 
0.0 0.0 0.0 
0.0 0.0 0.0 
0.0 0.0 0.0 
0.0 0.0 0.0 
0.0 0.0 0.0 
0.0 0.0 0.0 
0.0 0.0 0.0 
0.0 0.0 0.0 
0.0 0.0 0.0 
0.0 0.0 0.0 
0.0 0.0 0.0 
0.0 0.0 0.0 
0.0 0.0 0.0 
0.0 0.0 0.0 
0.0 0.0 0.0 
0.0 0.0 0.0 
0.0 0.0 0.0 
0.0 0.0 0.0 
0.0 0.0 0.0 
0.0 0.0 0.0 
0.0 0.0 0.0 
0.0 0.0 0.0 
0.0 0.0 0.0 
0.0 0.0 0.0 
0.0 0.0 0.0 
0.0 0.0 0.0 
0.0 0.0 0.0 
0.0 0.0 0.0 
0.0 0.0 0.0 
0.0 0.0 0.0 
0.0 0.0 0.0 
0.0 0.0 0.0 
0.0 0.0 0.0 
0.0 0.0 0.0 
0.0 0.0 0.0 
0.0 0.0 0.0 
0.0 0.0 0.0 
0.0 0.0 0.0 
0.0 0.0 0.0 
0.0 0.0 0.0 
0.0 0.0 0.0 
0.0 0.0 0.0 
0.0 0.0 0.0 
0.0 0.0 0.0 
0.0 0.0 0.0 
0.0 0.0 0.0 
0.0 0.0 0.0 
0.0 0.0 0.0 
0.0 0.0 0.0 
0.0 0.0 0.0 
0.0 0.0 0.0 
0.0 0.0 0.0 
0.0 0.0 0.0 
0.0 0.0 0.0 
0.0 0.0 0.0 
0.0 0.0 0.0 
0.0 0.0 0.0 
0.0 0.0 0.0 
0.0 0.0 0.0 
0.0 0.0 0.0 
0.0 0.0 0.0 
0.0 0.0 0.0 
0.0 0.0 0.0 
0.0 0.0 0.0 
0.0 0.0 0.0 
0.0 0.0 0.0 
0.0 0.0 0.0 
0.0 0.0 0.0 
0.0 0.0 0.0 
0.0 0.0 0.0 
0.0 0.0 0.0 
0.0 0.0 0.0 
0.0 0.0 0.0 
0.0 0.0 0.0 
0.0 0.0 0.0 
0.0 0.0 0.0 
0.0 0.0 0.0 
0.0 0.0 0.0 
0.0 0.0 0.0 
0.0 0.0 0.0 
0.0 0.0 0.0 
0.0 0.0 0.0 
0.0 0.0 0.0 
0.0 0.0 0.0 
0.0 0.0 0.0 
0.0 0.0 0.0 
0.0 0.0 0.0 
0.0 0.0 0.0 
0.0 0.0 0.0 
0.0 0.0 0.0 
0.0 0.0 0.0 
0.0 0.0 0.0 
0.0 0.0 0.0 
0.0 0.0 0.0 
0.0 0.0 0.0 
0.0 0.0 0.0 
0.0 0.0 0.0 
0.0 0.0 0.0 
0.0 0.0 0.0 
0.0 0.0 0.0 
0.0 0.0 0.0 
0.0 0.0 0.0 
0.0 0.0 0.0 
0.0 0.0 0.0 
0.0 0.0 0.0 
0.0 0.0 0.0 
0.0 0.0 0.0 
0.0 0.0 0.0 
0.0 0.0 0.0 
0.0 0.0 0.0 
0.0 0.0 0.0 
0.0 0.0 0.0 
0.0 0.0 0.0 
0.0 0.0 0.0 
0.0 0.0 0.0 
0.0 0.0 0.0 
0.0 0.0 0.0 
0.0 0.0 0.0 
0.0 0.0 0.0 
0.0 0.0 0.0 
0.0 0.0 0.0 
0.0 0.0 0.0 
0.0 0.0 0.0 
0.0 0.0 0.0 
0.0 0.0 0.0 
0.0 0.0 0.0 
0.0 0.0 0.0 
0.0 0.0 0.0 
0.0 0.0 0.0 
0.0 0.0 0.0 
0.0 0.0 0.0 
0.0 0.0 0.0 
0.0 0.0 0.0 
0.0 0.0 0.0 
0.0 0.0 0.0 
0.0 0.0 0.0 
0.0 0.0 0.0 
0.0 0.0 0.0 
0.0 0.0 0.0 
0.0 0.0 0.0 
0.0 0.0 0.0 
0.0 0.0 0.0 
0.0 0.0 0.0 
0.0 0.0 0.0 
0.0 0.0 0.0 
0.0 0.0 0.0 
0.0 0.0 0.0 
0.0 0.0 0.0 
0.0 0.0 0.0 
0.0 0.0 0.0 
0.0 0.0 0.0 
0.0 0.0 0.0 
0.0 0.0 0.0 
0.0 0.0 0.0 
0.0 0.0 0.0 
0.0 0.0 0.0 
0.0 0.0 0.0 
0.0 0.0 0.0 
0.0 0.0 0.0 
0.0 0.0 0.0 
0.0 0.0 0.0 
0.0 0.0 0.0 
0.0 0.0 0.0 
0.0 0.0 0.0 
0.0 0.0 0.0 
0.0 0.0 0.0 
0.0 0.0 0.0 
0.0 0.0 0.0 
0.0 0.0 0.0 
0.0 0.0 0.0 
0.0 0.0 0.0 
0.0 0.0 0.0 
0.0 0.0 0.0 
0.0 0.0 0.0 
0.0 0.0 0.0 
0.0 0.0 0.0 
0.0 0.0 0.0 
0.0 0.0 0.0 
0.0 0.0 0.0 
0.0 0.0 0.0 
0.0 0.0 0.0 
0.0 0.0 0.0 
0.0 0.0 0.0 
0.0 0.0 0.0 
0.0 0.0 0.0 
0.0 0.0 0.0 
0.0 0.0 0.0 
0.0 0.0 0.0 
0.0 0.0 0.0 
0.0 0.0 0.0 
0.0 0.0 0.0 
0.0 0.0 0.0 
0.0 0.0 0.0 
0.0 0.0 0.0 
0.0 0.0 0.0 
0.0 0.0 0.0 
0.0 0.0 0.0 
0.0 0.0 0.0 
0.0 0.0 0.0 
0.0 0.0 0.0 
0.0 0.0 0.0 
0.0 0.0 0.0 
0.0 0.0 0.0 
0.0 0.0 0.0 
0.0 0.0 0.0 
0.0 0.0 0.0 
0.0 0.0 0.0 
0.0 0.0 0.0 
0.0 0.0 0.0 
0.0 0.0 0.0 
0.0 0.0 0.0 
0.0 0.0 0.0 
0.0 0.0 0.0 
0.0 0.0 0.0 
0.0 0.0 0.0 
0.0 0.0 0.0 
0.0 0.0 0.0 
0.0 0.0 0.0 
0.0 0.0 0.0 
0.0 0.0 0.0 
0.0 0.0 0.0 
0.0 0.0 0.0 
0.0 0.0 0.0 
0.0 0.0 0.0 
0.0 0.0 0.0 
0.0 0.0 0.0 
0.0 0.0 0.0 
0.0 0.0 0.0 
0.0 0.0 0.0 
0.0 0.0 0.0 
0.0 0.0 0.0 
0.0 0.0 0.0 
0.0 0.0 0.0 
0.0 0.0 0.0 
0.0 0.0 0.0 
0.0 0.0 0.0 
0.0 0.0 0.0 
0.0 0.0 0.0 
0.0 0.0 0.0 
0.0 0.0 0.0 
0.0 0.0 0.0 
0.0 0.0 0.0 
0.0 0.0 0.0 
0.0 0.0 0.0 
0.0 0.0 0.0 
0.0 0.0 0.0 
0.0 0.0 0.0 
0.0 0.0 0.0 
0.0 0.0 0.0 
0.0 0.0 0.0 
0.0 0.0 0.0 
0.0 0.0 0.0 
0.0 0.0 0.0 
0.0 0.0 0.0 
0.0 0.0 0.0 
0.0 0.0 0.0 
0.0 0.0 0.0 
0.0 0.0 0.0 
0.0 0.0 0.0 
0.0 0.0 0.0 
0.0 0.0 0.0 
0.0 0.0 0.0 
0.0 0.0 0.0 
0.0 0.0 0.0 
0.0 0.0 0.0 
0.0 0.0 0.0 
0.0 0.0 0.0 
0.0 0.0 0.0 
0.0 0.0 0.0 
0.0 0.0 0.0 
0.0 0.0 0.0 
0.0 0.0 0.0 
0.0 0.0 0.0 
0.0 0.0 0.0 
0.0 0.0 0.0 
0.0 0.0 0.0 
0.0 0.0 0.0 
0.0 0.0 0.0 
0.0 0.0 0.0 
0.0 0.0 0.0 
0.0 0.0 0.0 
0.0 0.0 0.0 
0.0 0.0 0.0 
0.0 0.0 0.0 
0.0 0.0 0.0 
0.0 0.0 0.0 
0.0 0.0 0.0 
0.0 0.0 0.0 
0.0 0.0 0.0 
0.0 0.0 0.0 
0.0 0.0 0.0 
0.0 0.0 0.0 
0.0 0.0 0.0 
0.0 0.0 0.0 
0.0 0.0 0.0 
0.0 0.0 0.0 
0.0 0.0 0.0 
0.0 0.0 0.0 
0.0 0.0 0.0 
0.0 0.0 0.0 
0.0 0.0 0.0 
0.0 0.0 0.0 
0.0 0.0 0.0 
0.0 0.0 0.0 
0.0 0.0 0.0 
0.0 0.0 0.0 
0.0 0.0 0.0 
0.0 0.0 0.0 
0.0 0.0 0.0 
0.0 0.0 0.0 
0.0 0.0 0.0 
0.0 0.0 0.0 
0.0 0.0 0.0 
0.0 0.0 0.0 
0.0 0.0 0.0 
0.0 0.0 0.0 
0.0 0.0 0.0 
0.0 0.0 0.0 
0.0 0.0 0.0 
0.0 0.0 0.0 
0.0 0.0 0.0 
0.0 0.0 0.0 
0.0 0.0 0.0 
0.0 0.0 0.0 
0.0 0.0 0.0 
0.0 0.0 0.0 
0.0 0.0 0.0 
0.0 0.0 0.0 
0.0 0.0 0.0 
0.0 0.0 0.0 
0.0 0.0 0.0 
0.0 0.0 0.0 
0.0 0.0 0.0 
0.0 0.0 0.0 
0.0 0.0 0.0 
0.0 0.0 0.0 
0.0 0.0 0.0 
0.0 0.0 0.0 
0.0 0.0 0.0 
0.0 0.0 0.0 
0.0 0.0 0.0 
0.0 0.0 0.0 
0.0 0.0 0.0 
0.0 0.0 0.0 
0.0 0.0 0.0 
0.0 0.0 0.0 
0.0 0.0 0.0 
0.0 0.0 0.0 
0.0 0.0 0.0 
0.0 0.0 0.0 
0.0 0.0 0.0 
0.0 0.0 0.0 
0.0 0.0 0.0 
0.0 0.0 0.0 
0.0 0.0 0.0 
0.0 0.0 0.0 
0.0 0.0 0.0 
0.0 0.0 0.0 
0.0 0.0 0.0 
0.0 0.0 0.0 
0.0 0.0 0.0 
0.0 0.0 0.0 
0.0 0.0 0.0 
0.0 0.0 0.0 
0.0 0.0 0.0 
0.0 0.0 0.0 
0.0 0.0 0.0 
0.0 0.0 0.0 
0.0 0.0 0.0 
0.0 0.0 0.0 
0.0 0.0 0.0 
0.0 0.0 0.0 
0.0 0.0 0.0 
0.0 0.0 0.0 
0.0 0.0 0.0 
0.0 0.0 0.0 
0.0 0.0 0.0 
0.0 0.0 0.0 
0.0 0.0 0.0 
0.0 0.0 0.0 
0.0 0.0 0.0 
0.0 0.0 0.0 
0.0 0.0 0.0 
0.0 0.0 0.0 
0.0 0.0 0.0 
0.0 0.0 0.0 
0.0 0.0 0.0 
0.0 0.0 0.0 
0.0 0.0 0.0 
0.0 0.0 0.0 
0.0 0.0 0.0 
0.0 0.0 0.0 
0.0 0.0 0.0 
0.0 0.0 0.0 
0.0 0.0 0.0 
0.0 0.0 0.0 
0.0 0.0 0.0 
0.0 0.0 0.0 
0.0 0.0 0.0 
0.0 0.0 0.0 
0.0 0.0 0.0 
0.0 0.0 0.0 
0.0 0.0 0.0 
0.0 0.0 0.0 
0.0 0.0 0.0 
0.0 0.0 0.0 
0.0 0.0 0.0 
0.0 0.0 0.0 
0.0 0.0 0.0 
0.0 0.0 0.0 
0.0 0.0 0.0 
0.0 0.0 0.0 
0.0 0.0 0.0 
0.0 0.0 0.0 
0.0 0.0 0.0 
0.0 0.0 0.0 
0.0 0.0 0.0 
0.0 0.0 0.0 
0.0 0.0 0.0 
0.0 0.0 0.0 
0.0 0.0 0.0 
0.0 0.0 0.0 
0.0 0.0 0.0 
0.0 0.0 0.0 
0.0 0.0 0.0 
0.0 0.0 0.0 
0.0 0.0 0.0 
0.0 0.0 0.0 
0.0 0.0 0.0 
0.0 0.0 0.0 
0.0 0.0 0.0 
0.0 0.0 0.0 
0.0 0.0 0.0 
0.0 0.0 0.0 
0.0 0.0 0.0 
0.0 0.0 0.0 
0.0 0.0 0.0 
0.0 0.0 0.0 
0.0 0.0 0.0 
0.0 0.0 0.0 
0.0 0.0 0.0 
0.0 0.0 0.0 
0.0 0.0 0.0 
0.0 0.0 0.0 
0.0 0.0 0.0 
0.0 0.0 0.0 
0.0 0.0 0.0 
0.0 0.0 0.0 
0.0 0.0 0.0 
0.0 0.0 0.0 
0.0 0.0 0.0 
0.0 0.0 0.0 
0.0 0.0 0.0 
0.0 0.0 0.0 
0.0 0.0 0.0 
0.0 0.0 0.0 
0.0 0.0 0.0 
0.0 0.0 0.0 
0.0 0.0 0.0 
0.0 0.0 0.0 
0.0 0.0 0.0 
0.0 0.0 0.0 
0.0 0.0 0.0 
0.0 0.0 0.0 
0.0 0.0 0.0 
0.0 0.0 0.0 
0.0 0.0 0.0 
0.0 0.0 0.0 
0.0 0.0 0.0 
0.0 0.0 0.0 
0.0 0.0 0.0 
0.0 0.0 0.0 
0.0 0.0 0.0 
0.0 0.0 0.0 
0.0 0.0 0.0 
0.0 0.0 0.0 
0.0 0.0 0.0 
0.0 0.0 0.0 
0.0 0.0 0.0 
0.0 0.0 0.0 
0.0 0.0 0.0 
0.0 0.0 0.0 
0.0 0.0 0.0 
0.0 0.0 0.0 
0.0 0.0 0.0 
0.0 0.0 0.0 
0.0 0.0 0.0 
0.0 0.0 0.0 
0.0 0.0 0.0 
0.0 0.0 0.0 
0.0 0.0 0.0 
0.0 0.0 0.0 
0.0 0.0 0.0 
0.0 0.0 0.0 
0.0 0.0 0.0 
0.0 0.0 0.0 
0.0 0.0 0.0 
0.0 0.0 0.0 
0.0 0.0 0.0 
0.0 0.0 0.0 
0.0 0.0 0.0 
0.0 0.0 0.0 
0.0 0.0 0.0 
0.0 0.0 0.0 
0.0 0.0 0.0 
0.0 0.0 0.0 
0.0 0.0 0.0 
0.0 0.0 0.0 
0.0 0.0 0.0 
0.0 0.0 0.0 
0.0 0.0 0.0 
0.0 0.0 0.0 
0.0 0.0 0.0 
0.0 0.0 0.0 
0.0 0.0 0.0 
0.0 0.0 0.0 
0.0 0.0 0.0 
0.0 0.0 0.0 
0.0 0.0 0.0 
0.0 0.0 0.0 
0.0 0.0 0.0 
0.0 0.0 0.0 
0.0 0.0 0.0 
0.0 0.0 0.0 
0.0 0.0 0.0 
0.0 0.0 0.0 
0.0 0.0 0.0 
0.0 0.0 0.0 
0.0 0.0 0.0 
0.0 0.0 0.0 
0.0 0.0 0.0 
0.0 0.0 0.0 
0.0 0.0 0.0 
0.0 0.0 0.0 
0.0 0.0 0.0 
0.0 0.0 0.0 
0.0 0.0 0.0 
0.0 0.0 0.0 
0.0 0.0 0.0 
0.0 0.0 0.0 
0.0 0.0 0.0 
0.0 0.0 0.0 
0.0 0.0 0.0 
0.0 0.0 0.0 
0.0 0.0 0.0 
0.0 0.0 0.0 
0.0 0.0 0.0 
0.0 0.0 0.0 
0.0 0.0 0.0 
0.0 0.0 0.0 
0.0 0.0 0.0 
0.0 0.0 0.0 
0.0 0.0 0.0 
0.0 0.0 0.0 
0.0 0.0 0.0 
0.0 0.0 0.0 
0.0 0.0 0.0 
0.0 0.0 0.0 
0.0 0.0 0.0 
0.0 0.0 0.0 
0.0 0.0 0.0 
0.0 0.0 0.0 
0.0 0.0 0.0 
0.0 0.0 0.0 
0.0 0.0 0.0 
0.0 0.0 0.0 
0.0 0.0 0.0 
0.0 0.0 0.0 
0.0 0.0 0.0 
0.0 0.0 0.0 
0.0 0.0 0.0 
0.0 0.0 0.0 
0.0 0.0 0.0 
0.0 0.0 0.0 
0.0 0.0 0.0 
0.0 0.0 0.0 
0.0 0.0 0.0 
0.0 0.0 0.0 
0.0 0.0 0.0 
0.0 0.0 0.0 
0.0 0.0 0.0 
0.0 0.0 0.0 
0.0 0.0 0.0 
0.0 0.0 0.0 
0.0 0.0 0.0 
0.0 0.0 0.0 
0.0 0.0 0.0 
0.0 0.0 0.0 
0.0 0.0 0.0 
0.0 0.0 0.0 
0.0 0.0 0.0 
0.0 0.0 0.0 
0.0 0.0 0.0 
0.0 0.0 0.0 
0.0 0.0 0.0 
0.0 0.0 0.0 
0.0 0.0 0.0 
0.0 0.0 0.0 
0.0 0.0 0.0 
0.0 0.0 0.0 
0.0 0.0 0.0 
0.0 0.0 0.0 
0.0 0.0 0.0 
0.0 0.0 0.0 
0.0 0.0 0.0 
0.0 0.0 0.0 
0.0 0.0 0.0 
0.0 0.0 0.0 
0.0 0.0 0.0 
0.0 0.0 0.0 
0.0 0.0 0.0 
0.0 0.0 0.0 
0.0 0.0 0.0 
0.0 0.0 0.0 
0.0 0.0 0.0 
0.0 0.0 0.0 
0.0 0.0 0.0 
0.0 0.0 0.0 
0.0 0.0 0.0 
0.0 0.0 0.0 
0.0 0.0 0.0 
0.0 0.0 0.0 
0.0 0.0 0.0 
0.0 0.0 0.0 
0.0 0.0 0.0 
0.0 0.0 0.0 
0.0 0.0 0.0 
0.0 0.0 0.0 
0.0 0.0 0.0 
0.0 0.0 0.0 
0.0 0.0 0.0 
0.0 0.0 0.0 
0.0 0.0 0.0 
0.0 0.0 0.0 
0.0 0.0 0.0 
0.0 0.0 0.0 
0.0 0.0 0.0 
0.0 0.0 0.0 
0.0 0.0 0.0 
0.0 0.0 0.0 
0.0 0.0 0.0 
0.0 0.0 0.0 
0.0 0.0 0.0 
0.0 0.0 0.0 
0.0 0.0 0.0 
0.0 0.0 0.0 
0.0 0.0 0.0 
0.0 0.0 0.0 
0.0 0.0 0.0 
0.0 0.0 0.0 
0.0 0.0 0.0 
0.0 0.0 0.0 
0.0 0.0 0.0 
0.0 0.0 0.0 
0.0 0.0 0.0 
0.0 0.0 0.0 
0.0 0.0 0.0 
0.0 0.0 0.0 
0.0 0.0 0.0 
0.0 0.0 0.0 
0.0 0.0 0.0 
0.0 0.0 0.0 
0.0 0.0 0.0 
0.0 0.0 0.0 
0.0 0.0 0.0 
0.0 0.0 0.0 
0.0 0.0 0.0 
0.0 0.0 0.0 
0.0 0.0 0.0 
0.0 0.0 0.0 
0.0 0.0 0.0 
0.0 0.0 0.0 
0.0 0.0 0.0 
0.0 0.0 0.0 
0.0 0.0 0.0 
0.0 0.0 0.0 
0.0 0.0 0.0 
0.0 0.0 0.0 
0.0 0.0 0.0 
0.0 0.0 0.0 
0.0 0.0 0.0 
0.0 0.0 0.0 
0.0 0.0 0.0 
0.0 0.0 0.0 
0.0 0.0 0.0 
0.0 0.0 0.0 
0.0 0.0 0.0 
0.0 0.0 0.0 
0.0 0.0 0.0 
0.0 0.0 0.0 
0.0 0.0 0.0 
0.0 0.0 0.0 
0.0 0.0 0.0 
0.0 0.0 0.0 
0.0 0.0 0.0 
0.0 0.0 0.0 
0.0 0.0 0.0 
0.0 0.0 0.0 
0.0 0.0 0.0 
0.0 0.0 0.0 
0.0 0.0 0.0 
0.0 0.0 0.0 
0.0 0.0 0.0 
0.0 0.0 0.0 
0.0 0.0 0.0 
0.0 0.0 0.0 
0.0 0.0 0.0 
0.0 0.0 0.0 
0.0 0.0 0.0 
0.0 0.0 0.0 
0.0 0.0 0.0 
0.0 0.0 0.0 
0.0 0.0 0.0 
0.0 0.0 0.0 
0.0 0.0 0.0 
0.0 0.0 0.0 
0.0 0.0 0.0 
0.0 0.0 0.0 
0.0 0.0 0.0 
0.0 0.0 0.0 
0.0 0.0 0.0 
0.0 0.0 0.0 
0.0 0.0 0.0 
0.0 0.0 0.0 
0.0 0.0 0.0 
0.0 0.0 0.0 
0.0 0.0 0.0 
0.0 0.0 0.0 
0.0 0.0 0.0 
0.0 0.0 0.0 
0.0 0.0 0.0 
0.0 0.0 0.0 
0.0 0.0 0.0 

VECTORS node_force_gravity float
0.0 -1.962000000000e+01 0.0 
0.0 -1.962000000000e+01 0.0 
0.0 -1.962000000000e+01 0.0 
0.0 -1.962000000000e+01 0.0 
0.0 -1.962000000000e+01 0.0 
0.0 -1.962000000000e+01 0.0 
0.0 -1.962000000000e+01 0.0 
0.0 -1.962000000000e+01 0.0 
0.0 -1.962000000000e+01 0.0 
0.0 -1.962000000000e+01 0.0 
0.0 -1.962000000000e+01 0.0 
0.0 -1.962000000000e+01 0.0 
0.0 -1.962000000000e+01 0.0 
0.0 -1.962000000000e+01 0.0 
0.0 -1.962000000000e+01 0.0 
0.0 -1.962000000000e+01 0.0 
0.0 -1.962000000000e+01 0.0 
0.0 -1.962000000000e+01 0.0 
0.0 -1.962000000000e+01 0.0 
0.0 -1.962000000000e+01 0.0 
0.0 -1.962000000000e+01 0.0 
0.0 -1.962000000000e+01 0.0 
0.0 -1.962000000000e+01 0.0 
0.0 -1.962000000000e+01 0.0 
0.0 -1.962000000000e+01 0.0 
0.0 -1.962000000000e+01 0.0 
0.0 -1.962000000000e+01 0.0 
0.0 -1.962000000000e+01 0.0 
0.0 -1.962000000000e+01 0.0 
0.0 -1.962000000000e+01 0.0 
0.0 -1.962000000000e+01 0.0 
0.0 -1.962000000000e+01 0.0 
0.0 -1.962000000000e+01 0.0 
0.0 -1.962000000000e+01 0.0 
0.0 -1.962000000000e+01 0.0 
0.0 -1.962000000000e+01 0.0 
0.0 -1.962000000000e+01 0.0 
0.0 -1.962000000000e+01 0.0 
0.0 -1.962000000000e+01 0.0 
0.0 -1.962000000000e+01 0.0 
0.0 -1.962000000000e+01 0.0 
0.0 -1.962000000000e+01 0.0 
0.0 -1.962000000000e+01 0.0 
0.0 -1.962000000000e+01 0.0 
0.0 -1.962000000000e+01 0.0 
0.0 -1.962000000000e+01 0.0 
0.0 -1.962000000000e+01 0.0 
0.0 -1.962000000000e+01 0.0 
0.0 -1.962000000000e+01 0.0 
0.0 -1.962000000000e+01 0.0 
0.0 -1.962000000000e+01 0.0 
0.0 -1.962000000000e+01 0.0 
0.0 -1.962000000000e+01 0.0 
0.0 -1.962000000000e+01 0.0 
0.0 -1.962000000000e+01 0.0 
0.0 -1.962000000000e+01 0.0 
0.0 -1.962000000000e+01 0.0 
0.0 -1.962000000000e+01 0.0 
0.0 -1.962000000000e+01 0.0 
0.0 -1.962000000000e+01 0.0 
0.0 -1.962000000000e+01 0.0 
0.0 -1.962000000000e+01 0.0 
0.0 -1.962000000000e+01 0.0 
0.0 -1.962000000000e+01 0.0 
0.0 -1.962000000000e+01 0.0 
0.0 -1.962000000000e+01 0.0 
0.0 -1.962000000000e+01 0.0 
0.0 -1.962000000000e+01 0.0 
0.0 -1.962000000000e+01 0.0 
0.0 -1.962000000000e+01 0.0 
0.0 -1.962000000000e+01 0.0 
0.0 -1.962000000000e+01 0.0 
0.0 -1.962000000000e+01 0.0 
0.0 -1.962000000000e+01 0.0 
0.0 -1.962000000000e+01 0.0 
0.0 -1.962000000000e+01 0.0 
0.0 -1.962000000000e+01 0.0 
0.0 -1.962000000000e+01 0.0 
0.0 -1.962000000000e+01 0.0 
0.0 -1.962000000000e+01 0.0 
0.0 -1.962000000000e+01 0.0 
0.0 -1.962000000000e+01 0.0 
0.0 -1.962000000000e+01 0.0 
0.0 -1.962000000000e+01 0.0 
0.0 -1.962000000000e+01 0.0 
0.0 -1.962000000000e+01 0.0 
0.0 -1.962000000000e+01 0.0 
0.0 -1.962000000000e+01 0.0 
0.0 -1.962000000000e+01 0.0 
0.0 -1.962000000000e+01 0.0 
0.0 -1.962000000000e+01 0.0 
0.0 -1.962000000000e+01 0.0 
0.0 -1.962000000000e+01 0.0 
0.0 -1.962000000000e+01 0.0 
0.0 -1.962000000000e+01 0.0 
0.0 -1.962000000000e+01 0.0 
0.0 -1.962000000000e+01 0.0 
0.0 -1.962000000000e+01 0.0 
0.0 -1.962000000000e+01 0.0 
0.0 -1.962000000000e+01 0.0 
0.0 -1.962000000000e+01 0.0 
0.0 -1.962000000000e+01 0.0 
0.0 -1.962000000000e+01 0.0 
0.0 -1.962000000000e+01 0.0 
0.0 -1.962000000000e+01 0.0 
0.0 -1.962000000000e+01 0.0 
0.0 -1.962000000000e+01 0.0 
0.0 -1.962000000000e+01 0.0 
0.0 -1.962000000000e+01 0.0 
0.0 -1.962000000000e+01 0.0 
0.0 -1.962000000000e+01 0.0 
0.0 -1.962000000000e+01 0.0 
0.0 -1.962000000000e+01 0.0 
0.0 -1.962000000000e+01 0.0 
0.0 -1.962000000000e+01 0.0 
0.0 -1.962000000000e+01 0.0 
0.0 -1.962000000000e+01 0.0 
0.0 -1.962000000000e+01 0.0 
0.0 -1.962000000000e+01 0.0 
0.0 -1.962000000000e+01 0.0 
0.0 -1.962000000000e+01 0.0 
0.0 -1.962000000000e+01 0.0 
0.0 -1.962000000000e+01 0.0 
0.0 -1.962000000000e+01 0.0 
0.0 -1.962000000000e+01 0.0 
0.0 -1.962000000000e+01 0.0 
0.0 -1.962000000000e+01 0.0 
0.0 -1.962000000000e+01 0.0 
0.0 -1.962000000000e+01 0.0 
0.0 -1.962000000000e+01 0.0 
0.0 -1.962000000000e+01 0.0 
0.0 -1.962000000000e+01 0.0 
0.0 -1.962000000000e+01 0.0 
0.0 -1.962000000000e+01 0.0 
0.0 -1.962000000000e+01 0.0 
0.0 -1.962000000000e+01 0.0 
0.0 -1.962000000000e+01 0.0 
0.0 -1.962000000000e+01 0.0 
0.0 -1.962000000000e+01 0.0 
0.0 -1.962000000000e+01 0.0 
0.0 -1.962000000000e+01 0.0 
0.0 -1.962000000000e+01 0.0 
0.0 -1.962000000000e+01 0.0 
0.0 -1.962000000000e+01 0.0 
0.0 -1.962000000000e+01 0.0 
0.0 -1.962000000000e+01 0.0 
0.0 -1.962000000000e+01 0.0 
0.0 -1.962000000000e+01 0.0 
0.0 -1.962000000000e+01 0.0 
0.0 -1.962000000000e+01 0.0 
0.0 -1.962000000000e+01 0.0 
0.0 -1.962000000000e+01 0.0 
0.0 -1.962000000000e+01 0.0 
0.0 -1.962000000000e+01 0.0 
0.0 -1.962000000000e+01 0.0 
0.0 -1.962000000000e+01 0.0 
0.0 -1.962000000000e+01 0.0 
0.0 -1.962000000000e+01 0.0 
0.0 -1.962000000000e+01 0.0 
0.0 -1.962000000000e+01 0.0 
0.0 -1.962000000000e+01 0.0 
0.0 -1.962000000000e+01 0.0 
0.0 -1.962000000000e+01 0.0 
0.0 -1.962000000000e+01 0.0 
0.0 -1.962000000000e+01 0.0 
0.0 -1.962000000000e+01 0.0 
0.0 -1.962000000000e+01 0.0 
0.0 -1.962000000000e+01 0.0 
0.0 -1.962000000000e+01 0.0 
0.0 -1.962000000000e+01 0.0 
0.0 -1.962000000000e+01 0.0 
0.0 -1.962000000000e+01 0.0 
0.0 -1.962000000000e+01 0.0 
0.0 -1.962000000000e+01 0.0 
0.0 -1.962000000000e+01 0.0 
0.0 -1.962000000000e+01 0.0 
0.0 -1.962000000000e+01 0.0 
0.0 -1.962000000000e+01 0.0 
0.0 -1.962000000000e+01 0.0 
0.0 -1.962000000000e+01 0.0 
0.0 -1.962000000000e+01 0.0 
0.0 -1.962000000000e+01 0.0 
0.0 -1.962000000000e+01 0.0 
0.0 -1.962000000000e+01 0.0 
0.0 -1.962000000000e+01 0.0 
0.0 -1.962000000000e+01 0.0 
0.0 -1.962000000000e+01 0.0 
0.0 -1.962000000000e+01 0.0 
0.0 -1.962000000000e+01 0.0 
0.0 -1.962000000000e+01 0.0 
0.0 -1.962000000000e+01 0.0 
0.0 -1.962000000000e+01 0.0 
0.0 -1.962000000000e+01 0.0 
0.0 -1.962000000000e+01 0.0 
0.0 -1.962000000000e+01 0.0 
0.0 -1.962000000000e+01 0.0 
0.0 -1.962000000000e+01 0.0 
0.0 -1.962000000000e+01 0.0 
0.0 -1.962000000000e+01 0.0 
0.0 -1.962000000000e+01 0.0 
0.0 -1.962000000000e+01 0.0 
0.0 -1.962000000000e+01 0.0 
0.0 -1.962000000000e+01 0.0 
0.0 -1.962000000000e+01 0.0 
0.0 -1.962000000000e+01 0.0 
0.0 -1.962000000000e+01 0.0 
0.0 -1.962000000000e+01 0.0 
0.0 -1.962000000000e+01 0.0 
0.0 -1.962000000000e+01 0.0 
0.0 -1.962000000000e+01 0.0 
0.0 -1.962000000000e+01 0.0 
0.0 -1.962000000000e+01 0.0 
0.0 -1.962000000000e+01 0.0 
0.0 -1.962000000000e+01 0.0 
0.0 -1.962000000000e+01 0.0 
0.0 -1.962000000000e+01 0.0 
0.0 -1.962000000000e+01 0.0 
0.0 -1.962000000000e+01 0.0 
0.0 -1.962000000000e+01 0.0 
0.0 -1.962000000000e+01 0.0 
0.0 -1.962000000000e+01 0.0 
0.0 -1.962000000000e+01 0.0 
0.0 -1.962000000000e+01 0.0 
0.0 -1.962000000000e+01 0.0 
0.0 -1.962000000000e+01 0.0 
0.0 -1.962000000000e+01 0.0 
0.0 -1.962000000000e+01 0.0 
0.0 -1.962000000000e+01 0.0 
0.0 -1.962000000000e+01 0.0 
0.0 -1.962000000000e+01 0.0 
0.0 -1.962000000000e+01 0.0 
0.0 -1.962000000000e+01 0.0 
0.0 -1.962000000000e+01 0.0 
0.0 -1.962000000000e+01 0.0 
0.0 -1.962000000000e+01 0.0 
0.0 -1.962000000000e+01 0.0 
0.0 -1.962000000000e+01 0.0 
0.0 -1.962000000000e+01 0.0 
0.0 -1.962000000000e+01 0.0 
0.0 -1.962000000000e+01 0.0 
0.0 -1.962000000000e+01 0.0 
0.0 -1.962000000000e+01 0.0 
0.0 -1.962000000000e+01 0.0 
0.0 -1.962000000000e+01 0.0 
0.0 -1.962000000000e+01 0.0 
0.0 -1.962000000000e+01 0.0 
0.0 -1.962000000000e+01 0.0 
0.0 -1.962000000000e+01 0.0 
0.0 -1.962000000000e+01 0.0 
0.0 -1.962000000000e+01 0.0 
0.0 -1.962000000000e+01 0.0 
0.0 -1.962000000000e+01 0.0 
0.0 -1.962000000000e+01 0.0 
0.0 -1.962000000000e+01 0.0 
0.0 -1.962000000000e+01 0.0 
0.0 -1.962000000000e+01 0.0 
0.0 -1.962000000000e+01 0.0 
0.0 -1.962000000000e+01 0.0 
0.0 -1.962000000000e+01 0.0 
0.0 -1.962000000000e+01 0.0 
0.0 -1.962000000000e+01 0.0 
0.0 -1.962000000000e+01 0.0 
0.0 -1.962000000000e+01 0.0 
0.0 -1.962000000000e+01 0.0 
0.0 -1.962000000000e+01 0.0 
0.0 -1.962000000000e+01 0.0 
0.0 -1.962000000000e+01 0.0 
0.0 -1.962000000000e+01 0.0 
0.0 -1.962000000000e+01 0.0 
0.0 -1.962000000000e+01 0.0 
0.0 -1.962000000000e+01 0.0 
0.0 -1.962000000000e+01 0.0 
0.0 -1.962000000000e+01 0.0 
0.0 -1.962000000000e+01 0.0 
0.0 -1.962000000000e+01 0.0 
0.0 -1.962000000000e+01 0.0 
0.0 -1.962000000000e+01 0.0 
0.0 -1.962000000000e+01 0.0 
0.0 -1.962000000000e+01 0.0 
0.0 -1.962000000000e+01 0.0 
0.0 -1.962000000000e+01 0.0 
0.0 -1.962000000000e+01 0.0 
0.0 -1.962000000000e+01 0.0 
0.0 -1.962000000000e+01 0.0 
0.0 -1.962000000000e+01 0.0 
0.0 -1.962000000000e+01 0.0 
0.0 -1.962000000000e+01 0.0 
0.0 -1.962000000000e+01 0.0 
0.0 -1.962000000000e+01 0.0 
0.0 -1.962000000000e+01 0.0 
0.0 -1.962000000000e+01 0.0 
0.0 -1.962000000000e+01 0.0 
0.0 -1.962000000000e+01 0.0 
0.0 -1.962000000000e+01 0.0 
0.0 -1.962000000000e+01 0.0 
0.0 -1.962000000000e+01 0.0 
0.0 -1.962000000000e+01 0.0 
0.0 -1.962000000000e+01 0.0 
0.0 -1.962000000000e+01 0.0 
0.0 -1.962000000000e+01 0.0 
0.0 -1.962000000000e+01 0.0 
0.0 -1.962000000000e+01 0.0 
0.0 -1.962000000000e+01 0.0 
0.0 -1.962000000000e+01 0.0 
0.0 -1.962000000000e+01 0.0 
0.0 -1.962000000000e+01 0.0 
0.0 -1.962000000000e+01 0.0 
0.0 -1.962000000000e+01 0.0 
0.0 -1.962000000000e+01 0.0 
0.0 -1.962000000000e+01 0.0 
0.0 -1.962000000000e+01 0.0 
0.0 -1.962000000000e+01 0.0 
0.0 -1.962000000000e+01 0.0 
0.0 -1.962000000000e+01 0.0 
0.0 -1.962000000000e+01 0.0 
0.0 -1.962000000000e+01 0.0 
0.0 -1.962000000000e+01 0.0 
0.0 -1.962000000000e+01 0.0 
0.0 -1.962000000000e+01 0.0 
0.0 -1.962000000000e+01 0.0 
0.0 -1.962000000000e+01 0.0 
0.0 -1.962000000000e+01 0.0 
0.0 -1.962000000000e+01 0.0 
0.0 -1.962000000000e+01 0.0 
0.0 -1.962000000000e+01 0.0 
0.0 -1.962000000000e+01 0.0 
0.0 -1.962000000000e+01 0.0 
0.0 -1.962000000000e+01 0.0 
0.0 -1.962000000000e+01 0.0 
0.0 -1.962000000000e+01 0.0 
0.0 -1.962000000000e+01 0.0 
0.0 -1.962000000000e+01 0.0 
0.0 -1.962000000000e+01 0.0 
0.0 -1.962000000000e+01 0.0 
0.0 -1.962000000000e+01 0.0 
0.0 -1.962000000000e+01 0.0 
0.0 -1.962000000000e+01 0.0 
0.0 -1.962000000000e+01 0.0 
0.0 -1.962000000000e+01 0.0 
0.0 -1.962000000000e+01 0.0 
0.0 -1.962000000000e+01 0.0 
0.0 -1.962000000000e+01 0.0 
0.0 -1.962000000000e+01 0.0 
0.0 -1.962000000000e+01 0.0 
0.0 -1.962000000000e+01 0.0 
0.0 -1.962000000000e+01 0.0 
0.0 -1.962000000000e+01 0.0 
0.0 -1.962000000000e+01 0.0 
0.0 -1.962000000000e+01 0.0 
0.0 -1.962000000000e+01 0.0 
0.0 -1.962000000000e+01 0.0 
0.0 -1.962000000000e+01 0.0 
0.0 -1.962000000000e+01 0.0 
0.0 -1.962000000000e+01 0.0 
0.0 -1.962000000000e+01 0.0 
0.0 -1.962000000000e+01 0.0 
0.0 -1.962000000000e+01 0.0 
0.0 -1.962000000000e+01 0.0 
0.0 -1.962000000000e+01 0.0 
0.0 -1.962000000000e+01 0.0 
0.0 -1.962000000000e+01 0.0 
0.0 -1.962000000000e+01 0.0 
0.0 -1.962000000000e+01 0.0 
0.0 -1.962000000000e+01 0.0 
0.0 -1.962000000000e+01 0.0 
0.0 -1.962000000000e+01 0.0 
0.0 -1.962000000000e+01 0.0 
0.0 -1.962000000000e+01 0.0 
0.0 -1.962000000000e+01 0.0 
0.0 -1.962000000000e+01 0.0 
0.0 -1.962000000000e+01 0.0 
0.0 -1.962000000000e+01 0.0 
0.0 -1.962000000000e+01 0.0 
0.0 -1.962000000000e+01 0.0 
0.0 -1.962000000000e+01 0.0 
0.0 -1.962000000000e+01 0.0 
0.0 -1.962000000000e+01 0.0 
0.0 -1.962000000000e+01 0.0 
0.0 -1.962000000000e+01 0.0 
0.0 -1.962000000000e+01 0.0 
0.0 -1.962000000000e+01 0.0 
0.0 -1.962000000000e+01 0.0 
0.0 -1.962000000000e+01 0.0 
0.0 -1.962000000000e+01 0.0 
0.0 -1.962000000000e+01 0.0 
0.0 -1.962000000000e+01 0.0 
0.0 -1.962000000000e+01 0.0 
0.0 -1.962000000000e+01 0.0 
0.0 -1.962000000000e+01 0.0 
0.0 -1.962000000000e+01 0.0 
0.0 -1.962000000000e+01 0.0 
0.0 -1.962000000000e+01 0.0 
0.0 -1.962000000000e+01 0.0 
0.0 -1.962000000000e+01 0.0 
0.0 -1.962000000000e+01 0.0 
0.0 -1.962000000000e+01 0.0 
0.0 -1.962000000000e+01 0.0 
0.0 -1.962000000000e+01 0.0 
0.0 -1.962000000000e+01 0.0 
0.0 -1.962000000000e+01 0.0 
0.0 -1.962000000000e+01 0.0 
0.0 -1.962000000000e+01 0.0 
0.0 -1.962000000000e+01 0.0 
0.0 -1.962000000000e+01 0.0 
0.0 -1.962000000000e+01 0.0 
0.0 -1.962000000000e+01 0.0 
0.0 -1.962000000000e+01 0.0 
0.0 -1.962000000000e+01 0.0 
0.0 -1.962000000000e+01 0.0 
0.0 -1.962000000000e+01 0.0 
0.0 -1.962000000000e+01 0.0 
0.0 -1.962000000000e+01 0.0 
0.0 -1.962000000000e+01 0.0 
0.0 -1.962000000000e+01 0.0 
0.0 -1.962000000000e+01 0.0 
0.0 -1.962000000000e+01 0.0 
0.0 -1.962000000000e+01 0.0 
0.0 -1.962000000000e+01 0.0 
0.0 -1.962000000000e+01 0.0 
0.0 -1.962000000000e+01 0.0 
0.0 -1.962000000000e+01 0.0 
0.0 -1.962000000000e+01 0.0 
0.0 -1.962000000000e+01 0.0 
0.0 -1.962000000000e+01 0.0 
0.0 -1.962000000000e+01 0.0 
0.0 -1.962000000000e+01 0.0 
0.0 -1.962000000000e+01 0.0 
0.0 -1.962000000000e+01 0.0 
0.0 -1.962000000000e+01 0.0 
0.0 -1.962000000000e+01 0.0 
0.0 -1.962000000000e+01 0.0 
0.0 -1.962000000000e+01 0.0 
0.0 -1.962000000000e+01 0.0 
0.0 -1.962000000000e+01 0.0 
0.0 -1.962000000000e+01 0.0 
0.0 -1.962000000000e+01 0.0 
0.0 -1.962000000000e+01 0.0 
0.0 -1.962000000000e+01 0.0 
0.0 -1.962000000000e+01 0.0 
0.0 -1.962000000000e+01 0.0 
0.0 -1.962000000000e+01 0.0 
0.0 -1.962000000000e+01 0.0 
0.0 -1.962000000000e+01 0.0 
0.0 -1.962000000000e+01 0.0 
0.0 -1.962000000000e+01 0.0 
0.0 -1.962000000000e+01 0.0 
0.0 -1.962000000000e+01 0.0 
0.0 -1.962000000000e+01 0.0 
0.0 -1.962000000000e+01 0.0 
0.0 -1.962000000000e+01 0.0 
0.0 -1.962000000000e+01 0.0 
0.0 -1.962000000000e+01 0.0 
0.0 -1.962000000000e+01 0.0 
0.0 -1.962000000000e+01 0.0 
0.0 -1.962000000000e+01 0.0 
0.0 -1.962000000000e+01 0.0 
0.0 -1.962000000000e+01 0.0 
0.0 -1.962000000000e+01 0.0 
0.0 -1.962000000000e+01 0.0 
0.0 -1.962000000000e+01 0.0 
0.0 -1.962000000000e+01 0.0 
0.0 -1.962000000000e+01 0.0 
0.0 -1.962000000000e+01 0.0 
0.0 -1.962000000000e+01 0.0 
0.0 -1.962000000000e+01 0.0 
0.0 -1.962000000000e+01 0.0 
0.0 -1.962000000000e+01 0.0 
0.0 -1.962000000000e+01 0.0 
0.0 -1.962000000000e+01 0.0 
0.0 -1.962000000000e+01 0.0 
0.0 -1.962000000000e+01 0.0 
0.0 -1.962000000000e+01 0.0 
0.0 -1.962000000000e+01 0.0 
0.0 -1.962000000000e+01 0.0 
0.0 -1.962000000000e+01 0.0 
0.0 -1.962000000000e+01 0.0 
0.0 -1.962000000000e+01 0.0 
0.0 -1.962000000000e+01 0.0 
0.0 -1.962000000000e+01 0.0 
0.0 -1.962000000000e+01 0.0 
0.0 -1.962000000000e+01 0.0 
0.0 -1.962000000000e+01 0.0 
0.0 -1.962000000000e+01 0.0 
0.0 -1.962000000000e+01 0.0 
0.0 -1.962000000000e+01 0.0 
0.0 -1.962000000000e+01 0.0 
0.0 -1.962000000000e+01 0.0 
0.0 -1.962000000000e+01 0.0 
0.0 -1.962000000000e+01 0.0 
0.0 -1.962000000000e+01 0.0 
0.0 -1.962000000000e+01 0.0 
0.0 -1.962000000000e+01 0.0 
0.0 -1.962000000000e+01 0.0 
0.0 -1.962000000000e+01 0.0 
0.0 -1.962000000000e+01 0.0 
0.0 -1.962000000000e+01 0.0 
0.0 -1.962000000000e+01 0.0 
0.0 -1.962000000000e+01 0.0 
0.0 -1.962000000000e+01 0.0 
0.0 -1.962000000000e+01 0.0 
0.0 -1.962000000000e+01 0.0 
0.0 -1.962000000000e+01 0.0 
0.0 -1.962000000000e+01 0.0 
0.0 -1.962000000000e+01 0.0 
0.0 -1.962000000000e+01 0.0 
0.0 -1.962000000000e+01 0.0 
0.0 -1.962000000000e+01 0.0 
0.0 -1.962000000000e+01 0.0 
0.0 -1.962000000000e+01 0.0 
0.0 -1.962000000000e+01 0.0 
0.0 -1.962000000000e+01 0.0 
0.0 -1.962000000000e+01 0.0 
0.0 -1.962000000000e+01 0.0 
0.0 -1.962000000000e+01 0.0 
0.0 -1.962000000000e+01 0.0 
0.0 -1.962000000000e+01 0.0 
0.0 -1.962000000000e+01 0.0 
0.0 -1.962000000000e+01 0.0 
0.0 -1.962000000000e+01 0.0 
0.0 -1.962000000000e+01 0.0 
0.0 -1.962000000000e+01 0.0 
0.0 -1.962000000000e+01 0.0 
0.0 -1.962000000000e+01 0.0 
0.0 -1.962000000000e+01 0.0 
0.0 -1.962000000000e+01 0.0 
0.0 -1.962000000000e+01 0.0 
0.0 -1.962000000000e+01 0.0 
0.0 -1.962000000000e+01 0.0 
0.0 -1.962000000000e+01 0.0 
0.0 -1.962000000000e+01 0.0 
0.0 -1.962000000000e+01 0.0 
0.0 -1.962000000000e+01 0.0 
0.0 -1.962000000000e+01 0.0 
0.0 -1.962000000000e+01 0.0 
0.0 -1.962000000000e+01 0.0 
0.0 -1.962000000000e+01 0.0 
0.0 -1.962000000000e+01 0.0 
0.0 -1.962000000000e+01 0.0 
0.0 -1.962000000000e+01 0.0 
0.0 -1.962000000000e+01 0.0 
0.0 -1.962000000000e+01 0.0 
0.0 -1.962000000000e+01 0.0 
0.0 -1.962000000000e+01 0.0 
0.0 -1.962000000000e+01 0.0 
0.0 -1.962000000000e+01 0.0 
0.0 -1.962000000000e+01 0.0 
0.0 -1.962000000000e+01 0.0 
0.0 -1.962000000000e+01 0.0 
0.0 -1.962000000000e+01 0.0 
0.0 -1.962000000000e+01 0.0 
0.0 -1.962000000000e+01 0.0 
0.0 -1.962000000000e+01 0.0 
0.0 -1.962000000000e+01 0.0 
0.0 -1.962000000000e+01 0.0 
0.0 -1.962000000000e+01 0.0 
0.0 -1.962000000000e+01 0.0 
0.0 -1.962000000000e+01 0.0 
0.0 -1.962000000000e+01 0.0 
0.0 -1.962000000000e+01 0.0 
0.0 -1.962000000000e+01 0.0 
0.0 -1.962000000000e+01 0.0 
0.0 -1.962000000000e+01 0.0 
0.0 -1.962000000000e+01 0.0 
0.0 -1.962000000000e+01 0.0 
0.0 -1.962000000000e+01 0.0 
0.0 -1.962000000000e+01 0.0 
0.0 -1.962000000000e+01 0.0 
0.0 -1.962000000000e+01 0.0 
0.0 -1.962000000000e+01 0.0 
0.0 -1.962000000000e+01 0.0 
0.0 -1.962000000000e+01 0.0 
0.0 -1.962000000000e+01 0.0 
0.0 -1.962000000000e+01 0.0 
0.0 -1.962000000000e+01 0.0 
0.0 -1.962000000000e+01 0.0 
0.0 -1.962000000000e+01 0.0 
0.0 -1.962000000000e+01 0.0 
0.0 -1.962000000000e+01 0.0 
0.0 -1.962000000000e+01 0.0 
0.0 -1.962000000000e+01 0.0 
0.0 -1.962000000000e+01 0.0 
0.0 -1.962000000000e+01 0.0 
0.0 -1.962000000000e+01 0.0 
0.0 -1.962000000000e+01 0.0 
0.0 -1.962000000000e+01 0.0 
0.0 -1.962000000000e+01 0.0 
0.0 -1.962000000000e+01 0.0 
0.0 -1.962000000000e+01 0.0 
0.0 -1.962000000000e+01 0.0 
0.0 -1.962000000000e+01 0.0 
0.0 -1.962000000000e+01 0.0 
0.0 -1.962000000000e+01 0.0 
0.0 -1.962000000000e+01 0.0 
0.0 -1.962000000000e+01 0.0 
0.0 -1.962000000000e+01 0.0 
0.0 -1.962000000000e+01 0.0 
0.0 -1.962000000000e+01 0.0 
0.0 -1.962000000000e+01 0.0 
0.0 -1.962000000000e+01 0.0 
0.0 -1.962000000000e+01 0.0 
0.0 -1.962000000000e+01 0.0 
0.0 -1.962000000000e+01 0.0 
0.0 -1.962000000000e+01 0.0 
0.0 -1.962000000000e+01 0.0 
0.0 -1.962000000000e+01 0.0 
0.0 -1.962000000000e+01 0.0 
0.0 -1.962000000000e+01 0.0 
0.0 -1.962000000000e+01 0.0 
0.0 -1.962000000000e+01 0.0 
0.0 -1.962000000000e+01 0.0 
0.0 -1.962000000000e+01 0.0 
0.0 -1.962000000000e+01 0.0 
0.0 -1.962000000000e+01 0.0 
0.0 -1.962000000000e+01 0.0 
0.0 -1.962000000000e+01 0.0 
0.0 -1.962000000000e+01 0.0 
0.0 -1.962000000000e+01 0.0 
0.0 -1.962000000000e+01 0.0 
0.0 -1.962000000000e+01 0.0 
0.0 -1.962000000000e+01 0.0 
0.0 -1.962000000000e+01 0.0 
0.0 -1.962000000000e+01 0.0 
0.0 -1.962000000000e+01 0.0 
0.0 -1.962000000000e+01 0.0 
0.0 -1.962000000000e+01 0.0 
0.0 -1.962000000000e+01 0.0 
0.0 -1.962000000000e+01 0.0 
0.0 -1.962000000000e+01 0.0 
0.0 -1.962000000000e+01 0.0 
0.0 -1.962000000000e+01 0.0 
0.0 -1.962000000000e+01 0.0 
0.0 -1.962000000000e+01 0.0 
0.0 -1.962000000000e+01 0.0 
0.0 -1.962000000000e+01 0.0 
0.0 -1.962000000000e+01 0.0 
0.0 -1.962000000000e+01 0.0 
0.0 -1.962000000000e+01 0.0 
0.0 -1.962000000000e+01 0.0 
0.0 -1.962000000000e+01 0.0 
0.0 -1.962000000000e+01 0.0 
0.0 -1.962000000000e+01 0.0 
0.0 -1.962000000000e+01 0.0 
0.0 -1.962000000000e+01 0.0 
0.0 -1.962000000000e+01 0.0 
0.0 -1.962000000000e+01 0.0 
0.0 -1.962000000000e+01 0.0 
0.0 -1.962000000000e+01 0.0 
0.0 -1.962000000000e+01 0.0 
0.0 -1.962000000000e+01 0.0 
0.0 -1.962000000000e+01 0.0 
0.0 -1.962000000000e+01 0.0 
0.0 -1.962000000000e+01 0.0 
0.0 -1.962000000000e+01 0.0 
0.0 -1.962000000000e+01 0.0 
0.0 -1.962000000000e+01 0.0 
0.0 -1.962000000000e+01 0.0 
0.0 -1.962000000000e+01 0.0 
0.0 -1.962000000000e+01 0.0 
0.0 -1.962000000000e+01 0.0 
0.0 -1.962000000000e+01 0.0 
0.0 -1.962000000000e+01 0.0 
0.0 -1.962000000000e+01 0.0 
0.0 -1.962000000000e+01 0.0 
0.0 -1.962000000000e+01 0.0 
0.0 -1.962000000000e+01 0.0 
0.0 -1.962000000000e+01 0.0 
0.0 -1.962000000000e+01 0.0 
0.0 -1.962000000000e+01 0.0 
0.0 -1.962000000000e+01 0.0 
0.0 -1.962000000000e+01 0.0 
0.0 -1.962000000000e+01 0.0 
0.0 -1.962000000000e+01 0.0 
0.0 -1.962000000000e+01 0.0 
0.0 -1.962000000000e+01 0.0 
0.0 -1.962000000000e+01 0.0 
0.0 -1.962000000000e+01 0.0 
0.0 -1.962000000000e+01 0.0 
0.0 -1.962000000000e+01 0.0 
0.0 -1.962000000000e+01 0.0 
0.0 -1.962000000000e+01 0.0 
0.0 -1.962000000000e+01 0.0 
0.0 -1.962000000000e+01 0.0 
0.0 -1.962000000000e+01 0.0 
0.0 -1.962000000000e+01 0.0 
0.0 -1.962000000000e+01 0.0 
0.0 -1.962000000000e+01 0.0 
0.0 -1.962000000000e+01 0.0 
0.0 -1.962000000000e+01 0.0 
0.0 -1.962000000000e+01 0.0 
0.0 -1.962000000000e+01 0.0 
0.0 -1.962000000000e+01 0.0 
0.0 -1.962000000000e+01 0.0 
0.0 -1.962000000000e+01 0.0 
0.0 -1.962000000000e+01 0.0 
0.0 -1.962000000000e+01 0.0 
0.0 -1.962000000000e+01 0.0 
0.0 -1.962000000000e+01 0.0 
0.0 -1.962000000000e+01 0.0 
0.0 -1.962000000000e+01 0.0 
0.0 -1.962000000000e+01 0.0 
0.0 -1.962000000000e+01 0.0 
0.0 -1.962000000000e+01 0.0 
0.0 -1.962000000000e+01 0.0 
0.0 -1.962000000000e+01 0.0 
0.0 -1.962000000000e+01 0.0 
0.0 -1.962000000000e+01 0.0 
0.0 -1.962000000000e+01 0.0 
0.0 -1.962000000000e+01 0.0 
0.0 -1.962000000000e+01 0.0 
0.0 -1.962000000000e+01 0.0 
0.0 -1.962000000000e+01 0.0 
0.0 -1.962000000000e+01 0.0 
0.0 -1.962000000000e+01 0.0 
0.0 -1.962000000000e+01 0.0 
0.0 -1.962000000000e+01 0.0 
0.0 -1.962000000000e+01 0.0 
0.0 -1.962000000000e+01 0.0 
0.0 -1.962000000000e+01 0.0 
0.0 -1.962000000000e+01 0.0 
0.0 -1.962000000000e+01 0.0 
0.0 -1.962000000000e+01 0.0 
0.0 -1.962000000000e+01 0.0 
0.0 -1.962000000000e+01 0.0 
0.0 -1.962000000000e+01 0.0 
0.0 -1.962000000000e+01 0.0 
0.0 -1.962000000000e+01 0.0 
0.0 -1.962000000000e+01 0.0 
0.0 -1.962000000000e+01 0.0 
0.0 -1.962000000000e+01 0.0 
0.0 -1.962000000000e+01 0.0 
0.0 -1.962000000000e+01 0.0 
0.0 -1.962000000000e+01 0.0 
0.0 -1.962000000000e+01 0.0 
0.0 -1.962000000000e+01 0.0 
0.0 -1.962000000000e+01 0.0 
0.0 -1.962000000000e+01 0.0 
0.0 -1.962000000000e+01 0.0 
0.0 -1.962000000000e+01 0.0 
0.0 -1.962000000000e+01 0.0 
0.0 -1.962000000000e+01 0.0 
0.0 -1.962000000000e+01 0.0 
0.0 -1.962000000000e+01 0.0 
0.0 -1.962000000000e+01 0.0 
0.0 -1.962000000000e+01 0.0 
0.0 -1.962000000000e+01 0.0 
0.0 -1.962000000000e+01 0.0 
0.0 -1.962000000000e+01 0.0 
0.0 -1.962000000000e+01 0.0 
0.0 -1.962000000000e+01 0.0 
0.0 -1.962000000000e+01 0.0 
0.0 -1.962000000000e+01 0.0 
0.0 -1.962000000000e+01 0.0 
0.0 -1.962000000000e+01 0.0 
0.0 -1.962000000000e+01 0.0 
0.0 -1.962000000000e+01 0.0 
0.0 -1.962000000000e+01 0.0 
0.0 -1.962000000000e+01 0.0 
0.0 -1.962000000000e+01 0.0 
0.0 -1.962000000000e+01 0.0 
0.0 -1.962000000000e+01 0.0 
0.0 -1.962000000000e+01 0.0 
0.0 -1.962000000000e+01 0.0 
0.0 -1.962000000000e+01 0.0 
0.0 -1.962000000000e+01 0.0 
0.0 -1.962000000000e+01 0.0 
0.0 -1.962000000000e+01 0.0 
0.0 -1.962000000000e+01 0.0 
0.0 -1.962000000000e+01 0.0 
0.0 -1.962000000000e+01 0.0 
0.0 -1.962000000000e+01 0.0 
0.0 -1.962000000000e+01 0.0 
0.0 -1.962000000000e+01 0.0 
0.0 -1.962000000000e+01 0.0 
0.0 -1.962000000000e+01 0.0 
0.0 -1.962000000000e+01 0.0 
0.0 -1.962000000000e+01 0.0 
0.0 -1.962000000000e+01 0.0 
0.0 -1.962000000000e+01 0.0 
0.0 -1.962000000000e+01 0.0 
0.0 -1.962000000000e+01 0.0 
0.0 -1.962000000000e+01 0.0 
0.0 -1.962000000000e+01 0.0 
0.0 -1.962000000000e+01 0.0 
0.0 -1.962000000000e+01 0.0 
0.0 -1.962000000000e+01 0.0 
0.0 -1.962000000000e+01 0.0 
0.0 -1.962000000000e+01 0.0 
0.0 -1.962000000000e+01 0.0 
0.0 -1.962000000000e+01 0.0 
0.0 -1.962000000000e+01 0.0 
0.0 -1.962000000000e+01 0.0 
0.0 -1.962000000000e+01 0.0 
0.0 -1.962000000000e+01 0.0 
0.0 -1.962000000000e+01 0.0 
0.0 -1.962000000000e+01 0.0 
0.0 -1.962000000000e+01 0.0 
0.0 -1.962000000000e+01 0.0 
0.0 -1.962000000000e+01 0.0 
0.0 -1.962000000000e+01 0.0 
0.0 -1.962000000000e+01 0.0 
0.0 -1.962000000000e+01 0.0 
0.0 -1.962000000000e+01 0.0 
0.0 -1.962000000000e+01 0.0 
0.0 -1.962000000000e+01 0.0 
0.0 -1.962000000000e+01 0.0 
0.0 -1.962000000000e+01 0.0 
0.0 -1.962000000000e+01 0.0 
0.0 -1.962000000000e+01 0.0 
0.0 -1.962000000000e+01 0.0 
0.0 -1.962000000000e+01 0.0 
0.0 -1.962000000000e+01 0.0 
0.0 -1.962000000000e+01 0.0 
0.0 -1.962000000000e+01 0.0 
0.0 -1.962000000000e+01 0.0 
0.0 -1.962000000000e+01 0.0 
0.0 -1.962000000000e+01 0.0 
0.0 -1.962000000000e+01 0.0 
0.0 -1.962000000000e+01 0.0 
0.0 -1.962000000000e+01 0.0 
0.0 -1.962000000000e+01 0.0 
0.0 -1.962000000000e+01 0.0 
0.0 -1.962000000000e+01 0.0 
0.0 -1.962000000000e+01 0.0 
0.0 -1.962000000000e+01 0.0 
0.0 -1.962000000000e+01 0.0 
0.0 -1.962000000000e+01 0.0 
0.0 -1.962000000000e+01 0.0 
0.0 -1.962000000000e+01 0.0 
0.0 -1.962000000000e+01 0.0 
0.0 -1.962000000000e+01 0.0 
0.0 -1.962000000000e+01 0.0 
0.0 -1.962000000000e+01 0.0 
0.0 -1.962000000000e+01 0.0 
0.0 -1.962000000000e+01 0.0 
0.0 -1.962000000000e+01 0.0 
0.0 -1.962000000000e+01 0.0 
0.0 -1.962000000000e+01 0.0 
0.0 -1.962000000000e+01 0.0 
0.0 -1.962000000000e+01 0.0 
0.0 -1.962000000000e+01 0.0 
0.0 -1.962000000000e+01 0.0 
0.0 -1.962000000000e+01 0.0 
0.0 -1.962000000000e+01 0.0 
0.0 -1.962000000000e+01 0.0 
0.0 -1.962000000000e+01 0.0 
0.0 -1.962000000000e+01 0.0 
0.0 -1.962000000000e+01 0.0 
0.0 -1.962000000000e+01 0.0 
0.0 -1.962000000000e+01 0.0 
0.0 -1.962000000000e+01 0.0 
0.0 -1.962000000000e+01 0.0 
0.0 -1.962000000000e+01 0.0 
0.0 -1.962000000000e+01 0.0 
0.0 -1.962000000000e+01 0.0 
0.0 -1.962000000000e+01 0.0 
0.0 -1.962000000000e+01 0.0 
0.0 -1.962000000000e+01 0.0 
0.0 -1.962000000000e+01 0.0 
0.0 -1.962000000000e+01 0.0 
0.0 -1.962000000000e+01 0.0 
0.0 -1.962000000000e+01 0.0 
0.0 -1.962000000000e+01 0.0 
0.0 -1.962000000000e+01 0.0 
0.0 -1.962000000000e+01 0.0 
0.0 -1.962000000000e+01 0.0 
0.0 -1.962000000000e+01 0.0 
0.0 -1.962000000000e+01 0.0 
0.0 -1.962000000000e+01 0.0 
0.0 -1.962000000000e+01 0.0 
0.0 -1.962000000000e+01 0.0 
0.0 -1.962000000000e+01 0.0 
0.0 -1.962000000000e+01 0.0 
0.0 -1.962000000000e+01 0.0 
0.0 -1.962000000000e+01 0.0 
0.0 -1.962000000000e+01 0.0 
0.0 -1.962000000000e+01 0.0 
0.0 -1.962000000000e+01 0.0 
0.0 -1.962000000000e+01 0.0 
0.0 -1.962000000000e+01 0.0 
0.0 -1.962000000000e+01 0.0 
0.0 -1.962000000000e+01 0.0 
0.0 -1.962000000000e+01 0.0 
0.0 -1.962000000000e+01 0.0 
0.0 -1.962000000000e+01 0.0 
0.0 -1.962000000000e+01 0.0 
0.0 -1.962000000000e+01 0.0 
0.0 -1.962000000000e+01 0.0 
0.0 -1.962000000000e+01 0.0 
0.0 -1.962000000000e+01 0.0 
0.0 -1.962000000000e+01 0.0 
0.0 -1.962000000000e+01 0.0 
0.0 -1.962000000000e+01 0.0 
0.0 -1.962000000000e+01 0.0 
0.0 -1.962000000000e+01 0.0 
0.0 -1.962000000000e+01 0.0 
0.0 -1.962000000000e+01 0.0 
0.0 -1.962000000000e+01 0.0 
0.0 -1.962000000000e+01 0.0 
0.0 -1.962000000000e+01 0.0 
0.0 -1.962000000000e+01 0.0 
0.0 -1.962000000000e+01 0.0 
0.0 -1.962000000000e+01 0.0 
0.0 -1.962000000000e+01 0.0 
0.0 -1.962000000000e+01 0.0 
0.0 -1.962000000000e+01 0.0 
0.0 -1.962000000000e+01 0.0 
0.0 -1.962000000000e+01 0.0 
0.0 -1.962000000000e+01 0.0 
0.0 -1.962000000000e+01 0.0 
0.0 -1.962000000000e+01 0.0 
0.0 -1.962000000000e+01 0.0 
0.0 -1.962000000000e+01 0.0 
0.0 -1.962000000000e+01 0.0 
0.0 -1.962000000000e+01 0.0 
0.0 -1.962000000000e+01 0.0 
0.0 -1.962000000000e+01 0.0 
0.0 -1.962000000000e+01 0.0 
0.0 -1.962000000000e+01 0.0 
0.0 -1.962000000000e+01 0.0 
0.0 -1.962000000000e+01 0.0 
0.0 -1.962000000000e+01 0.0 
0.0 -1.962000000000e+01 0.0 
0.0 -1.962000000000e+01 0.0 
0.0 -1.962000000000e+01 0.0 
0.0 -1.962000000000e+01 0.0 
0.0 -1.962000000000e+01 0.0 
0.0 -1.962000000000e+01 0.0 
0.0 -1.962000000000e+01 0.0 
0.0 -1.962000000000e+01 0.0 
0.0 -1.962000000000e+01 0.0 
0.0 -1.962000000000e+01 0.0 
0.0 -1.962000000000e+01 0.0 
0.0 -1.962000000000e+01 0.0 
0.0 -1.962000000000e+01 0.0 
0.0 -1.962000000000e+01 0.0 
0.0 -1.962000000000e+01 0.0 
0.0 -1.962000000000e+01 0.0 
0.0 -1.962000000000e+01 0.0 
0.0 -1.962000000000e+01 0.0 
0.0 -1.962000000000e+01 0.0 
0.0 -1.962000000000e+01 0.0 
0.0 -1.962000000000e+01 0.0 
0.0 -1.962000000000e+01 0.0 
0.0 -1.962000000000e+01 0.0 
0.0 -1.962000000000e+01 0.0 
0.0 -1.962000000000e+01 0.0 
0.0 -1.962000000000e+01 0.0 
0.0 -1.962000000000e+01 0.0 
0.0 -1.962000000000e+01 0.0 
0.0 -1.962000000000e+01 0.0 
0.0 -1.962000000000e+01 0.0 
0.0 -1.962000000000e+01 0.0 
0.0 -1.962000000000e+01 0.0 
0.0 -1.962000000000e+01 0.0 
0.0 -1.962000000000e+01 0.0 
0.0 -1.962000000000e+01 0.0 
0.0 -1.962000000000e+01 0.0 
0.0 -1.962000000000e+01 0.0 
0.0 -1.962000000000e+01 0.0 
0.0 -1.962000000000e+01 0.0 
0.0 -1.962000000000e+01 0.0 
0.0 -1.962000000000e+01 0.0 
0.0 -1.962000000000e+01 0.0 
0.0 -1.962000000000e+01 0.0 
0.0 -1.962000000000e+01 0.0 
0.0 -1.962000000000e+01 0.0 
0.0 -1.962000000000e+01 0.0 
0.0 -1.962000000000e+01 0.0 
0.0 -1.962000000000e+01 0.0 
0.0 -1.962000000000e+01 0.0 
0.0 -1.962000000000e+01 0.0 
0.0 -1.962000000000e+01 0.0 
0.0 -1.962000000000e+01 0.0 
0.0 -1.962000000000e+01 0.0 
0.0 -1.962000000000e+01 0.0 
0.0 -1.962000000000e+01 0.0 
0.0 -1.962000000000e+01 0.0 
0.0 -1.962000000000e+01 0.0 
0.0 -1.962000000000e+01 0.0 
0.0 -1.962000000000e+01 0.0 
0.0 -1.962000000000e+01 0.0 
0.0 -1.962000000000e+01 0.0 
0.0 -1.962000000000e+01 0.0 
0.0 -1.962000000000e+01 0.0 
0.0 -1.962000000000e+01 0.0 
0.0 -1.962000000000e+01 0.0 
0.0 -1.962000000000e+01 0.0 
0.0 -1.962000000000e+01 0.0 
0.0 -1.962000000000e+01 0.0 
0.0 -1.962000000000e+01 0.0 
0.0 -1.962000000000e+01 0.0 
0.0 -1.962000000000e+01 0.0 
0.0 -1.962000000000e+01 0.0 
0.0 -1.962000000000e+01 0.0 
0.0 -1.962000000000e+01 0.0 
0.0 -1.962000000000e+01 0.0 
0.0 -1.962000000000e+01 0.0 
0.0 -1.962000000000e+01 0.0 
0.0 -1.962000000000e+01 0.0 
0.0 -1.962000000000e+01 0.0 
0.0 -1.962000000000e+01 0.0 
0.0 -1.962000000000e+01 0.0 
0.0 -1.962000000000e+01 0.0 
0.0 -1.962000000000e+01 0.0 
0.0 -1.962000000000e+01 0.0 
0.0 -1.962000000000e+01 0.0 
0.0 -1.962000000000e+01 0.0 
0.0 -1.962000000000e+01 0.0 
0.0 -1.962000000000e+01 0.0 
0.0 -1.962000000000e+01 0.0 
0.0 -1.962000000000e+01 0.0 
0.0 -1.962000000000e+01 0.0 
0.0 -1.962000000000e+01 0.0 
0.0 -1.962000000000e+01 0.0 
0.0 -1.962000000000e+01 0.0 
0.0 -1.962000000000e+01 0.0 
0.0 -1.962000000000e+01 0.0 
0.0 -1.962000000000e+01 0.0 
0.0 -1.962000000000e+01 0.0 
0.0 -1.962000000000e+01 0.0 
0.0 -1.962000000000e+01 0.0 
0.0 -1.962000000000e+01 0.0 
0.0 -1.962000000000e+01 0.0 
0.0 -1.962000000000e+01 0.0 
0.0 -1.962000000000e+01 0.0 
0.0 -1.962000000000e+01 0.0 
0.0 -1.962000000000e+01 0.0 
0.0 -1.962000000000e+01 0.0 
0.0 -1.962000000000e+01 0.0 
0.0 -1.962000000000e+01 0.0 
0.0 -1.962000000000e+01 0.0 
0.0 -1.962000000000e+01 0.0 
0.0 -1.962000000000e+01 0.0 
0.0 -1.962000000000e+01 0.0 
0.0 -1.962000000000e+01 0.0 
0.0 -1.962000000000e+01 0.0 
0.0 -1.962000000000e+01 0.0 
0.0 -1.962000000000e+01 0.0 
0.0 -1.962000000000e+01 0.0 
0.0 -1.962000000000e+01 0.0 
0.0 -1.962000000000e+01 0.0 
0.0 -1.962000000000e+01 0.0 
0.0 -1.962000000000e+01 0.0 
0.0 -1.962000000000e+01 0.0 
0.0 -1.962000000000e+01 0.0 
0.0 -1.962000000000e+01 0.0 
0.0 -1.962000000000e+01 0.0 
0.0 -1.962000000000e+01 0.0 
0.0 -1.962000000000e+01 0.0 
0.0 -1.962000000000e+01 0.0 
0.0 -1.962000000000e+01 0.0 
0.0 -1.962000000000e+01 0.0 
0.0 -1.962000000000e+01 0.0 
0.0 -1.962000000000e+01 0.0 
0.0 -1.962000000000e+01 0.0 
0.0 -1.962000000000e+01 0.0 
0.0 -1.962000000000e+01 0.0 
0.0 -1.962000000000e+01 0.0 
0.0 -1.962000000000e+01 0.0 
0.0 -1.962000000000e+01 0.0 
0.0 -1.962000000000e+01 0.0 
0.0 -1.962000000000e+01 0.0 
0.0 -1.962000000000e+01 0.0 
0.0 -1.962000000000e+01 0.0 
0.0 -1.962000000000e+01 0.0 
0.0 -1.962000000000e+01 0.0 
0.0 -1.962000000000e+01 0.0 
0.0 -1.962000000000e+01 0.0 
0.0 -1.962000000000e+01 0.0 
0.0 -1.962000000000e+01 0.0 
0.0 -1.962000000000e+01 0.0 
0.0 -1.962000000000e+01 0.0 
0.0 -1.962000000000e+01 0.0 
0.0 -1.962000000000e+01 0.0 
0.0 -1.962000000000e+01 0.0 
0.0 -1.962000000000e+01 0.0 
0.0 -1.962000000000e+01 0.0 
0.0 -1.962000000000e+01 0.0 
0.0 -1.962000000000e+01 0.0 
0.0 -1.962000000000e+01 0.0 
0.0 -1.962000000000e+01 0.0 
0.0 -1.962000000000e+01 0.0 
0.0 -1.962000000000e+01 0.0 
0.0 -1.962000000000e+01 0.0 
0.0 -1.962000000000e+01 0.0 
0.0 -1.962000000000e+01 0.0 
0.0 -1.962000000000e+01 0.0 
0.0 -1.962000000000e+01 0.0 
0.0 -1.962000000000e+01 0.0 
0.0 -1.962000000000e+01 0.0 
0.0 -1.962000000000e+01 0.0 
0.0 -1.962000000000e+01 0.0 
0.0 -1.962000000000e+01 0.0 
0.0 -1.962000000000e+01 0.0 
0.0 -1.962000000000e+01 0.0 
0.0 -1.962000000000e+01 0.0 
0.0 -1.962000000000e+01 0.0 
0.0 -1.962000000000e+01 0.0 
0.0 -1.962000000000e+01 0.0 
0.0 -1.962000000000e+01 0.0 
0.0 -1.962000000000e+01 0.0 
0.0 -1.962000000000e+01 0.0 
0.0 -1.962000000000e+01 0.0 
0.0 -1.962000000000e+01 0.0 
0.0 -1.962000000000e+01 0.0 
0.0 -1.962000000000e+01 0.0 
0.0 -1.962000000000e+01 0.0 
0.0 -1.962000000000e+01 0.0 
0.0 -1.962000000000e+01 0.0 
0.0 -1.962000000000e+01 0.0 
0.0 -1.962000000000e+01 0.0 
0.0 -1.962000000000e+01 0.0 
0.0 -1.962000000000e+01 0.0 
0.0 -1.962000000000e+01 0.0 
0.0 -1.962000000000e+01 0.0 
0.0 -1.962000000000e+01 0.0 
0.0 -1.962000000000e+01 0.0 
0.0 -1.962000000000e+01 0.0 
0.0 -1.962000000000e+01 0.0 
0.0 -1.962000000000e+01 0.0 
0.0 -1.962000000000e+01 0.0 
0.0 -1.962000000000e+01 0.0 
0.0 -1.962000000000e+01 0.0 
0.0 -1.962000000000e+01 0.0 
0.0 -1.962000000000e+01 0.0 
0.0 -1.962000000000e+01 0.0 
0.0 -1.962000000000e+01 0.0 
0.0 -1.962000000000e+01 0.0 
0.0 -1.962000000000e+01 0.0 
0.0 -1.962000000000e+01 0.0 
0.0 -1.962000000000e+01 0.0 
0.0 -1.962000000000e+01 0.0 
0.0 -1.962000000000e+01 0.0 
0.0 -1.962000000000e+01 0.0 
0.0 -1.962000000000e+01 0.0 
0.0 -1.962000000000e+01 0.0 
0.0 -1.962000000000e+01 0.0 
0.0 -1.962000000000e+01 0.0 
0.0 -1.962000000000e+01 0.0 
0.0 -1.962000000000e+01 0.0 
0.0 -1.962000000000e+01 0.0 
0.0 -1.962000000000e+01 0.0 
0.0 -1.962000000000e+01 0.0 
0.0 -1.962000000000e+01 0.0 
0.0 -1.962000000000e+01 0.0 
0.0 -1.962000000000e+01 0.0 
0.0 -1.962000000000e+01 0.0 
0.0 -1.962000000000e+01 0.0 
0.0 -1.962000000000e+01 0.0 
0.0 -1.962000000000e+01 0.0 
0.0 -1.962000000000e+01 0.0 
0.0 -1.962000000000e+01 0.0 
0.0 -1.962000000000e+01 0.0 
0.0 -1.962000000000e+01 0.0 
0.0 -1.962000000000e+01 0.0 
0.0 -1.962000000000e+01 0.0 
0.0 -1.962000000000e+01 0.0 
0.0 -1.962000000000e+01 0.0 
0.0 -1.962000000000e+01 0.0 
0.0 -1.962000000000e+01 0.0 
0.0 -1.962000000000e+01 0.0 
0.0 -1.962000000000e+01 0.0 
0.0 -1.962000000000e+01 0.0 

VECTORS node_rhside_materi_fixed float
-3.918911511637e-01 0.0 0.0 
5.818819538941e+01 0.0 0.0 
-8.370553848337e+01 -1.996932289792e+02 0.0 
6.626339797499e+01 -1.585867511232e+02 0.0 
-3.650170076558e+00 0.0 0.0 
-1.232902813995e+01 0.0 0.0 
-2.132827601211e+01 0.0 0.0 
-3.168869086569e+01 0.0 0.0 
-4.083474361782e+01 0.0 0.0 
-4.992464092412e+01 0.0 0.0 
-5.876329562931e+01 0.0 0.0 
-6.738131690055e+01 0.0 0.0 
-7.580229997963e+01 0.0 0.0 
-8.406372554672e+01 0.0 0.0 
-9.275668825520e+01 0.0 0.0 
-1.013029839542e+02 0.0 0.0 
-1.093097061296e+02 0.0 0.0 
-1.180402871565e+02 0.0 0.0 
-1.266554923080e+02 0.0 0.0 
-1.353362376957e+02 0.0 0.0 
-1.440836244819e+02 0.0 0.0 
-1.528378333015e+02 0.0 0.0 
-1.620750041002e+02 0.0 0.0 
4.521783827489e-01 -3.160601739949e+02 0.0 
7.198096973915e-01 -3.172764152325e+02 0.0 
2.717566661803e+00 -3.165302417819e+02 0.0 
1.610522798185e+00 -3.167613141631e+02 0.0 
3.377593113113e+00 -3.176182220820e+02 0.0 
3.906689507631e+00 -3.172080304979e+02 0.0 
4.392853880477e+00 -3.180619278342e+02 0.0 
5.254263047028e+00 -3.188781080501e+02 0.0 
6.999054805401e+00 -3.187523278501e+02 0.0 
6.285311202279e+00 -3.195970354477e+02 0.0 
8.395410225145e+00 -3.212584068420e+02 0.0 
9.365211134712e+00 -3.215140270910e+02 0.0 
1.023474917547e+01 -3.234662304352e+02 0.0 
1.127160982692e+01 -3.246379097383e+02 0.0 
1.263251685517e+01 -3.263418952427e+02 0.0 
1.348020305150e+01 -3.288350236517e+02 0.0 
1.553823502542e+01 -3.311015620965e+02 0.0 
1.660925442421e+01 -3.339331209970e+02 0.0 
1.786032394302e+01 -3.369246885678e+02 0.0 
1.891726220976e+01 -3.399664509654e+02 0.0 
1.945421790173e+01 -3.436516246515e+02 0.0 
2.074220196807e+01 -3.479577355067e+02 0.0 
2.123990044579e+01 -3.519367078518e+02 0.0 
2.176781774899e+01 -3.562684674711e+02 0.0 
2.199600998451e+01 -3.609985001237e+02 0.0 
2.180322094241e+01 -3.653346069811e+02 0.0 
2.141990978932e+01 -3.696759933543e+02 0.0 
2.068641139121e+01 -3.741512653843e+02 0.0 
1.988185740739e+01 -3.784724311109e+02 0.0 
1.874375922246e+01 -3.821499502319e+02 0.0 
1.725566390401e+01 -3.854950377360e+02 0.0 
1.580545586515e+01 -3.891742736105e+02 0.0 
1.430991075989e+01 -3.915522606467e+02 0.0 
1.274229547490e+01 -3.940082534204e+02 0.0 
1.100773506553e+01 -3.958533812631e+02 0.0 
9.529195329313e+00 -3.972983653013e+02 0.0 
8.042278843188e+00 -3.984734040666e+02 0.0 
6.613052754776e+00 -3.992542409552e+02 0.0 
5.432613411877e+00 -3.997096552737e+02 0.0 
4.329167415427e+00 -4.003583148510e+02 0.0 
3.504233907972e+00 -4.001908590993e+02 0.0 
2.678087859159e+00 -4.000676758429e+02 0.0 
2.071900829171e+00 -3.997394707960e+02 0.0 
1.443901619392e+00 -4.002992374769e+02 0.0 
9.213079056869e-01 -3.992800525735e+02 0.0 
5.486662380771e-01 -3.997899430100e+02 0.0 
9.150498564857e-01 -3.989722092304e+02 0.0 
1.389853383300e-01 -3.990889868926e+02 0.0 
1.761001715881e-01 -3.988340026224e+02 0.0 
6.617236745432e+01 0.0 0.0 
7.477666577941e+01 0.0 0.0 
8.282889359886e+01 0.0 0.0 
9.061140420220e+01 0.0 0.0 
9.836720109157e+01 0.0 0.0 
1.063306194901e+02 0.0 0.0 
1.137083663591e+02 0.0 0.0 
1.206169194463e+02 0.0 0.0 
1.287219464269e+02 0.0 0.0 
0.0 0.0 0.0 
0.0 0.0 0.0 
0.0 0.0 0.0 
0.0 0.0 0.0 
0.0 0.0 0.0 
0.0 0.0 0.0 
0.0 0.0 0.0 
0.0 0.0 0.0 
0.0 0.0 0.0 
0.0 0.0 0.0 
0.0 0.0 0.0 
5.419745108125e+00 0.0 0.0 
1.624148661411e+01 0.0 0.0 
2.447190591602e+01 0.0 0.0 
3.294135675610e+01 0.0 0.0 
4.145310836372e+01 0.0 0.0 
4.992636641942e+01 0.0 0.0 
0.0 0.0 0.0 
0.0 0.0 0.0 
0.0 0.0 0.0 
0.0 0.0 0.0 
0.0 0.0 0.0 
0.0 0.0 0.0 
0.0 0.0 0.0 
0.0 0.0 0.0 
0.0 0.0 0.0 
0.0 0.0 0.0 
0.0 0.0 0.0 
0.0 0.0 0.0 
0.0 0.0 0.0 
0.0 0.0 0.0 
0.0 0.0 0.0 
0.0 0.0 0.0 
0.0 0.0 0.0 
0.0 0.0 0.0 
0.0 0.0 0.0 
0.0 0.0 0.0 
0.0 0.0 0.0 
0.0 0.0 0.0 
0.0 0.0 0.0 
0.0 0.0 0.0 
0.0 0.0 0.0 
0.0 0.0 0.0 
0.0 0.0 0.0 
0.0 0.0 0.0 
0.0 0.0 0.0 
0.0 0.0 0.0 
0.0 0.0 0.0 
0.0 0.0 0.0 
0.0 0.0 0.0 
0.0 0.0 0.0 
0.0 0.0 0.0 
0.0 0.0 0.0 
0.0 0.0 0.0 
0.0 0.0 0.0 
0.0 0.0 0.0 
0.0 0.0 0.0 
0.0 0.0 0.0 
0.0 0.0 0.0 
0.0 0.0 0.0 
0.0 0.0 0.0 
0.0 0.0 0.0 
0.0 0.0 0.0 
0.0 0.0 0.0 
0.0 0.0 0.0 
0.0 0.0 0.0 
0.0 0.0 0.0 
0.0 0.0 0.0 
0.0 0.0 0.0 
0.0 0.0 0.0 
0.0 0.0 0.0 
0.0 0.0 0.0 
0.0 0.0 0.0 
0.0 0.0 0.0 
0.0 0.0 0.0 
0.0 0.0 0.0 
0.0 0.0 0.0 
0.0 0.0 0.0 
0.0 0.0 0.0 
0.0 0.0 0.0 
0.0 0.0 0.0 
0.0 0.0 0.0 
0.0 0.0 0.0 
0.0 0.0 0.0 
0.0 0.0 0.0 
0.0 0.0 0.0 
0.0 0.0 0.0 
0.0 0.0 0.0 
0.0 0.0 0.0 
0.0 0.0 0.0 
0.0 0.0 0.0 
0.0 0.0 0.0 
0.0 0.0 0.0 
0.0 0.0 0.0 
0.0 0.0 0.0 
0.0 0.0 0.0 
0.0 0.0 0.0 
0.0 0.0 0.0 
0.0 0.0 0.0 
0.0 0.0 0.0 
0.0 0.0 0.0 
0.0 0.0 0.0 
0.0 0.0 0.0 
0.0 0.0 0.0 
0.0 0.0 0.0 
0.0 0.0 0.0 
0.0 0.0 0.0 
0.0 0.0 0.0 
0.0 0.0 0.0 
0.0 0.0 0.0 
0.0 0.0 0.0 
0.0 0.0 0.0 
0.0 0.0 0.0 
0.0 0.0 0.0 
0.0 0.0 0.0 
0.0 0.0 0.0 
0.0 0.0 0.0 
0.0 0.0 0.0 
0.0 0.0 0.0 
0.0 0.0 0.0 
0.0 0.0 0.0 
0.0 0.0 0.0 
0.0 0.0 0.0 
0.0 0.0 0.0 
0.0 0.0 0.0 
0.0 0.0 0.0 
0.0 0.0 0.0 
0.0 0.0 0.0 
0.0 0.0 0.0 
0.0 0.0 0.0 
0.0 0.0 0.0 
0.0 0.0 0.0 
0.0 0.0 0.0 
0.0 0.0 0.0 
0.0 0.0 0.0 
0.0 0.0 0.0 
0.0 0.0 0.0 
0.0 0.0 0.0 
0.0 0.0 0.0 
0.0 0.0 0.0 
0.0 0.0 0.0 
0.0 0.0 0.0 
0.0 0.0 0.0 
0.0 0.0 0.0 
0.0 0.0 0.0 
0.0 0.0 0.0 
0.0 0.0 0.0 
0.0 0.0 0.0 
0.0 0.0 0.0 
0.0 0.0 0.0 
0.0 0.0 0.0 
0.0 0.0 0.0 
0.0 0.0 0.0 
0.0 0.0 0.0 
0.0 0.0 0.0 
0.0 0.0 0.0 
0.0 0.0 0.0 
0.0 0.0 0.0 
0.0 0.0 0.0 
0.0 0.0 0.0 
0.0 0.0 0.0 
0.0 0.0 0.0 
0.0 0.0 0.0 
0.0 0.0 0.0 
0.0 0.0 0.0 
0.0 0.0 0.0 
0.0 0.0 0.0 
0.0 0.0 0.0 
0.0 0.0 0.0 
0.0 0.0 0.0 
0.0 0.0 0.0 
0.0 0.0 0.0 
0.0 0.0 0.0 
0.0 0.0 0.0 
0.0 0.0 0.0 
0.0 0.0 0.0 
0.0 0.0 0.0 
0.0 0.0 0.0 
0.0 0.0 0.0 
0.0 0.0 0.0 
0.0 0.0 0.0 
0.0 0.0 0.0 
0.0 0.0 0.0 
0.0 0.0 0.0 
0.0 0.0 0.0 
0.0 0.0 0.0 
0.0 0.0 0.0 
0.0 0.0 0.0 
0.0 0.0 0.0 
0.0 0.0 0.0 
0.0 0.0 0.0 
0.0 0.0 0.0 
0.0 0.0 0.0 
0.0 0.0 0.0 
0.0 0.0 0.0 
0.0 0.0 0.0 
0.0 0.0 0.0 
0.0 0.0 0.0 
0.0 0.0 0.0 
0.0 0.0 0.0 
0.0 0.0 0.0 
0.0 0.0 0.0 
0.0 0.0 0.0 
0.0 0.0 0.0 
0.0 0.0 0.0 
0.0 0.0 0.0 
0.0 0.0 0.0 
0.0 0.0 0.0 
0.0 0.0 0.0 
0.0 0.0 0.0 
0.0 0.0 0.0 
0.0 0.0 0.0 
0.0 0.0 0.0 
0.0 0.0 0.0 
0.0 0.0 0.0 
0.0 0.0 0.0 
0.0 0.0 0.0 
0.0 0.0 0.0 
0.0 0.0 0.0 
0.0 0.0 0.0 
0.0 0.0 0.0 
0.0 0.0 0.0 
0.0 0.0 0.0 
0.0 0.0 0.0 
0.0 0.0 0.0 
0.0 0.0 0.0 
0.0 0.0 0.0 
0.0 0.0 0.0 
0.0 0.0 0.0 
0.0 0.0 0.0 
0.0 0.0 0.0 
0.0 0.0 0.0 
0.0 0.0 0.0 
0.0 0.0 0.0 
0.0 0.0 0.0 
0.0 0.0 0.0 
0.0 0.0 0.0 
0.0 0.0 0.0 
0.0 0.0 0.0 
0.0 0.0 0.0 
0.0 0.0 0.0 
0.0 0.0 0.0 
0.0 0.0 0.0 
0.0 0.0 0.0 
0.0 0.0 0.0 
0.0 0.0 0.0 
0.0 0.0 0.0 
0.0 0.0 0.0 
0.0 0.0 0.0 
0.0 0.0 0.0 
0.0 0.0 0.0 
0.0 0.0 0.0 
0.0 0.0 0.0 
0.0 0.0 0.0 
0.0 0.0 0.0 
0.0 0.0 0.0 
0.0 0.0 0.0 
0.0 0.0 0.0 
0.0 0.0 0.0 
0.0 0.0 0.0 
0.0 0.0 0.0 
0.0 0.0 0.0 
0.0 0.0 0.0 
0.0 0.0 0.0 
0.0 0.0 0.0 
0.0 0.0 0.0 
0.0 0.0 0.0 
0.0 0.0 0.0 
0.0 0.0 0.0 
0.0 0.0 0.0 
0.0 0.0 0.0 
0.0 0.0 0.0 
0.0 0.0 0.0 
0.0 0.0 0.0 
0.0 0.0 0.0 
0.0 0.0 0.0 
0.0 0.0 0.0 
0.0 0.0 0.0 
0.0 0.0 0.0 
0.0 0.0 0.0 
0.0 0.0 0.0 
0.0 0.0 0.0 
0.0 0.0 0.0 
0.0 0.0 0.0 
0.0 0.0 0.0 
0.0 0.0 0.0 
0.0 0.0 0.0 
0.0 0.0 0.0 
0.0 0.0 0.0 
0.0 0.0 0.0 
0.0 0.0 0.0 
0.0 0.0 0.0 
0.0 0.0 0.0 
0.0 0.0 0.0 
0.0 0.0 0.0 
0.0 0.0 0.0 
0.0 0.0 0.0 
0.0 0.0 0.0 
0.0 0.0 0.0 
0.0 0.0 0.0 
0.0 0.0 0.0 
0.0 0.0 0.0 
0.0 0.0 0.0 
0.0 0.0 0.0 
0.0 0.0 0.0 
0.0 0.0 0.0 
0.0 0.0 0.0 
0.0 0.0 0.0 
0.0 0.0 0.0 
0.0 0.0 0.0 
0.0 0.0 0.0 
0.0 0.0 0.0 
0.0 0.0 0.0 
0.0 0.0 0.0 
0.0 0.0 0.0 
0.0 0.0 0.0 
0.0 0.0 0.0 
0.0 0.0 0.0 
0.0 0.0 0.0 
0.0 0.0 0.0 
0.0 0.0 0.0 
0.0 0.0 0.0 
0.0 0.0 0.0 
0.0 0.0 0.0 
0.0 0.0 0.0 
0.0 0.0 0.0 
0.0 0.0 0.0 
0.0 0.0 0.0 
0.0 0.0 0.0 
0.0 0.0 0.0 
0.0 0.0 0.0 
0.0 0.0 0.0 
0.0 0.0 0.0 
0.0 0.0 0.0 
0.0 0.0 0.0 
0.0 0.0 0.0 
0.0 0.0 0.0 
0.0 0.0 0.0 
0.0 0.0 0.0 
0.0 0.0 0.0 
0.0 0.0 0.0 
0.0 0.0 0.0 
0.0 0.0 0.0 
0.0 0.0 0.0 
0.0 0.0 0.0 
0.0 0.0 0.0 
0.0 0.0 0.0 
0.0 0.0 0.0 
0.0 0.0 0.0 
0.0 0.0 0.0 
0.0 0.0 0.0 
0.0 0.0 0.0 
0.0 0.0 0.0 
0.0 0.0 0.0 
0.0 0.0 0.0 
0.0 0.0 0.0 
0.0 0.0 0.0 
0.0 0.0 0.0 
0.0 0.0 0.0 
0.0 0.0 0.0 
0.0 0.0 0.0 
0.0 0.0 0.0 
0.0 0.0 0.0 
0.0 0.0 0.0 
0.0 0.0 0.0 
0.0 0.0 0.0 
0.0 0.0 0.0 
0.0 0.0 0.0 
0.0 0.0 0.0 
0.0 0.0 0.0 
0.0 0.0 0.0 
0.0 0.0 0.0 
0.0 0.0 0.0 
0.0 0.0 0.0 
0.0 0.0 0.0 
0.0 0.0 0.0 
0.0 0.0 0.0 
0.0 0.0 0.0 
0.0 0.0 0.0 
0.0 0.0 0.0 
0.0 0.0 0.0 
0.0 0.0 0.0 
0.0 0.0 0.0 
0.0 0.0 0.0 
0.0 0.0 0.0 
0.0 0.0 0.0 
0.0 0.0 0.0 
0.0 0.0 0.0 
0.0 0.0 0.0 
0.0 0.0 0.0 
0.0 0.0 0.0 
0.0 0.0 0.0 
0.0 0.0 0.0 
0.0 0.0 0.0 
0.0 0.0 0.0 
0.0 0.0 0.0 
0.0 0.0 0.0 
0.0 0.0 0.0 
0.0 0.0 0.0 
0.0 0.0 0.0 
0.0 0.0 0.0 
0.0 0.0 0.0 
0.0 0.0 0.0 
0.0 0.0 0.0 
0.0 0.0 0.0 
0.0 0.0 0.0 
0.0 0.0 0.0 
0.0 0.0 0.0 
0.0 0.0 0.0 
0.0 0.0 0.0 
0.0 0.0 0.0 
0.0 0.0 0.0 
0.0 0.0 0.0 
0.0 0.0 0.0 
0.0 0.0 0.0 
0.0 0.0 0.0 
0.0 0.0 0.0 
0.0 0.0 0.0 
0.0 0.0 0.0 
0.0 0.0 0.0 
0.0 0.0 0.0 
0.0 0.0 0.0 
0.0 0.0 0.0 
0.0 0.0 0.0 
0.0 0.0 0.0 
0.0 0.0 0.0 
0.0 0.0 0.0 
0.0 0.0 0.0 
0.0 0.0 0.0 
0.0 0.0 0.0 
0.0 0.0 0.0 
0.0 0.0 0.0 
0.0 0.0 0.0 
0.0 0.0 0.0 
0.0 0.0 0.0 
0.0 0.0 0.0 
0.0 0.0 0.0 
0.0 0.0 0.0 
0.0 0.0 0.0 
0.0 0.0 0.0 
0.0 0.0 0.0 
0.0 0.0 0.0 
0.0 0.0 0.0 
0.0 0.0 0.0 
0.0 0.0 0.0 
0.0 0.0 0.0 
0.0 0.0 0.0 
0.0 0.0 0.0 
0.0 0.0 0.0 
0.0 0.0 0.0 
0.0 0.0 0.0 
0.0 0.0 0.0 
0.0 0.0 0.0 
0.0 0.0 0.0 
0.0 0.0 0.0 
0.0 0.0 0.0 
0.0 0.0 0.0 
0.0 0.0 0.0 
0.0 0.0 0.0 
0.0 0.0 0.0 
0.0 0.0 0.0 
0.0 0.0 0.0 
0.0 0.0 0.0 
0.0 0.0 0.0 
0.0 0.0 0.0 
0.0 0.0 0.0 
0.0 0.0 0.0 
0.0 0.0 0.0 
0.0 0.0 0.0 
0.0 0.0 0.0 
0.0 0.0 0.0 
0.0 0.0 0.0 
0.0 0.0 0.0 
0.0 0.0 0.0 
0.0 0.0 0.0 
0.0 0.0 0.0 
0.0 0.0 0.0 
0.0 0.0 0.0 
0.0 0.0 0.0 
0.0 0.0 0.0 
0.0 0.0 0.0 
0.0 0.0 0.0 
0.0 0.0 0.0 
0.0 0.0 0.0 
0.0 0.0 0.0 
0.0 0.0 0.0 
0.0 0.0 0.0 
0.0 0.0 0.0 
0.0 0.0 0.0 
0.0 0.0 0.0 
0.0 0.0 0.0 
0.0 0.0 0.0 
0.0 0.0 0.0 
0.0 0.0 0.0 
0.0 0.0 0.0 
0.0 0.0 0.0 
0.0 0.0 0.0 
0.0 0.0 0.0 
0.0 0.0 0.0 
0.0 0.0 0.0 
0.0 0.0 0.0 
0.0 0.0 0.0 
0.0 0.0 0.0 
0.0 0.0 0.0 
0.0 0.0 0.0 
0.0 0.0 0.0 
0.0 0.0 0.0 
0.0 0.0 0.0 
0.0 0.0 0.0 
0.0 0.0 0.0 
0.0 0.0 0.0 
0.0 0.0 0.0 
0.0 0.0 0.0 
0.0 0.0 0.0 
0.0 0.0 0.0 
0.0 0.0 0.0 
0.0 0.0 0.0 
0.0 0.0 0.0 
0.0 0.0 0.0 
0.0 0.0 0.0 
0.0 0.0 0.0 
0.0 0.0 0.0 
0.0 0.0 0.0 
0.0 0.0 0.0 
0.0 0.0 0.0 
0.0 0.0 0.0 
0.0 0.0 0.0 
0.0 0.0 0.0 
0.0 0.0 0.0 
0.0 0.0 0.0 
0.0 0.0 0.0 
0.0 0.0 0.0 
0.0 0.0 0.0 
0.0 0.0 0.0 
0.0 0.0 0.0 
0.0 0.0 0.0 
0.0 0.0 0.0 
0.0 0.0 0.0 
0.0 0.0 0.0 
0.0 0.0 0.0 
0.0 0.0 0.0 
0.0 0.0 0.0 
0.0 0.0 0.0 
0.0 0.0 0.0 
0.0 0.0 0.0 
0.0 0.0 0.0 
0.0 0.0 0.0 
0.0 0.0 0.0 
0.0 0.0 0.0 
0.0 0.0 0.0 
0.0 0.0 0.0 
0.0 0.0 0.0 
0.0 0.0 0.0 
0.0 0.0 0.0 
0.0 0.0 0.0 
0.0 0.0 0.0 
0.0 0.0 0.0 
0.0 0.0 0.0 
0.0 0.0 0.0 
0.0 0.0 0.0 
0.0 0.0 0.0 
0.0 0.0 0.0 
0.0 0.0 0.0 
0.0 0.0 0.0 
0.0 0.0 0.0 
0.0 0.0 0.0 
0.0 0.0 0.0 
0.0 0.0 0.0 
0.0 0.0 0.0 
0.0 0.0 0.0 
0.0 0.0 0.0 
0.0 0.0 0.0 
0.0 0.0 0.0 
0.0 0.0 0.0 
0.0 0.0 0.0 
0.0 0.0 0.0 
0.0 0.0 0.0 
0.0 0.0 0.0 
0.0 0.0 0.0 
0.0 0.0 0.0 
0.0 0.0 0.0 
0.0 0.0 0.0 
0.0 0.0 0.0 
0.0 0.0 0.0 
0.0 0.0 0.0 
0.0 0.0 0.0 
0.0 0.0 0.0 
0.0 0.0 0.0 
0.0 0.0 0.0 
0.0 0.0 0.0 
0.0 0.0 0.0 
0.0 0.0 0.0 
0.0 0.0 0.0 
0.0 0.0 0.0 
0.0 0.0 0.0 
0.0 0.0 0.0 
0.0 0.0 0.0 
0.0 0.0 0.0 
0.0 0.0 0.0 
0.0 0.0 0.0 
0.0 0.0 0.0 
0.0 0.0 0.0 
0.0 0.0 0.0 
0.0 0.0 0.0 
0.0 0.0 0.0 
0.0 0.0 0.0 
0.0 0.0 0.0 
0.0 0.0 0.0 
0.0 0.0 0.0 
0.0 0.0 0.0 
0.0 0.0 0.0 
0.0 0.0 0.0 
0.0 0.0 0.0 
0.0 0.0 0.0 
0.0 0.0 0.0 
0.0 0.0 0.0 
0.0 0.0 0.0 
0.0 0.0 0.0 
0.0 0.0 0.0 
0.0 0.0 0.0 
0.0 0.0 0.0 
0.0 0.0 0.0 
0.0 0.0 0.0 
0.0 0.0 0.0 
0.0 0.0 0.0 
0.0 0.0 0.0 
0.0 0.0 0.0 
0.0 0.0 0.0 
0.0 0.0 0.0 
0.0 0.0 0.0 
0.0 0.0 0.0 
0.0 0.0 0.0 
0.0 0.0 0.0 
0.0 0.0 0.0 
0.0 0.0 0.0 
0.0 0.0 0.0 
0.0 0.0 0.0 
0.0 0.0 0.0 
0.0 0.0 0.0 
0.0 0.0 0.0 
0.0 0.0 0.0 
0.0 0.0 0.0 
0.0 0.0 0.0 
0.0 0.0 0.0 
0.0 0.0 0.0 
0.0 0.0 0.0 
0.0 0.0 0.0 
0.0 0.0 0.0 
0.0 0.0 0.0 
0.0 0.0 0.0 
0.0 0.0 0.0 
0.0 0.0 0.0 
0.0 0.0 0.0 
0.0 0.0 0.0 
0.0 0.0 0.0 
0.0 0.0 0.0 
0.0 0.0 0.0 
0.0 0.0 0.0 
0.0 0.0 0.0 
0.0 0.0 0.0 
0.0 0.0 0.0 
0.0 0.0 0.0 
0.0 0.0 0.0 
0.0 0.0 0.0 
0.0 0.0 0.0 
0.0 0.0 0.0 
0.0 0.0 0.0 
0.0 0.0 0.0 
0.0 0.0 0.0 
0.0 0.0 0.0 
0.0 0.0 0.0 
0.0 0.0 0.0 
0.0 0.0 0.0 
0.0 0.0 0.0 
0.0 0.0 0.0 
0.0 0.0 0.0 
0.0 0.0 0.0 
0.0 0.0 0.0 
0.0 0.0 0.0 
0.0 0.0 0.0 
0.0 0.0 0.0 
0.0 0.0 0.0 
0.0 0.0 0.0 
0.0 0.0 0.0 
0.0 0.0 0.0 
0.0 0.0 0.0 
0.0 0.0 0.0 
0.0 0.0 0.0 
0.0 0.0 0.0 
0.0 0.0 0.0 
0.0 0.0 0.0 
0.0 0.0 0.0 
0.0 0.0 0.0 
0.0 0.0 0.0 
0.0 0.0 0.0 
0.0 0.0 0.0 
0.0 0.0 0.0 
0.0 0.0 0.0 
0.0 0.0 0.0 
0.0 0.0 0.0 
0.0 0.0 0.0 
0.0 0.0 0.0 
0.0 0.0 0.0 
0.0 0.0 0.0 
0.0 0.0 0.0 
0.0 0.0 0.0 
0.0 0.0 0.0 
0.0 0.0 0.0 
0.0 0.0 0.0 
0.0 0.0 0.0 
0.0 0.0 0.0 
0.0 0.0 0.0 
0.0 0.0 0.0 
0.0 0.0 0.0 
0.0 0.0 0.0 
0.0 0.0 0.0 
0.0 0.0 0.0 
0.0 0.0 0.0 
0.0 0.0 0.0 
0.0 0.0 0.0 
0.0 0.0 0.0 
0.0 0.0 0.0 
0.0 0.0 0.0 
0.0 0.0 0.0 
0.0 0.0 0.0 
0.0 0.0 0.0 
0.0 0.0 0.0 
0.0 0.0 0.0 
0.0 0.0 0.0 
0.0 0.0 0.0 
0.0 0.0 0.0 
0.0 0.0 0.0 
0.0 0.0 0.0 
0.0 0.0 0.0 
0.0 0.0 0.0 
0.0 0.0 0.0 
0.0 0.0 0.0 
0.0 0.0 0.0 
0.0 0.0 0.0 
0.0 0.0 0.0 
0.0 0.0 0.0 
0.0 0.0 0.0 
0.0 0.0 0.0 
0.0 0.0 0.0 
0.0 0.0 0.0 
0.0 0.0 0.0 
0.0 0.0 0.0 
0.0 0.0 0.0 
0.0 0.0 0.0 
0.0 0.0 0.0 
0.0 0.0 0.0 
0.0 0.0 0.0 
0.0 0.0 0.0 
0.0 0.0 0.0 
0.0 0.0 0.0 
0.0 0.0 0.0 
0.0 0.0 0.0 
0.0 0.0 0.0 
0.0 0.0 0.0 
0.0 0.0 0.0 
0.0 0.0 0.0 
0.0 0.0 0.0 
0.0 0.0 0.0 
0.0 0.0 0.0 
0.0 0.0 0.0 
0.0 0.0 0.0 
0.0 0.0 0.0 
0.0 0.0 0.0 
0.0 0.0 0.0 
0.0 0.0 0.0 
0.0 0.0 0.0 
0.0 0.0 0.0 
0.0 0.0 0.0 
0.0 0.0 0.0 
0.0 0.0 0.0 
0.0 0.0 0.0 
0.0 0.0 0.0 
0.0 0.0 0.0 
0.0 0.0 0.0 
0.0 0.0 0.0 
0.0 0.0 0.0 
0.0 0.0 0.0 
0.0 0.0 0.0 
0.0 0.0 0.0 
0.0 0.0 0.0 
0.0 0.0 0.0 
0.0 0.0 0.0 
0.0 0.0 0.0 
0.0 0.0 0.0 
0.0 0.0 0.0 
0.0 0.0 0.0 
0.0 0.0 0.0 
0.0 0.0 0.0 
0.0 0.0 0.0 
0.0 0.0 0.0 
0.0 0.0 0.0 
0.0 0.0 0.0 
0.0 0.0 0.0 
0.0 0.0 0.0 
0.0 0.0 0.0 
0.0 0.0 0.0 
0.0 0.0 0.0 
0.0 0.0 0.0 
0.0 0.0 0.0 
0.0 0.0 0.0 
0.0 0.0 0.0 
0.0 0.0 0.0 
0.0 0.0 0.0 
0.0 0.0 0.0 
0.0 0.0 0.0 
0.0 0.0 0.0 
0.0 0.0 0.0 
0.0 0.0 0.0 
0.0 0.0 0.0 
0.0 0.0 0.0 
0.0 0.0 0.0 
0.0 0.0 0.0 
0.0 0.0 0.0 
0.0 0.0 0.0 
0.0 0.0 0.0 
0.0 0.0 0.0 
0.0 0.0 0.0 
0.0 0.0 0.0 
0.0 0.0 0.0 
0.0 0.0 0.0 
0.0 0.0 0.0 
0.0 0.0 0.0 
0.0 0.0 0.0 
0.0 0.0 0.0 
0.0 0.0 0.0 
0.0 0.0 0.0 
0.0 0.0 0.0 
0.0 0.0 0.0 
0.0 0.0 0.0 
0.0 0.0 0.0 
0.0 0.0 0.0 
0.0 0.0 0.0 
0.0 0.0 0.0 
0.0 0.0 0.0 
0.0 0.0 0.0 
0.0 0.0 0.0 
0.0 0.0 0.0 
0.0 0.0 0.0 
0.0 0.0 0.0 
0.0 0.0 0.0 
0.0 0.0 0.0 
0.0 0.0 0.0 
0.0 0.0 0.0 
0.0 0.0 0.0 
0.0 0.0 0.0 
0.0 0.0 0.0 
0.0 0.0 0.0 
0.0 0.0 0.0 
0.0 0.0 0.0 
0.0 0.0 0.0 
0.0 0.0 0.0 
0.0 0.0 0.0 
0.0 0.0 0.0 
0.0 0.0 0.0 
0.0 0.0 0.0 
0.0 0.0 0.0 
0.0 0.0 0.0 
0.0 0.0 0.0 
0.0 0.0 0.0 
0.0 0.0 0.0 
0.0 0.0 0.0 
0.0 0.0 0.0 
0.0 0.0 0.0 
0.0 0.0 0.0 
0.0 0.0 0.0 
0.0 0.0 0.0 
0.0 0.0 0.0 
0.0 0.0 0.0 
0.0 0.0 0.0 
0.0 0.0 0.0 
0.0 0.0 0.0 
0.0 0.0 0.0 
0.0 0.0 0.0 
0.0 0.0 0.0 
0.0 0.0 0.0 
0.0 0.0 0.0 
0.0 0.0 0.0 
0.0 0.0 0.0 
0.0 0.0 0.0 
0.0 0.0 0.0 
0.0 0.0 0.0 
0.0 0.0 0.0 
0.0 0.0 0.0 
0.0 0.0 0.0 
0.0 0.0 0.0 
0.0 0.0 0.0 
0.0 0.0 0.0 
0.0 0.0 0.0 
0.0 0.0 0.0 
0.0 0.0 0.0 
0.0 0.0 0.0 
0.0 0.0 0.0 
0.0 0.0 0.0 
0.0 0.0 0.0 
0.0 0.0 0.0 
0.0 0.0 0.0 
0.0 0.0 0.0 
0.0 0.0 0.0 
0.0 0.0 0.0 
0.0 0.0 0.0 
0.0 0.0 0.0 
0.0 0.0 0.0 
0.0 0.0 0.0 
0.0 0.0 0.0 
0.0 0.0 0.0 
0.0 0.0 0.0 
0.0 0.0 0.0 
0.0 0.0 0.0 
0.0 0.0 0.0 
0.0 0.0 0.0 
0.0 0.0 0.0 
0.0 0.0 0.0 
0.0 0.0 0.0 
0.0 0.0 0.0 
0.0 0.0 0.0 
0.0 0.0 0.0 
0.0 0.0 0.0 
0.0 0.0 0.0 
0.0 0.0 0.0 
0.0 0.0 0.0 
0.0 0.0 0.0 
0.0 0.0 0.0 
0.0 0.0 0.0 
0.0 0.0 0.0 
0.0 0.0 0.0 
0.0 0.0 0.0 
0.0 0.0 0.0 
0.0 0.0 0.0 
0.0 0.0 0.0 
0.0 0.0 0.0 
0.0 0.0 0.0 
0.0 0.0 0.0 
0.0 0.0 0.0 
0.0 0.0 0.0 
0.0 0.0 0.0 
0.0 0.0 0.0 
0.0 0.0 0.0 
0.0 0.0 0.0 
0.0 0.0 0.0 
0.0 0.0 0.0 
0.0 0.0 0.0 
0.0 0.0 0.0 
0.0 0.0 0.0 
0.0 0.0 0.0 
0.0 0.0 0.0 
0.0 0.0 0.0 
0.0 0.0 0.0 
0.0 0.0 0.0 
0.0 0.0 0.0 
0.0 0.0 0.0 
0.0 0.0 0.0 
0.0 0.0 0.0 
0.0 0.0 0.0 
0.0 0.0 0.0 
0.0 0.0 0.0 
0.0 0.0 0.0 
0.0 0.0 0.0 
0.0 0.0 0.0 
0.0 0.0 0.0 
0.0 0.0 0.0 
0.0 0.0 0.0 
0.0 0.0 0.0 
0.0 0.0 0.0 
0.0 0.0 0.0 
0.0 0.0 0.0 
0.0 0.0 0.0 
0.0 0.0 0.0 
0.0 0.0 0.0 
0.0 0.0 0.0 
0.0 0.0 0.0 
0.0 0.0 0.0 
0.0 0.0 0.0 
0.0 0.0 0.0 
0.0 0.0 0.0 
0.0 0.0 0.0 
0.0 0.0 0.0 
0.0 0.0 0.0 
0.0 0.0 0.0 
0.0 0.0 0.0 
0.0 0.0 0.0 
0.0 0.0 0.0 
0.0 0.0 0.0 
0.0 0.0 0.0 
0.0 0.0 0.0 
0.0 0.0 0.0 
0.0 0.0 0.0 
0.0 0.0 0.0 
0.0 0.0 0.0 
0.0 0.0 0.0 
0.0 0.0 0.0 
0.0 0.0 0.0 
0.0 0.0 0.0 
0.0 0.0 0.0 
0.0 0.0 0.0 
0.0 0.0 0.0 
0.0 0.0 0.0 
0.0 0.0 0.0 
0.0 0.0 0.0 
0.0 0.0 0.0 
0.0 0.0 0.0 
0.0 0.0 0.0 
0.0 0.0 0.0 
0.0 0.0 0.0 
0.0 0.0 0.0 
0.0 0.0 0.0 
0.0 0.0 0.0 
0.0 0.0 0.0 
0.0 0.0 0.0 
0.0 0.0 0.0 
0.0 0.0 0.0 
0.0 0.0 0.0 
0.0 0.0 0.0 
0.0 0.0 0.0 
0.0 0.0 0.0 
0.0 0.0 0.0 
0.0 0.0 0.0 
0.0 0.0 0.0 
0.0 0.0 0.0 
0.0 0.0 0.0 
0.0 0.0 0.0 
0.0 0.0 0.0 
0.0 0.0 0.0 
0.0 0.0 0.0 
0.0 0.0 0.0 
0.0 0.0 0.0 
0.0 0.0 0.0 
0.0 0.0 0.0 
0.0 0.0 0.0 
0.0 0.0 0.0 
0.0 0.0 0.0 
0.0 0.0 0.0 
0.0 0.0 0.0 
0.0 0.0 0.0 
0.0 0.0 0.0 
0.0 0.0 0.0 
0.0 0.0 0.0 
0.0 0.0 0.0 
0.0 0.0 0.0 
0.0 0.0 0.0 
0.0 0.0 0.0 
0.0 0.0 0.0 
0.0 0.0 0.0 
0.0 0.0 0.0 
0.0 0.0 0.0 
0.0 0.0 0.0 
0.0 0.0 0.0 
0.0 0.0 0.0 
0.0 0.0 0.0 
0.0 0.0 0.0 
0.0 0.0 0.0 
0.0 0.0 0.0 
0.0 0.0 0.0 
0.0 0.0 0.0 
0.0 0.0 0.0 
0.0 0.0 0.0 
0.0 0.0 0.0 
0.0 0.0 0.0 
0.0 0.0 0.0 
0.0 0.0 0.0 
0.0 0.0 0.0 
0.0 0.0 0.0 
0.0 0.0 0.0 
0.0 0.0 0.0 
0.0 0.0 0.0 
0.0 0.0 0.0 
0.0 0.0 0.0 
0.0 0.0 0.0 
0.0 0.0 0.0 
0.0 0.0 0.0 
0.0 0.0 0.0 
0.0 0.0 0.0 
0.0 0.0 0.0 
0.0 0.0 0.0 
0.0 0.0 0.0 
0.0 0.0 0.0 
0.0 0.0 0.0 
0.0 0.0 0.0 

VECTORS node_materi_velocity float
0.0 -6.730625497730e-04 0.0 
0.0 9.882401375903e-03 0.0 
0.0 0.0 0.0 
0.0 0.0 0.0 
0.0 -6.686073133102e-04 0.0 
0.0 -6.608741186790e-04 0.0 
0.0 -6.485424695540e-04 0.0 
0.0 -6.305835684833e-04 0.0 
0.0 -6.053423415106e-04 0.0 
0.0 -5.733423488928e-04 0.0 
0.0 -5.348378504530e-04 0.0 
0.0 -4.901227499760e-04 0.0 
0.0 -4.401715477295e-04 0.0 
0.0 -3.860601351480e-04 0.0 
0.0 -3.292339126348e-04 0.0 
0.0 -2.716886346004e-04 0.0 
0.0 -2.151024074942e-04 0.0 
0.0 -1.605529519825e-04 0.0 
0.0 -1.108528932267e-04 0.0 
0.0 -6.786187242386e-05 0.0 
0.0 -3.331394203105e-05 0.0 
0.0 -9.624675016021e-06 0.0 
0.0 1.025024108018e-06 0.0 
0.0 0.0 0.0 
0.0 0.0 0.0 
0.0 0.0 0.0 
0.0 0.0 0.0 
0.0 0.0 0.0 
0.0 0.0 0.0 
0.0 0.0 0.0 
0.0 0.0 0.0 
0.0 0.0 0.0 
0.0 0.0 0.0 
0.0 0.0 0.0 
0.0 0.0 0.0 
0.0 0.0 0.0 
0.0 0.0 0.0 
0.0 0.0 0.0 
0.0 0.0 0.0 
0.0 0.0 0.0 
0.0 0.0 0.0 
0.0 0.0 0.0 
0.0 0.0 0.0 
0.0 0.0 0.0 
0.0 0.0 0.0 
0.0 0.0 0.0 
0.0 0.0 0.0 
0.0 0.0 0.0 
0.0 0.0 0.0 
0.0 0.0 0.0 
0.0 0.0 0.0 
0.0 0.0 0.0 
0.0 0.0 0.0 
0.0 0.0 0.0 
0.0 0.0 0.0 
0.0 0.0 0.0 
0.0 0.0 0.0 
0.0 0.0 0.0 
0.0 0.0 0.0 
0.0 0.0 0.0 
0.0 0.0 0.0 
0.0 0.0 0.0 
0.0 0.0 0.0 
0.0 0.0 0.0 
0.0 0.0 0.0 
0.0 0.0 0.0 
0.0 0.0 0.0 
0.0 0.0 0.0 
0.0 0.0 0.0 
0.0 0.0 0.0 
0.0 0.0 0.0 
0.0 0.0 0.0 
0.0 8.871617011625e-03 0.0 
0.0 7.862276985490e-03 0.0 
0.0 6.855753225837e-03 0.0 
0.0 5.852913590378e-03 0.0 
0.0 4.855626668517e-03 0.0 
0.0 3.865058118038e-03 0.0 
0.0 2.882847939863e-03 0.0 
0.0 1.910494780860e-03 0.0 
0.0 9.495442435043e-04 0.0 
-1.283395973175e-03 1.975673812753e-03 0.0 
1.764479483618e-03 9.604236704949e-03 0.0 
-1.069247888969e-03 2.736834938735e-03 0.0 
-8.440071974477e-04 3.828594711775e-03 0.0 
-2.032898921083e-04 5.500703399110e-03 0.0 
-1.857312331240e-04 8.905757515479e-03 0.0 
8.116208626286e-04 1.075482637770e-02 0.0 
1.487845013377e-03 1.131770599615e-02 0.0 
1.814065540017e-03 1.131159359929e-02 0.0 
1.925049954807e-03 1.095173061046e-02 0.0 
1.892925348122e-03 1.035720910063e-02 0.0 
0.0 1.598504871215e-02 0.0 
0.0 1.494872530877e-02 0.0 
0.0 1.393286841581e-02 0.0 
0.0 1.291890599088e-02 0.0 
0.0 1.190641698117e-02 0.0 
0.0 1.089405293073e-02 0.0 
9.989099663620e-05 9.883631069735e-03 0.0 
2.005181890852e-04 9.887373220926e-03 0.0 
3.017699190157e-04 9.893250308710e-03 0.0 
4.040285424335e-04 9.901077561247e-03 0.0 
5.077421425943e-04 9.909746406489e-03 0.0 
6.129673422616e-04 9.918386422652e-03 0.0 
7.208497702175e-04 9.926353813778e-03 0.0 
8.315034542273e-04 9.930847160853e-03 0.0 
9.460446156001e-04 9.930871825614e-03 0.0 
1.065319426090e-03 9.923113298641e-03 0.0 
1.189785174541e-03 9.903488370102e-03 0.0 
1.320880485390e-03 9.867644580756e-03 0.0 
1.459479632681e-03 9.810644208636e-03 0.0 
1.606722933500e-03 9.725202864912e-03 0.0 
-1.182297196623e-03 1.528559961435e-03 0.0 
-1.045195339007e-03 1.120113515733e-03 0.0 
-8.967994198824e-04 7.697555959454e-04 0.0 
-7.462499526049e-04 4.757380900353e-04 0.0 
-6.101335082037e-04 2.320995455032e-04 0.0 
-4.876098319284e-04 3.279555532912e-05 0.0 
-3.789918273100e-04 -1.287556813261e-04 0.0 
-2.853184032327e-04 -2.590487793296e-04 0.0 
-2.060460541186e-04 -3.624817473247e-04 0.0 
-1.409001922172e-04 -4.433720444718e-04 0.0 
-8.907654663429e-05 -5.071954586616e-04 0.0 
-4.860832583957e-05 -5.547238204533e-04 0.0 
-1.986588846314e-05 -5.912530102704e-04 0.0 
6.636471122801e-07 -6.184794205028e-04 0.0 
1.296257095736e-05 -6.387595226528e-04 0.0 
1.833905914571e-05 -6.527984994797e-04 0.0 
1.817645966827e-05 -6.623699743177e-04 0.0 
1.406419246016e-05 -6.688330984593e-04 0.0 
7.696723565353e-06 -6.719808067335e-04 0.0 
1.617149033322e-04 1.598146876499e-02 0.0 
2.575915122656e-04 1.597152386432e-02 0.0 
3.632852790210e-04 1.597079025025e-02 0.0 
4.744085294059e-04 1.597510598251e-02 0.0 
5.844002694567e-04 1.598072412427e-02 0.0 
6.892593521536e-04 1.598571063299e-02 0.0 
7.862589533254e-04 1.598841317000e-02 0.0 
8.731520287761e-04 1.598704464318e-02 0.0 
9.477039902051e-04 1.597945211005e-02 0.0 
1.007501634409e-03 1.596295432108e-02 0.0 
1.049861119762e-03 1.593422886773e-02 0.0 
1.071803969842e-03 1.588917171542e-02 0.0 
1.070033800345e-03 1.582281550739e-02 0.0 
1.040719434154e-03 1.572883008612e-02 0.0 
9.799496295978e-04 1.559939918405e-02 0.0 
8.835002482862e-04 1.542424566290e-02 0.0 
7.484043184496e-04 1.519161767230e-02 0.0 
5.708286070143e-04 1.488444310037e-02 0.0 
3.517499187678e-04 1.448449135651e-02 0.0 
9.152104553259e-05 1.395787896268e-02 0.0 
-1.890062903008e-04 1.326986115164e-02 0.0 
-4.537944023643e-04 1.235495234372e-02 0.0 
-7.162282413703e-04 1.117276050637e-02 0.0 
7.328424255225e-04 1.187895173254e-02 0.0 
7.557578004559e-04 1.268605065792e-02 0.0 
8.074803482308e-04 1.328778391843e-02 0.0 
8.773612234339e-04 1.374459053126e-02 0.0 
9.473974135640e-04 1.408982388695e-02 0.0 
1.007511315269e-03 1.435120224663e-02 0.0 
1.052351040114e-03 1.454698340199e-02 0.0 
1.079472300298e-03 1.469179272014e-02 0.0 
1.088337932708e-03 1.479682407441e-02 0.0 
1.079449039335e-03 1.487107329973e-02 0.0 
1.053948811836e-03 1.492158263352e-02 0.0 
1.013305126508e-03 1.495392767936e-02 0.0 
9.591277651138e-04 1.497256622853e-02 0.0 
8.930485626685e-04 1.498113357747e-02 0.0 
8.166796933957e-04 1.498258183772e-02 0.0 
7.316065024072e-04 1.497933049920e-02 0.0 
6.394200499144e-04 1.497341516396e-02 0.0 
5.417713410478e-04 1.496668385519e-02 0.0 
4.403958843147e-04 1.496099625219e-02 0.0 
3.368412094018e-04 1.495821978737e-02 0.0 
2.308417451998e-04 1.495857822528e-02 0.0 
1.170211594459e-04 1.495463585017e-02 0.0 
1.104619160102e-04 1.393517559680e-02 0.0 
2.210512505918e-04 1.394131765220e-02 0.0 
3.279615138043e-04 1.394459877844e-02 0.0 
4.318947553027e-04 1.394965945875e-02 0.0 
5.330179180298e-04 1.395707753518e-02 0.0 
6.307732683092e-04 1.396563025711e-02 0.0 
7.242599641213e-04 1.397361257088e-02 0.0 
8.124694324772e-04 1.397908707049e-02 0.0 
8.943955391156e-04 1.397978738442e-02 0.0 
9.690957601861e-04 1.397297191883e-02 0.0 
1.035747624342e-03 1.395526288479e-02 0.0 
1.093712777627e-03 1.392246600939e-02 0.0 
1.142657447870e-03 1.386933790510e-02 0.0 
1.182715389086e-03 1.378918219825e-02 0.0 
1.214835376287e-03 1.367349949720e-02 0.0 
1.240932726230e-03 1.351133004608e-02 0.0 
1.264759812741e-03 1.328892749082e-02 0.0 
1.291747640745e-03 1.298744016987e-02 0.0 
1.331453039644e-03 1.258511736299e-02 0.0 
1.387133927519e-03 1.204718421101e-02 0.0 
1.690777243801e-03 1.177834847606e-02 0.0 
1.591746187751e-03 1.212801924172e-02 0.0 
1.502460374960e-03 1.238950329092e-02 0.0 
1.422850743602e-03 1.258345676913e-02 0.0 
1.348007686435e-03 1.272369917098e-02 0.0 
1.274966311862e-03 1.282295328670e-02 0.0 
1.201326005248e-03 1.289047694610e-02 0.0 
1.125692164937e-03 1.293406003816e-02 0.0 
1.047183220423e-03 1.295964102532e-02 0.0 
9.653613468813e-04 1.297196488202e-02 0.0 
8.800970165548e-04 1.297484363590e-02 0.0 
7.915175951011e-04 1.297137379772e-02 0.0 
6.999333140471e-04 1.296406576032e-02 0.0 
6.056999314799e-04 1.295494037629e-02 0.0 
5.091775509761e-04 1.294563615120e-02 0.0 
4.105716055979e-04 1.293738532781e-02 0.0 
3.098222274351e-04 1.293078674714e-02 0.0 
2.069459114694e-04 1.292550347328e-02 0.0 
1.034511504281e-04 1.292118011718e-02 0.0 
1.037368757547e-04 1.190776680964e-02 0.0 
2.077738268940e-04 1.191236296577e-02 0.0 
3.113155743223e-04 1.191863730894e-02 0.0 
4.139511277645e-04 1.192654465575e-02 0.0 
5.156888064314e-04 1.193586488370e-02 0.0 
6.166748385173e-04 1.194588860106e-02 0.0 
7.169165391345e-04 1.195539371792e-02 0.0 
8.165716046594e-04 1.196253771203e-02 0.0 
9.157155193818e-04 1.196514525644e-02 0.0 
1.014552406161e-03 1.196026855330e-02 0.0 
1.113596011879e-03 1.194421941405e-02 0.0 
1.213620605031e-03 1.191254309499e-02 0.0 
1.315748758600e-03 1.185961740998e-02 0.0 
1.421556694086e-03 1.177852639193e-02 0.0 
1.532784918514e-03 1.165969595978e-02 0.0 
1.652367814209e-03 1.149307808650e-02 0.0 
1.780289506646e-03 1.126376513059e-02 0.0 
1.742177620433e-03 1.055212851720e-02 0.0 
1.604489111935e-03 1.069282489131e-02 0.0 
1.473052063205e-03 1.079283310748e-02 0.0 
1.349574644433e-03 1.086204400020e-02 0.0 
1.232199607598e-03 1.090703969406e-02 0.0 
1.119658348069e-03 1.093372842002e-02 0.0 
1.010797722940e-03 1.094683970765e-02 0.0 
9.046736092922e-04 1.095014728375e-02 0.0 
8.006767635515e-04 1.094711263281e-02 0.0 
6.984296960292e-04 1.094032003251e-02 0.0 
5.972888577305e-04 1.093124515392e-02 0.0 
4.970204913155e-04 1.092188052358e-02 0.0 
3.972162079825e-04 1.091293325130e-02 0.0 
2.975963435433e-04 1.090518889523e-02 0.0 
1.981664145307e-04 1.089928129715e-02 0.0 
9.905735256804e-05 1.089564759630e-02 0.0 
-1.154440458265e-03 2.335800521109e-03 0.0 
-9.727104209254e-04 3.229227894334e-03 0.0 
-6.306736114807e-04 4.567548294796e-03 0.0 
-1.880027893185e-04 7.195995342110e-03 0.0 
3.784703534815e-04 1.003485279056e-02 0.0 
1.222759168528e-03 1.112165601238e-02 0.0 
1.690260068510e-03 1.136619558287e-02 0.0 
1.893797908823e-03 1.116566081482e-02 0.0 
1.925582204090e-03 1.067713344640e-02 0.0 
1.839327173520e-03 9.996227270145e-03 0.0 
-5.367287721592e-04 3.229152051215e-03 0.0 
4.057483416393e-04 1.268062930006e-04 0.0 
-9.076118413256e-05 -4.256447014898e-04 0.0 
-4.708037613036e-04 3.126870510102e-04 0.0 
2.465920846434e-04 4.927139281283e-05 0.0 
6.620700512644e-04 6.960875153589e-03 0.0 
7.570378530880e-05 -3.562899059277e-04 0.0 
5.370909598309e-04 2.383295005567e-04 0.0 
1.890219092546e-03 1.015064048274e-02 0.0 
5.948716179675e-04 3.802311283927e-04 0.0 
2.170620008871e-03 1.021662536637e-02 0.0 
1.324596798766e-04 1.880954374068e-05 0.0 
2.325438144912e-05 -6.137075759189e-04 0.0 
5.731596192207e-04 5.528931118816e-04 0.0 
1.935114207871e-03 9.056798405081e-03 0.0 
5.056182372237e-05 -5.533337230125e-04 0.0 
7.949266206368e-05 -1.974112503058e-04 0.0 
5.098174251502e-04 6.843512818873e-04 0.0 
3.409725636303e-04 7.436817540200e-04 0.0 
9.166396734517e-05 8.085110652663e-04 0.0 
1.727391044243e-04 8.688052422140e-04 0.0 
2.354523279652e-04 7.611184883277e-04 0.0 
1.564475009738e-03 8.861632228054e-03 0.0 
1.012176857929e-03 9.005691960186e-03 0.0 
6.619693031734e-04 8.979315270668e-03 0.0 
6.203373339025e-05 5.338348721269e-03 0.0 
7.920624747994e-05 8.493927617182e-06 0.0 
-8.075107238507e-04 1.295952255159e-03 0.0 
3.150156963223e-05 -6.568977179157e-04 0.0 
5.523719674872e-05 -5.135966028671e-05 0.0 
3.407506574919e-04 9.023763718869e-03 0.0 
2.879082635159e-05 -6.406081425187e-04 0.0 
4.761562872708e-04 8.185384400433e-04 0.0 
5.326539107545e-04 2.818826691050e-04 0.0 
5.901496010352e-04 4.613693181914e-04 0.0 
5.058536795250e-04 1.898900060554e-04 0.0 
3.218590860089e-04 8.395683417331e-05 0.0 
-2.781200107086e-04 -8.722049412473e-05 0.0 
1.272930709076e-03 9.023235330351e-03 0.0 
2.181720226259e-04 3.549101619275e-05 0.0 
4.664905428772e-05 3.414849226802e-03 0.0 
-1.609730101169e-05 -5.452486627648e-04 0.0 
6.665152005795e-05 -4.653439411611e-04 0.0 
4.594728090094e-05 6.571588518685e-04 0.0 
1.452343330654e-03 9.049971064612e-03 0.0 
1.842359828447e-05 4.677388865613e-03 0.0 
2.115625255452e-03 1.040323596487e-02 0.0 
2.097471157990e-03 9.735666089129e-03 0.0 
-8.621889581905e-04 2.306173085024e-03 0.0 
7.621620097781e-05 7.238589072552e-03 0.0 
3.557525779045e-05 3.768799740482e-06 0.0 
1.607084966356e-05 -6.677447020653e-04 0.0 
2.532449187929e-05 1.499394688766e-03 0.0 
1.856416960472e-03 8.636239970498e-03 0.0 
1.996698822560e-03 8.103189165608e-03 0.0 
1.833340277163e-03 7.783543735352e-03 0.0 
1.995418227670e-03 7.168963790966e-03 0.0 
1.834527681858e-03 6.753975305081e-03 0.0 
1.954038324722e-03 6.215821329112e-03 0.0 
2.135345639538e-03 6.589600773632e-03 0.0 
2.061161213454e-03 5.665205950495e-03 0.0 
2.258427216308e-03 6.005870976432e-03 0.0 
1.765637793165e-03 5.796287672925e-03 0.0 
2.147252129642e-03 5.108114514753e-03 0.0 
2.358265609207e-03 5.413649756285e-03 0.0 
2.207556805557e-03 4.552256240554e-03 0.0 
2.428221339062e-03 4.821110542659e-03 0.0 
2.556844523634e-03 5.666196913776e-03 0.0 
2.634118150281e-03 5.035914542848e-03 0.0 
2.737932808222e-03 5.854478789056e-03 0.0 
2.819134118271e-03 5.181349729881e-03 0.0 
2.673538696121e-03 4.420272675085e-03 0.0 
2.858152242668e-03 4.529329877067e-03 0.0 
2.977777828766e-03 5.250094007409e-03 0.0 
3.011288708605e-03 4.561198749965e-03 0.0 
3.102952424086e-03 5.232426926575e-03 0.0 
3.125766525260e-03 4.507891584847e-03 0.0 
3.187714324737e-03 5.120005201109e-03 0.0 
3.194958760605e-03 4.369201833407e-03 0.0 
3.099927203425e-03 3.837322700714e-03 0.0 
3.153693054957e-03 3.687624318907e-03 0.0 
3.210847278819e-03 4.147318337372e-03 0.0 
3.153208290686e-03 3.467287982903e-03 0.0 
3.167027573792e-03 3.850218873007e-03 0.0 
3.095102031979e-03 3.187002592872e-03 0.0 
3.058130316652e-03 2.871814664042e-03 0.0 
2.991688997202e-03 2.617002899618e-03 0.0 
2.979382791445e-03 2.862294662060e-03 0.0 
2.873960943832e-03 2.330549568059e-03 0.0 
2.810669069911e-03 2.512195756862e-03 0.0 
2.711038501633e-03 2.027236514166e-03 0.0 
2.598157895894e-03 2.154354379172e-03 0.0 
2.510521626233e-03 1.718961345994e-03 0.0 
2.595241366336e-03 1.620205217595e-03 0.0 
2.408459076125e-03 1.354929719549e-03 0.0 
2.282948010169e-03 1.418553542940e-03 0.0 
2.199201419561e-03 1.098093682815e-03 0.0 
2.293214033662e-03 1.054209955641e-03 0.0 
2.101730864705e-03 8.347567182671e-04 0.0 
2.166516467890e-03 8.077264319145e-04 0.0 
1.992463555498e-03 6.201711528792e-04 0.0 
1.900617881996e-03 6.289415962132e-04 0.0 
1.809132656056e-03 4.435648025644e-04 0.0 
1.873676692249e-03 4.475099888535e-04 0.0 
1.706553129280e-03 2.954906757372e-04 0.0 
1.620721595239e-03 2.794020220532e-04 0.0 
1.535959877817e-03 1.549396192210e-04 0.0 
1.596611524286e-03 1.800269478408e-04 0.0 
1.441241897997e-03 5.850588288706e-05 0.0 
1.365417475762e-03 2.659663306224e-05 0.0 
1.285919341676e-03 -5.222580136178e-05 0.0 
1.340643669513e-03 -1.317765009673e-05 0.0 
1.198268066873e-03 -1.100456144396e-04 0.0 
1.132765628386e-03 -1.523193832146e-04 0.0 
1.058480639988e-03 -1.969718594081e-04 0.0 
1.105391819258e-03 -1.497159635238e-04 0.0 
9.770284126827e-04 -2.265160621479e-04 0.0 
1.007639411003e-03 -1.753162893284e-04 0.0 
9.206880806700e-04 -2.757067960225e-04 0.0 
8.512354391759e-04 -2.955549786034e-04 0.0 
7.884934905278e-04 -3.453498010011e-04 0.0 
7.300922104865e-04 -3.568518677939e-04 0.0 
2.932965967507e-03 2.357029264577e-03 0.0 
6.657894495626e-04 -4.050373961283e-04 0.0 
7.085855419740e-04 -3.890205382067e-04 0.0 
6.157778358528e-04 -4.104597607569e-04 0.0 
6.644588970607e-04 -3.593838543069e-04 0.0 
5.520796283452e-04 -4.563628146141e-04 0.0 
5.092804973931e-04 -4.569139116724e-04 0.0 
4.484829201311e-04 -4.998767508719e-04 0.0 
2.660274681799e-03 2.677782694002e-03 0.0 
2.671589807571e-03 3.829553920166e-03 0.0 
4.116646299846e-04 -4.967647514437e-04 0.0 
3.558074646702e-04 -5.362710142171e-04 0.0 
3.783004960329e-04 -5.357353759204e-04 0.0 
2.933599519538e-04 -5.683409324656e-04 0.0 
1.659330153478e-03 6.321399445469e-03 0.0 
1.571464936361e-03 5.350449988012e-03 0.0 
1.482247869100e-03 5.862405384310e-03 0.0 
1.374503617895e-03 4.887341269902e-03 0.0 
1.302086590220e-03 5.378834304066e-03 0.0 
2.743329227253e-04 -5.664391534238e-04 0.0 
1.975820705757e-03 4.210025427019e-03 0.0 
1.432748032472e-03 4.386061780566e-03 0.0 
3.029184748412e-03 5.997881377667e-03 0.0 
3.198539797339e-03 4.611879350582e-03 0.0 
2.322991554981e-03 1.001080200929e-03 0.0 
4.584900940937e-04 -4.508041625728e-04 0.0 
3.664731224112e-04 -4.880735670529e-04 0.0 
4.008368297496e-04 -4.395668815273e-04 0.0 
1.123410180662e-03 -1.014115659317e-04 0.0 
1.010666460628e-03 -1.243204480400e-04 0.0 
1.109943730059e-03 -5.481840396989e-05 0.0 
9.848258640845e-04 -7.576223932863e-05 0.0 
1.063842729793e-03 -1.236803810224e-05 0.0 
9.295140092669e-04 -3.194216651953e-05 0.0 
8.618591514627e-04 -8.738335202076e-05 0.0 
8.000576276990e-04 -4.307334081372e-05 0.0 
7.424246004648e-04 -9.175644804209e-05 0.0 
9.848325878136e-04 2.350880475499e-05 0.0 
1.131002535546e-03 5.178524891446e-05 0.0 
6.767362253040e-04 -4.781184128509e-05 0.0 
6.277670811082e-04 -9.070649375707e-05 0.0 
5.606972635245e-04 -4.795322585589e-05 0.0 
5.190992067015e-04 -8.570381379672e-05 0.0 
5.683334521949e-04 -1.338631617491e-04 0.0 
4.664245143862e-04 -1.242790566464e-04 0.0 
5.009970713947e-04 -1.764205924681e-04 0.0 
2.170923036950e-03 7.720274868022e-04 0.0 
2.289103262631e-03 9.369154725277e-04 0.0 
2.115012971577e-03 7.262243049984e-04 0.0 
2.191417589074e-03 8.601144563954e-04 0.0 
1.998891366765e-03 6.689619215893e-04 0.0 
2.030709931995e-03 7.701962015169e-04 0.0 
1.822708192823e-03 5.993771930436e-04 0.0 
1.803335482505e-03 5.156023817307e-04 0.0 
2.239185305782e-03 3.995872891355e-03 0.0 
2.040565196998e-03 1.134524947011e-03 0.0 
2.086937541308e-03 1.472425651151e-03 0.0 
1.818230650130e-03 1.166717975698e-03 0.0 
1.820962775718e-03 1.518538356202e-03 0.0 
1.535658784365e-03 1.197469198255e-03 0.0 
1.488572207725e-03 1.562730701236e-03 0.0 
1.198309553430e-03 1.232694465248e-03 0.0 
1.268061432512e-03 9.128166478356e-04 0.0 
9.356536261493e-04 9.434902998450e-04 0.0 
1.022086406132e-03 6.621632337056e-04 0.0 
7.030785559885e-04 6.897678035346e-04 0.0 
7.993774789444e-04 4.429122024449e-04 0.0 
3.030044323962e-03 3.230106143417e-03 0.0 
2.234625449251e-03 9.819843043345e-04 0.0 
2.026033855060e-03 8.543996384246e-04 0.0 
2.238743205132e-03 1.083907628214e-03 0.0 
3.016582275030e-04 -5.636128930189e-04 0.0 
4.173601654396e-04 -7.784483430156e-05 0.0 
1.024177768403e-03 7.716315751175e-05 0.0 
1.182887230058e-03 1.144023643246e-04 0.0 
1.614168768816e-03 4.624463358306e-04 0.0 
2.208284936060e-04 -5.945388038872e-04 0.0 
1.098640814467e-03 1.612530424415e-03 0.0 
1.409639733584e-03 1.996350828346e-03 0.0 
1.179803530796e-03 4.400513679081e-03 0.0 
1.124136081909e-03 4.878345331327e-03 0.0 
1.043613866560e-03 1.267582247394e-04 0.0 
2.040554704306e-04 -5.913241433123e-04 0.0 
7.122576255589e-04 -6.441229622571e-06 0.0 
5.729172614073e-04 9.877674340568e-04 0.0 
3.700818032688e-04 -1.123243541531e-04 0.0 
3.233977322808e-04 -6.799644488786e-05 0.0 
7.851983389709e-04 -1.413679646355e-04 0.0 
1.980122053415e-03 9.151194095507e-04 0.0 
2.204030715259e-03 1.161398460115e-03 0.0 
1.080783809719e-03 4.298949763092e-04 0.0 
8.678976322388e-04 2.404011474559e-04 0.0 
6.010896751736e-04 2.519021802224e-04 0.0 
6.843358757462e-04 7.075419293085e-05 0.0 
9.130942544866e-04 7.567307521773e-05 0.0 
7.321142275307e-04 -6.559027803846e-05 0.0 
5.169887692921e-04 -6.999665692156e-05 0.0 
5.714469417003e-04 -1.865517230306e-04 0.0 
7.617292636466e-04 -1.740356345087e-04 0.0 
6.084768397757e-04 -2.769823425823e-04 0.0 
4.309123594453e-04 -2.874084399897e-04 0.0 
4.740167149246e-04 -3.629219705904e-04 0.0 
3.544644717137e-04 -3.920046573866e-05 0.0 
3.638160892106e-04 7.312753287004e-04 0.0 
2.618850261360e-03 6.533506917358e-03 0.0 
8.817294638232e-04 9.193095475880e-05 0.0 
1.590919020099e-03 5.186474837328e-04 0.0 
9.904625681717e-04 3.899102779398e-03 0.0 
9.508990609437e-04 4.365424777356e-03 0.0 
1.057243371240e-03 5.357206152993e-03 0.0 
8.990428786770e-04 4.831350472858e-03 0.0 
7.851505153444e-04 3.843463451634e-03 0.0 
7.478977884919e-04 4.300951517368e-03 0.0 
8.381048064837e-04 5.296285225857e-03 0.0 
7.000888920108e-04 4.757558887100e-03 0.0 
7.703704974726e-04 5.758228326052e-03 0.0 
6.440384426243e-04 5.212244731440e-03 0.0 
5.701748268216e-04 4.216423228704e-03 0.0 
5.250099048302e-04 4.666426999542e-03 0.0 
5.817284607929e-04 5.665618913061e-03 0.0 
4.721866074052e-04 5.115725105760e-03 0.0 
5.146040380178e-04 6.117013174785e-03 0.0 
4.130543342610e-04 5.564159746491e-03 0.0 
3.706849382408e-04 4.567541169119e-03 0.0 
1.627137625391e-04 -6.146937577304e-04 0.0 
1.607919269313e-03 3.941496377653e-04 0.0 
1.407989622863e-03 3.543039927061e-04 0.0 
3.164343345205e-04 -4.747574871977e-04 0.0 
3.401399282317e-04 -4.238560933571e-04 0.0 
4.256405632209e-04 -3.862618931605e-04 0.0 
3.525890969969e-04 -3.697781484650e-04 0.0 
3.175162538478e-04 5.017902943300e-03 0.0 
2.787575366402e-04 4.022807439286e-03 0.0 
9.669670703345e-04 2.060678911618e-03 0.0 
1.296437036012e-03 2.510714314142e-03 0.0 
1.014147857872e-03 3.433402141893e-03 0.0 
2.801396831615e-04 -9.894934764224e-05 0.0 
3.135647643693e-04 -1.475510845573e-04 0.0 
3.107684461948e-03 4.226613160043e-03 0.0 
3.110389332655e-03 5.073011225068e-03 0.0 
2.967995167426e-03 4.592549497531e-03 0.0 
2.931759741230e-03 5.536323393980e-03 0.0 
3.053964243487e-03 6.033817654299e-03 0.0 
2.726192401301e-03 4.939908815863e-03 0.0 
1.282497364989e-03 9.161493944580e-05 0.0 
4.503088798153e-04 3.675821149953e-03 0.0 
3.898942450721e-04 -5.273629335313e-04 0.0 
2.977156393366e-04 -5.507699671959e-04 0.0 
2.380125561870e-04 -5.736799733855e-05 0.0 
1.753824018455e-03 4.213131132181e-04 0.0 
2.938892546794e-03 3.314509352977e-03 0.0 
2.839969510985e-03 2.773155917431e-03 0.0 
2.710707950486e-03 2.797731723315e-03 0.0 
2.582206361952e-03 2.318061040685e-03 0.0 
2.413589480194e-03 2.286647616234e-03 0.0 
2.253894881277e-03 1.866585522892e-03 0.0 
2.420415065873e-03 1.894422486726e-03 0.0 
1.887911719328e-03 9.443152437033e-04 0.0 
2.062932525409e-03 1.496625678298e-03 0.0 
3.543247312922e-04 6.021406469191e-03 0.0 
2.431748577218e-03 1.240505278540e-03 0.0 
7.729102735425e-04 -2.564373908444e-04 0.0 
1.690647640466e-04 -6.133972869240e-04 0.0 
3.073413981574e-04 -3.706503626856e-04 0.0 
1.452551928758e-04 -6.109260169762e-04 0.0 
1.779353253607e-04 -5.832439343248e-04 0.0 
8.662043544091e-04 1.266931505828e-04 0.0 
2.043903103867e-03 1.781186027516e-03 0.0 
2.204118567947e-03 2.193965514088e-03 0.0 
2.828878280025e-03 6.631880626692e-03 0.0 
2.924548382554e-03 7.090294892034e-03 0.0 
1.652771048580e-03 7.324981133854e-04 0.0 
1.382189784822e-03 6.376785284842e-03 0.0 
9.019697607734e-04 6.302487738435e-03 0.0 
8.180986925690e-04 6.767134637781e-03 0.0 
1.128143226170e-04 -6.321642834213e-04 0.0 
2.505132496749e-04 -2.861695402306e-04 0.0 
6.300144938349e-04 3.317305799246e-03 0.0 
1.742427109380e-03 2.438153568374e-03 0.0 
1.658455875616e-03 3.032682166721e-03 0.0 
1.946049240223e-04 1.046240202872e-03 0.0 
1.500764055948e-05 7.861653683515e-04 0.0 
2.348820206973e-04 4.459822648695e-03 0.0 
1.994043560618e-04 3.479644841353e-03 0.0 
4.386622676968e-04 -3.301658617823e-04 0.0 
3.575525102594e-04 -3.128941156641e-04 0.0 
1.038918869737e-03 1.697650864422e-04 0.0 
3.587364254881e-04 -4.339548912560e-04 0.0 
2.284052987235e-04 3.038797306591e-03 0.0 
1.572058489057e-03 3.151734832270e-04 0.0 
1.679051200322e-03 3.208444029608e-04 0.0 
2.687876222518e-04 -4.067349247196e-04 0.0 
7.943739338508e-04 2.584958652832e-03 0.0 
4.897269209587e-04 2.135252513509e-03 0.0 
9.345368788518e-04 -1.524284961742e-04 0.0 
4.988824273093e-04 -4.182143394631e-04 0.0 
1.204638169096e-04 -6.032073147627e-04 0.0 
8.220055862282e-04 1.513233839182e-04 0.0 
6.396875482278e-04 2.868682737206e-03 0.0 
2.230964882124e-03 1.530455856590e-03 0.0 
2.541436912232e-03 1.873873336774e-03 0.0 
1.847025303032e-03 1.179303733875e-03 0.0 
2.154909228434e-04 -4.392287308311e-04 0.0 
7.045615824442e-04 9.376686414514e-05 0.0 
1.975143756936e-04 -8.469248499883e-05 0.0 
1.813029223076e-03 1.667685509084e-03 0.0 
1.957971068815e-03 2.044606592727e-03 0.0 
2.084627602538e-03 2.935914889388e-03 0.0 
2.045981819745e-03 3.634856257691e-03 0.0 
1.544378994714e-03 3.753765456623e-03 0.0 
1.968472241527e-03 4.479456831445e-03 0.0 
2.307280104510e-03 6.926473510738e-03 0.0 
2.420905852663e-03 3.481749982155e-03 0.0 
2.773734398522e-03 6.698150193519e-03 0.0 
2.615788676372e-03 7.421253445695e-03 0.0 
2.739717558778e-03 7.566984774815e-03 0.0 
3.095758637703e-03 6.403839184280e-03 0.0 
2.944605976564e-03 7.401348174108e-03 0.0 
2.112302433224e-03 1.878258090604e-03 0.0 
2.455496956546e-03 1.195860513626e-03 0.0 
5.175985528048e-04 -3.443733134261e-04 0.0 
6.004141926593e-04 -1.868170320778e-04 0.0 
1.235697356508e-03 -2.189936569426e-05 0.0 
4.750575994241e-04 3.230743437811e-03 0.0 
3.572890011097e-04 2.695835589762e-03 0.0 
6.217842972141e-04 6.671446896585e-03 0.0 
5.434462756069e-04 7.123849196604e-03 0.0 
2.222706220859e-04 -5.830007835568e-04 0.0 
2.045101986749e-04 -5.646568393556e-04 0.0 
9.068960204353e-04 -1.895746308508e-04 0.0 
7.298479849185e-04 6.686543396401e-05 0.0 
8.168335235889e-04 2.933122513307e-03 0.0 
8.037208303613e-04 2.481533131364e-03 0.0 
1.017886795571e-03 2.968838369495e-03 0.0 
1.005157196373e-03 2.031554315831e-04 0.0 
1.795476285089e-03 8.748315127091e-04 0.0 
2.011604079082e-03 5.868000052238e-04 0.0 
1.843962061439e-04 5.110657980592e-04 0.0 
2.953009925163e-03 2.547860164376e-03 0.0 
1.442076382577e-04 -5.933535650922e-04 0.0 
2.462656103475e-03 3.684086149893e-03 0.0 
1.623373699841e-04 -4.612766955414e-05 0.0 
1.879802176523e-04 -2.480484686877e-05 0.0 
1.507376942855e-03 7.198893588331e-04 0.0 
2.119022620258e-03 8.470813731519e-03 0.0 
2.806382762644e-03 2.086347400781e-03 0.0 
2.784544125688e-03 1.918810513162e-03 0.0 
2.545805105867e-03 8.324116288139e-03 0.0 
2.633792067000e-03 8.455715868231e-03 0.0 
2.838684669241e-03 7.627771358990e-03 0.0 
2.693265358479e-03 8.503705488758e-03 0.0 
9.185555391914e-04 -2.270818002610e-04 0.0 
7.668040424472e-04 -3.167243512329e-04 0.0 
1.581953975351e-03 1.269916299920e-03 0.0 
1.644156195687e-03 1.108562045128e-03 0.0 
1.543075247206e-03 1.486726662881e-03 0.0 
1.680380655601e-03 1.832890430092e-03 0.0 
1.257357929747e-03 5.371368144086e-04 0.0 
1.412440346095e-03 5.579466902875e-04 0.0 
1.431595482840e-04 -5.719735859854e-04 0.0 
2.718988012190e-03 8.182139124833e-03 0.0 
4.838569956362e-04 2.346328479178e-03 0.0 
2.435782794580e-03 8.124122408675e-03 0.0 
5.599211048251e-04 6.962572083605e-05 0.0 
5.899375817490e-04 4.784087678315e-05 0.0 
-1.376064068634e-04 5.635325477443e-04 0.0 
3.649706631700e-05 2.916669353243e-04 0.0 
1.553317812557e-04 2.522595486126e-03 0.0 
1.391014153233e-03 4.625802415735e-03 0.0 
1.835959136483e-03 5.505638485232e-03 0.0 
9.663076016957e-04 3.849494691119e-03 0.0 
2.458819110903e-05 -1.184750454682e-06 0.0 
1.474003862979e-04 9.026966033836e-03 0.0 
1.215328520399e-04 -1.729309753172e-05 0.0 
3.074844674751e-03 6.655083011398e-03 0.0 
1.672866660764e-04 2.048592101608e-03 0.0 
2.639654125275e-03 1.698629607636e-03 0.0 
2.943542576059e-03 3.783018974520e-03 0.0 
1.221548788986e-03 2.273935672932e-04 0.0 
1.269259680241e-04 3.040423537818e-03 0.0 
9.305458352224e-05 1.968858131470e-03 0.0 
9.389059782147e-04 7.299000536459e-03 0.0 
8.459032913117e-04 7.781268582939e-03 0.0 
1.036808959148e-03 6.841955432570e-03 0.0 
4.141921611008e-04 1.342256041432e-03 0.0 
-5.180347569298e-05 1.468145193062e-03 0.0 
3.422829261637e-04 3.136698958510e-03 0.0 
2.831237174315e-04 -5.204370441053e-04 0.0 
2.336264183432e-04 -5.021271827024e-04 0.0 
3.827797394876e-04 -4.782246102789e-04 0.0 
5.042797026888e-04 -4.565989277409e-04 0.0 
5.269659047712e-04 -2.876111135920e-04 0.0 
6.129057346359e-04 -2.984627166981e-04 0.0 
2.417500962175e-03 3.148029850440e-03 0.0 
2.183660257089e-03 2.970564429126e-03 0.0 
2.802298425626e-03 3.333454155435e-03 0.0 
1.511479218636e-03 2.304359689795e-04 0.0 
1.584383098240e-03 2.187173295719e-04 0.0 
1.737594118987e-03 3.188984947851e-04 0.0 
3.630579297062e-04 2.287798365904e-03 0.0 
2.406989074629e-04 1.680144978142e-03 0.0 
1.081710332695e-03 -1.223421259259e-04 0.0 
1.109704519311e-03 -3.081483090871e-05 0.0 
8.858672698669e-04 -2.819998003583e-04 0.0 
4.657492146057e-04 1.925026749792e-03 0.0 
1.341967744640e-04 -3.647367447383e-06 0.0 
2.005593785542e-04 -6.802317597734e-06 0.0 
1.166458561982e-04 -5.698255696000e-04 0.0 
1.750066372914e-04 -5.341529590923e-04 0.0 
2.728975754659e-04 2.657330794180e-03 0.0 
3.200225101489e-06 2.221696275399e-03 0.0 
7.772722325359e-04 2.070716483501e-03 0.0 
9.999408139896e-04 2.516829603577e-03 0.0 
5.493482343932e-04 1.550521548147e-03 0.0 
8.581385225093e-05 -5.942376344706e-04 0.0 
2.349128257033e-03 1.518353865219e-03 0.0 
7.656701010930e-04 1.704744649433e-04 0.0 
9.605369204581e-04 2.295015914254e-04 0.0 
5.537362413840e-04 1.164957659443e-04 0.0 
1.761895636521e-03 9.464139563504e-04 0.0 
1.333633977192e-03 6.771485117789e-04 0.0 
1.384068179446e-03 8.278702947724e-04 0.0 
-3.268552491092e-04 8.431925410114e-04 0.0 
7.003392870667e-05 2.368305512439e-03 0.0 
6.469654261584e-04 7.682952329471e-03 0.0 
-4.139064605371e-04 6.487896225086e-04 0.0 
5.593846824395e-04 8.171245065126e-03 0.0 
4.655587413499e-04 7.581951608008e-03 0.0 
4.851506145500e-04 8.654457441606e-03 0.0 
7.299878742218e-05 -6.197247479103e-04 0.0 
1.069768505374e-03 8.011173206455e-03 0.0 
1.182076624407e-03 7.415488781904e-03 0.0 
5.621508158720e-05 -5.322871512091e-04 0.0 
3.130891637399e-04 1.418665020306e-03 0.0 
7.756005400149e-05 -5.938111788332e-04 0.0 
1.021360600982e-04 -6.137808687655e-04 0.0 
4.257189515119e-04 4.942681509656e-05 0.0 
4.625035433642e-04 3.490752030622e-05 0.0 
3.080343565009e-04 3.658443226194e-05 0.0 
3.567883431023e-04 2.705122104075e-05 0.0 
4.798316896684e-04 1.342935608748e-05 0.0 
3.712150674198e-04 8.975067619960e-06 0.0 
7.598672174573e-04 8.330264073007e-03 0.0 
2.430581664378e-04 2.102129788145e-05 0.0 
2.734884959976e-04 7.354538531955e-06 0.0 
1.595753354465e-04 1.351920212176e-05 0.0 
2.444967095818e-03 9.379192197834e-03 0.0 
2.321484570470e-03 5.243446267015e-03 0.0 
2.186044371392e-03 6.444196976839e-03 0.0 
1.597676878828e-03 6.893177387718e-03 0.0 
1.139264648904e-03 1.126116450237e-03 0.0 
1.403396060142e-03 1.602459145168e-03 0.0 
1.228170798443e-04 -6.945332903457e-05 0.0 
1.405126759910e-04 -1.127911207253e-04 0.0 
3.858708168432e-04 8.113704662831e-03 0.0 
2.822953448523e-04 8.150929338387e-03 0.0 
3.054981975662e-04 7.231348627483e-03 0.0 
2.208159332777e-04 7.338814641730e-03 0.0 
2.363743546795e-04 6.438705036247e-03 0.0 
1.523714542185e-04 6.550922668097e-03 0.0 
1.788630896456e-04 5.653016504346e-03 0.0 
1.132614263083e-03 7.249664989554e-04 0.0 
6.977048369227e-04 4.663966781806e-03 0.0 
2.331591058241e-03 9.058812721738e-03 0.0 
1.004475780149e-03 3.875331284242e-04 0.0 
1.205178540130e-03 4.328473044568e-04 0.0 
2.730510445239e-03 8.404778016749e-03 0.0 
2.438439415538e-03 9.287663873444e-03 0.0 
4.670161399610e-04 7.716136904657e-05 0.0 
2.413735941037e-03 2.819915043885e-03 0.0 
2.362973760932e-04 8.917889334132e-04 0.0 
-9.134057193099e-04 1.688397069911e-03 0.0 
-5.084772625057e-04 1.472429214596e-03 0.0 
2.696083583841e-03 3.303422799346e-03 0.0 
2.909590855994e-03 7.582610663807e-03 0.0 
2.621787862660e-03 5.999000272152e-03 0.0 
2.492136306932e-03 7.255896962433e-03 0.0 
1.392447375249e-03 2.342185625439e-04 0.0 
1.272719827238e-04 -4.900803776400e-04 0.0 
5.979460879991e-04 3.196579099857e-03 0.0 
2.607405134996e-04 5.556210995584e-03 0.0 
1.539763718710e-05 3.217471997899e-03 0.0 
6.430093499795e-05 -9.041043239250e-05 0.0 
2.395919318328e-03 2.267520130070e-03 0.0 
3.179529648750e-03 5.752395324579e-03 0.0 
1.149119026158e-03 3.117394451522e-03 0.0 
2.432185681782e-03 4.298935545143e-03 0.0 
2.446683230407e-03 6.300647613915e-03 0.0 
2.153667045298e-03 7.530562934049e-03 0.0 
2.295344043546e-03 7.867377188618e-03 0.0 
2.350613394747e-03 1.806033382744e-03 0.0 
2.649412783380e-03 7.818215742386e-03 0.0 
2.217224070595e-03 8.675587295319e-03 0.0 
2.898382076075e-03 5.968686981635e-03 0.0 
1.241929310697e-03 3.440540065944e-03 0.0 
1.238487089919e-03 2.965114707784e-03 0.0 
9.616733892717e-04 2.097955712020e-03 0.0 
1.208258439725e-03 2.508643003602e-03 0.0 
1.484708863228e-03 3.397483527224e-03 0.0 
1.469693959273e-03 2.916848324667e-03 0.0 
1.148088770677e-03 2.075854092525e-03 0.0 
1.424227648356e-03 2.453626439949e-03 0.0 
9.676203011426e-04 1.496071135527e-03 0.0 
1.332042191141e-03 1.993810341010e-03 0.0 
1.702779908209e-03 2.820842281693e-03 0.0 
1.638698607905e-03 2.373415790409e-03 0.0 
1.263550389110e-03 1.673063085289e-03 0.0 
1.983603596424e-03 3.195462759001e-03 0.0 
8.044728945936e-04 3.340237372823e-04 0.0 
2.887447788368e-03 3.093265571222e-03 0.0 
-1.881997536955e-04 1.121498083464e-03 0.0 
-3.714361850591e-04 1.809067477675e-03 0.0 
3.125572425751e-03 5.930457701437e-03 0.0 
4.738095356966e-04 7.193279304533e-04 0.0 
3.875429746184e-04 7.503381282856e-04 0.0 
1.794893372103e-03 1.938412074906e-03 0.0 
5.842827549112e-04 5.053434941074e-04 0.0 
2.466872704183e-03 7.209269438753e-03 0.0 
8.160998688869e-04 1.280813220944e-03 0.0 
6.027647240327e-04 4.261206356525e-04 0.0 
1.471189289561e-03 3.886916086037e-03 0.0 
1.701775141005e-03 4.328064631814e-03 0.0 
1.645938098913e-03 4.840601712067e-03 0.0 
2.950965298599e-04 7.246343766019e-04 0.0 
1.132257189312e-03 6.368946595957e-03 0.0 
5.194763341974e-04 2.518013245293e-04 0.0 
2.377957601525e-03 1.095613382450e-03 0.0 
2.556061424112e-03 1.383400026217e-03 0.0 
2.609713464482e-03 1.508670586682e-03 0.0 
1.735006116951e-03 3.321304538863e-03 0.0 
4.341336496094e-04 1.469638431872e-04 0.0 
7.716259531406e-04 2.472004471356e-04 0.0 
7.104951193790e-04 2.060208454091e-04 0.0 
1.063532343371e-03 3.168889665112e-04 0.0 
3.653143614451e-04 1.052168459652e-04 0.0 
4.937491385176e-04 5.904955227634e-04 0.0 
4.960608176773e-04 5.299216545470e-04 0.0 
9.330743811269e-04 -5.275437940451e-05 0.0 
1.121877418574e-03 8.818049122749e-05 0.0 
1.297504563661e-03 1.085505798876e-04 0.0 
1.323724647363e-03 2.503238599286e-04 0.0 
1.112992983425e-03 2.405345709121e-04 0.0 
1.328682164568e-03 4.271755000745e-04 0.0 
1.534984208264e-03 4.325762515258e-04 0.0 
1.309869691353e-03 6.463737569158e-04 0.0 
1.821442748304e-03 2.266729074530e-03 0.0 
2.911880678532e-04 7.043487908543e-05 0.0 
1.201625486769e-03 1.782760633635e-05 0.0 
1.340867306185e-03 6.109804985416e-05 0.0 
1.359517636393e-03 2.527249431454e-05 0.0 
5.933609761081e-04 -3.545362213902e-04 0.0 
6.962462077672e-04 -3.046662173676e-04 0.0 
7.093571319389e-04 -2.483402805441e-04 0.0 
4.943898395459e-04 -3.995231338350e-04 0.0 
2.705681402798e-03 2.293561588863e-03 0.0 
2.623965357593e-04 5.760552226509e-05 0.0 
1.847041682900e-03 4.385171513166e-04 0.0 
7.760395623863e-04 -3.044326738702e-04 0.0 
1.415919363257e-03 8.952354430695e-03 0.0 
1.500500464332e-03 8.043215111072e-03 0.0 
1.651478486788e-03 7.946088574169e-03 0.0 
1.554810440858e-03 6.999528327157e-03 0.0 
1.332020030697e-03 7.985746333363e-03 0.0 
4.398543894532e-04 -2.729375455233e-04 0.0 
3.527626384145e-04 -2.555327881650e-04 0.0 
2.749883898332e-04 -2.933744054200e-04 0.0 
2.665804728897e-04 -2.362187542524e-04 0.0 
1.924001731445e-04 -2.720204159946e-04 0.0 
1.985021435922e-04 -3.281605077591e-04 0.0 
1.805204616950e-04 -2.155208931488e-04 0.0 
1.117575889507e-04 -2.556420181513e-04 0.0 
1.137892068425e-03 9.027647684326e-03 0.0 
-3.637982265973e-04 9.382753096512e-05 0.0 
-1.300808323192e-04 -2.596289130627e-05 0.0 
-8.403864640971e-05 -1.826042866271e-04 0.0 
6.373750948930e-05 -1.246959411962e-04 0.0 
5.310041193626e-05 3.940764359599e-05 0.0 
2.779566761082e-04 -6.406900529247e-05 0.0 
2.445599086371e-04 1.195804767757e-04 0.0 
-1.877266687045e-04 1.766893123603e-04 0.0 
-2.044553774571e-04 -2.271257328493e-04 0.0 
-4.036986151414e-05 -3.046761206740e-04 0.0 
-1.419849534280e-04 -3.389401804789e-04 0.0 
-1.038287134042e-05 -3.981252108510e-04 0.0 
1.274522607088e-04 -3.670708323825e-04 0.0 
2.845245021258e-04 -5.265860639611e-04 0.0 
6.953800890483e-05 6.559080057399e-06 0.0 
7.207360493729e-05 -4.129205291325e-04 0.0 
1.364041642512e-04 -4.386551004256e-04 0.0 
1.256518655600e-04 -4.870959410134e-04 0.0 
2.022318456419e-04 -4.594711052769e-04 0.0 
1.392945245508e-04 -3.896808031859e-04 0.0 
5.934539572589e-05 -5.123354155701e-04 0.0 
1.116229851017e-04 -5.268551378130e-04 0.0 
2.503088178989e-05 -6.634426453327e-04 0.0 
3.150056113732e-05 -6.606271186909e-04 0.0 
1.402486881598e-05 -6.642059183281e-04 0.0 
3.413286743557e-05 -6.537638090365e-04 0.0 
5.455357522644e-05 -6.506251912927e-04 0.0 
4.499642231337e-05 -6.560153101382e-04 0.0 
5.589843123595e-05 -6.495026739769e-04 0.0 
3.413003832069e-05 -6.472350655443e-04 0.0 
6.358258073176e-05 -6.396948007500e-04 0.0 
9.244887013665e-05 -6.389169680649e-04 0.0 
3.150084323538e-05 -6.335103355447e-04 0.0 
5.710714910318e-05 4.352829104517e-03 0.0 
1.082073407347e-04 3.864237389336e-03 0.0 
2.217075716146e-04 4.004860177427e-05 0.0 
8.807450663920e-04 8.960881679114e-03 0.0 
-4.697996039344e-05 -4.937724504600e-04 0.0 
8.662057541862e-05 9.727300920778e-04 0.0 
1.344278374230e-04 8.031600764970e-04 0.0 
1.071704706128e-04 7.790996582723e-04 0.0 
4.051332550953e-05 -2.026002954282e-05 0.0 
6.572376977368e-05 -8.719421522461e-06 0.0 
4.724408265107e-05 9.464528433284e-04 0.0 
4.752086709468e-04 -4.959771509993e-04 0.0 
8.957105119327e-04 1.701873805392e-03 0.0 
2.473555020693e-04 2.597968325866e-03 0.0 
6.726340228195e-04 1.674371057899e-03 0.0 
6.285629750722e-04 -3.928492212269e-04 0.0 
2.234061541476e-04 -1.306482718015e-04 0.0 
6.749616041360e-04 -1.398279497889e-04 0.0 
2.661688716525e-04 -3.219670242116e-05 0.0 
4.051288153764e-04 -1.629220201166e-04 0.0 
4.529509834499e-04 -4.471828105617e-05 0.0 
6.659201956224e-04 1.721623994515e-04 0.0 
9.883033057376e-05 -6.263565436672e-04 0.0 
6.976834046183e-04 6.216469615117e-03 0.0 
4.476988619872e-04 6.571291063692e-03 0.0 
4.150145695728e-04 4.121784883186e-03 0.0 
3.236441467192e-04 -5.307116155556e-04 0.0 
2.788508473443e-04 -3.475496811096e-04 0.0 
2.278481389369e-04 -5.920473725560e-04 0.0 
1.085734771340e-03 8.590563135878e-04 0.0 
2.903046579292e-03 6.790140497854e-03 0.0 
1.233852710434e-03 -6.555567016286e-05 0.0 
5.582231691095e-04 -4.080207523748e-04 0.0 
5.860930370293e-04 -4.470678238879e-04 0.0 
6.274264988381e-04 -3.445139987203e-04 0.0 
3.059306524682e-03 3.491837025219e-03 0.0 
8.910977494891e-04 -2.430750223900e-04 0.0 
8.448624555760e-04 4.847873287873e-06 0.0 
3.156211510722e-04 3.579374394466e-03 0.0 
1.503869406859e-05 -5.872988699377e-04 0.0 
8.733478980262e-04 5.066701275612e-05 0.0 
8.975541170852e-04 -1.368523529679e-04 0.0 
9.825783150403e-04 5.833387423996e-03 0.0 
1.808011621010e-03 6.675161116786e-04 0.0 
3.764590174868e-04 -1.920374808722e-04 0.0 
6.061773432311e-04 3.767999268167e-03 0.0 
6.143188148993e-04 2.040017486813e-03 0.0 
1.280282855764e-03 6.891988211629e-03 0.0 
1.609691295817e-04 -6.082578525672e-04 0.0 
7.347193213398e-04 7.241809810263e-03 0.0 
6.507013344383e-04 1.122953745203e-04 0.0 
1.220361094652e-03 3.918755440389e-03 0.0 
2.456972039344e-04 -5.594160250900e-04 0.0 
2.030648126416e-03 6.077682334767e-04 0.0 
3.222614522496e-03 4.910497947785e-03 0.0 
2.030016707304e-03 9.411843707171e-03 0.0 
2.561619204946e-04 2.195223566388e-03 0.0 
2.864515996067e-03 2.133731320525e-03 0.0 
1.370767926908e-03 3.977677979371e-04 0.0 
1.935762992597e-03 5.564658741029e-04 0.0 
2.096304238841e-04 -5.474431706289e-04 0.0 
5.993525231174e-04 2.027157676691e-05 0.0 
2.464991204140e-03 1.280390132749e-03 0.0 
4.881195716520e-04 2.793564266694e-03 0.0 
2.538628667474e-03 2.757782941989e-03 0.0 
1.978260710916e-03 8.570423528826e-04 0.0 
8.092207717513e-04 3.387484618356e-03 0.0 
1.480049733922e-03 9.114790378189e-05 0.0 
1.752301800797e-03 7.132783266491e-04 0.0 
3.007096092633e-03 6.777089497273e-03 0.0 
2.997373457018e-03 3.912758940663e-03 0.0 
2.466596189756e-03 4.245905741079e-03 0.0 
3.070627571322e-03 3.079864045315e-03 0.0 
1.520413975724e-04 -1.632166962819e-04 0.0 
7.312868604503e-04 3.226316627953e-05 0.0 
5.000646072441e-04 4.742511980596e-04 0.0 
2.737998244380e-03 4.053491240922e-03 0.0 
1.219372620062e-03 5.872849911768e-03 0.0 
1.865510160243e-03 1.429583069031e-03 0.0 
3.437749187056e-04 1.825489005004e-03 0.0 
3.178447921960e-03 5.465377192558e-03 0.0 
5.886477799938e-04 -1.211508622808e-05 0.0 
6.365415790421e-04 2.452114761607e-03 0.0 
8.014622617262e-04 -2.496639870897e-04 0.0 
3.558664405663e-05 -6.176790338674e-04 0.0 
2.347503275898e-04 1.755422903221e-03 0.0 
1.556982415672e-03 8.918482346770e-04 0.0 
2.749992610035e-03 1.884262491671e-03 0.0 
8.049119299508e-04 -1.946230229741e-04 0.0 
6.879652505505e-04 1.549112124713e-03 0.0 
4.746976772278e-04 -1.411194946235e-05 0.0 
1.213591832163e-03 1.735424960479e-04 0.0 
-7.081363609670e-04 2.717385947590e-03 0.0 
2.240051414295e-03 8.779616217085e-03 0.0 
3.713388899051e-04 -1.337672059403e-05 0.0 
1.887296075281e-03 4.471367960833e-04 0.0 
1.525096177459e-03 5.521424279350e-04 0.0 
1.202667007001e-04 -3.072531526619e-04 0.0 
1.100216351902e-03 7.838142798391e-04 0.0 
2.474472715744e-03 9.361178066515e-03 0.0 
2.791711431232e-04 -1.073192883021e-05 0.0 
1.414747795876e-03 2.991332541072e-04 0.0 
2.110701252586e-03 2.358576232811e-03 0.0 
2.444515545908e-04 9.030903440406e-03 0.0 
1.762688909412e-04 8.179060706388e-06 0.0 
1.198064660124e-03 2.695383236735e-04 0.0 
2.921772740803e-03 2.689451740360e-03 0.0 
1.746379901462e-03 3.097875674082e-04 0.0 
2.151496567282e-03 1.000385098673e-02 0.0 
7.022775888108e-04 -1.930191052067e-04 0.0 
2.853272963721e-03 3.911752443366e-03 0.0 
2.531830160822e-04 7.166059545619e-04 0.0 
1.163399464637e-03 3.050804301854e-04 0.0 
1.857693779420e-03 5.288511813978e-03 0.0 
6.156427059464e-04 -2.419507659010e-04 0.0 
2.450215978593e-03 1.367134737154e-03 0.0 
7.344731989165e-05 -6.462106122875e-04 0.0 
2.399812384926e-03 9.250050324504e-03 0.0 
5.214739544068e-04 -2.310097137456e-04 0.0 
1.556054142470e-03 6.389926454626e-04 0.0 
1.613515041097e-03 2.022527814109e-04 0.0 
1.082210883458e-03 4.939423095683e-04 0.0 
4.287065835273e-04 -2.166488423086e-04 0.0 
1.754865308067e-03 6.342756672008e-04 0.0 
3.379877585948e-04 -1.999730703712e-04 0.0 
2.167792857364e-03 1.033779819546e-02 0.0 
1.927562408271e-03 4.735381951894e-03 0.0 
2.468955233879e-04 -1.819032612285e-04 0.0 
2.626730922648e-03 3.273952743956e-03 0.0 
1.106600407318e-04 -6.278089174704e-04 0.0 
2.781547272103e-03 2.216006434909e-03 0.0 
9.520616666101e-05 -3.325287774100e-05 0.0 
8.408599242009e-04 -3.212322374915e-04 0.0 
1.478691714582e-03 1.209682752115e-04 0.0 
1.732059503035e-03 3.817984597568e-03 0.0 
2.019761699555e-03 1.035538124225e-02 0.0 
1.434842057194e-03 1.460973346259e-04 0.0 
2.331079170899e-03 2.653920000393e-03 0.0 
2.615397575015e-03 1.810504955028e-03 0.0 
2.718310290025e-03 1.725388607448e-03 0.0 
1.346522946511e-03 1.642954797262e-04 0.0 
2.380139264100e-03 9.016615517207e-03 0.0 
4.892666173080e-04 -4.840295858965e-04 0.0 
3.916000275561e-04 -5.092043890346e-04 0.0 
1.695816554207e-03 4.382395662085e-04 0.0 
2.088366314853e-03 2.487027825549e-03 0.0 
6.198789018029e-05 -6.400079792761e-04 0.0 
1.993652921004e-03 3.682935272117e-03 0.0 
2.562817809209e-04 -4.898300376591e-04 0.0 
1.493853679976e-03 2.651777281559e-04 0.0 
2.113958754199e-03 1.198588413821e-03 0.0 
6.898840920013e-05 6.298599344567e-03 0.0 
1.436515492765e-03 1.313618625174e-04 0.0 
4.211065279184e-05 -5.886659891877e-04 0.0 
1.255424742791e-03 -2.434278060896e-06 0.0 
2.617309957750e-03 1.551381293190e-03 0.0 
1.200534498438e-03 -8.792945947993e-05 0.0 
1.039296753383e-03 -1.911822664734e-04 0.0 
1.711017029110e-04 1.669533604923e-03 0.0 
9.851559916461e-04 -2.411865736128e-04 0.0 
2.364049031968e-05 7.829572149330e-04 0.0 
2.858197711394e-05 4.307673410449e-06 0.0 
9.140885093681e-05 8.268239556279e-03 0.0 
1.585502541158e-03 9.998069402662e-03 0.0 
-6.902825774922e-04 9.101382824600e-04 0.0 
2.063616968408e-03 7.683723969914e-03 0.0 
7.439491526556e-04 -3.597147263748e-04 0.0 
2.234841268084e-03 3.474560906174e-03 0.0 
1.898266930255e-04 8.224417548071e-03 0.0 
6.115137923947e-04 -4.269341977734e-04 0.0 
9.227720121633e-04 1.240478053437e-03 0.0 
5.503972953267e-04 3.194161608086e-04 0.0 
1.228295939757e-04 4.789205905071e-03 0.0 
1.316758209929e-03 4.302124946746e-04 0.0 
2.418212722467e-03 1.457174672674e-03 0.0 
3.481950992713e-05 2.465405324906e-03 0.0 
5.664338527620e-04 9.126803475961e-03 0.0 
1.602697922126e-05 -4.717039404958e-04 0.0 
7.303885044051e-05 -1.382482827431e-04 0.0 
9.028524690313e-04 8.375523622284e-03 0.0 
1.099728280256e-03 5.626166312054e-03 0.0 
3.216237045668e-04 3.867790081697e-03 0.0 
1.631455041722e-04 -5.363991727586e-04 0.0 
8.112537599948e-05 -2.569309564676e-04 0.0 
3.287945641628e-04 5.643938398144e-03 0.0 
8.489709703655e-04 2.982072007627e-04 0.0 
9.505311993368e-04 8.227996749515e-03 0.0 
2.022384656449e-03 1.230462786382e-03 0.0 
-3.009399247104e-04 3.853437676468e-03 0.0 
4.397185828678e-04 1.571309404531e-03 0.0 
1.067922319058e-03 5.688333845648e-04 0.0 
1.507506566924e-04 2.240939009422e-05 0.0 
1.592884451498e-03 9.046607758914e-04 0.0 
-2.548808548708e-04 2.684289769090e-03 0.0 
1.415160269772e-03 7.264163033003e-03 0.0 
1.064284966460e-03 9.318481111171e-04 0.0 
1.655474330668e-04 4.004282643054e-03 0.0 
1.079048389906e-04 1.415111553521e-05 0.0 
1.202109785692e-03 8.289822856354e-03 0.0 
1.031664411427e-04 1.556658709423e-03 0.0 
3.310670965071e-04 2.957772092402e-04 0.0 
5.251527639697e-05 1.511234321863e-03 0.0 
1.921038027568e-03 2.707310718381e-03 0.0 
3.850209137814e-04 7.025306025786e-03 0.0 
1.712848137163e-03 7.164400712446e-03 0.0 
7.915906531565e-05 4.608007924606e-07 0.0 
8.033321908490e-04 1.359560993398e-03 0.0 
-4.512695266130e-04 2.204867196790e-03 0.0 
1.929902762459e-04 4.891517331265e-03 0.0 
2.731684369563e-04 -4.544477402389e-04 0.0 
-3.034034164870e-04 4.154821837648e-04 0.0 
3.830784414909e-04 5.708596610162e-05 0.0 
1.547258754812e-03 1.987234834629e-03 0.0 
1.332329658634e-04 4.700581877054e-06 0.0 
1.481266630318e-05 -6.552158509092e-04 0.0 
4.654816156473e-05 -5.683829528918e-04 0.0 
4.412624679791e-04 8.453498164377e-05 0.0 
9.465369166777e-04 1.022825439373e-03 0.0 
4.686078524209e-04 6.306655925241e-05 0.0 
1.449088445180e-04 6.228839618054e-04 0.0 
-6.941526210412e-04 1.888583138741e-03 0.0 
7.728833286352e-04 9.242851255400e-03 0.0 
6.307731644017e-05 -6.268952223075e-04 0.0 
8.487967478579e-05 1.034751169301e-05 0.0 
2.527966053287e-04 1.482193236608e-03 0.0 
1.943957343147e-04 -4.125832244632e-04 0.0 
1.705192959565e-03 8.695862402423e-03 0.0 
9.671445665218e-05 -5.644435986488e-04 0.0 
1.469050960772e-03 1.048070749381e-03 0.0 
9.914692913180e-05 -4.372945641904e-04 0.0 
1.706990918051e-04 1.402501332910e-03 0.0 
5.282390257718e-04 1.261417922631e-04 0.0 
5.414086743624e-04 1.327593824432e-03 0.0 
3.654391510303e-04 1.481242890351e-04 0.0 
-5.070231260134e-04 1.118946934094e-03 0.0 
9.473686547438e-04 5.448076356660e-04 0.0 
9.158887798193e-04 2.463639868998e-04 0.0 
4.255700265852e-04 9.160167353144e-03 0.0 
6.907863743421e-04 1.378849447423e-03 0.0 
1.727747495671e-04 -5.008175475284e-04 0.0 
1.304649981917e-04 -6.271415826849e-04 0.0 
9.963399957448e-06 6.934671401992e-04 0.0 
7.422868389637e-06 -6.694091693219e-04 0.0 
7.193859746887e-05 9.143082133342e-03 0.0 
1.108864640025e-05 2.757824315783e-06 0.0 
8.055196126139e-05 -6.401727228456e-04 0.0 
1.496920986286e-04 7.535336153864e-03 0.0 
8.706287351453e-04 1.041355243726e-03 0.0 
5.306301932333e-05 -2.986085795415e-04 0.0 
8.072964147056e-05 3.096663859511e-03 0.0 
2.096949978488e-04 -1.978489566246e-04 0.0 
-6.194525482078e-04 5.772729771003e-04 0.0 
1.182267553917e-04 5.801471256752e-03 0.0 
9.308858052286e-04 4.516795596575e-04 0.0 
4.126127445297e-04 1.298679511665e-03 0.0 
3.073362497173e-04 6.477851399528e-03 0.0 
-9.997428942824e-05 1.890335778214e-03 0.0 
1.217038222239e-03 1.463929141832e-03 0.0 
2.095243552358e-04 -3.703714602638e-04 0.0 
1.431885166111e-03 1.248516614081e-03 0.0 
1.062369656892e-03 3.500260746655e-04 0.0 
-9.699598622838e-04 2.029058135423e-03 0.0 
4.669178996464e-05 -2.426989398765e-04 0.0 
5.687389335889e-05 -6.102378555785e-04 0.0 
2.489672617696e-04 2.756469148207e-05 0.0 
1.398786900429e-04 -3.470590422317e-04 0.0 
6.387630305974e-05 1.113232218369e-02 0.0 
7.021643060993e-05 1.546168004959e-02 0.0 
1.080754068934e-03 1.174627193997e-02 0.0 
5.573936133786e-05 1.444157580093e-02 0.0 
1.576217229955e-03 1.179537274484e-02 0.0 
5.280297874678e-05 1.342641651433e-02 0.0 
1.785150107763e-03 1.147837466420e-02 0.0 
5.100856992250e-05 1.241323308900e-02 0.0 
1.820639095975e-03 1.090667480373e-02 0.0 
4.998081418471e-05 1.140073009924e-02 0.0 
1.738996300472e-03 1.017785244661e-02 0.0 
4.893973405455e-05 1.038862565615e-02 0.0 

VECTORS node_materi_displacement float
0.0 7.629971053201e-02 0.0 
0.0 1.028030426886e-01 0.0 
0.0 0.0 0.0 
0.0 0.0 0.0 
0.0 7.647072962775e-02 0.0 
0.0 7.614754483589e-02 0.0 
0.0 7.535322094760e-02 0.0 
0.0 7.409807585134e-02 0.0 
0.0 7.237766569603e-02 0.0 
0.0 7.023461782190e-02 0.0 
0.0 6.769105987554e-02 0.0 
0.0 6.475991976779e-02 0.0 
0.0 6.145589572175e-02 0.0 
0.0 5.778419835793e-02 0.0 
0.0 5.373970544622e-02 0.0 
0.0 4.932168812684e-02 0.0 
0.0 4.453269919550e-02 0.0 
0.0 3.938209315918e-02 0.0 
0.0 3.383168402781e-02 0.0 
0.0 2.788208994948e-02 0.0 
0.0 2.152929917997e-02 0.0 
0.0 1.476252492164e-02 0.0 
0.0 7.579549894649e-03 0.0 
0.0 0.0 0.0 
0.0 0.0 0.0 
0.0 0.0 0.0 
0.0 0.0 0.0 
0.0 0.0 0.0 
0.0 0.0 0.0 
0.0 0.0 0.0 
0.0 0.0 0.0 
0.0 0.0 0.0 
0.0 0.0 0.0 
0.0 0.0 0.0 
0.0 0.0 0.0 
0.0 0.0 0.0 
0.0 0.0 0.0 
0.0 0.0 0.0 
0.0 0.0 0.0 
0.0 0.0 0.0 
0.0 0.0 0.0 
0.0 0.0 0.0 
0.0 0.0 0.0 
0.0 0.0 0.0 
0.0 0.0 0.0 
0.0 0.0 0.0 
0.0 0.0 0.0 
0.0 0.0 0.0 
0.0 0.0 0.0 
0.0 0.0 0.0 
0.0 0.0 0.0 
0.0 0.0 0.0 
0.0 0.0 0.0 
0.0 0.0 0.0 
0.0 0.0 0.0 
0.0 0.0 0.0 
0.0 0.0 0.0 
0.0 0.0 0.0 
0.0 0.0 0.0 
0.0 0.0 0.0 
0.0 0.0 0.0 
0.0 0.0 0.0 
0.0 0.0 0.0 
0.0 0.0 0.0 
0.0 0.0 0.0 
0.0 0.0 0.0 
0.0 0.0 0.0 
0.0 0.0 0.0 
0.0 0.0 0.0 
0.0 0.0 0.0 
0.0 0.0 0.0 
0.0 0.0 0.0 
0.0 9.429425684773e-02 0.0 
0.0 8.536828668717e-02 0.0 
0.0 7.602807249354e-02 0.0 
0.0 6.629277798994e-02 0.0 
0.0 5.616237323062e-02 0.0 
0.0 4.565350757468e-02 0.0 
0.0 3.477378850306e-02 0.0 
0.0 2.353195145097e-02 0.0 
0.0 1.193977223729e-02 0.0 
-1.251665123337e-02 4.546012080970e-02 0.0 
1.123269500988e-02 9.988679994717e-02 0.0 
-5.352723367860e-03 6.916390455312e-02 0.0 
3.910428483656e-04 8.729344870192e-02 0.0 
5.038024438963e-03 1.015567650713e-01 0.0 
8.163009322970e-03 1.115543843667e-01 0.0 
1.104307472781e-02 1.161220891336e-01 0.0 
1.261709666530e-02 1.168735334391e-01 0.0 
1.315568084377e-02 1.151077786740e-01 0.0 
1.298431995886e-02 1.114399216840e-01 0.0 
1.229453732368e-02 1.062668089612e-01 0.0 
0.0 1.447467173850e-01 0.0 
0.0 1.388494033306e-01 0.0 
0.0 1.325007014748e-01 0.0 
0.0 1.257464091153e-01 0.0 
0.0 1.185186096405e-01 0.0 
0.0 1.108898139668e-01 0.0 
6.270397106768e-04 1.028053067715e-01 0.0 
1.244873523875e-03 1.028103371185e-01 0.0 
1.875605002770e-03 1.028149114107e-01 0.0 
2.517169853484e-03 1.028104445732e-01 0.0 
3.169971247825e-03 1.028070605253e-01 0.0 
3.838285139719e-03 1.027767638200e-01 0.0 
4.529839128185e-03 1.027337070086e-01 0.0 
5.237792228977e-03 1.026506331857e-01 0.0 
5.983317689937e-03 1.025388368287e-01 0.0 
6.761813303133e-03 1.023583333094e-01 0.0 
7.572055718710e-03 1.021040225174e-01 0.0 
8.422266109830e-03 1.017590249067e-01 0.0 
9.312191129278e-03 1.012937038701e-01 0.0 
1.024634427319e-02 1.006757943257e-01 0.0 
-9.935275924053e-03 3.203449321360e-02 0.0 
-6.058889996079e-03 2.510646394019e-02 0.0 
-1.867212488154e-03 2.257309079171e-02 0.0 
2.559634293739e-03 2.460530676158e-02 0.0 
5.614341139646e-03 3.337832099273e-02 0.0 
7.166140680752e-03 4.378621164418e-02 0.0 
7.688626211210e-03 5.075391364636e-02 0.0 
7.690765520874e-03 5.617541043066e-02 0.0 
7.142822192095e-03 6.052198527778e-02 0.0 
6.586158936150e-03 6.401101606852e-02 0.0 
6.040046118778e-03 6.685115092685e-02 0.0 
5.426200983945e-03 6.911528005224e-02 0.0 
4.844253711392e-03 7.098535379003e-02 0.0 
4.142128115761e-03 7.250745749280e-02 0.0 
3.450993997503e-03 7.372963490628e-02 0.0 
2.788309515200e-03 7.467450970008e-02 0.0 
2.128888618179e-03 7.540366317320e-02 0.0 
1.461848737252e-03 7.593222214971e-02 0.0 
7.408297128986e-04 7.622253217192e-02 0.0 
6.020854475379e-04 1.447817007851e-01 0.0 
1.129548784633e-03 1.447662992836e-01 0.0 
1.653463494551e-03 1.447672886847e-01 0.0 
2.173038166313e-03 1.447653928309e-01 0.0 
2.682330287817e-03 1.447552167670e-01 0.0 
3.176068543006e-03 1.447301894880e-01 0.0 
3.649458258457e-03 1.446817666742e-01 0.0 
4.097951623247e-03 1.445994282826e-01 0.0 
4.517080897203e-03 1.444703988506e-01 0.0 
4.902417339181e-03 1.442792772985e-01 0.0 
5.249599974521e-03 1.440076028152e-01 0.0 
5.554444899607e-03 1.436333120057e-01 0.0 
5.813123645508e-03 1.431301153653e-01 0.0 
6.022339216548e-03 1.424664573561e-01 0.0 
6.180008096298e-03 1.416046150556e-01 0.0 
6.285789196741e-03 1.404990226178e-01 0.0 
6.342779590954e-03 1.390955082078e-01 0.0 
6.357708405674e-03 1.373271168711e-01 0.0 
6.345166820490e-03 1.351125395979e-01 0.0 
6.329523515931e-03 1.323450135891e-01 0.0 
6.358337131729e-03 1.288839126624e-01 0.0 
6.523732638596e-03 1.245691639165e-01 0.0 
6.799037980879e-03 1.191220485865e-01 0.0 
1.015772393396e-02 1.209907954093e-01 0.0 
9.533177514238e-03 1.248423818867e-01 0.0 
8.999217322367e-03 1.279054633111e-01 0.0 
8.564791148090e-03 1.303767495564e-01 0.0 
8.181659981135e-03 1.323481936697e-01 0.0 
7.827266569108e-03 1.339241346324e-01 0.0 
7.480735185215e-03 1.351707923716e-01 0.0 
7.130580810593e-03 1.361506339882e-01 0.0 
6.768462550416e-03 1.369112534800e-01 0.0 
6.389671841340e-03 1.374941201926e-01 0.0 
5.991550096349e-03 1.379330316570e-01 0.0 
5.573349312781e-03 1.382567306046e-01 0.0 
5.135362186425e-03 1.384890130152e-01 0.0 
4.678568306007e-03 1.386498482497e-01 0.0 
4.204459222448e-03 1.387559819254e-01 0.0 
3.714882766559e-03 1.388213980064e-01 0.0 
3.211944668669e-03 1.388577324147e-01 0.0 
2.697754710531e-03 1.388744690476e-01 0.0 
2.174245200173e-03 1.388791776591e-01 0.0 
1.642817311154e-03 1.388772364854e-01 0.0 
1.103453585473e-03 1.388693468955e-01 0.0 
5.532874543544e-04 1.388318242554e-01 0.0 
5.738988075377e-04 1.325367752367e-01 0.0 
1.149733486693e-03 1.325330041209e-01 0.0 
1.721482536077e-03 1.325424008692e-01 0.0 
2.289080912988e-03 1.325477207984e-01 0.0 
2.852866675853e-03 1.325454419454e-01 0.0 
3.412874540754e-03 1.325299795470e-01 0.0 
3.968930167286e-03 1.324934011961e-01 0.0 
4.520648171060e-03 1.324256046074e-01 0.0 
5.067807805374e-03 1.323136993675e-01 0.0 
5.610689276907e-03 1.321421203131e-01 0.0 
6.150236477186e-03 1.318920980049e-01 0.0 
6.688062490340e-03 1.315412804759e-01 0.0 
7.226721009698e-03 1.310628467798e-01 0.0 
7.770017584133e-03 1.304235213243e-01 0.0 
8.325263489728e-03 1.295848167623e-01 0.0 
8.900138942340e-03 1.284986577263e-01 0.0 
9.509589098090e-03 1.271121054958e-01 0.0 
1.016382247038e-02 1.253480684747e-01 0.0 
1.089418599277e-02 1.231426952303e-01 0.0 
1.168248709863e-02 1.203619288401e-01 0.0 
1.220836626416e-02 1.175161232203e-01 0.0 
1.135415441957e-02 1.194569175673e-01 0.0 
1.053298469670e-02 1.209889708580e-01 0.0 
9.771369300416e-03 1.222154568877e-01 0.0 
9.050422582818e-03 1.231703904232e-01 0.0 
8.365298697250e-03 1.239122039898e-01 0.0 
7.705407626469e-03 1.244750659252e-01 0.0 
7.066044479508e-03 1.248970268389e-01 0.0 
6.442662279976e-03 1.252062343808e-01 0.0 
5.831875601255e-03 1.254261047400e-01 0.0 
5.230723453245e-03 1.255762271746e-01 0.0 
4.636567986525e-03 1.256733666316e-01 0.0 
4.048154278939e-03 1.257317579072e-01 0.0 
3.464295035584e-03 1.257628004226e-01 0.0 
2.883791260446e-03 1.257749289416e-01 0.0 
2.305350140878e-03 1.257749782030e-01 0.0 
1.727928574848e-03 1.257677337059e-01 0.0 
1.150757505703e-03 1.257553367785e-01 0.0 
5.750071402345e-04 1.257213415582e-01 0.0 
6.050002016398e-04 1.185507303227e-01 0.0 
1.212001440174e-03 1.185420759322e-01 0.0 
1.821331837336e-03 1.185520580119e-01 0.0 
2.435458985827e-03 1.185579247126e-01 0.0 
3.055206361992e-03 1.185557366305e-01 0.0 
3.683555139641e-03 1.185391184991e-01 0.0 
4.322025836395e-03 1.185012320448e-01 0.0 
4.974311417716e-03 1.184324966680e-01 0.0 
5.641048141783e-03 1.183215537874e-01 0.0 
6.326211017117e-03 1.181501769623e-01 0.0 
7.034077984252e-03 1.179003552311e-01 0.0 
7.767906164737e-03 1.175512682276e-01 0.0 
8.532536470607e-03 1.170760682869e-01 0.0 
9.333807918681e-03 1.164447846397e-01 0.0 
1.017256291211e-02 1.156079460506e-01 0.0 
1.106676238317e-02 1.145401938525e-01 0.0 
1.198995360793e-02 1.131639639305e-01 0.0 
1.132573298666e-02 1.074235620141e-01 0.0 
1.041573907159e-02 1.083523448369e-01 0.0 
9.524688787642e-03 1.090525126549e-01 0.0 
8.681633015217e-03 1.095985503449e-01 0.0 
7.878398461972e-03 1.100103252032e-01 0.0 
7.109731167679e-03 1.103143719601e-01 0.0 
6.372630879941e-03 1.105351558943e-01 0.0 
5.663913908175e-03 1.106865136534e-01 0.0 
4.977491818403e-03 1.107830569302e-01 0.0 
4.314134079301e-03 1.108487220438e-01 0.0 
3.666819582649e-03 1.108834283112e-01 0.0 
3.035843636902e-03 1.109017738960e-01 0.0 
2.414700587149e-03 1.109039421190e-01 0.0 
1.804042877410e-03 1.109011635919e-01 0.0 
1.200972795871e-03 1.108904701248e-01 0.0 
5.978305934106e-04 1.108581052157e-01 0.0 
-8.548174980897e-03 5.872639083075e-02 0.0 
-2.373930210046e-03 7.868701827287e-02 0.0 
2.872632430950e-03 9.493201708114e-02 0.0 
6.840720741227e-03 1.071282815868e-01 0.0 
9.865912841927e-03 1.144043183781e-01 0.0 
1.202251542466e-02 1.168422957155e-01 0.0 
1.301013688105e-02 1.162508222554e-01 0.0 
1.315671500121e-02 1.134804171327e-01 0.0 
1.270561772862e-02 1.090186775500e-01 0.0 
1.181000274295e-02 1.032109535110e-01 0.0 
4.403689968167e-03 7.744712556324e-02 0.0 
1.909926664442e-03 6.472561226695e-03 0.0 
3.982420427702e-03 6.234129465807e-02 0.0 
-4.815699616494e-05 3.058391118211e-02 0.0 
6.489908053589e-04 6.298633222297e-03 0.0 
1.151215839840e-02 1.031395441207e-01 0.0 
-1.408958276752e-04 5.567100570035e-02 0.0 
2.962178273531e-03 7.081763507228e-03 0.0 
1.451344682255e-02 1.108617141630e-01 0.0 
3.396217915626e-03 7.748987525386e-03 0.0 
1.430741282371e-02 1.067851094760e-01 0.0 
8.800100992823e-05 5.915171550746e-03 0.0 
3.203451721996e-03 7.203301157544e-02 0.0 
3.265267065604e-03 8.775969544269e-03 0.0 
1.218570649875e-02 9.572010088158e-02 0.0 
-1.267999760623e-04 6.885360339604e-02 0.0 
-8.979116549262e-05 4.301476032157e-02 0.0 
2.921128022922e-03 9.730390195951e-03 0.0 
2.008069741109e-03 9.775155408568e-03 0.0 
5.968581517482e-04 1.020477552156e-02 0.0 
1.084750430020e-03 1.101141874335e-02 0.0 
1.433760234224e-03 9.752580005760e-03 0.0 
9.872367179425e-03 9.350178618174e-02 0.0 
6.418424383959e-03 9.476711421382e-02 0.0 
4.191712554701e-03 9.487271700098e-02 0.0 
4.078612850800e-04 6.112221051285e-02 0.0 
-5.355766957996e-05 6.522633622120e-03 0.0 
-3.133019858311e-03 3.154158248293e-02 0.0 
1.841918177082e-03 7.517559424051e-02 0.0 
-4.887121345070e-05 2.522609384146e-02 0.0 
2.146040196966e-03 9.550909617033e-02 0.0 
1.002664161699e-04 7.471787173720e-02 0.0 
2.760381262575e-03 1.105216257911e-02 0.0 
3.017763060197e-03 6.820344277153e-03 0.0 
3.364556900708e-03 8.159654929272e-03 0.0 
2.649976136127e-03 7.139582510455e-03 0.0 
1.277360863408e-03 6.025446564483e-03 0.0 
2.370648754688e-03 4.723257412342e-02 0.0 
8.066709987052e-03 9.478285503248e-02 0.0 
3.512399114436e-04 7.244603402922e-03 0.0 
3.028804222158e-04 4.072562496724e-02 0.0 
3.821645054344e-03 6.807245760183e-02 0.0 
-1.601012415015e-04 6.308211339338e-02 0.0 
2.971123370211e-04 8.315886714957e-03 0.0 
1.362552898233e-02 1.085894058656e-01 0.0 
8.586248589392e-03 9.248056566877e-02 0.0 
1.471410345463e-02 1.099110688309e-01 0.0 
1.342384457207e-02 1.019437640541e-01 0.0 
-1.419299551890e-03 5.851195299805e-02 0.0 
4.943465510086e-04 7.963414490798e-02 0.0 
-3.664603551388e-05 5.205464736292e-03 0.0 
8.505087140000e-04 7.623958392506e-02 0.0 
1.646238569119e-04 1.865267904578e-02 0.0 
1.161511678364e-02 9.199446308331e-02 0.0 
1.234905523165e-02 8.778005645199e-02 0.0 
1.133672866640e-02 8.460107816944e-02 0.0 
1.218476526411e-02 7.957814296433e-02 0.0 
1.118650887638e-02 7.540865076539e-02 0.0 
1.179379356229e-02 7.081253622729e-02 0.0 
1.289379870644e-02 7.485547240732e-02 0.0 
1.231723313876e-02 6.610446282808e-02 0.0 
1.350076481936e-02 7.009578872056e-02 0.0 
1.066580573525e-02 6.637413146334e-02 0.0 
1.271879777457e-02 6.130603115343e-02 0.0 
1.397755106201e-02 6.523175832699e-02 0.0 
1.297849799041e-02 5.645977900799e-02 0.0 
1.429326013282e-02 6.029323464175e-02 0.0 
1.518317476629e-02 6.878693013722e-02 0.0 
1.554713871522e-02 6.376829248493e-02 0.0 
1.631410111618e-02 7.190915857492e-02 0.0 
1.671267152928e-02 6.677608458504e-02 0.0 
1.571386806170e-02 5.874747477492e-02 0.0 
1.689207900703e-02 6.166001173430e-02 0.0 
1.777071593662e-02 6.928906586805e-02 0.0 
1.793949293287e-02 6.405743118991e-02 0.0 
1.869716471632e-02 7.125056117960e-02 0.0 
1.882941464569e-02 6.587482528859e-02 0.0 
1.947492478833e-02 7.262281379176e-02 0.0 
1.954175286457e-02 6.710720664105e-02 0.0 
1.867790955706e-02 6.062512235193e-02 0.0 
1.930283062554e-02 6.178520720583e-02 0.0 
2.004296476537e-02 6.771702103341e-02 0.0 
1.968951458900e-02 6.234533088171e-02 0.0 
2.030146246458e-02 6.768569710714e-02 0.0 
1.980649812692e-02 6.229893915756e-02 0.0 
1.902748837673e-02 5.728118187202e-02 0.0 
1.899811374858e-02 5.731154172980e-02 0.0 
1.962405567574e-02 6.166556919633e-02 0.0 
1.865457231416e-02 5.682903662347e-02 0.0 
1.911424738390e-02 6.048001172560e-02 0.0 
1.797659008519e-02 5.588178823408e-02 0.0 
1.825658996727e-02 5.879110210005e-02 0.0 
1.694160880318e-02 5.453202603387e-02 0.0 
1.660135021022e-02 5.184374846294e-02 0.0 
1.542330723031e-02 5.090509256813e-02 0.0 
1.554245856922e-02 5.288437110642e-02 0.0 
1.390860169696e-02 4.979761429640e-02 0.0 
1.379041477474e-02 4.789305010397e-02 0.0 
1.221881967148e-02 4.736265882655e-02 0.0 
1.211807111821e-02 4.541528016109e-02 0.0 
1.054848652041e-02 4.545979118940e-02 0.0 
1.040071390403e-02 4.689114992643e-02 0.0 
8.786639922421e-03 4.562030820755e-02 0.0 
8.957201581372e-03 4.395949782557e-02 0.0 
7.296232751178e-03 4.470618051503e-02 0.0 
6.892657116816e-03 4.603369425392e-02 0.0 
5.578283339160e-03 4.569303627076e-02 0.0 
5.965239981039e-03 4.399409115125e-02 0.0 
4.430956832463e-03 4.547402075741e-02 0.0 
3.883760186371e-03 4.700780264273e-02 0.0 
2.965630361081e-03 4.722165400158e-02 0.0 
3.461452839247e-03 4.523131611899e-02 0.0 
2.204929279446e-03 4.734602345757e-02 0.0 
1.635520695611e-03 4.926955816841e-02 0.0 
1.104638178848e-03 4.965678795914e-02 0.0 
1.589315193080e-03 4.728551597509e-02 0.0 
6.840842914953e-04 4.982444723264e-02 0.0 
1.088200082085e-03 4.702879075551e-02 0.0 
1.870314452183e-04 5.220615913591e-02 0.0 
-4.255308754293e-05 5.249038825054e-02 0.0 
-5.005196030603e-04 5.491913903592e-02 0.0 
-5.696879509057e-04 5.523833942026e-02 0.0 
1.808951554188e-02 5.256780669483e-02 0.0 
-9.326160979472e-04 5.767852611321e-02 0.0 
-9.505028949498e-04 5.696288758055e-02 0.0 
-8.909709157749e-04 5.800063216312e-02 0.0 
-6.037319062637e-04 5.523934291152e-02 0.0 
-1.131155838645e-03 6.043791151107e-02 0.0 
-1.023225968198e-03 6.071473657723e-02 0.0 
-1.126098777851e-03 6.311931272037e-02 0.0 
1.927949147296e-02 6.382276374817e-02 0.0 
1.566015134703e-02 5.375939330023e-02 0.0 
-9.964011636844e-04 6.331813789271e-02 0.0 
-9.647906904464e-04 6.565014707483e-02 0.0 
-1.081035445840e-03 6.521807082150e-02 0.0 
-7.640492343996e-04 6.765617246437e-02 0.0 
1.013219950683e-02 7.105675085696e-02 0.0 
9.509208778968e-03 6.166627136758e-02 0.0 
9.064752203710e-03 6.642192713208e-02 0.0 
8.339729143628e-03 5.675424861689e-02 0.0 
7.982174814789e-03 6.149574799225e-02 0.0 
-7.058690394459e-04 6.797100790881e-02 0.0 
1.161198694233e-02 5.203559617256e-02 0.0 
8.603106980309e-03 5.187317866366e-02 0.0 
1.829224375894e-02 7.669451431504e-02 0.0 
2.044789174059e-02 7.341179194988e-02 0.0 
1.343164673412e-02 4.536950134271e-02 0.0 
-9.116907034213e-04 6.066048233775e-02 0.0 
-8.665473915009e-04 6.319798904446e-02 0.0 
-7.919623373151e-04 6.029818313473e-02 0.0 
1.947941629505e-03 4.444581195241e-02 0.0 
1.378953379805e-03 4.380158372395e-02 0.0 
2.162351430544e-03 4.113120596148e-02 0.0 
1.545628218861e-03 4.012253347907e-02 0.0 
2.228008369898e-03 3.733215661492e-02 0.0 
1.586449333657e-03 3.597466891855e-02 0.0 
1.044610469980e-03 3.893008006560e-02 0.0 
1.067315435327e-03 3.444176696616e-02 0.0 
6.491711438582e-04 3.753878693617e-02 0.0 
2.150029656991e-03 3.303976698867e-02 0.0 
2.928101145791e-03 3.458648810270e-02 0.0 
6.603267859072e-04 3.272625017281e-02 0.0 
3.491608965514e-04 3.594033789038e-02 0.0 
3.547542306623e-04 3.081837860141e-02 0.0 
1.341997057583e-04 3.413642740641e-02 0.0 
8.138420875337e-05 3.912499038158e-02 0.0 
-4.802263659222e-05 3.740468739545e-02 0.0 
-1.285558401286e-04 4.226053191310e-02 0.0 
1.177582649527e-02 4.283223618539e-02 0.0 
1.283197953072e-02 4.223803787426e-02 0.0 
1.119209052222e-02 3.963417070952e-02 0.0 
1.198314940544e-02 3.851313925441e-02 0.0 
1.036520063857e-02 3.583566516937e-02 0.0 
1.088376503199e-02 3.421030866508e-02 0.0 
9.294446086376e-03 3.144890398424e-02 0.0 
8.792821696417e-03 3.339036755405e-02 0.0 
1.308418360939e-02 5.152951079672e-02 0.0 
1.377937971106e-02 5.106214981164e-02 0.0 
1.540102755514e-02 5.426317719523e-02 0.0 
1.339827238493e-02 5.166413182778e-02 0.0 
1.498201336064e-02 5.502136987311e-02 0.0 
1.275420238768e-02 5.156311791519e-02 0.0 
1.427149056035e-02 5.515978252240e-02 0.0 
1.184523615073e-02 5.073380733912e-02 0.0 
1.016136889085e-02 4.820417385854e-02 0.0 
9.018944638316e-03 4.642398162800e-02 0.0 
7.260249217061e-03 4.528173166680e-02 0.0 
5.885997507026e-03 4.270539212343e-02 0.0 
4.209486870868e-03 4.318204386823e-02 0.0 
1.824545954086e-02 5.556827875686e-02 0.0 
1.248983682890e-02 3.720674628416e-02 0.0 
1.111569757761e-02 3.237078297607e-02 0.0 
1.268818160541e-02 3.563654551236e-02 0.0 
-8.182285996383e-04 6.701224476080e-02 0.0 
-7.295080285168e-06 3.213030784789e-02 0.0 
2.698305704116e-03 3.011531859050e-02 0.0 
3.600598773946e-03 3.191293484410e-02 0.0 
7.763782927561e-03 2.886324641316e-02 0.0 
-3.890568690832e-04 6.983132150236e-02 0.0 
1.324695393125e-02 5.470382500743e-02 0.0 
1.540255161290e-02 6.001248002963e-02 0.0 
7.182979722013e-03 5.155088207358e-02 0.0 
6.913809394487e-03 5.632922689399e-02 0.0 
3.189029800171e-03 2.719260463396e-02 0.0 
-4.081873526032e-04 7.004219197926e-02 0.0 
9.933528435661e-04 2.949042567566e-02 0.0 
7.608438399562e-03 4.373003501729e-02 0.0 
-1.201512824366e-04 3.547837262672e-02 0.0 
-8.729729644724e-05 2.993563901308e-02 0.0 
5.561813901341e-04 4.188927088609e-02 0.0 
1.104088041916e-02 3.025262342388e-02 0.0 
1.259673644266e-02 3.382638586832e-02 0.0 
5.630619724652e-03 4.530335223522e-02 0.0 
2.835756387466e-03 4.458168527806e-02 0.0 
1.257313766679e-03 4.228709991158e-02 0.0 
3.483232169215e-04 4.514440449154e-02 0.0 
1.801980894237e-03 4.647189734875e-02 0.0 
-2.448294488222e-04 4.783007186795e-02 0.0 
-1.514873389552e-03 4.681701891866e-02 0.0 
-1.693795458512e-03 5.014100593845e-02 0.0 
-5.929243983486e-04 5.038255394761e-02 0.0 
-1.657666868638e-03 5.302722190409e-02 0.0 
-2.343520158787e-03 5.320949264702e-02 0.0 
-2.080768084702e-03 5.614443190272e-02 0.0 
2.273077307680e-07 2.642215280572e-02 0.0 
4.289890123405e-03 3.923795875511e-02 0.0 
1.572174840604e-02 7.698800898436e-02 0.0 
2.327446702560e-03 2.511480449788e-02 0.0 
8.003637191208e-03 2.655332604608e-02 0.0 
6.056469149325e-03 4.612264376471e-02 0.0 
5.872734348156e-03 5.094725566656e-02 0.0 
6.566357327522e-03 6.107342380555e-02 0.0 
5.604388603274e-03 5.571322333641e-02 0.0 
4.873437517534e-03 4.536118387460e-02 0.0 
4.682759605503e-03 5.018363263105e-02 0.0 
5.267392862725e-03 6.041788431740e-02 0.0 
4.416982517224e-03 5.493658742829e-02 0.0 
4.874659724731e-03 6.503739770965e-02 0.0 
4.089400216177e-03 5.960762745557e-02 0.0 
3.614024809362e-03 4.929331781103e-02 0.0 
3.347236759375e-03 5.403570604639e-02 0.0 
3.711882208265e-03 6.419992236493e-02 0.0 
3.023220528508e-03 5.869873492520e-02 0.0 
3.293171217111e-03 6.870127902991e-02 0.0 
2.651085680641e-03 6.327592109097e-02 0.0 
2.383597422499e-03 5.306508593452e-02 0.0 
-4.140670995827e-05 7.163516612939e-02 0.0 
7.304486988940e-03 3.111262073326e-02 0.0 
6.325479060800e-03 2.639414212487e-02 0.0 
-7.345908253257e-04 6.274709442555e-02 0.0 
-6.643129120227e-04 5.961585842071e-02 0.0 
-6.698236255552e-04 5.704480594479e-02 0.0 
-5.670025763680e-04 5.616152740376e-02 0.0 
2.048203627441e-03 5.777022481400e-02 0.0 
1.798463471263e-03 4.731422760021e-02 0.0 
1.411160508972e-02 6.020280504650e-02 0.0 
1.595373556103e-02 6.613422513384e-02 0.0 
6.138045786503e-03 4.124215296802e-02 0.0 
-1.456389832703e-04 3.335821247060e-02 0.0 
-1.910976334560e-04 3.873864918159e-02 0.0 
2.058003113254e-02 7.275454780318e-02 0.0 
2.048334359856e-02 7.885607363361e-02 0.0 
2.048444629590e-02 7.758902924696e-02 0.0 
2.008763280322e-02 8.418949926780e-02 0.0 
1.998757336151e-02 8.520678951887e-02 0.0 
1.992921026413e-02 8.228584316121e-02 0.0 
3.845921301201e-03 3.608653561113e-02 0.0 
2.869883798190e-03 4.350852289142e-02 0.0 
-1.211067695330e-03 6.442980804464e-02 0.0 
-8.711346683843e-04 6.602348003779e-02 0.0 
-1.179462516320e-04 2.756429979093e-02 0.0 
8.057960610962e-03 3.523282513881e-02 0.0 
1.748454046161e-02 5.386083656348e-02 0.0 
1.686884573791e-02 4.901156899835e-02 0.0 
1.595495243993e-02 4.676259610650e-02 0.0 
1.516442776941e-02 4.209963139051e-02 0.0 
1.407908004156e-02 3.931479519488e-02 0.0 
1.311374026970e-02 3.481785564647e-02 0.0 
1.415665622664e-02 3.764747878156e-02 0.0 
1.064018186064e-02 2.777110418222e-02 0.0 
1.195255815911e-02 3.049556667931e-02 0.0 
2.276149751076e-03 6.785306497391e-02 0.0 
1.406895781872e-02 4.053181762340e-02 0.0 
-7.809603260748e-04 5.259646367890e-02 0.0 
1.029628162192e-04 7.121460228686e-02 0.0 
-2.100762390912e-03 5.676889082376e-02 0.0 
-1.317596998831e-04 7.181193698764e-02 0.0 
-3.934365997810e-04 6.995610315074e-02 0.0 
2.629640845549e-03 2.194666409016e-02 0.0 
1.183400359305e-02 3.150145163741e-02 0.0 
1.278484003022e-02 3.604291126708e-02 0.0 
1.924970675601e-02 9.102526077632e-02 0.0 
1.910575826029e-02 9.165379476927e-02 0.0 
9.096200007431e-03 2.432880833881e-02 0.0 
8.544046156316e-03 7.117505125939e-02 0.0 
5.691567072623e-03 7.031415025915e-02 0.0 
5.191883671862e-03 7.477974808198e-02 0.0 
2.916679883685e-04 7.326126747258e-02 0.0 
-2.293481805943e-03 5.326885716444e-02 0.0 
3.932878559597e-03 3.960604166666e-02 0.0 
1.714345284620e-02 6.490853948944e-02 0.0 
1.743372141635e-02 7.139547038923e-02 0.0 
5.666039371371e-03 4.044236681685e-02 0.0 
2.534847050155e-03 3.535716740140e-02 0.0 
1.517228713847e-03 5.198663884994e-02 0.0 
1.291916030696e-03 4.143050959086e-02 0.0 
-5.282039291349e-04 5.345020929790e-02 0.0 
-4.521307118527e-04 5.231994797068e-02 0.0 
3.581084687979e-03 2.422243042769e-02 0.0 
-1.848665365515e-03 5.945818906992e-02 0.0 
1.478451769938e-03 3.651561231562e-02 0.0 
6.636566391772e-03 3.326809063397e-02 0.0 
7.130005545765e-03 3.703692876101e-02 0.0 
-5.266512321586e-04 5.874448055199e-02 0.0 
1.418814550686e-02 6.710826517594e-02 0.0 
1.216811155267e-02 6.011352912804e-02 0.0 
4.966149041202e-04 5.024950523497e-02 0.0 
-1.807929867684e-03 5.843950517868e-02 0.0 
-1.746658657561e-04 7.165822480950e-02 0.0 
2.799951890077e-03 1.870365926060e-02 0.0 
3.956814368568e-03 3.466876048432e-02 0.0 
1.296285635437e-02 3.343296961601e-02 0.0 
1.494844722776e-02 4.003372027908e-02 0.0 
1.063406235354e-02 2.639225419642e-02 0.0 
-1.209123855951e-03 6.031953232329e-02 0.0 
1.835439632576e-03 1.956962940267e-02 0.0 
-1.346888583728e-04 3.106104426585e-02 0.0 
1.045371498745e-02 2.811633328167e-02 0.0 
1.130322258779e-02 3.231597878941e-02 0.0 
1.849252283198e-02 6.922774209777e-02 0.0 
1.860035780720e-02 7.594115713169e-02 0.0 
1.706961877651e-02 7.881431239184e-02 0.0 
1.808050622335e-02 8.332213600598e-02 0.0 
1.395131061055e-02 7.861388990907e-02 0.0 
1.948865915328e-02 7.287363555151e-02 0.0 
1.672419978637e-02 7.977932655350e-02 0.0 
1.592143571947e-02 8.489230307982e-02 0.0 
1.677452076779e-02 8.737712099586e-02 0.0 
1.965725561245e-02 8.548432321032e-02 0.0 
1.874018964634e-02 9.157916080994e-02 0.0 
1.681413357470e-02 5.834993062590e-02 0.0 
1.446124925841e-02 4.521224874679e-02 0.0 
-5.794227653374e-04 5.431933537913e-02 0.0 
-2.359412332556e-05 4.367396497538e-02 0.0 
2.905311744809e-03 4.197666554111e-02 0.0 
3.007889715913e-03 3.862567387396e-02 0.0 
2.278036940498e-03 3.262683965611e-02 0.0 
3.969860310351e-03 7.399242306836e-02 0.0 
3.474604936479e-03 7.832339706231e-02 0.0 
-2.623008682533e-04 6.848695952573e-02 0.0 
-1.561271086268e-04 6.729114058218e-02 0.0 
6.879997167683e-04 4.654566255186e-02 0.0 
1.615129685975e-03 2.292670427309e-02 0.0 
4.970702247558e-03 3.556909145637e-02 0.0 
4.840495891881e-03 3.058924026534e-02 0.0 
6.097552955699e-03 3.629953165539e-02 0.0 
3.824905526420e-03 2.117449975109e-02 0.0 
1.169953584792e-02 4.925945304399e-02 0.0 
1.014974683471e-02 4.065943847160e-02 0.0 
1.338138055801e-03 3.639180202504e-02 0.0 
1.796041667277e-02 5.192290417259e-02 0.0 
6.508280420230e-04 6.959851235412e-02 0.0 
1.436996891619e-02 5.048427680445e-02 0.0 
-1.111723147027e-04 2.503035365335e-02 0.0 
-1.007558293794e-04 2.134571315385e-02 0.0 
8.412960300526e-03 2.134709797289e-02 0.0 
1.316529493427e-02 9.133304561367e-02 0.0 
1.690762196102e-02 4.743416889320e-02 0.0 
1.692485998661e-02 4.825179587593e-02 0.0 
1.578210250132e-02 9.246666066019e-02 0.0 
1.646765590848e-02 9.467292914868e-02 0.0 
1.752679224857e-02 8.936098149718e-02 0.0 
1.704046897267e-02 9.642736754849e-02 0.0 
1.151575445781e-04 5.184158725987e-02 0.0 
-8.773962071901e-04 5.440288377537e-02 0.0 
9.101337000778e-03 2.306534677191e-02 0.0 
9.463012225203e-03 2.316961755679e-02 0.0 
8.856601904475e-03 2.414545706383e-02 0.0 
9.662747845898e-03 2.809948846397e-02 0.0 
6.854357566222e-03 1.788745809241e-02 0.0 
7.538012360295e-03 2.104651142221e-02 0.0 
-3.413949505968e-04 6.959443670780e-02 0.0 
1.790281955988e-02 9.791367748340e-02 0.0 
3.015114500081e-03 2.867959772701e-02 0.0 
1.500749501144e-02 8.986462274020e-02 0.0 
1.209888340214e-03 1.723934969682e-02 0.0 
1.050950709128e-03 2.061454165484e-02 0.0 
9.074087664650e-05 3.223940000095e-02 0.0 
-1.039010785970e-03 3.597765075790e-02 0.0 
1.014759627394e-03 3.067230650851e-02 0.0 
1.602981669685e-02 8.679921724370e-02 0.0 
1.694613872339e-02 9.108841768494e-02 0.0 
1.486677184359e-02 8.144492587846e-02 0.0 
-2.993779256965e-05 1.125261577455e-02 0.0 
9.265639432899e-04 9.562224826180e-02 0.0 
-9.142211563907e-05 1.858628023423e-02 0.0 
1.911489926219e-02 8.502124061076e-02 0.0 
1.084025768544e-03 2.516638886139e-02 0.0 
1.567501296803e-02 4.332479874523e-02 0.0 
2.042721259841e-02 7.145928182285e-02 0.0 
4.690098102148e-03 2.643916409328e-02 0.0 
8.276404398947e-04 3.657311741150e-02 0.0 
6.103443163772e-04 2.423718520974e-02 0.0 
5.948502776938e-03 7.969022855274e-02 0.0 
5.381564203315e-03 8.414581255504e-02 0.0 
6.528631260051e-03 7.541408416429e-02 0.0 
8.954907653264e-03 4.699780749128e-02 0.0 
6.244755191574e-03 4.484327109244e-02 0.0 
2.194441595604e-03 3.758873906102e-02 0.0 
-7.284840211081e-04 6.555494257626e-02 0.0 
-5.895492422371e-04 6.480467145611e-02 0.0 
-1.577312602419e-03 6.157875824857e-02 0.0 
-1.590862534097e-03 6.024548758046e-02 0.0 
-4.015743459638e-04 5.064296349525e-02 0.0 
-3.776283297783e-04 5.151178787543e-02 0.0 
1.407090750936e-02 4.556717147181e-02 0.0 
1.266179416228e-02 4.195064215995e-02 0.0 
1.651524733687e-02 5.163847101017e-02 0.0 
5.804617859573e-03 3.539502622328e-02 0.0 
6.060686794126e-03 3.886653832027e-02 0.0 
7.417534538644e-03 4.019778990592e-02 0.0 
2.300420237585e-03 2.796507482794e-02 0.0 
1.537602768732e-03 2.083036471746e-02 0.0 
1.483456272878e-03 4.967059302984e-02 0.0 
2.186541459424e-03 4.845935338875e-02 0.0 
-1.692486684275e-04 5.316588963574e-02 0.0 
2.869643771426e-03 2.382872275361e-02 0.0 
-8.124011941519e-05 1.489282631317e-02 0.0 
-7.209529163967e-05 1.780701595388e-02 0.0 
9.875262791506e-04 6.824536660312e-02 0.0 
-6.847303305701e-05 6.567315169090e-02 0.0 
1.145191892730e-02 6.796024572525e-02 0.0 
9.037508248839e-03 6.003630224824e-02 0.0 
4.634893165655e-03 2.599171588392e-02 0.0 
5.929516163757e-03 3.139951454025e-02 0.0 
3.293880071236e-03 1.963812695675e-02 0.0 
-1.541528797946e-04 7.135271444535e-02 0.0 
1.368187422411e-02 3.584408556351e-02 0.0 
2.908938643541e-03 1.565480206455e-02 0.0 
4.001123962446e-03 1.834012488776e-02 0.0 
1.872817857601e-03 1.221250805698e-02 0.0 
1.000748100252e-02 2.516192134779e-02 0.0 
7.512790796193e-03 1.833121735207e-02 0.0 
7.912215827066e-03 1.891236433180e-02 0.0 
4.885946088431e-04 3.120771273124e-02 0.0 
4.620108556705e-04 2.889896383881e-02 0.0 
4.123790216850e-03 8.341104988756e-02 0.0 
-6.647342386772e-04 2.854914053357e-02 0.0 
3.562640310146e-03 8.788026762377e-02 0.0 
2.980202961814e-03 8.262087065639e-02 0.0 
3.077180662420e-03 9.220145785649e-02 0.0 
-1.679652812605e-05 7.308312381496e-02 0.0 
6.771896252504e-03 8.608962093898e-02 0.0 
7.434300729364e-03 8.069823176279e-02 0.0 
1.702509752963e-03 6.655457897845e-02 0.0 
1.949760894114e-03 1.775754259153e-02 0.0 
1.778983615957e-03 7.017128166100e-02 0.0 
1.284642193669e-03 7.133204798303e-02 0.0 
7.354289959998e-04 1.455245597342e-02 0.0 
6.249409108308e-04 1.812924426706e-02 0.0 
3.821672003821e-04 1.185531718337e-02 0.0 
3.295580266415e-04 1.583316726152e-02 0.0 
4.784658602235e-04 2.177755071997e-02 0.0 
2.211245269021e-04 1.928928128502e-02 0.0 
4.831063732949e-03 8.912244650569e-02 0.0 
1.255784897845e-04 1.213674673657e-02 0.0 
5.405645917771e-05 1.650106304699e-02 0.0 
7.029804106139e-06 9.440106751601e-03 0.0 
1.574961211845e-02 1.017058406120e-01 0.0 
1.870273678525e-02 8.695404628972e-02 0.0 
1.748974841564e-02 9.461161057649e-02 0.0 
1.512227065075e-02 9.958577375837e-02 0.0 
6.513096730048e-03 1.784367186121e-02 0.0 
8.054803451847e-03 2.396380327737e-02 0.0 
-9.838410768254e-05 2.847395734812e-02 0.0 
-1.184644903350e-04 3.432415986434e-02 0.0 
2.459896336520e-03 8.750482631431e-02 0.0 
1.795546135447e-03 8.789719200924e-02 0.0 
1.962861486343e-03 7.948785403027e-02 0.0 
1.416758933007e-03 8.053752314632e-02 0.0 
1.520329258501e-03 7.199978355888e-02 0.0 
9.790036896404e-04 7.311280304667e-02 0.0 
1.159569475425e-03 6.428675951767e-02 0.0 
6.475879772797e-03 1.525240147270e-02 0.0 
1.304584808045e-02 8.963224065715e-02 0.0 
1.468219263827e-02 9.742506667501e-02 0.0 
5.306978616555e-03 1.453922626678e-02 0.0 
6.204474688699e-03 1.842804609437e-02 0.0 
1.756497000967e-02 9.748393873976e-02 0.0 
1.643544478391e-02 1.040744810780e-01 0.0 
1.170199016974e-03 1.275898087791e-02 0.0 
1.907441760813e-02 6.676525682112e-02 0.0 
1.454039353479e-03 1.136561485366e-02 0.0 
-3.875896451549e-03 4.009993100973e-02 0.0 
1.595852093011e-03 3.975678068833e-02 0.0 
1.991881357514e-02 6.955125790127e-02 0.0 
1.818580301463e-02 9.079967499593e-02 0.0 
1.910150836011e-02 8.955159796425e-02 0.0 
1.794228205696e-02 9.666046094403e-02 0.0 
5.352433551457e-03 3.129363215506e-02 0.0 
1.386910566761e-04 6.360422853120e-02 0.0 
1.336990442784e-02 7.512696740050e-02 0.0 
1.684376174421e-03 6.327595412457e-02 0.0 
9.668876450611e-03 7.630806295232e-02 0.0 
-5.731912841212e-05 3.126309011278e-02 0.0 
1.823759957240e-02 6.132921065019e-02 0.0 
1.976051979127e-02 7.916536262804e-02 0.0 
1.579678363108e-02 7.333590793989e-02 0.0 
1.946782321551e-02 7.959492568518e-02 0.0 
1.464726334637e-02 7.376189455381e-02 0.0 
1.316881774423e-02 8.330515397604e-02 0.0 
1.408320575648e-02 8.685279902712e-02 0.0 
1.702743801862e-02 5.671838867131e-02 0.0 
1.805007680020e-02 9.769416690763e-02 0.0 
1.630092703554e-02 1.040433006726e-01 0.0 
1.736296559515e-02 7.457008479278e-02 0.0 
7.407810202002e-03 4.177720863645e-02 0.0 
7.316328457347e-03 3.681580729328e-02 0.0 
5.651714305247e-03 2.677373713771e-02 0.0 
7.076712613414e-03 3.193730570956e-02 0.0 
8.745886024813e-03 4.204722763546e-02 0.0 
8.587893555109e-03 3.712973839197e-02 0.0 
6.674425563589e-03 2.719976604842e-02 0.0 
8.261618033155e-03 3.225676186887e-02 0.0 
5.581915194034e-03 2.037522661884e-02 0.0 
7.678195101655e-03 2.721578575726e-02 0.0 
9.874969373558e-03 3.729406625772e-02 0.0 
9.457054538639e-03 3.264515979675e-02 0.0 
7.257129911491e-03 2.369351895083e-02 0.0 
1.151681134403e-02 4.249941479156e-02 0.0 
4.357654489552e-03 1.112530899775e-02 0.0 
1.995344078231e-02 6.573258775540e-02 0.0 
3.133492222904e-03 3.691705624949e-02 0.0 
4.393289069759e-03 4.918604558901e-02 0.0 
1.909477036829e-02 7.823865162672e-02 0.0 
2.734871789369e-03 9.943349710832e-03 0.0 
2.258762948412e-03 9.989074959183e-03 0.0 
1.627811265699e-02 5.942530327303e-02 0.0 
3.327155051917e-03 8.444419089591e-03 0.0 
1.495688519191e-02 8.198262310399e-02 0.0 
1.065663982587e-02 4.917593709362e-02 0.0 
3.440289050024e-03 8.052584107608e-03 0.0 
8.745696002935e-03 4.695388571358e-02 0.0 
1.009467248612e-02 5.205821774780e-02 0.0 
9.858484235829e-03 5.689891970616e-02 0.0 
1.751249026905e-03 9.444633640851e-03 0.0 
7.077889796725e-03 7.094430494409e-02 0.0 
2.907785189457e-03 6.718499497571e-03 0.0 
1.360242669707e-02 4.149236082030e-02 0.0 
1.518202756696e-02 4.488793761711e-02 0.0 
1.601652532564e-02 4.864155393695e-02 0.0 
1.012758299070e-02 4.231925341231e-02 0.0 
2.168199345083e-03 6.476085243153e-03 0.0 
3.755496356741e-03 1.216234080837e-02 0.0 
3.235287567820e-03 1.199367413542e-02 0.0 
5.033805153474e-03 1.778337508226e-02 0.0 
1.598203914505e-03 6.278709248432e-03 0.0 
2.818624790966e-03 8.661017825482e-03 0.0 
2.826057852130e-03 8.073702619660e-03 0.0 
1.037967196330e-03 4.841143776811e-02 0.0 
3.093645643967e-03 4.720366008426e-02 0.0 
4.165052110959e-03 4.728904493259e-02 0.0 
5.388317647234e-03 4.673720438890e-02 0.0 
4.235415318455e-03 4.605664154454e-02 0.0 
6.812432002146e-03 4.652401175038e-02 0.0 
7.739290452724e-03 4.693904860847e-02 0.0 
8.426512796595e-03 4.690415929371e-02 0.0 
1.050160581259e-02 3.294100476520e-02 0.0 
1.043614925241e-03 5.972893301002e-03 0.0 
3.000234111655e-03 3.854726531342e-02 0.0 
3.905345934528e-03 3.968238796741e-02 0.0 
3.775505409618e-03 4.272503013249e-02 0.0 
-6.052409282921e-04 5.491904833093e-02 0.0 
-3.141847185583e-04 5.212705689899e-02 0.0 
-5.673851396855e-05 4.865226778094e-02 0.0 
-7.596673098737e-04 5.766385754915e-02 0.0 
1.601454423749e-02 4.439710367295e-02 0.0 
8.067658059021e-04 6.011917281126e-03 0.0 
8.592251810050e-03 3.875322844971e-02 0.0 
-2.057579546137e-04 5.246276882695e-02 0.0 
8.961354953430e-03 9.419525039938e-02 0.0 
9.388155522758e-03 8.641281618409e-02 0.0 
1.028427283295e-02 8.571174624436e-02 0.0 
9.607966264006e-03 7.714504825579e-02 0.0 
8.368498851570e-03 8.582998367766e-02 0.0 
-3.885534683004e-04 4.950696853299e-02 0.0 
-3.454683720725e-04 4.812818518108e-02 0.0 
-3.580579633358e-04 5.095005488528e-02 0.0 
-2.795363743345e-04 4.652185743568e-02 0.0 
-2.539076617598e-04 4.934118315833e-02 0.0 
-3.139475649154e-04 5.352227991662e-02 0.0 
-1.973623818460e-04 4.470807099465e-02 0.0 
-1.507673395722e-04 4.805111870749e-02 0.0 
7.219043275198e-03 9.487057650031e-02 0.0 
8.233755776330e-04 3.890305713359e-02 0.0 
-1.205971714325e-03 4.329581846316e-02 0.0 
-1.910275557470e-04 5.014912599431e-02 0.0 
-2.145008219387e-03 4.703682423625e-02 0.0 
-2.191275799965e-03 4.135999129470e-02 0.0 
-2.413757492771e-03 4.540135849533e-02 0.0 
-1.542181326066e-03 4.094560693256e-02 0.0 
-1.683247547491e-03 3.623101477235e-02 0.0 
3.276385823993e-03 5.341895326883e-02 0.0 
6.253091666198e-04 5.562754104561e-02 0.0 
3.768676245669e-03 5.840585083356e-02 0.0 
1.333090389346e-03 6.002223185787e-02 0.0 
-1.089011344818e-03 5.734745352943e-02 0.0 
-9.645312822349e-04 6.458156827536e-02 0.0 
-6.155471275924e-05 7.459073141166e-03 0.0 
-1.521058859470e-04 5.958743029659e-02 0.0 
-3.033706538698e-04 6.118853314320e-02 0.0 
-3.157022168900e-04 6.435818109621e-02 0.0 
-4.719820773805e-04 6.232031973851e-02 0.0 
-2.763666590709e-04 5.790454027739e-02 0.0 
-1.545222030789e-04 6.616355856575e-02 0.0 
-2.893210330270e-04 6.694973764537e-02 0.0 
1.346586346597e-03 7.580428957169e-02 0.0 
7.419206880384e-04 7.586917908426e-02 0.0 
3.722884689247e-04 7.625938009592e-02 0.0 
3.355042212331e-04 7.551914663894e-02 0.0 
5.569883332737e-04 7.511117138186e-02 0.0 
1.092150237550e-03 7.532597080021e-02 0.0 
1.420610069232e-03 7.458872316683e-02 0.0 
2.325896551401e-03 7.433856973873e-02 0.0 
1.692360419153e-03 7.365474573600e-02 0.0 
8.698188004254e-04 7.362281734690e-02 0.0 
2.777025780607e-03 7.332546267634e-02 0.0 
3.697928875277e-04 5.088865846967e-02 0.0 
7.039410624463e-04 4.565235774359e-02 0.0 
4.636038059314e-04 6.425719109867e-03 0.0 
5.585428922522e-03 9.450119316715e-02 0.0 
3.926512000118e-03 6.553193412803e-02 0.0 
5.636991847123e-04 1.226201172115e-02 0.0 
8.493885859498e-04 1.016406816267e-02 0.0 
6.919867188060e-04 9.853675906520e-03 0.0 
-4.068365784186e-05 1.842841640587e-02 0.0 
-6.501844316838e-05 1.508235894333e-02 0.0 
3.036910607234e-04 1.192662677259e-02 0.0 
-1.262618811002e-03 6.258834970297e-02 0.0 
5.218112736890e-03 2.225105135183e-02 0.0 
1.595230731544e-03 3.152059068257e-02 0.0 
1.181417583032e-02 5.374713327334e-02 0.0 
-1.445067066540e-03 5.724447435330e-02 0.0 
-1.676948341612e-04 3.663960688902e-02 0.0 
2.798326737888e-04 4.060932419600e-02 0.0 
-7.581178500378e-05 2.401605568582e-02 0.0 
-1.808690344941e-04 4.060315037972e-02 0.0 
1.389875153264e-04 2.871120119667e-02 0.0 
2.776870812287e-03 1.226519511530e-02 0.0 
7.896599441443e-05 7.322489203423e-02 0.0 
4.438681366923e-03 6.956130809910e-02 0.0 
2.868685766773e-03 7.314826753629e-02 0.0 
2.658492570053e-03 4.832667339343e-02 0.0 
-8.499732867815e-04 6.575545072346e-02 0.0 
-4.427070082850e-04 5.480258373559e-02 0.0 
-3.466015996903e-04 6.930508431658e-02 0.0 
6.216817174868e-03 1.539056359950e-02 0.0 
1.761925991073e-02 8.212046664621e-02 0.0 
2.636558360953e-03 4.491441685060e-02 0.0 
-8.333402090731e-04 5.798800490991e-02 0.0 
-1.238370516664e-03 5.979361765651e-02 0.0 
-1.556184096480e-03 5.538626948278e-02 0.0 
2.028465849141e-02 6.701822199970e-02 0.0 
3.620760639805e-04 4.971191946571e-02 0.0 
1.508031876734e-03 3.134767174231e-02 0.0 
2.031822029585e-03 4.248902844190e-02 0.0 
3.325561240154e-03 7.035700579637e-02 0.0 
1.940474105015e-03 2.824208913612e-02 0.0 
9.192987761148e-04 4.295357522113e-02 0.0 
6.156351874223e-03 6.575158169803e-02 0.0 
9.534317162733e-03 2.934790036785e-02 0.0 
-2.465024731224e-03 4.974665924714e-02 0.0 
3.814820195115e-03 4.449588273189e-02 0.0 
3.725600175802e-03 2.533663428176e-02 0.0 
7.993428269298e-03 7.591024064863e-02 0.0 
3.577616599779e-04 7.062916514597e-02 0.0 
4.680458701778e-03 7.927987653510e-02 0.0 
1.942517965878e-03 1.613106152928e-02 0.0 
7.353521245771e-03 4.667904998198e-02 0.0 
-6.329207421526e-04 6.798137417705e-02 0.0 
1.047262698514e-02 4.337379447132e-02 0.0 
2.006913351890e-02 7.334164932965e-02 0.0 
1.287093451152e-02 9.896219672440e-02 0.0 
1.646002048965e-03 2.687354228738e-02 0.0 
1.792582860370e-02 5.277152949623e-02 0.0 
6.523091902336e-03 2.373739005873e-02 0.0 
9.588144210594e-03 3.732404066190e-02 0.0 
-5.446105268325e-04 6.764544724159e-02 0.0 
8.385111636225e-04 2.406098248476e-02 0.0 
1.505910410891e-02 4.834518868030e-02 0.0 
3.067405037351e-03 3.374562739249e-02 0.0 
1.483306303553e-02 4.400262753979e-02 0.0 
1.208685113294e-02 4.865802775837e-02 0.0 
4.975054017279e-03 4.049360989222e-02 0.0 
4.789949886395e-03 4.337408849118e-02 0.0 
9.471120978724e-03 2.698585614437e-02 0.0 
1.842657223926e-02 8.385594978217e-02 0.0 
1.784414219443e-02 5.889480926260e-02 0.0 
1.444550688573e-02 5.542271233080e-02 0.0 
1.876728055810e-02 5.670354591465e-02 0.0 
-1.469060064724e-04 3.983155998019e-02 0.0 
1.322386788432e-03 2.623087394354e-02 0.0 
2.736449082002e-03 4.010192381463e-02 0.0 
2.017494831625e-02 7.563998729379e-02 0.0 
7.551493989842e-03 6.622498888466e-02 0.0 
1.077716131682e-02 2.738834408865e-02 0.0 
2.164892717413e-03 2.257135575899e-02 0.0 
2.023250398349e-02 7.936826103426e-02 0.0 
5.972686127902e-04 2.747301204903e-02 0.0 
3.898276476990e-03 3.002191323104e-02 0.0 
1.189112424689e-04 4.932418680774e-02 0.0 
-2.018049545360e-05 7.315694992415e-02 0.0 
9.681775129243e-03 5.259517333399e-02 0.0 
1.105493558798e-02 4.912503267984e-02 0.0 
1.743485744705e-02 5.250473073429e-02 0.0 
3.782830571357e-04 4.580720360486e-02 0.0 
4.057098197088e-03 1.994986141815e-02 0.0 
3.060393213832e-04 2.527607398569e-02 0.0 
4.196670128733e-03 2.920230063663e-02 0.0 
1.780530015352e-03 6.838270841958e-02 0.0 
1.399330367484e-02 9.448546146582e-02 0.0 
1.068086781349e-04 2.289703957741e-02 0.0 
8.898224975540e-03 4.166896704413e-02 0.0 
7.936109255314e-03 2.396690504629e-02 0.0 
-1.892114899052e-04 5.205947014556e-02 0.0 
6.295517279569e-03 1.511557927461e-02 0.0 
1.622658111040e-02 1.029813116219e-01 0.0 
-1.537746211446e-05 2.034494763461e-02 0.0 
5.933452699588e-03 2.886768174771e-02 0.0 
1.787502788901e-02 6.332506076476e-02 0.0 
1.537080119185e-03 9.561317028696e-02 0.0 
-4.083464672682e-05 1.275482985374e-02 0.0 
4.995922337831e-03 2.361388509143e-02 0.0 
1.754595688304e-02 5.074241590970e-02 0.0 
7.473692027546e-03 4.275109594956e-02 0.0 
1.394563821547e-02 1.045616675203e-01 0.0 
1.438969265838e-04 4.483770168282e-02 0.0 
1.683528210730e-02 5.662536467304e-02 0.0 
1.527265327536e-03 9.258210615149e-03 0.0 
5.197541291459e-03 2.110912473508e-02 0.0 
1.111123408947e-02 6.183979898274e-02 0.0 
-1.779114984979e-04 4.777001930582e-02 0.0 
1.425985405858e-02 3.940746190730e-02 0.0 
7.515003590972e-04 7.448146911423e-02 0.0 
1.525754394234e-02 9.972613243627e-02 0.0 
-2.466590433110e-04 4.662649898676e-02 0.0 
9.344910216883e-03 4.766452511761e-02 0.0 
6.127591206705e-03 4.171445858395e-02 0.0 
5.999265909809e-03 1.481634480257e-02 0.0 
-2.699451739843e-04 4.523398372900e-02 0.0 
1.000363724986e-02 4.763929411217e-02 0.0 
-2.567782230898e-04 4.361639640190e-02 0.0 
1.462581710321e-02 1.085291698627e-01 0.0 
1.142039868127e-02 5.683155611148e-02 0.0 
-2.146504007365e-04 4.179606428802e-02 0.0 
1.537049931738e-02 4.884692728313e-02 0.0 
9.059205854958e-04 7.246673885282e-02 0.0 
1.660823275675e-02 4.620113296770e-02 0.0 
-8.020446937319e-05 2.192220112522e-02 0.0 
-3.735052633841e-04 5.421812811686e-02 0.0 
4.944493251378e-03 4.074566071190e-02 0.0 
1.018610944920e-02 4.716946866353e-02 0.0 
1.467498609778e-02 1.107916323432e-01 0.0 
4.893443572739e-03 3.751697535115e-02 0.0 
1.354306124658e-02 4.078121671786e-02 0.0 
1.546617436685e-02 4.194168552550e-02 0.0 
1.663569140013e-02 4.863746105881e-02 0.0 
4.640013062274e-03 3.366782013564e-02 0.0 
1.655375778934e-02 1.040439953461e-01 0.0 
-1.413681440913e-03 6.174530144077e-02 0.0 
-1.366036801833e-03 6.323798470808e-02 0.0 
8.387727160934e-03 4.662284028752e-02 0.0 
1.207899094758e-02 3.704847863210e-02 0.0 
2.177969592524e-04 7.445885837551e-02 0.0 
1.163574117839e-02 4.712461014696e-02 0.0 
-1.090388477386e-03 6.272479202083e-02 0.0 
6.278045964913e-03 4.671006384233e-02 0.0 
1.213346996369e-02 3.144105716608e-02 0.0 
4.433301617878e-04 7.066988690092e-02 0.0 
4.992383760767e-03 4.678481769442e-02 0.0 
-8.542921416646e-05 7.120307840167e-02 0.0 
3.150081456993e-03 4.798032061054e-02 0.0 
1.557273404759e-02 4.425094356937e-02 0.0 
2.319866814265e-03 4.866713741098e-02 0.0 
9.349889253224e-04 5.073411100251e-02 0.0 
1.101215429148e-03 2.069042866248e-02 0.0 
5.137080674520e-04 5.158721432899e-02 0.0 
1.477701168208e-04 9.894943743260e-03 0.0 
-3.436604478907e-05 6.833775899409e-03 0.0 
5.815510073597e-04 8.900978161192e-02 0.0 
1.366922765055e-02 1.114996124020e-01 0.0 
-1.916410954446e-03 2.650510919804e-02 0.0 
1.630443784694e-02 1.008911942844e-01 0.0 
-9.315785632983e-04 5.584090552231e-02 0.0 
1.300076901415e-02 4.678151205636e-02 0.0 
1.208659605689e-03 8.858954087761e-02 0.0 
-1.344472518190e-03 5.873805561993e-02 0.0 
5.296275572338e-03 1.752682444377e-02 0.0 
3.130282956206e-03 7.063885664116e-03 0.0 
7.986274451319e-04 5.548823266683e-02 0.0 
6.558525374683e-03 2.134950396035e-02 0.0 
1.409060620364e-02 3.773080390537e-02 0.0 
2.280230954524e-04 3.000666615734e-02 0.0 
3.575426469502e-03 9.619589531471e-02 0.0 
1.839558748333e-03 6.361859566732e-02 0.0 
-6.999365706003e-05 3.707091745189e-02 0.0 
1.195140357434e-02 1.076261892270e-01 0.0 
1.410051284392e-02 9.489791412957e-02 0.0 
1.141495151050e-02 8.344640505363e-02 0.0 
-4.240678435392e-04 6.729247812546e-02 0.0 
-1.472159646388e-03 5.259322160927e-02 0.0 
1.028815007014e-02 9.825526974715e-02 0.0 
4.319057616299e-03 1.274766605634e-02 0.0 
6.033740365349e-03 8.805988217925e-02 0.0 
1.164421003574e-02 2.948541012920e-02 0.0 
6.709121777682e-03 8.536129462228e-02 0.0 
2.681575600821e-03 1.969768158417e-02 0.0 
6.047257439290e-03 1.421327958667e-02 0.0 
1.739463614158e-04 5.756113060945e-03 0.0 
9.083740341465e-03 2.219433989704e-02 0.0 
7.277567694211e-03 6.807080055292e-02 0.0 
8.818659994168e-03 7.939915097173e-02 0.0 
6.087292023626e-03 1.569676559323e-02 0.0 
1.078303643394e-03 4.716013157092e-02 0.0 
2.431816706411e-05 5.602058572737e-03 0.0 
7.593314373350e-03 8.848646065535e-02 0.0 
6.737705282524e-04 1.934027432178e-02 0.0 
2.379958939012e-04 3.921198666948e-02 0.0 
3.391474839722e-04 1.878106970728e-02 0.0 
1.110834781366e-02 3.760291674133e-02 0.0 
2.469707545217e-03 7.749994157571e-02 0.0 
1.054170902483e-02 7.886865303742e-02 0.0 
-7.140836148299e-05 1.181670683597e-02 0.0 
4.647654110666e-03 1.822233626457e-02 0.0 
4.630260789157e-03 5.789508027622e-02 0.0 
1.251465388362e-03 5.650951380175e-02 0.0 
-6.093142728539e-04 6.174692605533e-02 0.0 
-1.061968335930e-03 3.074862048594e-02 0.0 
7.919224032905e-04 1.173351499961e-02 0.0 
8.902549980727e-03 2.845470548785e-02 0.0 
-6.615230021067e-05 1.196277663439e-02 0.0 
1.590582520250e-04 7.576102803593e-02 0.0 
2.327223949806e-03 6.887505502445e-02 0.0 
1.296211071562e-03 1.075670309868e-02 0.0 
5.405024790624e-03 1.555363401198e-02 0.0 
-9.801725800794e-04 4.370070581980e-02 0.0 
8.993397788896e-04 7.944514632921e-03 0.0 
4.407090690311e-04 4.825492746513e-02 0.0 
4.889688417067e-03 9.698532433024e-02 0.0 
1.986049028785e-03 7.264544863957e-02 0.0 
-2.207960294344e-05 5.720059711657e-03 0.0 
1.604801571340e-03 1.846259978849e-02 0.0 
-3.999461655475e-04 5.932483519154e-02 0.0 
1.071083932979e-02 9.225593818742e-02 0.0 
-2.347014257231e-04 6.939591999467e-02 0.0 
8.445261624378e-03 2.066715128972e-02 0.0 
1.496939695526e-05 6.109837411327e-02 0.0 
1.097091289972e-03 1.747124178930e-02 0.0 
2.017586591119e-03 1.048699168641e-02 0.0 
3.211003617554e-03 1.704149625638e-02 0.0 
1.964882305913e-03 4.959723255746e-03 0.0 
5.248391028192e-05 3.248039540405e-02 0.0 
5.392212975395e-03 1.251710036875e-02 0.0 
4.060116528888e-03 1.629219039375e-02 0.0 
2.682139708810e-03 9.660048665485e-02 0.0 
4.042928846503e-03 1.804502753290e-02 0.0 
-4.355364867920e-04 6.506929108488e-02 0.0 
3.886869991153e-04 7.255918694473e-02 0.0 
6.417179386438e-05 8.770874403499e-03 0.0 
4.403824868418e-04 7.638198246130e-02 0.0 
4.501951068368e-04 9.661273924790e-02 0.0 
-1.170863724405e-05 5.584981697155e-03 0.0 
3.647260079836e-04 7.421031417335e-02 0.0 
9.594998420769e-04 8.236133916625e-02 0.0 
4.978385128401e-03 1.525795131845e-02 0.0 
-8.631964571975e-05 5.143339571167e-02 0.0 
5.331567751462e-04 3.717858318585e-02 0.0 
-2.398482725848e-03 4.980604207635e-02 0.0 
-5.758878404142e-04 2.540038532553e-02 0.0 
7.665273513706e-04 6.577353755452e-02 0.0 
5.216402995252e-03 1.244998112784e-02 0.0 
2.495979993038e-03 1.644518123724e-02 0.0 
1.978476767406e-03 7.232433124156e-02 0.0 
7.350816675355e-03 5.303275205394e-02 0.0 
6.977055210979e-03 2.142971435997e-02 0.0 
-3.821668725237e-04 5.644798384456e-02 0.0 
8.218497034061e-03 2.138803608570e-02 0.0 
5.268935920500e-03 1.679528849481e-02 0.0 
-4.352038766888e-03 4.989629164064e-02 0.0 
-6.023468408842e-05 4.695788052129e-02 0.0 
2.263288054103e-03 7.146934542316e-02 0.0 
2.272409352428e-04 1.065543183226e-02 0.0 
-2.477869594697e-04 5.493630389320e-02 0.0 
8.766604020157e-03 1.184979407293e-01 0.0 
2.780987971738e-04 1.418521230870e-01 0.0 
1.119521362365e-02 1.197820663310e-01 0.0 
2.864030045519e-04 1.357355732989e-01 0.0 
1.227826639997e-02 1.184848544975e-01 0.0 
2.748086911788e-04 1.291831579091e-01 0.0 
1.247224116808e-02 1.152734522290e-01 0.0 
2.995118250974e-04 1.221910683552e-01 0.0 
1.205906561202e-02 1.104493151386e-01 0.0 
2.869939996198e-04 1.147604036708e-01 0.0 
1.120717248233e-02 1.044658567579e-01 0.0 
3.068237447423e-04 1.068954238331e-01 0.0 

TENSORS node_materi_stress float
-1.146254988741e+00 -1.511838051088e-01 0.0 
-1.511838051088e-01 -8.528392870782e+00 0.0 
0.0 0.0 -1.647624231927e+00 
-5.828701865028e+01 4.419090210033e-01 0.0 
4.419090210033e-01 -1.179015126898e+02 0.0 
0.0 0.0 -5.245655940202e+01 
-1.665945778421e+02 -3.277995939317e-01 0.0 
-3.277995939317e-01 -3.902763979711e+02 0.0 
0.0 0.0 -1.666612927440e+02 
-1.318936641929e+02 6.405513197187e-01 0.0 
6.405513197187e-01 -3.075448686074e+02 0.0 
0.0 0.0 -1.314315598401e+02 
-4.517315520855e+00 -3.299459846000e-01 0.0 
-3.299459846000e-01 -2.082516184005e+01 0.0 
0.0 0.0 -6.629143416928e+00 
-1.239565371813e+01 -6.237342751080e-01 0.0 
-6.237342751080e-01 -4.033924477281e+01 0.0 
0.0 0.0 -1.542046954728e+01 
-2.166261836655e+01 -5.889383004407e-01 0.0 
-5.889383004407e-01 -5.864111702834e+01 0.0 
0.0 0.0 -2.369112061847e+01 
-3.157380360961e+01 -5.976420499254e-01 0.0 
-5.976420499254e-01 -7.948880284185e+01 0.0 
0.0 0.0 -3.291878193544e+01 
-4.089768652414e+01 -5.383415520287e-01 0.0 
-5.383415520287e-01 -9.973081951293e+01 0.0 
0.0 0.0 -4.178855181112e+01 
-5.004924749939e+01 -5.455369311673e-01 0.0 
-5.455369311673e-01 -1.198103627604e+02 0.0 
0.0 0.0 -5.055788307793e+01 
-5.884442084963e+01 -5.965908697235e-01 0.0 
-5.965908697235e-01 -1.399639911607e+02 0.0 
0.0 0.0 -5.924252360310e+01 
-6.738127642746e+01 -5.739158382424e-01 0.0 
-5.739158382424e-01 -1.601794311194e+02 0.0 
0.0 0.0 -6.786821226406e+01 
-7.581623232411e+01 -5.675638760954e-01 0.0 
-5.675638760954e-01 -1.804084960934e+02 0.0 
0.0 0.0 -7.646741852526e+01 
-8.415078098828e+01 -6.198528550374e-01 0.0 
-6.198528550374e-01 -2.008350569595e+02 0.0 
0.0 0.0 -8.509575138432e+01 
-9.261071472919e+01 -7.397358264980e-01 0.0 
-7.397358264980e-01 -2.217425558076e+02 0.0 
0.0 0.0 -9.390598116105e+01 
-1.012194172641e+02 -6.948413340079e-01 0.0 
-6.948413340079e-01 -2.418834273071e+02 0.0 
0.0 0.0 -1.025308533714e+02 
-1.090953349937e+02 -8.502577546303e-01 0.0 
-8.502577546303e-01 -2.601208478750e+02 0.0 
0.0 0.0 -1.103648548606e+02 
-1.175499444210e+02 -3.999691632606e-01 0.0 
-3.999691632606e-01 -2.801875332997e+02 0.0 
0.0 0.0 -1.189212433162e+02 
-1.264059697880e+02 -3.404146526600e-01 0.0 
-3.404146526600e-01 -3.006306629731e+02 0.0 
0.0 0.0 -1.277109898283e+02 
-1.350997315793e+02 -3.049589501244e-01 0.0 
-3.049589501244e-01 -3.203601953052e+02 0.0 
0.0 0.0 -1.362379780653e+02 
-1.438913038749e+02 -2.488994745501e-01 0.0 
-2.488994745501e-01 -3.401626914308e+02 0.0 
0.0 0.0 -1.448161985917e+02 
-1.527972553007e+02 -2.749654981736e-01 0.0 
-2.749654981736e-01 -3.600530300366e+02 0.0 
0.0 0.0 -1.534550856012e+02 
-1.614368079373e+02 -3.475014923918e-01 0.0 
-3.475014923918e-01 -3.790247803814e+02 0.0 
0.0 0.0 -1.617384764956e+02 
-1.322885467307e+02 6.785546085949e-01 0.0 
6.785546085949e-01 -3.087028627204e+02 0.0 
0.0 0.0 -1.318974228353e+02 
-1.317468035727e+02 1.203337008200e+00 0.0 
1.203337008200e+00 -3.076990807019e+02 0.0 
0.0 0.0 -1.314337652824e+02 
-1.319101740162e+02 2.026216294268e+00 0.0 
2.026216294268e+00 -3.080366168065e+02 0.0 
0.0 0.0 -1.315840372468e+02 
-1.319047079780e+02 2.254725086725e+00 0.0 
2.254725086725e+00 -3.081559577649e+02 0.0 
0.0 0.0 -1.316181997229e+02 
-1.318232990001e+02 3.012872812057e+00 0.0 
3.012872812057e+00 -3.077035708309e+02 0.0 
0.0 0.0 -1.314580609493e+02 
-1.322181756854e+02 3.671434102076e+00 0.0 
3.671434102076e+00 -3.085770675295e+02 0.0 
0.0 0.0 -1.318385729644e+02 
-1.326969178096e+02 4.411163500270e+00 0.0 
4.411163500270e+00 -3.091982817568e+02 0.0 
0.0 0.0 -1.321685598699e+02 
-1.325848686342e+02 5.276927988001e+00 0.0 
5.276927988001e+00 -3.093073383733e+02 0.0 
0.0 0.0 -1.321676621022e+02 
-1.332536714008e+02 6.232309060193e+00 0.0 
6.232309060193e+00 -3.106274898236e+02 0.0 
0.0 0.0 -1.327643483673e+02 
-1.334341855031e+02 6.832806721649e+00 0.0 
6.832806721649e+00 -3.112547968736e+02 0.0 
0.0 0.0 -1.330066947130e+02 
-1.337052883194e+02 7.881817200569e+00 0.0 
7.881817200569e+00 -3.114468447549e+02 0.0 
0.0 0.0 -1.331456399223e+02 
-1.343399412612e+02 8.912794743594e+00 0.0 
8.912794743594e+00 -3.130345471624e+02 0.0 
0.0 0.0 -1.338123465271e+02 
-1.353455172194e+02 9.989190307097e+00 0.0 
9.989190307097e+00 -3.148144804918e+02 0.0 
0.0 0.0 -1.346479993134e+02 
-1.355924645910e+02 1.110267008661e+01 0.0 
1.110267008661e+01 -3.158496437419e+02 0.0 
0.0 0.0 -1.350326324999e+02 
-1.364602898882e+02 1.226961298428e+01 0.0 
1.226961298428e+01 -3.173123385522e+02 0.0 
0.0 0.0 -1.357317885321e+02 
-1.368204613150e+02 1.331235469266e+01 0.0 
1.331235469266e+01 -3.185775739476e+02 0.0 
0.0 0.0 -1.362194105788e+02 
-1.378352632823e+02 1.454163703121e+01 0.0 
1.454163703121e+01 -3.207843823207e+02 0.0 
0.0 0.0 -1.371858936809e+02 
-1.395638459127e+02 1.576525958575e+01 0.0 
1.576525958575e+01 -3.243752038001e+02 0.0 
0.0 0.0 -1.387817149139e+02 
-1.408499468875e+02 1.693480389493e+01 0.0 
1.693480389493e+01 -3.278498587345e+02 0.0 
0.0 0.0 -1.402099416866e+02 
-1.422920998336e+02 1.801714639370e+01 0.0 
1.801714639370e+01 -3.315971735117e+02 0.0 
0.0 0.0 -1.417667820036e+02 
-1.436742445526e+02 1.884721022901e+01 0.0 
1.884721022901e+01 -3.352277580629e+02 0.0 
0.0 0.0 -1.432706007846e+02 
-1.454010847057e+02 1.971907540524e+01 0.0 
1.971907540524e+01 -3.391300584566e+02 0.0 
0.0 0.0 -1.449593429487e+02 
-1.469570033859e+02 2.030379566686e+01 0.0 
2.030379566686e+01 -3.433787019476e+02 0.0 
0.0 0.0 -1.467007116001e+02 
-1.486853475392e+02 2.070071623735e+01 0.0 
2.070071623735e+01 -3.478155194900e+02 0.0 
0.0 0.0 -1.485502601088e+02 
-1.505841616437e+02 2.084647823202e+01 0.0 
2.084647823202e+01 -3.526501083110e+02 0.0 
0.0 0.0 -1.505702809864e+02 
-1.525657724992e+02 2.079565141211e+01 0.0 
2.079565141211e+01 -3.575449223928e+02 0.0 
0.0 0.0 -1.526332084676e+02 
-1.542656254564e+02 2.042718088735e+01 0.0 
2.042718088735e+01 -3.622549107270e+02 0.0 
0.0 0.0 -1.545561608550e+02 
-1.561210122001e+02 1.979806428642e+01 0.0 
1.979806428642e+01 -3.668014806155e+02 0.0 
0.0 0.0 -1.564767478447e+02 
-1.575870935564e+02 1.892971807137e+01 0.0 
1.892971807137e+01 -3.708272996957e+02 0.0 
0.0 0.0 -1.581243179757e+02 
-1.595932877449e+02 1.803711458570e+01 0.0 
1.803711458570e+01 -3.753511286254e+02 0.0 
0.0 0.0 -1.600833249111e+02 
-1.607356285675e+02 1.649723290435e+01 0.0 
1.649723290435e+01 -3.788213213866e+02 0.0 
0.0 0.0 -1.614670849862e+02 
-1.615733689700e+02 1.523221020323e+01 0.0 
1.523221020323e+01 -3.810973684331e+02 0.0 
0.0 0.0 -1.624012212209e+02 
-1.628233610295e+02 1.369866338786e+01 0.0 
1.369866338786e+01 -3.840119408198e+02 0.0 
0.0 0.0 -1.636505905548e+02 
-1.639008165631e+02 1.223134209790e+01 0.0 
1.223134209790e+01 -3.865315312795e+02 0.0 
0.0 0.0 -1.647297043528e+02 
-1.647939633385e+02 1.070468898546e+01 0.0 
1.070468898546e+01 -3.885722552684e+02 0.0 
0.0 0.0 -1.656098655821e+02 
-1.655270734831e+02 9.247831238998e+00 0.0 
9.247831238998e+00 -3.901041973747e+02 0.0 
0.0 0.0 -1.662893812573e+02 
-1.660618107079e+02 7.845862872831e+00 0.0 
7.845862872831e+00 -3.912266401379e+02 0.0 
0.0 0.0 -1.667865352537e+02 
-1.663338612039e+02 6.517984562319e+00 0.0 
6.517984562319e+00 -3.917288467064e+02 0.0 
0.0 0.0 -1.670188123731e+02 
-1.664863375885e+02 5.389465134696e+00 0.0 
5.389465134696e+00 -3.918908167703e+02 0.0 
0.0 0.0 -1.671131463076e+02 
-1.664307255677e+02 4.287865615858e+00 0.0 
4.287865615858e+00 -3.916982457884e+02 0.0 
0.0 0.0 -1.670386914068e+02 
-1.667252452135e+02 3.495293938155e+00 0.0 
3.495293938155e+00 -3.920264040742e+02 0.0 
0.0 0.0 -1.672254947863e+02 
-1.672737129521e+02 2.634219747021e+00 0.0 
2.634219747021e+00 -3.927625331795e+02 0.0 
0.0 0.0 -1.676108738395e+02 
-1.674565500051e+02 2.114824991940e+00 0.0 
2.114824991940e+00 -3.928644309692e+02 0.0 
0.0 0.0 -1.676962942923e+02 
-1.660574557739e+02 1.538990777641e+00 0.0 
1.538990777641e+00 -3.901040674012e+02 0.0 
0.0 0.0 -1.664484569525e+02 
-1.671680427196e+02 1.048790814051e+00 0.0 
1.048790814051e+00 -3.918693602034e+02 0.0 
0.0 0.0 -1.673112208769e+02 
-1.666065213731e+02 7.485722142663e-01 0.0 
7.485722142663e-01 -3.907885119228e+02 0.0 
0.0 0.0 -1.668185099888e+02 
-1.668218290997e+02 6.841660436690e-01 0.0 
6.841660436690e-01 -3.910720754503e+02 0.0 
0.0 0.0 -1.669681713650e+02 
-1.671038851310e+02 2.510982040714e-01 0.0 
2.510982040714e-01 -3.915648571159e+02 0.0 
0.0 0.0 -1.672006226741e+02 
-1.670012474766e+02 1.718419643769e-01 0.0 
1.718419643769e-01 -3.913629578395e+02 0.0 
0.0 0.0 -1.671092615948e+02 
-6.693011121310e+01 3.258450789871e-01 0.0 
3.258450789871e-01 -1.377261277448e+02 0.0 
0.0 0.0 -6.099687168737e+01 
-7.498529177365e+01 3.906639415274e-01 0.0 
3.906639415274e-01 -1.574863775527e+02 0.0 
0.0 0.0 -6.934150079789e+01 
-8.303614494304e+01 4.010086079304e-01 0.0 
4.010086079304e-01 -1.771133924256e+02 0.0 
0.0 0.0 -7.764486121058e+01 
-9.073107852528e+01 4.523110728722e-01 0.0 
4.523110728722e-01 -1.963951477969e+02 0.0 
0.0 0.0 -8.573786789664e+01 
-9.844028509100e+01 4.311944503177e-01 0.0 
4.311944503177e-01 -2.161681484523e+02 0.0 
0.0 0.0 -9.398253006299e+01 
-1.062487003109e+02 4.930802067337e-01 0.0 
4.930802067337e-01 -2.360993503108e+02 0.0 
0.0 0.0 -1.023044151865e+02 
-1.135636184339e+02 4.683929970065e-01 0.0 
4.683929970065e-01 -2.558367973438e+02 0.0 
0.0 0.0 -1.104201247333e+02 
-1.206725759635e+02 5.564459232801e-01 0.0 
5.564459232801e-01 -2.754572927608e+02 0.0 
0.0 0.0 -1.184389606173e+02 
-1.280733012953e+02 6.095371931100e-01 0.0 
6.095371931100e-01 -2.957446584423e+02 0.0 
0.0 0.0 -1.267453879213e+02 
-5.878209159028e+01 2.795441092564e+01 0.0 
2.795441092564e+01 -6.961238412443e+01 0.0 
0.0 0.0 -3.894172687032e+01 
-6.532767037286e+01 2.686655741727e+00 0.0 
2.686655741727e+00 -1.205564708593e+02 0.0 
0.0 0.0 -5.536524236966e+01 
-4.000429219290e+01 2.912097348325e+01 0.0 
2.912097348325e+01 -2.891764105372e+01 0.0 
0.0 0.0 -2.035690816306e+01 
-3.474346485423e+01 2.478103136242e+01 0.0 
2.478103136242e+01 -2.658209981154e+01 0.0 
0.0 0.0 -1.668968101860e+01 
-3.158600632843e+01 2.185641570207e+01 0.0 
2.185641570207e+01 -2.438817240902e+01 0.0 
0.0 0.0 -1.564501989433e+01 
-2.711812224326e+01 1.360593806919e+01 0.0 
1.360593806919e+01 -1.761486509747e+01 0.0 
0.0 0.0 -1.301989620222e+01 
-2.308417452895e+01 7.357401671551e+00 0.0 
7.357401671551e+00 -2.224107817699e+01 0.0 
0.0 0.0 -1.319757581178e+01 
-3.139640794992e+01 5.939165034214e+00 0.0 
5.939165034214e+00 -4.221210105130e+01 0.0 
0.0 0.0 -2.168255270037e+01 
-4.005016912168e+01 4.563570116001e+00 0.0 
4.563570116001e+00 -6.161147378128e+01 0.0 
0.0 0.0 -3.009849287089e+01 
-4.866975077651e+01 3.532592264636e+00 0.0 
3.532592264636e+00 -8.093671186672e+01 0.0 
0.0 0.0 -3.848193879297e+01 
-5.700207305559e+01 2.949188114884e+00 0.0 
2.949188114884e+00 -1.002204628617e+02 0.0 
0.0 0.0 -4.676676077519e+01 
-1.168589053608e+01 8.601452148520e-01 0.0 
8.601452148520e-01 -7.374302281583e+00 0.0 
0.0 0.0 -5.318057845298e+00 
-1.619461012124e+01 6.526072859394e-01 0.0 
6.526072859394e-01 -1.969432248995e+01 0.0 
0.0 0.0 -1.036667978336e+01 
-2.447067782130e+01 7.658917192279e-01 0.0 
7.658917192279e-01 -3.923809855723e+01 0.0 
0.0 0.0 -1.871263291356e+01 
-3.294549897968e+01 6.208528776518e-01 0.0 
6.208528776518e-01 -5.873540018166e+01 0.0 
0.0 0.0 -2.710426974840e+01 
-4.143548938440e+01 7.611770486238e-01 0.0 
7.611770486238e-01 -7.822461160325e+01 0.0 
0.0 0.0 -3.549803029629e+01 
-4.989375405347e+01 5.431874795007e-01 0.0 
5.431874795007e-01 -9.762655303500e+01 0.0 
0.0 0.0 -4.385609212654e+01 
-5.741762495924e+01 -2.344581365662e-01 0.0 
-2.344581365662e-01 -1.152911518877e+02 0.0 
0.0 0.0 -5.141263305407e+01 
-5.809566464718e+01 -4.212509281076e-02 0.0 
-4.212509281076e-02 -1.164808007920e+02 0.0 
0.0 0.0 -5.197293963176e+01 
-5.815738940909e+01 -4.894069956315e-02 0.0 
-4.894069956315e-02 -1.165209221275e+02 0.0 
0.0 0.0 -5.200349346097e+01 
-5.825637948107e+01 -3.254529577038e-03 0.0 
-3.254529577038e-03 -1.163022459713e+02 0.0 
0.0 0.0 -5.196758763571e+01 
-5.969315305031e+01 -1.076892491790e-04 0.0 
-1.076892491790e-04 -1.189604097538e+02 0.0 
0.0 0.0 -5.319606884123e+01 
-5.887739984203e+01 -1.618340112118e-02 0.0 
-1.618340112118e-02 -1.166344834530e+02 0.0 
0.0 0.0 -5.225356498852e+01 
-5.925023695854e+01 6.647798029586e-02 0.0 
6.647798029586e-02 -1.164986586341e+02 0.0 
0.0 0.0 -5.232466867778e+01 
-5.962471524945e+01 5.642017493742e-02 0.0 
5.642017493742e-02 -1.167350253513e+02 0.0 
0.0 0.0 -5.250792218022e+01 
-6.017518193962e+01 2.045940518693e-01 0.0 
2.045940518693e-01 -1.172515292683e+02 0.0 
0.0 0.0 -5.282801336237e+01 
-6.064130821355e+01 3.105033015484e-01 0.0 
3.105033015484e-01 -1.173036770814e+02 0.0 
0.0 0.0 -5.298349558849e+01 
-6.130977881498e+01 5.568445715282e-01 0.0 
5.568445715282e-01 -1.174365429102e+02 0.0 
0.0 0.0 -5.322389651755e+01 
-6.192074972227e+01 8.713268283430e-01 0.0 
8.713268283430e-01 -1.176229864001e+02 0.0 
0.0 0.0 -5.346312083672e+01 
-6.280843725359e+01 1.243319741811e+00 0.0 
1.243319741811e+00 -1.180847860524e+02 0.0 
0.0 0.0 -5.386796699180e+01 
-6.378876631023e+01 1.785153817380e+00 0.0 
1.785153817380e+00 -1.188914822080e+02 0.0 
0.0 0.0 -5.440407455547e+01 
-8.122514100285e+01 1.342871502076e+01 0.0 
1.342871502076e+01 -9.677844796759e+01 0.0 
0.0 0.0 -5.376220970770e+01 
-9.613925307358e+01 2.280991213643e+00 0.0 
2.280991213643e+00 -1.045932021995e+02 0.0 
0.0 0.0 -6.058681137044e+01 
-1.001420784196e+02 -2.716281782607e+00 0.0 
-2.716281782607e+00 -1.041761292599e+02 0.0 
0.0 0.0 -6.162963265270e+01 
-8.902102493940e+01 -1.033101234356e+01 0.0 
-1.033101234356e+01 -9.591034324082e+01 0.0 
0.0 0.0 -5.581302801887e+01 
-5.712731147799e+01 -1.942314875767e+01 0.0 
-1.942314875767e+01 -5.783830286400e+01 0.0 
0.0 0.0 -3.476689682712e+01 
-2.839953882662e+01 -1.251614709003e+01 0.0 
-1.251614709003e+01 -1.947128262057e+01 0.0 
0.0 0.0 -1.421229911955e+01 
-1.405698349955e+01 -2.992295812428e+00 0.0 
-2.992295812428e+00 -1.013703758202e+01 0.0 
0.0 0.0 -6.978680932574e+00 
-8.771223968764e+00 -7.705977240583e-01 0.0 
-7.705977240583e-01 -8.502213390614e+00 0.0 
0.0 0.0 -4.353139682102e+00 
-6.161610091226e+00 -4.271752377035e-01 0.0 
-4.271752377035e-01 -8.078252069971e+00 0.0 
0.0 0.0 -2.882321754404e+00 
-4.425262746953e+00 -2.952058651363e-01 0.0 
-2.952058651363e-01 -8.247178715666e+00 0.0 
0.0 0.0 -2.899083750545e+00 
-3.540678094454e+00 -4.578770295600e-02 0.0 
-4.578770295600e-02 -8.305278267669e+00 0.0 
0.0 0.0 -2.907325605073e+00 
-3.161977492864e+00 -1.580398879798e-01 0.0 
-1.580398879798e-01 -8.753530673605e+00 0.0 
0.0 0.0 -2.654311336881e+00 
-2.727381586949e+00 -1.674062824143e-01 0.0 
-1.674062824143e-01 -8.499361697699e+00 0.0 
0.0 0.0 -2.409878001843e+00 
-2.139548140369e+00 -2.222242530717e-01 0.0 
-2.222242530717e-01 -7.776385647348e+00 0.0 
0.0 0.0 -2.083468514696e+00 
-1.644965659307e+00 -2.236774865683e-01 0.0 
-2.236774865683e-01 -7.959461334881e+00 0.0 
0.0 0.0 -1.984936939171e+00 
-1.253703102772e+00 -2.118309773023e-01 0.0 
-2.118309773023e-01 -8.231928352127e+00 0.0 
0.0 0.0 -1.879018662715e+00 
-9.046928603917e-01 -1.342893544879e-01 0.0 
-1.342893544879e-01 -8.278092622780e+00 0.0 
0.0 0.0 -1.779457040059e+00 
-6.515694650514e-01 -1.390922412529e-01 0.0 
-1.390922412529e-01 -7.882942276786e+00 0.0 
0.0 0.0 -1.605648155073e+00 
-6.259982231428e-01 -1.351950270106e-02 0.0 
-1.351950270106e-02 -7.275185303764e+00 0.0 
0.0 0.0 -1.412773135612e+00 
-1.174288991883e+01 -1.964450814741e-01 0.0 
-1.964450814741e-01 -9.509581699711e+00 0.0 
0.0 0.0 -5.975741485563e+00 
-1.147682849921e+01 -3.320897992828e-02 0.0 
-3.320897992828e-02 -9.759298767323e+00 0.0 
0.0 0.0 -5.970838179958e+00 
-1.137727651637e+01 -4.531519396471e-02 0.0 
-4.531519396471e-02 -9.705714158446e+00 0.0 
0.0 0.0 -5.924897202445e+00 
-1.124888157889e+01 -1.002971149760e-01 0.0 
-1.002971149760e-01 -9.707834614896e+00 0.0 
0.0 0.0 -5.887014858136e+00 
-1.104287136101e+01 -1.478553127090e-01 0.0 
-1.478553127090e-01 -9.707196354470e+00 0.0 
0.0 0.0 -5.825020314644e+00 
-1.076751125345e+01 -1.908365260310e-01 0.0 
-1.908365260310e-01 -9.703475665716e+00 0.0 
0.0 0.0 -5.741296075750e+00 
-1.042823883545e+01 -2.321265443885e-01 0.0 
-2.321265443885e-01 -9.697149578734e+00 0.0 
0.0 0.0 -5.637616524255e+00 
-1.002748173247e+01 -2.738792976847e-01 0.0 
-2.738792976847e-01 -9.688918898905e+00 0.0 
0.0 0.0 -5.514920189411e+00 
-9.564786810914e+00 -3.167758754930e-01 0.0 
-3.167758754930e-01 -9.679399540102e+00 0.0 
0.0 0.0 -5.373255905305e+00 
-9.040260540741e+00 -3.606149243373e-01 0.0 
-3.606149243373e-01 -9.668734461088e+00 0.0 
0.0 0.0 -5.212698500549e+00 
-8.455775314993e+00 -4.044675859878e-01 0.0 
-4.044675859878e-01 -9.656881078325e+00 0.0 
0.0 0.0 -5.033796917995e+00 
-7.816393941162e+00 -4.473315182217e-01 0.0 
-4.473315182217e-01 -9.643065807731e+00 0.0 
0.0 0.0 -4.837837924668e+00 
-7.129638887282e+00 -4.884050831174e-01 0.0 
-4.884050831174e-01 -9.629409700993e+00 0.0 
0.0 0.0 -4.627714576483e+00 
-6.405772781480e+00 -5.216326115530e-01 0.0 
-5.216326115530e-01 -9.615955492487e+00 0.0 
0.0 0.0 -4.406518482190e+00 
-5.671921407291e+00 -5.416913164102e-01 0.0 
-5.416913164102e-01 -9.607049214913e+00 0.0 
0.0 0.0 -4.183691186661e+00 
-4.967841019328e+00 -5.339180116746e-01 0.0 
-5.339180116746e-01 -9.594872017752e+00 0.0 
0.0 0.0 -3.968813911124e+00 
-4.369827167856e+00 -4.975931406686e-01 0.0 
-4.975931406686e-01 -9.598469589347e+00 0.0 
0.0 0.0 -3.790489027161e+00 
-3.948320812727e+00 -3.892932694328e-01 0.0 
-3.892932694328e-01 -9.598609745999e+00 0.0 
0.0 0.0 -3.664079167618e+00 
-3.905906561251e+00 -2.003026028931e-01 0.0 
-2.003026028931e-01 -9.673182528528e+00 0.0 
0.0 0.0 -3.673726726934e+00 
-4.402147641072e+00 2.425603516315e-01 0.0 
2.425603516315e-01 -9.781561761804e+00 0.0 
0.0 0.0 -3.855112820863e+00 
-6.016532728789e+00 1.041738008618e+00 0.0 
1.041738008618e+00 -1.023796886922e+01 0.0 
0.0 0.0 -4.476350479404e+00 
-9.280904488646e+00 2.692338175523e+00 0.0 
2.692338175523e+00 -9.979627144752e+00 0.0 
0.0 0.0 -5.378159490019e+00 
-1.464393135311e+01 4.212176940873e+00 0.0 
4.212176940873e+00 -5.318779811028e+00 0.0 
0.0 0.0 -5.545596102259e+00 
-1.679967400979e+01 3.413470639797e+00 0.0 
3.413470639797e+00 -1.854998964817e+01 0.0 
0.0 0.0 -1.020489909739e+01 
-1.620049855221e+01 2.337133817081e+00 0.0 
2.337133817081e+00 -2.204262094846e+01 0.0 
0.0 0.0 -1.107293585020e+01 
-1.342969642433e+01 8.786060524156e-01 0.0 
8.786060524156e-01 -2.042642394652e+01 0.0 
0.0 0.0 -9.756836111254e+00 
-1.239504126303e+01 2.425779137191e-01 0.0 
2.425779137191e-01 -2.001514357555e+01 0.0 
0.0 0.0 -9.323055451572e+00 
-1.196831216348e+01 -1.553694908378e-01 0.0 
-1.553694908378e-01 -1.988091528656e+01 0.0 
0.0 0.0 -9.154768235011e+00 
-1.185314489351e+01 -3.810602056355e-01 0.0 
-3.810602056355e-01 -1.974436761687e+01 0.0 
0.0 0.0 -9.079253753114e+00 
-1.199883730801e+01 -5.142907876210e-01 0.0 
-5.142907876210e-01 -1.968172839136e+01 0.0 
0.0 0.0 -9.104169709813e+00 
-1.227564100047e+01 -5.749457956892e-01 0.0 
-5.749457956892e-01 -1.962286041533e+01 0.0 
0.0 0.0 -9.169550424740e+00 
-1.263558443697e+01 -5.894953993542e-01 0.0 
-5.894953993542e-01 -1.959192108557e+01 0.0 
0.0 0.0 -9.268251656762e+00 
-1.302500584904e+01 -5.746949053291e-01 0.0 
-5.746949053291e-01 -1.957220462135e+01 0.0 
0.0 0.0 -9.379163141117e+00 
-1.342447003158e+01 -5.455464264970e-01 0.0 
-5.455464264970e-01 -1.956302870790e+01 0.0 
0.0 0.0 -9.496249621844e+00 
-1.381656450736e+01 -5.070419689400e-01 0.0 
-5.070419689400e-01 -1.955635334634e+01 0.0 
0.0 0.0 -9.611875356110e+00 
-1.418774488516e+01 -4.616409317974e-01 0.0 
-4.616409317974e-01 -1.955311509252e+01 0.0 
0.0 0.0 -9.722257993306e+00 
-1.452844731733e+01 -4.125706287076e-01 0.0 
-4.125706287076e-01 -1.955281169095e+01 0.0 
0.0 0.0 -9.824377702483e+00 
-1.483378936850e+01 -3.619770710349e-01 0.0 
-3.619770710349e-01 -1.955388908108e+01 0.0 
0.0 0.0 -9.916303534876e+00 
-1.510240614098e+01 -3.108619575950e-01 0.0 
-3.108619575950e-01 -1.955485427584e+01 0.0 
0.0 0.0 -9.997178125044e+00 
-1.533284809876e+01 -2.574854329316e-01 0.0 
-2.574854329316e-01 -1.955442922198e+01 0.0 
0.0 0.0 -1.006618319622e+01 
-1.552267770523e+01 -1.997866797691e-01 0.0 
-1.997866797691e-01 -1.955286349910e+01 0.0 
0.0 0.0 -1.012266236130e+01 
-1.567203517991e+01 -1.357403585531e-01 0.0 
-1.357403585531e-01 -1.955060589330e+01 0.0 
0.0 0.0 -1.016679232196e+01 
-1.578453592037e+01 -6.332617478811e-02 0.0 
-6.332617478811e-02 -1.954750548464e+01 0.0 
0.0 0.0 -1.019961242150e+01 
-1.589294880799e+01 2.555893634913e-02 0.0 
2.555893634913e-02 -1.954746500542e+01 0.0 
0.0 0.0 -1.023212414403e+01 
-1.613093955901e+01 -4.112181749269e-01 0.0 
-4.112181749269e-01 -1.964986833459e+01 0.0 
0.0 0.0 -1.033424236808e+01 
-2.447712850752e+01 -3.894055974571e-01 0.0 
-3.894055974571e-01 -3.917647821840e+01 0.0 
0.0 0.0 -1.869608201778e+01 
-2.442083890060e+01 -2.207398751268e-01 0.0 
-2.207398751268e-01 -3.909757619721e+01 0.0 
0.0 0.0 -1.865552452934e+01 
-2.435741137892e+01 -2.225343606985e-01 0.0 
-2.225343606985e-01 -3.909475204373e+01 0.0 
0.0 0.0 -1.863564902679e+01 
-2.428417358506e+01 -3.056853636089e-01 0.0 
-3.056853636089e-01 -3.910650871607e+01 0.0 
0.0 0.0 -1.861720469034e+01 
-2.420025281624e+01 -3.947708973203e-01 0.0 
-3.947708973203e-01 -3.911770950174e+01 0.0 
0.0 0.0 -1.859538869539e+01 
-2.410230151790e+01 -4.830455140769e-01 0.0 
-4.830455140769e-01 -3.912672958839e+01 0.0 
0.0 0.0 -1.856870933189e+01 
-2.399121330194e+01 -5.667357168063e-01 0.0 
-5.667357168063e-01 -3.913274838922e+01 0.0 
0.0 0.0 -1.853718850735e+01 
-2.387297311359e+01 -6.472057691884e-01 0.0 
-6.472057691884e-01 -3.913482225332e+01 0.0 
0.0 0.0 -1.850233861007e+01 
-2.375179411809e+01 -7.246924173434e-01 0.0 
-7.246924173434e-01 -3.914016791357e+01 0.0 
0.0 0.0 -1.846758860950e+01 
-2.362790911044e+01 -7.932467014264e-01 0.0 
-7.932467014264e-01 -3.915236972295e+01 0.0 
0.0 0.0 -1.843408365002e+01 
-2.351686430348e+01 -8.433699803507e-01 0.0 
-8.433699803507e-01 -3.917285353856e+01 0.0 
0.0 0.0 -1.840691535261e+01 
-2.343742616629e+01 -8.669276896463e-01 0.0 
-8.669276896463e-01 -3.920040385412e+01 0.0 
0.0 0.0 -1.839134900612e+01 
-2.340974271346e+01 -8.572182768524e-01 0.0 
-8.572182768524e-01 -3.923518545928e+01 0.0 
0.0 0.0 -1.839347845182e+01 
-2.346111005005e+01 -8.020361917458e-01 0.0 
-8.020361917458e-01 -3.931036963544e+01 0.0 
0.0 0.0 -1.843144390565e+01 
-2.360881060126e+01 -6.530624931194e-01 0.0 
-6.530624931194e-01 -3.941804642322e+01 0.0 
0.0 0.0 -1.850805710734e+01 
-2.393848753379e+01 -3.854534766948e-01 0.0 
-3.854534766948e-01 -3.960736415557e+01 0.0 
0.0 0.0 -1.866375550681e+01 
-2.447931754331e+01 9.022312967622e-02 0.0 
9.022312967622e-02 -3.979774484240e+01 0.0 
0.0 0.0 -1.888311871571e+01 
-2.544690704764e+01 7.581466808912e-01 0.0 
7.581466808912e-01 -4.021813451472e+01 0.0 
0.0 0.0 -1.929951246871e+01 
-2.757944261600e+01 2.121824485405e+00 0.0 
2.121824485405e+00 -4.188423893754e+01 0.0 
0.0 0.0 -2.043910446606e+01 
-2.765225178552e+01 3.230411674286e+00 0.0 
3.230411674286e+00 -3.859215559141e+01 0.0 
0.0 0.0 -1.947332221308e+01 
-3.745882170249e+01 2.627570803865e+00 0.0 
2.627570803865e+00 -5.832625574043e+01 0.0 
0.0 0.0 -2.833552323288e+01 
-3.769260668276e+01 1.822214748759e+00 0.0 
1.822214748759e+00 -6.157729745709e+01 0.0 
0.0 0.0 -2.938097124195e+01 
-3.589697732049e+01 6.905975487021e-01 0.0 
6.905975487021e-01 -5.999565306647e+01 0.0 
0.0 0.0 -2.836778911609e+01 
-3.499884818251e+01 1.039871226044e-01 0.0 
1.039871226044e-01 -5.948018475374e+01 0.0 
0.0 0.0 -2.794370988088e+01 
-3.444055909687e+01 -2.923939220778e-01 0.0 
-2.923939220778e-01 -5.922051231008e+01 0.0 
0.0 0.0 -2.769832142208e+01 
-3.396587612258e+01 -5.083074006127e-01 0.0 
-5.083074006127e-01 -5.899775334784e+01 0.0 
0.0 0.0 -2.748908884112e+01 
-3.363552097385e+01 -6.409006068682e-01 0.0 
-6.409006068682e-01 -5.890002577924e+01 0.0 
0.0 0.0 -2.736066402593e+01 
-3.339892870307e+01 -7.126425365305e-01 0.0 
-7.126425365305e-01 -5.882088250004e+01 0.0 
0.0 0.0 -2.726594336093e+01 
-3.323429852179e+01 -7.342548920825e-01 0.0 
-7.342548920825e-01 -5.875837452111e+01 0.0 
0.0 0.0 -2.719780191287e+01 
-3.313167113140e+01 -7.138021110499e-01 0.0 
-7.138021110499e-01 -5.871150279296e+01 0.0 
0.0 0.0 -2.715295217731e+01 
-3.306095401987e+01 -6.605569888894e-01 0.0 
-6.605569888894e-01 -5.869071839932e+01 0.0 
0.0 0.0 -2.712550172575e+01 
-3.300472072521e+01 -6.004425556602e-01 0.0 
-6.004425556602e-01 -5.868412621932e+01 0.0 
0.0 0.0 -2.710665408336e+01 
-3.298090672979e+01 -5.348279323162e-01 0.0 
-5.348279323162e-01 -5.867235927011e+01 0.0 
0.0 0.0 -2.709597979997e+01 
-3.296647924718e+01 -4.560891817618e-01 0.0 
-4.560891817618e-01 -5.865686632906e+01 0.0 
0.0 0.0 -2.708700367287e+01 
-3.296059220186e+01 -3.717328930523e-01 0.0 
-3.717328930523e-01 -5.864701269903e+01 0.0 
0.0 0.0 -2.708228147027e+01 
-3.295937369413e+01 -2.888014210028e-01 0.0 
-2.888014210028e-01 -5.863650531903e+01 0.0 
0.0 0.0 -2.707876370395e+01 
-3.296768886005e+01 -2.024193380830e-01 0.0 
-2.024193380830e-01 -5.864117388259e+01 0.0 
0.0 0.0 -2.708265882279e+01 
-3.296165802844e+01 -1.079727733516e-01 0.0 
-1.079727733516e-01 -5.868297856226e+01 0.0 
0.0 0.0 -2.709339097721e+01 
-3.295011974825e+01 -5.012296291206e-01 0.0 
-5.012296291206e-01 -5.872687647183e+01 0.0 
0.0 0.0 -2.710309886602e+01 
-4.142064247534e+01 -3.763366425801e-01 0.0 
-3.763366425801e-01 -7.825215280127e+01 0.0 
0.0 0.0 -3.550183858298e+01 
-4.149307055709e+01 -2.039427021630e-01 0.0 
-2.039427021630e-01 -7.818135087236e+01 0.0 
0.0 0.0 -3.550232642883e+01 
-4.154687255072e+01 -2.328084723463e-01 0.0 
-2.328084723463e-01 -7.816028787699e+01 0.0 
0.0 0.0 -3.551214812831e+01 
-4.160610374828e+01 -3.034342068425e-01 0.0 
-3.034342068425e-01 -7.817737428008e+01 0.0 
0.0 0.0 -3.553504340851e+01 
-4.170597127552e+01 -3.790358591348e-01 0.0 
-3.790358591348e-01 -7.818357104870e+01 0.0 
0.0 0.0 -3.556686269727e+01 
-4.180834351680e+01 -4.523235184083e-01 0.0 
-4.523235184083e-01 -7.820313070381e+01 0.0 
0.0 0.0 -3.560344226618e+01 
-4.194885885096e+01 -5.124019644757e-01 0.0 
-5.124019644757e-01 -7.823983198118e+01 0.0 
0.0 0.0 -3.565660724964e+01 
-4.211404712976e+01 -5.361376549111e-01 0.0 
-5.361376549111e-01 -7.825470661865e+01 0.0 
0.0 0.0 -3.571062612452e+01 
-4.233705209082e+01 -5.732598326331e-01 0.0 
-5.732598326331e-01 -7.826566398603e+01 0.0 
0.0 0.0 -3.578081482306e+01 
-4.258789534812e+01 -5.769220490453e-01 0.0 
-5.769220490453e-01 -7.835259165750e+01 0.0 
0.0 0.0 -3.588214610169e+01 
-4.291368433464e+01 -5.077458647501e-01 0.0 
-5.077458647501e-01 -7.845868758365e+01 0.0 
0.0 0.0 -3.601171157549e+01 
-4.333511696152e+01 -3.832359504270e-01 0.0 
-3.832359504270e-01 -7.857918938254e+01 0.0 
0.0 0.0 -3.617429190322e+01 
-4.383566161912e+01 -1.776051263306e-01 0.0 
-1.776051263306e-01 -7.875881239682e+01 0.0 
0.0 0.0 -3.637834220478e+01 
-4.445041326574e+01 1.338577192050e-01 0.0 
1.338577192050e-01 -7.894642149797e+01 0.0 
0.0 0.0 -3.661905042911e+01 
-4.528291845665e+01 5.339055647817e-01 0.0 
5.339055647817e-01 -7.946397871594e+01 0.0 
0.0 0.0 -3.702406915178e+01 
-4.690682806849e+01 1.472768183255e+00 0.0 
1.472768183255e+00 -8.114116975165e+01 0.0 
0.0 0.0 -3.801439934604e+01 
-4.659299619517e+01 2.121221615480e+00 0.0 
2.121221615480e+00 -7.793822356763e+01 0.0 
0.0 0.0 -3.695936592884e+01 
-5.513823810031e+01 1.823712932118e+00 0.0 
1.823712932118e+00 -9.732462224750e+01 0.0 
0.0 0.0 -4.533885810434e+01 
-5.540856793404e+01 1.389817519359e+00 0.0 
1.389817519359e+00 -1.004051997650e+02 0.0 
0.0 0.0 -4.634413030972e+01 
-5.398636395771e+01 7.112757021093e-01 0.0 
7.112757021093e-01 -9.889970567877e+01 0.0 
0.0 0.0 -4.546582089094e+01 
-5.329430948466e+01 3.439127995432e-01 0.0 
3.439127995432e-01 -9.853418110718e+01 0.0 
0.0 0.0 -4.514854717755e+01 
-5.266438596567e+01 1.142504138525e-01 0.0 
1.142504138525e-01 -9.832339263026e+01 0.0 
0.0 0.0 -4.489633357878e+01 
-5.212745941486e+01 -8.337359893804e-02 0.0 
-8.337359893804e-02 -9.817402503738e+01 0.0 
0.0 0.0 -4.469044533567e+01 
-5.166458461350e+01 -2.072122053205e-01 0.0 
-2.072122053205e-01 -9.797838162151e+01 0.0 
0.0 0.0 -4.449288987050e+01 
-5.128041159857e+01 -2.221157867246e-01 0.0 
-2.221157867246e-01 -9.788073655375e+01 0.0 
0.0 0.0 -4.434834444570e+01 
-5.105185271580e+01 -2.650541824860e-01 0.0 
-2.650541824860e-01 -9.790617319213e+01 0.0 
0.0 0.0 -4.428740777238e+01 
-5.073481544310e+01 -2.536813353358e-01 0.0 
-2.536813353358e-01 -9.782638733054e+01 0.0 
0.0 0.0 -4.416836083209e+01 
-5.051345115505e+01 -2.435316173506e-01 0.0 
-2.435316173506e-01 -9.778067529847e+01 0.0 
0.0 0.0 -4.408823793606e+01 
-5.034122063351e+01 -1.780964605628e-01 0.0 
-1.780964605628e-01 -9.776189160066e+01 0.0 
0.0 0.0 -4.403093367025e+01 
-5.017064884857e+01 -1.650041468274e-01 0.0 
-1.650041468274e-01 -9.776883450889e+01 0.0 
0.0 0.0 -4.398184500724e+01 
-5.004756239046e+01 -9.721088265568e-02 0.0 
-9.721088265568e-02 -9.769856819078e+01 0.0 
0.0 0.0 -4.392383917437e+01 
-4.998236521593e+01 4.395433398381e-02 0.0 
4.395433398381e-02 -9.783066293710e+01 0.0 
0.0 0.0 -4.394390844591e+01 
-4.987325916332e+01 -4.942834926352e-01 0.0 
-4.942834926352e-01 -9.790470026611e+01 0.0 
0.0 0.0 -4.393338782883e+01 
-4.398649961649e+01 3.396456145521e+01 0.0 
3.396456145521e+01 -3.904386405248e+01 0.0 
0.0 0.0 -2.541489936032e+01 
-3.698796303707e+01 2.669860156547e+01 0.0 
2.669860156547e+01 -2.772099242815e+01 0.0 
0.0 0.0 -1.842183154048e+01 
-3.278561851270e+01 2.308598486131e+01 0.0 
2.308598486131e+01 -2.534476194856e+01 0.0 
0.0 0.0 -1.552807487506e+01 
-3.181980541073e+01 2.001442729010e+01 0.0 
2.001442729010e+01 -2.364050683729e+01 0.0 
0.0 0.0 -1.613126289035e+01 
-2.407314367256e+01 9.451718598971e+00 0.0 
9.451718598971e+00 -1.615659717218e+01 0.0 
0.0 0.0 -1.164731362993e+01 
-2.872434889131e+01 6.887101592932e+00 0.0 
6.887101592932e+00 -3.442037063677e+01 0.0 
0.0 0.0 -1.854341585843e+01 
-3.711493509701e+01 5.349300623946e+00 0.0 
5.349300623946e+00 -5.384004700979e+01 0.0 
0.0 0.0 -2.688649463204e+01 
-4.571542024782e+01 4.040067252678e+00 0.0 
4.040067252678e+00 -7.320814347025e+01 0.0 
0.0 0.0 -3.527706911542e+01 
-5.413341169549e+01 3.231655797004e+00 0.0 
3.231655797004e+00 -9.249877718286e+01 0.0 
0.0 0.0 -4.358965666351e+01 
-6.225874984213e+01 2.762360061345e+00 0.0 
2.762360061345e+00 -1.118914812989e+02 0.0 
0.0 0.0 -5.184506934231e+01 
-3.695584595589e+01 2.748158895363e+01 0.0 
2.748158895363e+01 -3.864235407809e+01 0.0 
0.0 0.0 -2.118355247262e+01 
-1.577108529690e+02 1.268115776747e+01 0.0 
1.268115776747e+01 -3.774336688661e+02 0.0 
0.0 0.0 -1.601433565505e+02 
-9.807576735148e+00 -1.564877893369e+00 0.0 
-1.564877893369e+00 -1.726650917469e+01 0.0 
0.0 0.0 -7.818180198384e+00 
-5.712498714880e+01 -1.924277353438e+01 0.0 
-1.924277353438e+01 -8.725294360265e+01 0.0 
0.0 0.0 -4.400796396900e+01 
-1.611883197883e+02 5.682318581222e+00 0.0 
5.682318581222e+00 -3.838585565073e+02 0.0 
0.0 0.0 -1.631140628887e+02 
-3.329191019702e+01 2.043494201992e+01 0.0 
2.043494201992e+01 -3.420853650514e+01 0.0 
0.0 0.0 -1.983741387581e+01 
-8.869451649611e+01 -5.089624193055e-01 0.0 
-5.089624193055e-01 -2.121155820431e+02 0.0 
0.0 0.0 -8.984302956176e+01 
-1.528302638936e+02 1.789480897035e+01 0.0 
1.789480897035e+01 -3.639619646527e+02 0.0 
0.0 0.0 -1.546376685639e+02 
-3.874206210494e+01 1.041886752637e+01 0.0 
1.041886752637e+01 -5.375773383714e+01 0.0 
0.0 0.0 -2.734993878262e+01 
-1.478460069361e+02 2.040561277019e+01 0.0 
2.040561277019e+01 -3.469341999694e+02 0.0 
0.0 0.0 -1.480340620717e+02 
-5.427884449353e+01 5.658041035998e+00 0.0 
5.658041035998e+00 -9.129379969599e+01 0.0 
0.0 0.0 -4.327179325686e+01 
-1.632124491841e+02 2.177241013483e+00 0.0 
2.177241013483e+00 -3.851870294125e+02 0.0 
0.0 0.0 -1.641198435790e+02 
-4.591053500236e+00 -3.494770326322e-01 0.0 
-3.494770326322e-01 -1.614771215438e+01 0.0 
0.0 0.0 -5.648119622618e+00 
-1.421155720814e+02 1.892882656516e+01 0.0 
1.892882656516e+01 -3.288770789738e+02 0.0 
0.0 0.0 -1.408977953166e+02 
-6.991990723965e+01 3.837196979242e+00 0.0 
3.837196979242e+00 -1.295874165616e+02 0.0 
0.0 0.0 -5.945219714036e+01 
-5.492802567023e+01 -5.879852305034e-01 0.0 
-5.879852305034e-01 -1.308631059125e+02 0.0 
0.0 0.0 -5.533733947481e+01 
-1.118429978971e+02 -3.880320831035e-01 0.0 
-3.880320831035e-01 -2.671553929024e+02 0.0 
0.0 0.0 -1.132995172398e+02 
-1.382672075000e+02 1.603511742877e+01 0.0 
1.603511742877e+01 -3.173079500872e+02 0.0 
0.0 0.0 -1.362725472761e+02 
-1.341877989880e+02 1.126637577016e+01 0.0 
1.126637577016e+01 -3.083449824393e+02 0.0 
0.0 0.0 -1.323598344282e+02 
-1.296825193082e+02 3.348762728574e+00 0.0 
3.348762728574e+00 -3.002951462839e+02 0.0 
0.0 0.0 -1.285932996776e+02 
-1.301257879166e+02 5.451973781334e+00 0.0 
5.451973781334e+00 -2.998965429509e+02 0.0 
0.0 0.0 -1.286066992603e+02 
-1.322070952532e+02 8.308215338716e+00 0.0 
8.308215338716e+00 -3.046028861037e+02 0.0 
0.0 0.0 -1.306429944071e+02 
-7.154340592571e+01 2.345974675237e+00 0.0 
2.345974675237e+00 -1.368436369698e+02 0.0 
0.0 0.0 -6.211611286865e+01 
-6.841921301090e+01 7.902914713572e-01 0.0 
7.902914713572e-01 -1.352941123608e+02 0.0 
0.0 0.0 -6.071399761152e+01 
-6.757016192393e+01 4.621608283092e-01 0.0 
4.621608283092e-01 -1.362664408249e+02 0.0 
0.0 0.0 -6.075098082464e+01 
-9.472096323686e+01 3.788542754527e-01 0.0 
3.788542754527e-01 -2.063958375139e+02 0.0 
0.0 0.0 -8.993504022524e+01 
-1.629042866387e+02 9.307059062232e-01 0.0 
9.307059062232e-01 -3.832573269638e+02 0.0 
0.0 0.0 -1.634484840807e+02 
-6.640969019326e+01 1.045411033174e+01 0.0 
1.045411033174e+01 -1.069711663410e+02 0.0 
0.0 0.0 -5.283378559740e+01 
-3.640042444641e+00 -2.598550924001e-01 0.0 
-2.598550924001e-01 -1.719494703983e+01 0.0 
0.0 0.0 -5.508066298675e+00 
-1.391418694780e+02 -1.045847026633e-02 0.0 
-1.045847026633e-02 -3.296189829864e+02 0.0 
0.0 0.0 -1.402282557393e+02 
-6.551704899322e+01 4.813738132304e-02 0.0 
4.813738132304e-02 -1.338379321640e+02 0.0 
0.0 0.0 -5.940649434716e+01 
-2.656366179195e+01 -3.602863822283e-01 0.0 
-3.602863822283e-01 -6.898461772902e+01 0.0 
0.0 0.0 -2.826448385629e+01 
-1.348580052398e+02 1.342783936347e+01 0.0 
1.342783936347e+01 -3.087603764241e+02 0.0 
0.0 0.0 -1.326855144992e+02 
-1.510607350676e+02 1.970408158610e+01 0.0 
1.970408158610e+01 -3.570421937176e+02 0.0 
0.0 0.0 -1.520308786356e+02 
-1.448891260480e+02 2.010692420012e+01 0.0 
2.010692420012e+01 -3.374942657819e+02 0.0 
0.0 0.0 -1.443150175490e+02 
-1.545211947047e+02 1.561918847441e+01 0.0 
1.561918847441e+01 -3.700402807993e+02 0.0 
0.0 0.0 -1.569684426512e+02 
-1.597891361756e+02 9.753388183548e+00 0.0 
9.753388183548e+00 -3.817721631055e+02 0.0 
0.0 0.0 -1.620683897843e+02 
-2.840519727758e+01 -1.169436415737e+01 0.0 
-1.169436415737e+01 -2.436651415304e+01 0.0 
0.0 0.0 -1.546447709472e+01 
-6.952923867617e+01 1.341273843174e+00 0.0 
1.341273843174e+00 -1.351855014885e+02 0.0 
0.0 0.0 -6.101442204941e+01 
-1.604101208046e+02 3.587148636385e+00 0.0 
3.587148636385e+00 -3.813689257604e+02 0.0 
0.0 0.0 -1.621337139695e+02 
-1.096274490805e+02 4.857687874197e-01 0.0 
4.857687874197e-01 -2.454952429785e+02 0.0 
0.0 0.0 -1.061368076177e+02 
-6.557606224832e+00 -5.220277124092e-01 0.0 
-5.220277124092e-01 -1.722114451635e+01 0.0 
0.0 0.0 -6.846350632162e+00 
-7.163507423568e+01 -5.920927622080e-01 0.0 
-5.920927622080e-01 -1.704643894076e+02 0.0 
0.0 0.0 -7.222983909298e+01 
-1.303710129611e+02 2.074186016443e+00 0.0 
2.074186016443e+00 -3.027685788913e+02 0.0 
0.0 0.0 -1.295418775557e+02 
-3.424390564186e+01 1.537455105270e+01 0.0 
1.537455105270e+01 -4.162996651603e+01 0.0 
0.0 0.0 -2.236216164737e+01 
-3.392642302418e+01 2.441290892033e+01 0.0 
2.441290892033e+01 -3.571576423073e+01 0.0 
0.0 0.0 -1.941236139464e+01 
-4.630593169847e+01 7.628586446665e+00 0.0 
7.628586446665e+00 -7.219369508071e+01 0.0 
0.0 0.0 -3.514988803375e+01 
-6.213062966746e+01 4.588970085955e+00 0.0 
4.588970085955e+00 -1.101427134981e+02 0.0 
0.0 0.0 -5.128200294967e+01 
-4.216292833548e+01 3.309072688978e+01 0.0 
3.309072688978e+01 -4.516378153730e+01 0.0 
0.0 0.0 -2.641271037152e+01 
-7.979906812627e+01 1.592928472217e-01 0.0 
1.592928472217e-01 -1.688588399228e+02 0.0 
0.0 0.0 -7.419737241472e+01 
-1.643838968410e+02 4.442486690165e-01 0.0 
4.442486690165e-01 -3.859679361298e+02 0.0 
0.0 0.0 -1.647055498912e+02 
-3.051347073826e+00 -1.949297175168e-01 0.0 
-1.949297175168e-01 -1.639457419260e+01 0.0 
0.0 0.0 -5.028843471612e+00 
-1.239333499721e+02 5.099142477338e-01 0.0 
5.099142477338e-01 -2.844363097136e+02 0.0 
0.0 0.0 -1.221108979057e+02 
-7.367560168168e+01 3.730400292085e+00 0.0 
3.730400292085e+00 -1.385701218471e+02 0.0 
0.0 0.0 -6.327371705864e+01 
-7.791704933788e+01 4.972937856384e+00 0.0 
4.972937856384e+00 -1.478387217543e+02 0.0 
0.0 0.0 -6.732673132766e+01 
-8.110515087238e+01 4.505693653672e+00 0.0 
4.505693653672e+00 -1.565028552763e+02 0.0 
0.0 0.0 -7.088240184459e+01 
-8.598722513610e+01 6.162460199994e+00 0.0 
6.162460199994e+00 -1.676171365546e+02 0.0 
0.0 0.0 -7.568130850722e+01 
-8.953852604474e+01 5.834604661560e+00 0.0 
5.834604661560e+00 -1.771358994171e+02 0.0 
0.0 0.0 -7.960232763854e+01 
-9.380821171906e+01 7.247833423896e+00 0.0 
7.247833423896e+00 -1.873387725854e+02 0.0 
0.0 0.0 -8.394409529133e+01 
-9.044793943699e+01 7.667872799068e+00 0.0 
7.667872799068e+00 -1.780659383332e+02 0.0 
0.0 0.0 -8.015416333105e+01 
-9.810549597447e+01 8.738257861183e+00 0.0 
8.738257861183e+00 -1.979906941287e+02 0.0 
0.0 0.0 -8.842885703095e+01 
-9.466781153764e+01 9.250464672157e+00 0.0 
9.250464672157e+00 -1.888578772771e+02 0.0 
0.0 0.0 -8.465770664443e+01 
-9.743130572538e+01 6.961380089703e+00 0.0 
6.961380089703e+00 -1.970956074121e+02 0.0 
0.0 0.0 -8.795807394125e+01 
-1.022015451804e+02 1.026049109531e+01 0.0 
1.026049109531e+01 -2.089968889304e+02 0.0 
0.0 0.0 -9.295953023326e+01 
-9.873765783114e+01 1.086037198952e+01 0.0 
1.086037198952e+01 -2.001137628668e+02 0.0 
0.0 0.0 -8.925542620939e+01 
-1.061362036642e+02 1.175637896476e+01 0.0 
1.175637896476e+01 -2.203760979190e+02 0.0 
0.0 0.0 -9.755369047494e+01 
-1.026300589258e+02 1.243295628975e+01 0.0 
1.243295628975e+01 -2.118320159843e+02 0.0 
0.0 0.0 -9.393862247302e+01 
-9.520627695904e+01 1.163966469655e+01 0.0 
1.163966469655e+01 -1.915910873565e+02 0.0 
0.0 0.0 -8.563920929467e+01 
-9.900079889512e+01 1.325853694026e+01 0.0 
1.325853694026e+01 -2.036694842258e+02 0.0 
0.0 0.0 -9.040108493627e+01 
-9.156006926744e+01 1.260148714295e+01 0.0 
1.260148714295e+01 -1.833408665108e+02 0.0 
0.0 0.0 -8.207028073346e+01 
-9.523392181259e+01 1.426689928236e+01 0.0 
1.426689928236e+01 -1.958738934223e+02 0.0 
0.0 0.0 -8.693234457048e+01 
-1.026083607742e+02 1.470861145574e+01 0.0 
1.470861145574e+01 -2.161661780960e+02 0.0 
0.0 0.0 -9.523236166105e+01 
-9.869343411017e+01 1.569736481852e+01 0.0 
1.569736481852e+01 -2.088183669337e+02 0.0 
0.0 0.0 -9.185354031316e+01 
-9.125616480461e+01 1.545232111449e+01 0.0 
1.545232111449e+01 -1.884544397893e+02 0.0 
0.0 0.0 -8.351318137818e+01 
-9.453046891697e+01 1.681149727652e+01 0.0 
1.681149727652e+01 -2.018772206649e+02 0.0 
0.0 0.0 -8.852230687455e+01 
-8.709125094007e+01 1.679390898398e+01 0.0 
1.679390898398e+01 -1.815314494756e+02 0.0 
0.0 0.0 -8.018681012470e+01 
-9.016577346479e+01 1.801331568583e+01 0.0 
1.801331568583e+01 -1.954874561666e+02 0.0 
0.0 0.0 -8.529596888942e+01 
-8.270596786383e+01 1.826283679326e+01 0.0 
1.826283679326e+01 -1.751565595068e+02 0.0 
0.0 0.0 -7.695875821120e+01 
-8.556561527851e+01 1.925113360521e+01 0.0 
1.925113360521e+01 -1.896774762261e+02 0.0 
0.0 0.0 -8.217292745139e+01 
-9.310166601532e+01 1.876333486224e+01 0.0 
1.876333486224e+01 -2.096010747121e+02 0.0 
0.0 0.0 -9.041082221823e+01 
-8.828789144368e+01 1.969219660449e+01 0.0 
1.969219660449e+01 -2.041737637332e+02 0.0 
0.0 0.0 -8.733849655307e+01 
-8.072131492026e+01 2.043408613927e+01 0.0 
2.043408613927e+01 -1.845048247942e+02 0.0 
0.0 0.0 -7.916784191433e+01 
-8.326042877033e+01 2.047354146542e+01 0.0 
2.047354146542e+01 -1.993161557903e+02 0.0 
0.0 0.0 -8.437297536818e+01 
-7.567289313382e+01 2.143828670182e+01 0.0 
2.143828670182e+01 -1.800179107815e+02 0.0 
0.0 0.0 -7.630724117461e+01 
-7.805800494796e+01 2.098704946523e+01 0.0 
2.098704946523e+01 -1.949973936513e+02 0.0 
0.0 0.0 -8.151661957978e+01 
-8.586703612611e+01 1.998362288276e+01 0.0 
1.998362288276e+01 -2.137546803600e+02 0.0 
0.0 0.0 -8.948651494582e+01 
-8.059751283101e+01 2.000708296596e+01 0.0 
2.000708296596e+01 -2.094376716225e+02 0.0 
0.0 0.0 -8.661055533605e+01 
-7.272722383353e+01 2.111768768714e+01 0.0 
2.111768768714e+01 -1.911385412405e+02 0.0 
0.0 0.0 -7.875972952221e+01 
-7.526033259523e+01 1.959628989925e+01 0.0 
1.959628989925e+01 -2.054480093200e+02 0.0 
0.0 0.0 -8.381250257458e+01 
-6.736926242667e+01 2.075925891756e+01 0.0 
2.075925891756e+01 -1.876839906956e+02 0.0 
0.0 0.0 -7.611597593669e+01 
-6.995558885998e+01 1.865795687919e+01 0.0 
1.865795687919e+01 -2.017086196268e+02 0.0 
0.0 0.0 -8.109926254603e+01 
-6.205539633912e+01 1.979445967206e+01 0.0 
1.979445967206e+01 -1.845403120366e+02 0.0 
0.0 0.0 -7.357871251270e+01 
-6.473906647308e+01 1.709601804371e+01 0.0 
1.709601804371e+01 -1.980059742305e+02 0.0 
0.0 0.0 -7.842351221107e+01 
-7.292443433747e+01 1.628433500137e+01 0.0 
1.628433500137e+01 -2.146786143892e+02 0.0 
0.0 0.0 -8.588091461800e+01 
-6.790560386187e+01 1.425513760529e+01 0.0 
1.425513760529e+01 -2.102939739134e+02 0.0 
0.0 0.0 -8.305987333259e+01 
-5.975218578423e+01 1.484732624388e+01 0.0 
1.484732624388e+01 -1.942063077519e+02 0.0 
0.0 0.0 -7.578754806084e+01 
-6.316399260006e+01 1.158202494884e+01 0.0 
1.158202494884e+01 -2.055066540152e+02 0.0 
0.0 0.0 -8.020119398458e+01 
-7.155125130878e+01 1.145641168524e+01 0.0 
1.145641168524e+01 -2.214788802366e+02 0.0 
0.0 0.0 -8.750903946362e+01 
-6.708770365414e+01 8.553601219507e+00 0.0 
8.553601219507e+00 -2.156227330735e+02 0.0 
0.0 0.0 -8.441313101830e+01 
-7.563736347531e+01 8.876428743723e+00 0.0 
8.876428743723e+00 -2.316746007089e+02 0.0 
0.0 0.0 -9.179358925527e+01 
-7.144812321919e+01 5.913282150493e+00 0.0 
5.913282150493e+00 -2.247788616931e+02 0.0 
0.0 0.0 -8.846809547369e+01 
-6.313624989529e+01 5.177512256044e+00 0.0 
5.177512256044e+00 -2.090356116759e+02 0.0 
0.0 0.0 -8.125155847135e+01 
-6.776854324188e+01 2.643054097315e+00 0.0 
2.643054097315e+00 -2.170431181080e+02 0.0 
0.0 0.0 -8.504349840497e+01 
-7.613640587463e+01 3.741571847705e+00 0.0 
3.741571847705e+00 -2.331918155522e+02 0.0 
0.0 0.0 -9.239846642804e+01 
-7.264930747657e+01 7.122546852854e-01 0.0 
7.122546852854e-01 -2.244458706731e+02 0.0 
0.0 0.0 -8.872855344490e+01 
-6.465580512896e+01 -7.749167396478e-01 0.0 
-7.749167396478e-01 -2.082712603275e+02 0.0 
0.0 0.0 -8.147811963694e+01 
-6.967882959564e+01 -2.292470580162e+00 0.0 
-2.292470580162e+00 -2.147698799812e+02 0.0 
0.0 0.0 -8.493461287305e+01 
-7.768354798307e+01 -6.490430652506e-01 0.0 
-6.490430652506e-01 -2.315508537761e+02 0.0 
0.0 0.0 -9.237032052775e+01 
-7.475069796743e+01 -3.209989140704e+00 0.0 
-3.209989140704e+00 -2.211850671245e+02 0.0 
0.0 0.0 -8.838072952757e+01 
-6.715942805580e+01 -5.068084005798e+00 0.0 
-5.068084005798e+00 -2.040831034732e+02 0.0 
0.0 0.0 -8.097275945870e+01 
-7.215335359608e+01 -5.458732794065e+00 0.0 
-5.458732794065e+00 -2.099920602393e+02 0.0 
0.0 0.0 -8.424362415060e+01 
-7.983311099900e+01 -3.645600687445e+00 0.0 
-3.645600687445e+00 -2.277599917667e+02 0.0 
0.0 0.0 -9.187793082970e+01 
-7.705632814965e+01 -5.433113254648e+00 0.0 
-5.433113254648e+00 -2.161664075496e+02 0.0 
0.0 0.0 -8.756682070976e+01 
-6.975897952597e+01 -7.240973458047e+00 0.0 
-7.240973458047e+00 -1.979829415506e+02 0.0 
0.0 0.0 -7.992257632296e+01 
-7.440538942728e+01 -6.778940863805e+00 0.0 
-6.778940863805e+00 -2.039911424878e+02 0.0 
0.0 0.0 -8.311895957453e+01 
-8.188291633019e+01 -5.137801507030e+00 0.0 
-5.137801507030e+00 -2.227062689781e+02 0.0 
0.0 0.0 -9.097675559249e+01 
-7.893932577930e+01 -6.136372284385e+00 0.0 
-6.136372284385e+00 -2.104065736465e+02 0.0 
0.0 0.0 -8.640376982775e+01 
-8.661068168506e+01 -4.667764947055e+00 0.0 
-4.667764947055e+00 -2.295161354876e+02 0.0 
0.0 0.0 -9.443804515181e+01 
-7.167478262571e+01 -7.605985992030e+00 0.0 
-7.605985992030e+00 -1.912054782258e+02 0.0 
0.0 0.0 -7.846407825545e+01 
-7.589675584280e+01 -6.680892352244e+00 0.0 
-6.680892352244e+00 -1.977445915918e+02 0.0 
0.0 0.0 -8.169240423039e+01 
-6.874044962420e+01 -7.893526423030e+00 0.0 
-7.893526423030e+00 -1.780421724783e+02 0.0 
0.0 0.0 -7.363478663076e+01 
-7.267336975903e+01 -6.776886511765e+00 0.0 
-6.776886511765e+00 -1.849064032438e+02 0.0 
0.0 0.0 -7.687393190084e+01 
-8.864774961388e+01 1.906871329620e+01 0.0 
1.906871329620e+01 -2.276981898637e+02 0.0 
0.0 0.0 -9.450378184326e+01 
-6.550798238467e+01 -7.654535437680e+00 0.0 
-7.654535437680e+00 -1.648254919223e+02 0.0 
0.0 0.0 -6.870004229208e+01 
-6.197413594437e+01 -8.932643027467e+00 0.0 
-8.932643027467e+00 -1.582573135882e+02 0.0 
0.0 0.0 -6.566943485978e+01 
-6.916783907508e+01 -6.467212682110e+00 0.0 
-6.467212682110e+00 -1.720703408126e+02 0.0 
0.0 0.0 -7.197145396630e+01 
-7.664232049254e+01 -5.724382236459e+00 0.0 
-5.724382236459e+00 -1.922507590453e+02 0.0 
0.0 0.0 -8.026792386136e+01 
-6.185525450290e+01 -6.988782143700e+00 0.0 
-6.988782143700e+00 -1.517107111913e+02 0.0 
0.0 0.0 -6.366978970825e+01 
-6.531137229446e+01 -5.849685413053e+00 0.0 
-5.849685413053e+00 -1.593394443312e+02 0.0 
0.0 0.0 -6.699524498769e+01 
-5.774138670007e+01 -6.053373780902e+00 0.0 
-6.053373780902e+00 -1.388360804747e+02 0.0 
0.0 0.0 -5.857324015242e+01 
-5.961979961105e+01 2.211203700154e+01 0.0 
2.211203700154e+01 -1.695761000599e+02 0.0 
0.0 0.0 -6.835876990129e+01 
-1.060790188558e+02 1.594692348318e+01 0.0 
1.594692348318e+01 -2.290111815954e+02 0.0 
0.0 0.0 -1.001270601354e+02 
-6.107455983260e+01 -5.029516130211e+00 0.0 
-5.029516130211e+00 -1.468150440038e+02 0.0 
0.0 0.0 -6.196688115092e+01 
-5.316192942969e+01 -4.942767431968e+00 0.0 
-4.942767431968e+00 -1.262746215997e+02 0.0 
0.0 0.0 -5.343096530882e+01 
-5.009095581520e+01 -5.900872270945e+00 0.0 
-5.900872270945e+00 -1.181695625823e+02 0.0 
0.0 0.0 -5.007815551925e+01 
-4.508843189208e+01 -4.555086449510e+00 0.0 
-4.555086449510e+00 -1.056975404971e+02 0.0 
0.0 0.0 -4.483579171676e+01 
-9.324055501349e+01 5.739893833673e+00 0.0 
5.739893833673e+00 -1.870662761594e+02 0.0 
0.0 0.0 -8.369204935188e+01 
-1.007322179319e+02 6.673366393009e+00 0.0 
6.673366393009e+00 -2.069507281974e+02 0.0 
0.0 0.0 -9.190488383879e+01 
-9.629571194812e+01 5.460205150020e+00 0.0 
5.460205150020e+00 -1.964037012819e+02 0.0 
0.0 0.0 -8.740982396899e+01 
-1.039724871253e+02 6.488844503391e+00 0.0 
6.488844503391e+00 -2.168504629258e+02 0.0 
0.0 0.0 -9.584688501531e+01 
-9.979146703684e+01 5.345769553324e+00 0.0 
5.345769553324e+00 -2.068348166751e+02 0.0 
0.0 0.0 -9.158788511359e+01 
-4.820570030131e+01 -3.799578179070e+00 0.0 
-3.799578179070e+00 -1.140238578087e+02 0.0 
0.0 0.0 -4.826886743301e+01 
-1.095858081303e+02 1.121555230734e+01 0.0 
1.121555230734e+01 -2.293981555255e+02 0.0 
0.0 0.0 -1.012951890967e+02 
-1.081102875090e+02 7.712801060678e+00 0.0 
7.712801060678e+00 -2.270882951438e+02 0.0 
0.0 0.0 -1.001595747958e+02 
-8.377402081056e+01 1.513557962570e+01 0.0 
1.513557962570e+01 -1.679198771182e+02 0.0 
0.0 0.0 -7.510816937862e+01 
-7.328331946135e+01 2.123684502403e+01 0.0 
2.123684502403e+01 -1.646074504532e+02 0.0 
0.0 0.0 -7.096723097438e+01 
-8.024468049930e+01 1.143607649739e+01 0.0 
1.143607649739e+01 -2.379240401354e+02 0.0 
0.0 0.0 -9.505061619040e+01 
-6.888021829643e+01 -4.809008392958e+00 0.0 
-4.809008392958e+00 -1.672147424957e+02 0.0 
0.0 0.0 -7.042848823765e+01 
-6.456396106835e+01 -4.112115136741e+00 0.0 
-4.112115136741e+00 -1.549891662427e+02 0.0 
0.0 0.0 -6.546593819331e+01 
-7.249800825679e+01 -3.855284313345e+00 0.0 
-3.855284313345e+00 -1.753297374329e+02 0.0 
0.0 0.0 -7.394832370690e+01 
-8.980502324127e+01 -3.553705909913e+00 0.0 
-3.553705909913e+00 -2.414555405877e+02 0.0 
0.0 0.0 -9.897816914870e+01 
-9.465782959220e+01 -3.237672027331e+00 0.0 
-3.237672027331e+00 -2.485484588034e+02 0.0 
0.0 0.0 -1.025618865187e+02 
-9.811840595337e+01 -2.060053841986e+00 0.0 
-2.060053841986e+00 -2.601874692678e+02 0.0 
0.0 0.0 -1.070917625663e+02 
-1.030533133677e+02 -1.877858142964e+00 0.0 
-1.877858142964e+00 -2.675007904489e+02 0.0 
0.0 0.0 -1.107662311450e+02 
-1.067878365804e+02 -6.739601592448e-01 0.0 
-6.739601592448e-01 -2.788940903263e+02 0.0 
0.0 0.0 -1.153045780720e+02 
-1.117738030185e+02 -6.166275270414e-01 0.0 
-6.166275270414e-01 -2.863919511544e+02 0.0 
0.0 0.0 -1.190497262519e+02 
-1.078872800803e+02 -1.612148028784e+00 0.0 
-1.612148028784e+00 -2.749090041420e+02 0.0 
0.0 0.0 -1.144388852667e+02 
-1.166564379384e+02 -4.840201974277e-01 0.0 
-4.840201974277e-01 -2.939433841259e+02 0.0 
0.0 0.0 -1.227799466193e+02 
-1.126194974955e+02 -1.307520622741e+00 0.0 
-1.307520622741e+00 -2.824218715962e+02 0.0 
0.0 0.0 -1.181124107275e+02 
-1.157844152822e+02 5.854732158647e-01 0.0 
5.854732158647e-01 -2.975757822937e+02 0.0 
0.0 0.0 -1.236080592728e+02 
-1.106506660169e+02 7.411490813441e-01 0.0 
7.411490813441e-01 -2.898785449247e+02 0.0 
0.0 0.0 -1.197587632825e+02 
-1.214301141335e+02 -3.191143992663e-01 0.0 
-3.191143992663e-01 -3.015570387982e+02 0.0 
0.0 0.0 -1.264961458795e+02 
-1.172481105434e+02 -1.001452283154e+00 0.0 
-1.001452283154e+00 -2.900345710462e+02 0.0 
0.0 0.0 -1.217848044769e+02 
-1.260960825560e+02 -1.547767829938e-01 0.0 
-1.547767829938e-01 -3.092467143216e+02 0.0 
0.0 0.0 -1.302028390633e+02 
-1.217724239052e+02 -7.131691049434e-01 0.0 
-7.131691049434e-01 -2.977463246666e+02 0.0 
0.0 0.0 -1.254556245715e+02 
-1.130868308827e+02 -1.497662095651e+00 0.0 
-1.497662095651e+00 -2.783442064118e+02 0.0 
0.0 0.0 -1.170293111883e+02 
-1.174552172081e+02 -1.110084483652e+00 0.0 
-1.110084483652e+00 -2.861107298248e+02 0.0 
0.0 0.0 -1.206697841099e+02 
-1.089353482338e+02 -1.795299115912e+00 0.0 
-1.795299115912e+00 -2.666308553545e+02 0.0 
0.0 0.0 -1.122698610765e+02 
-8.447270210722e+01 9.237652130300e+00 0.0 
9.237652130300e+00 -2.482019950809e+02 0.0 
0.0 0.0 -9.940240915644e+01 
-8.919604225576e+01 1.150786597942e+01 0.0 
1.150786597942e+01 -2.547890417220e+02 0.0 
0.0 0.0 -1.027955251933e+02 
-9.356100826546e+01 9.631978339639e+00 0.0 
9.631978339639e+00 -2.651377948438e+02 0.0 
0.0 0.0 -1.072096409328e+02 
-9.838535468243e+01 1.166556125785e+01 0.0 
1.166556125785e+01 -2.720200672241e+02 0.0 
0.0 0.0 -1.107216265720e+02 
-1.029035277416e+02 1.007134190657e+01 0.0 
1.007134190657e+01 -2.824244049409e+02 0.0 
0.0 0.0 -1.151983798048e+02 
-1.078065612471e+02 1.191725599677e+01 0.0 
1.191725599677e+01 -2.895428440065e+02 0.0 
0.0 0.0 -1.188048215761e+02 
-1.124905817142e+02 1.056474332144e+01 0.0 
1.056474332144e+01 -2.999613150627e+02 0.0 
0.0 0.0 -1.233355690331e+02 
-1.076865622996e+02 8.659760657559e+00 0.0 
8.659760657559e+00 -2.922610642565e+02 0.0 
0.0 0.0 -1.195842879668e+02 
-1.098862983860e+02 1.319791205798e+01 0.0 
1.319791205798e+01 -2.320901292258e+02 0.0 
0.0 0.0 -1.021929282835e+02 
-5.512439259387e+01 1.182577073019e+01 0.0 
1.182577073019e+01 -1.900508186830e+02 0.0 
0.0 0.0 -7.315256338305e+01 
-5.200957637679e+01 1.561909632905e+01 0.0 
1.561909632905e+01 -1.785395107361e+02 0.0 
0.0 0.0 -6.876472613387e+01 
-4.753637646530e+01 1.223165652300e+01 0.0 
1.223165652300e+01 -1.751907547183e+02 0.0 
0.0 0.0 -6.641813935509e+01 
-4.485555202136e+01 1.662838166913e+01 0.0 
1.662838166913e+01 -1.633593374874e+02 0.0 
0.0 0.0 -6.206446685264e+01 
-4.056520630772e+01 1.289782506358e+01 0.0 
1.289782506358e+01 -1.609969425949e+02 0.0 
0.0 0.0 -6.006864467080e+01 
-3.853801988878e+01 1.796458173832e+01 0.0 
1.796458173832e+01 -1.486318138294e+02 0.0 
0.0 0.0 -5.575095011546e+01 
-3.460415961728e+01 1.393207094813e+01 0.0 
1.393207094813e+01 -1.474840509703e+02 0.0 
0.0 0.0 -5.417150616640e+01 
-3.690264715315e+01 7.959863044835e+00 0.0 
7.959863044835e+00 -1.578542922292e+02 0.0 
0.0 0.0 -5.800304620671e+01 
-3.176640197393e+01 8.303187103016e+00 0.0 
8.303187103016e+00 -1.456265889676e+02 0.0 
0.0 0.0 -5.292121144497e+01 
-3.447990546604e+01 1.797493486561e+00 0.0 
1.797493486561e+00 -1.530092174621e+02 0.0 
0.0 0.0 -5.572211055928e+01 
-3.004081701037e+01 1.177310949771e+00 0.0 
1.177310949771e+00 -1.417077634458e+02 0.0 
0.0 0.0 -5.168579150023e+01 
-3.336737469338e+01 -5.089366559426e+00 0.0 
-5.089366559426e+00 -1.454737699234e+02 0.0 
0.0 0.0 -5.336795725716e+01 
-9.598307896975e+01 1.906696963553e+01 0.0 
1.906696963553e+01 -2.236763097621e+02 0.0 
0.0 0.0 -9.549781661955e+01 
-1.034014419825e+02 1.338822405236e+01 0.0 
1.338822405236e+01 -2.785237526328e+02 0.0 
0.0 0.0 -1.141775583846e+02 
-1.128731248616e+02 1.350971409297e+01 0.0 
1.350971409297e+01 -2.963363769176e+02 0.0 
0.0 0.0 -1.223628505338e+02 
-1.084948166995e+02 1.480142761590e+01 0.0 
1.480142761590e+01 -2.847038601402e+02 0.0 
0.0 0.0 -1.175596030519e+02 
-4.215825079830e+01 -5.319987144951e+00 0.0 
-5.319987144951e+00 -9.744367656727e+01 0.0 
0.0 0.0 -4.148057820967e+01 
-1.261975226017e+02 -4.619610071930e-01 0.0 
-4.619610071930e-01 -3.055701915975e+02 0.0 
0.0 0.0 -1.291303142598e+02 
-1.199542228240e+02 1.965127183848e+00 0.0 
1.965127183848e+00 -3.083960122261e+02 0.0 
0.0 0.0 -1.281050705150e+02 
-1.146867515103e+02 2.315103292980e+00 0.0 
2.315103292980e+00 -3.003843617479e+02 0.0 
0.0 0.0 -1.241213339774e+02 
-1.174355995868e+02 9.348290404337e+00 0.0 
9.348290404337e+00 -3.099038996269e+02 0.0 
0.0 0.0 -1.278018497641e+02 
-3.977445726301e+01 -3.320044818300e+00 0.0 
-3.320044818300e+00 -9.379536417665e+01 0.0 
0.0 0.0 -3.967094643190e+01 
-3.377114277078e+01 1.974790640544e+01 0.0 
1.974790640544e+01 -1.343692758525e+02 0.0 
0.0 0.0 -5.000758653645e+01 
-3.742261078578e+01 2.251034712445e+01 0.0 
2.251034712445e+01 -1.337714961955e+02 0.0 
0.0 0.0 -5.095823209438e+01 
-1.072084498058e+02 6.318375923609e+00 0.0 
6.318375923609e+00 -2.269085478764e+02 0.0 
0.0 0.0 -9.983509930465e+01 
-1.031185927236e+02 5.231274721528e+00 0.0 
5.231274721528e+00 -2.170052047523e+02 0.0 
0.0 0.0 -9.563713924277e+01 
-1.243411062174e+02 3.469240792224e+00 0.0 
3.469240792224e+00 -3.188427741170e+02 0.0 
0.0 0.0 -1.325551641003e+02 
-4.300527374667e+01 -2.780494119963e+00 0.0 
-2.780494119963e+00 -1.022249035306e+02 0.0 
0.0 0.0 -4.316905318317e+01 
-1.256975758098e+02 5.369263400726e-01 0.0 
5.369263400726e-01 -3.128980903253e+02 0.0 
0.0 0.0 -1.311786998405e+02 
-2.832145226404e+01 9.224685719314e+00 0.0 
9.224685719314e+00 -1.348420535605e+02 0.0 
0.0 0.0 -4.962207517989e+01 
-1.217470470713e+02 -7.803514916061e-01 0.0 
-7.803514916061e-01 -2.940090510552e+02 0.0 
0.0 0.0 -1.243268294379e+02 
-1.304998848619e+02 -2.582376448822e-01 0.0 
-2.582376448822e-01 -3.134946220409e+02 0.0 
0.0 0.0 -1.327983520709e+02 
-1.040800354216e+02 -2.374962108498e+00 0.0 
-2.374962108498e+00 -2.632168747903e+02 0.0 
0.0 0.0 -1.097890730636e+02 
-1.180200249078e+02 1.486480268344e+01 0.0 
1.486480268344e+01 -3.028956019711e+02 0.0 
0.0 0.0 -1.258746880637e+02 
-1.136136730857e+02 1.592141575156e+01 0.0 
1.592141575156e+01 -2.907146615488e+02 0.0 
0.0 0.0 -1.208985003904e+02 
-3.852575434169e+01 -3.288109940684e+00 0.0 
-3.288109940684e+00 -1.582248408983e+02 0.0 
0.0 0.0 -5.860001690203e+01 
-3.781972348652e+01 -9.307687415214e+00 0.0 
-9.307687415214e+00 -1.479530395043e+02 0.0 
0.0 0.0 -5.526273023167e+01 
-3.403472299179e+01 -1.203357800519e+01 0.0 
-1.203357800519e+01 -1.344644964758e+02 0.0 
0.0 0.0 -5.048311014080e+01 
-3.891577801811e+01 -1.449939498723e+01 0.0 
-1.449939498723e+01 -1.350220414495e+02 0.0 
0.0 0.0 -5.160599848681e+01 
-4.283423112834e+01 -1.141002450327e+01 0.0 
-1.141002450327e+01 -1.503246256899e+02 0.0 
0.0 0.0 -5.754079326425e+01 
-4.306496331419e+01 -1.495910435360e+01 0.0 
-1.495910435360e+01 -1.359586634416e+02 0.0 
0.0 0.0 -5.320870827404e+01 
-4.068014271969e+01 -1.800665111944e+01 0.0 
-1.800665111944e+01 -1.186616705348e+02 0.0 
0.0 0.0 -4.681495395511e+01 
-4.353484920882e+01 -1.671638001309e+01 0.0 
-1.671638001309e+01 -1.195632096994e+02 0.0 
0.0 0.0 -4.818441656214e+01 
-4.719541915073e+01 -1.428073026312e+01 0.0 
-1.428073026312e+01 -1.384329084125e+02 0.0 
0.0 0.0 -5.528849826896e+01 
-4.644454201936e+01 -1.487690407997e+01 0.0 
-1.487690407997e+01 -1.225502658037e+02 0.0 
0.0 0.0 -5.024606214565e+01 
-4.360469165046e+01 -1.601816476989e+01 0.0 
-1.601816476989e+01 -1.018798827067e+02 0.0 
0.0 0.0 -4.252171647940e+01 
-4.491043271070e+01 -1.367690657701e+01 0.0 
-1.367690657701e+01 -1.061587906594e+02 0.0 
0.0 0.0 -4.474666956517e+01 
-1.350579024151e+02 1.037799833135e-01 0.0 
1.037799833135e-01 -3.248728629024e+02 0.0 
0.0 0.0 -1.375792295953e+02 
-2.690790985522e+01 7.614593175726e-01 0.0 
7.614593175726e-01 -1.318578336665e+02 0.0 
0.0 0.0 -4.883914814937e+01 
-8.760986092367e+01 1.078889356194e+01 0.0 
1.078889356194e+01 -1.713077488846e+02 0.0 
0.0 0.0 -7.727528294249e+01 
-1.295631943827e+02 3.040002399265e+00 0.0 
3.040002399265e+00 -3.268941142455e+02 0.0 
0.0 0.0 -1.365371925885e+02 
-1.222776060954e+02 1.112038926906e+01 0.0 
1.112038926906e+01 -3.175225484461e+02 0.0 
0.0 0.0 -1.315400463624e+02 
-1.104433870978e+02 6.137671911251e+00 0.0 
6.137671911251e+00 -2.371179749196e+02 0.0 
0.0 0.0 -1.038684086052e+02 
-1.064472729998e+02 5.102342949159e+00 0.0 
5.102342949159e+00 -2.273524453828e+02 0.0 
0.0 0.0 -9.973991551478e+01 
-9.891860507809e+01 4.204413699049e+00 0.0 
4.204413699049e+00 -2.072465487238e+02 0.0 
0.0 0.0 -9.144954614056e+01 
-1.023872469830e+02 4.141742242788e+00 0.0 
4.141742242788e+00 -2.177977675301e+02 0.0 
0.0 0.0 -9.565550435393e+01 
-1.097775470118e+02 4.964637478146e+00 0.0 
4.964637478146e+00 -2.378922524784e+02 0.0 
0.0 0.0 -1.039009398471e+02 
-1.058479063533e+02 4.049664004684e+00 0.0 
4.049664004684e+00 -2.284012311538e+02 0.0 
0.0 0.0 -9.987474125212e+01 
-9.828974100007e+01 3.304073577447e+00 0.0 
3.304073577447e+00 -2.083683458737e+02 0.0 
0.0 0.0 -9.159742606212e+01 
-1.018971782586e+02 3.242041606279e+00 0.0 
3.242041606279e+00 -2.189999522854e+02 0.0 
0.0 0.0 -9.586913916321e+01 
-9.421141782303e+01 2.573507971294e+00 0.0 
2.573507971294e+00 -1.990170951324e+02 0.0 
0.0 0.0 -8.756855388662e+01 
-9.793467025258e+01 2.535660265016e+00 0.0 
2.535660265016e+00 -2.097097044416e+02 0.0 
0.0 0.0 -9.189331240827e+01 
-1.055122412120e+02 3.142321026979e+00 0.0 
3.142321026979e+00 -2.296938817925e+02 0.0 
0.0 0.0 -1.001618369014e+02 
-1.016675701599e+02 2.479318174310e+00 0.0 
2.479318174310e+00 -2.204867390469e+02 0.0 
0.0 0.0 -9.624629276205e+01 
-9.395568290660e+01 1.925846000607e+00 0.0 
1.925846000607e+00 -2.005639807639e+02 0.0 
0.0 0.0 -8.795589910116e+01 
-9.780830180169e+01 1.908661745298e+00 0.0 
1.908661745298e+00 -2.113447330427e+02 0.0 
0.0 0.0 -9.234591045333e+01 
-8.997851454894e+01 1.434267488325e+00 0.0 
1.434267488325e+00 -1.914505647844e+02 0.0 
0.0 0.0 -8.402872380000e+01 
-9.396300952449e+01 1.442405504807e+00 0.0 
1.442405504807e+00 -2.021706339778e+02 0.0 
0.0 0.0 -8.844009305069e+01 
-1.016832681449e+02 1.797829320801e+00 0.0 
1.797829320801e+00 -2.221843196573e+02 0.0 
0.0 0.0 -9.676027634066e+01 
-3.451031592493e+01 -2.329836715258e+00 0.0 
-2.329836715258e+00 -8.273370201422e+01 0.0 
0.0 0.0 -3.477320538175e+01 
-1.126929463600e+02 7.448102792960e+00 0.0 
7.448102792960e+00 -3.016517772878e+02 0.0 
0.0 0.0 -1.239034170943e+02 
-1.226538750601e+02 8.280134927698e+00 0.0 
8.280134927698e+00 -3.195587202008e+02 0.0 
0.0 0.0 -1.322637785783e+02 
-6.828317018873e+01 -3.173300832468e+00 0.0 
-3.173300832468e+00 -1.639174384435e+02 0.0 
0.0 0.0 -6.926018258966e+01 
-7.606517265838e+01 -2.956742598000e+00 0.0 
-2.956742598000e+00 -1.833223821109e+02 0.0 
0.0 0.0 -7.741626643077e+01 
-8.042256077265e+01 -3.552562031180e+00 0.0 
-3.552562031180e+00 -1.954804733041e+02 0.0 
0.0 0.0 -8.237091022303e+01 
-8.436479494071e+01 -2.726563491669e+00 0.0 
-2.726563491669e+00 -2.038009695166e+02 0.0 
0.0 0.0 -8.604972933720e+01 
-9.789900521197e+01 1.338580426182e+00 0.0 
1.338580426182e+00 -2.129141541480e+02 0.0 
0.0 0.0 -9.284394780798e+01 
-1.054884499027e+02 1.613874519090e+00 0.0 
1.613874519090e+00 -2.330524419939e+02 0.0 
0.0 0.0 -1.011622675690e+02 
-3.407754077835e+01 2.465846594002e+01 0.0 
2.465846594002e+01 -1.182693051660e+02 0.0 
0.0 0.0 -4.515508844700e+01 
-3.703143361406e+01 2.597114441168e+01 0.0 
2.597114441168e+01 -1.166373990463e+02 0.0 
0.0 0.0 -4.563272134784e+01 
-1.143610454921e+02 7.257527863023e+00 0.0 
7.257527863023e+00 -2.470862275813e+02 0.0 
0.0 0.0 -1.080341819220e+02 
-1.259549570929e+02 -4.900733812495e-01 0.0 
-4.900733812495e-01 -3.020967313219e+02 0.0 
0.0 0.0 -1.280155065244e+02 
-1.173156863298e+02 -9.458356310410e-01 0.0 
-9.458356310410e-01 -2.824982650271e+02 0.0 
0.0 0.0 -1.195441854071e+02 
-6.827764579833e+01 2.247133665580e+01 0.0 
2.247133665580e+01 -1.605239662591e+02 0.0 
0.0 0.0 -6.824048361723e+01 
-6.594592215219e+01 2.201092111665e+01 0.0 
2.201092111665e+01 -1.443661035466e+02 0.0 
0.0 0.0 -6.269360770964e+01 
-6.106380339874e+01 2.350652907859e+01 0.0 
2.350652907859e+01 -1.406751850931e+02 0.0 
0.0 0.0 -6.012169654755e+01 
-5.857111888666e+01 2.266682659566e+01 0.0 
2.266682659566e+01 -1.233364578048e+02 0.0 
0.0 0.0 -5.417227300745e+01 
-6.326617634275e+01 2.066663457357e+01 0.0 
2.066663457357e+01 -1.279975449524e+02 0.0 
0.0 0.0 -5.697911638854e+01 
-5.392191807510e+01 2.448379072818e+01 0.0 
2.448379072818e+01 -1.199465945168e+02 0.0 
0.0 0.0 -5.176055377757e+01 
-1.053617130699e+02 1.014821094333e+00 0.0 
1.014821094333e+00 -2.819641008741e+02 0.0 
0.0 0.0 -1.157977441832e+02 
-1.091425711357e+02 3.013774780704e+00 0.0 
3.013774780704e+00 -2.405019377587e+02 0.0 
0.0 0.0 -1.044933526683e+02 
-4.726832447241e+01 -6.961250369403e+00 0.0 
-6.961250369403e+00 -1.103154986619e+02 0.0 
0.0 0.0 -4.687514694028e+01 
-3.962836789148e+01 -6.147160661597e+00 0.0 
-6.147160661597e+00 -8.945161869769e+01 0.0 
0.0 0.0 -3.832399597675e+01 
-1.346713171564e+02 -9.973589502853e-02 0.0 
-9.973589502853e-02 -3.216017707176e+02 0.0 
0.0 0.0 -1.364819263622e+02 
-1.030854567433e+02 6.584846294139e+00 0.0 
6.584846294139e+00 -2.840378374094e+02 0.0 
0.0 0.0 -1.157369882458e+02 
-1.007351201991e+02 1.837589115765e+01 0.0 
1.837589115765e+01 -2.293442503264e+02 0.0 
0.0 0.0 -9.862381115765e+01 
-1.038144414774e+02 1.859505127590e+01 0.0 
1.859505127590e+01 -2.431046111577e+02 0.0 
0.0 0.0 -1.036757157905e+02 
-1.084878056867e+02 1.813115434699e+01 0.0 
1.813115434699e+01 -2.490426737461e+02 0.0 
0.0 0.0 -1.068591438298e+02 
-1.117926304164e+02 1.830895103554e+01 0.0 
1.830895103554e+01 -2.625402095845e+02 0.0 
0.0 0.0 -1.118998520003e+02 
-1.163298402275e+02 1.806967222343e+01 0.0 
1.806967222343e+01 -2.686972063128e+02 0.0 
0.0 0.0 -1.151081139621e+02 
-1.198481161631e+02 1.826128032239e+01 0.0 
1.826128032239e+01 -2.818861045425e+02 0.0 
0.0 0.0 -1.201202662117e+02 
-1.152438789434e+02 1.822770867146e+01 0.0 
1.822770867146e+01 -2.758882260574e+02 0.0 
0.0 0.0 -1.169396315003e+02 
-1.231355134702e+02 1.600352120193e+01 0.0 
1.600352120193e+01 -3.092692808235e+02 0.0 
0.0 0.0 -1.293214382881e+02 
-1.235728099089e+02 1.826986516696e+01 0.0 
1.826986516696e+01 -2.949713426978e+02 0.0 
0.0 0.0 -1.251632457820e+02 
-9.010055966034e+01 9.681460945883e-01 0.0 
9.681460945883e-01 -1.927343664148e+02 0.0 
0.0 0.0 -8.445047782253e+01 
-9.918795514355e+01 1.490536373050e+01 0.0 
1.490536373050e+01 -2.666928214763e+02 0.0 
0.0 0.0 -1.093642329860e+02 
-5.124491785006e+01 -1.304931706180e+01 0.0 
-1.304931706180e+01 -1.423485379291e+02 0.0 
0.0 0.0 -5.767803673376e+01 
-3.097484674029e+01 -2.546002244404e+00 0.0 
-2.546002244404e+00 -7.391582543240e+01 0.0 
0.0 0.0 -3.106720165181e+01 
-4.073328391659e+01 -1.304786912739e+01 0.0 
-1.304786912739e+01 -8.375534210179e+01 0.0 
0.0 0.0 -3.607392940930e+01 
-3.750589577211e+01 -1.949385664988e+00 0.0 
-1.949385664988e+00 -9.045168310708e+01 0.0 
0.0 0.0 -3.798727366376e+01 
-4.641235649553e+01 -2.281284595238e+00 0.0 
-2.281284595238e+00 -1.106855014027e+02 0.0 
0.0 0.0 -4.672935736947e+01 
-1.342904086845e+02 4.484023056971e+00 0.0 
4.484023056971e+00 -3.372669890558e+02 0.0 
0.0 0.0 -1.410672193221e+02 
-1.241972398065e+02 1.823661503809e+01 0.0 
1.823661503809e+01 -2.882077223290e+02 0.0 
0.0 0.0 -1.233214886407e+02 
-1.205018580365e+02 1.777786893367e+01 0.0 
1.777786893367e+01 -2.750216907205e+02 0.0 
0.0 0.0 -1.182570646271e+02 
-5.576531776572e+01 2.074682481643e+01 0.0 
2.074682481643e+01 -1.063579605359e+02 0.0 
0.0 0.0 -4.823698349048e+01 
-6.016526277551e+01 1.834686818553e+01 0.0 
1.834686818553e+01 -1.119776830529e+02 0.0 
0.0 0.0 -5.124288374854e+01 
-1.278068491221e+02 1.514712739371e+01 0.0 
1.514712739371e+01 -3.211546739856e+02 0.0 
0.0 0.0 -1.342884569323e+02 
-9.211394186596e+01 4.336097452734e+00 0.0 
4.336097452734e+00 -1.867772412064e+02 0.0 
0.0 0.0 -8.326735492171e+01 
-9.051384915909e+01 2.559499544671e+00 0.0 
2.559499544671e+00 -1.884527947568e+02 0.0 
0.0 0.0 -8.328999317476e+01 
-8.624194838290e+01 1.897874578550e+00 0.0 
1.897874578550e+00 -1.790695821566e+02 0.0 
0.0 0.0 -7.919345916185e+01 
-2.767540317494e+01 -1.413976283181e+00 0.0 
-1.413976283181e+00 -6.888100234844e+01 0.0 
0.0 0.0 -2.856692165701e+01 
-4.056285195667e+01 -1.585517412611e+01 0.0 
-1.585517412611e+01 -7.984256236250e+01 0.0 
0.0 0.0 -3.419054863090e+01 
-1.131432998749e+02 4.777746214552e+00 0.0 
4.777746214552e+00 -2.485213587307e+02 0.0 
0.0 0.0 -1.080993975817e+02 
-4.157808756800e+01 2.420690529860e+01 0.0 
2.420690529860e+01 -1.335119134372e+02 0.0 
0.0 0.0 -5.212700030155e+01 
-4.060308283646e+01 2.649683778439e+01 0.0 
2.649683778439e+01 -1.159134009860e+02 0.0 
0.0 0.0 -4.655494514673e+01 
-2.679024981677e+01 1.139716263210e+01 0.0 
1.139716263210e+01 -1.251168141438e+02 0.0 
0.0 0.0 -4.692210443726e+01 
-2.687426099652e+01 8.391760658530e-01 0.0 
8.391760658530e-01 -1.246788720177e+02 0.0 
0.0 0.0 -4.733074031931e+01 
-1.018255472092e+02 1.083424151768e+00 0.0 
1.083424151768e+00 -2.234984498141e+02 0.0 
0.0 0.0 -9.719719910699e+01 
-1.093247799516e+02 1.357221520266e+00 0.0 
1.357221520266e+00 -2.435150700877e+02 0.0 
0.0 0.0 -1.054519550118e+02 
-8.856622675894e+01 -3.052099352804e+00 0.0 
-3.052099352804e+00 -2.156047737417e+02 0.0 
0.0 0.0 -9.085130015020e+01 
-9.248965707070e+01 -2.272544547036e+00 0.0 
-2.272544547036e+00 -2.237937271968e+02 0.0 
0.0 0.0 -9.448501528025e+01 
-1.289860460453e+02 5.063067060893e+00 0.0 
5.063067060893e+00 -3.289239328446e+02 0.0 
0.0 0.0 -1.369729936670e+02 
-4.165758264835e+01 -1.110290079648e+01 0.0 
-1.110290079648e+01 -9.038295549773e+01 0.0 
0.0 0.0 -3.902446936336e+01 
-1.130054219430e+02 1.943058246043e+00 0.0 
1.943058246043e+00 -2.531431856714e+02 0.0 
0.0 0.0 -1.094445822843e+02 
-1.081662738269e+02 5.455104274412e+00 0.0 
5.455104274412e+00 -2.928934980547e+02 0.0 
0.0 0.0 -1.199179315645e+02 
-9.877015320420e+01 4.397708054248e+00 0.0 
4.397708054248e+00 -2.752590087265e+02 0.0 
0.0 0.0 -1.118087485792e+02 
-7.999801997093e+01 -2.310904773505e+00 0.0 
-2.310904773505e+00 -1.916696483302e+02 0.0 
0.0 0.0 -8.110030049033e+01 
-3.519166271561e+01 2.777450023590e+01 0.0 
2.777450023590e+01 -9.942446182159e+01 0.0 
0.0 0.0 -3.945080061464e+01 
-3.374446756969e+01 2.714388397017e+01 0.0 
2.714388397017e+01 -1.024054455761e+02 0.0 
0.0 0.0 -4.018020803003e+01 
-5.246716616553e+01 -1.184671214283e+01 0.0 
-1.184671214283e+01 -1.569194320423e+02 0.0 
0.0 0.0 -6.241597946236e+01 
-4.707484199054e+01 -1.169420882945e+01 0.0 
-1.169420882945e+01 -1.119784941292e+02 0.0 
0.0 0.0 -4.731600083591e+01 
-4.106703700329e+01 -1.517968591445e+00 0.0 
-1.517968591445e+00 -9.900073126512e+01 0.0 
0.0 0.0 -4.162033048052e+01 
-1.391996233995e+02 5.994145669575e+00 0.0 
5.994145669575e+00 -3.472184930815e+02 0.0 
0.0 0.0 -1.455254349443e+02 
-1.168861579194e+02 5.715236611762e+00 0.0 
5.715236611762e+00 -2.579712835051e+02 0.0 
0.0 0.0 -1.120572324274e+02 
-1.189746228013e+02 1.798555703515e+01 0.0 
1.798555703515e+01 -2.890028208073e+02 0.0 
0.0 0.0 -1.219932330826e+02 
-1.103487527826e+02 1.810815930336e+01 0.0 
1.810815930336e+01 -2.700278357749e+02 0.0 
0.0 0.0 -1.137129765672e+02 
-1.278180882351e+02 1.809194115940e+01 0.0 
1.809194115940e+01 -3.080192240854e+02 0.0 
0.0 0.0 -1.303511936961e+02 
-3.567139195764e+01 -9.316828441053e+00 0.0 
-9.316828441053e+00 -6.854483256151e+01 0.0 
0.0 0.0 -3.026584395011e+01 
-1.395962339910e+02 3.975287697197e+00 0.0 
3.975287697197e+00 -3.456397808872e+02 0.0 
0.0 0.0 -1.451708044635e+02 
-1.300375601926e+02 -2.608038892153e-01 0.0 
-2.608038892153e-01 -3.103712945254e+02 0.0 
0.0 0.0 -1.317226564154e+02 
-1.277908047692e+02 1.808695904306e+01 0.0 
1.808695904306e+01 -2.938872341947e+02 0.0 
0.0 0.0 -1.261034116892e+02 
-1.243891103332e+02 1.747477669684e+01 0.0 
1.747477669684e+01 -2.817196918040e+02 0.0 
0.0 0.0 -1.214326406412e+02 
-4.592364046886e+01 2.504524259221e+01 0.0 
2.504524259221e+01 -1.337384952805e+02 0.0 
0.0 0.0 -5.349864072481e+01 
-4.465590078208e+01 2.640502497156e+01 0.0 
2.640502497156e+01 -1.161878333216e+02 0.0 
0.0 0.0 -4.785312023111e+01 
-3.968408865483e+01 2.735816480440e+01 0.0 
2.735816480440e+01 -9.708788174776e+01 0.0 
0.0 0.0 -4.063159112078e+01 
-4.299516624101e+01 2.649862461750e+01 0.0 
2.649862461750e+01 -9.754652671913e+01 0.0 
0.0 0.0 -4.176250788804e+01 
-8.688130518964e+01 8.204842823309e+00 0.0 
8.204842823309e+00 -1.688087525256e+02 0.0 
0.0 0.0 -7.630701731458e+01 
-5.066468596172e+01 2.517621537164e+01 0.0 
2.517621537164e+01 -1.349064800965e+02 0.0 
0.0 0.0 -5.527134981746e+01 
-8.391587796018e+01 1.185595796184e+01 0.0 
1.185595796184e+01 -1.628651279287e+02 0.0 
0.0 0.0 -7.363430176666e+01 
-7.976136156243e+01 9.835786935443e+00 0.0 
9.835786935443e+00 -1.509598354470e+02 0.0 
0.0 0.0 -6.881635910283e+01 
-7.608575751839e+01 1.094622071159e+01 0.0 
1.094622071159e+01 -1.424246215072e+02 0.0 
0.0 0.0 -6.515311370768e+01 
-6.775263814369e+01 1.855706986714e+01 0.0 
1.855706986714e+01 -1.334287099321e+02 0.0 
0.0 0.0 -5.995440442274e+01 
-6.436520151887e+01 1.604783749909e+01 0.0 
1.604783749909e+01 -1.186277991051e+02 0.0 
0.0 0.0 -5.449790018719e+01 
-4.950658045949e+01 1.933405423652e+01 0.0 
1.933405423652e+01 -1.653056831626e+02 0.0 
0.0 0.0 -6.404367908663e+01 
-8.513447516423e+01 1.354967426751e+01 0.0 
1.354967426751e+01 -2.436615503250e+02 0.0 
0.0 0.0 -9.823880764676e+01 
-8.456238037623e+01 -3.874668648218e+00 0.0 
-3.874668648218e+00 -2.076525258201e+02 0.0 
0.0 0.0 -8.726447185889e+01 
-1.046544384396e+02 -2.320827316117e+00 0.0 
-2.320827316117e+00 -2.589262776306e+02 0.0 
0.0 0.0 -1.086742148210e+02 
-9.307863948392e+01 -2.109944242625e+00 0.0 
-2.109944242625e+00 -2.529237866276e+02 0.0 
0.0 0.0 -1.034007278335e+02 
-1.127942169314e+02 3.733285657856e+00 0.0 
3.733285657856e+00 -2.496467045357e+02 0.0 
0.0 0.0 -1.083322764401e+02 
-1.163624299139e+02 3.528195471229e+00 0.0 
3.528195471229e+00 -2.605930130174e+02 0.0 
0.0 0.0 -1.126866328794e+02 
-8.602825756746e+01 1.385904113494e+00 0.0 
1.385904113494e+00 -1.806981257147e+02 0.0 
0.0 0.0 -7.961791498466e+01 
-8.205799759646e+01 9.889885072114e-01 0.0 
9.889885072114e-01 -1.715449280604e+02 0.0 
0.0 0.0 -7.568087769705e+01 
-3.377975360436e+01 -4.306138186450e+00 0.0 
-4.306138186450e+00 -7.677312002930e+01 0.0 
0.0 0.0 -3.276586209010e+01 
-3.131992980727e+01 -4.806083862518e+00 0.0 
-4.806083862518e+00 -6.862461256688e+01 0.0 
0.0 0.0 -2.958126774634e+01 
-9.125296960678e+01 -4.100852210550e+00 0.0 
-4.100852210550e+00 -2.366002835728e+02 0.0 
0.0 0.0 -9.795597595389e+01 
-1.346527430621e+02 2.678946669155e+00 0.0 
2.678946669155e+00 -3.347938069627e+02 0.0 
0.0 0.0 -1.404339650074e+02 
-1.173477636963e+02 6.969222861896e+00 0.0 
6.969222861896e+00 -2.570815404698e+02 0.0 
0.0 0.0 -1.119287912498e+02 
-1.210924255474e+02 8.155117535537e+00 0.0 
8.155117535537e+00 -2.671455842122e+02 0.0 
0.0 0.0 -1.160714029279e+02 
-1.181780941884e+02 8.467562902313e+00 0.0 
8.467562902313e+00 -2.571469001896e+02 0.0 
0.0 0.0 -1.121974983134e+02 
-1.337487171477e+02 6.707509152421e+00 0.0 
6.707509152421e+00 -3.383768744593e+02 0.0 
0.0 0.0 -1.412376774821e+02 
-5.102424434382e+01 8.039478985237e+00 0.0 
8.039478985237e+00 -1.852466953566e+02 0.0 
0.0 0.0 -7.048128191011e+01 
-8.901237104668e+01 7.312141196736e+00 0.0 
7.312141196736e+00 -2.577565159875e+02 0.0 
0.0 0.0 -1.036306661102e+02 
-2.799845488979e+01 -9.652649075574e+00 0.0 
-9.652649075574e+00 -1.252518587560e+02 0.0 
0.0 0.0 -4.722914481679e+01 
-9.384504867347e+01 1.915086380255e+01 0.0 
1.915086380255e+01 -2.324589536981e+02 0.0 
0.0 0.0 -9.749120071146e+01 
-2.475316611017e+01 -3.013692034155e+00 0.0 
-3.013692034155e+00 -5.650605717632e+01 0.0 
0.0 0.0 -2.397776698595e+01 
-1.098745370779e+02 1.515419452132e+01 0.0 
1.515419452132e+01 -2.362990528941e+02 0.0 
0.0 0.0 -1.034520769916e+02 
-1.388443124736e+02 -1.337893338902e-03 0.0 
-1.337893338902e-03 -3.299203323802e+02 0.0 
0.0 0.0 -1.402293934561e+02 
-1.434924287498e+02 2.059318929248e-01 0.0 
2.059318929248e-01 -3.409009033789e+02 0.0 
0.0 0.0 -1.449179996386e+02 
-1.327350102172e+02 1.635961622366e+01 0.0 
1.635961622366e+01 -3.275931672388e+02 0.0 
0.0 0.0 -1.376984532368e+02 
-7.446090053478e+01 5.338715919007e+00 0.0 
5.338715919007e+00 -1.389236679003e+02 0.0 
0.0 0.0 -6.361537053053e+01 
-9.688474958288e+01 1.833151599562e+01 0.0 
1.833151599562e+01 -2.459920315421e+02 0.0 
0.0 0.0 -1.024630343375e+02 
-9.170858928194e+01 1.782520530251e+01 0.0 
1.782520530251e+01 -2.410762892241e+02 0.0 
0.0 0.0 -9.943546355182e+01 
-7.169171364675e+01 8.699789132570e+00 0.0 
8.699789132570e+00 -1.308105593795e+02 0.0 
0.0 0.0 -6.035068190787e+01 
-6.798110968898e+01 9.816033276744e+00 0.0 
9.816033276744e+00 -1.220578389984e+02 0.0 
0.0 0.0 -5.661168460620e+01 
-7.230400933396e+01 1.229593088078e+01 0.0 
1.229593088078e+01 -1.341466833350e+02 0.0 
0.0 0.0 -6.153520780068e+01 
-6.424434882788e+01 1.125017628345e+01 0.0 
1.125017628345e+01 -1.135659793884e+02 0.0 
0.0 0.0 -5.294309846488e+01 
-5.684774034908e+01 -1.108365065939e+01 0.0 
-1.108365065939e+01 -1.614117978190e+02 0.0 
0.0 0.0 -6.507786145041e+01 
-5.499375337774e+01 -1.163165309023e+01 0.0 
-1.163165309023e+01 -1.471644093220e+02 0.0 
0.0 0.0 -6.024744880993e+01 
-1.327009849461e+02 1.876109238239e+01 0.0 
1.876109238239e+01 -3.090062703147e+02 0.0 
0.0 0.0 -1.321121765782e+02 
-1.319705643233e+02 1.854333461804e+01 0.0 
1.854333461804e+01 -3.138037331522e+02 0.0 
0.0 0.0 -1.333322892427e+02 
-1.315434550733e+02 1.814187928899e+01 0.0 
1.814187928899e+01 -3.009785686813e+02 0.0 
0.0 0.0 -1.293566071264e+02 
-1.283470321885e+02 1.725814072209e+01 0.0 
1.725814072209e+01 -2.892937897502e+02 0.0 
0.0 0.0 -1.248922465816e+02 
-1.378326000323e+02 1.566249027126e+01 0.0 
1.566249027126e+01 -3.393333958878e+02 0.0 
0.0 0.0 -1.427497987760e+02 
-1.326199151707e+02 1.426312109915e+01 0.0 
1.426312109915e+01 -3.323107110193e+02 0.0 
0.0 0.0 -1.390791878570e+02 
-4.960381572587e+01 -1.691634663102e+00 0.0 
-1.691634663102e+00 -1.186305415036e+02 0.0 
0.0 0.0 -5.007030716885e+01 
-5.644457999978e+01 1.513760844020e+01 0.0 
1.513760844020e+01 -9.713646364916e+01 0.0 
0.0 0.0 -4.567431309468e+01 
-1.202559567512e+02 5.459217516432e+00 0.0 
5.459217516432e+00 -2.685896075519e+02 0.0 
0.0 0.0 -1.162536692909e+02 
-7.531310403576e+01 7.789848716991e+00 0.0 
7.789848716991e+00 -1.396788716308e+02 0.0 
0.0 0.0 -6.409759269996e+01 
-1.444975458519e+02 3.490126435556e+00 0.0 
3.490126435556e+00 -3.531432349146e+02 0.0 
0.0 0.0 -1.488922342299e+02 
-1.396735018628e+02 2.386355380017e+00 0.0 
2.386355380017e+00 -3.426872419273e+02 0.0 
0.0 0.0 -1.443082231370e+02 
-3.249601020085e+01 -1.040899223875e+01 0.0 
-1.040899223875e+01 -1.200173940478e+02 0.0 
0.0 0.0 -4.760866177766e+01 
-3.285680715705e+01 -2.062122158557e+01 0.0 
-2.062122158557e+01 -1.102912603918e+02 0.0 
0.0 0.0 -4.372448510777e+01 
-1.167865317959e+02 1.645889532227e+00 0.0 
1.645889532227e+00 -2.639074681068e+02 0.0 
0.0 0.0 -1.138081999708e+02 
-3.834037303319e+01 2.667528903283e+01 0.0 
2.667528903283e+01 -7.722273126582e+01 0.0 
0.0 0.0 -3.426893128970e+01 
-4.060185229740e+01 2.519468929501e+01 0.0 
2.519468929501e+01 -7.744309967401e+01 0.0 
0.0 0.0 -3.501348559142e+01 
-3.660272094447e+01 2.774061008936e+01 0.0 
2.774061008936e+01 -7.752017415288e+01 0.0 
0.0 0.0 -3.353609431647e+01 
-1.569712895182e+02 8.256886401880e-02 0.0 
8.256886401880e-02 -3.692050866416e+02 0.0 
0.0 0.0 -1.574529128479e+02 
-6.514735619165e+01 6.040138738060e-02 0.0 
6.040138738060e-02 -1.333420966326e+02 0.0 
0.0 0.0 -5.914683584728e+01 
-1.477625824362e+02 1.983822454564e-01 0.0 
1.983822454564e-01 -3.493720340040e+02 0.0 
0.0 0.0 -1.487403849321e+02 
-7.208690508674e+01 1.649640834391e+01 0.0 
1.649640834391e+01 -1.399555506368e+02 0.0 
0.0 0.0 -6.321273671706e+01 
-1.204951662105e+02 2.228955048923e+00 0.0 
2.228955048923e+00 -2.736408423328e+02 0.0 
0.0 0.0 -1.178408025630e+02 
-1.003098962937e+02 1.726083141014e+01 0.0 
1.726083141014e+01 -2.591775266083e+02 0.0 
0.0 0.0 -1.074462268706e+02 
-6.296368625582e+01 2.336588141919e+01 0.0 
2.336588141919e+01 -1.568833202674e+02 0.0 
0.0 0.0 -6.555410195697e+01 
-1.235774303438e+02 5.745677172909e+00 0.0 
5.745677172909e+00 -3.202520047787e+02 0.0 
0.0 0.0 -1.327488305368e+02 
-1.127722932058e+02 1.147354072479e+00 0.0 
1.147354072479e+00 -2.531431117321e+02 0.0 
0.0 0.0 -1.093746214814e+02 
-1.206032243939e+02 1.244575123599e+00 0.0 
1.244575123599e+00 -2.751452847112e+02 0.0 
0.0 0.0 -1.183245527315e+02 
-8.249031645123e+01 1.804032360344e+00 0.0 
1.804032360344e+00 -1.685359867440e+02 0.0 
0.0 0.0 -7.490789095857e+01 
-7.782594215699e+01 1.347940210066e+00 0.0 
1.347940210066e+00 -1.586654861951e+02 0.0 
0.0 0.0 -7.054742850564e+01 
-8.655830831080e+01 2.490548706173e+00 0.0 
2.490548706173e+00 -1.773840501486e+02 0.0 
0.0 0.0 -7.878270753781e+01 
-2.858033997112e+01 1.811754409013e+01 0.0 
1.811754409013e+01 -1.231629869067e+02 0.0 
0.0 0.0 -4.606343468019e+01 
-2.970870191183e+01 2.306492045054e+01 0.0 
2.306492045054e+01 -1.094213716975e+02 0.0 
0.0 0.0 -4.274193330891e+01 
-1.127243023182e+02 2.802684114665e+00 0.0 
2.802684114665e+00 -2.512659804039e+02 0.0 
0.0 0.0 -1.087970848166e+02 
-5.990170141968e+01 -3.274429686029e+00 0.0 
-3.274429686029e+00 -1.430034058615e+02 0.0 
0.0 0.0 -6.047153218436e+01 
-6.414685495493e+01 -2.560638128258e+00 0.0 
-2.560638128258e+00 -1.535090092285e+02 0.0 
0.0 0.0 -6.489675925502e+01 
-4.309281308038e+01 -9.508518880140e+00 0.0 
-9.508518880140e+00 -9.668306175066e+01 0.0 
0.0 0.0 -4.152468384739e+01 
-4.933798152559e+01 -9.943187168078e+00 0.0 
-9.943187168078e+00 -1.177949972280e+02 0.0 
0.0 0.0 -4.973989362609e+01 
-9.258896125196e+01 -3.208793916225e+00 0.0 
-3.208793916225e+00 -2.275547966084e+02 0.0 
0.0 0.0 -9.564312735809e+01 
-8.846574862545e+01 -3.992550351080e+00 0.0 
-3.992550351080e+00 -2.198161448702e+02 0.0 
0.0 0.0 -9.208456804869e+01 
-1.134447374390e+02 1.624767061402e+01 0.0 
1.624767061402e+01 -2.491035848926e+02 0.0 
0.0 0.0 -1.083644966995e+02 
-1.171231752858e+02 1.565155250196e+01 0.0 
1.565155250196e+01 -2.564252041044e+02 0.0 
0.0 0.0 -1.116645138171e+02 
-1.052334756208e+02 1.764379159076e+01 0.0 
1.764379159076e+01 -2.354779538037e+02 0.0 
0.0 0.0 -1.018134288274e+02 
-1.039391618329e+02 3.433908177739e+00 0.0 
3.433908177739e+00 -2.836283092422e+02 0.0 
0.0 0.0 -1.158702413225e+02 
-9.479809231080e+01 2.184856886869e+00 0.0 
2.184856886869e+00 -2.659228653648e+02 0.0 
0.0 0.0 -1.078162873027e+02 
-8.973620618708e+01 3.281852196359e+00 0.0 
3.281852196359e+00 -2.579859776274e+02 0.0 
0.0 0.0 -1.039166551443e+02 
-1.195965099154e+02 4.286207336296e+00 0.0 
4.286207336296e+00 -2.692893387016e+02 0.0 
0.0 0.0 -1.162657545851e+02 
-1.239634697195e+02 3.968127962186e+00 0.0 
3.968127962186e+00 -2.825110960456e+02 0.0 
0.0 0.0 -1.215423697295e+02 
-5.843743112291e+01 -9.531254384733e+00 0.0 
-9.531254384733e+00 -1.748786034855e+02 0.0 
0.0 0.0 -6.959481038252e+01 
-5.362078980866e+01 -9.460957272730e+00 0.0 
-9.460957272730e+00 -1.703322126704e+02 0.0 
0.0 0.0 -6.678590074371e+01 
-6.094592619937e+01 -1.008936336144e+01 0.0 
-1.008936336144e+01 -1.664064469122e+02 0.0 
0.0 0.0 -6.780571193346e+01 
-1.237860718078e+02 6.414630436322e+00 0.0 
6.414630436322e+00 -2.781302647160e+02 0.0 
0.0 0.0 -1.201749009571e+02 
-1.522814719514e+02 3.616429519347e-01 0.0 
3.616429519347e-01 -3.599698093416e+02 0.0 
0.0 0.0 -1.532753843879e+02 
-1.480762051617e+02 5.490930373448e-01 0.0 
5.490930373448e-01 -3.517723413750e+02 0.0 
0.0 0.0 -1.495545639610e+02 
-2.202728255922e+01 -3.054802674549e+00 0.0 
-3.054802674549e+00 -4.843281798696e+01 0.0 
0.0 0.0 -2.073593519795e+01 
-2.908367684211e+01 -5.153789186692e+00 0.0 
-5.153789186692e+00 -6.041877363004e+01 0.0 
0.0 0.0 -2.635519815231e+01 
-3.543252963450e+01 2.910170599860e+01 0.0 
2.910170599860e+01 -8.109724092727e+01 0.0 
0.0 0.0 -3.356887553466e+01 
-3.446523018577e+01 2.980230729057e+01 0.0 
2.980230729057e+01 -8.533301118006e+01 0.0 
0.0 0.0 -3.543420098248e+01 
-1.245082611056e+02 9.361077451538e+00 0.0 
9.361077451538e+00 -2.768877003592e+02 0.0 
0.0 0.0 -1.200187884395e+02 
-1.220162582851e+02 9.762465178280e+00 0.0 
9.762465178280e+00 -2.677073106588e+02 0.0 
0.0 0.0 -1.165170706832e+02 
-1.280269872649e+02 9.047635529729e+00 0.0 
9.047635529729e+00 -2.886670172931e+02 0.0 
0.0 0.0 -1.246082013674e+02 
-4.383321368942e+01 -1.076810042832e+00 0.0 
-1.076810042832e+00 -1.057236366863e+02 0.0 
0.0 0.0 -4.446705511272e+01 
-1.141285882754e+02 1.749630593598e+01 0.0 
1.749630593598e+01 -2.831714162666e+02 0.0 
0.0 0.0 -1.187900013626e+02 
-1.438630741757e+02 7.607969425548e+00 0.0 
7.607969425548e+00 -3.557559856949e+02 0.0 
0.0 0.0 -1.494857179612e+02 
-1.381928333392e+02 8.392171229366e+00 0.0 
8.392171229366e+00 -3.467126904070e+02 0.0 
0.0 0.0 -1.450716571239e+02 
-1.506456828603e+02 6.931700130458e+00 0.0 
6.931700130458e+00 -3.669043155261e+02 0.0 
0.0 0.0 -1.548649995159e+02 
-1.279450703323e+02 1.701499312233e+01 0.0 
1.701499312233e+01 -3.152686675629e+02 0.0 
0.0 0.0 -1.325641213686e+02 
-1.371738043940e+02 1.739238006729e+01 0.0 
1.739238006729e+01 -3.333921307229e+02 0.0 
0.0 0.0 -1.407697805351e+02 
-1.366588829806e+02 1.845286039661e+01 0.0 
1.845286039661e+01 -3.266206843247e+02 0.0 
0.0 0.0 -1.385838701916e+02 
-3.842047872461e+01 1.106562754239e+00 0.0 
1.106562754239e+00 -1.218881391690e+02 0.0 
0.0 0.0 -4.992984497786e+01 
-1.180067554460e+02 8.900179481137e-01 0.0 
8.900179481137e-01 -2.680685528574e+02 0.0 
0.0 0.0 -1.154225924910e+02 
-7.753025974444e+01 9.152677553445e-01 0.0 
9.152677553445e-01 -1.599211688751e+02 0.0 
0.0 0.0 -7.083542858585e+01 
-4.861564679044e+01 -6.965189396813e+00 0.0 
-6.965189396813e+00 -1.170597724025e+02 0.0 
0.0 0.0 -5.114492429176e+01 
-7.354804085907e+01 5.868121119515e-01 0.0 
5.868121119515e-01 -1.509778044163e+02 0.0 
0.0 0.0 -6.695775358260e+01 
-7.792452734253e+01 6.675910984304e-01 0.0 
6.675910984304e-01 -1.623027287394e+02 0.0 
0.0 0.0 -7.166817682458e+01 
-6.899370392760e+01 3.476477399876e-01 0.0 
3.476477399876e-01 -1.408584268365e+02 0.0 
0.0 0.0 -6.255563922924e+01 
-3.495080587907e+01 -9.259999496418e-01 0.0 
-9.259999496418e-01 -8.610334978393e+01 0.0 
0.0 0.0 -3.591624669890e+01 
-7.710969081325e+01 1.698033640270e+00 0.0 
1.698033640270e+00 -1.544850695896e+02 0.0 
0.0 0.0 -6.907842812087e+01 
-8.283206780602e+01 2.556015804095e+00 0.0 
2.556015804095e+00 -1.668352982049e+02 0.0 
0.0 0.0 -7.450020980327e+01 
-1.794063988906e+01 -2.714451794155e+00 0.0 
-2.714451794155e+00 -3.688160509983e+01 0.0 
0.0 0.0 -1.608267925767e+01 
-1.267070981606e+02 5.956742613043e+00 0.0 
5.956742613043e+00 -2.883359765913e+02 0.0 
0.0 0.0 -1.241129224256e+02 
-1.541498828748e+01 -1.627991497536e+00 0.0 
-1.627991497536e+00 -3.770555157230e+01 0.0 
0.0 0.0 -1.553616195793e+01 
-1.841687322564e+01 -1.737238332360e+00 0.0 
-1.737238332360e+00 -4.555686331389e+01 0.0 
0.0 0.0 -1.879212096186e+01 
-1.495181209682e+02 3.014981674230e+00 0.0 
3.014981674230e+00 -3.612668693703e+02 0.0 
0.0 0.0 -1.528354971016e+02 
-1.444678566894e+02 2.107682535273e+00 0.0 
2.107682535273e+00 -3.504098515320e+02 0.0 
0.0 0.0 -1.480633124664e+02 
-1.538847082317e+02 2.649005751941e+00 0.0 
2.649005751941e+00 -3.685297027356e+02 0.0 
0.0 0.0 -1.563243232902e+02 
-1.487882607876e+02 1.798194775921e+00 0.0 
1.798194775921e+00 -3.575497785768e+02 0.0 
0.0 0.0 -1.515014118093e+02 
-1.396816216011e+02 1.298164229459e+00 0.0 
1.298164229459e+00 -3.393422100267e+02 0.0 
0.0 0.0 -1.433071494884e+02 
-1.444207299698e+02 1.154283818840e+00 0.0 
1.154283818840e+00 -3.474518538156e+02 0.0 
0.0 0.0 -1.471617751356e+02 
-7.322225793539e+01 8.801849579119e-01 0.0 
8.801849579119e-01 -1.488104125891e+02 0.0 
0.0 0.0 -6.620980115735e+01 
-1.548062380874e+02 1.625255533990e+00 0.0 
1.625255533990e+00 -3.683527234431e+02 0.0 
0.0 0.0 -1.565476884592e+02 
-1.491738395633e+02 1.024110975150e+00 0.0 
1.024110975150e+00 -3.558315954841e+02 0.0 
0.0 0.0 -1.511016305142e+02 
-1.592571033352e+02 1.316847817871e+00 0.0 
1.316847817871e+00 -3.768490282879e+02 0.0 
0.0 0.0 -1.604318394869e+02 
-5.959260463632e+01 8.373576773901e+00 0.0 
8.373576773901e+00 -1.020193617818e+02 0.0 
0.0 0.0 -4.808358992543e+01 
-4.680653130609e+01 2.525384527249e+01 0.0 
2.525384527249e+01 -9.862133036581e+01 0.0 
0.0 0.0 -4.322835850157e+01 
-4.397873404776e+01 2.297460609078e+01 0.0 
2.297460609078e+01 -7.905827583241e+01 0.0 
0.0 0.0 -3.651110296405e+01 
-3.700466151450e+01 2.127845445692e+01 0.0 
2.127845445692e+01 -5.543779107659e+01 0.0 
0.0 0.0 -2.733273577733e+01 
-1.360994461658e+02 1.817705450031e+01 0.0 
1.817705450031e+01 -3.114178949782e+02 0.0 
0.0 0.0 -1.338552023432e+02 
-1.310714310199e+02 1.687473205935e+01 0.0 
1.687473205935e+01 -2.956383142764e+02 0.0 
0.0 0.0 -1.276129235889e+02 
-1.343665021635e+02 -1.110418591388e-01 0.0 
-1.110418591388e-01 -3.193579100198e+02 0.0 
0.0 0.0 -1.357173236550e+02 
-1.256076929499e+02 -3.180935144787e-01 0.0 
-3.180935144787e-01 -2.995700817009e+02 0.0 
0.0 0.0 -1.271533323952e+02 
-7.333025726807e+01 3.497590813261e-01 0.0 
3.497590813261e-01 -1.520383489496e+02 0.0 
0.0 0.0 -6.721058186531e+01 
-7.268033232659e+01 2.920224891895e-01 0.0 
2.920224891895e-01 -1.509719284311e+02 0.0 
0.0 0.0 -6.669567822731e+01 
-8.010694770568e+01 3.542674348406e-01 0.0 
3.542674348406e-01 -1.688588680502e+02 0.0 
0.0 0.0 -7.428974472675e+01 
-7.892534885816e+01 3.580958778188e-01 0.0 
3.580958778188e-01 -1.664234265313e+02 0.0 
0.0 0.0 -7.320463261685e+01 
-8.625858053065e+01 4.223153704725e-01 0.0 
4.223153704725e-01 -1.844445202166e+02 0.0 
0.0 0.0 -8.081093022418e+01 
-8.510814291561e+01 3.986818711878e-01 0.0 
3.986818711878e-01 -1.816878188927e+02 0.0 
0.0 0.0 -7.963878854250e+01 
-9.250436022550e+01 6.899504703080e-01 0.0 
6.899504703080e-01 -2.001018497706e+02 0.0 
0.0 0.0 -8.738186299884e+01 
-1.407397196127e+02 1.922527324334e+01 0.0 
1.922527324334e+01 -3.327248917585e+02 0.0 
0.0 0.0 -1.416393834114e+02 
-3.531078570153e+01 2.605788258587e+01 0.0 
2.605788258587e+01 -5.663630654491e+01 0.0 
0.0 0.0 -2.684943802744e+01 
-6.702729978423e+01 6.518596267909e+00 0.0 
6.518596267909e+00 -1.200347902376e+02 0.0 
0.0 0.0 -5.571862700655e+01 
-1.428418229972e+02 1.488915072024e+01 0.0 
1.488915072024e+01 -3.502615074554e+02 0.0 
0.0 0.0 -1.475309991358e+02 
-1.368773724238e+02 1.331549014239e+01 0.0 
1.331549014239e+01 -3.416496316186e+02 0.0 
0.0 0.0 -1.431581012127e+02 
-6.028073036839e+01 1.302025446402e+01 0.0 
1.302025446402e+01 -1.048833743924e+02 0.0 
0.0 0.0 -4.914923142823e+01 
-5.181948677165e+01 1.135280431341e+01 0.0 
1.135280431341e+01 -8.396334148344e+01 0.0 
0.0 0.0 -4.033484847653e+01 
-1.510198612885e+02 4.696567921146e+00 0.0 
4.696567921146e+00 -3.661820128574e+02 0.0 
0.0 0.0 -1.547605622438e+02 
-5.232138411859e+01 2.358079681506e+01 0.0 
2.358079681506e+01 -1.514813274793e+02 0.0 
0.0 0.0 -6.074081347936e+01 
-1.308288670713e+02 7.104015240753e+00 0.0 
7.104015240753e+00 -3.006809670863e+02 0.0 
0.0 0.0 -1.290529502473e+02 
-5.517858606296e+01 2.429319916310e+01 0.0 
2.429319916310e+01 -8.689808857016e+01 0.0 
0.0 0.0 -4.342298624936e+01 
-3.894790174432e+01 2.349551323410e+01 0.0 
2.349551323410e+01 -1.028006309355e+02 0.0 
0.0 0.0 -4.390052029836e+01 
-5.748442292440e+01 2.379006947496e+01 0.0 
2.379006947496e+01 -1.535878657839e+02 0.0 
0.0 0.0 -6.292168661250e+01 
-6.844054977347e+01 1.399962226518e+01 0.0 
1.399962226518e+01 -1.262024331314e+02 0.0 
0.0 0.0 -5.799289487146e+01 
-5.118061530219e+01 2.310997605437e+01 0.0 
2.310997605437e+01 -1.013356629003e+02 0.0 
0.0 0.0 -4.535488346074e+01 
-4.856359003805e+01 2.057213350564e+01 0.0 
2.057213350564e+01 -8.460432390749e+01 0.0 
0.0 0.0 -3.955037418366e+01 
-1.135068681772e+02 4.619004952140e+00 0.0 
4.619004952140e+00 -3.017615387609e+02 0.0 
0.0 0.0 -1.241805220814e+02 
-2.781490896818e+01 -5.809047777639e+00 0.0 
-5.809047777639e+00 -5.322298458641e+01 0.0 
0.0 0.0 -2.359279125574e+01 
-3.597375726002e+01 2.849437204112e+01 0.0 
2.849437204112e+01 -7.892982364743e+01 0.0 
0.0 0.0 -3.313677747654e+01 
-9.366189428625e+01 7.521981625556e-01 0.0 
7.521981625556e-01 -2.023915905744e+02 0.0 
0.0 0.0 -8.841604545821e+01 
-3.618330313243e+01 2.843072634204e+01 0.0 
2.843072634204e+01 -5.931200481096e+01 0.0 
0.0 0.0 -2.677144922601e+01 
-1.303365405959e+02 -1.168652348723e-01 0.0 
-1.168652348723e-01 -3.097663418418e+02 0.0 
0.0 0.0 -1.316308647313e+02 
-5.446026707718e+01 2.113943318465e+01 0.0 
2.113943318465e+01 -1.672955489362e+02 0.0 
0.0 0.0 -6.612674480402e+01 
-7.525340742318e+01 1.847791296583e+01 0.0 
1.847791296583e+01 -1.544754195375e+02 0.0 
0.0 0.0 -6.851864808820e+01 
-3.698756299372e+01 2.782106977213e+01 0.0 
2.782106977213e+01 -9.771441979725e+01 0.0 
0.0 0.0 -3.982819485497e+01 
-4.919708918174e+01 2.579864308136e+01 0.0 
2.579864308136e+01 -1.176875485860e+02 0.0 
0.0 0.0 -4.966539133033e+01 
-9.115349061355e+01 9.925442183954e+00 0.0 
9.925442183954e+00 -1.799449220860e+02 0.0 
0.0 0.0 -8.092952380986e+01 
-8.244215844121e+01 6.570487481958e+00 0.0 
6.570487481958e+00 -1.582415878788e+02 0.0 
0.0 0.0 -7.180512389601e+01 
-7.893505813432e+01 7.064666785039e+00 0.0 
7.064666785039e+00 -1.490105525197e+02 0.0 
0.0 0.0 -6.798368319621e+01 
-5.688633788245e+01 1.812073580686e+01 0.0 
1.812073580686e+01 -1.815301523599e+02 0.0 
0.0 0.0 -7.112494707271e+01 
-5.235461172597e+01 1.762988270274e+01 0.0 
1.762988270274e+01 -8.985797701901e+01 0.0 
0.0 0.0 -4.226377662349e+01 
-4.312444855278e+01 1.570998140688e+01 0.0 
1.570998140688e+01 -6.508858287109e+01 0.0 
0.0 0.0 -3.206390942716e+01 
-8.773468834026e+01 1.376407367027e+01 0.0 
1.376407367027e+01 -1.753973077353e+02 0.0 
0.0 0.0 -7.853959882268e+01 
-1.152023661311e+02 8.721139628088e+00 0.0 
8.721139628088e+00 -2.473413766835e+02 0.0 
0.0 0.0 -1.083631228444e+02 
-1.189921617572e+02 1.002778175090e+01 0.0 
1.002778175090e+01 -2.578635774458e+02 0.0 
0.0 0.0 -1.126567217609e+02 
-1.254068719232e+02 1.104406592483e+01 0.0 
1.104406592483e+01 -2.775998830258e+02 0.0 
0.0 0.0 -1.205020264847e+02 
-1.227800446834e+02 1.139771435666e+01 0.0 
1.139771435666e+01 -2.686678011237e+02 0.0 
0.0 0.0 -1.170343537421e+02 
-1.160814489147e+02 1.039466207364e+01 0.0 
1.039466207364e+01 -2.484447938784e+02 0.0 
0.0 0.0 -1.089578728379e+02 
-1.199361639285e+02 1.181331322371e+01 0.0 
1.181331322371e+01 -2.594329259461e+02 0.0 
0.0 0.0 -1.134107269624e+02 
-1.263404046430e+02 1.271492882745e+01 0.0 
1.271492882745e+01 -2.796067000167e+02 0.0 
0.0 0.0 -1.213841313979e+02 
-1.239662842467e+02 1.320093621111e+01 0.0 
1.320093621111e+01 -2.713621423831e+02 0.0 
0.0 0.0 -1.181985279890e+02 
-1.313762084372e+02 1.442153793971e+01 0.0 
1.442153793971e+01 -2.949871897579e+02 0.0 
0.0 0.0 -1.275090194585e+02 
-1.275431529054e+02 1.464952281521e+01 0.0 
1.464952281521e+01 -2.829057060369e+02 0.0 
0.0 0.0 -1.227346576827e+02 
-1.205471254463e+02 1.356512211352e+01 0.0 
1.356512211352e+01 -2.618454645648e+02 0.0 
0.0 0.0 -1.143177770033e+02 
-1.239675850279e+02 1.483158135238e+01 0.0 
1.483158135238e+01 -2.731349611231e+02 0.0 
0.0 0.0 -1.187307638453e+02 
-1.305247001784e+02 1.584922633606e+01 0.0 
1.584922633606e+01 -2.926500789249e+02 0.0 
0.0 0.0 -1.265524337310e+02 
-1.170769667390e+02 1.400468335489e+01 0.0 
1.400468335489e+01 -2.526413599723e+02 0.0 
0.0 0.0 -1.105154980134e+02 
-1.480147798767e+02 1.633431806412e+01 0.0 
1.633431806412e+01 -3.571273690290e+02 0.0 
0.0 0.0 -1.511426446717e+02 
-6.497251072319e+01 2.238157589980e+01 0.0 
2.238157589980e+01 -1.724995114689e+02 0.0 
0.0 0.0 -7.084160665764e+01 
-3.098957364125e+01 1.275065946085e+01 0.0 
1.275065946085e+01 -1.186934367498e+02 0.0 
0.0 0.0 -4.683859609074e+01 
-3.492720628697e+01 3.098952326456e+01 0.0 
3.098952326456e+01 -9.118402200958e+01 0.0 
0.0 0.0 -3.858942756665e+01 
-7.961957050899e+01 1.671182793898e+01 0.0 
1.671182793898e+01 -1.609134989238e+02 0.0 
0.0 0.0 -7.175992082983e+01 
-1.367478213619e+02 1.485982720791e+01 0.0 
1.485982720791e+01 -3.139370495948e+02 0.0 
0.0 0.0 -1.348054612870e+02 
-1.349539549774e+02 1.236834969373e+01 0.0 
1.236834969373e+01 -3.095443699830e+02 0.0 
0.0 0.0 -1.329494974881e+02 
-4.291005760825e+01 2.078729338679e+01 0.0 
2.078729338679e+01 -1.494423553770e+02 0.0 
0.0 0.0 -5.730572389558e+01 
-1.434744271699e+02 1.963200982677e+01 0.0 
1.963200982677e+01 -3.327833607405e+02 0.0 
0.0 0.0 -1.424773363731e+02 
-8.336970699137e+01 8.915972181699e+00 0.0 
8.915972181699e+00 -1.598011321180e+02 0.0 
0.0 0.0 -7.255125173281e+01 
-3.071076100171e+01 1.549919993850e+01 0.0 
1.549919993850e+01 -1.349066710356e+02 0.0 
0.0 0.0 -4.971794730154e+01 
-1.464216133240e+02 2.042780413516e+01 0.0 
2.042780413516e+01 -3.421365054772e+02 0.0 
0.0 0.0 -1.461674356403e+02 
-1.121603599956e+02 9.010273488334e+00 0.0 
9.010273488334e+00 -2.376066564106e+02 0.0 
0.0 0.0 -1.045301049219e+02 
-1.089489919446e+02 9.358509170461e+00 0.0 
9.358509170461e+00 -2.278499475578e+02 0.0 
0.0 0.0 -1.006396818507e+02 
-1.049008742583e+02 7.973505203660e+00 0.0 
7.973505203660e+00 -2.172234039619e+02 0.0 
0.0 0.0 -9.623728346604e+01 
-1.337809567588e+02 1.032388890690e+01 0.0 
1.032388890690e+01 -3.073159302750e+02 0.0 
0.0 0.0 -1.319290661101e+02 
-9.094613736785e+01 3.313437789868e+00 0.0 
3.313437789868e+00 -1.870528492386e+02 0.0 
0.0 0.0 -8.299969598193e+01 
-1.523043167113e+02 1.910337325666e+01 0.0 
1.910337325666e+01 -3.609283552361e+02 0.0 
0.0 0.0 -1.535698015842e+02 
-9.415132671420e+01 1.340450531988e+01 0.0 
1.340450531988e+01 -2.609378283905e+02 0.0 
0.0 0.0 -1.061267465314e+02 
-9.016123396249e+01 1.519727699883e+01 0.0 
1.519727699883e+01 -2.489928417202e+02 0.0 
0.0 0.0 -1.013462227048e+02 
-8.139370016767e+01 1.565468275609e+01 0.0 
1.565468275609e+01 -2.316414921719e+02 0.0 
0.0 0.0 -9.351055770186e+01 
-1.167957787345e+02 1.218885475251e+01 0.0 
1.218885475251e+01 -2.501481121966e+02 0.0 
0.0 0.0 -1.096831672794e+02 
-1.565550329416e+02 1.409827020882e+01 0.0 
1.409827020882e+01 -3.747380310011e+02 0.0 
0.0 0.0 -1.589879191828e+02 
-1.478058355056e+02 1.254466465527e+01 0.0 
1.254466465527e+01 -3.614925277965e+02 0.0 
0.0 0.0 -1.523895089906e+02 
-1.487681354087e+02 1.121597881986e+01 0.0 
1.121597881986e+01 -3.636973250793e+02 0.0 
0.0 0.0 -1.533396381464e+02 
-1.384692674498e+02 1.103361396340e+01 0.0 
1.103361396340e+01 -3.465802425272e+02 0.0 
0.0 0.0 -1.451148529931e+02 
-1.586380256205e+02 1.113141664939e+01 0.0 
1.113141664939e+01 -3.796237000115e+02 0.0 
0.0 0.0 -1.610785176896e+02 
-1.397729930008e+02 1.714715009632e+01 0.0 
1.714715009632e+01 -3.219898686976e+02 0.0 
0.0 0.0 -1.381288585095e+02 
-1.411321330755e+02 1.816575091793e+01 0.0 
1.816575091793e+01 -3.260456239783e+02 0.0 
0.0 0.0 -1.397533271161e+02 
-4.778086514243e+01 -1.208023673358e+01 0.0 
-1.208023673358e+01 -1.531962979917e+02 0.0 
0.0 0.0 -5.989314894025e+01 
-4.861213701916e+01 -8.625026447509e+00 0.0 
-8.625026447509e+00 -1.662705811411e+02 0.0 
0.0 0.0 -6.406481544808e+01 
-5.511045713636e+01 -6.198773275281e+00 0.0 
-6.198773275281e+00 -1.822991480870e+02 0.0 
0.0 0.0 -7.082288156701e+01 
-5.004980918815e+01 -4.395323412478e+00 0.0 
-4.395323412478e+00 -1.773526829034e+02 0.0 
0.0 0.0 -6.782074762747e+01 
-4.347879943651e+01 -6.691064422609e+00 0.0 
-6.691064422609e+00 -1.623907052378e+02 0.0 
0.0 0.0 -6.136085140229e+01 
-4.508537034444e+01 -1.503386923344e+00 0.0 
-1.503386923344e+00 -1.719893788355e+02 0.0 
0.0 0.0 -6.472242475398e+01 
-5.222287785879e+01 8.316070630189e-02 0.0 
8.316070630189e-02 -1.864384620760e+02 0.0 
0.0 0.0 -7.119840198044e+01 
-4.050451825798e+01 2.632220004181e+00 0.0 
2.632220004181e+00 -1.657057258567e+02 0.0 
0.0 0.0 -6.146307323440e+01 
-1.243455190498e+02 1.624514763667e+01 0.0 
1.624514763667e+01 -2.764413618578e+02 0.0 
0.0 0.0 -1.198360642723e+02 
-1.604863872971e+02 8.244668610523e+00 0.0 
8.244668610523e+00 -3.830996905015e+02 0.0 
0.0 0.0 -1.626758233396e+02 
-1.016813966624e+02 -6.209529562209e-01 0.0 
-6.209529562209e-01 -2.713749973661e+02 0.0 
0.0 0.0 -1.115169182085e+02 
-9.644435630189e+01 -4.093692465615e-01 0.0 
-4.093692465615e-01 -2.637180588090e+02 0.0 
0.0 0.0 -1.076487245333e+02 
-8.794030452764e+01 -1.965161476309e+00 0.0 
-1.965161476309e+00 -2.456754574735e+02 0.0 
0.0 0.0 -9.968472860033e+01 
-8.061118268069e+01 -4.748320964502e+00 0.0 
-4.748320964502e+00 -1.998846105909e+02 0.0 
0.0 0.0 -8.374873798148e+01 
-8.431672337998e+01 -4.838041764690e+00 0.0 
-4.838041764690e+00 -2.122222682509e+02 0.0 
0.0 0.0 -8.856169748926e+01 
-9.220415439249e+01 -3.877249645583e+00 0.0 
-3.877249645583e+00 -2.319377935555e+02 0.0 
0.0 0.0 -9.684258438440e+01 
-7.666589697642e+01 -4.404966432554e+00 0.0 
-4.404966432554e+00 -1.875600847034e+02 0.0 
0.0 0.0 -7.886779450393e+01 
-1.069793653272e+02 1.847777975353e+01 0.0 
1.847777975353e+01 -2.566896421117e+02 0.0 
0.0 0.0 -1.087007022317e+02 
-1.610167332466e+02 7.021776566939e+00 0.0 
7.021776566939e+00 -3.838013232878e+02 0.0 
0.0 0.0 -1.630454169603e+02 
-9.379907281031e+01 5.696440635091e+00 0.0 
5.696440635091e+00 -2.667267507004e+02 0.0 
0.0 0.0 -1.077577470532e+02 
-8.011799474580e+01 -5.744633693611e+00 0.0 
-5.744633693611e+00 -2.048058066337e+02 0.0 
0.0 0.0 -8.507714041386e+01 
-7.051762768809e+01 1.864360074985e+00 0.0 
1.864360074985e+00 -1.360089126088e+02 0.0 
0.0 0.0 -6.155796208908e+01 
-7.858774102308e+01 2.893632200454e+00 0.0 
2.893632200454e+00 -1.537935783462e+02 0.0 
0.0 0.0 -6.931439581079e+01 
-7.979362754285e+01 3.741146180247e+00 0.0 
3.741146180247e+00 -1.548572064574e+02 0.0 
0.0 0.0 -6.999525020006e+01 
-8.733377320939e+01 4.366824660300e+00 0.0 
4.366824660300e+00 -1.735361791059e+02 0.0 
0.0 0.0 -7.786098569458e+01 
-7.848517956212e+01 2.562039073925e+00 0.0 
2.562039073925e+00 -1.549812947380e+02 0.0 
0.0 0.0 -6.963994229002e+01 
-9.664504335968e+01 -2.487149354436e+00 0.0 
-2.487149354436e+00 -2.354733210651e+02 0.0 
0.0 0.0 -9.923550932744e+01 
-1.006475521193e+02 -1.844788339132e+00 0.0 
-1.844788339132e+00 -2.435290548847e+02 0.0 
0.0 0.0 -1.028529821012e+02 
-9.641932914835e+01 -1.653709729286e+00 0.0 
-1.653709729286e+00 -2.321108659321e+02 0.0 
0.0 0.0 -9.815905852414e+01 
-1.046223899013e+02 -1.277230316945e+00 0.0 
-1.277230316945e+00 -2.516922601588e+02 0.0 
0.0 0.0 -1.064943950180e+02 
-1.001255488217e+02 -1.026737428348e+00 0.0 
-1.026737428348e+00 -2.399896508396e+02 0.0 
0.0 0.0 -1.016345598984e+02 
-9.257787757782e+01 -1.281275852864e+00 0.0 
-1.281275852864e+00 -2.217537203665e+02 0.0 
0.0 0.0 -9.389947938329e+01 
-1.084309903373e+02 -7.549689627640e-01 0.0 
-7.549689627640e-01 -2.595864374322e+02 0.0 
0.0 0.0 -1.100052283308e+02 
-1.032052212883e+02 -6.255696957746e-01 0.0 
-6.255696957746e-01 -2.467366854251e+02 0.0 
0.0 0.0 -1.045825720140e+02 
-6.896782786191e+01 1.135943156324e+00 0.0 
1.135943156324e+00 -1.350408977786e+02 0.0 
0.0 0.0 -6.080261769214e+01 
-4.136239365252e+01 -2.133831211616e+01 0.0 
-2.133831211616e+01 -4.794463559500e+01 0.0 
0.0 0.0 -2.714082670206e+01 
-3.900036085644e+01 -2.317503357651e+01 0.0 
-2.317503357651e+01 -5.728153138226e+01 0.0 
0.0 0.0 -2.857081033700e+01 
-3.307994656438e+01 -1.498769003695e+01 0.0 
-1.498769003695e+01 -4.288279861168e+01 0.0 
0.0 0.0 -2.179779064427e+01 
-3.938932414325e+01 -2.131064898894e+01 0.0 
-2.131064898894e+01 -7.029562096077e+01 0.0 
0.0 0.0 -3.177504099532e+01 
-3.756818534814e+01 -2.439818011819e+01 0.0 
-2.439818011819e+01 -8.792560584638e+01 0.0 
0.0 0.0 -3.739494216994e+01 
-3.959782380121e+01 -2.108615947615e+01 0.0 
-2.108615947615e+01 -9.835916075535e+01 0.0 
0.0 0.0 -4.030305821103e+01 
-3.546745195958e+01 -2.116508117200e+01 0.0 
-2.116508117200e+01 -1.094964523068e+02 0.0 
0.0 0.0 -4.329356876264e+01 
-3.995269431209e+01 -2.651384752617e+01 0.0 
-2.651384752617e+01 -8.434437752204e+01 0.0 
0.0 0.0 -3.787250698271e+01 
-1.909799527829e+01 -5.452260256125e+00 0.0 
-5.452260256125e+00 -1.964791554306e+01 0.0 
0.0 0.0 -1.132729814298e+01 
-2.697609152283e+01 -9.186917777525e+00 0.0 
-9.186917777525e+00 -3.778241080098e+01 0.0 
0.0 0.0 -1.838263884783e+01 
-1.326801121350e+01 -2.783577248047e+00 0.0 
-2.783577248047e+00 -1.768798605647e+01 0.0 
0.0 0.0 -8.769617621358e+00 
-2.183832301122e+01 -5.537559888651e+00 0.0 
-5.537559888651e+00 -3.498582142499e+01 0.0 
0.0 0.0 -1.634974649896e+01 
-3.390034469877e+01 -1.080453175694e+01 0.0 
-1.080453175694e+01 -5.819392918281e+01 0.0 
0.0 0.0 -2.598941546024e+01 
-3.763368029903e+01 -7.032215977341e+00 0.0 
-7.032215977341e+00 -8.201514767595e+01 0.0 
0.0 0.0 -3.548071735063e+01 
-1.617257116736e+02 5.075167659113e-01 0.0 
5.075167659113e-01 -3.805035603630e+02 0.0 
0.0 0.0 -1.622687816110e+02 
-7.988715407787e+01 -6.172864201839e-01 0.0 
-6.172864201839e-01 -1.905351176679e+02 0.0 
0.0 0.0 -8.072668152374e+01 
-7.576382355805e+01 -1.296827783147e+00 0.0 
-1.296827783147e+00 -1.809347631832e+02 0.0 
0.0 0.0 -7.660957602236e+01 
-6.783882536953e+01 -1.316070204622e+00 0.0 
-1.316070204622e+00 -1.614209429079e+02 0.0 
0.0 0.0 -6.837793048321e+01 
-7.209632187569e+01 -1.900433602478e+00 0.0 
-1.900433602478e+00 -1.722590854681e+02 0.0 
0.0 0.0 -7.290662220313e+01 
-8.302456283196e+01 -1.198971752777e+00 0.0 
-1.198971752777e+00 -1.986556098934e+02 0.0 
0.0 0.0 -8.410405181761e+01 
-6.331135466379e+01 -6.672087033015e-01 0.0 
-6.672087033015e-01 -1.505656188028e+02 0.0 
0.0 0.0 -6.376309203996e+01 
-6.029646598229e+01 -1.298004627075e+00 0.0 
-1.298004627075e+00 -1.434622129929e+02 0.0 
0.0 0.0 -6.072760369257e+01 
-3.372059546265e+00 -1.497123607694e-01 0.0 
-1.497123607694e-01 -1.716355425031e+01 0.0 
0.0 0.0 -5.399777428611e+00 
-9.716736466070e+00 -2.325520797826e-01 0.0 
-2.325520797826e-01 -3.373593643647e+01 0.0 
0.0 0.0 -1.255347801564e+01 
-8.983937819914e+00 -1.771967228458e-01 0.0 
-1.771967228458e-01 -3.209136747680e+01 0.0 
0.0 0.0 -1.174669951365e+01 
-1.766171690090e+01 -4.213882508729e-01 0.0 
-4.213882508729e-01 -5.052910545497e+01 0.0 
0.0 0.0 -2.005724670676e+01 
-1.790753290583e+01 -5.910399738246e-01 0.0 
-5.910399738246e-01 -5.020273496673e+01 0.0 
0.0 0.0 -2.003308036177e+01 
-1.020218017979e+01 -4.362119579654e-01 0.0 
-4.362119579654e-01 -3.405213472958e+01 0.0 
0.0 0.0 -1.282091048348e+01 
-1.056483799160e+01 -6.035974119732e-01 0.0 
-6.035974119732e-01 -3.405667616819e+01 0.0 
0.0 0.0 -1.296384219759e+01 
-3.879442659696e+00 -2.917114327773e-01 0.0 
-2.917114327773e-01 -1.701925677463e+01 0.0 
0.0 0.0 -5.591768896116e+00 
-1.099744214993e+01 -6.922447892104e-01 0.0 
-6.922447892104e-01 -3.388856782171e+01 0.0 
0.0 0.0 -1.312504439117e+01 
-1.929763051369e+01 -1.231967440495e+00 0.0 
-1.231967440495e+00 -5.105323751249e+01 0.0 
0.0 0.0 -2.070526040785e+01 
-4.095223435964e+00 -3.160653160849e-01 0.0 
-3.160653160849e-01 -1.644596861686e+01 0.0 
0.0 0.0 -5.575245473941e+00 
-1.024587217903e+02 4.247837626992e-01 0.0 
4.247837626992e-01 -2.263210894022e+02 0.0 
0.0 0.0 -9.823394335775e+01 
-1.065103206359e+02 7.677518674295e-01 0.0 
7.677518674295e-01 -2.371513623163e+02 0.0 
0.0 0.0 -1.026985048857e+02 
-1.612666996475e+02 4.735032812637e+00 0.0 
4.735032812637e+00 -3.836193729645e+02 0.0 
0.0 0.0 -1.630658217836e+02 
-6.861896850476e+01 7.864871023820e-01 0.0 
7.864871023820e-01 -1.367875258240e+02 0.0 
0.0 0.0 -6.122194829863e+01 
-8.068881708208e+00 -1.031416149538e+00 0.0 
-1.031416149538e+00 -1.744688021877e+01 0.0 
0.0 0.0 -7.504836747673e+00 
-1.284149448344e+02 2.550268353572e+00 0.0 
2.550268353572e+00 -2.968275201590e+02 0.0 
0.0 0.0 -1.271727394980e+02 
-1.303839331000e+02 4.707204643681e+00 0.0 
4.707204643681e+00 -3.010771478020e+02 0.0 
0.0 0.0 -1.290383242706e+02 
-1.302202678675e+02 3.917281643497e+00 0.0 
3.917281643497e+00 -3.010299684060e+02 0.0 
0.0 0.0 -1.289750708820e+02 
-1.481085066857e+02 2.036157831882e-02 0.0 
2.036157831882e-02 -3.496315344587e+02 0.0 
0.0 0.0 -1.489220123433e+02 
-1.525104119334e+02 1.548185616995e-01 0.0 
1.548185616995e-01 -3.594620126783e+02 0.0 
0.0 0.0 -1.531917273835e+02 
-1.282783541736e+02 1.409670259833e+00 0.0 
1.409670259833e+00 -2.970873296152e+02 0.0 
0.0 0.0 -1.272097051366e+02 
-5.457788232996e+01 -7.183950666870e+00 0.0 
-7.183950666870e+00 -1.310537980637e+02 0.0 
0.0 0.0 -5.528950411809e+01 
-1.292847481084e+02 1.238859756151e+01 0.0 
1.238859756151e+01 -2.884091224680e+02 0.0 
0.0 0.0 -1.249081611729e+02 
-1.163612278603e+02 2.528682526807e+00 0.0 
2.528682526807e+00 -2.621201624036e+02 0.0 
0.0 0.0 -1.131444170792e+02 
-3.139896150451e+01 2.223294646666e+01 0.0 
2.223294646666e+01 -1.206859132247e+02 0.0 
0.0 0.0 -4.549607756616e+01 
-5.261929565855e+01 -1.120780899443e+01 0.0 
-1.120780899443e+01 -1.325870282404e+02 0.0 
0.0 0.0 -5.516189716969e+01 
-1.214400986876e+02 -5.859762639270e-01 0.0 
-5.859762639270e-01 -2.907806727462e+02 0.0 
0.0 0.0 -1.232662314301e+02 
-1.086403184930e+02 -1.925321263795e+00 0.0 
-1.925321263795e+00 -2.707359094089e+02 0.0 
0.0 0.0 -1.134128683706e+02 
-1.392624871717e+02 1.728953049885e-01 0.0 
1.728953049885e-01 -3.327526794198e+02 0.0 
0.0 0.0 -1.412045499774e+02 
-1.131527638021e+02 -1.334470903274e+00 0.0 
-1.334470903274e+00 -2.745055184422e+02 0.0 
0.0 0.0 -1.158974846733e+02 
-1.306484351396e+02 -7.986704552021e-03 0.0 
-7.986704552021e-03 -3.170249261653e+02 0.0 
0.0 0.0 -1.339020083915e+02 
-1.489475135536e+02 9.427306281719e+00 0.0 
9.427306281719e+00 -3.645462688838e+02 0.0 
0.0 0.0 -1.536481347312e+02 
-3.226224949961e+01 -1.242690314827e+00 0.0 
-1.242690314827e+00 -7.954261435175e+01 0.0 
0.0 0.0 -3.314145915541e+01 
-9.009453118198e+01 1.915668999128e+00 0.0 
1.915668999128e+00 -1.897306722885e+02 0.0 
0.0 0.0 -8.354756104113e+01 
-8.607578070399e+01 9.984415221237e-01 0.0 
9.984415221237e-01 -1.822917206855e+02 0.0 
0.0 0.0 -8.011025041685e+01 
-1.054106459352e+02 2.363317232227e+00 0.0 
2.363317232227e+00 -2.313135080507e+02 0.0 
0.0 0.0 -1.006172461958e+02 
-5.639908975430e+01 -4.069838047459e+00 0.0 
-4.069838047459e+00 -1.345042737517e+02 0.0 
0.0 0.0 -5.687100905181e+01 
-8.852814688816e+01 -1.933137206938e+00 0.0 
-1.933137206938e+00 -2.129194527780e+02 0.0 
0.0 0.0 -9.003427989984e+01 
-3.657596436609e+01 -3.805474206887e+00 0.0 
-3.805474206887e+00 -8.525503389401e+01 0.0 
0.0 0.0 -3.614929947803e+01 
-1.395000589795e+02 1.932980720980e+01 0.0 
1.932980720980e+01 -3.242081548327e+02 0.0 
0.0 0.0 -1.387124641437e+02 
-8.011787513202e+01 1.313489604956e+01 0.0 
1.313489604956e+01 -1.548029813679e+02 0.0 
0.0 0.0 -7.007625694998e+01 
-8.485504187970e+01 -3.720557681526e+00 0.0 
-3.720557681526e+00 -2.345115398201e+02 0.0 
0.0 0.0 -9.540997450993e+01 
-7.290723254065e+01 -5.387693661997e+00 0.0 
-5.387693661997e+00 -1.796954274166e+02 0.0 
0.0 0.0 -7.538079798716e+01 
-5.855338065935e+01 -8.254441401998e+00 0.0 
-8.254441401998e+00 -1.444992077832e+02 0.0 
0.0 0.0 -6.051577653277e+01 
-4.954776124055e+01 -1.296749097831e+01 0.0 
-1.296749097831e+01 -1.271706907306e+02 0.0 
0.0 0.0 -5.261553559134e+01 
-7.041125464797e+01 2.212961706670e+01 0.0 
2.212961706670e+01 -1.760778673106e+02 0.0 
0.0 0.0 -7.354673658757e+01 
-8.340998092799e+01 -5.397870756158e+00 0.0 
-5.397870756158e+00 -2.172588741792e+02 0.0 
0.0 0.0 -8.980065653216e+01 
-1.207944279758e+02 5.295972579096e-01 0.0 
5.295972579096e-01 -3.052279592480e+02 0.0 
0.0 0.0 -1.274067161671e+02 
-1.091383793711e+02 2.190649077290e+00 0.0 
2.190649077290e+00 -2.421819810398e+02 0.0 
0.0 0.0 -1.049961081233e+02 
-6.393169440569e+00 -5.955611424748e-01 0.0 
-5.955611424748e-01 -1.909690652531e+01 0.0 
0.0 0.0 -7.114820598908e+00 
-1.250863208553e+02 1.708786598479e+00 0.0 
1.708786598479e+00 -3.162254011139e+02 0.0 
0.0 0.0 -1.319935165908e+02 
-9.941512550449e+01 -2.826168634300e+00 0.0 
-2.826168634300e+00 -2.558050371634e+02 0.0 
0.0 0.0 -1.061660488004e+02 
-9.467253757565e+01 3.308435268689e+00 0.0 
3.308435268689e+00 -1.977676574643e+02 0.0 
0.0 0.0 -8.733205851198e+01 
-1.174610084075e+02 1.227364268082e+01 0.0 
1.227364268082e+01 -3.072588561227e+02 0.0 
0.0 0.0 -1.270159593591e+02 
-4.256682513401e+01 -1.856659179292e+01 0.0 
-1.856659179292e+01 -1.001097624731e+02 0.0 
0.0 0.0 -4.116789493431e+01 
-1.093357076436e+02 3.896349480312e+00 0.0 
3.896349480312e+00 -2.390449467004e+02 0.0 
0.0 0.0 -1.041141963032e+02 
-1.235945342587e+02 7.695817932556e+00 0.0 
7.695817932556e+00 -2.763138362753e+02 0.0 
0.0 0.0 -1.195725111602e+02 
-8.731727915107e+01 3.441093289740e+00 0.0 
3.441093289740e+00 -1.765244593837e+02 0.0 
0.0 0.0 -7.875252156042e+01 
-2.760548682731e+01 -2.819756291446e+00 0.0 
-2.819756291446e+00 -6.500047951340e+01 0.0 
0.0 0.0 -2.738178990221e+01 
-8.183464244231e+01 1.330848394188e+00 0.0 
1.330848394188e+00 -1.695654250169e+02 0.0 
0.0 0.0 -7.502002023776e+01 
-1.446061292388e+02 5.319276248728e+00 0.0 
5.319276248728e+00 -3.555796968869e+02 0.0 
0.0 0.0 -1.496557478377e+02 
-1.112371633977e+02 7.481114770793e+00 0.0 
7.481114770793e+00 -2.369986730253e+02 0.0 
0.0 0.0 -1.040707509269e+02 
-5.154418721381e+01 -3.095335365188e+00 0.0 
-3.095335365188e+00 -1.224715574322e+02 0.0 
0.0 0.0 -5.180472339381e+01 
-8.009092641130e+01 6.626522069687e+00 0.0 
6.626522069687e+00 -2.410494066466e+02 0.0 
0.0 0.0 -9.594209991736e+01 
-7.810493007852e+01 1.978916706763e+01 0.0 
1.978916706763e+01 -1.694784386981e+02 0.0 
0.0 0.0 -7.387501063300e+01 
-6.612394239917e+01 4.205093380398e+00 0.0 
4.205093380398e+00 -1.197036478873e+02 0.0 
0.0 0.0 -5.534827708595e+01 
-1.195576192191e+02 3.126717153110e+00 0.0 
3.126717153110e+00 -2.707860930707e+02 0.0 
0.0 0.0 -1.167031136869e+02 
-8.336958561202e+01 1.861970018920e+01 0.0 
1.861970018920e+01 -2.231855189106e+02 0.0 
0.0 0.0 -9.156653135678e+01 
-1.274694194281e+02 1.008897030608e+01 0.0 
1.008897030608e+01 -3.277045313317e+02 0.0 
0.0 0.0 -1.361521852279e+02 
-9.820993483687e+01 7.982661928182e+00 0.0 
7.982661928182e+00 -2.748481963646e+02 0.0 
0.0 0.0 -1.115174393605e+02 
-5.506879962824e+01 -2.464693449867e+00 0.0 
-2.464693449867e+00 -1.311442951719e+02 0.0 
0.0 0.0 -5.546392844005e+01 
-1.349938066181e+02 1.423055716874e+00 0.0 
1.423055716874e+00 -3.317665024218e+02 0.0 
0.0 0.0 -1.396280927120e+02 
-7.637368813398e+01 1.382562183793e+01 0.0 
1.382562183793e+01 -2.267766105881e+02 0.0 
0.0 0.0 -9.054508961662e+01 
-1.165354398764e+02 4.535160396655e+00 0.0 
4.535160396655e+00 -2.591422187326e+02 0.0 
0.0 0.0 -1.123032975827e+02 
-1.128767878660e+02 1.762632805210e+01 0.0 
1.762632805210e+01 -2.553508057337e+02 0.0 
0.0 0.0 -1.100682780799e+02 
-5.887111466677e+01 8.273896637318e+00 0.0 
8.273896637318e+00 -2.001241919097e+02 0.0 
0.0 0.0 -7.729859197294e+01 
-1.136024363730e+02 5.936319018977e+00 0.0 
5.936319018977e+00 -2.473846607212e+02 0.0 
0.0 0.0 -1.078961291283e+02 
-8.278515339778e+01 -1.511517795770e+00 0.0 
-1.511517795770e+00 -2.385436021580e+02 0.0 
0.0 0.0 -9.599862666674e+01 
-1.225978040810e+02 1.378757687797e+01 0.0 
1.378757687797e+01 -3.143160486497e+02 0.0 
0.0 0.0 -1.306741558192e+02 
-7.618786035386e+01 1.466430867665e+01 0.0 
1.466430867665e+01 -1.471621389481e+02 0.0 
0.0 0.0 -6.660499979057e+01 
-9.765901673676e+01 1.778644677197e+01 0.0 
1.778644677197e+01 -2.155489789242e+02 0.0 
0.0 0.0 -9.356239869829e+01 
-1.063081165442e+02 1.387799413376e+01 0.0 
1.387799413376e+01 -2.238803162564e+02 0.0 
0.0 0.0 -9.865652984018e+01 
-9.101272089075e+01 1.963397396548e+01 0.0 
1.963397396548e+01 -2.184809240704e+02 0.0 
0.0 0.0 -9.244809348836e+01 
-1.169669895432e+02 -5.928304599878e-01 0.0 
-5.928304599878e-01 -2.796165794772e+02 0.0 
0.0 0.0 -1.185750707061e+02 
-1.300988880134e+02 1.542761241160e+00 0.0 
1.542761241160e+00 -3.240135446373e+02 0.0 
0.0 0.0 -1.358337297952e+02 
-2.995063965085e+01 -7.062009738814e+00 0.0 
-7.062009738814e+00 -1.344927321582e+02 0.0 
0.0 0.0 -5.008211738021e+01 
-5.590818075917e+01 2.464655625722e+01 0.0 
2.464655625722e+01 -1.375062591446e+02 0.0 
0.0 0.0 -5.762433197115e+01 
-9.543182334971e+01 4.275891307768e+00 0.0 
4.275891307768e+00 -1.968546895265e+02 0.0 
0.0 0.0 -8.728595386285e+01 
-1.277187680299e+02 1.848682505523e+01 0.0 
1.848682505523e+01 -3.007075833211e+02 0.0 
0.0 0.0 -1.281279054053e+02 
-1.234686719647e+02 5.049221169562e+00 0.0 
5.049221169562e+00 -2.790812988088e+02 0.0 
0.0 0.0 -1.203649912321e+02 
-7.068861296060e+01 2.030241122485e+01 0.0 
2.030241122485e+01 -1.489672302274e+02 0.0 
0.0 0.0 -6.549675295639e+01 
-1.304774507998e+02 5.638450893875e-01 0.0 
5.638450893875e-01 -3.205682424889e+02 0.0 
0.0 0.0 -1.349137079866e+02 
-1.202501791098e+02 6.669067577363e+00 0.0 
6.669067577363e+00 -2.670585173515e+02 0.0 
0.0 0.0 -1.157926089384e+02 
-8.783662454525e+01 -4.633453397884e+00 0.0 
-4.633453397884e+00 -2.244742168762e+02 0.0 
0.0 0.0 -9.329325242643e+01 
-3.710304874277e+01 -4.483796076273e-01 0.0 
-4.483796076273e-01 -9.117441587640e+01 0.0 
0.0 0.0 -3.808323938575e+01 
-3.187888466079e+01 2.584894542692e+01 0.0 
2.584894542692e+01 -1.065950624076e+02 0.0 
0.0 0.0 -4.153438571198e+01 
-4.363587519205e+01 7.905251699689e+00 0.0 
7.905251699689e+00 -1.711058405524e+02 0.0 
0.0 0.0 -6.402251472332e+01 
-7.810297288169e+01 1.772068413782e+01 0.0 
1.772068413782e+01 -2.188997641671e+02 0.0 
0.0 0.0 -8.870082111465e+01 
-9.582291211159e+01 -3.493500297553e+00 0.0 
-3.493500297553e+00 -2.439279786123e+02 0.0 
0.0 0.0 -1.015252672172e+02 
-1.289561748982e+02 1.084390905989e+01 0.0 
1.084390905989e+01 -2.899236982797e+02 0.0 
0.0 0.0 -1.252639619534e+02 
-1.351411741438e+02 5.823421871282e-01 0.0 
5.823421871282e-01 -3.282990288400e+02 0.0 
0.0 0.0 -1.386320608951e+02 
-1.189949528254e+02 4.001207055586e+00 0.0 
4.001207055586e+00 -3.105131507354e+02 0.0 
0.0 0.0 -1.284524310682e+02 
-3.918134738762e+01 2.968545458401e+01 0.0 
2.968545458401e+01 -4.096166903213e+01 0.0 
0.0 0.0 -2.334033860162e+01 
-7.078037266198e+01 5.853277271721e+00 0.0 
5.853277271721e+00 -1.293628239602e+02 0.0 
0.0 0.0 -5.964295898666e+01 
-1.396899010007e+02 5.910493964125e-01 0.0 
5.910493964125e-01 -3.361724708585e+02 0.0 
0.0 0.0 -1.423587115578e+02 
-8.481803511495e+01 4.758137082716e+00 0.0 
4.758137082716e+00 -2.497683815452e+02 0.0 
0.0 0.0 -9.997592499804e+01 
-1.272531633965e+02 1.272753481504e+01 0.0 
1.272753481504e+01 -3.248400130941e+02 0.0 
0.0 0.0 -1.352279529472e+02 
-9.537966303891e+01 -7.912055473037e-01 0.0 
-7.912055473037e-01 -2.278594193434e+02 0.0 
0.0 0.0 -9.657172471468e+01 
-1.403751098632e+02 1.951504007486e+01 0.0 
1.951504007486e+01 -3.285395233396e+02 0.0 
0.0 0.0 -1.402743899609e+02 
-5.572409291643e+01 9.730906910674e+00 0.0 
9.730906910674e+00 -9.285908306215e+01 0.0 
0.0 0.0 -4.417495279358e+01 
-1.441596296206e+02 5.606315005425e-01 0.0 
5.606315005425e-01 -3.444293921467e+02 0.0 
0.0 0.0 -1.461767065302e+02 
-1.180032804596e+02 6.475722378348e+00 0.0 
6.475722378348e+00 -3.110035645101e+02 0.0 
0.0 0.0 -1.283020534909e+02 
-4.751029324483e+01 2.260447641588e+01 0.0 
2.260447641588e+01 -1.502911192075e+02 0.0 
0.0 0.0 -5.894042373569e+01 
-6.551602875122e+01 7.248310993892e-02 0.0 
7.248310993892e-02 -1.339573414449e+02 0.0 
0.0 0.0 -5.944201105884e+01 
-1.545635841771e+02 8.570363091502e-01 0.0 
8.570363091502e-01 -3.662298937692e+02 0.0 
0.0 0.0 -1.558380433839e+02 
-1.282179794558e+02 7.464295724833e+00 0.0 
7.464295724833e+00 -3.292353830768e+02 0.0 
0.0 0.0 -1.368360087598e+02 
-9.891586009656e+01 1.896187776085e+01 0.0 
1.896187776085e+01 -2.375743195924e+02 0.0 
0.0 0.0 -1.005470539067e+02 
-8.103347498968e+01 2.060049502066e+00 0.0 
2.060049502066e+00 -2.410566734527e+02 0.0 
0.0 0.0 -9.622704453270e+01 
-5.826292905777e+01 5.072552104634e+00 0.0 
5.072552104634e+00 -1.005939771289e+02 0.0 
0.0 0.0 -4.725707185599e+01 
-1.003019784909e+02 -2.892177170666e+00 0.0 
-2.892177170666e+00 -2.514000645802e+02 0.0 
0.0 0.0 -1.051106129213e+02 
-1.019846887546e+02 1.683759246486e+01 0.0 
1.683759246486e+01 -2.220294227945e+02 0.0 
0.0 0.0 -9.680423346473e+01 
-1.330925005559e+02 9.236035120741e+00 0.0 
9.236035120741e+00 -3.062242965855e+02 0.0 
0.0 0.0 -1.313950391424e+02 
-1.327456643865e+02 9.174404053014e+00 0.0 
9.174404053014e+00 -3.371114432337e+02 0.0 
0.0 0.0 -1.405571322861e+02 
-1.015267810369e+02 8.320367956492e+00 0.0 
8.320367956492e+00 -2.073699955319e+02 0.0 
0.0 0.0 -9.226903297064e+01 
-9.647600730445e+01 -3.164609920433e+00 0.0 
-3.164609920433e+00 -2.394789798195e+02 0.0 
0.0 0.0 -1.003864961372e+02 
-1.042220748111e+02 1.606055691663e+01 0.0 
1.606055691663e+01 -2.721564704603e+02 0.0 
0.0 0.0 -1.125135635814e+02 
-1.842856382897e+01 -8.294319658477e-01 0.0 
-8.294319658477e-01 -5.036669664669e+01 0.0 
0.0 0.0 -2.023857814270e+01 
-6.334583521137e+01 7.321174540864e+00 0.0 
7.321174540864e+00 -1.109756159184e+02 0.0 
0.0 0.0 -5.189643533893e+01 
-1.006741227874e+02 -2.503058532512e+00 0.0 
-2.503058532512e+00 -2.471801856996e+02 0.0 
0.0 0.0 -1.039562925461e+02 
-4.762492497497e+01 3.536891628679e+00 0.0 
3.536891628679e+00 -1.794007301769e+02 0.0 
0.0 0.0 -6.770769654555e+01 
-8.606387036350e+01 8.398888547571e-01 0.0 
8.398888547571e-01 -2.486013443706e+02 0.0 
0.0 0.0 -9.999956442024e+01 
-1.423325756470e+02 1.693533022676e+01 0.0 
1.693533022676e+01 -3.454771960749e+02 0.0 
0.0 0.0 -1.459429315166e+02 
-1.048180140244e+02 -1.909990317737e+00 0.0 
-1.909990317737e+00 -2.550640059956e+02 0.0 
0.0 0.0 -1.075646060060e+02 
-5.518808148614e+01 4.390290971078e+00 0.0 
4.390290971078e+00 -1.938958962027e+02 0.0 
0.0 0.0 -7.432519330666e+01 
-1.088954991316e+02 -1.389272694834e+00 0.0 
-1.389272694834e+00 -2.630620639989e+02 0.0 
0.0 0.0 -1.111872689392e+02 
-5.032220521070e+01 6.541718506368e+00 0.0 
6.541718506368e+00 -8.162090158710e+01 0.0 
0.0 0.0 -3.918293203934e+01 
-1.056312294833e+02 9.779687005401e+00 0.0 
9.779687005401e+00 -2.182682349295e+02 0.0 
0.0 0.0 -9.676983932383e+01 
-1.129354607881e+02 -9.207842033234e-01 0.0 
-9.207842033234e-01 -2.711233287031e+02 0.0 
0.0 0.0 -1.148176368474e+02 
-1.094699512720e+02 1.692364241234e+01 0.0 
1.692364241234e+01 -2.420766839663e+02 0.0 
0.0 0.0 -1.050639905715e+02 
-2.083274189808e+01 -1.582822486091e+00 0.0 
-1.582822486091e+00 -5.270780115479e+01 0.0 
0.0 0.0 -2.166216291586e+01 
-1.019910580544e+02 1.852938726435e+01 0.0 
1.852938726435e+01 -2.511672692239e+02 0.0 
0.0 0.0 -1.055474981835e+02 
-1.433383497430e+02 1.947059499249e-02 0.0 
1.947059499249e-02 -3.392543780276e+02 0.0 
0.0 0.0 -1.443778183312e+02 
-6.485450616315e+01 -9.004606073491e+00 0.0 
-9.004606073491e+00 -1.718862526537e+02 0.0 
0.0 0.0 -7.062222764507e+01 
-9.119123566331e+01 3.537601875711e-02 0.0 
3.537601875711e-02 -2.560689230473e+02 0.0 
0.0 0.0 -1.037780476132e+02 
-1.129198252959e+02 1.079384090331e+01 0.0 
1.079384090331e+01 -2.388762990773e+02 0.0 
0.0 0.0 -1.051388373119e+02 
-4.238582904299e+01 8.878546571841e+00 0.0 
8.878546571841e+00 -6.267842357946e+01 0.0 
0.0 0.0 -3.111927578674e+01 
-1.000227763607e+02 1.458811840937e+00 0.0 
1.458811840937e+00 -2.738964678740e+02 0.0 
0.0 0.0 -1.117757732704e+02 
-1.169755811229e+02 1.712557075613e+01 0.0 
1.712557075613e+01 -2.620458844543e+02 0.0 
0.0 0.0 -1.133064396732e+02 
-1.053543704937e+02 1.780650997815e+01 0.0 
1.780650997815e+01 -2.644411281291e+02 0.0 
0.0 0.0 -1.105386495868e+02 
-8.652718094037e+01 1.696961335467e+01 0.0 
1.696961335467e+01 -2.363488795137e+02 0.0 
0.0 0.0 -9.646281813622e+01 
-1.092927307517e+02 2.778258051445e+00 0.0 
2.778258051445e+00 -2.920797214255e+02 0.0 
0.0 0.0 -1.200117356532e+02 
-4.819848590099e+01 1.328576162018e+01 0.0 
1.328576162018e+01 -7.588170383086e+01 0.0 
0.0 0.0 -3.682405691956e+01 
-5.173651259920e+01 -8.476608571025e+00 0.0 
-8.476608571025e+00 -1.239015688676e+02 0.0 
0.0 0.0 -5.229142444004e+01 
-4.490861971007e+01 -8.106472492860e+00 0.0 
-8.106472492860e+00 -1.031722081895e+02 0.0 
0.0 0.0 -4.402424836987e+01 
-5.979021908744e+01 1.442192142874e+00 0.0 
1.442192142874e+00 -2.014543239573e+02 0.0 
0.0 0.0 -7.797336291341e+01 
-1.208385385219e+02 1.664723578217e+01 0.0 
1.664723578217e+01 -2.691460708298e+02 0.0 
0.0 0.0 -1.165953828055e+02 
-2.586036766381e+01 -6.367761395255e-01 0.0 
-6.367761395255e-01 -6.691565906591e+01 0.0 
0.0 0.0 -2.743280801891e+01 
-1.134381927597e+02 1.266679782653e+01 0.0 
1.266679782653e+01 -2.409554969367e+02 0.0 
0.0 0.0 -1.059181069089e+02 
-3.606522446193e+01 -7.971876679728e+00 0.0 
-7.971876679728e+00 -7.490023535581e+01 0.0 
0.0 0.0 -3.276955428139e+01 
-5.712370189965e+01 -2.445056877643e+00 0.0 
-2.445056877643e+00 -1.926195328229e+02 0.0 
0.0 0.0 -7.452297041678e+01 
-1.186064820975e+02 1.681115038034e+01 0.0 
1.681115038034e+01 -2.966271365156e+02 0.0 
0.0 0.0 -1.241700855839e+02 
-8.751648725132e+01 3.774050395915e-01 0.0 
3.774050395915e-01 -1.879413053931e+02 0.0 
0.0 0.0 -8.223733779331e+01 
-6.213989159612e+01 -4.117712234320e+00 0.0 
-4.117712234320e+00 -1.983907371337e+02 0.0 
0.0 0.0 -7.775918861896e+01 
-4.616564467640e+01 -5.403103365139e-01 0.0 
-5.403103365139e-01 -1.110899270859e+02 0.0 
0.0 0.0 -4.677667152869e+01 
-6.010656118541e+01 -7.127998852361e+00 0.0 
-7.127998852361e+00 -1.872354414946e+02 0.0 
0.0 0.0 -7.380260080400e+01 
-9.521787274541e+01 1.640135023546e+01 0.0 
1.640135023546e+01 -2.540653758960e+02 0.0 
0.0 0.0 -1.043849745924e+02 
-6.500265421593e+01 -7.408942528175e+00 0.0 
-7.408942528175e+00 -1.924520376963e+02 0.0 
0.0 0.0 -7.683640757368e+01 
-6.302300927852e+01 -9.128181024735e+00 0.0 
-9.128181024735e+00 -1.798443072570e+02 0.0 
0.0 0.0 -7.246019496065e+01 
-1.233624768915e+02 2.893455137858e+00 0.0 
2.893455137858e+00 -2.819727697696e+02 0.0 
0.0 0.0 -1.212005739983e+02 
-6.741915535392e+01 -8.448637489293e+00 0.0 
-8.448637489293e+00 -1.852706076572e+02 0.0 
0.0 0.0 -7.540692890334e+01 
-1.297058969654e+02 8.877956140641e-01 0.0 
8.877956140641e-01 -3.004693326909e+02 0.0 
0.0 0.0 -1.286525688969e+02 
-1.623952857299e+02 2.473497750829e-01 0.0 
2.473497750829e-01 -3.813386519163e+02 0.0 
0.0 0.0 -1.627201812939e+02 
-7.160863547920e+01 2.189581757850e-01 0.0 
2.189581757850e-01 -1.489120267019e+02 0.0 
0.0 0.0 -6.575619865435e+01 
-3.376159848627e+01 1.094844550286e+01 0.0 
1.094844550286e+01 -4.305738712072e+01 0.0 
0.0 0.0 -2.264569568210e+01 
-6.918816224500e+01 1.264455439455e+00 0.0 
1.264455439455e+00 -1.116272218846e+02 0.0 
0.0 0.0 -5.512436380208e+01 
-4.224295300073e+01 1.990921852364e+01 0.0 
1.990921852364e+01 -6.493837130334e+01 0.0 
0.0 0.0 -3.175439729122e+01 
-5.852794928333e+01 -1.025347886579e+01 0.0 
-1.025347886579e+01 -1.524521279729e+02 0.0 
0.0 0.0 -6.289402317687e+01 
-1.135007244261e+02 1.450430674128e+01 0.0 
1.450430674128e+01 -2.440774404912e+02 0.0 
0.0 0.0 -1.068734494752e+02 
-7.204792941388e+01 1.345118903997e-01 0.0 
1.345118903997e-01 -1.496698816840e+02 0.0 
0.0 0.0 -6.611534332937e+01 
-5.557077211883e+01 -9.687805578533e+00 0.0 
-9.687805578533e+00 -1.382470906774e+02 0.0 
0.0 0.0 -5.774535883886e+01 
-1.340948948893e+02 1.577781742297e+01 0.0 
1.577781742297e+01 -3.033877991399e+02 0.0 
0.0 0.0 -1.308448082088e+02 
-1.495814129710e+02 2.030546333614e+01 0.0 
2.030546333614e+01 -3.521918658443e+02 0.0 
0.0 0.0 -1.501319836446e+02 
-9.879470239864e+01 6.041329487873e-01 0.0 
6.041329487873e-01 -2.166327296096e+02 0.0 
0.0 0.0 -9.422822960246e+01 
-1.319808399684e+02 1.171264378331e+01 0.0 
1.171264378331e+01 -3.343917373058e+02 0.0 
0.0 0.0 -1.395117731822e+02 
-1.093080736962e+02 1.691189196887e+01 0.0 
1.691189196887e+01 -2.778055923568e+02 0.0 
0.0 0.0 -1.157340998159e+02 
-1.162712858312e+02 4.908759051731e-01 0.0 
4.908759051731e-01 -2.637356654863e+02 0.0 
0.0 0.0 -1.136020853953e+02 
-6.572562416865e+01 4.864258724794e-01 0.0 
4.864258724794e-01 -1.326275620693e+02 0.0 
0.0 0.0 -5.910595587139e+01 
-1.897338331574e+01 -3.600302473700e+00 0.0 
-3.600302473700e+00 -3.414901896270e+01 0.0 
0.0 0.0 -1.549733680967e+01 
-1.214910139595e+02 -2.499725939071e-01 0.0 
-2.499725939071e-01 -2.895585269142e+02 0.0 
0.0 0.0 -1.229148622621e+02 
-3.005684504113e+01 1.623816582871e+01 0.0 
1.623816582871e+01 -3.000591758320e+01 0.0 
0.0 0.0 -1.761882878730e+01 
-3.612724821856e+01 2.438695744987e+01 0.0 
2.438695744987e+01 -5.647575445835e+01 0.0 
0.0 0.0 -2.738090080307e+01 
-3.560492551644e+01 2.723628391418e+01 0.0 
2.723628391418e+01 -5.760459007941e+01 0.0 
0.0 0.0 -2.642099761072e+01 
-5.775559051902e+01 -1.837749189550e+00 0.0 
-1.837749189550e+00 -1.379648245375e+02 0.0 
0.0 0.0 -5.831612451696e+01 
-3.666573060180e+01 -1.543131316875e+01 0.0 
-1.543131316875e+01 -5.975372744085e+01 0.0 
0.0 0.0 -2.717033654366e+01 
-3.307589040982e+01 2.288977098931e+01 0.0 
2.288977098931e+01 -3.487860648518e+01 0.0 
0.0 0.0 -1.970440602176e+01 
-1.463663408578e+02 1.384793598709e+01 0.0 
1.384793598709e+01 -3.578122757799e+02 0.0 
0.0 0.0 -1.508535849913e+02 
-7.503676179627e+01 1.444187682319e+00 0.0 
1.444187682319e+00 -1.507072155812e+02 0.0 
0.0 0.0 -6.732319321325e+01 
-1.231859710631e+02 1.754531762715e+01 0.0 
1.754531762715e+01 -3.020061398377e+02 0.0 
0.0 0.0 -1.271576332702e+02 
-3.524532207994e+01 2.569568284194e+01 0.0 
2.569568284194e+01 -3.699926805131e+01 0.0 
0.0 0.0 -1.969758449240e+01 
-1.265925390037e+02 7.459599319431e+00 0.0 
7.459599319431e+00 -2.865322010591e+02 0.0 
0.0 0.0 -1.235374220188e+02 
-1.427238469302e+02 1.848057744164e+01 0.0 
1.848057744164e+01 -3.417843599279e+02 0.0 
0.0 0.0 -1.449524620574e+02 
-1.626962493128e+02 2.913634321893e+00 0.0 
2.913634321893e+00 -3.850193185209e+02 0.0 
0.0 0.0 -1.639146703501e+02 
-1.324756787010e+02 1.779185279950e+01 0.0 
1.779185279950e+01 -3.211414358028e+02 0.0 
0.0 0.0 -1.356851343512e+02 
-3.692959011079e+01 3.028331515553e+01 0.0 
3.028331515553e+01 -6.197776459777e+01 0.0 
0.0 0.0 -2.838716420949e+01 
-8.489653791766e+01 3.645858323908e+00 0.0 
3.645858323908e+00 -1.689276727920e+02 0.0 
0.0 0.0 -7.574726321289e+01 
-1.382511522906e+02 1.901016935832e+01 0.0 
1.901016935832e+01 -3.194014008142e+02 0.0 
0.0 0.0 -1.368957659314e+02 
-1.050727345909e+02 9.548406075469e-01 0.0 
9.548406075469e-01 -2.323807257346e+02 0.0 
0.0 0.0 -1.008360380977e+02 
-1.637152577025e+02 1.580079494585e+00 0.0 
1.580079494585e+00 -3.857302080223e+02 0.0 
0.0 0.0 -1.644336397174e+02 
-7.541694395081e+01 1.788434590105e+00 0.0 
1.788434590105e+00 -1.488607618107e+02 0.0 
0.0 0.0 -6.688331172846e+01 
-1.239130335486e+02 1.820049781261e+00 0.0 
1.820049781261e+00 -2.842972797680e+02 0.0 
0.0 0.0 -1.220630939950e+02 
-3.181573996634e+01 -1.575254551386e+01 0.0 
-1.575254551386e+01 -1.235041869135e+02 0.0 
0.0 0.0 -4.716598597379e+01 
-1.238125158470e+02 8.835669438332e-01 0.0 
8.835669438332e-01 -2.843715332426e+02 0.0 
0.0 0.0 -1.220552147269e+02 
-1.206607457338e+02 1.521969227452e+01 0.0 
1.521969227452e+01 -2.644589894184e+02 0.0 
0.0 0.0 -1.151359205457e+02 
-8.245431236969e+01 5.829069651971e-01 0.0 
5.829069651971e-01 -1.737797029636e+02 0.0 
0.0 0.0 -7.647020460000e+01 
-8.624494897625e+01 4.731735088982e+00 0.0 
4.731735088982e+00 -1.695384280957e+02 0.0 
0.0 0.0 -7.633501312159e+01 
-1.566173945811e+02 3.090487381997e-01 0.0 
3.090487381997e-01 -3.687771362240e+02 0.0 
0.0 0.0 -1.572183592415e+02 
-1.317269671525e+02 1.369179935298e+01 0.0 
1.369179935298e+01 -2.971492305532e+02 0.0 
0.0 0.0 -1.282628593117e+02 
-3.720826834233e+01 3.260527900865e+01 0.0 
3.260527900865e+01 -6.981941350037e+01 0.0 
0.0 0.0 -3.196260754891e+01 
-9.870546216116e+01 6.671703075741e-01 0.0 
6.671703075741e-01 -2.155862074158e+02 0.0 
0.0 0.0 -9.388750087308e+01 
-7.208556149730e+01 -2.537852162004e+00 0.0 
-2.537852162004e+00 -1.728912338743e+02 0.0 
0.0 0.0 -7.309303861147e+01 
-4.119160607500e+01 -1.854884599436e+01 0.0 
-1.854884599436e+01 -1.075094838833e+02 0.0 
0.0 0.0 -4.589651194942e+01 
-1.532409697327e+02 3.813891075394e+00 0.0 
3.813891075394e+00 -3.690953824798e+02 0.0 
0.0 0.0 -1.563009056637e+02 
-1.271567456916e+02 1.592883113116e+01 0.0 
1.592883113116e+01 -2.836758606206e+02 0.0 
0.0 0.0 -1.228497818937e+02 
-1.557123651277e+02 5.263016227973e-01 0.0 
5.263016227973e-01 -3.680222606548e+02 0.0 
0.0 0.0 -1.567203877347e+02 
-1.722424433444e+01 -2.412143098579e-01 0.0 
-2.412143098579e-01 -4.982920795434e+01 0.0 
0.0 0.0 -1.971603568663e+01 
-1.330272485663e+01 -1.580900398785e+00 0.0 
-1.580900398785e+00 -3.140171076133e+01 0.0 
0.0 0.0 -1.306469030750e+01 
-1.535644207966e+02 5.927351388412e+00 0.0 
5.927351388412e+00 -3.714096347288e+02 0.0 
0.0 0.0 -1.570922166576e+02 
-1.367767201665e+02 1.761890593095e+01 0.0 
1.761890593095e+01 -3.122943104071e+02 0.0 
0.0 0.0 -1.343213091721e+02 
-3.676361579467e+01 -1.780160761585e+01 0.0 
-1.780160761585e+01 -1.200639541023e+02 0.0 
0.0 0.0 -4.637505243614e+01 
-1.323218149834e+02 6.422495273263e+00 0.0 
6.422495273263e+00 -3.059852664492e+02 0.0 
0.0 0.0 -1.310921244298e+02 
-4.065294393212e+01 3.326755550923e+01 0.0 
3.326755550923e+01 -7.644514227748e+01 0.0 
0.0 0.0 -3.606567784445e+01 
-6.562527292855e+01 3.687639806829e-01 0.0 
3.687639806829e-01 -1.306538525034e+02 0.0 
0.0 0.0 -5.848373762958e+01 
-1.103781282036e+01 -7.773025034469e-01 0.0 
-7.773025034469e-01 -3.225038799359e+01 0.0 
0.0 0.0 -1.266335003862e+01 
-1.636035889538e+02 1.353695225497e+00 0.0 
1.353695225497e+00 -3.849180507336e+02 0.0 
0.0 0.0 -1.641564919062e+02 
-1.254166177816e+02 4.580909199167e+00 0.0 
4.580909199167e+00 -2.863867082569e+02 0.0 
0.0 0.0 -1.231409978115e+02 
-7.944932757659e+01 -1.795520228128e+00 0.0 
-1.795520228128e+00 -1.899507048031e+02 0.0 
0.0 0.0 -8.042000971391e+01 
-7.283634077576e+01 2.973915143625e+00 0.0 
2.973915143625e+00 -1.381828286583e+02 0.0 
0.0 0.0 -6.290575083022e+01 
-5.218532349908e+01 -1.199206076097e+00 0.0 
-1.199206076097e+00 -1.247647830399e+02 0.0 
0.0 0.0 -5.268503196168e+01 
-1.346997165500e+02 1.877090211359e+01 0.0 
1.877090211359e+01 -3.172844358123e+02 0.0 
0.0 0.0 -1.351952457087e+02 
-2.831488645938e+01 -6.989977102119e+00 0.0 
-6.989977102119e+00 -4.917744360991e+01 0.0 
0.0 0.0 -2.221602222693e+01 
-1.254832869885e+02 3.499688605949e+00 0.0 
3.499688605949e+00 -2.877077106468e+02 0.0 
0.0 0.0 -1.235572992906e+02 
-1.526005957227e+02 8.476980661667e+00 0.0 
8.476980661667e+00 -3.706172058198e+02 0.0 
0.0 0.0 -1.565653404628e+02 
-1.299652196089e+02 1.015087609390e+01 0.0 
1.015087609390e+01 -2.942273519130e+02 0.0 
0.0 0.0 -1.268577714566e+02 
-1.567348272049e+02 1.718985390498e+01 0.0 
1.718985390498e+01 -3.723816831087e+02 0.0 
0.0 0.0 -1.583349530941e+02 
-4.637154730492e+01 1.083049758612e+01 0.0 
1.083049758612e+01 -1.163735170677e+02 0.0 
0.0 0.0 -5.029109826038e+01 
-1.442324578757e+02 1.933840888782e+01 0.0 
1.933840888782e+01 -3.424568890918e+02 0.0 
0.0 0.0 -1.456068040903e+02 
-1.413934055810e+02 9.774902932290e+00 0.0 
9.774902932290e+00 -3.520167332369e+02 0.0 
0.0 0.0 -1.476230416454e+02 
-6.518227757432e+01 -2.987128280922e-02 0.0 
-2.987128280922e-02 -1.323893002213e+02 0.0 
0.0 0.0 -5.887147333869e+01 
-1.306282752830e+02 1.179946209696e+01 0.0 
1.179946209696e+01 -2.946131986636e+02 0.0 
0.0 0.0 -1.271724421840e+02 
-6.466403487391e+01 -1.902435725339e+00 0.0 
-1.902435725339e+00 -1.541042373572e+02 0.0 
0.0 0.0 -6.523048166934e+01 
-2.688883122302e+01 -1.663019687316e+00 0.0 
-1.663019687316e+00 -6.608755475630e+01 0.0 
0.0 0.0 -2.749291579379e+01 
-1.303780986898e+02 5.296554629587e-01 0.0 
5.296554629587e-01 -3.024972231126e+02 0.0 
0.0 0.0 -1.294625965407e+02 
-2.568865736848e+00 -5.657334313757e-02 0.0 
-5.657334313757e-02 -1.415890086323e+01 0.0 
0.0 0.0 -3.960259230509e+00 
-6.415981681246e+01 1.088918389815e-01 0.0 
1.088918389815e-01 -1.312658999530e+02 0.0 
0.0 0.0 -5.822771502964e+01 
-1.643303590419e+02 -6.465523195852e-02 0.0 
-6.465523195852e-02 -3.854575856926e+02 0.0 
0.0 0.0 -1.645363834203e+02 
-2.455856221926e+01 -9.822708359078e-01 0.0 
-9.822708359078e-01 -6.307591279262e+01 0.0 
0.0 0.0 -2.589034250356e+01 
-7.767227139411e+01 3.143197220500e-01 0.0 
3.143197220500e-01 -1.633051851687e+02 0.0 
0.0 0.0 -7.189323696883e+01 
-1.361206154973e+02 1.689690276608e+01 0.0 
1.689690276608e+01 -3.097035421525e+02 0.0 
0.0 0.0 -1.333472472949e+02 
-9.746475447324e+01 -3.873491935870e-01 0.0 
-3.873491935870e-01 -2.329032026358e+02 0.0 
0.0 0.0 -9.871038713270e+01 
-1.121493458975e+02 9.425009146735e-01 0.0 
9.425009146735e-01 -2.523332381557e+02 0.0 
0.0 0.0 -1.089447752160e+02 
-4.085091048228e+01 -1.901456299161e+01 0.0 
-1.901456299161e+01 -8.032838763615e+01 0.0 
0.0 0.0 -3.454129208006e+01 
-7.105434911207e+01 -7.199912736915e+00 0.0 
-7.199912736915e+00 -1.084982481070e+02 0.0 
0.0 0.0 -5.461130208342e+01 
-9.169728190165e+01 5.526575936569e-01 0.0 
5.526575936569e-01 -1.983101601390e+02 0.0 
0.0 0.0 -8.660223261218e+01 
-1.453245424775e+02 1.782205952652e+01 0.0 
1.782205952652e+01 -3.493028245890e+02 0.0 
0.0 0.0 -1.479882101199e+02 
-1.288791801568e+02 8.400885217805e+00 0.0 
8.400885217805e+00 -2.928246119389e+02 0.0 
0.0 0.0 -1.261111376287e+02 
-8.665781717631e+01 5.478130552379e-01 0.0 
5.478130552379e-01 -1.846116736777e+02 0.0 
0.0 0.0 -8.098084725620e+01 
-3.297168397181e+01 2.937804380047e+01 0.0 
2.937804380047e+01 -9.137914950386e+01 0.0 
0.0 0.0 -3.749451673825e+01 
-1.325644077840e+02 1.662605174867e+01 0.0 
1.662605174867e+01 -2.994183498400e+02 0.0 
0.0 0.0 -1.291948272872e+02 
-8.592791965498e+01 -1.550288759480e+00 0.0 
-1.550288759480e+00 -2.053309642741e+02 0.0 
0.0 0.0 -8.697766517871e+01 
-1.340271806734e+02 1.877889195253e+01 0.0 
1.877889195253e+01 -3.095861192118e+02 0.0 
0.0 0.0 -1.326839899656e+02 
-1.400691576062e+02 1.250361199121e+01 0.0 
1.250361199121e+01 -3.482976269446e+02 0.0 
0.0 0.0 -1.461100353652e+02 
-4.752727979627e+01 3.306731438549e+01 0.0 
3.306731438549e+01 -5.939441838738e+01 0.0 
0.0 0.0 -3.281467535459e+01 
-1.047451612796e+02 -3.260825980545e-01 0.0 
-3.260825980545e-01 -2.503229678181e+02 0.0 
0.0 0.0 -1.061204387293e+02 
-1.065433223968e+01 -7.937207655412e-01 0.0 
-7.937207655412e-01 -3.017830697813e+01 0.0 
0.0 0.0 -1.187407284075e+01 
-1.565189900327e+02 2.321721709997e+00 0.0 
2.321721709997e+00 -3.728520025094e+02 0.0 
0.0 0.0 -1.584112977626e+02 
-8.941445684354e+01 -9.828820619383e-01 0.0 
-9.828820619383e-01 -2.138020621180e+02 0.0 
0.0 0.0 -9.056495568847e+01 
-1.435890348756e+01 4.339784654360e+00 0.0 
4.339784654360e+00 -7.694557690147e+00 0.0 
0.0 0.0 -6.183625418076e+00 
-1.251223342332e+01 8.055123717196e-02 0.0 
8.055123717196e-02 -1.044458886348e+01 0.0 
0.0 0.0 -6.487046686040e+00 
-2.444527530731e+01 4.812480862098e+00 0.0 
4.812480862098e+00 -2.980017331405e+01 0.0 
0.0 0.0 -1.587363458641e+01 
-2.004415653182e+01 -4.124141552609e-02 0.0 
-4.124141552609e-02 -2.891729087939e+01 0.0 
0.0 0.0 -1.428843422336e+01 
-3.387732916463e+01 4.004951674361e+00 0.0 
4.004951674361e+00 -4.969320189238e+01 0.0 
0.0 0.0 -2.467115931710e+01 
-2.893744443647e+01 -4.147564149173e-02 0.0 
-4.147564149173e-02 -4.951960056716e+01 0.0 
0.0 0.0 -2.313711350109e+01 
-4.313282835983e+01 3.212884217431e+00 0.0 
3.212884217431e+00 -6.945132031914e+01 0.0 
0.0 0.0 -3.337524460369e+01 
-3.694919141270e+01 -3.048232022563e-02 0.0 
-3.048232022563e-02 -6.794330706513e+01 0.0 
0.0 0.0 -3.106774954335e+01 
-5.187132566804e+01 2.647521009495e+00 0.0 
2.647521009495e+00 -8.885795965882e+01 0.0 
0.0 0.0 -4.181878559806e+01 
-4.592166587806e+01 -7.215314159826e-02 0.0 
-7.215314159826e-02 -8.855168373092e+01 0.0 
0.0 0.0 -3.994200488269e+01 
-6.020227019847e+01 2.365809182486e+00 0.0 
2.365809182486e+00 -1.083424244832e+02 0.0 
0.0 0.0 -5.016340840452e+01 
-5.372248278089e+01 -1.634763062396e-01 0.0 
-1.634763062396e-01 -1.069370605814e+02 0.0 
0.0 0.0 -4.779786300868e+01 

TENSORS node_materi_strain_total float
6.712016886531e-04 8.610345207537e-07 0.0 
8.610345207537e-07 -1.802915006276e-04 0.0 
0.0 0.0 0.0 
-6.253250604731e-04 -1.763135043130e-05 0.0 
-1.763135043130e-05 8.309124438948e-03 0.0 
0.0 0.0 0.0 
-7.997147959515e-06 8.420671856570e-06 0.0 
8.420671856570e-06 7.604388386310e-03 0.0 
0.0 0.0 0.0 
-4.383015031262e-05 1.154882233775e-05 0.0 
1.154882233775e-05 1.196050474293e-02 0.0 
0.0 0.0 0.0 
5.127977448384e-04 -6.367063113861e-06 0.0 
-6.367063113861e-06 8.511862960351e-05 0.0 
0.0 0.0 0.0 
3.291020363400e-04 4.774148485885e-06 0.0 
4.774148485885e-06 5.750470195157e-04 0.0 
0.0 0.0 0.0 
1.680980478062e-04 -6.330319341758e-06 0.0 
-6.330319341758e-06 1.019112987455e-03 0.0 
0.0 0.0 0.0 
4.303376655401e-05 -1.360344833182e-05 0.0 
-1.360344833182e-05 1.497388803570e-03 0.0 
0.0 0.0 0.0 
-6.199899317320e-05 -2.323805315824e-05 0.0 
-2.323805315824e-05 1.938059551415e-03 0.0 
0.0 0.0 0.0 
-1.266894567140e-04 -2.697588959169e-05 0.0 
-2.697588959169e-05 2.348027501665e-03 0.0 
0.0 0.0 0.0 
-1.656081772490e-04 -2.910843355918e-05 0.0 
-2.910843355918e-05 2.740323924856e-03 0.0 
0.0 0.0 0.0 
-1.826145514672e-04 -3.213898555795e-05 0.0 
-3.213898555795e-05 3.117677313138e-03 0.0 
0.0 0.0 0.0 
-1.802760757754e-04 -3.216168357482e-05 0.0 
-3.216168357482e-05 3.486253070461e-03 0.0 
0.0 0.0 0.0 
-1.693209864821e-04 -2.762671498391e-05 0.0 
-2.762671498391e-05 3.855114491882e-03 0.0 
0.0 0.0 0.0 
-1.546558453334e-04 -1.560808575445e-05 0.0 
-1.560808575445e-05 4.234383488232e-03 0.0 
0.0 0.0 0.0 
-1.303108151897e-04 -4.804843882239e-06 0.0 
-4.804843882239e-06 4.605869386965e-03 0.0 
0.0 0.0 0.0 
-1.048507120911e-04 3.016821422701e-07 0.0 
3.016821422701e-07 4.951056540733e-03 0.0 
0.0 0.0 0.0 
-8.666271181623e-05 -1.323564264084e-05 0.0 
-1.323564264084e-05 5.333671336437e-03 0.0 
0.0 0.0 0.0 
-7.035904113691e-05 -8.638304393497e-06 0.0 
-8.638304393497e-06 5.738062907010e-03 0.0 
0.0 0.0 0.0 
-5.872289830366e-05 -3.738503365417e-06 0.0 
-3.738503365417e-06 6.139066646042e-03 0.0 
0.0 0.0 0.0 
-5.003332724159e-05 -6.723963612935e-07 0.0 
-6.723963612935e-07 6.550301938434e-03 0.0 
0.0 0.0 0.0 
-4.085934875379e-05 4.360529048705e-06 0.0 
4.360529048705e-06 6.969382722693e-03 0.0 
0.0 0.0 0.0 
-2.490469108311e-05 8.965945503446e-06 0.0 
8.965945503446e-06 7.369205161717e-03 0.0 
0.0 0.0 0.0 
-3.090794688680e-05 6.758829728652e-05 0.0 
6.758829728652e-05 1.197333120138e-02 0.0 
0.0 0.0 0.0 
-3.571605961990e-05 1.246049595473e-04 0.0 
1.246049595473e-04 1.195060895774e-02 0.0 
0.0 0.0 0.0 
-3.554914036297e-05 1.759659346397e-04 0.0 
1.759659346397e-04 1.195059790151e-02 0.0 
0.0 0.0 0.0 
-3.530977757893e-05 2.536308181504e-04 0.0 
2.536308181504e-04 1.193926673073e-02 0.0 
0.0 0.0 0.0 
-4.379886169115e-05 3.106884806625e-04 0.0 
3.106884806625e-04 1.191599670478e-02 0.0 
0.0 0.0 0.0 
-3.971996041715e-05 3.845255916129e-04 0.0 
3.845255916129e-04 1.191069669734e-02 0.0 
0.0 0.0 0.0 
-4.365805562778e-05 4.621495377485e-04 0.0 
4.621495377485e-04 1.188868202877e-02 0.0 
0.0 0.0 0.0 
-4.718458734983e-05 5.442930546355e-04 0.0 
5.442930546355e-04 1.185272542692e-02 0.0 
0.0 0.0 0.0 
-4.840197946876e-05 6.234868985694e-04 0.0 
6.234868985694e-04 1.182898240234e-02 0.0 
0.0 0.0 0.0 
-4.578903631810e-05 7.243386451927e-04 0.0 
7.243386451927e-04 1.178268097300e-02 0.0 
0.0 0.0 0.0 
-5.992887561361e-05 8.117254232275e-04 0.0 
8.117254232275e-04 1.172232216643e-02 0.0 
0.0 0.0 0.0 
-5.581141945976e-05 9.172433413623e-04 0.0 
9.172433413623e-04 1.166801525104e-02 0.0 
0.0 0.0 0.0 
-6.026323046930e-05 1.028207630981e-03 0.0 
1.028207630981e-03 1.159221229685e-02 0.0 
0.0 0.0 0.0 
-5.958075442747e-05 1.138160864129e-03 0.0 
1.138160864129e-03 1.149757573114e-02 0.0 
0.0 0.0 0.0 
-6.691569896774e-05 1.250134736661e-03 0.0 
1.250134736661e-03 1.138953871576e-02 0.0 
0.0 0.0 0.0 
-6.579910996522e-05 1.364479413568e-03 0.0 
1.364479413568e-03 1.125614368762e-02 0.0 
0.0 0.0 0.0 
-7.141002884429e-05 1.478556973962e-03 0.0 
1.478556973962e-03 1.111395055570e-02 0.0 
0.0 0.0 0.0 
-6.919849789870e-05 1.600326573286e-03 0.0 
1.600326573286e-03 1.095478496239e-02 0.0 
0.0 0.0 0.0 
-6.138739515849e-05 1.710170159629e-03 0.0 
1.710170159629e-03 1.077814185504e-02 0.0 
0.0 0.0 0.0 
-5.001141472546e-05 1.813048750877e-03 0.0 
1.813048750877e-03 1.058268257821e-02 0.0 
0.0 0.0 0.0 
-3.833514516105e-05 1.902228649782e-03 0.0 
1.902228649782e-03 1.035727539491e-02 0.0 
0.0 0.0 0.0 
-3.625608577203e-05 1.971976185825e-03 0.0 
1.971976185825e-03 1.011641752828e-02 0.0 
0.0 0.0 0.0 
-2.082273508608e-05 2.024106741394e-03 0.0 
2.024106741394e-03 9.860212508194e-03 0.0 
0.0 0.0 0.0 
-8.206380212520e-06 2.050765270822e-03 0.0 
2.050765270822e-03 9.592893155517e-03 0.0 
0.0 0.0 0.0 
3.911801056707e-06 2.053749581311e-03 0.0 
2.053749581311e-03 9.324624393701e-03 0.0 
0.0 0.0 0.0 
2.064054957203e-05 2.033062858586e-03 0.0 
2.033062858586e-03 9.057679531326e-03 0.0 
0.0 0.0 0.0 
3.176234709142e-05 1.980748986411e-03 0.0 
1.980748986411e-03 8.792264920909e-03 0.0 
0.0 0.0 0.0 
5.206920828823e-05 1.901873890167e-03 0.0 
1.901873890167e-03 8.537497352146e-03 0.0 
0.0 0.0 0.0 
5.949031836934e-05 1.796366072159e-03 0.0 
1.796366072159e-03 8.293789631870e-03 0.0 
0.0 0.0 0.0 
6.024605779661e-05 1.671995350760e-03 0.0 
1.671995350760e-03 8.098643335963e-03 0.0 
0.0 0.0 0.0 
7.701490269474e-05 1.538215316074e-03 0.0 
1.538215316074e-03 7.886626343532e-03 0.0 
0.0 0.0 0.0 
9.259501345649e-05 1.381018638422e-03 0.0 
1.381018638422e-03 7.687197119266e-03 0.0 
0.0 0.0 0.0 
9.384453125261e-05 1.202291122940e-03 0.0 
1.202291122940e-03 7.537060899167e-03 0.0 
0.0 0.0 0.0 
9.214591255950e-05 1.034484699535e-03 0.0 
1.034484699535e-03 7.442820257539e-03 0.0 
0.0 0.0 0.0 
9.270708711625e-05 8.710512188516e-04 0.0 
8.710512188516e-04 7.362232091990e-03 0.0 
0.0 0.0 0.0 
7.519300481085e-05 7.093819659660e-04 0.0 
7.093819659660e-04 7.312353914639e-03 0.0 
0.0 0.0 0.0 
8.205382448345e-05 5.668364167436e-04 0.0 
5.668364167436e-04 7.290703544259e-03 0.0 
0.0 0.0 0.0 
6.418846438350e-05 4.316959617359e-04 0.0 
4.316959617359e-04 7.275167644107e-03 0.0 
0.0 0.0 0.0 
6.731469800725e-05 3.163063769034e-04 0.0 
3.163063769034e-04 7.278584714754e-03 0.0 
0.0 0.0 0.0 
4.957120650095e-05 2.163131124292e-04 0.0 
2.163131124292e-04 7.294354597436e-03 0.0 
0.0 0.0 0.0 
3.732320981165e-05 1.360497288375e-04 0.0 
1.360497288375e-04 7.339000260036e-03 0.0 
0.0 0.0 0.0 
3.019732564461e-05 7.702886034561e-05 0.0 
7.702886034561e-05 7.404840062099e-03 0.0 
0.0 0.0 0.0 
2.548102030457e-05 2.910611247311e-05 0.0 
2.910611247311e-05 7.450505285161e-03 0.0 
0.0 0.0 0.0 
1.723296712797e-05 -6.302605610484e-06 0.0 
-6.302605610484e-06 7.433954621658e-03 0.0 
0.0 0.0 0.0 
1.099603739478e-05 -2.435824180099e-05 0.0 
-2.435824180099e-05 7.525145863220e-03 0.0 
0.0 0.0 0.0 
1.235198610801e-07 -3.295866987900e-05 0.0 
-3.295866987900e-05 7.538287793953e-03 0.0 
0.0 0.0 0.0 
-2.521063386015e-06 -3.848654691914e-05 0.0 
-3.848654691914e-05 7.574951468536e-03 0.0 
0.0 0.0 0.0 
-4.148267480260e-06 -2.306399142390e-05 0.0 
-2.306399142390e-05 7.611184216509e-03 0.0 
0.0 0.0 0.0 
-7.268480984276e-06 -1.575029432680e-05 0.0 
-1.575029432680e-05 7.621708010774e-03 0.0 
0.0 0.0 0.0 
-6.114885975567e-04 -1.050309290990e-05 0.0 
-1.050309290990e-05 8.733330840579e-03 0.0 
0.0 0.0 0.0 
-5.987382688896e-04 -9.662558426814e-06 0.0 
-9.662558426814e-06 9.150529449104e-03 0.0 
0.0 0.0 0.0 
-5.690876978927e-04 -7.231004063835e-06 0.0 
-7.231004063835e-06 9.552554390739e-03 0.0 
0.0 0.0 0.0 
-5.273803569024e-04 -5.238181411810e-06 0.0 
-5.238181411810e-06 9.937594387584e-03 0.0 
0.0 0.0 0.0 
-4.727691208208e-04 -1.181993262408e-06 0.0 
-1.181993262408e-06 1.032072837551e-02 0.0 
0.0 0.0 0.0 
-4.023854121003e-04 7.576990062834e-07 0.0 
7.576990062834e-07 1.069385626323e-02 0.0 
0.0 0.0 0.0 
-3.231487882890e-04 3.778010734352e-06 0.0 
3.778010734352e-06 1.105487286195e-02 0.0 
0.0 0.0 0.0 
-2.272381783727e-04 6.069552210580e-06 0.0 
6.069552210580e-06 1.140495560734e-02 0.0 
0.0 0.0 0.0 
-1.294005991365e-04 6.169008844727e-06 0.0 
6.169008844727e-06 1.175352233597e-02 0.0 
0.0 0.0 0.0 
-1.719498275730e-03 2.422715613555e-03 0.0 
2.422715613555e-03 -2.291190693571e-03 0.0 
0.0 0.0 0.0 
-1.015858637251e-03 3.037864530204e-04 0.0 
3.037864530204e-04 8.282316217563e-03 0.0 
0.0 0.0 0.0 
-1.578398446056e-03 2.725063284863e-03 0.0 
2.725063284863e-03 6.911486091496e-04 0.0 
0.0 0.0 0.0 
-1.432912104952e-03 2.518234479525e-03 0.0 
2.518234479525e-03 2.159254149713e-03 0.0 
0.0 0.0 0.0 
-1.470387164917e-03 2.306098575058e-03 0.0 
2.306098575058e-03 3.722837619937e-03 0.0 
0.0 0.0 0.0 
-1.448143675905e-03 1.505622785229e-03 0.0 
1.505622785229e-03 5.388223756901e-03 0.0 
0.0 0.0 0.0 
-1.044685706243e-03 8.658264839303e-04 0.0 
8.658264839303e-04 6.023474104364e-03 0.0 
0.0 0.0 0.0 
-9.994389988616e-04 6.869703933248e-04 0.0 
6.869703933248e-04 6.434380550822e-03 0.0 
0.0 0.0 0.0 
-1.013224310214e-03 5.323173892224e-04 0.0 
5.323173892224e-04 6.889249917109e-03 0.0 
0.0 0.0 0.0 
-1.028095370658e-03 4.138953110187e-04 0.0 
4.138953110187e-04 7.350129572661e-03 0.0 
0.0 0.0 0.0 
-1.027395664274e-03 3.414130000265e-04 0.0 
3.414130000265e-04 7.808234061320e-03 0.0 
0.0 0.0 0.0 
-5.853214942133e-04 -2.817815184848e-05 0.0 
-2.817815184848e-05 5.860362770928e-03 0.0 
0.0 0.0 0.0 
-5.713145086632e-04 -2.686610359127e-05 0.0 
-2.686610359127e-05 6.119778871614e-03 0.0 
0.0 0.0 0.0 
-5.742606955928e-04 -3.710296109327e-05 0.0 
-3.710296109327e-05 6.551926840790e-03 0.0 
0.0 0.0 0.0 
-5.893987982098e-04 -3.004604866370e-05 0.0 
-3.004604866370e-05 6.991567735531e-03 0.0 
0.0 0.0 0.0 
-6.039413023023e-04 -3.472313911333e-05 0.0 
-3.472313911333e-05 7.429445702098e-03 0.0 
0.0 0.0 0.0 
-6.138794467181e-04 -2.388374785196e-05 0.0 
-2.388374785196e-05 7.861381656812e-03 0.0 
0.0 0.0 0.0 
-6.203100522586e-04 7.194507049150e-06 0.0 
7.194507049150e-06 8.250421090240e-03 0.0 
0.0 0.0 0.0 
-6.234740615631e-04 -1.236586721380e-06 0.0 
-1.236586721380e-06 8.278239437857e-03 0.0 
0.0 0.0 0.0 
-6.342900863139e-04 -1.387634673451e-06 0.0 
-1.387634673451e-06 8.283441964141e-03 0.0 
0.0 0.0 0.0 
-6.464117632255e-04 -2.452716987627e-06 0.0 
-2.452716987627e-06 8.281463275156e-03 0.0 
0.0 0.0 0.0 
-6.594977923146e-04 5.616526479630e-06 0.0 
5.616526479630e-06 8.342204647865e-03 0.0 
0.0 0.0 0.0 
-6.787573754724e-04 5.514665600682e-06 0.0 
5.514665600682e-06 8.297395743007e-03 0.0 
0.0 0.0 0.0 
-7.001403245703e-04 9.146316484457e-06 0.0 
9.146316484457e-06 8.296670011742e-03 0.0 
0.0 0.0 0.0 
-7.235785277164e-04 2.025706019225e-05 0.0 
2.025706019225e-05 8.304414008208e-03 0.0 
0.0 0.0 0.0 
-7.583425382118e-04 3.270700011610e-05 0.0 
3.270700011610e-05 8.318826817379e-03 0.0 
0.0 0.0 0.0 
-7.927784601212e-04 5.223850016197e-05 0.0 
5.223850016197e-05 8.318166585172e-03 0.0 
0.0 0.0 0.0 
-8.270952821612e-04 7.767087277973e-05 0.0 
7.767087277973e-05 8.314204181016e-03 0.0 
0.0 0.0 0.0 
-8.675936821365e-04 1.115504736677e-04 0.0 
1.115504736677e-04 8.308135202305e-03 0.0 
0.0 0.0 0.0 
-9.090333061285e-04 1.603632638841e-04 0.0 
1.603632638841e-04 8.297773533383e-03 0.0 
0.0 0.0 0.0 
-9.542303677001e-04 2.230655124688e-04 0.0 
2.230655124688e-04 8.288077354302e-03 0.0 
0.0 0.0 0.0 
-2.380120712246e-03 1.163821968466e-03 0.0 
1.163821968466e-03 -3.415092034831e-03 0.0 
0.0 0.0 0.0 
-3.081211614272e-03 1.976859051824e-04 0.0 
1.976859051824e-04 -3.495755721796e-03 0.0 
0.0 0.0 0.0 
-3.337745299802e-03 -2.354110878259e-04 0.0 
-2.354110878259e-04 -3.397748736976e-03 0.0 
0.0 0.0 0.0 
-2.878026399779e-03 -8.953544031083e-04 0.0 
-8.953544031083e-04 -3.185965429739e-03 0.0 
0.0 0.0 0.0 
-1.926289319034e-03 -1.697700880605e-03 0.0 
-1.697700880605e-03 -1.653390033020e-03 0.0 
0.0 0.0 0.0 
-1.167597699783e-03 -1.155421076915e-03 0.0 
-1.155421076915e-03 -2.689572682701e-05 0.0 
0.0 0.0 0.0 
-4.726136371662e-04 -3.350453029528e-04 0.0 
-3.350453029528e-04 1.880294931735e-04 0.0 
0.0 0.0 0.0 
2.479555073972e-05 -9.189106304818e-05 0.0 
-9.189106304818e-05 8.812725518396e-05 0.0 
0.0 0.0 0.0 
3.082145650713e-04 -5.179686340882e-05 0.0 
-5.179686340882e-05 3.363612019617e-06 0.0 
0.0 0.0 0.0 
3.712787262780e-04 -4.831390377177e-05 0.0 
-4.831390377177e-05 -3.073889719862e-05 0.0 
0.0 0.0 0.0 
4.209885534972e-04 -3.235042153008e-05 0.0 
-3.235042153008e-05 -4.567444890206e-05 0.0 
0.0 0.0 0.0 
4.891110685733e-04 -2.927418782156e-05 0.0 
-2.927418782156e-05 -7.227028386418e-05 0.0 
0.0 0.0 0.0 
5.498811395774e-04 -8.674179207989e-06 0.0 
-8.674179207989e-06 -1.078865245165e-04 0.0 
0.0 0.0 0.0 
6.052903090754e-04 -1.783650297595e-05 0.0 
-1.783650297595e-05 -1.361793802260e-04 0.0 
0.0 0.0 0.0 
6.010760138067e-04 -1.828036040990e-05 0.0 
-1.828036040990e-05 -1.374001263143e-04 0.0 
0.0 0.0 0.0 
6.019239129433e-04 -1.150527313967e-05 0.0 
-1.150527313967e-05 -1.367081615272e-04 0.0 
0.0 0.0 0.0 
6.091307446754e-04 -5.526473127679e-06 0.0 
-5.526473127679e-06 -1.405635957947e-04 0.0 
0.0 0.0 0.0 
6.363850623091e-04 4.075133008093e-06 0.0 
4.075133008093e-06 -1.615714323677e-04 0.0 
0.0 0.0 0.0 
6.666152892629e-04 1.981671977581e-05 0.0 
1.981671977581e-05 -1.803130289308e-04 0.0 
0.0 0.0 0.0 
-5.727790343301e-04 1.763604129678e-05 0.0 
1.763604129678e-05 5.905481231877e-03 0.0 
0.0 0.0 0.0 
-5.342425444215e-04 -1.981582066239e-06 0.0 
-1.981582066239e-06 5.894737143788e-03 0.0 
0.0 0.0 0.0 
-5.289089264481e-04 -1.596163469977e-05 0.0 
-1.596163469977e-05 5.888763496496e-03 0.0 
0.0 0.0 0.0 
-5.213366160995e-04 -2.467095826953e-05 0.0 
-2.467095826953e-05 5.884955852320e-03 0.0 
0.0 0.0 0.0 
-5.095489261154e-04 -3.188396148749e-05 0.0 
-3.188396148749e-05 5.880060886510e-03 0.0 
0.0 0.0 0.0 
-4.937474902352e-04 -3.834690791099e-05 0.0 
-3.834690791099e-05 5.873586839688e-03 0.0 
0.0 0.0 0.0 
-4.741130043094e-04 -4.431973122266e-05 0.0 
-4.431973122266e-05 5.865349312353e-03 0.0 
0.0 0.0 0.0 
-4.507558265723e-04 -4.982184011472e-05 0.0 
-4.982184011472e-05 5.855292044451e-03 0.0 
0.0 0.0 0.0 
-4.238035238238e-04 -5.474840855548e-05 0.0 
-5.474840855548e-05 5.843441861439e-03 0.0 
0.0 0.0 0.0 
-3.934130836424e-04 -5.891999236849e-05 0.0 
-5.891999236849e-05 5.829844297140e-03 0.0 
0.0 0.0 0.0 
-3.598405649132e-04 -6.208664646651e-05 0.0 
-6.208664646651e-05 5.814585965808e-03 0.0 
0.0 0.0 0.0 
-3.234975219555e-04 -6.390025192047e-05 0.0 
-6.390025192047e-05 5.797815918044e-03 0.0 
0.0 0.0 0.0 
-2.850341991099e-04 -6.379222732832e-05 0.0 
-6.379222732832e-05 5.779922852343e-03 0.0 
0.0 0.0 0.0 
-2.456832611385e-04 -6.125733479959e-05 0.0 
-6.125733479959e-05 5.761348133356e-03 0.0 
0.0 0.0 0.0 
-2.071285210467e-04 -5.532768670845e-05 0.0 
-5.532768670845e-05 5.742798559136e-03 0.0 
0.0 0.0 0.0 
-1.723345253229e-04 -4.532951920248e-05 0.0 
-4.532951920248e-05 5.724778050811e-03 0.0 
0.0 0.0 0.0 
-1.447293433723e-04 -2.847387421719e-05 0.0 
-2.847387421719e-05 5.709231717935e-03 0.0 
0.0 0.0 0.0 
-1.313441408079e-04 -3.869807172198e-06 0.0 
-3.869807172198e-06 5.696303336025e-03 0.0 
0.0 0.0 0.0 
-1.386317331724e-04 3.798696829061e-05 0.0 
3.798696829061e-05 5.690850402939e-03 0.0 
0.0 0.0 0.0 
-1.863320950507e-04 1.003134324451e-04 0.0 
1.003134324451e-04 5.688446948589e-03 0.0 
0.0 0.0 0.0 
-2.775447839053e-04 2.242739438937e-04 0.0 
2.242739438937e-04 5.700826794329e-03 0.0 
0.0 0.0 0.0 
-5.149263616337e-04 3.988970095865e-04 0.0 
3.988970095865e-04 5.734418168288e-03 0.0 
0.0 0.0 0.0 
-9.379423366596e-04 5.897777708616e-04 0.0 
5.897777708616e-04 5.804466227057e-03 0.0 
0.0 0.0 0.0 
-7.066235550861e-04 4.677839786733e-04 0.0 
4.677839786733e-04 5.970123739250e-03 0.0 
0.0 0.0 0.0 
-5.943147532860e-04 3.229792499063e-04 0.0 
3.229792499063e-04 6.011303817487e-03 0.0 
0.0 0.0 0.0 
-4.587449879408e-04 1.631328621011e-04 0.0 
1.631328621011e-04 5.988376196328e-03 0.0 
0.0 0.0 0.0 
-3.982120835835e-04 7.546380147474e-05 0.0 
7.546380147474e-05 5.987089799267e-03 0.0 
0.0 0.0 0.0 
-3.628317025235e-04 2.133209042257e-05 0.0 
2.133209042257e-05 5.990533894564e-03 0.0 
0.0 0.0 0.0 
-3.499070591571e-04 -1.525716439276e-05 0.0 
-1.525716439276e-05 5.995573157864e-03 0.0 
0.0 0.0 0.0 
-3.508319802605e-04 -3.892382662356e-05 0.0 
-3.892382662356e-05 6.004547920087e-03 0.0 
0.0 0.0 0.0 
-3.615194360799e-04 -5.414346382184e-05 0.0 
-5.414346382184e-05 6.015012922221e-03 0.0 
0.0 0.0 0.0 
-3.778765619156e-04 -6.313424173950e-05 0.0 
-6.313424173950e-05 6.026757701538e-03 0.0 
0.0 0.0 0.0 
-3.976152692975e-04 -6.759071220973e-05 0.0 
-6.759071220973e-05 6.038927820718e-03 0.0 
0.0 0.0 0.0 
-4.185994994360e-04 -6.857258755359e-05 0.0 
-6.857258755359e-05 6.050948555754e-03 0.0 
0.0 0.0 0.0 
-4.395264085772e-04 -6.709791090241e-05 0.0 
-6.709791090241e-05 6.062224050044e-03 0.0 
0.0 0.0 0.0 
-4.595913286353e-04 -6.388450601640e-05 0.0 
-6.388450601640e-05 6.072543637166e-03 0.0 
0.0 0.0 0.0 
-4.782447168827e-04 -5.936359740051e-05 0.0 
-5.936359740051e-05 6.081762171133e-03 0.0 
0.0 0.0 0.0 
-4.950688193145e-04 -5.383783051510e-05 0.0 
-5.383783051510e-05 6.089756972937e-03 0.0 
0.0 0.0 0.0 
-5.097643679158e-04 -4.751215276812e-05 0.0 
-4.751215276812e-05 6.096457219258e-03 0.0 
0.0 0.0 0.0 
-5.222013205891e-04 -4.054283738958e-05 0.0 
-4.054283738958e-05 6.101907049471e-03 0.0 
0.0 0.0 0.0 
-5.324327996247e-04 -3.290781443148e-05 0.0 
-3.290781443148e-05 6.106346678044e-03 0.0 
0.0 0.0 0.0 
-5.406556590123e-04 -2.447456359572e-05 0.0 
-2.447456359572e-05 6.110143223333e-03 0.0 
0.0 0.0 0.0 
-5.474729545237e-04 -1.529897950772e-05 0.0 
-1.529897950772e-05 6.113936516484e-03 0.0 
0.0 0.0 0.0 
-5.551302131746e-04 -6.979152182837e-06 0.0 
-6.979152182837e-06 6.118670257131e-03 0.0 
0.0 0.0 0.0 
-5.682508521438e-04 1.594048237334e-05 0.0 
1.594048237334e-05 6.120448931122e-03 0.0 
0.0 0.0 0.0 
-5.757551290167e-04 -3.582147212753e-07 0.0 
-3.582147212753e-07 6.555018888544e-03 0.0 
0.0 0.0 0.0 
-5.730812284486e-04 -1.889379306188e-05 0.0 
-1.889379306188e-05 6.556195098611e-03 0.0 
0.0 0.0 0.0 
-5.690265829160e-04 -3.018004662129e-05 0.0 
-3.018004662129e-05 6.553769307127e-03 0.0 
0.0 0.0 0.0 
-5.651973796272e-04 -3.990446197467e-05 0.0 
-3.990446197467e-05 6.551248882054e-03 0.0 
0.0 0.0 0.0 
-5.614320240896e-04 -4.973608977160e-05 0.0 
-4.973608977160e-05 6.549007866163e-03 0.0 
0.0 0.0 0.0 
-5.575119126913e-04 -5.927714719129e-05 0.0 
-5.927714719129e-05 6.546762122181e-03 0.0 
0.0 0.0 0.0 
-5.532507386464e-04 -6.830710393169e-05 0.0 
-6.830710393169e-05 6.544133948337e-03 0.0 
0.0 0.0 0.0 
-5.486317232427e-04 -7.640743153694e-05 0.0 
-7.640743153694e-05 6.540827046384e-03 0.0 
0.0 0.0 0.0 
-5.439322288190e-04 -8.305027392851e-05 0.0 
-8.305027392851e-05 6.536917693650e-03 0.0 
0.0 0.0 0.0 
-5.398375654760e-04 -8.771018711661e-05 0.0 
-8.771018711661e-05 6.532605772741e-03 0.0 
0.0 0.0 0.0 
-5.369344866083e-04 -8.978416873824e-05 0.0 
-8.978416873824e-05 6.527963178961e-03 0.0 
0.0 0.0 0.0 
-5.359491722778e-04 -8.826814590391e-05 0.0 
-8.826814590391e-05 6.522977340769e-03 0.0 
0.0 0.0 0.0 
-5.379883037630e-04 -8.148734873581e-05 0.0 
-8.148734873581e-05 6.517643829728e-03 0.0 
0.0 0.0 0.0 
-5.449902428880e-04 -6.702848222744e-05 0.0 
-6.702848222744e-05 6.513034601524e-03 0.0 
0.0 0.0 0.0 
-5.596018050311e-04 -4.310641011748e-05 0.0 
-4.310641011748e-05 6.509030605065e-03 0.0 
0.0 0.0 0.0 
-5.840045490294e-04 -5.191072469507e-06 0.0 
-5.191072469507e-06 6.506547466888e-03 0.0 
0.0 0.0 0.0 
-6.219768723344e-04 5.027476486930e-05 0.0 
5.027476486930e-05 6.502411800365e-03 0.0 
0.0 0.0 0.0 
-6.728256157708e-04 1.359515194533e-04 0.0 
1.359515194533e-04 6.498421781871e-03 0.0 
0.0 0.0 0.0 
-7.655664592891e-04 2.773398672369e-04 0.0 
2.773398672369e-04 6.506279913245e-03 0.0 
0.0 0.0 0.0 
-8.315988963099e-04 4.091069792096e-04 0.0 
4.091069792096e-04 6.433821338431e-03 0.0 
0.0 0.0 0.0 
-9.056480580568e-04 3.330327742886e-04 0.0 
3.330327742886e-04 6.888865451052e-03 0.0 
0.0 0.0 0.0 
-8.648095693653e-04 2.305718161661e-04 0.0 
2.305718161661e-04 6.976002965873e-03 0.0 
0.0 0.0 0.0 
-7.965633477423e-04 1.189426535018e-04 0.0 
1.189426535018e-04 6.976522330897e-03 0.0 
0.0 0.0 0.0 
-7.517046629609e-04 4.798344482986e-05 0.0 
4.798344482986e-05 6.983526865697e-03 0.0 
0.0 0.0 0.0 
-7.130413816864e-04 3.313963293836e-07 0.0 
3.313963293836e-07 6.988862974581e-03 0.0 
0.0 0.0 0.0 
-6.839288435265e-04 -3.301986511444e-05 0.0 
-3.301986511444e-05 6.991177749099e-03 0.0 
0.0 0.0 0.0 
-6.614042803536e-04 -5.368755787629e-05 0.0 
-5.368755787629e-05 6.994103367397e-03 0.0 
0.0 0.0 0.0 
-6.436501763711e-04 -6.541591195895e-05 0.0 
-6.541591195895e-05 6.995381071320e-03 0.0 
0.0 0.0 0.0 
-6.298404392699e-04 -7.098206470740e-05 0.0 
-7.098206470740e-05 6.995914009486e-03 0.0 
0.0 0.0 0.0 
-6.190121182329e-04 -7.223316742401e-05 0.0 
-7.223316742401e-05 6.996013806499e-03 0.0 
0.0 0.0 0.0 
-6.109682357072e-04 -7.026558944965e-05 0.0 
-7.026558944965e-05 6.996269271744e-03 0.0 
0.0 0.0 0.0 
-6.049644177923e-04 -6.539494008814e-05 0.0 
-6.539494008814e-05 6.996366212099e-03 0.0 
0.0 0.0 0.0 
-5.998647977930e-04 -5.871088036874e-05 0.0 
-5.871088036874e-05 6.995828405407e-03 0.0 
0.0 0.0 0.0 
-5.961322672610e-04 -5.106777073250e-05 0.0 
-5.106777073250e-05 6.995209008455e-03 0.0 
0.0 0.0 0.0 
-5.934759999950e-04 -4.288460382865e-05 0.0 
-4.288460382865e-05 6.994869676979e-03 0.0 
0.0 0.0 0.0 
-5.921209843536e-04 -3.449155478769e-05 0.0 
-3.449155478769e-05 6.994998284347e-03 0.0 
0.0 0.0 0.0 
-5.915790992714e-04 -2.656807371823e-05 0.0 
-2.656807371823e-05 6.995276300523e-03 0.0 
0.0 0.0 0.0 
-5.913004938426e-04 -1.973473720333e-05 0.0 
-1.973473720333e-05 6.994609521270e-03 0.0 
0.0 0.0 0.0 
-5.901334123209e-04 7.323668296003e-06 0.0 
7.323668296003e-06 6.992703715114e-03 0.0 
0.0 0.0 0.0 
-6.057202252592e-04 1.284684047570e-06 0.0 
1.284684047570e-06 7.431629493241e-03 0.0 
0.0 0.0 0.0 
-6.076630885335e-04 -1.860869300521e-05 0.0 
-1.860869300521e-05 7.432705886449e-03 0.0 
0.0 0.0 0.0 
-6.113841378875e-04 -2.779742408889e-05 0.0 
-2.779742408889e-05 7.434040890274e-03 0.0 
0.0 0.0 0.0 
-6.168312598093e-04 -3.469143858434e-05 0.0 
-3.469143858434e-05 7.435904952094e-03 0.0 
0.0 0.0 0.0 
-6.236128706476e-04 -4.076319744584e-05 0.0 
-4.076319744584e-05 7.437899176109e-03 0.0 
0.0 0.0 0.0 
-6.332331715725e-04 -4.655354649708e-05 0.0 
-4.655354649708e-05 7.440820743254e-03 0.0 
0.0 0.0 0.0 
-6.447455472428e-04 -5.082793077415e-05 0.0 
-5.082793077415e-05 7.443904313941e-03 0.0 
0.0 0.0 0.0 
-6.591095987018e-04 -5.421709043710e-05 0.0 
-5.421709043710e-05 7.446773725284e-03 0.0 
0.0 0.0 0.0 
-6.750931246842e-04 -5.365340525651e-05 0.0 
-5.365340525651e-05 7.448162910890e-03 0.0 
0.0 0.0 0.0 
-6.953240367765e-04 -4.871098425858e-05 0.0 
-4.871098425858e-05 7.450661960562e-03 0.0 
0.0 0.0 0.0 
-7.191194827258e-04 -3.932306920149e-05 0.0 
-3.932306920149e-05 7.452527965137e-03 0.0 
0.0 0.0 0.0 
-7.467081734647e-04 -2.278232088673e-05 0.0 
-2.278232088673e-05 7.452592704573e-03 0.0 
0.0 0.0 0.0 
-7.795362965995e-04 2.959300442222e-06 0.0 
2.959300442222e-06 7.451075461677e-03 0.0 
0.0 0.0 0.0 
-8.167993092345e-04 4.144097413686e-05 0.0 
4.144097413686e-05 7.443757862020e-03 0.0 
0.0 0.0 0.0 
-8.571518246868e-04 1.004632893088e-04 0.0 
1.004632893088e-04 7.435604615863e-03 0.0 
0.0 0.0 0.0 
-9.158398398172e-04 1.886066671550e-04 0.0 
1.886066671550e-04 7.437668787612e-03 0.0 
0.0 0.0 0.0 
-9.495382588612e-04 2.668653950421e-04 0.0 
2.668653950421e-04 7.347952045605e-03 0.0 
0.0 0.0 0.0 
-9.613240157951e-04 2.324503532946e-04 0.0 
2.324503532946e-04 7.796114583634e-03 0.0 
0.0 0.0 0.0 
-9.340556694876e-04 1.728349855555e-04 0.0 
1.728349855555e-04 7.886594033737e-03 0.0 
0.0 0.0 0.0 
-8.847890069255e-04 1.055933699057e-04 0.0 
1.055933699057e-04 7.887642004728e-03 0.0 
0.0 0.0 0.0 
-8.411518579976e-04 6.236940491251e-05 0.0 
6.236940491251e-05 7.893458230445e-03 0.0 
0.0 0.0 0.0 
-8.038515075648e-04 3.029078521506e-05 0.0 
3.029078521506e-05 7.897043778456e-03 0.0 
0.0 0.0 0.0 
-7.701505313629e-04 8.930461655354e-06 0.0 
8.930461655354e-06 7.897176122849e-03 0.0 
0.0 0.0 0.0 
-7.404863826762e-04 -5.608795146692e-06 0.0 
-5.608795146692e-06 7.893953323774e-03 0.0 
0.0 0.0 0.0 
-7.145156984418e-04 -1.613320424558e-05 0.0 
-1.613320424558e-05 7.891178579920e-03 0.0 
0.0 0.0 0.0 
-6.902671963244e-04 -1.963499020435e-05 0.0 
-1.963499020435e-05 7.887979708120e-03 0.0 
0.0 0.0 0.0 
-6.718006396039e-04 -2.263821075683e-05 0.0 
-2.263821075683e-05 7.882723377699e-03 0.0 
0.0 0.0 0.0 
-6.551192837180e-04 -2.174486781838e-05 0.0 
-2.174486781838e-05 7.878495266249e-03 0.0 
0.0 0.0 0.0 
-6.421121268628e-04 -2.154472896730e-05 0.0 
-2.154472896730e-05 7.874109412094e-03 0.0 
0.0 0.0 0.0 
-6.323246849365e-04 -1.809369958994e-05 0.0 
-1.809369958994e-05 7.871815194932e-03 0.0 
0.0 0.0 0.0 
-6.235127864395e-04 -1.515391073133e-05 0.0 
-1.515391073133e-05 7.867592476405e-03 0.0 
0.0 0.0 0.0 
-6.183938990773e-04 -1.435406447304e-05 0.0 
-1.435406447304e-05 7.868284360518e-03 0.0 
0.0 0.0 0.0 
-6.191329053592e-04 1.281655465407e-05 0.0 
1.281655465407e-05 7.870058659653e-03 0.0 
0.0 0.0 0.0 
-1.597911962425e-03 3.081741014389e-03 0.0 
3.081741014389e-03 -4.603371560140e-04 0.0 
0.0 0.0 0.0 
-1.468785756825e-03 2.615451517120e-03 0.0 
2.615451517120e-03 1.404456961290e-03 0.0 
0.0 0.0 0.0 
-1.429692222701e-03 2.416152296728e-03 0.0 
2.416152296728e-03 2.942262797133e-03 0.0 
0.0 0.0 0.0 
-1.588833326168e-03 2.134476115326e-03 0.0 
2.134476115326e-03 4.528793698524e-03 0.0 
0.0 0.0 0.0 
-1.261960404311e-03 1.088787137358e-03 0.0 
1.088787137358e-03 5.858535377176e-03 0.0 
0.0 0.0 0.0 
-1.029569086010e-03 8.146886515108e-04 0.0 
8.146886515108e-04 6.267326530865e-03 0.0 
0.0 0.0 0.0 
-1.028083622675e-03 6.318226804676e-04 0.0 
6.318226804676e-04 6.711032274624e-03 0.0 
0.0 0.0 0.0 
-1.035430357925e-03 4.882733468654e-04 0.0 
4.882733468654e-04 7.166182176798e-03 0.0 
0.0 0.0 0.0 
-1.039219580630e-03 3.902102050385e-04 0.0 
3.902102050385e-04 7.622997277784e-03 0.0 
0.0 0.0 0.0 
-1.021504008283e-03 3.335943470638e-04 0.0 
3.335943470638e-04 8.075886747377e-03 0.0 
0.0 0.0 0.0 
-1.172124208835e-03 2.798197327682e-03 0.0 
2.798197327682e-03 1.503841573812e-03 0.0 
0.0 0.0 0.0 
2.759341079427e-04 1.087416618275e-03 0.0 
1.087416618275e-03 7.212319520988e-03 0.0 
0.0 0.0 0.0 
-3.581777410055e-05 -1.937992384540e-04 0.0 
-1.937992384540e-04 2.401008222286e-04 0.0 
0.0 0.0 0.0 
-1.115670379998e-03 -1.685746611934e-03 0.0 
-1.685746611934e-03 -3.020929504879e-03 0.0 
0.0 0.0 0.0 
1.913571444871e-04 3.633228979891e-04 0.0 
3.633228979891e-04 7.034079032117e-03 0.0 
0.0 0.0 0.0 
-1.409478719360e-03 2.175068540065e-03 0.0 
2.175068540065e-03 4.766793053415e-03 0.0 
0.0 0.0 0.0 
-1.566010771009e-04 -7.768931458011e-05 0.0 
-7.768931458011e-05 4.050762840723e-03 0.0 
0.0 0.0 0.0 
2.127127014461e-04 1.698147236717e-03 0.0 
1.698147236717e-03 7.890670717169e-03 0.0 
0.0 0.0 0.0 
-1.172327195433e-03 1.124174557958e-03 0.0 
1.124174557958e-03 6.422886368347e-03 0.0 
0.0 0.0 0.0 
4.318388816867e-05 2.007371745026e-03 0.0 
2.007371745026e-03 8.987555747766e-03 0.0 
0.0 0.0 0.0 
-1.119628378196e-03 6.352471333082e-04 0.0 
6.352471333082e-04 7.434760604776e-03 0.0 
0.0 0.0 0.0 
7.871461656731e-05 4.330098999168e-05 0.0 
4.330098999168e-05 7.236978912943e-03 0.0 
0.0 0.0 0.0 
4.045263688905e-04 -4.364233938336e-05 0.0 
-4.364233938336e-05 7.078315174965e-05 0.0 
0.0 0.0 0.0 
-1.101975492272e-04 1.901120803565e-03 0.0 
1.901120803565e-03 1.009948713416e-02 0.0 
0.0 0.0 0.0 
-1.061535792427e-03 4.359768431526e-04 0.0 
4.359768431526e-04 8.388395503658e-03 0.0 
0.0 0.0 0.0 
-1.510436178892e-04 -6.908006088865e-05 0.0 
-6.908006088865e-05 2.561741852967e-03 0.0 
0.0 0.0 0.0 
-9.258978167145e-05 -5.608827269321e-05 0.0 
-5.608827269321e-05 5.071040349190e-03 0.0 
0.0 0.0 0.0 
-1.863540255773e-04 1.619173933100e-03 0.0 
1.619173933100e-03 1.074180488763e-02 0.0 
0.0 0.0 0.0 
-1.823291837278e-04 1.165128344976e-03 0.0 
1.165128344976e-03 1.133606680760e-02 0.0 
0.0 0.0 0.0 
-1.193914320154e-04 3.403419642851e-04 0.0 
3.403419642851e-04 1.178075021416e-02 0.0 
0.0 0.0 0.0 
-1.552882035254e-04 5.735417233163e-04 0.0 
5.735417233163e-04 1.168285111099e-02 0.0 
0.0 0.0 0.0 
-1.639246057589e-04 8.463048782896e-04 0.0 
8.463048782896e-04 1.158100158259e-02 0.0 
0.0 0.0 0.0 
-9.556033436849e-04 2.719467749566e-04 0.0 
2.719467749566e-04 8.658503369318e-03 0.0 
0.0 0.0 0.0 
-7.898583200617e-04 1.002736810605e-04 0.0 
1.002736810605e-04 8.703957073619e-03 0.0 
0.0 0.0 0.0 
-6.981609308002e-04 4.666000432232e-05 0.0 
4.666000432232e-05 8.723529310219e-03 0.0 
0.0 0.0 0.0 
-5.010541026783e-04 2.014639006283e-05 0.0 
2.014639006283e-05 1.013382864320e-02 0.0 
0.0 0.0 0.0 
1.747677923340e-05 -3.412921588079e-05 0.0 
-3.412921588079e-05 7.345474422026e-03 0.0 
0.0 0.0 0.0 
-1.176578398308e-03 9.060228954178e-04 0.0 
9.060228954178e-04 -3.981648178930e-03 0.0 
0.0 0.0 0.0 
4.924496215002e-04 -1.988631334314e-05 0.0 
-1.988631334314e-05 4.738712911266e-05 0.0 
0.0 0.0 0.0 
-4.957528524787e-05 -2.445085900114e-05 0.0 
-2.445085900114e-05 6.322866114728e-03 0.0 
0.0 0.0 0.0 
-6.386165256574e-04 1.826099666593e-05 0.0 
1.826099666593e-05 8.659808280109e-03 0.0 
0.0 0.0 0.0 
9.910059195029e-05 -4.098832550968e-05 0.0 
-4.098832550968e-05 1.261325880007e-03 0.0 
0.0 0.0 0.0 
-2.193090986109e-04 1.372130995123e-03 0.0 
1.372130995123e-03 1.104567749389e-02 0.0 
0.0 0.0 0.0 
1.225969644378e-04 1.913506014577e-03 0.0 
1.913506014577e-03 8.455839239545e-03 0.0 
0.0 0.0 0.0 
-4.314963316365e-05 2.001506218003e-03 0.0 
2.001506218003e-03 9.568290934025e-03 0.0 
0.0 0.0 0.0 
2.766604189118e-04 1.435385950072e-03 0.0 
1.435385950072e-03 7.479866534443e-03 0.0 
0.0 0.0 0.0 
2.412358950861e-04 7.654410039182e-04 0.0 
7.654410039182e-04 7.079373634426e-03 0.0 
0.0 0.0 0.0 
-1.011918311810e-03 -1.171968720507e-03 0.0 
-1.171968720507e-03 2.269074417516e-04 0.0 
0.0 0.0 0.0 
-8.673580460853e-04 1.640401057546e-04 0.0 
1.640401057546e-04 8.680706779296e-03 0.0 
0.0 0.0 0.0 
1.509871461643e-04 1.599633880224e-04 0.0 
1.599633880224e-04 7.024798599989e-03 0.0 
0.0 0.0 0.0 
-3.706120530994e-04 3.370219366955e-05 0.0 
3.370219366955e-05 1.086802472004e-02 0.0 
0.0 0.0 0.0 
2.192637942474e-04 -7.305574353412e-05 0.0 
-7.305574353412e-05 1.602112989877e-04 0.0 
0.0 0.0 0.0 
-1.821681731768e-04 -8.217424996924e-05 0.0 
-8.217424996924e-05 3.300597404812e-03 0.0 
0.0 0.0 0.0 
-9.564193994003e-05 2.116193902511e-04 0.0 
2.116193902511e-04 1.185264025971e-02 0.0 
0.0 0.0 0.0 
-1.242973965148e-03 1.638565029906e-03 0.0 
1.638565029906e-03 5.790695074051e-03 0.0 
0.0 0.0 0.0 
-1.273089737010e-03 2.585258965023e-03 0.0 
2.585258965023e-03 3.179627198302e-03 0.0 
0.0 0.0 0.0 
-1.142223647722e-03 8.417912034781e-04 0.0 
8.417912034781e-04 6.946431133722e-03 0.0 
0.0 0.0 0.0 
-1.097716784842e-03 5.094093231422e-04 0.0 
5.094093231422e-04 7.913567652657e-03 0.0 
0.0 0.0 0.0 
-1.244548877500e-03 3.070941570078e-03 0.0 
3.070941570078e-03 -2.740445194501e-04 0.0 
0.0 0.0 0.0 
-5.817590468011e-04 1.241949552937e-05 0.0 
1.241949552937e-05 9.384805204926e-03 0.0 
0.0 0.0 0.0 
-9.104898148271e-06 -3.317299444524e-05 0.0 
-3.317299444524e-05 7.480947378481e-03 0.0 
0.0 0.0 0.0 
5.340438135053e-04 3.759172960713e-07 0.0 
3.759172960713e-07 9.404247173828e-06 0.0 
0.0 0.0 0.0 
-1.796089275701e-04 5.346190366959e-05 0.0 
5.346190366959e-05 1.155898842060e-02 0.0 
0.0 0.0 0.0 
-1.043614299928e-03 4.183875581771e-04 0.0 
4.183875581771e-04 8.602335901507e-03 0.0 
0.0 0.0 0.0 
-1.061105586628e-03 5.419064392930e-04 0.0 
5.419064392930e-04 8.702762532210e-03 0.0 
0.0 0.0 0.0 
-1.021316422271e-03 4.997377882329e-04 0.0 
4.997377882329e-04 8.931553035241e-03 0.0 
0.0 0.0 0.0 
-1.035098584262e-03 6.514937599314e-04 0.0 
6.514937599314e-04 9.020799180400e-03 0.0 
0.0 0.0 0.0 
-9.958961442337e-04 6.191635095868e-04 0.0 
6.191635095868e-04 9.272054848106e-03 0.0 
0.0 0.0 0.0 
-9.872350367494e-04 7.576661205503e-04 0.0 
7.576661205503e-04 9.331513457676e-03 0.0 
0.0 0.0 0.0 
-1.025175916213e-03 8.036231854071e-04 0.0 
8.036231854071e-04 9.067333343400e-03 0.0 
0.0 0.0 0.0 
-9.590832724691e-04 9.059876534983e-04 0.0 
9.059876534983e-04 9.362103794906e-03 0.0 
0.0 0.0 0.0 
-9.894704043206e-04 9.627545746311e-04 0.0 
9.627545746311e-04 9.074961036920e-03 0.0 
0.0 0.0 0.0 
-9.401808987088e-04 7.245317448311e-04 0.0 
7.245317448311e-04 9.587475764612e-03 0.0 
0.0 0.0 0.0 
-9.085807669474e-04 1.056379853068e-03 0.0 
1.056379853068e-03 9.358881041118e-03 0.0 
0.0 0.0 0.0 
-9.282955717917e-04 1.122293543778e-03 0.0 
1.122293543778e-03 9.045917803521e-03 0.0 
0.0 0.0 0.0 
-8.352294714056e-04 1.205177274477e-03 0.0 
1.205177274477e-03 9.321583791992e-03 0.0 
0.0 0.0 0.0 
-8.414408572355e-04 1.277089921293e-03 0.0 
1.277089921293e-03 8.981027902503e-03 0.0 
0.0 0.0 0.0 
-9.320972171200e-04 1.205927242541e-03 0.0 
1.205927242541e-03 8.713181525427e-03 0.0 
0.0 0.0 0.0 
-8.269625414677e-04 1.365711887684e-03 0.0 
1.365711887684e-03 8.615978161832e-03 0.0 
0.0 0.0 0.0 
-9.183847100990e-04 1.308526516671e-03 0.0 
1.308526516671e-03 8.357601749613e-03 0.0 
0.0 0.0 0.0 
-7.905001851137e-04 1.472199775161e-03 0.0 
1.472199775161e-03 8.222563748780e-03 0.0 
0.0 0.0 0.0 
-6.960037399192e-04 1.507713352633e-03 0.0 
1.507713352633e-03 8.485672932165e-03 0.0 
0.0 0.0 0.0 
-6.344177582326e-04 1.610689626570e-03 0.0 
1.610689626570e-03 8.052733805904e-03 0.0 
0.0 0.0 0.0 
-7.283445699831e-04 1.596707866372e-03 0.0 
1.596707866372e-03 7.794793589980e-03 0.0 
0.0 0.0 0.0 
-5.432033619642e-04 1.728716320803e-03 0.0 
1.728716320803e-03 7.582194194406e-03 0.0 
0.0 0.0 0.0 
-6.381264851833e-04 1.738856774666e-03 0.0 
1.738856774666e-03 7.328212311501e-03 0.0 
0.0 0.0 0.0 
-4.210485913070e-04 1.856895845609e-03 0.0 
1.856895845609e-03 7.069702965316e-03 0.0 
0.0 0.0 0.0 
-5.167840832330e-04 1.894641658344e-03 0.0 
1.894641658344e-03 6.814246352511e-03 0.0 
0.0 0.0 0.0 
-2.651897591692e-04 1.990231812525e-03 0.0 
1.990231812525e-03 6.508944700293e-03 0.0 
0.0 0.0 0.0 
-1.885682087202e-04 1.926030849484e-03 0.0 
1.926030849484e-03 6.798617413216e-03 0.0 
0.0 0.0 0.0 
-3.941102885078e-06 2.028928801641e-03 0.0 
2.028928801641e-03 6.200806997319e-03 0.0 
0.0 0.0 0.0 
-7.237616578396e-05 2.121395202894e-03 0.0 
2.121395202894e-03 5.895343639432e-03 0.0 
0.0 0.0 0.0 
2.145809302857e-04 2.118872123261e-03 0.0 
2.118872123261e-03 5.555075294336e-03 0.0 
0.0 0.0 0.0 
1.569815659302e-04 2.237734016905e-03 0.0 
2.237734016905e-03 5.225304601808e-03 0.0 
0.0 0.0 0.0 
4.649438960394e-04 2.184045167900e-03 0.0 
2.184045167900e-03 4.859649241164e-03 0.0 
0.0 0.0 0.0 
4.857104210045e-04 2.058058335659e-03 0.0 
2.058058335659e-03 5.244381171121e-03 0.0 
0.0 0.0 0.0 
7.443103773522e-04 2.068690232293e-03 0.0 
2.068690232293e-03 4.542811370061e-03 0.0 
0.0 0.0 0.0 
7.424246021035e-04 2.210324400003e-03 0.0 
2.210324400003e-03 4.114831554543e-03 0.0 
0.0 0.0 0.0 
1.021427917831e-03 2.033817417607e-03 0.0 
2.033817417607e-03 3.808294307444e-03 0.0 
0.0 0.0 0.0 
1.039206246471e-03 2.185647948681e-03 0.0 
2.185647948681e-03 3.330273128890e-03 0.0 
0.0 0.0 0.0 
1.309524495922e-03 1.942866820477e-03 0.0 
1.942866820477e-03 3.050421984901e-03 0.0 
0.0 0.0 0.0 
1.351485849121e-03 2.098079769588e-03 0.0 
2.098079769588e-03 2.513136823853e-03 0.0 
0.0 0.0 0.0 
1.599024816144e-03 1.781222626897e-03 0.0 
1.781222626897e-03 2.276276428879e-03 0.0 
0.0 0.0 0.0 
1.511781865366e-03 1.662110310492e-03 0.0 
1.662110310492e-03 2.866367797011e-03 0.0 
0.0 0.0 0.0 
1.762989960099e-03 1.439819562887e-03 0.0 
1.439819562887e-03 2.154304479707e-03 0.0 
0.0 0.0 0.0 
1.874288182987e-03 1.536525191941e-03 0.0 
1.536525191941e-03 1.504837183003e-03 0.0 
0.0 0.0 0.0 
1.983365513430e-03 1.138865896225e-03 0.0 
1.138865896225e-03 1.470215158507e-03 0.0 
0.0 0.0 0.0 
1.845760852929e-03 1.100949649997e-03 0.0 
1.100949649997e-03 2.145351023297e-03 0.0 
0.0 0.0 0.0 
2.002737200445e-03 7.680440866966e-04 0.0 
7.680440866966e-04 1.558437867134e-03 0.0 
0.0 0.0 0.0 
1.853503132963e-03 7.877481871828e-04 0.0 
7.877481871828e-04 2.237812881083e-03 0.0 
0.0 0.0 0.0 
1.947196429518e-03 4.452543342228e-04 0.0 
4.452543342228e-04 1.748280916586e-03 0.0 
0.0 0.0 0.0 
2.092897316246e-03 3.736676681125e-04 0.0 
3.736676681125e-04 1.053957470451e-03 0.0 
0.0 0.0 0.0 
1.968769156790e-03 6.232821825820e-05 0.0 
6.232821825820e-05 1.349908803510e-03 0.0 
0.0 0.0 0.0 
1.835331070042e-03 1.815858514661e-04 0.0 
1.815858514661e-04 2.013074556740e-03 0.0 
0.0 0.0 0.0 
1.800274740945e-03 -1.723848961878e-04 0.0 
-1.723848961878e-04 1.703165440348e-03 0.0 
0.0 0.0 0.0 
1.904229109689e-03 -3.426489172854e-04 0.0 
-3.426489172854e-04 1.061139369067e-03 0.0 
0.0 0.0 0.0 
1.687530936613e-03 -5.241647064655e-04 0.0 
-5.241647064655e-04 1.497700676589e-03 0.0 
0.0 0.0 0.0 
1.608587894475e-03 -3.331094120561e-04 0.0 
-3.331094120561e-04 2.090078818748e-03 0.0 
0.0 0.0 0.0 
1.465681946420e-03 -6.283801615519e-04 0.0 
-6.283801615519e-04 1.941064693631e-03 0.0 
0.0 0.0 0.0 
1.498854012986e-03 -8.487943457062e-04 0.0 
-8.487943457062e-04 1.397073778240e-03 0.0 
0.0 0.0 0.0 
1.263803980565e-03 -8.851409903549e-04 0.0 
-8.851409903549e-04 1.878316591950e-03 0.0 
0.0 0.0 0.0 
1.252149653310e-03 -6.707336034339e-04 0.0 
-6.707336034339e-04 2.377700603691e-03 0.0 
0.0 0.0 0.0 
1.050893404681e-03 -8.689581637631e-04 0.0 
-8.689581637631e-04 2.329467842908e-03 0.0 
0.0 0.0 0.0 
1.015802957429e-03 -1.083120691530e-03 0.0 
-1.083120691530e-03 1.886909796763e-03 0.0 
0.0 0.0 0.0 
8.199228277005e-04 -1.009756509033e-03 0.0 
-1.009756509033e-03 2.332850971840e-03 0.0 
0.0 0.0 0.0 
8.626921699172e-04 -8.177956879107e-04 0.0 
-8.177956879107e-04 2.749854190019e-03 0.0 
0.0 0.0 0.0 
6.537960609806e-04 -9.148878874706e-04 0.0 
-9.148878874706e-04 2.737742664036e-03 0.0 
0.0 0.0 0.0 
6.972707677781e-04 -7.452346336993e-04 0.0 
-7.452346336993e-04 3.139458588555e-03 0.0 
0.0 0.0 0.0 
5.766919358082e-04 -1.084949494188e-03 0.0 
-1.084949494188e-03 2.365539547087e-03 0.0 
0.0 0.0 0.0 
4.438796526002e-04 -9.556397355204e-04 0.0 
-9.556397355204e-04 2.742022636689e-03 0.0 
0.0 0.0 0.0 
3.418860081344e-04 -1.092042225804e-03 0.0 
-1.092042225804e-03 2.407398277753e-03 0.0 
0.0 0.0 0.0 
2.481766031555e-04 -9.410151238409e-04 0.0 
-9.410151238409e-04 2.746371441285e-03 0.0 
0.0 0.0 0.0 
7.272545428738e-04 1.948558410908e-03 0.0 
1.948558410908e-03 4.980153851687e-03 0.0 
0.0 0.0 0.0 
1.373220187267e-04 -1.034688843476e-03 0.0 
-1.034688843476e-03 2.436577469601e-03 0.0 
0.0 0.0 0.0 
2.081429035309e-04 -1.207203122064e-03 0.0 
-1.207203122064e-03 2.109785902172e-03 0.0 
0.0 0.0 0.0 
8.215633108125e-05 -8.779072302725e-04 0.0 
-8.779072302725e-04 2.733347145397e-03 0.0 
0.0 0.0 0.0 
1.708111200659e-04 -7.997274444191e-04 0.0 
-7.997274444191e-04 3.056218377881e-03 0.0 
0.0 0.0 0.0 
-2.202071941857e-05 -9.271273020058e-04 0.0 
-9.271273020058e-04 2.432623644636e-03 0.0 
0.0 0.0 0.0 
-4.468723904821e-05 -7.785636689606e-04 0.0 
-7.785636689606e-04 2.690358768743e-03 0.0 
0.0 0.0 0.0 
-1.282878889102e-04 -7.875692731014e-04 0.0 
-7.875692731014e-04 2.385796853245e-03 0.0 
0.0 0.0 0.0 
1.030320893922e-03 2.365296868077e-03 0.0 
2.365296868077e-03 2.852434284761e-03 0.0 
0.0 0.0 0.0 
-5.446871326123e-04 1.625441649177e-03 0.0 
1.625441649177e-03 8.329279804425e-03 0.0 
0.0 0.0 0.0 
-1.276889862787e-04 -6.556962687381e-04 0.0 
-6.556962687381e-04 2.610112613352e-03 0.0 
0.0 0.0 0.0 
-1.798690890379e-04 -6.333003437662e-04 0.0 
-6.333003437662e-04 2.289307452400e-03 0.0 
0.0 0.0 0.0 
-2.043824389431e-04 -7.541356967578e-04 0.0 
-7.541356967578e-04 2.086757794107e-03 0.0 
0.0 0.0 0.0 
-2.087739434680e-04 -5.724446522376e-04 0.0 
-5.724446522376e-04 1.960887065632e-03 0.0 
0.0 0.0 0.0 
-9.471987090767e-04 5.957795089034e-04 0.0 
5.957795089034e-04 9.510023283701e-03 0.0 
0.0 0.0 0.0 
-8.804542474576e-04 6.986061034493e-04 0.0 
6.986061034493e-04 9.836092327458e-03 0.0 
0.0 0.0 0.0 
-8.889111791079e-04 5.708590786097e-04 0.0 
5.708590786097e-04 9.739371108050e-03 0.0 
0.0 0.0 0.0 
-8.157526981896e-04 6.760000116520e-04 0.0 
6.760000116520e-04 1.007681863285e-02 0.0 
0.0 0.0 0.0 
-8.255242848874e-04 5.565415330573e-04 0.0 
5.565415330573e-04 9.975818142340e-03 0.0 
0.0 0.0 0.0 
-1.813067111892e-04 -4.825616968934e-04 0.0 
-4.825616968934e-04 2.143257985491e-03 0.0 
0.0 0.0 0.0 
-8.090086611535e-04 1.149035570238e-03 0.0 
1.149035570238e-03 9.642522770884e-03 0.0 
0.0 0.0 0.0 
-7.932572832953e-04 8.022972650723e-04 0.0 
8.022972650723e-04 1.015348075945e-02 0.0 
0.0 0.0 0.0 
-8.268343611099e-04 1.575202583366e-03 0.0 
1.575202583366e-03 7.558805951184e-03 0.0 
0.0 0.0 0.0 
-1.617180087009e-04 2.219525577852e-03 0.0 
2.219525577852e-03 5.618559725278e-03 0.0 
0.0 0.0 0.0 
1.703632891375e-03 1.078678677921e-03 0.0 
1.078678677921e-03 2.794890185407e-03 0.0 
0.0 0.0 0.0 
-6.669587958040e-05 -6.449436358062e-04 0.0 
-6.449436358062e-04 2.933062034623e-03 0.0 
0.0 0.0 0.0 
-1.325085529877e-04 -5.374315919309e-04 0.0 
-5.374315919309e-04 2.826733576740e-03 0.0 
0.0 0.0 0.0 
-8.843621363425e-05 -5.247827959352e-04 0.0 
-5.247827959352e-04 3.162879244277e-03 0.0 
0.0 0.0 0.0 
8.737962818584e-04 -6.339587761649e-04 0.0 
-6.339587761649e-04 3.192352760476e-03 0.0 
0.0 0.0 0.0 
7.107642742512e-04 -5.806874077379e-04 0.0 
-5.806874077379e-04 3.565754399314e-03 0.0 
0.0 0.0 0.0 
8.560178727954e-04 -4.615054425687e-04 0.0 
-4.615054425687e-04 3.654937107169e-03 0.0 
0.0 0.0 0.0 
6.970045598844e-04 -4.251652564546e-04 0.0 
-4.251652564546e-04 4.012473373111e-03 0.0 
0.0 0.0 0.0 
8.123155975359e-04 -3.031476592883e-04 0.0 
-3.031476592883e-04 4.133664834217e-03 0.0 
0.0 0.0 0.0 
6.588256655261e-04 -2.819624011311e-04 0.0 
-2.819624011311e-04 4.476432137978e-03 0.0 
0.0 0.0 0.0 
5.534997113441e-04 -3.787656096450e-04 0.0 
-3.787656096450e-04 4.352764351371e-03 0.0 
0.0 0.0 0.0 
5.192655343477e-04 -2.522996652855e-04 0.0 
-2.522996652855e-04 4.805678554461e-03 0.0 
0.0 0.0 0.0 
4.256842096064e-04 -3.276146908472e-04 0.0 
-3.276146908472e-04 4.675641893836e-03 0.0 
0.0 0.0 0.0 
7.454042556919e-04 -1.607157524921e-04 0.0 
-1.607157524921e-04 4.625880978600e-03 0.0 
0.0 0.0 0.0 
9.034304274642e-04 -1.559322678813e-04 0.0 
-1.559322678813e-04 4.287982708090e-03 0.0 
0.0 0.0 0.0 
3.949178015863e-04 -2.184426156993e-04 0.0 
-2.184426156993e-04 5.119912099292e-03 0.0 
0.0 0.0 0.0 
3.135564501067e-04 -2.753205442130e-04 0.0 
-2.753205442130e-04 4.981597184058e-03 0.0 
0.0 0.0 0.0 
2.865912974257e-04 -1.829709103253e-04 0.0 
-1.829709103253e-04 5.419338918276e-03 0.0 
0.0 0.0 0.0 
2.173209649345e-04 -2.249017191892e-04 0.0 
-2.249017191892e-04 5.271030957305e-03 0.0 
0.0 0.0 0.0 
2.264468786099e-04 -3.106662414791e-04 0.0 
-3.106662414791e-04 4.851210537544e-03 0.0 
0.0 0.0 0.0 
1.445886361894e-04 -2.479543363757e-04 0.0 
-2.479543363757e-04 5.126643867891e-03 0.0 
0.0 0.0 0.0 
1.397130739401e-04 -3.242856474964e-04 0.0 
-3.242856474964e-04 4.724275718613e-03 0.0 
0.0 0.0 0.0 
1.702020080199e-03 8.138605054288e-04 0.0 
8.138605054288e-04 2.889484428730e-03 0.0 
0.0 0.0 0.0 
1.557731108019e-03 1.070371417659e-03 0.0 
1.070371417659e-03 3.423348594343e-03 0.0 
0.0 0.0 0.0 
1.547816717231e-03 8.458993976386e-04 0.0 
8.458993976386e-04 3.518213109237e-03 0.0 
0.0 0.0 0.0 
1.407343539345e-03 1.073601255836e-03 0.0 
1.073601255836e-03 4.032486413384e-03 0.0 
0.0 0.0 0.0 
1.388217657987e-03 8.832799054727e-04 0.0 
8.832799054727e-04 4.129413866102e-03 0.0 
0.0 0.0 0.0 
1.249658521134e-03 1.087918554721e-03 0.0 
1.087918554721e-03 4.627649874824e-03 0.0 
0.0 0.0 0.0 
1.219335418707e-03 9.266952617516e-04 0.0 
9.266952617516e-04 4.727053855933e-03 0.0 
0.0 0.0 0.0 
1.328014461372e-03 7.163805960555e-04 0.0 
7.163805960555e-04 4.281531888714e-03 0.0 
0.0 0.0 0.0 
-7.409644881031e-04 1.348185793500e-03 0.0 
1.348185793500e-03 9.250388323127e-03 0.0 
0.0 0.0 0.0 
2.115241948574e-03 1.196181988570e-03 0.0 
1.196181988570e-03 7.648450204058e-04 0.0 
0.0 0.0 0.0 
1.969601703388e-03 1.661215181895e-03 0.0 
1.661215181895e-03 8.343606077388e-04 0.0 
0.0 0.0 0.0 
2.236284109826e-03 1.280050591855e-03 0.0 
1.280050591855e-03 2.447902107350e-05 0.0 
0.0 0.0 0.0 
2.037523186904e-03 1.823346178305e-03 0.0 
1.823346178305e-03 1.462197696449e-04 0.0 
0.0 0.0 0.0 
2.337004526841e-03 1.403096624480e-03 0.0 
1.403096624480e-03 -7.536110648787e-04 0.0 
0.0 0.0 0.0 
2.058564009099e-03 2.035045066411e-03 0.0 
2.035045066411e-03 -5.494140527094e-04 0.0 
0.0 0.0 0.0 
2.401238854989e-03 1.581643828969e-03 0.0 
1.581643828969e-03 -1.569732351996e-03 0.0 
0.0 0.0 0.0 
2.568269007177e-03 8.208964716872e-04 0.0 
8.208964716872e-04 -1.582230237111e-03 0.0 
0.0 0.0 0.0 
2.673050484790e-03 9.133171984019e-04 0.0 
9.133171984019e-04 -2.525390602415e-03 0.0 
0.0 0.0 0.0 
2.663762372165e-03 6.787832843063e-05 0.0 
6.787832843063e-05 -2.241108456378e-03 0.0 
0.0 0.0 0.0 
2.761319901318e-03 2.152712538111e-05 0.0 
2.152712538111e-05 -3.219563735412e-03 0.0 
0.0 0.0 0.0 
2.546825064389e-03 -7.986985710500e-04 0.0 
-7.986985710500e-04 -2.624714659320e-03 0.0 
0.0 0.0 0.0 
4.628135898902e-05 1.948495834806e-03 0.0 
1.948495834806e-03 6.529877866928e-03 0.0 
0.0 0.0 0.0 
1.237931088722e-03 1.264726304726e-03 0.0 
1.264726304726e-03 4.582086961460e-03 0.0 
0.0 0.0 0.0 
1.086854469840e-03 1.265010846451e-03 0.0 
1.265010846451e-03 5.158419950313e-03 0.0 
0.0 0.0 0.0 
1.052533213309e-03 1.420796157935e-03 0.0 
1.420796157935e-03 5.149735578056e-03 0.0 
0.0 0.0 0.0 
-2.516016025110e-04 -6.704220388193e-04 0.0 
-6.704220388193e-04 1.779082976247e-03 0.0 
0.0 0.0 0.0 
1.370600158874e-04 -1.782069992564e-04 0.0 
-1.782069992564e-04 5.544225351820e-03 0.0 
0.0 0.0 0.0 
8.066447629252e-04 -1.997567791677e-05 0.0 
-1.997567791677e-05 4.807978956237e-03 0.0 
0.0 0.0 0.0 
9.635091160885e-04 9.926894178576e-06 0.0 
9.926894178576e-06 4.480351444320e-03 0.0 
0.0 0.0 0.0 
1.152284175213e-03 7.850312492331e-04 0.0 
7.850312492331e-04 4.879765493612e-03 0.0 
0.0 0.0 0.0 
-1.638645324177e-04 -4.112487815501e-04 0.0 
-4.112487815501e-04 1.783990330885e-03 0.0 
0.0 0.0 0.0 
1.996996874144e-03 2.297757111762e-03 0.0 
2.297757111762e-03 -1.229877960997e-03 0.0 
0.0 0.0 0.0 
1.604373431277e-03 2.589815582154e-03 0.0 
2.589815582154e-03 -9.148355082435e-05 0.0 
0.0 0.0 0.0 
-7.428411968347e-04 6.549224631095e-04 0.0 
6.549224631095e-04 1.030783349821e-02 0.0 
0.0 0.0 0.0 
-7.549140478699e-04 5.433909538982e-04 0.0 
5.433909538982e-04 1.019937942522e-02 0.0 
0.0 0.0 0.0 
8.372139616289e-04 1.358980419631e-04 0.0 
1.358980419631e-04 5.027002276564e-03 0.0 
0.0 0.0 0.0 
-1.422604073423e-04 -3.461096036067e-04 0.0 
-3.461096036067e-04 1.958520645225e-03 0.0 
0.0 0.0 0.0 
4.642369472747e-04 -1.405760147776e-04 0.0 
-1.405760147776e-04 5.273706096275e-03 0.0 
0.0 0.0 0.0 
2.646468402989e-03 1.005840428614e-03 0.0 
1.005840428614e-03 -3.364582095250e-03 0.0 
0.0 0.0 0.0 
7.769406788723e-05 -1.905477678036e-04 0.0 
-1.905477678036e-04 5.385609309614e-03 0.0 
0.0 0.0 0.0 
7.239188619227e-05 -1.357153166583e-04 0.0 
-1.357153166583e-04 5.800207702211e-03 0.0 
0.0 0.0 0.0 
4.368150918514e-04 -4.473426022612e-04 0.0 
-4.473426022612e-04 4.247901096933e-03 0.0 
0.0 0.0 0.0 
9.107537023018e-04 1.414969449066e-03 0.0 
1.414969449066e-03 5.707611687322e-03 0.0 
0.0 0.0 0.0 
8.604733957749e-04 1.543218975417e-03 0.0 
1.543218975417e-03 5.724264771073e-03 0.0 
0.0 0.0 0.0 
2.442346781804e-03 -5.910157985124e-04 0.0 
-5.910157985124e-04 -1.692951558256e-03 0.0 
0.0 0.0 0.0 
2.143344350213e-03 -1.354079902222e-03 0.0 
-1.354079902222e-03 -1.794109866245e-03 0.0 
0.0 0.0 0.0 
2.103576756882e-03 -1.620502372253e-03 0.0 
-1.620502372253e-03 -2.527064599091e-03 0.0 
0.0 0.0 0.0 
1.593324378053e-03 -1.984117201945e-03 0.0 
-1.984117201945e-03 -1.514360726304e-03 0.0 
0.0 0.0 0.0 
1.729037763129e-03 -1.620221001466e-03 0.0 
-1.620221001466e-03 -9.347411650405e-04 0.0 
0.0 0.0 0.0 
1.187623649865e-03 -2.041840124932e-03 0.0 
-2.041840124932e-03 -6.353738704014e-04 0.0 
0.0 0.0 0.0 
9.217063574068e-04 -2.317615612267e-03 0.0 
-2.317615612267e-03 -1.003223629575e-03 0.0 
0.0 0.0 0.0 
5.700925930319e-04 -2.228049583546e-03 0.0 
-2.228049583546e-03 -1.486812749886e-04 0.0 
0.0 0.0 0.0 
8.541187020136e-04 -1.957934887372e-03 0.0 
-1.957934887372e-03 1.457730346438e-04 0.0 
0.0 0.0 0.0 
3.289652148144e-04 -2.005497595656e-03 0.0 
-2.005497595656e-03 5.401174862838e-04 0.0 
0.0 0.0 0.0 
-2.538702561407e-05 -2.087454617721e-03 0.0 
-2.087454617721e-03 4.029833585535e-04 0.0 
0.0 0.0 0.0 
-1.238343490144e-04 -1.814996333957e-03 0.0 
-1.814996333957e-03 9.257900419184e-04 0.0 
0.0 0.0 0.0 
1.185011184361e-04 -1.182013136998e-04 0.0 
-1.182013136998e-04 5.972412865705e-03 0.0 
0.0 0.0 0.0 
2.613788352877e-03 2.406652961269e-05 0.0 
2.406652961269e-05 -3.882161334404e-03 0.0 
0.0 0.0 0.0 
-1.013172884014e-03 1.128038805698e-03 0.0 
1.128038805698e-03 8.451835096911e-03 0.0 
0.0 0.0 0.0 
6.890624716988e-04 9.738908462795e-05 0.0 
9.738908462795e-05 5.336240448286e-03 0.0 
0.0 0.0 0.0 
1.036500725200e-03 9.791619983020e-04 0.0 
9.791619983020e-04 5.314427876896e-03 0.0 
0.0 0.0 0.0 
-6.633654937980e-04 6.352738826585e-04 0.0 
6.352738826585e-04 1.053199634534e-02 0.0 
0.0 0.0 0.0 
-6.793590272831e-04 5.299606752462e-04 0.0 
5.299606752462e-04 1.041694629220e-02 0.0 
0.0 0.0 0.0 
-7.562586773350e-04 4.426197287409e-04 0.0 
4.426197287409e-04 1.006986422320e-02 0.0 
0.0 0.0 0.0 
-6.865293903898e-04 4.341251021263e-04 0.0 
4.341251021263e-04 1.028493834194e-02 0.0 
0.0 0.0 0.0 
-5.991884699439e-04 5.141764204112e-04 0.0 
5.141764204112e-04 1.062896731362e-02 0.0 
0.0 0.0 0.0 
-6.128892039852e-04 4.226900637321e-04 0.0 
4.226900637321e-04 1.049470114205e-02 0.0 
0.0 0.0 0.0 
-6.870800956732e-04 3.482885202093e-04 0.0 
3.482885202093e-04 1.013876662116e-02 0.0 
0.0 0.0 0.0 
-6.199226909662e-04 3.406923450224e-04 0.0 
3.406923450224e-04 1.034735182562e-02 0.0 
0.0 0.0 0.0 
-6.819096143937e-04 2.727431528886e-04 0.0 
2.727431528886e-04 9.980414164680e-03 0.0 
0.0 0.0 0.0 
-6.220514339967e-04 2.688350515165e-04 0.0 
2.688350515165e-04 1.018931457852e-02 0.0 
0.0 0.0 0.0 
-5.504563562826e-04 3.294163103088e-04 0.0 
3.294163103088e-04 1.055276908915e-02 0.0 
0.0 0.0 0.0 
-5.598213675094e-04 2.602201293973e-04 0.0 
2.602201293973e-04 1.039525892807e-02 0.0 
0.0 0.0 0.0 
-6.214365922724e-04 2.069249524227e-04 0.0 
2.069249524227e-04 1.002283532177e-02 0.0 
0.0 0.0 0.0 
-5.663384298465e-04 1.998938622582e-04 0.0 
1.998938622582e-04 1.023007310348e-02 0.0 
0.0 0.0 0.0 
-6.192186994461e-04 1.540418767165e-04 0.0 
1.540418767165e-04 9.849114915814e-03 0.0 
0.0 0.0 0.0 
-5.705891511304e-04 1.481535786177e-04 0.0 
1.481535786177e-04 1.005666958373e-02 0.0 
0.0 0.0 0.0 
-5.093496663183e-04 1.888005156093e-04 0.0 
1.888005156093e-04 1.043489588926e-02 0.0 
0.0 0.0 0.0 
-8.096236394957e-05 -2.822879026010e-04 0.0 
-2.822879026010e-04 1.575705916946e-03 0.0 
0.0 0.0 0.0 
1.233824112350e-03 5.764154577173e-04 0.0 
5.764154577173e-04 4.479524359964e-03 0.0 
0.0 0.0 0.0 
1.051660410201e-03 6.654346224218e-04 0.0 
6.654346224218e-04 5.078509197241e-03 0.0 
0.0 0.0 0.0 
-1.410166746095e-04 -4.338178975535e-04 0.0 
-4.338178975535e-04 3.042039059796e-03 0.0 
0.0 0.0 0.0 
-1.070017048076e-04 -4.171421207801e-04 0.0 
-4.171421207801e-04 3.379293543572e-03 0.0 
0.0 0.0 0.0 
-4.206892205133e-05 -4.892488222545e-04 0.0 
-4.892488222545e-04 3.506609096929e-03 0.0 
0.0 0.0 0.0 
-7.304333667074e-05 -3.825290900481e-04 0.0 
-3.825290900481e-04 3.737556163224e-03 0.0 
0.0 0.0 0.0 
-5.217626723585e-04 1.378000399870e-04 0.0 
1.378000399870e-04 1.026160920689e-02 0.0 
0.0 0.0 0.0 
-4.526326908224e-04 1.725895182107e-04 0.0 
1.725895182107e-04 1.063788715466e-02 0.0 
0.0 0.0 0.0 
1.403438781757e-03 2.861983903163e-03 0.0 
2.861983903163e-03 -5.788669351580e-04 0.0 
0.0 0.0 0.0 
1.017433628352e-03 2.984189994802e-03 0.0 
2.984189994802e-03 5.896408676694e-04 0.0 
0.0 0.0 0.0 
-6.363709670498e-04 7.496658096004e-04 0.0 
7.496658096004e-04 1.062731710029e-02 0.0 
0.0 0.0 0.0 
2.477589242470e-05 -1.392732668207e-04 0.0 
-1.392732668207e-04 5.629358068935e-03 0.0 
0.0 0.0 0.0 
1.980980796111e-05 -1.861823849089e-04 0.0 
-1.861823849089e-04 5.227645459124e-03 0.0 
0.0 0.0 0.0 
7.371457879659e-05 2.363319272743e-03 0.0 
2.363319272743e-03 4.924578670374e-03 0.0 
0.0 0.0 0.0 
-2.739133878793e-04 2.313699344200e-03 0.0 
2.313699344200e-03 5.374499591567e-03 0.0 
0.0 0.0 0.0 
-3.890212702138e-05 2.486825229262e-03 0.0 
2.486825229262e-03 4.655683326285e-03 0.0 
0.0 0.0 0.0 
-4.122516654532e-04 2.393685812688e-03 0.0 
2.393685812688e-03 5.163839021273e-03 0.0 
0.0 0.0 0.0 
-5.992467631780e-04 2.174685256078e-03 0.0 
2.174685256078e-03 5.821858314399e-03 0.0 
0.0 0.0 0.0 
-1.899896013160e-04 2.600296757584e-03 0.0 
2.600296757584e-03 4.419875115758e-03 0.0 
0.0 0.0 0.0 
1.069734424512e-03 -1.345261213209e-04 0.0 
-1.345261213209e-04 3.940443437972e-03 0.0 
0.0 0.0 0.0 
-4.794306730863e-04 3.132440767342e-04 0.0 
3.132440767342e-04 1.075484829159e-02 0.0 
0.0 0.0 0.0 
-2.416757789005e-04 -8.889840524665e-04 0.0 
-8.889840524665e-04 1.879517108180e-03 0.0 
0.0 0.0 0.0 
-3.134702511988e-04 -7.768495511949e-04 0.0 
-7.768495511949e-04 1.599686843668e-03 0.0 
0.0 0.0 0.0 
2.234592704816e-05 -9.823707540524e-05 0.0 
-9.823707540524e-05 6.041856871116e-03 0.0 
0.0 0.0 0.0 
1.398768051171e-03 4.862337308556e-04 0.0 
4.862337308556e-04 3.880417965491e-03 0.0 
0.0 0.0 0.0 
-1.280246407102e-04 1.871793194952e-03 0.0 
1.871793194952e-03 7.113008817162e-03 0.0 
0.0 0.0 0.0 
8.063940597889e-05 1.884312831572e-03 0.0 
1.884312831572e-03 6.879468592827e-03 0.0 
0.0 0.0 0.0 
-8.142371317121e-05 1.832681471382e-03 0.0 
1.832681471382e-03 7.448149744803e-03 0.0 
0.0 0.0 0.0 
1.009472076684e-04 1.840779955337e-03 0.0 
1.840779955337e-03 7.245817865644e-03 0.0 
0.0 0.0 0.0 
-4.687955010492e-05 1.813032346946e-03 0.0 
1.813032346946e-03 7.801346705223e-03 0.0 
0.0 0.0 0.0 
1.070213045735e-04 1.821520754866e-03 0.0 
1.821520754866e-03 7.627467531857e-03 0.0 
0.0 0.0 0.0 
2.651426779131e-04 1.820201689675e-03 0.0 
1.820201689675e-03 7.066391157045e-03 0.0 
0.0 0.0 0.0 
7.338738136932e-04 1.541426563851e-03 0.0 
1.541426563851e-03 6.262503021855e-03 0.0 
0.0 0.0 0.0 
2.397738326049e-04 1.807940995906e-03 0.0 
1.807940995906e-03 7.481850307050e-03 0.0 
0.0 0.0 0.0 
-5.742545675473e-04 1.082086522252e-04 0.0 
1.082086522252e-04 9.872172720881e-03 0.0 
0.0 0.0 0.0 
1.183066226072e-03 1.449243999624e-03 0.0 
1.449243999624e-03 4.587862603859e-03 0.0 
0.0 0.0 0.0 
6.091268287802e-04 -1.784411515209e-03 0.0 
-1.784411515209e-03 7.899052679425e-04 0.0 
0.0 0.0 0.0 
-1.034856323015e-04 -3.176217491049e-04 0.0 
-3.176217491049e-04 1.405757628082e-03 0.0 
0.0 0.0 0.0 
-4.234851892349e-04 -1.680768755757e-03 0.0 
-1.680768755757e-03 8.411608296209e-04 0.0 
0.0 0.0 0.0 
-7.699032477905e-05 -2.316280046862e-04 0.0 
-2.316280046862e-04 1.735727392863e-03 0.0 
0.0 0.0 0.0 
-1.360734874674e-04 -2.802481750715e-04 0.0 
-2.802481750715e-04 2.135846782648e-03 0.0 
0.0 0.0 0.0 
6.902399722971e-04 2.442589056219e-04 0.0 
2.442589056219e-04 5.578429183396e-03 0.0 
0.0 0.0 0.0 
-2.444938194799e-05 1.818361902081e-03 0.0 
1.818361902081e-03 8.171283216425e-03 0.0 
0.0 0.0 0.0 
-1.641288654842e-04 1.783216095965e-03 0.0 
1.783216095965e-03 8.323230472560e-03 0.0 
0.0 0.0 0.0 
-7.450568960243e-04 2.195214098021e-03 0.0 
2.195214098021e-03 5.663276520256e-03 0.0 
0.0 0.0 0.0 
-8.777186250475e-04 1.932681266993e-03 0.0 
1.932681266993e-03 6.240377551205e-03 0.0 
0.0 0.0 0.0 
7.570631436587e-04 1.430906137908e-03 0.0 
1.430906137908e-03 6.259660869233e-03 0.0 
0.0 0.0 0.0 
-8.802498920060e-04 4.603514124282e-04 0.0 
4.603514124282e-04 9.627708911444e-03 0.0 
0.0 0.0 0.0 
-7.393063270940e-04 2.731535626217e-04 0.0 
2.731535626217e-04 9.769259235812e-03 0.0 
0.0 0.0 0.0 
-7.216705258710e-04 2.058165494012e-04 0.0 
2.058165494012e-04 9.598091869104e-03 0.0 
0.0 0.0 0.0 
3.270876958038e-05 -1.749935400489e-04 0.0 
-1.749935400489e-04 1.272589213567e-03 0.0 
0.0 0.0 0.0 
-3.644505984907e-04 -1.962605898705e-03 0.0 
-1.962605898705e-03 4.016158871317e-04 0.0 
0.0 0.0 0.0 
-5.166692079896e-04 4.947123865736e-04 0.0 
4.947123865736e-04 1.083632381028e-02 0.0 
0.0 0.0 0.0 
1.226211923446e-03 2.731520884349e-03 0.0 
2.731520884349e-03 9.871294867877e-04 0.0 
0.0 0.0 0.0 
6.723439018287e-04 2.978752873550e-03 0.0 
2.978752873550e-03 1.663728175237e-03 0.0 
0.0 0.0 0.0 
2.282346711250e-03 1.110025662033e-03 0.0 
1.110025662033e-03 -3.819163534652e-03 0.0 
0.0 0.0 0.0 
2.041432735111e-03 6.292008713383e-05 0.0 
6.292008713383e-05 -4.256946936427e-03 0.0 
0.0 0.0 0.0 
-4.707920024148e-04 1.253749470805e-04 0.0 
1.253749470805e-04 1.046174432053e-02 0.0 
0.0 0.0 0.0 
-3.952802416481e-04 1.505376759683e-04 0.0 
1.505376759683e-04 1.083045339590e-02 0.0 
0.0 0.0 0.0 
3.427923734312e-07 -4.400049270805e-04 0.0 
-4.400049270805e-04 3.860156129359e-03 0.0 
0.0 0.0 0.0 
-4.082474988770e-05 -3.400028855122e-04 0.0 
-3.400028855122e-04 4.097552007906e-03 0.0 
0.0 0.0 0.0 
8.343180969090e-04 3.030722503654e-04 0.0 
3.030722503654e-04 5.289276650525e-03 0.0 
0.0 0.0 0.0 
-4.124005880404e-04 -1.456370684603e-03 0.0 
-1.456370684603e-03 1.182355409391e-03 0.0 
0.0 0.0 0.0 
-3.667856159420e-04 2.044963491910e-04 0.0 
2.044963491910e-04 1.099874299724e-02 0.0 
0.0 0.0 0.0 
1.277147071308e-03 3.567885340349e-04 0.0 
3.567885340349e-04 4.129273382155e-03 0.0 
0.0 0.0 0.0 
1.425307510802e-03 2.409617530157e-04 0.0 
2.409617530157e-04 3.535304025271e-03 0.0 
0.0 0.0 0.0 
-1.290246766923e-04 -3.056441643899e-04 0.0 
-3.056441643899e-04 3.594349246096e-03 0.0 
0.0 0.0 0.0 
6.700592230127e-04 3.168516483998e-03 0.0 
3.168516483998e-03 3.323900617686e-04 0.0 
0.0 0.0 0.0 
1.026937603021e-03 3.029114485324e-03 0.0 
3.029114485324e-03 -8.619356207525e-04 0.0 
0.0 0.0 0.0 
1.052885298956e-03 -1.655540172911e-03 0.0 
-1.655540172911e-03 5.221018342781e-04 0.0 
0.0 0.0 0.0 
-1.555644748845e-04 -1.547221077940e-03 0.0 
-1.547221077940e-03 1.322898768273e-03 0.0 
0.0 0.0 0.0 
-8.251242068197e-05 -1.841574454354e-04 0.0 
-1.841574454354e-04 1.913507833577e-03 0.0 
0.0 0.0 0.0 
6.597942957601e-04 4.045523828895e-04 0.0 
4.045523828895e-04 5.858539590779e-03 0.0 
0.0 0.0 0.0 
-4.888083430542e-04 5.899709738378e-04 0.0 
5.899709738378e-04 1.095670734354e-02 0.0 
0.0 0.0 0.0 
3.993954579180e-04 1.773967935856e-03 0.0 
1.773967935856e-03 6.922494996113e-03 0.0 
0.0 0.0 0.0 
4.459753044884e-04 1.808199280124e-03 0.0 
1.808199280124e-03 6.480124416377e-03 0.0 
0.0 0.0 0.0 
3.423757741526e-04 1.771483159041e-03 0.0 
1.771483159041e-03 7.368236714150e-03 0.0 
0.0 0.0 0.0 
-5.721173266424e-04 -1.205365598565e-03 0.0 
-1.205365598565e-03 1.033700339086e-03 0.0 
0.0 0.0 0.0 
5.467093253827e-04 1.931674296819e-04 0.0 
1.931674296819e-04 5.882546187496e-03 0.0 
0.0 0.0 0.0 
-1.471684549168e-05 -9.468677293358e-05 0.0 
-9.468677293358e-05 5.859264319310e-03 0.0 
0.0 0.0 0.0 
-1.275841036892e-04 1.813250935715e-03 0.0 
1.813250935715e-03 8.670095882297e-03 0.0 
0.0 0.0 0.0 
-2.487724504032e-04 1.755458053470e-03 0.0 
1.755458053470e-03 8.808732589491e-03 0.0 
0.0 0.0 0.0 
8.723554035637e-04 2.772255585498e-03 0.0 
2.772255585498e-03 1.995655201187e-03 0.0 
0.0 0.0 0.0 
3.599252245699e-04 2.899416691386e-03 0.0 
2.899416691386e-03 2.657814533541e-03 0.0 
0.0 0.0 0.0 
8.632754743091e-05 3.039279296677e-03 0.0 
3.039279296677e-03 2.447607157593e-03 0.0 
0.0 0.0 0.0 
-1.447138149638e-04 2.884827732026e-03 0.0 
2.884827732026e-03 3.375413932075e-03 0.0 
0.0 0.0 0.0 
-1.053506602444e-03 8.631833473878e-04 0.0 
8.631833473878e-04 8.791121202941e-03 0.0 
0.0 0.0 0.0 
5.400920252587e-04 2.734200564648e-03 0.0 
2.734200564648e-03 2.948852324820e-03 0.0 
0.0 0.0 0.0 
-1.002883900902e-03 1.240577618862e-03 0.0 
1.240577618862e-03 8.112320702437e-03 0.0 
0.0 0.0 0.0 
-1.079568048617e-03 1.038436146259e-03 0.0 
1.038436146259e-03 8.196224890813e-03 0.0 
0.0 0.0 0.0 
-1.075560449979e-03 1.156752655255e-03 0.0 
1.156752655255e-03 7.875265951497e-03 0.0 
0.0 0.0 0.0 
-7.484111754662e-04 1.944670846617e-03 0.0 
1.944670846617e-03 6.397097220423e-03 0.0 
0.0 0.0 0.0 
-9.675489465173e-04 1.688247402851e-03 0.0 
1.688247402851e-03 6.724536384259e-03 0.0 
0.0 0.0 0.0 
1.705212650636e-03 2.110002847220e-03 0.0 
2.110002847220e-03 1.065856718403e-03 0.0 
0.0 0.0 0.0 
1.514453096794e-03 1.315617363431e-03 0.0 
1.315617363431e-03 3.397562185465e-03 0.0 
0.0 0.0 0.0 
4.861763060845e-05 -5.493594947890e-04 0.0 
-5.493594947890e-04 3.609693852443e-03 0.0 
0.0 0.0 0.0 
2.206287531923e-04 -4.028037565805e-04 0.0 
-4.028037565805e-04 4.448126546954e-03 0.0 
0.0 0.0 0.0 
1.029287822031e-03 -4.807983051670e-04 0.0 
-4.807983051670e-04 3.280098049428e-03 0.0 
0.0 0.0 0.0 
-4.589332990843e-04 3.883357033246e-04 0.0 
3.883357033246e-04 1.090113542892e-02 0.0 
0.0 0.0 0.0 
-3.807778689965e-04 3.637174477807e-04 0.0 
3.637174477807e-04 1.110192041372e-02 0.0 
0.0 0.0 0.0 
-6.648842283786e-04 1.547626604100e-04 0.0 
1.547626604100e-04 9.637097181802e-03 0.0 
0.0 0.0 0.0 
-6.530696007573e-04 1.080521061092e-04 0.0 
1.080521061092e-04 9.453420299158e-03 0.0 
0.0 0.0 0.0 
-2.457696729901e-04 -5.361823627662e-04 0.0 
-5.361823627662e-04 1.443132314898e-03 0.0 
0.0 0.0 0.0 
-3.219972175414e-04 -5.987646321007e-04 0.0 
-5.987646321007e-04 1.287087133308e-03 0.0 
0.0 0.0 0.0 
5.526463457290e-04 -6.614986767067e-04 0.0 
-6.614986767067e-04 3.501338406883e-03 0.0 
0.0 0.0 0.0 
5.462080553791e-04 6.894225418181e-05 0.0 
6.894225418181e-05 5.642601155783e-03 0.0 
0.0 0.0 0.0 
-5.472968160230e-04 7.220508307968e-04 0.0 
7.220508307968e-04 1.084775344038e-02 0.0 
0.0 0.0 0.0 
-5.056706081386e-04 8.403485606876e-04 0.0 
8.403485606876e-04 1.093086474669e-02 0.0 
0.0 0.0 0.0 
-5.979227605060e-04 8.719261731471e-04 0.0 
8.719261731471e-04 1.070139720354e-02 0.0 
0.0 0.0 0.0 
7.998120300027e-04 4.798994914646e-04 0.0 
4.798994914646e-04 5.583731374549e-03 0.0 
0.0 0.0 0.0 
2.294603298556e-03 7.566373393076e-04 0.0 
7.566373393076e-04 9.402896486038e-05 0.0 
0.0 0.0 0.0 
1.647819364325e-03 5.831062677422e-04 0.0 
5.831062677422e-04 3.053551930790e-03 0.0 
0.0 0.0 0.0 
2.179808757711e-03 -9.866732358651e-04 0.0 
-9.866732358651e-04 -3.899381697997e-03 0.0 
0.0 0.0 0.0 
4.883004795564e-04 1.951811678610e-03 0.0 
1.951811678610e-03 5.643388457461e-03 0.0 
0.0 0.0 0.0 
-1.624556555485e-04 -3.725854333375e-04 0.0 
-3.725854333375e-04 1.063843010855e-03 0.0 
0.0 0.0 0.0 
-6.013470808016e-04 1.544700313217e-03 0.0 
1.544700313217e-03 8.760729452606e-03 0.0 
0.0 0.0 0.0 
-1.272018994813e-05 -6.588382831112e-05 0.0 
-6.588382831112e-05 6.270933295375e-03 0.0 
0.0 0.0 0.0 
1.491273317733e-05 -6.588377607881e-05 0.0 
-6.588377607881e-05 6.460587118741e-03 0.0 
0.0 0.0 0.0 
5.914223251624e-04 1.560347397451e-03 0.0 
1.560347397451e-03 6.787219227386e-03 0.0 
0.0 0.0 0.0 
-1.089189061055e-03 5.871332787832e-04 0.0 
5.871332787832e-04 8.461610279839e-03 0.0 
0.0 0.0 0.0 
6.939228212066e-04 1.852293582760e-03 0.0 
1.852293582760e-03 5.427145255592e-03 0.0 
0.0 0.0 0.0 
9.277270323795e-04 1.800860734718e-03 0.0 
1.800860734718e-03 4.777190364855e-03 0.0 
0.0 0.0 0.0 
-1.125757334931e-03 9.328532848306e-04 0.0 
9.328532848306e-04 7.940120445604e-03 0.0 
0.0 0.0 0.0 
-1.127861130009e-03 1.050958883684e-03 0.0 
1.050958883684e-03 7.644369383157e-03 0.0 
0.0 0.0 0.0 
-1.056948575831e-03 1.299763809025e-03 0.0 
1.299763809025e-03 7.531235707939e-03 0.0 
0.0 0.0 0.0 
-1.121709130474e-03 1.201181550278e-03 0.0 
1.201181550278e-03 7.319211783044e-03 0.0 
0.0 0.0 0.0 
8.078085019028e-04 -1.544919336581e-03 0.0 
-1.544919336581e-03 1.107967194788e-03 0.0 
0.0 0.0 0.0 
4.341007828877e-04 -1.586663878484e-03 0.0 
-1.586663878484e-03 1.311972984717e-03 0.0 
0.0 0.0 0.0 
-1.300942075084e-05 1.865100128440e-03 0.0 
1.865100128440e-03 8.584917078452e-03 0.0 
0.0 0.0 0.0 
2.022117940704e-04 1.838009652843e-03 0.0 
1.838009652843e-03 7.899812358843e-03 0.0 
0.0 0.0 0.0 
-1.840906489729e-04 1.812847185175e-03 0.0 
1.812847185175e-03 9.137802849366e-03 0.0 
0.0 0.0 0.0 
-2.945134610050e-04 1.734998738622e-03 0.0 
1.734998738622e-03 9.271116832029e-03 0.0 
0.0 0.0 0.0 
5.899847016408e-04 1.466619435314e-03 0.0 
1.466619435314e-03 6.803745976772e-03 0.0 
0.0 0.0 0.0 
7.486170370095e-04 1.318156640659e-03 0.0 
1.318156640659e-03 6.295182852621e-03 0.0 
0.0 0.0 0.0 
-1.396916987442e-04 -2.146172544507e-04 0.0 
-2.146172544507e-04 2.305424608012e-03 0.0 
0.0 0.0 0.0 
-1.073517430502e-03 1.604323797868e-03 0.0 
1.604323797868e-03 6.574845916135e-03 0.0 
0.0 0.0 0.0 
-3.978408033202e-04 5.620246936471e-04 0.0 
5.620246936471e-04 1.116275328607e-02 0.0 
0.0 0.0 0.0 
-1.114711352431e-03 8.355595230248e-04 0.0 
8.355595230248e-04 8.224550236774e-03 0.0 
0.0 0.0 0.0 
4.087715829158e-04 1.467878630320e-04 0.0 
1.467878630320e-04 6.167168869077e-03 0.0 
0.0 0.0 0.0 
4.155931416708e-04 4.660557119458e-05 0.0 
4.660557119458e-05 5.950366035058e-03 0.0 
0.0 0.0 0.0 
1.418544035953e-03 -9.302753079883e-04 0.0 
-9.302753079883e-04 -4.302939937664e-03 0.0 
0.0 0.0 0.0 
1.338888517004e-03 -2.013173272980e-03 0.0 
-2.013173272980e-03 -3.326465182614e-03 0.0 
0.0 0.0 0.0 
-3.051004156694e-04 1.737029342838e-04 0.0 
1.737029342838e-04 1.119267634841e-02 0.0 
0.0 0.0 0.0 
-4.717252909416e-04 2.914198650656e-03 0.0 
2.914198650656e-03 3.258831529979e-03 0.0 
0.0 0.0 0.0 
-6.174496896256e-04 2.704932243888e-03 0.0 
2.704932243888e-03 4.099100616745e-03 0.0 
0.0 0.0 0.0 
-2.840230519761e-04 3.077525257175e-03 0.0 
3.077525257175e-03 2.338285977588e-03 0.0 
0.0 0.0 0.0 
-3.047622603486e-05 -1.211014009929e-05 0.0 
-1.211014009929e-05 7.157285511775e-03 0.0 
0.0 0.0 0.0 
-6.186950722674e-04 5.521146803889e-06 0.0 
5.521146803889e-06 8.641229084535e-03 0.0 
0.0 0.0 0.0 
-1.127328797668e-05 -4.461524625118e-05 0.0 
-4.461524625118e-05 6.687740474413e-03 0.0 
0.0 0.0 0.0 
-8.550331983811e-04 1.727227282755e-03 0.0 
1.727227282755e-03 6.899985919662e-03 0.0 
0.0 0.0 0.0 
-2.658991921601e-04 2.356659465718e-04 0.0 
2.356659465718e-04 1.135526578447e-02 0.0 
0.0 0.0 0.0 
8.584252969228e-04 1.722162171777e-03 0.0 
1.722162171777e-03 5.271717517016e-03 0.0 
0.0 0.0 0.0 
3.489691431142e-04 2.482696386026e-03 0.0 
2.482696386026e-03 4.152682776974e-03 0.0 
0.0 0.0 0.0 
9.756477723121e-04 3.755178550406e-04 0.0 
3.755178550406e-04 5.004084801204e-03 0.0 
0.0 0.0 0.0 
-3.458700956287e-04 1.109501231725e-04 0.0 
1.109501231725e-04 1.100449934744e-02 0.0 
0.0 0.0 0.0 
-2.435439551957e-04 1.379472426010e-04 0.0 
1.379472426010e-04 1.139304164002e-02 0.0 
0.0 0.0 0.0 
-7.667383870074e-04 2.022960079138e-04 0.0 
2.022960079138e-04 9.382716064973e-03 0.0 
0.0 0.0 0.0 
-7.461231703823e-04 1.383287371532e-04 0.0 
1.383287371532e-04 9.191374119858e-03 0.0 
0.0 0.0 0.0 
-7.927073202475e-04 2.704598188331e-04 0.0 
2.704598188331e-04 9.543242446295e-03 0.0 
0.0 0.0 0.0 
2.187596854341e-03 1.954655063189e-03 0.0 
1.954655063189e-03 -2.968479122324e-03 0.0 
0.0 0.0 0.0 
1.538727709183e-03 2.218477275794e-03 0.0 
2.218477275794e-03 -3.150482175756e-03 0.0 
0.0 0.0 0.0 
-4.083528542942e-04 2.914709289577e-04 0.0 
2.914709289577e-04 1.095389241127e-02 0.0 
0.0 0.0 0.0 
-1.641287068024e-04 -4.238966737370e-04 0.0 
-4.238966737370e-04 2.690312204780e-03 0.0 
0.0 0.0 0.0 
-1.685200619803e-04 -3.223898968922e-04 0.0 
-3.223898968922e-04 2.924389849868e-03 0.0 
0.0 0.0 0.0 
-3.577104137268e-04 -1.239730243093e-03 0.0 
-1.239730243093e-03 1.451285133957e-03 0.0 
0.0 0.0 0.0 
-1.521355988158e-04 -1.306249589908e-03 0.0 
-1.306249589908e-03 1.639642737629e-03 0.0 
0.0 0.0 0.0 
9.212229165634e-05 -4.796681298899e-04 0.0 
-4.796681298899e-04 3.967643341452e-03 0.0 
0.0 0.0 0.0 
1.607172211679e-04 -5.870579547956e-04 0.0 
-5.870579547956e-04 3.694637895827e-03 0.0 
0.0 0.0 0.0 
-4.591804663827e-04 1.647019253875e-03 0.0 
1.647019253875e-03 8.622873072684e-03 0.0 
0.0 0.0 0.0 
-5.075806496491e-04 1.588092412951e-03 0.0 
1.588092412951e-03 9.053709812072e-03 0.0 
0.0 0.0 0.0 
-2.706662093155e-04 1.792732019074e-03 0.0 
1.792732019074e-03 7.655981874011e-03 0.0 
0.0 0.0 0.0 
1.278943474751e-03 1.306588163370e-04 0.0 
1.306588163370e-04 3.830672152991e-03 0.0 
0.0 0.0 0.0 
1.403780545074e-03 -9.367089539045e-06 0.0 
-9.367089539045e-06 3.252610937253e-03 0.0 
0.0 0.0 0.0 
1.560941973382e-03 1.163904759172e-04 0.0 
1.163904759172e-04 2.936336205249e-03 0.0 
0.0 0.0 0.0 
-3.485948919269e-04 4.413497767445e-04 0.0 
4.413497767445e-04 1.122844359487e-02 0.0 
0.0 0.0 0.0 
-2.544980534208e-04 4.132685998847e-04 0.0 
4.132685998847e-04 1.146019021846e-02 0.0 
0.0 0.0 0.0 
1.177844160418e-03 -1.374814699626e-03 0.0 
-1.374814699626e-03 9.425349533641e-04 0.0 
0.0 0.0 0.0 
1.458688765751e-03 -1.375962199882e-03 0.0 
-1.375962199882e-03 3.418572259079e-04 0.0 
0.0 0.0 0.0 
6.141142561478e-04 -1.402240994888e-03 0.0 
-1.402240994888e-03 1.603634190978e-03 0.0 
0.0 0.0 0.0 
-3.576197113524e-04 6.618452826562e-04 0.0 
6.618452826562e-04 1.127203150433e-02 0.0 
0.0 0.0 0.0 
7.378182237579e-06 -4.288074254528e-05 0.0 
-4.288074254528e-05 6.880804840555e-03 0.0 
0.0 0.0 0.0 
3.664421957753e-05 -5.926105424679e-05 0.0 
-5.926105424679e-05 6.650109853085e-03 0.0 
0.0 0.0 0.0 
-2.069520051996e-04 -3.894791172985e-04 0.0 
-3.894791172985e-04 9.103699648448e-04 0.0 
0.0 0.0 0.0 
-4.023604889019e-04 -6.622593164480e-04 0.0 
-6.622593164480e-04 1.125210008711e-03 0.0 
0.0 0.0 0.0 
2.001490104756e-04 3.196064836402e-03 0.0 
3.196064836402e-03 2.705591639550e-04 0.0 
0.0 0.0 0.0 
5.140712373470e-04 3.099584413709e-03 0.0 
3.099584413709e-03 -8.985609979333e-04 0.0 
0.0 0.0 0.0 
-4.504210748956e-04 9.633329494905e-04 0.0 
9.633329494905e-04 1.098314330756e-02 0.0 
0.0 0.0 0.0 
-5.477774204131e-04 1.003571326825e-03 0.0 
1.003571326825e-03 1.075462709182e-02 0.0 
0.0 0.0 0.0 
-3.411442965476e-04 9.321017206537e-04 0.0 
9.321017206537e-04 1.123344390984e-02 0.0 
0.0 0.0 0.0 
-8.721469700636e-05 -1.231535680460e-04 0.0 
-1.231535680460e-04 2.055367751298e-03 0.0 
0.0 0.0 0.0 
5.810741805961e-04 1.732168814391e-03 0.0 
1.732168814391e-03 6.356944622487e-03 0.0 
0.0 0.0 0.0 
5.998678586531e-04 5.744920151161e-04 0.0 
5.744920151161e-04 6.153903613197e-03 0.0 
0.0 0.0 0.0 
7.416039914580e-04 6.663495463810e-04 0.0 
6.663495463810e-04 5.911433400241e-03 0.0 
0.0 0.0 0.0 
4.411519373010e-04 4.946616575422e-04 0.0 
4.946616575422e-04 6.500277723431e-03 0.0 
0.0 0.0 0.0 
5.627199194298e-04 1.643908289883e-03 0.0 
1.643908289883e-03 6.798470026503e-03 0.0 
0.0 0.0 0.0 
4.273021662432e-04 1.666377905343e-03 0.0 
1.666377905343e-03 7.288813629836e-03 0.0 
0.0 0.0 0.0 
2.572251562416e-04 1.804391242432e-03 0.0 
1.804391242432e-03 7.827597786341e-03 0.0 
0.0 0.0 0.0 
1.007475279049e-03 9.447050540958e-05 0.0 
9.447050540958e-05 -4.613053564316e-03 0.0 
0.0 0.0 0.0 
-2.675492056536e-04 8.380481464795e-05 0.0 
8.380481464795e-05 1.127431978264e-02 0.0 
0.0 0.0 0.0 
-6.897843032391e-04 1.001096182817e-04 0.0 
1.001096182817e-04 9.217901670994e-03 0.0 
0.0 0.0 0.0 
2.192040501146e-04 -6.036497477238e-04 0.0 
-6.036497477238e-04 -4.462628106884e-03 0.0 
0.0 0.0 0.0 
-6.693800880967e-04 6.548940305705e-05 0.0 
6.548940305705e-05 9.029542678282e-03 0.0 
0.0 0.0 0.0 
-6.435363343572e-04 7.231143011316e-05 0.0 
7.231143011316e-05 9.262023380884e-03 0.0 
0.0 0.0 0.0 
-6.577599011049e-04 3.718564874200e-05 0.0 
3.718564874200e-05 8.813605893637e-03 0.0 
0.0 0.0 0.0 
-5.121360409717e-06 -1.051913200578e-04 0.0 
-1.051913200578e-04 1.641061927618e-03 0.0 
0.0 0.0 0.0 
-8.128944493193e-04 1.821455267681e-04 0.0 
1.821455267681e-04 9.094468567146e-03 0.0 
0.0 0.0 0.0 
-8.448397430728e-04 2.691131651329e-04 0.0 
2.691131651329e-04 9.320546744672e-03 0.0 
0.0 0.0 0.0 
-2.031984853969e-04 -3.392667036500e-04 0.0 
-3.392667036500e-04 6.592810710219e-04 0.0 
0.0 0.0 0.0 
-2.539389021828e-04 6.206757208460e-04 0.0 
6.206757208460e-04 1.146957146970e-02 0.0 
0.0 0.0 0.0 
-9.628798995021e-06 -2.088871177403e-04 0.0 
-2.088871177403e-04 6.513269387733e-04 0.0 
0.0 0.0 0.0 
1.551990445573e-05 -2.215017299152e-04 0.0 
-2.215017299152e-04 8.036165931486e-04 0.0 
0.0 0.0 0.0 
3.076739438764e-04 1.135579776818e-04 0.0 
1.135579776818e-04 6.461899557946e-03 0.0 
0.0 0.0 0.0 
3.061671836492e-04 2.527928346478e-05 0.0 
2.527928346478e-05 6.241713491362e-03 0.0 
0.0 0.0 0.0 
2.039583737451e-04 7.267662890039e-05 0.0 
7.267662890039e-05 6.726170437485e-03 0.0 
0.0 0.0 0.0 
2.060268152981e-04 1.311446188099e-05 0.0 
1.311446188099e-05 6.505200881063e-03 0.0 
0.0 0.0 0.0 
2.832131460446e-04 -4.634111237765e-05 0.0 
-4.634111237765e-05 6.042839602104e-03 0.0 
0.0 0.0 0.0 
1.916505789963e-04 -4.072744614710e-05 0.0 
-4.072744614710e-05 6.331344301525e-03 0.0 
0.0 0.0 0.0 
-7.255186291050e-04 9.049639564501e-05 0.0 
9.049639564501e-05 8.989560605804e-03 0.0 
0.0 0.0 0.0 
1.253690711672e-04 6.657953569338e-06 0.0 
6.657953569338e-06 6.843431829603e-03 0.0 
0.0 0.0 0.0 
1.156656106222e-04 -3.859366954367e-05 0.0 
-3.859366954367e-05 6.612473445491e-03 0.0 
0.0 0.0 0.0 
6.442060951121e-05 -1.465374890967e-05 0.0 
-1.465374890967e-05 7.118376196911e-03 0.0 
0.0 0.0 0.0 
-1.153490266373e-03 9.113350893693e-04 0.0 
9.113350893693e-04 7.415015555114e-03 0.0 
0.0 0.0 0.0 
-3.785146563448e-04 2.699962468777e-03 0.0 
2.699962468777e-03 4.223496196893e-03 0.0 
0.0 0.0 0.0 
-7.867152223328e-04 2.435494668546e-03 0.0 
2.435494668546e-03 4.900463172273e-03 0.0 
0.0 0.0 0.0 
-1.031468517712e-03 2.279101054416e-03 0.0 
2.279101054416e-03 4.884161284701e-03 0.0 
0.0 0.0 0.0 
-1.927329204746e-04 1.824592532037e-03 0.0 
1.824592532037e-03 9.641089386942e-03 0.0 
0.0 0.0 0.0 
-3.134848421417e-04 1.711258800824e-03 0.0 
1.711258800824e-03 9.671894948674e-03 0.0 
0.0 0.0 0.0 
-3.907820088345e-05 -5.590801774831e-05 0.0 
-5.590801774831e-05 6.086406995386e-03 0.0 
0.0 0.0 0.0 
-4.804019284231e-05 -7.557732933907e-05 0.0 
-7.557732933907e-05 5.680983341443e-03 0.0 
0.0 0.0 0.0 
-6.381120131310e-04 4.337914701592e-05 0.0 
4.337914701592e-05 9.045272057905e-03 0.0 
0.0 0.0 0.0 
-6.212644750021e-04 2.769205467832e-05 0.0 
2.769205467832e-05 9.019376003897e-03 0.0 
0.0 0.0 0.0 
-6.067745441848e-04 5.736414636552e-05 0.0 
5.736414636552e-05 9.390890278455e-03 0.0 
0.0 0.0 0.0 
-5.967666312546e-04 3.487977224820e-05 0.0 
3.487977224820e-05 9.339498201717e-03 0.0 
0.0 0.0 0.0 
-5.720944400746e-04 6.308001533430e-05 0.0 
6.308001533430e-05 9.705088180239e-03 0.0 
0.0 0.0 0.0 
-5.645525014571e-04 3.454269416197e-05 0.0 
3.454269416197e-05 9.646481085994e-03 0.0 
0.0 0.0 0.0 
-5.290732513696e-04 5.643346619208e-05 0.0 
5.643346619208e-05 1.001226060301e-02 0.0 
0.0 0.0 0.0 
1.326967108039e-04 1.900037051992e-03 0.0 
1.900037051992e-03 8.390455985772e-03 0.0 
0.0 0.0 0.0 
-8.510878465339e-04 2.833504345969e-03 0.0 
2.833504345969e-03 3.191450133993e-03 0.0 
0.0 0.0 0.0 
-1.131133503460e-03 7.125712285183e-04 0.0 
7.125712285183e-04 7.948934634928e-03 0.0 
0.0 0.0 0.0 
5.488104644216e-04 1.363308455996e-03 0.0 
1.363308455996e-03 6.851965794531e-03 0.0 
0.0 0.0 0.0 
7.072656305823e-04 1.201828239750e-03 0.0 
1.201828239750e-03 6.341041280147e-03 0.0 
0.0 0.0 0.0 
-1.105165834584e-03 1.384670715732e-03 0.0 
1.384670715732e-03 6.965895991189e-03 0.0 
0.0 0.0 0.0 
-1.158305263564e-03 1.227752950914e-03 0.0 
1.227752950914e-03 6.800938408853e-03 0.0 
0.0 0.0 0.0 
3.599386068899e-04 2.706257103262e-04 0.0 
2.706257103262e-04 6.506919632448e-03 0.0 
0.0 0.0 0.0 
9.821237107280e-04 2.566603390639e-03 0.0 
2.566603390639e-03 2.396573871570e-03 0.0 
0.0 0.0 0.0 
-1.802738593429e-04 7.345093330317e-04 0.0 
7.345093330317e-04 1.159936361515e-02 0.0 
0.0 0.0 0.0 
-1.016326823755e-03 2.107589743521e-03 0.0 
2.107589743521e-03 -3.059424547470e-03 0.0 
0.0 0.0 0.0 
5.106913112051e-04 2.080237839004e-03 0.0 
2.080237839004e-03 -3.570131400595e-03 0.0 
0.0 0.0 0.0 
6.526796086772e-04 2.554544593565e-03 0.0 
2.554544593565e-03 3.297693328113e-03 0.0 
0.0 0.0 0.0 
-1.023676397378e-03 1.476273727438e-03 0.0 
1.476273727438e-03 7.149387862208e-03 0.0 
0.0 0.0 0.0 
-5.821686122378e-04 2.449968282310e-03 0.0 
2.449968282310e-03 4.993898108947e-03 0.0 
0.0 0.0 0.0 
-9.100271083240e-04 2.170352837763e-03 0.0 
2.170352837763e-03 5.551627402530e-03 0.0 
0.0 0.0 0.0 
1.138921462438e-03 2.605878088824e-04 0.0 
2.605878088824e-04 4.413741340835e-03 0.0 
0.0 0.0 0.0 
-4.656316211947e-04 -7.455235247582e-04 0.0 
-7.455235247582e-04 9.655826046770e-04 0.0 
0.0 0.0 0.0 
-7.057551121116e-05 3.179078559494e-03 0.0 
3.179078559494e-03 1.342333641510e-03 0.0 
0.0 0.0 0.0 
-5.371728864202e-04 9.660288239163e-05 0.0 
9.660288239163e-05 1.005764792377e-02 0.0 
0.0 0.0 0.0 
-5.656987835349e-04 3.060707741867e-03 0.0 
3.060707741867e-03 1.359900190028e-03 0.0 
0.0 0.0 0.0 
-5.902037004104e-05 -3.272568547478e-05 0.0 
-3.272568547478e-05 5.914249078494e-03 0.0 
0.0 0.0 0.0 
1.364110507819e-03 2.284681088921e-03 0.0 
2.284681088921e-03 1.973620323247e-03 0.0 
0.0 0.0 0.0 
-6.271790798448e-04 1.927086969941e-03 0.0 
1.927086969941e-03 6.589525810131e-03 0.0 
0.0 0.0 0.0 
3.573867287191e-04 3.153871803969e-03 0.0 
3.153871803969e-03 1.436453684361e-03 0.0 
0.0 0.0 0.0 
7.119944778274e-05 2.777548024032e-03 0.0 
2.777548024032e-03 3.585526388599e-03 0.0 
0.0 0.0 0.0 
-1.007926038008e-03 1.035934135916e-03 0.0 
1.035934135916e-03 8.771996751903e-03 0.0 
0.0 0.0 0.0 
-1.069895855462e-03 6.972754647557e-04 0.0 
6.972754647557e-04 8.768171622949e-03 0.0 
0.0 0.0 0.0 
-1.095692819017e-03 7.579801950293e-04 0.0 
7.579801950293e-04 8.501177228402e-03 0.0 
0.0 0.0 0.0 
1.666625048164e-03 1.928937502828e-03 0.0 
1.928937502828e-03 1.673711744566e-03 0.0 
0.0 0.0 0.0 
-1.011766318833e-03 1.866698727817e-03 0.0 
1.866698727817e-03 6.133390477992e-03 0.0 
0.0 0.0 0.0 
-1.129809953573e-03 1.674653639009e-03 0.0 
1.674653639009e-03 6.038904429356e-03 0.0 
0.0 0.0 0.0 
-8.840170664761e-04 1.431216812809e-03 0.0 
1.431216812809e-03 7.974918344683e-03 0.0 
0.0 0.0 0.0 
-6.818955031236e-04 9.027182236570e-04 0.0 
9.027182236570e-04 1.046001793642e-02 0.0 
0.0 0.0 0.0 
-6.308733871708e-04 1.035185710405e-03 0.0 
1.035185710405e-03 1.050059311162e-02 0.0 
0.0 0.0 0.0 
-4.860732497296e-04 1.131344790016e-03 0.0 
1.131344790016e-03 1.077146935927e-02 0.0 
0.0 0.0 0.0 
-5.697603338627e-04 1.168916259423e-03 0.0 
1.168916259423e-03 1.051480418984e-02 0.0 
0.0 0.0 0.0 
-7.044829313202e-04 1.069360115291e-03 0.0 
1.069360115291e-03 1.023278796056e-02 0.0 
0.0 0.0 0.0 
-6.383900357373e-04 1.204931919116e-03 0.0 
1.204931919116e-03 1.023407181505e-02 0.0 
0.0 0.0 0.0 
-4.876990510395e-04 1.302638433462e-03 0.0 
1.302638433462e-03 1.051221849083e-02 0.0 
0.0 0.0 0.0 
-5.535776059180e-04 1.344752346921e-03 0.0 
1.344752346921e-03 1.021638408130e-02 0.0 
0.0 0.0 0.0 
-3.766182894340e-04 1.458405837786e-03 0.0 
1.458405837786e-03 1.054239153358e-02 0.0 
0.0 0.0 0.0 
-4.610910326658e-04 1.478169863816e-03 0.0 
1.478169863816e-03 1.016151730618e-02 0.0 
0.0 0.0 0.0 
-5.991794639657e-04 1.382950452781e-03 0.0 
1.382950452781e-03 9.878984391439e-03 0.0 
0.0 0.0 0.0 
-5.056189775309e-04 1.505120192363e-03 0.0 
1.505120192363e-03 9.809919765901e-03 0.0 
0.0 0.0 0.0 
-3.826096589710e-04 1.599242190930e-03 0.0 
1.599242190930e-03 1.006395877124e-02 0.0 
0.0 0.0 0.0 
-6.288863941550e-04 1.425250558712e-03 0.0 
1.425250558712e-03 9.526959925744e-03 0.0 
0.0 0.0 0.0 
3.745308888682e-04 1.521684289072e-03 0.0 
1.521684289072e-03 7.349056673657e-03 0.0 
0.0 0.0 0.0 
7.154807718868e-04 2.373340633589e-03 0.0 
2.373340633589e-03 3.696594182106e-03 0.0 
0.0 0.0 0.0 
1.492817160919e-03 1.132500675622e-03 0.0 
1.132500675622e-03 -4.159239911681e-03 0.0 
0.0 0.0 0.0 
6.088002450666e-04 2.881154189276e-03 0.0 
2.881154189276e-03 -2.467081319557e-03 0.0 
0.0 0.0 0.0 
-7.425081986555e-04 1.741264795187e-03 0.0 
1.741264795187e-03 7.100491723132e-03 0.0 
0.0 0.0 0.0 
-1.948264469758e-04 1.511627959716e-03 0.0 
1.511627959716e-03 1.090697451453e-02 0.0 
0.0 0.0 0.0 
-2.013389569728e-04 1.265129686124e-03 0.0 
1.265129686124e-03 1.122425066242e-02 0.0 
0.0 0.0 0.0 
1.694976204282e-03 2.329044340778e-03 0.0 
2.329044340778e-03 4.695301413827e-04 0.0 
0.0 0.0 0.0 
-8.382111568541e-05 1.959905563673e-03 0.0 
1.959905563673e-03 9.839460980460e-03 0.0 
0.0 0.0 0.0 
-1.072316862689e-03 9.403719078846e-04 0.0 
9.403719078846e-04 8.499922141565e-03 0.0 
0.0 0.0 0.0 
2.378659876301e-03 1.794595677387e-03 0.0 
1.794595677387e-03 -2.380804507178e-03 0.0 
0.0 0.0 0.0 
-4.334404007322e-06 2.014783264678e-03 0.0 
2.014783264678e-03 9.284063209153e-03 0.0 
0.0 0.0 0.0 
-7.566642671392e-04 9.342551581086e-04 0.0 
9.342551581086e-04 1.020636724889e-02 0.0 
0.0 0.0 0.0 
-8.206018210652e-04 9.662030888578e-04 0.0 
9.662030888578e-04 9.936749884676e-03 0.0 
0.0 0.0 0.0 
-8.590684420834e-04 8.301997614634e-04 0.0 
8.301997614634e-04 9.899869418599e-03 0.0 
0.0 0.0 0.0 
-1.791153044465e-04 1.053658316213e-03 0.0 
1.053658316213e-03 1.143899368786e-02 0.0 
0.0 0.0 0.0 
-8.115399377200e-04 3.540698452141e-04 0.0 
3.540698452141e-04 9.704492250032e-03 0.0 
0.0 0.0 0.0 
1.544752883681e-04 1.825544206044e-03 0.0 
1.825544206044e-03 8.206894963755e-03 0.0 
0.0 0.0 0.0 
1.379724875786e-03 1.281854498256e-03 0.0 
1.281854498256e-03 3.996314260017e-03 0.0 
0.0 0.0 0.0 
1.301946822421e-03 1.498410434405e-03 0.0 
1.498410434405e-03 4.020898608566e-03 0.0 
0.0 0.0 0.0 
1.412040580814e-03 1.569015583840e-03 0.0 
1.569015583840e-03 3.447683225299e-03 0.0 
0.0 0.0 0.0 
-6.903648053302e-04 1.243667449791e-03 0.0 
1.243667449791e-03 9.925742921481e-03 0.0 
0.0 0.0 0.0 
2.701459324047e-04 1.257546806676e-03 0.0 
1.257546806676e-03 7.334510060437e-03 0.0 
0.0 0.0 0.0 
5.064887932107e-04 1.096700571764e-03 0.0 
1.096700571764e-03 6.747493056051e-03 0.0 
0.0 0.0 0.0 
5.054437481028e-04 9.428873073474e-04 0.0 
9.428873073474e-04 6.643141031199e-03 0.0 
0.0 0.0 0.0 
7.228937887655e-04 9.459084426570e-04 0.0 
9.459084426570e-04 6.141058019342e-03 0.0 
0.0 0.0 0.0 
2.698620565479e-04 9.249480912155e-04 0.0 
9.249480912155e-04 7.122349591067e-03 0.0 
0.0 0.0 0.0 
-1.548502688095e-04 1.730083716464e-03 0.0 
1.730083716464e-03 1.056592604607e-02 0.0 
0.0 0.0 0.0 
-1.296255886388e-04 1.825976741159e-03 0.0 
1.825976741159e-03 1.035812448755e-02 0.0 
0.0 0.0 0.0 
1.360411730516e-03 -1.695766193905e-03 0.0 
-1.695766193905e-03 -1.633140711066e-04 0.0 
0.0 0.0 0.0 
1.779068369251e-03 -1.277876962397e-03 0.0 
-1.277876962397e-03 -3.161887576653e-04 0.0 
0.0 0.0 0.0 
1.781224388555e-03 -9.868129859323e-04 0.0 
-9.868129859323e-04 2.959390007644e-04 0.0 
0.0 0.0 0.0 
2.069687236933e-03 -7.624430785484e-04 0.0 
-7.624430785484e-04 -2.880257729063e-04 0.0 
0.0 0.0 0.0 
2.121102047479e-03 -1.033871855752e-03 0.0 
-1.033871855752e-03 -1.017915893295e-03 0.0 
0.0 0.0 0.0 
2.333490849050e-03 -3.921946308068e-04 0.0 
-3.921946308068e-04 -8.448864091609e-04 0.0 
0.0 0.0 0.0 
2.218391677814e-03 -2.189486766302e-04 0.0 
-2.189486766302e-04 -6.730748691934e-05 0.0 
0.0 0.0 0.0 
2.522934050853e-03 1.392219896927e-04 0.0 
1.392219896927e-04 -1.308042854269e-03 0.0 
0.0 0.0 0.0 
-4.122745431332e-04 1.640615700639e-03 0.0 
1.640615700639e-03 9.363799447155e-03 0.0 
0.0 0.0 0.0 
2.305755953451e-04 6.192897451277e-04 0.0 
6.192897451277e-04 7.052174207112e-03 0.0 
0.0 0.0 0.0 
9.784349373911e-04 -3.099042084381e-04 0.0 
-3.099042084381e-04 3.777996775984e-03 0.0 
0.0 0.0 0.0 
1.153463214543e-03 -2.959356440585e-04 0.0 
-2.959356440585e-04 3.409678548711e-03 0.0 
0.0 0.0 0.0 
1.214781237859e-03 -4.742569097067e-04 0.0 
-4.742569097067e-04 2.888985270578e-03 0.0 
0.0 0.0 0.0 
1.051178060383e-04 -6.692105722720e-04 0.0 
-6.692105722720e-04 3.342956531747e-03 0.0 
0.0 0.0 0.0 
2.404161408368e-04 -7.029991359897e-04 0.0 
-7.029991359897e-04 3.401832384062e-03 0.0 
0.0 0.0 0.0 
2.889969119606e-04 -5.964182193023e-04 0.0 
-5.964182193023e-04 3.768395341902e-03 0.0 
0.0 0.0 0.0 
-6.159068133338e-06 -6.068319270502e-04 0.0 
-6.068319270502e-04 3.265522481276e-03 0.0 
0.0 0.0 0.0 
2.759228312505e-04 1.860606858137e-03 0.0 
1.860606858137e-03 6.663503465981e-03 0.0 
0.0 0.0 0.0 
2.101833896588e-04 4.822598162851e-04 0.0 
4.822598162851e-04 7.036821212158e-03 0.0 
0.0 0.0 0.0 
1.552005975726e-03 3.917745077014e-04 0.0 
3.917745077014e-04 3.272952019189e-03 0.0 
0.0 0.0 0.0 
3.335737473444e-04 -8.266324015648e-04 0.0 
-8.266324015648e-04 3.085445625506e-03 0.0 
0.0 0.0 0.0 
-9.156608501535e-04 2.100922114875e-04 0.0 
2.100922114875e-04 8.677928888769e-03 0.0 
0.0 0.0 0.0 
-9.370255320931e-04 3.263260538244e-04 0.0 
3.263260538244e-04 9.006310968155e-03 0.0 
0.0 0.0 0.0 
-9.883544698018e-04 3.963298849784e-04 0.0 
3.963298849784e-04 8.981830834582e-03 0.0 
0.0 0.0 0.0 
-9.404998588313e-04 4.567345566778e-04 0.0 
4.567345566778e-04 9.345140639706e-03 0.0 
0.0 0.0 0.0 
-8.930617159032e-04 2.654056529480e-04 0.0 
2.654056529480e-04 9.065716868060e-03 0.0 
0.0 0.0 0.0 
3.394479232804e-05 -3.805303941616e-04 0.0 
-3.805303941616e-04 4.223720411080e-03 0.0 
0.0 0.0 0.0 
-1.297718146696e-05 -2.895507739090e-04 0.0 
-2.895507739090e-04 4.462902870340e-03 0.0 
0.0 0.0 0.0 
-7.216232631522e-05 -2.459685591787e-04 0.0 
-2.459685591787e-04 4.319062887342e-03 0.0 
0.0 0.0 0.0 
-4.844169155305e-05 -2.072529610522e-04 0.0 
-2.072529610522e-04 4.686147533637e-03 0.0 
0.0 0.0 0.0 
-9.311119251073e-05 -1.652160805788e-04 0.0 
-1.652160805788e-04 4.516278015872e-03 0.0 
0.0 0.0 0.0 
-1.136929378137e-04 -1.941194781663e-04 0.0 
-1.941194781663e-04 4.177634133159e-03 0.0 
0.0 0.0 0.0 
-7.428248314711e-05 -1.326297255584e-04 0.0 
-1.326297255584e-04 4.889539465721e-03 0.0 
0.0 0.0 0.0 
-1.091576454239e-04 -9.154429024840e-05 0.0 
-9.154429024840e-05 4.676584247543e-03 0.0 
0.0 0.0 0.0 
-8.316588367510e-04 1.245021756942e-04 0.0 
1.245021756942e-04 8.691241085112e-03 0.0 
0.0 0.0 0.0 
-1.168387537032e-03 -1.922730069939e-03 0.0 
-1.922730069939e-03 -9.611030642770e-04 0.0 
0.0 0.0 0.0 
-6.783254804023e-04 -2.289060032014e-03 0.0 
-2.289060032014e-03 -6.206125876038e-04 0.0 
0.0 0.0 0.0 
-8.141410269144e-04 -1.609791327620e-03 0.0 
-1.609791327620e-03 2.662886208494e-04 0.0 
0.0 0.0 0.0 
-3.454825302300e-04 -2.319036890703e-03 0.0 
-2.319036890703e-03 -4.004617850609e-04 0.0 
0.0 0.0 0.0 
3.937767587254e-04 -2.511322085125e-03 0.0 
-2.511322085125e-03 -1.716165960646e-03 0.0 
0.0 0.0 0.0 
5.049176326011e-04 -2.438279328046e-03 0.0 
-2.438279328046e-03 -1.140847940600e-03 0.0 
0.0 0.0 0.0 
1.245632398622e-03 -2.327679403684e-03 0.0 
-2.327679403684e-03 -2.386456876458e-03 0.0 
0.0 0.0 0.0 
2.477196505585e-05 -2.451353151216e-03 0.0 
-2.451353151216e-03 -2.396205995861e-03 0.0 
0.0 0.0 0.0 
-5.891591448914e-04 -5.907147038500e-04 0.0 
-5.907147038500e-04 3.204695259753e-04 0.0 
0.0 0.0 0.0 
-6.762444478084e-04 -1.048146152514e-03 0.0 
-1.048146152514e-03 5.514603481137e-04 0.0 
0.0 0.0 0.0 
-2.296364336732e-04 -3.204989206725e-04 0.0 
-3.204989206725e-04 2.897375877545e-04 0.0 
0.0 0.0 0.0 
-4.842901409342e-04 -6.685471584255e-04 0.0 
-6.685471584255e-04 6.266283911081e-04 0.0 
0.0 0.0 0.0 
-6.228375185108e-04 -1.328161266779e-03 0.0 
-1.328161266779e-03 7.692018196397e-04 0.0 
0.0 0.0 0.0 
-4.011485401288e-04 -9.017947304983e-04 0.0 
-9.017947304983e-04 1.430042646572e-03 0.0 
0.0 0.0 0.0 
-9.833930746859e-07 -3.303170487192e-05 0.0 
-3.303170487192e-05 7.331879184240e-03 0.0 
0.0 0.0 0.0 
-1.738510901130e-04 -8.026549710679e-05 0.0 
-8.026549710679e-05 3.662984442685e-03 0.0 
0.0 0.0 0.0 
-1.750570615603e-04 -1.600701154503e-04 0.0 
-1.600701154503e-04 3.472985907516e-03 0.0 
0.0 0.0 0.0 
-1.785045518422e-04 -1.590007848367e-04 0.0 
-1.590007848367e-04 3.123671163929e-03 0.0 
0.0 0.0 0.0 
-1.665417574957e-04 -2.545200312678e-04 0.0 
-2.545200312678e-04 3.283714187606e-03 0.0 
0.0 0.0 0.0 
-1.598323204588e-04 -1.498238488385e-04 0.0 
-1.498238488385e-04 3.796627490833e-03 0.0 
0.0 0.0 0.0 
-1.771982428554e-04 -7.614511383135e-05 0.0 
-7.614511383135e-05 2.935842093000e-03 0.0 
0.0 0.0 0.0 
-1.693058245780e-04 -1.500445473760e-04 0.0 
-1.500445473760e-04 2.789551918303e-03 0.0 
0.0 0.0 0.0 
5.108816946025e-04 -1.531472003225e-05 0.0 
-1.531472003225e-05 3.873158112520e-05 0.0 
0.0 0.0 0.0 
3.621667822642e-04 -3.229560030463e-05 0.0 
-3.229560030463e-05 4.183182927125e-04 0.0 
0.0 0.0 0.0 
3.976234471736e-04 -2.903201015863e-06 0.0 
-2.903201015863e-06 3.702614552045e-04 0.0 
0.0 0.0 0.0 
2.213151920922e-04 -4.337206792482e-05 0.0 
-4.337206792482e-05 8.301720229868e-04 0.0 
0.0 0.0 0.0 
2.137332817299e-04 -7.161465816699e-05 0.0 
-7.161465816699e-05 8.220161156280e-04 0.0 
0.0 0.0 0.0 
3.447105714106e-04 -4.618270082861e-05 0.0 
-4.618270082861e-05 4.276486791500e-04 0.0 
0.0 0.0 0.0 
3.082511238548e-04 -5.929491361874e-05 0.0 
-5.929491361874e-05 4.432038106911e-04 0.0 
0.0 0.0 0.0 
4.689057577360e-04 -2.761663834455e-05 0.0 
-2.761663834455e-05 5.666884172965e-05 0.0 
0.0 0.0 0.0 
2.600629273071e-04 -8.060098718981e-05 0.0 
-8.060098718981e-05 4.658074948951e-04 0.0 
0.0 0.0 0.0 
1.256030613784e-04 -1.360175671010e-04 0.0 
-1.360175671010e-04 8.718154560205e-04 0.0 
0.0 0.0 0.0 
4.429870233527e-04 -3.716006320981e-05 0.0 
-3.716006320981e-05 5.861666257786e-05 0.0 
0.0 0.0 0.0 
-4.401260079900e-04 2.838851965197e-05 0.0 
2.838851965197e-05 1.051260163662e-02 0.0 
0.0 0.0 0.0 
-4.023714195006e-04 6.782030358361e-05 0.0 
6.782030358361e-05 1.071512914348e-02 0.0 
0.0 0.0 0.0 
1.691647474514e-04 2.574913177313e-04 0.0 
2.574913177313e-04 7.046356502893e-03 0.0 
0.0 0.0 0.0 
-7.535843016134e-04 7.633549532545e-05 0.0 
7.633549532545e-05 8.735491838585e-03 0.0 
0.0 0.0 0.0 
7.975521472229e-05 -1.270363250164e-04 0.0 
-1.270363250164e-04 2.073077798930e-04 0.0 
0.0 0.0 0.0 
-1.338721564258e-04 2.666193941357e-04 0.0 
2.666193941357e-04 1.174198933926e-02 0.0 
0.0 0.0 0.0 
-1.353382560043e-04 4.841294686866e-04 0.0 
4.841294686866e-04 1.174151037748e-02 0.0 
0.0 0.0 0.0 
-1.204802489391e-04 4.146349828107e-04 0.0 
4.146349828107e-04 1.177002608408e-02 0.0 
0.0 0.0 0.0 
-4.173782054266e-05 -1.582693417313e-05 0.0 
-1.582693417313e-05 6.743136139515e-03 0.0 
0.0 0.0 0.0 
-2.654531570404e-05 -2.685771194957e-05 0.0 
-2.685771194957e-05 6.933761547119e-03 0.0 
0.0 0.0 0.0 
-1.198503328568e-04 1.513581000147e-04 0.0 
1.513581000147e-04 1.176785961498e-02 0.0 
0.0 0.0 0.0 
-1.352307255524e-04 -9.349092168845e-04 0.0 
-9.349092168845e-04 2.151934706456e-03 0.0 
0.0 0.0 0.0 
-4.232966535244e-04 1.271150997805e-03 0.0 
1.271150997805e-03 1.077770135279e-02 0.0 
0.0 0.0 0.0 
-3.370788756629e-04 2.664310086271e-04 0.0 
2.664310086271e-04 1.115078219658e-02 0.0 
0.0 0.0 0.0 
1.816897315623e-03 2.539590098920e-03 0.0 
2.539590098920e-03 -1.804321092709e-03 0.0 
0.0 0.0 0.0 
1.004319017346e-04 -1.500459688302e-03 0.0 
-1.500459688302e-03 1.505799791478e-03 0.0 
0.0 0.0 0.0 
-2.111231843814e-05 -1.271530109647e-04 0.0 
-1.271530109647e-04 5.458212581539e-03 0.0 
0.0 0.0 0.0 
3.238622980093e-04 -3.777440647353e-04 0.0 
-3.777440647353e-04 4.559057794491e-03 0.0 
0.0 0.0 0.0 
5.833993923747e-05 -9.039167892936e-05 0.0 
-9.039167892936e-05 6.222394896397e-03 0.0 
0.0 0.0 0.0 
7.306927683263e-05 -2.520452592188e-04 0.0 
-2.520452592188e-04 4.983768061382e-03 0.0 
0.0 0.0 0.0 
1.942829939030e-04 -1.490167358299e-04 0.0 
-1.490167358299e-04 5.704000090991e-03 0.0 
0.0 0.0 0.0 
5.053282715188e-04 7.689374856152e-04 0.0 
7.689374856152e-04 6.527982519948e-03 0.0 
0.0 0.0 0.0 
8.968847084715e-06 -1.514903129792e-04 0.0 
-1.514903129792e-04 1.498357595190e-03 0.0 
0.0 0.0 0.0 
-6.734459397362e-04 2.087372416842e-04 0.0 
2.087372416842e-04 9.810864561608e-03 0.0 
0.0 0.0 0.0 
-6.156240175150e-04 1.112818630264e-04 0.0 
1.112818630264e-04 9.668281882546e-03 0.0 
0.0 0.0 0.0 
-4.959809608887e-04 2.467681625478e-04 0.0 
2.467681625478e-04 1.059880260560e-02 0.0 
0.0 0.0 0.0 
-1.678657450082e-04 -5.249956465167e-04 0.0 
-5.249956465167e-04 2.489132298684e-03 0.0 
0.0 0.0 0.0 
-9.697834675495e-05 -2.839982118398e-04 0.0 
-2.839982118398e-04 3.969432304087e-03 0.0 
0.0 0.0 0.0 
-1.964538602174e-04 -4.730420341206e-04 0.0 
-4.730420341206e-04 1.614286917819e-03 0.0 
0.0 0.0 0.0 
-4.251711323017e-05 1.921388184369e-03 0.0 
1.921388184369e-03 9.101796005687e-03 0.0 
0.0 0.0 0.0 
-9.754483203905e-04 1.375193000024e-03 0.0 
1.375193000024e-03 7.747167031890e-03 0.0 
0.0 0.0 0.0 
1.054283401307e-03 -6.677107331687e-04 0.0 
-6.677107331687e-04 2.796165519201e-03 0.0 
0.0 0.0 0.0 
3.519183632753e-05 -7.359340484372e-04 0.0 
-7.359340484372e-04 3.008494842602e-03 0.0 
0.0 0.0 0.0 
4.366175514858e-06 -1.094185665251e-03 0.0 
-1.094185665251e-03 2.156518665114e-03 0.0 
0.0 0.0 0.0 
1.868870383503e-04 -1.744715078109e-03 0.0 
-1.744715078109e-03 1.080720977308e-03 0.0 
0.0 0.0 0.0 
4.218850633384e-04 2.327657051433e-03 0.0 
2.327657051433e-03 4.494061057001e-03 0.0 
0.0 0.0 0.0 
5.130380029846e-04 -8.095744640631e-04 0.0 
-8.095744640631e-04 3.108537421865e-03 0.0 
0.0 0.0 0.0 
5.983884534216e-04 -1.535729474978e-04 0.0 
-1.535729474978e-04 4.954885606877e-03 0.0 
0.0 0.0 0.0 
-4.317617542885e-04 2.285686290578e-04 0.0 
2.285686290578e-04 1.080007500871e-02 0.0 
0.0 0.0 0.0 
2.819095249930e-04 -6.736020804841e-05 0.0 
-6.736020804841e-05 1.657691226354e-04 0.0 
0.0 0.0 0.0 
6.569555416623e-04 -3.565593558029e-05 0.0 
-3.565593558029e-05 5.129318465289e-03 0.0 
0.0 0.0 0.0 
5.653882359362e-04 -5.164068132793e-04 0.0 
-5.164068132793e-04 3.917036417750e-03 0.0 
0.0 0.0 0.0 
-7.513242857047e-04 3.532123540516e-04 0.0 
3.532123540516e-04 9.925854330840e-03 0.0 
0.0 0.0 0.0 
1.080928855498e-03 1.114172535577e-03 0.0 
1.114172535577e-03 5.212718509253e-03 0.0 
0.0 0.0 0.0 
1.737839783483e-04 -2.328073032220e-03 0.0 
-2.328073032220e-03 -2.637070709052e-04 0.0 
0.0 0.0 0.0 
-5.368297351678e-04 4.073720186594e-04 0.0 
4.073720186594e-04 1.069986871004e-02 0.0 
0.0 0.0 0.0 
-4.112821493617e-04 7.992979013970e-04 0.0 
7.992979013970e-04 1.113636753991e-02 0.0 
0.0 0.0 0.0 
-8.653775299755e-04 3.549679077580e-04 0.0 
3.549679077580e-04 9.481375690101e-03 0.0 
0.0 0.0 0.0 
-1.183679076837e-04 -3.455441652972e-04 0.0 
-3.455441652972e-04 1.225637670385e-03 0.0 
0.0 0.0 0.0 
-7.084891319186e-04 1.480598418028e-04 0.0 
1.480598418028e-04 9.414003953327e-03 0.0 
0.0 0.0 0.0 
5.104058454601e-04 3.315204754006e-04 0.0 
3.315204754006e-04 6.139937017713e-03 0.0 
0.0 0.0 0.0 
-7.188531818787e-04 7.753567831786e-04 0.0 
7.753567831786e-04 1.039572218517e-02 0.0 
0.0 0.0 0.0 
-1.676309099287e-04 -3.971837597648e-04 0.0 
-3.971837597648e-04 2.329112876889e-03 0.0 
0.0 0.0 0.0 
1.798809511036e-03 5.150536483560e-04 0.0 
5.150536483560e-04 2.413799968262e-03 0.0 
0.0 0.0 0.0 
-3.592654899521e-04 2.059204530812e-03 0.0 
2.059204530812e-03 6.247174389725e-03 0.0 
0.0 0.0 0.0 
-1.077334835956e-03 4.643153749735e-04 0.0 
4.643153749735e-04 8.151085362549e-03 0.0 
0.0 0.0 0.0 
-3.044949253688e-04 3.316299358687e-04 0.0 
3.316299358687e-04 1.128705205094e-02 0.0 
0.0 0.0 0.0 
9.824134594638e-04 1.905370709768e-03 0.0 
1.905370709768e-03 4.290401795899e-03 0.0 
0.0 0.0 0.0 
9.586890753303e-04 8.603300009504e-04 0.0 
8.603300009504e-04 5.481298269267e-03 0.0 
0.0 0.0 0.0 
1.491882637605e-03 6.497840746593e-04 0.0 
6.497840746593e-04 3.674330877896e-03 0.0 
0.0 0.0 0.0 
-1.643382158681e-04 -3.148404620427e-04 0.0 
-3.148404620427e-04 2.517742028557e-03 0.0 
0.0 0.0 0.0 
3.904760345135e-04 -4.743711343074e-05 0.0 
-4.743711343074e-05 5.755232700453e-03 0.0 
0.0 0.0 0.0 
1.642832535142e-03 1.367269033883e-03 0.0 
1.367269033883e-03 2.783909409475e-03 0.0 
0.0 0.0 0.0 
-4.340502942762e-04 4.712385127380e-04 0.0 
4.712385127380e-04 1.103835214044e-02 0.0 
0.0 0.0 0.0 
-2.122386396916e-04 1.778763148401e-03 0.0 
1.778763148401e-03 7.980663965410e-03 0.0 
0.0 0.0 0.0 
2.149601382868e-03 7.568171170311e-04 0.0 
7.568171170311e-04 8.472100989928e-04 0.0 
0.0 0.0 0.0 
-5.775781608703e-04 6.143759362308e-04 0.0 
6.143759362308e-04 1.074703510647e-02 0.0 
0.0 0.0 0.0 
1.409425966302e-03 -4.298484531959e-04 0.0 
-4.298484531959e-04 2.488858659022e-03 0.0 
0.0 0.0 0.0 
9.230130447290e-04 1.283077340692e-03 0.0 
1.283077340692e-03 5.729301026604e-03 0.0 
0.0 0.0 0.0 
-9.270373482334e-04 1.536180147164e-03 0.0 
1.536180147164e-03 7.346967143723e-03 0.0 
0.0 0.0 0.0 
-3.393561387487e-04 1.820916279150e-03 0.0 
1.820916279150e-03 7.350929983627e-03 0.0 
0.0 0.0 0.0 
-7.310368955099e-04 1.420388604640e-03 0.0 
1.420388604640e-03 8.882124600741e-03 0.0 
0.0 0.0 0.0 
2.514207182041e-04 2.013777764469e-03 0.0 
2.013777764469e-03 5.907510936384e-03 0.0 
0.0 0.0 0.0 
-6.076732799263e-05 -9.788726433697e-05 0.0 
-9.788726433697e-05 5.282844458265e-03 0.0 
0.0 0.0 0.0 
5.164809139842e-04 -4.254896909163e-05 0.0 
-4.254896909163e-05 5.446971039362e-03 0.0 
0.0 0.0 0.0 
2.517907467401e-03 -9.182425857710e-04 0.0 
-9.182425857710e-04 -3.443750610381e-03 0.0 
0.0 0.0 0.0 
2.345930814508e-04 2.636797324923e-03 0.0 
2.636797324923e-03 3.847659467456e-03 0.0 
0.0 0.0 0.0 
-8.199133267588e-04 4.497540012226e-04 0.0 
4.497540012226e-04 9.850066584203e-03 0.0 
0.0 0.0 0.0 
1.004354660383e-04 1.830542431496e-03 0.0 
1.830542431496e-03 8.011387236647e-03 0.0 
0.0 0.0 0.0 
-3.123185802687e-04 5.294731492673e-04 0.0 
5.294731492673e-04 1.136011032506e-02 0.0 
0.0 0.0 0.0 
-4.705010504510e-04 2.124831433804e-03 0.0 
2.124831433804e-03 6.017303477994e-03 0.0 
0.0 0.0 0.0 
3.464001550673e-04 -1.239414451317e-04 0.0 
-1.239414451317e-04 5.577493010573e-03 0.0 
0.0 0.0 0.0 
-4.540094347374e-04 6.926555391006e-04 0.0 
6.926555391006e-04 1.105626701031e-02 0.0 
0.0 0.0 0.0 
3.925425799913e-04 -7.016932000553e-04 0.0 
-7.016932000553e-04 3.450759428363e-03 0.0 
0.0 0.0 0.0 
-2.504718684088e-05 -5.169259119678e-05 0.0 
-5.169259119678e-05 1.755304558376e-03 0.0 
0.0 0.0 0.0 
1.396664423928e-03 2.739032008752e-03 0.0 
2.739032008752e-03 -2.056705005287e-03 0.0 
0.0 0.0 0.0 
2.435253787508e-03 7.740861165721e-04 0.0 
7.740861165721e-04 -7.110218900692e-04 0.0 
0.0 0.0 0.0 
1.247118403738e-03 1.814319206493e-03 0.0 
1.814319206493e-03 3.583236905006e-03 0.0 
0.0 0.0 0.0 
4.264661288288e-04 -5.736287915541e-04 0.0 
-5.736287915541e-04 3.838907629544e-03 0.0 
0.0 0.0 0.0 
-3.712700832921e-04 1.116758263554e-03 0.0 
1.116758263554e-03 1.104490564434e-02 0.0 
0.0 0.0 0.0 
2.451612117537e-04 -1.045325063780e-04 0.0 
-1.045325063780e-04 5.868289678481e-03 0.0 
0.0 0.0 0.0 
9.884781044052e-04 1.889877274688e-04 0.0 
1.889877274688e-04 4.718304096885e-03 0.0 
0.0 0.0 0.0 
-1.169879278053e-03 2.894658546004e-03 0.0 
2.894658546004e-03 6.441253348411e-04 0.0 
0.0 0.0 0.0 
-1.110858629316e-03 6.428968724344e-04 0.0 
6.428968724344e-04 8.207565391107e-03 0.0 
0.0 0.0 0.0 
1.600247724398e-04 -8.627314259369e-05 0.0 
-8.627314259369e-05 6.147337855145e-03 0.0 
0.0 0.0 0.0 
1.696826010439e-03 2.910124650575e-04 0.0 
2.910124650575e-04 2.652687815365e-03 0.0 
0.0 0.0 0.0 
8.987783358309e-04 1.154868317646e-03 0.0 
1.154868317646e-03 5.786672444267e-03 0.0 
0.0 0.0 0.0 
-1.271682223957e-04 -1.168146813720e-04 0.0 
-1.168146813720e-04 4.326779693459e-03 0.0 
0.0 0.0 0.0 
3.121211002381e-05 1.922175848299e-03 0.0 
1.922175848299e-03 8.784992503616e-03 0.0 
0.0 0.0 0.0 
-1.157099424796e-03 1.057975456724e-03 0.0 
1.057975456724e-03 7.121072028153e-03 0.0 
0.0 0.0 0.0 
9.034090310508e-05 -7.129841578927e-05 0.0 
-7.129841578927e-05 6.418403172013e-03 0.0 
0.0 0.0 0.0 
1.114335044710e-03 4.671329317945e-04 0.0 
4.671329317945e-04 4.727857626895e-03 0.0 
0.0 0.0 0.0 
1.332091067108e-03 2.497321543539e-03 0.0 
2.497321543539e-03 1.456363417996e-03 0.0 
0.0 0.0 0.0 
-6.255516055835e-04 1.114499279727e-05 0.0 
1.114499279727e-05 8.657166462098e-03 0.0 
0.0 0.0 0.0 
5.232237805797e-05 -3.762806115348e-05 0.0 
-3.762806115348e-05 6.926924257098e-03 0.0 
0.0 0.0 0.0 
9.274049780044e-04 5.663999602351e-04 0.0 
5.663999602351e-04 5.326592654073e-03 0.0 
0.0 0.0 0.0 
2.712685426823e-04 1.926573333150e-03 0.0 
1.926573333150e-03 6.277710456272e-03 0.0 
0.0 0.0 0.0 
1.685621609340e-03 -2.016937286073e-05 0.0 
-2.016937286073e-05 2.327663766636e-03 0.0 
0.0 0.0 0.0 
-1.108618015334e-03 5.628608489786e-04 0.0 
5.628608489786e-04 7.676242265885e-03 0.0 
0.0 0.0 0.0 
3.162385000508e-04 -4.864405468499e-04 0.0 
-4.864405468499e-04 4.154267510095e-03 0.0 
0.0 0.0 0.0 
-4.580088660897e-04 1.718927666300e-03 0.0 
1.718927666300e-03 7.859481097990e-03 0.0 
0.0 0.0 0.0 
-1.651447011187e-04 9.531437148782e-04 0.0 
9.531437148782e-04 1.152115555438e-02 0.0 
0.0 0.0 0.0 
8.448215414825e-04 7.471760124576e-04 0.0 
7.471760124576e-04 5.670059981448e-03 0.0 
0.0 0.0 0.0 
-9.156115818300e-04 8.620915807659e-04 0.0 
8.620915807659e-04 9.635213498344e-03 0.0 
0.0 0.0 0.0 
1.992752561731e-04 -4.964771446930e-04 0.0 
-4.964771446930e-04 4.062920713983e-03 0.0 
0.0 0.0 0.0 
9.775485488149e-04 1.574636561739e-03 0.0 
1.574636561739e-03 5.182274934340e-03 0.0 
0.0 0.0 0.0 
1.862131789499e-04 -9.659045106172e-05 0.0 
-9.659045106172e-05 8.335537961815e-04 0.0 
0.0 0.0 0.0 
-1.143737660514e-03 7.996706685780e-04 0.0 
7.996706685780e-04 7.690999764335e-03 0.0 
0.0 0.0 0.0 
1.224141225963e-04 -4.029217699261e-04 0.0 
-4.029217699261e-04 4.338672777269e-03 0.0 
0.0 0.0 0.0 
2.379702434392e-03 2.197195734360e-04 0.0 
2.197195734360e-04 -4.591636607464e-04 0.0 
0.0 0.0 0.0 
1.513484353170e-03 -1.626860631071e-04 0.0 
-1.626860631071e-04 2.674302512030e-03 0.0 
0.0 0.0 0.0 
4.331188115135e-04 1.612122776190e-03 0.0 
1.612122776190e-03 7.304865414973e-03 0.0 
0.0 0.0 0.0 
5.862699218251e-05 -3.164307482001e-04 0.0 
-3.164307482001e-04 4.597243858423e-03 0.0 
0.0 0.0 0.0 
2.236804267314e-03 2.986140683197e-04 0.0 
2.986140683197e-04 3.219086170404e-04 0.0 
0.0 0.0 0.0 
7.484622817725e-06 -2.374192688141e-04 0.0 
-2.374192688141e-04 4.839104414288e-03 0.0 
0.0 0.0 0.0 
-1.126759002839e-03 7.265449417585e-04 0.0 
7.265449417585e-04 7.196046556027e-03 0.0 
0.0 0.0 0.0 
-8.723940402263e-04 1.005777508944e-03 0.0 
1.005777508944e-03 9.655275560848e-03 0.0 
0.0 0.0 0.0 
-3.184275050875e-05 -1.655192453334e-04 0.0 
-1.655192453334e-04 5.066672506225e-03 0.0 
0.0 0.0 0.0 
-3.806066725550e-04 1.715962813359e-03 0.0 
1.715962813359e-03 8.157445136236e-03 0.0 
0.0 0.0 0.0 
4.800552834994e-05 -1.997681874935e-04 0.0 
-1.997681874935e-04 9.387654578254e-04 0.0 
0.0 0.0 0.0 
4.744667928823e-04 1.867779119407e-03 0.0 
1.867779119407e-03 6.055247245182e-03 0.0 
0.0 0.0 0.0 
-3.279460722002e-05 -3.775942955548e-05 0.0 
-3.775942955548e-05 6.504061350201e-03 0.0 
0.0 0.0 0.0 
4.613649118841e-04 -1.248040915145e-03 0.0 
-1.248040915145e-03 2.030573687261e-03 0.0 
0.0 0.0 0.0 
1.333251248525e-03 -2.508680091362e-04 0.0 
-2.508680091362e-04 3.037938895095e-03 0.0 
0.0 0.0 0.0 
-7.643208553467e-04 1.105938460020e-03 0.0 
1.105938460020e-03 9.946660414380e-03 0.0 
0.0 0.0 0.0 
-1.151260645460e-03 9.679488640563e-04 0.0 
9.679488640563e-04 6.696653716834e-03 0.0 
0.0 0.0 0.0 
1.237979721566e-03 -8.919776717053e-05 0.0 
-8.919776717053e-05 3.590799582755e-03 0.0 
0.0 0.0 0.0 
-3.107569840029e-04 1.726460563373e-03 0.0 
1.726460563373e-03 8.475371962486e-03 0.0 
0.0 0.0 0.0 
6.457322069009e-04 1.780417860778e-03 0.0 
1.780417860778e-03 5.884704005842e-03 0.0 
0.0 0.0 0.0 
1.170170693662e-03 1.710877106214e-03 0.0 
1.710877106214e-03 4.115867680005e-03 0.0 
0.0 0.0 0.0 
1.124301455517e-03 5.783942960316e-05 0.0 
5.783942960316e-05 4.150872280192e-03 0.0 
0.0 0.0 0.0 
-1.151592503421e-03 1.431616089064e-03 0.0 
1.431616089064e-03 6.464815787207e-03 0.0 
0.0 0.0 0.0 
-1.454866834528e-04 -1.103765397093e-03 0.0 
-1.103765397093e-03 1.905921356632e-03 0.0 
0.0 0.0 0.0 
-2.906269691113e-04 -1.046847476025e-03 0.0 
-1.046847476025e-03 1.671204019049e-03 0.0 
0.0 0.0 0.0 
2.096538748301e-03 -6.973515134654e-05 0.0 
-6.973515134654e-05 6.584390661591e-04 0.0 
0.0 0.0 0.0 
-3.786474989855e-04 1.679289451030e-03 0.0 
1.679289451030e-03 8.940020988058e-03 0.0 
0.0 0.0 0.0 
9.745022235970e-05 -8.882633073821e-05 0.0 
-8.882633073821e-05 1.217746219826e-03 0.0 
0.0 0.0 0.0 
-7.270659380048e-04 1.291523928177e-03 0.0 
1.291523928177e-03 9.598382109301e-03 0.0 
0.0 0.0 0.0 
-4.863918858691e-04 -1.041261823806e-03 0.0 
-1.041261823806e-03 1.244678994042e-03 0.0 
0.0 0.0 0.0 
1.995604159650e-03 -5.357497171426e-04 0.0 
-5.357497171426e-04 4.002854620837e-04 0.0 
0.0 0.0 0.0 
6.759930807658e-04 1.642578173926e-03 0.0 
1.642578173926e-03 6.294632444249e-03 0.0 
0.0 0.0 0.0 
-5.489887415771e-04 1.237919953189e-05 0.0 
1.237919953189e-05 9.769808802905e-03 0.0 
0.0 0.0 0.0 
1.747637557450e-03 -7.393222705767e-04 0.0 
-7.393222705767e-04 8.992725966379e-04 0.0 
0.0 0.0 0.0 
-1.019864281392e-04 -6.035363104812e-05 0.0 
-6.035363104812e-05 2.169077870270e-03 0.0 
0.0 0.0 0.0 
1.500891417444e-03 -1.095515793853e-03 0.0 
-1.095515793853e-03 8.621233503204e-04 0.0 
0.0 0.0 0.0 
1.080186010597e-03 1.630480425129e-03 0.0 
1.630480425129e-03 4.647059802927e-03 0.0 
0.0 0.0 0.0 
1.243794058232e-03 -1.119017951774e-03 0.0 
-1.119017951774e-03 1.396784002577e-03 0.0 
0.0 0.0 0.0 
9.389108632905e-04 -1.309398192640e-03 0.0 
-1.309398192640e-03 1.476202163297e-03 0.0 
0.0 0.0 0.0 
-2.309326859032e-04 2.996657370017e-04 0.0 
2.996657370017e-04 1.148378444711e-02 0.0 
0.0 0.0 0.0 
7.396501937877e-04 -1.206588984658e-03 0.0 
-1.206588984658e-03 1.947666531364e-03 0.0 
0.0 0.0 0.0 
-9.887510611486e-05 8.575495975965e-05 0.0 
8.575495975965e-05 1.182926371034e-02 0.0 
0.0 0.0 0.0 
-1.632686072428e-05 -2.300224720068e-05 0.0 
-2.300224720068e-05 7.401864086601e-03 0.0 
0.0 0.0 0.0 
-6.075655771214e-04 3.400373402340e-06 0.0 
3.400373402340e-06 8.970791800479e-03 0.0 
0.0 0.0 0.0 
-1.163194880739e-03 1.214849449755e-03 0.0 
1.214849449755e-03 6.178748885752e-03 0.0 
0.0 0.0 0.0 
-1.218862531721e-03 1.095861380861e-04 0.0 
1.095861380861e-04 -4.134465612393e-03 0.0 
0.0 0.0 0.0 
-1.073405513014e-03 2.093145158026e-03 0.0 
2.093145158026e-03 5.464600648956e-03 0.0 
0.0 0.0 0.0 
3.041657353988e-04 -1.391880933825e-03 0.0 
-1.391880933825e-03 1.741747842060e-03 0.0 
0.0 0.0 0.0 
-6.296882248694e-04 1.478417075457e-03 0.0 
1.478417075457e-03 9.156597410298e-03 0.0 
0.0 0.0 0.0 
-6.113108410910e-04 2.010982903276e-05 0.0 
2.010982903276e-05 8.989167224494e-03 0.0 
0.0 0.0 0.0 
4.042157136180e-05 -1.285225183713e-03 0.0 
-1.285225183713e-03 1.854959411271e-03 0.0 
0.0 0.0 0.0 
-3.074974845688e-04 1.597315205748e-03 0.0 
1.597315205748e-03 1.039884709162e-02 0.0 
0.0 0.0 0.0 
7.729786368556e-05 1.972165624261e-03 0.0 
1.972165624261e-03 8.726019614090e-03 0.0 
0.0 0.0 0.0 
-4.752121581050e-04 5.704666459805e-05 0.0 
5.704666459805e-05 1.033191454292e-02 0.0 
0.0 0.0 0.0 
8.318663993725e-04 1.040884669978e-03 0.0 
1.040884669978e-03 5.888636866206e-03 0.0 
0.0 0.0 0.0 
7.753977005542e-04 1.669632223844e-03 0.0 
1.669632223844e-03 5.779359027459e-03 0.0 
0.0 0.0 0.0 
-2.874711839438e-04 4.039279336858e-05 0.0 
4.039279336858e-05 1.120041713580e-02 0.0 
0.0 0.0 0.0 
-6.761181884110e-04 2.325026354827e-05 0.0 
2.325026354827e-05 8.641194150335e-03 0.0 
0.0 0.0 0.0 
-3.262815393081e-04 -4.483208397688e-04 0.0 
-4.483208397688e-04 6.149374180969e-04 0.0 
0.0 0.0 0.0 
-7.244153143952e-05 -4.252726002120e-05 0.0 
-4.252726002120e-05 5.509455312730e-03 0.0 
0.0 0.0 0.0 
-1.305125463843e-03 1.744370911611e-03 0.0 
1.744370911611e-03 5.416892704202e-03 0.0 
0.0 0.0 0.0 
-9.551562509933e-04 2.619226899654e-03 0.0 
2.619226899654e-03 4.010489421670e-03 0.0 
0.0 0.0 0.0 
-7.219595211324e-04 2.963334009225e-03 0.0 
2.963334009225e-03 2.296845199587e-03 0.0 
0.0 0.0 0.0 
-1.677837703755e-04 -2.312937428083e-04 0.0 
-2.312937428083e-04 2.669462626080e-03 0.0 
0.0 0.0 0.0 
-6.261079499360e-04 -1.791626280145e-03 0.0 
-1.791626280145e-03 3.969919570489e-04 0.0 
0.0 0.0 0.0 
-1.340564580935e-03 2.432231299926e-03 0.0 
2.432231299926e-03 3.990913972516e-03 0.0 
0.0 0.0 0.0 
4.969921860340e-04 1.235915135443e-03 0.0 
1.235915135443e-03 6.846213264508e-03 0.0 
0.0 0.0 0.0 
-7.774585784196e-04 1.333688515097e-04 0.0 
1.333688515097e-04 9.023919458628e-03 0.0 
0.0 0.0 0.0 
5.005854530991e-04 1.712690938684e-03 0.0 
1.712690938684e-03 6.836076272465e-03 0.0 
0.0 0.0 0.0 
-1.211551356939e-03 2.693951452337e-03 0.0 
2.693951452337e-03 2.348276874350e-03 0.0 
0.0 0.0 0.0 
-3.142395122079e-04 7.635716877065e-04 0.0 
7.635716877065e-04 1.134128722438e-02 0.0 
0.0 0.0 0.0 
2.711102839115e-04 1.788429481283e-03 0.0 
1.788429481283e-03 7.864266213533e-03 0.0 
0.0 0.0 0.0 
9.687838184536e-05 8.660212707704e-05 0.0 
8.660212707704e-05 7.181902712829e-03 0.0 
0.0 0.0 0.0 
4.043226959827e-04 1.726783153916e-03 0.0 
1.726783153916e-03 7.318529141251e-03 0.0 
0.0 0.0 0.0 
-4.071347230341e-04 3.145946061264e-03 0.0 
3.145946061264e-03 3.576663388969e-04 0.0 
0.0 0.0 0.0 
-9.091969491120e-04 3.680559346219e-04 0.0 
3.680559346219e-04 9.307755965431e-03 0.0 
0.0 0.0 0.0 
-1.133639872518e-04 1.890896069860e-03 0.0 
1.890896069860e-03 9.393395056612e-03 0.0 
0.0 0.0 0.0 
-4.329208465437e-04 9.893203132180e-05 0.0 
9.893203132180e-05 1.062728712357e-02 0.0 
0.0 0.0 0.0 
5.364789265609e-05 2.179007040626e-05 0.0 
2.179007040626e-05 7.292069289031e-03 0.0 
0.0 0.0 0.0 
-8.521356714357e-04 1.989553490788e-04 0.0 
1.989553490788e-04 8.968769010361e-03 0.0 
0.0 0.0 0.0 
-1.946549823353e-04 1.973863222493e-04 0.0 
1.973863222493e-04 1.154447301732e-02 0.0 
0.0 0.0 0.0 
1.958187904429e-03 -1.759542829536e-03 0.0 
-1.759542829536e-03 -3.126327061910e-03 0.0 
0.0 0.0 0.0 
-1.833303814195e-04 1.031380273150e-04 0.0 
1.031380273150e-04 1.155669086969e-02 0.0 
0.0 0.0 0.0 
-5.239374485519e-04 1.542142205621e-03 0.0 
1.542142205621e-03 9.446595130778e-03 0.0 
0.0 0.0 0.0 
-6.131319647181e-04 8.054995241992e-05 0.0 
8.054995241992e-05 9.493411684111e-03 0.0 
0.0 0.0 0.0 
-9.832341484596e-04 5.139887947674e-04 0.0 
5.139887947674e-04 9.213558645847e-03 0.0 
0.0 0.0 0.0 
-1.116946544629e-05 -3.163447424267e-05 0.0 
-3.163447424267e-05 7.107824575008e-03 0.0 
0.0 0.0 0.0 
-3.496442859162e-04 1.380245432566e-03 0.0 
1.380245432566e-03 1.076657060772e-02 0.0 
0.0 0.0 0.0 
-1.357591374741e-04 3.162740883133e-03 0.0 
3.162740883133e-03 -9.530062962627e-04 0.0 
0.0 0.0 0.0 
-4.892930745818e-04 9.209729083520e-05 0.0 
9.209729083520e-05 1.031175858556e-02 0.0 
0.0 0.0 0.0 
-1.469964901954e-04 -3.508384691382e-04 0.0 
-3.508384691382e-04 3.247971071474e-03 0.0 
0.0 0.0 0.0 
4.746992683632e-04 -1.647650252946e-03 0.0 
-1.647650252946e-03 -3.928268011682e-03 0.0 
0.0 0.0 0.0 
2.788534595880e-04 1.992586958487e-04 0.0 
1.992586958487e-04 6.638823444199e-03 0.0 
0.0 0.0 0.0 
-4.126165107304e-04 1.608777188876e-03 0.0 
1.608777188876e-03 9.729575339353e-03 0.0 
0.0 0.0 0.0 
1.786398994184e-05 -3.430989964366e-05 0.0 
-3.430989964366e-05 7.024399122263e-03 0.0 
0.0 0.0 0.0 
2.408130851772e-04 -9.404598865526e-06 0.0 
-9.404598865526e-06 8.087953783797e-04 0.0 
0.0 0.0 0.0 
-3.212529387908e-06 -1.844224180632e-04 0.0 
-1.844224180632e-04 5.010680941683e-04 0.0 
0.0 0.0 0.0 
3.501637498768e-04 3.893940573191e-04 0.0 
3.893940573191e-04 6.643506066828e-03 0.0 
0.0 0.0 0.0 
-2.269147960464e-04 1.775556522696e-03 0.0 
1.775556522696e-03 1.000634203656e-02 0.0 
0.0 0.0 0.0 
1.414127064051e-03 -2.212731929623e-03 0.0 
-2.212731929623e-03 -1.951686760515e-03 0.0 
0.0 0.0 0.0 
-1.262083898486e-04 6.645057662021e-04 0.0 
6.645057662021e-04 1.172906121243e-02 0.0 
0.0 0.0 0.0 
-3.006823203809e-04 2.964686519893e-03 0.0 
2.964686519893e-03 -2.103975170986e-03 0.0 
0.0 0.0 0.0 
-7.215410834021e-04 4.900633496482e-05 0.0 
4.900633496482e-05 8.606510711753e-03 0.0 
0.0 0.0 0.0 
2.158929601185e-04 -1.069074948643e-04 0.0 
-1.069074948643e-04 4.562723458107e-04 0.0 
0.0 0.0 0.0 
3.202238752156e-05 -3.190761089944e-05 0.0 
-3.190761089944e-05 7.345774274645e-03 0.0 
0.0 0.0 0.0 
-2.430510799773e-04 4.913459487893e-04 0.0 
4.913459487893e-04 1.149878898630e-02 0.0 
0.0 0.0 0.0 
-1.578248424296e-04 -2.174716597660e-04 0.0 
-2.174716597660e-04 3.616450545161e-03 0.0 
0.0 0.0 0.0 
-9.953103758022e-04 3.483787666837e-04 0.0 
3.483787666837e-04 8.639686430656e-03 0.0 
0.0 0.0 0.0 
-1.416592229786e-04 -1.375101062901e-04 0.0 
-1.375101062901e-04 2.435485601797e-03 0.0 
0.0 0.0 0.0 
9.462843388830e-05 1.876154468148e-03 0.0 
1.876154468148e-03 8.321538616502e-03 0.0 
0.0 0.0 0.0 
-5.695948256646e-04 -8.758041851509e-04 0.0 
-8.758041851509e-04 8.693964691359e-04 0.0 
0.0 0.0 0.0 
-2.104631517843e-04 3.576004900374e-04 0.0 
3.576004900374e-04 1.156347837888e-02 0.0 
0.0 0.0 0.0 
4.133404870520e-04 6.450430117419e-04 0.0 
6.450430117419e-04 6.664418317344e-03 0.0 
0.0 0.0 0.0 
-3.169089416129e-04 1.048236281585e-03 0.0 
1.048236281585e-03 1.121047550182e-02 0.0 
0.0 0.0 0.0 
1.810322762018e-04 1.599952191816e-03 0.0 
1.599952191816e-03 7.845687224885e-03 0.0 
0.0 0.0 0.0 
3.561640424967e-04 9.442837609416e-04 0.0 
9.442837609416e-04 -4.398104944343e-03 0.0 
0.0 0.0 0.0 
1.703821874410e-04 1.876296155122e-03 0.0 
1.876296155122e-03 8.259670329715e-03 0.0 
0.0 0.0 0.0 
6.689876459468e-04 8.219343524182e-04 0.0 
8.219343524182e-04 6.175063723540e-03 0.0 
0.0 0.0 0.0 
-6.512588661095e-04 2.619398765422e-05 0.0 
2.619398765422e-05 8.631503989008e-03 0.0 
0.0 0.0 0.0 
-3.417209608217e-04 1.229051688414e-03 0.0 
1.229051688414e-03 1.097928136189e-02 0.0 
0.0 0.0 0.0 
-1.757428280839e-04 -2.272585420916e-04 0.0 
-2.272585420916e-04 2.970001440201e-03 0.0 
0.0 0.0 0.0 
1.246574835490e-06 -2.249027697641e-04 0.0 
-2.249027697641e-04 1.227501812504e-03 0.0 
0.0 0.0 0.0 
-7.948312239789e-05 3.975274154316e-05 0.0 
3.975274154316e-05 1.186840379560e-02 0.0 
0.0 0.0 0.0 
5.895249957592e-04 7.579595001166e-06 0.0 
7.579595001166e-06 -6.014372440337e-05 0.0 
0.0 0.0 0.0 
-6.185890165831e-04 -7.931193443471e-07 0.0 
-7.931193443471e-07 8.596194769955e-03 0.0 
0.0 0.0 0.0 
-1.673755548166e-05 -4.337994303973e-06 0.0 
-4.337994303973e-06 7.502193941700e-03 0.0 
0.0 0.0 0.0 
1.058890694991e-04 -1.160779347859e-04 0.0 
-1.160779347859e-04 1.130665701015e-03 0.0 
0.0 0.0 0.0 
-5.940769943821e-04 1.893269261318e-05 0.0 
1.893269261318e-05 9.272160612406e-03 0.0 
0.0 0.0 0.0 
-2.564271534896e-04 1.699219882001e-03 0.0 
1.699219882001e-03 1.024376956884e-02 0.0 
0.0 0.0 0.0 
-1.355134902772e-04 -5.033998794967e-05 0.0 
-5.033998794967e-05 4.435615978116e-03 0.0 
0.0 0.0 0.0 
-3.379932375060e-04 6.411921117073e-05 0.0 
6.411921117073e-05 1.099469183143e-02 0.0 
0.0 0.0 0.0 
-2.283675610084e-04 -2.239109438382e-03 0.0 
-2.239109438382e-03 -1.013067804379e-04 0.0 
0.0 0.0 0.0 
-1.425064075816e-03 -6.239924371993e-04 0.0 
-6.239924371993e-04 -4.024082126700e-03 0.0 
0.0 0.0 0.0 
-5.270511047871e-04 3.513231712477e-05 0.0 
3.513231712477e-05 9.977317322223e-03 0.0 
0.0 0.0 0.0 
3.074348810093e-04 1.722758195263e-03 0.0 
1.722758195263e-03 7.698896865277e-03 0.0 
0.0 0.0 0.0 
-2.875233184488e-04 8.580493291155e-04 0.0 
8.580493291155e-04 1.137241941298e-02 0.0 
0.0 0.0 0.0 
-5.842224143227e-04 8.208929355104e-05 0.0 
8.208929355104e-05 9.709597962711e-03 0.0 
0.0 0.0 0.0 
8.339040567811e-04 2.918860951844e-03 0.0 
2.918860951844e-03 -1.876808100262e-03 0.0 
0.0 0.0 0.0 
-3.214702302701e-04 1.682140487951e-03 0.0 
1.682140487951e-03 9.954158432704e-03 0.0 
0.0 0.0 0.0 
-1.350099800521e-04 -2.177459569928e-04 0.0 
-2.177459569928e-04 3.878096008772e-03 0.0 
0.0 0.0 0.0 
-1.081275312710e-04 1.863586227700e-03 0.0 
1.863586227700e-03 8.998923895579e-03 0.0 
0.0 0.0 0.0 
6.566953337920e-04 1.102346524759e-03 0.0 
1.102346524759e-03 6.384765940047e-03 0.0 
0.0 0.0 0.0 
-1.271581045713e-03 2.940259625237e-03 0.0 
2.940259625237e-03 -1.556042378904e-03 0.0 
0.0 0.0 0.0 
-1.167669127670e-04 -3.701298802721e-05 0.0 
-3.701298802721e-05 4.758817655161e-03 0.0 
0.0 0.0 0.0 
1.760776146283e-04 -1.243891897915e-04 0.0 
-1.243891897915e-04 4.310920585959e-04 0.0 
0.0 0.0 0.0 
1.415779140280e-04 4.092038722577e-05 0.0 
4.092038722577e-05 6.894161432931e-03 0.0 
0.0 0.0 0.0 
-1.419999804865e-04 -1.485767525026e-04 0.0 
-1.485767525026e-04 4.059157098638e-03 0.0 
0.0 0.0 0.0 
-8.761132665756e-04 5.722124254590e-04 0.0 
5.722124254590e-04 5.937506540098e-03 0.0 
0.0 0.0 0.0 
-5.838502567723e-04 4.332603795200e-06 0.0 
4.332603795200e-06 5.923898214533e-03 0.0 
0.0 0.0 0.0 
-8.791526977470e-04 5.742210123349e-04 0.0 
5.742210123349e-04 6.245091106285e-03 0.0 
0.0 0.0 0.0 
-5.698492057472e-04 -6.997930720449e-06 0.0 
-6.997930720449e-06 6.321514169106e-03 0.0 
0.0 0.0 0.0 
-9.332270214113e-04 4.600665805807e-04 0.0 
4.600665805807e-04 6.684369827480e-03 0.0 
0.0 0.0 0.0 
-5.816621054450e-04 -6.996568227229e-06 0.0 
-6.996568227229e-06 6.785313801862e-03 0.0 
0.0 0.0 0.0 
-9.737445874241e-04 3.648470968315e-04 0.0 
3.648470968315e-04 7.132504878614e-03 0.0 
0.0 0.0 0.0 
-5.975295093369e-04 -5.850380290660e-06 0.0 
-5.850380290660e-06 7.198718204239e-03 0.0 
0.0 0.0 0.0 
-9.961434111423e-04 2.937289068183e-04 0.0 
2.937289068183e-04 7.588041550567e-03 0.0 
0.0 0.0 0.0 
-6.102928110994e-04 -3.152355266208e-06 0.0 
-3.152355266208e-06 7.661297530944e-03 0.0 
0.0 0.0 0.0 
-9.916346393021e-04 2.575579261303e-04 0.0 
2.575579261303e-04 8.032701427348e-03 0.0 
0.0 0.0 0.0 
-6.216130163013e-04 4.360254325684e-06 0.0 
4.360254325684e-06 8.068864481804e-03 0.0 
0.0 0.0 0.0 

TENSORS node_materi_strain_plasti float
5.167194390135e-04 2.792726192703e-05 0.0 
2.792726192703e-05 -5.091425601016e-05 0.0 
0.0 0.0 -1.110302485635e-04 
-8.159302679306e-04 -1.118602645032e-04 0.0 
-1.118602645032e-04 4.584923598267e-03 0.0 
0.0 0.0 -6.959116756397e-04 
-1.346400199288e-03 7.365993999463e-05 0.0 
7.365993999463e-05 8.674335535019e-03 0.0 
0.0 0.0 -1.332621093165e-03 
-1.336402199564e-03 -8.793125074240e-05 0.0 
-8.793125074240e-05 8.913629531779e-03 0.0 
0.0 0.0 -1.332621093165e-03 
1.928535311059e-04 4.445651110295e-05 0.0 
4.445651110295e-05 2.423589004168e-04 0.0 
0.0 0.0 -1.369191294062e-04 
-9.495668909469e-05 1.176622379905e-04 0.0 
1.176622379905e-04 8.146285890130e-04 0.0 
0.0 0.0 -1.619080202416e-04 
-2.343145573296e-04 8.942200005953e-05 0.0 
8.942200005953e-05 1.222252270070e-03 0.0 
0.0 0.0 -2.266090766362e-04 
-3.672954214302e-04 7.638439199011e-05 0.0 
7.638439199011e-05 1.767422352355e-03 0.0 
0.0 0.0 -2.937643997455e-04 
-5.002542736311e-04 4.683642936848e-05 0.0 
4.683642936848e-05 2.251732040701e-03 0.0 
0.0 0.0 -3.610469555860e-04 
-5.984940266315e-04 4.060795555227e-05 0.0 
4.060795555227e-05 2.708456263927e-03 0.0 
0.0 0.0 -4.277228197774e-04 
-6.941224007828e-04 4.519221696703e-05 0.0 
4.519221696703e-05 3.166683324582e-03 0.0 
0.0 0.0 -4.940119848999e-04 
-7.849981096782e-04 3.520077417946e-05 0.0 
3.520077417946e-05 3.622095280725e-03 0.0 
0.0 0.0 -5.601824523721e-04 
-8.634318271181e-04 3.405437137357e-05 0.0 
3.405437137357e-05 4.067071864957e-03 0.0 
0.0 0.0 -6.267196139102e-04 
-9.449136089268e-04 5.218773157199e-05 0.0 
5.218773157199e-05 4.520788341368e-03 0.0 
0.0 0.0 -6.936951881209e-04 
-1.027632022584e-03 9.700470508409e-05 0.0 
9.700470508409e-05 5.010143413423e-03 0.0 
0.0 0.0 -7.607197531558e-04 
-1.071044468659e-03 1.108294767969e-04 0.0 
1.108294767969e-04 5.450697122990e-03 0.0 
0.0 0.0 -8.270758575053e-04 
-1.105211944346e-03 1.479813750871e-04 0.0 
1.479813750871e-04 5.811869455564e-03 0.0 
0.0 0.0 -8.903361771248e-04 
-1.161317049125e-03 4.285670301683e-05 0.0 
4.285670301683e-05 6.275431738875e-03 0.0 
0.0 0.0 -9.558084330571e-04 
-1.207984253662e-03 4.172859767407e-05 0.0 
4.172859767407e-05 6.727772586467e-03 0.0 
0.0 0.0 -1.024523475697e-03 
-1.248615658251e-03 4.538254462405e-05 0.0 
4.538254462405e-05 7.165565903975e-03 0.0 
0.0 0.0 -1.091244731156e-03 
-1.288520992697e-03 4.179778286610e-05 0.0 
4.179778286610e-05 7.610376257827e-03 0.0 
0.0 0.0 -1.158330123333e-03 
-1.323945144233e-03 5.638174444750e-05 0.0 
5.638174444750e-05 8.056170868355e-03 0.0 
0.0 0.0 -1.226073836101e-03 
-1.340882067222e-03 7.816548302147e-05 0.0 
7.816548302147e-05 8.489692749980e-03 0.0 
0.0 0.0 -1.289832767750e-03 
-1.333912568024e-03 1.756046241659e-05 0.0 
1.756046241659e-05 8.926507635803e-03 0.0 
0.0 0.0 -1.336902025401e-03 
-1.341531841891e-03 4.063150434003e-05 0.0 
4.063150434003e-05 8.912362216672e-03 0.0 
0.0 0.0 -1.332945767435e-03 
-1.342187123766e-03 7.210449397358e-07 0.0 
7.210449397358e-07 8.901177082135e-03 0.0 
0.0 0.0 -1.334903170087e-03 
-1.344938961940e-03 1.164426212685e-04 0.0 
1.164426212685e-04 8.903433830404e-03 0.0 
0.0 0.0 -1.334459899807e-03 
-1.344212628933e-03 9.914567390186e-05 0.0 
9.914567390186e-05 8.888325984844e-03 0.0 
0.0 0.0 -1.332067731643e-03 
-1.341871993109e-03 1.326692721992e-04 0.0 
1.326692721992e-04 8.883986467254e-03 0.0 
0.0 0.0 -1.335050935171e-03 
-1.332922157688e-03 1.596974021170e-04 0.0 
1.596974021170e-04 8.887152863323e-03 0.0 
0.0 0.0 -1.335055123498e-03 
-1.344556942280e-03 1.739185913509e-04 0.0 
1.739185913509e-04 8.882073809328e-03 0.0 
0.0 0.0 -1.333530254363e-03 
-1.342253888820e-03 1.667068933720e-04 0.0 
1.667068933720e-04 8.882815983630e-03 0.0 
0.0 0.0 -1.336259905589e-03 
-1.344452318304e-03 2.643241252995e-04 0.0 
2.643241252995e-04 8.877541720491e-03 0.0 
0.0 0.0 -1.335712483792e-03 
-1.344739962132e-03 2.572691983564e-04 0.0 
2.572691983564e-04 8.855364652133e-03 0.0 
0.0 0.0 -1.333313947604e-03 
-1.345949101879e-03 2.896022605016e-04 0.0 
2.896022605016e-04 8.845196808155e-03 0.0 
0.0 0.0 -1.335862559377e-03 
-1.335909137164e-03 3.249556087329e-04 0.0 
3.249556087329e-04 8.847942912603e-03 0.0 
0.0 0.0 -1.336097458551e-03 
-1.346297016590e-03 3.518589132456e-04 0.0 
3.518589132456e-04 8.821759431274e-03 0.0 
0.0 0.0 -1.335235043394e-03 
-1.338076461259e-03 3.735365560477e-04 0.0 
3.735365560477e-04 8.793020733369e-03 0.0 
0.0 0.0 -1.334297546486e-03 
-1.346016481544e-03 4.214840137430e-04 0.0 
4.214840137430e-04 8.754866417549e-03 0.0 
0.0 0.0 -1.332308435384e-03 
-1.347150914510e-03 4.365635291823e-04 0.0 
4.365635291823e-04 8.724212055446e-03 0.0 
0.0 0.0 -1.332019584455e-03 
-1.334805935481e-03 4.680081517091e-04 0.0 
4.680081517091e-04 8.718730927757e-03 0.0 
0.0 0.0 -1.333392124151e-03 
-1.340647727227e-03 4.849743108024e-04 0.0 
4.849743108024e-04 8.700750373122e-03 0.0 
0.0 0.0 -1.334727449481e-03 
-1.341060759155e-03 5.031254601797e-04 0.0 
5.031254601797e-04 8.669240053120e-03 0.0 
0.0 0.0 -1.336576889699e-03 
-1.339241076831e-03 5.376075265351e-04 0.0 
5.376075265351e-04 8.637791543921e-03 0.0 
0.0 0.0 -1.335888391555e-03 
-1.332755026613e-03 5.259793014087e-04 0.0 
5.259793014087e-04 8.604247702023e-03 0.0 
0.0 0.0 -1.334783226448e-03 
-1.333664649469e-03 5.288889005307e-04 0.0 
5.288889005307e-04 8.561550836847e-03 0.0 
0.0 0.0 -1.335053869153e-03 
-1.331458992258e-03 5.134063938371e-04 0.0 
5.134063938371e-04 8.519772984337e-03 0.0 
0.0 0.0 -1.334960189349e-03 
-1.329775199773e-03 4.941096024064e-04 0.0 
4.941096024064e-04 8.496416219376e-03 0.0 
0.0 0.0 -1.334889991128e-03 
-1.320977987653e-03 4.615461390730e-04 0.0 
4.615461390730e-04 8.462524191980e-03 0.0 
0.0 0.0 -1.335774086633e-03 
-1.330023044346e-03 4.207866190154e-04 0.0 
4.207866190154e-04 8.427010713301e-03 0.0 
0.0 0.0 -1.336605656894e-03 
-1.315269658186e-03 3.720833040210e-04 0.0 
3.720833040210e-04 8.401189310414e-03 0.0 
0.0 0.0 -1.336508443943e-03 
-1.322412415585e-03 3.115810119469e-04 0.0 
3.115810119469e-04 8.379908734224e-03 0.0 
0.0 0.0 -1.335343284290e-03 
-1.320222320207e-03 2.175575066663e-04 0.0 
2.175575066663e-04 8.369874127435e-03 0.0 
0.0 0.0 -1.337998490269e-03 
-1.323625080933e-03 2.169102620600e-04 0.0 
2.169102620600e-04 8.349200848827e-03 0.0 
0.0 0.0 -1.337247094005e-03 
-1.312935671626e-03 1.217875082846e-04 0.0 
1.217875082846e-04 8.314561017664e-03 0.0 
0.0 0.0 -1.333783489999e-03 
-1.312397425891e-03 3.014725865093e-05 0.0 
3.014725865093e-05 8.298029012834e-03 0.0 
0.0 0.0 -1.334548731617e-03 
-1.314310776006e-03 -5.112989789944e-05 0.0 
-5.112989789944e-05 8.327635469408e-03 0.0 
0.0 0.0 -1.334619746794e-03 
-1.313246555764e-03 -1.133769864441e-04 0.0 
-1.133769864441e-04 8.338916253329e-03 0.0 
0.0 0.0 -1.335242115105e-03 
-1.326565106495e-03 -1.841934828275e-04 0.0 
-1.841934828275e-04 8.356624519228e-03 0.0 
0.0 0.0 -1.335691437541e-03 
-1.316402114403e-03 -2.262767311367e-04 0.0 
-2.262767311367e-04 8.389795272091e-03 0.0 
0.0 0.0 -1.335646478247e-03 
-1.330105212687e-03 -2.663920673302e-04 0.0 
-2.663920673302e-04 8.407666559300e-03 0.0 
0.0 0.0 -1.334931242407e-03 
-1.321109516020e-03 -3.015612028738e-04 0.0 
-3.015612028738e-04 8.428571737695e-03 0.0 
0.0 0.0 -1.334100791702e-03 
-1.335356464641e-03 -3.106038152236e-04 0.0 
-3.106038152236e-04 8.460193799364e-03 0.0 
0.0 0.0 -1.332237298415e-03 
-1.339781698762e-03 -3.337514916052e-04 0.0 
-3.337514916052e-04 8.495913159923e-03 0.0 
0.0 0.0 -1.333749945600e-03 
-1.335675790289e-03 -3.025403687924e-04 0.0 
-3.025403687924e-04 8.551515458499e-03 0.0 
0.0 0.0 -1.336652505695e-03 
-1.332391445612e-03 -3.083574403233e-04 0.0 
-3.083574403233e-04 8.592419009515e-03 0.0 
0.0 0.0 -1.337094627689e-03 
-1.345644529791e-03 -2.793636126787e-04 0.0 
-2.793636126787e-04 8.558237333725e-03 0.0 
0.0 0.0 -1.328990728106e-03 
-1.337312800610e-03 -2.305068913709e-04 0.0 
-2.305068913709e-04 8.630917037025e-03 0.0 
0.0 0.0 -1.335900064369e-03 
-1.350772327614e-03 -1.956698568975e-04 0.0 
-1.956698568975e-04 8.640358950647e-03 0.0 
0.0 0.0 -1.332523500780e-03 
-1.350423109387e-03 -1.955618747409e-04 0.0 
-1.955618747409e-04 8.650889793805e-03 0.0 
0.0 0.0 -1.335219049675e-03 
-1.349098610006e-03 -8.965167155351e-05 0.0 
-8.965167155351e-05 8.690821291703e-03 0.0 
0.0 0.0 -1.336566422126e-03 
-1.352485386629e-03 -6.128652914560e-05 0.0 
-6.128652914560e-05 8.701715469751e-03 0.0 
0.0 0.0 -1.335855682064e-03 
-8.621699259071e-04 -7.748599951090e-05 0.0 
-7.748599951090e-05 5.021330477437e-03 0.0 
0.0 0.0 -7.648954205800e-04 
-9.395078499560e-04 -8.704020005170e-05 0.0 
-8.704020005170e-05 5.517844915676e-03 0.0 
0.0 0.0 -8.298981322982e-04 
-9.977708429922e-04 -8.397016683561e-05 0.0 
-8.397016683561e-05 5.976838802593e-03 0.0 
0.0 0.0 -8.959277352460e-04 
-1.055682188809e-03 -8.887694878813e-05 0.0 
-8.887694878813e-05 6.419904102828e-03 0.0 
0.0 0.0 -9.610467530554e-04 
-1.113418161777e-03 -7.710435791321e-05 0.0 
-7.710435791321e-05 6.878985961880e-03 0.0 
0.0 0.0 -1.026987810050e-03 
-1.153337564853e-03 -8.395183782127e-05 0.0 
-8.395183782127e-05 7.337021217867e-03 0.0 
0.0 0.0 -1.092790196867e-03 
-1.209003093049e-03 -7.363209801243e-05 0.0 
-7.363209801243e-05 7.788251864833e-03 0.0 
0.0 0.0 -1.158290425478e-03 
-1.258139886954e-03 -8.431152228072e-05 0.0 
-8.431152228072e-05 8.217133852926e-03 0.0 
0.0 0.0 -1.224481705251e-03 
-1.303096836171e-03 -9.331509578295e-05 0.0 
-9.331509578295e-05 8.703843568816e-03 0.0 
0.0 0.0 -1.288782062784e-03 
0.0 0.0 0.0 
0.0 0.0 0.0 
0.0 0.0 0.0 
-8.469977810266e-04 1.418859108081e-04 0.0 
1.418859108081e-04 4.555195363259e-03 0.0 
0.0 0.0 -6.945495707198e-04 
1.853815197246e-05 4.024911659637e-04 0.0 
4.024911659637e-04 2.284141119962e-04 0.0 
0.0 0.0 -1.058366845580e-04 
-1.350079007602e-04 7.410901895652e-04 0.0 
7.410901895652e-04 7.622548468714e-04 0.0 
0.0 0.0 -2.667570615628e-04 
-3.852517699685e-04 8.237517617570e-04 0.0 
8.237517617570e-04 1.325012057104e-03 0.0 
0.0 0.0 -2.964167626729e-04 
-5.355677861828e-04 6.528829717976e-04 0.0 
6.528829717976e-04 1.803335920806e-03 0.0 
0.0 0.0 -3.092703671679e-04 
-5.454556268170e-04 4.563700114584e-04 0.0 
4.563700114584e-04 2.147392311147e-03 0.0 
0.0 0.0 -3.576084760620e-04 
-5.822307317594e-04 3.444855140525e-04 0.0 
3.444855140525e-04 2.615046111209e-03 0.0 
0.0 0.0 -4.246591878591e-04 
-6.421093914524e-04 2.736159583380e-04 0.0 
2.736159583380e-04 3.087949941038e-03 0.0 
0.0 0.0 -4.913636896408e-04 
-7.032270316906e-04 2.154746295006e-04 0.0 
2.154746295006e-04 3.563154777891e-03 0.0 
0.0 0.0 -5.580753662734e-04 
-7.652026803153e-04 1.716333934732e-04 0.0 
1.716333934732e-04 4.039411117358e-03 0.0 
0.0 0.0 -6.248674136757e-04 
-3.489982165679e-04 -2.054481409380e-04 0.0 
-2.054481409380e-04 1.967459510961e-03 0.0 
0.0 0.0 -3.155555555556e-04 
-4.262272127133e-04 -1.668508034120e-04 0.0 
-1.668508034120e-04 2.234841239519e-03 0.0 
0.0 0.0 -3.600000000000e-04 
-5.018968035888e-04 -2.069604868527e-04 0.0 
-2.069604868527e-04 2.704133863242e-03 0.0 
0.0 0.0 -4.266666666667e-04 
-5.764922648323e-04 -1.677065961204e-04 0.0 
-1.677065961204e-04 3.172932373080e-03 0.0 
0.0 0.0 -4.933333333333e-04 
-6.493615146667e-04 -2.013836333214e-04 0.0 
-2.013836333214e-04 3.639082748701e-03 0.0 
0.0 0.0 -5.600000000000e-04 
-7.172820797178e-04 -1.419199921507e-04 0.0 
-1.419199921507e-04 4.094821602212e-03 0.0 
0.0 0.0 -6.266666666667e-04 
-7.873736608755e-04 5.502842443645e-05 0.0 
5.502842443645e-05 4.508278690252e-03 0.0 
0.0 0.0 -6.874962403976e-04 
-7.839311141629e-04 4.828509311105e-06 0.0 
4.828509311105e-06 4.540282316640e-03 0.0 
0.0 0.0 -6.910932206029e-04 
-7.921436345257e-04 5.707785244044e-06 0.0 
5.707785244044e-06 4.544942356556e-03 0.0 
0.0 0.0 -6.911911970487e-04 
-7.917187874242e-04 -4.341315515235e-06 0.0 
-4.341315515235e-06 4.539101219755e-03 0.0 
0.0 0.0 -6.903356507966e-04 
-7.944928086677e-04 1.125171909579e-05 0.0 
1.125171909579e-05 4.615388457654e-03 0.0 
0.0 0.0 -6.980756478071e-04 
-7.958365436316e-04 1.383445406237e-05 0.0 
1.383445406237e-05 4.547714033445e-03 0.0 
0.0 0.0 -6.911448554634e-04 
-7.903078046097e-04 6.769783050965e-06 0.0 
6.769783050965e-06 4.539714906749e-03 0.0 
0.0 0.0 -6.903833977050e-04 
-7.973486280958e-04 3.073462339535e-05 0.0 
3.073462339535e-05 4.549605953727e-03 0.0 
0.0 0.0 -6.905588330458e-04 
-8.138323735647e-04 2.995103124151e-05 0.0 
2.995103124151e-05 4.557442627231e-03 0.0 
0.0 0.0 -6.922444453805e-04 
-8.207112189752e-04 5.065642805556e-05 0.0 
5.065642805556e-05 4.556711038870e-03 0.0 
0.0 0.0 -6.916098530255e-04 
-8.174854078797e-04 5.882201982790e-05 0.0 
5.882201982790e-05 4.549634587438e-03 0.0 
0.0 0.0 -6.911665914957e-04 
-8.257607627907e-04 7.207096375596e-05 0.0 
7.207096375596e-05 4.539061374169e-03 0.0 
0.0 0.0 -6.911615840689e-04 
-8.256917502379e-04 1.052177725209e-04 0.0 
1.052177725209e-04 4.528909050130e-03 0.0 
0.0 0.0 -6.914992001314e-04 
-8.331385651634e-04 1.367043632585e-04 0.0 
1.367043632585e-04 4.532178590594e-03 0.0 
0.0 0.0 -6.922481495424e-04 
0.0 0.0 0.0 
0.0 0.0 0.0 
0.0 0.0 0.0 
0.0 0.0 0.0 
0.0 0.0 0.0 
0.0 0.0 0.0 
0.0 0.0 0.0 
0.0 0.0 0.0 
0.0 0.0 0.0 
0.0 0.0 0.0 
0.0 0.0 0.0 
0.0 0.0 0.0 
4.834769447442e-06 -2.872264321309e-05 0.0 
-2.872264321309e-05 1.098176460521e-05 0.0 
0.0 0.0 -6.778514593994e-06 
2.621325204595e-05 -1.413766582246e-04 0.0 
-1.413766582246e-04 5.747299694100e-05 0.0 
0.0 0.0 -3.574982278410e-05 
9.658306216209e-05 -1.514259984182e-04 0.0 
-1.514259984182e-04 8.442241842910e-05 0.0 
0.0 0.0 -4.425618980996e-05 
3.269147103475e-04 -5.021185392625e-05 0.0 
-5.021185392625e-05 3.514559889707e-05 0.0 
0.0 0.0 -8.078147856959e-05 
4.744476216527e-04 -2.955001894905e-05 0.0 
-2.955001894905e-05 6.422490925947e-06 0.0 
0.0 0.0 -1.179719326098e-04 
4.179559190719e-04 -4.545879091992e-05 0.0 
-4.545879091992e-05 1.677504639263e-05 0.0 
0.0 0.0 -8.559165356152e-05 
4.071360169644e-04 -5.676430788113e-05 0.0 
-5.676430788113e-05 2.001137970326e-05 0.0 
0.0 0.0 -6.874308561246e-05 
4.446412730432e-04 -3.115479505997e-05 0.0 
-3.115479505997e-05 1.541228328890e-05 0.0 
0.0 0.0 -8.846752904866e-05 
4.870475968622e-04 1.166873053583e-05 0.0 
1.166873053583e-05 -1.464623307350e-05 0.0 
0.0 0.0 -9.035052009108e-05 
5.260775556971e-04 2.845864580513e-06 0.0 
2.845864580513e-06 -4.734498310635e-05 0.0 
0.0 0.0 -8.407298760335e-05 
4.865685389177e-04 2.210043518698e-06 0.0 
2.210043518698e-06 -3.334183635663e-05 0.0 
0.0 0.0 -8.504329730078e-05 
4.576294102847e-04 1.370682311972e-05 0.0 
1.370682311972e-05 -9.748142346333e-06 0.0 
0.0 0.0 -9.010048746351e-05 
4.426858646735e-04 1.222387518921e-05 0.0 
1.222387518921e-05 -8.681697480962e-07 0.0 
0.0 0.0 -9.063198443064e-05 
4.647766352677e-04 3.225958783335e-05 0.0 
3.225958783335e-05 -3.503045802417e-05 0.0 
0.0 0.0 -8.892160723951e-05 
5.112449432108e-04 4.197682001980e-05 0.0 
4.197682001980e-05 -6.289759249197e-05 0.0 
0.0 0.0 -8.718318697143e-05 
-3.940706145578e-04 6.932256338239e-05 0.0 
6.932256338239e-05 2.062858494881e-03 0.0 
0.0 0.0 -3.211111111111e-04 
-3.800196797164e-04 1.793059055090e-06 0.0 
1.793059055090e-06 2.048255579878e-03 0.0 
0.0 0.0 -3.229629629630e-04 
-3.793323488709e-04 -2.406863577899e-05 0.0 
-2.406863577899e-05 2.041619484534e-03 0.0 
0.0 0.0 -3.229629629630e-04 
-3.796044632638e-04 -3.195708327656e-05 0.0 
-3.195708327656e-05 2.041278749758e-03 0.0 
0.0 0.0 -3.229629629630e-04 
-3.802981317267e-04 -3.813966877207e-05 0.0 
-3.813966877207e-05 2.041701328480e-03 0.0 
0.0 0.0 -3.229629629630e-04 
-3.811051377974e-04 -4.361548464326e-05 0.0 
-4.361548464326e-05 2.042160922670e-03 0.0 
0.0 0.0 -3.229629629630e-04 
-3.818887003022e-04 -4.840419475131e-05 0.0 
-4.840419475131e-05 2.042360695593e-03 0.0 
0.0 0.0 -3.229629629630e-04 
-3.826301224706e-04 -5.217126863075e-05 0.0 
-5.217126863075e-05 2.042223784459e-03 0.0 
0.0 0.0 -3.229629629630e-04 
-3.835004749673e-04 -5.458899869217e-05 0.0 
-5.458899869217e-05 2.041826161640e-03 0.0 
0.0 0.0 -3.229629629630e-04 
-3.846540031220e-04 -5.533339785186e-05 0.0 
-5.533339785186e-05 2.041219265572e-03 0.0 
0.0 0.0 -3.229629629630e-04 
-3.862320668031e-04 -5.406557802847e-05 0.0 
-5.406557802847e-05 2.040438444888e-03 0.0 
0.0 0.0 -3.229629629630e-04 
-3.883189634890e-04 -5.026304068252e-05 0.0 
-5.026304068252e-05 2.039454186428e-03 0.0 
0.0 0.0 -3.229629629630e-04 
-3.911637218035e-04 -4.292757358295e-05 0.0 
-4.292757358295e-05 2.038588281652e-03 0.0 
0.0 0.0 -3.229629629630e-04 
-3.953775181630e-04 -3.209835026332e-05 0.0 
-3.209835026332e-05 2.038017859433e-03 0.0 
0.0 0.0 -3.229629629630e-04 
-4.011115315551e-04 -1.676221190581e-05 0.0 
-1.676221190581e-05 2.038008106769e-03 0.0 
0.0 0.0 -3.229629629630e-04 
-4.087151389082e-04 1.886750285294e-06 0.0 
1.886750285294e-06 2.037554938571e-03 0.0 
0.0 0.0 -3.229629629630e-04 
-4.174830008084e-04 2.930172928150e-05 0.0 
2.930172928150e-05 2.037775218510e-03 0.0 
0.0 0.0 -3.229629629630e-04 
-4.296728278614e-04 5.973788569063e-05 0.0 
5.973788569063e-05 2.035814504670e-03 0.0 
0.0 0.0 -3.229629629630e-04 
-4.414724438279e-04 1.106930544160e-04 0.0 
1.106930544160e-04 2.035988424262e-03 0.0 
0.0 0.0 -3.229629629630e-04 
-4.618853735956e-04 1.585830706073e-04 0.0 
1.585830706073e-04 2.027257708656e-03 0.0 
0.0 0.0 -3.229629629630e-04 
-4.670252852548e-04 2.679799662936e-04 0.0 
2.679799662936e-04 2.025352239965e-03 0.0 
0.0 0.0 -3.229629629630e-04 
-4.969208880567e-04 3.311220687490e-04 0.0 
3.311220687490e-04 1.996624730111e-03 0.0 
0.0 0.0 -3.202324263039e-04 
-4.592776664562e-04 4.494448719719e-04 0.0 
4.494448719719e-04 1.830922374346e-03 0.0 
0.0 0.0 -3.098577182040e-04 
-4.870440913019e-04 3.438997131151e-04 0.0 
3.438997131151e-04 2.112483852915e-03 0.0 
0.0 0.0 -3.519676952907e-04 
-5.125649626942e-04 2.408553048519e-04 0.0 
2.408553048519e-04 2.231730849181e-03 0.0 
0.0 0.0 -3.626389769158e-04 
-5.004304274742e-04 1.739740084501e-04 0.0 
1.739740084501e-04 2.219740475384e-03 0.0 
0.0 0.0 -3.600000000000e-04 
-4.919733132572e-04 1.088807645715e-04 0.0 
1.088807645715e-04 2.220404103345e-03 0.0 
0.0 0.0 -3.600000000000e-04 
-4.789912287228e-04 6.959489259035e-05 0.0 
6.959489259035e-05 2.226799972365e-03 0.0 
0.0 0.0 -3.600000000000e-04 
-4.695031603226e-04 3.553610685796e-05 0.0 
3.553610685796e-05 2.226549692723e-03 0.0 
0.0 0.0 -3.600000000000e-04 
-4.599607884164e-04 1.129608327385e-05 0.0 
1.129608327385e-05 2.227936339154e-03 0.0 
0.0 0.0 -3.600000000000e-04 
-4.523249195166e-04 -8.629656390873e-06 0.0 
-8.629656390873e-06 2.227633121405e-03 0.0 
0.0 0.0 -3.600000000000e-04 
-4.460410542978e-04 -2.408928092428e-05 0.0 
-2.408928092428e-05 2.228142385368e-03 0.0 
0.0 0.0 -3.600000000000e-04 
-4.416422346106e-04 -3.556764082908e-05 0.0 
-3.556764082908e-05 2.228991415671e-03 0.0 
0.0 0.0 -3.600000000000e-04 
-4.381537305926e-04 -4.258379451435e-05 0.0 
-4.258379451435e-05 2.230069409879e-03 0.0 
0.0 0.0 -3.600000000000e-04 
-4.351200154686e-04 -4.630854718854e-05 0.0 
-4.630854718854e-05 2.230745475863e-03 0.0 
0.0 0.0 -3.600000000000e-04 
-4.325824646744e-04 -4.775125052124e-05 0.0 
-4.775125052124e-05 2.231217919098e-03 0.0 
0.0 0.0 -3.600000000000e-04 
-4.305586835962e-04 -4.721495249169e-05 0.0 
-4.721495249169e-05 2.231559783467e-03 0.0 
0.0 0.0 -3.600000000000e-04 
-4.288867137335e-04 -4.493296871748e-05 0.0 
-4.493296871748e-05 2.231681053608e-03 0.0 
0.0 0.0 -3.600000000000e-04 
-4.273112732016e-04 -4.114156621977e-05 0.0 
-4.114156621977e-05 2.231455818993e-03 0.0 
0.0 0.0 -3.600000000000e-04 
-4.257570290361e-04 -3.645486640434e-05 0.0 
-3.645486640434e-05 2.230888371703e-03 0.0 
0.0 0.0 -3.600000000000e-04 
-4.244314698173e-04 -3.118593770298e-05 0.0 
-3.118593770298e-05 2.230297443320e-03 0.0 
0.0 0.0 -3.600000000000e-04 
-4.235346113232e-04 -2.542079837558e-05 0.0 
-2.542079837558e-05 2.230073732848e-03 0.0 
0.0 0.0 -3.600000000000e-04 
-4.234462512888e-04 -1.962142205216e-05 0.0 
-1.962142205216e-05 2.230753915289e-03 0.0 
0.0 0.0 -3.600000000000e-04 
-4.245254089640e-04 -1.838851999952e-05 0.0 
-1.838851999952e-05 2.232666465119e-03 0.0 
0.0 0.0 -3.600000000000e-04 
-4.258704289300e-04 1.031587817340e-04 0.0 
1.031587817340e-04 2.234469848219e-03 0.0 
0.0 0.0 -3.600000000000e-04 
-5.013977665724e-04 6.678054078335e-05 0.0 
6.678054078335e-05 2.703319892598e-03 0.0 
0.0 0.0 -4.266666666667e-04 
-5.000873162729e-04 4.739922315480e-07 0.0 
4.739922315480e-07 2.701172909826e-03 0.0 
0.0 0.0 -4.266666666667e-04 
-4.998071790653e-04 -2.178747072151e-05 0.0 
-2.178747072151e-05 2.700224901928e-03 0.0 
0.0 0.0 -4.266666666667e-04 
-5.007267420848e-04 -2.682346092380e-05 0.0 
-2.682346092380e-05 2.700321897617e-03 0.0 
0.0 0.0 -4.266666666667e-04 
-5.023438002827e-04 -3.104522400768e-05 0.0 
-3.104522400768e-05 2.700942336046e-03 0.0 
0.0 0.0 -4.266666666667e-04 
-5.046005899036e-04 -3.482640527593e-05 0.0 
-3.482640527593e-05 2.701790544412e-03 0.0 
0.0 0.0 -4.266666666667e-04 
-5.072352564482e-04 -3.838001695029e-05 0.0 
-3.838001695029e-05 2.702415804766e-03 0.0 
0.0 0.0 -4.266666666667e-04 
-5.098433996047e-04 -4.063252974789e-05 0.0 
-4.063252974789e-05 2.702308962132e-03 0.0 
0.0 0.0 -4.266666666667e-04 
-5.126344180745e-04 -4.048719551750e-05 0.0 
-4.048719551750e-05 2.701874566670e-03 0.0 
0.0 0.0 -4.266666666667e-04 
-5.163726922397e-04 -3.792427931932e-05 0.0 
-3.792427931932e-05 2.701523899062e-03 0.0 
0.0 0.0 -4.266666666667e-04 
-5.207389108666e-04 -3.338420754901e-05 0.0 
-3.338420754901e-05 2.701011155077e-03 0.0 
0.0 0.0 -4.266666666667e-04 
-5.252891517300e-04 -2.626882560247e-05 0.0 
-2.626882560247e-05 2.699762094262e-03 0.0 
0.0 0.0 -4.266666666667e-04 
-5.299120677543e-04 -1.439019615054e-05 0.0 
-1.439019615054e-05 2.697258437041e-03 0.0 
0.0 0.0 -4.266666666667e-04 
-5.357525103733e-04 4.962642114392e-06 0.0 
4.962642114392e-06 2.695874831440e-03 0.0 
0.0 0.0 -4.266666666667e-04 
-5.442031688919e-04 2.698467857241e-05 0.0 
2.698467857241e-05 2.694563012441e-03 0.0 
0.0 0.0 -4.266666666667e-04 
-5.535277733574e-04 5.642979102142e-05 0.0 
5.642979102142e-05 2.694993549781e-03 0.0 
0.0 0.0 -4.266666666667e-04 
-5.636396406095e-04 8.491085392806e-05 0.0 
8.491085392806e-05 2.688346064678e-03 0.0 
0.0 0.0 -4.266666666667e-04 
-5.667180855967e-04 1.404909475521e-04 0.0 
1.404909475521e-04 2.684702359192e-03 0.0 
0.0 0.0 -4.266666666667e-04 
-5.760763171982e-04 1.868968236703e-04 0.0 
1.868968236703e-04 2.700776601453e-03 0.0 
0.0 0.0 -4.293391642371e-04 
-5.414318027528e-04 2.582759348764e-04 0.0 
2.582759348764e-04 2.576024993124e-03 0.0 
0.0 0.0 -4.186734693878e-04 
-6.002569752709e-04 2.106199425740e-04 0.0 
2.106199425740e-04 3.040601950913e-03 0.0 
0.0 0.0 -4.852947845805e-04 
-6.404347893740e-04 1.452930758805e-04 0.0 
1.452930758805e-04 3.169480489552e-03 0.0 
0.0 0.0 -4.959669582118e-04 
-6.373670366941e-04 1.181817318953e-04 0.0 
1.181817318953e-04 3.157603873263e-03 0.0 
0.0 0.0 -4.933333333333e-04 
-6.335926768194e-04 7.794245507497e-05 0.0 
7.794245507497e-05 3.156688021345e-03 0.0 
0.0 0.0 -4.933333333333e-04 
-6.220474498716e-04 5.134440581893e-05 0.0 
5.134440581893e-05 3.160786184874e-03 0.0 
0.0 0.0 -4.933333333333e-04 
-6.159406124673e-04 2.206688587732e-05 0.0 
2.206688587732e-05 3.161928673014e-03 0.0 
0.0 0.0 -4.933333333333e-04 
-6.109166782003e-04 3.714322771242e-06 0.0 
3.714322771242e-06 3.167514719351e-03 0.0 
0.0 0.0 -4.933333333333e-04 
-6.054581133856e-04 -7.307117585949e-06 0.0 
-7.307117585949e-06 3.170142463375e-03 0.0 
0.0 0.0 -4.933333333333e-04 
-6.000107331639e-04 -1.469328145384e-05 0.0 
-1.469328145384e-05 3.171163635534e-03 0.0 
0.0 0.0 -4.933333333333e-04 
-5.941898088781e-04 -2.074063559937e-05 0.0 
-2.074063559937e-05 3.171088193189e-03 0.0 
0.0 0.0 -4.933333333333e-04 
-5.898957035509e-04 -2.603463415847e-05 0.0 
-2.603463415847e-05 3.171921383452e-03 0.0 
0.0 0.0 -4.933333333333e-04 
-5.871319754984e-04 -2.671317052851e-05 0.0 
-2.671317052851e-05 3.173080463882e-03 0.0 
0.0 0.0 -4.933333333333e-04 
-5.831711305422e-04 -2.471825246934e-05 0.0 
-2.471825246934e-05 3.172447959486e-03 0.0 
0.0 0.0 -4.933333333333e-04 
-5.799110508209e-04 -2.308008329295e-05 0.0 
-2.308008329295e-05 3.171263771991e-03 0.0 
0.0 0.0 -4.933333333333e-04 
-5.773557365906e-04 -2.133550619489e-05 0.0 
-2.133550619489e-05 3.170479716806e-03 0.0 
0.0 0.0 -4.933333333333e-04 
-5.758014518713e-04 -1.892419660156e-05 0.0 
-1.892419660156e-05 3.170002557654e-03 0.0 
0.0 0.0 -4.933333333333e-04 
-5.748764960425e-04 -1.805012883539e-05 0.0 
-1.805012883539e-05 3.170347605706e-03 0.0 
0.0 0.0 -4.933333333333e-04 
-5.760506827362e-04 -2.075419369238e-05 0.0 
-2.075419369238e-05 3.172373778641e-03 0.0 
0.0 0.0 -4.933333333333e-04 
-5.767249358615e-04 1.015271389729e-04 0.0 
1.015271389729e-04 3.173431107618e-03 0.0 
0.0 0.0 -4.933333333333e-04 
-6.527572212549e-04 6.780105280902e-05 0.0 
6.780105280902e-05 3.643323392159e-03 0.0 
0.0 0.0 -5.600000000000e-04 
-6.484652640847e-04 -1.867317635502e-06 0.0 
-1.867317635502e-06 3.638221338221e-03 0.0 
0.0 0.0 -5.600000000000e-04 
-6.483746879456e-04 -1.524137963776e-05 0.0 
-1.524137963776e-05 3.636879668493e-03 0.0 
0.0 0.0 -5.600000000000e-04 
-6.506726970290e-04 -1.678761464932e-05 0.0 
-1.678761464932e-05 3.638240294297e-03 0.0 
0.0 0.0 -5.600000000000e-04 
-6.515567938656e-04 -1.582684597498e-05 0.0 
-1.582684597498e-05 3.638013899900e-03 0.0 
0.0 0.0 -5.600000000000e-04 
-6.554750631859e-04 -1.470434980338e-05 0.0 
-1.470434980338e-05 3.639460407849e-03 0.0 
0.0 0.0 -5.600000000000e-04 
-6.594170751284e-04 -1.283952103919e-05 0.0 
-1.283952103919e-05 3.641117124007e-03 0.0 
0.0 0.0 -5.600000000000e-04 
-6.641464449147e-04 -1.550365402295e-05 0.0 
-1.550365402295e-05 3.640594034775e-03 0.0 
0.0 0.0 -5.600000000000e-04 
-6.668858948113e-04 -7.941772856611e-06 0.0 
-7.941772856611e-06 3.636849838348e-03 0.0 
0.0 0.0 -5.600000000000e-04 
-6.741591020856e-04 2.577853317367e-06 0.0 
2.577853317367e-06 3.638100575400e-03 0.0 
0.0 0.0 -5.600000000000e-04 
-6.809485102659e-04 9.363144820372e-06 0.0 
9.363144820372e-06 3.637932552511e-03 0.0 
0.0 0.0 -5.600000000000e-04 
-6.861033350786e-04 2.086292296722e-05 0.0 
2.086292296722e-05 3.634350486115e-03 0.0 
0.0 0.0 -5.600000000000e-04 
-6.932352806905e-04 3.670348944842e-05 0.0 
3.670348944842e-05 3.630716211654e-03 0.0 
0.0 0.0 -5.600000000000e-04 
-6.980811967268e-04 5.967994361152e-05 0.0 
5.967994361152e-05 3.618796687988e-03 0.0 
0.0 0.0 -5.600000000000e-04 
-7.013848849314e-04 1.083829473888e-04 0.0 
1.083829473888e-04 3.620396778090e-03 0.0 
0.0 0.0 -5.600000000000e-04 
-7.078351814424e-04 1.219335158790e-04 0.0 
1.219335158790e-04 3.644573923445e-03 0.0 
0.0 0.0 -5.626724975705e-04 
-6.666304385001e-04 1.660523767343e-04 0.0 
1.660523767343e-04 3.518024469538e-03 0.0 
0.0 0.0 -5.520068027211e-04 
-7.306639245541e-04 1.487904650220e-04 0.0 
1.487904650220e-04 3.987541024977e-03 0.0 
0.0 0.0 -6.186195084094e-04 
-7.777639873500e-04 1.047682677556e-04 0.0 
1.047682677556e-04 4.108452618951e-03 0.0 
0.0 0.0 -6.292929119699e-04 
-7.730086078056e-04 8.789895144587e-05 0.0 
8.789895144587e-05 4.091912019672e-03 0.0 
0.0 0.0 -6.266666666667e-04 
-7.618524580481e-04 6.512725790421e-05 0.0 
6.512725790421e-05 4.093546504346e-03 0.0 
0.0 0.0 -6.266666666667e-04 
-7.572869673676e-04 4.077816536235e-05 0.0 
4.077816536235e-05 4.100722229585e-03 0.0 
0.0 0.0 -6.266666666667e-04 
-7.522759778333e-04 3.231234712664e-05 0.0 
3.231234712664e-05 4.105753030330e-03 0.0 
0.0 0.0 -6.266666666667e-04 
-7.456061716167e-04 2.469919196216e-05 0.0 
2.469919196216e-05 4.102695942195e-03 0.0 
0.0 0.0 -6.266666666667e-04 
-7.404032118594e-04 6.233661207773e-06 0.0 
6.233661207773e-06 4.103985895951e-03 0.0 
0.0 0.0 -6.266666666667e-04 
-7.306819678944e-04 6.672744555550e-06 0.0 
6.672744555550e-06 4.108272711165e-03 0.0 
0.0 0.0 -6.266666666667e-04 
-7.293745733164e-04 -1.304990055444e-06 0.0 
-1.304990055444e-06 4.106419007565e-03 0.0 
0.0 0.0 -6.266666666667e-04 
-7.249341380716e-04 -1.277588629320e-06 0.0 
-1.277588629320e-06 4.105173170991e-03 0.0 
0.0 0.0 -6.266666666667e-04 
-7.218872567136e-04 -1.221940477039e-05 0.0 
-1.221940477039e-05 4.104125766063e-03 0.0 
0.0 0.0 -6.266666666667e-04 
-7.226283520212e-04 -7.586680396462e-06 0.0 
-7.586680396462e-06 4.106687618408e-03 0.0 
0.0 0.0 -6.266666666667e-04 
-7.194567743785e-04 -1.345793513568e-05 0.0 
-1.345793513568e-05 4.101402324494e-03 0.0 
0.0 0.0 -6.266666666667e-04 
-7.217276456755e-04 -3.632688016994e-05 0.0 
-3.632688016994e-05 4.111803083088e-03 0.0 
0.0 0.0 -6.266666666667e-04 
-7.310107230365e-04 1.113089146982e-04 0.0 
1.113089146982e-04 4.120905737550e-03 0.0 
0.0 0.0 -6.266666666667e-04 
-5.341443868469e-06 2.762913765416e-04 0.0 
2.762913765416e-04 4.493384126281e-05 0.0 
0.0 0.0 -1.696817031186e-05 
-4.487896732987e-05 6.031454295583e-04 0.0 
6.031454295583e-04 4.769141611533e-04 0.0 
0.0 0.0 -1.851579402100e-04 
-2.477886944410e-04 8.307338841621e-04 0.0 
8.307338841621e-04 1.056772820351e-03 0.0 
0.0 0.0 -3.137502536684e-04 
-5.164548883485e-04 7.997848336998e-04 0.0 
7.997848336998e-04 1.596714724844e-03 0.0 
0.0 0.0 -2.872952472806e-04 
-5.175861022236e-04 5.392763842285e-04 0.0 
5.392763842285e-04 1.959300535365e-03 0.0 
0.0 0.0 -3.325309682737e-04 
-5.449792335688e-04 4.356130269135e-04 0.0 
4.356130269135e-04 2.421388465933e-03 0.0 
0.0 0.0 -3.977576770754e-04 
-6.066455436428e-04 3.364332527846e-04 0.0 
3.364332527846e-04 2.883298822982e-03 0.0 
0.0 0.0 -4.650267612653e-04 
-6.625430485052e-04 2.762683699332e-04 0.0 
2.762683699332e-04 3.355431578782e-03 0.0 
0.0 0.0 -5.317697887215e-04 
-7.239877336263e-04 2.202667385963e-04 0.0 
2.202667385963e-04 3.828610808697e-03 0.0 
0.0 0.0 -5.985602557689e-04 
-7.842817421153e-04 1.883796168278e-04 0.0 
1.883796168278e-04 4.312421836845e-03 0.0 
0.0 0.0 -6.652967104836e-04 
-6.528049956140e-05 8.329192367362e-04 0.0 
8.329192367362e-04 6.721534156509e-04 0.0 
0.0 0.0 -2.600883926098e-04 
-1.238271811776e-03 -2.323410981101e-05 0.0 
-2.323410981101e-05 8.143368057859e-03 0.0 
0.0 0.0 -1.303388942653e-03 
5.998510431380e-05 -1.163529753908e-04 0.0 
-1.163529753908e-04 2.499013313257e-04 0.0 
0.0 0.0 -7.661148810519e-05 
1.270751205327e-05 -3.607914457565e-05 0.0 
-3.607914457565e-05 6.964316184804e-06 0.0 
0.0 0.0 -8.430783530604e-06 
-1.278901467981e-03 -2.582894247670e-04 0.0 
-2.582894247670e-04 8.264882866352e-03 0.0 
0.0 0.0 -1.303360877099e-03 
-5.655990039998e-04 8.080804633426e-04 0.0 
8.080804633426e-04 1.859508276799e-03 0.0 
0.0 0.0 -3.221766324775e-04 
-9.861956324832e-04 -6.715847648061e-05 0.0 
-6.715847648061e-05 4.773589466734e-03 0.0 
0.0 0.0 -7.300567563597e-04 
-1.244927303710e-03 2.945275852412e-04 0.0 
2.945275852412e-04 8.164800639293e-03 0.0 
0.0 0.0 -1.300998267065e-03 
-6.348034790759e-04 4.424120780115e-04 0.0 
4.424120780115e-04 2.761117670990e-03 0.0 
0.0 0.0 -4.497936382440e-04 
-1.277128875373e-03 4.777706098865e-04 0.0 
4.777706098865e-04 8.316029240451e-03 0.0 
0.0 0.0 -1.304014651794e-03 
-7.514819667783e-04 2.897671537100e-04 0.0 
2.897671537100e-04 3.742162088854e-03 0.0 
0.0 0.0 -5.857980290939e-04 
-1.307584739855e-03 -2.907864623538e-04 0.0 
-2.907864623538e-04 8.435582561033e-03 0.0 
0.0 0.0 -1.307658508868e-03 
2.194594038095e-04 -2.670865977714e-05 0.0 
-2.670865977714e-05 1.694259524564e-04 0.0 
0.0 0.0 -9.345456780789e-05 
-1.309138496400e-03 5.212450025025e-04 0.0 
5.212450025025e-04 8.474949316046e-03 0.0 
0.0 0.0 -1.304481600125e-03 
-8.746417822978e-04 2.068395432367e-04 0.0 
2.068395432367e-04 4.729142408164e-03 0.0 
0.0 0.0 -7.203075318094e-04 
-6.505648739721e-04 -3.624268182337e-05 0.0 
-3.624268182337e-05 2.957311441966e-03 0.0 
0.0 0.0 -4.640473930190e-04 
-1.131372666701e-03 -4.491765098181e-05 0.0 
-4.491765098181e-05 5.976165985442e-03 0.0 
0.0 0.0 -9.125512086551e-04 
-1.314763544022e-03 4.589275118802e-04 0.0 
4.589275118802e-04 8.560285468091e-03 0.0 
0.0 0.0 -1.301280071178e-03 
-1.328200349095e-03 3.774182231254e-04 0.0 
3.774182231254e-04 8.674652987533e-03 0.0 
0.0 0.0 -1.304294760550e-03 
-1.328231009146e-03 1.002317222840e-04 0.0 
1.002317222840e-04 8.762903021805e-03 0.0 
0.0 0.0 -1.303238611779e-03 
-1.321361255880e-03 2.020746578681e-04 0.0 
2.020746578681e-04 8.706453928135e-03 0.0 
0.0 0.0 -1.297727402575e-03 
-1.333675382953e-03 2.525190978684e-04 0.0 
2.525190978684e-04 8.729905622316e-03 0.0 
0.0 0.0 -1.305306183856e-03 
-8.907724214169e-04 1.372579395388e-04 0.0 
1.372579395388e-04 4.950739460616e-03 0.0 
0.0 0.0 -7.522011426764e-04 
-8.750579348879e-04 6.356350708577e-05 0.0 
6.356350708577e-05 4.972444393085e-03 0.0 
0.0 0.0 -7.529849494387e-04 
-8.651922808025e-04 1.321213173771e-05 0.0 
1.321213173771e-05 5.002490543075e-03 0.0 
0.0 0.0 -7.580270452736e-04 
-1.081282276580e-03 -2.537529428612e-05 0.0 
-2.537529428612e-05 6.643650052824e-03 0.0 
0.0 0.0 -9.950081682429e-04 
-1.332561184719e-03 -2.295807888403e-04 0.0 
-2.295807888403e-04 8.502002206283e-03 0.0 
0.0 0.0 -1.302874185639e-03 
0.0 0.0 0.0 
0.0 0.0 0.0 
0.0 0.0 0.0 
2.233748649996e-04 5.268922663070e-06 0.0 
5.268922663070e-06 2.031789523429e-04 0.0 
0.0 0.0 -1.071793558177e-04 
-1.266615157062e-03 -4.708891648946e-05 0.0 
-4.708891648946e-05 7.362986267811e-03 0.0 
0.0 0.0 -1.122886395833e-03 
-8.590690058330e-04 2.817818056919e-05 0.0 
2.817818056919e-05 4.956725197885e-03 0.0 
0.0 0.0 -7.500338828344e-04 
-3.077541790528e-04 -1.952701143312e-05 0.0 
-1.952701143312e-05 1.504768126338e-03 0.0 
0.0 0.0 -2.594501920933e-04 
-1.324226706230e-03 4.167698339106e-04 0.0 
4.167698339106e-04 8.547363588762e-03 0.0 
0.0 0.0 -1.293200138473e-03 
-1.268789998251e-03 4.116378875631e-04 0.0 
4.116378875631e-04 8.267843264786e-03 0.0 
0.0 0.0 -1.307307853467e-03 
-1.298127013523e-03 5.178122413189e-04 0.0 
5.178122413189e-04 8.390890810401e-03 0.0 
0.0 0.0 -1.304733450272e-03 
-1.233362636415e-03 1.634458979136e-04 0.0 
1.634458979136e-04 8.121763907804e-03 0.0 
0.0 0.0 -1.297928233296e-03 
-1.261877986510e-03 -1.597052773119e-04 0.0 
-1.597052773119e-04 8.188934025231e-03 0.0 
0.0 0.0 -1.305578568836e-03 
2.734204477331e-05 -3.169143204034e-04 0.0 
-3.169143204034e-04 1.647533136443e-04 0.0 
0.0 0.0 -8.226872593096e-05 
-8.795053511419e-04 9.559274535899e-05 0.0 
9.559274535899e-05 4.954160552764e-03 0.0 
0.0 0.0 -7.500980793755e-04 
-1.291571793349e-03 -3.018456542619e-04 0.0 
-3.018456542619e-04 8.267318175430e-03 0.0 
0.0 0.0 -1.293180865222e-03 
-1.191688283040e-03 -1.679553581366e-05 0.0 
-1.679553581366e-05 7.562043590583e-03 0.0 
0.0 0.0 -1.123598490052e-03 
1.170418686809e-04 -5.562668358397e-05 0.0 
-5.562668358397e-05 2.275676700802e-04 0.0 
0.0 0.0 -7.719741026454e-05 
-8.274582342161e-04 -6.171908782243e-05 0.0 
-6.171908782243e-05 3.848512271059e-03 0.0 
0.0 0.0 -5.937437734062e-04 
-1.335764842081e-03 6.371320431880e-05 0.0 
6.371320431880e-05 8.844549453637e-03 0.0 
0.0 0.0 -1.311981303940e-03 
-6.029700723185e-04 6.122078773443e-04 0.0 
6.122078773443e-04 2.350776615634e-03 0.0 
0.0 0.0 -3.897472533596e-04 
-3.421036135192e-04 9.389470505226e-04 0.0 
9.389470505226e-04 1.298921873387e-03 0.0 
0.0 0.0 -3.268992177355e-04 
-6.932234286341e-04 3.612940895342e-04 0.0 
3.612940895342e-04 3.253564498504e-03 0.0 
0.0 0.0 -5.178568985205e-04 
-8.102727904185e-04 2.233971647189e-04 0.0 
2.233971647189e-04 4.222711404521e-03 0.0 
0.0 0.0 -6.527703211191e-04 
4.630959506146e-05 4.061571459275e-04 0.0 
4.061571459275e-04 1.267313794501e-04 0.0 
0.0 0.0 -7.416041764780e-05 
-9.647575502476e-04 -2.771769126341e-06 0.0 
-2.771769126341e-06 5.776762544034e-03 0.0 
0.0 0.0 -8.684787984471e-04 
-1.350888138525e-03 -1.433490915200e-04 0.0 
-1.433490915200e-04 8.608994521473e-03 0.0 
0.0 0.0 -1.313906642692e-03 
2.535763956766e-04 3.453965229505e-05 0.0 
3.453965229505e-05 1.648612099088e-04 0.0 
0.0 0.0 -1.090843966873e-04 
-1.275593957644e-03 1.853867106533e-05 0.0 
1.853867106533e-05 8.418825182379e-03 0.0 
0.0 0.0 -1.253930875827e-03 
-8.953448143456e-04 1.901723990594e-04 0.0 
1.901723990594e-04 4.929510438704e-03 0.0 
0.0 0.0 -7.532271817479e-04 
-9.242130448013e-04 2.218369834796e-04 0.0 
2.218369834796e-04 5.094044769017e-03 0.0 
0.0 0.0 -7.809350190597e-04 
-9.469027331401e-04 2.184886764960e-04 0.0 
2.184886764960e-04 5.336848493436e-03 0.0 
0.0 0.0 -8.115578932774e-04 
-9.847582339447e-04 2.348277518639e-04 0.0 
2.348277518639e-04 5.535490339246e-03 0.0 
0.0 0.0 -8.428390908522e-04 
-1.013224796440e-03 2.269955445031e-04 0.0 
2.269955445031e-04 5.773109205172e-03 0.0 
0.0 0.0 -8.784658474099e-04 
-1.038385862696e-03 2.590411142921e-04 0.0 
2.590411142921e-04 5.954479327597e-03 0.0 
0.0 0.0 -9.060409163497e-04 
-1.004174411440e-03 2.781484189758e-04 0.0 
2.781484189758e-04 5.703926568537e-03 0.0 
0.0 0.0 -8.711257577415e-04 
-1.054585459025e-03 2.973439443916e-04 0.0 
2.973439443916e-04 6.126110480118e-03 0.0 
0.0 0.0 -9.341442283280e-04 
-1.020905393351e-03 3.220952727550e-04 0.0 
3.220952727550e-04 5.866625374892e-03 0.0 
0.0 0.0 -8.989774131092e-04 
-1.060675836449e-03 2.424242741137e-04 0.0 
2.424242741137e-04 6.211611638975e-03 0.0 
0.0 0.0 -9.415083590319e-04 
-1.069903741450e-03 3.342745829502e-04 0.0 
3.342745829502e-04 6.289952349254e-03 0.0 
0.0 0.0 -9.622976032585e-04 
-1.033366094007e-03 3.621226093725e-04 0.0 
3.621226093725e-04 6.024211968433e-03 0.0 
0.0 0.0 -9.268639294333e-04 
-1.081748877589e-03 3.725821950627e-04 0.0 
3.725821950627e-04 6.448138080981e-03 0.0 
0.0 0.0 -9.903372159162e-04 
-1.042953915019e-03 3.991340856965e-04 0.0 
3.991340856965e-04 6.178329635147e-03 0.0 
0.0 0.0 -9.547708836903e-04 
-9.946320659626e-04 3.943126043460e-04 0.0 
3.943126043460e-04 5.758814307551e-03 0.0 
0.0 0.0 -8.916807130883e-04 
-1.001107217771e-03 4.332773723891e-04 0.0 
4.332773723891e-04 5.906894361937e-03 0.0 
0.0 0.0 -9.194532194038e-04 
-9.524385169357e-04 4.327952618966e-04 0.0 
4.327952618966e-04 5.490022466699e-03 0.0 
0.0 0.0 -8.565021464485e-04 
-9.551941416785e-04 4.714703413802e-04 0.0 
4.714703413802e-04 5.632535536945e-03 0.0 
0.0 0.0 -8.841639842141e-04 
-1.003948910985e-03 4.659340529388e-04 0.0 
4.659340529388e-04 6.052492370979e-03 0.0 
0.0 0.0 -9.471984275390e-04 
-9.534464918986e-04 5.005026845975e-04 0.0 
5.005026845975e-04 5.770878701320e-03 0.0 
0.0 0.0 -9.118195294070e-04 
-9.061256584098e-04 5.150134062317e-04 0.0 
5.150134062317e-04 5.352614190247e-03 0.0 
0.0 0.0 -8.488396520500e-04 
-8.989049191365e-04 5.434397803423e-04 0.0 
5.434397803423e-04 5.483228311018e-03 0.0 
0.0 0.0 -8.764089341820e-04 
-8.533039374695e-04 5.667693254413e-04 0.0 
5.667693254413e-04 5.068208533921e-03 0.0 
0.0 0.0 -8.135623229517e-04 
-8.400733524865e-04 5.914836390070e-04 0.0 
5.914836390070e-04 5.191255654721e-03 0.0 
0.0 0.0 -8.410744910442e-04 
-7.968543408339e-04 6.237249391908e-04 0.0 
6.237249391908e-04 4.777124479860e-03 0.0 
0.0 0.0 -7.781617608290e-04 
-7.768533972698e-04 6.436004668132e-04 0.0 
6.436004668132e-04 4.892920097115e-03 0.0 
0.0 0.0 -8.056965831182e-04 
-8.240566969273e-04 5.997503228454e-04 0.0 
5.997503228454e-04 5.313376653990e-03 0.0 
0.0 0.0 -8.686949506212e-04 
-7.549029941076e-04 6.445435251704e-04 0.0 
6.445435251704e-04 5.007797875212e-03 0.0 
0.0 0.0 -8.332427817419e-04 
-7.080731455591e-04 7.008821416478e-04 0.0 
7.008821416478e-04 4.586577191639e-03 0.0 
0.0 0.0 -7.703313069557e-04 
-6.796342790660e-04 6.889970591832e-04 0.0 
6.889970591832e-04 4.694361205396e-03 0.0 
0.0 0.0 -7.977945042040e-04 
-6.329025767040e-04 7.594983388287e-04 0.0 
7.594983388287e-04 4.271526927018e-03 0.0 
0.0 0.0 -7.349073124327e-04 
-5.970419350956e-04 7.303350951609e-04 0.0 
7.303350951609e-04 4.369967111415e-03 0.0 
0.0 0.0 -7.622392297106e-04 
-6.532929672579e-04 6.522887049741e-04 0.0 
6.522887049741e-04 4.806542372592e-03 0.0 
0.0 0.0 -8.253152238873e-04 
-5.665194748989e-04 6.694860838181e-04 0.0 
6.694860838181e-04 4.478701756150e-03 0.0 
0.0 0.0 -7.896995018144e-04 
-5.068058502527e-04 7.602496009026e-04 0.0 
7.602496009026e-04 4.031209139410e-03 0.0 
0.0 0.0 -7.264132926703e-04 
-4.737449794266e-04 6.709445860115e-04 0.0 
6.709445860115e-04 4.140917238724e-03 0.0 
0.0 0.0 -7.539848323805e-04 
-4.092281239023e-04 7.730243516518e-04 0.0 
7.730243516518e-04 3.680765614921e-03 0.0 
0.0 0.0 -6.903858661722e-04 
-3.744957372966e-04 6.516877818939e-04 0.0 
6.516877818939e-04 3.794607072583e-03 0.0 
0.0 0.0 -7.182351804274e-04 
-3.014418119782e-04 7.651198626849e-04 0.0 
7.651198626849e-04 3.317111817818e-03 0.0 
0.0 0.0 -6.542402593883e-04 
-2.691367924077e-04 5.991354595496e-04 0.0 
5.991354595496e-04 3.436288112929e-03 0.0 
0.0 0.0 -6.821763112594e-04 
-3.572033048063e-04 5.016025540799e-04 0.0 
5.016025540799e-04 3.930238801817e-03 0.0 
0.0 0.0 -7.460902125261e-04 
-2.604633093040e-04 4.087486075233e-04 0.0 
4.087486075233e-04 3.586761049540e-03 0.0 
0.0 0.0 -7.100832486075e-04 
-1.613056217724e-04 4.995138349428e-04 0.0 
4.995138349428e-04 3.072389318551e-03 0.0 
0.0 0.0 -6.458624074531e-04 
-1.669705829229e-04 2.701808013183e-04 0.0 
2.701808013183e-04 3.243787358763e-03 0.0 
0.0 0.0 -6.737786430284e-04 
-2.753947664968e-04 2.161212745525e-04 0.0 
2.161212745525e-04 3.768674846201e-03 0.0 
0.0 0.0 -7.381473126730e-04 
-2.005498486414e-04 5.346396201185e-05 0.0 
5.346396201185e-05 3.452103226554e-03 0.0 
0.0 0.0 -7.017500108595e-04 
-3.129525029213e-04 3.691539212024e-05 0.0 
3.691539212024e-05 3.980008917697e-03 0.0 
0.0 0.0 -7.662494016216e-04 
-2.576506604218e-04 -1.344602376400e-04 0.0 
-1.344602376400e-04 3.691587731914e-03 0.0 
0.0 0.0 -7.297828278826e-04 
-1.426325829897e-04 -1.501001214894e-04 0.0 
-1.501001214894e-04 3.157731231159e-03 0.0 
0.0 0.0 -6.655364893108e-04 
-2.218003623758e-04 -3.334729403515e-04 0.0 
-3.334729403515e-04 3.428848173996e-03 0.0 
0.0 0.0 -6.934067383651e-04 
-3.318343911700e-04 -2.853674173367e-04 0.0 
-2.853674173367e-04 3.952815162001e-03 0.0 
0.0 0.0 -7.577868799165e-04 
-3.144801710965e-04 -4.682272711583e-04 0.0 
-4.682272711583e-04 3.714915939774e-03 0.0 
0.0 0.0 -7.212202614536e-04 
-2.108184981842e-04 -5.509789330318e-04 0.0 
-5.509789330318e-04 3.196953321697e-03 0.0 
0.0 0.0 -6.571136838490e-04 
-3.194748950850e-04 -6.509678457029e-04 0.0 
-6.509678457029e-04 3.509025892108e-03 0.0 
0.0 0.0 -6.848379476561e-04 
-4.134303053585e-04 -5.537180261355e-04 0.0 
-5.537180261355e-04 4.010754256809e-03 0.0 
0.0 0.0 -7.491645792950e-04 
-4.282972412297e-04 -7.003622053819e-04 0.0 
-7.003622053819e-04 3.819503617895e-03 0.0 
0.0 0.0 -7.127097857715e-04 
-3.469063150971e-04 -8.191207970740e-04 0.0 
-8.191207970740e-04 3.332834435183e-03 0.0 
0.0 0.0 -6.486049398320e-04 
-4.603200915782e-04 -8.241016297384e-04 0.0 
-8.241016297384e-04 3.654972315785e-03 0.0 
0.0 0.0 -6.763006240845e-04 
-5.326763552168e-04 -7.095630877107e-04 0.0 
-7.095630877107e-04 4.127629826769e-03 0.0 
0.0 0.0 -7.409416231994e-04 
-5.642434690968e-04 -7.961766967206e-04 0.0 
-7.961766967206e-04 3.962246775740e-03 0.0 
0.0 0.0 -7.042275185679e-04 
-5.048810542407e-04 -9.111393169982e-04 0.0 
-9.111393169982e-04 3.507729400124e-03 0.0 
0.0 0.0 -6.398389559308e-04 
-6.027165900428e-04 -8.444966016725e-04 0.0 
-8.444966016725e-04 3.810620087909e-03 0.0 
0.0 0.0 -6.674633383154e-04 
-6.579291994771e-04 -7.450391146030e-04 0.0 
-7.450391146030e-04 4.258237816838e-03 0.0 
0.0 0.0 -7.324886333286e-04 
-6.885251553241e-04 -7.661379123145e-04 0.0 
-7.661379123145e-04 4.095680745521e-03 0.0 
0.0 0.0 -6.954027321055e-04 
-7.420005201256e-04 -6.813900099092e-04 0.0 
-6.813900099092e-04 4.540296059999e-03 0.0 
0.0 0.0 -7.608997874520e-04 
-6.419229239274e-04 -8.515280830913e-04 0.0 
-8.515280830913e-04 3.660198205629e-03 0.0 
0.0 0.0 -6.302092384919e-04 
-7.165087956100e-04 -7.532581299851e-04 0.0 
-7.532581299851e-04 3.933160643348e-03 0.0 
0.0 0.0 -6.580989212857e-04 
-6.748415764425e-04 -8.158732049488e-04 0.0 
-8.158732049488e-04 3.506981101763e-03 0.0 
0.0 0.0 -5.925517106747e-04 
-7.365832294088e-04 -7.073699189760e-04 0.0 
-7.073699189760e-04 3.765896700508e-03 0.0 
0.0 0.0 -6.207111136070e-04 
-6.332000182986e-04 5.918731838089e-04 0.0 
5.918731838089e-04 4.929291128701e-03 0.0 
0.0 0.0 -8.529317679587e-04 
-6.943116331248e-04 -7.425915444218e-04 0.0 
-7.425915444218e-04 3.344277999279e-03 0.0 
0.0 0.0 -5.549884598765e-04 
-6.397413698948e-04 -8.660814527003e-04 0.0 
-8.660814527003e-04 3.093984914707e-03 0.0 
0.0 0.0 -5.276250340903e-04 
-7.441497249529e-04 -6.348309289793e-04 0.0 
-6.348309289793e-04 3.588685288948e-03 0.0 
0.0 0.0 -5.833260987948e-04 
-7.927694967591e-04 -6.072286345187e-04 0.0 
-6.072286345187e-04 4.017000879105e-03 0.0 
0.0 0.0 -6.493616581942e-04 
-6.966675025981e-04 -6.428656991036e-04 0.0 
-6.428656991036e-04 3.166084591150e-03 0.0 
0.0 0.0 -5.173870653820e-04 
-7.365323002863e-04 -5.431818663254e-04 0.0 
-5.431818663254e-04 3.397457388952e-03 0.0 
0.0 0.0 -5.459094278256e-04 
-6.801980278813e-04 -5.258870908465e-04 0.0 
-5.258870908465e-04 2.971149924429e-03 0.0 
0.0 0.0 -4.798161731008e-04 
-3.522724475006e-04 8.978406558880e-04 0.0 
8.978406558880e-04 3.218246737404e-03 0.0 
0.0 0.0 -6.252159162693e-04 
-1.003922379852e-03 4.867498946042e-04 0.0 
4.867498946042e-04 6.194900288835e-03 0.0 
0.0 0.0 -9.750716696758e-04 
-7.134730581966e-04 -4.396097415729e-04 0.0 
-4.396097415729e-04 3.191992919970e-03 0.0 
0.0 0.0 -5.084495576641e-04 
-6.454975030147e-04 -4.098543326581e-04 0.0 
-4.098543326581e-04 2.756723401947e-03 0.0 
0.0 0.0 -4.423119711188e-04 
-6.169555617155e-04 -4.854535332185e-04 0.0 
-4.854535332185e-04 2.543124995000e-03 0.0 
0.0 0.0 -4.136824817550e-04 
-5.630688119643e-04 -3.553409865602e-04 0.0 
-3.553409865602e-04 2.315573721592e-03 0.0 
0.0 0.0 -3.761903503575e-04 
-1.032297422083e-03 1.966440866369e-04 0.0 
1.966440866369e-04 6.038887422175e-03 0.0 
0.0 0.0 -9.126358703463e-04 
-1.092679819842e-03 2.404953654437e-04 0.0 
2.404953654437e-04 6.471742125457e-03 0.0 
0.0 0.0 -9.772611937912e-04 
-1.065662184042e-03 1.952825978825e-04 0.0 
1.952825978825e-04 6.276115658093e-03 0.0 
0.0 0.0 -9.468612964576e-04 
-1.124488971150e-03 2.272669760496e-04 0.0 
2.272669760496e-04 6.729090336894e-03 0.0 
0.0 0.0 -1.012955122490e-03 
-1.098065280761e-03 1.864830102051e-04 0.0 
1.864830102051e-04 6.541298868571e-03 0.0 
0.0 0.0 -9.835180958883e-04 
-5.915603593799e-04 -3.065298427479e-04 0.0 
-3.065298427479e-04 2.521782196510e-03 0.0 
0.0 0.0 -4.047791634435e-04 
-1.117175513921e-03 3.540420738705e-04 0.0 
3.540420738705e-04 6.717826161917e-03 0.0 
0.0 0.0 -1.026687169009e-03 
-1.146459728684e-03 2.677090129604e-04 0.0 
2.677090129604e-04 6.908937528882e-03 0.0 
0.0 0.0 -1.042264213861e-03 
-8.619810308033e-04 5.269046982762e-04 0.0 
5.269046982762e-04 4.942534175484e-03 0.0 
0.0 0.0 -7.861871271282e-04 
-6.685992335526e-04 7.579980182072e-04 0.0 
7.579980182072e-04 4.174187567995e-03 0.0 
0.0 0.0 -7.076088937226e-04 
-3.823000922578e-04 1.751040962943e-04 0.0 
1.751040962943e-04 4.285393794973e-03 0.0 
0.0 0.0 -8.027518904046e-04 
-7.754697783619e-04 -4.563258168331e-04 0.0 
-4.563258168331e-04 3.623603682734e-03 0.0 
0.0 0.0 -5.745905038755e-04 
-7.478137892348e-04 -3.620965601600e-04 0.0 
-3.620965601600e-04 3.412205611854e-03 0.0 
0.0 0.0 -5.371338854166e-04 
-8.174754817651e-04 -3.813163108904e-04 0.0 
-3.813163108904e-04 3.849101426160e-03 0.0 
0.0 0.0 -6.033452624549e-04 
-7.192525572030e-04 -6.519418612780e-04 0.0 
-6.519418612780e-04 4.714458239345e-03 0.0 
0.0 0.0 -7.980428604176e-04 
-8.008672232585e-04 -6.001783307384e-04 0.0 
-6.001783307384e-04 4.992005436326e-03 0.0 
0.0 0.0 -8.266132305475e-04 
-7.854918836627e-04 -5.659348858598e-04 0.0 
-5.659348858598e-04 5.176434454621e-03 0.0 
0.0 0.0 -8.638188500004e-04 
-8.639017049063e-04 -5.248351014622e-04 0.0 
-5.248351014622e-04 5.448454375514e-03 0.0 
0.0 0.0 -8.924533907576e-04 
-8.555184497349e-04 -4.894755576408e-04 0.0 
-4.894755576408e-04 5.642058910946e-03 0.0 
0.0 0.0 -9.297164513315e-04 
-9.301291339826e-04 -4.570426975750e-04 0.0 
-4.570426975750e-04 5.908844626244e-03 0.0 
0.0 0.0 -9.583747859490e-04 
-9.353789003032e-04 -4.780922276340e-04 0.0 
-4.780922276340e-04 5.711821717037e-03 0.0 
0.0 0.0 -9.210728288235e-04 
-9.984662583326e-04 -4.207024963502e-04 0.0 
-4.207024963502e-04 6.168121907027e-03 0.0 
0.0 0.0 -9.870277070005e-04 
-1.000069004232e-03 -4.285924737525e-04 0.0 
-4.285924737525e-04 5.966651563586e-03 0.0 
0.0 0.0 -9.497007337289e-04 
-9.283284515458e-04 -4.229135290675e-04 0.0 
-4.229135290675e-04 6.110180447664e-03 0.0 
0.0 0.0 -9.956835613869e-04 
-8.527578693464e-04 -4.403303765288e-04 0.0 
-4.403303765288e-04 5.842885643991e-03 0.0 
0.0 0.0 -9.668198671257e-04 
-1.059819806392e-03 -3.815720688592e-04 0.0 
-3.815720688592e-04 6.418981492352e-03 0.0 
0.0 0.0 -1.015681523326e-03 
-1.057949721367e-03 -3.770560260125e-04 0.0 
-3.770560260125e-04 6.213345858748e-03 0.0 
0.0 0.0 -9.783260305704e-04 
-1.113690001508e-03 -3.391138449317e-04 0.0 
-3.391138449317e-04 6.662067817752e-03 0.0 
0.0 0.0 -1.044362401637e-03 
-1.108897527401e-03 -3.261874601882e-04 0.0 
-3.261874601882e-04 6.451449547970e-03 0.0 
0.0 0.0 -1.007007767922e-03 
-1.056102434059e-03 -3.617377197121e-04 0.0 
-3.617377197121e-04 6.006353850389e-03 0.0 
0.0 0.0 -9.408676861799e-04 
-1.103510128039e-03 -3.034940289184e-04 0.0 
-3.034940289184e-04 6.238484304806e-03 0.0 
0.0 0.0 -9.695029660748e-04 
-1.052845247082e-03 -3.373861149014e-04 0.0 
-3.373861149014e-04 5.798954310895e-03 0.0 
0.0 0.0 -9.035672079865e-04 
-4.228503435162e-04 2.652797493901e-05 0.0 
2.652797493901e-05 4.498640496550e-03 0.0 
0.0 0.0 -8.309624794500e-04 
-4.884683166150e-04 1.460460655517e-04 0.0 
1.460460655517e-04 4.796700712876e-03 0.0 
0.0 0.0 -8.675775700443e-04 
-5.309148746778e-04 2.225588307319e-05 0.0 
2.225588307319e-05 5.010085131158e-03 0.0 
0.0 0.0 -8.958500940740e-04 
-5.943549435448e-04 1.251718936452e-04 0.0 
1.251718936452e-04 5.302582402065e-03 0.0 
0.0 0.0 -9.325549191312e-04 
-6.382538609797e-04 2.086054713912e-05 0.0 
2.086054713912e-05 5.516155282354e-03 0.0 
0.0 0.0 -9.609176734917e-04 
-7.011603817707e-04 1.101794033340e-04 0.0 
1.101794033340e-04 5.804703043974e-03 0.0 
0.0 0.0 -9.976363410588e-04 
-7.465959866999e-04 2.216834778625e-05 0.0 
2.216834778625e-05 6.016830116331e-03 0.0 
0.0 0.0 -1.026032504441e-03 
-6.923978724816e-04 -6.826398853254e-05 0.0 
-6.826398853254e-05 5.743653636097e-03 0.0 
0.0 0.0 -9.892761093610e-04 
-1.092308246197e-03 4.087334969491e-04 0.0 
4.087334969491e-04 6.601377400440e-03 0.0 
0.0 0.0 -1.018102500310e-03 
-5.675897396992e-05 3.425637172408e-04 0.0 
3.425637172408e-04 2.708861454988e-03 0.0 
0.0 0.0 -6.095594541484e-04 
-6.420114659775e-05 6.151203334216e-04 0.0 
6.151203334216e-04 2.551183745386e-03 0.0 
0.0 0.0 -5.816898710390e-04 
5.441246620249e-05 4.399473863901e-04 0.0 
4.399473863901e-04 2.161774981432e-03 0.0 
0.0 0.0 -5.454521931755e-04 
2.844502818309e-05 7.644395339616e-04 0.0 
7.644395339616e-04 2.024830997844e-03 0.0 
0.0 0.0 -5.176388733440e-04 
1.652901373793e-04 5.705702379394e-04 0.0 
5.705702379394e-04 1.600345183292e-03 0.0 
0.0 0.0 -4.814163979944e-04 
1.130601457631e-04 9.562292981796e-04 0.0 
9.562292981796e-04 1.494895390825e-03 0.0 
0.0 0.0 -4.537165770244e-04 
2.845119300012e-04 7.483953602617e-04 0.0 
7.483953602617e-04 1.019187802654e-03 0.0 
0.0 0.0 -4.208902240644e-04 
2.929325993539e-04 2.620833489363e-04 0.0 
2.620833489363e-04 1.186149753907e-03 0.0 
0.0 0.0 -4.466351565148e-04 
4.659960569609e-04 3.874152989476e-04 0.0 
3.874152989476e-04 5.352766773023e-04 0.0 
0.0 0.0 -3.736376070058e-04 
4.059265982279e-04 -1.758088808093e-04 0.0 
-1.758088808093e-04 8.092916298160e-04 0.0 
0.0 0.0 -4.168446658567e-04 
5.790431118009e-04 -1.610129805314e-04 0.0 
-1.610129805314e-04 1.533127793959e-04 0.0 
0.0 0.0 -3.063790003961e-04 
4.494391646470e-04 -7.152402717994e-04 0.0 
-7.152402717994e-04 5.082279969168e-04 0.0 
0.0 0.0 -3.640020775467e-04 
-8.080190775198e-04 5.920502661192e-04 0.0 
5.920502661192e-04 5.436356176569e-03 0.0 
0.0 0.0 -8.963565068603e-04 
-6.651558879210e-04 2.088271070434e-04 0.0 
2.088271070434e-04 5.603894024499e-03 0.0 
0.0 0.0 -9.691568884624e-04 
-7.699005087498e-04 1.883379167874e-04 0.0 
1.883379167874e-04 6.102423018858e-03 0.0 
0.0 0.0 -1.034312087004e-03 
-7.384024095732e-04 2.760115291154e-04 0.0 
2.760115291154e-04 5.907746579569e-03 0.0 
0.0 0.0 -1.005320805676e-03 
-5.404221803057e-04 -4.187129725138e-04 0.0 
-4.187129725138e-04 2.110154003912e-03 0.0 
0.0 0.0 -3.475522021424e-04 
-1.152888887005e-03 -2.763407572661e-04 0.0 
-2.763407572661e-04 6.681517292358e-03 0.0 
0.0 0.0 -1.035773625862e-03 
-9.326850124499e-04 -3.805734010338e-04 0.0 
-3.805734010338e-04 6.318938914437e-03 0.0 
0.0 0.0 -1.032922975483e-03 
-8.578946226242e-04 -3.814307824260e-04 0.0 
-3.814307824260e-04 6.050788235921e-03 0.0 
0.0 0.0 -1.003739924893e-03 
-8.007230077279e-04 -5.030783828559e-05 0.0 
-5.030783828559e-05 6.244226135644e-03 0.0 
0.0 0.0 -1.054598834243e-03 
-4.941523760955e-04 -2.470231279283e-04 0.0 
-2.470231279283e-04 2.071816915527e-03 0.0 
0.0 0.0 -3.392587823741e-04 
1.975953042673e-04 1.172543779916e-03 0.0 
1.172543779916e-03 9.666654142640e-04 0.0 
0.0 0.0 -3.922431101850e-04 
5.175793587872e-06 1.277837662737e-03 0.0 
1.277837662737e-03 1.466786264722e-03 0.0 
0.0 0.0 -4.261104576107e-04 
-1.152692083578e-03 2.146597661269e-04 0.0 
2.146597661269e-04 6.983288018661e-03 0.0 
0.0 0.0 -1.048874596840e-03 
-1.125979627456e-03 1.800276227316e-04 0.0 
1.800276227316e-04 6.792196765101e-03 0.0 
0.0 0.0 -1.019458214591e-03 
-9.448287362971e-04 -3.295389867260e-04 0.0 
-3.295389867260e-04 6.536387605041e-03 0.0 
0.0 0.0 -1.070157681403e-03 
-5.240293716215e-04 -2.102668930863e-04 0.0 
-2.102668930863e-04 2.277314558376e-03 0.0 
0.0 0.0 -3.675747464493e-04 
-1.063791247498e-03 -3.742192618344e-04 0.0 
-3.742192618344e-04 6.627422368744e-03 0.0 
0.0 0.0 -1.052997445444e-03 
5.558984473440e-04 4.127353325470e-04 0.0 
4.127353325470e-04 1.463881506699e-05 0.0 
0.0 0.0 -2.445159696047e-04 
-1.144117684349e-03 -2.458346103954e-04 0.0 
-2.458346103954e-04 6.462839923362e-03 0.0 
0.0 0.0 -9.982306137915e-04 
-1.191309827109e-03 -2.266694415371e-04 0.0 
-2.266694415371e-04 6.904200660223e-03 0.0 
0.0 0.0 -1.064501221861e-03 
-9.418341400068e-04 -4.830251057162e-04 0.0 
-4.830251057162e-04 5.517520339527e-03 0.0 
0.0 0.0 -8.838659695519e-04 
-8.408929706273e-04 2.533730996691e-04 0.0 
2.533730996691e-04 6.403362100756e-03 0.0 
0.0 0.0 -1.070909199420e-03 
-8.123210735737e-04 3.267258872306e-04 0.0 
3.267258872306e-04 6.208133296915e-03 0.0 
0.0 0.0 -1.041442769611e-03 
2.640974401389e-04 -6.120925406395e-04 0.0 
-6.120925406395e-04 1.170954425306e-03 0.0 
0.0 0.0 -4.384799197683e-04 
2.270076462303e-04 -1.094827319140e-03 0.0 
-1.094827319140e-03 9.810701092341e-04 0.0 
0.0 0.0 -4.046094527367e-04 
3.640551099348e-04 -1.155184556941e-03 0.0 
-1.155184556941e-03 4.131638396833e-04 0.0 
0.0 0.0 -3.139947606995e-04 
1.171979887630e-04 -1.455005939438e-03 0.0 
-1.455005939438e-03 9.453620887615e-04 0.0 
0.0 0.0 -3.763072820036e-04 
2.556371078841e-05 -1.262704422364e-03 0.0 
-1.262704422364e-03 1.454464914390e-03 0.0 
0.0 0.0 -4.289053338950e-04 
-8.947678599683e-05 -1.490768828574e-03 0.0 
-1.490768828574e-03 1.396555812330e-03 0.0 
0.0 0.0 -3.979758726750e-04 
2.329510608106e-05 -1.514078363831e-03 0.0 
-1.514078363831e-03 9.452166061342e-04 0.0 
0.0 0.0 -3.667276109228e-04 
-2.100553572376e-04 -1.558593298157e-03 0.0 
-1.558593298157e-03 1.402552177449e-03 0.0 
0.0 0.0 -3.771854463149e-04 
-2.665534885264e-04 -1.440543195804e-03 0.0 
-1.440543195804e-03 1.828480576306e-03 0.0 
0.0 0.0 -4.192720002935e-04 
-3.858828221178e-04 -1.432331817451e-03 0.0 
-1.432331817451e-03 1.803183213938e-03 0.0 
0.0 0.0 -3.853829593207e-04 
-2.961455271275e-04 -1.398427341996e-03 0.0 
-1.398427341996e-03 1.416563920223e-03 0.0 
0.0 0.0 -3.646163496721e-04 
-4.654616132702e-04 -1.259328861233e-03 0.0 
-1.259328861233e-03 1.764244007017e-03 0.0 
0.0 0.0 -3.558200702016e-04 
-1.201889062818e-03 -2.543911578407e-04 0.0 
-2.543911578407e-04 7.124942193322e-03 0.0 
0.0 0.0 -1.101875158976e-03 
5.412904168970e-04 -8.385322248721e-05 0.0 
-8.385322248721e-05 -1.404456435363e-04 0.0 
0.0 0.0 -1.717906171546e-04 
-9.463800631761e-04 3.860027273263e-04 0.0 
3.860027273263e-04 5.343793686453e-03 0.0 
0.0 0.0 -8.288706041983e-04 
-1.014362980206e-03 -3.321555799501e-04 0.0 
-3.321555799501e-04 6.794335154877e-03 0.0 
0.0 0.0 -1.099012274073e-03 
-8.569045148225e-04 3.078985663283e-05 0.0 
3.078985663283e-05 6.510332221214e-03 0.0 
0.0 0.0 -1.090660416876e-03 
-1.178566600954e-03 2.066846340334e-04 0.0 
2.066846340334e-04 7.236502688045e-03 0.0 
0.0 0.0 -1.085032576515e-03 
-1.153658343620e-03 1.755152393049e-04 0.0 
1.755152393049e-04 7.044914703598e-03 0.0 
0.0 0.0 -1.055603631703e-03 
-1.098678134952e-03 1.564744163133e-04 0.0 
1.564744163133e-04 6.595940529562e-03 0.0 
0.0 0.0 -9.897378988699e-04 
-1.129113373444e-03 1.503482155027e-04 0.0 
1.503482155027e-04 6.853244331223e-03 0.0 
0.0 0.0 -1.026001677571e-03 
-1.181824965340e-03 1.678156779438e-04 0.0 
1.678156779438e-04 7.301020112961e-03 0.0 
0.0 0.0 -1.091942449670e-03 
-1.157557793781e-03 1.434383666525e-04 0.0 
1.434383666525e-04 7.107529686986e-03 0.0 
0.0 0.0 -1.062342898562e-03 
-1.103342207633e-03 1.238709536611e-04 0.0 
1.238709536611e-04 6.657901312686e-03 0.0 
0.0 0.0 -9.962627399151e-04 
-1.130139591936e-03 1.194308116232e-04 0.0 
1.194308116232e-04 6.908298246914e-03 0.0 
0.0 0.0 -1.032646955902e-03 
-1.072650473166e-03 9.941159075289e-05 0.0 
9.941159075289e-05 6.455574140328e-03 0.0 
0.0 0.0 -9.664557332607e-04 
-1.101356119743e-03 9.815565709695e-05 0.0 
9.815565709695e-05 6.706288769856e-03 0.0 
0.0 0.0 -1.002889032254e-03 
-1.155889062888e-03 1.141636426079e-04 0.0 
1.141636426079e-04 7.157664523701e-03 0.0 
0.0 0.0 -1.069134413525e-03 
-1.129364737971e-03 9.069177524751e-05 0.0 
9.069177524751e-05 6.958007176896e-03 0.0 
0.0 0.0 -1.039387411609e-03 
-1.074512864600e-03 8.003659807365e-05 0.0 
8.003659807365e-05 6.506063569350e-03 0.0 
0.0 0.0 -9.730575354659e-04 
-1.102505706781e-03 6.895302199807e-05 0.0 
6.895302199807e-05 6.755927681467e-03 0.0 
0.0 0.0 -1.009574527126e-03 
-1.046730538131e-03 5.947738879001e-05 0.0 
5.947738879001e-05 6.301429284161e-03 0.0 
0.0 0.0 -9.431603702596e-04 
-1.071542509842e-03 4.629020306893e-05 0.0 
4.629020306893e-05 6.545497453892e-03 0.0 
0.0 0.0 -9.796061197752e-04 
-1.128792209327e-03 6.597728227981e-05 0.0 
6.597728227981e-05 7.006220652052e-03 0.0 
0.0 0.0 -1.046101832713e-03 
-4.073418969283e-04 -1.607374412238e-04 0.0 
-1.607374412238e-04 1.828608037656e-03 0.0 
0.0 0.0 -3.035957800550e-04 
-7.554826328512e-04 -1.381735686785e-04 0.0 
-1.381735686785e-04 5.982792301535e-03 0.0 
0.0 0.0 -1.017732614895e-03 
-8.650297313857e-04 -1.043541426240e-04 0.0 
-1.043541426240e-04 6.483758424389e-03 0.0 
0.0 0.0 -1.083831836677e-03 
-7.928232165852e-04 -3.175969841458e-04 0.0 
-3.175969841458e-04 3.652484692606e-03 0.0 
0.0 0.0 -5.671321338944e-04 
-8.566347672055e-04 -3.217821912401e-04 0.0 
-3.217821912401e-04 4.048954472777e-03 0.0 
0.0 0.0 -6.325382687906e-04 
-8.804918361104e-04 -3.627202257711e-04 0.0 
-3.627202257711e-04 4.282181100263e-03 0.0 
0.0 0.0 -6.695659616924e-04 
-9.177573047804e-04 -2.924538415403e-04 0.0 
-2.924538415403e-04 4.507721826303e-03 0.0 
0.0 0.0 -6.986863204145e-04 
-1.099135465243e-03 4.357947276918e-05 0.0 
4.357947276918e-05 6.797671672464e-03 0.0 
0.0 0.0 -1.015477767897e-03 
-1.160436245727e-03 6.544078644588e-05 0.0 
6.544078644588e-05 7.256684604588e-03 0.0 
0.0 0.0 -1.082739357160e-03 
7.036319334209e-05 1.449833710054e-03 0.0 
1.449833710054e-03 1.011168072104e-03 0.0 
0.0 0.0 -3.730214571323e-04 
-1.313033917885e-04 1.466714958247e-03 0.0 
1.466714958247e-03 1.502828426790e-03 0.0 
0.0 0.0 -4.032920832132e-04 
-1.202425520628e-03 2.413601229435e-04 0.0 
2.413601229435e-04 7.423802842249e-03 0.0 
0.0 0.0 -1.114382729655e-03 
-1.180850422310e-03 -1.936004808914e-04 0.0 
-1.936004808914e-04 6.684429122052e-03 0.0 
0.0 0.0 -1.027045364000e-03 
-1.134320678585e-03 -2.084199271041e-04 0.0 
-2.084199271041e-04 6.243084428302e-03 0.0 
0.0 0.0 -9.609938998495e-04 
-5.952582294012e-04 8.316068584819e-04 0.0 
8.316068584819e-04 3.858437738170e-03 0.0 
0.0 0.0 -6.721935305596e-04 
-6.370100935664e-04 8.121723615139e-04 0.0 
8.121723615139e-04 3.769953827514e-03 0.0 
0.0 0.0 -6.449639573754e-04 
-5.665659749616e-04 8.991854182347e-04 0.0 
8.991854182347e-04 3.453268816289e-03 0.0 
0.0 0.0 -6.093131083769e-04 
-6.122481697245e-04 8.584550154617e-04 0.0 
8.584550154617e-04 3.367517643807e-03 0.0 
0.0 0.0 -5.812298138028e-04 
-6.717347223774e-04 7.671538527367e-04 0.0 
7.671538527367e-04 3.680324616707e-03 0.0 
0.0 0.0 -6.173664885638e-04 
-5.474862438506e-04 9.567364556164e-04 0.0 
9.567364556164e-04 3.048590303343e-03 0.0 
0.0 0.0 -5.448148816535e-04 
-7.720267330795e-04 -4.449545656596e-04 0.0 
-4.449545656596e-04 5.565922562376e-03 0.0 
0.0 0.0 -9.373051277721e-04 
-1.182206612194e-03 1.041005248131e-04 0.0 
1.041005248131e-04 7.409010778114e-03 0.0 
0.0 0.0 -1.105708206284e-03 
-5.928875136439e-04 -5.713513742364e-04 0.0 
-5.713513742364e-04 2.330327898660e-03 0.0 
0.0 0.0 -3.852871208612e-04 
-5.197872744909e-04 -4.881912543796e-04 0.0 
-4.881912543796e-04 1.906337896852e-03 0.0 
0.0 0.0 -3.193625892355e-04 
-1.227873719132e-03 -1.791865956722e-04 0.0 
-1.791865956722e-04 7.126040838435e-03 0.0 
0.0 0.0 -1.093300181677e-03 
-6.499802166189e-04 -1.689058959396e-04 0.0 
-1.689058959396e-04 5.481207367019e-03 0.0 
0.0 0.0 -9.522822042369e-04 
-8.770180670307e-04 5.584319225786e-04 0.0 
5.584319225786e-04 5.741150606381e-03 0.0 
0.0 0.0 -9.319735432435e-04 
-8.671724403427e-04 5.454834419887e-04 0.0 
5.454834419887e-04 5.872286509418e-03 0.0 
0.0 0.0 -9.598347391831e-04 
-9.359860302395e-04 5.226295226197e-04 0.0 
5.226295226197e-04 6.177406845640e-03 0.0 
0.0 0.0 -9.957130113267e-04 
-9.320971335610e-04 5.080083978468e-04 0.0 
5.080083978468e-04 6.315456934145e-03 0.0 
0.0 0.0 -1.023751803962e-03 
-1.000869956237e-03 4.939881751637e-04 0.0 
4.939881751637e-04 6.620841154437e-03 0.0 
0.0 0.0 -1.059873349132e-03 
-1.004419613008e-03 4.777529205192e-04 0.0 
4.777529205192e-04 6.763876066662e-03 0.0 
0.0 0.0 -1.087854580038e-03 
-9.336137141730e-04 4.809338762962e-04 0.0 
4.809338762962e-04 6.463526298401e-03 0.0 
0.0 0.0 -1.051791170495e-03 
-9.097029887622e-04 3.089094526998e-04 0.0 
3.089094526998e-04 6.700162919637e-03 0.0 
0.0 0.0 -1.107463318235e-03 
-1.013980886497e-03 4.491053628713e-04 0.0 
4.491053628713e-04 6.922381498406e-03 0.0 
0.0 0.0 -1.115916943430e-03 
-1.033295848304e-03 4.860531472176e-05 0.0 
4.860531472176e-05 6.321432505072e-03 0.0 
0.0 0.0 -9.487150400336e-04 
-6.387227248277e-04 3.148916192941e-04 0.0 
3.148916192941e-04 5.411845409225e-03 0.0 
0.0 0.0 -9.398448712237e-04 
-3.958753706079e-04 -1.306941406373e-03 0.0 
-1.306941406373e-03 2.210168825673e-03 0.0 
0.0 0.0 -4.474652294669e-04 
-3.867396229061e-04 -1.939364425131e-04 0.0 
-1.939364425131e-04 1.612473113241e-03 0.0 
0.0 0.0 -2.752498982733e-04 
-3.548792531294e-04 -1.099906862766e-03 0.0 
-1.099906862766e-03 1.383653509656e-03 0.0 
0.0 0.0 -3.352047878591e-04 
-4.486846026636e-04 -1.253624941077e-04 0.0 
-1.253624941077e-04 2.009661496099e-03 0.0 
0.0 0.0 -3.299748606085e-04 
-5.597023421830e-04 -1.650736869684e-04 0.0 
-1.650736869684e-04 2.479203026553e-03 0.0 
0.0 0.0 -3.961554456411e-04 
-1.033444219732e-03 -2.887128519644e-04 0.0 
-2.887128519644e-04 7.020027445513e-03 0.0 
0.0 0.0 -1.136360603439e-03 
-1.072616243485e-03 4.757105308921e-04 0.0 
4.757105308921e-04 7.071175993343e-03 0.0 
0.0 0.0 -1.124065295910e-03 
-1.065195527322e-03 4.849349100928e-04 0.0 
4.849349100928e-04 6.917548798149e-03 0.0 
0.0 0.0 -1.095615423988e-03 
-6.465811726499e-04 7.943118945265e-04 0.0 
7.943118945265e-04 3.291375737462e-03 0.0 
0.0 0.0 -5.539799138139e-04 
-6.949762395585e-04 6.852387151617e-04 0.0 
6.852387151617e-04 3.583300335040e-03 0.0 
0.0 0.0 -5.905304635153e-04 
-9.409548518096e-04 2.363101942403e-04 0.0 
2.363101942403e-04 6.893498553700e-03 0.0 
0.0 0.0 -1.136278651916e-03 
-1.031330535355e-03 1.691125997159e-04 0.0 
1.691125997159e-04 6.096244556870e-03 0.0 
0.0 0.0 -9.177848451843e-04 
-1.043451867895e-03 1.026605375003e-04 0.0 
1.026605375003e-04 6.207052540714e-03 0.0 
0.0 0.0 -9.302130594432e-04 
-1.010991519056e-03 8.266817185374e-05 0.0 
8.266817185374e-05 5.998028369178e-03 0.0 
0.0 0.0 -9.001900590098e-04 
-3.040782914078e-04 -1.048978576797e-04 0.0 
-1.048978576797e-04 1.479833111238e-03 0.0 
0.0 0.0 -2.595221258752e-04 
-1.668157979825e-04 -1.176981615551e-03 0.0 
-1.176981615551e-03 1.066881825257e-03 0.0 
0.0 0.0 -3.546314877250e-04 
-1.207894844135e-03 1.612820959581e-04 0.0 
1.612820959581e-04 7.555800088084e-03 0.0 
0.0 0.0 -1.128363834889e-03 
-1.496144498695e-04 1.267178183608e-03 0.0 
1.267178183608e-03 1.924933515505e-03 0.0 
0.0 0.0 -4.615872697407e-04 
-2.777481430259e-04 1.364720531140e-03 0.0 
1.364720531140e-03 1.941765323137e-03 0.0 
0.0 0.0 -4.342639779644e-04 
4.034334735409e-04 2.445431345025e-04 0.0 
2.445431345025e-04 -9.041096436294e-05 0.0 
0.0 0.0 -1.341525039334e-04 
2.051377463425e-04 -1.961701048020e-05 0.0 
-1.961701048020e-05 -5.720414671563e-05 0.0 
0.0 0.0 -6.340011412580e-05 
-1.121483383227e-03 6.295637452115e-05 0.0 
6.295637452115e-05 7.029111019756e-03 0.0 
0.0 0.0 -1.051814883004e-03 
-1.177494848702e-03 6.582362175726e-05 0.0 
6.582362175726e-05 7.492557943411e-03 0.0 
0.0 0.0 -1.117859435171e-03 
-9.333898311745e-04 -3.509792996749e-04 0.0 
-3.509792996749e-04 4.719089492349e-03 0.0 
0.0 0.0 -7.356929296387e-04 
-9.785857666390e-04 -2.860980495383e-04 0.0 
-2.860980495383e-04 4.943354100410e-03 0.0 
0.0 0.0 -7.648299719236e-04 
-9.654424262213e-04 -2.714537898239e-04 0.0 
-2.714537898239e-04 6.765873836397e-03 0.0 
0.0 0.0 -1.107558395918e-03 
-5.027897087658e-04 -9.882385644824e-04 0.0 
-9.882385644824e-04 1.682465534830e-03 0.0 
0.0 0.0 -3.185922720913e-04 
-1.207361177183e-03 7.219593573452e-05 0.0 
7.219593573452e-05 7.710745314262e-03 0.0 
0.0 0.0 -1.149181664990e-03 
-7.221207359935e-04 -2.319743394949e-04 0.0 
-2.319743394949e-04 5.736084564024e-03 0.0 
0.0 0.0 -9.807908033776e-04 
-6.199444920269e-04 -2.803458900383e-04 0.0 
-2.803458900383e-04 5.234294253432e-03 0.0 
0.0 0.0 -9.152404036620e-04 
-8.850179884087e-04 -2.107315013722e-04 0.0 
-2.107315013722e-04 4.277220058387e-03 0.0 
0.0 0.0 -6.604623333687e-04 
-7.131176054971e-05 1.522786260440e-03 0.0 
1.522786260440e-03 1.128166094303e-03 0.0 
0.0 0.0 -3.722456989795e-04 
1.506124378874e-04 1.353289082485e-03 0.0 
1.353289082485e-03 6.471948717885e-04 0.0 
0.0 0.0 -3.185609919049e-04 
-2.939037762269e-04 -1.257650241065e-03 0.0 
-1.257650241065e-03 2.275247472139e-03 0.0 
0.0 0.0 -4.845585894574e-04 
-5.488065046231e-04 -1.067445958774e-03 0.0 
-1.067445958774e-03 2.060865836395e-03 0.0 
0.0 0.0 -3.723415964733e-04 
-4.888098213751e-04 -1.052003350203e-04 0.0 
-1.052003350203e-04 2.216308377581e-03 0.0 
0.0 0.0 -3.583452993329e-04 
-1.062272686561e-03 -2.298804836140e-04 0.0 
-2.298804836140e-04 7.251651551201e-03 0.0 
0.0 0.0 -1.173829981771e-03 
-1.227876715994e-03 1.893009349700e-04 0.0 
1.893009349700e-04 7.743204952100e-03 0.0 
0.0 0.0 -1.157575248917e-03 
-9.423902529627e-04 4.304393189543e-04 0.0 
4.304393189543e-04 6.620906454591e-03 0.0 
0.0 0.0 -1.080172819833e-03 
-8.612685947681e-04 4.776509476654e-04 0.0 
4.776509476654e-04 6.154589150170e-03 0.0 
0.0 0.0 -1.015677837919e-03 
-1.022115058251e-03 4.070298504517e-04 0.0 
4.070298504517e-04 7.083428986968e-03 0.0 
0.0 0.0 -1.144955025780e-03 
-3.834899570330e-04 -7.958142673473e-04 0.0 
-7.958142673473e-04 1.299084562353e-03 0.0 
0.0 0.0 -2.798534577099e-04 
-1.102214544351e-03 -3.027150081502e-04 0.0 
-3.027150081502e-04 7.282068807861e-03 0.0 
0.0 0.0 -1.165794428787e-03 
-1.216895343866e-03 -1.441675384032e-04 0.0 
-1.441675384032e-04 6.902897395280e-03 0.0 
0.0 0.0 -1.056136825731e-03 
-1.138941837453e-03 4.914289706325e-04 0.0 
4.914289706325e-04 7.351648623001e-03 0.0 
0.0 0.0 -1.157598467365e-03 
-1.123764904198e-03 4.819548128218e-04 0.0 
4.819548128218e-04 7.209866110785e-03 0.0 
0.0 0.0 -1.131219827106e-03 
-2.809946016527e-04 1.203335788346e-03 0.0 
1.203335788346e-03 2.340542833527e-03 0.0 
0.0 0.0 -4.968499830348e-04 
-3.877477755505e-04 1.221962387701e-03 0.0 
1.221962387701e-03 2.338693931197e-03 0.0 
0.0 0.0 -4.705806478706e-04 
-4.036150361409e-04 1.336476693924e-03 0.0 
1.336476693924e-03 1.977592500610e-03 0.0 
0.0 0.0 -4.078257031896e-04 
-4.816859073884e-04 1.176560530353e-03 0.0 
1.176560530353e-03 2.343460801890e-03 0.0 
0.0 0.0 -4.438024830152e-04 
-9.732353814622e-04 3.041939387352e-04 0.0 
3.041939387352e-04 5.448266059909e-03 0.0 
0.0 0.0 -8.361670615232e-04 
-3.925437291381e-04 1.104523798212e-03 0.0 
1.104523798212e-03 2.729748532404e-03 0.0 
0.0 0.0 -5.333915535664e-04 
-9.057439282626e-04 4.261225243385e-04 0.0 
4.261225243385e-04 5.077306138642e-03 0.0 
0.0 0.0 -7.939299641313e-04 
-8.975208378586e-04 3.720025570421e-04 0.0 
3.720025570421e-04 4.930717473606e-03 0.0 
0.0 0.0 -7.665196690739e-04 
-8.600171473097e-04 4.161603871668e-04 0.0 
4.161603871668e-04 4.671461707836e-03 0.0 
0.0 0.0 -7.319524942586e-04 
-7.253516315596e-04 6.727829162625e-04 0.0 
6.727829162625e-04 3.972513731187e-03 0.0 
0.0 0.0 -6.527873785750e-04 
-7.385699352999e-04 5.948696391935e-04 0.0 
5.948696391935e-04 3.862508165088e-03 0.0 
0.0 0.0 -6.261871041946e-04 
-1.081656769382e-04 8.687696267767e-04 0.0 
8.687696267767e-04 2.439613486548e-03 0.0 
0.0 0.0 -5.534964465553e-04 
-4.602867709727e-04 2.826245204948e-04 0.0 
2.826245204948e-04 4.601098480980e-03 0.0 
0.0 0.0 -8.390310526140e-04 
-8.925257354332e-04 -4.271097572203e-04 0.0 
-4.271097572203e-04 4.492522403458e-03 0.0 
0.0 0.0 -7.069621042110e-04 
-1.002856146604e-03 -4.033307783673e-04 0.0 
-4.033307783673e-04 5.565178736137e-03 0.0 
0.0 0.0 -8.751042800696e-04 
-7.003078251289e-04 -5.958729416123e-04 0.0 
-5.958729416123e-04 4.895224615458e-03 0.0 
0.0 0.0 -8.350146568664e-04 
-1.207341521713e-03 1.295685592876e-04 0.0 
1.295685592876e-04 7.603516284320e-03 0.0 
0.0 0.0 -1.135109731873e-03 
-1.234147304705e-03 1.158810138817e-04 0.0 
1.158810138817e-04 7.860000857238e-03 0.0 
0.0 0.0 -1.171938512032e-03 
-1.015895156183e-03 6.930194114772e-05 0.0 
6.930194114772e-05 6.052013455342e-03 0.0 
0.0 0.0 -9.065739516476e-04 
-9.767996699331e-04 4.467953763507e-05 0.0 
4.467953763507e-05 5.838511550894e-03 0.0 
0.0 0.0 -8.764137937918e-04 
-4.392150575772e-04 -3.259674398810e-04 0.0 
-3.259674398810e-04 1.665337581441e-03 0.0 
0.0 0.0 -2.813159824896e-04 
-4.247097810398e-04 -3.644747280315e-04 0.0 
-3.644747280315e-04 1.471773465299e-03 0.0 
0.0 0.0 -2.533966087790e-04 
-8.177306416292e-04 -6.121829702514e-04 0.0 
-6.121829702514e-04 4.811548278672e-03 0.0 
0.0 0.0 -7.894497706086e-04 
-1.082360538362e-03 -3.264662476232e-04 0.0 
-3.264662476232e-04 7.048376439915e-03 0.0 
0.0 0.0 -1.127529358476e-03 
-1.227748397910e-03 2.361030321983e-04 0.0 
2.361030321983e-04 7.672982991330e-03 0.0 
0.0 0.0 -1.150095860580e-03 
-1.249888144017e-03 2.671434152154e-04 0.0 
2.671434152154e-04 7.859407510661e-03 0.0 
0.0 0.0 -1.179372829571e-03 
-1.222973776595e-03 2.761414432265e-04 0.0 
2.761414432265e-04 7.603174812567e-03 0.0 
0.0 0.0 -1.143369325256e-03 
-9.935045909858e-04 -2.028359368237e-04 0.0 
-2.028359368237e-04 6.995967624477e-03 0.0 
0.0 0.0 -1.144273392007e-03 
3.495269992969e-05 1.197649878409e-04 0.0 
1.197649878409e-04 2.359795329880e-03 0.0 
0.0 0.0 -5.733740095480e-04 
-4.781962153862e-04 -1.012252719499e-04 0.0 
-1.012252719499e-04 4.730438814657e-03 0.0 
0.0 0.0 -8.590966742019e-04 
3.810975112987e-04 -3.002206319640e-04 0.0 
-3.002206319640e-04 -7.297745490903e-05 0.0 
0.0 0.0 -1.320514527384e-04 
-7.161621287090e-04 5.841402981115e-04 0.0 
5.841402981115e-04 5.248781673340e-03 0.0 
0.0 0.0 -8.884627649733e-04 
-3.115080858313e-04 -2.227975807547e-04 0.0 
-2.227975807547e-04 1.202076532669e-03 0.0 
0.0 0.0 -2.162536877156e-04 
-1.055053453560e-03 4.626735760724e-04 0.0 
4.626735760724e-04 6.476326574185e-03 0.0 
0.0 0.0 -1.010319580236e-03 
-1.255576380871e-03 -1.315357551102e-04 0.0 
-1.315357551102e-04 7.338059588025e-03 0.0 
0.0 0.0 -1.122815839103e-03 
-1.267850494462e-03 -1.674624135979e-04 0.0 
-1.674624135979e-04 7.563446267715e-03 0.0 
0.0 0.0 -1.159213750608e-03 
-1.010702044889e-03 2.850279828007e-04 0.0 
2.850279828007e-04 7.183997457293e-03 0.0 
0.0 0.0 -1.171959308352e-03 
-8.963384137737e-04 2.488891316052e-04 0.0 
2.488891316052e-04 4.875662042004e-03 0.0 
0.0 0.0 -7.470952864203e-04 
-7.058007902936e-04 5.271243929450e-04 0.0 
5.271243929450e-04 5.385179954600e-03 0.0 
0.0 0.0 -9.162722660995e-04 
-6.228080214073e-04 5.120192170004e-04 0.0 
5.120192170004e-04 5.067178617559e-03 0.0 
0.0 0.0 -8.808726170640e-04 
-8.477370711112e-04 3.577431200157e-04 0.0 
3.577431200157e-04 4.525141676784e-03 0.0 
0.0 0.0 -7.048691535495e-04 
-8.132640120407e-04 4.004719993994e-04 0.0 
4.004719993994e-04 4.272493314920e-03 0.0 
0.0 0.0 -6.707530558731e-04 
-8.209482996094e-04 4.682329320479e-04 0.0 
4.682329320479e-04 4.408754927634e-03 0.0 
0.0 0.0 -6.972958566626e-04 
-7.782280701881e-04 4.523325447572e-04 0.0 
4.523325447572e-04 4.016412533301e-03 0.0 
0.0 0.0 -6.359606378414e-04 
-4.177281549139e-04 -1.168672558867e-03 0.0 
-1.168672558867e-03 2.631942087578e-03 0.0 
0.0 0.0 -5.122594947013e-04 
-4.962383683680e-04 -1.157174554661e-03 0.0 
-1.157174554661e-03 2.541178569243e-03 0.0 
0.0 0.0 -4.750188804659e-04 
-1.154021499096e-03 4.782775772644e-04 0.0 
4.782775772644e-04 7.573815285751e-03 0.0 
0.0 0.0 -1.192042136895e-03 
-1.094464537807e-03 4.618413052259e-04 0.0 
4.618413052259e-04 7.386095086857e-03 0.0 
0.0 0.0 -1.178660172201e-03 
-1.187593002781e-03 4.811019602591e-04 0.0 
4.811019602591e-04 7.655964388501e-03 0.0 
0.0 0.0 -1.193029175878e-03 
-1.163263876641e-03 4.785864187479e-04 0.0 
4.785864187479e-04 7.511604884733e-03 0.0 
0.0 0.0 -1.168165168231e-03 
-1.037083014282e-03 2.184072236099e-04 0.0 
2.184072236099e-04 7.374910845912e-03 0.0 
0.0 0.0 -1.200910491468e-03 
-9.753553652922e-04 1.640389574658e-04 0.0 
1.640389574658e-04 7.090218753853e-03 0.0 
0.0 0.0 -1.164168769488e-03 
-6.028560444752e-04 -1.360178339637e-04 0.0 
-1.360178339637e-04 2.675687027615e-03 0.0 
0.0 0.0 -4.227350873389e-04 
-7.047203305141e-04 5.847954661015e-04 0.0 
5.847954661015e-04 3.476801185836e-03 0.0 
0.0 0.0 -5.646260317871e-04 
-1.245127779796e-03 1.777850177793e-04 0.0 
1.777850177793e-04 7.993741479566e-03 0.0 
0.0 0.0 -1.194151889699e-03 
-8.817872830960e-04 3.208786017712e-04 0.0 
3.208786017712e-04 4.774377627364e-03 0.0 
0.0 0.0 -7.390869131010e-04 
-1.164936831278e-03 -3.113795227657e-04 0.0 
-3.113795227657e-04 7.515893028419e-03 0.0 
0.0 0.0 -1.192835421428e-03 
-1.142129895980e-03 -3.204237901470e-04 0.0 
-3.204237901470e-04 7.305220282504e-03 0.0 
0.0 0.0 -1.156047193884e-03 
8.143997684988e-05 -5.632529459351e-05 0.0 
-5.632529459351e-05 -1.764449114255e-05 0.0 
0.0 0.0 -2.734092244600e-05 
2.721987346519e-04 -4.520014711284e-04 0.0 
-4.520014711284e-04 1.905810524669e-05 0.0 
0.0 0.0 -1.248243599565e-04 
-1.231567197499e-03 6.211834964842e-05 0.0 
6.211834964842e-05 7.963702026826e-03 0.0 
0.0 0.0 -1.184588873336e-03 
-5.000595373901e-04 1.204680535621e-03 0.0 
1.204680535621e-03 1.991465428866e-03 0.0 
0.0 0.0 -3.811925308841e-04 
-5.489936022904e-04 1.042785009975e-03 0.0 
1.042785009975e-03 2.300834123338e-03 0.0 
0.0 0.0 -4.158690271831e-04 
-3.842703009259e-04 1.346678098862e-03 0.0 
1.346678098862e-03 1.633275420512e-03 0.0 
0.0 0.0 -3.660215567096e-04 
-1.330527207980e-03 -3.853221662851e-05 0.0 
-3.853221662851e-05 8.239463133450e-03 0.0 
0.0 0.0 -1.258310293365e-03 
-8.465756460554e-04 5.727197951410e-07 0.0 
5.727197951410e-07 4.947192301730e-03 0.0 
0.0 0.0 -7.479256703001e-04 
-1.285435156603e-03 -1.236167483815e-04 0.0 
-1.236167483815e-04 7.770617594905e-03 0.0 
0.0 0.0 -1.189418985649e-03 
-7.744068399611e-04 5.950771192320e-04 0.0 
5.950771192320e-04 4.259141188703e-03 0.0 
0.0 0.0 -6.884682336192e-04 
-1.252365039908e-03 8.497968466370e-05 0.0 
8.497968466370e-05 8.173452803744e-03 0.0 
0.0 0.0 -1.216510697198e-03 
-7.049683277386e-04 4.524468991294e-04 0.0 
4.524468991294e-04 5.539667182357e-03 0.0 
0.0 0.0 -9.449116413281e-04 
-5.109301527551e-04 9.153066593930e-04 0.0 
9.153066593930e-04 3.518995939107e-03 0.0 
0.0 0.0 -6.353966017694e-04 
-8.973844045661e-04 -2.448816665564e-04 0.0 
-2.448816665564e-04 6.506541659943e-03 0.0 
0.0 0.0 -1.078177493492e-03 
-1.200545941931e-03 2.302554044874e-05 0.0 
2.302554044874e-05 7.723131628604e-03 0.0 
0.0 0.0 -1.149140729088e-03 
-1.267685038875e-03 6.016813044477e-05 0.0 
6.016813044477e-05 8.228074956414e-03 0.0 
0.0 0.0 -1.221625961084e-03 
-9.734656256454e-04 9.189307336811e-05 0.0 
9.189307336811e-05 5.749626761027e-03 0.0 
0.0 0.0 -8.638707813346e-04 
-9.480895872449e-04 4.301450456172e-05 0.0 
4.301450456172e-05 5.516146053233e-03 0.0 
0.0 0.0 -8.327709333130e-04 
-1.011335939965e-03 1.092245285963e-04 0.0 
1.092245285963e-04 5.940162525294e-03 0.0 
0.0 0.0 -8.925140200429e-04 
4.463857562194e-04 7.689358174209e-04 0.0 
7.689358174209e-04 8.096987600889e-05 0.0 
0.0 0.0 -2.260095566693e-04 
2.840813490605e-04 4.390350068277e-04 0.0 
4.390350068277e-04 7.817808705327e-06 0.0 
0.0 0.0 -1.250996390425e-04 
-1.210084270230e-03 9.714327804011e-05 0.0 
9.714327804011e-05 7.658599637129e-03 0.0 
0.0 0.0 -1.142090266074e-03 
-7.141279186037e-04 -2.802255352289e-04 0.0 
-2.802255352289e-04 3.181146952729e-03 0.0 
0.0 0.0 -5.006138788623e-04 
-7.694336124780e-04 -2.009358515531e-04 0.0 
-2.009358515531e-04 3.447879024720e-03 0.0 
0.0 0.0 -5.359218444892e-04 
-5.552155606093e-04 -8.313172136283e-04 0.0 
-8.313172136283e-04 1.917610481523e-03 0.0 
0.0 0.0 -3.334096804080e-04 
-5.855222745600e-04 -8.890134040167e-04 0.0 
-8.890134040167e-04 2.304658271308e-03 0.0 
0.0 0.0 -3.985542937016e-04 
-9.453814008689e-04 -4.031453143009e-04 0.0 
-4.031453143009e-04 4.927324523234e-03 0.0 
0.0 0.0 -7.728092966600e-04 
-8.970888917955e-04 -4.820738487373e-04 0.0 
-4.820738487373e-04 4.692923205728e-03 0.0 
0.0 0.0 -7.441750962829e-04 
-1.057585005233e-03 4.777756013197e-04 0.0 
4.777756013197e-04 6.625238408207e-03 0.0 
0.0 0.0 -1.038692069610e-03 
-1.108626014693e-03 4.632490588969e-04 0.0 
4.632490588969e-04 6.908491944325e-03 0.0 
0.0 0.0 -1.074129358999e-03 
-9.418242035971e-04 5.272068290834e-04 0.0 
5.272068290834e-04 6.041038675917e-03 0.0 
0.0 0.0 -9.675620497173e-04 
-6.990392591995e-04 -3.338931181341e-04 0.0 
-3.338931181341e-04 5.500989544803e-03 0.0 
0.0 0.0 -9.439558448496e-04 
-6.028432506679e-04 -3.974427061355e-04 0.0 
-3.974427061355e-04 5.004524485729e-03 0.0 
0.0 0.0 -8.783802297791e-04 
-5.183067816985e-04 -3.360734288677e-04 0.0 
-3.360734288677e-04 4.731806317453e-03 0.0 
0.0 0.0 -8.502765121185e-04 
-1.259796436841e-03 1.397569485309e-04 0.0 
1.397569485309e-04 8.039016122005e-03 0.0 
0.0 0.0 -1.199867006878e-03 
-1.287397602500e-03 1.387283529904e-04 0.0 
1.387283529904e-04 8.359284824254e-03 0.0 
0.0 0.0 -1.242728214876e-03 
-3.379919536494e-04 -1.097545305898e-03 0.0 
-1.097545305898e-03 2.729711593676e-03 0.0 
0.0 0.0 -5.488632449009e-04 
-2.035001513821e-04 -1.112025139158e-03 0.0 
-1.112025139158e-03 2.365560687545e-03 0.0 
0.0 0.0 -5.212126360957e-04 
-5.194133645792e-04 -1.055659007126e-03 0.0 
-1.055659007126e-03 2.949517889644e-03 0.0 
0.0 0.0 -5.390128571062e-04 
-1.267707936259e-03 2.118212896833e-04 0.0 
2.118212896833e-04 8.185373915988e-03 0.0 
0.0 0.0 -1.223056365294e-03 
-1.302765377273e-03 -1.484462634259e-04 0.0 
-1.484462634259e-04 8.004925592989e-03 0.0 
0.0 0.0 -1.224004481682e-03 
-1.287300987604e-03 -2.136982349667e-04 0.0 
-2.136982349667e-04 7.780826338296e-03 0.0 
0.0 0.0 -1.195820777905e-03 
-2.832529258607e-04 -2.494591043419e-04 0.0 
-2.494591043419e-04 1.024201089409e-03 0.0 
0.0 0.0 -1.882176919714e-04 
-3.969707252897e-04 -4.311951738694e-04 0.0 
-4.311951738694e-04 1.271754487823e-03 0.0 
0.0 0.0 -2.310783895037e-04 
2.054226679739e-05 1.347833966380e-03 0.0 
1.347833966380e-03 8.186709947017e-04 0.0 
0.0 0.0 -3.411234323309e-04 
1.823631015032e-04 1.033435563719e-03 0.0 
1.033435563719e-03 3.956751210192e-04 0.0 
0.0 0.0 -2.477306667953e-04 
-1.268592166038e-03 3.040791407146e-04 0.0 
3.040791407146e-04 8.023493563003e-03 0.0 
0.0 0.0 -1.207258722210e-03 
-1.243812686443e-03 3.149820227485e-04 0.0 
3.149820227485e-04 7.787606541598e-03 0.0 
0.0 0.0 -1.172631524865e-03 
-1.292321070540e-03 2.959466161544e-04 0.0 
2.959466161544e-04 8.333939565192e-03 0.0 
0.0 0.0 -1.247471551777e-03 
-5.223015362984e-04 -5.966006200107e-05 0.0 
-5.966006200107e-05 2.388783331191e-03 0.0 
0.0 0.0 -3.801539159394e-04 
-8.682373190693e-04 4.316445998786e-04 0.0 
4.316445998786e-04 6.315487464641e-03 0.0 
0.0 0.0 -1.045322365442e-03 
-1.095327153402e-03 -1.697306701960e-04 0.0 
-1.697306701960e-04 7.466737774382e-03 0.0 
0.0 0.0 -1.207899217314e-03 
-1.032573115176e-03 -1.219439203281e-04 0.0 
-1.219439203281e-04 7.241482983967e-03 0.0 
0.0 0.0 -1.178012378629e-03 
-1.169146255923e-03 -2.121713741949e-04 0.0 
-2.121713741949e-04 7.798947947966e-03 0.0 
0.0 0.0 -1.244624083072e-03 
-9.796999613362e-04 3.385511052295e-04 0.0 
3.385511052295e-04 6.990100956638e-03 0.0 
0.0 0.0 -1.142102124289e-03 
-1.089777783011e-03 3.180765990224e-04 0.0 
3.180765990224e-04 7.453415741070e-03 0.0 
0.0 0.0 -1.205428683694e-03 
-1.118930099946e-03 4.102866827850e-04 0.0 
4.102866827850e-04 7.540265907261e-03 0.0 
0.0 0.0 -1.209323031234e-03 
7.629343076430e-06 -2.863199915616e-06 0.0 
-2.863199915616e-06 -2.105112574007e-06 0.0 
0.0 0.0 -2.367527358181e-06 
-1.243581183883e-03 1.333985162286e-05 0.0 
1.333985162286e-05 8.050404267198e-03 0.0 
0.0 0.0 -1.199992767657e-03 
-9.467227888159e-04 4.157282563709e-05 0.0 
4.157282563709e-05 5.565131892238e-03 0.0 
0.0 0.0 -8.371571859873e-04 
0.0 0.0 0.0 
0.0 0.0 0.0 
0.0 0.0 0.0 
-9.052370495583e-04 2.926470670919e-05 0.0 
2.926470670919e-05 5.359734394624e-03 0.0 
0.0 0.0 -8.070151920887e-04 
-9.464808288455e-04 2.890706983172e-05 0.0 
2.890706983172e-05 5.631422995547e-03 0.0 
0.0 0.0 -8.451615393777e-04 
-8.746039380960e-04 1.411235588614e-05 0.0 
1.411235588614e-05 5.099179134377e-03 0.0 
0.0 0.0 -7.748096441827e-04 
-4.043228169997e-04 -4.987598217760e-05 0.0 
-4.987598217760e-05 1.919858664121e-03 0.0 
0.0 0.0 -3.155299188714e-04 
-9.342623020306e-04 6.996522255594e-05 0.0 
6.996522255594e-05 5.399295489727e-03 0.0 
0.0 0.0 -8.174106193842e-04 
-9.784066260017e-04 9.518359088927e-05 0.0 
9.518359088927e-05 5.690330335138e-03 0.0 
0.0 0.0 -8.556612431672e-04 
-1.892819975809e-04 -2.080284296464e-04 0.0 
-2.080284296464e-04 7.178215811464e-04 0.0 
0.0 0.0 -1.471067669042e-04 
-1.288411893385e-03 2.088493887645e-04 0.0 
2.088493887645e-04 8.418681062039e-03 0.0 
0.0 0.0 -1.259301554906e-03 
-1.756794603790e-04 -1.355890425743e-04 0.0 
-1.355890425743e-04 7.416554994657e-04 0.0 
0.0 0.0 -1.555489432776e-04 
-1.976593762146e-04 -1.418821488879e-04 0.0 
-1.418821488879e-04 9.406849208869e-04 0.0 
0.0 0.0 -1.806578101979e-04 
-1.201046689643e-03 -2.954808681697e-04 0.0 
-2.954808681697e-04 7.775612660441e-03 0.0 
0.0 0.0 -1.221214701962e-03 
-1.189783866574e-03 -3.147730725178e-04 0.0 
-3.147730725178e-04 7.544251850061e-03 0.0 
0.0 0.0 -1.184344882880e-03 
-1.255201532556e-03 -3.138077392023e-04 0.0 
-3.138077392023e-04 7.995797572139e-03 0.0 
0.0 0.0 -1.247726601234e-03 
-1.240131757912e-03 -2.854581707310e-04 0.0 
-2.854581707310e-04 7.755129215709e-03 0.0 
0.0 0.0 -1.211018817991e-03 
-1.178065560448e-03 -3.176973578615e-04 0.0 
-3.176973578615e-04 7.320283461016e-03 0.0 
0.0 0.0 -1.147066289601e-03 
-1.222397278732e-03 -2.815307542264e-04 0.0 
-2.815307542264e-04 7.565615913449e-03 0.0 
0.0 0.0 -1.176490610025e-03 
-9.163713044728e-04 2.842739858528e-05 0.0 
2.842739858528e-05 5.314561917383e-03 0.0 
0.0 0.0 -7.985989294648e-04 
-1.274574997316e-03 -2.683950520862e-04 0.0 
-2.683950520862e-04 8.060277687178e-03 0.0 
0.0 0.0 -1.249018369598e-03 
-1.258852476870e-03 -2.546999081133e-04 0.0 
-2.546999081133e-04 7.798203538470e-03 0.0 
0.0 0.0 -1.207442871744e-03 
-1.315317272271e-03 -2.575611195837e-04 0.0 
-2.575611195837e-04 8.330215412111e-03 0.0 
0.0 0.0 -1.277927415301e-03 
-7.668426714387e-04 3.712502045957e-04 0.0 
3.712502045957e-04 3.884910929190e-03 0.0 
0.0 0.0 -6.108003466767e-04 
-5.473421814769e-04 1.022591756988e-03 0.0 
1.022591756988e-03 2.665785403795e-03 0.0 
0.0 0.0 -4.789358348571e-04 
-5.922456647504e-04 8.887242813561e-04 0.0 
8.887242813561e-04 2.596399578783e-03 0.0 
0.0 0.0 -4.527251363391e-04 
-5.808013297698e-04 8.699366696317e-04 0.0 
8.699366696317e-04 2.240670147384e-03 0.0 
0.0 0.0 -3.875663759467e-04 
-1.238412356123e-03 4.984956173527e-04 0.0 
4.984956173527e-04 8.013994811476e-03 0.0 
0.0 0.0 -1.240180566941e-03 
-1.214337546906e-03 4.975640446935e-04 0.0 
4.975640446935e-04 7.772501925276e-03 0.0 
0.0 0.0 -1.200590015451e-03 
-1.243705293709e-03 -9.256877991256e-05 0.0 
-9.256877991256e-05 7.122808590461e-03 0.0 
0.0 0.0 -1.087555896896e-03 
-1.202734584511e-03 -9.601844950182e-05 0.0 
-9.601844950182e-05 6.680089324953e-03 0.0 
0.0 0.0 -1.020738973070e-03 
-9.185583597048e-04 2.613338660199e-05 0.0 
2.613338660199e-05 5.392223531156e-03 0.0 
0.0 0.0 -8.108182148135e-04 
-9.103297472006e-04 4.766877897124e-06 0.0 
4.766877897124e-06 5.361690236980e-03 0.0 
0.0 0.0 -8.077352941366e-04 
-9.704696328324e-04 5.332193735867e-05 0.0 
5.332193735867e-05 5.783610110985e-03 0.0 
0.0 0.0 -8.678526801547e-04 
-9.618865758326e-04 7.689592341134e-06 0.0 
7.689592341134e-06 5.712312077429e-03 0.0 
0.0 0.0 -8.609153521579e-04 
-1.020016484653e-03 5.295869978670e-05 0.0 
5.295869978670e-05 6.152608316973e-03 0.0 
0.0 0.0 -9.200517378055e-04 
-1.001436562516e-03 -1.946934861067e-08 0.0 
-1.946934861067e-08 6.084870222159e-03 0.0 
0.0 0.0 -9.108947733944e-04 
-1.057814937538e-03 -6.724482469216e-06 0.0 
-6.724482469216e-06 6.510312548520e-03 0.0 
0.0 0.0 -9.726914458129e-04 
-1.190361938599e-03 4.676934084708e-04 0.0 
4.676934084708e-04 7.866637693242e-03 0.0 
0.0 0.0 -1.245087786853e-03 
-4.581667400111e-04 1.150309043721e-03 0.0 
1.150309043721e-03 1.644170079222e-03 0.0 
0.0 0.0 -3.403956918982e-04 
-8.293555136529e-04 2.952524372658e-04 0.0 
2.952524372658e-04 4.373371002006e-03 0.0 
0.0 0.0 -6.783069842581e-04 
-1.085846180975e-03 1.458307871503e-04 0.0 
1.458307871503e-04 7.572950528203e-03 0.0 
0.0 0.0 -1.228261380050e-03 
-1.024461005777e-03 9.563818815218e-05 0.0 
9.563818815218e-05 7.266751936821e-03 0.0 
0.0 0.0 -1.187396807988e-03 
-7.405303751490e-04 5.124973243675e-04 0.0 
5.124973243675e-04 3.741532766096e-03 0.0 
0.0 0.0 -6.000944487132e-04 
-7.031319460548e-04 4.876864875037e-04 0.0 
4.876864875037e-04 3.366473116495e-03 0.0 
0.0 0.0 -5.401620014017e-04 
-1.203049851257e-03 -2.728203523462e-04 0.0 
-2.728203523462e-04 7.833657430654e-03 0.0 
0.0 0.0 -1.238794375355e-03 
-3.075916606640e-04 1.045868666668e-03 0.0 
1.045868666668e-03 2.766977509803e-03 0.0 
0.0 0.0 -5.600314934590e-04 
-1.321820784768e-03 2.376560243328e-04 0.0 
2.376560243328e-04 8.684022372100e-03 0.0 
0.0 0.0 -1.295459716840e-03 
1.477011241759e-06 4.358298770147e-06 0.0 
4.358298770147e-06 8.908916257887e-07 0.0 
0.0 0.0 -1.014815514663e-06 
5.703109316316e-05 8.792005076422e-05 0.0 
8.792005076422e-05 -2.011421539904e-08 0.0 
0.0 0.0 -2.443327669190e-05 
-4.154706477079e-04 9.854771448034e-04 0.0 
9.854771448034e-04 3.145205208474e-03 0.0 
0.0 0.0 -5.969207367497e-04 
-7.802351733359e-04 5.259462622456e-04 0.0 
5.259462622456e-04 4.139237033551e-03 0.0 
0.0 0.0 -6.620222007989e-04 
-5.930037626935e-04 8.942073818617e-04 0.0 
8.942073818617e-04 2.971985586365e-03 0.0 
0.0 0.0 -5.157319100482e-04 
-6.206001126179e-04 7.748692012147e-04 0.0 
7.748692012147e-04 2.918912415158e-03 0.0 
0.0 0.0 -4.917183783407e-04 
-7.966812031951e-04 -2.794519072728e-04 0.0 
-2.794519072728e-04 6.003025537970e-03 0.0 
0.0 0.0 -1.010552660601e-03 
-3.204615651146e-04 -4.841454347256e-04 0.0 
-4.841454347256e-04 1.065843889916e-03 0.0 
0.0 0.0 -2.207468123314e-04 
-1.976838392314e-04 1.419132631860e-03 0.0 
1.419132631860e-03 1.245736136353e-03 0.0 
0.0 0.0 -3.729799092550e-04 
-1.062224956052e-03 6.282474994029e-05 0.0 
6.282474994029e-05 6.566502947635e-03 0.0 
0.0 0.0 -9.796923013958e-04 
-9.725104983260e-05 1.193422917781e-03 0.0 
1.193422917781e-03 9.454912755048e-04 0.0 
0.0 0.0 -3.472462715210e-04 
-1.226995326804e-03 -4.519473023836e-05 0.0 
-4.519473023836e-05 6.918120984331e-03 0.0 
0.0 0.0 -1.055800198362e-03 
-2.361841982036e-04 9.051937591691e-04 0.0 
9.051937591691e-04 2.839450438954e-03 0.0 
0.0 0.0 -5.891999696964e-04 
-7.588500349801e-04 6.513356924725e-04 0.0 
6.513356924725e-04 4.370877970735e-03 0.0 
0.0 0.0 -7.153500975001e-04 
-2.731612567135e-04 1.485424847436e-03 0.0 
1.485424847436e-03 1.576968026293e-03 0.0 
0.0 0.0 -3.843598907912e-04 
-4.773970402082e-04 1.083331247294e-03 0.0 
1.083331247294e-03 2.715302459171e-03 0.0 
0.0 0.0 -5.080103017801e-04 
-9.857070044825e-04 3.514582932795e-04 0.0 
3.514582932795e-04 5.605984683384e-03 0.0 
0.0 0.0 -8.638580894607e-04 
-9.566672598969e-04 2.556664326387e-04 0.0 
2.556664326387e-04 5.284930257865e-03 0.0 
0.0 0.0 -8.086477316853e-04 
-9.204142732436e-04 2.914181473186e-04 0.0 
2.914181473186e-04 5.036403952363e-03 0.0 
0.0 0.0 -7.738406155293e-04 
-1.852699916538e-04 7.169474657993e-04 0.0 
7.169474657993e-04 2.938478129515e-03 0.0 
0.0 0.0 -6.178822433291e-04 
-6.660603751627e-04 6.775511204911e-04 0.0 
6.775511204911e-04 3.201224465995e-03 0.0 
0.0 0.0 -5.288330985435e-04 
-6.329538447596e-04 6.262438341605e-04 0.0 
6.262438341605e-04 2.783574178796e-03 0.0 
0.0 0.0 -4.617239487405e-04 
-9.084122990405e-04 4.766608561051e-04 0.0 
4.766608561051e-04 5.217677913222e-03 0.0 
0.0 0.0 -8.213029907542e-04 
-1.196636206004e-03 2.937722451120e-04 0.0 
2.937722451120e-04 7.346814907567e-03 0.0 
0.0 0.0 -1.107475121065e-03 
-1.218143538823e-03 3.322225839887e-04 0.0 
3.322225839887e-04 7.523071285648e-03 0.0 
0.0 0.0 -1.136341617999e-03 
-1.260255205402e-03 3.483848197279e-04 0.0 
3.483848197279e-04 7.943523748013e-03 0.0 
0.0 0.0 -1.199268560344e-03 
-1.236398534658e-03 3.622286970254e-04 0.0 
3.622286970254e-04 7.698663143048e-03 0.0 
0.0 0.0 -1.164598082371e-03 
-1.187519623503e-03 3.369788044843e-04 0.0 
3.369788044843e-04 7.262535120341e-03 0.0 
0.0 0.0 -1.100413285504e-03 
-1.201927894883e-03 3.622228794556e-04 0.0 
3.622228794556e-04 7.428935513365e-03 0.0 
0.0 0.0 -1.129075729544e-03 
-1.251749756802e-03 4.013558701664e-04 0.0 
4.013558701664e-04 7.861186353057e-03 0.0 
0.0 0.0 -1.193594387005e-03 
-1.212961772203e-03 4.013424172495e-04 0.0 
4.013424172495e-04 7.607641408015e-03 0.0 
0.0 0.0 -1.159256375294e-03 
-1.275748773412e-03 4.170784326894e-04 0.0 
4.170784326894e-04 8.123816889762e-03 0.0 
0.0 0.0 -1.234286862126e-03 
-1.231663961214e-03 4.170891063283e-04 0.0 
4.170891063283e-04 7.767346293695e-03 0.0 
0.0 0.0 -1.187309181180e-03 
-1.180167111311e-03 4.146130725523e-04 0.0 
4.146130725523e-04 7.319280806481e-03 0.0 
0.0 0.0 -1.120864512401e-03 
-1.199520853126e-03 4.394329503130e-04 0.0 
4.394329503130e-04 7.469647570104e-03 0.0 
0.0 0.0 -1.147759711419e-03 
-1.246114513889e-03 4.512851502766e-04 0.0 
4.512851502766e-04 7.897003429628e-03 0.0 
0.0 0.0 -1.207767947030e-03 
-1.142819753357e-03 4.230226692438e-04 0.0 
4.230226692438e-04 7.034885546341e-03 0.0 
0.0 0.0 -1.082593982084e-03 
-1.161095070267e-03 2.120867803638e-04 0.0 
2.120867803638e-04 7.844111974654e-03 0.0 
0.0 0.0 -1.264544343569e-03 
-4.552882566461e-04 8.672081112126e-04 0.0 
8.672081112126e-04 3.584015933420e-03 0.0 
0.0 0.0 -6.621140475474e-04 
8.972285469528e-05 5.488704469766e-05 0.0 
5.488704469766e-05 -2.086067995893e-05 0.0 
0.0 0.0 -2.951236060129e-05 
1.917573457574e-04 3.907910126935e-04 0.0 
3.907910126935e-04 4.076022718459e-05 0.0 
0.0 0.0 -9.965038840371e-05 
-8.122559684108e-04 5.858127476170e-04 0.0 
5.858127476170e-04 4.660958103986e-03 0.0 
0.0 0.0 -7.509174086159e-04 
-1.326294875917e-03 4.475525367279e-04 0.0 
4.475525367279e-04 8.581090605175e-03 0.0 
0.0 0.0 -1.299806302097e-03 
-1.329372981724e-03 3.864120920022e-04 0.0 
3.864120920022e-04 8.651254845127e-03 0.0 
0.0 0.0 -1.301753673823e-03 
-4.221749795590e-05 1.054957827846e-03 0.0 
1.054957827846e-03 1.947401467081e-03 0.0 
0.0 0.0 -4.895692906686e-04 
-1.300820539860e-03 5.169294240401e-04 0.0 
5.169294240401e-04 8.431520987084e-03 0.0 
0.0 0.0 -1.303413959896e-03 
-9.359328158380e-04 3.353086376080e-04 0.0 
3.353086376080e-04 5.191229383814e-03 0.0 
0.0 0.0 -8.012154088905e-04 
4.071496828873e-04 9.026633654341e-04 0.0 
9.026633654341e-04 4.347728874957e-04 0.0 
0.0 0.0 -3.242207140944e-04 
-1.286592464162e-03 4.887471459282e-04 0.0 
4.887471459282e-04 8.354700830031e-03 0.0 
0.0 0.0 -1.304286792737e-03 
-1.166816141077e-03 3.067295782393e-04 0.0 
3.067295782393e-04 7.086165986606e-03 0.0 
0.0 0.0 -1.071440646998e-03 
-1.135318690764e-03 3.102645881689e-04 0.0 
3.102645881689e-04 6.820307156207e-03 0.0 
0.0 0.0 -1.034857077839e-03 
-1.114281868751e-03 2.783252876259e-04 0.0 
2.783252876259e-04 6.647188393663e-03 0.0 
0.0 0.0 -1.006057961993e-03 
-1.324485485700e-03 3.178425552296e-04 0.0 
3.178425552296e-04 8.703712057522e-03 0.0 
0.0 0.0 -1.305867370806e-03 
-1.046143216171e-03 1.338104735178e-04 0.0 
1.338104735178e-04 6.142970752386e-03 0.0 
0.0 0.0 -9.232948652302e-04 
-1.261216399776e-03 3.398370476000e-04 0.0 
3.398370476000e-04 8.240407625413e-03 0.0 
0.0 0.0 -1.306016332489e-03 
-5.621352130883e-04 2.402614077322e-04 0.0 
2.402614077322e-04 5.104076155106e-03 0.0 
0.0 0.0 -9.039903713831e-04 
-5.421821752565e-04 3.626261890118e-04 0.0 
3.626261890118e-04 4.916919296443e-03 0.0 
0.0 0.0 -8.747633066757e-04 
-4.482553543368e-04 4.245528232913e-04 0.0 
4.245528232913e-04 4.423341595392e-03 0.0 
0.0 0.0 -8.101682821885e-04 
-1.166183845535e-03 3.746000758126e-04 0.0 
3.746000758126e-04 7.154603019155e-03 0.0 
0.0 0.0 -1.092245366321e-03 
-1.243382207926e-03 7.139344382452e-05 0.0 
7.139344382452e-05 8.142027759390e-03 0.0 
0.0 0.0 -1.302677999426e-03 
-1.139163622892e-03 1.899260328228e-05 0.0 
1.899260328228e-05 7.738811355617e-03 0.0 
0.0 0.0 -1.248400714067e-03 
-1.139179700515e-03 -5.832838074802e-05 0.0 
-5.832838074802e-05 7.742835606473e-03 0.0 
0.0 0.0 -1.248426544684e-03 
-1.042171814045e-03 -2.067620167567e-05 0.0 
-2.067620167567e-05 7.300450465494e-03 0.0 
0.0 0.0 -1.189114855724e-03 
-1.245046049368e-03 -7.954937012982e-05 0.0 
-7.954937012982e-05 8.162015620032e-03 0.0 
0.0 0.0 -1.303398793257e-03 
-1.319024606982e-03 4.879947495646e-04 0.0 
4.879947495646e-04 8.553889678550e-03 0.0 
0.0 0.0 -1.306665994082e-03 
-1.318629781647e-03 5.032233232110e-04 0.0 
5.032233232110e-04 8.531113616169e-03 0.0 
0.0 0.0 -1.308500709484e-03 
-1.457969009565e-04 -1.297624687323e-03 0.0 
-1.297624687323e-03 1.878942347425e-03 0.0 
0.0 0.0 -4.564773689951e-04 
-5.360535394488e-05 -1.060749340558e-03 0.0 
-1.060749340558e-03 1.980128638088e-03 0.0 
0.0 0.0 -4.934415926888e-04 
-1.381226460422e-04 -8.991719374826e-04 0.0 
-8.991719374826e-04 2.497431923997e-03 0.0 
0.0 0.0 -5.576035839405e-04 
-3.423707423507e-07 -7.630300989339e-04 0.0 
-7.630300989339e-04 2.133066083266e-03 0.0 
0.0 0.0 -5.298816096007e-04 
1.060874476646e-04 -9.079592115861e-04 0.0 
-9.079592115861e-04 1.571356760192e-03 0.0 
0.0 0.0 -4.652367627802e-04 
1.299766153745e-04 -5.238021949006e-04 0.0 
-5.238021949006e-04 1.775343023360e-03 0.0 
0.0 0.0 -5.016361848483e-04 
8.113068861589e-06 -4.523118756860e-04 0.0 
-4.523118756860e-04 2.346566463626e-03 0.0 
0.0 0.0 -5.657331850765e-04 
2.333464364560e-04 -1.778074880060e-04 0.0 
-1.778074880060e-04 1.448473809503e-03 0.0 
0.0 0.0 -4.731795164401e-04 
-1.159968055748e-03 4.654058109210e-04 0.0 
4.654058109210e-04 7.343744264572e-03 0.0 
0.0 0.0 -1.138512926666e-03 
-1.264954689887e-03 -1.904964022353e-04 0.0 
-1.904964022353e-04 8.221334432808e-03 0.0 
0.0 0.0 -1.305779161548e-03 
-7.747711705181e-04 -5.121765711313e-04 0.0 
-5.121765711313e-04 5.367910934867e-03 0.0 
0.0 0.0 -9.007942405787e-04 
-6.889420890608e-04 -5.209139520464e-04 0.0 
-5.209139520464e-04 5.083313389568e-03 0.0 
0.0 0.0 -8.713600568839e-04 
-6.090575816933e-04 -6.078858301865e-04 0.0 
-6.078858301865e-04 4.604339507385e-03 0.0 
0.0 0.0 -8.059887332522e-04 
-8.449920134059e-04 -5.153788440303e-04 0.0 
-5.153788440303e-04 4.260095117302e-03 0.0 
0.0 0.0 -6.781883600425e-04 
-8.428803748540e-04 -5.674043660998e-04 0.0 
-5.674043660998e-04 4.450165882994e-03 0.0 
0.0 0.0 -7.153987595530e-04 
-8.942422948913e-04 -5.207798333702e-04 0.0 
-5.207798333702e-04 4.885926297656e-03 0.0 
0.0 0.0 -7.812419408864e-04 
-8.377845004557e-04 -4.501363391243e-04 0.0 
-4.501363391243e-04 4.061067246097e-03 0.0 
0.0 0.0 -6.407943132712e-04 
-8.608991234260e-04 5.183985589951e-04 0.0 
5.183985589951e-04 6.008926334250e-03 0.0 
0.0 0.0 -9.876394229526e-04 
-1.270638922106e-03 -2.525883056993e-04 0.0 
-2.525883056993e-04 8.245623635122e-03 0.0 
0.0 0.0 -1.305003056577e-03 
-5.449120924268e-04 -2.038340280130e-04 0.0 
-2.038340280130e-04 4.976604129178e-03 0.0 
0.0 0.0 -8.871663004355e-04 
-7.828155216857e-04 -6.575282962370e-04 0.0 
-6.575282962370e-04 4.196243675374e-03 0.0 
0.0 0.0 -6.865966444657e-04 
-8.908351355140e-04 9.702867664421e-05 0.0 
9.702867664421e-05 4.953510345307e-03 0.0 
0.0 0.0 -7.516786372745e-04 
-9.428178873818e-04 1.510891929034e-04 0.0 
1.510891929034e-04 5.341754956276e-03 0.0 
0.0 0.0 -8.094822736869e-04 
-9.489012184647e-04 1.441944320473e-04 0.0 
1.441944320473e-04 5.346848053026e-03 0.0 
0.0 0.0 -8.097394517040e-04 
-9.928370876702e-04 1.565528389037e-04 0.0 
1.565528389037e-04 5.757287346966e-03 0.0 
0.0 0.0 -8.733121467894e-04 
-9.420662265250e-04 8.672453308222e-05 0.0 
8.672453308222e-05 5.390349708032e-03 0.0 
0.0 0.0 -8.155917408702e-04 
-9.920889169566e-04 -3.299549002211e-04 0.0 
-3.299549002211e-04 5.156290872581e-03 0.0 
0.0 0.0 -8.015266587451e-04 
-1.034393455446e-03 -2.593382357018e-04 0.0 
-2.593382357018e-04 5.377589720533e-03 0.0 
0.0 0.0 -8.302790088839e-04 
-1.016724768056e-03 -2.052940986145e-04 0.0 
-2.052940986145e-04 5.161883654298e-03 0.0 
0.0 0.0 -7.937858958383e-04 
-1.069749204098e-03 -1.931193338339e-04 0.0 
-1.931193338339e-04 5.589690211797e-03 0.0 
0.0 0.0 -8.590670690980e-04 
-1.045250008444e-03 -1.524643402440e-04 0.0 
-1.524643402440e-04 5.354709247412e-03 0.0 
0.0 0.0 -8.213578559547e-04 
-9.891061891856e-04 -1.661511418362e-04 0.0 
-1.661511418362e-04 4.952759689804e-03 0.0 
0.0 0.0 -7.608744282309e-04 
-1.097326614700e-03 -1.343981642378e-04 0.0 
-1.343981642378e-04 5.787368511626e-03 0.0 
0.0 0.0 -8.866101721103e-04 
-1.072266853954e-03 -7.465649989587e-05 0.0 
-7.465649989587e-05 5.530930704335e-03 0.0 
0.0 0.0 -8.437388122980e-04 
-8.749604405334e-04 5.210753762548e-05 0.0 
5.210753762548e-05 4.958547900325e-03 0.0 
0.0 0.0 -7.509531518293e-04 
2.931250951271e-05 -1.468193730782e-04 0.0 
-1.468193730782e-04 5.197092075325e-05 0.0 
0.0 0.0 -3.483575582827e-05 
8.911840808784e-05 -5.611142441010e-04 0.0 
-5.611142441010e-04 2.292660682549e-04 0.0 
0.0 0.0 -1.364504898612e-04 
-1.613477578931e-05 -6.217163821683e-04 0.0 
-6.217163821683e-04 4.356228314527e-04 0.0 
0.0 0.0 -1.797805952843e-04 
7.026081585524e-05 -9.442279566568e-04 0.0 
-9.442279566568e-04 4.994486354165e-04 0.0 
0.0 0.0 -2.441611934022e-04 
2.189035585349e-04 -7.936262830972e-04 0.0 
-7.936262830972e-04 2.241675290565e-04 0.0 
0.0 0.0 -1.898876089678e-04 
1.395294056137e-04 -1.221624346892e-03 0.0 
-1.221624346892e-03 5.704290544817e-04 0.0 
0.0 0.0 -3.042679114694e-04 
3.315217795862e-04 -9.867447375553e-04 0.0 
-9.867447375553e-04 2.187882668786e-04 0.0 
0.0 0.0 -2.358471627707e-04 
1.282773509924e-04 -3.069727312294e-04 0.0 
-3.069727312294e-04 5.087018620754e-05 0.0 
0.0 0.0 -7.677751594282e-05 
7.207324065744e-06 -2.363709633052e-04 0.0 
-2.363709633052e-04 2.192194981731e-04 0.0 
0.0 0.0 -7.709394943614e-05 
-1.151589919320e-04 -5.038932235898e-04 0.0 
-5.038932235898e-04 5.668379900610e-04 0.0 
0.0 0.0 -1.836804426236e-04 
6.886756343239e-05 -1.585111183501e-04 0.0 
-1.585111183501e-04 2.318919381609e-04 0.0 
0.0 0.0 -9.135678087991e-05 
-1.673787199121e-04 -3.772506028182e-04 0.0 
-3.772506028182e-04 6.235391984471e-04 0.0 
0.0 0.0 -1.587652100407e-04 
-2.237013217840e-04 -7.835370290226e-04 0.0 
-7.835370290226e-04 9.699234306887e-04 0.0 
0.0 0.0 -2.864776706126e-04 
-5.080022175142e-04 -5.846720249242e-04 0.0 
-5.846720249242e-04 1.713553650264e-03 0.0 
0.0 0.0 -2.934437995798e-04 
-1.342924257900e-03 -1.540329825018e-04 0.0 
-1.540329825018e-04 8.463979425849e-03 0.0 
0.0 0.0 -1.294874803588e-03 
-9.061604714287e-04 -5.353468138170e-05 0.0 
-5.353468138170e-05 4.292677537748e-03 0.0 
0.0 0.0 -6.595503360071e-04 
-8.748353904416e-04 -9.535674848835e-05 0.0 
-9.535674848835e-05 4.090451847143e-03 0.0 
0.0 0.0 -6.264797819744e-04 
-7.893986596546e-04 -8.988273420556e-05 0.0 
-8.988273420556e-05 3.635662269298e-03 0.0 
0.0 0.0 -5.641716646261e-04 
-8.342340843015e-04 -1.796315714393e-04 0.0 
-1.796315714393e-04 3.876399492582e-03 0.0 
0.0 0.0 -5.974662984275e-04 
-9.399601535283e-04 -9.182592719562e-05 0.0 
-9.182592719562e-05 4.459086163681e-03 0.0 
0.0 0.0 -6.865721209800e-04 
-7.450408717977e-04 -3.664071909045e-05 0.0 
-3.664071909045e-05 3.403705623677e-03 0.0 
0.0 0.0 -5.286920563404e-04 
-7.105002771536e-04 -7.510162605901e-05 0.0 
-7.510162605901e-05 3.252942810076e-03 0.0 
0.0 0.0 -5.038291843518e-04 
2.269617952537e-04 -4.679297531140e-06 0.0 
-4.679297531140e-06 2.031304943507e-04 0.0 
0.0 0.0 -1.081843495454e-04 
-2.992668304113e-05 -2.428217344695e-05 0.0 
-2.428217344695e-05 6.247499294921e-04 0.0 
0.0 0.0 -1.462425310096e-04 
1.120520427135e-05 2.490769659488e-05 0.0 
2.490769659488e-05 5.748679317617e-04 0.0 
0.0 0.0 -1.469788961115e-04 
-1.839676854865e-04 -1.370350569834e-05 0.0 
-1.370350569834e-05 1.050348992839e-03 0.0 
0.0 0.0 -1.976702944042e-04 
-1.665493073749e-04 -4.078238753771e-05 0.0 
-4.078238753771e-05 1.038427513794e-03 0.0 
0.0 0.0 -1.960684762570e-04 
-2.740272711721e-05 -1.675532894322e-05 0.0 
-1.675532894322e-05 6.301608269895e-04 0.0 
0.0 0.0 -1.451566722079e-04 
-4.295295916181e-05 -1.396627582879e-05 0.0 
-1.396627582879e-05 6.314478061460e-04 0.0 
0.0 0.0 -1.432903851643e-04 
2.178107760258e-04 -4.669961674357e-06 0.0 
-4.669961674357e-06 1.968060237393e-04 0.0 
0.0 0.0 -1.026933745538e-04 
-6.199861096773e-05 -4.121287758313e-05 0.0 
-4.121287758313e-05 6.332661626784e-04 0.0 
0.0 0.0 -1.376693440338e-04 
-1.958490001476e-04 -5.849411118292e-05 0.0 
-5.849411118292e-05 1.056235548644e-03 0.0 
0.0 0.0 -1.994574706984e-04 
2.194500295117e-04 -1.953547163157e-05 0.0 
-1.953547163157e-05 1.758186835889e-04 0.0 
0.0 0.0 -9.526841721624e-05 
-1.134405852345e-03 -1.685214623059e-05 0.0 
-1.685214623059e-05 7.114171974622e-03 0.0 
0.0 0.0 -1.060427308513e-03 
-1.169096287658e-03 2.563616812788e-06 0.0 
2.563616812788e-06 7.355225522955e-03 0.0 
0.0 0.0 -1.097082233180e-03 
-1.287656187300e-03 -3.057563853945e-04 0.0 
-3.057563853945e-04 8.295106043806e-03 0.0 
0.0 0.0 -1.300897016293e-03 
-8.709102074234e-04 1.634655957137e-05 0.0 
1.634655957137e-05 5.013561359335e-03 0.0 
0.0 0.0 -7.584009903415e-04 
6.085248323127e-05 -7.529385077948e-05 0.0 
-7.529385077948e-05 2.498450074273e-04 0.0 
0.0 0.0 -6.778662807071e-05 
-1.318321890589e-03 9.119227365237e-05 0.0 
9.119227365237e-05 8.702564910127e-03 0.0 
0.0 0.0 -1.292107529982e-03 
-1.321891599576e-03 1.523434658018e-04 0.0 
1.523434658018e-04 8.753789560532e-03 0.0 
0.0 0.0 -1.303172775453e-03 
-1.317386328466e-03 1.502744807486e-04 0.0 
1.502744807486e-04 8.760593080467e-03 0.0 
0.0 0.0 -1.304823151597e-03 
-1.303300137320e-03 -3.518320858820e-05 0.0 
-3.518320858820e-05 7.809809152570e-03 0.0 
0.0 0.0 -1.191058493115e-03 
-1.309915312802e-03 -8.055064126037e-05 0.0 
-8.055064126037e-05 8.016669059363e-03 0.0 
0.0 0.0 -1.224322658093e-03 
-1.321803447330e-03 5.837335499168e-05 0.0 
5.837335499168e-05 8.713282635678e-03 0.0 
0.0 0.0 -1.294569364341e-03 
-6.481855202900e-04 -6.246003181782e-04 0.0 
-6.246003181782e-04 2.746907491681e-03 0.0 
0.0 0.0 -4.512809064328e-04 
-1.269733092336e-03 3.949450849478e-04 0.0 
3.949450849478e-04 8.134082373248e-03 0.0 
0.0 0.0 -1.225740639889e-03 
-1.236917440076e-03 9.455704594097e-05 0.0 
9.455704594097e-05 7.907876475173e-03 0.0 
0.0 0.0 -1.178628832109e-03 
2.863499120991e-04 1.225469476951e-03 0.0 
1.225469476951e-03 5.011020420815e-04 0.0 
0.0 0.0 -3.087973448475e-04 
-5.572892816396e-04 -1.058232484237e-03 0.0 
-1.058232484237e-03 2.439571083886e-03 0.0 
0.0 0.0 -4.373623857420e-04 
-1.169344627949e-03 -1.527368028486e-04 0.0 
-1.527368028486e-04 6.463252890075e-03 0.0 
0.0 0.0 -9.899674718230e-04 
-1.002156622739e-03 -4.217657770794e-04 0.0 
-4.217657770794e-04 5.766816978775e-03 0.0 
0.0 0.0 -9.123979313600e-04 
-1.240362622181e-03 -2.107518773901e-04 0.0 
-2.107518773901e-04 7.344433125846e-03 0.0 
0.0 0.0 -1.130390451587e-03 
-1.097029052933e-03 -2.727822285369e-04 0.0 
-2.727822285369e-04 6.025349028311e-03 0.0 
0.0 0.0 -9.322225209316e-04 
-1.160816713283e-03 -2.966491095374e-04 0.0 
-2.966491095374e-04 6.897592609693e-03 0.0 
0.0 0.0 -1.073123358692e-03 
-1.146188823319e-03 -9.619145093431e-05 0.0 
-9.619145093431e-05 7.734668514319e-03 0.0 
0.0 0.0 -1.244129926109e-03 
-3.611510593238e-04 -8.758097138839e-05 0.0 
-8.758097138839e-05 1.751553404855e-03 0.0 
0.0 0.0 -2.939217362394e-04 
-1.042524547902e-03 8.542519018607e-05 0.0 
8.542519018607e-05 6.249309917826e-03 0.0 
0.0 0.0 -9.364826870394e-04 
-1.011646579925e-03 4.950052888461e-05 0.0 
4.950052888461e-05 6.088183350352e-03 0.0 
0.0 0.0 -9.130351872960e-04 
-1.156492778501e-03 8.389467150956e-05 0.0 
8.389467150956e-05 7.209321502601e-03 0.0 
0.0 0.0 -1.075939795031e-03 
-6.797233321873e-04 -3.445526981405e-04 0.0 
-3.445526981405e-04 2.970604433142e-03 0.0 
0.0 0.0 -4.709579147287e-04 
-9.579355913964e-04 -2.329193078104e-04 0.0 
-2.329193078104e-04 4.740187249377e-03 0.0 
0.0 0.0 -7.304257169629e-04 
-4.699094320929e-04 -2.864685390476e-04 0.0 
-2.864685390476e-04 1.870719163436e-03 0.0 
0.0 0.0 -3.104331955072e-04 
-1.225720132749e-03 4.922764523725e-04 0.0 
4.922764523725e-04 8.004298524687e-03 0.0 
0.0 0.0 -1.251461238623e-03 
-8.642142966185e-04 4.736706847914e-04 0.0 
4.736706847914e-04 4.810262753378e-03 0.0 
0.0 0.0 -7.590395520047e-04 
-6.299061308779e-04 -6.905248015396e-04 0.0 
-6.905248015396e-04 4.426299320179e-03 0.0 
0.0 0.0 -7.694287042311e-04 
-7.912081179997e-04 -5.380011954616e-04 0.0 
-5.380011954616e-04 3.827422774339e-03 0.0 
0.0 0.0 -6.120242822960e-04 
-6.551443874445e-04 -7.576014874881e-04 0.0 
-7.576014874881e-04 2.929641818478e-03 0.0 
0.0 0.0 -4.894362539292e-04 
-4.890802463817e-04 -1.241731719978e-03 0.0 
-1.241731719978e-03 2.147525315431e-03 0.0 
0.0 0.0 -4.100935076628e-04 
-5.488809187293e-04 8.195138113053e-04 0.0 
8.195138113053e-04 3.940420057434e-03 0.0 
0.0 0.0 -6.990242139688e-04 
-7.645737241242e-04 -6.835179970588e-04 0.0 
-6.835179970588e-04 4.369038504805e-03 0.0 
0.0 0.0 -7.237531747479e-04 
-9.990166317683e-04 -3.989427530334e-04 0.0 
-3.989427530334e-04 6.371965153356e-03 0.0 
0.0 0.0 -1.024340108609e-03 
-1.185317591363e-03 7.742475138516e-05 0.0 
7.742475138516e-05 7.460446495103e-03 0.0 
0.0 0.0 -1.112552678551e-03 
1.197712392318e-04 -3.148981806786e-05 0.0 
-3.148981806786e-05 2.711258731277e-04 0.0 
0.0 0.0 -9.959518537181e-05 
-1.003340353985e-03 -3.675015482303e-04 0.0 
-3.675015482303e-04 6.579336743889e-03 0.0 
0.0 0.0 -1.061672265243e-03 
-8.749171253014e-04 -5.429443966133e-04 0.0 
-5.429443966133e-04 5.259260617559e-03 0.0 
0.0 0.0 -8.552253422611e-04 
-1.075058534600e-03 1.329625948637e-04 0.0 
1.329625948637e-04 6.404878824914e-03 0.0 
0.0 0.0 -9.599091010803e-04 
-8.098069298724e-04 1.009136731454e-04 0.0 
1.009136731454e-04 6.303475721426e-03 0.0 
0.0 0.0 -1.062640036239e-03 
-7.822393088759e-05 -1.437936820334e-03 0.0 
-1.437936820334e-03 1.036179245632e-03 0.0 
0.0 0.0 -3.732485265440e-04 
-1.183046367818e-03 1.393767940647e-04 0.0 
1.393767940647e-04 7.358067127657e-03 0.0 
0.0 0.0 -1.098747615487e-03 
-1.275160361241e-03 2.646540278175e-04 0.0 
2.646540278175e-04 8.092932724066e-03 0.0 
0.0 0.0 -1.212453547082e-03 
-1.010608018996e-03 1.134796452945e-04 0.0 
1.134796452945e-04 5.876477578498e-03 0.0 
0.0 0.0 -8.875094802107e-04 
-3.432304284614e-04 -2.023305734104e-04 0.0 
-2.023305734104e-04 1.413096543350e-03 0.0 
0.0 0.0 -2.442495876194e-04 
-9.871354508553e-04 6.543929527951e-05 0.0 
6.543929527951e-05 5.785148960874e-03 0.0 
0.0 0.0 -8.692469099983e-04 
-1.129933755956e-03 -2.589669323117e-04 0.0 
-2.589669323117e-04 7.495462082173e-03 0.0 
0.0 0.0 -1.202705989510e-03 
-1.175984421816e-03 2.539870060864e-04 0.0 
2.539870060864e-04 7.167724276723e-03 0.0 
0.0 0.0 -1.078220320736e-03 
-6.238127593336e-04 -2.578427228971e-04 0.0 
-2.578427228971e-04 2.729809833616e-03 0.0 
0.0 0.0 -4.336020471383e-04 
-3.693103125981e-04 -1.184898620339e-04 0.0 
-1.184898620339e-04 4.215512874596e-03 0.0 
0.0 0.0 -7.943514531093e-04 
-7.354883692347e-04 6.882867699015e-04 0.0 
6.882867699015e-04 4.480048918178e-03 0.0 
0.0 0.0 -7.428158978947e-04 
-8.300346150545e-04 1.997478973446e-04 0.0 
1.997478973446e-04 4.462946677923e-03 0.0 
0.0 0.0 -6.865907729104e-04 
-1.263662037140e-03 1.212955651983e-04 0.0 
1.212955651983e-04 8.095770653682e-03 0.0 
0.0 0.0 -1.206557591227e-03 
-5.452830500886e-04 5.833267200760e-04 0.0 
5.833267200760e-04 4.601923753795e-03 0.0 
0.0 0.0 -8.172945450071e-04 
-9.138715469007e-04 -2.809485115349e-05 0.0 
-2.809485115349e-05 6.748408724194e-03 0.0 
0.0 0.0 -1.120054252910e-03 
-5.855153319979e-04 -8.409325156636e-05 0.0 
-8.409325156636e-05 5.239197065772e-03 0.0 
0.0 0.0 -9.240809108919e-04 
-6.615538158736e-04 -2.024673927750e-04 0.0 
-2.024673927750e-04 2.941778370234e-03 0.0 
0.0 0.0 -4.629711029823e-04 
-1.130081472427e-03 -3.415372177863e-04 0.0 
-3.415372177863e-04 7.089023572073e-03 0.0 
0.0 0.0 -1.118919378802e-03 
-3.597542210602e-04 3.380969491909e-04 0.0 
3.380969491909e-04 4.095727105777e-03 0.0 
0.0 0.0 -7.743986277066e-04 
-1.231879397795e-03 1.563825567224e-04 0.0 
1.563825567224e-04 7.806451874477e-03 0.0 
0.0 0.0 -1.164614768973e-03 
-1.000367767849e-03 5.022961011040e-04 0.0 
5.022961011040e-04 6.477016694026e-03 0.0 
0.0 0.0 -1.031533309622e-03 
-8.496720980242e-05 7.949215026050e-05 0.0 
7.949215026050e-05 2.913474260951e-03 0.0 
0.0 0.0 -6.375205594687e-04 
-1.204201749293e-03 1.997899091721e-04 0.0 
1.997899091721e-04 7.486324816343e-03 0.0 
0.0 0.0 -1.121170216299e-03 
-5.130508831761e-04 -5.977004884583e-04 0.0 
-5.977004884583e-04 4.307094875234e-03 0.0 
0.0 0.0 -7.773091661689e-04 
-8.763670238880e-04 1.763080225343e-04 0.0 
1.763080225343e-04 6.599584220336e-03 0.0 
0.0 0.0 -1.099429584637e-03 
-8.205770634544e-04 5.305467903750e-04 0.0 
5.305467903750e-04 4.538492374159e-03 0.0 
0.0 0.0 -7.240542973723e-04 
-8.884268788469e-04 5.588484511591e-04 0.0 
5.588484511591e-04 5.612213355160e-03 0.0 
0.0 0.0 -9.041109700986e-04 
-1.050324174142e-03 4.352582260935e-04 0.0 
4.352582260935e-04 6.327572321714e-03 0.0 
0.0 0.0 -9.824247929831e-04 
-7.337998657639e-04 6.243333749199e-04 0.0 
6.243333749199e-04 5.125520163039e-03 0.0 
0.0 0.0 -8.608216255090e-04 
-1.153567602020e-03 -9.301724894271e-05 0.0 
-9.301724894271e-05 6.238376526397e-03 0.0 
0.0 0.0 -9.534332399069e-04 
-1.070854558502e-03 -3.525098866510e-04 0.0 
-3.525098866510e-04 6.838133072795e-03 0.0 
0.0 0.0 -1.090315851396e-03 
5.426530316348e-04 -6.124034834809e-04 0.0 
-6.124034834809e-04 -4.758177895346e-06 0.0 
0.0 0.0 -2.305263658883e-04 
-4.860442792995e-04 1.001524898596e-03 0.0 
1.001524898596e-03 3.110766909182e-03 0.0 
0.0 0.0 -5.719042557127e-04 
-1.067589445178e-03 1.583535090986e-04 0.0 
1.583535090986e-04 6.341569706464e-03 0.0 
0.0 0.0 -9.536514739466e-04 
-1.085608803619e-03 4.567018534179e-04 0.0 
4.567018534179e-04 7.206759563006e-03 0.0 
0.0 0.0 -1.150585697120e-03 
-1.272662540904e-03 1.837479624771e-04 0.0 
1.837479624771e-04 8.251575577157e-03 0.0 
0.0 0.0 -1.229329624135e-03 
-7.006581247961e-04 7.305782553014e-04 0.0 
7.305782553014e-04 4.076422328874e-03 0.0 
0.0 0.0 -6.801182747099e-04 
-1.119652443645e-03 -3.456160390905e-04 0.0 
-3.456160390905e-04 6.872141672148e-03 0.0 
0.0 0.0 -1.081576975854e-03 
-1.253042370701e-03 2.293393647918e-04 0.0 
2.293393647918e-04 7.917666161319e-03 0.0 
0.0 0.0 -1.185355684152e-03 
-8.328019205503e-04 -6.002544778108e-04 0.0 
-6.002544778108e-04 4.632328502255e-03 0.0 
0.0 0.0 -7.524367508395e-04 
-4.433075112401e-04 -2.566605040482e-05 0.0 
-2.566605040482e-05 2.036859959460e-03 0.0 
0.0 0.0 -3.333104686742e-04 
3.205177984844e-04 9.975801435051e-04 0.0 
9.975801435051e-04 2.379341149770e-04 0.0 
0.0 0.0 -2.393365343406e-04 
1.591584715393e-04 1.779286051982e-04 0.0 
1.779286051982e-04 1.786654556165e-03 0.0 
0.0 0.0 -5.092532232582e-04 
-4.531066397313e-04 5.570531624296e-04 0.0 
5.570531624296e-04 4.269383883647e-03 0.0 
0.0 0.0 -7.817448632792e-04 
-8.859078879477e-04 -5.417175315324e-04 0.0 
-5.417175315324e-04 5.072763910333e-03 0.0 
0.0 0.0 -8.181699076276e-04 
-1.293553667002e-03 3.539056233938e-04 0.0 
3.539056233938e-04 8.270227580961e-03 0.0 
0.0 0.0 -1.242275372262e-03 
-1.167568761218e-03 -3.100043251916e-04 0.0 
-3.100043251916e-04 7.110149870389e-03 0.0 
0.0 0.0 -1.110186454522e-03 
-8.720271584818e-04 -3.155671013640e-04 0.0 
-3.155671013640e-04 6.271566388977e-03 0.0 
0.0 0.0 -1.040857148505e-03 
3.090009603171e-05 6.438382974465e-04 0.0 
6.438382974465e-04 3.706853633849e-04 0.0 
0.0 0.0 -1.721080540357e-04 
-8.582532174726e-04 2.712256844373e-04 0.0 
2.712256844373e-04 4.619700861909e-03 0.0 
0.0 0.0 -7.126371066839e-04 
-1.210346144101e-03 -2.749948472322e-04 0.0 
-2.749948472322e-04 7.344160972203e-03 0.0 
0.0 0.0 -1.139074001596e-03 
-4.392212359222e-04 -2.427188308892e-04 0.0 
-2.427188308892e-04 4.468278991880e-03 0.0 
0.0 0.0 -8.223634564932e-04 
-9.190954487653e-04 1.036306006856e-04 0.0 
1.036306006856e-04 6.792229327511e-03 0.0 
0.0 0.0 -1.126725356868e-03 
-1.012271879397e-03 -9.648706787801e-05 0.0 
-9.648706787801e-05 5.106630196527e-03 0.0 
0.0 0.0 -7.817916451012e-04 
-1.209813015887e-03 4.617447502893e-04 0.0 
4.617447502893e-04 7.951412152162e-03 0.0 
0.0 0.0 -1.249754184115e-03 
-7.319316117329e-04 4.292603822642e-04 0.0 
4.292603822642e-04 3.626422685243e-03 0.0 
0.0 0.0 -5.757576642514e-04 
-1.253262516526e-03 -2.397729583392e-04 0.0 
-2.397729583392e-04 7.583908034255e-03 0.0 
0.0 0.0 -1.168790087466e-03 
-8.256776309677e-04 -1.881926819914e-04 0.0 
-1.881926819914e-04 6.244322400387e-03 0.0 
0.0 0.0 -1.047452346298e-03 
-1.833871752581e-04 1.076533841658e-03 0.0 
1.076533841658e-03 2.371953294675e-03 0.0 
0.0 0.0 -5.248669331578e-04 
-8.489436119586e-04 9.726246538456e-06 0.0 
9.726246538456e-06 4.964532206226e-03 0.0 
0.0 0.0 -7.498068730476e-04 
-1.301937909208e-03 -2.238090825597e-04 0.0 
-2.238090825597e-04 8.094251106337e-03 0.0 
0.0 0.0 -1.243807156011e-03 
-9.340333835081e-04 -1.610113385009e-04 0.0 
-1.610113385009e-04 6.744276922541e-03 0.0 
0.0 0.0 -1.114542488500e-03 
-7.941362751269e-04 5.664211877541e-04 0.0 
5.664211877541e-04 5.563587855978e-03 0.0 
0.0 0.0 -9.240346875991e-04 
-4.168495056098e-04 -3.974139927462e-04 0.0 
-3.974139927462e-04 4.226500375937e-03 0.0 
0.0 0.0 -7.856950878877e-04 
-7.739148085239e-04 2.464793331539e-04 0.0 
2.464793331539e-04 3.977512213385e-03 0.0 
0.0 0.0 -6.191377506773e-04 
-9.472802509339e-04 -4.715703841177e-04 0.0 
-4.715703841177e-04 5.324567248990e-03 0.0 
0.0 0.0 -8.467704336814e-04 
-9.485585464614e-04 5.193393053567e-04 0.0 
5.193393053567e-04 5.905682896343e-03 0.0 
0.0 0.0 -9.395224721591e-04 
-1.324920476103e-03 3.053746754946e-04 0.0 
3.053746754946e-04 8.723243834592e-03 0.0 
0.0 0.0 -1.306889097489e-03 
-9.807951782906e-04 -9.587801094059e-05 0.0 
-9.587801094059e-05 6.970713904845e-03 0.0 
0.0 0.0 -1.148622835147e-03 
-1.082939420670e-03 2.819860490732e-04 0.0 
2.819860490732e-04 6.381972856138e-03 0.0 
0.0 0.0 -9.696660045843e-04 
-9.493777168521e-04 -4.444219031776e-04 0.0 
-4.444219031776e-04 5.127854127799e-03 0.0 
0.0 0.0 -8.097439408559e-04 
-7.160311725792e-04 3.654432579295e-04 0.0 
3.654432579295e-04 5.714883805619e-03 0.0 
0.0 0.0 -9.749840279683e-04 
-1.676636515260e-04 -4.941269470984e-05 0.0 
-4.941269470984e-05 1.033199140519e-03 0.0 
0.0 0.0 -1.970089232863e-04 
-7.962185908535e-04 3.303377500728e-04 0.0 
3.303377500728e-04 4.131190544581e-03 0.0 
0.0 0.0 -6.447622526173e-04 
-1.000272012546e-03 -3.719800608836e-04 0.0 
-3.719800608836e-04 5.362836932527e-03 0.0 
0.0 0.0 -8.382314227178e-04 
1.017392588855e-04 -1.736220687656e-04 0.0 
-1.736220687656e-04 2.043177635858e-03 0.0 
0.0 0.0 -5.374563060555e-04 
-5.079147546005e-04 -4.709528610388e-04 0.0 
-4.709528610388e-04 4.508844721117e-03 0.0 
0.0 0.0 -8.136389561866e-04 
-1.114056657132e-03 2.887883130746e-04 0.0 
2.887883130746e-04 7.664610237433e-03 0.0 
0.0 0.0 -1.234277959947e-03 
-1.046296347188e-03 -3.017965079923e-04 0.0 
-3.017965079923e-04 5.590796710732e-03 0.0 
0.0 0.0 -8.668853676281e-04 
-2.327182499333e-05 -1.637556316808e-04 0.0 
-1.637556316808e-04 2.609999917965e-03 0.0 
0.0 0.0 -6.015264011954e-04 
-1.086733608739e-03 -2.340312705235e-04 0.0 
-2.340312705235e-04 5.809878777498e-03 0.0 
0.0 0.0 -8.955981815692e-04 
-7.133441625448e-04 3.191920090799e-04 0.0 
3.191920090799e-04 3.492826899708e-03 0.0 
0.0 0.0 -5.519888345566e-04 
-1.102733663682e-03 3.164092702850e-04 0.0 
3.164092702850e-04 6.555228391521e-03 0.0 
0.0 0.0 -9.983267706061e-04 
-1.119318067822e-03 -1.714358954242e-04 0.0 
-1.714358954242e-04 6.018884976543e-03 0.0 
0.0 0.0 -9.243533921793e-04 
-1.001908002250e-03 4.984942752457e-04 0.0 
4.984942752457e-04 6.334427631463e-03 0.0 
0.0 0.0 -1.003151257071e-03 
-2.279098310875e-04 -1.251804773978e-04 0.0 
-1.251804773978e-04 1.119603241316e-03 0.0 
0.0 0.0 -2.040322045631e-04 
-7.855046317287e-04 5.237977796601e-04 0.0 
5.237977796601e-04 5.697841480735e-03 0.0 
0.0 0.0 -9.517466134248e-04 
-1.278300960589e-03 -7.889376224299e-05 0.0 
-7.889376224299e-05 7.564162797006e-03 0.0 
0.0 0.0 -1.155419075730e-03 
-6.039386638838e-04 -9.352834442183e-04 0.0 
-9.352834442183e-04 3.237374525321e-03 0.0 
0.0 0.0 -5.654343806685e-04 
-5.996382576729e-04 -5.078678615237e-04 0.0 
-5.078678615237e-04 4.794693511813e-03 0.0 
0.0 0.0 -8.420324705410e-04 
-1.153622144798e-03 3.409444967982e-04 0.0 
3.409444967982e-04 6.992756961225e-03 0.0 
0.0 0.0 -1.063653581392e-03 
-6.588103306477e-04 3.969496556601e-04 0.0 
3.969496556601e-04 3.002666315313e-03 0.0 
0.0 0.0 -4.839843007303e-04 
-6.880791710433e-04 -4.312562534369e-04 0.0 
-4.312562534369e-04 5.283404868934e-03 0.0 
0.0 0.0 -9.074658271045e-04 
-1.060052777402e-03 4.844888623504e-04 0.0 
4.844888623504e-04 6.770757776904e-03 0.0 
0.0 0.0 -1.067288052377e-03 
-7.837482685475e-04 4.743739920089e-04 0.0 
4.743739920089e-04 5.847117456295e-03 0.0 
0.0 0.0 -9.801762873724e-04 
-5.364910550697e-04 4.803545642860e-04 0.0 
4.803545642860e-04 4.747968314780e-03 0.0 
0.0 0.0 -8.455731917576e-04 
-7.785051872343e-04 -3.658858697108e-04 0.0 
-3.658858697108e-04 5.776530662371e-03 0.0 
0.0 0.0 -9.738262179588e-04 
-6.715128569437e-04 5.603668306290e-04 0.0 
5.603668306290e-04 3.116619739403e-03 0.0 
0.0 0.0 -5.057041985798e-04 
-6.174255134183e-04 -7.382519752092e-04 0.0 
-7.382519752092e-04 2.524949954393e-03 0.0 
0.0 0.0 -4.238464704258e-04 
-5.725994882734e-04 -6.885730532868e-04 0.0 
-6.885730532868e-04 2.123374709043e-03 0.0 
0.0 0.0 -3.586180353125e-04 
-1.087968519769e-04 -3.894502741245e-04 0.0 
-3.894502741245e-04 2.894305128247e-03 0.0 
0.0 0.0 -6.294631353604e-04 
-1.113989301634e-03 4.730580331504e-04 0.0 
4.730580331504e-04 7.064599777148e-03 0.0 
0.0 0.0 -1.103081964739e-03 
-2.909493422495e-04 -6.727813062534e-05 0.0 
-6.727813062534e-05 1.456560370235e-03 0.0 
0.0 0.0 -2.521214004998e-04 
-1.130223577437e-03 3.874695664211e-04 0.0 
3.874695664211e-04 6.879711460710e-03 0.0 
0.0 0.0 -1.054898413167e-03 
-4.747914815808e-04 -7.007316897934e-04 0.0 
-7.007316897934e-04 1.510403036883e-03 0.0 
0.0 0.0 -2.740243446916e-04 
-1.059034309075e-04 -6.476895754937e-04 0.0 
-6.476895754937e-04 2.671993736935e-03 0.0 
0.0 0.0 -5.935709857392e-04 
-8.832674525435e-04 3.712236152595e-04 0.0 
3.712236152595e-04 6.508434955568e-03 0.0 
0.0 0.0 -1.077081564483e-03 
-1.023005590377e-03 -4.065847446542e-05 0.0 
-4.065847446542e-05 6.235882102629e-03 0.0 
0.0 0.0 -9.315431351609e-04 
-2.271455064543e-04 -7.649077538712e-04 0.0 
-7.649077538712e-04 3.005124294304e-03 0.0 
0.0 0.0 -6.211106552582e-04 
-5.539372237771e-04 -2.705347043382e-05 0.0 
-2.705347043382e-05 2.503628127068e-03 0.0 
0.0 0.0 -3.989951351066e-04 
-2.711318037513e-04 -9.555117866304e-04 0.0 
-9.555117866304e-04 2.849172517321e-03 0.0 
0.0 0.0 -5.850331209179e-04 
-6.241921201683e-04 4.180601427792e-04 0.0 
4.180601427792e-04 5.227484326245e-03 0.0 
0.0 0.0 -9.098959706900e-04 
-3.942802621189e-04 -9.538191986641e-04 0.0 
-9.538191986641e-04 3.188718869022e-03 0.0 
0.0 0.0 -6.124823626799e-04 
-4.550624226044e-04 -1.036578340992e-03 0.0 
-1.036578340992e-03 3.064317854104e-03 0.0 
0.0 0.0 -5.760838601101e-04 
-1.286542940212e-03 9.779925010804e-05 0.0 
9.779925010804e-05 8.362389009926e-03 0.0 
0.0 0.0 -1.242975171717e-03 
-5.556616817437e-04 -9.487474711726e-04 0.0 
-9.487474711726e-04 3.373317672553e-03 0.0 
0.0 0.0 -6.030381679152e-04 
-1.312957018488e-03 1.762534641485e-05 0.0 
1.762534641485e-05 8.791531742823e-03 0.0 
0.0 0.0 -1.305370344976e-03 
-1.342889913941e-03 -8.887845541572e-05 0.0 
-8.887845541572e-05 8.517788746463e-03 0.0 
0.0 0.0 -1.298405437673e-03 
-9.001399359898e-04 -3.115200366471e-05 0.0 
-3.115200366471e-05 5.327299192951e-03 0.0 
0.0 0.0 -7.997855503562e-04 
-6.119585369169e-04 5.319683456807e-04 0.0 
5.319683456807e-04 2.524442221547e-03 0.0 
0.0 0.0 -4.121418992062e-04 
0.0 0.0 0.0 
0.0 0.0 0.0 
0.0 0.0 0.0 
-6.013216908629e-04 7.353591052882e-04 0.0 
7.353591052882e-04 2.570270979253e-03 0.0 
0.0 0.0 -4.369243393394e-04 
-5.755877201232e-04 -1.006492197580e-03 0.0 
-1.006492197580e-03 2.831071537896e-03 0.0 
0.0 0.0 -5.013603847490e-04 
-1.101076468124e-03 4.427543157598e-04 0.0 
4.427543157598e-04 6.753747619027e-03 0.0 
0.0 0.0 -1.045752072333e-03 
-9.001350944238e-04 1.690426372956e-05 0.0 
1.690426372956e-05 5.335483219367e-03 0.0 
0.0 0.0 -8.029817139903e-04 
-6.111138971153e-04 -8.912307338130e-04 0.0 
-8.912307338130e-04 2.695444832232e-03 0.0 
0.0 0.0 -4.630712860745e-04 
-1.275916597091e-03 4.598087248478e-04 0.0 
4.598087248478e-04 8.197933557976e-03 0.0 
0.0 0.0 -1.250093291501e-03 
-1.277155987315e-03 4.247176035906e-04 0.0 
4.247176035906e-04 8.290214574666e-03 0.0 
0.0 0.0 -1.306737725957e-03 
-1.108220863065e-03 9.376951406301e-06 0.0 
9.376951406301e-06 6.884195681395e-03 0.0 
0.0 0.0 -1.028769680629e-03 
-9.736500693663e-04 5.157775084853e-05 0.0 
5.157775084853e-05 6.985202160712e-03 0.0 
0.0 0.0 -1.152835590205e-03 
-7.921204258207e-04 4.078698397503e-04 0.0 
4.078698397503e-04 6.023879636983e-03 0.0 
0.0 0.0 -1.010595862668e-03 
-1.241857793517e-03 -4.299570159508e-06 0.0 
-4.299570159508e-06 7.958618347353e-03 0.0 
0.0 0.0 -1.185717314024e-03 
-8.475222208266e-04 -3.781329079989e-05 0.0 
-3.781329079989e-05 4.928212699674e-03 0.0 
0.0 0.0 -7.451086181774e-04 
-1.664286133127e-04 -2.725892507630e-04 0.0 
-2.725892507630e-04 6.325537652716e-04 0.0 
0.0 0.0 -1.414044378648e-04 
-1.183800202695e-03 -4.172593709851e-05 0.0 
-4.172593709851e-05 6.467154125527e-03 0.0 
0.0 0.0 -9.879584850274e-04 
-5.708971627680e-04 6.741264129118e-04 0.0 
6.741264129118e-04 2.024843560255e-03 0.0 
0.0 0.0 -3.437331075899e-04 
-5.495900722021e-04 1.011381174664e-03 0.0 
1.011381174664e-03 1.944401710747e-03 0.0 
0.0 0.0 -3.524505972177e-04 
-2.853835512823e-04 1.205712139992e-03 0.0 
1.205712139992e-03 1.304597058130e-03 0.0 
0.0 0.0 -3.593644486456e-04 
-7.020460695734e-04 -1.440442927613e-04 0.0 
-1.440442927613e-04 3.119459023260e-03 0.0 
0.0 0.0 -4.856826860430e-04 
-8.782495870591e-05 -9.084916110393e-04 0.0 
-9.084916110393e-04 7.572036747300e-04 0.0 
0.0 0.0 -2.846511604759e-04 
-4.893890858810e-04 8.969022950391e-04 0.0 
8.969022950391e-04 1.589417859757e-03 0.0 
0.0 0.0 -3.076864852448e-04 
-1.137014357475e-03 7.152136645661e-05 0.0 
7.152136645661e-05 7.697731072351e-03 0.0 
0.0 0.0 -1.245112051941e-03 
-9.139609418570e-04 1.641183808410e-05 0.0 
1.641183808410e-05 5.327038428336e-03 0.0 
0.0 0.0 -8.050116406322e-04 
-9.540345071131e-04 3.841934886618e-04 0.0 
3.841934886618e-04 6.790550876670e-03 0.0 
0.0 0.0 -1.110409235593e-03 
-1.902162665021e-04 9.339845454039e-04 0.0 
9.339845454039e-04 9.942126500714e-04 0.0 
0.0 0.0 -3.261355004832e-04 
-1.296828862309e-03 2.341461600450e-04 0.0 
2.341461600450e-04 8.351041898143e-03 0.0 
0.0 0.0 -1.247366155457e-03 
-1.168645139073e-03 3.735588726833e-04 0.0 
3.735588726833e-04 7.817174461527e-03 0.0 
0.0 0.0 -1.246608778627e-03 
-1.314967464086e-03 -3.318256949741e-04 0.0 
-3.318256949741e-04 8.403481236488e-03 0.0 
0.0 0.0 -1.306249356034e-03 
-1.050201848033e-03 3.696451559178e-04 0.0 
3.696451559178e-04 7.268871172990e-03 0.0 
0.0 0.0 -1.176371721005e-03 
6.114555871551e-05 1.042784162236e-03 0.0 
1.042784162236e-03 5.736687994652e-04 0.0 
0.0 0.0 -2.720632963632e-04 
-9.766098877979e-04 1.041630930997e-04 0.0 
1.041630930997e-04 5.685157012225e-03 0.0 
0.0 0.0 -8.603500797662e-04 
-1.246724541881e-03 4.866961176123e-04 0.0 
4.866961176123e-04 8.045633532487e-03 0.0 
0.0 0.0 -1.250827372426e-03 
-1.145993633532e-03 3.235835733547e-05 0.0 
3.235835733547e-05 7.250949289083e-03 0.0 
0.0 0.0 -1.080253149739e-03 
-1.318596932855e-03 -2.303003049155e-04 0.0 
-2.303003049155e-04 8.477981163117e-03 0.0 
0.0 0.0 -1.309985050881e-03 
-9.104561560587e-04 8.791536920609e-05 0.0 
8.791536920609e-05 5.249520802984e-03 0.0 
0.0 0.0 -7.979019438933e-04 
-1.287101829326e-03 7.929734908006e-05 0.0 
7.929734908006e-05 8.412586601378e-03 0.0 
0.0 0.0 -1.252774941638e-03 
4.187865149814e-04 -7.886444366699e-04 0.0 
-7.886444366699e-04 6.898920111237e-05 0.0 
0.0 0.0 -2.090467354688e-04 
-1.285197150188e-03 5.312445103222e-05 0.0 
5.312445103222e-05 8.412445019205e-03 0.0 
0.0 0.0 -1.254166199180e-03 
-1.155435508235e-03 4.462044169920e-04 0.0 
4.462044169920e-04 7.190167035892e-03 0.0 
0.0 0.0 -1.110316242656e-03 
-9.785241987209e-04 6.006269753900e-05 0.0 
6.006269753900e-05 5.897359505691e-03 0.0 
0.0 0.0 -8.840149073763e-04 
-9.814056690218e-04 2.078101741112e-04 0.0 
2.078101741112e-04 5.639397818750e-03 0.0 
0.0 0.0 -8.570326279659e-04 
-1.319590243869e-03 -1.168373964399e-04 0.0 
-1.168373964399e-04 8.200864803592e-03 0.0 
0.0 0.0 -1.256337174517e-03 
-1.298927049123e-03 3.872456439500e-04 0.0 
3.872456439500e-04 8.256979916972e-03 0.0 
0.0 0.0 -1.249505442739e-03 
1.588810044440e-04 6.739000714330e-04 0.0 
6.739000714330e-04 2.144145137498e-04 0.0 
0.0 0.0 -1.599837935116e-04 
-1.096094038579e-03 6.855172835755e-05 0.0 
6.855172835755e-05 6.864639960432e-03 0.0 
0.0 0.0 -1.024357608964e-03 
-8.327401503038e-04 -2.617825635292e-04 0.0 
-2.617825635292e-04 3.865808984588e-03 0.0 
0.0 0.0 -5.984289768806e-04 
4.595402762325e-05 -8.016720020432e-05 0.0 
-8.016720020432e-05 3.015012832339e-06 0.0 
0.0 0.0 -2.098673162382e-05 
-1.235862100260e-03 -2.625570613708e-04 0.0 
-2.625570613708e-04 7.934382526740e-03 0.0 
0.0 0.0 -1.249521112489e-03 
-1.211535382329e-03 4.565569816846e-04 0.0 
4.565569816846e-04 7.603855218494e-03 0.0 
0.0 0.0 -1.172189067419e-03 
-1.321360973485e-03 -1.598454139055e-04 0.0 
-1.598454139055e-04 8.157812717265e-03 0.0 
0.0 0.0 -1.251863004148e-03 
-1.704574328015e-04 2.300128264431e-05 0.0 
2.300128264431e-05 1.030856563870e-03 0.0 
0.0 0.0 -1.953152674555e-04 
-1.117901966883e-04 -9.482210033707e-05 0.0 
-9.482210033707e-05 5.817955991869e-04 0.0 
0.0 0.0 -1.292073282250e-04 
-1.214101423412e-03 -2.486194593532e-04 0.0 
-2.486194593532e-04 7.945028851660e-03 0.0 
0.0 0.0 -1.258522865334e-03 
-1.271219324857e-03 4.971693506933e-04 0.0 
4.971693506933e-04 8.177840067003e-03 0.0 
0.0 0.0 -1.257106814994e-03 
2.594232538172e-04 -1.339851872499e-03 0.0 
-1.339851872499e-03 5.141638941498e-04 0.0 
0.0 0.0 -3.217126346404e-04 
-1.334345376368e-03 2.157790183718e-04 0.0 
2.157790183718e-04 8.827191171129e-03 0.0 
0.0 0.0 -1.314710167832e-03 
5.758992691219e-05 1.629967515181e-04 0.0 
1.629967515181e-04 3.408863824387e-05 0.0 
0.0 0.0 -3.929081363831e-05 
-8.415723991859e-04 3.409357994461e-05 0.0 
3.409357994461e-05 4.862419417103e-03 0.0 
0.0 0.0 -7.389643750272e-04 
-5.632071603276e-05 -7.908255579780e-05 0.0 
-7.908255579780e-05 5.951715054384e-04 0.0 
0.0 0.0 -1.313337839019e-04 
-1.324427323831e-03 -2.984557275517e-04 0.0 
-2.984557275517e-04 8.505668996389e-03 0.0 
0.0 0.0 -1.308531455474e-03 
-1.300676432775e-03 1.886676363898e-04 0.0 
1.886676363898e-04 8.425576722081e-03 0.0 
0.0 0.0 -1.254845750201e-03 
-8.984019564796e-04 -1.237198133233e-04 0.0 
-1.237198133233e-04 4.265458849472e-03 0.0 
0.0 0.0 -6.564513288157e-04 
-8.888014077326e-04 1.812789084724e-04 0.0 
1.812789084724e-04 4.952376261473e-03 0.0 
0.0 0.0 -7.541421605440e-04 
-6.276097559503e-04 -6.715782605664e-05 0.0 
-6.715782605664e-05 2.832069501594e-03 0.0 
0.0 0.0 -4.426424662127e-04 
-1.151816338705e-03 4.986859032723e-04 0.0 
4.986859032723e-04 7.600283655027e-03 0.0 
0.0 0.0 -1.203498912175e-03 
-2.674740073154e-04 -5.400123392678e-04 0.0 
-5.400123392678e-04 9.299090651865e-04 0.0 
0.0 0.0 -2.264474151299e-04 
-1.303841109802e-03 1.085882883771e-04 0.0 
1.085882883771e-04 8.492357544012e-03 0.0 
0.0 0.0 -1.260296891839e-03 
-1.191687690371e-03 -1.792572912051e-04 0.0 
-1.792572912051e-04 7.902409115589e-03 0.0 
0.0 0.0 -1.261416966621e-03 
-1.308215205254e-03 3.369873735607e-04 0.0 
3.369873735607e-04 8.413847692259e-03 0.0 
0.0 0.0 -1.260618436842e-03 
-1.275370929010e-03 2.203297067690e-04 0.0 
2.203297067690e-04 8.294911698725e-03 0.0 
0.0 0.0 -1.317725628150e-03 
1.222313271004e-05 1.128127362180e-05 0.0 
1.128127362180e-05 -2.314647535048e-06 0.0 
0.0 0.0 -4.246493646427e-06 
-1.211818034300e-03 4.006014363556e-04 0.0 
4.006014363556e-04 7.983414665776e-03 0.0 
0.0 0.0 -1.263090216482e-03 
-1.073154055867e-03 -5.044780342709e-05 0.0 
-5.044780342709e-05 7.404491594172e-03 0.0 
0.0 0.0 -1.202239909569e-03 
-8.482969471247e-04 5.756566432870e-05 0.0 
5.756566432870e-05 4.934073378721e-03 0.0 
0.0 0.0 -7.439744481034e-04 
-1.294789794099e-03 4.128632800208e-04 0.0 
4.128632800208e-04 8.301439097425e-03 0.0 
0.0 0.0 -1.252574368527e-03 
-7.632240259174e-04 -1.247615584578e-04 0.0 
-1.247615584578e-04 3.481612275262e-03 0.0 
0.0 0.0 -5.383891422301e-04 
-3.003096040968e-04 -1.615487937268e-04 0.0 
-1.615487937268e-04 1.430206630076e-03 0.0 
0.0 0.0 -2.492021827984e-04 
-1.313629829914e-03 -1.230146382652e-05 0.0 
-1.230146382652e-05 8.822541585775e-03 0.0 
0.0 0.0 -1.313490227100e-03 
3.512651625883e-04 2.496523614618e-05 0.0 
2.496523614618e-05 9.331964126241e-05 0.0 
0.0 0.0 -1.176723970536e-04 
-8.447146323437e-04 -2.046082411215e-05 0.0 
-2.046082411215e-05 4.909462012842e-03 0.0 
0.0 0.0 -7.402411036050e-04 
-1.348085845692e-03 2.530918264864e-06 0.0 
2.530918264864e-06 8.606464988216e-03 0.0 
0.0 0.0 -1.313492844077e-03 
-2.497229854947e-04 -6.189559134780e-05 0.0 
-6.189559134780e-05 1.337406434444e-03 0.0 
0.0 0.0 -2.401910970207e-04 
-9.421911629794e-04 -1.661669992897e-05 0.0 
-1.661669992897e-05 5.655702660019e-03 0.0 
0.0 0.0 -8.489638187885e-04 
-1.276280445523e-03 4.696432845470e-04 0.0 
4.696432845470e-04 8.231682282445e-03 0.0 
0.0 0.0 -1.260211869575e-03 
-1.042131282941e-03 -3.353944901092e-05 0.0 
-3.353944901092e-05 5.231045184564e-03 0.0 
0.0 0.0 -7.986629621775e-04 
-1.208709146256e-03 -3.512840286861e-05 0.0 
-3.512840286861e-05 7.690123470060e-03 0.0 
0.0 0.0 -1.148445367820e-03 
-1.362273016930e-05 -1.182361291552e-03 0.0 
-1.182361291552e-03 7.884965128820e-04 0.0 
0.0 0.0 -3.320887640197e-04 
0.0 0.0 0.0 
0.0 0.0 0.0 
0.0 0.0 0.0 
-1.052359765526e-03 -2.552934865100e-05 0.0 
-2.552934865100e-05 6.469023319650e-03 0.0 
0.0 0.0 -9.668795991591e-04 
-1.182130655930e-03 3.563594059290e-04 0.0 
3.563594059290e-04 7.870829341615e-03 0.0 
0.0 0.0 -1.258714341260e-03 
-1.311624000118e-03 2.599452204782e-04 0.0 
2.599452204782e-04 8.471619375797e-03 0.0 
0.0 0.0 -1.263997700767e-03 
-1.012178473530e-03 6.922432419418e-05 0.0 
6.922432419418e-05 6.158161253950e-03 0.0 
0.0 0.0 -9.199601189493e-04 
2.647470927745e-04 7.455276449397e-04 0.0 
7.455276449397e-04 1.486685304712e-04 0.0 
0.0 0.0 -1.771781242482e-04 
-1.250478637346e-03 4.824320061321e-04 0.0 
4.824320061321e-04 7.958988352162e-03 0.0 
0.0 0.0 -1.221038716794e-03 
-9.320485300336e-04 -1.667751956757e-04 0.0 
-1.667751956757e-04 4.597200132756e-03 0.0 
0.0 0.0 -7.060606045914e-04 
-1.200656783891e-03 4.721645169611e-04 0.0 
4.721645169611e-04 7.751960834764e-03 0.0 
0.0 0.0 -1.208939113964e-03 
-1.070653970758e-03 3.740030437558e-05 0.0 
3.740030437558e-05 7.401065294209e-03 0.0 
0.0 0.0 -1.203806565432e-03 
-2.909982514876e-06 1.488514236561e-04 0.0 
1.488514236561e-04 1.789306658980e-05 0.0 
0.0 0.0 -6.421321746397e-06 
-1.092227246100e-03 -1.750499239164e-05 0.0 
-1.750499239164e-05 5.615262148534e-03 0.0 
0.0 0.0 -8.562696210230e-04 
-5.708960077967e-05 -1.112001135559e-04 0.0 
-1.112001135559e-04 5.586929987395e-04 0.0 
0.0 0.0 -1.274563633148e-04 
-1.286136249812e-03 -3.205909886145e-04 0.0 
-3.205909886145e-04 8.133690929480e-03 0.0 
0.0 0.0 -1.263714160583e-03 
-9.761535132734e-04 -1.267872809360e-04 0.0 
-1.267872809360e-04 4.804162128704e-03 0.0 
0.0 0.0 -7.344436328926e-04 
-4.891037710657e-04 3.921955108289e-04 0.0 
3.921955108289e-04 1.942007427042e-03 0.0 
0.0 0.0 -3.215146038458e-04 
-3.883340728744e-04 -5.297006852740e-06 0.0 
-5.297006852740e-06 2.040218536578e-03 0.0 
0.0 0.0 -3.266666666667e-04 
-5.221802544742e-04 3.142786752395e-04 0.0 
3.142786752395e-04 2.396081260473e-03 0.0 
0.0 0.0 -3.859030858720e-04 
-4.643532723477e-04 -6.847349416375e-06 0.0 
-6.847349416375e-06 2.429348412629e-03 0.0 
0.0 0.0 -3.933333333333e-04 
-5.880460427890e-04 2.259415376055e-04 0.0 
2.259415376055e-04 2.861994469718e-03 0.0 
0.0 0.0 -4.526870748299e-04 
-5.389667577120e-04 -6.804025262557e-06 0.0 
-6.804025262557e-06 2.978462680921e-03 0.0 
0.0 0.0 -4.600000000000e-04 
-6.473050156334e-04 1.727942626416e-04 0.0 
1.727942626416e-04 3.336717154907e-03 0.0 
0.0 0.0 -5.192176870747e-04 
-6.144712139930e-04 -6.417158408879e-06 0.0 
-6.417158408879e-06 3.367933189460e-03 0.0 
0.0 0.0 -5.266666666667e-04 
-7.109436799071e-04 1.285541719908e-04 0.0 
1.285541719908e-04 3.807150921548e-03 0.0 
0.0 0.0 -5.860204081633e-04 
-6.853888581673e-04 6.201834011282e-06 0.0 
6.201834011282e-06 3.914136364457e-03 0.0 
0.0 0.0 -5.933333333333e-04 
-7.741251423872e-04 1.050422606297e-04 0.0 
1.050422606297e-04 4.286196800977e-03 0.0 
0.0 0.0 -6.525251918948e-04 
-7.681459693767e-04 3.705640173290e-05 0.0 
3.705640173290e-05 4.300928271438e-03 0.0 
0.0 0.0 -6.600000000000e-04 

SCALARS node_materi_plasti_kappa_shear float
LOOKUP_TABLE default
4.018595016637e-04
3.089753889168e-03
5.782851735544e-03
5.918183804685e-03
3.534406101045e-04
5.777185496190e-04
8.655346567894e-04
1.225178696612e-03
1.561289241519e-03
1.871659154863e-03
2.181083715770e-03
2.488964856422e-03
2.787137593187e-03
3.091771098928e-03
3.420472284368e-03
3.710467865470e-03
3.939561491463e-03
4.240577622205e-03
4.533842638206e-03
4.816933074020e-03
5.104668969230e-03
5.391975952764e-03
5.664103688175e-03
5.924781152092e-03
5.917884078783e-03
5.912198488963e-03
5.915363934694e-03
5.905144694759e-03
5.903457440159e-03
5.903348825921e-03
5.903761712110e-03
5.904265203747e-03
5.905318048855e-03
5.891395232290e-03
5.888128140164e-03
5.888680312796e-03
5.877931512601e-03
5.860031142375e-03
5.843163873243e-03
5.826784160533e-03
5.822850206754e-03
5.815960623432e-03
5.800025919692e-03
5.784362356774e-03
5.761776212317e-03
5.737855144386e-03
5.711749137531e-03
5.696108572039e-03
5.671644922162e-03
5.650827538949e-03
5.628366488181e-03
5.614080868870e-03
5.604140386821e-03
5.593036124330e-03
5.565915778014e-03
5.555192109801e-03
5.573004876633e-03
5.580306717995e-03
5.596307166112e-03
5.614091302200e-03
5.629810666475e-03
5.640837494200e-03
5.663093814390e-03
5.686920133380e-03
5.716693701825e-03
5.739758391817e-03
5.726679333637e-03
5.759394314008e-03
5.766547388258e-03
5.773558049937e-03
5.793695355299e-03
5.800384027879e-03
3.373278433029e-03
3.702017582457e-03
4.003145076898e-03
4.293988028575e-03
4.595203178701e-03
4.888984289506e-03
5.184208240141e-03
5.464856448975e-03
5.776378587400e-03
0.0
3.081614032412e-03
4.378618974845e-04
9.313671065223e-04
1.273596264124e-03
1.452348660903e-03
1.575876928335e-03
1.839092757794e-03
2.132793436960e-03
2.435412037652e-03
2.742854806992e-03
1.353641191736e-03
1.540487309266e-03
1.848687914648e-03
2.157438038011e-03
2.464376355407e-03
2.763613688910e-03
3.033283060944e-03
3.047551184854e-03
3.052691208087e-03
3.048980415926e-03
3.100970999415e-03
3.055386088564e-03
3.048944342912e-03
3.057111577284e-03
3.066860764030e-03
3.068512091509e-03
3.063486917503e-03
3.060147944086e-03
3.055345893607e-03
3.060924048497e-03
0.0
0.0
0.0
0.0
3.010556392939e-05
1.524327839584e-04
1.995857095858e-04
2.767971837970e-04
3.769179784358e-04
3.253807271213e-04
3.117581124918e-04
3.606568275965e-04
3.857262083461e-04
3.906419353076e-04
3.716692121618e-04
3.690405021818e-04
3.649158742688e-04
3.750961897123e-04
3.938961504005e-04
1.409396847695e-03
1.386105863852e-03
1.381974684041e-03
1.382016341606e-03
1.382624219910e-03
1.383292903057e-03
1.383802341887e-03
1.384082771972e-03
1.384208325298e-03
1.384235158304e-03
1.384210517394e-03
1.384129826348e-03
1.384244950605e-03
1.384900831650e-03
1.386371714391e-03
1.388331907604e-03
1.391473517832e-03
1.395081432030e-03
1.402025102012e-03
1.408087308571e-03
1.425531729766e-03
1.432058100387e-03
1.359035837396e-03
1.503710853602e-03
1.563264015597e-03
1.541819981905e-03
1.533515452539e-03
1.530749929635e-03
1.526512742426e-03
1.523991147098e-03
1.521462715804e-03
1.520000732908e-03
1.519373259278e-03
1.519112239051e-03
1.518688350821e-03
1.518233377000e-03
1.517797439737e-03
1.517289149115e-03
1.516573233522e-03
1.515655005308e-03
1.514795103623e-03
1.514285677842e-03
1.514558152049e-03
1.516766357273e-03
1.531646280250e-03
1.838274221278e-03
1.827642067065e-03
1.826933390294e-03
1.827334425569e-03
1.828247054489e-03
1.829485851769e-03
1.830712470314e-03
1.831486639508e-03
1.832077787242e-03
1.832953756020e-03
1.833892061319e-03
1.834434545344e-03
1.834261549352e-03
1.835206308822e-03
1.837211607732e-03
1.841012575748e-03
1.841393986030e-03
1.843823439171e-03
1.861376219882e-03
1.784560400915e-03
2.080506824934e-03
2.164948252942e-03
2.154100839180e-03
2.150515564044e-03
2.148527180390e-03
2.146829621685e-03
2.148399684790e-03
2.148269732465e-03
2.147251103362e-03
2.145502430008e-03
2.144742881416e-03
2.144585681651e-03
2.143007155335e-03
2.141326361852e-03
2.140089070988e-03
2.139324946174e-03
2.139237355337e-03
2.141352669433e-03
2.151708895370e-03
2.461087216651e-03
2.449937346399e-03
2.449035342414e-03
2.450513446923e-03
2.450644149295e-03
2.452642955489e-03
2.454778138053e-03
2.455902509536e-03
2.454538383279e-03
2.457438007012e-03
2.459393424546e-03
2.458960398410e-03
2.459214310986e-03
2.454295807747e-03
2.458028484257e-03
2.475695803071e-03
2.389521690566e-03
2.696529334491e-03
2.782001887569e-03
2.769038020761e-03
2.765913210012e-03
2.768177298345e-03
2.769449690573e-03
2.765618434112e-03
2.764713207464e-03
2.764281696244e-03
2.762786239059e-03
2.760748228383e-03
2.759266427299e-03
2.760944420823e-03
2.756978941966e-03
2.764313748951e-03
2.781014989081e-03
2.805265326569e-04
6.987967846243e-04
1.138663496479e-03
1.416159959173e-03
1.484224648128e-03
1.730609436774e-03
2.006286172887e-03
2.301780023271e-03
2.604607703320e-03
2.917242865590e-03
9.738600395069e-04
5.435588587201e-03
2.909988311951e-04
3.769847250244e-05
5.523350165746e-03
1.570944169196e-03
3.259014405966e-03
5.458606763578e-03
1.964336709912e-03
5.566973844380e-03
2.569306611317e-03
5.632953359091e-03
2.974125210141e-04
5.671758588449e-03
3.203440197606e-03
2.038890301765e-03
4.045860618713e-03
5.716180375961e-03
5.780776132195e-03
5.820339983969e-03
5.787783236705e-03
5.807930197893e-03
3.336276229903e-03
3.342041558882e-03
3.361792062102e-03
4.441169448529e-03
5.674307051814e-03
0.0
3.209899088955e-04
4.945795996265e-03
3.327462179655e-03
1.042267579418e-03
5.707024864185e-03
5.532622783008e-03
5.619797893241e-03
5.423578043402e-03
5.471772884167e-03
3.436383270429e-04
3.333005330644e-03
5.529223749367e-03
5.037839075619e-03
2.638587871684e-04
2.642361659730e-03
5.873210275008e-03
1.763677943653e-03
1.340334044123e-03
2.263467496582e-03
2.874799860949e-03
4.248124597869e-04
3.869122312403e-03
5.743109238437e-03
3.285007242827e-04
5.592525333234e-03
3.331816214928e-03
3.445762685372e-03
3.598635432457e-03
3.735913935781e-03
3.890935618439e-03
4.012600674008e-03
3.849474617287e-03
4.126514031565e-03
3.959165169884e-03
4.176038116471e-03
4.235988580970e-03
4.064707878218e-03
4.341402437136e-03
4.167240197337e-03
3.894151677151e-03
3.992834958239e-03
3.721936449487e-03
3.816849981585e-03
4.088667098279e-03
3.907021233887e-03
3.638494610824e-03
3.722863223661e-03
3.459179651477e-03
3.537390187834e-03
3.278134638251e-03
3.349761859775e-03
3.611638012721e-03
3.416809574398e-03
3.159803868816e-03
3.218051688491e-03
2.967054440755e-03
3.013255720382e-03
3.274741419647e-03
3.060407839341e-03
2.799033525006e-03
2.837141687482e-03
2.575225456547e-03
2.604333461748e-03
2.339006943104e-03
2.356936139518e-03
2.652093179226e-03
2.407825459181e-03
2.096105658174e-03
2.161022888783e-03
2.499076110119e-03
2.280206439540e-03
2.629068977315e-03
2.442266900798e-03
2.092139772061e-03
2.292183785287e-03
2.630236405014e-03
2.506325631077e-03
2.190661895186e-03
2.422274426006e-03
2.721982461051e-03
2.641933182030e-03
2.372758104436e-03
2.584384885052e-03
2.850333968712e-03
2.779077813445e-03
2.534557373612e-03
2.709557774217e-03
2.962454448322e-03
2.875190167875e-03
3.136631662821e-03
2.629761375739e-03
2.778979644167e-03
2.533618166994e-03
2.669371918058e-03
3.335780224915e-03
2.417052975495e-03
2.301133563289e-03
2.544153619348e-03
2.809569658580e-03
2.280488059570e-03
2.403129281843e-03
2.126768242516e-03
2.337020972949e-03
4.180692697777e-03
2.249003779132e-03
1.959755581014e-03
1.842529391951e-03
1.658290441270e-03
4.057689887828e-03
4.345234894460e-03
4.214494829484e-03
4.512207963410e-03
4.386116896851e-03
1.781237856866e-03
4.515858041588e-03
4.632785065629e-03
3.375865563346e-03
2.914340702826e-03
2.837997481989e-03
2.532048550751e-03
2.378710134929e-03
2.668313152737e-03
3.233044162886e-03
3.411145406702e-03
3.516648249659e-03
3.695606962541e-03
3.809881520442e-03
3.987932871345e-03
3.868387923180e-03
4.160380401702e-03
4.035401995459e-03
4.109927676280e-03
3.929071965477e-03
4.326541573449e-03
4.196853341751e-03
4.486612097014e-03
4.352559495553e-03
4.065464170358e-03
4.216259007439e-03
3.932665926102e-03
2.974206145827e-03
3.176937453123e-03
3.316135238148e-03
3.514584502752e-03
3.655690360847e-03
3.851432524779e-03
3.992906615051e-03
3.810423676568e-03
4.443438443787e-03
1.828572061533e-03
1.806415762240e-03
1.513365747016e-03
1.563989916259e-03
1.243214007741e-03
1.411260727777e-03
1.087408529277e-03
9.280634857496e-04
7.696745497683e-04
7.727047061156e-04
6.380213861808e-04
9.424950275726e-04
3.683920707972e-03
3.721810168106e-03
4.055539867157e-03
3.931687734683e-03
1.545289606018e-03
4.502587431745e-03
4.237803823005e-03
4.054767645798e-03
4.147689587509e-03
1.469037962723e-03
1.381279309045e-03
1.636872751770e-03
4.676612476866e-03
4.548915297300e-03
4.373011447568e-03
1.596671411329e-03
4.457517107573e-03
6.726180917699e-04
4.361759767158e-03
4.647438517847e-03
3.749070434487e-03
4.262666346844e-03
4.139562493484e-03
1.058263721451e-03
1.328795762681e-03
1.257951778391e-03
1.615059101371e-03
1.617776829754e-03
1.784704992927e-03
1.664404533731e-03
1.851897133188e-03
1.923512677117e-03
1.920863832566e-03
1.732826179112e-03
1.789080397445e-03
4.789640175199e-03
4.933105548269e-04
3.623293427982e-03
4.549397453839e-03
4.326717748868e-03
4.840106465985e-03
4.712783082347e-03
4.418649943636e-03
4.585859736983e-03
4.878747721020e-03
4.750919794657e-03
4.456475978691e-03
4.618929314417e-03
4.321775629010e-03
4.485087669046e-03
4.780485262660e-03
4.648645754832e-03
4.352908180169e-03
4.515438133183e-03
4.218119818909e-03
4.376442562231e-03
4.677698654010e-03
1.280455175298e-03
3.975684030661e-03
4.313430537097e-03
2.531248625096e-03
2.795187276442e-03
2.950421176089e-03
3.091354176801e-03
4.540325048563e-03
4.842133621751e-03
1.627886023255e-03
1.806948227217e-03
4.964897247722e-03
4.505647349825e-03
4.219641279943e-03
2.730984817609e-03
2.680252985846e-03
2.508656173216e-03
2.453261305901e-03
2.619408054872e-03
2.295804407583e-03
3.740263927180e-03
4.943332949813e-03
1.736869985241e-03
1.441819622179e-03
4.792252417499e-03
3.639826983595e-03
3.882064491805e-03
3.960472891563e-03
4.161603615821e-03
4.245857029619e-03
4.449138486875e-03
4.538270851724e-03
4.336412104350e-03
4.467009293726e-03
4.637465802825e-03
4.227760771006e-03
3.603493058884e-03
2.015316274690e-03
1.151528373984e-03
1.494680084950e-03
1.401763515938e-03
1.725734234278e-03
4.692766413527e-03
4.744201478353e-03
4.646812231519e-03
2.391216520205e-03
2.541437442855e-03
4.590954612420e-03
4.090617543142e-03
4.159541705089e-03
4.020881279016e-03
1.028169191453e-03
1.414727337198e-03
5.043491496533e-03
1.828932906125e-03
1.917980713017e-03
4.157180774186e-04
1.730461438410e-04
4.691724722002e-03
4.992960999119e-03
3.232526540781e-03
3.376337074583e-03
4.517813292037e-03
1.573664134280e-03
5.136914764881e-03
3.818178697522e-03
3.485662865048e-03
2.929371560799e-03
1.726704283358e-03
1.445214139705e-03
2.001081890038e-03
1.816948000307e-03
1.537558582793e-03
4.841861112859e-03
5.166500773962e-03
4.432736485775e-03
4.128543821065e-03
4.737743923515e-03
1.242267063270e-03
4.872712079514e-03
4.648563616368e-03
4.934717953700e-03
4.841015803806e-03
1.998284811115e-03
2.023831337705e-03
1.929656289699e-03
2.012827717834e-03
3.685637869250e-03
2.160195855781e-03
3.453630867072e-03
3.353268669804e-03
3.189580292168e-03
2.780580474833e-03
2.697012491619e-03
1.850761695031e-03
3.058179809856e-03
3.092459470665e-03
3.782098167745e-03
3.330348654579e-03
5.071602464651e-03
5.237586080772e-03
4.054791370477e-03
3.911736450825e-03
1.227723328770e-03
1.121568548935e-03
3.305144710569e-03
4.722576138818e-03
5.125546474561e-03
5.249094215458e-03
5.084093944170e-03
4.665047890294e-03
1.576387794071e-03
3.131769936580e-03
4.332121020711e-04
3.548502236301e-03
8.886689387002e-04
4.364114879908e-03
4.929747689709e-03
5.074378233997e-03
4.790835636385e-03
3.303647652991e-03
3.622953727387e-03
3.407028331038e-03
3.087385769992e-03
2.928470296600e-03
3.025957624230e-03
2.770242371404e-03
2.146257545189e-03
2.105072283453e-03
5.074226657025e-03
4.945890381019e-03
5.132442016699e-03
5.036778597884e-03
4.913108523956e-03
4.718978319234e-03
1.854189815065e-03
2.451969709865e-03
5.326205974980e-03
3.245806195750e-03
5.032929921038e-03
4.895632072523e-03
8.703516401929e-05
5.025155932237e-04
5.299729360747e-03
1.862195518962e-03
1.925793576571e-03
1.786850721610e-03
5.508894573325e-03
3.317615670200e-03
5.206554443836e-03
2.947814730022e-03
5.436495255461e-03
3.710224019945e-03
2.542778381884e-03
4.340023150483e-03
5.139724345049e-03
5.473155703650e-03
3.856151046115e-03
3.706636097451e-03
3.986363479487e-03
8.597848081307e-04
4.948557720353e-04
5.105588847389e-03
2.215579397184e-03
2.383580716268e-03
1.610091948116e-03
1.853488942060e-03
3.371371645262e-03
3.226095624709e-03
4.460118615317e-03
4.646317835839e-03
4.077799721507e-03
3.673670130341e-03
3.349970931866e-03
3.156166832522e-03
5.356340387661e-03
5.560199060828e-03
2.148566688317e-03
1.947252295954e-03
2.277219304698e-03
5.452662980312e-03
5.357012637058e-03
5.217066698957e-03
7.819578528788e-04
1.028971749725e-03
1.479365826605e-03
1.088843442230e-03
5.358763484459e-03
5.206986646545e-03
5.554350471510e-03
1.646365469631e-03
4.227084436487e-03
4.981659535795e-03
4.824566320775e-03
5.205837116450e-03
4.665431215243e-03
4.979351549170e-03
5.045785100976e-03
6.553725280387e-06
5.354913579491e-03
3.735880701652e-03
0.0
3.596581939605e-03
3.776236102998e-03
3.431628553560e-03
1.322961065373e-03
3.627378963851e-03
3.821605526455e-03
5.613183195734e-04
5.602994573649e-03
5.605292770001e-04
6.792338181858e-04
5.201033617940e-03
5.054577875215e-03
5.350694268135e-03
5.195925285154e-03
4.911596497334e-03
5.072562886383e-03
3.571136890228e-03
5.391533904623e-03
5.225263310295e-03
5.570873285067e-03
2.672019548462e-03
2.112700823482e-03
2.016942320669e-03
1.807045388934e-03
5.367508392991e-03
5.211741918196e-03
4.791087967570e-03
4.504528282397e-03
3.617380192862e-03
3.592243224651e-03
3.871542763848e-03
3.825760515629e-03
4.113486033420e-03
4.067343757730e-03
4.345783660312e-03
5.267440361509e-03
1.658829135304e-03
2.980180790998e-03
5.045745089381e-03
4.837810433997e-03
2.604840179930e-03
2.359528337880e-03
5.236949940379e-03
2.139698474170e-03
5.776025953178e-03
4.548865527331e-06
9.778909536360e-05
2.339238525722e-03
2.860933532174e-03
2.233233218599e-03
2.157897013088e-03
4.004695448910e-03
9.235095768594e-04
1.682665914814e-03
4.384602592843e-03
1.382892764948e-03
4.658101181556e-03
2.105930324669e-03
3.025966663440e-03
1.860371278765e-03
2.156903041045e-03
3.791766830717e-03
3.575521711054e-03
3.414449332742e-03
2.082739350568e-03
2.302944948856e-03
2.030320299130e-03
3.548903922870e-03
4.919586046203e-03
5.037796762255e-03
5.310613898604e-03
5.154282845662e-03
4.869442501820e-03
4.979196796726e-03
5.263482143390e-03
5.097588445123e-03
5.433286767238e-03
5.203085790594e-03
4.911819673152e-03
5.013424306316e-03
5.289013913456e-03
4.727439554445e-03
5.236156713520e-03
2.555895745055e-03
9.111497954272e-05
4.210174297477e-04
3.201712461661e-03
5.730004135783e-03
5.767445976811e-03
1.691075707631e-03
5.643473628579e-03
3.519780408461e-03
1.047073323882e-03
5.592957634279e-03
4.751520745493e-03
4.579435651060e-03
4.463201836768e-03
5.793236110746e-03
4.123046406902e-03
5.509305537426e-03
3.389446893060e-03
3.279327038173e-03
2.961278145953e-03
4.801619878836e-03
5.436694213567e-03
5.157649565966e-03
5.160321964187e-03
4.861485784401e-03
5.448713258893e-03
5.717599457513e-03
5.706213826985e-03
1.828494135708e-03
1.709398695910e-03
1.898258451700e-03
1.622333472901e-03
1.412743391040e-03
1.316736111381e-03
1.628168335130e-03
1.039665837842e-03
4.929832743955e-03
5.492129088288e-03
3.625564248662e-03
3.432597322909e-03
3.134856267973e-03
2.952066020253e-03
3.078747520708e-03
3.351373813983e-03
2.815770384213e-03
4.041389319165e-03
5.510043080626e-03
3.303884447530e-03
2.928688293770e-03
3.336341398281e-03
3.593836274312e-03
3.598511107039e-03
3.869249033601e-03
3.623805167776e-03
3.516608453604e-03
3.658527646077e-03
3.515347475486e-03
3.794985028764e-03
3.639781273069e-03
3.373627075467e-03
3.921733030934e-03
3.752559113767e-03
3.333440693931e-03
1.541531548535e-04
5.940250931269e-04
7.027142990941e-04
1.021409890230e-03
8.359819815989e-04
1.303920167999e-03
1.039423496534e-03
3.284076278483e-04
3.019271284436e-04
6.566057884129e-04
3.288717913001e-04
5.940028616348e-04
1.062033452019e-03
1.367334253023e-03
5.652286702243e-03
2.938936405259e-03
2.805289880450e-03
2.499233211098e-03
2.662705054473e-03
3.052456379495e-03
2.341669267002e-03
2.236323217213e-03
3.229285700949e-04
4.419598349488e-04
4.410447408450e-04
7.207625795544e-04
7.074768685298e-04
4.420400412776e-04
4.449633113940e-04
3.145644272533e-04
4.504548672274e-04
7.268015370500e-04
3.062409538729e-04
4.745527215494e-03
4.902505264739e-03
5.544916367284e-03
3.368924595429e-03
2.544811655954e-04
5.780998861492e-03
5.813842834379e-03
5.817013326087e-03
5.233971751005e-03
5.365637462079e-03
5.788240472877e-03
2.014050555547e-03
5.434538857935e-03
5.267458791713e-03
1.311421764019e-03
2.008026884127e-03
4.362324178154e-03
3.910057017267e-03
4.933262515921e-03
4.079022426720e-03
4.641099795521e-03
5.158355521769e-03
1.213464950072e-03
4.185417172818e-03
4.076798602367e-03
4.811798339392e-03
2.086149546152e-03
3.238993663622e-03
1.348867022610e-03
5.359250132040e-03
3.285416912686e-03
3.046769336548e-03
2.677719312106e-03
2.168475210699e-03
1.957305737071e-03
2.768223087164e-03
3.036664388310e-03
4.286179880856e-03
4.975421168353e-03
3.166773246265e-04
4.414552831620e-03
3.582806630633e-03
4.292263749295e-03
4.187531334710e-03
1.624964030413e-03
4.913094015127e-03
5.399859365631e-03
3.948537402346e-03
1.019982226970e-03
3.882948642930e-03
5.011342776407e-03
4.799927772923e-03
1.909455734444e-03
2.789026983488e-03
3.096861197051e-03
3.026441214717e-03
5.391810110936e-03
3.115333052867e-03
4.488935570888e-03
3.471918703045e-03
2.042934957486e-03
4.758450757247e-03
2.730164700611e-03
5.205251802628e-03
4.359423513210e-03
1.928746000249e-03
5.001431347950e-03
2.931441338209e-03
4.390043822392e-03
3.117148399214e-03
3.803735016467e-03
4.266483966727e-03
3.482072113493e-03
4.216350577803e-03
4.589726999369e-03
7.822158450211e-04
2.336975079915e-03
4.252864040516e-03
4.830810690924e-03
5.492998307562e-03
2.853919931406e-03
4.620197000946e-03
5.283300374483e-03
3.195345026289e-03
1.407849422888e-03
1.052568637253e-03
1.231938885888e-03
2.888387059379e-03
3.468984859371e-03
5.520066455693e-03
4.776767016044e-03
4.191097730844e-03
7.054263323161e-04
3.137270481220e-03
4.930209733183e-03
2.967745864271e-03
4.518076980286e-03
3.471719766141e-03
5.320909655121e-03
2.513659337608e-03
5.087932046227e-03
4.157539429139e-03
1.929448282595e-03
3.328255837959e-03
5.415880323612e-03
4.493880815661e-03
3.756679585458e-03
2.829619919497e-03
2.715238429679e-03
3.628276273171e-03
3.993174405771e-03
5.804322562982e-03
4.644362204700e-03
4.291233033703e-03
3.502523749532e-03
3.813462889229e-03
7.047390220056e-04
2.825859966298e-03
3.651715310585e-03
1.384942781952e-03
3.032571676708e-03
5.114951343620e-03
3.797843583975e-03
1.739058177563e-03
3.939088055833e-03
2.408697712716e-03
4.407302233334e-03
4.073717321279e-03
4.269608694399e-03
7.894202949830e-04
3.833002126981e-03
5.075427847675e-03
2.404246341971e-03
3.233663163957e-03
4.694223929722e-03
2.107126776239e-03
3.545482769992e-03
4.553232214609e-03
3.920507140127e-03
3.187539066147e-03
3.865534957540e-03
2.217505343363e-03
1.917452006600e-03
1.657786857477e-03
1.956380160446e-03
4.746672213180e-03
1.005389459169e-03
4.623386601130e-03
1.307883538802e-03
1.891532021104e-03
4.345633367675e-03
4.169109331877e-03
2.143128441899e-03
1.729669733719e-03
2.136474112095e-03
3.495395175694e-03
2.347008504077e-03
2.321698774103e-03
5.562109209316e-03
2.479278600157e-03
5.832033053261e-03
5.683459550606e-03
3.569571471478e-03
1.841669118824e-03
0.0
1.939425135395e-03
2.198379986357e-03
4.544915456455e-03
3.572687871249e-03
2.077081277084e-03
5.482725273702e-03
5.548817509372e-03
4.594253848124e-03
4.650854355195e-03
4.026711817750e-03
5.298348689818e-03
3.310673635212e-03
5.319704039765e-04
4.366888493405e-03
1.596020396402e-03
1.727925572495e-03
1.537504339033e-03
2.155926239816e-03
1.066640011348e-03
1.470469770676e-03
5.133441966827e-03
3.576035110635e-03
4.538549050418e-03
1.190734353883e-03
5.563426082931e-03
5.226029974003e-03
5.618784336637e-03
4.858869215134e-03
1.131768423013e-03
3.817527287724e-03
5.388671225134e-03
4.831755994392e-03
5.661150035348e-03
3.527768805689e-03
5.594510040717e-03
8.645247776374e-04
5.592056671628e-03
4.830647828208e-03
3.948871847594e-03
3.795468355754e-03
5.483498521481e-03
5.518494078473e-03
7.078378622743e-04
4.578727725803e-03
2.665021533502e-03
8.704557035289e-05
5.306855478618e-03
5.101857700586e-03
5.457161495010e-03
7.154962728763e-04
4.367291898862e-04
5.308036467256e-03
5.475077044311e-03
1.415797628064e-03
5.866481278788e-03
1.720779943565e-04
3.266292359391e-03
4.330017662913e-04
5.682371966829e-03
5.607182569852e-03
2.919687531898e-03
3.339776257796e-03
1.951427265437e-03
5.094079203513e-03
8.720869757284e-04
5.646101319162e-03
5.274827266557e-03
5.610655463052e-03
5.543108792546e-03
1.443335536965e-05
5.340000167234e-03
4.934198621273e-03
3.315096198721e-03
5.545224744200e-03
2.394333441960e-03
1.003430899199e-03
5.853061777030e-03
3.539454610573e-04
3.294611847679e-03
5.738597030996e-03
9.205396441291e-04
3.785517905279e-03
5.505285211453e-03
3.560630679607e-03
5.121626185149e-03
1.319457347623e-03
0.0
4.321439572445e-03
5.262500811899e-03
5.642111831980e-03
4.116674015646e-03
7.838175614556e-04
5.331973850864e-03
3.136604846599e-03
5.194131730829e-03
4.931303994474e-03
1.509091238136e-04
3.813324024854e-03
4.130724803800e-04
5.442551602023e-03
3.274124271133e-03
1.416508909055e-03
1.408302020406e-03
1.679286936992e-03
1.670388510905e-03
1.968639986938e-03
2.024811344556e-03
2.272195221506e-03
2.288799502470e-03
2.577527492663e-03
2.642045162662e-03
2.890176481776e-03
2.907269203429e-03

SCALARS node_materi_plasti_phimob float
LOOKUP_TABLE default
1.943629173375e+01
1.219141156746e+01
2.056322242173e+01
1.968489822861e+01
-2.833566049130e+01
-3.160418135143e+00
4.799659127823e+00
9.371008617080e+00
1.205172114922e+01
1.380677241535e+01
1.518935212699e+01
1.632123857248e+01
1.722874031980e+01
1.801023784290e+01
1.868108627084e+01
1.910975476841e+01
1.941304158326e+01
1.974808998683e+01
1.999570339238e+01
2.017682340113e+01
2.032528704804e+01
2.044533871773e+01
2.052473340852e+01
1.970607205510e+01
1.970095769189e+01
1.970686604337e+01
1.971372414204e+01
1.970591731225e+01
1.972119613301e+01
1.972493262952e+01
1.974546091827e+01
1.976833544573e+01
1.979255534870e+01
1.980165597732e+01
1.984331658490e+01
1.987565653709e+01
1.992615210047e+01
1.995986614926e+01
2.001526182018e+01
2.007100471665e+01
2.013816489222e+01
2.022460879614e+01
2.032193386491e+01
2.042373142503e+01
2.048992101259e+01
2.059690518080e+01
2.067815739863e+01
2.074743842336e+01
2.079636400230e+01
2.086120040173e+01
2.087633636036e+01
2.090633989464e+01
2.088865407216e+01
2.090868720790e+01
2.090345565695e+01
2.087649218071e+01
2.085484976114e+01
2.083039600483e+01
2.079993577353e+01
2.077560299551e+01
2.075142511459e+01
2.072643400070e+01
2.071030543988e+01
2.068302761610e+01
2.064767974230e+01
2.062484959860e+01
2.063599344571e+01
2.059298463306e+01
2.059906322488e+01
2.058692536404e+01
2.057955523397e+01
2.058038540283e+01
1.382688242971e+01
1.510178797016e+01
1.608447650340e+01
1.687394415084e+01
1.755367940425e+01
1.811975565284e+01
1.862194410434e+01
1.906061244381e+01
1.945057449697e+01
1.592732655391e+01
1.172723216592e+01
2.860918721976e+01
2.126890335409e+01
1.598136176959e+01
-2.456460015300e+00
-1.732208760596e+01
-6.509881852820e+00
1.207585002733e+00
6.098754108480e+00
9.331006588510e+00
-4.906639493352e+01
-3.217632999914e+01
-9.830564656514e+00
7.692648446356e-01
6.391628097932e+00
9.775392706595e+00
1.189276276489e+01
1.198240318828e+01
1.198142202747e+01
1.193885066961e+01
1.214371199751e+01
1.190541780730e+01
1.183881653220e+01
1.182411195492e+01
1.182594316064e+01
1.177667126163e+01
1.171398074219e+01
1.166597944128e+01
1.162716423602e+01
1.163321533869e+01
8.999111269125e+00
7.007963435418e+00
7.463451722458e+00
8.846193985963e+00
8.585016461657e+00
-8.232737263500e+00
-3.953215413091e+01
-4.445382994669e+00
4.134845408952e+01
-9.374302116299e+00
-5.971485439724e+01
-5.812326631466e+01
-7.812474926573e+00
4.110920672858e+01
4.135775922085e+01
4.142129538454e+01
8.999999999681e+01
8.994748961441e+01
8.987041150232e+01
-4.916407040724e+01
-5.067515384698e+01
-5.096372352570e+01
-5.131648219718e+01
-5.188135419671e+01
-5.262638315131e+01
-5.349588612638e+01
-5.434955498949e+01
-5.500131361743e+01
-5.537987062049e+01
-5.554153554976e+01
-5.560532676577e+01
-5.562861445371e+01
-5.563927408197e+01
-5.563488509467e+01
-5.562357256105e+01
-5.551758746460e+01
-5.545434499547e+01
-5.521328920755e+01
-5.462893591161e+01
-5.134402479739e+01
-7.589355118968e+00
1.571697062759e+01
-3.062300777240e+01
-3.064072332162e+01
-3.489209456235e+01
-3.563950149873e+01
-3.578719434639e+01
-3.597767284159e+01
-3.608129517698e+01
-3.619499000109e+01
-3.628580543702e+01
-3.636438922027e+01
-3.641326215696e+01
-3.640911976735e+01
-3.629256168300e+01
-3.604048403420e+01
-3.568407845359e+01
-3.530416603551e+01
-3.496469723646e+01
-3.468764764067e+01
-3.448045770019e+01
-3.434152076324e+01
-3.415961997864e+01
-3.317754812721e+01
-1.054218030946e+01
-1.063888324514e+01
-1.060030160862e+01
-1.056501820525e+01
-1.052802312636e+01
-1.048909146248e+01
-1.044889719818e+01
-1.040917180220e+01
-1.036576531915e+01
-1.031694956629e+01
-1.026614308604e+01
-1.021997117857e+01
-1.018290696427e+01
-1.014053382679e+01
-1.010310119300e+01
-1.005813845176e+01
-1.004665318379e+01
-9.929113486820e+00
-8.785582607672e+00
-1.017812638410e+01
-9.692381770220e-02
9.406346459652e-01
5.079170866847e-01
4.563594035079e-01
4.584191413066e-01
4.607480546273e-01
4.865024293532e-01
5.006692118188e-01
5.055942345564e-01
5.035496753990e-01
5.048028079984e-01
5.092004636492e-01
5.054867794206e-01
4.979721184907e-01
4.911607706644e-01
4.838745263530e-01
4.856680676641e-01
5.750082817120e-01
8.249457300349e-01
6.285155659675e+00
6.251357220875e+00
6.239832350460e+00
6.235406333452e+00
6.221429009176e+00
6.210567769830e+00
6.197644794258e+00
6.174308659768e+00
6.140291599560e+00
6.121495243286e+00
6.094850899553e+00
6.055589116043e+00
6.018083806255e+00
5.967704886628e+00
5.972692866377e+00
6.208588550291e+00
5.488949679184e+00
8.972320543594e+00
9.486886763546e+00
9.373417335777e+00
9.399821539743e+00
9.448754126970e+00
9.497341261623e+00
9.526750891505e+00
9.563939297337e+00
9.603515819905e+00
9.633823927308e+00
9.657443045824e+00
9.678854188015e+00
9.704994433113e+00
9.710825369198e+00
9.763230582445e+00
9.850405122931e+00
3.199334880069e+01
2.456561761782e+01
1.828796168224e+01
1.213763442531e+01
-1.262989315321e+01
-9.965938039738e+00
-1.341810334812e+00
4.396689756687e+00
8.149949404501e+00
1.076937409937e+01
2.228493663461e+01
2.116852475793e+01
-1.398659878651e+01
1.223101455554e+01
2.095997545228e+01
1.093832897414e+01
1.839360596335e+01
2.111699410797e+01
7.120075103953e-01
2.073335253856e+01
8.047774234803e+00
2.071312182844e+01
-1.443544202208e+01
2.016780348326e+01
1.250782018501e+01
1.459851857146e+01
1.958269577705e+01
1.985144265796e+01
1.967076177228e+01
1.954201345012e+01
1.951286338126e+01
1.960276441205e+01
1.320260518154e+01
1.335302541907e+01
1.355903684518e+01
1.722732348285e+01
2.061311365193e+01
1.114313878009e+01
1.202003669848e+01
2.026097196654e+01
1.350434185601e+01
7.371888368200e+00
1.967964021000e+01
2.095396929248e+01
2.046083643690e+01
2.121885559131e+01
2.109117452616e+01
-9.461942899629e+00
1.321651764857e+01
2.087676864246e+01
1.837661650998e+01
-3.891940187828e+01
1.682465118783e+01
1.959298944611e+01
1.339979392680e+00
1.803713248059e+01
4.655362428741e+00
1.056110351233e+01
2.917536762766e+01
1.568441823565e+01
2.058474830237e+01
3.558138987609e+01
1.924025932534e+01
1.322464016813e+01
1.386753273291e+01
1.443084047312e+01
1.506535564606e+01
1.555512924257e+01
1.602915258910e+01
1.559966784149e+01
1.648677232840e+01
1.612645945139e+01
1.643616134501e+01
1.693999004168e+01
1.664404540233e+01
1.738332516153e+01
1.715007801849e+01
1.636356795543e+01
1.694155560587e+01
1.610236196365e+01
1.676495784485e+01
1.748997716969e+01
1.738299109620e+01
1.663393584711e+01
1.732447102319e+01
1.656223553903e+01
1.732418203162e+01
1.656356285533e+01
1.755407066494e+01
1.815180322304e+01
1.874509646370e+01
1.824820243609e+01
1.960683400092e+01
1.930310867891e+01
2.062927317040e+01
2.070852428249e+01
2.166412466126e+01
2.178214034651e+01
2.270298517140e+01
2.302005972147e+01
2.378300309452e+01
2.429912817429e+01
2.485737390604e+01
2.425903323815e+01
2.512745912255e+01
2.586672895021e+01
2.588999126440e+01
2.516156155174e+01
2.569138363067e+01
2.501006318025e+01
2.533149943624e+01
2.601836323030e+01
2.544135895284e+01
2.486743110135e+01
2.480365896092e+01
2.528494870614e+01
2.449219634239e+01
2.415756536610e+01
2.374464683572e+01
2.390796630873e+01
2.310386964460e+01
2.307191057843e+01
2.241809475791e+01
2.222904570382e+01
2.158196344551e+01
2.185088142406e+01
2.107429163859e+01
2.138705114070e+01
2.057717536631e+01
2.018029908707e+01
1.943331228066e+01
1.919223407060e+01
2.157343861883e+01
1.819680217795e+01
1.836583247840e+01
1.815010903675e+01
1.905327120802e+01
1.691837073948e+01
1.708586881376e+01
1.564170701532e+01
2.341703545241e+01
1.800207180380e+01
1.603087370846e+01
1.439132073753e+01
1.368172172575e+01
1.219923775680e+01
1.602327908943e+01
1.683980590551e+01
1.645041257089e+01
1.721820982891e+01
1.688507776055e+01
1.314902334668e+01
1.763678157628e+01
1.754063444352e+01
1.570586677638e+01
1.765280042683e+01
2.453122291028e+01
1.727014364465e+01
1.638946004875e+01
1.748066785023e+01
2.198566201902e+01
2.156303179798e+01
2.201818425266e+01
2.163459260461e+01
2.197335416292e+01
2.162738827756e+01
2.131008646218e+01
2.133100809458e+01
2.104026515300e+01
2.187003886638e+01
2.222396482077e+01
2.108141073839e+01
2.081990415029e+01
2.087526410905e+01
2.064440397332e+01
2.051615604836e+01
2.038087162063e+01
2.018183781414e+01
2.441520309130e+01
2.398510497287e+01
2.389197163112e+01
2.350578811809e+01
2.342188271505e+01
2.307532681365e+01
2.298908285914e+01
2.324869497562e+01
1.781508178757e+01
2.673529883105e+01
2.671666464905e+01
2.770381921427e+01
2.765875772427e+01
2.877589815257e+01
2.861773066051e+01
2.976822458728e+01
2.956070852941e+01
3.024638877088e+01
2.963103924769e+01
3.004163462109e+01
2.893811975394e+01
1.916166143847e+01
2.306010156005e+01
2.268282616323e+01
2.258630961608e+01
1.110963277973e+01
2.050984334458e+01
2.203475750343e+01
2.238194239094e+01
2.282440962639e+01
1.069908398945e+01
2.922146326203e+01
2.786330677546e+01
1.757503846389e+01
1.727517700155e+01
2.211832964616e+01
1.191121903433e+01
2.129252641696e+01
3.040200797256e+01
2.028323454164e+01
2.041583916043e+01
2.092673563223e+01
2.227147712114e+01
2.210949213461e+01
2.843602971490e+01
2.731331544643e+01
2.713064088200e+01
2.495620253755e+01
2.543425420164e+01
2.305466038069e+01
2.136671556831e+01
1.963735058073e+01
2.139456973587e+01
1.834250719998e+01
1.486226559611e+01
1.449839831122e+01
2.058820571165e+01
3.002368431418e+01
1.540768742251e+01
2.181205648392e+01
2.257706705528e+01
1.791119149214e+01
1.764165708308e+01
1.696735660418e+01
1.736792714299e+01
1.798763754120e+01
1.773588180680e+01
1.708264850771e+01
1.747125988716e+01
1.677593711296e+01
1.719257894080e+01
1.782751040495e+01
1.757382640410e+01
1.690077387509e+01
1.730445006367e+01
1.658429192192e+01
1.700824340373e+01
1.767070185117e+01
9.144960957194e+00
2.301220991475e+01
2.260145207530e+01
1.678766129637e+01
1.768391230773e+01
1.832873525717e+01
1.842180316409e+01
1.739431957653e+01
1.801018725342e+01
2.788921578848e+01
2.642605996306e+01
1.817717191896e+01
2.022628770001e+01
2.003937977913e+01
1.894313146388e+01
1.693241803455e+01
1.851769370231e+01
1.604132182194e+01
1.477622744884e+01
1.801646825477e+01
2.261730777643e+01
1.815758798073e+01
1.290260383581e+01
9.880211948866e+00
2.036794433357e+01
2.343350017266e+01
1.864819788487e+01
1.951455179103e+01
1.908182313189e+01
1.981634607409e+01
1.946888145002e+01
2.007867471946e+01
2.044423236027e+01
2.186743316248e+01
2.058591062050e+01
1.666666982468e+01
2.292979977156e+01
2.011720293697e+01
7.239216632627e+00
1.020501476375e+01
1.053722742195e+01
1.289617674229e+01
2.183149353616e+01
1.981177245885e+01
1.929892797780e+01
1.325432870289e+01
1.270539378712e+01
2.196382544654e+01
1.607363404693e+01
1.632032296820e+01
1.595624084226e+01
6.576381070485e+00
1.049982336442e+01
1.830713052549e+01
2.613666418689e+01
2.452710737114e+01
2.982865929439e+01
2.853272452653e+01
1.773521323370e+01
1.829650131012e+01
1.895077502612e+01
1.900375612727e+01
2.212231010564e+01
1.075650484536e+01
1.853120624466e+01
2.312390775492e+01
2.351712975073e+01
1.782138219815e+01
2.552667235821e+01
2.655201314597e+01
2.228137434787e+01
1.447515678143e+01
1.173552808641e+01
2.178800902618e+01
1.852939781936e+01
2.093631740733e+01
2.090421515506e+01
2.094414730450e+01
5.953240368748e+00
2.156207840914e+01
2.021469037227e+01
1.966223434300e+01
1.929782473362e+01
2.428589108984e+01
2.241887462139e+01
2.222243523534e+01
1.997854066307e+01
1.515348770176e+01
2.233568545433e+01
1.506626982832e+01
1.421832011037e+01
1.376066873449e+01
1.436881313249e+01
1.273621474005e+01
2.634529910843e+01
2.394884790606e+01
1.895738378261e+01
2.031017349371e+01
2.246309636285e+01
1.838024903377e+01
1.867253600607e+01
1.610477064752e+01
1.570503373270e+01
7.500158314360e+00
5.440474823538e+00
2.101530265605e+01
2.153681352017e+01
1.846898731883e+01
1.871083175402e+01
1.843613261426e+01
2.205796631491e+01
2.738004950579e+01
2.418478529905e+01
2.871178887811e+01
2.078217545811e+01
1.693154899248e+00
1.809564399465e+01
2.034112682180e+01
2.045769576549e+01
2.163618315016e+01
1.322743165348e+01
2.149919268385e+01
2.221610146755e+01
1.271039485732e+01
1.206504771728e+01
1.333224284327e+01
1.144481031617e+01
2.119856548069e+01
1.926357382058e+01
2.013697397120e+01
2.069228588827e+01
1.967347464828e+01
1.935860752965e+01
2.165398000630e+01
2.196961635438e+01
1.370384173084e+01
1.044115656470e+01
1.880309246406e+01
1.333648682360e+01
2.130921449831e+01
2.129010409317e+01
2.492211843894e+01
2.549875200421e+01
1.879264343947e+01
1.916993810026e+01
1.668607515754e+01
2.116535964727e+01
2.048399079640e+01
1.349080247134e+01
2.042592990450e+01
1.437649752148e+01
1.899503042612e+01
2.202174693280e+01
2.046778710333e+01
2.242702441196e+01
1.854326702047e+01
1.905168314098e+01
1.540409041236e+01
1.493101110200e+01
1.579046575600e+01
2.982790369199e+01
2.861674947948e+01
1.846085561963e+01
1.554247652760e+01
1.616250843483e+01
1.140398174635e+01
1.458423042989e+01
1.949032945222e+01
1.957853520073e+01
1.852428955414e+01
1.861225449666e+01
1.845649696962e+01
2.313517647851e+01
2.347775674133e+01
2.392308546834e+01
1.886863246999e+01
1.916705653706e+01
2.278939908668e+01
2.394561868529e+01
2.039647155529e+01
1.900937851947e+01
2.052395647476e+01
2.056909573755e+01
-2.112368442980e+00
2.818302960547e+00
2.369328687736e+01
2.557939451902e+01
1.894347543165e+01
1.869870156429e+01
1.921791064584e+01
1.255344415242e+01
2.135968830947e+01
2.168397967409e+01
2.196975793472e+01
2.139667139055e+01
2.150867052326e+01
2.135570218110e+01
2.093061900432e+01
2.097609494941e+01
1.890284347172e+01
1.507809503165e+01
1.625959430028e+01
1.459163986775e+01
1.526995688843e+01
1.395866491484e+01
1.019669498902e+01
1.457932100782e+01
1.522393740691e+01
-1.085037002742e+01
1.925557056568e+01
-8.549945579231e+00
-2.795299619946e+00
2.109874476945e+01
2.108227527788e+01
2.094030286641e+01
2.091862557828e+01
2.100228429083e+01
2.084376310168e+01
1.439550969222e+01
2.077157315999e+01
2.071359458811e+01
2.070645570092e+01
9.785102386597e+00
1.757949151322e+01
1.350395383192e+01
1.051728174262e+01
1.978802247066e+01
1.943808994071e+01
2.022248430678e+01
2.005091071248e+01
1.471499182178e+01
1.467948308158e+01
1.565422959633e+01
1.554953427649e+01
1.637634050254e+01
1.626243681375e+01
1.698448564042e+01
2.074884547701e+01
1.789643932757e+01
1.163160239396e+01
2.162131587033e+01
2.192835451524e+01
1.083775333161e+01
7.717401560100e+00
2.124855337862e+01
2.387564388018e+01
1.951630432908e+01
1.512581354191e+01
2.237864288024e+01
2.214228638155e+01
1.297360412468e+01
1.494471522163e+01
1.127003943319e+01
2.279152619158e+01
1.389025028245e-01
2.246246613775e+01
1.704339854625e+01
2.081484975419e+01
2.010073422284e+01
2.490998782768e+01
1.560549942483e+01
2.418672396385e+01
2.024679785450e+01
1.576493622975e+01
1.453746942009e+01
1.396324121744e+01
2.555509566705e+01
1.028954296776e+01
5.891167987213e+00
1.587659296184e+01
1.815381581001e+01
1.844049823060e+01
1.894262847861e+01
1.871995994400e+01
1.817859359947e+01
1.848498217771e+01
1.899713003767e+01
1.879654196101e+01
1.934706657440e+01
1.909667817869e+01
1.859269331089e+01
1.890720602286e+01
1.933489760090e+01
1.839526281288e+01
2.133023869787e+01
2.193809774904e+01
2.615337553296e+01
2.710613820878e+01
1.560808047101e+01
1.979258939451e+01
1.968940574619e+01
2.716614510956e+01
2.029164337691e+01
1.468868863174e+01
3.006561788103e+01
2.059169435051e+01
1.785916711925e+01
1.755364737692e+01
1.719670367061e+01
1.964120907265e+01
1.618261670556e+01
2.102082595493e+01
2.347678773743e+01
2.331089587497e+01
2.374973405955e+01
1.825117348477e+01
2.119290302576e+01
2.157704507705e+01
2.154904829884e+01
2.197438987554e+01
2.114507115721e+01
1.996666260355e+01
2.008140588485e+01
2.369881926991e+01
2.532689000516e+01
2.510180007131e+01
2.632317795631e+01
2.687733555862e+01
2.757794578856e+01
2.678340809975e+01
2.874849618241e+01
1.905545461127e+01
2.105142172124e+01
2.237054024435e+01
2.281522050927e+01
2.297071491257e+01
1.898407778368e+01
1.970878276400e+01
2.017175577165e+01
1.824022847387e+01
2.028280142530e+01
2.100019678178e+01
2.387503491544e+01
1.990048472784e+01
1.320829266835e+01
1.437716053059e+01
1.438202605250e+01
1.541138213753e+01
1.450019996842e+01
1.945349751371e+01
1.945309779940e+01
1.907325800071e+01
1.947456439713e+01
1.914034270435e+01
1.869630032592e+01
1.950328922194e+01
1.921625565027e+01
1.326169796069e+01
9.958939533712e+00
1.230096360510e+01
1.091815883497e+00
1.229313512101e+01
1.989855533986e+01
1.864577551881e+01
2.354336222762e+01
2.007794187169e+01
-2.670232941771e+01
-6.469892156415e+00
-1.073381367054e+01
-1.123262015973e+01
3.481533882494e+00
8.547652311850e+00
2.059036737627e+01
1.765591241633e+01
1.734401429176e+01
1.641508893787e+01
1.700583873082e+01
1.801239149385e+01
1.582690505501e+01
1.543324732783e+01
3.640455600196e+01
-9.264507443330e+00
-1.102751989254e+01
1.787338045397e+00
1.453930129859e+00
-9.297686367378e+00
-9.681195832708e+00
-1.264247978571e+01
-1.046998761326e+01
9.776870659583e-01
-1.369812803776e+01
1.785168634826e+01
1.815902790978e+01
2.091942280703e+01
1.350880701422e+01
-3.911439565931e+01
1.947545981088e+01
1.953938102316e+01
1.954201792375e+01
2.038805171641e+01
2.044568768323e+01
1.949123033437e+01
1.522329280470e+01
1.917877428043e+01
1.874008177248e+01
2.899588166083e+01
1.703665027485e+01
2.002374006124e+01
2.069629969745e+01
2.051170858907e+01
2.009543432224e+01
2.071086130615e+01
2.154402361920e+01
9.016751962436e+00
1.644844610997e+01
1.622623505782e+01
1.792189177704e+01
1.501234194714e+01
1.856649071443e+01
9.283651116976e+00
2.025638820734e+01
1.476328019544e+01
2.248657377401e+01
1.817083462502e+01
1.680321182876e+01
1.750044881421e+01
2.054949393658e+01
2.068578483984e+01
2.156031694731e+01
1.824260121698e+01
-3.453858562930e+01
2.172112299405e+01
2.121281461217e+01
1.665589065523e+01
2.267633747044e+01
1.609810240116e+01
1.807198924295e+01
1.895610065912e+01
1.566119883238e+01
4.805164845361e+00
1.555419518702e+01
2.150633367345e+01
1.786650604853e+01
1.395654962054e+01
2.472374570501e+01
1.682376313709e+01
1.156990180647e+01
1.893228233039e+01
2.243784828174e+01
2.241455975070e+01
2.369800868268e+01
1.465296067038e+01
2.120664036397e+01
2.449477609764e+01
1.859889738014e+01
1.890669223425e+01
2.647433850701e+01
1.822892385243e+01
2.353836524508e+01
2.232699035385e+01
1.452332928447e+01
1.794233350842e+01
1.763581888417e+01
1.986632544175e+01
1.981204654989e+01
2.144640738615e+01
2.896310850730e+01
2.036663027357e+01
1.653844771214e+01
2.031688371436e+01
1.905981252025e+01
1.592280634540e+01
2.106413155584e+01
1.874466497717e+01
2.039158010148e+01
1.097424593460e+01
2.785306954676e+01
2.842186055598e+01
2.334710545632e+01
2.072045209633e+01
1.923496961018e+01
2.087541011289e+01
2.244703028299e+01
2.502081904450e+01
1.245664260903e+01
2.072970675757e+01
2.434920988404e+01
2.229362764857e+01
1.878004323280e+01
2.047755035809e+01
8.736864435593e+00
2.063710181403e+01
2.273700301329e+01
2.556461883859e+01
1.352257159758e+01
2.064331128158e+01
2.233824699235e+01
2.008978333074e+01
2.434989644239e+01
9.369192190990e+00
2.048818926029e+01
1.794804678860e+01
1.962443307052e+01
2.218955501304e+01
1.683828851750e+01
2.000655254228e+01
2.237447228754e+01
1.140265972229e+00
1.073801260342e+01
1.989395835821e+01
2.770028541444e+01
2.381798687968e+01
2.140709486421e+01
1.982599357441e+01
2.680103036692e+01
1.979264515109e+01
6.432659460374e+00
1.724420844023e+01
1.977807067294e+01
1.847019617035e+01
9.639205819429e-01
2.084836657524e+01
2.034548446258e+01
1.982283173603e+01
2.330137313092e+01
1.790857016593e+01
2.620996099076e+00
2.303802417037e+01
1.891549485707e+01
2.143156807361e+01
2.297818985151e+01
2.275474000463e+01
6.912602418963e+00
1.483947380924e+01
1.214121147631e+01
2.607655018973e+01
1.897052295595e+01
6.772364449628e+00
1.802403747647e+01
7.109992838084e+00
2.579209767821e+01
2.166717810713e+01
1.653548839174e+01
2.481486308638e+01
1.307935594411e+01
2.399439852023e+01
2.265779342720e+01
2.303461453108e+01
2.185507032162e+01
1.917792585619e+01
2.112461768313e+01
1.953967009452e+01
2.054809572340e+01
1.457663320290e+01
-2.430848085895e+00
1.062259542740e+01
8.877797876665e+00
1.870537028896e+01
1.822603892704e+01
1.461411427905e+01
1.682296204549e+01
1.953716167545e+01
2.085117795124e+01
1.755220809554e+01
2.217428502498e+01
2.184434333113e+01
1.881673241877e+01
1.334250828852e+01
-1.282543621976e+01
1.989036651998e+01
2.127486445302e+00
1.522313349221e+01
1.943847864706e+01
1.518256241516e+01
6.054694761935e+00
1.553708882185e+01
2.157453666206e+01
1.441684791835e+01
2.127687642360e+01
1.982629669548e+01
1.920135206699e+01
2.110839136785e+01
2.078486366620e+01
2.119993984163e+01
2.294555447810e+01
1.523562957721e+01
2.004919159710e+01
1.800159731043e+01
2.067347301899e+01
1.418310967381e+01
1.923798603415e+01
2.703888630670e+01
1.924729829883e+01
1.874155742646e+01
1.585871852479e+01
1.518331728889e+01
2.050752335930e+01
1.940186492200e+01
2.616540080155e+01
1.749974028138e+01
1.714739044846e+01
1.960220295358e+01
2.109739142247e+01
1.917816109220e+01
2.059513881909e+01
1.801844696014e+00
-1.453267185680e+01
2.124476419716e+01
1.975158893749e+01
2.384064563834e+01
1.963077241556e+01
2.574320148838e+01
1.310194420606e+01
-1.271671284429e+01
2.063013392734e+01
1.924598814612e+01
1.771173739341e+01
1.323366032437e+01
1.421056447153e+01
2.050196405612e+01
-1.143080196939e+00
1.929109577529e+01
2.138288211986e+01
1.934132920049e+01
2.109084717583e+01
1.766889479162e+01
2.094100109357e+01
2.185996138447e+01
1.337379398221e+01
1.933909880049e+01
1.609725353569e+01
5.711007226282e+00
1.957902458823e+01
1.676578562977e+01
1.335381871633e+01
2.055499012391e+01
5.549246720263e+00
1.539278026096e+01
1.967880183131e+01
1.890374810508e+01
1.854939637402e+01
1.222365709692e+01
1.072558188288e+01
1.693099357248e+01
2.123158774055e+01
1.933053811059e+01
1.635910281464e+01
2.706777970905e+01
1.949261696896e+01
1.818899957078e+01
1.994419135869e+01
2.186809572852e+01
2.487177780894e+01
1.928296534104e+01
-1.461941636951e+01
2.084276700703e+01
1.844363694804e+01
2.964372672153e+00
-4.617471987602e+01
-1.475554336571e+01
-1.881580659076e+01
-3.161564090467e+00
-2.899559047352e+00
3.562838609355e+00
3.993007601544e+00
7.654327123916e+00
8.460584016201e+00
1.044209155710e+01
1.105681706121e+01

SCALARS node_materi_stress_average_a_sig float
LOOKUP_TABLE default
-3.774090697150e+00
-7.621503024737e+01
-2.411774228524e+02
-1.902900308801e+02
-1.065720692594e+01
-2.271845601274e+01
-3.466495200445e+01
-4.799379612897e+01
-6.080568594940e+01
-7.347249777923e+01
-8.601697853781e+01
-9.847630660364e+01
-1.108973823143e+02
-1.233605297774e+02
-1.360864172326e+02
-1.485445659808e+02
-1.598603459098e+02
-1.722195736790e+02
-1.849158741965e+02
-1.972326349833e+02
-2.096233979658e+02
-2.221017903128e+02
-2.340666882714e+02
-1.909629440954e+02
-1.902932165190e+02
-1.905102760232e+02
-1.905596218219e+02
-1.903283102601e+02
-1.908779387264e+02
-1.913545864787e+02
-1.913532897032e+02
-1.922151698639e+02
-1.925652256965e+02
-1.927659243322e+02
-1.937289449836e+02
-1.949359990082e+02
-1.954915802776e+02
-1.965014723242e+02
-1.972058152804e+02
-1.986018464280e+02
-2.009069215422e+02
-2.029699157695e+02
-2.052186851163e+02
-2.073908678000e+02
-2.098301620370e+02
-2.123454723112e+02
-2.150170423793e+02
-2.179348503137e+02
-2.209146344532e+02
-2.236922323462e+02
-2.264664135534e+02
-2.288462370759e+02
-2.316759137605e+02
-2.336746783135e+02
-2.350239862080e+02
-2.368286308014e+02
-2.383873507318e+02
-2.396586947297e+02
-2.406402173717e+02
-2.413583286998e+02
-2.416938400944e+02
-2.418301002222e+02
-2.417225542543e+02
-2.419923813580e+02
-2.425490399904e+02
-2.426724250889e+02
-2.408699933759e+02
-2.421162079333e+02
-2.414045144282e+02
-2.416206919716e+02
-2.419564549736e+02
-2.418244889703e+02
-8.855103688176e+01
-1.006043900414e+02
-1.125981328597e+02
-1.242880314063e+02
-1.361969878688e+02
-1.482174886027e+02
-1.599401801704e+02
-1.715229431139e+02
-1.835211158863e+02
-5.577873419501e+01
-8.041646120062e+01
-2.975961380323e+01
-2.600508189479e+01
-2.387306621059e+01
-1.925096118098e+01
-1.950760950591e+01
-3.176368723386e+01
-4.392004525795e+01
-5.602946714540e+01
-6.799643223083e+01
-8.126083554320e+00
-1.541853746485e+01
-2.747380309736e+01
-3.959505630325e+01
-5.171937709465e+01
-6.379213307167e+01
-7.470713663366e+01
-7.551646835699e+01
-7.556060166584e+01
-7.550873769603e+01
-7.728321054844e+01
-7.592181609453e+01
-7.602452142346e+01
-7.628922092699e+01
-7.675157485676e+01
-7.697616029449e+01
-7.732340608090e+01
-7.766895231970e+01
-7.825373009927e+01
-7.902810769123e+01
-7.725526622605e+01
-8.710642221450e+01
-8.864928011076e+01
-8.024813206636e+01
-4.991083705637e+01
-2.069437352225e+01
-1.039090067138e+01
-7.208859013827e+00
-5.707394638534e+00
-5.190508404388e+00
-4.917760655732e+00
-4.856606501116e+00
-4.545540428830e+00
-3.999800767471e+00
-3.863121311120e+00
-3.788216705871e+00
-3.654080841077e+00
-3.380053298970e+00
-3.104652220840e+00
-9.076071034703e+00
-9.068988482162e+00
-9.002629292420e+00
-8.947910350641e+00
-8.858362676708e+00
-8.737427664973e+00
-8.587668312813e+00
-8.410440273594e+00
-8.205814085440e+00
-7.973897834126e+00
-7.715484437104e+00
-7.432432557854e+00
-7.128921054919e+00
-6.809415585386e+00
-6.487553936288e+00
-6.177175649401e+00
-5.919595261455e+00
-5.737003242115e+00
-5.750938605571e+00
-6.012940741246e+00
-6.910284025805e+00
-8.212897041139e+00
-8.502769088800e+00
-1.518485425178e+01
-1.643868511696e+01
-1.453765216070e+01
-1.391108009672e+01
-1.366799856168e+01
-1.355892208783e+01
-1.359491180306e+01
-1.368935061351e+01
-1.383191905977e+01
-1.399212453717e+01
-1.416124945377e+01
-1.432826440327e+01
-1.448770599033e+01
-1.463521223692e+01
-1.476799399482e+01
-1.488481284729e+01
-1.498448683898e+01
-1.506606785521e+01
-1.512981113172e+01
-1.517721794217e+01
-1.522417931915e+01
-1.537168342056e+01
-2.744989624790e+01
-2.739131320905e+01
-2.736260414981e+01
-2.733596233049e+01
-2.730445033779e+01
-2.726591347939e+01
-2.722038339951e+01
-2.717004465899e+01
-2.711985021372e+01
-2.707145416113e+01
-2.703221106489e+01
-2.700972634218e+01
-2.701280220819e+01
-2.706764119704e+01
-2.717830471061e+01
-2.740320239872e+01
-2.772006036714e+01
-2.832151801035e+01
-2.996759533987e+01
-2.857257653000e+01
-4.137353355860e+01
-4.288362512727e+01
-4.142013983435e+01
-4.080758093904e+01
-4.045313094301e+01
-4.015090610384e+01
-3.996540359301e+01
-3.982858485468e+01
-3.973015831859e+01
-3.966537536722e+01
-3.962572471498e+01
-3.959850034263e+01
-3.958308193329e+01
-3.957011641637e+01
-3.956329545705e+01
-3.955821423903e+01
-3.956384052181e+01
-3.957934252263e+01
-3.959336502870e+01
-5.172487795320e+01
-5.172558261943e+01
-5.173976951867e+01
-5.177284047896e+01
-5.181880167383e+01
-5.187163882893e+01
-5.194843269393e+01
-5.202645995765e+01
-5.212784363330e+01
-5.227421103577e+01
-5.246136116459e+01
-5.269619941576e+01
-5.299093874024e+01
-5.333862839761e+01
-5.392365544146e+01
-5.535413238873e+01
-5.383019523055e+01
-6.593390615072e+01
-6.738596600293e+01
-6.611729684248e+01
-6.565901258980e+01
-6.529470405823e+01
-6.499730992930e+01
-6.471195203517e+01
-6.450316419934e+01
-6.441514456010e+01
-6.424318786858e+01
-6.412745479652e+01
-6.404468196814e+01
-6.397377612156e+01
-6.388998991854e+01
-6.391897886631e+01
-6.390378241942e+01
-3.614842100976e+01
-2.771026233523e+01
-2.455281844544e+01
-2.386385837946e+01
-1.729235149156e+01
-2.722937846217e+01
-3.928049224628e+01
-5.140021094450e+01
-6.340728184729e+01
-7.533176682778e+01
-3.226058416887e+01
-2.317626261286e+02
-1.163075536941e+01
-6.279529824015e+01
-2.360536463948e+02
-2.911262019265e+01
-1.302177093670e+02
-2.238099657034e+02
-3.994991157490e+01
-2.142714229924e+02
-6.294814581546e+01
-2.375064407252e+02
-8.795628425744e+00
-2.039634821239e+02
-8.631984031385e+01
-8.037615701917e+01
-1.640993026798e+02
-1.972825682878e+02
-1.916308719518e+02
-1.861903217566e+02
-1.862096767093e+02
-1.891509919213e+02
-9.016771858806e+01
-8.814244099442e+01
-8.819586119115e+01
-1.303506136587e+02
-2.365366992277e+02
-7.540488071055e+01
-8.781018594382e+00
-2.029963694013e+02
-8.625382516812e+01
-4.127092112575e+01
-1.921012987210e+02
-2.200446024736e+02
-2.088994697930e+02
-2.271766393851e+02
-2.345432296885e+02
-2.274539617512e+01
-8.857638740471e+01
-2.346375868448e+02
-1.537531665589e+02
-1.020836712445e+01
-1.047764342454e+02
-1.875604898027e+02
-3.274534460175e+01
-2.968484954985e+01
-5.121650493765e+01
-7.451844870508e+01
-3.791314008143e+01
-1.076184268213e+02
-2.383524609540e+02
-8.158254912678e+00
-1.768268525304e+02
-9.183981352914e+01
-9.769416747328e+01
-1.028301359977e+02
-1.097618900660e+02
-1.154255843668e+02
-1.216970265319e+02
-1.162226803671e+02
-1.281750157114e+02
-1.227277984864e+02
-1.274949956929e+02
-1.347193214480e+02
-1.293689489691e+02
-1.413553306860e+02
-1.361335657944e+02
-1.241455245367e+02
-1.310237893524e+02
-1.189904055039e+02
-1.260133866018e+02
-1.380023001771e+02
-1.331217804523e+02
-1.210745953240e+02
-1.283099988188e+02
-1.162698368468e+02
-1.236497328403e+02
-1.116070951940e+02
-1.191386729853e+02
-1.310378543152e+02
-1.266000505767e+02
-1.147979938763e+02
-1.223165199763e+02
-1.106660150300e+02
-1.181906727264e+02
-1.297027438106e+02
-1.255485799298e+02
-1.142084981988e+02
-1.215069481633e+02
-1.103897430197e+02
-1.175878236776e+02
-1.067248069628e+02
-1.137228509715e+02
-1.244946544482e+02
-1.204198170360e+02
-1.099153471990e+02
-1.162906135333e+02
-1.268463903363e+02
-1.223745225820e+02
-1.330351844798e+02
-1.282316934620e+02
-1.178078066808e+02
-1.232850532516e+02
-1.339088959516e+02
-1.286079105315e+02
-1.181350616978e+02
-1.231277741500e+02
-1.338682407623e+02
-1.281054982065e+02
-1.174050969959e+02
-1.221296793286e+02
-1.331570111985e+02
-1.269298521363e+02
-1.158881657998e+02
-1.205051638299e+02
-1.318553136336e+02
-1.252498897512e+02
-1.368549541082e+02
-1.137814463690e+02
-1.184445838883e+02
-1.068058029111e+02
-1.114845683012e+02
-1.369499071069e+02
-9.967783886634e+01
-9.530029479746e+01
-1.044032112847e+02
-1.163870011331e+02
-9.241191846748e+01
-9.721535387110e+01
-8.505023577572e+01
-9.918488985742e+01
-1.450724201955e+02
-8.995216166244e+01
-7.762250544607e+01
-7.277955797225e+01
-6.520725470199e+01
-1.213329601749e+02
-1.331959433227e+02
-1.267030790663e+02
-1.388899450221e+02
-1.327380562752e+02
-7.016614184768e+01
-1.467597175841e+02
-1.451193858162e+02
-1.089340224358e+02
-1.029526669630e+02
-1.377397789417e+02
-1.021744830099e+02
-9.500635516812e+01
-1.072586897989e+02
-1.434129109926e+02
-1.485893916381e+02
-1.551325459292e+02
-1.604401116539e+02
-1.669955016596e+02
-1.724051601416e+02
-1.657450564963e+02
-1.777932562278e+02
-1.710512599397e+02
-1.789894189495e+02
-1.734293247414e+02
-1.831610996038e+02
-1.763558286888e+02
-1.885152119803e+02
-1.816581243811e+02
-1.694867828276e+02
-1.747452437143e+02
-1.626120215549e+02
-1.440257021149e+02
-1.489268697237e+02
-1.553028146807e+02
-1.603756828262e+02
-1.668421041624e+02
-1.720514089432e+02
-1.785958219367e+02
-1.731773048410e+02
-1.480564519651e+02
-1.061092582200e+02
-9.977127108225e+01
-9.638175684624e+01
-9.009311878714e+01
-8.721026452449e+01
-8.097359461122e+01
-7.875323891799e+01
-8.425332852970e+01
-7.677140079551e+01
-8.107041116247e+01
-7.447812398546e+01
-7.740303395798e+01
-1.383857351171e+02
-1.653675843333e+02
-1.771907841043e+02
-1.702527599639e+02
-6.036083519175e+01
-1.869660094863e+02
-1.854851018550e+02
-1.797308157452e+02
-1.850471163260e+02
-5.774692262386e+01
-7.271600171991e+01
-7.405077969189e+01
-1.446506989956e+02
-1.385869789062e+02
-1.919130148116e+02
-6.279974348680e+01
-1.899247886586e+02
-7.092852700146e+01
-1.800276425215e+02
-1.922642863246e+02
-1.590286610918e+02
-1.822634383142e+02
-1.750756116750e+02
-8.511687071402e+01
-8.034516440750e+01
-7.299410986945e+01
-7.518127265148e+01
-8.356655002751e+01
-7.741077834326e+01
-6.871892240318e+01
-7.042749182345e+01
-8.030560861072e+01
-7.308028998958e+01
-6.266876361219e+01
-6.527196431176e+01
-1.991699983043e+02
-6.920163055704e+01
-1.120642975836e+02
-1.976648337389e+02
-1.904467336346e+02
-1.504765902076e+02
-1.445132112991e+02
-1.325382333141e+02
-1.386135062890e+02
-1.505235797791e+02
-1.447079595864e+02
-1.327518376453e+02
-1.389220899024e+02
-1.269323556140e+02
-1.331792290342e+02
-1.451226533020e+02
-1.394668673230e+02
-1.274918542572e+02
-1.338329817659e+02
-1.218192677111e+02
-1.281912455177e+02
-1.402092880476e+02
-5.067240777363e+01
-1.794160469141e+02
-1.914921246130e+02
-1.004869304073e+02
-1.122679404000e+02
-1.194246480999e+02
-1.247384979315e+02
-1.345523690560e+02
-1.465677198218e+02
-6.583397813045e+01
-6.643385133608e+01
-1.564938183318e+02
-1.853557316464e+02
-1.731193789213e+02
-9.901403189156e+01
-9.100187780281e+01
-8.728689501313e+01
-7.869328323298e+01
-8.274761256123e+01
-7.520968878983e+01
-1.677078527091e+02
-1.513792871876e+02
-6.815299002486e+01
-5.580132752197e+01
-1.975850047454e+02
-1.676200941328e+02
-1.429010605611e+02
-1.501982561419e+02
-1.547965410875e+02
-1.620775640004e+02
-1.667117201675e+02
-1.739514956391e+02
-1.693572455004e+02
-1.872420775273e+02
-1.812357994629e+02
-1.224284679659e+02
-1.584150032020e+02
-8.375716417099e+01
-4.531929127483e+01
-5.352085180923e+01
-5.531495084765e+01
-6.794240508923e+01
-2.042082056875e+02
-1.785754835921e+02
-1.712602044614e+02
-7.012008726402e+01
-7.446194319233e+01
-1.944166600133e+02
-1.207195126647e+02
-1.207522123635e+02
-1.148349965671e+02
-4.170777572680e+01
-5.153198765002e+01
-1.565880187291e+02
-7.573900043558e+01
-6.769047632306e+01
-6.627638946594e+01
-6.629462444450e+01
-1.408403987101e+02
-1.527639350170e+02
-1.316741002169e+02
-1.369227998492e+02
-1.982943241856e+02
-5.702166916981e+01
-1.585310632996e+02
-1.736592344821e+02
-1.619459701700e+02
-1.175893229305e+02
-5.802230838395e+01
-5.877670705861e+01
-9.060085922340e+01
-6.878977898521e+01
-6.056269958298e+01
-2.106478504751e+02
-1.623048912840e+02
-1.766568922304e+02
-1.646965217082e+02
-1.887295020055e+02
-4.482735615642e+01
-2.101356064472e+02
-1.907105037111e+02
-1.825938168843e+02
-1.758471475928e+02
-7.772025882472e+01
-6.956561811161e+01
-5.913452050779e+01
-6.076806694939e+01
-1.106656916766e+02
-8.028083862521e+01
-1.068051025518e+02
-9.984585203742e+01
-9.455449757776e+01
-8.704525083285e+01
-7.916363360372e+01
-9.295198090291e+01
-1.423449443787e+02
-1.264931260184e+02
-1.574183102971e+02
-1.498010513150e+02
-1.569243993024e+02
-1.632140252702e+02
-1.154480994223e+02
-1.097612677846e+02
-4.777291190792e+01
-4.317527004017e+01
-1.419364097112e+02
-2.032935050107e+02
-1.621193651386e+02
-1.681031375625e+02
-1.625074975638e+02
-2.044544230297e+02
-1.022507405368e+02
-1.501331843815e+02
-6.682648615420e+01
-1.412650676943e+02
-3.507899675748e+01
-1.498752223212e+02
-2.029980127700e+02
-2.097704439225e+02
-1.993422102310e+02
-9.233331298854e+01
-1.484466051542e+02
-1.440734473526e+02
-8.761765164470e+01
-8.221687776451e+01
-8.932863348987e+01
-7.691780889371e+01
-9.444579987282e+01
-8.746853716990e+01
-1.912731439463e+02
-1.930355289061e+02
-1.872928769603e+02
-1.808443561734e+02
-2.066385982321e+02
-2.013366046823e+02
-7.276822146612e+01
-6.641845224788e+01
-1.683664111980e+02
-9.302985612216e+01
-2.155110049988e+02
-2.088896556424e+02
-6.670735534212e+01
-6.229085088555e+01
-1.648340666245e+02
-4.994401186291e+01
-5.101947918761e+01
-4.921966313794e+01
-2.278764296692e+02
-8.587876289051e+01
-2.152916671241e+02
-9.175173081353e+01
-1.706589370354e+02
-1.556445499242e+02
-9.513370282673e+01
-1.921927552198e+02
-1.584300088064e+02
-1.713576872788e+02
-1.086447313846e+02
-1.023462856193e+02
-1.142416886657e+02
-6.593558718601e+01
-6.062400230608e+01
-1.575957891796e+02
-8.779221315519e+01
-9.418420781281e+01
-6.043351955948e+01
-7.229095745990e+01
-1.385956284061e+02
-1.334554871814e+02
-1.569709396770e+02
-1.617376310691e+02
-1.475082860840e+02
-1.678125707992e+02
-1.561790816594e+02
-1.505462796529e+02
-1.683838677340e+02
-1.760056451649e+02
-1.009702816636e+02
-9.691296774092e+01
-9.838602834833e+01
-1.740304124937e+02
-2.218422218936e+02
-2.164677034992e+02
-3.039867858138e+01
-3.861921620815e+01
-5.003288203215e+01
-5.174414744944e+01
-1.738049166348e+02
-1.687468798757e+02
-1.804340686418e+02
-6.467463516282e+01
-1.720300019682e+02
-2.163682592772e+02
-2.099923936233e+02
-2.241383326341e+02
-1.919259530879e+02
-2.037785718840e+02
-2.006211458323e+02
-7.007948762382e+01
-1.671659669315e+02
-1.027622857351e+02
-7.227344782822e+01
-9.716119961931e+01
-1.039651443022e+02
-9.080258999779e+01
-5.232346745397e+01
-1.002243961746e+02
-1.080558586047e+02
-2.363497474885e+01
-1.797186657258e+02
-2.288556727257e+01
-2.758861916713e+01
-2.212068291467e+02
-2.143136735626e+02
-2.262462447525e+02
-2.192798170579e+02
-2.074436603721e+02
-2.130114529737e+02
-9.608082389395e+01
-2.265688833299e+02
-2.187023551872e+02
-2.321793237033e+02
-6.989851878117e+01
-6.288540672449e+01
-5.318270428141e+01
-3.992506278948e+01
-1.937908478291e+02
-1.847742229617e+02
-1.964805786127e+02
-1.841103690154e+02
-9.752639602767e+01
-9.678264632833e+01
-1.077518534942e+02
-1.061844693355e+02
-1.171713436571e+02
-1.154782501169e+02
-1.266626909983e+02
-2.050346649275e+02
-3.959884342463e+01
-8.092690567613e+01
-2.135447765295e+02
-2.072283684184e+02
-7.143777872966e+01
-5.870589224387e+01
-2.239874787966e+02
-8.818117502574e+01
-1.868542614683e+02
-6.183322029416e+01
-6.188301765940e+01
-9.133132510694e+01
-8.421195925877e+01
-6.595705388773e+01
-5.757276270973e+01
-1.798163096732e+02
-3.487689493678e+01
-4.934678612799e+01
-1.281565101063e+02
-4.075558572313e+01
-1.905779157230e+02
-9.596085360580e+01
-9.941582501629e+01
-5.817672588198e+01
-7.218334303270e+01
-1.173426455031e+02
-1.041629567387e+02
-9.864309795008e+01
-1.031804791050e+02
-6.149212178949e+01
-4.675898028368e+01
-1.138905316328e+02
-1.569689552197e+02
-1.631708203213e+02
-1.745029271446e+02
-1.694940665164e+02
-1.578280385437e+02
-1.642599389457e+02
-1.757770786859e+02
-1.711756515396e+02
-1.846241392179e+02
-1.777278388750e+02
-1.655701223381e+02
-1.719444366654e+02
-1.832424042781e+02
-1.600779415749e+02
-2.187615978591e+02
-1.027712096166e+02
-6.550720216059e+01
-5.490021862107e+01
-1.040976634209e+02
-1.951634440812e+02
-1.924826074829e+02
-8.321937896029e+01
-2.062450414278e+02
-1.052406969474e+02
-7.177845977963e+01
-2.115751848138e+02
-1.514323737760e+02
-1.458128737844e+02
-1.394538538954e+02
-1.910086510480e+02
-1.203328941961e+02
-2.222674911772e+02
-1.537386338787e+02
-1.468334327959e+02
-1.355152500138e+02
-1.588756860702e+02
-2.300936610418e+02
-2.205626240976e+02
-2.219350328781e+02
-2.100547876567e+02
-2.331134144405e+02
-1.999639067359e+02
-2.023103613900e+02
-8.695677069148e+01
-9.298251120279e+01
-1.027441622635e+02
-9.840774657302e+01
-8.907678535886e+01
-9.393239131131e+01
-1.032865806384e+02
-8.922443911636e+01
-1.735409817266e+02
-2.354206337127e+02
-1.615244374123e+02
-1.559370465481e+02
-1.444334968671e+02
-1.214148437510e+02
-1.283668963734e+02
-1.403281774441e+02
-1.143645920612e+02
-1.574565698902e+02
-2.359544911649e+02
-1.560945235213e+02
-1.233336472645e+02
-8.936150079534e+01
-1.005652383934e+02
-1.015486947334e+02
-1.129103126699e+02
-1.010354721967e+02
-1.437846245841e+02
-1.490098630351e+02
-1.422297512015e+02
-1.542696816927e+02
-1.472499198533e+02
-1.360770257759e+02
-1.593408853668e+02
-1.515081595758e+02
-8.827044777754e+01
-3.881595198319e+01
-4.161756752524e+01
-3.258684527344e+01
-4.715332869978e+01
-5.429624445482e+01
-5.942001425586e+01
-6.275249100966e+01
-5.405652627228e+01
-1.669106965478e+01
-2.771371372388e+01
-1.324187163044e+01
-2.439129697839e+01
-3.936122978061e+01
-5.170984844187e+01
-2.348326845492e+02
-1.170496510898e+02
-1.111027209212e+02
-9.921256625353e+01
-1.057540098490e+02
-1.219280748477e+02
-9.254668850217e+01
-8.816209422260e+01
-8.645130408396e+00
-1.866871697273e+01
-1.760733493679e+01
-2.941602302088e+01
-2.938111607811e+01
-1.902507513095e+01
-1.919511878580e+01
-8.830156110148e+00
-1.933701812094e+01
-3.035204281134e+01
-8.705479175588e+00
-1.423379181834e+02
-1.487867292793e+02
-2.359839647985e+02
-8.887614754246e+01
-1.100686622488e+01
-1.841384014971e+02
-1.868331350576e+02
-1.867417690518e+02
-2.155540178292e+02
-2.217213839984e+02
-1.841917963085e+02
-8.030706150391e+01
-1.808673439164e+02
-1.638752691143e+02
-6.586031743179e+01
-8.012274035622e+01
-1.784956676213e+02
-1.642630320909e+02
-2.044065721896e+02
-1.678519223059e+02
-1.938584565654e+02
-2.223806390562e+02
-4.831544100225e+01
-1.211242548372e+02
-1.161592506021e+02
-1.457804667273e+02
-8.259145751927e+01
-1.304939598553e+02
-5.266009924604e+01
-2.008068926520e+02
-1.016657044833e+02
-1.382588520699e+02
-1.093278193148e+02
-8.785612165845e+01
-7.644466252083e+01
-1.066786195154e+02
-1.301565038798e+02
-1.844763677970e+02
-1.521054895114e+02
-1.086829885493e+01
-1.911017461866e+02
-1.537954038228e+02
-1.265907511840e+02
-1.839119412964e+02
-6.128149418048e+01
-1.508316168824e+02
-1.731602938980e+02
-1.141980866984e+02
-3.999591874764e+01
-1.088066958990e+02
-2.166138579878e+02
-1.507688624500e+02
-7.527348934662e+01
-1.390274776584e+02
-1.071527931366e+02
-8.039195579082e+01
-1.690156086589e+02
-1.327072119598e+02
-1.971087119959e+02
-1.615251901873e+02
-8.055900774674e+01
-2.021294672506e+02
-1.312317961129e+02
-1.626603187305e+02
-1.594319572265e+02
-1.120979661831e+02
-1.562944087408e+02
-1.391091274075e+02
-1.891960028499e+02
-9.665166636416e+01
-1.355901314531e+02
-1.429483208803e+02
-1.339805794832e+02
-1.717195465755e+02
-1.966487208153e+02
-7.150849639642e+01
-8.367959062499e+01
-1.265241555797e+02
-1.855180855854e+02
-1.743049873352e+02
-9.505086538145e+01
-1.953198004251e+02
-1.677004351332e+02
-1.352013646159e+02
-5.545356800164e+01
-6.000277759346e+01
-9.292141015591e+01
-1.285678527212e+02
-1.470920526470e+02
-1.813812783771e+02
-2.006907546263e+02
-1.859868448763e+02
-3.449445167379e+01
-8.659538520295e+01
-2.060736944723e+02
-1.448541138861e+02
-1.957737098126e+02
-1.399369356990e+02
-2.030630077212e+02
-6.425270959072e+01
-2.115885760992e+02
-1.857696328202e+02
-8.558061206267e+01
-8.630512708500e+01
-2.255438404434e+02
-1.980964570974e+02
-1.456790778652e+02
-1.394390643250e+02
-6.870465934754e+01
-1.522708853308e+02
-1.402727816713e+02
-1.902372787613e+02
-2.034714133021e+02
-1.337219365132e+02
-1.454471610870e+02
-1.629640362843e+02
-2.967794620612e+01
-7.540596215624e+01
-1.506035336777e+02
-9.824445056580e+01
-1.448882597181e+02
-2.112509010795e+02
-1.558155420087e+02
-1.078030569985e+02
-1.610482773566e+02
-5.704201294571e+01
-1.402231012455e+02
-1.662921421129e+02
-1.522035419366e+02
-3.173423532291e+01
-1.529019418206e+02
-2.089901820339e+02
-1.024543288207e+02
-1.503460687746e+02
-1.523116538950e+02
-4.539450946973e+01
-1.618983391684e+02
-1.641093017501e+02
-1.601113827365e+02
-1.397796261968e+02
-1.737947292768e+02
-5.363474888380e+01
-7.597650196895e+01
-6.403502542315e+01
-1.130726353194e+02
-1.688599973857e+02
-4.006961158288e+01
-1.534372655351e+02
-4.791167136638e+01
-1.080887350465e+02
-1.798012347323e+02
-1.192317101459e+02
-1.127632724496e+02
-6.801074776366e+01
-1.070482011613e+02
-1.512227410780e+02
-1.114303664953e+02
-1.051091704987e+02
-1.755119402198e+02
-1.093655639715e+02
-1.862759328510e+02
-2.354847063134e+02
-9.542562027850e+01
-3.315489376303e+01
-7.864658264390e+01
-4.631190719843e+01
-9.129136681103e+01
-1.548172047975e+02
-9.594438480909e+01
-8.385440721169e+01
-1.894425007460e+02
-2.173017541533e+02
-1.365518872036e+02
-2.019614501521e+02
-1.676159219563e+02
-1.645363455709e+02
-8.581971403646e+01
-2.287324636270e+01
-1.779881343786e+02
-2.589386380387e+01
-3.999463449333e+01
-3.987683773553e+01
-8.467884652450e+01
-4.119659819544e+01
-2.921963430559e+01
-2.183440672097e+02
-9.768905686358e+01
-1.841165813903e+02
-3.064739154121e+01
-1.788873873605e+02
-2.098202229718e+02
-2.372100793946e+02
-1.964340829517e+02
-4.243150630601e+01
-1.098571579742e+02
-1.981827730121e+02
-1.460964994744e+02
-2.379597018140e+02
-9.705367249667e+01
-1.767578024372e+02
-6.749530428455e+01
-1.767464212722e+02
-1.667518852326e+02
-1.109014066444e+02
-1.107061300645e+02
-2.275376300156e+02
-1.857130190058e+02
-4.633009646387e+01
-1.360597234833e+02
-1.060232779943e+02
-6.486586730256e+01
-2.262124192921e+02
-1.778941294019e+02
-2.268183378391e+02
-2.892316265847e+01
-1.925637530848e+01
-2.273554240610e+02
-1.944641132485e+02
-6.773420744437e+01
-1.897997352875e+02
-5.105458801802e+01
-8.492095435384e+01
-1.865051695086e+01
-2.375593771979e+02
-1.783147746167e+02
-1.166066806979e+02
-9.130830675476e+01
-7.654504616687e+01
-1.957264660237e+02
-3.323611743207e+01
-1.789160989753e+02
-2.265943806684e+02
-1.836834476595e+02
-2.291504878026e+02
-7.101205421101e+01
-2.107653836859e+02
-2.136777268211e+02
-8.548101704477e+01
-1.841379720435e+02
-9.466625130015e+01
-4.015643392437e+01
-1.874459727810e+02
-6.896008610197e+00
-8.455114393170e+01
-2.381081093849e+02
-3.784160583848e+01
-1.042902311772e+02
-1.930571349816e+02
-1.430261147472e+02
-1.578091197564e+02
-5.190686339950e+01
-7.805463310083e+01
-1.255365582176e+02
-2.142051923955e+02
-1.826049765748e+02
-1.174167793701e+02
-5.394845007131e+01
-1.870591949704e+02
-1.260788497026e+02
-1.920990966169e+02
-2.114922733053e+02
-4.657879117941e+01
-1.537295226090e+02
-1.756890401952e+01
-2.292607634349e+02
-1.312604915500e+02
-9.412362198596e+00
-9.814622990947e+00
-2.337302773592e+01
-2.108329387819e+01
-3.608056345804e+01
-3.386471950158e+01
-4.865313109422e+01
-4.532008267373e+01
-6.084935697498e+01
-5.813845149722e+01
-7.290270102874e+01
-6.948580212365e+01

SCALARS node_materi_stress_size_dev_sd_sig float
LOOKUP_TABLE default
5.837506520952e+00
5.122530548785e+01
1.826087996313e+02
1.436104899994e+02
1.255103971548e+01
2.170463404627e+01
2.941149165234e+01
3.859432610055e+01
4.768359757969e+01
5.675844582684e+01
6.607731335817e+01
7.557572807817e+01
8.513840900245e+01
9.489293157441e+01
1.049161302619e+02
1.143242760389e+02
1.228027039536e+02
1.322379697288e+02
1.417249160005e+02
1.508026126057e+02
1.598790553028e+02
1.689561611614e+02
1.775374882068e+02
1.442048196780e+02
1.438024702611e+02
1.439684877131e+02
1.440609452792e+02
1.438181115009e+02
1.442451326296e+02
1.444637016107e+02
1.446565427664e+02
1.452928743893e+02
1.456855769418e+02
1.457811510329e+02
1.466620437103e+02
1.474994460865e+02
1.482423368455e+02
1.489773481467e+02
1.498374916663e+02
1.510496189048e+02
1.528529285609e+02
1.548104654138e+02
1.568650904485e+02
1.588204076909e+02
1.607963813608e+02
1.630309233954e+02
1.652579853265e+02
1.676050491829e+02
1.699019537345e+02
1.721453031701e+02
1.741404219125e+02
1.759396088763e+02
1.778050790138e+02
1.792927965490e+02
1.801958174238e+02
1.813009625831e+02
1.822624545312e+02
1.830092520865e+02
1.835226342970e+02
1.838862254254e+02
1.839862974195e+02
1.839446033182e+02
1.837825303749e+02
1.838202144565e+02
1.840110740423e+02
1.839712794262e+02
1.827868340485e+02
1.834154303667e+02
1.829604089728e+02
1.830424019453e+02
1.832324801093e+02
1.831466499843e+02
6.037464995965e+01
6.978231996550e+01
7.910867627017e+01
8.838568661302e+01
9.799687461786e+01
1.076712467405e+02
1.174717895424e+02
1.273052918684e+02
1.374511185981e+02
4.524127564585e+01
4.980855134525e+01
4.347568768862e+01
3.730506682311e+01
3.290685856358e+01
2.176323289011e+01
1.297470278172e+01
1.677739197440e+01
2.367805395935e+01
3.173972955357e+01
4.034053116857e+01
4.754167518421e+00
6.727383215060e+00
1.501161857801e+01
2.381932076558e+01
3.275021642286e+01
4.166495826747e+01
4.988720623901e+01
5.035734531949e+01
5.035436214007e+01
5.015914621211e+01
5.125026294601e+01
5.008213297230e+01
4.981188875222e+01
4.979081623714e+01
4.987427815526e+01
4.968879941196e+01
4.946621592000e+01
4.931299446409e+01
4.922222282390e+01
4.933601838176e+01
3.618700056441e+01
3.318245181908e+01
3.343628537491e+01
3.365713074717e+01
3.314782886105e+01
2.040075214893e+01
6.561670654278e+00
3.668313563833e+00
3.764740469903e+00
3.918386690710e+00
4.173448702471e+00
4.791434303477e+00
4.853401686374e+00
4.636186981981e+00
5.032678795330e+00
5.468556874830e+00
5.700079024230e+00
5.559481998922e+00
5.138082544005e+00
4.121781060509e+00
3.984339695008e+00
3.950926412668e+00
3.906552664334e+00
3.838943223958e+00
3.755546534823e+00
3.664589956410e+00
3.575386268978e+00
3.498905645372e+00
3.448754647870e+00
3.440303403597e+00
3.488045010358e+00
3.603547818835e+00
3.789156821077e+00
4.036229645274e+00
4.311628134150e+00
4.578666693324e+00
4.765658647230e+00
4.814892739194e+00
4.644464575224e+00
4.468416549912e+00
5.176396608977e+00
9.595905528524e+00
7.876248856160e+00
8.436615660014e+00
7.765648610934e+00
7.792664687494e+00
7.868087151362e+00
7.843931053945e+00
7.764827399878e+00
7.635105272401e+00
7.492056438920e+00
7.349324704533e+00
7.216614737268e+00
7.096003067981e+00
6.991714049456e+00
6.904979442649e+00
6.834477004639e+00
6.777822458375e+00
6.732609982017e+00
6.697530516334e+00
6.671269732090e+00
6.652279718917e+00
6.637768687164e+00
6.677825182979e+00
1.494264400176e+01
1.490878153326e+01
1.493094995630e+01
1.496872735514e+01
1.501161474130e+01
1.505972859434e+01
1.511198965880e+01
1.516553534904e+01
1.522313464882e+01
1.528624130821e+01
1.534832676543e+01
1.539978902101e+01
1.543149631191e+01
1.545192202583e+01
1.544599430694e+01
1.541495682850e+01
1.531276247158e+01
1.524267132795e+01
1.573232610558e+01
1.431455589593e+01
2.205714687359e+01
2.377735588314e+01
2.338531003028e+01
2.340744143861e+01
2.347811274162e+01
2.354350475458e+01
2.362812514859e+01
2.368297971430e+01
2.371513069588e+01
2.372812723224e+01
2.374233443271e+01
2.375934195719e+01
2.375897784380e+01
2.375197222426e+01
2.374523183450e+01
2.373666752620e+01
2.373427287035e+01
2.376267998845e+01
2.380615842797e+01
3.276192675337e+01
3.267857407593e+01
3.264020579715e+01
3.262532972006e+01
3.258501587721e+01
3.255273858573e+01
3.251427134930e+01
3.244931697003e+01
3.235626456213e+01
3.229972319320e+01
3.221995805582e+01
3.210648223920e+01
3.199756026259e+01
3.184869791567e+01
3.182980640331e+01
3.226968671169e+01
3.044992814097e+01
3.915011324982e+01
4.099207115469e+01
4.061208129350e+01
4.067650834792e+01
4.082326332422e+01
4.097206523431e+01
4.105831806923e+01
4.117303672019e+01
4.129761328918e+01
4.139365652696e+01
4.146768830042e+01
4.153611242741e+01
4.162167772128e+01
4.163290573705e+01
4.175211154928e+01
4.185956628661e+01
4.992204346125e+01
3.997476007659e+01
3.486800197895e+01
3.040221392556e+01
1.605632280080e+01
1.497516571179e+01
2.067635083546e+01
2.829315739831e+01
3.668712628099e+01
4.554561142753e+01
4.118189607649e+01
1.793172080417e+02
7.383706140085e+00
4.151941040233e+01
1.812067021725e+02
3.105862184547e+01
1.003098696536e+02
1.735106796316e+02
2.383232618520e+01
1.650209512162e+02
3.646667774923e+01
1.808983881954e+02
9.048904105775e+00
1.553140446237e+02
5.378065981561e+01
6.183990002410e+01
1.262228127561e+02
1.487460175290e+02
1.438360474760e+02
1.398316419626e+02
1.394548571587e+02
1.418907533824e+02
5.764899094274e+01
5.801598454189e+01
5.907494172810e+01
9.319900051746e+01
1.797005687451e+02
4.248970488492e+01
1.039572478115e+01
1.550822999024e+02
5.843838576951e+01
3.396732959078e+01
1.441422360509e+02
1.700866904304e+02
1.600427253424e+02
1.763687689634e+02
1.808518534970e+02
1.900498515556e+01
5.743225013577e+01
1.797841744629e+02
1.123898443375e+02
8.622950924944e+00
8.045644287674e+01
1.411322213925e+02
2.572443041466e+01
3.676774584101e+01
2.896002549931e+01
4.477271498129e+01
4.891712172059e+01
7.510873811426e+01
1.807925308500e+02
1.018757449604e+01
1.318024036341e+02
5.794405877890e+01
6.226758487118e+01
6.643791117705e+01
7.176281843412e+01
7.635243098883e+01
8.134476512075e+01
7.685997849062e+01
8.666531255827e+01
8.234697489640e+01
8.607067103988e+01
9.235257615153e+01
8.825018276410e+01
9.838535023149e+01
9.456379000307e+01
8.449901713309e+01
9.112985580553e+01
8.108079764860e+01
8.810381684384e+01
9.810339902547e+01
9.545243006578e+01
8.554291620042e+01
9.328186362924e+01
8.352558610258e+01
9.166135675062e+01
8.210590262917e+01
9.061209411264e+01
9.982993132910e+01
9.900776408391e+01
9.013808189003e+01
9.865275745501e+01
9.018830100760e+01
9.867016807001e+01
1.067817060036e+02
1.066523072194e+02
9.893157389103e+01
1.066477922111e+02
9.930633034161e+01
1.066432928416e+02
9.966400513758e+01
1.064596026336e+02
1.131990029526e+02
1.124157015258e+02
1.059570746163e+02
1.111425775221e+02
1.175703468392e+02
1.154956992452e+02
1.219946533305e+02
1.191503549282e+02
1.127007722912e+02
1.155380699003e+02
1.222533157551e+02
1.179307321909e+02
1.110382707886e+02
1.128020108251e+02
1.200896851753e+02
1.144954416807e+02
1.068475092060e+02
1.082237488604e+02
1.162914680865e+02
1.098135551707e+02
1.013204868302e+02
1.028821373200e+02
1.116914817496e+02
1.047886459030e+02
1.138127922098e+02
9.555349484367e+01
9.766678170197e+01
8.802569687216e+01
9.048106714799e+01
1.144432367824e+02
8.055186836319e+01
7.817794549923e+01
8.340168125287e+01
9.330098740488e+01
7.330656620291e+01
7.654383891418e+01
6.643047714201e+01
9.191546590340e+01
1.053323081561e+02
7.000765148128e+01
5.999533897950e+01
5.621405026139e+01
5.000724351843e+01
8.119595425947e+01
9.103670133242e+01
8.594400670785e+01
9.609363370438e+01
9.124855470127e+01
5.398263107426e+01
1.026138954877e+02
1.011381958573e+02
7.559574465967e+01
8.128134962544e+01
1.242034816079e+02
7.995501688026e+01
7.369621564080e+01
8.355405095335e+01
1.203572464840e+02
1.226373709809e+02
1.288547771122e+02
1.312622591182e+02
1.371827872068e+02
1.397022289606e+02
1.337976494793e+02
1.423218027798e+02
1.364684028607e+02
1.453457210144e+02
1.427697749658e+02
1.450497626107e+02
1.392716098321e+02
1.478939624278e+02
1.422058563217e+02
1.333685328819e+02
1.364222802194e+02
1.274436438718e+02
1.286901959524e+02
1.310249370051e+02
1.355517499019e+02
1.380034973918e+02
1.425389347831e+02
1.450892098537e+02
1.495874622435e+02
1.466020923524e+02
1.047399260457e+02
1.049356161519e+02
9.967413520674e+01
9.896350107950e+01
9.355740340914e+01
9.321808101298e+01
8.752169342069e+01
8.755302687711e+01
9.205968197721e+01
8.644769644901e+01
8.941401110566e+01
8.376611018441e+01
8.486608626364e+01
1.078839171834e+02
1.400822225168e+02
1.473212836852e+02
1.418725878811e+02
4.603846036997e+01
1.452761352418e+02
1.506704332014e+02
1.479565555297e+02
1.536630571827e+02
4.439916620856e+01
8.132318233307e+01
8.034229239316e+01
1.012746634217e+02
9.647199469684e+01
1.556423860419e+02
4.844574876775e+01
1.506626938706e+02
8.077410623060e+01
1.396144253737e+02
1.484855760536e+02
1.277119933912e+02
1.493350292031e+02
1.434994846579e+02
9.077595661484e+01
8.474451306634e+01
7.805639860645e+01
7.663133936760e+01
8.398499748459e+01
7.510512406790e+01
6.639814801575e+01
6.473918532503e+01
7.422130389495e+01
6.419336483021e+01
5.310383614925e+01
5.368172695985e+01
1.539643313830e+02
7.829654481068e+01
7.450424137384e+01
1.584080552404e+02
1.565650554237e+02
1.065694680540e+02
1.018237211298e+02
9.184359638445e+01
9.727377385234e+01
1.073149102424e+02
1.027496202730e+02
9.284940397765e+01
9.827454584467e+01
8.848516380920e+01
9.389610560297e+01
1.037424735035e+02
9.936457408343e+01
8.963659953841e+01
9.504899903700e+01
8.540837517244e+01
9.071293869053e+01
1.004909996755e+02
3.940533867695e+01
1.502868805567e+02
1.574321306145e+02
7.781877008510e+01
8.712920240100e+01
9.329454564977e+01
9.691542404915e+01
9.605839079434e+01
1.059904611863e+02
7.349579034336e+01
7.187896815819e+01
1.115160748194e+02
1.429870441112e+02
1.339771749320e+02
8.176264838887e+01
7.242831597707e+01
7.335544886236e+01
6.345679263995e+01
6.281176404732e+01
6.483312321409e+01
1.401365422134e+02
1.092851479400e+02
5.256910698829e+01
4.213002499122e+01
1.518943593773e+02
1.431655945070e+02
1.090239109087e+02
1.167859053559e+02
1.182467930528e+02
1.257360563280e+02
1.274963979590e+02
1.346915195903e+02
1.330007941437e+02
1.512194290794e+02
1.416774554472e+02
8.621029730355e+01
1.344702455811e+02
7.423399139981e+01
3.520811225143e+01
4.150343569658e+01
4.312309128629e+01
5.244918671704e+01
1.631567812074e+02
1.367273688106e+02
1.295542119825e+02
5.346937981038e+01
5.314287980641e+01
1.567598891136e+02
8.137671523633e+01
8.315195372360e+01
7.887437755545e+01
3.334625058394e+01
4.153684122322e+01
1.128538111839e+02
7.895664964547e+01
7.007176929544e+01
7.520458617505e+01
7.296384552028e+01
1.012994991959e+02
1.111972853173e+02
1.028969306569e+02
1.064526029365e+02
1.602476425720e+02
4.381185448208e+01
1.159356342536e+02
1.464710943144e+02
1.392244562471e+02
9.079168458566e+01
6.421155128510e+01
6.595066708192e+01
8.323105352755e+01
5.542053583977e+01
4.712732692951e+01
1.675385870280e+02
1.174949999816e+02
1.399425883335e+02
1.315427628266e+02
1.483337509547e+02
3.212467259864e+01
1.661000170937e+02
1.465592477445e+02
1.386904356020e+02
1.320174209124e+02
7.739691783828e+01
6.826425287246e+01
6.048201127202e+01
5.860116544146e+01
7.253599079686e+01
7.585667654226e+01
7.104978923810e+01
6.459365989546e+01
6.112874932151e+01
6.281937460460e+01
5.385052026360e+01
9.330521030853e+01
1.258992893989e+02
9.956881553835e+01
1.243971580391e+02
1.265449496855e+02
1.137276049679e+02
1.193970391194e+02
8.006707565027e+01
7.581636394105e+01
3.604327602741e+01
3.192509842791e+01
1.161807757183e+02
1.611507334587e+02
1.167841807833e+02
1.219004781600e+02
1.166027778424e+02
1.643802242269e+02
1.032039116254e+02
1.326195850997e+02
7.410494741500e+01
1.149549722622e+02
2.659217325725e+01
1.080904295315e+02
1.554505453548e+02
1.606047852275e+02
1.588082300431e+02
5.806727384743e+01
1.223123579268e+02
1.215716051464e+02
5.490102986495e+01
5.136432828327e+01
5.808054548262e+01
4.828689950298e+01
8.370322211202e+01
7.503190716672e+01
1.466143379383e+02
1.502200931971e+02
1.415884934355e+02
1.350687753659e+02
1.640566384274e+02
1.617376243950e+02
5.622153201075e+01
4.395097313889e+01
1.230229608460e+02
5.872353280596e+01
1.686652444205e+02
1.639354166986e+02
6.777780387341e+01
6.607254906947e+01
1.213802350337e+02
5.047398545092e+01
4.829566479486e+01
5.239430676378e+01
1.730919222210e+02
5.828518245427e+01
1.642159369059e+02
6.378911174295e+01
1.261799054225e+02
1.292282945047e+02
8.255184332799e+01
1.571840958860e+02
1.160356097412e+02
1.271357234530e+02
7.359143534733e+01
6.919465872715e+01
7.760845553063e+01
7.564246840373e+01
6.870726715851e+01
1.148241206417e+02
6.777919911870e+01
7.274986603418e+01
4.640147994234e+01
5.747817987389e+01
1.090681305100e+02
1.059512795499e+02
1.152107394967e+02
1.181247028142e+02
1.106184830013e+02
1.421783622296e+02
1.347584171494e+02
1.320492965724e+02
1.237544391889e+02
1.305738853775e+02
9.185637282218e+01
9.138521645768e+01
8.465981838295e+01
1.278435923064e+02
1.691732872634e+02
1.657187778278e+02
2.252426922043e+01
2.774304308521e+01
5.606288235283e+01
5.889942395268e+01
1.269819974449e+02
1.220470494359e+02
1.331957965797e+02
5.029960940530e+01
1.383897640260e+02
1.710993187390e+02
1.679380109241e+02
1.751518970967e+02
1.530026980783e+02
1.606579199521e+02
1.565141988829e+02
6.399129847430e+01
1.235998421634e+02
7.017686723529e+01
5.575794698793e+01
6.608135189227e+01
7.159171008998e+01
6.147638781574e+01
4.139808769908e+01
6.674090384380e+01
7.232088316685e+01
1.672340663330e+01
1.333075795611e+02
1.829633723257e+01
2.214482097591e+01
1.716068326797e+02
1.667291299962e+02
1.743097356639e+02
1.693753848433e+02
1.615728435984e+02
1.646746898415e+02
6.478233564864e+01
1.736686074444e+02
1.679601101814e+02
1.771952124515e+02
4.188179936904e+01
5.654643596329e+01
4.569316810740e+01
3.623928021151e+01
1.463472318403e+02
1.378831531244e+02
1.504964945788e+02
1.414136299929e+02
6.690515221861e+01
6.650410542840e+01
7.495513176557e+01
7.388990261562e+01
8.248463841272e+01
8.118395967993e+01
9.002242561716e+01
1.587350559966e+02
4.276957348760e+01
4.942739308233e+01
1.687944447469e+02
1.657647198080e+02
4.559518604845e+01
3.578587574835e+01
1.742987096839e+02
8.460446384917e+01
1.397758540419e+02
4.681653070428e+01
6.023054967257e+01
8.342980291869e+01
5.559995897194e+01
5.442959237128e+01
4.453203717717e+01
1.496849765448e+02
2.410957733564e+01
5.422745491443e+01
9.100088915655e+01
4.666277886811e+01
1.459783762530e+02
9.270794334271e+01
7.247677869534e+01
6.242517361948e+01
6.661230147420e+01
7.828065599961e+01
6.730277395803e+01
6.296908812919e+01
9.983034647301e+01
4.335286171766e+01
3.253822814786e+01
7.807560146051e+01
1.114731627749e+02
1.169241595711e+02
1.272770403751e+02
1.225947255034e+02
1.120650042984e+02
1.178441580407e+02
1.284776500056e+02
1.241819727703e+02
1.367239681810e+02
1.305157211285e+02
1.195443003585e+02
1.257495412274e+02
1.358872485139e+02
1.151771174574e+02
1.710442679819e+02
9.117097751960e+01
6.851217201592e+01
6.246742046207e+01
7.369882074026e+01
1.469839085093e+02
1.444408025202e+02
8.686808760911e+01
1.574460164514e+02
6.843076965803e+01
8.147909883866e+01
1.624931086131e+02
1.064447788024e+02
1.015125997837e+02
9.610846398464e+01
1.431990045901e+02
8.204181437918e+01
1.719620053904e+02
1.329231651053e+02
1.271978132305e+02
1.200996625715e+02
1.132184377110e+02
1.782791983235e+02
1.735427869110e+02
1.743756488608e+02
1.680010801132e+02
1.801352007276e+02
1.514097229076e+02
1.537093438197e+02
8.334704802164e+01
9.124081647313e+01
9.845701282823e+01
9.769849190559e+01
9.116918804886e+01
9.662643142252e+01
1.027200183468e+02
9.490821097164e+01
1.281433165693e+02
1.812512114639e+02
1.347214095473e+02
1.322430489897e+02
1.243044301253e+02
9.636530336410e+01
1.029728521888e+02
1.123801863859e+02
8.987547969045e+01
1.243187118796e+02
1.813524114101e+02
1.360939223515e+02
1.001741849174e+02
5.754181978483e+01
6.564775656138e+01
6.586875269877e+01
7.480807903253e+01
6.646408695011e+01
1.123652645366e+02
1.158017913963e+02
1.101131464391e+02
1.193388161019e+02
1.135968022959e+02
1.049518968159e+02
1.227849141069e+02
1.166380702239e+02
5.759451842158e+01
3.371606305492e+01
3.868580838156e+01
2.592132730214e+01
4.172079470993e+01
5.373042261294e+01
5.624843656367e+01
6.483858612556e+01
5.276516569610e+01
1.013708820105e+01
1.891535413854e+01
7.434129221409e+00
1.564472107392e+01
2.822716889528e+01
3.845566915727e+01
1.784115150419e+02
9.000713963632e+01
8.554818737372e+01
7.621307360078e+01
8.149809331341e+01
9.399005088868e+01
7.106536975259e+01
6.775409416342e+01
1.053308903470e+01
1.856511152140e+01
1.784824981267e+01
2.592041265961e+01
2.555909529325e+01
1.850751782972e+01
1.830041261850e+01
1.011079997970e+01
1.791209505853e+01
2.543295876595e+01
9.548182673691e+00
1.029030846517e+02
1.082631350607e+02
1.809441353241e+02
5.892236698524e+01
8.031026227570e+00
1.380653304475e+02
1.400812712486e+02
1.400862384967e+02
1.642117609162e+02
1.686979585432e+02
1.382846611407e+02
6.297871389884e+01
1.329074232567e+02
1.203995473105e+02
7.481137005079e+01
6.620585042825e+01
1.375290430440e+02
1.304741842155e+02
1.571974250783e+02
1.306514933888e+02
1.508650451481e+02
1.746579387935e+02
3.829072467773e+01
8.419638803232e+01
8.111746387643e+01
1.048642485039e+02
6.384081179897e+01
1.009928268867e+02
4.028273744918e+01
1.535884120240e+02
6.805015303723e+01
1.182381421075e+02
8.653620140696e+01
7.036231884403e+01
6.481290127117e+01
9.060209113673e+01
1.070463859848e+02
1.479656797403e+02
1.104030732426e+02
1.012594453054e+01
1.533414103015e+02
1.250908065464e+02
8.745319197004e+01
1.522124346067e+02
5.433108495483e+01
1.082422399309e+02
1.268365858877e+02
7.672825346967e+01
3.088315333440e+01
7.459354260808e+01
1.704012772693e+02
1.062590383830e+02
5.797139456764e+01
1.258020764214e+02
8.135660709322e+01
4.910740071908e+01
1.247376208982e+02
1.140459007289e+02
1.606990102540e+02
1.395677119352e+02
6.205267477575e+01
1.588188584864e+02
1.190627032620e+02
1.183774742755e+02
1.201081054434e+02
1.092228241466e+02
1.119504879264e+02
1.221584604658e+02
1.545811989617e+02
6.559696080756e+01
1.011495548709e+02
1.011901805771e+02
1.071563267738e+02
1.321538891668e+02
1.560573674981e+02
7.907530014250e+01
7.458111975600e+01
8.654085795542e+01
1.434801020380e+02
1.285415063507e+02
7.209934192164e+01
1.534315299754e+02
1.220939418798e+02
1.096005857681e+02
4.375900975492e+01
6.811175974785e+01
9.747820925307e+01
1.136837007862e+02
1.187706291633e+02
1.338438729382e+02
1.563092411270e+02
1.527643366088e+02
4.416626040246e+01
5.361085177566e+01
1.593511762726e+02
1.291149328603e+02
1.591946760519e+02
1.076917230489e+02
1.561352382010e+02
3.851700043069e+01
1.627042916682e+02
1.538252540820e+02
8.583952033883e+01
5.851972020758e+01
1.723111416775e+02
1.610735654799e+02
1.157045340131e+02
1.249524614118e+02
4.046503303989e+01
1.215244095978e+02
1.029885923302e+02
1.426587951468e+02
1.642812688501e+02
9.119958821910e+01
1.152850808845e+02
1.357745885351e+02
2.539784602812e+01
4.550323038177e+01
1.183574733460e+02
1.005295510894e+02
1.274092559558e+02
1.661480531238e+02
1.215995658522e+02
1.064876954272e+02
1.249668166328e+02
3.246247858212e+01
9.678383651856e+01
1.284049590294e+02
1.126867253819e+02
2.579128378375e+01
1.231954235047e+02
1.595421014732e+02
8.608128273539e+01
1.297890569109e+02
1.072541028734e+02
2.586938963377e+01
1.374361451092e+02
1.223955186867e+02
1.302867055021e+02
1.208872409618e+02
1.451202777701e+02
3.406027374535e+01
5.990891256874e+01
4.928893852802e+01
1.090250316477e+02
1.250967940989e+02
3.291067684249e+01
1.088041020433e+02
3.500151762254e+01
1.043144646625e+02
1.450970137091e+02
8.423616976792e+01
1.056124348274e+02
5.276830567719e+01
9.919877899597e+01
1.282378172058e+02
1.001327644897e+02
9.267787553594e+01
1.304605052113e+02
9.389901330358e+01
1.398653994474e+02
1.786343620760e+02
6.563851690815e+01
2.118035947483e+01
4.163744415221e+01
3.698887146774e+01
7.635939377164e+01
1.113274212801e+02
6.593388732215e+01
6.802879970611e+01
1.413451701195e+02
1.676835966773e+02
9.813545878438e+01
1.631238822482e+02
1.371324771169e+02
1.215105009507e+02
5.752256236161e+01
1.492247891775e+01
1.366494324189e+02
2.510122830766e+01
4.043683539585e+01
4.469018229484e+01
6.531466085463e+01
3.221618653923e+01
3.442843996538e+01
1.719612460552e+02
6.519439130002e+01
1.465281043963e+02
3.875463595845e+01
1.322764793461e+02
1.637294934081e+02
1.810775457130e+02
1.548100001214e+02
4.943408938749e+01
7.281777091416e+01
1.508795055781e+02
1.057272424295e+02
1.809956770101e+02
6.378691237873e+01
1.317400663332e+02
7.293553870779e+01
1.318250830634e+02
1.216493206931e+02
7.713043858274e+01
7.270310162349e+01
1.729834349657e+02
1.378694114975e+02
5.447558112867e+01
9.746378341676e+01
8.197788834557e+01
5.853976851432e+01
1.750916471114e+02
1.315347569292e+02
1.729418508326e+02
2.566739128987e+01
1.504295789591e+01
1.766462936986e+02
1.464574998339e+02
6.919239772185e+01
1.425898644277e+02
5.648895797059e+01
5.624072987344e+01
1.673213442918e+01
1.804873564317e+02
1.325287626986e+02
8.986622116018e+01
5.798989443364e+01
5.908227806077e+01
1.512260769034e+02
2.230485267160e+01
1.333408133697e+02
1.768203586965e+02
1.361647562307e+02
1.771017371999e+02
5.769553071533e+01
1.635936166985e+02
1.700500593401e+02
5.762374038096e+01
1.363509792700e+02
7.284717039215e+01
3.184883466385e+01
1.409119066871e+02
8.949793004994e+00
5.736742347222e+01
1.804655973748e+02
3.095112118384e+01
7.239505097132e+01
1.448600458739e+02
1.100813892996e+02
1.157977749843e+02
4.421184698264e+01
4.036192421822e+01
8.920530437915e+01
1.673793730142e+02
1.355268711522e+02
8.239808810612e+01
6.195121316985e+01
1.396259207826e+02
9.709121623187e+01
1.463249683543e+02
1.685362984767e+02
5.041314686831e+01
1.183072222639e+02
1.550804414919e+01
1.758983715276e+02
1.011051939608e+02
8.689725308837e+00
4.331246946783e+00
1.204237338916e+01
1.042232387123e+01
1.877263820497e+01
1.960709850295e+01
2.677867589934e+01
2.801808273902e+01
3.523163709471e+01
3.748780638170e+01
4.410832661791e+01
4.605973457186e+01

SCALARS node_materi_strain_total_average_a_ept float
LOOKUP_TABLE default
1.636367293418e-04
2.561266459492e-03
2.532130412784e-03
3.972224864205e-03
1.993054581473e-04
3.013830186186e-04
3.957370117538e-04
5.134741900414e-04
6.253535194138e-04
7.404460149838e-04
8.582385825356e-04
9.783542538902e-04
1.101992331562e-03
1.228597835133e-03
1.359909214300e-03
1.491852857258e-03
1.615401942881e-03
1.749002874874e-03
1.889234621958e-03
2.026781249246e-03
2.166756203731e-03
2.309507791313e-03
2.448100156878e-03
3.980807751496e-03
3.971630966039e-03
3.971682920383e-03
3.967985651050e-03
3.957399281029e-03
3.956992245642e-03
3.948341324381e-03
3.935180279857e-03
3.926860140957e-03
3.912297312226e-03
3.887464430271e-03
3.870734610525e-03
3.843983022127e-03
3.812664992239e-03
3.774207672264e-03
3.730114859220e-03
3.680846842287e-03
3.628528821496e-03
3.572251486628e-03
3.510890387828e-03
3.439646749916e-03
3.360053814170e-03
3.279796591036e-03
3.194895591768e-03
3.109512064919e-03
3.026106693633e-03
2.941342422667e-03
2.863188853478e-03
2.784426650080e-03
2.719629797920e-03
2.654547082076e-03
2.593264044241e-03
2.543635143473e-03
2.511655390033e-03
2.484979726369e-03
2.462515639816e-03
2.457585789581e-03
2.446452036163e-03
2.448633137587e-03
2.447975267979e-03
2.458774489949e-03
2.478345795914e-03
2.491995435155e-03
2.483729196262e-03
2.512047300205e-03
2.512803771271e-03
2.524143468383e-03
2.535678649676e-03
2.538146509930e-03
2.707280747674e-03
2.850597060071e-03
2.994488897615e-03
3.136738010227e-03
3.282653084896e-03
3.430490283710e-03
3.577241357886e-03
3.725905809656e-03
3.874707245612e-03
-1.336896323100e-03
2.422152526771e-03
-2.957499456353e-04
2.421140149201e-04
7.508168183399e-04
1.313360026999e-03
1.659596132707e-03
1.811647183987e-03
1.958675202298e-03
2.107344734001e-03
2.260279465682e-03
1.758347092238e-03
1.849488120984e-03
1.992555381732e-03
2.134056312440e-03
2.275168133265e-03
2.415834070031e-03
2.543370345994e-03
2.551588458765e-03
2.549717292609e-03
2.545017170644e-03
2.560902285183e-03
2.539546122511e-03
2.532176562391e-03
2.526945160164e-03
2.520161426389e-03
2.508462708350e-03
2.495702966285e-03
2.480180506723e-03
2.462913409085e-03
2.444615662201e-03
-1.931737582359e-03
-2.192322445356e-03
-2.245164678926e-03
-2.021330609839e-03
-1.193226450685e-03
-3.981644755365e-04
-9.486138133091e-05
3.764093530789e-05
1.038593923636e-04
1.135132763598e-04
1.251047015317e-04
1.389469282364e-04
1.473315383536e-04
1.563703096165e-04
1.545586291641e-04
1.550719171387e-04
1.561890496269e-04
1.582712099805e-04
1.621007534440e-04
1.777567399182e-03
1.786831533122e-03
1.786618190016e-03
1.787873078740e-03
1.790170653465e-03
1.793279783151e-03
1.797078769348e-03
1.801512072626e-03
1.806546112538e-03
1.812143737833e-03
1.818248466965e-03
1.824772798696e-03
1.831629551078e-03
1.838554957406e-03
1.845223346030e-03
1.850814508496e-03
1.854834124854e-03
1.854986398406e-03
1.850739556589e-03
1.834038284513e-03
1.807760670141e-03
1.739830602218e-03
1.622174630133e-03
1.754500061388e-03
1.805663021400e-03
1.843210402796e-03
1.862959238561e-03
1.875900730680e-03
1.881888699569e-03
1.884571979942e-03
1.884497828714e-03
1.882960379874e-03
1.880437517140e-03
1.877449685439e-03
1.874232547155e-03
1.870984102844e-03
1.867839151417e-03
1.864896051207e-03
1.862230950447e-03
1.859901909627e-03
1.857971292806e-03
1.856495854773e-03
1.855487853987e-03
1.854513347985e-03
1.850732692993e-03
1.993087919842e-03
1.994371290054e-03
1.994914241404e-03
1.995350500809e-03
1.995858614024e-03
1.996416736497e-03
1.996961069897e-03
1.997398441047e-03
1.997661821610e-03
1.997589402422e-03
1.997009564118e-03
1.995676056164e-03
1.993218508655e-03
1.989348119545e-03
1.983142933345e-03
1.974180972620e-03
1.960144976010e-03
1.941865388700e-03
1.913571151318e-03
1.867407480707e-03
1.994405797665e-03
2.037064465503e-03
2.059986327718e-03
2.077274067579e-03
2.091940530965e-03
2.102416301857e-03
2.110899695681e-03
2.117243631649e-03
2.122024523405e-03
2.125667229422e-03
2.128433678679e-03
2.130467264769e-03
2.131987869205e-03
2.133025580398e-03
2.133797892328e-03
2.134292433331e-03
2.134565733751e-03
2.134436342476e-03
2.134190100931e-03
2.275303089327e-03
2.275014265972e-03
2.274218917462e-03
2.273024564095e-03
2.271428768487e-03
2.269195857227e-03
2.266386255566e-03
2.262554708861e-03
2.257689928735e-03
2.251779307929e-03
2.244469494137e-03
2.235294843703e-03
2.223846388359e-03
2.208986184262e-03
2.192817597059e-03
2.173942982598e-03
2.132804595581e-03
2.278263522613e-03
2.317512788083e-03
2.334284332601e-03
2.350768790816e-03
2.364397423631e-03
2.375675197162e-03
2.384488980366e-03
2.392220960493e-03
2.399237503932e-03
2.403640912698e-03
2.407791994177e-03
2.410665761744e-03
2.413163503332e-03
2.414693229989e-03
2.416630153814e-03
2.416975251431e-03
-6.860830394796e-04
-2.144293184483e-05
5.041901914771e-04
9.799867907854e-04
1.532191657622e-03
1.745919148285e-03
1.894316217316e-03
2.043583939624e-03
2.194592565718e-03
2.351460913031e-03
1.105724549921e-04
2.496084542977e-03
6.809434937602e-05
-1.378866628292e-03
2.408478725535e-03
1.119104778018e-03
1.298053921207e-03
2.701127806205e-03
1.750186390972e-03
3.010246545312e-03
2.105044075527e-03
2.438564509837e-03
1.584365068800e-04
3.329763194979e-03
2.442286570411e-03
8.035660783594e-04
1.659483522506e-03
3.518483620684e-03
3.717912541291e-03
3.887119594048e-03
3.842520969155e-03
3.805692325612e-03
2.567633341878e-03
2.638032917852e-03
2.675122793140e-03
3.210924846842e-03
2.454317067086e-03
-1.719408859079e-03
1.799455835376e-04
2.091096943160e-03
2.673730584817e-03
4.534754906523e-04
3.608789465095e-03
2.859478734661e-03
3.175047100287e-03
2.585508984452e-03
2.440203176504e-03
-2.616702900196e-04
2.604449577737e-03
2.391928582051e-03
3.499137555645e-03
1.264916977450e-04
1.039476410545e-03
3.918999439922e-03
1.515907036301e-03
6.355124870974e-04
1.934735828666e-03
2.271950289272e-03
-5.061977989835e-04
2.934348719375e-03
2.490614160111e-03
1.811493535597e-04
3.793126497677e-03
2.519573867193e-03
2.547218981861e-03
2.636745537657e-03
2.661900198713e-03
2.758719567958e-03
2.781426140309e-03
2.680719142396e-03
2.801006840812e-03
2.695163544200e-03
2.882431621968e-03
2.816766758057e-03
2.705874077243e-03
2.828784773529e-03
2.713195681756e-03
2.593694769436e-03
2.596338540121e-03
2.479739013171e-03
2.477354521222e-03
2.596556397415e-03
2.472772015890e-03
2.355483006666e-03
2.346330277481e-03
2.230028608773e-03
2.216218124670e-03
2.099154089759e-03
2.081251647041e-03
2.203349734832e-03
2.065621964811e-03
1.940989157883e-03
1.923218741541e-03
1.794095389246e-03
1.774864379068e-03
1.910030530709e-03
1.762373915804e-03
1.619085385549e-03
1.609907408425e-03
1.456493125121e-03
1.453315493608e-03
1.288207557658e-03
1.291767081674e-03
1.459383220792e-03
1.305764813269e-03
1.126375121997e-03
1.151193557312e-03
1.330370625409e-03
1.187058355860e-03
1.363772004682e-03
1.231825782035e-03
1.048951595566e-03
1.106225986767e-03
1.282801875594e-03
1.167813393764e-03
9.884561595855e-04
1.061743871067e-03
1.232888904408e-03
1.135582213351e-03
9.653092637422e-04
1.047373524172e-03
1.209950085667e-03
1.126787082529e-03
9.675709180638e-04
1.050924599847e-03
1.204182119979e-03
1.130512908339e-03
1.278909785444e-03
9.807438276318e-04
1.061967429763e-03
9.164280952957e-04
9.981826814803e-04
1.902469464854e-03
8.579664961092e-04
7.726429352342e-04
9.385011588262e-04
1.075676499316e-03
8.035343084057e-04
8.818905098983e-04
7.525029881116e-04
1.294251726228e-03
2.594864223938e-03
8.274745423579e-04
7.031461211207e-04
6.274584517211e-04
5.840377073881e-04
2.854274858208e-03
2.985212693333e-03
2.950153309647e-03
3.087021978220e-03
3.050097952484e-03
6.539837581007e-04
2.944504703243e-03
3.120074492052e-03
2.243990530025e-03
1.818947238859e-03
1.499507692261e-03
9.554553850143e-04
8.980750079173e-04
1.024814343548e-03
1.355383014111e-03
1.425506224522e-03
1.503651659988e-03
1.569825977665e-03
1.648660143918e-03
1.711752601168e-03
1.635421354238e-03
1.774981362936e-03
1.700442034481e-03
1.790428411430e-03
1.730471045185e-03
1.838276633626e-03
1.765051211388e-03
1.901976738567e-03
1.829450640747e-03
1.692552472051e-03
1.757077501360e-03
1.621329597518e-03
1.530501502976e-03
1.660359900787e-03
1.688676608823e-03
1.813276650910e-03
1.839210508030e-03
1.959102798653e-03
1.982129758213e-03
1.869848783362e-03
2.836474611675e-03
9.600289896600e-04
9.346541037089e-04
7.535877103000e-04
7.279143188496e-04
5.277978206541e-04
5.030499854633e-04
2.771688343311e-04
3.286795900221e-04
4.921996079154e-05
1.408846385957e-04
-1.527479446979e-04
-2.596319831055e-05
2.192053075306e-03
1.940006016727e-03
2.081758140051e-03
2.067422930455e-03
5.091604579119e-04
1.893761789236e-03
1.871541239721e-03
1.814620186803e-03
2.010683222942e-03
5.400419328224e-04
2.557063043823e-04
5.042966268176e-04
3.188330767125e-03
3.148155125784e-03
1.954738746064e-03
6.054200792943e-04
1.912647681183e-03
-2.393712307540e-04
1.821101125834e-03
1.957533196135e-03
1.561572062928e-03
2.206121796541e-03
2.194912722283e-03
2.497984078493e-04
1.164114946560e-04
-1.411626140697e-04
2.632121724977e-05
2.647655326963e-04
1.840832598214e-04
-2.717242405622e-05
1.404704393478e-04
3.332972455525e-04
2.896942336994e-04
1.258654443132e-04
2.673185643013e-04
2.030304661380e-03
-4.227909938422e-04
2.479554070966e-03
2.008434306662e-03
2.116976200699e-03
3.289543617181e-03
3.245862421640e-03
3.104535181953e-03
3.199469650518e-03
3.343259614559e-03
3.293937312687e-03
3.150562175163e-03
3.242476378216e-03
3.099501516762e-03
3.189087714840e-03
3.334104244289e-03
3.278479186853e-03
3.133799576498e-03
3.221244891212e-03
3.076632072123e-03
3.162026810866e-03
3.308515407648e-03
4.982478509988e-04
1.904449490771e-03
2.043389869147e-03
9.670074617290e-04
1.090763946255e-03
1.154846724959e-03
1.221504275518e-03
3.246615511511e-03
3.395084821280e-03
2.748572821998e-04
5.356914986739e-04
3.330315377747e-03
1.884711320453e-03
1.749151755695e-03
1.666097749724e-03
1.700195401229e-03
1.538927066421e-03
1.583862451940e-03
1.740870517074e-03
1.409961838147e-03
1.670059287495e-03
3.425139206168e-03
5.459471097597e-04
4.287388641564e-04
2.021400932721e-03
1.759728672221e-03
2.328328058817e-03
2.320035999602e-03
2.455575343877e-03
2.448921691104e-03
2.584822385039e-03
2.578162945477e-03
2.443844611653e-03
2.332125611849e-03
2.573874713218e-03
3.099306051111e-03
1.923642943310e-03
4.663440322409e-04
4.340906652603e-04
1.392252134620e-04
5.529123560279e-04
6.665910983935e-04
2.089556385231e-03
2.715611278159e-03
2.719700535692e-03
1.639406541411e-03
1.787552975386e-03
2.338908004297e-03
2.915819673146e-03
3.009984302906e-03
2.958807114411e-03
4.350993277159e-04
1.238842954701e-05
3.439884867430e-03
7.377804700779e-04
7.786906923553e-04
-5.122722744674e-04
-7.385047337720e-04
3.330317439372e-03
3.478391051418e-03
1.286832973911e-03
1.352242419340e-03
2.041198249145e-03
2.566516071168e-04
3.543985793767e-03
1.802140151154e-03
1.653537178691e-03
1.155108189801e-03
3.341497615938e-04
5.500066075631e-05
5.249957110779e-04
3.891114311295e-04
6.103318042983e-04
2.172777962180e-03
3.489299666827e-03
2.440630151344e-03
2.308699906955e-03
2.570204162768e-03
1.538610041478e-04
2.143085170960e-03
1.948182491273e-03
2.847503926203e-03
2.853320046363e-03
9.560035349170e-04
1.005913252704e-03
8.446449016747e-04
1.076900039037e-03
2.579204866832e-03
1.162981450026e-03
2.369812267178e-03
2.372218947399e-03
2.266568500506e-03
1.882895348319e-03
1.918995812581e-03
9.236897896798e-04
1.637338427420e-03
1.219437161017e-03
1.556251766715e-03
1.436461957153e-03
3.480734043279e-03
3.573714181574e-03
2.990737651141e-03
2.933450232800e-03
3.991208806359e-04
3.216966385889e-04
1.351328250871e-03
2.062936403721e-03
3.433485541454e-03
3.475064712849e-03
3.367824814345e-03
2.127847801517e-03
7.962107544722e-04
1.567123765038e-03
-5.731909800952e-04
2.043896312339e-03
3.004624517689e-04
2.719794123935e-03
2.086071035142e-03
2.158499950639e-03
2.459547184183e-03
2.457473739595e-03
2.040356025600e-03
1.901639132412e-03
2.271454370224e-03
2.172169417716e-03
2.158095710703e-03
2.065834217523e-03
6.385918988970e-04
5.820245892015e-04
2.857302552567e-03
2.700674717638e-03
2.984570733464e-03
2.992201123675e-03
2.464576892804e-03
2.347933296544e-03
7.219109697558e-04
1.833776161878e-03
3.588304160917e-03
2.369946294781e-03
2.191980150664e-03
2.121986392243e-03
-9.614653005703e-04
-6.625255552033e-04
3.629191977581e-03
9.290354130126e-04
1.160550309040e-03
6.847543085373e-04
2.375603095247e-03
2.674178004089e-03
2.225489062146e-03
2.014984240427e-03
3.696455530771e-03
2.043380937980e-03
1.500550640029e-03
1.993244191172e-03
3.552876417271e-03
3.716499228276e-03
2.871992559322e-03
2.815083649825e-03
2.916845042016e-03
-2.602940893274e-04
-5.372514888574e-04
3.515179852326e-03
8.420611659926e-04
9.186232626292e-04
3.645249067433e-04
4.958357129376e-04
1.353255211036e-03
1.285118372332e-03
2.721230868767e-03
2.848709720808e-03
2.461771888232e-03
1.703205209247e-03
1.552130494109e-03
1.499092726210e-03
3.626616234314e-03
3.735230721680e-03
7.067930379272e-04
6.001819972198e-04
7.392494823752e-04
3.638137264327e-03
2.296061007598e-03
2.228918024221e-03
2.344726532151e-04
2.409498399363e-04
1.569027248102e-04
-1.281632535288e-04
3.510907410889e-03
3.402283223801e-03
3.630766537764e-03
6.560510180971e-04
2.312672934361e-03
2.251257157283e-03
2.217679130566e-03
2.313809886911e-03
2.453729981978e-03
2.572038598693e-03
2.694940980861e-03
-1.201859428422e-03
3.668923525661e-03
2.842705789252e-03
-1.414474685590e-03
2.786720863395e-03
2.872829015509e-03
2.718615330844e-03
5.453135224028e-04
2.760524705942e-03
2.825235667200e-03
1.520275285416e-04
3.738544189173e-03
2.138993799261e-04
2.730454992015e-04
2.256524500608e-03
2.182626891671e-03
2.310042937077e-03
2.237075898787e-03
2.108684249383e-03
2.174331626841e-03
2.754680658900e-03
2.322933633590e-03
2.242713018704e-03
2.394265602141e-03
2.087175096247e-03
1.281660513516e-03
1.371249316647e-03
1.284230922330e-03
3.149452155489e-03
3.119470035511e-03
2.015776264834e-03
1.877647716200e-03
2.802386681591e-03
2.799370509632e-03
2.928038578090e-03
2.914243856821e-03
3.044331246721e-03
3.027309528179e-03
3.161062450548e-03
2.841050898859e-03
7.801207624862e-04
2.272600377156e-03
2.466925419651e-03
2.349435636910e-03
1.953576718868e-03
1.880877715096e-03
2.288952746446e-03
1.126232527433e-03
3.806363251935e-03
-1.358583790408e-03
-1.019813363130e-03
1.316790978930e-03
2.041903821610e-03
1.470576498903e-03
1.547200098069e-03
1.850887601091e-03
1.666503278274e-04
4.239193767664e-04
3.173491679116e-03
2.647338021644e-04
1.951742902818e-03
1.112576943689e-03
1.987448910095e-03
5.979468043599e-04
1.218908612127e-03
2.588023571298e-03
2.566091922496e-03
2.468494803128e-03
1.113445597577e-03
1.707208053053e-03
1.636364825261e-03
2.363633759402e-03
3.259374144432e-03
3.289906574815e-03
3.428465369845e-03
3.315014618660e-03
3.176101676414e-03
3.198560593106e-03
3.341506479931e-03
3.220935491793e-03
3.388591081381e-03
3.233475424506e-03
3.093268309158e-03
3.101433596123e-03
3.227116370757e-03
2.966024510530e-03
2.574529187508e-03
1.470691651331e-03
-8.888075835872e-04
-6.194270248303e-04
2.119327841492e-03
3.570716022518e-03
3.674303901815e-03
7.215021152215e-04
3.251879954925e-03
2.475868426292e-03
-7.148769592463e-07
3.093242935049e-03
3.149900993916e-03
3.038716021204e-03
3.013600325505e-03
3.753292794470e-03
2.964317437437e-03
2.787123417374e-03
1.792013045267e-03
1.774281810329e-03
1.619907935371e-03
3.078459372050e-03
2.534885330947e-03
2.417993949754e-03
2.382861593101e-03
2.287983936036e-03
2.464070549205e-03
3.470358592420e-03
3.409499632970e-03
3.990325531366e-04
4.876265371952e-04
6.923877964397e-04
5.938871546755e-04
3.677287180615e-04
4.962014799629e-04
7.170280636317e-04
4.049637321947e-04
2.983841634674e-03
2.427583267486e-03
1.585477237792e-03
1.521047254418e-03
1.367922169479e-03
1.149358112595e-03
1.214082841633e-03
1.352464084621e-03
1.086454471047e-03
2.313142099077e-03
2.415668200606e-03
1.608319331638e-03
1.139673124284e-03
2.587422679539e-03
2.689761812021e-03
2.664492121593e-03
2.801546926958e-03
2.724218384052e-03
1.419221734469e-03
1.483308562958e-03
1.415633520342e-03
1.545901947361e-03
1.474388941120e-03
1.354647065115e-03
1.605085660858e-03
1.522475534040e-03
2.619860749454e-03
-7.098302004365e-04
-4.329793560020e-04
-1.826174686883e-04
-2.486481050970e-04
-4.407964006402e-04
-2.119767693330e-04
-3.802748259452e-04
-7.904780102684e-04
-8.956320630537e-05
-4.159469989820e-05
2.003371802711e-05
4.744608339133e-05
4.878810037630e-05
3.429647021478e-04
2.443631930389e-03
1.163044450857e-03
1.099309615319e-03
9.817222040288e-04
1.039057476703e-03
1.212265056791e-03
9.195479500483e-04
8.734153645751e-04
1.832044252426e-04
2.601616916589e-04
2.559616341260e-04
3.504957383597e-04
3.452497991193e-04
2.574530835202e-04
2.504849781820e-04
1.751915331552e-04
2.419568074007e-04
3.324728391330e-04
1.672012286435e-04
3.357491876212e-03
3.437585907995e-03
2.405173750115e-03
2.660635845657e-03
9.568766487177e-05
3.869372394277e-03
3.868724040491e-03
3.883181945046e-03
2.233799439657e-03
2.302405410472e-03
3.882669760706e-03
6.722346603012e-04
3.451468233088e-03
3.604567773638e-03
4.192074304601e-06
5.354105644042e-04
1.812366754367e-03
1.627640030834e-03
2.093578278545e-03
1.685612446072e-03
1.966094361631e-03
2.344436930489e-03
5.024421474251e-04
3.045806207291e-03
3.017552621677e-03
3.367607214904e-03
7.737555178919e-04
1.290817985777e-03
4.726110192005e-04
3.019759630819e-03
2.257239570500e-03
1.283482973503e-03
1.014562226310e-03
7.202949468763e-04
4.225360052193e-04
1.638648706780e-03
1.207191808283e-03
1.851091353433e-03
3.456104418140e-03
1.492262158761e-04
1.928758002317e-03
1.494141551229e-03
3.058176681712e-03
2.097882454917e-03
-2.997436418563e-05
3.387679658292e-03
3.575028463515e-03
2.871999386708e-03
3.690899209005e-04
2.901838273803e-03
2.216780954391e-03
3.225623001096e-03
7.204939889869e-04
1.404203159766e-03
1.962636299924e-03
2.357916842198e-03
3.660852375191e-03
1.757605085121e-03
2.146662448199e-03
1.722071171833e-03
7.844679375631e-04
2.048569578322e-03
1.475580648206e-03
3.534767282053e-03
2.589475108573e-03
9.989371606204e-04
3.389818981868e-03
1.299428208441e-03
2.217438023778e-03
2.139976598496e-03
2.337191281626e-03
2.717029235077e-03
2.052977218196e-03
1.740692376758e-03
1.987817317782e-03
-3.086143809932e-04
1.360750849636e-03
3.010051085815e-03
2.703940900895e-03
3.682597248265e-03
1.848934142514e-03
1.974631055213e-03
3.534085858525e-03
1.281100669451e-03
5.767524571785e-04
-2.200135271198e-04
5.747439658128e-04
1.610118436248e-03
1.421791252791e-03
3.557878520350e-03
2.037816963411e-03
1.902260733763e-03
-1.752513144039e-04
2.365568920597e-03
2.102454209195e-03
1.449837941935e-03
2.228483593366e-03
1.399870490355e-03
2.938734871213e-03
1.987990867786e-03
2.169581358373e-03
1.947397557202e-03
9.294848283681e-04
2.677204952172e-03
2.326415545052e-03
2.084665877359e-03
2.182992999651e-03
1.337761791992e-03
2.189208083517e-03
1.490168670049e-03
2.467157410634e-03
3.785336951087e-03
2.171627174310e-03
2.906533972171e-03
1.420731990052e-03
2.053274494385e-03
3.399223250438e-04
2.182420701274e-03
1.487028966622e-03
6.401795912152e-04
1.395928955067e-03
2.579328075495e-03
1.551956950202e-03
8.529042947848e-04
1.615529679035e-03
2.023095851063e-03
2.927627173540e-03
1.678276585239e-03
2.592279487894e-03
3.289236620585e-04
2.176571346021e-03
2.157088914327e-03
8.306461997151e-04
1.457063381206e-03
3.060779853011e-03
1.848464357125e-03
1.609593101440e-03
2.721538326161e-03
2.176812070914e-03
1.762012791222e-03
1.758391245236e-03
1.771074427928e-03
5.868115577265e-04
4.601923499793e-04
9.183259381533e-04
2.853791163024e-03
4.383988140619e-04
2.957105390432e-03
2.527623693909e-04
7.986298739111e-04
2.323541841672e-03
3.073606687109e-03
8.823033846959e-04
6.890304807103e-04
7.876715892550e-04
1.909081937841e-03
8.801926869363e-04
8.050376755292e-04
3.750950587070e-03
8.957722417173e-04
3.910129534741e-03
2.461845741959e-03
2.787742074453e-03
1.671851335005e-03
-1.784442714705e-03
1.463731711980e-03
6.819711924862e-04
2.842303061810e-03
2.792618794468e-03
6.317936608775e-04
3.363783202352e-03
2.934439159258e-03
3.285567461606e-03
2.240167755193e-03
2.184918909338e-03
3.637648650620e-03
2.655025320641e-03
9.621862626294e-05
1.812337927097e-03
1.370589080120e-03
1.018444390226e-03
5.249618928182e-04
8.338929519016e-04
-7.637199762904e-05
8.834497971939e-04
2.447735150181e-03
2.748820293403e-03
2.445553908522e-03
3.789085058036e-04
3.675682570725e-03
2.711792165815e-03
2.426260364891e-03
2.574283945744e-03
-1.648946137906e-05
2.799519672106e-03
3.093343689787e-03
3.398122092341e-03
2.448572393896e-03
2.705544446308e-03
3.783272678327e-03
-3.893797191602e-04
3.791120162758e-03
2.974219227409e-03
2.960093239798e-03
2.743441499129e-03
2.365551703187e-03
3.472308773935e-03
-3.629218112456e-04
3.274155170328e-03
1.033658193760e-03
-1.151189581106e-03
2.305892301262e-03
3.105652942874e-03
2.347421037402e-03
3.498694878523e-04
1.659518549268e-04
2.331223272235e-03
3.259809080170e-03
-1.791865654879e-04
3.867617607526e-03
-8.015524971223e-04
2.628323209450e-03
2.240551019764e-04
2.459265554056e-03
3.751912635441e-03
1.152875234244e-03
2.548125351618e-03
7.646087929395e-04
2.805389016797e-03
9.993388115710e-05
3.784338409032e-03
2.359252934799e-03
3.631188853401e-03
2.675573167029e-03
-1.347313633949e-03
2.810017505719e-03
2.281350456496e-03
2.660081707633e-03
3.545853467024e-03
9.314195373725e-04
4.095827957797e-04
3.929640224402e-03
1.764604237853e-04
2.659201917790e-03
2.495152128739e-03
4.121849235046e-04
2.892694539341e-03
3.329114138450e-03
1.433367495946e-03
3.552232864642e-03
-1.098914471488e-04
-1.816382067505e-03
3.150088739145e-03
2.668777248762e-03
3.694965364843e-03
3.041791849463e-03
-3.476346811605e-04
3.210896067478e-03
1.247695342907e-03
2.963598788103e-03
2.347153757946e-03
-9.425411415393e-04
1.547350247465e-03
2.023898910748e-04
2.345246448986e-03
1.305719039384e-03
1.687131091174e-03
1.780015985920e-03
1.788646136179e-03
1.917221654453e-03
1.917047602023e-03
2.067883898806e-03
2.052920097063e-03
2.200396231634e-03
2.197299379808e-03
2.350334906615e-03
2.347022262682e-03
2.482417155167e-03

SCALARS node_materi_strain_total_size_dev_sd_ept float
LOOKUP_TABLE default
6.345764550006e-04
7.053576714878e-03
6.212235927395e-03
9.783667534357e-03
3.887412896264e-04
4.080902329505e-04
7.727257167627e-04
1.205582021357e-03
1.608663308926e-03
1.971283303065e-03
2.308414063737e-03
2.623698647660e-03
2.923246035850e-03
3.219277231190e-03
3.522264891683e-03
3.814994763857e-03
4.085998582011e-03
4.390771862244e-03
4.714111070994e-03
5.036674390832e-03
5.368841810252e-03
5.707234385915e-03
6.027137181212e-03
9.789293164052e-03
9.773833705273e-03
9.775335610869e-03
9.769404467566e-03
9.757198535652e-03
9.756466084417e-03
9.746878123587e-03
9.727533335074e-03
9.718227593134e-03
9.693543712974e-03
9.664216764911e-03
9.637458494444e-03
9.600459522014e-03
9.548789181663e-03
9.493040236302e-03
9.417400798018e-03
9.340843504109e-03
9.253946620837e-03
9.150876032290e-03
9.032768639394e-03
8.889210401875e-03
8.732165445229e-03
8.552604483924e-03
8.355409583196e-03
8.147221257928e-03
7.926960863703e-03
7.693970277974e-03
7.451997691660e-03
7.210079914750e-03
6.999545104029e-03
6.767359785180e-03
6.537655782989e-03
6.347980974535e-03
6.214430227103e-03
6.099437983180e-03
6.024173759044e-03
5.973651672773e-03
5.945546612367e-03
5.932538532457e-03
5.943559563507e-03
5.980185692682e-03
6.034719667226e-03
6.073075734064e-03
6.062781999759e-03
6.139868313577e-03
6.155112269391e-03
6.186190894895e-03
6.216285678594e-03
6.226107841842e-03
7.393043985104e-03
7.727428592162e-03
8.042037645829e-03
8.337661008680e-03
8.626326785457e-03
8.900319442966e-03
9.161042543413e-03
9.406253290591e-03
9.649976124997e-03
3.818829096296e-03
7.225844900622e-03
4.190293996420e-03
4.384377696167e-03
4.996655076232e-03
5.521696444186e-03
5.532643268839e-03
5.787727660327e-03
6.127469778353e-03
6.488551302045e-03
6.850590988488e-03
5.041099838785e-03
5.245733347334e-03
5.599057338981e-03
5.963943899797e-03
6.327294036628e-03
6.683602893217e-03
7.003437591528e-03
7.027528738150e-03
7.036658562219e-03
7.040536696902e-03
7.095964858488e-03
7.068215120440e-03
7.077382470849e-03
7.094457207923e-03
7.122251166123e-03
7.137835475111e-03
7.150981989251e-03
7.165809815759e-03
7.178648377920e-03
7.195405552407e-03
2.973543525577e-03
2.715418825775e-03
2.770159493608e-03
2.789157290084e-03
2.817320999476e-03
1.886371821746e-03
6.754505203166e-04
1.449780926431e-04
2.607931018632e-04
3.237366943260e-04
3.666838665234e-04
4.338753748221e-04
4.990385816990e-04
5.587507873350e-04
5.560345337217e-04
5.559895345831e-04
5.636261302600e-04
5.966365400975e-04
6.315411104950e-04
5.071899928648e-03
5.045299610596e-03
5.038032954141e-03
5.031525029885e-03
5.022216284231e-03
5.009809654686e-03
4.994252483025e-03
4.975565588861e-03
4.953846023154e-03
4.929219688205e-03
4.901889658734e-03
4.872176028228e-03
4.840691183404e-03
4.808341138735e-03
4.776422534772e-03
4.746614521499e-03
4.721934563584e-03
4.705553029702e-03
4.704484282748e-03
4.724635924475e-03
4.782578690237e-03
4.938208881970e-03
5.231910554856e-03
5.229199423978e-03
5.188097721062e-03
5.092351846365e-03
5.059975822575e-03
5.045992731698e-03
5.044331746702e-03
5.052313755974e-03
5.065860596899e-03
5.082907787627e-03
5.101739739282e-03
5.120952684879e-03
5.139504376261e-03
5.156881648398e-03
5.172729250806e-03
5.186763760174e-03
5.198793399237e-03
5.208795058613e-03
5.216986516409e-03
5.223755946004e-03
5.229905252698e-03
5.237244830313e-03
5.244776243526e-03
5.602014680963e-03
5.601810393838e-03
5.598076148273e-03
5.594392179807e-03
5.591001921343e-03
5.587566735197e-03
5.583685762150e-03
5.579093995691e-03
5.573956551548e-03
5.568721457479e-03
5.563684274396e-03
5.559126610465e-03
5.555504730666e-03
5.554556858845e-03
5.557497839930e-03
5.566336641694e-03
5.580928648018e-03
5.604161135453e-03
5.664480687894e-03
5.653204284569e-03
6.046943344201e-03
6.088509241688e-03
6.050127329152e-03
6.032753065614e-03
6.018636752109e-03
6.007165944648e-03
5.999417444049e-03
5.992498525516e-03
5.986703974666e-03
5.981842269191e-03
5.978315033545e-03
5.975533684803e-03
5.972623373792e-03
5.970271702909e-03
5.968652561766e-03
5.968029408432e-03
5.967927233247e-03
5.967203871875e-03
5.965062263146e-03
6.329692312587e-03
6.331508039907e-03
6.334357494038e-03
6.338426322403e-03
6.343216415352e-03
6.350069490394e-03
6.357912804894e-03
6.366889502160e-03
6.375354688721e-03
6.386630921841e-03
6.399020907826e-03
6.411717404098e-03
6.425709424739e-03
6.437489187707e-03
6.451183143974e-03
6.484654214485e-03
6.433497502828e-03
6.800011673709e-03
6.856965272069e-03
6.831793166130e-03
6.814958359793e-03
6.800013766000e-03
6.784333728179e-03
6.767977466389e-03
6.753783328817e-03
6.740062458382e-03
6.727347175096e-03
6.716280797665e-03
6.706780682507e-03
6.700439496990e-03
6.692982045905e-03
6.691219468061e-03
6.692994045338e-03
4.510804638334e-03
4.220145120064e-03
4.649074188854e-03
5.409733629818e-03
5.589549343334e-03
5.702817595549e-03
6.010657878452e-03
6.354085204403e-03
6.711622996979e-03
7.063843309109e-03
4.388456722579e-03
5.980579250465e-03
3.466079718879e-04
3.217203632612e-03
5.690042454074e-03
5.514853222872e-03
3.374973007484e-03
6.796106595613e-03
5.997157661588e-03
7.851901236145e-03
6.636465860427e-03
5.877416024309e-03
3.116965914732e-04
8.716555265045e-03
7.346965217279e-03
2.158176146311e-03
4.179552391709e-03
9.139221386472e-03
9.475551789955e-03
9.680025775403e-03
9.637225873108e-03
9.598387916457e-03
7.500169698667e-03
7.451523434868e-03
7.424479830159e-03
8.486237966349e-03
5.990627073339e-03
3.163939545589e-03
3.852296218282e-04
5.183071485675e-03
7.345357154184e-03
9.935813638995e-04
9.313994336765e-03
7.369491291427e-03
8.326063613934e-03
6.331748564635e-03
5.786514585308e-03
1.901860404592e-03
7.470697803545e-03
5.679595235123e-03
9.028936558916e-03
1.908352858422e-04
2.774725222873e-03
9.721528902853e-03
5.792495317651e-03
4.887359825853e-03
6.304379195233e-03
6.990225783131e-03
4.440344347650e-03
7.910885765197e-03
6.112068454317e-03
4.322571599760e-04
9.512347930066e-03
7.509637318161e-03
7.614878351704e-03
7.775469212764e-03
7.876420326963e-03
8.055925531912e-03
8.123478208690e-03
7.937277537452e-03
8.165386548099e-03
7.962163189400e-03
8.302306185145e-03
8.175788966939e-03
7.952621178441e-03
8.154039937480e-03
7.908508697182e-03
7.714603092501e-03
7.643713966765e-03
7.461240114767e-03
7.359234554621e-03
7.537317165292e-03
7.217606629574e-03
7.052896168243e-03
6.873562512751e-03
6.725924774431e-03
6.505323817349e-03
6.376598583163e-03
6.112602293629e-03
6.253934458003e-03
5.820888661538e-03
5.697247880954e-03
5.365429495149e-03
5.261846031328e-03
4.891016200363e-03
5.026530296568e-03
4.520199794127e-03
4.403383751330e-03
4.005476439658e-03
3.919268551183e-03
3.497572570187e-03
3.459452557857e-03
3.012944781532e-03
3.104411694555e-03
2.603892642819e-03
2.587111850077e-03
2.171074068783e-03
2.263600318116e-03
1.841777863189e-03
2.026018885697e-03
1.640846937060e-03
1.571433176669e-03
1.426487848778e-03
1.596907697545e-03
1.452525523694e-03
1.433800922561e-03
1.502819055789e-03
1.617981177825e-03
1.684350936698e-03
1.686361839196e-03
1.844247534658e-03
1.931105491477e-03
2.057188997593e-03
2.032241287306e-03
2.200080901144e-03
2.300728512124e-03
2.400530268369e-03
2.558574867668e-03
2.323145794225e-03
2.481710585198e-03
2.403756142919e-03
2.527065620366e-03
4.697490939208e-03
2.426645747217e-03
2.370288476332e-03
2.525277254989e-03
2.679092269633e-03
2.387523952219e-03
2.473693071663e-03
2.291338666787e-03
3.919430883314e-03
7.399847716040e-03
2.373757605679e-03
2.142936477988e-03
2.086302769243e-03
1.876366241551e-03
8.222346368213e-03
8.471453739375e-03
8.377771731711e-03
8.633224436640e-03
8.538654598400e-03
1.951684972257e-03
8.382301715037e-03
8.706617939548e-03
6.904726520951e-03
5.614378550568e-03
2.509043961356e-03
2.588536429679e-03
2.483149311450e-03
2.722441317523e-03
2.499450780559e-03
2.792486711220e-03
2.781079189666e-03
3.090991445566e-03
3.126755153170e-03
3.441106018705e-03
3.393528721763e-03
3.746974351375e-03
3.685510493695e-03
3.519823823631e-03
3.204375426165e-03
4.040682044159e-03
3.964847237824e-03
4.320391075909e-03
4.229833138609e-03
3.896709802341e-03
4.142991900836e-03
3.829163639685e-03
2.354448111560e-03
2.857769540452e-03
2.765820960663e-03
3.268468324265e-03
3.223583107008e-03
3.718826699343e-03
3.709828850679e-03
3.260757062797e-03
8.100441821336e-03
2.270676578212e-03
2.733866378248e-03
2.564164886743e-03
3.038500578135e-03
3.021782330409e-03
3.473208971815e-03
3.605930450088e-03
3.181683427404e-03
3.896642835207e-03
3.473883501123e-03
4.233368549302e-03
3.827435368918e-03
5.984933491930e-03
3.799498587936e-03
4.241450582603e-03
4.340761847154e-03
1.830201602918e-03
4.479032766768e-03
3.641446915261e-03
3.335199649317e-03
3.774106139019e-03
1.634866458983e-03
3.982940454149e-03
3.903040812333e-03
8.784345854650e-03
8.686491883889e-03
3.813870077185e-03
1.730902781629e-03
4.134289746493e-03
4.491741517611e-03
4.374267135884e-03
4.710486028684e-03
3.364547523552e-03
4.775946023519e-03
4.880342782126e-03
3.056557605490e-03
3.382183476793e-03
4.000420713649e-03
3.564173776031e-03
2.983830165612e-03
3.170285813745e-03
3.549150530871e-03
3.196298757415e-03
2.843329987789e-03
2.862205089926e-03
2.971606858287e-03
2.691926426893e-03
4.831696389526e-03
4.622549935074e-03
7.520665776383e-03
4.107044361449e-03
4.217846505853e-03
8.927869565615e-03
8.827748682228e-03
8.570385115105e-03
8.713115996950e-03
8.962732463269e-03
8.849951974866e-03
8.586684539692e-03
8.726005804713e-03
8.449953628181e-03
8.593182342853e-03
8.861840357663e-03
8.732981154263e-03
8.453812621554e-03
8.598011053992e-03
8.308968618341e-03
8.456407830958e-03
8.739505590352e-03
1.379863833104e-03
3.372267249614e-03
3.905960225895e-03
2.616289927971e-03
2.865273347688e-03
2.962396512720e-03
3.129073397417e-03
8.601703358318e-03
8.879712321954e-03
4.296509221443e-03
4.281673883638e-03
9.010873035628e-03
4.590497785044e-03
4.268419103408e-03
5.205748721824e-03
5.567287535904e-03
5.190434519829e-03
5.546962016548e-03
5.883855230244e-03
5.208694787316e-03
2.887962380336e-03
8.994338413900e-03
2.068188166769e-03
1.820110163056e-03
4.926017625329e-03
2.863059051158e-03
6.430798521378e-03
6.187661869365e-03
6.641495041389e-03
6.426301908663e-03
6.884290842407e-03
6.699613250755e-03
6.222003178117e-03
5.309715337786e-03
6.534400024426e-03
8.306376271800e-03
3.943036746977e-03
2.590522045432e-03
1.274098433801e-03
2.545330526131e-03
1.486217997875e-03
1.845102835841e-03
4.314613602432e-03
7.159588909078e-03
7.312490004240e-03
5.848314216202e-03
6.131653839421e-03
5.238321448193e-03
8.269549715844e-03
8.303867116477e-03
8.152624004504e-03
1.055397732268e-03
2.827950312018e-03
9.093069766533e-03
3.970827737648e-03
4.375716803415e-03
4.633806416538e-03
4.545414720447e-03
8.742318591280e-03
9.011252826009e-03
3.212506315015e-03
3.396634269395e-03
4.044350241209e-03
2.369063012832e-03
9.138435905661e-03
3.032073885834e-03
2.538394291740e-03
3.019934732758e-03
4.505939163451e-03
4.487708520745e-03
2.456811514221e-03
2.471401316557e-03
1.618219306562e-03
4.574084355546e-03
9.190150402105e-03
6.041883114639e-03
5.721869442419e-03
6.392698201627e-03
2.056853775329e-03
4.604283429189e-03
4.791960043772e-03
7.578770506768e-03
7.706790360410e-03
4.168047194848e-03
4.579429456456e-03
4.725716400716e-03
4.957790062698e-03
7.741250926907e-03
4.458873997488e-03
7.283238181587e-03
7.322431337261e-03
7.102168626327e-03
6.197626711920e-03
6.388134653206e-03
3.223106618765e-03
3.042377968415e-03
3.028987309711e-03
3.590717180852e-03
2.467902305988e-03
9.110458507095e-03
9.238393273018e-03
8.156597390880e-03
8.000100934756e-03
1.496704456688e-03
1.472021563804e-03
2.821645884360e-03
4.402235488299e-03
9.146011940873e-03
9.215403084277e-03
9.075857661840e-03
4.323789263021e-03
2.125368479543e-03
2.313413755815e-03
4.573636222594e-03
5.212760486621e-03
1.079333380966e-03
7.726082884547e-03
5.126243309185e-03
5.269793500852e-03
5.756507287852e-03
7.440235263103e-03
4.930340698872e-03
4.395421462228e-03
7.111593204188e-03
6.911043568618e-03
6.873375605140e-03
6.701623213000e-03
2.330300099461e-03
2.434843580519e-03
7.494373478578e-03
6.879211589348e-03
7.961354955368e-03
8.074712629210e-03
5.720014739409e-03
5.208306459840e-03
1.965490061277e-03
6.280170631098e-03
9.315004105703e-03
7.309732629108e-03
4.881580530675e-03
4.698450704489e-03
4.414197210568e-03
4.432483050425e-03
9.269106337306e-03
5.023772969191e-03
5.270346840012e-03
4.804571618257e-03
5.856405707425e-03
7.321202131981e-03
5.465489555688e-03
6.490533966242e-03
9.387890594818e-03
4.683307345062e-03
4.789484286384e-03
3.788893423579e-03
9.130961579228e-03
9.405406467110e-03
7.997504115488e-03
7.829574688901e-03
8.143967295745e-03
4.586452015456e-03
4.612004581779e-03
9.124415237898e-03
2.344545531607e-03
2.501343519112e-03
2.215719343352e-03
2.320902920651e-03
3.273674423742e-03
3.067713415286e-03
7.600976203765e-03
7.932586796310e-03
6.850849023837e-03
2.764265734957e-03
2.307146722766e-03
2.084194481079e-03
9.334452703813e-03
9.480847290261e-03
2.134771820539e-03
2.224978188631e-03
2.289512865653e-03
9.399709367142e-03
5.615471374312e-03
5.415542532927e-03
1.005016564865e-03
1.459793086393e-03
4.524275341910e-03
4.498583190386e-03
9.257911441508e-03
9.124131816098e-03
9.407277596979e-03
1.723736576178e-03
5.541104712586e-03
4.866824109680e-03
4.650673347281e-03
5.184250885722e-03
5.820510704973e-03
6.246348874269e-03
6.786824495027e-03
4.240250077633e-03
9.317344907273e-03
7.824489047837e-03
3.832710550416e-03
7.661060559325e-03
7.839019986610e-03
7.479468866804e-03
1.350237161796e-03
7.782995563023e-03
7.986571221540e-03
7.980024054995e-04
9.510830321393e-03
6.118237627449e-04
7.214603211726e-04
5.157605211316e-03
4.976185616736e-03
5.411528106153e-03
5.229426718009e-03
4.822941773384e-03
5.093408876989e-03
7.654420929392e-03
5.537174664839e-03
5.352744855741e-03
5.786046650314e-03
6.701131182140e-03
5.256693553948e-03
5.554795643376e-03
5.509974120164e-03
8.359956921087e-03
8.384948306572e-03
4.986187600016e-03
4.659465700362e-03
7.659489780927e-03
7.630676313196e-03
7.927379586955e-03
7.880757482503e-03
8.168239014130e-03
8.116766248117e-03
8.399684691188e-03
7.309099194457e-03
5.014123355617e-03
7.070106287863e-03
5.719325571193e-03
5.199833457766e-03
6.490788740553e-03
6.324245884224e-03
5.186339887402e-03
4.009718209202e-03
9.601642528462e-03
3.706699081616e-03
4.305968518191e-03
4.376111592763e-03
6.634177775533e-03
5.549310053231e-03
5.821348177595e-03
3.261397246282e-03
1.475620625280e-03
4.634738241669e-03
8.440992381818e-03
4.549170852447e-03
4.853459223217e-03
3.532991317162e-03
6.276358248960e-03
4.583919505225e-03
4.881946362073e-03
7.747035753410e-03
7.696974316862e-03
7.505945989363e-03
3.049797786478e-03
6.071869572964e-03
5.943121850957e-03
7.191472607398e-03
8.923911566676e-03
8.962880118766e-03
9.140983374495e-03
8.980562268928e-03
8.788085239798e-03
8.795175951027e-03
8.980051507302e-03
8.784895746939e-03
9.005004564579e-03
8.744879715250e-03
8.548305448960e-03
8.494956085660e-03
8.677670612537e-03
8.296338809530e-03
6.236613818296e-03
4.353551539642e-03
4.441053762059e-03
4.680615064625e-03
6.599822407466e-03
9.236885288983e-03
9.419337506701e-03
3.518607972275e-03
8.531137572372e-03
7.535075654830e-03
4.215139222608e-03
8.099882474467e-03
8.759138645940e-03
8.577767615448e-03
8.536891449217e-03
9.531077073170e-03
8.290052123017e-03
7.123063949329e-03
3.395075557899e-03
3.592900079498e-03
3.306311066930e-03
8.582520448156e-03
6.144422972929e-03
5.536299621966e-03
5.397293856739e-03
4.931535573821e-03
5.856348363567e-03
9.028786456040e-03
8.893922901040e-03
2.674127258704e-03
2.411982532205e-03
1.941581152306e-03
2.114496900723e-03
2.695799595596e-03
2.393323655024e-03
1.865283154881e-03
2.760969211202e-03
8.156225685780e-03
5.733575164567e-03
2.807394092072e-03
2.488129167301e-03
2.158271390957e-03
2.849389670335e-03
2.862985787842e-03
3.083549051345e-03
2.803393485088e-03
5.945607496251e-03
5.702615217926e-03
2.380722323331e-03
2.664830935888e-03
7.493256548252e-03
7.778185885764e-03
7.788820812959e-03
8.067676922078e-03
7.801382215316e-03
3.476780425464e-03
3.672156976470e-03
3.573297902304e-03
3.857304031530e-03
3.733438263623e-03
3.469252335184e-03
4.027331054963e-03
3.865917882577e-03
7.461187476816e-03
2.858505490671e-03
3.280619413070e-03
2.411751243111e-03
3.293951180629e-03
3.889840429917e-03
3.648573084128e-03
4.201087059157e-03
3.985738942111e-03
1.060015204611e-03
1.718559113215e-03
5.838799775283e-04
1.230592253648e-03
2.121433920425e-03
1.865351235938e-03
5.987038040030e-03
3.066357308751e-03
2.918574323421e-03
2.635984153385e-03
2.775095421031e-03
3.174281232408e-03
2.474966438502e-03
2.359391426261e-03
4.028371113370e-04
3.243280227965e-04
3.141110212508e-04
6.110535874439e-04
6.116023685567e-04
3.273044208232e-04
3.320421266142e-04
3.640509645915e-04
3.492464699739e-04
6.937040501688e-04
3.443347266926e-04
8.768800419264e-03
8.918189495823e-03
5.697172801516e-03
7.459987390588e-03
2.326918090545e-04
9.649781294068e-03
9.666905811501e-03
9.677529012780e-03
5.522911208370e-03
5.672387900785e-03
9.660089500457e-03
2.245333494625e-03
9.155969491712e-03
9.252935222099e-03
4.410858587817e-03
2.433163519765e-03
4.468875287435e-03
3.636982225493e-03
5.058530723567e-03
4.055424623785e-03
4.584887542606e-03
5.250075103577e-03
1.238430546542e-03
8.304392150843e-03
8.158588316836e-03
8.870178565087e-03
2.231391171896e-03
3.305824309897e-03
1.556268093201e-03
7.929131015462e-03
7.033279219859e-03
2.209014422227e-03
2.654706762986e-03
2.342776541855e-03
2.599102917612e-03
4.811968176973e-03
2.620133266727e-03
3.830993581640e-03
9.005473468692e-03
2.218598364815e-04
3.947621929599e-03
3.082014474916e-03
8.442704333550e-03
4.197650526363e-03
3.307097668583e-03
8.982102209299e-03
9.333975772188e-03
8.133401886390e-03
1.160309481064e-03
7.994202562788e-03
4.841156779173e-03
8.864322573953e-03
2.052082364039e-03
1.917640978769e-03
6.006753067173e-03
7.166080167500e-03
9.354394563527e-03
4.167257125874e-03
4.315040194642e-03
2.770247737915e-03
2.172121352375e-03
4.548600177821e-03
2.766926961927e-03
9.219219592307e-03
7.067382487982e-03
1.868279690443e-03
9.061713828203e-03
1.866787978809e-03
4.713631730491e-03
6.768938160355e-03
6.662988604502e-03
7.830377790968e-03
5.516190101427e-03
4.340653432366e-03
4.252718401338e-03
4.427175924341e-03
4.817674639540e-03
8.421365939218e-03
6.997163335149e-03
9.435346609744e-03
5.933250141268e-03
4.422854383927e-03
9.270243772175e-03
2.850073723212e-03
1.445384208994e-03
4.586946895859e-03
2.577487127175e-03
3.633311885897e-03
3.084268799679e-03
9.308414553988e-03
4.696880659649e-03
3.529182276135e-03
4.295284868144e-03
7.255137515342e-03
4.956744459630e-03
1.944031247564e-03
4.697063418637e-03
3.589648094562e-03
7.658857587011e-03
6.513896450809e-03
5.205091533650e-03
3.557208870253e-03
3.711719906120e-03
7.337289371264e-03
5.634822195244e-03
4.103265975401e-03
5.710536708705e-03
1.700391893431e-03
6.812448737444e-03
3.342063157692e-03
7.044859319283e-03
9.570524356749e-03
4.453308193326e-03
8.355732662104e-03
3.314298764983e-03
4.485836244853e-03
6.336443390627e-04
6.888372755260e-03
3.539773036266e-03
2.177355873181e-03
1.910395084954e-03
6.227979637383e-03
3.756678576748e-03
1.761511283929e-03
3.962311817467e-03
6.467585061213e-03
8.384246639416e-03
4.156577991276e-03
7.240033875162e-03
7.992668181786e-04
5.445727420892e-03
5.324250494627e-03
2.319780163240e-03
2.182521488435e-03
8.594260852326e-03
6.147679289386e-03
2.582630066666e-03
7.461200933970e-03
5.212576566452e-03
3.853543814135e-03
3.037213514820e-03
6.148897772902e-03
2.248834205433e-03
2.105667397202e-03
1.519465407169e-03
7.827835161117e-03
9.651953560242e-04
8.352258092162e-03
1.939739361394e-03
1.674303110399e-03
5.411002707295e-03
8.210340125216e-03
1.618871609139e-03
1.816121182724e-03
1.880149416863e-03
4.140666362646e-03
1.917867060962e-03
2.132021743050e-03
9.481631891248e-03
2.201130971857e-03
9.699929128928e-03
6.050360597357e-03
7.584836647028e-03
5.839213802888e-03
3.008445214464e-03
5.774862888338e-03
2.367617639244e-03
8.023413077195e-03
7.601544445122e-03
2.355552202100e-03
8.910010941281e-03
7.622038324889e-03
8.636893696641e-03
4.741294435765e-03
5.025531212414e-03
9.264868252547e-03
7.347174622823e-03
9.267236641476e-04
4.528714659609e-03
5.612147139922e-03
5.254080418202e-03
4.746858472163e-03
2.274872157039e-03
2.636657958151e-03
5.216757162441e-03
5.674362311648e-03
7.707340638755e-03
5.908209825596e-03
4.589803357105e-03
9.452920117050e-03
6.801153845538e-03
5.826138839704e-03
6.309286192206e-03
4.481832373755e-03
8.013735668387e-03
8.166601032730e-03
8.860277980763e-03
5.932249313904e-03
7.699623820210e-03
9.510584317191e-03
4.398357989972e-03
9.512844607495e-03
8.229892778250e-03
8.014194709074e-03
7.987826205923e-03
5.808252047269e-03
9.147713595282e-03
4.531818024653e-03
8.627193079073e-03
2.758940290680e-03
4.136474262475e-03
5.317868568877e-03
8.430656922875e-03
5.728324354373e-03
5.874451663351e-04
4.862949284602e-04
5.315847734880e-03
8.637390085570e-03
3.937623429614e-03
9.674427292354e-03
4.490923566868e-03
7.339836696296e-03
3.564415555623e-04
5.984939441842e-03
9.514910319588e-03
3.034937751402e-03
7.509908885714e-03
2.058056289794e-03
7.258529331514e-03
1.607605077628e-03
9.542034981902e-03
5.359035324544e-03
9.402988535086e-03
6.725414443109e-03
3.975897569645e-03
7.183562028791e-03
4.931169121367e-03
7.328046629156e-03
9.271639451331e-03
2.520408681649e-03
1.051023579920e-03
9.723284933779e-03
5.077962635184e-04
7.284446007334e-03
6.132363270744e-03
8.982629697841e-04
7.824548657744e-03
8.804899967564e-03
3.678925672643e-03
9.118697026951e-03
3.170711051218e-03
3.017456919412e-03
8.370061838561e-03
6.628439087477e-03
9.483078778728e-03
8.177627575571e-03
4.571077938395e-03
8.597572086717e-03
3.237661493333e-03
7.847896327492e-03
5.205711123524e-03
4.320102794828e-03
3.934442977674e-03
3.534176373696e-04
5.572460175343e-03
3.380290493319e-03
5.304448937718e-03
5.091966024140e-03
5.552996212169e-03
5.409172841818e-03
5.911837333341e-03
5.792277673054e-03
6.280413075455e-03
6.136238507743e-03
6.652732965976e-03
6.518875250215e-03
7.008192573327e-03
6.856079783271e-03


CELL_DATA 2186

SCALARS element_number int
LOOKUP_TABLE default
407
408
409
410
411
412
413
414
415
416
417
418
419
420
421
422
423
424
425
426
427
428
429
430
431
432
433
434
435
436
437
438
439
440
441
442
443
444
445
446
447
448
449
450
451
452
453
454
455
456
457
458
459
460
461
462
463
464
465
466
467
468
469
470
471
472
473
474
475
476
477
478
479
480
481
482
483
484
485
486
487
488
489
490
491
492
493
494
495
496
497
498
499
500
501
502
503
504
505
506
507
508
509
510
511
512
513
514
515
516
517
518
519
520
521
522
523
524
525
526
527
528
529
530
531
532
533
534
535
536
537
538
539
540
541
542
543
544
545
546
547
548
549
550
551
552
553
554
555
556
557
558
559
560
561
562
563
564
565
566
567
568
569
570
571
572
573
574
575
576
577
578
579
580
581
582
583
584
585
586
587
588
589
590
591
592
593
594
595
596
597
598
599
600
601
602
603
604
605
606
607
608
609
610
611
612
613
614
615
616
617
618
619
620
621
622
623
624
625
626
627
628
629
630
631
632
633
634
635
636
637
638
639
640
641
642
643
644
645
646
647
648
649
650
651
652
653
654
655
656
657
658
659
660
661
662
663
664
665
666
667
668
669
670
671
672
673
674
675
676
677
678
679
680
681
682
683
684
685
686
687
688
689
690
691
692
693
694
695
696
697
698
699
700
701
702
703
704
705
706
707
708
709
710
711
712
713
714
715
716
717
718
719
720
721
722
723
724
725
726
727
728
729
730
731
732
733
734
735
736
737
738
739
740
741
742
743
744
745
746
747
748
749
750
751
752
753
754
755
756
757
758
759
760
761
762
763
764
765
766
767
768
769
770
771
772
773
774
775
776
777
778
779
780
781
782
783
784
785
786
787
788
789
790
791
792
793
794
795
796
797
798
799
800
801
802
803
804
805
806
807
808
809
810
811
812
813
814
815
816
817
818
819
820
821
822
823
824
825
826
827
828
829
830
831
832
833
834
835
836
837
838
839
840
841
842
843
844
845
846
847
848
849
850
851
852
853
854
855
856
857
858
859
860
861
862
863
864
865
866
867
868
869
870
871
872
873
874
875
876
877
878
879
880
881
882
883
884
885
886
887
888
889
890
891
892
893
894
895
896
897
898
899
900
901
902
903
904
905
906
907
908
909
910
911
912
913
914
915
916
917
918
919
920
921
922
923
924
925
926
927
928
929
930
931
932
933
934
935
936
937
938
939
940
941
942
943
944
945
946
947
948
949
950
951
952
953
954
955
956
957
958
959
960
961
962
963
964
965
966
967
968
969
970
971
972
973
974
975
976
977
978
979
980
981
982
983
984
985
986
987
988
989
990
991
992
993
994
995
996
997
998
999
1000
1001
1002
1003
1004
1005
1006
1007
1008
1009
1010
1011
1012
1013
1014
1015
1016
1017
1018
1019
1020
1021
1022
1023
1024
1025
1026
1027
1028
1029
1030
1031
1032
1033
1034
1035
1036
1037
1038
1039
1040
1041
1042
1043
1044
1045
1046
1047
1048
1049
1050
1051
1052
1053
1054
1055
1056
1057
1058
1059
1060
1061
1062
1063
1064
1065
1066
1067
1068
1069
1070
1071
1072
1073
1074
1075
1076
1077
1078
1079
1080
1081
1082
1083
1084
1085
1086
1087
1088
1089
1090
1091
1092
1093
1094
1095
1096
1097
1098
1099
1100
1101
1102
1103
1104
1105
1106
1107
1108
1109
1110
1111
1112
1113
1114
1115
1116
1117
1118
1119
1120
1121
1122
1123
1124
1125
1126
1127
1128
1129
1130
1131
1132
1133
1134
1135
1136
1137
1138
1139
1140
1141
1142
1143
1144
1145
1146
1147
1148
1149
1150
1151
1152
1153
1154
1155
1156
1157
1158
1159
1160
1161
1162
1163
1164
1165
1166
1167
1168
1169
1170
1171
1172
1173
1174
1175
1176
1177
1178
1179
1180
1181
1182
1183
1184
1185
1186
1187
1188
1189
1190
1191
1192
1193
1194
1195
1196
1197
1198
1199
1200
1201
1202
1203
1204
1205
1206
1207
1208
1209
1210
1211
1212
1213
1214
1215
1216
1217
1218
1219
1220
1221
1222
1223
1224
1225
1226
1227
1228
1229
1230
1231
1232
1233
1234
1235
1236
1237
1238
1239
1240
1241
1242
1243
1244
1245
1246
1247
1248
1249
1250
1251
1252
1253
1254
1255
1256
1257
1258
1259
1260
1261
1262
1263
1264
1265
1266
1267
1268
1269
1270
1271
1272
1273
1274
1275
1276
1277
1278
1279
1280
1281
1282
1283
1284
1285
1286
1287
1288
1289
1290
1291
1292
1293
1294
1295
1296
1297
1298
1299
1300
1301
1302
1303
1304
1305
1306
1307
1308
1309
1310
1311
1312
1313
1314
1315
1316
1317
1318
1319
1320
1321
1322
1323
1324
1325
1326
1327
1328
1329
1330
1331
1332
1333
1334
1335
1336
1337
1338
1339
1340
1341
1342
1343
1344
1345
1346
1347
1348
1349
1350
1351
1352
1353
1354
1355
1356
1357
1358
1359
1360
1361
1362
1363
1364
1365
1366
1367
1368
1369
1370
1371
1372
1373
1374
1375
1376
1377
1378
1379
1380
1381
1382
1383
1384
1385
1386
1387
1388
1389
1390
1391
1392
1393
1394
1395
1396
1397
1398
1399
1400
1401
1402
1403
1404
1405
1406
1407
1408
1409
1410
1411
1412
1413
1414
1415
1416
1417
1418
1419
1420
1421
1422
1423
1424
1425
1426
1427
1428
1429
1430
1431
1432
1433
1434
1435
1436
1437
1438
1439
1440
1441
1442
1443
1444
1445
1446
1447
1448
1449
1450
1451
1452
1453
1454
1455
1456
1457
1458
1459
1460
1461
1462
1463
1464
1465
1466
1467
1468
1469
1470
1471
1472
1473
1474
1475
1476
1477
1478
1479
1480
1481
1482
1483
1484
1485
1486
1487
1488
1489
1490
1491
1492
1493
1494
1495
1496
1497
1498
1499
1500
1501
1502
1503
1504
1505
1506
1507
1508
1509
1510
1511
1512
1513
1514
1515
1516
1517
1518
1519
1520
1521
1522
1523
1524
1525
1526
1527
1528
1529
1530
1531
1532
1533
1534
1535
1536
1537
1538
1539
1540
1541
1542
1543
1544
1545
1546
1547
1548
1549
1550
1551
1552
1553
1554
1555
1556
1557
1558
1559
1560
1561
1562
1563
1564
1565
1566
1567
1568
1569
1570
1571
1572
1573
1574
1575
1576
1577
1578
1579
1580
1581
1582
1583
1584
1585
1586
1587
1588
1589
1590
1591
1592
1593
1594
1595
1596
1597
1598
1599
1600
1601
1602
1603
1604
1605
1606
1607
1608
1609
1610
1611
1612
1613
1614
1615
1616
1617
1618
1619
1620
1621
1622
1623
1624
1625
1626
1627
1628
1629
1630
1631
1632
1633
1634
1635
1636
1637
1638
1639
1640
1641
1642
1643
1644
1645
1646
1647
1648
1649
1650
1651
1652
1653
1654
1655
1656
1657
1658
1659
1660
1661
1662
1663
1664
1665
1666
1667
1668
1669
1670
1671
1672
1673
1674
1675
1676
1677
1678
1679
1680
1681
1682
1683
1684
1685
1686
1687
1688
1689
1690
1691
1692
1693
1694
1695
1696
1697
1698
1699
1700
1701
1702
1703
1704
1705
1706
1707
1708
1709
1710
1711
1712
1713
1714
1715
1716
1717
1718
1719
1720
1721
1722
1723
1724
1725
1726
1727
1728
1729
1730
1731
1732
1733
1734
1735
1736
1737
1738
1739
1740
1741
1742
1743
1744
1745
1746
1747
1748
1749
1750
1751
1752
1753
1754
1755
1756
1757
1758
1759
1760
1761
1762
1763
1764
1765
1766
1767
1768
1769
1770
1771
1772
1773
1774
1775
1776
1777
1778
1779
1780
1781
1782
1783
1784
1785
1786
1787
1788
1789
1790
1791
1792
1793
1794
1795
1796
1797
1798
1799
1800
1801
1802
1803
1804
1805
1806
1807
1808
1809
1810
1811
1812
1813
1814
1815
1816
1817
1818
1819
1820
1821
1822
1823
1824
1825
1826
1827
1828
1829
1830
1831
1832
1833
1834
1835
1836
1837
1838
1839
1840
1841
1842
1843
1844
1845
1846
1847
1848
1849
1850
1851
1852
1853
1854
1855
1856
1857
1858
1859
1860
1861
1862
1863
1864
1865
1866
1867
1868
1869
1870
1871
1872
1873
1874
1875
1876
1877
1878
1879
1880
1881
1882
1883
1884
1885
1886
1887
1888
1889
1890
1891
1892
1893
1894
1895
1896
1897
1898
1899
1900
1901
1902
1903
1904
1905
1906
1907
1908
1909
1910
1911
1912
1913
1914
1915
1916
1917
1918
1919
1920
1921
1922
1923
1924
1925
1926
1927
1928
1929
1930
1931
1932
1933
1934
1935
1936
1937
1938
1939
1940
1941
1942
1943
1944
1945
1946
1947
1948
1949
1950
1951
1952
1953
1954
1955
1956
1957
1958
1959
1960
1961
1962
1963
1964
1965
1966
1967
1968
1969
1970
1971
1972
1973
1974
1975
1976
1977
1978
1979
1980
1981
1982
1983
1984
1985
1986
1987
1988
1989
1990
1991
1992
1993
1994
1995
1996
1997
1998
1999
2000
2001
2002
2003
2004
2005
2006
2007
2008
2009
2010
2011
2012
2013
2014
2015
2016
2017
2018
2019
2020
2021
2022
2023
2024
2025
2026
2027
2028
2029
2030
2031
2032
2033
2034
2035
2036
2037
2038
2039
2040
2041
2042
2043
2044
2045
2046
2047
2048
2049
2050
2051
2052
2053
2054
2055
2056
2057
2058
2059
2060
2061
2062
2063
2064
2065
2066
2067
2068
2069
2070
2071
2072
2073
2074
2075
2076
2077
2078
2079
2080
2081
2082
2083
2084
2085
2086
2087
2088
2089
2090
2091
2092
2093
2094
2095
2096
2097
2098
2099
2100
2101
2102
2103
2104
2105
2106
2107
2108
2109
2110
2111
2112
2113
2114
2115
2116
2117
2118
2119
2120
2121
2122
2123
2124
2125
2126
2127
2128
2129
2130
2131
2132
2133
2134
2135
2136
2137
2138
2139
2140
2141
2142
2143
2144
2145
2146
2147
2148
2149
2150
2151
2152
2153
2154
2155
2156
2157
2158
2159
2160
2161
2162
2163
2164
2165
2166
2167
2168
2169
2170
2171
2172
2173
2174
2175
2176
2177
2178
2179
2180
2181
2182
2183
2184
2185
2186
2187
2188
2189
2190
2191
2192
2193
2194
2195
2196
2197
2198
2199
2200
2201
2202
2203
2204
2205
2206
2207
2208
2209
2210
2211
2212
2213
2214
2215
2216
2217
2218
2219
2220
2221
2222
2223
2224
2225
2226
2227
2228
2229
2230
2231
2232
2233
2234
2235
2236
2237
2238
2239
2240
2241
2242
2243
2244
2245
2246
2247
2248
2249
2250
2251
2252
2253
2254
2255
2256
2257
2258
2259
2260
2261
2262
2263
2264
2265
2266
2267
2268
2269
2270
2271
2272
2273
2274
2275
2276
2277
2278
2279
2280
2281
2282
2283
2284
2285
2286
2287
2288
2289
2290
2291
2292
2293
2294
2295
2296
2297
2298
2299
2300
2301
2302
2303
2304
2305
2306
2307
2308
2309
2310
2311
2312
2313
2314
2315
2316
2317
2318
2319
2320
2321
2322
2323
2324
2325
2564
2565
2566
2567
2568
2569
2570
2571
2572
2573
2574
2575
2576
2577
2578
2579
2580
2581
2582
2583
2584
2585
2586
2587
2588
2589
2590
2591
2592
2593
2594
2595
2596
2597
2598
2599
2600
2601
2602
2603
2604
2605
2606
2607
2608
2609
2610
2611
2612
2613
2614
2615
2616
2617
2618
2619
2620
2621
2622
2623
2624
2625
2626
2627
2628
2629
2630
2631
2632
2633
2634
2635
2636
2637
2638
2639
2640
2641
2642
2643
2644
2645
2646
2647
2648
2649
2650
2651
2652
2653
2654
2655
2656
2657
2658
2659
2660
2661
2662
2663
2664
2665
2666
2667
2668
2669
2670
2671
2672
2673
2674
2675
2676
2677
2678
2679
2680
2681
2682
2683
2684
2685
2686
2687
2688
2689
2690
2691
2692
2693
2694
2695
2696
2697
2698
2699
2700
2701
2702
2703
2704
2705
2706
2707
2708
2709
2710
2711
2712
2713
2714
2715
2716
2717
2718
2719
2720
2721
2722
2723
2724
2725
2726
2727
2728
2729
2730
2731
2732
2733
2734
2735
2736
2737
2738
2739
2740
2741
2742
2743
2744
2745
2746
2747
2748
2749
2750
2751
2752
2753
2754
2755
2756
2757
2758
2759
2760
2761
2762
2763
2764
2765
2766
2767
2768
2769
2770
2771
2772
2773
2774
2775
2776
2777
2778
2779
2780
2781
2782
2783
2784
2785
2786
2787
2788
2789
2790
2791
2792
2793
2794
2795
2796
2797
2798
2799
2800
2801
2802
2803
2804
2805
2806
2807
2808
2809
2810
2811
2812
2813
2814
2815
2816
2817
2818
2819
2820
2821
2822
2823
2824
2825
2826
2827
2828
2829
2830

SCALARS element_group int
LOOKUP_TABLE default
0
0
0
0
0
0
0
0
0
0
0
0
0
0
0
0
0
0
0
0
0
0
0
0
0
0
0
0
0
0
0
0
0
0
0
0
0
0
0
0
0
0
0
0
0
0
0
0
0
0
0
0
0
0
0
0
0
0
0
0
0
0
0
0
0
0
0
0
0
0
0
0
0
0
0
0
0
0
0
0
0
0
0
0
0
0
0
0
0
0
0
0
0
0
0
0
0
0
0
0
0
0
0
0
0
0
0
0
0
0
0
0
0
0
0
0
0
0
0
0
0
0
0
0
0
0
0
0
0
0
0
0
0
0
0
0
0
0
0
0
0
0
0
0
0
0
0
0
0
0
0
0
0
0
0
0
0
0
0
0
0
0
0
0
0
0
0
0
0
0
0
0
0
0
0
0
0
0
0
0
0
0
0
0
0
0
0
0
0
0
0
0
0
0
0
0
0
0
0
0
0
0
0
0
0
0
0
0
0
0
0
0
0
0
0
0
0
0
0
0
0
0
0
0
0
0
0
0
0
0
0
0
0
0
0
0
0
0
0
0
0
0
0
0
0
0
0
0
0
0
0
0
0
0
0
0
0
0
0
0
0
0
0
0
0
0
0
0
0
0
0
0
0
0
0
0
0
0
0
0
0
0
0
0
0
0
0
0
0
0
0
0
0
0
0
0
0
0
0
0
0
0
0
0
0
0
0
0
0
0
0
0
0
0
0
0
0
0
0
0
0
0
0
0
0
0
0
0
0
0
0
0
0
0
0
0
0
0
0
0
0
0
0
0
0
0
0
0
0
0
0
0
0
0
0
0
0
0
0
0
0
0
0
0
0
0
0
0
0
0
0
0
0
0
0
0
0
0
0
0
0
0
0
0
0
0
0
0
0
0
0
0
0
0
0
0
0
0
0
0
0
0
0
0
0
0
0
0
0
0
0
0
0
0
0
0
0
0
0
0
0
0
0
0
0
0
0
0
0
0
0
0
0
0
0
0
0
0
0
0
0
0
0
0
0
0
0
0
0
0
0
0
0
0
0
0
0
0
0
0
0
0
0
0
0
0
0
0
0
0
0
0
0
0
0
0
0
0
0
0
0
0
0
0
0
0
0
0
0
0
0
0
0
0
0
0
0
0
0
0
0
0
0
0
0
0
0
0
0
0
0
0
0
0
0
0
0
0
0
0
0
0
0
0
0
0
0
0
0
0
0
0
0
0
0
0
0
0
0
0
0
0
0
0
0
0
0
0
0
0
0
0
0
0
0
0
0
0
0
0
0
0
0
0
0
0
0
0
0
0
0
0
0
0
0
0
0
0
0
0
0
0
0
0
0
0
0
0
0
0
0
0
0
0
0
0
0
0
0
0
0
0
0
0
0
0
0
0
0
0
0
0
0
0
0
0
0
0
0
0
0
0
0
0
0
0
0
0
0
0
0
0
0
0
0
0
0
0
0
0
0
0
0
0
0
0
0
0
0
0
0
0
0
0
0
0
0
0
0
0
0
0
0
0
0
0
0
0
0
0
0
0
0
0
0
0
0
0
0
0
0
0
0
0
0
0
0
0
0
0
0
0
0
0
0
0
0
0
0
0
0
0
0
0
0
0
0
0
0
0
0
0
0
0
0
0
0
0
0
0
0
0
0
0
0
0
0
0
0
0
0
0
0
0
0
0
0
0
0
0
0
0
0
0
0
0
0
0
0
0
0
0
0
0
0
0
0
0
0
0
0
0
0
0
0
0
0
0
0
0
0
0
0
0
0
0
0
0
0
0
0
0
0
0
0
0
0
0
0
0
0
0
0
0
0
0
0
0
0
0
0
0
0
0
0
0
0
0
0
0
0
0
0
0
0
0
0
0
0
0
0
0
0
0
0
0
0
0
0
0
0
0
0
0
0
0
0
0
0
0
0
0
0
0
0
0
0
0
0
0
0
0
0
0
0
0
0
0
0
0
0
0
0
0
0
0
0
0
0
0
0
0
0
0
0
0
0
0
0
0
0
0
0
0
0
0
0
0
0
0
0
0
0
0
0
0
0
0
0
0
0
0
0
0
0
0
0
0
0
0
0
0
0
0
0
0
0
0
0
0
0
0
0
0
0
0
0
0
0
0
0
0
0
0
0
0
0
0
0
0
0
0
0
0
0
0
0
0
0
0
0
0
0
0
0
0
0
0
0
0
0
0
0
0
0
0
0
0
0
0
0
0
0
0
0
0
0
0
0
0
0
0
0
0
0
0
0
0
0
0
0
0
0
0
0
0
0
0
0
0
0
0
0
0
0
0
0
0
0
0
0
0
0
0
0
0
0
0
0
0
0
0
0
0
0
0
0
0
0
0
0
0
0
0
0
0
0
0
0
0
0
0
0
0
0
0
0
0
0
0
0
0
0
0
0
0
0
0
0
0
0
0
0
0
0
0
0
0
0
0
0
0
0
0
0
0
0
0
0
0
0
0
0
0
0
0
0
0
0
0
0
0
0
0
0
0
0
0
0
0
0
0
0
0
0
0
0
0
0
0
0
0
0
0
0
0
0
0
0
0
0
0
0
0
0
0
0
0
0
0
0
0
0
0
0
0
0
0
0
0
0
0
0
0
0
0
0
0
0
0
0
0
0
0
0
0
0
0
0
0
0
0
0
0
0
0
0
0
0
0
0
0
0
0
0
0
0
0
0
0
0
0
0
0
0
0
0
0
0
0
0
0
0
0
0
0
0
0
0
0
0
0
0
0
0
0
0
0
0
0
0
0
0
0
0
0
0
0
0
0
0
0
0
0
0
0
0
0
0
0
0
0
0
0
0
0
0
0
0
0
0
0
0
0
0
0
0
0
0
0
0
0
0
0
0
0
0
0
0
0
0
0
0
0
0
0
0
0
0
0
0
0
0
0
0
0
0
0
0
0
0
0
0
0
0
0
0
0
0
0
0
0
0
0
0
0
0
0
0
0
0
0
0
0
0
0
0
0
0
0
0
0
0
0
0
0
0
0
0
0
0
0
0
0
0
0
0
0
0
0
0
0
0
0
0
0
0
0
0
0
0
0
0
0
0
0
0
0
0
0
0
0
0
0
0
0
0
0
0
0
0
0
0
0
0
0
0
0
0
0
0
0
0
0
0
0
0
0
0
0
0
0
0
0
0
0
0
0
0
0
0
0
0
0
0
0
0
0
0
0
0
0
0
0
0
0
0
0
0
0
0
0
0
0
0
0
0
0
0
0
0
0
0
0
0
0
0
0
0
0
0
0
0
0
0
0
0
0
0
0
0
0
0
0
0
0
0
0
0
0
0
0
0
0
0
0
0
0
0
0
0
0
0
0
0
0
0
0
0
0
0
0
0
0
0
0
0
0
0
0
0
0
0
0
0
0
0
0
0
0
0
0
0
0
0
0
0
0
0
0
0
0
0
0
0
0
0
0
0
0
0
0
0
0
0
0
0
0
0
0
0
0
0
0
0
0
0
0
0
0
0
0
0
0
0
0
0
0
0
0
0
0
0
0
0
0
0
0
0
0
0
0
0
0
0
0
0
0
0
0
0
0
0
0
0
0
0
0
0
0
0
0
0
0
0
0
0
0
0
0
0
0
0
0
0
0
0
0
0
0
0
0
0
0
0
0
0
0
0
0
0
0
0
0
0
0
0
0
0
0
0
0
0
0
0
0
0
0
0
0
0
0
0
0
0
0
0
0
0
0
0
0
0
0
0
0
0
0
0
0
0
0
0
0
0
0
0
0
0
0
0
0
0
0
0
0
0
0
0
0
0
0
0
0
0
0
0
0
0
0
0
0
0
0
0
0
0
0
0
0
0
0
0
0
0
0
0
0
0
0
0
0
0
0
0
0
0
0
0
0
0
0
0
0
0
0
0
0
0
0
0
0
0
0
0
0
0
0
0
0
0
0
0
0
0
0
0
0
0
0
0
0
0
0
0
0
0
0
0
0
0
0
0
0
0
0
0
0
0
0
0
0
0
0
0
0
0
0
0
0
0
0
0
0
0
0
0
0
0
0
0
0
0
0
0
0
0
0
0
0
0
0
0
0
0
0
0
0
0
0
0
0
0
0
0
0
0
0
0
0
0
0
0
0
0
0
0
0
0
0
0
0
0
0
0
0
0
0
0
0
0
0
0
0
0
0
0
0
0
0
0
0
0
0
0
0
0
0
0
0
0
0
0
0
0
0
0
0
0
0
0
0
0
0
0
0
0
0
0
0
0
0
0
0
0
0
0
0
0
0
0
0
0
0
0
0
0
0
0
0
0
0
0
0
0
0
0
0
0
0
0
0
0
0
0
0
0
0
0
0
0
0
0
0
0
0
0
0
0
0
0
0
0
0
0
0
0
0
0
0
0
0
0
0
0
0
0
0
0
0
0
0
0
0
0
0
0
0
0
0
0
0
0
0
0
0
0
0
0
0
0
0
0
0
0
0
0
0
0
0
0
0
0
0
0
0
0
0
0
0
0
0
0
0
0
0
0
0
0
0
0
0
0
0
0
0
0
0
0
0
0
0
0
0
0
0
0
0
0
0
0
0
0
0
0
0
0
0
0
0
0
0
0
0
0
0
0
0
0
0
0
0
0
0
0
0
0
0
0
0
0
0
0
0
0
0
0
0
0
0
0
0
0
0
0
0
0
0
0
0
0
0
0
0
0
0
0
0
0
0
0
0
0
0
0
0
0
0
0
0
0
0
0
0
0
0
0
0
0
0
0
0
0
0
0
0
0
0
0
0
0
0
0
0
0
0
0
0
0
0
0
0
0
0
0
0
0
0
0
0
0
0
0
0
0
0
0
0
0
0
0
0
0
0
0
0
0
0
0
0
0
0
0
0
0
0
0
0
0
0
0
0
0
0
0
0
0
0
0
0
0
0
0
0
0
0
0
0
0
0
0
0
0
0
0
0
0
0
0
0
0
0
0
0
0
0
0
0
0
0
0
0
0
0
0
0


VECTORS element_materi_velocity float
1.751689980802e-03 9.241209254198e-03 0.0 
1.911061456552e-03 8.469760776615e-03 0.0 
6.504157539965e-04 9.665834492891e-04 0.0 
8.115503577199e-05 1.490656561407e-03 0.0 
8.288385250537e-04 8.357471445020e-03 0.0 
-3.105723077526e-04 1.583213961777e-03 0.0 
6.227731372571e-04 8.277837555089e-03 0.0 
1.704545725963e-03 7.875624140748e-03 0.0 
6.896006489297e-04 8.330843891049e-03 0.0 
1.190245608792e-04 1.525993634369e-03 0.0 
1.239235709031e-04 -2.228580538686e-04 0.0 
1.317624226171e-03 8.106224024871e-03 0.0 
5.782160406776e-05 -1.316982439850e-06 0.0 
1.264793170289e-03 7.431074442298e-03 0.0 
4.777210007335e-05 2.845757981131e-06 0.0 
6.545260156489e-05 1.053423468207e-03 0.0 
1.073279143909e-03 8.681504283656e-03 0.0 
-2.494934972981e-04 1.354024163707e-03 0.0 
5.459250131802e-05 -6.334469565684e-04 0.0 
4.579208594346e-05 -6.260039747655e-04 0.0 
1.416696481353e-04 1.563618599536e-03 0.0 
2.096706685400e-03 9.840879080734e-03 0.0 
2.279446793064e-03 9.553220210968e-03 0.0 
7.973757390579e-04 1.907128186067e-04 0.0 
1.473082698260e-03 6.412906332103e-03 0.0 
1.373515071104e-04 -1.920496132455e-04 0.0 
1.692131792228e-03 9.341767324095e-03 0.0 
9.425674109841e-04 6.296706357291e-04 0.0 
1.565462821145e-03 6.394444385645e-03 0.0 
6.532764408291e-04 1.562595522193e-04 0.0 
1.113857956301e-04 1.502183518987e-04 0.0 
-2.287393272640e-06 -5.237694214780e-04 0.0 
7.482540092294e-04 1.191653353126e-03 0.0 
3.984604391556e-05 -6.987732170102e-05 0.0 
3.173084435462e-04 4.050075451708e-05 0.0 
8.916005814569e-05 9.223439218989e-06 0.0 
8.148500341075e-05 7.955571271590e-06 0.0 
7.716007847557e-04 3.038156239206e-04 0.0 
5.197755366355e-04 9.230335774686e-03 0.0 
4.728209279098e-04 9.241457067080e-03 0.0 
2.362410889642e-03 9.692722819938e-03 0.0 
3.117719320730e-04 5.549378787789e-05 0.0 
6.968642985612e-04 6.076993287929e-03 0.0 
1.775363134552e-03 8.978779692623e-03 0.0 
4.339264350436e-05 2.111035175370e-03 0.0 
7.087425604473e-04 5.311357164001e-03 0.0 
-3.270973015042e-05 1.692546304269e-04 0.0 
4.929123232764e-05 1.792978174356e-03 0.0 
-2.272019092070e-04 8.151798400638e-05 0.0 
1.238735480265e-03 7.897019323873e-03 0.0 
2.342845795578e-03 9.684025968275e-03 0.0 
6.479976124325e-05 -6.105471387494e-04 0.0 
4.669215413672e-04 2.035819829050e-04 0.0 
2.252630276187e-03 1.003407074228e-02 0.0 
4.721602629331e-04 1.014377335673e-03 0.0 
1.343398363695e-04 -5.576054524643e-04 0.0 
5.450371636647e-05 -6.001942191752e-04 0.0 
8.078507053032e-05 -7.040780723793e-05 0.0 
9.290350421510e-05 -6.390972879245e-04 0.0 
7.857809915407e-05 1.062182551123e-03 0.0 
-4.645532419995e-04 4.351474039585e-04 0.0 
1.348291650001e-03 7.671214850762e-04 0.0 
2.794141961305e-03 6.055734764274e-03 0.0 
3.480782858550e-04 1.594747484228e-04 0.0 
9.429794956149e-05 1.124171134159e-06 0.0 
2.191275456848e-03 1.001542702685e-02 0.0 
-4.455874750773e-04 5.471815944579e-04 0.0 
8.000699128187e-04 1.140300156950e-03 0.0 
2.167615272365e-04 -3.923166419664e-04 0.0 
7.655690076786e-04 7.281176854086e-04 0.0 
2.074476917026e-04 -1.585894097706e-04 0.0 
7.876579203105e-05 2.972629778044e-04 0.0 
1.233960525252e-03 8.522838427253e-04 0.0 
4.674956271992e-06 -6.645624501058e-04 0.0 
1.238276486420e-04 -5.425659697401e-04 0.0 
2.765343956233e-04 1.370986422508e-03 0.0 
5.887648665037e-04 1.226099900140e-03 0.0 
1.202713901449e-05 3.646233252021e-03 0.0 
1.119093969818e-04 -6.327409447237e-04 0.0 
1.303579271362e-05 4.132872207926e-03 0.0 
2.284356361804e-04 -3.412969117662e-04 0.0 
1.010825520880e-03 8.414953972052e-03 0.0 
2.162527475747e-03 9.280947765089e-03 0.0 
1.897648568099e-03 9.608099060241e-03 0.0 
7.801632767029e-04 7.784447488736e-03 0.0 
7.138506549852e-04 7.751675404247e-03 0.0 
1.218643080013e-04 -1.380853665834e-04 0.0 
2.143364499932e-05 -8.970839934768e-05 0.0 
1.893345475212e-03 3.233080104270e-03 0.0 
8.923931856802e-04 8.323382337189e-03 0.0 
8.420700138343e-06 -4.992545140550e-04 0.0 
1.730003907839e-03 8.141831570648e-03 0.0 
1.321947892591e-04 4.219241979154e-03 0.0 
1.604557677628e-04 4.561668626463e-03 0.0 
1.572499013528e-04 5.509691405803e-04 0.0 
5.585885750496e-04 2.240126774576e-04 0.0 
1.136590119830e-03 8.442881249045e-03 0.0 
3.572673843555e-04 5.809864564082e-05 0.0 
9.919202146548e-05 6.696037028406e-03 0.0 
2.647600816539e-03 6.628925953759e-03 0.0 
8.044985374948e-04 8.844665669174e-03 0.0 
6.142411067031e-05 3.596226863447e-06 0.0 
2.245400730641e-03 1.272387182204e-03 0.0 
1.331480249249e-03 7.168808907451e-04 0.0 
2.148879914351e-03 4.137749544759e-03 0.0 
-8.823569636248e-05 6.337802155000e-05 0.0 
6.714775398141e-05 -2.074410960210e-05 0.0 
1.335602472752e-04 3.636314523403e-03 0.0 
-3.407762188685e-04 1.944012981119e-04 0.0 
1.134516044023e-04 9.006833338860e-06 0.0 
2.072147274403e-03 3.624756974158e-03 0.0 
7.149245735204e-06 -6.674074669867e-04 0.0 
2.842357982756e-03 3.393235781696e-03 0.0 
2.129696913952e-03 8.887424551925e-03 0.0 
2.363422336471e-04 -4.720153427394e-04 0.0 
2.433322846995e-03 6.566364737141e-03 0.0 
2.759913335064e-03 5.491744160665e-03 0.0 
2.256523452730e-04 3.149494618297e-05 0.0 
1.260932512750e-04 7.108282631504e-03 0.0 
2.556488278144e-03 5.394118451677e-03 0.0 
1.861868003120e-04 -5.046877914638e-04 0.0 
1.798316732400e-03 8.371882036091e-03 0.0 
1.052876500765e-04 3.333774928888e-03 0.0 
2.493287551185e-03 4.827430209340e-03 0.0 
-4.714289141503e-04 2.535514304490e-03 0.0 
2.294300003483e-03 9.437571344323e-03 0.0 
2.028776711841e-04 -4.874719451692e-04 0.0 
2.240642987027e-03 9.823508892534e-03 0.0 
2.102457042274e-04 9.701180747753e-04 0.0 
-2.343167187941e-04 2.370284413759e-03 0.0 
1.931524608851e-04 -1.868802835530e-04 0.0 
6.427131419009e-05 1.475515098887e-03 0.0 
2.976347169103e-03 7.213013949771e-03 0.0 
2.338466496538e-03 9.615289296237e-03 0.0 
3.423231385429e-04 4.733459913031e-05 0.0 
3.963131266555e-05 -1.865499522231e-06 0.0 
1.719867425703e-04 -1.355520296029e-04 0.0 
2.997177207793e-03 7.004927724159e-03 0.0 
4.577211116697e-04 1.043574790976e-04 0.0 
2.777788886570e-03 8.163698056438e-03 0.0 
1.607657384996e-04 1.087468237637e-03 0.0 
8.863203949341e-04 9.006116671637e-04 0.0 
1.342487718744e-03 7.380632525998e-03 0.0 
3.108604995465e-04 5.531840136025e-03 0.0 
2.861569092599e-03 7.796245618221e-03 0.0 
2.261126654018e-03 9.977871919890e-03 0.0 
3.069171064378e-03 6.454210070036e-03 0.0 
2.530363259609e-03 3.944725589407e-03 0.0 
5.959292794583e-04 8.759121270585e-03 0.0 
2.747935351336e-03 3.024823688190e-03 0.0 
2.888864738008e-05 -5.486395889552e-04 0.0 
1.436425475303e-04 8.009331086071e-03 0.0 
4.163719465582e-05 -6.447933102771e-04 0.0 
2.223037876842e-03 9.191365009317e-03 0.0 
3.691069483322e-04 8.151205576493e-05 0.0 
2.240714164593e-03 4.673946214534e-03 0.0 
9.261748714315e-05 -1.138166119536e-04 0.0 
1.119825070116e-03 6.493406284453e-03 0.0 
2.293766577899e-03 1.391372317238e-03 0.0 
3.363056063958e-04 8.429465906695e-03 0.0 
2.590031402226e-03 2.933706845744e-03 0.0 
9.108681441800e-05 -5.135528902076e-05 0.0 
1.996815621627e-04 -4.730463820434e-04 0.0 
9.415426282486e-05 -1.975513226506e-05 0.0 
2.399333180770e-03 7.733589678682e-03 0.0 
1.295693680949e-04 7.124523400208e-06 0.0 
1.428786434201e-04 8.506541046062e-03 0.0 
2.299691118063e-03 3.805180594996e-03 0.0 
2.122513093196e-03 9.309042004462e-03 0.0 
7.931401365966e-05 -2.319174027778e-04 0.0 
1.054199799708e-03 7.409858721197e-03 0.0 
2.489976647055e-03 2.588405955985e-03 0.0 
2.710462626816e-04 5.011312195860e-03 0.0 
3.840638336401e-04 8.765878578281e-03 0.0 
2.618329226962e-03 3.612888007474e-03 0.0 
2.193519594504e-03 9.599443265865e-03 0.0 
1.863396572919e-03 2.195549110057e-03 0.0 
2.480626349500e-04 -4.402179234118e-04 0.0 
7.592943921258e-04 4.748712627189e-04 0.0 
9.292774567585e-04 8.544360184872e-04 0.0 
2.247265882244e-03 7.127939303062e-03 0.0 
2.218050674028e-04 -4.262630848199e-04 0.0 
1.199233244972e-03 3.399123982112e-04 0.0 
2.632749506487e-03 8.756553857341e-03 0.0 
1.949112739543e-03 7.007032778157e-03 0.0 
2.218139359366e-03 8.372602379074e-03 0.0 
2.792541468094e-03 3.713311004929e-03 0.0 
1.164620818916e-04 1.150258254089e-03 0.0 
1.814295441914e-03 3.783104854483e-03 0.0 
6.365222963976e-05 -3.495752252351e-05 0.0 
3.459173799246e-04 4.403048576372e-03 0.0 
2.206307668046e-03 2.168118151161e-03 0.0 
1.810479648721e-03 3.275027364225e-03 0.0 
-1.126366296369e-03 1.730876948033e-03 0.0 
2.537568390014e-03 9.081358584369e-03 0.0 
1.278120414995e-03 2.653550483580e-04 0.0 
7.910664596790e-05 -6.314663135093e-04 0.0 
6.875510578486e-04 1.299753897619e-03 0.0 
1.661013609480e-03 5.329113124335e-03 0.0 
9.155679988390e-04 -2.793752023756e-04 0.0 
1.340267359621e-03 3.076585234956e-04 0.0 
1.732555633705e-03 7.631344340656e-03 0.0 
1.450720165151e-03 6.880158881668e-03 0.0 
6.158817894163e-04 1.377040077169e-04 0.0 
5.622911489107e-04 -4.526772025192e-04 0.0 
3.164272133079e-03 5.600952742375e-03 0.0 
2.567170547305e-03 7.054676600602e-03 0.0 
1.550050355916e-03 4.859037826881e-03 0.0 
2.356498950747e-03 7.334373379370e-03 0.0 
2.323726084140e-03 8.257038604793e-03 0.0 
2.499758171187e-03 1.386340436295e-03 0.0 
2.031156440082e-03 2.574773776402e-03 0.0 
-7.431312352221e-04 1.485592846555e-03 0.0 
2.257659115312e-03 7.871736075889e-03 0.0 
2.656809123446e-03 7.235331110503e-03 0.0 
3.126648916417e-03 6.112645345805e-03 0.0 
1.645586526419e-03 3.352045820366e-03 0.0 
1.990463376659e-04 1.521941379238e-03 0.0 
1.275862665466e-03 2.117182086283e-04 0.0 
4.321971526595e-04 8.642776485860e-03 0.0 
2.306785503984e-03 2.482003802255e-03 0.0 
1.247667336244e-03 1.507467800329e-04 0.0 
4.982421380965e-05 -5.971159681165e-04 0.0 
1.516625140316e-03 4.371193192890e-03 0.0 
3.172232295886e-05 -6.037481004784e-04 0.0 
8.889716386673e-05 -6.354735620951e-04 0.0 
3.483076664566e-04 4.995098015188e-03 0.0 
4.617154491843e-04 -4.832776342240e-04 0.0 
1.381955544243e-03 3.904505977516e-03 0.0 
4.262198232442e-04 -4.813426423514e-04 0.0 
9.044575719508e-04 3.387822747499e-03 0.0 
3.904681542957e-04 -1.087010476954e-04 0.0 
2.386043067794e-04 -5.168563535708e-04 0.0 
1.314052338136e-03 3.523840736095e-04 0.0 
2.506148058379e-03 7.584881764374e-03 0.0 
1.123225830774e-04 2.537431495690e-06 0.0 
-9.677378799278e-04 1.504303095502e-03 0.0 
1.450651298829e-03 3.301280691622e-03 0.0 
2.551450632007e-03 2.366552401081e-03 0.0 
2.547807525507e-03 9.017873318903e-03 0.0 
1.342914653370e-03 2.535817946481e-04 0.0 
1.402413003912e-04 1.068192484039e-05 0.0 
1.878480872354e-03 4.254463992160e-03 0.0 
1.564368437804e-03 1.832497868163e-03 0.0 
1.256484582541e-03 3.096409155217e-04 0.0 
1.015243033589e-04 -1.662920764436e-04 0.0 
3.053951088932e-03 6.235142858793e-03 0.0 
1.735135673113e-03 4.819059385953e-03 0.0 
1.133119717749e-03 6.471704383344e-04 0.0 
2.448230202990e-03 2.075969297328e-03 0.0 
1.219935207522e-03 3.573551533088e-03 0.0 
2.337463517075e-03 6.410997367028e-03 0.0 
1.270687402037e-04 5.048909650729e-04 0.0 
3.196619498661e-03 5.260966157824e-03 0.0 
2.556648678319e-03 1.469755312342e-03 0.0 
3.245547864206e-04 7.831994209567e-03 0.0 
1.530302954611e-04 -3.033904430269e-04 0.0 
2.252097064452e-03 7.441471211135e-03 0.0 
1.648986738356e-03 2.124305490542e-03 0.0 
6.343086842691e-04 1.432480106759e-03 0.0 
2.040413571537e-04 2.356748737801e-04 0.0 
1.298346145940e-03 3.915119095633e-03 0.0 
2.510802065317e-03 6.681141323342e-03 0.0 
2.632125442488e-03 4.430778533976e-03 0.0 
1.160059066973e-03 3.442711291943e-03 0.0 
1.901493247904e-03 3.738088412666e-03 0.0 
2.943537801260e-03 6.252236285719e-03 0.0 
1.611408951017e-04 1.799398571911e-05 0.0 
2.510067208389e-03 1.328307077685e-03 0.0 
2.803349760940e-03 6.173771988070e-03 0.0 
2.963432296369e-03 3.456040523654e-03 0.0 
2.540423948380e-03 1.362643708842e-03 0.0 
1.037683412261e-03 1.375346036869e-03 0.0 
1.572151320286e-03 8.283645304431e-03 0.0 
2.381361010383e-03 1.647849423893e-03 0.0 
1.174152985904e-03 3.658683490986e-04 0.0 
1.787132350770e-03 4.293810393758e-03 0.0 
-1.011667753160e-03 1.314875244109e-03 0.0 
2.198764263116e-03 7.015545739473e-03 0.0 
1.701476118515e-03 1.673227044115e-03 0.0 
1.368003979262e-03 2.886930310795e-03 0.0 
9.833543494887e-04 1.152332662012e-03 0.0 
2.354458685308e-03 5.906722782211e-03 0.0 
6.650468117741e-05 -4.980238231150e-04 0.0 
2.764316392708e-03 7.696883253084e-03 0.0 
2.463171994061e-03 1.224957974098e-03 0.0 
2.406945346367e-03 6.812130187802e-03 0.0 
1.568929797326e-03 7.662944004133e-03 0.0 
-1.513276845539e-05 1.211961159799e-03 0.0 
1.239778555213e-03 5.011480777665e-04 0.0 
9.646616233835e-04 1.855362645286e-04 0.0 
2.452924386969e-03 7.916566666712e-03 0.0 
1.829010442899e-03 4.783986132562e-03 0.0 
2.800946481986e-03 7.180130420370e-03 0.0 
2.240166315408e-03 1.565670858945e-03 0.0 
2.286278382100e-03 1.983937201139e-03 0.0 
1.856645364767e-04 1.285547145789e-03 0.0 
2.975379034832e-03 3.149132419501e-03 0.0 
2.954137668840e-04 3.023793963979e-03 0.0 
2.428385127495e-04 4.980066274352e-04 0.0 
3.166552743225e-04 5.126221234989e-04 0.0 
3.201762535946e-03 4.799901660767e-03 0.0 
1.332284251925e-03 1.723870651332e-03 0.0 
1.019259346732e-03 2.385450626197e-03 0.0 
2.818483000856e-03 5.668171833524e-03 0.0 
1.158415872795e-03 1.889853388126e-03 0.0 
1.020558141794e-03 3.036102315591e-04 0.0 
2.979775806779e-03 6.521703790931e-03 0.0 
2.093077834049e-04 1.321832763749e-03 0.0 
2.005965685971e-03 2.058415466107e-03 0.0 
2.569060020539e-03 1.539048545993e-03 0.0 
5.550725324386e-04 2.812956182290e-03 0.0 
2.290578158180e-04 6.305789337952e-05 0.0 
1.224347946643e-03 2.189248018035e-03 0.0 
3.085903199416e-03 5.720255335226e-03 0.0 
3.939047821768e-04 1.125421226120e-03 0.0 
1.845542897984e-03 4.720987128792e-04 0.0 
2.486430972291e-03 1.893116369303e-03 0.0 
1.049321552162e-03 1.347960457858e-04 0.0 
2.669457778751e-03 6.884303518857e-03 0.0 
3.299366520650e-04 3.734723924368e-04 0.0 
2.006734250083e-03 1.623074032652e-03 0.0 
2.374185940234e-03 1.076129789535e-03 0.0 
5.189994767585e-04 2.459180653507e-03 0.0 
1.057359625198e-03 5.853180057649e-03 0.0 
1.317520717975e-03 1.906855127727e-04 0.0 
1.634621796491e-03 4.286341567934e-03 0.0 
1.050548154500e-03 6.348096484175e-03 0.0 
3.914774519821e-04 3.222376040996e-04 0.0 
1.158019830296e-03 1.902337165944e-04 0.0 
3.345221878893e-04 4.249489348836e-04 0.0 
1.293948420216e-03 6.380541136080e-03 0.0 
2.152543390097e-03 3.555298852176e-03 0.0 
1.018342197284e-03 4.379754629553e-03 0.0 
2.633770447006e-03 7.770784836216e-03 0.0 
2.710172489368e-03 6.362045299978e-03 0.0 
2.637875864405e-03 6.018060873397e-03 0.0 
3.199867413932e-03 4.995918163642e-03 0.0 
3.992121140001e-04 2.687839213484e-04 0.0 
1.642329577166e-03 6.828442828357e-03 0.0 
2.189344569701e-03 7.956251284729e-03 0.0 
2.183284456427e-03 1.718905708166e-03 0.0 
3.529680897232e-04 -5.046716877582e-04 0.0 
2.437726319563e-03 8.502350472851e-03 0.0 
1.852944351995e-03 3.956026181920e-03 0.0 
2.891658523117e-04 8.735198832554e-03 0.0 
9.893486847292e-04 3.703306234690e-05 0.0 
1.909386193682e-03 1.778402840570e-03 0.0 
1.552557764598e-03 3.870821415025e-03 0.0 
1.749605563358e-03 3.473767960345e-03 0.0 
2.709746877891e-03 7.228796138010e-03 0.0 
2.286159484410e-03 9.642144371244e-04 0.0 
1.276355901112e-03 -2.072751384753e-05 0.0 
3.507100816506e-04 1.778946645447e-04 0.0 
2.590674840432e-03 8.779537851607e-03 0.0 
1.200005843332e-03 7.404512128190e-04 0.0 
9.039610619046e-04 -2.814728704875e-04 0.0 
1.873226795567e-03 6.281004283263e-03 0.0 
1.731815177081e-03 4.870299244137e-03 0.0 
1.620671224505e-03 2.865257753502e-03 0.0 
3.036638333755e-03 5.493467437217e-03 0.0 
2.629312624322e-03 8.624860338342e-03 0.0 
2.639771577215e-03 8.115605643728e-03 0.0 
3.133291097114e-04 1.122846164142e-04 0.0 
7.864334766797e-04 2.918767784141e-04 0.0 
1.542975908193e-03 2.897259767826e-03 0.0 
1.606300843160e-03 4.351860809973e-03 0.0 
1.311338005447e-03 -1.782027531502e-05 0.0 
2.938200754914e-03 6.067340558324e-03 0.0 
1.261840858541e-03 1.469318530300e-03 0.0 
1.615064589269e-03 1.426246085231e-03 0.0 
3.138746391525e-03 5.427629943040e-03 0.0 
1.931469584860e-03 5.272610102144e-04 0.0 
6.513553603120e-04 -3.395287643549e-04 0.0 
1.310484797624e-03 2.957080412870e-03 0.0 
1.137579969068e-03 5.794773223102e-04 0.0 
3.138871197314e-03 4.637167911897e-03 0.0 
2.858387684630e-03 6.485659224336e-03 0.0 
3.003381413770e-03 5.067294705526e-03 0.0 
3.278756536156e-04 4.678930707802e-04 0.0 
2.878997539631e-04 5.229588561096e-04 0.0 
7.250663300175e-04 1.293324412944e-03 0.0 
1.312027433029e-03 2.149039282481e-05 0.0 
1.084131916032e-03 3.440331983926e-03 0.0 
1.300566916548e-03 4.076354187826e-03 0.0 
1.908710322385e-03 1.385893994350e-03 0.0 
6.010697637984e-04 1.203612232144e-03 0.0 
2.862714123769e-03 7.557927396992e-03 0.0 
1.416146619429e-03 8.327105291710e-03 0.0 
1.210637555046e-03 6.377928239785e-03 0.0 
5.805765588155e-04 1.611333636086e-04 0.0 
1.775027370846e-03 2.796573610368e-03 0.0 
2.233684320119e-03 6.507315086934e-03 0.0 
2.642965160712e-03 5.518863415227e-03 0.0 
7.748902521478e-04 1.070690318282e-03 0.0 
2.556650928475e-05 -3.566240546358e-04 0.0 
2.786130513359e-03 2.761081340695e-03 0.0 
3.192138216650e-03 4.203138853653e-03 0.0 
2.892499883241e-03 2.822585330048e-03 0.0 
-4.999153293323e-04 2.876942589298e-03 0.0 
2.695364918988e-04 7.573697535866e-03 0.0 
3.078620075114e-04 -4.982135706330e-04 0.0 
1.565773340336e-03 2.660516683079e-03 0.0 
1.217714538150e-04 3.507228198841e-05 0.0 
2.301705743867e-03 1.102132403696e-03 0.0 
2.089796162705e-03 8.034855277058e-03 0.0 
2.591212003011e-05 -6.498626008215e-04 0.0 
3.193530697735e-03 5.376090154974e-03 0.0 
2.689700549201e-03 2.448110943345e-03 0.0 
2.453931121083e-03 5.793498094659e-03 0.0 
3.564068122993e-04 3.609382554762e-04 0.0 
2.532458858940e-03 7.956497380836e-03 0.0 
2.898431341038e-03 5.466710239642e-03 0.0 
7.122482224047e-04 -3.228275818482e-04 0.0 
1.317201896726e-03 3.430856953255e-03 0.0 
1.259396716487e-03 1.900876349875e-05 0.0 
3.858141247106e-04 3.527455353297e-04 0.0 
1.699391417167e-04 2.281170939624e-04 0.0 
1.136575212101e-04 2.478939180067e-04 0.0 
1.587187624236e-04 2.728461466811e-04 0.0 
2.447777157301e-03 5.300319070907e-03 0.0 
1.398128414236e-03 3.416504773682e-03 0.0 
1.486349915902e-03 2.422759687551e-03 0.0 
3.032037772457e-03 5.547717424449e-03 0.0 
2.935796968689e-03 6.585331057675e-03 0.0 
5.486579949212e-04 -3.873600358667e-04 0.0 
1.387553754075e-03 2.940991618497e-03 0.0 
3.976381083560e-04 2.958299846146e-04 0.0 
1.086585640086e-03 2.975402679672e-03 0.0 
2.455255867618e-03 1.239839562402e-03 0.0 
1.160119071535e-03 2.974161459102e-03 0.0 
2.709285758579e-03 2.461592848993e-03 0.0 
3.157750611026e-03 4.229570461210e-03 0.0 
2.798034811331e-03 7.996088438563e-03 0.0 
7.503559750480e-04 2.260296692653e-03 0.0 
3.038227623087e-04 1.074738942091e-03 0.0 
2.875315769986e-03 5.022927235791e-03 0.0 
1.255968366197e-03 9.709289644490e-04 0.0 
6.053476807594e-04 -3.739802760240e-04 0.0 
8.089726241014e-04 -9.746009731724e-05 0.0 
4.510312143588e-04 1.204453598633e-04 0.0 
1.929688432633e-03 3.201151104600e-03 0.0 
1.645830461725e-04 1.968318409211e-04 0.0 
5.181618787438e-04 9.825753385839e-04 0.0 
3.030672987152e-03 5.014573227983e-03 0.0 
-6.424589542753e-05 -3.472471706680e-04 0.0 
1.910532064069e-04 1.842977039605e-04 0.0 
5.371693147964e-04 1.736568611078e-04 0.0 
8.594276210481e-04 -1.422386074175e-05 0.0 
2.268000213283e-03 9.792373810600e-04 0.0 
3.521890980094e-04 1.633769416953e-04 0.0 
-1.462640638931e-04 -3.756888764311e-04 0.0 
3.062022987343e-03 4.630724627547e-03 0.0 
2.885021396568e-03 4.986924538119e-03 0.0 
3.138811091361e-03 4.953441237510e-03 0.0 
2.968448217751e-03 5.738887455571e-03 0.0 
1.079976665340e-03 2.737689139499e-03 0.0 
1.967165336784e-04 1.537897727305e-04 0.0 
2.136816916158e-03 1.341834713701e-03 0.0 
7.137603628761e-06 9.846345515627e-04 0.0 
2.081617026947e-04 2.246517770140e-05 0.0 
-8.104300296700e-05 -3.875700309399e-04 0.0 
2.721914031573e-03 8.195730905326e-03 0.0 
1.918723322272e-04 3.163970502640e-05 0.0 
2.335808422372e-03 8.654183782499e-03 0.0 
2.799606637496e-04 9.125671206259e-05 0.0 
1.982905393225e-04 1.267437094642e-04 0.0 
2.540792671800e-03 6.166783815016e-03 0.0 
-4.414303631211e-06 -3.708372963551e-05 0.0 
-1.666824540817e-04 9.169519976091e-04 0.0 
1.315981991779e-04 -4.978576763091e-05 0.0 
6.401923217722e-04 3.345853994320e-05 0.0 
1.493631612442e-03 8.619067256607e-03 0.0 
2.048594698509e-03 7.600905296874e-03 0.0 
1.775513035848e-04 9.396088970166e-05 0.0 
1.340290034343e-03 8.653778698136e-03 0.0 
2.120230311634e-04 4.894387102073e-04 0.0 
2.569434276874e-03 2.168681705425e-03 0.0 
1.117047590956e-03 6.875463603477e-03 0.0 
2.114496026115e-03 5.731093909695e-03 0.0 
2.348110542665e-03 1.106034321775e-03 0.0 
4.405255038367e-04 1.590683334184e-03 0.0 
1.790303199436e-04 7.944316685224e-05 0.0 
1.579365118989e-04 2.397759768178e-04 0.0 
1.291809915395e-04 2.501127094285e-04 0.0 
1.182422191112e-03 -1.963005444260e-05 0.0 
4.512389211297e-04 -4.299647259784e-04 0.0 
3.111339520141e-03 3.856223019423e-03 0.0 
1.125137315540e-03 -1.645294524526e-05 0.0 
1.686178931750e-04 6.329666868514e-05 0.0 
1.482834626325e-03 2.315072903621e-03 0.0 
1.255133265118e-03 3.060113103051e-04 0.0 
1.247702209866e-03 1.490183103479e-04 0.0 
9.737856783206e-04 6.325943531667e-03 0.0 
2.043490512874e-04 5.146390441958e-05 0.0 
-5.012732307987e-05 -1.110877063765e-04 0.0 
1.352494472131e-04 4.226876433352e-05 0.0 
1.054885439671e-03 1.537093638088e-06 0.0 
1.653536058924e-04 1.766405515157e-04 0.0 
1.557840235751e-03 2.396022804371e-03 0.0 
-2.111164702598e-04 -3.201569023777e-04 0.0 
3.036844520896e-03 3.833823053261e-03 0.0 
9.452518279348e-04 2.961257880917e-03 0.0 
1.947609183037e-04 1.684478313691e-04 0.0 
2.539728004326e-03 5.174407333095e-03 0.0 
2.397605620076e-03 1.766250560030e-03 0.0 
2.552749071753e-04 2.338093194363e-03 0.0 
8.485511386301e-04 2.567034196853e-04 0.0 
1.041983910286e-03 -1.018618176696e-04 0.0 
1.176362167182e-03 5.530541340214e-05 0.0 
-2.573330232084e-04 -6.451951488627e-06 0.0 
2.009215746776e-04 1.420402118842e-04 0.0 
8.624582353912e-04 1.522571567753e-03 0.0 
1.088541618365e-03 2.001046951062e-04 0.0 
1.096218029643e-03 7.422872473643e-03 0.0 
6.742645054525e-04 -3.513625237267e-04 0.0 
1.186198349787e-03 1.930129740227e-04 0.0 
2.730395025591e-03 5.357247687262e-03 0.0 
1.731587780658e-04 8.393377484308e-05 0.0 
4.402890775055e-04 -4.084506361743e-04 0.0 
1.198795710198e-03 8.593418422829e-05 0.0 
3.186499698127e-03 4.068048163229e-03 0.0 
1.667009472517e-03 2.861534091059e-04 0.0 
1.395797006731e-03 3.700252038430e-04 0.0 
1.274996719314e-03 5.684686521210e-05 0.0 
3.209473520640e-03 4.475672706188e-03 0.0 
2.683878347862e-03 2.962989606913e-03 0.0 
2.166467503148e-03 9.734305236578e-04 0.0 
3.177027714432e-03 3.821608397761e-03 0.0 
7.857890706829e-04 -3.189465067558e-04 0.0 
1.828503529178e-03 2.802250208161e-03 0.0 
5.037010342497e-04 -4.194493495942e-04 0.0 
2.555844460301e-03 2.020619137454e-03 0.0 
2.355863924719e-03 1.044618729027e-03 0.0 
2.570209010281e-04 7.734104632194e-05 0.0 
9.316999473656e-04 2.518794818858e-03 0.0 
5.849573004065e-04 -3.851925198034e-04 0.0 
1.447112165365e-04 4.898794772907e-05 0.0 
6.292898047197e-04 1.933425285151e-04 0.0 
2.888004268396e-03 2.568346662327e-03 0.0 
-1.640798298125e-04 -9.859589068603e-05 0.0 
1.845282012042e-04 4.268013378351e-05 0.0 
1.136139639639e-03 2.523904474469e-03 0.0 
8.764468412084e-04 -1.264061700292e-04 0.0 
1.072863620030e-04 2.798561139110e-05 0.0 
1.132156917369e-03 1.908160571619e-05 0.0 
2.988304332274e-03 6.965160750141e-03 0.0 
2.094810304169e-03 7.096375832882e-03 0.0 
2.414493238555e-03 1.159110282434e-03 0.0 
1.197653415868e-03 -6.295553392960e-05 0.0 
1.759972300559e-03 3.935582224985e-04 0.0 
1.756423223833e-03 5.308467066323e-03 0.0 
2.918457205956e-03 7.329157173357e-03 0.0 
2.140965324602e-03 1.053475165960e-03 0.0 
2.542294951745e-04 7.002956101820e-03 0.0 
7.235302233111e-04 -3.402227986570e-04 0.0 
2.152250990107e-03 8.707649874156e-04 0.0 
9.782675835793e-04 -1.672841407871e-04 0.0 
6.145697496634e-04 -1.535027145386e-04 0.0 
-2.895885359999e-04 -2.049767311683e-04 0.0 
2.183838424982e-03 3.350840376411e-03 0.0 
9.924385930965e-04 -7.866590216248e-05 0.0 
6.341709728371e-04 -3.192217184853e-04 0.0 
3.022057940209e-03 2.888766718183e-03 0.0 
1.205041795768e-03 5.374259823220e-05 0.0 
9.592282327120e-04 6.814481235821e-03 0.0 
8.230588053470e-04 -1.943005071758e-04 0.0 
9.706268928442e-05 2.347829302848e-05 0.0 
2.949072926680e-03 4.780207544814e-03 0.0 
5.524900640707e-04 -3.101490479054e-04 0.0 
3.080002552650e-03 4.767172420463e-03 0.0 
5.746217545163e-04 -3.324574171715e-04 0.0 
-2.105862447060e-04 -2.750382308859e-04 0.0 
2.028267397310e-03 6.658128631237e-03 0.0 
1.547626251510e-04 -4.617407155720e-04 0.0 
1.847295726559e-05 -6.218991106555e-04 0.0 
4.606337945742e-04 -3.536003561230e-04 0.0 
1.112689178002e-03 8.111692358361e-05 0.0 
2.637939839550e-04 3.072046675641e-03 0.0 
1.823977292389e-03 4.015174807283e-04 0.0 
1.754562334070e-03 3.594200163542e-04 0.0 
2.016945216896e-03 8.543600434069e-03 0.0 
1.336576852574e-03 9.281078113934e-03 0.0 
3.658759267784e-04 9.972539597702e-04 0.0 
3.169479870201e-03 4.665699539788e-03 0.0 
1.504235376834e-05 -6.302497595668e-04 0.0 
2.213471126974e-04 -5.417986208030e-04 0.0 
-1.096212951270e-04 -2.381353800501e-04 0.0 
5.350200374638e-04 -4.558542371369e-04 0.0 
1.908906013090e-03 2.121508282789e-03 0.0 
3.017531931018e-04 3.104680559614e-03 0.0 
6.809656697089e-04 1.536450447462e-05 0.0 
4.919237398077e-04 -4.840722388284e-04 0.0 
5.565815720829e-04 -1.657002620983e-04 0.0 
9.553605507795e-04 1.747479673145e-04 0.0 
3.771127582134e-04 9.217609885431e-04 0.0 
1.095691832897e-04 -4.636983275334e-04 0.0 
7.384340151666e-05 -5.308414254652e-04 0.0 
1.696628734676e-04 3.562563835931e-05 0.0 
8.746551191978e-05 1.920184075503e-05 0.0 
1.159240979131e-04 -4.137521442480e-04 0.0 
4.944089084243e-04 -3.207167629335e-04 0.0 
1.156350422410e-03 -5.937644519862e-05 0.0 
9.104547393081e-04 2.010438293173e-04 0.0 
2.622501133791e-04 -5.473376235042e-04 0.0 
9.829123635688e-04 1.410721539215e-04 0.0 
7.064329403479e-05 -6.427048142639e-04 0.0 
4.792096518572e-04 -3.767194468072e-04 0.0 
6.728363581140e-04 -2.838230715366e-04 0.0 
4.413214106052e-05 -6.541385673436e-04 0.0 
9.170976308214e-05 -4.389731902397e-04 0.0 
8.662932861562e-04 2.507029328120e-03 0.0 
2.181055614125e-05 -6.462643625589e-04 0.0 
1.479958001892e-03 9.208210289128e-03 0.0 
1.543559191973e-03 9.465826433867e-03 0.0 
1.830974164519e-03 4.977937896839e-04 0.0 
3.663573981609e-05 -5.335023296785e-04 0.0 
8.753342305286e-04 -2.119825624266e-04 0.0 
8.471463493358e-04 2.966310734737e-03 0.0 
4.330411920449e-04 2.512936581148e-05 0.0 
7.595496988027e-04 5.821820891439e-04 0.0 
5.504699231589e-04 3.738388644894e-03 0.0 
2.041971982826e-03 5.076180527897e-03 0.0 
1.194979005341e-04 -5.188401626471e-04 0.0 
2.737398098340e-03 7.883490667345e-03 0.0 
9.463221799736e-04 9.299148488305e-03 0.0 
8.860977120731e-04 9.607533555194e-03 0.0 
2.619781750448e-05 -6.398349745806e-04 0.0 
5.120368342947e-05 -6.454775134237e-04 0.0 
4.006233459978e-05 -6.550053730067e-04 0.0 
3.566176562027e-04 -5.422370674902e-04 0.0 
3.384295791183e-05 -6.587852244622e-04 0.0 
9.569063826561e-05 -3.862970794154e-04 0.0 
-4.815784987015e-04 2.128713758262e-04 0.0 
4.339973623702e-04 -5.105297592638e-04 0.0 
2.253259859416e-04 5.882644178726e-03 0.0 
1.261198789669e-03 9.598122760403e-03 0.0 
1.635073154682e-03 1.900692883263e-03 0.0 
1.059892617717e-03 2.097533852240e-05 0.0 
2.031872473919e-04 6.776147448691e-03 0.0 
1.978179857530e-05 -5.124320053330e-04 0.0 
4.368351955904e-05 -6.557558733739e-04 0.0 
4.480927914101e-05 2.677200254990e-04 0.0 
1.023889806158e-04 5.573217729037e-04 0.0 
1.015161147579e-03 7.384043058495e-03 0.0 
1.071796117481e-03 9.318817647718e-03 0.0 
9.887341546254e-05 -5.087621647988e-04 0.0 
6.627814598598e-05 5.292035745129e-04 0.0 
4.144678040172e-04 -5.196918201503e-04 0.0 
1.398759827110e-03 9.543547740029e-03 0.0 
1.200202650681e-03 9.318123794926e-03 0.0 
2.425736183012e-03 8.877659778127e-03 0.0 
9.836550995331e-05 2.415447922006e-04 0.0 
8.053276934527e-05 5.274199115898e-04 0.0 
4.051001306296e-05 -6.512118191456e-04 0.0 
2.799022236621e-05 -6.523104276466e-04 0.0 
1.653875640548e-04 -5.562117893493e-04 0.0 
7.356885338108e-04 -2.675568283338e-04 0.0 
4.360842879742e-05 -1.005473383999e-05 0.0 
-6.090624073707e-04 3.401748955162e-04 0.0 
7.065451470854e-05 3.877305240218e-03 0.0 
-3.765093564115e-04 1.313419738984e-05 0.0 
1.668311235945e-03 3.524436664686e-04 0.0 
-3.815738899824e-04 -6.106020670723e-05 0.0 
-4.871805222431e-04 1.195742105991e-04 0.0 
1.591637839066e-03 2.566659005041e-04 0.0 
1.742454568902e-04 -1.175151063796e-05 0.0 
1.892029661812e-04 6.214214736230e-03 0.0 
2.916275780389e-03 7.065000451372e-03 0.0 
3.384262174686e-05 -6.600283580539e-04 0.0 
4.575168003858e-04 -1.545405564104e-04 0.0 
1.574802755036e-05 3.154842811095e-04 0.0 
3.106378785067e-05 5.345372317323e-04 0.0 
1.130998889685e-03 9.618083117690e-03 0.0 
1.721692923424e-03 4.436883775714e-04 0.0 
3.572349020426e-05 2.596998860908e-04 0.0 
2.373843350463e-03 1.640894352861e-03 0.0 
2.655276579629e-05 -6.595322820185e-04 0.0 
2.420076419692e-05 -6.639381553630e-04 0.0 
2.053209320562e-05 -6.641925796948e-04 0.0 
2.221717335265e-05 -4.652127462889e-04 0.0 
3.503775556509e-05 3.442626599294e-06 0.0 
8.441497293096e-06 1.453144571043e-03 0.0 
1.838864130454e-05 -6.666734819524e-04 0.0 
4.925913008203e-05 -3.850901900694e-04 0.0 
1.185841926348e-05 1.256266580161e-06 0.0 
4.958141879492e-05 5.017669224860e-06 0.0 
1.560998854193e-04 2.977333152903e-05 0.0 
3.971362749781e-05 4.848934831434e-03 0.0 
1.554968476257e-05 3.387585094901e-03 0.0 
2.317933630161e-05 2.186360019133e-06 0.0 
2.640208249331e-05 2.831309205727e-06 0.0 
3.458540113030e-05 3.877578816452e-03 0.0 
1.261058856302e-05 -6.695195357527e-04 0.0 
6.652621385508e-04 9.608018502366e-03 0.0 
1.007846966540e-03 9.619892361480e-03 0.0 
2.490297036346e-05 -6.609034458554e-04 0.0 
4.415322662554e-05 6.269847913561e-06 0.0 
1.466265314135e-04 2.517987265567e-05 0.0 
7.272400754195e-05 1.183033873092e-05 0.0 
1.909051130611e-05 -6.648819060366e-04 0.0 
2.267236281541e-05 -6.573553972377e-04 0.0 
8.219736154779e-05 1.642379760428e-05 0.0 
7.390252387155e-05 1.334953392476e-05 0.0 
2.067791113008e-05 5.348962993388e-03 0.0 
3.488497063137e-04 9.606030529609e-03 0.0 
1.903571636773e-05 4.357837963691e-03 0.0 
2.540540032594e-05 7.318873094626e-03 0.0 
1.492698573398e-04 9.599323441499e-03 0.0 
1.350713366086e-06 -6.078133355640e-04 0.0 
-5.126072449518e-05 -5.357226472932e-04 0.0 
-9.231889974831e-05 -4.814466511978e-04 0.0 
-1.459024768228e-04 -4.104994977621e-04 0.0 
2.523459510293e-05 -3.571946512368e-04 0.0 
2.402453497910e-05 -4.130507373367e-04 0.0 
-5.071793601314e-05 -5.154055239621e-04 0.0 
2.649755402123e-05 -1.910222032608e-04 0.0 
-9.288044558107e-05 -4.542630654739e-04 0.0 
7.848410932174e-05 2.537061627759e-04 0.0 
3.055465578172e-05 2.695036884221e-04 0.0 
5.757970147477e-05 2.896017474047e-04 0.0 
9.596942117196e-06 -6.399113935187e-04 0.0 
1.685394124079e-05 -5.538379741194e-04 0.0 
2.887352513954e-05 3.242433640259e-04 0.0 
1.841239891624e-05 -5.084515824721e-05 0.0 
1.531576030031e-05 2.190529506228e-04 0.0 
1.350444183651e-05 -2.106621552996e-05 0.0 
8.196063703009e-06 -3.261467120895e-06 0.0 
4.624170833175e-05 -4.394786726744e-04 0.0 
5.942818092126e-05 5.937470524480e-04 0.0 
4.418928543985e-05 5.432963146488e-04 0.0 
3.191684075275e-05 -3.497787728686e-05 0.0 
2.170050553952e-05 -1.035648500451e-05 0.0 
2.723702005595e-04 -1.257162346670e-04 0.0 
-2.871890718252e-04 -1.477006361001e-04 0.0 
3.888724404007e-04 -4.165616226817e-04 0.0 
4.307115409594e-05 -6.401467339463e-04 0.0 
4.026117000635e-04 1.648521491606e-05 0.0 
5.351164561529e-04 -3.661442228837e-04 0.0 
3.146770252156e-04 -4.646453768256e-05 0.0 
3.297560373039e-04 -5.472485979154e-04 0.0 
9.195780575670e-05 -6.228283361811e-04 0.0 
2.182361559530e-04 -2.126795562922e-05 0.0 
4.056306426382e-04 -3.620686344693e-04 0.0 
8.388292711462e-05 -4.882584325815e-04 0.0 
2.758597200401e-04 -5.252038154919e-05 0.0 
9.667149341767e-05 2.459195727242e-03 0.0 
4.199897192795e-05 -4.892673689024e-04 0.0 
1.083559621674e-03 1.061079155253e-04 0.0 
7.964940302995e-04 -1.068359215661e-04 0.0 
3.212620835999e-04 -1.196082621176e-04 0.0 
2.336867376675e-04 -1.047633681475e-04 0.0 
1.981911129479e-03 1.257889524620e-03 0.0 
2.813846961238e-03 7.904695837185e-03 0.0 
3.044597116035e-03 3.180378093384e-03 0.0 
5.119183459919e-04 -1.448542702879e-04 0.0 
1.961100479411e-04 -4.276683792049e-05 0.0 
1.536147105096e-04 -8.897897825288e-05 0.0 
4.619806231619e-04 -4.510126258276e-04 0.0 
1.836745820185e-04 2.536661631442e-03 0.0 
2.355223971418e-04 3.513749862410e-03 0.0 
4.455267242477e-04 8.116704570815e-03 0.0 
5.717332466682e-04 -1.034244897676e-04 0.0 
4.138783776771e-04 -1.331751436387e-04 0.0 
1.251041109340e-04 2.510625718471e-03 0.0 
1.605540351139e-04 3.014221288432e-03 0.0 
8.482038691729e-04 -1.218678898747e-04 0.0 
1.479032813854e-04 -1.524843728263e-05 0.0 
4.985137686870e-04 3.707662605489e-03 0.0 
1.092102302777e-04 -9.088496071744e-05 0.0 
2.959205766184e-04 1.245030134445e-05 0.0 
2.143491556230e-04 2.561785911355e-03 0.0 
4.186419599690e-04 5.082475340457e-03 0.0 
1.046670963921e-03 5.081907039373e-05 0.0 
1.757486628890e-04 -5.951646982044e-04 0.0 
4.438785225740e-04 -4.050304004365e-04 0.0 
1.159558583589e-04 -5.454218933005e-04 0.0 
-1.888713448585e-04 -1.656501712004e-04 0.0 
1.943804786803e-04 3.013679211357e-03 0.0 
1.572834798921e-04 -2.940853798488e-05 0.0 
-1.289367307997e-04 -2.902473446674e-04 0.0 
1.347336792769e-03 2.482109619047e-03 0.0 
5.227965664654e-04 7.625681956579e-03 0.0 
3.650741231447e-04 -6.168058164270e-05 0.0 
1.992881006215e-04 -6.272938396384e-05 0.0 
8.570756171685e-04 -2.752686506174e-04 0.0 
1.608896085073e-04 -6.675782786251e-05 0.0 
5.033646794465e-04 8.135884704913e-03 0.0 
2.097123078769e-03 8.688600480920e-04 0.0 
2.253739992940e-04 1.396501284505e-05 0.0 
9.309215219423e-05 -6.057232323812e-04 0.0 
3.757754143224e-04 3.284772453630e-05 0.0 
3.223195762430e-04 4.536083850568e-03 0.0 
1.471862301848e-04 -5.861416116910e-04 0.0 
5.439083683568e-04 -4.225541628103e-04 0.0 
2.219635688566e-04 -2.978517763912e-04 0.0 
5.727055986750e-04 6.151359661477e-03 0.0 
4.598117404905e-04 -4.681609418963e-04 0.0 
2.376813044664e-04 3.987424976445e-03 0.0 
3.616317731337e-04 5.534489719661e-03 0.0 
4.684941873071e-04 -2.969048402992e-04 0.0 
1.871444019440e-04 -1.093772925085e-04 0.0 
2.385555383473e-04 -8.033660999321e-05 0.0 
2.770519370618e-04 4.500177677094e-03 0.0 
1.842023400639e-04 -6.075432828472e-04 0.0 
3.829346249844e-04 -3.376127086371e-04 0.0 
1.719061432901e-03 8.702061862956e-04 0.0 
3.671068862953e-04 4.089566815590e-03 0.0 
3.727898628165e-04 -3.932987116609e-04 0.0 
7.341948478572e-04 -1.243174541555e-04 0.0 
4.927200255417e-04 4.405840406198e-05 0.0 
3.670851754499e-04 5.049867952970e-03 0.0 
-1.498180051377e-04 7.309634857024e-04 0.0 
1.079679174525e-04 -6.003152042303e-04 0.0 
7.372164811817e-04 8.736751791454e-04 0.0 
2.307205484973e-04 -3.812318220949e-05 0.0 
4.666149932280e-04 5.598966009012e-03 0.0 
1.615594079301e-04 -2.477277757649e-04 0.0 
6.040653329931e-04 7.159416140887e-03 0.0 
9.090429367915e-04 1.492605403144e-04 0.0 
3.833898460424e-04 -2.804548164508e-04 0.0 
2.805166572097e-04 -7.477126328955e-05 0.0 
1.478847783821e-04 -5.991257553546e-04 0.0 
3.236871923200e-04 1.901586218072e-05 0.0 
4.120230558032e-04 -3.053325076566e-04 0.0 
1.164790724815e-04 -5.898061784063e-04 0.0 
3.296641515335e-04 -3.434073150795e-04 0.0 
4.086000154182e-04 -4.594815370510e-04 0.0 
3.941969602781e-04 -5.239610470031e-04 0.0 
2.131670359097e-04 -2.412533544653e-04 0.0 
6.142395684855e-06 -5.974198187090e-04 0.0 
-1.655564426089e-05 -5.624237843853e-04 0.0 
3.629251276715e-04 -1.409324862757e-04 0.0 
1.706748086152e-04 -6.056479726729e-04 0.0 
5.179523910942e-04 -1.146153440641e-04 0.0 
6.236873791463e-04 -1.214658684317e-04 0.0 
6.701096478000e-04 -3.755651609526e-04 0.0 
7.143721256549e-04 -2.358184559785e-04 0.0 
4.275518267830e-04 3.200800059175e-03 0.0 
-1.744046500601e-04 1.722516149650e-03 0.0 
3.524703641672e-04 -4.460601540274e-04 0.0 
8.642776278981e-04 1.749844268149e-04 0.0 
1.402610926773e-04 -6.192613527093e-04 0.0 
5.599448702796e-04 6.637436422658e-03 0.0 
5.832654614016e-04 7.659348863734e-03 0.0 
2.414988200325e-04 -5.661425300361e-04 0.0 
6.265688904975e-04 6.144401052773e-05 0.0 
6.381007204855e-04 4.728742282415e-03 0.0 
1.958659088586e-04 -6.001855683099e-04 0.0 
4.420783669274e-04 2.770702023470e-03 0.0 
3.984681767467e-04 2.738125797825e-03 0.0 
2.330722955873e-04 -5.841007002078e-04 0.0 
2.376438934841e-03 5.895547838669e-03 0.0 
3.244395584966e-04 -5.558964004683e-04 0.0 
3.245397395704e-04 -9.309004889441e-05 0.0 
2.981105003791e-04 -2.617086492791e-04 0.0 
1.066700431060e-03 2.526633341127e-03 0.0 
3.832936023629e-04 3.169451899408e-03 0.0 
4.179554943649e-04 -1.048160817004e-04 0.0 
4.676279621758e-04 -9.594256824822e-05 0.0 
2.738814963085e-04 -5.657945479239e-04 0.0 
3.702799003297e-04 -8.605521111418e-05 0.0 
5.797410580920e-04 4.698364986562e-03 0.0 
2.446563452891e-04 -2.672045252223e-04 0.0 
5.228397020720e-04 5.632785731202e-03 0.0 
5.151645371557e-04 4.186223792733e-03 0.0 
2.489563882200e-03 1.418508356631e-03 0.0 
3.576395489362e-04 3.612619412054e-03 0.0 
3.000758555310e-04 -3.746875847647e-04 0.0 
3.284345128357e-04 -2.872671030830e-04 0.0 
3.220103914544e-04 -4.944226994520e-04 0.0 
7.209561606881e-04 -3.798025784453e-04 0.0 
5.263083243428e-04 5.149257006121e-03 0.0 
1.078813803641e-03 -1.421479395946e-04 0.0 
3.078334464498e-04 -5.570170333688e-04 0.0 
1.551212310436e-04 -5.759453246826e-04 0.0 
5.835922694158e-04 5.181430214681e-03 0.0 
3.424893042190e-04 -5.467824408677e-04 0.0 
3.987522837923e-04 4.030625588824e-05 0.0 
4.192953717396e-04 4.601683719355e-03 0.0 
4.082585402011e-04 -5.392119369880e-05 0.0 
4.938526074878e-04 1.460146614583e-04 0.0 
3.205055491601e-04 -4.001230555139e-04 0.0 
2.628404560950e-04 -5.764396299255e-04 0.0 
1.903294863395e-04 -5.803370626682e-04 0.0 
5.691878504448e-04 -7.478784446989e-05 0.0 
4.050259758468e-04 6.052285759791e-03 0.0 
1.128045161525e-04 -5.856634378418e-04 0.0 
4.122092821632e-04 -4.785474936898e-04 0.0 
9.743097830184e-05 -6.164295354467e-04 0.0 
6.337320542084e-04 6.184511808254e-03 0.0 
3.612480955604e-04 -4.674659785927e-04 0.0 
6.817177619030e-04 -1.074302971960e-04 0.0 
2.777281567651e-04 -4.991072380018e-04 0.0 
2.742613288119e-04 3.546993046781e-03 0.0 
4.053183382620e-04 -5.109708388442e-04 0.0 
7.296838261873e-04 -3.244213724046e-05 0.0 
4.134661974283e-04 -4.434646136660e-04 0.0 
6.823093022923e-04 -7.675826102808e-05 0.0 
2.507804602565e-04 -3.230281980962e-04 0.0 
5.109158178920e-04 -5.945844023626e-05 0.0 
1.473240171767e-03 4.995814656876e-04 0.0 
1.215164467864e-04 -6.134966251354e-04 0.0 
4.855679596480e-04 7.092363956101e-03 0.0 
1.587529636005e-03 2.888179517224e-04 0.0 
3.162459017318e-03 5.050089256069e-03 0.0 
4.584524114220e-04 6.084154661656e-03 0.0 
5.334418803573e-04 -3.752167695912e-04 0.0 
8.368150215766e-04 5.785667096781e-03 0.0 
1.189666153555e-04 -6.231489480216e-04 0.0 
5.138959187167e-04 2.286948438687e-05 0.0 
1.644600592275e-03 3.768787447368e-04 0.0 
2.081633037869e-03 9.511422253966e-04 0.0 
3.203486127596e-04 2.221259644603e-03 0.0 
1.081340123783e-03 -9.351680598052e-05 0.0 
2.059137988632e-04 -5.999944877891e-04 0.0 
9.253996749381e-04 -6.502925262297e-05 0.0 
5.251925460287e-04 5.563113757192e-05 0.0 
8.194232850604e-04 -2.667478474461e-04 0.0 
4.631367851970e-04 -6.942230971815e-05 0.0 
4.707370272694e-04 4.634645662829e-03 0.0 
6.884301442925e-04 -1.420592118593e-04 0.0 
8.014471265422e-04 -7.407104695886e-05 0.0 
8.676359873651e-04 7.282467919060e-03 0.0 
1.769084325096e-04 -5.675535636464e-04 0.0 
4.564760158363e-04 -4.845184713293e-04 0.0 
3.172582874821e-03 3.767410213061e-03 0.0 
6.217335233122e-04 -6.215718696601e-05 0.0 
3.024757087915e-03 6.509317243538e-03 0.0 
3.138445965486e-03 3.501503149594e-03 0.0 
7.048326107025e-04 5.242677314864e-03 0.0 
5.019163918707e-04 6.604051145027e-03 0.0 
8.863248105190e-04 6.789540970892e-03 0.0 
3.037972491456e-04 -3.179394007312e-04 0.0 
7.720463437286e-04 8.418775095598e-05 0.0 
1.052870774645e-03 -4.764956046692e-05 0.0 
6.678230149041e-04 7.198736345440e-03 0.0 
1.241296713547e-03 1.981169305495e-03 0.0 
2.024021496001e-03 1.006944371123e-03 0.0 
7.397394844893e-04 -6.088054338030e-05 0.0 
4.634444514061e-04 4.154677677560e-03 0.0 
6.705531653006e-04 -3.907830082264e-04 0.0 
5.590459871970e-04 -4.412454956811e-04 0.0 
2.505923295086e-04 -5.795536830439e-04 0.0 
9.927297756244e-04 -6.933799955594e-06 0.0 
5.086645868654e-04 -4.385796088733e-04 0.0 
7.040307815717e-04 5.728980890869e-03 0.0 
8.301463169383e-04 6.275950234089e-03 0.0 
2.260907352177e-03 9.543388628281e-04 0.0 
5.377937787738e-04 -4.664692631671e-04 0.0 
1.724950736738e-03 1.294241843385e-03 0.0 
5.032810152898e-04 -4.710511590528e-04 0.0 
6.112156379202e-04 -4.239533238331e-04 0.0 
2.742887727979e-04 -5.746670660135e-04 0.0 
9.305158949308e-04 1.151274433603e-04 0.0 
9.853990444470e-04 -2.330649058595e-04 0.0 
4.025354585173e-04 3.644768330549e-03 0.0 
1.120713508706e-03 -1.522444791238e-04 0.0 
9.927275343813e-04 -4.002414798347e-05 0.0 
1.047238684098e-03 -1.336827677667e-04 0.0 
2.948344244160e-03 2.603282376579e-03 0.0 
2.473455281656e-04 -5.849757029696e-04 0.0 
6.647768907293e-04 7.675267298173e-05 0.0 
5.771662757434e-04 8.018465134259e-05 0.0 
2.817299640969e-03 3.148565077242e-03 0.0 
7.281250501923e-04 -3.690796883078e-04 0.0 
1.035145351590e-03 -8.496703044616e-05 0.0 
6.411501026785e-04 5.698111086539e-03 0.0 
6.128199673410e-04 -3.926214558129e-04 0.0 
3.006407401811e-03 4.200727210698e-03 0.0 
3.637054137913e-04 -5.212491270721e-04 0.0 
6.696045373854e-04 -2.926445773823e-04 0.0 
7.899403800634e-04 -3.325855491328e-04 0.0 
3.179281780382e-04 -5.444739277322e-04 0.0 
2.092293332419e-04 -5.779947009090e-04 0.0 
9.750672973552e-04 -1.630704560731e-04 0.0 
8.638102628096e-04 -5.413295311800e-05 0.0 
1.991706286613e-03 1.968752538633e-03 0.0 
-1.781184007804e-05 -5.777585668871e-04 0.0 
1.447539750525e-03 8.001404505677e-05 0.0 
1.205651012312e-03 -1.048635996720e-04 0.0 
8.534723367912e-04 -3.055371918757e-04 0.0 
7.620508648866e-04 6.247277526317e-03 0.0 
1.030019880981e-03 -1.838494383334e-04 0.0 
3.672606330383e-04 -5.051833113508e-04 0.0 
9.163173108429e-04 -2.659259455913e-04 0.0 
3.216878753177e-04 4.056574334290e-03 0.0 
3.244136621873e-04 -5.130740755713e-04 0.0 
1.357709426459e-04 -6.051307621416e-04 0.0 
2.036959635348e-04 -5.944353362267e-04 0.0 
7.223802716093e-04 -3.058919135992e-04 0.0 
6.534893428553e-04 -4.137085860743e-04 0.0 
1.355934969729e-03 -2.299189523817e-06 0.0 
1.046966957310e-03 -1.910679616933e-04 0.0 
3.800315128567e-04 -3.891757415107e-04 0.0 
1.859606775217e-04 -6.045675040157e-04 0.0 
1.198205556494e-03 6.892141196497e-03 0.0 
2.812247577929e-04 -5.521889313565e-04 0.0 
9.831736995956e-04 9.861744566998e-05 0.0 
2.220537050669e-03 2.087266385946e-03 0.0 
2.151644689767e-03 6.086892566853e-03 0.0 
6.849508524690e-04 3.343150662696e-03 0.0 
1.727142323874e-03 1.788074561900e-03 0.0 
2.388888104642e-03 1.229843269313e-03 0.0 
2.554308699385e-03 2.614054093846e-03 0.0 
5.044686380485e-04 -3.091042510541e-04 0.0 
8.394575836838e-04 -2.810208916212e-04 0.0 
2.706621822479e-03 2.231262216733e-03 0.0 
8.217759208239e-04 1.289428052015e-04 0.0 
3.295890024258e-04 -3.147427809687e-04 0.0 
5.610938341185e-04 -4.251314749347e-04 0.0 
1.129838111749e-03 -1.531122856874e-04 0.0 
1.274943692687e-03 -5.848302196604e-05 0.0 
2.841550226950e-04 -5.368548949170e-04 0.0 
1.154218236785e-03 -1.055610665394e-04 0.0 
1.364192905145e-03 1.095890486251e-05 0.0 
1.613041510461e-03 2.101524142663e-04 0.0 
6.013207049790e-04 -4.361560115434e-04 0.0 
1.874978347364e-03 5.946471654546e-04 0.0 
7.695213986557e-04 5.270690813003e-03 0.0 
1.712135793525e-03 3.394858334516e-04 0.0 
8.174984668922e-04 1.041303231623e-04 0.0 
6.472176817075e-04 -2.125232333739e-04 0.0 
7.138039762351e-04 1.460978716019e-04 0.0 
1.257588148940e-03 -6.292631156640e-05 0.0 
1.407680454882e-03 1.520488675166e-03 0.0 
2.783608352354e-03 4.710317427344e-03 0.0 
5.699733511795e-04 -3.281394372977e-04 0.0 
2.254648318386e-03 5.509211749157e-03 0.0 
8.782340706073e-04 2.949352595521e-03 0.0 
1.393403679943e-03 3.441424933323e-05 0.0 
2.510241792514e-03 3.201695941795e-03 0.0 
2.331347917942e-03 4.929005513166e-03 0.0 
3.210667199551e-03 4.556565211913e-03 0.0 
4.040901575091e-04 -3.403269244219e-04 0.0 
3.383785848129e-04 1.411826901171e-03 0.0 
2.938562488296e-04 -4.146113282576e-04 0.0 
1.207364888791e-03 4.594423743895e-04 0.0 
2.819334495759e-04 2.643296950255e-03 0.0 
1.675141173545e-03 4.573994517755e-04 0.0 
6.847290077240e-04 6.709908773988e-03 0.0 
7.210209325571e-04 3.820573589416e-03 0.0 
1.524604433367e-03 1.311574833163e-04 0.0 
2.261005951521e-03 9.033410534195e-04 0.0 
5.297645861565e-04 2.380012655392e-03 0.0 
7.857259029446e-04 -1.488889904947e-05 0.0 
8.283484912175e-04 4.809529072027e-03 0.0 
1.491995027648e-03 2.599426715834e-04 0.0 
5.369453803071e-04 -2.503141685342e-04 0.0 
8.783641516550e-04 4.346746233949e-03 0.0 
9.295719490915e-04 6.896637430265e-04 0.0 
6.074263522812e-04 9.440786923734e-05 0.0 
9.064538671159e-04 -2.550486877138e-04 0.0 
7.501671395090e-04 6.741804687720e-03 0.0 
7.995737684068e-04 7.263404343661e-03 0.0 
1.179170865521e-03 -1.084390827088e-04 0.0 
9.197363508855e-04 -1.195162825556e-06 0.0 
9.607860847477e-04 5.044632500762e-05 0.0 
1.758157966418e-04 -5.948707337387e-04 0.0 
1.407513515173e-03 1.330964788247e-03 0.0 
1.891757634601e-03 5.037486480990e-04 0.0 
1.621078200779e-03 2.432774390038e-04 0.0 
3.107145376818e-03 3.509686163699e-03 0.0 
4.208984579939e-04 1.896673416425e-03 0.0 
1.275347056559e-03 2.500448473598e-03 0.0 
3.185779492560e-04 2.675919371553e-03 0.0 
3.038403096339e-03 6.820090123262e-03 0.0 
1.061471318947e-03 3.911006200124e-03 0.0 
8.581446975140e-04 -2.338921134846e-05 0.0 
3.983174733546e-04 2.302283879201e-03 0.0 
1.044092838031e-03 4.866992087225e-03 0.0 
9.585885243916e-04 -2.149691246221e-04 0.0 
1.998270767400e-03 6.946231557865e-04 0.0 
8.106970608378e-04 4.325255147287e-03 0.0 
5.845196792330e-04 2.844105671877e-03 0.0 
6.254803540212e-04 4.247327127990e-03 0.0 
7.620304956621e-04 4.784931876775e-03 0.0 
6.836908090393e-04 4.898982567556e-05 0.0 
1.440856441474e-03 6.091938726938e-04 0.0 
8.283084489226e-04 6.982113382631e-05 0.0 
9.147463775441e-04 -9.999931477244e-05 0.0 
2.492857182582e-03 9.028319463523e-03 0.0 
1.675931993913e-03 5.268236708690e-04 0.0 
1.459572195576e-03 4.874617679493e-03 0.0 
2.413618656967e-04 -5.723931072754e-04 0.0 
1.796454159195e-03 3.955218223850e-04 0.0 
1.790423365243e-03 3.586076194255e-04 0.0 
2.198511274427e-03 8.410847446405e-04 0.0 
9.674158982651e-04 5.116568041533e-04 0.0 
1.900738031183e-03 5.642258505523e-04 0.0 
2.073672962611e-03 7.664241931672e-04 0.0 
2.827149602437e-03 7.328298877219e-03 0.0 
9.352110603091e-04 -2.026553141898e-04 0.0 
1.136291060205e-03 5.866334220240e-03 0.0 
7.315732830886e-04 8.850810199692e-03 0.0 
-7.844821301774e-04 3.428991552442e-03 0.0 
9.643488139324e-04 -1.123116801122e-04 0.0 
1.543359220331e-03 4.036333221007e-04 0.0 
1.021880780310e-03 2.102824173671e-03 0.0 
2.220143686607e-03 8.602780398818e-04 0.0 
9.383721993826e-04 -1.502491439529e-04 0.0 
9.075509607658e-04 5.810720129429e-03 0.0 
-2.718466351015e-04 4.915213519840e-03 0.0 
1.746737481381e-03 5.258086368683e-04 0.0 
2.099180029203e-03 6.950172656748e-04 0.0 
2.805499512197e-03 7.018425155396e-03 0.0 
9.010143138053e-04 2.634123026633e-05 0.0 
7.765147859212e-04 2.694566337004e-05 0.0 
9.264183767509e-04 7.325370834222e-05 0.0 
7.796370916918e-04 1.301039696738e-04 0.0 
1.950769830527e-03 6.795117720500e-04 0.0 
6.847213412446e-04 4.275503224212e-03 0.0 
2.238104157802e-03 1.640501340538e-03 0.0 
7.404890904305e-04 1.109184630828e-04 0.0 
9.611200960731e-05 7.687542670392e-03 0.0 
9.796215216524e-04 5.340648016616e-03 0.0 
1.534302185522e-03 7.811506089875e-04 0.0 
6.613632085193e-04 3.795418861594e-03 0.0 
2.101773975805e-03 7.517668943277e-04 0.0 
2.086903629364e-03 7.542181010203e-04 0.0 
5.546941883748e-04 -2.535238644129e-04 0.0 
1.911428845975e-04 8.545602999746e-04 0.0 
5.231181714357e-04 3.264102324224e-03 0.0 
2.110876510597e-04 -5.633677100146e-04 0.0 
8.808115155880e-04 9.946550077623e-03 0.0 
2.418838769701e-03 2.026356350101e-03 0.0 
2.847166096891e-04 2.190401378097e-03 0.0 
6.068499795077e-04 -1.073795526635e-04 0.0 
3.149526339662e-03 3.964716284343e-03 0.0 
9.690617702869e-04 4.851327134402e-03 0.0 
7.719104412053e-04 -2.308757635360e-04 0.0 
9.160196403007e-04 3.710694420700e-04 0.0 
2.306423132079e-03 3.079193305143e-03 0.0 
3.526282088690e-04 -2.552051536975e-04 0.0 
6.444796241897e-04 -2.161091400973e-05 0.0 
4.882982428264e-04 -1.495286202748e-04 0.0 
2.191679757053e-03 8.117224214428e-04 0.0 
1.827598486474e-04 4.804134437212e-04 0.0 
1.533607758150e-03 1.086333416375e-02 0.0 
5.505978827435e-04 3.433999128543e-05 0.0 
2.174238208909e-03 1.217057390922e-03 0.0 
1.215198430730e-03 5.376676515721e-03 0.0 
5.466039688688e-04 8.029368554306e-04 0.0 
6.754810540168e-04 1.267048414609e-04 0.0 
4.596061062108e-04 -2.219992146308e-04 0.0 
2.421268532196e-04 -5.233357991455e-04 0.0 
1.954918469355e-03 7.640373172067e-04 0.0 
1.420645100477e-03 4.549204552407e-05 0.0 
1.682686570254e-03 7.989009053073e-04 0.0 
2.810728604369e-03 4.528649851438e-03 0.0 
1.342537581673e-03 4.397386163619e-03 0.0 
1.224758018664e-03 4.942055443734e-04 0.0 
9.065753334003e-04 5.320341040904e-03 0.0 
1.084019240778e-03 2.095456967173e-03 0.0 
9.168608002889e-04 3.884004058370e-03 0.0 
9.404813165441e-04 3.421875811533e-03 0.0 
9.127473025404e-04 1.782526797977e-03 0.0 
5.559439975932e-04 7.195282208768e-06 0.0 
1.021832570341e-03 4.380957629361e-03 0.0 
2.651649146951e-03 1.671046098649e-03 0.0 
1.873316954660e-03 1.102700838234e-02 0.0 
1.022102201496e-03 4.195645600383e-04 0.0 
1.134008204030e-03 1.029667137643e-03 0.0 
2.461504484167e-04 -5.424320799414e-04 0.0 
1.840268273774e-03 8.639775888798e-04 0.0 
2.145915680274e-05 -6.296235816231e-04 0.0 
3.048307115278e-03 2.891940052177e-03 0.0 
1.740546277977e-03 5.951802628183e-04 0.0 
7.449577229498e-04 2.484891043828e-03 0.0 
7.101137657635e-04 2.034257054337e-03 0.0 
1.887143248609e-03 6.790298354130e-04 0.0 
7.446862784412e-04 3.366543602399e-03 0.0 
2.400642904176e-03 1.497481536161e-03 0.0 
2.385445571871e-03 2.412798690770e-03 0.0 
1.996489290834e-03 1.077800559722e-02 0.0 
1.411430396052e-03 2.013429738903e-03 0.0 
1.971992903400e-03 1.025666954539e-02 0.0 
1.920756409649e-03 9.921760025984e-03 0.0 
2.360398930927e-03 1.111893429773e-03 0.0 
1.846306955003e-03 9.552420793392e-03 0.0 
2.841297618613e-03 2.120729059507e-03 0.0 
2.798556171792e-03 2.289993946362e-03 0.0 
1.965596124721e-03 5.584831250698e-04 0.0 
7.561215954523e-04 3.117385100411e-04 0.0 
2.187153788752e-03 8.988977019409e-04 0.0 
5.339970203744e-04 2.819066181706e-03 0.0 
1.179978906725e-03 2.008517222667e-03 0.0 
6.592138769522e-04 -2.212271904525e-05 0.0 
1.472501973727e-03 6.631747622090e-04 0.0 
1.505967718735e-03 1.098935781699e-04 0.0 
8.721722878373e-04 3.406569970354e-03 0.0 
2.063209383268e-03 6.785552727568e-04 0.0 
4.419148114387e-04 2.764158081695e-06 0.0 
8.484234493465e-04 3.865457615782e-03 0.0 
1.138104161107e-03 3.917557087121e-03 0.0 
1.912663280622e-03 5.803433924743e-04 0.0 
2.300291509783e-03 1.169077786002e-03 0.0 
2.020350298297e-03 1.880945683563e-03 0.0 
2.708930321558e-03 4.879178982605e-03 0.0 
7.177743943862e-04 1.876858402031e-04 0.0 
1.075267154931e-03 8.394900604621e-04 0.0 
2.883178662622e-03 4.143019904324e-03 0.0 
3.140217496430e-03 4.238138706323e-03 0.0 
3.386808177742e-04 9.842951859606e-07 0.0 
1.098134060292e-03 4.392653929936e-03 0.0 
2.198048772643e-03 9.956867855744e-04 0.0 
2.912854809813e-03 3.520240816358e-03 0.0 
1.525285238608e-03 4.596205391668e-04 0.0 
5.747704695727e-04 3.292956444703e-03 0.0 
1.771358513032e-03 1.733006254897e-03 0.0 
1.301216331701e-03 5.876156500225e-03 0.0 
1.141590215161e-03 2.333624408499e-04 0.0 
2.122695877085e-03 7.291740507311e-04 0.0 
1.464308772862e-03 4.048393754913e-04 0.0 
3.102146879772e-03 3.175368413272e-03 0.0 
5.806594472919e-04 2.415274749535e-03 0.0 
1.454240183903e-03 1.481911181070e-03 0.0 
2.020793347752e-03 6.231633947750e-04 0.0 
8.869395294233e-04 7.651404456951e-04 0.0 
2.046974236855e-03 1.402128422921e-03 0.0 
2.981368736441e-03 2.592234697665e-03 0.0 
2.296869501952e-03 1.290525648435e-03 0.0 
2.016555776980e-03 6.505507002302e-04 0.0 
1.098708189487e-03 1.566886024098e-04 0.0 
8.415141470216e-04 5.982810798950e-04 0.0 
2.071058414149e-03 6.555319085009e-04 0.0 
2.237691514802e-03 5.024673503864e-03 0.0 
3.079995096753e-04 -5.584703630762e-06 0.0 
2.291654483467e-03 4.456413224856e-03 0.0 
2.245747490853e-03 1.752544562638e-03 0.0 
2.155613519802e-03 5.593063813893e-03 0.0 
1.927994744750e-03 6.712920141720e-03 0.0 
2.734426915454e-03 4.259718824106e-03 0.0 
1.605837731824e-03 6.679077101073e-04 0.0 
6.334193095567e-04 5.717536387525e-07 0.0 
1.202008734308e-03 4.885897771491e-03 0.0 
6.557959598846e-04 2.024024055441e-03 0.0 
2.050181725905e-03 6.156876017746e-03 0.0 
1.884757377406e-03 1.058691478473e-03 0.0 
1.851371341376e-03 1.261497152434e-03 0.0 
4.385838286646e-04 2.321793916959e-03 0.0 
2.910055312367e-03 2.360427929401e-03 0.0 
2.994261760454e-03 2.615282276079e-03 0.0 
2.072675775825e-03 1.029886994236e-03 0.0 
1.258222747781e-03 4.402203463124e-03 0.0 
3.109390267717e-03 5.967678010379e-03 0.0 
2.743527004536e-03 1.901262507193e-03 0.0 
3.114267166034e-03 5.524068690642e-03 0.0 
1.919485903090e-03 8.275991248748e-04 0.0 
1.386946212739e-03 8.871329462853e-04 0.0 
1.993536485872e-03 7.735802224543e-04 0.0 
1.877399786380e-04 6.761688317037e-04 0.0 
8.217260990253e-04 2.045552737264e-03 0.0 
3.116710987068e-03 6.270439173419e-03 0.0 
1.652168822281e-03 2.306890988867e-04 0.0 
1.625083226055e-03 1.038578691258e-03 0.0 
1.285464579637e-03 4.888896417683e-03 0.0 
7.628023138617e-04 1.022326998161e-05 0.0 
2.606572674586e-03 1.966850746444e-03 0.0 
2.059914661331e-05 6.202545713850e-04 0.0 
2.186664708729e-04 -3.118395240518e-06 0.0 
3.094554860781e-03 3.585017721013e-03 0.0 
2.297663299661e-03 1.204146941828e-03 0.0 
1.812962100765e-03 1.572929278840e-03 0.0 
-2.927893721699e-04 6.851715704215e-04 0.0 
8.164990713508e-04 2.925935077451e-05 0.0 
1.882673911356e-03 2.245047292030e-03 0.0 
1.388841414714e-03 5.872674991073e-03 0.0 
7.641292859108e-04 -1.763366976054e-04 0.0 
2.093064331727e-03 9.299642513216e-04 0.0 
4.057505448509e-04 -6.171200812141e-06 0.0 
2.897452885105e-03 2.330412276578e-03 0.0 
1.938100731001e-03 9.554662708678e-04 0.0 
3.022954691394e-03 3.460646065703e-03 0.0 
2.776228853248e-05 4.554217603760e-04 0.0 
2.568834597544e-03 2.467480126745e-03 0.0 
1.862115758955e-03 7.450646922508e-04 0.0 
1.163065875241e-03 1.250467011593e-03 0.0 
2.237129155112e-03 1.978139722214e-03 0.0 
1.378304513179e-03 8.170128798095e-04 0.0 
6.086937562741e-04 -3.596005112302e-05 0.0 
3.802403593605e-04 1.863494168163e-03 0.0 
8.079249126276e-04 3.554318491358e-04 0.0 
1.795064967597e-03 7.869652831951e-04 0.0 
2.504740689565e-03 1.564698761046e-03 0.0 
2.829856669422e-03 2.961798997908e-03 0.0 
2.486331311100e-04 -1.657698294970e-05 0.0 
1.703896724789e-04 -3.024780254719e-04 0.0 
2.416563574474e-03 2.157098059937e-03 0.0 
1.133584024403e-03 5.369467132030e-03 0.0 
5.143923822966e-04 -4.265893200986e-06 0.0 
7.781609144650e-04 4.993187099988e-05 0.0 
2.956573770328e-04 9.315972489328e-03 0.0 
1.974567099913e-04 9.315080898389e-03 0.0 
2.110209880319e-03 4.623465394109e-03 0.0 
2.710961274475e-03 2.629649560477e-03 0.0 
6.592177952020e-04 -1.732213623578e-04 0.0 
2.602594869056e-03 3.977970915048e-03 0.0 
2.860675363087e-03 2.136523699421e-03 0.0 
1.047606862609e-03 2.894444611988e-04 0.0 
2.605600498067e-03 1.788801025918e-03 0.0 
1.628784480158e-04 4.925748142965e-04 0.0 
1.941819109131e-03 7.685232230642e-03 0.0 
2.929723653592e-03 2.369254494907e-03 0.0 
8.292214620023e-04 -1.576144468592e-04 0.0 
1.334009923436e-03 1.114326770446e-03 0.0 
8.664853438835e-04 -2.274378801102e-04 0.0 
2.936302127247e-03 3.105923804608e-03 0.0 
3.044809563628e-03 4.327283091825e-03 0.0 
1.386279359072e-03 5.376193652759e-03 0.0 
2.517248957741e-03 3.553889973500e-03 0.0 
2.354605774247e-03 3.267560143153e-03 0.0 
5.022477761410e-05 -6.481323265351e-04 0.0 
8.228665245339e-04 -2.657238944500e-04 0.0 
3.151245402804e-03 5.873870567139e-03 0.0 
2.509645226367e-03 4.700976942196e-03 0.0 
2.378000944867e-03 4.354296391698e-03 0.0 
1.380905021228e-03 5.143121408931e-04 0.0 
1.186221468554e-05 -6.178683146204e-04 0.0 
6.335105871207e-04 3.896885269090e-04 0.0 
3.125842972322e-03 3.411592115708e-03 0.0 
7.579160106266e-04 -2.862542927758e-04 0.0 
2.006804404472e-03 9.834906298978e-03 0.0 
1.934819362898e-03 9.488289794133e-03 0.0 
1.476072141119e-03 5.366732214075e-03 0.0 
7.097760047042e-04 1.956767494342e-03 0.0 
7.388488835668e-04 -2.119941362416e-04 0.0 
1.476885562684e-03 3.491956281929e-04 0.0 
6.675068807257e-04 5.356437346797e-04 0.0 
7.659508979672e-04 5.300553479614e-04 0.0 
7.541986247941e-04 2.924240631090e-03 0.0 
5.851714484512e-04 -2.760081987304e-04 0.0 
5.413475735820e-04 -2.472675384877e-05 0.0 
7.393154042142e-05 -6.448767514431e-04 0.0 
1.459751220061e-03 2.828417666260e-04 0.0 
3.084788316747e-03 3.332531502546e-03 0.0 
5.766577247715e-05 -6.509503712395e-04 0.0 
6.951499663404e-04 2.902760705723e-03 0.0 
5.223197508144e-04 6.317647767648e-04 0.0 
2.591417678720e-03 4.567364319671e-03 0.0 
3.074355728568e-03 4.085991075408e-03 0.0 
1.683181518342e-03 2.617683969954e-04 0.0 
1.352735576123e-03 9.960344130861e-05 0.0 
6.892313058435e-04 2.475084920576e-03 0.0 
1.270635847186e-03 1.234375944989e-04 0.0 
3.027255937712e-03 2.833179624577e-03 0.0 
3.093988726220e-03 3.139655564086e-03 0.0 
-9.166982236204e-04 2.894482926886e-03 0.0 
3.494256341995e-04 5.721974416064e-04 0.0 
2.060779188976e-03 1.597598090073e-03 0.0 
1.851401266582e-03 6.255361435706e-03 0.0 
1.857532960446e-03 1.344923597485e-03 0.0 
1.979251988168e-03 2.577548230191e-03 0.0 
1.562154108512e-03 3.377438816486e-03 0.0 
1.830455746487e-03 1.493561798822e-03 0.0 
2.028051178478e-03 8.979818614590e-03 0.0 
2.054436048462e-03 1.692451539813e-03 0.0 
4.961153080674e-04 -3.559448545814e-05 0.0 
2.822474551529e-03 2.585389748885e-03 0.0 
8.377567373707e-04 -2.112872136382e-04 0.0 
8.697873558237e-04 -1.736833355976e-04 0.0 
8.831931512706e-04 2.054632480103e-03 0.0 
1.393025552387e-03 6.911293979341e-05 0.0 
3.012064402412e-03 3.688196998118e-03 0.0 
2.628028392873e-03 1.539153073449e-03 0.0 
1.146697642927e-03 1.382343617040e-04 0.0 
2.829489849978e-03 2.116181126752e-03 0.0 
1.474302083165e-03 7.257382123518e-04 0.0 
1.915313945755e-03 4.908179842079e-04 0.0 
1.723563116964e-03 9.777992410282e-04 0.0 
2.534263663118e-03 4.116754855353e-03 0.0 
1.636170947744e-03 8.018907976163e-04 0.0 
2.794338337987e-03 4.090212080199e-03 0.0 
1.563279441450e-03 6.077891482905e-04 0.0 
1.695136533088e-03 6.443122887542e-04 0.0 
2.778330685167e-03 2.080682857965e-03 0.0 
1.571014319646e-03 5.844751605930e-03 0.0 
4.329958501943e-04 -2.406898370418e-05 0.0 
3.929181150229e-04 -3.243182246296e-05 0.0 
2.425591578833e-04 2.037457230710e-03 0.0 
2.717197897980e-03 3.671753035829e-03 0.0 
2.429761766874e-04 1.600556802711e-06 0.0 
2.512522230609e-03 8.828806171828e-03 0.0 
5.791769510042e-04 -2.199258372414e-04 0.0 
-7.391918513505e-04 3.058588631047e-03 0.0 
3.349915015807e-04 -2.110303838764e-05 0.0 
1.453567544183e-03 1.000711360256e-03 0.0 
1.414748209318e-04 -2.783051956026e-04 0.0 
2.357486472106e-03 1.328569289981e-03 0.0 
1.665477627668e-03 5.822712368802e-03 0.0 
1.753165209500e-03 6.290554141158e-03 0.0 
3.007481545362e-03 2.999807309697e-03 0.0 
2.082388843653e-03 1.039073565452e-02 0.0 
2.058183309787e-03 1.013888350742e-02 0.0 
2.999348288298e-04 -2.737636566334e-05 0.0 
1.354620789565e-03 1.340025845993e-04 0.0 
1.699163020515e-03 2.769796145348e-04 0.0 
1.531575184749e-03 3.361521250332e-04 0.0 
1.930540297982e-03 5.008050061378e-04 0.0 
1.636957283389e-03 1.085345136210e-03 0.0 
2.000709575393e-03 1.054423834786e-02 0.0 
1.887762062231e-03 7.235494277133e-03 0.0 
2.489132208972e-04 9.603842323347e-03 0.0 
1.641342272856e-03 5.794353411155e-04 0.0 
2.685424159335e-03 1.843901407811e-03 0.0 
1.048013902600e-03 4.550342870864e-04 0.0 
1.267868721631e-04 -4.961129210991e-05 0.0 
1.976516093593e-03 5.472350115946e-04 0.0 
2.031109074618e-04 9.684267120034e-06 0.0 
1.615301219601e-03 5.686148547298e-04 0.0 
1.307740601168e-03 6.303267267268e-04 0.0 
2.981803412429e-03 2.772391983350e-03 0.0 
2.676221862378e-03 2.127813786849e-03 0.0 
1.054586258985e-03 2.340651155607e-04 0.0 
8.500138317996e-04 -3.140962781717e-04 0.0 
2.884314948788e-03 3.719321846488e-03 0.0 
1.835784222997e-03 4.014781174483e-04 0.0 
2.953978376448e-03 4.128570044665e-03 0.0 
2.203021598720e-03 2.704802055361e-03 0.0 
2.501987581427e-03 1.734244052341e-03 0.0 
1.775536574330e-03 3.509294106663e-04 0.0 
7.208125106392e-04 -1.580716732104e-04 0.0 
2.907571304998e-03 4.334093690133e-03 0.0 
-6.692037019482e-04 2.133207806852e-03 0.0 
2.535039986360e-03 1.391762199316e-03 0.0 
-2.587373299476e-04 3.043637939401e-03 0.0 
1.468979781200e-04 -6.164880189872e-04 0.0 
6.394448291388e-04 -2.072623010618e-04 0.0 
2.164389602554e-03 2.297497369069e-03 0.0 
1.859123299102e-03 5.766873605338e-03 0.0 
2.032494550944e-03 1.068420925321e-02 0.0 
8.439433869406e-05 2.388686515206e-04 0.0 
-1.028625768475e-03 2.459602848289e-03 0.0 
2.077403591686e-03 1.057336145889e-02 0.0 
1.645164086108e-03 2.466228685893e-04 0.0 
4.960980828771e-04 -2.638527909536e-04 0.0 
2.526469852598e-03 8.676627493625e-03 0.0 
1.409291245468e-03 1.683633901870e-04 0.0 
1.418133692654e-03 1.093878865639e-04 0.0 
2.930595525250e-03 2.897571267070e-03 0.0 
2.373569253648e-03 1.230515881303e-03 0.0 
1.702331796762e-03 2.355987114473e-03 0.0 
4.657037571226e-04 1.855015491543e-03 0.0 
6.459685241737e-04 -2.629179210477e-04 0.0 
4.633449757958e-04 -2.401987005258e-04 0.0 
5.168561084280e-04 -4.756915202612e-04 0.0 
1.929409996968e-03 8.598742513729e-03 0.0 
1.957631105865e-03 5.723179697862e-03 0.0 
4.577992847949e-05 -1.131705361207e-04 0.0 
5.811405781366e-05 -6.505761988008e-04 0.0 
-4.770147623795e-04 8.007068153267e-04 0.0 
3.246133896728e-04 -5.288534733972e-04 0.0 
4.071078704650e-04 -2.483730586656e-04 0.0 
1.783766581424e-03 5.671522765408e-04 0.0 
1.371694297000e-03 2.080173893241e-04 0.0 
1.398201999464e-03 5.708473008176e-04 0.0 
5.409617394869e-04 -1.980824460971e-04 0.0 
2.016878414557e-03 4.684507297889e-03 0.0 
3.731523268455e-04 -2.240515669482e-04 0.0 
1.877914633660e-03 7.067532054322e-04 0.0 
2.760767437332e-03 3.506386447586e-03 0.0 
1.151318305158e-03 7.905494948237e-03 0.0 
2.068633729595e-03 1.101434039213e-03 0.0 
3.191102899663e-04 -2.305748709295e-04 0.0 
4.837258697763e-04 -2.080263828408e-04 0.0 
1.799275268492e-03 1.060790924038e-02 0.0 
1.708556935167e-03 3.870687969420e-04 0.0 
2.838212516241e-04 -2.060316952840e-04 0.0 
4.367404753013e-05 5.829953885405e-03 0.0 
4.840153672598e-05 6.797647214319e-03 0.0 
1.941882341172e-03 1.070827093000e-02 0.0 
4.449441567661e-04 -1.853304849644e-04 0.0 
1.148946531599e-03 -5.186374496519e-05 0.0 
3.116558099177e-04 3.427280393151e-03 0.0 
1.282315252020e-03 5.836561609367e-04 0.0 
3.325993152989e-04 -4.673365130647e-04 0.0 
1.179223191308e-03 -7.090195448892e-05 0.0 
2.630560557296e-03 1.553389975618e-03 0.0 
1.958552102068e-03 1.093835086986e-02 0.0 
2.313321526575e-04 -2.112143028765e-04 0.0 
3.089082550474e-05 -5.717806870310e-04 0.0 
1.895485353398e-03 8.174324290486e-03 0.0 
3.906077191662e-04 -1.931813109321e-04 0.0 
1.563392099768e-03 1.578092110112e-04 0.0 
6.757591422320e-04 -2.277700505506e-04 0.0 
-5.246886895353e-04 1.723359943671e-03 0.0 
5.406606856180e-05 2.992306137073e-03 0.0 
1.445964282115e-03 1.042993716002e-04 0.0 
1.250352826736e-03 3.816230863743e-04 0.0 
2.646127253117e-03 1.966794908904e-03 0.0 
3.522271127802e-04 -1.701487250150e-04 0.0 
2.994826821173e-04 -1.764758053857e-04 0.0 
1.661888690180e-03 5.016971616450e-04 0.0 
1.473633708947e-04 -4.145313758013e-04 0.0 
-5.056194442378e-04 1.967505937735e-03 0.0 
2.612888139683e-04 -1.533675391958e-04 0.0 
1.107333681740e-03 2.680401150948e-04 0.0 
9.479065208139e-04 -2.334212890309e-04 0.0 
2.655886005249e-03 3.121729947127e-03 0.0 
2.415592039358e-03 8.503472851637e-03 0.0 
2.571940564131e-03 3.417178838187e-03 0.0 
3.849568975278e-04 7.032258116772e-05 0.0 
-8.774257787938e-04 9.333357980462e-04 0.0 
7.880163439894e-06 2.609857383110e-04 0.0 
9.527325704645e-06 1.435891136816e-06 0.0 
3.046961697894e-05 8.334044517798e-03 0.0 
1.206406489500e-03 -9.749154801876e-05 0.0 
2.803000471901e-03 2.399673254711e-03 0.0 
1.842867434691e-03 7.887165109309e-04 0.0 
1.245884101372e-04 -6.166158796010e-04 0.0 
-8.798577360421e-04 2.586797990450e-03 0.0 
2.248730418250e-04 2.154241832393e-03 0.0 
2.045325250456e-03 5.169567472381e-03 0.0 
1.852003550654e-03 9.099091693509e-03 0.0 
3.817563044314e-04 2.332157630671e-04 0.0 
2.589909894949e-05 -6.038957881886e-04 0.0 
3.610170686937e-04 2.004329433045e-04 0.0 
1.948805800382e-03 5.229699905456e-03 0.0 
9.881082374348e-04 -2.379550763478e-04 0.0 
2.885443312690e-03 2.484439446548e-03 0.0 
1.124198960069e-03 -1.438103697226e-04 0.0 
6.618787143951e-04 4.127083851541e-03 0.0 
9.701066716322e-04 -2.381228801482e-04 0.0 
2.059010144106e-03 4.148405646564e-03 0.0 
1.263587962283e-04 -3.222454827562e-05 0.0 
1.352452570439e-03 5.184140583957e-05 0.0 
2.458437018574e-03 3.025300864930e-03 0.0 
-7.355115151941e-04 7.523889518353e-04 0.0 
1.603463943141e-03 3.276064388059e-04 0.0 
1.639514502423e-03 3.847844252202e-03 0.0 
7.793129855676e-04 -3.518675255664e-04 0.0 
7.988734883232e-04 -3.194796259886e-04 0.0 
2.846979986637e-03 2.283404666689e-03 0.0 
4.211844326071e-04 -2.366636765388e-05 0.0 
1.283155578147e-03 9.934288948325e-03 0.0 
1.566160267410e-03 1.042345529926e-02 0.0 
6.880161623414e-04 -3.918898207849e-04 0.0 
1.558863284640e-03 1.806461287315e-04 0.0 
2.777606298709e-03 1.914460806548e-03 0.0 
2.498812920340e-03 2.895218562113e-03 0.0 
1.074144834816e-03 1.576786509991e-03 0.0 
1.732622260481e-03 1.101309427376e-02 0.0 
8.065682548971e-05 4.826794576952e-03 0.0 
1.248874954190e-03 1.181563741412e-03 0.0 
1.702131911876e-03 7.160332751242e-04 0.0 
-2.740903532275e-04 3.433353908528e-03 0.0 
2.582846686557e-03 8.338990128142e-03 0.0 
1.439419694966e-03 7.912955776932e-05 0.0 
2.293719209550e-03 3.376403828398e-03 0.0 
1.524085496534e-03 1.381229868014e-04 0.0 
2.765752082287e-05 1.704634624832e-03 0.0 
1.510234791357e-03 1.984168777258e-04 0.0 
1.062815756804e-03 4.971978503198e-03 0.0 
2.692672121514e-03 1.706107228600e-03 0.0 
1.499305623339e-03 1.619276464698e-04 0.0 
2.734442536588e-03 2.037619596906e-03 0.0 
3.074671648364e-04 6.018489621434e-03 0.0 
6.353974571327e-04 -4.210075199560e-04 0.0 
1.113811926071e-05 2.853030853723e-03 0.0 
1.430948074114e-03 1.802762611105e-04 0.0 
1.511121431856e-03 6.008327395001e-03 0.0 
-5.080536508716e-04 9.574259191886e-04 0.0 
2.004800060214e-05 1.958431598177e-03 0.0 
2.715618807162e-05 2.921034163857e-03 0.0 
-2.837235875057e-05 -4.318246176122e-04 0.0 
1.416816513466e-03 2.096500037498e-04 0.0 
4.235869633121e-04 -5.068656361541e-04 0.0 
4.514565111089e-04 -5.024565568090e-04 0.0 
2.125805518189e-03 2.395184806223e-03 0.0 
2.687144820978e-03 1.865160654482e-03 0.0 
2.357942135440e-03 2.535222818823e-03 0.0 
1.517030255993e-03 2.253138709088e-04 0.0 
5.623811125393e-04 9.651645435034e-03 0.0 
2.743193452438e-04 4.420852802288e-05 0.0 
3.597366373216e-04 -5.291124299206e-04 0.0 
1.426148385646e-03 4.488759254482e-04 0.0 
2.789123470593e-03 1.925976813711e-03 0.0 
7.793900272541e-05 -6.286964236178e-04 0.0 
2.313540921207e-03 3.905446512869e-03 0.0 
1.801855697420e-03 5.035819883287e-04 0.0 
5.606925839805e-05 -3.095593031747e-04 0.0 
1.450854178534e-03 3.160259465368e-04 0.0 
2.434628348017e-05 -1.365513759841e-04 0.0 
2.146798344114e-03 4.077021468009e-03 0.0 
2.768363764175e-04 -4.543378865821e-04 0.0 
9.502910299136e-05 -2.871679167849e-04 0.0 
2.229842511372e-03 2.868540701705e-03 0.0 
1.921255370016e-03 1.029772537958e-03 0.0 
8.235587822411e-04 -3.209822547415e-04 0.0 
6.312897772213e-05 -5.688144369496e-04 0.0 
2.706721457821e-03 1.731860137933e-03 0.0 
2.299613640004e-05 6.335755386927e-03 0.0 
2.027474635969e-05 -1.880770614303e-04 0.0 
9.133897796119e-04 7.507579142988e-04 0.0 
5.844326712721e-04 9.658091212983e-04 0.0 
1.057723835144e-04 7.680721594232e-03 0.0 
3.805883911889e-04 1.462708362579e-03 0.0 
6.421128586104e-04 8.384416193625e-04 0.0 
1.531065655274e-03 1.885678345972e-04 0.0 
1.273792238997e-03 -2.125570149286e-05 0.0 
6.849101910385e-04 2.307904970285e-04 0.0 
-8.476628801166e-04 1.108734684451e-03 0.0 
1.403688426395e-05 -5.891168931970e-04 0.0 
7.050413274621e-05 -2.656498458564e-04 0.0 
7.644648729435e-04 -3.566558340243e-04 0.0 
1.220877941921e-03 2.510049030601e-05 0.0 
4.597304290572e-04 8.080718763784e-03 0.0 
9.112220510556e-04 9.153449159151e-03 0.0 
9.864018943085e-04 7.846056830810e-03 0.0 
1.574884814149e-03 3.786645152967e-04 0.0 
1.719784921134e-04 -5.519386431243e-04 0.0 
2.200825931869e-03 1.426424169397e-03 0.0 
9.440344552301e-05 1.373964461163e-05 0.0 
1.229742264394e-04 1.930013542899e-05 0.0 
1.283957105292e-03 -3.785287592649e-05 0.0 
1.269020175155e-03 8.432934840023e-03 0.0 
-5.745471954124e-04 7.120669606897e-04 0.0 
4.797609011296e-05 5.274010220956e-03 0.0 
3.303748123887e-04 3.952601024521e-05 0.0 
2.676206087029e-04 6.600269631281e-03 0.0 
2.680502736238e-03 1.722940471329e-03 0.0 
1.013187541757e-03 -1.802020642201e-04 0.0 
1.329814933072e-03 7.915938811471e-05 0.0 
-1.515443396249e-04 2.946128104832e-04 0.0 
6.186102670145e-05 2.643458232285e-03 0.0 
1.107180528172e-03 -1.338179506264e-04 0.0 
1.952479570189e-04 2.105364677466e-03 0.0 
1.639592523842e-04 3.508117007408e-03 0.0 
2.362819099025e-05 5.764700194205e-04 0.0 
2.138574496813e-05 2.692157716977e-06 0.0 
5.587501730487e-05 7.789701871440e-03 0.0 
1.052406124472e-03 -1.948960744336e-04 0.0 
1.206627524105e-03 1.062485059758e-02 0.0 
1.058800753340e-03 -1.968259387451e-04 0.0 
3.596827966354e-05 4.717038511736e-06 0.0 
-5.605586314391e-04 3.637061479820e-03 0.0 
-3.043966459689e-04 4.366124945626e-03 0.0 
1.349010975840e-03 4.717340756888e-04 0.0 
9.478177078859e-04 8.731523462938e-03 0.0 
1.171842686402e-04 2.016037442339e-03 0.0 
2.278982149309e-03 2.762992558794e-03 0.0 
1.562804688403e-03 8.427410813402e-04 0.0 
1.847780077299e-03 2.758729755930e-03 0.0 
3.587966427303e-04 7.456786438700e-03 0.0 
6.613419733742e-04 -3.931660484583e-04 0.0 
7.131053900583e-04 -3.564294329448e-04 0.0 
1.010300275859e-04 5.309675294364e-03 0.0 
1.792388248156e-03 1.027179172875e-03 0.0 
1.625463634268e-03 9.094232498463e-03 0.0 
1.938928779714e-04 8.760762340771e-03 0.0 
2.309793237185e-04 7.904720509396e-03 0.0 
4.121501573248e-04 7.573654098875e-03 0.0 
1.839867896560e-04 3.661699808746e-04 0.0 
5.814521567186e-04 -4.254607822470e-04 0.0 
1.728561566270e-04 1.287248656442e-03 0.0 
3.956815023536e-04 6.539334519556e-03 0.0 
5.690010018183e-04 2.401591756247e-04 0.0 
1.172788197472e-03 1.635783826579e-03 0.0 
2.388031187105e-03 3.801517599049e-03 0.0 
5.635263256031e-04 2.021147217650e-03 0.0 
2.940319958133e-04 -4.283462527719e-04 0.0 
2.744097299400e-04 -4.771108033797e-04 0.0 
4.700052287590e-04 6.795768532808e-05 0.0 
-3.206446154984e-04 3.016195157118e-04 0.0 
7.487965389832e-05 -5.824490741024e-04 0.0 
1.834657651089e-04 1.064720536029e-04 0.0 
1.453449755159e-05 -6.481221543273e-04 0.0 
2.388578641562e-04 8.468750108955e-03 0.0 
8.966387475230e-04 2.564245996067e-04 0.0 
7.313636645004e-05 -5.568318912336e-04 0.0 
3.927751370822e-05 -6.247043779237e-04 0.0 
1.058826496474e-04 4.972297346731e-04 0.0 
8.283772830848e-04 9.378193365122e-03 0.0 
2.564368761529e-04 1.392162494609e-03 0.0 
8.943221934661e-04 2.984779075213e-04 0.0 
7.185674673420e-04 9.382840113282e-03 0.0 
-6.682721424521e-04 1.108345823905e-03 0.0 
4.113328312257e-05 1.080214793375e-03 0.0 
1.367299343234e-04 -6.227825956931e-04 0.0 
2.855178141660e-04 1.816712193551e-03 0.0 
2.829322492860e-05 3.449170564336e-06 0.0 
9.730137542230e-04 1.643828740484e-03 0.0 
4.774071263083e-04 3.406435291741e-04 0.0 
1.415893588267e-03 7.764374825813e-03 0.0 
1.776772480693e-04 -4.369031433886e-04 0.0 
2.161823889227e-03 1.315801688474e-03 0.0 
3.008433702871e-04 1.288179298639e-04 0.0 
9.604802793786e-05 4.335424132975e-03 0.0 
2.904309435184e-04 1.126714316968e-04 0.0 
-1.348375856778e-04 4.235605556112e-04 0.0 
1.701794469583e-04 1.623053851281e-05 0.0 
5.846778011136e-04 1.285743108019e-04 0.0 
6.569780888937e-05 -6.436019644715e-04 0.0 
5.053394358010e-04 1.274203419626e-04 0.0 
4.619511462052e-04 1.200916583060e-03 0.0 
2.314317947837e-04 9.777793051750e-04 0.0 
5.369897165838e-04 8.650835327565e-03 0.0 
1.793572032062e-03 7.233973250960e-03 0.0 
6.286257980872e-04 3.637954624224e-03 0.0 
7.623832952754e-04 9.574429399755e-04 0.0 
1.366832000763e-04 -5.049228754516e-04 0.0 
-1.826811969799e-04 2.105633083468e-03 0.0 
1.966079682390e-03 1.125155052185e-03 0.0 
4.457802372043e-04 9.656997106960e-03 0.0 
6.226763804305e-04 1.649610618693e-03 0.0 
3.321133319149e-06 5.476704612345e-04 0.0 
3.321133319149e-06 2.311557133997e-04 0.0 
5.039863984997e-06 -6.714841752761e-04 0.0 
2.474289463212e-06 -6.703596774684e-04 0.0 
2.397953248962e-05 9.299033506957e-03 0.0 
5.727653136836e-05 9.636371526327e-03 0.0 
3.696215466749e-06 9.192747719278e-07 0.0 
3.696215466749e-06 1.260949474601e-06 0.0 
1.250619562306e-05 -6.671199299051e-04 0.0 
-6.121687540388e-04 4.552327060486e-04 0.0 
1.700204117863e-04 2.025774995236e-06 0.0 
1.415273806514e-03 9.605330978215e-04 0.0 
1.353310277826e-04 -6.246665412789e-04 0.0 
2.829379237699e-04 2.521240346809e-05 0.0 
4.206148400944e-05 -2.184041992255e-04 0.0 
4.292226821071e-05 -3.280441327013e-04 0.0 
2.681503726321e-04 6.157589143786e-03 0.0 
2.880368971480e-04 -1.513184809297e-04 0.0 
2.460912851505e-03 1.595344497640e-03 0.0 
1.111913030201e-04 -6.312891560734e-04 0.0 
2.523876082773e-04 -3.748853553643e-04 0.0 
1.018983712140e-03 1.318298794151e-03 0.0 
1.160650330904e-05 2.419582681876e-03 0.0 
8.301116844408e-05 -3.207172127104e-04 0.0 
1.742931620416e-04 7.141691154564e-03 0.0 
1.366524637601e-03 1.125829742529e-03 0.0 
1.763246510228e-03 2.320424875847e-03 0.0 
2.113179850914e-03 3.050812017894e-03 0.0 
6.137901660657e-04 9.341501723094e-03 0.0 
2.502694275445e-03 1.507646339154e-03 0.0 
7.801416713881e-04 1.675305761385e-03 0.0 
1.085626190624e-04 -5.768849397016e-04 0.0 
-4.057138843491e-05 -4.637070308152e-04 0.0 
1.608956121513e-03 1.395372807695e-03 0.0 
1.477591135829e-03 5.003341354475e-04 0.0 
1.837963944821e-04 -1.288713010378e-04 0.0 
1.399731463377e-04 5.414564555389e-03 0.0 
9.399240741606e-05 6.584529850545e-06 0.0 
1.638838365455e-03 1.249190039444e-03 0.0 
1.383740429341e-03 1.033933776380e-03 0.0 
5.084383750140e-05 -1.654041616771e-04 0.0 
-7.053452009523e-04 1.683136474416e-03 0.0 
3.651971964629e-04 9.105377976106e-03 0.0 
1.442233856657e-03 5.252535737674e-03 0.0 
1.490157058320e-03 7.435635490411e-03 0.0 
2.557754807586e-03 1.655436411779e-03 0.0 
2.225199732542e-04 1.759289959147e-03 0.0 
5.963194331666e-04 2.116870166684e-04 0.0 
-1.442771064146e-05 -2.480704545896e-04 0.0 
3.493034567088e-05 -4.357079051791e-04 0.0 
-2.083270575469e-05 6.113545713121e-03 0.0 
2.295376034809e-04 4.969183658515e-03 0.0 
2.021341154665e-04 -5.286565086966e-04 0.0 
5.254265979408e-04 1.629739515542e-03 0.0 
8.045672733848e-05 -6.355124152630e-04 0.0 
1.019541763548e-03 3.728625445479e-04 0.0 
9.117801562877e-04 7.769421956304e-03 0.0 
7.066841880032e-04 3.675057927330e-04 0.0 
2.033458280535e-03 1.313407458949e-03 0.0 
1.639712354936e-03 7.370005871257e-03 0.0 
4.191317483742e-04 8.621208995104e-05 0.0 
4.050479983350e-04 1.188602338125e-03 0.0 
3.382675286531e-05 1.264528741854e-03 0.0 
-5.918735778796e-04 4.083193561013e-03 0.0 
5.140031255052e-04 1.982816971977e-03 0.0 
7.462391074689e-04 6.328536411387e-04 0.0 
1.038839722463e-03 3.603601932950e-04 0.0 
1.820764803660e-03 1.104809098716e-03 0.0 
5.025021889747e-05 7.469796698074e-06 0.0 
2.046494297359e-03 3.125778127852e-03 0.0 
-1.055587184923e-03 1.897709672696e-03 0.0 
7.072315232178e-06 2.521105612889e-03 0.0 
1.483169250609e-03 2.011237903442e-03 0.0 
1.359210970119e-03 6.844312176492e-03 0.0 
8.880522904307e-05 -8.517239420575e-06 0.0 
1.607992644659e-03 9.706116015130e-04 0.0 
1.773925327795e-04 2.292787510566e-05 0.0 
1.999446032753e-04 3.981250044367e-03 0.0 
6.624843664190e-04 3.139367949145e-04 0.0 
5.196599807928e-04 9.133057507022e-05 0.0 
5.485666812671e-04 1.044420407028e-04 0.0 
1.491810796137e-04 -5.213572860333e-04 0.0 
8.012150628907e-05 1.098688642530e-05 0.0 
1.204310854397e-03 8.780235290344e-03 0.0 
1.419282961582e-04 2.042615432385e-03 0.0 
7.207210616673e-05 -4.008302024746e-04 0.0 
9.256317940044e-05 2.835130969922e-03 0.0 
2.108646264637e-04 5.366914943731e-03 0.0 
9.612511706385e-06 -6.600986293054e-04 0.0 
3.385093032984e-04 4.270314017863e-04 0.0 
1.975380344320e-03 2.648201407346e-03 0.0 
1.866545157253e-04 1.051386185106e-03 0.0 
7.186792954196e-05 1.949465988590e-03 0.0 
8.500625495060e-04 3.946504565942e-04 0.0 
4.327595057062e-04 7.059516232495e-03 0.0 
1.516318487388e-05 -5.669768285314e-04 0.0 
-4.012333807382e-04 1.237624744052e-03 0.0 
4.638230321160e-05 -5.831643338876e-04 0.0 
1.473032782330e-04 -4.555345575538e-04 0.0 
-1.135932097908e-03 2.113510823095e-03 0.0 
2.242359039341e-04 -3.965632031489e-04 0.0 
1.116295639398e-04 -6.826554728882e-06 0.0 
9.490438244864e-04 1.712429630438e-03 0.0 
1.735568657500e-03 6.746591820999e-03 0.0 
3.099142332362e-04 -4.510204402646e-04 0.0 
4.562394992760e-04 5.871283401141e-05 0.0 
8.474486319666e-04 2.160093259256e-04 0.0 
8.493149615187e-04 4.651745631119e-04 0.0 
1.193968301304e-03 1.013140346262e-03 0.0 
1.590699187753e-03 1.952141018109e-03 0.0 
8.081529702561e-05 -4.663596274421e-04 0.0 
-2.849720946292e-04 5.426014513393e-04 0.0 
1.559963729605e-04 -1.916367722687e-06 0.0 
2.099013418491e-05 -6.577285260912e-04 0.0 
4.937555434393e-06 -6.548774797141e-04 0.0 
-6.738649485902e-04 2.409475409801e-03 0.0 
8.025135725480e-05 -5.773399004417e-04 0.0 
3.167503627939e-04 6.380396557390e-05 0.0 
6.719191178586e-04 7.018800686004e-04 0.0 
1.993209050702e-04 1.755752834741e-03 0.0 
6.768066202750e-04 3.820354885265e-04 0.0 
1.013275054972e-03 2.603153361702e-04 0.0 
3.488939649303e-04 6.508187964835e-03 0.0 
4.830294817267e-05 2.076279872685e-04 0.0 
5.566441658197e-04 2.127469842056e-05 0.0 
7.750788510267e-04 9.700017410010e-03 0.0 
1.181859611125e-04 -1.931586180961e-04 0.0 
5.272024680244e-05 -6.333667862007e-04 0.0 
5.469530742191e-05 6.280479770064e-06 0.0 
1.640382152030e-03 8.501194401548e-03 0.0 
6.951761879316e-05 -6.456695088086e-04 0.0 
1.566981410389e-04 -4.136397093582e-04 0.0 
7.710754898334e-04 8.647007792154e-04 0.0 
3.198764845802e-04 1.865160202505e-03 0.0 
3.924925892842e-04 9.319699850180e-04 0.0 
8.629975515876e-05 -5.482108198247e-04 0.0 
-3.406927096060e-04 1.027879186190e-03 0.0 
2.359174249876e-04 2.885283794608e-05 0.0 
1.120129675904e-05 4.921414517107e-04 0.0 
1.322354117139e-05 2.355165908744e-06 0.0 
5.444914946856e-05 8.760979567082e-03 0.0 
7.641013649403e-04 2.081824105868e-04 0.0 
8.893786792335e-05 -6.395158728515e-04 0.0 
4.888833807656e-04 1.636668801003e-03 0.0 
4.773519708272e-05 -6.169468846017e-04 0.0 
3.804287265446e-04 9.351116850728e-05 0.0 
5.234488295144e-04 1.206795901055e-03 0.0 
-6.076703707899e-04 1.295776134616e-03 0.0 
1.659572438900e-03 1.195405287847e-03 0.0 
1.978065766700e-04 4.451874207671e-03 0.0 
1.231778432544e-04 9.967040188163e-04 0.0 
1.218130503434e-04 4.937476301170e-05 0.0 
8.308296599404e-05 5.812806440863e-03 0.0 
6.201462304467e-04 7.205908070123e-04 0.0 
6.688820524829e-04 1.649140810882e-03 0.0 
1.648943199557e-04 5.111246580227e-03 0.0 
1.011401291354e-03 1.176036608310e-03 0.0 
1.668861535897e-04 -4.824615312729e-04 0.0 
3.901164088368e-04 9.361669544420e-03 0.0 
1.154683699091e-03 6.992148097979e-04 0.0 
1.176263061225e-05 1.047468690823e-03 0.0 
1.039681387285e-05 -6.697115593735e-04 0.0 
1.064099934677e-04 9.351226412305e-03 0.0 
1.189227916976e-05 8.660326563733e-07 0.0 
1.540811749258e-04 -6.184108757798e-04 0.0 
9.658426511344e-04 3.047051627708e-04 0.0 
8.493900918488e-04 1.726226321611e-03 0.0 
1.444882540204e-04 1.293515334367e-03 0.0 
9.739887148405e-05 -6.328978499780e-04 0.0 
-3.075600003668e-04 1.968090150893e-03 0.0 
1.768767310778e-05 -2.998437089255e-04 0.0 
7.852867883100e-05 3.458583491883e-03 0.0 
-7.541673068984e-04 6.075888876937e-04 0.0 
3.004160295257e-04 9.254679848515e-04 0.0 
1.498204330853e-04 6.001803476398e-03 0.0 
2.788890883369e-04 -2.253519925758e-04 0.0 
2.830696006544e-04 6.715968354419e-03 0.0 
8.767934043846e-04 5.297300984767e-04 0.0 
3.325160309599e-05 -2.709987180061e-04 0.0 
-9.955297595799e-04 2.223677247185e-03 0.0 
1.898488906942e-04 -5.131146343298e-04 0.0 
2.289591153907e-04 -3.486938830442e-04 0.0 
1.556392998821e-05 -2.431633273237e-04 0.0 
1.115576888626e-03 5.409234603349e-04 0.0 
1.182923333008e-04 -3.643432504484e-04 0.0 
1.528825114451e-04 -3.274909008842e-04 0.0 
7.885666915284e-05 -6.059433010591e-04 0.0 
3.045966537909e-04 3.040011492826e-05 0.0 
1.595996545464e-03 1.467642928682e-03 0.0 
4.599208775436e-05 1.955818318945e-03 0.0 
1.964279405214e-05 9.919396812993e-04 0.0 
2.141960487440e-05 1.960249090517e-06 0.0 
1.035826115679e-04 8.812762574486e-03 0.0 
1.131955396035e-04 6.216997756472e-03 0.0 
1.628991899432e-04 -3.690371018938e-04 0.0 
1.826350629570e-04 -3.485303367515e-04 0.0 
1.119497253506e-04 -3.368673669404e-04 0.0 
1.194768802317e-03 4.043619579323e-04 0.0 
1.804445411744e-04 -2.469831511076e-04 0.0 
1.346415126592e-03 1.222363796026e-03 0.0 
1.867782416440e-04 7.699522781222e-03 0.0 
3.625945517876e-04 1.210369134841e-03 0.0 
1.147553403397e-03 3.657091786171e-04 0.0 
3.326184536883e-04 6.911502017599e-03 0.0 
1.342615788721e-03 1.708075687250e-03 0.0 
1.110814033826e-03 5.658871520004e-04 0.0 
8.394281528279e-04 4.241047562505e-04 0.0 
-8.421004805052e-04 2.074604786396e-03 0.0 
1.389231012398e-03 1.684541040543e-03 0.0 
1.188990399686e-03 1.363071242124e-03 0.0 
7.402908996574e-05 -6.169713155505e-04 0.0 
1.810715380337e-04 -3.908784959710e-04 0.0 
-8.591727342116e-04 1.868679448025e-03 0.0 
1.117072448832e-03 1.392782490283e-03 0.0 
1.698592693260e-04 1.529822761348e-02 0.0 
2.167160535992e-04 1.563719028487e-02 0.0 
2.750914889558e-04 1.529610729232e-02 0.0 
3.192393335628e-04 1.563351130065e-02 0.0 
3.801741242458e-04 1.529666876327e-02 0.0 
4.260298975805e-04 1.563563082832e-02 0.0 
4.855252515895e-04 1.530092869663e-02 0.0 
5.335267133035e-04 1.564083798732e-02 0.0 
5.885305534730e-04 1.530694104781e-02 0.0 
6.376932238416e-04 1.564661664041e-02 0.0 
6.867619681584e-04 1.531281876538e-02 0.0 
7.357082692954e-04 1.565115143406e-02 0.0 
7.781817163761e-04 1.531677516897e-02 0.0 
8.253635584991e-04 1.565267988363e-02 0.0 
8.609600949468e-04 1.531692001946e-02 0.0 
9.046348605499e-04 1.564921011023e-02 0.0 
9.332934393292e-04 1.531105063869e-02 0.0 
9.714444632426e-04 1.563832421989e-02 0.0 
1.405675877747e-04 1.141403363504e-02 0.0 
9.933115086769e-04 1.529648274299e-02 0.0 
1.023555960226e-03 1.561703695606e-02 0.0 
1.039038352702e-03 1.526991306020e-02 0.0 
-3.687154468916e-04 1.155334501126e-02 0.0 
1.058537967146e-03 1.558166107222e-02 0.0 
3.635562952623e-04 1.166291015132e-02 0.0 
1.068400607004e-03 1.522727588289e-02 0.0 
1.073762269841e-03 1.552768684085e-02 0.0 
1.079273590796e-03 1.516357096051e-02 0.0 
1.066363722403e-03 1.544948988931e-02 0.0 
1.069509889053e-03 1.507248229356e-02 0.0 
1.033380454683e-03 1.534000733011e-02 0.0 
1.037257656670e-03 1.494605843539e-02 0.0 
9.719336393328e-04 1.519020941631e-02 0.0 
4.179891730566e-04 1.064066711732e-02 0.0 
9.811208678898e-04 1.477414377051e-02 0.0 
8.798052940016e-04 1.498902186061e-02 0.0 
9.011043490942e-04 1.454421460196e-02 0.0 
7.555434463426e-04 1.472196155321e-02 0.0 
5.999799164053e-04 1.437117499605e-02 0.0 
7.985290813374e-04 1.423961917286e-02 0.0 
4.169171041770e-04 1.391005141254e-02 0.0 
6.788638301442e-04 1.383895526873e-02 0.0 
2.194241852292e-04 1.330459692408e-02 0.0 
3.001391095247e-05 1.250125507597e-02 0.0 
5.515863980731e-04 1.331057117968e-02 0.0 
4.331979785592e-04 1.261162118070e-02 0.0 
-9.129386160969e-05 1.077997849354e-02 0.0 
2.340547686998e-05 1.546515135684e-02 0.0 
1.163174977960e-04 1.546592822158e-02 0.0 
7.731044464738e-05 1.580939917558e-02 0.0 
6.241253001859e-05 1.512168040284e-02 0.0 
-1.744963736709e-04 1.003779027080e-02 0.0 
1.527749402186e-04 1.461612989075e-02 0.0 
1.874516372673e-04 1.427835715809e-02 0.0 
2.629114017311e-04 1.461937188828e-02 0.0 
2.952846579326e-04 1.428137873934e-02 0.0 
3.683995358403e-04 1.462127160600e-02 0.0 
4.000840511406e-04 1.428508482979e-02 0.0 
4.713539935551e-04 1.462577985538e-02 0.0 
5.022280047935e-04 1.429114028304e-02 0.0 
5.714031029974e-04 1.463239218478e-02 0.0 
6.010704120845e-04 1.429870765208e-02 0.0 
6.672666068770e-04 1.463945864009e-02 0.0 
6.955465782792e-04 1.430619110907e-02 0.0 
7.575153866414e-04 1.464517496927e-02 0.0 
7.844696966647e-04 1.431176049303e-02 0.0 
8.407325628471e-04 1.464760082856e-02 0.0 
8.666378447538e-04 1.431333601079e-02 0.0 
9.155239556326e-04 1.464449573014e-02 0.0 
1.108118960922e-03 1.191667619801e-02 0.0 
9.408730214719e-04 1.430844184393e-02 0.0 
9.805095506027e-04 1.463315527558e-02 0.0 
1.210245580451e-03 1.201698028836e-02 0.0 
1.006049503679e-03 1.429405416099e-02 0.0 
1.034333854229e-03 1.461025773256e-02 0.0 
1.061136404602e-03 1.426643717590e-02 0.0 
1.075703542933e-03 1.457170731421e-02 0.0 
1.105273088278e-03 1.422095907140e-02 0.0 
8.564514316373e-04 1.210375811014e-02 0.0 
1.103481473305e-03 1.451241175974e-02 0.0 
1.137903589888e-03 1.415178139259e-02 0.0 
1.116841874031e-03 1.442593299760e-02 0.0 
1.159007688557e-03 1.405149147186e-02 0.0 
1.115552905566e-03 1.430409187311e-02 0.0 
1.169373047544e-03 1.391060431509e-02 0.0 
1.100265027204e-03 1.413650523157e-02 0.0 
1.171067951413e-03 1.371715326118e-02 0.0 
1.073222847191e-03 1.390998454147e-02 0.0 
1.167968289017e-03 1.345539718255e-02 0.0 
1.263786083613e-03 1.139521131616e-02 0.0 
1.166853967941e-03 1.310571602137e-02 0.0 
1.038835425914e-03 1.360728486269e-02 0.0 
1.175355771798e-03 1.264002849747e-02 0.0 
1.005431537103e-03 1.320583060422e-02 0.0 
9.834573587354e-04 1.267367292912e-02 0.0 
1.012118554328e-03 1.158229322829e-02 0.0 
1.857978711262e-05 1.444105650850e-02 0.0 
9.440747893131e-05 1.444379574930e-02 0.0 
5.540042578270e-05 1.410320660451e-02 0.0 
5.758684026124e-05 1.478164565329e-02 0.0 
9.224074855596e-04 1.125181137421e-02 0.0 
1.402863259692e-04 1.326061972909e-02 0.0 
1.794863593571e-04 1.360066557409e-02 0.0 
2.459397964988e-04 1.326586929087e-02 0.0 
2.862783306104e-04 1.360556772593e-02 0.0 
3.494517822791e-04 1.327092361780e-02 0.0 
3.901426249017e-04 1.361054785500e-02 0.0 
4.505479706256e-04 1.327756031259e-02 0.0 
4.913634081029e-04 1.361745771504e-02 0.0 
5.492984668286e-04 1.328588468756e-02 0.0 
5.898303726063e-04 1.362588272286e-02 0.0 
6.454688379454e-04 1.329487879791e-02 0.0 
6.849888488259e-04 1.363443619611e-02 0.0 
7.385702910898e-04 1.330301737631e-02 0.0 
7.760823305665e-04 1.364135781303e-02 0.0 
8.280280147110e-04 1.330843483470e-02 0.0 
8.623206627159e-04 1.364457269693e-02 0.0 
1.573911936539e-03 1.189736123571e-02 0.0 
9.132846341839e-04 1.330886530078e-02 0.0 
9.429508820610e-04 1.364157472843e-02 0.0 
1.431601399040e-03 1.214255810628e-02 0.0 
9.938801091634e-04 1.330152594206e-02 0.0 
1.017342201650e-03 1.362929194298e-02 0.0 
1.612098607820e-03 1.189168647945e-02 0.0 
1.069541003234e-03 1.328298798276e-02 0.0 
1.085050855636e-03 1.360392964411e-02 0.0 
1.140243649271e-03 1.324900099788e-02 0.0 
1.145898743582e-03 1.356076028686e-02 0.0 
1.206316588327e-03 1.319425604597e-02 0.0 
1.200113049606e-03 1.349382446335e-02 0.0 
1.693514279494e-03 1.149105397567e-02 0.0 
1.268563129128e-03 1.311194488531e-02 0.0 
1.248519483936e-03 1.339546028881e-02 0.0 
1.328564602108e-03 1.299355181244e-02 0.0 
1.292872948706e-03 1.325609543747e-02 0.0 
1.336050971310e-03 1.306325360928e-02 0.0 
1.388747948264e-03 1.282809670205e-02 0.0 
1.382751213746e-03 1.280146230080e-02 0.0 
1.452988791817e-03 1.260215000782e-02 0.0 
1.437992641396e-03 1.245030200297e-02 0.0 
1.524757024099e-03 1.229793596255e-02 0.0 
1.551203741995e-03 1.173625084624e-02 0.0 
1.760099291559e-05 1.342606364034e-02 0.0 
8.890534839502e-05 1.342759074277e-02 0.0 
5.442163158567e-05 1.376482017565e-02 0.0 
5.208470972494e-05 1.308883420746e-02 0.0 
1.521746336469e-03 1.157702859667e-02 0.0 
1.380446458841e-04 1.258481680003e-02 0.0 
1.728188713727e-04 1.224854441623e-02 0.0 
2.415139885995e-04 1.258955106206e-02 0.0 
2.763038762171e-04 1.225392900728e-02 0.0 
3.439031357851e-04 1.259560312796e-02 0.0 
3.786127692283e-04 1.226085576417e-02 0.0 
4.445667614462e-04 1.260318871159e-02 0.0 
4.796058283907e-04 1.226934856355e-02 0.0 
5.435220962958e-04 1.261214713706e-02 0.0 
5.793545254762e-04 1.227889795368e-02 0.0 
6.407693613481e-04 1.262163157922e-02 0.0 
6.778415638996e-04 1.228844935977e-02 0.0 
7.361224827609e-04 1.263027775865e-02 0.0 
7.750019129650e-04 1.229643507589e-02 0.0 
8.293954054385e-04 1.263625171521e-02 0.0 
1.767315416774e-03 1.151937483879e-02 0.0 
8.707947135320e-04 1.230084220145e-02 0.0 
1.765695216401e-03 1.144783832759e-02 0.0 
9.203912942727e-04 1.263731792479e-02 0.0 
9.652097574746e-04 1.229912623059e-02 0.0 
1.009032324488e-03 1.263062482022e-02 0.0 
1.058443879487e-03 1.228804299756e-02 0.0 
1.095490465746e-03 1.261264015918e-02 0.0 
1.150969593949e-03 1.226360751573e-02 0.0 
1.689224513105e-03 1.179491412733e-02 0.0 
1.180212925072e-03 1.257902669309e-02 0.0 
1.243565122960e-03 1.222087915036e-02 0.0 
1.264013691903e-03 1.252434921426e-02 0.0 
1.337423921516e-03 1.215369902953e-02 0.0 
1.348176897461e-03 1.244172628320e-02 0.0 
1.434116433012e-03 1.205397384089e-02 0.0 
1.434547782850e-03 1.232228396663e-02 0.0 
1.536001158775e-03 1.191207693847e-02 0.0 
1.645039231938e-03 1.171544883601e-02 0.0 
1.525892977590e-03 1.215534604885e-02 0.0 
1.867999323798e-03 1.119858869649e-02 0.0 
1.624832023119e-03 1.192709588774e-02 0.0 
1.789908420129e-03 1.147412798503e-02 0.0 
1.700285664083e-05 1.241285202035e-02 0.0 
8.606553203508e-05 1.241406000527e-02 0.0 
5.158181522573e-05 1.207580562660e-02 0.0 
5.148657345018e-05 1.275110639902e-02 0.0 
1.799546897547e-03 1.141853429673e-02 0.0 
1.336535476178e-04 1.123423190103e-02 0.0 
1.698923723931e-04 1.157313702419e-02 0.0 
2.345121949893e-04 1.123894438605e-02 0.0 
2.722285815865e-04 1.157872972331e-02 0.0 
3.353760419494e-04 1.124558648516e-02 0.0 
3.741609700231e-04 1.158603840533e-02 0.0 
4.360626090209e-04 1.125378614355e-02 0.0 
4.755534751705e-04 1.159476335434e-02 0.0 
5.366660518258e-04 1.126299685373e-02 0.0 
5.765508342264e-04 1.160433287956e-02 0.0 
6.374644640923e-04 1.127248459583e-02 0.0 
6.773403578937e-04 1.161386745050e-02 0.0 
7.386743329051e-04 1.128094212775e-02 0.0 
1.788644086102e-03 1.091898733029e-02 0.0 
7.780549691151e-04 1.162168135425e-02 0.0 
8.406406591677e-04 1.128659920953e-02 0.0 
1.751098805610e-03 1.122117267361e-02 0.0 
8.789869111111e-04 1.162594341740e-02 0.0 
9.437289505379e-04 1.128737741594e-02 0.0 
1.762490260921e-03 1.080080523478e-02 0.0 
9.803552161607e-04 1.162408450579e-02 0.0 
1.048336159056e-03 1.128027889365e-02 0.0 
1.082602255370e-03 1.161273879579e-02 0.0 
1.155151322515e-03 1.126166250938e-02 0.0 
1.186472074836e-03 1.158793406770e-02 0.0 
1.879715549396e-03 1.064700578359e-02 0.0 
1.265131619021e-03 1.122720892975e-02 0.0 
1.292981336021e-03 1.154473483506e-02 0.0 
1.403452505297e-03 1.147699230313e-02 0.0 
1.379458488746e-03 1.117149817255e-02 0.0 
1.519610241512e-03 1.137701574767e-02 0.0 
1.499699289742e-03 1.108806146357e-02 0.0 
1.642443451052e-03 1.123496752116e-02 0.0 
1.626483883627e-03 1.096821645609e-02 0.0 
1.842170268904e-03 1.094919112691e-02 0.0 
1.666027139490e-05 1.140040000371e-02 0.0 
8.425834750248e-05 1.140138150172e-02 0.0 
5.123922997980e-05 1.173830463002e-02 0.0 
4.967938891758e-05 1.106347687542e-02 0.0 
1.876973888514e-03 1.096420972915e-02 0.0 
1.323715879116e-04 1.055951998773e-02 0.0 
1.661918667507e-04 1.022342852927e-02 0.0 
2.320936490531e-04 1.056394780443e-02 0.0 
2.666281505481e-04 1.022860414162e-02 0.0 
3.321941568472e-04 1.057045748508e-02 0.0 
3.676715564772e-04 1.023575370709e-02 0.0 
4.327550805772e-04 1.057863044538e-02 0.0 
4.695970587811e-04 1.024423483044e-02 0.0 
5.340171638801e-04 1.058762402800e-02 0.0 
5.726661141955e-04 1.025312599436e-02 0.0 
6.362286320071e-04 1.059665053636e-02 0.0 
6.774156028361e-04 1.026168675631e-02 0.0 
1.702654965342e-03 1.015830468095e-02 0.0 
7.399854099327e-04 1.060459549303e-02 0.0 
1.658563843017e-03 1.000742148706e-02 0.0 
7.843433293321e-04 1.026810453581e-02 0.0 
8.456179423570e-04 1.060936902580e-02 0.0 
8.940738930399e-04 1.027062209007e-02 0.0 
9.538386492774e-04 1.060928627234e-02 0.0 
1.007387254877e-03 1.026694161063e-02 0.0 
1.065258499033e-03 1.060122714210e-02 0.0 
1.124920982900e-03 1.025344336292e-02 0.0 
1.695221010947e-03 1.047426861837e-02 0.0 
1.180547710069e-03 1.058141882806e-02 0.0 
1.247621755843e-03 1.022605754831e-02 0.0 
1.300884912474e-03 1.054557609167e-02 0.0 
1.376644920835e-03 1.018011092986e-02 0.0 
1.513084876462e-03 1.010956006034e-02 0.0 
1.427368780106e-03 1.048850710544e-02 0.0 
1.561421369546e-03 1.040362028790e-02 0.0 
1.780934319203e-03 9.926105473900e-03 0.0 
1.773500364809e-03 1.024206941132e-02 0.0 
1.631324468485e-05 1.038835998759e-02 0.0 
8.262936108627e-05 1.038930144073e-02 0.0 
4.961024356358e-05 1.005155270060e-02 0.0 
4.933236220753e-05 1.072610872772e-02 0.0 
1.824810047359e-03 1.030185496266e-02 0.0 

VECTORS element_materi_displacement float
0.0 0.0 0.0 
0.0 0.0 0.0 
0.0 0.0 0.0 
0.0 0.0 0.0 
0.0 0.0 0.0 
0.0 0.0 0.0 
0.0 0.0 0.0 
0.0 0.0 0.0 
0.0 0.0 0.0 
0.0 0.0 0.0 
0.0 0.0 0.0 
0.0 0.0 0.0 
0.0 0.0 0.0 
0.0 0.0 0.0 
0.0 0.0 0.0 
0.0 0.0 0.0 
0.0 0.0 0.0 
0.0 0.0 0.0 
0.0 0.0 0.0 
0.0 0.0 0.0 
0.0 0.0 0.0 
0.0 0.0 0.0 
0.0 0.0 0.0 
0.0 0.0 0.0 
0.0 0.0 0.0 
0.0 0.0 0.0 
0.0 0.0 0.0 
0.0 0.0 0.0 
0.0 0.0 0.0 
0.0 0.0 0.0 
0.0 0.0 0.0 
0.0 0.0 0.0 
0.0 0.0 0.0 
0.0 0.0 0.0 
0.0 0.0 0.0 
0.0 0.0 0.0 
0.0 0.0 0.0 
0.0 0.0 0.0 
0.0 0.0 0.0 
0.0 0.0 0.0 
0.0 0.0 0.0 
0.0 0.0 0.0 
0.0 0.0 0.0 
0.0 0.0 0.0 
0.0 0.0 0.0 
0.0 0.0 0.0 
0.0 0.0 0.0 
0.0 0.0 0.0 
0.0 0.0 0.0 
0.0 0.0 0.0 
0.0 0.0 0.0 
0.0 0.0 0.0 
0.0 0.0 0.0 
0.0 0.0 0.0 
0.0 0.0 0.0 
0.0 0.0 0.0 
0.0 0.0 0.0 
0.0 0.0 0.0 
0.0 0.0 0.0 
0.0 0.0 0.0 
0.0 0.0 0.0 
0.0 0.0 0.0 
0.0 0.0 0.0 
0.0 0.0 0.0 
0.0 0.0 0.0 
0.0 0.0 0.0 
0.0 0.0 0.0 
0.0 0.0 0.0 
0.0 0.0 0.0 
0.0 0.0 0.0 
0.0 0.0 0.0 
0.0 0.0 0.0 
0.0 0.0 0.0 
0.0 0.0 0.0 
0.0 0.0 0.0 
0.0 0.0 0.0 
0.0 0.0 0.0 
0.0 0.0 0.0 
0.0 0.0 0.0 
0.0 0.0 0.0 
0.0 0.0 0.0 
0.0 0.0 0.0 
0.0 0.0 0.0 
0.0 0.0 0.0 
0.0 0.0 0.0 
0.0 0.0 0.0 
0.0 0.0 0.0 
0.0 0.0 0.0 
0.0 0.0 0.0 
0.0 0.0 0.0 
0.0 0.0 0.0 
0.0 0.0 0.0 
0.0 0.0 0.0 
0.0 0.0 0.0 
0.0 0.0 0.0 
0.0 0.0 0.0 
0.0 0.0 0.0 
0.0 0.0 0.0 
0.0 0.0 0.0 
0.0 0.0 0.0 
0.0 0.0 0.0 
0.0 0.0 0.0 
0.0 0.0 0.0 
0.0 0.0 0.0 
0.0 0.0 0.0 
0.0 0.0 0.0 
0.0 0.0 0.0 
0.0 0.0 0.0 
0.0 0.0 0.0 
0.0 0.0 0.0 
0.0 0.0 0.0 
0.0 0.0 0.0 
0.0 0.0 0.0 
0.0 0.0 0.0 
0.0 0.0 0.0 
0.0 0.0 0.0 
0.0 0.0 0.0 
0.0 0.0 0.0 
0.0 0.0 0.0 
0.0 0.0 0.0 
0.0 0.0 0.0 
0.0 0.0 0.0 
0.0 0.0 0.0 
0.0 0.0 0.0 
0.0 0.0 0.0 
0.0 0.0 0.0 
0.0 0.0 0.0 
0.0 0.0 0.0 
0.0 0.0 0.0 
0.0 0.0 0.0 
0.0 0.0 0.0 
0.0 0.0 0.0 
0.0 0.0 0.0 
0.0 0.0 0.0 
0.0 0.0 0.0 
0.0 0.0 0.0 
0.0 0.0 0.0 
0.0 0.0 0.0 
0.0 0.0 0.0 
0.0 0.0 0.0 
0.0 0.0 0.0 
0.0 0.0 0.0 
0.0 0.0 0.0 
0.0 0.0 0.0 
0.0 0.0 0.0 
0.0 0.0 0.0 
0.0 0.0 0.0 
0.0 0.0 0.0 
0.0 0.0 0.0 
0.0 0.0 0.0 
0.0 0.0 0.0 
0.0 0.0 0.0 
0.0 0.0 0.0 
0.0 0.0 0.0 
0.0 0.0 0.0 
0.0 0.0 0.0 
0.0 0.0 0.0 
0.0 0.0 0.0 
0.0 0.0 0.0 
0.0 0.0 0.0 
0.0 0.0 0.0 
0.0 0.0 0.0 
0.0 0.0 0.0 
0.0 0.0 0.0 
0.0 0.0 0.0 
0.0 0.0 0.0 
0.0 0.0 0.0 
0.0 0.0 0.0 
0.0 0.0 0.0 
0.0 0.0 0.0 
0.0 0.0 0.0 
0.0 0.0 0.0 
0.0 0.0 0.0 
0.0 0.0 0.0 
0.0 0.0 0.0 
0.0 0.0 0.0 
0.0 0.0 0.0 
0.0 0.0 0.0 
0.0 0.0 0.0 
0.0 0.0 0.0 
0.0 0.0 0.0 
0.0 0.0 0.0 
0.0 0.0 0.0 
0.0 0.0 0.0 
0.0 0.0 0.0 
0.0 0.0 0.0 
0.0 0.0 0.0 
0.0 0.0 0.0 
0.0 0.0 0.0 
0.0 0.0 0.0 
0.0 0.0 0.0 
0.0 0.0 0.0 
0.0 0.0 0.0 
0.0 0.0 0.0 
0.0 0.0 0.0 
0.0 0.0 0.0 
0.0 0.0 0.0 
0.0 0.0 0.0 
0.0 0.0 0.0 
0.0 0.0 0.0 
0.0 0.0 0.0 
0.0 0.0 0.0 
0.0 0.0 0.0 
0.0 0.0 0.0 
0.0 0.0 0.0 
0.0 0.0 0.0 
0.0 0.0 0.0 
0.0 0.0 0.0 
0.0 0.0 0.0 
0.0 0.0 0.0 
0.0 0.0 0.0 
0.0 0.0 0.0 
0.0 0.0 0.0 
0.0 0.0 0.0 
0.0 0.0 0.0 
0.0 0.0 0.0 
0.0 0.0 0.0 
0.0 0.0 0.0 
0.0 0.0 0.0 
0.0 0.0 0.0 
0.0 0.0 0.0 
0.0 0.0 0.0 
0.0 0.0 0.0 
0.0 0.0 0.0 
0.0 0.0 0.0 
0.0 0.0 0.0 
0.0 0.0 0.0 
0.0 0.0 0.0 
0.0 0.0 0.0 
0.0 0.0 0.0 
0.0 0.0 0.0 
0.0 0.0 0.0 
0.0 0.0 0.0 
0.0 0.0 0.0 
0.0 0.0 0.0 
0.0 0.0 0.0 
0.0 0.0 0.0 
0.0 0.0 0.0 
0.0 0.0 0.0 
0.0 0.0 0.0 
0.0 0.0 0.0 
0.0 0.0 0.0 
0.0 0.0 0.0 
0.0 0.0 0.0 
0.0 0.0 0.0 
0.0 0.0 0.0 
0.0 0.0 0.0 
0.0 0.0 0.0 
0.0 0.0 0.0 
0.0 0.0 0.0 
0.0 0.0 0.0 
0.0 0.0 0.0 
0.0 0.0 0.0 
0.0 0.0 0.0 
0.0 0.0 0.0 
0.0 0.0 0.0 
0.0 0.0 0.0 
0.0 0.0 0.0 
0.0 0.0 0.0 
0.0 0.0 0.0 
0.0 0.0 0.0 
0.0 0.0 0.0 
0.0 0.0 0.0 
0.0 0.0 0.0 
0.0 0.0 0.0 
0.0 0.0 0.0 
0.0 0.0 0.0 
0.0 0.0 0.0 
0.0 0.0 0.0 
0.0 0.0 0.0 
0.0 0.0 0.0 
0.0 0.0 0.0 
0.0 0.0 0.0 
0.0 0.0 0.0 
0.0 0.0 0.0 
0.0 0.0 0.0 
0.0 0.0 0.0 
0.0 0.0 0.0 
0.0 0.0 0.0 
0.0 0.0 0.0 
0.0 0.0 0.0 
0.0 0.0 0.0 
0.0 0.0 0.0 
0.0 0.0 0.0 
0.0 0.0 0.0 
0.0 0.0 0.0 
0.0 0.0 0.0 
0.0 0.0 0.0 
0.0 0.0 0.0 
0.0 0.0 0.0 
0.0 0.0 0.0 
0.0 0.0 0.0 
0.0 0.0 0.0 
0.0 0.0 0.0 
0.0 0.0 0.0 
0.0 0.0 0.0 
0.0 0.0 0.0 
0.0 0.0 0.0 
0.0 0.0 0.0 
0.0 0.0 0.0 
0.0 0.0 0.0 
0.0 0.0 0.0 
0.0 0.0 0.0 
0.0 0.0 0.0 
0.0 0.0 0.0 
0.0 0.0 0.0 
0.0 0.0 0.0 
0.0 0.0 0.0 
0.0 0.0 0.0 
0.0 0.0 0.0 
0.0 0.0 0.0 
0.0 0.0 0.0 
0.0 0.0 0.0 
0.0 0.0 0.0 
0.0 0.0 0.0 
0.0 0.0 0.0 
0.0 0.0 0.0 
0.0 0.0 0.0 
0.0 0.0 0.0 
0.0 0.0 0.0 
0.0 0.0 0.0 
0.0 0.0 0.0 
0.0 0.0 0.0 
0.0 0.0 0.0 
0.0 0.0 0.0 
0.0 0.0 0.0 
0.0 0.0 0.0 
0.0 0.0 0.0 
0.0 0.0 0.0 
0.0 0.0 0.0 
0.0 0.0 0.0 
0.0 0.0 0.0 
0.0 0.0 0.0 
0.0 0.0 0.0 
0.0 0.0 0.0 
0.0 0.0 0.0 
0.0 0.0 0.0 
0.0 0.0 0.0 
0.0 0.0 0.0 
0.0 0.0 0.0 
0.0 0.0 0.0 
0.0 0.0 0.0 
0.0 0.0 0.0 
0.0 0.0 0.0 
0.0 0.0 0.0 
0.0 0.0 0.0 
0.0 0.0 0.0 
0.0 0.0 0.0 
0.0 0.0 0.0 
0.0 0.0 0.0 
0.0 0.0 0.0 
0.0 0.0 0.0 
0.0 0.0 0.0 
0.0 0.0 0.0 
0.0 0.0 0.0 
0.0 0.0 0.0 
0.0 0.0 0.0 
0.0 0.0 0.0 
0.0 0.0 0.0 
0.0 0.0 0.0 
0.0 0.0 0.0 
0.0 0.0 0.0 
0.0 0.0 0.0 
0.0 0.0 0.0 
0.0 0.0 0.0 
0.0 0.0 0.0 
0.0 0.0 0.0 
0.0 0.0 0.0 
0.0 0.0 0.0 
0.0 0.0 0.0 
0.0 0.0 0.0 
0.0 0.0 0.0 
0.0 0.0 0.0 
0.0 0.0 0.0 
0.0 0.0 0.0 
0.0 0.0 0.0 
0.0 0.0 0.0 
0.0 0.0 0.0 
0.0 0.0 0.0 
0.0 0.0 0.0 
0.0 0.0 0.0 
0.0 0.0 0.0 
0.0 0.0 0.0 
0.0 0.0 0.0 
0.0 0.0 0.0 
0.0 0.0 0.0 
0.0 0.0 0.0 
0.0 0.0 0.0 
0.0 0.0 0.0 
0.0 0.0 0.0 
0.0 0.0 0.0 
0.0 0.0 0.0 
0.0 0.0 0.0 
0.0 0.0 0.0 
0.0 0.0 0.0 
0.0 0.0 0.0 
0.0 0.0 0.0 
0.0 0.0 0.0 
0.0 0.0 0.0 
0.0 0.0 0.0 
0.0 0.0 0.0 
0.0 0.0 0.0 
0.0 0.0 0.0 
0.0 0.0 0.0 
0.0 0.0 0.0 
0.0 0.0 0.0 
0.0 0.0 0.0 
0.0 0.0 0.0 
0.0 0.0 0.0 
0.0 0.0 0.0 
0.0 0.0 0.0 
0.0 0.0 0.0 
0.0 0.0 0.0 
0.0 0.0 0.0 
0.0 0.0 0.0 
0.0 0.0 0.0 
0.0 0.0 0.0 
0.0 0.0 0.0 
0.0 0.0 0.0 
0.0 0.0 0.0 
0.0 0.0 0.0 
0.0 0.0 0.0 
0.0 0.0 0.0 
0.0 0.0 0.0 
0.0 0.0 0.0 
0.0 0.0 0.0 
0.0 0.0 0.0 
0.0 0.0 0.0 
0.0 0.0 0.0 
0.0 0.0 0.0 
0.0 0.0 0.0 
0.0 0.0 0.0 
0.0 0.0 0.0 
0.0 0.0 0.0 
0.0 0.0 0.0 
0.0 0.0 0.0 
0.0 0.0 0.0 
0.0 0.0 0.0 
0.0 0.0 0.0 
0.0 0.0 0.0 
0.0 0.0 0.0 
0.0 0.0 0.0 
0.0 0.0 0.0 
0.0 0.0 0.0 
0.0 0.0 0.0 
0.0 0.0 0.0 
0.0 0.0 0.0 
0.0 0.0 0.0 
0.0 0.0 0.0 
0.0 0.0 0.0 
0.0 0.0 0.0 
0.0 0.0 0.0 
0.0 0.0 0.0 
0.0 0.0 0.0 
0.0 0.0 0.0 
0.0 0.0 0.0 
0.0 0.0 0.0 
0.0 0.0 0.0 
0.0 0.0 0.0 
0.0 0.0 0.0 
0.0 0.0 0.0 
0.0 0.0 0.0 
0.0 0.0 0.0 
0.0 0.0 0.0 
0.0 0.0 0.0 
0.0 0.0 0.0 
0.0 0.0 0.0 
0.0 0.0 0.0 
0.0 0.0 0.0 
0.0 0.0 0.0 
0.0 0.0 0.0 
0.0 0.0 0.0 
0.0 0.0 0.0 
0.0 0.0 0.0 
0.0 0.0 0.0 
0.0 0.0 0.0 
0.0 0.0 0.0 
0.0 0.0 0.0 
0.0 0.0 0.0 
0.0 0.0 0.0 
0.0 0.0 0.0 
0.0 0.0 0.0 
0.0 0.0 0.0 
0.0 0.0 0.0 
0.0 0.0 0.0 
0.0 0.0 0.0 
0.0 0.0 0.0 
0.0 0.0 0.0 
0.0 0.0 0.0 
0.0 0.0 0.0 
0.0 0.0 0.0 
0.0 0.0 0.0 
0.0 0.0 0.0 
0.0 0.0 0.0 
0.0 0.0 0.0 
0.0 0.0 0.0 
0.0 0.0 0.0 
0.0 0.0 0.0 
0.0 0.0 0.0 
0.0 0.0 0.0 
0.0 0.0 0.0 
0.0 0.0 0.0 
0.0 0.0 0.0 
0.0 0.0 0.0 
0.0 0.0 0.0 
0.0 0.0 0.0 
0.0 0.0 0.0 
0.0 0.0 0.0 
0.0 0.0 0.0 
0.0 0.0 0.0 
0.0 0.0 0.0 
0.0 0.0 0.0 
0.0 0.0 0.0 
0.0 0.0 0.0 
0.0 0.0 0.0 
0.0 0.0 0.0 
0.0 0.0 0.0 
0.0 0.0 0.0 
0.0 0.0 0.0 
0.0 0.0 0.0 
0.0 0.0 0.0 
0.0 0.0 0.0 
0.0 0.0 0.0 
0.0 0.0 0.0 
0.0 0.0 0.0 
0.0 0.0 0.0 
0.0 0.0 0.0 
0.0 0.0 0.0 
0.0 0.0 0.0 
0.0 0.0 0.0 
0.0 0.0 0.0 
0.0 0.0 0.0 
0.0 0.0 0.0 
0.0 0.0 0.0 
0.0 0.0 0.0 
0.0 0.0 0.0 
0.0 0.0 0.0 
0.0 0.0 0.0 
0.0 0.0 0.0 
0.0 0.0 0.0 
0.0 0.0 0.0 
0.0 0.0 0.0 
0.0 0.0 0.0 
0.0 0.0 0.0 
0.0 0.0 0.0 
0.0 0.0 0.0 
0.0 0.0 0.0 
0.0 0.0 0.0 
0.0 0.0 0.0 
0.0 0.0 0.0 
0.0 0.0 0.0 
0.0 0.0 0.0 
0.0 0.0 0.0 
0.0 0.0 0.0 
0.0 0.0 0.0 
0.0 0.0 0.0 
0.0 0.0 0.0 
0.0 0.0 0.0 
0.0 0.0 0.0 
0.0 0.0 0.0 
0.0 0.0 0.0 
0.0 0.0 0.0 
0.0 0.0 0.0 
0.0 0.0 0.0 
0.0 0.0 0.0 
0.0 0.0 0.0 
0.0 0.0 0.0 
0.0 0.0 0.0 
0.0 0.0 0.0 
0.0 0.0 0.0 
0.0 0.0 0.0 
0.0 0.0 0.0 
0.0 0.0 0.0 
0.0 0.0 0.0 
0.0 0.0 0.0 
0.0 0.0 0.0 
0.0 0.0 0.0 
0.0 0.0 0.0 
0.0 0.0 0.0 
0.0 0.0 0.0 
0.0 0.0 0.0 
0.0 0.0 0.0 
0.0 0.0 0.0 
0.0 0.0 0.0 
0.0 0.0 0.0 
0.0 0.0 0.0 
0.0 0.0 0.0 
0.0 0.0 0.0 
0.0 0.0 0.0 
0.0 0.0 0.0 
0.0 0.0 0.0 
0.0 0.0 0.0 
0.0 0.0 0.0 
0.0 0.0 0.0 
0.0 0.0 0.0 
0.0 0.0 0.0 
0.0 0.0 0.0 
0.0 0.0 0.0 
0.0 0.0 0.0 
0.0 0.0 0.0 
0.0 0.0 0.0 
0.0 0.0 0.0 
0.0 0.0 0.0 
0.0 0.0 0.0 
0.0 0.0 0.0 
0.0 0.0 0.0 
0.0 0.0 0.0 
0.0 0.0 0.0 
0.0 0.0 0.0 
0.0 0.0 0.0 
0.0 0.0 0.0 
0.0 0.0 0.0 
0.0 0.0 0.0 
0.0 0.0 0.0 
0.0 0.0 0.0 
0.0 0.0 0.0 
0.0 0.0 0.0 
0.0 0.0 0.0 
0.0 0.0 0.0 
0.0 0.0 0.0 
0.0 0.0 0.0 
0.0 0.0 0.0 
0.0 0.0 0.0 
0.0 0.0 0.0 
0.0 0.0 0.0 
0.0 0.0 0.0 
0.0 0.0 0.0 
0.0 0.0 0.0 
0.0 0.0 0.0 
0.0 0.0 0.0 
0.0 0.0 0.0 
0.0 0.0 0.0 
0.0 0.0 0.0 
0.0 0.0 0.0 
0.0 0.0 0.0 
0.0 0.0 0.0 
0.0 0.0 0.0 
0.0 0.0 0.0 
0.0 0.0 0.0 
0.0 0.0 0.0 
0.0 0.0 0.0 
0.0 0.0 0.0 
0.0 0.0 0.0 
0.0 0.0 0.0 
0.0 0.0 0.0 
0.0 0.0 0.0 
0.0 0.0 0.0 
0.0 0.0 0.0 
0.0 0.0 0.0 
0.0 0.0 0.0 
0.0 0.0 0.0 
0.0 0.0 0.0 
0.0 0.0 0.0 
0.0 0.0 0.0 
0.0 0.0 0.0 
0.0 0.0 0.0 
0.0 0.0 0.0 
0.0 0.0 0.0 
0.0 0.0 0.0 
0.0 0.0 0.0 
0.0 0.0 0.0 
0.0 0.0 0.0 
0.0 0.0 0.0 
0.0 0.0 0.0 
0.0 0.0 0.0 
0.0 0.0 0.0 
0.0 0.0 0.0 
0.0 0.0 0.0 
0.0 0.0 0.0 
0.0 0.0 0.0 
0.0 0.0 0.0 
0.0 0.0 0.0 
0.0 0.0 0.0 
0.0 0.0 0.0 
0.0 0.0 0.0 
0.0 0.0 0.0 
0.0 0.0 0.0 
0.0 0.0 0.0 
0.0 0.0 0.0 
0.0 0.0 0.0 
0.0 0.0 0.0 
0.0 0.0 0.0 
0.0 0.0 0.0 
0.0 0.0 0.0 
0.0 0.0 0.0 
0.0 0.0 0.0 
0.0 0.0 0.0 
0.0 0.0 0.0 
0.0 0.0 0.0 
0.0 0.0 0.0 
0.0 0.0 0.0 
0.0 0.0 0.0 
0.0 0.0 0.0 
0.0 0.0 0.0 
0.0 0.0 0.0 
0.0 0.0 0.0 
0.0 0.0 0.0 
0.0 0.0 0.0 
0.0 0.0 0.0 
0.0 0.0 0.0 
0.0 0.0 0.0 
0.0 0.0 0.0 
0.0 0.0 0.0 
0.0 0.0 0.0 
0.0 0.0 0.0 
0.0 0.0 0.0 
0.0 0.0 0.0 
0.0 0.0 0.0 
0.0 0.0 0.0 
0.0 0.0 0.0 
0.0 0.0 0.0 
0.0 0.0 0.0 
0.0 0.0 0.0 
0.0 0.0 0.0 
0.0 0.0 0.0 
0.0 0.0 0.0 
0.0 0.0 0.0 
0.0 0.0 0.0 
0.0 0.0 0.0 
0.0 0.0 0.0 
0.0 0.0 0.0 
0.0 0.0 0.0 
0.0 0.0 0.0 
0.0 0.0 0.0 
0.0 0.0 0.0 
0.0 0.0 0.0 
0.0 0.0 0.0 
0.0 0.0 0.0 
0.0 0.0 0.0 
0.0 0.0 0.0 
0.0 0.0 0.0 
0.0 0.0 0.0 
0.0 0.0 0.0 
0.0 0.0 0.0 
0.0 0.0 0.0 
0.0 0.0 0.0 
0.0 0.0 0.0 
0.0 0.0 0.0 
0.0 0.0 0.0 
0.0 0.0 0.0 
0.0 0.0 0.0 
0.0 0.0 0.0 
0.0 0.0 0.0 
0.0 0.0 0.0 
0.0 0.0 0.0 
0.0 0.0 0.0 
0.0 0.0 0.0 
0.0 0.0 0.0 
0.0 0.0 0.0 
0.0 0.0 0.0 
0.0 0.0 0.0 
0.0 0.0 0.0 
0.0 0.0 0.0 
0.0 0.0 0.0 
0.0 0.0 0.0 
0.0 0.0 0.0 
0.0 0.0 0.0 
0.0 0.0 0.0 
0.0 0.0 0.0 
0.0 0.0 0.0 
0.0 0.0 0.0 
0.0 0.0 0.0 
0.0 0.0 0.0 
0.0 0.0 0.0 
0.0 0.0 0.0 
0.0 0.0 0.0 
0.0 0.0 0.0 
0.0 0.0 0.0 
0.0 0.0 0.0 
0.0 0.0 0.0 
0.0 0.0 0.0 
0.0 0.0 0.0 
0.0 0.0 0.0 
0.0 0.0 0.0 
0.0 0.0 0.0 
0.0 0.0 0.0 
0.0 0.0 0.0 
0.0 0.0 0.0 
0.0 0.0 0.0 
0.0 0.0 0.0 
0.0 0.0 0.0 
0.0 0.0 0.0 
0.0 0.0 0.0 
0.0 0.0 0.0 
0.0 0.0 0.0 
0.0 0.0 0.0 
0.0 0.0 0.0 
0.0 0.0 0.0 
0.0 0.0 0.0 
0.0 0.0 0.0 
0.0 0.0 0.0 
0.0 0.0 0.0 
0.0 0.0 0.0 
0.0 0.0 0.0 
0.0 0.0 0.0 
0.0 0.0 0.0 
0.0 0.0 0.0 
0.0 0.0 0.0 
0.0 0.0 0.0 
0.0 0.0 0.0 
0.0 0.0 0.0 
0.0 0.0 0.0 
0.0 0.0 0.0 
0.0 0.0 0.0 
0.0 0.0 0.0 
0.0 0.0 0.0 
0.0 0.0 0.0 
0.0 0.0 0.0 
0.0 0.0 0.0 
0.0 0.0 0.0 
0.0 0.0 0.0 
0.0 0.0 0.0 
0.0 0.0 0.0 
0.0 0.0 0.0 
0.0 0.0 0.0 
0.0 0.0 0.0 
0.0 0.0 0.0 
0.0 0.0 0.0 
0.0 0.0 0.0 
0.0 0.0 0.0 
0.0 0.0 0.0 
0.0 0.0 0.0 
0.0 0.0 0.0 
0.0 0.0 0.0 
0.0 0.0 0.0 
0.0 0.0 0.0 
0.0 0.0 0.0 
0.0 0.0 0.0 
0.0 0.0 0.0 
0.0 0.0 0.0 
0.0 0.0 0.0 
0.0 0.0 0.0 
0.0 0.0 0.0 
0.0 0.0 0.0 
0.0 0.0 0.0 
0.0 0.0 0.0 
0.0 0.0 0.0 
0.0 0.0 0.0 
0.0 0.0 0.0 
0.0 0.0 0.0 
0.0 0.0 0.0 
0.0 0.0 0.0 
0.0 0.0 0.0 
0.0 0.0 0.0 
0.0 0.0 0.0 
0.0 0.0 0.0 
0.0 0.0 0.0 
0.0 0.0 0.0 
0.0 0.0 0.0 
0.0 0.0 0.0 
0.0 0.0 0.0 
0.0 0.0 0.0 
0.0 0.0 0.0 
0.0 0.0 0.0 
0.0 0.0 0.0 
0.0 0.0 0.0 
0.0 0.0 0.0 
0.0 0.0 0.0 
0.0 0.0 0.0 
0.0 0.0 0.0 
0.0 0.0 0.0 
0.0 0.0 0.0 
0.0 0.0 0.0 
0.0 0.0 0.0 
0.0 0.0 0.0 
0.0 0.0 0.0 
0.0 0.0 0.0 
0.0 0.0 0.0 
0.0 0.0 0.0 
0.0 0.0 0.0 
0.0 0.0 0.0 
0.0 0.0 0.0 
0.0 0.0 0.0 
0.0 0.0 0.0 
0.0 0.0 0.0 
0.0 0.0 0.0 
0.0 0.0 0.0 
0.0 0.0 0.0 
0.0 0.0 0.0 
0.0 0.0 0.0 
0.0 0.0 0.0 
0.0 0.0 0.0 
0.0 0.0 0.0 
0.0 0.0 0.0 
0.0 0.0 0.0 
0.0 0.0 0.0 
0.0 0.0 0.0 
0.0 0.0 0.0 
0.0 0.0 0.0 
0.0 0.0 0.0 
0.0 0.0 0.0 
0.0 0.0 0.0 
0.0 0.0 0.0 
0.0 0.0 0.0 
0.0 0.0 0.0 
0.0 0.0 0.0 
0.0 0.0 0.0 
0.0 0.0 0.0 
0.0 0.0 0.0 
0.0 0.0 0.0 
0.0 0.0 0.0 
0.0 0.0 0.0 
0.0 0.0 0.0 
0.0 0.0 0.0 
0.0 0.0 0.0 
0.0 0.0 0.0 
0.0 0.0 0.0 
0.0 0.0 0.0 
0.0 0.0 0.0 
0.0 0.0 0.0 
0.0 0.0 0.0 
0.0 0.0 0.0 
0.0 0.0 0.0 
0.0 0.0 0.0 
0.0 0.0 0.0 
0.0 0.0 0.0 
0.0 0.0 0.0 
0.0 0.0 0.0 
0.0 0.0 0.0 
0.0 0.0 0.0 
0.0 0.0 0.0 
0.0 0.0 0.0 
0.0 0.0 0.0 
0.0 0.0 0.0 
0.0 0.0 0.0 
0.0 0.0 0.0 
0.0 0.0 0.0 
0.0 0.0 0.0 
0.0 0.0 0.0 
0.0 0.0 0.0 
0.0 0.0 0.0 
0.0 0.0 0.0 
0.0 0.0 0.0 
0.0 0.0 0.0 
0.0 0.0 0.0 
0.0 0.0 0.0 
0.0 0.0 0.0 
0.0 0.0 0.0 
0.0 0.0 0.0 
0.0 0.0 0.0 
0.0 0.0 0.0 
0.0 0.0 0.0 
0.0 0.0 0.0 
0.0 0.0 0.0 
0.0 0.0 0.0 
0.0 0.0 0.0 
0.0 0.0 0.0 
0.0 0.0 0.0 
0.0 0.0 0.0 
0.0 0.0 0.0 
0.0 0.0 0.0 
0.0 0.0 0.0 
0.0 0.0 0.0 
0.0 0.0 0.0 
0.0 0.0 0.0 
0.0 0.0 0.0 
0.0 0.0 0.0 
0.0 0.0 0.0 
0.0 0.0 0.0 
0.0 0.0 0.0 
0.0 0.0 0.0 
0.0 0.0 0.0 
0.0 0.0 0.0 
0.0 0.0 0.0 
0.0 0.0 0.0 
0.0 0.0 0.0 
0.0 0.0 0.0 
0.0 0.0 0.0 
0.0 0.0 0.0 
0.0 0.0 0.0 
0.0 0.0 0.0 
0.0 0.0 0.0 
0.0 0.0 0.0 
0.0 0.0 0.0 
0.0 0.0 0.0 
0.0 0.0 0.0 
0.0 0.0 0.0 
0.0 0.0 0.0 
0.0 0.0 0.0 
0.0 0.0 0.0 
0.0 0.0 0.0 
0.0 0.0 0.0 
0.0 0.0 0.0 
0.0 0.0 0.0 
0.0 0.0 0.0 
0.0 0.0 0.0 
0.0 0.0 0.0 
0.0 0.0 0.0 
0.0 0.0 0.0 
0.0 0.0 0.0 
0.0 0.0 0.0 
0.0 0.0 0.0 
0.0 0.0 0.0 
0.0 0.0 0.0 
0.0 0.0 0.0 
0.0 0.0 0.0 
0.0 0.0 0.0 
0.0 0.0 0.0 
0.0 0.0 0.0 
0.0 0.0 0.0 
0.0 0.0 0.0 
0.0 0.0 0.0 
0.0 0.0 0.0 
0.0 0.0 0.0 
0.0 0.0 0.0 
0.0 0.0 0.0 
0.0 0.0 0.0 
0.0 0.0 0.0 
0.0 0.0 0.0 
0.0 0.0 0.0 
0.0 0.0 0.0 
0.0 0.0 0.0 
0.0 0.0 0.0 
0.0 0.0 0.0 
0.0 0.0 0.0 
0.0 0.0 0.0 
0.0 0.0 0.0 
0.0 0.0 0.0 
0.0 0.0 0.0 
0.0 0.0 0.0 
0.0 0.0 0.0 
0.0 0.0 0.0 
0.0 0.0 0.0 
0.0 0.0 0.0 
0.0 0.0 0.0 
0.0 0.0 0.0 
0.0 0.0 0.0 
0.0 0.0 0.0 
0.0 0.0 0.0 
0.0 0.0 0.0 
0.0 0.0 0.0 
0.0 0.0 0.0 
0.0 0.0 0.0 
0.0 0.0 0.0 
0.0 0.0 0.0 
0.0 0.0 0.0 
0.0 0.0 0.0 
0.0 0.0 0.0 
0.0 0.0 0.0 
0.0 0.0 0.0 
0.0 0.0 0.0 
0.0 0.0 0.0 
0.0 0.0 0.0 
0.0 0.0 0.0 
0.0 0.0 0.0 
0.0 0.0 0.0 
0.0 0.0 0.0 
0.0 0.0 0.0 
0.0 0.0 0.0 
0.0 0.0 0.0 
0.0 0.0 0.0 
0.0 0.0 0.0 
0.0 0.0 0.0 
0.0 0.0 0.0 
0.0 0.0 0.0 
0.0 0.0 0.0 
0.0 0.0 0.0 
0.0 0.0 0.0 
0.0 0.0 0.0 
0.0 0.0 0.0 
0.0 0.0 0.0 
0.0 0.0 0.0 
0.0 0.0 0.0 
0.0 0.0 0.0 
0.0 0.0 0.0 
0.0 0.0 0.0 
0.0 0.0 0.0 
0.0 0.0 0.0 
0.0 0.0 0.0 
0.0 0.0 0.0 
0.0 0.0 0.0 
0.0 0.0 0.0 
0.0 0.0 0.0 
0.0 0.0 0.0 
0.0 0.0 0.0 
0.0 0.0 0.0 
0.0 0.0 0.0 
0.0 0.0 0.0 
0.0 0.0 0.0 
0.0 0.0 0.0 
0.0 0.0 0.0 
0.0 0.0 0.0 
0.0 0.0 0.0 
0.0 0.0 0.0 
0.0 0.0 0.0 
0.0 0.0 0.0 
0.0 0.0 0.0 
0.0 0.0 0.0 
0.0 0.0 0.0 
0.0 0.0 0.0 
0.0 0.0 0.0 
0.0 0.0 0.0 
0.0 0.0 0.0 
0.0 0.0 0.0 
0.0 0.0 0.0 
0.0 0.0 0.0 
0.0 0.0 0.0 
0.0 0.0 0.0 
0.0 0.0 0.0 
0.0 0.0 0.0 
0.0 0.0 0.0 
0.0 0.0 0.0 
0.0 0.0 0.0 
0.0 0.0 0.0 
0.0 0.0 0.0 
0.0 0.0 0.0 
0.0 0.0 0.0 
0.0 0.0 0.0 
0.0 0.0 0.0 
0.0 0.0 0.0 
0.0 0.0 0.0 
0.0 0.0 0.0 
0.0 0.0 0.0 
0.0 0.0 0.0 
0.0 0.0 0.0 
0.0 0.0 0.0 
0.0 0.0 0.0 
0.0 0.0 0.0 
0.0 0.0 0.0 
0.0 0.0 0.0 
0.0 0.0 0.0 
0.0 0.0 0.0 
0.0 0.0 0.0 
0.0 0.0 0.0 
0.0 0.0 0.0 
0.0 0.0 0.0 
0.0 0.0 0.0 
0.0 0.0 0.0 
0.0 0.0 0.0 
0.0 0.0 0.0 
0.0 0.0 0.0 
0.0 0.0 0.0 
0.0 0.0 0.0 
0.0 0.0 0.0 
0.0 0.0 0.0 
0.0 0.0 0.0 
0.0 0.0 0.0 
0.0 0.0 0.0 
0.0 0.0 0.0 
0.0 0.0 0.0 
0.0 0.0 0.0 
0.0 0.0 0.0 
0.0 0.0 0.0 
0.0 0.0 0.0 
0.0 0.0 0.0 
0.0 0.0 0.0 
0.0 0.0 0.0 
0.0 0.0 0.0 
0.0 0.0 0.0 
0.0 0.0 0.0 
0.0 0.0 0.0 
0.0 0.0 0.0 
0.0 0.0 0.0 
0.0 0.0 0.0 
0.0 0.0 0.0 
0.0 0.0 0.0 
0.0 0.0 0.0 
0.0 0.0 0.0 
0.0 0.0 0.0 
0.0 0.0 0.0 
0.0 0.0 0.0 
0.0 0.0 0.0 
0.0 0.0 0.0 
0.0 0.0 0.0 
0.0 0.0 0.0 
0.0 0.0 0.0 
0.0 0.0 0.0 
0.0 0.0 0.0 
0.0 0.0 0.0 
0.0 0.0 0.0 
0.0 0.0 0.0 
0.0 0.0 0.0 
0.0 0.0 0.0 
0.0 0.0 0.0 
0.0 0.0 0.0 
0.0 0.0 0.0 
0.0 0.0 0.0 
0.0 0.0 0.0 
0.0 0.0 0.0 
0.0 0.0 0.0 
0.0 0.0 0.0 
0.0 0.0 0.0 
0.0 0.0 0.0 
0.0 0.0 0.0 
0.0 0.0 0.0 
0.0 0.0 0.0 
0.0 0.0 0.0 
0.0 0.0 0.0 
0.0 0.0 0.0 
0.0 0.0 0.0 
0.0 0.0 0.0 
0.0 0.0 0.0 
0.0 0.0 0.0 
0.0 0.0 0.0 
0.0 0.0 0.0 
0.0 0.0 0.0 
0.0 0.0 0.0 
0.0 0.0 0.0 
0.0 0.0 0.0 
0.0 0.0 0.0 
0.0 0.0 0.0 
0.0 0.0 0.0 
0.0 0.0 0.0 
0.0 0.0 0.0 
0.0 0.0 0.0 
0.0 0.0 0.0 
0.0 0.0 0.0 
0.0 0.0 0.0 
0.0 0.0 0.0 
0.0 0.0 0.0 
0.0 0.0 0.0 
0.0 0.0 0.0 
0.0 0.0 0.0 
0.0 0.0 0.0 
0.0 0.0 0.0 
0.0 0.0 0.0 
0.0 0.0 0.0 
0.0 0.0 0.0 
0.0 0.0 0.0 
0.0 0.0 0.0 
0.0 0.0 0.0 
0.0 0.0 0.0 
0.0 0.0 0.0 
0.0 0.0 0.0 
0.0 0.0 0.0 
0.0 0.0 0.0 
0.0 0.0 0.0 
0.0 0.0 0.0 
0.0 0.0 0.0 
0.0 0.0 0.0 
0.0 0.0 0.0 
0.0 0.0 0.0 
0.0 0.0 0.0 
0.0 0.0 0.0 
0.0 0.0 0.0 
0.0 0.0 0.0 
0.0 0.0 0.0 
0.0 0.0 0.0 
0.0 0.0 0.0 
0.0 0.0 0.0 
0.0 0.0 0.0 
0.0 0.0 0.0 
0.0 0.0 0.0 
0.0 0.0 0.0 
0.0 0.0 0.0 
0.0 0.0 0.0 
0.0 0.0 0.0 
0.0 0.0 0.0 
0.0 0.0 0.0 
0.0 0.0 0.0 
0.0 0.0 0.0 
0.0 0.0 0.0 
0.0 0.0 0.0 
0.0 0.0 0.0 
0.0 0.0 0.0 
0.0 0.0 0.0 
0.0 0.0 0.0 
0.0 0.0 0.0 
0.0 0.0 0.0 
0.0 0.0 0.0 
0.0 0.0 0.0 
0.0 0.0 0.0 
0.0 0.0 0.0 
0.0 0.0 0.0 
0.0 0.0 0.0 
0.0 0.0 0.0 
0.0 0.0 0.0 
0.0 0.0 0.0 
0.0 0.0 0.0 
0.0 0.0 0.0 
0.0 0.0 0.0 
0.0 0.0 0.0 
0.0 0.0 0.0 
0.0 0.0 0.0 
0.0 0.0 0.0 
0.0 0.0 0.0 
0.0 0.0 0.0 
0.0 0.0 0.0 
0.0 0.0 0.0 
0.0 0.0 0.0 
0.0 0.0 0.0 
0.0 0.0 0.0 
0.0 0.0 0.0 
0.0 0.0 0.0 
0.0 0.0 0.0 
0.0 0.0 0.0 
0.0 0.0 0.0 
0.0 0.0 0.0 
0.0 0.0 0.0 
0.0 0.0 0.0 
0.0 0.0 0.0 
0.0 0.0 0.0 
0.0 0.0 0.0 
0.0 0.0 0.0 
0.0 0.0 0.0 
0.0 0.0 0.0 
0.0 0.0 0.0 
0.0 0.0 0.0 
0.0 0.0 0.0 
0.0 0.0 0.0 
0.0 0.0 0.0 
0.0 0.0 0.0 
0.0 0.0 0.0 
0.0 0.0 0.0 
0.0 0.0 0.0 
0.0 0.0 0.0 
0.0 0.0 0.0 
0.0 0.0 0.0 
0.0 0.0 0.0 
0.0 0.0 0.0 
0.0 0.0 0.0 
0.0 0.0 0.0 
0.0 0.0 0.0 
0.0 0.0 0.0 
0.0 0.0 0.0 
0.0 0.0 0.0 
0.0 0.0 0.0 
0.0 0.0 0.0 
0.0 0.0 0.0 
0.0 0.0 0.0 
0.0 0.0 0.0 
0.0 0.0 0.0 
0.0 0.0 0.0 
0.0 0.0 0.0 
0.0 0.0 0.0 
0.0 0.0 0.0 
0.0 0.0 0.0 
0.0 0.0 0.0 
0.0 0.0 0.0 
0.0 0.0 0.0 
0.0 0.0 0.0 
0.0 0.0 0.0 
0.0 0.0 0.0 
0.0 0.0 0.0 
0.0 0.0 0.0 
0.0 0.0 0.0 
0.0 0.0 0.0 
0.0 0.0 0.0 
0.0 0.0 0.0 
0.0 0.0 0.0 
0.0 0.0 0.0 
0.0 0.0 0.0 
0.0 0.0 0.0 
0.0 0.0 0.0 
0.0 0.0 0.0 
0.0 0.0 0.0 
0.0 0.0 0.0 
0.0 0.0 0.0 
0.0 0.0 0.0 
0.0 0.0 0.0 
0.0 0.0 0.0 
0.0 0.0 0.0 
0.0 0.0 0.0 
0.0 0.0 0.0 
0.0 0.0 0.0 
0.0 0.0 0.0 
0.0 0.0 0.0 
0.0 0.0 0.0 
0.0 0.0 0.0 
0.0 0.0 0.0 
0.0 0.0 0.0 
0.0 0.0 0.0 
0.0 0.0 0.0 
0.0 0.0 0.0 
0.0 0.0 0.0 
0.0 0.0 0.0 
0.0 0.0 0.0 
0.0 0.0 0.0 
0.0 0.0 0.0 
0.0 0.0 0.0 
0.0 0.0 0.0 
0.0 0.0 0.0 
0.0 0.0 0.0 
0.0 0.0 0.0 
0.0 0.0 0.0 
0.0 0.0 0.0 
0.0 0.0 0.0 
0.0 0.0 0.0 
0.0 0.0 0.0 
0.0 0.0 0.0 
0.0 0.0 0.0 
0.0 0.0 0.0 
0.0 0.0 0.0 
0.0 0.0 0.0 
0.0 0.0 0.0 
0.0 0.0 0.0 
0.0 0.0 0.0 
0.0 0.0 0.0 
0.0 0.0 0.0 
0.0 0.0 0.0 
0.0 0.0 0.0 
0.0 0.0 0.0 
0.0 0.0 0.0 
0.0 0.0 0.0 
0.0 0.0 0.0 
0.0 0.0 0.0 
0.0 0.0 0.0 
0.0 0.0 0.0 
0.0 0.0 0.0 
0.0 0.0 0.0 
0.0 0.0 0.0 
0.0 0.0 0.0 
0.0 0.0 0.0 
0.0 0.0 0.0 
0.0 0.0 0.0 
0.0 0.0 0.0 
0.0 0.0 0.0 
0.0 0.0 0.0 
0.0 0.0 0.0 
0.0 0.0 0.0 
0.0 0.0 0.0 
0.0 0.0 0.0 
0.0 0.0 0.0 
0.0 0.0 0.0 
0.0 0.0 0.0 
0.0 0.0 0.0 
0.0 0.0 0.0 
0.0 0.0 0.0 
0.0 0.0 0.0 
0.0 0.0 0.0 
0.0 0.0 0.0 
0.0 0.0 0.0 
0.0 0.0 0.0 
0.0 0.0 0.0 
0.0 0.0 0.0 
0.0 0.0 0.0 
0.0 0.0 0.0 
0.0 0.0 0.0 
0.0 0.0 0.0 
0.0 0.0 0.0 
0.0 0.0 0.0 
0.0 0.0 0.0 
0.0 0.0 0.0 
0.0 0.0 0.0 
0.0 0.0 0.0 
0.0 0.0 0.0 
0.0 0.0 0.0 
0.0 0.0 0.0 
0.0 0.0 0.0 
0.0 0.0 0.0 
0.0 0.0 0.0 
0.0 0.0 0.0 
0.0 0.0 0.0 
0.0 0.0 0.0 
0.0 0.0 0.0 
0.0 0.0 0.0 
0.0 0.0 0.0 
0.0 0.0 0.0 
0.0 0.0 0.0 
0.0 0.0 0.0 
0.0 0.0 0.0 
0.0 0.0 0.0 
0.0 0.0 0.0 
0.0 0.0 0.0 
0.0 0.0 0.0 
0.0 0.0 0.0 
0.0 0.0 0.0 
0.0 0.0 0.0 
0.0 0.0 0.0 
0.0 0.0 0.0 
0.0 0.0 0.0 
0.0 0.0 0.0 
0.0 0.0 0.0 
0.0 0.0 0.0 
0.0 0.0 0.0 
0.0 0.0 0.0 
0.0 0.0 0.0 
0.0 0.0 0.0 
0.0 0.0 0.0 
0.0 0.0 0.0 
0.0 0.0 0.0 
0.0 0.0 0.0 
0.0 0.0 0.0 
0.0 0.0 0.0 
0.0 0.0 0.0 
0.0 0.0 0.0 
0.0 0.0 0.0 
0.0 0.0 0.0 
0.0 0.0 0.0 
0.0 0.0 0.0 
0.0 0.0 0.0 
0.0 0.0 0.0 
0.0 0.0 0.0 
0.0 0.0 0.0 
0.0 0.0 0.0 
0.0 0.0 0.0 
0.0 0.0 0.0 
0.0 0.0 0.0 
0.0 0.0 0.0 
0.0 0.0 0.0 
0.0 0.0 0.0 
0.0 0.0 0.0 
0.0 0.0 0.0 
0.0 0.0 0.0 
0.0 0.0 0.0 
0.0 0.0 0.0 
0.0 0.0 0.0 
0.0 0.0 0.0 
0.0 0.0 0.0 
0.0 0.0 0.0 
0.0 0.0 0.0 
0.0 0.0 0.0 
0.0 0.0 0.0 
0.0 0.0 0.0 
0.0 0.0 0.0 
0.0 0.0 0.0 
0.0 0.0 0.0 
0.0 0.0 0.0 
0.0 0.0 0.0 
0.0 0.0 0.0 
0.0 0.0 0.0 
0.0 0.0 0.0 
0.0 0.0 0.0 
0.0 0.0 0.0 
0.0 0.0 0.0 
0.0 0.0 0.0 
0.0 0.0 0.0 
0.0 0.0 0.0 
0.0 0.0 0.0 
0.0 0.0 0.0 
0.0 0.0 0.0 
0.0 0.0 0.0 
0.0 0.0 0.0 
0.0 0.0 0.0 
0.0 0.0 0.0 
0.0 0.0 0.0 
0.0 0.0 0.0 
0.0 0.0 0.0 
0.0 0.0 0.0 
0.0 0.0 0.0 
0.0 0.0 0.0 
0.0 0.0 0.0 
0.0 0.0 0.0 
0.0 0.0 0.0 
0.0 0.0 0.0 
0.0 0.0 0.0 
0.0 0.0 0.0 
0.0 0.0 0.0 
0.0 0.0 0.0 
0.0 0.0 0.0 
0.0 0.0 0.0 
0.0 0.0 0.0 
0.0 0.0 0.0 
0.0 0.0 0.0 
0.0 0.0 0.0 
0.0 0.0 0.0 
0.0 0.0 0.0 
0.0 0.0 0.0 
0.0 0.0 0.0 
0.0 0.0 0.0 
0.0 0.0 0.0 
0.0 0.0 0.0 
0.0 0.0 0.0 
0.0 0.0 0.0 
0.0 0.0 0.0 
0.0 0.0 0.0 
0.0 0.0 0.0 
0.0 0.0 0.0 
0.0 0.0 0.0 
0.0 0.0 0.0 
0.0 0.0 0.0 
0.0 0.0 0.0 
0.0 0.0 0.0 
0.0 0.0 0.0 
0.0 0.0 0.0 
0.0 0.0 0.0 
0.0 0.0 0.0 
0.0 0.0 0.0 
0.0 0.0 0.0 
0.0 0.0 0.0 
0.0 0.0 0.0 
0.0 0.0 0.0 
0.0 0.0 0.0 
0.0 0.0 0.0 
0.0 0.0 0.0 
0.0 0.0 0.0 
0.0 0.0 0.0 
0.0 0.0 0.0 
0.0 0.0 0.0 
0.0 0.0 0.0 
0.0 0.0 0.0 
0.0 0.0 0.0 
0.0 0.0 0.0 
0.0 0.0 0.0 
0.0 0.0 0.0 
0.0 0.0 0.0 
0.0 0.0 0.0 
0.0 0.0 0.0 
0.0 0.0 0.0 
0.0 0.0 0.0 
0.0 0.0 0.0 
0.0 0.0 0.0 
0.0 0.0 0.0 
0.0 0.0 0.0 
0.0 0.0 0.0 
0.0 0.0 0.0 
0.0 0.0 0.0 
0.0 0.0 0.0 
0.0 0.0 0.0 
0.0 0.0 0.0 
0.0 0.0 0.0 
0.0 0.0 0.0 
0.0 0.0 0.0 
0.0 0.0 0.0 
0.0 0.0 0.0 
0.0 0.0 0.0 
0.0 0.0 0.0 
0.0 0.0 0.0 
0.0 0.0 0.0 
0.0 0.0 0.0 
0.0 0.0 0.0 
0.0 0.0 0.0 
0.0 0.0 0.0 
0.0 0.0 0.0 
0.0 0.0 0.0 
0.0 0.0 0.0 
0.0 0.0 0.0 
0.0 0.0 0.0 
0.0 0.0 0.0 
0.0 0.0 0.0 
0.0 0.0 0.0 
0.0 0.0 0.0 
0.0 0.0 0.0 
0.0 0.0 0.0 
0.0 0.0 0.0 
0.0 0.0 0.0 
0.0 0.0 0.0 
0.0 0.0 0.0 
0.0 0.0 0.0 
0.0 0.0 0.0 
0.0 0.0 0.0 
0.0 0.0 0.0 
0.0 0.0 0.0 
0.0 0.0 0.0 
0.0 0.0 0.0 
0.0 0.0 0.0 
0.0 0.0 0.0 
0.0 0.0 0.0 
0.0 0.0 0.0 
0.0 0.0 0.0 
0.0 0.0 0.0 
0.0 0.0 0.0 
0.0 0.0 0.0 
0.0 0.0 0.0 
0.0 0.0 0.0 
0.0 0.0 0.0 
0.0 0.0 0.0 
0.0 0.0 0.0 
0.0 0.0 0.0 
0.0 0.0 0.0 
0.0 0.0 0.0 
0.0 0.0 0.0 
0.0 0.0 0.0 
0.0 0.0 0.0 
0.0 0.0 0.0 
0.0 0.0 0.0 
0.0 0.0 0.0 
0.0 0.0 0.0 
0.0 0.0 0.0 
0.0 0.0 0.0 
0.0 0.0 0.0 
0.0 0.0 0.0 
0.0 0.0 0.0 
0.0 0.0 0.0 
0.0 0.0 0.0 
0.0 0.0 0.0 
0.0 0.0 0.0 
0.0 0.0 0.0 
0.0 0.0 0.0 
0.0 0.0 0.0 
0.0 0.0 0.0 
0.0 0.0 0.0 
0.0 0.0 0.0 
0.0 0.0 0.0 
0.0 0.0 0.0 
0.0 0.0 0.0 
0.0 0.0 0.0 
0.0 0.0 0.0 
0.0 0.0 0.0 
0.0 0.0 0.0 
0.0 0.0 0.0 
0.0 0.0 0.0 
0.0 0.0 0.0 
0.0 0.0 0.0 
0.0 0.0 0.0 
0.0 0.0 0.0 
0.0 0.0 0.0 
0.0 0.0 0.0 
0.0 0.0 0.0 
0.0 0.0 0.0 
0.0 0.0 0.0 
0.0 0.0 0.0 
0.0 0.0 0.0 
0.0 0.0 0.0 
0.0 0.0 0.0 
0.0 0.0 0.0 
0.0 0.0 0.0 
0.0 0.0 0.0 
0.0 0.0 0.0 
0.0 0.0 0.0 
0.0 0.0 0.0 
0.0 0.0 0.0 
0.0 0.0 0.0 
0.0 0.0 0.0 
0.0 0.0 0.0 
0.0 0.0 0.0 
0.0 0.0 0.0 
0.0 0.0 0.0 
0.0 0.0 0.0 
0.0 0.0 0.0 
0.0 0.0 0.0 
0.0 0.0 0.0 
0.0 0.0 0.0 
0.0 0.0 0.0 
0.0 0.0 0.0 
0.0 0.0 0.0 
0.0 0.0 0.0 
0.0 0.0 0.0 
0.0 0.0 0.0 
0.0 0.0 0.0 
0.0 0.0 0.0 
0.0 0.0 0.0 
0.0 0.0 0.0 
0.0 0.0 0.0 
0.0 0.0 0.0 
0.0 0.0 0.0 
0.0 0.0 0.0 
0.0 0.0 0.0 
0.0 0.0 0.0 
0.0 0.0 0.0 
0.0 0.0 0.0 
0.0 0.0 0.0 
0.0 0.0 0.0 
0.0 0.0 0.0 
0.0 0.0 0.0 
0.0 0.0 0.0 
0.0 0.0 0.0 
0.0 0.0 0.0 
0.0 0.0 0.0 
0.0 0.0 0.0 
0.0 0.0 0.0 
0.0 0.0 0.0 
0.0 0.0 0.0 
0.0 0.0 0.0 
0.0 0.0 0.0 
0.0 0.0 0.0 
0.0 0.0 0.0 
0.0 0.0 0.0 
0.0 0.0 0.0 
0.0 0.0 0.0 
0.0 0.0 0.0 
0.0 0.0 0.0 
0.0 0.0 0.0 
0.0 0.0 0.0 
0.0 0.0 0.0 
0.0 0.0 0.0 
0.0 0.0 0.0 
0.0 0.0 0.0 
0.0 0.0 0.0 
0.0 0.0 0.0 
0.0 0.0 0.0 
0.0 0.0 0.0 
0.0 0.0 0.0 
0.0 0.0 0.0 
0.0 0.0 0.0 
0.0 0.0 0.0 
0.0 0.0 0.0 
0.0 0.0 0.0 
0.0 0.0 0.0 
0.0 0.0 0.0 
0.0 0.0 0.0 
0.0 0.0 0.0 
0.0 0.0 0.0 
0.0 0.0 0.0 
0.0 0.0 0.0 
0.0 0.0 0.0 
0.0 0.0 0.0 
0.0 0.0 0.0 
0.0 0.0 0.0 
0.0 0.0 0.0 
0.0 0.0 0.0 
0.0 0.0 0.0 
0.0 0.0 0.0 
0.0 0.0 0.0 
0.0 0.0 0.0 
0.0 0.0 0.0 
0.0 0.0 0.0 
0.0 0.0 0.0 
0.0 0.0 0.0 
0.0 0.0 0.0 
0.0 0.0 0.0 
0.0 0.0 0.0 
0.0 0.0 0.0 
0.0 0.0 0.0 
0.0 0.0 0.0 
0.0 0.0 0.0 
0.0 0.0 0.0 
0.0 0.0 0.0 
0.0 0.0 0.0 
0.0 0.0 0.0 
0.0 0.0 0.0 
0.0 0.0 0.0 
0.0 0.0 0.0 
0.0 0.0 0.0 
0.0 0.0 0.0 
0.0 0.0 0.0 
0.0 0.0 0.0 
0.0 0.0 0.0 
0.0 0.0 0.0 
0.0 0.0 0.0 
0.0 0.0 0.0 
0.0 0.0 0.0 
0.0 0.0 0.0 
0.0 0.0 0.0 
0.0 0.0 0.0 
0.0 0.0 0.0 
0.0 0.0 0.0 
0.0 0.0 0.0 
0.0 0.0 0.0 
0.0 0.0 0.0 
0.0 0.0 0.0 
0.0 0.0 0.0 
0.0 0.0 0.0 
0.0 0.0 0.0 
0.0 0.0 0.0 
0.0 0.0 0.0 
0.0 0.0 0.0 
0.0 0.0 0.0 
0.0 0.0 0.0 
0.0 0.0 0.0 
0.0 0.0 0.0 
0.0 0.0 0.0 
0.0 0.0 0.0 
0.0 0.0 0.0 
0.0 0.0 0.0 
0.0 0.0 0.0 
0.0 0.0 0.0 
0.0 0.0 0.0 
0.0 0.0 0.0 
0.0 0.0 0.0 
0.0 0.0 0.0 
0.0 0.0 0.0 
0.0 0.0 0.0 
0.0 0.0 0.0 
0.0 0.0 0.0 
0.0 0.0 0.0 
0.0 0.0 0.0 
0.0 0.0 0.0 
0.0 0.0 0.0 
0.0 0.0 0.0 
0.0 0.0 0.0 
0.0 0.0 0.0 
0.0 0.0 0.0 
0.0 0.0 0.0 
0.0 0.0 0.0 
0.0 0.0 0.0 
0.0 0.0 0.0 
0.0 0.0 0.0 
0.0 0.0 0.0 
0.0 0.0 0.0 
0.0 0.0 0.0 
0.0 0.0 0.0 
0.0 0.0 0.0 
0.0 0.0 0.0 
0.0 0.0 0.0 
0.0 0.0 0.0 
0.0 0.0 0.0 
0.0 0.0 0.0 
0.0 0.0 0.0 
0.0 0.0 0.0 
0.0 0.0 0.0 
0.0 0.0 0.0 
0.0 0.0 0.0 
0.0 0.0 0.0 
0.0 0.0 0.0 
0.0 0.0 0.0 
0.0 0.0 0.0 
0.0 0.0 0.0 
0.0 0.0 0.0 
0.0 0.0 0.0 
0.0 0.0 0.0 
0.0 0.0 0.0 
0.0 0.0 0.0 
0.0 0.0 0.0 
0.0 0.0 0.0 
0.0 0.0 0.0 
0.0 0.0 0.0 
0.0 0.0 0.0 
0.0 0.0 0.0 
0.0 0.0 0.0 
0.0 0.0 0.0 
0.0 0.0 0.0 
0.0 0.0 0.0 
0.0 0.0 0.0 
0.0 0.0 0.0 
0.0 0.0 0.0 
0.0 0.0 0.0 
0.0 0.0 0.0 
0.0 0.0 0.0 
0.0 0.0 0.0 
0.0 0.0 0.0 
0.0 0.0 0.0 
0.0 0.0 0.0 
0.0 0.0 0.0 
0.0 0.0 0.0 
0.0 0.0 0.0 
0.0 0.0 0.0 
0.0 0.0 0.0 
0.0 0.0 0.0 
0.0 0.0 0.0 
0.0 0.0 0.0 
0.0 0.0 0.0 
0.0 0.0 0.0 
0.0 0.0 0.0 
0.0 0.0 0.0 
0.0 0.0 0.0 
0.0 0.0 0.0 
0.0 0.0 0.0 
0.0 0.0 0.0 
0.0 0.0 0.0 
0.0 0.0 0.0 
0.0 0.0 0.0 
0.0 0.0 0.0 
0.0 0.0 0.0 
0.0 0.0 0.0 
0.0 0.0 0.0 
0.0 0.0 0.0 
0.0 0.0 0.0 
0.0 0.0 0.0 
0.0 0.0 0.0 
0.0 0.0 0.0 
0.0 0.0 0.0 
0.0 0.0 0.0 
0.0 0.0 0.0 
0.0 0.0 0.0 
0.0 0.0 0.0 
0.0 0.0 0.0 
0.0 0.0 0.0 
0.0 0.0 0.0 
0.0 0.0 0.0 
0.0 0.0 0.0 
0.0 0.0 0.0 
0.0 0.0 0.0 
0.0 0.0 0.0 
0.0 0.0 0.0 
0.0 0.0 0.0 
0.0 0.0 0.0 
0.0 0.0 0.0 
0.0 0.0 0.0 
0.0 0.0 0.0 
0.0 0.0 0.0 
0.0 0.0 0.0 
0.0 0.0 0.0 
0.0 0.0 0.0 
0.0 0.0 0.0 
0.0 0.0 0.0 
0.0 0.0 0.0 
0.0 0.0 0.0 
0.0 0.0 0.0 
0.0 0.0 0.0 
0.0 0.0 0.0 
0.0 0.0 0.0 
0.0 0.0 0.0 
0.0 0.0 0.0 
0.0 0.0 0.0 
0.0 0.0 0.0 
0.0 0.0 0.0 
0.0 0.0 0.0 
0.0 0.0 0.0 
0.0 0.0 0.0 
0.0 0.0 0.0 
0.0 0.0 0.0 
0.0 0.0 0.0 
0.0 0.0 0.0 
0.0 0.0 0.0 
0.0 0.0 0.0 
0.0 0.0 0.0 
0.0 0.0 0.0 
0.0 0.0 0.0 
0.0 0.0 0.0 
0.0 0.0 0.0 
0.0 0.0 0.0 
0.0 0.0 0.0 
0.0 0.0 0.0 
0.0 0.0 0.0 
0.0 0.0 0.0 
0.0 0.0 0.0 
0.0 0.0 0.0 
0.0 0.0 0.0 
0.0 0.0 0.0 
0.0 0.0 0.0 
0.0 0.0 0.0 
0.0 0.0 0.0 
0.0 0.0 0.0 
0.0 0.0 0.0 
0.0 0.0 0.0 
0.0 0.0 0.0 
0.0 0.0 0.0 
0.0 0.0 0.0 
0.0 0.0 0.0 
0.0 0.0 0.0 
0.0 0.0 0.0 
0.0 0.0 0.0 
0.0 0.0 0.0 
0.0 0.0 0.0 
0.0 0.0 0.0 
0.0 0.0 0.0 
0.0 0.0 0.0 
0.0 0.0 0.0 
0.0 0.0 0.0 
0.0 0.0 0.0 
0.0 0.0 0.0 
0.0 0.0 0.0 
0.0 0.0 0.0 
0.0 0.0 0.0 
0.0 0.0 0.0 
0.0 0.0 0.0 
0.0 0.0 0.0 
0.0 0.0 0.0 
0.0 0.0 0.0 
0.0 0.0 0.0 
0.0 0.0 0.0 
0.0 0.0 0.0 
0.0 0.0 0.0 
0.0 0.0 0.0 
0.0 0.0 0.0 
0.0 0.0 0.0 
0.0 0.0 0.0 
0.0 0.0 0.0 
0.0 0.0 0.0 
0.0 0.0 0.0 
0.0 0.0 0.0 
0.0 0.0 0.0 
0.0 0.0 0.0 
0.0 0.0 0.0 
0.0 0.0 0.0 
0.0 0.0 0.0 
0.0 0.0 0.0 
0.0 0.0 0.0 
0.0 0.0 0.0 
0.0 0.0 0.0 
0.0 0.0 0.0 
0.0 0.0 0.0 
0.0 0.0 0.0 
0.0 0.0 0.0 
0.0 0.0 0.0 
0.0 0.0 0.0 
0.0 0.0 0.0 
0.0 0.0 0.0 
0.0 0.0 0.0 
0.0 0.0 0.0 
0.0 0.0 0.0 
0.0 0.0 0.0 
0.0 0.0 0.0 
0.0 0.0 0.0 
0.0 0.0 0.0 
0.0 0.0 0.0 
0.0 0.0 0.0 
0.0 0.0 0.0 
0.0 0.0 0.0 
0.0 0.0 0.0 
0.0 0.0 0.0 
0.0 0.0 0.0 
0.0 0.0 0.0 
0.0 0.0 0.0 
0.0 0.0 0.0 
0.0 0.0 0.0 
0.0 0.0 0.0 
0.0 0.0 0.0 
0.0 0.0 0.0 
0.0 0.0 0.0 
0.0 0.0 0.0 
0.0 0.0 0.0 
0.0 0.0 0.0 
0.0 0.0 0.0 
0.0 0.0 0.0 
0.0 0.0 0.0 
0.0 0.0 0.0 
0.0 0.0 0.0 
0.0 0.0 0.0 
0.0 0.0 0.0 
0.0 0.0 0.0 
0.0 0.0 0.0 
0.0 0.0 0.0 
0.0 0.0 0.0 
0.0 0.0 0.0 
0.0 0.0 0.0 
0.0 0.0 0.0 
0.0 0.0 0.0 
0.0 0.0 0.0 
0.0 0.0 0.0 
0.0 0.0 0.0 
0.0 0.0 0.0 
0.0 0.0 0.0 
0.0 0.0 0.0 
0.0 0.0 0.0 
0.0 0.0 0.0 
0.0 0.0 0.0 
0.0 0.0 0.0 
0.0 0.0 0.0 
0.0 0.0 0.0 
0.0 0.0 0.0 
0.0 0.0 0.0 
0.0 0.0 0.0 
0.0 0.0 0.0 
0.0 0.0 0.0 
0.0 0.0 0.0 
0.0 0.0 0.0 
0.0 0.0 0.0 
0.0 0.0 0.0 
0.0 0.0 0.0 
0.0 0.0 0.0 
0.0 0.0 0.0 
0.0 0.0 0.0 
0.0 0.0 0.0 
0.0 0.0 0.0 
0.0 0.0 0.0 
0.0 0.0 0.0 
0.0 0.0 0.0 
0.0 0.0 0.0 
0.0 0.0 0.0 
0.0 0.0 0.0 
0.0 0.0 0.0 
0.0 0.0 0.0 
0.0 0.0 0.0 
0.0 0.0 0.0 
0.0 0.0 0.0 
0.0 0.0 0.0 
0.0 0.0 0.0 
0.0 0.0 0.0 
0.0 0.0 0.0 
0.0 0.0 0.0 
0.0 0.0 0.0 
0.0 0.0 0.0 
0.0 0.0 0.0 
0.0 0.0 0.0 
0.0 0.0 0.0 
0.0 0.0 0.0 
0.0 0.0 0.0 
0.0 0.0 0.0 
0.0 0.0 0.0 
0.0 0.0 0.0 
0.0 0.0 0.0 
0.0 0.0 0.0 
0.0 0.0 0.0 
0.0 0.0 0.0 
0.0 0.0 0.0 
0.0 0.0 0.0 
0.0 0.0 0.0 
0.0 0.0 0.0 
0.0 0.0 0.0 
0.0 0.0 0.0 
0.0 0.0 0.0 
0.0 0.0 0.0 
0.0 0.0 0.0 
0.0 0.0 0.0 
0.0 0.0 0.0 
0.0 0.0 0.0 
0.0 0.0 0.0 
0.0 0.0 0.0 
0.0 0.0 0.0 
0.0 0.0 0.0 
0.0 0.0 0.0 
0.0 0.0 0.0 
0.0 0.0 0.0 
0.0 0.0 0.0 
0.0 0.0 0.0 
0.0 0.0 0.0 
0.0 0.0 0.0 
0.0 0.0 0.0 
0.0 0.0 0.0 
0.0 0.0 0.0 
0.0 0.0 0.0 
0.0 0.0 0.0 
0.0 0.0 0.0 
0.0 0.0 0.0 
0.0 0.0 0.0 
0.0 0.0 0.0 
0.0 0.0 0.0 
0.0 0.0 0.0 
0.0 0.0 0.0 
0.0 0.0 0.0 
0.0 0.0 0.0 
0.0 0.0 0.0 
0.0 0.0 0.0 
0.0 0.0 0.0 

TENSORS element_materi_stress float
-3.669005802801e+01 1.367563144158e+01 0.0 
1.367563144158e+01 -5.480922114594e+01 0.0 
0.0 0.0 -2.704978375219e+01 
-4.033128138390e+01 1.818177546333e+01 0.0 
1.818177546333e+01 -5.141864009791e+01 0.0 
0.0 0.0 -2.712497644454e+01 
-1.335514027113e+02 1.471679489947e+01 0.0 
1.471679489947e+01 -3.051917692017e+02 0.0 
0.0 0.0 -1.312229515739e+02 
-1.245940587444e+02 2.148335712242e+00 0.0 
2.148335712242e+00 -2.858039653701e+02 0.0 
0.0 0.0 -1.227194072343e+02 
-7.297925584876e+01 -3.394019557890e-02 0.0 
-3.394019557890e-02 -1.481070119229e+02 0.0 
0.0 0.0 -6.592588033149e+01 
-3.531468681198e+01 3.151162981362e+01 0.0 
3.151162981362e+01 -1.047324581608e+02 0.0 
0.0 0.0 -4.269690131274e+01 
-7.244645268843e+01 -4.829117524963e-01 0.0 
-4.829117524963e-01 -1.482356359971e+02 0.0 
0.0 0.0 -6.580462660565e+01 
-4.058022833508e+01 2.085954621194e+01 0.0 
2.085954621194e+01 -5.835983995100e+01 0.0 
0.0 0.0 -2.928202048582e+01 
-7.322919987319e+01 1.877779072055e+00 0.0 
1.877779072055e+00 -1.489294958737e+02 0.0 
0.0 0.0 -6.624760872408e+01 
-1.239665749354e+02 1.410981931243e+00 0.0 
1.410981931243e+00 -2.841962105814e+02 0.0 
0.0 0.0 -1.220488356551e+02 
-1.071606679797e+02 -1.212830938742e+00 0.0 
-1.212830938742e+00 -2.562497910788e+02 0.0 
0.0 0.0 -1.086231377175e+02 
-3.089501170050e+01 1.670458422531e+01 0.0 
1.670458422531e+01 -3.600566910063e+01 0.0 
0.0 0.0 -1.967020424034e+01 
-1.571027816928e+02 -6.947488555753e-01 0.0 
-6.947488555753e-01 -3.696912888314e+02 0.0 
0.0 0.0 -1.576382211573e+02 
-8.248431726217e+01 1.941255748832e+00 0.0 
1.941255748832e+00 -1.660684977095e+02 0.0 
0.0 0.0 -7.416584449149e+01 
-1.609261798371e+02 1.103075306452e+00 0.0 
1.103075306452e+00 -3.779864135969e+02 0.0 
0.0 0.0 -1.612737780302e+02 
-1.268462901937e+02 1.053106192219e+00 0.0 
1.053106192219e+00 -2.939209523522e+02 0.0 
0.0 0.0 -1.258301727638e+02 
-7.239402328638e+01 1.252956905912e+00 0.0 
1.252956905912e+00 -1.442914816065e+02 0.0 
0.0 0.0 -6.460565146786e+01 
-2.759345328829e+01 1.683242991085e+01 0.0 
1.683242991085e+01 -1.088323212682e+02 0.0 
0.0 0.0 -4.326708915321e+01 
-2.985405932898e+01 -6.770081273401e-02 0.0 
-6.770081273401e-02 -7.702727757821e+01 0.0 
0.0 0.0 -3.166440107216e+01 
-3.228493414286e+01 -1.142372464363e+00 0.0 
-1.142372464363e+00 -7.995433877871e+01 0.0 
0.0 0.0 -3.327178187647e+01 
-1.250633780281e+02 3.420553285437e+00 0.0 
3.420553285437e+00 -2.851444877461e+02 0.0 
0.0 0.0 -1.226623597323e+02 
-4.110063802785e+01 9.460127602858e+00 0.0 
9.460127602858e+00 -6.022514433838e+01 0.0 
0.0 0.0 -2.999773470987e+01 
-4.964537172938e+01 1.257258023702e+01 0.0 
1.257258023702e+01 -7.666841146793e+01 0.0 
0.0 0.0 -3.749413495919e+01 
-1.439924019905e+02 9.299589726149e+00 0.0 
9.299589726149e+00 -3.556782571880e+02 0.0 
0.0 0.0 -1.495011977535e+02 
-9.117639594244e+01 3.668602669804e+00 0.0 
3.668602669804e+00 -1.849995726829e+02 0.0 
0.0 0.0 -8.245279058760e+01 
-1.131146290845e+02 7.821791577619e-02 0.0 
7.821791577619e-02 -2.702493064827e+02 0.0 
0.0 0.0 -1.146091806702e+02 
-6.866548270295e+01 2.880625029246e+00 0.0 
2.880625029246e+00 -1.291697247148e+02 0.0 
0.0 0.0 -5.895056222531e+01 
-1.437572685150e+02 2.035145946124e+01 0.0 
2.035145946124e+01 -3.384968019814e+02 0.0 
0.0 0.0 -1.442762211489e+02 
-9.307666644951e+01 6.229429769640e+00 0.0 
6.229429769640e+00 -1.861259469025e+02 0.0 
0.0 0.0 -8.336078400561e+01 
-1.480849284612e+02 7.664993298325e+00 0.0 
7.664993298325e+00 -3.636689926349e+02 0.0 
0.0 0.0 -1.531261763288e+02 
-3.588376678106e+01 -2.193060813221e+01 0.0 
-2.193060813221e+01 -9.912714098730e+01 0.0 
0.0 0.0 -3.959018566488e+01 
-9.873144443535e+00 -1.448795592228e+00 0.0 
-1.448795592228e+00 -2.628718466755e+01 0.0 
0.0 0.0 -1.044809873333e+01 
-1.351141094218e+02 1.457083915129e+01 0.0 
1.457083915129e+01 -3.057254237260e+02 0.0 
0.0 0.0 -1.318518599443e+02 
-1.347496402751e+02 7.564503704107e-01 0.0 
7.564503704107e-01 -3.195078755547e+02 0.0 
0.0 0.0 -1.358772547489e+02 
-1.552235923965e+02 4.085668734151e+00 0.0 
4.085668734151e+00 -3.712296649634e+02 0.0 
0.0 0.0 -1.575359772080e+02 
-1.642679731912e+02 7.876918752840e-03 0.0 
7.876918752840e-03 -3.875688669636e+02 0.0 
0.0 0.0 -1.651510520464e+02 
-1.644844923510e+02 2.972237164309e+00 0.0 
2.972237164309e+00 -3.874002350165e+02 0.0 
0.0 0.0 -1.651654182103e+02 
-1.481372968904e+02 1.460311124072e+01 0.0 
1.460311124072e+01 -3.597230893980e+02 0.0 
0.0 0.0 -1.519581158865e+02 
-6.448690832381e+01 1.453992176396e+00 0.0 
1.453992176396e+00 -1.294470001264e+02 0.0 
0.0 0.0 -5.778017253506e+01 
-6.423612174433e+01 -1.277525221659e+00 0.0 
-1.277525221659e+00 -1.299821579940e+02 0.0 
0.0 0.0 -5.786548392151e+01 
-5.677018950415e+01 9.493078298451e+00 0.0 
9.493078298451e+00 -9.318745801563e+01 0.0 
0.0 0.0 -4.458729425593e+01 
-1.579865148790e+02 5.025948823454e+00 0.0 
5.025948823454e+00 -3.761876452995e+02 0.0 
0.0 0.0 -1.598522480535e+02 
-3.301454821939e+01 2.200918214938e+01 0.0 
2.200918214938e+01 -4.550526266727e+01 0.0 
0.0 0.0 -2.315594326600e+01 
-6.967922750029e+01 2.597355816994e+00 0.0 
2.597355816994e+00 -1.298058754841e+02 0.0 
0.0 0.0 -5.944553089530e+01 
-1.205867266935e+02 9.124373241596e-01 0.0 
9.124373241596e-01 -2.744242871476e+02 0.0 
0.0 0.0 -1.181033041523e+02 
-3.535838667047e+01 2.550778414958e+01 0.0 
2.550778414958e+01 -4.605011391656e+01 0.0 
0.0 0.0 -2.402255017611e+01 
-3.257829716908e+01 -2.554691977016e+01 0.0 
-2.554691977016e+01 -9.745177012465e+01 0.0 
0.0 0.0 -4.009093592271e+01 
-1.203839948147e+02 5.406215297050e-01 0.0 
5.406215297050e-01 -2.758674111260e+02 0.0 
0.0 0.0 -1.184754217822e+02 
-3.322227462312e+01 -2.401650710656e+01 0.0 
-2.401650710656e+01 -5.670821171902e+01 0.0 
0.0 0.0 -2.842908119563e+01 
-7.979276333463e+01 3.059508565811e+00 0.0 
3.059508565811e+00 -1.574931177079e+02 0.0 
0.0 0.0 -7.078576431276e+01 
-5.329761548098e+01 1.090716615838e+01 0.0 
1.090716615838e+01 -8.523906356588e+01 0.0 
0.0 0.0 -4.116100371406e+01 
-3.963724739224e+01 -3.503424110950e-01 0.0 
-3.503424110950e-01 -9.695363275884e+01 0.0 
0.0 0.0 -4.057726404533e+01 
-3.633767460261e+01 -1.733985404252e+01 0.0 
-1.733985404252e+01 -1.295684367149e+02 0.0 
0.0 0.0 -4.992043004081e+01 
-4.931034670275e+01 6.635856742777e+00 0.0 
6.635856742777e+00 -7.944240138660e+01 0.0 
0.0 0.0 -3.822582442681e+01 
-1.309407007193e+02 1.115874099974e+01 0.0 
1.115874099974e+01 -2.992452344562e+02 0.0 
0.0 0.0 -1.286557805526e+02 
-5.383320134201e+01 -8.723592324828e-01 0.0 
-8.723592324828e-01 -1.287527045774e+02 0.0 
0.0 0.0 -5.437577177583e+01 
-4.159139734935e+01 -1.358883815549e+00 0.0 
-1.358883815549e+00 -1.003086762517e+02 0.0 
0.0 0.0 -4.217002208031e+01 
-1.344891273231e+02 -8.625579124857e-01 0.0 
-8.625579124857e-01 -3.194599412342e+02 0.0 
0.0 0.0 -1.357847205672e+02 
-2.244121850168e+01 -1.407542066783e+00 0.0 
-1.407542066783e+00 -5.917716595399e+01 0.0 
0.0 0.0 -2.408551533670e+01 
-1.273476856277e+02 2.857684596485e+00 0.0 
2.857684596485e+00 -2.941725180540e+02 0.0 
0.0 0.0 -1.260560611045e+02 
-5.472446977874e+01 -2.263638723863e+01 0.0 
-2.263638723863e+01 -9.802549925636e+01 0.0 
0.0 0.0 -4.685489099372e+01 
-1.367748544883e+02 1.721487172255e+01 0.0 
1.721487172255e+01 -3.306844903277e+02 0.0 
0.0 0.0 -1.398378034448e+02 
-5.510924479399e+01 2.094157400022e+01 0.0 
2.094157400022e+01 -1.120368328966e+02 0.0 
0.0 0.0 -4.974382330718e+01 
-3.125244063720e+01 -1.709112753143e+01 0.0 
-1.709112753143e+01 -1.133253081957e+02 0.0 
0.0 0.0 -4.310744916369e+01 
-1.568943891243e+02 1.236411795943e+00 0.0 
1.236411795943e+00 -3.697380596495e+02 0.0 
0.0 0.0 -1.575897346321e+02 
-4.496028059006e+01 7.835844231238e+00 0.0 
7.835844231238e+00 -6.904810261907e+01 0.0 
0.0 0.0 -3.380251496274e+01 
-4.619092418374e+01 -8.947168026056e+00 0.0 
-8.947168026056e+00 -1.206997547883e+02 0.0 
0.0 0.0 -5.130209057427e+01 
-1.367712430650e+02 1.610630402865e+01 0.0 
1.610630402865e+01 -3.080171093132e+02 0.0 
0.0 0.0 -1.330365057135e+02 
-3.611754508824e+01 -1.010048044248e+01 0.0 
-1.010048044248e+01 -7.120388929136e+01 0.0 
0.0 0.0 -3.082484692229e+01 
-1.389033712520e+02 1.820889918665e+01 0.0 
1.820889918665e+01 -3.211987469471e+02 0.0 
0.0 0.0 -1.376306354597e+02 
-1.176244485367e+02 6.540855824302e-02 0.0 
6.540855824302e-02 -2.812724351985e+02 0.0 
0.0 0.0 -1.192690651206e+02 
-1.324517680252e+02 7.280743795972e+00 0.0 
7.280743795972e+00 -3.103874587256e+02 0.0 
0.0 0.0 -1.324517680252e+02 
-1.377629459706e+02 1.858307942683e+01 0.0 
1.858307942683e+01 -3.235383705852e+02 0.0 
0.0 0.0 -1.379903949667e+02 
-7.387113538787e+00 -1.142151754835e+00 0.0 
-1.142151754835e+00 -2.995064339497e+01 0.0 
0.0 0.0 -1.080132708013e+01 
-5.623790179243e+01 -2.100691131900e+00 0.0 
-2.100691131900e+00 -1.341638765192e+02 0.0 
0.0 0.0 -5.672053349349e+01 
-1.272636244095e+02 6.109499815568e+00 0.0 
6.109499815568e+00 -2.893094045292e+02 0.0 
0.0 0.0 -1.245719086816e+02 
-1.336939559410e+02 1.211732540445e+01 0.0 
1.211732540445e+01 -3.014522549376e+02 0.0 
0.0 0.0 -1.301438632636e+02 
-3.648051436781e+01 2.740763359115e+01 0.0 
2.740763359115e+01 -4.770715703337e+01 0.0 
0.0 0.0 -2.322350625767e+01 
-2.390908149641e+01 -1.334668812345e+00 0.0 
-1.334668812345e+00 -5.918352888338e+01 0.0 
0.0 0.0 -2.452778311394e+01 
-3.391307319286e+01 2.570258561482e+01 0.0 
2.570258561482e+01 -4.691958523322e+01 0.0 
0.0 0.0 -2.229108207292e+01 
-3.915473810172e+01 -1.403084371895e+01 0.0 
-1.403084371895e+01 -7.108051922712e+01 0.0 
0.0 0.0 -3.117131466096e+01 
-7.228232349213e+01 9.803053773802e-01 0.0 
9.803053773802e-01 -1.437896222027e+02 0.0 
0.0 0.0 -6.442158370844e+01 
-4.666061330970e+01 1.472325183608e+01 0.0 
1.472325183608e+01 -6.951663292647e+01 0.0 
0.0 0.0 -3.445317387085e+01 
-3.672232696525e+01 1.093699573830e+01 0.0 
1.093699573830e+01 -4.957478904287e+01 0.0 
0.0 0.0 -2.548913480244e+01 
-7.793308267185e+01 2.113108767970e+00 0.0 
2.113108767970e+00 -1.593299145599e+02 0.0 
0.0 0.0 -7.077889916952e+01 
-7.695440025039e+01 7.322849451650e-02 0.0 
7.322849451650e-02 -1.588808631297e+02 0.0 
0.0 0.0 -7.035057901402e+01 
-1.213710661280e+02 4.516559377245e-01 0.0 
4.516559377245e-01 -2.894756098522e+02 0.0 
0.0 0.0 -1.228540027941e+02 
-1.309166995799e+02 -8.625907253344e-01 0.0 
-8.625907253344e-01 -3.109714315085e+02 0.0 
0.0 0.0 -1.321664393265e+02 
-1.181953030767e+02 1.444829326456e+01 0.0 
1.444829326456e+01 -2.523471524722e+02 0.0 
0.0 0.0 -1.107627366647e+02 
-7.369831454544e+01 2.240056745458e+00 0.0 
2.240056745458e+00 -1.476812151418e+02 0.0 
0.0 0.0 -6.601385890619e+01 
-1.617621070004e+01 -2.094842092631e+00 0.0 
-2.094842092631e+00 -2.614979208981e+01 0.0 
0.0 0.0 -1.265146517996e+01 
-7.696752975236e+01 3.443365160090e+00 0.0 
3.443365160090e+00 -1.474209301104e+02 0.0 
0.0 0.0 -6.691653795884e+01 
-1.025340922137e+02 1.064627203716e+00 0.0 
1.064627203716e+00 -2.272758136644e+02 0.0 
0.0 0.0 -9.854297176343e+01 
-1.019017759525e+02 3.812359984563e-01 0.0 
3.812359984563e-01 -2.238297430866e+02 0.0 
0.0 0.0 -9.731945571173e+01 
-1.356557132988e+02 8.071826111215e+00 0.0 
8.071826111215e+00 -3.122668470592e+02 0.0 
0.0 0.0 -1.339767681074e+02 
-1.536679085266e+02 1.722274318078e+01 0.0 
1.722274318078e+01 -3.660252635078e+02 0.0 
0.0 0.0 -1.555079516103e+02 
-7.312522719895e+01 1.842823020353e+00 0.0 
1.842823020353e+00 -1.436279431912e+02 0.0 
0.0 0.0 -6.462595111704e+01 
-1.552707283125e+02 4.598294726416e+00 0.0 
4.598294726416e+00 -3.751503733041e+02 0.0 
0.0 0.0 -1.587263304850e+02 
-8.377959467838e+01 7.899459132885e-01 0.0 
7.899459132885e-01 -1.784483672123e+02 0.0 
0.0 0.0 -7.826838856721e+01 
-5.219174812467e+01 2.295852496974e+01 0.0 
2.295852496974e+01 -9.586588004012e+01 0.0 
0.0 0.0 -4.401728844944e+01 
-6.960498149198e+01 1.411014091730e+00 0.0 
1.411014091730e+00 -1.389878022992e+02 0.0 
0.0 0.0 -6.217783513735e+01 
-1.605349816382e+02 -3.818727084775e-01 0.0 
-3.818727084775e-01 -3.776863825987e+02 0.0 
0.0 0.0 -1.610664092711e+02 
-1.138805883714e+02 1.754359648996e+01 0.0 
1.754359648996e+01 -2.875358222604e+02 0.0 
0.0 0.0 -1.200249231895e+02 
-1.377642180501e+02 1.888962132842e+01 0.0 
1.888962132842e+01 -3.314849310622e+02 0.0 
0.0 0.0 -1.403747447337e+02 
-4.506985732901e+01 2.747693996893e+01 0.0 
2.747693996893e+01 -1.075753552028e+02 0.0 
0.0 0.0 -4.539356375953e+01 
-4.579957364950e+01 -2.852623074809e+01 0.0 
-2.852623074809e+01 -7.769232236647e+01 0.0 
0.0 0.0 -3.610143035721e+01 
-1.479865052502e+02 9.392680501372e-01 0.0 
9.392680501372e-01 -3.493408379306e+02 0.0 
0.0 0.0 -1.487982029542e+02 
-1.090860346777e+02 6.907464998372e-01 0.0 
6.907464998372e-01 -2.430083046039e+02 0.0 
0.0 0.0 -1.052283017845e+02 
-5.125127653694e+01 -3.358763342175e+01 0.0 
-3.358763342175e+01 -7.558889214584e+01 0.0 
0.0 0.0 -3.845047745906e+01 
-1.601005273813e+02 1.394364366679e+00 0.0 
1.394364366679e+00 -3.762802611213e+02 0.0 
0.0 0.0 -1.605142365508e+02 
-1.125432605389e+02 1.234651928512e+01 0.0 
1.234651928512e+01 -2.413852938795e+02 0.0 
0.0 0.0 -1.057785663255e+02 
-4.976650673482e+00 7.168345108872e-01 0.0 
7.168345108872e-01 -2.182842152206e+01 0.0 
0.0 0.0 -7.011236678223e+00 
-6.254159746301e+01 2.233319405561e+01 0.0 
2.233319405561e+01 -1.633859691309e+02 0.0 
0.0 0.0 -6.737826997816e+01 
-7.145888546113e+01 6.044679624896e+00 0.0 
6.044679624896e+00 -1.298800819485e+02 0.0 
0.0 0.0 -6.000169022288e+01 
-6.827013886784e+01 -1.994289909375e+00 0.0 
-1.994289909375e+00 -1.637094667288e+02 0.0 
0.0 0.0 -6.919388167899e+01 
-4.772790897331e+01 2.083575903633e+01 0.0 
2.083575903633e+01 -8.920912699714e+01 0.0 
0.0 0.0 -4.068111079114e+01 
-5.419227710215e+01 2.485670386653e+01 0.0 
2.485670386653e+01 -1.120642398481e+02 0.0 
0.0 0.0 -4.947695508507e+01 
-1.587623543075e+02 2.440850264654e+00 0.0 
2.440850264654e+00 -3.774554401764e+02 0.0 
0.0 0.0 -1.604653383452e+02 
-8.133493991612e+01 -4.991128547867e-01 0.0 
-4.991128547867e-01 -1.718442315911e+02 0.0 
0.0 0.0 -7.555375145216e+01 
-5.094558587326e+01 2.336381252991e+01 0.0 
2.336381252991e+01 -1.093062714964e+02 0.0 
0.0 0.0 -4.767555721090e+01 
-2.936588899834e+01 -5.061428385118e+00 0.0 
-5.061428385118e+00 -6.320817882382e+01 0.0 
0.0 0.0 -2.737222034665e+01 
-7.698197882340e+01 3.418476674901e+00 0.0 
3.418476674901e+00 -1.473340780148e+02 0.0 
0.0 0.0 -6.689481705146e+01 
-1.092915280887e+02 1.146973531629e+00 0.0 
1.146973531629e+00 -2.444989057113e+02 0.0 
0.0 0.0 -1.057371301400e+02 
-4.953076068900e+01 2.649080244298e+01 0.0 
2.649080244298e+01 -1.089152354394e+02 0.0 
0.0 0.0 -4.713379883851e+01 
-3.881039583702e+01 3.029757352411e+01 0.0 
3.029757352411e+01 -5.197581364057e+01 0.0 
0.0 0.0 -2.607983788271e+01 
-6.418410925165e+01 7.386278435569e+00 0.0 
7.386278435569e+00 -1.116145060837e+02 0.0 
0.0 0.0 -5.233958460061e+01 
-6.793877142412e+01 -2.477207573418e+00 0.0 
-2.477207573418e+00 -1.624156854216e+02 0.0 
0.0 0.0 -6.870633705373e+01 
-5.749573677757e+01 4.805663902087e+00 0.0 
4.805663902087e+00 -9.937428474348e+01 0.0 
0.0 0.0 -4.666100645632e+01 
-1.290073267587e+02 5.408219378673e+00 0.0 
5.408219378673e+00 -2.975202675030e+02 0.0 
0.0 0.0 -1.275582782785e+02 
-3.739140683736e+01 3.346095817568e+01 0.0 
3.346095817568e+01 -7.678697644635e+01 0.0 
0.0 0.0 -3.372192694145e+01 
-1.121824764931e+02 -1.470394466856e+00 0.0 
-1.470394466856e+00 -2.687891723408e+02 0.0 
0.0 0.0 -1.138914946502e+02 
-1.241547005677e+02 3.810336818645e-01 0.0 
3.810336818645e-01 -2.856908761216e+02 0.0 
0.0 0.0 -1.225536730068e+02 
-6.804450372289e+01 1.434483787231e+01 0.0 
1.434483787231e+01 -1.288252550825e+02 0.0 
0.0 0.0 -5.866092764163e+01 
-6.062001983415e+01 8.260972609895e+00 0.0 
8.260972609895e+00 -1.027266294682e+02 0.0 
0.0 0.0 -4.860399479071e+01 
-1.541209842517e+02 2.507911470332e+00 0.0 
2.507911470332e+00 -3.708025075037e+02 0.0 
0.0 0.0 -1.570770475266e+02 
-1.574826991151e+02 1.246893476407e+00 0.0 
1.246893476407e+00 -3.703826846810e+02 0.0 
0.0 0.0 -1.579596151388e+02 
-1.209473077100e+02 -1.230772452566e+00 0.0 
-1.230772452566e+00 -2.893591538703e+02 0.0 
0.0 0.0 -1.226919384741e+02 
-7.278167048124e+01 1.624678673485e+01 0.0 
1.624678673485e+01 -1.371526228921e+02 0.0 
0.0 0.0 -6.258028801199e+01 
-1.541047399197e+02 7.732468858823e+00 0.0 
7.732468858823e+00 -3.749724267252e+02 0.0 
0.0 0.0 -1.583231499935e+02 
-6.378177078141e+01 1.151803927944e+01 0.0 
1.151803927944e+01 -1.150076553999e+02 0.0 
0.0 0.0 -5.323682785438e+01 
-1.268308047051e+02 4.121456889209e+00 0.0 
4.121456889209e+00 -2.919016314550e+02 0.0 
0.0 0.0 -1.252197308480e+02 
-1.396912853158e+02 1.859819668542e+01 0.0 
1.859819668542e+01 -3.206925505800e+02 0.0 
0.0 0.0 -1.377151507688e+02 
-8.349733135670e+01 4.169899940568e+00 0.0 
4.169899940568e+00 -1.658585556293e+02 0.0 
0.0 0.0 -7.440676609579e+01 
-9.389745117949e+01 3.359962039278e-01 0.0 
3.359962039278e-01 -2.028611744719e+02 0.0 
0.0 0.0 -8.862758769542e+01 
-6.504459127561e+01 1.571169341868e+01 0.0 
1.571169341868e+01 -1.158002292462e+02 0.0 
0.0 0.0 -5.385344615654e+01 
-5.348803094404e+01 5.418980586613e+00 0.0 
5.418980586613e+00 -9.006542373153e+01 0.0 
0.0 0.0 -4.266603640267e+01 
-7.575252972347e+01 1.485887355705e+01 0.0 
1.485887355705e+01 -1.499591225883e+02 0.0 
0.0 0.0 -6.731349569354e+01 
-5.103834191605e+01 2.645478501379e+01 0.0 
2.645478501379e+01 -1.274968287407e+02 0.0 
0.0 0.0 -5.316055119703e+01 
-6.983334420730e+01 1.248287370616e+00 0.0 
1.248287370616e+00 -1.416599468399e+02 0.0 
0.0 0.0 -6.304798731415e+01 
-5.959562303846e+01 2.375249437807e+01 0.0 
2.375249437807e+01 -1.623814276502e+02 0.0 
0.0 0.0 -6.619311520660e+01 
-1.179419121344e+01 -5.974312007448e-01 0.0 
-5.974312007448e-01 -2.519997516289e+01 0.0 
0.0 0.0 -1.107369178635e+01 
-7.489240309913e+01 2.239241033751e-01 0.0 
2.239241033751e-01 -1.565207702313e+02 0.0 
0.0 0.0 -6.902395199912e+01 
-2.257929624810e+01 -5.217323809183e-01 0.0 
-5.217323809183e-01 -6.004106595569e+01 0.0 
0.0 0.0 -2.438610866114e+01 
-6.783584313482e+01 6.676546351703e+00 0.0 
6.676546351703e+00 -1.209383577777e+02 0.0 
0.0 0.0 -5.623226027376e+01 
-1.576386706826e+02 7.243145667033e+00 0.0 
7.243145667033e+00 -3.763614536049e+02 0.0 
0.0 0.0 -1.598000372862e+02 
-4.669913510712e+01 2.520901168942e+01 0.0 
2.520901168942e+01 -1.080322580087e+02 0.0 
0.0 0.0 -4.601941793475e+01 
-1.257628633288e+02 -1.078445049778e+00 0.0 
-1.078445049778e+00 -2.996194621635e+02 0.0 
0.0 0.0 -1.272146976477e+02 
-3.636332346632e+01 2.356213195789e+01 0.0 
2.356213195789e+01 -4.644296847932e+01 0.0 
0.0 0.0 -2.444188758369e+01 
-1.141444692266e+02 1.614472433761e+01 0.0 
1.614472433761e+01 -2.874676407718e+02 0.0 
0.0 0.0 -1.200836329995e+02 
-6.929099891178e+01 1.840724615063e-01 0.0 
1.840724615063e-01 -1.430547626649e+02 0.0 
0.0 0.0 -6.330372847302e+01 
-5.734873360641e+01 2.258695129625e+01 0.0 
2.258695129625e+01 -1.610678973922e+02 0.0 
0.0 0.0 -6.512498929959e+01 
-1.389264416338e+02 8.917285827069e-01 0.0 
8.917285827069e-01 -3.293236380119e+02 0.0 
0.0 0.0 -1.400750238937e+02 
-3.513235430791e+01 -8.565318730573e+00 0.0 
-8.565318730573e+00 -6.402714353022e+01 0.0 
0.0 0.0 -2.878401952134e+01 
-1.476934561368e+02 -7.758440414239e-01 0.0 
-7.758440414239e-01 -3.489566851497e+02 0.0 
0.0 0.0 -1.485950423860e+02 
-7.845626979211e+01 6.892423252243e+00 0.0 
6.892423252243e+00 -1.491516744126e+02 0.0 
0.0 0.0 -6.788238326141e+01 
-1.583907944792e+02 7.657771823594e-01 0.0 
7.657771823594e-01 -3.748494794808e+02 0.0 
0.0 0.0 -1.595720821880e+02 
-6.865113218372e+01 -1.388160670551e-02 0.0 
-1.388160670551e-02 -1.419729731902e+02 0.0 
0.0 0.0 -6.278723161216e+01 
-4.892530756642e+01 2.504005091656e+01 0.0 
2.504005091656e+01 -1.259271105242e+02 0.0 
0.0 0.0 -5.205572542719e+01 
-6.547843132429e+01 3.835936149019e+00 0.0 
3.835936149019e+00 -1.184064644217e+02 0.0 
0.0 0.0 -5.476546872378e+01 
-1.075662454660e+02 1.266045793892e-01 0.0 
1.266045793892e-01 -2.576726733171e+02 0.0 
0.0 0.0 -1.091716756349e+02 
-3.370010507855e+01 1.996722897781e+01 0.0 
1.996722897781e+01 -4.679190322469e+01 0.0 
0.0 0.0 -2.374760249097e+01 
-5.424251610651e+01 2.308534355206e+01 0.0 
2.308534355206e+01 -1.598450373885e+02 0.0 
0.0 0.0 -6.382626604851e+01 
-9.817639314817e+01 2.010964410378e+00 0.0 
2.010964410378e+00 -2.136986106983e+02 0.0 
0.0 0.0 -9.316250115395e+01 
-6.891365097835e+01 -3.988713408861e-01 0.0 
-3.988713408861e-01 -1.418174542539e+02 0.0 
0.0 0.0 -6.281933156968e+01 
-5.547423478729e+01 2.377123918452e+01 0.0 
2.377123918452e+01 -1.444927672559e+02 0.0 
0.0 0.0 -5.959010061295e+01 
-6.133699117473e+01 4.263841584144e+00 0.0 
4.263841584144e+00 -1.087021030770e+02 0.0 
0.0 0.0 -5.061172827552e+01 
-1.241417745141e+02 1.576670243616e+01 0.0 
1.576670243616e+01 -2.789207838451e+02 0.0 
0.0 0.0 -1.205187675078e+02 
-7.601036230807e+01 -2.094901231808e+00 0.0 
-2.094901231808e+00 -1.817673742979e+02 0.0 
0.0 0.0 -7.693332098180e+01 
-1.451681120600e+02 1.899161615070e+01 0.0 
1.899161615070e+01 -3.415813839928e+02 0.0 
0.0 0.0 -1.456248488158e+02 
-1.410433865649e+02 1.971038388092e+01 0.0 
1.971038388092e+01 -3.241836463736e+02 0.0 
0.0 0.0 -1.391681098815e+02 
-4.514601798475e+01 2.278664074741e+01 0.0 
2.278664074741e+01 -7.394356873147e+01 0.0 
0.0 0.0 -3.532687601487e+01 
-7.626437070662e+01 -2.234608584139e+00 0.0 
-2.234608584139e+00 -1.820800809597e+02 0.0 
0.0 0.0 -7.710333549989e+01 
-1.332287006315e+02 1.097139709634e+01 0.0 
1.097139709634e+01 -3.371223635013e+02 0.0 
0.0 0.0 -1.407053192399e+02 
-6.108018848080e+01 1.264693864637e+01 0.0 
1.264693864637e+01 -1.035799449867e+02 0.0 
0.0 0.0 -4.899804004026e+01 
-3.974355335826e+01 1.941930660384e+01 0.0 
1.941930660384e+01 -6.612625284937e+01 0.0 
0.0 0.0 -3.136094186229e+01 
-7.392365960309e+01 5.090099925286e+00 0.0 
5.090099925286e+00 -1.386461416563e+02 0.0 
0.0 0.0 -6.337094037781e+01 
-5.781582686928e+01 2.515489202881e+01 0.0 
2.515489202881e+01 -1.468405095822e+02 0.0 
0.0 0.0 -6.099690093543e+01 
-1.255691356615e+02 2.419105563681e+00 0.0 
2.419105563681e+00 -2.905619287519e+02 0.0 
0.0 0.0 -1.244393193240e+02 
-1.120959460653e+02 1.045787536101e+01 0.0 
1.045787536101e+01 -2.388126025719e+02 0.0 
0.0 0.0 -1.048725645912e+02 
-1.434215842838e+02 -9.308231252784e-01 0.0 
-9.308231252784e-01 -3.392865284225e+02 0.0 
0.0 0.0 -1.444124338119e+02 
-3.608577583300e+01 2.694186877086e+01 0.0 
2.694186877086e+01 -4.671950841561e+01 0.0 
0.0 0.0 -2.372759320887e+01 
-4.917596261693e+01 2.163521395114e+01 0.0 
2.163521395114e+01 -1.580830691479e+02 0.0 
0.0 0.0 -6.177770952944e+01 
-1.160273038034e+02 1.189549074013e+01 0.0 
1.189549074013e+01 -2.505057937202e+02 0.0 
0.0 0.0 -1.095599292571e+02 
-7.681923711375e+01 2.566129287669e+01 0.0 
2.566129287669e+01 -7.906802634764e+01 0.0 
0.0 0.0 -4.703413739092e+01 
-5.907507371415e+01 8.673682450843e+00 0.0 
8.673682450843e+00 -1.026124696160e+02 0.0 
0.0 0.0 -4.810626299906e+01 
-1.240392225508e+02 7.529477576756e+00 0.0 
7.529477576756e+00 -3.207780231968e+02 0.0 
0.0 0.0 -1.330451737243e+02 
-1.444035431213e+01 -7.482328704998e-01 0.0 
-7.482328704998e-01 -4.231908755693e+01 0.0 
0.0 0.0 -1.662783256072e+01 
-1.317343288190e+02 1.179029136259e+01 0.0 
1.179029136259e+01 -2.978176990318e+02 0.0 
0.0 0.0 -1.284656083552e+02 
-1.001018815962e+02 6.298816408402e+00 0.0 
6.298816408402e+00 -2.063947772432e+02 0.0 
0.0 0.0 -9.154899765182e+01 
-6.638622376906e+01 -8.989816698234e+00 0.0 
-8.989816698234e+00 -1.806194463335e+02 0.0 
0.0 0.0 -7.370170103078e+01 
-1.222382758619e+02 6.448680875772e+00 0.0 
6.448680875772e+00 -3.199028538883e+02 0.0 
0.0 0.0 -1.322423389251e+02 
-8.390158527191e+01 4.676584260265e+00 0.0 
4.676584260265e+00 -1.633318753049e+02 0.0 
0.0 0.0 -7.377003817304e+01 
-8.959158092274e+01 4.837492872831e+00 0.0 
4.837492872831e+00 -1.781155424711e+02 0.0 
0.0 0.0 -7.991213701815e+01 
-1.495225524271e+02 8.387509368216e+00 0.0 
8.387509368216e+00 -3.639932570707e+02 0.0 
0.0 0.0 -1.536547428493e+02 
-5.441512748802e+01 -9.579042068060e+00 0.0 
-9.579042068060e+00 -1.335703880072e+02 0.0 
0.0 0.0 -5.599565464857e+01 
-7.928256014861e+01 1.678263782135e+01 0.0 
1.678263782135e+01 -1.645810640604e+02 0.0 
0.0 0.0 -7.275908726269e+01 
-8.290772465782e+01 8.815765600310e+00 0.0 
8.815765600310e+00 -1.604304236275e+02 0.0 
0.0 0.0 -7.260144448559e+01 
-1.055915099657e+02 8.314209452588e+00 0.0 
8.314209452588e+00 -2.176876918068e+02 0.0 
0.0 0.0 -9.658376053176e+01 
-8.399560405417e+01 9.035941230992e+00 0.0 
9.035941230992e+00 -1.595565037695e+02 0.0 
0.0 0.0 -7.266563234711e+01 
-7.588506031484e+01 7.864060316500e+00 0.0 
7.864060316500e+00 -1.394642270936e+02 0.0 
0.0 0.0 -6.420478622254e+01 
-9.913342479788e+01 1.658535571799e+01 0.0 
1.658535571799e+01 -2.628791610679e+02 0.0 
0.0 0.0 -1.082037757597e+02 
-1.212268600660e+02 1.707516530888e+01 0.0 
1.707516530888e+01 -2.665804475099e+02 0.0 
0.0 0.0 -1.159421922728e+02 
-5.398596696156e+01 2.409234466861e+01 0.0 
2.409234466861e+01 -9.417477281953e+01 0.0 
0.0 0.0 -4.557202903949e+01 
-4.541368394168e+01 1.829882359165e+01 0.0 
1.829882359165e+01 -7.484355488695e+01 0.0 
0.0 0.0 -3.567717164859e+01 
-5.182230273896e+01 1.839514404438e+01 0.0 
1.839514404438e+01 -9.464421001137e+01 0.0 
0.0 0.0 -4.353995382510e+01 
-7.582034455072e+01 1.842247068512e+01 0.0 
1.842247068512e+01 -1.506816987290e+02 0.0 
0.0 0.0 -6.755061298391e+01 
-1.176720439554e+02 1.251714424365e+01 0.0 
1.251714424365e+01 -2.500414244120e+02 0.0 
0.0 0.0 -1.099140405102e+02 
-3.051032162552e+01 2.426131196512e+01 0.0 
2.426131196512e+01 -1.216812235477e+02 0.0 
0.0 0.0 -4.626613129418e+01 
-1.194728963125e+02 5.688175537698e+00 0.0 
5.688175537698e+00 -3.115505248914e+02 0.0 
0.0 0.0 -1.289070263612e+02 
-6.893640006698e+01 1.199783988190e+00 0.0 
1.199783988190e+00 -1.405936623279e+02 0.0 
0.0 0.0 -6.245901871846e+01 
-5.247557943357e+01 2.208540990918e+01 0.0 
2.208540990918e+01 -1.595745653027e+02 0.0 
0.0 0.0 -6.321504342088e+01 
-1.152094662332e+02 3.867567830034e+00 0.0 
3.867567830034e+00 -3.019359973889e+02 0.0 
0.0 0.0 -1.247436390866e+02 
-9.623557467663e+00 2.032187180690e-01 0.0 
2.032187180690e-01 -2.843585798133e+01 0.0 
0.0 0.0 -1.101782463470e+01 
-1.074919179368e+02 7.362451819589e+00 0.0 
7.362451819589e+00 -2.266467912580e+02 0.0 
0.0 0.0 -9.984161275844e+01 
-7.378962727819e+00 -1.038499760696e+00 0.0 
-1.038499760696e+00 -2.388356267178e+01 0.0 
0.0 0.0 -8.739999071926e+00 
-1.633073593733e+01 -9.610234962882e-01 0.0 
-9.610234962882e-01 -4.304404022392e+01 0.0 
0.0 0.0 -1.741243284838e+01 
-3.244570199492e+01 2.386576970130e+01 0.0 
2.386576970130e+01 -4.562604170144e+01 0.0 
0.0 0.0 -2.246160136956e+01 
-4.791021507297e+01 -9.468528249064e+00 0.0 
-9.468528249064e+00 -1.128633772584e+02 0.0 
0.0 0.0 -4.783207769942e+01 
-1.128030837024e+02 9.280069274526e+00 0.0 
9.280069274526e+00 -2.378362446376e+02 0.0 
0.0 0.0 -1.047917985020e+02 
-4.648136066934e+01 -8.619804541992e+00 0.0 
-8.619804541992e+00 -1.077714311931e+02 0.0 
0.0 0.0 -4.587583755873e+01 
-3.708355200859e+01 2.811894032460e+01 0.0 
2.811894032460e+01 -8.856082724290e+01 0.0 
0.0 0.0 -3.660648458316e+01 
-4.413181881883e+01 -2.115946484702e+01 0.0 
-2.115946484702e+01 -1.108507333609e+02 0.0 
0.0 0.0 -4.476779925315e+01 
-3.538196960755e+01 -7.646038767141e+00 0.0 
-7.646038767141e+00 -7.154746876896e+01 0.0 
0.0 0.0 -3.159524526178e+01 
-1.270734420650e+02 8.239865837337e+00 0.0 
8.239865837337e+00 -3.282346938895e+02 0.0 
0.0 0.0 -1.361924407864e+02 
-8.032554864738e+01 9.905800364096e+00 0.0 
9.905800364096e+00 -1.501194136594e+02 0.0 
0.0 0.0 -6.873348869202e+01 
-1.566150701990e+02 -4.576699534375e-01 0.0 
-4.576699534375e-01 -3.697519515400e+02 0.0 
0.0 0.0 -1.575101065217e+02 
-5.901716388265e+01 1.049752064736e+01 0.0 
1.049752064736e+01 -1.096471698951e+02 0.0 
0.0 0.0 -5.114099965819e+01 
-3.976133085095e+01 2.695569111668e+01 0.0 
2.695569111668e+01 -1.074246461806e+02 0.0 
0.0 0.0 -4.375579310945e+01 
-5.962478864839e+01 2.046802323230e+01 0.0 
2.046802323230e+01 -1.766568075902e+02 0.0 
0.0 0.0 -7.048447887159e+01 
-5.481114361576e+01 1.002871916722e+01 0.0 
1.002871916722e+01 -9.309316080202e+01 0.0 
0.0 0.0 -4.397129132533e+01 
-1.174503686308e+02 4.696107401395e+00 0.0 
4.696107401395e+00 -3.105883961138e+02 0.0 
0.0 0.0 -1.280116294234e+02 
-1.591441057954e+02 2.779439401180e-01 0.0 
2.779439401180e-01 -3.768040643944e+02 0.0 
0.0 0.0 -1.603844510569e+02 
-1.104566338682e+02 1.151738507655e+01 0.0 
1.151738507655e+01 -2.293358089846e+02 0.0 
0.0 0.0 -1.015377328558e+02 
-3.800401181988e+01 2.075380685261e+01 0.0 
2.075380685261e+01 -1.407449131729e+02 0.0 
0.0 0.0 -5.322467749783e+01 
-1.284622663216e+02 9.162624835107e+00 0.0 
9.162624835107e+00 -3.288389607247e+02 0.0 
0.0 0.0 -1.367903681139e+02 
-1.165620093068e+02 -1.451098252249e+00 0.0 
-1.451098252249e+00 -2.785537991188e+02 0.0 
0.0 0.0 -1.181347425277e+02 
-8.025785957569e+01 1.665315792336e+01 0.0 
1.665315792336e+01 -1.579867600155e+02 0.0 
0.0 0.0 -7.107338587735e+01 
-1.041121227429e+02 7.571831791671e+00 0.0 
7.571831791671e+00 -2.166084801785e+02 0.0 
0.0 0.0 -9.581618087641e+01 
-1.414294277369e+02 1.923748762475e+01 0.0 
1.923748762475e+01 -3.353669648383e+02 0.0 
0.0 0.0 -1.426389177726e+02 
-5.674817185436e+01 2.040298278062e+01 0.0 
2.040298278062e+01 -1.754229944822e+02 0.0 
0.0 0.0 -6.925134990096e+01 
-3.664664338399e+01 2.859566550986e+01 0.0 
2.859566550986e+01 -8.704012665842e+01 0.0 
0.0 0.0 -3.670603101272e+01 
-9.181418096156e+01 1.010330879231e+01 0.0 
1.010330879231e+01 -1.794728565759e+02 0.0 
0.0 0.0 -8.098611126125e+01 
-1.348906940870e+02 6.703801802946e+00 0.0 
6.703801802946e+00 -3.118033783023e+02 0.0 
0.0 0.0 -1.336082217168e+02 
-7.851589074855e+01 1.999464013873e+01 0.0 
1.999464013873e+01 -1.648342210438e+02 0.0 
0.0 0.0 -7.260503353770e+01 
-7.627899300786e+01 1.593771244747e+01 0.0 
1.593771244747e+01 -2.228394579304e+02 0.0 
0.0 0.0 -8.933553528148e+01 
-7.672878732202e+01 6.210963189188e-01 0.0 
6.210963189188e-01 -1.603455286435e+02 0.0 
0.0 0.0 -7.072229478967e+01 
-3.828620365519e+01 -1.418682442883e+01 0.0 
-1.418682442883e+01 -6.887600504408e+01 0.0 
0.0 0.0 -2.962070123594e+01 
-8.175359307245e+01 6.226531115674e+00 0.0 
6.226531115674e+00 -1.579719165540e+02 0.0 
0.0 0.0 -7.151765288793e+01 
-4.180246450529e+01 2.244122064822e+01 0.0 
2.244122064822e+01 -1.427196475671e+02 0.0 
0.0 0.0 -5.495663362173e+01 
-3.140842166639e+01 2.049839001445e+01 0.0 
2.049839001445e+01 -1.321423881691e+02 0.0 
0.0 0.0 -4.988339374044e+01 
-3.509559517711e+01 -2.253593771635e+01 0.0 
-2.253593771635e+01 -1.229373342039e+02 0.0 
0.0 0.0 -4.805197404832e+01 
-1.106614882095e+02 7.167606054203e+00 0.0 
7.167606054203e+00 -2.365363177355e+02 0.0 
0.0 0.0 -1.037593417835e+02 
-8.825052541355e+01 1.086190095997e+01 0.0 
1.086190095997e+01 -1.705471435995e+02 0.0 
0.0 0.0 -7.723930070391e+01 
-5.391913248287e+01 2.412026845650e+01 0.0 
2.412026845650e+01 -1.281785036004e+02 0.0 
0.0 0.0 -5.422929082497e+01 
-1.158327166979e+02 8.991096272873e+00 0.0 
8.991096272873e+00 -2.477078254551e+02 0.0 
0.0 0.0 -1.086621626459e+02 
-1.143479005415e+02 1.296229248511e+01 0.0 
1.296229248511e+01 -2.404900023809e+02 0.0 
0.0 0.0 -1.060513708767e+02 
-8.442306731528e+01 1.510689418970e+01 0.0 
1.510689418970e+01 -1.656522903828e+02 0.0 
0.0 0.0 -7.462260730943e+01 
-1.601927805785e+02 1.610870813937e+00 0.0 
1.610870813937e+00 -3.776067098343e+02 0.0 
0.0 0.0 -1.609398471238e+02 
-8.125618040649e+01 1.371672677173e+01 0.0 
1.371672677173e+01 -2.355306628779e+02 0.0 
0.0 0.0 -9.463605298531e+01 
-8.839529505107e+01 1.379541925307e+01 0.0 
1.379541925307e+01 -1.736135976864e+02 0.0 
0.0 0.0 -7.820266782125e+01 
-6.513537176149e+01 2.367817502125e+01 0.0 
2.367817502125e+01 -1.660756761900e+02 0.0 
0.0 0.0 -6.896331438545e+01 
-8.509835440822e+01 1.553741696333e+01 0.0 
1.553741696333e+01 -2.400683741881e+02 0.0 
0.0 0.0 -9.715001857890e+01 
-3.349054460595e+01 1.673924398788e+01 0.0 
1.673924398788e+01 -1.425282240499e+02 0.0 
0.0 0.0 -5.240563059676e+01 
-7.500906932546e+01 2.526223462854e+00 0.0 
2.526223462854e+00 -1.452297427608e+02 0.0 
0.0 0.0 -6.567164362586e+01 
-5.955241002122e+01 1.729658636186e+01 0.0 
1.729658636186e+01 -1.892798309891e+02 0.0 
0.0 0.0 -7.424967230309e+01 
-4.377400538704e+01 -4.050556177965e+00 0.0 
-4.050556177965e+00 -1.658642584090e+02 0.0 
0.0 0.0 -6.249147913880e+01 
-1.082064707615e+02 9.045469189429e+00 0.0 
9.045469189429e+00 -2.277163647665e+02 0.0 
0.0 0.0 -1.003768506584e+02 
-1.078390220122e+02 4.127331538223e+00 0.0 
4.127331538223e+00 -1.016201476600e+02 0.0 
0.0 0.0 -6.311149207399e+01 
-8.755734841453e+01 8.486231938253e+00 0.0 
8.486231938253e+00 -1.687868412342e+02 0.0 
0.0 0.0 -7.650325689462e+01 
-4.304752392534e+01 1.840475519285e+01 0.0 
1.840475519285e+01 -1.570762690874e+02 0.0 
0.0 0.0 -5.963713790381e+01 
-3.658842706689e+01 2.746740773784e+01 0.0 
2.746740773784e+01 -1.061791361750e+02 0.0 
0.0 0.0 -4.243026897257e+01 
-3.108624031327e+01 1.241747618556e+01 0.0 
1.241747618556e+01 -1.400299926755e+02 0.0 
0.0 0.0 -5.060512783743e+01 
-9.412185678082e+01 9.039198056940e+00 0.0 
9.039198056940e+00 -1.893403158382e+02 0.0 
0.0 0.0 -8.463865178572e+01 
-1.970052850981e+01 -3.224115805120e+00 0.0 
-3.224115805120e+00 -4.255892993193e+01 0.0 
0.0 0.0 -1.827783753252e+01 
-5.587693879419e+01 1.572786769986e+01 0.0 
1.572786769986e+01 -1.001148281703e+02 0.0 
0.0 0.0 -4.639753008934e+01 
-9.001943485468e+01 1.335926217842e+01 0.0 
1.335926217842e+01 -2.525226387341e+02 0.0 
0.0 0.0 -1.023626220766e+02 
-8.628256938318e+01 7.984001682587e+00 0.0 
7.984001682587e+00 -1.690016336396e+02 0.0 
0.0 0.0 -7.618526090683e+01 
-8.279778567562e+01 3.903756751026e+00 0.0 
3.903756751026e+00 -1.632197117782e+02 0.0 
0.0 0.0 -7.340524923615e+01 
-2.942273490328e+01 2.058351570276e+01 0.0 
2.058351570276e+01 -1.251650579431e+02 0.0 
0.0 0.0 -4.772397340518e+01 
-3.992425899300e+01 -7.354949701817e-01 0.0 
-7.354949701817e-01 -1.649646611836e+02 0.0 
0.0 0.0 -6.106667605299e+01 
-4.344094001864e+01 -9.501990057569e+00 0.0 
-9.501990057569e+00 -1.563201635535e+02 0.0 
0.0 0.0 -5.952833107165e+01 
-4.907987846492e+01 2.015790864434e+01 0.0 
2.015790864434e+01 -7.911960277789e+01 0.0 
0.0 0.0 -3.805984437284e+01 
-1.063634263969e+02 1.008870295582e+01 0.0 
1.008870295582e+01 -2.182334820602e+02 0.0 
0.0 0.0 -9.697907253714e+01 
-5.657689513339e+01 2.059279568236e+01 0.0 
2.059279568236e+01 -1.014542662954e+02 0.0 
0.0 0.0 -4.700934842864e+01 
-5.682747440302e+01 1.583567860874e+01 0.0 
1.583567860874e+01 -1.870535744418e+02 0.0 
0.0 0.0 -7.276431465344e+01 
-5.449458380331e+01 1.915962568263e+01 0.0 
1.915962568263e+01 -1.741908197058e+02 0.0 
0.0 0.0 -6.820562105273e+01 
-2.553099332360e+01 1.529423620437e+01 0.0 
1.529423620437e+01 -1.131454918168e+02 0.0 
0.0 0.0 -4.268199741163e+01 
-7.027506104139e+01 2.112010561865e+01 0.0 
2.112010561865e+01 -1.824143396507e+02 0.0 
0.0 0.0 -7.540682020763e+01 
-3.559836026860e+01 2.870524193548e+01 0.0 
2.870524193548e+01 -6.922014437754e+01 0.0 
0.0 0.0 -2.977496599399e+01 
-1.390521820016e+02 1.263691885487e+01 0.0 
1.263691885487e+01 -3.185034111094e+02 0.0 
0.0 0.0 -1.368666779333e+02 
-1.400916925360e+02 1.509426996780e+01 0.0 
1.509426996780e+01 -3.217202532365e+02 0.0 
0.0 0.0 -1.381435837318e+02 
-8.247697460300e+01 1.813186957151e+01 0.0 
1.813186957151e+01 -1.795712948695e+02 0.0 
0.0 0.0 -7.821448084176e+01 
-3.759800657798e+01 2.020228020843e+01 0.0 
2.020228020843e+01 -1.427723779230e+02 0.0 
0.0 0.0 -5.371111535031e+01 
-3.323304337046e+01 2.642221639915e+01 0.0 
2.642221639915e+01 -1.072906515782e+02 0.0 
0.0 0.0 -4.175710848461e+01 
-9.109449804304e+01 1.253181310203e+01 0.0 
1.253181310203e+01 -1.851163738839e+02 0.0 
0.0 0.0 -8.246326157807e+01 
-3.297835261640e+01 2.253410991201e+01 0.0 
2.253410991201e+01 -1.249733323492e+02 0.0 
0.0 0.0 -4.698550548969e+01 
-3.761397598483e+01 -6.463949204193e+00 0.0 
-6.463949204193e+00 -1.545270929778e+02 0.0 
0.0 0.0 -5.724232068878e+01 
-7.964400278511e+01 1.324746252236e+01 0.0 
1.324746252236e+01 -1.568595974463e+02 0.0 
0.0 0.0 -7.055108006943e+01 
-1.282877793127e+02 4.669888890256e+00 0.0 
4.669888890256e+00 -2.931308240042e+02 0.0 
0.0 0.0 -1.260255809951e+02 
-4.766311794382e+01 2.067885972237e+01 0.0 
2.067885972237e+01 -1.582972026967e+02 0.0 
0.0 0.0 -6.138809619215e+01 
-1.001737814997e+02 1.579608476667e+01 0.0 
1.579608476667e+01 -2.631862172764e+02 0.0 
0.0 0.0 -1.086079996328e+02 
-3.684983190490e+01 2.915432524606e+01 0.0 
2.915432524606e+01 -9.072505822415e+01 0.0 
0.0 0.0 -3.643551650770e+01 
-1.619350163504e+02 1.097025025474e+01 0.0 
1.097025025474e+01 -3.873407272532e+02 0.0 
0.0 0.0 -1.643827230811e+02 
-3.713714140874e+01 2.440083254012e+01 0.0 
2.440083254012e+01 -1.271653748055e+02 0.0 
0.0 0.0 -4.889075486428e+01 
-8.338102424793e+01 1.517424966836e+01 0.0 
1.517424966836e+01 -1.708312748452e+02 0.0 
0.0 0.0 -7.586368972793e+01 
-2.890632624600e+01 1.581819384257e+01 0.0 
1.581819384257e+01 -1.345701454837e+02 0.0 
0.0 0.0 -5.012811753001e+01 
-9.771996936963e+01 6.020556288080e+00 0.0 
6.020556288080e+00 -2.751228075750e+02 0.0 
0.0 0.0 -1.114528330834e+02 
-6.199348653866e+01 1.781511051409e+01 0.0 
1.781511051409e+01 -1.904316805445e+02 0.0 
0.0 0.0 -7.532755012495e+01 
-4.247884389541e+01 -9.125552430336e+00 0.0 
-9.125552430336e+00 -1.573455342971e+02 0.0 
0.0 0.0 -5.954731345775e+01 
-8.455954164409e+01 1.188962176827e+01 0.0 
1.188962176827e+01 -1.616969188803e+02 0.0 
0.0 0.0 -7.347693815731e+01 
-1.441170539306e+02 1.862230096364e+01 0.0 
1.862230096364e+01 -3.323532808711e+02 0.0 
0.0 0.0 -1.425411004405e+02 
-4.956783196800e+01 1.697505654825e+01 0.0 
1.697505654825e+01 -1.718066506544e+02 0.0 
0.0 0.0 -6.601234478671e+01 
-8.927447383005e+01 1.355754765843e+01 0.0 
1.355754765843e+01 -2.522463479486e+02 0.0 
0.0 0.0 -1.020562465336e+02 
-3.303918962815e+01 2.735076635568e+01 0.0 
2.735076635568e+01 -8.942295857610e+01 0.0 
0.0 0.0 -3.572083191863e+01 
-9.409394293959e+01 2.725767918570e+00 0.0 
2.725767918570e+00 -1.966026248273e+02 0.0 
0.0 0.0 -8.680897033007e+01 
-1.129472329785e+02 2.942429939882e+00 0.0 
2.942429939882e+00 -3.008066381656e+02 0.0 
0.0 0.0 -1.237261613432e+02 
-3.989799214915e+01 2.793953472462e+01 0.0 
2.793953472462e+01 -8.742138724334e+01 0.0 
0.0 0.0 -3.779581381775e+01 
-9.154203400688e+01 3.837698626120e+00 0.0 
3.837698626120e+00 -1.882880477561e+02 0.0 
0.0 0.0 -8.354902452890e+01 
-1.478538902014e+02 2.098018500798e+01 0.0 
2.098018500798e+01 -3.437628259452e+02 0.0 
0.0 0.0 -1.470850148440e+02 
-1.230563167522e+02 4.075333221592e+00 0.0 
4.075333221592e+00 -3.193556591592e+02 0.0 
0.0 0.0 -1.323235927734e+02 
-1.430632283771e+02 1.749511457006e+01 0.0 
1.749511457006e+01 -3.287474808707e+02 0.0 
0.0 0.0 -1.411432127744e+02 
-9.245125717844e+01 4.872651932687e+00 0.0 
4.872651932687e+00 -1.872811368624e+02 0.0 
0.0 0.0 -8.351971821227e+01 
-1.142646283073e+02 1.480098715025e+01 0.0 
1.480098715025e+01 -2.428200576486e+02 0.0 
0.0 0.0 -1.067254057868e+02 
-3.658013463863e+01 2.791312389171e+01 0.0 
2.791312389171e+01 -6.704394420854e+01 0.0 
0.0 0.0 -3.068722365415e+01 
-7.676890235595e+01 1.092291893585e+01 0.0 
1.092291893585e+01 -1.415007029101e+02 0.0 
0.0 0.0 -6.508088157980e+01 
-8.711762813057e+01 1.071207414276e+01 0.0 
1.071207414276e+01 -1.724416664770e+02 0.0 
0.0 0.0 -7.746778838226e+01 
-9.220322440653e+01 1.268148107360e+01 0.0 
1.268148107360e+01 -1.819902676220e+02 0.0 
0.0 0.0 -8.185804760857e+01 
-7.362850754346e+01 2.161466391872e+01 0.0 
2.161466391872e+01 -1.591617851572e+02 0.0 
0.0 0.0 -6.943708781018e+01 
-1.505941600057e+02 2.164233283800e+01 0.0 
2.164233283800e+01 -3.525809001071e+02 0.0 
0.0 0.0 -1.505525180339e+02 
-8.896154420571e+01 4.364985056300e+00 0.0 
4.364985056300e+00 -1.776543886086e+02 0.0 
0.0 0.0 -7.958477984430e+01 
-7.959616196925e+01 7.278944869540e+00 0.0 
7.278944869540e+00 -1.492728516324e+02 0.0 
0.0 0.0 -6.826070408048e+01 
-5.170190067415e+01 1.821443089323e+01 0.0 
1.821443089323e+01 -1.728020139962e+02 0.0 
0.0 0.0 -6.695117440109e+01 
-4.192996372528e+01 -8.986717941220e+00 0.0 
-8.986717941220e+00 -9.241305072729e+01 0.0 
0.0 0.0 -3.990290433577e+01 
-7.232267856209e+01 8.779928943551e+00 0.0 
8.779928943551e+00 -1.303610609120e+02 0.0 
0.0 0.0 -6.040512184222e+01 
-4.288601840226e+01 2.613409375542e+01 0.0 
2.613409375542e+01 -1.069328249798e+02 0.0 
0.0 0.0 -4.454565301461e+01 
-6.933379573726e+01 3.396301757693e-01 0.0 
3.396301757693e-01 -1.427546320125e+02 0.0 
0.0 0.0 -6.322652832494e+01 
-4.873792199670e+01 -1.083729610623e+01 0.0 
-1.083729610623e+01 -1.596359591253e+02 0.0 
0.0 0.0 -6.211216433661e+01 
-4.443608575071e+01 1.934113862147e+01 0.0 
1.934113862147e+01 -1.566543427749e+02 0.0 
0.0 0.0 -5.992712855767e+01 
-1.114819473023e+02 8.685667439087e+00 0.0 
8.685667439087e+00 -2.373880244104e+02 0.0 
0.0 0.0 -1.042609915138e+02 
-4.063447028524e+01 2.770984411099e+01 0.0 
2.770984411099e+01 -1.062693510835e+02 0.0 
0.0 0.0 -4.367114641062e+01 
-7.921774130489e+01 9.792076781494e+00 0.0 
9.792076781494e+00 -1.518763707613e+02 0.0 
0.0 0.0 -6.892823361987e+01 
-9.387550788852e+01 1.146656081095e+01 0.0 
1.146656081095e+01 -2.634878653764e+02 0.0 
0.0 0.0 -1.068090119795e+02 
-8.723541022168e+01 -3.314198877200e+00 0.0 
-3.314198877200e+00 -2.429805499911e+02 0.0 
0.0 0.0 -9.866478806384e+01 
-1.548991682991e+02 2.046543551897e+01 0.0 
2.046543551897e+01 -3.663220824772e+02 0.0 
0.0 0.0 -1.559663752329e+02 
-6.498381310045e+01 1.106292007742e+01 0.0 
1.106292007742e+01 -1.128930354999e+02 0.0 
0.0 0.0 -5.296305458011e+01 
-3.639993480806e+01 4.276741604680e+00 0.0 
4.276741604680e+00 -1.597742746133e+02 0.0 
0.0 0.0 -5.845226282640e+01 
-6.604962930311e+01 -8.756750727120e+00 0.0 
-8.756750727120e+00 -1.768214618385e+02 0.0 
0.0 0.0 -7.246132734248e+01 
-4.053453012637e+01 2.519103894223e+01 0.0 
2.519103894223e+01 -6.764833700340e+01 0.0 
0.0 0.0 -3.205486013893e+01 
-4.047468213525e+01 2.538761380887e+01 0.0 
2.538761380887e+01 -8.726548704289e+01 0.0 
0.0 0.0 -3.792205075344e+01 
-1.213555739181e+02 1.385017627377e+01 0.0 
1.385017627377e+01 -2.613298900075e+02 0.0 
0.0 0.0 -1.144056391777e+02 
-8.765966401629e+01 1.688297999300e+01 0.0 
1.688297999300e+01 -1.784900085387e+02 0.0 
0.0 0.0 -7.944490176648e+01 
-5.718987209906e+01 1.471948618697e+01 0.0 
1.471948618697e+01 -9.466623105245e+01 0.0 
0.0 0.0 -4.515683094545e+01 
-7.111334551418e+01 8.665043075929e+00 0.0 
8.665043075929e+00 -1.313592887557e+02 0.0 
0.0 0.0 -6.034179028095e+01 
-1.587254873497e+02 1.567567944488e+01 0.0 
1.567567944488e+01 -3.799713263255e+02 0.0 
0.0 0.0 -1.612090441026e+02 
-1.479845921794e+02 1.583093913305e+01 0.0 
1.583093913305e+01 -3.602999028234e+02 0.0 
0.0 0.0 -1.520853485008e+02 
-1.192759041235e+02 1.145014941141e+01 0.0 
1.145014941141e+01 -2.597089600873e+02 0.0 
0.0 0.0 -1.132954592632e+02 
-1.097782677459e+02 9.658312027135e+00 0.0 
9.658312027135e+00 -2.281850404138e+02 0.0 
0.0 0.0 -1.009889924479e+02 
-8.556842570973e+01 -2.544253810461e+00 0.0 
-2.544253810461e+00 -2.375729721279e+02 0.0 
0.0 0.0 -9.654241935128e+01 
-5.913964559043e+01 2.280813486633e+01 0.0 
2.280813486633e+01 -1.173058156217e+02 0.0 
0.0 0.0 -5.253363836365e+01 
-3.391116768427e+01 1.731928976130e+01 0.0 
1.731928976130e+01 -1.405574336511e+02 0.0 
0.0 0.0 -5.194058040060e+01 
-4.008614091066e+01 1.605395851602e+01 0.0 
1.605395851602e+01 -1.553061385733e+02 0.0 
0.0 0.0 -5.821768384519e+01 
-8.322310480752e+01 1.837957797866e+01 0.0 
1.837957797866e+01 -1.714410733044e+02 0.0 
0.0 0.0 -7.599925343357e+01 
-9.408815556431e+01 7.680267602627e+00 0.0 
7.680267602627e+00 -2.665850626886e+02 0.0 
0.0 0.0 -1.078019654759e+02 
-8.147302126117e+01 -4.364559607943e+00 0.0 
-4.364559607943e+00 -2.028855679418e+02 0.0 
0.0 0.0 -8.490757676088e+01 
-1.184716978438e+02 9.785041072019e+00 0.0 
9.785041072019e+00 -2.580328128751e+02 0.0 
0.0 0.0 -1.125513532157e+02 
-3.825098161542e+01 3.701552474427e-02 0.0 
3.701552474427e-02 -1.596140013867e+02 0.0 
0.0 0.0 -5.895949490063e+01 
-6.853900165603e+01 2.303864415800e+01 0.0 
2.303864415800e+01 -1.543155552397e+02 0.0 
0.0 0.0 -6.645636706871e+01 
-8.337821525078e+01 1.184580706497e+01 0.0 
1.184580706497e+01 -1.643134455869e+02 0.0 
0.0 0.0 -7.390749825130e+01 
-6.134585899478e+01 2.397478416538e+01 0.0 
2.397478416538e+01 -1.338057808339e+02 0.0 
0.0 0.0 -5.814549194860e+01 
-1.422825240168e+02 1.638440334237e+01 0.0 
1.638440334237e+01 -3.255045793838e+02 0.0 
0.0 0.0 -1.399361310202e+02 
-1.389559307512e+02 1.356229390526e+01 0.0 
1.356229390526e+01 -3.195533310573e+02 0.0 
0.0 0.0 -1.371527785426e+02 
-1.336527745667e+02 1.418334312070e+01 0.0 
1.418334312070e+01 -2.991384077908e+02 0.0 
0.0 0.0 -1.294373547073e+02 
-9.370062877360e+01 -8.456748593624e-01 0.0 
-8.456748593624e-01 -2.554768645071e+02 0.0 
0.0 0.0 -1.043532479842e+02 
-1.137508354329e+02 6.956147320883e+00 0.0 
6.956147320883e+00 -2.464502231407e+02 0.0 
0.0 0.0 -1.076603175721e+02 
-3.827807685738e+01 2.681415960886e+01 0.0 
2.681415960886e+01 -8.743895434097e+01 0.0 
0.0 0.0 -3.731510935951e+01 
-4.717806790637e+01 1.517047509424e+01 0.0 
1.517047509424e+01 -1.703972364021e+02 0.0 
0.0 0.0 -6.487259129254e+01 
-2.760453679768e+01 1.295360391738e+01 0.0 
1.295360391738e+01 -1.267890655987e+02 0.0 
0.0 0.0 -4.625554851933e+01 
-6.101285858475e+01 1.791851975667e+01 0.0 
1.791851975667e+01 -1.083423027726e+02 0.0 
0.0 0.0 -5.040654840719e+01 
-7.480453498389e+01 2.250510029872e+00 0.0 
2.250510029872e+00 -1.449513764864e+02 0.0 
0.0 0.0 -6.552677344110e+01 
-9.046645966987e+01 2.694468535105e+00 0.0 
2.694468535105e+00 -1.861401268168e+02 0.0 
0.0 0.0 -8.258197594600e+01 
-1.517335656735e+02 1.094382165327e+01 0.0 
1.094382165327e+01 -3.709431271102e+02 0.0 
0.0 0.0 -1.564030078351e+02 
-1.194724089347e+02 1.309755167212e+01 0.0 
1.309755167212e+01 -2.619509634476e+02 0.0 
0.0 0.0 -1.140270117147e+02 
-8.988453525194e+01 7.393042180040e+00 0.0 
7.393042180040e+00 -1.780627633806e+02 0.0 
0.0 0.0 -7.998418958976e+01 
-9.470938541739e+01 1.150780043354e+01 0.0 
1.150780043354e+01 -1.929233981385e+02 0.0 
0.0 0.0 -8.588983506678e+01 
-3.037585708474e+01 1.167880998502e+01 0.0 
1.167880998502e+01 -1.416889247011e+02 0.0 
0.0 0.0 -5.274814765276e+01 
-2.891624683526e+01 -9.189450842411e+00 0.0 
-9.189450842411e+00 -4.717399652128e+01 0.0 
0.0 0.0 -2.114139407920e+01 
-6.493519385958e+01 2.108126512861e+01 0.0 
2.108126512861e+01 -1.793195596655e+02 0.0 
0.0 0.0 -7.287642605751e+01 
-7.592269172183e+01 2.211652152368e+01 0.0 
2.211652152368e+01 -1.743598651546e+02 0.0 
0.0 0.0 -7.468476706294e+01 
-6.735221717521e+01 2.232422119659e+01 0.0 
2.232422119659e+01 -1.814200965263e+02 0.0 
0.0 0.0 -7.423169411046e+01 
-3.673178857703e+01 2.995901918791e+01 0.0 
2.995901918791e+01 -5.134377496450e+01 0.0 
0.0 0.0 -2.553045543113e+01 
-7.587885318957e+01 2.170441964991e-02 0.0 
2.170441964991e-02 -1.593444382358e+02 0.0 
0.0 0.0 -7.016698742760e+01 
-3.882736545044e+01 -7.468060796440e+00 0.0 
-7.468060796440e+00 -8.561420819987e+01 0.0 
0.0 0.0 -3.693247209509e+01 
-4.075209349133e+01 2.534959502543e+01 0.0 
2.534959502543e+01 -1.259699722940e+02 0.0 
0.0 0.0 -4.961661973561e+01 
-1.658754878036e+02 1.130365350848e+01 0.0 
1.130365350848e+01 -3.883761382084e+02 0.0 
0.0 0.0 -1.658754878036e+02 
-1.035372527413e+02 1.522010103488e+01 0.0 
1.522010103488e+01 -2.757574587099e+02 0.0 
0.0 0.0 -1.133884134353e+02 
-7.716854228270e+01 4.629104748662e+00 0.0 
4.629104748662e+00 -1.477764183768e+02 0.0 
0.0 0.0 -6.708348819785e+01 
-2.130246513768e+01 -9.465056637632e-01 0.0 
-9.465056637632e-01 -5.907264840859e+01 0.0 
0.0 0.0 -2.371253406388e+01 
-7.503700981830e+01 1.853025005181e+01 0.0 
1.853025005181e+01 -1.591541911607e+02 0.0 
0.0 0.0 -6.985736029370e+01 
-6.197194240698e+01 2.169814442194e+01 0.0 
2.169814442194e+01 -1.781858706728e+02 0.0 
0.0 0.0 -7.164734392394e+01 
-9.583128985270e+01 1.179172578519e+01 0.0 
1.179172578519e+01 -1.905675097612e+02 0.0 
0.0 0.0 -8.551963988417e+01 
-1.451100136734e+02 1.936396749915e+01 0.0 
1.936396749915e+01 -3.358869275589e+02 0.0 
0.0 0.0 -1.438990823697e+02 
-7.478871076444e+01 7.688538162637e+00 0.0 
7.688538162637e+00 -1.401351828434e+02 0.0 
0.0 0.0 -6.407716808236e+01 
-9.183854745832e+01 1.555577495443e+01 0.0 
1.555577495443e+01 -1.859888073914e+02 0.0 
0.0 0.0 -8.294820645493e+01 
-7.932001261525e+01 -6.232787146562e+00 0.0 
-6.232787146562e+00 -2.015723469762e+02 0.0 
0.0 0.0 -8.386770787745e+01 
-1.146461261294e+02 8.475999981853e+00 0.0 
8.475999981853e+00 -2.471443439038e+02 0.0 
0.0 0.0 -1.081371410099e+02 
-9.582064082794e+01 -1.794003200029e+00 0.0 
-1.794003200029e+00 -2.614877915255e+02 0.0 
0.0 0.0 -1.067925297060e+02 
-1.469419147185e+02 2.045729604168e+01 0.0 
2.045729604168e+01 -3.397803834399e+02 0.0 
0.0 0.0 -1.456166894475e+02 
-1.389824832683e+02 1.609493882302e+01 0.0 
1.609493882302e+01 -3.256257942928e+02 0.0 
0.0 0.0 -1.389824832683e+02 
-1.348108013272e+02 1.151135445921e+01 0.0 
1.151135445921e+01 -3.158918697636e+02 0.0 
0.0 0.0 -1.348108013272e+02 
-1.359875668579e+02 1.371420453397e+01 0.0 
1.371420453397e+01 -3.186376560017e+02 0.0 
0.0 0.0 -1.359875668579e+02 
-9.823909595612e+01 1.067108574642e+01 0.0 
1.067108574642e+01 -2.011079701805e+02 0.0 
0.0 0.0 -8.940411984098e+01 
-1.167608171570e+02 1.059914038781e+01 0.0 
1.059914038781e+01 -2.484394938398e+02 0.0 
0.0 0.0 -1.091600932990e+02 
-1.230646012844e+02 1.288812095073e+01 0.0 
1.288812095073e+01 -2.717410616199e+02 0.0 
0.0 0.0 -1.180416988713e+02 
-6.304363986091e+01 2.076711745169e+01 0.0 
2.076711745169e+01 -1.339687734304e+02 0.0 
0.0 0.0 -5.870372398740e+01 
-5.975207021291e+01 1.878477533556e+01 0.0 
1.878477533556e+01 -1.168407583499e+02 0.0 
0.0 0.0 -5.257784856885e+01 
-7.754124468639e+01 -4.080180967485e+00 0.0 
-4.080180967485e+00 -1.903563045693e+02 0.0 
0.0 0.0 -7.996926477672e+01 
-1.206863740605e+02 1.207295199368e+01 0.0 
1.207295199368e+01 -2.594568384164e+02 0.0 
0.0 0.0 -1.136429637431e+02 
-1.491596284161e+02 2.147218076505e+01 0.0 
2.147218076505e+01 -3.480215919999e+02 0.0 
0.0 0.0 -1.487543661248e+02 
-1.176215008318e+02 8.178155410110e+00 0.0 
8.178155410110e+00 -2.567802988278e+02 0.0 
0.0 0.0 -1.119205398979e+02 
-9.419960238979e+01 1.530453494943e+01 0.0 
1.530453494943e+01 -2.577592856995e+02 0.0 
0.0 0.0 -1.051876664268e+02 
-1.196492812158e+02 1.023391077496e+01 0.0 
1.023391077496e+01 -2.580432295410e+02 0.0 
0.0 0.0 -1.129077532270e+02 
-1.072912348394e+02 1.941572685748e+01 0.0 
1.941572685748e+01 -2.528139338927e+02 0.0 
0.0 0.0 -1.076315506196e+02 
-7.316965664597e+01 2.085858684960e+01 0.0 
2.085858684960e+01 -1.705571699412e+02 0.0 
0.0 0.0 -7.271804797615e+01 
-5.977681595772e+01 1.349665008541e+01 0.0 
1.349665008541e+01 -1.071530248669e+02 0.0 
0.0 0.0 -4.967895224738e+01 
-3.618248673823e+01 2.793097947069e+01 0.0 
2.793097947069e+01 -1.120263200244e+02 0.0 
0.0 0.0 -4.332075532501e+01 
-1.279418173673e+02 7.097599555496e+00 0.0 
7.097599555496e+00 -2.945571004613e+02 0.0 
0.0 0.0 -1.263496753486e+02 
-5.859604697770e+01 2.265264522382e+01 0.0 
2.265264522382e+01 -1.308373041983e+02 0.0 
0.0 0.0 -5.643000535279e+01 
-1.367069873399e+02 1.855236252661e+01 0.0 
1.855236252661e+01 -3.180061101100e+02 0.0 
0.0 0.0 -1.360139292350e+02 
-7.585945083805e+01 -6.103168147544e+00 0.0 
-6.103168147544e+00 -1.892089487985e+02 0.0 
0.0 0.0 -7.912051989095e+01 
-4.848367055800e+01 -1.389629466025e+01 0.0 
-1.389629466025e+01 -1.459791523416e+02 0.0 
0.0 0.0 -5.793884686987e+01 
-1.560794736277e+02 9.649197479238e+00 0.0 
9.649197479238e+00 -3.738821593411e+02 0.0 
0.0 0.0 -1.585884898906e+02 
-4.459297802657e+01 2.556069909990e+01 0.0 
2.556069909990e+01 -1.254807654231e+02 0.0 
0.0 0.0 -5.062212303490e+01 
-1.405041290171e+02 1.721435829173e+01 0.0 
1.721435829173e+01 -3.291763010399e+02 0.0 
0.0 0.0 -1.405041290171e+02 
-1.315630741156e+02 1.207425335930e+01 0.0 
1.207425335930e+01 -3.009702535540e+02 0.0 
0.0 0.0 -1.293599983009e+02 
-9.087713819209e+01 1.535776109622e+01 0.0 
1.535776109622e+01 -1.913944149510e+02 0.0 
0.0 0.0 -8.428146594292e+01 
-2.102673161171e+01 -5.296254955300e+00 0.0 
-5.296254955300e+00 -2.509555336789e+01 0.0 
0.0 0.0 -1.377510309618e+01 
-1.436576034311e+02 1.896288326214e+01 0.0 
1.896288326214e+01 -3.365344080059e+02 0.0 
0.0 0.0 -1.436576034311e+02 
-1.543677535904e+02 1.273483340848e+01 0.0 
1.273483340848e+01 -3.696839182893e+02 0.0 
0.0 0.0 -1.568155015639e+02 
-4.167136957406e+01 -1.309142452984e+01 0.0 
-1.309142452984e+01 -1.432649282251e+02 0.0 
0.0 0.0 -5.508088933974e+01 
-9.852103275464e+01 1.360767432107e+01 0.0 
1.360767432107e+01 -2.697475236333e+02 0.0 
0.0 0.0 -1.100805669164e+02 
-1.557474906864e+02 1.951269876100e+01 0.0 
1.951269876100e+01 -3.701163891271e+02 0.0 
0.0 0.0 -1.573591639441e+02 
-7.856217770980e+00 -6.368922206231e-01 0.0 
-6.368922206231e-01 -9.509814726431e+00 0.0 
0.0 0.0 -5.779722892011e+00 
-6.590150489177e+01 2.179511489630e+01 0.0 
2.179511489630e+01 -1.509628190636e+02 0.0 
0.0 0.0 -6.465929718662e+01 
-9.482001635597e+01 1.414302504727e+01 0.0 
1.414302504727e+01 -1.982428074382e+02 0.0 
0.0 0.0 -8.751884713824e+01 
-8.677198564865e+01 1.669960442986e+01 0.0 
1.669960442986e+01 -1.851580990310e+02 0.0 
0.0 0.0 -8.117902540390e+01 
-8.727850692305e+01 1.374873345742e+01 0.0 
1.374873345742e+01 -1.776993314806e+02 0.0 
0.0 0.0 -7.909335152111e+01 
-3.746220856056e+01 2.745698218222e+01 0.0 
2.745698218222e+01 -1.089659280700e+02 0.0 
0.0 0.0 -4.312087028753e+01 
-1.474133839888e+02 2.019415508070e+01 0.0 
2.019415508070e+01 -3.452978959738e+02 0.0 
0.0 0.0 -1.474133839888e+02 
-5.488368554039e+01 1.454724201084e+01 0.0 
1.454724201084e+01 -1.859401611592e+02 0.0 
0.0 0.0 -7.184715400987e+01 
-2.513474254412e+01 4.822402521168e+00 0.0 
4.822402521168e+00 -1.192758192570e+02 0.0 
0.0 0.0 -4.539282349740e+01 
-1.582130399993e+02 1.821845877043e+00 0.0 
1.821845877043e+00 -3.770310397030e+02 0.0 
0.0 0.0 -1.601732239107e+02 
-1.305837644815e+01 -3.182584664662e+00 0.0 
-3.182584664662e+00 -2.642281035525e+01 0.0 
0.0 0.0 -1.144435604102e+01 
-6.736527061028e+01 9.900154483558e+00 0.0 
9.900154483558e+00 -1.228793910804e+02 0.0 
0.0 0.0 -5.667339850722e+01 
-3.452834540643e+01 -2.231247119202e+01 0.0 
-2.231247119202e+01 -9.838436654148e+01 0.0 
0.0 0.0 -4.064871745218e+01 
-7.010035613370e+01 5.608341262920e+00 0.0 
5.608341262920e+00 -1.288416708636e+02 0.0 
0.0 0.0 -5.928260809920e+01 
-1.599393149852e+02 1.410660653671e+01 0.0 
1.410660653671e+01 -3.827973635518e+02 0.0 
0.0 0.0 -1.624210035611e+02 
-1.516752947126e+02 2.046128899176e+01 0.0 
2.046128899176e+01 -3.552423543294e+02 0.0 
0.0 0.0 -1.516752947126e+02 
-9.062052128946e+01 9.772517826731e+00 0.0 
9.772517826731e+00 -1.807400731014e+02 0.0 
0.0 0.0 -8.100817831727e+01 
-3.334476637004e+01 -2.315391798890e+01 0.0 
-2.315391798890e+01 -6.703321316047e+01 0.0 
0.0 0.0 -3.021660586604e+01 
-2.810582119783e+01 9.686055320721e+00 0.0 
9.686055320721e+00 -1.243983792839e+02 0.0 
0.0 0.0 -4.809397611122e+01 
-4.327436271274e+01 -2.491893287779e+01 0.0 
-2.491893287779e+01 -8.786482189790e+01 0.0 
0.0 0.0 -3.772177775662e+01 
-1.356396261408e+02 2.662715565834e+00 0.0 
2.662715565834e+00 -3.339184629409e+02 0.0 
0.0 0.0 -1.404674267245e+02 
-7.495494127031e+01 2.447494505662e+00 0.0 
2.447494505662e+00 -1.453639305819e+02 0.0 
0.0 0.0 -6.569566155566e+01 
-8.297699645324e+01 6.956537671745e+00 0.0 
6.956537671745e+00 -1.582134738670e+02 0.0 
0.0 0.0 -7.195714109607e+01 
-1.558064942620e+02 1.978927267789e+01 0.0 
1.978927267789e+01 -3.648818199447e+02 0.0 
0.0 0.0 -1.558064942620e+02 
-7.387858104193e+01 2.219717782654e+00 0.0 
2.219717782654e+00 -1.449406676140e+02 0.0 
0.0 0.0 -6.524577459677e+01 
-1.375607681292e+02 1.127687100407e+01 0.0 
1.127687100407e+01 -3.167101380569e+02 0.0 
0.0 0.0 -1.358812718558e+02 
-1.115051601193e+02 1.740669722222e+01 0.0 
1.740669722222e+01 -2.662425539424e+02 0.0 
0.0 0.0 -1.129243142185e+02 
-8.600523135153e+01 1.868205181877e+00 0.0 
1.868205181877e+00 -1.764809133280e+02 0.0 
0.0 0.0 -7.834584340387e+01 
-4.380346689813e+01 2.391140929139e+01 0.0 
2.391140929139e+01 -8.789074328987e+01 0.0 
0.0 0.0 -3.910826305640e+01 
-9.901790856751e+01 1.313145200100e+01 0.0 
1.313145200100e+01 -2.698633089509e+02 0.0 
0.0 0.0 -1.102643652555e+02 
-2.752144016752e+01 1.987952859693e+01 0.0 
1.987952859693e+01 -1.106496068244e+02 0.0 
0.0 0.0 -4.116541958556e+01 
-1.593564159438e+02 1.813697079072e+01 0.0 
1.813697079072e+01 -3.731649705356e+02 0.0 
0.0 0.0 -1.593564159438e+02 
-1.374265304531e+02 1.481643659185e+01 0.0 
1.481643659185e+01 -3.219952377238e+02 0.0 
0.0 0.0 -1.374265304531e+02 
-1.355178863359e+02 1.266056563874e+01 0.0 
1.266056563874e+01 -3.175417347837e+02 0.0 
0.0 0.0 -1.355178863359e+02 
-9.882765943907e+01 -9.039419389844e-01 0.0 
-9.039419389844e-01 -2.629520533659e+02 0.0 
0.0 0.0 -1.081339138415e+02 
-7.333779043706e+01 -3.563133323818e+00 0.0 
-3.563133323818e+00 -1.778396785333e+02 0.0 
0.0 0.0 -7.495324069110e+01 
-7.062023332904e+01 2.306628763174e+01 0.0 
2.306628763174e+01 -1.699614197792e+02 0.0 
0.0 0.0 -7.177449593247e+01 
-1.009768536075e+02 -1.893101338869e+00 0.0 
-1.893101338869e+00 -2.688643746279e+02 0.0 
0.0 0.0 -1.105523684706e+02 
-1.622940871735e+02 1.578919368779e+01 0.0 
1.578919368779e+01 -3.800195367382e+02 0.0 
0.0 0.0 -1.622940871735e+02 
-3.701568778640e+01 2.472983258530e+01 0.0 
2.472983258530e+01 -1.242533313551e+02 0.0 
0.0 0.0 -4.798070574246e+01 
-4.434546079114e+01 -4.345736958243e+00 0.0 
-4.345736958243e+00 -1.693483112028e+02 0.0 
0.0 0.0 -6.370813159818e+01 
-4.919961232569e+01 -6.677734715659e+00 0.0 
-6.677734715659e+00 -1.735114285128e+02 0.0 
0.0 0.0 -6.641331225153e+01 
-8.994088511239e+01 1.986554825213e+00 0.0 
1.986554825213e+00 -1.873053442470e+02 0.0 
0.0 0.0 -8.277386880781e+01 
-1.628581834080e+02 9.460786391160e+00 0.0 
9.460786391160e+00 -3.889588390274e+02 0.0 
0.0 0.0 -1.651451067306e+02 
-4.451576154604e+01 -2.271309508473e+01 0.0 
-2.271309508473e+01 -6.216306685271e+01 0.0 
0.0 0.0 -3.053226591590e+01 
-1.648302357166e+02 1.275762614985e+01 0.0 
1.275762614985e+01 -3.859372166722e+02 0.0 
0.0 0.0 -1.648302357166e+02 
-4.758736063787e+01 -1.039522754669e+01 0.0 
-1.039522754669e+01 -1.607128428070e+02 0.0 
0.0 0.0 -6.209006103345e+01 
-1.422551165532e+02 1.821477992575e+01 0.0 
1.821477992575e+01 -3.332619386240e+02 0.0 
0.0 0.0 -1.422551165532e+02 
-1.251675616604e+02 1.521109977981e+01 0.0 
1.521109977981e+01 -2.731979261212e+02 0.0 
0.0 0.0 -1.191096463345e+02 
-5.888479269330e+00 -3.816249679447e-01 0.0 
-3.816249679447e-01 -7.083487287345e+00 0.0 
0.0 0.0 -1.230669410620e+00 
-6.809761723854e+01 2.183090907277e+01 0.0 
2.183090907277e+01 -1.669305727570e+02 0.0 
0.0 0.0 -7.010845699866e+01 
-1.188670785099e+02 8.727115659985e+00 0.0 
8.727115659985e+00 -2.578126762385e+02 0.0 
0.0 0.0 -1.126039264245e+02 
-1.456037359674e+02 1.973704691191e+01 0.0 
1.973704691191e+01 -3.410753839240e+02 0.0 
0.0 0.0 -1.456037359674e+02 
-9.963414483205e+01 1.341337731382e+01 0.0 
1.341337731382e+01 -2.022173053354e+02 0.0 
0.0 0.0 -9.015543505023e+01 
-1.149216524052e+02 1.712971378357e+01 0.0 
1.712971378357e+01 -2.794735595249e+02 0.0 
0.0 0.0 -1.179185635790e+02 
-3.607296788934e+01 3.023146775379e+01 0.0 
3.023146775379e+01 -9.488989101814e+01 0.0 
0.0 0.0 -3.867852454016e+01 
-1.453685589242e+02 1.120376450747e+01 0.0 
1.120376450747e+01 -3.560064246468e+02 0.0 
0.0 0.0 -1.500124950713e+02 
-5.263337273887e+01 -1.072209877310e+01 0.0 
-1.072209877310e+01 -1.648739264871e+02 0.0 
0.0 0.0 -6.485218976780e+01 
-5.444951271729e+01 -8.055746178801e+00 0.0 
-8.055746178801e+00 -1.754788511181e+02 0.0 
0.0 0.0 -6.857850915062e+01 
-4.734696308608e+01 -2.492409775780e+01 0.0 
-2.492409775780e+01 -4.872492252987e+01 0.0 
0.0 0.0 -2.792896532448e+01 
-1.494830302127e+02 2.043581286629e+01 0.0 
2.043581286629e+01 -3.501270704963e+02 0.0 
0.0 0.0 -1.494830302127e+02 
-3.029896554220e+01 1.870767554073e+01 0.0 
1.870767554073e+01 -1.262614310195e+02 0.0 
0.0 0.0 -4.640983546252e+01 
-1.294790880940e+02 6.750658061268e+00 0.0 
6.750658061268e+00 -3.300512076530e+02 0.0 
0.0 0.0 -1.374590887241e+02 
-8.292147986508e+01 3.194178145296e+00 0.0 
3.194178145296e+00 -1.669868506615e+02 0.0 
0.0 0.0 -7.457249915797e+01 
-5.395355065802e+01 -1.156025693349e+01 0.0 
-1.156025693349e+01 -1.381781149138e+02 0.0 
0.0 0.0 -5.723949967153e+01 
-4.921957054197e+01 -6.658601707347e+00 0.0 
-6.658601707347e+00 -1.709388709865e+02 0.0 
0.0 0.0 -6.564753245855e+01 
-9.584038455606e+01 1.438033485272e+01 0.0 
1.438033485272e+01 -1.939598952567e+02 0.0 
0.0 0.0 -8.654008394382e+01 
-1.576573740391e+02 1.913948466239e+01 0.0 
1.913948466239e+01 -3.692005394245e+02 0.0 
0.0 0.0 -1.576573740391e+02 
-7.592542492535e+01 -4.764188581748e+00 0.0 
-4.764188581748e+00 -1.850628219323e+02 0.0 
0.0 0.0 -7.789647405731e+01 
-1.112071581521e+02 2.142782810142e+00 0.0 
2.142782810142e+00 -2.918403337523e+02 0.0 
0.0 0.0 -1.205142475713e+02 
-8.536582141335e+01 1.887705360962e+01 0.0 
1.887705360962e+01 -1.944549710930e+02 0.0 
0.0 0.0 -8.354623775191e+01 
-9.521142886411e+01 3.930316798278e+00 0.0 
3.930316798278e+00 -2.671055172545e+02 0.0 
0.0 0.0 -1.082950838356e+02 
-5.032502964457e+01 -1.938194136717e+00 0.0 
-1.938194136717e+00 -1.798974535960e+02 0.0 
0.0 0.0 -6.866674497216e+01 
-1.022444146690e+02 7.119805864596e-01 0.0 
7.119805864596e-01 -2.735490179276e+02 0.0 
0.0 0.0 -1.123380297790e+02 
-8.105371369143e+01 2.091062751500e+01 0.0 
2.091062751500e+01 -1.794975178297e+02 0.0 
0.0 0.0 -7.776536945635e+01 
-1.088646779151e+02 1.876132568762e+01 0.0 
1.876132568762e+01 -2.455191931583e+02 0.0 
0.0 0.0 -1.059151613220e+02 
-1.082649445990e+02 1.305770402404e+01 0.0 
1.305770402404e+01 -2.874750891411e+02 0.0 
0.0 0.0 -1.183220101220e+02 
-8.057058658070e+01 1.991827461817e+01 0.0 
1.991827461817e+01 -1.899216485245e+02 0.0 
0.0 0.0 -8.074767053157e+01 
-7.503573805266e+01 -7.165617240125e+00 0.0 
-7.165617240125e+00 -1.941247035617e+02 0.0 
0.0 0.0 -8.034813248430e+01 
-4.128919729779e+01 2.593778961549e+01 0.0 
2.593778961549e+01 -1.241565347597e+02 0.0 
0.0 0.0 -4.923371961724e+01 
-7.212565803841e+01 -5.697660024033e+00 0.0 
-5.697660024033e+00 -1.768670841913e+02 0.0 
0.0 0.0 -7.429782266891e+01 
-1.106100392147e+02 1.920916902637e+01 0.0 
1.920916902637e+01 -2.663184669645e+02 0.0 
0.0 0.0 -1.126785518538e+02 
-8.489175761782e+01 1.151335746397e+01 0.0 
1.151335746397e+01 -2.465100752771e+02 0.0 
0.0 0.0 -9.902054986849e+01 
-1.609967261691e+02 1.263274663537e+01 0.0 
1.263274663537e+01 -3.852812389580e+02 0.0 
0.0 0.0 -1.634833895381e+02 
-1.226586597757e+02 9.915520291710e+00 0.0 
9.915520291710e+00 -2.677895128131e+02 0.0 
0.0 0.0 -1.167344517766e+02 
-4.855470701840e+01 -1.261945774257e+01 0.0 
-1.261945774257e+01 -1.216946010054e+02 0.0 
0.0 0.0 -5.067479240713e+01 
-1.637005323867e+02 1.423175747703e+01 0.0 
1.423175747703e+01 -3.833012422355e+02 0.0 
0.0 0.0 -1.637005323867e+02 
-1.509232032545e+02 1.256630350915e+01 0.0 
1.256630350915e+01 -3.689834665272e+02 0.0 
0.0 0.0 -1.555720009345e+02 
-7.269090096114e+01 1.981444648770e+01 0.0 
1.981444648770e+01 -1.971862115593e+02 0.0 
0.0 0.0 -8.056313375613e+01 
-2.977282586387e+01 -1.571635277295e+01 0.0 
-1.571635277295e+01 -3.136745166503e+01 0.0 
0.0 0.0 -1.821651336277e+01 
-1.635253848709e+02 7.975714114334e+00 0.0 
7.975714114334e+00 -3.901398101570e+02 0.0 
0.0 0.0 -1.656995585084e+02 
-1.233238139218e+02 1.148440573118e+01 0.0 
1.148440573118e+01 -2.684647622139e+02 0.0 
0.0 0.0 -1.171365728407e+02 
-4.668213833990e+01 -1.317532534881e+01 0.0 
-1.317532534881e+01 -1.464930268378e+02 0.0 
0.0 0.0 -5.755254955331e+01 
-1.665713858615e+02 9.840163193178e+00 0.0 
9.840163193178e+00 -3.899999003436e+02 0.0 
0.0 0.0 -1.665713858615e+02 
-1.074580128777e+02 5.653986472543e-01 0.0 
5.653986472543e-01 -2.813734735798e+02 0.0 
0.0 0.0 -1.162494459373e+02 
-6.393559175844e+01 1.647622200992e+01 0.0 
1.647622200992e+01 -1.221647360635e+02 0.0 
0.0 0.0 -5.543009834657e+01 
-8.560030845507e+01 5.845574547872e+00 0.0 
5.845574547872e+00 -1.674280256086e+02 0.0 
0.0 0.0 -7.550850021910e+01 
-8.026664986812e+01 1.361373456916e+01 0.0 
1.361373456916e+01 -2.350912029240e+02 0.0 
0.0 0.0 -9.420735583762e+01 
-9.055798587983e+01 -2.484858791463e+00 0.0 
-2.484858791463e+00 -2.445621258175e+02 0.0 
0.0 0.0 -1.001360335092e+02 
-9.913702336606e+01 6.257028282722e+00 0.0 
6.257028282722e+00 -2.757775670762e+02 0.0 
0.0 0.0 -1.120743771327e+02 
-1.023295455620e+02 8.635409722571e+00 0.0 
8.635409722571e+00 -2.078176428708e+02 0.0 
0.0 0.0 -9.264415652986e+01 
-7.181078609948e+01 1.247705352270e+01 0.0 
1.247705352270e+01 -1.360054564204e+02 0.0 
0.0 0.0 -6.194487275596e+01 
-1.134101404516e+02 1.432034212784e+01 0.0 
1.432034212784e+01 -2.938741773718e+02 0.0 
0.0 0.0 -1.217852953470e+02 
-8.305693979970e+01 5.471655836303e-01 0.0 
5.471655836303e-01 -1.761358627024e+02 0.0 
0.0 0.0 -7.735784075064e+01 
-7.755461331053e+01 -5.394472859826e+00 0.0 
-5.394472859826e+00 -1.955734568161e+02 0.0 
0.0 0.0 -8.153842103799e+01 
-1.030859469130e+02 1.153439970527e+01 0.0 
1.153439970527e+01 -2.807924910465e+02 0.0 
0.0 0.0 -1.147635313879e+02 
-5.798311324057e+01 -1.062710091613e+01 0.0 
-1.062710091613e+01 -1.671662750186e+02 0.0 
0.0 0.0 -6.714481647776e+01 
-1.078720224241e+02 -2.729334804989e+00 0.0 
-2.729334804989e+00 -2.680150797846e+02 0.0 
0.0 0.0 -1.123661306626e+02 
-7.728517648322e+00 -1.119163514705e+00 0.0 
-1.119163514705e+00 -8.843168363463e+00 0.0 
0.0 0.0 -4.571505803536e+00 
-4.582677308298e+01 2.650852197755e+01 0.0 
2.650852197755e+01 -1.249415927165e+02 0.0 
0.0 0.0 -5.083050973983e+01 
-5.352272974807e+01 -1.108585220966e+01 0.0 
-1.108585220966e+01 -1.630918786138e+02 0.0 
0.0 0.0 -6.458438250855e+01 
-8.354965498732e+01 -5.332581920777e+00 0.0 
-5.332581920777e+00 -2.092809567030e+02 0.0 
0.0 0.0 -8.744918350711e+01 
-7.797792464946e+01 1.995016801849e+01 0.0 
1.995016801849e+01 -2.007841049113e+02 0.0 
0.0 0.0 -8.322860886824e+01 
-1.047607985534e+02 -4.120504931576e-01 0.0 
-4.120504931576e-01 -2.800232731696e+02 0.0 
0.0 0.0 -1.150352215169e+02 
-8.746168571257e+01 3.064158023953e+00 0.0 
3.064158023953e+00 -1.791083616431e+02 0.0 
0.0 0.0 -7.957101420669e+01 
-5.254309866464e+01 -1.293945550650e+01 0.0 
-1.293945550650e+01 -1.490284053617e+02 0.0 
0.0 0.0 -6.007145120789e+01 
-1.671516511799e+02 8.442544132655e+00 0.0 
8.442544132655e+00 -3.913538527531e+02 0.0 
0.0 0.0 -1.671516511799e+02 
-9.506311588191e+01 1.702565213860e+01 0.0 
1.702565213860e+01 -1.989112689361e+02 0.0 
0.0 0.0 -8.779231544542e+01 
-8.771567307703e+01 -4.515337248064e+00 0.0 
-4.515337248064e+00 -2.170500422398e+02 0.0 
0.0 0.0 -9.102971459505e+01 
-9.063458872791e+01 1.826928073779e+01 0.0 
1.826928073779e+01 -1.918738261833e+02 0.0 
0.0 0.0 -8.435252447337e+01 
-8.539268062321e+01 -3.445224710251e+00 0.0 
-3.445224710251e+00 -2.104647457459e+02 0.0 
0.0 0.0 -8.835722791073e+01 
-1.269667498864e+01 -8.110046895251e-01 0.0 
-8.110046895251e-01 -9.579984521033e+00 0.0 
0.0 0.0 -7.257243832151e+00 
-9.107202894331e+01 7.906973010068e+00 0.0 
7.906973010068e+00 -1.782053047728e+02 0.0 
0.0 0.0 -8.038320011484e+01 
-7.167358016423e+01 -2.396951117552e+00 0.0 
-2.396951117552e+00 -1.709743564485e+02 0.0 
0.0 0.0 -7.239438098381e+01 
-8.860505717958e-01 -1.713861360099e-01 0.0 
-1.713861360099e-01 -9.055251297620e+00 0.0 
0.0 0.0 -2.581854231870e+00 
-8.380338289647e+01 -4.365663307629e+00 0.0 
-4.365663307629e+00 -2.049837510770e+02 0.0 
0.0 0.0 -8.623614019204e+01 
-1.140723442242e+02 8.520533901323e-01 0.0 
8.520533901323e-01 -2.985939248719e+02 0.0 
0.0 0.0 -1.233998807288e+02 
-1.123678335151e+02 1.514490502590e+00 0.0 
1.514490502590e+00 -2.518331531359e+02 0.0 
0.0 0.0 -1.088602959953e+02 
-9.008870961441e+01 5.203203362615e+00 0.0 
5.203203362615e+00 -2.586473636049e+02 0.0 
0.0 0.0 -1.042208219658e+02 
-9.324228488145e+01 3.758841860668e+00 0.0 
3.758841860668e+00 -2.662312674331e+02 0.0 
0.0 0.0 -1.074420656944e+02 
-7.518464563512e+01 5.581233209852e+00 0.0 
5.581233209852e+00 -1.395177962934e+02 0.0 
0.0 0.0 -6.401073257855e+01 
-6.592665669969e+01 1.204671941650e+00 0.0 
1.204671941650e+00 -1.265277341178e+02 0.0 
0.0 0.0 -5.733631724524e+01 
-1.299349722267e+02 9.366017409876e+00 0.0 
9.366017409876e+00 -2.973939707343e+02 0.0 
0.0 0.0 -1.277986828883e+02 
-8.596529122665e+01 1.958869081943e+01 0.0 
1.958869081943e+01 -1.853536047319e+02 0.0 
0.0 0.0 -8.099566878757e+01 
-2.488575564124e+00 -2.117312902486e-01 0.0 
-2.117312902486e-01 -7.065770947047e+00 0.0 
0.0 0.0 -1.742271053191e+00 
-3.223476264354e+01 -4.826089730054e+00 0.0 
-4.826089730054e+00 -7.103331762104e+01 0.0 
0.0 0.0 -3.058042407937e+01 
-2.554877943890e+01 -9.133203451397e+00 0.0 
-9.133203451397e+00 -2.767152500459e+01 0.0 
0.0 0.0 -1.588768569179e+01 
-5.333916026752e+01 -8.949089060824e+00 0.0 
-8.949089060824e+00 -1.286591187495e+02 0.0 
0.0 0.0 -5.419948370510e+01 
-1.249393841400e+02 1.800454310022e+01 0.0 
1.800454310022e+01 -2.794025517084e+02 0.0 
0.0 0.0 -1.209025807545e+02 
-1.133170853497e+02 3.237204213105e+00 0.0 
3.237204213105e+00 -2.525322216782e+02 0.0 
0.0 0.0 -1.093547921084e+02 
-1.294200116144e+02 3.232695192225e-01 0.0 
3.232695192225e-01 -3.218400657403e+02 0.0 
0.0 0.0 -1.349780232064e+02 
-5.866449158863e+01 -6.011819841086e+00 0.0 
-6.011819841086e+00 -1.418016416361e+02 0.0 
0.0 0.0 -5.973983996743e+01 
-1.097033397901e+02 -1.082534380152e+00 0.0 
-1.082534380152e+00 -2.691700292609e+02 0.0 
0.0 0.0 -1.132620107153e+02 
-1.333313913931e+02 5.021286613577e+00 0.0 
5.021286613577e+00 -3.376815707150e+02 0.0 
0.0 0.0 -1.409038886324e+02 
-2.595560536450e+01 4.708741205029e+00 0.0 
4.708741205029e+00 -1.277219994274e+02 0.0 
0.0 0.0 -4.726895816679e+01 
-7.181931361814e+01 -2.626591790775e-02 0.0 
-2.626591790775e-02 -1.710977172988e+02 0.0 
0.0 0.0 -7.247510927509e+01 
-5.922233341528e+01 -1.679758875525e+00 0.0 
-1.679758875525e+00 -1.404592059699e+02 0.0 
0.0 0.0 -5.950446181555e+01 
-1.639368718304e+02 6.527443216325e+00 0.0 
6.527443216325e+00 -3.907022126296e+02 0.0 
0.0 0.0 -1.659917253380e+02 
-1.675083960729e+02 7.119330371504e+00 0.0 
7.119330371504e+00 -3.921862575035e+02 0.0 
0.0 0.0 -1.675083960729e+02 
-7.965629463278e+01 -2.411948835140e-01 0.0 
-2.411948835140e-01 -1.902848101601e+02 0.0 
0.0 0.0 -8.058233143787e+01 
-8.939728188934e+01 -2.597150925121e+00 0.0 
-2.597150925121e+00 -2.181819968638e+02 0.0 
0.0 0.0 -9.187378362595e+01 
-9.232951176137e+01 -3.316987788713e+00 0.0 
-3.316987788713e+00 -2.500833345586e+02 0.0 
0.0 0.0 -1.023238538960e+02 
-1.381731078693e+02 6.735731122193e+00 0.0 
6.735731122193e+00 -3.471219647068e+02 0.0 
0.0 0.0 -1.451885217728e+02 
-3.663994694527e+01 -6.864840138183e+00 0.0 
-6.864840138183e+00 -7.890964364255e+01 0.0 
0.0 0.0 -3.426487717635e+01 
-1.284063941411e+02 3.441484173734e+00 0.0 
3.441484173734e+00 -3.276426137324e+02 0.0 
0.0 0.0 -1.364147023620e+02 
-1.430607094754e+01 -1.029723100198e+00 0.0 
-1.029723100198e+00 -4.279598901984e+01 0.0 
0.0 0.0 -1.673061799022e+01 
-8.121422008331e+01 -3.160425265226e+00 0.0 
-3.160425265226e+00 -1.981234792070e+02 0.0 
0.0 0.0 -8.340130978708e+01 
-8.930273897473e+01 -3.486315841737e+00 0.0 
-3.486315841737e+00 -2.227753017836e+02 0.0 
0.0 0.0 -9.322341222749e+01 
-6.546258089460e+00 -3.835375165427e-01 0.0 
-3.835375165427e-01 -2.568289209191e+01 0.0 
0.0 0.0 -9.414566534677e+00 
-7.594961660578e+01 -1.699242401326e+00 0.0 
-1.699242401326e+00 -1.804611490828e+02 0.0 
0.0 0.0 -7.652322970658e+01 
-1.203377738821e+02 8.037342458318e+00 0.0 
8.037342458318e+00 -2.663408646622e+02 0.0 
0.0 0.0 -1.156035915633e+02 
-1.905042366638e+00 -2.122447311585e-01 0.0 
-2.122447311585e-01 -7.576558464079e+00 0.0 
0.0 0.0 -1.665116896543e+00 
-6.708281964150e+01 1.559922481536e+00 0.0 
1.559922481536e+00 -1.271115367917e+02 0.0 
0.0 0.0 -5.785830692997e+01 
-6.748977944142e+01 2.038539420855e+00 0.0 
2.038539420855e+00 -1.279902480588e+02 0.0 
0.0 0.0 -5.824400825005e+01 
-1.033978132548e+02 8.492713417618e+00 0.0 
8.492713417618e+00 -2.838588237773e+02 0.0 
0.0 0.0 -1.157769911096e+02 
-5.896090673099e+01 4.969508720661e-01 0.0 
4.969508720661e-01 -1.402325690447e+02 0.0 
0.0 0.0 -5.935804273271e+01 
-5.143854426113e+01 -1.253044010277e+01 0.0 
-1.253044010277e+01 -1.508630799350e+02 0.0 
0.0 0.0 -6.029048725884e+01 
-3.438321609137e+01 2.833173176157e+01 0.0 
2.833173176157e+01 -8.811585445661e+01 0.0 
0.0 0.0 -3.634972116439e+01 
-1.437325466779e+02 9.545324041448e-01 0.0 
9.545324041448e-01 -3.481994273318e+02 0.0 
0.0 0.0 -1.471795922029e+02 
-1.421754954211e+02 1.922179443366e+01 0.0 
1.922179443366e+01 -3.315320499962e+02 0.0 
0.0 0.0 -1.417122636252e+02 
-1.099279051188e+02 4.317734702227e+00 0.0 
4.317734702227e+00 -2.401258672026e+02 0.0 
0.0 0.0 -1.046161316964e+02 
-4.294331232328e+01 2.684455375774e+01 0.0 
2.684455375774e+01 -8.805184783730e+01 0.0 
0.0 0.0 -3.889854804817e+01 
-2.695292664448e+01 -5.768170199099e+00 0.0 
-5.768170199099e+00 -4.938599483443e+01 0.0 
0.0 0.0 -2.202461055425e+01 
-7.303290395252e+01 1.219059075549e+01 0.0 
1.219059075549e+01 -1.328280861506e+02 0.0 
0.0 0.0 -6.135829703094e+01 
-6.471767235414e+01 4.581818680659e-01 0.0 
4.581818680659e-01 -1.268113057541e+02 0.0 
0.0 0.0 -5.705869343247e+01 
-6.391874977274e+01 5.313965982116e-01 0.0 
5.313965982116e-01 -1.265899528228e+02 0.0 
0.0 0.0 -5.675261077867e+01 
-5.412790471579e-01 -2.470564382977e-01 0.0 
-2.470564382977e-01 -9.236054593518e+00 0.0 
0.0 0.0 -2.547422867779e+00 
-6.910479798275e+00 -4.412104901313e-01 0.0 
-4.412104901313e-01 -2.554482423040e+01 0.0 
0.0 0.0 -9.623321248011e+00 
-1.425273675808e+01 -1.788311327823e-01 0.0 
-1.788311327823e-01 -4.214107087645e+01 0.0 
0.0 0.0 -1.651814229036e+01 
-4.651733651110e+01 -6.936015204279e+00 0.0 
-6.936015204279e+00 -1.075930429762e+02 0.0 
0.0 0.0 -4.583311384618e+01 
-6.558690298660e+00 -2.805793635985e-01 0.0 
-2.805793635985e-01 -2.565573726215e+01 0.0 
0.0 0.0 -8.671372576200e+00 
-8.373997752861e+01 -1.595646124084e+00 0.0 
-1.595646124084e+00 -2.006510953272e+02 0.0 
0.0 0.0 -8.491732185675e+01 
-4.599836109094e+01 -1.251445437646e+01 0.0 
-1.251445437646e+01 -6.034422837620e+01 0.0 
0.0 0.0 -3.247111220529e+01 
-5.379447810330e+01 -7.249502481053e+00 0.0 
-7.249502481053e+00 -1.281374060137e+02 0.0 
0.0 0.0 -5.417956523511e+01 
-8.967864884958e+01 3.858575895686e-01 0.0 
3.858575895686e-01 -1.931500182608e+02 0.0 
0.0 0.0 -8.444860013313e+01 
-6.564749857655e+01 1.034271167149e+00 0.0 
1.034271167149e+00 -1.268435332470e+02 0.0 
0.0 0.0 -5.734730954707e+01 
-1.286306822072e+02 1.763698358445e+01 0.0 
1.763698358445e+01 -2.865189173711e+02 0.0 
0.0 0.0 -1.241448798735e+02 
-1.099790124990e+02 -5.886110116169e-01 0.0 
-5.886110116169e-01 -2.876240775865e+02 0.0 
0.0 0.0 -1.188809270256e+02 
-8.235867265230e+01 8.153052851235e-02 0.0 
8.153052851235e-02 -1.754155684850e+02 0.0 
0.0 0.0 -7.693227234118e+01 
-6.307672649581e+01 -1.137826354293e+00 0.0 
-1.137826354293e+00 -1.499745582286e+02 0.0 
0.0 0.0 -6.351538541733e+01 
-1.337512336920e+01 -4.545360941627e-01 0.0 
-4.545360941627e-01 -4.256790398845e+01 0.0 
0.0 0.0 -1.638290820730e+01 
-1.317866256829e+02 4.872770101911e+00 0.0 
4.872770101911e+00 -3.088354599267e+02 0.0 
0.0 0.0 -1.317866256829e+02 
-1.340434955637e+02 5.318023773366e+00 0.0 
5.318023773366e+00 -3.099294243293e+02 0.0 
0.0 0.0 -1.327918759679e+02 
-8.147853381632e+01 9.924974345768e-01 0.0 
9.924974345768e-01 -1.661347832557e+02 0.0 
0.0 0.0 -7.388399512159e+01 
-6.481815218951e+01 6.387531133125e-01 0.0 
6.387531133125e-01 -1.264214413414e+02 0.0 
0.0 0.0 -5.697187805928e+01 
-6.400722434196e+01 -4.510857888345e-01 0.0 
-4.510857888345e-01 -1.521490672606e+02 0.0 
0.0 0.0 -6.444688748077e+01 
-1.335446382665e+02 3.822202858064e+00 0.0 
3.822202858064e+00 -3.091414620794e+02 0.0 
0.0 0.0 -1.324058301038e+02 
-5.098846090015e+01 -5.936821344215e+00 0.0 
-5.936821344215e+00 -1.208990209819e+02 0.0 
0.0 0.0 -5.116624456463e+01 
-6.645823249121e+01 1.503843708539e+00 0.0 
1.503843708539e+00 -1.271582300613e+02 0.0 
0.0 0.0 -5.768493876575e+01 
-6.577393452750e+01 8.418947575697e-01 0.0 
8.418947575697e-01 -1.264698537258e+02 0.0 
0.0 0.0 -5.727313647600e+01 
-6.638382044837e+01 6.396641029566e+00 0.0 
6.396641029566e+00 -1.197510427116e+02 0.0 
0.0 0.0 -5.544045894798e+01 
-1.344058243165e+02 1.051978479653e+01 0.0 
1.051978479653e+01 -3.149469234052e+02 0.0 
0.0 0.0 -1.344058243165e+02 
-1.345464844958e+02 4.432201773353e+00 0.0 
4.432201773353e+00 -3.099915510935e+02 0.0 
0.0 0.0 -1.329614106768e+02 
-6.700160996994e+00 -3.581442816356e-01 0.0 
-3.581442816356e-01 -2.546093015430e+01 0.0 
0.0 0.0 -8.680103523619e+00 
-4.416601447537e-01 -2.130303126792e-01 0.0 
-2.130303126792e-01 -9.283865524043e+00 0.0 
0.0 0.0 -2.410747694501e+00 
-2.862560143095e+01 -5.267534493221e+00 0.0 
-5.267534493221e+00 -5.876904989436e+01 0.0 
0.0 0.0 -2.580582560217e+01 
-8.708450296390e+01 -5.251179888802e+00 0.0 
-5.251179888802e+00 -2.214586980183e+02 0.0 
0.0 0.0 -9.216296029466e+01 
-1.525364411540e+02 -8.715703398307e-01 0.0 
-8.715703398307e-01 -3.595373273855e+02 0.0 
0.0 0.0 -1.532221305619e+02 
-8.396393917701e+01 -2.247519714903e+01 0.0 
-2.247519714903e+01 -7.750699378908e+01 0.0 
0.0 0.0 -4.871732172423e+01 
-1.060906728356e+02 1.244598026123e+00 0.0 
1.244598026123e+00 -2.358478521072e+02 0.0 
0.0 0.0 -1.021815574828e+02 
-2.893585241201e+01 -9.707385286841e+00 0.0 
-9.707385286841e+00 -1.063787237232e+01 0.0 
0.0 0.0 -1.245306747603e+01 
-1.025340215833e+02 4.709407943831e+00 0.0 
4.709407943831e+00 -2.836776414941e+02 0.0 
0.0 0.0 -1.154634989232e+02 
-1.484312990182e+01 -4.561261235708e+00 0.0 
-4.561261235708e+00 -1.211228906266e+01 0.0 
0.0 0.0 -7.071573330774e+00 
-4.141963416603e+01 -2.327979474754e+01 0.0 
-2.327979474754e+01 -3.566368642672e+01 0.0 
0.0 0.0 -2.311225655184e+01 
-9.816181880849e+01 2.581819537797e+00 0.0 
2.581819537797e+00 -2.742274550188e+02 0.0 
0.0 0.0 -1.113167821482e+02 
-1.476481187978e+02 -4.488795180953e-01 0.0 
-4.488795180953e-01 -3.502493622294e+02 0.0 
0.0 0.0 -1.489692443082e+02 
-8.955734485542e+01 8.997644276896e-01 0.0 
8.997644276896e-01 -1.920070175947e+02 0.0 
0.0 0.0 -8.406930873503e+01 
-7.688031345816e+01 1.450251779956e+01 0.0 
1.450251779956e+01 -1.450092743258e+02 0.0 
0.0 0.0 -6.616687633519e+01 
-6.132400061271e+00 -1.926901190953e-01 0.0 
-1.926901190953e-01 -2.567538201217e+01 0.0 
0.0 0.0 -9.257164897819e+00 
-1.138807424631e+02 -6.023267921847e-01 0.0 
-6.023267921847e-01 -2.768341475393e+02 0.0 
0.0 0.0 -1.168144670007e+02 
-1.309096211921e+02 1.587025073895e+00 0.0 
1.587025073895e+00 -3.067891161149e+02 0.0 
0.0 0.0 -1.309096211921e+02 
-1.329679612892e+02 2.337754465393e+00 0.0 
2.337754465393e+00 -3.083305419805e+02 0.0 
0.0 0.0 -1.319895509809e+02 
-6.496482172700e+01 7.252531331028e-01 0.0 
7.252531331028e-01 -1.266042520178e+02 0.0 
0.0 0.0 -5.707072212344e+01 
-1.072009742136e+02 6.763914293138e+00 0.0 
6.763914293138e+00 -2.925610089487e+02 0.0 
0.0 0.0 -1.195285949487e+02 
-1.317576432501e+02 3.928518625545e+00 0.0 
3.928518625545e+00 -3.087678342501e+02 0.0 
0.0 0.0 -1.317576432501e+02 
-1.143324226661e+02 1.883280718537e+01 0.0 
1.883280718537e+01 -2.795777121042e+02 0.0 
0.0 0.0 -1.177730404311e+02 
-1.264135915015e+01 -4.352581841516e-01 0.0 
-4.352581841516e-01 -4.147391980732e+01 0.0 
0.0 0.0 -1.583458368724e+01 
-6.282787267018e+00 -2.151276360166e-01 0.0 
-2.151276360166e-01 -2.542028114165e+01 0.0 
0.0 0.0 -8.502147116065e+00 
-5.616012190708e+00 8.113068751293e-02 0.0 
8.113068751293e-02 -2.513706079278e+01 0.0 
0.0 0.0 -8.825921895046e+00 
-7.162560515433e+01 -1.092685200269e+00 0.0 
-1.092685200269e+00 -1.702445450814e+02 0.0 
0.0 0.0 -7.216104507071e+01 
-1.662610249641e+02 9.790709534285e-01 0.0 
9.790709534285e-01 -3.907391475692e+02 0.0 
0.0 0.0 -1.667000517600e+02 
-1.247532429501e+02 1.033273830203e+00 0.0 
1.033273830203e+00 -2.863947017615e+02 0.0 
0.0 0.0 -1.229443834135e+02 
4.119213361127e-02 -1.722687051169e-02 0.0 
-1.722687051169e-02 -9.231008285837e+00 0.0 
0.0 0.0 -2.190800258505e+00 
-8.415394388204e+01 4.423713158379e-01 0.0 
4.423713158379e-01 -2.008327082385e+02 0.0 
0.0 0.0 -8.509599563617e+01 
-1.674614477839e+02 4.105759085086e-01 0.0 
4.105759085086e-01 -3.920767114957e+02 0.0 
0.0 0.0 -1.674614477839e+02 
-1.658612406506e+02 5.604235879537e-01 0.0 
5.604235879537e-01 -3.904627810084e+02 0.0 
0.0 0.0 -1.664972064977e+02 
-1.642932445421e+02 5.396303711267e+00 0.0 
5.396303711267e+00 -3.909523244563e+02 0.0 
0.0 0.0 -1.661736706995e+02 
-9.843967093525e+01 -6.391310248232e-01 0.0 
-6.391310248232e-01 -2.161671298960e+02 0.0 
0.0 0.0 -9.398204024937e+01 
-1.100670581689e+02 9.290739698004e-01 0.0 
9.290739698004e-01 -2.461711699330e+02 0.0 
0.0 0.0 -1.064714684306e+02 
-1.667430145511e+02 6.628512690700e-01 0.0 
6.628512690700e-01 -3.904003672858e+02 0.0 
0.0 0.0 -1.667430145511e+02 
-1.672153089176e+02 1.022441785775e+00 0.0 
1.022441785775e+00 -3.915023874743e+02 0.0 
0.0 0.0 -1.672153089176e+02 
-1.061843790303e+02 -4.143805366649e-01 0.0 
-4.143805366649e-01 -2.359715917439e+02 0.0 
0.0 0.0 -1.022467912323e+02 
-8.753070855682e-01 -3.210208697277e-01 0.0 
-3.210208697277e-01 -6.669797882766e+00 0.0 
0.0 0.0 -1.159380549590e+00 
-6.289713401331e+01 1.917908432106e-01 0.0 
1.917908432106e-01 -1.256381598881e+02 0.0 
0.0 0.0 -5.616058817043e+01 
-6.443451416771e+01 4.278742462515e-01 0.0 
4.278742462515e-01 -1.267216992258e+02 0.0 
0.0 0.0 -5.694686401804e+01 
-1.790783410529e-01 -1.136211918754e-01 0.0 
-1.136211918754e-01 -9.250896138323e+00 0.0 
0.0 0.0 -2.310416065956e+00 
-1.678760765228e+02 2.307414512906e+00 0.0 
2.307414512906e+00 -3.930441785532e+02 0.0 
0.0 0.0 -1.678760765228e+02 
-1.642994249069e+02 4.184755227050e+00 0.0 
4.184755227050e+00 -3.907783165077e+02 0.0 
0.0 0.0 -1.661233224244e+02 
-1.673832992810e+02 3.813930026831e+00 0.0 
3.813930026831e+00 -3.918943649890e+02 0.0 
0.0 0.0 -1.673832992810e+02 
-1.120593443197e+00 -7.902898351918e-02 0.0 
-7.902898351918e-02 -7.748020661756e+00 0.0 
0.0 0.0 -1.466763657122e+00 
-1.414406796925e+00 -2.102178880691e-01 0.0 
-2.102178880691e-01 -7.835361068260e+00 0.0 
0.0 0.0 -1.561191397100e+00 
-1.675563157083e+02 5.907180099128e+00 0.0 
5.907180099128e+00 -3.922980699861e+02 0.0 
0.0 0.0 -1.675563157083e+02 
-1.676094525151e+02 4.864911593693e+00 0.0 
4.864911593693e+00 -3.924220558685e+02 0.0 
0.0 0.0 -1.676094525151e+02 
-9.438652060428e+01 9.681671887107e-01 0.0 
9.681671887107e-01 -2.061820262055e+02 0.0 
0.0 0.0 -8.977056404292e+01 
-6.196874365738e+01 -7.815164597381e-02 0.0 
-7.815164597381e-02 -1.252200641944e+02 0.0 
0.0 0.0 -5.575664235554e+01 
-1.024946637335e+02 9.645471870655e-01 0.0 
9.645471870655e-01 -2.261552892554e+02 0.0 
0.0 0.0 -9.819498589667e+01 
-7.857849631193e+01 9.142025277166e-01 0.0 
9.142025277166e-01 -1.665966531242e+02 0.0 
0.0 0.0 -7.315254483085e+01 
-6.196779867169e+01 -4.025779110010e-02 0.0 
-4.025779110010e-02 -1.253135359132e+02 0.0 
0.0 0.0 -5.578440037547e+01 
-3.044018285186e+00 -2.835553329565e-01 0.0 
-2.835553329565e-01 -7.208134697377e+00 0.0 
0.0 0.0 -1.926280259026e+00 
-3.619028150719e+00 1.805949253335e-01 0.0 
1.805949253335e-01 -7.872781626955e+00 0.0 
0.0 0.0 -2.133013520902e+00 
-3.872054722366e+00 -1.535724279321e-02 0.0 
-1.535724279321e-02 -7.699089854398e+00 0.0 
0.0 0.0 -2.269461403804e+00 
-4.740133233368e+00 -2.630085245425e-01 0.0 
-2.630085245425e-01 -7.641454196138e+00 0.0 
0.0 0.0 -1.636572960581e+00 
-8.829028030193e+01 -1.194754433455e+00 0.0 
-1.194754433455e+00 -2.110961321109e+02 0.0 
0.0 0.0 -8.941592372385e+01 
-8.000811878087e+01 -1.107175447495e+00 0.0 
-1.107175447495e+00 -1.905763305290e+02 0.0 
0.0 0.0 -8.077533479295e+01 
-3.130951410276e+00 -3.026007914083e-01 0.0 
-3.026007914083e-01 -9.343963321654e+00 0.0 
0.0 0.0 -4.319501890514e+00 
-1.134626285365e+02 -1.039791391704e+00 0.0 
-1.039791391704e+00 -2.706731518757e+02 0.0 
0.0 0.0 -1.148407341237e+02 
-4.663600285125e+00 -6.072518280731e-01 0.0 
-6.072518280731e-01 -9.400992096462e+00 0.0 
0.0 0.0 -4.791216887249e+00 
-1.330083836342e+02 8.292881694520e+00 0.0 
8.292881694520e+00 -3.116862284798e+02 0.0 
0.0 0.0 -1.330083836342e+02 
-1.313522455395e+02 3.263580822620e+00 0.0 
3.263580822620e+00 -3.078219062589e+02 0.0 
0.0 0.0 -1.313522455395e+02 
-1.319244846559e+02 5.639990088727e+00 0.0 
5.639990088727e+00 -3.091571308638e+02 0.0 
0.0 0.0 -1.319244846559e+02 
-2.675871967478e+01 -1.252538456782e+00 0.0 
-1.252538456782e+00 -6.898558237992e+01 0.0 
0.0 0.0 -2.832329061641e+01 
-5.449562932209e+01 -1.148897126944e+00 0.0 
-1.148897126944e+00 -1.296848462087e+02 0.0 
0.0 0.0 -5.485414265925e+01 
-1.310209962392e+02 2.641790432055e+00 0.0 
2.641790432055e+00 -3.070489912247e+02 0.0 
0.0 0.0 -1.310209962392e+02 
-1.396328548828e+02 -8.087364954493e-01 0.0 
-8.087364954493e-01 -3.306012788523e+02 0.0 
0.0 0.0 -1.406702401205e+02 
-1.318529395675e+02 2.153869343515e+00 0.0 
2.153869343515e+00 -3.089901923241e+02 0.0 
0.0 0.0 -1.318529395675e+02 
-1.484094882725e+02 -8.291496866988e-01 0.0 
-8.291496866988e-01 -3.503521595971e+02 0.0 
0.0 0.0 -1.492284943609e+02 
-1.573168249453e+02 -9.190036209078e-01 0.0 
-9.190036209078e-01 -3.700692129391e+02 0.0 
0.0 0.0 -1.578158113653e+02 
-7.581497303714e+01 4.971690194773e-01 0.0 
4.971690194773e-01 -1.804046126699e+02 0.0 
0.0 0.0 -7.646587571211e+01 
-1.330966552216e+02 3.133247181496e+00 0.0 
3.133247181496e+00 -3.082398150092e+02 0.0 
0.0 0.0 -1.320009410692e+02 
-1.328401881274e+02 1.968515484604e+00 0.0 
1.968515484604e+00 -3.084286897458e+02 0.0 
0.0 0.0 -1.319806633619e+02 
-1.436315684695e+02 8.911877584978e-01 0.0 
8.911877584978e-01 -3.395346358431e+02 0.0 
0.0 0.0 -1.445498612938e+02 
-1.526654526842e+02 9.232568130859e-01 0.0 
9.232568130859e-01 -3.597377175736e+02 0.0 
0.0 0.0 -1.533209510773e+02 
-1.221163271858e+02 1.288550131011e-01 0.0 
1.288550131011e-01 -2.926283960130e+02 0.0 
0.0 0.0 -1.240234169597e+02 
-1.959930294852e+01 -3.296462686870e+00 0.0 
-3.296462686870e+00 -9.455655319923e+00 0.0 
0.0 0.0 -9.292963663414e+00 
-7.671046940318e+01 -2.669278082441e+00 0.0 
-2.669278082441e+00 -1.858194383112e+02 0.0 
0.0 0.0 -7.835897231432e+01 
-6.778033604358e+00 -2.785823427618e-01 0.0 
-2.785823427618e-01 -2.501330768146e+01 0.0 
0.0 0.0 -8.623901146242e+00 
-1.447809786599e+02 2.246207510873e+00 0.0 
2.246207510873e+00 -3.488334706951e+02 0.0 
0.0 0.0 -1.476843348065e+02 
-7.985104368801e+01 -5.164210433015e+00 0.0 
-5.164210433015e+00 -1.971111397869e+02 0.0 
0.0 0.0 -8.268865504249e+01 
-1.343934512768e+02 -8.050613304675e-01 0.0 
-8.050613304675e-01 -3.227663358341e+02 0.0 
0.0 0.0 -1.367479361333e+02 
-4.296267011250e+01 -5.319927394242e+00 0.0 
-5.319927394242e+00 -9.978404492816e+01 0.0 
0.0 0.0 -4.242401451220e+01 
-1.678761423267e+01 -1.957836086658e+00 0.0 
-1.957836086658e+00 -4.152270042905e+01 0.0 
0.0 0.0 -1.709309439852e+01 
-1.440350035324e+02 1.113536277307e+00 0.0 
1.113536277307e+00 -3.425613044740e+02 0.0 
0.0 0.0 -1.455788924019e+02 
-8.523480436415e+01 -2.298451675016e+00 0.0 
-2.298451675016e+00 -2.060651559664e+02 0.0 
0.0 0.0 -8.698998809916e+01 
-6.715943936646e+01 -1.740296113057e+00 0.0 
-1.740296113057e+00 -1.602591222644e+02 0.0 
0.0 0.0 -6.782556848927e+01 
-1.353356383604e+02 7.520081944352e-01 0.0 
7.520081944352e-01 -3.235193358817e+02 0.0 
0.0 0.0 -1.372564922727e+02 
-1.164961903720e+02 3.396209207321e-01 0.0 
3.396209207321e-01 -2.640407145452e+02 0.0 
0.0 0.0 -1.137610714751e+02 
-6.744149763224e+01 5.087640398343e-01 0.0 
5.087640398343e-01 -1.603191900482e+02 0.0 
0.0 0.0 -6.792820630414e+01 
-1.205204172157e+02 3.419643190271e+00 0.0 
3.419643190271e+00 -3.102327777302e+02 0.0 
0.0 0.0 -1.288259584838e+02 
-1.071369111994e+02 -2.573435057442e+00 0.0 
-2.573435057442e+00 -2.721695751017e+02 0.0 
0.0 0.0 -1.133919458903e+02 
-1.210500109342e+02 -1.593415041076e+00 0.0 
-1.593415041076e+00 -2.917963179339e+02 0.0 
0.0 0.0 -1.234538986604e+02 
-1.253250734579e+02 -1.243272360472e+00 0.0 
-1.243272360472e+00 -3.002735783013e+02 0.0 
0.0 0.0 -1.272795955278e+02 
-5.189849776881e+01 1.297169481900e+01 0.0 
1.297169481900e+01 -1.832374277630e+02 0.0 
0.0 0.0 -7.014077765956e+01 
-6.917997628020e+01 1.369932276307e+01 0.0 
1.369932276307e+01 -1.244233797473e+02 0.0 
0.0 0.0 -5.768100680825e+01 
-7.279728170492e+01 2.237739098342e+01 0.0 
2.237739098342e+01 -1.851375272542e+02 0.0 
0.0 0.0 -7.698044268774e+01 
-1.123448097729e+02 -2.298795188387e+00 0.0 
-2.298795188387e+00 -2.758089200414e+02 0.0 
0.0 0.0 -1.160461189443e+02 
-1.394460833196e+02 9.049657571281e-01 0.0 
9.049657571281e-01 -3.316923179656e+02 0.0 
0.0 0.0 -1.409415203856e+02 
-1.295796897097e+02 -1.064237095361e+00 0.0 
-1.064237095361e+00 -3.090323388658e+02 0.0 
0.0 0.0 -1.311836085727e+02 
-4.595980913008e+01 -1.117481947593e+01 0.0 
-1.117481947593e+01 -1.069222286566e+02 0.0 
0.0 0.0 -4.546461133600e+01 
-1.165412937798e+02 1.125986476468e+00 0.0 
1.125986476468e+00 -2.630176010473e+02 0.0 
0.0 0.0 -1.134676684481e+02 
-1.088156983563e+02 8.813056923013e-01 0.0 
8.813056923013e-01 -2.427364663614e+02 0.0 
0.0 0.0 -1.050656494153e+02 
-7.333728144355e+01 -4.696640930672e-01 0.0 
-4.696640930672e-01 -1.519736795444e+02 0.0 
0.0 0.0 -6.719328829639e+01 
-1.165200885229e+02 -1.900269026800e+00 0.0 
-1.900269026800e+00 -2.875071609851e+02 0.0 
0.0 0.0 -1.208081748524e+02 
-1.167438169714e+02 -1.913862115833e+00 0.0 
-1.913862115833e+00 -2.837586008740e+02 0.0 
0.0 0.0 -1.197507253536e+02 
-1.171543819826e+02 2.128823594082e+00 0.0 
2.128823594082e+00 -2.650386616560e+02 0.0 
0.0 0.0 -1.142579130916e+02 
-1.128270044704e+02 7.456536649651e-01 0.0 
7.456536649651e-01 -2.535946915244e+02 0.0 
0.0 0.0 -1.095265087985e+02 
-1.048552925353e+02 -1.519578195835e+00 0.0 
-1.519578195835e+00 -2.660696618763e+02 0.0 
0.0 0.0 -1.108774863235e+02 
-1.481876261266e+02 1.105224511580e+00 0.0 
1.105224511580e+00 -3.506794667131e+02 0.0 
0.0 0.0 -1.492601278519e+02 
-1.085414137617e+02 2.560353088513e+00 0.0 
2.560353088513e+00 -2.392394338198e+02 0.0 
0.0 0.0 -1.039342542744e+02 
-1.300379728021e+02 6.077840090156e-01 0.0 
6.077840090156e-01 -3.092264982630e+02 0.0 
0.0 0.0 -1.313793413195e+02 
-1.496660325155e+02 2.246363667359e+00 0.0 
2.246363667359e+00 -3.575804891389e+02 0.0 
0.0 0.0 -1.517739564963e+02 
-1.171129076026e+02 3.012891158733e+00 0.0 
3.012891158733e+00 -2.637070987848e+02 0.0 
0.0 0.0 -1.138460019162e+02 
-9.835238920686e+01 2.488272311447e+00 0.0 
2.488272311447e+00 -2.125212846345e+02 0.0 
0.0 0.0 -9.286210215240e+01 
-1.164266697950e+02 1.887321145311e+00 0.0 
1.887321145311e+00 -2.998161865882e+02 0.0 
0.0 0.0 -1.244728569149e+02 
-4.228383127850e+01 -3.229078368660e+00 0.0 
-3.229078368660e+00 -1.004155444853e+02 0.0 
0.0 0.0 -4.240981272915e+01 
-4.401557265256e+01 -1.294055343900e+01 0.0 
-1.294055343900e+01 -1.008868577986e+02 0.0 
0.0 0.0 -4.307072913534e+01 
-2.194091172779e+01 -2.353473545519e+00 0.0 
-2.353473545519e+00 -4.856863183765e+01 0.0 
0.0 0.0 -2.075286306963e+01 
-2.993310945319e+01 -1.196062520402e+01 0.0 
-1.196062520402e+01 -3.390089396845e+01 0.0 
0.0 0.0 -1.782377941085e+01 
-1.134729187521e+02 2.424683202466e+00 0.0 
2.424683202466e+00 -2.541038221628e+02 0.0 
0.0 0.0 -1.098730222745e+02 
-1.429425055350e+02 -6.821669254369e-01 0.0 
-6.821669254369e-01 -3.392083460645e+02 0.0 
0.0 0.0 -1.442452554798e+02 
-1.908158719218e+01 -6.393101990228e+00 0.0 
-6.393101990228e+00 -2.843626608089e+01 0.0 
0.0 0.0 -1.313061045617e+01 
-1.244649825930e+02 1.336440071182e+01 0.0 
1.336440071182e+01 -2.701565170576e+02 0.0 
0.0 0.0 -1.179864498952e+02 
-7.758622977628e+01 -1.362822114888e-01 0.0 
-1.362822114888e-01 -1.610467219942e+02 0.0 
0.0 0.0 -7.118988553113e+01 
-1.312230859363e+02 6.330882638186e-01 0.0 
6.330882638186e-01 -3.156908175721e+02 0.0 
0.0 0.0 -1.336741710525e+02 
-1.340056328503e+02 -9.435104901786e-01 0.0 
-9.435104901786e-01 -3.196892530786e+02 0.0 
0.0 0.0 -1.357084657787e+02 
-5.577528425777e+01 -1.149712959328e+01 0.0 
-1.149712959328e+01 -1.558696549694e+02 0.0 
0.0 0.0 -6.309348176815e+01 
-1.346695419831e+02 7.201901946409e-01 0.0 
7.201901946409e-01 -3.203134985218e+02 0.0 
0.0 0.0 -1.360949121515e+02 
-7.398848772481e+01 1.620476046990e+00 0.0 
1.620476046990e+00 -1.521864039422e+02 0.0 
0.0 0.0 -6.745246750009e+01 
-1.079815663197e+02 1.377801322791e+01 0.0 
1.377801322791e+01 -2.875066443154e+02 0.0 
0.0 0.0 -1.182464631905e+02 
-1.537762895854e+02 3.890909952195e-01 0.0 
3.890909952195e-01 -3.654732422260e+02 0.0 
0.0 0.0 -1.553748595434e+02 
-4.006836696856e+01 -1.887630902854e+00 0.0 
-1.887630902854e+00 -9.671369306368e+01 0.0 
0.0 0.0 -4.063461800967e+01 
-1.494862137842e+02 2.965929828195e+00 0.0 
2.965929828195e+00 -3.599132906863e+02 0.0 
0.0 0.0 -1.524198513411e+02 
-1.022449349712e+02 2.278782807787e+00 0.0 
2.278782807787e+00 -2.234390931518e+02 0.0 
0.0 0.0 -9.730520843688e+01 
-4.571887577771e+01 -2.787706492366e+00 0.0 
-2.787706492366e+00 -1.089047406189e+02 0.0 
0.0 0.0 -4.598708491897e+01 
-5.086604767833e+01 -1.054808789504e+01 0.0 
-1.054808789504e+01 -1.230858654255e+02 0.0 
0.0 0.0 -5.178557393114e+01 
-9.573088436472e+01 -2.206641078147e+00 0.0 
-2.206641078147e+00 -2.300350346796e+02 0.0 
0.0 0.0 -9.732977571328e+01 
-8.941350001619e+01 7.886554653603e-01 0.0 
7.886554653603e-01 -1.902345357787e+02 0.0 
0.0 0.0 -8.349441073847e+01 
-6.452884172092e+01 -6.070734383518e+00 0.0 
-6.070734383518e+00 -1.565374061919e+02 0.0 
0.0 0.0 -6.591987437386e+01 
-1.060814688552e+02 2.166810413551e+00 0.0 
2.166810413551e+00 -2.342535224582e+02 0.0 
0.0 0.0 -1.017004973940e+02 
-9.437083718901e+01 2.101744854862e+00 0.0 
2.101744854862e+00 -2.029721359017e+02 0.0 
0.0 0.0 -8.880289192721e+01 
-9.186967528804e+01 -3.729692492331e+00 0.0 
-3.729692492331e+00 -2.250526475540e+02 0.0 
0.0 0.0 -9.467669685262e+01 
-1.259472580206e+02 4.054535640925e-01 0.0 
4.054535640925e-01 -3.007074271907e+02 0.0 
0.0 0.0 -1.275964055634e+02 
-1.306981651339e+02 5.605528519862e-01 0.0 
5.605528519862e-01 -3.122116711943e+02 0.0 
0.0 0.0 -1.324729508985e+02 
-1.011910833689e+02 5.288656030101e-01 0.0 
5.288656030101e-01 -2.226356932973e+02 0.0 
0.0 0.0 -9.674803299984e+01 
-3.501985494988e+01 -1.882808078180e+00 0.0 
-1.882808078180e+00 -8.397442251901e+01 0.0 
0.0 0.0 -3.529828324067e+01 
-8.783728782797e+01 -3.515421010891e+00 0.0 
-3.515421010891e+00 -2.132717926285e+02 0.0 
0.0 0.0 -8.993272413694e+01 
-1.278335442742e+02 1.553585314686e+01 0.0 
1.553585314686e+01 -3.184323662975e+02 0.0 
0.0 0.0 -1.334797731715e+02 
-1.059837952787e+02 2.851106275506e+00 0.0 
2.851106275506e+00 -2.325466276866e+02 0.0 
0.0 0.0 -1.011591268896e+02 
-7.964706296343e+01 -4.057365275019e+00 0.0 
-4.057365275019e+00 -1.928281933309e+02 0.0 
0.0 0.0 -8.134257688828e+01 
-1.094121624100e+02 -1.094264447302e+00 0.0 
-1.094264447302e+00 -2.734725455881e+02 0.0 
0.0 0.0 -1.144654123994e+02 
-1.451185279491e+02 3.419039974453e+00 0.0 
3.419039974453e+00 -3.523983932014e+02 0.0 
0.0 0.0 -1.488550763452e+02 
-9.751333141509e+01 7.751286771252e-01 0.0 
7.751286771252e-01 -2.118782173668e+02 0.0 
0.0 0.0 -9.241746463455e+01 
-3.056422937582e+01 -7.836208073656e+00 0.0 
-7.836208073656e+00 -1.217802365763e+02 0.0 
0.0 0.0 -4.781469467459e+01 
-1.886964994808e+01 -1.128494081592e+00 0.0 
-1.128494081592e+00 -4.672808500767e+01 0.0 
0.0 0.0 -1.927932048673e+01 
-2.946009697283e+01 5.392605926944e+00 0.0 
5.392605926944e+00 -1.396606641376e+02 0.0 
0.0 0.0 -5.003656809854e+01 
-1.386952351875e+02 -7.570887449345e-01 0.0 
-7.570887449345e-01 -3.310146228269e+02 0.0 
0.0 0.0 -1.405129574043e+02 
-9.340129205453e+01 8.231472299058e-01 0.0 
8.231472299058e-01 -2.010365442203e+02 0.0 
0.0 0.0 -8.793135088246e+01 
-1.049126929351e+02 1.024582994558e-01 0.0 
1.024582994558e-01 -2.505593666848e+02 0.0 
0.0 0.0 -1.062416178860e+02 
-8.157055410985e+01 3.453417030898e-01 0.0 
3.453417030898e-01 -1.705196487276e+02 0.0 
0.0 0.0 -7.522706085125e+01 
-1.347728793669e+02 6.056081196521e+00 0.0 
6.056081196521e+00 -3.385077961739e+02 0.0 
0.0 0.0 -1.415842026622e+02 
-9.595219591278e+01 -3.038695233754e+00 0.0 
-3.038695233754e+00 -2.331738494199e+02 0.0 
0.0 0.0 -9.833781359980e+01 
-1.298471480866e+02 -1.115342938608e+00 0.0 
-1.115342938608e+00 -3.114834233585e+02 0.0 
0.0 0.0 -1.319991714335e+02 
-4.181139225541e+01 -1.024758844195e+00 0.0 
-1.024758844195e+00 -1.007267270020e+02 0.0 
0.0 0.0 -4.236143577722e+01 
-1.488776369161e+02 5.445052401850e-01 0.0 
5.445052401850e-01 -3.573438960361e+02 0.0 
0.0 0.0 -1.514664598857e+02 
-9.325492828764e+01 -1.806216705835e+00 0.0 
-1.806216705835e+00 -2.260732983606e+02 0.0 
0.0 0.0 -9.539846799446e+01 
-4.532170742205e+01 -5.057517657488e-01 0.0 
-5.057517657488e-01 -1.092446829327e+02 0.0 
0.0 0.0 -4.596991710643e+01 
-8.889984149695e+01 -1.447634238308e+00 0.0 
-1.447634238308e+00 -2.142054483416e+02 0.0 
0.0 0.0 -9.053158695157e+01 
-6.811116326070e+01 -5.089375596589e+00 0.0 
-5.089375596589e+00 -1.646214227372e+02 0.0 
0.0 0.0 -6.941977579938e+01 
-5.400914578749e+01 -4.843426939950e+00 0.0 
-4.843426939950e+00 -1.287666371769e+02 0.0 
0.0 0.0 -5.443273488933e+01 
-1.039137965392e+02 -1.867042048251e+00 0.0 
-1.867042048251e+00 -2.495925492137e+02 0.0 
0.0 0.0 -1.056519037259e+02 
-2.029554195392e+00 9.872506235532e-02 0.0 
9.872506235532e-02 -9.625986239642e+00 0.0 
0.0 0.0 -3.165143032134e+00 
-2.758332047603e+00 -3.373260126310e-01 0.0 
-3.373260126310e-01 -9.723846237783e+00 0.0 
0.0 0.0 -3.691709775371e+00 
-1.180036387427e+02 -2.015782625275e-01 0.0 
-2.015782625275e-01 -2.846690768979e+02 0.0 
0.0 0.0 -1.204018146922e+02 
-3.837684989588e+01 -1.479581461464e+00 0.0 
-1.479581461464e+00 -9.245989544522e+01 0.0 
0.0 0.0 -3.885102360233e+01 
-1.182120734499e+02 -2.914948614977e-01 0.0 
-2.914948614977e-01 -2.885780555434e+02 0.0 
0.0 0.0 -1.216370386980e+02 
-1.138686513363e+02 -6.835443120780e-01 0.0 
-6.835443120780e-01 -2.809859928551e+02 0.0 
0.0 0.0 -1.180563932574e+02 
-7.184370930576e+01 -7.115484079442e+00 0.0 
-7.115484079442e+00 -1.814997016764e+02 0.0 
0.0 0.0 -7.560302329466e+01 
-4.604779391125e+01 -1.461862756968e+01 0.0 
-1.461862756968e+01 -1.312463512123e+02 0.0 
0.0 0.0 -5.278824353707e+01 
-1.134601673952e+02 4.167926135860e+00 0.0 
4.167926135860e+00 -2.509667412646e+02 0.0 
0.0 0.0 -1.089280725979e+02 
-2.897983067455e+01 2.709011939992e+01 0.0 
2.709011939992e+01 -9.647249887274e+01 0.0 
0.0 0.0 -3.895919649066e+01 
-7.177290364235e+01 -4.170429767653e+00 0.0 
-4.170429767653e+00 -1.730965408726e+02 0.0 
0.0 0.0 -7.306083335448e+01 
-1.394937601292e+02 7.642542937891e+00 0.0 
7.642542937891e+00 -3.475667929144e+02 0.0 
0.0 0.0 -1.457181659131e+02 
-3.327326891486e+01 -2.790170460403e+00 0.0 
-2.790170460403e+00 -7.969965338909e+01 0.0 
0.0 0.0 -3.349187669119e+01 
-8.655181254152e+01 2.044308904542e+00 0.0 
2.044308904542e+00 -1.819220387043e+02 0.0 
0.0 0.0 -8.014215537374e+01 
-7.845670649545e+01 1.712479675012e+00 0.0 
1.712479675012e+00 -1.617704606401e+02 0.0 
0.0 0.0 -7.166815014066e+01 
-3.453550377392e+01 -4.195202776780e+00 0.0 
-4.195202776780e+00 -7.866534971344e+01 0.0 
0.0 0.0 -3.356025604621e+01 
-1.402147484049e+02 3.715931530037e+00 0.0 
3.715931530037e+00 -3.444966127311e+02 0.0 
0.0 0.0 -1.450134083408e+02 
-1.024754404376e+02 3.738292747828e+00 0.0 
3.738292747828e+00 -2.201277193715e+02 0.0 
0.0 0.0 -9.638094794273e+01 
-3.911579633011e+01 -3.666782459291e+00 0.0 
-3.666782459291e+00 -9.213965529177e+01 0.0 
0.0 0.0 -3.897663548657e+01 
-1.170500198520e+02 4.832915391493e+00 0.0 
4.832915391493e+00 -2.599659693187e+02 0.0 
0.0 0.0 -1.127047967512e+02 
-1.155361736957e+02 3.239623173608e+00 0.0 
3.239623173608e+00 -2.589685654815e+02 0.0 
0.0 0.0 -1.119514217532e+02 
-4.366464763833e+01 -2.379598659346e+00 0.0 
-2.379598659346e+00 -1.038680332542e+02 0.0 
0.0 0.0 -4.385980426777e+01 
-4.691692694575e+01 2.570348192350e+01 0.0 
2.570348192350e+01 -8.953162612323e+01 0.0 
0.0 0.0 -4.053456592069e+01 
-4.588227902361e+01 -4.428726788508e+00 0.0 
-4.428726788508e+00 -1.078844028000e+02 0.0 
0.0 0.0 -4.573000454709e+01 
-1.266930177587e+02 3.221821875709e-01 0.0 
3.221821875709e-01 -3.041870011303e+02 0.0 
0.0 0.0 -1.288640056667e+02 
-9.997645863383e+01 -2.422151475800e+00 0.0 
-2.422151475800e+00 -2.414247780976e+02 0.0 
0.0 0.0 -1.020203710194e+02 
-1.211012342756e+02 9.588192557541e+00 0.0 
9.588192557541e+00 -2.670568223013e+02 0.0 
0.0 0.0 -1.160474169731e+02 
-1.121894145959e+02 2.379169015372e+00 0.0 
2.379169015372e+00 -2.501252864599e+02 0.0 
0.0 0.0 -1.082944103168e+02 
-1.224848302679e+02 4.086452827226e-02 0.0 
4.086452827226e-02 -2.963224910263e+02 0.0 
0.0 0.0 -1.252421963882e+02 
-1.210650303235e+02 -1.594892472279e+00 0.0 
-1.594892472279e+00 -2.953621639246e+02 0.0 
0.0 0.0 -1.245281582744e+02 
-3.890807928405e+01 -6.165973553683e+00 0.0 
-6.165973553683e+00 -8.711252027825e+01 0.0 
0.0 0.0 -3.740617986869e+01 
-1.255069677528e+02 -1.336300246043e+00 0.0 
-1.336300246043e+00 -3.033208184689e+02 0.0 
0.0 0.0 -1.282483358665e+02 
-1.010844303715e+02 1.949378744504e+00 0.0 
1.949378744504e+00 -2.192365974017e+02 0.0 
0.0 0.0 -9.569630833194e+01 
-1.009609066744e+02 -5.288767374564e-01 0.0 
-5.288767374564e-01 -2.422619167643e+02 0.0 
0.0 0.0 -1.025668470316e+02 
-9.450097465560e+01 2.532513007580e+00 0.0 
2.532513007580e+00 -2.017893574728e+02 0.0 
0.0 0.0 -8.848709963853e+01 
-1.061100352024e+02 3.636825326359e+00 0.0 
3.636825326359e+00 -2.309008517003e+02 0.0 
0.0 0.0 -1.007032660708e+02 
-7.280177845827e+01 1.423222181306e+01 0.0 
1.423222181306e+01 -2.189525459869e+02 0.0 
0.0 0.0 -8.712629733355e+01 
-1.085640482184e+02 1.713610874652e+00 0.0 
1.713610874652e+00 -2.409300070436e+02 0.0 
0.0 0.0 -1.044482165786e+02 
-8.391788814178e+01 -3.267893473996e+00 0.0 
-3.267893473996e+00 -2.024980525283e+02 0.0 
0.0 0.0 -8.552478220103e+01 
-9.707299106688e+01 -1.100373072649e+00 0.0 
-1.100373072649e+00 -2.340850451342e+02 0.0 
0.0 0.0 -9.894741086033e+01 
-6.389826220352e+01 -4.563492648788e+00 0.0 
-4.563492648788e+00 -1.529497370698e+02 0.0 
0.0 0.0 -6.465439978199e+01 
-6.660356843257e+01 -7.590605890815e+00 0.0 
-7.590605890815e+00 -1.688399636282e+02 0.0 
0.0 0.0 -7.023305961823e+01 
-9.723351863794e+01 1.331226797770e+00 0.0 
1.331226797770e+00 -2.100961116619e+02 0.0 
0.0 0.0 -9.179888908995e+01 
-8.744975285032e+01 -3.830616632021e+00 0.0 
-3.830616632021e+00 -2.329329646073e+02 0.0 
0.0 0.0 -9.571481523730e+01 
-4.898708838400e+01 -3.576488495910e+00 0.0 
-3.576488495910e+00 -1.161215383480e+02 0.0 
0.0 0.0 -4.913258801960e+01 
-2.528474563893e+01 -2.665062498868e+00 0.0 
-2.665062498868e+00 -5.783214632317e+01 0.0 
0.0 0.0 -2.453506758863e+01 
-9.851520705113e+01 3.080433816129e+00 0.0 
3.080433816129e+00 -2.109339036524e+02 0.0 
0.0 0.0 -9.243473321107e+01 
-4.935403456557e+01 -6.010740867668e+00 0.0 
-6.010740867668e+00 -1.157368655450e+02 0.0 
0.0 0.0 -4.912727003316e+01 
-1.490324714114e+02 1.700109883206e+00 0.0 
1.700109883206e+00 -3.595383766929e+02 0.0 
0.0 0.0 -1.521712544313e+02 
-1.011295237854e+02 1.265195698750e+00 0.0 
1.265195698750e+00 -2.209317909455e+02 0.0 
0.0 0.0 -9.621839441926e+01 
-1.299877912642e+02 -9.540546961635e-01 0.0 
-9.540546961635e-01 -3.148222810366e+02 0.0 
0.0 0.0 -1.330430216902e+02 
-1.552078840984e+02 1.128883036525e+01 0.0 
1.128883036525e+01 -3.719188091982e+02 0.0 
0.0 0.0 -1.577380079890e+02 
-8.065188485000e+01 -1.772615276784e+00 0.0 
-1.772615276784e+00 -1.939371743040e+02 0.0 
0.0 0.0 -8.197671774619e+01 
-4.437180783119e+01 -4.796649049984e+00 0.0 
-4.796649049984e+00 -1.036333618096e+02 0.0 
0.0 0.0 -4.400155089223e+01 
-3.059901841104e+01 -5.017773538004e+00 0.0 
-5.017773538004e+00 -6.653816820674e+01 0.0 
0.0 0.0 -2.874115598534e+01 
-1.225044935936e+02 1.958075381728e-01 0.0 
1.958075381728e-01 -3.002040953799e+02 0.0 
0.0 0.0 -1.264125766921e+02 
-8.965187663166e+01 3.626331271224e-01 0.0 
3.626331271224e-01 -1.920879963932e+02 0.0 
0.0 0.0 -8.412196190745e+01 
-2.144621085322e+01 -3.513332144288e+00 0.0 
-3.513332144288e+00 -4.696362961341e+01 0.0 
0.0 0.0 -2.012295213999e+01 
-6.542747718080e+01 -3.845689436894e+00 0.0 
-3.845689436894e+00 -1.574076177938e+02 0.0 
0.0 0.0 -6.645052849236e+01 
-3.666264389087e+01 -3.464050493520e-01 0.0 
-3.464050493520e-01 -8.957575507150e+01 0.0 
0.0 0.0 -3.747151968871e+01 
-9.069059123068e+01 2.501314960625e+00 0.0 
2.501314960625e+00 -1.910619800465e+02 0.0 
0.0 0.0 -8.412577138315e+01 
-6.913029787212e+01 -2.875300527825e+00 0.0 
-2.875300527825e+00 -1.655385222106e+02 0.0 
0.0 0.0 -7.000064602481e+01 
-1.118842925290e+02 -2.227954041562e+00 0.0 
-2.227954041562e+00 -2.797953042761e+02 0.0 
0.0 0.0 -1.171038790415e+02 
-6.398856895969e+01 -2.110482440260e+00 0.0 
-2.110482440260e+00 -1.533542890299e+02 0.0 
0.0 0.0 -6.480285739688e+01 
-1.097218796520e+02 2.698992443700e+00 0.0 
2.698992443700e+00 -2.434609725362e+02 0.0 
0.0 0.0 -1.055548556565e+02 
-5.698593790840e+01 -6.214196884666e+00 0.0 
-6.214196884666e+00 -1.362059312936e+02 0.0 
0.0 0.0 -5.755756076059e+01 
-1.221407817662e+02 7.249574555156e-01 0.0 
7.249574555156e-01 -3.040361571942e+02 0.0 
0.0 0.0 -1.274530816881e+02 
-4.464648938946e+01 -1.040057163125e+01 0.0 
-1.040057163125e+01 -1.017239504029e+02 0.0 
0.0 0.0 -4.351113193770e+01 
-1.179852898209e+02 -7.105589087790e-02 0.0 
-7.105589087790e-02 -2.925988736482e+02 0.0 
0.0 0.0 -1.227752490407e+02 
-9.285403631832e+01 -9.372889908886e-01 0.0 
-9.372889908886e-01 -2.229054916210e+02 0.0 
0.0 0.0 -9.432785838180e+01 
-1.254154274759e+02 -1.127694386493e+00 0.0 
-1.127694386493e+00 -3.069238946099e+02 0.0 
0.0 0.0 -1.293017966258e+02 
-4.710694455391e+01 5.686183352023e-01 0.0 
5.686183352023e-01 -1.790312328253e+02 0.0 
0.0 0.0 -6.744145321377e+01 
-3.681923570514e+01 -2.555558494155e+00 0.0 
-2.555558494155e+00 -8.883878890198e+01 0.0 
0.0 0.0 -3.729740738214e+01 
-8.266750527964e+01 1.654609477931e+00 0.0 
1.654609477931e+00 -1.728174111161e+02 0.0 
0.0 0.0 -7.624547491873e+01 
-1.043343417218e+02 5.148833902194e+00 0.0 
5.148833902194e+00 -2.845346040821e+02 0.0 
0.0 0.0 -1.162606837412e+02 
-7.052257513441e+01 2.023970248415e+01 0.0 
2.023970248415e+01 -1.545987050989e+02 0.0 
0.0 0.0 -6.713638406998e+01 
-9.048833064981e+01 2.103506828377e+00 0.0 
2.103506828377e+00 -1.925276253504e+02 0.0 
0.0 0.0 -8.450478680005e+01 
-4.840642607442e+01 -1.248176279293e+01 0.0 
-1.248176279293e+01 -1.175574614861e+02 0.0 
0.0 0.0 -4.938916626816e+01 
-9.365571152415e+01 2.013902246992e+00 0.0 
2.013902246992e+00 -1.978997391463e+02 0.0 
0.0 0.0 -8.706663520113e+01 
-3.247079658287e+01 -6.171663610548e-01 0.0 
-6.171663610548e-01 -8.056948941888e+01 0.0 
0.0 0.0 -3.351208580053e+01 
-1.403664387189e+02 2.483434593694e+00 0.0 
2.483434593694e+00 -3.416368869006e+02 0.0 
0.0 0.0 -1.442009976859e+02 
-1.085229386722e+02 7.265457539446e+00 0.0 
7.265457539446e+00 -2.932291755851e+02 0.0 
0.0 0.0 -1.201256342772e+02 
-1.130618013315e+02 1.526969196079e+01 0.0 
1.526969196079e+01 -2.939149365146e+02 0.0 
0.0 0.0 -1.216930213538e+02 
-1.206083723072e+02 4.674429865512e+00 0.0 
4.674429865512e+00 -2.714024947675e+02 0.0 
0.0 0.0 -1.172032601224e+02 
-9.543778486187e+01 -2.271841084516e+00 0.0 
-2.271841084516e+00 -2.516262659722e+02 0.0 
0.0 0.0 -1.037192152502e+02 
-3.602481869728e+01 -4.170117146847e+00 0.0 
-4.170117146847e+00 -8.367906080147e+01 0.0 
0.0 0.0 -3.551116384963e+01 
-1.086330503597e+02 -6.102766291590e-01 0.0 
-6.102766291590e-01 -2.776547077635e+02 0.0 
0.0 0.0 -1.154863274370e+02 
-1.439641436314e+02 2.065539111463e+00 0.0 
2.065539111463e+00 -3.516091011512e+02 0.0 
0.0 0.0 -1.482719734348e+02 
-5.628366103965e+01 -1.164290231982e+01 0.0 
-1.164290231982e+01 -1.531038963487e+02 0.0 
0.0 0.0 -6.241626721652e+01 
-1.269174300656e+02 4.395285792372e-01 0.0 
4.395285792372e-01 -3.079025775564e+02 0.0 
0.0 0.0 -1.300460022866e+02 
-1.022321124698e+02 3.011615426336e+00 0.0 
3.011615426336e+00 -2.216933093213e+02 0.0 
0.0 0.0 -9.677762653734e+01 
-4.157740924109e+01 -1.572823375103e+01 0.0 
-1.572823375103e+01 -1.275548776505e+02 0.0 
0.0 0.0 -5.033968606749e+01 
-1.133644613143e+02 -3.501304480134e-01 0.0 
-3.501304480134e-01 -2.850866546392e+02 0.0 
0.0 0.0 -1.191353347860e+02 
-8.291127333358e+01 2.475473020587e+00 0.0 
2.475473020587e+00 -1.695908548877e+02 0.0 
0.0 0.0 -7.535063846638e+01 
-5.065237607739e+01 -1.294766906284e+00 0.0 
-1.294766906284e+00 -1.209860169869e+02 0.0 
0.0 0.0 -5.109151791929e+01 
-6.195575528446e+01 -4.875159093747e+00 0.0 
-4.875159093747e+00 -1.494964802537e+02 0.0 
0.0 0.0 -6.303567066146e+01 
-8.349759204787e+01 2.122908835916e+01 0.0 
2.122908835916e+01 -1.941433240352e+02 0.0 
0.0 0.0 -8.289227482493e+01 
-1.207258474576e+02 -1.321697965780e+00 0.0 
-1.321697965780e+00 -2.991159991329e+02 0.0 
0.0 0.0 -1.255525539771e+02 
-6.383722216937e+01 2.058102862881e+01 0.0 
2.058102862881e+01 -1.229492066660e+02 0.0 
0.0 0.0 -5.563592865062e+01 
-7.821222771298e+01 2.196521551535e+01 0.0 
2.196521551535e+01 -1.893596930572e+02 0.0 
0.0 0.0 -7.987157623106e+01 
-9.737216068696e+01 1.993091275170e+00 0.0 
1.993091275170e+00 -2.085274237719e+02 0.0 
0.0 0.0 -9.136987533765e+01 
-8.551517737602e+01 3.134734941828e-01 0.0 
3.134734941828e-01 -1.811932871798e+02 0.0 
0.0 0.0 -7.961253936676e+01 
-8.575582747665e+01 1.275166711411e+00 0.0 
1.275166711411e+00 -1.780458041507e+02 0.0 
0.0 0.0 -7.874048948819e+01 
-9.192069783194e+01 -2.726927020777e+00 0.0 
-2.726927020777e+00 -2.219529292960e+02 0.0 
0.0 0.0 -9.376208813837e+01 
-1.352452660442e+02 4.085237324705e+00 0.0 
4.085237324705e+00 -3.366167899268e+02 0.0 
0.0 0.0 -1.411586167913e+02 
-1.037885714822e+02 -8.084600988537e-01 0.0 
-8.084600988537e-01 -2.702886333647e+02 0.0 
0.0 0.0 -1.118231614541e+02 
-8.252424504931e+01 1.965689339890e+00 0.0 
1.965689339890e+00 -1.711909088822e+02 0.0 
0.0 0.0 -7.571454617946e+01 
-1.289319987120e+02 1.514214531737e+01 0.0 
1.514214531737e+01 -2.831896019725e+02 0.0 
0.0 0.0 -1.232364802054e+02 
-1.182339491667e+02 1.653406963733e+01 0.0 
1.653406963733e+01 -3.001364181588e+02 0.0 
0.0 0.0 -1.251111101977e+02 
-1.159338676992e+02 -1.528283851251e+00 0.0 
-1.528283851251e+00 -2.914082763241e+02 0.0 
0.0 0.0 -1.218026432070e+02 
-1.048301172267e+02 1.866428934763e+00 0.0 
1.866428934763e+00 -2.300596605439e+02 0.0 
0.0 0.0 -1.000669333312e+02 
-7.012528558263e+01 -6.285051006914e+00 0.0 
-6.285051006914e+00 -1.755005363156e+02 0.0 
0.0 0.0 -7.328774656948e+01 
-6.623119917672e+01 -5.716750300659e+00 0.0 
-5.716750300659e+00 -1.624186981901e+02 0.0 
0.0 0.0 -6.819496921003e+01 
-3.719357644167e+01 -3.575679950154e+00 0.0 
-3.575679950154e+00 -8.695662532470e+01 0.0 
0.0 0.0 -3.684506052991e+01 
-1.124689525233e+02 5.353554924330e-01 0.0 
5.353554924330e-01 -2.889234118454e+02 0.0 
0.0 0.0 -1.200177093106e+02 
-6.975037914069e+01 -4.587457592892e+00 0.0 
-4.587457592892e+00 -1.700152455270e+02 0.0 
0.0 0.0 -7.152968740030e+01 
-9.478047712032e+01 3.131833050288e+00 0.0 
3.131833050288e+00 -2.001645864812e+02 0.0 
0.0 0.0 -8.808351908046e+01 
-9.104019085279e+01 3.160023424614e+00 0.0 
3.160023424614e+00 -1.894899224046e+02 0.0 
0.0 0.0 -8.375903397722e+01 
-7.567888499933e+01 1.118300338246e+01 0.0 
1.118300338246e+01 -2.296441929539e+02 0.0 
0.0 0.0 -9.119692338595e+01 
-5.767146218068e+01 -8.269332404858e+00 0.0 
-8.269332404858e+00 -1.409154268942e+02 0.0 
0.0 0.0 -5.917606672246e+01 
-4.481766166710e+01 1.382490604194e+01 0.0 
1.382490604194e+01 -1.689153874326e+02 0.0 
0.0 0.0 -6.371991472990e+01 
-6.103851152817e+01 -7.126137444909e+00 0.0 
-7.126137444909e+00 -1.486083864739e+02 0.0 
0.0 0.0 -6.249406940063e+01 
-6.464017784503e+01 -7.828295465616e+00 0.0 
-7.828295465616e+00 -1.612781272802e+02 0.0 
0.0 0.0 -6.737549153756e+01 
-4.148556341686e+01 -5.493599978839e+00 0.0 
-5.493599978839e+00 -9.533142309632e+01 0.0 
0.0 0.0 -4.064509595395e+01 
-1.301259204133e+02 4.542615041378e+00 0.0 
4.542615041378e+00 -3.286010429489e+02 0.0 
0.0 0.0 -1.372180890086e+02 
-7.349066705932e+01 -7.524481027819e+00 0.0 
-7.524481027819e+00 -1.999264639311e+02 0.0 
0.0 0.0 -8.162513929713e+01 
-1.097242786325e+02 3.471946183358e+00 0.0 
3.471946183358e+00 -2.417196527635e+02 0.0 
0.0 0.0 -1.050331794188e+02 
-7.621793238143e+01 -6.455581420238e+00 0.0 
-6.455581420238e+00 -2.124698409736e+02 0.0 
0.0 0.0 -8.620633200652e+01 
-1.060556164926e+02 -1.854342645817e+00 0.0 
-1.854342645817e+00 -2.762905709533e+02 0.0 
0.0 0.0 -1.143038562338e+02 
-8.900495473152e+01 -4.570161679725e+00 0.0 
-4.570161679725e+00 -2.382590245853e+02 0.0 
0.0 0.0 -9.777919379503e+01 
-7.526995746907e+01 2.111979381796e+01 0.0 
2.111979381796e+01 -1.998889675412e+02 0.0 
0.0 0.0 -8.214767750309e+01 
-4.044981813126e+01 -3.024313516149e+00 0.0 
-3.024313516149e+00 -9.547765138387e+01 0.0 
0.0 0.0 -4.037824085454e+01 
-1.387632682880e+02 2.507226776604e+00 0.0 
2.507226776604e+00 -3.435645178702e+02 0.0 
0.0 0.0 -1.442983358475e+02 
-1.453708114174e+02 5.028794808956e+00 0.0 
5.028794808956e+00 -3.558906684948e+02 0.0 
0.0 0.0 -1.499784439737e+02 
-1.049782501535e+02 1.713325694809e+01 0.0 
1.713325694809e+01 -2.391138783589e+02 0.0 
0.0 0.0 -1.028276385537e+02 
-6.782931732779e+01 -8.213984115915e+00 0.0 
-8.213984115915e+00 -1.741013791657e+02 0.0 
0.0 0.0 -7.217920894806e+01 
-9.735005456830e+01 -3.165990801979e+00 0.0 
-3.165990801979e+00 -2.573101537174e+02 0.0 
0.0 0.0 -1.059980624857e+02 
-9.338030584804e+01 1.320931956176e+00 0.0 
1.320931956176e+00 -1.992679959712e+02 0.0 
0.0 0.0 -8.739449054577e+01 
-7.380311562449e+01 -5.135821577437e+00 0.0 
-5.135821577437e+00 -1.827645320629e+02 0.0 
0.0 0.0 -7.657029430623e+01 
-6.333786102863e+01 2.423847732637e+01 0.0 
2.423847732637e+01 -1.504162607740e+02 0.0 
0.0 0.0 -6.372623654079e+01 
-5.720603456319e+01 -3.865708244055e+00 0.0 
-3.865708244055e+00 -1.368184414525e+02 0.0 
0.0 0.0 -5.780734280471e+01 
-5.096139287015e+01 -1.340940844973e+01 0.0 
-1.340940844973e+01 -1.335953931621e+02 0.0 
0.0 0.0 -5.496703580967e+01 
-7.365155497479e+01 -6.486709768367e+00 0.0 
-6.486709768367e+00 -1.886386419270e+02 0.0 
0.0 0.0 -7.828705907055e+01 
-5.242933536948e+01 -5.146043159556e+00 0.0 
-5.146043159556e+00 -1.239983157823e+02 0.0 
0.0 0.0 -5.252829534553e+01 
-4.708228705056e+01 -1.809068887060e+00 0.0 
-1.809068887060e+00 -1.123928238356e+02 0.0 
0.0 0.0 -4.744253326586e+01 
-9.208409660427e+01 -3.323486254303e+00 0.0 
-3.323486254303e+00 -2.398375440357e+02 0.0 
0.0 0.0 -9.917649219200e+01 
-1.110429211080e+02 -1.718938771124e+00 0.0 
-1.718938771124e+00 -2.838023450701e+02 0.0 
0.0 0.0 -1.180535798534e+02 
-1.240918370183e+02 1.695428051981e+01 0.0 
1.695428051981e+01 -2.844750628071e+02 0.0 
0.0 0.0 -1.221700699476e+02 
-3.108572280269e+00 -3.173885766418e-01 0.0 
-3.173885766418e-01 -8.663964156077e+00 0.0 
0.0 0.0 -2.138210714370e+00 
-6.892714362767e+01 -4.064155667148e+00 0.0 
-4.064155667148e+00 -2.118381823635e+02 0.0 
0.0 0.0 -8.382959779736e+01 
-7.128898052200e+01 -6.659379503633e+00 0.0 
-6.659379503633e+00 -2.061132751346e+02 0.0 
0.0 0.0 -8.282067669698e+01 
-7.071583412402e+01 -8.120465515130e+00 0.0 
-8.120465515130e+00 -1.870553308892e+02 0.0 
0.0 0.0 -7.693134950395e+01 
-8.956711440929e+01 1.313634859388e+00 0.0 
1.313634859388e+00 -1.885596901162e+02 0.0 
0.0 0.0 -8.303804135764e+01 
-8.104211062491e+01 -6.041198659675e+00 0.0 
-6.041198659675e+00 -2.191258217291e+02 0.0 
0.0 0.0 -8.965037970621e+01 
-6.034331233786e+01 -5.305608738387e+00 0.0 
-5.305608738387e+00 -1.444243870372e+02 0.0 
0.0 0.0 -6.103030981253e+01 
-7.687829760650e+01 -6.221764511646e+00 0.0 
-6.221764511646e+00 -2.016479789506e+02 0.0 
0.0 0.0 -8.315788296712e+01 
-1.048756342125e+02 1.128490154189e+00 0.0 
1.128490154189e+00 -2.317889041584e+02 0.0 
0.0 0.0 -1.005993615113e+02 
-6.047325355509e+01 -2.993223871960e+00 0.0 
-2.993223871960e+00 -1.449933106076e+02 0.0 
0.0 0.0 -6.123996924882e+01 
-2.408035240049e+01 -3.426029668095e+00 0.0 
-3.426029668095e+00 -5.483100485021e+01 0.0 
0.0 0.0 -2.327340717521e+01 
-3.320332430617e+01 -4.550739025993e+00 0.0 
-4.550739025993e+00 -7.522274759591e+01 0.0 
0.0 0.0 -3.212782157062e+01 
-5.019501635351e+01 -1.315506842233e+01 0.0 
-1.315506842233e+01 -1.362541015551e+02 0.0 
0.0 0.0 -5.553473537258e+01 
-6.096386042187e+01 -9.028918741754e+00 0.0 
-9.028918741754e+00 -1.539909584706e+02 0.0 
0.0 0.0 -6.408644566773e+01 
-7.398495764742e+01 -4.719578205982e+00 0.0 
-4.719578205982e+00 -2.180554888725e+02 0.0 
0.0 0.0 -8.721213395597e+01 
-7.985889793135e+01 -5.459281731395e+00 0.0 
-5.459281731395e+00 -2.142442259797e+02 0.0 
0.0 0.0 -8.783093717332e+01 
-4.264044136383e+01 -1.212565984236e+01 0.0 
-1.212565984236e+01 -9.511684685134e+01 0.0 
0.0 0.0 -4.055151739354e+01 
-3.109868520329e+01 -2.018395623337e+00 0.0 
-2.018395623337e+00 -7.486269516176e+01 0.0 
0.0 0.0 -3.138841410951e+01 
-8.757064701357e+01 3.980193228418e+00 0.0 
3.980193228418e+00 -1.771308818945e+02 0.0 
0.0 0.0 -7.901045867242e+01 
-5.227309229820e+01 -2.779834825667e+00 0.0 
-2.779834825667e+00 -1.244484287870e+02 0.0 
0.0 0.0 -5.261645632557e+01 
-1.237101008583e+02 1.977966543652e+00 0.0 
1.977966543652e+00 -3.171501254831e+02 0.0 
0.0 0.0 -1.318580679024e+02 
-1.202571535852e+02 1.710817961265e+01 0.0 
1.710817961265e+01 -2.782748216951e+02 0.0 
0.0 0.0 -1.191595925841e+02 
-9.533154369401e+01 9.456011607925e+00 0.0 
9.456011607925e+00 -1.886479299458e+02 0.0 
0.0 0.0 -8.479384209195e+01 
-1.125315388675e+02 4.401984364048e+00 0.0 
4.401984364048e+00 -2.474352350227e+02 0.0 
0.0 0.0 -1.075900321670e+02 
-1.276947364672e+02 1.671400436712e+01 0.0 
1.671400436712e+01 -2.909970294877e+02 0.0 
0.0 0.0 -1.252075297865e+02 
-7.149455962996e+01 1.379059121330e+01 0.0 
1.379059121330e+01 -2.183035943177e+02 0.0 
0.0 0.0 -8.653944618431e+01 
-1.125810960956e+02 1.701730709095e+01 0.0 
1.701730709095e+01 -2.587238599120e+02 0.0 
0.0 0.0 -1.109914868023e+02 
-4.656287255184e+01 -1.501047733569e+01 0.0 
-1.501047733569e+01 -1.132093448119e+02 0.0 
0.0 0.0 -4.721738400144e+01 
-8.102738976747e+01 -5.281247880808e+00 0.0 
-5.281247880808e+00 -2.082936058569e+02 0.0 
0.0 0.0 -8.639629868732e+01 
-6.737908857009e+01 1.916087331453e+01 0.0 
1.916087331453e+01 -1.938516541990e+02 0.0 
0.0 0.0 -7.796922283073e+01 
-3.668761986837e+01 -1.185419380692e+01 0.0 
-1.185419380692e+01 -1.413121551728e+02 0.0 
0.0 0.0 -5.295874982498e+01 
-4.290594571608e+01 -1.504602977012e+01 0.0 
-1.504602977012e+01 -9.112737137188e+01 0.0 
0.0 0.0 -3.845259165544e+01 
-6.836354691583e+01 -6.721873662592e+00 0.0 
-6.721873662592e+00 -1.689604493503e+02 0.0 
0.0 0.0 -7.079719887984e+01 
-7.526853958129e+01 -5.992836333859e+00 0.0 
-5.992836333859e+00 -2.079592727640e+02 0.0 
0.0 0.0 -8.456834370359e+01 
-7.784423630891e+01 -4.358617143171e+00 0.0 
-4.358617143171e+00 -2.197719934266e+02 0.0 
0.0 0.0 -8.888486892065e+01 
-5.566951040199e+01 -4.328609445127e+00 0.0 
-4.328609445127e+00 -1.323427588436e+02 0.0 
0.0 0.0 -5.600368077368e+01 
-8.405014936269e+01 -4.847769483043e+00 0.0 
-4.847769483043e+00 -2.312695279855e+02 0.0 
0.0 0.0 -9.419590320445e+01 
-7.283279872460e+01 -4.172654633238e+00 0.0 
-4.172654633238e+00 -2.134612222968e+02 0.0 
0.0 0.0 -8.548820630642e+01 
-7.198091122660e+01 -1.285245284094e+00 0.0 
-1.285245284094e+00 -2.225745317617e+02 0.0 
0.0 0.0 -8.796663289649e+01 
-6.288568469816e+01 -6.980357405069e+00 0.0 
-6.980357405069e+00 -1.552419866732e+02 0.0 
0.0 0.0 -6.503830141141e+01 
-1.079526526302e+02 1.056916382582e+01 0.0 
1.056916382582e+01 -2.914446198880e+02 0.0 
0.0 0.0 -1.194191817554e+02 
-9.885285234464e+01 3.828562971312e+00 0.0 
3.828562971312e+00 -2.094612088741e+02 0.0 
0.0 0.0 -9.209421836561e+01 
-6.716500671926e+01 3.786884471269e-01 0.0 
3.786884471269e-01 -2.158995721201e+02 0.0 
0.0 0.0 -8.451937365180e+01 
-1.336644735831e+02 2.955179182369e+00 0.0 
2.955179182369e+00 -3.357016201078e+02 0.0 
0.0 0.0 -1.404098281073e+02 
-4.783840418952e+01 -1.532644474246e+01 0.0 
-1.532644474246e+01 -1.302956370710e+02 0.0 
0.0 0.0 -5.304021237816e+01 
-1.439116941768e+02 5.917450100514e+00 0.0 
5.917450100514e+00 -3.565066496544e+02 0.0 
0.0 0.0 -1.497255031494e+02 
-7.903962527381e+01 -4.939904011183e+00 0.0 
-4.939904011183e+00 -2.244888304052e+02 0.0 
0.0 0.0 -9.065853670369e+01 
-1.316263650488e+02 1.655663428401e+01 0.0 
1.655663428401e+01 -2.995561861107e+02 0.0 
0.0 0.0 -1.289547653478e+02 
-9.926052715128e+01 1.588966963589e+01 0.0 
1.588966963589e+01 -2.063889186596e+02 0.0 
0.0 0.0 -9.129483374325e+01 
-4.521547446877e+01 -1.457899152881e+01 0.0 
-1.457899152881e+01 -1.157444722612e+02 0.0 
0.0 0.0 -4.788798401899e+01 
-9.937424045644e+01 1.104296220391e+01 0.0 
1.104296220391e+01 -1.994568896799e+02 0.0 
0.0 0.0 -8.924933904090e+01 
-1.168559692646e+02 6.712868049882e+00 0.0 
6.712868049882e+00 -2.565932277998e+02 0.0 
0.0 0.0 -1.116347591193e+02 
-8.209867017292e+01 -3.030921131136e+00 0.0 
-3.030921131136e+00 -2.359956028169e+02 0.0 
0.0 0.0 -9.502828189693e+01 
-5.213052178193e+01 2.514164590650e+01 0.0 
2.514164590650e+01 -1.433586236922e+02 0.0 
0.0 0.0 -5.824674364224e+01 
-1.032607103170e+02 1.260063968809e+01 0.0 
1.260063968809e+01 -2.107061792973e+02 0.0 
0.0 0.0 -9.379006688431e+01 
-7.791748406639e+01 1.955295120999e+01 0.0 
1.955295120999e+01 -1.746516221279e+02 0.0 
0.0 0.0 -7.537073185830e+01 
-4.262180915275e+01 -1.492399452325e+01 0.0 
-1.492399452325e+01 -9.443776074743e+01 0.0 
0.0 0.0 -4.036323657353e+01 
-1.266258567200e+02 5.768243820635e+00 0.0 
5.768243820635e+00 -2.883558149433e+02 0.0 
0.0 0.0 -1.240945014990e+02 
-4.095922407691e+01 -1.206020646720e+01 0.0 
-1.206020646720e+01 -7.956566512160e+01 0.0 
0.0 0.0 -3.508006925007e+01 
-1.378850567305e+02 1.520057642054e+01 0.0 
1.520057642054e+01 -3.416890704684e+02 0.0 
0.0 0.0 -1.434722381597e+02 
-1.157299024431e+02 2.156665291467e+00 0.0 
2.156665291467e+00 -2.608160925427e+02 0.0 
0.0 0.0 -1.125637984958e+02 
-1.130092692051e+02 9.301842678858e+00 0.0 
9.301842678858e+00 -3.014176925357e+02 0.0 
0.0 0.0 -1.239280885222e+02 
-8.541884245723e+01 6.701143074553e-01 0.0 
6.701143074553e-01 -1.792596421490e+02 0.0 
0.0 0.0 -7.900354538188e+01 
-1.103846855679e+02 5.361125506305e+00 0.0 
5.361125506305e+00 -2.389582631309e+02 0.0 
0.0 0.0 -1.044028846097e+02 
-7.531753748238e+01 -1.624624092656e+00 0.0 
-1.624624092656e+00 -2.239074908338e+02 0.0 
0.0 0.0 -8.936750849484e+01 
-8.457485551922e+01 1.139318437384e+01 0.0 
1.139318437384e+01 -2.463512450568e+02 0.0 
0.0 0.0 -9.887783017279e+01 
-1.196929256275e+02 5.106837088560e+00 0.0 
5.106837088560e+00 -2.675720555422e+02 0.0 
0.0 0.0 -1.157794943509e+02 
-1.200946014668e+02 -6.373626557236e-01 0.0 
-6.373626557236e-01 -3.028655314237e+02 0.0 
0.0 0.0 -1.264880398671e+02 
-1.029727758383e+02 4.610825962269e+00 0.0 
4.610825962269e+00 -2.188807324330e+02 0.0 
0.0 0.0 -9.615605248139e+01 
-1.075882243172e+02 3.673369337828e+00 0.0 
3.673369337828e+00 -2.921391325589e+02 0.0 
0.0 0.0 -1.195182070628e+02 
-4.204131412465e+01 -1.631747485346e+01 0.0 
-1.631747485346e+01 -1.112103963039e+02 0.0 
0.0 0.0 -4.557551312857e+01 
-1.070740452328e+02 5.515601992758e+00 0.0 
5.515601992758e+00 -2.283766832324e+02 0.0 
0.0 0.0 -1.002352185396e+02 
-1.435129124605e+02 2.039074976322e+01 0.0 
2.039074976322e+01 -3.341737772980e+02 0.0 
0.0 0.0 -1.429060069275e+02 
-1.443900549181e+02 3.695167824039e+00 0.0 
3.695167824039e+00 -3.550551277582e+02 0.0 
0.0 0.0 -1.494335548029e+02 
-7.807172053135e+01 -6.809549197390e+00 0.0 
-6.809549197390e+00 -2.067072883656e+02 0.0 
0.0 0.0 -8.503370266908e+01 
-8.672985602632e+01 2.556184860838e+00 0.0 
2.556184860838e+00 -1.800701389667e+02 0.0 
0.0 0.0 -7.963999849792e+01 
-8.144742819877e+01 6.067645944613e-01 0.0 
6.067645944613e-01 -1.686610824137e+02 0.0 
0.0 0.0 -7.463255318373e+01 
-8.267865483047e+01 -4.192361115806e+00 0.0 
-4.192361115806e+00 -2.261952325934e+02 0.0 
0.0 0.0 -9.226216622715e+01 
-1.150802833517e+02 -6.571996946120e-01 0.0 
-6.571996946120e-01 -2.952193311899e+02 0.0 
0.0 0.0 -1.226898843625e+02 
-1.192998937037e+02 5.828241071679e-01 0.0 
5.828241071679e-01 -3.063532649382e+02 0.0 
0.0 0.0 -1.272959475926e+02 
-2.823901940930e+01 -2.331460274085e+00 0.0 
-2.331460274085e+00 -6.614330905674e+01 0.0 
0.0 0.0 -2.791469853981e+01 
-3.858126841458e+01 1.505339989873e+01 0.0 
1.505339989873e+01 -1.553337505688e+02 0.0 
0.0 0.0 -5.777450569501e+01 
-7.096255572349e+01 3.594925880981e+00 0.0 
3.594925880981e+00 -2.249010882712e+02 0.0 
0.0 0.0 -8.835909319840e+01 
-7.010101210636e+01 -4.184361051479e-01 0.0 
-4.184361051479e-01 -2.169493537069e+02 0.0 
0.0 0.0 -8.571510974397e+01 
-7.554196281243e+01 2.070483407234e+01 0.0 
2.070483407234e+01 -1.859476682325e+02 0.0 
0.0 0.0 -7.804688931347e+01 
-1.244255089928e+02 6.606439693343e+00 0.0 
6.606439693343e+00 -2.788197568482e+02 0.0 
0.0 0.0 -1.205735797523e+02 
-1.221815384324e+02 1.135113305212e+01 0.0 
1.135113305212e+01 -2.688505154919e+02 0.0 
0.0 0.0 -1.169096161773e+02 
-1.168210846697e+02 3.857509110035e+00 0.0 
3.857509110035e+00 -2.614726219356e+02 0.0 
0.0 0.0 -1.130881119816e+02 
-6.837684781380e+01 1.833910185153e+01 0.0 
1.833910185153e+01 -1.294812465990e+02 0.0 
0.0 0.0 -5.895742832384e+01 
-1.098405771354e+02 5.778892693341e+00 0.0 
5.778892693341e+00 -2.363407765202e+02 0.0 
0.0 0.0 -1.034544060967e+02 
-1.173619942756e+02 6.056370860299e-01 0.0 
6.056370860299e-01 -2.964613401041e+02 0.0 
0.0 0.0 -1.237470003139e+02 
-1.193543329216e+02 3.880639368769e+00 0.0 
3.880639368769e+00 -2.688040737783e+02 0.0 
0.0 0.0 -1.160475220100e+02 
-1.037190082762e+02 5.644970565201e+00 0.0 
5.644970565201e+00 -2.178470893019e+02 0.0 
0.0 0.0 -9.606982927342e+01 
-8.429426092236e+01 -4.761958578385e+00 0.0 
-4.761958578385e+00 -2.207876629232e+02 0.0 
0.0 0.0 -9.112457715365e+01 
-6.670230468625e+01 6.096202571707e+00 0.0 
6.096202571707e+00 -2.168931570831e+02 0.0 
0.0 0.0 -8.467863853079e+01 
-1.052493344260e+02 3.607997538420e+00 0.0 
3.607997538420e+00 -2.272816423054e+02 0.0 
0.0 0.0 -9.935929301943e+01 
-1.175514648604e+02 6.076931781569e+00 0.0 
6.076931781569e+00 -2.591186584173e+02 0.0 
0.0 0.0 -1.126010369833e+02 
-1.049342223799e+02 2.651341552445e+00 0.0 
2.651341552445e+00 -2.285328212594e+02 0.0 
0.0 0.0 -9.964011309178e+01 
-1.013167169404e+02 2.745860355649e+00 0.0 
2.745860355649e+00 -2.178651199972e+02 0.0 
0.0 0.0 -9.535455108129e+01 
-1.340330234559e+02 1.331857570366e+00 0.0 
1.331857570366e+00 -3.329281471604e+02 0.0 
0.0 0.0 -1.396883511849e+02 
-1.330265617287e+02 1.601505525261e+01 0.0 
1.601505525261e+01 -3.305947284296e+02 0.0 
0.0 0.0 -1.386863870475e+02 
-1.289374942506e+02 1.608061576937e+00 0.0 
1.608061576937e+00 -3.250653132618e+02 0.0 
0.0 0.0 -1.358008422537e+02 
-1.022910439648e+02 -2.900529071130e+00 0.0 
-2.900529071130e+00 -2.646710804012e+02 0.0 
0.0 0.0 -1.096886373098e+02 
-6.261850072099e+01 7.331826620183e+00 0.0 
7.331826620183e+00 -1.106311543593e+02 0.0 
0.0 0.0 -5.157489652408e+01 
-1.176823878491e+02 1.119230162267e+01 0.0 
1.119230162267e+01 -3.090628812055e+02 0.0 
0.0 0.0 -1.276235807164e+02 
-1.034134816522e+02 6.124343368477e+00 0.0 
6.124343368477e+00 -2.163133669239e+02 0.0 
0.0 0.0 -9.551805457284e+01 
-4.750823028664e+01 -4.118854883960e+00 0.0 
-4.118854883960e+00 -1.120734688712e+02 0.0 
0.0 0.0 -4.747450974734e+01 
-7.297280544386e+01 2.799123557523e+00 0.0 
2.799123557523e+00 -2.255683089159e+02 0.0 
0.0 0.0 -8.916233430792e+01 
-8.425480007190e+01 2.740312689061e+00 0.0 
2.740312689061e+00 -2.491379427216e+02 0.0 
0.0 0.0 -9.961782283806e+01 
-9.371393370661e+01 1.166652062788e+01 0.0 
1.166652062788e+01 -2.634605832474e+02 0.0 
0.0 0.0 -1.067523550862e+02 
-3.381232417517e+01 -2.039988636813e+00 0.0 
-2.039988636813e+00 -1.517422182989e+02 0.0 
0.0 0.0 -5.511539272241e+01 
-6.792128941187e+01 4.980283137489e+00 0.0 
4.980283137489e+00 -2.171390736567e+02 0.0 
0.0 0.0 -8.511810892056e+01 
-1.030954171792e+02 1.200796763890e+01 0.0 
1.200796763890e+01 -2.808970567785e+02 0.0 
0.0 0.0 -1.147977421873e+02 
-7.555480560314e+01 1.100594596030e+01 0.0 
1.100594596030e+01 -1.437345122853e+02 0.0 
0.0 0.0 -6.538679536654e+01 
-8.578891437700e+01 -5.479167878221e+00 0.0 
-5.479167878221e+00 -2.261537950453e+02 0.0 
0.0 0.0 -9.318281282669e+01 
-9.599850922567e+01 4.774293249117e+00 0.0 
4.774293249117e+00 -1.976745008088e+02 0.0 
0.0 0.0 -8.770190301034e+01 
-6.863262747617e+01 -1.600804832208e-01 0.0 
-1.600804832208e-01 -1.386273877493e+02 0.0 
0.0 0.0 -6.177800456764e+01 
-3.405646704642e+01 2.513794079811e+01 0.0 
2.513794079811e+01 -2.685054488107e+01 0.0 
0.0 0.0 -1.698091548218e+01 
-1.002015433385e+02 -1.927549610846e+00 0.0 
-1.927549610846e+00 -2.587895964936e+02 0.0 
0.0 0.0 -1.072973419496e+02 
-1.169892260651e+02 7.496491261831e+00 0.0 
7.496491261831e+00 -3.102642406997e+02 0.0 
0.0 0.0 -1.277760400294e+02 
-1.251728646003e+02 1.075793488999e+01 0.0 
1.075793488999e+01 -2.780128207006e+02 0.0 
0.0 0.0 -1.205557055903e+02 
-7.991196755807e+01 9.250434982045e+00 0.0 
9.250434982045e+00 -2.400053251088e+02 0.0 
0.0 0.0 -9.557518780007e+01 
-9.386854344869e+01 -4.167002732621e+00 0.0 
-4.167002732621e+00 -2.454681680164e+02 0.0 
0.0 0.0 -1.014010134395e+02 
-9.522879427599e+01 3.857192035845e+00 0.0 
3.857192035845e+00 -1.988675969490e+02 0.0 
0.0 0.0 -8.782891736748e+01 
-3.035065336067e+01 2.161960554034e+01 0.0 
2.161960554034e+01 -2.435540591201e+01 0.0 
0.0 0.0 -1.482553233314e+01 
-1.120837261491e+02 8.696792388426e+00 0.0 
8.696792388426e+00 -3.008948025902e+02 0.0 
0.0 0.0 -1.234935586218e+02 
-8.920736877365e+01 9.396783106196e+00 0.0 
9.396783106196e+00 -2.568201227793e+02 0.0 
0.0 0.0 -1.034082474659e+02 
-8.082684637965e+01 1.310074876048e+01 0.0 
1.310074876048e+01 -1.532487681804e+02 0.0 
0.0 0.0 -6.982268436800e+01 
-1.214516798204e+02 1.753149256506e+00 0.0 
1.753149256506e+00 -3.075184216141e+02 0.0 
0.0 0.0 -1.282910304303e+02 
-4.398869141684e+01 -1.404969008875e+01 0.0 
-1.404969008875e+01 -1.440690137658e+02 0.0 
0.0 0.0 -5.601731155479e+01 
-1.256959111468e+02 3.070954726551e+00 0.0 
3.070954726551e+00 -3.182297937449e+02 0.0 
0.0 0.0 -1.327777114675e+02 
-1.386292549076e+02 4.328658481314e+00 0.0 
4.328658481314e+00 -3.461389002068e+02 0.0 
0.0 0.0 -1.450304465343e+02 
-1.074332397365e+02 1.004104080755e+01 0.0 
1.004104080755e+01 -2.911109806133e+02 0.0 
0.0 0.0 -1.191632661049e+02 
-1.064316767620e+02 4.495100735269e+00 0.0 
4.495100735269e+00 -2.294854204386e+02 0.0 
0.0 0.0 -1.003751291602e+02 
-1.192799992667e+02 1.909256510615e+01 0.0 
1.909256510615e+01 -2.856028596358e+02 0.0 
0.0 0.0 -1.210648576707e+02 
-1.401435296952e+02 5.580120266507e+00 0.0 
5.580120266507e+00 -3.470099611653e+02 0.0 
0.0 0.0 -1.457460472581e+02 
-3.265133404356e+01 1.791225199883e+01 0.0 
1.791225199883e+01 -2.376977232805e+01 0.0 
0.0 0.0 -1.652633191148e+01 
-9.951797404208e+01 4.675300313772e+00 0.0 
4.675300313772e+00 -2.083066531638e+02 0.0 
0.0 0.0 -9.194738816176e+01 
-1.329432912898e+02 1.786192685501e+01 0.0 
1.786192685501e+01 -3.249741568185e+02 0.0 
0.0 0.0 -1.369752344325e+02 
-1.087322485850e+02 3.477073930190e+00 0.0 
3.477073930190e+00 -2.379362086176e+02 0.0 
0.0 0.0 -1.036005371608e+02 
-9.802028965253e+01 9.710244443036e+00 0.0 
9.710244443036e+00 -2.737348832625e+02 0.0 
0.0 0.0 -1.111265518745e+02 
-7.152588719055e+01 8.281303248009e+00 0.0 
8.281303248009e+00 -2.237202818520e+02 0.0 
0.0 0.0 -8.817385071277e+01 
-9.573830252150e+01 -3.761067264563e+00 0.0 
-3.761067264563e+00 -2.368176811565e+02 0.0 
0.0 0.0 -9.936679510339e+01 
-2.579109651913e+01 7.155886316698e+00 0.0 
7.155886316698e+00 -1.308223709348e+02 0.0 
0.0 0.0 -4.833675661254e+01 
-1.122496217651e+02 3.281161455432e+00 0.0 
3.281161455432e+00 -2.486136501270e+02 0.0 
0.0 0.0 -1.078589815676e+02 
-5.092537653363e+01 -3.542328072863e+00 0.0 
-3.542328072863e+00 -1.206871554874e+02 0.0 
0.0 0.0 -5.108375960632e+01 
-2.502516009505e+01 8.655443251284e+00 0.0 
8.655443251284e+00 -2.591076702828e+01 0.0 
0.0 0.0 -1.488077813700e+01 
-1.155711983849e+02 1.919801509523e+01 0.0 
1.919801509523e+01 -2.723308929268e+02 0.0 
0.0 0.0 -1.159706273935e+02 
-1.195593668196e+02 2.850515526986e+00 0.0 
2.850515526986e+00 -2.706223681955e+02 0.0 
0.0 0.0 -1.166545205046e+02 
-4.521525775829e+01 -1.738990526695e+01 0.0 
-1.738990526695e+01 -1.288781266063e+02 0.0 
0.0 0.0 -5.123773679327e+01 
-8.861208568612e+01 2.026946054160e+01 0.0 
2.026946054160e+01 -1.995701410007e+02 0.0 
0.0 0.0 -8.605466800606e+01 
-1.017977572816e+02 3.672629756892e+00 0.0 
3.672629756892e+00 -2.167052162037e+02 0.0 
0.0 0.0 -9.515089204560e+01 
-9.301353486189e+01 -3.270286965093e+00 0.0 
-3.270286965093e+00 -2.349200716993e+02 0.0 
0.0 0.0 -9.798008196836e+01 
-3.777897989466e+01 -6.475686179697e+00 0.0 
-6.475686179697e+00 -1.526368131340e+02 0.0 
0.0 0.0 -5.672473790860e+01 
-5.059293663566e+01 2.414104923091e+01 0.0 
2.414104923091e+01 -1.432219576493e+02 0.0 
0.0 0.0 -5.774446828550e+01 
-4.155314738093e+01 -1.672928396795e+01 0.0 
-1.672928396795e+01 -9.025108748109e+01 0.0 
0.0 0.0 -3.808998822266e+01 
-3.745338133684e+01 -1.559907782477e+01 0.0 
-1.559907782477e+01 -1.260058820601e+02 0.0 
0.0 0.0 -4.863777901908e+01 
-3.859364896284e+01 -1.745449329582e+01 0.0 
-1.745449329582e+01 -1.083968850407e+02 0.0 
0.0 0.0 -4.348176571059e+01 
-8.884572497233e+01 9.450024941442e+00 0.0 
9.450024941442e+00 -2.566781334258e+02 0.0 
0.0 0.0 -1.032571575195e+02 
-1.377925479590e+02 1.020826447440e+01 0.0 
1.020826447440e+01 -3.158740995105e+02 0.0 
0.0 0.0 -1.356999942408e+02 
-3.118505058775e+01 5.915788433119e+00 0.0 
5.915788433119e+00 -4.256309502039e+01 0.0 
0.0 0.0 -2.172444368244e+01 
-1.390709415948e+02 1.123048527947e+00 0.0 
1.123048527947e+00 -3.407727343791e+02 0.0 
0.0 0.0 -1.435531027922e+02 
-5.958749841061e+01 1.237387844493e+01 0.0 
1.237387844493e+01 -1.982447766862e+02 0.0 
0.0 0.0 -7.694968252905e+01 
-1.003652047269e+02 5.791975119577e+00 0.0 
5.791975119577e+00 -2.075212952220e+02 0.0 
0.0 0.0 -9.196594998466e+01 
-2.762629111850e+01 4.796159438945e+00 0.0 
4.796159438945e+00 -1.386215220142e+02 0.0 
0.0 0.0 -5.129511111189e+01 
-1.450587604232e+02 6.998854687631e+00 0.0 
6.998854687631e+00 -3.569092488244e+02 0.0 
0.0 0.0 -1.501904027743e+02 
-4.594306097653e+01 -1.808172816884e+01 0.0 
-1.808172816884e+01 -1.110433355240e+02 0.0 
0.0 0.0 -4.543158529477e+01 
-5.957398668593e+01 -3.657453633591e+00 0.0 
-3.657453633591e+00 -1.414956308498e+02 0.0 
0.0 0.0 -5.992088526071e+01 
-1.125289749316e+02 1.171646348700e+01 0.0 
1.171646348700e+01 -2.983617391421e+02 0.0 
0.0 0.0 -1.228672142221e+02 
-8.046275088121e+01 -2.280329822738e+00 0.0 
-2.280329822738e+00 -2.306750629510e+02 0.0 
0.0 0.0 -9.294134414966e+01 
-1.280521680491e+02 1.679925008752e+01 0.0 
1.679925008752e+01 -3.187606304133e+02 0.0 
0.0 0.0 -1.336438395387e+02 
-5.634770532561e+01 2.541851184937e+01 0.0 
2.541851184937e+01 -1.303780125183e+02 0.0 
0.0 0.0 -5.561771535319e+01 
-1.087002435873e+02 8.028126394683e+00 0.0 
8.028126394683e+00 -2.275093585010e+02 0.0 
0.0 0.0 -1.004628806265e+02 
-1.375853629394e+02 1.394959333848e+01 0.0 
1.394959333848e+01 -3.412880415127e+02 0.0 
0.0 0.0 -1.432620213356e+02 
-9.771159507698e+01 2.768097892617e+00 0.0 
2.768097892617e+00 -2.072356778425e+02 0.0 
0.0 0.0 -9.108418187584e+01 
-1.268439792417e+02 1.293481940099e+01 0.0 
1.293481940099e+01 -2.791890570443e+02 0.0 
0.0 0.0 -1.214099108858e+02 
-1.110615402801e+02 6.500557130689e+00 0.0 
6.500557130689e+00 -2.379338930450e+02 0.0 
0.0 0.0 -1.042986299975e+02 
-1.149907818446e+02 7.567576241501e+00 0.0 
7.567576241501e+00 -2.477601203447e+02 0.0 
0.0 0.0 -1.084252706568e+02 
-3.434981959787e+01 2.298483902227e+01 0.0 
2.298483902227e+01 -1.291228561223e+02 0.0 
0.0 0.0 -4.859285191886e+01 
-1.343057484742e+02 2.615104964669e-01 0.0 
2.615104964669e-01 -3.295441657484e+02 0.0 
0.0 0.0 -1.387549742668e+02 
-1.058739448596e+02 4.693482986823e+00 0.0 
4.693482986823e+00 -2.264507223467e+02 0.0 
0.0 0.0 -9.929740016190e+01 
-7.800649087529e+01 1.593604035467e+01 0.0 
1.593604035467e+01 -2.235726456465e+02 0.0 
0.0 0.0 -9.007374095655e+01 
-3.949949131167e+01 4.234053522645e+00 0.0 
4.234053522645e+00 -6.146431064874e+01 0.0 
0.0 0.0 -2.988914058812e+01 
-1.434086262699e+02 1.666625794810e+01 0.0 
1.666625794810e+01 -3.488682996966e+02 0.0 
0.0 0.0 -1.472830777899e+02 
-3.430743357623e+01 1.044323962578e+01 0.0 
1.044323962578e+01 -1.528777926872e+02 0.0 
0.0 0.0 -5.575556787904e+01 
-5.580662671186e+01 -1.993316076448e+00 0.0 
-1.993316076448e+00 -1.328847087685e+02 0.0 
0.0 0.0 -5.620740064410e+01 
-1.228696066389e+02 1.438274155314e+01 0.0 
1.438274155314e+01 -3.119668614264e+02 0.0 
0.0 0.0 -1.300509404196e+02 
-3.183475747853e+01 6.209035569313e-01 0.0 
6.209035569313e-01 -8.013259878284e+01 0.0 
0.0 0.0 -3.319020687841e+01 
-8.068463544904e+01 2.125943634899e+01 0.0 
2.125943634899e+01 -2.040289678037e+02 0.0 
0.0 0.0 -8.501408097582e+01 
-1.170772615180e+02 1.046351017019e+01 0.0 
1.046351017019e+01 -3.086664539356e+02 0.0 
0.0 0.0 -1.273231146361e+02 
-1.214914067319e+02 8.260681325379e+00 0.0 
8.260681325379e+00 -2.673517968914e+02 0.0 
0.0 0.0 -1.162529610870e+02 
-1.252907213102e+02 9.506015350876e+00 0.0 
9.506015350876e+00 -2.778865311502e+02 0.0 
0.0 0.0 -1.205531757381e+02 
-1.127142224026e+02 1.242565111400e+01 0.0 
1.242565111400e+01 -2.985881521435e+02 0.0 
0.0 0.0 -1.229907123638e+02 
-1.142683359081e+02 6.314300204753e+00 0.0 
6.314300204753e+00 -2.485006230120e+02 0.0 
0.0 0.0 -1.084306876760e+02 
-6.463563185584e+01 1.492845597117e+01 0.0 
1.492845597117e+01 -2.027928619052e+02 0.0 
0.0 0.0 -7.982854812831e+01 
-1.167289719142e+02 1.877101724551e+01 0.0 
1.877101724551e+01 -2.654380083445e+02 0.0 
0.0 0.0 -1.142500940776e+02 
-4.805379219942e+01 3.048150137882e+00 0.0 
3.048150137882e+00 -8.071082537528e+01 0.0 
0.0 0.0 -3.822938527241e+01 
-1.262458006291e+02 1.418387280996e+01 0.0 
1.418387280996e+01 -2.823985695430e+02 0.0 
0.0 0.0 -1.221933110516e+02 
-5.629519343794e+01 2.405700373415e+00 0.0 
2.405700373415e+00 -9.992721068091e+01 0.0 
0.0 0.0 -4.646672123566e+01 
-6.080068512657e+01 2.304567630453e+00 0.0 
2.304567630453e+00 -1.094861528775e+02 0.0 
0.0 0.0 -5.068605140122e+01 
-7.614396743321e+01 1.166274421288e+01 0.0 
1.166274421288e+01 -2.299421994916e+02 0.0 
0.0 0.0 -9.142585007745e+01 
-6.438003576345e+01 1.979973863859e+00 0.0 
1.979973863859e+00 -1.193273279628e+02 0.0 
0.0 0.0 -5.471220911787e+01 
-9.177701088183e+01 1.928694915440e+01 0.0 
1.928694915440e+01 -2.366142764888e+02 0.0 
0.0 0.0 -9.811738621120e+01 
-6.988623158705e+01 2.047660295601e+01 0.0 
2.047660295601e+01 -1.961405515509e+02 0.0 
0.0 0.0 -7.940803494140e+01 
-7.634987887534e+01 5.938808177890e+00 0.0 
5.938808177890e+00 -2.331783822809e+02 0.0 
0.0 0.0 -9.245847834688e+01 
-3.265016501290e+01 -8.685151359848e+00 0.0 
-8.685151359848e+00 -1.403870565126e+02 0.0 
0.0 0.0 -5.115163116900e+01 
-7.123902683571e+01 9.116110097010e+00 0.0 
9.116110097010e+00 -2.237801604760e+02 0.0 
0.0 0.0 -8.810575619351e+01 
-1.159212901173e+02 4.193677198893e+00 0.0 
4.193677198893e+00 -2.581040746384e+02 0.0 
0.0 0.0 -1.118076094267e+02 
-1.267046448495e+02 1.251062460154e+01 0.0 
1.251062460154e+01 -2.820468235538e+02 0.0 
0.0 0.0 -1.222254405210e+02 
-1.250022661872e+02 -5.746567444811e-01 0.0 
-5.746567444811e-01 -3.105511099143e+02 0.0 
0.0 0.0 -1.302660128305e+02 
-1.325952901149e+02 1.474026589063e+01 0.0 
1.474026589063e+01 -3.301401108514e+02 0.0 
0.0 0.0 -1.384206202899e+02 
-7.697899944130e+01 -2.398592422462e+00 0.0 
-2.398592422462e+00 -2.291729554292e+02 0.0 
0.0 0.0 -9.144558646116e+01 
-1.130815483896e+02 5.590840719952e+00 0.0 
5.590840719952e+00 -2.466065312444e+02 0.0 
0.0 0.0 -1.075064238902e+02 
-7.522682342763e+01 6.588169886884e+00 0.0 
6.588169886884e+00 -2.328411870149e+02 0.0 
0.0 0.0 -9.202040313276e+01 
-1.391110457878e+02 1.812309450454e-01 0.0 
1.812309450454e-01 -3.373570721533e+02 0.0 
0.0 0.0 -1.425404353823e+02 
-1.091573420683e+02 4.586815262589e+00 0.0 
4.586815262589e+00 -2.368010681673e+02 0.0 
0.0 0.0 -1.033875230707e+02 
-1.118610307655e+02 7.802567212545e+00 0.0 
7.802567212545e+00 -2.375603414439e+02 0.0 
0.0 0.0 -1.044264116628e+02 
-1.024749383448e+02 8.134137341495e+00 0.0 
8.134137341495e+00 -2.833894377990e+02 0.0 
0.0 0.0 -1.153593128432e+02 
-6.770165654528e+01 1.194883972328e+01 0.0 
1.194883972328e+01 -2.138396674053e+02 0.0 
0.0 0.0 -8.406239718517e+01 
-1.243548847991e+02 1.885894458312e+01 0.0 
1.885894458312e+01 -2.847705973813e+02 0.0 
0.0 0.0 -1.223376446541e+02 
-9.854955731086e+01 1.310077810180e+01 0.0 
1.310077810180e+01 -2.055465579044e+02 0.0 
0.0 0.0 -9.082883456457e+01 
-3.874666013973e+01 -1.286515388306e+01 0.0 
-1.286515388306e+01 -1.425349556751e+02 0.0 
0.0 0.0 -5.397061072702e+01 
-3.388840388877e+01 5.664732945977e+00 0.0 
5.664732945977e+00 -1.514022071411e+02 0.0 
0.0 0.0 -5.504296966094e+01 
-6.085384317396e+01 2.295964101032e+01 0.0 
2.295964101032e+01 -1.476509331704e+02 0.0 
0.0 0.0 -6.215143290332e+01 
-8.991980505053e+01 1.772909957412e+01 0.0 
1.772909957412e+01 -1.996173278317e+02 0.0 
0.0 0.0 -8.646113986468e+01 
-1.437842931954e+02 7.826420967266e-02 0.0 
7.826420967266e-02 -3.454137206362e+02 0.0 
0.0 0.0 -1.463594041495e+02 
-1.078119300777e+02 6.694681695200e+00 0.0 
6.694681695200e+00 -2.276158060167e+02 0.0 
0.0 0.0 -1.002283208283e+02 
-6.704941240920e+01 1.103718148252e+01 0.0 
1.103718148252e+01 -2.133634667751e+02 0.0 
0.0 0.0 -8.372386375530e+01 
-1.010852499791e+02 1.891240372393e+01 0.0 
1.891240372393e+01 -2.255066431533e+02 0.0 
0.0 0.0 -9.757756793970e+01 
-1.219626472530e+02 9.315679211086e+00 0.0 
9.315679211086e+00 -3.186438879811e+02 0.0 
0.0 0.0 -1.317819605702e+02 
-1.137385712510e+02 5.155684506309e+00 0.0 
5.155684506309e+00 -2.495757125573e+02 0.0 
0.0 0.0 -1.085942851425e+02 
-1.281902206554e+02 1.862946311334e+01 0.0 
1.862946311334e+01 -2.915030301197e+02 0.0 
0.0 0.0 -1.255079752325e+02 
-9.492507059393e+01 3.788438619383e+00 0.0 
3.788438619383e+00 -1.961678694115e+02 0.0 
0.0 0.0 -8.692788200164e+01 
-1.279666897227e+02 5.734311238745e+00 0.0 
5.734311238745e+00 -3.291882176578e+02 0.0 
0.0 0.0 -1.367464722141e+02 
-8.024159084058e+01 8.839550865933e+00 0.0 
8.839550865933e+00 -2.400564568479e+02 0.0 
0.0 0.0 -9.568941430655e+01 
-1.228863409997e+02 1.008663526315e+01 0.0 
1.008663526315e+01 -3.191398927492e+02 0.0 
0.0 0.0 -1.322078701247e+02 
-8.313399735894e+01 1.966525185278e+01 0.0 
1.966525185278e+01 -2.047264006489e+02 0.0 
0.0 0.0 -8.595811940235e+01 
-1.210873333199e+02 6.951392884491e+00 0.0 
6.951392884491e+00 -2.684369129520e+02 0.0 
0.0 0.0 -1.164572738816e+02 
-1.330492507534e+02 1.886997656058e+01 0.0 
1.886997656058e+01 -3.003672699782e+02 0.0 
0.0 0.0 -1.296249562195e+02 
-9.313410358146e+01 7.602799536626e+00 0.0 
7.602799536626e+00 -2.661635950437e+02 0.0 
0.0 0.0 -1.073893095876e+02 
-3.148038000776e+01 4.222257948814e+00 0.0 
4.222257948814e+00 -1.480999524632e+02 0.0 
0.0 0.0 -5.333888754109e+01 
-1.233052981716e+02 1.714118684904e+01 0.0 
1.714118684904e+01 -2.982753626874e+02 0.0 
0.0 0.0 -1.260741982577e+02 
-8.875261380865e+01 2.031861935329e+01 0.0 
2.031861935329e+01 -2.228238055284e+02 0.0 
0.0 0.0 -9.307292580112e+01 
-6.302641447429e+01 1.410211606571e+01 0.0 
1.410211606571e+01 -2.019266413299e+02 0.0 
0.0 0.0 -7.908591674126e+01 
-9.844462890620e+01 9.965497382647e+00 0.0 
9.965497382647e+00 -2.739694513043e+02 0.0 
0.0 0.0 -1.113242240631e+02 
-1.248702065245e+02 5.033559098663e+00 0.0 
5.033559098663e+00 -3.203047496343e+02 0.0 
0.0 0.0 -1.331524868476e+02 
-3.304740830108e+01 -1.375798468036e+00 0.0 
-1.375798468036e+00 -1.474226508694e+02 0.0 
0.0 0.0 -5.342365570420e+01 
-8.405470497946e+01 7.095934512345e+00 0.0 
7.095934512345e+00 -2.493006872669e+02 0.0 
0.0 0.0 -9.960661767390e+01 
-1.015987536237e+02 1.001662045657e+01 0.0 
1.001662045657e+01 -2.095037124438e+02 0.0 
0.0 0.0 -9.293073982027e+01 
-1.447721764438e+02 1.623989408562e+00 0.0 
1.623989408562e+00 -3.461428253074e+02 0.0 
0.0 0.0 -1.468745005254e+02 
-1.055418026423e+02 1.154737429030e+01 0.0 
1.154737429030e+01 -2.212225681265e+02 0.0 
0.0 0.0 -9.762931123064e+01 
-1.195752242699e+02 1.733009179523e+01 0.0 
1.733009179523e+01 -2.853610233503e+02 0.0 
0.0 0.0 -1.210808742861e+02 
-9.748051208107e+01 8.468265191819e+00 0.0 
8.468265191819e+00 -1.981665082422e+02 0.0 
0.0 0.0 -8.829410609698e+01 
-8.857638860479e+01 5.368817499929e+00 0.0 
5.368817499929e+00 -1.765775680355e+02 0.0 
0.0 0.0 -7.914618699210e+01 
-1.022019522019e+02 1.448426291931e+01 0.0 
1.448426291931e+01 -2.185322912945e+02 0.0 
0.0 0.0 -9.582027304891e+01 
-1.274577596666e+02 1.342022180077e+01 0.0 
1.342022180077e+01 -3.232672784858e+02 0.0 
0.0 0.0 -1.348175114457e+02 
-1.311600731653e+02 1.684355598080e+00 0.0 
1.684355598080e+00 -3.228866988214e+02 0.0 
0.0 0.0 -1.358140315960e+02 
-1.025570296977e+02 4.829017571627e+00 0.0 
4.829017571627e+00 -2.162531075894e+02 0.0 
0.0 0.0 -9.524304118614e+01 
-1.237116035857e+02 7.686682368782e+00 0.0 
7.686682368782e+00 -2.768884085310e+02 0.0 
0.0 0.0 -1.197800036350e+02 
-9.324187186307e+01 6.919403510250e+00 0.0 
6.919403510250e+00 -1.872647650570e+02 0.0 
0.0 0.0 -8.375199107602e+01 
-5.076767238936e+01 1.099557341228e+01 0.0 
1.099557341228e+01 -1.823042239500e+02 0.0 
0.0 0.0 -6.952156890182e+01 
-1.279218061687e+02 1.923069269271e+01 0.0 
1.923069269271e+01 -3.047716836907e+02 0.0 
0.0 0.0 -1.294080469578e+02 
-1.208988033513e+02 5.866884459035e+00 0.0 
5.866884459035e+00 -2.697898319755e+02 0.0 
0.0 0.0 -1.168065905980e+02 
-8.048611905639e+01 1.868954259486e+01 0.0 
1.868954259486e+01 -2.147659564598e+02 0.0 
0.0 0.0 -8.817562265486e+01 
-8.574072383366e+01 1.890565906534e+01 0.0 
1.890565906534e+01 -2.189370466462e+02 0.0 
0.0 0.0 -9.100333114395e+01 
-5.873588482430e+01 1.097167131696e+01 0.0 
1.097167131696e+01 -1.975697172238e+02 0.0 
0.0 0.0 -7.649168061443e+01 
-1.066166656928e+02 5.941145369569e+00 0.0 
5.941145369569e+00 -2.262279718759e+02 0.0 
0.0 0.0 -9.945339127060e+01 
-6.750152784763e+01 1.880858761466e+01 0.0 
1.880858761466e+01 -1.383757280332e+02 0.0 
0.0 0.0 -6.136317676425e+01 
-9.671906798895e+01 1.699426308247e+01 0.0 
1.699426308247e+01 -2.503087172588e+02 0.0 
0.0 0.0 -1.037083355743e+02 
-6.632295237526e+01 2.225016354439e+01 0.0 
2.225016354439e+01 -1.385449876131e+02 0.0 
0.0 0.0 -6.106038199650e+01 
-1.177049433238e+02 1.315674104396e+01 0.0 
1.315674104396e+01 -3.052827840481e+02 0.0 
0.0 0.0 -1.264963182116e+02 
-1.365655106738e+02 1.940899467385e+01 0.0 
1.940899467385e+01 -3.231885576507e+02 0.0 
0.0 0.0 -1.375262204973e+02 
-6.312650186647e+01 7.732347258162e+00 0.0 
7.732347258162e+00 -2.078836775842e+02 0.0 
0.0 0.0 -8.090305383519e+01 
-2.679331508939e+01 -5.674093484676e+00 0.0 
-5.674093484676e+00 -1.271514422752e+02 0.0 
0.0 0.0 -4.737726968430e+01 
-1.243735724098e+02 9.240590023568e+00 0.0 
9.240590023568e+00 -2.773348933254e+02 0.0 
0.0 0.0 -1.201125397206e+02 
-7.174553422835e+01 1.676637936259e+01 0.0 
1.676637936259e+01 -1.436333579299e+02 0.0 
0.0 0.0 -6.421366764746e+01 
-8.039827325624e+01 1.417485355211e-01 0.0 
1.417485355211e-01 -2.395494153648e+02 0.0 
0.0 0.0 -9.558430658630e+01 
-1.321345054061e+02 1.740527374014e+01 0.0 
1.740527374014e+01 -3.173902602497e+02 0.0 
0.0 0.0 -1.344574296968e+02 
-1.045634654655e+02 6.863950999370e+00 0.0 
6.863950999370e+00 -2.174532838123e+02 0.0 
0.0 0.0 -9.620502478335e+01 
-1.263677206589e+02 1.700994867822e+00 0.0 
1.700994867822e+00 -3.152089788580e+02 0.0 
0.0 0.0 -1.320730098551e+02 
-6.461490001623e+01 1.922162376889e+01 0.0 
1.922162376889e+01 -1.926928647307e+02 0.0 
0.0 0.0 -7.679232942407e+01 
-2.485636125281e+01 -3.118986205136e+00 0.0 
-3.118986205136e+00 -1.246449837788e+02 0.0 
0.0 0.0 -4.696892133582e+01 
-1.492378960913e+02 1.612469701886e+00 0.0 
1.612469701886e+00 -3.552351117696e+02 0.0 
0.0 0.0 -1.509419023583e+02 
-9.287642651693e+01 1.826283923236e+01 0.0 
1.826283923236e+01 -2.139957398207e+02 0.0 
0.0 0.0 -9.166164990130e+01 
-1.085756838645e+02 1.648252286866e+01 0.0 
1.648252286866e+01 -2.813436616002e+02 0.0 
0.0 0.0 -1.165758036394e+02 
-1.281033124268e+02 1.753145855934e+01 0.0 
1.753145855934e+01 -2.980152776948e+02 0.0 
0.0 0.0 -1.274355770365e+02 
-3.887332461698e+01 -7.018533320128e-01 0.0 
-7.018533320128e-01 -1.241405782257e+02 0.0 
0.0 0.0 -5.075764507749e+01 
-1.244102882817e+02 4.123646874352e-01 0.0 
4.123646874352e-01 -3.140941522982e+02 0.0 
0.0 0.0 -1.311513321740e+02 
-4.250714170446e+01 2.310397928318e+01 0.0 
2.310397928318e+01 -1.411617569633e+02 0.0 
0.0 0.0 -5.470066960032e+01 
-9.710568413255e+01 5.861308268868e+00 0.0 
5.861308268868e+00 -1.974317684210e+02 0.0 
0.0 0.0 -8.796123576605e+01 
-1.010967791336e+02 -2.170685116421e+00 0.0 
-2.170685116421e+00 -2.542726750623e+02 0.0 
0.0 0.0 -1.062108362588e+02 
-6.288308893669e+01 9.058462659637e+00 0.0 
9.058462659637e+00 -2.080956546708e+02 0.0 
0.0 0.0 -8.089362308224e+01 
-1.403043927442e+02 1.629131339904e+00 0.0 
1.629131339904e+00 -3.381824742342e+02 0.0 
0.0 0.0 -1.431460600935e+02 
-9.369498060596e+01 1.804643108960e+01 0.0 
1.804643108960e+01 -2.371567618594e+02 0.0 
0.0 0.0 -9.885552273960e+01 
-5.487311662973e+01 9.094564377117e+00 0.0 
9.094564377117e+00 -1.930086053155e+02 0.0 
0.0 0.0 -7.396451658358e+01 
-9.630711310596e+01 1.973073792647e+01 0.0 
1.973073792647e+01 -2.194282542449e+02 0.0 
0.0 0.0 -9.432061020526e+01 
-3.131264736581e+01 -1.849317923073e+01 0.0 
-1.849317923073e+01 -1.218319852276e+02 0.0 
0.0 0.0 -4.705173641119e+01 
-1.121384881764e+02 1.911062976753e+01 0.0 
1.911062976753e+01 -2.589451364554e+02 0.0 
0.0 0.0 -1.109250873895e+02 
-1.176965186643e+02 1.407967081409e+01 0.0 
1.407967081409e+01 -3.054770683444e+02 0.0 
0.0 0.0 -1.265520761026e+02 
-1.344748210370e+02 1.784535866280e+01 0.0 
1.784535866280e+01 -3.046478309087e+02 0.0 
0.0 0.0 -1.313367955837e+02 
-1.202431183088e+02 1.911663348516e+01 0.0 
1.911663348516e+01 -2.786661452596e+02 0.0 
0.0 0.0 -1.192727790705e+02 
-4.013890284728e+01 6.080133473815e+00 0.0 
6.080133473815e+00 -1.642876099047e+02 0.0 
0.0 0.0 -6.092795382560e+01 
-1.267926318700e+02 8.560506012765e-01 0.0 
8.560506012765e-01 -3.116318165755e+02 0.0 
0.0 0.0 -1.311273345337e+02 
-1.230457475579e+02 4.904534877195e+00 0.0 
4.904534877195e+00 -2.781332678898e+02 0.0 
0.0 0.0 -1.199537046343e+02 
-1.480828575987e+02 1.796796601312e+01 0.0 
1.796796601312e+01 -3.549502351286e+02 0.0 
0.0 0.0 -1.505099278182e+02 
-1.228397085344e+02 1.552522977757e+01 0.0 
1.552522977757e+01 -3.121984343069e+02 0.0 
0.0 0.0 -1.301114428524e+02 
-6.777358220759e+01 1.652860084523e+01 0.0 
1.652860084523e+01 -2.059485325355e+02 0.0 
0.0 0.0 -8.171663442292e+01 
-1.041448340857e+02 1.933603545567e+01 0.0 
1.933603545567e+01 -2.391805005127e+02 0.0 
0.0 0.0 -1.025976003795e+02 
-1.431505121767e+02 -3.525667051952e-01 0.0 
-3.525667051952e-01 -3.418246304135e+02 0.0 
0.0 0.0 -1.450925427770e+02 
-9.637329325641e+01 -2.293504872082e-01 0.0 
-2.293504872082e-01 -2.308230933496e+02 0.0 
0.0 0.0 -9.775891598181e+01 
-1.160302132847e+02 1.729426613876e+01 0.0 
1.729426613876e+01 -2.721352662103e+02 0.0 
0.0 0.0 -1.160496438485e+02 
-9.838443870347e+01 3.733520390740e+00 0.0 
3.733520390740e+00 -2.063432080371e+02 0.0 
0.0 0.0 -9.101829402218e+01 
-1.357929712882e+02 1.662069426530e+00 0.0 
1.662069426530e+00 -3.304822373309e+02 0.0 
0.0 0.0 -1.394825625857e+02 
-1.307226579287e+02 2.825365236279e+00 0.0 
2.825365236279e+00 -3.260914608259e+02 0.0 
0.0 0.0 -1.366442356264e+02 
-6.192662668792e+01 8.570302602450e-02 0.0 
8.570302602450e-02 -1.254879670757e+02 0.0 
0.0 0.0 -5.582437812908e+01 
-6.182835842149e+01 -1.136850760743e-01 0.0 
-1.136850760743e-01 -1.254433324771e+02 0.0 
0.0 0.0 -5.578150726958e+01 
-1.069005668041e+02 1.202544816934e+01 0.0 
1.202544816934e+01 -2.198193884788e+02 0.0 
0.0 0.0 -9.761598658488e+01 
-1.082194876938e+02 1.742837113205e+01 0.0 
1.742837113205e+01 -2.527734740794e+02 0.0 
0.0 0.0 -1.078978885320e+02 
-1.054752762533e+02 -1.617492439128e+00 0.0 
-1.617492439128e+00 -2.617150696375e+02 0.0 
0.0 0.0 -1.097571037673e+02 
-1.066057407594e+02 1.622280153761e+01 0.0 
1.622280153761e+01 -2.265838742549e+02 0.0 
0.0 0.0 -9.955688450431e+01 
-8.849545202470e+01 1.773672316441e+01 0.0 
1.773672316441e+01 -2.324362622866e+02 0.0 
0.0 0.0 -9.587951429340e+01 
-1.372013595057e+02 9.174335072176e+00 0.0 
9.174335072176e+00 -3.449798656367e+02 0.0 
0.0 0.0 -1.442543675427e+02 
-6.986438819894e+01 1.678573080102e+01 0.0 
1.678573080102e+01 -2.068900746779e+02 0.0 
0.0 0.0 -8.262633886306e+01 
-1.361732607668e+02 9.205980885905e+00 0.0 
9.205980885905e+00 -3.137949944478e+02 0.0 
0.0 0.0 -1.345904765644e+02 
-8.122777954801e+01 4.481166479279e+00 0.0 
4.481166479279e+00 -1.573112795386e+02 0.0 
0.0 0.0 -7.116171772598e+01 
-8.342571652844e+01 2.011789795015e+01 0.0 
2.011789795015e+01 -2.182209863726e+02 0.0 
0.0 0.0 -9.009401087032e+01 
-9.864956124564e+01 -3.692472296272e+00 0.0 
-3.692472296272e+00 -2.528853268015e+02 0.0 
0.0 0.0 -1.050604664142e+02 
-3.624830310939e+01 1.161977622952e+01 0.0 
1.161977622952e+01 -1.535771121892e+02 0.0 
0.0 0.0 -5.654762458957e+01 
-8.867779471834e+01 -4.022450150115e+00 0.0 
-4.022450150115e+00 -2.277009043753e+02 0.0 
0.0 0.0 -9.451360972808e+01 
-1.004822080972e+02 1.776658664200e+01 0.0 
1.776658664200e+01 -2.333985133960e+02 0.0 
0.0 0.0 -9.976421644796e+01 
-9.422147017563e+01 1.658167290458e+01 0.0 
1.658167290458e+01 -2.053646061400e+02 0.0 
0.0 0.0 -8.947582289469e+01 
-9.923234760441e+01 4.939926741119e+00 0.0 
4.939926741119e+00 -2.061815755946e+02 0.0 
0.0 0.0 -9.122417695971e+01 
-1.095100885469e+02 1.484734485814e+01 0.0 
1.484734485814e+01 -2.386727667798e+02 0.0 
0.0 0.0 -1.040548565980e+02 
-1.138819050552e+02 1.658695974707e+01 0.0 
1.658695974707e+01 -2.466225750719e+02 0.0 
0.0 0.0 -1.077513440381e+02 
-2.150693572518e+01 -1.275457825537e-01 0.0 
-1.275457825537e-01 -5.911843946136e+01 0.0 
0.0 0.0 -2.378761255596e+01 
-8.259980525144e+01 -6.032850852026e+00 0.0 
-6.032850852026e+00 -2.139099885089e+02 0.0 
0.0 0.0 -8.855293812811e+01 
-7.111910504453e+01 2.037109973536e+01 0.0 
2.037109973536e+01 -1.439679843012e+02 0.0 
0.0 0.0 -6.412612680373e+01 
-1.020848022051e+02 1.224398128778e+01 0.0 
1.224398128778e+01 -2.131603109884e+02 0.0 
0.0 0.0 -9.417353395806e+01 
-1.070197976021e+02 1.412127941209e+01 0.0 
1.412127941209e+01 -2.225777619776e+02 0.0 
0.0 0.0 -9.847926787390e+01 
-1.320962117066e+02 1.247290215395e+01 0.0 
1.247290215395e+01 -3.334261325526e+02 0.0 
0.0 0.0 -1.392567032778e+02 
-3.612793367551e+01 -1.161291249926e+00 0.0 
-1.161291249926e+00 -8.934822736280e+01 0.0 
0.0 0.0 -3.724284831149e+01 
-3.339792217574e+01 -8.963210108208e+00 0.0 
-8.963210108208e+00 -1.403521558863e+02 0.0 
0.0 0.0 -5.214167671832e+01 
-8.811564860233e+01 1.906248537757e+01 0.0 
1.906248537757e+01 -2.091102182836e+02 0.0 
0.0 0.0 -8.876776006577e+01 
-8.517040947748e+01 -4.360826182320e+00 0.0 
-4.360826182320e+00 -2.153607380824e+02 0.0 
0.0 0.0 -8.975934426796e+01 
-6.282883654442e+01 5.077967803794e+00 0.0 
5.077967803794e+00 -1.111569155266e+02 0.0 
0.0 0.0 -5.179572562131e+01 
-6.674330768122e+01 4.559175938422e+00 0.0 
4.559175938422e+00 -1.208435550551e+02 0.0 
0.0 0.0 -5.587605882091e+01 
-1.013087187493e+02 7.035574147127e+00 0.0 
7.035574147127e+00 -2.074172208468e+02 0.0 
0.0 0.0 -9.221778187885e+01 
-3.058440093840e+01 2.367781829591e+01 0.0 
2.367781829591e+01 -1.090372961164e+02 0.0 
0.0 0.0 -4.138355459956e+01 
-9.507912893604e+01 -4.214551159491e+00 0.0 
-4.214551159491e+00 -2.410485081461e+02 0.0 
0.0 0.0 -1.004382911246e+02 
-1.182736990471e+02 8.246511492994e+00 0.0 
8.246511492994e+00 -3.109716792533e+02 0.0 
0.0 0.0 -1.283736134901e+02 
-2.951744860072e+01 -2.996364603955e+00 0.0 
-2.996364603955e+00 -1.403017248392e+02 0.0 
0.0 0.0 -5.165064932045e+01 
-1.436044534277e+02 1.940395414472e+01 0.0 
1.940395414472e+01 -3.363836429655e+02 0.0 
0.0 0.0 -1.435964289180e+02 
-1.178605026587e+02 7.185427448728e+00 0.0 
7.185427448728e+00 -2.577016327740e+02 0.0 
0.0 0.0 -1.122686406298e+02 
-9.339992834230e+01 -2.698833130949e+00 0.0 
-2.698833130949e+00 -2.302763113231e+02 0.0 
0.0 0.0 -9.670287189963e+01 
-1.298110138138e+02 -5.062588415470e-01 0.0 
-5.062588415470e-01 -3.183134265430e+02 0.0 
0.0 0.0 -1.340373321070e+02 
-1.522079519171e+01 -6.909370469255e-01 0.0 
-6.909370469255e-01 -4.246039038498e+01 0.0 
0.0 0.0 -1.690435567301e+01 
-1.138565457098e+02 6.319157431680e+00 0.0 
6.319157431680e+00 -3.023135679040e+02 0.0 
0.0 0.0 -1.244510340841e+02 
-9.125977439547e+01 2.045225250663e+01 0.0 
2.045225250663e+01 -2.137681881660e+02 0.0 
0.0 0.0 -9.110838876844e+01 
-1.489534633452e+01 -5.878966179864e-01 0.0 
-5.878966179864e-01 -4.233586189508e+01 0.0 
0.0 0.0 -1.676936246888e+01 
-1.161853489331e+02 5.439973347154e+00 0.0 
5.439973347154e+00 -2.567642160846e+02 0.0 
0.0 0.0 -1.114848695053e+02 
-2.911327706131e+01 -2.974994544087e+00 0.0 
-2.974994544087e+00 -1.361400663512e+02 0.0 
0.0 0.0 -5.036987722518e+01 
-1.031865190492e+02 1.490494965189e+01 0.0 
1.490494965189e+01 -2.142094377313e+02 0.0 
0.0 0.0 -9.481878703416e+01 
-9.348149995933e+01 1.921154564917e+01 0.0 
1.921154564917e+01 -2.055572730818e+02 0.0 
0.0 0.0 -8.931163191233e+01 
-7.811772178047e+01 1.191068048467e+00 0.0 
1.191068048467e+00 -2.333356984872e+02 0.0 
0.0 0.0 -9.303602608029e+01 
-9.942095781249e+01 -7.970403933946e-02 0.0 
-7.970403933946e-02 -2.721867063811e+02 0.0 
0.0 0.0 -1.110822992581e+02 
-1.198063732884e+02 6.497943385934e+00 0.0 
6.497943385934e+00 -2.664759337647e+02 0.0 
0.0 0.0 -1.154846921159e+02 
-1.086975250854e+02 1.208395831653e+00 0.0 
1.208395831653e+00 -2.905778015706e+02 0.0 
0.0 0.0 -1.193825979968e+02 
-9.085772598723e+01 1.875183760666e+01 0.0 
1.875183760666e+01 -2.233762113404e+02 0.0 
0.0 0.0 -9.387018119829e+01 
-8.603252031914e+01 2.100093306947e+01 0.0 
2.100093306947e+01 -2.086356501922e+02 0.0 
0.0 0.0 -8.800045115341e+01 
-3.664186599174e+01 2.740472430958e+01 0.0 
2.740472430958e+01 -2.777724305544e+01 0.0 
0.0 0.0 -1.879421230276e+01 
-2.616787397852e+01 -3.442943026475e+00 0.0 
-3.442943026475e+00 -1.306896009964e+02 0.0 
0.0 0.0 -4.838691609549e+01 
-1.238150798536e+02 1.920643163652e+01 0.0 
1.920643163652e+01 -2.916262743118e+02 0.0 
0.0 0.0 -1.242324062496e+02 
-9.450903713912e+01 7.682457514645e+00 0.0 
7.682457514645e+00 -1.877135485930e+02 0.0 
0.0 0.0 -8.426677571963e+01 
-1.275394517227e+02 1.761822292212e+01 0.0 
1.761822292212e+01 -3.041908525110e+02 0.0 
0.0 0.0 -1.291190912701e+02 
-4.610194062272e+01 2.367901463396e+01 0.0 
2.367901463396e+01 -1.428102376838e+02 0.0 
0.0 0.0 -5.627365349196e+01 
-1.153361404065e+02 1.012409992961e+01 0.0 
1.012409992961e+01 -2.483833002115e+02 0.0 
0.0 0.0 -1.087158321854e+02 
-1.283711068424e+02 1.938223020485e+01 0.0 
1.938223020485e+01 -2.983224667471e+02 0.0 
0.0 0.0 -1.276080720769e+02 
-6.943350825738e+01 3.408233135804e+00 0.0 
3.408233135804e+00 -1.284487174947e+02 0.0 
0.0 0.0 -5.896466772562e+01 
-1.238538628767e+02 1.742224378342e+01 0.0 
1.742224378342e+01 -2.911970251962e+02 0.0 
0.0 0.0 -1.241152664219e+02 
-1.313270811252e+02 9.751323564080e-01 0.0 
9.751323564080e-01 -3.192910536886e+02 0.0 
0.0 0.0 -1.347854404441e+02 
-1.035505279332e+02 1.777663464128e+01 0.0 
1.777663464128e+01 -2.471607706454e+02 0.0 
0.0 0.0 -1.048133895736e+02 
-9.047369999844e+01 -4.863126348947e+00 0.0 
-4.863126348947e+00 -2.334949005729e+02 0.0 
0.0 0.0 -9.679058017139e+01 
-9.662476849393e+01 -2.749879899096e+00 0.0 
-2.749879899096e+00 -2.469463893915e+02 0.0 
0.0 0.0 -1.026713473656e+02 
-1.266933012020e+02 1.141842201179e+01 0.0 
1.141842201179e+01 -2.792391071441e+02 0.0 
0.0 0.0 -1.213797225038e+02 
-9.056461915991e+01 -1.488669492250e+00 0.0 
-1.488669492250e+00 -2.540131025067e+02 0.0 
0.0 0.0 -1.029733165000e+02 
-9.741306577303e+01 1.737632624973e+01 0.0 
1.737632624973e+01 -2.194377122928e+02 0.0 
0.0 0.0 -9.465523341975e+01 
-8.640566993509e+01 1.525073841965e+01 0.0 
1.525073841965e+01 -2.405729548990e+02 0.0 
0.0 0.0 -9.769358745022e+01 
-1.184135981513e+02 2.400176705645e+00 0.0 
2.400176705645e+00 -3.091253351733e+02 0.0 
0.0 0.0 -1.278616799974e+02 
-7.806123498704e+01 1.946014685105e+01 0.0 
1.946014685105e+01 -2.138982257647e+02 0.0 
0.0 0.0 -8.718783822553e+01 
-4.327650858714e+01 4.653882024188e+00 0.0 
4.653882024188e+00 -1.727634522556e+02 0.0 
0.0 0.0 -6.441198825282e+01 
-8.851829406601e+01 5.258746413833e+00 0.0 
5.258746413833e+00 -2.579964358244e+02 0.0 
0.0 0.0 -1.035544189671e+02 
-4.733140000480e+01 9.266934464533e+00 0.0 
9.266934464533e+00 -1.786477427964e+02 0.0 
0.0 0.0 -6.739374284035e+01 
-1.058458681725e+02 1.364920688792e+01 0.0 
1.364920688792e+01 -2.257359887311e+02 0.0 
0.0 0.0 -9.907455707110e+01 
-4.741057596851e+01 6.595650540349e+00 0.0 
6.595650540349e+00 -1.780869715516e+02 0.0 
0.0 0.0 -6.724926425604e+01 
-1.025143245152e+02 1.716257536184e+01 0.0 
1.716257536184e+01 -2.191855844342e+02 0.0 
0.0 0.0 -9.610997268481e+01 
-1.276685382523e+02 1.452037762853e+01 0.0 
1.452037762853e+01 -3.235990146667e+02 0.0 
0.0 0.0 -1.349802658757e+02 
-1.222193560444e+02 1.202322020293e+01 0.0 
1.202322020293e+01 -3.160717120463e+02 0.0 
0.0 0.0 -1.310873204272e+02 
-7.516755151069e+01 1.801720668790e+01 0.0 
1.801720668790e+01 -2.108081430442e+02 0.0 
0.0 0.0 -8.539270836648e+01 
-9.587445881046e+01 5.026389303564e+00 0.0 
5.026389303564e+00 -1.962661232434e+02 0.0 
0.0 0.0 -8.724217461615e+01 
-1.345005401037e+02 -4.472521035710e-01 0.0 
-4.472521035710e-01 -3.261679090901e+02 0.0 
0.0 0.0 -1.378005347581e+02 
-1.357423408030e+02 1.066420023270e+00 0.0 
1.066420023270e+00 -3.270418410100e+02 0.0 
0.0 0.0 -1.384352545439e+02 
-3.235703910935e+01 2.602284461525e+01 0.0 
2.602284461525e+01 -9.215430662506e+01 0.0 
0.0 0.0 -3.643617170676e+01 
-1.056624387433e+02 1.561264039813e+01 0.0 
1.561264039813e+01 -2.317188550181e+02 0.0 
0.0 0.0 -1.008143881284e+02 
-1.487964478013e+02 -2.023910414213e-01 0.0 
-2.023910414213e-01 -3.544578834281e+02 0.0 
0.0 0.0 -1.505762993688e+02 
-5.101263711467e+01 1.205302989961e+01 0.0 
1.205302989961e+01 -8.506507939329e+01 0.0 
0.0 0.0 -4.042331495239e+01 
-1.014528165978e+02 -1.899753101141e+00 0.0 
-1.899753101141e+00 -2.497977046885e+02 0.0 
0.0 0.0 -1.049751563859e+02 
-4.026555607306e+01 2.755313958873e+01 0.0 
2.755313958873e+01 -2.853518934792e+01 0.0 
0.0 0.0 -1.949036683651e+01 
-1.390356627142e+02 -4.042564993625e-01 0.0 
-4.042564993625e-01 -3.340860548735e+02 0.0 
0.0 0.0 -1.415365152763e+02 
-4.043290468920e+01 9.674554389237e+00 0.0 
9.674554389237e+00 -1.652067568399e+02 0.0 
0.0 0.0 -6.129189845872e+01 
-9.886171916061e+01 -1.430972518482e+00 0.0 
-1.430972518482e+00 -2.366659443457e+02 0.0 
0.0 0.0 -1.002582990519e+02 
-1.090734604992e+02 1.537378330291e+01 0.0 
1.537378330291e+01 -2.813661215985e+02 0.0 
0.0 0.0 -1.167318746293e+02 
-9.810325681775e+01 7.240865677898e+00 0.0 
7.240865677898e+00 -1.976251891200e+02 0.0 
0.0 0.0 -8.831853378132e+01 
-9.280736668160e+01 5.313523931973e+00 0.0 
5.313523931973e+00 -1.865486612117e+02 0.0 
0.0 0.0 -8.340680836800e+01 
-9.577459548797e+01 1.834244857886e+01 0.0 
1.834244857886e+01 -2.281666885248e+02 0.0 
0.0 0.0 -9.678238520382e+01 
-5.500426468227e+01 5.967846180344e+00 0.0 
5.967846180344e+00 -9.211718866097e+01 0.0 
0.0 0.0 -4.373643600297e+01 
-5.900848238859e+01 5.273828253653e+00 0.0 
5.273828253653e+00 -1.017252295047e+02 0.0 
0.0 0.0 -4.782011356800e+01 
-1.399650824964e+02 1.086544138786e+00 0.0 
1.086544138786e+00 -3.348298470883e+02 0.0 
0.0 0.0 -1.420384788754e+02 
-1.058394241472e+02 2.517521870239e+00 0.0 
2.517521870239e+00 -2.836074724436e+02 0.0 
0.0 0.0 -1.164340689772e+02 
-8.649782065403e+01 2.628947235790e+00 0.0 
2.628947235790e+00 -2.500604044439e+02 0.0 
0.0 0.0 -1.005674675294e+02 
-1.121615709572e+02 5.614399491493e+00 0.0 
5.614399491493e+00 -3.014668667043e+02 0.0 
0.0 0.0 -1.236885312985e+02 
-7.960096102964e+01 4.458352966282e+00 0.0 
4.458352966282e+00 -2.412465341467e+02 0.0 
0.0 0.0 -9.585424855290e+01 
-4.322495905537e+01 1.116035530601e+01 0.0 
1.116035530601e+01 -1.676425099660e+02 0.0 
0.0 0.0 -6.286024070640e+01 
-5.254799007179e+01 2.737854272010e+00 0.0 
2.737854272010e+00 -9.003055070327e+01 0.0 
0.0 0.0 -4.237356223252e+01 
-8.646984881216e+01 6.415691991071e+00 0.0 
6.415691991071e+00 -1.679671675053e+02 0.0 
0.0 0.0 -7.593110489524e+01 
-6.200690835895e+01 -2.473953584036e-03 0.0 
-2.473953584036e-03 -1.256753981141e+02 0.0 
0.0 0.0 -5.590469194192e+01 
-1.225297168845e+02 1.293334029673e+01 0.0 
1.293334029673e+01 -3.163880111242e+02 0.0 
0.0 0.0 -1.312753184026e+02 
-7.282137327686e+01 1.828570374679e+01 0.0 
1.828570374679e+01 -2.098684295579e+02 0.0 
0.0 0.0 -8.440694085044e+01 
-1.424586998142e+02 1.536186521430e+01 0.0 
1.536186521430e+01 -3.480992973768e+02 0.0 
0.0 0.0 -1.467673991573e+02 
-1.384962395290e+02 -9.591589333495e-01 0.0 
-9.591589333495e-01 -3.287915452217e+02 0.0 
0.0 0.0 -1.397863354252e+02 
-8.507159931517e+01 6.838316008790e+00 0.0 
6.838316008790e+00 -2.496731923220e+02 0.0 
0.0 0.0 -1.000234374912e+02 
-1.542477978380e+02 2.009348611508e+00 0.0 
2.009348611508e+00 -3.659214121678e+02 0.0 
0.0 0.0 -1.556507630017e+02 
-5.225053427429e+01 2.804043528072e+00 0.0 
2.804043528072e+00 -1.869209790187e+02 0.0 
0.0 0.0 -7.135145398791e+01 
-1.370647082484e+02 1.597849737854e+01 0.0 
1.597849737854e+01 -3.362418415926e+02 0.0 
0.0 0.0 -1.415919649523e+02 
-9.403606055239e+01 2.019388665371e+01 0.0 
2.019388665371e+01 -2.278285879157e+02 0.0 
0.0 0.0 -9.615939454042e+01 
-1.066894508083e+02 1.746151059040e+01 0.0 
1.746151059040e+01 -2.605690493902e+02 0.0 
0.0 0.0 -1.097775500596e+02 
-1.340482656779e+02 8.360524940851e+00 0.0 
8.360524940851e+00 -3.386514931088e+02 0.0 
0.0 0.0 -1.414099276360e+02 
-6.984038078789e+01 -7.648033157681e+00 0.0 
-7.648033157681e+00 -1.823727110722e+02 0.0 
0.0 0.0 -7.526392755803e+01 
-1.016669825641e+02 1.648111913066e+01 0.0 
1.648111913066e+01 -2.253577619383e+02 0.0 
0.0 0.0 -9.770742335073e+01 
-8.137384659256e+01 4.049891055717e+00 0.0 
4.049891055717e+00 -2.419088206515e+02 0.0 
0.0 0.0 -9.658480017323e+01 
-9.808583196942e+01 1.815561297372e+01 0.0 
1.815561297372e+01 -2.120698769391e+02 0.0 
0.0 0.0 -9.264671267257e+01 
-4.713801714746e+01 2.444438099543e+01 0.0 
2.444438099543e+01 -1.418198834506e+02 0.0 
0.0 0.0 -5.628737017941e+01 
-1.100024608596e+02 1.689914430805e+01 0.0 
1.689914430805e+01 -2.737056622644e+02 0.0 
0.0 0.0 -1.147124369372e+02 
-7.555838758290e+01 1.608329447838e+00 0.0 
1.608329447838e+00 -2.323477590469e+02 0.0 
0.0 0.0 -9.197184398894e+01 
-1.033295060055e+02 -3.199337537714e+00 0.0 
-3.199337537714e+00 -2.604314643122e+02 0.0 
0.0 0.0 -1.087282910953e+02 
-9.830066855487e+01 1.547900380821e+01 0.0 
1.547900380821e+01 -2.116493308396e+02 0.0 
0.0 0.0 -9.258499981835e+01 
-4.191809375246e+01 3.539110180872e+01 0.0 
3.539110180872e+01 -5.680497061924e+01 0.0 
0.0 0.0 -2.934398972854e+01 
-9.512046515531e+01 1.473253500055e+01 0.0 
1.473253500055e+01 -2.580398769262e+02 0.0 
0.0 0.0 -1.055481026244e+02 
-3.760912129729e+01 2.881390534490e+01 0.0 
2.881390534490e+01 -4.943462916747e+01 0.0 
0.0 0.0 -2.418735075413e+01 
-2.696774618212e+01 -3.404959009752e+00 0.0 
-3.404959009752e+00 -6.383377600085e+01 0.0 
0.0 0.0 -2.684045665489e+01 
-9.951997574667e+01 -3.586842007568e+00 0.0 
-3.586842007568e+00 -2.485580000628e+02 0.0 
0.0 0.0 -1.040233927428e+02 
-1.209320229697e+02 1.838009412988e+01 0.0 
1.838009412988e+01 -2.721666529285e+02 0.0 
0.0 0.0 -1.175296027694e+02 
-9.673674655559e+01 6.597207282730e+00 0.0 
6.597207282730e+00 -1.964738254340e+02 0.0 
0.0 0.0 -8.756317159687e+01 
-4.730130412704e+01 7.609998144999e+00 0.0 
7.609998144999e+00 -7.366781758296e+01 0.0 
0.0 0.0 -3.589073651300e+01 
-1.338381793827e+02 9.239521650356e+00 0.0 
9.239521650356e+00 -3.136224185597e+02 0.0 
0.0 0.0 -1.338381793827e+02 
-3.924955232771e+01 3.002586675254e+01 0.0 
3.002586675254e+01 -2.849520606223e+01 0.0 
0.0 0.0 -2.064420775102e+01 
-5.101122252372e+01 6.446632799167e+00 0.0 
6.446632799167e+00 -8.276844619645e+01 0.0 
0.0 0.0 -3.973390061605e+01 
-8.912219303660e+01 1.429491231741e+00 0.0 
1.429491231741e+00 -2.567333703062e+02 0.0 
0.0 0.0 -1.033566690028e+02 
-9.741290639352e+01 -1.950682436320e+00 0.0 
-1.950682436320e+00 -2.379501005129e+02 0.0 
0.0 0.0 -1.002089020719e+02 
-6.877282423547e+01 9.745664647886e+00 0.0 
9.745664647886e+00 -1.217560781442e+02 0.0 
0.0 0.0 -5.675867071390e+01 
-5.640308059472e+01 -4.615501874849e+00 0.0 
-4.615501874849e+00 -1.897070818719e+02 0.0 
0.0 0.0 -7.343304873997e+01 
-9.691487656845e+01 1.039855525152e+00 0.0 
1.039855525152e+00 -2.655948700062e+02 0.0 
0.0 0.0 -1.083529239724e+02 
-9.919835621497e+01 1.984695292689e+01 0.0 
1.984695292689e+01 -2.333004744200e+02 0.0 
0.0 0.0 -9.934964919049e+01 
-1.041190772095e+02 1.445820367916e+01 0.0 
1.445820367916e+01 -2.758578375036e+02 0.0 
0.0 0.0 -1.135930744140e+02 
-1.229645390395e+02 1.437575478649e+01 0.0 
1.437575478649e+01 -2.736412764545e+02 0.0 
0.0 0.0 -1.185817446482e+02 
-3.423072111468e+01 2.764942732968e+01 0.0 
2.764942732968e+01 -1.169019010965e+02 0.0 
0.0 0.0 -4.554141009004e+01 
-9.143381574812e+01 -4.477009254702e+00 0.0 
-4.477009254702e+00 -2.290495114256e+02 0.0 
0.0 0.0 -9.574499815212e+01 
-9.998836713570e+01 -3.109174614072e+00 0.0 
-3.109174614072e+00 -2.447849144915e+02 0.0 
0.0 0.0 -1.030319844882e+02 
-5.554902726700e+01 -7.223725390205e+00 0.0 
-7.223725390205e+00 -1.343646026333e+02 0.0 
0.0 0.0 -5.657408897010e+01 
-7.300547612427e+01 3.047981787745e+00 0.0 
3.047981787745e+00 -1.378898092767e+02 0.0 
0.0 0.0 -6.286858562029e+01 
-9.871319720845e+01 9.012141725753e+00 0.0 
9.012141725753e+00 -1.977976236199e+02 0.0 
0.0 0.0 -8.855324624850e+01 
-1.260629402665e+02 7.381678989380e-01 0.0 
7.381678989380e-01 -2.998128423269e+02 0.0 
0.0 0.0 -1.273627347780e+02 
-1.370526292563e+01 -7.180320364065e-01 0.0 
-7.180320364065e-01 -4.239503112774e+01 0.0 
0.0 0.0 -1.643008821601e+01 
-4.847455686898e+01 -7.145800200114e+00 0.0 
-7.145800200114e+00 -1.185838484839e+02 0.0 
0.0 0.0 -5.149591291466e+01 
-4.078807342209e+01 -6.401548491007e+00 0.0 
-6.401548491007e+00 -9.257319709598e+01 0.0 
0.0 0.0 -3.960838115542e+01 
-1.013921871404e+02 -1.288434644302e+00 0.0 
-1.288434644302e+00 -2.458051160520e+02 0.0 
0.0 0.0 -1.037591909577e+02 
-5.989288047790e+01 3.948057517757e+00 0.0 
3.948057517757e+00 -2.017182568263e+02 0.0 
0.0 0.0 -7.808334119126e+01 
-5.562864131486e+01 -4.258717883411e+00 0.0 
-4.258717883411e+00 -1.858847330317e+02 0.0 
0.0 0.0 -7.205401230397e+01 
-4.503652269698e+01 1.481042367841e+00 0.0 
1.481042367841e+00 -1.728303557963e+02 0.0 
0.0 0.0 -6.496006354798e+01 
-1.039031998255e+02 -3.009007163727e+00 0.0 
-3.009007163727e+00 -2.563017823490e+02 0.0 
0.0 0.0 -1.076614946523e+02 
-1.048949948728e+02 9.452839679258e+00 0.0 
9.452839679258e+00 -2.182564158586e+02 0.0 
0.0 0.0 -9.654542321941e+01 
-1.041598466780e+02 -2.527133993585e+00 0.0 
-2.527133993585e+00 -2.528751752822e+02 0.0 
0.0 0.0 -1.067105065881e+02 
-5.851385844185e+01 5.620296071313e+00 0.0 
5.620296071313e+00 -2.015262577519e+02 0.0 
0.0 0.0 -7.761203485813e+01 
-1.056778861806e+02 1.813460311663e+01 0.0 
1.813460311663e+01 -2.321951275977e+02 0.0 
0.0 0.0 -1.009619041335e+02 
-7.821796800913e+01 1.292753954337e+00 0.0 
1.292753954337e+00 -1.568515279279e+02 0.0 
0.0 0.0 -7.012084878110e+01 
-1.185082161609e+02 1.527418008267e+01 0.0 
1.527418008267e+01 -3.000317683034e+02 0.0 
0.0 0.0 -1.251619953393e+02 
-1.053316332842e+02 -6.919416147011e-01 0.0 
-6.919416147011e-01 -2.538103653222e+02 0.0 
0.0 0.0 -1.073425995819e+02 
-1.055491442501e+02 -1.288666615247e+00 0.0 
-1.288666615247e+00 -2.574289309996e+02 0.0 
0.0 0.0 -1.084934225749e+02 
-4.001623047141e+01 9.931644398314e+00 0.0 
9.931644398314e+00 -5.469095447019e+01 0.0 
0.0 0.0 -2.801215548248e+01 
-6.492893766539e+01 1.417416580932e+00 0.0 
1.417416580932e+00 -2.096974185312e+02 0.0 
0.0 0.0 -8.198790685899e+01 
-1.082498652844e+02 -1.993147487495e+00 0.0 
-1.993147487495e+00 -2.609855127626e+02 0.0 
0.0 0.0 -1.103706134141e+02 
-9.092125648548e+01 -4.974348134852e-01 0.0 
-4.974348134852e-01 -1.967758357796e+02 0.0 
0.0 0.0 -8.590912767952e+01 
-8.364448003110e+01 -5.973775473164e-01 0.0 
-5.973775473164e-01 -1.785159427469e+02 0.0 
0.0 0.0 -7.824812683340e+01 
-4.346655197831e+01 8.548599879947e+00 0.0 
8.548599879947e+00 -6.430047468102e+01 0.0 
0.0 0.0 -3.193010799780e+01 
-1.082308533008e+02 -2.490464555777e+00 0.0 
-2.490464555777e+00 -2.642413219368e+02 0.0 
0.0 0.0 -1.113416525713e+02 
-5.933678659385e+01 -8.539538588961e+00 0.0 
-8.539538588961e+00 -1.799576412472e+02 0.0 
0.0 0.0 -7.138832835233e+01 
-3.612227092678e+01 2.836384430718e+01 0.0 
2.836384430718e+01 -6.924409732782e+01 0.0 
0.0 0.0 -2.938208683560e+01 
-1.379210593270e+02 1.724190398340e+01 0.0 
1.724190398340e+01 -3.370098974597e+02 0.0 
0.0 0.0 -1.420792870360e+02 
-4.071189011769e+01 -1.040113889400e+01 0.0 
-1.040113889400e+01 -8.565350132424e+01 0.0 
0.0 0.0 -3.746114582107e+01 
-5.923360046702e+01 -8.502803574214e+00 0.0 
-8.502803574214e+00 -1.827772935307e+02 0.0 
0.0 0.0 -7.220326819931e+01 
-9.012387703184e+01 1.699917448162e+01 0.0 
1.699917448162e+01 -2.449939198746e+02 0.0 
0.0 0.0 -1.001353390719e+02 
-4.405213746249e+01 3.645764466200e+00 0.0 
3.645764466200e+00 -7.059386260941e+01 0.0 
0.0 0.0 -3.399380002157e+01 
-1.093016789921e+02 -1.602225379678e-01 0.0 
-1.602225379678e-01 -2.620784387922e+02 0.0 
0.0 0.0 -1.110140353353e+02 
-5.022900969731e+01 6.677284778398e-01 0.0 
6.677284778398e-01 -1.202510322199e+02 0.0 
0.0 0.0 -5.074401257517e+01 
-7.793885598397e+01 5.141603241019e+00 0.0 
5.141603241019e+00 -1.463235531734e+02 0.0 
0.0 0.0 -6.687872274721e+01 
-1.095876856412e+02 -7.560674834417e-01 0.0 
-7.560674834417e-01 -2.652485772118e+02 0.0 
0.0 0.0 -1.120508788559e+02 
-8.330784471146e+01 8.138682372034e-02 0.0 
8.138682372034e-02 -2.407650307800e+02 0.0 
0.0 0.0 -9.682186264745e+01 
-9.731120487027e+01 -2.564154763672e+00 0.0 
-2.564154763672e+00 -2.423746702602e+02 0.0 
0.0 0.0 -1.015057625391e+02 
-3.673064244643e+01 2.871303981156e+01 0.0 
2.871303981156e+01 -8.231171305496e+01 0.0 
0.0 0.0 -3.690709670832e+01 
-1.129404316639e+02 1.223632190798e+00 0.0 
1.223632190798e+00 -2.548813106517e+02 0.0 
0.0 0.0 -1.099465226947e+02 
-6.777074430864e+01 -3.510613397788e+00 0.0 
-3.510613397788e+00 -2.073900337261e+02 0.0 
0.0 0.0 -8.214823341043e+01 
-1.320935425130e+02 1.008552946209e+01 0.0 
1.008552946209e+01 -3.367025741165e+02 0.0 
0.0 0.0 -1.402388349889e+02 
-1.055364907414e+02 1.911661092639e+01 0.0 
1.911661092639e+01 -2.605225644010e+02 0.0 
0.0 0.0 -1.094177165427e+02 
-1.124698456937e+02 -2.042526209879e+00 0.0 
-2.042526209879e+00 -2.722813861935e+02 0.0 
0.0 0.0 -1.150253695662e+02 
-1.135741182081e+02 -3.248193799042e-01 0.0 
-3.248193799042e-01 -2.731713672211e+02 0.0 
0.0 0.0 -1.156236456287e+02 
-5.470851465226e+01 1.685197592185e+00 0.0 
1.685197592185e+00 -1.937772550937e+02 0.0 
0.0 0.0 -7.414573092378e+01 
-3.563789776152e+01 -1.013744386736e+01 0.0 
-1.013744386736e+01 -5.933071373709e+01 0.0 
0.0 0.0 -2.695236179589e+01 
-3.459615914503e+01 3.360183849810e+01 0.0 
3.360183849810e+01 -8.527070236119e+01 0.0 
0.0 0.0 -3.736143796319e+01 
-1.166801772144e+02 -1.641529905961e+00 0.0 
-1.641529905961e+00 -2.804430459033e+02 0.0 
0.0 0.0 -1.187369669353e+02 
-1.325531565999e+02 7.550154881769e+00 0.0 
7.550154881769e+00 -3.380527498842e+02 0.0 
0.0 0.0 -1.407817719452e+02 
-6.214454938881e+01 -9.799049775740e+00 0.0 
-9.799049775740e+00 -1.717842574032e+02 0.0 
0.0 0.0 -6.977864203759e+01 
-1.091278069328e+02 1.644004093761e+01 0.0 
1.644004093761e+01 -2.451751186156e+02 0.0 
0.0 0.0 -1.058908776645e+02 
-4.697329777602e+01 1.399548313284e+01 0.0 
1.399548313284e+01 -7.633763921963e+01 0.0 
0.0 0.0 -3.659328109870e+01 
-1.099795683679e+02 1.735191582404e+01 0.0 
1.735191582404e+01 -2.393737177909e+02 0.0 
0.0 0.0 -1.044059858477e+02 
-1.549158524716e+02 5.058874676745e+00 0.0 
5.058874676745e+00 -3.752650244461e+02 0.0 
0.0 0.0 -1.586542630753e+02 
-1.135585269671e+02 -1.385596542677e+00 0.0 
-1.385596542677e+00 -1.028286271991e+02 0.0 
0.0 0.0 -6.519301726032e+01 
-1.314913157090e+02 1.037935723886e+00 0.0 
1.037935723886e+00 -3.081464033209e+02 0.0 
0.0 0.0 -1.314913157090e+02 
-1.671143576272e+02 2.323248185341e-01 0.0 
2.323248185341e-01 -3.912668344635e+02 0.0 
0.0 0.0 -1.671143576272e+02 
-7.064445471870e+01 7.894521183123e-01 0.0 
7.894521183123e-01 -1.467535875244e+02 0.0 
0.0 0.0 -6.481941267294e+01 
-7.063035088565e+01 -6.321798893776e+00 0.0 
-6.321798893776e+00 -2.022061194544e+02 0.0 
0.0 0.0 -8.145094110200e+01 
-1.022297790480e+02 1.959694018345e+01 0.0 
1.959694018345e+01 -2.470330778351e+02 0.0 
0.0 0.0 -1.043788570649e+02 
-5.509423730157e+01 7.166038140720e+00 0.0 
7.166038140720e+00 -1.926612389121e+02 0.0 
0.0 0.0 -7.392664286409e+01 
-2.204379346248e+01 -1.186954147417e+00 0.0 
-1.186954147417e+00 -5.510934441490e+01 0.0 
0.0 0.0 -2.274594136321e+01 
-4.412145825925e+01 2.993232938762e+01 0.0 
2.993232938762e+01 -3.048047404349e+01 0.0 
0.0 0.0 -2.163230443541e+01 
-1.202002662372e+02 3.411306962729e+00 0.0 
3.411306962729e+00 -2.722521075838e+02 0.0 
0.0 0.0 -1.173357121463e+02 
-1.029602032445e+02 1.055681087094e+01 0.0 
1.055681087094e+01 -2.087784188793e+02 0.0 
0.0 0.0 -9.312158663713e+01 
-7.077246997645e+01 4.446583939767e+00 0.0 
4.446583939767e+00 -1.314972932866e+02 0.0 
0.0 0.0 -6.028092897892e+01 
-1.522767528956e+02 2.158302503471e+01 0.0 
2.158302503471e+01 -3.573201164402e+02 0.0 
0.0 0.0 -1.524790608008e+02 
-4.114202241813e+01 7.017087382380e-01 0.0 
7.017087382380e-01 -1.003490213235e+02 0.0 
0.0 0.0 -4.204731312249e+01 
-1.532451122179e+02 2.114962977429e+01 0.0 
2.114962977429e+01 -3.618106158275e+02 0.0 
0.0 0.0 -1.541167184136e+02 
-1.009056477557e+02 8.016914260409e+00 0.0 
8.016914260409e+00 -2.072889190279e+02 0.0 
0.0 0.0 -9.205837003510e+01 
-7.273729240749e+01 -7.131355041671e+00 0.0 
-7.131355041671e+00 -1.956109381781e+02 0.0 
0.0 0.0 -8.010446917568e+01 
-9.870584134286e+01 1.801440358087e+01 0.0 
1.801440358087e+01 -2.419563182132e+02 0.0 
0.0 0.0 -1.017986478668e+02 
-6.407301314409e+01 -8.470259075803e+00 0.0 
-8.470259075803e+00 -1.879494150166e+02 0.0 
0.0 0.0 -7.520672844822e+01 
-3.522260641836e+01 2.670962252924e+01 0.0 
2.670962252924e+01 -6.732423221091e+01 0.0 
0.0 0.0 -2.962982751490e+01 
-6.204879362105e+01 -9.812335527518e+00 0.0 
-9.812335527518e+00 -1.749022326593e+02 0.0 
0.0 0.0 -7.068530788411e+01 
-1.088188066296e+02 1.087747307276e+01 0.0 
1.087747307276e+01 -2.296747148779e+02 0.0 
0.0 0.0 -1.011480564523e+02 
-1.435058716246e+02 9.516530371626e-01 0.0 
9.516530371626e-01 -3.398270334290e+02 0.0 
0.0 0.0 -1.445998715161e+02 
-6.132334466563e+01 -5.892989918712e+00 0.0 
-5.892989918712e+00 -1.948426456668e+02 0.0 
0.0 0.0 -7.644979709973e+01 
-1.130601110014e+02 1.582907435778e+01 0.0 
1.582907435778e+01 -2.517536315704e+02 0.0 
0.0 0.0 -1.090441227715e+02 
-7.193947154166e+01 -2.924149989389e+00 0.0 
-2.924149989389e+00 -1.125451609715e+02 0.0 
0.0 0.0 -5.584664527718e+01 
-5.918461372463e+01 -9.576598060295e-01 0.0 
-9.576598060295e-01 -2.000112143076e+02 0.0 
0.0 0.0 -7.735874840968e+01 
-1.137517167184e+02 1.110107161963e+01 0.0 
1.110107161963e+01 -2.389682935171e+02 0.0 
0.0 0.0 -1.054160030706e+02 
-6.380204209813e+01 -9.301360090274e+00 0.0 
-9.301360090274e+00 -1.672450081877e+02 0.0 
0.0 0.0 -6.891411508574e+01 
-5.983984587541e+01 -1.029745227799e+01 0.0 
-1.029745227799e+01 -1.578340757562e+02 0.0 
0.0 0.0 -6.490217648949e+01 
-9.702306974373e+01 1.958000453114e+01 0.0 
1.958000453114e+01 -2.416120373313e+02 0.0 
0.0 0.0 -1.011905321225e+02 
-3.579615238523e+01 -1.779514851327e+01 0.0 
-1.779514851327e+01 -1.075716260745e+02 0.0 
0.0 0.0 -4.210137813323e+01 
-3.254415793866e+01 1.237096521225e+01 0.0 
1.237096521225e+01 -3.340769897707e+01 0.0 
0.0 0.0 -1.938555707472e+01 
-3.676751326767e+01 1.154539714954e+01 0.0 
1.154539714954e+01 -4.597578722455e+01 0.0 
0.0 0.0 -2.442299014766e+01 
-5.740891654264e+01 -1.027148753929e+01 0.0 
-1.027148753929e+01 -1.475241775778e+02 0.0 
0.0 0.0 -6.107992823613e+01 
-9.166850847086e+01 1.631158836329e+00 0.0 
1.631158836329e+00 -2.578605372489e+02 0.0 
0.0 0.0 -1.044587137159e+02 
-8.324467426717e+01 1.707554560684e+01 0.0 
1.707554560684e+01 -2.279862835002e+02 0.0 
0.0 0.0 -9.296928733021e+01 
-1.133118964059e+02 1.817357983987e+01 0.0 
1.817357983987e+01 -2.522436532053e+02 0.0 
0.0 0.0 -1.092666648833e+02 
-1.292984808309e+02 1.412619799154e+01 0.0 
1.412619799154e+01 -2.920423528178e+02 0.0 
0.0 0.0 -1.260022500946e+02 
-3.512590146097e+01 4.922483081667e+00 0.0 
4.922483081667e+00 -5.113745390020e+01 0.0 
0.0 0.0 -2.547900660835e+01 
-9.876839095648e+01 1.311200904810e+00 0.0 
1.311200904810e+00 -2.165212591533e+02 0.0 
0.0 0.0 -9.418689503294e+01 
-1.339076431887e+02 1.744993224181e+01 0.0 
1.744993224181e+01 -3.092790339495e+02 0.0 
0.0 0.0 -1.325560031414e+02 
-5.066846376896e+01 5.118112976421e+00 0.0 
5.118112976421e+00 -1.867713896137e+02 0.0 
0.0 0.0 -7.083195601480e+01 
-3.496970702458e+01 2.733596072600e+01 0.0 
2.733596072600e+01 -4.873753980762e+01 0.0 
0.0 0.0 -2.313331622618e+01 
-5.379835744831e+01 1.691009701269e+01 0.0 
1.691009701269e+01 -8.747731563948e+01 0.0 
0.0 0.0 -4.198270192634e+01 
-8.847407312802e+01 -5.672506874455e-01 0.0 
-5.672506874455e-01 -2.480136528911e+02 0.0 
0.0 0.0 -1.005463178057e+02 
-1.129436269543e+02 1.417090063288e+01 0.0 
1.417090063288e+01 -2.457857838500e+02 0.0 
0.0 0.0 -1.072188232413e+02 
-8.538858205179e+01 -8.733995345580e-01 0.0 
-8.733995345580e-01 -2.466393080799e+02 0.0 
0.0 0.0 -9.920836703950e+01 
-3.060889275557e+01 2.588120015717e+01 0.0 
2.588120015717e+01 -9.592055027331e+01 0.0 
0.0 0.0 -3.759824409476e+01 
-1.004878500840e+02 3.065793451757e+00 0.0 
3.065793451757e+00 -2.753182448092e+02 0.0 
0.0 0.0 -1.123418284679e+02 
-3.617210865380e+01 2.540912647254e+01 0.0 
2.540912647254e+01 -6.705399881636e+01 0.0 
0.0 0.0 -3.056783224105e+01 
-8.131651237308e+01 1.754946157968e+01 0.0 
1.754946157968e+01 -2.272648574892e+02 0.0 
0.0 0.0 -9.217441095868e+01 
-9.413675460080e+01 4.705614653155e-01 0.0 
4.705614653155e-01 -2.642920675511e+02 0.0 
0.0 0.0 -1.071286466456e+02 
-1.017617166422e+02 1.740685377386e+01 0.0 
1.740685377386e+01 -2.553105681725e+02 0.0 
0.0 0.0 -1.067216854444e+02 
-8.989981107711e+01 1.490371831322e+00 0.0 
1.490371831322e+00 -1.920288556360e+02 0.0 
0.0 0.0 -8.417860001392e+01 
-5.983512190035e+01 -8.445272402044e+00 0.0 
-8.445272402044e+00 -1.489118840209e+02 0.0 
0.0 0.0 -6.222410177637e+01 
-3.631984490952e+01 2.995777214751e+01 0.0 
2.995777214751e+01 -7.152846115195e+01 0.0 
0.0 0.0 -3.092746928848e+01 
-1.033367949516e+02 1.738842772500e+00 0.0 
1.738842772500e+00 -2.823794460525e+02 0.0 
0.0 0.0 -1.153148723012e+02 
-3.721587853645e+01 2.324534427944e+01 0.0 
2.324534427944e+01 -6.668956692774e+01 0.0 
0.0 0.0 -3.077163363926e+01 
-4.558126854887e+01 9.666708130152e+00 0.0 
9.666708130152e+00 -1.203244666603e+02 0.0 
0.0 0.0 -5.117950888876e+01 
-1.198377978431e+02 -2.860499307068e-01 0.0 
-2.860499307068e-01 -2.737236043038e+02 0.0 
0.0 0.0 -1.176684206441e+02 
-1.131971100356e+02 -4.460088491247e-01 0.0 
-4.460088491247e-01 -2.550856498815e+02 0.0 
0.0 0.0 -1.100848279751e+02 
-1.782980398535e+01 -2.979880772218e+00 0.0 
-2.979880772218e+00 -2.482372439112e+01 0.0 
0.0 0.0 -1.270793601826e+01 
-1.097259411145e+02 4.394790064359e+00 0.0 
4.394790064359e+00 -2.931709729319e+02 0.0 
0.0 0.0 -1.204690742139e+02 
-4.840617155969e+01 -7.226764118194e+00 0.0 
-7.226764118194e+00 -1.137472363345e+02 0.0 
0.0 0.0 -4.824602236825e+01 
-5.079937393998e+01 -8.412502539804e+00 0.0 
-8.412502539804e+00 -1.202046902227e+02 0.0 
0.0 0.0 -5.090121924881e+01 
-1.204864607488e+02 1.616627495066e+01 0.0 
1.616627495066e+01 -2.717738237727e+02 0.0 
0.0 0.0 -1.172780853564e+02 
-1.003326516346e+02 1.867459434226e+01 0.0 
1.867459434226e+01 -2.549498281420e+02 0.0 
0.0 0.0 -1.061847439330e+02 
-1.166462779327e+02 1.659469751106e+01 0.0 
1.659469751106e+01 -2.650050011662e+02 0.0 
0.0 0.0 -1.140953837297e+02 
-6.257963173594e+01 -2.217760620633e+00 0.0 
-2.217760620633e+00 -2.011103158040e+02 0.0 
0.0 0.0 -7.870698426200e+01 
-6.259770511463e+01 4.847710269008e-02 0.0 
4.847710269008e-02 -1.255748489123e+02 0.0 
0.0 0.0 -5.605176620809e+01 
-1.581408327296e+02 4.339982793944e+00 0.0 
4.339982793944e+00 -3.762255223508e+02 0.0 
0.0 0.0 -1.599099065241e+02 
-4.393593381106e+01 -7.935471615684e+00 0.0 
-7.935471615684e+00 -9.966495652775e+01 0.0 
0.0 0.0 -4.268026710164e+01 
-1.275718431062e+02 1.183471496650e+01 0.0 
1.183471496650e+01 -3.263837757526e+02 0.0 
0.0 0.0 -1.357866856576e+02 
-8.650431680840e+01 1.863834496787e+01 0.0 
1.863834496787e+01 -2.318053990794e+02 0.0 
0.0 0.0 -9.509291476633e+01 
-3.119758355091e+01 -1.761548057453e+00 0.0 
-1.761548057453e+00 -7.639540145263e+01 0.0 
0.0 0.0 -3.187789550106e+01 
-1.092517192576e+02 1.290059409861e+01 0.0 
1.290059409861e+01 -2.332050694330e+02 0.0 
0.0 0.0 -1.023370366072e+02 
-6.266066448741e+01 2.687886979838e+00 0.0 
2.687886979838e+00 -2.090532471531e+02 0.0 
0.0 0.0 -8.111417349215e+01 
-3.189912714709e+01 -1.110581081104e+01 0.0 
-1.110581081104e+01 -4.648795642801e+01 0.0 
0.0 0.0 -2.236658949339e+01 
-5.158054051069e+01 -2.492955073491e+00 0.0 
-2.492955073491e+00 -1.845353000908e+02 0.0 
0.0 0.0 -7.043475218045e+01 
-1.222382695175e+02 -8.968211315835e-01 0.0 
-8.968211315835e-01 -2.911077150838e+02 0.0 
0.0 0.0 -1.236037953804e+02 
-1.106965819681e+02 1.347071811152e+01 0.0 
1.347071811152e+01 -2.313300242895e+02 0.0 
0.0 0.0 -1.022079818773e+02 
-3.697187828963e+01 -8.689274505095e+00 0.0 
-8.689274505095e+00 -7.935091148773e+01 0.0 
0.0 0.0 -3.447222264241e+01 
-9.985644109285e+01 -5.730494620459e-02 0.0 
-5.730494620459e-02 -2.375080761046e+02 0.0 
0.0 0.0 -1.008093551592e+02 
-1.168200339835e+02 1.526102514960e+01 0.0 
1.526102514960e+01 -2.588662740595e+02 0.0 
0.0 0.0 -1.123058924129e+02 
-1.233155965314e+02 1.749503270407e+01 0.0 
1.749503270407e+01 -3.062876403418e+02 0.0 
0.0 0.0 -1.284809710619e+02 
-5.981745475007e+01 -1.037346226701e+01 0.0 
-1.037346226701e+01 -1.612269988463e+02 0.0 
0.0 0.0 -6.591333607892e+01 
-5.040053783484e+01 -1.619115306117e+00 0.0 
-1.619115306117e+00 -1.203968287962e+02 0.0 
0.0 0.0 -5.083920998930e+01 
-9.156803522662e+01 1.630441507235e+01 0.0 
1.630441507235e+01 -2.454698622399e+02 0.0 
0.0 0.0 -1.007113692400e+02 
-8.688545848607e+01 8.862008433911e-01 0.0 
8.862008433911e-01 -1.862275814055e+02 0.0 
0.0 0.0 -8.153391196749e+01 
-3.332512617240e+01 -1.639917909382e+01 0.0 
-1.639917909382e+01 -5.036468677604e+01 0.0 
0.0 0.0 -2.433204921404e+01 
-1.422320939453e+02 2.007498198187e+01 0.0 
2.007498198187e+01 -3.296520529632e+02 0.0 
0.0 0.0 -1.411652440725e+02 
-1.320206690323e+02 1.357621929467e+01 0.0 
1.357621929467e+01 -3.034850342967e+02 0.0 
0.0 0.0 -1.302517109987e+02 
-7.572397352977e+01 8.797618658748e-01 0.0 
8.797618658748e-01 -1.586389528530e+02 0.0 
0.0 0.0 -6.990887791483e+01 
-1.283616954762e+02 7.862373506165e+00 0.0 
7.862373506165e+00 -2.895188222786e+02 0.0 
0.0 0.0 -1.249641553265e+02 
-1.349523635614e+02 1.541314890906e+01 0.0 
1.541314890906e+01 -3.107609674608e+02 0.0 
0.0 0.0 -1.333139993067e+02 
-6.397562882220e+01 -2.851748934135e+00 0.0 
-2.851748934135e+00 -2.059596874951e+02 0.0 
0.0 0.0 -8.058059489519e+01 
-6.576373952036e+01 -6.247722033312e+00 0.0 
-6.247722033312e+00 -1.966222745352e+02 0.0 
0.0 0.0 -7.831580421667e+01 
-1.500076085710e+02 1.419628034222e+01 0.0 
1.419628034222e+01 -3.663281964311e+02 0.0 
0.0 0.0 -1.545007415006e+02 
-6.702021024145e+01 4.101238645384e+00 0.0 
4.101238645384e+00 -1.093308317393e+02 0.0 
0.0 0.0 -5.345592477702e+01 
-4.542310347877e+01 -1.155442144398e+00 0.0 
-1.155442144398e+00 -1.094952098525e+02 0.0 
0.0 0.0 -4.607549399937e+01 
-1.008735610955e+02 -1.281372650064e+00 0.0 
-1.281372650064e+00 -2.417642610199e+02 0.0 
0.0 0.0 -1.023913466346e+02 
-6.323130627066e+01 -8.958213500625e+00 0.0 
-8.958213500625e+00 -1.630318896442e+02 0.0 
0.0 0.0 -6.747895877447e+01 
-5.419497641601e+01 -7.967280339163e+00 0.0 
-7.967280339163e+00 -1.778781357491e+02 0.0 
0.0 0.0 -6.922193364953e+01 
-3.079281042474e+01 1.715260866593e+01 0.0 
1.715260866593e+01 -1.946020302075e+01 0.0 
0.0 0.0 -1.467590403365e+01 
-3.364144201181e+01 1.717391156318e+01 0.0 
1.717391156318e+01 -3.149792931137e+01 0.0 
0.0 0.0 -1.914181139695e+01 
-7.934828002475e+01 2.330720644036e+00 0.0 
2.330720644036e+00 -1.597132782822e+02 0.0 
0.0 0.0 -7.131846749208e+01 
-5.736570351704e+01 -1.277460074404e-01 0.0 
-1.277460074404e-01 -1.944685518316e+02 0.0 
0.0 0.0 -7.515027660460e+01 
-5.392396801175e+01 -2.808830189083e+00 0.0 
-2.808830189083e+00 -1.285127628666e+02 0.0 
0.0 0.0 -5.433101926350e+01 
-1.185454684609e+02 1.675984707245e+01 0.0 
1.675984707245e+01 -2.922587157589e+02 0.0 
0.0 0.0 -1.228412552659e+02 
-1.660929837327e+02 2.660234878259e+00 0.0 
2.660234878259e+00 -3.922552375833e+02 0.0 
0.0 0.0 -1.671044663948e+02 
-1.649403577588e+02 3.736941937737e+00 0.0 
3.736941937737e+00 -3.911966638315e+02 0.0 
0.0 0.0 -1.664411064771e+02 
-6.633879748789e+01 -6.520368384592e+00 0.0 
-6.520368384592e+00 -2.003442622507e+02 0.0 
0.0 0.0 -7.960491792159e+01 
-7.321795296921e+01 1.233109402326e+00 0.0 
1.233109402326e+00 -1.435008054380e+02 0.0 
0.0 0.0 -6.461562752217e+01 
-7.037209352707e+01 -1.739312857663e-01 0.0 
-1.739312857663e-01 -1.094950376925e+02 0.0 
0.0 0.0 -5.494242332299e+01 
-3.482862338551e+01 2.382486006409e+01 0.0 
2.382486006409e+01 -2.493847244198e+01 0.0 
0.0 0.0 -1.671888455934e+01 
-4.057711179608e+01 -2.195526128800e+01 0.0 
-2.195526128800e+01 -1.137081116055e+02 0.0 
0.0 0.0 -4.506951748411e+01 
-3.322933994955e+01 2.200624836969e+01 0.0 
2.200624836969e+01 -2.328110931074e+01 0.0 
0.0 0.0 -1.647681396905e+01 
-9.518765276115e+01 1.799053637356e+01 0.0 
1.799053637356e+01 -2.498232179911e+02 0.0 
0.0 0.0 -1.031032612257e+02 
-5.746128990656e+01 -1.040528124863e+01 0.0 
-1.040528124863e+01 -1.696836232389e+02 0.0 
0.0 0.0 -6.774347394363e+01 
-6.078691944957e+01 -5.617658659803e+00 0.0 
-5.617658659803e+00 -1.913346582385e+02 0.0 
0.0 0.0 -7.523647330642e+01 
-3.822376647578e+01 -2.784156615598e+01 0.0 
-2.784156615598e+01 -9.964245705205e+01 0.0 
0.0 0.0 -4.148166244173e+01 
-1.136389616540e+02 6.191308255685e-01 0.0 
6.191308255685e-01 -2.580455687160e+02 0.0 
0.0 0.0 -1.111053591110e+02 
-6.397642379060e+01 -8.390703207355e+00 0.0 
-8.390703207355e+00 -1.848128613904e+02 0.0 
0.0 0.0 -7.423678555430e+01 
-1.194393720139e+02 1.839537032218e+00 0.0 
1.839537032218e+00 -2.715803006963e+02 0.0 
0.0 0.0 -1.169059018131e+02 
-1.089601475171e+02 1.634590194320e+00 0.0 
1.634590194320e+00 -2.425939819383e+02 0.0 
0.0 0.0 -1.050662388366e+02 
-1.328394738171e+02 9.850502268176e-01 0.0 
9.850502268176e-01 -3.081617226698e+02 0.0 
0.0 0.0 -1.319003589461e+02 
-1.667358499818e+02 1.103938851715e-01 0.0 
1.103938851715e-01 -3.913510253884e+02 0.0 
0.0 0.0 -1.670260626111e+02 
-7.573292429031e+01 -5.316628214467e-01 0.0 
-5.316628214467e-01 -1.591088920093e+02 0.0 
0.0 0.0 -7.005254488990e+01 
-6.843398581998e+01 -7.891457313364e+00 0.0 
-7.891457313364e+00 -1.899334538335e+02 0.0 
0.0 0.0 -7.711023189603e+01 
-2.608393623174e+01 6.213237972647e+00 0.0 
6.213237972647e+00 -3.151943921319e+01 0.0 
0.0 0.0 -1.688101263348e+01 
-6.885900720282e+01 -8.110109627848e+00 0.0 
-8.110109627848e+00 -1.937361131003e+02 0.0 
0.0 0.0 -7.837853609094e+01 
-1.678761261275e+02 1.939744468794e+00 0.0 
1.939744468794e+00 -3.930442942975e+02 0.0 
0.0 0.0 -1.678761261275e+02 
-3.810243571696e+01 2.608956807611e+01 0.0 
2.608956807611e+01 -2.695244629998e+01 0.0 
0.0 0.0 -1.777891010557e+01 
-3.593471037811e+01 2.452276383055e+01 0.0 
2.452276383055e+01 -2.573557168009e+01 0.0 
0.0 0.0 -1.644947482401e+01 
-1.321633775296e+02 1.343257926090e+01 0.0 
1.343257926090e+01 -3.335649274976e+02 0.0 
0.0 0.0 -1.393184915082e+02 
-7.186859257550e+01 9.836773172214e-01 0.0 
9.836773172214e-01 -1.437291240346e+02 0.0 
0.0 0.0 -6.427931498302e+01 
-1.198761208873e+02 8.864098459414e-01 0.0 
8.864098459414e-01 -2.734906771096e+02 0.0 
0.0 0.0 -1.176100393991e+02 
-1.174167176792e+02 1.760970374750e+01 0.0 
1.760970374750e+01 -2.593325440830e+02 0.0 
0.0 0.0 -1.126247785286e+02 
-1.322412550557e+02 1.639274509977e+01 0.0 
1.639274509977e+01 -3.241503125810e+02 0.0 
0.0 0.0 -1.365174702910e+02 
-1.217168962305e+02 1.574848624148e+01 0.0 
1.574848624148e+01 -2.637906932790e+02 0.0 
0.0 0.0 -1.152522768528e+02 
-7.772562847015e+01 -2.271108653166e-01 0.0 
-2.271108653166e-01 -1.626546872079e+02 0.0 
0.0 0.0 -7.171409470341e+01 
-5.695501017915e+01 -9.983148615364e+00 0.0 
-9.983148615364e+00 -1.433490136238e+02 0.0 
0.0 0.0 -5.969120714089e+01 
-5.391516208206e+01 -1.163710899448e+01 0.0 
-1.163710899448e+01 -1.417466123890e+02 0.0 
0.0 0.0 -5.829853234131e+01 
-9.474074676220e+01 -3.228916682371e-01 0.0 
-3.228916682371e-01 -2.059229903550e+02 0.0 
0.0 0.0 -8.979912113518e+01 
-1.279897207852e+02 1.843660718607e+01 0.0 
1.843660718607e+01 -3.116795580946e+02 0.0 
0.0 0.0 -1.315007836640e+02 
-6.813113101670e+01 1.996689829871e+00 0.0 
1.996689829871e+00 -1.281228102442e+02 0.0 
0.0 0.0 -5.847618237826e+01 
-6.899851158460e+01 7.124216753906e-02 0.0 
7.124216753906e-02 -1.421732285573e+02 0.0 
0.0 0.0 -6.295152204258e+01 
-7.584758708183e+01 5.311492393335e-01 0.0 
5.311492393335e-01 -1.581227185970e+02 0.0 
0.0 0.0 -6.979109170365e+01 
-7.837905368368e+01 1.539007099937e+00 0.0 
1.539007099937e+00 -1.638286680047e+02 0.0 
0.0 0.0 -7.226231650652e+01 
-2.670141329229e+01 -1.355380764272e+01 0.0 
-1.355380764272e+01 -1.157211974906e+02 0.0 
0.0 0.0 -4.397247766810e+01 
-5.147129633531e+01 -1.089879378562e+01 0.0 
-1.089879378562e+01 -1.274679620851e+02 0.0 
0.0 0.0 -5.328177752612e+01 
-1.278488986377e+02 3.559697056715e+00 0.0 
3.559697056715e+00 -2.929794194637e+02 0.0 
0.0 0.0 -1.258484954304e+02 
-8.654318813958e+01 1.759025934848e+00 0.0 
1.759025934848e+00 -1.831605162387e+02 0.0 
0.0 0.0 -8.051111131349e+01 
-1.523332901605e+02 1.618396478770e+01 0.0 
1.618396478770e+01 -3.650980290662e+02 0.0 
0.0 0.0 -1.548293957680e+02 
-1.325504743154e+02 1.634570004188e+01 0.0 
1.634570004188e+01 -2.948647241471e+02 0.0 
0.0 0.0 -1.278245595387e+02 
-1.104599929788e+02 1.544795346429e+01 0.0 
1.544795346429e+01 -2.343933286767e+02 0.0 
0.0 0.0 -1.030559964967e+02 
-1.240384057485e+02 7.747172773130e+00 0.0 
7.747172773130e+00 -2.768941828018e+02 0.0 
0.0 0.0 -1.198797765651e+02 
-7.523831785592e+01 -3.279970058552e+00 0.0 
-3.279970058552e+00 -1.804137868665e+02 0.0 
0.0 0.0 -7.629563141673e+01 
-6.853859121929e+01 -3.529302482729e+00 0.0 
-3.529302482729e+00 -1.647263824981e+02 0.0 
0.0 0.0 -6.957949211522e+01 
-1.490232972005e+02 3.311645514498e+00 0.0 
3.311645514498e+00 -3.612753365309e+02 0.0 
0.0 0.0 -1.526895901194e+02 
-3.864097741810e+01 -1.956422795450e+01 0.0 
-1.956422795450e+01 -9.898261172423e+01 0.0 
0.0 0.0 -4.268145451992e+01 
-4.820779728002e+01 -4.778579690972e-01 0.0 
-4.778579690972e-01 -1.157387940716e+02 0.0 
0.0 0.0 -4.878397740548e+01 
-1.537452698895e+02 2.034264020987e+01 0.0 
2.034264020987e+01 -3.600722964087e+02 0.0 
0.0 0.0 -1.537452698895e+02 
-2.133140053271e+01 7.879415460303e-01 0.0 
7.879415460303e-01 -5.767881221921e+01 0.0 
0.0 0.0 -2.330306382558e+01 
-6.900197171710e+01 5.448231995902e-02 0.0 
5.448231995902e-02 -1.422094904328e+02 0.0 
0.0 0.0 -6.296343864497e+01 
-1.427194461660e+02 1.130517046270e+01 0.0 
1.130517046270e+01 -3.556520207961e+02 0.0 
0.0 0.0 -1.491114400887e+02 
-1.914656598431e+01 -3.514334123744e+00 0.0 
-3.514334123744e+00 -4.002072717455e+01 0.0 
0.0 0.0 -1.735018794766e+01 
-6.658423528413e+00 -2.929392538076e-01 0.0 
-2.929392538076e-01 -2.369126896381e+01 0.0 
0.0 0.0 -8.223862991090e+00 
-1.348764351496e+02 6.543062525824e+00 0.0 
6.543062525824e+00 -3.111517850140e+02 0.0 
0.0 0.0 -1.334084660491e+02 
-6.354521294475e+01 -8.497670843353e-02 0.0 
-8.497670843353e-02 -1.256062687926e+02 0.0 
0.0 0.0 -5.634544452120e+01 
-1.269567400391e+02 4.316134453189e+00 0.0 
4.316134453189e+00 -2.895337924134e+02 0.0 
0.0 0.0 -1.245471597357e+02 
-1.446029380197e+02 1.232050203458e+01 0.0 
1.232050203458e+01 -3.543726673704e+02 0.0 
0.0 0.0 -1.492926816170e+02 
-6.321923627374e+01 4.377115783809e-01 0.0 
4.377115783809e-01 -1.252861020422e+02 0.0 
0.0 0.0 -5.615160149479e+01 
-6.737100801987e+01 6.712719318598e+00 0.0 
6.712719318598e+00 -1.082825804458e+02 0.0 
0.0 0.0 -5.375711417359e+01 
-1.256363734108e+02 1.375386466397e+00 0.0 
1.375386466397e+00 -2.909141326975e+02 0.0 
0.0 0.0 -1.245651518325e+02 
-2.568106815236e+01 -8.528416715892e-01 0.0 
-8.528416715892e-01 -6.346734884907e+01 0.0 
0.0 0.0 -2.634452510043e+01 
-1.217373772071e+02 3.872002174780e+00 0.0 
3.872002174780e+00 -2.776775065967e+02 0.0 
0.0 0.0 -1.194244651412e+02 
-1.676012314259e+02 1.236104558707e+00 0.0 
1.236104558707e+00 -3.924028733272e+02 0.0 
0.0 0.0 -1.676012314259e+02 
-1.292615794696e+02 1.377785958809e+01 0.0 
1.377785958809e+01 -2.886972477206e+02 0.0 
0.0 0.0 -1.249876481571e+02 
-2.934819772895e+01 -1.036166128645e+01 0.0 
-1.036166128645e+01 -1.280009021085e+02 0.0 
0.0 0.0 -4.832603721598e+01 
-8.172077598633e+01 3.060272047416e+00 0.0 
3.060272047416e+00 -1.620560425806e+02 0.0 
0.0 0.0 -7.273304557009e+01 
-7.637468981542e+01 -1.046043327126e+00 0.0 
-1.046043327126e+00 -1.831702220270e+02 0.0 
0.0 0.0 -7.746347355272e+01 
-1.184430082370e+02 1.804157492551e+01 0.0 
1.804157492551e+01 -2.923519761720e+02 0.0 
0.0 0.0 -1.228384953227e+02 
-1.577601388084e+02 1.884005653116e+01 0.0 
1.884005653116e+01 -3.743406955478e+02 0.0 
0.0 0.0 -1.592302503069e+02 
-1.027745532510e+02 8.186801968492e-02 0.0 
8.186801968492e-02 -2.272634142571e+02 0.0 
0.0 0.0 -9.861139025243e+01 
-1.582494900465e+02 1.656818859005e+01 0.0 
1.656818859005e+01 -3.778967076290e+02 0.0 
0.0 0.0 -1.604438593026e+02 
-3.020216383823e+01 -1.444653245084e+01 0.0 
-1.444653245084e+01 -1.153269376567e+02 0.0 
0.0 0.0 -4.583242359750e+01 
-1.596219612502e+02 2.244589277320e+00 0.0 
2.244589277320e+00 -3.779263489589e+02 0.0 
0.0 0.0 -1.608644930627e+02 
-3.372771829078e+01 -1.398643735105e+01 0.0 
-1.398643735105e+01 -1.259434719572e+02 0.0 
0.0 0.0 -4.738827497365e+01 
-2.206081380811e+01 -1.163706225606e+00 0.0 
-1.163706225606e+00 -5.767158217925e+01 0.0 
0.0 0.0 -2.351971879621e+01 
-1.536510640842e+02 9.986579283839e+00 0.0 
9.986579283839e+00 -3.736395919264e+02 0.0 
0.0 0.0 -1.577871968032e+02 
-1.326749170380e+02 1.027301458168e+01 0.0 
1.027301458168e+01 -2.994431181109e+02 0.0 
0.0 0.0 -1.292354105447e+02 
-1.298745245247e+02 6.943518092845e+00 0.0 
6.943518092845e+00 -2.978773478341e+02 0.0 
0.0 0.0 -1.279255617076e+02 
-6.897702426214e+01 -4.411764569242e-01 0.0 
-4.411764569242e-01 -1.409676570843e+02 0.0 
0.0 0.0 -6.258340440392e+01 
-8.424847791486e+01 3.962967769082e+00 0.0 
3.962967769082e+00 -1.658311032864e+02 0.0 
0.0 0.0 -7.462387436038e+01 
-3.580531235986e+01 2.829214867186e+01 0.0 
2.829214867186e+01 -6.771296025554e+01 0.0 
0.0 0.0 -3.027188977439e+01 
-1.388812661886e+02 1.730304212632e+01 0.0 
1.730304212632e+01 -3.144465918440e+02 0.0 
0.0 0.0 -1.355983574098e+02 
-6.423105488288e+01 -2.222788816448e+00 0.0 
-2.222788816448e+00 -1.523489817817e+02 0.0 
0.0 0.0 -6.457401099938e+01 
-3.021009087995e+01 2.848855074825e+01 0.0 
2.848855074825e+01 -7.510717469620e+01 0.0 
0.0 0.0 -3.169370024694e+01 
-1.233470140575e+02 1.636779374219e+01 0.0 
1.636779374219e+01 -3.060879712442e+02 0.0 
0.0 0.0 -1.284304955905e+02 
-6.215673709532e+01 1.708145488107e-01 0.0 
1.708145488107e-01 -1.248605137483e+02 0.0 
0.0 0.0 -5.570517525308e+01 
-1.262739554960e+02 8.910679107070e+00 0.0 
8.910679107070e+00 -2.852009863139e+02 0.0 
0.0 0.0 -1.230424825430e+02 
-1.320880980955e+02 8.189982865869e-01 0.0 
8.189982865869e-01 -3.064581998705e+02 0.0 
0.0 0.0 -1.311638893898e+02 
-1.316992302904e+02 4.621043528504e-01 0.0 
4.621043528504e-01 -3.086315373443e+02 0.0 
0.0 0.0 -1.316992302904e+02 
-1.104327627185e+00 2.621530996343e-01 0.0 
2.621530996343e-01 -6.360365138457e+00 0.0 
0.0 0.0 -1.220381971419e+00 
-1.188182350297e+00 -5.645207098518e-01 0.0 
-5.645207098518e-01 -1.069642060311e+01 0.0 
0.0 0.0 -2.074866492435e+00 
-6.257326732474e+01 6.694832774184e-01 0.0 
6.694832774184e-01 -1.272572850846e+02 0.0 
0.0 0.0 -5.654916572279e+01 
-6.121486885329e+01 -1.026145543661e-01 0.0 
-1.026145543661e-01 -1.247551943971e+02 0.0 
0.0 0.0 -5.539101897512e+01 
-1.672530644877e+02 6.671490188410e-02 0.0 
6.671490188410e-02 -3.915904838046e+02 0.0 
0.0 0.0 -1.672530644877e+02 
-1.659360911965e+02 -7.223140897474e-01 0.0 
-7.223140897474e-01 -3.889623121376e+02 0.0 
0.0 0.0 -1.660695210002e+02 
-5.676808076600e+00 -7.156428783477e-01 0.0 
-7.156428783477e-01 -2.311390416247e+01 0.0 
0.0 0.0 -7.636254124641e+00 
-6.817089889105e+01 -4.678741065893e+00 0.0 
-4.678741065893e+00 -1.130694363242e+02 0.0 
0.0 0.0 -5.487252691177e+01 
-1.520275198533e+02 1.417414029217e-01 0.0 
1.417414029217e-01 -3.600610440226e+02 0.0 
0.0 0.0 -1.532265691628e+02 
-1.360964384302e+02 1.817097423009e+01 0.0 
1.817097423009e+01 -3.233364902182e+02 0.0 
0.0 0.0 -1.374298785945e+02 
-3.021921820205e+01 -1.212785895495e+00 0.0 
-1.212785895495e+00 -7.445093617798e+01 0.0 
0.0 0.0 -3.100104631401e+01 
-1.532959257669e+02 2.519522866864e+00 0.0 
2.519522866864e+00 -3.655073382047e+02 0.0 
0.0 0.0 -1.552409791915e+02 
-1.080858696970e+02 4.596847229936e-02 0.0 
4.596847229936e-02 -2.579072955042e+02 0.0 
0.0 0.0 -1.093979495604e+02 
-9.308374223286e+01 5.384575640882e-01 0.0 
5.384575640882e-01 -2.227518626399e+02 0.0 
0.0 0.0 -9.435068146183e+01 
-8.989760360660e+01 3.268396772586e-01 0.0 
3.268396772586e-01 -1.930613013939e+02 0.0 
0.0 0.0 -8.448767150016e+01 
-4.090154746700e+01 -1.925598319884e+01 0.0 
-1.925598319884e+01 -8.957361005236e+01 0.0 
0.0 0.0 -3.705021717059e+01 
-1.093037002024e+02 1.829973778687e+01 0.0 
1.829973778687e+01 -2.736667905286e+02 0.0 
0.0 0.0 -1.144911472193e+02 
-2.357788100746e+01 -1.967910120432e+00 0.0 
-1.967910120432e+00 -5.965831060883e+01 0.0 
0.0 0.0 -2.457085748489e+01 
-8.492961508213e+01 -1.105154712342e+00 0.0 
-1.105154712342e+00 -2.032235366484e+02 0.0 
0.0 0.0 -8.604594551916e+01 
-1.321155413743e+02 1.537251144038e+01 0.0 
1.537251144038e+01 -3.001950492566e+02 0.0 
0.0 0.0 -1.292931771893e+02 
-1.174266870972e+02 9.221138703440e-01 0.0 
9.221138703440e-01 -2.662535722171e+02 0.0 
0.0 0.0 -1.147040777943e+02 
-9.305403737377e+01 -9.963014718039e-01 0.0 
-9.963014718039e-01 -2.215268303738e+02 0.0 
0.0 0.0 -9.397426032428e+01 
-8.151406960864e+01 1.026870376890e+00 0.0 
1.026870376890e+00 -1.725018620724e+02 0.0 
0.0 0.0 -7.580477950430e+01 
-1.363078039216e+02 1.921938216608e+01 0.0 
1.921938216608e+01 -3.167766651083e+02 0.0 
0.0 0.0 -1.355253407090e+02 
-1.251471101317e+02 1.679238593005e+01 0.0 
1.679238593005e+01 -2.750718235344e+02 0.0 
0.0 0.0 -1.196656800998e+02 
-1.178150757128e+02 1.611914258583e+01 0.0 
1.611914258583e+01 -2.547064042315e+02 0.0 
0.0 0.0 -1.113564439833e+02 
-6.273313893534e+01 1.225491696193e-01 0.0 
1.225491696193e-01 -1.254883573838e+02 0.0 
0.0 0.0 -5.606644889575e+01 
-1.042570209960e+02 1.766739116438e+01 0.0 
1.766739116438e+01 -2.683058237151e+02 0.0 
0.0 0.0 -1.113688534133e+02 
-1.264311793884e+02 1.070097937382e+01 0.0 
1.070097937382e+01 -2.852290747864e+02 0.0 
0.0 0.0 -1.230980762525e+02 
-4.817276572431e+01 -1.880393392647e+00 0.0 
-1.880393392647e+00 -1.153823410394e+02 0.0 
0.0 0.0 -4.866653202911e+01 
-1.069732868791e+01 -1.719649350096e+00 0.0 
-1.719649350096e+00 -2.580025928272e+01 0.0 
0.0 0.0 -1.054927639119e+01 
-1.313441592813e+02 1.896760575814e+01 0.0 
1.896760575814e+01 -3.023206088772e+02 0.0 
0.0 0.0 -1.296994304476e+02 
-1.268417799614e+02 1.098278934721e+01 0.0 
1.098278934721e+01 -3.259902806774e+02 0.0 
0.0 0.0 -1.354496181917e+02 
-3.797542802214e+01 -2.020585441613e+01 0.0 
-2.020585441613e+01 -8.056085575486e+01 0.0 
0.0 0.0 -3.476200022732e+01 
-9.546409037018e+01 1.141189864060e+00 0.0 
1.141189864060e+00 -2.072243413518e+02 0.0 
0.0 0.0 -9.040652951660e+01 
-1.591702605882e+02 9.534024168993e-01 0.0 
9.534024168993e-01 -3.747462328894e+02 0.0 
0.0 0.0 -1.597749480433e+02 
-1.311674333453e+02 1.786597233518e+01 0.0 
1.786597233518e+01 -3.089643265674e+02 0.0 
0.0 0.0 -1.316395279738e+02 
-1.369060914656e+02 1.980863512655e+01 0.0 
1.980863512655e+01 -3.206384370978e+02 0.0 
0.0 0.0 -1.368633585690e+02 
-1.169489352090e+02 7.367050335057e-01 0.0 
7.367050335057e-01 -2.787817329397e+02 0.0 
0.0 0.0 -1.183192004446e+02 
-3.902877448533e+01 2.851656263257e+01 0.0 
2.851656263257e+01 -9.839393879659e+01 0.0 
0.0 0.0 -4.257898983563e+01 
-2.125485599003e+01 1.019249571135e+01 0.0 
1.019249571135e+01 -1.627388325853e+01 0.0 
0.0 0.0 -1.085862177457e+01 
-3.863924376494e+01 2.658817569037e+01 0.0 
2.658817569037e+01 -6.711261594283e+01 0.0 
0.0 0.0 -3.132555791233e+01 
-8.223933889686e+01 3.173536405897e+00 0.0 
3.173536405897e+00 -1.619406658894e+02 0.0 
0.0 0.0 -7.285400143588e+01 
-1.051892028816e+02 1.644211873149e+01 0.0 
1.644211873149e+01 -2.684913552663e+02 0.0 
0.0 0.0 -1.117041674444e+02 
-1.228716890470e+02 4.028905331845e+00 0.0 
4.028905331845e+00 -2.798634278365e+02 0.0 
0.0 0.0 -1.204205350650e+02 
-1.525895007668e+02 1.364446404359e+01 0.0 
1.364446404359e+01 -3.663461391733e+02 0.0 
0.0 0.0 -1.552806919820e+02 
-3.538407691185e+01 -1.400368461477e+01 0.0 
-1.400368461477e+01 -5.182916740323e+01 0.0 
0.0 0.0 -2.399445027026e+01 
-2.290812488444e+01 -5.696319909833e+00 0.0 
-5.696319909833e+00 -4.319441988366e+01 0.0 
0.0 0.0 -1.918098972507e+01 
-2.957874223910e+01 2.012478150179e+01 0.0 
2.012478150179e+01 -2.387063887307e+01 0.0 
0.0 0.0 -1.539064279052e+01 
-9.754998069831e+01 -1.639392652836e-01 0.0 
-1.639392652836e-01 -2.128263613163e+02 0.0 
0.0 0.0 -9.271290260438e+01 
-5.953046374890e+01 -1.491465820934e+00 0.0 
-1.491465820934e+00 -1.422994960724e+02 0.0 
0.0 0.0 -6.014898794638e+01 
-1.268896530634e+02 8.750045328062e+00 0.0 
8.750045328062e+00 -2.853178883536e+02 0.0 
0.0 0.0 -1.232622624251e+02 
-2.796351732155e+01 -1.784235778883e-01 0.0 
-1.784235778883e-01 -7.124018776831e+01 0.0 
0.0 0.0 -2.936111152696e+01 
-1.420500029734e+02 1.308442624054e+01 0.0 
1.308442624054e+01 -3.497006408336e+02 0.0 
0.0 0.0 -1.471251931421e+02 
-7.798629834350e+01 6.861783274987e-01 0.0 
6.861783274987e-01 -1.586228382449e+02 0.0 
0.0 0.0 -7.058274097651e+01 
-1.485085356244e+02 1.843638349180e+01 0.0 
1.843638349180e+01 -3.512538013164e+02 0.0 
0.0 0.0 -1.495287010822e+02 
-1.234628958372e+02 1.895722221430e+01 0.0 
1.895722221430e+01 -2.988287151330e+02 0.0 
0.0 0.0 -1.262874832911e+02 
-8.349310037287e+01 4.389969096601e+00 0.0 
4.389969096601e+00 -1.626974254084e+02 0.0 
0.0 0.0 -7.345715773437e+01 
-1.550499567247e+02 7.086865072028e+00 0.0 
7.086865072028e+00 -3.756721436051e+02 0.0 
0.0 0.0 -1.588166300990e+02 
-1.314130881344e+02 8.840994561755e+00 0.0 
8.840994561755e+00 -2.985382178579e+02 0.0 
0.0 0.0 -1.285853917977e+02 
-1.275436166326e+02 5.375660544674e-01 0.0 
5.375660544674e-01 -2.925784328035e+02 0.0 
0.0 0.0 -1.256366148309e+02 
-3.207149179932e+01 2.311558521303e+01 0.0 
2.311558521303e+01 -2.594330825357e+01 0.0 
0.0 0.0 -1.530921746804e+01 
-1.225231107102e+02 6.192495624740e+00 0.0 
6.192495624740e+00 -2.760782257320e+02 0.0 
0.0 0.0 -1.191804009327e+02 
-1.405002643152e+02 1.869824793147e+01 0.0 
1.869824793147e+01 -3.266991778133e+02 0.0 
0.0 0.0 -1.397598326385e+02 
-1.409634026368e+02 1.401100412858e+01 0.0 
1.401100412858e+01 -3.498261080476e+02 0.0 
0.0 0.0 -1.468368532053e+02 
-1.273277190007e+02 1.670886062238e+01 0.0 
1.670886062238e+01 -3.108299026232e+02 0.0 
0.0 0.0 -1.310472864872e+02 
-1.678520786009e+02 2.935009849897e+00 0.0 
2.935009849897e+00 -3.929881834020e+02 0.0 
0.0 0.0 -1.678520786009e+02 
-1.162693033457e+02 1.358626251580e+01 0.0 
1.358626251580e+01 -2.535539991072e+02 0.0 
0.0 0.0 -1.105469907359e+02 
-5.328245869608e+01 2.008596400989e+01 0.0 
2.008596400989e+01 -7.244617700879e+01 0.0 
0.0 0.0 -3.827033361199e+01 
-3.471498320651e+01 2.921066255309e+01 0.0 
2.921066255309e+01 -7.079693221577e+01 0.0 
0.0 0.0 -2.987594495902e+01 
-1.282383036732e+02 1.637272282445e+01 0.0 
1.637272282445e+01 -2.838303378931e+02 0.0 
0.0 0.0 -1.232205924699e+02 
-8.743366242569e+01 2.988090352829e+00 0.0 
2.988090352829e+00 -1.766675573894e+02 0.0 
0.0 0.0 -7.883036594454e+01 
-1.522605882518e+02 1.084913080482e+00 0.0 
1.084913080482e+00 -3.588632520913e+02 0.0 
0.0 0.0 -1.529371521029e+02 
-1.327563048263e+02 1.910841083783e+01 0.0 
1.910841083783e+01 -3.180194201282e+02 0.0 
0.0 0.0 -1.348327174863e+02 
-1.602823669067e+02 2.565764004636e+00 0.0 
2.565764004636e+00 -3.786801907443e+02 0.0 
0.0 0.0 -1.612887672953e+02 
-1.057914417585e+02 2.902859539930e-01 0.0 
2.902859539930e-01 -2.338079360809e+02 0.0 
0.0 0.0 -1.014798133518e+02 
-1.499516270085e+02 1.780943512396e+01 0.0 
1.780943512396e+01 -3.557281715734e+02 0.0 
0.0 0.0 -1.513039395746e+02 
-1.501817698203e+02 6.157249073916e+00 0.0 
6.157249073916e+00 -3.644499141684e+02 0.0 
0.0 0.0 -1.539895051966e+02 
-1.492334056683e+02 5.155607158960e+00 0.0 
5.155607158960e+00 -3.639150291981e+02 0.0 
0.0 0.0 -1.535445304599e+02 
-6.182054444036e+01 -1.088883725400e+00 0.0 
-1.088883725400e+00 -1.474979931908e+02 0.0 
0.0 0.0 -6.239556128934e+01 
-1.666174473649e+02 2.097315994119e+00 0.0 
2.097315994119e+00 -3.925048200571e+02 0.0 
0.0 0.0 -1.673366802266e+02 
-7.273080824213e+01 1.513978007696e+00 0.0 
1.513978007696e+00 -1.428304147886e+02 0.0 
0.0 0.0 -6.426836690923e+01 
-1.208474709031e+02 2.563780409438e+00 0.0 
2.563780409438e+00 -2.741993551408e+02 0.0 
0.0 0.0 -1.181140478132e+02 
-2.729065430240e+01 -6.880868187481e+00 0.0 
-6.880868187481e+00 -4.320442403075e+01 0.0 
0.0 0.0 -1.984870003402e+01 
-1.155907653322e+02 1.345070101785e+00 0.0 
1.345070101785e+00 -2.592265221453e+02 0.0 
0.0 0.0 -1.120451862433e+02 
-9.653337144448e+01 8.792966907179e-01 0.0 
8.792966907179e-01 -2.091148122438e+02 0.0 
0.0 0.0 -9.129445510650e+01 
-1.290211272344e+01 5.731669200822e-01 0.0 
5.731669200822e-01 -4.180813443756e+01 0.0 
0.0 0.0 -1.601307414830e+01 
-3.215911835989e+01 -1.363288486371e+01 0.0 
-1.363288486371e+01 -1.314719427676e+02 0.0 
0.0 0.0 -4.961754770586e+01 
-1.200515499428e+02 1.469612158749e+01 0.0 
1.469612158749e+01 -2.659897399037e+02 0.0 
0.0 0.0 -1.154123869540e+02 
-1.268084088400e+02 4.828886433991e+00 0.0 
4.828886433991e+00 -2.926739960036e+02 0.0 
0.0 0.0 -1.254447214531e+02 
-1.213438938093e+02 1.583226986732e+00 0.0 
1.583226986732e+00 -2.768068134644e+02 0.0 
0.0 0.0 -1.190452121821e+02 
-1.465800270489e+02 1.681257078477e+01 0.0 
1.681257078477e+01 -3.543352615902e+02 0.0 
0.0 0.0 -1.498745865917e+02 
-8.158860614722e+01 -2.025997297193e-01 0.0 
-2.025997297193e-01 -1.719634878348e+02 0.0 
0.0 0.0 -7.566562819460e+01 
-8.169990083412e+00 -6.266076027764e-01 0.0 
-6.266076027764e-01 -2.489911608127e+01 0.0 
0.0 0.0 -9.412088086516e+00 
-3.675701817476e+01 2.160907862923e+01 0.0 
2.160907862923e+01 -1.123877169625e+02 0.0 
0.0 0.0 -4.631638217699e+01 
-1.168321728183e+01 -2.151049825003e+00 0.0 
-2.151049825003e+00 -2.844601230931e+01 0.0 
0.0 0.0 -1.163876887734e+01 
-2.920945222162e+01 -6.348246633623e+00 0.0 
-6.348246633623e+00 -5.779067220109e+01 0.0 
0.0 0.0 -2.548154356866e+01 
-4.624457896101e+01 3.811597589032e+01 0.0 
3.811597589032e+01 -5.732294901685e+01 0.0 
0.0 0.0 -3.152070960804e+01 
-8.297370085200e+01 -2.421190076914e+00 0.0 
-2.421190076914e+00 -1.977675327064e+02 0.0 
0.0 0.0 -8.382237006751e+01 
-1.519854469422e+02 -4.934861896258e-01 0.0 
-4.934861896258e-01 -3.586974205765e+02 0.0 
0.0 0.0 -1.528048602556e+02 
-1.285857032720e+02 1.235073561013e+01 0.0 
1.235073561013e+01 -2.887000392320e+02 0.0 
0.0 0.0 -1.247857227512e+02 
-9.062003711589e+01 6.264169262662e+00 0.0 
6.264169262662e+00 -1.781773478704e+02 0.0 
0.0 0.0 -8.023921549588e+01 
-7.237039723539e+01 -1.790797127554e+00 0.0 
-1.790797127554e+00 -1.738391589800e+02 0.0 
0.0 0.0 -7.346286686461e+01 
-1.496490061690e+02 4.311620871778e+00 0.0 
4.311620871778e+00 -3.620231727094e+02 0.0 
0.0 0.0 -1.531016536635e+02 
-1.424350067020e+02 8.458980109877e+00 0.0 
8.458980109877e+00 -3.553316517886e+02 0.0 
0.0 0.0 -1.489299975472e+02 
-1.463869361265e+02 1.934656418651e+01 0.0 
1.934656418651e+01 -3.494762854708e+02 0.0 
0.0 0.0 -1.483589664792e+02 
-1.360650607885e+02 1.851957238737e+01 0.0 
1.851957238737e+01 -3.151082735208e+02 0.0 
0.0 0.0 -1.349520002928e+02 
-1.268751374368e+02 1.550352697301e+01 0.0 
1.550352697301e+01 -2.855664589823e+02 0.0 
0.0 0.0 -1.233324789257e+02 
-2.652830312692e+01 -5.887006912300e+00 0.0 
-5.887006912300e+00 -4.236698819697e+01 0.0 
0.0 0.0 -1.961651601100e+01 
-3.916733475543e+01 -1.785719414011e+01 0.0 
-1.785719414011e+01 -1.123796428219e+02 0.0 
0.0 0.0 -4.722654956939e+01 
-1.523581805186e+02 1.228257065244e+00 0.0 
1.228257065244e+00 -3.607025953410e+02 0.0 
0.0 0.0 -1.535182327579e+02 
-1.368750838623e+01 -3.184563610679e-01 0.0 
-3.184563610679e-01 -4.132748822042e+01 0.0 
0.0 0.0 -1.610449898200e+01 
-1.689773489217e+01 -1.302217990571e+00 0.0 
-1.302217990571e+00 -4.925895648590e+01 0.0 
0.0 0.0 -1.944700741342e+01 
-3.851701958761e+01 3.296594150610e+01 0.0 
3.296594150610e+01 -5.565751914084e+01 0.0 
0.0 0.0 -2.851485472119e+01 
-1.571965972015e+01 -1.015079241657e+00 0.0 
-1.015079241657e+00 -3.844272307861e+01 0.0 
0.0 0.0 -1.584871483963e+01 
-1.584411192982e+02 6.178160960411e+00 0.0 
6.178160960411e+00 -3.777460622264e+02 0.0 
0.0 0.0 -1.604561544574e+02 
-1.383892440975e+02 1.798171671591e+01 0.0 
1.798171671591e+01 -3.191694573111e+02 0.0 
0.0 0.0 -1.368676104226e+02 
-1.221634060980e+02 2.455400695600e+00 0.0 
2.455400695600e+00 -2.796899403299e+02 0.0 
0.0 0.0 -1.201560039284e+02 
-1.475181638758e+02 1.903720386715e+01 0.0 
1.903720386715e+01 -3.485085572690e+02 0.0 
0.0 0.0 -1.484080163434e+02 
-1.379550611955e+02 9.948046595355e+00 0.0 
9.948046595355e+00 -3.454400257656e+02 0.0 
0.0 0.0 -1.446185260883e+02 
-8.624019374518e+01 -2.408953845522e-01 0.0 
-2.408953845522e-01 -1.832955198472e+02 0.0 
0.0 0.0 -8.046071407773e+01 
-1.329600943969e+02 6.513874566028e+00 0.0 
6.513874566028e+00 -3.115735535929e+02 0.0 
0.0 0.0 -1.329600943969e+02 
-4.289059705611e+01 -1.864181696881e+01 0.0 
-1.864181696881e+01 -1.302667700661e+02 0.0 
0.0 0.0 -5.066326482133e+01 
-6.312430645608e+01 2.401514249582e-01 0.0 
2.401514249582e-01 -1.247617016337e+02 0.0 
0.0 0.0 -5.596580242694e+01 
-4.390050003616e+01 -2.047291447228e+01 0.0 
-2.047291447228e+01 -7.378708132266e+01 0.0 
0.0 0.0 -3.308554699200e+01 
-7.218978299935e+00 -6.946964353839e-01 0.0 
-6.946964353839e-01 -2.461415821771e+01 0.0 
0.0 0.0 -9.732160553475e+00 
-1.666875878152e+02 8.878260976723e-01 0.0 
8.878260976723e-01 -3.917028198088e+02 0.0 
0.0 0.0 -1.671171222872e+02 
-7.659269485884e+01 3.506978350647e+00 0.0 
3.506978350647e+00 -1.472435533816e+02 0.0 
0.0 0.0 -6.675087447213e+01 
-2.135424143991e+01 -1.033723989857e+00 0.0 
-1.033723989857e+00 -5.738155139979e+01 0.0 
0.0 0.0 -2.322073785191e+01 
-7.910944651199e+01 -2.371269051457e+00 0.0 
-2.371269051457e+00 -1.896203240817e+02 0.0 
0.0 0.0 -8.021893117811e+01 
-1.398014532685e+02 1.797680468599e+01 0.0 
1.797680468599e+01 -3.191475494060e+02 0.0 
0.0 0.0 -1.372847008023e+02 
-1.232927835091e+02 5.217634043616e+00 0.0 
5.217634043616e+00 -2.789174222665e+02 0.0 
0.0 0.0 -1.202630617327e+02 
-1.303167108835e+02 1.029938117486e+01 0.0 
1.029938117486e+01 -2.995273318318e+02 0.0 
0.0 0.0 -1.285532128146e+02 
-5.625973702085e+01 -2.448194243413e-01 0.0 
-2.448194243413e-01 -1.341541532354e+02 0.0 
0.0 0.0 -5.672416707687e+01 
-3.892367173921e+01 2.970474680344e+00 0.0 
2.970474680344e+00 -1.221013257840e+02 0.0 
0.0 0.0 -5.023733220044e+01 
-1.582473545704e+02 3.143004996176e+00 0.0 
3.143004996176e+00 -3.775401953876e+02 0.0 
0.0 0.0 -1.603362649874e+02 
-1.336750941926e+02 5.356237490483e-01 0.0 
5.356237490483e-01 -3.093306474959e+02 0.0 
0.0 0.0 -1.325017225066e+02 
-1.666363203148e+02 2.164861727126e-01 0.0 
2.164861727126e-01 -3.912315552503e+02 0.0 
0.0 0.0 -1.669603626695e+02 
-6.757261159586e+01 -4.814001587693e-01 0.0 
-4.814001587693e-01 -1.391675106254e+02 0.0 
0.0 0.0 -6.162203666638e+01 
-1.466561543357e+02 9.987982421339e+00 0.0 
9.987982421339e+00 -3.586801021973e+02 0.0 
0.0 0.0 -1.512008769599e+02 
-2.295451858039e+01 -5.384600371276e-01 0.0 
-5.384600371276e-01 -5.845017911857e+01 0.0 
0.0 0.0 -2.402140930969e+01 
-1.256297631341e+02 7.232382414049e+00 0.0 
7.232382414049e+00 -2.849548073091e+02 0.0 
0.0 0.0 -1.227753711330e+02 
-7.549311692808e+00 -4.092067746790e-01 0.0 
-4.092067746790e-01 -2.342206905604e+01 0.0 
0.0 0.0 -9.251578149660e+00 
-1.576396937215e+02 8.613352499132e+00 0.0 
8.613352499132e+00 -3.768117607416e+02 0.0 
0.0 0.0 -1.599354363389e+02 
-1.324456308671e+02 1.071498812819e+01 0.0 
1.071498812819e+01 -3.001919094178e+02 0.0 
0.0 0.0 -1.293912620854e+02 
-4.322477004189e+01 1.319350717229e+01 0.0 
1.319350717229e+01 -1.187714954860e+02 0.0 
0.0 0.0 -4.996515386213e+01 
-1.315656735384e+02 1.942584944930e+01 0.0 
1.942584944930e+01 -3.099445545930e+02 0.0 
0.0 0.0 -1.320530684394e+02 
-1.021629154261e+02 1.667557794959e+00 0.0 
1.667557794959e+00 -2.237685750335e+02 0.0 
0.0 0.0 -9.737944713791e+01 
-1.267931378497e+02 3.639612658099e+00 0.0 
3.639612658099e+00 -2.933979120943e+02 0.0 
0.0 0.0 -1.256573149832e+02 
-1.616633084826e+02 1.713431643521e+01 0.0 
1.713431643521e+01 -3.785477197927e+02 0.0 
0.0 0.0 -1.616633084826e+02 
-9.106919367748e+01 1.453215065741e+00 0.0 
1.453215065741e+00 -1.968057836942e+02 0.0 
0.0 0.0 -8.596249321150e+01 
-1.371199169297e+02 1.683493571713e+01 0.0 
1.683493571713e+01 -3.164545900989e+02 0.0 
0.0 0.0 -1.356723521086e+02 
-1.281148837599e+02 1.055631747768e+01 0.0 
1.055631747768e+01 -2.867734138906e+02 0.0 
0.0 0.0 -1.240664892951e+02 
-9.537926728438e+01 5.717003190210e-01 0.0 
5.717003190210e-01 -2.083915453986e+02 0.0 
0.0 0.0 -9.073124380490e+01 
-1.340023774515e+02 1.660381899185e+01 0.0 
1.660381899185e+01 -3.049394642049e+02 0.0 
0.0 0.0 -1.312825524969e+02 
-6.814233984351e+01 -1.059033473931e+00 0.0 
-1.059033473931e+00 -1.616964123931e+02 0.0 
0.0 0.0 -6.855162567097e+01 
-6.166847798662e+01 1.564416114980e-01 0.0 
1.564416114980e-01 -1.246927127824e+02 0.0 
0.0 0.0 -5.550835723069e+01 
-1.402926947521e+02 1.834212378055e+01 0.0 
1.834212378055e+01 -3.350744127536e+02 0.0 
0.0 0.0 -1.422101322517e+02 
-1.273785628404e+02 -2.366053745995e-02 0.0 
-2.366053745995e-02 -2.943810736950e+02 0.0 
0.0 0.0 -1.261278909606e+02 
1.016400433249e-01 1.830926199025e-02 0.0 
1.830926199025e-02 -8.795392890070e+00 0.0 
0.0 0.0 -1.858556885826e+00 
-6.139538735144e+01 -2.075230992297e-01 0.0 
-2.075230992297e-01 -1.249280091779e+02 0.0 
0.0 0.0 -5.549701895880e+01 
-1.610575076700e+02 5.988132334798e-01 0.0 
5.988132334798e-01 -3.780428160673e+02 0.0 
0.0 0.0 -1.613300971212e+02 
-3.105690725681e+01 -2.946891936717e+00 0.0 
-2.946891936717e+00 -7.367764926223e+01 0.0 
0.0 0.0 -3.102036695571e+01 
-1.415649506740e+02 1.224630412971e+01 0.0 
1.224630412971e+01 -3.535804935143e+02 0.0 
0.0 0.0 -1.481436332565e+02 
-1.297188381511e+02 1.231446098465e+01 0.0 
1.231446098465e+01 -2.875967110084e+02 0.0 
0.0 0.0 -1.247946647478e+02 
-1.277393033103e+02 3.814827287484e+00 0.0 
3.814827287484e+00 -2.926078535098e+02 0.0 
0.0 0.0 -1.257041470460e+02 
-2.845971994631e+01 -1.997040349060e+00 0.0 
-1.997040349060e+00 -7.063606349716e+01 0.0 
0.0 0.0 -2.932873503304e+01 
-3.901471235687e+01 3.403098879962e+01 0.0 
3.403098879962e+01 -8.713273759823e+01 0.0 
0.0 0.0 -3.702250535834e+01 
-9.645812165277e+01 -1.562910610127e+00 0.0 
-1.562910610127e+00 -2.313796726721e+02 0.0 
0.0 0.0 -9.795133829746e+01 
-1.092850427488e+02 3.776979235870e-01 0.0 
3.776979235870e-01 -2.450138835539e+02 0.0 
0.0 0.0 -1.058896778908e+02 
-1.149282367501e+02 -3.839098815755e+00 0.0 
-3.839098815755e+00 -9.715459960920e+01 0.0 
0.0 0.0 -6.384923542061e+01 
-1.294029548661e+02 8.555431742155e+00 0.0 
8.555431742155e+00 -2.981220784025e+02 0.0 
0.0 0.0 -1.278575099806e+02 
-8.841343854896e+01 2.618939307906e-01 0.0 
2.618939307906e-01 -1.907233637740e+02 0.0 
0.0 0.0 -8.334104069687e+01 
-4.427772719797e+01 -1.871859727904e+01 0.0 
-1.871859727904e+01 -9.054292337975e+01 0.0 
0.0 0.0 -3.818601395408e+01 
-8.300227342030e+01 2.927344161758e-01 0.0 
2.927344161758e-01 -1.768973528629e+02 0.0 
0.0 0.0 -7.756988788495e+01 
-1.455350668873e+02 2.072866498014e+01 0.0 
2.072866498014e+01 -3.438582251275e+02 0.0 
0.0 0.0 -1.464179876045e+02 
-1.014626233918e+02 1.035336952590e+00 0.0 
1.035336952590e+00 -2.424885130042e+02 0.0 
0.0 0.0 -1.027853409188e+02 
-4.646536756075e+01 3.375184172276e+01 0.0 
3.375184172276e+01 -3.131343707837e+01 0.0 
0.0 0.0 -2.407978072190e+01 
-6.118746377870e+01 -2.664265037500e+00 0.0 
-2.664265037500e+00 -1.465621139988e+02 0.0 
0.0 0.0 -6.192487333326e+01 
-8.864680245786e+01 -2.113924805315e+00 0.0 
-2.113924805315e+00 -2.127312582325e+02 0.0 
0.0 0.0 -9.001341820710e+01 
-1.057375067477e+02 -1.556950344486e+00 0.0 
-1.556950344486e+00 -2.517820962450e+02 0.0 
0.0 0.0 -1.068558808978e+02 
-1.418881018445e+02 1.824917798644e+01 0.0 
1.824917798644e+01 -3.422266433014e+02 0.0 
0.0 0.0 -1.448344235438e+02 
-8.644682732690e+01 -1.241335882600e-01 0.0 
-1.241335882600e-01 -2.072296448876e+02 0.0 
0.0 0.0 -8.770294166436e+01 
-9.203968052318e+01 -1.400573662663e+00 0.0 
-1.400573662663e+00 -2.199117711628e+02 0.0 
0.0 0.0 -9.318543550581e+01 
-1.514763445392e+01 -2.163212410747e+00 0.0 
-2.163212410747e+00 -3.721700144350e+01 0.0 
0.0 0.0 -1.530939076922e+01 
-1.525562629204e+02 1.558470805264e+00 0.0 
1.558470805264e+00 -3.655012485071e+02 0.0 
0.0 0.0 -1.550172534283e+02 
-1.306604144341e+02 1.758000172459e+01 0.0 
1.758000172459e+01 -3.022388282880e+02 0.0 
0.0 0.0 -1.294697728166e+02 
-3.604489319210e+01 3.139935989738e+01 0.0 
3.139935989738e+01 -1.022627860788e+02 0.0 
0.0 0.0 -4.219893750056e+01 
-1.270495080299e+02 8.552114637679e-01 0.0 
8.552114637679e-01 -2.936846571574e+02 0.0 
0.0 0.0 -1.258202495562e+02 
-1.607688115404e+02 -4.829763781217e-01 0.0 
-4.829763781217e-01 -3.774607612029e+02 0.0 
0.0 0.0 -1.610688718230e+02 
-6.804294893694e+01 6.665137298542e-01 0.0 
6.665137298542e-01 -1.402215004800e+02 0.0 
0.0 0.0 -6.207933482508e+01 
-8.879894014942e+01 2.298807759305e-01 0.0 
2.298807759305e-01 -1.908743215198e+02 0.0 
0.0 0.0 -8.350197850077e+01 
-8.667040099452e+01 -1.957096768347e+00 0.0 
-1.957096768347e+00 -2.070324206628e+02 0.0 
0.0 0.0 -8.771084649719e+01 
-8.982256854642e+01 -7.998760929602e-01 0.0 
-7.998760929602e-01 -2.141156731534e+02 0.0 
0.0 0.0 -9.078147250995e+01 
-9.209280682668e+01 -6.327301974610e-01 0.0 
-6.327301974610e-01 -2.207208007235e+02 0.0 
0.0 0.0 -9.344408226505e+01 
-1.361061829661e+02 1.169145264985e+01 0.0 
1.169145264985e+01 -3.416909103117e+02 0.0 
0.0 0.0 -1.429391279833e+02 
-3.719934968814e+01 -1.641946559177e+01 0.0 
-1.641946559177e+01 -6.717746767109e+01 0.0 
0.0 0.0 -2.962268205633e+01 
-1.357584649413e+02 1.960789772647e+01 0.0 
1.960789772647e+01 -3.114862202647e+02 0.0 
0.0 0.0 -1.337734055618e+02 
-7.489597081690e+01 -5.984488110265e-02 0.0 
-5.984488110265e-02 -1.570201090956e+02 0.0 
0.0 0.0 -6.917482397375e+01 
-1.310604415858e+02 8.625572043005e+00 0.0 
8.625572043005e+00 -2.971900677716e+02 0.0 
0.0 0.0 -1.280751528072e+02 
-1.371083137341e+02 1.224879701333e+01 0.0 
1.224879701333e+01 -3.420179554787e+02 0.0 
0.0 0.0 -1.433378807638e+02 
-8.424920403235e+01 8.700147359855e-01 0.0 
8.700147359855e-01 -1.777753386485e+02 0.0 
0.0 0.0 -7.820736280425e+01 
-1.291949433073e+02 1.553024726483e+01 0.0 
1.553024726483e+01 -2.915737846051e+02 0.0 
0.0 0.0 -1.258306183737e+02 
-1.411412518754e+02 1.698231175556e+01 0.0 
1.698231175556e+01 -3.412748989816e+02 0.0 
0.0 0.0 -1.443248452571e+02 
-1.470617046101e+02 1.925680198186e+01 0.0 
1.925680198186e+01 -3.529491474982e+02 0.0 
0.0 0.0 -1.496032556325e+02 
-4.270607852511e+01 3.647728016096e+01 0.0 
3.647728016096e+01 -6.823108227962e+01 0.0 
0.0 0.0 -3.426112487109e+01 
-1.305204405610e+02 1.699834900812e+01 0.0 
1.699834900812e+01 -2.923714822541e+02 0.0 
0.0 0.0 -1.264675768445e+02 
-1.343011398285e+02 1.670753984373e+01 0.0 
1.670753984373e+01 -3.051690100316e+02 0.0 
0.0 0.0 -1.314410449580e+02 
-1.357219485618e+01 -5.609035996530e-01 0.0 
-5.609035996530e-01 -3.793304373800e+01 0.0 
0.0 0.0 -1.505157157826e+01 
-8.252442999694e+01 -9.044901010025e-01 0.0 
-9.044901010025e-01 -1.971153642409e+02 0.0 
0.0 0.0 -8.349193827134e+01 
-4.893791523838e+01 3.690551014350e+01 0.0 
3.690551014350e+01 -6.765844655329e+01 0.0 
0.0 0.0 -3.594142795995e+01 
-1.348031377713e+02 1.729030363485e+01 0.0 
1.729030363485e+01 -3.030380081045e+02 0.0 
0.0 0.0 -1.309523437628e+02 
-1.253745755782e+01 4.384716461995e-01 0.0 
4.384716461995e-01 -1.147785044397e+01 0.0 
0.0 0.0 -6.804592400536e+00 
-1.140798153132e+01 -1.454059634759e-01 0.0 
-1.454059634759e-01 -9.756546540730e+00 0.0 
0.0 0.0 -5.949358421614e+00 
-1.168471601665e+01 7.218144202881e-02 0.0 
7.218144202881e-02 -9.847668238106e+00 0.0 
0.0 0.0 -6.059715276426e+00 
-1.133778794965e+01 -2.640241833771e-02 0.0 
-2.640241833771e-02 -9.673681523131e+00 0.0 
0.0 0.0 -5.903440841834e+00 
-1.151649623948e+01 -2.921176785528e-02 0.0 
-2.921176785528e-02 -9.750173603362e+00 0.0 
0.0 0.0 -5.980000952852e+00 
-1.127754535998e+01 -8.033139570113e-02 0.0 
-8.033139570113e-02 -9.693287348845e+00 0.0 
0.0 0.0 -5.891249812648e+00 
-1.136473803972e+01 -8.724366732423e-02 0.0 
-8.724366732423e-02 -9.731838602599e+00 0.0 
0.0 0.0 -5.928972992695e+00 
-1.110436133697e+01 -1.333162819026e-01 0.0 
-1.333162819026e-01 -9.698377893244e+00 0.0 
0.0 0.0 -5.840821769064e+00 
-1.118674040108e+01 -1.268612342657e-01 0.0 
-1.268612342657e-01 -9.730869767005e+00 0.0 
0.0 0.0 -5.875283050426e+00 
-1.083751234498e+01 -1.833884219589e-01 0.0 
-1.833884219589e-01 -9.692341403162e+00 0.0 
0.0 0.0 -5.758956124441e+00 
-1.097564234645e+01 -1.567038349127e-01 0.0 
-1.567038349127e-01 -9.739589877621e+00 0.0 
0.0 0.0 -5.814569667221e+00 
-1.048937906893e+01 -2.324173212215e-01 0.0 
-2.324173212215e-01 -9.678495716364e+00 0.0 
0.0 0.0 -5.650362435589e+00 
-1.072990915235e+01 -1.817773522940e-01 0.0 
-1.817773522940e-01 -9.754749500957e+00 0.0 
0.0 0.0 -5.745397595993e+00 
-1.006542828506e+01 -2.821849596501e-01 0.0 
-2.821849596501e-01 -9.658203518882e+00 0.0 
0.0 0.0 -5.517089541183e+00 
-1.045098396032e+01 -2.053911236933e-01 0.0 
-2.053911236933e-01 -9.775137571645e+00 0.0 
0.0 0.0 -5.667836459590e+00 
-9.566032952011e+00 -3.340618097108e-01 0.0 
-3.340618097108e-01 -9.633415606189e+00 0.0 
0.0 0.0 -5.359834567460e+00 
-1.013879303237e+01 -2.284567440215e-01 0.0 
-2.284567440215e-01 -9.800669095148e+00 0.0 
0.0 0.0 -5.581838638254e+00 
-8.989534448366e+00 -3.878090727467e-01 0.0 
-3.878090727467e-01 -9.604113918969e+00 0.0 
0.0 0.0 -5.178094510201e+00 
-1.274228106762e+01 4.917026950376e+00 0.0 
4.917026950376e+00 -1.285397473107e+01 0.0 
0.0 0.0 -7.278876739607e+00 
-9.796877628910e+00 -2.512372422236e-01 0.0 
-2.512372422236e-01 -9.831747149599e+00 0.0 
0.0 0.0 -5.488587433553e+00 
-8.334369544945e+00 -4.427984580415e-01 0.0 
-4.427984580415e-01 -9.570342314695e+00 0.0 
0.0 0.0 -4.971413557892e+00 
-9.432291305246e+00 -2.728850629263e-01 0.0 
-2.728850629263e-01 -9.869334912441e+00 0.0 
0.0 0.0 -5.390487865306e+00 
-3.949417458853e+00 9.200464997195e-01 0.0 
9.200464997195e-01 -5.622854377156e+00 0.0 
0.0 0.0 -2.471681550803e+00 
-7.600665094787e+00 -4.977192369956e-01 0.0 
-4.977192369956e-01 -9.530966007837e+00 0.0 
0.0 0.0 -4.739489330787e+00 
-1.665586484868e+01 3.247005332439e+00 0.0 
3.247005332439e+00 -1.096465689857e+01 0.0 
0.0 0.0 -7.886156524176e+00 
-9.057868009169e+00 -2.925850023248e-01 0.0 
-2.925850023248e-01 -9.914608679049e+00 0.0 
0.0 0.0 -5.291743006465e+00 
-6.790648719531e+00 -5.516903153445e-01 0.0 
-5.516903153445e-01 -9.483622736307e+00 0.0 
0.0 0.0 -4.482281436751e+00 
-8.691397134495e+00 -3.115694985850e-01 0.0 
-3.115694985850e-01 -9.969153711129e+00 0.0 
0.0 0.0 -5.198165253687e+00 
-5.906870807821e+00 -6.019554354228e-01 0.0 
-6.019554354228e-01 -9.435452655543e+00 0.0 
0.0 0.0 -4.202697039009e+00 
-8.346035971448e+00 -3.215471746664e-01 0.0 
-3.215471746664e-01 -1.003483591311e+01 0.0 
0.0 0.0 -5.114261565367e+00 
-4.964411565171e+00 -6.413952245698e-01 0.0 
-6.413952245698e-01 -9.377577908810e+00 0.0 
0.0 0.0 -3.902596842194e+00 
-8.065149034967e+00 -3.232915117823e-01 0.0 
-3.232915117823e-01 -1.011394267552e+01 0.0 
0.0 0.0 -5.053727513145e+00 
-3.986203621734e+00 -6.603872128785e-01 0.0 
-6.603872128785e-01 -9.329627060411e+00 0.0 
0.0 0.0 -3.594749204643e+00 
-2.453502733799e+01 8.971976745116e+00 0.0 
8.971976745116e+00 -1.292351837898e+01 0.0 
0.0 0.0 -1.083756371509e+01 
-7.886978190633e+00 -2.912434620892e-01 0.0 
-2.912434620892e-01 -1.020816116212e+01 0.0 
0.0 0.0 -5.028541805824e+00 
-3.030341245618e+00 -6.501233600560e-01 0.0 
-6.501233600560e-01 -9.246827830729e+00 0.0 
0.0 0.0 -3.283150722904e+00 
-7.936732764606e+00 -2.527246684445e-01 0.0 
-2.527246684445e-01 -1.032282838884e+01 0.0 
0.0 0.0 -5.077868346033e+00 
-2.142407493342e+00 -5.899313935053e-01 0.0 
-5.899313935053e-01 -9.225752548477e+00 0.0 
0.0 0.0 -3.010448012546e+00 
-1.477906544863e+00 -4.599505405269e-01 0.0 
-4.599505405269e-01 -9.115977044186e+00 0.0 
0.0 0.0 -2.778165076715e+00 
-8.224648399977e+00 -1.179978742663e-01 0.0 
-1.179978742663e-01 -1.045409964533e+01 0.0 
0.0 0.0 -5.203624413593e+00 
-1.157411891155e+00 -1.607595036297e-01 0.0 
-1.607595036297e-01 -9.281970674342e+00 0.0 
0.0 0.0 -2.731814769649e+00 
-9.082401247736e+00 1.980223547715e-02 0.0 
1.980223547715e-02 -1.062159986705e+01 0.0 
0.0 0.0 -5.511200334437e+00 
-1.731533998027e+00 3.912692134619e-01 0.0 
3.912692134619e-01 -9.282503085204e+00 0.0 
0.0 0.0 -2.904211124969e+00 
-3.776054579427e+00 1.685273919557e+00 0.0 
1.685273919557e+00 -1.047702257221e+01 0.0 
0.0 0.0 -3.875923145491e+00 
-1.031749703403e+01 4.971713450621e-01 0.0 
4.971713450621e-01 -1.078021152587e+01 0.0 
0.0 0.0 -5.929312567970e+00 
-1.254200960891e+01 1.048670892836e+00 0.0 
1.048670892836e+00 -1.095438095025e+01 0.0 
0.0 0.0 -6.648917167750e+00 
-1.620888808579e+01 2.550088422229e+00 0.0 
2.550088422229e+00 6.221167266144e-01 0.0 
0.0 0.0 -4.146379666803e+00 
-1.270698605786e+01 1.492410385906e+00 0.0 
1.492410385906e+00 -9.455527351131e+00 0.0 
0.0 0.0 -6.248754022698e+00 
-1.236132557190e+01 -1.306726052418e+00 0.0 
-1.306726052418e+00 -1.151085260211e+01 0.0 
0.0 0.0 -6.761653452205e+00 
-1.066479501429e+01 2.278800437984e-01 0.0 
2.278800437984e-01 -5.293077212034e+00 0.0 
0.0 0.0 -4.387361667899e+00 
-1.431582704923e+01 -9.135942859787e-02 0.0 
-9.135942859787e-02 -1.551889828863e+01 0.0 
0.0 0.0 -8.550417601360e+00 
-2.377348851469e+01 9.166395900670e+00 0.0 
9.166395900670e+00 -1.095560178254e+01 0.0 
0.0 0.0 -1.001872708917e+01 
-1.946542043144e+01 1.890331614146e-01 0.0 
1.890331614146e-01 -2.764309714908e+01 0.0 
0.0 0.0 -1.373255527415e+01 
-2.026756672275e+01 -3.272369309358e-01 0.0 
-3.272369309358e-01 -2.932234542274e+01 0.0 
0.0 0.0 -1.447697364365e+01 
-1.999455058800e+01 -7.368973713648e-02 0.0 
-7.368973713648e-02 -2.923728223792e+01 0.0 
0.0 0.0 -1.436954984777e+01 
-2.027402940415e+01 -1.737057960870e-01 0.0 
-1.737057960870e-01 -2.946539583743e+01 0.0 
0.0 0.0 -1.452182757247e+01 
-1.989963532427e+01 -1.491287713410e-01 0.0 
-1.491287713410e-01 -2.931083146789e+01 0.0 
0.0 0.0 -1.436314003765e+01 
-2.021643028393e+01 -2.456337734399e-01 0.0 
-2.456337734399e-01 -2.950286755224e+01 0.0 
0.0 0.0 -1.451578935085e+01 
-1.975736583211e+01 -2.228927756570e-01 0.0 
-2.228927756570e-01 -2.931463678484e+01 0.0 
0.0 0.0 -1.432160078509e+01 
-2.014584053718e+01 -3.353254836566e-01 0.0 
-3.353254836566e-01 -2.953326891902e+01 0.0 
0.0 0.0 -1.450373283686e+01 
-1.957702008432e+01 -2.930806358083e-01 0.0 
-2.930806358083e-01 -2.930818902788e+01 0.0 
0.0 0.0 -1.426556273366e+01 
-2.006419371149e+01 -4.263325152043e-01 0.0 
-4.263325152043e-01 -2.956187487711e+01 0.0 
0.0 0.0 -1.448782057658e+01 
-1.935597970422e+01 -3.585459554398e-01 0.0 
-3.585459554398e-01 -2.929371037909e+01 0.0 
0.0 0.0 -1.419490702499e+01 
-1.996832790813e+01 -5.162126789479e-01 0.0 
-5.162126789479e-01 -2.958882181536e+01 0.0 
0.0 0.0 -1.446714491705e+01 
-1.909519866578e+01 -4.195146027540e-01 0.0 
-4.195146027540e-01 -2.927375836563e+01 0.0 
0.0 0.0 -1.411068710942e+01 
-1.986526635483e+01 -6.045592904888e-01 0.0 
-6.045592904888e-01 -2.961476101559e+01 0.0 
0.0 0.0 -1.444400821113e+01 
-1.879594979267e+01 -4.784350973294e-01 0.0 
-4.784350973294e-01 -2.924672451380e+01 0.0 
0.0 0.0 -1.401280229194e+01 
-1.975825184262e+01 -6.943636578595e-01 0.0 
-6.943636578595e-01 -2.964253591668e+01 0.0 
0.0 0.0 -1.442023632779e+01 
-1.846067232398e+01 -5.347153396314e-01 0.0 
-5.347153396314e-01 -2.921838744224e+01 0.0 
0.0 0.0 -1.390371792987e+01 
-2.402749744714e+01 5.361845470671e+00 0.0 
5.361845470671e+00 -3.377871339931e+01 0.0 
0.0 0.0 -1.694186325394e+01 
-1.964649747098e+01 -7.818122278484e-01 0.0 
-7.818122278484e-01 -2.967185331882e+01 0.0 
0.0 0.0 -1.439550523694e+01 
-1.809409440638e+01 -5.858149643129e-01 0.0 
-5.858149643129e-01 -2.919191963037e+01 0.0 
0.0 0.0 -1.378580421103e+01 
-2.624589240160e+01 3.174634943549e+00 0.0 
3.174634943549e+00 -3.118232215923e+01 0.0 
0.0 0.0 -1.682846436825e+01 
-1.953729599284e+01 -8.626445843466e-01 0.0 
-8.626445843466e-01 -2.970371848372e+01 0.0 
0.0 0.0 -1.437230434297e+01 
-1.770445816586e+01 -6.268715017892e-01 0.0 
-6.268715017892e-01 -2.917105758720e+01 0.0 
0.0 0.0 -1.366265472592e+01 
-1.944824436666e+01 -9.298008530920e-01 0.0 
-9.298008530920e-01 -2.973827082518e+01 0.0 
0.0 0.0 -1.435595455755e+01 
-1.730329324774e+01 -6.534169018542e-01 0.0 
-6.534169018542e-01 -2.915393423571e+01 0.0 
0.0 0.0 -1.353716824504e+01 
-1.940032005011e+01 -9.773381089595e-01 0.0 
-9.773381089595e-01 -2.977416279107e+01 0.0 
0.0 0.0 -1.435234485235e+01 
-1.944680470430e+01 3.366048212180e+00 0.0 
3.366048212180e+00 -2.706556950614e+01 0.0 
0.0 0.0 -1.355371226313e+01 
-1.690650793322e+01 -6.615696049065e-01 0.0 
-6.615696049065e-01 -2.913774557481e+01 0.0 
0.0 0.0 -1.341327605241e+01 
-1.942439259847e+01 -1.005449214586e+00 0.0 
-1.005449214586e+00 -2.982421493429e+01 0.0 
0.0 0.0 -1.437458225983e+01 
-1.653830217635e+01 -6.348814679586e-01 0.0 
-6.348814679586e-01 -2.915012372456e+01 0.0 
0.0 0.0 -1.330652777027e+01 
-1.950051866825e+01 -9.767779954746e-01 0.0 
-9.767779954746e-01 -2.987342064057e+01 0.0 
0.0 0.0 -1.441218179265e+01 
-1.623942858664e+01 -5.517813996837e-01 0.0 
-5.517813996837e-01 -2.918726162942e+01 0.0 
0.0 0.0 -1.322800706482e+01 
-1.974838230034e+01 -8.833722015643e-01 0.0 
-8.833722015643e-01 -2.995677417129e+01 0.0 
0.0 0.0 -1.451154694149e+01 
-1.606688211377e+01 -3.756689377280e-01 0.0 
-3.756689377280e-01 -2.929460364943e+01 0.0 
0.0 0.0 -1.320844572896e+01 
-2.009036776646e+01 -6.336726147742e-01 0.0 
-6.336726147742e-01 -3.000567574536e+01 0.0 
0.0 0.0 -1.462881305354e+01 
-1.610756727999e+01 -8.292819072097e-02 0.0 
-8.292819072097e-02 -2.938810892474e+01 0.0 
0.0 0.0 -1.324870286142e+01 
-2.091629950983e+01 -3.020082035693e-01 0.0 
-3.020082035693e-01 -3.017294125594e+01 0.0 
0.0 0.0 -1.492677222973e+01 
-2.993228294329e+01 6.514360520516e+00 0.0 
6.514360520516e+00 -3.462559440068e+01 0.0 
0.0 0.0 -1.896736320319e+01 
-2.173286213773e+01 4.245283376849e-01 0.0 
4.245283376849e-01 -3.021759965061e+01 0.0 
0.0 0.0 -1.518513853650e+01 
-1.648221753313e+01 4.133733854796e-01 0.0 
4.133733854796e-01 -2.972176095602e+01 0.0 
0.0 0.0 -1.346119354674e+01 
-2.355840198685e+01 1.219413657309e+00 0.0 
1.219413657309e+00 -3.066029130856e+01 0.0 
0.0 0.0 -1.586560798862e+01 
-1.737021171474e+01 1.175711938466e+00 0.0 
1.175711938466e+00 -2.995982429007e+01 0.0 
0.0 0.0 -1.379901080144e+01 
-1.909225467146e+01 2.520296641808e+00 0.0 
2.520296641808e+00 -3.125464601320e+01 0.0 
0.0 0.0 -1.470407020540e+01 
-2.437451613452e+01 4.007669245023e+00 0.0 
4.007669245023e+00 -2.373081595008e+01 0.0 
0.0 0.0 -1.403159962538e+01 
-1.985017602680e+01 1.423061095501e+00 0.0 
1.423061095501e+00 -2.990817599381e+01 0.0 
0.0 0.0 -1.452750560618e+01 
-2.020015539260e+01 -1.483045467108e+00 0.0 
-1.483045467108e+00 -2.785382319753e+01 0.0 
0.0 0.0 -1.401619357704e+01 
-2.222084335679e+01 1.087016185537e-01 0.0 
1.087016185537e-01 -3.401247599996e+01 0.0 
0.0 0.0 -1.646999580702e+01 
-1.790545135107e+01 -2.136829090515e-01 0.0 
-2.136829090515e-01 -2.389468832625e+01 0.0 
0.0 0.0 -1.214004190319e+01 
-2.400279418290e+01 7.126156236749e+00 0.0 
7.126156236749e+00 -2.810749201175e+01 0.0 
0.0 0.0 -1.523308585840e+01 
-2.952393650186e+01 1.790903292133e-01 0.0 
1.790903292133e-01 -5.071823755606e+01 0.0 
0.0 0.0 -2.367265221737e+01 
-2.865829017820e+01 -3.826760384129e-01 0.0 
-3.826760384129e-01 -4.890070015213e+01 0.0 
0.0 0.0 -2.286769709910e+01 
-2.879857880211e+01 -1.390648991871e-01 0.0 
-1.390648991871e-01 -4.892569831899e+01 0.0 
0.0 0.0 -2.291728313633e+01 
-2.853201770841e+01 -2.280658490016e-01 0.0 
-2.280658490016e-01 -4.873403521405e+01 0.0 
0.0 0.0 -2.277981587674e+01 
-2.877011419787e+01 -2.310523695052e-01 0.0 
-2.310523695052e-01 -4.883562213965e+01 0.0 
0.0 0.0 -2.288172090126e+01 
-2.845224135487e+01 -3.076196048165e-01 0.0 
-3.076196048165e-01 -4.871976005110e+01 0.0 
0.0 0.0 -2.275160042179e+01 
-2.876691502329e+01 -3.154881504068e-01 0.0 
-3.154881504068e-01 -4.885429820600e+01 0.0 
0.0 0.0 -2.288636396879e+01 
-2.836624847898e+01 -4.071523936768e-01 0.0 
-4.071523936768e-01 -4.871422078320e+01 0.0 
0.0 0.0 -2.272414077865e+01 
-2.877928267559e+01 -3.974428667288e-01 0.0 
-3.974428667288e-01 -4.888244056312e+01 0.0 
0.0 0.0 -2.289851697161e+01 
-2.826893140991e+01 -5.092914888470e-01 0.0 
-5.092914888470e-01 -4.870626284008e+01 0.0 
0.0 0.0 -2.269255827500e+01 
-2.879749207181e+01 -4.783297819911e-01 0.0 
-4.783297819911e-01 -4.890958755137e+01 0.0 
0.0 0.0 -2.291212388695e+01 
-2.815888430184e+01 -6.095606640310e-01 0.0 
-6.095606640310e-01 -4.870012006736e+01 0.0 
0.0 0.0 -2.265770131076e+01 
-2.882257502311e+01 -5.485308107281e-01 0.0 
-5.485308107281e-01 -4.893682524846e+01 0.0 
0.0 0.0 -2.292782008147e+01 
-2.803702755797e+01 -7.020362538878e-01 0.0 
-7.020362538878e-01 -4.868220382293e+01 0.0 
0.0 0.0 -2.261576941427e+01 
-2.887215110756e+01 -6.142181440024e-01 0.0 
-6.142181440024e-01 -4.896131190663e+01 0.0 
0.0 0.0 -2.295003890426e+01 
-2.790919202588e+01 -7.896221715628e-01 0.0 
-7.896221715628e-01 -4.866139634429e+01 0.0 
0.0 0.0 -2.257117651105e+01 
-3.372537818094e+01 4.378458653112e+00 0.0 
4.378458653112e+00 -5.345134844859e+01 0.0 
0.0 0.0 -2.575301798886e+01 
-2.895384739777e+01 -6.777040858569e-01 0.0 
-6.777040858569e-01 -4.899143339579e+01 0.0 
0.0 0.0 -2.298358423807e+01 
-2.778230364732e+01 -8.699370213014e-01 0.0 
-8.699370213014e-01 -4.865540106362e+01 0.0 
0.0 0.0 -2.253131141328e+01 
-3.042827298371e+01 3.004079176580e+00 0.0 
3.004079176580e+00 -4.668999030123e+01 0.0 
0.0 0.0 -2.273547898548e+01 
-2.904394887034e+01 -7.295084651036e-01 0.0 
-7.295084651036e-01 -4.902689803302e+01 0.0 
0.0 0.0 -2.302125407101e+01 
-2.766331427475e+01 -9.297629456457e-01 0.0 
-9.297629456457e-01 -4.866442780817e+01 0.0 
0.0 0.0 -2.249832262488e+01 
-3.555850010965e+01 2.686349238912e+00 0.0 
2.686349238912e+00 -5.111059777157e+01 0.0 
0.0 0.0 -2.560072936437e+01 
-2.917961805761e+01 -7.538539519410e-01 0.0 
-7.538539519410e-01 -4.907468431009e+01 0.0 
0.0 0.0 -2.307629071031e+01 
-2.756825496316e+01 -9.572860452900e-01 0.0 
-9.572860452900e-01 -4.868496221702e+01 0.0 
0.0 0.0 -2.247596515405e+01 
-2.938533005012e+01 -7.421767650699e-01 0.0 
-7.421767650699e-01 -4.913307696833e+01 0.0 
0.0 0.0 -2.315552210553e+01 
-2.751911431997e+01 -9.415474636119e-01 0.0 
-9.415474636119e-01 -4.871801608742e+01 0.0 
0.0 0.0 -2.247113912222e+01 
-2.966817574441e+01 -6.860600885604e-01 0.0 
-6.860600885604e-01 -4.919646801620e+01 0.0 
0.0 0.0 -2.325939312818e+01 
-2.753994563459e+01 -8.713451804905e-01 0.0 
-8.713451804905e-01 -4.876050535190e+01 0.0 
0.0 0.0 -2.249013529595e+01 
-3.800897716167e+01 4.926621632948e+00 0.0 
4.926621632948e+00 -5.437235906260e+01 0.0 
0.0 0.0 -2.731440086728e+01 
-3.008676605027e+01 -6.055599719968e-01 0.0 
-6.055599719968e-01 -4.930269401121e+01 0.0 
0.0 0.0 -2.341683801844e+01 
-2.767673517234e+01 -7.182033199689e-01 0.0 
-7.182033199689e-01 -4.895125915012e+01 0.0 
0.0 0.0 -2.258839829674e+01 
-3.052954572278e+01 -3.682691670465e-01 0.0 
-3.682691670465e-01 -4.942642344398e+01 0.0 
0.0 0.0 -2.358679075003e+01 
-2.795825315720e+01 -4.199708749785e-01 0.0 
-4.199708749785e-01 -4.911313950395e+01 0.0 
0.0 0.0 -2.272141779835e+01 
-2.849953139719e+01 7.730241501388e-02 0.0 
7.730241501388e-02 -4.962705755041e+01 0.0 
0.0 0.0 -2.303797668428e+01 
-3.126750846780e+01 -7.733864613779e-02 0.0 
-7.733864613779e-02 -4.964693431297e+01 0.0 
0.0 0.0 -2.387433283423e+01 
-2.932140417170e+01 8.400293196155e-01 0.0 
8.400293196155e-01 -4.978485213364e+01 0.0 
0.0 0.0 -2.333187689160e+01 
-3.194073513467e+01 6.426160524924e-01 0.0 
6.426160524924e-01 -4.980783344431e+01 0.0 
0.0 0.0 -2.412457057369e+01 
-3.068247119837e+01 1.964230395769e+00 0.0 
1.964230395769e+00 -5.110002079211e+01 0.0 
0.0 0.0 -2.413474759714e+01 
-3.354618773507e+01 1.208726850368e+00 0.0 
1.208726850368e+00 -5.031163229997e+01 0.0 
0.0 0.0 -2.475734601051e+01 
-3.334668833220e+01 3.710647234804e+00 0.0 
3.710647234804e+00 -4.425910975709e+01 0.0 
0.0 0.0 -2.288173942679e+01 
-2.912345090200e+01 1.436439277466e+00 0.0 
1.436439277466e+00 -4.859533840199e+01 0.0 
0.0 0.0 -2.291563679120e+01 
-2.879257447692e+01 -1.494476337773e+00 0.0 
-1.494476337773e+00 -5.052474243658e+01 0.0 
0.0 0.0 -2.339519507405e+01 
-2.668824099959e+01 9.536488539046e-02 0.0 
9.536488539046e-02 -4.443640383316e+01 0.0 
0.0 0.0 -2.093739344982e+01 
-3.114551136738e+01 -2.032303910510e-01 0.0 
-2.032303910510e-01 -5.452191759692e+01 0.0 
0.0 0.0 -2.530022868929e+01 
-3.324200033727e+01 5.753398391665e+00 0.0 
5.753398391665e+00 -4.750657400912e+01 0.0 
0.0 0.0 -2.382457230392e+01 
-3.638895042380e+01 1.879315846504e-01 0.0 
1.879315846504e-01 -6.673660337393e+01 0.0 
0.0 0.0 -3.053766613932e+01 
-3.725624515640e+01 -3.434576227455e-01 0.0 
-3.434576227455e-01 -6.841840760577e+01 0.0 
0.0 0.0 -3.130239582865e+01 
-3.714394710825e+01 -1.496599936276e-01 0.0 
-1.496599936276e-01 -6.839822436666e+01 0.0 
0.0 0.0 -3.126265144247e+01 
-3.739573125898e+01 -2.214522919417e-01 0.0 
-2.214522919417e-01 -6.852803804735e+01 0.0 
0.0 0.0 -3.137713079190e+01 
-3.716574408467e+01 -2.452206252351e-01 0.0 
-2.452206252351e-01 -6.842542520885e+01 0.0 
0.0 0.0 -3.127735078806e+01 
-3.744373628447e+01 -3.184948228931e-01 0.0 
-3.184948228931e-01 -6.855161697785e+01 0.0 
0.0 0.0 -3.139860597870e+01 
-3.715749121959e+01 -3.149329531599e-01 0.0 
-3.149329531599e-01 -6.843230933071e+01 0.0 
0.0 0.0 -3.127694016509e+01 
-3.754035010761e+01 -4.054557742513e-01 0.0 
-4.054557742513e-01 -6.857707301021e+01 0.0 
0.0 0.0 -3.143522693535e+01 
-3.715326570609e+01 -3.899252200905e-01 0.0 
-3.899252200905e-01 -6.842173430096e+01 0.0 
0.0 0.0 -3.127250000212e+01 
-3.764075122158e+01 -4.998968395695e-01 0.0 
-4.998968395695e-01 -6.860104440609e+01 0.0 
0.0 0.0 -3.147253868830e+01 
-3.715915239812e+01 -4.616488933437e-01 0.0 
-4.616488933437e-01 -6.842012831275e+01 0.0 
0.0 0.0 -3.127378421326e+01 
-3.776937779137e+01 -5.914007260585e-01 0.0 
-5.914007260585e-01 -6.863477373043e+01 0.0 
0.0 0.0 -3.152124545654e+01 
-3.717795879247e+01 -5.194967177445e-01 0.0 
-5.194967177445e-01 -6.843272071030e+01 0.0 
0.0 0.0 -3.128320385083e+01 
-3.789895093948e+01 -6.560829699314e-01 0.0 
-6.560829699314e-01 -6.865286080034e+01 0.0 
0.0 0.0 -3.156554352194e+01 
-3.721966093067e+01 -5.622904376668e-01 0.0 
-5.622904376668e-01 -6.843883482724e+01 0.0 
0.0 0.0 -3.129754872737e+01 
-4.315086885609e+01 3.696330402298e+00 0.0 
3.696330402298e+00 -7.292128224256e+01 0.0 
0.0 0.0 -3.442164532960e+01 
-3.813242640128e+01 -7.126953638752e-01 0.0 
-7.126953638752e-01 -6.867583652352e+01 0.0 
0.0 0.0 -3.164247887744e+01 
-4.448188945657e+01 2.061277364845e+00 0.0 
2.061277364845e+00 -7.094879303869e+01 0.0 
0.0 0.0 -3.422920474858e+01 
-3.727844625604e+01 -6.068117303723e-01 0.0 
-6.068117303723e-01 -6.841549739843e+01 0.0 
0.0 0.0 -3.130818309634e+01 
-3.835713367426e+01 -7.804074203939e-01 0.0 
-7.804074203939e-01 -6.871529333173e+01 0.0 
0.0 0.0 -3.172172810180e+01 
-3.737434694269e+01 -6.184439432711e-01 0.0 
-6.184439432711e-01 -6.846449353516e+01 0.0 
0.0 0.0 -3.135165214335e+01 
-3.862020192590e+01 -7.925716863295e-01 0.0 
-7.925716863295e-01 -6.877399212592e+01 0.0 
0.0 0.0 -3.181825821555e+01 
-3.752436105942e+01 -5.813883602041e-01 0.0 
-5.813883602041e-01 -6.854575131431e+01 0.0 
0.0 0.0 -3.142103371212e+01 
-3.899219109451e+01 -7.468897152943e-01 0.0 
-7.468897152943e-01 -6.885060702063e+01 0.0 
0.0 0.0 -3.195283943454e+01 
-4.041047078024e+01 2.519095507795e+00 0.0 
2.519095507795e+00 -6.632829273871e+01 0.0 
0.0 0.0 -3.162162905569e+01 
-3.774381699362e+01 -4.942603813835e-01 0.0 
-4.942603813835e-01 -6.863621316985e+01 0.0 
0.0 0.0 -3.151400904904e+01 
-3.943756269572e+01 -6.452096676224e-01 0.0 
-6.452096676224e-01 -6.894102839616e+01 0.0 
0.0 0.0 -3.211357732756e+01 
-3.805912603926e+01 -3.361492749608e-01 0.0 
-3.361492749608e-01 -6.877535203751e+01 0.0 
0.0 0.0 -3.165034342303e+01 
-3.994772742764e+01 -4.436130446550e-01 0.0 
-4.436130446550e-01 -6.903305715129e+01 0.0 
0.0 0.0 -3.229423537368e+01 
-3.849351583928e+01 -1.071168430123e-01 0.0 
-1.071168430123e-01 -6.891844351890e+01 0.0 
0.0 0.0 -3.182358780745e+01 
-4.076300277562e+01 -2.435963072674e-01 0.0 
-2.435963072674e-01 -6.931459592990e+01 0.0 
0.0 0.0 -3.262327961166e+01 
-3.909378902093e+01 2.883820768249e-01 0.0 
2.883820768249e-01 -6.940965780634e+01 0.0 
0.0 0.0 -3.215103404818e+01 
-4.124728169341e+01 3.283678107419e-01 0.0 
3.283678107419e-01 -6.950321315692e+01 0.0 
0.0 0.0 -3.282514845510e+01 
-4.278068724537e+01 8.408261907186e-01 0.0 
8.408261907186e-01 -7.017195649111e+01 0.0 
0.0 0.0 -3.348579312094e+01 
-3.989671103294e+01 8.727515362224e-01 0.0 
8.727515362224e-01 -6.978174029829e+01 0.0 
0.0 0.0 -3.250353539937e+01 
-4.662006890969e+01 3.712833282476e+00 0.0 
3.712833282476e+00 -7.406873580014e+01 0.0 
0.0 0.0 -3.580664141295e+01 
-4.099669064498e+01 1.787427743903e+00 0.0 
1.787427743903e+00 -7.093839630171e+01 0.0 
0.0 0.0 -3.318052608401e+01 
-4.234990489331e+01 2.923277677156e+00 0.0 
2.923277677156e+00 -6.448697049516e+01 0.0 
0.0 0.0 -3.165106261654e+01 
-3.676000670246e+01 1.445528793959e+00 0.0 
1.445528793959e+00 -6.888489077863e+01 0.0 
0.0 0.0 -3.129346924433e+01 
-3.709671877263e+01 -1.481366789996e+00 0.0 
-1.481366789996e+00 -6.692030391839e+01 0.0 
0.0 0.0 -3.080510680731e+01 
-3.918701322883e+01 1.092348849021e-01 0.0 
1.092348849021e-01 -7.302857961439e+01 0.0 
0.0 0.0 -3.326467785297e+01 
-3.475302694689e+01 -1.953261697672e-01 0.0 
-1.953261697672e-01 -6.293945394912e+01 0.0 
0.0 0.0 -2.890774426880e+01 
-4.220539549829e+01 4.463745153189e+00 0.0 
4.463745153189e+00 -6.662002034505e+01 0.0 
0.0 0.0 -3.224762475300e+01 
-4.638438930871e+01 2.563222602212e-01 0.0 
2.563222602212e-01 -8.980198510704e+01 0.0 
0.0 0.0 -4.045591232473e+01 
-4.563053555021e+01 -2.971686933350e-01 0.0 
-2.971686933350e-01 -8.795841852467e+01 0.0 
0.0 0.0 -3.967668622247e+01 
-4.589619385272e+01 -5.179831344561e-02 0.0 
-5.179831344561e-02 -8.803022060935e+01 0.0 
0.0 0.0 -3.977792433862e+01 
-4.563577041598e+01 -1.601192978824e-01 0.0 
-1.601192978824e-01 -8.775479608034e+01 0.0 
0.0 0.0 -3.961716994890e+01 
-4.594396347676e+01 -1.971323422847e-01 0.0 
-1.971323422847e-01 -8.789427580539e+01 0.0 
0.0 0.0 -3.975147178464e+01 
-4.569628978346e+01 -2.544314538405e-01 0.0 
-2.544314538405e-01 -8.780757514216e+01 0.0 
0.0 0.0 -3.965115947768e+01 
-4.603858428811e+01 -2.208191589234e-01 0.0 
-2.208191589234e-01 -8.793901657870e+01 0.0 
0.0 0.0 -3.979328026004e+01 
-4.576017080646e+01 -3.064710779866e-01 0.0 
-3.064710779866e-01 -8.775665464087e+01 0.0 
0.0 0.0 -3.965504763420e+01 
-4.627966109092e+01 -2.871162422972e-01 0.0 
-2.871162422972e-01 -8.796182803061e+01 0.0 
0.0 0.0 -3.987244673646e+01 
-4.586162872046e+01 -3.853500006139e-01 0.0 
-3.853500006139e-01 -8.778309190348e+01 0.0 
0.0 0.0 -3.969341618718e+01 
-4.644073772627e+01 -3.348547725471e-01 0.0 
-3.348547725471e-01 -8.799055608591e+01 0.0 
0.0 0.0 -3.992938814365e+01 
-4.597841324299e+01 -4.407898783173e-01 0.0 
-4.407898783173e-01 -8.778918978423e+01 0.0 
0.0 0.0 -3.973028090817e+01 
-4.672952818506e+01 -3.829661623487e-01 0.0 
-3.829661623487e-01 -8.804998189328e+01 0.0 
0.0 0.0 -4.003385302350e+01 
-5.195687264768e+01 3.070519575629e+00 0.0 
3.070519575629e+00 -9.224373773223e+01 0.0 
0.0 0.0 -4.286018311397e+01 
-4.613892415439e+01 -4.836753324538e-01 0.0 
-4.836753324538e-01 -8.787946496848e+01 0.0 
0.0 0.0 -3.980551673686e+01 
-4.696982554863e+01 -3.289850607979e-01 0.0 
-3.289850607979e-01 -8.809057979555e+01 0.0 
0.0 0.0 -4.011812160326e+01 
-4.940900700961e+01 2.050866791997e+00 0.0 
2.050866791997e+00 -8.563803594101e+01 0.0 
0.0 0.0 -4.011411288519e+01 
-4.632449480411e+01 -4.730967647415e-01 0.0 
-4.730967647415e-01 -8.779066279679e+01 0.0 
0.0 0.0 -3.983454728027e+01 
-4.735136179250e+01 -3.809298947815e-01 0.0 
-3.809298947815e-01 -8.809833000155e+01 0.0 
0.0 0.0 -4.023490753822e+01 
-5.289633978564e+01 1.768159862357e+00 0.0 
1.768159862357e+00 -9.034785561859e+01 0.0 
0.0 0.0 -4.257325862127e+01 
-4.657844961673e+01 -4.856178216343e-01 0.0 
-4.856178216343e-01 -8.789836386417e+01 0.0 
0.0 0.0 -3.994304404427e+01 
-4.770616884096e+01 -3.615757842289e-01 0.0 
-3.615757842289e-01 -8.819072025013e+01 0.0 
0.0 0.0 -4.036906672733e+01 
-4.689107108817e+01 -4.229156384144e-01 0.0 
-4.229156384144e-01 -8.807268683789e+01 0.0 
0.0 0.0 -4.008912737782e+01 
-4.817282019121e+01 -2.260827320684e-01 0.0 
-2.260827320684e-01 -8.831685222292e+01 0.0 
0.0 0.0 -4.054690172424e+01 
-4.728146064862e+01 -2.766270561901e-01 0.0 
-2.766270561901e-01 -8.819223598023e+01 0.0 
0.0 0.0 -4.024210898865e+01 
-5.505910146014e+01 2.985620281532e+00 0.0 
2.985620281532e+00 -9.337751257496e+01 0.0 
0.0 0.0 -4.413098421053e+01 
-4.877737430079e+01 -6.979326920617e-02 0.0 
-6.979326920617e-02 -8.845231220528e+01 0.0 
0.0 0.0 -4.076890595182e+01 
-4.777829603584e+01 -6.663561286536e-02 0.0 
-6.663561286536e-02 -8.840273952311e+01 0.0 
0.0 0.0 -4.045431066769e+01 
-4.840663515511e+01 2.725611866671e-01 0.0 
2.725611866671e-01 -8.877050851539e+01 0.0 
0.0 0.0 -4.075314310115e+01 
-4.938462236112e+01 1.534156554527e-01 0.0 
1.534156554527e-01 -8.863018875746e+01 0.0 
0.0 0.0 -4.100444333557e+01 
-4.914241091560e+01 7.165657928048e-01 0.0 
7.165657928048e-01 -8.886654825651e+01 0.0 
0.0 0.0 -4.100268775163e+01 
-4.994918748119e+01 6.083455306931e-01 0.0 
6.083455306931e-01 -8.877537561581e+01 0.0 
0.0 0.0 -4.121736892910e+01 
-5.016089706478e+01 1.377885515122e+00 0.0 
1.377885515122e+00 -9.030164902343e+01 0.0 
0.0 0.0 -4.173876382646e+01 
-5.129012926955e+01 7.358285004646e-01 0.0 
7.358285004646e-01 -8.938820812256e+01 0.0 
0.0 0.0 -4.180350121763e+01 
-5.106032155474e+01 2.483077388822e+00 0.0 
2.483077388822e+00 -8.417255238710e+01 0.0 
0.0 0.0 -4.016986218255e+01 
-4.613367303469e+01 1.409061988502e+00 0.0 
1.409061988502e+00 -8.751647660578e+01 0.0 
0.0 0.0 -3.969504489214e+01 
-4.576002279054e+01 -1.523071291469e+00 0.0 
-1.523071291469e+00 -8.968442485175e+01 0.0 
0.0 0.0 -4.023333429269e+01 
-4.366126457160e+01 8.088252713200e-02 0.0 
8.088252713200e-02 -8.346849941420e+01 0.0 
0.0 0.0 -3.773892919574e+01 
-4.813170311542e+01 -2.554857905578e-01 0.0 
-2.554857905578e-01 -9.353733405193e+01 0.0 
0.0 0.0 -4.210071115021e+01 
-5.082938125977e+01 3.503854212595e+00 0.0 
3.503854212595e+00 -8.575960724614e+01 0.0 
0.0 0.0 -4.057669655177e+01 
-5.343344706478e+01 4.112064519142e-01 0.0 
4.112064519142e-01 -1.062497865379e+02 0.0 
0.0 0.0 -4.750497008080e+01 
-5.433158171361e+01 -2.893901816472e-02 0.0 
-2.893901816472e-02 -1.074956963444e+02 0.0 
0.0 0.0 -4.814818341739e+01 
-5.421804380554e+01 -2.589668328722e-02 0.0 
-2.589668328722e-02 -1.074478704993e+02 0.0 
0.0 0.0 -4.809977429144e+01 
-5.422129691181e+01 -4.149803465414e-02 0.0 
-4.149803465414e-02 -1.075089714041e+02 0.0 
0.0 0.0 -4.811908049479e+01 
-5.437010587995e+01 -1.068206243799e-01 0.0 
-1.068206243799e-01 -1.075552747462e+02 0.0 
0.0 0.0 -4.817761418784e+01 
-5.445065495849e+01 -1.504029648115e-01 0.0 
-1.504029648115e-01 -1.076778572303e+02 0.0 
0.0 0.0 -4.823855365664e+01 
-5.452429470463e+01 -6.041833672439e-02 0.0 
-6.041833672439e-02 -1.077390075506e+02 0.0 
0.0 0.0 -4.827899067657e+01 
-5.476936848399e+01 -5.781039026136e-02 0.0 
-5.781039026136e-02 -1.076233203218e+02 0.0 
0.0 0.0 -4.831780664175e+01 
-5.467524442696e+01 -1.359435571837e-01 0.0 
-1.359435571837e-01 -1.075515224814e+02 0.0 
0.0 0.0 -4.826803007249e+01 
-5.492998616316e+01 -2.027584835371e-01 0.0 
-2.027584835371e-01 -1.076835046922e+02 0.0 
0.0 0.0 -4.838404725662e+01 
-5.489344880254e+01 -1.151666479245e-01 0.0 
-1.151666479245e-01 -1.077135485972e+02 0.0 
0.0 0.0 -4.838209921992e+01 
-5.521298602322e+01 -1.419923907854e-01 0.0 
-1.419923907854e-01 -1.077084812446e+02 0.0 
0.0 0.0 -4.847644018033e+01 
-6.033898416340e+01 2.884666947716e+00 0.0 
2.884666947716e+00 -1.115925413126e+02 0.0 
0.0 0.0 -5.117945764280e+01 
-5.515377867855e+01 -1.063181600919e-01 0.0 
-1.063181600919e-01 -1.077065663781e+02 0.0 
0.0 0.0 -4.845810351699e+01 
-6.029197596810e+01 1.467437250034e+00 0.0 
1.467437250034e+00 -1.096315423334e+02 0.0 
0.0 0.0 -5.057705549046e+01 
-5.589398030634e+01 -2.224754138971e-01 0.0 
-2.224754138971e-01 -1.078909406177e+02 0.0 
0.0 0.0 -4.873547627720e+01 
-5.542507942185e+01 -6.590496532685e-02 0.0 
-6.590496532685e-02 -1.078195054997e+02 0.0 
0.0 0.0 -4.857337547647e+01 
-5.584096259493e+01 -5.966988588781e-02 0.0 
-5.966988588781e-02 -1.077417827413e+02 0.0 
0.0 0.0 -4.867482360086e+01 
-5.577074542940e+01 -2.410814881192e-02 0.0 
-2.410814881192e-02 -1.077435584877e+02 0.0 
0.0 0.0 -4.865429117512e+01 
-5.636844731876e+01 -1.061103666135e-01 0.0 
-1.061103666135e-01 -1.079008765782e+02 0.0 
0.0 0.0 -4.888079716909e+01 
-5.621233468262e+01 1.150687841474e-01 0.0 
1.150687841474e-01 -1.080384405473e+02 0.0 
0.0 0.0 -4.887523256899e+01 
-5.704957919569e+01 6.218089908984e-02 0.0 
6.218089908984e-02 -1.081353527781e+02 0.0 
0.0 0.0 -4.915547959212e+01 
-5.801910853571e+01 1.879908123903e+00 0.0 
1.879908123903e+00 -1.050891597436e+02 0.0 
0.0 0.0 -4.853248048379e+01 
-5.673278249051e+01 3.330828778462e-01 0.0 
3.330828778462e-01 -1.082900975880e+02 0.0 
0.0 0.0 -4.910686402354e+01 
-5.769005637262e+01 3.443845944114e-01 0.0 
3.443845944114e-01 -1.082761681045e+02 0.0 
0.0 0.0 -4.938986734313e+01 
-5.733182179025e+01 5.805380683222e-01 0.0 
5.805380683222e-01 -1.084126896807e+02 0.0 
0.0 0.0 -4.932335344128e+01 
-5.847023240331e+01 5.602514899864e-01 0.0 
5.602514899864e-01 -1.085195631895e+02 0.0 
0.0 0.0 -4.969693867785e+01 
-5.932604952744e+01 8.916608843793e-01 0.0 
8.916608843793e-01 -1.089415449261e+02 0.0 
0.0 0.0 -5.008027833607e+01 
-5.802351001665e+01 9.057004655693e-01 0.0 
9.057004655693e-01 -1.087875932870e+02 0.0 
0.0 0.0 -4.964333099111e+01 
-5.882817920475e+01 1.435970489894e+00 0.0 
1.435970489894e+00 -1.094930229708e+02 0.0 
0.0 0.0 -5.009636065266e+01 
-6.316551653537e+01 2.549947344473e+00 0.0 
2.549947344473e+00 -1.128709909212e+02 0.0 
0.0 0.0 -5.241095223696e+01 
-5.928547155942e+01 2.148714313852e+00 0.0 
2.148714313852e+00 -1.038170059556e+02 0.0 
0.0 0.0 -4.853074325451e+01 
-5.358876791168e+01 1.287607083351e+00 0.0 
1.287607083351e+00 -1.075403396782e+02 0.0 
0.0 0.0 -4.793873227696e+01 
-5.380912054842e+01 -1.586239222627e+00 0.0 
-1.586239222627e+00 -1.062426092439e+02 0.0 
0.0 0.0 -4.761551893771e+01 
-5.577117051139e+01 -8.683972238993e-02 0.0 
-8.683972238993e-02 -1.120532315993e+02 0.0 
0.0 0.0 -4.994732063322e+01 
-5.172087215206e+01 -2.684333632923e-01 0.0 
-2.684333632923e-01 -1.019120618041e+02 0.0 
0.0 0.0 -4.568988018685e+01 
-5.917748238676e+01 3.031781277010e+00 0.0 
3.031781277010e+00 -1.050038550212e+02 0.0 
0.0 0.0 -4.885440122239e+01 

TENSORS element_materi_strain_total float
-1.060034650614e-03 1.597475928815e-03 0.0 
1.597475928815e-03 5.863901693124e-03 0.0 
0.0 0.0 0.0 
-1.299296155855e-03 1.780124282828e-03 0.0 
1.780124282828e-03 6.015270198763e-03 0.0 
0.0 0.0 0.0 
-2.056580122985e-04 1.475542612855e-03 0.0 
1.475542612855e-03 1.069772739380e-02 0.0 
0.0 0.0 0.0 
-2.027563470448e-04 1.253257935270e-04 0.0 
1.253257935270e-04 1.157789006758e-02 0.0 
0.0 0.0 0.0 
-7.269108144172e-04 1.357236549889e-04 0.0 
1.357236549889e-04 8.979208853462e-03 0.0 
0.0 0.0 0.0 
9.980166592383e-04 2.926004155560e-03 0.0 
2.926004155560e-03 -3.285439860651e-03 0.0 
0.0 0.0 0.0 
-6.689238017205e-04 1.081583132001e-04 0.0 
1.081583132001e-04 8.980343059072e-03 0.0 
0.0 0.0 0.0 
-1.185711213916e-03 2.214487248509e-03 0.0 
2.214487248509e-03 5.338682337568e-03 0.0 
0.0 0.0 0.0 
-7.251777595627e-04 3.815519539373e-05 0.0 
3.815519539373e-05 8.987971228230e-03 0.0 
0.0 0.0 0.0 
-1.945761067954e-04 2.761159577237e-04 0.0 
2.761159577237e-04 1.154044798381e-02 0.0 
0.0 0.0 0.0 
-8.517502416061e-05 -7.697446834874e-05 0.0 
-7.697446834874e-05 4.869647967862e-03 0.0 
0.0 0.0 0.0 
-1.178064646876e-03 1.786616116781e-03 0.0 
1.786616116781e-03 5.554757584836e-03 0.0 
0.0 0.0 0.0 
-2.071318215391e-05 6.519705749621e-06 0.0 
6.519705749621e-06 7.155469176220e-03 0.0 
0.0 0.0 0.0 
-8.407828586863e-04 3.209242633372e-04 0.0 
3.209242633372e-04 9.288207309304e-03 0.0 
0.0 0.0 0.0 
-1.109859020210e-05 -5.483266905068e-05 0.0 
-5.483266905068e-05 7.308218660098e-03 0.0 
0.0 0.0 0.0 
-1.234242534669e-04 2.272287926773e-04 0.0 
2.272287926773e-04 1.170647073015e-02 0.0 
0.0 0.0 0.0 
-8.150141943046e-04 1.461873042100e-04 0.0 
1.461873042100e-04 8.881152306526e-03 0.0 
0.0 0.0 0.0 
1.358381774960e-03 1.458810592273e-03 0.0 
1.458810592273e-03 -3.654877568544e-03 0.0 
0.0 0.0 0.0 
8.258804413286e-05 -7.803412114457e-05 0.0 
-7.803412114457e-05 1.425839601519e-03 0.0 
0.0 0.0 0.0 
-1.112712640550e-05 -7.423198327253e-05 0.0 
-7.423198327253e-05 1.524823986074e-03 0.0 
0.0 0.0 0.0 
-2.346692693038e-04 2.282948994689e-04 0.0 
2.282948994689e-04 1.154877925177e-02 0.0 
0.0 0.0 0.0 
-1.124353684468e-03 1.095482870483e-03 0.0 
1.095482870483e-03 6.654269190056e-03 0.0 
0.0 0.0 0.0 
-1.232446975313e-03 1.289333615454e-03 0.0 
1.289333615454e-03 6.620865272001e-03 0.0 
0.0 0.0 0.0 
6.011863077862e-04 6.593983046346e-04 0.0 
6.593983046346e-04 6.188008909223e-03 0.0 
0.0 0.0 0.0 
-8.652350604341e-04 5.173039779127e-04 0.0 
5.173039779127e-04 9.558750277126e-03 0.0 
0.0 0.0 0.0 
-8.508643442018e-05 -1.137681068509e-04 0.0 
-1.137681068509e-04 5.089044824656e-03 0.0 
0.0 0.0 0.0 
-9.863507366887e-04 3.156798280562e-04 0.0 
3.156798280562e-04 8.454459416363e-03 0.0 
0.0 0.0 0.0 
8.308401427759e-05 2.008653832672e-03 0.0 
2.008653832672e-03 8.776737855557e-03 0.0 
0.0 0.0 0.0 
-9.739755999087e-04 5.139312160106e-04 0.0 
5.139312160106e-04 9.559241346020e-03 0.0 
0.0 0.0 0.0 
5.195329365175e-04 6.554550164592e-04 0.0 
6.554550164592e-04 6.437661255539e-03 0.0 
0.0 0.0 0.0 
9.332082296536e-04 -2.444612659000e-03 0.0 
-2.444612659000e-03 -2.181271415531e-03 0.0 
0.0 0.0 0.0 
1.032724379209e-04 -1.622936237906e-04 0.0 
-1.622936237906e-04 3.348934179266e-04 0.0 
0.0 0.0 0.0 
-3.500842315346e-04 1.512645139384e-03 0.0 
1.512645139384e-03 1.077355506842e-02 0.0 
0.0 0.0 0.0 
-5.820882576935e-05 -4.271929485847e-05 0.0 
-4.271929485847e-05 6.114815090313e-03 0.0 
0.0 0.0 0.0 
2.327559890445e-04 9.548499255074e-05 0.0 
9.548499255074e-05 6.726247609898e-03 0.0 
0.0 0.0 0.0 
2.908309738014e-05 5.259626738253e-05 0.0 
5.259626738253e-05 7.378763848242e-03 0.0 
0.0 0.0 0.0 
3.984877113172e-05 -7.950165424064e-05 0.0 
-7.950165424064e-05 7.370607409481e-03 0.0 
0.0 0.0 0.0 
4.430892786349e-04 1.435393205384e-03 0.0 
1.435393205384e-03 7.133618685809e-03 0.0 
0.0 0.0 0.0 
-6.776841227210e-04 -2.563277006737e-05 0.0 
-2.563277006737e-05 8.569193025774e-03 0.0 
0.0 0.0 0.0 
-6.464734220737e-04 7.301866220025e-05 0.0 
7.301866220025e-05 8.585148685283e-03 0.0 
0.0 0.0 0.0 
-1.221038821837e-03 9.475017784143e-04 0.0 
9.475017784143e-04 7.283887809694e-03 0.0 
0.0 0.0 0.0 
2.018754873263e-04 3.052520462907e-04 0.0 
3.052520462907e-04 6.780664006599e-03 0.0 
0.0 0.0 0.0 
-1.061607111933e-03 2.458547758560e-03 0.0 
2.458547758560e-03 3.981364320945e-03 0.0 
0.0 0.0 0.0 
-1.019257761351e-03 3.270283136331e-04 0.0 
3.270283136331e-04 8.486975774422e-03 0.0 
0.0 0.0 0.0 
-2.738389795984e-04 3.967959739913e-05 0.0 
3.967959739913e-05 1.138796014356e-02 0.0 
0.0 0.0 0.0 
-1.240185116443e-03 2.653094907038e-03 0.0 
2.653094907038e-03 3.999456264538e-03 0.0 
0.0 0.0 0.0 
9.484747776900e-04 -2.354235566328e-03 0.0 
-2.354235566328e-03 -2.869937460157e-03 0.0 
0.0 0.0 0.0 
-1.836190366463e-04 9.282635775992e-05 0.0 
9.282635775992e-05 1.141246645086e-02 0.0 
0.0 0.0 0.0 
-4.128220599050e-04 -2.083473784439e-03 0.0 
-2.083473784439e-03 -1.180031227831e-03 0.0 
0.0 0.0 0.0 
-8.954282199978e-04 2.287610211312e-04 0.0 
2.287610211312e-04 9.133548711962e-03 0.0 
0.0 0.0 0.0 
-1.226171887362e-03 1.109478539476e-03 0.0 
1.109478539476e-03 6.950677479072e-03 0.0 
0.0 0.0 0.0 
-1.489123646037e-05 -8.037268825008e-05 0.0 
-8.037268825008e-05 1.865590823585e-03 0.0 
0.0 0.0 0.0 
1.814744229918e-03 -2.077827827690e-03 0.0 
-2.077827827690e-03 -2.762529923031e-03 0.0 
0.0 0.0 0.0 
-1.109846602683e-03 8.164384925145e-04 0.0 
8.164384925145e-04 7.141584579121e-03 0.0 
0.0 0.0 0.0 
-2.098844469778e-04 1.138431920562e-03 0.0 
1.138431920562e-03 1.118045287044e-02 0.0 
0.0 0.0 0.0 
-1.444460070064e-04 -1.994615610935e-04 0.0 
-1.994615610935e-04 2.496608581828e-03 0.0 
0.0 0.0 0.0 
-8.754137436418e-05 -7.914719161230e-05 0.0 
-7.914719161230e-05 1.953670601362e-03 0.0 
0.0 0.0 0.0 
-4.878588327673e-05 -1.455236516281e-05 0.0 
-1.455236516281e-05 6.115588684020e-03 0.0 
0.0 0.0 0.0 
1.415335218486e-04 -1.530243328465e-04 0.0 
-1.530243328465e-04 1.020297825080e-03 0.0 
0.0 0.0 0.0 
-1.422086924076e-04 1.817307615052e-04 0.0 
1.817307615052e-04 1.170711942582e-02 0.0 
0.0 0.0 0.0 
-6.820301613683e-04 -1.961820227348e-03 0.0 
-1.961820227348e-03 -3.542205803998e-03 0.0 
0.0 0.0 0.0 
3.720321991922e-04 1.794078002539e-03 0.0 
1.794078002539e-03 7.567178435230e-03 0.0 
0.0 0.0 0.0 
-5.271236435229e-04 2.341328337101e-03 0.0 
2.341328337101e-03 5.084485334889e-03 0.0 
0.0 0.0 0.0 
1.688434874124e-03 -2.056314158250e-03 0.0 
-2.056314158250e-03 -2.331638410877e-03 0.0 
0.0 0.0 0.0 
-1.625367973657e-06 -6.390735468325e-05 0.0 
-6.390735468325e-05 7.095652487115e-03 0.0 
0.0 0.0 0.0 
-1.135679630868e-03 9.310324504135e-04 0.0 
9.310324504135e-04 6.913961937649e-03 0.0 
0.0 0.0 0.0 
4.429677538458e-04 -7.754212289248e-04 0.0 
-7.754212289248e-04 -4.944228933573e-03 0.0 
0.0 0.0 0.0 
-3.645956588405e-04 1.588683581181e-03 0.0 
1.588683581181e-03 1.062563522722e-02 0.0 
0.0 0.0 0.0 
-4.590693327370e-04 -1.407663665091e-03 0.0 
-1.407663665091e-03 8.237075537019e-04 0.0 
0.0 0.0 0.0 
-1.033784223122e-04 1.819883490380e-03 0.0 
1.819883490380e-03 9.821039289467e-03 0.0 
0.0 0.0 0.0 
-4.774246092420e-05 -1.502500081790e-04 0.0 
-1.502500081790e-04 5.264016160318e-03 0.0 
0.0 0.0 0.0 
0.0 7.514163905990e-04 0.0 
7.514163905990e-04 1.174701258235e-02 0.0 
0.0 0.0 0.0 
5.999576866689e-05 1.833594073718e-03 0.0 
1.833594073718e-03 8.468019944065e-03 0.0 
0.0 0.0 0.0 
4.041546615834e-04 -4.414967347752e-06 0.0 
-4.414967347752e-06 3.231847918608e-04 0.0 
0.0 0.0 0.0 
-1.740196744724e-04 -1.703392608758e-04 0.0 
-1.703392608758e-04 2.620785759602e-03 0.0 
0.0 0.0 0.0 
-2.663561720743e-04 5.370354281131e-04 0.0 
5.370354281131e-04 1.152280489057e-02 0.0 
0.0 0.0 0.0 
-3.668247237251e-04 1.237384633938e-03 0.0 
1.237384633938e-03 1.111846892205e-02 0.0 
0.0 0.0 0.0 
-1.030223503381e-03 2.901831389196e-03 0.0 
2.901831389196e-03 2.312475205864e-03 0.0 
0.0 0.0 0.0 
1.330583964498e-05 -1.598187062504e-04 0.0 
-1.598187062504e-04 1.097920012140e-03 0.0 
0.0 0.0 0.0 
-8.689443002391e-04 2.808253725488e-03 0.0 
2.808253725488e-03 2.308437178865e-03 0.0 
0.0 0.0 0.0 
-6.238207152750e-04 -1.653320433265e-03 0.0 
-1.653320433265e-03 8.625153910593e-04 0.0 
0.0 0.0 0.0 
-7.873242785083e-04 1.307319944477e-04 0.0 
1.307319944477e-04 8.889772896861e-03 0.0 
0.0 0.0 0.0 
-1.256419835584e-03 1.511619784209e-03 0.0 
1.511619784209e-03 6.282379287952e-03 0.0 
0.0 0.0 0.0 
-1.155351254530e-03 1.211401674555e-03 0.0 
1.211401674555e-03 6.339122889447e-03 0.0 
0.0 0.0 0.0 
-7.588674307207e-04 8.719030760700e-05 0.0 
8.719030760700e-05 9.204286028367e-03 0.0 
0.0 0.0 0.0 
-6.880630174936e-04 1.407696421158e-04 0.0 
1.407696421158e-04 9.203739297764e-03 0.0 
0.0 0.0 0.0 
-6.817847208151e-05 -9.552584380316e-05 0.0 
-9.552584380316e-05 5.478946743356e-03 0.0 
0.0 0.0 0.0 
-6.411375207005e-05 1.407977002008e-05 0.0 
1.407977002008e-05 5.949594078312e-03 0.0 
0.0 0.0 0.0 
-7.177224971177e-04 1.355684443935e-03 0.0 
1.355684443935e-03 9.739828916462e-03 0.0 
0.0 0.0 0.0 
-7.844030314895e-04 7.517710005425e-05 0.0 
7.517710005425e-05 8.966448790987e-03 0.0 
0.0 0.0 0.0 
-3.018908865386e-04 -2.207913714878e-04 0.0 
-2.207913714878e-04 5.176442139059e-04 0.0 
0.0 0.0 0.0 
-1.008015660002e-03 3.900287028134e-04 0.0 
3.900287028134e-04 8.849457658732e-03 0.0 
0.0 0.0 0.0 
-4.285259809048e-04 4.917734731245e-05 0.0 
4.917734731245e-05 1.053470954151e-02 0.0 
0.0 0.0 0.0 
-4.762549240864e-04 1.049511238269e-04 0.0 
1.049511238269e-04 1.046975017075e-02 0.0 
0.0 0.0 0.0 
-1.797866268408e-04 8.239606421542e-04 0.0 
8.239606421542e-04 1.172307371773e-02 0.0 
0.0 0.0 0.0 
2.168028147556e-04 1.522874422025e-03 0.0 
1.522874422025e-03 7.633371573517e-03 0.0 
0.0 0.0 0.0 
-8.489881956508e-04 1.418874030273e-04 0.0 
1.418874030273e-04 8.884271458536e-03 0.0 
0.0 0.0 0.0 
3.079028829160e-04 2.426130959439e-04 0.0 
2.426130959439e-04 6.817531478920e-03 0.0 
0.0 0.0 0.0 
-5.616545470768e-04 -4.862357077154e-06 0.0 
-4.862357077154e-06 9.579266008916e-03 0.0 
0.0 0.0 0.0 
-8.177046721821e-04 2.334492675427e-03 0.0 
2.334492675427e-03 5.587607539088e-03 0.0 
0.0 0.0 0.0 
-7.524017295020e-04 5.186190915150e-05 0.0 
5.186190915150e-05 8.780614805041e-03 0.0 
0.0 0.0 0.0 
-1.441790794043e-05 -3.438176463885e-06 0.0 
-3.438176463885e-06 7.305008618592e-03 0.0 
0.0 0.0 0.0 
7.500381448831e-04 1.592840169917e-03 0.0 
1.592840169917e-03 6.045583820148e-03 0.0 
0.0 0.0 0.0 
3.312754667621e-04 1.709501507612e-03 0.0 
1.709501507612e-03 7.580887638961e-03 0.0 
0.0 0.0 0.0 
4.897206948784e-05 2.869226111483e-03 0.0 
2.869226111483e-03 3.476359703026e-03 0.0 
0.0 0.0 0.0 
-4.386183355594e-04 -2.902240136064e-03 0.0 
-2.902240136064e-03 -1.378836116981e-03 0.0 
0.0 0.0 0.0 
-3.720912753902e-05 -5.597054711606e-05 0.0 
-5.597054711606e-05 6.718621536544e-03 0.0 
0.0 0.0 0.0 
-4.146325460830e-04 1.145619226158e-04 0.0 
1.145619226158e-04 1.082272912119e-02 0.0 
0.0 0.0 0.0 
-9.825728132458e-04 -3.019165663612e-03 0.0 
-3.019165663612e-03 -2.123387618842e-03 0.0 
0.0 0.0 0.0 
3.732054260475e-05 -3.499258430263e-05 0.0 
-3.499258430263e-05 7.149152797195e-03 0.0 
0.0 0.0 0.0 
-6.522364537952e-04 1.364547197746e-03 0.0 
1.364547197746e-03 9.392781451447e-03 0.0 
0.0 0.0 0.0 
5.326649085242e-04 1.463055316370e-05 0.0 
1.463055316370e-05 1.031901926885e-04 0.0 
0.0 0.0 0.0 
5.855622780864e-04 2.500999151255e-03 0.0 
2.500999151255e-03 3.481865871044e-03 0.0 
0.0 0.0 0.0 
-1.143513176365e-03 5.724032403148e-04 0.0 
5.724032403148e-04 8.304622653601e-03 0.0 
0.0 0.0 0.0 
-1.555242491963e-04 -3.076599093896e-04 0.0 
-3.076599093896e-04 3.125635149164e-03 0.0 
0.0 0.0 0.0 
-7.050145525477e-04 2.302269711911e-03 0.0 
2.302269711911e-03 4.963621686912e-03 0.0 
0.0 0.0 0.0 
-4.515542435457e-04 2.500250492993e-03 0.0 
2.500250492993e-03 5.072471144600e-03 0.0 
0.0 0.0 0.0 
1.295657011116e-04 1.163034592444e-04 0.0 
1.163034592444e-04 6.964000079843e-03 0.0 
0.0 0.0 0.0 
-5.766600054498e-04 5.465722099938e-05 0.0 
5.465722099938e-05 9.447894999707e-03 0.0 
0.0 0.0 0.0 
-3.253249620125e-04 2.620139560117e-03 0.0 
2.620139560117e-03 4.320393171320e-03 0.0 
0.0 0.0 0.0 
-3.516784895813e-04 -8.025994979575e-04 0.0 
-8.025994979575e-04 1.115633485886e-03 0.0 
0.0 0.0 0.0 
-1.004383732566e-03 4.514449814088e-04 0.0 
4.514449814088e-04 8.746300670082e-03 0.0 
0.0 0.0 0.0 
-3.421796076525e-04 6.789610601840e-05 0.0 
6.789610601840e-05 1.084997932865e-02 0.0 
0.0 0.0 0.0 
-2.239486512162e-04 2.690115505589e-03 0.0 
2.690115505589e-03 4.316973082903e-03 0.0 
0.0 0.0 0.0 
-8.171957829164e-04 3.077741123619e-03 0.0 
3.077741123619e-03 4.677453576643e-04 0.0 
0.0 0.0 0.0 
-1.186868548228e-03 7.153003863451e-04 0.0 
7.153003863451e-04 7.792256707593e-03 0.0 
0.0 0.0 0.0 
-1.799861818427e-04 -2.769495816934e-04 0.0 
-2.769495816934e-04 3.093453596668e-03 0.0 
0.0 0.0 0.0 
-1.084579521924e-03 6.323243953353e-04 0.0 
6.323243953353e-04 7.609772417466e-03 0.0 
0.0 0.0 0.0 
-1.487073233609e-04 6.560051302786e-04 0.0 
6.560051302786e-04 1.160737776463e-02 0.0 
0.0 0.0 0.0 
9.909113279649e-05 3.369043383839e-03 0.0 
3.369043383839e-03 -8.314656037148e-04 0.0 
0.0 0.0 0.0 
-4.911305928335e-05 -1.120879197914e-04 0.0 
-1.120879197914e-04 5.086086719599e-03 0.0 
0.0 0.0 0.0 
-1.848984098689e-04 1.714840813559e-04 0.0 
1.714840813559e-04 1.157925951184e-02 0.0 
0.0 0.0 0.0 
-9.140039947281e-04 1.612359111984e-03 0.0 
1.612359111984e-03 6.828188606901e-03 0.0 
0.0 0.0 0.0 
-1.205443152480e-03 8.077912930368e-04 0.0 
8.077912930368e-04 7.540928233426e-03 0.0 
0.0 0.0 0.0 
2.793526831151e-04 1.884418615981e-04 0.0 
1.884418615981e-04 6.728111003085e-03 0.0 
0.0 0.0 0.0 
-2.570254899315e-05 -5.990308444972e-05 0.0 
-5.990308444972e-05 7.168190442769e-03 0.0 
0.0 0.0 0.0 
-3.904371402896e-05 -7.914800376797e-05 0.0 
-7.914800376797e-05 5.479384915842e-03 0.0 
0.0 0.0 0.0 
-9.900448436383e-04 1.600623281197e-03 0.0 
1.600623281197e-03 7.243895344848e-03 0.0 
0.0 0.0 0.0 
4.401573286867e-04 6.027877531721e-04 0.0 
6.027877531721e-04 6.798385194482e-03 0.0 
0.0 0.0 0.0 
-1.041300716260e-03 1.329307152561e-03 0.0 
1.329307152561e-03 7.071391801490e-03 0.0 
0.0 0.0 0.0 
-1.334290901766e-04 4.252652576298e-04 0.0 
4.252652576298e-04 1.161649103565e-02 0.0 
0.0 0.0 0.0 
-1.854838676185e-04 1.907757232779e-03 0.0 
1.907757232779e-03 9.933875579640e-03 0.0 
0.0 0.0 0.0 
-9.251683204089e-04 2.936978683718e-04 0.0 
2.936978683718e-04 9.283626984542e-03 0.0 
0.0 0.0 0.0 
-5.346182942867e-04 1.480378546989e-04 0.0 
1.480378546989e-04 1.007140656394e-02 0.0 
0.0 0.0 0.0 
-1.101150260365e-03 1.549107929075e-03 0.0 
1.549107929075e-03 7.062180965957e-03 0.0 
0.0 0.0 0.0 
-1.096882061838e-03 7.048603621629e-04 0.0 
7.048603621629e-04 7.354417309879e-03 0.0 
0.0 0.0 0.0 
-8.103058940382e-04 1.658718668925e-03 0.0 
1.658718668925e-03 7.016688694421e-03 0.0 
0.0 0.0 0.0 
2.713253540143e-04 2.750798323236e-03 0.0 
2.750798323236e-03 3.717011268606e-03 0.0 
0.0 0.0 0.0 
-6.955332580993e-04 2.325604548915e-05 0.0 
2.325604548915e-05 8.830621161455e-03 0.0 
0.0 0.0 0.0 
8.008787928833e-04 2.410117187381e-03 0.0 
2.410117187381e-03 3.492198421691e-03 0.0 
0.0 0.0 0.0 
-5.410997770450e-05 -1.102605347678e-04 0.0 
-1.102605347678e-04 4.211783333297e-04 0.0 
0.0 0.0 0.0 
-6.117390077157e-04 1.652129061977e-05 0.0 
1.652129061977e-05 9.130566405580e-03 0.0 
0.0 0.0 0.0 
8.246779472487e-05 -6.153332403180e-05 0.0 
-6.153332403180e-05 1.099289228046e-03 0.0 
0.0 0.0 0.0 
-1.164685757450e-03 6.377974437558e-04 0.0 
6.377974437558e-04 8.044393754004e-03 0.0 
0.0 0.0 0.0 
2.453939928047e-04 5.260770195206e-04 0.0 
5.260770195206e-04 6.773102999945e-03 0.0 
0.0 0.0 0.0 
-8.536172071938e-05 2.846479577555e-03 0.0 
2.846479577555e-03 3.478223855655e-03 0.0 
0.0 0.0 0.0 
-5.910005351495e-05 -2.590714174016e-05 0.0 
-2.590714174016e-05 5.713604262858e-03 0.0 
0.0 0.0 0.0 
-1.264556655701e-03 2.387080286920e-03 0.0 
2.387080286920e-03 4.737931771436e-03 0.0 
0.0 0.0 0.0 
7.108902608131e-04 1.716925227860e-03 0.0 
1.716925227860e-03 6.034445288283e-03 0.0 
0.0 0.0 0.0 
-6.313107455862e-04 2.482770886031e-05 0.0 
2.482770886031e-05 8.857674726878e-03 0.0 
0.0 0.0 0.0 
8.995578022934e-04 2.557027914253e-03 0.0 
2.557027914253e-03 2.600331715594e-03 0.0 
0.0 0.0 0.0 
-4.574896528742e-05 -6.934404356087e-05 0.0 
-6.934404356087e-05 6.294215060952e-03 0.0 
0.0 0.0 0.0 
-6.685461826734e-04 -9.877574040587e-04 0.0 
-9.877574040587e-04 1.153446833362e-03 0.0 
0.0 0.0 0.0 
-2.219549891003e-05 -5.241543386055e-06 0.0 
-5.241543386055e-06 6.713218873369e-03 0.0 
0.0 0.0 0.0 
-1.053607354926e-03 8.406835890236e-04 0.0 
8.406835890236e-04 8.369294554232e-03 0.0 
0.0 0.0 0.0 
2.816239900905e-05 -4.011732798546e-05 0.0 
-4.011732798546e-05 7.159340742251e-03 0.0 
0.0 0.0 0.0 
-6.108214650135e-04 1.318425046303e-05 0.0 
1.318425046303e-05 8.827128278804e-03 0.0 
0.0 0.0 0.0 
3.509873752547e-04 2.820995437103e-03 0.0 
2.820995437103e-03 2.796097597227e-03 0.0 
0.0 0.0 0.0 
-1.058485634842e-03 5.213591532259e-04 0.0 
5.213591532259e-04 8.085447823420e-03 0.0 
0.0 0.0 0.0 
-1.175363521209e-04 -7.984539028080e-05 0.0 
-7.984539028080e-05 4.874822733490e-03 0.0 
0.0 0.0 0.0 
-1.076859098374e-03 2.233899878038e-03 0.0 
2.233899878038e-03 4.691452516350e-03 0.0 
0.0 0.0 0.0 
1.137729407594e-03 2.369429893769e-03 0.0 
2.369429893769e-03 2.624667575720e-03 0.0 
0.0 0.0 0.0 
-5.258985594546e-04 7.952261892834e-05 0.0 
7.952261892834e-05 1.027578139843e-02 0.0 
0.0 0.0 0.0 
-6.447743532664e-04 4.909964088068e-05 0.0 
4.909964088068e-05 8.833026061517e-03 0.0 
0.0 0.0 0.0 
4.869508597940e-04 2.661385194613e-03 0.0 
2.661385194613e-03 3.104686012679e-03 0.0 
0.0 0.0 0.0 
-1.081404443693e-03 5.657740997123e-04 0.0 
5.657740997123e-04 7.846977007811e-03 0.0 
0.0 0.0 0.0 
-3.184827880255e-04 1.704713082410e-03 0.0 
1.704713082410e-03 9.110727492497e-03 0.0 
0.0 0.0 0.0 
-1.559447421569e-04 -3.206323699089e-04 0.0 
-3.206323699089e-04 3.397447751496e-03 0.0 
0.0 0.0 0.0 
8.707854281420e-05 1.888773806794e-03 0.0 
1.888773806794e-03 8.619721815023e-03 0.0 
0.0 0.0 0.0 
-1.686222357445e-04 1.951204423864e-03 0.0 
1.951204423864e-03 9.698113398006e-03 0.0 
0.0 0.0 0.0 
-1.012243859749e-03 2.317918284230e-03 0.0 
2.317918284230e-03 5.535033756973e-03 0.0 
0.0 0.0 0.0 
-1.489323869099e-04 -2.501673001041e-04 0.0 
-2.501673001041e-04 3.483449052386e-03 0.0 
0.0 0.0 0.0 
8.279255083419e-04 8.294805889833e-04 0.0 
8.294805889833e-04 5.784881068738e-03 0.0 
0.0 0.0 0.0 
-1.201657621979e-03 1.254719504937e-03 0.0 
1.254719504937e-03 7.225239246379e-03 0.0 
0.0 0.0 0.0 
-8.945785986663e-04 2.155515158932e-03 0.0 
2.155515158932e-03 4.938324198554e-03 0.0 
0.0 0.0 0.0 
-1.058611386718e-03 6.571385467295e-04 0.0 
6.571385467295e-04 8.357856956424e-03 0.0 
0.0 0.0 0.0 
4.112488924051e-04 2.584967944903e-03 0.0 
2.584967944903e-03 3.996630362340e-03 0.0 
0.0 0.0 0.0 
-1.283251086637e-04 3.233720587529e-04 0.0 
3.233720587529e-04 1.163015073453e-02 0.0 
0.0 0.0 0.0 
-7.050471609760e-04 1.182562761231e-03 0.0 
1.182562761231e-03 9.789976329087e-03 0.0 
0.0 0.0 0.0 
-4.105235950524e-05 4.986843534211e-06 0.0 
4.986843534211e-06 6.528446296098e-03 0.0 
0.0 0.0 0.0 
-1.164603625301e-03 2.821271413423e-03 0.0 
2.821271413423e-03 3.184620613522e-03 0.0 
0.0 0.0 0.0 
1.491206579231e-03 2.248049842655e-03 0.0 
2.248049842655e-03 1.722346518519e-03 0.0 
0.0 0.0 0.0 
-6.213298855867e-04 1.323701341319e-03 0.0 
1.323701341319e-03 9.746444145847e-03 0.0 
0.0 0.0 0.0 
-2.581375309312e-03 2.223978715980e-03 0.0 
2.223978715980e-03 -2.544039804077e-03 0.0 
0.0 0.0 0.0 
-1.099341257322e-03 1.030122080562e-03 0.0 
1.030122080562e-03 7.229514684869e-03 0.0 
0.0 0.0 0.0 
9.760570957353e-04 4.369442071325e-04 0.0 
4.369442071325e-04 5.032044008955e-03 0.0 
0.0 0.0 0.0 
2.336553053435e-04 -1.376889287870e-04 0.0 
-1.376889287870e-04 6.669431870094e-04 0.0 
0.0 0.0 0.0 
-3.000981839112e-04 1.335678636622e-03 0.0 
1.335678636622e-03 1.091398527132e-02 0.0 
0.0 0.0 0.0 
-8.488447543743e-04 7.692565932372e-04 0.0 
7.692565932372e-04 9.748010453033e-03 0.0 
0.0 0.0 0.0 
6.407328500626e-04 -1.143474188844e-03 0.0 
-1.143474188844e-03 2.188672400384e-03 0.0 
0.0 0.0 0.0 
1.077259071158e-03 6.003149148700e-04 0.0 
6.003149148700e-04 5.020818743361e-03 0.0 
0.0 0.0 0.0 
-1.016519760559e-03 4.977498920626e-04 0.0 
4.977498920626e-04 9.077380147629e-03 0.0 
0.0 0.0 0.0 
-9.526783822424e-04 4.235709872595e-04 0.0 
4.235709872595e-04 9.460590519898e-03 0.0 
0.0 0.0 0.0 
4.462475991975e-04 5.646561046058e-04 0.0 
5.646561046058e-04 6.415187254086e-03 0.0 
0.0 0.0 0.0 
-4.246035281286e-05 -1.135912024569e-03 0.0 
-1.135912024569e-03 2.036379882115e-03 0.0 
0.0 0.0 0.0 
-6.053684524752e-04 1.853950976858e-03 0.0 
1.853950976858e-03 6.710846113547e-03 0.0 
0.0 0.0 0.0 
-1.015794397009e-03 1.031627408010e-03 0.0 
1.031627408010e-03 8.336510678462e-03 0.0 
0.0 0.0 0.0 
-8.976575811159e-04 7.557097023957e-04 0.0 
7.557097023957e-04 9.999067257363e-03 0.0 
0.0 0.0 0.0 
-1.128871620158e-03 8.509049934598e-04 0.0 
8.509049934598e-04 8.646279786341e-03 0.0 
0.0 0.0 0.0 
-1.162818709486e-03 7.492522184962e-04 0.0 
7.492522184962e-04 8.358380843452e-03 0.0 
0.0 0.0 0.0 
1.075100919281e-03 1.520453392836e-03 0.0 
1.520453392836e-03 4.917679489317e-03 0.0 
0.0 0.0 0.0 
-4.864435480371e-04 1.611490257301e-03 0.0 
1.611490257301e-03 9.213148101966e-03 0.0 
0.0 0.0 0.0 
-7.292079532462e-04 2.088003204612e-03 0.0 
2.088003204612e-03 -3.238271636461e-03 0.0 
0.0 0.0 0.0 
-9.751977368861e-04 1.997680815630e-03 0.0 
1.997680815630e-03 5.495692752920e-03 0.0 
0.0 0.0 0.0 
-8.342575904807e-04 2.048407672027e-03 0.0 
2.048407672027e-03 5.634335995965e-03 0.0 
0.0 0.0 0.0 
-7.845988812898e-04 1.817108788475e-03 0.0 
1.817108788475e-03 6.995027569109e-03 0.0 
0.0 0.0 0.0 
-7.598349058331e-04 1.164147551813e-03 0.0 
1.164147551813e-03 1.009451802787e-02 0.0 
0.0 0.0 0.0 
2.014234442531e-03 2.427090191613e-03 0.0 
2.427090191613e-03 -3.356874463229e-03 0.0 
0.0 0.0 0.0 
1.004748179716e-03 2.438667932518e-04 0.0 
2.438667932518e-04 4.708497015298e-03 0.0 
0.0 0.0 0.0 
-6.624726380217e-04 -5.354160666257e-06 0.0 
-5.354160666257e-06 8.805722140731e-03 0.0 
0.0 0.0 0.0 
1.232920713984e-03 2.528901019522e-03 0.0 
2.528901019522e-03 1.684079120125e-03 0.0 
0.0 0.0 0.0 
9.930911623206e-04 5.275327521469e-05 0.0 
5.275327521469e-05 4.439316759662e-03 0.0 
0.0 0.0 0.0 
1.756866356371e-04 -9.528173562900e-05 0.0 
-9.528173562900e-05 4.180898849240e-04 0.0 
0.0 0.0 0.0 
-7.584678530073e-04 8.779720331357e-04 0.0 
8.779720331357e-04 1.005858516524e-02 0.0 
0.0 0.0 0.0 
3.208332311335e-04 -1.174153300039e-04 0.0 
-1.174153300039e-04 2.292267302273e-04 0.0 
0.0 0.0 0.0 
9.163973314874e-05 -1.105174276296e-04 0.0 
-1.105174276296e-04 7.284555541551e-04 0.0 
0.0 0.0 0.0 
-9.319594207017e-04 2.664120404702e-03 0.0 
2.664120404702e-03 3.176521107400e-03 0.0 
0.0 0.0 0.0 
-2.222790063630e-04 -1.126488940863e-03 0.0 
-1.126488940863e-03 1.802935758376e-03 0.0 
0.0 0.0 0.0 
-7.976356145158e-04 8.542067141656e-04 0.0 
8.542067141656e-04 1.031140549085e-02 0.0 
0.0 0.0 0.0 
-2.512269887721e-04 -1.242626282726e-03 0.0 
-1.242626282726e-03 1.547978065919e-03 0.0 
0.0 0.0 0.0 
1.046184089857e-04 3.218193336426e-03 0.0 
3.218193336426e-03 1.379177765255e-03 0.0 
0.0 0.0 0.0 
5.487390265866e-04 -2.589293996721e-03 0.0 
-2.589293996721e-03 -1.118098011073e-03 0.0 
0.0 0.0 0.0 
-5.619744928653e-04 -8.653641154851e-04 0.0 
-8.653641154851e-04 1.319555021441e-03 0.0 
0.0 0.0 0.0 
9.919063896622e-04 7.724502356457e-04 0.0 
7.724502356457e-04 5.366167413903e-03 0.0 
0.0 0.0 0.0 
-1.146736483477e-03 9.397844836047e-04 0.0 
9.397844836047e-04 8.365481305093e-03 0.0 
0.0 0.0 0.0 
1.033309294707e-05 -4.098870611725e-06 0.0 
-4.098870611725e-06 7.098939716570e-03 0.0 
0.0 0.0 0.0 
-6.826008994533e-04 9.097851227714e-04 0.0 
9.097851227714e-04 -4.601061832330e-03 0.0 
0.0 0.0 0.0 
4.175073027930e-04 3.138339751466e-03 0.0 
3.138339751466e-03 1.524049135809e-03 0.0 
0.0 0.0 0.0 
1.257549663848e-03 2.314579384351e-03 0.0 
2.314579384351e-03 2.219775434442e-03 0.0 
0.0 0.0 0.0 
-1.084540357592e-03 1.189592344439e-03 0.0 
1.189592344439e-03 6.895528369783e-03 0.0 
0.0 0.0 0.0 
1.124506518291e-03 4.010948194541e-04 0.0 
4.010948194541e-04 4.697569935764e-03 0.0 
0.0 0.0 0.0 
4.995451168699e-05 -2.890625499923e-06 0.0 
-2.890625499923e-06 7.165362131950e-03 0.0 
0.0 0.0 0.0 
-8.753620789989e-04 1.069973916589e-03 0.0 
1.069973916589e-03 9.803174549575e-03 0.0 
0.0 0.0 0.0 
1.828305136518e-03 2.244362847334e-03 0.0 
2.244362847334e-03 2.002509436183e-04 0.0 
0.0 0.0 0.0 
9.102375597825e-04 6.379319213960e-04 0.0 
6.379319213960e-04 5.367093908082e-03 0.0 
0.0 0.0 0.0 
-7.543982721758e-05 -3.654370362943e-05 0.0 
-3.654370362943e-05 5.299587385821e-03 0.0 
0.0 0.0 0.0 
-8.784855094190e-04 1.631835341577e-03 0.0 
1.631835341577e-03 7.445762041002e-03 0.0 
0.0 0.0 0.0 
-8.180619044948e-04 9.022112830060e-04 0.0 
9.022112830060e-04 9.789986789636e-03 0.0 
0.0 0.0 0.0 
1.716858974186e-04 1.785094047979e-03 0.0 
1.785094047979e-03 8.051467863619e-03 0.0 
0.0 0.0 0.0 
1.478737137476e-03 2.060709291782e-03 0.0 
2.060709291782e-03 2.255892082845e-03 0.0 
0.0 0.0 0.0 
-1.240324126450e-05 3.115963233034e-03 0.0 
3.115963233034e-03 2.388071212723e-03 0.0 
0.0 0.0 0.0 
-1.071395901748e-03 9.487713558142e-04 0.0 
9.487713558142e-04 8.932685838895e-03 0.0 
0.0 0.0 0.0 
-1.373671089543e-04 7.523234105829e-04 0.0 
7.523234105829e-04 1.177663611327e-02 0.0 
0.0 0.0 0.0 
-5.319879131253e-04 1.970448445322e-03 0.0 
1.970448445322e-03 6.695873690725e-03 0.0 
0.0 0.0 0.0 
1.530857596584e-03 1.492316340865e-03 0.0 
1.492316340865e-03 3.166923083233e-03 0.0 
0.0 0.0 0.0 
-6.329520969256e-04 3.772839134922e-05 0.0 
3.772839134922e-05 9.213864653781e-03 0.0 
0.0 0.0 0.0 
-5.440206450857e-04 -1.797165950158e-03 0.0 
-1.797165950158e-03 4.360964537109e-04 0.0 
0.0 0.0 0.0 
-1.031887908477e-03 7.709933059925e-04 0.0 
7.709933059925e-04 8.658288585513e-03 0.0 
0.0 0.0 0.0 
1.521351877181e-03 2.658438750796e-03 0.0 
2.658438750796e-03 1.395368783437e-04 0.0 
0.0 0.0 0.0 
2.222646624160e-03 2.286584511793e-03 0.0 
2.286584511793e-03 -2.851550576916e-03 0.0 
0.0 0.0 0.0 
1.701312501973e-03 -2.259881539994e-03 0.0 
-2.259881539994e-03 -3.510104651078e-03 0.0 
0.0 0.0 0.0 
-6.897463208747e-04 8.525170477297e-04 0.0 
8.525170477297e-04 1.031117570300e-02 0.0 
0.0 0.0 0.0 
-1.085436823151e-03 1.033631433795e-03 0.0 
1.033631433795e-03 8.633668967303e-03 0.0 
0.0 0.0 0.0 
6.522225987515e-05 2.687673189225e-03 0.0 
2.687673189225e-03 3.728492824177e-03 0.0 
0.0 0.0 0.0 
-7.180126749238e-04 8.205738424554e-04 0.0 
8.205738424554e-04 1.055535565139e-02 0.0 
0.0 0.0 0.0 
-8.040104199776e-04 1.210608730227e-03 0.0 
1.210608730227e-03 9.785293134365e-03 0.0 
0.0 0.0 0.0 
-9.440625022868e-04 1.470296301913e-03 0.0 
1.470296301913e-03 7.852366473233e-03 0.0 
0.0 0.0 0.0 
7.515143876358e-05 3.813098731977e-05 0.0 
3.813098731977e-05 7.067017581524e-03 0.0 
0.0 0.0 0.0 
1.540323772404e-03 1.466884197520e-03 0.0 
1.466884197520e-03 3.069324286093e-03 0.0 
0.0 0.0 0.0 
-9.861934207414e-04 1.330649212083e-03 0.0 
1.330649212083e-03 8.230876182024e-03 0.0 
0.0 0.0 0.0 
5.010556563321e-04 2.397393137985e-03 0.0 
2.397393137985e-03 4.323486256194e-03 0.0 
0.0 0.0 0.0 
1.410812123473e-03 1.423198346801e-03 0.0 
1.423198346801e-03 3.742236176376e-03 0.0 
0.0 0.0 0.0 
2.288438543147e-03 2.070148480220e-03 0.0 
2.070148480220e-03 -2.080016293148e-03 0.0 
0.0 0.0 0.0 
-9.660225186131e-04 3.073322707233e-04 0.0 
3.073322707233e-04 8.851706352724e-03 0.0 
0.0 0.0 0.0 
1.732837603425e-03 1.700373425094e-03 0.0 
1.700373425094e-03 1.991158251821e-03 0.0 
0.0 0.0 0.0 
2.251911675250e-03 -8.224364358095e-04 0.0 
-8.224364358095e-04 -1.233012876028e-03 0.0 
0.0 0.0 0.0 
-7.705701997153e-04 1.043479739240e-03 0.0 
1.043479739240e-03 9.807253812416e-03 0.0 
0.0 0.0 0.0 
-3.876385927974e-03 3.577020666460e-04 0.0 
3.577020666460e-04 -3.100174468086e-03 0.0 
0.0 0.0 0.0 
-1.104183374792e-03 7.817478735003e-04 0.0 
7.817478735003e-04 8.918685520434e-03 0.0 
0.0 0.0 0.0 
1.944160408476e-03 2.175154536919e-03 0.0 
2.175154536919e-03 -2.565689885078e-04 0.0 
0.0 0.0 0.0 
6.752347343315e-04 3.025436649109e-03 0.0 
3.025436649109e-03 1.538492171493e-03 0.0 
0.0 0.0 0.0 
2.556644227529e-03 1.313428425761e-03 0.0 
1.313428425761e-03 -1.953534301073e-03 0.0 
0.0 0.0 0.0 
-9.337690395127e-04 1.046684398503e-03 0.0 
1.046684398503e-03 8.916882806103e-03 0.0 
0.0 0.0 0.0 
-2.117288016736e-04 -4.961914789646e-04 0.0 
-4.961914789646e-04 7.451108381369e-04 0.0 
0.0 0.0 0.0 
-9.422703813585e-04 1.769068500295e-03 0.0 
1.769068500295e-03 6.217891024284e-03 0.0 
0.0 0.0 0.0 
1.417458296482e-03 1.406951386060e-03 0.0 
1.406951386060e-03 3.678027137257e-03 0.0 
0.0 0.0 0.0 
-1.003454497414e-03 9.455995394146e-04 0.0 
9.455995394146e-04 8.648297557957e-03 0.0 
0.0 0.0 0.0 
-9.705696583949e-04 4.085841259930e-04 0.0 
4.085841259930e-04 9.145450772541e-03 0.0 
0.0 0.0 0.0 
1.987046311422e-03 1.912295309843e-03 0.0 
1.912295309843e-03 -4.173086863285e-03 0.0 
0.0 0.0 0.0 
2.526261704093e-03 -1.596708705940e-04 0.0 
-1.596708705940e-04 -1.336765730422e-03 0.0 
0.0 0.0 0.0 
1.924002594486e-03 -1.509780824047e-03 0.0 
-1.509780824047e-03 -1.381349451793e-03 0.0 
0.0 0.0 0.0 
-1.115744238099e-03 2.021347867353e-03 0.0 
2.021347867353e-03 6.093472683323e-03 0.0 
0.0 0.0 0.0 
-9.282960410095e-04 9.244324940516e-04 0.0 
9.244324940516e-04 9.786790334146e-03 0.0 
0.0 0.0 0.0 
-9.510116164697e-04 2.063150347574e-03 0.0 
2.063150347574e-03 6.173925978917e-03 0.0 
0.0 0.0 0.0 
1.850535308188e-03 1.787035291229e-03 0.0 
1.787035291229e-03 1.129314074493e-03 0.0 
0.0 0.0 0.0 
1.586519544780e-03 2.186417101450e-03 0.0 
2.186417101450e-03 1.334961207832e-03 0.0 
0.0 0.0 0.0 
2.052727541282e-03 1.566741377741e-03 0.0 
1.566741377741e-03 -3.061671975901e-03 0.0 
0.0 0.0 0.0 
6.303504470391e-04 2.338565955189e-03 0.0 
2.338565955189e-03 3.895639699395e-03 0.0 
0.0 0.0 0.0 
-3.038520040259e-04 3.158817925887e-03 0.0 
3.158817925887e-03 1.347688660718e-03 0.0 
0.0 0.0 0.0 
-2.007470969032e-04 1.292687477683e-03 0.0 
1.292687477683e-03 1.138272084955e-02 0.0 
0.0 0.0 0.0 
-2.142300865329e-04 1.520493121213e-03 0.0 
1.520493121213e-03 1.111562277908e-02 0.0 
0.0 0.0 0.0 
-3.646079170303e-04 1.988892594061e-03 0.0 
1.988892594061e-03 6.383666000829e-03 0.0 
0.0 0.0 0.0 
1.904539418377e-03 2.445384944665e-03 0.0 
2.445384944665e-03 -9.587248098554e-04 0.0 
0.0 0.0 0.0 
1.026871351134e-03 2.991841153726e-03 0.0 
2.991841153726e-03 4.414559184003e-04 0.0 
0.0 0.0 0.0 
-8.295324834158e-04 1.406242012222e-03 0.0 
1.406242012222e-03 8.107891506603e-03 0.0 
0.0 0.0 0.0 
1.707003614970e-03 2.522536228897e-03 0.0 
2.522536228897e-03 -3.275352049092e-04 0.0 
0.0 0.0 0.0 
2.355355751771e-03 -8.689813167122e-04 0.0 
-8.689813167122e-04 -1.483422058872e-03 0.0 
0.0 0.0 0.0 
-8.774110910236e-04 1.487662112344e-03 0.0 
1.487662112344e-03 7.471389571125e-03 0.0 
0.0 0.0 0.0 
-2.572001890815e-04 4.654357687642e-04 0.0 
4.654357687642e-04 1.161276416546e-02 0.0 
0.0 0.0 0.0 
1.586787812757e-03 2.405755988455e-03 0.0 
2.405755988455e-03 7.265692012042e-04 0.0 
0.0 0.0 0.0 
9.879943950832e-04 1.674485087197e-03 0.0 
1.674485087197e-03 4.899479585152e-03 0.0 
0.0 0.0 0.0 
3.776053260047e-04 3.269648928031e-03 0.0 
3.269648928031e-03 2.826616261384e-04 0.0 
0.0 0.0 0.0 
2.781212613487e-04 8.949381130131e-04 0.0 
8.949381130131e-04 7.362623786434e-03 0.0 
0.0 0.0 0.0 
1.360939117507e-03 2.948350657365e-03 0.0 
2.948350657365e-03 -3.940504681628e-04 0.0 
0.0 0.0 0.0 
-7.081359149286e-04 1.684111917668e-03 0.0 
1.684111917668e-03 7.226103081531e-03 0.0 
0.0 0.0 0.0 
2.540612041848e-03 1.627782020698e-03 0.0 
1.627782020698e-03 -3.846251768454e-03 0.0 
0.0 0.0 0.0 
1.522067558658e-03 5.444536230780e-04 0.0 
5.444536230780e-04 3.552590687362e-03 0.0 
0.0 0.0 0.0 
1.545310219034e-03 1.997162559376e-03 0.0 
1.997162559376e-03 1.945056282561e-03 0.0 
0.0 0.0 0.0 
1.993171884927e-03 -1.218104111153e-03 0.0 
-1.218104111153e-03 -6.745200741035e-04 0.0 
0.0 0.0 0.0 
-1.087148854828e-03 1.140081878056e-03 0.0 
1.140081878056e-03 8.322895772661e-03 0.0 
0.0 0.0 0.0 
-1.500342441764e-04 1.866543626087e-03 0.0 
1.866543626087e-03 1.058429399110e-02 0.0 
0.0 0.0 0.0 
1.915971330431e-03 1.958364815910e-03 0.0 
1.958364815910e-03 4.450045518583e-04 0.0 
0.0 0.0 0.0 
1.481465623410e-03 1.186610325110e-03 0.0 
1.186610325110e-03 3.708726828443e-03 0.0 
0.0 0.0 0.0 
5.279061126282e-04 3.138188892395e-03 0.0 
3.138188892395e-03 2.999168336377e-04 0.0 
0.0 0.0 0.0 
-7.421722514238e-04 4.105102804349e-04 0.0 
4.105102804349e-04 9.890250282632e-03 0.0 
0.0 0.0 0.0 
1.133559020289e-03 2.013416093682e-04 0.0 
2.013416093682e-04 4.419989775286e-03 0.0 
0.0 0.0 0.0 
-2.449225935762e-04 2.962268468581e-03 0.0 
2.962268468581e-03 3.307070510472e-03 0.0 
0.0 0.0 0.0 
-8.228630733336e-04 3.013771813654e-04 0.0 
3.013771813654e-04 9.745157541921e-03 0.0 
0.0 0.0 0.0 
-6.246820525824e-05 2.098158715137e-03 0.0 
2.098158715137e-03 9.860232132063e-03 0.0 
0.0 0.0 0.0 
9.690634820445e-04 3.139708575205e-04 0.0 
3.139708575205e-04 4.992374559767e-03 0.0 
0.0 0.0 0.0 
-1.841621854755e-04 1.760521581581e-03 0.0 
1.760521581581e-03 1.078135270975e-02 0.0 
0.0 0.0 0.0 
-8.920186487729e-04 3.973047604778e-04 0.0 
3.973047604778e-04 9.670689371634e-03 0.0 
0.0 0.0 0.0 
-7.221692261380e-04 1.404407580018e-03 0.0 
1.404407580018e-03 9.385442724271e-03 0.0 
0.0 0.0 0.0 
-6.747307062310e-04 2.970194747511e-03 0.0 
2.970194747511e-03 3.240272872283e-03 0.0 
0.0 0.0 0.0 
-1.153821606782e-03 1.051491063221e-03 0.0 
1.051491063221e-03 8.065452947060e-03 0.0 
0.0 0.0 0.0 
-9.399575040739e-04 1.224726513303e-03 0.0 
1.224726513303e-03 8.245749960963e-03 0.0 
0.0 0.0 0.0 
-1.006880293107e-03 1.212132617927e-03 0.0 
1.212132617927e-03 8.580267851258e-03 0.0 
0.0 0.0 0.0 
-3.544792217924e-04 2.147100910459e-03 0.0 
2.147100910459e-03 6.127010005867e-03 0.0 
0.0 0.0 0.0 
1.173540317012e-05 2.127767755649e-03 0.0 
2.127767755649e-03 9.329398183274e-03 0.0 
0.0 0.0 0.0 
-9.259424195267e-04 5.491023985658e-04 0.0 
5.491023985658e-04 9.356128354740e-03 0.0 
0.0 0.0 0.0 
-1.138359934337e-03 6.789085164744e-04 0.0 
6.789085164744e-04 8.616962644447e-03 0.0 
0.0 0.0 0.0 
1.805810476081e-03 1.841927348034e-03 0.0 
1.841927348034e-03 1.385888567842e-03 0.0 
0.0 0.0 0.0 
-4.266313049383e-04 -1.045155157198e-03 0.0 
-1.045155157198e-03 1.577621366975e-03 0.0 
0.0 0.0 0.0 
-1.185650920553e-03 8.355192176428e-04 0.0 
8.355192176428e-04 8.080437150227e-03 0.0 
0.0 0.0 0.0 
1.597032505438e-04 2.979418923189e-03 0.0 
2.979418923189e-03 2.536080922680e-03 0.0 
0.0 0.0 0.0 
-6.322913116770e-04 1.392675870588e-05 0.0 
1.392675870588e-05 8.845262502254e-03 0.0 
0.0 0.0 0.0 
1.542192650319e-03 -1.666878436202e-03 0.0 
-1.666878436202e-03 -6.054234440421e-04 0.0 
0.0 0.0 0.0 
1.844980160538e-03 2.019501986814e-03 0.0 
2.019501986814e-03 7.803702631624e-04 0.0 
0.0 0.0 0.0 
-7.128754187467e-04 1.012190067330e-03 0.0 
1.012190067330e-03 1.009026475934e-02 0.0 
0.0 0.0 0.0 
3.460241860656e-04 2.973284467778e-03 0.0 
2.973284467778e-03 2.536089876031e-03 0.0 
0.0 0.0 0.0 
-1.011489414500e-03 1.138945047368e-03 0.0 
1.138945047368e-03 8.007991389705e-03 0.0 
0.0 0.0 0.0 
1.472501881266e-03 1.179290384395e-03 0.0 
1.179290384395e-03 3.706609874802e-03 0.0 
0.0 0.0 0.0 
1.158180916446e-03 -5.028858037756e-04 0.0 
-5.028858037756e-04 3.022463889882e-03 0.0 
0.0 0.0 0.0 
1.562076248647e-04 1.968053389459e-03 0.0 
1.968053389459e-03 8.534408132637e-03 0.0 
0.0 0.0 0.0 
-1.198973609396e-03 1.083544361610e-03 0.0 
1.083544361610e-03 7.518856353283e-03 0.0 
0.0 0.0 0.0 
2.658771820197e-03 4.840412039095e-04 0.0 
4.840412039095e-04 -1.858939626670e-03 0.0 
0.0 0.0 0.0 
5.543395322787e-04 -1.348152454071e-03 0.0 
-1.348152454071e-03 1.777702676121e-03 0.0 
0.0 0.0 0.0 
-9.115464355198e-04 2.585334399243e-03 0.0 
2.585334399243e-03 4.876701117723e-03 0.0 
0.0 0.0 0.0 
-3.071291789124e-04 2.860463598911e-03 0.0 
2.860463598911e-03 3.318459802613e-03 0.0 
0.0 0.0 0.0 
-6.748955068906e-04 1.300005270584e-03 0.0 
1.300005270584e-03 1.006762192424e-02 0.0 
0.0 0.0 0.0 
-7.724153161817e-04 1.641863727288e-03 0.0 
1.641863727288e-03 7.671130086261e-03 0.0 
0.0 0.0 0.0 
-1.201972291677e-03 1.452038471116e-03 0.0 
1.452038471116e-03 6.873933606845e-03 0.0 
0.0 0.0 0.0 
-1.066381902060e-03 1.033005154501e-03 0.0 
1.033005154501e-03 7.775263036448e-03 0.0 
0.0 0.0 0.0 
2.777850403695e-04 1.426617526606e-03 0.0 
1.426617526606e-03 7.680331121485e-03 0.0 
0.0 0.0 0.0 
4.696476031534e-04 1.370553306852e-03 0.0 
1.370553306852e-03 7.156029727170e-03 0.0 
0.0 0.0 0.0 
-5.770709527170e-04 1.280979043570e-03 0.0 
1.280979043570e-03 1.007060396748e-02 0.0 
0.0 0.0 0.0 
-8.705577688252e-04 8.886552224515e-04 0.0 
8.886552224515e-04 1.005757469436e-02 0.0 
0.0 0.0 0.0 
1.122765864994e-03 -6.575646798323e-04 0.0 
-6.575646798323e-04 2.641572112280e-03 0.0 
0.0 0.0 0.0 
-6.382221879836e-04 2.292008058007e-03 0.0 
2.292008058007e-03 5.736916827713e-03 0.0 
0.0 0.0 0.0 
2.203750909339e-03 1.873493784691e-03 0.0 
1.873493784691e-03 -8.700614804104e-04 0.0 
0.0 0.0 0.0 
2.184061783273e-03 1.664228180293e-03 0.0 
1.664228180293e-03 -1.797949717746e-04 0.0 
0.0 0.0 0.0 
-6.681545397820e-04 1.801863077620e-03 0.0 
1.801863077620e-03 7.208522839184e-03 0.0 
0.0 0.0 0.0 
1.543475378421e-03 4.996580109636e-04 0.0 
4.996580109636e-04 3.376158865665e-03 0.0 
0.0 0.0 0.0 
1.489915282815e-04 -7.569732084934e-04 0.0 
-7.569732084934e-04 3.228774602219e-03 0.0 
0.0 0.0 0.0 
-5.880215632666e-04 1.117911263676e-03 0.0 
1.117911263676e-03 1.038067873855e-02 0.0 
0.0 0.0 0.0 
2.531317437410e-03 -2.911368980183e-04 0.0 
-2.911368980183e-04 -1.737610085623e-03 0.0 
0.0 0.0 0.0 
-1.376013275298e-04 2.307326062514e-03 0.0 
2.307326062514e-03 5.491331569125e-03 0.0 
0.0 0.0 0.0 
-9.175775605599e-04 1.342933569143e-03 0.0 
1.342933569143e-03 7.876600997955e-03 0.0 
0.0 0.0 0.0 
-2.718858217625e-04 2.412404515728e-03 0.0 
2.412404515728e-03 5.264854853774e-03 0.0 
0.0 0.0 0.0 
-2.075954936961e-04 1.651476806805e-03 0.0 
1.651476806805e-03 1.095685724015e-02 0.0 
0.0 0.0 0.0 
-1.973973298957e-04 1.414816460235e-03 0.0 
1.414816460235e-03 1.124605082387e-02 0.0 
0.0 0.0 0.0 
-3.988670878088e-04 1.319709696285e-03 0.0 
1.319709696285e-03 1.091688928122e-02 0.0 
0.0 0.0 0.0 
1.086494466127e-03 -4.632019270294e-04 0.0 
-4.632019270294e-04 3.155177769807e-03 0.0 
0.0 0.0 0.0 
-6.106041601034e-04 8.289625666354e-04 0.0 
8.289625666354e-04 1.055384421898e-02 0.0 
0.0 0.0 0.0 
-1.479436199762e-04 3.066400936015e-03 0.0 
3.066400936015e-03 2.394281287843e-03 0.0 
0.0 0.0 0.0 
2.109125725156e-03 1.511579391598e-03 0.0 
1.511579391598e-03 5.124535773824e-04 0.0 
0.0 0.0 0.0 
2.442806491001e-03 1.478736184015e-03 0.0 
1.478736184015e-03 -2.715665137027e-03 0.0 
0.0 0.0 0.0 
-1.046779428626e-03 1.781241778975e-03 0.0 
1.781241778975e-03 6.641259435730e-03 0.0 
0.0 0.0 0.0 
-9.247329076300e-04 2.407607725556e-04 0.0 
2.407607725556e-04 8.881097911092e-03 0.0 
0.0 0.0 0.0 
-7.978008691939e-04 4.117146137565e-04 0.0 
4.117146137565e-04 9.669119357055e-03 0.0 
0.0 0.0 0.0 
5.012480191458e-04 9.047427273051e-04 0.0 
9.047427273051e-04 6.841890598343e-03 0.0 
0.0 0.0 0.0 
-5.173184662132e-04 1.451650653788e-03 0.0 
1.451650653788e-03 9.672304824420e-03 0.0 
0.0 0.0 0.0 
-9.812463120754e-04 8.810830161450e-04 0.0 
8.810830161450e-04 8.942489928508e-03 0.0 
0.0 0.0 0.0 
-8.543284428706e-04 1.297693049720e-03 0.0 
1.297693049720e-03 8.495869015644e-03 0.0 
0.0 0.0 0.0 
2.667158598157e-03 1.486012956370e-03 0.0 
1.486012956370e-03 -3.163512056745e-03 0.0 
0.0 0.0 0.0 
-6.479283479139e-04 -1.134019770328e-03 0.0 
-1.134019770328e-03 6.255058352487e-04 0.0 
0.0 0.0 0.0 
9.323078800361e-04 2.356559029477e-03 0.0 
2.356559029477e-03 3.077228213125e-03 0.0 
0.0 0.0 0.0 
-3.662712675434e-05 2.196615076754e-03 0.0 
2.196615076754e-03 5.752473071743e-03 0.0 
0.0 0.0 0.0 
8.427295769438e-04 2.236409340245e-03 0.0 
2.236409340245e-03 3.909146631184e-03 0.0 
0.0 0.0 0.0 
-6.897971647152e-04 3.026610470069e-03 0.0 
3.026610470069e-03 4.667029430196e-04 0.0 
0.0 0.0 0.0 
-6.016465246094e-04 4.924814479473e-05 0.0 
4.924814479473e-05 9.198961447800e-03 0.0 
0.0 0.0 0.0 
-3.719877998631e-04 -1.087832197138e-03 0.0 
-1.087832197138e-03 1.365498052685e-03 0.0 
0.0 0.0 0.0 
9.979337687445e-04 2.991347600163e-03 0.0 
2.991347600163e-03 7.528412636959e-04 0.0 
0.0 0.0 0.0 
0.0 9.422524899193e-04 0.0 
9.422524899193e-04 7.403472572080e-03 0.0 
0.0 0.0 0.0 
1.149771658749e-03 1.351296460910e-03 0.0 
1.351296460910e-03 4.878545878054e-03 0.0 
0.0 0.0 0.0 
-1.035308688959e-03 6.094118188418e-04 0.0 
6.094118188418e-04 8.625072269127e-03 0.0 
0.0 0.0 0.0 
2.268754932042e-04 -2.601910953651e-05 0.0 
-2.601910953651e-05 9.997021112003e-04 0.0 
0.0 0.0 0.0 
-4.678449942703e-04 2.042234947425e-03 0.0 
2.042234947425e-03 6.141932337470e-03 0.0 
0.0 0.0 0.0 
1.153901816880e-03 2.184067799234e-03 0.0 
2.184067799234e-03 3.100404347993e-03 0.0 
0.0 0.0 0.0 
-1.009680534309e-03 1.114885104871e-03 0.0 
1.114885104871e-03 8.908527990344e-03 0.0 
0.0 0.0 0.0 
-1.150054354832e-04 1.967791573127e-03 0.0 
1.967791573127e-03 1.035335808089e-02 0.0 
0.0 0.0 0.0 
-1.062417535107e-03 9.286869972974e-04 0.0 
9.286869972974e-04 8.079017251895e-03 0.0 
0.0 0.0 0.0 
-8.462405990332e-04 1.501733682092e-03 0.0 
1.501733682092e-03 8.095690454333e-03 0.0 
0.0 0.0 0.0 
2.728570957899e-04 -7.506402950799e-04 0.0 
-7.506402950799e-04 3.227133350134e-03 0.0 
0.0 0.0 0.0 
-6.460460793782e-04 9.859018399162e-04 0.0 
9.859018399162e-04 1.036000225715e-02 0.0 
0.0 0.0 0.0 
1.108137986048e-03 -3.274214449070e-04 0.0 
-3.274214449070e-04 3.514421997190e-03 0.0 
0.0 0.0 0.0 
-1.087682573161e-04 2.042445063881e-03 0.0 
2.042445063881e-03 1.011708752044e-02 0.0 
0.0 0.0 0.0 
0.0 1.631308755806e-03 0.0 
1.631308755806e-03 1.086790486381e-02 0.0 
0.0 0.0 0.0 
0.0 1.176078595257e-03 0.0 
1.176078595257e-03 1.145015116356e-02 0.0 
0.0 0.0 0.0 
0.0 1.396983643427e-03 0.0 
1.396983643427e-03 1.118663610483e-02 0.0 
0.0 0.0 0.0 
-8.603019692159e-04 1.208887121409e-03 0.0 
1.208887121409e-03 8.855540162868e-03 0.0 
0.0 0.0 0.0 
-7.544028683620e-04 9.866050716525e-04 0.0 
9.866050716525e-04 1.036037112638e-02 0.0 
0.0 0.0 0.0 
-4.778825779717e-04 1.427018366362e-03 0.0 
1.427018366362e-03 1.002453715844e-02 0.0 
0.0 0.0 0.0 
-4.008274128521e-04 2.302032338172e-03 0.0 
2.302032338172e-03 5.278787923056e-03 0.0 
0.0 0.0 0.0 
-7.020216655065e-04 2.091897497988e-03 0.0 
2.091897497988e-03 5.762387444964e-03 0.0 
0.0 0.0 0.0 
2.933590723853e-05 -6.997165033938e-04 0.0 
-6.997165033938e-04 3.175572332558e-03 0.0 
0.0 0.0 0.0 
-6.964869509891e-04 1.123987497843e-03 0.0 
1.123987497843e-03 1.038037337177e-02 0.0 
0.0 0.0 0.0 
-2.461914063756e-05 2.126315612876e-03 0.0 
2.126315612876e-03 9.592700558355e-03 0.0 
0.0 0.0 0.0 
-5.671425490803e-04 9.528782650116e-04 0.0 
9.528782650116e-04 1.061065768441e-02 0.0 
0.0 0.0 0.0 
1.283889570031e-03 1.376557219659e-03 0.0 
1.376557219659e-03 4.313575692395e-03 0.0 
0.0 0.0 0.0 
-6.727897799689e-04 9.502316326632e-04 0.0 
9.502316326632e-04 1.061151083171e-02 0.0 
0.0 0.0 0.0 
1.360011611491e-04 1.852460439008e-03 0.0 
1.852460439008e-03 7.062148673882e-03 0.0 
0.0 0.0 0.0 
3.006609547418e-05 2.290429456330e-03 0.0 
2.290429456330e-03 5.076689935215e-03 0.0 
0.0 0.0 0.0 
-1.000373759629e-03 1.533258892263e-03 0.0 
1.533258892263e-03 6.667101956678e-03 0.0 
0.0 0.0 0.0 
1.128609380841e-03 3.186122076056e-03 0.0 
3.186122076056e-03 -8.186258284490e-04 0.0 
0.0 0.0 0.0 
-1.667804256098e-04 7.871556145801e-04 0.0 
7.871556145801e-04 1.146715392713e-02 0.0 
0.0 0.0 0.0 
-1.838966830526e-04 2.514091134127e-03 0.0 
2.514091134127e-03 4.545518043607e-03 0.0 
0.0 0.0 0.0 
-6.124633931126e-06 1.833740769648e-03 0.0 
1.833740769648e-03 8.779757680046e-03 0.0 
0.0 0.0 0.0 
1.175106871838e-04 -7.119831794876e-04 0.0 
-7.119831794876e-04 3.176915914424e-03 0.0 
0.0 0.0 0.0 
1.050003281884e-03 -2.039803106349e-03 0.0 
-2.039803106349e-03 -3.908881141815e-04 0.0 
0.0 0.0 0.0 
2.829505238771e-04 8.053496334262e-04 0.0 
8.053496334262e-04 6.809783170157e-03 0.0 
0.0 0.0 0.0 
6.667184485774e-04 2.946936865323e-03 0.0 
2.946936865323e-03 1.805356636002e-03 0.0 
0.0 0.0 0.0 
0.0 1.738680141499e-03 0.0 
1.738680141499e-03 1.068516799157e-02 0.0 
0.0 0.0 0.0 
-2.331801443350e-04 1.225819487284e-03 0.0 
1.225819487284e-03 1.108206637443e-02 0.0 
0.0 0.0 0.0 
-6.104229918263e-04 1.691709165286e-03 0.0 
1.691709165286e-03 7.463518160213e-03 0.0 
0.0 0.0 0.0 
-6.105883411568e-04 -5.445164055669e-04 0.0 
-5.445164055669e-04 6.543157524947e-04 0.0 
0.0 0.0 0.0 
0.0 1.904971891172e-03 0.0 
1.904971891172e-03 1.023988235187e-02 0.0 
0.0 0.0 0.0 
2.785997616737e-04 1.106182755642e-03 0.0 
1.106182755642e-03 6.998381509203e-03 0.0 
0.0 0.0 0.0 
1.539141484344e-03 -1.701841389895e-03 0.0 
-1.701841389895e-03 -4.445920817423e-04 0.0 
0.0 0.0 0.0 
1.335898277603e-03 1.176596168740e-03 0.0 
1.176596168740e-03 4.298514607209e-03 0.0 
0.0 0.0 0.0 
1.784709551080e-04 1.857654554471e-03 0.0 
1.857654554471e-03 8.288075014585e-03 0.0 
0.0 0.0 0.0 
-1.799628895106e-04 -5.519732578734e-05 0.0 
-5.519732578734e-05 1.706500980998e-04 0.0 
0.0 0.0 0.0 
-6.747649636918e-05 2.403522160474e-03 0.0 
2.403522160474e-03 4.796811275332e-03 0.0 
0.0 0.0 0.0 
-6.873571867683e-04 1.564243203520e-03 0.0 
1.564243203520e-03 7.931750630872e-03 0.0 
0.0 0.0 0.0 
-5.036107507759e-04 1.835725546289e-03 0.0 
1.835725546289e-03 6.948737002053e-03 0.0 
0.0 0.0 0.0 
-7.804958328197e-04 1.535446099404e-03 0.0 
1.535446099404e-03 7.686084453951e-03 0.0 
0.0 0.0 0.0 
7.395213752865e-04 3.228343844581e-03 0.0 
3.228343844581e-03 4.074849645708e-04 0.0 
0.0 0.0 0.0 
0.0 2.005649906620e-03 0.0 
2.005649906620e-03 9.728122679990e-03 0.0 
0.0 0.0 0.0 
2.005348164622e-03 1.398761432343e-03 0.0 
1.398761432343e-03 1.189410763118e-03 0.0 
0.0 0.0 0.0 
1.983759373489e-03 4.254485753346e-04 0.0 
4.254485753346e-04 -3.924326495041e-03 0.0 
0.0 0.0 0.0 
1.397718495273e-04 3.308848908078e-05 0.0 
3.308848908078e-05 7.037077822476e-03 0.0 
0.0 0.0 0.0 
-1.864438292610e-04 -4.219938551174e-04 0.0 
-4.219938551174e-04 3.592202854685e-04 0.0 
0.0 0.0 0.0 
-1.057000371146e-03 1.163564942622e-03 0.0 
1.163564942622e-03 7.447909089653e-03 0.0 
0.0 0.0 0.0 
9.132588296012e-04 -2.274197402647e-03 0.0 
-2.274197402647e-03 -1.972636878052e-03 0.0 
0.0 0.0 0.0 
-1.077037111038e-03 7.194306320843e-04 0.0 
7.194306320843e-04 8.094690315744e-03 0.0 
0.0 0.0 0.0 
2.815335937578e-04 1.231865627430e-03 0.0 
1.231865627430e-03 7.535951382430e-03 0.0 
0.0 0.0 0.0 
0.0 2.013150695314e-03 0.0 
2.013150695314e-03 9.186618769623e-03 0.0 
0.0 0.0 0.0 
-9.438194319145e-04 1.126032983097e-03 0.0 
1.126032983097e-03 8.591917350817e-03 0.0 
0.0 0.0 0.0 
3.477515723960e-05 -2.314806106614e-03 0.0 
-2.314806106614e-03 -8.791342587888e-04 0.0 
0.0 0.0 0.0 
1.736371920363e-03 8.400184387306e-04 0.0 
8.400184387306e-04 -4.570190037522e-03 0.0 
0.0 0.0 0.0 
-2.843810627295e-05 -2.777840640098e-03 0.0 
-2.777840640098e-03 -1.015179634366e-03 0.0 
0.0 0.0 0.0 
4.233687907056e-04 -3.798126722176e-05 0.0 
-3.798126722176e-05 5.703955295945e-03 0.0 
0.0 0.0 0.0 
-9.421494423950e-04 2.911840127404e-04 0.0 
2.911840127404e-04 8.826738772108e-03 0.0 
0.0 0.0 0.0 
-1.106837966153e-03 6.208393174253e-04 0.0 
6.208393174253e-04 8.863451432947e-03 0.0 
0.0 0.0 0.0 
0.0 1.916339042646e-03 0.0 
1.916339042646e-03 8.662106177246e-03 0.0 
0.0 0.0 0.0 
-9.020008610533e-04 2.244316101079e-04 0.0 
2.244316101079e-04 8.853236538815e-03 0.0 
0.0 0.0 0.0 
-1.787422632824e-04 1.167854308675e-03 0.0 
1.167854308675e-03 1.149544658519e-02 0.0 
0.0 0.0 0.0 
2.344337285156e-04 1.854255551697e-03 0.0 
1.854255551697e-03 6.858764835355e-03 0.0 
0.0 0.0 0.0 
-7.844847344659e-04 3.194042896795e-04 0.0 
3.194042896795e-04 9.515100809652e-03 0.0 
0.0 0.0 0.0 
-5.306182878985e-04 2.650601540650e-03 0.0 
2.650601540650e-03 4.154288496601e-03 0.0 
0.0 0.0 0.0 
1.287135605923e-03 1.365121505572e-03 0.0 
1.365121505572e-03 4.272431419994e-03 0.0 
0.0 0.0 0.0 
1.852553985227e-03 2.340996093272e-03 0.0 
2.340996093272e-03 -1.978860812414e-03 0.0 
0.0 0.0 0.0 
0.0 1.710214423611e-03 0.0 
1.710214423611e-03 8.177316134471e-03 0.0 
0.0 0.0 0.0 
0.0 1.518194157247e-03 0.0 
1.518194157247e-03 1.103959278320e-02 0.0 
0.0 0.0 0.0 
0.0 1.281638137043e-03 0.0 
1.281638137043e-03 1.133574413417e-02 0.0 
0.0 0.0 0.0 
9.117289654419e-04 -4.583763166856e-04 0.0 
-4.583763166856e-04 3.534930032250e-03 0.0 
0.0 0.0 0.0 
-6.212394856242e-05 -6.166945297840e-04 0.0 
-6.166945297840e-04 3.099276894549e-03 0.0 
0.0 0.0 0.0 
2.145976199031e-04 2.312268509238e-03 0.0 
2.312268509238e-03 5.072258979302e-03 0.0 
0.0 0.0 0.0 
9.307456463175e-04 -3.267109867893e-04 0.0 
-3.267109867893e-04 3.881224403455e-03 0.0 
0.0 0.0 0.0 
0.0 1.445318569084e-03 0.0 
1.445318569084e-03 7.787972908275e-03 0.0 
0.0 0.0 0.0 
1.304101423111e-03 2.719820063869e-03 0.0 
2.719820063869e-03 7.916213560193e-04 0.0 
0.0 0.0 0.0 
2.276918070142e-03 -6.253625601543e-04 0.0 
-6.253625601543e-04 -7.069612224365e-04 0.0 
0.0 0.0 0.0 
1.975845526799e-03 -9.266227869962e-04 0.0 
-9.266227869962e-04 -4.865882636351e-05 0.0 
0.0 0.0 0.0 
-7.340359507725e-04 3.241385807135e-04 0.0 
3.241385807135e-04 9.742286460571e-03 0.0 
0.0 0.0 0.0 
2.255790144325e-04 7.140790389751e-04 0.0 
7.140790389751e-04 7.312377049895e-03 0.0 
0.0 0.0 0.0 
-9.244462433865e-04 -2.421707085754e-03 0.0 
-2.421707085754e-03 -2.956405702276e-04 0.0 
0.0 0.0 0.0 
0.0 1.103887921813e-03 0.0 
1.103887921813e-03 7.481943987030e-03 0.0 
0.0 0.0 0.0 
1.635886714380e-03 -1.372121126519e-03 0.0 
-1.372121126519e-03 5.349605420824e-05 0.0 
0.0 0.0 0.0 
0.0 1.833922485047e-03 0.0 
1.833922485047e-03 1.047858575196e-02 0.0 
0.0 0.0 0.0 
-5.859278500143e-04 1.439642640700e-03 0.0 
1.439642640700e-03 1.002316937923e-02 0.0 
0.0 0.0 0.0 
5.479433287794e-04 -5.023396966786e-05 0.0 
-5.023396966786e-05 -7.087505454750e-05 0.0 
0.0 0.0 0.0 
2.856664648614e-04 2.411395180223e-03 0.0 
2.411395180223e-03 4.322600815210e-03 0.0 
0.0 0.0 0.0 
-6.287325275309e-04 7.895025227219e-04 0.0 
7.895025227219e-04 1.078555473140e-02 0.0 
0.0 0.0 0.0 
0.0 1.968511602424e-03 0.0 
1.968511602424e-03 9.992282712530e-03 0.0 
0.0 0.0 0.0 
-9.175726313034e-04 1.275932578219e-03 0.0 
1.275932578219e-03 8.846966781633e-03 0.0 
0.0 0.0 0.0 
3.946785800573e-04 1.814094271840e-03 0.0 
1.814094271840e-03 6.688308330995e-03 0.0 
0.0 0.0 0.0 
7.064269792523e-04 3.223515663535e-03 0.0 
3.223515663535e-03 -9.279848940134e-04 0.0 
0.0 0.0 0.0 
5.382231356932e-04 9.682778788631e-04 0.0 
9.682778788631e-04 6.419227097240e-03 0.0 
0.0 0.0 0.0 
1.317601126859e-03 -1.408296476521e-03 0.0 
-1.408296476521e-03 7.108241119622e-04 0.0 
0.0 0.0 0.0 
1.602061130782e-03 -1.324969426872e-03 0.0 
-1.324969426872e-03 6.203420843676e-06 0.0 
0.0 0.0 0.0 
-1.462261210065e-03 -2.447182024493e-03 0.0 
-2.447182024493e-03 -4.197050400258e-04 0.0 
0.0 0.0 0.0 
0.0 2.020330292971e-03 0.0 
2.020330292971e-03 9.457856228207e-03 0.0 
0.0 0.0 0.0 
2.094264773809e-03 2.132663506165e-03 0.0 
2.132663506165e-03 -1.520548678160e-03 0.0 
0.0 0.0 0.0 
8.482799019935e-04 3.642719682403e-04 0.0 
3.642719682403e-04 5.307067293917e-03 0.0 
0.0 0.0 0.0 
-8.495605083241e-04 2.117325765780e-04 0.0 
2.117325765780e-04 9.337801636413e-03 0.0 
0.0 0.0 0.0 
2.047630534132e-04 -1.680669504335e-03 0.0 
-1.680669504335e-03 1.196271414006e-03 0.0 
0.0 0.0 0.0 
1.925252308298e-03 -1.158565886639e-03 0.0 
-1.158565886639e-03 -6.282296765348e-04 0.0 
0.0 0.0 0.0 
-8.934161163854e-04 1.379715694771e-03 0.0 
1.379715694771e-03 8.484955981188e-03 0.0 
0.0 0.0 0.0 
0.0 1.821229238395e-03 0.0 
1.821229238395e-03 8.415977746554e-03 0.0 
0.0 0.0 0.0 
-4.262724928727e-05 -5.206728979580e-04 0.0 
-5.206728979580e-04 3.338682835512e-03 0.0 
0.0 0.0 0.0 
9.432904893882e-04 -1.277505682149e-04 0.0 
-1.277505682149e-04 4.215111238314e-03 0.0 
0.0 0.0 0.0 
-1.037698042281e-04 2.059670439740e-03 0.0 
2.059670439740e-03 6.050290147720e-03 0.0 
0.0 0.0 0.0 
1.431429572686e-03 7.146182506094e-05 0.0 
7.146182506094e-05 3.247460627710e-03 0.0 
0.0 0.0 0.0 
2.165191980450e-03 -5.766753170475e-04 0.0 
-5.766753170475e-04 -4.310279080961e-04 0.0 
0.0 0.0 0.0 
1.026159463180e-03 -2.866642565942e-04 0.0 
-2.866642565942e-04 3.680113001980e-03 0.0 
0.0 0.0 0.0 
-2.504929570609e-04 2.061335385887e-03 0.0 
2.061335385887e-03 6.373485603507e-03 0.0 
0.0 0.0 0.0 
-2.168411594020e-04 1.791527688232e-03 0.0 
1.791527688232e-03 7.818022047827e-03 0.0 
0.0 0.0 0.0 
1.148731319712e-03 1.342263351023e-03 0.0 
1.342263351023e-03 4.854292494770e-03 0.0 
0.0 0.0 0.0 
1.054057408698e-04 2.177080617454e-03 0.0 
2.177080617454e-03 5.389278350645e-03 0.0 
0.0 0.0 0.0 
3.726151757559e-04 -8.797488844711e-04 0.0 
-8.797488844711e-04 2.912496953826e-03 0.0 
0.0 0.0 0.0 
9.306449704605e-04 2.797171907462e-03 0.0 
2.797171907462e-03 1.825539968392e-03 0.0 
0.0 0.0 0.0 
-8.855682928743e-06 -6.425624100451e-04 0.0 
-6.425624100451e-04 3.102858789058e-03 0.0 
0.0 0.0 0.0 
3.150290385594e-04 1.817919949996e-03 0.0 
1.817919949996e-03 6.864526517906e-03 0.0 
0.0 0.0 0.0 
1.614933428002e-03 1.199861742473e-03 0.0 
1.199861742473e-03 3.085671392463e-03 0.0 
0.0 0.0 0.0 
2.764377376785e-04 1.057313686872e-03 0.0 
1.057313686872e-03 7.443044213507e-03 0.0 
0.0 0.0 0.0 
-5.867836304123e-04 9.140817243516e-04 0.0 
9.140817243516e-04 1.085290214081e-02 0.0 
0.0 0.0 0.0 
5.025889532528e-05 -1.567000636855e-03 0.0 
-1.567000636855e-03 1.420162119548e-03 0.0 
0.0 0.0 0.0 
0.0 1.271119819577e-03 0.0 
1.271119819577e-03 7.593287328040e-03 0.0 
0.0 0.0 0.0 
5.386187573091e-04 1.080157821135e-03 0.0 
1.080157821135e-03 6.941312827875e-03 0.0 
0.0 0.0 0.0 
9.345204464335e-04 2.181971424116e-03 0.0 
2.181971424116e-03 3.555003611268e-03 0.0 
0.0 0.0 0.0 
-8.665801907377e-04 -1.564951054721e-03 0.0 
-1.564951054721e-03 4.296716882310e-04 0.0 
0.0 0.0 0.0 
2.461614734504e-04 5.741168353972e-04 0.0 
5.741168353972e-04 7.290695289265e-03 0.0 
0.0 0.0 0.0 
-6.171734445156e-04 1.083028324646e-03 0.0 
1.083028324646e-03 1.064628900449e-02 0.0 
0.0 0.0 0.0 
1.181283544933e-03 -1.704585151789e-03 0.0 
-1.704585151789e-03 3.068991786583e-04 0.0 
0.0 0.0 0.0 
0.0 7.759630536223e-04 0.0 
7.759630536223e-04 7.320599917455e-03 0.0 
0.0 0.0 0.0 
8.604207048555e-04 -2.920577185562e-04 0.0 
-2.920577185562e-04 4.038240628058e-03 0.0 
0.0 0.0 0.0 
-8.301091815128e-04 1.837918981930e-03 0.0 
1.837918981930e-03 6.338596546335e-03 0.0 
0.0 0.0 0.0 
-1.002797260054e-03 7.217519563000e-04 0.0 
7.217519563000e-04 8.926569285225e-03 0.0 
0.0 0.0 0.0 
1.621725336994e-03 1.210198182623e-03 0.0 
1.210198182623e-03 3.101387292155e-03 0.0 
0.0 0.0 0.0 
9.386219184320e-04 -6.413676951148e-04 0.0 
-6.413676951148e-04 3.043654991361e-03 0.0 
0.0 0.0 0.0 
1.433761277234e-03 3.340496430220e-04 0.0 
3.340496430220e-04 3.587415414034e-03 0.0 
0.0 0.0 0.0 
-9.608207906829e-04 7.873937345546e-04 0.0 
7.873937345546e-04 9.745992151964e-03 0.0 
0.0 0.0 0.0 
-9.635773625397e-04 1.420413630437e-03 0.0 
1.420413630437e-03 7.268310931464e-03 0.0 
0.0 0.0 0.0 
9.661515577428e-04 1.483877757642e-03 0.0 
1.483877757642e-03 5.417598382861e-03 0.0 
0.0 0.0 0.0 
-6.055378218631e-04 4.501933405626e-05 0.0 
4.501933405626e-05 9.537139603877e-03 0.0 
0.0 0.0 0.0 
2.231632554894e-04 -8.933940130992e-04 0.0 
-8.933940130992e-04 2.915388351591e-03 0.0 
0.0 0.0 0.0 
1.323591468293e-03 1.171756884209e-03 0.0 
1.171756884209e-03 4.310948683822e-03 0.0 
0.0 0.0 0.0 
9.436219891619e-04 -1.615904344528e-03 0.0 
-1.615904344528e-03 7.387352590025e-04 0.0 
0.0 0.0 0.0 
2.814022287219e-04 -3.383062875352e-04 0.0 
-3.383062875352e-04 4.644304996002e-03 0.0 
0.0 0.0 0.0 
-2.139309664528e-06 -1.551521463845e-04 0.0 
-1.551521463845e-04 3.888116445339e-05 0.0 
0.0 0.0 0.0 
5.871460174902e-04 2.806638343438e-03 0.0 
2.806638343438e-03 2.796902466279e-03 0.0 
0.0 0.0 0.0 
1.213962707238e-03 -1.689367952677e-03 0.0 
-1.689367952677e-03 1.006239804597e-04 0.0 
0.0 0.0 0.0 
1.891302126860e-04 -6.290432414407e-04 0.0 
-6.290432414407e-04 3.518279687281e-03 0.0 
0.0 0.0 0.0 
6.510657752650e-04 2.184965455651e-03 0.0 
2.184965455651e-03 4.318953342733e-03 0.0 
0.0 0.0 0.0 
1.033416858504e-03 -1.681945270965e-04 0.0 
-1.681945270965e-04 4.019050592974e-03 0.0 
0.0 0.0 0.0 
-8.006137423311e-04 2.214425108153e-04 0.0 
2.214425108153e-04 9.583887451502e-03 0.0 
0.0 0.0 0.0 
7.670946488421e-04 -1.905666285464e-03 0.0 
-1.905666285464e-03 3.406509659425e-04 0.0 
0.0 0.0 0.0 
0.0 6.381038053006e-04 0.0 
6.381038053006e-04 7.304084776565e-03 0.0 
0.0 0.0 0.0 
-6.731354932697e-04 1.645251320641e-03 0.0 
1.645251320641e-03 7.920587754251e-03 0.0 
0.0 0.0 0.0 
1.170483001762e-04 -5.159809868091e-04 0.0 
-5.159809868091e-04 3.788622630780e-03 0.0 
0.0 0.0 0.0 
-5.660193976051e-04 1.777867213845e-03 0.0 
1.777867213845e-03 7.451262699766e-03 0.0 
0.0 0.0 0.0 
8.500817284962e-05 -6.310206455840e-04 0.0 
-6.310206455840e-04 3.519150713187e-03 0.0 
0.0 0.0 0.0 
-4.714173668957e-04 -7.028707309218e-05 0.0 
-7.028707309218e-05 2.963756556460e-04 0.0 
0.0 0.0 0.0 
-1.068735435884e-03 7.264492567882e-04 0.0 
7.264492567882e-04 9.178246482499e-03 0.0 
0.0 0.0 0.0 
-1.820390767417e-04 -1.771206833450e-04 0.0 
-1.771206833450e-04 3.298724503683e-03 0.0 
0.0 0.0 0.0 
4.226112133368e-04 -5.717741606136e-06 0.0 
-5.717741606136e-06 -8.000127991692e-05 0.0 
0.0 0.0 0.0 
1.182952746603e-05 -4.716192947776e-04 0.0 
-4.716192947776e-04 3.684487074707e-03 0.0 
0.0 0.0 0.0 
9.335803641903e-04 -2.694866794510e-05 0.0 
-2.694866794510e-05 4.534981624456e-03 0.0 
0.0 0.0 0.0 
-3.627358955106e-04 2.705178850546e-04 0.0 
2.705178850546e-04 1.097644635224e-02 0.0 
0.0 0.0 0.0 
1.575715191150e-03 2.196044551969e-04 0.0 
2.196044551969e-04 2.976863439007e-03 0.0 
0.0 0.0 0.0 
1.560241666032e-03 2.878936353183e-04 0.0 
2.878936353183e-04 3.209303180115e-03 0.0 
0.0 0.0 0.0 
-1.121836361664e-03 5.194146232272e-04 0.0 
5.194146232272e-04 8.547952208826e-03 0.0 
0.0 0.0 0.0 
-8.977162774134e-04 1.386415963645e-04 0.0 
1.386415963645e-04 8.520149805765e-03 0.0 
0.0 0.0 0.0 
-1.853536704608e-04 9.511506662429e-04 0.0 
9.511506662429e-04 1.136683073238e-02 0.0 
0.0 0.0 0.0 
-4.269749262094e-04 1.916969309917e-03 0.0 
1.916969309917e-03 6.937832468729e-03 0.0 
0.0 0.0 0.0 
6.911341182585e-04 -2.690721702733e-05 0.0 
-2.690721702733e-05 -1.683912051040e-04 0.0 
0.0 0.0 0.0 
-3.163103337021e-04 -7.317386156588e-04 0.0 
-7.317386156588e-04 1.294249290823e-03 0.0 
0.0 0.0 0.0 
-7.923737769764e-04 -9.240019194661e-04 0.0 
-9.240019194661e-04 6.078450551770e-04 0.0 
0.0 0.0 0.0 
-1.002231394515e-04 -1.279248202427e-03 0.0 
-1.279248202427e-03 1.750584783648e-03 0.0 
0.0 0.0 0.0 
-3.592571561701e-04 1.698773996882e-03 0.0 
1.698773996882e-03 9.111007596114e-03 0.0 
0.0 0.0 0.0 
-4.135393637822e-04 2.258168751716e-04 0.0 
2.258168751716e-04 1.098197883232e-02 0.0 
0.0 0.0 0.0 
4.816139646686e-04 -5.133336503867e-05 0.0 
-5.133336503867e-05 5.505380442504e-03 0.0 
0.0 0.0 0.0 
-9.261933580018e-05 -9.133222006194e-04 0.0 
-9.133222006194e-04 2.290777824335e-03 0.0 
0.0 0.0 0.0 
1.730667403559e-04 -3.738244390529e-04 0.0 
-3.738244390529e-04 4.650725358744e-03 0.0 
0.0 0.0 0.0 
7.961625546982e-04 4.127283238841e-04 0.0 
4.127283238841e-04 5.560140232331e-03 0.0 
0.0 0.0 0.0 
2.616084881915e-03 4.378992552636e-04 0.0 
4.378992552636e-04 -3.650419839796e-03 0.0 
0.0 0.0 0.0 
-1.796402422102e-04 -1.521286750251e-04 0.0 
-1.521286750251e-04 3.298274817430e-03 0.0 
0.0 0.0 0.0 
-1.732002016385e-04 -8.933676947209e-05 0.0 
-8.933676947209e-05 2.745117031616e-03 0.0 
0.0 0.0 0.0 
1.925653931505e-04 4.321042595017e-04 0.0 
4.321042595017e-04 7.275137192585e-03 0.0 
0.0 0.0 0.0 
0.0 4.882886095331e-04 0.0 
4.882886095331e-04 7.277330566946e-03 0.0 
0.0 0.0 0.0 
-1.717991499511e-04 -1.476863884180e-04 0.0 
-1.476863884180e-04 3.641786843974e-03 0.0 
0.0 0.0 0.0 
3.050321841891e-05 -5.161908204433e-04 0.0 
-5.161908204433e-04 3.789158660008e-03 0.0 
0.0 0.0 0.0 
9.725626796924e-04 -4.915366434896e-04 0.0 
-4.915366434896e-04 3.409939616076e-03 0.0 
0.0 0.0 0.0 
7.598961747324e-04 5.829843451905e-04 0.0 
5.829843451905e-04 5.866867479655e-03 0.0 
0.0 0.0 0.0 
-4.363796108040e-04 -7.490649531581e-04 0.0 
-7.490649531581e-04 1.466400341360e-03 0.0 
0.0 0.0 0.0 
8.217538469126e-04 2.491470904731e-04 0.0 
2.491470904731e-04 5.288653446271e-03 0.0 
0.0 0.0 0.0 
2.827426804075e-04 -9.743487195881e-05 0.0 
-9.743487195881e-05 6.382980419339e-04 0.0 
0.0 0.0 0.0 
-1.341376325037e-05 -5.748185658875e-04 0.0 
-5.748185658875e-04 3.437698095166e-03 0.0 
0.0 0.0 0.0 
2.041545733034e-04 -6.609697825700e-04 0.0 
-6.609697825700e-04 3.586071346079e-03 0.0 
0.0 0.0 0.0 
3.262270694393e-04 -3.040003520318e-05 0.0 
-3.040003520318e-05 2.526093921471e-04 0.0 
0.0 0.0 0.0 
-1.776651040647e-04 -9.470231130607e-05 0.0 
-9.470231130607e-05 3.483046880478e-03 0.0 
0.0 0.0 0.0 
-4.762610209855e-04 9.255581177064e-04 0.0 
9.255581177064e-04 1.085006879426e-02 0.0 
0.0 0.0 0.0 
6.626844823023e-04 -1.405759796023e-05 0.0 
-1.405759796023e-05 -1.574119223311e-04 0.0 
0.0 0.0 0.0 
-9.374405929806e-04 1.904656743932e-04 0.0 
1.904656743932e-04 8.510314444758e-03 0.0 
0.0 0.0 0.0 
-9.341531439150e-04 2.366079176923e-04 0.0 
2.366079176923e-04 8.461335581981e-03 0.0 
0.0 0.0 0.0 
1.386953323954e-03 5.830567792397e-04 0.0 
5.830567792397e-04 3.987265589230e-03 0.0 
0.0 0.0 0.0 
-1.652562454243e-04 -5.789209949987e-05 0.0 
-5.789209949987e-05 2.746273720443e-03 0.0 
0.0 0.0 0.0 
8.937477766993e-04 -1.609420826487e-03 0.0 
-1.609420826487e-03 9.348775096432e-04 0.0 
0.0 0.0 0.0 
2.198417921822e-04 3.196954009197e-03 0.0 
3.196954009197e-03 1.381446856313e-03 0.0 
0.0 0.0 0.0 
2.796834547387e-04 1.840038790620e-05 0.0 
1.840038790620e-05 6.268100217605e-03 0.0 
0.0 0.0 0.0 
-3.020700585044e-05 1.901644623207e-03 0.0 
1.901644623207e-03 9.268389573593e-03 0.0 
0.0 0.0 0.0 
-5.454826593131e-04 3.404580663494e-04 0.0 
3.404580663494e-04 1.073376415147e-02 0.0 
0.0 0.0 0.0 
-4.395447166062e-04 2.791109712439e-03 0.0 
2.791109712439e-03 4.136288798006e-03 0.0 
0.0 0.0 0.0 
-5.237369032667e-04 -5.840674423522e-04 0.0 
-5.840674423522e-04 9.559847915988e-04 0.0 
0.0 0.0 0.0 
-1.150430396800e-03 1.184636498191e-03 0.0 
1.184636498191e-03 7.755999466217e-03 0.0 
0.0 0.0 0.0 
-7.718198373061e-04 5.697156523679e-05 0.0 
5.697156523679e-05 8.534962858838e-03 0.0 
0.0 0.0 0.0 
-7.455254609603e-04 4.540163867477e-05 0.0 
4.540163867477e-05 8.512211394802e-03 0.0 
0.0 0.0 0.0 
4.494094408594e-04 -1.387626624214e-05 0.0 
-1.387626624214e-05 -8.639725150772e-05 0.0 
0.0 0.0 0.0 
2.828938173864e-04 -4.146440742526e-05 0.0 
-4.146440742526e-05 2.708538008598e-04 0.0 
0.0 0.0 0.0 
2.099185625559e-04 -5.041684692422e-05 0.0 
-5.041684692422e-05 6.618861173036e-04 0.0 
0.0 0.0 0.0 
-2.814879013083e-04 -7.600344112306e-04 0.0 
-7.600344112306e-04 1.948320905708e-03 0.0 
0.0 0.0 0.0 
5.007645717456e-04 -2.775768866244e-05 0.0 
-2.775768866244e-05 1.913589393909e-04 0.0 
0.0 0.0 0.0 
-1.682563689075e-04 -8.957370831252e-05 0.0 
-8.957370831252e-05 3.849184566183e-03 0.0 
0.0 0.0 0.0 
-1.172361570089e-03 -1.084586045960e-03 0.0 
-1.084586045960e-03 -1.923112751680e-03 0.0 
0.0 0.0 0.0 
-1.820771295656e-04 -8.099322446163e-04 0.0 
-8.099322446163e-04 2.246744880595e-03 0.0 
0.0 0.0 0.0 
-5.320879292179e-04 7.552182900505e-05 0.0 
7.552182900505e-05 9.879765623741e-03 0.0 
0.0 0.0 0.0 
-8.502103911191e-04 1.312400838976e-04 0.0 
1.312400838976e-04 8.494595521729e-03 0.0 
0.0 0.0 0.0 
-3.954818895268e-04 1.664897248900e-03 0.0 
1.664897248900e-03 9.524885734389e-03 0.0 
0.0 0.0 0.0 
8.631983824277e-04 -1.777870461183e-04 0.0 
-1.777870461183e-04 4.367155534401e-03 0.0 
0.0 0.0 0.0 
-5.670482637249e-04 5.436898927002e-05 0.0 
5.436898927002e-05 9.525744577970e-03 0.0 
0.0 0.0 0.0 
-1.803720567803e-04 -1.526819574592e-05 0.0 
-1.526819574592e-05 2.931140107760e-03 0.0 
0.0 0.0 0.0 
3.548542360463e-04 -5.842376458462e-05 0.0 
-5.842376458462e-05 6.048163536183e-04 0.0 
0.0 0.0 0.0 
0.0 4.960649201029e-04 0.0 
4.960649201029e-04 1.187215779547e-02 0.0 
0.0 0.0 0.0 
-1.415537620495e-04 5.539794490359e-04 0.0 
5.539794490359e-04 1.185318061628e-02 0.0 
0.0 0.0 0.0 
-7.646859122576e-04 2.446637738471e-04 0.0 
2.446637738471e-04 9.335220777714e-03 0.0 
0.0 0.0 0.0 
-8.197580430704e-04 7.431830534216e-05 0.0 
7.431830534216e-05 8.529618131736e-03 0.0 
0.0 0.0 0.0 
-1.738121815413e-04 -1.331499302609e-04 0.0 
-1.331499302609e-04 2.957320814778e-03 0.0 
0.0 0.0 0.0 
-1.191598812514e-04 3.870695278102e-04 0.0 
3.870695278102e-04 1.191075073200e-02 0.0 
0.0 0.0 0.0 
-1.767837936690e-04 -8.859235257702e-04 0.0 
-8.859235257702e-04 2.016152111704e-03 0.0 
0.0 0.0 0.0 
-8.899250194485e-04 1.750696027635e-04 0.0 
1.750696027635e-04 8.476035860078e-03 0.0 
0.0 0.0 0.0 
-8.497058369513e-04 1.064055989324e-04 0.0 
1.064055989324e-04 8.523935133046e-03 0.0 
0.0 0.0 0.0 
-1.091154239799e-03 8.016055915696e-04 0.0 
8.016055915696e-04 7.834852874188e-03 0.0 
0.0 0.0 0.0 
0.0 1.070549688454e-03 0.0 
1.070549688454e-03 1.154712944468e-02 0.0 
0.0 0.0 0.0 
-1.309741668833e-04 4.723419849320e-04 0.0 
4.723419849320e-04 1.188832017467e-02 0.0 
0.0 0.0 0.0 
4.836873752114e-04 -3.432970431927e-05 0.0 
-3.432970431927e-05 1.952045268148e-04 0.0 
0.0 0.0 0.0 
4.836663595065e-04 -1.184504056990e-05 0.0 
-1.184504056990e-05 -9.519164910610e-05 0.0 
0.0 0.0 0.0 
-4.474377654397e-04 -5.493675611029e-04 0.0 
-5.493675611029e-04 1.130855388400e-03 0.0 
0.0 0.0 0.0 
3.359502068885e-04 -6.405821580853e-04 0.0 
-6.405821580853e-04 3.582309051865e-03 0.0 
0.0 0.0 0.0 
-3.513302649449e-05 1.563870450679e-05 0.0 
1.563870450679e-05 6.955235075868e-03 0.0 
0.0 0.0 0.0 
-3.054706845908e-03 -1.947850419582e-03 0.0 
-1.947850419582e-03 -2.255868655804e-03 0.0 
0.0 0.0 0.0 
-4.108055657041e-04 8.628808787780e-06 0.0 
8.628808787780e-06 1.069127901070e-02 0.0 
0.0 0.0 0.0 
-1.428508027784e-03 -8.413067248596e-04 0.0 
-8.413067248596e-04 6.608069442922e-04 0.0 
0.0 0.0 0.0 
1.411214958782e-03 3.936816560710e-04 0.0 
3.936816560710e-04 3.810124409890e-03 0.0 
0.0 0.0 0.0 
-5.224855304578e-04 -5.642903296120e-04 0.0 
-5.642903296120e-04 3.969456680220e-05 0.0 
0.0 0.0 0.0 
-1.551799541106e-03 -2.060666176273e-03 0.0 
-2.060666176273e-03 -7.811886915754e-04 0.0 
0.0 0.0 0.0 
1.418467471896e-03 1.545934432305e-04 0.0 
1.545934432305e-04 3.518581664770e-03 0.0 
0.0 0.0 0.0 
2.156106203266e-05 -2.817113059218e-05 0.0 
-2.817113059218e-05 6.670078355166e-03 0.0 
0.0 0.0 0.0 
-5.685475650569e-04 4.158140266567e-05 0.0 
4.158140266567e-05 9.851252046122e-03 0.0 
0.0 0.0 0.0 
-1.042399388742e-03 1.417827848501e-03 0.0 
1.417827848501e-03 7.635756279476e-03 0.0 
0.0 0.0 0.0 
3.551499916565e-04 -2.618586269864e-05 0.0 
-2.618586269864e-05 2.399949248317e-04 0.0 
0.0 0.0 0.0 
1.006366934380e-04 -3.015294932547e-04 0.0 
-3.015294932547e-04 4.926411223980e-03 0.0 
0.0 0.0 0.0 
0.0 1.519825851755e-04 0.0 
1.519825851755e-04 1.193739167036e-02 0.0 
0.0 0.0 0.0 
-1.066474210889e-04 1.621462040898e-04 0.0 
1.621462040898e-04 1.194802644134e-02 0.0 
0.0 0.0 0.0 
-8.102424155778e-04 9.713661044983e-05 0.0 
9.713661044983e-05 8.500085051844e-03 0.0 
0.0 0.0 0.0 
1.358943648368e-03 6.211605863173e-04 0.0 
6.211605863173e-04 4.158826354598e-03 0.0 
0.0 0.0 0.0 
0.0 4.180417082107e-04 0.0 
4.180417082107e-04 1.190556811617e-02 0.0 
0.0 0.0 0.0 
4.573068271234e-04 1.753798257369e-03 0.0 
1.753798257369e-03 6.696734752496e-03 0.0 
0.0 0.0 0.0 
3.634870212597e-04 -2.563787149285e-05 0.0 
-2.563787149285e-05 5.807791197383e-04 0.0 
0.0 0.0 0.0 
5.203079855611e-04 -2.377678738619e-05 0.0 
-2.377678738619e-05 1.823217681332e-04 0.0 
0.0 0.0 0.0 
3.692828965058e-04 -9.332468741279e-06 0.0 
-9.332468741279e-06 2.401114726498e-04 0.0 
0.0 0.0 0.0 
-1.848675981047e-04 -1.467919395282e-05 0.0 
-1.467919395282e-05 3.304024046031e-03 0.0 
0.0 0.0 0.0 
-7.563190158044e-06 -5.754351515172e-05 0.0 
-5.754351515172e-05 7.570574824896e-03 0.0 
0.0 0.0 0.0 
-1.791271392776e-04 -2.478121596468e-05 0.0 
-2.478121596468e-05 1.159217921368e-02 0.0 
0.0 0.0 0.0 
5.210962816464e-04 -6.201742952089e-06 0.0 
-6.201742952089e-06 -1.171162713650e-04 0.0 
0.0 0.0 0.0 
-1.694252885334e-04 -6.782471783255e-05 0.0 
-6.782471783255e-05 3.849153200125e-03 0.0 
0.0 0.0 0.0 
0.0 -2.678506727960e-05 0.0 
-2.678506727960e-05 7.609484694755e-03 0.0 
0.0 0.0 0.0 
3.705595832404e-07 -3.682341636196e-05 0.0 
-3.682341636196e-05 7.538379940843e-03 0.0 
0.0 0.0 0.0 
2.019440940217e-04 3.114611560142e-04 0.0 
3.114611560142e-04 7.278736647150e-03 0.0 
0.0 0.0 0.0 
-4.727423847171e-04 5.560596622627e-05 0.0 
5.560596622627e-05 1.032291471127e-02 0.0 
0.0 0.0 0.0 
-3.666773736780e-04 -2.625433087159e-05 0.0 
-2.625433087159e-05 1.087971907163e-02 0.0 
0.0 0.0 0.0 
0.0 -3.113105832610e-05 0.0 
-3.113105832610e-05 7.544794885958e-03 0.0 
0.0 0.0 0.0 
0.0 -3.092153494894e-05 0.0 
-3.092153494894e-05 7.531688555059e-03 0.0 
0.0 0.0 0.0 
-4.016995745559e-04 5.704980688032e-05 0.0 
5.704980688032e-05 1.069298406213e-02 0.0 
0.0 0.0 0.0 
7.210190243532e-04 2.002115005536e-05 0.0 
2.002115005536e-05 -2.055656729250e-04 0.0 
0.0 0.0 0.0 
-6.915539884654e-04 2.483514256450e-05 0.0 
2.483514256450e-05 8.493843454709e-03 0.0 
0.0 0.0 0.0 
-7.784956131952e-04 7.394131333300e-05 0.0 
7.394131333300e-05 8.517572228645e-03 0.0 
0.0 0.0 0.0 
5.009314560775e-04 -6.372230415176e-06 0.0 
-6.372230415176e-06 -1.021375214264e-04 0.0 
0.0 0.0 0.0 
0.0 5.528476766993e-05 0.0 
5.528476766993e-05 7.432162089446e-03 0.0 
0.0 0.0 0.0 
1.487136195029e-04 2.091064327829e-04 0.0 
2.091064327829e-04 7.294663653150e-03 0.0 
0.0 0.0 0.0 
0.0 1.770699459818e-04 0.0 
1.770699459818e-04 7.304417814836e-03 0.0 
0.0 0.0 0.0 
6.670398809276e-04 -1.594008078991e-06 0.0 
-1.594008078991e-06 -1.620323528132e-04 0.0 
0.0 0.0 0.0 
6.594208970210e-04 -8.613180888870e-06 0.0 
-8.613180888870e-06 -1.575209131444e-04 0.0 
0.0 0.0 0.0 
0.0 3.746950161729e-04 0.0 
3.746950161729e-04 7.273035172789e-03 0.0 
0.0 0.0 0.0 
0.0 2.627629585230e-04 0.0 
2.627629585230e-04 7.283982324322e-03 0.0 
0.0 0.0 0.0 
-5.067856896785e-04 -3.062956702362e-05 0.0 
-3.062956702362e-05 1.013040475932e-02 0.0 
0.0 0.0 0.0 
-6.415648507136e-04 1.218432328066e-05 0.0 
1.218432328066e-05 8.474734110382e-03 0.0 
0.0 0.0 0.0 
-4.387792880669e-04 -2.852237898988e-05 0.0 
-2.852237898988e-05 1.050886565593e-02 0.0 
0.0 0.0 0.0 
-5.884079349340e-04 -3.231898467523e-05 0.0 
-3.231898467523e-05 9.340214193627e-03 0.0 
0.0 0.0 0.0 
-6.178338131982e-04 4.266441345260e-06 0.0 
4.266441345260e-06 8.467512588100e-03 0.0 
0.0 0.0 0.0 
7.021255956310e-04 -2.088455029439e-05 0.0 
-2.088455029439e-05 -1.601456556571e-04 0.0 
0.0 0.0 0.0 
6.138451348328e-04 -2.847193789050e-05 0.0 
-2.847193789050e-05 -1.030479151110e-04 0.0 
0.0 0.0 0.0 
5.461128173716e-04 -4.235392477771e-05 0.0 
-4.235392477771e-05 -9.861258237387e-05 0.0 
0.0 0.0 0.0 
5.566632559451e-04 -4.995929477127e-05 0.0 
-4.995929477127e-05 -8.968420749345e-05 0.0 
0.0 0.0 0.0 
-1.628643646248e-04 -3.561201869652e-06 0.0 
-3.561201869652e-06 4.044492911700e-03 0.0 
0.0 0.0 0.0 
-1.756733062882e-04 -1.149422524954e-05 0.0 
-1.149422524954e-05 3.671697363821e-03 0.0 
0.0 0.0 0.0 
1.030077082873e-04 -2.622540192205e-05 0.0 
-2.622540192205e-05 6.463715077865e-05 0.0 
0.0 0.0 0.0 
-9.782598684582e-05 8.364569751989e-06 0.0 
8.364569751989e-06 5.150606036316e-03 0.0 
0.0 0.0 0.0 
1.106010551744e-05 -5.262849176633e-05 0.0 
-5.262849176633e-05 9.608009827144e-05 0.0 
0.0 0.0 0.0 
0.0 8.597992369294e-04 0.0 
8.597992369294e-04 1.169688019920e-02 0.0 
0.0 0.0 0.0 
0.0 3.484655388176e-04 0.0 
3.484655388176e-04 1.191577124387e-02 0.0 
0.0 0.0 0.0 
0.0 5.828347947679e-04 0.0 
5.828347947679e-04 1.183283786901e-02 0.0 
0.0 0.0 0.0 
1.063192906503e-04 -6.709913654625e-06 0.0 
-6.709913654625e-06 1.255145096261e-03 0.0 
0.0 0.0 0.0 
-1.511962295423e-04 -1.416500543177e-05 0.0 
-1.416500543177e-05 2.543557946365e-03 0.0 
0.0 0.0 0.0 
0.0 2.739012614678e-04 0.0 
2.739012614678e-04 1.191621549096e-02 0.0 
0.0 0.0 0.0 
-5.384611707160e-05 1.742401474215e-05 0.0 
1.742401474215e-05 6.352790769501e-03 0.0 
0.0 0.0 0.0 
0.0 2.137690146539e-04 0.0 
2.137690146539e-04 1.196637559283e-02 0.0 
0.0 0.0 0.0 
-4.644430407630e-05 2.305910487503e-05 0.0 
2.305910487503e-05 6.766774258320e-03 0.0 
0.0 0.0 0.0 
-3.535519712106e-05 3.019788440880e-05 0.0 
3.019788440880e-05 7.182975026984e-03 0.0 
0.0 0.0 0.0 
-1.802873229334e-04 -7.031163152210e-05 0.0 
-7.031163152210e-05 3.483037801530e-03 0.0 
0.0 0.0 0.0 
-1.313965850734e-04 3.096986417022e-04 0.0 
3.096986417022e-04 1.191600337950e-02 0.0 
0.0 0.0 0.0 
-1.059293327368e-04 2.732221783295e-04 0.0 
2.732221783295e-04 1.193520910839e-02 0.0 
0.0 0.0 0.0 
-4.980956057687e-05 -4.250030870106e-05 0.0 
-4.250030870106e-05 6.531340787482e-03 0.0 
0.0 0.0 0.0 
-4.077854506401e-05 -4.017540213772e-05 0.0 
-4.017540213772e-05 6.958398882775e-03 0.0 
0.0 0.0 0.0 
-3.656448881229e-06 -1.756767658205e-04 0.0 
-1.756767658205e-04 5.429346080237e-03 0.0 
0.0 0.0 0.0 
-8.932160713763e-04 -2.856934328620e-04 0.0 
-2.856934328620e-04 4.855127482648e-04 0.0 
0.0 0.0 0.0 
-8.928750915960e-05 -4.995288767025e-04 0.0 
-4.995288767025e-04 3.335930522097e-03 0.0 
0.0 0.0 0.0 
4.510930711499e-04 -5.012681355049e-05 0.0 
-5.012681355049e-05 2.129555456483e-04 0.0 
0.0 0.0 0.0 
2.167006784435e-04 -4.330805830966e-05 0.0 
-4.330805830966e-05 6.274505101932e-03 0.0 
0.0 0.0 0.0 
6.073032799025e-05 -5.865266552326e-04 0.0 
-5.865266552326e-04 3.439045940811e-03 0.0 
0.0 0.0 0.0 
9.322722598126e-05 -8.891230859559e-05 0.0 
-8.891230859559e-05 6.007465391208e-03 0.0 
0.0 0.0 0.0 
-2.321745277812e-04 -7.949150105799e-04 0.0 
-7.949150105799e-04 1.742021683652e-03 0.0 
0.0 0.0 0.0 
1.954590462216e-05 -1.635687232492e-04 0.0 
-1.635687232492e-04 7.214983603874e-04 0.0 
0.0 0.0 0.0 
3.101592682020e-05 -9.600169043267e-05 0.0 
-9.600169043267e-05 6.437805812208e-03 0.0 
0.0 0.0 0.0 
-4.791887169653e-05 -4.612730784307e-04 0.0 
-4.612730784307e-04 3.683210923295e-03 0.0 
0.0 0.0 0.0 
-1.879447722309e-04 -9.475412103425e-05 0.0 
-9.475412103425e-05 3.117333097782e-03 0.0 
0.0 0.0 0.0 
4.120298372912e-05 -1.333852386986e-04 0.0 
-1.333852386986e-04 6.014852959919e-03 0.0 
0.0 0.0 0.0 
-2.740238080382e-04 1.472537577407e-04 0.0 
1.472537577407e-04 1.120014072470e-02 0.0 
0.0 0.0 0.0 
-1.826039995168e-04 -6.646956697512e-05 0.0 
-6.646956697512e-05 3.117867785623e-03 0.0 
0.0 0.0 0.0 
8.401137654697e-04 1.273355350064e-05 0.0 
1.273355350064e-05 4.759008083865e-03 0.0 
0.0 0.0 0.0 
5.058286898891e-04 -3.576313497580e-04 0.0 
-3.576313497580e-04 4.453878604176e-03 0.0 
0.0 0.0 0.0 
5.213318977559e-05 -1.467046377860e-04 0.0 
-1.467046377860e-04 5.424548148698e-03 0.0 
0.0 0.0 0.0 
3.931089296749e-06 -9.681829858005e-05 0.0 
-9.681829858005e-05 5.656573430959e-03 0.0 
0.0 0.0 0.0 
2.130819215850e-03 1.469622812257e-03 0.0 
1.469622812257e-03 3.440921117392e-04 0.0 
0.0 0.0 0.0 
-1.131981206738e-03 1.345831259373e-03 0.0 
1.345831259373e-03 7.422359522589e-03 0.0 
0.0 0.0 0.0 
5.491816293481e-04 2.232833663221e-03 0.0 
2.232833663221e-03 4.677651400693e-03 0.0 
0.0 0.0 0.0 
1.897968090772e-04 -2.690780536628e-04 0.0 
-2.690780536628e-04 4.920880885895e-03 0.0 
0.0 0.0 0.0 
7.960309147403e-07 -1.042786474010e-04 0.0 
-1.042786474010e-04 6.257139463797e-03 0.0 
0.0 0.0 0.0 
-3.028648363201e-05 -5.125926780273e-05 0.0 
-5.125926780273e-05 5.877732132030e-03 0.0 
0.0 0.0 0.0 
-2.587176940351e-04 -1.342424944724e-03 0.0 
-1.342424944724e-03 1.565172388604e-03 0.0 
0.0 0.0 0.0 
-2.982876915493e-04 2.433139304482e-04 0.0 
2.433139304482e-04 1.117364102301e-02 0.0 
0.0 0.0 0.0 
-3.927601519003e-04 2.122095108880e-04 0.0 
2.122095108880e-04 1.081764520205e-02 0.0 
0.0 0.0 0.0 
-6.374988850543e-04 8.762726677282e-05 0.0 
8.762726677282e-05 9.049823342331e-03 0.0 
0.0 0.0 0.0 
2.749656845296e-04 -2.444123468572e-04 0.0 
-2.444123468572e-04 5.055753914928e-03 0.0 
0.0 0.0 0.0 
1.136452361750e-04 -2.050224215578e-04 0.0 
-2.050224215578e-04 5.180620194007e-03 0.0 
0.0 0.0 0.0 
-3.132190017010e-04 1.025538618303e-04 0.0 
1.025538618303e-04 1.121351845826e-02 0.0 
0.0 0.0 0.0 
-3.442889607715e-04 1.843940800739e-04 0.0 
1.843940800739e-04 1.101470957267e-02 0.0 
0.0 0.0 0.0 
4.850175355240e-04 -4.809136627771e-04 0.0 
-4.809136627771e-04 4.137464957572e-03 0.0 
0.0 0.0 0.0 
-7.017216617777e-07 -7.926745862576e-05 0.0 
-7.926745862576e-05 6.674717212185e-03 0.0 
0.0 0.0 0.0 
-4.737684877025e-04 3.788284478380e-04 0.0 
3.788284478380e-04 1.072899580412e-02 0.0 
0.0 0.0 0.0 
-5.414501839496e-05 -7.813970782734e-05 0.0 
-7.813970782734e-05 5.877706844107e-03 0.0 
0.0 0.0 0.0 
1.411999048564e-04 -5.438906656679e-05 0.0 
-5.438906656679e-05 6.574757507892e-03 0.0 
0.0 0.0 0.0 
-3.415554337283e-04 1.978190586850e-04 0.0 
1.978190586850e-04 1.118147208144e-02 0.0 
0.0 0.0 0.0 
-5.687992956359e-04 1.447940227611e-04 0.0 
1.447940227611e-04 1.025143918396e-02 0.0 
0.0 0.0 0.0 
7.866757654194e-04 -1.428550793565e-04 0.0 
-1.428550793565e-04 4.553356630339e-03 0.0 
0.0 0.0 0.0 
-1.490844616430e-04 -2.800198436905e-04 0.0 
-2.800198436905e-04 1.945473005544e-03 0.0 
0.0 0.0 0.0 
-2.961625960713e-04 -1.596119830510e-03 0.0 
-1.596119830510e-03 1.277592388018e-03 0.0 
0.0 0.0 0.0 
-2.130249485565e-04 -4.404186661314e-04 0.0 
-4.404186661314e-04 9.349820741158e-04 0.0 
0.0 0.0 0.0 
-8.984588404412e-04 -1.328388756492e-03 0.0 
-1.328388756492e-03 1.654637429451e-04 0.0 
0.0 0.0 0.0 
-3.698423456974e-04 1.380391052877e-04 0.0 
1.380391052877e-04 1.101927914000e-02 0.0 
0.0 0.0 0.0 
-8.820891256311e-07 -3.099169448209e-05 0.0 
-3.099169448209e-05 6.474053342817e-03 0.0 
0.0 0.0 0.0 
-4.773495039945e-04 -7.807648948032e-04 0.0 
-7.807648948032e-04 3.287387893656e-04 0.0 
0.0 0.0 0.0 
-6.254348404422e-04 1.254760071256e-03 0.0 
1.254760071256e-03 1.038154056506e-02 0.0 
0.0 0.0 0.0 
-6.376477278102e-04 1.112937801355e-04 0.0 
1.112937801355e-04 9.243505518169e-03 0.0 
0.0 0.0 0.0 
9.608363959446e-05 -1.706548992390e-04 0.0 
-1.706548992390e-04 5.762140480766e-03 0.0 
0.0 0.0 0.0 
3.966446986636e-06 -5.983747584218e-05 0.0 
-5.983747584218e-05 6.059352804340e-03 0.0 
0.0 0.0 0.0 
6.745035655644e-04 -1.468917812496e-03 0.0 
-1.468917812496e-03 1.448466006909e-03 0.0 
0.0 0.0 0.0 
-2.963983638615e-05 -9.920786533730e-05 0.0 
-9.920786533730e-05 6.065187827053e-03 0.0 
0.0 0.0 0.0 
-6.692490740887e-04 1.883701360397e-05 0.0 
1.883701360397e-05 9.048299934428e-03 0.0 
0.0 0.0 0.0 
1.182458202050e-03 1.181323457904e-03 0.0 
1.181323457904e-03 4.877788684912e-03 0.0 
0.0 0.0 0.0 
1.058640643494e-04 1.445529899675e-05 0.0 
1.445529899675e-05 6.846205942234e-03 0.0 
0.0 0.0 0.0 
-8.582487675213e-05 -1.426168457626e-04 0.0 
-1.426168457626e-04 1.878137918116e-03 0.0 
0.0 0.0 0.0 
2.372268065594e-04 1.774379853346e-05 0.0 
1.774379853346e-05 6.488416330648e-03 0.0 
0.0 0.0 0.0 
-5.118722512195e-04 1.326111040553e-04 0.0 
1.326111040553e-04 1.045712642201e-02 0.0 
0.0 0.0 0.0 
-1.434798613019e-04 -2.184013981003e-04 0.0 
-2.184013981003e-04 2.123374968599e-03 0.0 
0.0 0.0 0.0 
-7.779148867504e-05 -1.510191304625e-03 0.0 
-1.510191304625e-03 1.412923643275e-03 0.0 
0.0 0.0 0.0 
-8.990443458357e-05 -1.786882407912e-04 0.0 
-1.786882407912e-04 4.340159886165e-03 0.0 
0.0 0.0 0.0 
-6.181604970709e-04 2.019773064720e-04 0.0 
2.019773064720e-04 9.830626044830e-03 0.0 
0.0 0.0 0.0 
-8.661060834525e-05 -6.754577956883e-04 0.0 
-6.754577956883e-04 2.777128053881e-03 0.0 
0.0 0.0 0.0 
-4.552553610913e-04 1.129442113685e-04 0.0 
1.129442113685e-04 1.066093658525e-02 0.0 
0.0 0.0 0.0 
-5.703520285584e-04 9.428391159829e-05 0.0 
9.428391159829e-05 1.006946263190e-02 0.0 
0.0 0.0 0.0 
5.544017944215e-05 -4.119027959021e-04 0.0 
-4.119027959021e-04 4.042873517629e-03 0.0 
0.0 0.0 0.0 
-3.748741540144e-05 -1.234840110930e-04 0.0 
-1.234840110930e-04 5.658525150466e-03 0.0 
0.0 0.0 0.0 
1.215126186116e-06 -1.375137189462e-04 0.0 
-1.375137189462e-04 5.838214571009e-03 0.0 
0.0 0.0 0.0 
-4.696747815420e-04 1.808353677912e-04 0.0 
1.808353677912e-04 1.045005869196e-02 0.0 
0.0 0.0 0.0 
-8.735424890893e-05 -3.383709053577e-04 0.0 
-3.383709053577e-04 1.592877750989e-03 0.0 
0.0 0.0 0.0 
-3.031444729051e-05 -3.678166457501e-04 0.0 
-3.678166457501e-04 3.917987168596e-03 0.0 
0.0 0.0 0.0 
6.634187166834e-04 1.603304660008e-03 0.0 
1.603304660008e-03 6.520749319928e-03 0.0 
0.0 0.0 0.0 
-4.998447425751e-04 1.864503652021e-04 0.0 
1.864503652021e-04 1.062301389616e-02 0.0 
0.0 0.0 0.0 
-7.099566638025e-05 -4.075802197705e-04 0.0 
-4.075802197705e-04 3.559645130794e-03 0.0 
0.0 0.0 0.0 
3.666419813657e-04 -4.146817856436e-04 0.0 
-4.146817856436e-04 4.463923512305e-03 0.0 
0.0 0.0 0.0 
3.311473555563e-04 3.653799662433e-05 0.0 
3.653799662433e-05 6.212632801243e-03 0.0 
0.0 0.0 0.0 
-5.181601190899e-04 1.915093828500e-04 0.0 
1.915093828500e-04 1.024581953310e-02 0.0 
0.0 0.0 0.0 
1.550956387299e-03 -6.882879437318e-04 0.0 
-6.882879437318e-04 -4.406768838030e-03 0.0 
0.0 0.0 0.0 
-1.670604547699e-06 -2.595925780482e-04 0.0 
-2.595925780482e-04 8.474474423892e-04 0.0 
0.0 0.0 0.0 
2.759556331436e-03 4.531371062044e-04 0.0 
4.531371062044e-04 -2.993664161516e-03 0.0 
0.0 0.0 0.0 
3.768719008379e-05 -5.659203493913e-05 0.0 
-5.659203493913e-05 6.249728526271e-03 0.0 
0.0 0.0 0.0 
-5.700941828445e-04 1.991558368275e-04 0.0 
1.991558368275e-04 1.003997235436e-02 0.0 
0.0 0.0 0.0 
-9.901779151456e-05 -1.534954733154e-04 0.0 
-1.534954733154e-04 4.707562593608e-03 0.0 
0.0 0.0 0.0 
-6.521744220582e-04 1.488827354735e-04 0.0 
1.488827354735e-04 9.439718036570e-03 0.0 
0.0 0.0 0.0 
7.095612882981e-04 2.955493953783e-04 0.0 
2.955493953783e-04 5.577569631102e-03 0.0 
0.0 0.0 0.0 
4.029201139621e-06 -3.149720365156e-04 0.0 
-3.149720365156e-04 4.280317351585e-03 0.0 
0.0 0.0 0.0 
4.920778438855e-05 -9.781533660426e-05 0.0 
-9.781533660426e-05 5.831852901359e-03 0.0 
0.0 0.0 0.0 
-8.025634713227e-05 -2.356402376506e-04 0.0 
-2.356402376506e-04 1.937839125677e-03 0.0 
0.0 0.0 0.0 
1.835752150265e-04 2.225987879284e-05 0.0 
2.225987879284e-05 6.577923262401e-03 0.0 
0.0 0.0 0.0 
-1.748285209946e-05 -4.112269271790e-04 0.0 
-4.112269271790e-04 4.043219431920e-03 0.0 
0.0 0.0 0.0 
-9.450004472589e-05 -1.813222988418e-04 0.0 
-1.813222988418e-04 2.117313630261e-03 0.0 
0.0 0.0 0.0 
-8.145674859794e-05 -3.587457330310e-04 0.0 
-3.587457330310e-04 3.916846322674e-03 0.0 
0.0 0.0 0.0 
-1.010646960214e-04 -5.521399615339e-04 0.0 
-5.521399615339e-04 2.999264954884e-03 0.0 
0.0 0.0 0.0 
-1.570274095919e-04 -7.465965576172e-04 0.0 
-7.465965576172e-04 2.236699116116e-03 0.0 
0.0 0.0 0.0 
-6.552293286322e-05 -1.473760013113e-04 0.0 
-1.473760013113e-04 4.706065744422e-03 0.0 
0.0 0.0 0.0 
3.655705505483e-04 2.202192075637e-05 0.0 
2.202192075637e-05 -4.299152782605e-05 0.0 
0.0 0.0 0.0 
2.715407983342e-04 -3.219071748825e-05 0.0 
-3.219071748825e-05 6.759453584859e-06 0.0 
0.0 0.0 0.0 
4.212125575087e-05 -2.358081785506e-04 0.0 
-2.358081785506e-04 5.185770105734e-03 0.0 
0.0 0.0 0.0 
-7.118300709241e-05 -2.837018825351e-04 0.0 
-2.837018825351e-04 1.765761052232e-03 0.0 
0.0 0.0 0.0 
1.759238406283e-04 -2.886549572825e-04 0.0 
-2.886549572825e-04 5.063134219563e-03 0.0 
0.0 0.0 0.0 
2.635259683468e-04 -3.497213644839e-04 0.0 
-3.497213644839e-04 4.772463850135e-03 0.0 
0.0 0.0 0.0 
1.842327872565e-04 -8.479871140685e-04 0.0 
-8.479871140685e-04 2.895049729903e-03 0.0 
0.0 0.0 0.0 
6.597413459790e-04 -1.867622257491e-03 0.0 
-1.867622257491e-03 6.527028759820e-04 0.0 
0.0 0.0 0.0 
-4.658317445018e-04 3.198773274673e-04 0.0 
3.198773274673e-04 1.093312531446e-02 0.0 
0.0 0.0 0.0 
1.176474259654e-03 2.499257755482e-03 0.0 
2.499257755482e-03 -2.591588701686e-03 0.0 
0.0 0.0 0.0 
-1.164726422553e-04 -4.408111505433e-04 0.0 
-4.408111505433e-04 3.209844156870e-03 0.0 
0.0 0.0 0.0 
6.653026177474e-04 4.776604564031e-04 0.0 
4.776604564031e-04 5.857408305575e-03 0.0 
0.0 0.0 0.0 
-8.163289284957e-05 -2.208918417313e-04 0.0 
-2.208918417313e-04 1.531697679399e-03 0.0 
0.0 0.0 0.0 
-6.668473587399e-04 1.083777045582e-04 0.0 
1.083777045582e-04 9.658475231729e-03 0.0 
0.0 0.0 0.0 
-6.917454021917e-04 5.677338530507e-05 0.0 
5.677338530507e-05 9.251038163297e-03 0.0 
0.0 0.0 0.0 
-2.354057763838e-04 -6.406256979713e-04 0.0 
-6.406256979713e-04 1.446676736872e-03 0.0 
0.0 0.0 0.0 
4.472102691175e-04 7.162329501941e-05 0.0 
7.162329501941e-05 5.904834342706e-03 0.0 
0.0 0.0 0.0 
-6.267968320728e-04 2.801485619899e-04 0.0 
2.801485619899e-04 1.037669804157e-02 0.0 
0.0 0.0 0.0 
-1.707439994334e-04 -3.417199412656e-04 0.0 
-3.417199412656e-04 1.778429174503e-03 0.0 
0.0 0.0 0.0 
-4.447742702361e-04 3.992263176880e-04 0.0 
3.992263176880e-04 1.107354693781e-02 0.0 
0.0 0.0 0.0 
-3.719851037660e-04 4.352746566368e-04 0.0 
4.352746566368e-04 1.106747777413e-02 0.0 
0.0 0.0 0.0 
-1.362634626966e-04 -4.219546768766e-04 0.0 
-4.219546768766e-04 1.963214194869e-03 0.0 
0.0 0.0 0.0 
-6.662895996157e-04 2.601328916309e-03 0.0 
2.601328916309e-03 4.934809776874e-03 0.0 
0.0 0.0 0.0 
-1.940658014237e-04 -6.808864344031e-04 0.0 
-6.808864344031e-04 1.935438715479e-03 0.0 
0.0 0.0 0.0 
4.582461378244e-05 -1.811108431871e-04 0.0 
-1.811108431871e-04 5.595613281345e-03 0.0 
0.0 0.0 0.0 
-3.656474684199e-05 -2.263306677731e-04 0.0 
-2.263306677731e-04 4.501815156711e-03 0.0 
0.0 0.0 0.0 
-5.068065875335e-04 1.087436129878e-03 0.0 
1.087436129878e-03 1.064470671140e-02 0.0 
0.0 0.0 0.0 
-4.033349860988e-04 3.582065937192e-04 0.0 
3.582065937192e-04 1.092841041020e-02 0.0 
0.0 0.0 0.0 
1.036350421617e-04 -2.322272521144e-04 0.0 
-2.322272521144e-04 5.337782929229e-03 0.0 
0.0 0.0 0.0 
1.838941956565e-04 -1.912138403818e-04 0.0 
-1.912138403818e-04 5.331033754671e-03 0.0 
0.0 0.0 0.0 
-3.417393901153e-04 -6.542630008991e-04 0.0 
-6.542630008991e-04 1.629915798288e-03 0.0 
0.0 0.0 0.0 
1.088050696778e-04 -1.424132736255e-04 0.0 
-1.424132736255e-04 5.589321198671e-03 0.0 
0.0 0.0 0.0 
-5.557431693554e-04 3.185343300145e-04 0.0 
3.185343300145e-04 1.037197355750e-02 0.0 
0.0 0.0 0.0 
-8.057826296681e-05 -2.274357527546e-04 0.0 
-2.274357527546e-04 4.502250401937e-03 0.0 
0.0 0.0 0.0 
-6.244519926109e-04 1.542488273658e-04 0.0 
1.542488273658e-04 1.004538184108e-02 0.0 
0.0 0.0 0.0 
-5.565185315634e-04 2.670694456719e-04 0.0 
2.670694456719e-04 1.058035945326e-02 0.0 
0.0 0.0 0.0 
1.653143986057e-03 1.545220492997e-03 0.0 
1.545220492997e-03 2.440824782858e-03 0.0 
0.0 0.0 0.0 
-4.282169246818e-04 2.916897337570e-04 0.0 
2.916897337570e-04 1.077745494482e-02 0.0 
0.0 0.0 0.0 
-9.990830800410e-05 -3.072984580837e-04 0.0 
-3.072984580837e-04 3.790768804000e-03 0.0 
0.0 0.0 0.0 
-5.492610641866e-05 -3.148551380544e-04 0.0 
-3.148551380544e-04 4.280663323315e-03 0.0 
0.0 0.0 0.0 
-1.590865242354e-04 -4.478846142972e-04 0.0 
-4.478846142972e-04 2.870757971930e-03 0.0 
0.0 0.0 0.0 
1.997529162876e-04 -1.156757116309e-03 0.0 
-1.156757116309e-03 2.257670128430e-03 0.0 
0.0 0.0 0.0 
-5.639912985634e-04 2.541782559759e-04 0.0 
2.541782559759e-04 1.020949721637e-02 0.0 
0.0 0.0 0.0 
7.645821281286e-04 -7.790468118648e-04 0.0 
-7.790468118648e-04 2.974696544582e-03 0.0 
0.0 0.0 0.0 
-1.676850539561e-04 -5.761812386730e-04 0.0 
-5.761812386730e-04 2.126677787481e-03 0.0 
0.0 0.0 0.0 
-1.631426991145e-04 -4.257936232873e-04 0.0 
-4.257936232873e-04 1.114243863983e-03 0.0 
0.0 0.0 0.0 
-6.266026766996e-04 2.128892216287e-04 0.0 
2.128892216287e-04 1.021452919736e-02 0.0 
0.0 0.0 0.0 
-2.348525981002e-04 -6.414410069097e-04 0.0 
-6.414410069097e-04 2.137191035037e-03 0.0 
0.0 0.0 0.0 
2.908725578323e-04 9.505264762524e-05 0.0 
9.505264762524e-05 6.480535533796e-03 0.0 
0.0 0.0 0.0 
-5.067201674744e-04 2.455799084083e-04 0.0 
2.455799084083e-04 1.041439445838e-02 0.0 
0.0 0.0 0.0 
1.640982758133e-04 -1.219767210424e-04 0.0 
-1.219767210424e-04 5.754361436422e-03 0.0 
0.0 0.0 0.0 
2.804147972371e-04 9.450918967573e-04 0.0 
9.450918967573e-04 6.873283205883e-03 0.0 
0.0 0.0 0.0 
-1.076659780551e-04 -3.924604052228e-04 0.0 
-3.924604052228e-04 3.556878629982e-03 0.0 
0.0 0.0 0.0 
-2.256147003745e-04 -4.787533200747e-04 0.0 
-4.787533200747e-04 1.972512689613e-03 0.0 
0.0 0.0 0.0 
-3.333071198043e-04 -4.959973414255e-04 0.0 
-4.959973414255e-04 1.270097178412e-03 0.0 
0.0 0.0 0.0 
2.513227027368e-04 -2.550767322907e-04 0.0 
-2.550767322907e-04 5.203183043858e-03 0.0 
0.0 0.0 0.0 
-5.756376564090e-04 1.550486472135e-04 0.0 
1.550486472135e-04 9.865823397498e-03 0.0 
0.0 0.0 0.0 
-1.983657621070e-04 -3.309389836095e-04 0.0 
-3.309389836095e-04 8.677980326635e-04 0.0 
0.0 0.0 0.0 
-1.077441452774e-04 -6.351051858108e-04 0.0 
-6.351051858108e-04 2.771055230869e-03 0.0 
0.0 0.0 0.0 
-8.830771078716e-06 -1.452919282027e-04 0.0 
-1.452919282027e-04 1.707015436472e-03 0.0 
0.0 0.0 0.0 
-6.768485947026e-04 1.597590688330e-04 0.0 
1.597590688330e-04 9.835709550566e-03 0.0 
0.0 0.0 0.0 
-1.190412365194e-04 -5.188493590892e-04 0.0 
-5.188493590892e-04 2.994276101752e-03 0.0 
0.0 0.0 0.0 
3.824335231284e-04 -3.008337932550e-04 0.0 
-3.008337932550e-04 4.763973706195e-03 0.0 
0.0 0.0 0.0 
-1.524748088566e-04 -4.090015235339e-04 0.0 
-4.090015235339e-04 2.866683090921e-03 0.0 
0.0 0.0 0.0 
-4.355321772662e-04 1.650786047824e-04 0.0 
1.650786047824e-04 1.082397418473e-02 0.0 
0.0 0.0 0.0 
-1.659479580097e-04 -6.769871844047e-04 0.0 
-6.769871844047e-04 2.458779365024e-03 0.0 
0.0 0.0 0.0 
4.343459321225e-04 -2.319591368534e-04 0.0 
-2.319591368534e-04 5.042986231647e-03 0.0 
0.0 0.0 0.0 
-2.984729156088e-04 -1.482593790079e-03 0.0 
-1.482593790079e-03 1.259824035037e-03 0.0 
0.0 0.0 0.0 
3.527167099135e-04 -3.024569232808e-04 0.0 
-3.024569232808e-04 4.900211462820e-03 0.0 
0.0 0.0 0.0 
-1.062028610210e-04 -2.561007231561e-04 0.0 
-2.561007231561e-04 4.143210106577e-03 0.0 
0.0 0.0 0.0 
2.519754936352e-04 -1.592964291875e-04 0.0 
-1.592964291875e-04 5.482368499652e-03 0.0 
0.0 0.0 0.0 
2.389589813198e-03 -2.837138063509e-05 0.0 
-2.837138063509e-05 -5.085388664818e-04 0.0 
0.0 0.0 0.0 
-8.218262310089e-05 -1.816719640545e-04 0.0 
-1.816719640545e-04 1.717365922336e-03 0.0 
0.0 0.0 0.0 
-6.547361525775e-04 6.662311656345e-05 0.0 
6.662311656345e-05 9.475051223857e-03 0.0 
0.0 0.0 0.0 
1.296730118181e-03 2.040903153914e-04 0.0 
2.040903153914e-04 3.838938855105e-03 0.0 
0.0 0.0 0.0 
-2.854865351694e-04 2.230467059340e-03 0.0 
2.230467059340e-03 5.502775069767e-03 0.0 
0.0 0.0 0.0 
-6.204916242445e-04 1.041296704558e-04 0.0 
1.041296704558e-04 9.867500401559e-03 0.0 
0.0 0.0 0.0 
-5.250105024179e-05 -1.784995960846e-03 0.0 
-1.784995960846e-03 1.001718035156e-03 0.0 
0.0 0.0 0.0 
-6.769267049688e-04 3.258783141146e-04 0.0 
3.258783141146e-04 9.955392497236e-03 0.0 
0.0 0.0 0.0 
2.397383143782e-06 -1.878422584552e-04 0.0 
-1.878422584552e-04 1.516227571988e-03 0.0 
0.0 0.0 0.0 
3.127609103504e-04 -4.902661703385e-05 0.0 
-4.902661703385e-05 6.007181724378e-03 0.0 
0.0 0.0 0.0 
1.279667540031e-03 4.410000974056e-04 0.0 
4.410000974056e-04 4.186285337831e-03 0.0 
0.0 0.0 0.0 
1.006150401252e-03 1.347242057908e-03 0.0 
1.347242057908e-03 5.436374932160e-03 0.0 
0.0 0.0 0.0 
-3.569052328135e-04 3.704561154786e-04 0.0 
3.704561154786e-04 1.127968387535e-02 0.0 
0.0 0.0 0.0 
7.703623697839e-04 -6.005642993772e-04 0.0 
-6.005642993772e-04 3.427489853515e-03 0.0 
0.0 0.0 0.0 
-2.063151922619e-04 -3.954787827501e-04 0.0 
-3.954787827501e-04 1.606746494930e-03 0.0 
0.0 0.0 0.0 
6.017933048288e-04 -3.954372213696e-04 0.0 
-3.954372213696e-04 4.247786226597e-03 0.0 
0.0 0.0 0.0 
3.902606571677e-04 1.263897028312e-04 0.0 
1.263897028312e-04 6.198363160186e-03 0.0 
0.0 0.0 0.0 
5.603614077443e-04 -1.722131936290e-03 0.0 
-1.722131936290e-03 9.530994639542e-04 0.0 
0.0 0.0 0.0 
1.658438724206e-04 -2.107560091354e-04 0.0 
-2.107560091354e-04 5.490712311161e-03 0.0 
0.0 0.0 0.0 
-5.639736419496e-04 2.014063222106e-04 0.0 
2.014063222106e-04 1.041975356675e-02 0.0 
0.0 0.0 0.0 
9.576880329729e-04 -2.027388525672e-03 0.0 
-2.027388525672e-03 -3.175633188790e-05 0.0 
0.0 0.0 0.0 
4.695019987220e-04 -3.504000167637e-04 0.0 
-3.504000167637e-04 4.582055040734e-03 0.0 
0.0 0.0 0.0 
-7.674462160449e-04 1.561042772085e-04 0.0 
1.561042772085e-04 9.404725012641e-03 0.0 
0.0 0.0 0.0 
-1.334806325166e-04 -2.780587726644e-04 0.0 
-2.780587726644e-04 2.328849386522e-03 0.0 
0.0 0.0 0.0 
-9.852816067724e-05 -7.662217446814e-04 0.0 
-7.662217446814e-04 2.537391186183e-03 0.0 
0.0 0.0 0.0 
3.740708890332e-05 2.088454795811e-03 0.0 
2.088454795811e-03 6.045455963028e-03 0.0 
0.0 0.0 0.0 
3.563741119854e-04 -1.994221051102e-04 0.0 
-1.994221051102e-04 5.193997126412e-03 0.0 
0.0 0.0 0.0 
-7.941194768112e-04 2.052810495198e-03 0.0 
2.052810495198e-03 6.308204877001e-03 0.0 
0.0 0.0 0.0 
2.779885035418e-04 2.176524578912e-03 0.0 
2.176524578912e-03 5.388398082733e-03 0.0 
0.0 0.0 0.0 
-6.176083523360e-04 3.240285175433e-04 0.0 
3.240285175433e-04 1.016533124456e-02 0.0 
0.0 0.0 0.0 
-6.152665411662e-04 1.563619146195e-04 0.0 
1.563619146195e-04 9.652733621325e-03 0.0 
0.0 0.0 0.0 
-7.188568232962e-04 2.501219263593e-04 0.0 
2.501219263593e-04 9.579751561798e-03 0.0 
0.0 0.0 0.0 
-6.479754605926e-05 -2.724008325431e-04 0.0 
-2.724008325431e-04 4.146278449347e-03 0.0 
0.0 0.0 0.0 
5.774645566803e-04 9.799826744442e-05 0.0 
9.799826744442e-05 5.609196699587e-03 0.0 
0.0 0.0 0.0 
7.494929627947e-04 -4.334918427522e-04 0.0 
-4.334918427522e-04 3.898191209171e-03 0.0 
0.0 0.0 0.0 
-7.126214164078e-04 1.079184382022e-04 0.0 
1.079184382022e-04 9.444600241031e-03 0.0 
0.0 0.0 0.0 
-5.386614022984e-04 1.396656338988e-03 0.0 
1.396656338988e-03 1.037734883560e-02 0.0 
0.0 0.0 0.0 
8.171586155143e-04 1.479534914060e-03 0.0 
1.479534914060e-03 6.001493473963e-03 0.0 
0.0 0.0 0.0 
4.769823546198e-04 -2.396842763819e-04 0.0 
-2.396842763819e-04 4.889809036788e-03 0.0 
0.0 0.0 0.0 
-4.920988869254e-04 3.072432008824e-04 0.0 
3.072432008824e-04 1.057544057718e-02 0.0 
0.0 0.0 0.0 
1.340263862435e-04 -9.890514303354e-04 0.0 
-9.890514303354e-04 2.590689707442e-03 0.0 
0.0 0.0 0.0 
-4.506065527377e-06 -8.933914253138e-04 0.0 
-8.933914253138e-04 2.581670924616e-03 0.0 
0.0 0.0 0.0 
-1.866120783149e-04 -5.662425254138e-04 0.0 
-5.662425254138e-04 1.615460268574e-03 0.0 
0.0 0.0 0.0 
7.049910021824e-04 -2.812033540245e-04 0.0 
-2.812033540245e-04 4.383734925515e-03 0.0 
0.0 0.0 0.0 
-3.377619634715e-05 -7.477019319749e-04 0.0 
-7.477019319749e-04 2.848788284499e-03 0.0 
0.0 0.0 0.0 
-6.869930795296e-04 2.189126436616e-04 0.0 
2.189126436616e-04 1.000608734973e-02 0.0 
0.0 0.0 0.0 
-7.448788008373e-04 2.215365153472e-04 0.0 
2.215365153472e-04 9.795182100701e-03 0.0 
0.0 0.0 0.0 
1.798307138542e-03 9.374786624651e-04 0.0 
9.374786624651e-04 2.484526576080e-03 0.0 
0.0 0.0 0.0 
-6.044880467659e-05 -9.639199463995e-04 0.0 
-9.639199463995e-04 2.297888127637e-03 0.0 
0.0 0.0 0.0 
2.226839713551e-03 1.611248158298e-03 0.0 
1.611248158298e-03 -4.241458142514e-04 0.0 
0.0 0.0 0.0 
-7.352733981669e-05 -8.123557066694e-04 0.0 
-8.123557066694e-04 2.544388747217e-03 0.0 
0.0 0.0 0.0 
7.224857569610e-05 -9.233731461954e-04 0.0 
-9.233731461954e-04 2.585838775348e-03 0.0 
0.0 0.0 0.0 
-2.735299161225e-04 -5.661908503894e-04 0.0 
-5.661908503894e-04 1.803340485778e-03 0.0 
0.0 0.0 0.0 
7.173119318091e-04 1.357094189821e-04 0.0 
1.357094189821e-04 5.305673577860e-03 0.0 
0.0 0.0 0.0 
7.331212469524e-04 -9.684353796836e-04 0.0 
-9.684353796836e-04 2.541505862707e-03 0.0 
0.0 0.0 0.0 
-4.850314017258e-04 2.482394448267e-04 0.0 
2.482394448267e-04 1.078275819032e-02 0.0 
0.0 0.0 0.0 
9.691446564357e-04 -8.610273390453e-04 0.0 
-8.610273390453e-04 2.526586896452e-03 0.0 
0.0 0.0 0.0 
7.650448866379e-04 -3.076350074893e-04 0.0 
-3.076350074893e-04 4.233442304702e-03 0.0 
0.0 0.0 0.0 
8.097221365921e-04 -6.208192743337e-04 0.0 
-6.208192743337e-04 3.341546992503e-03 0.0 
0.0 0.0 0.0 
8.466997375913e-04 2.087200561597e-03 0.0 
2.087200561597e-03 4.332594641981e-03 0.0 
0.0 0.0 0.0 
-1.568955908310e-04 -4.912150629759e-04 0.0 
-4.912150629759e-04 1.790161680406e-03 0.0 
0.0 0.0 0.0 
5.219316280567e-04 1.530368155301e-04 0.0 
1.530368155301e-04 5.889155739133e-03 0.0 
0.0 0.0 0.0 
4.407676121856e-04 1.781910599427e-04 0.0 
1.781910599427e-04 6.184746140669e-03 0.0 
0.0 0.0 0.0 
-1.400304944537e-04 1.845204628187e-03 0.0 
1.845204628187e-03 7.281669680894e-03 0.0 
0.0 0.0 0.0 
2.637907691421e-04 -9.953260205509e-04 0.0 
-9.953260205509e-04 2.590885395630e-03 0.0 
0.0 0.0 0.0 
8.012146127423e-04 -4.583525663183e-04 0.0 
-4.583525663183e-04 3.777847528550e-03 0.0 
0.0 0.0 0.0 
-6.185644939870e-04 2.584970342611e-04 0.0 
2.584970342611e-04 1.000126808038e-02 0.0 
0.0 0.0 0.0 
7.811136639435e-05 -8.373868562860e-04 0.0 
-8.373868562860e-04 2.894048319014e-03 0.0 
0.0 0.0 0.0 
1.170351164399e-04 2.454974267681e-03 0.0 
2.454974267681e-03 4.787779448064e-03 0.0 
0.0 0.0 0.0 
-1.487352883227e-04 -6.235463605420e-04 0.0 
-6.235463605420e-04 2.450426808996e-03 0.0 
0.0 0.0 0.0 
3.222770744025e-04 -1.938300874846e-03 0.0 
-1.938300874846e-03 6.656118939878e-04 0.0 
0.0 0.0 0.0 
3.112312450453e-04 -1.040583280521e-03 0.0 
-1.040583280521e-03 2.573718509321e-03 0.0 
0.0 0.0 0.0 
-2.049662262469e-04 -5.350497144509e-04 0.0 
-5.350497144509e-04 2.326070601746e-03 0.0 
0.0 0.0 0.0 
-1.295173553597e-04 -3.482366554820e-04 0.0 
-3.482366554820e-04 2.144942241981e-03 0.0 
0.0 0.0 0.0 
6.122492285006e-04 -7.033507326350e-04 0.0 
-7.033507326350e-04 3.355358119041e-03 0.0 
0.0 0.0 0.0 
6.135633786346e-04 -2.767250493946e-04 0.0 
-2.767250493946e-04 4.569914253303e-03 0.0 
0.0 0.0 0.0 
-1.443939142576e-04 1.796734639552e-03 0.0 
1.796734639552e-03 8.501144956525e-03 0.0 
0.0 0.0 0.0 
5.819472725530e-04 -2.715990808594e-05 0.0 
-2.715990808594e-05 -1.205223900664e-04 0.0 
0.0 0.0 0.0 
1.623176606617e-03 -6.144394324808e-04 0.0 
-6.144394324808e-04 1.637523338508e-03 0.0 
0.0 0.0 0.0 
1.175838334656e-03 -9.030876625494e-04 0.0 
-9.030876625494e-04 2.087144840032e-03 0.0 
0.0 0.0 0.0 
4.920486946782e-04 -1.012773099513e-03 0.0 
-1.012773099513e-03 2.568762204082e-03 0.0 
0.0 0.0 0.0 
-6.701114694500e-04 2.563166235217e-04 0.0 
2.563166235217e-04 9.790948372775e-03 0.0 
0.0 0.0 0.0 
7.878543011715e-04 -7.921470443801e-04 0.0 
-7.921470443801e-04 2.927761401525e-03 0.0 
0.0 0.0 0.0 
-1.585677570397e-04 -5.568593413012e-04 0.0 
-5.568593413012e-04 2.665895035160e-03 0.0 
0.0 0.0 0.0 
5.150007788628e-04 -1.033415026323e-03 0.0 
-1.033415026323e-03 2.552746128775e-03 0.0 
0.0 0.0 0.0 
-4.507014219148e-04 2.318583103789e-04 0.0 
2.318583103789e-04 1.061758184197e-02 0.0 
0.0 0.0 0.0 
-1.495469588331e-04 -5.137510895528e-04 0.0 
-5.137510895528e-04 2.659152165843e-03 0.0 
0.0 0.0 0.0 
-1.600331691890e-04 -3.125555176499e-04 0.0 
-3.125555176499e-04 1.028116245746e-03 0.0 
0.0 0.0 0.0 
-2.593390947939e-04 -4.493310548829e-04 0.0 
-4.493310548829e-04 1.441288605304e-03 0.0 
0.0 0.0 0.0 
4.515387190138e-04 -1.663326910678e-03 0.0 
-1.663326910678e-03 1.192488898146e-03 0.0 
0.0 0.0 0.0 
1.273848113776e-04 -1.087223960631e-03 0.0 
-1.087223960631e-03 2.299203342095e-03 0.0 
0.0 0.0 0.0 
1.395801878338e-03 -6.820594919066e-04 0.0 
-6.820594919066e-04 2.105086718317e-03 0.0 
0.0 0.0 0.0 
7.295768228843e-04 -9.655249596380e-04 0.0 
-9.655249596380e-04 2.545327098951e-03 0.0 
0.0 0.0 0.0 
-2.815041378178e-04 -1.717876481373e-03 0.0 
-1.717876481373e-03 8.921827651036e-04 0.0 
0.0 0.0 0.0 
-9.603128898006e-05 -3.697939283117e-04 0.0 
-3.697939283117e-04 1.428723971922e-03 0.0 
0.0 0.0 0.0 
-8.870351054079e-04 2.932502640610e-04 0.0 
2.932502640610e-04 9.514920795819e-03 0.0 
0.0 0.0 0.0 
-1.565406660320e-04 -4.824066094950e-04 0.0 
-4.824066094950e-04 2.317768437016e-03 0.0 
0.0 0.0 0.0 
8.136974435207e-04 9.580435936516e-05 0.0 
9.580435936516e-05 5.059032080094e-03 0.0 
0.0 0.0 0.0 
-4.594037652528e-05 1.818298355895e-03 0.0 
1.818298355895e-03 7.985546916408e-03 0.0 
0.0 0.0 0.0 
-1.045042495703e-03 8.796067512915e-04 0.0 
8.796067512915e-04 9.215917867026e-03 0.0 
0.0 0.0 0.0 
-5.046180334096e-04 5.666979503298e-04 0.0 
5.666979503298e-04 1.079564820216e-02 0.0 
0.0 0.0 0.0 
-1.989670101903e-04 1.773258212506e-03 0.0 
1.773258212506e-03 8.976952235440e-03 0.0 
0.0 0.0 0.0 
1.756920475438e-03 1.252896495718e-03 0.0 
1.252896495718e-03 2.484022106813e-03 0.0 
0.0 0.0 0.0 
-8.788066188714e-05 1.821276040272e-03 0.0 
1.821276040272e-03 7.624146334191e-03 0.0 
0.0 0.0 0.0 
3.826767448323e-05 -2.099995569369e-03 0.0 
-2.099995569369e-03 4.601973346117e-04 0.0 
0.0 0.0 0.0 
3.939142719744e-04 -9.052380668155e-04 0.0 
-9.052380668155e-04 2.926031640278e-03 0.0 
0.0 0.0 0.0 
1.233141904687e-03 2.126094379968e-03 0.0 
2.126094379968e-03 2.762876032197e-03 0.0 
0.0 0.0 0.0 
1.957920623632e-03 -1.568390991334e-03 0.0 
-1.568390991334e-03 -1.283721240594e-03 0.0 
0.0 0.0 0.0 
-2.463258984385e-04 -2.011142096804e-03 0.0 
-2.011142096804e-03 4.029903449327e-04 0.0 
0.0 0.0 0.0 
2.882493642442e-05 -7.762534094358e-04 0.0 
-7.762534094358e-04 2.852785416062e-03 0.0 
0.0 0.0 0.0 
9.076186792953e-04 -1.046128795136e-03 0.0 
-1.046128795136e-03 2.113799004564e-03 0.0 
0.0 0.0 0.0 
1.133553508250e-03 -8.694768983680e-04 0.0 
-8.694768983680e-04 2.136762759531e-03 0.0 
0.0 0.0 0.0 
-1.888375735748e-04 -4.383607637583e-04 0.0 
-4.383607637583e-04 2.515480743342e-03 0.0 
0.0 0.0 0.0 
9.869264585216e-04 -6.704179328090e-04 0.0 
-6.704179328090e-04 2.956788564818e-03 0.0 
0.0 0.0 0.0 
1.352665744696e-03 -8.571044314603e-04 0.0 
-8.571044314603e-04 1.681515490036e-03 0.0 
0.0 0.0 0.0 
1.766861376922e-03 -2.891587901921e-04 0.0 
-2.891587901921e-04 1.762346057361e-03 0.0 
0.0 0.0 0.0 
2.672865361331e-05 -1.056401386837e-03 0.0 
-1.056401386837e-03 2.295177468660e-03 0.0 
0.0 0.0 0.0 
1.297013091447e-03 8.135088965517e-04 0.0 
8.135088965517e-04 4.436094241546e-03 0.0 
0.0 0.0 0.0 
-6.949392792407e-04 2.897863031431e-04 0.0 
2.897863031431e-04 1.016954342308e-02 0.0 
0.0 0.0 0.0 
1.956553764313e-03 -8.937442556543e-05 0.0 
-8.937442556543e-05 1.342254039590e-03 0.0 
0.0 0.0 0.0 
6.717897149229e-04 2.003955028687e-04 0.0 
2.003955028687e-04 5.593147262333e-03 0.0 
0.0 0.0 0.0 
5.089013574708e-04 -2.202543997469e-03 0.0 
-2.202543997469e-03 -2.970366650423e-06 0.0 
0.0 0.0 0.0 
6.070415159374e-04 5.067978634035e-04 0.0 
5.067978634035e-04 6.158288475103e-03 0.0 
0.0 0.0 0.0 
1.181136597085e-03 -6.954182477534e-04 0.0 
-6.954182477534e-04 2.544548923083e-03 0.0 
0.0 0.0 0.0 
-2.100426966194e-04 1.791862644532e-03 0.0 
1.791862644532e-03 9.451058374849e-03 0.0 
0.0 0.0 0.0 
-7.500947953202e-04 1.526020984543e-03 0.0 
1.526020984543e-03 8.352788428119e-03 0.0 
0.0 0.0 0.0 
1.449855381885e-04 -1.833996581095e-03 0.0 
-1.833996581095e-03 1.008073503002e-03 0.0 
0.0 0.0 0.0 
-9.957879820347e-04 1.036276408756e-03 0.0 
1.036276408756e-03 9.217645137753e-03 0.0 
0.0 0.0 0.0 
-5.250143731075e-04 8.027567862202e-04 0.0 
8.027567862202e-04 1.078346672346e-02 0.0 
0.0 0.0 0.0 
1.355479479846e-03 -4.830284847964e-04 0.0 
-4.830284847964e-04 2.613382482039e-03 0.0 
0.0 0.0 0.0 
7.318790266009e-04 2.612770168984e-03 0.0 
2.612770168984e-03 3.110447585333e-03 0.0 
0.0 0.0 0.0 
-9.210999890610e-04 1.189288900418e-03 0.0 
1.189288900418e-03 9.185158597644e-03 0.0 
0.0 0.0 0.0 
-1.861799364336e-04 2.145214901717e-03 0.0 
2.145214901717e-03 5.761078699950e-03 0.0 
0.0 0.0 0.0 
-2.960915226274e-04 -1.856993580550e-03 0.0 
-1.856993580550e-03 9.149762256182e-04 0.0 
0.0 0.0 0.0 
-2.439660965041e-04 7.147931985344e-04 0.0 
7.147931985344e-04 1.143492130951e-02 0.0 
0.0 0.0 0.0 
-6.340995285133e-04 -1.437616277459e-03 0.0 
-1.437616277459e-03 1.150592697310e-03 0.0 
0.0 0.0 0.0 
6.631691933758e-04 1.292824208822e-03 0.0 
1.292824208822e-03 6.586078939816e-03 0.0 
0.0 0.0 0.0 
-3.335218978111e-04 3.334779704512e-04 0.0 
3.334779704512e-04 1.112468911655e-02 0.0 
0.0 0.0 0.0 
1.219581032419e-03 6.637152686583e-04 0.0 
6.637152686583e-04 4.588201220775e-03 0.0 
0.0 0.0 0.0 
-6.626530812920e-04 2.016607089210e-04 0.0 
2.016607089210e-04 9.613453986088e-03 0.0 
0.0 0.0 0.0 
-6.124841581517e-04 4.439735759492e-04 0.0 
4.439735759492e-04 1.067130490059e-02 0.0 
0.0 0.0 0.0 
1.537548773726e-03 -5.630189510697e-04 0.0 
-5.630189510697e-04 1.808355376962e-03 0.0 
0.0 0.0 0.0 
1.648287675036e-03 9.438333809637e-04 0.0 
9.438333809637e-04 3.121680503702e-03 0.0 
0.0 0.0 0.0 
-3.841146310540e-04 6.392269085204e-04 0.0 
6.392269085204e-04 1.111495463294e-02 0.0 
0.0 0.0 0.0 
5.587999292294e-04 -1.557354768046e-04 0.0 
-1.557354768046e-04 5.030362387690e-03 0.0 
0.0 0.0 0.0 
-6.977196970319e-04 3.707622620838e-04 0.0 
3.707622620838e-04 1.032238675124e-02 0.0 
0.0 0.0 0.0 
1.277666516689e-03 2.799991935426e-04 0.0 
2.799991935426e-04 4.103394779569e-03 0.0 
0.0 0.0 0.0 
2.996182983623e-04 -2.090526293667e-03 0.0 
-2.090526293667e-03 4.570896767695e-04 0.0 
0.0 0.0 0.0 
-6.945596002521e-04 4.618661875258e-04 0.0 
4.618661875258e-04 1.046277505219e-02 0.0 
0.0 0.0 0.0 
1.800599239932e-06 2.015959685205e-03 0.0 
2.015959685205e-03 9.107631820404e-03 0.0 
0.0 0.0 0.0 
4.976645960757e-04 2.883287135246e-04 0.0 
2.883287135246e-04 6.159598477437e-03 0.0 
0.0 0.0 0.0 
5.784677492844e-04 -8.620800554800e-04 0.0 
-8.620800554800e-04 2.918380383854e-03 0.0 
0.0 0.0 0.0 
-7.255049194562e-04 1.572773709066e-04 0.0 
1.572773709066e-04 9.617720030114e-03 0.0 
0.0 0.0 0.0 
-7.032249261413e-04 1.935425830638e-04 0.0 
1.935425830638e-04 9.400224136595e-03 0.0 
0.0 0.0 0.0 
9.380686523617e-04 -8.386100397272e-04 0.0 
-8.386100397272e-04 2.567964633784e-03 0.0 
0.0 0.0 0.0 
7.051618081151e-04 -1.714797389937e-04 0.0 
-1.714797389937e-04 4.704770741149e-03 0.0 
0.0 0.0 0.0 
7.734257730545e-04 -4.607868303307e-05 0.0 
-4.607868303307e-05 4.865293115447e-03 0.0 
0.0 0.0 0.0 
-1.182145785286e-04 -4.106345560044e-04 0.0 
-4.106345560044e-04 1.255355301939e-03 0.0 
0.0 0.0 0.0 
2.286566398612e-03 1.807646104565e-03 0.0 
1.807646104565e-03 -1.231585009327e-03 0.0 
0.0 0.0 0.0 
1.971065365040e-03 2.900818230666e-04 0.0 
2.900818230666e-04 1.645697436610e-03 0.0 
0.0 0.0 0.0 
1.752623510056e-03 -4.224226545050e-04 0.0 
-4.224226545050e-04 1.399555319687e-03 0.0 
0.0 0.0 0.0 
3.504585625465e-04 2.273485862741e-03 0.0 
2.273485862741e-03 4.672729191209e-03 0.0 
0.0 0.0 0.0 
-3.728506638967e-04 5.771429080688e-04 0.0 
5.771429080688e-04 1.132328169072e-02 0.0 
0.0 0.0 0.0 
-5.196513714850e-04 1.256500286040e-03 0.0 
1.256500286040e-03 1.038098410897e-02 0.0 
0.0 0.0 0.0 
-3.864725516655e-04 2.913949558204e-04 0.0 
2.913949558204e-04 1.112806297340e-02 0.0 
0.0 0.0 0.0 
-9.128770542429e-04 1.815597722878e-03 0.0 
1.815597722878e-03 6.809890793956e-03 0.0 
0.0 0.0 0.0 
-6.431657531916e-04 7.082031613734e-04 0.0 
7.082031613734e-04 1.047085613726e-02 0.0 
0.0 0.0 0.0 
5.623996127582e-04 -2.592940355149e-04 0.0 
-2.592940355149e-04 4.718944376604e-03 0.0 
0.0 0.0 0.0 
-3.450437627281e-04 5.184350899559e-04 0.0 
5.184350899559e-04 1.120281373768e-02 0.0 
0.0 0.0 0.0 
-7.725419837872e-04 4.761852202379e-04 0.0 
4.761852202379e-04 1.024934283523e-02 0.0 
0.0 0.0 0.0 
5.787554667280e-04 -8.677248593195e-04 0.0 
-8.677248593195e-04 2.940735108406e-03 0.0 
0.0 0.0 0.0 
2.060281587272e-03 5.955270350242e-04 0.0 
5.955270350242e-04 1.359369408219e-03 0.0 
0.0 0.0 0.0 
-6.031635817125e-04 4.877406471079e-04 0.0 
4.877406471079e-04 1.045944890153e-02 0.0 
0.0 0.0 0.0 
-5.038207805014e-04 5.131756372804e-04 0.0 
5.131756372804e-04 1.100680895874e-02 0.0 
0.0 0.0 0.0 
-5.444284576883e-04 3.914590099891e-04 0.0 
3.914590099891e-04 1.052482352698e-02 0.0 
0.0 0.0 0.0 
-6.131170599725e-04 4.010190932774e-04 0.0 
4.010190932774e-04 1.031857976672e-02 0.0 
0.0 0.0 0.0 
5.162597606196e-04 5.009621278100e-05 0.0 
5.009621278100e-05 5.688996269762e-03 0.0 
0.0 0.0 0.0 
6.791541539668e-04 1.395023929530e-03 0.0 
1.395023929530e-03 6.538021197152e-03 0.0 
0.0 0.0 0.0 
6.617357173635e-04 6.693650913909e-05 0.0 
6.693650913909e-05 5.374190866622e-03 0.0 
0.0 0.0 0.0 
6.452933604659e-04 -4.114863578067e-04 0.0 
-4.114863578067e-04 4.125487025845e-03 0.0 
0.0 0.0 0.0 
-1.099262695363e-03 8.941906604291e-04 0.0 
8.941906604291e-04 7.562488939534e-03 0.0 
0.0 0.0 0.0 
1.120291552614e-03 8.756034069804e-04 0.0 
8.756034069804e-04 5.024333857135e-03 0.0 
0.0 0.0 0.0 
-7.894079367750e-04 7.482264739226e-04 0.0 
7.482264739226e-04 9.999583811284e-03 0.0 
0.0 0.0 0.0 
-1.967701578288e-04 -4.010246217900e-04 0.0 
-4.010246217900e-04 2.153304202223e-03 0.0 
0.0 0.0 0.0 
1.835652566776e-03 -4.428060160648e-05 0.0 
-4.428060160648e-05 1.700436128721e-03 0.0 
0.0 0.0 0.0 
1.700381987432e-03 1.741053343419e-04 0.0 
1.741053343419e-04 2.603753601649e-03 0.0 
0.0 0.0 0.0 
1.495922252221e-03 9.602256082973e-04 0.0 
9.602256082973e-04 3.738072192402e-03 0.0 
0.0 0.0 0.0 
2.657074432109e-03 -2.970051421523e-04 0.0 
-2.970051421523e-04 -2.248353359039e-03 0.0 
0.0 0.0 0.0 
1.981159277187e-03 2.219862153000e-04 0.0 
2.219862153000e-04 1.422868902773e-03 0.0 
0.0 0.0 0.0 
1.338084677176e-03 9.848430336694e-04 0.0 
9.848430336694e-04 4.338583934601e-03 0.0 
0.0 0.0 0.0 
-9.963027290206e-04 1.266308675025e-03 0.0 
1.266308675025e-03 7.657078958233e-03 0.0 
0.0 0.0 0.0 
6.304613455481e-04 -7.083190796629e-04 0.0 
-7.083190796629e-04 3.296653365272e-03 0.0 
0.0 0.0 0.0 
-8.348835924952e-04 3.881624419872e-04 0.0 
3.881624419872e-04 9.892404713112e-03 0.0 
0.0 0.0 0.0 
-7.016910229335e-04 8.927766461312e-05 0.0 
8.927766461312e-05 8.781543421962e-03 0.0 
0.0 0.0 0.0 
-1.331252444754e-03 2.521912401432e-03 0.0 
2.521912401432e-03 1.643113522117e-03 0.0 
0.0 0.0 0.0 
6.191882318369e-04 -5.445885429918e-04 0.0 
-5.445885429918e-04 3.792085943800e-03 0.0 
0.0 0.0 0.0 
1.183537596649e-03 6.948157811838e-04 0.0 
6.948157811838e-04 4.756278869229e-03 0.0 
0.0 0.0 0.0 
-4.515201862438e-04 1.214051337992e-03 0.0 
1.214051337992e-03 1.065028254773e-02 0.0 
0.0 0.0 0.0 
1.784519726307e-03 9.446016054257e-04 0.0 
9.446016054257e-04 2.535100442343e-03 0.0 
0.0 0.0 0.0 
6.518490660514e-04 -5.564490307715e-04 0.0 
-5.564490307715e-04 3.700197958478e-03 0.0 
0.0 0.0 0.0 
-7.605259403582e-04 2.958035283802e-04 0.0 
2.958035283802e-04 9.959055343063e-03 0.0 
0.0 0.0 0.0 
-1.329714367896e-03 2.319950561475e-03 0.0 
2.319950561475e-03 3.198389055950e-03 0.0 
0.0 0.0 0.0 
1.267534473485e-03 8.347997366944e-04 0.0 
8.347997366944e-04 4.562156754270e-03 0.0 
0.0 0.0 0.0 
1.618901217439e-03 7.043745313107e-04 0.0 
7.043745313107e-04 3.216363548059e-03 0.0 
0.0 0.0 0.0 
-1.074936650710e-03 1.266129493222e-03 0.0 
1.266129493222e-03 7.989809911317e-03 0.0 
0.0 0.0 0.0 
6.389728029526e-04 -1.448906134267e-04 0.0 
-1.448906134267e-04 4.880974924746e-03 0.0 
0.0 0.0 0.0 
1.417797341067e-03 -2.056330256162e-03 0.0 
-2.056330256162e-03 -1.218840697968e-03 0.0 
0.0 0.0 0.0 
6.923754658965e-04 -1.250955003180e-05 0.0 
-1.250955003180e-05 5.076202203220e-03 0.0 
0.0 0.0 0.0 
6.503852074646e-04 3.436978072482e-04 0.0 
3.436978072482e-04 5.846098376990e-03 0.0 
0.0 0.0 0.0 
1.316626755071e-03 9.930053902282e-04 0.0 
9.930053902282e-04 4.409063946146e-03 0.0 
0.0 0.0 0.0 
-6.226461644867e-04 3.577125841916e-04 0.0 
3.577125841916e-04 1.052913495079e-02 0.0 
0.0 0.0 0.0 
2.788986135114e-04 1.785034267357e-03 0.0 
1.785034267357e-03 7.278817138775e-03 0.0 
0.0 0.0 0.0 
5.706378443753e-04 2.410542187810e-04 0.0 
2.410542187810e-04 5.859432805819e-03 0.0 
0.0 0.0 0.0 
-1.651670736217e-03 1.987189912312e-03 0.0 
1.987189912312e-03 4.792489078743e-03 0.0 
0.0 0.0 0.0 
-7.690966058730e-04 3.809629331591e-04 0.0 
3.809629331591e-04 1.011073441121e-02 0.0 
0.0 0.0 0.0 
5.011486325461e-04 1.613946270812e-03 0.0 
1.613946270812e-03 7.051836449178e-03 0.0 
0.0 0.0 0.0 
-5.282045625560e-04 4.749322197830e-04 0.0 
4.749322197830e-04 1.066735158140e-02 0.0 
0.0 0.0 0.0 
1.478062679514e-03 9.688954557073e-04 0.0 
9.688954557073e-04 3.802189187467e-03 0.0 
0.0 0.0 0.0 
1.923821826710e-03 6.049914670775e-04 0.0 
6.049914670775e-04 1.915576442266e-03 0.0 
0.0 0.0 0.0 
1.572756153192e-04 -4.368223681355e-04 0.0 
-4.368223681355e-04 4.151789190745e-03 0.0 
0.0 0.0 0.0 
2.513850117544e-03 6.899874333180e-04 0.0 
6.899874333180e-04 -4.259224265435e-03 0.0 
0.0 0.0 0.0 
-4.517575289864e-04 4.563494039681e-04 0.0 
4.563494039681e-04 1.086990259153e-02 0.0 
0.0 0.0 0.0 
-1.806222668509e-04 -3.211321428412e-04 0.0 
-3.211321428412e-04 2.334601967565e-03 0.0 
0.0 0.0 0.0 
-1.095909131505e-03 1.088723582650e-03 0.0 
1.088723582650e-03 5.827910440585e-03 0.0 
0.0 0.0 0.0 
1.361468377379e-04 1.817440178488e-03 0.0 
1.817440178488e-03 7.435762724938e-03 0.0 
0.0 0.0 0.0 
-3.001375951334e-04 4.070950375616e-04 0.0 
4.070950375616e-04 1.127476213477e-02 0.0 
0.0 0.0 0.0 
8.364633399658e-04 -2.393624885861e-03 0.0 
-2.393624885861e-03 -8.397424579847e-04 0.0 
0.0 0.0 0.0 
-1.691405695489e-04 1.980835161565e-03 0.0 
1.980835161565e-03 6.650642709977e-03 0.0 
0.0 0.0 0.0 
-6.753849650022e-04 4.969369626245e-04 0.0 
4.969369626245e-04 1.024664298985e-02 0.0 
0.0 0.0 0.0 
3.379028005943e-04 -6.580688948947e-04 0.0 
-6.580688948947e-04 3.645744184978e-03 0.0 
0.0 0.0 0.0 
2.332159690193e-03 -1.106864127788e-03 0.0 
-1.106864127788e-03 -2.118545239555e-03 0.0 
0.0 0.0 0.0 
8.122635183980e-04 2.752615920514e-03 0.0 
2.752615920514e-03 2.167969018797e-03 0.0 
0.0 0.0 0.0 
-1.710577273150e-04 -2.080718892748e-03 0.0 
-2.080718892748e-03 4.140745161649e-04 0.0 
0.0 0.0 0.0 
1.324648418959e-03 -2.032052585654e-03 0.0 
-2.032052585654e-03 -8.864235386435e-04 0.0 
0.0 0.0 0.0 
5.946175075684e-04 -2.268862525420e-03 0.0 
-2.268862525420e-03 -2.432802234023e-04 0.0 
0.0 0.0 0.0 
1.633275788180e-03 9.524070647136e-04 0.0 
9.524070647136e-04 3.179330774246e-03 0.0 
0.0 0.0 0.0 
-1.807896914079e-04 1.054133999828e-03 0.0 
1.054133999828e-03 1.159129478659e-02 0.0 
0.0 0.0 0.0 
-1.009923892867e-03 7.927981264380e-04 0.0 
7.927981264380e-04 6.371991413117e-03 0.0 
0.0 0.0 0.0 
3.853120168582e-04 3.296748713330e-05 0.0 
3.296748713330e-05 5.993414340504e-03 0.0 
0.0 0.0 0.0 
2.014193309711e-03 1.366387452880e-03 0.0 
1.366387452880e-03 1.075926422169e-03 0.0 
0.0 0.0 0.0 
-8.458878073219e-04 4.904160374796e-04 0.0 
4.904160374796e-04 1.003156487839e-02 0.0 
0.0 0.0 0.0 
2.852592073573e-03 5.514750491332e-04 0.0 
5.514750491332e-04 -3.817979607965e-03 0.0 
0.0 0.0 0.0 
5.303125904146e-04 3.908804510195e-04 0.0 
3.908804510195e-04 6.151732523576e-03 0.0 
0.0 0.0 0.0 
2.232670218509e-04 -2.385351273190e-03 0.0 
-2.385351273190e-03 -2.314279467759e-04 0.0 
0.0 0.0 0.0 
-1.813289353882e-04 -3.424402860573e-04 0.0 
-3.424402860573e-04 2.721219587436e-03 0.0 
0.0 0.0 0.0 
1.166458837059e-03 1.178140612408e-03 0.0 
1.178140612408e-03 4.903144022387e-03 0.0 
0.0 0.0 0.0 
1.324160591346e-03 -6.368538179468e-04 0.0 
-6.368538179468e-04 2.224850626897e-03 0.0 
0.0 0.0 0.0 
6.745821926912e-04 1.497714108814e-03 0.0 
1.497714108814e-03 6.534444461969e-03 0.0 
0.0 0.0 0.0 
-2.043532794416e-05 2.589510663454e-03 0.0 
2.589510663454e-03 4.535402427943e-03 0.0 
0.0 0.0 0.0 
-8.266283934832e-04 7.251516190846e-04 0.0 
7.251516190846e-04 1.024106712897e-02 0.0 
0.0 0.0 0.0 
6.640238211919e-04 1.394905164445e-03 0.0 
1.394905164445e-03 6.570460859048e-03 0.0 
0.0 0.0 0.0 
-6.792518924669e-04 4.064816202566e-04 0.0 
4.064816202566e-04 1.010764194564e-02 0.0 
0.0 0.0 0.0 
-5.457084866762e-04 1.218018846344e-03 0.0 
1.218018846344e-03 1.065021736755e-02 0.0 
0.0 0.0 0.0 
-6.835270179101e-04 5.622073054967e-04 0.0 
5.622073054967e-04 1.058847149353e-02 0.0 
0.0 0.0 0.0 
-6.623458823944e-04 6.708404921546e-04 0.0 
6.708404921546e-04 1.069761584173e-02 0.0 
0.0 0.0 0.0 
1.783983985224e-03 2.742315725937e-03 0.0 
2.742315725937e-03 -1.622381299501e-03 0.0 
0.0 0.0 0.0 
3.585953812280e-04 -4.914821276950e-05 0.0 
-4.914821276950e-05 5.802930330419e-03 0.0 
0.0 0.0 0.0 
-6.642754761829e-04 5.978449564911e-04 0.0 
5.978449564911e-04 1.036896089803e-02 0.0 
0.0 0.0 0.0 
1.398589329333e-03 1.729722243026e-03 0.0 
1.729722243026e-03 3.134539846715e-03 0.0 
0.0 0.0 0.0 
-1.019721688211e-03 6.093022021624e-04 0.0 
6.093022021624e-04 6.844999455861e-03 0.0 
0.0 0.0 0.0 
4.891512397738e-04 1.451454771807e-03 0.0 
1.451454771807e-03 7.075158222854e-03 0.0 
0.0 0.0 0.0 
2.595845245197e-03 1.272623897706e-03 0.0 
1.272623897706e-03 -2.152818634685e-03 0.0 
0.0 0.0 0.0 
-1.534974399261e-04 -3.919417652223e-04 0.0 
-3.919417652223e-04 2.508579669210e-03 0.0 
0.0 0.0 0.0 
8.269354304791e-04 1.476517171072e-03 0.0 
1.476517171072e-03 5.972105050636e-03 0.0 
0.0 0.0 0.0 
4.605147917758e-05 -2.016312894851e-05 0.0 
-2.016312894851e-05 1.516611159133e-03 0.0 
0.0 0.0 0.0 
5.699049400343e-04 2.092990837542e-03 0.0 
2.092990837542e-03 5.053353955421e-03 0.0 
0.0 0.0 0.0 
1.143815452469e-03 1.024812190151e-03 0.0 
1.024812190151e-03 5.004304359426e-03 0.0 
0.0 0.0 0.0 
-5.284790295154e-04 7.517946902512e-04 0.0 
7.517946902512e-04 1.100186459491e-02 0.0 
0.0 0.0 0.0 
-4.818455667416e-04 8.801009763806e-04 0.0 
8.801009763806e-04 1.108305975672e-02 0.0 
0.0 0.0 0.0 
1.170731187155e-03 1.018441949904e-03 0.0 
1.018441949904e-03 4.926369977077e-03 0.0 
0.0 0.0 0.0 
-5.944403255734e-04 5.400567424529e-04 0.0 
5.400567424529e-04 1.079914234086e-02 0.0 
0.0 0.0 0.0 
1.757425877493e-03 1.651078370194e-03 0.0 
1.651078370194e-03 1.795832324782e-03 0.0 
0.0 0.0 0.0 
-1.752935560186e-04 1.779570909943e-03 0.0 
1.779570909943e-03 8.153412316737e-03 0.0 
0.0 0.0 0.0 
-1.030742159163e-03 4.751605048459e-04 0.0 
4.751605048459e-04 7.308457142956e-03 0.0 
0.0 0.0 0.0 
-3.950648045810e-04 1.536786901984e-03 0.0 
1.536786901984e-03 9.950810597634e-03 0.0 
0.0 0.0 0.0 
-1.027819592930e-03 3.951729155519e-04 0.0 
3.951729155519e-04 7.768608793474e-03 0.0 
0.0 0.0 0.0 
-1.004667788434e-03 3.597916476758e-04 0.0 
3.597916476758e-04 7.997984625178e-03 0.0 
0.0 0.0 0.0 
1.754024043372e-03 1.236098493575e-03 0.0 
1.236098493575e-03 2.440974905700e-03 0.0 
0.0 0.0 0.0 
-1.000893719906e-03 3.524181608873e-04 0.0 
3.524181608873e-04 8.225649280940e-03 0.0 
0.0 0.0 0.0 
7.861472259461e-04 1.849860579619e-03 0.0 
1.849860579619e-03 5.206705310589e-03 0.0 
0.0 0.0 0.0 
1.138635853848e-03 2.028785719049e-03 0.0 
2.028785719049e-03 3.576979937573e-03 0.0 
0.0 0.0 0.0 
1.838364969015e-03 3.196528909890e-04 0.0 
3.196528909890e-04 2.097168914367e-03 0.0 
0.0 0.0 0.0 
2.415779209705e-03 -1.148953986556e-03 0.0 
-1.148953986556e-03 -2.312163719445e-03 0.0 
0.0 0.0 0.0 
1.933914580397e-03 9.466031186631e-04 0.0 
9.466031186631e-04 1.863665996074e-03 0.0 
0.0 0.0 0.0 
-4.224286753426e-04 5.461741084239e-04 0.0 
5.461741084239e-04 1.100259376068e-02 0.0 
0.0 0.0 0.0 
-4.275203551882e-04 1.409094990764e-03 0.0 
1.409094990764e-03 1.037665203697e-02 0.0 
0.0 0.0 0.0 
4.270372371529e-04 -1.356452853737e-04 0.0 
-1.356452853737e-04 5.340728900582e-03 0.0 
0.0 0.0 0.0 
6.751365110018e-04 1.494343118651e-03 0.0 
1.494343118651e-03 6.523258600155e-03 0.0 
0.0 0.0 0.0 
1.560738083799e-03 -4.168048444475e-04 0.0 
-4.168048444475e-04 2.189056611069e-03 0.0 
0.0 0.0 0.0 
-5.609504314765e-04 6.900682460959e-04 0.0 
6.900682460959e-04 1.069492896362e-02 0.0 
0.0 0.0 0.0 
1.908485551884e-03 6.392865738793e-04 0.0 
6.392865738793e-04 2.049004395282e-03 0.0 
0.0 0.0 0.0 
2.546679560484e-04 -3.897154922739e-05 0.0 
-3.897154922739e-05 6.090649402556e-03 0.0 
0.0 0.0 0.0 
-5.858651205641e-04 5.847234191013e-04 0.0 
5.847234191013e-04 1.058548448439e-02 0.0 
0.0 0.0 0.0 
-7.483631059710e-04 6.977293284968e-04 0.0 
6.977293284968e-04 1.047256494891e-02 0.0 
0.0 0.0 0.0 
1.438061198561e-03 7.820423088716e-04 0.0 
7.820423088716e-04 3.956647171868e-03 0.0 
0.0 0.0 0.0 
1.886337034507e-03 1.290737166322e-03 0.0 
1.290737166322e-03 1.772939080046e-03 0.0 
0.0 0.0 0.0 
-1.402688214384e-04 1.787112102481e-03 0.0 
1.787112102481e-03 8.501787304178e-03 0.0 
0.0 0.0 0.0 
-7.363599297594e-04 1.455243073819e-03 0.0 
1.455243073819e-03 8.362305491569e-03 0.0 
0.0 0.0 0.0 
1.874848231491e-03 -1.921508166895e-03 0.0 
-1.921508166895e-03 -2.185457487213e-03 0.0 
0.0 0.0 0.0 
2.670273469500e-03 4.374707296694e-04 0.0 
4.374707296694e-04 -2.019561266988e-03 0.0 
0.0 0.0 0.0 
1.932464505603e-04 2.546448634109e-03 0.0 
2.546448634109e-03 4.003733908991e-03 0.0 
0.0 0.0 0.0 
-2.761523809376e-04 1.933687983981e-03 0.0 
1.933687983981e-03 6.657751270998e-03 0.0 
0.0 0.0 0.0 
1.664551087277e-04 -2.750197304397e-05 0.0 
-2.750197304397e-05 6.369391482092e-03 0.0 
0.0 0.0 0.0 
-7.659284016323e-04 5.824791343392e-04 0.0 
5.824791343392e-04 1.037114473789e-02 0.0 
0.0 0.0 0.0 
1.945061845315e-03 9.418839632393e-04 0.0 
9.418839632393e-04 1.825977475070e-03 0.0 
0.0 0.0 0.0 
-2.708873809901e-04 1.821149905984e-03 0.0 
1.821149905984e-03 7.502414073030e-03 0.0 
0.0 0.0 0.0 
1.086322841072e-03 8.966421279573e-04 0.0 
8.966421279573e-04 5.166742174150e-03 0.0 
0.0 0.0 0.0 
-5.284590379764e-04 4.233208276752e-04 0.0 
4.233208276752e-04 1.087423545809e-02 0.0 
0.0 0.0 0.0 
-2.348032304755e-04 1.788035987466e-03 0.0 
1.788035987466e-03 8.975465762338e-03 0.0 
0.0 0.0 0.0 
-8.054163773409e-04 5.079656196326e-04 0.0 
5.079656196326e-04 9.806811077885e-03 0.0 
0.0 0.0 0.0 
9.312314560932e-04 4.929584846444e-04 0.0 
4.929584846444e-04 5.286955993522e-03 0.0 
0.0 0.0 0.0 
1.771969973938e-03 6.535276955859e-04 0.0 
6.535276955859e-04 2.579003434456e-03 0.0 
0.0 0.0 0.0 
1.036437555036e-03 7.446111739241e-04 0.0 
7.446111739241e-04 5.180880086114e-03 0.0 
0.0 0.0 0.0 
3.910639655009e-04 2.143470609336e-03 0.0 
2.143470609336e-03 5.046809474196e-03 0.0 
0.0 0.0 0.0 
-4.720443268552e-04 6.143390538801e-04 0.0 
6.143390538801e-04 1.111773485411e-02 0.0 
0.0 0.0 0.0 
-2.848492254981e-04 1.776487246500e-03 0.0 
1.776487246500e-03 9.452069558884e-03 0.0 
0.0 0.0 0.0 
1.599280819880e-03 7.321093779945e-04 0.0 
7.321093779945e-04 3.339418238264e-03 0.0 
0.0 0.0 0.0 
2.788825036918e-03 5.172300747010e-04 0.0 
5.172300747010e-04 -2.869253193483e-03 0.0 
0.0 0.0 0.0 
3.568994027936e-04 1.791819054736e-03 0.0 
1.791819054736e-03 7.136530781131e-03 0.0 
0.0 0.0 0.0 
5.694485381622e-04 1.974001758867e-03 0.0 
1.974001758867e-03 5.445253844029e-03 0.0 
0.0 0.0 0.0 
1.885388834482e-03 1.315515179904e-03 0.0 
1.315515179904e-03 1.847381261634e-03 0.0 
0.0 0.0 0.0 
1.461457546154e-03 7.573843478083e-04 0.0 
7.573843478083e-04 3.833904714985e-03 0.0 
0.0 0.0 0.0 
8.610875075070e-04 1.827658666961e-04 0.0 
1.827658666961e-04 5.009854739760e-03 0.0 
0.0 0.0 0.0 
2.676312036857e-03 -4.433299975255e-04 0.0 
-4.433299975255e-04 -2.712933206465e-03 0.0 
0.0 0.0 0.0 
1.755166100296e-03 6.844187545735e-04 0.0 
6.844187545735e-04 2.705427869571e-03 0.0 
0.0 0.0 0.0 
-8.491339166172e-04 1.137739328710e-03 0.0 
1.137739328710e-03 9.191752126416e-03 0.0 
0.0 0.0 0.0 
1.143952067157e-04 -9.167540330638e-05 0.0 
-9.167540330638e-05 6.378627422631e-03 0.0 
0.0 0.0 0.0 
-7.651417559599e-04 1.286537538990e-03 0.0 
1.286537538990e-03 9.125534343476e-03 0.0 
0.0 0.0 0.0 
2.316692690973e-04 1.832465918670e-03 0.0 
1.832465918670e-03 7.272167394303e-03 0.0 
0.0 0.0 0.0 
-9.095806948500e-04 9.841055172769e-04 0.0 
9.841055172769e-04 9.224144643236e-03 0.0 
0.0 0.0 0.0 
-9.644843911791e-04 6.843612940006e-04 0.0 
6.843612940006e-04 9.184211721201e-03 0.0 
0.0 0.0 0.0 
-5.934334558416e-04 1.589088948036e-03 0.0 
1.589088948036e-03 8.196844848968e-03 0.0 
0.0 0.0 0.0 
8.386871213479e-04 1.359600054656e-03 0.0 
1.359600054656e-03 6.001086444567e-03 0.0 
0.0 0.0 0.0 
3.812051432701e-04 -1.301007056540e-04 0.0 
-1.301007056540e-04 5.518534068967e-03 0.0 
0.0 0.0 0.0 
-7.373779528670e-04 6.104598408400e-04 0.0 
6.104598408400e-04 1.014545309465e-02 0.0 
0.0 0.0 0.0 
-3.936911309506e-04 8.923782708452e-04 0.0 
8.923782708452e-04 1.108117387936e-02 0.0 
0.0 0.0 0.0 
-9.490506187682e-04 8.311002584178e-04 0.0 
8.311002584178e-04 9.222090976705e-03 0.0 
0.0 0.0 0.0 
2.227927607232e-03 9.929576961530e-04 0.0 
9.929576961530e-04 4.200011397317e-04 0.0 
0.0 0.0 0.0 
2.313014561792e-04 1.785484955942e-03 0.0 
1.785484955942e-03 7.697144525806e-03 0.0 
0.0 0.0 0.0 
-4.118384903873e-04 4.839253287169e-04 0.0 
4.839253287169e-04 1.120702035682e-02 0.0 
0.0 0.0 0.0 
9.178000017223e-04 2.037230878811e-03 0.0 
2.037230878811e-03 4.034176486631e-03 0.0 
0.0 0.0 0.0 
6.554076093246e-04 2.053076102555e-03 0.0 
2.053076102555e-03 4.752030488491e-03 0.0 
0.0 0.0 0.0 
2.088654629913e-03 9.587706975461e-04 0.0 
9.587706975461e-04 1.139269029204e-03 0.0 
0.0 0.0 0.0 
-7.197644359163e-04 7.272062946694e-04 0.0 
7.272062946694e-04 1.024032545974e-02 0.0 
0.0 0.0 0.0 
-5.800871023219e-04 2.082919218129e-03 0.0 
2.082919218129e-03 5.932415955312e-03 0.0 
0.0 0.0 0.0 
8.369614660702e-04 1.819951121439e-03 0.0 
1.819951121439e-03 5.010228873478e-03 0.0 
0.0 0.0 0.0 
-4.802027335929e-04 2.226443928973e-03 0.0 
2.226443928973e-03 5.912436858349e-03 0.0 
0.0 0.0 0.0 
1.000242756357e-03 1.340406348987e-03 0.0 
1.340406348987e-03 5.429048823392e-03 0.0 
0.0 0.0 0.0 
1.594950035262e-04 1.819947511838e-03 0.0 
1.819947511838e-03 8.114549211314e-03 0.0 
0.0 0.0 0.0 
2.072785936326e-03 5.593580187156e-04 0.0 
5.593580187156e-04 1.226240198259e-03 0.0 
0.0 0.0 0.0 
2.360234873074e-03 -6.114176275883e-04 0.0 
-6.114176275883e-04 -4.047761190770e-03 0.0 
0.0 0.0 0.0 
-4.207044475363e-04 1.059622945693e-03 0.0 
1.059622945693e-03 1.090233353228e-02 0.0 
0.0 0.0 0.0 
-7.183685223492e-04 1.858956123067e-03 0.0 
1.858956123067e-03 6.506224508737e-03 0.0 
0.0 0.0 0.0 
1.663215436892e-03 -1.249978315782e-04 0.0 
-1.249978315782e-04 2.354016538998e-03 0.0 
0.0 0.0 0.0 
3.186548191214e-04 1.814099893001e-03 0.0 
1.814099893001e-03 7.579380361819e-03 0.0 
0.0 0.0 0.0 
-8.424475314300e-04 6.034570189384e-04 0.0 
6.034570189384e-04 1.014665661081e-02 0.0 
0.0 0.0 0.0 
5.024194772048e-04 -1.386821189411e-04 0.0 
-1.386821189411e-04 5.204244546261e-03 0.0 
0.0 0.0 0.0 
1.440274352800e-03 1.905865202816e-03 0.0 
1.905865202816e-03 2.794816763083e-03 0.0 
0.0 0.0 0.0 
2.103423738895e-03 -2.782283532602e-04 0.0 
-2.782283532602e-04 -4.333410791760e-03 0.0 
0.0 0.0 0.0 
5.547968064223e-05 -8.977205658132e-05 0.0 
-8.977205658132e-05 6.669521415627e-03 0.0 
0.0 0.0 0.0 
-3.715411820082e-05 1.981178573581e-03 0.0 
1.981178573581e-03 6.365574548044e-03 0.0 
0.0 0.0 0.0 
9.489124819968e-04 1.483467574201e-03 0.0 
1.483467574201e-03 5.455068492721e-03 0.0 
0.0 0.0 0.0 
-1.582060970118e-05 1.850081063581e-03 0.0 
1.850081063581e-03 8.367076909861e-03 0.0 
0.0 0.0 0.0 
1.029974439911e-03 -6.082728877444e-05 0.0 
-6.082728877444e-05 -4.753509878106e-03 0.0 
0.0 0.0 0.0 
6.225770902699e-04 -5.135570130612e-05 0.0 
-5.135570130612e-05 5.190016664810e-03 0.0 
0.0 0.0 0.0 
1.444271830220e-03 2.471051934350e-03 0.0 
2.471051934350e-03 1.227022550475e-03 0.0 
0.0 0.0 0.0 
-9.166915058626e-04 5.030474527425e-04 0.0 
5.030474527425e-04 9.807721899870e-03 0.0 
0.0 0.0 0.0 
3.622468034010e-04 -5.348221083152e-04 0.0 
-5.348221083152e-04 4.045072534273e-03 0.0 
0.0 0.0 0.0 
2.080557426652e-03 9.599009174597e-04 0.0 
9.599009174597e-04 1.159797682917e-03 0.0 
0.0 0.0 0.0 
1.873046108751e-04 -1.024539085276e-04 0.0 
-1.024539085276e-04 6.100839052278e-03 0.0 
0.0 0.0 0.0 
6.434706593077e-04 1.943442341460e-03 0.0 
1.943442341460e-03 5.193287712164e-03 0.0 
0.0 0.0 0.0 
2.224508764118e-03 9.905918402403e-04 0.0 
9.905918402403e-04 4.203706564729e-04 0.0 
0.0 0.0 0.0 
-1.072098702918e-04 1.910421305661e-03 0.0 
1.910421305661e-03 6.953120298230e-03 0.0 
0.0 0.0 0.0 
1.773821853269e-03 -1.754651957614e-03 0.0 
-1.754651957614e-03 -4.065820336922e-03 0.0 
0.0 0.0 0.0 
-3.337926631830e-05 1.817971521429e-03 0.0 
1.817971521429e-03 7.624343493751e-03 0.0 
0.0 0.0 0.0 
1.017085302612e-03 1.200689250474e-03 0.0 
1.200689250474e-03 5.449870744257e-03 0.0 
0.0 0.0 0.0 
-2.854168632078e-04 1.712597627424e-03 0.0 
1.712597627424e-03 9.825235707526e-03 0.0 
0.0 0.0 0.0 
-1.863087146059e-05 1.804033835570e-03 0.0 
1.804033835570e-03 7.987387637918e-03 0.0 
0.0 0.0 0.0 
2.520983039738e-03 4.479981511161e-04 0.0 
4.479981511161e-04 -1.113253290769e-03 0.0 
0.0 0.0 0.0 
3.220504637234e-04 -2.014879671960e-04 0.0 
-2.014879671960e-04 5.351739837504e-03 0.0 
0.0 0.0 0.0 
-2.919915787392e-04 6.125032708723e-04 0.0 
6.125032708723e-04 1.132186031654e-02 0.0 
0.0 0.0 0.0 
3.044932483320e-04 1.598661212746e-03 0.0 
1.598661212746e-03 7.577373139029e-03 0.0 
0.0 0.0 0.0 
8.478834524654e-04 1.362238444726e-03 0.0 
1.362238444726e-03 5.989049460920e-03 0.0 
0.0 0.0 0.0 
1.638723552617e-03 1.583469672187e-03 0.0 
1.583469672187e-03 2.584827322107e-03 0.0 
0.0 0.0 0.0 
-6.304405031188e-05 1.854600327335e-03 0.0 
1.854600327335e-03 7.280072978549e-03 0.0 
0.0 0.0 0.0 
6.700325223608e-05 -4.856769075822e-05 0.0 
-4.856769075822e-05 6.429342198722e-03 0.0 
0.0 0.0 0.0 
-1.188391097751e-04 -1.762449480808e-04 0.0 
-1.762449480808e-04 4.339954895442e-03 0.0 
0.0 0.0 0.0 
7.984743158040e-05 1.837043418565e-03 0.0 
1.837043418565e-03 7.433243532332e-03 0.0 
0.0 0.0 0.0 
-7.434726654284e-04 5.029605340017e-04 0.0 
5.029605340017e-04 1.002981010714e-02 0.0 
0.0 0.0 0.0 
2.768704954583e-04 -1.159926248317e-04 0.0 
-1.159926248317e-04 5.813670835732e-03 0.0 
0.0 0.0 0.0 
5.526464004368e-04 -2.603757482317e-05 0.0 
-2.603757482317e-05 5.389233016888e-03 0.0 
0.0 0.0 0.0 
-6.319853698565e-04 4.895779395272e-06 0.0 
4.895779395272e-06 8.479724468749e-03 0.0 
0.0 0.0 0.0 
-6.223688527111e-04 8.480810577394e-06 0.0 
8.480810577394e-06 8.473997639212e-03 0.0 
0.0 0.0 0.0 
-9.089047952442e-04 1.122896022913e-03 0.0 
1.122896022913e-03 9.501112676737e-03 0.0 
0.0 0.0 0.0 
5.263335334571e-05 1.865508622837e-03 0.0 
1.865508622837e-03 7.060643933604e-03 0.0 
0.0 0.0 0.0 
2.601871204377e-04 -4.517795160074e-04 0.0 
-4.517795160074e-04 4.358655227458e-03 0.0 
0.0 0.0 0.0 
-6.574291659707e-04 1.549573115982e-03 0.0 
1.549573115982e-03 8.623611208592e-03 0.0 
0.0 0.0 0.0 
8.840690243268e-04 1.914292125347e-03 0.0 
1.914292125347e-03 4.517886449743e-03 0.0 
0.0 0.0 0.0 
7.518836695308e-04 8.251538469749e-04 0.0 
8.251538469749e-04 5.931105417791e-03 0.0 
0.0 0.0 0.0 
1.479577291494e-03 1.849386531712e-03 0.0 
1.849386531712e-03 2.545967628919e-03 0.0 
0.0 0.0 0.0 
-1.674342583793e-04 9.319915824944e-04 0.0 
9.319915824944e-04 1.166895289463e-02 0.0 
0.0 0.0 0.0 
-9.996904931689e-04 5.731388900462e-04 0.0 
5.731388900462e-04 8.865467275900e-03 0.0 
0.0 0.0 0.0 
8.249842001755e-04 1.956677557600e-03 0.0 
1.956677557600e-03 4.765759305108e-03 0.0 
0.0 0.0 0.0 
5.121725748733e-04 -4.848650655867e-04 0.0 
-4.848650655867e-04 4.036041498422e-03 0.0 
0.0 0.0 0.0 
2.476187806112e-03 1.152522280870e-03 0.0 
1.152522280870e-03 -1.130378393334e-03 0.0 
0.0 0.0 0.0 
4.491497273873e-04 -7.630977034462e-04 0.0 
-7.630977034462e-04 3.306226842966e-03 0.0 
0.0 0.0 0.0 
1.451177240619e-05 1.915196037473e-03 0.0 
1.915196037473e-03 6.703632786285e-03 0.0 
0.0 0.0 0.0 
-4.132695995915e-04 1.811249912579e-03 0.0 
1.811249912579e-03 7.215161784284e-03 0.0 
0.0 0.0 0.0 
-8.053245345018e-04 6.239032287105e-04 0.0 
6.239032287105e-04 9.916701292433e-03 0.0 
0.0 0.0 0.0 
-5.007168343170e-04 1.617322530378e-03 0.0 
1.617322530378e-03 8.479615021253e-03 0.0 
0.0 0.0 0.0 
-5.681177942464e-04 1.577822822483e-03 0.0 
1.577822822483e-03 8.905513620718e-03 0.0 
0.0 0.0 0.0 
2.116329637314e-04 -7.711065594626e-05 0.0 
-7.711065594626e-05 1.004927025432e-03 0.0 
0.0 0.0 0.0 
4.474794569851e-04 -7.509870196542e-04 0.0 
-7.509870196542e-04 3.263197190418e-03 0.0 
0.0 0.0 0.0 
-6.549057155590e-04 2.019822538499e-03 0.0 
2.019822538499e-03 6.487250641198e-03 0.0 
0.0 0.0 0.0 
-7.617663041458e-04 1.361453639317e-03 0.0 
1.361453639317e-03 8.757574838345e-03 0.0 
0.0 0.0 0.0 
-8.227624937270e-04 1.340439749406e-03 0.0 
1.340439749406e-03 9.115392691051e-03 0.0 
0.0 0.0 0.0 
8.090300549810e-04 1.229282304469e-03 0.0 
1.229282304469e-03 6.055541025175e-03 0.0 
0.0 0.0 0.0 
-2.326947016584e-05 -1.393730239232e-05 0.0 
-1.393730239232e-05 1.720410155317e-03 0.0 
0.0 0.0 0.0 
2.435786765497e-03 -1.396446426493e-03 0.0 
-1.396446426493e-03 -3.069305429342e-03 0.0 
0.0 0.0 0.0 
1.605820429826e-04 2.071605212652e-03 0.0 
2.071605212652e-03 5.729531601375e-03 0.0 
0.0 0.0 0.0 
2.914132280718e-04 -7.797861302690e-04 0.0 
-7.797861302690e-04 3.268426266791e-03 0.0 
0.0 0.0 0.0 
-1.121464805306e-03 4.402461154552e-04 0.0 
4.402461154552e-04 7.982662567088e-03 0.0 
0.0 0.0 0.0 
-1.098372792504e-03 4.065691660577e-04 0.0 
4.065691660577e-04 8.218599559394e-03 0.0 
0.0 0.0 0.0 
-9.109433570312e-04 6.280554345865e-04 0.0 
6.280554345865e-04 9.916577493847e-03 0.0 
0.0 0.0 0.0 
1.413225240869e-03 2.780737576995e-03 0.0 
2.780737576995e-03 -7.520647283257e-04 0.0 
0.0 0.0 0.0 
3.743058872172e-04 -5.262411668035e-04 0.0 
-5.262411668035e-04 3.956993404052e-03 0.0 
0.0 0.0 0.0 
1.110584288916e-03 5.424837075114e-04 0.0 
5.424837075114e-04 4.779816162754e-03 0.0 
0.0 0.0 0.0 
2.763838251970e-03 -3.995917457853e-04 0.0 
-3.995917457853e-04 -3.286987002074e-03 0.0 
0.0 0.0 0.0 
1.528372003401e-05 1.896681618160e-03 0.0 
1.896681618160e-03 8.948402891084e-03 0.0 
0.0 0.0 0.0 
-5.668741087664e-04 6.428703536749e-04 0.0 
6.428703536749e-04 1.090822828404e-02 0.0 
0.0 0.0 0.0 
1.286357942774e-04 -5.497681318979e-04 0.0 
-5.497681318979e-04 3.879283396826e-03 0.0 
0.0 0.0 0.0 
3.126422095709e-04 -1.112738749650e-04 0.0 
-1.112738749650e-04 5.637354090231e-03 0.0 
0.0 0.0 0.0 
1.474347334407e-04 -7.708233880836e-05 0.0 
-7.708233880836e-05 6.906587593158e-04 0.0 
0.0 0.0 0.0 
1.146972726447e-03 3.266426365718e-04 0.0 
3.266426365718e-04 4.429158695943e-03 0.0 
0.0 0.0 0.0 
8.842874278137e-05 1.991828626495e-03 0.0 
1.991828626495e-03 6.363347013772e-03 0.0 
0.0 0.0 0.0 
2.047464923323e-04 -5.927072982521e-05 0.0 
-5.927072982521e-05 6.655141218370e-04 0.0 
0.0 0.0 0.0 
-4.738119609313e-04 6.663295505629e-04 0.0 
6.663295505629e-04 1.090595507241e-02 0.0 
0.0 0.0 0.0 
2.726795677155e-03 -5.497577344412e-04 0.0 
-5.497577344412e-04 -3.636565240970e-03 0.0 
0.0 0.0 0.0 
-7.983318243414e-04 1.424233290256e-03 0.0 
1.424233290256e-03 8.748196862612e-03 0.0 
0.0 0.0 0.0 
-3.402644927225e-04 1.865875107041e-03 0.0 
1.865875107041e-03 7.207472566067e-03 0.0 
0.0 0.0 0.0 
1.657819922323e-03 -2.388458324101e-04 0.0 
-2.388458324101e-04 2.030823024338e-03 0.0 
0.0 0.0 0.0 
1.207841593432e-03 -1.384199759362e-04 0.0 
-1.384199759362e-04 3.657656158808e-03 0.0 
0.0 0.0 0.0 
-4.401170708780e-04 7.739744163840e-04 0.0 
7.739744163840e-04 1.100041623454e-02 0.0 
0.0 0.0 0.0 
1.101659640607e-03 9.545809754736e-06 0.0 
9.545809754736e-06 4.193899228087e-03 0.0 
0.0 0.0 0.0 
4.133992330895e-04 2.028713780253e-03 0.0 
2.028713780253e-03 5.437860970549e-03 0.0 
0.0 0.0 0.0 
3.150382399155e-04 2.056096925402e-03 0.0 
2.056096925402e-03 5.730978294041e-03 0.0 
0.0 0.0 0.0 
-1.401901392347e-03 2.624962107459e-03 0.0 
2.624962107459e-03 9.193164891070e-04 0.0 
0.0 0.0 0.0 
2.613172494003e-03 -3.737871980092e-04 0.0 
-3.737871980092e-04 -3.881017861487e-03 0.0 
0.0 0.0 0.0 
1.228619075617e-04 1.811470263886e-03 0.0 
1.811470263886e-03 7.819322575712e-03 0.0 
0.0 0.0 0.0 
-1.026707728568e-03 6.850910041417e-04 0.0 
6.850910041417e-04 9.431822857714e-03 0.0 
0.0 0.0 0.0 
2.170123464860e-04 1.841371514843e-03 0.0 
1.841371514843e-03 7.687119426571e-03 0.0 
0.0 0.0 0.0 
1.158967670959e-03 2.751295049457e-03 0.0 
2.751295049457e-03 1.186214903800e-03 0.0 
0.0 0.0 0.0 
-6.518611929571e-04 1.149217064176e-03 0.0 
1.149217064176e-03 1.009641084918e-02 0.0 
0.0 0.0 0.0 
-1.626886548700e-05 1.823975140936e-03 0.0 
1.823975140936e-03 8.368979204245e-03 0.0 
0.0 0.0 0.0 
-1.037504818287e-03 4.855229271113e-04 0.0 
4.855229271113e-04 8.317194946612e-03 0.0 
0.0 0.0 0.0 
9.023325292445e-05 1.826670914021e-03 0.0 
1.826670914021e-03 7.816921325938e-03 0.0 
0.0 0.0 0.0 
2.251828029025e-04 -1.712683532023e-04 0.0 
-1.712683532023e-04 5.647390911997e-03 0.0 
0.0 0.0 0.0 
2.235472994443e-04 1.906114992464e-03 0.0 
1.906114992464e-03 6.466793984650e-03 0.0 
0.0 0.0 0.0 
4.933600600210e-04 -6.176372939826e-04 0.0 
-6.176372939826e-04 3.638653033160e-03 0.0 
0.0 0.0 0.0 
4.788086468657e-04 -6.201382197422e-04 0.0 
-6.201382197422e-04 3.710941122382e-03 0.0 
0.0 0.0 0.0 
-5.324375279474e-04 1.057177263355e-03 0.0 
1.057177263355e-03 1.090565165029e-02 0.0 
0.0 0.0 0.0 
1.293010466778e-03 -3.023938955719e-04 0.0 
-3.023938955719e-04 3.130834162690e-03 0.0 
0.0 0.0 0.0 
-2.014878206198e-04 1.884186965072e-03 0.0 
1.884186965072e-03 6.957143085981e-03 0.0 
0.0 0.0 0.0 
1.307681507317e-03 1.636060790614e-03 0.0 
1.636060790614e-03 3.715926355637e-03 0.0 
0.0 0.0 0.0 
9.693192745546e-04 1.392279627614e-04 0.0 
1.392279627614e-04 4.739791731535e-03 0.0 
0.0 0.0 0.0 
1.095193330798e-03 1.893193414922e-03 0.0 
1.893193414922e-03 4.054243737813e-03 0.0 
0.0 0.0 0.0 
2.509198452513e-03 4.947515723432e-04 0.0 
4.947515723432e-04 -9.486765406281e-04 0.0 
0.0 0.0 0.0 
1.676774782858e-03 4.649876786295e-04 0.0 
4.649876786295e-04 2.935380528950e-03 0.0 
0.0 0.0 0.0 
2.362173599991e-03 1.042683036826e-03 0.0 
1.042683036826e-03 -3.681948977936e-04 0.0 
0.0 0.0 0.0 
-6.403732682820e-04 1.502120703162e-03 0.0 
1.502120703162e-03 8.630290753130e-03 0.0 
0.0 0.0 0.0 
2.370796173306e-03 4.761489162960e-04 0.0 
4.761489162960e-04 -2.802444106391e-04 0.0 
0.0 0.0 0.0 
-5.836271028308e-04 1.646661104389e-03 0.0 
1.646661104389e-03 8.188981704246e-03 0.0 
0.0 0.0 0.0 
8.376378771937e-04 1.237304182031e-03 0.0 
1.237304182031e-03 6.019908649970e-03 0.0 
0.0 0.0 0.0 
9.965417583979e-04 1.198225763274e-03 0.0 
1.198225763274e-03 5.486842036522e-03 0.0 
0.0 0.0 0.0 
1.195718136592e-03 1.974522507148e-03 0.0 
1.974522507148e-03 3.296767429398e-03 0.0 
0.0 0.0 0.0 
-8.612970169090e-04 6.389131616953e-04 0.0 
6.389131616953e-04 9.677234339004e-03 0.0 
0.0 0.0 0.0 
2.142991956668e-04 -8.723472751411e-05 0.0 
-8.723472751411e-05 5.919833778091e-03 0.0 
0.0 0.0 0.0 
1.442983229794e-04 -1.435681748975e-04 0.0 
-1.435681748975e-04 5.929333608624e-03 0.0 
0.0 0.0 0.0 
8.507486200875e-04 2.891879523604e-03 0.0 
2.891879523604e-03 -8.723346464260e-04 0.0 
0.0 0.0 0.0 
-4.313187047786e-04 1.697013645351e-03 0.0 
1.697013645351e-03 8.011996831281e-03 0.0 
0.0 0.0 0.0 
9.186803278793e-05 -1.367956566527e-05 0.0 
-1.367956566527e-05 6.651751717888e-03 0.0 
0.0 0.0 0.0 
-1.069020438570e-03 1.395042284585e-03 0.0 
1.395042284585e-03 6.550663787769e-03 0.0 
0.0 0.0 0.0 
1.577056305335e-04 -4.620485791663e-04 0.0 
-4.620485791663e-04 4.256173675582e-03 0.0 
0.0 0.0 0.0 
-1.673203433372e-03 2.699480042470e-03 0.0 
2.699480042470e-03 1.650940872646e-03 0.0 
0.0 0.0 0.0 
1.333961896741e-04 -6.520466827249e-05 0.0 
-6.520466827249e-05 6.186001787155e-03 0.0 
0.0 0.0 0.0 
2.487552662318e-03 1.130722566853e-03 0.0 
1.130722566853e-03 -1.218430210218e-03 0.0 
0.0 0.0 0.0 
-1.048046233612e-04 -1.080560672197e-04 0.0 
-1.080560672197e-04 4.501674573657e-03 0.0 
0.0 0.0 0.0 
8.976360946087e-04 1.624457805796e-03 0.0 
1.624457805796e-03 5.438415837882e-03 0.0 
0.0 0.0 0.0 
-9.745748385402e-04 6.514752548588e-04 0.0 
6.514752548588e-04 9.676080610214e-03 0.0 
0.0 0.0 0.0 
-9.238977186213e-04 6.613894033215e-04 0.0 
6.613894033215e-04 9.434473478644e-03 0.0 
0.0 0.0 0.0 
1.989247273992e-04 1.980353895309e-03 0.0 
1.980353895309e-03 6.090073355245e-03 0.0 
0.0 0.0 0.0 
-1.150315011370e-03 5.511700408113e-04 0.0 
5.511700408113e-04 7.513054826437e-03 0.0 
0.0 0.0 0.0 
-1.132440474828e-03 4.961062111518e-04 0.0 
4.961062111518e-04 7.753315970147e-03 0.0 
0.0 0.0 0.0 
7.990305657435e-05 -1.188911101519e-04 0.0 
-1.188911101519e-04 6.195174490054e-03 0.0 
0.0 0.0 0.0 
1.106038501962e-03 -9.567320983864e-05 0.0 
-9.567320983864e-05 3.876830407670e-03 0.0 
0.0 0.0 0.0 
1.550961373994e-03 -7.499218173887e-05 0.0 
-7.499218173887e-05 2.645877235752e-03 0.0 
0.0 0.0 0.0 
1.250630567716e-03 4.953173052272e-04 0.0 
4.953173052272e-04 4.407738214594e-03 0.0 
0.0 0.0 0.0 
1.825552584025e-03 3.803467221267e-04 0.0 
3.803467221267e-04 2.303632661664e-03 0.0 
0.0 0.0 0.0 
2.360818797180e-03 1.052212455999e-03 0.0 
1.052212455999e-03 -3.373319903673e-04 0.0 
0.0 0.0 0.0 
-1.016100091959e-03 4.164899605159e-04 0.0 
4.164899605159e-04 7.542076665855e-03 0.0 
0.0 0.0 0.0 
-1.068045959131e-03 5.824218450282e-04 0.0 
5.824218450282e-04 9.106848884629e-03 0.0 
0.0 0.0 0.0 
-6.307314788953e-04 5.553271410020e-06 0.0 
5.553271410020e-06 8.480060600281e-03 0.0 
0.0 0.0 0.0 
9.909405952955e-04 1.064725447253e-03 0.0 
1.064725447253e-03 5.505779915849e-03 0.0 
0.0 0.0 0.0 
1.369799436110e-03 1.772546582167e-03 0.0 
1.772546582167e-03 3.325124118236e-03 0.0 
0.0 0.0 0.0 
5.170730669335e-04 1.532988314200e-03 0.0 
1.532988314200e-03 7.058787027891e-03 0.0 
0.0 0.0 0.0 
-2.586301832341e-05 -2.294485679878e-05 0.0 
-2.294485679878e-05 6.288011424153e-03 0.0 
0.0 0.0 0.0 
1.693317887056e-03 4.130892529814e-04 0.0 
4.130892529814e-04 2.748562534230e-03 0.0 
0.0 0.0 0.0 
7.421134629593e-05 -5.877130767634e-05 0.0 
-5.877130767634e-05 6.854106600209e-03 0.0 
0.0 0.0 0.0 
2.256103712724e-03 -5.417597904150e-06 0.0 
-5.417597904150e-06 -4.053369204193e-05 0.0 
0.0 0.0 0.0 
5.188784810750e-04 1.621774913171e-03 0.0 
1.621774913171e-03 7.036236579554e-03 0.0 
0.0 0.0 0.0 
3.321513230563e-04 1.954068146700e-03 0.0 
1.954068146700e-03 6.093274383321e-03 0.0 
0.0 0.0 0.0 
4.142059640029e-04 1.859040084657e-03 0.0 
1.859040084657e-03 6.257403804424e-03 0.0 
0.0 0.0 0.0 
7.979994747516e-04 5.487933704254e-04 0.0 
5.487933704254e-04 5.623948942297e-03 0.0 
0.0 0.0 0.0 
4.177883601584e-04 -1.194894822913e-03 0.0 
-1.194894822913e-03 2.197663010262e-03 0.0 
0.0 0.0 0.0 
-3.327133644407e-04 1.789687670049e-03 0.0 
1.789687670049e-03 7.506203093445e-03 0.0 
0.0 0.0 0.0 
1.709213630115e-03 9.394134706831e-05 0.0 
9.394134706831e-05 2.347934126689e-03 0.0 
0.0 0.0 0.0 
-4.775141741273e-04 1.753348114174e-03 0.0 
1.753348114174e-03 7.717185298959e-03 0.0 
0.0 0.0 0.0 
1.078391795497e-03 2.578875426792e-03 0.0 
2.578875426792e-03 2.191948213853e-03 0.0 
0.0 0.0 0.0 
5.817451171828e-04 1.798195548562e-03 0.0 
1.798195548562e-03 6.107419170079e-03 0.0 
0.0 0.0 0.0 
1.832137305281e-03 4.977292715261e-05 0.0 
4.977292715261e-05 1.983578072390e-03 0.0 
0.0 0.0 0.0 
3.889829660553e-04 -4.111416414867e-04 0.0 
-4.111416414867e-04 4.351025474852e-03 0.0 
0.0 0.0 0.0 
-5.188585153649e-04 1.692872198294e-03 0.0 
1.692872198294e-03 7.725449468966e-03 0.0 
0.0 0.0 0.0 
-8.279233223384e-04 3.349800751666e-03 0.0 
3.349800751666e-03 -6.111765127188e-04 0.0 
0.0 0.0 0.0 
1.207017742046e-03 1.565405672838e-03 0.0 
1.565405672838e-03 4.288409855625e-03 0.0 
0.0 0.0 0.0 
-9.277141723636e-04 3.016063781494e-03 0.0 
3.016063781494e-03 1.421942579163e-03 0.0 
0.0 0.0 0.0 
-1.186946866767e-04 -2.870057896082e-04 0.0 
-2.870057896082e-04 1.201432747773e-03 0.0 
0.0 0.0 0.0 
2.703664931478e-04 -4.375764754977e-04 0.0 
-4.375764754977e-04 4.251023956310e-03 0.0 
0.0 0.0 0.0 
-2.833424648299e-04 1.739270471684e-03 0.0 
1.739270471684e-03 8.643835399824e-03 0.0 
0.0 0.0 0.0 
-9.062395614654e-04 7.925844788730e-04 0.0 
7.925844788730e-04 9.488475036105e-03 0.0 
0.0 0.0 0.0 
-1.173027752674e-03 7.311485509797e-04 0.0 
7.311485509797e-04 7.026809160519e-03 0.0 
0.0 0.0 0.0 
0.0 9.599392046631e-04 0.0 
9.599392046631e-04 1.163821265929e-02 0.0 
0.0 0.0 0.0 
-1.532817607268e-03 2.691113576977e-03 0.0 
2.691113576977e-03 2.335077416440e-04 0.0 
0.0 0.0 0.0 
-1.149808362400e-03 6.401762036568e-04 0.0 
6.401762036568e-04 7.281933698493e-03 0.0 
0.0 0.0 0.0 
1.546922048999e-03 2.026978732422e-05 0.0 
2.026978732422e-05 2.934759147258e-03 0.0 
0.0 0.0 0.0 
6.383064230420e-05 -4.473436761514e-04 0.0 
-4.473436761514e-04 4.154132652723e-03 0.0 
0.0 0.0 0.0 
-1.195117805287e-03 9.468116847521e-04 0.0 
9.468116847521e-04 7.805699413805e-03 0.0 
0.0 0.0 0.0 
1.927634076699e-03 -6.830591729022e-04 0.0 
-6.830591729022e-04 5.566335572600e-04 0.0 
0.0 0.0 0.0 
1.199135311694e-03 -2.575123643126e-04 0.0 
-2.575123643126e-04 3.319868201788e-03 0.0 
0.0 0.0 0.0 
1.201868998399e-04 1.911996570316e-03 0.0 
1.911996570316e-03 6.703519199992e-03 0.0 
0.0 0.0 0.0 
1.095481860402e-03 1.516629745929e-03 0.0 
1.516629745929e-03 4.856533287768e-03 0.0 
0.0 0.0 0.0 
-4.221708143410e-04 1.568940501130e-03 0.0 
1.568940501130e-03 9.597514722870e-03 0.0 
0.0 0.0 0.0 
1.534709284451e-03 2.954243179357e-03 0.0 
2.954243179357e-03 -2.100520460939e-03 0.0 
0.0 0.0 0.0 
2.403262737150e-04 -5.355649404716e-04 0.0 
-5.355649404716e-04 3.876419600809e-03 0.0 
0.0 0.0 0.0 
8.718672103836e-05 -3.442664233582e-04 0.0 
-3.442664233582e-04 4.409882384328e-03 0.0 
0.0 0.0 0.0 
-8.986365495356e-05 -1.078527147693e-03 0.0 
-1.078527147693e-03 2.031194463330e-03 0.0 
0.0 0.0 0.0 
-1.019137066301e-03 4.671056720066e-04 0.0 
4.671056720066e-04 8.557205969606e-03 0.0 
0.0 0.0 0.0 
-1.008192484631e-03 8.264104310807e-04 0.0 
8.264104310807e-04 9.484233671832e-03 0.0 
0.0 0.0 0.0 
-6.976868722020e-05 -4.911537327998e-05 0.0 
-4.911537327998e-05 5.714185511353e-03 0.0 
0.0 0.0 0.0 
3.265210672434e-04 -7.505812399756e-05 0.0 
-7.505812399756e-05 6.115983430750e-04 0.0 
0.0 0.0 0.0 
2.618508572929e-04 -6.193026840099e-04 0.0 
-6.193026840099e-04 -4.619681948366e-03 0.0 
0.0 0.0 0.0 
-2.936076985999e-04 -9.316133443511e-04 0.0 
-9.316133443511e-04 1.556931806149e-03 0.0 
0.0 0.0 0.0 
1.066486214341e-05 -3.534705058635e-04 0.0 
-3.534705058635e-04 4.411897128294e-03 0.0 
0.0 0.0 0.0 
2.119880130330e-03 1.152664466678e-04 0.0 
1.152664466678e-04 7.140996867872e-04 0.0 
0.0 0.0 0.0 
1.893469501570e-03 -8.681855729709e-04 0.0 
-8.681855729709e-04 7.679041316400e-05 0.0 
0.0 0.0 0.0 
2.391071851167e-03 -1.406512206002e-04 0.0 
-1.406512206002e-04 -8.530118515018e-04 0.0 
0.0 0.0 0.0 
1.810443059571e-04 -3.532872422235e-04 0.0 
-3.532872422235e-04 4.527876067624e-03 0.0 
0.0 0.0 0.0 
-8.175025807718e-04 1.082075940860e-03 0.0 
1.082075940860e-03 9.508199058309e-03 0.0 
0.0 0.0 0.0 
2.990510511980e-05 -2.593857144591e-04 0.0 
-2.593857144591e-04 4.650404855646e-03 0.0 
0.0 0.0 0.0 
2.210342496956e-03 5.566958330110e-04 0.0 
5.566958330110e-04 6.413651225279e-04 0.0 
0.0 0.0 0.0 
-4.040213349961e-04 1.733983265543e-03 0.0 
1.733983265543e-03 8.007070191045e-03 0.0 
0.0 0.0 0.0 
-8.117470315551e-04 2.406065760104e-04 0.0 
2.406065760104e-04 9.133701204882e-03 0.0 
0.0 0.0 0.0 
7.829434799036e-04 1.595135630888e-03 0.0 
1.595135630888e-03 5.987428618862e-03 0.0 
0.0 0.0 0.0 
-3.097140394392e-05 -2.682905807883e-04 0.0 
-2.682905807883e-04 4.652319406487e-03 0.0 
0.0 0.0 0.0 
8.744182042553e-05 -3.737623305219e-04 0.0 
-3.737623305219e-04 4.532182692613e-03 0.0 
0.0 0.0 0.0 
-1.239568908510e-03 9.776951988040e-04 0.0 
9.776951988040e-04 6.563426719554e-03 0.0 
0.0 0.0 0.0 
1.955249498020e-03 -1.976161616018e-04 0.0 
-1.976161616018e-04 1.028394809226e-03 0.0 
0.0 0.0 0.0 
-1.523314606156e-05 -1.820083799529e-04 0.0 
-1.820083799529e-04 4.875605548089e-03 0.0 
0.0 0.0 0.0 
-5.284131186415e-04 4.494537956904e-05 0.0 
4.494537956904e-05 9.947083899830e-03 0.0 
0.0 0.0 0.0 
-5.719128963569e-04 4.065632926458e-05 0.0 
4.065632926458e-05 9.582154474988e-03 0.0 
0.0 0.0 0.0 
-1.188894324535e-03 8.533469853228e-04 0.0 
8.533469853228e-04 6.800554190108e-03 0.0 
0.0 0.0 0.0 
1.062920743871e-04 -2.742323262628e-04 0.0 
-2.742323262628e-04 4.787578082819e-03 0.0 
0.0 0.0 0.0 
1.310250050731e-03 -1.376761548122e-03 0.0 
-1.376761548122e-03 6.097601085699e-04 0.0 
0.0 0.0 0.0 
-2.943065445029e-04 3.154248237182e-03 0.0 
3.154248237182e-03 1.347625471849e-03 0.0 
0.0 0.0 0.0 
5.153694169771e-04 1.531001313250e-03 0.0 
1.531001313250e-03 7.056789953531e-03 0.0 
0.0 0.0 0.0 
-5.392257791436e-04 -1.237749086693e-03 0.0 
-1.237749086693e-03 1.391616894522e-03 0.0 
0.0 0.0 0.0 
1.389344169454e-03 -1.140940407185e-03 0.0 
-1.140940407185e-03 1.143504104905e-03 0.0 
0.0 0.0 0.0 
1.184821695179e-03 1.582289190456e-03 0.0 
1.582289190456e-03 4.387216434109e-03 0.0 
0.0 0.0 0.0 
-1.009950415604e-03 5.191442628229e-04 0.0 
5.191442628229e-04 7.087646778458e-03 0.0 
0.0 0.0 0.0 
-6.177965664078e-05 -1.920763837330e-04 0.0 
-1.920763837330e-04 4.878828944177e-03 0.0 
0.0 0.0 0.0 
-1.256500240728e-04 -5.328905896585e-05 0.0 
-5.328905896585e-05 2.357476684491e-03 0.0 
0.0 0.0 0.0 
-1.083822943522e-03 4.615283142112e-04 0.0 
4.615283142112e-04 8.757426036852e-03 0.0 
0.0 0.0 0.0 
3.027136998091e-05 -2.934671887350e-04 0.0 
-2.934671887350e-04 4.791518006840e-03 0.0 
0.0 0.0 0.0 
1.465343773191e-03 -3.658302226391e-04 0.0 
-3.658302226391e-04 2.395875303761e-03 0.0 
0.0 0.0 0.0 
2.413417300455e-04 -5.570823729887e-04 0.0 
-5.570823729887e-04 3.962834463626e-03 0.0 
0.0 0.0 0.0 
1.449704240608e-04 2.572984205575e-03 0.0 
2.572984205575e-03 -2.290541322527e-03 0.0 
0.0 0.0 0.0 
-3.483537268815e-04 1.428214107283e-05 0.0 
1.428214107283e-05 1.104115208172e-02 0.0 
0.0 0.0 0.0 
1.589369902906e-03 -7.817967594801e-04 0.0 
-7.817967594801e-04 1.218104461669e-03 0.0 
0.0 0.0 0.0 
8.880875549639e-04 9.730543482897e-04 0.0 
9.730543482897e-04 5.792334175130e-03 0.0 
0.0 0.0 0.0 
5.128863000046e-04 1.806147568318e-03 0.0 
1.806147568318e-03 6.266353922361e-03 0.0 
0.0 0.0 0.0 
4.544903126402e-05 -2.022119469521e-04 0.0 
-2.022119469521e-04 5.030710754913e-03 0.0 
0.0 0.0 0.0 
-1.451321945289e-05 -2.191518019969e-04 0.0 
-2.191518019969e-04 5.034067913752e-03 0.0 
0.0 0.0 0.0 
2.252285617184e-03 8.769718181309e-05 0.0 
8.769718181309e-05 2.442792835788e-04 0.0 
0.0 0.0 0.0 
-7.822868441458e-04 -1.190834007926e-03 0.0 
-1.190834007926e-03 9.780684713399e-04 0.0 
0.0 0.0 0.0 
3.671097535729e-04 2.987493621487e-03 0.0 
2.987493621487e-03 -2.374759914069e-03 0.0 
0.0 0.0 0.0 
-2.674960689730e-06 -1.375409783474e-04 0.0 
-1.375409783474e-04 5.261429751412e-03 0.0 
0.0 0.0 0.0 
8.716452105060e-04 6.814568629426e-04 0.0 
6.814568629426e-04 5.628694328217e-03 0.0 
0.0 0.0 0.0 
7.267316192454e-04 -1.493545904703e-03 0.0 
-1.493545904703e-03 1.295317096131e-03 0.0 
0.0 0.0 0.0 
-2.595035216104e-04 1.774838956449e-03 0.0 
1.774838956449e-03 7.820512157825e-03 0.0 
0.0 0.0 0.0 
-1.046625803441e-03 1.602925119676e-03 0.0 
1.602925119676e-03 6.182491499961e-03 0.0 
0.0 0.0 0.0 
-5.015975319353e-04 1.652990550928e-03 0.0 
1.652990550928e-03 8.474629212212e-03 0.0 
0.0 0.0 0.0 
3.604044364065e-04 3.488364510076e-04 0.0 
3.488364510076e-04 6.790109187477e-03 0.0 
0.0 0.0 0.0 
-4.191677507925e-03 -1.200850336987e-04 0.0 
-1.200850336987e-04 -3.021797985649e-03 0.0 
0.0 0.0 0.0 
0.0 8.933431317093e-05 0.0 
8.933431317093e-05 1.196396162076e-02 0.0 
0.0 0.0 0.0 
0.0 -1.914136271178e-05 0.0 
-1.914136271178e-05 7.612617860710e-03 0.0 
0.0 0.0 0.0 
-6.073335150630e-04 -2.962607374479e-05 0.0 
-2.962607374479e-05 8.925970160560e-03 0.0 
0.0 0.0 0.0 
1.114470782755e-03 -1.097043858988e-03 0.0 
-1.097043858988e-03 1.648900813321e-03 0.0 
0.0 0.0 0.0 
3.323197958316e-04 1.873850131002e-03 0.0 
1.873850131002e-03 6.471382979671e-03 0.0 
0.0 0.0 0.0 
2.220759043246e-03 5.155853952140e-04 0.0 
5.155853952140e-04 4.962179045762e-04 0.0 
0.0 0.0 0.0 
4.210537206628e-05 -2.439441453262e-04 0.0 
-2.439441453262e-04 9.989091496285e-04 0.0 
0.0 0.0 0.0 
-1.800476338551e-03 2.859114170154e-03 0.0 
2.859114170154e-03 9.206215966979e-04 0.0 
0.0 0.0 0.0 
-3.137852979478e-04 2.656806434782e-04 0.0 
2.656806434782e-04 1.132329651069e-02 0.0 
0.0 0.0 0.0 
-9.705746321663e-04 9.751858998937e-04 0.0 
9.751858998937e-04 9.510432604260e-03 0.0 
0.0 0.0 0.0 
-1.091469995899e-03 3.848305096257e-04 0.0 
3.848305096257e-04 8.463771056572e-03 0.0 
0.0 0.0 0.0 
6.192164871610e-05 2.109202761569e-03 0.0 
2.109202761569e-03 9.064454972034e-03 0.0 
0.0 0.0 0.0 
-5.950539282695e-05 -4.230325270495e-05 0.0 
-4.230325270495e-05 1.950720624787e-03 0.0 
0.0 0.0 0.0 
9.528704127426e-05 2.049072797712e-03 0.0 
2.049072797712e-03 8.792723733160e-03 0.0 
0.0 0.0 0.0 
-8.720587086961e-04 9.395170630295e-04 0.0 
9.395170630295e-04 9.515803006379e-03 0.0 
0.0 0.0 0.0 
6.614596841350e-04 -1.156704447855e-03 0.0 
-1.156704447855e-03 2.143887676314e-03 0.0 
0.0 0.0 0.0 
4.204812105222e-04 1.933056263112e-03 0.0 
1.933056263112e-03 5.841218834753e-03 0.0 
0.0 0.0 0.0 
1.137732714448e-03 -1.125373145394e-03 0.0 
-1.125373145394e-03 1.659772604594e-03 0.0 
0.0 0.0 0.0 
-4.463191074601e-04 3.017790369821e-03 0.0 
3.017790369821e-03 2.312511258634e-03 0.0 
0.0 0.0 0.0 
8.222118628318e-04 -1.264112130069e-03 0.0 
-1.264112130069e-03 1.763894917301e-03 0.0 
0.0 0.0 0.0 
-7.432249309527e-04 1.226096049606e-03 0.0 
1.226096049606e-03 9.467380877231e-03 0.0 
0.0 0.0 0.0 
-2.469867375499e-05 -7.804243000533e-05 0.0 
-7.804243000533e-05 6.481854910087e-03 0.0 
0.0 0.0 0.0 
1.665058114260e-03 -8.360653781563e-04 0.0 
-8.360653781563e-04 1.091851189244e-03 0.0 
0.0 0.0 0.0 
-3.488200626135e-04 1.709895262606e-03 0.0 
1.709895262606e-03 8.316227430854e-03 0.0 
0.0 0.0 0.0 
-1.394711609589e-03 -2.534263324137e-04 0.0 
-2.534263324137e-04 -4.479449906694e-03 0.0 
0.0 0.0 0.0 
2.073149865871e-03 -2.452522363896e-04 0.0 
-2.452522363896e-04 6.820154345255e-04 0.0 
0.0 0.0 0.0 
-8.232495935998e-04 1.026249727068e-03 0.0 
1.026249727068e-03 1.008862891816e-02 0.0 
0.0 0.0 0.0 
3.667040634949e-04 -1.151919015016e-03 0.0 
-1.151919015016e-03 2.255690418790e-03 0.0 
0.0 0.0 0.0 
4.042512426123e-04 -1.527635998097e-03 0.0 
-1.527635998097e-03 1.457923362882e-03 0.0 
0.0 0.0 0.0 
5.508519132005e-04 1.877587781267e-03 0.0 
1.877587781267e-03 5.849434999952e-03 0.0 
0.0 0.0 0.0 
1.004904069337e-03 -2.212437121639e-03 0.0 
-2.212437121639e-03 -1.167597809025e-03 0.0 
0.0 0.0 0.0 
-1.388031008617e-03 1.278540630762e-03 0.0 
1.278540630762e-03 6.204867485558e-03 0.0 
0.0 0.0 0.0 
-1.248345596635e-03 1.156049693257e-03 0.0 
1.156049693257e-03 6.326128709956e-03 0.0 
0.0 0.0 0.0 
2.041822785281e-04 -1.265465774916e-03 0.0 
-1.265465774916e-03 1.981670285379e-03 0.0 
0.0 0.0 0.0 
1.376385849274e-03 -1.904592479002e-04 0.0 
-1.904592479002e-04 2.975781122809e-03 0.0 
0.0 0.0 0.0 
1.139431033817e-03 1.850018907478e-03 0.0 
1.850018907478e-03 3.831596694134e-03 0.0 
0.0 0.0 0.0 
-3.383788793958e-04 1.727055199279e-03 0.0 
1.727055199279e-03 8.314234994197e-03 0.0 
0.0 0.0 0.0 
-3.129022946810e-04 1.505893728117e-03 0.0 
1.505893728117e-03 1.030630732373e-02 0.0 
0.0 0.0 0.0 
-9.866203490640e-04 6.608020638604e-04 0.0 
6.608020638604e-04 6.626844991636e-03 0.0 
0.0 0.0 0.0 
-4.746368182044e-04 -3.412540713370e-06 0.0 
-3.412540713370e-06 1.032744015275e-02 0.0 
0.0 0.0 0.0 
-1.113371323216e-04 1.812355058779e-03 0.0 
1.812355058779e-03 9.306233800222e-03 0.0 
0.0 0.0 0.0 
2.361454603445e-03 5.218571511165e-04 0.0 
5.218571511165e-04 -1.239766031859e-04 0.0 
0.0 0.0 0.0 
-7.541463542318e-04 2.924261172735e-03 0.0 
2.924261172735e-03 1.418554825659e-03 0.0 
0.0 0.0 0.0 
-1.180688283152e-03 1.695292859975e-03 0.0 
1.695292859975e-03 6.498225685502e-03 0.0 
0.0 0.0 0.0 
1.272756232961e-03 -4.364666672347e-04 0.0 
-4.364666672347e-04 2.770481206767e-03 0.0 
0.0 0.0 0.0 
-5.380634978301e-04 1.551955350212e-03 0.0 
1.551955350212e-03 8.908668250702e-03 0.0 
0.0 0.0 0.0 
1.478077636671e-03 -2.401066821106e-04 0.0 
-2.401066821106e-04 2.739505723599e-03 0.0 
0.0 0.0 0.0 
1.184212975198e-03 2.739141548046e-03 0.0 
2.739141548046e-03 -1.929835796994e-03 0.0 
0.0 0.0 0.0 
1.269336333817e-03 -3.379914726237e-05 0.0 
-3.379914726237e-05 3.547920108057e-03 0.0 
0.0 0.0 0.0 
-6.487291030665e-04 2.874554233319e-03 0.0 
2.874554233319e-03 3.235318687580e-03 0.0 
0.0 0.0 0.0 
1.283979155775e-03 1.665911584214e-03 0.0 
1.665911584214e-03 3.857149603740e-03 0.0 
0.0 0.0 0.0 
1.380141993771e-03 -7.826919768735e-05 0.0 
-7.826919768735e-05 3.291162952913e-03 0.0 
0.0 0.0 0.0 
6.160555737320e-04 1.856992888088e-03 0.0 
1.856992888088e-03 5.645688929931e-03 0.0 
0.0 0.0 0.0 
-5.683627264758e-04 6.041122744741e-05 0.0 
6.041122744741e-05 9.856268610301e-03 0.0 
0.0 0.0 0.0 
6.485640054121e-05 -1.243129525374e-03 0.0 
-1.243129525374e-03 1.979268706847e-03 0.0 
0.0 0.0 0.0 
-8.395012270457e-05 3.209023944707e-03 0.0 
3.209023944707e-03 3.111143969170e-04 0.0 
0.0 0.0 0.0 
1.265384594721e-03 6.848729201392e-05 0.0 
6.848729201392e-05 3.851359667294e-03 0.0 
0.0 0.0 0.0 
-7.089629749292e-04 2.590774292489e-03 0.0 
2.590774292489e-03 4.051279466440e-03 0.0 
0.0 0.0 0.0 
4.851808294577e-04 8.377813712799e-04 0.0 
8.377813712799e-04 -4.772479790975e-03 0.0 
0.0 0.0 0.0 
-2.199620824611e-04 6.823206462315e-05 0.0 
6.823206462315e-05 1.138085055625e-02 0.0 
0.0 0.0 0.0 
-3.201436778096e-04 6.283055510138e-05 0.0 
6.283055510138e-05 1.104306246213e-02 0.0 
0.0 0.0 0.0 
-4.331923930694e-04 -3.250913269279e-04 0.0 
-3.250913269279e-04 5.751342781759e-04 0.0 
0.0 0.0 0.0 
1.146075813200e-03 1.105818011060e-04 0.0 
1.105818011060e-04 4.123837843151e-03 0.0 
0.0 0.0 0.0 
-2.085023124863e-04 -1.044585830800e-03 0.0 
-1.044585830800e-03 1.785582421191e-03 0.0 
0.0 0.0 0.0 
-2.095916346496e-04 -9.578302362089e-04 0.0 
-9.578302362089e-04 2.028850831136e-03 0.0 
0.0 0.0 0.0 
-2.718709264959e-04 1.736675012730e-03 0.0 
1.736675012730e-03 8.643989586706e-03 0.0 
0.0 0.0 0.0 
7.300500889833e-04 1.765926784685e-03 0.0 
1.765926784685e-03 5.657525707439e-03 0.0 
0.0 0.0 0.0 
-1.955340598356e-04 1.778310096232e-03 0.0 
1.778310096232e-03 8.153655941684e-03 0.0 
0.0 0.0 0.0 
1.832192570426e-03 -6.270763745853e-04 0.0 
-6.270763745853e-04 7.542971060275e-04 0.0 
0.0 0.0 0.0 
-6.683138918936e-04 2.115484005515e-05 0.0 
2.115484005515e-05 8.488428110299e-03 0.0 
0.0 0.0 0.0 
1.545524009414e-04 2.137522168331e-04 0.0 
2.137522168331e-04 6.822560907218e-03 0.0 
0.0 0.0 0.0 
-3.415145035085e-04 -8.906153002097e-04 0.0 
-8.906153002097e-04 1.756174695686e-03 0.0 
0.0 0.0 0.0 
9.214546029055e-04 9.457415309026e-04 0.0 
9.457415309026e-04 5.596784697571e-03 0.0 
0.0 0.0 0.0 
1.033003165943e-03 1.780811374452e-03 0.0 
1.780811374452e-03 4.538748101966e-03 0.0 
0.0 0.0 0.0 
7.357804105546e-06 -1.106003537141e-04 0.0 
-1.106003537141e-04 1.444963799942e-03 0.0 
0.0 0.0 0.0 
-6.596055583998e-04 1.424676888610e-03 0.0 
1.424676888610e-03 9.024614598067e-03 0.0 
0.0 0.0 0.0 
2.112934469406e-03 1.931724599563e-04 0.0 
1.931724599563e-04 9.598015041403e-04 0.0 
0.0 0.0 0.0 
-7.286592212797e-04 -1.257917443085e-03 0.0 
-1.257917443085e-03 7.861987580380e-04 0.0 
0.0 0.0 0.0 
2.181446034337e-03 -4.192463474824e-04 0.0 
-4.192463474824e-04 9.932582828887e-06 0.0 
0.0 0.0 0.0 
-7.719468412049e-05 9.120690079412e-06 0.0 
9.120690079412e-06 5.550409131366e-03 0.0 
0.0 0.0 0.0 
-8.238714405987e-04 1.268505806227e-03 0.0 
1.268505806227e-03 9.458564130451e-03 0.0 
0.0 0.0 0.0 
-4.249385710878e-04 -1.266268641507e-03 0.0 
-1.266268641507e-03 1.122323676355e-03 0.0 
0.0 0.0 0.0 
-1.300672021278e-04 -9.752651614838e-05 0.0 
-9.752651614838e-05 4.499697570401e-03 0.0 
0.0 0.0 0.0 
-4.092350643375e-04 1.656527019150e-03 0.0 
1.656527019150e-03 8.780964729417e-03 0.0 
0.0 0.0 0.0 
6.382044468878e-04 1.596352898263e-03 0.0 
1.596352898263e-03 6.558797205771e-03 0.0 
0.0 0.0 0.0 
5.026477143542e-04 -1.311081669890e-03 0.0 
-1.311081669890e-03 1.878501086522e-03 0.0 
0.0 0.0 0.0 
-1.422462612402e-04 -8.073929718044e-05 0.0 
-8.073929718044e-05 2.356871234858e-03 0.0 
0.0 0.0 0.0 
1.072107603941e-03 1.750170790070e-03 0.0 
1.750170790070e-03 4.364568890442e-03 0.0 
0.0 0.0 0.0 
-5.469422623872e-04 -3.003035678086e-05 0.0 
-3.003035678086e-05 9.735294503601e-03 0.0 
0.0 0.0 0.0 
-6.024196144155e-04 -1.772042667451e-03 0.0 
-1.772042667451e-03 3.842339106124e-04 0.0 
0.0 0.0 0.0 
-8.191387375434e-05 1.998038363828e-03 0.0 
1.998038363828e-03 9.412289829894e-03 0.0 
0.0 0.0 0.0 
-1.913908577924e-04 1.391415920793e-03 0.0 
1.391415920793e-03 1.085849182252e-02 0.0 
0.0 0.0 0.0 
-5.914455403175e-04 -1.657261847492e-05 0.0 
-1.657261847492e-05 9.173897559194e-03 0.0 
0.0 0.0 0.0 
-3.342551789697e-04 6.853416855624e-04 0.0 
6.853416855624e-04 1.143956480981e-02 0.0 
0.0 0.0 0.0 
-1.561128031530e-04 1.607510260374e-03 0.0 
1.607510260374e-03 1.052135189104e-02 0.0 
0.0 0.0 0.0 
1.855605449449e-03 -4.741516510652e-04 0.0 
-4.741516510652e-04 1.160319505347e-03 0.0 
0.0 0.0 0.0 
1.352360074744e-03 -1.101286473803e-03 0.0 
-1.101286473803e-03 1.142959259520e-03 0.0 
0.0 0.0 0.0 
4.847037112425e-04 1.244931590361e-03 0.0 
1.244931590361e-03 7.091786581273e-03 0.0 
0.0 0.0 0.0 
-1.175571406917e-03 3.554406825999e-04 0.0 
3.554406825999e-04 -4.365294711652e-03 0.0 
0.0 0.0 0.0 
-1.032221165268e-04 -1.347360437746e-05 0.0 
-1.347360437746e-05 2.143047874140e-03 0.0 
0.0 0.0 0.0 
-1.183448792585e-04 -3.336782617738e-05 0.0 
-3.336782617738e-05 4.606100046242e-03 0.0 
0.0 0.0 0.0 
2.859769509558e-04 -1.338723340137e-03 0.0 
-1.338723340137e-03 1.885212531487e-03 0.0 
0.0 0.0 0.0 
1.672370864519e-03 -1.084256668582e-03 0.0 
-1.084256668582e-03 5.702356794035e-04 0.0 
0.0 0.0 0.0 
-1.673990004263e-03 1.764413839001e-03 0.0 
1.764413839001e-03 5.579502294662e-03 0.0 
0.0 0.0 0.0 
-1.493770948656e-03 1.723987418996e-03 0.0 
1.723987418996e-03 5.729475777921e-03 0.0 
0.0 0.0 0.0 
-8.129410246349e-04 1.592090592560e-04 0.0 
1.592090592560e-04 9.199359689089e-03 0.0 
0.0 0.0 0.0 
2.065732908994e-03 -3.716785985250e-04 0.0 
-3.716785985250e-04 3.220436786961e-04 0.0 
0.0 0.0 0.0 
-1.754663969834e-04 -2.481664936428e-04 0.0 
-2.481664936428e-04 2.501587748381e-03 0.0 
0.0 0.0 0.0 
5.239352601438e-04 1.762794637678e-03 0.0 
1.762794637678e-03 6.587903144070e-03 0.0 
0.0 0.0 0.0 
9.059197693384e-05 6.430738000227e-05 0.0 
6.430738000227e-05 7.403364263471e-03 0.0 
0.0 0.0 0.0 
1.119696294349e-04 1.195848071660e-04 0.0 
1.195848071660e-04 7.333589131892e-03 0.0 
0.0 0.0 0.0 
1.410493634694e-03 -9.020735988567e-04 0.0 
-9.020735988567e-04 1.610488930464e-03 0.0 
0.0 0.0 0.0 
-8.582705750240e-04 2.024439130216e-04 0.0 
2.024439130216e-04 8.863939247440e-03 0.0 
0.0 0.0 0.0 
-1.337238084353e-03 -1.507404476641e-05 0.0 
-1.507404476641e-05 -3.876580482522e-03 0.0 
0.0 0.0 0.0 
-1.694806594244e-03 2.401386295591e-03 0.0 
2.401386295591e-03 3.994250125387e-03 0.0 
0.0 0.0 0.0 
9.919475577584e-04 -2.603391258531e-03 0.0 
-2.603391258531e-03 -1.936633026751e-03 0.0 
0.0 0.0 0.0 
-1.728188709674e-03 2.219279565556e-03 0.0 
2.219279565556e-03 4.818018338355e-03 0.0 
0.0 0.0 0.0 
9.540737080489e-04 1.690078417378e-03 0.0 
1.690078417378e-03 5.025004562916e-03 0.0 
0.0 0.0 0.0 
1.047884653001e-03 -1.359595194982e-03 0.0 
-1.359595194982e-03 1.277307833089e-03 0.0 
0.0 0.0 0.0 
1.615965230959e-03 -1.033784287271e-03 0.0 
-1.033784287271e-03 6.144297602790e-04 0.0 
0.0 0.0 0.0 
6.839955391980e-04 -2.653437334132e-03 0.0 
-2.653437334132e-03 -3.154070667237e-03 0.0 
0.0 0.0 0.0 
-2.799033235326e-04 8.257459404170e-05 0.0 
8.257459404170e-05 1.110764051907e-02 0.0 
0.0 0.0 0.0 
1.058362973298e-03 -1.347390226416e-03 0.0 
-1.347390226416e-03 1.175078302655e-03 0.0 
0.0 0.0 0.0 
-2.573353651972e-04 3.052736189220e-04 0.0 
3.052736189220e-04 1.131681028622e-02 0.0 
0.0 0.0 0.0 
-3.892096156592e-04 8.982410025434e-05 0.0 
8.982410025434e-05 1.081568263078e-02 0.0 
0.0 0.0 0.0 
-1.071481788597e-04 1.324979802955e-04 0.0 
1.324979802955e-04 1.195047358209e-02 0.0 
0.0 0.0 0.0 
-1.244480244078e-05 -2.326554428032e-05 0.0 
-2.326554428032e-05 7.611450094062e-03 0.0 
0.0 0.0 0.0 
-6.004733566718e-04 3.295738313958e-05 0.0 
3.295738313958e-05 9.185403993125e-03 0.0 
0.0 0.0 0.0 
8.405413569179e-04 -1.266372554273e-03 0.0 
-1.266372554273e-03 1.685842226012e-03 0.0 
0.0 0.0 0.0 
-9.642118932968e-04 8.307793213869e-04 0.0 
8.307793213869e-04 6.159723650677e-03 0.0 
0.0 0.0 0.0 
9.186158765002e-04 -1.060718132839e-03 0.0 
-1.060718132839e-03 2.125999292053e-03 0.0 
0.0 0.0 0.0 
0.0 1.620726568920e-05 0.0 
1.620726568920e-05 7.467178875405e-03 0.0 
0.0 0.0 0.0 
-1.656631683576e-03 2.600856097894e-03 0.0 
2.600856097894e-03 2.421794700265e-03 0.0 
0.0 0.0 0.0 
-1.648510113681e-03 2.496571389458e-03 0.0 
2.496571389458e-03 3.215545108692e-03 0.0 
0.0 0.0 0.0 
8.023404222739e-04 1.132224922283e-03 0.0 
1.132224922283e-03 6.063340780839e-03 0.0 
0.0 0.0 0.0 
-7.667379539856e-04 1.194916037934e-04 0.0 
1.194916037934e-04 8.870664019109e-03 0.0 
0.0 0.0 0.0 
-2.359932079109e-04 2.107384138797e-04 0.0 
2.107384138797e-04 1.136446581594e-02 0.0 
0.0 0.0 0.0 
-4.265955108467e-04 1.667557337705e-03 0.0 
1.667557337705e-03 8.780288421650e-03 0.0 
0.0 0.0 0.0 
5.057171408516e-04 1.688235447776e-03 0.0 
1.688235447776e-03 7.033057393197e-03 0.0 
0.0 0.0 0.0 
-6.202431275182e-04 1.475866055723e-03 0.0 
1.475866055723e-03 9.668008668327e-03 0.0 
0.0 0.0 0.0 
-6.069254721460e-04 8.253261222372e-05 0.0 
8.253261222372e-05 9.267843959105e-03 0.0 
0.0 0.0 0.0 
1.187495169639e-04 -1.451077710904e-03 0.0 
-1.451077710904e-03 1.623591023685e-03 0.0 
0.0 0.0 0.0 
3.091867089784e-04 -1.457301109007e-03 0.0 
-1.457301109007e-03 1.623588762404e-03 0.0 
0.0 0.0 0.0 
-4.930540361838e-04 7.300071181834e-05 0.0 
7.300071181834e-05 1.012880748699e-02 0.0 
0.0 0.0 0.0 
4.541664661477e-04 1.667656041161e-03 0.0 
1.667656041161e-03 7.080362593179e-03 0.0 
0.0 0.0 0.0 
-9.663226372740e-04 2.531806280923e-04 0.0 
2.531806280923e-04 8.493247568891e-03 0.0 
0.0 0.0 0.0 
-6.223732080500e-04 1.417660778178e-05 0.0 
1.417660778178e-05 8.830160352529e-03 0.0 
0.0 0.0 0.0 
-6.158267589028e-04 2.058459544649e-05 0.0 
2.058459544649e-05 9.166699483105e-03 0.0 
0.0 0.0 0.0 
-6.508499009169e-04 2.719256969096e-05 0.0 
2.719256969096e-05 9.288949520993e-03 0.0 
0.0 0.0 0.0 
1.976784204778e-03 -1.373361041388e-03 0.0 
-1.373361041388e-03 -3.365061258063e-03 0.0 
0.0 0.0 0.0 
-2.575275598105e-06 -1.336517864086e-03 0.0 
-1.336517864086e-03 1.758261785950e-03 0.0 
0.0 0.0 0.0 
-2.217965321623e-04 4.224254236589e-04 0.0 
4.224254236589e-04 1.163406512911e-02 0.0 
0.0 0.0 0.0 
-6.163758649972e-04 6.323299539360e-05 0.0 
6.323299539360e-05 9.682071905510e-03 0.0 
0.0 0.0 0.0 
2.765756847793e-04 1.588733808273e-03 0.0 
1.588733808273e-03 7.616031392842e-03 0.0 
0.0 0.0 0.0 
-4.561072664486e-04 1.563021206746e-03 0.0 
1.563021206746e-03 1.028693054246e-02 0.0 
0.0 0.0 0.0 
-7.033819241634e-04 1.469407357085e-03 0.0 
1.469407357085e-03 9.016677861242e-03 0.0 
0.0 0.0 0.0 
-4.327217701589e-04 7.181919187307e-04 0.0 
7.181919187307e-04 1.120353588785e-02 0.0 
0.0 0.0 0.0 
-1.244886238336e-04 -3.395393285355e-04 0.0 
-3.395393285355e-04 3.406099419404e-03 0.0 
0.0 0.0 0.0 
-1.659250266285e-04 -3.634279939512e-04 0.0 
-3.634279939512e-04 3.103309635020e-03 0.0 
0.0 0.0 0.0 
3.308049104251e-04 2.120456400076e-04 0.0 
2.120456400076e-04 6.400406592300e-03 0.0 
0.0 0.0 0.0 
3.501746821573e-04 -1.695566422724e-03 0.0 
-1.695566422724e-03 -3.670972884118e-03 0.0 
0.0 0.0 0.0 
-9.375339980444e-05 -9.316938144770e-05 0.0 
-9.316938144770e-05 2.252680201983e-03 0.0 
0.0 0.0 0.0 
0.0 1.976835118876e-03 0.0 
1.976835118876e-03 8.921964852322e-03 0.0 
0.0 0.0 0.0 
1.605291681677e-04 -2.022669797925e-05 0.0 
-2.022669797925e-05 1.007869977811e-03 0.0 
0.0 0.0 0.0 
-6.135594123114e-04 1.983672891326e-05 0.0 
1.983672891326e-05 8.833793209564e-03 0.0 
0.0 0.0 0.0 
6.799463439884e-04 9.320607449042e-04 0.0 
9.320607449042e-04 6.419719691668e-03 0.0 
0.0 0.0 0.0 
-2.211703179593e-04 -3.608438080554e-04 0.0 
-3.608438080554e-04 7.051738281394e-04 0.0 
0.0 0.0 0.0 
4.253213401049e-04 -7.995886704512e-05 0.0 
-7.995886704512e-05 1.961953265837e-04 0.0 
0.0 0.0 0.0 
-1.452059384063e-04 6.183497665441e-04 0.0 
6.183497665441e-04 1.182971511464e-02 0.0 
0.0 0.0 0.0 
-7.272912836334e-04 4.972099537858e-05 0.0 
4.972099537858e-05 8.504332147854e-03 0.0 
0.0 0.0 0.0 
-2.363219009521e-04 5.748980628200e-04 0.0 
5.748980628200e-04 1.152789304447e-02 0.0 
0.0 0.0 0.0 
5.040138976569e-04 1.096483008951e-03 0.0 
1.096483008951e-03 6.532852412850e-03 0.0 
0.0 0.0 0.0 
-7.183682801488e-04 2.008234733984e-05 0.0 
2.008234733984e-05 8.496102625231e-03 0.0 
0.0 0.0 0.0 
-1.179870800011e-03 5.817690076119e-04 0.0 
5.817690076119e-04 -3.805974460896e-03 0.0 
0.0 0.0 0.0 
-1.140777196683e-04 8.884126298162e-05 0.0 
8.884126298162e-05 1.167550530146e-02 0.0 
0.0 0.0 0.0 
-9.174789833977e-06 -2.374245727414e-04 0.0 
-2.374245727414e-04 1.198856662326e-03 0.0 
0.0 0.0 0.0 
-2.505014052868e-04 4.746647655823e-04 0.0 
4.746647655823e-04 1.136886963993e-02 0.0 
0.0 0.0 0.0 
0.0 -1.451230127303e-05 0.0 
-1.451230127303e-05 7.519268353503e-03 0.0 
0.0 0.0 0.0 
-4.369060711967e-04 1.320324473212e-03 0.0 
1.320324473212e-03 1.063951484930e-02 0.0 
0.0 0.0 0.0 
2.316436233533e-03 -1.261279172566e-03 0.0 
-1.261279172566e-03 -3.085409379431e-03 0.0 
0.0 0.0 0.0 
-9.050482685224e-04 3.468201221107e-04 0.0 
3.468201221107e-04 9.156361373267e-03 0.0 
0.0 0.0 0.0 
-1.734954598506e-04 -2.280971063263e-04 0.0 
-2.280971063263e-04 3.472483136928e-03 0.0 
0.0 0.0 0.0 
5.602180386446e-04 1.660260695347e-03 0.0 
1.660260695347e-03 6.595522534668e-03 0.0 
0.0 0.0 0.0 
1.807381733898e-04 1.718825349645e-03 0.0 
1.718825349645e-03 8.107127035747e-03 0.0 
0.0 0.0 0.0 
-4.420924166916e-04 8.098145572070e-05 0.0 
8.098145572070e-05 1.053212622696e-02 0.0 
0.0 0.0 0.0 
2.310447080842e-04 1.582381100114e-03 0.0 
1.582381100114e-03 7.860419284651e-03 0.0 
0.0 0.0 0.0 
1.354622512470e-03 -1.252032812407e-03 0.0 
-1.252032812407e-03 -4.138990489312e-03 0.0 
0.0 0.0 0.0 
8.756186622305e-05 -1.381047242040e-05 0.0 
-1.381047242040e-05 7.095211249353e-03 0.0 
0.0 0.0 0.0 
1.763865871146e-03 -1.916998653320e-03 0.0 
-1.916998653320e-03 -1.747521656083e-03 0.0 
0.0 0.0 0.0 
9.733079922225e-05 -8.174711958792e-05 0.0 
-8.174711958792e-05 1.035501936888e-03 0.0 
0.0 0.0 0.0 
4.346028081619e-04 7.417421660722e-04 0.0 
7.417421660722e-04 6.836457950091e-03 0.0 
0.0 0.0 0.0 
-3.430116291633e-04 1.024829707429e-03 0.0 
1.024829707429e-03 1.133425251091e-02 0.0 
0.0 0.0 0.0 
-1.997615785214e-04 6.265743892087e-04 0.0 
6.265743892087e-04 1.160718284624e-02 0.0 
0.0 0.0 0.0 
-6.531812646700e-04 7.461788060856e-05 0.0 
7.461788060856e-05 8.823448233274e-03 0.0 
0.0 0.0 0.0 
-9.687364069488e-04 5.418518920601e-04 0.0 
5.418518920601e-04 9.117990572865e-03 0.0 
0.0 0.0 0.0 
-5.273600459107e-04 3.076608920242e-03 0.0 
3.076608920242e-03 2.315401468790e-03 0.0 
0.0 0.0 0.0 
-3.020884130748e-04 1.703061222961e-03 0.0 
1.703061222961e-03 1.046407135108e-02 0.0 
0.0 0.0 0.0 
-1.777208325575e-04 -1.758380312475e-04 0.0 
-1.758380312475e-04 2.955567626986e-03 0.0 
0.0 0.0 0.0 
5.078756841745e-04 2.855032730795e-03 0.0 
2.855032730795e-03 -9.677353520580e-04 0.0 
0.0 0.0 0.0 
6.136641134624e-04 1.693954421279e-03 0.0 
1.693954421279e-03 6.546017197764e-03 0.0 
0.0 0.0 0.0 
-6.528013943415e-04 9.574026983660e-06 0.0 
9.574026983660e-06 8.465195246637e-03 0.0 
0.0 0.0 0.0 
-3.215880265577e-04 1.002289240309e-03 0.0 
1.002289240309e-03 1.110313900537e-02 0.0 
0.0 0.0 0.0 
-8.766030062524e-05 -2.073250563701e-05 0.0 
-2.073250563701e-05 1.193977223729e-02 0.0 
0.0 0.0 0.0 
0.0 4.383015031251e-05 0.0 
4.383015031251e-05 1.198123724856e-02 0.0 
0.0 0.0 0.0 
7.408297128986e-04 3.103884419904e-05 0.0 
3.103884419904e-05 -1.895639055166e-04 0.0 
0.0 0.0 0.0 
6.015736644076e-04 -2.931677515753e-05 0.0 
-2.931677515753e-05 -1.710190957387e-04 0.0 
0.0 0.0 0.0 
-6.149779525985e-04 -2.633704186826e-05 0.0 
-2.633704186826e-05 8.508785840904e-03 0.0 
0.0 0.0 0.0 
-6.270397106768e-04 4.898837607289e-06 0.0 
4.898837607289e-06 8.458375840032e-03 0.0 
0.0 0.0 0.0 
0.0 -7.997147959531e-06 0.0 
-7.997147959531e-06 7.629226877983e-03 0.0 
0.0 0.0 0.0 
-1.599429591903e-05 2.483849167267e-05 0.0 
2.483849167267e-05 7.579549894637e-03 0.0 
0.0 0.0 0.0 
5.345595624286e-04 1.315518772760e-05 0.0 
1.315518772760e-05 1.024836949008e-04 0.0 
0.0 0.0 0.0 
-1.152525571537e-03 -4.054908923774e-04 0.0 
-4.054908923774e-04 -4.610029314830e-03 0.0 
0.0 0.0 0.0 
2.926013337889e-05 -2.317296036343e-05 0.0 
-2.317296036343e-05 6.839234394565e-03 0.0 
0.0 0.0 0.0 
1.911390541742e-04 1.922986401336e-03 0.0 
1.922986401336e-03 8.134287420492e-03 0.0 
0.0 0.0 0.0 
2.848355173413e-05 -2.313863288558e-04 0.0 
-2.313863288558e-04 1.379561703998e-03 0.0 
0.0 0.0 0.0 
1.444591594240e-04 6.870559782412e-06 0.0 
6.870559782412e-06 6.705829441343e-03 0.0 
0.0 0.0 0.0 
-1.020973824527e-04 -3.665862174071e-05 0.0 
-3.665862174071e-05 4.913574654557e-03 0.0 
0.0 0.0 0.0 
-1.560266758091e-04 -6.404162568415e-05 0.0 
-6.404162568415e-05 4.240640233621e-03 0.0 
0.0 0.0 0.0 
-5.789831610166e-04 9.214156753907e-05 0.0 
9.214156753907e-05 9.876185980953e-03 0.0 
0.0 0.0 0.0 
1.200717433258e-05 -2.334434328353e-03 0.0 
-2.334434328353e-03 -2.035023615160e-04 0.0 
0.0 0.0 0.0 
6.523495796691e-04 1.701038519528e-03 0.0 
1.701038519528e-03 6.119642845328e-03 0.0 
0.0 0.0 0.0 
7.696185977957e-05 -2.182277251127e-04 0.0 
-2.182277251127e-04 1.055262543499e-03 0.0 
0.0 0.0 0.0 
-1.171105983618e-04 -2.852302349274e-04 0.0 
-2.852302349274e-04 3.788711458752e-03 0.0 
0.0 0.0 0.0 
-2.531784712151e-04 1.615721235109e-03 0.0 
1.615721235109e-03 1.018878621422e-02 0.0 
0.0 0.0 0.0 
-2.826253133793e-04 -2.524219202673e-05 0.0 
-2.524219202673e-05 1.124183705209e-02 0.0 
0.0 0.0 0.0 
-1.323385058736e-04 -6.349032962585e-05 0.0 
-6.349032962585e-05 4.238638788866e-03 0.0 
0.0 0.0 0.0 
-5.969952238749e-04 3.702068949457e-06 0.0 
3.702068949457e-06 9.461788480165e-03 0.0 
0.0 0.0 0.0 
-5.179850188364e-05 1.955840830954e-03 0.0 
1.955840830954e-03 8.923796635719e-03 0.0 
0.0 0.0 0.0 
-5.139581618604e-04 1.577940227249e-03 0.0 
1.577940227249e-03 9.596690254306e-03 0.0 
0.0 0.0 0.0 
-6.112805485370e-04 1.520707855755e-03 0.0 
1.520707855755e-03 9.300788057971e-03 0.0 
0.0 0.0 0.0 
-6.858784046713e-04 2.285532165584e-05 0.0 
2.285532165584e-05 8.494280220876e-03 0.0 
0.0 0.0 0.0 
8.601655415172e-04 1.628325764478e-03 0.0 
1.628325764478e-03 5.526472913199e-03 0.0 
0.0 0.0 0.0 
-3.358889568792e-04 1.164060147796e-03 0.0 
1.164060147796e-03 1.089145460992e-02 0.0 
0.0 0.0 0.0 
-1.467772499312e-04 -1.622930023613e-04 0.0 
-1.622930023613e-04 2.264813332480e-03 0.0 
0.0 0.0 0.0 
1.696910577520e-05 -2.579251363539e-04 0.0 
-2.579251363539e-04 3.292043808494e-04 0.0 
0.0 0.0 0.0 
-1.273925959182e-04 1.812038868372e-03 0.0 
1.812038868372e-03 8.835816608397e-03 0.0 
0.0 0.0 0.0 
9.561793068433e-04 1.067447286568e-03 0.0 
1.067447286568e-03 5.588622257245e-03 0.0 
0.0 0.0 0.0 
9.200487686511e-05 -2.276360548330e-03 0.0 
-2.276360548330e-03 -5.722878634180e-04 0.0 
0.0 0.0 0.0 
-5.305470140907e-04 2.894094897874e-05 0.0 
2.894094897874e-05 1.015203678598e-02 0.0 
0.0 0.0 0.0 
6.019062019025e-06 -3.427954250478e-05 0.0 
-3.427954250478e-05 7.169803815708e-03 0.0 
0.0 0.0 0.0 
9.310606980972e-05 1.835599115193e-03 0.0 
1.835599115193e-03 8.189587680357e-03 0.0 
0.0 0.0 0.0 
3.323319185555e-05 1.944425110394e-03 0.0 
1.944425110394e-03 8.629404830539e-03 0.0 
0.0 0.0 0.0 
-8.496746448239e-05 -5.719218775391e-05 0.0 
-5.719218775391e-05 5.299998841630e-03 0.0 
0.0 0.0 0.0 
3.076853303596e-04 2.471435428156e-03 0.0 
2.471435428156e-03 -3.665409839033e-03 0.0 
0.0 0.0 0.0 
-1.102942621049e-03 1.212937305240e-03 0.0 
1.212937305240e-03 5.529275347242e-03 0.0 
0.0 0.0 0.0 
-8.068965438872e-04 2.751309919595e-03 0.0 
2.751309919595e-03 4.057586019084e-03 0.0 
0.0 0.0 0.0 
-9.136303970029e-04 3.632750188235e-04 0.0 
3.632750188235e-04 9.176510627197e-03 0.0 
0.0 0.0 0.0 
7.813065818338e-04 1.754205855485e-03 0.0 
1.754205855485e-03 5.511593459914e-03 0.0 
0.0 0.0 0.0 
-2.615163292918e-04 3.275378305173e-04 0.0 
3.275378305173e-04 1.143469554895e-02 0.0 
0.0 0.0 0.0 
2.982534873848e-04 1.264563520442e-03 0.0 
1.264563520442e-03 7.107322440193e-03 0.0 
0.0 0.0 0.0 
-8.005674955288e-04 -1.647656481833e-03 0.0 
-1.647656481833e-03 3.061578983585e-04 0.0 
0.0 0.0 0.0 
-4.535104110653e-04 -7.294539950115e-04 0.0 
-7.294539950115e-04 6.732739208815e-04 0.0 
0.0 0.0 0.0 
-1.386640532612e-03 2.196958868109e-03 0.0 
2.196958868109e-03 3.975873678474e-03 0.0 
0.0 0.0 0.0 
-4.850212998723e-04 1.438697904733e-04 0.0 
1.438697904733e-04 1.026283797036e-02 0.0 
0.0 0.0 0.0 
-1.616336235433e-04 -3.073033118279e-04 0.0 
-3.073033118279e-04 2.711613812231e-03 0.0 
0.0 0.0 0.0 
-3.671336781057e-04 8.180868435417e-04 0.0 
8.180868435417e-04 1.126471781890e-02 0.0 
0.0 0.0 0.0 
1.033239282413e-04 -1.239324100047e-04 0.0 
-1.239324100047e-04 1.295955727129e-03 0.0 
0.0 0.0 0.0 
5.637816503998e-04 1.234720078666e-03 0.0 
1.234720078666e-03 6.590448332491e-03 0.0 
0.0 0.0 0.0 
-7.358866034799e-04 1.822344999970e-04 0.0 
1.822344999970e-04 9.193351897095e-03 0.0 
0.0 0.0 0.0 
1.519466728701e-04 1.777487867598e-03 0.0 
1.777487867598e-03 8.118789263221e-03 0.0 
0.0 0.0 0.0 
3.846540638786e-04 1.736267126158e-03 0.0 
1.736267126158e-03 7.146675829211e-03 0.0 
0.0 0.0 0.0 
-9.814674943091e-04 4.213741721798e-04 0.0 
4.213741721798e-04 9.159312580419e-03 0.0 
0.0 0.0 0.0 
3.856260225295e-04 4.653837148108e-04 0.0 
4.653837148108e-04 6.797869238102e-03 0.0 
0.0 0.0 0.0 
-2.953863738533e-04 9.558763398276e-04 0.0 
9.558763398276e-04 1.140093366524e-02 0.0 
0.0 0.0 0.0 
-1.836837843034e-04 9.221088720538e-05 0.0 
9.221088720538e-05 1.169324782250e-02 0.0 
0.0 0.0 0.0 
-1.310852186527e-03 2.431934939250e-03 0.0 
2.431934939250e-03 2.412854226756e-03 0.0 
0.0 0.0 0.0 
-3.384873708349e-04 7.402279413712e-04 0.0 
7.402279413712e-04 1.120173172892e-02 0.0 
0.0 0.0 0.0 
-5.968957348135e-05 1.879230086353e-03 0.0 
1.879230086353e-03 9.548010830255e-03 0.0 
0.0 0.0 0.0 
6.615527663665e-04 1.204239307386e-03 0.0 
1.204239307386e-03 6.598840093070e-03 0.0 
0.0 0.0 0.0 
4.668747763177e-04 1.755212710480e-03 0.0 
1.755212710480e-03 7.059976335901e-03 0.0 
0.0 0.0 0.0 
0.0 1.114944333646e-04 0.0 
1.114944333646e-04 7.378993833379e-03 0.0 
0.0 0.0 0.0 
-5.436285941479e-04 1.499347421063e-03 0.0 
1.499347421063e-03 9.303392969535e-03 0.0 
0.0 0.0 0.0 
-1.301050840622e-03 1.740783547524e-03 0.0 
1.740783547524e-03 -2.483729247267e-03 0.0 
0.0 0.0 0.0 
-2.324222830130e-05 3.177193663859e-03 0.0 
3.177193663859e-03 3.099583603328e-04 0.0 
0.0 0.0 0.0 
-4.929888025179e-04 1.557834400855e-03 0.0 
1.557834400855e-03 9.947710402925e-03 0.0 
0.0 0.0 0.0 
-8.494593773833e-04 4.129156765439e-04 0.0 
4.129156765439e-04 9.461690322253e-03 0.0 
0.0 0.0 0.0 
-1.831851013367e-05 -6.218950700197e-05 0.0 
-6.218950700197e-05 6.891834177947e-03 0.0 
0.0 0.0 0.0 
2.958701266251e-04 1.746015213926e-03 0.0 
1.746015213926e-03 7.589712451035e-03 0.0 
0.0 0.0 0.0 
9.032937326547e-05 5.316801181710e-05 0.0 
5.316801181710e-05 7.030076830109e-03 0.0 
0.0 0.0 0.0 
-4.203250147691e-04 1.658150479375e-04 0.0 
1.658150479375e-04 1.065446724465e-02 0.0 
0.0 0.0 0.0 
1.585561970572e-04 1.692799810990e-03 0.0 
1.692799810990e-03 7.889271320785e-03 0.0 
0.0 0.0 0.0 
3.801503228937e-04 3.191129655665e-04 0.0 
3.191129655665e-04 6.415381543732e-03 0.0 
0.0 0.0 0.0 
4.332845115365e-04 4.060486962634e-04 0.0 
4.060486962634e-04 6.407378378726e-03 0.0 
0.0 0.0 0.0 
-1.683693118411e-04 -2.125451576177e-04 0.0 
-2.125451576177e-04 2.837365776805e-03 0.0 
0.0 0.0 0.0 
7.644306091370e-05 1.582630406021e-05 0.0 
1.582630406021e-05 7.452174890634e-03 0.0 
0.0 0.0 0.0 
-8.462443349508e-04 1.810778322035e-04 0.0 
1.810778322035e-04 8.828384428983e-03 0.0 
0.0 0.0 0.0 
-2.689712863864e-04 1.631782141831e-04 0.0 
1.631782141831e-04 1.137044408059e-02 0.0 
0.0 0.0 0.0 
-5.740775231384e-04 -8.562075976011e-04 0.0 
-8.562075976011e-04 8.723202743794e-04 0.0 
0.0 0.0 0.0 
-3.435371294958e-04 7.016703367416e-05 0.0 
7.016703367416e-05 1.111473559583e-02 0.0 
0.0 0.0 0.0 
-5.352382346174e-04 7.671528864935e-05 0.0 
7.671528864935e-05 1.018128931865e-02 0.0 
0.0 0.0 0.0 
3.457057628360e-04 1.079175919681e-05 0.0 
1.079175919681e-05 6.076323783932e-04 0.0 
0.0 0.0 0.0 
2.251415382248e-03 -1.528593237331e-03 0.0 
-1.528593237331e-03 -3.703218748979e-03 0.0 
0.0 0.0 0.0 
-4.323434449066e-04 1.610051172808e-03 0.0 
1.610051172808e-03 9.213176111660e-03 0.0 
0.0 0.0 0.0 
-1.488723278350e-04 4.916894316549e-04 0.0 
4.916894316549e-04 1.160614847734e-02 0.0 
0.0 0.0 0.0 
-2.503729566106e-04 7.032754727212e-05 0.0 
7.032754727212e-05 1.142297526181e-02 0.0 
0.0 0.0 0.0 
3.901546514562e-04 1.720141497285e-03 0.0 
1.720141497285e-03 7.579500982728e-03 0.0 
0.0 0.0 0.0 
-6.112362656956e-04 1.222948339123e-04 0.0 
1.222948339123e-04 9.466510745524e-03 0.0 
0.0 0.0 0.0 
2.780266638138e-04 -7.889224534551e-05 0.0 
-7.889224534551e-05 2.368473534176e-04 0.0 
0.0 0.0 0.0 
9.108263453088e-04 1.900989998588e-03 0.0 
1.900989998588e-03 -4.077267612795e-03 0.0 
0.0 0.0 0.0 
-2.023847706878e-05 -1.426034405426e-04 0.0 
-1.426034405426e-04 4.329743541867e-04 0.0 
0.0 0.0 0.0 
-4.637635006968e-04 -9.420535953488e-04 0.0 
-9.420535953488e-04 9.740628024468e-04 0.0 
0.0 0.0 0.0 
-1.276068677257e-03 3.303384577161e-03 0.0 
3.303384577161e-03 -1.845803029368e-03 0.0 
0.0 0.0 0.0 
-1.491220995248e-04 -2.441810539467e-04 0.0 
-2.441810539467e-04 3.737089606650e-03 0.0 
0.0 0.0 0.0 
-8.432342739617e-07 -1.195884400585e-05 0.0 
-1.195884400585e-05 6.890764330076e-03 0.0 
0.0 0.0 0.0 
-3.709731812486e-04 1.357131933156e-03 0.0 
1.357131933156e-03 1.064440201715e-02 0.0 
0.0 0.0 0.0 
-1.023504660954e-03 5.598656189686e-04 0.0 
5.598656189686e-04 9.356981573585e-03 0.0 
0.0 0.0 0.0 
-1.330998091619e-04 -4.229327439059e-04 0.0 
-4.229327439059e-04 3.207363402286e-03 0.0 
0.0 0.0 0.0 
3.216544205422e-04 1.394406648611e-04 0.0 
1.394406648611e-04 6.425507239471e-03 0.0 
0.0 0.0 0.0 
7.035658698997e-04 7.888817762893e-04 0.0 
7.888817762893e-04 6.218662990099e-03 0.0 
0.0 0.0 0.0 
2.351121989115e-04 1.920164681706e-03 0.0 
1.920164681706e-03 8.226333077929e-03 0.0 
0.0 0.0 0.0 
-8.685926320140e-05 1.823104833373e-03 0.0 
1.823104833373e-03 9.118910494468e-03 0.0 
0.0 0.0 0.0 
-3.269374264430e-04 1.674602215164e-03 0.0 
1.674602215164e-03 9.524168988114e-03 0.0 
0.0 0.0 0.0 
-5.743358492766e-04 -6.604717298671e-04 0.0 
-6.604717298671e-04 8.492568766318e-04 0.0 
0.0 0.0 0.0 
6.984652838766e-04 -1.547623492143e-03 0.0 
-1.547623492143e-03 -4.119139291854e-03 0.0 
0.0 0.0 0.0 
1.554526235514e-05 -6.988079675290e-05 0.0 
-6.988079675290e-05 6.854676942220e-03 0.0 
0.0 0.0 0.0 
2.335093170773e-04 -1.951459961727e-05 0.0 
-1.951459961727e-05 6.344485362004e-04 0.0 
0.0 0.0 0.0 
2.374456846006e-04 7.945653608600e-06 0.0 
7.945653608600e-06 7.943238882930e-04 0.0 
0.0 0.0 0.0 
-6.367015564147e-04 3.080043362254e-03 0.0 
3.080043362254e-03 -5.605752500882e-04 0.0 
0.0 0.0 0.0 
1.429461979230e-06 -2.295120616048e-04 0.0 
-2.295120616048e-04 7.091666017680e-04 0.0 
0.0 0.0 0.0 
1.913534560176e-04 4.075884589472e-04 0.0 
4.075884589472e-04 6.806791986104e-03 0.0 
0.0 0.0 0.0 
-1.485493126333e-04 1.763875570050e-03 0.0 
1.763875570050e-03 1.013167998268e-02 0.0 
0.0 0.0 0.0 
-2.315358803634e-04 3.645931773835e-04 0.0 
3.645931773835e-04 1.143680602129e-02 0.0 
0.0 0.0 0.0 
9.702824870650e-05 1.849918308341e-03 0.0 
1.849918308341e-03 8.400675053073e-03 0.0 
0.0 0.0 0.0 
7.153309110719e-04 7.365826188032e-04 0.0 
7.365826188032e-04 5.942417751957e-03 0.0 
0.0 0.0 0.0 
-5.801808345566e-04 1.282372769995e-04 0.0 
1.282372769995e-04 9.688003216132e-03 0.0 
0.0 0.0 0.0 
0.0 6.692761343962e-04 0.0 
6.692761343962e-04 1.182439422337e-02 0.0 
0.0 0.0 0.0 
1.220865782025e-03 -2.409422558306e-03 0.0 
-2.409422558306e-03 -1.764199737324e-03 0.0 
0.0 0.0 0.0 
-7.079531007926e-04 3.408875834108e-05 0.0 
3.408875834108e-05 8.469960558678e-03 0.0 
0.0 0.0 0.0 
-6.443712514098e-04 -2.351464295972e-03 0.0 
-2.351464295972e-03 -2.476229417769e-05 0.0 
0.0 0.0 0.0 
2.183529564066e-04 -4.637347378766e-05 0.0 
-4.637347378766e-05 2.773388397639e-04 0.0 
0.0 0.0 0.0 
3.298811218433e-05 -2.764088918099e-05 0.0 
-2.764088918099e-05 7.524480681098e-03 0.0 
0.0 0.0 0.0 
-9.875317269319e-04 3.529101460984e-04 0.0 
3.529101460984e-04 8.807677495447e-03 0.0 
0.0 0.0 0.0 
2.039166364911e-04 -1.027188321337e-04 0.0 
-1.027188321337e-04 9.594511386899e-04 0.0 
0.0 0.0 0.0 
-1.657033365438e-04 -1.606855282812e-04 0.0 
-1.606855282812e-04 3.643599262604e-03 0.0 
0.0 0.0 0.0 
-2.274605725623e-04 1.819541726366e-03 0.0 
1.819541726366e-03 1.024151077680e-02 0.0 
0.0 0.0 0.0 
-3.223595767310e-04 4.500417151254e-04 0.0 
4.500417151254e-04 1.137826960431e-02 0.0 
0.0 0.0 0.0 
-1.867945723645e-04 1.053431526650e-03 0.0 
1.053431526650e-03 1.129900806739e-02 0.0 
0.0 0.0 0.0 
-1.487127454173e-04 -1.190581347819e-04 0.0 
-1.190581347819e-04 2.621154500033e-03 0.0 
0.0 0.0 0.0 
9.805172399731e-04 2.574411389632e-04 0.0 
2.574411389632e-04 -4.555690892896e-03 0.0 
0.0 0.0 0.0 
1.588136103263e-04 5.475467086784e-05 0.0 
5.475467086784e-05 6.981392138278e-03 0.0 
0.0 0.0 0.0 
-9.272384066039e-05 6.960042837610e-05 0.0 
6.960042837610e-05 1.197479473481e-02 0.0 
0.0 0.0 0.0 
-2.180544295283e-05 -2.011237230909e-05 0.0 
-2.011237230909e-05 7.623279293629e-03 0.0 
0.0 0.0 0.0 
-6.121543250086e-04 2.445383688336e-05 0.0 
2.445383688336e-05 8.765236520272e-03 0.0 
0.0 0.0 0.0 
4.942114352433e-04 8.269927751197e-04 0.0 
8.269927751197e-04 6.363412766188e-03 0.0 
0.0 0.0 0.0 
9.312662234340e-05 -1.123883487590e-04 0.0 
-1.123883487590e-04 1.053802589092e-03 0.0 
0.0 0.0 0.0 
-3.055502165616e-04 8.413612686288e-04 0.0 
8.413612686288e-04 1.126649682387e-02 0.0 
0.0 0.0 0.0 
1.906962825884e-04 -5.989946810697e-05 0.0 
-5.989946810697e-05 2.824153170871e-04 0.0 
0.0 0.0 0.0 
2.261617626964e-04 6.605740184004e-04 0.0 
6.605740184004e-04 6.834399932521e-03 0.0 
0.0 0.0 0.0 
-3.178067228391e-04 1.162286241032e-03 0.0 
1.162286241032e-03 1.120862130948e-02 0.0 
0.0 0.0 0.0 
5.841665977546e-04 1.143437288265e-03 0.0 
1.143437288265e-03 -4.779111964153e-03 0.0 
0.0 0.0 0.0 
9.566808493511e-05 1.844167640097e-03 0.0 
1.844167640097e-03 8.186393207058e-03 0.0 
0.0 0.0 0.0 
-4.685769977595e-04 6.926264598383e-05 0.0 
6.926264598383e-05 1.046638403253e-02 0.0 
0.0 0.0 0.0 
-1.175218231609e-04 3.626659946227e-04 0.0 
3.626659946227e-04 1.166496131687e-02 0.0 
0.0 0.0 0.0 
0.0 1.586946279024e-03 0.0 
1.586946279024e-03 8.011486837671e-03 0.0 
0.0 0.0 0.0 
-5.306925686444e-04 -1.863160949966e-05 0.0 
-1.863160949966e-05 9.946320849069e-03 0.0 
0.0 0.0 0.0 
-1.367039669776e-04 1.704185466279e-03 0.0 
1.704185466279e-03 1.035931834188e-02 0.0 
0.0 0.0 0.0 
-4.153437571400e-04 9.983446925034e-04 0.0 
9.983446925034e-04 1.110735661593e-02 0.0 
0.0 0.0 0.0 
-4.813739165735e-04 6.568760524264e-05 0.0 
6.568760524264e-05 1.017853143553e-02 0.0 
0.0 0.0 0.0 
-2.460023652340e-04 1.665019969947e-03 0.0 
1.665019969947e-03 1.005525640613e-02 0.0 
0.0 0.0 0.0 
-1.698702057716e-04 -2.210132681072e-04 0.0 
-2.210132681072e-04 3.114806122913e-03 0.0 
0.0 0.0 0.0 
-6.497725228444e-04 4.631768872752e-06 0.0 
4.631768872752e-06 8.468427810871e-03 0.0 
0.0 0.0 0.0 
2.256128915661e-04 1.867112785310e-03 0.0 
1.867112785310e-03 8.063298395030e-03 0.0 
0.0 0.0 0.0 
-1.214143575066e-04 6.402074813587e-05 0.0 
6.402074813587e-05 1.172861555695e-02 0.0 
0.0 0.0 0.0 
5.379971305368e-04 8.390165073022e-06 0.0 
8.390165073022e-06 -1.458095083509e-04 0.0 
0.0 0.0 0.0 
-6.197812645723e-04 1.013422572552e-05 0.0 
1.013422572552e-05 8.461235962745e-03 0.0 
0.0 0.0 0.0 
-2.336458020924e-05 -2.813853957113e-05 0.0 
-2.813853957113e-05 7.345090563528e-03 0.0 
0.0 0.0 0.0 
-1.033435871473e-04 -2.776565158602e-04 0.0 
-2.776565158602e-04 1.405908140555e-03 0.0 
0.0 0.0 0.0 
6.947734956886e-04 1.084170375633e-03 0.0 
1.084170375633e-03 6.501397907863e-03 0.0 
0.0 0.0 0.0 
-4.726127952579e-04 1.182315536428e-03 0.0 
1.182315536428e-03 1.089043163176e-02 0.0 
0.0 0.0 0.0 
-2.199451939432e-04 3.107800240048e-04 0.0 
3.107800240048e-04 1.164686387818e-02 0.0 
0.0 0.0 0.0 
3.174736119727e-05 -1.596029634443e-04 0.0 
-1.596029634443e-04 1.308617113276e-03 0.0 
0.0 0.0 0.0 
3.574301288072e-04 3.420031208273e-03 0.0 
3.420031208273e-03 -1.793076798854e-03 0.0 
0.0 0.0 0.0 
-1.450764955663e-04 2.077857029046e-05 0.0 
2.077857029046e-05 4.418017319376e-03 0.0 
0.0 0.0 0.0 
-3.759923999676e-04 8.567618104658e-05 0.0 
8.567618104658e-05 1.085995163190e-02 0.0 
0.0 0.0 0.0 
-4.426846781893e-03 -3.327218973654e-04 0.0 
-3.327218973654e-04 -2.691998318583e-03 0.0 
0.0 0.0 0.0 
-1.619042126109e-04 8.657704962139e-04 0.0 
8.657704962139e-04 1.146070858816e-02 0.0 
0.0 0.0 0.0 
-5.266448486611e-04 5.015372261104e-05 0.0 
5.015372261104e-05 9.830688408052e-03 0.0 
0.0 0.0 0.0 
-1.648691329335e-04 -2.309777176886e-03 0.0 
-2.309777176886e-03 -2.000083988288e-04 0.0 
0.0 0.0 0.0 
-5.803618995686e-04 6.984696946975e-05 0.0 
6.984696946975e-05 9.560441248769e-03 0.0 
0.0 0.0 0.0 
1.224717006023e-04 1.959190952275e-03 0.0 
1.959190952275e-03 8.556577258926e-03 0.0 
0.0 0.0 0.0 
-1.312271830279e-04 -6.439220035270e-05 0.0 
-6.439220035270e-05 4.610601910192e-03 0.0 
0.0 0.0 0.0 
-1.984849602749e-03 3.250724889027e-03 0.0 
3.250724889027e-03 2.312838196823e-04 0.0 
0.0 0.0 0.0 
-1.827676084064e-04 -2.499466717924e-04 0.0 
-2.499466717924e-04 2.848814077635e-03 0.0 
0.0 0.0 0.0 
-1.123940184855e-04 -2.242132892975e-04 0.0 
-2.242132892975e-04 4.030778683169e-03 0.0 
0.0 0.0 0.0 
-1.146287669749e-04 2.919909841553e-05 0.0 
2.919909841553e-05 4.788988931327e-03 0.0 
0.0 0.0 0.0 
3.527440043074e-04 1.668169406488e-03 0.0 
1.668169406488e-03 7.520504807102e-03 0.0 
0.0 0.0 0.0 
-1.534777745742e-04 -1.386896817425e-04 0.0 
-1.386896817425e-04 3.948708523976e-03 0.0 
0.0 0.0 0.0 
-1.231413318525e-04 -1.389262901637e-04 0.0 
-1.389262901637e-04 4.196190671800e-03 0.0 
0.0 0.0 0.0 
-1.461404786296e-05 -1.953939070078e-04 0.0 
-1.953939070078e-04 6.324853167086e-04 0.0 
0.0 0.0 0.0 
1.745155775967e-04 5.672020458070e-05 0.0 
5.672020458070e-05 6.716430932447e-03 0.0 
0.0 0.0 0.0 
-1.028254503441e-04 1.845502952834e-03 0.0 
1.845502952834e-03 8.839283752484e-03 0.0 
0.0 0.0 0.0 
9.435272360723e-04 3.080841516622e-03 0.0 
3.080841516622e-03 -2.101803851721e-03 0.0 
0.0 0.0 0.0 
-9.561711319728e-05 4.204488652834e-05 0.0 
4.204488652834e-05 1.171759920041e-02 0.0 
0.0 0.0 0.0 
-2.252345832721e-05 9.719596647223e-06 0.0 
9.719596647223e-06 7.333823078723e-03 0.0 
0.0 0.0 0.0 
-6.189918300593e-04 -1.711545506964e-05 0.0 
-1.711545506964e-05 8.787339685820e-03 0.0 
0.0 0.0 0.0 
-5.543170563557e-04 4.219781171536e-05 0.0 
4.219781171536e-05 9.828733081025e-03 0.0 
0.0 0.0 0.0 
-1.478863634573e-04 -1.580804761050e-04 0.0 
-1.580804761050e-04 3.950854081022e-03 0.0 
0.0 0.0 0.0 
-1.316758711642e-04 -1.905433775083e-04 0.0 
-1.905433775083e-04 4.015510555803e-03 0.0 
0.0 0.0 0.0 
-1.538185613840e-04 -1.166439369935e-04 0.0 
-1.166439369935e-04 4.184521660589e-03 0.0 
0.0 0.0 0.0 
7.437196960969e-04 1.117678616875e-03 0.0 
1.117678616875e-03 6.151998509489e-03 0.0 
0.0 0.0 0.0 
-4.366094718964e-04 -1.923510842370e-03 0.0 
-1.923510842370e-03 4.940270157512e-04 0.0 
0.0 0.0 0.0 
-1.717618450076e-04 1.881443652965e-03 0.0 
1.881443652965e-03 9.276811986829e-03 0.0 
0.0 0.0 0.0 
-5.935451945527e-04 3.635550097223e-05 0.0 
3.635550097223e-05 9.146655617383e-03 0.0 
0.0 0.0 0.0 
-3.076421111126e-04 8.091516973657e-04 0.0 
8.091516973657e-04 1.146924016872e-02 0.0 
0.0 0.0 0.0 
6.794168131514e-04 1.009161314951e-03 0.0 
1.009161314951e-03 6.138740776964e-03 0.0 
0.0 0.0 0.0 
-6.132234499960e-04 5.980942629944e-05 0.0 
5.980942629944e-05 9.567090757399e-03 0.0 
0.0 0.0 0.0 
-3.251894771895e-04 1.634299729542e-03 0.0 
1.634299729542e-03 9.855840547295e-03 0.0 
0.0 0.0 0.0 
3.540492719172e-04 1.696639886197e-03 0.0 
1.696639886197e-03 7.510358911022e-03 0.0 
0.0 0.0 0.0 
2.816702803086e-04 1.836040375352e-03 0.0 
1.836040375352e-03 7.994848304747e-03 0.0 
0.0 0.0 0.0 
-6.845248376812e-04 3.194852670391e-03 0.0 
3.194852670391e-03 -1.857928511918e-03 0.0 
0.0 0.0 0.0 
-3.944543820306e-04 1.639046059315e-03 0.0 
1.639046059315e-03 9.855527120610e-03 0.0 
0.0 0.0 0.0 
-2.685757950227e-04 1.784547009608e-03 0.0 
1.784547009608e-03 9.850493766557e-03 0.0 
0.0 0.0 0.0 
2.077859716456e-04 -1.539555082099e-04 0.0 
-1.539555082099e-04 5.932430440327e-04 0.0 
0.0 0.0 0.0 
-1.518709293190e-04 -2.042273101719e-04 0.0 
-2.042273101719e-04 3.745631667237e-03 0.0 
0.0 0.0 0.0 
-1.111411270259e-03 3.211552442081e-03 0.0 
3.211552442081e-03 -1.824034925650e-03 0.0 
0.0 0.0 0.0 
-3.731291318737e-04 1.687789671344e-03 0.0 
1.687789671344e-03 1.015367432293e-02 0.0 
0.0 0.0 0.0 
-5.623920451430e-04 -8.921986547442e-07 0.0 
-8.921986547442e-07 5.949042693252e-03 0.0 
0.0 0.0 0.0 
-5.274633370946e-04 9.281756089262e-06 0.0 
9.281756089262e-06 5.897622018590e-03 0.0 
0.0 0.0 0.0 
-5.513495862516e-04 -2.970718080802e-06 0.0 
-2.970718080802e-06 5.896601739644e-03 0.0 
0.0 0.0 0.0 
-5.239147099183e-04 -1.225578420718e-05 0.0 
-1.225578420718e-05 5.889987673129e-03 0.0 
0.0 0.0 0.0 
-5.432373976642e-04 -1.338332672730e-05 0.0 
-1.338332672730e-05 5.889922787710e-03 0.0 
0.0 0.0 0.0 
-5.195746717618e-04 -2.224579316483e-05 0.0 
-2.224579316483e-05 5.886380028648e-03 0.0 
0.0 0.0 0.0 
-5.351430550323e-04 -2.146398261610e-05 0.0 
-2.146398261610e-05 5.886633715044e-03 0.0 
0.0 0.0 0.0 
-5.092921215044e-04 -3.030309902767e-05 0.0 
-3.030309902767e-05 5.881853813269e-03 0.0 
0.0 0.0 0.0 
-5.256164016529e-04 -2.772404109086e-05 0.0 
-2.772404109086e-05 5.882607345242e-03 0.0 
0.0 0.0 0.0 
-4.937382551887e-04 -3.762474434393e-05 0.0 
-3.762474434393e-05 5.875721501021e-03 0.0 
0.0 0.0 0.0 
-5.141145000653e-04 -3.289634953846e-05 0.0 
-3.289634953846e-05 5.877301661110e-03 0.0 
0.0 0.0 0.0 
-4.733897154516e-04 -4.451962985057e-05 0.0 
-4.451962985057e-05 5.867737356933e-03 0.0 
0.0 0.0 0.0 
-5.004559326864e-04 -3.735553702843e-05 0.0 
-3.735553702843e-05 5.870544502690e-03 0.0 
0.0 0.0 0.0 
-4.484933647902e-04 -5.108402678898e-05 0.0 
-5.108402678898e-05 5.857766077435e-03 0.0 
0.0 0.0 0.0 
-4.846448409711e-04 -4.115072833141e-05 0.0 
-4.115072833141e-05 5.862314566159e-03 0.0 
0.0 0.0 0.0 
-4.191292739555e-04 -5.723076522377e-05 0.0 
-5.723076522377e-05 5.845795489759e-03 0.0 
0.0 0.0 0.0 
-4.669448555381e-04 -4.421841703109e-05 0.0 
-4.421841703109e-05 5.852717647799e-03 0.0 
0.0 0.0 0.0 
-3.853364419779e-04 -6.279604341159e-05 0.0 
-6.279604341159e-05 5.831812446758e-03 0.0 
0.0 0.0 0.0 
-7.139793414512e-04 5.555942458293e-04 0.0 
5.555942458293e-04 5.810304327904e-03 0.0 
0.0 0.0 0.0 
-4.477201736089e-04 -4.641553890004e-05 0.0 
-4.641553890004e-05 5.841882596717e-03 0.0 
0.0 0.0 0.0 
-3.471826353403e-04 -6.754839479386e-05 0.0 
-6.754839479386e-05 5.815837847946e-03 0.0 
0.0 0.0 0.0 
-4.274941343134e-04 -4.754196947889e-05 0.0 
-4.754196947889e-05 5.829998620060e-03 0.0 
0.0 0.0 0.0 
-2.753053422836e-04 2.841310231050e-04 0.0 
2.841310231050e-04 5.526799442135e-03 0.0 
0.0 0.0 0.0 
-3.048449250860e-04 -7.116957512679e-05 0.0 
-7.116957512679e-05 5.797921429417e-03 0.0 
0.0 0.0 0.0 
-9.050252559337e-04 4.550351436369e-04 0.0 
4.550351436369e-04 5.958624908717e-03 0.0 
0.0 0.0 0.0 
-4.069688948799e-04 -4.730297144301e-05 0.0 
-4.730297144301e-05 5.817323405843e-03 0.0 
0.0 0.0 0.0 
-2.586787459007e-04 -7.322820919162e-05 0.0 
-7.322820919162e-05 5.778202918871e-03 0.0 
0.0 0.0 0.0 
-3.872082803889e-04 -4.507865832052e-05 0.0 
-4.507865832052e-05 5.804378889651e-03 0.0 
0.0 0.0 0.0 
-2.092155710400e-04 -7.306981447282e-05 0.0 
-7.306981447282e-05 5.757186748507e-03 0.0 
0.0 0.0 0.0 
-3.701653326257e-04 -4.063010048988e-05 0.0 
-4.063010048988e-05 5.791841051380e-03 0.0 
0.0 0.0 0.0 
-1.576688797497e-04 -7.007208943606e-05 0.0 
-7.007208943606e-05 5.735016600180e-03 0.0 
0.0 0.0 0.0 
-3.579355829471e-04 -3.283748220805e-05 0.0 
-3.283748220805e-05 5.780594939591e-03 0.0 
0.0 0.0 0.0 
-1.057811004433e-04 -6.307348848125e-05 0.0 
-6.307348848125e-05 5.712784137635e-03 0.0 
0.0 0.0 0.0 
-1.340618056963e-03 1.021872227785e-03 0.0 
1.021872227785e-03 6.177951458272e-03 0.0 
0.0 0.0 0.0 
-3.542320813121e-04 -2.189795133254e-05 0.0 
-2.189795133254e-05 5.771486331296e-03 0.0 
0.0 0.0 0.0 
-5.699039421336e-05 -5.101711779365e-05 0.0 
-5.101711779365e-05 5.690063683502e-03 0.0 
0.0 0.0 0.0 
-3.622688211833e-04 -3.703530448108e-06 0.0 
-3.703530448108e-06 5.766729050233e-03 0.0 
0.0 0.0 0.0 
-1.492881472021e-05 -3.070097440982e-05 0.0 
-3.070097440982e-05 5.670902420071e-03 0.0 
0.0 0.0 0.0 
1.254158518438e-05 6.658275085057e-08 0.0 
6.658275085057e-08 5.650506741324e-03 0.0 
0.0 0.0 0.0 
-3.916451928879e-04 1.902497014237e-05 0.0 
1.902497014237e-05 5.767500846680e-03 0.0 
0.0 0.0 0.0 
1.564330455883e-05 5.231681958304e-05 0.0 
5.231681958304e-05 5.642822455723e-03 0.0 
0.0 0.0 0.0 
-4.440800892604e-04 6.157750253795e-05 0.0 
6.157750253795e-05 5.779222011769e-03 0.0 
0.0 0.0 0.0 
-2.881361579798e-05 1.365532511032e-04 0.0 
1.365532511032e-04 5.621598590091e-03 0.0 
0.0 0.0 0.0 
-1.653955068665e-04 3.008276257747e-04 0.0 
3.008276257747e-04 5.641943994396e-03 0.0 
0.0 0.0 0.0 
-5.458259739131e-04 1.120702266489e-04 0.0 
1.120702266489e-04 5.800919799953e-03 0.0 
0.0 0.0 0.0 
-6.384252290513e-04 2.354409548032e-04 0.0 
2.354409548032e-04 5.838937798500e-03 0.0 
0.0 0.0 0.0 
-1.174550325605e-03 4.272522051168e-04 0.0 
4.272522051168e-04 6.234970932081e-03 0.0 
0.0 0.0 0.0 
-5.685575408887e-04 -5.526412320042e-05 0.0 
-5.526412320042e-05 5.897314054441e-03 0.0 
0.0 0.0 0.0 
-5.991753075447e-04 6.324678824912e-05 0.0 
6.324678824912e-05 5.951848728251e-03 0.0 
0.0 0.0 0.0 
-6.020854475379e-04 -1.092180496540e-06 0.0 
-1.092180496540e-06 5.823411487414e-03 0.0 
0.0 0.0 0.0 
-5.655827311178e-04 1.043993062864e-05 0.0 
1.043993062864e-05 6.023018588026e-03 0.0 
0.0 0.0 0.0 
-1.363971342090e-03 1.057950084363e-03 0.0 
1.057950084363e-03 5.651628306956e-03 0.0 
0.0 0.0 0.0 
-5.623920451430e-04 -2.337095781732e-05 0.0 
-2.337095781732e-05 6.295882855188e-03 0.0 
0.0 0.0 0.0 
-5.758346791639e-04 -8.736247495730e-06 0.0 
-8.736247495730e-06 6.336178813055e-03 0.0 
0.0 0.0 0.0 
-5.513495862516e-04 -1.518654713769e-05 0.0 
-1.518654713769e-05 6.336693423056e-03 0.0 
0.0 0.0 0.0 
-5.717490493922e-04 -2.538699592840e-05 0.0 
-2.538699592840e-05 6.335448447599e-03 0.0 
0.0 0.0 0.0 
-5.432373976642e-04 -2.261050496493e-05 0.0 
-2.261050496493e-05 6.334965027764e-03 0.0 
0.0 0.0 0.0 
-5.675983769192e-04 -3.539963069048e-05 0.0 
-3.539963069048e-05 6.331919463304e-03 0.0 
0.0 0.0 0.0 
-5.351430550323e-04 -3.174414341069e-05 0.0 
-3.174414341069e-05 6.331038317526e-03 0.0 
0.0 0.0 0.0 
-5.637857628730e-04 -4.577602560021e-05 0.0 
-4.577602560021e-05 6.328779400826e-03 0.0 
0.0 0.0 0.0 
-5.256164016529e-04 -4.043559484331e-05 0.0 
-4.043559484331e-05 6.327167476358e-03 0.0 
0.0 0.0 0.0 
-5.600078649096e-04 -5.621148480135e-05 0.0 
-5.621148480135e-05 6.325736033149e-03 0.0 
0.0 0.0 0.0 
-5.141145000653e-04 -4.836480971955e-05 0.0 
-4.836480971955e-05 6.322908279947e-03 0.0 
0.0 0.0 0.0 
-5.560556265397e-04 -6.642594468822e-05 0.0 
-6.642594468822e-05 6.322430539449e-03 0.0 
0.0 0.0 0.0 
-5.004559326864e-04 -5.551064578347e-05 0.0 
-5.551064578347e-05 6.317820975420e-03 0.0 
0.0 0.0 0.0 
-5.517180037818e-04 -7.622070139262e-05 0.0 
-7.622070139262e-05 6.318586606924e-03 0.0 
0.0 0.0 0.0 
-4.846448409711e-04 -6.170534376569e-05 0.0 
-6.170534376569e-05 6.311509108993e-03 0.0 
0.0 0.0 0.0 
-5.471596343225e-04 -8.514064379127e-05 0.0 
-8.514064379127e-05 6.314254378759e-03 0.0 
0.0 0.0 0.0 
-4.669448555381e-04 -6.673568625981e-05 0.0 
-6.673568625981e-05 6.303981835329e-03 0.0 
0.0 0.0 0.0 
-8.282776846088e-04 5.511088119843e-04 0.0 
5.511088119843e-04 6.230409097051e-03 0.0 
0.0 0.0 0.0 
-5.428814715400e-04 -9.286516246793e-05 0.0 
-9.286516246793e-05 6.309592907708e-03 0.0 
0.0 0.0 0.0 
-4.477201736089e-04 -7.027618802791e-05 0.0 
-7.027618802791e-05 6.295274388686e-03 0.0 
0.0 0.0 0.0 
-9.346095666662e-04 4.155729174031e-04 0.0 
4.155729174031e-04 6.376320112324e-03 0.0 
0.0 0.0 0.0 
-5.395472002782e-04 -9.892134983740e-05 0.0 
-9.892134983740e-05 6.304844656488e-03 0.0 
0.0 0.0 0.0 
-4.274941343134e-04 -7.188402437634e-05 0.0 
-7.188402437634e-05 6.285506190365e-03 0.0 
0.0 0.0 0.0 
-5.378260131437e-04 -1.026962134678e-04 0.0 
-1.026962134678e-04 6.300233564883e-03 0.0 
0.0 0.0 0.0 
-4.069688948799e-04 -7.084077142866e-05 0.0 
-7.084077142866e-05 6.274708123953e-03 0.0 
0.0 0.0 0.0 
-5.386585193470e-04 -1.031929453376e-04 0.0 
-1.031929453376e-04 6.296063890063e-03 0.0 
0.0 0.0 0.0 
-6.384252290513e-04 4.675107048346e-04 0.0 
4.675107048346e-04 6.028776375489e-03 0.0 
0.0 0.0 0.0 
-3.872082803889e-04 -6.590071753694e-05 0.0 
-6.590071753694e-05 6.262889695924e-03 0.0 
0.0 0.0 0.0 
-5.432965744245e-04 -9.843922346445e-05 0.0 
-9.843922346445e-05 6.293154843219e-03 0.0 
0.0 0.0 0.0 
-3.701653326257e-04 -5.568693615241e-05 0.0 
-5.568693615241e-05 6.251094980546e-03 0.0 
0.0 0.0 0.0 
-5.552459055845e-04 -8.745983487954e-05 0.0 
-8.745983487954e-05 6.292326607898e-03 0.0 
0.0 0.0 0.0 
-3.579355829471e-04 -3.817433976508e-05 0.0 
-3.817433976508e-05 6.239203353729e-03 0.0 
0.0 0.0 0.0 
-5.748754526012e-04 -6.664402100599e-05 0.0 
-6.664402100599e-05 6.294340198008e-03 0.0 
0.0 0.0 0.0 
-3.542320813121e-04 -1.091567694847e-05 0.0 
-1.091567694847e-05 6.228878560259e-03 0.0 
0.0 0.0 0.0 
-6.094501557385e-04 -3.526935962098e-05 0.0 
-3.526935962098e-05 6.299607660093e-03 0.0 
0.0 0.0 0.0 
-3.622688211833e-04 3.126064978718e-05 0.0 
3.126064978718e-05 6.216673661803e-03 0.0 
0.0 0.0 0.0 
-6.542333722781e-04 1.893944743338e-05 0.0 
1.893944743338e-05 6.309849838935e-03 0.0 
0.0 0.0 0.0 
-1.062463023648e-03 7.606153249927e-04 0.0 
7.606153249927e-04 6.393656053039e-03 0.0 
0.0 0.0 0.0 
-7.303635223884e-04 8.882514469560e-05 0.0 
8.882514469560e-05 6.323139290326e-03 0.0 
0.0 0.0 0.0 
-3.916451928879e-04 9.317198003039e-05 0.0 
9.317198003039e-05 6.211547549664e-03 0.0 
0.0 0.0 0.0 
-7.883011058564e-04 2.201181125786e-04 0.0 
2.201181125786e-04 6.334505605687e-03 0.0 
0.0 0.0 0.0 
-4.440800892604e-04 1.901166286913e-04 0.0 
1.901166286913e-04 6.190622355837e-03 0.0 
0.0 0.0 0.0 
-5.458259739131e-04 3.425978825667e-04 0.0 
3.425978825667e-04 6.182164948998e-03 0.0 
0.0 0.0 0.0 
-9.874448536799e-04 5.176492075278e-04 0.0 
5.176492075278e-04 6.327522899563e-03 0.0 
0.0 0.0 0.0 
-5.855350315285e-04 -6.186580505060e-05 0.0 
-6.186580505060e-05 6.348701855815e-03 0.0 
0.0 0.0 0.0 
-5.543802527963e-04 4.699374857704e-05 0.0 
4.699374857704e-05 6.292819733838e-03 0.0 
0.0 0.0 0.0 
-5.738988075460e-04 -1.234524966555e-05 0.0 
-1.234524966555e-05 6.434454098598e-03 0.0 
0.0 0.0 0.0 
-5.655827311178e-04 -7.744167426798e-07 0.0 
-7.744167426798e-07 6.210080988175e-03 0.0 
0.0 0.0 0.0 
-9.050252559337e-04 8.302402354624e-04 0.0 
8.302402354624e-04 6.024936458837e-03 0.0 
0.0 0.0 0.0 
-5.905131953510e-04 -2.536902756603e-05 0.0 
-2.536902756603e-05 6.814562006166e-03 0.0 
0.0 0.0 0.0 
-5.758346791639e-04 -1.302231855095e-05 0.0 
-1.302231855095e-05 6.777855898178e-03 0.0 
0.0 0.0 0.0 
-5.919703273279e-04 -2.166866633914e-05 0.0 
-2.166866633914e-05 6.777031602520e-03 0.0 
0.0 0.0 0.0 
-5.717490493922e-04 -2.936198291937e-05 0.0 
-2.936198291937e-05 6.773962407259e-03 0.0 
0.0 0.0 0.0 
-5.922272472091e-04 -2.914666788447e-05 0.0 
-2.914666788447e-05 6.774109894377e-03 0.0 
0.0 0.0 0.0 
-5.675983769192e-04 -3.917449734008e-05 0.0 
-3.917449734008e-05 6.772210602461e-03 0.0 
0.0 0.0 0.0 
-5.932729431465e-04 -3.777299884303e-05 0.0 
-3.777299884303e-05 6.772747647822e-03 0.0 
0.0 0.0 0.0 
-5.637857628730e-04 -4.955947596354e-05 0.0 
-4.955947596354e-05 6.770797860384e-03 0.0 
0.0 0.0 0.0 
-5.953884873198e-04 -4.645431937096e-05 0.0 
-4.645431937096e-05 6.772067942101e-03 0.0 
0.0 0.0 0.0 
-5.600078649096e-04 -5.997963805023e-05 0.0 
-5.997963805023e-05 6.769498484161e-03 0.0 
0.0 0.0 0.0 
-5.988299931836e-04 -5.470325819371e-05 0.0 
-5.470325819371e-05 6.771954896002e-03 0.0 
0.0 0.0 0.0 
-5.560556265397e-04 -6.997774769470e-05 0.0 
-6.997774769470e-05 6.768044500378e-03 0.0 
0.0 0.0 0.0 
-6.035012385488e-04 -6.247417031094e-05 0.0 
-6.247417031094e-05 6.772123774327e-03 0.0 
0.0 0.0 0.0 
-5.517180037818e-04 -7.923341372020e-05 0.0 
-7.923341372020e-05 6.765797293525e-03 0.0 
0.0 0.0 0.0 
-6.093902222762e-04 -6.908382375616e-05 0.0 
-6.908382375616e-05 6.772164018245e-03 0.0 
0.0 0.0 0.0 
-5.471596343225e-04 -8.706066279571e-05 0.0 
-8.706066279571e-05 6.762650871859e-03 0.0 
0.0 0.0 0.0 
-9.059511722153e-04 4.329391255352e-04 0.0 
4.329391255352e-04 6.697717798354e-03 0.0 
0.0 0.0 0.0 
-6.165663056510e-04 -7.383566939255e-05 0.0 
-7.383566939255e-05 6.772115831618e-03 0.0 
0.0 0.0 0.0 
-5.428814715400e-04 -9.266381886378e-05 0.0 
-9.266381886378e-05 6.758910336627e-03 0.0 
0.0 0.0 0.0 
-7.883011058564e-04 3.900426751186e-04 0.0 
3.900426751186e-04 6.523981970460e-03 0.0 
0.0 0.0 0.0 
-6.264478756105e-04 -7.614511622089e-05 0.0 
-7.614511622089e-05 6.772392588191e-03 0.0 
0.0 0.0 0.0 
-5.395472002782e-04 -9.538948728179e-05 0.0 
-9.538948728179e-05 6.754619758744e-03 0.0 
0.0 0.0 0.0 
-9.716046970586e-04 3.472022340941e-04 0.0 
3.472022340941e-04 6.799868071008e-03 0.0 
0.0 0.0 0.0 
-6.393663584928e-04 -7.555780540328e-05 0.0 
-7.555780540328e-05 6.773076007602e-03 0.0 
0.0 0.0 0.0 
-5.378260131437e-04 -9.425613206279e-05 0.0 
-9.425613206279e-05 6.749498895688e-03 0.0 
0.0 0.0 0.0 
-6.557570738058e-04 -7.096434347111e-05 0.0 
-7.096434347111e-05 6.774087764286e-03 0.0 
0.0 0.0 0.0 
-5.386585193470e-04 -8.765846965547e-05 0.0 
-8.765846965547e-05 6.743271805742e-03 0.0 
0.0 0.0 0.0 
-6.768113546463e-04 -6.067800710857e-05 0.0 
-6.067800710857e-05 6.775401499609e-03 0.0 
0.0 0.0 0.0 
-5.432965744245e-04 -7.305472931184e-05 0.0 
-7.305472931184e-05 6.735081243811e-03 0.0 
0.0 0.0 0.0 
-1.040709748673e-03 5.811745438693e-04 0.0 
5.811745438693e-04 6.807839617021e-03 0.0 
0.0 0.0 0.0 
-7.026911646842e-04 -4.019429670670e-05 0.0 
-4.019429670670e-05 6.777609383923e-03 0.0 
0.0 0.0 0.0 
-5.552459055845e-04 -4.733587284973e-05 0.0 
-4.733587284973e-05 6.728940549749e-03 0.0 
0.0 0.0 0.0 
-7.394325308683e-04 -1.151364065215e-05 0.0 
-1.151364065215e-05 6.781708468060e-03 0.0 
0.0 0.0 0.0 
-5.748754526012e-04 -7.510751552357e-06 0.0 
-7.510751552357e-06 6.717664452946e-03 0.0 
0.0 0.0 0.0 
-6.094501557385e-04 5.207015784795e-05 0.0 
5.207015784795e-05 6.712419335709e-03 0.0 
0.0 0.0 0.0 
-7.811439961849e-04 3.712321646280e-05 0.0 
3.712321646280e-05 6.786374594315e-03 0.0 
0.0 0.0 0.0 
-6.542333722781e-04 1.396500271800e-04 0.0 
1.396500271800e-04 6.684967566834e-03 0.0 
0.0 0.0 0.0 
-8.422253567896e-04 9.499766658828e-05 0.0 
9.499766658828e-05 6.790952738814e-03 0.0 
0.0 0.0 0.0 
-7.303635223884e-04 2.721351499449e-04 0.0 
2.721351499449e-04 6.674124301039e-03 0.0 
0.0 0.0 0.0 
-8.761147124039e-04 2.029873674355e-04 0.0 
2.029873674355e-04 6.786902144429e-03 0.0 
0.0 0.0 0.0 
-9.979460589009e-04 4.361099777997e-04 0.0 
4.361099777997e-04 6.707939924085e-03 0.0 
0.0 0.0 0.0 
-5.637101357506e-04 -6.113088619586e-05 0.0 
-6.113088619586e-05 6.754292359477e-03 0.0 
0.0 0.0 0.0 
-5.992885654232e-04 4.605423820942e-05 0.0 
4.605423820942e-05 6.818138654059e-03 0.0 
0.0 0.0 0.0 
-5.738988075460e-04 -1.306990346108e-05 0.0 
-1.306990346108e-05 6.670259049270e-03 0.0 
0.0 0.0 0.0 
-5.897509130602e-04 1.602785386047e-07 0.0 
1.602785386047e-07 6.898565144640e-03 0.0 
0.0 0.0 0.0 
-9.346095666662e-04 6.502003097912e-04 0.0 
6.502003097912e-04 6.478015469033e-03 0.0 
0.0 0.0 0.0 
-5.905131953510e-04 -2.504856204155e-05 0.0 
-2.504856204155e-05 7.171482907832e-03 0.0 
0.0 0.0 0.0 
-6.070012385337e-04 -1.111974100852e-05 0.0 
-1.111974100852e-05 7.212828126767e-03 0.0 
0.0 0.0 0.0 
-5.919703273279e-04 -2.218010771376e-05 0.0 
-2.218010771376e-05 7.213896586159e-03 0.0 
0.0 0.0 0.0 
-6.093303971624e-04 -2.884278123512e-05 0.0 
-2.884278123512e-05 7.216424349897e-03 0.0 
0.0 0.0 0.0 
-5.922272472091e-04 -2.820823621748e-05 0.0 
-2.820823621748e-05 7.216232962926e-03 0.0 
0.0 0.0 0.0 
-6.141271484910e-04 -3.728141536256e-05 0.0 
-3.728141536256e-05 7.217640160503e-03 0.0 
0.0 0.0 0.0 
-5.932729431465e-04 -3.536551307849e-05 0.0 
-3.536551307849e-05 7.217048437993e-03 0.0 
0.0 0.0 0.0 
-6.197473761647e-04 -4.587929875842e-05 0.0 
-4.587929875842e-05 7.218918800833e-03 0.0 
0.0 0.0 0.0 
-5.953884873198e-04 -4.227601695745e-05 0.0 
-4.227601695745e-05 7.217637372745e-03 0.0 
0.0 0.0 0.0 
-6.283487776496e-04 -5.419482796179e-05 0.0 
-5.419482796179e-05 7.221189203801e-03 0.0 
0.0 0.0 0.0 
-5.988299931836e-04 -4.879856386082e-05 0.0 
-4.879856386082e-05 7.218906151920e-03 0.0 
0.0 0.0 0.0 
-6.384706967534e-04 -6.212636564958e-05 0.0 
-6.212636564958e-05 7.223895732836e-03 0.0 
0.0 0.0 0.0 
-6.035012385488e-04 -5.418517650266e-05 0.0 
-5.418517650266e-05 7.220045376978e-03 0.0 
0.0 0.0 0.0 
-6.522855813219e-04 -6.927546903261e-05 0.0 
-6.927546903261e-05 7.227122888305e-03 0.0 
0.0 0.0 0.0 
-6.093902222762e-04 -5.811758720626e-05 0.0 
-5.811758720626e-05 7.220943921213e-03 0.0 
0.0 0.0 0.0 
-9.683871239694e-04 3.429733907801e-04 0.0 
3.429733907801e-04 7.170843731550e-03 0.0 
0.0 0.0 0.0 
-6.667367240660e-04 -7.468302254487e-05 0.0 
-7.468302254487e-05 7.229711239076e-03 0.0 
0.0 0.0 0.0 
-9.943663509230e-04 2.706707825273e-04 0.0 
2.706707825273e-04 7.241176872431e-03 0.0 
0.0 0.0 0.0 
-6.165663056510e-04 -5.881277100232e-05 0.0 
-5.881277100232e-05 7.220029748451e-03 0.0 
0.0 0.0 0.0 
-6.851628753343e-04 -7.583393593623e-05 0.0 
-7.583393593623e-05 7.233083571497e-03 0.0 
0.0 0.0 0.0 
-6.264478756105e-04 -5.610769312829e-05 0.0 
-5.610769312829e-05 7.219550762612e-03 0.0 
0.0 0.0 0.0 
-7.078669671348e-04 -7.346527859523e-05 0.0 
-7.346527859523e-05 7.237178173668e-03 0.0 
0.0 0.0 0.0 
-6.393663584928e-04 -4.922700761493e-05 0.0 
-4.922700761493e-05 7.218666766102e-03 0.0 
0.0 0.0 0.0 
-7.338281804854e-04 -6.631311379080e-05 0.0 
-6.631311379080e-05 7.241032510233e-03 0.0 
0.0 0.0 0.0 
-8.761147124039e-04 3.265666917721e-04 0.0 
3.265666917721e-04 6.999988880567e-03 0.0 
0.0 0.0 0.0 
-6.557570738058e-04 -3.617706941080e-05 0.0 
-3.617706941080e-05 7.215924484006e-03 0.0 
0.0 0.0 0.0 
-7.646303058706e-04 -5.171202703342e-05 0.0 
-5.171202703342e-05 7.244557657577e-03 0.0 
0.0 0.0 0.0 
-6.768113546463e-04 -1.493543057836e-05 0.0 
-1.493543057836e-05 7.211376993160e-03 0.0 
0.0 0.0 0.0 
-8.012714480733e-04 -2.839028371506e-05 0.0 
-2.839028371506e-05 7.246470073558e-03 0.0 
0.0 0.0 0.0 
-7.026911646842e-04 1.913355673388e-05 0.0 
1.913355673388e-05 7.201127300531e-03 0.0 
0.0 0.0 0.0 
-8.387549934286e-04 1.461569116632e-05 0.0 
1.461569116632e-05 7.248629901679e-03 0.0 
0.0 0.0 0.0 
-7.394325308683e-04 6.728294028469e-05 0.0 
6.728294028469e-05 7.195162243546e-03 0.0 
0.0 0.0 0.0 
-8.941994710578e-04 6.501945187136e-05 0.0 
6.501945187136e-05 7.248162155922e-03 0.0 
0.0 0.0 0.0 
-9.231912247666e-04 1.558086406679e-04 0.0 
1.558086406679e-04 7.240109210665e-03 0.0 
0.0 0.0 0.0 
-7.811439961849e-04 1.374994525648e-04 0.0 
1.374994525648e-04 7.172089279392e-03 0.0 
0.0 0.0 0.0 
-1.042390506296e-03 4.458539073818e-04 0.0 
4.458539073818e-04 7.246746131612e-03 0.0 
0.0 0.0 0.0 
-8.422253567896e-04 2.361567868791e-04 0.0 
2.361567868791e-04 7.157188826487e-03 0.0 
0.0 0.0 0.0 
-1.008086007028e-03 3.439943973918e-04 0.0 
3.439943973918e-04 7.112440770729e-03 0.0 
0.0 0.0 0.0 
-6.143832309682e-04 -6.006048949439e-05 0.0 
-6.006048949439e-05 7.227799474801e-03 0.0 
0.0 0.0 0.0 
-5.809836916795e-04 4.729818013872e-05 0.0 
4.729818013872e-05 7.167859614783e-03 0.0 
0.0 0.0 0.0 
-6.050002016398e-04 -1.148611430382e-05 0.0 
-1.148611430382e-05 7.313599764167e-03 0.0 
0.0 0.0 0.0 
-5.897509130602e-04 8.469024968520e-07 0.0 
8.469024968520e-07 7.085613963206e-03 0.0 
0.0 0.0 0.0 
-9.716046970586e-04 5.053108050931e-04 0.0 
5.053108050931e-04 6.959868538540e-03 0.0 
0.0 0.0 0.0 
-6.214192388853e-04 -2.222654605497e-05 0.0 
-2.222654605497e-05 7.691644352174e-03 0.0 
0.0 0.0 0.0 
-6.070012385337e-04 -8.011460175536e-06 0.0 
-8.011460175536e-06 7.652114889167e-03 0.0 
0.0 0.0 0.0 
-6.213449324808e-04 -1.826928459285e-05 0.0 
-1.826928459285e-05 7.650957718454e-03 0.0 
0.0 0.0 0.0 
-6.093303971624e-04 -2.322878330546e-05 0.0 
-2.322878330546e-05 7.650013648251e-03 0.0 
0.0 0.0 0.0 
-6.291624888090e-04 -2.054405108463e-05 0.0 
-2.054405108463e-05 7.650641826622e-03 0.0 
0.0 0.0 0.0 
-6.141271484910e-04 -2.867927732808e-05 0.0 
-2.867927732808e-05 7.653292393447e-03 0.0 
0.0 0.0 0.0 
-6.399655663981e-04 -2.614887054967e-05 0.0 
-2.614887054967e-05 7.654245408437e-03 0.0 
0.0 0.0 0.0 
-6.197473761647e-04 -3.479425642880e-05 0.0 
-3.479425642880e-05 7.654284511349e-03 0.0 
0.0 0.0 0.0 
-6.500964289373e-04 -2.866908964550e-05 0.0 
-2.866908964550e-05 7.656742368635e-03 0.0 
0.0 0.0 0.0 
-6.283487776496e-04 -3.876569492308e-05 0.0 
-3.876569492308e-05 7.658622799289e-03 0.0 
0.0 0.0 0.0 
-6.669300874452e-04 -3.260000763048e-05 0.0 
-3.260000763048e-05 7.662000418290e-03 0.0 
0.0 0.0 0.0 
-6.384706967534e-04 -4.283581895672e-05 0.0 
-4.283581895672e-05 7.660310153390e-03 0.0 
0.0 0.0 0.0 
-6.834594887571e-04 -3.258276249384e-05 0.0 
-3.258276249384e-05 7.666438964530e-03 0.0 
0.0 0.0 0.0 
-9.967914466634e-04 2.730535699700e-04 0.0 
2.730535699700e-04 7.635641712784e-03 0.0 
0.0 0.0 0.0 
-6.522855813219e-04 -4.396199200952e-05 0.0 
-4.396199200952e-05 7.665612767604e-03 0.0 
0.0 0.0 0.0 
-7.072227591589e-04 -3.505846253908e-05 0.0 
-3.505846253908e-05 7.672844168473e-03 0.0 
0.0 0.0 0.0 
-9.231912247666e-04 2.633185045602e-04 0.0 
2.633185045602e-04 7.471093890041e-03 0.0 
0.0 0.0 0.0 
-6.667367240660e-04 -4.420600929027e-05 0.0 
-4.420600929027e-05 7.664407367034e-03 0.0 
0.0 0.0 0.0 
-7.301932436534e-04 -3.010392761311e-05 0.0 
-3.010392761311e-05 7.676319522796e-03 0.0 
0.0 0.0 0.0 
-9.981620442233e-04 2.315561286865e-04 0.0 
2.315561286865e-04 7.677481803458e-03 0.0 
0.0 0.0 0.0 
-6.851628753343e-04 -3.828076515225e-05 0.0 
-3.828076515225e-05 7.665426016484e-03 0.0 
0.0 0.0 0.0 
-7.594366601105e-04 -2.115461489414e-05 0.0 
-2.115461489414e-05 7.681925290394e-03 0.0 
0.0 0.0 0.0 
-7.078669671348e-04 -2.742361784534e-05 0.0 
-2.742361784534e-05 7.666807948719e-03 0.0 
0.0 0.0 0.0 
-7.919602426218e-04 -9.307659866332e-06 0.0 
-9.307659866332e-06 7.687332189972e-03 0.0 
0.0 0.0 0.0 
-7.338281804854e-04 -1.020173749632e-05 0.0 
-1.020173749632e-05 7.664150202128e-03 0.0 
0.0 0.0 0.0 
-1.044701928141e-03 3.582544873935e-04 0.0 
3.582544873935e-04 7.695838763223e-03 0.0 
0.0 0.0 0.0 
-8.275749942702e-04 1.083764752667e-05 0.0 
1.083764752667e-05 7.690679336514e-03 0.0 
0.0 0.0 0.0 
-7.646303058706e-04 1.687237488432e-05 0.0 
1.687237488432e-05 7.659212036982e-03 0.0 
0.0 0.0 0.0 
-8.012714480733e-04 5.523373806511e-05 0.0 
5.523373806511e-05 7.652212310115e-03 0.0 
0.0 0.0 0.0 
-8.686029170631e-04 4.068743103074e-05 0.0 
4.068743103074e-05 7.692623698671e-03 0.0 
0.0 0.0 0.0 
-8.387549934286e-04 1.118117309868e-04 0.0 
1.118117309868e-04 7.624794708935e-03 0.0 
0.0 0.0 0.0 
-9.180518077193e-04 7.624141158407e-05 0.0 
7.624141158407e-05 7.689312877304e-03 0.0 
0.0 0.0 0.0 
-8.941994710578e-04 1.939909217639e-04 0.0 
1.939909217639e-04 7.619103461020e-03 0.0 
0.0 0.0 0.0 
-9.375694882798e-04 1.500589997798e-04 0.0 
1.500589997798e-04 7.677775224075e-03 0.0 
0.0 0.0 0.0 
-1.019889044998e-03 2.802890653495e-04 0.0 
2.802890653495e-04 7.549591836221e-03 0.0 
0.0 0.0 0.0 
-5.913815749613e-04 -5.789465097129e-05 0.0 
-5.789465097129e-05 7.628795673705e-03 0.0 
0.0 0.0 0.0 
-6.288427958109e-04 5.032301751004e-05 0.0 
5.032301751004e-05 7.695918395320e-03 0.0 
0.0 0.0 0.0 
-6.050002016398e-04 -9.451301683803e-06 0.0 
-9.451301683803e-06 7.547587895720e-03 0.0 
0.0 0.0 0.0 
-6.159466719855e-04 4.413514080220e-06 0.0 
4.413514080220e-06 7.772888159033e-03 0.0 
0.0 0.0 0.0 
-9.943663509230e-04 3.949485902685e-04 0.0 
3.949485902685e-04 7.428551637783e-03 0.0 
0.0 0.0 0.0 
-6.214192388853e-04 -2.213887237782e-05 0.0 
-2.213887237782e-05 8.053779199031e-03 0.0 
0.0 0.0 0.0 
-6.178338131982e-04 -6.293954775690e-06 0.0 
-6.293954775690e-06 8.080428909065e-03 0.0 
0.0 0.0 0.0 
-6.213449324808e-04 -9.184268861397e-06 0.0 
-9.184268861397e-06 8.080781095218e-03 0.0 
0.0 0.0 0.0 
-6.307314788953e-04 -1.024182002387e-05 0.0 
-1.024182002387e-05 8.086655795266e-03 0.0 
0.0 0.0 0.0 
-6.291624888090e-04 -9.455256519783e-06 0.0 
-9.455256519783e-06 8.086504774621e-03 0.0 
0.0 0.0 0.0 
-6.415648507136e-04 -1.126210558301e-05 0.0 
-1.126210558301e-05 8.092972035544e-03 0.0 
0.0 0.0 0.0 
-6.399655663981e-04 -1.247263647445e-05 0.0 
-1.247263647445e-05 8.093234730918e-03 0.0 
0.0 0.0 0.0 
-6.528013943415e-04 -1.737167900537e-05 0.0 
-1.737167900537e-05 8.094215716585e-03 0.0 
0.0 0.0 0.0 
-6.500964289373e-04 -9.811841699996e-06 0.0 
-9.811841699996e-06 8.091933736640e-03 0.0 
0.0 0.0 0.0 
-6.683138918936e-04 -1.161555310891e-05 0.0 
-1.161555310891e-05 8.101318013836e-03 0.0 
0.0 0.0 0.0 
-6.669300874452e-04 -9.007019902290e-06 0.0 
-9.007019902290e-06 8.100354260802e-03 0.0 
0.0 0.0 0.0 
-6.915539884654e-04 -1.513473766020e-05 0.0 
-1.513473766020e-05 8.106150397519e-03 0.0 
0.0 0.0 0.0 
-1.002041364298e-03 2.377298964654e-04 0.0 
2.377298964654e-04 8.090395481438e-03 0.0 
0.0 0.0 0.0 
-6.834594887571e-04 -3.668917897434e-06 0.0 
-3.668917897434e-06 8.101086071664e-03 0.0 
0.0 0.0 0.0 
-9.863507366887e-04 2.035965885036e-04 0.0 
2.035965885036e-04 8.117459134471e-03 0.0 
0.0 0.0 0.0 
-7.079531007926e-04 -5.324693781040e-06 0.0 
-5.324693781040e-06 8.112876962650e-03 0.0 
0.0 0.0 0.0 
-7.072227591589e-04 2.786887494824e-06 0.0 
2.786887494824e-06 8.109019313796e-03 0.0 
0.0 0.0 0.0 
-7.455254609603e-04 -5.131224954715e-06 0.0 
-5.131224954715e-06 8.118083671469e-03 0.0 
0.0 0.0 0.0 
-7.301932436534e-04 1.491351142889e-05 0.0 
1.491351142889e-05 8.106397435950e-03 0.0 
0.0 0.0 0.0 
-7.784956131952e-04 1.014519697784e-05 0.0 
1.014519697784e-05 8.123733314568e-03 0.0 
0.0 0.0 0.0 
-7.594366601105e-04 3.082782837262e-05 0.0 
3.082782837262e-05 8.109918362450e-03 0.0 
0.0 0.0 0.0 
-8.102424155778e-04 2.706174649640e-05 0.0 
2.706174649640e-05 8.128072421790e-03 0.0 
0.0 0.0 0.0 
-9.375694882798e-04 2.415308357468e-04 0.0 
2.415308357468e-04 7.926743373238e-03 0.0 
0.0 0.0 0.0 
-7.919602426218e-04 5.357908766892e-05 0.0 
5.357908766892e-05 8.109000523766e-03 0.0 
0.0 0.0 0.0 
-8.502103911191e-04 5.060210923316e-05 0.0 
5.060210923316e-05 8.129536433923e-03 0.0 
0.0 0.0 0.0 
-8.275749942702e-04 8.623526422428e-05 0.0 
8.623526422428e-05 8.101563984435e-03 0.0 
0.0 0.0 0.0 
-8.899250194485e-04 8.751418552325e-05 0.0 
8.751418552325e-05 8.126929607900e-03 0.0 
0.0 0.0 0.0 
-9.341531439150e-04 1.404526766464e-04 0.0 
1.404526766464e-04 8.122284987408e-03 0.0 
0.0 0.0 0.0 
-8.686029170631e-04 1.320695262858e-04 0.0 
1.320695262858e-04 8.089740718171e-03 0.0 
0.0 0.0 0.0 
-9.180518077193e-04 1.888754358223e-04 0.0 
1.888754358223e-04 8.079677436697e-03 0.0 
0.0 0.0 0.0 
-1.024646145925e-03 3.052218739715e-04 0.0 
3.052218739715e-04 8.137503378736e-03 0.0 
0.0 0.0 0.0 
-1.002281558706e-03 2.457490983376e-04 0.0 
2.457490983376e-04 7.976163475980e-03 0.0 
0.0 0.0 0.0 
-6.322428679402e-04 -5.048021764555e-05 0.0 
-5.048021764555e-05 8.086771278162e-03 0.0 
0.0 0.0 0.0 
-6.112228146028e-04 5.810185163817e-05 0.0 
5.810185163817e-05 8.049050336009e-03 0.0 
0.0 0.0 0.0 
-6.270397106768e-04 1.393020181325e-06 0.0 
1.393020181325e-06 8.182564796696e-03 0.0 
0.0 0.0 0.0 
-6.159466719855e-04 8.426363128789e-06 0.0 
8.426363128789e-06 7.957071516349e-03 0.0 
0.0 0.0 0.0 
-9.981620442233e-04 3.318161354529e-04 0.0 
3.318161354529e-04 7.899420164035e-03 0.0 
0.0 0.0 0.0 

TENSORS element_materi_strain_plasti float
-6.466164772809e-04 8.245090744215e-04 0.0 
8.245090744215e-04 2.707374572581e-03 0.0 
0.0 0.0 -4.220722639049e-04 
-5.850828050599e-04 4.087408186800e-04 0.0 
4.087408186800e-04 2.442724633431e-03 0.0 
0.0 0.0 -4.303330772826e-04 
-1.282095494807e-03 4.001741098009e-04 0.0 
4.001741098009e-04 8.226379453025e-03 0.0 
0.0 0.0 -1.278236581085e-03 
-1.295884943363e-03 -1.217266030679e-04 0.0 
-1.217266030679e-04 8.480174258718e-03 0.0 
0.0 0.0 -1.255598393855e-03 
-9.118044046819e-04 2.773302772114e-04 0.0 
2.773302772114e-04 5.301634366726e-03 0.0 
0.0 0.0 -7.961861350945e-04 
2.510626383067e-04 3.899924767601e-04 0.0 
3.899924767601e-04 -1.017744063532e-06 0.0 
0.0 0.0 -1.071620975328e-04 
-8.944012644099e-04 3.000213301662e-04 0.0 
3.000213301662e-04 5.255597081572e-03 0.0 
0.0 0.0 -8.011023898636e-04 
-6.111001276048e-04 8.133198202813e-04 0.0 
8.133198202813e-04 2.541489709150e-03 0.0 
0.0 0.0 -4.045669272905e-04 
-9.178969371214e-04 -2.491713150355e-04 0.0 
-2.491713150355e-04 5.331335701126e-03 0.0 
0.0 0.0 -7.977904104816e-04 
-1.281432177268e-03 3.076617140319e-04 0.0 
3.076617140319e-04 8.397045163972e-03 0.0 
0.0 0.0 -1.253060141438e-03 
-1.093573439511e-03 5.627509268443e-05 0.0 
5.627509268443e-05 5.667510059544e-03 0.0 
0.0 0.0 -8.816510380685e-04 
-5.787511837025e-04 6.777709678412e-04 0.0 
6.777709678412e-04 2.088119972159e-03 0.0 
0.0 0.0 -3.735031833740e-04 
-1.326305648993e-03 1.334625464656e-04 0.0 
1.334625464656e-04 8.251440389062e-03 0.0 
0.0 0.0 -1.259187713256e-03 
-9.724653634380e-04 3.053641968768e-04 0.0 
3.053641968768e-04 5.663135226582e-03 0.0 
0.0 0.0 -8.526168115438e-04 
-1.330762641967e-03 -3.008650578863e-04 0.0 
-3.008650578863e-04 8.383102825445e-03 0.0 
0.0 0.0 -1.289538875031e-03 
-1.321345684109e-03 2.719191787034e-04 0.0 
2.719191787034e-04 8.617215783831e-03 0.0 
0.0 0.0 -1.285984941237e-03 
-9.140896497734e-04 7.519541139523e-05 0.0 
7.519541139523e-05 5.296976735505e-03 0.0 
0.0 0.0 -7.740676797406e-04 
0.0 0.0 0.0 
0.0 0.0 0.0 
0.0 0.0 0.0 
-3.519099227855e-04 -1.443334347486e-04 0.0 
-1.443334347486e-04 1.817532010240e-03 0.0 
0.0 0.0 -2.776016825098e-04 
-3.997644766498e-04 4.954726061119e-05 0.0 
4.954726061119e-05 1.673764597630e-03 0.0 
0.0 0.0 -3.031105466646e-04 
-1.276969282696e-03 -1.363061038713e-04 0.0 
-1.363061038713e-04 8.471794626493e-03 0.0 
0.0 0.0 -1.250388265701e-03 
-6.432162703731e-04 5.512102898043e-04 0.0 
5.512102898043e-04 2.885045796034e-03 0.0 
0.0 0.0 -4.811142067971e-04 
-6.884954101540e-04 3.994199898237e-04 0.0 
3.994199898237e-04 3.234457200495e-03 0.0 
0.0 0.0 -5.091556215902e-04 
-1.086615628820e-03 -2.931322765965e-04 0.0 
-2.931322765965e-04 7.458132473520e-03 0.0 
0.0 0.0 -1.210372970477e-03 
-1.022288100468e-03 3.987168263927e-04 0.0 
3.987168263927e-04 6.009421001038e-03 0.0 
0.0 0.0 -9.130988374533e-04 
-1.132573975630e-03 -2.410939857696e-04 0.0 
-2.410939857696e-04 6.073086075411e-03 0.0 
0.0 0.0 -9.179597371190e-04 
-8.591992327558e-04 1.320513177097e-04 0.0 
1.320513177097e-04 4.879471040969e-03 0.0 
0.0 0.0 -7.148082707961e-04 
-1.227939719405e-03 4.897213587292e-04 0.0 
4.897213587292e-04 8.231185118654e-03 0.0 
0.0 0.0 -1.266047838742e-03 
-1.043323281561e-03 -5.190539471628e-05 0.0 
-5.190539471628e-05 6.052750555350e-03 0.0 
0.0 0.0 -9.113908267906e-04 
-1.155289536852e-03 -1.768880545786e-05 0.0 
-1.768880545786e-05 7.700571454284e-03 0.0 
0.0 0.0 -1.237914324842e-03 
3.591818895870e-04 -1.087919908418e-03 0.0 
-1.087919908418e-03 2.306926407283e-04 0.0 
0.0 0.0 -2.528033701351e-04 
-5.253251415500e-05 -7.346267826167e-05 0.0 
-7.346267826167e-05 5.706227414438e-04 0.0 
0.0 0.0 -1.059755802940e-04 
-1.328657286874e-03 4.996781592111e-04 0.0 
4.996781592111e-04 8.531045122136e-03 0.0 
0.0 0.0 -1.261301343383e-03 
-1.246135843572e-03 -2.165566539215e-04 0.0 
-2.165566539215e-04 7.113329539199e-03 0.0 
0.0 0.0 -1.090200430068e-03 
-1.222640564805e-03 -5.172125954847e-04 0.0 
-5.172125954847e-04 8.023175699372e-03 0.0 
0.0 0.0 -1.254989870190e-03 
-1.362336754091e-03 1.038272021812e-04 0.0 
1.038272021812e-04 8.593232231463e-03 0.0 
0.0 0.0 -1.314886350686e-03 
-1.333817909252e-03 -6.741910836282e-04 0.0 
-6.741910836282e-04 8.572481383167e-03 0.0 
0.0 0.0 -1.314653105918e-03 
-1.152787385481e-03 3.395804623759e-04 0.0 
3.395804623759e-04 7.780236807800e-03 0.0 
0.0 0.0 -1.264739017786e-03 
-8.345100331917e-04 -3.032908507100e-04 0.0 
-3.032908507100e-04 4.793915913410e-03 0.0 
0.0 0.0 -7.380763454961e-04 
-8.314689275844e-04 3.674750294880e-04 0.0 
3.674750294880e-04 4.862282802739e-03 0.0 
0.0 0.0 -7.371174501546e-04 
-7.446435526587e-04 2.495366517639e-04 0.0 
2.495366517639e-04 3.730189536197e-03 0.0 
0.0 0.0 -5.794556523337e-04 
-1.240577876015e-03 -2.606603701506e-04 0.0 
-2.606603701506e-04 7.945807599574e-03 0.0 
0.0 0.0 -1.280756488215e-03 
-5.279799311040e-04 1.102170611227e-03 0.0 
1.102170611227e-03 1.773978523889e-03 0.0 
0.0 0.0 -3.207852484642e-04 
-8.673432961900e-04 2.038482856540e-04 0.0 
2.038482856540e-04 4.641456270313e-03 0.0 
0.0 0.0 -7.350059072715e-04 
-1.271467539957e-03 -7.879660805606e-05 0.0 
-7.879660805606e-05 8.302426141521e-03 0.0 
0.0 0.0 -1.212858513926e-03 
-5.775885694842e-04 8.848405614820e-04 0.0 
8.848405614820e-04 1.777381832978e-03 0.0 
0.0 0.0 -3.198426158856e-04 
2.130878448261e-04 -2.803383724960e-04 0.0 
-2.803383724960e-04 -1.640750498909e-05 0.0 
0.0 0.0 -8.429157421588e-05 
-1.252952730617e-03 9.194498370430e-05 0.0 
9.194498370430e-05 8.113365198973e-03 0.0 
0.0 0.0 -1.234743356787e-03 
1.618564024128e-06 -4.086337075163e-06 0.0 
-4.086337075163e-06 6.435399236588e-07 0.0 
0.0 0.0 -9.694731204799e-07 
-9.377652680597e-04 -7.279277581159e-05 0.0 
-7.279277581159e-05 5.473641853479e-03 0.0 
0.0 0.0 -8.229436299569e-04 
-7.184238485782e-04 3.283816114982e-04 0.0 
3.283816114982e-04 3.500159598670e-03 0.0 
0.0 0.0 -5.440916476828e-04 
-4.407403860860e-04 -1.000193585770e-04 0.0 
-1.000193585770e-04 2.276874889741e-03 0.0 
0.0 0.0 -3.443810396916e-04 
3.693556118723e-04 -1.150080954677e-03 0.0 
-1.150080954677e-03 2.564828416198e-04 0.0 
0.0 0.0 -2.682164800680e-04 
-6.981340931129e-04 4.826618162809e-04 0.0 
4.826618162809e-04 3.375109354798e-03 0.0 
0.0 0.0 -5.489460876789e-04 
-1.294047200749e-03 3.426820678350e-04 0.0 
3.426820678350e-04 8.360890520438e-03 0.0 
0.0 0.0 -1.282189168212e-03 
-6.426921289281e-04 -2.477141885566e-04 0.0 
-2.477141885566e-04 2.972149177427e-03 0.0 
0.0 0.0 -4.512233509908e-04 
-5.071100590753e-04 7.724547813732e-05 0.0 
7.724547813732e-05 2.167123717160e-03 0.0 
0.0 0.0 -3.694212080277e-04 
-1.248804674603e-03 1.204053078386e-04 0.0 
1.204053078386e-04 7.152497866114e-03 0.0 
0.0 0.0 -1.087734043503e-03 
-2.199405617637e-04 -6.207470745057e-05 0.0 
-6.207470745057e-05 1.342683867831e-03 0.0 
0.0 0.0 -2.189683579105e-04 
-1.315587936217e-03 -1.318704737137e-04 0.0 
-1.318704737137e-04 8.629398526663e-03 0.0 
0.0 0.0 -1.285320035817e-03 
0.0 0.0 0.0 
0.0 0.0 0.0 
0.0 0.0 0.0 
-1.104248090582e-03 6.042449065024e-04 0.0 
6.042449065024e-04 7.502345308807e-03 0.0 
0.0 0.0 -1.210824713543e-03 
-6.118289487359e-04 1.052783847498e-03 0.0 
1.052783847498e-03 3.133960488999e-03 0.0 
0.0 0.0 -5.497085007362e-04 
3.930006713422e-04 -1.150166211052e-03 0.0 
-1.150166211052e-03 2.323329664583e-04 0.0 
0.0 0.0 -2.680001304859e-04 
-1.319367167403e-03 -3.421260873299e-04 0.0 
-3.421260873299e-04 8.223808012733e-03 0.0 
0.0 0.0 -1.257478522087e-03 
-6.824305458781e-04 5.038519007458e-04 0.0 
5.038519007458e-04 3.122644429912e-03 0.0 
0.0 0.0 -5.137572693775e-04 
0.0 0.0 0.0 
0.0 0.0 0.0 
0.0 0.0 0.0 
-1.302579274791e-03 3.856077973971e-04 0.0 
3.856077973971e-04 8.474035595977e-03 0.0 
0.0 0.0 -1.261660853087e-03 
-3.055720632183e-04 -1.064577386819e-03 0.0 
-1.064577386819e-03 1.239084830307e-03 0.0 
0.0 0.0 -3.052032381971e-04 
-1.275451108923e-03 4.835577884085e-04 0.0 
4.835577884085e-04 8.123671911160e-03 0.0 
0.0 0.0 -1.282376455277e-03 
-1.145904955508e-03 -3.118374997867e-04 0.0 
-3.118374997867e-04 6.272168097955e-03 0.0 
0.0 0.0 -9.556290573178e-04 
-1.338499280800e-03 2.408371898962e-04 0.0 
2.408371898962e-04 8.775782511843e-03 0.0 
0.0 0.0 -1.338499280800e-03 
-1.192625588921e-03 4.461210467852e-04 0.0 
4.461210467852e-04 7.634783606740e-03 0.0 
0.0 0.0 -1.232909111256e-03 
-2.127254236185e-05 1.891430361426e-04 0.0 
1.891430361426e-04 5.160571140730e-04 0.0 
0.0 0.0 -1.295286970291e-04 
-6.935849542252e-04 2.344127444435e-05 0.0 
2.344127444435e-05 2.990888035910e-03 0.0 
0.0 0.0 -4.777371989943e-04 
-1.295701123542e-03 1.509088819434e-05 0.0 
1.509088819434e-05 8.469943460322e-03 0.0 
0.0 0.0 -1.262626981217e-03 
-1.324502073679e-03 3.744328644392e-04 0.0 
3.744328644392e-04 8.596934185840e-03 0.0 
0.0 0.0 -1.265352048664e-03 
-2.411922616665e-04 1.053006289260e-03 0.0 
1.053006289260e-03 1.157414957781e-03 0.0 
0.0 0.0 -3.599094611647e-04 
-2.769907565586e-04 -8.829481836090e-05 0.0 
-8.829481836090e-05 1.134623594574e-03 0.0 
0.0 0.0 -2.366757893512e-04 
-2.181753936334e-04 1.161392611074e-03 0.0 
1.161392611074e-03 1.149876313961e-03 0.0 
0.0 0.0 -3.564703237892e-04 
-2.758740996359e-04 -8.746279552454e-04 0.0 
-8.746279552454e-04 1.152039496951e-03 0.0 
0.0 0.0 -3.439500825601e-04 
-8.978965614641e-04 9.154439014956e-05 0.0 
9.154439014956e-05 5.029293334098e-03 0.0 
0.0 0.0 -7.918363975426e-04 
-6.733819819602e-04 4.712092501630e-04 0.0 
4.712092501630e-04 3.018715837704e-03 0.0 
0.0 0.0 -4.749402310763e-04 
-6.256408849580e-04 5.270574211380e-04 0.0 
5.270574211380e-04 2.559551606748e-03 0.0 
0.0 0.0 -4.438329512050e-04 
-9.725152992593e-04 -1.918915712341e-04 0.0 
-1.918915712341e-04 5.553894553160e-03 0.0 
0.0 0.0 -8.336771054075e-04 
-9.515395304919e-04 2.688463451821e-04 0.0 
2.688463451821e-04 5.521722972354e-03 0.0 
0.0 0.0 -8.358076868167e-04 
-1.183410575090e-03 -2.693387168119e-04 0.0 
-2.693387168119e-04 6.452199734420e-03 0.0 
0.0 0.0 -9.867109252839e-04 
-1.231001359755e-03 1.776752657648e-04 0.0 
1.776752657648e-04 6.972617785685e-03 0.0 
0.0 0.0 -1.058576829647e-03 
-1.159508113008e-03 2.069980553471e-04 0.0 
2.069980553471e-04 7.153965750682e-03 0.0 
0.0 0.0 -1.085941371602e-03 
-9.167398449037e-04 -2.379223024375e-04 0.0 
-2.379223024375e-04 5.214431434648e-03 0.0 
0.0 0.0 -7.983229688164e-04 
-9.629239381275e-05 -7.847678025284e-05 0.0 
-7.847678025284e-05 3.293444492904e-04 0.0 
0.0 0.0 -9.987945234756e-05 
-9.298280525189e-04 1.832074445445e-04 0.0 
1.832074445445e-04 5.072594773826e-03 0.0 
0.0 0.0 -7.928983479555e-04 
-1.152068192651e-03 -8.618068735251e-05 0.0 
-8.618068735251e-05 7.066072062095e-03 0.0 
0.0 0.0 -1.069439317440e-03 
-1.125567912536e-03 1.438213412546e-04 0.0 
1.438213412546e-04 7.130378012797e-03 0.0 
0.0 0.0 -1.046447409317e-03 
-1.354248964991e-03 2.488047583645e-04 0.0 
2.488047583645e-04 9.041954327214e-03 0.0 
0.0 0.0 -1.319970921405e-03 
-1.236862548615e-03 6.047335938228e-05 0.0 
6.047335938228e-05 8.106142459015e-03 0.0 
0.0 0.0 -1.294194962782e-03 
-9.013588349204e-04 -3.564785080674e-05 0.0 
-3.564785080674e-05 5.032133509131e-03 0.0 
0.0 0.0 -7.889745663688e-04 
-1.254766552398e-03 -3.118115606911e-04 0.0 
-3.118115606911e-04 8.236373731402e-03 0.0 
0.0 0.0 -1.263183913703e-03 
-9.880175404899e-04 -1.466486724576e-04 0.0 
-1.466486724576e-04 5.952185502159e-03 0.0 
0.0 0.0 -9.040008563810e-04 
-6.291314004619e-04 6.895076894316e-04 0.0 
6.895076894316e-04 3.149500208419e-03 0.0 
0.0 0.0 -5.198799001330e-04 
-8.730449846052e-04 -1.408519575968e-04 0.0 
-1.408519575968e-04 5.083535477325e-03 0.0 
0.0 0.0 -7.643292725053e-04 
-1.347992785810e-03 5.931491654167e-05 0.0 
5.931491654167e-05 8.400156878011e-03 0.0 
0.0 0.0 -1.287517816355e-03 
-8.262228282774e-04 1.447902815746e-04 0.0 
1.447902815746e-04 6.297334361413e-03 0.0 
0.0 0.0 -1.043751955586e-03 
-1.104569420112e-03 1.448019849648e-04 0.0 
1.448019849648e-04 7.556047747294e-03 0.0 
0.0 0.0 -1.209599240962e-03 
-4.538367894760e-04 9.757826283503e-04 0.0 
9.757826283503e-04 2.565554738313e-03 0.0 
0.0 0.0 -4.747543016519e-04 
2.029884590449e-04 -8.599336091252e-04 0.0 
-8.599336091252e-04 2.611091082078e-04 0.0 
0.0 0.0 -1.988989573940e-04 
-1.297459135418e-03 -2.747475562559e-04 0.0 
-2.747475562559e-04 7.787009671767e-03 0.0 
0.0 0.0 -1.189902873528e-03 
-1.189086276409e-03 1.093944519264e-04 0.0 
1.093944519264e-04 7.587261230545e-03 0.0 
0.0 0.0 -1.108790581071e-03 
7.624507231963e-05 -2.164748674539e-04 0.0 
-2.164748674539e-04 4.178589710884e-05 0.0 
0.0 0.0 -5.058470118363e-05 
-1.283662232086e-03 -3.116749921630e-04 0.0 
-3.116749921630e-04 8.203749873262e-03 0.0 
0.0 0.0 -1.285127980003e-03 
-1.117454671525e-03 5.890310527375e-04 0.0 
5.890310527375e-04 6.771147145683e-03 0.0 
0.0 0.0 -1.051491716222e-03 
2.129630744421e-04 -9.499020889305e-05 0.0 
-9.499020889305e-05 2.730652041404e-04 0.0 
0.0 0.0 -1.433710470045e-04 
-4.646091997464e-04 1.130911332871e-03 0.0 
1.130911332871e-03 3.315295093012e-03 0.0 
0.0 0.0 -6.309931931857e-04 
-8.659480951891e-04 9.706201231431e-05 0.0 
9.706201231431e-05 4.691930850523e-03 0.0 
0.0 0.0 -7.153918394734e-04 
-8.128195131981e-04 -2.696429011542e-04 0.0 
-2.696429011542e-04 3.582326768313e-03 0.0 
0.0 0.0 -5.772375537024e-04 
-5.795319369569e-04 9.930078575254e-04 0.0 
9.930078575254e-04 2.722691248666e-03 0.0 
0.0 0.0 -4.852398935310e-04 
-5.900753072712e-04 6.920056491215e-04 0.0 
6.920056491215e-04 3.182816884513e-03 0.0 
0.0 0.0 -5.471823052058e-04 
-1.301859315623e-03 -1.904737940513e-04 0.0 
-1.904737940513e-04 8.142812636608e-03 0.0 
0.0 0.0 -1.283833066805e-03 
-9.523212659311e-04 1.958273368285e-04 0.0 
1.958273368285e-04 5.865970295395e-03 0.0 
0.0 0.0 -8.766975940251e-04 
-5.541698138184e-04 1.190551615049e-03 0.0 
1.190551615049e-03 2.836925707114e-03 0.0 
0.0 0.0 -5.122473358773e-04 
-4.084206622420e-04 -7.278847424947e-04 0.0 
-7.278847424947e-04 1.354708172608e-03 0.0 
0.0 0.0 -2.295267891405e-04 
-9.046551402062e-04 3.103540058347e-04 0.0 
3.103540058347e-04 5.221480629983e-03 0.0 
0.0 0.0 -7.744920945421e-04 
-1.163420538902e-03 -6.301653344554e-05 0.0 
-6.301653344554e-05 7.412623996309e-03 0.0 
0.0 0.0 -1.129288753466e-03 
-5.271843801054e-04 7.884919210617e-04 0.0 
7.884919210617e-04 2.864417005275e-03 0.0 
0.0 0.0 -5.109724225979e-04 
5.534592465795e-05 9.039028363928e-04 0.0 
9.039028363928e-04 4.831251439840e-04 0.0 
0.0 0.0 -2.307733151323e-04 
-8.073832098114e-04 1.503125105248e-04 0.0 
1.503125105248e-04 4.217521397372e-03 0.0 
0.0 0.0 -6.470401313398e-04 
-8.043937078593e-04 -1.245165173277e-04 0.0 
-1.245165173277e-04 3.751204721582e-03 0.0 
0.0 0.0 -5.578851714504e-04 
-7.622885537649e-04 4.316670476422e-04 0.0 
4.316670476422e-04 3.890857300125e-03 0.0 
0.0 0.0 -6.167189930163e-04 
-1.313795093192e-03 3.745855682538e-04 0.0 
3.745855682538e-04 8.614675897131e-03 0.0 
0.0 0.0 -1.290671971449e-03 
1.991130479106e-04 9.381873505590e-04 0.0 
9.381873505590e-04 3.095528624407e-04 0.0 
0.0 0.0 -2.179996758648e-04 
-1.118912346163e-03 3.069253467211e-05 0.0 
3.069253467211e-05 5.953637467028e-03 0.0 
0.0 0.0 -9.216843799351e-04 
-1.302832962065e-03 2.769223245220e-04 0.0 
2.769223245220e-04 8.470819943817e-03 0.0 
0.0 0.0 -1.256690274141e-03 
-7.596340248727e-04 7.382796594352e-04 0.0 
7.382796594352e-04 4.031537584483e-03 0.0 
0.0 0.0 -6.588732905211e-04 
-7.779772953584e-04 1.836806670251e-04 0.0 
1.836806670251e-04 3.983301519145e-03 0.0 
0.0 0.0 -6.139229799761e-04 
-1.231803605678e-03 -5.782093166128e-05 0.0 
-5.782093166128e-05 8.028152931577e-03 0.0 
0.0 0.0 -1.254964138299e-03 
-1.328106245368e-03 -3.359343714767e-04 0.0 
-3.359343714767e-04 8.269862829300e-03 0.0 
0.0 0.0 -1.261070974318e-03 
-1.177616370787e-03 5.503788424212e-05 0.0 
5.503788424212e-05 6.447345049328e-03 0.0 
0.0 0.0 -9.873713238705e-04 
-7.975389004980e-04 3.851368616877e-04 0.0 
3.851368616877e-04 4.370903509068e-03 0.0 
0.0 0.0 -6.916138708610e-04 
-1.195768822005e-03 -1.347190958518e-04 0.0 
-1.347190958518e-04 8.136693957771e-03 0.0 
0.0 0.0 -1.270330610962e-03 
-7.600104695776e-04 6.621541633523e-04 0.0 
6.621541633523e-04 3.915062890853e-03 0.0 
0.0 0.0 -6.326048069937e-04 
-1.276977184880e-03 1.361446544635e-04 0.0 
1.361446544635e-04 8.444479482518e-03 0.0 
0.0 0.0 -1.283174495648e-03 
-1.281656246909e-03 5.918270400850e-04 0.0 
5.918270400850e-04 8.394460336114e-03 0.0 
0.0 0.0 -1.267437373369e-03 
-9.916900482218e-04 -1.353869196216e-04 0.0 
-1.353869196216e-04 5.594925371490e-03 0.0 
0.0 0.0 -8.543707170918e-04 
-1.059679930627e-03 2.378363673836e-04 0.0 
2.378363673836e-04 6.573353481791e-03 0.0 
0.0 0.0 -9.817831382938e-04 
-7.605699351815e-04 3.748556655775e-04 0.0 
3.748556655775e-04 3.967103975153e-03 0.0 
0.0 0.0 -6.293189184696e-04 
-7.420000060583e-04 4.704307559795e-04 0.0 
4.704307559795e-04 3.646692949105e-03 0.0 
0.0 0.0 -5.830241378053e-04 
-8.001161774359e-04 7.418992546282e-04 0.0 
7.418992546282e-04 4.429271101410e-03 0.0 
0.0 0.0 -7.211932326589e-04 
-4.509036314279e-04 9.161005774141e-04 0.0 
9.161005774141e-04 2.969896787124e-03 0.0 
0.0 0.0 -5.383041810906e-04 
-8.768683131663e-04 -1.698577199285e-04 0.0 
-1.698577199285e-04 5.218733852389e-03 0.0 
0.0 0.0 -7.693993191400e-04 
-3.984078038155e-04 7.031353492297e-04 0.0 
7.031353492297e-04 3.390130310364e-03 0.0 
0.0 0.0 -6.275039421266e-04 
-8.830553488541e-05 -1.169663280731e-04 0.0 
-1.169663280731e-04 3.137961635653e-04 0.0 
0.0 0.0 -9.663884086279e-05 
-9.202478516251e-04 -5.770930012148e-06 0.0 
-5.770930012148e-06 5.620779502953e-03 0.0 
0.0 0.0 -8.171079392438e-04 
-3.114395398576e-04 -3.263303537109e-05 0.0 
-3.263303537109e-05 1.213615237241e-03 0.0 
0.0 0.0 -2.373169254524e-04 
-8.400103073364e-04 1.183268532165e-04 0.0 
1.183268532165e-04 4.465364634510e-03 0.0 
0.0 0.0 -6.809683978454e-04 
-1.226720591274e-03 -2.033245432446e-04 0.0 
-2.033245432446e-04 7.901279716244e-03 0.0 
0.0 0.0 -1.284796145094e-03 
-5.032521871548e-04 1.323397128945e-03 0.0 
1.323397128945e-03 2.524146629484e-03 0.0 
0.0 0.0 -4.767992880414e-04 
-1.206015416419e-03 1.351161918146e-04 0.0 
1.351161918146e-04 6.706761080456e-03 0.0 
0.0 0.0 -1.021089721936e-03 
-5.854397783758e-04 6.900577011398e-04 0.0 
6.900577011398e-04 2.034319527358e-03 0.0 
0.0 0.0 -3.540742325023e-04 
-8.487428613626e-04 6.354315705334e-04 0.0 
6.354315705334e-04 6.259047629254e-03 0.0 
0.0 0.0 -1.044905595188e-03 
-9.023795236384e-04 1.774952439286e-05 0.0 
1.774952439286e-05 5.056579998417e-03 0.0 
0.0 0.0 -7.899655494116e-04 
-3.675306969511e-04 1.198984270489e-03 0.0 
1.198984270489e-03 2.958001668599e-03 0.0 
0.0 0.0 -5.931463391684e-04 
-1.266256333575e-03 -2.932543747909e-04 0.0 
-2.932543747909e-04 7.348938270472e-03 0.0 
0.0 0.0 -1.120963572432e-03 
-3.905834582402e-04 -4.908595614848e-04 0.0 
-4.908595614848e-04 1.232002034576e-03 0.0 
0.0 0.0 -2.722262904030e-04 
-1.289444217002e-03 1.239965470747e-04 0.0 
1.239965470747e-04 7.777003841897e-03 0.0 
0.0 0.0 -1.189111243166e-03 
-9.083262515729e-04 4.866804809917e-04 0.0 
4.866804809917e-04 4.963586243701e-03 0.0 
0.0 0.0 -7.711223959738e-04 
-1.340203078278e-03 -2.129693675799e-04 0.0 
-2.129693675799e-04 8.439560912258e-03 0.0 
0.0 0.0 -1.265987209193e-03 
-8.868772565119e-04 2.877464608834e-05 0.0 
2.877464608834e-05 5.056912107765e-03 0.0 
0.0 0.0 -7.842605076999e-04 
-4.245977401382e-04 1.301715382003e-03 0.0 
1.301715382003e-03 2.484999694538e-03 0.0 
0.0 0.0 -5.042822341261e-04 
-8.141088315077e-04 3.778227072886e-04 0.0 
3.778227072886e-04 4.370548075301e-03 0.0 
0.0 0.0 -6.840799553763e-04 
-1.128956121950e-03 -1.816355743224e-04 0.0 
-1.816355743224e-04 5.879621026637e-03 0.0 
0.0 0.0 -8.722824885218e-04 
-5.657686865338e-04 1.006813399921e-03 0.0 
1.006813399921e-03 2.114854539436e-03 0.0 
0.0 0.0 -3.514598124168e-04 
-2.840077947560e-04 7.374002385130e-04 0.0 
7.374002385130e-04 3.016923521918e-03 0.0 
0.0 0.0 -5.911455407098e-04 
-1.107826402130e-03 -1.895219266089e-04 0.0 
-1.895219266089e-04 6.838398808500e-03 0.0 
0.0 0.0 -1.016465148841e-03 
-8.846022414820e-04 1.673369808483e-04 0.0 
1.673369808483e-04 5.274165376609e-03 0.0 
0.0 0.0 -7.680022369673e-04 
-4.363801896578e-04 1.202422263910e-03 0.0 
1.202422263910e-03 2.876866297868e-03 0.0 
0.0 0.0 -5.666226778950e-04 
-8.017363352442e-04 3.924823248397e-04 0.0 
3.924823248397e-04 4.130177357856e-03 0.0 
0.0 0.0 -6.498546761489e-04 
-1.141214369151e-03 6.765310758862e-04 0.0 
6.765310758862e-04 7.271411604946e-03 0.0 
0.0 0.0 -1.136725521675e-03 
-8.548535662047e-04 -2.781485263044e-04 0.0 
-2.781485263044e-04 4.164865359686e-03 0.0 
0.0 0.0 -6.189190723244e-04 
-1.237707508229e-03 4.856674807990e-04 0.0 
4.856674807990e-04 7.956457412847e-03 0.0 
0.0 0.0 -1.285202198870e-03 
-1.271584492805e-03 4.859423083683e-04 0.0 
4.859423083683e-04 8.362652585957e-03 0.0 
0.0 0.0 -1.265486236287e-03 
-6.208228587870e-04 6.861521722426e-04 0.0 
6.861521722426e-04 2.794482215749e-03 0.0 
0.0 0.0 -4.595713030950e-04 
-8.601834141272e-04 -1.130024456241e-04 0.0 
-1.130024456241e-04 3.988529893684e-03 0.0 
0.0 0.0 -6.385407451345e-04 
-9.728705791535e-04 -2.427476520657e-04 0.0 
-2.427476520657e-04 7.014843591236e-03 0.0 
0.0 0.0 -1.152822474774e-03 
-7.582637832037e-04 3.173029778375e-04 0.0 
3.173029778375e-04 3.850177976745e-03 0.0 
0.0 0.0 -6.037256927378e-04 
-5.932602371824e-04 9.450171731982e-04 0.0 
9.450171731982e-04 2.345539596427e-03 0.0 
0.0 0.0 -4.251746348339e-04 
-8.883854653183e-04 4.319931064094e-04 0.0 
4.319931064094e-04 4.807571306798e-03 0.0 
0.0 0.0 -7.443430781256e-04 
-4.655628622191e-04 8.097546048135e-04 0.0 
8.097546048135e-04 3.367415080588e-03 0.0 
0.0 0.0 -6.011186688906e-04 
-1.309467600587e-03 2.274324864678e-04 0.0 
2.274324864678e-04 8.467271508597e-03 0.0 
0.0 0.0 -1.279059907835e-03 
-1.139712663312e-03 5.524271265546e-04 0.0 
5.524271265546e-04 6.895093066062e-03 0.0 
0.0 0.0 -1.060691896764e-03 
-1.282894195515e-03 1.713163621167e-04 0.0 
1.713163621167e-04 7.580646218946e-03 0.0 
0.0 0.0 -1.155968210243e-03 
-4.263760736077e-04 9.726189065638e-04 0.0 
9.726189065638e-04 1.483303861492e-03 0.0 
0.0 0.0 -3.328149423972e-04 
-1.567783780417e-04 7.459959337790e-04 0.0 
7.459959337790e-04 2.633807870816e-03 0.0 
0.0 0.0 -5.558335581882e-04 
-1.150277857659e-03 5.855176210150e-04 0.0 
5.855176210150e-04 7.056066340815e-03 0.0 
0.0 0.0 -1.089453766084e-03 
0.0 0.0 0.0 
0.0 0.0 0.0 
0.0 0.0 0.0 
-7.560981228119e-04 5.568058696449e-04 0.0 
5.568058696449e-04 3.796632807166e-03 0.0 
0.0 0.0 -6.073871274648e-04 
-8.851342185419e-04 -4.312210323728e-04 0.0 
-4.312210323728e-04 6.519433320506e-03 0.0 
0.0 0.0 -1.080675545910e-03 
-1.164869828715e-04 -1.456841600207e-04 0.0 
-1.456841600207e-04 9.923335266216e-04 0.0 
0.0 0.0 -1.605608400042e-04 
-1.274326596506e-03 6.277067703956e-04 0.0 
6.277067703956e-04 8.332587857653e-03 0.0 
0.0 0.0 -1.257517519450e-03 
-1.082557255636e-03 4.467183423513e-04 0.0 
4.467183423513e-04 6.398503814141e-03 0.0 
0.0 0.0 -9.749624431058e-04 
-5.927975267284e-04 -7.287134833264e-04 0.0 
-7.287134833264e-04 3.408230795765e-03 0.0 
0.0 0.0 -5.995223474422e-04 
-8.718953006962e-04 8.285847793953e-05 0.0 
8.285847793953e-05 6.481498684251e-03 0.0 
0.0 0.0 -1.082135573042e-03 
-9.644421873602e-04 1.848918456793e-04 0.0 
1.848918456793e-04 5.622214910538e-03 0.0 
0.0 0.0 -8.259898420369e-04 
-9.976541713563e-04 8.643209894894e-06 0.0 
8.643209894894e-06 5.944166007327e-03 0.0 
0.0 0.0 -8.838609275114e-04 
-1.149666595734e-03 -3.245227479459e-04 0.0 
-3.245227479459e-04 7.662117469895e-03 0.0 
0.0 0.0 -1.237791025003e-03 
-6.377976835771e-04 -6.114567573414e-04 0.0 
-6.114567573414e-04 2.689173763955e-03 0.0 
0.0 0.0 -4.583583101839e-04 
-7.880409547895e-04 7.989113980148e-04 0.0 
7.989113980148e-04 4.542855302031e-03 0.0 
0.0 0.0 -7.480401524272e-04 
-9.214234162491e-04 5.351887786335e-04 0.0 
5.351887786335e-04 5.111262659093e-03 0.0 
0.0 0.0 -7.988399675000e-04 
-1.125534786672e-03 7.028976634264e-05 0.0 
7.028976634264e-05 6.721724443554e-03 0.0 
0.0 0.0 -1.008548823165e-03 
-9.505406595461e-04 1.355801735478e-04 0.0 
1.355801735478e-04 5.273089753614e-03 0.0 
0.0 0.0 -8.035999206669e-04 
-8.920793708860e-04 1.354006487991e-04 0.0 
1.354006487991e-04 4.845817227354e-03 0.0 
0.0 0.0 -7.415510827328e-04 
-6.524274381720e-04 1.661117945530e-04 0.0 
1.661117945530e-04 5.489508378744e-03 0.0 
0.0 0.0 -9.414312740916e-04 
-1.133549865804e-03 2.632851943964e-04 0.0 
2.632851943964e-04 7.143578184647e-03 0.0 
0.0 0.0 -1.105110859848e-03 
0.0 0.0 0.0 
0.0 0.0 0.0 
0.0 0.0 0.0 
-5.963424256803e-04 8.235655420392e-04 0.0 
8.235655420392e-04 2.727118741511e-03 0.0 
0.0 0.0 -4.649757541953e-04 
-6.413935052421e-04 9.083237096948e-04 0.0 
9.083237096948e-04 3.060885376631e-03 0.0 
0.0 0.0 -5.249394872960e-04 
-7.860598654059e-04 4.409893248632e-04 0.0 
4.409893248632e-04 4.491993588337e-03 0.0 
0.0 0.0 -7.181710532390e-04 
-1.182550884137e-03 1.586567680609e-04 0.0 
1.586567680609e-04 7.254490089636e-03 0.0 
0.0 0.0 -1.095076276885e-03 
4.583279132942e-04 6.488863092727e-04 0.0 
6.488863092727e-04 -1.405418918228e-05 0.0 
0.0 0.0 -1.904030246194e-04 
-8.562318666799e-04 -4.982168400307e-04 0.0 
-4.982168400307e-04 6.277290697447e-03 0.0 
0.0 0.0 -1.043355442177e-03 
-8.774345447710e-04 -2.186708792855e-04 0.0 
-2.186708792855e-04 5.055368522856e-03 0.0 
0.0 0.0 -7.763349569542e-04 
-2.555112241128e-04 1.229664321452e-03 0.0 
1.229664321452e-03 2.574406854457e-03 0.0 
0.0 0.0 -5.576783925304e-04 
-8.394427967850e-04 -5.648718734432e-04 0.0 
-5.648718734432e-04 6.055308780542e-03 0.0 
0.0 0.0 -1.006238978475e-03 
-7.021339785738e-05 -2.257880490566e-04 0.0 
-2.257880490566e-04 5.234298020475e-04 0.0 
0.0 0.0 -1.250635456846e-04 
-1.135452312747e-03 4.797857508759e-04 0.0 
4.797857508759e-04 6.834881249119e-03 0.0 
0.0 0.0 -1.040010908530e-03 
8.624072222387e-05 -5.482403482058e-05 0.0 
-5.482403482058e-05 4.623552898900e-04 0.0 
0.0 0.0 -1.166360257537e-04 
-1.840491842350e-04 -5.445744923588e-05 0.0 
-5.445744923588e-05 7.493422687288e-04 0.0 
0.0 0.0 -1.819418517600e-04 
-3.913654307844e-04 1.191507394513e-03 0.0 
1.191507394513e-03 1.470311877001e-03 0.0 
0.0 0.0 -3.246947309473e-04 
-6.091026736672e-04 -6.117663185554e-04 0.0 
-6.117663185554e-04 2.275310364661e-03 0.0 
0.0 0.0 -3.935955730116e-04 
-1.177121720242e-03 9.986808741325e-05 0.0 
9.986808741325e-05 7.155425965963e-03 0.0 
0.0 0.0 -1.073797489760e-03 
-5.625078577902e-04 -9.911531115061e-04 0.0 
-9.911531115061e-04 2.166295973773e-03 0.0 
0.0 0.0 -3.637595386041e-04 
-2.431075708166e-04 1.562437016590e-03 0.0 
1.562437016590e-03 1.376800568989e-03 0.0 
0.0 0.0 -3.890718233399e-04 
1.128852675938e-04 -1.510947419960e-03 0.0 
-1.510947419960e-03 7.754974600039e-04 0.0 
0.0 0.0 -3.807354546848e-04 
-5.007957256990e-04 -4.054148446658e-04 0.0 
-4.054148446658e-04 1.463133010542e-03 0.0 
0.0 0.0 -2.670040094673e-04 
-9.159310068134e-04 1.166570594862e-04 0.0 
1.166570594862e-04 6.711157580750e-03 0.0 
0.0 0.0 -1.117524173959e-03 
-9.108885203266e-04 1.625635707661e-04 0.0 
1.625635707661e-04 5.002433540525e-03 0.0 
0.0 0.0 -7.687972329812e-04 
-1.323980336649e-03 7.113171737239e-05 0.0 
7.113171737239e-05 8.245489008711e-03 0.0 
0.0 0.0 -1.256743614961e-03 
0.0 0.0 0.0 
0.0 0.0 0.0 
0.0 0.0 0.0 
-3.330839468946e-04 1.604359709376e-03 0.0 
1.604359709376e-03 1.727019779997e-03 0.0 
0.0 0.0 -4.044045206172e-04 
-3.067142002033e-04 1.081368075103e-03 0.0 
1.081368075103e-03 3.044773964149e-03 0.0 
0.0 0.0 -6.230907113744e-04 
-7.160262700323e-04 6.408733665596e-04 0.0 
6.408733665596e-04 3.506266837881e-03 0.0 
0.0 0.0 -5.709397776106e-04 
-8.360378415299e-04 -1.180231066695e-05 0.0 
-1.180231066695e-05 6.234265106431e-03 0.0 
0.0 0.0 -1.045235091131e-03 
-1.333473067012e-03 -5.395820062031e-05 0.0 
-5.395820062031e-05 8.405361436706e-03 0.0 
0.0 0.0 -1.275930989368e-03 
-1.131889764436e-03 1.436010865761e-04 0.0 
1.436010865761e-04 6.812686989612e-03 0.0 
0.0 0.0 -1.029499106509e-03 
5.269662907404e-05 8.913991735483e-04 0.0 
8.913991735483e-04 1.741226620489e-03 0.0 
0.0 0.0 -4.564841486881e-04 
-9.276981546427e-04 -3.123244619600e-04 0.0 
-3.123244619600e-04 6.731635440410e-03 0.0 
0.0 0.0 -1.116166892424e-03 
-1.162987388940e-03 1.784362897977e-04 0.0 
1.784362897977e-04 6.231822734238e-03 0.0 
0.0 0.0 -9.512440159151e-04 
-8.362061665926e-04 3.771233097708e-04 0.0 
3.771233097708e-04 4.773003845214e-03 0.0 
0.0 0.0 -7.537083776970e-04 
-1.102280810414e-03 4.919717221224e-04 0.0 
4.919717221224e-04 6.560511914991e-03 0.0 
0.0 0.0 -1.003200534345e-03 
-1.172867451038e-03 2.356902410022e-04 0.0 
2.356902410022e-04 7.744999640819e-03 0.0 
0.0 0.0 -1.239730878702e-03 
-2.254924367538e-04 5.849015682570e-04 0.0 
5.849015682570e-04 3.115409937203e-03 0.0 
0.0 0.0 -6.206208101913e-04 
-3.928189268474e-04 1.275344444358e-03 0.0 
1.275344444358e-03 1.843263560049e-03 0.0 
0.0 0.0 -3.752687577596e-04 
-9.992253787165e-04 1.463025209614e-04 0.0 
1.463025209614e-04 5.687199852232e-03 0.0 
0.0 0.0 -8.662621843288e-04 
-1.349788229223e-03 3.426545086550e-04 0.0 
3.426545086550e-04 9.036920857709e-03 0.0 
0.0 0.0 -1.323568725688e-03 
-7.650406542385e-04 4.751592665984e-04 0.0 
4.751592665984e-04 4.601158149833e-03 0.0 
0.0 0.0 -7.453270327203e-04 
-3.775537039009e-04 2.220958575008e-04 0.0 
2.220958575008e-04 4.208109464666e-03 0.0 
0.0 0.0 -7.768443034385e-04 
-9.417507759690e-04 -3.219991258082e-05 0.0 
-3.219991258082e-05 5.716819141930e-03 0.0 
0.0 0.0 -8.293613651800e-04 
-1.509886751970e-04 -1.135282332652e-03 0.0 
-1.135282332652e-03 1.017427284165e-03 0.0 
0.0 0.0 -3.579782397794e-04 
-9.508294649731e-04 4.627212186017e-04 0.0 
4.627212186017e-04 5.212868888400e-03 0.0 
0.0 0.0 -8.060563724883e-04 
-7.773528700208e-05 1.427065922566e-03 0.0 
1.427065922566e-03 1.665502982993e-03 0.0 
0.0 0.0 -4.590591740919e-04 
3.797527258111e-04 1.020114754415e-03 0.0 
1.020114754415e-03 1.842831286956e-04 0.0 
0.0 0.0 -2.417296519314e-04 
4.052395816326e-04 -6.135338758200e-04 0.0 
-6.135338758200e-04 -1.137161459368e-06 0.0 
0.0 0.0 -1.731867515028e-04 
-1.167546277040e-03 4.626490460642e-04 0.0 
4.626490460642e-04 7.101376568989e-03 0.0 
0.0 0.0 -1.075985979751e-03 
-9.623797546726e-04 1.845333678616e-04 0.0 
1.845333678616e-04 5.429528329259e-03 0.0 
0.0 0.0 -8.312490730234e-04 
-5.046075129470e-04 1.194499845990e-03 0.0 
1.194499845990e-03 2.882799900291e-03 0.0 
0.0 0.0 -5.429493831729e-04 
-1.206327788760e-03 8.269099761282e-05 0.0 
8.269099761282e-05 7.415962584707e-03 0.0 
0.0 0.0 -1.109763131677e-03 
-1.142751356386e-03 1.744200963682e-04 0.0 
1.744200963682e-04 6.974478761757e-03 0.0 
0.0 0.0 -1.057773507355e-03 
-8.833943353455e-04 3.220642776102e-04 0.0 
3.220642776102e-04 5.046401869676e-03 0.0 
0.0 0.0 -7.887050335656e-04 
-1.278006429871e-03 -2.029556331096e-04 0.0 
-2.029556331096e-04 8.153709597249e-03 0.0 
0.0 0.0 -1.288412101370e-03 
-4.271610777015e-04 5.562024212731e-04 0.0 
5.562024212731e-04 4.316314637617e-03 0.0 
0.0 0.0 -8.078958932737e-04 
-9.266589239438e-04 2.700924202998e-04 0.0 
2.700924202998e-04 5.312918686649e-03 0.0 
0.0 0.0 -8.238265297874e-04 
-4.963470151794e-04 6.905692722870e-04 0.0 
6.905692722870e-04 3.767490595173e-03 0.0 
0.0 0.0 -6.656476441012e-04 
-4.749686160319e-04 1.532444199585e-04 0.0 
1.532444199585e-04 4.696915836540e-03 0.0 
0.0 0.0 -8.413031780454e-04 
2.625503227397e-04 1.238828002540e-03 0.0 
1.238828002540e-03 6.651443892644e-04 0.0 
0.0 0.0 -3.865807678710e-04 
-9.465847814334e-04 1.767858078852e-04 0.0 
1.767858078852e-04 5.036126749418e-03 0.0 
0.0 0.0 -7.898058234521e-04 
-1.895610884557e-04 4.026718807994e-04 0.0 
4.026718807994e-04 3.226201886936e-03 0.0 
0.0 0.0 -6.486359607860e-04 
1.616252847495e-04 -9.427764674384e-04 0.0 
-9.427764674384e-04 1.519153345857e-03 0.0 
0.0 0.0 -4.681053320140e-04 
-1.124321372716e-03 5.190781523116e-04 0.0 
5.190781523116e-04 6.737556221388e-03 0.0 
0.0 0.0 -1.032318248600e-03 
0.0 0.0 0.0 
0.0 0.0 0.0 
0.0 0.0 0.0 
-9.848011893069e-04 9.254887770331e-05 0.0 
9.254887770331e-05 5.522315715833e-03 0.0 
0.0 0.0 -8.386390795737e-04 
1.936986156422e-05 1.160151507078e-03 0.0 
1.160151507078e-03 1.716486351178e-03 0.0 
0.0 0.0 -4.870240021111e-04 
-2.325836748457e-04 1.289855956993e-03 0.0 
1.289855956993e-03 1.788704446122e-03 0.0 
0.0 0.0 -4.015254440178e-04 
4.595658441768e-04 4.744943126908e-04 0.0 
4.744943126908e-04 7.528832652437e-04 0.0 
0.0 0.0 -4.054414645912e-04 
-1.008402327414e-03 5.265744671369e-04 0.0 
5.265744671369e-04 5.786538932645e-03 0.0 
0.0 0.0 -8.965110541436e-04 
-2.494216096235e-04 -4.335362183750e-04 0.0 
-4.335362183750e-04 9.422411490062e-04 0.0 
0.0 0.0 -1.609926926485e-04 
-6.820720035477e-04 8.119732659470e-04 0.0 
8.119732659470e-04 3.361151585438e-03 0.0 
0.0 0.0 -5.613503766092e-04 
-5.249648680804e-04 4.982973278599e-04 0.0 
4.982973278599e-04 4.821038106347e-03 0.0 
0.0 0.0 -8.726802719924e-04 
-9.620382926610e-04 5.073054538474e-04 0.0 
5.073054538474e-04 5.367475776694e-03 0.0 
0.0 0.0 -8.336838631977e-04 
-9.866522304222e-04 1.405170818081e-04 0.0 
1.405170818081e-04 5.654603971252e-03 0.0 
0.0 0.0 -8.301023967811e-04 
2.987392461190e-04 2.567812312072e-04 0.0 
2.567812312072e-04 -6.027321301993e-05 0.0 
0.0 0.0 -1.021997284710e-04 
2.232246709604e-04 -1.918559463565e-04 0.0 
-1.918559463565e-04 1.424673883171e-03 0.0 
0.0 0.0 -4.706942212664e-04 
9.862482380878e-05 -1.372550038116e-03 0.0 
-1.372550038116e-03 1.318021718147e-03 0.0 
0.0 0.0 -4.311372127493e-04 
-6.563785485795e-04 5.486582363547e-04 0.0 
5.486582363547e-04 3.058796699974e-03 0.0 
0.0 0.0 -4.957039317942e-04 
-1.115649045089e-03 1.001564757614e-04 0.0 
1.001564757614e-04 6.632881085886e-03 0.0 
0.0 0.0 -1.000663671924e-03 
-6.796028561542e-04 5.568827768722e-04 0.0 
5.568827768722e-04 3.430251503350e-03 0.0 
0.0 0.0 -5.577786207633e-04 
-1.458115086374e-04 8.292196236090e-04 0.0 
8.292196236090e-04 2.768893991105e-03 0.0 
0.0 0.0 -6.151539951222e-04 
-1.886011553539e-04 1.051832417911e-03 0.0 
1.051832417911e-03 2.651380485181e-03 0.0 
0.0 0.0 -5.868308051845e-04 
4.119056616429e-04 4.824818133927e-04 0.0 
4.824818133927e-04 -5.163543584123e-05 0.0 
0.0 0.0 -1.544015253436e-04 
-5.103402652263e-04 1.016313603146e-03 0.0 
1.016313603146e-03 3.773155867782e-03 0.0 
0.0 0.0 -6.959382511914e-04 
-1.626884107157e-04 1.342060582958e-03 0.0 
1.342060582958e-03 1.124683386977e-03 0.0 
0.0 0.0 -3.635305771564e-04 
-1.332783064049e-03 3.949756871870e-04 0.0 
3.949756871870e-04 8.970989248616e-03 0.0 
0.0 0.0 -1.321446319728e-03 
-1.363423366848e-03 4.246461146743e-04 0.0 
4.246461146743e-04 8.919856195938e-03 0.0 
0.0 0.0 -1.318029376683e-03 
-7.707229978672e-04 8.349277957258e-04 0.0 
8.349277957258e-04 4.657152987880e-03 0.0 
0.0 0.0 -7.755312068111e-04 
8.477148352467e-05 1.389041319869e-03 0.0 
1.389041319869e-03 1.180405502280e-03 0.0 
0.0 0.0 -4.232985079168e-04 
-7.785189424599e-05 1.403831464932e-03 0.0 
1.403831464932e-03 1.344103223027e-03 0.0 
0.0 0.0 -3.659709354871e-04 
-9.354111606034e-04 6.403030867596e-04 0.0 
6.403030867596e-04 5.396292848320e-03 0.0 
0.0 0.0 -8.539191708180e-04 
9.999732188838e-05 1.139160073047e-03 0.0 
1.139160073047e-03 1.275333839354e-03 0.0 
0.0 0.0 -3.930530440640e-04 
2.202450365264e-04 -6.175447713642e-04 0.0 
-6.175447713642e-04 1.218766433543e-03 0.0 
0.0 0.0 -4.339875075689e-04 
-8.457389435740e-04 6.790973874792e-04 0.0 
6.790973874792e-04 4.708791579724e-03 0.0 
0.0 0.0 -7.563811545761e-04 
-1.327783261122e-03 1.214241298840e-04 0.0 
1.214241298840e-04 8.708921592335e-03 0.0 
0.0 0.0 -1.266640259566e-03 
-1.253349979010e-04 1.227176291700e-03 0.0 
1.227176291700e-03 2.155279357023e-03 0.0 
0.0 0.0 -5.226246958029e-04 
-6.857827131982e-04 6.109821481705e-04 0.0 
6.109821481705e-04 5.443563599872e-03 0.0 
0.0 0.0 -9.428115367422e-04 
1.005352414743e-05 1.485881480078e-03 0.0 
1.485881480078e-03 9.313511271754e-04 0.0 
0.0 0.0 -4.034591362812e-04 
-1.256876494634e-03 -1.116338181287e-04 0.0 
-1.116338181287e-04 8.512233064138e-03 0.0 
0.0 0.0 -1.322863172658e-03 
-5.368107279651e-05 1.667223674442e-03 0.0 
1.667223674442e-03 1.192784921883e-03 0.0 
0.0 0.0 -3.959736908235e-04 
-8.401524306230e-04 7.380205594863e-04 0.0 
7.380205594863e-04 4.834030021030e-03 0.0 
0.0 0.0 -7.835188407615e-04 
5.148731166168e-04 5.137437753511e-04 0.0 
5.137437753511e-04 -7.966675073375e-05 0.0 
0.0 0.0 -1.865170139499e-04 
-5.892765440231e-04 4.534415622219e-05 0.0 
4.534415622219e-05 5.187712345136e-03 0.0 
0.0 0.0 -9.211625808215e-04 
-2.619705547916e-04 9.063726296434e-04 0.0 
9.063726296434e-04 3.144147236726e-03 0.0 
0.0 0.0 -6.516619296807e-04 
5.136778266446e-05 -8.544458010471e-04 0.0 
-8.544458010471e-04 1.672478035934e-03 0.0 
0.0 0.0 -4.625367401933e-04 
-9.230469363571e-04 2.192959829449e-04 0.0 
2.192959829449e-04 5.165828729947e-03 0.0 
0.0 0.0 -7.963903837170e-04 
-1.338316942917e-03 5.052217518095e-04 0.0 
5.052217518095e-04 8.833234944730e-03 0.0 
0.0 0.0 -1.324865334549e-03 
-6.025361920258e-05 9.743864967892e-04 0.0 
9.743864967892e-04 2.246037318888e-03 0.0 
0.0 0.0 -5.510338386786e-04 
-4.966114613551e-04 2.324572275960e-05 0.0 
2.324572275960e-05 4.887340644677e-03 0.0 
0.0 0.0 -8.703234504572e-04 
-4.984372673971e-05 1.535578283139e-03 0.0 
1.535578283139e-03 1.001433575544e-03 0.0 
0.0 0.0 -3.453408408593e-04 
-1.068497402403e-03 3.485541216510e-04 0.0 
3.485541216510e-04 6.344714792472e-03 0.0 
0.0 0.0 -9.576894438039e-04 
-8.089599515326e-04 -1.073379708431e-04 0.0 
-1.073379708431e-04 5.996798576901e-03 0.0 
0.0 0.0 -1.008345180213e-03 
-4.736853950805e-04 1.081684251561e-03 0.0 
1.081684251561e-03 2.201297944192e-03 0.0 
0.0 0.0 -4.109515902261e-04 
-1.055848474588e-03 -6.244673246336e-05 0.0 
-6.244673246336e-05 6.209225770776e-03 0.0 
0.0 0.0 -9.257128893455e-04 
-1.318413144677e-03 5.597520288916e-04 0.0 
5.597520288916e-04 8.736177841961e-03 0.0 
0.0 0.0 -1.322580803729e-03 
-9.099621181087e-04 -7.844937670166e-05 0.0 
-7.844937670166e-05 6.486423483438e-03 0.0 
0.0 0.0 -1.075861678316e-03 
-1.339852007458e-03 4.885566376854e-04 0.0 
4.885566376854e-04 8.877779505668e-03 0.0 
0.0 0.0 -1.322091174222e-03 
-1.037601774292e-03 -4.998348071014e-05 0.0 
-4.998348071014e-05 6.134914618430e-03 0.0 
0.0 0.0 -9.196498359204e-04 
-1.117033596766e-03 2.433107206605e-04 0.0 
2.433107206605e-04 6.851288038562e-03 0.0 
0.0 0.0 -1.048263655743e-03 
-5.132028134043e-04 1.102114687126e-03 0.0 
1.102114687126e-03 1.849180492075e-03 0.0 
0.0 0.0 -3.491910591611e-04 
-8.752311967057e-04 2.096761775609e-04 0.0 
2.096761775609e-04 4.753971328354e-03 0.0 
0.0 0.0 -7.343713905235e-04 
-9.300305532746e-04 5.926935085268e-04 0.0 
5.926935085268e-04 5.253991145748e-03 0.0 
0.0 0.0 -8.263924940540e-04 
-9.692706598054e-04 2.261418497641e-04 0.0 
2.261418497641e-04 5.579447270465e-03 0.0 
0.0 0.0 -8.589723558544e-04 
-7.013973697775e-04 5.476600750058e-04 0.0 
5.476600750058e-04 4.307373761106e-03 0.0 
0.0 0.0 -7.101745248689e-04 
-1.306990612628e-03 5.041978193774e-04 0.0 
5.041978193774e-04 8.672501482610e-03 0.0 
0.0 0.0 -1.322334986692e-03 
-9.943643695485e-04 3.416073873728e-04 0.0 
3.416073873728e-04 5.867113055505e-03 0.0 
0.0 0.0 -8.810748613436e-04 
-9.323244271653e-04 9.613325556177e-05 0.0 
9.613325556177e-05 5.115490294310e-03 0.0 
0.0 0.0 -7.763708431881e-04 
-1.001832059306e-04 5.266866745758e-04 0.0 
5.266866745758e-04 2.724835239940e-03 0.0 
0.0 0.0 -5.843899590101e-04 
-5.790296725673e-04 -5.326125379184e-04 0.0 
-5.326125379184e-04 1.882091514832e-03 0.0 
0.0 0.0 -3.280768480529e-04 
-8.597084284199e-04 1.491840850699e-04 0.0 
1.491840850699e-04 4.593177939361e-03 0.0 
0.0 0.0 -7.069124235890e-04 
-4.246089693938e-04 1.428928262105e-03 0.0 
1.428928262105e-03 2.122954743528e-03 0.0 
0.0 0.0 -4.404772202000e-04 
-8.726090169173e-04 -3.101571305491e-05 0.0 
-3.101571305491e-05 5.309765821533e-03 0.0 
0.0 0.0 -7.696142143080e-04 
-7.647244692160e-05 -1.455292213990e-03 0.0 
-1.455292213990e-03 1.759408115361e-03 0.0 
0.0 0.0 -4.595640944490e-04 
-1.784270519959e-05 6.865399459054e-04 0.0 
6.865399459054e-04 2.226340647437e-03 0.0 
0.0 0.0 -5.202658224677e-04 
-1.156111700983e-03 5.188644452185e-04 0.0 
5.188644452185e-04 7.007873302369e-03 0.0 
0.0 0.0 -1.069052450572e-03 
-3.544111730508e-04 1.143529289652e-03 0.0 
1.143529289652e-03 2.186339618849e-03 0.0 
0.0 0.0 -4.372567615832e-04 
-8.838010647401e-04 5.805967859428e-04 0.0 
5.805967859428e-04 4.846530847442e-03 0.0 
0.0 0.0 -7.640689829422e-04 
-5.498264973309e-04 3.710435615581e-04 0.0 
3.710435615581e-04 5.012164832543e-03 0.0 
0.0 0.0 -9.014246907137e-04 
-6.358980608267e-04 -4.313104688366e-04 0.0 
-4.313104688366e-04 4.627036023584e-03 0.0 
0.0 0.0 -8.035328976187e-04 
-1.261046308643e-03 3.887646222973e-04 0.0 
3.887646222973e-04 8.565225437675e-03 0.0 
0.0 0.0 -1.324762665914e-03 
-7.961969453534e-04 2.495159098011e-04 0.0 
2.495159098011e-04 4.113140991581e-03 0.0 
0.0 0.0 -6.390224077203e-04 
3.053061856643e-04 2.267805296744e-04 0.0 
2.267805296744e-04 1.077273840324e-03 0.0 
0.0 0.0 -4.422638729430e-04 
-5.704666668683e-04 -1.178468115440e-03 0.0 
-1.178468115440e-03 3.201154498828e-03 0.0 
0.0 0.0 -5.691257024010e-04 
-5.951122843918e-04 8.042220484985e-04 0.0 
8.042220484985e-04 2.449547643677e-03 0.0 
0.0 0.0 -4.184705811166e-04 
-5.000320666269e-04 1.320407470952e-03 0.0 
1.320407470952e-03 2.143724443106e-03 0.0 
0.0 0.0 -4.141309408042e-04 
-1.196454144110e-03 1.993133203818e-04 0.0 
1.993133203818e-04 7.413315256709e-03 0.0 
0.0 0.0 -1.123886314723e-03 
-8.766172246535e-04 3.573442557890e-04 0.0 
3.573442557890e-04 5.175634424808e-03 0.0 
0.0 0.0 -8.161479701220e-04 
-7.263474599636e-04 3.526993364896e-04 0.0 
3.526993364896e-04 3.570072660402e-03 0.0 
0.0 0.0 -5.672387349321e-04 
-8.352265289735e-04 5.640695091739e-04 0.0 
5.640695091739e-04 4.443467777814e-03 0.0 
0.0 0.0 -7.023794137935e-04 
-1.258131779879e-03 1.361172827669e-04 0.0 
1.361172827669e-04 8.496942290822e-03 0.0 
0.0 0.0 -1.320675234999e-03 
-1.143815948478e-03 -2.922836025438e-06 0.0 
-2.922836025438e-06 7.935052382313e-03 0.0 
0.0 0.0 -1.258064670439e-03 
-1.185356167607e-03 5.772655224951e-04 0.0 
5.772655224951e-04 7.334174599953e-03 0.0 
0.0 0.0 -1.126590436115e-03 
-1.146342777142e-03 1.032030268662e-04 0.0 
1.032030268662e-04 6.902588040038e-03 0.0 
0.0 0.0 -1.037522200811e-03 
-6.004564824823e-04 -8.741253658515e-04 0.0 
-8.741253658515e-04 4.400886106663e-03 0.0 
0.0 0.0 -7.721428985420e-04 
-6.499827822082e-04 6.306060725170e-04 0.0 
6.306060725170e-04 3.517235102446e-03 0.0 
0.0 0.0 -5.842812205453e-04 
2.208852054121e-04 7.449773440899e-04 0.0 
7.449773440899e-04 1.272300042131e-03 0.0 
0.0 0.0 -4.203166018452e-04 
1.283124150736e-04 5.457702178093e-04 0.0 
5.457702178093e-04 1.800318710438e-03 0.0 
0.0 0.0 -4.843489805398e-04 
-8.229602156181e-04 4.179326389388e-04 0.0 
4.179326389388e-04 4.894594765891e-03 0.0 
0.0 0.0 -7.808727949117e-04 
-5.351512224978e-04 -3.319303625282e-04 0.0 
-3.319303625282e-04 5.022677570586e-03 0.0 
0.0 0.0 -8.900964085843e-04 
-8.296790490015e-04 -7.574227516101e-04 0.0 
-7.574227516101e-04 4.266073095582e-03 0.0 
0.0 0.0 -6.810091006415e-04 
-1.209161835961e-03 5.397487415350e-04 0.0 
5.397487415350e-04 7.456423275886e-03 0.0 
0.0 0.0 -1.134236807130e-03 
2.970140770782e-04 -5.886898203256e-04 0.0 
-5.886898203256e-04 1.178529551260e-03 0.0 
0.0 0.0 -4.395655422792e-04 
-6.321441937111e-04 6.212871376415e-04 0.0 
6.212871376415e-04 4.001931118120e-03 0.0 
0.0 0.0 -6.750378637491e-04 
-8.881105026694e-04 6.325939136900e-04 0.0 
6.325939136900e-04 4.979851951469e-03 0.0 
0.0 0.0 -7.913284153978e-04 
-6.067465934174e-04 6.691797761234e-04 0.0 
6.691797761234e-04 3.597583737962e-03 0.0 
0.0 0.0 -6.122259156574e-04 
-1.324329620218e-03 4.629903675986e-04 0.0 
4.629903675986e-04 8.904888157841e-03 0.0 
0.0 0.0 -1.320088186226e-03 
-1.359586791555e-03 4.788353102242e-04 0.0 
4.788353102242e-04 8.942288232093e-03 0.0 
0.0 0.0 -1.318462653075e-03 
-1.290025244180e-03 1.809732516489e-04 0.0 
1.809732516489e-04 8.380056929833e-03 0.0 
0.0 0.0 -1.256494544188e-03 
-6.742581298534e-04 -7.798202117693e-04 0.0 
-7.798202117693e-04 4.873866166937e-03 0.0 
0.0 0.0 -8.375255977276e-04 
-1.194824314076e-03 4.521929309845e-04 0.0 
4.521929309845e-04 7.360058874814e-03 0.0 
0.0 0.0 -1.112065035246e-03 
-4.430818055786e-04 1.485014206495e-03 0.0 
1.485014206495e-03 1.784679357047e-03 0.0 
0.0 0.0 -3.785953687517e-04 
2.729854799726e-05 3.936097668604e-04 0.0 
3.936097668604e-04 2.328364048534e-03 0.0 
0.0 0.0 -5.483018170244e-04 
5.295881833206e-04 7.121810223511e-04 0.0 
7.121810223511e-04 1.629388308909e-04 0.0 
0.0 0.0 -2.967972918049e-04 
-7.211884972610e-04 4.566068001278e-04 0.0 
4.566068001278e-04 3.698308171073e-03 0.0 
0.0 0.0 -5.936226173563e-04 
-9.121582442551e-04 9.143313993339e-05 0.0 
9.143313993339e-05 5.030258123682e-03 0.0 
0.0 0.0 -7.914980036671e-04 
-1.035929216748e-03 3.563880147614e-04 0.0 
3.563880147614e-04 6.090521981813e-03 0.0 
0.0 0.0 -9.214502702889e-04 
-1.168840555119e-03 -8.744363195648e-05 0.0 
-8.744363195648e-05 8.066384051930e-03 0.0 
0.0 0.0 -1.265403586923e-03 
-1.162609015209e-03 6.330590177409e-04 0.0 
6.330590177409e-04 7.197897661744e-03 0.0 
0.0 0.0 -1.117224974728e-03 
-9.919773035698e-04 4.807053877499e-04 0.0 
4.807053877499e-04 5.626646372679e-03 0.0 
0.0 0.0 -8.687609488834e-04 
-9.791621869581e-04 6.007006909595e-04 0.0 
6.007006909595e-04 5.670050972566e-03 0.0 
0.0 0.0 -8.891947744737e-04 
4.804557488344e-04 9.476988486698e-04 0.0 
9.476988486698e-04 9.767658471986e-05 0.0 
0.0 0.0 -2.477710000947e-04 
-2.208441256582e-04 -6.752013946383e-04 0.0 
-6.752013946383e-04 8.882775518556e-04 0.0 
0.0 0.0 -2.467363499356e-04 
-4.153429420499e-04 1.059032103328e-03 0.0 
1.059032103328e-03 3.417216683434e-03 0.0 
0.0 0.0 -6.594106982652e-04 
-6.669546155335e-04 5.596997560711e-04 0.0 
5.596997560711e-04 4.411048143991e-03 0.0 
0.0 0.0 -7.376142925499e-04 
-4.466823138591e-04 6.032870064143e-04 0.0 
6.032870064143e-04 3.840807050757e-03 0.0 
0.0 0.0 -6.931905564144e-04 
6.417191678250e-05 8.603242808997e-04 0.0 
8.603242808997e-04 4.417253736716e-04 0.0 
0.0 0.0 -2.168131244803e-04 
-9.528466809374e-04 9.473419018348e-05 0.0 
9.473419018348e-05 5.427141204722e-03 0.0 
0.0 0.0 -8.462285223656e-04 
-5.049741343807e-04 -8.812005228938e-04 0.0 
-8.812005228938e-04 1.770302560701e-03 0.0 
0.0 0.0 -2.972104253142e-04 
-2.017300964170e-04 1.588765395916e-03 0.0 
1.588765395916e-03 1.677129549565e-03 0.0 
0.0 0.0 -4.314049239902e-04 
-1.341153861134e-03 -7.479496163088e-05 0.0 
-7.479496163088e-05 8.257374884626e-03 0.0 
0.0 0.0 -1.341153861134e-03 
-6.757643640114e-04 6.444207577368e-05 0.0 
6.444207577368e-05 5.692433792017e-03 0.0 
0.0 0.0 -9.717687626070e-04 
-9.402714050330e-04 4.164454812488e-04 0.0 
4.164454812488e-04 5.059115903313e-03 0.0 
0.0 0.0 -7.790007367612e-04 
-1.996455075654e-04 1.120227626459e-04 0.0 
1.120227626459e-04 1.363834974093e-03 0.0 
0.0 0.0 -2.176483604987e-04 
-7.316139978666e-04 8.725598858698e-04 0.0 
8.725598858698e-04 4.250250205740e-03 0.0 
0.0 0.0 -7.126719623954e-04 
-3.416312472277e-04 6.071238986655e-04 0.0 
6.071238986655e-04 3.482434275960e-03 0.0 
0.0 0.0 -6.569982659716e-04 
-1.010067214733e-03 1.858710736428e-04 0.0 
1.858710736428e-04 5.842461225268e-03 0.0 
0.0 0.0 -8.940630110299e-04 
-1.333890643160e-03 5.791621130684e-04 0.0 
5.791621130684e-04 8.805315107962e-03 0.0 
0.0 0.0 -1.323832587333e-03 
-8.707338927728e-04 5.246940464045e-04 0.0 
5.246940464045e-04 4.704277736275e-03 0.0 
0.0 0.0 -7.366500567795e-04 
-9.271217876491e-04 3.071330387493e-04 0.0 
3.071330387493e-04 5.453258810761e-03 0.0 
0.0 0.0 -8.513774089097e-04 
-8.050460189817e-04 -4.209308180889e-04 0.0 
-4.209308180889e-04 4.202095383354e-03 0.0 
0.0 0.0 -6.837695253815e-04 
-1.187192617587e-03 5.026303496446e-04 0.0 
5.026303496446e-04 7.280339694805e-03 0.0 
0.0 0.0 -1.105258581891e-03 
-7.119244178252e-04 -3.438823351423e-04 0.0 
-3.438823351423e-04 5.099696206057e-03 0.0 
0.0 0.0 -8.691653677727e-04 
-1.316090240167e-03 5.389588138701e-04 0.0 
5.389588138701e-04 8.780826577697e-03 0.0 
0.0 0.0 -1.322174839672e-03 
-1.340103718614e-03 4.728281156223e-04 0.0 
4.728281156223e-04 8.628873091994e-03 0.0 
0.0 0.0 -1.340103718614e-03 
-1.341028575724e-03 3.568557509173e-04 0.0 
3.568557509173e-04 8.716110367900e-03 0.0 
0.0 0.0 -1.341028575724e-03 
-1.338044909071e-03 4.168385009661e-04 0.0 
4.168385009661e-04 8.630348436964e-03 0.0 
0.0 0.0 -1.338044909071e-03 
-1.019072052988e-03 5.681193801066e-04 0.0 
5.681193801066e-04 5.940654999783e-03 0.0 
0.0 0.0 -9.244680137507e-04 
-1.198675717763e-03 1.360258094172e-04 0.0 
1.360258094172e-04 7.335887667339e-03 0.0 
0.0 0.0 -1.103002250422e-03 
-1.198479165231e-03 6.200957679300e-04 0.0 
6.200957679300e-04 7.509008113829e-03 0.0 
0.0 0.0 -1.155914796392e-03 
-6.394343852437e-04 1.004430984718e-03 0.0 
1.004430984718e-03 3.542163334784e-03 0.0 
0.0 0.0 -6.147330147620e-04 
-6.675475430971e-04 9.277672711453e-04 0.0 
9.277672711453e-04 3.456421744926e-03 0.0 
0.0 0.0 -5.872917534094e-04 
-8.247859078912e-04 -6.922016390902e-04 0.0 
-6.922016390902e-04 4.077408079033e-03 0.0 
0.0 0.0 -6.436934073013e-04 
-1.217910302125e-03 1.553299834490e-04 0.0 
1.553299834490e-04 7.518311075799e-03 0.0 
0.0 0.0 -1.131852245309e-03 
-1.311936692750e-03 5.307865598084e-04 0.0 
5.307865598084e-04 8.695029491200e-03 0.0 
0.0 0.0 -1.322440284024e-03 
-1.214240069695e-03 4.882095922708e-04 0.0 
4.882095922708e-04 7.535305569948e-03 0.0 
0.0 0.0 -1.141180801552e-03 
-5.747438901480e-04 1.003283814169e-04 0.0 
1.003283814169e-04 5.194431951746e-03 0.0 
0.0 0.0 -9.063345769726e-04 
-1.227388762698e-03 1.265853976664e-04 0.0 
1.265853976664e-04 7.592479060989e-03 0.0 
0.0 0.0 -1.138864741757e-03 
-8.838474672112e-04 3.395282227197e-04 0.0 
3.395282227197e-04 6.126324240512e-03 0.0 
0.0 0.0 -9.903545940741e-04 
-6.357684789507e-04 9.653705253964e-04 0.0 
9.653705253964e-04 4.033111277517e-03 0.0 
0.0 0.0 -7.049739924763e-04 
-7.219643329354e-04 7.270984363887e-04 0.0 
7.270984363887e-04 3.640512255542e-03 0.0 
0.0 0.0 -5.967387615352e-04 
1.271449544166e-04 1.530874377193e-03 0.0 
1.530874377193e-03 7.660888374693e-04 0.0 
0.0 0.0 -3.828144822368e-04 
-1.311008186282e-03 3.440606395408e-04 0.0 
3.440606395408e-04 8.440809804770e-03 0.0 
0.0 0.0 -1.282213402295e-03 
-5.754210014705e-04 1.101723762793e-03 0.0 
1.101723762793e-03 3.231346314138e-03 0.0 
0.0 0.0 -5.792479259103e-04 
-1.176826657867e-03 4.517387013495e-04 0.0 
4.517387013495e-04 7.668341186852e-03 0.0 
0.0 0.0 -1.230767059693e-03 
-8.116549819174e-04 -3.660838800677e-04 0.0 
-3.660838800677e-04 4.013024169842e-03 0.0 
0.0 0.0 -6.465396845166e-04 
-1.917368362491e-04 -1.670915138255e-03 0.0 
-1.670915138255e-03 1.673857297907e-03 0.0 
0.0 0.0 -4.222915044375e-04 
-1.218810452461e-03 -6.182829621563e-05 0.0 
-6.182829621563e-05 7.834853919449e-03 0.0 
0.0 0.0 -1.284312900220e-03 
-3.227899414303e-04 1.463352553329e-03 0.0 
1.463352553329e-03 2.102017459643e-03 0.0 
0.0 0.0 -4.669824892858e-04 
-1.341987455608e-03 4.935381790995e-04 0.0 
4.935381790995e-04 8.595598521703e-03 0.0 
0.0 0.0 -1.341987455608e-03 
-1.324901016307e-03 3.587683922887e-04 0.0 
3.587683922887e-04 8.344464300183e-03 0.0 
0.0 0.0 -1.282654109251e-03 
-8.850522684098e-04 7.214064072268e-04 0.0 
7.214064072268e-04 5.245748206413e-03 0.0 
0.0 0.0 -8.462542048450e-04 
-8.057611890132e-05 -1.710152855484e-04 0.0 
-1.710152855484e-04 3.103213667799e-04 0.0 
0.0 0.0 -9.846224909082e-05 
-1.340954708392e-03 5.230440169069e-04 0.0 
5.230440169069e-04 8.529172830874e-03 0.0 
0.0 0.0 -1.340954708391e-03 
-1.218199846518e-03 4.994387147233e-06 0.0 
4.994387147233e-06 7.808383985296e-03 0.0 
0.0 0.0 -1.284661450484e-03 
-4.838292351495e-05 -1.134502527952e-03 0.0 
-1.134502527952e-03 1.589566893982e-03 0.0 
0.0 0.0 -4.253660281670e-04 
-6.012411031331e-04 -5.471211505199e-06 0.0 
-5.471211505199e-06 5.388600975266e-03 0.0 
0.0 0.0 -9.353130867196e-04 
-1.284222320321e-03 3.331079903689e-04 0.0 
3.331079903689e-04 8.551492227036e-03 0.0 
0.0 0.0 -1.323014926434e-03 
0.0 0.0 0.0 
0.0 0.0 0.0 
0.0 0.0 0.0 
-6.023691884067e-04 1.029224405588e-03 0.0 
1.029224405588e-03 3.627406800571e-03 0.0 
0.0 0.0 -6.425506931502e-04 
-9.361925531562e-04 6.770287321789e-04 0.0 
6.770287321789e-04 5.532046743254e-03 0.0 
0.0 0.0 -8.816033652580e-04 
-8.298014528126e-04 7.768529914015e-04 0.0 
7.768529914015e-04 4.954128457589e-03 0.0 
0.0 0.0 -8.109139232486e-04 
-8.897770840316e-04 6.877783995216e-04 0.0 
6.877783995216e-04 5.117343312454e-03 0.0 
0.0 0.0 -8.186613860469e-04 
-1.469792992645e-04 1.697477444243e-03 0.0 
1.697477444243e-03 1.268784698810e-03 0.0 
0.0 0.0 -3.960833248805e-04 
-1.341360672448e-03 5.109795992512e-04 0.0 
5.109795992512e-04 8.445730971081e-03 0.0 
0.0 0.0 -1.341360672448e-03 
-7.719693981544e-05 2.760009161414e-04 0.0 
2.760009161414e-04 2.850848330235e-03 0.0 
0.0 0.0 -6.123778370825e-04 
1.753729935007e-04 1.501404700023e-05 0.0 
1.501404700023e-05 -5.243892185943e-05 0.0 
0.0 0.0 -5.268603070342e-05 
-1.302465582654e-03 -2.496096405259e-04 0.0 
-2.496096405259e-04 8.365120953103e-03 0.0 
0.0 0.0 -1.272354826527e-03 
-1.485058388714e-04 -2.923397016935e-04 0.0 
-2.923397016935e-04 5.768067641683e-04 0.0 
0.0 0.0 -1.019437782286e-04 
-7.982614346128e-04 6.111031080938e-04 0.0 
6.111031080938e-04 4.181968739078e-03 0.0 
0.0 0.0 -6.678899790658e-04 
2.246133581427e-04 -6.808997986787e-04 0.0 
-6.808997986787e-04 1.445508393424e-04 0.0 
0.0 0.0 -1.582132274936e-04 
-8.489872345980e-04 4.667487785959e-04 0.0 
4.667487785959e-04 4.536973076965e-03 0.0 
0.0 0.0 -7.094882865497e-04 
-1.255369180247e-03 1.858612183136e-05 0.0 
1.858612183136e-05 8.476379217670e-03 0.0 
0.0 0.0 -1.321823097425e-03 
-1.341255375116e-03 4.796779653900e-04 0.0 
4.796779653900e-04 8.398188684786e-03 0.0 
0.0 0.0 -1.341255375116e-03 
-9.721290586981e-04 5.581628762271e-04 0.0 
5.581628762271e-04 5.522703984207e-03 0.0 
0.0 0.0 -8.613793510407e-04 
1.600321873614e-04 -6.162664284866e-04 0.0 
-6.162664284866e-04 1.802849776087e-04 0.0 
0.0 0.0 -1.458502135586e-04 
3.109225001715e-06 1.120621869490e-06 0.0 
1.120621869490e-06 -8.787071989554e-07 0.0 
0.0 0.0 -9.559362011828e-07 
1.535176122475e-04 -1.236399581379e-03 0.0 
-1.236399581379e-03 5.447751134409e-04 0.0 
0.0 0.0 -2.992683110093e-04 
-1.116873810569e-03 -5.374998991881e-04 0.0 
-5.374998991881e-04 7.110713391746e-03 0.0 
0.0 0.0 -1.121833217354e-03 
-9.101085565852e-04 1.581356444995e-04 0.0 
1.581356444995e-04 5.291968435283e-03 0.0 
0.0 0.0 -7.704300227928e-04 
-9.627171074924e-04 3.587877174801e-05 0.0 
3.587877174801e-05 5.332601127641e-03 0.0 
0.0 0.0 -8.109332722942e-04 
-1.342502730507e-03 4.025374877915e-04 0.0 
4.025374877915e-04 8.333596175980e-03 0.0 
0.0 0.0 -1.342502730507e-03 
-9.258687689408e-04 6.411213788910e-05 0.0 
6.411213788910e-05 5.298171403091e-03 0.0 
0.0 0.0 -7.720444664677e-04 
-1.356038484680e-03 3.810509766439e-04 0.0 
3.810509766439e-04 8.994012411350e-03 0.0 
0.0 0.0 -1.322852565091e-03 
-9.095582700075e-04 6.913502515422e-04 0.0 
6.913502515422e-04 6.199031272495e-03 0.0 
0.0 0.0 -1.020998643257e-03 
-1.011415993933e-03 3.149863478337e-04 0.0 
3.149863478337e-04 5.896378527379e-03 0.0 
0.0 0.0 -8.907448815977e-04 
-5.714615022677e-04 1.156558804127e-03 0.0 
1.156558804127e-03 2.460117787699e-03 0.0 
0.0 0.0 -4.477608806526e-04 
-6.254234584821e-04 4.541246643039e-04 0.0 
4.541246643039e-04 5.320880420055e-03 0.0 
0.0 0.0 -9.378661514434e-04 
3.838669366307e-04 1.236207229742e-03 0.0 
1.236207229742e-03 2.839536722242e-04 0.0 
0.0 0.0 -2.862088323664e-04 
-1.340754991027e-03 2.766872434976e-04 0.0 
2.766872434976e-04 8.283487658048e-03 0.0 
0.0 0.0 -1.340754991027e-03 
-1.339984467612e-03 4.682059719065e-04 0.0 
4.682059719065e-04 8.622431533437e-03 0.0 
0.0 0.0 -1.339984467612e-03 
-1.340417744004e-03 3.687782300389e-04 0.0 
3.687782300389e-04 8.691962583590e-03 0.0 
0.0 0.0 -1.340417744004e-03 
-7.614631425941e-04 -7.600693639472e-04 0.0 
-7.600693639472e-04 5.166067953467e-03 0.0 
0.0 0.0 -8.666500598261e-04 
-8.083534389449e-04 -6.157792834396e-04 0.0 
-6.157792834396e-04 3.875634950425e-03 0.0 
0.0 0.0 -6.062238016986e-04 
-5.875577080076e-04 6.263804956418e-04 0.0 
6.263804956418e-04 4.098789747432e-03 0.0 
0.0 0.0 -7.021192356133e-04 
-7.972896345738e-04 -3.252844081748e-04 0.0 
-3.252844081748e-04 5.374062371917e-03 0.0 
0.0 0.0 -8.981573260837e-04 
-1.339627896631e-03 1.538435656171e-04 0.0 
1.538435656171e-04 8.249387984378e-03 0.0 
0.0 0.0 -1.339627896631e-03 
-7.499431316128e-05 1.153135812952e-03 0.0 
1.153135812952e-03 1.745463721331e-03 0.0 
0.0 0.0 -4.287941800800e-04 
9.963389295363e-05 -4.974640475465e-04 0.0 
-4.974640475465e-04 1.806583108532e-03 0.0 
0.0 0.0 -4.991860405784e-04 
-4.325429609303e-05 -6.957715566116e-04 0.0 
-6.957715566116e-04 2.198402972482e-03 0.0 
0.0 0.0 -5.272458293186e-04 
-1.040852931917e-03 3.039409917234e-04 0.0 
3.039409917234e-04 6.156930146379e-03 0.0 
0.0 0.0 -9.279583942086e-04 
-1.296158163173e-03 -2.117115631842e-04 0.0 
-2.117115631842e-04 8.526713660580e-03 0.0 
0.0 0.0 -1.323537156312e-03 
5.620572206727e-05 -9.064776901539e-04 0.0 
-9.064776901539e-04 4.833799193028e-04 0.0 
0.0 0.0 -2.312509891586e-04 
-1.340775759057e-03 -3.546022348328e-06 0.0 
-3.546022348328e-06 8.220355043040e-03 0.0 
0.0 0.0 -1.340775759057e-03 
-1.115561951243e-04 -9.424028116119e-04 0.0 
-9.424028116119e-04 2.079879554815e-03 0.0 
0.0 0.0 -4.905422085546e-04 
-1.342877878941e-03 5.106164496302e-04 0.0 
5.106164496302e-04 8.578886692927e-03 0.0 
0.0 0.0 -1.342877878941e-03 
-1.213674372651e-03 2.426946528992e-04 0.0 
2.426946528992e-04 7.585431715108e-03 0.0 
0.0 0.0 -1.152765850879e-03 
7.551303923517e-04 -3.431961155864e-05 0.0 
-3.431961155864e-05 -8.356761588733e-06 0.0 
0.0 0.0 -1.964897908492e-04 
-5.576622204016e-04 1.038766121166e-03 0.0 
1.038766121166e-03 3.693734829533e-03 0.0 
0.0 0.0 -6.690559060524e-04 
-1.231945608432e-03 6.630499771306e-05 0.0 
6.630499771306e-05 7.672705385687e-03 0.0 
0.0 0.0 -1.146019594970e-03 
-1.341220131281e-03 5.159350734492e-04 0.0 
5.159350734492e-04 8.502743697499e-03 0.0 
0.0 0.0 -1.341220131281e-03 
-1.018091222593e-03 2.268797553762e-04 0.0 
2.268797553762e-04 5.997567393014e-03 0.0 
0.0 0.0 -9.220067723808e-04 
-9.140544266385e-04 6.590381545290e-04 0.0 
6.590381545290e-04 6.350398110146e-03 0.0 
0.0 0.0 -1.049000704964e-03 
1.948485511646e-04 1.206910249746e-03 0.0 
1.206910249746e-03 4.719329916516e-04 0.0 
0.0 0.0 -2.857635183498e-04 
-1.092933677572e-03 -5.430090234952e-06 0.0 
-5.430090234952e-06 7.417148133219e-03 0.0 
0.0 0.0 -1.228682347183e-03 
-2.597655749325e-04 -9.580958323714e-04 0.0 
-9.580958323714e-04 2.468405464320e-03 0.0 
0.0 0.0 -5.184025592846e-04 
-1.467448334793e-04 -1.253609516085e-03 0.0 
-1.253609516085e-03 2.277465230796e-03 0.0 
0.0 0.0 -5.242929400402e-04 
8.350711239016e-05 -5.741871043008e-04 0.0 
-5.741871043008e-04 2.364507936714e-04 0.0 
0.0 0.0 -1.371248168835e-04 
-1.341079611575e-03 4.984530224516e-04 0.0 
4.984530224516e-04 8.418558490732e-03 0.0 
0.0 0.0 -1.341079611575e-03 
3.309852724411e-04 1.022663251937e-03 0.0 
1.022663251937e-03 7.457111261596e-04 0.0 
0.0 0.0 -3.670041082731e-04 
-9.538216450079e-04 -4.415701274725e-04 0.0 
-4.415701274725e-04 6.798030040948e-03 0.0 
0.0 0.0 -1.110501492391e-03 
-9.815143922996e-04 -1.301923920288e-04 0.0 
-1.301923920288e-04 5.716261133104e-03 0.0 
0.0 0.0 -8.555322119248e-04 
-5.211778943541e-04 -1.357561140200e-03 0.0 
-1.357561140200e-03 2.381396269316e-03 0.0 
0.0 0.0 -4.411586999297e-04 
5.027865284570e-06 -1.162974144005e-03 0.0 
-1.162974144005e-03 1.893137919142e-03 0.0 
0.0 0.0 -4.964677435772e-04 
-9.740976170288e-04 2.668400150695e-04 0.0 
2.668400150695e-04 5.727433876448e-03 0.0 
0.0 0.0 -8.867075537039e-04 
-1.342259935407e-03 3.249478019742e-04 0.0 
3.249478019742e-04 8.304746317588e-03 0.0 
0.0 0.0 -1.342259935407e-03 
-8.513383339797e-04 -2.155531084130e-04 0.0 
-2.155531084130e-04 4.042684079104e-03 0.0 
0.0 0.0 -6.378868265889e-04 
-8.326579327741e-04 -6.269168235212e-04 0.0 
-6.269168235212e-04 5.839362625743e-03 0.0 
0.0 0.0 -9.693340058278e-04 
-7.491524898005e-04 8.473182538136e-04 0.0 
8.473182538136e-04 4.765927930056e-03 0.0 
0.0 0.0 -8.030799362305e-04 
-5.836032186753e-04 -5.383312615796e-04 0.0 
-5.383312615796e-04 5.022073810354e-03 0.0 
0.0 0.0 -8.811160271665e-04 
4.293152286993e-05 -8.173969837308e-04 0.0 
-8.173969837308e-04 2.098601697323e-03 0.0 
0.0 0.0 -5.326451291888e-04 
-7.517931783722e-04 -6.967384815080e-04 0.0 
-6.967384815080e-04 5.353981326588e-03 0.0 
0.0 0.0 -9.031726653527e-04 
-7.384492594485e-04 4.981620025079e-04 0.0 
4.981620025079e-04 4.715692557206e-03 0.0 
0.0 0.0 -7.729461360948e-04 
-9.594660891244e-04 3.310922572756e-04 0.0 
3.310922572756e-04 6.288208991268e-03 0.0 
0.0 0.0 -9.982497011217e-04 
-7.260155598219e-04 4.211913378779e-04 0.0 
4.211913378779e-04 5.817009197579e-03 0.0 
0.0 0.0 -1.003134534203e-03 
-6.776109950317e-04 9.016603010913e-04 0.0 
9.016603010913e-04 4.450317334473e-03 0.0 
0.0 0.0 -7.676694601592e-04 
-7.429113511031e-04 -5.174574473206e-04 0.0 
-5.174574473206e-04 3.948133648233e-03 0.0 
0.0 0.0 -6.551190094499e-04 
-2.218900255169e-04 1.098460281572e-03 0.0 
1.098460281572e-03 2.169381084645e-03 0.0 
0.0 0.0 -4.640097282922e-04 
-8.062369115313e-04 -2.975304159245e-04 0.0 
-2.975304159245e-04 3.811084005570e-03 0.0 
0.0 0.0 -6.091269606258e-04 
-8.824461864644e-04 3.062506020875e-04 0.0 
3.062506020875e-04 6.271794679198e-03 0.0 
0.0 0.0 -1.018204129641e-03 
-4.460788929649e-04 4.040748578588e-04 0.0 
4.040748578588e-04 4.503525698480e-03 0.0 
0.0 0.0 -8.365169925761e-04 
-1.261002707828e-03 -7.504870971913e-05 0.0 
-7.504870971913e-05 8.505176480558e-03 0.0 
0.0 0.0 -1.321929620191e-03 
-1.247677519614e-03 1.094732648068e-04 0.0 
1.094732648068e-04 7.850453942976e-03 0.0 
0.0 0.0 -1.174325249119e-03 
-5.404813862772e-04 -9.466285983316e-04 0.0 
-9.466285983316e-04 2.223885193950e-03 0.0 
0.0 0.0 -4.069995479128e-04 
-1.341047338368e-03 7.540167646977e-05 0.0 
7.540167646977e-05 8.197352777791e-03 0.0 
0.0 0.0 -1.341047338368e-03 
-1.130691151971e-03 -1.784363264906e-05 0.0 
-1.784363264906e-05 8.053842301100e-03 0.0 
0.0 0.0 -1.266414110344e-03 
-4.715184922734e-04 9.294387903624e-04 0.0 
9.294387903624e-04 3.876101003561e-03 0.0 
0.0 0.0 -7.237787631415e-04 
3.035840363914e-05 -4.057342954642e-04 0.0 
-4.057342954642e-04 2.137280708151e-04 0.0 
0.0 0.0 -1.046084890518e-04 
-1.265736625837e-03 -2.342234423567e-04 0.0 
-2.342234423567e-04 8.560274388960e-03 0.0 
0.0 0.0 -1.323469717371e-03 
-1.248103745975e-03 1.754263225543e-04 0.0 
1.754263225543e-04 7.767855351365e-03 0.0 
0.0 0.0 -1.167157861819e-03 
-2.143426304924e-04 -1.125447243117e-03 0.0 
-1.125447243117e-03 2.012406359622e-03 0.0 
0.0 0.0 -4.535238702637e-04 
-1.341709311524e-03 -1.537021795728e-04 0.0 
-1.537021795728e-04 8.247140811223e-03 0.0 
0.0 0.0 -1.341709311524e-03 
-8.340634901946e-04 -6.821178693031e-04 0.0 
-6.821178693031e-04 5.639816405277e-03 0.0 
0.0 0.0 -9.325599965574e-04 
-7.159156796781e-04 8.199594821406e-04 0.0 
8.199594821406e-04 3.747642167749e-03 0.0 
0.0 0.0 -6.229492605273e-04 
-9.690599654105e-04 4.302709909689e-04 0.0 
4.302709909689e-04 5.467189617691e-03 0.0 
0.0 0.0 -8.408860858065e-04 
-3.919357097026e-04 6.068237325883e-05 0.0 
6.068237325883e-05 4.381455962217e-03 0.0 
0.0 0.0 -8.054665293395e-04 
-6.923438558252e-04 -8.520265330426e-04 0.0 
-8.520265330426e-04 4.695093275442e-03 0.0 
0.0 0.0 -8.008683130455e-04 
-6.056515233478e-04 -4.164522829612e-04 0.0 
-4.164522829612e-04 5.267235237804e-03 0.0 
0.0 0.0 -9.181754741429e-04 
-1.093523269899e-03 7.798311719689e-05 0.0 
7.798311719689e-05 6.464920900132e-03 0.0 
0.0 0.0 -9.721028620036e-04 
-8.031200443167e-04 6.781379836070e-04 0.0 
6.781379836070e-04 4.309322447368e-03 0.0 
0.0 0.0 -6.945885048819e-04 
-7.991042375162e-04 4.855628797920e-04 0.0 
4.855628797920e-04 6.126908297853e-03 0.0 
0.0 0.0 -1.039409037654e-03 
-9.955657075652e-04 -4.803366383392e-06 0.0 
-4.803366383392e-06 6.069270927012e-03 0.0 
0.0 0.0 -8.839498032872e-04 
-7.742968154824e-04 -8.517460638285e-04 0.0 
-8.517460638285e-04 4.014337168077e-03 0.0 
0.0 0.0 -6.521967345917e-04 
-6.549358325978e-04 3.442178195061e-04 0.0 
3.442178195061e-04 5.516212137862e-03 0.0 
0.0 0.0 -9.664699797409e-04 
-3.659361313913e-04 -1.389777863593e-03 0.0 
-1.389777863593e-03 2.536314572587e-03 0.0 
0.0 0.0 -5.155438399970e-04 
-1.017459211522e-03 -2.035278755390e-04 0.0 
-2.035278755390e-04 5.749338419273e-03 0.0 
0.0 0.0 -9.093720595694e-04 
2.256137386907e-04 -1.163159502201e-04 0.0 
-1.163159502201e-04 1.137935582799e-04 0.0 
0.0 0.0 -4.585464485956e-05 
-3.462420398140e-04 1.018466210769e-03 0.0 
1.018466210769e-03 2.570297332312e-03 0.0 
0.0 0.0 -4.997308803768e-04 
-2.322903734365e-04 -1.457188189013e-03 0.0 
-1.457188189013e-03 2.158535862862e-03 0.0 
0.0 0.0 -4.875765080988e-04 
-8.614851687078e-04 -3.337722832802e-04 0.0 
-3.337722832802e-04 4.446512628758e-03 0.0 
0.0 0.0 -7.126562430121e-04 
-5.635163873739e-04 9.119017880977e-04 0.0 
9.119017880977e-04 4.220442908307e-03 0.0 
0.0 0.0 -7.595228636782e-04 
-7.920931595490e-04 -2.649669687123e-04 0.0 
-2.649669687123e-04 5.573841345894e-03 0.0 
0.0 0.0 -9.350600278798e-04 
-1.013052504013e-03 -8.823570252137e-05 0.0 
-8.823570252137e-05 6.008966805305e-03 0.0 
0.0 0.0 -8.962969588583e-04 
-3.359179918489e-04 -1.568493616469e-03 0.0 
-1.568493616469e-03 2.089144442065e-03 0.0 
0.0 0.0 -4.505554202764e-04 
-1.341827844788e-03 -1.871667057256e-04 0.0 
-1.871667057256e-04 8.296019085882e-03 0.0 
0.0 0.0 -1.341827844788e-03 
-9.219930325587e-04 3.393896039245e-04 0.0 
3.393896039245e-04 5.591653643792e-03 0.0 
0.0 0.0 -8.789935771182e-04 
-9.115582794458e-04 -2.493035172872e-04 0.0 
-2.493035172872e-04 4.677595953812e-03 0.0 
0.0 0.0 -7.413896480605e-04 
-8.652400327000e-04 3.890590998056e-04 0.0 
3.890590998056e-04 5.305115327796e-03 0.0 
0.0 0.0 -8.436662038215e-04 
-8.817818309206e-04 -6.648690080579e-04 0.0 
-6.648690080579e-04 4.510392914982e-03 0.0 
0.0 0.0 -7.098625721847e-04 
0.0 0.0 0.0 
0.0 0.0 0.0 
0.0 0.0 0.0 
-1.015724792628e-03 8.235652516452e-05 0.0 
8.235652516452e-05 5.775865579893e-03 0.0 
0.0 0.0 -8.733545218784e-04 
-8.401387806922e-04 6.123016035239e-05 0.0 
6.123016035239e-05 3.850164849745e-03 0.0 
0.0 0.0 -5.956302995864e-04 
2.119608216236e-04 1.827144702945e-05 0.0 
1.827144702945e-05 -6.337242555222e-05 0.0 
0.0 0.0 -6.368074117344e-05 
-9.031369501237e-04 -1.865236162329e-04 0.0 
-1.865236162329e-04 4.464828183770e-03 0.0 
0.0 0.0 -7.041275119738e-04 
-8.760607814048e-04 -2.015865901798e-04 0.0 
-2.015865901798e-04 6.047567037496e-03 0.0 
0.0 0.0 -1.001254648526e-03 
-1.205696135514e-03 2.785240829935e-04 0.0 
2.785240829935e-04 7.656838420364e-03 0.0 
0.0 0.0 -1.146946825052e-03 
-5.022948978825e-04 -4.626796724593e-04 0.0 
-4.626796724593e-04 4.761985454285e-03 0.0 
0.0 0.0 -8.532270185794e-04 
-5.545620008577e-04 -7.574531854601e-05 0.0 
-7.574531854601e-05 4.939516714005e-03 0.0 
0.0 0.0 -8.841559964380e-04 
-9.029537400273e-04 7.141549008008e-05 0.0 
7.141549008008e-05 4.945239925053e-03 0.0 
0.0 0.0 -7.495231765994e-04 
-8.844827213453e-04 6.847338950965e-05 0.0 
6.847338950965e-05 4.625730514937e-03 0.0 
0.0 0.0 -7.312625299844e-04 
-1.286320179804e-03 2.788583147739e-04 0.0 
2.788583147739e-04 8.406193484283e-03 0.0 
0.0 0.0 -1.286111585339e-03 
-8.045597696771e-04 4.385655444655e-04 0.0 
4.385655444655e-04 5.012857215938e-03 0.0 
0.0 0.0 -8.082854548548e-04 
6.621891051064e-04 -1.711434374491e-05 0.0 
-1.711434374491e-05 -4.360569155907e-05 0.0 
0.0 0.0 -9.362473743294e-05 
-4.298982998579e-04 -6.269550114416e-04 0.0 
-6.269550114416e-04 1.549337747066e-03 0.0 
0.0 0.0 -2.569639750501e-04 
-5.557804512661e-05 -2.649152406900e-04 0.0 
-2.649152406900e-04 2.900758507811e-04 0.0 
0.0 0.0 -1.004990595662e-04 
-6.031978273067e-04 -1.007320967644e-03 0.0 
-1.007320967644e-03 2.552633295107e-03 0.0 
0.0 0.0 -4.284133232656e-04 
-1.143923933864e-03 2.767605230601e-04 0.0 
2.767605230601e-04 7.311015416728e-03 0.0 
0.0 0.0 -1.134523071099e-03 
-1.214790267536e-03 -1.094816465951e-04 0.0 
-1.094816465951e-04 7.712260942966e-03 0.0 
0.0 0.0 -1.144649651339e-03 
-1.087508141976e-03 -1.587001134092e-04 0.0 
-1.587001134092e-04 6.822768700719e-03 0.0 
0.0 0.0 -1.087427768671e-03 
-6.685965332887e-04 -7.845956287838e-04 0.0 
-7.845956287838e-04 2.990542570396e-03 0.0 
0.0 0.0 -4.827803379924e-04 
-1.041668217069e-03 -5.600095855462e-04 0.0 
-5.600095855462e-04 5.820984951314e-03 0.0 
0.0 0.0 -9.063168105749e-04 
-1.002226704218e-03 -4.489969858519e-05 0.0 
-4.489969858519e-05 6.971386371707e-03 0.0 
0.0 0.0 -1.142106164841e-03 
5.911862038656e-04 5.961670165533e-05 0.0 
5.961670165533e-05 -1.764561884350e-04 0.0 
0.0 0.0 -1.777414351845e-04 
-8.306874199400e-04 -2.997045909462e-04 0.0 
-2.997045909462e-04 3.873272421704e-03 0.0 
0.0 0.0 -5.942115541274e-04 
-6.956533125248e-04 1.124846661467e-04 0.0 
1.124846661467e-04 3.135833764917e-03 0.0 
0.0 0.0 -4.980019828625e-04 
-1.307918774452e-03 -2.672149718263e-04 0.0 
-2.672149718263e-04 8.583156667318e-03 0.0 
0.0 0.0 -1.322396863610e-03 
-1.341641872583e-03 -2.574400453278e-04 0.0 
-2.574400453278e-04 8.313092341430e-03 0.0 
0.0 0.0 -1.341641872583e-03 
-9.100844780323e-04 -2.535656636935e-04 0.0 
-2.535656636935e-04 4.283598396940e-03 0.0 
0.0 0.0 -6.580288049735e-04 
-9.226849417219e-04 -5.822088138657e-04 0.0 
-5.822088138657e-04 4.742725005737e-03 0.0 
0.0 0.0 -7.385580096348e-04 
-7.259593438489e-04 -4.081287369355e-04 0.0 
-4.081287369355e-04 4.909588067259e-03 0.0 
0.0 0.0 -8.323457052078e-04 
-1.025384663725e-03 -1.558037465639e-06 0.0 
-1.558037465639e-06 7.232536331843e-03 0.0 
0.0 0.0 -1.177278300149e-03 
-5.185769804222e-04 -3.082242823645e-04 0.0 
-3.082242823645e-04 1.649765607481e-03 0.0 
0.0 0.0 -2.880367495917e-04 
-9.770068768367e-04 -9.822974250100e-05 0.0 
-9.822974250100e-05 6.742502940673e-03 0.0 
0.0 0.0 -1.104707344597e-03 
-8.864038043829e-05 -1.638440655004e-05 0.0 
-1.638440655004e-05 9.863844244366e-04 0.0 
0.0 0.0 -1.612556504808e-04 
-8.754272683905e-04 -6.018300858025e-04 0.0 
-6.018300858025e-04 4.312432546832e-03 0.0 
0.0 0.0 -6.724657308136e-04 
-8.826884309659e-04 -7.176448192389e-04 0.0 
-7.176448192389e-04 4.701849927849e-03 0.0 
0.0 0.0 -7.470513223636e-04 
-3.546308527174e-05 5.679765794383e-06 0.0 
5.679765794383e-06 2.993710717870e-04 0.0 
0.0 0.0 -1.131034227923e-04 
-8.541374211011e-04 1.051307269510e-04 0.0 
1.051307269510e-04 4.063038016891e-03 0.0 
0.0 0.0 -6.267591816330e-04 
-1.242827358992e-03 4.579768759709e-04 0.0 
4.579768759709e-04 7.784562517271e-03 0.0 
0.0 0.0 -1.176862138969e-03 
5.856171802454e-04 8.673890813667e-06 0.0 
8.673890813667e-06 6.976119991762e-06 0.0 
0.0 0.0 -9.786084279852e-05 
-8.702582028195e-04 1.105447853201e-04 0.0 
1.105447853201e-04 4.607072405037e-03 0.0 
0.0 0.0 -7.322753781719e-04 
-8.459002629386e-04 1.198690024363e-04 0.0 
1.198690024363e-04 4.870014320209e-03 0.0 
0.0 0.0 -7.130472889423e-04 
-6.411087712709e-04 -3.059567672410e-04 0.0 
-3.059567672410e-04 5.528224217795e-03 0.0 
0.0 0.0 -9.552000144736e-04 
-6.940260095912e-04 -2.019223501579e-04 0.0 
-2.019223501579e-04 3.181147651246e-03 0.0 
0.0 0.0 -4.943513106837e-04 
-3.551699552598e-04 -1.046898701828e-03 0.0 
-1.046898701828e-03 2.386678131376e-03 0.0 
0.0 0.0 -4.817493388239e-04 
-2.903941216122e-04 1.483074513055e-03 0.0 
1.483074513055e-03 1.457235103792e-03 0.0 
0.0 0.0 -3.398054741319e-04 
-1.199955943827e-03 -1.286515075727e-04 0.0 
-1.286515075727e-04 7.503949585872e-03 0.0 
0.0 0.0 -1.180895453064e-03 
-1.276254635442e-03 4.715115445783e-04 0.0 
4.715115445783e-04 8.059382999082e-03 0.0 
0.0 0.0 -1.286194385238e-03 
-1.186217889961e-03 -6.749121568718e-05 0.0 
-6.749121568718e-05 7.409362913807e-03 0.0 
0.0 0.0 -1.101088927253e-03 
-5.347000365982e-04 9.291634402025e-04 0.0 
9.291634402025e-04 2.503086312716e-03 0.0 
0.0 0.0 -4.457015571677e-04 
-3.190037393042e-04 -1.683187168607e-04 0.0 
-1.683187168607e-04 9.740026393817e-04 0.0 
0.0 0.0 -2.223875638571e-04 
-8.385442436261e-04 2.562372654306e-04 0.0 
2.562372654306e-04 4.497930936177e-03 0.0 
0.0 0.0 -6.999131133628e-04 
-8.425527780140e-04 3.452494000883e-05 0.0 
3.452494000883e-05 4.643700331840e-03 0.0 
0.0 0.0 -7.345111139194e-04 
-8.389403033821e-04 -1.305466340479e-06 0.0 
-1.305466340479e-06 4.908724598573e-03 0.0 
0.0 0.0 -7.144802219087e-04 
2.118993314013e-04 1.507058348733e-05 0.0 
1.507058348733e-05 -6.339593750257e-05 0.0 
0.0 0.0 -6.364431167088e-05 
-5.587289192583e-05 -6.452329894431e-06 0.0 
-6.452329894431e-06 2.977317204857e-04 0.0 
0.0 0.0 -1.036537836685e-04 
-1.659582098733e-04 -6.983629749951e-05 0.0 
-6.983629749951e-05 7.156238265913e-04 0.0 
0.0 0.0 -1.795416262981e-04 
-6.042827533109e-04 -3.178261870528e-04 0.0 
-3.178261870528e-04 2.298196668838e-03 0.0 
0.0 0.0 -3.820941496288e-04 
1.745656339544e-04 -6.881620967810e-06 0.0 
-6.881620967810e-06 5.205015129475e-04 0.0 
0.0 0.0 -1.430998070712e-04 
-9.621077650285e-04 9.743124488288e-05 0.0 
9.743124488288e-05 4.540703172736e-03 0.0 
0.0 0.0 -6.918148876825e-04 
0.0 0.0 0.0 
0.0 0.0 0.0 
0.0 0.0 0.0 
-6.636885702572e-04 -3.632840591834e-04 0.0 
-3.632840591834e-04 2.727769964994e-03 0.0 
0.0 0.0 -4.482372226011e-04 
-1.037073112810e-03 8.416167581821e-05 0.0 
8.416167581821e-05 6.231636848545e-03 0.0 
0.0 0.0 -9.582560723523e-04 
-8.428951159850e-04 8.320649882269e-05 0.0 
8.320649882269e-05 4.895786071823e-03 0.0 
0.0 0.0 -7.120344407548e-04 
-1.176195464104e-03 2.727173431630e-04 0.0 
2.727173431630e-04 7.571205441829e-03 0.0 
0.0 0.0 -1.169483110168e-03 
-8.724458015179e-04 -2.535481835564e-04 0.0 
-2.535481835564e-04 5.840199633402e-03 0.0 
0.0 0.0 -9.641449249716e-04 
-9.956049472303e-04 9.460602026458e-05 0.0 
9.460602026458e-05 5.823804297189e-03 0.0 
0.0 0.0 -8.988447104697e-04 
-7.453270263773e-04 1.666868432523e-04 0.0 
1.666868432523e-04 3.393805001824e-03 0.0 
0.0 0.0 -5.269378630653e-04 
-6.611997545445e-05 -3.806127284770e-05 0.0 
-3.806127284770e-05 9.766559638682e-04 0.0 
0.0 0.0 -1.602995255322e-04 
-1.340974968048e-03 1.475163558745e-04 0.0 
1.475163558745e-04 8.789407210591e-03 0.0 
0.0 0.0 -1.340974968048e-03 
-1.353375445294e-03 1.861681106883e-04 0.0 
1.861681106883e-04 9.067632799309e-03 0.0 
0.0 0.0 -1.320295381545e-03 
-9.653313430370e-04 3.172946590342e-04 0.0 
3.172946590342e-04 5.653212768820e-03 0.0 
0.0 0.0 -8.588387843224e-04 
-8.723549553050e-04 3.791940437681e-05 0.0 
3.791940437681e-05 4.638744233564e-03 0.0 
0.0 0.0 -7.326073368542e-04 
-7.433675000171e-04 -1.881116571238e-04 0.0 
-1.881116571238e-04 3.464526545461e-03 0.0 
0.0 0.0 -5.314511797787e-04 
-1.343039576571e-03 1.116238935560e-04 0.0 
1.116238935560e-04 9.058435864628e-03 0.0 
0.0 0.0 -1.322576402756e-03 
-6.088517818817e-04 -7.427980185432e-04 0.0 
-7.427980185432e-04 2.573085079122e-03 0.0 
0.0 0.0 -4.166600706249e-04 
-8.421343191380e-04 8.947296271354e-05 0.0 
8.947296271354e-05 4.867861189812e-03 0.0 
0.0 0.0 -7.125614225629e-04 
-8.442475580862e-04 6.688277321944e-05 0.0 
6.688277321944e-05 4.629764896323e-03 0.0 
0.0 0.0 -7.312775522649e-04 
-8.183075665077e-04 4.944600713478e-04 0.0 
4.944600713478e-04 4.297011605974e-03 0.0 
0.0 0.0 -6.755779900756e-04 
-1.341823989366e-03 3.176700121755e-04 0.0 
3.176700121755e-04 8.755155514573e-03 0.0 
0.0 0.0 -1.341823989366e-03 
-1.316183787817e-03 1.764356624828e-04 0.0 
1.764356624828e-04 9.061441417317e-03 0.0 
0.0 0.0 -1.322582685247e-03 
1.706419388007e-04 -6.581066488368e-06 0.0 
-6.581066488368e-06 5.083643028934e-04 0.0 
0.0 0.0 -1.414504174366e-04 
2.407344509661e-04 1.323517305793e-05 0.0 
1.323517305793e-05 -7.208659109850e-05 0.0 
0.0 0.0 -7.227765422896e-05 
-4.260081866660e-04 -1.856958100474e-04 0.0 
-1.856958100474e-04 1.223914747001e-03 0.0 
0.0 0.0 -2.229509930541e-04 
-8.539532720431e-04 -3.709598021116e-04 0.0 
-3.709598021116e-04 4.637819177533e-03 0.0 
0.0 0.0 -7.497705102653e-04 
-1.319228459702e-03 1.823496012509e-04 0.0 
1.823496012509e-04 8.037185883931e-03 0.0 
0.0 0.0 -1.224669017856e-03 
0.0 0.0 0.0 
0.0 0.0 0.0 
0.0 0.0 0.0 
-1.164534197096e-03 -1.984727069524e-04 0.0 
-1.984727069524e-04 7.327097077271e-03 0.0 
0.0 0.0 -1.092518628634e-03 
0.0 0.0 0.0 
0.0 0.0 0.0 
0.0 0.0 0.0 
-6.586480689669e-04 -2.893406478862e-05 0.0 
-2.893406478862e-05 5.445033550024e-03 0.0 
0.0 0.0 -9.493083249531e-04 
6.413544779552e-05 -3.379620450346e-04 0.0 
-3.379620450346e-04 1.394736970074e-04 0.0 
0.0 0.0 -8.691392457031e-05 
1.450430834232e-05 -8.616792963926e-05 0.0 
-8.616792963926e-05 3.294529381564e-05 0.0 
0.0 0.0 -2.033554378198e-05 
-6.338862404721e-04 -1.383285000905e-04 0.0 
-1.383285000905e-04 5.212576859225e-03 0.0 
0.0 0.0 -9.122568895951e-04 
-1.285900318348e-03 2.146352195215e-05 0.0 
2.146352195215e-05 7.759528202279e-03 0.0 
0.0 0.0 -1.192963836147e-03 
-1.029044917040e-03 -7.279636213487e-05 0.0 
-7.279636213487e-05 6.446740060124e-03 0.0 
0.0 0.0 -9.361271490834e-04 
-8.407421483093e-04 3.218859450769e-04 0.0 
3.218859450769e-04 4.639661762171e-03 0.0 
0.0 0.0 -7.268406435589e-04 
-3.072399208747e-05 -1.897210475410e-05 0.0 
-1.897210475410e-05 2.991997316549e-04 0.0 
0.0 0.0 -1.150610312432e-04 
-1.088521664505e-03 -4.986556758640e-04 0.0 
-4.986556758640e-04 6.052818965112e-03 0.0 
0.0 0.0 -9.349022313484e-04 
-1.337797817327e-03 2.888082420915e-05 0.0 
2.888082420915e-05 8.797778454419e-03 0.0 
0.0 0.0 -1.337797817327e-03 
-1.344206616167e-03 -8.091836582187e-05 0.0 
-8.091836582187e-05 9.064612422815e-03 0.0 
0.0 0.0 -1.322354755130e-03 
-8.386635614455e-04 6.856267782852e-05 0.0 
6.856267782852e-05 4.896920748213e-03 0.0 
0.0 0.0 -7.125764448434e-04 
-6.958258556128e-04 6.990936182405e-05 0.0 
6.990936182405e-05 5.692375670829e-03 0.0 
0.0 0.0 -9.863757069361e-04 
-1.341607717199e-03 1.551401879936e-04 0.0 
1.551401879936e-04 8.810609962061e-03 0.0 
0.0 0.0 -1.341607717199e-03 
-8.875903164710e-04 2.432432692731e-04 0.0 
2.432432692731e-04 6.412529175352e-03 0.0 
0.0 0.0 -1.046710270629e-03 
-7.224987108801e-05 2.416900893393e-05 0.0 
2.416900893393e-05 9.236508622773e-04 0.0 
0.0 0.0 -1.589907658001e-04 
1.844060408699e-04 -1.026478452949e-05 0.0 
-1.026478452949e-05 5.130263938471e-04 0.0 
0.0 0.0 -1.435574244405e-04 
-2.891409061342e-05 -3.272758998480e-05 0.0 
-3.272758998480e-05 3.203427987140e-04 0.0 
0.0 0.0 -1.200048127433e-04 
-8.246082063499e-04 1.600403801409e-04 0.0 
1.600403801409e-04 3.844559296729e-03 0.0 
0.0 0.0 -5.933358154923e-04 
-1.368440753648e-03 -2.847926622310e-04 0.0 
-2.847926622310e-04 8.814363085181e-03 0.0 
0.0 0.0 -1.322828574513e-03 
-1.280689091558e-03 -2.286632291646e-04 0.0 
-2.286632291646e-04 8.487923234130e-03 0.0 
0.0 0.0 -1.258329778789e-03 
2.520020944074e-04 -9.417495015486e-06 0.0 
-9.417495015486e-06 -7.547411903337e-05 0.0 
0.0 0.0 -7.565484658888e-05 
-9.449458894061e-04 -2.123271304103e-04 0.0 
-2.123271304103e-04 4.512069341782e-03 0.0 
0.0 0.0 -6.938761155152e-04 
-1.344798314370e-03 -1.247366253674e-04 0.0 
-1.247366253674e-04 8.595631148609e-03 0.0 
0.0 0.0 -1.344798314369e-03 
-1.373531731671e-03 -1.707869213026e-04 0.0 
-1.707869213026e-04 8.832402882049e-03 0.0 
0.0 0.0 -1.318785251170e-03 
-1.282177360506e-03 -3.124369979244e-04 0.0 
-3.124369979244e-04 8.610103347005e-03 0.0 
0.0 0.0 -1.321151187552e-03 
-1.113562773683e-03 2.219946434219e-04 0.0 
2.219946434219e-04 6.878878469590e-03 0.0 
0.0 0.0 -1.027148381742e-03 
-1.180769122149e-03 -2.135481498419e-04 0.0 
-2.135481498419e-04 7.573759840694e-03 0.0 
0.0 0.0 -1.125709525796e-03 
-1.338030260144e-03 -1.771563366243e-04 0.0 
-1.771563366243e-04 8.542675147626e-03 0.0 
0.0 0.0 -1.338030260144e-03 
-1.340754991027e-03 -2.390663127656e-04 0.0 
-2.390663127656e-04 8.545998822267e-03 0.0 
0.0 0.0 -1.340754991027e-03 
-1.152960594027e-03 1.859255734492e-04 0.0 
1.859255734492e-04 7.333872638941e-03 0.0 
0.0 0.0 -1.092518628634e-03 
6.040404689232e-04 9.568591753019e-05 0.0 
9.568591753019e-05 -6.408932826674e-05 0.0 
0.0 0.0 -9.235885521468e-05 
-8.216739313019e-04 1.642653897250e-05 0.0 
1.642653897250e-05 4.866544847831e-03 0.0 
0.0 0.0 -7.139539158865e-04 
-8.429301589013e-04 7.371775731573e-05 0.0 
7.371775731573e-05 4.924292125164e-03 0.0 
0.0 0.0 -7.133642253441e-04 
2.432336519054e-04 6.949879094711e-06 0.0 
6.949879094711e-06 -7.294262653964e-05 0.0 
0.0 0.0 -7.298186801390e-05 
-1.342313591240e-03 -2.893823135638e-04 0.0 
-2.893823135638e-04 8.501007321383e-03 0.0 
0.0 0.0 -1.342313591240e-03 
-1.327713446301e-03 -3.071447071229e-04 0.0 
-3.071447071229e-04 8.654446540322e-03 0.0 
0.0 0.0 -1.318355947622e-03 
-1.337959751097e-03 -3.069413126871e-04 0.0 
-3.069413126871e-04 8.377273660842e-03 0.0 
0.0 0.0 -1.337959751097e-03 
5.382873424725e-04 1.051034098534e-05 0.0 
1.051034098534e-05 3.447207322761e-05 0.0 
0.0 0.0 -9.875111991497e-05 
5.465365996427e-04 1.921140548757e-05 0.0 
1.921140548757e-05 3.586604406774e-05 0.0 
0.0 0.0 -1.001629653630e-04 
-1.340754991027e-03 -2.745211848364e-04 0.0 
-2.745211848364e-04 8.326750669152e-03 0.0 
0.0 0.0 -1.340754991027e-03 
-1.340396196526e-03 -3.177254258607e-04 0.0 
-3.177254258607e-04 8.348861196928e-03 0.0 
0.0 0.0 -1.340396196526e-03 
-1.100408733265e-03 -2.290747800904e-04 0.0 
-2.290747800904e-04 6.654648242085e-03 0.0 
0.0 0.0 -9.936726122374e-04 
-8.156679351147e-04 3.791493186346e-05 0.0 
3.791493186346e-05 4.866771241895e-03 0.0 
0.0 0.0 -7.124851972278e-04 
-1.126282978383e-03 -2.242329370711e-04 0.0 
-2.242329370711e-04 7.103431173965e-03 0.0 
0.0 0.0 -1.060142436171e-03 
-9.808195587630e-04 -2.230997408213e-04 0.0 
-2.230997408213e-04 5.708119715060e-03 0.0 
0.0 0.0 -8.626607521899e-04 
-7.941305620824e-04 1.551089981454e-05 0.0 
1.551089981454e-05 4.869359917574e-03 0.0 
0.0 0.0 -7.121912678902e-04 
7.040827403612e-04 7.380490456996e-06 0.0 
7.380490456996e-06 -3.505683220774e-05 0.0 
0.0 0.0 -9.491348420367e-05 
6.357527662839e-04 -8.824699617213e-05 0.0 
-8.824699617213e-05 3.733323429846e-05 0.0 
0.0 0.0 -1.068803031330e-04 
5.856552846093e-04 -8.204592747125e-05 0.0 
-8.204592747125e-05 2.270090481132e-05 0.0 
0.0 0.0 -9.934895370439e-05 
6.682124726064e-04 -5.433044528850e-05 0.0 
-5.433044528850e-05 2.762423436657e-05 0.0 
0.0 0.0 -1.574260069802e-04 
-9.875526380001e-04 1.999683647263e-04 0.0 
1.999683647263e-04 4.756922496595e-03 0.0 
0.0 0.0 -7.271325101417e-04 
-9.022422993743e-04 1.689219604000e-04 0.0 
1.689219604000e-04 4.293373185727e-03 0.0 
0.0 0.0 -6.600769387058e-04 
0.0 0.0 0.0 
0.0 0.0 0.0 
0.0 0.0 0.0 
-1.139432736752e-03 1.969596473993e-04 0.0 
1.969596473993e-04 6.092355855196e-03 0.0 
0.0 0.0 -9.221709323543e-04 
0.0 0.0 0.0 
0.0 0.0 0.0 
0.0 0.0 0.0 
-1.341471640605e-03 2.821656468085e-04 0.0 
2.821656468085e-04 8.748357117342e-03 0.0 
0.0 0.0 -1.341471640605e-03 
-1.340968685557e-03 1.312437350478e-04 0.0 
1.312437350478e-04 8.782913575074e-03 0.0 
0.0 0.0 -1.340968685557e-03 
-1.339320413496e-03 1.880713074898e-04 0.0 
1.880713074898e-04 8.789181418084e-03 0.0 
0.0 0.0 -1.339320413496e-03 
-2.891904725790e-04 2.036868385329e-04 0.0 
2.036868385329e-04 1.487086439737e-03 0.0 
0.0 0.0 -2.599136149544e-04 
-6.430141663801e-04 1.708121578067e-04 0.0 
1.708121578067e-04 2.925097320677e-03 0.0 
0.0 0.0 -4.607467809507e-04 
-1.337132911908e-03 8.989218137943e-05 0.0 
8.989218137943e-05 8.798780956337e-03 0.0 
0.0 0.0 -1.337132911908e-03 
-1.268709771428e-03 1.750290220288e-04 0.0 
1.750290220288e-04 7.410750387042e-03 0.0 
0.0 0.0 -1.124956933753e-03 
-1.344556937803e-03 5.420067643192e-05 0.0 
5.420067643192e-05 8.841140369170e-03 0.0 
0.0 0.0 -1.344556937803e-03 
-1.309963082983e-03 1.898374887779e-04 0.0 
1.898374887779e-04 7.848623061347e-03 0.0 
0.0 0.0 -1.192538251246e-03 
-1.338506523092e-03 2.196897297750e-04 0.0 
2.196897297750e-04 8.286254789378e-03 0.0 
0.0 0.0 -1.259905836238e-03 
-8.634449756302e-04 -2.267992264203e-04 0.0 
-2.267992264203e-04 4.063283112415e-03 0.0 
0.0 0.0 -6.267460875326e-04 
-1.354536289335e-03 7.630110527830e-05 0.0 
7.630110527830e-05 9.083283423121e-03 0.0 
0.0 0.0 -1.318101597465e-03 
-1.353127036110e-03 2.052350059942e-04 0.0 
2.052350059942e-04 9.070380165704e-03 0.0 
0.0 0.0 -1.321689849711e-03 
-1.286890123680e-03 -2.394731622084e-04 0.0 
-2.394731622084e-04 7.571755325092e-03 0.0 
0.0 0.0 -1.157495185000e-03 
-1.323365826624e-03 -2.403819852103e-04 0.0 
-2.403819852103e-04 8.033634754339e-03 0.0 
0.0 0.0 -1.225777420818e-03 
-1.161453211646e-03 -3.736884005785e-04 0.0 
-3.736884005785e-04 6.493225178424e-03 0.0 
0.0 0.0 -9.925156490314e-04 
0.0 0.0 0.0 
0.0 0.0 0.0 
0.0 0.0 0.0 
-8.671818712195e-04 -5.363828857818e-04 0.0 
-5.363828857818e-04 4.105500038503e-03 0.0 
0.0 0.0 -6.350241097613e-04 
1.538446466672e-04 -5.196602102228e-05 0.0 
-5.196602102228e-05 5.032465276658e-04 0.0 
0.0 0.0 -1.372732375194e-04 
-1.212742551210e-03 -4.759587518373e-04 0.0 
-4.759587518373e-04 7.564630454968e-03 0.0 
0.0 0.0 -1.177819030284e-03 
-8.605651419967e-04 -2.779235020759e-04 0.0 
-2.779235020759e-04 4.247159815615e-03 0.0 
0.0 0.0 -6.753691525988e-04 
-1.209845026625e-03 -3.828065324347e-05 0.0 
-3.828065324347e-05 7.089490121300e-03 0.0 
0.0 0.0 -1.099016898379e-03 
-5.359685570494e-04 -6.677092728244e-04 0.0 
-6.677092728244e-04 2.153205781578e-03 0.0 
0.0 0.0 -3.504775146279e-04 
-1.805242587165e-04 1.222080852242e-05 0.0 
1.222080852242e-05 7.550645308543e-04 0.0 
0.0 0.0 -1.735952156319e-04 
-1.264456075116e-03 -3.850163355986e-04 0.0 
-3.850163355986e-04 7.592925326403e-03 0.0 
0.0 0.0 -1.161668299909e-03 
-9.012428398998e-04 -5.241478665253e-04 0.0 
-5.241478665253e-04 4.532812848754e-03 0.0 
0.0 0.0 -7.012080445024e-04 
-8.068122859681e-04 1.121430841948e-04 0.0 
1.121430841948e-04 3.618999234990e-03 0.0 
0.0 0.0 -5.611363230934e-04 
-1.221373729773e-03 -3.971185644326e-04 0.0 
-3.971185644326e-04 7.158861497178e-03 0.0 
0.0 0.0 -1.096102707776e-03 
-1.225888037185e-03 2.356398892211e-04 0.0 
2.356398892211e-04 7.926332987898e-03 0.0 
0.0 0.0 -1.188907866872e-03 
-7.850590963076e-04 -2.211249008548e-04 0.0 
-2.211249008548e-04 3.627921543623e-03 0.0 
0.0 0.0 -5.602736785587e-04 
-9.153466014746e-04 -5.672710459790e-04 0.0 
-5.672710459790e-04 6.328544019957e-03 0.0 
0.0 0.0 -1.035646790376e-03 
-9.544485914901e-04 -2.692006228927e-04 0.0 
-2.692006228927e-04 5.706833288183e-03 0.0 
0.0 0.0 -9.181742748318e-04 
-1.151482432891e-03 -1.721733511891e-05 0.0 
-1.721733511891e-05 6.426989542900e-03 0.0 
0.0 0.0 -9.952786863929e-04 
-1.189685403522e-03 2.186394532171e-05 0.0 
2.186394532171e-05 6.656907816596e-03 0.0 
0.0 0.0 -1.024224580100e-03 
-2.906015399770e-05 6.908185225539e-04 0.0 
6.908185225539e-04 2.388123543614e-03 0.0 
0.0 0.0 -5.788817793163e-04 
-8.005376655691e-04 3.171132398136e-04 0.0 
3.171132398136e-04 4.241491794382e-03 0.0 
0.0 0.0 -6.651338130661e-04 
-5.426647513542e-04 5.869195559815e-04 0.0 
5.869195559815e-04 4.187651392435e-03 0.0 
0.0 0.0 -7.293057621918e-04 
-1.068839531754e-03 -1.396982746719e-04 0.0 
-1.396982746719e-04 5.983670003937e-03 0.0 
0.0 0.0 -9.378562126457e-04 
-1.253909417431e-03 -3.654180260376e-04 0.0 
-3.654180260376e-04 7.384129283890e-03 0.0 
0.0 0.0 -1.125100902632e-03 
-1.223048658493e-03 8.194922759041e-05 0.0 
8.194922759041e-05 6.885373196445e-03 0.0 
0.0 0.0 -1.053755873404e-03 
-5.843499511654e-04 -7.478811802874e-04 0.0 
-7.478811802874e-04 2.078474299742e-03 0.0 
0.0 0.0 -3.685493992842e-04 
-1.215420929976e-03 2.914568716421e-04 0.0 
2.914568716421e-04 7.912104441246e-03 0.0 
0.0 0.0 -1.183514100502e-03 
-1.184839979766e-03 2.716593684437e-04 0.0 
2.716593684437e-04 7.456605698874e-03 0.0 
0.0 0.0 -1.117084069417e-03 
-9.160676408920e-04 2.566629763440e-04 0.0 
2.566629763440e-04 5.389449650205e-03 0.0 
0.0 0.0 -8.110481619253e-04 
-1.072043250355e-03 -1.594447290691e-04 0.0 
-1.594447290691e-04 6.194419037886e-03 0.0 
0.0 0.0 -9.753747863247e-04 
-1.113512703567e-03 -7.830874303778e-05 0.0 
-7.830874303778e-05 6.209473753146e-03 0.0 
0.0 0.0 -9.665592132828e-04 
-1.247553885459e-03 -1.638883659802e-04 0.0 
-1.638883659802e-04 8.032779373469e-03 0.0 
0.0 0.0 -1.185362187646e-03 
-1.209218779800e-03 2.395415248872e-04 0.0 
2.395415248872e-04 7.733666527183e-03 0.0 
0.0 0.0 -1.150972777267e-03 
-9.235989750770e-04 -6.984337716094e-04 0.0 
-6.984337716094e-04 5.520417486699e-03 0.0 
0.0 0.0 -8.866930489607e-04 
-1.284523920474e-03 -3.501071659254e-04 0.0 
-3.501071659254e-04 7.805517890163e-03 0.0 
0.0 0.0 -1.190872049285e-03 
-1.177897572884e-03 3.138623603337e-04 0.0 
3.138623603337e-04 7.354283994280e-03 0.0 
0.0 0.0 -1.103416240745e-03 
-1.224145241381e-03 -2.616286438841e-04 0.0 
-2.616286438841e-04 6.885317791912e-03 0.0 
0.0 0.0 -1.053748284807e-03 
-1.251504070725e-03 -4.981478354757e-04 0.0 
-4.981478354757e-04 7.817749108824e-03 0.0 
0.0 0.0 -1.210017230578e-03 
-1.240161038229e-03 -1.265963501437e-04 0.0 
-1.265963501437e-04 7.971776447579e-03 0.0 
0.0 0.0 -1.181737430652e-03 
-1.104792332721e-03 -1.417124884619e-04 0.0 
-1.417124884619e-04 6.803117520475e-03 0.0 
0.0 0.0 -1.011817915138e-03 
-9.092260506378e-04 -6.128458239001e-04 0.0 
-6.128458239001e-04 6.116526816133e-03 0.0 
0.0 0.0 -9.985655989920e-04 
-5.244393316962e-04 -3.327701467070e-07 0.0 
-3.327701467070e-07 2.217192403788e-03 0.0 
0.0 0.0 -3.644364776638e-04 
-5.557520001356e-04 -9.492103982614e-04 0.0 
-9.492103982614e-04 1.854328414375e-03 0.0 
0.0 0.0 -3.414758422231e-04 
-2.976977379688e-04 -4.729019177062e-04 0.0 
-4.729019177062e-04 1.065430610337e-03 0.0 
0.0 0.0 -1.876370064529e-04 
-1.394869518500e-05 -5.836024776206e-04 0.0 
-5.836024776206e-04 3.988673203720e-04 0.0 
0.0 0.0 -1.649651250801e-04 
-1.208849354757e-03 -1.442002111852e-04 0.0 
-1.442002111852e-04 7.751975943977e-03 0.0 
0.0 0.0 -1.150998037120e-03 
-1.270626804187e-03 5.625887811154e-05 0.0 
5.625887811154e-05 7.521765115722e-03 0.0 
0.0 0.0 -1.156839719840e-03 
-1.128430539847e-04 -4.533921113002e-04 0.0 
-4.533921113002e-04 5.125802596057e-04 0.0 
0.0 0.0 -1.512448671109e-04 
-1.224260673069e-03 1.930240191298e-04 0.0 
1.930240191298e-04 7.672098389018e-03 0.0 
0.0 0.0 -1.160298666437e-03 
-9.269777591648e-04 2.462098102623e-04 0.0 
2.462098102623e-04 5.566246555216e-03 0.0 
0.0 0.0 -8.436798659344e-04 
-1.183821186611e-03 -4.510450975400e-04 0.0 
-4.510450975400e-04 6.938898886609e-03 0.0 
0.0 0.0 -1.067477449466e-03 
-1.234042430495e-03 4.386686661325e-05 0.0 
4.386686661325e-05 7.085000705368e-03 0.0 
0.0 0.0 -1.090430023688e-03 
-4.688031105262e-04 -9.449998288247e-04 0.0 
-9.449998288247e-04 2.708853865005e-03 0.0 
0.0 0.0 -5.090628918580e-04 
-1.241127751091e-03 -3.232486977457e-04 0.0 
-3.232486977457e-04 7.146083644213e-03 0.0 
0.0 0.0 -1.087955833448e-03 
-9.128116180444e-04 -2.432084876036e-04 0.0 
-2.432084876036e-04 5.398327604704e-03 0.0 
0.0 0.0 -8.100176300978e-04 
-7.075550094797e-04 -2.554204369628e-05 0.0 
-2.554204369628e-05 5.888227624213e-03 0.0 
0.0 0.0 -1.000388816061e-03 
-1.275643571196e-03 -3.853184117788e-05 0.0 
-3.853184117788e-05 7.999890426169e-03 0.0 
0.0 0.0 -1.242964905849e-03 
-4.891437223720e-04 4.195566496952e-05 0.0 
4.195566496952e-05 2.125578513997e-03 0.0 
0.0 0.0 -3.542437553904e-04 
-1.232067324065e-03 -4.786069064869e-04 0.0 
-4.786069064869e-04 7.807210147599e-03 0.0 
0.0 0.0 -1.215045542354e-03 
-1.132051344136e-03 -1.297668119058e-04 0.0 
-1.297668119058e-04 7.059354268222e-03 0.0 
0.0 0.0 -1.048288725887e-03 
-5.597857793191e-04 4.639966247623e-05 0.0 
4.639966247623e-05 2.420049368412e-03 0.0 
0.0 0.0 -3.930611257745e-04 
-5.609737831535e-04 -1.192047374110e-03 0.0 
-1.192047374110e-03 2.290088636828e-03 0.0 
0.0 0.0 -4.034900192350e-04 
-1.019435653485e-03 2.510797196313e-05 0.0 
2.510797196313e-05 5.114500101547e-03 0.0 
0.0 0.0 -7.909606353592e-04 
-1.046153520856e-03 2.672543322815e-04 0.0 
2.672543322815e-04 6.254372891690e-03 0.0 
0.0 0.0 -9.409807611877e-04 
-7.501439557546e-04 -2.986549649001e-04 0.0 
-2.986549649001e-04 3.375633566619e-03 0.0 
0.0 0.0 -5.429771841545e-04 
-1.160690986180e-03 -1.496920489451e-04 0.0 
-1.496920489451e-04 7.303854633305e-03 0.0 
0.0 0.0 -1.085119818393e-03 
-1.069476201499e-03 -1.757346183128e-04 0.0 
-1.757346183128e-04 6.567285104211e-03 0.0 
0.0 0.0 -9.816794289629e-04 
-9.579280571301e-04 -1.773255598002e-04 0.0 
-1.773255598002e-04 4.907486764764e-03 0.0 
0.0 0.0 -7.700930343086e-04 
-1.202171244896e-03 -3.172466399621e-04 0.0 
-3.172466399621e-04 6.703539097156e-03 0.0 
0.0 0.0 -1.021757709120e-03 
-1.211296574698e-03 -3.721899322367e-04 0.0 
-3.721899322367e-04 6.940479911899e-03 0.0 
0.0 0.0 -1.058696934625e-03 
-1.135291475184e-03 2.700006977273e-04 0.0 
2.700006977273e-04 6.997454425646e-03 0.0 
0.0 0.0 -1.050681058959e-03 
-4.173596233207e-04 -3.503884104976e-04 0.0 
-3.503884104976e-04 1.875894239502e-03 0.0 
0.0 0.0 -3.058749225436e-04 
-9.447771700352e-04 -1.262936496125e-04 0.0 
-1.262936496125e-04 4.694024374325e-03 0.0 
0.0 0.0 -7.328582426338e-04 
-9.670495794898e-04 5.137281078932e-04 0.0 
5.137281078932e-04 6.920842306521e-03 0.0 
0.0 0.0 -1.141128458404e-03 
-1.159905672637e-03 -1.212910240168e-04 0.0 
-1.212910240168e-04 7.261813298966e-03 0.0 
0.0 0.0 -1.078198857115e-03 
-8.846237530489e-04 -1.118837918711e-04 0.0 
-1.118837918711e-04 4.234828904613e-03 0.0 
0.0 0.0 -6.666835465145e-04 
-9.866099674588e-04 -6.396910670883e-04 0.0 
-6.396910670883e-04 5.776957758952e-03 0.0 
0.0 0.0 -9.153036164073e-04 
-1.180273166295e-03 -5.195576023231e-04 0.0 
-5.195576023231e-04 7.573511676705e-03 0.0 
0.0 0.0 -1.187586327529e-03 
-1.090487437882e-03 2.486631283317e-04 0.0 
2.486631283317e-04 6.750183946417e-03 0.0 
0.0 0.0 -1.013969106439e-03 
4.266683345687e-05 -1.829982136319e-05 0.0 
-1.829982136319e-05 -1.175196824510e-05 0.0 
0.0 0.0 -1.324922794790e-05 
-2.207289874608e-04 -3.235795152871e-04 0.0 
-3.235795152871e-04 1.003256593638e-03 0.0 
0.0 0.0 -1.835536028976e-04 
6.095472518787e-04 -2.844414826135e-05 0.0 
-2.844414826135e-05 2.461208838896e-04 0.0 
0.0 0.0 -3.667149153293e-04 
-1.247686431213e-03 1.804464591039e-05 0.0 
1.804464591039e-05 7.316811787833e-03 0.0 
0.0 0.0 -1.127837695838e-03 
-1.073532930030e-03 2.556328204713e-04 0.0 
2.556328204713e-04 6.504084694261e-03 0.0 
0.0 0.0 -9.775003154318e-04 
-1.065496431756e-03 -3.247503852032e-04 0.0 
-3.247503852032e-04 5.643495466523e-03 0.0 
0.0 0.0 -8.513051444990e-04 
-9.769664875946e-04 2.379062424114e-04 0.0 
2.379062424114e-04 5.801214914582e-03 0.0 
0.0 0.0 -8.745614812816e-04 
-1.019950067796e-03 -4.586219499737e-04 0.0 
-4.586219499737e-04 7.042194348422e-03 0.0 
0.0 0.0 -1.139196670502e-03 
-1.001595776578e-03 -1.032368991806e-04 0.0 
-1.032368991806e-04 5.128573561517e-03 0.0 
0.0 0.0 -7.988714448434e-04 
-1.198933731184e-03 -2.304563849884e-06 0.0 
-2.304563849884e-06 6.870961844438e-03 0.0 
0.0 0.0 -1.061632825506e-03 
-4.894390167554e-04 -2.936556089740e-04 0.0 
-2.936556089740e-04 2.281659796893e-03 0.0 
0.0 0.0 -3.615122310665e-04 
-1.252320573339e-03 -4.986115071304e-05 0.0 
-4.986115071304e-05 7.805865228042e-03 0.0 
0.0 0.0 -1.211531131004e-03 
-9.705690281363e-04 -5.093762920131e-04 0.0 
-5.093762920131e-04 4.972659776742e-03 0.0 
0.0 0.0 -7.673127347790e-04 
-5.395948498915e-04 -2.749809582872e-04 0.0 
-2.749809582872e-04 2.502960479934e-03 0.0 
0.0 0.0 -3.889166325194e-04 
-9.539878925134e-04 -4.665681980887e-04 0.0 
-4.665681980887e-04 4.746329446601e-03 0.0 
0.0 0.0 -7.311132045151e-04 
-7.861451495527e-04 -2.221214863257e-04 0.0 
-2.221214863257e-04 3.593397886981e-03 0.0 
0.0 0.0 -5.716673668464e-04 
-6.390151670991e-04 -6.536657789763e-04 0.0 
-6.536657789763e-04 2.791763486177e-03 0.0 
0.0 0.0 -4.452767020142e-04 
-1.072653987371e-03 2.886861907429e-05 0.0 
2.886861907429e-05 5.536656976787e-03 0.0 
0.0 0.0 -8.564950983273e-04 
2.053402963574e-04 2.693149737115e-05 0.0 
2.693149737115e-05 -6.111100134196e-05 0.0 
0.0 0.0 -6.181255500660e-05 
1.464512989776e-04 -5.911592787119e-06 0.0 
-5.911592787119e-06 -4.332551876097e-05 0.0 
0.0 0.0 -4.419676295000e-05 
-1.129321225881e-03 -4.366761249298e-04 0.0 
-4.366761249298e-04 6.278524906094e-03 0.0 
0.0 0.0 -9.636005660098e-04 
-4.459230001805e-04 -3.109429784165e-04 0.0 
-3.109429784165e-04 2.087500805873e-03 0.0 
0.0 0.0 -3.336449385292e-04 
-1.093345380725e-03 -5.267841385720e-04 0.0 
-5.267841385720e-04 6.263877748210e-03 0.0 
0.0 0.0 -9.724388998541e-04 
-1.043259012928e-03 -5.809617148742e-04 0.0 
-5.809617148742e-04 6.025832941714e-03 0.0 
0.0 0.0 -9.438473481109e-04 
-7.593501897991e-04 -4.626236543671e-04 0.0 
-4.626236543671e-04 3.770567817408e-03 0.0 
0.0 0.0 -6.177757646845e-04 
-3.406532554668e-04 -1.201349069570e-03 0.0 
-1.201349069570e-03 1.971960000255e-03 0.0 
0.0 0.0 -4.162223005415e-04 
-1.210770017431e-03 -8.268587528123e-05 0.0 
-8.268587528123e-05 7.661732423863e-03 0.0 
0.0 0.0 -1.137719822027e-03 
2.217423052273e-04 3.028948149786e-04 0.0 
3.028948149786e-04 -1.208394326890e-05 0.0 
0.0 0.0 -8.985358369644e-05 
-8.285748112363e-04 -1.587478080269e-04 0.0 
-1.587478080269e-04 3.819529826762e-03 0.0 
0.0 0.0 -6.004815939294e-04 
-1.049679539983e-03 -3.693865297615e-04 0.0 
-3.693865297615e-04 7.240151455212e-03 0.0 
0.0 0.0 -1.175533656463e-03 
-3.983359874590e-04 4.184586300730e-05 0.0 
4.184586300730e-05 1.714439103962e-03 0.0 
0.0 0.0 -2.977570873278e-04 
-1.020229649597e-03 -1.375914676709e-04 0.0 
-1.375914676709e-04 6.101662351483e-03 0.0 
0.0 0.0 -9.088859120638e-04 
-9.450324784717e-04 -1.832830397253e-04 0.0 
-1.832830397253e-04 5.623770961517e-03 0.0 
0.0 0.0 -8.416286270284e-04 
-4.351237697250e-04 -5.540829146340e-04 0.0 
-5.540829146340e-04 1.723099038299e-03 0.0 
0.0 0.0 -2.842394630762e-04 
-1.127395628762e-03 -5.008482085009e-04 0.0 
-5.008482085009e-04 7.317936875090e-03 0.0 
0.0 0.0 -1.158722036769e-03 
-1.133506044246e-03 -8.767361897690e-05 0.0 
-8.767361897690e-05 6.959505034578e-03 0.0 
0.0 0.0 -1.034898561726e-03 
-4.951489600236e-04 -4.786425625421e-05 0.0 
-4.786425625421e-05 2.022039619189e-03 0.0 
0.0 0.0 -3.364655670308e-04 
-1.234708714507e-03 -3.925269914934e-05 0.0 
-3.925269914934e-05 7.851562311589e-03 0.0 
0.0 0.0 -1.166520446339e-03 
-1.230308234664e-03 3.090146298482e-04 0.0 
3.090146298482e-04 7.789607374426e-03 0.0 
0.0 0.0 -1.169001632583e-03 
-5.233675107163e-04 -4.314455861334e-04 0.0 
-4.314455861334e-04 2.327927411805e-03 0.0 
0.0 0.0 -3.701904734684e-04 
-5.932851689167e-04 7.473876325445e-04 0.0 
7.473876325445e-04 2.806018980480e-03 0.0 
0.0 0.0 -4.801335248058e-04 
-5.599793527513e-04 -5.941268921315e-04 0.0 
-5.941268921315e-04 2.361270480637e-03 0.0 
0.0 0.0 -3.791106726259e-04 
-1.172251179922e-03 -4.180665988864e-04 0.0 
-4.180665988864e-04 6.718010438057e-03 0.0 
0.0 0.0 -1.029923508343e-03 
-1.041340644124e-03 -3.282174640750e-05 0.0 
-3.282174640750e-05 5.343281569417e-03 0.0 
0.0 0.0 -8.276368238623e-04 
-1.238338552957e-03 5.129188831147e-04 0.0 
5.129188831147e-04 7.705442663502e-03 0.0 
0.0 0.0 -1.169529464977e-03 
-1.205798657677e-03 3.040238914407e-04 0.0 
3.040238914407e-04 7.606656415098e-03 0.0 
0.0 0.0 -1.140030709108e-03 
-1.136504455291e-03 -4.715376891294e-04 0.0 
-4.715376891294e-04 6.495059726217e-03 0.0 
0.0 0.0 -1.001167767022e-03 
-1.120337032388e-03 -1.059796522353e-04 0.0 
-1.059796522353e-04 6.426005632212e-03 0.0 
0.0 0.0 -1.004093472296e-03 
-5.274441073591e-04 -2.397572524931e-04 0.0 
-2.397572524931e-04 1.862294635062e-03 0.0 
0.0 0.0 -3.158693332420e-04 
-1.161634108540e-03 -5.320117127017e-05 0.0 
-5.320117127017e-05 6.648981173758e-03 0.0 
0.0 0.0 -1.032853941699e-03 
-1.125917341076e-03 2.991763443149e-04 0.0 
2.991763443149e-04 6.905438798140e-03 0.0 
0.0 0.0 -1.037144748481e-03 
-1.044631038411e-03 -3.631995376833e-04 0.0 
-3.631995376833e-04 5.407625222663e-03 0.0 
0.0 0.0 -8.248712778174e-04 
-1.078523674622e-03 -1.304712665821e-04 0.0 
-1.304712665821e-04 6.557738951195e-03 0.0 
0.0 0.0 -9.752741834902e-04 
-1.159347625089e-03 -9.624416522510e-05 0.0 
-9.624416522510e-05 7.210996352120e-03 0.0 
0.0 0.0 -1.071415751597e-03 
-3.318515090644e-04 6.235225383972e-04 0.0 
6.235225383972e-04 3.802912303128e-03 0.0 
0.0 0.0 -7.435371925968e-04 
-1.181769783394e-03 2.863535825742e-04 0.0 
2.863535825742e-04 7.408927706841e-03 0.0 
0.0 0.0 -1.110258267496e-03 
-9.356896319010e-04 -4.816204734149e-05 0.0 
-4.816204734149e-05 4.523878489702e-03 0.0 
0.0 0.0 -6.965171720950e-04 
-1.013439798328e-03 -4.389789435164e-04 0.0 
-4.389789435164e-04 5.194362623047e-03 0.0 
0.0 0.0 -7.960639764766e-04 
-7.588476473929e-04 -1.047638361378e-04 0.0 
-1.047638361378e-04 3.390478407872e-03 0.0 
0.0 0.0 -5.342291996904e-04 
-6.729613587978e-04 -9.978092115441e-04 0.0 
-9.978092115441e-04 3.336051263368e-03 0.0 
0.0 0.0 -5.581583723280e-04 
-1.100329888420e-03 2.776105336716e-04 0.0 
2.776105336716e-04 6.705832396393e-03 0.0 
0.0 0.0 -1.007339817349e-03 
-7.155066052029e-04 -8.941200741794e-04 0.0 
-8.941200741794e-04 4.520636252880e-03 0.0 
0.0 0.0 -7.637833264599e-04 
-5.880444497108e-04 -5.324378047215e-04 0.0 
-5.324378047215e-04 2.570561499900e-03 0.0 
0.0 0.0 -4.077494273363e-04 
-3.167379964521e-04 -3.896430801043e-04 0.0 
-3.896430801043e-04 1.286713823890e-03 0.0 
0.0 0.0 -2.185673950299e-04 
-1.104743277708e-03 -1.081634182050e-04 0.0 
-1.081634182050e-04 6.759513962222e-03 0.0 
0.0 0.0 -1.005115000480e-03 
-6.259157449930e-04 -2.410202634238e-04 0.0 
-2.410202634238e-04 2.506664290233e-03 0.0 
0.0 0.0 -4.107160730352e-04 
-1.199872170886e-03 -1.045804178386e-04 0.0 
-1.045804178386e-04 7.736983325214e-03 0.0 
0.0 0.0 -1.218716866995e-03 
-1.124972404341e-03 2.718592290333e-04 0.0 
2.718592290333e-04 6.955187210285e-03 0.0 
0.0 0.0 -1.043883448597e-03 
-1.171061824699e-03 -7.858396141652e-05 0.0 
-7.858396141652e-05 6.870002089505e-03 0.0 
0.0 0.0 -1.070373463590e-03 
-1.223592225032e-03 -6.654680312814e-05 0.0 
-6.654680312814e-05 7.796071319491e-03 0.0 
0.0 0.0 -1.284729618418e-03 
-8.862225412837e-04 -4.776674958030e-04 0.0 
-4.776674958030e-04 4.314456893826e-03 0.0 
0.0 0.0 -6.637377122259e-04 
-5.666876201447e-04 -1.260874714856e-04 0.0 
-1.260874714856e-04 2.263003673050e-03 0.0 
0.0 0.0 -3.731618544809e-04 
-4.219134531154e-04 -1.222472695970e-04 0.0 
-1.222472695970e-04 1.397809828057e-03 0.0 
0.0 0.0 -2.496210768721e-04 
-1.097286575279e-03 -5.440934378647e-04 0.0 
-5.440934378647e-04 6.473058930747e-03 0.0 
0.0 0.0 -1.009908742814e-03 
-1.043727317765e-03 2.472408857258e-04 0.0 
2.472408857258e-04 6.306661261885e-03 0.0 
0.0 0.0 -9.473489374553e-04 
-2.695681844680e-04 -5.290039554231e-05 0.0 
-5.290039554231e-05 9.382689285882e-04 0.0 
0.0 0.0 -1.858848441742e-04 
-7.364560019705e-04 -6.036242025600e-04 0.0 
-6.036242025600e-04 3.440005901319e-03 0.0 
0.0 0.0 -5.400474096907e-04 
-4.035403746382e-04 -2.305403145177e-04 0.0 
-2.305403145177e-04 2.024884021199e-03 0.0 
0.0 0.0 -3.246070344129e-04 
-1.046680963677e-03 -1.140431221757e-04 0.0 
-1.140431221757e-04 6.307213054075e-03 0.0 
0.0 0.0 -9.387834224272e-04 
-7.632592856577e-04 -5.393132933556e-04 0.0 
-5.393132933556e-04 3.657861775186e-03 0.0 
0.0 0.0 -5.687878759048e-04 
-1.016724206552e-03 -2.154888859726e-04 0.0 
-2.154888859726e-04 5.955453979487e-03 0.0 
0.0 0.0 -9.467935652644e-04 
-7.568020148065e-04 -4.521860907560e-04 0.0 
-4.521860907560e-04 3.415229586271e-03 0.0 
0.0 0.0 -5.337555413938e-04 
-1.189199624854e-03 -1.376681473433e-04 0.0 
-1.376681473433e-04 7.515170933533e-03 0.0 
0.0 0.0 -1.114809527198e-03 
-6.923550043241e-04 -2.768469088006e-04 0.0 
-2.768469088006e-04 2.945508556802e-03 0.0 
0.0 0.0 -4.768663991247e-04 
-1.044644236131e-03 -5.895775659962e-04 0.0 
-5.895775659962e-04 6.433247658548e-03 0.0 
0.0 0.0 -1.018590841688e-03 
-5.377186267121e-04 -1.162421830740e-03 0.0 
-1.162421830740e-03 1.924594638442e-03 0.0 
0.0 0.0 -3.376433569222e-04 
-1.043635089924e-03 -5.925974921427e-04 0.0 
-5.925974921427e-04 6.227817584456e-03 0.0 
0.0 0.0 -9.812220007866e-04 
-9.943565397434e-04 -3.497380212248e-04 0.0 
-3.497380212248e-04 4.987357588882e-03 0.0 
0.0 0.0 -7.604224332210e-04 
-1.126398211161e-03 -1.231258313828e-04 0.0 
-1.231258313828e-04 6.641179692916e-03 0.0 
0.0 0.0 -1.041555045145e-03 
9.223743664251e-05 -1.553032727052e-04 0.0 
-1.553032727052e-04 2.018845935385e-03 0.0 
0.0 0.0 -5.350282927002e-04 
-4.513551852745e-04 7.961954421126e-05 0.0 
7.961954421126e-05 1.942718085049e-03 0.0 
0.0 0.0 -3.277310168338e-04 
-9.768870302484e-04 -1.535527430477e-04 0.0 
-1.535527430477e-04 5.889109902335e-03 0.0 
0.0 0.0 -8.787268422831e-04 
-6.833158998415e-04 -4.842839122641e-04 0.0 
-4.842839122641e-04 5.519329349180e-03 0.0 
0.0 0.0 -9.464297096767e-04 
-6.696248071327e-04 9.527190214272e-04 0.0 
9.527190214272e-04 3.942995259938e-03 0.0 
0.0 0.0 -6.776081642141e-04 
-1.047238839157e-03 -1.563485093405e-04 0.0 
-1.563485093405e-04 6.341652196106e-03 0.0 
0.0 0.0 -9.453210152248e-04 
-5.135632802951e-04 -1.406486370917e-03 0.0 
-1.406486370917e-03 1.993823835031e-03 0.0 
0.0 0.0 -3.758914132629e-04 
-1.070153882220e-03 3.026802387506e-04 0.0 
3.026802387506e-04 6.407668419037e-03 0.0 
0.0 0.0 -9.642804585795e-04 
-3.826150946160e-04 -2.687090143275e-04 0.0 
-2.687090143275e-04 1.814458781029e-03 0.0 
0.0 0.0 -2.947674122297e-04 
-1.169970312209e-03 -5.285152303079e-04 0.0 
-5.285152303079e-04 7.359319887074e-03 0.0 
0.0 0.0 -1.150402778756e-03 
-7.093705364921e-04 -3.773457786927e-04 0.0 
-3.773457786927e-04 5.766663180528e-03 0.0 
0.0 0.0 -9.834711240942e-04 
-7.789396793629e-04 4.773750927831e-05 0.0 
4.773750927831e-05 6.190226744614e-03 0.0 
0.0 0.0 -1.037051012011e-03 
-1.266259122541e-03 -6.932227906499e-05 0.0 
-6.932227906499e-05 8.127793637496e-03 0.0 
0.0 0.0 -1.204463612412e-03 
-7.768385389529e-04 -8.073428107716e-04 0.0 
-8.073428107716e-04 4.980090398291e-03 0.0 
0.0 0.0 -8.294769417472e-04 
-4.699473644088e-04 -6.813726004672e-05 0.0 
-6.813726004672e-05 1.813879272209e-03 0.0 
0.0 0.0 -3.081489256106e-04 
-9.161062287207e-04 -6.850931603516e-04 0.0 
-6.850931603516e-04 5.713761905663e-03 0.0 
0.0 0.0 -9.239488535170e-04 
-1.173047693050e-03 -1.052473736579e-04 0.0 
-1.052473736579e-04 7.508097487322e-03 0.0 
0.0 0.0 -1.189963100592e-03 
-4.497409859123e-04 -1.426160803811e-03 0.0 
-1.426160803811e-03 2.458822638814e-03 0.0 
0.0 0.0 -4.786098583285e-04 
-1.143974714499e-03 -4.976969720053e-04 0.0 
-4.976969720053e-04 6.710156245847e-03 0.0 
0.0 0.0 -1.038675661098e-03 
-1.132883010551e-03 -1.192006961438e-04 0.0 
-1.192006961438e-04 7.009605316192e-03 0.0 
0.0 0.0 -1.041631482750e-03 
-1.897791220570e-04 -1.328549867833e-03 0.0 
-1.328549867833e-03 1.573915984256e-03 0.0 
0.0 0.0 -3.880698300753e-04 
-9.832169528241e-04 -6.401107558717e-04 0.0 
-6.401107558717e-04 5.975097252107e-03 0.0 
0.0 0.0 -9.525765839929e-04 
-9.785039199354e-04 -1.168734358181e-04 0.0 
-1.168734358181e-04 5.790498942477e-03 0.0 
0.0 0.0 -8.663127257149e-04 
-5.996048706546e-04 -3.316912815730e-04 0.0 
-3.316912815730e-04 2.740125406625e-03 0.0 
0.0 0.0 -4.280652785065e-04 
-7.035123059792e-04 -6.874159131133e-04 0.0 
-6.874159131133e-04 3.217847307373e-03 0.0 
0.0 0.0 -5.113914792957e-04 
-7.105655773308e-04 4.972009427012e-04 0.0 
4.972009427012e-04 4.827811336805e-03 0.0 
0.0 0.0 -8.004334922225e-04 
-1.074750193164e-03 -1.697498961518e-04 0.0 
-1.697498961518e-04 6.403492678198e-03 0.0 
0.0 0.0 -1.012809740122e-03 
-7.035308576129e-04 5.382426947374e-04 0.0 
5.382426947374e-04 3.806026837703e-03 0.0 
0.0 0.0 -6.201901524263e-04 
-6.308101104936e-04 5.457451351616e-04 0.0 
5.457451351616e-04 4.514197146446e-03 0.0 
0.0 0.0 -7.649884091348e-04 
-1.098080609149e-03 3.025878807238e-04 0.0 
3.025878807238e-04 6.656267622990e-03 0.0 
0.0 0.0 -1.000670320419e-03 
-1.014704614523e-03 2.583884235807e-04 0.0 
2.583884235807e-04 6.049064620228e-03 0.0 
0.0 0.0 -9.110000341593e-04 
-1.009261189838e-03 2.792149560740e-04 0.0 
2.792149560740e-04 5.955274274962e-03 0.0 
0.0 0.0 -8.984003255416e-04 
-9.871449342436e-04 -7.213431481816e-05 0.0 
-7.213431481816e-05 4.924174820230e-03 0.0 
0.0 0.0 -7.627602282935e-04 
-1.065656897570e-03 -5.121112680600e-04 0.0 
-5.121112680600e-04 7.066736918301e-03 0.0 
0.0 0.0 -1.130631056169e-03 
-8.421677165309e-04 -7.268506017030e-04 0.0 
-7.268506017030e-04 5.443918430101e-03 0.0 
0.0 0.0 -8.953295484280e-04 
-9.945000348060e-04 -1.248826091764e-04 0.0 
-1.248826091764e-04 5.857149722276e-03 0.0 
0.0 0.0 -8.720525204519e-04 
-1.238633943108e-03 1.686741563001e-04 0.0 
1.686741563001e-04 7.876441362665e-03 0.0 
0.0 0.0 -1.193584144721e-03 
-8.522957180035e-04 9.316442431589e-05 0.0 
9.316442431589e-05 6.488948212224e-03 0.0 
0.0 0.0 -1.073433710836e-03 
-1.015779217143e-03 -2.144660185469e-04 0.0 
-2.144660185469e-04 6.157749518334e-03 0.0 
0.0 0.0 -9.841343610905e-04 
-1.152967284980e-03 2.909720530725e-04 0.0 
2.909720530725e-04 7.156656236309e-03 0.0 
0.0 0.0 -1.073677668998e-03 
-7.263162190416e-04 -8.886940194724e-04 0.0 
-8.886940194724e-04 3.588121008828e-03 0.0 
0.0 0.0 -5.862626530915e-04 
-7.235359723586e-04 -7.958794651799e-04 0.0 
-7.958794651799e-04 3.410683047674e-03 0.0 
0.0 0.0 -5.488365039436e-04 
-4.694757851361e-04 -5.127005261343e-04 0.0 
-5.127005261343e-04 1.922171349029e-03 0.0 
0.0 0.0 -3.130684191733e-04 
-9.104943950574e-04 -6.552016600707e-04 0.0 
-6.552016600707e-04 5.911258485735e-03 0.0 
0.0 0.0 -9.612598090090e-04 
-7.654832124176e-04 -7.002445478485e-04 0.0 
-7.002445478485e-04 3.645865785489e-03 0.0 
0.0 0.0 -5.775003002374e-04 
-1.075243583964e-03 -1.050257747268e-04 0.0 
-1.050257747268e-04 6.505297040680e-03 0.0 
0.0 0.0 -9.686535345556e-04 
-1.046091552134e-03 -1.046643629052e-04 0.0 
-1.046643629052e-04 6.253743570569e-03 0.0 
0.0 0.0 -9.322463471790e-04 
-3.156258732897e-04 -6.342992802894e-05 0.0 
-6.342992802894e-05 4.063447682096e-03 0.0 
0.0 0.0 -7.690363516573e-04 
-6.768678335791e-04 -4.944889426237e-04 0.0 
-4.944889426237e-04 2.924353115240e-03 0.0 
0.0 0.0 -4.860199686152e-04 
7.378566886558e-05 8.261792693270e-04 0.0 
8.261792693270e-04 1.831438910589e-03 0.0 
0.0 0.0 -5.148587792422e-04 
-7.140205863396e-04 -3.895142562213e-04 0.0 
-3.895142562213e-04 3.153467660832e-03 0.0 
0.0 0.0 -5.143448975765e-04 
-7.166082742775e-04 -4.898417450174e-04 0.0 
-4.898417450174e-04 3.345585253682e-03 0.0 
0.0 0.0 -5.517963299543e-04 
-5.453825262275e-04 -1.801577044467e-04 0.0 
-1.801577044467e-04 2.063785108327e-03 0.0 
0.0 0.0 -3.446931235564e-04 
-9.991919087570e-04 -5.159677692080e-04 0.0 
-5.159677692080e-04 6.812973713771e-03 0.0 
0.0 0.0 -1.101849228969e-03 
-6.361621297383e-04 -6.326273812119e-04 0.0 
-6.326273812119e-04 3.840813039186e-03 0.0 
0.0 0.0 -6.642957827475e-04 
-1.186458515100e-03 -1.053251154620e-04 0.0 
-1.053251154620e-04 7.463739247015e-03 0.0 
0.0 0.0 -1.107989045227e-03 
-5.978205852498e-04 -6.030872319160e-04 0.0 
-6.030872319160e-04 3.997835835114e-03 0.0 
0.0 0.0 -7.013039408444e-04 
-8.766496605348e-04 -2.938506230370e-04 0.0 
-2.938506230370e-04 5.643098139245e-03 0.0 
0.0 0.0 -9.268471029391e-04 
-7.458770769302e-04 -4.494771908485e-04 0.0 
-4.494771908485e-04 4.730820068739e-03 0.0 
0.0 0.0 -7.951651613512e-04 
-5.061128914291e-04 5.136368614140e-04 0.0 
5.136368614140e-04 4.289096613619e-03 0.0 
0.0 0.0 -7.567435594048e-04 
-4.924031779586e-04 -4.582157831525e-04 0.0 
-4.582157831525e-04 2.128157277405e-03 0.0 
0.0 0.0 -3.417109511102e-04 
-1.119466152649e-03 -1.285123435513e-04 0.0 
-1.285123435513e-04 7.241871223374e-03 0.0 
0.0 0.0 -1.161691925552e-03 
-1.157276862038e-03 -5.152756470004e-04 0.0 
-5.152756470004e-04 7.595110461611e-03 0.0 
0.0 0.0 -1.198716319349e-03 
-9.186810373389e-04 7.206447187045e-04 0.0 
7.206447187045e-04 5.929294122594e-03 0.0 
0.0 0.0 -9.650368815299e-04 
-7.024384046348e-04 -5.668947943432e-04 0.0 
-5.668947943432e-04 3.521466880882e-03 0.0 
0.0 0.0 -5.892385666867e-04 
-8.092329254756e-04 -3.679333936268e-04 0.0 
-3.679333936268e-04 5.184879506691e-03 0.0 
0.0 0.0 -8.609535187098e-04 
-1.070645862318e-03 2.880325294516e-04 0.0 
2.880325294516e-04 6.451710160525e-03 0.0 
0.0 0.0 -9.708520278613e-04 
-7.765899253724e-04 -7.845646391497e-04 0.0 
-7.845646391497e-04 3.835907640370e-03 0.0 
0.0 0.0 -6.148791393494e-04 
-5.560475869297e-04 7.086124654578e-04 0.0 
7.086124654578e-04 3.695652655845e-03 0.0 
0.0 0.0 -6.394234923164e-04 
-6.747584532598e-04 -5.770366254477e-04 0.0 
-5.770366254477e-04 3.009985049056e-03 0.0 
0.0 0.0 -4.739097840058e-04 
-4.381090568186e-04 -1.552304285074e-03 0.0 
-1.552304285074e-03 2.041510460725e-03 0.0 
0.0 0.0 -4.132304097957e-04 
-7.141863963918e-04 -9.568035345241e-04 0.0 
-9.568035345241e-04 3.752753679619e-03 0.0 
0.0 0.0 -6.236739531379e-04 
-6.528961987011e-04 -1.781186145787e-04 0.0 
-1.781186145787e-04 2.715857529516e-03 0.0 
0.0 0.0 -4.393534411964e-04 
-5.596275213697e-04 -3.829013705402e-04 0.0 
-3.829013705402e-04 2.536190508459e-03 0.0 
0.0 0.0 -3.988888273503e-04 
-7.947060353366e-04 -8.306305145241e-04 0.0 
-8.306305145241e-04 4.800715564885e-03 0.0 
0.0 0.0 -7.922809795675e-04 
-9.495117069836e-04 -2.555007117944e-04 0.0 
-2.555007117944e-04 5.904688651206e-03 0.0 
0.0 0.0 -9.554846610150e-04 
-1.106451546740e-03 6.547273223382e-04 0.0 
6.547273223382e-04 7.113693437201e-03 0.0 
0.0 0.0 -1.128610778606e-03 
5.517197538679e-04 6.942037793557e-07 0.0 
6.942037793557e-07 5.222913432921e-05 0.0 
0.0 0.0 -1.143255210630e-04 
-3.502562365249e-04 -5.244252159893e-04 0.0 
-5.244252159893e-04 3.531851922803e-03 0.0 
0.0 0.0 -6.818868151027e-04 
-4.968184483203e-04 -6.518828778024e-04 0.0 
-6.518828778024e-04 3.693766435261e-03 0.0 
0.0 0.0 -6.732431144785e-04 
-6.734388902022e-04 -6.179988430692e-04 0.0 
-6.179988430692e-04 3.684173063462e-03 0.0 
0.0 0.0 -6.268095852860e-04 
-1.038674892423e-03 2.849365380829e-04 0.0 
2.849365380829e-04 6.200994707550e-03 0.0 
0.0 0.0 -9.344164207832e-04 
-6.877399303223e-04 -5.371529877498e-04 0.0 
-5.371529877498e-04 4.282013621241e-03 0.0 
0.0 0.0 -7.295442444478e-04 
-7.236126278911e-04 -1.940798346154e-04 0.0 
-1.940798346154e-04 3.162977138653e-03 0.0 
0.0 0.0 -5.055050897130e-04 
-6.903954199582e-04 -9.883908706268e-04 0.0 
-9.883908706268e-04 3.912237901394e-03 0.0 
0.0 0.0 -6.611654675676e-04 
-1.160544064243e-03 2.681116606983e-04 0.0 
2.681116606983e-04 7.207667667947e-03 0.0 
0.0 0.0 -1.080452943103e-03 
-7.185620229440e-04 -5.086767079658e-04 0.0 
-5.086767079658e-04 3.228512561114e-03 0.0 
0.0 0.0 -5.025663706543e-04 
-3.033530584322e-04 -3.126589283008e-05 0.0 
-3.126589283008e-05 1.124202721504e-03 0.0 
0.0 0.0 -2.132551421006e-04 
-4.445863950683e-04 -1.098673452603e-04 0.0 
-1.098673452603e-04 1.624443337862e-03 0.0 
0.0 0.0 -2.784575373548e-04 
-4.556609783406e-04 -1.046441961485e-03 0.0 
-1.046441961485e-03 2.312897280805e-03 0.0 
0.0 0.0 -4.444240490352e-04 
-6.671697262521e-04 -6.094353393578e-04 0.0 
-6.094353393578e-04 3.102567689836e-03 0.0 
0.0 0.0 -5.239304829885e-04 
-4.604694554278e-04 -5.460587614430e-04 0.0 
-5.460587614430e-04 3.852686059404e-03 0.0 
0.0 0.0 -7.099160536912e-04 
-6.597409171735e-04 -9.847744191674e-04 0.0 
-9.847744191674e-04 4.070104714955e-03 0.0 
0.0 0.0 -6.984076724203e-04 
-4.347846215514e-04 -1.333971923402e-03 0.0 
-1.333971923402e-03 1.612936656771e-03 0.0 
0.0 0.0 -3.343205611582e-04 
-3.976613437580e-04 -3.897326152451e-04 0.0 
-3.897326152451e-04 1.671878635782e-03 0.0 
0.0 0.0 -2.765202162382e-04 
-1.033660003461e-03 -1.033996314703e-04 0.0 
-1.033996314703e-04 5.926247048388e-03 0.0 
0.0 0.0 -8.885078876198e-04 
-6.226964712633e-04 -4.829751825411e-04 0.0 
-4.829751825411e-04 2.780306463648e-03 0.0 
0.0 0.0 -4.363975895258e-04 
-9.598608129299e-04 -1.512388155027e-04 0.0 
-1.512388155027e-04 6.520728160314e-03 0.0 
0.0 0.0 -1.067401112627e-03 
-1.044199175907e-03 6.711789122637e-04 0.0 
6.711789122637e-04 6.814869566682e-03 0.0 
0.0 0.0 -1.093380752811e-03 
-1.033158695296e-03 1.201714905428e-04 0.0 
1.201714905428e-04 5.943900742884e-03 0.0 
0.0 0.0 -9.013836717722e-04 
-1.202438437016e-03 3.703852775580e-04 0.0 
3.703852775580e-04 7.497052002657e-03 0.0 
0.0 0.0 -1.126084317643e-03 
-1.147719962247e-03 6.494223347106e-04 0.0 
6.494223347106e-04 7.391690108111e-03 0.0 
0.0 0.0 -1.164310864388e-03 
-2.878547429469e-04 1.154238477974e-04 0.0 
1.154238477974e-04 3.877857573592e-03 0.0 
0.0 0.0 -7.408850503417e-04 
-9.791568623396e-04 6.928855181129e-04 0.0 
6.928855181129e-04 6.367692588182e-03 0.0 
0.0 0.0 -1.029042339204e-03 
-3.868820834042e-04 -1.598175067219e-03 0.0 
-1.598175067219e-03 1.640588266591e-03 0.0 
0.0 0.0 -3.684254322556e-04 
-7.608485108981e-04 -8.950598342909e-04 0.0 
-8.950598342909e-04 4.184728790858e-03 0.0 
0.0 0.0 -6.894573431515e-04 
-3.726378683448e-04 9.309707187506e-04 0.0 
9.309707187506e-04 3.521132831243e-03 0.0 
0.0 0.0 -6.879681371099e-04 
1.475700378225e-04 -1.082055056136e-03 0.0 
-1.082055056136e-03 1.153328364632e-03 0.0 
0.0 0.0 -4.001859895708e-04 
-2.322378270667e-04 -1.414305700121e-03 0.0 
-1.414305700121e-03 1.285051000812e-03 0.0 
0.0 0.0 -3.718692805502e-04 
-7.624977688682e-04 -3.873820506890e-04 0.0 
-3.873820506890e-04 3.581246965727e-03 0.0 
0.0 0.0 -5.804062017457e-04 
-5.687072458126e-04 -1.053499292402e-03 0.0 
-1.053499292402e-03 3.769545573336e-03 0.0 
0.0 0.0 -6.703429011759e-04 
-5.303660715230e-04 -9.834601585863e-04 0.0 
-9.834601585863e-04 3.928073668805e-03 0.0 
0.0 0.0 -7.070647534220e-04 
-6.858142190642e-04 -1.264292236945e-04 0.0 
-1.264292236945e-04 2.925987856864e-03 0.0 
0.0 0.0 -4.680152132766e-04 
-6.589899224581e-04 -5.005558218905e-04 0.0 
-5.005558218905e-04 4.450521373462e-03 0.0 
0.0 0.0 -7.666177146937e-04 
-4.231487579380e-04 -9.909487264928e-04 0.0 
-9.909487264928e-04 3.613001704936e-03 0.0 
0.0 0.0 -6.790125122095e-04 
-3.369199789232e-04 -3.555417311412e-04 0.0 
-3.555417311412e-04 3.718100603305e-03 0.0 
0.0 0.0 -7.183521444552e-04 
-6.803758157452e-04 -9.028741567956e-04 0.0 
-9.028741567956e-04 3.171875899076e-03 0.0 
0.0 0.0 -5.205443542100e-04 
-6.888642757158e-04 -2.049706033719e-04 0.0 
-2.049706033719e-04 5.802071078045e-03 0.0 
0.0 0.0 -9.921115096417e-04 
-1.107658319106e-03 -8.404497540785e-05 0.0 
-8.404497540785e-05 6.709473481144e-03 0.0 
0.0 0.0 -9.984673180476e-04 
-2.379293217191e-04 -2.443881819662e-04 0.0 
-2.443881819662e-04 3.409073247204e-03 0.0 
0.0 0.0 -6.904379518788e-04 
-1.046303389369e-03 -1.114400525399e-04 0.0 
-1.114400525399e-04 6.996162598283e-03 0.0 
0.0 0.0 -1.133495712197e-03 
-3.268910950442e-04 -1.748504239578e-03 0.0 
-1.748504239578e-03 1.649599373731e-03 0.0 
0.0 0.0 -3.849690761666e-04 
-1.105326955299e-03 -1.209562394880e-05 0.0 
-1.209562394880e-05 7.506917461540e-03 0.0 
0.0 0.0 -1.208505026952e-03 
-5.639712272191e-04 -5.345864669017e-04 0.0 
-5.345864669017e-04 4.155944038547e-03 0.0 
0.0 0.0 -7.381355003807e-04 
-1.181963174499e-03 7.139086798359e-04 0.0 
7.139086798359e-04 7.734753846791e-03 0.0 
0.0 0.0 -1.203459118631e-03 
-9.741416899861e-04 2.978325655321e-04 0.0 
2.978325655321e-04 5.872577927131e-03 0.0 
0.0 0.0 -9.144069900286e-04 
-4.654888822043e-04 -1.140967963864e-03 0.0 
-1.140967963864e-03 1.931638852762e-03 0.0 
0.0 0.0 -3.788569260404e-04 
-1.047582909248e-03 1.584393688340e-04 0.0 
1.584393688340e-04 6.105623494628e-03 0.0 
0.0 0.0 -9.292863832265e-04 
-1.220879085669e-03 4.419497771274e-04 0.0 
4.419497771274e-04 7.616026390278e-03 0.0 
0.0 0.0 -1.148369591821e-03 
-5.398601850951e-04 -4.406973068625e-04 0.0 
-4.406973068625e-04 4.330390544396e-03 0.0 
0.0 0.0 -7.747733155264e-04 
-3.603331338578e-04 8.676550475076e-04 0.0 
8.676550475076e-04 2.963522800416e-03 0.0 
0.0 0.0 -5.621395992319e-04 
-1.057553285601e-03 1.944669215669e-04 0.0 
1.944669215669e-04 6.263161490160e-03 0.0 
0.0 0.0 -9.572423940436e-04 
-7.057059362099e-04 9.012515937016e-04 0.0 
9.012515937016e-04 4.348665847300e-03 0.0 
0.0 0.0 -7.402445244775e-04 
-4.362988120307e-04 -1.127161443736e-03 0.0 
-1.127161443736e-03 1.552148016574e-03 0.0 
0.0 0.0 -3.359502462693e-04 
-1.283659217910e-03 4.297574681589e-04 0.0 
4.297574681589e-04 8.390487106861e-03 0.0 
0.0 0.0 -1.259077240559e-03 
-4.445080952730e-04 -7.847967672699e-04 0.0 
-7.847967672699e-04 1.460661056520e-03 0.0 
0.0 0.0 -3.199353184197e-04 
-1.015479846412e-03 -4.911816191571e-05 0.0 
-4.911816191571e-05 7.389564650234e-03 0.0 
0.0 0.0 -1.194426649262e-03 
-1.235108043989e-03 2.931339570481e-04 0.0 
2.931339570481e-04 7.856142431297e-03 0.0 
0.0 0.0 -1.175981821618e-03 
-7.472334457018e-04 -2.848888603521e-04 0.0 
-2.848888603521e-04 6.030064979728e-03 0.0 
0.0 0.0 -1.020516803968e-03 
-1.010840280569e-03 2.871682712165e-04 0.0 
2.871682712165e-04 5.990467797945e-03 0.0 
0.0 0.0 -9.041796124736e-04 
-1.188290086785e-03 -4.131460252783e-05 0.0 
-4.131460252783e-05 7.360236208895e-03 0.0 
0.0 0.0 -1.094228678348e-03 
-3.956150081579e-04 -8.444363927456e-04 0.0 
-8.444363927456e-04 3.798159061747e-03 0.0 
0.0 0.0 -7.154996274706e-04 
-4.250562518241e-04 -8.715186287138e-05 0.0 
-8.715186287138e-05 4.576837397274e-03 0.0 
0.0 0.0 -8.337527902170e-04 
-1.236732889268e-03 3.932687216903e-04 0.0 
3.932687216903e-04 7.932024372295e-03 0.0 
0.0 0.0 -1.191782302182e-03 
-1.016762164362e-03 -2.009947599505e-04 0.0 
-2.009947599505e-04 6.362580938042e-03 0.0 
0.0 0.0 -1.021464098896e-03 
-1.135162035509e-03 -5.768530929232e-05 0.0 
-5.768530929232e-05 6.910041935378e-03 0.0 
0.0 0.0 -1.028225029406e-03 
-7.343430317228e-04 -7.671896480507e-05 0.0 
-7.671896480507e-05 5.717453709460e-03 0.0 
0.0 0.0 -9.780777104595e-04 
-3.572725597686e-04 -1.352690279400e-03 0.0 
-1.352690279400e-03 1.583802329561e-03 0.0 
0.0 0.0 -3.505936111242e-04 
-1.159722748538e-03 -3.230530369319e-05 0.0 
-3.230530369319e-05 7.104974861712e-03 0.0 
0.0 0.0 -1.057861461704e-03 
-1.213686028729e-03 4.975227447854e-04 0.0 
4.975227447854e-04 8.277647080915e-03 0.0 
0.0 0.0 -1.268085107495e-03 
-1.141634375887e-03 -6.383832911746e-05 0.0 
-6.383832911746e-05 7.496062386317e-03 0.0 
0.0 0.0 -1.202195648613e-03 
-7.172722051064e-04 -5.438382500790e-04 0.0 
-5.438382500790e-04 4.116936776522e-03 0.0 
0.0 0.0 -6.923681691211e-04 
-1.013061704463e-03 -1.285173007321e-04 0.0 
-1.285173007321e-04 6.040176746182e-03 0.0 
0.0 0.0 -9.020111041354e-04 
-9.803558555424e-04 2.819126364211e-04 0.0 
2.819126364211e-04 5.747481973327e-03 0.0 
0.0 0.0 -8.677534307045e-04 
-6.277772364563e-04 -9.505441527148e-04 0.0 
-9.505441527148e-04 4.228315103377e-03 0.0 
0.0 0.0 -7.352749011056e-04 
-9.471295400473e-04 -2.290448642546e-04 0.0 
-2.290448642546e-04 6.104893151692e-03 0.0 
0.0 0.0 -9.927925938929e-04 
-9.496787292750e-04 -1.931802113086e-04 0.0 
-1.931802113086e-04 6.308676304585e-03 0.0 
0.0 0.0 -1.030113165296e-03 
-3.367468350593e-04 -4.171493311675e-04 0.0 
-4.171493311675e-04 1.462207300335e-03 0.0 
0.0 0.0 -2.466400652194e-04 
1.723252799300e-04 1.006036226683e-03 0.0 
1.006036226683e-03 1.258635118435e-03 0.0 
0.0 0.0 -4.508272210452e-04 
-2.636139264689e-04 -4.295683990350e-05 0.0 
-4.295683990350e-05 3.648292398008e-03 0.0 
0.0 0.0 -7.269793770173e-04 
-2.881552402748e-04 -7.723163841178e-04 0.0 
-7.723163841178e-04 3.494059092135e-03 0.0 
0.0 0.0 -6.875569550716e-04 
-5.987135522068e-04 9.581338196100e-04 0.0 
9.581338196100e-04 4.121697912248e-03 0.0 
0.0 0.0 -7.320784846625e-04 
-1.264443641134e-03 9.169602624827e-06 0.0 
9.169602624827e-06 8.228641212544e-03 0.0 
0.0 0.0 -1.225426844749e-03 
-1.225437596415e-03 5.454708430458e-04 0.0 
5.454708430458e-04 7.618255897701e-03 0.0 
0.0 0.0 -1.162686153705e-03 
-1.236580353686e-03 -8.584500076515e-05 0.0 
-8.584500076515e-05 7.903871079557e-03 0.0 
0.0 0.0 -1.173632101657e-03 
-7.521471418708e-04 4.524177914914e-04 0.0 
4.524177914914e-04 4.089944836528e-03 0.0 
0.0 0.0 -6.556197767577e-04 
-1.172411158405e-03 4.147315892345e-04 0.0 
4.147315892345e-04 7.176351707369e-03 0.0 
0.0 0.0 -1.082713561900e-03 
-9.808832725520e-04 -6.235651659416e-04 0.0 
-6.235651659416e-04 6.175367423925e-03 0.0 
0.0 0.0 -9.899156953211e-04 
-1.256868554146e-03 3.642260226585e-04 0.0 
3.642260226585e-04 8.010570571666e-03 0.0 
0.0 0.0 -1.198415070424e-03 
-1.131244473165e-03 -2.609112415896e-05 0.0 
-2.609112415896e-05 6.847199996424e-03 0.0 
0.0 0.0 -1.021631336281e-03 
-7.398403296460e-04 -9.100435650523e-04 0.0 
-9.100435650523e-04 4.351978419830e-03 0.0 
0.0 0.0 -7.266350563285e-04 
-1.966131980491e-04 1.343789576191e-04 0.0 
1.343789576191e-04 3.379385752975e-03 0.0 
0.0 0.0 -6.989458521267e-04 
-1.152804453403e-03 3.500950542230e-04 0.0 
3.500950542230e-04 7.051163395974e-03 0.0 
0.0 0.0 -1.060111126929e-03 
-1.235067592862e-03 -2.698356757779e-05 0.0 
-2.698356757779e-05 7.807694952398e-03 0.0 
0.0 0.0 -1.160283895044e-03 
-1.152447904070e-03 3.233521508878e-04 0.0 
3.233521508878e-04 7.106400049278e-03 0.0 
0.0 0.0 -1.066842251349e-03 
-1.126824314787e-03 3.260890582423e-04 0.0 
3.260890582423e-04 6.856832929645e-03 0.0 
0.0 0.0 -1.030428295937e-03 
-1.098624795041e-03 -1.306628866347e-04 0.0 
-1.306628866347e-04 7.036525786255e-03 0.0 
0.0 0.0 -1.124756152480e-03 
-9.788942539780e-04 1.410494860673e-05 0.0 
1.410494860673e-05 7.171321125896e-03 0.0 
0.0 0.0 -1.167530213646e-03 
-1.029227773633e-03 -1.448576550575e-04 0.0 
-1.448576550575e-04 6.777818390463e-03 0.0 
0.0 0.0 -1.096139997395e-03 
-8.853909467236e-04 -3.202143432842e-04 0.0 
-3.202143432842e-04 5.450131718365e-03 0.0 
0.0 0.0 -8.895595506238e-04 
-7.841401063913e-04 5.175313733597e-04 0.0 
5.175313733597e-04 4.039507771945e-03 0.0 
0.0 0.0 -6.419897747600e-04 
-7.984394936658e-04 -1.887921339689e-04 0.0 
-1.887921339689e-04 6.295485930606e-03 0.0 
0.0 0.0 -1.057160997780e-03 
-1.115933343197e-03 4.349000973092e-04 0.0 
4.349000973092e-04 6.664037002129e-03 0.0 
0.0 0.0 -1.010795753303e-03 
-5.956699057430e-04 -8.811439702695e-05 0.0 
-8.811439702695e-05 2.473036601140e-03 0.0 
0.0 0.0 -4.018221946533e-04 
-2.915622310354e-04 -5.737426198503e-04 0.0 
-5.737426198503e-04 3.731241780433e-03 0.0 
0.0 0.0 -7.241222962603e-04 
-4.504794563628e-04 -1.267768640868e-04 0.0 
-1.267768640868e-04 4.437238068048e-03 0.0 
0.0 0.0 -8.193994707270e-04 
-5.327307368017e-04 -1.017456922387e-04 0.0 
-1.017456922387e-04 5.084928060617e-03 0.0 
0.0 0.0 -8.986564694586e-04 
3.950181268846e-04 -2.404122539236e-04 0.0 
-2.404122539236e-04 7.824137722745e-04 0.0 
0.0 0.0 -4.157903644632e-04 
-2.054344188629e-04 -4.192766465647e-04 0.0 
-4.192766465647e-04 3.464515105753e-03 0.0 
0.0 0.0 -6.962026719631e-04 
-6.398120247413e-04 -1.116949900707e-04 0.0 
-1.116949900707e-04 5.588791715487e-03 0.0 
0.0 0.0 -9.636952012155e-04 
-8.444842612221e-04 6.249200502653e-04 0.0 
6.249200502653e-04 4.582153886631e-03 0.0 
0.0 0.0 -7.294090860402e-04 
-7.683331433156e-04 -4.669157271009e-04 0.0 
-4.669157271009e-04 4.555612432421e-03 0.0 
0.0 0.0 -7.579899565570e-04 
-1.071508205892e-03 -5.121927920590e-05 0.0 
-5.121927920590e-05 6.390736393491e-03 0.0 
0.0 0.0 -9.556638187253e-04 
-8.714266706773e-04 2.063026129845e-04 0.0 
2.063026129845e-04 5.095248433608e-03 0.0 
0.0 0.0 -7.638029664831e-04 
-6.864860403863e-05 6.865817311915e-04 0.0 
6.865817311915e-04 5.756289586921e-04 0.0 
0.0 0.0 -2.172772948515e-04 
-8.538627514522e-04 -7.550684867704e-04 0.0 
-7.550684867704e-04 5.254936553017e-03 0.0 
0.0 0.0 -8.580817703278e-04 
-8.031553766191e-04 9.023974365030e-05 0.0 
9.023974365030e-05 6.192888911591e-03 0.0 
0.0 0.0 -1.051835763028e-03 
-1.248237691654e-03 5.633939617195e-04 0.0 
5.633939617195e-04 7.887034516043e-03 0.0 
0.0 0.0 -1.196871286280e-03 
-3.729352427207e-04 2.857944806302e-04 0.0 
2.857944806302e-04 4.199383336330e-03 0.0 
0.0 0.0 -7.999758813884e-04 
-8.246860114036e-04 -3.906175878888e-04 0.0 
-3.906175878888e-04 5.000590526334e-03 0.0 
0.0 0.0 -8.237210115815e-04 
-1.081299147246e-03 -7.697289611938e-05 0.0 
-7.697289611938e-05 6.459732028031e-03 0.0 
0.0 0.0 -9.620958722924e-04 
-2.880056971411e-04 8.925028292911e-04 0.0 
8.925028292911e-04 1.145866698786e-03 0.0 
0.0 0.0 -3.038018182983e-04 
-7.446793118804e-04 1.621554593950e-04 0.0 
1.621554593950e-04 5.956534969945e-03 0.0 
0.0 0.0 -1.023361637732e-03 
-4.737891057000e-04 -2.200266757859e-04 0.0 
-2.200266757859e-04 4.791461031182e-03 0.0 
0.0 0.0 -8.619475031456e-04 
-8.828155885906e-04 2.614625346270e-04 0.0 
2.614625346270e-04 4.904715470600e-03 0.0 
0.0 0.0 -7.615729788896e-04 
-9.809961927394e-04 -5.936604313144e-04 0.0 
-5.936604313144e-04 6.379528294436e-03 0.0 
0.0 0.0 -1.027225276160e-03 
-1.932500912873e-05 -1.677380896941e-03 0.0 
-1.677380896941e-03 1.233986358287e-03 0.0 
0.0 0.0 -3.946419382404e-04 
-9.859370989770e-04 -5.573179193325e-04 0.0 
-5.573179193325e-04 6.591591148133e-03 0.0 
0.0 0.0 -1.064556537081e-03 
-1.075263487039e-03 -6.290518893134e-05 0.0 
-6.290518893134e-05 7.229861812646e-03 0.0 
0.0 0.0 -1.170878753521e-03 
-6.948674803166e-04 2.455637071472e-04 0.0 
2.455637071472e-04 5.729378568502e-03 0.0 
0.0 0.0 -9.948919501216e-04 
-1.162320360260e-03 -6.372562573002e-05 0.0 
-6.372562573002e-05 7.161310363851e-03 0.0 
0.0 0.0 -1.064574987933e-03 
-9.584753352366e-04 2.606905829813e-04 0.0 
2.606905829813e-04 6.727836890182e-03 0.0 
0.0 0.0 -1.082686220397e-03 
-1.082949588594e-03 -4.851124086325e-04 0.0 
-4.851124086325e-04 7.296469259281e-03 0.0 
0.0 0.0 -1.168035910845e-03 
-5.459113610208e-04 8.695894781593e-04 0.0 
8.695894781593e-04 1.682549247342e-03 0.0 
0.0 0.0 -2.917408095836e-04 
-1.104897704515e-03 -4.845952140229e-05 0.0 
-4.845952140229e-05 6.655011128943e-03 0.0 
0.0 0.0 -9.919185416031e-04 
-1.022193057884e-03 1.318252200891e-04 0.0 
1.318252200891e-04 7.257050403107e-03 0.0 
0.0 0.0 -1.173906618061e-03 
-1.179945511942e-03 3.471716249997e-04 0.0 
3.471716249997e-04 7.305593288174e-03 0.0 
0.0 0.0 -1.096489272820e-03 
-5.875834666640e-04 2.546818746217e-04 0.0 
2.546818746217e-04 5.224796690614e-03 0.0 
0.0 0.0 -9.297700869391e-04 
-2.515263867691e-04 -2.254429621664e-04 0.0 
-2.254429621664e-04 3.754254559254e-03 0.0 
0.0 0.0 -7.325247082200e-04 
-9.641389493889e-04 -2.217264104135e-04 0.0 
-2.217264104135e-04 5.113633075458e-03 0.0 
0.0 0.0 -8.069452076110e-04 
4.285236195004e-04 1.396212384085e-04 0.0 
1.396212384085e-04 -1.219952762883e-04 0.0 
0.0 0.0 -1.313692899480e-04 
-1.204146700831e-03 3.439641556613e-04 0.0 
3.439641556613e-04 7.554548687955e-03 0.0 
0.0 0.0 -1.132911322290e-03 
-6.253175333027e-04 -2.826075305287e-05 0.0 
-2.826075305287e-05 2.680000675139e-03 0.0 
0.0 0.0 -4.309687334850e-04 
-5.749579867921e-04 6.771703350766e-04 0.0 
6.771703350766e-04 2.115308728038e-03 0.0 
0.0 0.0 -3.582286249851e-04 
-9.529535044554e-04 3.072244071368e-04 0.0 
3.072244071368e-04 6.570888144221e-03 0.0 
0.0 0.0 -1.054483161448e-03 
-1.255167442230e-03 3.201007171124e-04 0.0 
3.201007171124e-04 8.070344212991e-03 0.0 
0.0 0.0 -1.206783194404e-03 
-8.215496895040e-05 -1.772999525451e-03 0.0 
-1.772999525451e-03 1.193950944070e-03 0.0 
0.0 0.0 -3.966701258844e-04 
-7.833558623484e-04 4.482971625863e-04 0.0 
4.482971625863e-04 5.133302818514e-03 0.0 
0.0 0.0 -8.358581584049e-04 
-1.123137751770e-03 3.572847673877e-04 0.0 
3.572847673877e-04 6.794615582447e-03 0.0 
0.0 0.0 -1.023814440555e-03 
-8.765385540671e-04 -7.492880491734e-04 0.0 
-7.492880491734e-04 4.884441485584e-03 0.0 
0.0 0.0 -7.840072721007e-04 
2.874574446344e-04 -1.091275984428e-03 0.0 
-1.091275984428e-03 9.021895657290e-04 0.0 
0.0 0.0 -4.027365510179e-04 
-3.368056399330e-04 1.320783307670e-03 0.0 
1.320783307670e-03 2.512908282168e-03 0.0 
0.0 0.0 -5.292697486782e-04 
-2.272190685037e-04 -1.261695231052e-03 0.0 
-1.261695231052e-03 1.204255834380e-03 0.0 
0.0 0.0 -3.563018015714e-04 
-5.481856080812e-06 -1.360265015014e-03 0.0 
-1.360265015014e-03 1.114057395476e-03 0.0 
0.0 0.0 -3.608158092454e-04 
-1.672715856143e-04 -1.512279546231e-03 0.0 
-1.512279546231e-03 1.180506359655e-03 0.0 
0.0 0.0 -3.382523083772e-04 
-4.805060594133e-04 2.668098062439e-04 0.0 
2.668098062439e-04 4.715407643663e-03 0.0 
0.0 0.0 -8.647910268431e-04 
-1.323581223665e-03 3.388354907586e-04 0.0 
3.388354907586e-04 9.015003947055e-03 0.0 
0.0 0.0 -1.324146187826e-03 
-6.144383844702e-04 5.601929244688e-04 0.0 
5.601929244688e-04 2.582601934857e-03 0.0 
0.0 0.0 -4.244337567297e-04 
-1.156564282164e-03 -1.287267705775e-04 0.0 
-1.287267705775e-04 7.284536477905e-03 0.0 
0.0 0.0 -1.153422328581e-03 
-1.335800596959e-04 5.879693086389e-04 0.0 
5.879693086389e-04 2.932124141139e-03 0.0 
0.0 0.0 -6.430507458085e-04 
-1.103593163525e-03 -2.311027910085e-05 0.0 
-2.311027910085e-05 6.594057391582e-03 0.0 
0.0 0.0 -9.856407671940e-04 
6.097401795475e-04 2.716157955159e-04 0.0 
2.716157955159e-04 -1.627804699296e-04 0.0 
0.0 0.0 -1.915541612648e-04 
-1.121189365028e-03 -4.313739104837e-04 0.0 
-4.313739104837e-04 7.519397857683e-03 0.0 
0.0 0.0 -1.206759618350e-03 
-1.369628119913e-04 -1.636536330447e-03 0.0 
-1.636536330447e-03 1.233538073419e-03 0.0 
0.0 0.0 -4.045577262616e-04 
-7.109907021558e-04 -5.092194229215e-05 0.0 
-5.092194229215e-05 3.143336407810e-03 0.0 
0.0 0.0 -4.995972236199e-04 
-7.610689947692e-04 3.254275537369e-04 0.0 
3.254275537369e-04 6.017676875730e-03 0.0 
0.0 0.0 -1.031547093314e-03 
-5.009347095537e-04 -8.784504666191e-04 0.0 
-8.784504666191e-04 4.097798542798e-03 0.0 
0.0 0.0 -7.436172176343e-04 
-9.490922030985e-04 8.355820245775e-05 0.0 
8.355820245775e-05 6.977686204134e-03 0.0 
0.0 0.0 -1.139062866688e-03 
-5.334594474911e-04 7.731459396832e-04 0.0 
7.731459396832e-04 3.293236008727e-03 0.0 
0.0 0.0 -5.762899171568e-04 
-1.157169932203e-03 5.876132975745e-05 0.0 
5.876132975745e-05 6.976179943537e-03 0.0 
0.0 0.0 -1.044446328659e-03 
-1.026845760321e-03 3.718808168871e-04 0.0 
3.718808168871e-04 7.294887320679e-03 0.0 
0.0 0.0 -1.198892520503e-03 
-1.098955546930e-03 3.331596057930e-04 0.0 
3.331596057930e-04 6.603659082882e-03 0.0 
0.0 0.0 -9.940794652285e-04 
-1.269540035819e-03 1.940023298487e-04 0.0 
1.940023298487e-04 7.944098741491e-03 0.0 
0.0 0.0 -1.194784139986e-03 
-1.184726223875e-03 -2.348624992813e-06 0.0 
-2.348624992813e-06 7.294407597930e-03 0.0 
0.0 0.0 -1.087318097122e-03 
-1.210012004909e-03 2.996776911562e-05 0.0 
2.996776911562e-05 7.486490191622e-03 0.0 
0.0 0.0 -1.116677092124e-03 
1.863822195981e-04 1.500592688013e-03 0.0 
1.500592688013e-03 6.610975863953e-04 0.0 
0.0 0.0 -3.632056311400e-04 
-1.142912226621e-03 -1.436249115933e-04 0.0 
-1.436249115933e-04 7.061947710655e-03 0.0 
0.0 0.0 -1.115908039155e-03 
-1.147672819159e-03 3.821528619329e-04 0.0 
3.821528619329e-04 6.988478452450e-03 0.0 
0.0 0.0 -1.053364550114e-03 
-4.264879333549e-04 6.971974912426e-04 0.0 
6.971974912426e-04 4.141626674137e-03 0.0 
0.0 0.0 -7.792489223127e-04 
-6.776919640089e-04 4.847017937331e-04 0.0 
4.847017937331e-04 3.056038122043e-03 0.0 
0.0 0.0 -4.908673385051e-04 
-1.078927379078e-03 1.409149927546e-05 0.0 
1.409149927546e-05 7.640444635147e-03 0.0 
0.0 0.0 -1.232292820449e-03 
3.227356576489e-04 7.350862602758e-04 0.0 
7.350862602758e-04 8.113095771019e-04 0.0 
0.0 0.0 -4.142712813041e-04 
-6.537509052586e-04 -4.383754105270e-04 0.0 
-4.383754105270e-04 2.983336896445e-03 0.0 
0.0 0.0 -4.655197245388e-04 
-9.005107576278e-04 4.600258062660e-04 0.0 
4.600258062660e-04 6.613923225017e-03 0.0 
0.0 0.0 -1.105063927110e-03 
-3.654007350969e-04 -1.479495410984e-04 0.0 
-1.479495410984e-04 1.815899396191e-03 0.0 
0.0 0.0 -2.939799329518e-04 
-5.977371900919e-04 5.010127079244e-04 0.0 
5.010127079244e-04 4.620714897895e-03 0.0 
0.0 0.0 -7.924235178053e-04 
-8.040024099011e-04 2.359492841355e-04 0.0 
2.359492841355e-04 6.229578808837e-03 0.0 
0.0 0.0 -1.059843925468e-03 
-1.255635553756e-03 7.173795077006e-05 0.0 
7.173795077006e-05 7.907591642771e-03 0.0 
0.0 0.0 -1.181155146799e-03 
-1.282202030770e-03 1.124926252761e-04 0.0 
1.124926252761e-04 8.112071435222e-03 0.0 
0.0 0.0 -1.210943746944e-03 
-7.487229487199e-04 -1.168956266195e-04 0.0 
-1.168956266195e-04 6.087931342050e-03 0.0 
0.0 0.0 -1.028825005900e-03 
-1.212248021085e-03 -1.436521725135e-05 0.0 
-1.436521725135e-05 7.552882477900e-03 0.0 
0.0 0.0 -1.123737208958e-03 
-2.386760142168e-04 7.145577053840e-04 0.0 
7.145577053840e-04 3.288051445445e-03 0.0 
0.0 0.0 -6.793824814286e-04 
-1.022910334669e-03 3.054988306638e-04 0.0 
3.054988306638e-04 6.728691543712e-03 0.0 
0.0 0.0 -1.062452857821e-03 
-7.369445152822e-04 4.219749857923e-04 0.0 
4.219749857923e-04 3.529735228100e-03 0.0 
0.0 0.0 -5.576509564599e-04 
-1.225600923705e-03 6.150358502408e-04 0.0 
6.150358502408e-04 7.637406645108e-03 0.0 
0.0 0.0 -1.181751882508e-03 
-8.003950005641e-04 3.733577663785e-04 0.0 
3.733577663785e-04 4.007249233080e-03 0.0 
0.0 0.0 -6.243763318321e-04 
-7.858165178840e-04 3.201249060732e-04 0.0 
3.201249060732e-04 4.232155620723e-03 0.0 
0.0 0.0 -6.577503189808e-04 
-3.421685830446e-04 4.506546569180e-04 0.0 
4.506546569180e-04 3.987712693438e-03 0.0 
0.0 0.0 -7.717627972493e-04 
-8.541855867529e-04 3.616408520390e-04 0.0 
3.616408520390e-04 4.495910448337e-03 0.0 
0.0 0.0 -6.911701761307e-04 
-6.466553023066e-04 3.566499724765e-04 0.0 
3.566499724765e-04 5.190189138744e-03 0.0 
0.0 0.0 -8.833033330409e-04 
-4.075558796588e-04 5.082935923898e-04 0.0 
5.082935923898e-04 3.946901844573e-03 0.0 
0.0 0.0 -7.209687761305e-04 
-3.183347553168e-04 -3.900876355230e-04 0.0 
-3.900876355230e-04 3.990865140146e-03 0.0 
0.0 0.0 -7.606211034647e-04 
4.197691498195e-04 -7.924817374046e-04 0.0 
-7.924817374046e-04 5.841418248199e-04 0.0 
0.0 0.0 -3.925496596906e-04 
-2.632176995851e-04 3.130804871778e-04 0.0 
3.130804871778e-04 3.673894068274e-03 0.0 
0.0 0.0 -7.353490689725e-04 
-1.228427596361e-03 3.654441690398e-04 0.0 
3.654441690398e-04 7.753036613507e-03 0.0 
0.0 0.0 -1.162517914204e-03 
-1.234586540092e-03 6.496817172604e-04 0.0 
6.496817172604e-04 7.840810725913e-03 0.0 
0.0 0.0 -1.195263893373e-03 
-1.079254607357e-03 -1.716834017040e-04 0.0 
-1.716834017040e-04 6.610697418479e-03 0.0 
0.0 0.0 -1.050100468764e-03 
-9.999924356562e-04 4.337068162590e-04 0.0 
4.337068162590e-04 7.101876474641e-03 0.0 
0.0 0.0 -1.170266998156e-03 
-4.393592797757e-04 -4.178536690016e-04 0.0 
-4.178536690016e-04 4.023524415681e-03 0.0 
0.0 0.0 -7.463264885205e-04 
-1.196792592392e-03 4.110574340668e-04 0.0 
4.110574340668e-04 7.430663622206e-03 0.0 
0.0 0.0 -1.119019617531e-03 
-3.103812770642e-04 1.366237006987e-04 0.0 
1.366237006987e-04 3.912213435347e-03 0.0 
0.0 0.0 -7.634232545038e-04 
-1.186941185396e-03 -1.093564622626e-04 0.0 
-1.093564622626e-04 7.299889317220e-03 0.0 
0.0 0.0 -1.144395376583e-03 
-1.175446045210e-03 3.743988593539e-04 0.0 
3.743988593539e-04 7.239811730626e-03 0.0 
0.0 0.0 -1.089631904438e-03 
-1.184480952279e-03 4.301367348574e-05 0.0 
4.301367348574e-05 7.231184503722e-03 0.0 
0.0 0.0 -1.080451501872e-03 
-6.366755747078e-04 1.541674785508e-04 0.0 
1.541674785508e-04 5.452650900242e-03 0.0 
0.0 0.0 -9.580909834143e-04 
-2.389238927474e-04 5.103421139426e-04 0.0 
5.103421139426e-04 3.464348160629e-03 0.0 
0.0 0.0 -7.073300717972e-04 
-1.091479932409e-03 3.053404772209e-04 0.0 
3.053404772209e-04 7.161436277653e-03 0.0 
0.0 0.0 -1.126038590206e-03 
-9.842000416471e-04 6.396846099915e-04 0.0 
6.396846099915e-04 5.813603015757e-03 0.0 
0.0 0.0 -9.169694165663e-04 
1.883793847700e-04 -1.613056327393e-03 0.0 
-1.613056327393e-03 7.099727485344e-04 0.0 
0.0 0.0 -3.670597958229e-04 
4.158840995285e-04 -1.069455846307e-04 0.0 
-1.069455846307e-04 9.093131002263e-04 0.0 
0.0 0.0 -4.209936697170e-04 
-5.253520320544e-04 1.113226159763e-03 0.0 
1.113226159763e-03 3.274387380493e-03 0.0 
0.0 0.0 -6.061407060701e-04 
-8.148800044768e-04 7.943320417803e-04 0.0 
7.943320417803e-04 5.072587073095e-03 0.0 
0.0 0.0 -8.384786063130e-04 
-1.230266496445e-03 -6.856974243120e-05 0.0 
-6.856974243120e-05 7.537797729461e-03 0.0 
0.0 0.0 -1.173545322487e-03 
-1.159784806983e-03 4.546774843699e-06 0.0 
4.546774843699e-06 7.042624556690e-03 0.0 
0.0 0.0 -1.051102540299e-03 
-2.045778073669e-04 -2.934353049160e-05 0.0 
-2.934353049160e-05 3.544788899175e-03 0.0 
0.0 0.0 -7.045205360201e-04 
-9.013823451461e-04 3.641498331546e-04 0.0 
3.641498331546e-04 5.853350218943e-03 0.0 
0.0 0.0 -9.344940742331e-04 
-8.532834150583e-04 1.785665259931e-04 0.0 
1.785665259931e-04 6.467721788847e-03 0.0 
0.0 0.0 -1.088599101970e-03 
-1.213199839846e-03 -4.701032574329e-05 0.0 
-4.701032574329e-05 7.611187462875e-03 0.0 
0.0 0.0 -1.130578931274e-03 
-1.163123546776e-03 3.469650352866e-04 0.0 
3.469650352866e-04 7.457428311297e-03 0.0 
0.0 0.0 -1.160781586281e-03 
-1.064121038643e-03 3.592685452389e-04 0.0 
3.592685452389e-04 6.295822569873e-03 0.0 
0.0 0.0 -9.517943393003e-04 
-9.431187375283e-04 -8.030312093775e-06 0.0 
-8.030312093775e-06 6.723807310886e-03 0.0 
0.0 0.0 -1.113435711030e-03 
-3.640285380992e-04 -2.251334255899e-04 0.0 
-2.251334255899e-04 4.276860424883e-03 0.0 
0.0 0.0 -7.971871449874e-04 
-8.575470034421e-04 -2.591277644309e-04 0.0 
-2.591277644309e-04 6.522660233149e-03 0.0 
0.0 0.0 -1.086118700983e-03 
-6.488096190532e-04 8.782975641900e-04 0.0 
8.782975641900e-04 4.555098411154e-03 0.0 
0.0 0.0 -7.951163407912e-04 
-1.259477151619e-03 2.377000778179e-05 0.0 
2.377000778179e-05 7.994105241717e-03 0.0 
0.0 0.0 -1.188704642750e-03 
-1.188566355983e-03 2.821785558319e-04 0.0 
2.821785558319e-04 7.789552889991e-03 0.0 
0.0 0.0 -1.200489323427e-03 
-5.291595357548e-04 1.464001696405e-04 0.0 
1.464001696405e-04 4.944674619640e-03 0.0 
0.0 0.0 -8.929891684399e-04 
5.077877396978e-04 3.026021049410e-04 0.0 
3.026021049410e-04 3.943566526323e-04 0.0 
0.0 0.0 -3.866333109986e-04 
-9.967575789130e-04 6.124990556396e-04 0.0 
6.124990556396e-04 6.815699392306e-03 0.0 
0.0 0.0 -1.113685640909e-03 
-6.605390437865e-04 4.261094964972e-04 0.0 
4.261094964972e-04 5.059149157301e-03 0.0 
0.0 0.0 -8.555605426019e-04 
-1.830081198130e-04 1.866635750844e-04 0.0 
1.866635750844e-04 3.368216116446e-03 0.0 
0.0 0.0 -6.765734244908e-04 
-5.817203437329e-04 -2.125841840423e-04 0.0 
-2.125841840423e-04 5.299242741235e-03 0.0 
0.0 0.0 -9.269463096178e-04 
-9.296871453603e-04 -5.069518437094e-04 0.0 
-5.069518437094e-04 6.554705833196e-03 0.0 
0.0 0.0 -1.072977024862e-03 
5.145493605139e-04 -6.481882605914e-04 0.0 
-6.481882605914e-04 5.138628621790e-04 0.0 
0.0 0.0 -3.958212347391e-04 
-4.207868633399e-04 1.388755270071e-04 0.0 
1.388755270071e-04 4.431893145968e-03 0.0 
0.0 0.0 -8.281205301186e-04 
-1.057518774056e-03 5.392644449481e-04 0.0 
5.392644449481e-04 6.206831668111e-03 0.0 
0.0 0.0 -9.596127204057e-04 
-1.238644968873e-03 -4.648423040969e-04 0.0 
-4.648423040969e-04 7.603472997752e-03 0.0 
0.0 0.0 -1.170838755190e-03 
-1.067041670428e-03 5.715302009941e-04 0.0 
5.715302009941e-04 6.356528225694e-03 0.0 
0.0 0.0 -9.876491701491e-04 
-9.841945622355e-04 6.610492595006e-04 0.0 
6.610492595006e-04 6.661208694162e-03 0.0 
0.0 0.0 -1.085374163265e-03 
-1.045085745863e-03 5.003784013052e-04 0.0 
5.003784013052e-04 6.049842854282e-03 0.0 
0.0 0.0 -9.316602363005e-04 
-1.022837492668e-03 4.381275546802e-04 0.0 
4.381275546802e-04 5.716010034056e-03 0.0 
0.0 0.0 -8.756372412555e-04 
-9.850681647526e-04 6.675723233926e-04 0.0 
6.675723233926e-04 5.952563133260e-03 0.0 
0.0 0.0 -9.447135688329e-04 
-9.326630633240e-04 3.930283305116e-04 0.0 
3.930283305116e-04 6.810995827980e-03 0.0 
0.0 0.0 -1.133505030480e-03 
-1.106660061021e-03 -5.521563816417e-04 0.0 
-5.521563816417e-04 6.894855264338e-03 0.0 
0.0 0.0 -1.084522140297e-03 
-1.120799229937e-03 3.838899692646e-04 0.0 
3.838899692646e-04 6.737454909863e-03 0.0 
0.0 0.0 -1.017300281410e-03 
-1.265839226480e-03 4.523982644349e-04 0.0 
4.523982644349e-04 8.063487692737e-03 0.0 
0.0 0.0 -1.212886757924e-03 
-1.030324522425e-03 4.628372417255e-04 0.0 
4.628372417255e-04 5.887641382241e-03 0.0 
0.0 0.0 -9.037302385344e-04 
2.653135269755e-05 8.001600084414e-05 0.0 
8.001600084414e-05 2.476344782206e-03 0.0 
0.0 0.0 -5.760585567884e-04 
-1.044239643313e-03 2.376498451470e-04 0.0 
2.376498451470e-04 7.187723140536e-03 0.0 
0.0 0.0 -1.146733564437e-03 
-1.253924981079e-03 -4.907598213233e-05 0.0 
-4.907598213233e-05 8.057805599269e-03 0.0 
0.0 0.0 -1.196744929305e-03 
-5.355464959753e-04 8.349410411799e-04 0.0 
8.349410411799e-04 4.335085481445e-03 0.0 
0.0 0.0 -7.869228524964e-04 
-6.233378135021e-04 8.291713004523e-04 0.0 
8.291713004523e-04 4.669146782253e-03 0.0 
0.0 0.0 -8.226527892688e-04 
-9.042297380501e-05 1.578503348626e-05 0.0 
1.578503348626e-05 3.015977975308e-03 0.0 
0.0 0.0 -6.402419685743e-04 
-1.145557266538e-03 4.246140586136e-04 0.0 
4.246140586136e-04 6.921583184568e-03 0.0 
0.0 0.0 -1.046609947212e-03 
-6.981713726155e-04 9.056832497172e-04 0.0 
9.056832497172e-04 3.852457966674e-03 0.0 
0.0 0.0 -6.500746975200e-04 
-6.825381544126e-04 6.942299752500e-04 0.0 
6.942299752500e-04 5.269578602974e-03 0.0 
0.0 0.0 -9.137630964162e-04 
-6.717413934869e-04 5.961928435860e-04 0.0 
5.961928435860e-04 3.907642713709e-03 0.0 
0.0 0.0 -6.476280927198e-04 
-8.299310340804e-04 4.003109170218e-04 0.0 
4.003109170218e-04 6.314977660297e-03 0.0 
0.0 0.0 -1.068254633495e-03 
-1.134995185088e-03 2.756692802088e-04 0.0 
2.756692802088e-04 7.594750376581e-03 0.0 
0.0 0.0 -1.211228670573e-03 
-1.360533559688e-04 -2.215574873168e-04 0.0 
-2.215574873168e-04 3.223027219763e-03 0.0 
0.0 0.0 -6.682047883386e-04 
4.373904628404e-04 -2.393257178328e-04 0.0 
-2.393257178328e-04 -1.132865459339e-04 0.0 
0.0 0.0 -1.389016786742e-04 
-1.258599255868e-03 5.175436206336e-04 0.0 
5.175436206336e-04 7.974357198458e-03 0.0 
0.0 0.0 -1.207184308065e-03 
-7.509449296831e-04 8.117398232865e-04 0.0 
8.117398232865e-04 4.141196512392e-03 0.0 
0.0 0.0 -6.853381776776e-04 
-4.357225566231e-04 -2.745654093134e-04 0.0 
-2.745654093134e-04 4.218247831069e-03 0.0 
0.0 0.0 -7.828151049093e-04 
-1.060590658414e-03 6.112856710438e-04 0.0 
6.112856710438e-04 7.289270463529e-03 0.0 
0.0 0.0 -1.177925372349e-03 
-1.133119087327e-03 1.716253131945e-05 0.0 
1.716253131945e-05 6.790529249754e-03 0.0 
0.0 0.0 -1.015069748350e-03 
-1.047918274143e-03 -5.722033483047e-04 0.0 
-5.722033483047e-04 6.640384232333e-03 0.0 
0.0 0.0 -1.055879354346e-03 
-3.002045645479e-04 4.799822856897e-04 0.0 
4.799822856897e-04 3.594772661625e-03 0.0 
0.0 0.0 -6.851017020021e-04 
1.437633437549e-04 -1.583243096343e-05 0.0 
-1.583243096343e-05 -4.287346076812e-05 0.0 
0.0 0.0 -4.323852128003e-05 
-1.294332022630e-03 -4.590388614896e-04 0.0 
-4.590388614896e-04 7.891763322768e-03 0.0 
0.0 0.0 -1.202131160132e-03 
-7.979241755136e-04 7.967983468878e-04 0.0 
7.967983468878e-04 5.189819245057e-03 0.0 
0.0 0.0 -8.660506973337e-04 
-7.515738742409e-04 1.099645178349e-04 0.0 
1.099645178349e-04 5.981619188890e-03 0.0 
0.0 0.0 -1.007142642412e-03 
-1.115772722662e-03 6.613759768766e-04 0.0 
6.613759768766e-04 7.287802445254e-03 0.0 
0.0 0.0 -1.157822513452e-03 
0.0 0.0 0.0 
0.0 0.0 0.0 
0.0 0.0 0.0 
-1.020410346766e-03 -1.741879484343e-04 0.0 
-1.741879484343e-04 6.569036879710e-03 0.0 
0.0 0.0 -1.058763633038e-03 
-1.044584882710e-04 9.374141262810e-04 0.0 
9.374141262810e-04 2.179572843365e-03 0.0 
0.0 0.0 -4.919579008500e-04 
-1.074016419554e-03 -9.865194451983e-06 0.0 
-9.865194451983e-06 6.344021920267e-03 0.0 
0.0 0.0 -9.498437721210e-04 
-9.305727240655e-04 -6.933921297842e-04 0.0 
-6.933921297842e-04 5.329347824549e-03 0.0 
0.0 0.0 -8.496012432876e-04 
-1.513106441094e-04 3.496683072490e-04 0.0 
3.496683072490e-04 3.137268859880e-03 0.0 
0.0 0.0 -6.709551114794e-04 
-1.200608795278e-03 -4.872905826385e-04 0.0 
-4.872905826385e-04 7.367763642178e-03 0.0 
0.0 0.0 -1.141635569211e-03 
-6.896908437113e-04 7.588366273899e-04 0.0 
7.588366273899e-04 5.123258515759e-03 0.0 
0.0 0.0 -8.859145181037e-04 
-3.682506920307e-05 4.047925217802e-04 0.0 
4.047925217802e-04 2.589749957424e-03 0.0 
0.0 0.0 -6.067458373204e-04 
-8.340011645670e-04 4.008480374015e-04 0.0 
4.008480374015e-04 5.557081142302e-03 0.0 
0.0 0.0 -8.989548790023e-04 
3.022096838876e-04 -3.038195152345e-04 0.0 
-3.038195152345e-04 -5.124151784209e-05 0.0 
0.0 0.0 -1.075577854481e-04 
-9.546355211556e-04 3.234338831530e-04 0.0 
3.234338831530e-04 6.429567223705e-03 0.0 
0.0 0.0 -1.026417656363e-03 
-8.158927749848e-04 -3.909777349408e-05 0.0 
-3.909777349408e-05 6.386420010715e-03 0.0 
0.0 0.0 -1.065496432940e-03 
-1.247055565640e-03 3.319997532961e-04 0.0 
3.319997532961e-04 7.921779384989e-03 0.0 
0.0 0.0 -1.233600908384e-03 
-1.025284337354e-03 2.945178670449e-04 0.0 
2.945178670449e-04 6.877652576001e-03 0.0 
0.0 0.0 -1.090749533212e-03 
2.434503745851e-04 -1.578934998957e-04 0.0 
-1.578934998957e-04 1.529841444305e-03 0.0 
0.0 0.0 -4.758149136988e-04 
-1.100855494631e-03 -5.513580386133e-04 0.0 
-5.513580386133e-04 6.680884096093e-03 0.0 
0.0 0.0 -1.047231727503e-03 
-1.252169978070e-03 3.748871630309e-04 0.0 
3.748871630309e-04 8.183246127380e-03 0.0 
0.0 0.0 -1.228155452712e-03 
-1.172998084832e-03 8.287498321717e-05 0.0 
8.287498321717e-05 7.902166307926e-03 0.0 
0.0 0.0 -1.267145247477e-03 
-8.845763971731e-04 3.343706134048e-05 0.0 
3.343706134048e-05 6.685188464531e-03 0.0 
0.0 0.0 -1.102242875413e-03 
-2.824655770355e-04 3.019818645340e-04 0.0 
3.019818645340e-04 3.719180698001e-03 0.0 
0.0 0.0 -7.127912709901e-04 
-8.914221389397e-04 3.576211756874e-04 0.0 
3.576211756874e-04 5.989320852496e-03 0.0 
0.0 0.0 -9.624716764950e-04 
-1.265622827008e-03 -3.602381928261e-05 0.0 
-3.602381928261e-05 7.525688479598e-03 0.0 
0.0 0.0 -1.164316760544e-03 
-1.026823558190e-03 -3.127358117122e-04 0.0 
-3.127358117122e-04 5.188290229651e-03 0.0 
0.0 0.0 -7.878971455476e-04 
-9.790335059978e-04 6.764140397440e-04 0.0 
6.764140397440e-04 6.506573428341e-03 0.0 
0.0 0.0 -1.057196955382e-03 
-1.092783271967e-03 3.587775336083e-04 0.0 
3.587775336083e-04 6.543365283594e-03 0.0 
0.0 0.0 -9.877098122506e-04 
-1.155871143424e-03 -5.200772835953e-04 0.0 
-5.200772835953e-04 7.131963810306e-03 0.0 
0.0 0.0 -1.112977059762e-03 
-1.053791982519e-03 -5.418051239347e-04 0.0 
-5.418051239347e-04 6.849369446006e-03 0.0 
0.0 0.0 -1.093234982489e-03 
-8.344751970142e-04 -5.063632387036e-06 0.0 
-5.063632387036e-06 4.624983012521e-03 0.0 
0.0 0.0 -7.313513689239e-04 
-8.293658591313e-04 3.666703434100e-05 0.0 
3.666703434100e-05 4.623218336322e-03 0.0 
0.0 0.0 -7.310574395863e-04 
-1.097030069405e-03 1.613810298079e-04 0.0 
1.613810298079e-04 6.539696336596e-03 0.0 
0.0 0.0 -9.927888931629e-04 
-9.125545325387e-04 7.100995827850e-04 0.0 
7.100995827850e-04 6.060357295598e-03 0.0 
0.0 0.0 -9.930598132463e-04 
-9.889474269995e-04 -6.231936758992e-04 0.0 
-6.231936758992e-04 5.582412655685e-03 0.0 
0.0 0.0 -8.780428295617e-04 
-1.024071250989e-03 2.871939654452e-04 0.0 
2.871939654452e-04 6.293682207182e-03 0.0 
0.0 0.0 -9.775429604618e-04 
-6.061110354643e-04 7.542189021973e-04 0.0 
7.542189021973e-04 4.796279324774e-03 0.0 
0.0 0.0 -8.502279965035e-04 
-1.039665177067e-03 6.008961477257e-05 0.0 
6.008961477257e-05 7.149947818513e-03 0.0 
0.0 0.0 -1.180288150054e-03 
-3.419429553987e-04 7.892463912468e-04 0.0 
7.892463912468e-04 3.645374748844e-03 0.0 
0.0 0.0 -7.154845226688e-04 
-1.354053466570e-03 2.682798114320e-04 0.0 
2.682798114320e-04 9.013564030942e-03 0.0 
0.0 0.0 -1.323793839065e-03 
-9.392924140876e-04 3.695422570173e-04 0.0 
3.695422570173e-04 5.310514062737e-03 0.0 
0.0 0.0 -8.119939454945e-04 
-5.728660710208e-04 4.262528038404e-04 0.0 
4.262528038404e-04 4.737723853376e-03 0.0 
0.0 0.0 -8.199314282332e-04 
-8.958346709753e-04 -3.297015998196e-04 0.0 
-3.297015998196e-04 5.260659561238e-03 0.0 
0.0 0.0 -8.523954645778e-04 
2.690092700999e-04 2.909500152897e-04 0.0 
2.909500152897e-04 1.354854423747e-03 0.0 
0.0 0.0 -4.479040077299e-04 
-8.117880315537e-04 -8.289707142058e-04 0.0 
-8.289707142058e-04 4.623452632362e-03 0.0 
0.0 0.0 -7.551671247638e-04 
-8.525904846397e-04 7.508503903319e-04 0.0 
7.508503903319e-04 5.621343722007e-03 0.0 
0.0 0.0 -9.293281999836e-04 
-8.758111121474e-04 7.483431883641e-04 0.0 
7.483431883641e-04 5.371889788881e-03 0.0 
0.0 0.0 -8.738309435711e-04 
-1.092742745582e-03 3.915524889603e-04 0.0 
3.915524889603e-04 6.485907170089e-03 0.0 
0.0 0.0 -9.814596669550e-04 
-1.035952161766e-03 6.611052853446e-04 0.0 
6.611052853446e-04 6.380857888035e-03 0.0 
0.0 0.0 -1.008022096355e-03 
-1.077652724168e-03 2.805726221407e-04 0.0 
2.805726221407e-04 6.715783923999e-03 0.0 
0.0 0.0 -1.040850218070e-03 
-2.023974518503e-04 -1.321133762499e-04 0.0 
-1.321133762499e-04 1.384394093772e-03 0.0 
0.0 0.0 -2.163717569139e-04 
-7.893601242255e-04 -4.562798916239e-04 0.0 
-4.562798916239e-04 4.381521976835e-03 0.0 
0.0 0.0 -7.209013985657e-04 
-7.313998078972e-04 5.086544562021e-04 0.0 
5.086544562021e-04 4.197814066076e-03 0.0 
0.0 0.0 -6.825522065409e-04 
-1.028318523239e-03 6.006171887521e-04 0.0 
6.006171887521e-04 6.085692307244e-03 0.0 
0.0 0.0 -9.521954671713e-04 
-1.067646735267e-03 2.331910673829e-04 0.0 
2.331910673829e-04 6.426373394987e-03 0.0 
0.0 0.0 -9.850634846466e-04 
-9.716546386639e-04 2.965949022534e-04 0.0 
2.965949022534e-04 6.988702290933e-03 0.0 
0.0 0.0 -1.160108757481e-03 
-4.472950566148e-04 1.734158785359e-04 0.0 
1.734158785359e-04 1.999281221139e-03 0.0 
0.0 0.0 -3.273996513303e-04 
5.013762340144e-04 -1.239269767564e-03 0.0 
-1.239269767564e-03 2.218446430556e-04 0.0 
0.0 0.0 -3.099518044586e-04 
-7.265319955109e-04 8.390462931927e-04 0.0 
8.390462931927e-04 4.877510016991e-03 0.0 
0.0 0.0 -8.305977116616e-04 
-8.244303094237e-04 -8.036957222691e-04 0.0 
-8.036957222691e-04 4.446645084886e-03 0.0 
0.0 0.0 -7.181358556540e-04 
-8.207218427826e-04 3.111449193768e-07 0.0 
3.111449193768e-07 4.297525914166e-03 0.0 
0.0 0.0 -6.554599841463e-04 
-8.454650530547e-04 2.288116945552e-05 0.0 
2.288116945552e-05 4.550895634799e-03 0.0 
0.0 0.0 -6.889204951115e-04 
-1.102411452052e-03 3.661135033764e-05 0.0 
3.661135033764e-05 6.536305471285e-03 0.0 
0.0 0.0 -9.793492904611e-04 
1.401876311920e-04 1.457319982698e-03 0.0 
1.457319982698e-03 8.276000244946e-04 0.0 
0.0 0.0 -3.371109590423e-04 
-9.056307504124e-04 -3.219601326285e-04 0.0 
-3.219601326285e-04 5.073216074597e-03 0.0 
0.0 0.0 -8.154759146177e-04 
-8.139515461008e-04 -3.444279104295e-04 0.0 
-3.444279104295e-04 6.262709696181e-03 0.0 
0.0 0.0 -1.049209916622e-03 
5.784646720155e-04 -2.798136268851e-04 0.0 
-2.798136268851e-04 4.491531344292e-05 0.0 
0.0 0.0 -2.671628509107e-04 
-1.269607203850e-03 4.300111845681e-04 0.0 
4.300111845681e-04 8.005085435650e-03 0.0 
0.0 0.0 -1.285586381397e-03 
-1.234701409080e-03 4.026661623699e-05 0.0 
4.026661623699e-05 7.724712803764e-03 0.0 
0.0 0.0 -1.152455342817e-03 
-9.332307083252e-04 -6.317385210980e-04 0.0 
-6.317385210980e-04 4.943755293323e-03 0.0 
0.0 0.0 -7.756113943005e-04 
-1.132361128818e-03 -1.347962173953e-04 0.0 
-1.347962173953e-04 6.852501733015e-03 0.0 
0.0 0.0 -1.078722419643e-03 
-1.782286125890e-04 -3.440225614963e-05 0.0 
-3.440225614963e-05 7.356149739106e-04 0.0 
0.0 0.0 -1.797547709840e-04 
-7.836878423569e-04 -4.420353483476e-04 0.0 
-4.420353483476e-04 6.015976224596e-03 0.0 
0.0 0.0 -1.012471576362e-03 
-7.618878641414e-04 4.386001518409e-04 0.0 
4.386001518409e-04 5.252415903850e-03 0.0 
0.0 0.0 -8.634366945984e-04 
-1.365202202974e-04 -1.663937919944e-05 0.0 
-1.663937919944e-05 7.240163383166e-04 0.0 
0.0 0.0 -1.788519809851e-04 
-1.221296204116e-03 3.897303876191e-04 0.0 
3.897303876191e-04 7.675470665632e-03 0.0 
0.0 0.0 -1.154859126927e-03 
6.541694671517e-04 -5.838497479074e-04 0.0 
-5.838497479074e-04 -1.165985658389e-04 0.0 
0.0 0.0 -2.303875291341e-04 
-1.022773715161e-03 2.649419741860e-04 0.0 
2.649419741860e-04 6.147018606592e-03 0.0 
0.0 0.0 -9.496453321265e-04 
-8.501477431051e-04 4.017489682252e-04 0.0 
4.017489682252e-04 5.430956065029e-03 0.0 
0.0 0.0 -8.712718144564e-04 
-3.870813166907e-04 -6.841434598879e-04 0.0 
-6.841434598879e-04 4.009053170529e-03 0.0 
0.0 0.0 -7.519815330289e-04 
-7.080628147866e-04 -2.630245850535e-04 0.0 
-2.630245850535e-04 5.293137348391e-03 0.0 
0.0 0.0 -9.052548162676e-04 
-1.248469741651e-03 4.216386458729e-04 0.0 
4.216386458729e-04 7.872413297340e-03 0.0 
0.0 0.0 -1.182898372388e-03 
-7.959805508824e-04 -1.903636579771e-04 0.0 
-1.903636579771e-04 5.775075989453e-03 0.0 
0.0 0.0 -9.716005391689e-04 
-7.058567601375e-04 8.071090420181e-04 0.0 
8.071090420181e-04 4.993912000440e-03 0.0 
0.0 0.0 -8.581765416018e-04 
-6.834773769761e-04 4.720321187624e-04 0.0 
4.720321187624e-04 4.941232986507e-03 0.0 
0.0 0.0 -8.279616112546e-04 
1.200725464498e-05 4.997720012563e-04 0.0 
4.997720012563e-04 2.980647594779e-04 0.0 
0.0 0.0 -1.328880060527e-04 
5.267325684764e-04 -1.507976047628e-04 0.0 
-1.507976047628e-04 -1.515568147922e-04 0.0 
0.0 0.0 -1.607896087218e-04 
-1.031637425544e-03 2.938257107745e-04 0.0 
2.938257107745e-04 7.016823171402e-03 0.0 
0.0 0.0 -1.118331045454e-03 
-1.047581819557e-03 3.855603907834e-05 0.0 
3.855603907834e-05 6.024362043911e-03 0.0 
0.0 0.0 -9.085367473448e-04 
-1.068580773740e-03 6.289177231850e-04 0.0 
6.289177231850e-04 7.124997701846e-03 0.0 
0.0 0.0 -1.148691026115e-03 
-2.168784888490e-04 1.398227562360e-03 0.0 
1.398227562360e-03 2.112550911132e-03 0.0 
0.0 0.0 -4.942977111402e-04 
-1.176051745943e-03 5.435901405529e-04 0.0 
5.435901405529e-04 7.176283028080e-03 0.0 
0.0 0.0 -1.097950598811e-03 
-1.105546950119e-03 2.883637130323e-04 0.0 
2.883637130323e-04 7.335184708628e-03 0.0 
0.0 0.0 -1.155407764312e-03 
-8.481473499091e-04 3.802854440166e-04 0.0 
3.802854440166e-04 4.634623972028e-03 0.0 
0.0 0.0 -7.179420443741e-04 
-1.053414342459e-03 6.334862389143e-04 0.0 
6.334862389143e-04 6.950110385841e-03 0.0 
0.0 0.0 -1.120992621467e-03 
-1.150488405997e-03 -5.115596481821e-04 0.0 
-5.115596481821e-04 6.921289775542e-03 0.0 
0.0 0.0 -1.075946734593e-03 
-8.430169137080e-04 7.309466471044e-04 0.0 
7.309466471044e-04 5.750606817071e-03 0.0 
0.0 0.0 -9.571162043194e-04 
-8.407412319889e-04 -3.923326874810e-04 0.0 
-3.923326874810e-04 4.820090656330e-03 0.0 
0.0 0.0 -7.866383436874e-04 
-8.661293961769e-04 -7.636305903076e-04 0.0 
-7.636305903076e-04 5.068827859701e-03 0.0 
0.0 0.0 -8.209012074946e-04 
-1.276631957823e-03 1.351613779989e-04 0.0 
1.351613779989e-04 8.067600813718e-03 0.0 
0.0 0.0 -1.204704583718e-03 
-6.220699559740e-04 -3.467517458205e-04 0.0 
-3.467517458205e-04 4.812375804049e-03 0.0 
0.0 0.0 -8.396599866114e-04 
-8.640312315529e-04 7.564773801915e-04 0.0 
7.564773801915e-04 5.496513579944e-03 0.0 
0.0 0.0 -9.015555482168e-04 
-5.139647083066e-04 6.286602551559e-04 0.0 
6.286602551559e-04 4.638431100819e-03 0.0 
0.0 0.0 -8.433600309793e-04 
-8.878790724241e-04 -1.375747034556e-04 0.0 
-1.375747034556e-04 6.258870962336e-03 0.0 
0.0 0.0 -1.038364586984e-03 
-4.800211114771e-04 4.132947089942e-04 0.0 
4.132947089942e-04 4.403087062058e-03 0.0 
0.0 0.0 -7.842421616061e-04 
1.708764263770e-04 1.828302604937e-04 0.0 
1.828302604937e-04 1.696323968062e-03 0.0 
0.0 0.0 -5.065804551108e-04 
-4.825363659521e-04 1.845931219475e-05 0.0 
1.845931219475e-05 4.680497453253e-03 0.0 
0.0 0.0 -8.561803240471e-04 
8.082119994225e-05 4.790974331332e-04 0.0 
4.790974331332e-04 2.023860804843e-03 0.0 
0.0 0.0 -5.426160209679e-04 
-1.033438603377e-03 6.383788790857e-04 0.0 
6.383788790857e-04 6.235509335954e-03 0.0 
0.0 0.0 -9.799122972177e-04 
1.114946380246e-04 -1.909482610686e-04 0.0 
-1.909482610686e-04 2.113077183239e-03 0.0 
0.0 0.0 -5.399485503623e-04 
-9.706412986079e-04 3.184758127263e-04 0.0 
3.184758127263e-04 6.013389094156e-03 0.0 
0.0 0.0 -9.420580210740e-04 
-9.265946290547e-04 -4.225709154864e-05 0.0 
-4.225709154864e-05 6.885841307398e-03 0.0 
0.0 0.0 -1.130549445556e-03 
-8.685442447111e-04 3.124266913747e-04 0.0 
3.124266913747e-04 6.514082051094e-03 0.0 
0.0 0.0 -1.096529089934e-03 
-4.417150057457e-04 8.260625217284e-04 0.0 
8.260625217284e-04 3.995231427087e-03 0.0 
0.0 0.0 -7.512528815036e-04 
-1.059191105034e-03 4.065855107728e-04 0.0 
4.065855107728e-04 6.228287830528e-03 0.0 
0.0 0.0 -9.460253849645e-04 
-1.179141908394e-03 -9.694575707592e-05 0.0 
-9.694575707592e-05 7.087490944073e-03 0.0 
0.0 0.0 -1.107441567342e-03 
-1.193835214950e-03 -4.719824871619e-04 0.0 
-4.719824871619e-04 7.155436910273e-03 0.0 
0.0 0.0 -1.104747680386e-03 
1.944125303692e-04 1.273132647232e-03 0.0 
1.273132647232e-03 5.121470870520e-04 0.0 
0.0 0.0 -3.028112646091e-04 
-9.836336619932e-04 6.878362883605e-04 0.0 
6.878362883605e-04 6.089006481299e-03 0.0 
0.0 0.0 -9.724793438395e-04 
-1.268204156625e-03 7.721982515826e-06 0.0 
7.721982515826e-06 7.786698253164e-03 0.0 
0.0 0.0 -1.205818386895e-03 
-6.870681417228e-04 7.008927199053e-04 0.0 
7.008927199053e-04 3.265237971609e-03 0.0 
0.0 0.0 -5.357889572170e-04 
-9.885170178391e-04 -5.948066208015e-04 0.0 
-5.948066208015e-04 5.380783060798e-03 0.0 
0.0 0.0 -8.409532000723e-04 
-7.799555259594e-05 6.230825562270e-04 0.0 
6.230825562270e-04 5.570487652900e-04 0.0 
0.0 0.0 -2.053085197260e-04 
-1.219579480668e-03 -6.033820998881e-05 0.0 
-6.033820998881e-05 7.313003609483e-03 0.0 
0.0 0.0 -1.136235114959e-03 
2.012100085966e-04 5.845223729044e-04 0.0 
5.845223729044e-04 1.434306137738e-03 0.0 
0.0 0.0 -4.785631936960e-04 
-1.042459381450e-03 3.192310209747e-05 0.0 
3.192310209747e-05 5.237687487302e-03 0.0 
0.0 0.0 -8.166178341775e-04 
-7.748148319910e-04 5.841265057534e-04 0.0 
5.841265057534e-04 5.931280080680e-03 0.0 
0.0 0.0 -1.008721701990e-03 
-1.070450976463e-03 4.786712554870e-05 0.0 
4.786712554870e-05 6.281594191104e-03 0.0 
0.0 0.0 -9.438854677472e-04 
-1.019990029507e-03 4.017679917675e-04 0.0 
4.017679917675e-04 5.968797618871e-03 0.0 
0.0 0.0 -9.108073647307e-04 
-7.821076712380e-04 7.813500369489e-04 0.0 
7.813500369489e-04 5.311710917371e-03 0.0 
0.0 0.0 -8.936906232635e-04 
-7.622603984916e-04 6.791341036292e-05 0.0 
6.791341036292e-05 3.813852506224e-03 0.0 
0.0 0.0 -5.884905393267e-04 
-7.846644250761e-04 7.808219167046e-05 0.0 
7.808219167046e-05 4.065403212213e-03 0.0 
0.0 0.0 -6.218825813656e-04 
-1.233191643352e-03 -4.261165376934e-04 0.0 
-4.261165376934e-04 7.382821542764e-03 0.0 
0.0 0.0 -1.133400347077e-03 
-7.515727621129e-04 -6.277168771854e-04 0.0 
-6.277168771854e-04 5.560136738189e-03 0.0 
0.0 0.0 -9.394087121358e-04 
-4.848945124793e-04 -6.056685510147e-04 0.0 
-6.056685510147e-04 4.517787566476e-03 0.0 
0.0 0.0 -8.164864906097e-04 
-7.633590365807e-04 1.747203192895e-05 0.0 
1.747203192895e-05 5.952051370355e-03 0.0 
0.0 0.0 -1.014986374720e-03 
-3.745762426959e-04 -1.208773656876e-05 0.0 
-1.208773656876e-05 4.169816033916e-03 0.0 
0.0 0.0 -7.915105747055e-04 
1.470981817100e-04 1.699633256222e-04 0.0 
1.699633256222e-04 1.922517798804e-03 0.0 
0.0 0.0 -5.119962057136e-04 
-7.251559287553e-04 3.584185138835e-04 0.0 
3.584185138835e-04 3.747261506519e-03 0.0 
0.0 0.0 -5.908395828668e-04 
-9.989176313813e-04 5.279041160422e-05 0.0 
5.279041160422e-05 5.610761613461e-03 0.0 
0.0 0.0 -8.442294783838e-04 
-8.140722277822e-04 1.153536144127e-05 0.0 
1.153536144127e-05 4.902728731460e-03 0.0 
0.0 0.0 -7.121995050294e-04 
-8.606102061483e-04 -1.123280902614e-04 0.0 
-1.123280902614e-04 6.585165240131e-03 0.0 
0.0 0.0 -1.093598669875e-03 
-3.829181500835e-04 3.755711815579e-04 0.0 
3.755711815579e-04 4.064228922124e-03 0.0 
0.0 0.0 -7.486350631497e-04 
-1.089919498544e-03 4.032533245885e-04 0.0 
4.032533245885e-04 7.584210826506e-03 0.0 
0.0 0.0 -1.233571955743e-03 
-1.258849103109e-03 1.203645015164e-04 0.0 
1.203645015164e-04 7.318640773608e-03 0.0 
0.0 0.0 -1.121177773779e-03 
-4.277541990728e-04 -3.591296022275e-04 0.0 
-3.591296022275e-04 4.511429067315e-03 0.0 
0.0 0.0 -8.252461108756e-04 
-1.288851597356e-03 -4.658297080141e-04 0.0 
-4.658297080141e-04 8.043612715449e-03 0.0 
0.0 0.0 -1.241472629463e-03 
3.242839641495e-05 -4.968694073408e-04 0.0 
-4.968694073408e-04 2.366486634827e-03 0.0 
0.0 0.0 -5.682622744621e-04 
-1.077966235092e-03 4.739436140623e-04 0.0 
4.739436140623e-04 7.389804662751e-03 0.0 
0.0 0.0 -1.204482468497e-03 
-7.429375265798e-04 4.078626067565e-04 0.0 
4.078626067565e-04 5.376339153074e-03 0.0 
0.0 0.0 -8.910665706739e-04 
-8.382327257171e-04 6.914183336446e-04 0.0 
6.914183336446e-04 5.885419181804e-03 0.0 
0.0 0.0 -9.848034212815e-04 
-9.867962554531e-04 -3.515709155634e-04 0.0 
-3.515709155634e-04 7.009894236266e-03 0.0 
0.0 0.0 -1.146785027167e-03 
-6.480751664788e-04 -1.064130565160e-03 0.0 
-1.064130565160e-03 3.485571623010e-03 0.0 
0.0 0.0 -5.958228065582e-04 
-9.264979844569e-04 7.226480241174e-04 0.0 
7.226480241174e-04 5.798649245259e-03 0.0 
0.0 0.0 -9.369464185080e-04 
-3.976862535672e-04 -5.140984221878e-04 0.0 
-5.140984221878e-04 4.248707874465e-03 0.0 
0.0 0.0 -7.886172400246e-04 
-9.126908566727e-04 3.597233129020e-04 0.0 
3.597233129020e-04 5.721921232905e-03 0.0 
0.0 0.0 -9.065670216064e-04 
-2.413614743732e-04 9.207248143764e-04 0.0 
9.207248143764e-04 2.576101931259e-03 0.0 
0.0 0.0 -5.268093404353e-04 
-8.396821970539e-04 6.672060837292e-04 0.0 
6.672060837292e-04 6.048287273264e-03 0.0 
0.0 0.0 -1.013229387512e-03 
-3.452329379355e-04 -1.792312499866e-04 0.0 
-1.792312499866e-04 3.927967745038e-03 0.0 
0.0 0.0 -7.548706880268e-04 
-9.599399109740e-04 -2.677314431030e-04 0.0 
-2.677314431030e-04 5.510906117541e-03 0.0 
0.0 0.0 -8.810281692460e-04 
-9.326422123301e-04 7.027170698306e-04 0.0 
7.027170698306e-04 5.663041666324e-03 0.0 
0.0 0.0 -9.091416541300e-04 
1.310354464969e-04 5.651438564875e-04 0.0 
5.651438564875e-04 1.741573510573e-04 0.0 
0.0 0.0 -1.307969132375e-04 
-6.049604556670e-04 5.771719455814e-04 0.0 
5.771719455814e-04 5.135535656328e-03 0.0 
0.0 0.0 -9.082496170556e-04 
-8.264119998562e-05 1.037717303205e-03 0.0 
1.037717303205e-03 8.249845298322e-04 0.0 
0.0 0.0 -3.181471413628e-04 
-3.486990110529e-04 1.618131580725e-05 0.0 
1.618131580725e-05 1.379681923450e-03 0.0 
0.0 0.0 -2.410360834028e-04 
-9.637368636999e-04 -2.534336696837e-04 0.0 
-2.534336696837e-04 5.310722216845e-03 0.0 
0.0 0.0 -8.438072171805e-04 
-1.086820871417e-03 2.926579608564e-04 0.0 
2.926579608564e-04 7.015412211803e-03 0.0 
0.0 0.0 -1.098354823938e-03 
-1.049951667635e-03 4.416530287396e-04 0.0 
4.416530287396e-04 6.131491265693e-03 0.0 
0.0 0.0 -9.387552692590e-04 
-7.056421761476e-04 1.432307568262e-04 0.0 
1.432307568262e-04 3.346065552913e-03 0.0 
0.0 0.0 -5.215302833573e-04 
-1.342322198460e-03 3.183613232645e-04 0.0 
3.183613232645e-04 8.773669276182e-03 0.0 
0.0 0.0 -1.342322198460e-03 
3.836307119602e-05 1.777435835148e-04 0.0 
1.777435835148e-04 5.796280456300e-05 0.0 
0.0 0.0 -4.128251818244e-05 
-7.274210317143e-04 1.629360554579e-04 0.0 
1.629360554579e-04 3.588533030425e-03 0.0 
0.0 0.0 -5.549805679787e-04 
-5.340066039334e-04 -2.072389055199e-04 0.0 
-2.072389055199e-04 4.712236291548e-03 0.0 
0.0 0.0 -8.472740691906e-04 
-9.827474692013e-04 -5.565690633406e-04 0.0 
-5.565690633406e-04 5.178751046310e-03 0.0 
0.0 0.0 -8.042584860449e-04 
-8.272148132873e-04 2.043748305373e-04 0.0 
2.043748305373e-04 4.358943672927e-03 0.0 
0.0 0.0 -6.733236465360e-04 
-1.391682779442e-04 -5.660980208305e-04 0.0 
-5.660980208305e-04 2.708178146588e-03 0.0 
0.0 0.0 -5.908717820549e-04 
-6.655440375533e-04 -6.952663529849e-04 0.0 
-6.952663529849e-04 5.066823485387e-03 0.0 
0.0 0.0 -8.733819075714e-04 
-8.196031050189e-04 3.838546333042e-04 0.0 
3.838546333042e-04 5.685766128825e-03 0.0 
0.0 0.0 -9.266779469803e-04 
-6.990167424859e-04 5.271708541357e-04 0.0 
5.271708541357e-04 5.638282256463e-03 0.0 
0.0 0.0 -9.734188451722e-04 
-1.186630910785e-03 6.460835059359e-04 0.0 
6.460835059359e-04 7.362442267771e-03 0.0 
0.0 0.0 -1.144302277022e-03 
2.969246869216e-04 1.115918954902e-03 0.0 
1.115918954902e-03 3.039667145196e-04 0.0 
0.0 0.0 -2.575248863319e-04 
-9.117889324076e-04 -2.951149434616e-04 0.0 
-2.951149434616e-04 4.877432515646e-03 0.0 
0.0 0.0 -7.784793977761e-04 
-1.012208946591e-03 -1.496092469439e-04 0.0 
-1.496092469439e-04 5.343186025449e-03 0.0 
0.0 0.0 -8.356154970834e-04 
-6.331046465697e-04 -9.049418944168e-04 0.0 
-9.049418944168e-04 2.758073297942e-03 0.0 
0.0 0.0 -4.544023106810e-04 
-8.924169308788e-04 4.058945008041e-04 0.0 
4.058945008041e-04 4.880366770900e-03 0.0 
0.0 0.0 -7.518103749233e-04 
-1.063894881261e-03 9.071629636426e-05 0.0 
9.071629636426e-05 6.191505659791e-03 0.0 
0.0 0.0 -9.362314798257e-04 
-1.205869425098e-03 -2.261798490425e-04 0.0 
-2.261798490425e-04 6.678201842620e-03 0.0 
0.0 0.0 -1.023451880212e-03 
-7.015472354662e-05 -2.565736168466e-05 0.0 
-2.565736168466e-05 9.612203433626e-04 0.0 
0.0 0.0 -1.605242656235e-04 
0.0 0.0 0.0 
0.0 0.0 0.0 
0.0 0.0 0.0 
-5.147384921578e-04 -7.536249502610e-04 0.0 
-7.536249502610e-04 1.966691460963e-03 0.0 
0.0 0.0 -3.233707900025e-04 
-1.027484224102e-03 -4.836123400480e-04 0.0 
-4.836123400480e-04 5.407088060702e-03 0.0 
0.0 0.0 -8.330087554115e-04 
-8.882847245791e-05 -4.537970764089e-04 0.0 
-4.537970764089e-04 2.924964268328e-03 0.0 
0.0 0.0 -6.322020076307e-04 
-9.059460685547e-05 -9.981933794838e-04 0.0 
-9.981933794838e-04 2.441338825064e-03 0.0 
0.0 0.0 -5.605319560360e-04 
1.602068840710e-04 -5.380164516261e-04 0.0 
-5.380164516261e-04 1.784200169895e-03 0.0 
0.0 0.0 -5.041580933422e-04 
-1.016808142495e-03 -1.850132427343e-04 0.0 
-1.850132427343e-04 5.546831112907e-03 0.0 
0.0 0.0 -8.721335634590e-04 
-1.089492890547e-03 5.256596706488e-04 0.0 
5.256596706488e-04 6.464473810732e-03 0.0 
0.0 0.0 -9.956198530692e-04 
-1.055480845035e-03 -8.073487003007e-05 0.0 
-8.073487003007e-05 5.564073531230e-03 0.0 
0.0 0.0 -8.643287579461e-04 
-7.969352206199e-05 1.392070136612e-04 0.0 
1.392070136612e-04 2.839214225501e-03 0.0 
0.0 0.0 -6.348607296063e-04 
-9.652452647080e-04 3.246353242036e-04 0.0 
3.246353242036e-04 6.148089658116e-03 0.0 
0.0 0.0 -9.699423737970e-04 
-9.336187348190e-04 2.571357999357e-04 0.0 
2.571357999357e-04 5.466318221896e-03 0.0 
0.0 0.0 -8.236220363599e-04 
-8.699149514131e-04 5.427467141130e-04 0.0 
5.427467141130e-04 6.422709640429e-03 0.0 
0.0 0.0 -1.076197569190e-03 
-1.067019444508e-03 -4.166446150284e-04 0.0 
-4.166446150284e-04 5.628158977285e-03 0.0 
0.0 0.0 -8.617642947636e-04 
-1.037211549759e-03 -5.241557810677e-04 0.0 
-5.241557810677e-04 5.613837274242e-03 0.0 
0.0 0.0 -8.694825820363e-04 
-6.540642588821e-04 2.339053685670e-04 0.0 
2.339053685670e-04 2.854376740045e-03 0.0 
0.0 0.0 -4.548485160793e-04 
-1.830897456311e-04 -6.409178638984e-04 0.0 
-6.409178638984e-04 3.204685697947e-03 0.0 
0.0 0.0 -6.598952468721e-04 
-1.092100602406e-03 -1.853786207342e-05 0.0 
-1.853786207342e-05 5.772593500168e-03 0.0 
0.0 0.0 -8.930692851043e-04 
-1.055598751707e-03 1.761127934755e-04 0.0 
1.761127934755e-04 6.440216787672e-03 0.0 
0.0 0.0 -9.615701295831e-04 
-1.001453888758e-03 1.848581000640e-04 0.0 
1.848581000640e-04 6.057549413992e-03 0.0 
0.0 0.0 -8.972249362023e-04 
-6.770179440789e-04 2.249366581215e-04 0.0 
2.249366581215e-04 3.121369932688e-03 0.0 
0.0 0.0 -4.879487645214e-04 
-1.064022376908e-03 -1.167841295241e-04 0.0 
-1.167841295241e-04 5.775583557860e-03 0.0 
0.0 0.0 -9.007118478549e-04 
-2.859853618183e-04 -1.273336407491e-03 0.0 
-1.273336407491e-03 2.641008784054e-03 0.0 
0.0 0.0 -5.517684601482e-04 
-1.131468898778e-04 1.392096794452e-03 0.0 
1.392096794452e-03 1.091258670637e-03 0.0 
0.0 0.0 -4.029896332773e-04 
-1.047918758114e-03 7.340593604256e-05 0.0 
7.340593604256e-05 7.456724692606e-03 0.0 
0.0 0.0 -1.202908440308e-03 
-5.627131210403e-04 -6.726340984242e-04 0.0 
-6.726340984242e-04 1.683903901649e-03 0.0 
0.0 0.0 -3.052185142707e-04 
-3.169146226738e-04 -8.080615281722e-04 0.0 
-8.080615281722e-04 2.922160059009e-03 0.0 
0.0 0.0 -5.822209219963e-04 
-5.594905133051e-04 2.180548040984e-04 0.0 
2.180548040984e-04 5.015163126878e-03 0.0 
0.0 0.0 -8.766521650092e-04 
-6.622241155769e-04 4.063560181712e-04 0.0 
4.063560181712e-04 3.270370974807e-03 0.0 
0.0 0.0 -5.239962781855e-04 
-1.100749507766e-03 -3.563808608849e-04 0.0 
-3.563808608849e-04 5.849825024464e-03 0.0 
0.0 0.0 -8.905656347129e-04 
-5.985345031535e-04 -2.223177207573e-04 0.0 
-2.223177207573e-04 2.732572505037e-03 0.0 
0.0 0.0 -4.282508963332e-04 
-9.076266712889e-04 3.184539997901e-05 0.0 
3.184539997901e-05 5.036430824459e-03 0.0 
0.0 0.0 -7.823486082854e-04 
-1.081370140730e-03 -4.558826803401e-04 0.0 
-4.558826803401e-04 5.841011814907e-03 0.0 
0.0 0.0 -8.981647654366e-04 
-4.858836919803e-04 -7.457674947231e-04 0.0 
-7.457674947231e-04 4.297440458521e-03 0.0 
0.0 0.0 -7.800125773855e-04 
-9.348538294518e-04 -6.697112536075e-04 0.0 
-6.697112536075e-04 5.140798604724e-03 0.0 
0.0 0.0 -8.126672281948e-04 
8.703935028516e-05 1.690415104804e-04 0.0 
1.690415104804e-04 1.245018223100e-05 0.0 
0.0 0.0 -4.263837107835e-05 
-1.241448931941e-03 -1.835319642593e-04 0.0 
-1.835319642593e-04 7.812891284508e-03 0.0 
0.0 0.0 -1.152567315725e-03 
-3.081364130084e-04 -9.550871966768e-04 0.0 
-9.550871966768e-04 3.298658843063e-03 0.0 
0.0 0.0 -6.514572604261e-04 
-9.718772757445e-04 1.979502564842e-04 0.0 
1.979502564842e-04 7.009305473662e-03 0.0 
0.0 0.0 -1.154039482800e-03 
-8.056057162638e-04 2.987492427290e-04 0.0 
2.987492427290e-04 5.959106481257e-03 0.0 
0.0 0.0 -9.821191134873e-04 
-1.105426206004e-03 -5.038601752530e-05 0.0 
-5.038601752530e-05 5.994681172748e-03 0.0 
0.0 0.0 -9.293965016571e-04 
-1.119004413752e-03 -3.820015781438e-04 0.0 
-3.820015781438e-04 6.058753668650e-03 0.0 
0.0 0.0 -9.268654845074e-04 
-3.123142997184e-05 -1.167065523526e-04 0.0 
-1.167065523526e-04 2.573595127563e-03 0.0 
0.0 0.0 -5.989583036242e-04 
-3.157644098559e-04 -6.245110788433e-04 0.0 
-6.245110788433e-04 1.110181514534e-03 0.0 
0.0 0.0 -2.862240160649e-04 
8.762727446402e-05 1.506685699699e-04 0.0 
1.506685699699e-04 5.297682451370e-06 0.0 
0.0 0.0 -3.982498153517e-05 
-1.139236581336e-03 9.449893671701e-06 0.0 
9.449893671701e-06 6.206332100994e-03 0.0 
0.0 0.0 -9.583065114985e-04 
-9.895576341864e-04 5.422021304530e-05 0.0 
5.422021304530e-05 6.999392542925e-03 0.0 
0.0 0.0 -1.148056181429e-03 
-4.775145294270e-04 -1.288589848279e-03 0.0 
-1.288589848279e-03 2.885723426917e-03 0.0 
0.0 0.0 -5.426247857783e-04 
-9.796725008080e-04 7.000708170444e-04 0.0 
7.000708170444e-04 6.228639819323e-03 0.0 
0.0 0.0 -1.000702849114e-03 
-6.472337897981e-04 7.799664963271e-04 0.0 
7.799664963271e-04 2.970737159620e-03 0.0 
0.0 0.0 -5.002094317253e-04 
-1.024167741003e-03 2.983156923563e-04 0.0 
2.983156923563e-04 6.439902929080e-03 0.0 
0.0 0.0 -1.005614027492e-03 
-1.230125729383e-03 -1.791987086205e-04 0.0 
-1.791987086205e-04 8.178224384408e-03 0.0 
0.0 0.0 -1.266534580134e-03 
0.0 0.0 0.0 
0.0 0.0 0.0 
0.0 0.0 0.0 
-1.341620833825e-03 -1.240232465015e-06 0.0 
-1.240232465015e-06 8.838044206909e-03 0.0 
0.0 0.0 -1.341620833825e-03 
-1.340051318819e-03 -7.855236063614e-05 0.0 
-7.855236063614e-05 8.625114056382e-03 0.0 
0.0 0.0 -1.340051318819e-03 
-8.980163173550e-04 -1.960905146637e-04 0.0 
-1.960905146637e-04 5.236321733421e-03 0.0 
0.0 0.0 -7.955197795907e-04 
-4.661383092836e-04 -1.098309243055e-03 0.0 
-1.098309243055e-03 3.461471777819e-03 0.0 
0.0 0.0 -6.428246066218e-04 
-8.082931774475e-04 3.508972968720e-04 0.0 
3.508972968720e-04 5.820381814417e-03 0.0 
0.0 0.0 -9.543595451430e-04 
-1.549769366622e-05 -2.109424872969e-04 0.0 
-2.109424872969e-04 2.675607327827e-03 0.0 
0.0 0.0 -6.041149214933e-04 
-2.283359273976e-04 -2.821495717667e-04 0.0 
-2.821495717667e-04 1.216165341166e-03 0.0 
0.0 0.0 -2.095884814006e-04 
5.244130076390e-06 5.299579131201e-04 0.0 
5.299579131201e-04 3.292147719476e-04 0.0 
0.0 0.0 -1.433395294388e-04 
-1.275023357737e-03 -5.993191991654e-05 0.0 
-5.993191991654e-05 8.163058981243e-03 0.0 
0.0 0.0 -1.209499414335e-03 
-1.082712059579e-03 1.205245821570e-04 0.0 
1.205245821570e-04 6.373245931173e-03 0.0 
0.0 0.0 -9.648175333861e-04 
-9.046820331639e-04 -1.080196974861e-06 0.0 
-1.080196974861e-06 4.867817697865e-03 0.0 
0.0 0.0 -7.224789237173e-04 
-1.279272833011e-03 4.773478504551e-04 0.0 
4.773478504551e-04 8.632757308161e-03 0.0 
0.0 0.0 -1.323661129950e-03 
-4.995343539176e-04 -2.062360200378e-04 0.0 
-2.062360200378e-04 2.288215934898e-03 0.0 
0.0 0.0 -3.615704333793e-04 
-1.305160647697e-03 4.322097678811e-04 0.0 
4.322097678811e-04 8.590809380930e-03 0.0 
0.0 0.0 -1.324908485340e-03 
-1.072336849723e-03 4.894356542548e-04 0.0 
4.894356542548e-04 6.310526310337e-03 0.0 
0.0 0.0 -9.670422101491e-04 
-6.106684104583e-04 -1.077307355153e-03 0.0 
-1.077307355153e-03 3.630162810958e-03 0.0 
0.0 0.0 -6.336394413500e-04 
-7.688592567693e-04 7.436159055388e-04 0.0 
7.436159055388e-04 5.436722305107e-03 0.0 
0.0 0.0 -9.212972352143e-04 
-4.366727405360e-04 -7.825680509829e-04 0.0 
-7.825680509829e-04 3.244703639757e-03 0.0 
0.0 0.0 -6.094834619596e-04 
-3.265911223950e-04 1.405912834574e-03 0.0 
1.405912834574e-03 1.452640584362e-03 0.0 
0.0 0.0 -3.649795199019e-04 
-4.990879049153e-04 -8.274194353689e-04 0.0 
-8.274194353689e-04 3.123468955199e-03 0.0 
0.0 0.0 -5.728018649490e-04 
-1.102176339442e-03 5.667634332671e-04 0.0 
5.667634332671e-04 6.620528006741e-03 0.0 
0.0 0.0 -1.023749757194e-03 
-1.274902778913e-03 -3.210380531188e-04 0.0 
-3.210380531188e-04 7.572738005346e-03 0.0 
0.0 0.0 -1.155390781228e-03 
-2.640863970045e-04 -6.506791704026e-04 0.0 
-6.506791704026e-04 3.044637194059e-03 0.0 
0.0 0.0 -6.181853003094e-04 
-1.037039327620e-03 6.760843031957e-04 0.0 
6.760843031957e-04 6.523249431128e-03 0.0 
0.0 0.0 -1.036271578259e-03 
0.0 0.0 0.0 
0.0 0.0 0.0 
0.0 0.0 0.0 
-1.285700230911e-04 -3.245101064007e-04 0.0 
-3.245101064007e-04 2.885767451406e-03 0.0 
0.0 0.0 -6.266282162577e-04 
-1.167206438241e-03 1.283137067331e-04 0.0 
1.283137067331e-04 7.080432372571e-03 0.0 
0.0 0.0 -1.066385360782e-03 
-6.379492421497e-04 -6.916022810517e-04 0.0 
-6.916022810517e-04 3.261870100237e-03 0.0 
0.0 0.0 -5.616069800515e-04 
-5.397721604140e-04 -1.270380268010e-03 0.0 
-1.270380268010e-03 2.784654802048e-03 0.0 
0.0 0.0 -5.052880831394e-04 
-7.290893412698e-04 3.613081104682e-04 0.0 
3.613081104682e-04 5.503308908361e-03 0.0 
0.0 0.0 -9.187611816440e-04 
1.265644672670e-04 -1.340381834312e-03 0.0 
-1.340381834312e-03 6.478378418571e-04 0.0 
0.0 0.0 -3.318867039103e-04 
-6.343393029067e-04 4.127806247347e-04 0.0 
4.127806247347e-04 2.352701282119e-03 0.0 
0.0 0.0 -3.867203691650e-04 
-5.980790938116e-04 3.108972139281e-04 0.0 
3.108972139281e-04 2.666414110552e-03 0.0 
0.0 0.0 -4.195921675762e-04 
-6.113097074720e-04 -7.505403763561e-04 0.0 
-7.505403763561e-04 2.857444945758e-03 0.0 
0.0 0.0 -4.973376392308e-04 
-5.765164058635e-04 -6.636526940974e-04 0.0 
-6.636526940974e-04 4.795423287764e-03 0.0 
0.0 0.0 -8.444178005646e-04 
-5.181015510014e-04 7.402765764373e-04 0.0 
7.402765764373e-04 4.473477357902e-03 0.0 
0.0 0.0 -8.147327860212e-04 
-1.021689517365e-03 3.040232263138e-04 0.0 
3.040232263138e-04 6.577677469830e-03 0.0 
0.0 0.0 -1.033897369924e-03 
-1.251489828841e-03 5.632464710330e-04 0.0 
5.632464710330e-04 7.903464121438e-03 0.0 
0.0 0.0 -1.224260864640e-03 
-6.076375545199e-04 4.683737268985e-04 0.0 
4.683737268985e-04 2.798103792701e-03 0.0 
0.0 0.0 -4.570814260163e-04 
-1.106194698900e-03 -2.340999049272e-04 0.0 
-2.340999049272e-04 6.875726326228e-03 0.0 
0.0 0.0 -1.028620860735e-03 
-1.222609548103e-03 6.000551956434e-04 0.0 
6.000551956434e-04 7.771092725331e-03 0.0 
0.0 0.0 -1.228414553209e-03 
4.319177178305e-05 1.565747196534e-04 0.0 
1.565747196534e-04 2.280131923741e-03 0.0 
0.0 0.0 -5.707601703556e-04 
-5.280303941059e-05 1.110289152965e-03 0.0 
1.110289152965e-03 8.099165551708e-04 0.0 
0.0 0.0 -3.244772210401e-04 
-6.896815476543e-04 4.595022377507e-04 0.0 
4.595022377507e-04 3.325524470953e-03 0.0 
0.0 0.0 -5.330167430730e-04 
-5.818026759286e-04 -7.746098819789e-04 0.0 
-7.746098819789e-04 4.581482398683e-03 0.0 
0.0 0.0 -8.082977034869e-04 
-1.084938189841e-03 6.476212573913e-04 0.0 
6.476212573913e-04 6.662130643566e-03 0.0 
0.0 0.0 -1.043024347135e-03 
-5.304647567233e-04 -3.288241115645e-04 0.0 
-3.288241115645e-04 4.511932891327e-03 0.0 
0.0 0.0 -8.108276944599e-04 
3.467916788336e-04 9.922084021829e-04 0.0 
9.922084021829e-04 1.937891863132e-04 0.0 
0.0 0.0 -2.316775136343e-04 
-6.676153210682e-04 -5.990024928293e-04 0.0 
-5.990024928293e-04 5.284713461811e-03 0.0 
0.0 0.0 -9.096068616062e-04 
-5.138764303910e-04 1.344859878066e-03 0.0 
1.344859878066e-03 1.832201827426e-03 0.0 
0.0 0.0 -3.508512830963e-04 
-4.693960867252e-04 2.899164946168e-04 0.0 
2.899164946168e-04 4.538651858574e-03 0.0 
0.0 0.0 -8.123573650817e-04 
-6.214317139949e-04 -2.381023826960e-04 0.0 
-2.381023826960e-04 5.000123203670e-03 0.0 
0.0 0.0 -8.756097305517e-04 
-7.629475729046e-04 6.967977887081e-04 0.0 
6.967977887081e-04 5.582110193462e-03 0.0 
0.0 0.0 -9.491391837787e-04 
-1.021932421091e-03 -1.375086625343e-04 0.0 
-1.375086625343e-04 6.258245616270e-03 0.0 
0.0 0.0 -9.494079867578e-04 
-6.355506189440e-04 -1.022411834394e-03 0.0 
-1.022411834394e-03 2.931807144820e-03 0.0 
0.0 0.0 -4.933620968966e-04 
6.896550266056e-05 1.225367383845e-03 0.0 
1.225367383845e-03 6.646895526308e-04 0.0 
0.0 0.0 -3.144235951249e-04 
-7.142483767440e-04 -1.644248298722e-04 0.0 
-1.644248298722e-04 5.495494976155e-03 0.0 
0.0 0.0 -9.415329344942e-04 
-5.361770105980e-04 1.152355576541e-03 0.0 
1.152355576541e-03 2.110820043480e-03 0.0 
0.0 0.0 -3.857152600925e-04 
0.0 0.0 0.0 
0.0 0.0 0.0 
0.0 0.0 0.0 
-1.255338616422e-03 1.860461172355e-04 0.0 
1.860461172355e-04 8.124850663151e-03 0.0 
0.0 0.0 -1.223389224544e-03 
-1.207848204117e-03 2.029693107177e-04 0.0 
2.029693107177e-04 7.752368092309e-03 0.0 
0.0 0.0 -1.157435638217e-03 
-8.808053059829e-05 -1.336699866714e-04 0.0 
-1.336699866714e-04 3.185750404010e-04 0.0 
0.0 0.0 -9.878336134402e-05 
-7.608266853486e-04 -5.406000089435e-04 0.0 
-5.406000089435e-04 5.776368912984e-03 0.0 
0.0 0.0 -9.758309632659e-04 
-5.833464932257e-04 -8.365325477788e-04 0.0 
-8.365325477788e-04 2.366888082298e-03 0.0 
0.0 0.0 -3.887237773309e-04 
-6.380037561636e-04 -4.574933655184e-04 0.0 
-4.574933655184e-04 2.507620922393e-03 0.0 
0.0 0.0 -4.195855280820e-04 
-1.094549564148e-03 6.711957006790e-04 0.0 
6.711957006790e-04 6.969957179569e-03 0.0 
0.0 0.0 -1.100737838324e-03 
-7.238835271569e-04 2.949238833770e-04 0.0 
2.949238833770e-04 5.642634368299e-03 0.0 
0.0 0.0 -9.467522836136e-04 
-1.039311302789e-03 6.802059572137e-04 0.0 
6.802059572137e-04 6.671189751840e-03 0.0 
0.0 0.0 -1.064854740548e-03 
-1.894001647684e-04 -8.697409082608e-04 0.0 
-8.697409082608e-04 2.974808611893e-03 0.0 
0.0 0.0 -6.238888496032e-04 
-8.115909482746e-04 3.390698231069e-05 0.0 
3.390698231069e-05 4.912143948729e-03 0.0 
0.0 0.0 -7.105917616147e-04 
-1.280305692054e-03 -3.247592506175e-04 0.0 
-3.247592506175e-04 7.975043847607e-03 0.0 
0.0 0.0 -1.281538364137e-03 
-5.868717402319e-04 -4.057488537009e-04 0.0 
-4.057488537009e-04 2.082970857728e-03 0.0 
0.0 0.0 -3.541816848729e-04 
-9.117200011925e-04 -1.598675323878e-04 0.0 
-1.598675323878e-04 6.764763677517e-03 0.0 
0.0 0.0 -1.121221582973e-03 
-5.590520355925e-04 3.309762878068e-04 0.0 
3.309762878068e-04 4.865889443216e-03 0.0 
0.0 0.0 -8.477100451819e-04 
-3.408380194667e-04 8.413428919704e-05 0.0 
8.413428919704e-05 1.600517951916e-03 0.0 
0.0 0.0 -2.892354545592e-04 
-1.075499676593e-03 6.132508001275e-04 0.0 
6.132508001275e-04 6.500844839128e-03 0.0 
0.0 0.0 -1.015166614560e-03 
-1.491725305372e-04 -7.955548992598e-05 0.0 
-7.955548992598e-05 3.115280814632e-03 0.0 
0.0 0.0 -6.628028861993e-04 
-1.315718485168e-04 -5.908276789213e-04 0.0 
-5.908276789213e-04 6.660589264853e-04 0.0 
0.0 0.0 -2.290658905579e-04 
-1.579860261374e-05 -4.063804822263e-04 0.0 
-4.063804822263e-04 2.360331977056e-03 0.0 
0.0 0.0 -5.632129589051e-04 
-1.187081976134e-03 1.736903763000e-04 0.0 
1.736903763000e-04 6.532498131095e-03 0.0 
0.0 0.0 -9.915417172310e-04 
-1.109173126604e-03 2.020871397918e-04 0.0 
2.020871397918e-04 6.702082758585e-03 0.0 
0.0 0.0 -1.020980360542e-03 
-4.812617878824e-04 -1.026396368797e-03 0.0 
-1.026396368797e-03 1.558368541222e-03 0.0 
0.0 0.0 -2.729600395538e-04 
-1.020281891755e-03 -1.851201749546e-04 0.0 
-1.851201749546e-04 5.386783464776e-03 0.0 
0.0 0.0 -8.076288038732e-04 
-1.089791995769e-03 6.678096790371e-04 0.0 
6.678096790371e-04 6.824575659747e-03 0.0 
0.0 0.0 -1.071782534217e-03 
-9.193547229402e-04 1.602334611530e-04 0.0 
1.602334611530e-04 6.776867929495e-03 0.0 
0.0 0.0 -1.109893377180e-03 
-5.608358153244e-04 -8.240965468318e-04 0.0 
-8.240965468318e-04 2.993251789866e-03 0.0 
0.0 0.0 -5.351738145117e-04 
-6.136579298705e-04 1.191680586993e-04 0.0 
1.191680586993e-04 2.664357051373e-03 0.0 
0.0 0.0 -4.333934152438e-04 
-5.989414354874e-04 6.742429676008e-04 0.0 
6.742429676008e-04 4.956197001293e-03 0.0 
0.0 0.0 -8.786267582723e-04 
-1.011039081455e-03 -2.136688597495e-04 0.0 
-2.136688597495e-04 6.164847278727e-03 0.0 
0.0 0.0 -9.278975173457e-04 
-2.430528072630e-05 -7.015609586409e-04 0.0 
-7.015609586409e-04 4.939718425864e-04 0.0 
0.0 0.0 -2.012856693686e-04 
-1.258632814515e-03 5.164131841311e-04 0.0 
5.164131841311e-04 8.325970250847e-03 0.0 
0.0 0.0 -1.269179263065e-03 
-1.319279019144e-03 4.296204971761e-04 0.0 
4.296204971761e-04 8.281943168671e-03 0.0 
0.0 0.0 -1.281197857596e-03 
-9.262453737932e-04 -1.856372937015e-04 0.0 
-1.856372937015e-04 5.467657039050e-03 0.0 
0.0 0.0 -8.387747867703e-04 
-1.294839307706e-03 7.871963389555e-06 0.0 
7.871963389555e-06 8.477109428305e-03 0.0 
0.0 0.0 -1.255037608383e-03 
-1.299621148244e-03 5.434080431767e-04 0.0 
5.434080431767e-04 8.249757004039e-03 0.0 
0.0 0.0 -1.285499913836e-03 
-2.377664936208e-04 -4.540001535470e-04 0.0 
-4.540001535470e-04 3.213325829595e-03 0.0 
0.0 0.0 -6.542748834104e-04 
-3.508305791302e-04 -1.119634461832e-03 0.0 
-1.119634461832e-03 3.128022697751e-03 0.0 
0.0 0.0 -6.153450468602e-04 
-1.170236808513e-03 2.917458807147e-05 0.0 
2.917458807147e-05 8.079333353292e-03 0.0 
0.0 0.0 -1.265535665854e-03 
0.0 0.0 0.0 
0.0 0.0 0.0 
0.0 0.0 0.0 
-5.539334103609e-04 1.733294296074e-04 0.0 
1.733294296074e-04 2.467698966066e-03 0.0 
0.0 0.0 -3.941707820484e-04 
-1.082833857300e-03 1.553689403231e-04 0.0 
1.553689403231e-04 5.370486721227e-03 0.0 
0.0 0.0 -8.329475646481e-04 
-6.135075657535e-04 -1.124689673499e-03 0.0 
-1.124689673499e-03 3.074168344220e-03 0.0 
0.0 0.0 -5.313546330462e-04 
-1.846585695015e-04 -7.875180783751e-04 0.0 
-7.875180783751e-04 2.568069228426e-03 0.0 
0.0 0.0 -5.546931404481e-04 
-5.968432958156e-04 5.557088425757e-04 0.0 
5.557088425757e-04 1.865682370622e-03 0.0 
0.0 0.0 -3.196518454468e-04 
-5.899426228830e-04 4.711635003752e-04 0.0 
4.711635003752e-04 2.207717411959e-03 0.0 
0.0 0.0 -3.528063275151e-04 
-9.460265979009e-04 -8.557345978762e-05 0.0 
-8.557345978762e-05 5.600872725538e-03 0.0 
0.0 0.0 -8.290026594306e-04 
-7.188891017228e-05 -7.212145557604e-04 0.0 
-7.212145557604e-04 2.661537409605e-03 0.0 
0.0 0.0 -5.962921515785e-04 
-6.690915239770e-04 -9.469087844434e-06 0.0 
-9.469087844434e-06 2.860475934858e-03 0.0 
0.0 0.0 -4.583473518421e-04 
-9.261983765854e-04 6.205491161324e-04 0.0 
6.205491161324e-04 6.527766796007e-03 0.0 
0.0 0.0 -1.077832113627e-03 
-1.322048612324e-03 -3.324926188937e-04 0.0 
-3.324926188937e-04 8.713395146875e-03 0.0 
0.0 0.0 -1.324978758543e-03 
-1.338720177887e-03 -4.085669882089e-04 0.0 
-4.085669882089e-04 8.670321911685e-03 0.0 
0.0 0.0 -1.320624918399e-03 
-3.849795069765e-04 -6.739500110508e-04 0.0 
-6.739500110508e-04 3.380834248484e-03 0.0 
0.0 0.0 -6.457427040837e-04 
-9.004898588243e-04 1.911488629734e-04 0.0 
1.911488629734e-04 5.018763151201e-03 0.0 
0.0 0.0 -7.877541558771e-04 
0.0 0.0 0.0 
0.0 0.0 0.0 
0.0 0.0 0.0 
-4.359472798887e-04 6.731301800727e-04 0.0 
6.731301800727e-04 1.407239997486e-03 0.0 
0.0 0.0 -3.106513839132e-04 
2.755733972267e-04 -1.401203893809e-03 0.0 
-1.401203893809e-03 4.875020493235e-04 0.0 
0.0 0.0 -3.270323342358e-04 
-5.716509711487e-04 6.241427470327e-04 0.0 
6.241427470327e-04 1.685665452150e-03 0.0 
0.0 0.0 -2.953478464511e-04 
-6.435501651802e-04 2.617971966709e-04 0.0 
2.617971966709e-04 5.324938194352e-03 0.0 
0.0 0.0 -9.116044729693e-04 
-3.892042169670e-04 -9.156083068677e-04 0.0 
-9.156083068677e-04 2.815259890772e-03 0.0 
0.0 0.0 -5.459662534218e-04 
-2.243152923797e-04 -1.093841073510e-03 0.0 
-1.093841073510e-03 2.791137140625e-03 0.0 
0.0 0.0 -5.879858557453e-04 
2.757241657395e-04 -4.810032012259e-04 0.0 
-4.810032012259e-04 1.809007699405e-05 0.0 
0.0 0.0 -1.259203897429e-04 
-1.236651515782e-03 5.783317831820e-05 0.0 
5.783317831820e-05 7.720546241133e-03 0.0 
0.0 0.0 -1.176327079312e-03 
-4.101458141136e-04 -1.240391896891e-03 0.0 
-1.240391896891e-03 2.995120791313e-03 0.0 
0.0 0.0 -5.792774345575e-04 
-1.250725797448e-03 2.916941522596e-04 0.0 
2.916941522596e-04 8.087181627586e-03 0.0 
0.0 0.0 -1.212957849656e-03 
-1.169197980018e-03 -1.036807665068e-04 0.0 
-1.036807665068e-04 7.436974066249e-03 0.0 
0.0 0.0 -1.117460450001e-03 
-1.345176874521e-03 9.425392127595e-05 0.0 
9.425392127595e-05 9.101263988686e-03 0.0 
0.0 0.0 -1.319418651152e-03 
-1.362446196829e-03 -6.566602865703e-05 0.0 
-6.566602865703e-05 8.851718670119e-03 0.0 
0.0 0.0 -1.324849633189e-03 
-9.396876737499e-04 1.580696553299e-04 0.0 
1.580696553299e-04 5.609093298548e-03 0.0 
0.0 0.0 -8.315138651140e-04 
-5.177493296675e-04 -1.164892507562e-03 0.0 
-1.164892507562e-03 3.321630420665e-03 0.0 
0.0 0.0 -6.063493599946e-04 
-5.551169256275e-04 5.845973941815e-04 0.0 
5.845973941815e-04 2.336169535734e-03 0.0 
0.0 0.0 -3.884917441798e-04 
-5.432002518243e-04 -7.156839301842e-04 0.0 
-7.156839301842e-04 3.555258553905e-03 0.0 
0.0 0.0 -6.367902913543e-04 
-1.343328350294e-03 -3.038078432126e-04 0.0 
-3.038078432126e-04 8.521823212692e-03 0.0 
0.0 0.0 -1.343328350294e-03 
-1.737665181201e-04 6.795203959292e-04 0.0 
6.795203959292e-04 8.236163112489e-04 0.0 
0.0 0.0 -2.785070541980e-04 
-2.927518060600e-04 7.425303816206e-04 0.0 
7.425303816206e-04 1.136932491594e-03 0.0 
0.0 0.0 -3.329621070679e-04 
-9.737974110450e-04 -6.386389399083e-05 0.0 
-6.386389399083e-05 7.060307194164e-03 0.0 
0.0 0.0 -1.156027955174e-03 
-8.805235058694e-04 6.847913926848e-05 0.0 
6.847913926848e-05 5.301659598337e-03 0.0 
0.0 0.0 -7.715229432315e-04 
-1.258879221168e-03 2.678324544629e-04 0.0 
2.678324544629e-04 8.150871359494e-03 0.0 
0.0 0.0 -1.219279742240e-03 
-1.080906081071e-03 2.827660258438e-04 0.0 
2.827660258438e-04 6.867060617251e-03 0.0 
0.0 0.0 -1.069611963270e-03 
-1.039924564934e-03 5.350617449269e-04 0.0 
5.350617449269e-04 7.190727662860e-03 0.0 
0.0 0.0 -1.175036385391e-03 
-1.173553033698e-03 2.219944962555e-04 0.0 
2.219944962555e-04 7.297927893888e-03 0.0 
0.0 0.0 -1.113576918908e-03 
-9.402009665324e-04 2.044311077690e-04 0.0 
2.044311077690e-04 5.536177417769e-03 0.0 
0.0 0.0 -8.542750875040e-04 
-5.858259911149e-04 -1.171742995146e-03 0.0 
-1.171742995146e-03 2.676462786012e-03 0.0 
0.0 0.0 -4.674384380614e-04 
-5.422750806607e-04 -8.975033256362e-04 0.0 
-8.975033256362e-04 2.600446559473e-03 0.0 
0.0 0.0 -4.715697005044e-04 
-1.061085808578e-03 2.019693127978e-04 0.0 
2.019693127978e-04 6.591258911724e-03 0.0 
0.0 0.0 -9.963059934037e-04 
-9.926320276344e-04 1.396335034036e-04 0.0 
1.396335034036e-04 7.047433757094e-03 0.0 
0.0 0.0 -1.142506377625e-03 
-8.640826483478e-04 1.602683523403e-04 0.0 
1.602683523403e-04 4.592644147598e-03 0.0 
0.0 0.0 -7.345222264051e-04 
-8.659076808803e-04 1.600457319012e-05 0.0 
1.600457319012e-05 5.296211653200e-03 0.0 
0.0 0.0 -7.676068998053e-04 
-9.151607957151e-04 -5.089667725815e-05 0.0 
-5.089667725815e-05 5.629549572959e-03 0.0 
0.0 0.0 -8.242303029217e-04 
-9.674728246486e-04 -2.123760912739e-04 0.0 
-2.123760912739e-04 5.717004610309e-03 0.0 
0.0 0.0 -8.467401457521e-04 
3.499479768906e-04 -3.973954247046e-04 0.0 
-3.973954247046e-04 -4.658979670494e-05 0.0 
0.0 0.0 -1.300106486510e-04 
-5.930015542773e-04 -7.839114719970e-04 0.0 
-7.839114719970e-04 2.465147057737e-03 0.0 
0.0 0.0 -4.335179088089e-04 
-1.317738620986e-03 2.278366908206e-04 0.0 
2.278366908206e-04 8.695066743648e-03 0.0 
0.0 0.0 -1.269310366786e-03 
-1.008653577782e-03 -1.784318379198e-04 0.0 
-1.784318379198e-04 6.114212471042e-03 0.0 
0.0 0.0 -9.150577043801e-04 
-1.235075525051e-03 3.722470533434e-04 0.0 
3.722470533434e-04 8.051470811527e-03 0.0 
0.0 0.0 -1.295322057178e-03 
-1.262105533747e-03 2.927877395666e-04 0.0 
2.927877395666e-04 8.092325804024e-03 0.0 
0.0 0.0 -1.215577547940e-03 
-1.074267791218e-03 2.611694470269e-04 0.0 
2.611694470269e-04 6.569995446378e-03 0.0 
0.0 0.0 -1.012565562176e-03 
-1.287214307820e-03 9.354055678567e-05 0.0 
9.354055678567e-05 8.149418825250e-03 0.0 
0.0 0.0 -1.214907066889e-03 
-8.465721316982e-04 -1.105505135888e-04 0.0 
-1.105505135888e-04 3.950044235392e-03 0.0 
0.0 0.0 -6.304496659280e-04 
-8.228220456719e-04 -1.151102242294e-04 0.0 
-1.151102242294e-04 3.762441621980e-03 0.0 
0.0 0.0 -5.666856080635e-04 
-1.213791714024e-03 -1.499272758312e-04 0.0 
-1.499272758312e-04 7.648587280659e-03 0.0 
0.0 0.0 -1.226851238141e-03 
0.0 0.0 0.0 
0.0 0.0 0.0 
0.0 0.0 0.0 
-5.508530862849e-04 -1.035100482519e-04 0.0 
-1.035100482519e-04 2.701800587875e-03 0.0 
0.0 0.0 -4.071640756073e-04 
-1.342405754833e-03 4.276126013738e-04 0.0 
4.276126013738e-04 8.356626582993e-03 0.0 
0.0 0.0 -1.342405754833e-03 
-2.369285988354e-04 -1.770299306038e-04 0.0 
-1.770299306038e-04 1.161644229230e-03 0.0 
0.0 0.0 -2.265802816212e-04 
-8.772316900263e-04 3.022985570029e-05 0.0 
3.022985570029e-05 5.030285682320e-03 0.0 
0.0 0.0 -7.870118106326e-04 
-1.087488399424e-03 -9.544139039346e-05 0.0 
-9.544139039346e-05 7.678102904648e-03 0.0 
0.0 0.0 -1.213461936786e-03 
-2.217204533164e-04 -1.125363679953e-04 0.0 
-1.125363679953e-04 8.293133150009e-04 0.0 
0.0 0.0 -1.562362318669e-04 
1.575931452750e-04 -1.091415967636e-04 0.0 
-1.091415967636e-04 4.514811203493e-04 0.0 
0.0 0.0 -1.320567747312e-04 
-1.342371808075e-03 1.025686952786e-04 0.0 
1.025686952786e-04 9.039344740884e-03 0.0 
0.0 0.0 -1.324389858384e-03 
-8.327656305072e-04 1.141712868856e-04 0.0 
1.141712868856e-04 4.641243707897e-03 0.0 
0.0 0.0 -7.294542769151e-04 
-1.288909957265e-03 4.016661537540e-04 0.0 
4.016661537540e-04 8.513544320093e-03 0.0 
0.0 0.0 -1.261418349269e-03 
-1.134288891980e-03 5.741233190870e-05 0.0 
5.741233190870e-05 7.407101021319e-03 0.0 
0.0 0.0 -1.231858344535e-03 
-8.347679035328e-04 -3.570531223968e-05 0.0 
-3.570531223968e-05 4.629434413509e-03 0.0 
0.0 0.0 -7.289279708929e-04 
0.0 0.0 0.0 
0.0 0.0 0.0 
0.0 0.0 0.0 
-1.305379233758e-03 -6.071779487898e-05 0.0 
-6.071779487898e-05 8.461113597457e-03 0.0 
0.0 0.0 -1.284140717546e-03 
-3.100289480378e-04 -3.270232557407e-04 0.0 
-3.270232557407e-04 1.355870936008e-03 0.0 
0.0 0.0 -2.433545560381e-04 
-1.282233343865e-03 2.781824875359e-04 0.0 
2.781824875359e-04 8.180219452641e-03 0.0 
0.0 0.0 -1.232184317627e-03 
-1.343095105526e-03 -2.432827260553e-04 0.0 
-2.432827260553e-04 8.545412507579e-03 0.0 
0.0 0.0 -1.343095105526e-03 
-1.292199045367e-03 2.524866178233e-04 0.0 
2.524866178233e-04 8.014541847179e-03 0.0 
0.0 0.0 -1.225700354592e-03 
4.686342162084e-04 -7.265370554805e-04 0.0 
-7.265370554805e-04 5.162950173447e-06 0.0 
0.0 0.0 -2.030559284494e-04 
-9.540260339352e-04 1.631930893359e-04 0.0 
1.631930893359e-04 5.653552826698e-03 0.0 
0.0 0.0 -8.279144014868e-04 
-8.950557039055e-04 -2.748800359507e-04 0.0 
-2.748800359507e-04 4.199615522516e-03 0.0 
0.0 0.0 -6.271989868224e-04 
-8.983235361331e-04 1.933150702715e-04 0.0 
1.933150702715e-04 6.546966492063e-03 0.0 
0.0 0.0 -1.077599360682e-03 
-1.273669225217e-03 1.720409005563e-04 0.0 
1.720409005563e-04 8.518730660981e-03 0.0 
0.0 0.0 -1.326997735404e-03 
-1.142899871982e-03 1.477724546960e-04 0.0 
1.477724546960e-04 7.166026161736e-03 0.0 
0.0 0.0 -1.061614915164e-03 
-1.285004601792e-03 2.929428446180e-04 0.0 
2.929428446180e-04 8.490810498827e-03 0.0 
0.0 0.0 -1.325870641008e-03 
0.0 0.0 0.0 
0.0 0.0 0.0 
0.0 0.0 0.0 
-1.297780734717e-03 -4.166830862430e-04 0.0 
-4.166830862430e-04 8.366714279713e-03 0.0 
0.0 0.0 -1.277656510522e-03 
2.368160629241e-04 -1.409681499125e-03 0.0 
-1.409681499125e-03 7.013780298968e-04 0.0 
0.0 0.0 -3.431348957073e-04 
-2.589194545670e-04 3.821483992917e-05 0.0 
3.821483992917e-05 1.124631262589e-03 0.0 
0.0 0.0 -2.298118214877e-04 
-1.194197405020e-03 -2.475227437211e-04 0.0 
-2.475227437211e-04 8.105636908586e-03 0.0 
0.0 0.0 -1.270335377537e-03 
-1.315524425911e-03 2.690035540339e-04 0.0 
2.690035540339e-04 8.643806800304e-03 0.0 
0.0 0.0 -1.270603359501e-03 
-1.320702306464e-03 4.960564232440e-05 0.0 
4.960564232440e-05 8.625092567998e-03 0.0 
0.0 0.0 -1.289850838753e-03 
-8.753308640926e-04 2.257063470840e-04 0.0 
2.257063470840e-04 5.095730312348e-03 0.0 
0.0 0.0 -7.762633204683e-04 
-9.835570351374e-04 3.967893708127e-04 0.0 
3.967893708127e-04 5.483942639045e-03 0.0 
0.0 0.0 -8.489529362435e-04 
-3.868195665134e-04 1.249245404028e-03 0.0 
1.249245404028e-03 1.493087960549e-03 0.0 
0.0 0.0 -3.390228113434e-04 
-1.290611125717e-03 4.069284773612e-04 0.0 
4.069284773612e-04 8.488337706707e-03 0.0 
0.0 0.0 -1.273041473476e-03 
-7.431920671866e-04 3.360733235591e-05 0.0 
3.360733235591e-05 3.408921231342e-03 0.0 
0.0 0.0 -5.357483711987e-04 
2.011032744506e-04 7.720499985605e-04 0.0 
7.720499985605e-04 2.146802318038e-04 0.0 
0.0 0.0 -1.781929312519e-04 
-9.370458151346e-04 5.508245939114e-04 0.0 
5.508245939114e-04 6.747683680752e-03 0.0 
0.0 0.0 -1.110141529071e-03 
-8.032989009541e-04 -1.045980115988e-05 0.0 
-1.045980115988e-05 4.870464455063e-03 0.0 
0.0 0.0 -7.096328662732e-04 
-1.279256756890e-03 4.600607687250e-04 0.0 
4.600607687250e-04 8.175326591168e-03 0.0 
0.0 0.0 -1.237729719596e-03 
-1.329072194852e-03 -1.834247142824e-04 0.0 
-1.834247142824e-04 8.977472730193e-03 0.0 
0.0 0.0 -1.321509982054e-03 
-1.343732204276e-03 7.562212797617e-06 0.0 
7.562212797617e-06 8.849786333364e-03 0.0 
0.0 0.0 -1.343732204276e-03 
6.465688167897e-04 1.663781779480e-05 0.0 
1.663781779480e-05 -3.978289505741e-05 0.0 
0.0 0.0 -8.420285294201e-05 
3.868700612373e-04 3.921670605925e-05 0.0 
3.921670605925e-05 -6.204561696291e-05 0.0 
0.0 0.0 -1.378576441850e-04 
-8.247124983758e-04 -1.687178518224e-04 0.0 
-1.687178518224e-04 4.737962601015e-03 0.0 
0.0 0.0 -7.318233512793e-04 
-8.319071836255e-04 2.758419797137e-05 0.0 
2.758419797137e-05 4.882188569804e-03 0.0 
0.0 0.0 -7.096011290571e-04 
-1.343732204276e-03 -2.755821224564e-05 0.0 
-2.755821224564e-05 8.606219025581e-03 0.0 
0.0 0.0 -1.343732204276e-03 
-1.349068194300e-03 1.748780922349e-04 0.0 
1.748780922349e-04 8.742452044457e-03 0.0 
0.0 0.0 -1.321509982054e-03 
2.267983165528e-04 1.503551410355e-04 0.0 
1.503551410355e-04 3.801820683437e-04 0.0 
0.0 0.0 -1.379425883790e-04 
0.0 0.0 0.0 
0.0 0.0 0.0 
0.0 0.0 0.0 
-1.304839210467e-03 -7.091443056662e-05 0.0 
-7.091443056662e-05 7.889011230752e-03 0.0 
0.0 0.0 -1.230181737024e-03 
-1.133789878205e-03 6.963372694564e-04 0.0 
6.963372694564e-04 7.661762773916e-03 0.0 
0.0 0.0 -1.209364118140e-03 
-3.105423637276e-04 -2.525564358258e-04 0.0 
-2.525564358258e-04 1.694140784916e-03 0.0 
0.0 0.0 -2.712674790923e-04 
-1.264304018708e-03 -4.229761773583e-04 0.0 
-4.229761773583e-04 7.912894217144e-03 0.0 
0.0 0.0 -1.240191881334e-03 
-1.104648569634e-03 -8.128511201330e-05 0.0 
-8.128511201330e-05 5.687324916732e-03 0.0 
0.0 0.0 -8.888375990210e-04 
-1.026907705388e-03 -2.214158958103e-04 0.0 
-2.214158958103e-04 5.060294452777e-03 0.0 
0.0 0.0 -7.610796297342e-04 
-1.050200639505e-03 1.276309243533e-04 0.0 
1.276309243533e-04 6.471471583772e-03 0.0 
0.0 0.0 -9.400782610458e-04 
-2.965318753647e-05 -1.331164902240e-03 0.0 
-1.331164902240e-03 9.056852696167e-04 0.0 
0.0 0.0 -3.754423208915e-04 
-8.088866268099e-04 2.301224893319e-04 0.0 
2.301224893319e-04 6.098327421906e-03 0.0 
0.0 0.0 -1.011657465016e-03 
-2.272445053013e-04 -9.535102935050e-05 0.0 
-9.535102935050e-05 1.388764162386e-03 0.0 
0.0 0.0 -2.181484037039e-04 
-9.136007493904e-04 -3.789003197154e-04 0.0 
-3.789003197154e-04 4.494388172482e-03 0.0 
0.0 0.0 -6.997415131527e-04 
-1.249092671204e-03 5.668738205519e-04 0.0 
5.668738205519e-04 7.979681115669e-03 0.0 
0.0 0.0 -1.240519096027e-03 
-1.238391952882e-03 -2.103174549131e-04 0.0 
-2.103174549131e-04 8.038627661496e-03 0.0 
0.0 0.0 -1.191726112421e-03 
-9.811853638777e-04 4.571159586099e-05 0.0 
4.571159586099e-05 4.872542694396e-03 0.0 
0.0 0.0 -7.690942022927e-04 
-9.767560317632e-04 -1.705867274286e-04 0.0 
-1.705867274286e-04 5.944945665690e-03 0.0 
0.0 0.0 -8.745659502648e-04 
-1.201104368766e-03 5.803220864547e-04 0.0 
5.803220864547e-04 7.939240582663e-03 0.0 
0.0 0.0 -1.217119345310e-03 
-1.179845702415e-03 2.452002266232e-04 0.0 
2.452002266232e-04 7.438662012216e-03 0.0 
0.0 0.0 -1.140944809982e-03 
-1.127959464392e-03 2.474309966313e-04 0.0 
2.474309966313e-04 7.001139959042e-03 0.0 
0.0 0.0 -1.076426999079e-03 
-8.393109454079e-04 2.446878724435e-05 0.0 
2.446878724435e-05 4.620539471492e-03 0.0 
0.0 0.0 -7.312123441678e-04 
-7.325714353874e-04 1.943037271299e-04 0.0 
1.943037271299e-04 5.805049329063e-03 0.0 
0.0 0.0 -9.763781674015e-04 
-1.278424948200e-03 4.732838707970e-04 0.0 
4.732838707970e-04 8.049805466019e-03 0.0 
0.0 0.0 -1.231404929774e-03 
-6.063671140810e-04 1.348850002822e-06 0.0 
1.348850002822e-06 2.558361798436e-03 0.0 
0.0 0.0 -4.167967844001e-04 
-7.171547725390e-05 -2.177777186911e-04 0.0 
-2.177777186911e-04 5.764019490181e-04 0.0 
0.0 0.0 -1.015157820784e-04 
-1.170824655935e-03 3.363594053323e-04 0.0 
3.363594053323e-04 7.539332247117e-03 0.0 
0.0 0.0 -1.185975225609e-03 
-9.133715629689e-04 2.312110862865e-04 0.0 
2.312110862865e-04 6.719277881344e-03 0.0 
0.0 0.0 -1.123538223191e-03 
1.132049243546e-04 -1.050372997865e-03 0.0 
-1.050372997865e-03 4.871548077874e-04 0.0 
0.0 0.0 -2.572970280609e-04 
-1.081558890546e-03 -1.399243451463e-04 0.0 
-1.399243451463e-04 6.772240372319e-03 0.0 
0.0 0.0 -9.893338170986e-04 
-1.329126769976e-03 -2.338155039388e-04 0.0 
-2.338155039388e-04 8.188960966632e-03 0.0 
0.0 0.0 -1.282739585886e-03 
-1.129882241773e-03 5.744296922873e-04 0.0 
5.744296922873e-04 7.355375345581e-03 0.0 
0.0 0.0 -1.182073443778e-03 
-1.178192896547e-03 4.553534655183e-04 0.0 
4.553534655183e-04 7.891430484162e-03 0.0 
0.0 0.0 -1.215129606110e-03 
-1.157436434489e-03 -2.420799146488e-04 0.0 
-2.420799146488e-04 6.201441230335e-03 0.0 
0.0 0.0 -9.537126495859e-04 
0.0 0.0 0.0 
0.0 0.0 0.0 
0.0 0.0 0.0 
-5.231800249051e-04 6.591753538455e-04 0.0 
6.591753538455e-04 1.847843507099e-03 0.0 
0.0 0.0 -3.212443691966e-04 
-5.564787132596e-04 8.940027195274e-04 0.0 
8.940027195274e-04 2.137708509351e-03 0.0 
0.0 0.0 -3.834349432650e-04 
-9.473774776597e-04 1.764703939582e-04 0.0 
1.764703939582e-04 5.384019631323e-03 0.0 
0.0 0.0 -8.471429939415e-04 
-7.614839710960e-04 6.584444641784e-04 0.0 
6.584444641784e-04 5.752238999582e-03 0.0 
0.0 0.0 -9.781602908260e-04 
-1.285624241878e-03 -4.326792981855e-05 0.0 
-4.326792981855e-05 8.288168648148e-03 0.0 
0.0 0.0 -1.236541257690e-03 
-1.217308294029e-03 1.640866066604e-04 0.0 
1.640866066604e-04 7.793774931469e-03 0.0 
0.0 0.0 -1.282325209426e-03 
-8.954075940437e-05 -8.680076304404e-04 0.0 
-8.680076304404e-04 7.337139848585e-04 0.0 
0.0 0.0 -2.760742394804e-04 
-3.009716750380e-04 -4.715458723185e-04 0.0 
-4.715458723185e-04 9.308600569539e-04 0.0 
0.0 0.0 -1.704796444516e-04 
-4.318023328758e-04 9.056222759074e-04 0.0 
9.056222759074e-04 1.421929475039e-03 0.0 
0.0 0.0 -2.747970858071e-04 
-1.085049996288e-03 3.161557202625e-04 0.0 
3.161557202625e-04 6.749947888276e-03 0.0 
0.0 0.0 -1.019242131223e-03 
-7.105673598930e-04 -3.560858813606e-04 0.0 
-3.560858813606e-04 3.243394900527e-03 0.0 
0.0 0.0 -4.953283059016e-04 
-1.294058250345e-03 1.194991635526e-04 0.0 
1.194991635526e-04 8.278027413572e-03 0.0 
0.0 0.0 -1.241298427557e-03 
-2.801916649698e-04 -2.169380665087e-04 0.0 
-2.169380665087e-04 1.598671665654e-03 0.0 
0.0 0.0 -2.623907620756e-04 
-1.097220766083e-03 2.014729423047e-04 0.0 
2.014729423047e-04 7.397517373048e-03 0.0 
0.0 0.0 -1.221152601860e-03 
-9.286181991470e-04 2.455314232276e-04 0.0 
2.455314232276e-04 5.488935049062e-03 0.0 
0.0 0.0 -8.343732341398e-04 
-1.223283272536e-03 3.593359299497e-04 0.0 
3.593359299497e-04 7.932879470025e-03 0.0 
0.0 0.0 -1.286815605725e-03 
-9.712654839318e-04 1.866157351704e-04 0.0 
1.866157351704e-04 6.891208363551e-03 0.0 
0.0 0.0 -1.111121968474e-03 
-9.581999826764e-04 8.182036761545e-05 0.0 
8.182036761545e-05 5.388937206970e-03 0.0 
0.0 0.0 -8.465141837044e-04 
-1.209961591988e-03 -2.976225161964e-04 0.0 
-2.976225161964e-04 8.170684166123e-03 0.0 
0.0 0.0 -1.269142588751e-03 
-1.323046623582e-03 3.793136222843e-04 0.0 
3.793136222843e-04 8.658663539059e-03 0.0 
0.0 0.0 -1.272727265576e-03 
-1.289749640490e-03 9.124365830308e-05 0.0 
9.124365830308e-05 8.709454540694e-03 0.0 
0.0 0.0 -1.271339345674e-03 
-1.626085801218e-04 8.571684415748e-04 0.0 
8.571684415748e-04 8.875192706734e-04 0.0 
0.0 0.0 -3.044868356389e-04 
-1.267095409920e-03 4.070899744542e-04 0.0 
4.070899744542e-04 8.089876134210e-03 0.0 
0.0 0.0 -1.218309553141e-03 
-1.282164121305e-03 5.174305312528e-04 0.0 
5.174305312528e-04 8.083053308233e-03 0.0 
0.0 0.0 -1.286645293131e-03 
-1.059215435768e-03 -2.009543418022e-05 0.0 
-2.009543418022e-05 7.573607372665e-03 0.0 
0.0 0.0 -1.211735819529e-03 
-9.987418032593e-04 6.142229130813e-04 0.0 
6.142229130813e-04 6.982246170552e-03 0.0 
0.0 0.0 -1.143254064081e-03 
-1.342665167303e-03 -2.857461739196e-04 0.0 
-2.857461739196e-04 8.440143907241e-03 0.0 
0.0 0.0 -1.342665167303e-03 
-1.126760089934e-03 6.437426727216e-04 0.0 
6.437426727216e-04 6.937086787485e-03 0.0 
0.0 0.0 -1.079065255302e-03 
0.0 0.0 0.0 
0.0 0.0 0.0 
0.0 0.0 0.0 
6.191816026709e-05 1.291205818517e-03 0.0 
1.291205818517e-03 7.179353342320e-04 0.0 
0.0 0.0 -3.342229262139e-04 
-1.235056862706e-03 2.777301788060e-04 0.0 
2.777301788060e-04 7.736779237008e-03 0.0 
0.0 0.0 -1.176936364471e-03 
-9.923017078165e-04 3.078956919309e-04 0.0 
3.078956919309e-04 5.849121224287e-03 0.0 
0.0 0.0 -8.884613587993e-04 
-1.298948170332e-03 -3.124306146209e-04 0.0 
-3.124306146209e-04 7.977511740223e-03 0.0 
0.0 0.0 -1.221994126432e-03 
-1.061095181676e-03 1.799058826279e-04 0.0 
1.799058826279e-04 7.334426391334e-03 0.0 
0.0 0.0 -1.177009544428e-03 
-1.289141827740e-03 -3.383964038360e-04 0.0 
-3.383964038360e-04 8.125835853115e-03 0.0 
0.0 0.0 -1.292249833993e-03 
-1.132172011691e-03 2.813138638496e-04 0.0 
2.813138638496e-04 7.272270790879e-03 0.0 
0.0 0.0 -1.085521458831e-03 
-1.247617681667e-03 2.986308671608e-04 0.0 
2.986308671608e-04 7.907076372021e-03 0.0 
0.0 0.0 -1.288973456333e-03 
-1.183175849056e-03 -4.290305750124e-04 0.0 
-4.290305750124e-04 7.735436170610e-03 0.0 
0.0 0.0 -1.233322439334e-03 
-1.175389870133e-03 -8.154118169286e-05 0.0 
-8.154118169286e-05 7.695545006504e-03 0.0 
0.0 0.0 -1.235043566395e-03 
-7.287005066558e-04 -2.363504694994e-04 0.0 
-2.363504694994e-04 3.412626924282e-03 0.0 
0.0 0.0 -5.104964012366e-04 
-1.311532395302e-03 -3.318821641935e-04 0.0 
-3.318821641935e-04 8.754426494470e-03 0.0 
0.0 0.0 -1.325641941534e-03 
-8.790480836699e-04 9.973280973964e-05 0.0 
9.973280973964e-05 5.256747279211e-03 0.0 
0.0 0.0 -7.662153309038e-04 
-1.249481013832e-03 -1.180321759362e-04 0.0 
-1.180321759362e-04 8.200814515591e-03 0.0 
0.0 0.0 -1.217406395242e-03 
-1.652940304057e-04 -5.197313760388e-04 0.0 
-5.197313760388e-04 7.163944105236e-04 0.0 
0.0 0.0 -2.361858771934e-04 
-1.199456095747e-03 -9.281141696113e-05 0.0 
-9.281141696113e-05 7.932283218576e-03 0.0 
0.0 0.0 -1.163202487293e-03 
-1.073812189916e-03 1.019150907596e-06 0.0 
1.019150907596e-06 6.842466406292e-03 0.0 
0.0 0.0 -9.926133712568e-04 
-8.677292434787e-05 -7.776541442063e-05 0.0 
-7.776541442063e-05 9.098025117225e-04 0.0 
0.0 0.0 -1.628620303624e-04 
5.265410319422e-04 -6.941530982861e-04 0.0 
-6.941530982861e-04 -3.231659341296e-05 0.0 
0.0 0.0 -2.118104736554e-04 
-1.137863848184e-03 6.727746037847e-04 0.0 
6.727746037847e-04 7.103743294949e-03 0.0 
0.0 0.0 -1.107581195644e-03 
-1.316054950297e-03 1.463718814179e-04 0.0 
1.463718814179e-04 8.450854861123e-03 0.0 
0.0 0.0 -1.285368862661e-03 
-1.275071184009e-03 -1.337709164893e-04 0.0 
-1.337709164893e-04 8.307471815085e-03 0.0 
0.0 0.0 -1.223917301752e-03 
-1.160153297854e-03 5.261040585439e-04 0.0 
5.261040585439e-04 7.939180437512e-03 0.0 
0.0 0.0 -1.264779455601e-03 
-9.786681000752e-04 2.797069543092e-04 0.0 
2.797069543092e-04 5.828399650514e-03 0.0 
0.0 0.0 -8.807565902733e-04 
6.088519586403e-05 -4.917250620978e-05 0.0 
-4.917250620978e-05 4.869793999348e-04 0.0 
0.0 0.0 -1.094929743475e-04 
6.111566355022e-05 5.640636810902e-05 0.0 
5.640636810902e-05 -1.157323767526e-05 0.0 
0.0 0.0 -2.123246823213e-05 
-1.420251948107e-04 8.764175524857e-05 0.0 
8.764175524857e-05 4.773240057954e-04 0.0 
0.0 0.0 -1.256389127973e-04 
-3.632499277279e-04 -7.837444408696e-04 0.0 
-7.837444408696e-04 1.194209396961e-03 0.0 
0.0 0.0 -2.225718436208e-04 
0.0 0.0 0.0 
0.0 0.0 0.0 
0.0 0.0 0.0 
-8.980038842560e-04 -6.868916122841e-05 0.0 
-6.868916122841e-05 4.504377363934e-03 0.0 
0.0 0.0 -6.753304527203e-04 
-1.294165048711e-03 6.161991819009e-05 0.0 
6.161991819009e-05 7.969168976077e-03 0.0 
0.0 0.0 -1.222305993939e-03 
-1.264474650052e-03 5.734696938905e-04 0.0 
5.734696938905e-04 8.077312517039e-03 0.0 
0.0 0.0 -1.222833113937e-03 
-1.006464770387e-03 3.394189907578e-05 0.0 
3.394189907578e-05 5.834781281692e-03 0.0 
0.0 0.0 -8.826313165011e-04 
-8.266334947460e-04 -5.354606523691e-04 0.0 
-5.354606523691e-04 3.869366937566e-03 0.0 
0.0 0.0 -5.988529843847e-04 
-1.198642937147e-03 -4.684662880526e-04 0.0 
-4.684662880526e-04 7.783754842457e-03 0.0 
0.0 0.0 -1.221067908166e-03 
-1.068035990990e-03 1.115403335333e-04 0.0 
1.115403335333e-04 7.531635864011e-03 0.0 
0.0 0.0 -1.208702654310e-03 
-1.208049507468e-03 4.869249044164e-04 0.0 
4.869249044164e-04 8.191633662499e-03 0.0 
0.0 0.0 -1.272252409145e-03 
-1.227816291176e-03 4.361504529360e-04 0.0 
4.361504529360e-04 7.755209047765e-03 0.0 
0.0 0.0 -1.237422270938e-03 
-1.191139084829e-03 6.619264216726e-04 0.0 
6.619264216726e-04 7.533865048847e-03 0.0 
0.0 0.0 -1.171232062679e-03 
-1.920899935495e-04 -3.005289282689e-04 0.0 
-3.005289282689e-04 6.978999469600e-04 0.0 
0.0 0.0 -2.167756943188e-04 
0.0 0.0 0.0 
0.0 0.0 0.0 
0.0 0.0 0.0 
-1.308655472056e-03 -3.526594848147e-04 0.0 
-3.526594848147e-04 8.026041467974e-03 0.0 
0.0 0.0 -1.223662873675e-03 
-1.521155326843e-04 1.616990335056e-05 0.0 
1.616990335056e-05 7.009749630609e-04 0.0 
0.0 0.0 -1.761523314621e-04 
-1.768246005743e-04 2.416090922495e-04 0.0 
2.416090922495e-04 1.018026141244e-03 0.0 
0.0 0.0 -1.933333333332e-04 
1.266269026244e-04 4.459901967828e-04 0.0 
4.459901967828e-04 1.149333659383e-04 0.0 
0.0 0.0 -1.035258293840e-04 
-1.677849962930e-04 -2.830770546558e-04 0.0 
-2.830770546558e-04 8.015651116380e-04 0.0 
0.0 0.0 -1.580296812506e-04 
-1.271854076500e-03 -2.557043152436e-04 0.0 
-2.557043152436e-04 7.945254530657e-03 0.0 
0.0 0.0 -1.288571152055e-03 
-1.306788030849e-03 4.109202426763e-04 0.0 
4.109202426763e-04 8.216249132470e-03 0.0 
0.0 0.0 -1.290113636706e-03 
-1.294468783320e-03 3.035835675296e-04 0.0 
3.035835675296e-04 8.293038568859e-03 0.0 
0.0 0.0 -1.236907757659e-03 
-1.272697522653e-03 4.000546130428e-04 0.0 
4.000546130428e-04 7.992915461605e-03 0.0 
0.0 0.0 -1.292605224168e-03 
-1.039048517881e-03 -2.511628389219e-04 0.0 
-2.511628389219e-04 7.217306455236e-03 0.0 
0.0 0.0 -1.176879138244e-03 
-9.963056410622e-04 2.982297539881e-04 0.0 
2.982297539881e-04 6.108837095234e-03 0.0 
0.0 0.0 -9.170130443517e-04 
-1.345069444888e-03 2.094806773474e-04 0.0 
2.094806773474e-04 8.819921791921e-03 0.0 
0.0 0.0 -1.345069444888e-03 
1.552293122710e-04 -1.587596842018e-03 0.0 
-1.587596842018e-03 7.594496357434e-04 0.0 
0.0 0.0 -3.920052634347e-04 
-7.958568066072e-04 2.655126968941e-05 0.0 
2.655126968941e-05 4.862635053177e-03 0.0 
0.0 0.0 -7.083073883397e-04 
-3.709027017310e-05 -1.154290083415e-03 0.0 
-1.154290083415e-03 8.071251517729e-04 0.0 
0.0 0.0 -3.300149492571e-04 
-8.078687300304e-05 2.766710122456e-05 0.0 
2.766710122456e-05 2.705585081320e-04 0.0 
0.0 0.0 -8.133070076957e-05 
-1.328088305276e-03 -2.091716352919e-04 0.0 
-2.091716352919e-04 8.801339781229e-03 0.0 
0.0 0.0 -1.323850096553e-03 
-9.077000763770e-04 9.794404475146e-05 0.0 
9.794404475146e-05 5.306610706151e-03 0.0 
0.0 0.0 -7.731261162940e-04 
-1.693805322071e-04 -2.625883935893e-05 0.0 
-2.625883935893e-05 1.305243597625e-03 0.0 
0.0 0.0 -2.115341463249e-04 
-9.189085389785e-04 8.964891235688e-05 0.0 
8.964891235688e-05 4.273021875062e-03 0.0 
0.0 0.0 -6.570498647039e-04 
-1.286146232063e-03 5.231039738263e-04 0.0 
5.231039738263e-04 8.474365430469e-03 0.0 
0.0 0.0 -1.276804206569e-03 
-1.288400651325e-03 -4.306470642738e-06 0.0 
-4.306470642738e-06 8.274343384212e-03 0.0 
0.0 0.0 -1.228616961883e-03 
-1.323624610775e-03 3.216369829918e-04 0.0 
3.216369829918e-04 8.408100187569e-03 0.0 
0.0 0.0 -1.289666537713e-03 
-6.585033223124e-04 -1.956809026779e-04 0.0 
-1.956809026779e-04 3.104860358543e-03 0.0 
0.0 0.0 -4.695399720401e-04 
0.0 0.0 0.0 
0.0 0.0 0.0 
0.0 0.0 0.0 
-1.295369683638e-03 -4.352781909349e-04 0.0 
-4.352781909349e-04 8.328377963407e-03 0.0 
0.0 0.0 -1.273144391159e-03 
-1.316384665971e-03 4.635940691717e-05 0.0 
4.635940691717e-05 9.091692367136e-03 0.0 
0.0 0.0 -1.325353038101e-03 
-1.373672636792e-03 -7.774901455504e-05 0.0 
-7.774901455504e-05 8.873813327292e-03 0.0 
0.0 0.0 -1.323783523096e-03 
-8.637809619907e-04 1.323503679534e-04 0.0 
1.323503679534e-04 5.089707097874e-03 0.0 
0.0 0.0 -7.673431308700e-04 
-1.131532193974e-03 -7.726473612601e-05 0.0 
-7.726473612601e-05 7.445464928452e-03 0.0 
0.0 0.0 -1.231867668451e-03 
-2.317572587520e-04 -1.314436244158e-04 0.0 
-1.314436244158e-04 1.130415722071e-03 0.0 
0.0 0.0 -2.324200178898e-04 
-1.299745087394e-03 4.291095854891e-04 0.0 
4.291095854891e-04 8.286657472724e-03 0.0 
0.0 0.0 -1.241575510934e-03 
-4.846130298420e-05 -4.886976193625e-05 0.0 
-4.886976193625e-05 2.622595636012e-04 0.0 
0.0 0.0 -9.162782597871e-05 
-1.263516092246e-03 -1.718330630488e-04 0.0 
-1.718330630488e-04 7.907025787409e-03 0.0 
0.0 0.0 -1.290713494763e-03 
-1.321680158597e-03 4.673078731777e-04 0.0 
4.673078731777e-04 8.597815189326e-03 0.0 
0.0 0.0 -1.268585396830e-03 
0.0 0.0 0.0 
0.0 0.0 0.0 
0.0 0.0 0.0 
-1.124591088079e-03 3.211880423142e-04 0.0 
3.211880423142e-04 7.458066064736e-03 0.0 
0.0 0.0 -1.178018281593e-03 
-1.107869427890e-03 -1.505180591586e-04 0.0 
-1.505180591586e-04 7.012739571933e-03 0.0 
0.0 0.0 -1.053859681778e-03 
-1.308771083341e-03 9.446579517484e-05 0.0 
9.446579517484e-05 8.493525012630e-03 0.0 
0.0 0.0 -1.289687241943e-03 
-1.346242744377e-03 2.039443759450e-04 0.0 
2.039443759450e-04 8.307404063276e-03 0.0 
0.0 0.0 -1.346242744377e-03 
-1.050842893348e-03 -2.891538303944e-04 0.0 
-2.891538303944e-04 6.421171579649e-03 0.0 
0.0 0.0 -9.627310317561e-04 
-1.303758961951e-03 4.903154082554e-04 0.0 
4.903154082554e-04 8.278630388455e-03 0.0 
0.0 0.0 -1.292510612804e-03 
-1.300990074097e-03 1.669276888751e-04 0.0 
1.669276888751e-04 8.244189692926e-03 0.0 
0.0 0.0 -1.236507170568e-03 
-1.088170666265e-03 3.228048852164e-05 0.0 
3.228048852164e-05 6.587667922864e-03 0.0 
0.0 0.0 -1.009625451247e-03 
-1.257890102395e-03 4.520446479729e-04 0.0 
4.520446479729e-04 7.985706155656e-03 0.0 
0.0 0.0 -1.247605899893e-03 
-7.721939041237e-04 -2.584607340664e-04 0.0 
-2.584607340664e-04 3.598089332548e-03 0.0 
0.0 0.0 -5.668522599723e-04 
-8.446801208318e-04 -1.785300824749e-05 0.0 
-1.785300824749e-05 4.608085736335e-03 0.0 
0.0 0.0 -7.287847301676e-04 
-1.179784032877e-03 5.549241153248e-04 0.0 
5.549241153248e-04 7.775803262496e-03 0.0 
0.0 0.0 -1.239219007812e-03 
-1.299529222104e-03 1.321426560981e-04 0.0 
1.321426560981e-04 8.646134742124e-03 0.0 
0.0 0.0 -1.286506427510e-03 
2.831255439195e-04 1.360672473440e-05 0.0 
1.360672473440e-05 -8.482055415176e-05 0.0 
0.0 0.0 -8.498785275758e-05 
-8.370484008237e-04 5.623912198418e-05 0.0 
5.623912198418e-05 4.626828224470e-03 0.0 
0.0 0.0 -7.284590636140e-04 
-1.335071484274e-03 -1.600713729454e-04 0.0 
-1.600713729454e-04 8.440371416104e-03 0.0 
0.0 0.0 -1.288082484959e-03 
-3.767414468585e-04 -4.451842935600e-05 0.0 
-4.451842935600e-05 1.577633672495e-03 0.0 
0.0 0.0 -2.765646858065e-04 
-1.088631360797e-03 4.564803545026e-05 0.0 
4.564803545026e-05 7.667059339477e-03 0.0 
0.0 0.0 -1.213252366005e-03 
-1.271794335805e-03 2.301245021833e-04 0.0 
2.301245021833e-04 8.183403677429e-03 0.0 
0.0 0.0 -1.225943235494e-03 
-1.312602819485e-03 -3.967668182090e-05 0.0 
-3.967668182090e-05 8.691988746778e-03 0.0 
0.0 0.0 -1.269037835114e-03 
-3.083660169777e-04 2.694773361529e-05 0.0 
2.694773361529e-05 1.528069924280e-03 0.0 
0.0 0.0 -2.647987373252e-04 
3.113151605038e-04 9.413576912784e-04 0.0 
9.413576912784e-04 1.991549585730e-04 0.0 
0.0 0.0 -2.187729081758e-04 
-1.068435724364e-03 3.124616463362e-04 0.0 
3.124616463362e-04 5.213213290896e-03 0.0 
0.0 0.0 -7.939471195916e-04 
-1.202568648909e-03 1.058847220047e-04 0.0 
1.058847220047e-04 7.572272609772e-03 0.0 
0.0 0.0 -1.120841203304e-03 
0.0 0.0 0.0 
0.0 0.0 0.0 
0.0 0.0 0.0 
-1.320199164535e-03 2.485994904543e-04 0.0 
2.485994904543e-04 8.472368730029e-03 0.0 
0.0 0.0 -1.292233508669e-03 
-1.037229848653e-03 5.491249721839e-05 0.0 
5.491249721839e-05 6.181123680978e-03 0.0 
0.0 0.0 -9.501928138396e-04 
-2.112219927373e-05 -1.374997492072e-03 0.0 
-1.374997492072e-03 9.175924767207e-04 0.0 
0.0 0.0 -3.842015474773e-04 
-1.012609583766e-03 8.895330680236e-05 0.0 
8.895330680236e-05 5.872726185200e-03 0.0 
0.0 0.0 -9.030544305944e-04 
-1.225691657466e-03 3.254133079920e-04 0.0 
3.254133079920e-04 8.211721301461e-03 0.0 
0.0 0.0 -1.271643562581e-03 
-1.073143154962e-03 -3.082428058209e-04 0.0 
-3.082428058209e-04 5.482950483311e-03 0.0 
0.0 0.0 -8.272804529250e-04 
-5.438740280143e-05 6.511305461100e-04 0.0 
6.511305461100e-04 7.683871922543e-05 0.0 
0.0 0.0 -9.621992753141e-06 
-7.676399437614e-04 -3.808740375144e-05 0.0 
-3.808740375144e-05 3.237219166554e-03 0.0 
0.0 0.0 -5.209635072927e-04 
-9.628338005869e-04 -8.201294567373e-05 0.0 
-8.201294567373e-05 4.764994978367e-03 0.0 
0.0 0.0 -7.319997505002e-04 
-1.071554526652e-03 3.282695898754e-04 0.0 
3.282695898754e-04 5.655927594763e-03 0.0 
0.0 0.0 -8.599999999992e-04 
-1.135384068353e-03 1.731479619930e-04 0.0 
1.731479619930e-04 7.715574497297e-03 0.0 
0.0 0.0 -1.232780192057e-03 
-9.798919804233e-04 -2.558628748534e-04 0.0 
-2.558628748534e-04 4.608642650891e-03 0.0 
0.0 0.0 -7.175509632692e-04 
-9.821029958470e-04 -3.508647879924e-05 0.0 
-3.508647879924e-05 4.890525845077e-03 0.0 
0.0 0.0 -7.596628988333e-04 
-1.837560013843e-04 -1.583099615282e-05 0.0 
-1.583099615282e-05 7.060885550868e-04 0.0 
0.0 0.0 -1.551230728613e-04 
-1.279400136320e-03 -1.566945304177e-04 0.0 
-1.566945304177e-04 7.936225660633e-03 0.0 
0.0 0.0 -1.240629869904e-03 
-1.185998620198e-03 6.438056067404e-04 0.0 
6.438056067404e-04 7.550199019485e-03 0.0 
0.0 0.0 -1.186362110037e-03 
2.427830448571e-04 7.191273176983e-04 0.0 
7.191273176983e-04 1.478022189351e-04 0.0 
0.0 0.0 -1.673936844824e-04 
-1.279430862365e-03 -6.414688066309e-05 0.0 
-6.414688066309e-05 8.547621756056e-03 0.0 
0.0 0.0 -1.290349483557e-03 
-1.338884708819e-03 1.031550988355e-04 0.0 
1.031550988355e-04 8.369469127644e-03 0.0 
0.0 0.0 -1.290356026000e-03 
-8.661241169029e-04 -1.497599566473e-04 0.0 
-1.497599566473e-04 5.210623571048e-03 0.0 
0.0 0.0 -7.639788432047e-04 
-1.031081386504e-03 4.454962226943e-05 0.0 
4.454962226943e-05 6.379322053578e-03 0.0 
0.0 0.0 -9.358343396975e-04 
-9.489099175762e-04 2.306915430345e-05 0.0 
2.306915430345e-05 4.686801294291e-03 0.0 
0.0 0.0 -7.108516105536e-04 
-9.490845872611e-04 -2.424415655702e-04 0.0 
-2.424415655702e-04 4.770889395299e-03 0.0 
0.0 0.0 -7.343037059241e-04 
-1.020778085259e-03 -1.236146397605e-04 0.0 
-1.236146397605e-04 5.063951457963e-03 0.0 
0.0 0.0 -7.498489858827e-04 
-1.029397936689e-03 2.088387744417e-04 0.0 
2.088387744417e-04 7.190812739883e-03 0.0 
0.0 0.0 -1.180929064624e-03 
-9.345291821784e-05 -1.000980982166e-03 0.0 
-1.000980982166e-03 8.249248585122e-04 0.0 
0.0 0.0 -3.134879744119e-04 
-1.217539983379e-03 3.641850333419e-04 0.0 
3.641850333419e-04 7.975823276789e-03 0.0 
0.0 0.0 -1.217816617926e-03 
-9.353852917844e-04 8.308411466891e-05 0.0 
8.308411466891e-05 5.379160797006e-03 0.0 
0.0 0.0 -8.376728236383e-04 
-1.321070874734e-03 1.232042406106e-04 0.0 
1.232042406106e-04 8.662379723599e-03 0.0 
0.0 0.0 -1.272153791098e-03 
-1.041736228558e-03 -1.048021857426e-04 0.0 
-1.048021857426e-04 7.166745997700e-03 0.0 
0.0 0.0 -1.181257232468e-03 
-9.798440822242e-04 -3.118370163861e-05 0.0 
-3.118370163861e-05 6.079525789277e-03 0.0 
0.0 0.0 -8.902468719969e-04 
-1.234647512165e-03 5.766899331800e-04 0.0 
5.766899331800e-04 7.752454878246e-03 0.0 
0.0 0.0 -1.201032862555e-03 
-1.158629351689e-03 4.496790680983e-04 0.0 
4.496790680983e-04 7.611289473110e-03 0.0 
0.0 0.0 -1.236767197193e-03 
-1.208868880085e-03 3.342350738492e-04 0.0 
3.342350738492e-04 8.181025928136e-03 0.0 
0.0 0.0 -1.270271405117e-03 
3.097542277649e-05 6.697677954973e-05 0.0 
6.697677954973e-05 7.281263968875e-06 0.0 
0.0 0.0 -1.639572289087e-05 
-1.241892221072e-03 3.317116238901e-04 0.0 
3.317116238901e-04 7.798927866879e-03 0.0 
0.0 0.0 -1.198686027802e-03 
-1.247779771289e-03 6.731204463031e-04 0.0 
6.731204463031e-04 8.074479962319e-03 0.0 
0.0 0.0 -1.227078865044e-03 
-6.925802389634e-05 -2.106877258132e-04 0.0 
-2.106877258132e-04 8.393317830722e-04 0.0 
0.0 0.0 -1.488313462956e-04 
-9.198582411310e-04 -2.516763361700e-04 0.0 
-2.516763361700e-04 4.361749592167e-03 0.0 
0.0 0.0 -6.841365946973e-04 
8.862067450555e-06 2.614979262088e-05 0.0 
2.614979262088e-05 5.345349754713e-06 0.0 
0.0 0.0 -6.088893087972e-06 
-1.270183579808e-03 3.785933793144e-04 0.0 
3.785933793144e-04 8.183372897712e-03 0.0 
0.0 0.0 -1.230789928679e-03 
-4.033215092896e-04 -7.778614931741e-05 0.0 
-7.778614931741e-05 1.971836168127e-03 0.0 
0.0 0.0 -3.377777777778e-04 
-3.699382231426e-04 4.376721251435e-05 0.0 
4.376721251435e-05 2.156467211136e-03 0.0 
0.0 0.0 -3.155555555556e-04 
-4.016272998768e-04 -1.845288611326e-05 0.0 
-1.845288611326e-05 1.842668774100e-03 0.0 
0.0 0.0 -3.377777777778e-04 
-3.684935161298e-04 -1.993514923582e-05 0.0 
-1.993514923582e-05 2.145630754397e-03 0.0 
0.0 0.0 -3.155555555556e-04 
-4.011855839344e-04 -2.170328035969e-05 0.0 
-2.170328035969e-05 1.834448861866e-03 0.0 
0.0 0.0 -3.377777777778e-04 
-3.683179465484e-04 -3.056747774146e-05 0.0 
-3.056747774146e-05 2.144778837340e-03 0.0 
0.0 0.0 -3.155555555556e-04 
-4.018211954014e-04 -2.780572956267e-05 0.0 
-2.780572956267e-05 1.833993179013e-03 0.0 
0.0 0.0 -3.377777777778e-04 
-3.686742478415e-04 -3.749804252556e-05 0.0 
-3.749804252556e-05 2.145064232920e-03 0.0 
0.0 0.0 -3.155555555556e-04 
-4.030678757072e-04 -3.345880157567e-05 0.0 
-3.345880157567e-05 1.834535971790e-03 0.0 
0.0 0.0 -3.377777777778e-04 
-3.691522716313e-04 -4.346216221499e-05 0.0 
-4.346216221499e-05 2.145503780732e-03 0.0 
0.0 0.0 -3.155555555556e-04 
-4.045993123101e-04 -3.863070102539e-05 0.0 
-3.863070102539e-05 1.835247857122e-03 0.0 
0.0 0.0 -3.377777777778e-04 
-3.695638294507e-04 -4.875359068941e-05 0.0 
-4.875359068941e-05 2.145731130156e-03 0.0 
0.0 0.0 -3.155555555556e-04 
-4.062427089130e-04 -4.320299965925e-05 0.0 
-4.320299965925e-05 1.835799445565e-03 0.0 
0.0 0.0 -3.377777777778e-04 
-3.698595625429e-04 -5.325599390528e-05 0.0 
-5.325599390528e-05 2.145551511058e-03 0.0 
0.0 0.0 -3.155555555556e-04 
-4.078831686855e-04 -4.670032855598e-05 0.0 
-4.670032855598e-05 1.836058440315e-03 0.0 
0.0 0.0 -3.377777777778e-04 
-3.701476361833e-04 -5.655748343099e-05 0.0 
-5.655748343099e-05 2.145061402005e-03 0.0 
0.0 0.0 -3.155555555556e-04 
-4.097865858263e-04 -4.883766509846e-05 0.0 
-4.883766509846e-05 1.836127398507e-03 0.0 
0.0 0.0 -3.377777777778e-04 
-3.705672028925e-04 -5.837184754707e-05 0.0 
-5.837184754707e-05 2.144289684407e-03 0.0 
0.0 0.0 -3.155555555556e-04 
-5.653935967421e-04 2.589038202600e-04 0.0 
2.589038202600e-04 2.091415995100e-03 0.0 
0.0 0.0 -3.249092970522e-04 
-4.121128011224e-04 -4.928328914799e-05 0.0 
-4.928328914799e-05 1.836067549886e-03 0.0 
0.0 0.0 -3.377777777778e-04 
-3.712820053512e-04 -5.834505686051e-05 0.0 
-5.834505686051e-05 2.143300562424e-03 0.0 
0.0 0.0 -3.155555555556e-04 
-4.149822806298e-04 -4.778386138389e-05 0.0 
-4.778386138389e-05 1.835943141923e-03 0.0 
0.0 0.0 -3.377777777778e-04 
-4.499219717492e-04 4.087873195919e-04 0.0 
4.087873195919e-04 1.908948706133e-03 0.0 
0.0 0.0 -3.026870748299e-04 
-3.724319144282e-04 -5.606781584101e-05 0.0 
-5.606781584101e-05 2.142071630317e-03 0.0 
0.0 0.0 -3.155555555556e-04 
-4.827616455878e-04 3.472560296512e-04 0.0 
3.472560296512e-04 1.843206052276e-03 0.0 
0.0 0.0 -3.377777777778e-04 
-4.183491724233e-04 -4.389120914971e-05 0.0 
-4.389120914971e-05 1.835749541912e-03 0.0 
0.0 0.0 -3.377777777778e-04 
-3.741758036154e-04 -5.083009705686e-05 0.0 
-5.083009705686e-05 2.140541387055e-03 0.0 
0.0 0.0 -3.155555555556e-04 
-4.222392951633e-04 -3.615193688630e-05 0.0 
-3.615193688630e-05 1.835642333740e-03 0.0 
0.0 0.0 -3.377777777778e-04 
-3.770760666319e-04 -4.180068680568e-05 0.0 
-4.180068680568e-05 2.139581124162e-03 0.0 
0.0 0.0 -3.155555555556e-04 
-4.278559952098e-04 -2.552535737092e-05 0.0 
-2.552535737092e-05 1.836068605962e-03 0.0 
0.0 0.0 -3.377777777778e-04 
-3.812004926473e-04 -2.896900661336e-05 0.0 
-2.896900661336e-05 2.138403848176e-03 0.0 
0.0 0.0 -3.155555555556e-04 
-4.347234955002e-04 -9.637769040496e-06 0.0 
-9.637769040496e-06 1.836924698108e-03 0.0 
0.0 0.0 -3.377777777778e-04 
-3.874106065177e-04 -1.167986006356e-05 0.0 
-1.167986006356e-05 2.138695774024e-03 0.0 
0.0 0.0 -3.155555555556e-04 
-4.895249511417e-04 4.886018197501e-04 0.0 
4.886018197501e-04 2.001115148190e-03 0.0 
0.0 0.0 -3.360204081633e-04 
-4.442787057398e-04 6.686297430374e-06 0.0 
6.686297430374e-06 1.838164453285e-03 0.0 
0.0 0.0 -3.377777777778e-04 
-3.944561044670e-04 1.065381348907e-05 0.0 
1.065381348907e-05 2.135804588402e-03 0.0 
0.0 0.0 -3.155555555556e-04 
-4.522783493514e-04 3.639854830083e-05 0.0 
3.639854830083e-05 1.839070031720e-03 0.0 
0.0 0.0 -3.377777777778e-04 
-4.057145486068e-04 4.085282605461e-05 0.0 
4.085282605461e-05 2.138451035408e-03 0.0 
0.0 0.0 -3.155555555556e-04 
-4.157030431317e-04 7.985792585969e-05 0.0 
7.985792585969e-05 2.128672667394e-03 0.0 
0.0 0.0 -3.155555555556e-04 
-4.676008918457e-04 5.850290515757e-05 0.0 
5.850290515757e-05 1.840319811209e-03 0.0 
0.0 0.0 -3.377777777778e-04 
-4.363605004662e-04 1.324986197952e-04 0.0 
1.324986197952e-04 2.139391523019e-03 0.0 
0.0 0.0 -3.155555555556e-04 
-4.723537878857e-04 1.197226175932e-04 0.0 
1.197226175932e-04 1.839901082374e-03 0.0 
0.0 0.0 -3.377777777778e-04 
-4.460011890219e-04 2.052865052064e-04 0.0 
2.052865052064e-04 2.103272782201e-03 0.0 
0.0 0.0 -3.155555555556e-04 
-4.896063381476e-04 3.095411054930e-04 0.0 
3.095411054930e-04 2.142928166934e-03 0.0 
0.0 0.0 -3.155555555556e-04 
-5.032944312987e-04 1.379640868204e-04 0.0 
1.379640868204e-04 1.839108820748e-03 0.0 
0.0 0.0 -3.377777777778e-04 
-4.654683285949e-04 2.891122881816e-04 0.0 
2.891122881816e-04 1.829855770762e-03 0.0 
0.0 0.0 -3.377777777778e-04 
-4.515745646298e-04 4.124890837139e-04 0.0 
4.124890837139e-04 1.766549858747e-03 0.0 
0.0 0.0 -3.224416353378e-04 
-3.355107645077e-04 -3.692127132912e-04 0.0 
-3.692127132912e-04 1.948567742905e-03 0.0 
0.0 0.0 -3.266666666667e-04 
-4.405370571709e-04 3.529927589174e-04 0.0 
3.529927589174e-04 2.136779321243e-03 0.0 
0.0 0.0 -3.266666666667e-04 
-3.624856686281e-04 -4.168356858480e-05 0.0 
-4.168356858480e-05 1.986351279017e-03 0.0 
0.0 0.0 -3.044444444444e-04 
-4.148028011910e-04 3.671549554757e-05 0.0 
3.671549554757e-05 2.089175803146e-03 0.0 
0.0 0.0 -3.488888888889e-04 
-4.763364629896e-04 5.270582126101e-04 0.0 
5.270582126101e-04 1.817268558159e-03 0.0 
0.0 0.0 -3.044444444444e-04 
-4.477659537340e-04 -7.950766361317e-05 0.0 
-7.950766361317e-05 2.497018706570e-03 0.0 
0.0 0.0 -3.822222222222e-04 
-4.784277234196e-04 3.924857303742e-05 0.0 
3.924857303742e-05 2.307222145021e-03 0.0 
0.0 0.0 -4.044444444444e-04 
-4.460717443213e-04 -1.760020650506e-05 0.0 
-1.760020650506e-05 2.620785785757e-03 0.0 
0.0 0.0 -3.822222222222e-04 
-4.776693350914e-04 -2.066498720173e-05 0.0 
-2.066498720173e-05 2.315002141673e-03 0.0 
0.0 0.0 -4.044444444444e-04 
-4.456300283789e-04 -1.937202289743e-05 0.0 
-1.937202289743e-05 2.625987173940e-03 0.0 
0.0 0.0 -3.822222222222e-04 
-4.779872738303e-04 -2.822274065139e-05 0.0 
-2.822274065139e-05 2.315244018536e-03 0.0 
0.0 0.0 -4.044444444444e-04 
-4.462656398459e-04 -2.485353904084e-05 0.0 
-2.485353904084e-05 2.625990326394e-03 0.0 
0.0 0.0 -3.822222222222e-04 
-4.792475399562e-04 -3.342896736660e-05 0.0 
-3.342896736660e-05 2.315783639058e-03 0.0 
0.0 0.0 -4.044444444444e-04 
-4.475123201517e-04 -3.007054614652e-05 0.0 
-3.007054614652e-05 2.626417310746e-03 0.0 
0.0 0.0 -3.822222222222e-04 
-4.811666376616e-04 -3.852533363394e-05 0.0 
-3.852533363394e-05 2.316598516972e-03 0.0 
0.0 0.0 -4.044444444444e-04 
-4.490437567545e-04 -3.458165382954e-05 0.0 
-3.458165382954e-05 2.627026792857e-03 0.0 
0.0 0.0 -3.822222222222e-04 
-4.837308784237e-04 -4.337502502547e-05 0.0 
-4.337502502547e-05 2.317420315081e-03 0.0 
0.0 0.0 -4.044444444444e-04 
-4.506871533574e-04 -3.830542708958e-05 0.0 
-3.830542708958e-05 2.627509373180e-03 0.0 
0.0 0.0 -3.822222222222e-04 
-4.863200757723e-04 -4.765112576718e-05 0.0 
-4.765112576718e-05 2.317829627755e-03 0.0 
0.0 0.0 -4.044444444444e-04 
-4.523276131299e-04 -4.048193732763e-05 0.0 
-4.048193732763e-05 2.627337923777e-03 0.0 
0.0 0.0 -3.822222222222e-04 
-4.889760674818e-04 -4.992492022024e-05 0.0 
-4.992492022024e-05 2.317964787574e-03 0.0 
0.0 0.0 -4.044444444444e-04 
-4.542310302707e-04 -4.078738031685e-05 0.0 
-4.078738031685e-05 2.626808748623e-03 0.0 
0.0 0.0 -3.822222222222e-04 
-6.056480292920e-04 1.728310757190e-04 0.0 
1.728310757190e-04 2.555848462997e-03 0.0 
0.0 0.0 -3.914586414276e-04 
-4.922399223678e-04 -5.021620544214e-05 0.0 
-5.021620544214e-05 2.317987519249e-03 0.0 
0.0 0.0 -4.044444444444e-04 
-4.565572455669e-04 -3.901111557492e-05 0.0 
-3.901111557492e-05 2.626026613918e-03 0.0 
0.0 0.0 -3.822222222222e-04 
-5.228769148866e-04 2.808757779245e-04 0.0 
2.808757779245e-04 2.304765565320e-03 0.0 
0.0 0.0 -4.044444444444e-04 
-4.963590350670e-04 -4.831763838804e-05 0.0 
-4.831763838804e-05 2.318011659797e-03 0.0 
0.0 0.0 -4.044444444444e-04 
-4.594267250742e-04 -3.511032177588e-05 0.0 
-3.511032177588e-05 2.625123327231e-03 0.0 
0.0 0.0 -3.822222222222e-04 
-5.009386741324e-04 -4.422694573305e-05 0.0 
-4.422694573305e-05 2.317812085855e-03 0.0 
0.0 0.0 -4.044444444444e-04 
-4.627936168678e-04 -2.842261320259e-05 0.0 
-2.842261320259e-05 2.623716732034e-03 0.0 
0.0 0.0 -3.822222222222e-04 
-5.056117799861e-04 -3.698061845559e-05 0.0 
-3.698061845559e-05 2.317065889197e-03 0.0 
0.0 0.0 -4.044444444444e-04 
-4.969269700224e-04 3.515730528913e-04 0.0 
3.515730528913e-04 2.377160801008e-03 0.0 
0.0 0.0 -3.692364192054e-04 
-4.666837396077e-04 -1.712937022343e-05 0.0 
-1.712937022343e-05 2.621232610088e-03 0.0 
0.0 0.0 -3.822222222222e-04 
-5.100907895199e-04 -2.260058306738e-05 0.0 
-2.260058306738e-05 2.316567452783e-03 0.0 
0.0 0.0 -4.044444444444e-04 
-4.723004396542e-04 -1.327751191981e-06 0.0 
-1.327751191981e-06 2.619762185472e-03 0.0 
0.0 0.0 -3.822222222222e-04 
-5.187011541432e-04 -5.611483876821e-06 0.0 
-5.611483876821e-06 2.316745085829e-03 0.0 
0.0 0.0 -4.044444444444e-04 
-4.791679399447e-04 1.929342974835e-05 0.0 
1.929342974835e-05 2.617894304883e-03 0.0 
0.0 0.0 -3.822222222222e-04 
-5.254608326116e-04 1.982980625916e-05 0.0 
1.982980625916e-05 2.317371002369e-03 0.0 
0.0 0.0 -4.044444444444e-04 
-4.887231501843e-04 4.328459530924e-05 0.0 
4.328459530924e-05 2.618567802256e-03 0.0 
0.0 0.0 -3.822222222222e-04 
-5.405598583973e-04 3.929786731890e-05 0.0 
3.929786731890e-05 2.316713537828e-03 0.0 
0.0 0.0 -4.044444444444e-04 
-4.967227937958e-04 7.689551929933e-05 0.0 
7.689551929933e-05 2.610977742846e-03 0.0 
0.0 0.0 -3.822222222222e-04 
-5.395854524473e-04 9.022698348543e-05 0.0 
9.022698348543e-05 2.315628932318e-03 0.0 
0.0 0.0 -4.044444444444e-04 
-5.147397320452e-04 3.920748264294e-04 0.0 
3.920748264294e-04 2.461392887946e-03 0.0 
0.0 0.0 -4.025697525387e-04 
-5.673385880599e-04 1.040653775258e-04 0.0 
1.040653775258e-04 2.310397031327e-03 0.0 
0.0 0.0 -4.044444444444e-04 
-5.120453362902e-04 1.146925732443e-04 0.0 
1.146925732443e-04 2.616352280690e-03 0.0 
0.0 0.0 -3.822222222222e-04 
-5.260367371211e-04 2.288711912235e-04 0.0 
2.288711912235e-04 2.301155937859e-03 0.0 
0.0 0.0 -4.044444444444e-04 
-5.167982323301e-04 1.764431880484e-04 0.0 
1.764431880484e-04 2.586781747074e-03 0.0 
0.0 0.0 -3.822222222222e-04 
-5.477388757432e-04 2.483443472200e-04 0.0 
2.483443472200e-04 2.612103741230e-03 0.0 
0.0 0.0 -3.822222222222e-04 
-4.714062865373e-04 3.406357459183e-04 0.0 
3.406357459183e-04 2.189922889939e-03 0.0 
0.0 0.0 -3.803475303165e-04 
-5.175702617414e-04 -3.703955333214e-04 0.0 
-3.703955333214e-04 2.521693289409e-03 0.0 
0.0 0.0 -3.933333333333e-04 
-4.117702287809e-04 3.510487114528e-04 0.0 
3.510487114528e-04 2.332080967614e-03 0.0 
0.0 0.0 -3.933333333333e-04 
-4.910475754552e-04 -4.353211321374e-05 0.0 
-4.353211321374e-05 2.483691270875e-03 0.0 
0.0 0.0 -4.155555555556e-04 
-4.370250234133e-04 3.548953741690e-05 0.0 
3.548953741690e-05 2.379928122617e-03 0.0 
0.0 0.0 -3.711111111111e-04 
-5.160949789211e-04 4.252800565549e-04 0.0 
4.252800565549e-04 2.291829436572e-03 0.0 
0.0 0.0 -3.711111111111e-04 
-5.545130018070e-04 -8.178037886237e-05 0.0 
-8.178037886237e-05 2.909623846630e-03 0.0 
0.0 0.0 -4.711111111111e-04 
-5.228721678640e-04 4.028587622300e-05 0.0 
4.028587622300e-05 3.096271718330e-03 0.0 
0.0 0.0 -4.488888888889e-04 
-5.533691474050e-04 -1.923275015253e-05 0.0 
-1.923275015253e-05 2.782205362795e-03 0.0 
0.0 0.0 -4.711111111111e-04 
-5.221137795359e-04 -1.919255201181e-05 0.0 
-1.919255201181e-05 3.085550305381e-03 0.0 
0.0 0.0 -4.488888888889e-04 
-5.530109392803e-04 -1.824425838804e-05 0.0 
-1.824425838804e-05 2.774559112815e-03 0.0 
0.0 0.0 -4.711111111111e-04 
-5.224317182748e-04 -2.502826317864e-05 0.0 
-2.502826317864e-05 3.085006659223e-03 0.0 
0.0 0.0 -4.488888888889e-04 
-5.547362962008e-04 -2.086138494889e-05 0.0 
-2.086138494889e-05 2.774413059491e-03 0.0 
0.0 0.0 -4.711111111111e-04 
-5.236919844007e-04 -2.854587035644e-05 0.0 
-2.854587035644e-05 3.085493683001e-03 0.0 
0.0 0.0 -4.488888888889e-04 
-5.568332374197e-04 -2.401854184227e-05 0.0 
-2.401854184227e-05 2.775119097809e-03 0.0 
0.0 0.0 -4.711111111111e-04 
-5.256110821061e-04 -3.168208470033e-05 0.0 
-3.168208470033e-05 3.086241768691e-03 0.0 
0.0 0.0 -4.488888888889e-04 
-5.598758616072e-04 -2.649602084230e-05 0.0 
-2.649602084230e-05 2.776179524696e-03 0.0 
0.0 0.0 -4.711111111111e-04 
-5.281753228681e-04 -3.429831362401e-05 0.0 
-3.429831362401e-05 3.087276348172e-03 0.0 
0.0 0.0 -4.488888888889e-04 
-5.637335880510e-04 -2.986966676234e-05 0.0 
-2.986966676234e-05 2.777348666577e-03 0.0 
0.0 0.0 -4.711111111111e-04 
-5.307645202168e-04 -3.678054343318e-05 0.0 
-3.678054343318e-05 3.087110497831e-03 0.0 
0.0 0.0 -4.488888888889e-04 
-5.672516091013e-04 -3.170316921858e-05 0.0 
-3.170316921858e-05 2.777585456228e-03 0.0 
0.0 0.0 -4.711111111111e-04 
-5.334205119262e-04 -3.725348252055e-05 0.0 
-3.725348252055e-05 3.086025479628e-03 0.0 
0.0 0.0 -4.488888888889e-04 
-6.732559192872e-04 1.069454178643e-04 0.0 
1.069454178643e-04 3.029509612801e-03 0.0 
0.0 0.0 -4.582426303855e-04 
-5.702546095882e-04 -3.020263056991e-05 0.0 
-3.020263056991e-05 2.777240536398e-03 0.0 
0.0 0.0 -4.711111111111e-04 
-5.366843668123e-04 -3.453855403530e-05 0.0 
-3.453855403530e-05 3.085220328545e-03 0.0 
0.0 0.0 -4.488888888889e-04 
-5.576127008399e-04 2.593782929634e-04 0.0 
2.593782929634e-04 2.842420570206e-03 0.0 
0.0 0.0 -4.360204081633e-04 
-5.755921041128e-04 -2.584209849049e-05 0.0 
-2.584209849049e-05 2.777326176010e-03 0.0 
0.0 0.0 -4.711111111111e-04 
-5.408034795114e-04 -2.962006398500e-05 0.0 
-2.962006398500e-05 3.084571096852e-03 0.0 
0.0 0.0 -4.488888888889e-04 
-5.797090102450e-04 2.287706001101e-04 0.0 
2.287706001101e-04 2.761834444076e-03 0.0 
0.0 0.0 -4.711111111111e-04 
-5.815224328378e-04 -2.044759247011e-05 0.0 
-2.044759247011e-05 2.777381230694e-03 0.0 
0.0 0.0 -4.711111111111e-04 
-5.453831185768e-04 -2.258268294197e-05 0.0 
-2.258268294197e-05 3.083167530034e-03 0.0 
0.0 0.0 -4.488888888889e-04 
-5.869514963865e-04 -1.328471433010e-05 0.0 
-1.328471433010e-05 2.776586963506e-03 0.0 
0.0 0.0 -4.711111111111e-04 
-5.500562244305e-04 -1.211537895153e-05 0.0 
-1.211537895153e-05 3.080223364949e-03 0.0 
0.0 0.0 -4.488888888889e-04 
-5.924946390174e-04 -2.438932199996e-06 0.0 
-2.438932199996e-06 2.774392434348e-03 0.0 
0.0 0.0 -4.711111111111e-04 
-5.545352339644e-04 4.923705994678e-06 0.0 
4.923705994678e-06 3.074068870883e-03 0.0 
0.0 0.0 -4.488888888889e-04 
-5.832002113226e-04 3.084013380276e-04 0.0 
3.084013380276e-04 2.928576946329e-03 0.0 
0.0 0.0 -4.693537414966e-04 
-5.957418463706e-04 2.457513506605e-05 0.0 
2.457513506605e-05 2.772161347741e-03 0.0 
0.0 0.0 -4.711111111111e-04 
-5.631455985877e-04 2.981682976181e-05 0.0 
2.981682976181e-05 3.075944045931e-03 0.0 
0.0 0.0 -4.488888888889e-04 
-6.088382110079e-04 4.080604098374e-05 0.0 
4.080604098374e-05 2.772254412647e-03 0.0 
0.0 0.0 -4.711111111111e-04 
-5.699052770561e-04 5.777344855823e-05 0.0 
5.777344855823e-05 3.067169222988e-03 0.0 
0.0 0.0 -4.488888888889e-04 
-5.850043028418e-04 9.074123042683e-05 0.0 
9.074123042683e-05 3.079028566329e-03 0.0 
0.0 0.0 -4.488888888889e-04 
-6.115132190535e-04 8.765179825616e-05 0.0 
8.765179825616e-05 2.771111166917e-03 0.0 
0.0 0.0 -4.711111111111e-04 
-5.840298968917e-04 1.336949722933e-04 0.0 
1.336949722933e-04 3.039780976699e-03 0.0 
0.0 0.0 -4.488888888889e-04 
-6.359355392830e-04 7.860855074454e-05 0.0 
7.860855074454e-05 2.767946632045e-03 0.0 
0.0 0.0 -4.711111111111e-04 
-6.117830325044e-04 2.038036979565e-04 0.0 
2.038036979565e-04 3.073336866825e-03 0.0 
0.0 0.0 -4.488888888889e-04 
-5.855262073870e-04 1.964620808073e-04 0.0 
1.964620808073e-04 2.752718067293e-03 0.0 
0.0 0.0 -4.711111111111e-04 
-5.381153397062e-04 2.290411015667e-04 0.0 
2.290411015667e-04 2.647470749537e-03 0.0 
0.0 0.0 -4.471315192744e-04 
-4.856995794812e-04 -3.712445804859e-04 0.0 
-3.712445804859e-04 2.886533165746e-03 0.0 
0.0 0.0 -4.600000000000e-04 
-5.915156838414e-04 3.511510416328e-04 0.0 
3.511510416328e-04 3.076032758812e-03 0.0 
0.0 0.0 -4.600000000000e-04 
-5.132697976774e-04 -4.266972038985e-05 0.0 
-4.266972038985e-05 2.924617726937e-03 0.0 
0.0 0.0 -4.377777777778e-04 
-5.653819698478e-04 3.554715819272e-05 0.0 
3.554715819272e-05 3.026667072190e-03 0.0 
0.0 0.0 -4.822222222222e-04 
-5.562102482200e-04 3.031448983604e-04 0.0 
3.031448983604e-04 2.748233394595e-03 0.0 
0.0 0.0 -4.377777777778e-04 
-5.989574462514e-04 -8.267193208917e-05 0.0 
-8.267193208917e-05 3.437613023720e-03 0.0 
0.0 0.0 -5.155555555556e-04 
-6.287787412401e-04 3.729317259218e-05 0.0 
3.729317259218e-05 3.247326925229e-03 0.0 
0.0 0.0 -5.377777777778e-04 
-5.978135918495e-04 -1.841914986540e-05 0.0 
-1.841914986540e-05 3.561201795145e-03 0.0 
0.0 0.0 -5.155555555556e-04 
-6.254961344599e-04 -1.930049853369e-05 0.0 
-1.930049853369e-05 3.253947423147e-03 0.0 
0.0 0.0 -5.377777777778e-04 
-5.974553837247e-04 -1.391156406088e-05 0.0 
-1.391156406088e-05 3.564621634950e-03 0.0 
0.0 0.0 -5.155555555556e-04 
-6.279936331018e-04 -1.935706142364e-05 0.0 
-1.935706142364e-05 3.255345558208e-03 0.0 
0.0 0.0 -5.377777777778e-04 
-5.991807406452e-04 -1.614264760927e-05 0.0 
-1.614264760927e-05 3.566069321236e-03 0.0 
0.0 0.0 -5.155555555556e-04 
-6.284144790130e-04 -2.147959664663e-05 0.0 
-2.147959664663e-05 3.255656571766e-03 0.0 
0.0 0.0 -5.377777777778e-04 
-6.012776818642e-04 -1.696499576587e-05 0.0 
-1.696499576587e-05 3.566126567533e-03 0.0 
0.0 0.0 -5.155555555556e-04 
-6.315481358764e-04 -2.174087039821e-05 0.0 
-2.174087039821e-05 3.256770810453e-03 0.0 
0.0 0.0 -5.377777777778e-04 
-6.043203060517e-04 -1.757798620874e-05 0.0 
-1.757798620874e-05 3.567144862765e-03 0.0 
0.0 0.0 -5.155555555556e-04 
-6.347436721796e-04 -2.174327211569e-05 0.0 
-2.174327211569e-05 3.258179294352e-03 0.0 
0.0 0.0 -5.377777777778e-04 
-6.081780324954e-04 -1.832425526294e-05 0.0 
-1.832425526294e-05 3.568559060354e-03 0.0 
0.0 0.0 -5.155555555556e-04 
-6.411680495803e-04 -2.482988994377e-05 0.0 
-2.482988994377e-05 3.259134830210e-03 0.0 
0.0 0.0 -5.377777777778e-04 
-6.116960535458e-04 -1.877149855027e-05 0.0 
-1.877149855027e-05 3.568744272090e-03 0.0 
0.0 0.0 -5.155555555556e-04 
-7.366276609701e-04 4.524951182865e-05 0.0 
4.524951182865e-05 3.507320200516e-03 0.0 
0.0 0.0 -5.247732426303e-04 
-6.420523831112e-04 -2.583218201805e-05 0.0 
-2.583218201805e-05 3.257046679515e-03 0.0 
0.0 0.0 -5.377777777778e-04 
-6.435781206746e-04 1.840534884814e-04 0.0 
1.840534884814e-04 3.241318968686e-03 0.0 
0.0 0.0 -5.377777777778e-04 
-6.146990540326e-04 -1.244484207344e-05 0.0 
-1.244484207344e-05 3.564885876854e-03 0.0 
0.0 0.0 -5.155555555556e-04 
-6.478721701654e-04 -1.639725233752e-05 0.0 
-1.639725233752e-05 3.256970335869e-03 0.0 
0.0 0.0 -5.377777777778e-04 
-6.200365485572e-04 -5.018436089581e-06 0.0 
-5.018436089581e-06 3.564885905457e-03 0.0 
0.0 0.0 -5.155555555556e-04 
-6.561429566816e-04 -9.551464893356e-06 0.0 
-9.551464893356e-06 3.257786223678e-03 0.0 
0.0 0.0 -5.377777777778e-04 
-6.259668772823e-04 2.319967205521e-06 0.0 
2.319967205521e-06 3.565031180513e-03 0.0 
0.0 0.0 -5.155555555556e-04 
-6.615288143992e-04 -3.165343597243e-06 0.0 
-3.165343597243e-06 3.256616812139e-03 0.0 
0.0 0.0 -5.377777777778e-04 
-6.169661166839e-04 2.164901621932e-04 0.0 
2.164901621932e-04 3.318852114050e-03 0.0 
0.0 0.0 -5.025510204081e-04 
-6.313959408309e-04 1.331766061821e-05 0.0 
1.331766061821e-05 3.562071063365e-03 0.0 
0.0 0.0 -5.155555555556e-04 
-6.676626850749e-04 8.412288321031e-06 0.0 
8.412288321031e-06 3.254047861299e-03 0.0 
0.0 0.0 -5.377777777778e-04 
-6.369390834618e-04 2.839501316983e-05 0.0 
2.839501316983e-05 3.557766628637e-03 0.0 
0.0 0.0 -5.155555555556e-04 
-6.757465811746e-04 2.011236031009e-05 0.0 
2.011236031009e-05 3.248279072062e-03 0.0 
0.0 0.0 -5.377777777778e-04 
-6.401862908150e-04 5.683403292324e-05 0.0 
5.683403292324e-05 3.544903684413e-03 0.0 
0.0 0.0 -5.155555555556e-04 
-6.710900969960e-04 7.145474225899e-05 0.0 
7.145474225899e-05 3.246321760371e-03 0.0 
0.0 0.0 -5.377777777778e-04 
-6.532826554523e-04 8.457965391973e-05 0.0 
8.457965391973e-05 3.553131858142e-03 0.0 
0.0 0.0 -5.155555555556e-04 
-7.020590348485e-04 7.312181654746e-05 0.0 
7.312181654746e-05 3.244705541191e-03 0.0 
0.0 0.0 -5.377777777778e-04 
-6.554115117610e-04 1.658740749447e-04 0.0 
1.658740749447e-04 3.237354480524e-03 0.0 
0.0 0.0 -5.377777777778e-04 
-6.559576634980e-04 1.237219721845e-04 0.0 
1.237219721845e-04 3.531755926188e-03 0.0 
0.0 0.0 -5.155555555556e-04 
-6.411111436525e-04 2.481500458011e-04 0.0 
2.481500458011e-04 3.407080026122e-03 0.0 
0.0 0.0 -5.358843537414e-04 
-6.803799837275e-04 1.624927648151e-04 0.0 
1.624927648151e-04 3.558426467577e-03 0.0 
0.0 0.0 -5.155555555556e-04 
-5.945151412269e-04 1.812873307433e-04 0.0 
1.812873307433e-04 3.113616278940e-03 0.0 
0.0 0.0 -5.136621315192e-04 
-6.672833179301e-04 -3.706793032750e-04 0.0 
-3.706793032750e-04 3.459056007774e-03 0.0 
0.0 0.0 -5.266666666667e-04 
-5.623773213514e-04 3.513666038768e-04 0.0 
3.513666038768e-04 3.271176697744e-03 0.0 
0.0 0.0 -5.266666666667e-04 
-6.406200246206e-04 -4.190627532401e-05 0.0 
-4.190627532401e-05 3.422026805713e-03 0.0 
0.0 0.0 -5.488888888889e-04 
-5.876041920701e-04 3.555034108668e-05 0.0 
3.555034108668e-05 3.319473246611e-03 0.0 
0.0 0.0 -5.044444444444e-04 
-6.130423435783e-04 2.369057836334e-04 0.0 
2.369057836334e-04 3.223253934296e-03 0.0 
0.0 0.0 -5.044444444444e-04 
-7.120623447180e-04 -8.888228388160e-05 0.0 
-8.888228388160e-05 3.852748437753e-03 0.0 
0.0 0.0 -6.044444444444e-04 
-6.732231856846e-04 3.548631982699e-05 0.0 
3.548631982699e-05 4.032087244247e-03 0.0 
0.0 0.0 -5.822222222222e-04 
-6.955393523700e-04 -2.756019485512e-05 0.0 
-2.756019485512e-05 3.717267839696e-03 0.0 
0.0 0.0 -6.044444444444e-04 
-6.699405789043e-04 -1.870355497797e-05 0.0 
-1.870355497797e-05 4.017496801865e-03 0.0 
0.0 0.0 -5.822222222222e-04 
-6.969243199369e-04 -6.918496173234e-06 0.0 
-6.918496173234e-06 3.707462619531e-03 0.0 
0.0 0.0 -6.044444444444e-04 
-6.724380775462e-04 -1.325710265715e-05 0.0 
-1.325710265715e-05 4.022403973257e-03 0.0 
0.0 0.0 -5.822222222222e-04 
-7.031503284102e-04 -1.402242021930e-05 0.0 
-1.402242021930e-05 3.711320333832e-03 0.0 
0.0 0.0 -6.044444444444e-04 
-6.728589234574e-04 -1.646685933992e-05 0.0 
-1.646685933992e-05 4.018646007482e-03 0.0 
0.0 0.0 -5.822222222222e-04 
-6.992489626615e-04 -7.571363959488e-06 0.0 
-7.571363959488e-06 3.708933191906e-03 0.0 
0.0 0.0 -6.044444444444e-04 
-6.759925803209e-04 -1.073738973976e-05 0.0 
-1.073738973976e-05 4.021950250257e-03 0.0 
0.0 0.0 -5.822222222222e-04 
-7.070575680629e-04 -7.158521352799e-06 0.0 
-7.158521352799e-06 3.711746084396e-03 0.0 
0.0 0.0 -6.044444444444e-04 
-6.791881166240e-04 -9.268059005098e-06 0.0 
-9.268059005098e-06 4.020971144871e-03 0.0 
0.0 0.0 -5.822222222222e-04 
-7.076120858666e-04 1.215276486099e-06 0.0 
1.215276486099e-06 3.712281244356e-03 0.0 
0.0 0.0 -6.044444444444e-04 
-7.999876507941e-04 1.388374683100e-05 0.0 
1.388374683100e-05 3.980152954303e-03 0.0 
0.0 0.0 -5.915759637188e-04 
-6.856124940247e-04 -4.086926393719e-06 0.0 
-4.086926393719e-06 4.027577169899e-03 0.0 
0.0 0.0 -5.822222222222e-04 
-7.178528616705e-04 -1.309284787321e-05 0.0 
-1.309284787321e-05 3.714901656250e-03 0.0 
0.0 0.0 -6.044444444444e-04 
-6.869874754798e-04 1.711534318409e-04 0.0 
1.711534318409e-04 3.792214840593e-03 0.0 
0.0 0.0 -5.693537414966e-04 
-6.864968275557e-04 -6.408579358671e-06 0.0 
-6.408579358671e-06 4.016159600688e-03 0.0 
0.0 0.0 -5.822222222222e-04 
-7.178783193932e-04 5.819993202574e-06 0.0 
5.819993202574e-06 3.708927247396e-03 0.0 
0.0 0.0 -6.044444444444e-04 
-7.079394544223e-04 1.566312145644e-04 0.0 
1.566312145644e-04 3.702391321003e-03 0.0 
0.0 0.0 -6.044444444444e-04 
-6.923166146099e-04 7.612225445440e-06 0.0 
7.612225445440e-06 4.017109289765e-03 0.0 
0.0 0.0 -5.822222222222e-04 
-7.279989213735e-04 2.036390614473e-05 0.0 
2.036390614473e-05 3.710913040149e-03 0.0 
0.0 0.0 -6.044444444444e-04 
-7.005874011261e-04 1.845814163449e-05 0.0 
1.845814163449e-05 4.020938657480e-03 0.0 
0.0 0.0 -5.822222222222e-04 
-7.354917532623e-04 2.057235382585e-05 0.0 
2.057235382585e-05 3.711839010969e-03 0.0 
0.0 0.0 -6.044444444444e-04 
-7.059732588437e-04 2.754521474697e-05 0.0 
2.754521474697e-05 4.015383430286e-03 0.0 
0.0 0.0 -5.822222222222e-04 
-7.002855080047e-04 1.990014593216e-04 0.0 
1.990014593216e-04 3.872918840521e-03 0.0 
0.0 0.0 -6.026870748299e-04 
-7.379521818036e-04 3.377279504907e-05 0.0 
3.377279504907e-05 3.707685656258e-03 0.0 
0.0 0.0 -6.044444444444e-04 
-7.121071295194e-04 4.529492266530e-05 0.0 
4.529492266530e-05 4.010298093341e-03 0.0 
0.0 0.0 -5.822222222222e-04 
-7.201910256190e-04 6.322353710792e-05 0.0 
6.322353710792e-05 4.009272868238e-03 0.0 
0.0 0.0 -5.822222222222e-04 
-7.467651792935e-04 5.478281511635e-05 0.0 
5.478281511635e-05 3.704632746345e-03 0.0 
0.0 0.0 -6.044444444444e-04 
-7.155345414404e-04 9.941872455418e-05 0.0 
9.941872455418e-05 3.968551508246e-03 0.0 
0.0 0.0 -5.822222222222e-04 
-7.657386443158e-04 4.703626451468e-05 0.0 
4.703626451468e-05 3.695451234596e-03 0.0 
0.0 0.0 -6.044444444444e-04 
-7.465034792929e-04 1.491483542401e-04 0.0 
1.491483542401e-04 4.023442400313e-03 0.0 
0.0 0.0 -5.822222222222e-04 
-7.198395015582e-04 1.725743928124e-04 0.0 
1.725743928124e-04 3.686227600280e-03 0.0 
0.0 0.0 -6.044444444444e-04 
-6.565140853496e-04 1.301780499699e-04 0.0 
1.301780499699e-04 3.583317050774e-03 0.0 
0.0 0.0 -5.804648526077e-04 
-6.267004692735e-04 -3.600267132829e-04 0.0 
-3.600267132829e-04 3.813319755553e-03 0.0 
0.0 0.0 -5.933333333333e-04 
-7.431964593305e-04 3.646450588748e-04 0.0 
3.646450588748e-04 4.021679577105e-03 0.0 
0.0 0.0 -5.933333333333e-04 
-6.628422468428e-04 -3.292224140382e-05 0.0 
-3.292224140382e-05 3.861928425764e-03 0.0 
0.0 0.0 -5.711111111111e-04 
-7.088162572225e-04 5.311123185713e-05 0.0 
5.311123185713e-05 3.959617699405e-03 0.0 
0.0 0.0 -6.155555555556e-04 
-6.769114540080e-04 1.825624503540e-04 0.0 
1.825624503540e-04 3.695515009073e-03 0.0 
0.0 0.0 -5.711111111111e-04 
-7.565067891625e-04 -1.155535297541e-04 0.0 
-1.155535297541e-04 4.407218847534e-03 0.0 
0.0 0.0 -6.488888888889e-04 
-7.530504053033e-04 -7.571813069496e-06 0.0 
-7.571813069496e-06 4.174991140514e-03 0.0 
0.0 0.0 -6.711111111111e-04 
-7.399837968145e-04 -1.387977928634e-05 0.0 
-1.387977928634e-05 4.486504988785e-03 0.0 
0.0 0.0 -6.488888888889e-04 
-7.729838338639e-04 -1.329064737435e-05 0.0 
-1.329064737435e-05 4.184890785187e-03 0.0 
0.0 0.0 -6.711111111111e-04 
-7.413687643813e-04 -3.949381470416e-07 0.0 
-3.949381470416e-07 4.494790911899e-03 0.0 
0.0 0.0 -6.488888888889e-04 
-7.742938489980e-04 3.545636067961e-06 0.0 
3.545636067961e-06 4.195489456373e-03 0.0 
0.0 0.0 -6.711111111111e-04 
-7.475947728547e-04 -1.447276125001e-05 0.0 
-1.447276125001e-05 4.508658415556e-03 0.0 
0.0 0.0 -6.488888888889e-04 
-7.647771457920e-04 -2.472289036545e-05 0.0 
-2.472289036545e-05 4.185138013304e-03 0.0 
0.0 0.0 -6.711111111111e-04 
-7.436934071060e-04 3.939866511849e-06 0.0 
3.939866511849e-06 4.492058634297e-03 0.0 
0.0 0.0 -6.488888888889e-04 
-7.721102977711e-04 1.191369759528e-05 0.0 
1.191369759528e-05 4.191715436034e-03 0.0 
0.0 0.0 -6.711111111111e-04 
-7.515020125074e-04 1.948179168996e-06 0.0 
1.948179168996e-06 4.504635429055e-03 0.0 
0.0 0.0 -6.488888888889e-04 
-7.788311265265e-04 -5.657460917598e-06 0.0 
-5.657460917598e-06 4.190705067530e-03 0.0 
0.0 0.0 -6.711111111111e-04 
-8.662964799625e-04 -2.454914467333e-05 0.0 
-2.454914467333e-05 4.459732268515e-03 0.0 
0.0 0.0 -6.580807474504e-04 
-7.520565303110e-04 1.109064528774e-05 0.0 
1.109064528774e-05 4.498175075181e-03 0.0 
0.0 0.0 -6.488888888889e-04 
-8.155020730708e-04 1.528373870012e-04 0.0 
1.528373870012e-04 4.186625771973e-03 0.0 
0.0 0.0 -6.711111111111e-04 
-7.586605293786e-04 2.791301751342e-05 0.0 
2.791301751342e-05 4.190794983268e-03 0.0 
0.0 0.0 -6.711111111111e-04 
-7.622973061150e-04 1.699730231297e-05 0.0 
1.699730231297e-05 4.505906138033e-03 0.0 
0.0 0.0 -6.488888888889e-04 
-7.955711925846e-04 8.033031112467e-08 0.0 
8.033031112467e-08 4.188331241414e-03 0.0 
0.0 0.0 -6.711111111111e-04 
-7.623227638377e-04 3.400576865185e-05 0.0 
3.400576865185e-05 4.489689491926e-03 0.0 
0.0 0.0 -6.488888888889e-04 
-8.006770446683e-04 3.868285750203e-05 0.0 
3.868285750203e-05 4.189917974469e-03 0.0 
0.0 0.0 -6.711111111111e-04 
-7.724433658179e-04 4.171040082635e-05 0.0 
4.171040082635e-05 4.499618609463e-03 0.0 
0.0 0.0 -6.488888888889e-04 
-7.971982277132e-04 4.334547048389e-05 0.0 
4.334547048389e-05 4.190772542348e-03 0.0 
0.0 0.0 -6.711111111111e-04 
-7.512535823419e-04 1.572109300169e-04 0.0 
1.572109300169e-04 4.272969555894e-03 0.0 
0.0 0.0 -6.358585252281e-04 
-7.799361977067e-04 4.942380984451e-05 0.0 
4.942380984451e-05 4.500436321571e-03 0.0 
0.0 0.0 -6.488888888889e-04 
-8.019717863413e-04 4.151088876834e-05 0.0 
4.151088876834e-05 4.184126944351e-03 0.0 
0.0 0.0 -6.711111111111e-04 
-7.823966262481e-04 7.184392993936e-05 0.0 
7.184392993936e-05 4.484862014071e-03 0.0 
0.0 0.0 -6.488888888889e-04 
-8.006840076862e-04 7.791811278218e-05 0.0 
7.791811278218e-05 4.176001510022e-03 0.0 
0.0 0.0 -6.711111111111e-04 
-8.039640851074e-04 1.263508000003e-04 0.0 
1.263508000003e-04 4.174705869658e-03 0.0 
0.0 0.0 -6.711111111111e-04 
-7.912096237380e-04 1.071509718730e-04 0.0 
1.071509718730e-04 4.477799006040e-03 0.0 
0.0 0.0 -6.488888888889e-04 
-8.101830887602e-04 1.288493200629e-04 0.0 
1.288493200629e-04 4.489610393156e-03 0.0 
0.0 0.0 -6.488888888889e-04 
-7.617757652904e-04 1.684528749010e-04 0.0 
1.684528749010e-04 4.355354044839e-03 0.0 
0.0 0.0 -6.691918585615e-04 
-7.171747419539e-04 1.190543822742e-04 0.0 
1.190543822742e-04 4.056731334660e-03 0.0 
0.0 0.0 -6.469696363393e-04 
-8.025731129306e-04 -3.241456630719e-04 0.0 
-3.241456630719e-04 4.358910586267e-03 0.0 
0.0 0.0 -6.600000000000e-04 
-7.344440083408e-04 3.911518351984e-04 0.0 
3.911518351984e-04 4.236731495882e-03 0.0 
0.0 0.0 -6.600000000000e-04 
-8.045282767906e-04 1.783825891024e-05 0.0 
1.783825891024e-05 4.360632635982e-03 0.0 
0.0 0.0 -6.822222222222e-04 
-7.310384794447e-04 6.338117589491e-05 0.0 
6.338117589491e-05 4.247438367621e-03 0.0 
0.0 0.0 -6.377777777778e-04 
-7.412727877556e-04 1.381235162240e-04 0.0 
1.381235162240e-04 4.183483937710e-03 0.0 
0.0 0.0 -6.377777777778e-04 

SCALARS element_materi_plasti_kappa_shear float
LOOKUP_TABLE default
2.048251484052e-03
1.753493670412e-03
5.503175940454e-03
5.633931869583e-03
3.565227349428e-03
4.312193749307e-04
3.536826958687e-03
1.942063469917e-03
3.582504689508e-03
5.588174946624e-03
3.844209359202e-03
1.631469581520e-03
5.512057153720e-03
3.809200862045e-03
5.604521952288e-03
5.734301458091e-03
3.547028291065e-03
0.0
1.240065727301e-03
1.171297693899e-03
5.622446392520e-03
2.066758337528e-03
2.250687853245e-03
4.978061567755e-03
4.048291547957e-03
4.106723662793e-03
3.275000549148e-03
5.494131578830e-03
4.059702375831e-03
5.136982028010e-03
1.134770329222e-03
3.832632936293e-04
5.695120532744e-03
4.786861567557e-03
5.372391993924e-03
5.735141668293e-03
5.753517229623e-03
5.201200685639e-03
3.236338684528e-03
3.281036968799e-03
2.549446708275e-03
5.321786045187e-03
1.684174276636e-03
3.149604634892e-03
5.511212370387e-03
1.565690788834e-03
3.220151479937e-04
5.403179619290e-03
4.290285994575e-06
3.669652725762e-03
2.409350294786e-03
1.545192749097e-03
1.201581906209e-03
2.359715905779e-03
5.581390730101e-03
2.049040073899e-03
1.507776831990e-03
4.806180650684e-03
9.040347839122e-04
5.734539432202e-03
0.0
5.036447355686e-03
2.389363153128e-03
1.200719454992e-03
5.502622384469e-03
2.208078500699e-03
0.0
5.645939813077e-03
1.388688876148e-03
5.450080675048e-03
4.240450452081e-03
5.844447616816e-03
5.127619557211e-03
3.940968838013e-04
2.067872878458e-03
5.628694369718e-03
5.723406412390e-03
1.349407449673e-03
8.084468878613e-04
1.429030436914e-03
1.215963319167e-03
3.393097464491e-03
2.129508046084e-03
1.864830702236e-03
3.733526205207e-03
3.714125906962e-03
4.361075697200e-03
4.690746124938e-03
4.783172209268e-03
3.514212606547e-03
2.589608648574e-04
3.431550400288e-03
4.721859888672e-03
4.746077057757e-03
5.997543046696e-03
5.411150761547e-03
3.393913313148e-03
5.491004293201e-03
3.985594967259e-03
2.258571385844e-03
3.410992711845e-03
5.611034212900e-03
4.179507938013e-03
5.032886742806e-03
2.003062331599e-03
8.956760759698e-04
5.221382607798e-03
5.045193140480e-03
2.261908350145e-04
5.486842463624e-03
4.573653062054e-03
3.479980613032e-04
2.502076270832e-03
3.167763418157e-03
2.487000496226e-03
2.126059688753e-03
2.273861626040e-03
5.451016480833e-03
3.919789090778e-03
2.281181173819e-03
1.213076248653e-03
3.513689619667e-03
4.941959880695e-03
2.106608397091e-03
9.726897685994e-04
2.859921274722e-03
2.565005698292e-03
2.680460766149e-03
5.737782286007e-03
9.785758943601e-04
4.027728111069e-03
5.636355074510e-03
2.835365156538e-03
2.709046400113e-03
5.353249069116e-03
5.532349028915e-03
4.348743351020e-03
2.978900291729e-03
5.411429688504e-03
2.744221608962e-03
5.616125922486e-03
5.613692443858e-03
3.766204035722e-03
4.391065799997e-03
2.718404295077e-03
2.533253388883e-03
3.087137023846e-03
2.200470782986e-03
3.492820352654e-03
2.363376362537e-03
2.621382727248e-04
3.747049311015e-03
8.605114628174e-04
3.020514546332e-03
5.290806449770e-03
2.186313469297e-03
4.518027699077e-03
1.606142966517e-03
4.209701847448e-03
3.408465456370e-03
2.321856290079e-03
4.941287181334e-03
1.029170670083e-03
5.207270841350e-03
3.386399557435e-03
5.629077659096e-03
3.402534046100e-03
2.143777464895e-03
2.980585492464e-03
3.978529564445e-03
1.797981043136e-03
2.131947395522e-03
4.565545625096e-03
3.526561441315e-03
2.292273163024e-03
2.831954602171e-03
4.902639283245e-03
2.846109516762e-03
5.344131269157e-03
5.581762834167e-03
2.045482988632e-03
2.739998364567e-03
4.670836610536e-03
2.636378907130e-03
1.901753547338e-03
3.276383508295e-03
2.394214224877e-03
5.640432630144e-03
4.649191975422e-03
5.084010659974e-03
1.450852845402e-03
1.891185196908e-03
4.756649167095e-03
0.0
2.645910748192e-03
4.353987082835e-03
6.693198157630e-04
5.577145383260e-03
4.311674069402e-03
2.424063329831e-03
4.308254875087e-03
3.768016172911e-03
3.975429040763e-03
5.123403257528e-03
1.968551576487e-03
3.168679698929e-03
3.489417411141e-03
4.497775965736e-03
3.554143506731e-03
3.272990497602e-03
3.636148199777e-03
4.777873359821e-03
0.0
2.054332000673e-03
2.292338041600e-03
3.059823040950e-03
4.848669964181e-03
7.411939793981e-04
4.203239612195e-03
3.403528574950e-03
2.120618832016e-03
4.069098148087e-03
4.246264766717e-04
4.599464078276e-03
3.476148306084e-04
5.410341703710e-04
1.592193211171e-03
1.719248331945e-03
4.782293510667e-03
1.815734887217e-03
1.844404593867e-03
1.618505664870e-03
1.146822852731e-03
4.464359441945e-03
3.377702223347e-03
5.506088258921e-03
0.0
2.009805297429e-03
2.302243100894e-03
2.481153461484e-03
4.143768537590e-03
5.606441244158e-03
4.559795208237e-03
1.455328493326e-03
4.488396010045e-03
4.213382192652e-03
3.236971907541e-03
4.423237357451e-03
5.173514376653e-03
2.134179776736e-03
1.811135889082e-03
3.825403090103e-03
5.999008670889e-03
3.128792099484e-03
2.778892560238e-03
3.812433277429e-03
1.356034459876e-03
3.547869395678e-03
1.821956586395e-03
1.071898620409e-03
6.878759182499e-04
4.770342255613e-03
3.657761913000e-03
2.301185800403e-03
4.951131887675e-03
4.665409177490e-03
3.411799966359e-03
5.452188912108e-03
2.908585602061e-03
3.583300261965e-03
2.605219249823e-03
3.100950466365e-03
1.347698524684e-03
3.414342947476e-03
2.155049212513e-03
1.385737165103e-03
4.542488046730e-03
0.0
3.716563633638e-03
1.636449720064e-03
1.774524551335e-03
8.033729531877e-04
3.926631031118e-03
7.929613934373e-04
2.439400741018e-03
3.230296274809e-03
3.653257839111e-03
3.792551444783e-03
3.394897168044e-04
9.779464977479e-04
1.639638944485e-03
2.170597973029e-03
4.441924025952e-03
2.403845489855e-03
2.012179680430e-03
2.055407645936e-03
5.690441180566e-04
2.724975474439e-03
1.566269675286e-03
5.958720739140e-03
5.939193914372e-03
3.244445123059e-03
1.612814842720e-03
1.675996184199e-03
3.688319290740e-03
1.425607672630e-03
1.036406456605e-03
3.253099720127e-03
5.778400585500e-03
1.895871873376e-03
3.666527252036e-03
1.635469508028e-03
5.660443835014e-03
1.865154342382e-03
3.342266076335e-03
6.537557986608e-04
3.435463054255e-03
2.276354288028e-03
1.404210939028e-03
3.486331641573e-03
5.890375541845e-03
1.783256592408e-03
3.221814678744e-03
1.690872941280e-03
4.262668196764e-03
3.989554513863e-03
1.870987437432e-03
4.157903845114e-03
5.833143474624e-03
4.319705339619e-03
5.914245466119e-03
4.107732014025e-03
4.587246752330e-03
1.718940221779e-03
3.216971996294e-03
3.590070658515e-03
3.756282744682e-03
2.945710028404e-03
5.788099092437e-03
3.944002213719e-03
3.448909530710e-03
1.863265499764e-03
1.455277505311e-03
3.108638757878e-03
2.053960887931e-03
3.540174196265e-03
1.877423184664e-03
1.615583361797e-03
4.717172209803e-03
1.879339039984e-03
3.325468032698e-03
3.338062058546e-03
3.118061036030e-03
5.704944762881e-03
2.801276760200e-03
7.929235320681e-04
2.475643465383e-03
1.888885188254e-03
2.000012791094e-03
4.954048188006e-03
3.495259464146e-03
2.461309541375e-03
3.062435080318e-03
5.651875251926e-03
5.274977967438e-03
4.935750800823e-03
4.617112825186e-03
3.065607714073e-03
2.469090313365e-03
1.133689513580e-03
1.302424423879e-03
3.315397022365e-03
3.332601828915e-03
2.997347446124e-03
5.010744987465e-03
1.001431061527e-03
2.758819764694e-03
3.419306053386e-03
2.519448693487e-03
5.922741708313e-03
5.955236189705e-03
5.576307705796e-03
3.343577244616e-03
4.936203495640e-03
1.952709186338e-03
1.572206337786e-03
8.348386301078e-04
2.556685105345e-03
3.397790353165e-03
4.097341444589e-03
5.360765443340e-03
4.855340331115e-03
3.816589750238e-03
3.860243568889e-03
1.042497557085e-03
9.358115372942e-04
2.519797185523e-03
3.004979550758e-03
2.619929927174e-03
9.216036177595e-04
3.654326841485e-03
1.535889856870e-03
1.965274985910e-03
5.542217875605e-03
3.765591558978e-03
3.443419406157e-03
9.148022967595e-04
3.000502477848e-03
2.382905503139e-03
3.927650911988e-03
5.879566310260e-03
3.223720713770e-03
3.674901719203e-03
2.887355925381e-03
4.891146742092e-03
3.418978839809e-03
5.856068981647e-03
5.774980459743e-03
5.817447372982e-03
5.770330115021e-03
4.031402203216e-03
4.901935106937e-03
5.053219238746e-03
2.608302338338e-03
2.534090737438e-03
2.864377718296e-03
5.021604322951e-03
5.804877108405e-03
5.054229152364e-03
3.432032663523e-03
5.068372728808e-03
4.092526629085e-03
2.882253780089e-03
2.587573265554e-03
1.635529725768e-03
5.632439227330e-03
2.459501711046e-03
5.142282866551e-03
2.763464966763e-03
2.028101785968e-03
5.246511047736e-03
2.055425638514e-03
5.758655944435e-03
5.581996474530e-03
3.601464432629e-03
2.874317802878e-04
5.722474487266e-03
5.230794359339e-03
1.560316552400e-03
3.558601806016e-03
5.699626342238e-03
0.0
2.660857434825e-03
3.779907730678e-03
3.423227498078e-03
3.515796245568e-03
1.920364726314e-03
5.673636790495e-03
1.884624729070e-03
1.324523675438e-04
5.578498981548e-03
5.002872014388e-04
2.903489307071e-03
7.102088304152e-04
3.105385424469e-03
5.637939698663e-03
5.643493109987e-03
3.759896198982e-03
6.466604743843e-04
2.581016059892e-06
1.306561031608e-03
4.781936084338e-03
3.544667014514e-03
3.591768567502e-03
5.600982036969e-03
3.550458207037e-03
5.978204257671e-03
4.194064998041e-03
3.966369650588e-03
2.069110227023e-03
3.555873876722e-03
1.287977702152e-03
5.563443599679e-03
5.770828452205e-03
5.803925315002e-03
3.535689664887e-03
2.718540240995e-03
2.810036151372e-03
3.607200195359e-03
5.538358032675e-03
1.640374573165e-03
1.295740147429e-03
1.612091026105e-03
4.134625190794e-03
5.683102620147e-03
9.751937677048e-04
5.520122581297e-03
1.677390207142e-03
5.751046272795e-03
5.068488904679e-03
5.986160827208e-04
2.695519082935e-03
5.116907936890e-03
5.706785168037e-03
4.029434435152e-03
4.284615340903e-03
1.266337359964e-03
4.952953356985e-03
1.912176692629e-03
1.970550124934e-03
6.041211163241e-04
5.656733513692e-03
1.182133657821e-03
4.542952953280e-03
3.833323984522e-03
2.139158319596e-03
1.714726693588e-03
3.853402172132e-03
5.579172664692e-03
2.774393020232e-03
3.942313972036e-03
3.310099650091e-03
3.368941039505e-03
1.606723124076e-03
3.637032700867e-03
3.197994162511e-03
4.208731222359e-03
3.883013032915e-03
3.120071939876e-03
2.732828783826e-03
1.823514764933e-03
2.627670573605e-03
4.181475254094e-03
3.004073412555e-03
5.656674172997e-03
5.232907453581e-03
1.823811427345e-03
5.507514049442e-03
5.342333532244e-03
2.747952667688e-03
4.382088383837e-04
5.694608369003e-03
5.185125812822e-03
1.765229900576e-03
5.538258443366e-03
3.827720443377e-03
2.679180912128e-03
3.704599732640e-03
2.883358424601e-03
3.255701293151e-03
3.509234741566e-03
4.329946724555e-03
2.998532943868e-03
4.098742247155e-03
4.047052255275e-03
2.859932710936e-03
3.672333583242e-03
2.211642543694e-03
3.881327088903e-03
2.317754686702e-04
2.007422663305e-03
2.062503183499e-03
3.040900024033e-03
2.964066277893e-03
3.726763647670e-03
4.021852142269e-03
2.125448120930e-03
5.567560434823e-03
3.763638072718e-03
3.188675817690e-03
3.577463415310e-03
3.136039882304e-03
0.0
3.881554513065e-03
2.640906468370e-03
1.601175916693e-04
3.049084665278e-03
4.039018151325e-03
5.107511769800e-03
3.179382722343e-03
3.272183804054e-03
3.333812579699e-03
3.138774507407e-03
5.602858950169e-03
3.388266387592e-03
4.889835681516e-04
1.262830355438e-03
3.403732711760e-04
2.039797041705e-03
4.886593675055e-03
5.135074580473e-03
4.569733804699e-03
2.205347307067e-03
3.963428270317e-03
4.644691033612e-03
4.480010223363e-04
2.667099209261e-03
2.160248377513e-03
5.721042981994e-03
5.580105102775e-03
2.939481999310e-03
3.271315706566e-03
3.310083848978e-03
4.812160421875e-03
1.230172725071e-03
4.495251994924e-03
6.428633528680e-04
2.999374668151e-03
3.265631012540e-03
2.192679874259e-04
2.777613716051e-03
5.213183738870e-03
4.661553375830e-04
3.125223871850e-03
3.264611202798e-03
3.668691180679e-03
2.191299816666e-03
1.929490898902e-03
1.801992614561e-03
5.021357309615e-03
5.413378247578e-03
4.938730896674e-03
1.962629389648e-03
7.396549693111e-04
3.052559415623e-03
3.136955965337e-03
3.283077438816e-03
1.598687307509e-04
2.193472717883e-04
5.176799582362e-04
1.646399827615e-03
4.476010659486e-04
3.103497725519e-03
0.0
1.933359932912e-03
4.174873570305e-03
3.277162825819e-03
5.055738530347e-03
3.910516641519e-03
3.910699350519e-03
2.335203039295e-03
6.321407009922e-04
5.850638891353e-03
6.009929428425e-03
3.804106063636e-03
3.142498704503e-03
2.378074668671e-03
6.000434500276e-03
1.932646254916e-03
3.261134435714e-03
3.129035808385e-03
2.954670140417e-03
5.838142907149e-03
5.995969196951e-03
4.354125543212e-04
1.813212541407e-04
9.186762200650e-04
3.162862848184e-03
5.377931686408e-03
0.0
4.886021985717e-03
0.0
3.610910406558e-03
3.669816600871e-04
9.031669178810e-05
3.461382625694e-03
5.195804270535e-03
4.290192669085e-03
3.148248508174e-03
2.197475915269e-04
4.109795966881e-03
5.851848957563e-03
6.003781657386e-03
3.276367122740e-03
3.775548124396e-03
5.863438389457e-03
4.268339267121e-03
6.020741917649e-04
4.453789533022e-04
2.347376138707e-04
2.636386499780e-03
5.872831094669e-03
5.638106297545e-03
1.897411018069e-04
3.087998710897e-03
5.740465009782e-03
5.879140074132e-03
5.731117611362e-03
4.595061384764e-03
5.043133831470e-03
5.707378045359e-03
5.713124045283e-03
4.886059613206e-03
4.831364360602e-04
3.253485872106e-03
3.293767224568e-03
1.826916767147e-04
5.690406926254e-03
5.768685902519e-03
5.617484584069e-03
4.524110312699e-04
4.596449148217e-04
5.588283914655e-03
5.603110956582e-03
4.452788727497e-03
3.251601896083e-03
4.737759423841e-03
3.834702661819e-03
3.246459497800e-03
5.228246461019e-04
4.912700086981e-04
4.440043287774e-04
5.321378525866e-04
3.250169139528e-03
2.937145446359e-03
0.0
4.118703550062e-03
0.0
5.832195033359e-03
5.846499430745e-03
5.850716816551e-03
1.037380994288e-03
2.016748291347e-03
5.852662976723e-03
4.973191529565e-03
5.880964851940e-03
5.257570989653e-03
5.538666694917e-03
2.787880833422e-03
6.016271676808e-03
6.012463975420e-03
5.083244388473e-03
5.379690173722e-03
4.387421699504e-03
0.0
2.857162677749e-03
4.252814149356e-04
5.079913712272e-03
2.910266083999e-03
4.760106554014e-03
1.643649883448e-03
5.383120855226e-04
5.098955867833e-03
3.125495581336e-03
2.489884669676e-03
4.818967528395e-03
5.278656552725e-03
2.495305030192e-03
4.255398696545e-03
3.844899893988e-03
4.331079183945e-03
4.483284984887e-03
1.722961733981e-03
2.890176896868e-03
2.847631786202e-03
4.036906121347e-03
4.963877593991e-03
4.634026856991e-03
1.657361628813e-03
5.268660436221e-03
4.977116357189e-03
3.619668627054e-03
4.170717328187e-03
4.186883659402e-03
5.342654512253e-03
5.152017188017e-03
3.775019514809e-03
5.233037882857e-03
4.914729909785e-03
4.640974992131e-03
5.247897151359e-03
5.303240859678e-03
4.541244193091e-03
4.128098936937e-03
1.538774070067e-03
1.637170348017e-03
8.927698521496e-04
6.525183474627e-04
5.158931490191e-03
5.044076979222e-03
5.868956833529e-04
5.121589647054e-03
3.733179451095e-03
4.678226682694e-03
4.762287906690e-03
2.074136809097e-03
4.809627862755e-03
3.622602601676e-03
3.895447150765e-03
5.345962366384e-03
1.472811966339e-03
5.235843009349e-03
4.707105507548e-03
1.674998648871e-03
1.997272543898e-03
3.477442011437e-03
4.193455430159e-03
2.343630985594e-03
4.867641149368e-03
4.387482060233e-03
3.338211884839e-03
4.524321097962e-03
4.677832988922e-03
4.679006337696e-03
1.339663578638e-03
3.198638979897e-03
4.633717260275e-03
4.840387351562e-03
2.897016443790e-03
3.936845676204e-03
5.082736818756e-03
4.511744960806e-03
3.674133562233e-05
7.677090780190e-04
5.119753373391e-04
4.910516809545e-03
4.354991661180e-03
3.826914815962e-03
3.891439679493e-03
4.711856603341e-03
3.483739004670e-03
4.620031677450e-03
1.591598461033e-03
5.218249190632e-03
3.412412426767e-03
1.736686848489e-03
3.262202328444e-03
2.478917580480e-03
2.035103586398e-03
3.755154455874e-03
1.564516804578e-04
1.127981756129e-04
4.252374733298e-03
1.464746990371e-03
4.246030270520e-03
4.094375942875e-03
2.616673579752e-03
1.812766898726e-03
5.102254688752e-03
3.465488540583e-04
2.625027282395e-03
4.837002714089e-03
1.192572476611e-03
4.082383260840e-03
3.767466409166e-03
1.326156531730e-03
4.910591653427e-03
4.645125771511e-03
1.410538395916e-03
5.226535373693e-03
5.199234746316e-03
1.660825990561e-03
2.070362284012e-03
1.741360747490e-03
4.534233564243e-03
3.626195608604e-03
5.169455195403e-03
5.078103462266e-03
4.392922361779e-03
4.325015664707e-03
1.344427675979e-03
4.473065100284e-03
4.621187335039e-03
3.681381110047e-03
4.381240135388e-03
4.808400950473e-03
2.590644772933e-03
4.947620929573e-03
3.085734269788e-03
3.550246213813e-03
2.335827574008e-03
2.490782004144e-03
4.488879741826e-03
3.165999505287e-03
1.852051741299e-03
9.795830009428e-04
4.513242120104e-03
1.766306002376e-03
5.166203144739e-03
4.649805208552e-03
4.614388070238e-03
5.225667178668e-03
2.979037457551e-03
1.585841628710e-03
1.011992460365e-03
4.379665078225e-03
4.223445145250e-03
6.765581779648e-04
2.432707948999e-03
1.398956561073e-03
4.216513153533e-03
2.555838114567e-03
4.011146820245e-03
2.390150431536e-03
5.006027676207e-03
2.059652164516e-03
4.350001019912e-03
1.794811250637e-03
4.222069039724e-03
3.406036415107e-03
4.462021920913e-03
1.339917336666e-03
1.350299010952e-03
3.939048831294e-03
3.691324572909e-03
2.830557802011e-03
4.239747352825e-03
1.991260803131e-03
4.297758287115e-03
1.272590086592e-03
4.947061823839e-03
3.839114394118e-03
4.100469873386e-03
5.406352818554e-03
3.435279919526e-03
1.276251192001e-03
3.890812531652e-03
5.018055530162e-03
2.209550982896e-03
4.531906710769e-03
4.676467859059e-03
1.712191406574e-03
4.059355262125e-03
3.877866350654e-03
1.909658390552e-03
2.315039142321e-03
3.261954618660e-03
4.303145841247e-03
2.635421671348e-03
3.059028444222e-03
4.459399445595e-03
4.056901073063e-03
3.999117941319e-03
3.350783493908e-03
4.741842824469e-03
3.716486713275e-03
3.922920566098e-03
5.252343855285e-03
4.304735037625e-03
4.138095280470e-03
4.783696522489e-03
2.607621039471e-03
2.469838949813e-03
1.432823964346e-03
4.007204605408e-03
2.590823974833e-03
4.347452842024e-03
4.183394403681e-03
2.669547662572e-03
2.085784252471e-03
1.474019061621e-03
2.212107321881e-03
2.350809507915e-03
1.463075537230e-03
4.569504511566e-03
2.669001313969e-03
4.972812165115e-03
2.750604982809e-03
3.790160523716e-03
3.207941504412e-03
2.889645016640e-03
1.541106990513e-03
4.841361927258e-03
5.091339779464e-03
4.032052527629e-03
2.472525954974e-03
3.495149155929e-03
4.324118500003e-03
2.732643322525e-03
2.578422691737e-03
2.150698556139e-03
2.106845042594e-03
2.726649439388e-03
1.894721435353e-03
1.784390543315e-03
3.334917325845e-03
3.967235808941e-03
4.797201624805e-03
4.779022984785e-04
2.400918837851e-03
2.556449603619e-03
2.577694805080e-03
4.159825931864e-03
2.931072335017e-03
2.192293877224e-03
2.827325159198e-03
4.815904702500e-03
2.276675714296e-03
8.000720813987e-04
1.154840506689e-03
1.907795704095e-03
2.221538328191e-03
2.622719745119e-03
2.913483858148e-03
1.764083930753e-03
1.225103944880e-03
3.978408581491e-03
1.973233867528e-03
4.352924711069e-03
4.600918209764e-03
3.992519858041e-03
5.014455028265e-03
4.977573847805e-03
2.548565445421e-03
4.312209701199e-03
1.977881610171e-03
2.972886214248e-03
2.522487306746e-03
1.343329153242e-03
1.686644144900e-03
2.487335316614e-03
2.744769011227e-03
2.804656212940e-03
2.029273826370e-03
3.023258905964e-03
2.603498899914e-03
2.484258941744e-03
2.359041018273e-03
3.843548607210e-03
4.482822863784e-03
2.260889845850e-03
4.670023540639e-03
2.097337949930e-03
5.002347225511e-03
2.827679967364e-03
5.203491602561e-03
3.947077556837e-03
1.774963125665e-03
4.099246498151e-03
5.100371074435e-03
2.915547663855e-03
2.161634842982e-03
4.202460859535e-03
3.063723291001e-03
1.589122566935e-03
5.594818322494e-03
1.323577671794e-03
4.905374215111e-03
5.240056690777e-03
4.004250475148e-03
4.022036132739e-03
4.908739948371e-03
2.656489500895e-03
3.014023661640e-03
5.295279977407e-03
4.266560699203e-03
4.614700973159e-03
3.798037729663e-03
1.755388368310e-03
4.742604083367e-03
5.518069405150e-03
5.004957839638e-03
2.836493463261e-03
4.042556476747e-03
3.862526569830e-03
2.990307102709e-03
4.091149418794e-03
4.218450148723e-03
1.096098833511e-03
1.326857373094e-03
2.403878583947e-03
2.433427464003e-03
2.925956778214e-03
5.469614393342e-03
5.117047102826e-03
5.259865256129e-03
2.804866215072e-03
4.812380906171e-03
4.181034339560e-03
5.346185944049e-03
4.575117160927e-03
3.073764877658e-03
2.227900412936e-03
4.723026116701e-03
5.199457669429e-03
4.754736712479e-03
4.593382364392e-03
4.706207203460e-03
4.760938801400e-03
4.529156841862e-03
3.673004527565e-03
2.793183285108e-03
4.176641122849e-03
4.482872570103e-03
1.720752477746e-03
2.523073950019e-03
2.936964334964e-03
3.355527503238e-03
6.764221038374e-04
2.312131514981e-03
3.694823953479e-03
3.162738673778e-03
3.106094428709e-03
4.275586722866e-03
3.420444478414e-03
8.056313501550e-04
3.608028323111e-03
4.113825723424e-03
5.289575565494e-03
2.786040332148e-03
3.385556211389e-03
4.320502265356e-03
1.220460717409e-03
3.955179298540e-03
3.165570628649e-03
3.317308554295e-03
4.304146306300e-03
1.881742204703e-03
4.432932293431e-03
4.823215265074e-03
3.806542070162e-03
4.778108728743e-03
4.481570645652e-03
4.886746565618e-03
1.498086320626e-03
4.448193879400e-03
4.826216477314e-03
4.887560636574e-03
3.468158111994e-03
2.473653699252e-03
3.471604947544e-03
3.515654411098e-04
5.048129172683e-03
1.854985291829e-03
1.640845901064e-03
4.384273219759e-03
5.379705512614e-03
1.962931709496e-03
3.460402464098e-03
4.556944250926e-03
3.383719843055e-03
1.271639043889e-03
2.155596217495e-03
1.530379692595e-03
1.562946298421e-03
1.725992673060e-03
3.128123404018e-03
5.978757202265e-03
1.878932715142e-03
4.874265144994e-03
2.021312508689e-03
4.410645559788e-03
5.446402050903e-04
5.032053835528e-03
1.857540691758e-03
2.167450437020e-03
4.007316872521e-03
2.865792508923e-03
4.633094935503e-03
2.352487737097e-03
4.663962013380e-03
4.869204411424e-03
4.429689118342e-03
5.301599282418e-03
4.867555126114e-03
4.994292368551e-03
1.585731642834e-03
4.731482311295e-03
4.686031286375e-03
2.832067385881e-03
2.158927091379e-03
5.079003029780e-03
9.596911832810e-04
2.094098399874e-03
4.422688948064e-03
1.248071604353e-03
3.111224166074e-03
4.143397073039e-03
5.269510986050e-03
5.404504160547e-03
4.032131518505e-03
5.035214563043e-03
2.288963266599e-03
4.497236254835e-03
2.449891336582e-03
5.141368132138e-03
2.751749660152e-03
2.878729614698e-03
2.670941398415e-03
3.064327322831e-03
3.458691017845e-03
2.658280149013e-03
2.653753714281e-03
9.811593336372e-04
2.441082358799e-03
5.179437752949e-03
5.268578940823e-03
4.434728242993e-03
4.747389467129e-03
2.702179599475e-03
4.975773677779e-03
2.582283479392e-03
4.888861475009e-03
4.848446586374e-03
4.829227704648e-03
3.615324373437e-03
2.341624150185e-03
4.784583869030e-03
3.957491419921e-03
1.700601644229e-03
7.020950745825e-04
2.481218771102e-03
3.497363371298e-03
5.046415826891e-03
4.704605430921e-03
2.322695645322e-03
3.926363227239e-03
4.300034730448e-03
5.071297943610e-03
4.988482903574e-03
4.232489050894e-03
4.476485377380e-03
2.821806331728e-03
4.336206174646e-03
3.171626869689e-03
5.322298740710e-03
5.194634648291e-03
3.273686732189e-03
5.984151931342e-04
4.585743008913e-03
3.386888275758e-03
2.214504551746e-03
3.505745048799e-03
4.392421827443e-03
8.649412715447e-04
2.929672516780e-03
4.200855765301e-03
5.106738436651e-03
4.301405107969e-03
4.492473167653e-03
4.094600791655e-03
3.873742424529e-03
4.049253002460e-03
4.546913092459e-03
4.646225374320e-03
4.523702894857e-03
5.390087395958e-03
3.985020216099e-03
1.618655921058e-03
4.788488793259e-03
5.359924628782e-03
3.005660619524e-03
3.223226449347e-03
1.971525089256e-03
4.648699280585e-03
2.766011387022e-03
3.573201295524e-03
2.703531881720e-03
4.214659544868e-03
5.069771484117e-03
2.121431133426e-03
4.058193802695e-04
5.341003982022e-03
2.920796651996e-03
2.806031036896e-03
4.893352200413e-03
4.541058644014e-03
4.477853504311e-03
2.415871683082e-03
1.091173224408e-04
5.297107160487e-03
3.566992170965e-03
3.964772993216e-03
4.908749566295e-03
0.0
4.396335016970e-03
1.721264210827e-03
4.247426129010e-03
3.657351708374e-03
2.094475387503e-03
4.954039962137e-03
3.497476297263e-03
1.752352387144e-03
3.730384878291e-03
3.763523260525e-04
4.296335070821e-03
4.232332728486e-03
5.300157964833e-03
4.591233936654e-03
1.028298279476e-03
4.511210016349e-03
5.453521427974e-03
5.267588892161e-03
4.434702429965e-03
2.462650568201e-03
4.009248660887e-03
5.046804183108e-03
3.535212461732e-03
4.396897747975e-03
4.393389450935e-03
4.800902351973e-03
4.606296382436e-03
3.122680214006e-03
3.120274423476e-03
4.382256899136e-03
4.111044512030e-03
3.813633009546e-03
4.221320453715e-03
3.279774802709e-03
4.769766446077e-03
2.542727818687e-03
5.983048558159e-03
3.591210545370e-03
3.168624506568e-03
3.557292247720e-03
9.531416278352e-04
3.230009085735e-03
3.834311612934e-03
3.683361306900e-03
4.361379102542e-03
4.324884584528e-03
4.497716242812e-03
9.296305416927e-04
3.000738260246e-03
2.877206011431e-03
4.129391706328e-03
4.309346871824e-03
4.660717579237e-03
1.390083491195e-03
1.337430359801e-03
3.372007376568e-03
3.118387867984e-03
2.908488767762e-03
3.071482520293e-03
4.375276169837e-03
1.579296571718e-03
3.441254145347e-03
4.169540997438e-03
5.233780527266e-04
5.376588438414e-03
5.149299469470e-03
3.407577951504e-03
4.596633708749e-03
5.291684185247e-04
4.017860612446e-03
3.529401166009e-03
5.097626183355e-04
5.132298664917e-03
7.847782572497e-04
4.127046447011e-03
3.654659147826e-03
2.736631618381e-03
3.532903553380e-03
5.264031271081e-03
3.850209962935e-03
3.431861875086e-03
3.323620881928e-03
5.457679815637e-04
4.250590229058e-04
4.681238603658e-03
4.043631383605e-03
4.795280597812e-03
2.001212315519e-03
4.830518942522e-03
4.896214853729e-03
3.151597474926e-03
4.683508434643e-03
4.666996016599e-03
3.909137558089e-03
3.276352252530e-03
3.497938959203e-03
5.375951367089e-03
3.220959364287e-03
3.760026043850e-03
3.137860209432e-03
4.172566943858e-03
2.940253828480e-03
1.143043258969e-03
3.094440534048e-03
1.421741084883e-03
4.229813709731e-03
1.395709131982e-03
4.036588971796e-03
4.570721815773e-03
4.340933322801e-03
2.781057843546e-03
4.194893651729e-03
4.753168581798e-03
4.818117472809e-03
1.337755850323e-03
4.137746118188e-03
5.209940225679e-03
2.346590375691e-03
3.683805328026e-03
7.449910221542e-04
4.902778118811e-03
1.132231217255e-03
3.562582783365e-03
3.984078078079e-03
4.208916939956e-03
4.023939684233e-03
3.635866043279e-03
2.594201963328e-03
2.755506096816e-03
4.964224152630e-03
3.752359726194e-03
3.049378824758e-03
3.951824469440e-03
2.751998479851e-03
1.270610342763e-03
2.569385874887e-03
3.772607831583e-03
3.271605333460e-03
4.369076492911e-03
2.705575969413e-03
5.066065955323e-03
4.914430261524e-03
2.994647378897e-03
5.394625854804e-03
1.628019428153e-03
4.948546199405e-03
3.599675338089e-03
3.985333370223e-03
4.676994841526e-03
2.599416272208e-03
3.952410327413e-03
2.849041735521e-03
3.845590045576e-03
1.946537266926e-03
4.082691990806e-03
2.599671966463e-03
3.723013565829e-03
3.865662068831e-03
5.887470109934e-04
3.453775351858e-03
1.200495782290e-03
9.684342886303e-04
3.597379235346e-03
4.690298881192e-03
4.138119897075e-03
2.292437587727e-03
5.849140828973e-03
1.853697180041e-04
2.448985812848e-03
3.130150269505e-03
3.550843563428e-03
2.957877931277e-03
1.876075245636e-03
3.442132234492e-03
3.806568376354e-03
3.777536702449e-03
4.965844843458e-03
1.161492389179e-03
3.317749060185e-03
3.622478808600e-03
2.112089838123e-03
3.317999481308e-03
4.153535609678e-03
4.505816054949e-03
6.237202834362e-04
0.0
1.573012222717e-03
3.691965033318e-03
1.969230988537e-03
1.898292932230e-03
1.294352397267e-03
3.753016074333e-03
4.366198405172e-03
3.768697917664e-03
1.871438903480e-03
4.121048902823e-03
3.672677354322e-03
4.305538666813e-03
3.830322098392e-03
3.828543141580e-03
1.984443132618e-03
2.202423137923e-03
3.907189118964e-03
4.304428646692e-03
4.049985857339e-03
2.152295599124e-03
3.904305982153e-03
2.181745308855e-03
1.601820863611e-03
4.956049478681e-03
1.401476559850e-03
2.111889315513e-03
3.321047263052e-03
2.268346872781e-03
3.969667780703e-03
1.889119106673e-03
3.396365532197e-03
3.971070620537e-03
2.946304068913e-03
3.537025974587e-03
1.811375157662e-04
5.205294236013e-03
2.387586220924e-03
4.665614783562e-03
3.968807703245e-03
4.049703598051e-03
4.107544981389e-03
1.695791505847e-03
1.026663475019e-03
1.642477002779e-04
4.189723483469e-03
4.659166707092e-03
2.346343365980e-03
4.226192121581e-03
2.191228217425e-03
4.314363055978e-03
5.445403603490e-03
0.0
5.877232482387e-03
5.753927133567e-03
3.517916756623e-03
2.567108847699e-03
3.885798105456e-03
1.761253100682e-03
8.753437067106e-04
5.824479928858e-04
5.430593790634e-03
4.272773126407e-03
3.281421806576e-03
5.755399577457e-03
1.584674166795e-03
5.735458500835e-03
4.260634587508e-03
2.681067374150e-03
3.703032091483e-03
2.313425682848e-03
1.747876205062e-03
2.269306335304e-03
4.472296584069e-03
5.084185534072e-03
2.122483088170e-03
4.416764738030e-03
0.0
1.927997949303e-03
4.734679441239e-03
2.334640526172e-03
2.293466231138e-03
3.672079540127e-03
1.427206149762e-03
1.708336649171e-03
1.861547325864e-03
2.108699433633e-03
3.250126257064e-03
3.062054677212e-03
4.401537229797e-03
5.307742241174e-03
1.980497234217e-03
4.592105580898e-03
5.228738582180e-03
1.508615138678e-03
1.258398003978e-03
2.320259230208e-03
3.145384584978e-03
4.507488684930e-03
3.013439603112e-03
1.036494360999e-03
3.559288459622e-03
1.877421539577e-03
3.009312651742e-03
3.329936939808e-03
3.782961951353e-03
4.184693822016e-03
2.263846250652e-03
1.320964814853e-03
3.656275706453e-03
1.881021925859e-03
0.0
5.409655559408e-03
5.162683398980e-03
2.729094268368e-04
3.875711687704e-03
1.849949503547e-03
1.815075747793e-03
4.705943890402e-03
3.753312262213e-03
4.510634549489e-03
2.148267383418e-03
3.276008673573e-03
5.353793394855e-03
1.533498694127e-03
4.496561684191e-03
3.235629882711e-03
1.109441694527e-03
4.399839461738e-03
2.050705679004e-03
7.682699673756e-04
1.606426913977e-03
4.404965734730e-03
4.489139406804e-03
1.520865044627e-03
3.643992042794e-03
4.612769071813e-03
4.502280914076e-03
2.204419621287e-03
1.846579794431e-03
3.359329712729e-03
4.124746711535e-03
7.891390788467e-04
5.560751100390e-03
5.548964266607e-03
3.671227968295e-03
5.630388145665e-03
5.535998868057e-03
2.170965590618e-03
2.370185578734e-03
5.368043001177e-03
0.0
1.709110066567e-03
3.659126116834e-03
2.387294836944e-03
1.879148258664e-03
1.458848135816e-03
1.621284849436e-03
3.747506275773e-03
1.892131702059e-03
1.979788942566e-03
4.392042265884e-03
5.804343183406e-03
5.787944820255e-03
2.351876001022e-03
3.390799711467e-03
0.0
1.230366790518e-03
1.463542949792e-03
1.380432272447e-03
3.535543274713e-03
2.106380670562e-03
2.153393122630e-03
5.222734221172e-04
5.154439084150e-03
2.367565598648e-03
5.388275058918e-03
4.954992804617e-03
6.024570796398e-03
5.886693922548e-03
3.753433328928e-03
2.527170991278e-03
1.725379432797e-03
2.498420104998e-03
5.703744763384e-03
9.120404607056e-04
1.119100263323e-03
4.692417281221e-03
3.538901703328e-03
5.427938698995e-03
4.594213998741e-03
4.821231617115e-03
4.878843592402e-03
3.720203756123e-03
2.190074141244e-03
2.006325653896e-03
4.404135688044e-03
4.687878422867e-03
3.117837671459e-03
3.529702774384e-03
3.752961490192e-03
3.830800216791e-03
4.743220089301e-04
1.891519218784e-03
5.771465514508e-03
4.089532321688e-03
5.391930956668e-03
5.395352371543e-03
4.403465603732e-03
5.428295798469e-03
2.711349306453e-03
2.579117857356e-03
5.122665484976e-03
0.0
1.840758435860e-03
5.616042079043e-03
8.237432765106e-04
3.385098086166e-03
5.098464473505e-03
5.994795909040e-04
3.983112400915e-04
5.989580935828e-03
3.133104392698e-03
5.665785838847e-03
4.960111850706e-03
3.124857482388e-03
0.0
5.632893496604e-03
9.982363891210e-04
5.455855807356e-03
5.714313673249e-03
5.360106047106e-03
8.140468256158e-04
3.782530279231e-03
2.880362090628e-03
4.355508239889e-03
5.671711904199e-03
4.776155304540e-03
5.663484683731e-03
0.0
5.589551347142e-03
1.512890600852e-03
7.914478455334e-04
5.397054391262e-03
5.743402050252e-03
5.733536642357e-03
3.426595864351e-03
3.717007925183e-03
1.646038233533e-03
5.655472529231e-03
2.339881504149e-03
8.036133470504e-04
4.521262599813e-03
3.249064134649e-03
5.466053350077e-03
5.951132079152e-03
5.885235530218e-03
4.854921181183e-04
3.182268852090e-04
3.189601210708e-03
3.264417416490e-03
5.744673122169e-03
5.821030348919e-03
4.049503436329e-04
0.0
5.287127657436e-03
5.147388720085e-03
1.173728759617e-03
5.308389383186e-03
3.861412420017e-03
3.447396140137e-03
4.313090326591e-03
1.487039342624e-03
4.054223007771e-03
9.352616087626e-04
3.085786119638e-03
5.355845819130e-03
5.346807489972e-03
3.320434685778e-03
3.970741636665e-03
5.313594699531e-03
4.970757498224e-03
4.685070856500e-03
3.121604600955e-03
3.851714109814e-03
5.392942080287e-03
1.774965986013e-03
4.406585063081e-04
5.044417363226e-03
4.474595389771e-03
1.114377206921e-03
4.510176921097e-03
5.486912845254e-03
4.947561165270e-03
5.266766084571e-03
4.198063581823e-03
0.0
1.470518372103e-03
1.753101937548e-03
3.631135606701e-03
3.881045925371e-03
5.513487264780e-03
5.223998920856e-03
1.020852490991e-03
8.247746946980e-04
1.369961284446e-03
4.515742145024e-03
2.251628283076e-03
5.512574297706e-03
1.101239483144e-03
4.944710226892e-03
3.686457503037e-03
5.316904859013e-03
4.584108386174e-03
3.633631005452e-03
5.441228742427e-03
5.760973095862e-03
5.768457653903e-03
1.076429508706e-03
5.403578302253e-03
5.433000637951e-03
5.028809833893e-03
4.690494387880e-03
5.655330995816e-03
4.686381379503e-03
0.0
1.396280660218e-03
5.170660034106e-03
3.932337476204e-03
5.342833454285e-03
4.884276764452e-03
5.447158665414e-03
4.847067005331e-03
5.305854444718e-03
5.181492536697e-03
5.139590615884e-03
2.342515450525e-03
5.825123485814e-03
3.511800923746e-03
5.448173838807e-03
7.428025292534e-04
5.262596336557e-03
4.547206860874e-03
6.035790654862e-04
8.086025518277e-04
4.796988799160e-03
5.631992981559e-03
5.519397513834e-03
5.310091205385e-03
3.912116890080e-03
3.336829723450e-04
7.216677684813e-05
3.636648382109e-04
1.164636641950e-03
0.0
3.057585890836e-03
5.327921971227e-03
5.411971840112e-03
3.914684461503e-03
2.701530490713e-03
5.213565150943e-03
5.007366373899e-03
5.467264405238e-03
5.207424473042e-03
5.074998992932e-03
6.015575377216e-04
0.0
5.376601054342e-03
4.998770260557e-04
7.354796995695e-04
4.650576109338e-04
6.246802752465e-04
5.332466837785e-03
5.508668632613e-03
5.527152150685e-03
5.370182133116e-03
4.813648012505e-03
4.090345476850e-03
5.872497858860e-03
1.688844706779e-03
3.242062731608e-03
1.296527781915e-03
2.048831776387e-04
5.850745223492e-03
3.550974671321e-03
8.641995463890e-04
2.926275799080e-03
5.656777809006e-03
5.503877635999e-03
5.618051296971e-03
2.129346423962e-03
0.0
5.566911874099e-03
6.011875443670e-03
5.902551827901e-03
3.412317331757e-03
4.981747800379e-03
7.975484814360e-04
5.534656444521e-03
1.991551371557e-04
5.305266967479e-03
5.730842396305e-03
0.0
4.981060490428e-03
4.675346069498e-03
5.654646432844e-03
5.577265656584e-03
4.298496663279e-03
5.550848395389e-03
5.494928221657e-03
4.409266495861e-03
5.352947711999e-03
2.479552746464e-03
3.115289873894e-03
5.217348424536e-03
5.739897385503e-03
2.130598970231e-04
3.124201721815e-03
5.632614020689e-03
1.101480850632e-03
5.091661295346e-03
5.450633370530e-03
5.763755232995e-03
1.048262864143e-03
9.819337037052e-04
3.563851573438e-03
5.043841388328e-03
0.0
5.651156742465e-03
4.142985444651e-03
1.530326117569e-03
3.945008028744e-03
5.471691496627e-03
3.728983518662e-03
6.562098799667e-04
2.244711810372e-03
3.243419354848e-03
3.838568504311e-03
5.141366330764e-03
3.163902532595e-03
3.328394715870e-03
5.059368158880e-04
5.311799105867e-03
5.084872395273e-03
7.504975414656e-04
5.677168446605e-03
5.592115835300e-03
3.482521557627e-03
4.251403145156e-03
3.187364706085e-03
3.251257493807e-03
3.439701907309e-03
4.794833467625e-03
1.169016289084e-03
5.320349723071e-03
3.618781519640e-03
5.751198579347e-03
4.781103524799e-03
4.050232424031e-03
5.211038119851e-03
5.105861927613e-03
5.449330151016e-03
7.104254593754e-05
5.217846714948e-03
5.418217703554e-03
5.880291415762e-04
2.994215514378e-03
2.729319316382e-05
5.459819003965e-03
1.355008650809e-03
1.443841627123e-03
1.277845312024e-03
1.436630652411e-03
1.273019814809e-03
1.436273584903e-03
1.273066868925e-03
1.436708570990e-03
1.273891527970e-03
1.437272560770e-03
1.274910118152e-03
1.437696030249e-03
1.275870775207e-03
1.437840220204e-03
1.276638694493e-03
1.437769401218e-03
1.277333767015e-03
1.437521807662e-03
1.492050320424e-03
1.278020419144e-03
1.437163248107e-03
1.278761654515e-03
1.383228364698e-03
1.436706649559e-03
1.348539767128e-03
1.279533274446e-03
1.436149555039e-03
1.280413992586e-03
1.436171304189e-03
1.282119732342e-03
1.436411458420e-03
1.284501989481e-03
1.438201695272e-03
1.478819618675e-03
1.288143499654e-03
1.438650527887e-03
1.291639997313e-03
1.444130028297e-03
1.443167385266e-03
1.297946882526e-03
1.459520057261e-03
1.303387863510e-03
1.450252832353e-03
1.504413949298e-03
1.314489036099e-03
1.321928407648e-03
1.311937332425e-03
1.366973093525e-03
1.498427822904e-03
1.340309289946e-03
1.427497875249e-03
1.381941815066e-03
1.683449326718e-03
1.587854795547e-03
1.752598431419e-03
1.591766725302e-03
1.755487976330e-03
1.592117775931e-03
1.755748046157e-03
1.592908272950e-03
1.756447334746e-03
1.594070061262e-03
1.757338428947e-03
1.595439880483e-03
1.758184168094e-03
1.596577541790e-03
1.758623494902e-03
1.597525668631e-03
1.758893612162e-03
1.775142239223e-03
1.598533292336e-03
1.759097363679e-03
1.623922942480e-03
1.599734639697e-03
1.759352779785e-03
1.600889530669e-03
1.759429545330e-03
1.601695349042e-03
1.661375170989e-03
1.759017839227e-03
1.602504728646e-03
1.759776800456e-03
1.605089372780e-03
1.760876941343e-03
1.607636798844e-03
1.764585957995e-03
1.612270932848e-03
1.763785538860e-03
1.613389646122e-03
1.731789320293e-03
1.619837371080e-03
1.773607484692e-03
1.614639726010e-03
1.763145728161e-03
1.795737480388e-03
1.548841017464e-03
1.759407810678e-03
1.617423548206e-03
1.696652227122e-03
1.608070457612e-03
1.637166809082e-03
1.978075538529e-03
2.068879625806e-03
1.902590828716e-03
2.062161995598e-03
1.898060516849e-03
2.062005351751e-03
1.898519902904e-03
2.062707203719e-03
1.899593226571e-03
2.063756227685e-03
1.901151117505e-03
2.065159394734e-03
1.903035017397e-03
2.065878819387e-03
1.904260045321e-03
2.066054267018e-03
2.081255348113e-03
1.904941591621e-03
2.066518291686e-03
1.946229207625e-03
1.906538266237e-03
2.067300682488e-03
1.912400718489e-03
1.908299225307e-03
2.067775509969e-03
1.909424505434e-03
2.067392831623e-03
1.909798919589e-03
2.065159627985e-03
2.019164063614e-03
1.909657238486e-03
2.069050084578e-03
1.913990891757e-03
2.066625557090e-03
2.079233419176e-03
1.915722788534e-03
2.058653760931e-03
1.921030618245e-03
2.092125439694e-03
1.905326932506e-03
1.827911328399e-03
1.974792546786e-03
2.109959634287e-03
1.963899074007e-03
2.050594123143e-03
1.898921720586e-03
2.308296873625e-03
2.212383277902e-03
2.377889872021e-03
2.214994051217e-03
2.379726867620e-03
2.216547427580e-03
2.381089610341e-03
2.216872246426e-03
2.381752235969e-03
2.218454871060e-03
2.383250492322e-03
2.220224400099e-03
2.385222509952e-03
2.222734674364e-03
2.386383023483e-03
2.391862537500e-03
2.221806440899e-03
2.220677278307e-03
2.385011920154e-03
2.223422370937e-03
2.386582139412e-03
2.226346237541e-03
2.388440069183e-03
2.227280475162e-03
2.250484607725e-03
2.388398609737e-03
2.227668810492e-03
2.387714431866e-03
2.226868736979e-03
2.381778775207e-03
2.225381309291e-03
2.391304783019e-03
2.233950156438e-03
2.220516966315e-03
2.381499207426e-03
2.320752866227e-03
2.406602035383e-03
2.125680874572e-03
2.371949036351e-03
2.230910756870e-03
2.319921770893e-03
2.232416445766e-03
2.197022376616e-03
2.606499819159e-03
2.690961257714e-03
2.522000530317e-03
2.681395089224e-03
2.516611695707e-03
2.684936923134e-03
2.520724084807e-03
2.682910389250e-03
2.518155025397e-03
2.685720127669e-03
2.522107693972e-03
2.686100147812e-03
2.522572435250e-03
2.701698277203e-03
2.691814660839e-03
2.527183984821e-03
2.558519512118e-03
2.685492272813e-03
2.523715955889e-03
2.521830125806e-03
2.687781338981e-03
2.527976907291e-03
2.692519047907e-03
2.530769531241e-03
2.691005186238e-03
2.620190236794e-03
2.529256469091e-03
2.690152839742e-03
2.692355677766e-03
2.530525369073e-03
2.668560171641e-03
2.530830175599e-03
2.711856376190e-03
2.517118108963e-03
2.429701944538e-03
2.579121291386e-03
2.733210654048e-03
2.586513323000e-03
2.669335382215e-03
2.501112406734e-03
2.952964194819e-03
2.821859864007e-03
2.991596827692e-03
2.833511162691e-03
2.996758346163e-03
2.839990296122e-03
3.006645179008e-03
2.831291115803e-03
2.995872769527e-03
2.837184649027e-03
3.005449104704e-03
2.838583631022e-03
3.016774272030e-03
3.001904421592e-03
2.851312415787e-03
2.832771918756e-03
3.009442756207e-03
2.842210225621e-03
3.000234049433e-03
2.844919680408e-03
3.009082672670e-03
2.844437144164e-03
2.872310885887e-03
3.011912840164e-03
2.842005763748e-03
3.004113999591e-03
2.837696132236e-03
2.839675268707e-03
3.003734450339e-03
3.017107183080e-03
2.932857225621e-03
2.738763543566e-03
2.957508157439e-03
2.875589959643e-03
2.947488772035e-03
2.848489924599e-03
2.817296966531e-03

SCALARS element_materi_plasti_phimob float
LOOKUP_TABLE default
3.312409991458e+00
5.086439311254e+00
1.962045233102e+01
1.926444451687e+01
1.437013869764e+01
2.880085539902e+01
1.444191282020e+01
9.148791684755e+00
1.444190786193e+01
1.923433587975e+01
1.941744843453e+01
3.296894930081e+00
2.050067750529e+01
1.519963181485e+01
2.052783618670e+01
1.945546128851e+01
1.401662662457e+01
2.661446624942e+01
9.468258201353e+00
9.289267393180e+00
1.921309801494e+01
2.524514104127e+00
6.913525718239e+00
2.168429582431e+01
1.602136284702e+01
1.964455967531e+01
1.260371182371e+01
2.075460804377e+01
1.598801393397e+01
2.158101062376e+01
2.128546994649e+01
-1.890230141329e+01
1.954984485161e+01
2.016630350275e+01
2.093913411310e+01
2.072007430067e+01
2.068349174279e+01
2.144390445824e+01
1.311221129809e+01
1.321083179693e+01
8.734063447275e+00
2.088195379258e+01
1.207036995253e+01
1.256351975027e+01
1.902609815731e+01
1.669639721428e+01
2.523781907811e+01
1.910138232500e+01
1.588378396304e+01
1.466011868442e+01
7.852041894253e+00
1.181003886270e+01
2.590718525443e+01
6.165052196716e+00
1.949485854300e+01
1.456078589276e+01
1.197105745065e+01
2.021051372844e+01
4.886687331080e+00
1.943986750434e+01
1.261920807703e+01
2.119029539351e+01
1.441851993543e+01
2.529887146441e+01
2.053884952713e+01
4.170979231867e+00
1.667538741881e+01
1.956686692013e+01
7.308485397412e+00
2.004649631247e+01
1.984709950804e+01
1.984196186376e+01
2.047355305879e+01
-1.051971687820e+01
1.492903630963e+01
1.926747399287e+01
1.943366076387e+01
1.914679265265e+01
3.753551431498e+00
1.758989948893e+01
8.293804574667e+00
1.397014749468e+01
6.435984701136e+00
2.429945802271e-01
1.501531018901e+01
1.505983989669e+01
1.990830589985e+01
2.010439339613e+01
1.832437702651e+01
1.426140372161e+01
-2.103694638538e+01
1.390586805047e+01
1.790928368900e+01
1.775624046799e+01
1.968092910717e+01
2.110681068842e+01
1.386728395630e+01
2.123422397712e+01
1.614088598151e+01
1.334778748515e+01
1.371268069640e+01
2.056542003801e+01
2.183752362374e+01
2.116085118071e+01
2.122520428142e+01
1.729754384240e+01
2.038619799695e+01
1.829215440743e+01
1.993452023135e+01
2.052947704198e+01
1.810780457273e+01
-2.335984806641e+01
2.137879127832e+01
1.249249758500e+01
1.673385528157e+01
1.244169815405e+01
1.661730952060e+01
2.083365214661e+01
1.581604163139e+01
1.669123204313e+01
4.180078767441e+00
1.389426377861e+01
1.835572920853e+01
1.885003803260e+01
2.214488690591e+01
1.079907004183e+01
1.661281755718e+01
9.285310874929e+00
1.948594568060e+01
2.641131534906e+01
1.969448555798e+01
1.928368123031e+01
1.340056867784e+01
9.839066014259e+00
2.107370522599e+01
2.049432549574e+01
1.998564729988e+01
1.402289903052e+01
2.145101828492e+01
1.178750136076e+01
1.938542142942e+01
1.989778288671e+01
1.511357006329e+01
1.706837586947e+01
1.230411696417e+01
7.953136580590e+00
1.487611388742e+01
2.136503211527e+01
1.399886157796e+01
2.266865262808e+01
-2.208210749714e+01
1.503933877102e+01
5.280445761420e+00
1.172057986055e+01
2.097956775066e+01
1.927518804854e+01
2.002793612016e+01
1.325745234912e+01
2.168994626873e+01
1.421390382137e+01
2.305220260785e+01
2.027544542318e+01
4.634882662424e+00
2.040407890798e+01
1.404489010729e+01
2.068987938056e+01
1.416199455574e+01
2.144660348813e+01
1.147895004405e+01
1.948425594517e+01
8.849447057025e+00
2.424121320582e+01
1.743420241840e+01
1.411529244763e+01
2.140775613951e+01
1.045141651321e+01
1.916510440398e+01
1.743063381716e+01
2.069165415761e+01
2.000363313193e+01
1.189862642222e+01
1.740658702037e+01
2.214288116213e+01
1.054797455994e+01
9.436546211587e+00
1.327353596509e+01
2.128867789166e+01
1.940034957307e+01
1.796332411778e+01
2.033478090156e+01
1.866522179382e+01
2.579112540730e+01
1.832087281176e+01
1.035609787316e+01
1.006539589885e+01
2.241020803026e+01
-2.081277613426e+00
1.940245779231e+01
1.685699914358e+01
2.076912812977e+01
2.266875127621e+01
1.485031071435e+01
1.562677104167e+01
2.137842473715e+01
1.626178796339e+01
1.596662462886e+01
1.480898850664e+01
1.718919266996e+01
1.463163507005e+01
1.328446722754e+01
2.264540734880e+01
1.884949844391e+01
1.307693953668e+01
8.818585753511e+00
1.133795946775e+01
1.523493779918e+01
1.820143623966e+01
3.059260769054e+01
2.246331184645e+01
1.397527846520e+01
2.469558397300e+01
2.242886545910e+01
-1.539905191316e+01
1.756314633077e+01
-2.124245653831e+01
-3.065022678406e+00
1.528311291269e+01
1.386674595760e+01
1.783903035217e+01
1.289549434962e+01
2.274251662104e+01
1.907766396062e+01
6.410962810834e+00
2.248318244976e+01
1.410464745520e+01
2.058327185560e+01
1.102562030124e+01
2.364565253100e+01
2.413349112553e+01
9.056658616522e+00
2.277586669886e+01
2.071788210465e+01
1.758647314431e+01
2.816071663481e+01
2.229037714940e+01
1.979218135828e+01
1.531315158143e+01
1.722069938826e+01
2.084724912982e+01
2.505372907054e+01
2.315850130522e+01
1.569155123909e+01
1.969623009759e+01
1.629065883048e+01
2.420166295075e+01
1.522468119618e+01
8.366175677694e+00
1.458764670500e+01
2.697959646124e+01
3.045431208093e+01
2.711474424612e+01
1.788523179771e+01
1.530603949623e+01
1.931872116102e+01
1.814081637553e+01
1.795201278257e+01
1.547521352073e+01
2.061578259386e+01
2.409087556427e+01
1.569440781380e+01
2.117639079134e+01
2.367693491175e+01
3.002975089444e+01
1.385394567809e+01
2.551568316738e+01
2.715060078178e+01
1.760248536030e+01
5.615615632985e+00
1.511716199937e+01
2.778252558363e+01
2.555933031767e+01
3.008597222352e+01
1.621533213223e+01
-4.835710237334e+00
1.115074812591e+01
2.361096994863e+01
1.523593115505e+01
1.493098616917e+01
3.045607666446e+01
2.881869585474e+01
2.597742968171e+01
9.775579316457e+00
1.720407017081e+01
1.222787727216e+01
2.604111436207e+01
2.554478418385e+01
2.864153361595e+01
2.132308696183e+01
2.163418478307e+01
1.976511119736e+01
1.985420790323e+01
1.690875723145e+01
2.859487310159e+01
2.723233774398e+01
1.628605464745e+01
2.882695134341e+01
2.834422662447e+01
1.502950814922e+01
1.935087199944e+01
2.628728501591e+01
2.237235787030e+01
2.405061957878e+01
2.118510638959e+01
2.746861181070e+01
1.599614543894e+01
3.117791976649e+01
2.378315744598e+01
2.484634599946e+01
2.660339755917e+01
1.492286097841e+01
2.009593728972e+01
2.688579166388e+01
2.378936734910e+01
2.477550673119e+01
1.662794704734e+01
2.279373886535e+01
2.085190713471e+01
1.624525947204e+01
2.051071923343e+01
2.242046537140e+01
1.997042399322e+01
1.610487821477e+01
1.812527346165e+01
1.997696779652e+01
1.361662017860e+01
1.556119754066e+01
1.596300036258e+01
1.675547959614e+01
2.078090580123e+01
1.563695034981e+01
1.395727222967e+01
2.632891721899e+01
1.057679331507e+01
1.262528279663e+01
2.143149981565e+01
1.417534435226e+01
2.426946509507e+01
2.723389116062e+01
1.789713551859e+01
2.341284437345e+01
1.438699516038e+01
2.370807695897e+01
2.285214439741e+01
2.106649603601e+01
1.128830135552e+01
2.985315713290e+01
2.023424620052e+01
1.514051266242e+01
1.853329328431e+01
1.852938809715e+01
1.630982882257e+01
9.954707533731e+00
1.287668011932e+01
2.127935701781e+01
2.155753305676e+01
1.854000685972e+01
1.752761328868e+01
2.264229304576e+01
1.474477476306e+01
2.954491234601e+01
2.850451673259e+01
1.626150949023e+01
2.383293401589e+01
1.917311134800e+01
1.848490712351e+01
2.871052865843e+01
1.799194857658e+01
1.526390580754e+01
1.736862696901e+01
1.988558930036e+01
1.981910216083e+01
1.937886395935e+01
2.258184385396e+01
1.818945111615e+01
2.083420625202e+01
2.744382096418e+01
2.967964075387e+01
1.213051504021e+01
1.384048904072e+01
1.616167904388e+01
2.159953579638e+01
1.866299034635e+01
1.565700004203e+01
1.650754511553e+01
3.074117807313e+01
-1.136790741939e-01
2.269251351101e+01
1.851336441819e+01
2.238915132366e+01
2.270736726159e+01
1.521382677378e+01
9.420873528733e+00
2.562741653906e+01
2.066265045205e+01
2.284258392358e+01
1.395276091080e+01
5.687416402772e+00
1.604270051029e+01
2.371413963614e+01
1.625672570534e+01
2.025534806472e+01
1.346980838297e+01
1.642862283615e+01
1.968977846261e+01
1.818475980794e+01
2.272565112004e+01
2.031710127378e+01
2.030983093219e+01
2.002753575330e+01
2.013973180259e+01
1.675674395864e+01
1.814331741737e+01
1.886963146682e+01
1.569976335124e+01
1.344905329381e+01
1.841918188097e+01
1.844849940380e+01
2.065483550835e+01
1.845736864785e+01
2.323194644028e+01
1.841568787883e+01
1.987094548778e+01
1.854165380936e+01
1.137556095451e+01
2.708722708717e+01
1.944489259232e+01
1.739893639232e+01
2.018496117837e+01
1.884344628557e+01
2.224326438557e+01
2.108612533268e+01
2.364321361318e+01
2.039357146301e+01
1.953675031496e+01
1.687687530173e+01
-1.850180184073e+01
2.053955336835e+01
2.112058900928e+01
2.483986374084e+01
2.332730061914e+01
2.117098370738e+01
-5.595463772506e+01
1.800975541494e+01
1.696345450583e+01
1.685522759254e+01
1.611135314535e+01
2.551957206591e+01
2.066688791334e+01
2.648413205493e+01
2.817640537922e+01
2.088598469993e+01
-1.913054347779e+01
1.229740805937e+01
2.215266789577e+01
1.248982497195e+01
2.124631364389e+01
2.074866069467e+01
1.588403765057e+01
1.649472996127e+01
2.806516032522e+01
1.692310131512e+01
2.127744420603e+01
1.387360894235e+01
1.451589376420e+01
2.078119175472e+01
1.393881007980e+01
1.976699177633e+01
2.020247723265e+01
1.577880542771e+01
1.595459534984e+01
2.319306510847e+01
2.842140824416e+01
2.076671468621e+01
2.021907444413e+01
2.008695149713e+01
2.214037024877e+01
1.764984686073e+01
1.974959027879e+01
2.227149145507e+01
2.072838160631e+01
2.714909130102e+01
2.750701754705e+01
2.613283872606e+01
1.629182689269e+01
2.112842730838e+01
1.038210009413e+01
2.068053455150e+01
2.493475011331e+01
2.047629284200e+01
1.884890011673e+01
8.999999999681e+01
1.985659159997e+01
1.843253553903e+01
2.061310839563e+01
1.681335493991e+01
2.079731101357e+01
2.598765347016e+01
2.152003833648e+01
2.350857964237e+01
2.433954737980e+01
1.235873004957e+01
2.071274877419e+01
2.940285326032e+01
2.214752283367e+01
1.525569656493e+01
1.781408461559e+01
2.568134115754e+01
1.660196630189e+01
2.078132129034e+01
1.808900516386e+01
2.229823472643e+01
1.809738766111e+01
2.351581033025e+01
2.651713147032e+01
2.246317760089e+01
1.749954431521e+01
1.874072476112e+01
2.281486983968e+01
1.898883852250e+01
1.992897895956e+01
2.527418685251e+01
1.797099336806e+01
2.054594325490e+01
2.420743028015e+01
2.122136427986e+01
1.866992215145e+01
1.659414718367e+01
2.070262834673e+01
2.162670237034e+01
2.241729578086e+01
1.388893720184e+00
2.108514110941e+01
1.868338757841e+01
2.304691514928e+01
2.064343117284e+01
2.207298510111e+01
1.330816323928e+01
1.509408091152e+01
2.431750938246e+01
2.213986167514e+01
2.351288415574e+01
1.682257120242e+01
1.364425805221e+01
2.236583595954e+01
1.601707892688e+01
1.928247434601e+01
2.326684805138e+01
2.173194215404e+01
2.058347189450e+01
-5.620188067957e+01
2.335388215648e+01
2.285865713537e+01
1.953332753797e+01
2.128022474115e+01
2.254956594021e+01
1.587424436776e+01
2.088750277975e+01
2.062794883938e+01
1.711348047101e+01
1.942503975656e+01
1.707382658819e+01
1.912196675901e+01
-4.713426830125e+01
1.557818415722e+01
1.694455515134e+01
-5.667237980786e+01
1.880626890945e+01
2.232852623694e+01
1.851458754825e+01
2.393073320400e+01
2.391574218606e+01
1.325816615719e+01
1.254167069041e+01
1.946072064045e+01
1.709859935844e+01
8.999999999681e+01
6.305807630648e+00
-1.066307203172e+01
1.545600895477e+01
1.918630269146e+01
1.849152754785e+01
2.137691875572e+01
1.597151526188e+01
2.028339691238e+01
2.204535205301e+01
2.970065983240e+01
1.688911433896e+01
1.520045723425e+01
2.104165019004e+01
2.061371903774e+01
1.769508051358e+01
1.907868370102e+01
2.233870688178e+01
2.197028310624e+01
8.063918460917e+00
2.209756409200e+01
-1.431370276740e+00
1.849891067907e+01
1.974250380172e+01
-1.716522093285e+01
1.722080023725e+01
1.872670185554e+01
8.999999999681e+01
1.248726337741e+01
1.256621454825e+01
2.338795866613e+01
1.523135274446e+01
2.165464922643e+01
2.449477094226e+01
2.102245075145e+01
2.039734795848e+01
1.809813721507e+01
1.855415141380e+01
-9.743172765369e-01
1.312670825953e+01
1.272191862234e+01
1.278904985467e+01
-5.592672233107e+01
-1.778172814452e+01
-2.122680745017e+00
1.249474353568e+01
-1.723900794310e+01
1.811879071458e+01
2.958401793805e+00
1.489034034823e+01
1.674385467118e+01
1.261733139332e+01
1.924454948075e+01
2.214255438045e+01
1.602176684033e+01
1.581497075340e+01
-8.092080853880e-01
1.977662789474e+01
1.966630045220e+01
1.529696181086e+01
1.265690385907e+01
1.592187125918e+01
1.965807930252e+01
1.407885658584e+01
1.256791387942e+01
1.254895951942e+01
1.170344017958e+01
1.998392877177e+01
1.963566435402e+01
-1.773943708677e+01
-5.573611384000e+01
2.607478854228e+00
2.021842661349e+01
2.044823303057e+01
9.508703032646e+00
1.812594793882e+01
-4.669743394016e+00
2.347907110704e+01
-3.331641295501e+01
1.328794455852e+01
2.352428495621e+01
2.051705609107e+01
1.667205775399e+01
1.425404500600e+01
-1.676974256942e+01
2.018230062779e+01
1.971679891636e+01
1.965576965362e+01
1.266478390689e+01
2.332831710471e+01
1.976250563981e+01
2.104999786032e+01
-1.215090922510e+00
-1.740638231895e+01
-1.726394001870e+01
1.680395939621e+01
2.064812843917e+01
1.927690450510e+01
8.984246884961e+01
1.801854146938e+01
2.056273336436e+01
2.068814023413e+01
2.099167662683e+01
1.756242025486e+01
1.838704050701e+01
2.054991428860e+01
2.055913515191e+01
1.812455332854e+01
8.999999999681e+01
1.278197246429e+01
1.274391433357e+01
8.999999999681e+01
2.057533497903e+01
2.096658395052e+01
2.057561310983e+01
8.999999999681e+01
8.999999999681e+01
2.059890611598e+01
2.058871925929e+01
1.725094483494e+01
1.283843083727e+01
1.784767312296e+01
1.562130478212e+01
1.285148905160e+01
8.999999999681e+01
-6.107168701225e+01
-6.172910316606e+01
8.999999999681e+01
1.837116531193e+01
1.764100674739e+01
-5.634377301342e+01
1.961687368152e+01
-5.639380317965e+01
1.988207696104e+01
1.974300345669e+01
1.979345440787e+01
7.538168709776e+00
1.452173288311e+01
1.972732364202e+01
2.025977330452e+01
1.974802956012e+01
2.039707290078e+01
2.049593272265e+01
1.724125481579e+01
1.964742483804e+01
1.966581922398e+01
2.031901493881e+01
2.044301052977e+01
2.007104992556e+01
-2.907816875817e+01
1.790032348982e+01
-1.867087730869e+01
2.089806314556e+01
1.881343289055e+01
2.052453750570e+01
1.150252800143e+01
-4.773911286739e+00
2.050373263263e+01
1.850799536628e+01
1.644799277095e+01
2.041737348221e+01
1.882110031227e+01
1.634478556783e+01
2.209703627282e+01
2.119609602014e+01
2.021005269745e+01
2.017834426593e+01
2.711621163026e+01
1.268228066256e+01
2.112059565429e+01
2.041795987470e+01
2.038812198382e+01
2.017980296167e+01
1.352808931751e+01
1.877158705353e+01
1.829728356075e+01
1.474180222260e+01
2.072379072006e+01
2.029582792308e+01
1.882751116316e+01
1.856865496785e+01
2.105260262935e+01
2.046197320520e+01
1.813766243868e+01
2.010887912692e+01
2.077422445158e+01
1.877218801994e+01
1.734887328276e+01
2.195192253949e+01
1.177506219426e+01
1.328003515616e+01
-1.620193023335e+00
-3.454956060336e+00
1.855430043684e+01
2.041139769253e+01
-1.368163067524e+01
1.872170665336e+01
1.520439315073e+01
2.048025696142e+01
2.032120393137e+01
2.064715036658e+01
2.025363377731e+01
1.470163436878e+01
2.291594181803e+01
2.071126548732e+01
1.154622535398e+01
2.099393546447e+01
1.771294438647e+01
1.276830589500e+01
1.544344554423e+01
1.899079373343e+01
1.655342242099e+01
1.685405602441e+01
1.804268788845e+01
1.704284943284e+01
1.936545369791e+01
2.009489286640e+01
2.026026443095e+01
1.774003627685e+01
9.434210304497e+00
1.884053545632e+01
2.173344703149e+01
1.795899340516e+01
1.816990793455e+01
2.081075488326e+01
2.113785883512e+01
1.736750907518e+01
2.544899908740e+01
-1.778469799954e+00
3.008108490349e+01
2.046389298770e+01
1.698596862350e+01
1.927257761608e+01
1.567834458276e+01
2.186407506731e+01
1.934978539467e+01
2.035680918536e+01
1.198761246161e+01
2.088196666031e+01
1.910571302572e+01
1.297212447821e+01
1.864699674969e+01
1.708363649633e+01
1.469445824577e+01
1.940156826179e+01
-5.511111168422e+01
-5.497179883943e+01
2.011724666556e+01
1.088345987593e+01
2.046999022198e+01
2.061832666652e+01
1.893256000032e+01
2.045791099403e+01
1.841005959941e+01
2.869378561046e+01
1.735237591907e+01
2.178707623543e+01
8.709284530008e+00
1.617388338212e+01
1.519280595141e+01
8.063278128902e+00
2.135126977575e+01
1.750826356656e+01
1.055172141542e+01
1.861208114205e+01
1.865453785077e+01
1.215487889996e+01
1.615174419141e+01
1.252454468180e+01
2.028120569481e+01
1.936958834724e+01
1.873092957751e+01
1.844468430575e+01
2.036022213585e+01
2.055892894039e+01
9.603573732726e+00
2.043485213306e+01
1.754899599678e+01
1.921807594861e+01
1.695457020784e+01
1.786305548057e+01
2.463809588156e+01
1.822232739259e+01
1.837530817448e+01
1.916058274589e+01
1.626035690613e+01
1.855371403397e+01
1.727732446337e+01
2.157019268610e+01
1.342520267642e+01
2.457771782590e+00
1.723908657532e+01
1.340738695720e+01
2.103339848253e+01
1.764501039812e+01
2.063669198163e+01
2.111564469271e+01
1.799007530321e+01
1.196550469324e+01
5.144594083944e+00
2.073273956270e+01
1.666876057565e+01
-2.257383822138e+00
1.656928004961e+01
1.070048672604e+01
1.651316395583e+01
1.680881917160e+01
2.093500696909e+01
1.620566639331e+01
1.827729084867e+01
1.538805669425e+01
2.117263468576e+01
1.240781158988e+01
2.091790828941e+01
1.878158383781e+01
2.079286647963e+01
2.777657823358e+01
1.043841360360e+01
1.577836786453e+01
2.315498576906e+01
1.666891782174e+01
1.663549943245e+01
1.559741189715e+01
1.675160465907e+01
9.429531866269e+00
2.107695509245e+01
2.310961255639e+01
2.249274703105e+01
1.890614016725e+01
2.171007909270e+01
9.099733567343e+00
2.142414835229e+01
2.126412976235e+01
1.993105647570e+01
2.058810791515e+01
1.761495340643e+01
2.214876623649e+01
2.114666094360e+01
1.548123567657e+01
1.390986529670e+01
1.628241381050e+01
1.894464136052e+01
2.099165269399e+01
1.396600575131e+01
1.995449671138e+01
1.716746357775e+01
1.620240746463e+01
1.592805382369e+01
1.891892339130e+01
2.159194983546e+01
2.175452061889e+01
1.565375907690e+01
1.903981115520e+01
2.205233231661e+01
2.123516381254e+01
1.789954250216e+01
1.843190780107e+01
1.736215590644e+01
9.648074250840e+00
2.172695332183e+01
1.749304906874e+01
1.682458830123e+01
1.637170662882e+01
2.486057066186e+01
1.640700651890e+01
2.810200024070e+01
1.662345773126e+01
1.787569336586e+01
1.088433247589e+01
2.186520904348e+01
2.131372287136e+01
1.819052355780e+01
2.220182132914e+01
2.187162010018e+01
2.182814932430e+01
2.216248761726e+01
1.098845505623e+01
2.152308640624e+01
2.139115237208e+01
1.864687087144e+01
1.910570760703e+01
2.189393721873e+01
1.686707562716e+01
1.839825680559e+01
1.950924910363e+01
1.525281973441e+01
1.845384170258e+01
1.947177570961e+01
1.418000011712e+01
1.311780778289e+01
2.118122666383e+01
2.152730660419e+01
1.941839301505e+01
-5.832631309231e+01
2.436140895218e+01
2.287677267679e+01
2.027547595817e+01
1.641623743144e+01
2.164678584045e+01
1.583861593760e+01
2.044201251883e+01
1.799088055934e+01
1.577605173122e+01
1.419285594891e+00
7.368298133594e+00
1.931825644334e+01
1.794339460723e+01
2.359337039928e+01
2.130960285388e+01
1.192128177018e+01
7.713013217958e+00
1.571356042963e+01
1.418416965582e+01
2.207436831299e+01
1.955764439904e+01
1.607460162272e+01
1.829748573424e+01
1.945617017349e+01
2.493451263529e+01
1.913485389543e+01
1.608632436141e+01
2.012257722725e+01
2.361929556803e+01
2.689602171964e+01
1.190938990390e+01
1.790008034122e+01
2.184430167753e+01
2.262751179239e+01
1.484239450667e+01
2.232698245412e+01
2.331828481453e+01
2.476185755203e+01
1.727039565254e+01
2.316648391617e+01
1.712402207944e+01
2.545194427249e+01
2.179481009884e+01
1.958305887008e+01
2.170278751768e+01
2.290825769096e+01
1.955208087910e+01
1.720683819937e+01
1.722495104292e+01
1.656550614968e+01
1.848111896340e+01
2.343134408390e+01
2.305763774390e+01
1.704695917124e+01
1.744543833897e+01
1.288038563948e+01
1.926439053279e+01
8.916741296884e+00
2.181399116808e+01
1.872453327856e+01
2.296591704537e+01
1.605605046651e+01
1.801325541396e+01
2.389328325740e+01
2.427035428307e+01
1.879536513774e+01
2.147715191881e+01
1.740333515789e+01
2.314420870652e+01
1.824895622883e+01
1.766740202739e+01
2.044546136832e+01
2.147914733704e+01
2.084097414901e+01
1.601356087764e+01
1.552665061538e+01
2.204990338068e+01
2.178717068428e+01
2.196847497888e+01
5.173131556155e+00
2.911883956444e+01
2.542251938696e+01
2.461846704859e+01
2.007070833326e+01
1.900640822419e+01
1.877042231104e+01
1.869153763522e+01
1.389836356431e+01
1.791507589731e+01
2.142713060260e+01
1.886475821938e+01
1.729589258937e+01
2.089265159801e+01
2.585814864761e+01
1.772029823814e+01
1.854963358775e+01
1.780894773204e+01
1.745201919830e+01
2.148086893851e+01
2.181627563910e+01
2.175778493330e+01
2.151370422352e+01
1.083065102308e+01
2.274880574337e+01
1.723152880548e+01
1.298438403749e+01
2.485347892962e+01
2.438577165031e+01
2.375593338380e+01
2.970270117372e+01
2.544155624865e+01
2.329602501000e+01
1.398875701996e+01
2.120330073150e+01
1.656844881276e+01
1.377318081161e+01
2.220049512493e+01
2.134962511404e+01
2.289483190262e+01
1.897484778173e+01
2.474547268266e+01
2.141517337426e+01
1.670450143713e+01
1.565966067576e+01
2.309830283438e+01
2.409707245438e+01
1.456825166914e+01
2.164315729333e+01
2.401934741339e+01
2.178821667944e+01
2.177497851016e+01
2.323151619927e+01
1.776684316890e+01
2.061764999585e+01
2.159232440519e+01
7.281414138181e+00
1.700540056771e+01
2.144281649026e+01
1.805953966361e+01
2.368054468528e+01
2.525372237532e+01
1.987649021486e+01
3.081936050783e+01
1.836901595663e+01
1.381840682326e+01
-1.189377752987e+01
2.008613568481e+01
1.892825647801e+01
2.107826443347e+01
1.811836016358e+01
1.735071835236e+01
2.032866686050e+01
2.788942519627e+01
2.338320108268e+01
1.309599832680e+01
2.399845607437e+01
1.981251859928e+01
2.417946758215e+01
1.971284333378e+01
-5.584044283834e+00
2.122905304123e+01
2.622529270058e+01
1.690221473760e+01
3.103156450598e+01
2.155378477348e+01
1.695253911625e+01
1.537825471113e+01
2.286585679306e+01
2.322868645830e+01
2.177999320071e+01
1.922257237894e+01
1.753567670503e+01
2.178831482839e+01
1.706040851444e+01
1.895769546548e+01
1.792353369834e+01
1.817951354055e+01
2.892943862642e+01
2.113612800309e+01
1.763580265023e+01
2.377066731334e+01
1.475775308803e+00
2.147607543862e+01
3.032109643944e+01
1.479213491710e+01
2.208255461154e+01
9.633310107165e+00
2.109607919609e+01
2.281361545148e+01
1.870172903537e+01
1.894488083248e+01
2.287577301016e+01
1.825079065272e+01
2.528409385908e+01
1.912744113358e+01
6.231340554243e+00
1.915011951130e+01
9.426273719546e+00
1.057624757138e+01
2.478600017152e+01
1.170077790460e+01
2.181508741311e+01
2.328796250911e+01
2.484527635439e+01
2.858217868254e+01
2.539609293817e+01
1.859341703191e+01
1.907870753382e+01
2.121100171886e+01
2.180449704009e+01
2.407284713264e+01
1.822798157723e+01
2.516777360449e+01
2.093244159311e+01
1.797659318077e+01
1.786533645730e+01
2.354519028696e+01
2.545128481143e+01
1.949117724659e+01
1.710281057844e+01
2.619061077393e+01
2.977687116268e+01
1.959702195504e+01
1.760177525985e+01
2.078295296240e+01
1.758524158916e+01
2.554090809216e+01
1.828640696619e+01
2.267865424276e+01
1.832945172146e+01
1.948697315066e+01
1.653773320831e+01
2.234477169113e+01
2.463674681900e+01
2.255994598986e+01
2.025353438621e+01
1.876187285194e+01
1.954743754913e+01
2.402727548850e+01
3.047212982304e+01
2.088160473757e+01
2.108759109561e+01
2.565005755725e+01
2.361153619263e+01
2.215888121644e+01
2.927084753538e+01
2.456210472656e+01
1.702300529687e+01
2.067540642123e+01
1.748052365879e+01
2.041587697982e+01
1.655476552259e+01
1.560141551690e+01
1.765975843312e+01
2.213821587938e+01
2.114334308529e+01
1.727617818741e+01
1.897802429828e+01
1.607697831608e+01
2.724234150306e+01
2.069626054577e+01
1.882466020944e+01
2.221113869627e+01
2.126514328001e+01
2.632674566846e+01
1.758252383949e+01
1.494227145984e+01
2.190612517679e+01
1.585549607380e+01
2.247397649967e+01
2.070581810460e+01
2.595377097421e+01
2.905975922553e+01
1.897432032745e+01
1.482610216960e+01
2.433000660256e+01
2.091529327393e+01
1.722587481267e+01
2.137410833729e+01
2.442776764603e+01
2.962666263400e+01
2.065537106341e+01
1.863956118545e+01
2.232808392492e+01
1.993541732165e+01
2.053626166103e+01
2.165318284756e+01
2.655285580117e+01
1.647718554193e+01
2.062167659565e+01
2.614565875654e+01
2.079292979714e+01
2.126133477502e+01
2.701706942901e+01
1.862980587343e+01
2.771614914082e+01
1.942431790745e+01
2.253356499787e+01
1.960396088389e+01
1.974025894150e+01
2.878970466885e+01
2.096010322976e+01
1.904907059333e+01
2.121083589358e+01
2.216141630844e+01
2.480670999066e+01
1.905874364717e+01
2.059471903011e+01
1.891594030169e+01
1.982877242310e+01
1.695573225555e+01
2.094766715929e+01
2.151592123178e+01
1.288074112730e+01
1.288674506983e+01
1.731030517701e+01
1.948542770876e+01
2.042790903485e+01
1.784901998797e+01
2.204180071245e+01
2.201884345455e+01
2.426364277359e+01
1.971767528795e+01
1.452604180502e+01
2.196967443676e+01
2.107695492848e+01
2.950877605586e+01
2.057165478190e+01
1.909695628949e+01
1.756475019626e+01
1.689128007540e+01
1.824173817682e+01
1.839025957500e+01
5.516945172926e+00
2.048355055138e+01
1.527197261058e+01
1.727747696625e+01
1.752540941609e+01
2.209083793028e+01
1.094154703430e+01
2.815931303661e+01
1.936512850374e+01
1.989554882020e+01
1.072133563995e+01
1.172002292529e+01
1.684237473540e+01
2.779072811921e+01
2.057495380853e+01
2.271162368392e+01
3.002425289909e+01
2.055886669245e+01
1.847340505371e+01
1.962785700894e+01
2.098654613872e+01
-2.675650859481e+00
2.279261119502e+01
1.930549990780e+01
-2.509170977631e+00
1.852123895180e+01
2.936992805952e+01
1.734617973319e+01
1.775091319445e+01
2.424232336667e+01
2.299167413128e+01
1.875017574274e+01
2.272207271113e+01
2.041443321584e+01
2.013436452115e+01
2.640946461878e+01
3.016083375380e+01
2.028238971655e+01
1.602181106288e+01
2.062168174743e+01
2.523683816633e+01
1.822782159866e+01
2.002752227337e+01
1.243035707313e+01
2.011861457097e+01
2.078767654952e+01
1.996494477874e+01
2.085163298141e+01
2.086882740339e+01
1.894398080268e+01
2.322968271888e+01
1.817040366148e+01
2.335311149349e+01
2.241691893923e+01
2.291309687352e+01
2.862123993568e+01
2.427475848500e+01
2.801193034227e+01
1.777525608604e+01
2.768703206724e+01
1.776951088680e+01
2.217006268104e+01
2.248470575668e+01
2.322592955138e+01
1.648225829162e+01
2.080519943957e+01
2.065462547138e+01
2.469441383411e+01
1.817277997189e+01
2.066399201969e+01
8.356496365986e+00
2.001218430351e+01
2.508689310973e+01
2.066712645368e+01
2.911464571671e+01
1.904310036448e+01
2.215332114709e+01
1.643648178703e+01
1.602543882702e+01
1.968785254044e+01
8.249536544461e+00
9.568065296685e+00
2.056599589608e+01
2.267912154864e+01
2.387397119935e+01
2.306295719547e+01
2.481600610166e+01
2.830661060515e+01
7.861753874830e+00
1.507651772147e+01
1.289666734126e+01
2.248450881340e+01
2.387342051899e+01
2.152835797462e+01
2.030663082317e+01
2.431456662398e+01
2.067372618644e+01
2.684945026530e+01
2.154598602142e+01
2.029067396150e+01
2.068499083925e+01
2.205279196999e+01
1.977643674445e+01
1.814853753130e+01
2.437342323931e+01
1.773298950086e+01
2.482402466785e+01
2.127068098322e+01
2.489388259613e+01
2.080232873649e+01
1.758490408108e+01
2.760517978119e+01
2.299205879057e+01
2.069800065103e+01
4.797954382321e+00
2.035680018074e+01
1.914042042995e+01
1.645366604714e+01
5.107531476507e+00
1.993019750571e+01
3.154271473246e+01
6.728254840334e+00
2.391648424008e+01
1.956845233401e+01
1.197053748685e+01
2.566240998854e+01
2.289929363058e+01
1.961029283425e+01
2.267373701769e+01
1.898662486559e+01
2.897654963397e+01
2.002051634018e+01
1.978464867819e+01
1.565322033212e+01
1.322451349833e+01
1.644286043437e+01
1.998637946264e+01
-1.293767695886e+00
1.475236207622e+01
1.050755812490e+01
1.954693195177e+01
2.610289413494e+01
2.535553663978e+01
2.769765084388e+01
2.019727863625e+01
1.730079389126e+01
1.973555065841e+01
2.665062366168e+01
1.827955875967e+01
1.473581151991e+01
2.191985583573e+01
1.955614769842e+01
1.992469598246e+01
1.107325837432e+00
2.537546916459e+01
1.971291034079e+01
1.689711499287e+01
1.615835210338e+01
3.160794464300e+00
2.008539485124e+01
2.319499795686e+01
2.094899203815e+01
2.151035911698e+01
9.594828377284e+00
2.368987825650e+01
2.300035366508e+01
3.907918220820e+00
1.958909578596e+01
1.388522270917e+01
1.372782026192e+01
1.987873932442e+01
2.364507428527e+01
2.014546720546e+01
2.252624913600e+01
1.862448838278e+01
2.411299075098e+01
2.229417059811e+01
2.107636697912e+01
2.001309654134e+01
1.985942634320e+01
2.688129044647e+01
3.945652944747e+00
2.888382845481e+01
1.996540650165e+01
2.226258183711e+01
2.087245972370e+01
1.863688292801e+01
7.566182256450e+00
1.831962336623e+01
2.130495136811e+01
6.000939721495e+00
1.973169968271e+01
2.055630885394e+01
1.447742235560e+01
2.251321206429e+01
2.042750695848e+01
2.675216255215e+01
2.359306187246e+00
2.787538230804e+01
1.896247156335e+01
1.688556421269e+01
1.271308355151e+01
2.086541984161e+01
1.220025475960e+01
2.102739797985e+01
1.688586386199e+01
2.088627597527e+01
2.055742891102e+01
2.272496586833e+01
1.937625304563e+01
2.144303385726e+01
1.770778034473e+01
2.036577272262e+01
2.463234390987e+01
1.867057295153e+01
9.319766808540e+00
2.606566569195e+01
1.786988053486e+01
1.941676363071e+01
1.926384891593e+01
2.108159078965e+01
2.133998028190e+01
-3.519738058051e+00
-4.547298767175e-01
1.817533125710e+01
2.337712681595e+01
2.289436635698e+01
1.874175904476e+01
1.935512892465e+01
-2.151162761510e+00
1.756010099190e+01
1.986476565142e+01
2.756976114098e+01
1.963113679547e+01
9.678911367839e+00
2.308698137549e+01
1.834710133423e+01
2.376525813490e+01
2.651792112654e+01
2.308293799576e+01
1.738068320246e+01
2.340515212372e+01
2.344989610972e+01
2.126231497393e+01
1.664627771070e+01
1.728346589841e+01
2.282999160480e+01
2.312522160622e+01
1.449132730334e+01
1.700300712075e+01
1.904218016060e+01
1.861603914027e+01
-2.216016153527e+01
2.277941983731e+01
1.346026186634e+01
1.433881778123e+01
1.909868894111e+01
2.166870297460e+01
1.905849164259e+01
2.499297556612e+01
1.280992485024e+01
2.085337923583e+01
1.154041524432e+01
2.232852406157e+01
2.259701261446e+01
8.365893396882e+00
1.792010229563e+01
2.610318571472e+01
8.734825329836e-02
2.674520219712e+01
1.989633731837e+01
1.773137732053e+01
8.418330881788e+00
1.889831118742e+01
1.874050712277e+01
2.163641597882e+01
1.991809026777e+01
1.387086363114e+01
2.261914285530e+01
1.647377262470e+01
4.844447148629e+00
2.027642609357e+01
1.962636753674e+01
1.516328814276e+01
1.922559173962e+01
1.975549247085e+01
2.520517049312e+01
2.332870330449e+01
2.162525775194e+01
9.407334951774e+00
1.301336165377e+01
1.918184035394e+01
1.882232544296e+01
2.483717988404e+01
7.283062129424e+00
3.948835419134e+00
1.491271908349e+01
2.593079598572e+01
1.452612551368e+01
2.126022310666e+01
2.078954722476e+01
2.089531271535e+01
2.369406612030e+01
1.383670431054e+01
8.709250067643e+00
2.004116371382e+01
2.186505758531e+01
1.688822821858e+01
2.231744003318e+01
2.235413493772e+01
2.428328780964e+01
2.370896020475e+01
1.872883600593e+01
2.225686157259e+01
1.897518267695e+01
1.828142057366e+01
1.965437447660e+01
2.061962348360e+01
1.520663677276e+01
2.147896597009e+01
-1.173517706639e+01
2.193605596589e+01
2.057379184391e+01
2.338572686490e+01
2.098373629850e+01
2.212335669085e+01
1.400864158020e+01
1.903001610385e+01
1.878303613247e+01
2.143198475076e+01
1.866210278937e+01
1.534221710632e+01
1.744557974368e+01
1.860704610632e+01
1.720393035071e+01
2.125590018502e+01
1.250728589338e+01
1.414608970725e+01
1.509930035834e+01
1.539176749315e+01
2.784819358047e+01
1.631559845562e+01
1.936536031884e+01
1.627059877887e+01
2.121544773377e+01
1.931647789743e+01
1.797048880781e+01
1.895865463230e+01
1.747371375547e+01
1.688167194382e+01
2.118140647582e+01
1.840502391050e+01
1.353537546032e+01
2.077501147062e+01
4.706352001735e+00
1.414984198757e+01
2.195183160403e+01
-6.501014358909e+00
-2.112913911798e+01
1.967207784456e+01
1.269781592667e+01
1.928339128155e+01
2.155364963875e+01
1.269411000141e+01
9.165507245376e+00
1.940808225831e+01
5.112467634806e+00
1.910475661555e+01
2.056661589548e+01
1.921865430440e+01
2.820518836071e+01
1.491207578528e+01
1.753792550047e+01
2.136786823259e+01
2.113429743959e+01
1.788942245245e+01
2.123272992671e+01
2.557992783270e+01
2.073229438366e+01
2.573936918376e+01
4.146549384200e+00
2.146752991878e+01
1.939154521581e+01
1.946013437028e+01
1.401023133744e+01
1.503506098001e+01
2.090371286319e+01
1.970217945485e+01
1.591250331915e+01
2.558570261332e+01
2.155145870318e+01
1.276522865103e+01
1.918534766016e+01
1.963335649028e+01
1.973643996695e+01
8.999999999681e+01
-5.112741652930e+01
1.304486295622e+01
1.286737220452e+01
2.055878457814e+01
2.056766026531e+01
-2.129504176558e+01
9.960230287905e+00
2.057285117431e+01
2.073732143719e+01
8.013168928471e+00
2.079949384329e+01
1.939249238393e+01
1.869906721755e+01
1.671850620708e+01
1.467028157427e+01
2.151941340528e+01
4.397927447799e+00
1.815993692444e+01
1.952682438479e+01
1.886275266573e+01
1.854376425069e+01
1.585711246523e+01
2.018798867792e+01
1.896542771905e+01
1.850423898224e+01
1.278131237887e+01
2.207392641642e+01
1.919943840554e+01
1.348584330866e+01
-2.028044679808e+01
1.980132278317e+01
2.240829401914e+01
1.449167601870e+01
1.723241501609e+01
2.055884725123e+01
2.037375375713e+01
2.044785180681e+01
1.973105896059e+01
2.350680967442e+01
-1.274080730915e+01
1.744257093151e+01
1.485185756794e+01
2.179192912552e+01
1.912858875094e+01
2.118327238491e+01
4.053482430092e+00
-3.972484434223e+00
1.224326091918e+01
1.742386809396e+01
1.549297676038e+01
1.915119809054e+01
7.856094780986e+00
2.164807627187e+01
1.493132771177e+01
2.086993718339e+01
2.101111773000e+01
1.482373305315e+01
2.134038798269e+01
1.941365778312e+01
1.936000016112e+01
1.822048807244e+01
1.900264263052e+01
2.025880191423e+01
2.187943086814e+01
2.121469058412e+01
2.057815702311e+01
1.848902868069e+01
7.984415491190e+00
2.288176509618e+01
1.913249850780e+01
1.567387342789e+01
2.044061316287e+01
2.094591695563e+01
2.068665950019e+01
1.803466043316e+01
2.095153274841e+01
2.126703832755e+01
2.137072868727e+01
1.575413361811e+01
2.072542197285e+01
1.381562989789e+01
1.900379091158e+01
-3.517050596170e+00
1.865629851042e+01
1.726870485293e+01
-1.115994199189e+00
2.785913493405e+01
1.884192152182e+01
1.942140000916e+01
1.908334551943e+01
2.136914654685e+01
1.580177623077e+01
-2.014474349411e+01
2.355736515363e+01
-1.657462384353e+01
2.495349029235e+00
2.944146629738e+01
1.791342039192e+01
2.047174373578e+01
1.923559395792e+01
1.557053134715e+01
1.721707744429e+01
2.114424219759e+01
2.190913084535e+01
2.113103091185e+01
2.004614396735e+01
1.926622609809e+01
-4.666867928282e+00
2.062471027769e+01
2.057084443376e+01
-2.423007397207e+00
2.154456671958e+00
2.590092006294e+01
-7.360870090317e+00
2.094071462016e+01
1.995053899353e+01
1.915830627628e+01
2.084776188906e+01
2.193946402532e+01
1.630315658057e+01
1.983947408476e+01
2.289341006021e+01
1.263193359419e+01
1.062275618822e+01
-1.978964965778e+01
2.065320285179e+01
1.392731264976e+01
4.501146030065e+00
1.777661000895e+01
1.982794716946e+01
1.906952082492e+01
1.953122469776e+01
1.488148222666e+01
2.005077942582e+01
2.092585338718e+01
1.965007651563e+01
2.062606277641e+01
1.395836197730e+01
2.148053699310e+01
3.932352005228e+00
1.919682215545e+01
-2.245756498095e+01
2.103642703469e+01
1.943884866592e+01
1.856781501252e+01
2.047734022070e+01
1.773582429136e+01
1.944507649786e+01
2.076495009068e+01
1.688942947181e+01
1.988237094966e+01
1.915967976280e+01
1.731406370068e+01
1.961789723829e+01
1.637449678766e+01
1.280233855024e+01
2.097914116840e+01
1.944146249555e+01
8.961123451335e+01
1.286910659847e+01
2.051060723761e+01
7.277920688838e+00
2.201603335549e+01
1.912318672577e+01
1.935814703252e+01
7.310091400837e+00
2.662597244364e+01
1.897302628304e+01
1.838162976243e+01
7.069648637338e+00
1.951150387210e+01
1.667581784764e+01
1.297961282975e+01
1.608477861578e+01
2.089982236871e+01
1.912647933785e+01
3.499586537224e+01
1.583231639638e+01
1.851619520885e+01
1.922975868433e+01
2.127788363181e+01
1.831874059353e+01
1.859397110675e+01
-7.929274006282e+00
2.091584360458e+01
1.984012254088e+01
2.791551675127e+01
1.943378747272e+01
2.051183576209e+01
1.402938984512e+01
1.665337517615e+01
1.824098308715e+01
1.837931776699e+01
1.868517218578e+01
2.201443416223e+01
8.353958873679e+00
1.984537882413e+01
1.508812029439e+01
1.937950865174e+01
2.187693061797e+01
1.604279495906e+01
1.936787351331e+01
2.127469101164e+01
2.128468476402e+01
2.713214350909e+01
1.935031584935e+01
1.961140645307e+01
-6.068734408836e+00
1.792414404532e+01
2.480499837480e+01
1.951559179079e+01
-4.750008679616e+01
-5.084809162300e+01
-5.010095712072e+01
-5.107641279722e+01
-5.057398645488e+01
-5.124077132501e+01
-5.099304527372e+01
-5.171562999283e+01
-5.148579567076e+01
-5.244263692654e+01
-5.207236930428e+01
-5.336414322309e+01
-5.275178157497e+01
-5.437173358108e+01
-5.350093180080e+01
-5.517599958660e+01
-5.425594041918e+01
-5.557200084652e+01
-3.469840882851e+01
-5.480842912066e+01
-5.575918189429e+01
-5.498264983829e+01
8.999999999681e+01
-5.588277491670e+01
-3.412366297686e+01
-5.493760983752e+01
-5.599559554309e+01
-5.479550207564e+01
-5.609474574241e+01
-5.460352110668e+01
-5.621955539684e+01
-5.436610682802e+01
-5.631899305915e+01
-1.224452138532e+01
-5.410698271357e+01
-5.644474191042e+01
-5.379591075591e+01
-5.631210972747e+01
-5.655708573770e+01
-5.349383952125e+01
-5.598176790837e+01
-5.310101397659e+01
-5.609844507016e+01
-5.153534866731e+01
-5.180659475629e+01
-4.639828065471e+01
-3.119957909438e+01
-4.558687081155e+01
-4.576218415432e+01
-5.254591905549e+01
-4.080390548271e+01
-1.164950901965e+01
-2.014342894758e+01
-1.815306192551e+01
-1.821209345885e+01
-1.798994585187e+01
-1.809572889591e+01
-1.792560041217e+01
-1.805361383942e+01
-1.786368632473e+01
-1.801411474257e+01
-1.779899722365e+01
-1.797426955093e+01
-1.773102340136e+01
-1.793140915841e+01
-1.766085324938e+01
-1.788776135690e+01
-1.758536946587e+01
-1.783690157584e+01
-1.110891833892e+01
-1.750563303421e+01
-1.777646510158e+01
-1.524990126678e+01
-1.742338283725e+01
-1.770460981204e+01
-1.734469655627e+01
-1.762723198094e+01
-1.727812313688e+01
-1.893090550914e+01
-1.755227274755e+01
-1.721565141787e+01
-1.745313953201e+01
-1.718140394269e+01
-1.734621320030e+01
-1.716118607658e+01
-1.718828918430e+01
-1.723384299646e+01
-1.709626948889e+01
-1.726954068338e+01
-9.271828185093e+00
-1.738899729872e+01
-1.675549590146e+01
-1.703059652092e+01
-1.654057655663e+01
-1.489201765531e+01
-1.971052142966e+01
-1.706851128274e+01
-1.960965096290e+01
-1.333903169782e+01
-2.524603241957e+01
-1.303932739673e+01
-2.256935270085e+00
-3.126830445603e+00
-3.148016360763e+00
-3.203351428244e+00
-3.194638783436e+00
-3.192544280085e+00
-3.180761763014e+00
-3.173902612071e+00
-3.164131536208e+00
-3.153306318951e+00
-3.148905777645e+00
-3.128046502367e+00
-3.135112176598e+00
-3.106938700985e+00
-3.128213586333e+00
-3.085894453751e+00
-9.789744690801e-01
-3.124777898876e+00
-3.056015486382e+00
-4.441656843361e+00
-3.120352604661e+00
-3.019848333634e+00
-2.970639800262e+00
-3.120058070693e+00
-2.984262906338e+00
-3.130962892561e+00
-2.954549598414e+00
-3.158313229348e+00
-2.938531655578e+00
-1.081683002214e+00
-3.190687914578e+00
-2.863788498047e+00
-3.223282000444e+00
-2.842733439922e+00
-2.664632229271e+00
-3.258146784029e+00
-2.725694012430e+00
-3.289939692297e+00
-2.147636764729e+00
-3.287316260208e+00
-6.143942047213e+00
-3.333353674727e+00
-2.127141255391e+00
-5.581361970770e+00
-5.563792885212e-01
-3.310643971039e+00
3.691101576299e+00
4.139166069849e+00
4.151564120574e+00
4.150650137130e+00
4.157800720723e+00
4.150888759071e+00
4.162502504859e+00
4.142803843361e+00
4.160454187059e+00
4.133889098332e+00
4.159833058358e+00
4.123398648959e+00
4.161753425816e+00
4.106866338217e+00
4.156847481778e+00
4.820140195303e+00
4.072542331263e+00
3.779990345808e+00
4.138312973909e+00
4.046232244719e+00
4.137898823685e+00
4.018201231683e+00
4.137724360958e+00
3.974707510483e+00
2.911756601952e+00
4.126867269065e+00
3.921348540701e+00
4.114624486677e+00
3.855349597204e+00
4.082047043387e+00
3.801948846674e+00
4.144277370847e+00
3.780477220916e+00
3.747151828397e+00
4.137564053679e+00
4.600331607690e+00
4.375505343629e+00
1.919126032477e+00
4.431798040374e+00
3.664034316491e+00
5.341203747893e+00
2.534994301417e+00
2.993167284557e+00
8.695214346711e+00
8.381207989328e+00
8.354744784806e+00
8.330810223560e+00
8.314734767501e+00
8.334109494774e+00
8.310331242853e+00
8.311802155792e+00
8.277316143977e+00
8.302308626537e+00
8.258606463869e+00
8.285370722926e+00
8.226861099298e+00
8.474206992560e+00
8.281618530333e+00
8.197737270004e+00
7.247683604186e+00
8.230240007015e+00
8.138936704121e+00
7.838000302587e+00
8.215485336335e+00
8.104416678913e+00
8.206737144380e+00
8.059721737989e+00
8.172013411826e+00
8.260236582858e+00
7.995997420778e+00
8.142600543407e+00
8.131511991254e+00
7.943067678286e+00
8.042658034114e+00
7.892713807134e+00
8.235035849710e+00
7.831759875999e+00
6.635181316059e+00
8.211861018238e+00
8.787667645603e+00
7.581649585222e+00
9.261157815742e+00
7.148185637025e+00
1.098453379378e+01
1.107812145342e+01
1.108556112663e+01
1.109583508693e+01
1.108326622576e+01
1.109359154633e+01
1.109393332146e+01
1.103958111133e+01
1.104016115268e+01
1.102804512230e+01
1.103822076558e+01
1.099303126253e+01
1.101369883306e+01
1.100085324965e+01
1.064954782552e+01
1.093099862113e+01
1.098302614902e+01
1.091184758382e+01
1.092184807003e+01
1.086708049941e+01
1.091273806022e+01
1.081460691062e+01
1.015621651109e+01
1.088582703763e+01
1.075237568526e+01
1.082658946834e+01
1.068999553094e+01
1.065091948338e+01
1.080067859671e+01
1.082161245790e+01
1.084628547276e+01
9.752165411495e+00
1.119934518386e+01
1.094465032721e+01
1.165406592523e+01
1.042920680854e+01
1.002074531068e+01


