# vtk DataFile Version 2.0
Calculation C:\Users\johan\Documents\GitHub\TOCHNOG\standsicherheit_phiC at time 8.000000000000e+00 
ASCII
DATASET UNSTRUCTURED_GRID
Field FieldData 1
Time 1 1 double
8.000000000000e+00

POINTS 1089 float
0.0 0.0 0.0 
5.000000000000e+01 -1.000000000000e+01 0.0 
0.0 -2.000000000000e+01 0.0 
5.000000000000e+01 -2.000000000000e+01 0.0 
0.0 -9.999999999991e-01 0.0 
0.0 -1.999999999998e+00 0.0 
0.0 -2.999999999997e+00 0.0 
0.0 -3.999999999994e+00 0.0 
0.0 -4.999999999991e+00 0.0 
0.0 -5.999999999988e+00 0.0 
0.0 -6.999999999985e+00 0.0 
0.0 -7.999999999982e+00 0.0 
0.0 -8.999999999983e+00 0.0 
0.0 -9.999999999985e+00 0.0 
0.0 -1.099999999999e+01 0.0 
0.0 -1.199999999999e+01 0.0 
0.0 -1.299999999999e+01 0.0 
0.0 -1.399999999999e+01 0.0 
0.0 -1.499999999999e+01 0.0 
0.0 -1.599999999999e+01 0.0 
0.0 -1.700000000000e+01 0.0 
0.0 -1.800000000000e+01 0.0 
0.0 -1.900000000000e+01 0.0 
4.900000000001e+01 -2.000000000000e+01 0.0 
4.800000000001e+01 -2.000000000000e+01 0.0 
4.700000000002e+01 -2.000000000000e+01 0.0 
4.600000000003e+01 -2.000000000000e+01 0.0 
4.500000000004e+01 -2.000000000000e+01 0.0 
4.400000000004e+01 -2.000000000000e+01 0.0 
4.300000000005e+01 -2.000000000000e+01 0.0 
4.200000000006e+01 -2.000000000000e+01 0.0 
4.100000000006e+01 -2.000000000000e+01 0.0 
4.000000000007e+01 -2.000000000000e+01 0.0 
3.900000000008e+01 -2.000000000000e+01 0.0 
3.800000000009e+01 -2.000000000000e+01 0.0 
3.700000000009e+01 -2.000000000000e+01 0.0 
3.600000000010e+01 -2.000000000000e+01 0.0 
3.500000000011e+01 -2.000000000000e+01 0.0 
3.400000000011e+01 -2.000000000000e+01 0.0 
3.300000000012e+01 -2.000000000000e+01 0.0 
3.200000000013e+01 -2.000000000000e+01 0.0 
3.100000000013e+01 -2.000000000000e+01 0.0 
3.000000000013e+01 -2.000000000000e+01 0.0 
2.900000000013e+01 -2.000000000000e+01 0.0 
2.800000000013e+01 -2.000000000000e+01 0.0 
2.700000000013e+01 -2.000000000000e+01 0.0 
2.600000000013e+01 -2.000000000000e+01 0.0 
2.500000000013e+01 -2.000000000000e+01 0.0 
2.400000000013e+01 -2.000000000000e+01 0.0 
2.300000000013e+01 -2.000000000000e+01 0.0 
2.200000000013e+01 -2.000000000000e+01 0.0 
2.100000000013e+01 -2.000000000000e+01 0.0 
2.000000000013e+01 -2.000000000000e+01 0.0 
1.900000000013e+01 -2.000000000000e+01 0.0 
1.800000000013e+01 -2.000000000000e+01 0.0 
1.700000000012e+01 -2.000000000000e+01 0.0 
1.600000000011e+01 -2.000000000000e+01 0.0 
1.500000000011e+01 -2.000000000000e+01 0.0 
1.400000000010e+01 -2.000000000000e+01 0.0 
1.300000000009e+01 -2.000000000000e+01 0.0 
1.200000000009e+01 -2.000000000000e+01 0.0 
1.100000000008e+01 -2.000000000000e+01 0.0 
1.000000000007e+01 -2.000000000000e+01 0.0 
9.000000000064e+00 -2.000000000000e+01 0.0 
8.000000000057e+00 -2.000000000000e+01 0.0 
7.000000000050e+00 -2.000000000000e+01 0.0 
6.000000000043e+00 -2.000000000000e+01 0.0 
5.000000000036e+00 -2.000000000000e+01 0.0 
4.000000000028e+00 -2.000000000000e+01 0.0 
3.000000000021e+00 -2.000000000000e+01 0.0 
2.000000000014e+00 -2.000000000000e+01 0.0 
1.000000000007e+00 -2.000000000000e+01 0.0 
5.000000000000e+01 -1.100000000000e+01 0.0 
5.000000000000e+01 -1.200000000000e+01 0.0 
5.000000000000e+01 -1.300000000000e+01 0.0 
5.000000000000e+01 -1.400000000000e+01 0.0 
5.000000000000e+01 -1.500000000000e+01 0.0 
5.000000000000e+01 -1.600000000000e+01 0.0 
5.000000000000e+01 -1.700000000000e+01 0.0 
5.000000000000e+01 -1.800000000000e+01 0.0 
5.000000000000e+01 -1.900000000000e+01 0.0 
2.000000000000e+01 0.0 0.0 
3.500000000000e+01 -1.000000000000e+01 0.0 
2.150000000000e+01 -1.000000000000e+00 0.0 
2.300000000000e+01 -2.000000000000e+00 0.0 
2.450000000000e+01 -3.000000000000e+00 0.0 
2.600000000000e+01 -4.000000000000e+00 0.0 
2.750000000000e+01 -5.000000000000e+00 0.0 
2.900000000000e+01 -6.000000000000e+00 0.0 
3.050000000000e+01 -7.000000000000e+00 0.0 
3.200000000000e+01 -8.000000000000e+00 0.0 
3.350000000000e+01 -9.000000000000e+00 0.0 
5.000000000000e+01 -7.000000000000e+00 0.0 
5.000000000000e+01 -8.000000000000e+00 0.0 
5.000000000000e+01 -9.000000000000e+00 0.0 
4.900000000000e+01 -1.000000000000e+01 0.0 
4.800000000000e+01 -1.000000000000e+01 0.0 
4.700000000000e+01 -1.000000000000e+01 0.0 
4.600000000000e+01 -1.000000000000e+01 0.0 
4.500000000000e+01 -1.000000000000e+01 0.0 
4.400000000000e+01 -1.000000000000e+01 0.0 
4.300000000000e+01 -1.000000000000e+01 0.0 
4.200000000000e+01 -1.000000000000e+01 0.0 
4.100000000000e+01 -1.000000000000e+01 0.0 
4.000000000000e+01 -1.000000000000e+01 0.0 
3.900000000000e+01 -1.000000000000e+01 0.0 
3.800000000000e+01 -1.000000000000e+01 0.0 
3.700000000000e+01 -1.000000000000e+01 0.0 
3.600000000000e+01 -1.000000000000e+01 0.0 
1.900000000000e+01 0.0 0.0 
1.800000000000e+01 0.0 0.0 
1.700000000000e+01 0.0 0.0 
1.600000000000e+01 0.0 0.0 
1.500000000000e+01 0.0 0.0 
1.400000000000e+01 0.0 0.0 
1.300000000000e+01 0.0 0.0 
1.200000000000e+01 0.0 0.0 
1.100000000000e+01 0.0 0.0 
1.000000000000e+01 0.0 0.0 
9.000000000000e+00 0.0 0.0 
8.000000000000e+00 0.0 0.0 
7.000000000000e+00 0.0 0.0 
6.000000000000e+00 0.0 0.0 
5.000000000000e+00 0.0 0.0 
4.000000000000e+00 0.0 0.0 
3.000000000000e+00 0.0 0.0 
2.000000000000e+00 0.0 0.0 
1.000000000000e+00 0.0 0.0 
3.147499999998e+01 -7.000000000000e+00 0.0 
3.244999999998e+01 -7.000000000000e+00 0.0 
3.342499999998e+01 -7.000000000000e+00 0.0 
3.439999999998e+01 -7.000000000000e+00 0.0 
3.537499999998e+01 -7.000000000000e+00 0.0 
3.634999999998e+01 -7.000000000000e+00 0.0 
3.732499999998e+01 -7.000000000000e+00 0.0 
3.829999999998e+01 -7.000000000000e+00 0.0 
3.927499999999e+01 -7.000000000000e+00 0.0 
4.024999999999e+01 -7.000000000000e+00 0.0 
4.122499999999e+01 -7.000000000000e+00 0.0 
4.219999999999e+01 -7.000000000000e+00 0.0 
4.317499999999e+01 -7.000000000000e+00 0.0 
4.414999999999e+01 -7.000000000000e+00 0.0 
4.512499999999e+01 -7.000000000000e+00 0.0 
4.609999999999e+01 -7.000000000000e+00 0.0 
4.707500000000e+01 -7.000000000000e+00 0.0 
4.805000000000e+01 -7.000000000000e+00 0.0 
4.902500000000e+01 -7.000000000000e+00 0.0 
4.900000000000e+01 -8.000000000000e+00 0.0 
4.800000000000e+01 -8.000000000000e+00 0.0 
4.700000000000e+01 -8.000000000000e+00 0.0 
4.600000000000e+01 -8.000000000000e+00 0.0 
4.500000000000e+01 -8.000000000000e+00 0.0 
4.400000000000e+01 -8.000000000000e+00 0.0 
4.300000000000e+01 -8.000000000000e+00 0.0 
4.200000000000e+01 -8.000000000000e+00 0.0 
4.100000000000e+01 -8.000000000000e+00 0.0 
4.000000000000e+01 -8.000000000000e+00 0.0 
3.900000000000e+01 -8.000000000000e+00 0.0 
3.800000000000e+01 -8.000000000000e+00 0.0 
3.700000000000e+01 -8.000000000000e+00 0.0 
3.600000000000e+01 -8.000000000000e+00 0.0 
3.500000000000e+01 -8.000000000000e+00 0.0 
3.400000000000e+01 -8.000000000000e+00 0.0 
3.300000000000e+01 -8.000000000000e+00 0.0 
3.447058823527e+01 -9.000000000000e+00 0.0 
3.544117647055e+01 -9.000000000000e+00 0.0 
3.641176470582e+01 -9.000000000000e+00 0.0 
3.738235294109e+01 -9.000000000000e+00 0.0 
3.835294117637e+01 -9.000000000000e+00 0.0 
3.932352941164e+01 -9.000000000000e+00 0.0 
4.029411764691e+01 -9.000000000000e+00 0.0 
4.126470588219e+01 -9.000000000000e+00 0.0 
4.223529411748e+01 -9.000000000000e+00 0.0 
4.320588235279e+01 -9.000000000000e+00 0.0 
4.417647058811e+01 -9.000000000000e+00 0.0 
4.514705882342e+01 -9.000000000000e+00 0.0 
4.611764705874e+01 -9.000000000000e+00 0.0 
4.708823529405e+01 -9.000000000000e+00 0.0 
4.805882352937e+01 -9.000000000000e+00 0.0 
4.902941176468e+01 -9.000000000000e+00 0.0 
2.075000000000e+01 -5.000000000006e-01 0.0 
2.225000000000e+01 -1.500000000000e+00 0.0 
2.375000000000e+01 -2.500000000000e+00 0.0 
2.525000000000e+01 -3.500000000000e+00 0.0 
2.675000000000e+01 -4.500000000000e+00 0.0 
2.825000000000e+01 -5.500000000000e+00 0.0 
2.975000000000e+01 -6.500000000000e+00 0.0 
3.125000000000e+01 -7.500000000000e+00 0.0 
3.275000000000e+01 -8.500000000000e+00 0.0 
3.425000000000e+01 -9.500000000000e+00 0.0 
2.226951693683e+01 -2.403913980114e+00 0.0 
1.650149491944e+01 -1.913490915758e+01 0.0 
1.050042386896e+01 -8.504605092970e-01 0.0 
1.553146524712e+01 -8.281255032105e-01 0.0 
1.150000000008e+01 -1.913397459621e+01 0.0 
2.530060260647e+01 -4.428336431260e+00 0.0 
8.651114563942e-01 -1.052096295641e+01 0.0 
2.050000000013e+01 -1.913397459622e+01 0.0 
2.819198729811e+01 -6.399519052838e+00 0.0 
2.445670302931e+01 -1.915649188023e+01 0.0 
3.117591465718e+01 -8.394293040695e+00 0.0 
7.465053044742e+00 -1.920411160581e+01 0.0 
6.398295709691e+00 -8.230098819370e-01 0.0 
2.849659607461e+01 -1.914296187762e+01 0.0 
3.418732642882e+01 -1.040265792588e+01 0.0 
8.386450935063e-01 -6.533605142809e+00 0.0 
9.178661865596e-01 -1.329769195597e+01 0.0 
3.149448624493e+01 -1.910466733764e+01 0.0 
3.552916747426e+01 -1.914628590759e+01 0.0 
4.449210346537e+01 -1.914359085008e+01 0.0 
4.140975975145e+01 -1.906941860733e+01 0.0 
3.847475958753e+01 -1.916622382724e+01 0.0 
3.653774794640e+01 -1.088712800241e+01 0.0 
4.047886341787e+01 -1.090139014048e+01 0.0 
4.348006339825e+01 -1.092792621489e+01 0.0 
4.919519968029e+01 -1.451526755068e+01 0.0 
4.500000000032e+00 -1.913397459621e+01 0.0 
1.856136921614e+01 -8.212235170404e-01 0.0 
3.499895312306e+00 -8.661165539723e-01 0.0 
9.076088696565e-01 -1.642306201891e+01 0.0 
4.655174095477e+01 -1.086183387525e+01 0.0 
9.430688970604e-01 -3.496112672958e+00 0.0 
3.353992337063e+01 -1.901202090820e+01 0.0 
2.249746016977e+01 -1.921262287282e+01 0.0 
2.650122741777e+01 -1.916123026018e+01 0.0 
1.863571384842e+01 -1.908325534840e+01 0.0 
1.450089971693e+01 -1.917691901860e+01 0.0 
1.350044695317e+01 -8.659695299584e-01 0.0 
3.849987469880e+01 -1.084154983397e+01 0.0 
9.454419857884e+00 -1.900818879936e+01 0.0 
4.917398660523e+01 -1.645692866081e+01 0.0 
8.500000000000e+00 -8.660254037844e-01 0.0 
8.660319230785e-01 -8.500111697188e+00 0.0 
4.649022621545e+01 -1.930506220113e+01 0.0 
2.667688107845e+01 -5.420288124331e+00 0.0 
2.379251615665e+01 -3.412225477429e+00 0.0 
2.966631491830e+01 -7.389030232731e+00 0.0 
3.267915035995e+01 -9.396934932445e+00 0.0 
2.074836922338e+01 -1.320054020319e+00 0.0 
4.915985743621e+01 -1.261973384855e+01 0.0 
2.527129768623e+00 -1.931592414663e+01 0.0 
1.538676247410e+00 -8.436956619311e-01 0.0 
4.908096641539e+01 -1.842484004551e+01 0.0 
3.478612492673e+01 -1.090889364140e+01 0.0 
3.409757055860e+01 -1.131991530427e+01 0.0 
3.501895309466e+01 -1.177687842717e+01 0.0 
3.407758073088e+01 -1.224293381580e+01 0.0 
3.484541875390e+01 -1.277051428430e+01 0.0 
3.400322025842e+01 -1.319022775640e+01 0.0 
3.321672625034e+01 -1.266779191233e+01 0.0 
3.315244139236e+01 -1.360984106532e+01 0.0 
3.236335186892e+01 -1.308463225210e+01 0.0 
3.478337442841e+01 -1.372341158982e+01 0.0 
3.230105923633e+01 -1.403023731610e+01 0.0 
3.150954055289e+01 -1.350301767700e+01 0.0 
3.144604792090e+01 -1.444931742516e+01 0.0 
3.065653897123e+01 -1.392357262981e+01 0.0 
3.071897610812e+01 -1.297447031198e+01 0.0 
2.986790411740e+01 -1.339226181535e+01 0.0 
2.993181466745e+01 -1.244703272398e+01 0.0 
2.908023061869e+01 -1.286254537734e+01 0.0 
2.901619051372e+01 -1.380881655279e+01 0.0 
2.822986160390e+01 -1.327695262116e+01 0.0 
2.829453476870e+01 -1.233265343811e+01 0.0 
2.744542905518e+01 -1.274510491105e+01 0.0 
2.751120089246e+01 -1.180368086886e+01 0.0 
2.666218649885e+01 -1.221619339205e+01 0.0 
2.672371209234e+01 -1.127125228527e+01 0.0 
2.587763216302e+01 -1.168539979114e+01 0.0 
2.581165585299e+01 -1.262994410089e+01 0.0 
2.502890882577e+01 -1.209827323619e+01 0.0 
2.509631327757e+01 -1.115492410304e+01 0.0 
2.424662989877e+01 -1.156630981079e+01 0.0 
2.431704046904e+01 -1.062389179334e+01 0.0 
2.346445438728e+01 -1.103427680694e+01 0.0 
2.339382552877e+01 -1.197964871788e+01 0.0 
2.260936050780e+01 -1.144513277642e+01 0.0 
2.268075012022e+01 -1.049911928216e+01 0.0 
2.182525737661e+01 -1.090920811464e+01 0.0 
2.189682319817e+01 -9.961716944568e+00 0.0 
2.104174127792e+01 -1.037266986667e+01 0.0 
2.111304367575e+01 -9.424179358711e+00 0.0 
2.025306185381e+01 -9.832727364719e+00 0.0 
2.018141124247e+01 -1.079140628871e+01 0.0 
1.938594498257e+01 -1.025147354112e+01 0.0 
1.946106490453e+01 -9.288010758448e+00 0.0 
1.858929958352e+01 -9.706319802516e+00 0.0 
1.851540991219e+01 -1.067205988724e+01 0.0 
1.771485303178e+01 -1.012504443115e+01 0.0 
1.764134552256e+01 -1.109360378538e+01 0.0 
1.683745148095e+01 -1.054496365337e+01 0.0 
1.691852964353e+01 -9.582555261178e+00 0.0 
1.603603813062e+01 -1.000160132379e+01 0.0 
1.595824239350e+01 -1.096750698862e+01 0.0 
1.515080624291e+01 -1.041639501931e+01 0.0 
1.523171602559e+01 -9.451711491453e+00 0.0 
1.434621060709e+01 -9.871956467464e+00 0.0 
1.426777178765e+01 -1.083749501371e+01 0.0 
1.345775282374e+01 -1.028803175500e+01 0.0 
1.354103873368e+01 -9.324918457162e+00 0.0 
1.265072018622e+01 -9.742612837270e+00 0.0 
1.257285762070e+01 -1.071557782384e+01 0.0 
1.175874815690e+01 -1.015972324288e+01 0.0 
1.184203019714e+01 -9.193604071377e+00 0.0 
1.094927709905e+01 -9.612103238656e+00 0.0 
1.086938022910e+01 -1.058685085646e+01 0.0 
1.005424098961e+01 -1.002939116380e+01 0.0 
9.977974613295e+00 -1.101324897989e+01 0.0 
1.012915646404e+01 -9.051815821181e+00 0.0 
9.237127782494e+00 -9.471239055559e+00 0.0 
9.308426593771e+00 -8.483376461131e+00 0.0 
8.418806073345e+00 -8.910712374517e+00 0.0 
2.253688464062e+01 -1.239459402279e+01 0.0 
8.495126726666e+00 -7.921646665254e+00 0.0 
9.389727383206e+00 -7.512103628377e+00 0.0 
7.601560812974e+00 -8.349460349344e+00 0.0 
7.525680547759e+00 -9.339736686940e+00 0.0 
7.677888324502e+00 -7.359727833346e+00 0.0 
6.782001206724e+00 -7.788454494773e+00 0.0 
6.858778622885e+00 -6.797338062822e+00 0.0 
2.196596590865e+01 -8.979025665442e+00 0.0 
2.816540108272e+01 -1.422634142353e+01 0.0 
5.961601194403e+00 -7.226824010712e+00 0.0 
6.038171749656e+00 -6.234825887079e+00 0.0 
6.936257279557e+00 -5.805287640737e+00 0.0 
6.115068918323e+00 -5.242109758768e+00 0.0 
3.564391741903e+01 -1.329240553876e+01 0.0 
3.558115605778e+01 -1.425902892003e+01 0.0 
3.645445282201e+01 -1.381970786460e+01 0.0 
3.639744204358e+01 -1.479198128612e+01 0.0 
3.727266909778e+01 -1.435399586226e+01 0.0 
5.216667013081e+00 -5.671788584287e+00 0.0 
3.220697293295e+01 -1.499594545107e+01 0.0 
3.551112158269e+01 -1.523479869250e+01 0.0 
2.836056961467e+01 -1.139032434851e+01 0.0 
2.516730388602e+01 -1.021382726837e+01 0.0 
1.844436907403e+01 -1.164097215196e+01 0.0 
5.885434318740e+00 -8.218694781467e+00 0.0 
5.064071066867e+00 -7.656614643901e+00 0.0 
4.988089103470e+00 -8.649722082718e+00 0.0 
1.079421050408e+01 -1.157014985435e+01 0.0 
9.902420005256e+00 -1.199903342656e+01 0.0 
1.071994252214e+01 -1.255727909771e+01 0.0 
9.826974788171e+00 -1.298659581767e+01 0.0 
1.064607883789e+01 -1.354595476388e+01 0.0 
9.751541265343e+00 -1.397556905071e+01 0.0 
8.932296185869e+00 -1.341553353988e+01 0.0 
8.856399248106e+00 -1.440570715508e+01 0.0 
8.036186803543e+00 -1.384470558472e+01 0.0 
1.057112875118e+01 -1.453516759081e+01 0.0 
1.146582585687e+01 -1.410539926903e+01 0.0 
7.959894480382e+00 -1.483563350928e+01 0.0 
7.138792279156e+00 -1.427465094140e+01 0.0 
7.062506792418e+00 -1.526615385482e+01 0.0 
6.240693558277e+00 -1.470508863040e+01 0.0 
6.316957575451e+00 -1.371212581281e+01 0.0 
5.418183007107e+00 -1.414253605022e+01 0.0 
5.494748364428e+00 -1.314886770603e+01 0.0 
1.756825565873e+01 -1.206433872514e+01 0.0 
1.837565773345e+01 -1.261356468266e+01 0.0 
1.749574831391e+01 -1.303769280014e+01 0.0 
1.830539187332e+01 -1.358828364284e+01 0.0 
1.742278925170e+01 -1.401367746928e+01 0.0 
1.823303007798e+01 -1.456432294258e+01 0.0 
1.734941694138e+01 -1.499213734361e+01 0.0 
1.653760041637e+01 -1.443920312098e+01 0.0 
3.056237977307e+01 -1.487132260174e+01 0.0 
1.866469084762e+01 -8.742953000418e+00 0.0 
1.953669694916e+01 -8.326038909849e+00 0.0 
1.874194303780e+01 -7.780688158966e+00 0.0 
1.961032016741e+01 -7.366854697285e+00 0.0 
1.881715755159e+01 -6.821102209649e+00 0.0 
1.968369797150e+01 -6.407747217358e+00 0.0 
1.889237123259e+01 -5.858375520026e+00 0.0 
1.802038875366e+01 -6.276202618170e+00 0.0 
1.809793837984e+01 -5.307629520489e+00 0.0 
1.721985207997e+01 -5.728242054488e+00 0.0 
1.729850893523e+01 -4.756990819347e+00 0.0 
1.641745664240e+01 -5.174636548624e+00 0.0 
2.495978509456e+01 -1.304406404294e+01 0.0 
1.911567814831e+01 -1.413854250293e+01 0.0 
1.904387332608e+01 -1.511463127723e+01 0.0 
1.992115934240e+01 -1.468788025898e+01 0.0 
7.013706899628e+00 -4.812582868662e+00 0.0 
5.342091874585e+00 -1.513658157269e+01 0.0 
1.139098043784e+01 -1.509488509480e+01 0.0 
1.228151810610e+01 -1.465617481983e+01 0.0 
1.646373110164e+01 -1.541993323337e+01 0.0 
5.293328636712e+00 -4.678385108584e+00 0.0 
1.975965862987e+01 -5.448124345648e+00 0.0 
2.054318374236e+01 -5.992561293251e+00 0.0 
3.721453439063e+01 -1.533216152738e+01 0.0 
3.809302733893e+01 -1.489235527381e+01 0.0 
1.220852788900e+01 -1.565304565230e+01 0.0 
4.394120899730e+00 -5.108397613210e+00 0.0 
8.779354620288e+00 -1.539524721159e+01 0.0 
1.817791047702e+01 -4.338570146253e+00 0.0 
4.518860013839e+00 -1.457343189307e+01 0.0 
4.442712140414e+00 -1.556841391069e+01 0.0 
8.115343466391e+00 -1.285760324283e+01 0.0 
1.985334703171e+01 -1.566478400426e+01 0.0 
2.071953850276e+01 -1.522074243119e+01 0.0 
1.634012953883e+01 -6.154777738301e+00 0.0 
1.553479994708e+01 -5.593730508879e+00 0.0 
1.561265946942e+01 -4.617761762647e+00 0.0 
1.470674212978e+01 -5.064576488228e+00 0.0 
1.464498299883e+01 -6.026514471420e+00 0.0 
1.383271561817e+01 -5.467796261169e+00 0.0 
1.389241253067e+01 -4.504338666645e+00 0.0 
1.301868735463e+01 -4.907185188626e+00 0.0 
1.294514184846e+01 -5.888160903592e+00 0.0 
1.212955968622e+01 -5.328262335277e+00 0.0 
1.220721122383e+01 -4.341264976687e+00 0.0 
1.131324345897e+01 -4.766773516508e+00 0.0 
5.266597955397e+00 -1.613148974258e+01 0.0 
1.737805990867e+01 -3.786677807525e+00 0.0 
3.078438094513e+01 -1.203225297748e+01 0.0 
1.131569882285e+01 -1.608511932110e+01 0.0 
1.728478341782e+01 -1.596017432313e+01 0.0 
3.803465906019e+01 -1.587509751228e+01 0.0 
3.891681276677e+01 -1.543395196905e+01 0.0 
3.897340985302e+01 -1.444710288980e+01 0.0 
3.980095968193e+01 -1.499059496613e+01 0.0 
3.974334598189e+01 -1.597921884150e+01 0.0 
4.062964983717e+01 -1.553518690417e+01 0.0 
4.068729602479e+01 -1.454434445295e+01 0.0 
4.151772679790e+01 -1.508974196007e+01 0.0 
4.157505195739e+01 -1.409694289912e+01 0.0 
4.240699932656e+01 -1.464347955968e+01 0.0 
4.234898051011e+01 -1.563721375790e+01 0.0 
4.323934606035e+01 -1.519082036405e+01 0.0 
4.329740528208e+01 -1.419587509788e+01 0.0 
4.413056841369e+01 -1.474359631875e+01 0.0 
4.418850110108e+01 -1.374786684042e+01 0.0 
4.502219770667e+01 -1.429605103525e+01 0.0 
4.496411937907e+01 -1.529215882720e+01 0.0 
4.490027319897e+00 -4.154167794594e+00 0.0 
1.565080385988e+01 -1.486411982419e+01 0.0 
1.557610691279e+01 -1.584855627870e+01 0.0 
4.195350646612e+00 -8.089117689096e+00 0.0 
4.124027797830e+00 -9.082831955007e+00 0.0 
4.917944318925e+00 -9.643530901533e+00 0.0 
4.020105689502e+00 -1.007439673661e+01 0.0 
4.587185899277e+01 -1.484039992728e+01 0.0 
4.580078661551e+01 -1.584043391042e+01 0.0 
2.061956522375e+01 -5.046701343981e+00 0.0 
2.139572955529e+01 -5.579553449826e+00 0.0 
3.715344357292e+01 -1.631485124583e+01 0.0 
3.618886196443e+00 -1.500471207167e+01 0.0 
3.695606940204e+00 -1.400939692294e+01 0.0 
2.438890661143e+01 -9.686110599723e+00 0.0 
2.523267572778e+01 -9.276766000622e+00 0.0 
2.446094171539e+01 -8.751904591412e+00 0.0 
2.529089822738e+01 -8.321495612547e+00 0.0 
2.606882688827e+01 -8.864724051119e+00 0.0 
2.452116646430e+01 -7.792756462004e+00 0.0 
1.235543269617e+01 -1.365845617339e+01 0.0 
4.318116874181e+01 -1.618567469992e+01 0.0 
7.835066111909e+00 -5.376366223896e+00 0.0 
7.905687335704e+00 -4.382539065697e+00 0.0 
3.542640009567e+00 -1.600035116542e+01 0.0 
1.572431503071e+01 -1.388358386695e+01 0.0 
2.574684696680e+01 -1.357896141127e+01 0.0 
2.488842657651e+01 -1.399674354505e+01 0.0 
2.568301775611e+01 -1.453552048595e+01 0.0 
2.481535572009e+01 -1.495542756508e+01 0.0 
2.561729699688e+01 -1.549784648532e+01 0.0 
2.474623061296e+01 -1.592058894178e+01 0.0 
2.394234041695e+01 -1.537572575827e+01 0.0 
2.065825452567e+01 -1.621899055217e+01 0.0 
2.387180528935e+01 -1.634552264687e+01 0.0 
4.585364400844e+01 -1.383912334080e+01 0.0 
1.998744432052e+01 -1.370317155541e+01 0.0 
1.205356951443e+01 -6.313580285498e+00 0.0 
5.396543905849e+00 -3.731818611283e+00 0.0 
1.139652573295e+01 -3.745819399350e+00 0.0 
3.574124306703e+00 -4.551456826011e+00 0.0 
3.494140761930e+00 -5.539787055649e+00 0.0 
1.213651452413e+01 -1.664505033022e+01 0.0 
2.555045568519e+01 -1.646529356744e+01 0.0 
2.641671114986e+01 -1.603899382371e+01 0.0 
2.612920721894e+01 -7.906435260873e+00 0.0 
2.690339829698e+01 -8.456969591431e+00 0.0 
1.978024383368e+01 -1.664410216353e+01 0.0 
3.732829979082e+01 -1.336926601859e+01 0.0 
4.074336584605e+01 -1.355133328401e+01 0.0 
4.163204691081e+01 -1.310280943992e+01 0.0 
3.773826114429e+00 -3.493444309145e+00 0.0 
1.228783001032e+01 -3.374822835872e+00 0.0 
4.057110462520e+01 -1.652588478000e+01 0.0 
2.132535497898e+01 -6.523623360525e+00 0.0 
2.216932532211e+01 -6.110044769206e+00 0.0 
1.825781152128e+01 -3.370146817147e+00 0.0 
1.745679445888e+01 -2.812942552063e+00 0.0 
4.666517057280e+01 -1.539981381543e+01 0.0 
4.660575894464e+01 -1.639014410186e+01 0.0 
4.838230979954e+00 -1.063643436446e+01 0.0 
3.938942630206e+00 -1.106778981745e+01 0.0 
1.302967218620e+01 -1.621373452436e+01 0.0 
1.049548003190e+01 -4.204825123240e+00 0.0 
4.573571907195e+01 -1.683820511148e+01 0.0 
1.483686335807e+01 -1.430849689310e+01 0.0 
1.490982658890e+01 -1.332679386284e+01 0.0 
3.190805600162e+00 -9.510968358545e+00 0.0 
2.146625721848e+01 -4.642437303115e+00 0.0 
2.069866208266e+01 -4.111852942193e+00 0.0 
1.286859345584e+01 -6.873252723348e+00 0.0 
1.041794493184e+01 -5.194814260291e+00 0.0 
2.671081808965e+00 -4.976806516331e+00 0.0 
1.295786792925e+01 -1.720506531799e+01 0.0 
3.968438206511e+01 -1.696869067241e+01 0.0 
2.308550456051e+01 -1.579963151273e+01 0.0 
2.315593682844e+01 -1.482967445235e+01 0.0 
2.299471449450e+01 -1.677069968132e+01 0.0 
1.057344714696e+01 -3.214252277840e+00 0.0 
1.124057603753e+01 -1.707713739755e+01 0.0 
2.718402535754e+00 -1.543629882103e+01 0.0 
2.638549692805e+01 -1.696744916809e+01 0.0 
2.723416349007e+01 -1.658104204545e+01 0.0 
2.210193351704e+01 -7.046769643417e+00 0.0 
2.295180925161e+01 -6.657397605239e+00 0.0 
2.301355235833e+01 -5.709111896800e+00 0.0 
2.379052718281e+01 -6.254965406962e+00 0.0 
3.243528601237e+01 -1.214181853533e+01 0.0 
2.287977995457e+01 -7.583722368300e+00 0.0 
2.999876029544e+01 -1.150837653096e+01 0.0 
3.084435366963e+01 -1.109693775882e+01 0.0 
3.006650579669e+01 -1.057778994262e+01 0.0 
2.683802665066e+01 -9.386863216633e+00 0.0 
2.768641973621e+01 -8.988883915666e+00 0.0 
2.040296980397e+01 -7.903629133404e+00 0.0 
1.925235024054e+01 -1.218872783130e+01 0.0 
5.735667000424e+00 -1.020577277283e+01 0.0 
6.396559909872e+00 -1.272326295703e+01 0.0 
1.161199420714e+01 -1.212812778229e+01 0.0 
4.229046132615e+01 -1.663084237572e+01 0.0 
4.312275399692e+01 -1.718087491556e+01 0.0 
4.335502068163e+01 -1.320039231514e+01 0.0 
4.424630298089e+01 -1.275160688731e+01 0.0 
7.090116643816e+00 -3.818998061530e+00 0.0 
7.989472176569e+00 -3.389238711200e+00 0.0 
9.085824861778e+00 -1.144036167408e+01 0.0 
1.041972423731e+01 -1.651614080893e+01 0.0 
3.797525112640e+01 -1.686052038746e+01 0.0 
3.709114253394e+01 -1.730125999865e+01 0.0 
3.626966748340e+01 -1.675477052919e+01 0.0 
1.385164591440e+01 -1.677597757552e+01 0.0 
1.787152588784e+01 -8.198993896093e+00 0.0 
1.668849729812e+01 -1.248560611628e+01 0.0 
1.659546177905e+01 -3.232482605530e+00 0.0 
2.332214717345e+01 -1.292598167641e+01 0.0 
7.168238450786e+00 -2.824711686516e+00 0.0 
2.894878403906e+01 -1.475427524446e+01 0.0 
2.646763248247e+00 -1.643270107952e+01 0.0 
3.467431944285e+00 -1.699648837348e+01 0.0 
2.059475877282e+01 -1.719473628526e+01 0.0 
3.333868355437e+01 -1.080596971682e+01 0.0 
2.246451062637e+01 -1.334557761546e+01 0.0 
2.167821896388e+01 -1.280847834858e+01 0.0 
3.089653185767e+01 -1.017198487212e+01 0.0 
3.012604365669e+01 -9.657298805968e+00 0.0 
2.929627299435e+01 -1.006100135274e+01 0.0 
2.936201435219e+01 -9.136748899251e+00 0.0 
1.198219052702e+01 -7.291887238230e+00 0.0 
1.116702076035e+01 -6.731976101053e+00 0.0 
2.551388807505e+01 -1.746927036981e+01 0.0 
2.378639090370e+01 -1.728678807149e+01 0.0 
2.718543627188e+01 -1.748668016909e+01 0.0 
2.804681050301e+01 -1.712626668293e+01 0.0 
1.970737034667e+01 -1.762317646822e+01 0.0 
1.889535776135e+01 -1.707158098231e+01 0.0 
2.593777711283e+00 -5.971157087874e+00 0.0 
2.773468281110e+01 -8.067164273938e+00 0.0 
4.051205884347e+01 -1.751819982458e+01 0.0 
3.166903145421e+01 -1.068032992414e+01 0.0 
1.033042452886e+01 -1.748285844336e+01 0.0 
9.519274604626e+00 -1.694349240233e+01 0.0 
1.668308673328e+01 -2.255861778986e+00 0.0 
1.570531902832e+01 -2.676795860126e+00 0.0 
4.655826903379e+01 -1.736656245706e+01 0.0 
2.384148070773e+01 -5.328744256413e+00 0.0 
2.460255123641e+01 -5.852182672816e+00 0.0 
2.306638135119e+01 -4.798935440613e+00 0.0 
8.467720450578e-01 -1.849576263072e+01 0.0 
4.849657322345e+01 -1.084860705506e+01 0.0 
2.565860899507e+00 -1.742859793981e+01 0.0 
2.764418872564e+01 -9.927142821799e+00 0.0 
4.565165880064e+01 -1.785336695404e+01 0.0 
2.162231831329e+01 -1.376528337468e+01 0.0 
2.360646352969e+01 -9.136041963102e+00 0.0 
1.392738739903e+01 -1.578285505772e+01 0.0 
4.756405947478e+01 -1.683706841809e+01 0.0 
4.740895034054e+01 -1.793766756892e+01 0.0 
4.080779328826e+01 -1.257387192544e+01 0.0 
4.168907939671e+01 -1.210739129181e+01 0.0 
3.991197722154e+01 -1.300815793917e+01 0.0 
1.905536506762e+01 -3.940076697685e+00 0.0 
1.923879596617e+01 -2.875000734166e+00 0.0 
4.401386745746e+01 -1.673483229438e+01 0.0 
4.247233362525e+00 -7.094581653070e+00 0.0 
3.286051630211e+00 -7.635300020553e+00 0.0 
9.609533347623e+00 -4.594311677967e+00 0.0 
9.523554636369e+00 -5.595597029530e+00 0.0 
5.660336628893e+00 -1.119290329628e+01 0.0 
6.558070063295e+00 -1.076385809362e+01 0.0 
2.809866407414e+01 -1.518037766799e+01 0.0 
2.888868674504e+01 -1.570360690070e+01 0.0 
2.654431550819e+01 -1.411217777162e+01 0.0 
1.402158265969e+01 -1.375404617952e+01 0.0 
1.409592494026e+01 -1.277071998942e+01 0.0 
1.499355196178e+01 -1.235270737023e+01 0.0 
4.221535326155e+01 -1.759335617494e+01 0.0 
4.305583287033e+01 -1.822663146802e+01 0.0 
1.280748808359e+01 -7.834332838285e+00 0.0 
1.368988389326e+01 -7.420529606172e+00 0.0 
1.110091796060e+01 -7.683966794328e+00 0.0 
3.963446145980e+01 -1.794331310122e+01 0.0 
3.423932362213e+00 -1.796415590455e+01 0.0 
4.280814572302e+00 -1.752272834860e+01 0.0 
8.050136380041e+00 -2.421582378631e+00 0.0 
8.888674091650e+00 -2.984264211327e+00 0.0 
2.152839430898e+01 -3.732609965436e+00 0.0 
2.077799585292e+01 -3.183896021866e+00 0.0 
3.618719395821e+01 -1.770276572576e+01 0.0 
3.538165138340e+01 -1.718709995539e+01 0.0 
3.702925326420e+01 -1.828844288807e+01 0.0 
1.756739438711e+00 -5.353284859169e+00 0.0 
2.233710191104e+01 -1.527265621324e+01 0.0 
1.389483555057e+01 -1.771797164730e+01 0.0 
1.475634224300e+01 -1.728357428390e+01 0.0 
1.298797563052e+01 -1.825968924755e+01 0.0 
2.145331271866e+01 -1.673705379077e+01 0.0 
2.133282821169e+01 -1.769400773673e+01 0.0 
2.292139194136e+01 -1.774915400288e+01 0.0 
1.750750053243e+01 -1.861475593469e+00 0.0 
4.830478841772e+01 -1.752611802221e+01 0.0 
4.341203507805e+01 -1.220326745522e+01 0.0 
1.685254151866e+01 -1.443085301632e+00 0.0 
4.431538535165e+01 -1.171841387375e+01 0.0 
4.511308610496e+01 -1.229557320599e+01 0.0 
4.510133242889e+01 -1.123680627466e+01 0.0 
1.846818030617e+00 -4.410877617069e+00 0.0 
3.995468694584e+01 -1.186571542989e+01 0.0 
3.901387459804e+01 -1.242507616755e+01 0.0 
8.966735877533e+00 -1.837818700423e+00 0.0 
4.049310011091e+01 -1.848269508791e+01 0.0 
7.278862053803e+00 -1.918523922691e+00 0.0 
6.429715522129e+00 -2.316676521184e+00 0.0 
9.443505505022e+00 -1.792198868094e+01 0.0 
8.620386951051e+00 -1.737590365556e+01 0.0 
8.571868171503e+00 -1.834436667826e+01 0.0 
7.758629848526e+00 -1.775677907213e+01 0.0 
7.806648388584e+00 -1.680761266021e+01 0.0 
6.908555145436e+00 -1.723746463044e+01 0.0 
4.251709122090e+01 -1.156937480156e+01 0.0 
6.931136405615e+00 -1.832465719263e+01 0.0 
6.015545461353e+00 -1.768865355295e+01 0.0 
5.960535926343e+00 -1.872011001764e+01 0.0 
3.023253444786e+01 -8.761960642196e+00 0.0 
2.454622702599e+01 -6.749421992767e+00 0.0 
2.537499741604e+01 -6.347634963783e+00 0.0 
2.544077378460e+01 -5.431358513649e+00 0.0 
2.801367161747e+01 -1.820907270221e+01 0.0 
2.884507806914e+01 -1.762032095326e+01 0.0 
1.821474531936e+00 -1.588901260460e+01 0.0 
1.821006262604e+00 -1.489370287756e+01 0.0 
4.599962488908e+01 -1.176478780598e+01 0.0 
4.705457470007e+01 -1.172182804229e+01 0.0 
4.667668314802e+01 -1.263464558483e+01 0.0 
4.759648056504e+01 -1.252380987933e+01 0.0 
4.728041618103e+01 -1.341928568376e+01 0.0 
4.825209352360e+01 -1.330491640804e+01 0.0 
4.778118233428e+01 -1.420151961695e+01 0.0 
2.388192727579e+01 -1.826934810142e+01 0.0 
2.381714684947e+01 -4.385917965223e+00 0.0 
3.172733219247e+01 -9.758744265248e+00 0.0 
1.882012070658e+01 -1.805540597212e+01 0.0 
1.805667505243e+01 -1.742221226236e+01 0.0 
2.852599958080e+01 -8.597196079481e+00 0.0 
2.856486123437e+01 -7.661382718527e+00 0.0 
1.111792842875e+01 -1.818223852980e+01 0.0 
2.203322722466e+01 -7.986646678802e+00 0.0 
3.955703676900e+01 -1.903246763601e+01 0.0 
1.944842206513e+01 -8.038750575182e-01 0.0 
1.909882767783e+01 -1.746322740933e+00 0.0 
2.281147422941e+01 -8.525912918334e+00 0.0 
2.850633001468e+01 -9.533271335986e+00 0.0 
2.532883344309e+01 -7.308951659710e+00 0.0 
2.620475466461e+01 -6.979208585400e+00 0.0 
1.396278270396e+01 -1.475095389807e+01 0.0 
9.791001166724e+00 -2.554159793552e+00 0.0 
2.229293380421e+01 -4.269762271052e+00 0.0 
4.677238984118e+01 -1.430071795514e+01 0.0 
2.228658385918e+01 -3.344747535984e+00 0.0 
8.940223674553e-01 -1.543595733415e+01 0.0 
2.118566862474e+01 -8.435876987696e+00 0.0 
2.678325936437e+01 -1.032621195706e+01 0.0 
2.223400220487e+01 -5.179046761770e+00 0.0 
2.375370625384e+01 -7.251580562134e+00 0.0 
3.156971327386e+01 -1.255534750737e+01 0.0 
3.328226391312e+01 -1.172914813316e+01 0.0 
3.250948774219e+01 -1.120157009348e+01 0.0 
2.032993445717e+01 -8.867880112202e+00 0.0 
2.697226974856e+01 -7.536633082045e+00 0.0 
2.707377810386e+01 -6.590835263295e+00 0.0 
2.914099246827e+01 -1.191678458549e+01 0.0 
3.544824072239e+01 -1.621126558525e+01 0.0 
3.456511855436e+01 -1.665054783843e+01 0.0 
3.448395810225e+01 -1.759117813016e+01 0.0 
3.368378673938e+01 -1.708037781328e+01 0.0 
3.375560452567e+01 -1.610973066913e+01 0.0 
3.288001547988e+01 -1.654324255651e+01 0.0 
3.282475929147e+01 -1.749725654692e+01 0.0 
3.199880906313e+01 -1.697294088625e+01 0.0 
3.197001272932e+01 -1.811667776864e+01 0.0 
3.111884713021e+01 -1.742166785755e+01 0.0 
3.120418962865e+01 -1.642155709385e+01 0.0 
3.034666704371e+01 -1.683123833816e+01 0.0 
3.026224379976e+01 -1.772592851714e+01 0.0 
3.046632362943e+01 -1.582232843075e+01 0.0 
1.961344017324e+01 -1.857459447985e+01 0.0 
2.274975894774e+01 -9.532738811922e+00 0.0 
1.833923246887e+01 -2.396746883672e+00 0.0 
1.988859500848e+01 -2.249244376594e+00 0.0 
2.758045562861e+01 -1.086434261689e+01 0.0 
3.247300178163e+01 -1.909930104252e+01 0.0 
3.461947482503e+01 -1.911879848019e+01 0.0 
2.047161538662e+01 -6.941478180358e+00 0.0 
2.750230940214e+01 -1.915490590764e+01 0.0 
3.165081350803e+01 -1.161860780120e+01 0.0 
1.897456727641e+01 -4.889634688522e+00 0.0 
2.549338539756e+01 -1.914858252089e+01 0.0 
3.462873135081e+01 -1.567482276144e+01 0.0 
3.384432415243e+01 -1.512280684518e+01 0.0 
3.471433767690e+01 -1.469086942990e+01 0.0 
3.651470373046e+01 -1.918207952149e+01 0.0 
3.901742690249e+01 -1.345028556517e+01 0.0 
2.153224102692e+01 -1.920169709333e+01 0.0 
1.918382939341e+01 -1.316226275662e+01 0.0 
2.005389162382e+01 -1.271962165174e+01 0.0 
2.011472087878e+01 -1.175029352900e+01 0.0 
3.210679478412e+01 -1.598038618242e+01 0.0 
1.752175226543e+01 -1.914713022656e+01 0.0 
1.696897240059e+01 -1.832772588765e+01 0.0 
1.599682523337e+01 -1.832599992024e+01 0.0 
1.644507199462e+01 -1.743697981535e+01 0.0 
1.549987712903e+01 -1.915192375101e+01 0.0 
3.050250861901e+01 -1.918943550234e+01 0.0 
2.949944061527e+01 -1.922950455235e+01 0.0 
1.375892575273e+01 -6.447160534926e+00 0.0 
1.457223670180e+01 -7.006709243857e+00 0.0 
1.450818793236e+01 -7.965943451779e+00 0.0 
1.538804712402e+01 -7.553409623699e+00 0.0 
1.545817644768e+01 -6.580929593419e+00 0.0 
1.626506893751e+01 -7.129032608911e+00 0.0 
1.619833811522e+01 -8.086588580887e+00 0.0 
1.714448609609e+01 -6.697429609777e+00 0.0 
2.887616543568e+01 -1.668015232137e+01 0.0 
1.349814589130e+01 -1.918225301544e+01 0.0 
1.153887772210e+01 -1.311384581217e+01 0.0 
1.242708159886e+01 -1.267046795531e+01 0.0 
1.249799674267e+01 -1.169005616014e+01 0.0 
6.631723893693e+00 -9.774184881867e+00 0.0 
7.451471631867e+00 -1.033148796006e+01 0.0 
7.377795355458e+00 -1.132196345268e+01 0.0 
5.810931797536e+00 -9.211654212252e+00 0.0 
2.402683899133e+01 -1.441378562320e+01 0.0 
1.249768692036e+01 -1.917388426624e+01 0.0 
1.580373499437e+01 -1.290751860664e+01 0.0 
8.344650507834e+00 -9.898403995170e+00 0.0 
3.750622115305e+01 -1.086526401533e+01 0.0 
3.699391251667e+01 -1.171695900794e+01 0.0 
3.606517829518e+01 -1.173717504500e+01 0.0 
3.650257641795e+01 -1.270047380221e+01 0.0 
3.808951488918e+01 -1.183518714175e+01 0.0 
4.760380962420e+00 -1.162484888315e+01 0.0 
3.861210370848e+00 -1.205657631736e+01 0.0 
3.038284309476e+00 -1.149851280664e+01 0.0 
2.961598794889e+00 -1.248856794980e+01 0.0 
2.138953225512e+00 -1.193212674534e+01 0.0 
2.227383593457e+00 -1.096258903918e+01 0.0 
2.043265419276e+00 -1.292158472959e+01 0.0 
1.252449446028e+00 -1.225502002753e+01 0.0 
3.949985210740e+01 -1.086594001795e+01 0.0 
1.453499444792e+01 -8.768805922472e-01 0.0 
1.403518950933e+01 -1.749965556633e+00 0.0 
1.300715031023e+01 -1.714737233040e+00 0.0 
1.350929389899e+01 -2.527443911291e+00 0.0 
1.449600910711e+01 -2.595486162864e+00 0.0 
1.395693872901e+01 -3.484211041558e+00 0.0 
1.495105865208e+01 -3.364609636216e+00 0.0 
1.508822528740e+01 -1.766586020494e+00 0.0 
1.250223858430e+01 -8.634590186802e-01 0.0 
1.200279523409e+01 -1.709044504992e+00 0.0 
1.150086239419e+01 -8.592789190668e-01 0.0 
1.101482754194e+01 -1.677730591922e+00 0.0 
1.148018564526e+01 -2.659323866909e+00 0.0 
8.800552119754e+00 -3.989875954728e+00 0.0 
3.452790439430e+00 -1.901136170646e+01 0.0 
8.658451825200e-01 -9.503462241795e+00 0.0 
1.694787786797e+00 -9.000589234502e+00 0.0 
1.703436717094e+00 -8.038819004041e+00 0.0 
2.594197971110e+00 -8.563955242845e+00 0.0 
1.630513735412e+00 -9.907244747511e+00 0.0 
8.566859292791e-01 -7.512203837972e+00 0.0 
1.685461277022e+00 -7.164280248030e+00 0.0 
2.506394468801e+00 -8.623386730818e-01 0.0 
2.007475081581e+00 -1.727729545205e+00 0.0 
9.211534699767e-01 -1.628791366312e+00 0.0 
1.500000000020e+00 -2.598063549486e+00 0.0 
2.482078929963e+00 -2.553580088725e+00 0.0 
2.999795253092e+00 -1.732169015019e+00 0.0 
3.999712607169e+00 -1.728832897453e+00 0.0 
4.499752199340e+00 -8.656478679175e-01 0.0 
4.964377774841e+00 -1.730129617941e+00 0.0 
4.425017908337e+00 -2.597541756243e+00 0.0 
5.446573195014e+00 -8.410144840023e-01 0.0 
4.915722346614e+01 -1.550640962770e+01 0.0 
4.826794919243e+01 -1.600000000000e+01 0.0 
1.053139533193e+01 -1.911782884365e+01 0.0 
4.156049861949e+01 -1.095160998589e+01 0.0 
9.494526624416e+00 -8.650570090219e-01 0.0 
4.555762166964e+01 -1.897098103585e+01 0.0 
4.250656411371e+01 -1.914387356218e+01 0.0 
4.350906466345e+01 -1.917234727395e+01 0.0 
8.759665722424e-01 -1.746422130609e+01 0.0 
1.698936011838e+00 -1.795012186674e+01 0.0 
4.742476811029e+01 -1.900090177972e+01 0.0 
7.749196752349e+00 -6.368049313489e+00 0.0 
3.361572113416e+01 -1.798765193915e+01 0.0 
4.484660149212e+01 -1.728661231383e+01 0.0 
1.984038172228e+01 -4.502575320116e+00 0.0 
1.035080352627e+01 -6.166639575753e+00 0.0 
2.753558010652e+00 -1.444909521181e+01 0.0 
7.217069543032e+00 -1.328635391078e+01 0.0 
4.364336727739e+00 -1.655585677381e+01 0.0 
4.595208426108e+00 -1.357919665443e+01 0.0 
6.164967006980e+00 -1.569873454630e+01 0.0 
1.487855768353e+01 -1.826523774028e+01 0.0 
2.791876456372e+00 -4.019632415181e+00 0.0 
4.246464893515e+01 -1.364898659620e+01 0.0 
4.503855590351e+01 -1.329552780944e+01 0.0 
4.407239109604e+01 -1.573900004093e+01 0.0 
5.141054449252e+00 -6.664290382472e+00 0.0 
3.141083947149e+00 -1.055790764912e+01 0.0 
6.196463198741e+00 -4.256497932609e+00 0.0 
2.599618716181e+01 -1.836893455464e+01 0.0 
2.923057372337e+01 -1.098461757645e+01 0.0 
1.168343877486e+01 -1.114079645041e+01 0.0 
6.706222096238e+00 -8.780364234441e+00 0.0 
8.567858614669e+00 -6.943121440850e+00 0.0 
1.123755132901e+01 -5.753525820030e+00 0.0 
2.353456234423e+01 -1.008536320953e+01 0.0 
9.162073319168e+00 -1.045593739109e+01 0.0 
9.676343469685e+00 -1.496493008366e+01 0.0 
4.490637882905e+01 -1.628778970202e+01 0.0 
7.398129387772e+00 -9.639977982323e-01 0.0 
1.049641705805e+01 -1.552503975272e+01 0.0 
9.010356286268e+00 -1.242805042052e+01 0.0 
3.985573925497e+01 -1.399863651620e+01 0.0 
1.816196318262e+01 -1.554066497931e+01 0.0 
1.306332244168e+01 -3.963646550326e+00 0.0 
4.145850903932e+01 -1.608094559275e+01 0.0 
3.794664933633e+01 -1.779020121986e+01 0.0 
3.819614412903e+01 -1.290749321016e+01 0.0 
6.270014188119e+00 -3.255093186826e+00 0.0 
4.251165370388e+01 -1.263870364997e+01 0.0 
1.207347709171e+01 -1.763942826023e+01 0.0 
3.633240829927e+01 -1.577330481104e+01 0.0 
4.319052668832e+00 -6.101812561904e+00 0.0 
1.676492415806e+01 -1.151547901392e+01 0.0 
2.594059220037e+01 -1.074225223009e+01 0.0 
3.340750911501e+01 -9.898764354137e+00 0.0 
4.397619591281e+01 -1.769773736461e+01 0.0 
2.175611595028e+01 -1.185718747128e+01 0.0 
1.641818733106e+01 -1.640685203215e+01 0.0 
1.661211421753e+01 -1.346121366338e+01 0.0 
3.428853504935e+00 -6.551993389271e+00 0.0 
8.700728832502e+00 -1.638460872825e+01 0.0 
1.931369795309e+01 -1.121629383702e+01 0.0 
4.139798872363e+01 -1.706922153459e+01 0.0 
2.647837478700e+01 -1.507353829290e+01 0.0 
1.779469616424e+01 -9.161615782908e+00 0.0 
3.885879219319e+01 -1.642026488918e+01 0.0 
1.338194936770e+01 -1.125916521471e+01 0.0 
1.897071181111e+01 -1.609204322578e+01 0.0 
2.844308548793e+01 -1.046221003096e+01 0.0 
2.659854702194e+01 -1.316109415760e+01 0.0 
2.979604503271e+01 -1.433296157755e+01 0.0 
2.417694041347e+01 -1.251231397779e+01 0.0 
1.807401327411e+00 -1.388891148480e+01 0.0 
9.599810618782e+00 -1.595439365034e+01 0.0 
1.652144692160e+01 -4.205392788472e+00 0.0 
2.367839450246e+01 -8.188385218643e+00 0.0 
3.814894930468e+01 -1.390748338767e+01 0.0 
2.466448215774e+01 -1.685878545680e+01 0.0 
4.134044524611e+01 -1.806610045954e+01 0.0 
2.600511411958e+01 -9.801774120648e+00 0.0 
7.882158050716e+00 -1.582364037353e+01 0.0 
3.881607873422e+01 -1.737970515013e+01 0.0 
8.270182347708e+00 -1.088622154920e+01 0.0 
8.672520392520e-01 -4.532984309881e+00 0.0 
1.993447205337e+01 -3.579061902667e+00 0.0 
1.794616079549e+01 -7.238038888498e+00 0.0 
2.097277068165e+01 -1.132450168636e+01 0.0 
8.194803300681e+00 -1.187214224265e+01 0.0 
3.522279404911e+01 -1.823342818178e+01 0.0 
6.984481050295e+00 -1.625271465557e+01 0.0 
1.309433007797e+01 -1.521718594215e+01 0.0 
2.150246167611e+01 -1.885399038185e+00 0.0 
3.250689370209e+01 -1.028789870535e+01 0.0 
6.085886272238e+00 -1.668342132851e+01 0.0 
1.588455661727e+01 -1.193498985921e+01 0.0 
1.809323400821e+01 -1.651110084195e+01 0.0 
1.348885082381e+00 -1.136065576512e+01 0.0 
2.497670221995e+01 -1.834631276173e+01 0.0 
2.937062818424e+01 -8.233711194470e+00 0.0 
5.185823744469e+00 -1.711566910207e+01 0.0 
1.477497877209e+01 -1.530177014512e+01 0.0 
2.125346158933e+01 -7.473003997367e+00 0.0 
4.751561118290e+01 -1.084897772632e+01 0.0 
5.056026576843e+00 -1.825750475525e+01 0.0 
1.473948554523e+01 -1.634577436309e+01 0.0 
2.410566630936e+01 -1.345970002612e+01 0.0 
1.507337507513e+01 -1.138527895328e+01 0.0 
3.189857338687e+01 -8.887781229006e+00 0.0 
7.298712468334e+00 -1.230231046246e+01 0.0 
2.738235495295e+01 -1.368931690364e+01 0.0 
3.750141041969e+01 -1.920449893070e+01 0.0 
1.557271965640e+01 -1.683317951731e+01 0.0 
3.393731848929e+01 -1.413034777044e+01 0.0 
6.482156824153e+00 -1.174575135362e+01 0.0 
2.077971718439e+01 -1.421279621836e+01 0.0 
3.455084320178e+00 -2.562590040585e+00 0.0 
3.099056096250e+01 -9.270280416035e+00 0.0 
5.580176125418e+00 -1.217387969259e+01 0.0 
1.707247630389e+01 -7.660651981710e+00 0.0 
1.418658814174e+01 -1.180390575393e+01 0.0 
2.049103025389e+01 -1.811296706038e+01 0.0 
4.680386172316e+00 -1.260396879301e+01 0.0 
1.699679896554e+01 -8.624561788199e+00 0.0 
3.779470168555e+00 -1.303424899720e+01 0.0 
3.036589870126e+01 -7.879832518349e+00 0.0 
3.306993001774e+01 -1.457671062095e+01 0.0 
2.840150110165e+00 -1.346530088269e+01 0.0 
2.732011135052e+01 -1.464591214560e+01 0.0 
5.423639259568e+00 -2.659711955016e+00 0.0 
2.324455961696e+01 -1.387269388211e+01 0.0 
1.752768355571e+00 -1.693128613594e+01 0.0 
1.020244783051e+01 -8.076834012808e+00 0.0 
1.330873875224e+01 -1.222417528206e+01 0.0 
3.297727364880e+01 -1.555480372087e+01 0.0 
2.890929955439e+01 -6.868664170731e+00 0.0 
1.323294664622e+01 -1.320754260334e+01 0.0 
2.726532861246e+01 -1.560593120806e+01 0.0 
2.240020643398e+01 -1.429299177247e+01 0.0 
2.090445823633e+01 -1.228128621332e+01 0.0 
1.315809881502e+01 -1.420739326938e+01 0.0 
2.781328038068e+01 -7.181956082300e+00 0.0 
8.614200829057e+00 -5.936933226306e+00 0.0 
8.714765730069e+00 -4.979270529687e+00 0.0 
1.611881701099e+01 -9.041973294003e+00 0.0 
2.806830314340e+01 -1.614622947108e+01 0.0 
2.084435391396e+00 -3.385085422913e+00 0.0 
3.133211811152e+01 -1.542347619750e+01 0.0 
9.693114650768e+00 -3.590281506442e+00 0.0 
1.531883592202e+01 -8.504584946143e+00 0.0 
2.151589117094e+01 -1.578915763018e+01 0.0 
4.918943882696e+01 -1.355538828056e+01 0.0 
1.443236615188e+01 -8.918701794549e+00 0.0 
8.276250966452e-01 -5.537685192197e+00 0.0 
1.362790867918e+01 -8.374718262212e+00 0.0 
2.083767477370e+01 -1.324843956035e+01 0.0 
1.273834678703e+01 -8.790890389337e+00 0.0 
1.192275845670e+01 -8.242261327467e+00 0.0 
4.477236023583e+01 -1.824312396664e+01 0.0 
1.102989384254e+01 -8.649855800911e+00 0.0 
4.849096516045e+01 -1.917293752213e+01 0.0 
1.588996752238e+00 -1.910230934687e+01 0.0 
4.904245197583e+01 -1.159839008158e+01 0.0 
2.753852929608e+01 -5.782128488093e+00 0.0 
1.756133602833e+01 -8.306130313187e-01 0.0 
2.615423700951e+01 -6.153865090092e+00 0.0 
1.028818761294e+01 -7.122020845892e+00 0.0 
2.970818901196e+01 -1.527821347593e+01 0.0 
4.801461623449e+01 -1.164472570985e+01 0.0 
9.455722100419e+00 -6.546069291118e+00 0.0 
3.089099236677e+01 -1.835339328261e+01 0.0 
2.350000000013e+01 -1.920825896750e+01 0.0 
4.830620531887e+01 -1.506626155470e+01 0.0 
1.725381944701e+01 -1.688794487850e+01 0.0 
2.156246225273e+01 -1.475893794002e+01 0.0 
4.919319648787e+01 -1.742767505896e+01 0.0 
4.437935623576e+01 -1.077662927266e+01 0.0 
1.001520521978e+01 -1.652692675208e+00 0.0 
9.067160240050e-01 -1.441937727541e+01 0.0 
2.603365149390e+01 -4.755996613848e+00 0.0 
2.458344439002e+01 -4.873645517696e+00 0.0 
2.304312390142e+01 -3.836552768096e+00 0.0 
2.546923202198e+00 -6.902480355749e+00 0.0 
1.251534969393e+01 -2.490989965776e+00 0.0 
2.454061833377e+01 -3.933354231935e+00 0.0 
1.788186558740e+01 -1.827424884923e+01 0.0 
4.090785243552e+01 -1.166553231904e+01 0.0 
2.230128851568e+01 -1.623015738726e+01 0.0 
2.302362347568e+01 -2.916239960270e+00 0.0 
3.878119254461e+01 -1.830091164002e+01 0.0 
2.210081359958e+01 -1.829238229150e+01 0.0 
8.443704882233e+00 -1.921993252862e+01 0.0 
2.218405824691e+01 -1.724557581508e+01 0.0 
2.151157503963e+01 -2.790636689331e+00 0.0 
3.741658958955e+01 -1.250400191722e+01 0.0 
2.697247663737e+01 -1.838290202309e+01 0.0 
4.743362342862e+01 -1.585850773010e+01 0.0 
6.671345075358e+00 -1.924977576322e+01 0.0 
3.900825404537e+01 -1.157220003875e+01 0.0 
4.649692961375e+01 -1.836335837481e+01 0.0 
1.578831424832e+01 -3.678284023361e+00 0.0 
4.814208768888e+01 -1.841249298770e+01 0.0 
2.964123298315e+01 -1.625739458193e+01 0.0 
4.580760351902e+01 -1.284294554687e+01 0.0 
3.561520879615e+01 -1.245548941949e+01 0.0 
2.555418095658e+00 -1.841101588290e+01 0.0 
3.288468366144e+01 -1.834258164109e+01 0.0 
2.065894391445e+01 -2.240688571739e+00 0.0 
4.739171429915e+01 -1.496536413446e+01 0.0 
3.478086729185e+00 -8.576434653209e+00 0.0 
1.606010630246e+01 -1.588421807951e+00 0.0 
1.018329200594e+01 -1.834320874317e+01 0.0 
2.957213339430e+01 -1.720496954591e+01 0.0 
4.142712790164e+00 -1.837794506222e+01 0.0 
6.698721532573e-01 -2.499999999997e+00 0.0 
8.037039123140e+00 -1.571229354954e+00 0.0 
1.203541361428e+01 -1.847784298001e+01 0.0 
2.899968332038e+01 -1.848264722179e+01 0.0 
1.469229460948e+01 -4.219485753730e+00 0.0 
4.049590781957e+01 -1.932812501995e+01 0.0 
1.996211678340e+01 -1.506329754720e+00 0.0 
4.250588298353e+01 -1.067383247529e+01 0.0 
5.831497011152e+00 -1.635396227234e+00 0.0 
5.317606125670e+00 -1.923927974868e+01 0.0 
4.208546426993e+01 -1.842830665025e+01 0.0 
2.327553405011e+00 -9.459409929662e+00 0.0 
3.568351902251e+01 -1.096637218582e+01 0.0 
1.682104374890e+00 -6.231413350963e+00 0.0 
2.451812238018e+01 -1.766524914339e+01 0.0 
1.058003429638e+01 -2.391839617098e+00 0.0 
4.399988753123e+01 -1.851998776342e+01 0.0 
1.400000000010e+01 -1.852293523028e+01 0.0 
3.604719565984e+01 -1.850662876800e+01 0.0 
1.951297136734e+01 -1.938092349694e+01 0.0 
1.821365318472e+01 -1.531276353287e+00 0.0 
2.298031859732e+01 -1.854635324722e+01 0.0 
1.552168066204e+01 -1.764280741977e+01 0.0 
4.572957713638e+01 -1.073347898229e+01 0.0 
3.429637429624e+01 -1.838861552790e+01 0.0 
2.427434426052e+00 -7.705577451869e+00 0.0 
4.662792031485e+00 -3.359424455416e+00 0.0 
4.926794919243e+01 -1.926794919243e+01 0.0 
7.320508075690e-01 -7.320508075688e-01 0.0 
4.926794919243e+01 -1.073205080757e+01 0.0 
7.320508075705e-01 -1.926794919243e+01 0.0 
2.917460242467e+00 -3.202866455310e+00 0.0 
4.838200575963e+01 -1.232674147454e+01 0.0 
2.998445708009e+01 -1.854403752148e+01 0.0 
5.949940090766e-01 -1.152762038165e+01 0.0 
4.844763495759e+01 -1.678092548787e+01 0.0 
1.301685480160e+01 -3.170056592566e+00 0.0 
1.650046335855e+01 -6.731535384067e-01 0.0 
4.854881540991e+01 -1.405224059779e+01 0.0 
2.119545114693e+01 -1.846813384545e+01 0.0 
3.797852849897e+01 -1.857978513215e+01 0.0 
4.649823708745e+01 -1.338351810816e+01 0.0 
2.012685900976e+01 -2.889659035009e+00 0.0 
2.953271913273e+01 -1.791558075192e+01 0.0 
2.408509097292e+00 -1.021949208421e+01 0.0 
2.642589566221e+01 -1.773216561448e+01 0.0 
1.730010270775e+01 -1.763165076721e+01 0.0 
2.017406551304e+01 -8.513536440582e-01 0.0 
5.254761581934e-01 -1.249999999999e+01 0.0 
6.640448215642e+00 -1.545337834885e+00 0.0 
7.843361506349e+00 -1.852719839527e+01 0.0 
1.588442191088e+00 -1.066158564320e+01 0.0 
3.180701530612e+01 -7.414795918363e+00 0.0 
4.951250000000e+01 -7.500000000000e+00 0.0 
3.331250000000e+01 -8.420918367347e+00 0.0 
4.951470588234e+01 -8.500000000000e+00 0.0 
3.480610198624e+01 -9.413633635267e+00 0.0 
4.951470588234e+01 -9.500000000000e+00 0.0 

CELLS 2039 8156 
3 234 704 980 
3 704 234 982 
3 714 207 725 
3 827 592 1016 
3 594 654 820 
3 684 597 723 
3 214 636 638 
3 234 661 982 
3 636 214 654 
3 587 822 1016 
3 206 781 782 
3 661 234 996 
3 826 978 1022 
3 643 774 864 
3 978 240 1022 
3 233 827 1016 
3 642 213 783 
3 597 684 722 
3 221 641 963 
3 641 221 901 
3 822 587 975 
3 952 198 958 
3 679 952 958 
3 629 628 838 
3 328 484 773 
3 781 206 890 
3 108 82 1043 
3 673 199 915 
3 326 328 773 
3 838 628 1048 
3 578 788 790 
3 231 644 821 
3 714 725 1023 
3 19 219 694 
3 229 648 650 
3 657 66 1014 
3 66 657 1040 
3 676 225 720 
3 640 99 993 
3 99 640 1054 
3 916 658 942 
3 194 680 819 
3 997 195 1001 
3 82 243 1043 
3 635 242 992 
3 674 997 1001 
3 788 578 791 
3 242 635 1018 
3 784 785 791 
3 774 643 1015 
3 236 679 916 
3 626 641 901 
3 404 1017 1035 
3 236 916 942 
3 726 208 906 
3 999 571 1044 
3 626 901 970 
3 219 664 694 
3 487 815 933 
3 822 233 1016 
3 193 1027 1068 
3 1007 633 1009 
3 453 481 687 
3 1017 790 1035 
3 798 617 1022 
3 679 236 952 
3 1027 637 1068 
3 207 714 987 
3 514 475 796 
3 203 662 728 
3 890 833 944 
3 33 32 682 
3 673 915 1045 
3 4 5 808 
3 805 999 1044 
3 645 210 896 
3 726 906 1055 
3 693 998 1005 
3 815 487 1057 
3 998 235 1005 
3 475 488 796 
3 213 642 1003 
3 198 704 958 
3 704 198 980 
3 654 594 866 
3 636 654 866 
3 665 890 995 
3 18 19 694 
3 719 716 964 
3 594 820 1003 
3 821 644 994 
3 245 772 1043 
3 818 989 1013 
3 1013 989 1025 
3 211 33 682 
3 720 225 1050 
3 642 783 1015 
3 819 680 1028 
3 239 671 968 
3 687 481 688 
3 820 654 1038 
3 240 798 1022 
3 401 967 991 
3 632 1007 1009 
3 522 520 698 
3 785 788 791 
3 825 826 948 
3 591 818 1013 
3 193 784 791 
3 921 216 1040 
3 366 719 964 
3 4 808 1059 
3 589 685 721 
3 556 872 910 
3 600 802 1026 
3 660 687 688 
3 455 453 687 
3 229 650 1008 
3 671 239 1063 
3 659 455 687 
3 690 620 965 
3 243 245 1043 
3 818 591 1066 
3 455 659 698 
3 1010 909 1024 
3 675 925 934 
3 802 600 1056 
3 925 200 934 
3 210 645 1036 
3 622 1010 1024 
3 781 890 944 
3 592 827 1018 
3 529 586 686 
3 200 658 934 
3 648 229 1028 
3 826 583 978 
3 665 833 890 
3 686 586 886 
3 630 758 1048 
3 562 678 686 
3 612 823 824 
3 662 203 1034 
3 864 774 1011 
3 471 443 692 
3 678 529 686 
3 658 200 942 
3 586 724 886 
3 698 524 893 
3 214 638 993 
3 685 320 721 
3 644 231 1032 
3 979 985 1063 
3 809 221 963 
3 237 675 910 
3 758 630 767 
3 659 522 698 
3 694 665 995 
3 661 195 997 
3 967 627 991 
3 220 666 667 
3 681 320 685 
3 664 219 948 
3 514 690 965 
3 826 585 948 
3 701 574 729 
3 216 921 1030 
3 979 584 985 
3 520 524 698 
3 872 237 910 
3 206 782 1079 
3 195 661 996 
3 320 681 695 
3 443 494 692 
3 666 220 1054 
3 524 685 893 
3 675 237 925 
3 568 757 962 
3 802 503 1026 
3 199 673 988 
3 728 662 1012 
3 660 688 982 
3 503 802 1042 
3 745 875 929 
3 678 562 916 
3 661 660 982 
3 701 556 910 
3 685 589 893 
3 209 822 975 
3 332 741 951 
3 219 825 948 
3 674 235 998 
3 530 695 919 
3 716 741 964 
3 81 109 683 
3 562 658 916 
3 918 590 922 
3 814 946 1039 
3 829 222 1055 
3 327 252 734 
3 949 308 976 
3 438 918 922 
3 772 245 1021 
3 773 484 1011 
3 628 630 1048 
3 959 850 986 
3 696 267 724 
3 526 416 729 
3 333 327 734 
3 523 701 729 
3 574 701 910 
3 472 932 972 
3 757 606 962 
3 683 217 684 
3 688 704 982 
3 688 481 703 
3 586 696 724 
3 741 711 951 
3 597 596 902 
3 590 689 908 
3 640 666 1054 
3 695 681 919 
3 386 908 957 
3 646 856 1080 
3 732 333 734 
3 856 202 1080 
3 814 815 946 
3 235 674 1001 
3 959 602 960 
3 706 333 732 
3 602 601 960 
3 582 691 697 
3 408 789 861 
3 620 797 965 
3 875 438 929 
3 574 526 729 
3 617 798 1030 
3 109 217 683 
3 491 521 697 
3 281 320 695 
3 679 678 916 
3 689 590 918 
3 657 921 1040 
3 943 332 951 
3 390 372 727 
3 438 922 929 
3 890 206 995 
3 724 334 886 
3 733 734 930 
3 633 1007 1052 
3 281 695 702 
3 521 582 697 
3 251 523 699 
3 682 32 1036 
3 267 696 871 
3 740 283 879 
3 667 666 668 
3 796 488 1000 
3 523 700 701 
3 490 390 727 
3 596 730 831 
3 578 790 1017 
3 333 706 868 
3 416 699 729 
3 455 698 893 
3 706 545 868 
3 741 332 964 
3 334 705 847 
3 201 655 1014 
3 531 740 879 
3 259 525 705 
3 589 721 852 
3 531 739 740 
3 373 389 730 
3 771 212 772 
3 285 282 702 
3 402 753 754 
3 733 943 951 
3 109 110 217 
3 523 249 700 
3 372 370 727 
3 446 491 697 
3 375 373 730 
3 254 251 699 
3 644 690 994 
3 482 572 703 
3 531 738 739 
3 699 523 729 
3 771 772 773 
3 492 597 722 
3 402 754 756 
3 403 406 753 
3 688 703 704 
3 733 930 943 
3 481 482 703 
3 368 285 702 
3 695 530 702 
3 492 596 597 
3 721 277 852 
3 621 691 693 
3 37 208 726 
3 39 222 725 
3 268 267 871 
3 389 372 390 
3 445 446 504 
3 260 259 705 
3 389 390 445 
3 402 403 753 
3 334 847 886 
3 823 612 1041 
3 727 530 919 
3 932 588 972 
3 621 504 691 
3 226 57 746 
3 445 390 446 
3 265 334 724 
3 492 396 596 
3 768 461 876 
3 282 281 702 
3 406 750 753 
3 525 416 526 
3 42 747 748 
3 370 368 530 
3 531 359 738 
3 505 504 621 
3 736 421 859 
3 908 689 957 
3 521 522 580 
3 595 736 859 
3 224 45 728 
3 498 590 908 
3 41 207 747 
3 864 484 894 
3 719 366 984 
3 582 580 674 
3 527 526 559 
3 259 416 525 
3 259 257 416 
3 335 871 897 
3 199 47 731 
3 326 773 1021 
3 700 556 701 
3 530 368 702 
3 601 797 960 
3 559 574 675 
3 521 520 522 
3 220 667 920 
3 406 749 750 
3 370 530 727 
3 710 732 733 
3 491 520 521 
3 525 526 527 
3 359 361 738 
3 534 761 848 
3 50 223 737 
3 562 560 658 
3 374 376 756 
3 615 949 976 
3 581 660 661 
3 580 522 581 
3 716 713 741 
3 265 263 334 
3 572 678 679 
3 527 559 560 
3 54 225 742 
3 225 676 1002 
3 713 711 741 
3 733 732 734 
3 761 301 848 
3 453 454 481 
3 373 372 389 
3 371 370 372 
3 267 265 724 
3 548 768 876 
3 316 762 763 
3 709 707 710 
3 376 402 756 
3 450 335 451 
3 705 525 847 
3 452 451 453 
3 207 40 725 
3 222 38 726 
3 222 829 1023 
3 534 760 761 
3 545 447 868 
3 521 580 582 
3 369 368 370 
3 596 396 730 
3 482 529 572 
3 770 771 774 
3 736 864 894 
3 746 744 838 
3 717 716 719 
3 251 249 523 
3 258 257 259 
3 396 375 730 
3 793 795 796 
3 320 279 721 
3 273 271 335 
3 279 277 721 
3 190 909 1010 
3 667 668 669 
3 797 601 965 
3 446 490 491 
3 57 56 746 
3 380 382 472 
3 244 556 700 
3 221 809 1031 
3 871 696 897 
3 281 279 320 
3 257 254 699 
3 203 43 748 
3 559 526 574 
3 263 260 705 
3 316 763 769 
3 707 706 732 
3 534 759 760 
3 44 203 728 
3 41 40 207 
3 37 36 208 
3 39 38 222 
3 256 254 257 
3 710 707 732 
3 715 713 716 
3 453 451 454 
3 481 454 482 
3 765 762 849 
3 709 710 711 
3 46 224 731 
3 624 545 706 
3 738 472 739 
3 624 706 707 
3 465 463 766 
3 273 335 450 
3 572 529 678 
3 445 504 505 
3 211 682 1006 
3 452 453 455 
3 846 565 915 
3 762 316 849 
3 407 410 749 
3 226 746 838 
3 491 519 520 
3 42 41 747 
3 222 726 1055 
3 264 263 265 
3 793 794 795 
3 44 43 203 
3 191 742 743 
3 406 407 749 
3 361 380 738 
3 197 51 737 
3 117 192 794 
3 450 451 452 
3 262 260 263 
3 266 265 267 
3 334 263 705 
3 504 446 697 
3 46 45 224 
3 367 285 368 
3 493 492 722 
3 655 201 1081 
3 794 192 795 
3 561 560 562 
3 788 789 790 
3 675 574 910 
3 191 55 742 
3 48 47 199 
3 416 257 699 
3 785 787 788 
3 634 493 722 
3 788 787 789 
3 878 576 891 
3 770 212 771 
3 246 244 700 
3 50 49 223 
3 228 770 774 
3 208 36 735 
3 468 465 766 
3 595 643 736 
3 581 659 660 
3 380 472 738 
3 596 831 902 
3 52 51 197 
3 40 39 725 
3 38 37 726 
3 534 342 759 
3 337 339 765 
3 273 450 852 
3 342 344 759 
3 54 53 225 
3 446 390 490 
3 753 752 754 
3 750 751 752 
3 485 595 859 
3 58 226 758 
3 785 786 787 
3 56 55 191 
3 749 614 750 
3 43 42 748 
3 715 716 717 
3 116 117 794 
3 450 589 852 
3 544 447 545 
3 45 44 728 
3 256 257 258 
3 511 468 512 
3 505 621 622 
3 744 743 745 
3 506 613 614 
3 750 614 751 
3 784 227 785 
3 47 46 731 
3 730 389 831 
3 498 546 590 
3 595 642 643 
3 832 564 851 
3 750 752 753 
3 258 259 260 
3 51 50 737 
3 339 441 765 
3 350 386 456 
3 270 268 271 
3 609 502 610 
3 754 752 755 
3 759 456 760 
3 271 268 871 
3 607 464 881 
3 380 381 382 
3 272 271 273 
3 309 311 769 
3 491 490 519 
3 337 765 849 
3 512 468 766 
3 336 359 531 
3 56 191 746 
3 623 545 624 
3 507 832 851 
3 55 54 742 
3 191 743 744 
3 278 277 279 
3 785 227 786 
3 59 758 767 
3 708 707 709 
3 410 506 749 
3 58 57 226 
3 344 350 759 
3 482 528 529 
3 249 246 700 
3 336 531 879 
3 340 534 848 
3 502 461 768 
3 734 252 930 
3 561 686 886 
3 382 400 401 
3 669 668 670 
3 311 316 769 
3 361 363 380 
3 506 563 613 
3 533 355 834 
3 115 116 792 
3 520 519 524 
3 506 614 749 
3 762 604 763 
3 276 274 277 
3 350 456 759 
3 485 593 595 
3 410 473 506 
3 59 58 758 
3 262 263 264 
3 532 603 604 
3 264 265 266 
3 532 604 762 
3 792 116 794 
3 248 246 249 
3 801 800 802 
3 202 122 816 
3 441 496 532 
3 350 385 386 
3 830 500 855 
3 610 768 912 
3 610 502 768 
3 244 204 556 
3 228 106 770 
3 625 735 928 
3 266 267 268 
3 122 123 816 
3 620 540 797 
3 786 792 793 
3 602 959 986 
3 518 568 962 
3 598 830 855 
3 395 878 891 
3 319 317 828 
3 357 355 533 
3 498 509 546 
3 415 396 492 
3 232 800 801 
3 205 804 805 
3 194 60 767 
3 60 59 767 
3 800 799 803 
3 532 496 603 
3 340 342 534 
3 546 628 629 
3 540 459 797 
3 393 478 498 
3 814 812 815 
3 441 532 765 
3 763 604 764 
3 218 811 812 
3 232 799 800 
3 544 545 623 
3 123 124 813 
3 107 212 770 
3 107 108 212 
3 461 365 876 
3 205 10 804 
3 506 473 563 
3 691 504 697 
3 651 649 652 
3 731 224 846 
3 535 429 862 
3 581 522 659 
3 644 620 690 
3 527 560 561 
3 103 213 820 
3 102 103 820 
3 123 813 816 
3 813 812 814 
3 807 809 810 
3 383 324 458 
3 218 806 811 
3 799 196 803 
3 193 113 784 
3 324 319 828 
3 672 670 692 
3 105 106 228 
3 568 663 757 
3 344 349 350 
3 669 670 671 
3 10 11 804 
3 807 810 811 
3 30 29 823 
3 210 30 823 
3 595 593 642 
3 213 104 783 
3 804 801 805 
3 28 209 824 
3 458 324 828 
3 106 107 770 
3 105 228 783 
3 559 675 934 
3 36 35 735 
3 823 29 824 
3 218 812 813 
3 124 218 813 
3 619 540 620 
3 763 764 900 
3 825 583 826 
3 112 113 193 
3 230 817 818 
3 114 227 784 
3 501 461 502 
3 114 115 227 
3 113 114 784 
3 608 502 609 
3 554 617 618 
3 671 670 672 
3 847 561 886 
3 806 807 811 
3 356 357 836 
3 25 24 827 
3 233 25 827 
3 104 105 783 
3 437 365 461 
3 29 28 824 
3 511 512 627 
3 807 808 809 
3 806 241 807 
3 807 241 808 
3 11 12 232 
3 240 69 798 
3 80 79 242 
3 126 241 806 
3 13 196 799 
3 70 69 240 
3 68 216 798 
3 61 194 819 
3 76 215 817 
3 78 77 230 
3 69 68 798 
3 68 67 216 
3 230 77 817 
3 126 127 241 
3 100 101 214 
3 103 104 213 
3 218 125 806 
3 65 64 201 
3 229 62 819 
3 63 62 229 
3 125 126 806 
3 124 125 218 
3 61 60 194 
3 62 61 819 
3 76 75 215 
3 97 98 220 
3 77 76 817 
3 74 73 239 
3 95 96 584 
3 121 122 202 
3 119 120 231 
3 118 119 821 
3 117 118 192 
3 13 14 196 
3 12 13 799 
3 119 231 821 
3 16 17 206 
3 192 118 821 
3 34 33 211 
3 28 27 209 
3 31 30 210 
3 6 7 221 
3 9 10 205 
3 27 26 822 
3 19 20 219 
3 26 25 233 
3 20 21 825 
3 21 22 583 
3 232 12 799 
3 209 27 822 
3 26 233 822 
3 219 20 825 
3 21 583 825 
3 448 449 833 
3 227 115 792 
3 339 440 441 
3 813 814 816 
3 651 652 653 
3 532 762 765 
3 414 398 835 
3 383 458 459 
3 946 647 1039 
3 554 618 835 
3 441 442 496 
3 232 801 804 
3 398 460 835 
3 591 592 635 
3 11 232 804 
3 386 385 393 
3 348 346 399 
3 448 397 449 
3 516 448 833 
3 367 368 369 
3 561 562 686 
3 277 274 852 
3 356 355 357 
3 460 553 554 
3 664 516 665 
3 507 601 602 
3 579 500 587 
3 495 444 500 
3 640 639 666 
3 354 352 355 
3 397 356 836 
3 591 579 592 
3 495 579 591 
3 399 346 858 
3 554 585 617 
3 457 429 535 
3 664 665 694 
3 655 653 656 
3 587 500 830 
3 434 432 435 
3 350 349 385 
3 394 476 477 
3 413 499 507 
3 619 620 644 
3 786 227 792 
3 495 500 579 
3 554 553 585 
3 793 792 794 
3 712 711 713 
3 638 538 639 
3 384 398 414 
3 460 516 553 
3 563 564 615 
3 553 516 664 
3 638 639 640 
3 380 363 381 
3 655 656 657 
3 626 508 641 
3 650 649 651 
3 443 435 444 
3 477 508 571 
3 507 602 832 
3 779 777 780 
3 431 433 537 
3 318 322 337 
3 494 444 495 
3 434 443 471 
3 603 496 775 
3 665 516 833 
3 460 448 516 
3 443 444 494 
3 436 388 474 
3 496 442 497 
3 469 555 631 
3 435 842 855 
3 441 440 442 
3 348 399 834 
3 648 576 649 
3 434 435 443 
3 577 493 634 
3 551 646 647 
3 377 375 396 
3 460 554 835 
3 433 432 434 
3 781 779 782 
3 537 538 636 
3 498 478 509 
3 775 497 776 
3 398 448 460 
3 477 476 508 
3 651 653 655 
3 496 497 775 
3 571 508 626 
3 497 442 844 
3 337 338 339 
3 323 319 324 
3 778 779 781 
3 121 202 856 
3 231 120 856 
3 449 397 836 
3 394 436 476 
3 354 355 356 
3 355 352 834 
3 311 315 316 
3 410 411 473 
3 457 535 536 
3 723 597 1073 
3 339 439 440 
3 546 509 628 
3 476 436 487 
3 537 433 538 
3 636 538 638 
3 539 459 540 
3 575 542 576 
3 428 426 429 
3 394 388 436 
3 611 535 880 
3 536 535 611 
3 331 388 394 
3 660 659 687 
3 325 324 383 
3 398 397 448 
3 776 777 778 
3 624 707 708 
3 457 536 598 
3 384 356 397 
3 354 356 384 
3 383 459 539 
3 384 397 398 
3 428 429 430 
3 778 777 779 
3 431 432 433 
3 430 429 457 
3 283 284 879 
3 842 598 855 
3 442 503 844 
3 776 497 777 
3 439 338 599 
3 313 310 314 
3 431 430 432 
3 305 307 340 
3 323 325 331 
3 551 540 619 
3 428 430 431 
3 323 324 325 
3 648 649 650 
3 435 432 842 
3 384 414 837 
3 191 744 746 
3 442 440 503 
3 331 325 388 
3 539 540 551 
3 353 352 354 
3 434 471 841 
3 551 619 646 
3 337 322 338 
3 641 508 839 
3 431 537 840 
3 339 338 439 
3 352 348 834 
3 439 599 600 
3 500 444 855 
3 322 319 323 
3 347 351 395 
3 507 499 601 
3 351 348 352 
3 780 777 844 
3 353 354 837 
3 754 755 936 
3 508 476 839 
3 639 538 841 
3 501 502 608 
3 451 335 897 
3 433 434 841 
3 413 507 851 
3 425 427 485 
3 476 487 839 
3 652 649 878 
3 437 461 501 
3 382 381 400 
3 536 611 612 
3 340 341 342 
3 474 388 845 
3 345 343 346 
3 575 576 648 
3 563 473 564 
3 354 384 837 
3 432 430 842 
3 407 409 410 
3 347 346 348 
3 593 486 594 
3 477 571 877 
3 318 319 322 
3 270 271 272 
3 351 352 353 
3 482 454 528 
3 272 273 274 
3 427 426 428 
3 538 433 841 
3 485 486 593 
3 777 497 844 
3 515 417 542 
3 342 343 344 
3 537 636 866 
3 714 713 715 
3 401 400 469 
3 347 348 351 
3 430 457 842 
3 311 313 315 
3 315 317 318 
3 383 539 845 
3 344 345 349 
3 318 337 849 
3 427 428 840 
3 485 427 486 
3 287 289 336 
3 828 317 850 
3 369 370 371 
3 318 317 319 
3 315 313 317 
3 325 383 845 
3 393 417 478 
3 306 304 308 
3 457 598 842 
3 302 304 305 
3 344 343 345 
3 340 307 341 
3 276 277 278 
3 388 325 845 
3 515 542 575 
3 515 575 680 
3 462 464 607 
3 311 310 313 
3 342 341 343 
3 428 431 840 
3 316 315 849 
3 450 452 589 
3 322 323 843 
3 473 411 851 
3 309 310 311 
3 323 331 843 
3 394 477 869 
3 341 307 541 
3 345 346 347 
3 480 517 518 
3 120 121 856 
3 298 296 299 
3 302 300 303 
3 309 308 310 
3 486 427 840 
3 305 306 307 
3 338 322 843 
3 306 308 309 
3 444 435 855 
3 599 338 843 
3 551 647 865 
3 845 539 865 
3 564 473 851 
3 313 314 850 
3 298 300 301 
3 305 304 306 
3 413 475 499 
3 474 845 865 
3 736 643 864 
3 843 331 869 
3 393 385 417 
3 466 479 480 
3 250 249 251 
3 489 423 510 
3 518 567 568 
3 284 287 879 
3 464 466 881 
3 411 412 413 
3 309 769 853 
3 280 279 281 
3 403 405 406 
3 475 412 488 
3 315 318 849 
3 302 303 304 
3 301 300 302 
3 599 843 869 
3 305 340 848 
3 298 299 300 
3 294 296 297 
3 317 313 850 
3 364 362 365 
3 425 426 427 
3 294 292 295 
3 478 417 515 
3 410 409 411 
3 628 509 630 
3 301 302 848 
3 568 662 663 
3 261 260 262 
3 411 413 851 
3 253 251 254 
3 543 447 544 
3 301 761 884 
3 524 681 685 
3 255 254 256 
3 335 271 871 
3 413 412 475 
3 645 616 682 
3 499 475 514 
3 676 570 677 
3 830 598 873 
3 387 365 437 
3 840 537 866 
3 424 423 489 
3 297 296 298 
3 336 358 359 
3 573 510 616 
3 347 395 854 
3 422 424 425 
3 501 608 689 
3 411 409 412 
3 422 420 423 
3 731 846 915 
3 515 680 867 
3 306 309 853 
3 486 840 866 
3 594 486 866 
3 302 305 848 
3 349 345 854 
3 385 349 857 
3 539 551 865 
3 371 372 373 
3 290 292 293 
3 294 295 296 
3 274 273 852 
3 573 616 645 
3 709 711 712 
3 598 536 873 
3 529 528 586 
3 419 391 447 
3 345 347 854 
3 611 880 896 
3 392 420 421 
3 307 306 853 
3 290 288 291 
3 422 423 424 
3 489 510 573 
3 429 426 862 
3 425 424 426 
3 576 542 891 
3 569 483 570 
3 542 417 857 
3 346 343 858 
3 658 560 934 
3 364 387 418 
3 329 327 333 
3 331 394 869 
3 293 292 294 
3 610 912 924 
3 359 360 361 
3 376 378 402 
3 290 291 292 
3 361 362 363 
3 527 561 847 
3 541 307 853 
3 421 736 894 
3 654 214 1038 
3 84 181 190 
3 343 341 858 
3 387 437 438 
3 708 709 829 
3 336 289 358 
3 341 541 858 
3 425 485 859 
3 85 182 235 
3 364 365 387 
3 360 358 548 
3 525 527 847 
3 349 854 857 
3 406 405 407 
3 417 385 857 
3 509 478 867 
3 363 362 364 
3 426 424 862 
3 470 468 511 
3 478 515 867 
3 86 183 195 
3 421 422 859 
3 631 555 632 
3 424 489 862 
3 361 360 362 
3 289 288 290 
3 931 603 935 
3 415 492 493 
3 535 862 880 
3 869 477 877 
3 87 184 234 
3 467 465 468 
3 536 612 873 
3 407 408 409 
3 269 268 270 
3 421 420 422 
3 900 764 905 
3 402 378 403 
3 524 519 681 
3 488 412 861 
3 407 405 408 
3 409 408 861 
3 359 358 360 
3 735 35 928 
3 88 185 198 
3 649 576 878 
3 286 285 367 
3 330 392 894 
3 377 396 415 
3 630 509 867 
3 412 409 861 
3 600 599 877 
3 381 363 860 
3 298 301 884 
3 469 483 555 
3 452 455 893 
3 329 333 868 
3 569 570 676 
3 422 425 859 
3 709 712 829 
3 420 419 883 
3 419 447 543 
3 389 445 831 
3 652 878 898 
3 392 419 420 
3 283 740 904 
3 89 186 236 
3 569 676 720 
3 374 373 375 
3 599 869 877 
3 469 400 483 
3 221 7 901 
3 275 274 276 
3 364 418 860 
3 543 544 863 
3 544 623 625 
3 363 364 860 
3 510 423 883 
3 284 282 285 
3 466 480 881 
3 90 187 200 
3 715 717 718 
3 91 188 237 
3 189 91 872 
3 287 336 879 
3 82 189 204 
3 557 312 558 
3 278 279 280 
3 290 293 870 
3 403 378 404 
3 287 288 289 
3 489 573 880 
3 712 713 714 
3 395 351 898 
3 555 483 569 
3 297 298 884 
3 419 543 883 
3 289 290 870 
3 653 652 907 
3 423 420 883 
3 447 391 868 
3 365 362 876 
3 284 286 287 
3 480 479 517 
3 258 260 261 
3 403 404 405 
3 374 375 376 
3 589 452 893 
3 266 268 269 
3 656 653 911 
3 392 391 419 
3 287 286 288 
3 462 607 887 
3 418 387 875 
3 862 489 880 
3 518 517 567 
3 484 330 894 
3 590 546 922 
3 358 289 870 
3 387 438 875 
3 272 274 275 
3 616 510 899 
3 568 567 662 
3 360 548 876 
3 376 375 377 
3 470 511 513 
3 275 312 550 
3 284 285 286 
3 362 360 876 
3 393 498 908 
3 376 377 378 
3 548 358 870 
3 253 254 255 
3 656 911 917 
3 255 256 366 
3 467 468 470 
3 250 251 253 
3 247 246 248 
3 261 262 321 
3 570 483 885 
3 878 395 898 
3 330 391 392 
3 544 625 863 
3 248 249 250 
3 367 369 547 
3 470 513 566 
3 880 573 896 
3 276 278 874 
3 275 276 312 
3 286 367 882 
3 391 329 868 
3 528 454 897 
3 557 558 588 
3 454 451 897 
3 400 381 885 
3 566 633 673 
3 291 288 882 
3 415 493 549 
3 623 624 906 
3 586 528 696 
3 924 297 937 
3 566 513 633 
3 330 329 391 
3 854 395 891 
3 280 281 282 
3 549 493 577 
3 917 618 921 
3 269 270 379 
3 382 401 932 
3 517 479 565 
3 577 634 637 
3 857 854 891 
3 490 727 919 
3 328 330 484 
3 399 905 926 
3 288 286 882 
3 653 907 911 
3 550 312 557 
3 367 547 882 
3 269 379 462 
3 549 577 578 
3 464 465 466 
3 381 860 885 
3 663 662 1034 
3 466 467 479 
3 374 756 903 
3 351 353 898 
3 573 645 896 
3 720 197 938 
3 483 400 885 
3 283 282 284 
3 462 463 464 
3 835 618 917 
3 779 780 914 
3 466 465 467 
3 392 421 894 
3 652 898 907 
3 542 857 891 
3 97 220 920 
3 584 96 920 
3 253 255 332 
3 464 463 465 
3 533 834 926 
3 261 321 552 
3 558 312 874 
3 745 929 1053 
3 280 282 283 
3 34 211 928 
3 245 244 246 
3 312 276 874 
3 399 858 905 
3 371 373 374 
3 541 853 900 
3 462 379 463 
3 264 266 887 
3 328 329 330 
3 552 321 605 
3 552 605 606 
3 810 809 963 
3 853 769 900 
3 696 528 897 
3 256 258 888 
3 366 256 888 
3 677 570 913 
3 7 8 901 
3 404 378 892 
3 270 272 889 
3 769 763 900 
3 91 237 872 
3 204 189 872 
3 328 327 329 
3 445 505 831 
3 905 764 926 
3 438 437 918 
3 378 377 892 
3 199 731 915 
3 883 543 899 
3 604 603 931 
3 898 353 907 
3 815 812 933 
3 501 689 918 
3 379 270 889 
3 811 810 933 
3 510 883 899 
3 377 415 892 
3 258 261 888 
3 266 269 887 
3 294 297 924 
3 760 456 953 
3 543 863 899 
3 456 386 957 
3 275 550 889 
3 272 275 889 
3 181 83 909 
3 415 549 892 
3 467 470 895 
3 247 248 252 
3 470 566 895 
3 519 490 919 
3 711 710 951 
3 565 479 895 
3 556 204 872 
3 479 467 895 
3 353 837 907 
3 766 463 923 
3 541 900 905 
3 858 541 905 
3 624 708 906 
3 761 760 950 
3 269 462 887 
3 740 739 956 
3 386 393 908 
3 874 278 904 
3 903 756 936 
3 768 548 912 
3 547 369 903 
3 261 552 888 
3 547 903 936 
3 321 262 927 
3 570 885 913 
3 885 860 913 
3 278 280 904 
3 326 327 328 
3 907 837 911 
3 837 414 911 
3 505 622 902 
3 321 927 945 
3 656 917 921 
3 572 679 958 
3 533 931 935 
3 190 181 909 
3 911 414 917 
3 371 374 903 
3 782 779 914 
3 932 401 991 
3 326 252 327 
3 247 252 326 
3 379 889 923 
3 90 200 925 
3 237 188 925 
3 414 835 917 
3 953 456 957 
3 610 924 937 
3 437 501 918 
3 870 293 912 
3 369 371 903 
3 188 90 925 
3 245 246 247 
3 96 97 920 
3 860 418 913 
3 280 283 904 
3 569 720 938 
3 553 664 948 
3 548 870 912 
3 657 656 921 
3 936 755 940 
3 632 555 938 
3 889 550 923 
3 512 766 947 
3 546 629 922 
3 310 308 949 
3 887 607 927 
3 912 293 924 
3 264 887 927 
3 681 519 919 
3 627 512 955 
3 293 294 924 
3 834 399 926 
3 262 264 927 
3 1024 238 1037 
3 739 472 972 
3 693 190 1010 
3 474 865 946 
3 533 926 931 
3 480 518 954 
3 252 248 930 
3 89 236 942 
3 35 34 928 
3 83 180 238 
3 200 187 942 
3 609 610 937 
3 603 775 935 
3 560 559 934 
3 966 751 969 
3 950 760 953 
3 463 379 923 
3 472 382 932 
3 717 1019 1029 
3 831 505 902 
3 764 604 931 
3 935 775 939 
3 828 850 959 
3 243 204 244 
3 248 250 930 
3 18 694 995 
3 812 811 933 
3 637 634 981 
3 797 459 960 
3 775 776 939 
3 291 940 961 
3 752 751 966 
3 756 754 936 
3 357 533 935 
3 253 332 943 
3 939 776 941 
3 291 882 940 
3 927 607 945 
3 643 642 1015 
3 401 469 967 
3 776 778 941 
3 357 935 939 
3 88 198 952 
3 295 292 961 
3 941 778 944 
3 215 75 968 
3 74 239 968 
3 236 186 952 
3 836 357 939 
3 614 613 971 
3 693 691 998 
3 555 569 938 
3 601 499 965 
3 971 613 973 
3 956 739 972 
3 187 89 942 
3 778 781 944 
3 9 205 970 
3 243 244 245 
3 836 939 941 
3 297 884 937 
3 926 764 931 
3 684 723 1037 
3 992 230 1066 
3 299 296 969 
3 875 745 990 
3 512 947 955 
3 449 836 941 
3 449 941 944 
3 940 755 961 
3 514 796 1046 
3 723 1024 1037 
3 833 449 944 
3 922 629 929 
3 563 615 974 
3 607 881 945 
3 704 703 958 
3 605 321 945 
3 680 194 1033 
3 110 111 981 
3 24 23 977 
3 71 70 978 
3 73 72 979 
3 303 300 973 
3 766 923 947 
3 882 547 940 
3 865 647 946 
3 83 238 909 
3 830 873 975 
3 250 253 943 
3 82 204 243 
3 48 199 988 
3 901 8 970 
3 223 49 988 
3 930 250 943 
3 308 304 976 
3 923 550 947 
3 303 973 974 
3 582 674 998 
3 974 615 976 
3 332 255 964 
3 585 553 948 
3 299 969 971 
3 605 945 954 
3 981 111 1068 
3 295 961 966 
3 710 733 951 
3 314 310 949 
3 615 564 983 
3 550 557 947 
3 789 408 1035 
3 87 234 980 
3 198 185 980 
3 314 983 986 
3 609 937 950 
3 874 904 956 
3 945 881 954 
3 714 715 987 
3 186 88 952 
3 817 215 989 
3 662 567 1012 
3 547 936 940 
3 190 693 1005 
3 703 572 958 
3 884 761 950 
3 552 606 984 
3 937 884 950 
3 597 902 1073 
3 608 609 953 
3 674 580 997 
3 904 740 956 
3 609 950 953 
3 947 557 955 
3 471 692 1072 
3 850 314 986 
3 621 693 1010 
3 608 953 957 
3 581 661 997 
3 981 634 1051 
3 242 79 992 
3 78 230 992 
3 795 192 994 
3 689 608 957 
3 458 959 960 
3 458 828 959 
3 954 518 962 
3 557 588 955 
3 881 480 954 
3 295 966 969 
3 99 100 993 
3 229 819 1028 
3 459 458 960 
3 418 875 990 
3 558 874 956 
3 641 839 963 
3 366 888 984 
3 292 291 961 
3 793 796 1000 
3 755 752 966 
3 17 18 995 
3 255 366 964 
3 499 514 965 
3 782 914 1065 
3 606 605 962 
3 469 631 967 
3 949 615 983 
3 970 205 1044 
3 558 956 972 
3 75 74 968 
3 787 786 1000 
3 846 224 1012 
3 725 222 1023 
3 239 979 1063 
3 682 616 1006 
3 747 207 987 
3 296 295 969 
3 299 971 973 
3 743 742 1002 
3 217 110 981 
3 8 9 970 
3 782 1065 1079 
3 314 949 983 
3 751 614 971 
3 86 195 996 
3 234 184 996 
3 642 593 1003 
3 961 755 966 
3 877 571 999 
3 511 627 1004 
3 201 64 1008 
3 63 229 1008 
3 300 299 973 
3 228 774 1015 
3 637 981 1068 
3 85 235 1001 
3 790 789 1035 
3 195 183 1001 
3 588 558 972 
3 613 563 974 
3 969 751 971 
3 791 578 1027 
3 635 992 1066 
3 973 613 974 
3 587 830 975 
3 495 591 1013 
3 827 24 977 
3 70 240 978 
3 239 73 979 
3 303 974 976 
3 185 87 980 
3 304 303 976 
3 66 65 1014 
3 84 190 1005 
3 235 182 1005 
3 677 913 990 
3 820 213 1003 
3 592 579 1016 
3 605 954 962 
3 631 632 1009 
3 717 719 1019 
3 668 666 1020 
3 983 832 986 
3 564 832 983 
3 989 215 1069 
3 1004 631 1009 
3 212 108 1043 
3 584 920 985 
3 667 669 985 
3 666 639 1020 
3 549 578 1017 
3 832 602 986 
3 612 824 1047 
3 841 471 1020 
3 197 720 1050 
3 715 718 987 
3 888 552 984 
3 899 863 1006 
3 503 440 1026 
3 439 600 1026 
3 680 575 1028 
3 193 791 1027 
3 626 970 1044 
3 49 48 988 
3 6 221 1031 
3 920 667 985 
3 744 745 1053 
3 619 644 1032 
3 202 816 1039 
3 31 210 1036 
3 102 820 1038 
3 896 210 1041 
3 743 1002 1077 
3 214 101 1038 
3 217 981 1051 
3 827 977 1018 
3 474 946 1057 
3 612 611 1041 
3 67 66 1040 
3 712 714 1023 
3 404 892 1017 
3 774 771 1011 
3 802 800 1042 
3 627 967 1004 
3 52 197 1050 
3 818 817 989 
3 225 53 1050 
3 578 577 1027 
3 655 657 1014 
3 405 404 1035 
3 810 963 1062 
3 226 838 1048 
3 735 625 1049 
3 645 682 1036 
3 638 640 993 
3 245 247 1021 
3 691 582 998 
3 747 987 1064 
3 805 801 1056 
3 622 1024 1073 
3 967 631 1004 
3 98 99 1054 
3 625 623 1049 
3 3 80 1058 
3 23 3 1058 
3 127 0 1059 
3 0 4 1059 
3 72 1 1060 
3 1 95 1060 
3 2 71 1061 
3 22 2 1061 
3 808 241 1059 
3 112 193 1068 
3 921 618 1030 
3 566 673 1045 
3 487 436 1057 
3 651 655 1081 
3 16 206 1079 
3 196 14 1065 
3 692 670 1072 
3 861 789 1067 
3 627 955 991 
3 946 815 1057 
3 844 503 1075 
3 987 718 1064 
3 79 78 992 
3 914 196 1065 
3 669 671 1063 
3 565 846 1076 
3 1019 757 1029 
3 984 606 1019 
3 100 214 993 
3 588 932 991 
3 906 708 1055 
3 571 626 1044 
3 192 821 994 
3 517 565 1076 
3 913 418 990 
3 789 787 1067 
3 672 989 1069 
3 798 216 1030 
3 565 895 1045 
3 915 565 1045 
3 206 17 995 
3 683 684 1037 
3 184 86 996 
3 580 581 997 
3 771 773 1011 
3 955 588 991 
3 873 612 1047 
3 742 225 1002 
3 786 793 1000 
3 795 994 1046 
3 183 85 1001 
3 692 494 1025 
3 600 877 999 
3 863 625 1071 
3 963 839 1062 
3 676 677 1002 
3 593 594 1003 
3 737 223 1007 
3 513 511 1004 
3 773 772 1021 
3 767 630 1033 
3 625 928 1071 
3 977 242 1018 
3 182 84 1005 
3 616 899 1006 
3 224 728 1012 
3 1002 677 1077 
3 513 1004 1009 
3 64 63 1008 
3 719 984 1019 
3 81 683 1078 
3 622 621 1010 
3 718 717 1029 
3 484 864 1011 
3 585 826 1022 
3 633 513 1009 
3 201 1008 1081 
3 494 495 1013 
3 197 737 1070 
3 867 680 1033 
3 630 867 1033 
3 999 805 1056 
3 65 201 1014 
3 783 228 1015 
3 579 587 1016 
3 796 795 1046 
3 591 635 1066 
3 672 692 1025 
3 808 5 1031 
3 892 549 1017 
3 606 757 1019 
3 210 823 1041 
3 635 592 1018 
3 938 197 1070 
3 639 841 1020 
3 231 856 1032 
3 722 684 1051 
3 856 646 1032 
3 690 514 1046 
3 180 81 1078 
3 503 1042 1075 
3 617 585 1022 
3 829 712 1023 
3 247 326 1021 
3 440 439 1026 
3 575 648 1028 
3 629 838 1053 
3 1007 223 1052 
3 846 1012 1076 
3 757 663 1029 
3 994 690 1046 
3 577 637 1027 
3 618 617 1030 
3 809 808 1031 
3 5 6 1031 
3 909 238 1024 
3 646 619 1032 
3 194 767 1033 
3 203 748 1034 
3 975 873 1047 
3 223 988 1052 
3 929 629 1053 
3 1020 471 1072 
3 32 31 1036 
3 408 405 1035 
3 101 102 1038 
3 787 1000 1067 
3 816 814 1039 
3 216 67 1040 
3 772 212 1043 
3 933 810 1062 
3 800 803 1042 
3 1034 748 1064 
3 611 896 1041 
3 208 735 1049 
3 205 805 1044 
3 634 722 1051 
3 1008 650 1081 
3 977 23 1058 
3 71 978 1061 
3 979 72 1060 
3 838 744 1053 
3 487 933 1062 
3 1006 863 1071 
3 202 1039 1080 
3 758 226 1048 
3 906 208 1049 
3 684 217 1051 
3 895 566 1045 
3 494 1013 1025 
3 824 209 1047 
3 53 52 1050 
3 215 968 1069 
3 748 747 1064 
3 623 906 1049 
3 989 672 1025 
3 1034 1064 1074 
3 801 802 1056 
3 220 98 1054 
3 673 633 1052 
3 80 242 1058 
3 241 127 1059 
3 95 584 1060 
3 583 22 1061 
3 436 474 1057 
3 745 743 1077 
3 708 829 1055 
3 209 975 1047 
3 839 487 1062 
3 1024 723 1073 
3 14 15 1065 
3 230 818 1066 
3 111 112 1068 
3 928 211 1071 
3 671 672 1069 
3 488 861 1067 
3 670 668 1072 
3 988 673 1052 
3 1065 15 1079 
3 238 180 1078 
3 600 999 1056 
3 780 844 1075 
3 15 16 1079 
3 632 938 1070 
3 803 196 1082 
3 914 780 1082 
3 647 646 1080 
3 650 651 1081 
3 567 517 1076 
3 902 622 1073 
3 242 977 1058 
3 978 583 1061 
3 584 979 1060 
3 968 671 1069 
3 1075 803 1082 
3 780 1075 1082 
3 196 914 1082 
3 677 990 1077 
3 1000 488 1067 
3 1012 567 1076 
3 985 669 1063 
3 211 1006 1071 
3 990 745 1077 
3 668 1020 1072 
3 718 1029 1074 
3 1007 632 1070 
3 737 1007 1070 
3 1037 238 1078 
3 1029 663 1074 
3 663 1034 1074 
3 1039 647 1080 
3 1042 803 1075 
3 683 1037 1078 
3 1064 718 1074 
3 145 146 147 
3 148 145 147 
3 144 145 148 
3 149 144 148 
3 143 144 149 
3 150 143 149 
3 142 143 150 
3 151 142 150 
3 141 142 151 
3 152 141 151 
3 140 141 152 
3 153 140 152 
3 139 140 153 
3 139 153 154 
3 138 139 154 
3 129 90 1083 
3 155 138 154 
3 90 129 163 
3 138 155 137 
3 155 156 137 
3 137 156 136 
3 156 157 136 
3 157 135 136 
3 135 157 158 
3 128 129 1083 
3 135 158 134 
3 158 159 134 
3 159 133 134 
3 159 160 133 
3 160 132 133 
3 161 132 160 
3 132 161 131 
3 131 161 162 
3 130 162 163 
3 130 131 162 
3 90 187 1083 
3 129 130 163 
3 187 128 1083 
3 92 93 1084 
3 147 146 1084 
3 93 147 1084 
3 146 92 1084 
3 89 128 187 
3 178 179 147 
3 148 178 147 
3 177 178 148 
3 149 177 148 
3 176 177 149 
3 150 176 149 
3 175 176 150 
3 151 175 150 
3 174 175 151 
3 152 174 151 
3 173 174 152 
3 153 173 152 
3 172 173 153 
3 91 162 1085 
3 172 153 154 
3 171 172 154 
3 162 163 1085 
3 155 171 154 
3 171 155 170 
3 162 91 164 
3 155 156 170 
3 156 169 170 
3 156 157 169 
3 157 168 169 
3 157 158 168 
3 188 91 1085 
3 158 167 168 
3 158 159 167 
3 159 160 166 
3 159 166 167 
3 160 161 165 
3 160 165 166 
3 161 162 164 
3 161 164 165 
3 163 188 1085 
3 94 93 1086 
3 147 179 1086 
3 93 147 1086 
3 179 94 1086 
3 90 188 163 
3 178 179 95 
3 178 95 96 
3 177 178 96 
3 177 96 97 
3 176 177 97 
3 176 97 98 
3 175 176 98 
3 175 98 99 
3 174 175 99 
3 174 99 100 
3 173 174 100 
3 173 100 101 
3 165 82 1087 
3 172 173 101 
3 108 82 165 
3 172 101 102 
3 171 172 102 
3 103 171 102 
3 170 171 103 
3 104 170 103 
3 169 170 104 
3 169 104 105 
3 164 165 1087 
3 169 105 168 
3 105 106 168 
3 106 167 168 
3 106 107 167 
3 107 108 166 
3 167 107 166 
3 166 108 165 
3 82 189 1087 
3 189 164 1087 
3 94 1 1088 
3 95 179 1088 
3 1 95 1088 
3 179 94 1088 
3 189 91 164 

CELL_TYPES 2039
5
5
5
5
5
5
5
5
5
5
5
5
5
5
5
5
5
5
5
5
5
5
5
5
5
5
5
5
5
5
5
5
5
5
5
5
5
5
5
5
5
5
5
5
5
5
5
5
5
5
5
5
5
5
5
5
5
5
5
5
5
5
5
5
5
5
5
5
5
5
5
5
5
5
5
5
5
5
5
5
5
5
5
5
5
5
5
5
5
5
5
5
5
5
5
5
5
5
5
5
5
5
5
5
5
5
5
5
5
5
5
5
5
5
5
5
5
5
5
5
5
5
5
5
5
5
5
5
5
5
5
5
5
5
5
5
5
5
5
5
5
5
5
5
5
5
5
5
5
5
5
5
5
5
5
5
5
5
5
5
5
5
5
5
5
5
5
5
5
5
5
5
5
5
5
5
5
5
5
5
5
5
5
5
5
5
5
5
5
5
5
5
5
5
5
5
5
5
5
5
5
5
5
5
5
5
5
5
5
5
5
5
5
5
5
5
5
5
5
5
5
5
5
5
5
5
5
5
5
5
5
5
5
5
5
5
5
5
5
5
5
5
5
5
5
5
5
5
5
5
5
5
5
5
5
5
5
5
5
5
5
5
5
5
5
5
5
5
5
5
5
5
5
5
5
5
5
5
5
5
5
5
5
5
5
5
5
5
5
5
5
5
5
5
5
5
5
5
5
5
5
5
5
5
5
5
5
5
5
5
5
5
5
5
5
5
5
5
5
5
5
5
5
5
5
5
5
5
5
5
5
5
5
5
5
5
5
5
5
5
5
5
5
5
5
5
5
5
5
5
5
5
5
5
5
5
5
5
5
5
5
5
5
5
5
5
5
5
5
5
5
5
5
5
5
5
5
5
5
5
5
5
5
5
5
5
5
5
5
5
5
5
5
5
5
5
5
5
5
5
5
5
5
5
5
5
5
5
5
5
5
5
5
5
5
5
5
5
5
5
5
5
5
5
5
5
5
5
5
5
5
5
5
5
5
5
5
5
5
5
5
5
5
5
5
5
5
5
5
5
5
5
5
5
5
5
5
5
5
5
5
5
5
5
5
5
5
5
5
5
5
5
5
5
5
5
5
5
5
5
5
5
5
5
5
5
5
5
5
5
5
5
5
5
5
5
5
5
5
5
5
5
5
5
5
5
5
5
5
5
5
5
5
5
5
5
5
5
5
5
5
5
5
5
5
5
5
5
5
5
5
5
5
5
5
5
5
5
5
5
5
5
5
5
5
5
5
5
5
5
5
5
5
5
5
5
5
5
5
5
5
5
5
5
5
5
5
5
5
5
5
5
5
5
5
5
5
5
5
5
5
5
5
5
5
5
5
5
5
5
5
5
5
5
5
5
5
5
5
5
5
5
5
5
5
5
5
5
5
5
5
5
5
5
5
5
5
5
5
5
5
5
5
5
5
5
5
5
5
5
5
5
5
5
5
5
5
5
5
5
5
5
5
5
5
5
5
5
5
5
5
5
5
5
5
5
5
5
5
5
5
5
5
5
5
5
5
5
5
5
5
5
5
5
5
5
5
5
5
5
5
5
5
5
5
5
5
5
5
5
5
5
5
5
5
5
5
5
5
5
5
5
5
5
5
5
5
5
5
5
5
5
5
5
5
5
5
5
5
5
5
5
5
5
5
5
5
5
5
5
5
5
5
5
5
5
5
5
5
5
5
5
5
5
5
5
5
5
5
5
5
5
5
5
5
5
5
5
5
5
5
5
5
5
5
5
5
5
5
5
5
5
5
5
5
5
5
5
5
5
5
5
5
5
5
5
5
5
5
5
5
5
5
5
5
5
5
5
5
5
5
5
5
5
5
5
5
5
5
5
5
5
5
5
5
5
5
5
5
5
5
5
5
5
5
5
5
5
5
5
5
5
5
5
5
5
5
5
5
5
5
5
5
5
5
5
5
5
5
5
5
5
5
5
5
5
5
5
5
5
5
5
5
5
5
5
5
5
5
5
5
5
5
5
5
5
5
5
5
5
5
5
5
5
5
5
5
5
5
5
5
5
5
5
5
5
5
5
5
5
5
5
5
5
5
5
5
5
5
5
5
5
5
5
5
5
5
5
5
5
5
5
5
5
5
5
5
5
5
5
5
5
5
5
5
5
5
5
5
5
5
5
5
5
5
5
5
5
5
5
5
5
5
5
5
5
5
5
5
5
5
5
5
5
5
5
5
5
5
5
5
5
5
5
5
5
5
5
5
5
5
5
5
5
5
5
5
5
5
5
5
5
5
5
5
5
5
5
5
5
5
5
5
5
5
5
5
5
5
5
5
5
5
5
5
5
5
5
5
5
5
5
5
5
5
5
5
5
5
5
5
5
5
5
5
5
5
5
5
5
5
5
5
5
5
5
5
5
5
5
5
5
5
5
5
5
5
5
5
5
5
5
5
5
5
5
5
5
5
5
5
5
5
5
5
5
5
5
5
5
5
5
5
5
5
5
5
5
5
5
5
5
5
5
5
5
5
5
5
5
5
5
5
5
5
5
5
5
5
5
5
5
5
5
5
5
5
5
5
5
5
5
5
5
5
5
5
5
5
5
5
5
5
5
5
5
5
5
5
5
5
5
5
5
5
5
5
5
5
5
5
5
5
5
5
5
5
5
5
5
5
5
5
5
5
5
5
5
5
5
5
5
5
5
5
5
5
5
5
5
5
5
5
5
5
5
5
5
5
5
5
5
5
5
5
5
5
5
5
5
5
5
5
5
5
5
5
5
5
5
5
5
5
5
5
5
5
5
5
5
5
5
5
5
5
5
5
5
5
5
5
5
5
5
5
5
5
5
5
5
5
5
5
5
5
5
5
5
5
5
5
5
5
5
5
5
5
5
5
5
5
5
5
5
5
5
5
5
5
5
5
5
5
5
5
5
5
5
5
5
5
5
5
5
5
5
5
5
5
5
5
5
5
5
5
5
5
5
5
5
5
5
5
5
5
5
5
5
5
5
5
5
5
5
5
5
5
5
5
5
5
5
5
5
5
5
5
5
5
5
5
5
5
5
5
5
5
5
5
5
5
5
5
5
5
5
5
5
5
5
5
5
5
5
5
5
5
5
5
5
5
5
5
5
5
5
5
5
5
5
5
5
5
5
5
5
5
5
5
5
5
5
5
5
5
5
5
5
5
5
5
5
5
5
5
5
5
5
5
5
5
5
5
5
5
5
5
5
5
5
5
5
5
5
5
5
5
5
5
5
5
5
5
5
5
5
5
5
5
5
5
5
5
5
5
5
5
5
5
5
5
5
5
5
5
5
5
5
5
5
5
5
5
5
5
5
5
5
5
5
5
5
5
5
5
5
5
5
5
5
5
5
5
5
5
5
5
5
5
5
5
5
5
5
5
5
5
5
5
5
5
5
5
5
5
5
5
5
5
5
5
5
5
5
5
5
5
5
5
5
5
5
5
5
5
5
5
5
5
5
5
5
5
5
5
5
5
5
5
5
5
5
5
5
5
5
5
5
5
5
5
5
5
5
5
5
5
5
5
5
5
5
5
5
5
5
5
5
5
5
5
5
5
5
5
5
5
5
5
5
5
5
5
5
5
5
5
5
5
5
5
5
5
5
5
5
5
5
5
5
5
5
5
5
5
5
5
5
5
5
5
5
5
5
5
5
5
5
5
5
5
5
5
5
5
5
5
5
5
5
5
5
5
5
5
5
5
5
5
5
5
5
5
5
5
5
5
5
5
5
5
5
5
5
5
5
5
5
5
5
5
5
5
5
5
5
5
5
5
5
5
5
5
5
5
5
5
5
5
5
5
5
5
5
5
5
5
5
5
5
5
5
5
5
5
5
5
5
5
5
5
5
5
5
5
5
5
5
5
5
5
5
5
5
5
5
5
5
5
5
5
5
5
5
5
5
5
5
5
5
5
5
5
5
5
5
5
5
5
5
5
5
5
5
5
5
5
5
5
5
5
5
5
5
5
5
5
5
5
5
5
5
5
5
5
5
5
5
5
5
5
5
5
5
5
5
5
5
5
5
5
5
5
5
5
5
5
5
5
5
5
5
5
5
5
5
5
5
5
5
5
5
5
5
5
5
5
5
5
5
5
5
5
5
5
5
5
5
5
5
5
5
5
5
5
5
5
5
5
5
5
5
5
5
5
5
5
5
5
5
5
5
5
5
5
5
5
5
5
5
5
5
5
5
5
5
5
5
5
5
5
5
5
5
5
5
5
5
5
5
5
5
5
5
5
5
5
5
5
5
5
5
5
5
5
5
5
5
5
5
5
5
5
5
5
5
5
5
5
5
5
5
5
5
5
5
5
5
5
5
5
5
5
5
5
5
5
5
5
5
5
5
5
5
5
5
5
5
5
5
5
5
5
5
5
5
5
5
5
5
5
5
5
5
5
5
5
5
5
5
5
5
5
5
5
5
5
5
5
5
5
5
5
5
5
5
5
5
5
5
5
5
5
5
5
5
5
5
5
5
5
5
5
5
5
5
5
5
5
5
5
5
5
5
5
5
5
5
5
5
5
5
5
5
5
5
5
5
5
5
5
5
5
5
5
5
5
5
5
5
5
5
5
5
5
5
5
5
5
5
5
5
5
5
5
5
5
5
5
5
5
5
5
5
5
5
5
5
5

POINT_DATA 1089

VECTORS coord float
0.0 0.0 0.0 
5.000000000000e+01 -1.000000000000e+01 0.0 
0.0 -2.000000000000e+01 0.0 
5.000000000000e+01 -2.000000000000e+01 0.0 
0.0 -9.999999999991e-01 0.0 
0.0 -1.999999999998e+00 0.0 
0.0 -2.999999999997e+00 0.0 
0.0 -3.999999999994e+00 0.0 
0.0 -4.999999999991e+00 0.0 
0.0 -5.999999999988e+00 0.0 
0.0 -6.999999999985e+00 0.0 
0.0 -7.999999999982e+00 0.0 
0.0 -8.999999999983e+00 0.0 
0.0 -9.999999999985e+00 0.0 
0.0 -1.099999999999e+01 0.0 
0.0 -1.199999999999e+01 0.0 
0.0 -1.299999999999e+01 0.0 
0.0 -1.399999999999e+01 0.0 
0.0 -1.499999999999e+01 0.0 
0.0 -1.599999999999e+01 0.0 
0.0 -1.700000000000e+01 0.0 
0.0 -1.800000000000e+01 0.0 
0.0 -1.900000000000e+01 0.0 
4.900000000001e+01 -2.000000000000e+01 0.0 
4.800000000001e+01 -2.000000000000e+01 0.0 
4.700000000002e+01 -2.000000000000e+01 0.0 
4.600000000003e+01 -2.000000000000e+01 0.0 
4.500000000004e+01 -2.000000000000e+01 0.0 
4.400000000004e+01 -2.000000000000e+01 0.0 
4.300000000005e+01 -2.000000000000e+01 0.0 
4.200000000006e+01 -2.000000000000e+01 0.0 
4.100000000006e+01 -2.000000000000e+01 0.0 
4.000000000007e+01 -2.000000000000e+01 0.0 
3.900000000008e+01 -2.000000000000e+01 0.0 
3.800000000009e+01 -2.000000000000e+01 0.0 
3.700000000009e+01 -2.000000000000e+01 0.0 
3.600000000010e+01 -2.000000000000e+01 0.0 
3.500000000011e+01 -2.000000000000e+01 0.0 
3.400000000011e+01 -2.000000000000e+01 0.0 
3.300000000012e+01 -2.000000000000e+01 0.0 
3.200000000013e+01 -2.000000000000e+01 0.0 
3.100000000013e+01 -2.000000000000e+01 0.0 
3.000000000013e+01 -2.000000000000e+01 0.0 
2.900000000013e+01 -2.000000000000e+01 0.0 
2.800000000013e+01 -2.000000000000e+01 0.0 
2.700000000013e+01 -2.000000000000e+01 0.0 
2.600000000013e+01 -2.000000000000e+01 0.0 
2.500000000013e+01 -2.000000000000e+01 0.0 
2.400000000013e+01 -2.000000000000e+01 0.0 
2.300000000013e+01 -2.000000000000e+01 0.0 
2.200000000013e+01 -2.000000000000e+01 0.0 
2.100000000013e+01 -2.000000000000e+01 0.0 
2.000000000013e+01 -2.000000000000e+01 0.0 
1.900000000013e+01 -2.000000000000e+01 0.0 
1.800000000013e+01 -2.000000000000e+01 0.0 
1.700000000012e+01 -2.000000000000e+01 0.0 
1.600000000011e+01 -2.000000000000e+01 0.0 
1.500000000011e+01 -2.000000000000e+01 0.0 
1.400000000010e+01 -2.000000000000e+01 0.0 
1.300000000009e+01 -2.000000000000e+01 0.0 
1.200000000009e+01 -2.000000000000e+01 0.0 
1.100000000008e+01 -2.000000000000e+01 0.0 
1.000000000007e+01 -2.000000000000e+01 0.0 
9.000000000064e+00 -2.000000000000e+01 0.0 
8.000000000057e+00 -2.000000000000e+01 0.0 
7.000000000050e+00 -2.000000000000e+01 0.0 
6.000000000043e+00 -2.000000000000e+01 0.0 
5.000000000036e+00 -2.000000000000e+01 0.0 
4.000000000028e+00 -2.000000000000e+01 0.0 
3.000000000021e+00 -2.000000000000e+01 0.0 
2.000000000014e+00 -2.000000000000e+01 0.0 
1.000000000007e+00 -2.000000000000e+01 0.0 
5.000000000000e+01 -1.100000000000e+01 0.0 
5.000000000000e+01 -1.200000000000e+01 0.0 
5.000000000000e+01 -1.300000000000e+01 0.0 
5.000000000000e+01 -1.400000000000e+01 0.0 
5.000000000000e+01 -1.500000000000e+01 0.0 
5.000000000000e+01 -1.600000000000e+01 0.0 
5.000000000000e+01 -1.700000000000e+01 0.0 
5.000000000000e+01 -1.800000000000e+01 0.0 
5.000000000000e+01 -1.900000000000e+01 0.0 
2.000000000000e+01 0.0 0.0 
3.500000000000e+01 -1.000000000000e+01 0.0 
2.150000000000e+01 -1.000000000000e+00 0.0 
2.300000000000e+01 -2.000000000000e+00 0.0 
2.450000000000e+01 -3.000000000000e+00 0.0 
2.600000000000e+01 -4.000000000000e+00 0.0 
2.750000000000e+01 -5.000000000000e+00 0.0 
2.900000000000e+01 -6.000000000000e+00 0.0 
3.050000000000e+01 -7.000000000000e+00 0.0 
3.200000000000e+01 -8.000000000000e+00 0.0 
3.350000000000e+01 -9.000000000000e+00 0.0 
5.000000000000e+01 -7.000000000000e+00 0.0 
5.000000000000e+01 -8.000000000000e+00 0.0 
5.000000000000e+01 -9.000000000000e+00 0.0 
4.900000000000e+01 -1.000000000000e+01 0.0 
4.800000000000e+01 -1.000000000000e+01 0.0 
4.700000000000e+01 -1.000000000000e+01 0.0 
4.600000000000e+01 -1.000000000000e+01 0.0 
4.500000000000e+01 -1.000000000000e+01 0.0 
4.400000000000e+01 -1.000000000000e+01 0.0 
4.300000000000e+01 -1.000000000000e+01 0.0 
4.200000000000e+01 -1.000000000000e+01 0.0 
4.100000000000e+01 -1.000000000000e+01 0.0 
4.000000000000e+01 -1.000000000000e+01 0.0 
3.900000000000e+01 -1.000000000000e+01 0.0 
3.800000000000e+01 -1.000000000000e+01 0.0 
3.700000000000e+01 -1.000000000000e+01 0.0 
3.600000000000e+01 -1.000000000000e+01 0.0 
1.900000000000e+01 0.0 0.0 
1.800000000000e+01 0.0 0.0 
1.700000000000e+01 0.0 0.0 
1.600000000000e+01 0.0 0.0 
1.500000000000e+01 0.0 0.0 
1.400000000000e+01 0.0 0.0 
1.300000000000e+01 0.0 0.0 
1.200000000000e+01 0.0 0.0 
1.100000000000e+01 0.0 0.0 
1.000000000000e+01 0.0 0.0 
9.000000000000e+00 0.0 0.0 
8.000000000000e+00 0.0 0.0 
7.000000000000e+00 0.0 0.0 
6.000000000000e+00 0.0 0.0 
5.000000000000e+00 0.0 0.0 
4.000000000000e+00 0.0 0.0 
3.000000000000e+00 0.0 0.0 
2.000000000000e+00 0.0 0.0 
1.000000000000e+00 0.0 0.0 
3.147499999998e+01 -7.000000000000e+00 0.0 
3.244999999998e+01 -7.000000000000e+00 0.0 
3.342499999998e+01 -7.000000000000e+00 0.0 
3.439999999998e+01 -7.000000000000e+00 0.0 
3.537499999998e+01 -7.000000000000e+00 0.0 
3.634999999998e+01 -7.000000000000e+00 0.0 
3.732499999998e+01 -7.000000000000e+00 0.0 
3.829999999998e+01 -7.000000000000e+00 0.0 
3.927499999999e+01 -7.000000000000e+00 0.0 
4.024999999999e+01 -7.000000000000e+00 0.0 
4.122499999999e+01 -7.000000000000e+00 0.0 
4.219999999999e+01 -7.000000000000e+00 0.0 
4.317499999999e+01 -7.000000000000e+00 0.0 
4.414999999999e+01 -7.000000000000e+00 0.0 
4.512499999999e+01 -7.000000000000e+00 0.0 
4.609999999999e+01 -7.000000000000e+00 0.0 
4.707500000000e+01 -7.000000000000e+00 0.0 
4.805000000000e+01 -7.000000000000e+00 0.0 
4.902500000000e+01 -7.000000000000e+00 0.0 
4.900000000000e+01 -8.000000000000e+00 0.0 
4.800000000000e+01 -8.000000000000e+00 0.0 
4.700000000000e+01 -8.000000000000e+00 0.0 
4.600000000000e+01 -8.000000000000e+00 0.0 
4.500000000000e+01 -8.000000000000e+00 0.0 
4.400000000000e+01 -8.000000000000e+00 0.0 
4.300000000000e+01 -8.000000000000e+00 0.0 
4.200000000000e+01 -8.000000000000e+00 0.0 
4.100000000000e+01 -8.000000000000e+00 0.0 
4.000000000000e+01 -8.000000000000e+00 0.0 
3.900000000000e+01 -8.000000000000e+00 0.0 
3.800000000000e+01 -8.000000000000e+00 0.0 
3.700000000000e+01 -8.000000000000e+00 0.0 
3.600000000000e+01 -8.000000000000e+00 0.0 
3.500000000000e+01 -8.000000000000e+00 0.0 
3.400000000000e+01 -8.000000000000e+00 0.0 
3.300000000000e+01 -8.000000000000e+00 0.0 
3.447058823527e+01 -9.000000000000e+00 0.0 
3.544117647055e+01 -9.000000000000e+00 0.0 
3.641176470582e+01 -9.000000000000e+00 0.0 
3.738235294109e+01 -9.000000000000e+00 0.0 
3.835294117637e+01 -9.000000000000e+00 0.0 
3.932352941164e+01 -9.000000000000e+00 0.0 
4.029411764691e+01 -9.000000000000e+00 0.0 
4.126470588219e+01 -9.000000000000e+00 0.0 
4.223529411748e+01 -9.000000000000e+00 0.0 
4.320588235279e+01 -9.000000000000e+00 0.0 
4.417647058811e+01 -9.000000000000e+00 0.0 
4.514705882342e+01 -9.000000000000e+00 0.0 
4.611764705874e+01 -9.000000000000e+00 0.0 
4.708823529405e+01 -9.000000000000e+00 0.0 
4.805882352937e+01 -9.000000000000e+00 0.0 
4.902941176468e+01 -9.000000000000e+00 0.0 
2.075000000000e+01 -5.000000000006e-01 0.0 
2.225000000000e+01 -1.500000000000e+00 0.0 
2.375000000000e+01 -2.500000000000e+00 0.0 
2.525000000000e+01 -3.500000000000e+00 0.0 
2.675000000000e+01 -4.500000000000e+00 0.0 
2.825000000000e+01 -5.500000000000e+00 0.0 
2.975000000000e+01 -6.500000000000e+00 0.0 
3.125000000000e+01 -7.500000000000e+00 0.0 
3.275000000000e+01 -8.500000000000e+00 0.0 
3.425000000000e+01 -9.500000000000e+00 0.0 
2.226951693683e+01 -2.403913980114e+00 0.0 
1.650149491944e+01 -1.913490915758e+01 0.0 
1.050042386896e+01 -8.504605092970e-01 0.0 
1.553146524712e+01 -8.281255032105e-01 0.0 
1.150000000008e+01 -1.913397459621e+01 0.0 
2.530060260647e+01 -4.428336431260e+00 0.0 
8.651114563942e-01 -1.052096295641e+01 0.0 
2.050000000013e+01 -1.913397459622e+01 0.0 
2.819198729811e+01 -6.399519052838e+00 0.0 
2.445670302931e+01 -1.915649188023e+01 0.0 
3.117591465718e+01 -8.394293040695e+00 0.0 
7.465053044742e+00 -1.920411160581e+01 0.0 
6.398295709691e+00 -8.230098819370e-01 0.0 
2.849659607461e+01 -1.914296187762e+01 0.0 
3.418732642882e+01 -1.040265792588e+01 0.0 
8.386450935063e-01 -6.533605142809e+00 0.0 
9.178661865596e-01 -1.329769195597e+01 0.0 
3.149448624493e+01 -1.910466733764e+01 0.0 
3.552916747426e+01 -1.914628590759e+01 0.0 
4.449210346537e+01 -1.914359085008e+01 0.0 
4.140975975145e+01 -1.906941860733e+01 0.0 
3.847475958753e+01 -1.916622382724e+01 0.0 
3.653774794640e+01 -1.088712800241e+01 0.0 
4.047886341787e+01 -1.090139014048e+01 0.0 
4.348006339825e+01 -1.092792621489e+01 0.0 
4.919519968029e+01 -1.451526755068e+01 0.0 
4.500000000032e+00 -1.913397459621e+01 0.0 
1.856136921614e+01 -8.212235170404e-01 0.0 
3.499895312306e+00 -8.661165539723e-01 0.0 
9.076088696565e-01 -1.642306201891e+01 0.0 
4.655174095477e+01 -1.086183387525e+01 0.0 
9.430688970604e-01 -3.496112672958e+00 0.0 
3.353992337063e+01 -1.901202090820e+01 0.0 
2.249746016977e+01 -1.921262287282e+01 0.0 
2.650122741777e+01 -1.916123026018e+01 0.0 
1.863571384842e+01 -1.908325534840e+01 0.0 
1.450089971693e+01 -1.917691901860e+01 0.0 
1.350044695317e+01 -8.659695299584e-01 0.0 
3.849987469880e+01 -1.084154983397e+01 0.0 
9.454419857884e+00 -1.900818879936e+01 0.0 
4.917398660523e+01 -1.645692866081e+01 0.0 
8.500000000000e+00 -8.660254037844e-01 0.0 
8.660319230785e-01 -8.500111697188e+00 0.0 
4.649022621545e+01 -1.930506220113e+01 0.0 
2.667688107845e+01 -5.420288124331e+00 0.0 
2.379251615665e+01 -3.412225477429e+00 0.0 
2.966631491830e+01 -7.389030232731e+00 0.0 
3.267915035995e+01 -9.396934932445e+00 0.0 
2.074836922338e+01 -1.320054020319e+00 0.0 
4.915985743621e+01 -1.261973384855e+01 0.0 
2.527129768623e+00 -1.931592414663e+01 0.0 
1.538676247410e+00 -8.436956619311e-01 0.0 
4.908096641539e+01 -1.842484004551e+01 0.0 
3.478612492673e+01 -1.090889364140e+01 0.0 
3.409757055860e+01 -1.131991530427e+01 0.0 
3.501895309466e+01 -1.177687842717e+01 0.0 
3.407758073088e+01 -1.224293381580e+01 0.0 
3.484541875390e+01 -1.277051428430e+01 0.0 
3.400322025842e+01 -1.319022775640e+01 0.0 
3.321672625034e+01 -1.266779191233e+01 0.0 
3.315244139236e+01 -1.360984106532e+01 0.0 
3.236335186892e+01 -1.308463225210e+01 0.0 
3.478337442841e+01 -1.372341158982e+01 0.0 
3.230105923633e+01 -1.403023731610e+01 0.0 
3.150954055289e+01 -1.350301767700e+01 0.0 
3.144604792090e+01 -1.444931742516e+01 0.0 
3.065653897123e+01 -1.392357262981e+01 0.0 
3.071897610812e+01 -1.297447031198e+01 0.0 
2.986790411740e+01 -1.339226181535e+01 0.0 
2.993181466745e+01 -1.244703272398e+01 0.0 
2.908023061869e+01 -1.286254537734e+01 0.0 
2.901619051372e+01 -1.380881655279e+01 0.0 
2.822986160390e+01 -1.327695262116e+01 0.0 
2.829453476870e+01 -1.233265343811e+01 0.0 
2.744542905518e+01 -1.274510491105e+01 0.0 
2.751120089246e+01 -1.180368086886e+01 0.0 
2.666218649885e+01 -1.221619339205e+01 0.0 
2.672371209234e+01 -1.127125228527e+01 0.0 
2.587763216302e+01 -1.168539979114e+01 0.0 
2.581165585299e+01 -1.262994410089e+01 0.0 
2.502890882577e+01 -1.209827323619e+01 0.0 
2.509631327757e+01 -1.115492410304e+01 0.0 
2.424662989877e+01 -1.156630981079e+01 0.0 
2.431704046904e+01 -1.062389179334e+01 0.0 
2.346445438728e+01 -1.103427680694e+01 0.0 
2.339382552877e+01 -1.197964871788e+01 0.0 
2.260936050780e+01 -1.144513277642e+01 0.0 
2.268075012022e+01 -1.049911928216e+01 0.0 
2.182525737661e+01 -1.090920811464e+01 0.0 
2.189682319817e+01 -9.961716944568e+00 0.0 
2.104174127792e+01 -1.037266986667e+01 0.0 
2.111304367575e+01 -9.424179358711e+00 0.0 
2.025306185381e+01 -9.832727364719e+00 0.0 
2.018141124247e+01 -1.079140628871e+01 0.0 
1.938594498257e+01 -1.025147354112e+01 0.0 
1.946106490453e+01 -9.288010758448e+00 0.0 
1.858929958352e+01 -9.706319802516e+00 0.0 
1.851540991219e+01 -1.067205988724e+01 0.0 
1.771485303178e+01 -1.012504443115e+01 0.0 
1.764134552256e+01 -1.109360378538e+01 0.0 
1.683745148095e+01 -1.054496365337e+01 0.0 
1.691852964353e+01 -9.582555261178e+00 0.0 
1.603603813062e+01 -1.000160132379e+01 0.0 
1.595824239350e+01 -1.096750698862e+01 0.0 
1.515080624291e+01 -1.041639501931e+01 0.0 
1.523171602559e+01 -9.451711491453e+00 0.0 
1.434621060709e+01 -9.871956467464e+00 0.0 
1.426777178765e+01 -1.083749501371e+01 0.0 
1.345775282374e+01 -1.028803175500e+01 0.0 
1.354103873368e+01 -9.324918457162e+00 0.0 
1.265072018622e+01 -9.742612837270e+00 0.0 
1.257285762070e+01 -1.071557782384e+01 0.0 
1.175874815690e+01 -1.015972324288e+01 0.0 
1.184203019714e+01 -9.193604071377e+00 0.0 
1.094927709905e+01 -9.612103238656e+00 0.0 
1.086938022910e+01 -1.058685085646e+01 0.0 
1.005424098961e+01 -1.002939116380e+01 0.0 
9.977974613295e+00 -1.101324897989e+01 0.0 
1.012915646404e+01 -9.051815821181e+00 0.0 
9.237127782494e+00 -9.471239055559e+00 0.0 
9.308426593771e+00 -8.483376461131e+00 0.0 
8.418806073345e+00 -8.910712374517e+00 0.0 
2.253688464062e+01 -1.239459402279e+01 0.0 
8.495126726666e+00 -7.921646665254e+00 0.0 
9.389727383206e+00 -7.512103628377e+00 0.0 
7.601560812974e+00 -8.349460349344e+00 0.0 
7.525680547759e+00 -9.339736686940e+00 0.0 
7.677888324502e+00 -7.359727833346e+00 0.0 
6.782001206724e+00 -7.788454494773e+00 0.0 
6.858778622885e+00 -6.797338062822e+00 0.0 
2.196596590865e+01 -8.979025665442e+00 0.0 
2.816540108272e+01 -1.422634142353e+01 0.0 
5.961601194403e+00 -7.226824010712e+00 0.0 
6.038171749656e+00 -6.234825887079e+00 0.0 
6.936257279557e+00 -5.805287640737e+00 0.0 
6.115068918323e+00 -5.242109758768e+00 0.0 
3.564391741903e+01 -1.329240553876e+01 0.0 
3.558115605778e+01 -1.425902892003e+01 0.0 
3.645445282201e+01 -1.381970786460e+01 0.0 
3.639744204358e+01 -1.479198128612e+01 0.0 
3.727266909778e+01 -1.435399586226e+01 0.0 
5.216667013081e+00 -5.671788584287e+00 0.0 
3.220697293295e+01 -1.499594545107e+01 0.0 
3.551112158269e+01 -1.523479869250e+01 0.0 
2.836056961467e+01 -1.139032434851e+01 0.0 
2.516730388602e+01 -1.021382726837e+01 0.0 
1.844436907403e+01 -1.164097215196e+01 0.0 
5.885434318740e+00 -8.218694781467e+00 0.0 
5.064071066867e+00 -7.656614643901e+00 0.0 
4.988089103470e+00 -8.649722082718e+00 0.0 
1.079421050408e+01 -1.157014985435e+01 0.0 
9.902420005256e+00 -1.199903342656e+01 0.0 
1.071994252214e+01 -1.255727909771e+01 0.0 
9.826974788171e+00 -1.298659581767e+01 0.0 
1.064607883789e+01 -1.354595476388e+01 0.0 
9.751541265343e+00 -1.397556905071e+01 0.0 
8.932296185869e+00 -1.341553353988e+01 0.0 
8.856399248106e+00 -1.440570715508e+01 0.0 
8.036186803543e+00 -1.384470558472e+01 0.0 
1.057112875118e+01 -1.453516759081e+01 0.0 
1.146582585687e+01 -1.410539926903e+01 0.0 
7.959894480382e+00 -1.483563350928e+01 0.0 
7.138792279156e+00 -1.427465094140e+01 0.0 
7.062506792418e+00 -1.526615385482e+01 0.0 
6.240693558277e+00 -1.470508863040e+01 0.0 
6.316957575451e+00 -1.371212581281e+01 0.0 
5.418183007107e+00 -1.414253605022e+01 0.0 
5.494748364428e+00 -1.314886770603e+01 0.0 
1.756825565873e+01 -1.206433872514e+01 0.0 
1.837565773345e+01 -1.261356468266e+01 0.0 
1.749574831391e+01 -1.303769280014e+01 0.0 
1.830539187332e+01 -1.358828364284e+01 0.0 
1.742278925170e+01 -1.401367746928e+01 0.0 
1.823303007798e+01 -1.456432294258e+01 0.0 
1.734941694138e+01 -1.499213734361e+01 0.0 
1.653760041637e+01 -1.443920312098e+01 0.0 
3.056237977307e+01 -1.487132260174e+01 0.0 
1.866469084762e+01 -8.742953000418e+00 0.0 
1.953669694916e+01 -8.326038909849e+00 0.0 
1.874194303780e+01 -7.780688158966e+00 0.0 
1.961032016741e+01 -7.366854697285e+00 0.0 
1.881715755159e+01 -6.821102209649e+00 0.0 
1.968369797150e+01 -6.407747217358e+00 0.0 
1.889237123259e+01 -5.858375520026e+00 0.0 
1.802038875366e+01 -6.276202618170e+00 0.0 
1.809793837984e+01 -5.307629520489e+00 0.0 
1.721985207997e+01 -5.728242054488e+00 0.0 
1.729850893523e+01 -4.756990819347e+00 0.0 
1.641745664240e+01 -5.174636548624e+00 0.0 
2.495978509456e+01 -1.304406404294e+01 0.0 
1.911567814831e+01 -1.413854250293e+01 0.0 
1.904387332608e+01 -1.511463127723e+01 0.0 
1.992115934240e+01 -1.468788025898e+01 0.0 
7.013706899628e+00 -4.812582868662e+00 0.0 
5.342091874585e+00 -1.513658157269e+01 0.0 
1.139098043784e+01 -1.509488509480e+01 0.0 
1.228151810610e+01 -1.465617481983e+01 0.0 
1.646373110164e+01 -1.541993323337e+01 0.0 
5.293328636712e+00 -4.678385108584e+00 0.0 
1.975965862987e+01 -5.448124345648e+00 0.0 
2.054318374236e+01 -5.992561293251e+00 0.0 
3.721453439063e+01 -1.533216152738e+01 0.0 
3.809302733893e+01 -1.489235527381e+01 0.0 
1.220852788900e+01 -1.565304565230e+01 0.0 
4.394120899730e+00 -5.108397613210e+00 0.0 
8.779354620288e+00 -1.539524721159e+01 0.0 
1.817791047702e+01 -4.338570146253e+00 0.0 
4.518860013839e+00 -1.457343189307e+01 0.0 
4.442712140414e+00 -1.556841391069e+01 0.0 
8.115343466391e+00 -1.285760324283e+01 0.0 
1.985334703171e+01 -1.566478400426e+01 0.0 
2.071953850276e+01 -1.522074243119e+01 0.0 
1.634012953883e+01 -6.154777738301e+00 0.0 
1.553479994708e+01 -5.593730508879e+00 0.0 
1.561265946942e+01 -4.617761762647e+00 0.0 
1.470674212978e+01 -5.064576488228e+00 0.0 
1.464498299883e+01 -6.026514471420e+00 0.0 
1.383271561817e+01 -5.467796261169e+00 0.0 
1.389241253067e+01 -4.504338666645e+00 0.0 
1.301868735463e+01 -4.907185188626e+00 0.0 
1.294514184846e+01 -5.888160903592e+00 0.0 
1.212955968622e+01 -5.328262335277e+00 0.0 
1.220721122383e+01 -4.341264976687e+00 0.0 
1.131324345897e+01 -4.766773516508e+00 0.0 
5.266597955397e+00 -1.613148974258e+01 0.0 
1.737805990867e+01 -3.786677807525e+00 0.0 
3.078438094513e+01 -1.203225297748e+01 0.0 
1.131569882285e+01 -1.608511932110e+01 0.0 
1.728478341782e+01 -1.596017432313e+01 0.0 
3.803465906019e+01 -1.587509751228e+01 0.0 
3.891681276677e+01 -1.543395196905e+01 0.0 
3.897340985302e+01 -1.444710288980e+01 0.0 
3.980095968193e+01 -1.499059496613e+01 0.0 
3.974334598189e+01 -1.597921884150e+01 0.0 
4.062964983717e+01 -1.553518690417e+01 0.0 
4.068729602479e+01 -1.454434445295e+01 0.0 
4.151772679790e+01 -1.508974196007e+01 0.0 
4.157505195739e+01 -1.409694289912e+01 0.0 
4.240699932656e+01 -1.464347955968e+01 0.0 
4.234898051011e+01 -1.563721375790e+01 0.0 
4.323934606035e+01 -1.519082036405e+01 0.0 
4.329740528208e+01 -1.419587509788e+01 0.0 
4.413056841369e+01 -1.474359631875e+01 0.0 
4.418850110108e+01 -1.374786684042e+01 0.0 
4.502219770667e+01 -1.429605103525e+01 0.0 
4.496411937907e+01 -1.529215882720e+01 0.0 
4.490027319897e+00 -4.154167794594e+00 0.0 
1.565080385988e+01 -1.486411982419e+01 0.0 
1.557610691279e+01 -1.584855627870e+01 0.0 
4.195350646612e+00 -8.089117689096e+00 0.0 
4.124027797830e+00 -9.082831955007e+00 0.0 
4.917944318925e+00 -9.643530901533e+00 0.0 
4.020105689502e+00 -1.007439673661e+01 0.0 
4.587185899277e+01 -1.484039992728e+01 0.0 
4.580078661551e+01 -1.584043391042e+01 0.0 
2.061956522375e+01 -5.046701343981e+00 0.0 
2.139572955529e+01 -5.579553449826e+00 0.0 
3.715344357292e+01 -1.631485124583e+01 0.0 
3.618886196443e+00 -1.500471207167e+01 0.0 
3.695606940204e+00 -1.400939692294e+01 0.0 
2.438890661143e+01 -9.686110599723e+00 0.0 
2.523267572778e+01 -9.276766000622e+00 0.0 
2.446094171539e+01 -8.751904591412e+00 0.0 
2.529089822738e+01 -8.321495612547e+00 0.0 
2.606882688827e+01 -8.864724051119e+00 0.0 
2.452116646430e+01 -7.792756462004e+00 0.0 
1.235543269617e+01 -1.365845617339e+01 0.0 
4.318116874181e+01 -1.618567469992e+01 0.0 
7.835066111909e+00 -5.376366223896e+00 0.0 
7.905687335704e+00 -4.382539065697e+00 0.0 
3.542640009567e+00 -1.600035116542e+01 0.0 
1.572431503071e+01 -1.388358386695e+01 0.0 
2.574684696680e+01 -1.357896141127e+01 0.0 
2.488842657651e+01 -1.399674354505e+01 0.0 
2.568301775611e+01 -1.453552048595e+01 0.0 
2.481535572009e+01 -1.495542756508e+01 0.0 
2.561729699688e+01 -1.549784648532e+01 0.0 
2.474623061296e+01 -1.592058894178e+01 0.0 
2.394234041695e+01 -1.537572575827e+01 0.0 
2.065825452567e+01 -1.621899055217e+01 0.0 
2.387180528935e+01 -1.634552264687e+01 0.0 
4.585364400844e+01 -1.383912334080e+01 0.0 
1.998744432052e+01 -1.370317155541e+01 0.0 
1.205356951443e+01 -6.313580285498e+00 0.0 
5.396543905849e+00 -3.731818611283e+00 0.0 
1.139652573295e+01 -3.745819399350e+00 0.0 
3.574124306703e+00 -4.551456826011e+00 0.0 
3.494140761930e+00 -5.539787055649e+00 0.0 
1.213651452413e+01 -1.664505033022e+01 0.0 
2.555045568519e+01 -1.646529356744e+01 0.0 
2.641671114986e+01 -1.603899382371e+01 0.0 
2.612920721894e+01 -7.906435260873e+00 0.0 
2.690339829698e+01 -8.456969591431e+00 0.0 
1.978024383368e+01 -1.664410216353e+01 0.0 
3.732829979082e+01 -1.336926601859e+01 0.0 
4.074336584605e+01 -1.355133328401e+01 0.0 
4.163204691081e+01 -1.310280943992e+01 0.0 
3.773826114429e+00 -3.493444309145e+00 0.0 
1.228783001032e+01 -3.374822835872e+00 0.0 
4.057110462520e+01 -1.652588478000e+01 0.0 
2.132535497898e+01 -6.523623360525e+00 0.0 
2.216932532211e+01 -6.110044769206e+00 0.0 
1.825781152128e+01 -3.370146817147e+00 0.0 
1.745679445888e+01 -2.812942552063e+00 0.0 
4.666517057280e+01 -1.539981381543e+01 0.0 
4.660575894464e+01 -1.639014410186e+01 0.0 
4.838230979954e+00 -1.063643436446e+01 0.0 
3.938942630206e+00 -1.106778981745e+01 0.0 
1.302967218620e+01 -1.621373452436e+01 0.0 
1.049548003190e+01 -4.204825123240e+00 0.0 
4.573571907195e+01 -1.683820511148e+01 0.0 
1.483686335807e+01 -1.430849689310e+01 0.0 
1.490982658890e+01 -1.332679386284e+01 0.0 
3.190805600162e+00 -9.510968358545e+00 0.0 
2.146625721848e+01 -4.642437303115e+00 0.0 
2.069866208266e+01 -4.111852942193e+00 0.0 
1.286859345584e+01 -6.873252723348e+00 0.0 
1.041794493184e+01 -5.194814260291e+00 0.0 
2.671081808965e+00 -4.976806516331e+00 0.0 
1.295786792925e+01 -1.720506531799e+01 0.0 
3.968438206511e+01 -1.696869067241e+01 0.0 
2.308550456051e+01 -1.579963151273e+01 0.0 
2.315593682844e+01 -1.482967445235e+01 0.0 
2.299471449450e+01 -1.677069968132e+01 0.0 
1.057344714696e+01 -3.214252277840e+00 0.0 
1.124057603753e+01 -1.707713739755e+01 0.0 
2.718402535754e+00 -1.543629882103e+01 0.0 
2.638549692805e+01 -1.696744916809e+01 0.0 
2.723416349007e+01 -1.658104204545e+01 0.0 
2.210193351704e+01 -7.046769643417e+00 0.0 
2.295180925161e+01 -6.657397605239e+00 0.0 
2.301355235833e+01 -5.709111896800e+00 0.0 
2.379052718281e+01 -6.254965406962e+00 0.0 
3.243528601237e+01 -1.214181853533e+01 0.0 
2.287977995457e+01 -7.583722368300e+00 0.0 
2.999876029544e+01 -1.150837653096e+01 0.0 
3.084435366963e+01 -1.109693775882e+01 0.0 
3.006650579669e+01 -1.057778994262e+01 0.0 
2.683802665066e+01 -9.386863216633e+00 0.0 
2.768641973621e+01 -8.988883915666e+00 0.0 
2.040296980397e+01 -7.903629133404e+00 0.0 
1.925235024054e+01 -1.218872783130e+01 0.0 
5.735667000424e+00 -1.020577277283e+01 0.0 
6.396559909872e+00 -1.272326295703e+01 0.0 
1.161199420714e+01 -1.212812778229e+01 0.0 
4.229046132615e+01 -1.663084237572e+01 0.0 
4.312275399692e+01 -1.718087491556e+01 0.0 
4.335502068163e+01 -1.320039231514e+01 0.0 
4.424630298089e+01 -1.275160688731e+01 0.0 
7.090116643816e+00 -3.818998061530e+00 0.0 
7.989472176569e+00 -3.389238711200e+00 0.0 
9.085824861778e+00 -1.144036167408e+01 0.0 
1.041972423731e+01 -1.651614080893e+01 0.0 
3.797525112640e+01 -1.686052038746e+01 0.0 
3.709114253394e+01 -1.730125999865e+01 0.0 
3.626966748340e+01 -1.675477052919e+01 0.0 
1.385164591440e+01 -1.677597757552e+01 0.0 
1.787152588784e+01 -8.198993896093e+00 0.0 
1.668849729812e+01 -1.248560611628e+01 0.0 
1.659546177905e+01 -3.232482605530e+00 0.0 
2.332214717345e+01 -1.292598167641e+01 0.0 
7.168238450786e+00 -2.824711686516e+00 0.0 
2.894878403906e+01 -1.475427524446e+01 0.0 
2.646763248247e+00 -1.643270107952e+01 0.0 
3.467431944285e+00 -1.699648837348e+01 0.0 
2.059475877282e+01 -1.719473628526e+01 0.0 
3.333868355437e+01 -1.080596971682e+01 0.0 
2.246451062637e+01 -1.334557761546e+01 0.0 
2.167821896388e+01 -1.280847834858e+01 0.0 
3.089653185767e+01 -1.017198487212e+01 0.0 
3.012604365669e+01 -9.657298805968e+00 0.0 
2.929627299435e+01 -1.006100135274e+01 0.0 
2.936201435219e+01 -9.136748899251e+00 0.0 
1.198219052702e+01 -7.291887238230e+00 0.0 
1.116702076035e+01 -6.731976101053e+00 0.0 
2.551388807505e+01 -1.746927036981e+01 0.0 
2.378639090370e+01 -1.728678807149e+01 0.0 
2.718543627188e+01 -1.748668016909e+01 0.0 
2.804681050301e+01 -1.712626668293e+01 0.0 
1.970737034667e+01 -1.762317646822e+01 0.0 
1.889535776135e+01 -1.707158098231e+01 0.0 
2.593777711283e+00 -5.971157087874e+00 0.0 
2.773468281110e+01 -8.067164273938e+00 0.0 
4.051205884347e+01 -1.751819982458e+01 0.0 
3.166903145421e+01 -1.068032992414e+01 0.0 
1.033042452886e+01 -1.748285844336e+01 0.0 
9.519274604626e+00 -1.694349240233e+01 0.0 
1.668308673328e+01 -2.255861778986e+00 0.0 
1.570531902832e+01 -2.676795860126e+00 0.0 
4.655826903379e+01 -1.736656245706e+01 0.0 
2.384148070773e+01 -5.328744256413e+00 0.0 
2.460255123641e+01 -5.852182672816e+00 0.0 
2.306638135119e+01 -4.798935440613e+00 0.0 
8.467720450578e-01 -1.849576263072e+01 0.0 
4.849657322345e+01 -1.084860705506e+01 0.0 
2.565860899507e+00 -1.742859793981e+01 0.0 
2.764418872564e+01 -9.927142821799e+00 0.0 
4.565165880064e+01 -1.785336695404e+01 0.0 
2.162231831329e+01 -1.376528337468e+01 0.0 
2.360646352969e+01 -9.136041963102e+00 0.0 
1.392738739903e+01 -1.578285505772e+01 0.0 
4.756405947478e+01 -1.683706841809e+01 0.0 
4.740895034054e+01 -1.793766756892e+01 0.0 
4.080779328826e+01 -1.257387192544e+01 0.0 
4.168907939671e+01 -1.210739129181e+01 0.0 
3.991197722154e+01 -1.300815793917e+01 0.0 
1.905536506762e+01 -3.940076697685e+00 0.0 
1.923879596617e+01 -2.875000734166e+00 0.0 
4.401386745746e+01 -1.673483229438e+01 0.0 
4.247233362525e+00 -7.094581653070e+00 0.0 
3.286051630211e+00 -7.635300020553e+00 0.0 
9.609533347623e+00 -4.594311677967e+00 0.0 
9.523554636369e+00 -5.595597029530e+00 0.0 
5.660336628893e+00 -1.119290329628e+01 0.0 
6.558070063295e+00 -1.076385809362e+01 0.0 
2.809866407414e+01 -1.518037766799e+01 0.0 
2.888868674504e+01 -1.570360690070e+01 0.0 
2.654431550819e+01 -1.411217777162e+01 0.0 
1.402158265969e+01 -1.375404617952e+01 0.0 
1.409592494026e+01 -1.277071998942e+01 0.0 
1.499355196178e+01 -1.235270737023e+01 0.0 
4.221535326155e+01 -1.759335617494e+01 0.0 
4.305583287033e+01 -1.822663146802e+01 0.0 
1.280748808359e+01 -7.834332838285e+00 0.0 
1.368988389326e+01 -7.420529606172e+00 0.0 
1.110091796060e+01 -7.683966794328e+00 0.0 
3.963446145980e+01 -1.794331310122e+01 0.0 
3.423932362213e+00 -1.796415590455e+01 0.0 
4.280814572302e+00 -1.752272834860e+01 0.0 
8.050136380041e+00 -2.421582378631e+00 0.0 
8.888674091650e+00 -2.984264211327e+00 0.0 
2.152839430898e+01 -3.732609965436e+00 0.0 
2.077799585292e+01 -3.183896021866e+00 0.0 
3.618719395821e+01 -1.770276572576e+01 0.0 
3.538165138340e+01 -1.718709995539e+01 0.0 
3.702925326420e+01 -1.828844288807e+01 0.0 
1.756739438711e+00 -5.353284859169e+00 0.0 
2.233710191104e+01 -1.527265621324e+01 0.0 
1.389483555057e+01 -1.771797164730e+01 0.0 
1.475634224300e+01 -1.728357428390e+01 0.0 
1.298797563052e+01 -1.825968924755e+01 0.0 
2.145331271866e+01 -1.673705379077e+01 0.0 
2.133282821169e+01 -1.769400773673e+01 0.0 
2.292139194136e+01 -1.774915400288e+01 0.0 
1.750750053243e+01 -1.861475593469e+00 0.0 
4.830478841772e+01 -1.752611802221e+01 0.0 
4.341203507805e+01 -1.220326745522e+01 0.0 
1.685254151866e+01 -1.443085301632e+00 0.0 
4.431538535165e+01 -1.171841387375e+01 0.0 
4.511308610496e+01 -1.229557320599e+01 0.0 
4.510133242889e+01 -1.123680627466e+01 0.0 
1.846818030617e+00 -4.410877617069e+00 0.0 
3.995468694584e+01 -1.186571542989e+01 0.0 
3.901387459804e+01 -1.242507616755e+01 0.0 
8.966735877533e+00 -1.837818700423e+00 0.0 
4.049310011091e+01 -1.848269508791e+01 0.0 
7.278862053803e+00 -1.918523922691e+00 0.0 
6.429715522129e+00 -2.316676521184e+00 0.0 
9.443505505022e+00 -1.792198868094e+01 0.0 
8.620386951051e+00 -1.737590365556e+01 0.0 
8.571868171503e+00 -1.834436667826e+01 0.0 
7.758629848526e+00 -1.775677907213e+01 0.0 
7.806648388584e+00 -1.680761266021e+01 0.0 
6.908555145436e+00 -1.723746463044e+01 0.0 
4.251709122090e+01 -1.156937480156e+01 0.0 
6.931136405615e+00 -1.832465719263e+01 0.0 
6.015545461353e+00 -1.768865355295e+01 0.0 
5.960535926343e+00 -1.872011001764e+01 0.0 
3.023253444786e+01 -8.761960642196e+00 0.0 
2.454622702599e+01 -6.749421992767e+00 0.0 
2.537499741604e+01 -6.347634963783e+00 0.0 
2.544077378460e+01 -5.431358513649e+00 0.0 
2.801367161747e+01 -1.820907270221e+01 0.0 
2.884507806914e+01 -1.762032095326e+01 0.0 
1.821474531936e+00 -1.588901260460e+01 0.0 
1.821006262604e+00 -1.489370287756e+01 0.0 
4.599962488908e+01 -1.176478780598e+01 0.0 
4.705457470007e+01 -1.172182804229e+01 0.0 
4.667668314802e+01 -1.263464558483e+01 0.0 
4.759648056504e+01 -1.252380987933e+01 0.0 
4.728041618103e+01 -1.341928568376e+01 0.0 
4.825209352360e+01 -1.330491640804e+01 0.0 
4.778118233428e+01 -1.420151961695e+01 0.0 
2.388192727579e+01 -1.826934810142e+01 0.0 
2.381714684947e+01 -4.385917965223e+00 0.0 
3.172733219247e+01 -9.758744265248e+00 0.0 
1.882012070658e+01 -1.805540597212e+01 0.0 
1.805667505243e+01 -1.742221226236e+01 0.0 
2.852599958080e+01 -8.597196079481e+00 0.0 
2.856486123437e+01 -7.661382718527e+00 0.0 
1.111792842875e+01 -1.818223852980e+01 0.0 
2.203322722466e+01 -7.986646678802e+00 0.0 
3.955703676900e+01 -1.903246763601e+01 0.0 
1.944842206513e+01 -8.038750575182e-01 0.0 
1.909882767783e+01 -1.746322740933e+00 0.0 
2.281147422941e+01 -8.525912918334e+00 0.0 
2.850633001468e+01 -9.533271335986e+00 0.0 
2.532883344309e+01 -7.308951659710e+00 0.0 
2.620475466461e+01 -6.979208585400e+00 0.0 
1.396278270396e+01 -1.475095389807e+01 0.0 
9.791001166724e+00 -2.554159793552e+00 0.0 
2.229293380421e+01 -4.269762271052e+00 0.0 
4.677238984118e+01 -1.430071795514e+01 0.0 
2.228658385918e+01 -3.344747535984e+00 0.0 
8.940223674553e-01 -1.543595733415e+01 0.0 
2.118566862474e+01 -8.435876987696e+00 0.0 
2.678325936437e+01 -1.032621195706e+01 0.0 
2.223400220487e+01 -5.179046761770e+00 0.0 
2.375370625384e+01 -7.251580562134e+00 0.0 
3.156971327386e+01 -1.255534750737e+01 0.0 
3.328226391312e+01 -1.172914813316e+01 0.0 
3.250948774219e+01 -1.120157009348e+01 0.0 
2.032993445717e+01 -8.867880112202e+00 0.0 
2.697226974856e+01 -7.536633082045e+00 0.0 
2.707377810386e+01 -6.590835263295e+00 0.0 
2.914099246827e+01 -1.191678458549e+01 0.0 
3.544824072239e+01 -1.621126558525e+01 0.0 
3.456511855436e+01 -1.665054783843e+01 0.0 
3.448395810225e+01 -1.759117813016e+01 0.0 
3.368378673938e+01 -1.708037781328e+01 0.0 
3.375560452567e+01 -1.610973066913e+01 0.0 
3.288001547988e+01 -1.654324255651e+01 0.0 
3.282475929147e+01 -1.749725654692e+01 0.0 
3.199880906313e+01 -1.697294088625e+01 0.0 
3.197001272932e+01 -1.811667776864e+01 0.0 
3.111884713021e+01 -1.742166785755e+01 0.0 
3.120418962865e+01 -1.642155709385e+01 0.0 
3.034666704371e+01 -1.683123833816e+01 0.0 
3.026224379976e+01 -1.772592851714e+01 0.0 
3.046632362943e+01 -1.582232843075e+01 0.0 
1.961344017324e+01 -1.857459447985e+01 0.0 
2.274975894774e+01 -9.532738811922e+00 0.0 
1.833923246887e+01 -2.396746883672e+00 0.0 
1.988859500848e+01 -2.249244376594e+00 0.0 
2.758045562861e+01 -1.086434261689e+01 0.0 
3.247300178163e+01 -1.909930104252e+01 0.0 
3.461947482503e+01 -1.911879848019e+01 0.0 
2.047161538662e+01 -6.941478180358e+00 0.0 
2.750230940214e+01 -1.915490590764e+01 0.0 
3.165081350803e+01 -1.161860780120e+01 0.0 
1.897456727641e+01 -4.889634688522e+00 0.0 
2.549338539756e+01 -1.914858252089e+01 0.0 
3.462873135081e+01 -1.567482276144e+01 0.0 
3.384432415243e+01 -1.512280684518e+01 0.0 
3.471433767690e+01 -1.469086942990e+01 0.0 
3.651470373046e+01 -1.918207952149e+01 0.0 
3.901742690249e+01 -1.345028556517e+01 0.0 
2.153224102692e+01 -1.920169709333e+01 0.0 
1.918382939341e+01 -1.316226275662e+01 0.0 
2.005389162382e+01 -1.271962165174e+01 0.0 
2.011472087878e+01 -1.175029352900e+01 0.0 
3.210679478412e+01 -1.598038618242e+01 0.0 
1.752175226543e+01 -1.914713022656e+01 0.0 
1.696897240059e+01 -1.832772588765e+01 0.0 
1.599682523337e+01 -1.832599992024e+01 0.0 
1.644507199462e+01 -1.743697981535e+01 0.0 
1.549987712903e+01 -1.915192375101e+01 0.0 
3.050250861901e+01 -1.918943550234e+01 0.0 
2.949944061527e+01 -1.922950455235e+01 0.0 
1.375892575273e+01 -6.447160534926e+00 0.0 
1.457223670180e+01 -7.006709243857e+00 0.0 
1.450818793236e+01 -7.965943451779e+00 0.0 
1.538804712402e+01 -7.553409623699e+00 0.0 
1.545817644768e+01 -6.580929593419e+00 0.0 
1.626506893751e+01 -7.129032608911e+00 0.0 
1.619833811522e+01 -8.086588580887e+00 0.0 
1.714448609609e+01 -6.697429609777e+00 0.0 
2.887616543568e+01 -1.668015232137e+01 0.0 
1.349814589130e+01 -1.918225301544e+01 0.0 
1.153887772210e+01 -1.311384581217e+01 0.0 
1.242708159886e+01 -1.267046795531e+01 0.0 
1.249799674267e+01 -1.169005616014e+01 0.0 
6.631723893693e+00 -9.774184881867e+00 0.0 
7.451471631867e+00 -1.033148796006e+01 0.0 
7.377795355458e+00 -1.132196345268e+01 0.0 
5.810931797536e+00 -9.211654212252e+00 0.0 
2.402683899133e+01 -1.441378562320e+01 0.0 
1.249768692036e+01 -1.917388426624e+01 0.0 
1.580373499437e+01 -1.290751860664e+01 0.0 
8.344650507834e+00 -9.898403995170e+00 0.0 
3.750622115305e+01 -1.086526401533e+01 0.0 
3.699391251667e+01 -1.171695900794e+01 0.0 
3.606517829518e+01 -1.173717504500e+01 0.0 
3.650257641795e+01 -1.270047380221e+01 0.0 
3.808951488918e+01 -1.183518714175e+01 0.0 
4.760380962420e+00 -1.162484888315e+01 0.0 
3.861210370848e+00 -1.205657631736e+01 0.0 
3.038284309476e+00 -1.149851280664e+01 0.0 
2.961598794889e+00 -1.248856794980e+01 0.0 
2.138953225512e+00 -1.193212674534e+01 0.0 
2.227383593457e+00 -1.096258903918e+01 0.0 
2.043265419276e+00 -1.292158472959e+01 0.0 
1.252449446028e+00 -1.225502002753e+01 0.0 
3.949985210740e+01 -1.086594001795e+01 0.0 
1.453499444792e+01 -8.768805922472e-01 0.0 
1.403518950933e+01 -1.749965556633e+00 0.0 
1.300715031023e+01 -1.714737233040e+00 0.0 
1.350929389899e+01 -2.527443911291e+00 0.0 
1.449600910711e+01 -2.595486162864e+00 0.0 
1.395693872901e+01 -3.484211041558e+00 0.0 
1.495105865208e+01 -3.364609636216e+00 0.0 
1.508822528740e+01 -1.766586020494e+00 0.0 
1.250223858430e+01 -8.634590186802e-01 0.0 
1.200279523409e+01 -1.709044504992e+00 0.0 
1.150086239419e+01 -8.592789190668e-01 0.0 
1.101482754194e+01 -1.677730591922e+00 0.0 
1.148018564526e+01 -2.659323866909e+00 0.0 
8.800552119754e+00 -3.989875954728e+00 0.0 
3.452790439430e+00 -1.901136170646e+01 0.0 
8.658451825200e-01 -9.503462241795e+00 0.0 
1.694787786797e+00 -9.000589234502e+00 0.0 
1.703436717094e+00 -8.038819004041e+00 0.0 
2.594197971110e+00 -8.563955242845e+00 0.0 
1.630513735412e+00 -9.907244747511e+00 0.0 
8.566859292791e-01 -7.512203837972e+00 0.0 
1.685461277022e+00 -7.164280248030e+00 0.0 
2.506394468801e+00 -8.623386730818e-01 0.0 
2.007475081581e+00 -1.727729545205e+00 0.0 
9.211534699767e-01 -1.628791366312e+00 0.0 
1.500000000020e+00 -2.598063549486e+00 0.0 
2.482078929963e+00 -2.553580088725e+00 0.0 
2.999795253092e+00 -1.732169015019e+00 0.0 
3.999712607169e+00 -1.728832897453e+00 0.0 
4.499752199340e+00 -8.656478679175e-01 0.0 
4.964377774841e+00 -1.730129617941e+00 0.0 
4.425017908337e+00 -2.597541756243e+00 0.0 
5.446573195014e+00 -8.410144840023e-01 0.0 
4.915722346614e+01 -1.550640962770e+01 0.0 
4.826794919243e+01 -1.600000000000e+01 0.0 
1.053139533193e+01 -1.911782884365e+01 0.0 
4.156049861949e+01 -1.095160998589e+01 0.0 
9.494526624416e+00 -8.650570090219e-01 0.0 
4.555762166964e+01 -1.897098103585e+01 0.0 
4.250656411371e+01 -1.914387356218e+01 0.0 
4.350906466345e+01 -1.917234727395e+01 0.0 
8.759665722424e-01 -1.746422130609e+01 0.0 
1.698936011838e+00 -1.795012186674e+01 0.0 
4.742476811029e+01 -1.900090177972e+01 0.0 
7.749196752349e+00 -6.368049313489e+00 0.0 
3.361572113416e+01 -1.798765193915e+01 0.0 
4.484660149212e+01 -1.728661231383e+01 0.0 
1.984038172228e+01 -4.502575320116e+00 0.0 
1.035080352627e+01 -6.166639575753e+00 0.0 
2.753558010652e+00 -1.444909521181e+01 0.0 
7.217069543032e+00 -1.328635391078e+01 0.0 
4.364336727739e+00 -1.655585677381e+01 0.0 
4.595208426108e+00 -1.357919665443e+01 0.0 
6.164967006980e+00 -1.569873454630e+01 0.0 
1.487855768353e+01 -1.826523774028e+01 0.0 
2.791876456372e+00 -4.019632415181e+00 0.0 
4.246464893515e+01 -1.364898659620e+01 0.0 
4.503855590351e+01 -1.329552780944e+01 0.0 
4.407239109604e+01 -1.573900004093e+01 0.0 
5.141054449252e+00 -6.664290382472e+00 0.0 
3.141083947149e+00 -1.055790764912e+01 0.0 
6.196463198741e+00 -4.256497932609e+00 0.0 
2.599618716181e+01 -1.836893455464e+01 0.0 
2.923057372337e+01 -1.098461757645e+01 0.0 
1.168343877486e+01 -1.114079645041e+01 0.0 
6.706222096238e+00 -8.780364234441e+00 0.0 
8.567858614669e+00 -6.943121440850e+00 0.0 
1.123755132901e+01 -5.753525820030e+00 0.0 
2.353456234423e+01 -1.008536320953e+01 0.0 
9.162073319168e+00 -1.045593739109e+01 0.0 
9.676343469685e+00 -1.496493008366e+01 0.0 
4.490637882905e+01 -1.628778970202e+01 0.0 
7.398129387772e+00 -9.639977982323e-01 0.0 
1.049641705805e+01 -1.552503975272e+01 0.0 
9.010356286268e+00 -1.242805042052e+01 0.0 
3.985573925497e+01 -1.399863651620e+01 0.0 
1.816196318262e+01 -1.554066497931e+01 0.0 
1.306332244168e+01 -3.963646550326e+00 0.0 
4.145850903932e+01 -1.608094559275e+01 0.0 
3.794664933633e+01 -1.779020121986e+01 0.0 
3.819614412903e+01 -1.290749321016e+01 0.0 
6.270014188119e+00 -3.255093186826e+00 0.0 
4.251165370388e+01 -1.263870364997e+01 0.0 
1.207347709171e+01 -1.763942826023e+01 0.0 
3.633240829927e+01 -1.577330481104e+01 0.0 
4.319052668832e+00 -6.101812561904e+00 0.0 
1.676492415806e+01 -1.151547901392e+01 0.0 
2.594059220037e+01 -1.074225223009e+01 0.0 
3.340750911501e+01 -9.898764354137e+00 0.0 
4.397619591281e+01 -1.769773736461e+01 0.0 
2.175611595028e+01 -1.185718747128e+01 0.0 
1.641818733106e+01 -1.640685203215e+01 0.0 
1.661211421753e+01 -1.346121366338e+01 0.0 
3.428853504935e+00 -6.551993389271e+00 0.0 
8.700728832502e+00 -1.638460872825e+01 0.0 
1.931369795309e+01 -1.121629383702e+01 0.0 
4.139798872363e+01 -1.706922153459e+01 0.0 
2.647837478700e+01 -1.507353829290e+01 0.0 
1.779469616424e+01 -9.161615782908e+00 0.0 
3.885879219319e+01 -1.642026488918e+01 0.0 
1.338194936770e+01 -1.125916521471e+01 0.0 
1.897071181111e+01 -1.609204322578e+01 0.0 
2.844308548793e+01 -1.046221003096e+01 0.0 
2.659854702194e+01 -1.316109415760e+01 0.0 
2.979604503271e+01 -1.433296157755e+01 0.0 
2.417694041347e+01 -1.251231397779e+01 0.0 
1.807401327411e+00 -1.388891148480e+01 0.0 
9.599810618782e+00 -1.595439365034e+01 0.0 
1.652144692160e+01 -4.205392788472e+00 0.0 
2.367839450246e+01 -8.188385218643e+00 0.0 
3.814894930468e+01 -1.390748338767e+01 0.0 
2.466448215774e+01 -1.685878545680e+01 0.0 
4.134044524611e+01 -1.806610045954e+01 0.0 
2.600511411958e+01 -9.801774120648e+00 0.0 
7.882158050716e+00 -1.582364037353e+01 0.0 
3.881607873422e+01 -1.737970515013e+01 0.0 
8.270182347708e+00 -1.088622154920e+01 0.0 
8.672520392520e-01 -4.532984309881e+00 0.0 
1.993447205337e+01 -3.579061902667e+00 0.0 
1.794616079549e+01 -7.238038888498e+00 0.0 
2.097277068165e+01 -1.132450168636e+01 0.0 
8.194803300681e+00 -1.187214224265e+01 0.0 
3.522279404911e+01 -1.823342818178e+01 0.0 
6.984481050295e+00 -1.625271465557e+01 0.0 
1.309433007797e+01 -1.521718594215e+01 0.0 
2.150246167611e+01 -1.885399038185e+00 0.0 
3.250689370209e+01 -1.028789870535e+01 0.0 
6.085886272238e+00 -1.668342132851e+01 0.0 
1.588455661727e+01 -1.193498985921e+01 0.0 
1.809323400821e+01 -1.651110084195e+01 0.0 
1.348885082381e+00 -1.136065576512e+01 0.0 
2.497670221995e+01 -1.834631276173e+01 0.0 
2.937062818424e+01 -8.233711194470e+00 0.0 
5.185823744469e+00 -1.711566910207e+01 0.0 
1.477497877209e+01 -1.530177014512e+01 0.0 
2.125346158933e+01 -7.473003997367e+00 0.0 
4.751561118290e+01 -1.084897772632e+01 0.0 
5.056026576843e+00 -1.825750475525e+01 0.0 
1.473948554523e+01 -1.634577436309e+01 0.0 
2.410566630936e+01 -1.345970002612e+01 0.0 
1.507337507513e+01 -1.138527895328e+01 0.0 
3.189857338687e+01 -8.887781229006e+00 0.0 
7.298712468334e+00 -1.230231046246e+01 0.0 
2.738235495295e+01 -1.368931690364e+01 0.0 
3.750141041969e+01 -1.920449893070e+01 0.0 
1.557271965640e+01 -1.683317951731e+01 0.0 
3.393731848929e+01 -1.413034777044e+01 0.0 
6.482156824153e+00 -1.174575135362e+01 0.0 
2.077971718439e+01 -1.421279621836e+01 0.0 
3.455084320178e+00 -2.562590040585e+00 0.0 
3.099056096250e+01 -9.270280416035e+00 0.0 
5.580176125418e+00 -1.217387969259e+01 0.0 
1.707247630389e+01 -7.660651981710e+00 0.0 
1.418658814174e+01 -1.180390575393e+01 0.0 
2.049103025389e+01 -1.811296706038e+01 0.0 
4.680386172316e+00 -1.260396879301e+01 0.0 
1.699679896554e+01 -8.624561788199e+00 0.0 
3.779470168555e+00 -1.303424899720e+01 0.0 
3.036589870126e+01 -7.879832518349e+00 0.0 
3.306993001774e+01 -1.457671062095e+01 0.0 
2.840150110165e+00 -1.346530088269e+01 0.0 
2.732011135052e+01 -1.464591214560e+01 0.0 
5.423639259568e+00 -2.659711955016e+00 0.0 
2.324455961696e+01 -1.387269388211e+01 0.0 
1.752768355571e+00 -1.693128613594e+01 0.0 
1.020244783051e+01 -8.076834012808e+00 0.0 
1.330873875224e+01 -1.222417528206e+01 0.0 
3.297727364880e+01 -1.555480372087e+01 0.0 
2.890929955439e+01 -6.868664170731e+00 0.0 
1.323294664622e+01 -1.320754260334e+01 0.0 
2.726532861246e+01 -1.560593120806e+01 0.0 
2.240020643398e+01 -1.429299177247e+01 0.0 
2.090445823633e+01 -1.228128621332e+01 0.0 
1.315809881502e+01 -1.420739326938e+01 0.0 
2.781328038068e+01 -7.181956082300e+00 0.0 
8.614200829057e+00 -5.936933226306e+00 0.0 
8.714765730069e+00 -4.979270529687e+00 0.0 
1.611881701099e+01 -9.041973294003e+00 0.0 
2.806830314340e+01 -1.614622947108e+01 0.0 
2.084435391396e+00 -3.385085422913e+00 0.0 
3.133211811152e+01 -1.542347619750e+01 0.0 
9.693114650768e+00 -3.590281506442e+00 0.0 
1.531883592202e+01 -8.504584946143e+00 0.0 
2.151589117094e+01 -1.578915763018e+01 0.0 
4.918943882696e+01 -1.355538828056e+01 0.0 
1.443236615188e+01 -8.918701794549e+00 0.0 
8.276250966452e-01 -5.537685192197e+00 0.0 
1.362790867918e+01 -8.374718262212e+00 0.0 
2.083767477370e+01 -1.324843956035e+01 0.0 
1.273834678703e+01 -8.790890389337e+00 0.0 
1.192275845670e+01 -8.242261327467e+00 0.0 
4.477236023583e+01 -1.824312396664e+01 0.0 
1.102989384254e+01 -8.649855800911e+00 0.0 
4.849096516045e+01 -1.917293752213e+01 0.0 
1.588996752238e+00 -1.910230934687e+01 0.0 
4.904245197583e+01 -1.159839008158e+01 0.0 
2.753852929608e+01 -5.782128488093e+00 0.0 
1.756133602833e+01 -8.306130313187e-01 0.0 
2.615423700951e+01 -6.153865090092e+00 0.0 
1.028818761294e+01 -7.122020845892e+00 0.0 
2.970818901196e+01 -1.527821347593e+01 0.0 
4.801461623449e+01 -1.164472570985e+01 0.0 
9.455722100419e+00 -6.546069291118e+00 0.0 
3.089099236677e+01 -1.835339328261e+01 0.0 
2.350000000013e+01 -1.920825896750e+01 0.0 
4.830620531887e+01 -1.506626155470e+01 0.0 
1.725381944701e+01 -1.688794487850e+01 0.0 
2.156246225273e+01 -1.475893794002e+01 0.0 
4.919319648787e+01 -1.742767505896e+01 0.0 
4.437935623576e+01 -1.077662927266e+01 0.0 
1.001520521978e+01 -1.652692675208e+00 0.0 
9.067160240050e-01 -1.441937727541e+01 0.0 
2.603365149390e+01 -4.755996613848e+00 0.0 
2.458344439002e+01 -4.873645517696e+00 0.0 
2.304312390142e+01 -3.836552768096e+00 0.0 
2.546923202198e+00 -6.902480355749e+00 0.0 
1.251534969393e+01 -2.490989965776e+00 0.0 
2.454061833377e+01 -3.933354231935e+00 0.0 
1.788186558740e+01 -1.827424884923e+01 0.0 
4.090785243552e+01 -1.166553231904e+01 0.0 
2.230128851568e+01 -1.623015738726e+01 0.0 
2.302362347568e+01 -2.916239960270e+00 0.0 
3.878119254461e+01 -1.830091164002e+01 0.0 
2.210081359958e+01 -1.829238229150e+01 0.0 
8.443704882233e+00 -1.921993252862e+01 0.0 
2.218405824691e+01 -1.724557581508e+01 0.0 
2.151157503963e+01 -2.790636689331e+00 0.0 
3.741658958955e+01 -1.250400191722e+01 0.0 
2.697247663737e+01 -1.838290202309e+01 0.0 
4.743362342862e+01 -1.585850773010e+01 0.0 
6.671345075358e+00 -1.924977576322e+01 0.0 
3.900825404537e+01 -1.157220003875e+01 0.0 
4.649692961375e+01 -1.836335837481e+01 0.0 
1.578831424832e+01 -3.678284023361e+00 0.0 
4.814208768888e+01 -1.841249298770e+01 0.0 
2.964123298315e+01 -1.625739458193e+01 0.0 
4.580760351902e+01 -1.284294554687e+01 0.0 
3.561520879615e+01 -1.245548941949e+01 0.0 
2.555418095658e+00 -1.841101588290e+01 0.0 
3.288468366144e+01 -1.834258164109e+01 0.0 
2.065894391445e+01 -2.240688571739e+00 0.0 
4.739171429915e+01 -1.496536413446e+01 0.0 
3.478086729185e+00 -8.576434653209e+00 0.0 
1.606010630246e+01 -1.588421807951e+00 0.0 
1.018329200594e+01 -1.834320874317e+01 0.0 
2.957213339430e+01 -1.720496954591e+01 0.0 
4.142712790164e+00 -1.837794506222e+01 0.0 
6.698721532573e-01 -2.499999999997e+00 0.0 
8.037039123140e+00 -1.571229354954e+00 0.0 
1.203541361428e+01 -1.847784298001e+01 0.0 
2.899968332038e+01 -1.848264722179e+01 0.0 
1.469229460948e+01 -4.219485753730e+00 0.0 
4.049590781957e+01 -1.932812501995e+01 0.0 
1.996211678340e+01 -1.506329754720e+00 0.0 
4.250588298353e+01 -1.067383247529e+01 0.0 
5.831497011152e+00 -1.635396227234e+00 0.0 
5.317606125670e+00 -1.923927974868e+01 0.0 
4.208546426993e+01 -1.842830665025e+01 0.0 
2.327553405011e+00 -9.459409929662e+00 0.0 
3.568351902251e+01 -1.096637218582e+01 0.0 
1.682104374890e+00 -6.231413350963e+00 0.0 
2.451812238018e+01 -1.766524914339e+01 0.0 
1.058003429638e+01 -2.391839617098e+00 0.0 
4.399988753123e+01 -1.851998776342e+01 0.0 
1.400000000010e+01 -1.852293523028e+01 0.0 
3.604719565984e+01 -1.850662876800e+01 0.0 
1.951297136734e+01 -1.938092349694e+01 0.0 
1.821365318472e+01 -1.531276353287e+00 0.0 
2.298031859732e+01 -1.854635324722e+01 0.0 
1.552168066204e+01 -1.764280741977e+01 0.0 
4.572957713638e+01 -1.073347898229e+01 0.0 
3.429637429624e+01 -1.838861552790e+01 0.0 
2.427434426052e+00 -7.705577451869e+00 0.0 
4.662792031485e+00 -3.359424455416e+00 0.0 
4.926794919243e+01 -1.926794919243e+01 0.0 
7.320508075690e-01 -7.320508075688e-01 0.0 
4.926794919243e+01 -1.073205080757e+01 0.0 
7.320508075705e-01 -1.926794919243e+01 0.0 
2.917460242467e+00 -3.202866455310e+00 0.0 
4.838200575963e+01 -1.232674147454e+01 0.0 
2.998445708009e+01 -1.854403752148e+01 0.0 
5.949940090766e-01 -1.152762038165e+01 0.0 
4.844763495759e+01 -1.678092548787e+01 0.0 
1.301685480160e+01 -3.170056592566e+00 0.0 
1.650046335855e+01 -6.731535384067e-01 0.0 
4.854881540991e+01 -1.405224059779e+01 0.0 
2.119545114693e+01 -1.846813384545e+01 0.0 
3.797852849897e+01 -1.857978513215e+01 0.0 
4.649823708745e+01 -1.338351810816e+01 0.0 
2.012685900976e+01 -2.889659035009e+00 0.0 
2.953271913273e+01 -1.791558075192e+01 0.0 
2.408509097292e+00 -1.021949208421e+01 0.0 
2.642589566221e+01 -1.773216561448e+01 0.0 
1.730010270775e+01 -1.763165076721e+01 0.0 
2.017406551304e+01 -8.513536440582e-01 0.0 
5.254761581934e-01 -1.249999999999e+01 0.0 
6.640448215642e+00 -1.545337834885e+00 0.0 
7.843361506349e+00 -1.852719839527e+01 0.0 
1.588442191088e+00 -1.066158564320e+01 0.0 
3.180701530612e+01 -7.414795918363e+00 0.0 
4.951250000000e+01 -7.500000000000e+00 0.0 
3.331250000000e+01 -8.420918367347e+00 0.0 
4.951470588234e+01 -8.500000000000e+00 0.0 
3.480610198624e+01 -9.413633635267e+00 0.0 
4.951470588234e+01 -9.500000000000e+00 0.0 

SCALARS node_number int
LOOKUP_TABLE default
1
2
3
4
5
6
7
8
9
10
11
12
13
14
15
16
17
18
19
20
21
22
23
24
25
26
27
28
29
30
31
32
33
34
35
36
37
38
39
40
41
42
43
44
45
46
47
48
49
50
51
52
53
54
55
56
57
58
59
60
61
62
63
64
65
66
67
68
69
70
71
72
73
74
75
76
77
78
79
80
81
82
84
85
86
87
88
89
90
91
92
93
100
101
102
104
105
106
107
108
109
110
111
112
113
114
115
116
117
118
119
120
121
122
123
124
125
126
127
128
129
130
131
132
133
134
135
136
310
311
312
313
314
315
316
317
318
319
320
321
322
323
324
325
326
327
328
329
330
331
332
333
334
335
336
337
338
339
340
341
342
343
344
345
346
347
348
349
350
351
352
353
354
355
356
357
358
359
360
361
362
363
364
365
366
367
368
369
370
371
372
373
374
375
376
377
378
379
380
381
382
383
384
385
386
387
388
389
390
391
392
393
394
395
396
397
398
399
400
401
402
403
404
405
406
407
408
409
410
411
412
413
414
415
416
417
418
419
420
421
422
423
424
425
426
427
428
429
430
431
432
433
434
435
436
437
438
439
440
441
442
443
444
445
446
447
448
449
450
451
452
453
454
455
456
457
458
459
460
461
462
463
464
465
466
467
468
469
470
471
472
473
474
475
476
477
478
479
480
481
482
483
484
485
486
487
488
489
490
491
492
493
494
495
496
497
498
499
500
501
502
503
504
505
506
507
508
509
510
511
512
513
514
515
516
517
518
519
520
521
522
523
524
525
526
527
528
529
530
531
532
533
534
535
536
537
538
539
540
541
542
543
544
545
546
547
548
549
550
551
552
553
554
555
556
557
558
559
560
561
562
563
564
565
566
567
568
569
570
571
572
573
574
575
576
577
578
579
580
581
582
583
584
585
586
587
588
589
590
591
592
593
594
595
596
597
598
599
600
601
602
603
604
605
606
607
608
609
610
611
612
613
614
615
616
617
618
619
620
621
622
623
624
625
626
627
628
629
630
631
632
633
634
635
636
637
638
639
640
641
642
643
644
645
646
647
648
649
650
651
652
653
654
655
656
657
658
659
660
661
662
663
664
665
666
667
668
669
670
671
672
673
674
675
676
677
678
679
680
681
682
683
684
685
686
687
688
689
690
691
692
693
694
695
696
697
698
699
700
701
702
703
704
705
706
707
708
709
710
711
712
713
714
715
716
717
718
719
720
721
722
723
724
725
726
727
728
729
730
731
732
733
734
735
736
737
738
739
740
741
742
743
744
745
746
747
748
749
750
751
752
753
754
755
756
757
758
759
760
761
762
763
764
765
766
767
768
769
770
771
772
773
774
775
776
777
778
779
780
781
782
783
784
785
786
787
788
789
790
791
792
793
794
795
796
797
798
799
800
801
802
803
804
805
806
807
808
809
810
811
812
813
814
815
816
817
818
819
820
821
822
823
824
825
826
827
828
829
830
831
832
833
834
835
836
837
838
839
840
841
842
843
844
845
846
847
848
849
850
851
852
853
854
855
856
857
858
859
860
861
862
863
864
865
866
867
868
869
870
871
872
873
874
875
876
877
878
879
880
881
882
883
884
885
886
887
888
889
890
891
892
893
894
895
896
897
898
899
900
901
902
903
904
905
906
907
908
909
910
911
912
913
914
915
916
917
918
919
920
921
922
923
924
925
926
927
928
929
930
931
932
933
934
935
936
937
938
939
940
941
942
943
944
945
946
947
948
949
950
951
952
953
954
955
956
957
958
959
960
961
962
963
964
965
966
967
968
969
970
971
972
973
974
975
976
977
978
979
980
981
982
983
984
985
986
987
988
989
990
991
992
993
994
995
996
997
998
999
1000
1001
1002
1003
1004
1005
1006
1007
1008
1009
1010
1011
1012
1013
1014
1015
1016
1017
1018
1019
1020
1021
1022
1023
1024
1025
1026
1027
1028
1029
1030
1031
1032
1033
1034
1035
1036
1037
1038
1039
1040
1041
1042
1043
1044
1045
1046
1047
1048
1049
1050
1051
1052
1053
1054
1055
1056
1057
1058
1059
1060
1061
1062
1063
1064
1065
1066
1067
1068
1069
1070
1071
1072
1073
1074
1075
1076
1077
1078
1079
1080
1081
1082
1083
1084
1085
1086
1087
1088
1089
1090
1091
1092
1093
1094
1095
1096
1097
1098
1099
1100
1101
1102
1103
1104
1105
1106
1107
1108
1109
1110
1111
1112
1113
1114
1115
1116
1117
1118
1119
1120
1121
1122
1123
1124
1125
1126
1127
1128
1129
1130
1131
1132
1133
1134
1135
1136
1137
1138
1139
1140
1141
1142
1143
1144
1145
1146
1147
1148
1149
1150
1151
1152
1153
1154
1155
1156
1157
1158
1159
1160
1161
1162
1163
1164
1165
1166
1167
1168
1169
1170
1171
1172
1173
1174
1175
1176
1177
1178
1179
1180
1181
1182
1183
1184
1185
1186
1187
1188
1189
1190
1191
1192
1193
1194
1195
1196
1197
1198
1199
1200
1201
1202
1203
1204
1205
1206
1207
1208
1209
1210
1211
1212
1213
1214
1215
1216
1217
1218
1219
1220
1221
1222
1223
1224
1225
1226
1227
1228
1229
1230
1231
1232
1233
1234
1235
1236
1237
1238
1239
1240
1241
1242
1243
1244
1245
1246
1247
1248
1249
1250
1251
1252
1253
1254
1255
1256
1257
1258
1259
1260
1261
1262
1263
1264
1279
1280
1281
1282
1283
1284

VECTORS node_mesh_deformation float
0.0 7.774527257890e-02 0.0 
0.000000000000e+00 1.319018270979e-01 0.0 
0.0 0.000000000000e+00 0.0 
0.000000000000e+00 0.000000000000e+00 0.0 
0.0 7.765372300073e-02 0.0 
0.0 7.718822569584e-02 0.0 
0.0 7.635246692618e-02 0.0 
0.0 7.514535651536e-02 0.0 
0.0 7.355598829160e-02 0.0 
0.0 7.159153250800e-02 0.0 
0.0 6.925081553123e-02 0.0 
0.0 6.652692098491e-02 0.0 
0.0 6.341459595697e-02 0.0 
0.0 5.990295861855e-02 0.0 
0.0 5.597416680585e-02 0.0 
0.0 5.161592126284e-02 0.0 
0.0 4.682290834205e-02 0.0 
0.0 4.160671546167e-02 0.0 
0.0 3.591379384540e-02 0.0 
0.0 2.974097354047e-02 0.0 
0.0 2.307912823261e-02 0.0 
0.0 1.590475540382e-02 0.0 
0.0 8.201738300333e-03 0.0 
0.000000000000e+00 0.000000000000e+00 0.0 
0.000000000000e+00 0.000000000000e+00 0.0 
0.000000000000e+00 0.000000000000e+00 0.0 
0.000000000000e+00 0.000000000000e+00 0.0 
0.000000000000e+00 0.000000000000e+00 0.0 
0.000000000000e+00 0.000000000000e+00 0.0 
0.000000000000e+00 0.000000000000e+00 0.0 
0.000000000000e+00 0.000000000000e+00 0.0 
0.000000000000e+00 0.000000000000e+00 0.0 
0.000000000000e+00 0.000000000000e+00 0.0 
0.000000000000e+00 0.000000000000e+00 0.0 
0.000000000000e+00 0.000000000000e+00 0.0 
0.000000000000e+00 0.000000000000e+00 0.0 
0.000000000000e+00 0.000000000000e+00 0.0 
0.000000000000e+00 0.000000000000e+00 0.0 
0.000000000000e+00 0.000000000000e+00 0.0 
0.000000000000e+00 0.000000000000e+00 0.0 
0.000000000000e+00 0.000000000000e+00 0.0 
0.000000000000e+00 0.000000000000e+00 0.0 
0.000000000000e+00 0.000000000000e+00 0.0 
0.000000000000e+00 0.000000000000e+00 0.0 
0.000000000000e+00 0.000000000000e+00 0.0 
0.000000000000e+00 0.000000000000e+00 0.0 
0.000000000000e+00 0.000000000000e+00 0.0 
0.000000000000e+00 0.000000000000e+00 0.0 
0.000000000000e+00 0.000000000000e+00 0.0 
0.000000000000e+00 0.000000000000e+00 0.0 
0.000000000000e+00 0.000000000000e+00 0.0 
0.000000000000e+00 0.000000000000e+00 0.0 
0.000000000000e+00 0.000000000000e+00 0.0 
0.000000000000e+00 0.000000000000e+00 0.0 
0.000000000000e+00 0.000000000000e+00 0.0 
0.000000000000e+00 0.000000000000e+00 0.0 
0.000000000000e+00 0.000000000000e+00 0.0 
0.000000000000e+00 0.000000000000e+00 0.0 
0.000000000000e+00 0.000000000000e+00 0.0 
0.000000000000e+00 0.000000000000e+00 0.0 
0.000000000000e+00 0.000000000000e+00 0.0 
0.000000000000e+00 0.000000000000e+00 0.0 
0.000000000000e+00 0.000000000000e+00 0.0 
0.000000000000e+00 0.000000000000e+00 0.0 
0.000000000000e+00 0.000000000000e+00 0.0 
0.000000000000e+00 0.000000000000e+00 0.0 
0.000000000000e+00 0.000000000000e+00 0.0 
0.000000000000e+00 0.000000000000e+00 0.0 
0.000000000000e+00 0.000000000000e+00 0.0 
0.000000000000e+00 0.000000000000e+00 0.0 
0.000000000000e+00 0.000000000000e+00 0.0 
0.000000000000e+00 0.000000000000e+00 0.0 
0.000000000000e+00 1.204760142850e-01 0.0 
0.000000000000e+00 1.086325805550e-01 0.0 
0.000000000000e+00 9.637457409001e-02 0.0 
0.000000000000e+00 8.372132569848e-02 0.0 
0.000000000000e+00 7.067392858798e-02 0.0 
0.000000000000e+00 5.725054492430e-02 0.0 
0.000000000000e+00 4.346048736424e-02 0.0 
0.000000000000e+00 2.931469079541e-02 0.0 
0.000000000000e+00 1.482684869946e-02 0.0 
-1.042372936111e-02 1.021118637348e-01 0.0 
1.212083415675e-02 1.286720207431e-01 0.0 
-7.528565677639e-03 1.103878094286e-01 0.0 
-4.578476981600e-03 1.194340406205e-01 0.0 
-1.254636377610e-03 1.282667317265e-01 0.0 
2.287574717521e-03 1.361068794434e-01 0.0 
5.832908133787e-03 1.423577137102e-01 0.0 
9.078323567611e-03 1.464267568747e-01 0.0 
1.123279856311e-02 1.474419713345e-01 0.0 
1.256761739505e-02 1.438575223912e-01 0.0 
1.275883582325e-02 1.372160526131e-01 0.0 
0.000000000000e+00 1.636486498995e-01 0.0 
0.000000000000e+00 1.534641668229e-01 0.0 
0.000000000000e+00 1.429071636008e-01 0.0 
7.027863617353e-04 1.319113683228e-01 0.0 
1.399312620492e-03 1.319385733198e-01 0.0 
2.106481867592e-03 1.319736200571e-01 0.0 
2.820058401504e-03 1.320057724063e-01 0.0 
3.539039619028e-03 1.320450648704e-01 0.0 
4.268428791690e-03 1.320624242297e-01 0.0 
5.015302196654e-03 1.320690566318e-01 0.0 
5.770714161748e-03 1.320342815450e-01 0.0 
6.560115206192e-03 1.319638573747e-01 0.0 
7.378261182474e-03 1.318095758968e-01 0.0 
8.225775760508e-03 1.315537811969e-01 0.0 
9.115205550906e-03 1.311662581920e-01 0.0 
1.005196549027e-02 1.305954309025e-01 0.0 
1.104715324862e-02 1.297812225280e-01 0.0 
-9.493005920795e-03 9.755061912639e-02 0.0 
-8.307532337785e-03 9.375324309461e-02 0.0 
-7.083724189002e-03 9.060836128564e-02 0.0 
-5.918589209495e-03 8.803298512963e-02 0.0 
-4.876097982613e-03 8.593808553647e-02 0.0 
-3.941046423204e-03 8.421678352979e-02 0.0 
-3.116341627450e-03 8.280875529073e-02 0.0 
-2.409922397797e-03 8.166433450846e-02 0.0 
-1.811618431315e-03 8.074291567034e-02 0.0 
-1.314498633445e-03 8.001458348591e-02 0.0 
-9.216550127160e-04 7.942471881845e-02 0.0 
-5.965344164158e-04 7.898210790957e-02 0.0 
-3.370476934661e-04 7.861717119372e-02 0.0 
-1.674069191582e-04 7.833183454243e-02 0.0 
-6.280640283940e-05 7.812570831829e-02 0.0 
5.667168181400e-06 7.797615875637e-02 0.0 
4.297984383239e-05 7.786720384859e-02 0.0 
5.454685511341e-05 7.779560140026e-02 0.0 
2.559616603381e-05 7.774829362451e-02 0.0 
1.002511964012e-02 1.521835979835e-01 0.0 
9.638805845654e-03 1.553838393716e-01 0.0 
9.274249929291e-03 1.577522161636e-01 0.0 
8.966933815067e-03 1.595240793002e-01 0.0 
8.651670534157e-03 1.608405172675e-01 0.0 
8.304249451527e-03 1.618106802235e-01 0.0 
7.914464115451e-03 1.625155242879e-01 0.0 
7.481037414450e-03 1.630152084860e-01 0.0 
7.004613474855e-03 1.633566800937e-01 0.0 
6.487560009816e-03 1.635783579758e-01 0.0 
5.933745438064e-03 1.637115196545e-01 0.0 
5.348774820590e-03 1.637805508382e-01 0.0 
4.737723484432e-03 1.638046396141e-01 0.0 
4.104939888229e-03 1.637990509576e-01 0.0 
3.455168555639e-03 1.637765477983e-01 0.0 
2.793683230564e-03 1.637461724404e-01 0.0 
2.126010983545e-03 1.637140871503e-01 0.0 
1.459156629465e-03 1.636782573710e-01 0.0 
7.560657559580e-04 1.636318872678e-01 0.0 
7.212395003648e-04 1.535083218793e-01 0.0 
1.437204593266e-03 1.535293618694e-01 0.0 
2.141564607541e-03 1.535659154206e-01 0.0 
2.839363370917e-03 1.536022183344e-01 0.0 
3.531004025696e-03 1.536368925294e-01 0.0 
4.216949404807e-03 1.536626999298e-01 0.0 
4.895540834987e-03 1.536699737637e-01 0.0 
5.566786072691e-03 1.536450558264e-01 0.0 
6.227384310115e-03 1.535721631123e-01 0.0 
6.878017164446e-03 1.534263719200e-01 0.0 
7.520465904634e-03 1.531797046633e-01 0.0 
8.156573290663e-03 1.527973620472e-01 0.0 
8.792007678387e-03 1.522341563068e-01 0.0 
9.437249665488e-03 1.514366004060e-01 0.0 
1.010417296604e-02 1.503163090807e-01 0.0 
1.083231131379e-02 1.487964086752e-01 0.0 
1.161272965957e-02 1.467099052577e-01 0.0 
1.175928844980e-02 1.389684990885e-01 0.0 
1.086198186339e-02 1.402782489533e-01 0.0 
9.993257803359e-03 1.412127286315e-01 0.0 
9.181897613466e-03 1.418954730057e-01 0.0 
8.408174873601e-03 1.423737439925e-01 0.0 
7.660209704007e-03 1.426962061740e-01 0.0 
6.931722698106e-03 1.429039408762e-01 0.0 
6.217536873251e-03 1.430224171737e-01 0.0 
5.511384843366e-03 1.430753307548e-01 0.0 
4.814780297885e-03 1.430937680608e-01 0.0 
4.121851687813e-03 1.430809743549e-01 0.0 
3.434246208322e-03 1.430549298764e-01 0.0 
2.746644156247e-03 1.430181892912e-01 0.0 
2.060506545263e-03 1.429819596482e-01 0.0 
1.374227610917e-03 1.429420722808e-01 0.0 
6.844511076949e-04 1.428877528622e-01 0.0 
-8.913551498953e-03 1.060696866494e-01 0.0 
-6.083874481671e-03 1.148809236874e-01 0.0 
-2.930102184322e-03 1.239358309273e-01 0.0 
5.303362013187e-04 1.323550864373e-01 0.0 
4.121642638822e-03 1.395119539438e-01 0.0 
7.563253378880e-03 1.447549732313e-01 0.0 
1.041967704496e-02 1.473903348184e-01 0.0 
1.208997722108e-02 1.461027467507e-01 0.0 
1.282075780198e-02 1.408116991732e-01 0.0 
1.253752072542e-02 1.331377368796e-01 0.0 
-1.945269495952e-03 1.130992557233e-01 0.0 
2.769596909392e-03 8.070725216395e-03 0.0 
-8.413453481371e-04 8.010519617441e-02 0.0 
-3.569230567409e-03 8.659985296118e-02 0.0 
1.759225517322e-03 7.518214246826e-03 0.0 
5.222088149786e-03 1.282545384300e-01 0.0 
5.653559136770e-04 5.792279684367e-02 0.0 
3.551089562787e-03 8.825900190381e-03 0.0 
1.160872982424e-02 1.374902755619e-01 0.0 
3.905753257587e-03 9.533495105124e-03 0.0 
1.449402913730e-02 1.366560340387e-01 0.0 
9.741561147480e-04 6.717462062866e-03 0.0 
4.766392160160e-05 7.829554706298e-02 0.0 
3.862610543486e-03 1.076118354737e-02 0.0 
1.336304494374e-02 1.228983910874e-01 0.0 
3.854307761376e-04 7.039570792301e-02 0.0 
5.947859527444e-04 4.534581054231e-02 0.0 
3.538675875291e-03 1.199013527456e-02 0.0 
2.446697670699e-03 1.212701088463e-02 0.0 
6.803466059537e-04 1.267899754638e-02 0.0 
1.268713494319e-03 1.369185998694e-02 0.0 
1.718416157033e-03 1.212461228449e-02 0.0 
1.088007283373e-02 1.200778446117e-01 0.0 
7.070099824048e-03 1.215559567218e-01 0.0 
4.644213514140e-03 1.214676445895e-01 0.0 
4.527625078268e-04 7.704962705025e-02 0.0 
5.815977451853e-04 7.198283464685e-03 0.0 
-5.953004054550e-03 9.534592980580e-02 0.0 
1.523676369932e-04 7.781156354722e-02 0.0 
4.133692780278e-04 2.699022489208e-02 0.0 
2.391290381254e-03 1.221636666266e-01 0.0 
2.126296556054e-04 7.581920777599e-02 0.0 
3.367004101229e-03 1.367741408382e-02 0.0 
3.496675801657e-03 8.444806378737e-03 0.0 
3.908881005508e-03 1.000405346906e-02 0.0 
3.390618268764e-03 8.930234887512e-03 0.0 
2.235000965994e-03 7.424311199891e-03 0.0 
-2.191794894054e-03 8.311458550611e-02 0.0 
8.864012384471e-03 1.217262718991e-01 0.0 
1.580952053205e-03 8.432566236745e-03 0.0 
3.383302617976e-04 5.099313058709e-02 0.0 
-2.850323651451e-04 7.897920342574e-02 0.0 
5.051499619330e-04 6.502506767164e-02 0.0 
3.354668200757e-04 1.032216244688e-02 0.0 
8.738720898144e-03 1.332068824623e-01 0.0 
1.568064489245e-03 1.211000713481e-01 0.0 
1.363119222187e-02 1.387915453478e-01 0.0 
1.428375572269e-02 1.309671085179e-01 0.0 
-5.503447019514e-03 1.053236338723e-01 0.0 
5.476606129164e-04 1.010936612214e-01 0.0 
2.669677527991e-04 5.676894512348e-03 0.0 
6.937995845613e-05 7.770294130229e-02 0.0 
1.841381859080e-04 2.320355316546e-02 0.0 
1.288194043222e-02 1.179503856225e-01 0.0 
1.388142925911e-02 1.121716454890e-01 0.0 
1.281265286711e-02 1.080652475323e-01 0.0 
1.394178030301e-02 1.012431281526e-01 0.0 
1.287383935212e-02 9.585870521240e-02 0.0 
1.368856355722e-02 8.969374193595e-02 0.0 
1.487989581789e-02 9.482997771678e-02 0.0 
1.438220550229e-02 8.339213840534e-02 0.0 
1.565999744963e-02 8.839297900484e-02 0.0 
1.243455768032e-02 8.401281937258e-02 0.0 
1.489857639542e-02 7.700595221927e-02 0.0 
1.624199921189e-02 8.187259035713e-02 0.0 
1.521008206416e-02 7.061206577253e-02 0.0 
1.659150142350e-02 7.533700585080e-02 0.0 
1.746136495060e-02 8.622785991161e-02 0.0 
1.783149053535e-02 7.959014421351e-02 0.0 
1.851339932952e-02 8.999623651820e-02 0.0 
1.888294988147e-02 8.325158541873e-02 0.0 
1.794319775231e-02 7.307795899945e-02 0.0 
1.898329077265e-02 7.669217559126e-02 0.0 
1.970880402781e-02 8.632244271690e-02 0.0 
1.978217115565e-02 7.974106485845e-02 0.0 
2.027206253855e-02 8.878690840836e-02 0.0 
2.031163981667e-02 8.220182158406e-02 0.0 
2.055171072728e-02 9.067531722326e-02 0.0 
2.055905117998e-02 8.413954423827e-02 0.0 
2.009760591929e-02 7.591877437332e-02 0.0 
2.032092997275e-02 7.795755471292e-02 0.0 
2.051561550992e-02 8.557872541222e-02 0.0 
2.026080411526e-02 7.953597736273e-02 0.0 
2.018471513891e-02 8.656628511743e-02 0.0 
1.992355286002e-02 8.069443445242e-02 0.0 
1.979204039922e-02 7.384555734040e-02 0.0 
1.945801647017e-02 7.520761445144e-02 0.0 
1.932217349015e-02 8.149612110238e-02 0.0 
1.887364964188e-02 7.624296418271e-02 0.0 
1.847802502297e-02 8.199139061557e-02 0.0 
1.806195767839e-02 7.699407418795e-02 0.0 
1.742046385045e-02 8.221969714702e-02 0.0 
1.704401053209e-02 7.750771821602e-02 0.0 
1.748602412819e-02 7.231475384221e-02 0.0 
1.651606830546e-02 7.309805391915e-02 0.0 
1.584987722550e-02 7.784032999448e-02 0.0 
1.538377591331e-02 7.372634039847e-02 0.0 
1.585494445136e-02 6.900426789478e-02 0.0 
1.478982427124e-02 6.992479968103e-02 0.0 
1.508154247513e-02 6.518905892298e-02 0.0 
1.408973456298e-02 6.638692884178e-02 0.0 
1.361678344114e-02 7.070358625911e-02 0.0 
1.299506129595e-02 6.743917076484e-02 0.0 
1.330519170067e-02 6.306565666728e-02 0.0 
1.228753821824e-02 6.440345287599e-02 0.0 
1.181898032611e-02 6.841821477663e-02 0.0 
1.120452229631e-02 6.561815198092e-02 0.0 
1.152108305256e-02 6.151852150615e-02 0.0 
1.052041305323e-02 6.298598077037e-02 0.0 
1.007983458831e-02 6.676673625903e-02 0.0 
9.484844836349e-03 6.435808507637e-02 0.0 
9.793985977627e-03 6.042966674164e-02 0.0 
8.835773439614e-03 6.205272606343e-02 0.0 
8.432456627753e-03 6.567466200385e-02 0.0 
7.868605229012e-03 6.356885783106e-02 0.0 
8.151667172854e-03 5.978241720425e-02 0.0 
7.257840718001e-03 6.152322973068e-02 0.0 
7.434471152713e-03 5.755893525352e-02 0.0 
6.892528225325e-03 6.505387315662e-02 0.0 
6.362953638170e-03 6.318404614938e-02 0.0 
5.937267333803e-03 6.649670447755e-02 0.0 
5.485568449762e-03 6.477503776540e-02 0.0 
1.913297993125e-02 6.849132982934e-02 0.0 
5.035211108657e-03 6.785412790578e-02 0.0 
5.376697744135e-03 6.937626696063e-02 0.0 
4.645012310302e-03 6.629227072288e-02 0.0 
4.984978975557e-03 6.305049010677e-02 0.0 
4.187391766700e-03 6.914341927370e-02 0.0 
3.852165156026e-03 6.773087709559e-02 0.0 
3.406601441444e-03 7.036356876888e-02 0.0 
1.756953187516e-02 8.750833911142e-02 0.0 
1.779304280945e-02 6.673321581793e-02 0.0 
3.118280436105e-03 6.909169206396e-02 0.0 
2.703455427680e-03 7.151062288539e-02 0.0 
2.882495388229e-03 7.262621053871e-02 0.0 
2.229678240546e-03 7.356143299696e-02 0.0 
1.170638436826e-02 9.022346915884e-02 0.0 
1.112442144669e-02 7.797180321662e-02 0.0 
1.050763759670e-02 8.421607961190e-02 0.0 
9.779161099040e-03 7.166596220819e-02 0.0 
9.273772145399e-03 7.783727809623e-02 0.0 
2.081355856957e-03 7.257977303138e-02 0.0 
1.371429840110e-02 6.510764247657e-02 0.0 
1.016963392909e-02 6.532020913042e-02 0.0 
1.996023846376e-02 9.566659586310e-02 0.0 
2.021651929210e-02 9.283968155320e-02 0.0 
1.593086437380e-02 6.383464949317e-02 0.0 
3.460695860956e-03 6.629693878476e-02 0.0 
2.768701704921e-03 6.779282518642e-02 0.0 
3.021152797131e-03 6.483098665931e-02 0.0 
8.227731978653e-03 5.554600810066e-02 0.0 
7.414076599229e-03 5.316117767801e-02 0.0 
8.083167228120e-03 5.085627646276e-02 0.0 
7.190850669566e-03 4.831460136198e-02 0.0 
7.712973352765e-03 4.570717991703e-02 0.0 
6.762615178488e-03 4.300538806560e-02 0.0 
6.310128711267e-03 4.578013610417e-02 0.0 
5.841266206204e-03 4.029782532687e-02 0.0 
5.450831483570e-03 4.323363471991e-02 0.0 
7.116477651422e-03 4.008831747760e-02 0.0 
8.137925748015e-03 4.295699710807e-02 0.0 
4.958464930906e-03 3.757305439223e-02 0.0 
4.622028017140e-03 4.065704023915e-02 0.0 
4.122755991445e-03 3.481151463549e-02 0.0 
3.832570397494e-03 3.803953149616e-02 0.0 
4.202796423109e-03 4.360742308257e-02 0.0 
3.456384248732e-03 4.113107440806e-02 0.0 
3.719449793248e-03 4.642698143723e-02 0.0 
1.499491619492e-02 6.000063012973e-02 0.0 
1.560975702791e-02 5.820020770142e-02 0.0 
1.452706364016e-02 5.434777841446e-02 0.0 
1.488511059840e-02 5.209414011832e-02 0.0 
1.367454274906e-02 4.821877837692e-02 0.0 
1.375621007919e-02 4.551324932538e-02 0.0 
1.243422189277e-02 4.160503281497e-02 0.0 
1.242106782857e-02 4.451483022743e-02 0.0 
1.530399233137e-02 6.417885853580e-02 0.0 
1.451751327987e-02 7.801388523083e-02 0.0 
1.476518115615e-02 8.215460785260e-02 0.0 
1.325776985401e-02 8.188414470247e-02 0.0 
1.326287591966e-02 8.603825573500e-02 0.0 
1.160925142133e-02 8.533206180914e-02 0.0 
1.134407451488e-02 8.951848209672e-02 0.0 
9.571418256833e-03 8.839367255445e-02 0.0 
9.926538072509e-03 8.458022841155e-02 0.0 
7.805275525097e-03 8.726444551730e-02 0.0 
8.250498484916e-03 8.383731348008e-02 0.0 
6.094632125404e-03 8.616854991978e-02 0.0 
6.619331912365e-03 8.314667582363e-02 0.0 
1.965064591066e-02 6.995294361761e-02 0.0 
1.502888050870e-02 4.959263192895e-02 0.0 
1.360440446524e-02 4.253779721316e-02 0.0 
1.493105145957e-02 4.680591422995e-02 0.0 
2.298133648900e-03 7.452449348659e-02 0.0 
3.089391902529e-03 3.536846225891e-02 0.0 
7.347691690219e-03 3.701051026457e-02 0.0 
8.443849499821e-03 4.009898455760e-02 0.0 
1.108805760555e-02 3.784211083161e-02 0.0 
1.670142008436e-03 7.442084776654e-02 0.0 
9.015318424044e-03 9.262030109129e-02 0.0 
1.084872245171e-02 9.415954039879e-02 0.0 
8.435103595694e-03 6.499124790590e-02 0.0 
8.043483002652e-03 7.116183750350e-02 0.0 
7.431060580199e-03 3.376439857992e-02 0.0 
1.542884987428e-03 7.356398448649e-02 0.0 
5.191055699363e-03 3.434462466123e-02 0.0 
5.352352415009e-03 8.957944691246e-02 0.0 
2.747403728412e-03 3.860060233657e-02 0.0 
2.398954106821e-03 3.264008628681e-02 0.0 
5.782015295955e-03 4.841135465117e-02 0.0 
1.319645796686e-02 3.925954446199e-02 0.0 
1.460204219032e-02 4.382171423560e-02 0.0 
8.525121382274e-03 8.074736860802e-02 0.0 
6.974157277316e-03 8.043380190024e-02 0.0 
5.079074466774e-03 8.252387174448e-02 0.0 
5.566486998433e-03 8.005703474873e-02 0.0 
7.186434852558e-03 7.793532016289e-02 0.0 
5.819871543542e-03 7.796576966811e-02 0.0 
4.238455920667e-03 7.983689995784e-02 0.0 
4.566789239869e-03 7.802590657198e-02 0.0 
5.956620300607e-03 7.599777829128e-02 0.0 
4.778294930885e-03 7.631886181754e-02 0.0 
3.444408537069e-03 7.812886763167e-02 0.0 
3.722842127653e-03 7.664929417607e-02 0.0 
2.623233946914e-03 2.912119782639e-02 0.0 
3.652632286290e-03 8.813714546910e-02 0.0 
1.787516369278e-02 9.683201949525e-02 0.0 
6.314168578820e-03 3.056909770517e-02 0.0 
1.083141725926e-02 3.459883953000e-02 0.0 
7.115741236944e-03 5.804261864539e-02 0.0 
6.835210978025e-03 6.423046651332e-02 0.0 
7.564605187888e-03 7.729248301947e-02 0.0 
6.460748152733e-03 7.034968186368e-02 0.0 
5.669243621391e-03 5.706461919471e-02 0.0 
5.396919246138e-03 6.322200219735e-02 0.0 
6.016584364879e-03 7.639683831563e-02 0.0 
5.045777659596e-03 6.929972873014e-02 0.0 
5.521414842555e-03 8.234292197538e-02 0.0 
4.634214573954e-03 7.528372396450e-02 0.0 
4.125393927289e-03 6.203310508713e-02 0.0 
3.791887212131e-03 6.808231929625e-02 0.0 
4.177406928989e-03 8.118047695588e-02 0.0 
3.402529052543e-03 7.404556699602e-02 0.0 
3.685618257919e-03 8.697747188577e-02 0.0 
2.967877391860e-03 7.991697441581e-02 0.0 
2.681047285805e-03 6.678233068008e-02 0.0 
1.222309911334e-03 7.513856002778e-02 0.0 
1.114842667223e-02 4.095530585112e-02 0.0 
9.738654912216e-03 3.419196243900e-02 0.0 
2.382668278102e-03 6.645173118264e-02 0.0 
2.566877230804e-03 6.331860795038e-02 0.0 
3.200003013214e-03 6.147236391915e-02 0.0 
2.645197351756e-03 5.979759913835e-02 0.0 
2.291997879766e-03 7.279469005454e-02 0.0 
2.020997234332e-03 5.941044047232e-02 0.0 
8.233512239645e-03 9.731426665925e-02 0.0 
1.009559878606e-02 9.930258909115e-02 0.0 
7.275374343507e-03 5.179198739250e-02 0.0 
2.081699258244e-03 3.600813253052e-02 0.0 
2.334668732321e-03 4.169460136695e-02 0.0 
1.961282001862e-02 9.320314439963e-02 0.0 
1.939314461871e-02 9.969714312600e-02 0.0 
1.852027626849e-02 9.945952480600e-02 0.0 
1.797077788176e-02 1.062937460369e-01 0.0 
1.888733475012e-02 1.066449237890e-01 0.0 
1.681346660050e-02 1.054533049390e-01 0.0 
9.189398939544e-03 4.594380238680e-02 0.0 
3.270754427042e-03 5.462507324634e-02 0.0 
2.982281311346e-03 7.373209226540e-02 0.0 
2.274093990369e-03 7.548242426060e-02 0.0 
1.769335189810e-03 2.984277375874e-02 0.0 
1.220387481844e-02 4.720796071698e-02 0.0 
1.916176431432e-02 6.731942766768e-02 0.0 
1.850813306187e-02 6.152310589996e-02 0.0 
1.774885814682e-02 5.830411129750e-02 0.0 
1.688857165796e-02 5.267264875251e-02 0.0 
1.585067155438e-02 4.887762596521e-02 0.0 
1.477786321412e-02 4.340174399146e-02 0.0 
1.583746279250e-02 4.730078316130e-02 0.0 
1.250578337060e-02 3.560785959554e-02 0.0 
1.352437566651e-02 3.813719030981e-02 0.0 
2.538117965507e-03 8.581295488333e-02 0.0 
1.623518808207e-02 5.394010190794e-02 0.0 
5.973735372644e-03 7.415691029709e-02 0.0 
1.267107816037e-03 7.584241514624e-02 0.0 
2.440024430685e-03 7.828983377347e-02 0.0 
1.091693829144e-03 7.444746397309e-02 0.0 
1.345304734960e-03 7.266762727299e-02 0.0 
6.158721491994e-03 2.695854796770e-02 0.0 
1.344971329388e-02 3.904000556902e-02 0.0 
1.455401685617e-02 4.461470889938e-02 0.0 
1.711897264895e-02 1.136004152404e-01 0.0 
1.807340986594e-02 1.140155162440e-01 0.0 
1.100770785258e-02 3.122018925302e-02 0.0 
9.800216722518e-03 9.045701554400e-02 0.0 
6.437640257843e-03 8.924451350766e-02 0.0 
5.828546443418e-03 9.503166210002e-02 0.0 
8.299924055422e-04 7.596444758827e-02 0.0 
2.041890080950e-03 7.957364660024e-02 0.0 
4.568608743512e-03 4.971464480950e-02 0.0 
1.260643284747e-02 9.568661568568e-02 0.0 
1.190229475265e-02 1.012158721966e-01 0.0 
2.601609887282e-03 9.152331851975e-02 0.0 
9.539892797790e-04 8.975003732290e-02 0.0 
1.697667164905e-03 6.535917906362e-02 0.0 
1.450015838053e-03 5.190951000762e-02 0.0 
3.284028555729e-03 5.771569304827e-02 0.0 
2.676590405895e-03 5.586074832766e-02 0.0 
7.340446952504e-03 3.030590154706e-02 0.0 
2.803440458001e-03 7.697388571453e-02 0.0 
1.666863778347e-03 4.569464628709e-02 0.0 
1.100540184031e-02 4.383492846480e-02 0.0 
1.180716512432e-02 4.969988338226e-02 0.0 
2.024104195463e-03 6.178261542491e-02 0.0 
7.153211948840e-03 1.025434011865e-01 0.0 
5.248416803294e-03 1.000997414148e-01 0.0 
7.174291531557e-03 7.359071129487e-02 0.0 
3.872644050738e-03 7.525298751361e-02 0.0 
9.061328040176e-04 7.366784868816e-02 0.0 
5.801380774479e-03 2.313082808874e-02 0.0 
4.639524483203e-03 4.345266818201e-02 0.0 
1.462405559931e-02 4.218216051187e-02 0.0 
1.662743895336e-02 5.080338663002e-02 0.0 
1.212529448829e-02 3.311107274889e-02 0.0 
1.681952358743e-03 7.835035790269e-02 0.0 
5.040759121478e-03 2.361061440223e-02 0.0 
1.470136407987e-03 3.334740478893e-02 0.0 
1.198904909145e-02 3.470639048134e-02 0.0 
1.301298990759e-02 3.988704796033e-02 0.0 
1.425837720273e-02 9.711563020077e-02 0.0 
1.366520847230e-02 1.029620777927e-01 0.0 
1.092191763139e-02 1.073004966156e-01 0.0 
1.272574048432e-02 1.093874744212e-01 0.0 
1.598289544200e-02 9.955218943994e-02 0.0 
1.581333277236e-02 9.832119948805e-02 0.0 
1.873224659383e-02 1.001192118134e-01 0.0 
1.783610390681e-02 1.071506593192e-01 0.0 
1.846818689342e-02 1.099618489077e-01 0.0 
1.947754299648e-02 1.065824200825e-01 0.0 
1.867384707480e-02 1.140076082894e-01 0.0 
1.482912825005e-02 8.670070147711e-02 0.0 
1.661195367766e-02 6.228888083410e-02 0.0 
3.877936340254e-03 5.952107507125e-02 0.0 
4.450582760344e-03 4.869564056216e-02 0.0 
8.976461898298e-03 5.342211004768e-02 0.0 
3.455580476739e-03 4.843614061094e-02 0.0 
2.609557860076e-03 4.082053456736e-02 0.0 
4.438748201252e-03 9.390779449754e-02 0.0 
3.869302704160e-03 9.952860518623e-02 0.0 
1.677868364201e-03 7.606465223337e-02 0.0 
1.542780960102e-03 7.687965645509e-02 0.0 
6.696728036410e-03 5.535530766996e-02 0.0 
5.256048203400e-03 2.738186393672e-02 0.0 
5.890346371316e-03 4.459083024172e-02 0.0 
5.784605796421e-03 3.826611923532e-02 0.0 
7.284020898446e-03 4.547521093369e-02 0.0 
7.046340329863e-03 2.661849457405e-02 0.0 
1.309390492458e-02 7.808710576870e-02 0.0 
1.398393805948e-02 5.639640133175e-02 0.0 
2.091705329047e-03 8.686201454567e-02 0.0 
1.919791076279e-02 6.659868791941e-02 0.0 
1.057678113977e-03 7.724772412539e-02 0.0 
1.655422885633e-02 6.264827084385e-02 0.0 
1.210356650658e-03 2.697408865921e-02 0.0 
1.400802837572e-03 2.318324417801e-02 0.0 
9.983875388237e-03 2.710907727490e-02 0.0 
1.466357780018e-02 1.167632731434e-01 0.0 
1.835606548600e-02 6.136136260853e-02 0.0 
1.831180669770e-02 6.347873782308e-02 0.0 
1.731855388933e-02 1.171465753252e-01 0.0 
1.769587809373e-02 1.194891798212e-01 0.0 
1.884532291965e-02 1.120425635543e-01 0.0 
1.777684486351e-02 1.210937214092e-01 0.0 
6.998515473274e-03 7.164797138396e-02 0.0 
5.877332292709e-03 7.244315954355e-02 0.0 
1.042305494633e-02 2.848258760572e-02 0.0 
1.079520288825e-02 2.884535684164e-02 0.0 
1.025816051806e-02 2.972766420458e-02 0.0 
1.124903493803e-02 3.462604961110e-02 0.0 
8.371368961736e-03 2.270953390387e-02 0.0 
9.462257729769e-03 2.696835241015e-02 0.0 
1.081768735857e-03 7.172090793090e-02 0.0 
1.696062046134e-02 1.216630206989e-01 0.0 
3.526253939974e-03 3.586965170006e-02 0.0 
1.671730340730e-02 1.141337707765e-01 0.0 
4.034704708484e-03 2.044661628847e-02 0.0 
4.273942721902e-03 2.419261332765e-02 0.0 
-4.993787513854e-04 8.820706829222e-02 0.0 
7.304707183824e-04 8.548352355899e-02 0.0 
1.140972735378e-03 3.830418497158e-02 0.0 
9.639603498840e-03 1.138559885924e-01 0.0 
1.140474592184e-02 1.162869900861e-01 0.0 
7.767127497477e-03 1.111217693775e-01 0.0 
1.827099211205e-04 1.216968801618e-02 0.0 
1.032787380332e-03 1.222597961828e-01 0.0 
9.083824461364e-04 2.010882415989e-02 0.0 
1.975692914729e-02 1.059592319309e-01 0.0 
1.225874659717e-03 3.138538650827e-02 0.0 
1.737614892629e-02 5.645827067024e-02 0.0 
1.871649703533e-02 9.328671459363e-02 0.0 
8.574676135680e-03 3.368440636859e-02 0.0 
9.269035348751e-04 4.574091270955e-02 0.0 
6.847536096899e-04 3.020447064705e-02 0.0 
6.660560536780e-03 1.015242464890e-01 0.0 
5.990463892957e-03 1.073420828169e-01 0.0 
7.366494741554e-03 9.595439788207e-02 0.0 
4.430005704776e-03 9.341534807511e-02 0.0 
1.007354058729e-03 9.595199275460e-02 0.0 
2.495245898061e-03 4.708528294211e-02 0.0 
2.145616812372e-03 6.920138208326e-02 0.0 
1.766044349636e-03 6.768606090448e-02 0.0 
2.962014553850e-03 7.585008615759e-02 0.0 
3.882670647194e-03 7.397851170650e-02 0.0 
3.933249498968e-03 5.554967603942e-02 0.0 
4.574495896567e-03 5.748439517006e-02 0.0 
1.613469986752e-02 5.643657607914e-02 0.0 
1.469802711683e-02 5.192766700661e-02 0.0 
1.840156808322e-02 6.423498791100e-02 0.0 
1.068517574033e-02 4.650931625823e-02 0.0 
1.125963205383e-02 5.201146735730e-02 0.0 
1.229091470148e-02 5.506766211423e-02 0.0 
2.656182372732e-03 3.494910379916e-02 0.0 
1.768881623100e-03 2.596648652450e-02 0.0 
8.176018008324e-03 7.088790927134e-02 0.0 
8.439290055568e-03 7.305767709402e-02 0.0 
6.714545995292e-03 6.988250621929e-02 0.0 
3.388407343209e-03 2.975816234117e-02 0.0 
1.005242113077e-03 1.623250503396e-02 0.0 
1.494038130756e-03 1.951042528729e-02 0.0 
8.347258661132e-04 7.789830359978e-02 0.0 
1.313271137180e-03 7.769387384728e-02 0.0 
3.889300367387e-03 1.053364453746e-01 0.0 
1.917249876790e-03 1.025372577354e-01 0.0 
5.578291550059e-03 3.244076922800e-02 0.0 
7.129015066447e-03 3.923052877813e-02 0.0 
3.966011506620e-03 2.447204575478e-02 0.0 
6.474685581050e-04 7.293925800553e-02 0.0 
1.542345729544e-02 4.569952379046e-02 0.0 
5.357782835617e-03 1.947407146985e-02 0.0 
6.677136955004e-03 2.313842904957e-02 0.0 
3.901991778452e-03 1.494728458246e-02 0.0 
1.161983828129e-02 3.191287381012e-02 0.0 
8.798402286722e-03 2.306904896740e-02 0.0 
9.087771866337e-03 2.358615967718e-02 0.0 
-1.891397512605e-03 9.092738249313e-02 0.0 
5.164506647120e-04 3.605878470589e-02 0.0 
4.585482884522e-03 1.062617801586e-01 0.0 
-2.816661923063e-03 8.937266787046e-02 0.0 
3.955145143344e-03 1.121176918092e-01 0.0 
3.310800179669e-03 1.051321694453e-01 0.0 
3.417536046562e-03 1.178161282084e-01 0.0 
5.422599266860e-04 7.457434184328e-02 0.0 
7.538260840398e-03 1.100296400665e-01 0.0 
8.354339836501e-03 1.029515708085e-01 0.0 
3.417860688639e-04 7.872988606536e-02 0.0 
2.291835138351e-03 2.213122975377e-02 0.0 
5.070379447645e-04 7.803157560934e-02 0.0 
7.190898225504e-04 7.751773465830e-02 0.0 
3.087882639104e-03 1.699442080531e-02 0.0 
3.370487676484e-03 2.094717930070e-02 0.0 
2.240143057591e-03 1.366194385509e-02 0.0 
2.613068340407e-03 1.805715345822e-02 0.0 
3.513193323122e-03 2.487265495668e-02 0.0 
2.730461607553e-03 2.174116596985e-02 0.0 
5.357236492706e-03 1.138764848203e-01 0.0 
1.789611629492e-03 1.369111418476e-02 0.0 
2.020446467728e-03 1.840205526714e-02 0.0 
1.176611909986e-03 1.053601501707e-02 0.0 
1.632170625028e-02 1.288283015271e-01 0.0 
1.423611038410e-02 1.113410303901e-01 0.0 
1.293921744747e-02 1.186453441189e-01 0.0 
9.571580056257e-03 1.241106991734e-01 0.0 
7.632231409342e-03 2.192325373907e-02 0.0 
9.473393579810e-03 2.951119224397e-02 0.0 
9.162165357925e-04 3.047801830567e-02 0.0 
1.048422313872e-03 3.657577297860e-02 0.0 
2.731352548594e-03 1.115377959304e-01 0.0 
1.994216511676e-03 1.120201950319e-01 0.0 
2.179052064072e-03 1.009526739892e-01 0.0 
1.571748708798e-03 1.023018867466e-01 0.0 
1.688969298598e-03 9.115375890363e-02 0.0 
1.086464532833e-03 9.258257467350e-02 0.0 
1.289317193610e-03 8.114492995580e-02 0.0 
7.430011971632e-03 1.887825691905e-02 0.0 
5.938866420987e-03 1.175984481740e-01 0.0 
1.592298984663e-02 1.243102923884e-01 0.0 
6.722818646438e-03 1.841457878238e-02 0.0 
8.120626343992e-03 2.353740605030e-02 0.0 
1.755927555436e-02 1.217009622887e-01 0.0 
1.544024532220e-02 1.298426989430e-01 0.0 
3.344228198392e-03 1.524446885176e-02 0.0 
1.612520873416e-02 9.263277035504e-02 0.0 
1.728143764595e-03 1.413460273042e-02 0.0 
-6.668551203536e-03 9.910985993723e-02 0.0 
-2.908794043019e-03 9.679707144863e-02 0.0 
1.747448812124e-02 9.326871200846e-02 0.0 
1.892678006023e-02 1.133936799129e-01 0.0 
1.575874419229e-02 1.127756119149e-01 0.0 
1.472905007970e-02 1.201322571688e-01 0.0 
9.804061965767e-03 4.045924993687e-02 0.0 
9.389743768669e-04 7.857172110240e-02 0.0 
5.845526524130e-03 1.082314577064e-01 0.0 
1.876875702905e-03 7.986230694169e-02 0.0 
2.152247395276e-03 1.108649719365e-01 0.0 
4.804201614065e-04 3.329022814748e-02 0.0 
1.626849190693e-02 8.722506800219e-02 0.0 
2.028575348249e-02 9.882047992655e-02 0.0 
9.073004476189e-03 1.049347693269e-01 0.0 
1.540275275159e-02 1.043311609827e-01 0.0 
1.684309158888e-02 9.292469508685e-02 0.0 
1.496909875322e-02 1.060071281338e-01 0.0 
1.586651068543e-02 1.104831930146e-01 0.0 
1.616153947023e-02 8.232173231056e-02 0.0 
1.602720531546e-02 1.211198819965e-01 0.0 
1.315156667251e-02 1.283803534843e-01 0.0 
1.936594388834e-02 9.315939598214e-02 0.0 
8.835480547575e-03 5.239857052885e-02 0.0 
8.773838294132e-03 4.603453753377e-02 0.0 
6.825457154278e-03 3.335546102063e-02 0.0 
8.515772082838e-03 3.980478465014e-02 0.0 
1.044837861398e-02 5.260146078476e-02 0.0 
1.028194399559e-02 4.628234087331e-02 0.0 
8.043554574130e-03 3.378756674907e-02 0.0 
9.892858645184e-03 4.006136340854e-02 0.0 
6.735648953953e-03 2.520743313308e-02 0.0 
9.180617877359e-03 3.368102703711e-02 0.0 
1.173323152926e-02 4.630714280366e-02 0.0 
1.120448215357e-02 4.039885627295e-02 0.0 
8.641870140831e-03 2.924029331323e-02 0.0 
1.356059649616e-02 5.276610784959e-02 0.0 
5.355349819627e-03 1.397933217749e-02 0.0 
1.868996162125e-02 8.749591583095e-02 0.0 
-4.471703246054e-04 9.313653866669e-02 0.0 
-1.392269507932e-03 9.971033821647e-02 0.0 
2.027460606618e-02 9.753463220241e-02 0.0 
3.327570403940e-03 1.227780548277e-02 0.0 
2.757938027777e-03 1.237833275651e-02 0.0 
1.304577287322e-02 9.064443013544e-02 0.0 
3.898619184049e-03 1.034872661019e-02 0.0 
1.697097446038e-02 1.036983129597e-01 0.0 
7.149410457131e-03 9.111065801001e-02 0.0 
3.970691390727e-03 9.886207317290e-03 0.0 
1.040365676962e-02 5.894015875943e-02 0.0 
1.196111748306e-02 6.538705295563e-02 0.0 
1.161867620814e-02 7.171854504175e-02 0.0 
2.127010621614e-03 1.172613800914e-02 0.0 
8.059250858743e-03 9.013787554489e-02 0.0 
3.415132229907e-03 8.345043565143e-03 0.0 
1.603073720137e-02 5.617861369641e-02 0.0 
1.709402608409e-02 6.060081870075e-02 0.0 
1.750267229852e-02 6.670315673660e-02 0.0 
1.204783995219e-02 5.275085614957e-02 0.0 
2.937520959399e-03 8.104362337054e-03 0.0 
5.247859171760e-03 1.534343572730e-02 0.0 
4.870051967814e-03 1.507122674965e-02 0.0 
7.273827671693e-03 2.264009395319e-02 0.0 
2.516333647339e-03 7.786417164741e-03 0.0 
3.392733665819e-03 1.065023126671e-02 0.0 
3.374621696658e-03 9.910245251003e-03 0.0 
7.238840071494e-03 7.568829978910e-02 0.0 
8.603721616785e-03 7.538420431962e-02 0.0 
9.749764267760e-03 7.251858843161e-02 0.0 
1.000606077811e-02 7.512195320153e-02 0.0 
8.636637172275e-03 7.794776705430e-02 0.0 
1.012814342150e-02 7.797962636779e-02 0.0 
1.140833337138e-02 7.488386073610e-02 0.0 
1.010054557777e-02 8.113486787488e-02 0.0 
1.227860041728e-02 4.066961051460e-02 0.0 
2.043842593826e-03 7.286627261696e-03 0.0 
8.682015310418e-03 4.843628678568e-02 0.0 
9.656146998498e-03 5.125669364931e-02 0.0 
9.853481519544e-03 5.607440866239e-02 0.0 
4.447370738944e-03 6.129423584701e-02 0.0 
5.196868945911e-03 5.940224707120e-02 0.0 
5.270622158771e-03 5.534455572143e-02 0.0 
3.717742949015e-03 6.311104708718e-02 0.0 
1.765530982808e-02 5.602332237605e-02 0.0 
1.853646017354e-03 7.259228220949e-03 0.0 
1.291588355967e-02 5.296937727517e-02 0.0 
5.795311209184e-03 6.130519631918e-02 0.0 
9.856177287979e-03 1.209876520328e-01 0.0 
1.050728663898e-02 1.105863655679e-01 0.0 
1.155757344902e-02 1.096329645318e-01 0.0 
1.095991905020e-02 9.828281814101e-02 0.0 
9.352775341370e-03 1.097864937103e-01 0.0 
3.284260661591e-03 5.356231931822e-02 0.0 
2.635575637029e-03 5.152714068011e-02 0.0 
2.059441029044e-03 5.395649482926e-02 0.0 
1.993360475660e-03 4.943508700707e-02 0.0 
1.440730437079e-03 5.197901383841e-02 0.0 
1.489209884836e-03 5.617376985580e-02 0.0 
1.350832967678e-03 4.727806300202e-02 0.0 
8.336955442418e-04 5.047268201517e-02 0.0 
7.940912470744e-03 1.217712184994e-01 0.0 
-2.798546423035e-03 8.469547554878e-02 0.0 
-8.813152372227e-04 8.334501780895e-02 0.0 
-6.038712097780e-04 8.197899594624e-02 0.0 
6.614906695965e-04 8.192660427158e-02 0.0 
6.799341992085e-04 8.332068669313e-02 0.0 
2.413677880412e-03 8.144844948762e-02 0.0 
2.274090361633e-03 8.322142858076e-02 0.0 
-1.223601437033e-03 8.512119794677e-02 0.0 
-1.663785736485e-03 8.188618630797e-02 0.0 
-3.211248118689e-04 8.089863482557e-02 0.0 
-1.212571954781e-03 8.089108052500e-02 0.0 
-1.343530925091e-04 8.006375907566e-02 0.0 
1.020305583110e-03 7.963782159335e-02 0.0 
2.182974874595e-03 7.640111867956e-02 0.0 
5.164155352828e-04 8.173360302305e-03 0.0 
5.440264929145e-04 6.170479593181e-02 0.0 
1.034524124543e-03 6.343382833757e-02 0.0 
9.471414652089e-04 6.643872354562e-02 0.0 
1.527179546154e-03 6.489323431811e-02 0.0 
1.041222895501e-03 6.026036900359e-02 0.0 
4.496067897848e-04 6.791027549501e-02 0.0 
8.503859449125e-04 6.885424696842e-02 0.0 
1.227374857904e-04 7.773448167236e-02 0.0 
1.893924320062e-04 7.739581715637e-02 0.0 
7.488072429329e-05 7.741198509143e-02 0.0 
2.319661536387e-04 7.677368299866e-02 0.0 
3.716731563261e-04 7.683633865271e-02 0.0 
2.816644655819e-04 7.744316719591e-02 0.0 
3.538977791711e-04 7.753498591558e-02 0.0 
1.532711879539e-04 7.793093140757e-02 0.0 
4.057345655424e-04 7.766330762527e-02 0.0 
6.511279113299e-04 7.696073501693e-02 0.0 
1.225969070022e-04 7.808953625968e-02 0.0 
4.120105592804e-04 6.392543995289e-02 0.0 
7.858276110468e-04 5.725479850493e-02 0.0 
1.589297686955e-03 7.577472571260e-03 0.0 
6.166428843734e-03 1.211111894152e-01 0.0 
-5.136093505893e-04 7.947787701110e-02 0.0 
6.385570881235e-04 1.523427600240e-02 0.0 
9.852646722806e-04 1.263426845656e-02 0.0 
7.945096217696e-04 1.224391239091e-02 0.0 
3.016153164734e-04 1.981846366403e-02 0.0 
4.898459074592e-04 1.629595207396e-02 0.0 
3.416059146346e-04 1.481107644199e-02 0.0 
3.622059579685e-03 7.161999044680e-02 0.0 
6.318407304512e-03 2.763965949973e-02 0.0 
1.808827047043e-03 3.939603120960e-02 0.0 
6.335601469598e-03 9.533322612383e-02 0.0 
4.835303663183e-03 7.322332728975e-02 0.0 
1.663274254798e-03 3.918578673681e-02 0.0 
4.980627327410e-03 4.601739812496e-02 0.0 
1.975509976869e-03 2.624623268309e-02 0.0 
3.012409393021e-03 4.408817292986e-02 0.0 
3.341781265691e-03 3.199330178812e-02 0.0 
4.612071761507e-03 1.530918882642e-02 0.0 
7.373408579152e-04 7.519257479912e-02 0.0 
4.991413530277e-03 8.817777058382e-02 0.0 
3.197466575628e-03 9.272735837937e-02 0.0 
3.008456059760e-03 6.074638544290e-02 0.0 
2.454417652155e-03 7.037328299157e-02 0.0 
2.091151456837e-03 5.786427535617e-02 0.0 
1.723537132403e-03 7.523918502906e-02 0.0 
7.175233086485e-03 1.892745322408e-02 0.0 
1.934747610290e-02 1.027910145782e-01 0.0 
9.024096840793e-03 5.796638032725e-02 0.0 
4.202993834439e-03 6.471310496821e-02 0.0 
4.461254384564e-03 7.052108362334e-02 0.0 
4.867661361168e-03 7.471431735418e-02 0.0 
1.957326700773e-02 8.717804406923e-02 0.0 
6.617551959105e-03 5.947708644278e-02 0.0 
6.131051919541e-03 3.722419347579e-02 0.0 
2.295541398844e-03 5.328683422129e-02 0.0 
-2.299738870981e-05 7.855000573877e-02 0.0 
6.296805072738e-03 3.398598206430e-02 0.0 
6.596318511637e-03 5.078981917065e-02 0.0 
7.024564413257e-03 8.334057909534e-02 0.0 
1.222430253659e-02 3.846222363128e-02 0.0 
3.090492231893e-03 7.961402629695e-02 0.0 
4.391614504037e-03 5.592702383223e-02 0.0 
4.445559564594e-03 3.165076287146e-02 0.0 
9.072202749309e-03 9.666949592324e-02 0.0 
1.190689279828e-03 7.658037703146e-02 0.0 
5.223763267104e-03 1.008806120768e-01 0.0 
4.625132716788e-03 1.962177658457e-02 0.0 
8.708788651845e-03 5.870766709954e-02 0.0 
1.862130407396e-03 7.156728732610e-02 0.0 
1.421881715682e-02 6.161572999163e-02 0.0 
2.053286311852e-02 9.199647245827e-02 0.0 
1.392970897550e-02 1.271359813329e-01 0.0 
1.878062041158e-03 3.355233512814e-02 0.0 
1.881808287953e-02 7.008950457024e-02 0.0 
9.395908745670e-03 3.065485127951e-02 0.0 
1.338503545255e-02 5.069390974393e-02 0.0 
1.586596146517e-03 7.046957002083e-02 0.0 
4.365697246632e-03 2.790397159813e-02 0.0 
1.676753717214e-02 6.792414991719e-02 0.0 
3.554669762678e-03 4.226463822902e-02 0.0 
1.672470175566e-02 5.461095330829e-02 0.0 
1.412979902129e-02 7.422042360631e-02 0.0 
5.842003561817e-03 5.085859265640e-02 0.0 
1.070358939266e-02 5.876444543410e-02 0.0 
1.175258626113e-02 3.500155927648e-02 0.0 
1.970767509527e-02 1.046875540229e-01 0.0 
1.959340097990e-02 7.339861618039e-02 0.0 
1.671292456839e-02 6.898316715792e-02 0.0 
1.985903879686e-02 7.210827481575e-02 0.0 
1.133737561051e-03 4.225296099441e-02 0.0 
5.298974321539e-03 3.095770431769e-02 0.0 
4.490860349069e-03 8.520856127284e-02 0.0 
1.732826476409e-02 9.900842899434e-02 0.0 
8.685323439529e-03 8.399384219284e-02 0.0 
1.224969476804e-02 3.401395706268e-02 0.0 
2.521706417738e-03 2.816937457477e-02 0.0 
1.999011456362e-02 9.950100638134e-02 0.0 
4.308823568847e-03 3.145268836135e-02 0.0 
4.612200253902e-03 3.756944516836e-02 0.0 
5.952519823445e-03 5.742639159975e-02 0.0 
2.620408909921e-04 7.435420061554e-02 0.0 
3.373787877294e-03 9.770707860188e-02 0.0 
1.169040067354e-02 8.153269917247e-02 0.0 
1.826221446882e-02 7.134130001594e-02 0.0 
5.950020078716e-03 5.313463836789e-02 0.0 
4.917178085535e-03 2.482004618489e-02 0.0 
3.489169715345e-03 2.851552301510e-02 0.0 
8.592048687353e-03 3.700244679900e-02 0.0 
-3.658236026912e-03 1.090804294198e-01 0.0 
1.540985621377e-02 1.207245555539e-01 0.0 
2.739926707854e-03 2.551847844422e-02 0.0 
1.328454594312e-02 5.825703813488e-02 0.0 
1.029644207996e-02 3.098236010809e-02 0.0 
9.032576944319e-04 5.447128289616e-02 0.0 
7.230272208133e-03 1.863297080369e-02 0.0 
1.615683072490e-02 1.294711810924e-01 0.0 
2.066662054792e-03 2.245486215756e-02 0.0 
9.871562682095e-03 3.742031581164e-02 0.0 
1.466181696320e-02 9.167250807260e-02 0.0 
1.713848536383e-03 1.222736357633e-01 0.0 
1.306825722860e-03 1.410327760355e-02 0.0 
8.339626497156e-03 3.014867102136e-02 0.0 
1.899224281761e-02 6.428998801325e-02 0.0 
1.244880675961e-02 5.995115235441e-02 0.0 
1.452795848428e-02 1.341711333841e-01 0.0 
5.198030107385e-03 5.090643633452e-02 0.0 
1.882369872233e-02 7.037962834036e-02 0.0 
1.842607380198e-03 1.150221132223e-02 0.0 
8.029537058283e-03 2.696409352325e-02 0.0 
1.303931360174e-02 7.800293164672e-02 0.0 
4.577460181201e-03 5.329197617347e-02 0.0 
1.623440698215e-02 5.162342699759e-02 0.0 
5.127804254137e-04 7.689342433114e-02 0.0 
1.624230604278e-02 1.268961960289e-01 0.0 
3.880752302862e-03 5.118668051839e-02 0.0 
1.161708396843e-02 7.806412430675e-02 0.0 
1.154296887208e-02 5.698764214275e-02 0.0 
7.172554463956e-03 1.865618403952e-02 0.0 
3.193744782021e-03 4.902974637058e-02 0.0 
1.279416776638e-02 7.458030950094e-02 0.0 
2.521073761959e-03 4.681987772762e-02 0.0 
1.426526467352e-02 1.380983318221e-01 0.0 
1.346355963445e-02 7.139821424486e-02 0.0 
1.843833256424e-03 4.454560809991e-02 0.0 
1.738580396361e-02 6.059048739820e-02 0.0 
7.909857338255e-04 7.704851110667e-02 0.0 
1.814829095282e-02 5.894775616193e-02 0.0 
7.110975633295e-04 2.357252122120e-02 0.0 
6.349468907441e-03 6.818176587609e-02 0.0 
1.061455957974e-02 5.414448728494e-02 0.0 
1.210716887208e-02 5.902363205143e-02 0.0 
1.272439430332e-02 1.386072822068e-01 0.0 
1.023883749015e-02 4.898725293420e-02 0.0 
1.546594776789e-02 5.046765077719e-02 0.0 
1.714362145490e-02 5.386873935995e-02 0.0 
1.802485843565e-02 6.523582354739e-02 0.0 
9.564917229234e-03 4.326941639666e-02 0.0 
1.461489463215e-02 1.289812396308e-01 0.0 
3.745997672887e-03 7.287156934962e-02 0.0 
3.009667687566e-03 7.478226041982e-02 0.0 
1.236292868308e-02 7.137481465430e-02 0.0 
1.396309885467e-02 4.577304153865e-02 0.0 
4.420659435977e-04 7.597757858212e-02 0.0 
1.373582255276e-02 5.872374221820e-02 0.0 
1.977810704062e-03 7.736787310701e-02 0.0 
1.106712655830e-02 7.197163489014e-02 0.0 
1.393727455372e-02 4.020630877749e-02 0.0 
4.920245491604e-04 8.939842091620e-02 0.0 
1.061883592175e-02 6.927141327820e-02 0.0 
3.165522723215e-04 7.255280613487e-02 0.0 
9.393398496782e-03 7.011055462413e-02 0.0 
1.734513588078e-02 5.863301007457e-02 0.0 
8.954623764977e-03 6.781471456429e-02 0.0 
7.821377508376e-03 6.885640497392e-02 0.0 
1.252770511719e-03 2.577703325485e-02 0.0 
7.390674255031e-03 6.691349930440e-02 0.0 
1.662688930040e-04 1.228142487849e-02 0.0 
2.148653199026e-04 7.431325706143e-03 0.0 
6.457760756575e-04 1.134506205514e-01 0.0 
9.578678860276e-03 1.372903619415e-01 0.0 
-5.122993480171e-03 9.183461221505e-02 0.0 
1.199353973885e-02 1.249616617129e-01 0.0 
5.668999224040e-03 7.088518160287e-02 0.0 
1.515236323640e-02 5.806377079726e-02 0.0 
1.342146607847e-03 1.129123918740e-01 0.0 
4.675897136980e-03 7.186912709891e-02 0.0 
6.359363248443e-03 2.161886900290e-02 0.0 
3.605263444825e-03 8.714396408660e-03 0.0 
8.891618371791e-04 6.981413974576e-02 0.0 
8.948875804297e-03 2.744978475124e-02 0.0 
1.593345056353e-02 4.870934237268e-02 0.0 
2.548618913139e-04 3.745100822602e-02 0.0 
3.970613979355e-03 1.231906077360e-01 0.0 
4.033090734268e-05 7.939171473869e-02 0.0 
5.459507746024e-04 3.928617385402e-02 0.0 
6.171307766962e-03 1.322362530141e-01 0.0 
7.658047029977e-03 1.208516252502e-01 0.0 
3.925288201877e-03 1.143271595567e-01 0.0 
1.237342110529e-03 6.956036794958e-02 0.0 
7.148217007753e-04 8.076870984967e-02 0.0 
3.472134671629e-03 1.247153562005e-01 0.0 
5.724911629493e-03 1.611189259948e-02 0.0 
6.696217689857e-03 1.125826120442e-01 0.0 
1.329247027051e-02 3.732053731427e-02 0.0 
-1.610389736797e-04 1.170665086465e-01 0.0 
3.193383191970e-03 2.456424550576e-02 0.0 
7.022478747981e-03 1.772959455847e-02 0.0 
1.105207587807e-03 6.610333715127e-03 0.0 
1.047644400655e-02 2.789557673506e-02 0.0 
1.520867248566e-04 1.074220624809e-01 0.0 
9.983608904939e-03 1.012790157524e-01 0.0 
7.075121469349e-03 1.927960638054e-02 0.0 
1.205034620767e-03 5.918301841692e-02 0.0 
7.897939305801e-04 6.306269847265e-03 0.0 
8.434452953708e-03 1.132795661297e-01 0.0 
7.589399575281e-04 2.407368406080e-02 0.0 
3.086313955977e-03 8.439601373289e-02 0.0 
3.804364597997e-04 2.336908796014e-02 0.0 
1.303587846280e-02 4.653848075742e-02 0.0 
2.745331635417e-03 9.838176127532e-02 0.0 
1.202732515408e-02 1.005103799213e-01 0.0 
5.925613058659e-04 1.284509213797e-02 0.0 
5.632856157739e-03 2.257564471726e-02 0.0 
-1.711643263555e-03 1.035874669936e-01 0.0 
1.395444445201e-03 7.114177562181e-02 0.0 
2.060577800931e-03 6.490049084530e-02 0.0 
-2.031186456598e-03 8.727932759519e-02 0.0 
2.766090853916e-03 1.382806891136e-02 0.0 
1.050877676758e-02 3.512021822256e-02 0.0 
9.933709354453e-04 1.313062596418e-02 0.0 
9.735501939123e-05 7.682047983645e-02 0.0 
2.387112314004e-04 7.849692203646e-02 0.0 
3.133212162661e-03 1.299264276820e-02 0.0 
6.398025536758e-03 1.911494364168e-02 0.0 
3.967965715365e-03 8.152088916466e-02 0.0 
1.061572666778e-03 9.873403775938e-03 0.0 
-4.249579390436e-03 1.009570940048e-01 0.0 
5.404209839980e-03 1.243706369942e-01 0.0 
3.987881149037e-04 7.786276058854e-02 0.0 
6.288679710069e-04 6.358028043113e-03 0.0 
1.860557712931e-03 2.300860128625e-02 0.0 
1.459459104155e-03 6.189012773878e-02 0.0 
1.185455321693e-02 1.183780450750e-01 0.0 
7.338874353038e-04 7.111334542198e-02 0.0 
9.653193585674e-03 2.559264054726e-02 0.0 
7.405306207229e-04 7.920018021029e-02 0.0 
1.254854895862e-03 2.175466169262e-02 0.0 
3.688456632075e-03 1.295055596131e-02 0.0 
3.888216421934e-03 2.120478433762e-02 0.0 
2.430474492595e-03 6.186515565968e-03 0.0 
-3.266096746735e-03 9.355769553562e-02 0.0 
6.217372831852e-03 1.553376624328e-02 0.0 
6.318416952590e-03 2.058709073529e-02 0.0 
2.987408528703e-03 1.236621310842e-01 0.0 
4.908337376406e-03 2.241015461881e-02 0.0 
1.311510503986e-03 6.741898609454e-02 0.0 
9.641329439880e-04 7.620098887447e-02 0.0 
7.191261383355e-05 1.088323663197e-02 0.0 
2.551920981031e-05 7.768448697146e-02 0.0 
5.022484498980e-04 1.235798268055e-01 0.0 
8.567723830688e-05 6.060129938618e-03 0.0 
5.751226115316e-04 7.622241004473e-02 0.0 
1.064192404989e-03 1.046859542665e-01 0.0 
5.943834200433e-03 1.877730627692e-02 0.0 
3.915439380204e-04 5.374036443346e-02 0.0 
5.954614933401e-04 4.650565057622e-02 0.0 
1.779095930196e-03 8.061053967751e-02 0.0 
-4.702196400185e-03 8.890461071131e-02 0.0 
8.514229712659e-04 8.305765235589e-02 0.0 
6.146139109955e-03 1.557722601460e-02 0.0 
2.992707145680e-03 2.048510588412e-02 0.0 
2.200094458800e-03 9.160234261140e-02 0.0 
9.118180368972e-04 9.985571495717e-02 0.0 
8.268141148637e-03 2.639749832380e-02 0.0 
1.569053696981e-03 5.912730657044e-02 0.0 
9.477959961938e-03 2.633700519247e-02 0.0 
7.203306638562e-03 2.139261212845e-02 0.0 
-6.995258482135e-03 1.026379407267e-01 0.0 
3.532070276010e-04 4.928247591681e-02 0.0 
3.442427597635e-04 7.807674124213e-02 0.0 
1.822313628248e-03 1.215751312106e-02 0.0 
1.042229833227e-03 5.736040616835e-02 0.0 
1.119289786673e-02 1.491828199825e-01 0.0 
3.734025954429e-04 1.586103854184e-01 0.0 
1.208582429011e-02 1.429817968011e-01 0.0 
3.370253725734e-04 1.482441304060e-01 0.0 
1.184805018966e-02 1.349190798978e-01 0.0 
3.460847332093e-04 1.374564750180e-01 0.0 

VECTORS node_bounda_dof_materi_velocity_x float
1.000000000000e+00 0.0 0.0 
1.000000000000e+00 0.0 0.0 
1.000000000000e+00 0.0 0.0 
1.000000000000e+00 0.0 0.0 
1.000000000000e+00 0.0 0.0 
1.000000000000e+00 0.0 0.0 
1.000000000000e+00 0.0 0.0 
1.000000000000e+00 0.0 0.0 
1.000000000000e+00 0.0 0.0 
1.000000000000e+00 0.0 0.0 
1.000000000000e+00 0.0 0.0 
1.000000000000e+00 0.0 0.0 
1.000000000000e+00 0.0 0.0 
1.000000000000e+00 0.0 0.0 
1.000000000000e+00 0.0 0.0 
1.000000000000e+00 0.0 0.0 
1.000000000000e+00 0.0 0.0 
1.000000000000e+00 0.0 0.0 
1.000000000000e+00 0.0 0.0 
1.000000000000e+00 0.0 0.0 
1.000000000000e+00 0.0 0.0 
1.000000000000e+00 0.0 0.0 
1.000000000000e+00 0.0 0.0 
1.000000000000e+00 0.0 0.0 
1.000000000000e+00 0.0 0.0 
1.000000000000e+00 0.0 0.0 
1.000000000000e+00 0.0 0.0 
1.000000000000e+00 0.0 0.0 
1.000000000000e+00 0.0 0.0 
1.000000000000e+00 0.0 0.0 
1.000000000000e+00 0.0 0.0 
1.000000000000e+00 0.0 0.0 
1.000000000000e+00 0.0 0.0 
1.000000000000e+00 0.0 0.0 
1.000000000000e+00 0.0 0.0 
1.000000000000e+00 0.0 0.0 
1.000000000000e+00 0.0 0.0 
1.000000000000e+00 0.0 0.0 
1.000000000000e+00 0.0 0.0 
1.000000000000e+00 0.0 0.0 
1.000000000000e+00 0.0 0.0 
1.000000000000e+00 0.0 0.0 
1.000000000000e+00 0.0 0.0 
1.000000000000e+00 0.0 0.0 
1.000000000000e+00 0.0 0.0 
1.000000000000e+00 0.0 0.0 
1.000000000000e+00 0.0 0.0 
1.000000000000e+00 0.0 0.0 
1.000000000000e+00 0.0 0.0 
1.000000000000e+00 0.0 0.0 
1.000000000000e+00 0.0 0.0 
1.000000000000e+00 0.0 0.0 
1.000000000000e+00 0.0 0.0 
1.000000000000e+00 0.0 0.0 
1.000000000000e+00 0.0 0.0 
1.000000000000e+00 0.0 0.0 
1.000000000000e+00 0.0 0.0 
1.000000000000e+00 0.0 0.0 
1.000000000000e+00 0.0 0.0 
1.000000000000e+00 0.0 0.0 
1.000000000000e+00 0.0 0.0 
1.000000000000e+00 0.0 0.0 
1.000000000000e+00 0.0 0.0 
1.000000000000e+00 0.0 0.0 
1.000000000000e+00 0.0 0.0 
1.000000000000e+00 0.0 0.0 
1.000000000000e+00 0.0 0.0 
1.000000000000e+00 0.0 0.0 
1.000000000000e+00 0.0 0.0 
1.000000000000e+00 0.0 0.0 
1.000000000000e+00 0.0 0.0 
1.000000000000e+00 0.0 0.0 
1.000000000000e+00 0.0 0.0 
1.000000000000e+00 0.0 0.0 
1.000000000000e+00 0.0 0.0 
1.000000000000e+00 0.0 0.0 
1.000000000000e+00 0.0 0.0 
1.000000000000e+00 0.0 0.0 
1.000000000000e+00 0.0 0.0 
1.000000000000e+00 0.0 0.0 
1.000000000000e+00 0.0 0.0 
0.0 0.0 0.0 
0.0 0.0 0.0 
0.0 0.0 0.0 
0.0 0.0 0.0 
0.0 0.0 0.0 
0.0 0.0 0.0 
0.0 0.0 0.0 
0.0 0.0 0.0 
0.0 0.0 0.0 
0.0 0.0 0.0 
0.0 0.0 0.0 
1.000000000000e+00 0.0 0.0 
1.000000000000e+00 0.0 0.0 
1.000000000000e+00 0.0 0.0 
0.0 0.0 0.0 
0.0 0.0 0.0 
0.0 0.0 0.0 
0.0 0.0 0.0 
0.0 0.0 0.0 
0.0 0.0 0.0 
0.0 0.0 0.0 
0.0 0.0 0.0 
0.0 0.0 0.0 
0.0 0.0 0.0 
0.0 0.0 0.0 
0.0 0.0 0.0 
0.0 0.0 0.0 
0.0 0.0 0.0 
0.0 0.0 0.0 
0.0 0.0 0.0 
0.0 0.0 0.0 
0.0 0.0 0.0 
0.0 0.0 0.0 
0.0 0.0 0.0 
0.0 0.0 0.0 
0.0 0.0 0.0 
0.0 0.0 0.0 
0.0 0.0 0.0 
0.0 0.0 0.0 
0.0 0.0 0.0 
0.0 0.0 0.0 
0.0 0.0 0.0 
0.0 0.0 0.0 
0.0 0.0 0.0 
0.0 0.0 0.0 
0.0 0.0 0.0 
0.0 0.0 0.0 
0.0 0.0 0.0 
0.0 0.0 0.0 
0.0 0.0 0.0 
0.0 0.0 0.0 
0.0 0.0 0.0 
0.0 0.0 0.0 
0.0 0.0 0.0 
0.0 0.0 0.0 
0.0 0.0 0.0 
0.0 0.0 0.0 
0.0 0.0 0.0 
0.0 0.0 0.0 
0.0 0.0 0.0 
0.0 0.0 0.0 
0.0 0.0 0.0 
0.0 0.0 0.0 
0.0 0.0 0.0 
0.0 0.0 0.0 
0.0 0.0 0.0 
0.0 0.0 0.0 
0.0 0.0 0.0 
0.0 0.0 0.0 
0.0 0.0 0.0 
0.0 0.0 0.0 
0.0 0.0 0.0 
0.0 0.0 0.0 
0.0 0.0 0.0 
0.0 0.0 0.0 
0.0 0.0 0.0 
0.0 0.0 0.0 
0.0 0.0 0.0 
0.0 0.0 0.0 
0.0 0.0 0.0 
0.0 0.0 0.0 
0.0 0.0 0.0 
0.0 0.0 0.0 
0.0 0.0 0.0 
0.0 0.0 0.0 
0.0 0.0 0.0 
0.0 0.0 0.0 
0.0 0.0 0.0 
0.0 0.0 0.0 
0.0 0.0 0.0 
0.0 0.0 0.0 
0.0 0.0 0.0 
0.0 0.0 0.0 
0.0 0.0 0.0 
0.0 0.0 0.0 
0.0 0.0 0.0 
0.0 0.0 0.0 
0.0 0.0 0.0 
0.0 0.0 0.0 
0.0 0.0 0.0 
0.0 0.0 0.0 
0.0 0.0 0.0 
0.0 0.0 0.0 
0.0 0.0 0.0 
0.0 0.0 0.0 
0.0 0.0 0.0 
0.0 0.0 0.0 
0.0 0.0 0.0 
0.0 0.0 0.0 
0.0 0.0 0.0 
0.0 0.0 0.0 
0.0 0.0 0.0 
0.0 0.0 0.0 
0.0 0.0 0.0 
0.0 0.0 0.0 
0.0 0.0 0.0 
0.0 0.0 0.0 
0.0 0.0 0.0 
0.0 0.0 0.0 
0.0 0.0 0.0 
0.0 0.0 0.0 
0.0 0.0 0.0 
0.0 0.0 0.0 
0.0 0.0 0.0 
0.0 0.0 0.0 
0.0 0.0 0.0 
0.0 0.0 0.0 
0.0 0.0 0.0 
0.0 0.0 0.0 
0.0 0.0 0.0 
0.0 0.0 0.0 
0.0 0.0 0.0 
0.0 0.0 0.0 
0.0 0.0 0.0 
0.0 0.0 0.0 
0.0 0.0 0.0 
0.0 0.0 0.0 
0.0 0.0 0.0 
0.0 0.0 0.0 
0.0 0.0 0.0 
0.0 0.0 0.0 
0.0 0.0 0.0 
0.0 0.0 0.0 
0.0 0.0 0.0 
0.0 0.0 0.0 
0.0 0.0 0.0 
0.0 0.0 0.0 
0.0 0.0 0.0 
0.0 0.0 0.0 
0.0 0.0 0.0 
0.0 0.0 0.0 
0.0 0.0 0.0 
0.0 0.0 0.0 
0.0 0.0 0.0 
0.0 0.0 0.0 
0.0 0.0 0.0 
0.0 0.0 0.0 
0.0 0.0 0.0 
0.0 0.0 0.0 
0.0 0.0 0.0 
0.0 0.0 0.0 
0.0 0.0 0.0 
0.0 0.0 0.0 
0.0 0.0 0.0 
0.0 0.0 0.0 
0.0 0.0 0.0 
0.0 0.0 0.0 
0.0 0.0 0.0 
0.0 0.0 0.0 
0.0 0.0 0.0 
0.0 0.0 0.0 
0.0 0.0 0.0 
0.0 0.0 0.0 
0.0 0.0 0.0 
0.0 0.0 0.0 
0.0 0.0 0.0 
0.0 0.0 0.0 
0.0 0.0 0.0 
0.0 0.0 0.0 
0.0 0.0 0.0 
0.0 0.0 0.0 
0.0 0.0 0.0 
0.0 0.0 0.0 
0.0 0.0 0.0 
0.0 0.0 0.0 
0.0 0.0 0.0 
0.0 0.0 0.0 
0.0 0.0 0.0 
0.0 0.0 0.0 
0.0 0.0 0.0 
0.0 0.0 0.0 
0.0 0.0 0.0 
0.0 0.0 0.0 
0.0 0.0 0.0 
0.0 0.0 0.0 
0.0 0.0 0.0 
0.0 0.0 0.0 
0.0 0.0 0.0 
0.0 0.0 0.0 
0.0 0.0 0.0 
0.0 0.0 0.0 
0.0 0.0 0.0 
0.0 0.0 0.0 
0.0 0.0 0.0 
0.0 0.0 0.0 
0.0 0.0 0.0 
0.0 0.0 0.0 
0.0 0.0 0.0 
0.0 0.0 0.0 
0.0 0.0 0.0 
0.0 0.0 0.0 
0.0 0.0 0.0 
0.0 0.0 0.0 
0.0 0.0 0.0 
0.0 0.0 0.0 
0.0 0.0 0.0 
0.0 0.0 0.0 
0.0 0.0 0.0 
0.0 0.0 0.0 
0.0 0.0 0.0 
0.0 0.0 0.0 
0.0 0.0 0.0 
0.0 0.0 0.0 
0.0 0.0 0.0 
0.0 0.0 0.0 
0.0 0.0 0.0 
0.0 0.0 0.0 
0.0 0.0 0.0 
0.0 0.0 0.0 
0.0 0.0 0.0 
0.0 0.0 0.0 
0.0 0.0 0.0 
0.0 0.0 0.0 
0.0 0.0 0.0 
0.0 0.0 0.0 
0.0 0.0 0.0 
0.0 0.0 0.0 
0.0 0.0 0.0 
0.0 0.0 0.0 
0.0 0.0 0.0 
0.0 0.0 0.0 
0.0 0.0 0.0 
0.0 0.0 0.0 
0.0 0.0 0.0 
0.0 0.0 0.0 
0.0 0.0 0.0 
0.0 0.0 0.0 
0.0 0.0 0.0 
0.0 0.0 0.0 
0.0 0.0 0.0 
0.0 0.0 0.0 
0.0 0.0 0.0 
0.0 0.0 0.0 
0.0 0.0 0.0 
0.0 0.0 0.0 
0.0 0.0 0.0 
0.0 0.0 0.0 
0.0 0.0 0.0 
0.0 0.0 0.0 
0.0 0.0 0.0 
0.0 0.0 0.0 
0.0 0.0 0.0 
0.0 0.0 0.0 
0.0 0.0 0.0 
0.0 0.0 0.0 
0.0 0.0 0.0 
0.0 0.0 0.0 
0.0 0.0 0.0 
0.0 0.0 0.0 
0.0 0.0 0.0 
0.0 0.0 0.0 
0.0 0.0 0.0 
0.0 0.0 0.0 
0.0 0.0 0.0 
0.0 0.0 0.0 
0.0 0.0 0.0 
0.0 0.0 0.0 
0.0 0.0 0.0 
0.0 0.0 0.0 
0.0 0.0 0.0 
0.0 0.0 0.0 
0.0 0.0 0.0 
0.0 0.0 0.0 
0.0 0.0 0.0 
0.0 0.0 0.0 
0.0 0.0 0.0 
0.0 0.0 0.0 
0.0 0.0 0.0 
0.0 0.0 0.0 
0.0 0.0 0.0 
0.0 0.0 0.0 
0.0 0.0 0.0 
0.0 0.0 0.0 
0.0 0.0 0.0 
0.0 0.0 0.0 
0.0 0.0 0.0 
0.0 0.0 0.0 
0.0 0.0 0.0 
0.0 0.0 0.0 
0.0 0.0 0.0 
0.0 0.0 0.0 
0.0 0.0 0.0 
0.0 0.0 0.0 
0.0 0.0 0.0 
0.0 0.0 0.0 
0.0 0.0 0.0 
0.0 0.0 0.0 
0.0 0.0 0.0 
0.0 0.0 0.0 
0.0 0.0 0.0 
0.0 0.0 0.0 
0.0 0.0 0.0 
0.0 0.0 0.0 
0.0 0.0 0.0 
0.0 0.0 0.0 
0.0 0.0 0.0 
0.0 0.0 0.0 
0.0 0.0 0.0 
0.0 0.0 0.0 
0.0 0.0 0.0 
0.0 0.0 0.0 
0.0 0.0 0.0 
0.0 0.0 0.0 
0.0 0.0 0.0 
0.0 0.0 0.0 
0.0 0.0 0.0 
0.0 0.0 0.0 
0.0 0.0 0.0 
0.0 0.0 0.0 
0.0 0.0 0.0 
0.0 0.0 0.0 
0.0 0.0 0.0 
0.0 0.0 0.0 
0.0 0.0 0.0 
0.0 0.0 0.0 
0.0 0.0 0.0 
0.0 0.0 0.0 
0.0 0.0 0.0 
0.0 0.0 0.0 
0.0 0.0 0.0 
0.0 0.0 0.0 
0.0 0.0 0.0 
0.0 0.0 0.0 
0.0 0.0 0.0 
0.0 0.0 0.0 
0.0 0.0 0.0 
0.0 0.0 0.0 
0.0 0.0 0.0 
0.0 0.0 0.0 
0.0 0.0 0.0 
0.0 0.0 0.0 
0.0 0.0 0.0 
0.0 0.0 0.0 
0.0 0.0 0.0 
0.0 0.0 0.0 
0.0 0.0 0.0 
0.0 0.0 0.0 
0.0 0.0 0.0 
0.0 0.0 0.0 
0.0 0.0 0.0 
0.0 0.0 0.0 
0.0 0.0 0.0 
0.0 0.0 0.0 
0.0 0.0 0.0 
0.0 0.0 0.0 
0.0 0.0 0.0 
0.0 0.0 0.0 
0.0 0.0 0.0 
0.0 0.0 0.0 
0.0 0.0 0.0 
0.0 0.0 0.0 
0.0 0.0 0.0 
0.0 0.0 0.0 
0.0 0.0 0.0 
0.0 0.0 0.0 
0.0 0.0 0.0 
0.0 0.0 0.0 
0.0 0.0 0.0 
0.0 0.0 0.0 
0.0 0.0 0.0 
0.0 0.0 0.0 
0.0 0.0 0.0 
0.0 0.0 0.0 
0.0 0.0 0.0 
0.0 0.0 0.0 
0.0 0.0 0.0 
0.0 0.0 0.0 
0.0 0.0 0.0 
0.0 0.0 0.0 
0.0 0.0 0.0 
0.0 0.0 0.0 
0.0 0.0 0.0 
0.0 0.0 0.0 
0.0 0.0 0.0 
0.0 0.0 0.0 
0.0 0.0 0.0 
0.0 0.0 0.0 
0.0 0.0 0.0 
0.0 0.0 0.0 
0.0 0.0 0.0 
0.0 0.0 0.0 
0.0 0.0 0.0 
0.0 0.0 0.0 
0.0 0.0 0.0 
0.0 0.0 0.0 
0.0 0.0 0.0 
0.0 0.0 0.0 
0.0 0.0 0.0 
0.0 0.0 0.0 
0.0 0.0 0.0 
0.0 0.0 0.0 
0.0 0.0 0.0 
0.0 0.0 0.0 
0.0 0.0 0.0 
0.0 0.0 0.0 
0.0 0.0 0.0 
0.0 0.0 0.0 
0.0 0.0 0.0 
0.0 0.0 0.0 
0.0 0.0 0.0 
0.0 0.0 0.0 
0.0 0.0 0.0 
0.0 0.0 0.0 
0.0 0.0 0.0 
0.0 0.0 0.0 
0.0 0.0 0.0 
0.0 0.0 0.0 
0.0 0.0 0.0 
0.0 0.0 0.0 
0.0 0.0 0.0 
0.0 0.0 0.0 
0.0 0.0 0.0 
0.0 0.0 0.0 
0.0 0.0 0.0 
0.0 0.0 0.0 
0.0 0.0 0.0 
0.0 0.0 0.0 
0.0 0.0 0.0 
0.0 0.0 0.0 
0.0 0.0 0.0 
0.0 0.0 0.0 
0.0 0.0 0.0 
0.0 0.0 0.0 
0.0 0.0 0.0 
0.0 0.0 0.0 
0.0 0.0 0.0 
0.0 0.0 0.0 
0.0 0.0 0.0 
0.0 0.0 0.0 
0.0 0.0 0.0 
0.0 0.0 0.0 
0.0 0.0 0.0 
0.0 0.0 0.0 
0.0 0.0 0.0 
0.0 0.0 0.0 
0.0 0.0 0.0 
0.0 0.0 0.0 
0.0 0.0 0.0 
0.0 0.0 0.0 
0.0 0.0 0.0 
0.0 0.0 0.0 
0.0 0.0 0.0 
0.0 0.0 0.0 
0.0 0.0 0.0 
0.0 0.0 0.0 
0.0 0.0 0.0 
0.0 0.0 0.0 
0.0 0.0 0.0 
0.0 0.0 0.0 
0.0 0.0 0.0 
0.0 0.0 0.0 
0.0 0.0 0.0 
0.0 0.0 0.0 
0.0 0.0 0.0 
0.0 0.0 0.0 
0.0 0.0 0.0 
0.0 0.0 0.0 
0.0 0.0 0.0 
0.0 0.0 0.0 
0.0 0.0 0.0 
0.0 0.0 0.0 
0.0 0.0 0.0 
0.0 0.0 0.0 
0.0 0.0 0.0 
0.0 0.0 0.0 
0.0 0.0 0.0 
0.0 0.0 0.0 
0.0 0.0 0.0 
0.0 0.0 0.0 
0.0 0.0 0.0 
0.0 0.0 0.0 
0.0 0.0 0.0 
0.0 0.0 0.0 
0.0 0.0 0.0 
0.0 0.0 0.0 
0.0 0.0 0.0 
0.0 0.0 0.0 
0.0 0.0 0.0 
0.0 0.0 0.0 
0.0 0.0 0.0 
0.0 0.0 0.0 
0.0 0.0 0.0 
0.0 0.0 0.0 
0.0 0.0 0.0 
0.0 0.0 0.0 
0.0 0.0 0.0 
0.0 0.0 0.0 
0.0 0.0 0.0 
0.0 0.0 0.0 
0.0 0.0 0.0 
0.0 0.0 0.0 
0.0 0.0 0.0 
0.0 0.0 0.0 
0.0 0.0 0.0 
0.0 0.0 0.0 
0.0 0.0 0.0 
0.0 0.0 0.0 
0.0 0.0 0.0 
0.0 0.0 0.0 
0.0 0.0 0.0 
0.0 0.0 0.0 
0.0 0.0 0.0 
0.0 0.0 0.0 
0.0 0.0 0.0 
0.0 0.0 0.0 
0.0 0.0 0.0 
0.0 0.0 0.0 
0.0 0.0 0.0 
0.0 0.0 0.0 
0.0 0.0 0.0 
0.0 0.0 0.0 
0.0 0.0 0.0 
0.0 0.0 0.0 
0.0 0.0 0.0 
0.0 0.0 0.0 
0.0 0.0 0.0 
0.0 0.0 0.0 
0.0 0.0 0.0 
0.0 0.0 0.0 
0.0 0.0 0.0 
0.0 0.0 0.0 
0.0 0.0 0.0 
0.0 0.0 0.0 
0.0 0.0 0.0 
0.0 0.0 0.0 
0.0 0.0 0.0 
0.0 0.0 0.0 
0.0 0.0 0.0 
0.0 0.0 0.0 
0.0 0.0 0.0 
0.0 0.0 0.0 
0.0 0.0 0.0 
0.0 0.0 0.0 
0.0 0.0 0.0 
0.0 0.0 0.0 
0.0 0.0 0.0 
0.0 0.0 0.0 
0.0 0.0 0.0 
0.0 0.0 0.0 
0.0 0.0 0.0 
0.0 0.0 0.0 
0.0 0.0 0.0 
0.0 0.0 0.0 
0.0 0.0 0.0 
0.0 0.0 0.0 
0.0 0.0 0.0 
0.0 0.0 0.0 
0.0 0.0 0.0 
0.0 0.0 0.0 
0.0 0.0 0.0 
0.0 0.0 0.0 
0.0 0.0 0.0 
0.0 0.0 0.0 
0.0 0.0 0.0 
0.0 0.0 0.0 
0.0 0.0 0.0 
0.0 0.0 0.0 
0.0 0.0 0.0 
0.0 0.0 0.0 
0.0 0.0 0.0 
0.0 0.0 0.0 
0.0 0.0 0.0 
0.0 0.0 0.0 
0.0 0.0 0.0 
0.0 0.0 0.0 
0.0 0.0 0.0 
0.0 0.0 0.0 
0.0 0.0 0.0 
0.0 0.0 0.0 
0.0 0.0 0.0 
0.0 0.0 0.0 
0.0 0.0 0.0 
0.0 0.0 0.0 
0.0 0.0 0.0 
0.0 0.0 0.0 
0.0 0.0 0.0 
0.0 0.0 0.0 
0.0 0.0 0.0 
0.0 0.0 0.0 
0.0 0.0 0.0 
0.0 0.0 0.0 
0.0 0.0 0.0 
0.0 0.0 0.0 
0.0 0.0 0.0 
0.0 0.0 0.0 
0.0 0.0 0.0 
0.0 0.0 0.0 
0.0 0.0 0.0 
0.0 0.0 0.0 
0.0 0.0 0.0 
0.0 0.0 0.0 
0.0 0.0 0.0 
0.0 0.0 0.0 
0.0 0.0 0.0 
0.0 0.0 0.0 
0.0 0.0 0.0 
0.0 0.0 0.0 
0.0 0.0 0.0 
0.0 0.0 0.0 
0.0 0.0 0.0 
0.0 0.0 0.0 
0.0 0.0 0.0 
0.0 0.0 0.0 
0.0 0.0 0.0 
0.0 0.0 0.0 
0.0 0.0 0.0 
0.0 0.0 0.0 
0.0 0.0 0.0 
0.0 0.0 0.0 
0.0 0.0 0.0 
0.0 0.0 0.0 
0.0 0.0 0.0 
0.0 0.0 0.0 
0.0 0.0 0.0 
0.0 0.0 0.0 
0.0 0.0 0.0 
0.0 0.0 0.0 
0.0 0.0 0.0 
0.0 0.0 0.0 
0.0 0.0 0.0 
0.0 0.0 0.0 
0.0 0.0 0.0 
0.0 0.0 0.0 
0.0 0.0 0.0 
0.0 0.0 0.0 
0.0 0.0 0.0 
0.0 0.0 0.0 
0.0 0.0 0.0 
0.0 0.0 0.0 
0.0 0.0 0.0 
0.0 0.0 0.0 
0.0 0.0 0.0 
0.0 0.0 0.0 
0.0 0.0 0.0 
0.0 0.0 0.0 
0.0 0.0 0.0 
0.0 0.0 0.0 
0.0 0.0 0.0 
0.0 0.0 0.0 
0.0 0.0 0.0 
0.0 0.0 0.0 
0.0 0.0 0.0 
0.0 0.0 0.0 
0.0 0.0 0.0 
0.0 0.0 0.0 
0.0 0.0 0.0 
0.0 0.0 0.0 
0.0 0.0 0.0 
0.0 0.0 0.0 
0.0 0.0 0.0 
0.0 0.0 0.0 
0.0 0.0 0.0 
0.0 0.0 0.0 
0.0 0.0 0.0 
0.0 0.0 0.0 
0.0 0.0 0.0 
0.0 0.0 0.0 
0.0 0.0 0.0 
0.0 0.0 0.0 
0.0 0.0 0.0 
0.0 0.0 0.0 
0.0 0.0 0.0 
0.0 0.0 0.0 
0.0 0.0 0.0 
0.0 0.0 0.0 
0.0 0.0 0.0 
0.0 0.0 0.0 
0.0 0.0 0.0 
0.0 0.0 0.0 
0.0 0.0 0.0 
0.0 0.0 0.0 
0.0 0.0 0.0 
0.0 0.0 0.0 
0.0 0.0 0.0 
0.0 0.0 0.0 
0.0 0.0 0.0 
0.0 0.0 0.0 
0.0 0.0 0.0 
0.0 0.0 0.0 
0.0 0.0 0.0 
0.0 0.0 0.0 
0.0 0.0 0.0 
0.0 0.0 0.0 
0.0 0.0 0.0 
0.0 0.0 0.0 
0.0 0.0 0.0 
0.0 0.0 0.0 
0.0 0.0 0.0 
0.0 0.0 0.0 
0.0 0.0 0.0 
0.0 0.0 0.0 
0.0 0.0 0.0 
0.0 0.0 0.0 
0.0 0.0 0.0 
0.0 0.0 0.0 
0.0 0.0 0.0 
0.0 0.0 0.0 
0.0 0.0 0.0 
0.0 0.0 0.0 
0.0 0.0 0.0 
0.0 0.0 0.0 
0.0 0.0 0.0 
0.0 0.0 0.0 
0.0 0.0 0.0 
0.0 0.0 0.0 
0.0 0.0 0.0 
0.0 0.0 0.0 
0.0 0.0 0.0 
0.0 0.0 0.0 
0.0 0.0 0.0 
0.0 0.0 0.0 
0.0 0.0 0.0 
0.0 0.0 0.0 
0.0 0.0 0.0 
0.0 0.0 0.0 
0.0 0.0 0.0 
0.0 0.0 0.0 
0.0 0.0 0.0 
0.0 0.0 0.0 
0.0 0.0 0.0 
0.0 0.0 0.0 
0.0 0.0 0.0 
0.0 0.0 0.0 
0.0 0.0 0.0 
0.0 0.0 0.0 
0.0 0.0 0.0 
0.0 0.0 0.0 
0.0 0.0 0.0 
0.0 0.0 0.0 
0.0 0.0 0.0 
0.0 0.0 0.0 
0.0 0.0 0.0 
0.0 0.0 0.0 
0.0 0.0 0.0 
0.0 0.0 0.0 
0.0 0.0 0.0 
0.0 0.0 0.0 
0.0 0.0 0.0 
0.0 0.0 0.0 
0.0 0.0 0.0 
0.0 0.0 0.0 
0.0 0.0 0.0 
0.0 0.0 0.0 
0.0 0.0 0.0 
0.0 0.0 0.0 
0.0 0.0 0.0 
0.0 0.0 0.0 
0.0 0.0 0.0 
0.0 0.0 0.0 
0.0 0.0 0.0 
0.0 0.0 0.0 
0.0 0.0 0.0 
0.0 0.0 0.0 
0.0 0.0 0.0 
0.0 0.0 0.0 
0.0 0.0 0.0 
0.0 0.0 0.0 
0.0 0.0 0.0 
0.0 0.0 0.0 
0.0 0.0 0.0 
0.0 0.0 0.0 
0.0 0.0 0.0 
0.0 0.0 0.0 
0.0 0.0 0.0 
0.0 0.0 0.0 
0.0 0.0 0.0 
0.0 0.0 0.0 
0.0 0.0 0.0 
0.0 0.0 0.0 
0.0 0.0 0.0 
0.0 0.0 0.0 
0.0 0.0 0.0 
0.0 0.0 0.0 
0.0 0.0 0.0 
0.0 0.0 0.0 
0.0 0.0 0.0 
0.0 0.0 0.0 
0.0 0.0 0.0 
0.0 0.0 0.0 
0.0 0.0 0.0 
0.0 0.0 0.0 
0.0 0.0 0.0 
0.0 0.0 0.0 
0.0 0.0 0.0 
0.0 0.0 0.0 
0.0 0.0 0.0 
0.0 0.0 0.0 
0.0 0.0 0.0 
0.0 0.0 0.0 
0.0 0.0 0.0 
0.0 0.0 0.0 
0.0 0.0 0.0 
0.0 0.0 0.0 
0.0 0.0 0.0 
0.0 0.0 0.0 
0.0 0.0 0.0 
0.0 0.0 0.0 
0.0 0.0 0.0 
0.0 0.0 0.0 
0.0 0.0 0.0 
0.0 0.0 0.0 
0.0 0.0 0.0 
0.0 0.0 0.0 
0.0 0.0 0.0 
0.0 0.0 0.0 
0.0 0.0 0.0 
0.0 0.0 0.0 
0.0 0.0 0.0 
0.0 0.0 0.0 
0.0 0.0 0.0 
0.0 0.0 0.0 
0.0 0.0 0.0 
0.0 0.0 0.0 
0.0 0.0 0.0 
0.0 0.0 0.0 
0.0 0.0 0.0 
0.0 0.0 0.0 
0.0 0.0 0.0 
0.0 0.0 0.0 
0.0 0.0 0.0 
0.0 0.0 0.0 
0.0 0.0 0.0 
0.0 0.0 0.0 
0.0 0.0 0.0 
0.0 0.0 0.0 
0.0 0.0 0.0 
0.0 0.0 0.0 
0.0 0.0 0.0 
0.0 0.0 0.0 
0.0 0.0 0.0 
0.0 0.0 0.0 
0.0 0.0 0.0 
0.0 0.0 0.0 
0.0 0.0 0.0 
0.0 0.0 0.0 
0.0 0.0 0.0 
0.0 0.0 0.0 
0.0 0.0 0.0 
0.0 0.0 0.0 
0.0 0.0 0.0 
0.0 0.0 0.0 
0.0 0.0 0.0 
0.0 0.0 0.0 
0.0 0.0 0.0 
0.0 0.0 0.0 
0.0 0.0 0.0 
0.0 0.0 0.0 
0.0 0.0 0.0 
0.0 0.0 0.0 
0.0 0.0 0.0 
0.0 0.0 0.0 
0.0 0.0 0.0 
0.0 0.0 0.0 
0.0 0.0 0.0 
0.0 0.0 0.0 
0.0 0.0 0.0 
0.0 0.0 0.0 
0.0 0.0 0.0 
0.0 0.0 0.0 
0.0 0.0 0.0 
0.0 0.0 0.0 
0.0 0.0 0.0 
0.0 0.0 0.0 
0.0 0.0 0.0 
0.0 0.0 0.0 
0.0 0.0 0.0 
0.0 0.0 0.0 
0.0 0.0 0.0 
0.0 0.0 0.0 
0.0 0.0 0.0 
0.0 0.0 0.0 
0.0 0.0 0.0 
0.0 0.0 0.0 
0.0 0.0 0.0 
0.0 0.0 0.0 
0.0 0.0 0.0 
0.0 0.0 0.0 
0.0 0.0 0.0 
0.0 0.0 0.0 
0.0 0.0 0.0 
0.0 0.0 0.0 
0.0 0.0 0.0 
0.0 0.0 0.0 
0.0 0.0 0.0 
0.0 0.0 0.0 
0.0 0.0 0.0 
0.0 0.0 0.0 
0.0 0.0 0.0 
0.0 0.0 0.0 
0.0 0.0 0.0 
0.0 0.0 0.0 
0.0 0.0 0.0 
0.0 0.0 0.0 
0.0 0.0 0.0 
0.0 0.0 0.0 
0.0 0.0 0.0 
0.0 0.0 0.0 
0.0 0.0 0.0 
0.0 0.0 0.0 
0.0 0.0 0.0 
0.0 0.0 0.0 
0.0 0.0 0.0 
0.0 0.0 0.0 
0.0 0.0 0.0 
0.0 0.0 0.0 
0.0 0.0 0.0 
0.0 0.0 0.0 
0.0 0.0 0.0 
0.0 0.0 0.0 
0.0 0.0 0.0 
0.0 0.0 0.0 
0.0 0.0 0.0 
0.0 0.0 0.0 
0.0 0.0 0.0 
0.0 0.0 0.0 
0.0 0.0 0.0 
0.0 0.0 0.0 
0.0 0.0 0.0 
0.0 0.0 0.0 
0.0 0.0 0.0 
0.0 0.0 0.0 
0.0 0.0 0.0 
0.0 0.0 0.0 
0.0 0.0 0.0 
0.0 0.0 0.0 
0.0 0.0 0.0 
0.0 0.0 0.0 
0.0 0.0 0.0 
0.0 0.0 0.0 
0.0 0.0 0.0 
0.0 0.0 0.0 
0.0 0.0 0.0 
0.0 0.0 0.0 
0.0 0.0 0.0 
0.0 0.0 0.0 
0.0 0.0 0.0 
0.0 0.0 0.0 
0.0 0.0 0.0 
0.0 0.0 0.0 
0.0 0.0 0.0 
0.0 0.0 0.0 
0.0 0.0 0.0 
0.0 0.0 0.0 
0.0 0.0 0.0 
0.0 0.0 0.0 
0.0 0.0 0.0 
0.0 0.0 0.0 
0.0 0.0 0.0 
0.0 0.0 0.0 
0.0 0.0 0.0 
0.0 0.0 0.0 
0.0 0.0 0.0 
0.0 0.0 0.0 
0.0 0.0 0.0 
0.0 0.0 0.0 
0.0 0.0 0.0 
0.0 0.0 0.0 
0.0 0.0 0.0 
0.0 0.0 0.0 
0.0 0.0 0.0 
0.0 0.0 0.0 
0.0 0.0 0.0 
0.0 0.0 0.0 
0.0 0.0 0.0 
0.0 0.0 0.0 
0.0 0.0 0.0 
0.0 0.0 0.0 
0.0 0.0 0.0 
0.0 0.0 0.0 
0.0 0.0 0.0 
0.0 0.0 0.0 
0.0 0.0 0.0 
0.0 0.0 0.0 
0.0 0.0 0.0 
0.0 0.0 0.0 
0.0 0.0 0.0 
0.0 0.0 0.0 
0.0 0.0 0.0 
0.0 0.0 0.0 
0.0 0.0 0.0 
0.0 0.0 0.0 
0.0 0.0 0.0 
0.0 0.0 0.0 
0.0 0.0 0.0 
0.0 0.0 0.0 
0.0 0.0 0.0 
0.0 0.0 0.0 
0.0 0.0 0.0 

VECTORS node_bounda_dof_materi_velocity_y float
0.0 0.0 0.0 
0.0 0.0 0.0 
0.0 1.000000000000e+00 0.0 
0.0 1.000000000000e+00 0.0 
0.0 0.0 0.0 
0.0 0.0 0.0 
0.0 0.0 0.0 
0.0 0.0 0.0 
0.0 0.0 0.0 
0.0 0.0 0.0 
0.0 0.0 0.0 
0.0 0.0 0.0 
0.0 0.0 0.0 
0.0 0.0 0.0 
0.0 0.0 0.0 
0.0 0.0 0.0 
0.0 0.0 0.0 
0.0 0.0 0.0 
0.0 0.0 0.0 
0.0 0.0 0.0 
0.0 0.0 0.0 
0.0 0.0 0.0 
0.0 0.0 0.0 
0.0 1.000000000000e+00 0.0 
0.0 1.000000000000e+00 0.0 
0.0 1.000000000000e+00 0.0 
0.0 1.000000000000e+00 0.0 
0.0 1.000000000000e+00 0.0 
0.0 1.000000000000e+00 0.0 
0.0 1.000000000000e+00 0.0 
0.0 1.000000000000e+00 0.0 
0.0 1.000000000000e+00 0.0 
0.0 1.000000000000e+00 0.0 
0.0 1.000000000000e+00 0.0 
0.0 1.000000000000e+00 0.0 
0.0 1.000000000000e+00 0.0 
0.0 1.000000000000e+00 0.0 
0.0 1.000000000000e+00 0.0 
0.0 1.000000000000e+00 0.0 
0.0 1.000000000000e+00 0.0 
0.0 1.000000000000e+00 0.0 
0.0 1.000000000000e+00 0.0 
0.0 1.000000000000e+00 0.0 
0.0 1.000000000000e+00 0.0 
0.0 1.000000000000e+00 0.0 
0.0 1.000000000000e+00 0.0 
0.0 1.000000000000e+00 0.0 
0.0 1.000000000000e+00 0.0 
0.0 1.000000000000e+00 0.0 
0.0 1.000000000000e+00 0.0 
0.0 1.000000000000e+00 0.0 
0.0 1.000000000000e+00 0.0 
0.0 1.000000000000e+00 0.0 
0.0 1.000000000000e+00 0.0 
0.0 1.000000000000e+00 0.0 
0.0 1.000000000000e+00 0.0 
0.0 1.000000000000e+00 0.0 
0.0 1.000000000000e+00 0.0 
0.0 1.000000000000e+00 0.0 
0.0 1.000000000000e+00 0.0 
0.0 1.000000000000e+00 0.0 
0.0 1.000000000000e+00 0.0 
0.0 1.000000000000e+00 0.0 
0.0 1.000000000000e+00 0.0 
0.0 1.000000000000e+00 0.0 
0.0 1.000000000000e+00 0.0 
0.0 1.000000000000e+00 0.0 
0.0 1.000000000000e+00 0.0 
0.0 1.000000000000e+00 0.0 
0.0 1.000000000000e+00 0.0 
0.0 1.000000000000e+00 0.0 
0.0 1.000000000000e+00 0.0 
0.0 0.0 0.0 
0.0 0.0 0.0 
0.0 0.0 0.0 
0.0 0.0 0.0 
0.0 0.0 0.0 
0.0 0.0 0.0 
0.0 0.0 0.0 
0.0 0.0 0.0 
0.0 0.0 0.0 
0.0 0.0 0.0 
0.0 0.0 0.0 
0.0 0.0 0.0 
0.0 0.0 0.0 
0.0 0.0 0.0 
0.0 0.0 0.0 
0.0 0.0 0.0 
0.0 0.0 0.0 
0.0 0.0 0.0 
0.0 0.0 0.0 
0.0 0.0 0.0 
0.0 0.0 0.0 
0.0 0.0 0.0 
0.0 0.0 0.0 
0.0 0.0 0.0 
0.0 0.0 0.0 
0.0 0.0 0.0 
0.0 0.0 0.0 
0.0 0.0 0.0 
0.0 0.0 0.0 
0.0 0.0 0.0 
0.0 0.0 0.0 
0.0 0.0 0.0 
0.0 0.0 0.0 
0.0 0.0 0.0 
0.0 0.0 0.0 
0.0 0.0 0.0 
0.0 0.0 0.0 
0.0 0.0 0.0 
0.0 0.0 0.0 
0.0 0.0 0.0 
0.0 0.0 0.0 
0.0 0.0 0.0 
0.0 0.0 0.0 
0.0 0.0 0.0 
0.0 0.0 0.0 
0.0 0.0 0.0 
0.0 0.0 0.0 
0.0 0.0 0.0 
0.0 0.0 0.0 
0.0 0.0 0.0 
0.0 0.0 0.0 
0.0 0.0 0.0 
0.0 0.0 0.0 
0.0 0.0 0.0 
0.0 0.0 0.0 
0.0 0.0 0.0 
0.0 0.0 0.0 
0.0 0.0 0.0 
0.0 0.0 0.0 
0.0 0.0 0.0 
0.0 0.0 0.0 
0.0 0.0 0.0 
0.0 0.0 0.0 
0.0 0.0 0.0 
0.0 0.0 0.0 
0.0 0.0 0.0 
0.0 0.0 0.0 
0.0 0.0 0.0 
0.0 0.0 0.0 
0.0 0.0 0.0 
0.0 0.0 0.0 
0.0 0.0 0.0 
0.0 0.0 0.0 
0.0 0.0 0.0 
0.0 0.0 0.0 
0.0 0.0 0.0 
0.0 0.0 0.0 
0.0 0.0 0.0 
0.0 0.0 0.0 
0.0 0.0 0.0 
0.0 0.0 0.0 
0.0 0.0 0.0 
0.0 0.0 0.0 
0.0 0.0 0.0 
0.0 0.0 0.0 
0.0 0.0 0.0 
0.0 0.0 0.0 
0.0 0.0 0.0 
0.0 0.0 0.0 
0.0 0.0 0.0 
0.0 0.0 0.0 
0.0 0.0 0.0 
0.0 0.0 0.0 
0.0 0.0 0.0 
0.0 0.0 0.0 
0.0 0.0 0.0 
0.0 0.0 0.0 
0.0 0.0 0.0 
0.0 0.0 0.0 
0.0 0.0 0.0 
0.0 0.0 0.0 
0.0 0.0 0.0 
0.0 0.0 0.0 
0.0 0.0 0.0 
0.0 0.0 0.0 
0.0 0.0 0.0 
0.0 0.0 0.0 
0.0 0.0 0.0 
0.0 0.0 0.0 
0.0 0.0 0.0 
0.0 0.0 0.0 
0.0 0.0 0.0 
0.0 0.0 0.0 
0.0 0.0 0.0 
0.0 0.0 0.0 
0.0 0.0 0.0 
0.0 0.0 0.0 
0.0 0.0 0.0 
0.0 0.0 0.0 
0.0 0.0 0.0 
0.0 0.0 0.0 
0.0 0.0 0.0 
0.0 0.0 0.0 
0.0 0.0 0.0 
0.0 0.0 0.0 
0.0 0.0 0.0 
0.0 0.0 0.0 
0.0 0.0 0.0 
0.0 0.0 0.0 
0.0 0.0 0.0 
0.0 0.0 0.0 
0.0 0.0 0.0 
0.0 0.0 0.0 
0.0 0.0 0.0 
0.0 0.0 0.0 
0.0 0.0 0.0 
0.0 0.0 0.0 
0.0 0.0 0.0 
0.0 0.0 0.0 
0.0 0.0 0.0 
0.0 0.0 0.0 
0.0 0.0 0.0 
0.0 0.0 0.0 
0.0 0.0 0.0 
0.0 0.0 0.0 
0.0 0.0 0.0 
0.0 0.0 0.0 
0.0 0.0 0.0 
0.0 0.0 0.0 
0.0 0.0 0.0 
0.0 0.0 0.0 
0.0 0.0 0.0 
0.0 0.0 0.0 
0.0 0.0 0.0 
0.0 0.0 0.0 
0.0 0.0 0.0 
0.0 0.0 0.0 
0.0 0.0 0.0 
0.0 0.0 0.0 
0.0 0.0 0.0 
0.0 0.0 0.0 
0.0 0.0 0.0 
0.0 0.0 0.0 
0.0 0.0 0.0 
0.0 0.0 0.0 
0.0 0.0 0.0 
0.0 0.0 0.0 
0.0 0.0 0.0 
0.0 0.0 0.0 
0.0 0.0 0.0 
0.0 0.0 0.0 
0.0 0.0 0.0 
0.0 0.0 0.0 
0.0 0.0 0.0 
0.0 0.0 0.0 
0.0 0.0 0.0 
0.0 0.0 0.0 
0.0 0.0 0.0 
0.0 0.0 0.0 
0.0 0.0 0.0 
0.0 0.0 0.0 
0.0 0.0 0.0 
0.0 0.0 0.0 
0.0 0.0 0.0 
0.0 0.0 0.0 
0.0 0.0 0.0 
0.0 0.0 0.0 
0.0 0.0 0.0 
0.0 0.0 0.0 
0.0 0.0 0.0 
0.0 0.0 0.0 
0.0 0.0 0.0 
0.0 0.0 0.0 
0.0 0.0 0.0 
0.0 0.0 0.0 
0.0 0.0 0.0 
0.0 0.0 0.0 
0.0 0.0 0.0 
0.0 0.0 0.0 
0.0 0.0 0.0 
0.0 0.0 0.0 
0.0 0.0 0.0 
0.0 0.0 0.0 
0.0 0.0 0.0 
0.0 0.0 0.0 
0.0 0.0 0.0 
0.0 0.0 0.0 
0.0 0.0 0.0 
0.0 0.0 0.0 
0.0 0.0 0.0 
0.0 0.0 0.0 
0.0 0.0 0.0 
0.0 0.0 0.0 
0.0 0.0 0.0 
0.0 0.0 0.0 
0.0 0.0 0.0 
0.0 0.0 0.0 
0.0 0.0 0.0 
0.0 0.0 0.0 
0.0 0.0 0.0 
0.0 0.0 0.0 
0.0 0.0 0.0 
0.0 0.0 0.0 
0.0 0.0 0.0 
0.0 0.0 0.0 
0.0 0.0 0.0 
0.0 0.0 0.0 
0.0 0.0 0.0 
0.0 0.0 0.0 
0.0 0.0 0.0 
0.0 0.0 0.0 
0.0 0.0 0.0 
0.0 0.0 0.0 
0.0 0.0 0.0 
0.0 0.0 0.0 
0.0 0.0 0.0 
0.0 0.0 0.0 
0.0 0.0 0.0 
0.0 0.0 0.0 
0.0 0.0 0.0 
0.0 0.0 0.0 
0.0 0.0 0.0 
0.0 0.0 0.0 
0.0 0.0 0.0 
0.0 0.0 0.0 
0.0 0.0 0.0 
0.0 0.0 0.0 
0.0 0.0 0.0 
0.0 0.0 0.0 
0.0 0.0 0.0 
0.0 0.0 0.0 
0.0 0.0 0.0 
0.0 0.0 0.0 
0.0 0.0 0.0 
0.0 0.0 0.0 
0.0 0.0 0.0 
0.0 0.0 0.0 
0.0 0.0 0.0 
0.0 0.0 0.0 
0.0 0.0 0.0 
0.0 0.0 0.0 
0.0 0.0 0.0 
0.0 0.0 0.0 
0.0 0.0 0.0 
0.0 0.0 0.0 
0.0 0.0 0.0 
0.0 0.0 0.0 
0.0 0.0 0.0 
0.0 0.0 0.0 
0.0 0.0 0.0 
0.0 0.0 0.0 
0.0 0.0 0.0 
0.0 0.0 0.0 
0.0 0.0 0.0 
0.0 0.0 0.0 
0.0 0.0 0.0 
0.0 0.0 0.0 
0.0 0.0 0.0 
0.0 0.0 0.0 
0.0 0.0 0.0 
0.0 0.0 0.0 
0.0 0.0 0.0 
0.0 0.0 0.0 
0.0 0.0 0.0 
0.0 0.0 0.0 
0.0 0.0 0.0 
0.0 0.0 0.0 
0.0 0.0 0.0 
0.0 0.0 0.0 
0.0 0.0 0.0 
0.0 0.0 0.0 
0.0 0.0 0.0 
0.0 0.0 0.0 
0.0 0.0 0.0 
0.0 0.0 0.0 
0.0 0.0 0.0 
0.0 0.0 0.0 
0.0 0.0 0.0 
0.0 0.0 0.0 
0.0 0.0 0.0 
0.0 0.0 0.0 
0.0 0.0 0.0 
0.0 0.0 0.0 
0.0 0.0 0.0 
0.0 0.0 0.0 
0.0 0.0 0.0 
0.0 0.0 0.0 
0.0 0.0 0.0 
0.0 0.0 0.0 
0.0 0.0 0.0 
0.0 0.0 0.0 
0.0 0.0 0.0 
0.0 0.0 0.0 
0.0 0.0 0.0 
0.0 0.0 0.0 
0.0 0.0 0.0 
0.0 0.0 0.0 
0.0 0.0 0.0 
0.0 0.0 0.0 
0.0 0.0 0.0 
0.0 0.0 0.0 
0.0 0.0 0.0 
0.0 0.0 0.0 
0.0 0.0 0.0 
0.0 0.0 0.0 
0.0 0.0 0.0 
0.0 0.0 0.0 
0.0 0.0 0.0 
0.0 0.0 0.0 
0.0 0.0 0.0 
0.0 0.0 0.0 
0.0 0.0 0.0 
0.0 0.0 0.0 
0.0 0.0 0.0 
0.0 0.0 0.0 
0.0 0.0 0.0 
0.0 0.0 0.0 
0.0 0.0 0.0 
0.0 0.0 0.0 
0.0 0.0 0.0 
0.0 0.0 0.0 
0.0 0.0 0.0 
0.0 0.0 0.0 
0.0 0.0 0.0 
0.0 0.0 0.0 
0.0 0.0 0.0 
0.0 0.0 0.0 
0.0 0.0 0.0 
0.0 0.0 0.0 
0.0 0.0 0.0 
0.0 0.0 0.0 
0.0 0.0 0.0 
0.0 0.0 0.0 
0.0 0.0 0.0 
0.0 0.0 0.0 
0.0 0.0 0.0 
0.0 0.0 0.0 
0.0 0.0 0.0 
0.0 0.0 0.0 
0.0 0.0 0.0 
0.0 0.0 0.0 
0.0 0.0 0.0 
0.0 0.0 0.0 
0.0 0.0 0.0 
0.0 0.0 0.0 
0.0 0.0 0.0 
0.0 0.0 0.0 
0.0 0.0 0.0 
0.0 0.0 0.0 
0.0 0.0 0.0 
0.0 0.0 0.0 
0.0 0.0 0.0 
0.0 0.0 0.0 
0.0 0.0 0.0 
0.0 0.0 0.0 
0.0 0.0 0.0 
0.0 0.0 0.0 
0.0 0.0 0.0 
0.0 0.0 0.0 
0.0 0.0 0.0 
0.0 0.0 0.0 
0.0 0.0 0.0 
0.0 0.0 0.0 
0.0 0.0 0.0 
0.0 0.0 0.0 
0.0 0.0 0.0 
0.0 0.0 0.0 
0.0 0.0 0.0 
0.0 0.0 0.0 
0.0 0.0 0.0 
0.0 0.0 0.0 
0.0 0.0 0.0 
0.0 0.0 0.0 
0.0 0.0 0.0 
0.0 0.0 0.0 
0.0 0.0 0.0 
0.0 0.0 0.0 
0.0 0.0 0.0 
0.0 0.0 0.0 
0.0 0.0 0.0 
0.0 0.0 0.0 
0.0 0.0 0.0 
0.0 0.0 0.0 
0.0 0.0 0.0 
0.0 0.0 0.0 
0.0 0.0 0.0 
0.0 0.0 0.0 
0.0 0.0 0.0 
0.0 0.0 0.0 
0.0 0.0 0.0 
0.0 0.0 0.0 
0.0 0.0 0.0 
0.0 0.0 0.0 
0.0 0.0 0.0 
0.0 0.0 0.0 
0.0 0.0 0.0 
0.0 0.0 0.0 
0.0 0.0 0.0 
0.0 0.0 0.0 
0.0 0.0 0.0 
0.0 0.0 0.0 
0.0 0.0 0.0 
0.0 0.0 0.0 
0.0 0.0 0.0 
0.0 0.0 0.0 
0.0 0.0 0.0 
0.0 0.0 0.0 
0.0 0.0 0.0 
0.0 0.0 0.0 
0.0 0.0 0.0 
0.0 0.0 0.0 
0.0 0.0 0.0 
0.0 0.0 0.0 
0.0 0.0 0.0 
0.0 0.0 0.0 
0.0 0.0 0.0 
0.0 0.0 0.0 
0.0 0.0 0.0 
0.0 0.0 0.0 
0.0 0.0 0.0 
0.0 0.0 0.0 
0.0 0.0 0.0 
0.0 0.0 0.0 
0.0 0.0 0.0 
0.0 0.0 0.0 
0.0 0.0 0.0 
0.0 0.0 0.0 
0.0 0.0 0.0 
0.0 0.0 0.0 
0.0 0.0 0.0 
0.0 0.0 0.0 
0.0 0.0 0.0 
0.0 0.0 0.0 
0.0 0.0 0.0 
0.0 0.0 0.0 
0.0 0.0 0.0 
0.0 0.0 0.0 
0.0 0.0 0.0 
0.0 0.0 0.0 
0.0 0.0 0.0 
0.0 0.0 0.0 
0.0 0.0 0.0 
0.0 0.0 0.0 
0.0 0.0 0.0 
0.0 0.0 0.0 
0.0 0.0 0.0 
0.0 0.0 0.0 
0.0 0.0 0.0 
0.0 0.0 0.0 
0.0 0.0 0.0 
0.0 0.0 0.0 
0.0 0.0 0.0 
0.0 0.0 0.0 
0.0 0.0 0.0 
0.0 0.0 0.0 
0.0 0.0 0.0 
0.0 0.0 0.0 
0.0 0.0 0.0 
0.0 0.0 0.0 
0.0 0.0 0.0 
0.0 0.0 0.0 
0.0 0.0 0.0 
0.0 0.0 0.0 
0.0 0.0 0.0 
0.0 0.0 0.0 
0.0 0.0 0.0 
0.0 0.0 0.0 
0.0 0.0 0.0 
0.0 0.0 0.0 
0.0 0.0 0.0 
0.0 0.0 0.0 
0.0 0.0 0.0 
0.0 0.0 0.0 
0.0 0.0 0.0 
0.0 0.0 0.0 
0.0 0.0 0.0 
0.0 0.0 0.0 
0.0 0.0 0.0 
0.0 0.0 0.0 
0.0 0.0 0.0 
0.0 0.0 0.0 
0.0 0.0 0.0 
0.0 0.0 0.0 
0.0 0.0 0.0 
0.0 0.0 0.0 
0.0 0.0 0.0 
0.0 0.0 0.0 
0.0 0.0 0.0 
0.0 0.0 0.0 
0.0 0.0 0.0 
0.0 0.0 0.0 
0.0 0.0 0.0 
0.0 0.0 0.0 
0.0 0.0 0.0 
0.0 0.0 0.0 
0.0 0.0 0.0 
0.0 0.0 0.0 
0.0 0.0 0.0 
0.0 0.0 0.0 
0.0 0.0 0.0 
0.0 0.0 0.0 
0.0 0.0 0.0 
0.0 0.0 0.0 
0.0 0.0 0.0 
0.0 0.0 0.0 
0.0 0.0 0.0 
0.0 0.0 0.0 
0.0 0.0 0.0 
0.0 0.0 0.0 
0.0 0.0 0.0 
0.0 0.0 0.0 
0.0 0.0 0.0 
0.0 0.0 0.0 
0.0 0.0 0.0 
0.0 0.0 0.0 
0.0 0.0 0.0 
0.0 0.0 0.0 
0.0 0.0 0.0 
0.0 0.0 0.0 
0.0 0.0 0.0 
0.0 0.0 0.0 
0.0 0.0 0.0 
0.0 0.0 0.0 
0.0 0.0 0.0 
0.0 0.0 0.0 
0.0 0.0 0.0 
0.0 0.0 0.0 
0.0 0.0 0.0 
0.0 0.0 0.0 
0.0 0.0 0.0 
0.0 0.0 0.0 
0.0 0.0 0.0 
0.0 0.0 0.0 
0.0 0.0 0.0 
0.0 0.0 0.0 
0.0 0.0 0.0 
0.0 0.0 0.0 
0.0 0.0 0.0 
0.0 0.0 0.0 
0.0 0.0 0.0 
0.0 0.0 0.0 
0.0 0.0 0.0 
0.0 0.0 0.0 
0.0 0.0 0.0 
0.0 0.0 0.0 
0.0 0.0 0.0 
0.0 0.0 0.0 
0.0 0.0 0.0 
0.0 0.0 0.0 
0.0 0.0 0.0 
0.0 0.0 0.0 
0.0 0.0 0.0 
0.0 0.0 0.0 
0.0 0.0 0.0 
0.0 0.0 0.0 
0.0 0.0 0.0 
0.0 0.0 0.0 
0.0 0.0 0.0 
0.0 0.0 0.0 
0.0 0.0 0.0 
0.0 0.0 0.0 
0.0 0.0 0.0 
0.0 0.0 0.0 
0.0 0.0 0.0 
0.0 0.0 0.0 
0.0 0.0 0.0 
0.0 0.0 0.0 
0.0 0.0 0.0 
0.0 0.0 0.0 
0.0 0.0 0.0 
0.0 0.0 0.0 
0.0 0.0 0.0 
0.0 0.0 0.0 
0.0 0.0 0.0 
0.0 0.0 0.0 
0.0 0.0 0.0 
0.0 0.0 0.0 
0.0 0.0 0.0 
0.0 0.0 0.0 
0.0 0.0 0.0 
0.0 0.0 0.0 
0.0 0.0 0.0 
0.0 0.0 0.0 
0.0 0.0 0.0 
0.0 0.0 0.0 
0.0 0.0 0.0 
0.0 0.0 0.0 
0.0 0.0 0.0 
0.0 0.0 0.0 
0.0 0.0 0.0 
0.0 0.0 0.0 
0.0 0.0 0.0 
0.0 0.0 0.0 
0.0 0.0 0.0 
0.0 0.0 0.0 
0.0 0.0 0.0 
0.0 0.0 0.0 
0.0 0.0 0.0 
0.0 0.0 0.0 
0.0 0.0 0.0 
0.0 0.0 0.0 
0.0 0.0 0.0 
0.0 0.0 0.0 
0.0 0.0 0.0 
0.0 0.0 0.0 
0.0 0.0 0.0 
0.0 0.0 0.0 
0.0 0.0 0.0 
0.0 0.0 0.0 
0.0 0.0 0.0 
0.0 0.0 0.0 
0.0 0.0 0.0 
0.0 0.0 0.0 
0.0 0.0 0.0 
0.0 0.0 0.0 
0.0 0.0 0.0 
0.0 0.0 0.0 
0.0 0.0 0.0 
0.0 0.0 0.0 
0.0 0.0 0.0 
0.0 0.0 0.0 
0.0 0.0 0.0 
0.0 0.0 0.0 
0.0 0.0 0.0 
0.0 0.0 0.0 
0.0 0.0 0.0 
0.0 0.0 0.0 
0.0 0.0 0.0 
0.0 0.0 0.0 
0.0 0.0 0.0 
0.0 0.0 0.0 
0.0 0.0 0.0 
0.0 0.0 0.0 
0.0 0.0 0.0 
0.0 0.0 0.0 
0.0 0.0 0.0 
0.0 0.0 0.0 
0.0 0.0 0.0 
0.0 0.0 0.0 
0.0 0.0 0.0 
0.0 0.0 0.0 
0.0 0.0 0.0 
0.0 0.0 0.0 
0.0 0.0 0.0 
0.0 0.0 0.0 
0.0 0.0 0.0 
0.0 0.0 0.0 
0.0 0.0 0.0 
0.0 0.0 0.0 
0.0 0.0 0.0 
0.0 0.0 0.0 
0.0 0.0 0.0 
0.0 0.0 0.0 
0.0 0.0 0.0 
0.0 0.0 0.0 
0.0 0.0 0.0 
0.0 0.0 0.0 
0.0 0.0 0.0 
0.0 0.0 0.0 
0.0 0.0 0.0 
0.0 0.0 0.0 
0.0 0.0 0.0 
0.0 0.0 0.0 
0.0 0.0 0.0 
0.0 0.0 0.0 
0.0 0.0 0.0 
0.0 0.0 0.0 
0.0 0.0 0.0 
0.0 0.0 0.0 
0.0 0.0 0.0 
0.0 0.0 0.0 
0.0 0.0 0.0 
0.0 0.0 0.0 
0.0 0.0 0.0 
0.0 0.0 0.0 
0.0 0.0 0.0 
0.0 0.0 0.0 
0.0 0.0 0.0 
0.0 0.0 0.0 
0.0 0.0 0.0 
0.0 0.0 0.0 
0.0 0.0 0.0 
0.0 0.0 0.0 
0.0 0.0 0.0 
0.0 0.0 0.0 
0.0 0.0 0.0 
0.0 0.0 0.0 
0.0 0.0 0.0 
0.0 0.0 0.0 
0.0 0.0 0.0 
0.0 0.0 0.0 
0.0 0.0 0.0 
0.0 0.0 0.0 
0.0 0.0 0.0 
0.0 0.0 0.0 
0.0 0.0 0.0 
0.0 0.0 0.0 
0.0 0.0 0.0 
0.0 0.0 0.0 
0.0 0.0 0.0 
0.0 0.0 0.0 
0.0 0.0 0.0 
0.0 0.0 0.0 
0.0 0.0 0.0 
0.0 0.0 0.0 
0.0 0.0 0.0 
0.0 0.0 0.0 
0.0 0.0 0.0 
0.0 0.0 0.0 
0.0 0.0 0.0 
0.0 0.0 0.0 
0.0 0.0 0.0 
0.0 0.0 0.0 
0.0 0.0 0.0 
0.0 0.0 0.0 
0.0 0.0 0.0 
0.0 0.0 0.0 
0.0 0.0 0.0 
0.0 0.0 0.0 
0.0 0.0 0.0 
0.0 0.0 0.0 
0.0 0.0 0.0 
0.0 0.0 0.0 
0.0 0.0 0.0 
0.0 0.0 0.0 
0.0 0.0 0.0 
0.0 0.0 0.0 
0.0 0.0 0.0 
0.0 0.0 0.0 
0.0 0.0 0.0 
0.0 0.0 0.0 
0.0 0.0 0.0 
0.0 0.0 0.0 
0.0 0.0 0.0 
0.0 0.0 0.0 
0.0 0.0 0.0 
0.0 0.0 0.0 
0.0 0.0 0.0 
0.0 0.0 0.0 
0.0 0.0 0.0 
0.0 0.0 0.0 
0.0 0.0 0.0 
0.0 0.0 0.0 
0.0 0.0 0.0 
0.0 0.0 0.0 
0.0 0.0 0.0 
0.0 0.0 0.0 
0.0 0.0 0.0 
0.0 0.0 0.0 
0.0 0.0 0.0 
0.0 0.0 0.0 
0.0 0.0 0.0 
0.0 0.0 0.0 
0.0 0.0 0.0 
0.0 0.0 0.0 
0.0 0.0 0.0 
0.0 0.0 0.0 
0.0 0.0 0.0 
0.0 0.0 0.0 
0.0 0.0 0.0 
0.0 0.0 0.0 
0.0 0.0 0.0 
0.0 0.0 0.0 
0.0 0.0 0.0 
0.0 0.0 0.0 
0.0 0.0 0.0 
0.0 0.0 0.0 
0.0 0.0 0.0 
0.0 0.0 0.0 
0.0 0.0 0.0 
0.0 0.0 0.0 
0.0 0.0 0.0 
0.0 0.0 0.0 
0.0 0.0 0.0 
0.0 0.0 0.0 
0.0 0.0 0.0 
0.0 0.0 0.0 
0.0 0.0 0.0 
0.0 0.0 0.0 
0.0 0.0 0.0 
0.0 0.0 0.0 
0.0 0.0 0.0 
0.0 0.0 0.0 
0.0 0.0 0.0 
0.0 0.0 0.0 
0.0 0.0 0.0 
0.0 0.0 0.0 
0.0 0.0 0.0 
0.0 0.0 0.0 
0.0 0.0 0.0 
0.0 0.0 0.0 
0.0 0.0 0.0 
0.0 0.0 0.0 
0.0 0.0 0.0 
0.0 0.0 0.0 
0.0 0.0 0.0 
0.0 0.0 0.0 
0.0 0.0 0.0 
0.0 0.0 0.0 
0.0 0.0 0.0 
0.0 0.0 0.0 
0.0 0.0 0.0 
0.0 0.0 0.0 
0.0 0.0 0.0 
0.0 0.0 0.0 
0.0 0.0 0.0 
0.0 0.0 0.0 
0.0 0.0 0.0 
0.0 0.0 0.0 
0.0 0.0 0.0 
0.0 0.0 0.0 
0.0 0.0 0.0 
0.0 0.0 0.0 
0.0 0.0 0.0 
0.0 0.0 0.0 
0.0 0.0 0.0 
0.0 0.0 0.0 
0.0 0.0 0.0 
0.0 0.0 0.0 
0.0 0.0 0.0 
0.0 0.0 0.0 
0.0 0.0 0.0 
0.0 0.0 0.0 
0.0 0.0 0.0 
0.0 0.0 0.0 
0.0 0.0 0.0 
0.0 0.0 0.0 
0.0 0.0 0.0 
0.0 0.0 0.0 
0.0 0.0 0.0 
0.0 0.0 0.0 
0.0 0.0 0.0 
0.0 0.0 0.0 
0.0 0.0 0.0 
0.0 0.0 0.0 
0.0 0.0 0.0 
0.0 0.0 0.0 
0.0 0.0 0.0 
0.0 0.0 0.0 
0.0 0.0 0.0 
0.0 0.0 0.0 
0.0 0.0 0.0 
0.0 0.0 0.0 
0.0 0.0 0.0 
0.0 0.0 0.0 
0.0 0.0 0.0 
0.0 0.0 0.0 
0.0 0.0 0.0 
0.0 0.0 0.0 
0.0 0.0 0.0 
0.0 0.0 0.0 
0.0 0.0 0.0 
0.0 0.0 0.0 
0.0 0.0 0.0 
0.0 0.0 0.0 
0.0 0.0 0.0 
0.0 0.0 0.0 
0.0 0.0 0.0 
0.0 0.0 0.0 
0.0 0.0 0.0 
0.0 0.0 0.0 
0.0 0.0 0.0 
0.0 0.0 0.0 
0.0 0.0 0.0 
0.0 0.0 0.0 
0.0 0.0 0.0 
0.0 0.0 0.0 
0.0 0.0 0.0 
0.0 0.0 0.0 
0.0 0.0 0.0 
0.0 0.0 0.0 
0.0 0.0 0.0 
0.0 0.0 0.0 
0.0 0.0 0.0 
0.0 0.0 0.0 
0.0 0.0 0.0 
0.0 0.0 0.0 
0.0 0.0 0.0 
0.0 0.0 0.0 
0.0 0.0 0.0 
0.0 0.0 0.0 
0.0 0.0 0.0 
0.0 0.0 0.0 
0.0 0.0 0.0 
0.0 0.0 0.0 
0.0 0.0 0.0 
0.0 0.0 0.0 
0.0 0.0 0.0 
0.0 0.0 0.0 
0.0 0.0 0.0 
0.0 0.0 0.0 
0.0 0.0 0.0 
0.0 0.0 0.0 
0.0 0.0 0.0 
0.0 0.0 0.0 
0.0 0.0 0.0 
0.0 0.0 0.0 
0.0 0.0 0.0 
0.0 0.0 0.0 
0.0 0.0 0.0 
0.0 0.0 0.0 
0.0 0.0 0.0 
0.0 0.0 0.0 
0.0 0.0 0.0 
0.0 0.0 0.0 
0.0 0.0 0.0 
0.0 0.0 0.0 
0.0 0.0 0.0 
0.0 0.0 0.0 
0.0 0.0 0.0 
0.0 0.0 0.0 
0.0 0.0 0.0 
0.0 0.0 0.0 
0.0 0.0 0.0 
0.0 0.0 0.0 
0.0 0.0 0.0 
0.0 0.0 0.0 
0.0 0.0 0.0 
0.0 0.0 0.0 
0.0 0.0 0.0 
0.0 0.0 0.0 
0.0 0.0 0.0 
0.0 0.0 0.0 
0.0 0.0 0.0 
0.0 0.0 0.0 
0.0 0.0 0.0 
0.0 0.0 0.0 
0.0 0.0 0.0 
0.0 0.0 0.0 
0.0 0.0 0.0 
0.0 0.0 0.0 
0.0 0.0 0.0 
0.0 0.0 0.0 
0.0 0.0 0.0 
0.0 0.0 0.0 
0.0 0.0 0.0 
0.0 0.0 0.0 
0.0 0.0 0.0 
0.0 0.0 0.0 
0.0 0.0 0.0 
0.0 0.0 0.0 
0.0 0.0 0.0 
0.0 0.0 0.0 
0.0 0.0 0.0 
0.0 0.0 0.0 
0.0 0.0 0.0 
0.0 0.0 0.0 
0.0 0.0 0.0 
0.0 0.0 0.0 
0.0 0.0 0.0 
0.0 0.0 0.0 
0.0 0.0 0.0 
0.0 0.0 0.0 
0.0 0.0 0.0 
0.0 0.0 0.0 
0.0 0.0 0.0 
0.0 0.0 0.0 
0.0 0.0 0.0 
0.0 0.0 0.0 
0.0 0.0 0.0 
0.0 0.0 0.0 
0.0 0.0 0.0 
0.0 0.0 0.0 
0.0 0.0 0.0 
0.0 0.0 0.0 
0.0 0.0 0.0 
0.0 0.0 0.0 
0.0 0.0 0.0 
0.0 0.0 0.0 
0.0 0.0 0.0 
0.0 0.0 0.0 
0.0 0.0 0.0 
0.0 0.0 0.0 
0.0 0.0 0.0 
0.0 0.0 0.0 
0.0 0.0 0.0 
0.0 0.0 0.0 
0.0 0.0 0.0 
0.0 0.0 0.0 
0.0 0.0 0.0 
0.0 0.0 0.0 
0.0 0.0 0.0 
0.0 0.0 0.0 
0.0 0.0 0.0 
0.0 0.0 0.0 
0.0 0.0 0.0 
0.0 0.0 0.0 
0.0 0.0 0.0 
0.0 0.0 0.0 
0.0 0.0 0.0 
0.0 0.0 0.0 
0.0 0.0 0.0 
0.0 0.0 0.0 
0.0 0.0 0.0 
0.0 0.0 0.0 
0.0 0.0 0.0 
0.0 0.0 0.0 

SCALARS node_boundary float
LOOKUP_TABLE default
1.000000000000e+00 
1.000000000000e+00 
1.000000000000e+00 
1.000000000000e+00 
1.000000000000e+00 
1.000000000000e+00 
1.000000000000e+00 
1.000000000000e+00 
1.000000000000e+00 
1.000000000000e+00 
1.000000000000e+00 
1.000000000000e+00 
1.000000000000e+00 
1.000000000000e+00 
1.000000000000e+00 
1.000000000000e+00 
1.000000000000e+00 
1.000000000000e+00 
1.000000000000e+00 
1.000000000000e+00 
1.000000000000e+00 
1.000000000000e+00 
1.000000000000e+00 
1.000000000000e+00 
1.000000000000e+00 
1.000000000000e+00 
1.000000000000e+00 
1.000000000000e+00 
1.000000000000e+00 
1.000000000000e+00 
1.000000000000e+00 
1.000000000000e+00 
1.000000000000e+00 
1.000000000000e+00 
1.000000000000e+00 
1.000000000000e+00 
1.000000000000e+00 
1.000000000000e+00 
1.000000000000e+00 
1.000000000000e+00 
1.000000000000e+00 
1.000000000000e+00 
1.000000000000e+00 
1.000000000000e+00 
1.000000000000e+00 
1.000000000000e+00 
1.000000000000e+00 
1.000000000000e+00 
1.000000000000e+00 
1.000000000000e+00 
1.000000000000e+00 
1.000000000000e+00 
1.000000000000e+00 
1.000000000000e+00 
1.000000000000e+00 
1.000000000000e+00 
1.000000000000e+00 
1.000000000000e+00 
1.000000000000e+00 
1.000000000000e+00 
1.000000000000e+00 
1.000000000000e+00 
1.000000000000e+00 
1.000000000000e+00 
1.000000000000e+00 
1.000000000000e+00 
1.000000000000e+00 
1.000000000000e+00 
1.000000000000e+00 
1.000000000000e+00 
1.000000000000e+00 
1.000000000000e+00 
1.000000000000e+00 
1.000000000000e+00 
1.000000000000e+00 
1.000000000000e+00 
1.000000000000e+00 
1.000000000000e+00 
1.000000000000e+00 
1.000000000000e+00 
1.000000000000e+00 
1.000000000000e+00 
0.0
1.000000000000e+00 
1.000000000000e+00 
1.000000000000e+00 
1.000000000000e+00 
1.000000000000e+00 
1.000000000000e+00 
1.000000000000e+00 
0.0
0.0
1.000000000000e+00 
1.000000000000e+00 
1.000000000000e+00 
0.0
0.0
0.0
0.0
0.0
0.0
0.0
0.0
0.0
0.0
0.0
0.0
0.0
0.0
1.000000000000e+00 
1.000000000000e+00 
1.000000000000e+00 
1.000000000000e+00 
1.000000000000e+00 
1.000000000000e+00 
1.000000000000e+00 
1.000000000000e+00 
1.000000000000e+00 
1.000000000000e+00 
1.000000000000e+00 
1.000000000000e+00 
1.000000000000e+00 
1.000000000000e+00 
1.000000000000e+00 
1.000000000000e+00 
1.000000000000e+00 
1.000000000000e+00 
1.000000000000e+00 
1.000000000000e+00 
1.000000000000e+00 
1.000000000000e+00 
1.000000000000e+00 
1.000000000000e+00 
1.000000000000e+00 
1.000000000000e+00 
1.000000000000e+00 
1.000000000000e+00 
1.000000000000e+00 
1.000000000000e+00 
1.000000000000e+00 
1.000000000000e+00 
1.000000000000e+00 
1.000000000000e+00 
1.000000000000e+00 
1.000000000000e+00 
1.000000000000e+00 
1.000000000000e+00 
0.0
0.0
0.0
0.0
0.0
0.0
0.0
0.0
0.0
0.0
0.0
0.0
0.0
0.0
0.0
0.0
0.0
0.0
0.0
0.0
0.0
0.0
0.0
0.0
0.0
0.0
0.0
0.0
0.0
0.0
0.0
0.0
0.0
1.000000000000e+00 
1.000000000000e+00 
1.000000000000e+00 
1.000000000000e+00 
1.000000000000e+00 
1.000000000000e+00 
1.000000000000e+00 
0.0
0.0
0.0
0.0
0.0
0.0
0.0
0.0
0.0
0.0
0.0
0.0
0.0
0.0
0.0
0.0
0.0
0.0
0.0
0.0
0.0
0.0
0.0
0.0
0.0
0.0
0.0
0.0
0.0
0.0
0.0
0.0
0.0
0.0
0.0
0.0
0.0
0.0
0.0
0.0
0.0
0.0
0.0
0.0
0.0
0.0
0.0
0.0
0.0
0.0
0.0
0.0
0.0
0.0
0.0
0.0
0.0
0.0
0.0
0.0
0.0
0.0
0.0
0.0
0.0
0.0
0.0
0.0
0.0
0.0
0.0
0.0
0.0
0.0
0.0
0.0
0.0
0.0
0.0
0.0
0.0
0.0
0.0
0.0
0.0
0.0
0.0
0.0
0.0
0.0
0.0
0.0
0.0
0.0
0.0
0.0
0.0
0.0
0.0
0.0
0.0
0.0
0.0
0.0
0.0
0.0
0.0
0.0
0.0
0.0
0.0
0.0
0.0
0.0
0.0
0.0
0.0
0.0
0.0
0.0
0.0
0.0
0.0
0.0
0.0
0.0
0.0
0.0
0.0
0.0
0.0
0.0
0.0
0.0
0.0
0.0
0.0
0.0
0.0
0.0
0.0
0.0
0.0
0.0
0.0
0.0
0.0
0.0
0.0
0.0
0.0
0.0
0.0
0.0
0.0
0.0
0.0
0.0
0.0
0.0
0.0
0.0
0.0
0.0
0.0
0.0
0.0
0.0
0.0
0.0
0.0
0.0
0.0
0.0
0.0
0.0
0.0
0.0
0.0
0.0
0.0
0.0
0.0
0.0
0.0
0.0
0.0
0.0
0.0
0.0
0.0
0.0
0.0
0.0
0.0
0.0
0.0
0.0
0.0
0.0
0.0
0.0
0.0
0.0
0.0
0.0
0.0
0.0
0.0
0.0
0.0
0.0
0.0
0.0
0.0
0.0
0.0
0.0
0.0
0.0
0.0
0.0
0.0
0.0
0.0
0.0
0.0
0.0
0.0
0.0
0.0
0.0
0.0
0.0
0.0
0.0
0.0
0.0
0.0
0.0
0.0
0.0
0.0
0.0
0.0
0.0
0.0
0.0
0.0
0.0
0.0
0.0
0.0
0.0
0.0
0.0
0.0
0.0
0.0
0.0
0.0
0.0
0.0
0.0
0.0
0.0
0.0
0.0
0.0
0.0
0.0
0.0
0.0
0.0
0.0
0.0
0.0
0.0
0.0
0.0
0.0
0.0
0.0
0.0
0.0
0.0
0.0
0.0
0.0
0.0
0.0
0.0
0.0
0.0
0.0
0.0
0.0
0.0
0.0
0.0
0.0
0.0
0.0
0.0
0.0
0.0
0.0
0.0
0.0
0.0
0.0
0.0
0.0
0.0
0.0
0.0
0.0
0.0
0.0
0.0
0.0
0.0
0.0
0.0
0.0
0.0
0.0
0.0
0.0
0.0
0.0
0.0
0.0
0.0
0.0
0.0
0.0
0.0
0.0
0.0
0.0
0.0
0.0
0.0
0.0
0.0
0.0
0.0
0.0
0.0
0.0
0.0
0.0
0.0
0.0
0.0
0.0
0.0
0.0
0.0
0.0
0.0
0.0
0.0
0.0
0.0
0.0
0.0
0.0
0.0
0.0
0.0
0.0
0.0
0.0
0.0
0.0
0.0
0.0
0.0
0.0
0.0
0.0
0.0
0.0
0.0
0.0
0.0
0.0
0.0
0.0
0.0
0.0
0.0
0.0
0.0
0.0
0.0
0.0
0.0
0.0
0.0
0.0
0.0
0.0
0.0
0.0
0.0
0.0
0.0
0.0
0.0
0.0
0.0
0.0
0.0
0.0
0.0
0.0
0.0
0.0
0.0
0.0
0.0
0.0
0.0
0.0
0.0
0.0
0.0
0.0
0.0
0.0
0.0
0.0
0.0
0.0
0.0
0.0
0.0
0.0
0.0
0.0
0.0
0.0
0.0
0.0
0.0
0.0
0.0
0.0
0.0
0.0
0.0
0.0
0.0
0.0
0.0
0.0
0.0
0.0
0.0
0.0
0.0
0.0
0.0
0.0
0.0
0.0
0.0
0.0
0.0
0.0
0.0
0.0
0.0
0.0
0.0
0.0
0.0
0.0
0.0
0.0
0.0
0.0
0.0
0.0
0.0
0.0
0.0
0.0
0.0
0.0
0.0
0.0
0.0
0.0
0.0
0.0
0.0
0.0
0.0
0.0
0.0
0.0
0.0
0.0
0.0
0.0
0.0
0.0
0.0
0.0
0.0
0.0
0.0
0.0
0.0
0.0
0.0
0.0
0.0
0.0
0.0
0.0
0.0
0.0
0.0
0.0
0.0
0.0
0.0
0.0
0.0
0.0
0.0
0.0
0.0
0.0
0.0
0.0
0.0
0.0
0.0
0.0
0.0
0.0
0.0
0.0
0.0
0.0
0.0
0.0
0.0
0.0
0.0
0.0
0.0
0.0
0.0
0.0
0.0
0.0
0.0
0.0
0.0
0.0
0.0
0.0
0.0
0.0
0.0
0.0
0.0
0.0
0.0
0.0
0.0
0.0
0.0
0.0
0.0
0.0
0.0
0.0
0.0
0.0
0.0
0.0
0.0
0.0
0.0
0.0
0.0
0.0
0.0
0.0
0.0
0.0
0.0
0.0
0.0
0.0
0.0
0.0
0.0
0.0
0.0
0.0
0.0
0.0
0.0
0.0
0.0
0.0
0.0
0.0
0.0
0.0
0.0
0.0
0.0
0.0
0.0
0.0
0.0
0.0
0.0
0.0
0.0
0.0
0.0
0.0
0.0
0.0
0.0
0.0
0.0
0.0
0.0
0.0
0.0
0.0
0.0
0.0
0.0
0.0
0.0
0.0
0.0
0.0
0.0
0.0
0.0
0.0
0.0
0.0
0.0
0.0
0.0
0.0
0.0
0.0
0.0
0.0
0.0
0.0
0.0
0.0
0.0
0.0
0.0
0.0
0.0
0.0
0.0
0.0
0.0
0.0
0.0
0.0
0.0
0.0
0.0
0.0
0.0
0.0
0.0
0.0
0.0
0.0
0.0
0.0
0.0
0.0
0.0
0.0
0.0
0.0
0.0
0.0
0.0
0.0
0.0
0.0
0.0
0.0
0.0
0.0
0.0
0.0
0.0
0.0
0.0
0.0
0.0
0.0
0.0
0.0
0.0
0.0
0.0
0.0
0.0
0.0
0.0
0.0
0.0
0.0
0.0
0.0
0.0
0.0
0.0
0.0
0.0
0.0
0.0
0.0
0.0
0.0
0.0
0.0
0.0
0.0
0.0
0.0
0.0
0.0
0.0
0.0
0.0
0.0
0.0
0.0
0.0
0.0
0.0
0.0
0.0
0.0
0.0
0.0
0.0
0.0
0.0
0.0
0.0
0.0
0.0
0.0
0.0
0.0
0.0
0.0
0.0
0.0
0.0
0.0
0.0
0.0
0.0
0.0
0.0
0.0
0.0
0.0
0.0
0.0
0.0
0.0
0.0
0.0
0.0
0.0
0.0
0.0
0.0
0.0
0.0
0.0
0.0
0.0
0.0
0.0
0.0
0.0
0.0
0.0
0.0
0.0
0.0
0.0
0.0
0.0
0.0
0.0
0.0
0.0
0.0
0.0
0.0
0.0
0.0
0.0
0.0
0.0
0.0
0.0
0.0
0.0
0.0
0.0
0.0
0.0
0.0
0.0
0.0
0.0
0.0
0.0
0.0
0.0
0.0
0.0
0.0
0.0
0.0
0.0
0.0
0.0
0.0
0.0
0.0
0.0
0.0
0.0
0.0
0.0
0.0
0.0
0.0
0.0
0.0
0.0
0.0
0.0
0.0
0.0
0.0
0.0
0.0
0.0
0.0
0.0
0.0
0.0
0.0
0.0
0.0
0.0
0.0
0.0
0.0
0.0
0.0
0.0
0.0
0.0
0.0
0.0
0.0
0.0
0.0
0.0
0.0
0.0
0.0
0.0
0.0
0.0
0.0

VECTORS node_force_gravity float
0.0 -1.962000000000e+01 0.0 
0.0 -1.962000000000e+01 0.0 
0.0 -1.962000000000e+01 0.0 
0.0 -1.962000000000e+01 0.0 
0.0 -1.962000000000e+01 0.0 
0.0 -1.962000000000e+01 0.0 
0.0 -1.962000000000e+01 0.0 
0.0 -1.962000000000e+01 0.0 
0.0 -1.962000000000e+01 0.0 
0.0 -1.962000000000e+01 0.0 
0.0 -1.962000000000e+01 0.0 
0.0 -1.962000000000e+01 0.0 
0.0 -1.962000000000e+01 0.0 
0.0 -1.962000000000e+01 0.0 
0.0 -1.962000000000e+01 0.0 
0.0 -1.962000000000e+01 0.0 
0.0 -1.962000000000e+01 0.0 
0.0 -1.962000000000e+01 0.0 
0.0 -1.962000000000e+01 0.0 
0.0 -1.962000000000e+01 0.0 
0.0 -1.962000000000e+01 0.0 
0.0 -1.962000000000e+01 0.0 
0.0 -1.962000000000e+01 0.0 
0.0 -1.962000000000e+01 0.0 
0.0 -1.962000000000e+01 0.0 
0.0 -1.962000000000e+01 0.0 
0.0 -1.962000000000e+01 0.0 
0.0 -1.962000000000e+01 0.0 
0.0 -1.962000000000e+01 0.0 
0.0 -1.962000000000e+01 0.0 
0.0 -1.962000000000e+01 0.0 
0.0 -1.962000000000e+01 0.0 
0.0 -1.962000000000e+01 0.0 
0.0 -1.962000000000e+01 0.0 
0.0 -1.962000000000e+01 0.0 
0.0 -1.962000000000e+01 0.0 
0.0 -1.962000000000e+01 0.0 
0.0 -1.962000000000e+01 0.0 
0.0 -1.962000000000e+01 0.0 
0.0 -1.962000000000e+01 0.0 
0.0 -1.962000000000e+01 0.0 
0.0 -1.962000000000e+01 0.0 
0.0 -1.962000000000e+01 0.0 
0.0 -1.962000000000e+01 0.0 
0.0 -1.962000000000e+01 0.0 
0.0 -1.962000000000e+01 0.0 
0.0 -1.962000000000e+01 0.0 
0.0 -1.962000000000e+01 0.0 
0.0 -1.962000000000e+01 0.0 
0.0 -1.962000000000e+01 0.0 
0.0 -1.962000000000e+01 0.0 
0.0 -1.962000000000e+01 0.0 
0.0 -1.962000000000e+01 0.0 
0.0 -1.962000000000e+01 0.0 
0.0 -1.962000000000e+01 0.0 
0.0 -1.962000000000e+01 0.0 
0.0 -1.962000000000e+01 0.0 
0.0 -1.962000000000e+01 0.0 
0.0 -1.962000000000e+01 0.0 
0.0 -1.962000000000e+01 0.0 
0.0 -1.962000000000e+01 0.0 
0.0 -1.962000000000e+01 0.0 
0.0 -1.962000000000e+01 0.0 
0.0 -1.962000000000e+01 0.0 
0.0 -1.962000000000e+01 0.0 
0.0 -1.962000000000e+01 0.0 
0.0 -1.962000000000e+01 0.0 
0.0 -1.962000000000e+01 0.0 
0.0 -1.962000000000e+01 0.0 
0.0 -1.962000000000e+01 0.0 
0.0 -1.962000000000e+01 0.0 
0.0 -1.962000000000e+01 0.0 
0.0 -1.962000000000e+01 0.0 
0.0 -1.962000000000e+01 0.0 
0.0 -1.962000000000e+01 0.0 
0.0 -1.962000000000e+01 0.0 
0.0 -1.962000000000e+01 0.0 
0.0 -1.962000000000e+01 0.0 
0.0 -1.962000000000e+01 0.0 
0.0 -1.962000000000e+01 0.0 
0.0 -1.962000000000e+01 0.0 
0.0 -1.962000000000e+01 0.0 
0.0 -1.962000000000e+01 0.0 
0.0 -1.962000000000e+01 0.0 
0.0 -1.962000000000e+01 0.0 
0.0 -1.962000000000e+01 0.0 
0.0 -1.962000000000e+01 0.0 
0.0 -1.962000000000e+01 0.0 
0.0 -1.962000000000e+01 0.0 
0.0 -1.962000000000e+01 0.0 
0.0 -1.962000000000e+01 0.0 
0.0 -1.962000000000e+01 0.0 
0.0 -1.962000000000e+01 0.0 
0.0 -1.962000000000e+01 0.0 
0.0 -1.962000000000e+01 0.0 
0.0 -1.962000000000e+01 0.0 
0.0 -1.962000000000e+01 0.0 
0.0 -1.962000000000e+01 0.0 
0.0 -1.962000000000e+01 0.0 
0.0 -1.962000000000e+01 0.0 
0.0 -1.962000000000e+01 0.0 
0.0 -1.962000000000e+01 0.0 
0.0 -1.962000000000e+01 0.0 
0.0 -1.962000000000e+01 0.0 
0.0 -1.962000000000e+01 0.0 
0.0 -1.962000000000e+01 0.0 
0.0 -1.962000000000e+01 0.0 
0.0 -1.962000000000e+01 0.0 
0.0 -1.962000000000e+01 0.0 
0.0 -1.962000000000e+01 0.0 
0.0 -1.962000000000e+01 0.0 
0.0 -1.962000000000e+01 0.0 
0.0 -1.962000000000e+01 0.0 
0.0 -1.962000000000e+01 0.0 
0.0 -1.962000000000e+01 0.0 
0.0 -1.962000000000e+01 0.0 
0.0 -1.962000000000e+01 0.0 
0.0 -1.962000000000e+01 0.0 
0.0 -1.962000000000e+01 0.0 
0.0 -1.962000000000e+01 0.0 
0.0 -1.962000000000e+01 0.0 
0.0 -1.962000000000e+01 0.0 
0.0 -1.962000000000e+01 0.0 
0.0 -1.962000000000e+01 0.0 
0.0 -1.962000000000e+01 0.0 
0.0 -1.962000000000e+01 0.0 
0.0 -1.962000000000e+01 0.0 
0.0 -1.962000000000e+01 0.0 
0.0 -1.962000000000e+01 0.0 
0.0 -1.962000000000e+01 0.0 
0.0 -1.962000000000e+01 0.0 
0.0 -1.962000000000e+01 0.0 
0.0 -1.962000000000e+01 0.0 
0.0 -1.962000000000e+01 0.0 
0.0 -1.962000000000e+01 0.0 
0.0 -1.962000000000e+01 0.0 
0.0 -1.962000000000e+01 0.0 
0.0 -1.962000000000e+01 0.0 
0.0 -1.962000000000e+01 0.0 
0.0 -1.962000000000e+01 0.0 
0.0 -1.962000000000e+01 0.0 
0.0 -1.962000000000e+01 0.0 
0.0 -1.962000000000e+01 0.0 
0.0 -1.962000000000e+01 0.0 
0.0 -1.962000000000e+01 0.0 
0.0 -1.962000000000e+01 0.0 
0.0 -1.962000000000e+01 0.0 
0.0 -1.962000000000e+01 0.0 
0.0 -1.962000000000e+01 0.0 
0.0 -1.962000000000e+01 0.0 
0.0 -1.962000000000e+01 0.0 
0.0 -1.962000000000e+01 0.0 
0.0 -1.962000000000e+01 0.0 
0.0 -1.962000000000e+01 0.0 
0.0 -1.962000000000e+01 0.0 
0.0 -1.962000000000e+01 0.0 
0.0 -1.962000000000e+01 0.0 
0.0 -1.962000000000e+01 0.0 
0.0 -1.962000000000e+01 0.0 
0.0 -1.962000000000e+01 0.0 
0.0 -1.962000000000e+01 0.0 
0.0 -1.962000000000e+01 0.0 
0.0 -1.962000000000e+01 0.0 
0.0 -1.962000000000e+01 0.0 
0.0 -1.962000000000e+01 0.0 
0.0 -1.962000000000e+01 0.0 
0.0 -1.962000000000e+01 0.0 
0.0 -1.962000000000e+01 0.0 
0.0 -1.962000000000e+01 0.0 
0.0 -1.962000000000e+01 0.0 
0.0 -1.962000000000e+01 0.0 
0.0 -1.962000000000e+01 0.0 
0.0 -1.962000000000e+01 0.0 
0.0 -1.962000000000e+01 0.0 
0.0 -1.962000000000e+01 0.0 
0.0 -1.962000000000e+01 0.0 
0.0 -1.962000000000e+01 0.0 
0.0 -1.962000000000e+01 0.0 
0.0 -1.962000000000e+01 0.0 
0.0 -1.962000000000e+01 0.0 
0.0 -1.962000000000e+01 0.0 
0.0 -1.962000000000e+01 0.0 
0.0 -1.962000000000e+01 0.0 
0.0 -1.962000000000e+01 0.0 
0.0 -1.962000000000e+01 0.0 
0.0 -1.962000000000e+01 0.0 
0.0 -1.962000000000e+01 0.0 
0.0 -1.962000000000e+01 0.0 
0.0 -1.962000000000e+01 0.0 
0.0 -1.962000000000e+01 0.0 
0.0 -1.962000000000e+01 0.0 
0.0 -1.962000000000e+01 0.0 
0.0 -1.962000000000e+01 0.0 
0.0 -1.962000000000e+01 0.0 
0.0 -1.962000000000e+01 0.0 
0.0 -1.962000000000e+01 0.0 
0.0 -1.962000000000e+01 0.0 
0.0 -1.962000000000e+01 0.0 
0.0 -1.962000000000e+01 0.0 
0.0 -1.962000000000e+01 0.0 
0.0 -1.962000000000e+01 0.0 
0.0 -1.962000000000e+01 0.0 
0.0 -1.962000000000e+01 0.0 
0.0 -1.962000000000e+01 0.0 
0.0 -1.962000000000e+01 0.0 
0.0 -1.962000000000e+01 0.0 
0.0 -1.962000000000e+01 0.0 
0.0 -1.962000000000e+01 0.0 
0.0 -1.962000000000e+01 0.0 
0.0 -1.962000000000e+01 0.0 
0.0 -1.962000000000e+01 0.0 
0.0 -1.962000000000e+01 0.0 
0.0 -1.962000000000e+01 0.0 
0.0 -1.962000000000e+01 0.0 
0.0 -1.962000000000e+01 0.0 
0.0 -1.962000000000e+01 0.0 
0.0 -1.962000000000e+01 0.0 
0.0 -1.962000000000e+01 0.0 
0.0 -1.962000000000e+01 0.0 
0.0 -1.962000000000e+01 0.0 
0.0 -1.962000000000e+01 0.0 
0.0 -1.962000000000e+01 0.0 
0.0 -1.962000000000e+01 0.0 
0.0 -1.962000000000e+01 0.0 
0.0 -1.962000000000e+01 0.0 
0.0 -1.962000000000e+01 0.0 
0.0 -1.962000000000e+01 0.0 
0.0 -1.962000000000e+01 0.0 
0.0 -1.962000000000e+01 0.0 
0.0 -1.962000000000e+01 0.0 
0.0 -1.962000000000e+01 0.0 
0.0 -1.962000000000e+01 0.0 
0.0 -1.962000000000e+01 0.0 
0.0 -1.962000000000e+01 0.0 
0.0 -1.962000000000e+01 0.0 
0.0 -1.962000000000e+01 0.0 
0.0 -1.962000000000e+01 0.0 
0.0 -1.962000000000e+01 0.0 
0.0 -1.962000000000e+01 0.0 
0.0 -1.962000000000e+01 0.0 
0.0 -1.962000000000e+01 0.0 
0.0 -1.962000000000e+01 0.0 
0.0 -1.962000000000e+01 0.0 
0.0 -1.962000000000e+01 0.0 
0.0 -1.962000000000e+01 0.0 
0.0 -1.962000000000e+01 0.0 
0.0 -1.962000000000e+01 0.0 
0.0 -1.962000000000e+01 0.0 
0.0 -1.962000000000e+01 0.0 
0.0 -1.962000000000e+01 0.0 
0.0 -1.962000000000e+01 0.0 
0.0 -1.962000000000e+01 0.0 
0.0 -1.962000000000e+01 0.0 
0.0 -1.962000000000e+01 0.0 
0.0 -1.962000000000e+01 0.0 
0.0 -1.962000000000e+01 0.0 
0.0 -1.962000000000e+01 0.0 
0.0 -1.962000000000e+01 0.0 
0.0 -1.962000000000e+01 0.0 
0.0 -1.962000000000e+01 0.0 
0.0 -1.962000000000e+01 0.0 
0.0 -1.962000000000e+01 0.0 
0.0 -1.962000000000e+01 0.0 
0.0 -1.962000000000e+01 0.0 
0.0 -1.962000000000e+01 0.0 
0.0 -1.962000000000e+01 0.0 
0.0 -1.962000000000e+01 0.0 
0.0 -1.962000000000e+01 0.0 
0.0 -1.962000000000e+01 0.0 
0.0 -1.962000000000e+01 0.0 
0.0 -1.962000000000e+01 0.0 
0.0 -1.962000000000e+01 0.0 
0.0 -1.962000000000e+01 0.0 
0.0 -1.962000000000e+01 0.0 
0.0 -1.962000000000e+01 0.0 
0.0 -1.962000000000e+01 0.0 
0.0 -1.962000000000e+01 0.0 
0.0 -1.962000000000e+01 0.0 
0.0 -1.962000000000e+01 0.0 
0.0 -1.962000000000e+01 0.0 
0.0 -1.962000000000e+01 0.0 
0.0 -1.962000000000e+01 0.0 
0.0 -1.962000000000e+01 0.0 
0.0 -1.962000000000e+01 0.0 
0.0 -1.962000000000e+01 0.0 
0.0 -1.962000000000e+01 0.0 
0.0 -1.962000000000e+01 0.0 
0.0 -1.962000000000e+01 0.0 
0.0 -1.962000000000e+01 0.0 
0.0 -1.962000000000e+01 0.0 
0.0 -1.962000000000e+01 0.0 
0.0 -1.962000000000e+01 0.0 
0.0 -1.962000000000e+01 0.0 
0.0 -1.962000000000e+01 0.0 
0.0 -1.962000000000e+01 0.0 
0.0 -1.962000000000e+01 0.0 
0.0 -1.962000000000e+01 0.0 
0.0 -1.962000000000e+01 0.0 
0.0 -1.962000000000e+01 0.0 
0.0 -1.962000000000e+01 0.0 
0.0 -1.962000000000e+01 0.0 
0.0 -1.962000000000e+01 0.0 
0.0 -1.962000000000e+01 0.0 
0.0 -1.962000000000e+01 0.0 
0.0 -1.962000000000e+01 0.0 
0.0 -1.962000000000e+01 0.0 
0.0 -1.962000000000e+01 0.0 
0.0 -1.962000000000e+01 0.0 
0.0 -1.962000000000e+01 0.0 
0.0 -1.962000000000e+01 0.0 
0.0 -1.962000000000e+01 0.0 
0.0 -1.962000000000e+01 0.0 
0.0 -1.962000000000e+01 0.0 
0.0 -1.962000000000e+01 0.0 
0.0 -1.962000000000e+01 0.0 
0.0 -1.962000000000e+01 0.0 
0.0 -1.962000000000e+01 0.0 
0.0 -1.962000000000e+01 0.0 
0.0 -1.962000000000e+01 0.0 
0.0 -1.962000000000e+01 0.0 
0.0 -1.962000000000e+01 0.0 
0.0 -1.962000000000e+01 0.0 
0.0 -1.962000000000e+01 0.0 
0.0 -1.962000000000e+01 0.0 
0.0 -1.962000000000e+01 0.0 
0.0 -1.962000000000e+01 0.0 
0.0 -1.962000000000e+01 0.0 
0.0 -1.962000000000e+01 0.0 
0.0 -1.962000000000e+01 0.0 
0.0 -1.962000000000e+01 0.0 
0.0 -1.962000000000e+01 0.0 
0.0 -1.962000000000e+01 0.0 
0.0 -1.962000000000e+01 0.0 
0.0 -1.962000000000e+01 0.0 
0.0 -1.962000000000e+01 0.0 
0.0 -1.962000000000e+01 0.0 
0.0 -1.962000000000e+01 0.0 
0.0 -1.962000000000e+01 0.0 
0.0 -1.962000000000e+01 0.0 
0.0 -1.962000000000e+01 0.0 
0.0 -1.962000000000e+01 0.0 
0.0 -1.962000000000e+01 0.0 
0.0 -1.962000000000e+01 0.0 
0.0 -1.962000000000e+01 0.0 
0.0 -1.962000000000e+01 0.0 
0.0 -1.962000000000e+01 0.0 
0.0 -1.962000000000e+01 0.0 
0.0 -1.962000000000e+01 0.0 
0.0 -1.962000000000e+01 0.0 
0.0 -1.962000000000e+01 0.0 
0.0 -1.962000000000e+01 0.0 
0.0 -1.962000000000e+01 0.0 
0.0 -1.962000000000e+01 0.0 
0.0 -1.962000000000e+01 0.0 
0.0 -1.962000000000e+01 0.0 
0.0 -1.962000000000e+01 0.0 
0.0 -1.962000000000e+01 0.0 
0.0 -1.962000000000e+01 0.0 
0.0 -1.962000000000e+01 0.0 
0.0 -1.962000000000e+01 0.0 
0.0 -1.962000000000e+01 0.0 
0.0 -1.962000000000e+01 0.0 
0.0 -1.962000000000e+01 0.0 
0.0 -1.962000000000e+01 0.0 
0.0 -1.962000000000e+01 0.0 
0.0 -1.962000000000e+01 0.0 
0.0 -1.962000000000e+01 0.0 
0.0 -1.962000000000e+01 0.0 
0.0 -1.962000000000e+01 0.0 
0.0 -1.962000000000e+01 0.0 
0.0 -1.962000000000e+01 0.0 
0.0 -1.962000000000e+01 0.0 
0.0 -1.962000000000e+01 0.0 
0.0 -1.962000000000e+01 0.0 
0.0 -1.962000000000e+01 0.0 
0.0 -1.962000000000e+01 0.0 
0.0 -1.962000000000e+01 0.0 
0.0 -1.962000000000e+01 0.0 
0.0 -1.962000000000e+01 0.0 
0.0 -1.962000000000e+01 0.0 
0.0 -1.962000000000e+01 0.0 
0.0 -1.962000000000e+01 0.0 
0.0 -1.962000000000e+01 0.0 
0.0 -1.962000000000e+01 0.0 
0.0 -1.962000000000e+01 0.0 
0.0 -1.962000000000e+01 0.0 
0.0 -1.962000000000e+01 0.0 
0.0 -1.962000000000e+01 0.0 
0.0 -1.962000000000e+01 0.0 
0.0 -1.962000000000e+01 0.0 
0.0 -1.962000000000e+01 0.0 
0.0 -1.962000000000e+01 0.0 
0.0 -1.962000000000e+01 0.0 
0.0 -1.962000000000e+01 0.0 
0.0 -1.962000000000e+01 0.0 
0.0 -1.962000000000e+01 0.0 
0.0 -1.962000000000e+01 0.0 
0.0 -1.962000000000e+01 0.0 
0.0 -1.962000000000e+01 0.0 
0.0 -1.962000000000e+01 0.0 
0.0 -1.962000000000e+01 0.0 
0.0 -1.962000000000e+01 0.0 
0.0 -1.962000000000e+01 0.0 
0.0 -1.962000000000e+01 0.0 
0.0 -1.962000000000e+01 0.0 
0.0 -1.962000000000e+01 0.0 
0.0 -1.962000000000e+01 0.0 
0.0 -1.962000000000e+01 0.0 
0.0 -1.962000000000e+01 0.0 
0.0 -1.962000000000e+01 0.0 
0.0 -1.962000000000e+01 0.0 
0.0 -1.962000000000e+01 0.0 
0.0 -1.962000000000e+01 0.0 
0.0 -1.962000000000e+01 0.0 
0.0 -1.962000000000e+01 0.0 
0.0 -1.962000000000e+01 0.0 
0.0 -1.962000000000e+01 0.0 
0.0 -1.962000000000e+01 0.0 
0.0 -1.962000000000e+01 0.0 
0.0 -1.962000000000e+01 0.0 
0.0 -1.962000000000e+01 0.0 
0.0 -1.962000000000e+01 0.0 
0.0 -1.962000000000e+01 0.0 
0.0 -1.962000000000e+01 0.0 
0.0 -1.962000000000e+01 0.0 
0.0 -1.962000000000e+01 0.0 
0.0 -1.962000000000e+01 0.0 
0.0 -1.962000000000e+01 0.0 
0.0 -1.962000000000e+01 0.0 
0.0 -1.962000000000e+01 0.0 
0.0 -1.962000000000e+01 0.0 
0.0 -1.962000000000e+01 0.0 
0.0 -1.962000000000e+01 0.0 
0.0 -1.962000000000e+01 0.0 
0.0 -1.962000000000e+01 0.0 
0.0 -1.962000000000e+01 0.0 
0.0 -1.962000000000e+01 0.0 
0.0 -1.962000000000e+01 0.0 
0.0 -1.962000000000e+01 0.0 
0.0 -1.962000000000e+01 0.0 
0.0 -1.962000000000e+01 0.0 
0.0 -1.962000000000e+01 0.0 
0.0 -1.962000000000e+01 0.0 
0.0 -1.962000000000e+01 0.0 
0.0 -1.962000000000e+01 0.0 
0.0 -1.962000000000e+01 0.0 
0.0 -1.962000000000e+01 0.0 
0.0 -1.962000000000e+01 0.0 
0.0 -1.962000000000e+01 0.0 
0.0 -1.962000000000e+01 0.0 
0.0 -1.962000000000e+01 0.0 
0.0 -1.962000000000e+01 0.0 
0.0 -1.962000000000e+01 0.0 
0.0 -1.962000000000e+01 0.0 
0.0 -1.962000000000e+01 0.0 
0.0 -1.962000000000e+01 0.0 
0.0 -1.962000000000e+01 0.0 
0.0 -1.962000000000e+01 0.0 
0.0 -1.962000000000e+01 0.0 
0.0 -1.962000000000e+01 0.0 
0.0 -1.962000000000e+01 0.0 
0.0 -1.962000000000e+01 0.0 
0.0 -1.962000000000e+01 0.0 
0.0 -1.962000000000e+01 0.0 
0.0 -1.962000000000e+01 0.0 
0.0 -1.962000000000e+01 0.0 
0.0 -1.962000000000e+01 0.0 
0.0 -1.962000000000e+01 0.0 
0.0 -1.962000000000e+01 0.0 
0.0 -1.962000000000e+01 0.0 
0.0 -1.962000000000e+01 0.0 
0.0 -1.962000000000e+01 0.0 
0.0 -1.962000000000e+01 0.0 
0.0 -1.962000000000e+01 0.0 
0.0 -1.962000000000e+01 0.0 
0.0 -1.962000000000e+01 0.0 
0.0 -1.962000000000e+01 0.0 
0.0 -1.962000000000e+01 0.0 
0.0 -1.962000000000e+01 0.0 
0.0 -1.962000000000e+01 0.0 
0.0 -1.962000000000e+01 0.0 
0.0 -1.962000000000e+01 0.0 
0.0 -1.962000000000e+01 0.0 
0.0 -1.962000000000e+01 0.0 
0.0 -1.962000000000e+01 0.0 
0.0 -1.962000000000e+01 0.0 
0.0 -1.962000000000e+01 0.0 
0.0 -1.962000000000e+01 0.0 
0.0 -1.962000000000e+01 0.0 
0.0 -1.962000000000e+01 0.0 
0.0 -1.962000000000e+01 0.0 
0.0 -1.962000000000e+01 0.0 
0.0 -1.962000000000e+01 0.0 
0.0 -1.962000000000e+01 0.0 
0.0 -1.962000000000e+01 0.0 
0.0 -1.962000000000e+01 0.0 
0.0 -1.962000000000e+01 0.0 
0.0 -1.962000000000e+01 0.0 
0.0 -1.962000000000e+01 0.0 
0.0 -1.962000000000e+01 0.0 
0.0 -1.962000000000e+01 0.0 
0.0 -1.962000000000e+01 0.0 
0.0 -1.962000000000e+01 0.0 
0.0 -1.962000000000e+01 0.0 
0.0 -1.962000000000e+01 0.0 
0.0 -1.962000000000e+01 0.0 
0.0 -1.962000000000e+01 0.0 
0.0 -1.962000000000e+01 0.0 
0.0 -1.962000000000e+01 0.0 
0.0 -1.962000000000e+01 0.0 
0.0 -1.962000000000e+01 0.0 
0.0 -1.962000000000e+01 0.0 
0.0 -1.962000000000e+01 0.0 
0.0 -1.962000000000e+01 0.0 
0.0 -1.962000000000e+01 0.0 
0.0 -1.962000000000e+01 0.0 
0.0 -1.962000000000e+01 0.0 
0.0 -1.962000000000e+01 0.0 
0.0 -1.962000000000e+01 0.0 
0.0 -1.962000000000e+01 0.0 
0.0 -1.962000000000e+01 0.0 
0.0 -1.962000000000e+01 0.0 
0.0 -1.962000000000e+01 0.0 
0.0 -1.962000000000e+01 0.0 
0.0 -1.962000000000e+01 0.0 
0.0 -1.962000000000e+01 0.0 
0.0 -1.962000000000e+01 0.0 
0.0 -1.962000000000e+01 0.0 
0.0 -1.962000000000e+01 0.0 
0.0 -1.962000000000e+01 0.0 
0.0 -1.962000000000e+01 0.0 
0.0 -1.962000000000e+01 0.0 
0.0 -1.962000000000e+01 0.0 
0.0 -1.962000000000e+01 0.0 
0.0 -1.962000000000e+01 0.0 
0.0 -1.962000000000e+01 0.0 
0.0 -1.962000000000e+01 0.0 
0.0 -1.962000000000e+01 0.0 
0.0 -1.962000000000e+01 0.0 
0.0 -1.962000000000e+01 0.0 
0.0 -1.962000000000e+01 0.0 
0.0 -1.962000000000e+01 0.0 
0.0 -1.962000000000e+01 0.0 
0.0 -1.962000000000e+01 0.0 
0.0 -1.962000000000e+01 0.0 
0.0 -1.962000000000e+01 0.0 
0.0 -1.962000000000e+01 0.0 
0.0 -1.962000000000e+01 0.0 
0.0 -1.962000000000e+01 0.0 
0.0 -1.962000000000e+01 0.0 
0.0 -1.962000000000e+01 0.0 
0.0 -1.962000000000e+01 0.0 
0.0 -1.962000000000e+01 0.0 
0.0 -1.962000000000e+01 0.0 
0.0 -1.962000000000e+01 0.0 
0.0 -1.962000000000e+01 0.0 
0.0 -1.962000000000e+01 0.0 
0.0 -1.962000000000e+01 0.0 
0.0 -1.962000000000e+01 0.0 
0.0 -1.962000000000e+01 0.0 
0.0 -1.962000000000e+01 0.0 
0.0 -1.962000000000e+01 0.0 
0.0 -1.962000000000e+01 0.0 
0.0 -1.962000000000e+01 0.0 
0.0 -1.962000000000e+01 0.0 
0.0 -1.962000000000e+01 0.0 
0.0 -1.962000000000e+01 0.0 
0.0 -1.962000000000e+01 0.0 
0.0 -1.962000000000e+01 0.0 
0.0 -1.962000000000e+01 0.0 
0.0 -1.962000000000e+01 0.0 
0.0 -1.962000000000e+01 0.0 
0.0 -1.962000000000e+01 0.0 
0.0 -1.962000000000e+01 0.0 
0.0 -1.962000000000e+01 0.0 
0.0 -1.962000000000e+01 0.0 
0.0 -1.962000000000e+01 0.0 
0.0 -1.962000000000e+01 0.0 
0.0 -1.962000000000e+01 0.0 
0.0 -1.962000000000e+01 0.0 
0.0 -1.962000000000e+01 0.0 
0.0 -1.962000000000e+01 0.0 
0.0 -1.962000000000e+01 0.0 
0.0 -1.962000000000e+01 0.0 
0.0 -1.962000000000e+01 0.0 
0.0 -1.962000000000e+01 0.0 
0.0 -1.962000000000e+01 0.0 
0.0 -1.962000000000e+01 0.0 
0.0 -1.962000000000e+01 0.0 
0.0 -1.962000000000e+01 0.0 
0.0 -1.962000000000e+01 0.0 
0.0 -1.962000000000e+01 0.0 
0.0 -1.962000000000e+01 0.0 
0.0 -1.962000000000e+01 0.0 
0.0 -1.962000000000e+01 0.0 
0.0 -1.962000000000e+01 0.0 
0.0 -1.962000000000e+01 0.0 
0.0 -1.962000000000e+01 0.0 
0.0 -1.962000000000e+01 0.0 
0.0 -1.962000000000e+01 0.0 
0.0 -1.962000000000e+01 0.0 
0.0 -1.962000000000e+01 0.0 
0.0 -1.962000000000e+01 0.0 
0.0 -1.962000000000e+01 0.0 
0.0 -1.962000000000e+01 0.0 
0.0 -1.962000000000e+01 0.0 
0.0 -1.962000000000e+01 0.0 
0.0 -1.962000000000e+01 0.0 
0.0 -1.962000000000e+01 0.0 
0.0 -1.962000000000e+01 0.0 
0.0 -1.962000000000e+01 0.0 
0.0 -1.962000000000e+01 0.0 
0.0 -1.962000000000e+01 0.0 
0.0 -1.962000000000e+01 0.0 
0.0 -1.962000000000e+01 0.0 
0.0 -1.962000000000e+01 0.0 
0.0 -1.962000000000e+01 0.0 
0.0 -1.962000000000e+01 0.0 
0.0 -1.962000000000e+01 0.0 
0.0 -1.962000000000e+01 0.0 
0.0 -1.962000000000e+01 0.0 
0.0 -1.962000000000e+01 0.0 
0.0 -1.962000000000e+01 0.0 
0.0 -1.962000000000e+01 0.0 
0.0 -1.962000000000e+01 0.0 
0.0 -1.962000000000e+01 0.0 
0.0 -1.962000000000e+01 0.0 
0.0 -1.962000000000e+01 0.0 
0.0 -1.962000000000e+01 0.0 
0.0 -1.962000000000e+01 0.0 
0.0 -1.962000000000e+01 0.0 
0.0 -1.962000000000e+01 0.0 
0.0 -1.962000000000e+01 0.0 
0.0 -1.962000000000e+01 0.0 
0.0 -1.962000000000e+01 0.0 
0.0 -1.962000000000e+01 0.0 
0.0 -1.962000000000e+01 0.0 
0.0 -1.962000000000e+01 0.0 
0.0 -1.962000000000e+01 0.0 
0.0 -1.962000000000e+01 0.0 
0.0 -1.962000000000e+01 0.0 
0.0 -1.962000000000e+01 0.0 
0.0 -1.962000000000e+01 0.0 
0.0 -1.962000000000e+01 0.0 
0.0 -1.962000000000e+01 0.0 
0.0 -1.962000000000e+01 0.0 
0.0 -1.962000000000e+01 0.0 
0.0 -1.962000000000e+01 0.0 
0.0 -1.962000000000e+01 0.0 
0.0 -1.962000000000e+01 0.0 
0.0 -1.962000000000e+01 0.0 
0.0 -1.962000000000e+01 0.0 
0.0 -1.962000000000e+01 0.0 
0.0 -1.962000000000e+01 0.0 
0.0 -1.962000000000e+01 0.0 
0.0 -1.962000000000e+01 0.0 
0.0 -1.962000000000e+01 0.0 
0.0 -1.962000000000e+01 0.0 
0.0 -1.962000000000e+01 0.0 
0.0 -1.962000000000e+01 0.0 
0.0 -1.962000000000e+01 0.0 
0.0 -1.962000000000e+01 0.0 
0.0 -1.962000000000e+01 0.0 
0.0 -1.962000000000e+01 0.0 
0.0 -1.962000000000e+01 0.0 
0.0 -1.962000000000e+01 0.0 
0.0 -1.962000000000e+01 0.0 
0.0 -1.962000000000e+01 0.0 
0.0 -1.962000000000e+01 0.0 
0.0 -1.962000000000e+01 0.0 
0.0 -1.962000000000e+01 0.0 
0.0 -1.962000000000e+01 0.0 
0.0 -1.962000000000e+01 0.0 
0.0 -1.962000000000e+01 0.0 
0.0 -1.962000000000e+01 0.0 
0.0 -1.962000000000e+01 0.0 
0.0 -1.962000000000e+01 0.0 
0.0 -1.962000000000e+01 0.0 
0.0 -1.962000000000e+01 0.0 
0.0 -1.962000000000e+01 0.0 
0.0 -1.962000000000e+01 0.0 
0.0 -1.962000000000e+01 0.0 
0.0 -1.962000000000e+01 0.0 
0.0 -1.962000000000e+01 0.0 
0.0 -1.962000000000e+01 0.0 
0.0 -1.962000000000e+01 0.0 
0.0 -1.962000000000e+01 0.0 
0.0 -1.962000000000e+01 0.0 
0.0 -1.962000000000e+01 0.0 
0.0 -1.962000000000e+01 0.0 
0.0 -1.962000000000e+01 0.0 
0.0 -1.962000000000e+01 0.0 
0.0 -1.962000000000e+01 0.0 
0.0 -1.962000000000e+01 0.0 
0.0 -1.962000000000e+01 0.0 
0.0 -1.962000000000e+01 0.0 
0.0 -1.962000000000e+01 0.0 
0.0 -1.962000000000e+01 0.0 
0.0 -1.962000000000e+01 0.0 
0.0 -1.962000000000e+01 0.0 
0.0 -1.962000000000e+01 0.0 
0.0 -1.962000000000e+01 0.0 
0.0 -1.962000000000e+01 0.0 
0.0 -1.962000000000e+01 0.0 
0.0 -1.962000000000e+01 0.0 
0.0 -1.962000000000e+01 0.0 
0.0 -1.962000000000e+01 0.0 
0.0 -1.962000000000e+01 0.0 
0.0 -1.962000000000e+01 0.0 
0.0 -1.962000000000e+01 0.0 
0.0 -1.962000000000e+01 0.0 
0.0 -1.962000000000e+01 0.0 
0.0 -1.962000000000e+01 0.0 
0.0 -1.962000000000e+01 0.0 
0.0 -1.962000000000e+01 0.0 
0.0 -1.962000000000e+01 0.0 
0.0 -1.962000000000e+01 0.0 
0.0 -1.962000000000e+01 0.0 
0.0 -1.962000000000e+01 0.0 
0.0 -1.962000000000e+01 0.0 
0.0 -1.962000000000e+01 0.0 
0.0 -1.962000000000e+01 0.0 
0.0 -1.962000000000e+01 0.0 
0.0 -1.962000000000e+01 0.0 
0.0 -1.962000000000e+01 0.0 
0.0 -1.962000000000e+01 0.0 
0.0 -1.962000000000e+01 0.0 
0.0 -1.962000000000e+01 0.0 
0.0 -1.962000000000e+01 0.0 
0.0 -1.962000000000e+01 0.0 
0.0 -1.962000000000e+01 0.0 
0.0 -1.962000000000e+01 0.0 
0.0 -1.962000000000e+01 0.0 
0.0 -1.962000000000e+01 0.0 
0.0 -1.962000000000e+01 0.0 
0.0 -1.962000000000e+01 0.0 
0.0 -1.962000000000e+01 0.0 
0.0 -1.962000000000e+01 0.0 
0.0 -1.962000000000e+01 0.0 
0.0 -1.962000000000e+01 0.0 
0.0 -1.962000000000e+01 0.0 
0.0 -1.962000000000e+01 0.0 
0.0 -1.962000000000e+01 0.0 
0.0 -1.962000000000e+01 0.0 
0.0 -1.962000000000e+01 0.0 
0.0 -1.962000000000e+01 0.0 
0.0 -1.962000000000e+01 0.0 
0.0 -1.962000000000e+01 0.0 
0.0 -1.962000000000e+01 0.0 
0.0 -1.962000000000e+01 0.0 
0.0 -1.962000000000e+01 0.0 
0.0 -1.962000000000e+01 0.0 
0.0 -1.962000000000e+01 0.0 
0.0 -1.962000000000e+01 0.0 
0.0 -1.962000000000e+01 0.0 
0.0 -1.962000000000e+01 0.0 
0.0 -1.962000000000e+01 0.0 
0.0 -1.962000000000e+01 0.0 
0.0 -1.962000000000e+01 0.0 
0.0 -1.962000000000e+01 0.0 
0.0 -1.962000000000e+01 0.0 
0.0 -1.962000000000e+01 0.0 
0.0 -1.962000000000e+01 0.0 
0.0 -1.962000000000e+01 0.0 
0.0 -1.962000000000e+01 0.0 
0.0 -1.962000000000e+01 0.0 
0.0 -1.962000000000e+01 0.0 
0.0 -1.962000000000e+01 0.0 
0.0 -1.962000000000e+01 0.0 
0.0 -1.962000000000e+01 0.0 
0.0 -1.962000000000e+01 0.0 
0.0 -1.962000000000e+01 0.0 
0.0 -1.962000000000e+01 0.0 
0.0 -1.962000000000e+01 0.0 
0.0 -1.962000000000e+01 0.0 
0.0 -1.962000000000e+01 0.0 
0.0 -1.962000000000e+01 0.0 
0.0 -1.962000000000e+01 0.0 
0.0 -1.962000000000e+01 0.0 
0.0 -1.962000000000e+01 0.0 
0.0 -1.962000000000e+01 0.0 
0.0 -1.962000000000e+01 0.0 
0.0 -1.962000000000e+01 0.0 
0.0 -1.962000000000e+01 0.0 
0.0 -1.962000000000e+01 0.0 
0.0 -1.962000000000e+01 0.0 
0.0 -1.962000000000e+01 0.0 
0.0 -1.962000000000e+01 0.0 
0.0 -1.962000000000e+01 0.0 
0.0 -1.962000000000e+01 0.0 
0.0 -1.962000000000e+01 0.0 
0.0 -1.962000000000e+01 0.0 
0.0 -1.962000000000e+01 0.0 
0.0 -1.962000000000e+01 0.0 
0.0 -1.962000000000e+01 0.0 
0.0 -1.962000000000e+01 0.0 
0.0 -1.962000000000e+01 0.0 
0.0 -1.962000000000e+01 0.0 
0.0 -1.962000000000e+01 0.0 
0.0 -1.962000000000e+01 0.0 
0.0 -1.962000000000e+01 0.0 
0.0 -1.962000000000e+01 0.0 
0.0 -1.962000000000e+01 0.0 
0.0 -1.962000000000e+01 0.0 
0.0 -1.962000000000e+01 0.0 
0.0 -1.962000000000e+01 0.0 
0.0 -1.962000000000e+01 0.0 
0.0 -1.962000000000e+01 0.0 
0.0 -1.962000000000e+01 0.0 
0.0 -1.962000000000e+01 0.0 
0.0 -1.962000000000e+01 0.0 
0.0 -1.962000000000e+01 0.0 
0.0 -1.962000000000e+01 0.0 
0.0 -1.962000000000e+01 0.0 
0.0 -1.962000000000e+01 0.0 
0.0 -1.962000000000e+01 0.0 
0.0 -1.962000000000e+01 0.0 
0.0 -1.962000000000e+01 0.0 
0.0 -1.962000000000e+01 0.0 
0.0 -1.962000000000e+01 0.0 
0.0 -1.962000000000e+01 0.0 
0.0 -1.962000000000e+01 0.0 
0.0 -1.962000000000e+01 0.0 
0.0 -1.962000000000e+01 0.0 
0.0 -1.962000000000e+01 0.0 
0.0 -1.962000000000e+01 0.0 
0.0 -1.962000000000e+01 0.0 
0.0 -1.962000000000e+01 0.0 
0.0 -1.962000000000e+01 0.0 
0.0 -1.962000000000e+01 0.0 
0.0 -1.962000000000e+01 0.0 
0.0 -1.962000000000e+01 0.0 
0.0 -1.962000000000e+01 0.0 
0.0 -1.962000000000e+01 0.0 
0.0 -1.962000000000e+01 0.0 
0.0 -1.962000000000e+01 0.0 
0.0 -1.962000000000e+01 0.0 
0.0 -1.962000000000e+01 0.0 
0.0 -1.962000000000e+01 0.0 
0.0 -1.962000000000e+01 0.0 
0.0 -1.962000000000e+01 0.0 
0.0 -1.962000000000e+01 0.0 
0.0 -1.962000000000e+01 0.0 
0.0 -1.962000000000e+01 0.0 
0.0 -1.962000000000e+01 0.0 
0.0 -1.962000000000e+01 0.0 
0.0 -1.962000000000e+01 0.0 
0.0 -1.962000000000e+01 0.0 
0.0 -1.962000000000e+01 0.0 
0.0 -1.962000000000e+01 0.0 
0.0 -1.962000000000e+01 0.0 
0.0 -1.962000000000e+01 0.0 
0.0 -1.962000000000e+01 0.0 
0.0 -1.962000000000e+01 0.0 
0.0 -1.962000000000e+01 0.0 
0.0 -1.962000000000e+01 0.0 
0.0 -1.962000000000e+01 0.0 
0.0 -1.962000000000e+01 0.0 
0.0 -1.962000000000e+01 0.0 
0.0 -1.962000000000e+01 0.0 
0.0 -1.962000000000e+01 0.0 
0.0 -1.962000000000e+01 0.0 
0.0 -1.962000000000e+01 0.0 
0.0 -1.962000000000e+01 0.0 
0.0 -1.962000000000e+01 0.0 
0.0 -1.962000000000e+01 0.0 
0.0 -1.962000000000e+01 0.0 
0.0 -1.962000000000e+01 0.0 
0.0 -1.962000000000e+01 0.0 
0.0 -1.962000000000e+01 0.0 
0.0 -1.962000000000e+01 0.0 
0.0 -1.962000000000e+01 0.0 
0.0 -1.962000000000e+01 0.0 
0.0 -1.962000000000e+01 0.0 
0.0 -1.962000000000e+01 0.0 
0.0 -1.962000000000e+01 0.0 
0.0 -1.962000000000e+01 0.0 
0.0 -1.962000000000e+01 0.0 
0.0 -1.962000000000e+01 0.0 
0.0 -1.962000000000e+01 0.0 
0.0 -1.962000000000e+01 0.0 
0.0 -1.962000000000e+01 0.0 
0.0 -1.962000000000e+01 0.0 
0.0 -1.962000000000e+01 0.0 
0.0 -1.962000000000e+01 0.0 
0.0 -1.962000000000e+01 0.0 
0.0 -1.962000000000e+01 0.0 
0.0 -1.962000000000e+01 0.0 
0.0 -1.962000000000e+01 0.0 
0.0 -1.962000000000e+01 0.0 
0.0 -1.962000000000e+01 0.0 
0.0 -1.962000000000e+01 0.0 
0.0 -1.962000000000e+01 0.0 
0.0 -1.962000000000e+01 0.0 
0.0 -1.962000000000e+01 0.0 
0.0 -1.962000000000e+01 0.0 
0.0 -1.962000000000e+01 0.0 
0.0 -1.962000000000e+01 0.0 
0.0 -1.962000000000e+01 0.0 
0.0 -1.962000000000e+01 0.0 
0.0 -1.962000000000e+01 0.0 
0.0 -1.962000000000e+01 0.0 
0.0 -1.962000000000e+01 0.0 
0.0 -1.962000000000e+01 0.0 
0.0 -1.962000000000e+01 0.0 
0.0 -1.962000000000e+01 0.0 
0.0 -1.962000000000e+01 0.0 
0.0 -1.962000000000e+01 0.0 
0.0 -1.962000000000e+01 0.0 
0.0 -1.962000000000e+01 0.0 
0.0 -1.962000000000e+01 0.0 
0.0 -1.962000000000e+01 0.0 
0.0 -1.962000000000e+01 0.0 
0.0 -1.962000000000e+01 0.0 
0.0 -1.962000000000e+01 0.0 
0.0 -1.962000000000e+01 0.0 
0.0 -1.962000000000e+01 0.0 
0.0 -1.962000000000e+01 0.0 
0.0 -1.962000000000e+01 0.0 
0.0 -1.962000000000e+01 0.0 
0.0 -1.962000000000e+01 0.0 
0.0 -1.962000000000e+01 0.0 
0.0 -1.962000000000e+01 0.0 
0.0 -1.962000000000e+01 0.0 
0.0 -1.962000000000e+01 0.0 
0.0 -1.962000000000e+01 0.0 
0.0 -1.962000000000e+01 0.0 
0.0 -1.962000000000e+01 0.0 
0.0 -1.962000000000e+01 0.0 
0.0 -1.962000000000e+01 0.0 
0.0 -1.962000000000e+01 0.0 
0.0 -1.962000000000e+01 0.0 
0.0 -1.962000000000e+01 0.0 
0.0 -1.962000000000e+01 0.0 
0.0 -1.962000000000e+01 0.0 
0.0 -1.962000000000e+01 0.0 
0.0 -1.962000000000e+01 0.0 
0.0 -1.962000000000e+01 0.0 
0.0 -1.962000000000e+01 0.0 
0.0 -1.962000000000e+01 0.0 
0.0 -1.962000000000e+01 0.0 
0.0 -1.962000000000e+01 0.0 
0.0 -1.962000000000e+01 0.0 
0.0 -1.962000000000e+01 0.0 
0.0 -1.962000000000e+01 0.0 
0.0 -1.962000000000e+01 0.0 
0.0 -1.962000000000e+01 0.0 
0.0 -1.962000000000e+01 0.0 
0.0 -1.962000000000e+01 0.0 
0.0 -1.962000000000e+01 0.0 
0.0 -1.962000000000e+01 0.0 
0.0 -1.962000000000e+01 0.0 
0.0 -1.962000000000e+01 0.0 
0.0 -1.962000000000e+01 0.0 
0.0 -1.962000000000e+01 0.0 
0.0 -1.962000000000e+01 0.0 
0.0 -1.962000000000e+01 0.0 
0.0 -1.962000000000e+01 0.0 
0.0 -1.962000000000e+01 0.0 
0.0 -1.962000000000e+01 0.0 
0.0 -1.962000000000e+01 0.0 
0.0 -1.962000000000e+01 0.0 
0.0 -1.962000000000e+01 0.0 
0.0 -1.962000000000e+01 0.0 
0.0 -1.962000000000e+01 0.0 
0.0 -1.962000000000e+01 0.0 
0.0 -1.962000000000e+01 0.0 
0.0 -1.962000000000e+01 0.0 
0.0 -1.962000000000e+01 0.0 
0.0 -1.962000000000e+01 0.0 
0.0 -1.962000000000e+01 0.0 
0.0 -1.962000000000e+01 0.0 
0.0 -1.962000000000e+01 0.0 
0.0 -1.962000000000e+01 0.0 
0.0 -1.962000000000e+01 0.0 
0.0 -1.962000000000e+01 0.0 
0.0 -1.962000000000e+01 0.0 
0.0 -1.962000000000e+01 0.0 
0.0 -1.962000000000e+01 0.0 
0.0 -1.962000000000e+01 0.0 
0.0 -1.962000000000e+01 0.0 
0.0 -1.962000000000e+01 0.0 
0.0 -1.962000000000e+01 0.0 
0.0 -1.962000000000e+01 0.0 
0.0 -1.962000000000e+01 0.0 
0.0 -1.962000000000e+01 0.0 
0.0 -1.962000000000e+01 0.0 
0.0 -1.962000000000e+01 0.0 
0.0 -1.962000000000e+01 0.0 
0.0 -1.962000000000e+01 0.0 
0.0 -1.962000000000e+01 0.0 
0.0 -1.962000000000e+01 0.0 
0.0 -1.962000000000e+01 0.0 
0.0 -1.962000000000e+01 0.0 
0.0 -1.962000000000e+01 0.0 
0.0 -1.962000000000e+01 0.0 
0.0 -1.962000000000e+01 0.0 
0.0 -1.962000000000e+01 0.0 
0.0 -1.962000000000e+01 0.0 
0.0 -1.962000000000e+01 0.0 
0.0 -1.962000000000e+01 0.0 
0.0 -1.962000000000e+01 0.0 
0.0 -1.962000000000e+01 0.0 
0.0 -1.962000000000e+01 0.0 
0.0 -1.962000000000e+01 0.0 
0.0 -1.962000000000e+01 0.0 
0.0 -1.962000000000e+01 0.0 
0.0 -1.962000000000e+01 0.0 
0.0 -1.962000000000e+01 0.0 
0.0 -1.962000000000e+01 0.0 
0.0 -1.962000000000e+01 0.0 
0.0 -1.962000000000e+01 0.0 
0.0 -1.962000000000e+01 0.0 
0.0 -1.962000000000e+01 0.0 
0.0 -1.962000000000e+01 0.0 
0.0 -1.962000000000e+01 0.0 
0.0 -1.962000000000e+01 0.0 
0.0 -1.962000000000e+01 0.0 
0.0 -1.962000000000e+01 0.0 
0.0 -1.962000000000e+01 0.0 
0.0 -1.962000000000e+01 0.0 
0.0 -1.962000000000e+01 0.0 
0.0 -1.962000000000e+01 0.0 
0.0 -1.962000000000e+01 0.0 
0.0 -1.962000000000e+01 0.0 
0.0 -1.962000000000e+01 0.0 
0.0 -1.962000000000e+01 0.0 
0.0 -1.962000000000e+01 0.0 
0.0 -1.962000000000e+01 0.0 
0.0 -1.962000000000e+01 0.0 
0.0 -1.962000000000e+01 0.0 
0.0 -1.962000000000e+01 0.0 
0.0 -1.962000000000e+01 0.0 
0.0 -1.962000000000e+01 0.0 
0.0 -1.962000000000e+01 0.0 
0.0 -1.962000000000e+01 0.0 
0.0 -1.962000000000e+01 0.0 
0.0 -1.962000000000e+01 0.0 
0.0 -1.962000000000e+01 0.0 
0.0 -1.962000000000e+01 0.0 
0.0 -1.962000000000e+01 0.0 
0.0 -1.962000000000e+01 0.0 
0.0 -1.962000000000e+01 0.0 
0.0 -1.962000000000e+01 0.0 
0.0 -1.962000000000e+01 0.0 
0.0 -1.962000000000e+01 0.0 
0.0 -1.962000000000e+01 0.0 
0.0 -1.962000000000e+01 0.0 
0.0 -1.962000000000e+01 0.0 
0.0 -1.962000000000e+01 0.0 
0.0 -1.962000000000e+01 0.0 
0.0 -1.962000000000e+01 0.0 
0.0 -1.962000000000e+01 0.0 
0.0 -1.962000000000e+01 0.0 
0.0 -1.962000000000e+01 0.0 
0.0 -1.962000000000e+01 0.0 
0.0 -1.962000000000e+01 0.0 
0.0 -1.962000000000e+01 0.0 
0.0 -1.962000000000e+01 0.0 
0.0 -1.962000000000e+01 0.0 
0.0 -1.962000000000e+01 0.0 
0.0 -1.962000000000e+01 0.0 
0.0 -1.962000000000e+01 0.0 
0.0 -1.962000000000e+01 0.0 
0.0 -1.962000000000e+01 0.0 
0.0 -1.962000000000e+01 0.0 
0.0 -1.962000000000e+01 0.0 
0.0 -1.962000000000e+01 0.0 
0.0 -1.962000000000e+01 0.0 
0.0 -1.962000000000e+01 0.0 
0.0 -1.962000000000e+01 0.0 
0.0 -1.962000000000e+01 0.0 
0.0 -1.962000000000e+01 0.0 
0.0 -1.962000000000e+01 0.0 
0.0 -1.962000000000e+01 0.0 
0.0 -1.962000000000e+01 0.0 
0.0 -1.962000000000e+01 0.0 
0.0 -1.962000000000e+01 0.0 
0.0 -1.962000000000e+01 0.0 
0.0 -1.962000000000e+01 0.0 
0.0 -1.962000000000e+01 0.0 
0.0 -1.962000000000e+01 0.0 
0.0 -1.962000000000e+01 0.0 
0.0 -1.962000000000e+01 0.0 
0.0 -1.962000000000e+01 0.0 
0.0 -1.962000000000e+01 0.0 
0.0 -1.962000000000e+01 0.0 
0.0 -1.962000000000e+01 0.0 
0.0 -1.962000000000e+01 0.0 

VECTORS node_rhside_materi_fixed float
-1.339532905552e+00 0.0 0.0 
3.595710541951e+01 0.0 0.0 
-8.163885264148e+01 -1.953019029798e+02 0.0 
5.393871534908e+01 -1.297165096446e+02 0.0 
-6.856362365314e+00 0.0 0.0 
-1.479569924959e+01 0.0 0.0 
-2.118293591138e+01 0.0 0.0 
-2.932829823354e+01 0.0 0.0 
-3.635884086679e+01 0.0 0.0 
-4.370217061348e+01 0.0 0.0 
-5.109500564418e+01 0.0 0.0 
-5.854699428830e+01 0.0 0.0 
-6.612655649798e+01 0.0 0.0 
-7.380093571817e+01 0.0 0.0 
-8.213398690979e+01 0.0 0.0 
-9.057497434118e+01 0.0 0.0 
-9.873627477252e+01 0.0 0.0 
-1.077969617068e+02 0.0 0.0 
-1.169232724012e+02 0.0 0.0 
-1.263374747481e+02 0.0 0.0 
-1.360417153399e+02 0.0 0.0 
-1.459985201711e+02 0.0 0.0 
-1.565138285659e+02 0.0 0.0 
6.474426517783e-01 -2.582728355990e+02 0.0 
1.077631429836e+00 -2.595657879420e+02 0.0 
3.461242380905e+00 -2.588142557744e+02 0.0 
2.377221137995e+00 -2.590819093040e+02 0.0 
4.578433814000e+00 -2.600841706862e+02 0.0 
5.345782444936e+00 -2.597333982878e+02 0.0 
6.143454872451e+00 -2.608142878650e+02 0.0 
7.358482680574e+00 -2.618809783842e+02 0.0 
9.691647300102e+00 -2.620280809169e+02 0.0 
9.106757681311e+00 -2.632470616424e+02 0.0 
1.198704573945e+01 -2.655720337208e+02 0.0 
1.341206619450e+01 -2.663924127771e+02 0.0 
1.481720474369e+01 -2.692866483458e+02 0.0 
1.638872189087e+01 -2.714014632280e+02 0.0 
1.832854990900e+01 -2.743211153134e+02 0.0 
1.969662007306e+01 -2.782391330962e+02 0.0 
2.237326135645e+01 -2.820718932764e+02 0.0 
2.375936873818e+01 -2.866410845609e+02 0.0 
2.530299952672e+01 -2.915080398070e+02 0.0 
2.648852943940e+01 -2.964632794234e+02 0.0 
2.706558861119e+01 -3.020540182354e+02 0.0 
2.829122499871e+01 -3.083119033556e+02 0.0 
2.858942074200e+01 -3.141269053033e+02 0.0 
2.885517405336e+01 -3.201619542223e+02 0.0 
2.879580663805e+01 -3.264329983060e+02 0.0 
2.828247993154e+01 -3.322335631634e+02 0.0 
2.762336105618e+01 -3.378384464810e+02 0.0 
2.670819001632e+01 -3.434486745718e+02 0.0 
2.576539756289e+01 -3.488439381036e+02 0.0 
2.456184958503e+01 -3.535774418872e+02 0.0 
2.304158235679e+01 -3.578393768829e+02 0.0 
2.172600242037e+01 -3.626292068387e+02 0.0 
2.031188933961e+01 -3.660700306002e+02 0.0 
1.886750606103e+01 -3.696865261417e+02 0.0 
1.725399563920e+01 -3.727414125085e+02 0.0 
1.585452014792e+01 -3.754717630326e+02 0.0 
1.439598270386e+01 -3.779849137899e+02 0.0 
1.292373695644e+01 -3.801329440210e+02 0.0 
1.161774633908e+01 -3.819735129290e+02 0.0 
1.037867294586e+01 -3.839301725112e+02 0.0 
9.101503451198e+00 -3.851360996061e+02 0.0 
7.926237395361e+00 -3.862134097629e+02 0.0 
6.749338650242e+00 -3.870310327684e+02 0.0 
5.835885306679e+00 -3.886196302526e+02 0.0 
4.565211764092e+00 -3.885030826400e+02 0.0 
3.626961657556e+00 -3.896654116088e+02 0.0 
2.900492398027e+00 -3.895944424650e+02 0.0 
1.837823365610e+00 -3.900424432583e+02 0.0 
8.276697302991e-01 -3.901014621775e+02 0.0 
4.384074168154e+01 0.0 0.0 
5.234549195053e+01 0.0 0.0 
6.028603061989e+01 0.0 0.0 
6.791379613533e+01 0.0 0.0 
7.546928702510e+01 0.0 0.0 
8.318717983281e+01 0.0 0.0 
9.024813418958e+01 0.0 0.0 
9.675668233969e+01 0.0 0.0 
1.044796705115e+02 0.0 0.0 
0.0 0.0 0.0 
0.0 0.0 0.0 
0.0 0.0 0.0 
0.0 0.0 0.0 
0.0 0.0 0.0 
0.0 0.0 0.0 
0.0 0.0 0.0 
0.0 0.0 0.0 
0.0 0.0 0.0 
0.0 0.0 0.0 
0.0 0.0 0.0 
7.030287543715e+00 0.0 0.0 
1.986457620516e+01 0.0 0.0 
2.788777925910e+01 0.0 0.0 
0.0 0.0 0.0 
0.0 0.0 0.0 
0.0 0.0 0.0 
0.0 0.0 0.0 
0.0 0.0 0.0 
0.0 0.0 0.0 
0.0 0.0 0.0 
0.0 0.0 0.0 
0.0 0.0 0.0 
0.0 0.0 0.0 
0.0 0.0 0.0 
0.0 0.0 0.0 
0.0 0.0 0.0 
0.0 0.0 0.0 
0.0 0.0 0.0 
0.0 0.0 0.0 
0.0 0.0 0.0 
0.0 0.0 0.0 
0.0 0.0 0.0 
0.0 0.0 0.0 
0.0 0.0 0.0 
0.0 0.0 0.0 
0.0 0.0 0.0 
0.0 0.0 0.0 
0.0 0.0 0.0 
0.0 0.0 0.0 
0.0 0.0 0.0 
0.0 0.0 0.0 
0.0 0.0 0.0 
0.0 0.0 0.0 
0.0 0.0 0.0 
0.0 0.0 0.0 
0.0 0.0 0.0 
0.0 0.0 0.0 
0.0 0.0 0.0 
0.0 0.0 0.0 
0.0 0.0 0.0 
0.0 0.0 0.0 
0.0 0.0 0.0 
0.0 0.0 0.0 
0.0 0.0 0.0 
0.0 0.0 0.0 
0.0 0.0 0.0 
0.0 0.0 0.0 
0.0 0.0 0.0 
0.0 0.0 0.0 
0.0 0.0 0.0 
0.0 0.0 0.0 
0.0 0.0 0.0 
0.0 0.0 0.0 
0.0 0.0 0.0 
0.0 0.0 0.0 
0.0 0.0 0.0 
0.0 0.0 0.0 
0.0 0.0 0.0 
0.0 0.0 0.0 
0.0 0.0 0.0 
0.0 0.0 0.0 
0.0 0.0 0.0 
0.0 0.0 0.0 
0.0 0.0 0.0 
0.0 0.0 0.0 
0.0 0.0 0.0 
0.0 0.0 0.0 
0.0 0.0 0.0 
0.0 0.0 0.0 
0.0 0.0 0.0 
0.0 0.0 0.0 
0.0 0.0 0.0 
0.0 0.0 0.0 
0.0 0.0 0.0 
0.0 0.0 0.0 
0.0 0.0 0.0 
0.0 0.0 0.0 
0.0 0.0 0.0 
0.0 0.0 0.0 
0.0 0.0 0.0 
0.0 0.0 0.0 
0.0 0.0 0.0 
0.0 0.0 0.0 
0.0 0.0 0.0 
0.0 0.0 0.0 
0.0 0.0 0.0 
0.0 0.0 0.0 
0.0 0.0 0.0 
0.0 0.0 0.0 
0.0 0.0 0.0 
0.0 0.0 0.0 
0.0 0.0 0.0 
0.0 0.0 0.0 
0.0 0.0 0.0 
0.0 0.0 0.0 
0.0 0.0 0.0 
0.0 0.0 0.0 
0.0 0.0 0.0 
0.0 0.0 0.0 
0.0 0.0 0.0 
0.0 0.0 0.0 
0.0 0.0 0.0 
0.0 0.0 0.0 
0.0 0.0 0.0 
0.0 0.0 0.0 
0.0 0.0 0.0 
0.0 0.0 0.0 
0.0 0.0 0.0 
0.0 0.0 0.0 
0.0 0.0 0.0 
0.0 0.0 0.0 
0.0 0.0 0.0 
0.0 0.0 0.0 
0.0 0.0 0.0 
0.0 0.0 0.0 
0.0 0.0 0.0 
0.0 0.0 0.0 
0.0 0.0 0.0 
0.0 0.0 0.0 
0.0 0.0 0.0 
0.0 0.0 0.0 
0.0 0.0 0.0 
0.0 0.0 0.0 
0.0 0.0 0.0 
0.0 0.0 0.0 
0.0 0.0 0.0 
0.0 0.0 0.0 
0.0 0.0 0.0 
0.0 0.0 0.0 
0.0 0.0 0.0 
0.0 0.0 0.0 
0.0 0.0 0.0 
0.0 0.0 0.0 
0.0 0.0 0.0 
0.0 0.0 0.0 
0.0 0.0 0.0 
0.0 0.0 0.0 
0.0 0.0 0.0 
0.0 0.0 0.0 
0.0 0.0 0.0 
0.0 0.0 0.0 
0.0 0.0 0.0 
0.0 0.0 0.0 
0.0 0.0 0.0 
0.0 0.0 0.0 
0.0 0.0 0.0 
0.0 0.0 0.0 
0.0 0.0 0.0 
0.0 0.0 0.0 
0.0 0.0 0.0 
0.0 0.0 0.0 
0.0 0.0 0.0 
0.0 0.0 0.0 
0.0 0.0 0.0 
0.0 0.0 0.0 
0.0 0.0 0.0 
0.0 0.0 0.0 
0.0 0.0 0.0 
0.0 0.0 0.0 
0.0 0.0 0.0 
0.0 0.0 0.0 
0.0 0.0 0.0 
0.0 0.0 0.0 
0.0 0.0 0.0 
0.0 0.0 0.0 
0.0 0.0 0.0 
0.0 0.0 0.0 
0.0 0.0 0.0 
0.0 0.0 0.0 
0.0 0.0 0.0 
0.0 0.0 0.0 
0.0 0.0 0.0 
0.0 0.0 0.0 
0.0 0.0 0.0 
0.0 0.0 0.0 
0.0 0.0 0.0 
0.0 0.0 0.0 
0.0 0.0 0.0 
0.0 0.0 0.0 
0.0 0.0 0.0 
0.0 0.0 0.0 
0.0 0.0 0.0 
0.0 0.0 0.0 
0.0 0.0 0.0 
0.0 0.0 0.0 
0.0 0.0 0.0 
0.0 0.0 0.0 
0.0 0.0 0.0 
0.0 0.0 0.0 
0.0 0.0 0.0 
0.0 0.0 0.0 
0.0 0.0 0.0 
0.0 0.0 0.0 
0.0 0.0 0.0 
0.0 0.0 0.0 
0.0 0.0 0.0 
0.0 0.0 0.0 
0.0 0.0 0.0 
0.0 0.0 0.0 
0.0 0.0 0.0 
0.0 0.0 0.0 
0.0 0.0 0.0 
0.0 0.0 0.0 
0.0 0.0 0.0 
0.0 0.0 0.0 
0.0 0.0 0.0 
0.0 0.0 0.0 
0.0 0.0 0.0 
0.0 0.0 0.0 
0.0 0.0 0.0 
0.0 0.0 0.0 
0.0 0.0 0.0 
0.0 0.0 0.0 
0.0 0.0 0.0 
0.0 0.0 0.0 
0.0 0.0 0.0 
0.0 0.0 0.0 
0.0 0.0 0.0 
0.0 0.0 0.0 
0.0 0.0 0.0 
0.0 0.0 0.0 
0.0 0.0 0.0 
0.0 0.0 0.0 
0.0 0.0 0.0 
0.0 0.0 0.0 
0.0 0.0 0.0 
0.0 0.0 0.0 
0.0 0.0 0.0 
0.0 0.0 0.0 
0.0 0.0 0.0 
0.0 0.0 0.0 
0.0 0.0 0.0 
0.0 0.0 0.0 
0.0 0.0 0.0 
0.0 0.0 0.0 
0.0 0.0 0.0 
0.0 0.0 0.0 
0.0 0.0 0.0 
0.0 0.0 0.0 
0.0 0.0 0.0 
0.0 0.0 0.0 
0.0 0.0 0.0 
0.0 0.0 0.0 
0.0 0.0 0.0 
0.0 0.0 0.0 
0.0 0.0 0.0 
0.0 0.0 0.0 
0.0 0.0 0.0 
0.0 0.0 0.0 
0.0 0.0 0.0 
0.0 0.0 0.0 
0.0 0.0 0.0 
0.0 0.0 0.0 
0.0 0.0 0.0 
0.0 0.0 0.0 
0.0 0.0 0.0 
0.0 0.0 0.0 
0.0 0.0 0.0 
0.0 0.0 0.0 
0.0 0.0 0.0 
0.0 0.0 0.0 
0.0 0.0 0.0 
0.0 0.0 0.0 
0.0 0.0 0.0 
0.0 0.0 0.0 
0.0 0.0 0.0 
0.0 0.0 0.0 
0.0 0.0 0.0 
0.0 0.0 0.0 
0.0 0.0 0.0 
0.0 0.0 0.0 
0.0 0.0 0.0 
0.0 0.0 0.0 
0.0 0.0 0.0 
0.0 0.0 0.0 
0.0 0.0 0.0 
0.0 0.0 0.0 
0.0 0.0 0.0 
0.0 0.0 0.0 
0.0 0.0 0.0 
0.0 0.0 0.0 
0.0 0.0 0.0 
0.0 0.0 0.0 
0.0 0.0 0.0 
0.0 0.0 0.0 
0.0 0.0 0.0 
0.0 0.0 0.0 
0.0 0.0 0.0 
0.0 0.0 0.0 
0.0 0.0 0.0 
0.0 0.0 0.0 
0.0 0.0 0.0 
0.0 0.0 0.0 
0.0 0.0 0.0 
0.0 0.0 0.0 
0.0 0.0 0.0 
0.0 0.0 0.0 
0.0 0.0 0.0 
0.0 0.0 0.0 
0.0 0.0 0.0 
0.0 0.0 0.0 
0.0 0.0 0.0 
0.0 0.0 0.0 
0.0 0.0 0.0 
0.0 0.0 0.0 
0.0 0.0 0.0 
0.0 0.0 0.0 
0.0 0.0 0.0 
0.0 0.0 0.0 
0.0 0.0 0.0 
0.0 0.0 0.0 
0.0 0.0 0.0 
0.0 0.0 0.0 
0.0 0.0 0.0 
0.0 0.0 0.0 
0.0 0.0 0.0 
0.0 0.0 0.0 
0.0 0.0 0.0 
0.0 0.0 0.0 
0.0 0.0 0.0 
0.0 0.0 0.0 
0.0 0.0 0.0 
0.0 0.0 0.0 
0.0 0.0 0.0 
0.0 0.0 0.0 
0.0 0.0 0.0 
0.0 0.0 0.0 
0.0 0.0 0.0 
0.0 0.0 0.0 
0.0 0.0 0.0 
0.0 0.0 0.0 
0.0 0.0 0.0 
0.0 0.0 0.0 
0.0 0.0 0.0 
0.0 0.0 0.0 
0.0 0.0 0.0 
0.0 0.0 0.0 
0.0 0.0 0.0 
0.0 0.0 0.0 
0.0 0.0 0.0 
0.0 0.0 0.0 
0.0 0.0 0.0 
0.0 0.0 0.0 
0.0 0.0 0.0 
0.0 0.0 0.0 
0.0 0.0 0.0 
0.0 0.0 0.0 
0.0 0.0 0.0 
0.0 0.0 0.0 
0.0 0.0 0.0 
0.0 0.0 0.0 
0.0 0.0 0.0 
0.0 0.0 0.0 
0.0 0.0 0.0 
0.0 0.0 0.0 
0.0 0.0 0.0 
0.0 0.0 0.0 
0.0 0.0 0.0 
0.0 0.0 0.0 
0.0 0.0 0.0 
0.0 0.0 0.0 
0.0 0.0 0.0 
0.0 0.0 0.0 
0.0 0.0 0.0 
0.0 0.0 0.0 
0.0 0.0 0.0 
0.0 0.0 0.0 
0.0 0.0 0.0 
0.0 0.0 0.0 
0.0 0.0 0.0 
0.0 0.0 0.0 
0.0 0.0 0.0 
0.0 0.0 0.0 
0.0 0.0 0.0 
0.0 0.0 0.0 
0.0 0.0 0.0 
0.0 0.0 0.0 
0.0 0.0 0.0 
0.0 0.0 0.0 
0.0 0.0 0.0 
0.0 0.0 0.0 
0.0 0.0 0.0 
0.0 0.0 0.0 
0.0 0.0 0.0 
0.0 0.0 0.0 
0.0 0.0 0.0 
0.0 0.0 0.0 
0.0 0.0 0.0 
0.0 0.0 0.0 
0.0 0.0 0.0 
0.0 0.0 0.0 
0.0 0.0 0.0 
0.0 0.0 0.0 
0.0 0.0 0.0 
0.0 0.0 0.0 
0.0 0.0 0.0 
0.0 0.0 0.0 
0.0 0.0 0.0 
0.0 0.0 0.0 
0.0 0.0 0.0 
0.0 0.0 0.0 
0.0 0.0 0.0 
0.0 0.0 0.0 
0.0 0.0 0.0 
0.0 0.0 0.0 
0.0 0.0 0.0 
0.0 0.0 0.0 
0.0 0.0 0.0 
0.0 0.0 0.0 
0.0 0.0 0.0 
0.0 0.0 0.0 
0.0 0.0 0.0 
0.0 0.0 0.0 
0.0 0.0 0.0 
0.0 0.0 0.0 
0.0 0.0 0.0 
0.0 0.0 0.0 
0.0 0.0 0.0 
0.0 0.0 0.0 
0.0 0.0 0.0 
0.0 0.0 0.0 
0.0 0.0 0.0 
0.0 0.0 0.0 
0.0 0.0 0.0 
0.0 0.0 0.0 
0.0 0.0 0.0 
0.0 0.0 0.0 
0.0 0.0 0.0 
0.0 0.0 0.0 
0.0 0.0 0.0 
0.0 0.0 0.0 
0.0 0.0 0.0 
0.0 0.0 0.0 
0.0 0.0 0.0 
0.0 0.0 0.0 
0.0 0.0 0.0 
0.0 0.0 0.0 
0.0 0.0 0.0 
0.0 0.0 0.0 
0.0 0.0 0.0 
0.0 0.0 0.0 
0.0 0.0 0.0 
0.0 0.0 0.0 
0.0 0.0 0.0 
0.0 0.0 0.0 
0.0 0.0 0.0 
0.0 0.0 0.0 
0.0 0.0 0.0 
0.0 0.0 0.0 
0.0 0.0 0.0 
0.0 0.0 0.0 
0.0 0.0 0.0 
0.0 0.0 0.0 
0.0 0.0 0.0 
0.0 0.0 0.0 
0.0 0.0 0.0 
0.0 0.0 0.0 
0.0 0.0 0.0 
0.0 0.0 0.0 
0.0 0.0 0.0 
0.0 0.0 0.0 
0.0 0.0 0.0 
0.0 0.0 0.0 
0.0 0.0 0.0 
0.0 0.0 0.0 
0.0 0.0 0.0 
0.0 0.0 0.0 
0.0 0.0 0.0 
0.0 0.0 0.0 
0.0 0.0 0.0 
0.0 0.0 0.0 
0.0 0.0 0.0 
0.0 0.0 0.0 
0.0 0.0 0.0 
0.0 0.0 0.0 
0.0 0.0 0.0 
0.0 0.0 0.0 
0.0 0.0 0.0 
0.0 0.0 0.0 
0.0 0.0 0.0 
0.0 0.0 0.0 
0.0 0.0 0.0 
0.0 0.0 0.0 
0.0 0.0 0.0 
0.0 0.0 0.0 
0.0 0.0 0.0 
0.0 0.0 0.0 
0.0 0.0 0.0 
0.0 0.0 0.0 
0.0 0.0 0.0 
0.0 0.0 0.0 
0.0 0.0 0.0 
0.0 0.0 0.0 
0.0 0.0 0.0 
0.0 0.0 0.0 
0.0 0.0 0.0 
0.0 0.0 0.0 
0.0 0.0 0.0 
0.0 0.0 0.0 
0.0 0.0 0.0 
0.0 0.0 0.0 
0.0 0.0 0.0 
0.0 0.0 0.0 
0.0 0.0 0.0 
0.0 0.0 0.0 
0.0 0.0 0.0 
0.0 0.0 0.0 
0.0 0.0 0.0 
0.0 0.0 0.0 
0.0 0.0 0.0 
0.0 0.0 0.0 
0.0 0.0 0.0 
0.0 0.0 0.0 
0.0 0.0 0.0 
0.0 0.0 0.0 
0.0 0.0 0.0 
0.0 0.0 0.0 
0.0 0.0 0.0 
0.0 0.0 0.0 
0.0 0.0 0.0 
0.0 0.0 0.0 
0.0 0.0 0.0 
0.0 0.0 0.0 
0.0 0.0 0.0 
0.0 0.0 0.0 
0.0 0.0 0.0 
0.0 0.0 0.0 
0.0 0.0 0.0 
0.0 0.0 0.0 
0.0 0.0 0.0 
0.0 0.0 0.0 
0.0 0.0 0.0 
0.0 0.0 0.0 
0.0 0.0 0.0 
0.0 0.0 0.0 
0.0 0.0 0.0 
0.0 0.0 0.0 
0.0 0.0 0.0 
0.0 0.0 0.0 
0.0 0.0 0.0 
0.0 0.0 0.0 
0.0 0.0 0.0 
0.0 0.0 0.0 
0.0 0.0 0.0 
0.0 0.0 0.0 
0.0 0.0 0.0 
0.0 0.0 0.0 
0.0 0.0 0.0 
0.0 0.0 0.0 
0.0 0.0 0.0 
0.0 0.0 0.0 
0.0 0.0 0.0 
0.0 0.0 0.0 
0.0 0.0 0.0 
0.0 0.0 0.0 
0.0 0.0 0.0 
0.0 0.0 0.0 
0.0 0.0 0.0 
0.0 0.0 0.0 
0.0 0.0 0.0 
0.0 0.0 0.0 
0.0 0.0 0.0 
0.0 0.0 0.0 
0.0 0.0 0.0 
0.0 0.0 0.0 
0.0 0.0 0.0 
0.0 0.0 0.0 
0.0 0.0 0.0 
0.0 0.0 0.0 
0.0 0.0 0.0 
0.0 0.0 0.0 
0.0 0.0 0.0 
0.0 0.0 0.0 
0.0 0.0 0.0 
0.0 0.0 0.0 
0.0 0.0 0.0 
0.0 0.0 0.0 
0.0 0.0 0.0 
0.0 0.0 0.0 
0.0 0.0 0.0 
0.0 0.0 0.0 
0.0 0.0 0.0 
0.0 0.0 0.0 
0.0 0.0 0.0 
0.0 0.0 0.0 
0.0 0.0 0.0 
0.0 0.0 0.0 
0.0 0.0 0.0 
0.0 0.0 0.0 
0.0 0.0 0.0 
0.0 0.0 0.0 
0.0 0.0 0.0 
0.0 0.0 0.0 
0.0 0.0 0.0 
0.0 0.0 0.0 
0.0 0.0 0.0 
0.0 0.0 0.0 
0.0 0.0 0.0 
0.0 0.0 0.0 
0.0 0.0 0.0 
0.0 0.0 0.0 
0.0 0.0 0.0 
0.0 0.0 0.0 
0.0 0.0 0.0 
0.0 0.0 0.0 
0.0 0.0 0.0 
0.0 0.0 0.0 
0.0 0.0 0.0 
0.0 0.0 0.0 
0.0 0.0 0.0 
0.0 0.0 0.0 
0.0 0.0 0.0 
0.0 0.0 0.0 
0.0 0.0 0.0 
0.0 0.0 0.0 
0.0 0.0 0.0 
0.0 0.0 0.0 
0.0 0.0 0.0 
0.0 0.0 0.0 
0.0 0.0 0.0 
0.0 0.0 0.0 
0.0 0.0 0.0 
0.0 0.0 0.0 
0.0 0.0 0.0 
0.0 0.0 0.0 
0.0 0.0 0.0 
0.0 0.0 0.0 
0.0 0.0 0.0 
0.0 0.0 0.0 
0.0 0.0 0.0 
0.0 0.0 0.0 
0.0 0.0 0.0 
0.0 0.0 0.0 
0.0 0.0 0.0 
0.0 0.0 0.0 
0.0 0.0 0.0 
0.0 0.0 0.0 
0.0 0.0 0.0 
0.0 0.0 0.0 
0.0 0.0 0.0 
0.0 0.0 0.0 
0.0 0.0 0.0 
0.0 0.0 0.0 
0.0 0.0 0.0 
0.0 0.0 0.0 
0.0 0.0 0.0 
0.0 0.0 0.0 
0.0 0.0 0.0 
0.0 0.0 0.0 
0.0 0.0 0.0 
0.0 0.0 0.0 
0.0 0.0 0.0 
0.0 0.0 0.0 
0.0 0.0 0.0 
0.0 0.0 0.0 
0.0 0.0 0.0 
0.0 0.0 0.0 
0.0 0.0 0.0 
0.0 0.0 0.0 
0.0 0.0 0.0 
0.0 0.0 0.0 
0.0 0.0 0.0 
0.0 0.0 0.0 
0.0 0.0 0.0 
0.0 0.0 0.0 
0.0 0.0 0.0 
0.0 0.0 0.0 
0.0 0.0 0.0 
0.0 0.0 0.0 
0.0 0.0 0.0 
0.0 0.0 0.0 
0.0 0.0 0.0 
0.0 0.0 0.0 
0.0 0.0 0.0 
0.0 0.0 0.0 
0.0 0.0 0.0 
0.0 0.0 0.0 
0.0 0.0 0.0 
0.0 0.0 0.0 
0.0 0.0 0.0 
0.0 0.0 0.0 
0.0 0.0 0.0 
0.0 0.0 0.0 
0.0 0.0 0.0 
0.0 0.0 0.0 
0.0 0.0 0.0 
0.0 0.0 0.0 
0.0 0.0 0.0 
0.0 0.0 0.0 
0.0 0.0 0.0 
0.0 0.0 0.0 
0.0 0.0 0.0 
0.0 0.0 0.0 
0.0 0.0 0.0 
0.0 0.0 0.0 
0.0 0.0 0.0 
0.0 0.0 0.0 
0.0 0.0 0.0 
0.0 0.0 0.0 
0.0 0.0 0.0 
0.0 0.0 0.0 
0.0 0.0 0.0 
0.0 0.0 0.0 
0.0 0.0 0.0 
0.0 0.0 0.0 
0.0 0.0 0.0 
0.0 0.0 0.0 
0.0 0.0 0.0 
0.0 0.0 0.0 
0.0 0.0 0.0 
0.0 0.0 0.0 
0.0 0.0 0.0 
0.0 0.0 0.0 
0.0 0.0 0.0 
0.0 0.0 0.0 
0.0 0.0 0.0 
0.0 0.0 0.0 
0.0 0.0 0.0 
0.0 0.0 0.0 
0.0 0.0 0.0 
0.0 0.0 0.0 
0.0 0.0 0.0 
0.0 0.0 0.0 
0.0 0.0 0.0 
0.0 0.0 0.0 
0.0 0.0 0.0 
0.0 0.0 0.0 
0.0 0.0 0.0 
0.0 0.0 0.0 
0.0 0.0 0.0 
0.0 0.0 0.0 
0.0 0.0 0.0 
0.0 0.0 0.0 
0.0 0.0 0.0 
0.0 0.0 0.0 
0.0 0.0 0.0 
0.0 0.0 0.0 
0.0 0.0 0.0 
0.0 0.0 0.0 
0.0 0.0 0.0 
0.0 0.0 0.0 
0.0 0.0 0.0 
0.0 0.0 0.0 
0.0 0.0 0.0 
0.0 0.0 0.0 
0.0 0.0 0.0 
0.0 0.0 0.0 
0.0 0.0 0.0 
0.0 0.0 0.0 
0.0 0.0 0.0 
0.0 0.0 0.0 
0.0 0.0 0.0 
0.0 0.0 0.0 
0.0 0.0 0.0 
0.0 0.0 0.0 
0.0 0.0 0.0 
0.0 0.0 0.0 
0.0 0.0 0.0 
0.0 0.0 0.0 
0.0 0.0 0.0 
0.0 0.0 0.0 
0.0 0.0 0.0 
0.0 0.0 0.0 
0.0 0.0 0.0 
0.0 0.0 0.0 
0.0 0.0 0.0 
0.0 0.0 0.0 
0.0 0.0 0.0 
0.0 0.0 0.0 
0.0 0.0 0.0 
0.0 0.0 0.0 
0.0 0.0 0.0 
0.0 0.0 0.0 
0.0 0.0 0.0 
0.0 0.0 0.0 
0.0 0.0 0.0 
0.0 0.0 0.0 
0.0 0.0 0.0 
0.0 0.0 0.0 
0.0 0.0 0.0 
0.0 0.0 0.0 
0.0 0.0 0.0 
0.0 0.0 0.0 
0.0 0.0 0.0 
0.0 0.0 0.0 
0.0 0.0 0.0 
0.0 0.0 0.0 
0.0 0.0 0.0 
0.0 0.0 0.0 
0.0 0.0 0.0 
0.0 0.0 0.0 
0.0 0.0 0.0 
0.0 0.0 0.0 
0.0 0.0 0.0 
0.0 0.0 0.0 
0.0 0.0 0.0 
0.0 0.0 0.0 
0.0 0.0 0.0 
0.0 0.0 0.0 
0.0 0.0 0.0 
0.0 0.0 0.0 
0.0 0.0 0.0 
0.0 0.0 0.0 
0.0 0.0 0.0 
0.0 0.0 0.0 
0.0 0.0 0.0 
0.0 0.0 0.0 
0.0 0.0 0.0 
0.0 0.0 0.0 
0.0 0.0 0.0 
0.0 0.0 0.0 
0.0 0.0 0.0 
0.0 0.0 0.0 
0.0 0.0 0.0 
0.0 0.0 0.0 
0.0 0.0 0.0 
0.0 0.0 0.0 
0.0 0.0 0.0 
0.0 0.0 0.0 
0.0 0.0 0.0 
0.0 0.0 0.0 
0.0 0.0 0.0 
0.0 0.0 0.0 
0.0 0.0 0.0 
0.0 0.0 0.0 
0.0 0.0 0.0 
0.0 0.0 0.0 
0.0 0.0 0.0 
0.0 0.0 0.0 
0.0 0.0 0.0 
0.0 0.0 0.0 
0.0 0.0 0.0 
0.0 0.0 0.0 
0.0 0.0 0.0 
0.0 0.0 0.0 
0.0 0.0 0.0 
0.0 0.0 0.0 
0.0 0.0 0.0 
0.0 0.0 0.0 
0.0 0.0 0.0 
0.0 0.0 0.0 
0.0 0.0 0.0 
0.0 0.0 0.0 
0.0 0.0 0.0 
0.0 0.0 0.0 
0.0 0.0 0.0 
0.0 0.0 0.0 
0.0 0.0 0.0 
0.0 0.0 0.0 
0.0 0.0 0.0 
0.0 0.0 0.0 
0.0 0.0 0.0 
0.0 0.0 0.0 
0.0 0.0 0.0 
0.0 0.0 0.0 
0.0 0.0 0.0 
0.0 0.0 0.0 
0.0 0.0 0.0 
0.0 0.0 0.0 
0.0 0.0 0.0 
0.0 0.0 0.0 
0.0 0.0 0.0 
0.0 0.0 0.0 
0.0 0.0 0.0 
0.0 0.0 0.0 
0.0 0.0 0.0 
0.0 0.0 0.0 
0.0 0.0 0.0 
0.0 0.0 0.0 
0.0 0.0 0.0 
0.0 0.0 0.0 
0.0 0.0 0.0 
0.0 0.0 0.0 
0.0 0.0 0.0 
0.0 0.0 0.0 
0.0 0.0 0.0 
0.0 0.0 0.0 
0.0 0.0 0.0 
0.0 0.0 0.0 
0.0 0.0 0.0 
0.0 0.0 0.0 
0.0 0.0 0.0 
0.0 0.0 0.0 
0.0 0.0 0.0 
0.0 0.0 0.0 
0.0 0.0 0.0 
0.0 0.0 0.0 
0.0 0.0 0.0 
0.0 0.0 0.0 
0.0 0.0 0.0 
0.0 0.0 0.0 
0.0 0.0 0.0 
0.0 0.0 0.0 
0.0 0.0 0.0 
0.0 0.0 0.0 
0.0 0.0 0.0 
0.0 0.0 0.0 
0.0 0.0 0.0 
0.0 0.0 0.0 
0.0 0.0 0.0 
0.0 0.0 0.0 
0.0 0.0 0.0 
0.0 0.0 0.0 
0.0 0.0 0.0 
0.0 0.0 0.0 
0.0 0.0 0.0 
0.0 0.0 0.0 
0.0 0.0 0.0 
0.0 0.0 0.0 
0.0 0.0 0.0 
0.0 0.0 0.0 
0.0 0.0 0.0 
0.0 0.0 0.0 
0.0 0.0 0.0 
0.0 0.0 0.0 
0.0 0.0 0.0 
0.0 0.0 0.0 
0.0 0.0 0.0 
0.0 0.0 0.0 
0.0 0.0 0.0 
0.0 0.0 0.0 
0.0 0.0 0.0 
0.0 0.0 0.0 
0.0 0.0 0.0 
0.0 0.0 0.0 
0.0 0.0 0.0 
0.0 0.0 0.0 
0.0 0.0 0.0 
0.0 0.0 0.0 
0.0 0.0 0.0 
0.0 0.0 0.0 
0.0 0.0 0.0 
0.0 0.0 0.0 
0.0 0.0 0.0 
0.0 0.0 0.0 
0.0 0.0 0.0 
0.0 0.0 0.0 
0.0 0.0 0.0 
0.0 0.0 0.0 
0.0 0.0 0.0 
0.0 0.0 0.0 
0.0 0.0 0.0 
0.0 0.0 0.0 
0.0 0.0 0.0 
0.0 0.0 0.0 
0.0 0.0 0.0 
0.0 0.0 0.0 
0.0 0.0 0.0 
0.0 0.0 0.0 
0.0 0.0 0.0 
0.0 0.0 0.0 
0.0 0.0 0.0 
0.0 0.0 0.0 
0.0 0.0 0.0 
0.0 0.0 0.0 
0.0 0.0 0.0 
0.0 0.0 0.0 
0.0 0.0 0.0 
0.0 0.0 0.0 
0.0 0.0 0.0 
0.0 0.0 0.0 
0.0 0.0 0.0 
0.0 0.0 0.0 
0.0 0.0 0.0 
0.0 0.0 0.0 
0.0 0.0 0.0 
0.0 0.0 0.0 
0.0 0.0 0.0 
0.0 0.0 0.0 
0.0 0.0 0.0 
0.0 0.0 0.0 
0.0 0.0 0.0 
0.0 0.0 0.0 
0.0 0.0 0.0 
0.0 0.0 0.0 
0.0 0.0 0.0 
0.0 0.0 0.0 
0.0 0.0 0.0 
0.0 0.0 0.0 
0.0 0.0 0.0 
0.0 0.0 0.0 
0.0 0.0 0.0 
0.0 0.0 0.0 
0.0 0.0 0.0 
0.0 0.0 0.0 
0.0 0.0 0.0 
0.0 0.0 0.0 
0.0 0.0 0.0 
0.0 0.0 0.0 
0.0 0.0 0.0 
0.0 0.0 0.0 
0.0 0.0 0.0 
0.0 0.0 0.0 
0.0 0.0 0.0 
0.0 0.0 0.0 
0.0 0.0 0.0 
0.0 0.0 0.0 

VECTORS node_materi_velocity float
0.0 -3.605497645019e-04 0.0 
0.0 9.934761895944e-03 0.0 
0.0 0.0 0.0 
0.0 0.0 0.0 
0.0 -3.526484996949e-04 0.0 
0.0 -3.440261185600e-04 0.0 
0.0 -3.340176586948e-04 0.0 
0.0 -3.221588210827e-04 0.0 
0.0 -3.077301323127e-04 0.0 
0.0 -2.907327450442e-04 0.0 
0.0 -2.711527480413e-04 0.0 
0.0 -2.490286642637e-04 0.0 
0.0 -2.246892179238e-04 0.0 
0.0 -1.985405223150e-04 0.0 
0.0 -1.711822259858e-04 0.0 
0.0 -1.434453649137e-04 0.0 
0.0 -1.160312111746e-04 0.0 
0.0 -8.938656871487e-05 0.0 
0.0 -6.480117825105e-05 0.0 
0.0 -4.306576918245e-05 0.0 
0.0 -2.491412124416e-05 0.0 
0.0 -1.136171746275e-05 0.0 
0.0 -3.272507623049e-06 0.0 
0.0 0.0 0.0 
0.0 0.0 0.0 
0.0 0.0 0.0 
0.0 0.0 0.0 
0.0 0.0 0.0 
0.0 0.0 0.0 
0.0 0.0 0.0 
0.0 0.0 0.0 
0.0 0.0 0.0 
0.0 0.0 0.0 
0.0 0.0 0.0 
0.0 0.0 0.0 
0.0 0.0 0.0 
0.0 0.0 0.0 
0.0 0.0 0.0 
0.0 0.0 0.0 
0.0 0.0 0.0 
0.0 0.0 0.0 
0.0 0.0 0.0 
0.0 0.0 0.0 
0.0 0.0 0.0 
0.0 0.0 0.0 
0.0 0.0 0.0 
0.0 0.0 0.0 
0.0 0.0 0.0 
0.0 0.0 0.0 
0.0 0.0 0.0 
0.0 0.0 0.0 
0.0 0.0 0.0 
0.0 0.0 0.0 
0.0 0.0 0.0 
0.0 0.0 0.0 
0.0 0.0 0.0 
0.0 0.0 0.0 
0.0 0.0 0.0 
0.0 0.0 0.0 
0.0 0.0 0.0 
0.0 0.0 0.0 
0.0 0.0 0.0 
0.0 0.0 0.0 
0.0 0.0 0.0 
0.0 0.0 0.0 
0.0 0.0 0.0 
0.0 0.0 0.0 
0.0 0.0 0.0 
0.0 0.0 0.0 
0.0 0.0 0.0 
0.0 0.0 0.0 
0.0 0.0 0.0 
0.0 8.919517694000e-03 0.0 
0.0 7.904384948557e-03 0.0 
0.0 6.890780787613e-03 0.0 
0.0 5.879881033495e-03 0.0 
0.0 4.874184834988e-03 0.0 
0.0 3.875551442517e-03 0.0 
0.0 2.886487237627e-03 0.0 
0.0 1.909541600352e-03 0.0 
0.0 9.472380850837e-04 0.0 
-3.063866192209e-04 2.556010046965e-04 0.0 
1.820567627113e-03 8.941133648111e-03 0.0 
-2.717916032392e-04 4.583175311521e-04 0.0 
-2.744969087693e-04 7.468325938359e-04 0.0 
-2.826267305044e-04 1.168531378670e-03 0.0 
-2.640198598155e-04 1.801171593347e-03 0.0 
-1.518193241565e-04 2.770025671853e-03 0.0 
4.107125939784e-04 4.364399337758e-03 0.0 
6.925418037510e-04 7.447766404950e-03 0.0 
1.353468812970e-03 8.900205218000e-03 0.0 
1.724339744790e-03 9.182642013564e-03 0.0 
0.0 1.301050784883e-02 0.0 
0.0 1.196874845637e-02 0.0 
0.0 1.094987368920e-02 0.0 
1.154330352128e-04 9.937679000335e-03 0.0 
2.325079614538e-04 9.945944909084e-03 0.0 
3.492900052463e-04 9.955164009347e-03 0.0 
4.651249247290e-04 9.963614716536e-03 0.0 
5.798103642442e-04 9.970075774015e-03 0.0 
6.934535734785e-04 9.973058750815e-03 0.0 
8.068910838341e-04 9.970446025035e-03 0.0 
9.191061042071e-04 9.958107956367e-03 0.0 
1.032531410120e-03 9.932161026932e-03 0.0 
1.147332437083e-03 9.886068370202e-03 0.0 
1.264577955034e-03 9.810357434400e-03 0.0 
1.386911446696e-03 9.694587092633e-03 0.0 
1.517288441009e-03 9.524533945634e-03 0.0 
1.659440879748e-03 9.281007117675e-03 0.0 
-2.703696036943e-04 1.299874113026e-04 0.0 
-2.200348533065e-04 1.353510509352e-05 0.0 
-1.652839849753e-04 -8.488914031341e-05 0.0 
-1.103370289173e-04 -1.650225384939e-04 0.0 
-6.116174939437e-05 -2.289018831604e-04 0.0 
-1.810807271864e-05 -2.780069720610e-04 0.0 
1.821722500655e-05 -3.142995806976e-04 0.0 
4.736542572336e-05 -3.403991068456e-04 0.0 
6.957875897727e-05 -3.580187656171e-04 0.0 
8.506351922105e-05 -3.688149751951e-04 0.0 
9.419997129291e-05 -3.749468293393e-04 0.0 
9.795267020953e-05 -3.768058889713e-04 0.0 
9.634448982712e-05 -3.763446291090e-04 0.0 
9.066159519062e-05 -3.742075357034e-04 0.0 
8.122325276198e-05 -3.714442710443e-04 0.0 
6.866113982283e-05 -3.682438793127e-04 0.0 
5.356369782491e-05 -3.652095413485e-04 0.0 
3.665361206013e-05 -3.628818404885e-04 0.0 
1.865361832011e-05 -3.612853810413e-04 0.0 
1.976594012417e-04 9.327554037141e-03 0.0 
3.670943201166e-04 1.037040619280e-02 0.0 
5.231846777116e-04 1.112141428763e-02 0.0 
6.846510698142e-04 1.165701791781e-02 0.0 
8.202519091479e-04 1.205637253627e-02 0.0 
9.178027578015e-04 1.234730476919e-02 0.0 
9.802467517983e-04 1.256383521975e-02 0.0 
1.010593178034e-03 1.271981114050e-02 0.0 
1.011838592155e-03 1.282958201735e-02 0.0 
9.868869372677e-04 1.290485840286e-02 0.0 
9.394642934581e-04 1.295520866024e-02 0.0 
8.746483313305e-04 1.298722114452e-02 0.0 
7.956192688495e-04 1.300546719752e-02 0.0 
7.048378375902e-04 1.301375997938e-02 0.0 
6.054227112514e-04 1.301618153413e-02 0.0 
5.012698088932e-04 1.301471275238e-02 0.0 
3.967966893950e-04 1.301084001260e-02 0.0 
2.994039375488e-04 1.300239512307e-02 0.0 
1.749234133511e-04 1.300496817282e-02 0.0 
1.333715706590e-04 1.197569730572e-02 0.0 
2.583764041808e-04 1.198657556690e-02 0.0 
3.751539468699e-04 1.199377423371e-02 0.0 
4.870887296150e-04 1.199885270692e-02 0.0 
5.946655164862e-04 1.200209819584e-02 0.0 
6.969128755237e-04 1.200205598922e-02 0.0 
7.923687276007e-04 1.199608105597e-02 0.0 
8.793617234894e-04 1.198012096012e-02 0.0 
9.560353037615e-04 1.195004198129e-02 0.0 
1.020774340930e-03 1.190025672030e-02 0.0 
1.072407144795e-03 1.182247033087e-02 0.0 
1.110390037426e-03 1.170573807772e-02 0.0 
1.135355500472e-03 1.153650698129e-02 0.0 
1.149832407023e-03 1.129857338182e-02 0.0 
1.160932732647e-03 1.096645579065e-02 0.0 
1.181297463869e-03 1.050520665058e-02 0.0 
1.225743745347e-03 9.855475993860e-03 0.0 
1.585117567762e-03 9.735849232515e-03 0.0 
1.480499967270e-03 1.012794220044e-02 0.0 
1.385990445452e-03 1.040997960694e-02 0.0 
1.301406574533e-03 1.061274294462e-02 0.0 
1.219891398290e-03 1.075500738259e-02 0.0 
1.137763258884e-03 1.085189754430e-02 0.0 
1.052926172042e-03 1.091530295807e-02 0.0 
9.640419763969e-04 1.095434716133e-02 0.0 
8.707594340420e-04 1.097636820444e-02 0.0 
7.733065396180e-04 1.098686864487e-02 0.0 
6.719166979114e-04 1.098901631617e-02 0.0 
5.670699693570e-04 1.098642167550e-02 0.0 
4.589373849025e-04 1.098095288574e-02 0.0 
3.475171979130e-04 1.097352946190e-02 0.0 
2.329664301937e-04 1.096429431032e-02 0.0 
1.164004921195e-04 1.095546322641e-02 0.0 
-2.806021719513e-04 3.491632578955e-04 0.0 
-2.708809326680e-04 5.892338548373e-04 0.0 
-2.789187840095e-04 9.376197033483e-04 0.0 
-2.797950285850e-04 1.450272009887e-03 0.0 
-2.342393732980e-04 2.229593853869e-03 0.0 
1.603901560563e-05 3.454513837170e-03 0.0 
5.944762214332e-04 5.924347272355e-03 0.0 
1.056725122533e-03 8.353786266776e-03 0.0 
1.591717805560e-03 9.122273579938e-03 0.0 
1.802191522638e-03 9.108273623858e-03 0.0 
-1.856128725255e-04 5.837411846723e-04 0.0 
2.172086417561e-04 3.690272488497e-05 0.0 
9.313578757940e-05 -3.687195521455e-04 0.0 
-2.977272664310e-05 -2.127811373333e-04 0.0 
1.139591249083e-04 9.973320454813e-06 0.0 
-7.693389359132e-05 1.459047639517e-03 0.0 
3.411575230739e-05 -1.848461057123e-04 0.0 
3.440209976727e-04 8.868481941117e-05 0.0 
6.287646524194e-04 3.442495731445e-03 0.0 
4.811151909781e-04 1.833201942425e-04 0.0 
1.848638073826e-03 7.421228091218e-03 0.0 
5.696827284928e-05 2.066297966124e-06 0.0 
9.520464650159e-05 -3.725966300870e-04 0.0 
5.989577621013e-04 3.535665370088e-04 0.0 
2.078018217550e-03 8.158487611390e-03 0.0 
2.591724776634e-05 -2.812034532908e-04 0.0 
3.459398749979e-05 -1.079383009066e-04 0.0 
6.204902314113e-04 5.257581212816e-04 0.0 
4.670837109414e-04 6.695009199256e-04 0.0 
1.259192255379e-04 8.027973731132e-04 0.0 
2.419552071943e-04 8.525464361737e-04 0.0 
3.314286315283e-04 7.265909560406e-04 0.0 
1.728676978686e-03 8.512266245583e-03 0.0 
1.136517558400e-03 8.989501814194e-03 0.0 
7.593379553348e-04 9.026446800790e-03 0.0 
7.709501130550e-05 5.361180405619e-03 0.0 
3.298735689836e-05 -7.941566660441e-07 0.0 
-1.610880563655e-04 5.899741038513e-05 0.0 
6.074650006577e-05 -3.609111601490e-04 0.0 
2.333724477910e-05 -3.483431466120e-05 0.0 
3.960262416181e-04 9.080561477191e-03 0.0 
2.085524638586e-05 -3.292848930496e-04 0.0 
6.227039204654e-04 6.904788273203e-04 0.0 
3.821964411158e-04 1.190943124630e-04 0.0 
5.436620226756e-04 2.558232971228e-04 0.0 
2.954035360908e-04 6.309124960529e-05 0.0 
1.607512095740e-04 2.130995317156e-05 0.0 
3.878264790779e-05 -3.093258116485e-04 0.0 
1.409214108481e-03 8.895739829227e-03 0.0 
9.682159972236e-05 5.275519453551e-06 0.0 
6.023074907159e-05 3.421916832611e-03 0.0 
1.032192680547e-04 -3.770621108256e-04 0.0 
3.140885799573e-05 -2.376585102241e-04 0.0 
6.241442882976e-05 6.540478994726e-04 0.0 
1.331038031380e-04 2.163780254559e-03 0.0 
-1.560399389013e-04 9.392552155385e-04 0.0 
1.295591685653e-03 5.456811072625e-03 0.0 
2.066256248036e-03 8.155750918358e-03 0.0 
-2.113971433861e-04 3.398290385268e-04 0.0 
9.105636575255e-05 7.276960802511e-03 0.0 
1.463298158034e-05 -1.264688707657e-06 0.0 
2.788625595431e-05 -3.555362290200e-04 0.0 
3.367053712271e-05 1.496941799686e-03 0.0 
2.058692717247e-03 7.923143284786e-03 0.0 
2.269156030059e-03 7.208783682739e-03 0.0 
2.129750188804e-03 7.152196804416e-03 0.0 
2.348077408322e-03 6.323998214644e-03 0.0 
2.206740278977e-03 6.125501611012e-03 0.0 
2.354963122317e-03 5.431233516248e-03 0.0 
2.511939609671e-03 5.545964040914e-03 0.0 
2.464198894638e-03 4.729884579322e-03 0.0 
2.623018246897e-03 4.780757442820e-03 0.0 
2.173557806754e-03 5.214524670820e-03 0.0 
2.522407658296e-03 4.043955898331e-03 0.0 
2.674327299332e-03 4.042653146651e-03 0.0 
2.525743583105e-03 3.393811280222e-03 0.0 
2.664550708452e-03 3.356982295211e-03 0.0 
2.778837377950e-03 3.935527498648e-03 0.0 
2.750581354497e-03 3.227336320775e-03 0.0 
2.823503382785e-03 3.719188410725e-03 0.0 
2.773310226232e-03 3.006579676662e-03 0.0 
2.668522930524e-03 2.607588761349e-03 0.0 
2.675060093837e-03 2.403043913012e-03 0.0 
2.727027209332e-03 2.712372839339e-03 0.0 
2.617583405112e-03 2.145228114914e-03 0.0 
2.611523386369e-03 2.369174862029e-03 0.0 
2.500512446464e-03 1.854955197952e-03 0.0 
2.434715408463e-03 2.003169425326e-03 0.0 
2.333889965074e-03 1.554942748796e-03 0.0 
2.368733702867e-03 1.441928018006e-03 0.0 
2.216359400125e-03 1.197415770247e-03 0.0 
2.132866826878e-03 1.265233613570e-03 0.0 
2.035664671426e-03 9.620822879122e-04 0.0 
1.913168149937e-03 9.988932317895e-04 0.0 
1.839696730021e-03 7.459311915520e-04 0.0 
1.925931757368e-03 7.229106198178e-04 0.0 
1.752587866419e-03 5.474297363010e-04 0.0 
1.639477311590e-03 5.544321207078e-04 0.0 
1.575382716897e-03 3.915111482277e-04 0.0 
1.444328279633e-03 3.894080032315e-04 0.0 
1.401749893887e-03 2.564580059590e-04 0.0 
1.260761101376e-03 2.501227554091e-04 0.0 
1.235952678141e-03 1.410663152716e-04 0.0 
1.345592361159e-03 1.544271164756e-04 0.0 
1.196596586030e-03 5.810119700696e-05 0.0 
1.081509547694e-03 4.395574870916e-05 0.0 
1.056399396745e-03 -2.346186793901e-05 0.0 
1.144291412790e-03 -2.879525257825e-06 0.0 
1.017738690175e-03 -7.186568145807e-05 0.0 
1.081412890619e-03 -4.587448807605e-05 0.0 
9.681115323291e-04 -1.046903524906e-04 0.0 
9.004703091793e-04 -1.299332109108e-04 0.0 
8.616933797391e-04 -1.546205916430e-04 0.0 
9.101154811736e-04 -1.248555555554e-04 0.0 
8.138678591454e-04 -1.683990447050e-04 0.0 
7.617776506689e-04 -1.972200483703e-04 0.0 
7.235337624314e-04 -2.052600369358e-04 0.0 
7.601319349869e-04 -1.732187255225e-04 0.0 
6.782870135463e-04 -2.057710019271e-04 0.0 
6.390116054922e-04 -2.364231632873e-04 0.0 
6.013218310285e-04 -2.332504882935e-04 0.0 
6.288899018975e-04 -2.000867462947e-04 0.0 
5.586138640403e-04 -2.250471175906e-04 0.0 
5.290116010742e-04 -2.564212020014e-04 0.0 
4.926192459244e-04 -2.458632586597e-04 0.0 
5.128412871952e-04 -2.129148926920e-04 0.0 
4.524568914838e-04 -2.322714129142e-04 0.0 
4.646136348903e-04 -1.984216949882e-04 0.0 
4.297911822651e-04 -2.635715039092e-04 0.0 
3.951048579735e-04 -2.486571685610e-04 0.0 
3.711115840068e-04 -2.783431479320e-04 0.0 
3.411367962258e-04 -2.624374441401e-04 0.0 
1.805879731898e-03 5.355428249414e-04 0.0 
3.176240176482e-04 -2.901124660131e-04 0.0 
3.410834957982e-04 -3.042746490343e-04 0.0 
2.909925536633e-04 -2.739011208519e-04 0.0 
3.080704784675e-04 -2.453199156181e-04 0.0 
2.685774019309e-04 -2.995275141488e-04 0.0 
2.446477245728e-04 -2.833865086933e-04 0.0 
2.240311296782e-04 -3.069845106817e-04 0.0 
1.259484066646e-03 3.897877155855e-04 0.0 
2.543195169456e-03 2.080936924802e-03 0.0 
2.021925554557e-04 -2.912923462014e-04 0.0 
1.839455625804e-04 -3.128707770932e-04 0.0 
2.007240758231e-04 -3.271895336289e-04 0.0 
1.641143852012e-04 -3.311143856995e-04 0.0 
2.034623959049e-03 5.864107283274e-03 0.0 
1.972738861329e-03 4.928523097711e-03 0.0 
1.850417330508e-03 5.538351125818e-03 0.0 
1.756708906435e-03 4.589068608822e-03 0.0 
1.652708860661e-03 5.154500711011e-03 0.0 
1.481607712450e-04 -3.176241724663e-04 0.0 
2.341381739990e-03 3.313374172829e-03 0.0 
1.833292201744e-03 4.012534293158e-03 0.0 
2.693924545924e-03 3.005711721591e-03 0.0 
1.970729939002e-03 1.318963760154e-03 0.0 
1.199179715207e-03 2.227058958739e-05 0.0 
2.176319555273e-04 -2.666709194174e-04 0.0 
1.772636274686e-04 -2.753460304500e-04 0.0 
1.881295390612e-04 -2.499579435697e-04 0.0 
5.207673830671e-04 -1.776434429203e-04 0.0 
4.648666579128e-04 -1.632180793045e-04 0.0 
5.145365543118e-04 -1.414663987105e-04 0.0 
4.521472656950e-04 -1.279131511328e-04 0.0 
4.930736791597e-04 -1.059060767502e-04 0.0 
4.258430402172e-04 -9.392531040559e-05 0.0 
3.916805187826e-04 -1.139814738154e-04 0.0 
3.622090369740e-04 -8.185220132183e-05 0.0 
3.338873340205e-04 -1.001826686189e-04 0.0 
4.559421468778e-04 -7.257516731055e-05 0.0 
5.306460580763e-04 -8.209169970557e-05 0.0 
3.027445367203e-04 -7.013167546598e-05 0.0 
2.793619341241e-04 -8.692247767900e-05 0.0 
2.478922302315e-04 -5.912839107056e-05 0.0 
2.286130769051e-04 -7.447086615757e-05 0.0 
2.520622559424e-04 -1.031789536029e-04 0.0 
2.049636904404e-04 -8.963813188093e-05 0.0 
2.218673823985e-04 -1.188180533343e-04 0.0 
1.113275234549e-03 -1.656390974689e-05 0.0 
1.216665235664e-03 4.916700928743e-05 0.0 
1.109820429233e-03 1.349488003515e-05 0.0 
1.192945642062e-03 7.458340468154e-05 0.0 
1.068526618993e-03 4.147696863866e-05 0.0 
1.126206097506e-03 9.550708288100e-05 0.0 
9.879716141193e-04 6.464724951695e-05 0.0 
9.458309593522e-04 1.950251556774e-05 0.0 
2.474311775116e-03 2.784345751731e-03 0.0 
9.409254133697e-04 -3.713383651760e-05 0.0 
9.386684088519e-04 3.780193037518e-05 0.0 
8.043012883908e-04 -4.196988716592e-05 0.0 
7.761504378783e-04 4.121404975291e-05 0.0 
6.539236208855e-04 -3.713487447107e-05 0.0 
6.025099442629e-04 5.534698796157e-05 0.0 
4.967507618410e-04 -2.219530457827e-05 0.0 
5.491066204618e-04 -1.029862728987e-04 0.0 
4.076111284956e-04 -8.835403518283e-05 0.0 
4.587524497554e-04 -1.589394033908e-04 0.0 
3.323673904083e-04 -1.456483621597e-04 0.0 
3.804882026373e-04 -2.066167870257e-04 0.0 
2.221599433246e-03 1.112329599534e-03 0.0 
1.267574415495e-03 1.401260642065e-04 0.0 
1.169987203585e-03 1.505878198765e-04 0.0 
1.328157513558e-03 2.078727461325e-04 0.0 
1.761705235020e-04 -3.437747456677e-04 0.0 
1.819622533564e-04 -6.293585257247e-05 0.0 
4.803212175907e-04 -5.027978251314e-05 0.0 
5.633102697075e-04 -5.704254978321e-05 0.0 
8.548524599839e-04 4.341412933406e-05 0.0 
1.320272398230e-04 -3.340080254225e-04 0.0 
4.269028513645e-04 8.019560333347e-05 0.0 
5.300027244789e-04 1.718435729987e-04 0.0 
1.532917000316e-03 4.194004703180e-03 0.0 
1.448720844203e-03 4.726512304289e-03 0.0 
4.969989916551e-04 -2.756796260828e-05 0.0 
1.164162149399e-04 -3.216604428698e-04 0.0 
3.209207607332e-04 -5.305341149242e-05 0.0 
2.690641442963e-04 -6.551290695272e-05 0.0 
1.611882368178e-04 -7.707489497674e-05 0.0 
1.396508560125e-04 -5.234995090432e-05 0.0 
3.548342549915e-04 -1.325312769890e-04 0.0 
1.194591903638e-03 2.044075301188e-04 0.0 
1.371437451559e-03 2.748916790588e-04 0.0 
4.949017353830e-04 -2.112813493774e-04 0.0 
4.151079281501e-04 -2.511296930950e-04 0.0 
3.129523025261e-04 -2.472568899728e-04 0.0 
3.487373439926e-04 -2.858476969808e-04 0.0 
4.377445880613e-04 -2.815811459837e-04 0.0 
3.686001672064e-04 -3.087925516818e-04 0.0 
2.890525302682e-04 -3.128499401558e-04 0.0 
3.084994773130e-04 -3.308391163998e-04 0.0 
3.794829709079e-04 -3.216241492549e-04 0.0 
3.197862124015e-04 -3.391799119277e-04 0.0 
2.567766297702e-04 -3.475554260873e-04 0.0 
2.681124073721e-04 -3.523700448559e-04 0.0 
1.532286419872e-04 -3.973949871421e-05 0.0 
2.100299644571e-04 -1.255451618258e-04 0.0 
2.811610058511e-03 4.533733476191e-03 0.0 
4.125268850660e-04 -2.350264676568e-05 0.0 
8.703427753497e-04 8.036594913496e-05 0.0 
1.306224542329e-03 3.758915032295e-03 0.0 
1.242447686595e-03 4.264814272914e-03 0.0 
1.346275753375e-03 5.255715878100e-03 0.0 
1.160409674790e-03 4.767397223054e-03 0.0 
1.038526597476e-03 3.777928117105e-03 0.0 
9.768664796437e-04 4.261606680717e-03 0.0 
1.066537300264e-03 5.264003388905e-03 0.0 
9.016920300178e-04 4.741057135091e-03 0.0 
9.657509099262e-04 5.751686317005e-03 0.0 
8.174844971939e-04 5.214519744771e-03 0.0 
7.420349661184e-04 4.208550844022e-03 0.0 
6.735586322682e-04 4.672290963684e-03 0.0 
7.277632204614e-04 5.682615044137e-03 0.0 
5.972701803244e-04 5.132490547405e-03 0.0 
6.349295112438e-04 6.144955362572e-03 0.0 
5.153993098476e-04 5.589174463025e-03 0.0 
4.733916757260e-04 4.581778201018e-03 0.0 
1.050097972877e-04 -3.359949992732e-04 0.0 
8.269490123666e-04 5.771283367171e-06 0.0 
7.284086764126e-04 2.944368863874e-05 0.0 
1.509322764828e-04 -2.597305138377e-04 0.0 
1.579431909570e-04 -2.336765179135e-04 0.0 
1.955786206635e-04 -2.222783427621e-04 0.0 
1.606002654149e-04 -2.058504425386e-04 0.0 
4.000991417311e-04 5.038631380566e-03 0.0 
3.589913848981e-04 4.033495254499e-03 0.0 
3.395791304412e-04 2.061000697506e-04 0.0 
4.361160844917e-04 3.155481239708e-04 0.0 
1.344849145598e-03 3.253861215447e-03 0.0 
1.210035309368e-04 -6.560064189186e-05 0.0 
1.366325401940e-04 -9.136522273374e-05 0.0 
1.721100566640e-03 1.027598992616e-03 0.0 
1.730611629520e-03 1.358351536849e-03 0.0 
1.465887967119e-03 1.052687788957e-03 0.0 
1.412685940554e-03 1.388430640141e-03 0.0 
1.712362687250e-03 1.770114302350e-03 0.0 
1.148960715963e-03 1.075805429668e-03 0.0 
6.094652852226e-04 -9.120447381054e-05 0.0 
5.912019483799e-04 3.671946314427e-03 0.0 
2.133524478517e-04 -3.402662899669e-04 0.0 
1.836617890735e-04 -3.548808310404e-04 0.0 
1.018564210635e-04 -4.291351150100e-05 0.0 
8.932781364913e-04 -2.410304237108e-05 0.0 
2.323124460203e-03 1.309612438411e-03 0.0 
2.150121391989e-03 1.009573172688e-03 0.0 
2.198952388138e-03 1.158767997837e-03 0.0 
2.002801924204e-03 8.900751182343e-04 0.0 
1.996458662189e-03 9.904767239579e-04 0.0 
1.780295467965e-03 7.555940797684e-04 0.0 
1.797725090378e-03 6.774550586280e-04 0.0 
1.193342176458e-03 2.528946262622e-04 0.0 
1.557575108139e-03 5.690342145853e-04 0.0 
4.364880957666e-04 6.052443398632e-03 0.0 
1.409644170337e-03 2.014298671564e-04 0.0 
3.814040794305e-04 -3.255529695864e-04 0.0 
1.176516215539e-04 -3.467622939083e-04 0.0 
2.117905140648e-04 -3.600309240172e-04 0.0 
8.858720552601e-05 -3.250829328870e-04 0.0 
9.764193685373e-05 -3.091735226798e-04 0.0 
4.115392949272e-04 -4.624719841337e-06 0.0 
1.715635863281e-03 8.058876051824e-04 0.0 
1.939976529720e-03 1.060338260816e-03 0.0 
1.330728498459e-03 1.812041999893e-03 0.0 
1.664067923873e-03 2.288908416385e-03 0.0 
1.007921583060e-03 1.882842772053e-04 0.0 
1.704843008299e-03 6.143688974329e-03 0.0 
1.114619624317e-03 6.279561514386e-03 0.0 
9.955106650569e-04 6.771201046999e-03 0.0 
8.182696706530e-05 -3.397195990146e-04 0.0 
1.963331015743e-04 -3.507266684710e-04 0.0 
8.422298969849e-04 3.274865462605e-03 0.0 
6.523738149435e-04 2.826391493896e-04 0.0 
5.560961042533e-04 4.476918040964e-04 0.0 
1.389207497468e-04 -3.694457112774e-05 0.0 
9.495608550300e-05 -1.009369510344e-04 0.0 
2.987832321920e-04 4.475482763859e-03 0.0 
2.587746230655e-04 3.486437595102e-03 0.0 
1.984909483901e-04 -1.930309207394e-04 0.0 
1.605297164211e-04 -1.768068405422e-04 0.0 
5.036878561541e-04 -5.144003158683e-06 0.0 
2.240771346933e-04 -3.618346980519e-04 0.0 
3.000423239249e-04 3.041030131201e-03 0.0 
7.877490247341e-04 -3.136101234935e-05 0.0 
8.336369571100e-04 -6.504933457023e-05 0.0 
1.235760201919e-04 -2.182204232326e-04 0.0 
2.334739268340e-04 3.570109702720e-04 0.0 
1.645121206836e-04 2.475292448773e-04 0.0 
4.476950597002e-04 -3.068463608544e-04 0.0 
2.717275329071e-04 -3.506069424836e-04 0.0 
6.994323708722e-05 -3.142954448668e-04 0.0 
3.974478158210e-04 1.208834441279e-05 0.0 
8.648563869747e-04 2.807244342064e-03 0.0 
1.591041394881e-03 5.141136888726e-04 0.0 
1.776768913074e-03 5.852937920929e-04 0.0 
1.334349707343e-03 4.247700468163e-04 0.0 
1.782737363456e-04 -3.684698688062e-04 0.0 
3.280867327135e-04 -3.497367765608e-06 0.0 
8.465433654823e-05 -5.513100414343e-05 0.0 
1.616673202757e-03 8.366640874509e-04 0.0 
1.830921039164e-03 1.092755654971e-03 0.0 
7.984022038031e-04 4.171331507948e-04 0.0 
7.102868383449e-04 6.120303580572e-04 0.0 
4.372543583345e-04 6.507737895319e-04 0.0 
5.895259308743e-04 8.510435624216e-04 0.0 
2.638839231398e-03 5.558763857025e-03 0.0 
9.779312287669e-04 5.834899743290e-04 0.0 
2.814680522374e-03 4.219821762131e-03 0.0 
2.757902808415e-03 5.153429475294e-03 0.0 
2.712973276387e-03 4.730732247347e-03 0.0 
2.018201857551e-03 2.215842596653e-03 0.0 
2.009252255490e-03 2.861377772476e-03 0.0 
9.163455440149e-04 1.361351567362e-04 0.0 
1.319662756617e-03 1.007669606513e-04 0.0 
2.361040068794e-04 -2.100367670299e-04 0.0 
2.681590469185e-04 -1.338777165618e-04 0.0 
5.779136156828e-04 -1.538528939534e-04 0.0 
6.323569319981e-04 3.215210397238e-03 0.0 
4.789720734278e-04 2.685128114999e-03 0.0 
7.573045836729e-04 6.699538145089e-03 0.0 
6.536221718565e-04 7.162323811952e-03 0.0 
1.520839447875e-04 -3.567328661178e-04 0.0 
1.555282055898e-04 -3.656758573280e-04 0.0 
4.151716727509e-04 -1.825655312554e-04 0.0 
3.354958374036e-04 -1.885738731264e-05 0.0 
1.099628619767e-03 2.812429717812e-03 0.0 
1.085935234078e-03 2.337954590813e-03 0.0 
1.351155845032e-03 2.753984925142e-03 0.0 
4.973668945982e-04 1.604052986236e-05 0.0 
8.151232973279e-04 -1.043243190643e-04 0.0 
1.022361317980e-03 -4.211630452211e-05 0.0 
1.599051142198e-04 -1.770063401185e-04 0.0 
1.945054036462e-03 6.902742331603e-04 0.0 
1.302853016630e-04 -3.660829184858e-04 0.0 
2.486888598032e-03 2.206026910583e-03 0.0 
6.889613572839e-05 -3.441687582681e-05 0.0 
7.963705842670e-05 -2.422342777712e-05 0.0 
9.613774203743e-04 2.161344928296e-04 0.0 
2.341871710290e-03 7.284590134439e-03 0.0 
1.796826359537e-03 5.160037265626e-04 0.0 
1.678016007634e-03 3.906716170992e-04 0.0 
2.601512256257e-03 5.793076301623e-03 0.0 
2.501712221535e-03 5.244432042316e-03 0.0 
2.575642429915e-03 4.175744396465e-03 0.0 
2.292083263669e-03 4.533157074931e-03 0.0 
4.387839339468e-04 -3.067643975166e-04 0.0 
3.750716259021e-04 -3.227263231101e-04 0.0 
1.345381965593e-03 6.032935698386e-04 0.0 
1.254265787209e-03 4.461643892341e-04 0.0 
1.456232305765e-03 8.174329893254e-04 0.0 
1.663790095220e-03 1.070431798173e-03 0.0 
7.711888451613e-04 1.569187660990e-04 0.0 
8.315200801295e-04 1.390338875101e-04 0.0 
7.602337799213e-05 -2.971392408873e-04 0.0 
1.585488193507e-03 2.949379782476e-03 0.0 
6.605409065955e-04 2.306197517087e-03 0.0 
2.615851271340e-03 6.156733114886e-03 0.0 
2.556566410612e-04 -2.001682725636e-06 0.0 
2.665296911238e-04 -1.486548726419e-05 0.0 
5.713641410284e-05 -1.559110956690e-04 0.0 
1.200128517862e-04 -2.286235694419e-04 0.0 
2.051834534361e-04 2.522630624513e-03 0.0 
2.984625642881e-04 8.934179273346e-04 0.0 
4.360619003204e-04 1.133623605977e-03 0.0 
1.945433396670e-04 6.944505161222e-04 0.0 
1.014882271187e-05 -6.119232607496e-06 0.0 
1.711209459873e-04 9.078216084684e-03 0.0 
5.103717942374e-05 -1.795079963947e-05 0.0 
2.321328248170e-03 2.741629921038e-03 0.0 
2.238401730118e-04 2.045041601147e-03 0.0 
1.646421120222e-03 3.841022445692e-04 0.0 
1.474795006828e-03 7.774707578299e-04 0.0 
6.044336911699e-04 -3.581578307848e-06 0.0 
1.655174262434e-04 3.044476024953e-03 0.0 
1.236004795051e-04 1.967106599608e-03 0.0 
1.123581631527e-03 7.286126171399e-03 0.0 
9.972046199788e-04 7.794733406610e-03 0.0 
1.260297135338e-03 6.791977394603e-03 0.0 
1.936045563081e-04 3.507390366447e-05 0.0 
4.018677971211e-05 8.693793765759e-05 0.0 
4.526545501805e-04 3.133963403463e-03 0.0 
1.403245590953e-04 -2.831900682646e-04 0.0 
1.132622963408e-04 -2.660131512567e-04 0.0 
2.260750819116e-04 -3.581845906701e-04 0.0 
2.673110923670e-04 -3.439451097172e-04 0.0 
2.375038729003e-04 -1.796087338865e-04 0.0 
2.783934396621e-04 -1.967709041538e-04 0.0 
2.332735494553e-03 1.748523337737e-03 0.0 
2.228504980665e-03 1.806297897304e-03 0.0 
2.381462697384e-03 1.495224266724e-03 0.0 
7.404386860866e-04 -6.657091231044e-05 0.0 
7.698430766172e-04 -1.024871437372e-04 0.0 
8.527214626660e-04 -1.003634641136e-04 0.0 
4.928459617707e-04 2.268554460902e-03 0.0 
3.292066796985e-04 1.667024068770e-03 0.0 
5.091076945387e-04 -2.868583436547e-04 0.0 
5.215499755954e-04 -2.833974255130e-04 0.0 
4.216043757362e-04 -3.013547937281e-04 0.0 
6.422616478096e-04 1.874452749894e-03 0.0 
5.626868512309e-05 -1.074284795454e-05 0.0 
8.493321486774e-05 -1.537201290864e-05 0.0 
1.311124726599e-04 -3.724783900373e-04 0.0 
1.544575511010e-04 -3.713295659577e-04 0.0 
5.837061878217e-05 4.001894377731e-04 0.0 
1.054246456880e-05 2.919648422753e-04 0.0 
1.048776433289e-03 1.908441507498e-03 0.0 
1.321669688134e-03 2.274681609696e-03 0.0 
7.557609055748e-04 1.451457645847e-03 0.0 
4.805350470312e-05 -3.049030292517e-04 0.0 
1.587612652822e-03 4.463717750375e-04 0.0 
3.787239349988e-04 2.717017927343e-05 0.0 
4.875194301039e-04 3.472987318648e-05 0.0 
2.667785428232e-04 2.045494668337e-05 0.0 
1.167890780705e-03 2.931725477721e-04 0.0 
8.876914595632e-04 2.300402699574e-04 0.0 
1.007460256325e-03 3.213160312587e-04 0.0 
-1.018432602012e-05 -7.648805007582e-05 0.0 
9.210678889278e-05 2.368616225468e-03 0.0 
7.666844114987e-04 7.720843137052e-03 0.0 
-2.728155654156e-05 -1.268537892535e-04 0.0 
6.562309077428e-04 8.219037414553e-03 0.0 
5.539344244798e-04 7.627298828192e-03 0.0 
5.645185779759e-04 8.708076035787e-03 0.0 
4.539534933228e-05 -3.195106259659e-04 0.0 
1.246517665898e-03 7.970314683417e-03 0.0 
1.407397833903e-03 7.320963481942e-03 0.0 
1.220959809524e-04 -3.761870877276e-04 0.0 
4.352874729974e-04 1.387555236684e-03 0.0 
1.140831920056e-04 -3.718020822401e-04 0.0 
1.115149501401e-04 -3.658733822235e-04 0.0 
1.909133449008e-04 -1.299685522631e-06 0.0 
2.055234137300e-04 -1.085612952118e-05 0.0 
1.356797637015e-04 3.522232540704e-07 0.0 
1.561237092055e-04 -7.279479600846e-06 0.0 
2.117445417533e-04 -2.243402985781e-05 0.0 
1.614890478042e-04 -1.691577068869e-05 0.0 
8.827494905797e-04 8.362708587699e-03 0.0 
1.046780104918e-04 -3.120848746846e-06 0.0 
1.173275881132e-04 -1.177581334129e-05 0.0 
6.770441050426e-05 -2.203345195367e-06 0.0 
2.152864686648e-03 5.834538010466e-03 0.0 
7.663743602277e-04 1.094013795483e-03 0.0 
6.127427399988e-04 1.441788275995e-03 0.0 
2.403461993402e-04 1.486749282306e-03 0.0 
1.141756762007e-03 6.777399808214e-04 0.0 
1.465829902517e-03 1.012608088130e-03 0.0 
5.226492196709e-05 -4.530006197494e-05 0.0 
6.035768882982e-05 -6.750081785742e-05 0.0 
4.542929163150e-04 8.164273878311e-03 0.0 
3.321527282894e-04 8.200233516932e-03 0.0 
3.660096505745e-04 7.273804630051e-03 0.0 
2.636246191676e-04 7.380529084743e-03 0.0 
2.875663565648e-04 6.473161682762e-03 0.0 
1.846284190700e-04 6.585017555339e-03 0.0 
2.212310001491e-04 5.679749282999e-03 0.0 
8.778183829635e-04 3.149803286537e-04 0.0 
4.474620920138e-05 9.184231595961e-04 0.0 
2.383264463166e-03 6.947341796062e-03 0.0 
5.921391953159e-04 1.118100032717e-04 0.0 
6.861007098088e-04 1.061304928076e-04 0.0 
1.962958798065e-03 3.684650381572e-03 0.0 
1.442984184769e-03 3.806851300646e-03 0.0 
2.155095308100e-04 8.712107323927e-06 0.0 
1.034475487851e-03 3.979432172086e-04 0.0 
3.327556143681e-04 8.618750111165e-04 0.0 
-2.030298029763e-04 1.715637210003e-04 0.0 
-8.733319611115e-05 1.023657270473e-04 0.0 
1.231801654671e-03 5.666240852978e-04 0.0 
2.335444176136e-03 3.526996160598e-03 0.0 
1.015072951748e-03 1.409798813583e-03 0.0 
9.084478121283e-04 1.860753346560e-03 0.0 
6.863423169994e-04 -3.301771941295e-05 0.0 
1.469969014523e-04 -3.732913625882e-04 0.0 
1.180111030685e-04 5.323441590422e-04 0.0 
3.238150644368e-04 5.582718692552e-03 0.0 
-5.377731042631e-05 5.628569066059e-04 0.0 
2.743441543195e-05 -5.492546608801e-05 0.0 
1.076095635374e-03 2.504805437381e-04 0.0 
2.276205291253e-03 2.124714524073e-03 0.0 
3.233209318497e-04 4.879660715051e-04 0.0 
9.179302932631e-04 8.226069866141e-04 0.0 
2.743775537318e-03 4.719483548822e-03 0.0 
2.474025949995e-03 6.402337204102e-03 0.0 
2.560484111230e-03 6.382947683373e-03 0.0 
1.089975120976e-03 1.342957604804e-04 0.0 
1.233410546412e-03 2.349518837171e-03 0.0 
7.324529545346e-04 2.420705225927e-03 0.0 
2.797532166779e-03 3.399512053398e-03 0.0 
1.616046860536e-03 3.128193389258e-03 0.0 
1.599175020084e-03 2.613086133721e-03 0.0 
1.258272764576e-03 1.837974437436e-03 0.0 
1.538843432166e-03 2.132558724093e-03 0.0 
1.867687229879e-03 2.902294677079e-03 0.0 
1.815217135974e-03 2.387983383347e-03 0.0 
1.434412287138e-03 1.695935846040e-03 0.0 
1.715668465656e-03 1.915668156089e-03 0.0 
1.183503100986e-03 1.171668415821e-03 0.0 
1.557340617281e-03 1.480121214673e-03 0.0 
1.973441950844e-03 2.089585155912e-03 0.0 
1.834974314929e-03 1.661028880608e-03 0.0 
1.424430177647e-03 1.176059660509e-03 0.0 
2.206571510462e-03 2.231189544266e-03 0.0 
4.925397854499e-04 1.101784052184e-04 0.0 
1.466106113609e-03 5.598145643878e-04 0.0 
1.847036852278e-05 -3.615211070324e-06 0.0 
-6.675519447671e-05 1.921124161215e-04 0.0 
2.516850390991e-03 2.571350418322e-03 0.0 
6.004578566637e-04 5.799016980829e-04 0.0 
5.208941218657e-04 6.570775104968e-04 0.0 
7.250813836845e-04 1.482345264835e-04 0.0 
5.732740760129e-04 3.015939145737e-04 0.0 
2.724122970273e-03 5.438452544388e-03 0.0 
3.398545904636e-04 2.936618579466e-06 0.0 
5.206019906859e-04 2.205911399213e-04 0.0 
1.872557501129e-03 3.445302621273e-03 0.0 
2.114554991749e-03 3.722006525240e-03 0.0 
2.063319822339e-03 4.322203098850e-03 0.0 
4.098981357663e-04 6.676776545065e-04 0.0 
1.398608753812e-03 6.270839469223e-03 0.0 
3.510502773097e-04 9.950313707283e-05 0.0 
1.316976851193e-03 1.223378654224e-04 0.0 
1.437579853055e-03 1.882810915053e-04 0.0 
1.414118215615e-03 1.711496280010e-04 0.0 
2.073033159393e-03 2.602048717014e-03 0.0 
2.419348913466e-04 4.485742728191e-05 0.0 
4.218561446066e-04 6.495187456425e-05 0.0 
3.745645053932e-04 4.960824663190e-05 0.0 
5.697203263682e-04 6.602920608149e-05 0.0 
1.886209984305e-04 2.901710362854e-05 0.0 
5.744313018712e-04 4.290267192250e-04 0.0 
5.485407352080e-04 3.623682654642e-04 0.0 
4.476109959294e-04 -2.991320326627e-04 0.0 
5.249224629623e-04 -2.712300693128e-04 0.0 
6.036936667879e-04 -2.546025668798e-04 0.0 
6.108882015299e-04 -2.372338577696e-04 0.0 
5.164623132966e-04 -2.478844977928e-04 0.0 
6.050369688266e-04 -2.080765986264e-04 0.0 
7.055369633185e-04 -1.968692991510e-04 0.0 
5.844216885244e-04 -1.641389825758e-04 0.0 
1.882357327530e-03 1.406211885017e-03 0.0 
1.414870871469e-04 1.727359225874e-05 0.0 
5.631445266104e-04 -1.173172770736e-04 0.0 
6.348141369598e-04 -1.276057981928e-04 0.0 
6.406534921998e-04 -1.644503360307e-04 0.0 
2.728842068762e-04 -2.275950709656e-04 0.0 
3.186824706475e-04 -2.144092734698e-04 0.0 
3.217485409366e-04 -1.820755548573e-04 0.0 
2.292609058984e-04 -2.394057294450e-04 0.0 
1.966924511150e-03 7.721092934946e-04 0.0 
1.239672895670e-04 1.271418840275e-05 0.0 
9.285882741804e-04 -5.736431164485e-05 0.0 
3.578131908759e-04 -2.319813003964e-04 0.0 
1.564513759168e-03 8.730733320885e-03 0.0 
1.734441055065e-03 7.760871510281e-03 0.0 
1.912504889023e-03 7.525262060405e-03 0.0 
1.874615712095e-03 6.658449490510e-03 0.0 
1.548078502204e-03 7.823117482832e-03 0.0 
1.967135932380e-04 -1.630665194168e-04 0.0 
1.565911813421e-04 -1.474353032403e-04 0.0 
1.225614693494e-04 -1.615408403010e-04 0.0 
1.175007314936e-04 -1.328236481424e-04 0.0 
8.516636730072e-05 -1.471990927215e-04 0.0 
8.897512429744e-05 -1.749337291042e-04 0.0 
7.903714232016e-05 -1.191591440349e-04 0.0 
4.923270419165e-05 -1.368966432533e-04 0.0 
1.268403067473e-03 8.966729892555e-03 0.0 
8.691875608076e-06 -2.679413588844e-04 0.0 
7.772386787244e-05 -2.993887708442e-04 0.0 
9.399124606084e-05 -3.318485684817e-04 0.0 
1.374922151457e-04 -3.224967008442e-04 0.0 
1.318253898847e-04 -2.876439715282e-04 0.0 
2.062452619689e-04 -3.121494105363e-04 0.0 
1.921645000644e-04 -2.721395898975e-04 0.0 
5.537193602612e-05 -2.520844580990e-04 0.0 
6.262419838870e-05 -3.376884259144e-04 0.0 
1.069930587868e-04 -3.534419163493e-04 0.0 
8.067697865012e-05 -3.570445604996e-04 0.0 
1.137671889379e-04 -3.666288700336e-04 0.0 
1.548716285544e-04 -3.629691069396e-04 0.0 
1.874407210864e-04 -3.630713916703e-04 0.0 
2.877814329280e-05 -1.714191841709e-06 0.0 
3.311420031482e-05 -2.122185372281e-04 0.0 
6.340613836481e-05 -2.267193646123e-04 0.0 
6.008831668209e-05 -2.504205267973e-04 0.0 
9.510407254802e-05 -2.406474893070e-04 0.0 
6.350341353054e-05 -2.027649904894e-04 0.0 
2.894801127131e-05 -2.607128167106e-04 0.0 
5.530011504224e-05 -2.700520618298e-04 0.0 
4.471574854428e-05 -3.576143067046e-04 0.0 
3.745478474141e-05 -3.493455838635e-04 0.0 
1.723977183183e-05 -3.480305721794e-04 0.0 
3.026049469110e-05 -3.403054266572e-04 0.0 
4.934523008671e-05 -3.432740255096e-04 0.0 
5.496766423726e-05 -3.525114040442e-04 0.0 
7.132107365798e-05 -3.569721786403e-04 0.0 
7.506998593568e-05 -3.650105515201e-04 0.0 
8.562291268399e-05 -3.618125375804e-04 0.0 
8.506267946080e-05 -3.520773047458e-04 0.0 
8.643444281888e-05 -3.690553298779e-04 0.0 
7.234318056374e-05 4.367244808573e-03 0.0 
1.386442489570e-04 3.874638876889e-03 0.0 
1.002311584442e-04 7.025684613513e-06 0.0 
9.984955543431e-04 8.977781367059e-03 0.0 
1.009831584148e-04 -3.748938064907e-04 0.0 
1.180022395343e-04 9.674529200953e-04 0.0 
1.872283586646e-04 7.923268065198e-04 0.0 
1.483014779987e-04 7.715382066116e-04 0.0 
1.692881871149e-05 -1.791673570209e-05 0.0 
2.735613299244e-05 -1.161920403223e-05 0.0 
6.366774840268e-05 9.430268275528e-04 0.0 
2.419302832075e-04 -3.217505086425e-04 0.0 
1.153011225313e-03 1.441071584700e-03 0.0 
3.290979874189e-04 2.594929493209e-03 0.0 
2.602171934120e-04 1.141374866424e-04 0.0 
3.180637781100e-04 -3.350262475569e-04 0.0 
9.662537542629e-05 -7.893838285216e-05 0.0 
3.021750278918e-04 -1.174695011626e-04 0.0 
1.138736596383e-04 -3.147335405509e-05 0.0 
1.779308229352e-04 -1.045654653970e-04 0.0 
1.979693492531e-04 -4.896300542353e-05 0.0 
3.386793528841e-04 3.736862458137e-05 0.0 
6.513432943554e-05 -3.283892786600e-04 0.0 
8.617241141004e-04 6.229847626029e-03 0.0 
5.453319030129e-04 6.606907132535e-03 0.0 
5.373234038117e-04 4.127875221548e-03 0.0 
1.636076790277e-04 -2.980254440074e-04 0.0 
1.258709122272e-04 -1.888282789858e-04 0.0 
1.442737702684e-04 -3.458233444764e-04 0.0 
9.624905245742e-04 4.432771659890e-04 0.0 
2.736712654017e-03 3.802643137223e-03 0.0 
5.757912010519e-04 -1.903571405572e-04 0.0 
2.612983925585e-04 -2.567582977239e-04 0.0 
2.888666752011e-04 -3.141115874451e-04 0.0 
3.228692787286e-04 -3.399638378935e-04 0.0 
1.687452605297e-03 7.624956895527e-04 0.0 
4.101320797319e-04 -2.164534693529e-04 0.0 
3.858750027118e-04 -6.274101678288e-05 0.0 
4.118271042560e-04 3.583853516348e-03 0.0 
1.019736375494e-04 -3.753460056043e-04 0.0 
4.032818298994e-04 -4.304212858222e-05 0.0 
4.093144357888e-04 -1.479602873295e-04 0.0 
1.233196161784e-03 5.775181156088e-03 0.0 
1.016195509699e-03 1.092520153944e-04 0.0 
2.399395890473e-04 -3.352281143262e-04 0.0 
7.999269758434e-04 3.743862872966e-03 0.0 
8.420915618133e-04 1.946129723718e-03 0.0 
1.553395233882e-03 6.736878307097e-03 0.0 
1.254064383026e-04 -3.574395399260e-04 0.0 
8.810587924300e-04 7.265691872744e-03 0.0 
3.075114550069e-04 1.022304769946e-05 0.0 
1.591161442555e-03 3.657038323327e-03 0.0 
1.288287441790e-04 -3.039025572187e-04 0.0 
1.010542811661e-03 -7.439018332378e-05 0.0 
2.214217584590e-03 1.645794214871e-03 0.0 
2.098007578824e-03 8.207953685060e-03 0.0 
3.449788393264e-04 2.187163579548e-03 0.0 
1.655093845651e-03 3.936666374685e-04 0.0 
7.306252653049e-04 5.975270647882e-05 0.0 
1.001360031723e-03 -9.932526798684e-06 0.0 
1.070275954969e-04 -2.900024036609e-04 0.0 
2.683879740848e-04 -2.896027487335e-05 0.0 
1.277298070615e-03 7.774760544631e-05 0.0 
6.582994578516e-04 2.765760331207e-03 0.0 
2.200269348075e-03 1.284667833794e-03 0.0 
9.275609795197e-04 -9.174304606728e-05 0.0 
1.081440390418e-03 3.293947601650e-03 0.0 
7.016832231789e-04 -1.714125686067e-04 0.0 
1.024363982630e-03 1.511931759045e-04 0.0 
2.570127581412e-03 3.288094140449e-03 0.0 
2.480781736815e-03 1.683387690719e-03 0.0 
2.600796271170e-03 2.742412549822e-03 0.0 
2.085767527923e-03 9.135640032164e-04 0.0 
6.591778446297e-05 -9.272031449835e-05 0.0 
3.324916812410e-04 -3.586879730131e-05 0.0 
2.684379079012e-04 -1.937931911775e-04 0.0 
1.212357029201e-03 7.955903099222e-04 0.0 
1.529478873793e-03 5.716673435852e-03 0.0 
1.491107217366e-03 6.083076522207e-04 0.0 
4.728966186899e-04 1.799538841676e-03 0.0 
2.006930206227e-03 1.716734254884e-03 0.0 
2.617034613539e-04 -4.383183730682e-05 0.0 
8.677925115938e-04 2.372725177600e-03 0.0 
3.663005701324e-04 -1.995030861353e-04 0.0 
2.172159134811e-05 -3.154317579706e-04 0.0 
1.104216687677e-04 1.548582144597e-04 0.0 
6.868673846987e-04 -1.082786787605e-04 0.0 
1.499927879809e-03 2.663889712632e-04 0.0 
3.655914887470e-04 -1.660092748549e-04 0.0 
9.234140488711e-04 1.386925921720e-03 0.0 
2.083114226721e-04 -3.546543006690e-05 0.0 
5.881631356563e-04 -3.066275136202e-05 0.0 
-1.956525423468e-04 4.494688933129e-04 0.0 
2.393227530351e-03 7.179329043238e-03 0.0 
1.609182621833e-04 -2.794052496578e-05 0.0 
9.337659682738e-04 -9.164373955108e-05 0.0 
8.642488684734e-04 1.130741222295e-04 0.0 
5.356217766523e-05 -1.621012036042e-04 0.0 
9.118871336598e-04 3.727867656127e-04 0.0 
1.862286425064e-03 4.793979194709e-03 0.0 
1.195364580243e-04 -2.123386336088e-05 0.0 
7.135056450247e-04 -1.724504228470e-06 0.0 
8.694743930528e-04 2.604786751410e-04 0.0 
2.842403342481e-04 9.085422751874e-03 0.0 
7.447120775688e-05 -6.159300721839e-06 0.0 
6.065951732777e-04 2.214069642720e-05 0.0 
2.063050914162e-03 8.509760269140e-04 0.0 
8.453624092569e-04 -1.354052361909e-04 0.0 
1.995402527707e-03 7.894886629908e-03 0.0 
3.163274326105e-04 -1.495556139131e-04 0.0 
2.541420540826e-03 1.903279248062e-03 0.0 
3.552408512070e-04 6.734557026866e-04 0.0 
6.044561304071e-04 4.558171487537e-05 0.0 
2.276698964519e-03 4.584760791092e-03 0.0 
2.770613779196e-04 -1.652609147462e-04 0.0 
1.490562354927e-03 2.838385714492e-04 0.0 
6.745418845748e-05 -3.473668054534e-04 0.0 
2.316659559543e-03 6.512166476133e-03 0.0 
2.328178964444e-04 -1.488978543047e-04 0.0 
7.035008700557e-04 -1.606247279325e-04 0.0 
7.765176756739e-04 -1.383444441277e-04 0.0 
6.922487949012e-04 1.631067647733e-04 0.0 
1.899042221686e-04 -1.333302225003e-04 0.0 
8.109304447529e-04 -1.489458525526e-04 0.0 
1.485870143250e-04 -1.187418126475e-04 0.0 
1.626094679982e-03 6.525274529533e-03 0.0 
2.332713120938e-03 3.923772675322e-03 0.0 
1.077497002952e-04 -1.051459959046e-04 0.0 
2.384842924913e-03 1.643506147550e-03 0.0 
1.020401767098e-04 -3.574653456998e-04 0.0 
1.895866282626e-03 6.451479456641e-04 0.0 
4.008200239513e-05 -2.590314078783e-05 0.0 
3.982209334177e-04 -2.916228700803e-04 0.0 
7.062875624515e-04 -1.354046799369e-04 0.0 
2.117974818178e-03 3.142905393018e-03 0.0 
9.425935787240e-04 4.292017679452e-03 0.0 
6.899142058623e-04 -9.859538571733e-05 0.0 
2.149443608445e-03 1.373284047098e-03 0.0 
1.726199121113e-03 4.877141375735e-04 0.0 
1.549778977696e-03 2.762174098224e-04 0.0 
6.507141385562e-04 -6.292455661029e-05 0.0 
1.103492974335e-03 3.045063318057e-03 0.0 
2.546184010685e-04 -3.347583431587e-04 0.0 
2.218590604941e-04 -3.507907394464e-04 0.0 
7.923536486617e-04 -1.789379199485e-04 0.0 
2.042593325404e-03 1.416336690277e-03 0.0 
4.556853982432e-05 -3.332078685875e-04 0.0 
2.295744548615e-03 2.736060160957e-03 0.0 
1.854124004813e-04 -3.678653789569e-04 0.0 
6.937844959630e-04 -2.200307771467e-04 0.0 
1.384262282111e-03 3.367934039390e-04 0.0 
8.401821062280e-05 6.329540478596e-03 0.0 
6.709445210275e-04 -2.324604324631e-04 0.0 
2.315278339392e-05 -2.994967819567e-04 0.0 
5.865428153424e-04 -2.622420201794e-04 0.0 
1.547171185628e-03 2.828293986475e-04 0.0 
5.614661052346e-04 -2.620807731731e-04 0.0 
4.886855786783e-04 -2.837070967444e-04 0.0 
2.315123520368e-04 1.662772073001e-03 0.0 
4.618943145740e-04 -2.754254360260e-04 0.0 
3.177971199534e-05 7.801330824224e-04 0.0 
1.171375803253e-05 -1.685694347853e-06 0.0 
1.071565259217e-04 8.313669459130e-03 0.0 
2.484957237034e-04 2.810627877352e-03 0.0 
-1.149969358954e-04 -5.057037699055e-05 0.0 
5.170748598672e-04 1.843886785062e-03 0.0 
3.610405187768e-04 -3.153803496064e-04 0.0 
2.374769794858e-03 2.259512213169e-03 0.0 
2.228921409222e-04 8.271795517241e-03 0.0 
3.054082992019e-04 -3.262983812523e-04 0.0 
1.080825170647e-03 9.141896549503e-04 0.0 
4.181241079195e-04 1.433663011013e-04 0.0 
1.544662179016e-04 4.807587799313e-03 0.0 
7.243050886656e-04 8.646846484815e-05 0.0 
1.549904061511e-03 3.667720933558e-04 0.0 
4.567054088142e-05 2.466606620831e-03 0.0 
6.513117738881e-04 9.180531579137e-03 0.0 
1.174908857581e-04 -3.737237137617e-04 0.0 
3.146986196410e-05 -7.886937480708e-05 0.0 
-5.398797201588e-05 1.812223806991e-03 0.0 
1.175518540288e-04 1.157453864755e-03 0.0 
-1.765102942678e-05 7.221883385248e-04 0.0 
8.184957754494e-05 -2.786529017570e-04 0.0 
1.429988678017e-04 -3.466109303704e-04 0.0 
-1.219715217520e-04 1.170577094723e-03 0.0 
4.807838164184e-04 8.332802979665e-05 0.0 
1.101469298154e-03 8.223636871762e-03 0.0 
1.392319517005e-03 3.943323455123e-04 0.0 
-1.719830951003e-04 7.426639824283e-04 0.0 
6.101718932379e-04 1.512564247059e-03 0.0 
7.449234614004e-04 2.170149601394e-04 0.0 
6.576248761104e-05 2.860741820114e-06 0.0 
1.105943836950e-03 3.152310633415e-04 0.0 
-8.787082308347e-05 4.284126907325e-04 0.0 
1.691501469225e-03 7.034044068005e-03 0.0 
1.002408679352e-03 5.182116703313e-04 0.0 
2.120058586168e-04 4.016010940754e-03 0.0 
4.593350174791e-05 9.870361458585e-07 0.0 
1.381039644958e-03 8.197481467677e-03 0.0 
1.384291721613e-04 1.552793732783e-03 0.0 
2.162527678777e-04 -2.334229602717e-04 0.0 
6.994027463655e-05 1.508580073463e-03 0.0 
2.059906408278e-03 1.778179674146e-03 0.0 
4.636164765156e-04 7.066257077456e-03 0.0 
2.044227409225e-03 6.673847200014e-03 0.0 
3.287025040292e-05 -6.386132610883e-06 0.0 
1.016238128480e-03 1.115244127246e-03 0.0 
-1.089614741612e-04 3.035297900958e-04 0.0 
2.427230969844e-04 4.911399420769e-03 0.0 
1.284607246007e-04 -2.438334329903e-04 0.0 
1.327179381680e-05 -1.902277979286e-04 0.0 
1.735501632311e-04 5.112085193471e-06 0.0 
1.673431015432e-03 1.318616490511e-03 0.0 
5.587262839455e-05 -5.976504902808e-06 0.0 
1.343858085565e-05 -3.396327085912e-04 0.0 
1.133907613435e-04 -3.752196763506e-04 0.0 
2.076394915616e-04 1.364971200112e-05 0.0 
1.007135952874e-03 6.665467969348e-04 0.0 
2.702264245749e-04 -2.871863810026e-04 0.0 
2.041901769312e-04 6.067725784925e-04 0.0 
-1.533993181114e-04 2.231797437769e-04 0.0 
8.749032602393e-04 9.278453791483e-03 0.0 
9.601028296644e-05 -3.667163933499e-04 0.0 
3.564066913246e-05 1.149798768308e-07 0.0 
3.485679947861e-04 1.464091396977e-03 0.0 
8.945054312115e-05 -2.165210856530e-04 0.0 
1.894938396356e-03 8.194306242256e-03 0.0 
5.052186160276e-05 -2.890183297207e-04 0.0 
1.176721217614e-03 4.615989998559e-04 0.0 
1.430625710077e-04 -3.701183681032e-04 0.0 
2.330102479065e-04 1.393877746008e-03 0.0 
2.615786400261e-04 2.676505649992e-05 0.0 
7.384492776581e-04 1.215105142051e-03 0.0 
2.226435242208e-04 5.252028085721e-05 0.0 
-7.223090982644e-05 3.520205844460e-06 0.0 
6.968124166900e-04 2.252973979808e-04 0.0 
4.759993725996e-04 4.830911885088e-05 0.0 
4.927296952367e-04 9.218067919170e-03 0.0 
9.107088025794e-04 1.197357230252e-03 0.0 
8.362445796824e-05 -2.603332709312e-04 0.0 
9.799313396018e-05 -3.461686381747e-04 0.0 
1.339094316233e-05 6.911905473292e-04 0.0 
1.332884369188e-05 -3.551552579134e-04 0.0 
8.336600339683e-05 9.192996882703e-03 0.0 
4.535979847372e-06 -1.605887914674e-06 0.0 
6.189420966999e-05 -3.384447924459e-04 0.0 
1.778668890963e-04 7.576991689433e-03 0.0 
9.772753485260e-04 7.259560815773e-04 0.0 
2.357788014896e-05 -1.567402894197e-04 0.0 
1.049769387729e-04 3.101452945417e-03 0.0 
1.841917663701e-04 -3.366226489232e-04 0.0 
-8.194814993419e-05 -1.416711728513e-04 0.0 
1.456051570401e-04 5.828771187873e-03 0.0 
6.188467973407e-04 1.635279359588e-04 0.0 
5.733074722242e-04 1.234664696952e-03 0.0 
3.742314066563e-04 6.513478659815e-03 0.0 
2.514962739306e-06 2.054453302475e-04 0.0 
1.324185793617e-03 9.800188118148e-04 0.0 
9.500559978760e-05 -1.962597910255e-04 0.0 
1.293160912480e-03 6.485412730815e-04 0.0 
5.875862327385e-04 8.265270918668e-05 0.0 
-2.283929820384e-04 2.674390106794e-04 0.0 
2.048572967555e-05 -1.296531643178e-04 0.0 
1.033894787631e-04 -3.709169110041e-04 0.0 
1.083956288008e-04 -3.385238995861e-07 0.0 
6.294212277983e-05 -1.820341366687e-04 0.0 
7.865679724366e-04 9.292827372942e-03 0.0 
7.783620298644e-05 1.248357187605e-02 0.0 
1.453535906308e-03 9.642566613417e-03 0.0 
6.134322306795e-05 1.146053984844e-02 0.0 
1.680949415668e-03 9.456441281076e-03 0.0 
5.671010422736e-05 1.044380594481e-02 0.0 

VECTORS node_materi_displacement float
0.0 7.774527257890e-02 0.0 
0.0 1.319018270979e-01 0.0 
0.0 0.0 0.0 
0.0 0.0 0.0 
0.0 7.765372300073e-02 0.0 
0.0 7.718822569584e-02 0.0 
0.0 7.635246692618e-02 0.0 
0.0 7.514535651536e-02 0.0 
0.0 7.355598829159e-02 0.0 
0.0 7.159153250800e-02 0.0 
0.0 6.925081553123e-02 0.0 
0.0 6.652692098491e-02 0.0 
0.0 6.341459595697e-02 0.0 
0.0 5.990295861855e-02 0.0 
0.0 5.597416680585e-02 0.0 
0.0 5.161592126284e-02 0.0 
0.0 4.682290834205e-02 0.0 
0.0 4.160671546167e-02 0.0 
0.0 3.591379384540e-02 0.0 
0.0 2.974097354047e-02 0.0 
0.0 2.307912823260e-02 0.0 
0.0 1.590475540382e-02 0.0 
0.0 8.201738300331e-03 0.0 
0.0 0.0 0.0 
0.0 0.0 0.0 
0.0 0.0 0.0 
0.0 0.0 0.0 
0.0 0.0 0.0 
0.0 0.0 0.0 
0.0 0.0 0.0 
0.0 0.0 0.0 
0.0 0.0 0.0 
0.0 0.0 0.0 
0.0 0.0 0.0 
0.0 0.0 0.0 
0.0 0.0 0.0 
0.0 0.0 0.0 
0.0 0.0 0.0 
0.0 0.0 0.0 
0.0 0.0 0.0 
0.0 0.0 0.0 
0.0 0.0 0.0 
0.0 0.0 0.0 
0.0 0.0 0.0 
0.0 0.0 0.0 
0.0 0.0 0.0 
0.0 0.0 0.0 
0.0 0.0 0.0 
0.0 0.0 0.0 
0.0 0.0 0.0 
0.0 0.0 0.0 
0.0 0.0 0.0 
0.0 0.0 0.0 
0.0 0.0 0.0 
0.0 0.0 0.0 
0.0 0.0 0.0 
0.0 0.0 0.0 
0.0 0.0 0.0 
0.0 0.0 0.0 
0.0 0.0 0.0 
0.0 0.0 0.0 
0.0 0.0 0.0 
0.0 0.0 0.0 
0.0 0.0 0.0 
0.0 0.0 0.0 
0.0 0.0 0.0 
0.0 0.0 0.0 
0.0 0.0 0.0 
0.0 0.0 0.0 
0.0 0.0 0.0 
0.0 0.0 0.0 
0.0 0.0 0.0 
0.0 1.204760142850e-01 0.0 
0.0 1.086325805550e-01 0.0 
0.0 9.637457409001e-02 0.0 
0.0 8.372132569848e-02 0.0 
0.0 7.067392858798e-02 0.0 
0.0 5.725054492430e-02 0.0 
0.0 4.346048736424e-02 0.0 
0.0 2.931469079541e-02 0.0 
0.0 1.482684869946e-02 0.0 
-1.042372936111e-02 1.021118637348e-01 0.0 
1.212083415674e-02 1.286720207431e-01 0.0 
-7.528565677637e-03 1.103878094286e-01 0.0 
-4.578476981600e-03 1.194340406205e-01 0.0 
-1.254636377610e-03 1.282667317265e-01 0.0 
2.287574717519e-03 1.361068794434e-01 0.0 
5.832908133786e-03 1.423577137102e-01 0.0 
9.078323567611e-03 1.464267568747e-01 0.0 
1.123279856311e-02 1.474419713345e-01 0.0 
1.256761739505e-02 1.438575223912e-01 0.0 
1.275883582325e-02 1.372160526131e-01 0.0 
0.0 1.636486498995e-01 0.0 
0.0 1.534641668229e-01 0.0 
0.0 1.429071636008e-01 0.0 
7.027863617355e-04 1.319113683228e-01 0.0 
1.399312620490e-03 1.319385733198e-01 0.0 
2.106481867593e-03 1.319736200571e-01 0.0 
2.820058401507e-03 1.320057724063e-01 0.0 
3.539039619025e-03 1.320450648704e-01 0.0 
4.268428791692e-03 1.320624242297e-01 0.0 
5.015302196654e-03 1.320690566318e-01 0.0 
5.770714161746e-03 1.320342815450e-01 0.0 
6.560115206193e-03 1.319638573747e-01 0.0 
7.378261182473e-03 1.318095758968e-01 0.0 
8.225775760509e-03 1.315537811969e-01 0.0 
9.115205550904e-03 1.311662581920e-01 0.0 
1.005196549027e-02 1.305954309025e-01 0.0 
1.104715324862e-02 1.297812225280e-01 0.0 
-9.493005920796e-03 9.755061912639e-02 0.0 
-8.307532337784e-03 9.375324309461e-02 0.0 
-7.083724189003e-03 9.060836128564e-02 0.0 
-5.918589209495e-03 8.803298512963e-02 0.0 
-4.876097982613e-03 8.593808553647e-02 0.0 
-3.941046423204e-03 8.421678352979e-02 0.0 
-3.116341627450e-03 8.280875529073e-02 0.0 
-2.409922397798e-03 8.166433450846e-02 0.0 
-1.811618431315e-03 8.074291567034e-02 0.0 
-1.314498633444e-03 8.001458348591e-02 0.0 
-9.216550127158e-04 7.942471881845e-02 0.0 
-5.965344164155e-04 7.898210790957e-02 0.0 
-3.370476934660e-04 7.861717119372e-02 0.0 
-1.674069191586e-04 7.833183454243e-02 0.0 
-6.280640283945e-05 7.812570831829e-02 0.0 
5.667168181168e-06 7.797615875637e-02 0.0 
4.297984383261e-05 7.786720384859e-02 0.0 
5.454685511340e-05 7.779560140026e-02 0.0 
2.559616603386e-05 7.774829362451e-02 0.0 
1.002511964012e-02 1.521835979835e-01 0.0 
9.638805845656e-03 1.553838393716e-01 0.0 
9.274249929290e-03 1.577522161636e-01 0.0 
8.966933815065e-03 1.595240793002e-01 0.0 
8.651670534158e-03 1.608405172675e-01 0.0 
8.304249451526e-03 1.618106802235e-01 0.0 
7.914464115455e-03 1.625155242879e-01 0.0 
7.481037414452e-03 1.630152084860e-01 0.0 
7.004613474855e-03 1.633566800937e-01 0.0 
6.487560009816e-03 1.635783579758e-01 0.0 
5.933745438063e-03 1.637115196545e-01 0.0 
5.348774820587e-03 1.637805508382e-01 0.0 
4.737723484435e-03 1.638046396141e-01 0.0 
4.104939888226e-03 1.637990509576e-01 0.0 
3.455168555638e-03 1.637765477983e-01 0.0 
2.793683230565e-03 1.637461724404e-01 0.0 
2.126010983545e-03 1.637140871503e-01 0.0 
1.459156629462e-03 1.636782573710e-01 0.0 
7.560657559571e-04 1.636318872678e-01 0.0 
7.212395003653e-04 1.535083218793e-01 0.0 
1.437204593263e-03 1.535293618694e-01 0.0 
2.141564607543e-03 1.535659154206e-01 0.0 
2.839363370918e-03 1.536022183344e-01 0.0 
3.531004025696e-03 1.536368925294e-01 0.0 
4.216949404806e-03 1.536626999298e-01 0.0 
4.895540834988e-03 1.536699737637e-01 0.0 
5.566786072694e-03 1.536450558264e-01 0.0 
6.227384310118e-03 1.535721631123e-01 0.0 
6.878017164444e-03 1.534263719200e-01 0.0 
7.520465904637e-03 1.531797046633e-01 0.0 
8.156573290664e-03 1.527973620472e-01 0.0 
8.792007678384e-03 1.522341563068e-01 0.0 
9.437249665487e-03 1.514366004060e-01 0.0 
1.010417296604e-02 1.503163090807e-01 0.0 
1.083231131379e-02 1.487964086752e-01 0.0 
1.161272965958e-02 1.467099052577e-01 0.0 
1.175928844980e-02 1.389684990885e-01 0.0 
1.086198186339e-02 1.402782489533e-01 0.0 
9.993257803358e-03 1.412127286315e-01 0.0 
9.181897613464e-03 1.418954730057e-01 0.0 
8.408174873604e-03 1.423737439925e-01 0.0 
7.660209704004e-03 1.426962061740e-01 0.0 
6.931722698103e-03 1.429039408762e-01 0.0 
6.217536873248e-03 1.430224171737e-01 0.0 
5.511384843369e-03 1.430753307548e-01 0.0 
4.814780297884e-03 1.430937680608e-01 0.0 
4.121851687810e-03 1.430809743549e-01 0.0 
3.434246208325e-03 1.430549298764e-01 0.0 
2.746644156246e-03 1.430181892912e-01 0.0 
2.060506545261e-03 1.429819596481e-01 0.0 
1.374227610919e-03 1.429420722808e-01 0.0 
6.844511076979e-04 1.428877528622e-01 0.0 
-8.913551498954e-03 1.060696866494e-01 0.0 
-6.083874481671e-03 1.148809236874e-01 0.0 
-2.930102184322e-03 1.239358309273e-01 0.0 
5.303362013202e-04 1.323550864373e-01 0.0 
4.121642638822e-03 1.395119539438e-01 0.0 
7.563253378879e-03 1.447549732313e-01 0.0 
1.041967704496e-02 1.473903348184e-01 0.0 
1.208997722108e-02 1.461027467507e-01 0.0 
1.282075780198e-02 1.408116991732e-01 0.0 
1.253752072541e-02 1.331377368796e-01 0.0 
-1.945269495952e-03 1.130992557233e-01 0.0 
2.769596909390e-03 8.070725216397e-03 0.0 
-8.413453481369e-04 8.010519617441e-02 0.0 
-3.569230567410e-03 8.659985296118e-02 0.0 
1.759225517321e-03 7.518214246825e-03 0.0 
5.222088149786e-03 1.282545384300e-01 0.0 
5.653559136770e-04 5.792279684367e-02 0.0 
3.551089562789e-03 8.825900190382e-03 0.0 
1.160872982424e-02 1.374902755619e-01 0.0 
3.905753257586e-03 9.533495105126e-03 0.0 
1.449402913729e-02 1.366560340387e-01 0.0 
9.741561147480e-04 6.717462062868e-03 0.0 
4.766392160201e-05 7.829554706298e-02 0.0 
3.862610543484e-03 1.076118354737e-02 0.0 
1.336304494374e-02 1.228983910874e-01 0.0 
3.854307761376e-04 7.039570792301e-02 0.0 
5.947859527444e-04 4.534581054231e-02 0.0 
3.538675875289e-03 1.199013527456e-02 0.0 
2.446697670700e-03 1.212701088463e-02 0.0 
6.803466059561e-04 1.267899754638e-02 0.0 
1.268713494321e-03 1.369185998694e-02 0.0 
1.718416157035e-03 1.212461228449e-02 0.0 
1.088007283373e-02 1.200778446117e-01 0.0 
7.070099824046e-03 1.215559567218e-01 0.0 
4.644213514140e-03 1.214676445895e-01 0.0 
4.527625078301e-04 7.704962705025e-02 0.0 
5.815977451856e-04 7.198283464685e-03 0.0 
-5.953004054549e-03 9.534592980580e-02 0.0 
1.523676369931e-04 7.781156354722e-02 0.0 
4.133692780279e-04 2.699022489208e-02 0.0 
2.391290381254e-03 1.221636666266e-01 0.0 
2.126296556055e-04 7.581920777599e-02 0.0 
3.367004101228e-03 1.367741408382e-02 0.0 
3.496675801657e-03 8.444806378738e-03 0.0 
3.908881005509e-03 1.000405346906e-02 0.0 
3.390618268765e-03 8.930234887511e-03 0.0 
2.235000965995e-03 7.424311199891e-03 0.0 
-2.191794894055e-03 8.311458550611e-02 0.0 
8.864012384474e-03 1.217262718991e-01 0.0 
1.580952053206e-03 8.432566236745e-03 0.0 
3.383302617976e-04 5.099313058709e-02 0.0 
-2.850323651444e-04 7.897920342574e-02 0.0 
5.051499619330e-04 6.502506767164e-02 0.0 
3.354668200788e-04 1.032216244688e-02 0.0 
8.738720898144e-03 1.332068824623e-01 0.0 
1.568064489246e-03 1.211000713481e-01 0.0 
1.363119222187e-02 1.387915453478e-01 0.0 
1.428375572269e-02 1.309671085179e-01 0.0 
-5.503447019512e-03 1.053236338723e-01 0.0 
5.476606129150e-04 1.010936612214e-01 0.0 
2.669677527990e-04 5.676894512348e-03 0.0 
6.937995845610e-05 7.770294130229e-02 0.0 
1.841381859047e-04 2.320355316545e-02 0.0 
1.288194043221e-02 1.179503856225e-01 0.0 
1.388142925911e-02 1.121716454890e-01 0.0 
1.281265286711e-02 1.080652475323e-01 0.0 
1.394178030300e-02 1.012431281526e-01 0.0 
1.287383935212e-02 9.585870521240e-02 0.0 
1.368856355722e-02 8.969374193595e-02 0.0 
1.487989581789e-02 9.482997771678e-02 0.0 
1.438220550230e-02 8.339213840534e-02 0.0 
1.565999744963e-02 8.839297900484e-02 0.0 
1.243455768032e-02 8.401281937258e-02 0.0 
1.489857639542e-02 7.700595221927e-02 0.0 
1.624199921189e-02 8.187259035713e-02 0.0 
1.521008206417e-02 7.061206577253e-02 0.0 
1.659150142350e-02 7.533700585080e-02 0.0 
1.746136495059e-02 8.622785991161e-02 0.0 
1.783149053535e-02 7.959014421351e-02 0.0 
1.851339932952e-02 8.999623651820e-02 0.0 
1.888294988147e-02 8.325158541873e-02 0.0 
1.794319775231e-02 7.307795899945e-02 0.0 
1.898329077265e-02 7.669217559126e-02 0.0 
1.970880402781e-02 8.632244271690e-02 0.0 
1.978217115565e-02 7.974106485845e-02 0.0 
2.027206253855e-02 8.878690840836e-02 0.0 
2.031163981667e-02 8.220182158406e-02 0.0 
2.055171072728e-02 9.067531722326e-02 0.0 
2.055905117998e-02 8.413954423827e-02 0.0 
2.009760591929e-02 7.591877437332e-02 0.0 
2.032092997276e-02 7.795755471292e-02 0.0 
2.051561550992e-02 8.557872541222e-02 0.0 
2.026080411526e-02 7.953597736273e-02 0.0 
2.018471513891e-02 8.656628511743e-02 0.0 
1.992355286002e-02 8.069443445242e-02 0.0 
1.979204039923e-02 7.384555734040e-02 0.0 
1.945801647017e-02 7.520761445144e-02 0.0 
1.932217349015e-02 8.149612110238e-02 0.0 
1.887364964188e-02 7.624296418271e-02 0.0 
1.847802502297e-02 8.199139061557e-02 0.0 
1.806195767840e-02 7.699407418794e-02 0.0 
1.742046385045e-02 8.221969714702e-02 0.0 
1.704401053209e-02 7.750771821602e-02 0.0 
1.748602412819e-02 7.231475384221e-02 0.0 
1.651606830546e-02 7.309805391915e-02 0.0 
1.584987722550e-02 7.784032999448e-02 0.0 
1.538377591331e-02 7.372634039847e-02 0.0 
1.585494445136e-02 6.900426789478e-02 0.0 
1.478982427124e-02 6.992479968103e-02 0.0 
1.508154247513e-02 6.518905892298e-02 0.0 
1.408973456298e-02 6.638692884178e-02 0.0 
1.361678344114e-02 7.070358625911e-02 0.0 
1.299506129595e-02 6.743917076484e-02 0.0 
1.330519170067e-02 6.306565666728e-02 0.0 
1.228753821824e-02 6.440345287599e-02 0.0 
1.181898032611e-02 6.841821477663e-02 0.0 
1.120452229631e-02 6.561815198092e-02 0.0 
1.152108305256e-02 6.151852150615e-02 0.0 
1.052041305323e-02 6.298598077037e-02 0.0 
1.007983458831e-02 6.676673625903e-02 0.0 
9.484844836349e-03 6.435808507637e-02 0.0 
9.793985977626e-03 6.042966674164e-02 0.0 
8.835773439614e-03 6.205272606343e-02 0.0 
8.432456627753e-03 6.567466200385e-02 0.0 
7.868605229012e-03 6.356885783106e-02 0.0 
8.151667172853e-03 5.978241720425e-02 0.0 
7.257840718001e-03 6.152322973068e-02 0.0 
7.434471152713e-03 5.755893525352e-02 0.0 
6.892528225325e-03 6.505387315662e-02 0.0 
6.362953638170e-03 6.318404614937e-02 0.0 
5.937267333803e-03 6.649670447755e-02 0.0 
5.485568449762e-03 6.477503776540e-02 0.0 
1.913297993125e-02 6.849132982934e-02 0.0 
5.035211108658e-03 6.785412790578e-02 0.0 
5.376697744135e-03 6.937626696063e-02 0.0 
4.645012310302e-03 6.629227072288e-02 0.0 
4.984978975557e-03 6.305049010677e-02 0.0 
4.187391766700e-03 6.914341927370e-02 0.0 
3.852165156026e-03 6.773087709559e-02 0.0 
3.406601441444e-03 7.036356876887e-02 0.0 
1.756953187516e-02 8.750833911142e-02 0.0 
1.779304280945e-02 6.673321581793e-02 0.0 
3.118280436105e-03 6.909169206396e-02 0.0 
2.703455427680e-03 7.151062288539e-02 0.0 
2.882495388228e-03 7.262621053871e-02 0.0 
2.229678240546e-03 7.356143299696e-02 0.0 
1.170638436826e-02 9.022346915884e-02 0.0 
1.112442144669e-02 7.797180321662e-02 0.0 
1.050763759670e-02 8.421607961189e-02 0.0 
9.779161099043e-03 7.166596220819e-02 0.0 
9.273772145399e-03 7.783727809623e-02 0.0 
2.081355856957e-03 7.257977303138e-02 0.0 
1.371429840110e-02 6.510764247657e-02 0.0 
1.016963392908e-02 6.532020913042e-02 0.0 
1.996023846377e-02 9.566659586310e-02 0.0 
2.021651929210e-02 9.283968155319e-02 0.0 
1.593086437380e-02 6.383464949317e-02 0.0 
3.460695860956e-03 6.629693878476e-02 0.0 
2.768701704922e-03 6.779282518642e-02 0.0 
3.021152797131e-03 6.483098665932e-02 0.0 
8.227731978654e-03 5.554600810066e-02 0.0 
7.414076599230e-03 5.316117767801e-02 0.0 
8.083167228121e-03 5.085627646276e-02 0.0 
7.190850669567e-03 4.831460136198e-02 0.0 
7.712973352765e-03 4.570717991703e-02 0.0 
6.762615178488e-03 4.300538806560e-02 0.0 
6.310128711266e-03 4.578013610417e-02 0.0 
5.841266206203e-03 4.029782532687e-02 0.0 
5.450831483570e-03 4.323363471991e-02 0.0 
7.116477651423e-03 4.008831747760e-02 0.0 
8.137925748016e-03 4.295699710807e-02 0.0 
4.958464930906e-03 3.757305439223e-02 0.0 
4.622028017140e-03 4.065704023915e-02 0.0 
4.122755991445e-03 3.481151463549e-02 0.0 
3.832570397494e-03 3.803953149616e-02 0.0 
4.202796423109e-03 4.360742308257e-02 0.0 
3.456384248733e-03 4.113107440806e-02 0.0 
3.719449793248e-03 4.642698143723e-02 0.0 
1.499491619492e-02 6.000063012973e-02 0.0 
1.560975702791e-02 5.820020770142e-02 0.0 
1.452706364016e-02 5.434777841446e-02 0.0 
1.488511059840e-02 5.209414011832e-02 0.0 
1.367454274906e-02 4.821877837692e-02 0.0 
1.375621007920e-02 4.551324932538e-02 0.0 
1.243422189277e-02 4.160503281497e-02 0.0 
1.242106782857e-02 4.451483022743e-02 0.0 
1.530399233137e-02 6.417885853580e-02 0.0 
1.451751327987e-02 7.801388523083e-02 0.0 
1.476518115615e-02 8.215460785260e-02 0.0 
1.325776985401e-02 8.188414470247e-02 0.0 
1.326287591966e-02 8.603825573500e-02 0.0 
1.160925142133e-02 8.533206180914e-02 0.0 
1.134407451488e-02 8.951848209672e-02 0.0 
9.571418256832e-03 8.839367255445e-02 0.0 
9.926538072509e-03 8.458022841155e-02 0.0 
7.805275525096e-03 8.726444551730e-02 0.0 
8.250498484914e-03 8.383731348008e-02 0.0 
6.094632125404e-03 8.616854991978e-02 0.0 
6.619331912364e-03 8.314667582363e-02 0.0 
1.965064591066e-02 6.995294361761e-02 0.0 
1.502888050870e-02 4.959263192895e-02 0.0 
1.360440446524e-02 4.253779721315e-02 0.0 
1.493105145957e-02 4.680591422995e-02 0.0 
2.298133648900e-03 7.452449348659e-02 0.0 
3.089391902529e-03 3.536846225891e-02 0.0 
7.347691690218e-03 3.701051026457e-02 0.0 
8.443849499822e-03 4.009898455760e-02 0.0 
1.108805760555e-02 3.784211083161e-02 0.0 
1.670142008436e-03 7.442084776654e-02 0.0 
9.015318424043e-03 9.262030109129e-02 0.0 
1.084872245171e-02 9.415954039879e-02 0.0 
8.435103595696e-03 6.499124790590e-02 0.0 
8.043483002655e-03 7.116183750350e-02 0.0 
7.431060580198e-03 3.376439857992e-02 0.0 
1.542884987428e-03 7.356398448649e-02 0.0 
5.191055699364e-03 3.434462466123e-02 0.0 
5.352352415009e-03 8.957944691246e-02 0.0 
2.747403728412e-03 3.860060233657e-02 0.0 
2.398954106820e-03 3.264008628681e-02 0.0 
5.782015295954e-03 4.841135465116e-02 0.0 
1.319645796686e-02 3.925954446199e-02 0.0 
1.460204219032e-02 4.382171423560e-02 0.0 
8.525121382275e-03 8.074736860802e-02 0.0 
6.974157277315e-03 8.043380190024e-02 0.0 
5.079074466774e-03 8.252387174448e-02 0.0 
5.566486998433e-03 8.005703474873e-02 0.0 
7.186434852559e-03 7.793532016289e-02 0.0 
5.819871543543e-03 7.796576966811e-02 0.0 
4.238455920667e-03 7.983689995784e-02 0.0 
4.566789239869e-03 7.802590657198e-02 0.0 
5.956620300606e-03 7.599777829128e-02 0.0 
4.778294930886e-03 7.631886181754e-02 0.0 
3.444408537069e-03 7.812886763167e-02 0.0 
3.722842127653e-03 7.664929417607e-02 0.0 
2.623233946914e-03 2.912119782639e-02 0.0 
3.652632286290e-03 8.813714546910e-02 0.0 
1.787516369278e-02 9.683201949525e-02 0.0 
6.314168578820e-03 3.056909770517e-02 0.0 
1.083141725926e-02 3.459883953000e-02 0.0 
7.115741236943e-03 5.804261864539e-02 0.0 
6.835210978027e-03 6.423046651332e-02 0.0 
7.564605187885e-03 7.729248301947e-02 0.0 
6.460748152734e-03 7.034968186368e-02 0.0 
5.669243621389e-03 5.706461919471e-02 0.0 
5.396919246138e-03 6.322200219735e-02 0.0 
6.016584364876e-03 7.639683831563e-02 0.0 
5.045777659596e-03 6.929972873014e-02 0.0 
5.521414842553e-03 8.234292197538e-02 0.0 
4.634214573958e-03 7.528372396450e-02 0.0 
4.125393927292e-03 6.203310508713e-02 0.0 
3.791887212134e-03 6.808231929625e-02 0.0 
4.177406928991e-03 8.118047695588e-02 0.0 
3.402529052541e-03 7.404556699602e-02 0.0 
3.685618257921e-03 8.697747188577e-02 0.0 
2.967877391858e-03 7.991697441581e-02 0.0 
2.681047285806e-03 6.678233068008e-02 0.0 
1.222309911334e-03 7.513856002778e-02 0.0 
1.114842667223e-02 4.095530585112e-02 0.0 
9.738654912216e-03 3.419196243900e-02 0.0 
2.382668278102e-03 6.645173118264e-02 0.0 
2.566877230805e-03 6.331860795038e-02 0.0 
3.200003013214e-03 6.147236391915e-02 0.0 
2.645197351756e-03 5.979759913835e-02 0.0 
2.291997879768e-03 7.279469005454e-02 0.0 
2.020997234331e-03 5.941044047232e-02 0.0 
8.233512239647e-03 9.731426665925e-02 0.0 
1.009559878606e-02 9.930258909115e-02 0.0 
7.275374343504e-03 5.179198739250e-02 0.0 
2.081699258244e-03 3.600813253052e-02 0.0 
2.334668732321e-03 4.169460136695e-02 0.0 
1.961282001862e-02 9.320314439963e-02 0.0 
1.939314461871e-02 9.969714312600e-02 0.0 
1.852027626849e-02 9.945952480600e-02 0.0 
1.797077788176e-02 1.062937460369e-01 0.0 
1.888733475012e-02 1.066449237890e-01 0.0 
1.681346660050e-02 1.054533049390e-01 0.0 
9.189398939544e-03 4.594380238680e-02 0.0 
3.270754427041e-03 5.462507324634e-02 0.0 
2.982281311346e-03 7.373209226540e-02 0.0 
2.274093990369e-03 7.548242426060e-02 0.0 
1.769335189811e-03 2.984277375874e-02 0.0 
1.220387481844e-02 4.720796071698e-02 0.0 
1.916176431432e-02 6.731942766768e-02 0.0 
1.850813306187e-02 6.152310589996e-02 0.0 
1.774885814682e-02 5.830411129750e-02 0.0 
1.688857165796e-02 5.267264875251e-02 0.0 
1.585067155438e-02 4.887762596521e-02 0.0 
1.477786321412e-02 4.340174399146e-02 0.0 
1.583746279250e-02 4.730078316130e-02 0.0 
1.250578337060e-02 3.560785959554e-02 0.0 
1.352437566652e-02 3.813719030981e-02 0.0 
2.538117965507e-03 8.581295488332e-02 0.0 
1.623518808207e-02 5.394010190794e-02 0.0 
5.973735372643e-03 7.415691029709e-02 0.0 
1.267107816037e-03 7.584241514624e-02 0.0 
2.440024430685e-03 7.828983377347e-02 0.0 
1.091693829144e-03 7.444746397309e-02 0.0 
1.345304734960e-03 7.266762727299e-02 0.0 
6.158721491994e-03 2.695854796770e-02 0.0 
1.344971329388e-02 3.904000556902e-02 0.0 
1.455401685617e-02 4.461470889938e-02 0.0 
1.711897264895e-02 1.136004152404e-01 0.0 
1.807340986594e-02 1.140155162440e-01 0.0 
1.100770785258e-02 3.122018925302e-02 0.0 
9.800216722515e-03 9.045701554400e-02 0.0 
6.437640257842e-03 8.924451350766e-02 0.0 
5.828546443420e-03 9.503166210002e-02 0.0 
8.299924055422e-04 7.596444758827e-02 0.0 
2.041890080950e-03 7.957364660024e-02 0.0 
4.568608743512e-03 4.971464480950e-02 0.0 
1.260643284747e-02 9.568661568568e-02 0.0 
1.190229475265e-02 1.012158721966e-01 0.0 
2.601609887283e-03 9.152331851975e-02 0.0 
9.539892797776e-04 8.975003732290e-02 0.0 
1.697667164906e-03 6.535917906362e-02 0.0 
1.450015838051e-03 5.190951000762e-02 0.0 
3.284028555729e-03 5.771569304827e-02 0.0 
2.676590405895e-03 5.586074832766e-02 0.0 
7.340446952505e-03 3.030590154706e-02 0.0 
2.803440458002e-03 7.697388571453e-02 0.0 
1.666863778349e-03 4.569464628709e-02 0.0 
1.100540184031e-02 4.383492846480e-02 0.0 
1.180716512432e-02 4.969988338226e-02 0.0 
2.024104195463e-03 6.178261542491e-02 0.0 
7.153211948841e-03 1.025434011865e-01 0.0 
5.248416803295e-03 1.000997414148e-01 0.0 
7.174291531557e-03 7.359071129487e-02 0.0 
3.872644050738e-03 7.525298751361e-02 0.0 
9.061328040175e-04 7.366784868816e-02 0.0 
5.801380774479e-03 2.313082808874e-02 0.0 
4.639524483203e-03 4.345266818201e-02 0.0 
1.462405559931e-02 4.218216051187e-02 0.0 
1.662743895336e-02 5.080338663002e-02 0.0 
1.212529448829e-02 3.311107274889e-02 0.0 
1.681952358743e-03 7.835035790269e-02 0.0 
5.040759121478e-03 2.361061440223e-02 0.0 
1.470136407988e-03 3.334740478893e-02 0.0 
1.198904909145e-02 3.470639048134e-02 0.0 
1.301298990759e-02 3.988704796033e-02 0.0 
1.425837720273e-02 9.711563020077e-02 0.0 
1.366520847230e-02 1.029620777927e-01 0.0 
1.092191763139e-02 1.073004966156e-01 0.0 
1.272574048432e-02 1.093874744212e-01 0.0 
1.598289544200e-02 9.955218943994e-02 0.0 
1.581333277236e-02 9.832119948805e-02 0.0 
1.873224659383e-02 1.001192118134e-01 0.0 
1.783610390681e-02 1.071506593192e-01 0.0 
1.846818689342e-02 1.099618489077e-01 0.0 
1.947754299648e-02 1.065824200825e-01 0.0 
1.867384707480e-02 1.140076082894e-01 0.0 
1.482912825005e-02 8.670070147711e-02 0.0 
1.661195367766e-02 6.228888083410e-02 0.0 
3.877936340254e-03 5.952107507125e-02 0.0 
4.450582760344e-03 4.869564056216e-02 0.0 
8.976461898298e-03 5.342211004768e-02 0.0 
3.455580476737e-03 4.843614061093e-02 0.0 
2.609557860078e-03 4.082053456736e-02 0.0 
4.438748201252e-03 9.390779449754e-02 0.0 
3.869302704159e-03 9.952860518623e-02 0.0 
1.677868364201e-03 7.606465223337e-02 0.0 
1.542780960101e-03 7.687965645509e-02 0.0 
6.696728036410e-03 5.535530766996e-02 0.0 
5.256048203399e-03 2.738186393672e-02 0.0 
5.890346371319e-03 4.459083024172e-02 0.0 
5.784605796419e-03 3.826611923532e-02 0.0 
7.284020898448e-03 4.547521093369e-02 0.0 
7.046340329863e-03 2.661849457405e-02 0.0 
1.309390492458e-02 7.808710576870e-02 0.0 
1.398393805947e-02 5.639640133176e-02 0.0 
2.091705329046e-03 8.686201454567e-02 0.0 
1.919791076279e-02 6.659868791941e-02 0.0 
1.057678113977e-03 7.724772412539e-02 0.0 
1.655422885633e-02 6.264827084385e-02 0.0 
1.210356650658e-03 2.697408865921e-02 0.0 
1.400802837572e-03 2.318324417801e-02 0.0 
9.983875388236e-03 2.710907727490e-02 0.0 
1.466357780018e-02 1.167632731434e-01 0.0 
1.835606548600e-02 6.136136260853e-02 0.0 
1.831180669770e-02 6.347873782308e-02 0.0 
1.731855388933e-02 1.171465753252e-01 0.0 
1.769587809372e-02 1.194891798212e-01 0.0 
1.884532291965e-02 1.120425635543e-01 0.0 
1.777684486351e-02 1.210937214092e-01 0.0 
6.998515473274e-03 7.164797138396e-02 0.0 
5.877332292709e-03 7.244315954355e-02 0.0 
1.042305494633e-02 2.848258760571e-02 0.0 
1.079520288825e-02 2.884535684164e-02 0.0 
1.025816051806e-02 2.972766420458e-02 0.0 
1.124903493803e-02 3.462604961110e-02 0.0 
8.371368961737e-03 2.270953390388e-02 0.0 
9.462257729768e-03 2.696835241016e-02 0.0 
1.081768735857e-03 7.172090793090e-02 0.0 
1.696062046134e-02 1.216630206989e-01 0.0 
3.526253939972e-03 3.586965170007e-02 0.0 
1.671730340730e-02 1.141337707765e-01 0.0 
4.034704708485e-03 2.044661628848e-02 0.0 
4.273942721902e-03 2.419261332765e-02 0.0 
-4.993787513861e-04 8.820706829222e-02 0.0 
7.304707183817e-04 8.548352355899e-02 0.0 
1.140972735381e-03 3.830418497158e-02 0.0 
9.639603498839e-03 1.138559885924e-01 0.0 
1.140474592184e-02 1.162869900861e-01 0.0 
7.767127497475e-03 1.111217693775e-01 0.0 
1.827099211204e-04 1.216968801618e-02 0.0 
1.032787380329e-03 1.222597961828e-01 0.0 
9.083824461365e-04 2.010882415989e-02 0.0 
1.975692914729e-02 1.059592319309e-01 0.0 
1.225874659718e-03 3.138538650827e-02 0.0 
1.737614892629e-02 5.645827067024e-02 0.0 
1.871649703533e-02 9.328671459364e-02 0.0 
8.574676135681e-03 3.368440636859e-02 0.0 
9.269035348732e-04 4.574091270955e-02 0.0 
6.847536096902e-04 3.020447064705e-02 0.0 
6.660560536783e-03 1.015242464890e-01 0.0 
5.990463892955e-03 1.073420828169e-01 0.0 
7.366494741552e-03 9.595439788207e-02 0.0 
4.430005704776e-03 9.341534807511e-02 0.0 
1.007354058730e-03 9.595199275460e-02 0.0 
2.495245898063e-03 4.708528294211e-02 0.0 
2.145616812372e-03 6.920138208326e-02 0.0 
1.766044349636e-03 6.768606090448e-02 0.0 
2.962014553849e-03 7.585008615759e-02 0.0 
3.882670647194e-03 7.397851170650e-02 0.0 
3.933249498968e-03 5.554967603942e-02 0.0 
4.574495896567e-03 5.748439517006e-02 0.0 
1.613469986753e-02 5.643657607914e-02 0.0 
1.469802711683e-02 5.192766700660e-02 0.0 
1.840156808322e-02 6.423498791100e-02 0.0 
1.068517574033e-02 4.650931625823e-02 0.0 
1.125963205383e-02 5.201146735730e-02 0.0 
1.229091470148e-02 5.506766211423e-02 0.0 
2.656182372730e-03 3.494910379916e-02 0.0 
1.768881623101e-03 2.596648652450e-02 0.0 
8.176018008325e-03 7.088790927134e-02 0.0 
8.439290055569e-03 7.305767709402e-02 0.0 
6.714545995293e-03 6.988250621929e-02 0.0 
3.388407343211e-03 2.975816234117e-02 0.0 
1.005242113077e-03 1.623250503396e-02 0.0 
1.494038130756e-03 1.951042528729e-02 0.0 
8.347258661133e-04 7.789830359978e-02 0.0 
1.313271137180e-03 7.769387384728e-02 0.0 
3.889300367388e-03 1.053364453746e-01 0.0 
1.917249876792e-03 1.025372577354e-01 0.0 
5.578291550061e-03 3.244076922800e-02 0.0 
7.129015066446e-03 3.923052877813e-02 0.0 
3.966011506617e-03 2.447204575478e-02 0.0 
6.474685581049e-04 7.293925800553e-02 0.0 
1.542345729545e-02 4.569952379046e-02 0.0 
5.357782835617e-03 1.947407146985e-02 0.0 
6.677136955003e-03 2.313842904957e-02 0.0 
3.901991778452e-03 1.494728458246e-02 0.0 
1.161983828129e-02 3.191287381012e-02 0.0 
8.798402286721e-03 2.306904896740e-02 0.0 
9.087771866339e-03 2.358615967718e-02 0.0 
-1.891397512605e-03 9.092738249313e-02 0.0 
5.164506647092e-04 3.605878470589e-02 0.0 
4.585482884522e-03 1.062617801586e-01 0.0 
-2.816661923063e-03 8.937266787046e-02 0.0 
3.955145143341e-03 1.121176918092e-01 0.0 
3.310800179670e-03 1.051321694453e-01 0.0 
3.417536046561e-03 1.178161282084e-01 0.0 
5.422599266861e-04 7.457434184328e-02 0.0 
7.538260840401e-03 1.100296400665e-01 0.0 
8.354339836504e-03 1.029515708085e-01 0.0 
3.417860688647e-04 7.872988606536e-02 0.0 
2.291835138351e-03 2.213122975377e-02 0.0 
5.070379447642e-04 7.803157560934e-02 0.0 
7.190898225503e-04 7.751773465830e-02 0.0 
3.087882639103e-03 1.699442080531e-02 0.0 
3.370487676485e-03 2.094717930070e-02 0.0 
2.240143057591e-03 1.366194385509e-02 0.0 
2.613068340407e-03 1.805715345822e-02 0.0 
3.513193323121e-03 2.487265495668e-02 0.0 
2.730461607553e-03 2.174116596985e-02 0.0 
5.357236492705e-03 1.138764848203e-01 0.0 
1.789611629492e-03 1.369111418476e-02 0.0 
2.020446467727e-03 1.840205526714e-02 0.0 
1.176611909986e-03 1.053601501707e-02 0.0 
1.632170625028e-02 1.288283015271e-01 0.0 
1.423611038411e-02 1.113410303901e-01 0.0 
1.293921744747e-02 1.186453441189e-01 0.0 
9.571580056257e-03 1.241106991734e-01 0.0 
7.632231409341e-03 2.192325373907e-02 0.0 
9.473393579809e-03 2.951119224396e-02 0.0 
9.162165357926e-04 3.047801830567e-02 0.0 
1.048422313872e-03 3.657577297860e-02 0.0 
2.731352548593e-03 1.115377959304e-01 0.0 
1.994216511678e-03 1.120201950319e-01 0.0 
2.179052064073e-03 1.009526739892e-01 0.0 
1.571748708797e-03 1.023018867466e-01 0.0 
1.688969298599e-03 9.115375890363e-02 0.0 
1.086464532830e-03 9.258257467350e-02 0.0 
1.289317193613e-03 8.114492995580e-02 0.0 
7.430011971632e-03 1.887825691905e-02 0.0 
5.938866420986e-03 1.175984481740e-01 0.0 
1.592298984663e-02 1.243102923884e-01 0.0 
6.722818646439e-03 1.841457878238e-02 0.0 
8.120626343993e-03 2.353740605030e-02 0.0 
1.755927555436e-02 1.217009622887e-01 0.0 
1.544024532220e-02 1.298426989430e-01 0.0 
3.344228198392e-03 1.524446885176e-02 0.0 
1.612520873416e-02 9.263277035504e-02 0.0 
1.728143764598e-03 1.413460273042e-02 0.0 
-6.668551203536e-03 9.910985993723e-02 0.0 
-2.908794043019e-03 9.679707144863e-02 0.0 
1.747448812124e-02 9.326871200846e-02 0.0 
1.892678006023e-02 1.133936799129e-01 0.0 
1.575874419229e-02 1.127756119149e-01 0.0 
1.472905007970e-02 1.201322571688e-01 0.0 
9.804061965766e-03 4.045924993687e-02 0.0 
9.389743768674e-04 7.857172110240e-02 0.0 
5.845526524130e-03 1.082314577064e-01 0.0 
1.876875702905e-03 7.986230694169e-02 0.0 
2.152247395275e-03 1.108649719365e-01 0.0 
4.804201614065e-04 3.329022814748e-02 0.0 
1.626849190693e-02 8.722506800219e-02 0.0 
2.028575348249e-02 9.882047992655e-02 0.0 
9.073004476189e-03 1.049347693269e-01 0.0 
1.540275275159e-02 1.043311609827e-01 0.0 
1.684309158888e-02 9.292469508685e-02 0.0 
1.496909875322e-02 1.060071281338e-01 0.0 
1.586651068544e-02 1.104831930146e-01 0.0 
1.616153947023e-02 8.232173231056e-02 0.0 
1.602720531546e-02 1.211198819965e-01 0.0 
1.315156667251e-02 1.283803534843e-01 0.0 
1.936594388834e-02 9.315939598214e-02 0.0 
8.835480547574e-03 5.239857052885e-02 0.0 
8.773838294134e-03 4.603453753377e-02 0.0 
6.825457154275e-03 3.335546102063e-02 0.0 
8.515772082841e-03 3.980478465014e-02 0.0 
1.044837861398e-02 5.260146078476e-02 0.0 
1.028194399559e-02 4.628234087331e-02 0.0 
8.043554574129e-03 3.378756674907e-02 0.0 
9.892858645186e-03 4.006136340854e-02 0.0 
6.735648953954e-03 2.520743313308e-02 0.0 
9.180617877360e-03 3.368102703711e-02 0.0 
1.173323152926e-02 4.630714280366e-02 0.0 
1.120448215357e-02 4.039885627295e-02 0.0 
8.641870140831e-03 2.924029331323e-02 0.0 
1.356059649615e-02 5.276610784958e-02 0.0 
5.355349819626e-03 1.397933217749e-02 0.0 
1.868996162125e-02 8.749591583095e-02 0.0 
-4.471703246038e-04 9.313653866669e-02 0.0 
-1.392269507932e-03 9.971033821647e-02 0.0 
2.027460606618e-02 9.753463220241e-02 0.0 
3.327570403941e-03 1.227780548277e-02 0.0 
2.757938027779e-03 1.237833275651e-02 0.0 
1.304577287322e-02 9.064443013544e-02 0.0 
3.898619184048e-03 1.034872661019e-02 0.0 
1.697097446038e-02 1.036983129597e-01 0.0 
7.149410457130e-03 9.111065801001e-02 0.0 
3.970691390725e-03 9.886207317291e-03 0.0 
1.040365676962e-02 5.894015875943e-02 0.0 
1.196111748306e-02 6.538705295563e-02 0.0 
1.161867620814e-02 7.171854504175e-02 0.0 
2.127010621614e-03 1.172613800914e-02 0.0 
8.059250858740e-03 9.013787554489e-02 0.0 
3.415132229907e-03 8.345043565142e-03 0.0 
1.603073720137e-02 5.617861369641e-02 0.0 
1.709402608409e-02 6.060081870075e-02 0.0 
1.750267229852e-02 6.670315673660e-02 0.0 
1.204783995219e-02 5.275085614957e-02 0.0 
2.937520959400e-03 8.104362337054e-03 0.0 
5.247859171760e-03 1.534343572730e-02 0.0 
4.870051967814e-03 1.507122674965e-02 0.0 
7.273827671692e-03 2.264009395319e-02 0.0 
2.516333647338e-03 7.786417164740e-03 0.0 
3.392733665820e-03 1.065023126671e-02 0.0 
3.374621696657e-03 9.910245251002e-03 0.0 
7.238840071494e-03 7.568829978910e-02 0.0 
8.603721616784e-03 7.538420431962e-02 0.0 
9.749764267760e-03 7.251858843161e-02 0.0 
1.000606077811e-02 7.512195320153e-02 0.0 
8.636637172276e-03 7.794776705430e-02 0.0 
1.012814342150e-02 7.797962636780e-02 0.0 
1.140833337138e-02 7.488386073610e-02 0.0 
1.010054557777e-02 8.113486787488e-02 0.0 
1.227860041728e-02 4.066961051460e-02 0.0 
2.043842593826e-03 7.286627261697e-03 0.0 
8.682015310418e-03 4.843628678568e-02 0.0 
9.656146998499e-03 5.125669364931e-02 0.0 
9.853481519543e-03 5.607440866239e-02 0.0 
4.447370738945e-03 6.129423584701e-02 0.0 
5.196868945910e-03 5.940224707120e-02 0.0 
5.270622158771e-03 5.534455572143e-02 0.0 
3.717742949015e-03 6.311104708718e-02 0.0 
1.765530982808e-02 5.602332237604e-02 0.0 
1.853646017353e-03 7.259228220950e-03 0.0 
1.291588355967e-02 5.296937727517e-02 0.0 
5.795311209184e-03 6.130519631918e-02 0.0 
9.856177287980e-03 1.209876520328e-01 0.0 
1.050728663898e-02 1.105863655679e-01 0.0 
1.155757344902e-02 1.096329645318e-01 0.0 
1.095991905020e-02 9.828281814101e-02 0.0 
9.352775341367e-03 1.097864937103e-01 0.0 
3.284260661591e-03 5.356231931822e-02 0.0 
2.635575637029e-03 5.152714068012e-02 0.0 
2.059441029044e-03 5.395649482926e-02 0.0 
1.993360475660e-03 4.943508700707e-02 0.0 
1.440730437079e-03 5.197901383841e-02 0.0 
1.489209884836e-03 5.617376985580e-02 0.0 
1.350832967678e-03 4.727806300202e-02 0.0 
8.336955442419e-04 5.047268201517e-02 0.0 
7.940912470743e-03 1.217712184994e-01 0.0 
-2.798546423034e-03 8.469547554878e-02 0.0 
-8.813152372234e-04 8.334501780895e-02 0.0 
-6.038712097772e-04 8.197899594624e-02 0.0 
6.614906695973e-04 8.192660427158e-02 0.0 
6.799341992084e-04 8.332068669313e-02 0.0 
2.413677880411e-03 8.144844948762e-02 0.0 
2.274090361633e-03 8.322142858076e-02 0.0 
-1.223601437033e-03 8.512119794677e-02 0.0 
-1.663785736485e-03 8.188618630797e-02 0.0 
-3.211248118694e-04 8.089863482557e-02 0.0 
-1.212571954781e-03 8.089108052500e-02 0.0 
-1.343530925093e-04 8.006375907566e-02 0.0 
1.020305583110e-03 7.963782159335e-02 0.0 
2.182974874594e-03 7.640111867956e-02 0.0 
5.164155352830e-04 8.173360302305e-03 0.0 
5.440264929145e-04 6.170479593181e-02 0.0 
1.034524124543e-03 6.343382833757e-02 0.0 
9.471414652090e-04 6.643872354562e-02 0.0 
1.527179546154e-03 6.489323431811e-02 0.0 
1.041222895501e-03 6.026036900359e-02 0.0 
4.496067897848e-04 6.791027549501e-02 0.0 
8.503859449124e-04 6.885424696842e-02 0.0 
1.227374857903e-04 7.773448167236e-02 0.0 
1.893924320061e-04 7.739581715637e-02 0.0 
7.488072429334e-05 7.741198509143e-02 0.0 
2.319661536387e-04 7.677368299866e-02 0.0 
3.716731563261e-04 7.683633865271e-02 0.0 
2.816644655821e-04 7.744316719591e-02 0.0 
3.538977791710e-04 7.753498591558e-02 0.0 
1.532711879539e-04 7.793093140757e-02 0.0 
4.057345655424e-04 7.766330762527e-02 0.0 
6.511279113297e-04 7.696073501693e-02 0.0 
1.225969070023e-04 7.808953625968e-02 0.0 
4.120105592771e-04 6.392543995289e-02 0.0 
7.858276110502e-04 5.725479850493e-02 0.0 
1.589297686956e-03 7.577472571260e-03 0.0 
6.166428843732e-03 1.211111894152e-01 0.0 
-5.136093505884e-04 7.947787701110e-02 0.0 
6.385570881214e-04 1.523427600240e-02 0.0 
9.852646722798e-04 1.263426845656e-02 0.0 
7.945096217709e-04 1.224391239091e-02 0.0 
3.016153164734e-04 1.981846366404e-02 0.0 
4.898459074593e-04 1.629595207396e-02 0.0 
3.416059146354e-04 1.481107644199e-02 0.0 
3.622059579685e-03 7.161999044680e-02 0.0 
6.318407304513e-03 2.763965949973e-02 0.0 
1.808827047039e-03 3.939603120960e-02 0.0 
6.335601469599e-03 9.533322612383e-02 0.0 
4.835303663183e-03 7.322332728975e-02 0.0 
1.663274254798e-03 3.918578673680e-02 0.0 
4.980627327410e-03 4.601739812496e-02 0.0 
1.975509976869e-03 2.624623268309e-02 0.0 
3.012409393021e-03 4.408817292986e-02 0.0 
3.341781265691e-03 3.199330178812e-02 0.0 
4.612071761507e-03 1.530918882642e-02 0.0 
7.373408579151e-04 7.519257479912e-02 0.0 
4.991413530275e-03 8.817777058382e-02 0.0 
3.197466575625e-03 9.272735837937e-02 0.0 
3.008456059758e-03 6.074638544290e-02 0.0 
2.454417652154e-03 7.037328299157e-02 0.0 
2.091151456837e-03 5.786427535617e-02 0.0 
1.723537132403e-03 7.523918502906e-02 0.0 
7.175233086487e-03 1.892745322408e-02 0.0 
1.934747610290e-02 1.027910145782e-01 0.0 
9.024096840794e-03 5.796638032725e-02 0.0 
4.202993834439e-03 6.471310496822e-02 0.0 
4.461254384564e-03 7.052108362334e-02 0.0 
4.867661361167e-03 7.471431735419e-02 0.0 
1.957326700773e-02 8.717804406923e-02 0.0 
6.617551959105e-03 5.947708644278e-02 0.0 
6.131051919540e-03 3.722419347579e-02 0.0 
2.295541398844e-03 5.328683422129e-02 0.0 
-2.299738870988e-05 7.855000573877e-02 0.0 
6.296805072737e-03 3.398598206430e-02 0.0 
6.596318511637e-03 5.078981917065e-02 0.0 
7.024564413254e-03 8.334057909534e-02 0.0 
1.222430253659e-02 3.846222363128e-02 0.0 
3.090492231893e-03 7.961402629695e-02 0.0 
4.391614504038e-03 5.592702383223e-02 0.0 
4.445559564598e-03 3.165076287146e-02 0.0 
9.072202749310e-03 9.666949592324e-02 0.0 
1.190689279829e-03 7.658037703146e-02 0.0 
5.223763267102e-03 1.008806120768e-01 0.0 
4.625132716788e-03 1.962177658457e-02 0.0 
8.708788651843e-03 5.870766709954e-02 0.0 
1.862130407396e-03 7.156728732610e-02 0.0 
1.421881715682e-02 6.161572999163e-02 0.0 
2.053286311852e-02 9.199647245827e-02 0.0 
1.392970897550e-02 1.271359813329e-01 0.0 
1.878062041161e-03 3.355233512813e-02 0.0 
1.881808287953e-02 7.008950457024e-02 0.0 
9.395908745670e-03 3.065485127951e-02 0.0 
1.338503545255e-02 5.069390974393e-02 0.0 
1.586596146517e-03 7.046957002083e-02 0.0 
4.365697246632e-03 2.790397159813e-02 0.0 
1.676753717214e-02 6.792414991719e-02 0.0 
3.554669762680e-03 4.226463822902e-02 0.0 
1.672470175566e-02 5.461095330829e-02 0.0 
1.412979902129e-02 7.422042360631e-02 0.0 
5.842003561815e-03 5.085859265640e-02 0.0 
1.070358939266e-02 5.876444543410e-02 0.0 
1.175258626113e-02 3.500155927648e-02 0.0 
1.970767509527e-02 1.046875540229e-01 0.0 
1.959340097990e-02 7.339861618039e-02 0.0 
1.671292456839e-02 6.898316715792e-02 0.0 
1.985903879686e-02 7.210827481575e-02 0.0 
1.133737561051e-03 4.225296099441e-02 0.0 
5.298974321539e-03 3.095770431769e-02 0.0 
4.490860349069e-03 8.520856127284e-02 0.0 
1.732826476409e-02 9.900842899434e-02 0.0 
8.685323439529e-03 8.399384219285e-02 0.0 
1.224969476804e-02 3.401395706268e-02 0.0 
2.521706417735e-03 2.816937457477e-02 0.0 
1.999011456362e-02 9.950100638134e-02 0.0 
4.308823568847e-03 3.145268836135e-02 0.0 
4.612200253903e-03 3.756944516836e-02 0.0 
5.952519823446e-03 5.742639159975e-02 0.0 
2.620408909921e-04 7.435420061554e-02 0.0 
3.373787877294e-03 9.770707860188e-02 0.0 
1.169040067354e-02 8.153269917247e-02 0.0 
1.826221446882e-02 7.134130001594e-02 0.0 
5.950020078716e-03 5.313463836789e-02 0.0 
4.917178085531e-03 2.482004618489e-02 0.0 
3.489169715345e-03 2.851552301510e-02 0.0 
8.592048687353e-03 3.700244679900e-02 0.0 
-3.658236026912e-03 1.090804294198e-01 0.0 
1.540985621377e-02 1.207245555539e-01 0.0 
2.739926707854e-03 2.551847844422e-02 0.0 
1.328454594312e-02 5.825703813488e-02 0.0 
1.029644207996e-02 3.098236010809e-02 0.0 
9.032576944319e-04 5.447128289616e-02 0.0 
7.230272208135e-03 1.863297080369e-02 0.0 
1.615683072490e-02 1.294711810924e-01 0.0 
2.066662054792e-03 2.245486215756e-02 0.0 
9.871562682095e-03 3.742031581164e-02 0.0 
1.466181696320e-02 9.167250807260e-02 0.0 
1.713848536380e-03 1.222736357633e-01 0.0 
1.306825722861e-03 1.410327760355e-02 0.0 
8.339626497155e-03 3.014867102136e-02 0.0 
1.899224281761e-02 6.428998801325e-02 0.0 
1.244880675961e-02 5.995115235441e-02 0.0 
1.452795848428e-02 1.341711333841e-01 0.0 
5.198030107385e-03 5.090643633452e-02 0.0 
1.882369872233e-02 7.037962834036e-02 0.0 
1.842607380199e-03 1.150221132223e-02 0.0 
8.029537058283e-03 2.696409352325e-02 0.0 
1.303931360174e-02 7.800293164672e-02 0.0 
4.577460181201e-03 5.329197617347e-02 0.0 
1.623440698215e-02 5.162342699759e-02 0.0 
5.127804254138e-04 7.689342433114e-02 0.0 
1.624230604278e-02 1.268961960289e-01 0.0 
3.880752302862e-03 5.118668051840e-02 0.0 
1.161708396843e-02 7.806412430675e-02 0.0 
1.154296887208e-02 5.698764214275e-02 0.0 
7.172554463956e-03 1.865618403952e-02 0.0 
3.193744782020e-03 4.902974637058e-02 0.0 
1.279416776638e-02 7.458030950094e-02 0.0 
2.521073761959e-03 4.681987772762e-02 0.0 
1.426526467352e-02 1.380983318221e-01 0.0 
1.346355963445e-02 7.139821424485e-02 0.0 
1.843833256424e-03 4.454560809991e-02 0.0 
1.738580396361e-02 6.059048739821e-02 0.0 
7.909857338259e-04 7.704851110667e-02 0.0 
1.814829095282e-02 5.894775616193e-02 0.0 
7.110975633294e-04 2.357252122121e-02 0.0 
6.349468907442e-03 6.818176587609e-02 0.0 
1.061455957974e-02 5.414448728494e-02 0.0 
1.210716887207e-02 5.902363205143e-02 0.0 
1.272439430332e-02 1.386072822068e-01 0.0 
1.023883749015e-02 4.898725293420e-02 0.0 
1.546594776789e-02 5.046765077719e-02 0.0 
1.714362145490e-02 5.386873935995e-02 0.0 
1.802485843565e-02 6.523582354739e-02 0.0 
9.564917229233e-03 4.326941639666e-02 0.0 
1.461489463215e-02 1.289812396308e-01 0.0 
3.745997672886e-03 7.287156934962e-02 0.0 
3.009667687565e-03 7.478226041982e-02 0.0 
1.236292868308e-02 7.137481465430e-02 0.0 
1.396309885467e-02 4.577304153865e-02 0.0 
4.420659435976e-04 7.597757858212e-02 0.0 
1.373582255276e-02 5.872374221820e-02 0.0 
1.977810704062e-03 7.736787310701e-02 0.0 
1.106712655830e-02 7.197163489014e-02 0.0 
1.393727455372e-02 4.020630877749e-02 0.0 
4.920245491593e-04 8.939842091620e-02 0.0 
1.061883592175e-02 6.927141327820e-02 0.0 
3.165522723215e-04 7.255280613487e-02 0.0 
9.393398496781e-03 7.011055462413e-02 0.0 
1.734513588078e-02 5.863301007457e-02 0.0 
8.954623764976e-03 6.781471456430e-02 0.0 
7.821377508376e-03 6.885640497392e-02 0.0 
1.252770511722e-03 2.577703325485e-02 0.0 
7.390674255032e-03 6.691349930440e-02 0.0 
1.662688930015e-04 1.228142487849e-02 0.0 
2.148653199025e-04 7.431325706143e-03 0.0 
6.457760756598e-04 1.134506205514e-01 0.0 
9.578678860276e-03 1.372903619415e-01 0.0 
-5.122993480172e-03 9.183461221505e-02 0.0 
1.199353973885e-02 1.249616617129e-01 0.0 
5.668999224041e-03 7.088518160287e-02 0.0 
1.515236323640e-02 5.806377079726e-02 0.0 
1.342146607844e-03 1.129123918740e-01 0.0 
4.675897136981e-03 7.186912709891e-02 0.0 
6.359363248441e-03 2.161886900290e-02 0.0 
3.605263444825e-03 8.714396408662e-03 0.0 
8.891618371811e-04 6.981413974576e-02 0.0 
8.948875804297e-03 2.744978475124e-02 0.0 
1.593345056353e-02 4.870934237268e-02 0.0 
2.548618913143e-04 3.745100822602e-02 0.0 
3.970613979352e-03 1.231906077360e-01 0.0 
4.033090734220e-05 7.939171473869e-02 0.0 
5.459507746024e-04 3.928617385402e-02 0.0 
6.171307766963e-03 1.322362530141e-01 0.0 
7.658047029977e-03 1.208516252502e-01 0.0 
3.925288201876e-03 1.143271595567e-01 0.0 
1.237342110529e-03 6.956036794958e-02 0.0 
7.148217007759e-04 8.076870984967e-02 0.0 
3.472134671630e-03 1.247153562005e-01 0.0 
5.724911629493e-03 1.611189259948e-02 0.0 
6.696217689859e-03 1.125826120442e-01 0.0 
1.329247027051e-02 3.732053731426e-02 0.0 
-1.610389736783e-04 1.170665086465e-01 0.0 
3.193383191974e-03 2.456424550576e-02 0.0 
7.022478747983e-03 1.772959455847e-02 0.0 
1.105207587807e-03 6.610333715128e-03 0.0 
1.047644400655e-02 2.789557673506e-02 0.0 
1.520867248562e-04 1.074220624809e-01 0.0 
9.983608904938e-03 1.012790157524e-01 0.0 
7.075121469348e-03 1.927960638054e-02 0.0 
1.205034620770e-03 5.918301841692e-02 0.0 
7.897939305801e-04 6.306269847266e-03 0.0 
8.434452953709e-03 1.132795661297e-01 0.0 
7.589399575296e-04 2.407368406080e-02 0.0 
3.086313955976e-03 8.439601373289e-02 0.0 
3.804364598007e-04 2.336908796014e-02 0.0 
1.303587846280e-02 4.653848075742e-02 0.0 
2.745331635420e-03 9.838176127532e-02 0.0 
1.202732515408e-02 1.005103799213e-01 0.0 
5.925613058658e-04 1.284509213796e-02 0.0 
5.632856157739e-03 2.257564471726e-02 0.0 
-1.711643263556e-03 1.035874669936e-01 0.0 
1.395444445202e-03 7.114177562181e-02 0.0 
2.060577800931e-03 6.490049084530e-02 0.0 
-2.031186456598e-03 8.727932759519e-02 0.0 
2.766090853915e-03 1.382806891136e-02 0.0 
1.050877676758e-02 3.512021822256e-02 0.0 
9.933709354450e-04 1.313062596418e-02 0.0 
9.735501939119e-05 7.682047983645e-02 0.0 
2.387112314004e-04 7.849692203646e-02 0.0 
3.133212162660e-03 1.299264276820e-02 0.0 
6.398025536758e-03 1.911494364168e-02 0.0 
3.967965715364e-03 8.152088916466e-02 0.0 
1.061572666777e-03 9.873403775937e-03 0.0 
-4.249579390437e-03 1.009570940048e-01 0.0 
5.404209839979e-03 1.243706369942e-01 0.0 
3.987881149036e-04 7.786276058854e-02 0.0 
6.288679710071e-04 6.358028043112e-03 0.0 
1.860557712932e-03 2.300860128625e-02 0.0 
1.459459104155e-03 6.189012773878e-02 0.0 
1.185455321693e-02 1.183780450750e-01 0.0 
7.338874353038e-04 7.111334542198e-02 0.0 
9.653193585673e-03 2.559264054725e-02 0.0 
7.405306207223e-04 7.920018021029e-02 0.0 
1.254854895861e-03 2.175466169262e-02 0.0 
3.688456632075e-03 1.295055596131e-02 0.0 
3.888216421933e-03 2.120478433762e-02 0.0 
2.430474492594e-03 6.186515565969e-03 0.0 
-3.266096746735e-03 9.355769553562e-02 0.0 
6.217372831854e-03 1.553376624328e-02 0.0 
6.318416952590e-03 2.058709073529e-02 0.0 
2.987408528703e-03 1.236621310842e-01 0.0 
4.908337376408e-03 2.241015461881e-02 0.0 
1.311510503985e-03 6.741898609454e-02 0.0 
9.641329439880e-04 7.620098887447e-02 0.0 
7.191261383537e-05 1.088323663197e-02 0.0 
2.551920981033e-05 7.768448697146e-02 0.0 
5.022484498945e-04 1.235798268055e-01 0.0 
8.567723830691e-05 6.060129938619e-03 0.0 
5.751226115315e-04 7.622241004473e-02 0.0 
1.064192404986e-03 1.046859542665e-01 0.0 
5.943834200433e-03 1.877730627693e-02 0.0 
3.915439380205e-04 5.374036443346e-02 0.0 
5.954614933382e-04 4.650565057622e-02 0.0 
1.779095930197e-03 8.061053967751e-02 0.0 
-4.702196400185e-03 8.890461071131e-02 0.0 
8.514229712638e-04 8.305765235589e-02 0.0 
6.146139109954e-03 1.557722601460e-02 0.0 
2.992707145681e-03 2.048510588412e-02 0.0 
2.200094458799e-03 9.160234261140e-02 0.0 
9.118180368976e-04 9.985571495717e-02 0.0 
8.268141148638e-03 2.639749832380e-02 0.0 
1.569053696981e-03 5.912730657044e-02 0.0 
9.477959961938e-03 2.633700519248e-02 0.0 
7.203306638562e-03 2.139261212845e-02 0.0 
-6.995258482133e-03 1.026379407267e-01 0.0 
3.532070276010e-04 4.928247591681e-02 0.0 
3.442427597636e-04 7.807674124213e-02 0.0 
1.822313628249e-03 1.215751312106e-02 0.0 
1.042229833227e-03 5.736040616835e-02 0.0 
1.119289786673e-02 1.491828199825e-01 0.0 
3.734025954410e-04 1.586103854184e-01 0.0 
1.208582429011e-02 1.429817968011e-01 0.0 
3.370253725700e-04 1.482441304060e-01 0.0 
1.184805018966e-02 1.349190798978e-01 0.0 
3.460847332081e-04 1.374564750180e-01 0.0 

TENSORS node_materi_stress float
-3.300094465252e+00 1.906450149297e-02 0.0 
1.906450149297e-02 -8.542597864119e+00 0.0 
0.0 0.0 -3.471060973892e+00 
-3.605028987946e+01 4.208530339058e-01 0.0 
4.208530339058e-01 -5.938371891841e+01 0.0 
0.0 0.0 -2.823020263936e+01 
-1.622835622701e+02 -3.668537247213e-03 0.0 
-3.668537247213e-03 -3.820187924800e+02 0.0 
0.0 0.0 -1.628907064250e+02 
-1.073001881815e+02 7.288829359349e-01 0.0 
7.288829359349e-01 -2.496538228684e+02 0.0 
0.0 0.0 -1.066862033150e+02 
-7.761211067075e+00 -2.923215881809e-01 0.0 
-2.923215881809e-01 -2.077955115997e+01 0.0 
0.0 0.0 -8.374397518168e+00 
-1.481045028696e+01 -6.549333659943e-01 0.0 
-6.549333659943e-01 -4.042209381650e+01 0.0 
0.0 0.0 -1.616976323104e+01 
-2.144101812857e+01 -5.268558850261e-01 0.0 
-5.268558850261e-01 -5.869841320543e+01 0.0 
0.0 0.0 -2.364182940020e+01 
-2.917010943258e+01 -4.965597620367e-01 0.0 
-4.965597620367e-01 -7.964063302987e+01 0.0 
0.0 0.0 -3.224322273874e+01 
-3.637911164308e+01 -3.738409886766e-01 0.0 
-3.738409886766e-01 -9.973893638642e+01 0.0 
0.0 0.0 -4.043541440885e+01 
-4.378398898433e+01 -3.512122730583e-01 0.0 
-3.512122730583e-01 -1.195515815661e+02 0.0 
0.0 0.0 -4.860067116511e+01 
-5.114767587408e+01 -3.743327135331e-01 0.0 
-3.743327135331e-01 -1.393444701269e+02 0.0 
0.0 0.0 -5.674764380030e+01 
-5.854555341990e+01 -3.215339767793e-01 0.0 
-3.215339767793e-01 -1.590884991120e+02 0.0 
0.0 0.0 -6.489021575956e+01 
-6.614419464279e+01 -2.962605035568e-01 0.0 
-2.962605035568e-01 -1.787856646691e+02 0.0 
0.0 0.0 -7.307895779356e+01 
-7.389902596464e+01 -3.403110244554e-01 0.0 
-3.403110244554e-01 -1.986122715392e+02 0.0 
0.0 0.0 -8.135338925116e+01 
-8.202814108146e+01 -4.760774363675e-01 0.0 
-4.760774363675e-01 -2.188529400240e+02 0.0 
0.0 0.0 -8.986432433163e+01 
-9.050562260184e+01 -4.795764915703e-01 0.0 
-4.795764915703e-01 -2.383621351180e+02 0.0 
0.0 0.0 -9.826032731595e+01 
-9.850425277193e+01 -5.926629387955e-01 0.0 
-5.926629387955e-01 -2.560823941305e+02 0.0 
0.0 0.0 -1.059759940707e+02 
-1.072605053247e+02 -1.343812397370e-01 0.0 
-1.343812397370e-01 -2.754706889689e+02 0.0 
0.0 0.0 -1.144193582881e+02 
-1.166504733655e+02 -8.549464518818e-02 0.0 
-8.549464518818e-02 -2.952573046212e+02 0.0 
0.0 0.0 -1.231723333960e+02 
-1.260702229737e+02 -5.755162529125e-02 0.0 
-5.755162529125e-02 -3.143593934053e+02 0.0 
0.0 0.0 -1.317288849137e+02 
-1.358081204564e+02 -8.048183362922e-03 0.0 
-8.048183362922e-03 -3.335069239084e+02 0.0 
0.0 0.0 -1.403945133095e+02 
-1.459188085456e+02 -1.893975986342e-02 0.0 
-1.893975986342e-02 -3.527129467949e+02 0.0 
0.0 0.0 -1.491895266021e+02 
-1.557972530140e+02 -8.286036498391e-02 0.0 
-8.286036498391e-02 -3.709464958461e+02 0.0 
0.0 0.0 -1.576231246580e+02 
-1.076514066342e+02 9.092842005675e-01 0.0 
9.092842005675e-01 -2.508369244631e+02 0.0 
0.0 0.0 -1.071464993292e+02 
-1.071212182142e+02 1.627000832381e+00 0.0 
1.627000832381e+00 -2.498361875283e+02 0.0 
0.0 0.0 -1.066872217227e+02 
-1.073017903418e+02 2.663753184531e+00 0.0 
2.663753184531e+00 -2.501933255898e+02 0.0 
0.0 0.0 -1.068485347795e+02 
-1.073104314206e+02 3.123377491051e+00 0.0 
3.123377491051e+00 -2.503515161294e+02 0.0 
0.0 0.0 -1.068985842650e+02 
-1.073129356918e+02 4.122255818537e+00 0.0 
4.122255818537e+00 -2.499614688236e+02 0.0 
0.0 0.0 -1.067823213546e+02 
-1.077416644625e+02 5.070565291553e+00 0.0 
5.070565291553e+00 -2.509249148080e+02 0.0 
0.0 0.0 -1.071999737811e+02 
-1.083496196017e+02 6.135937849642e+00 0.0 
6.135937849642e+00 -2.517256269785e+02 0.0 
0.0 0.0 -1.076225739741e+02 
-1.083396180528e+02 7.369743612033e+00 0.0 
7.369743612033e+00 -2.520501281742e+02 0.0 
0.0 0.0 -1.077169238681e+02 
-1.091766157244e+02 8.712999689649e+00 0.0 
8.712999689649e+00 -2.536864589455e+02 0.0 
0.0 0.0 -1.084589224010e+02 
-1.094955800109e+02 9.737247209746e+00 0.0 
9.737247209746e+00 -2.546933597032e+02 0.0 
0.0 0.0 -1.088566819142e+02 
-1.100855280682e+02 1.123239680080e+01 0.0 
1.123239680080e+01 -2.553853227519e+02 0.0 
0.0 0.0 -1.092412552460e+02 
-1.109765734635e+02 1.277580770488e+01 0.0 
1.277580770488e+01 -2.576296613618e+02 0.0 
0.0 0.0 -1.101818704476e+02 
-1.124084729072e+02 1.438453719939e+01 0.0 
1.438453719939e+01 -2.603044150683e+02 0.0 
0.0 0.0 -1.114138663926e+02 
-1.130263304546e+02 1.601603540767e+01 0.0 
1.601603540767e+01 -2.623092740490e+02 0.0 
0.0 0.0 -1.122006813511e+02 
-1.144401280362e+02 1.768983674986e+01 0.0 
1.768983674986e+01 -2.649560337141e+02 0.0 
0.0 0.0 -1.134188485251e+02 
-1.153213130071e+02 1.919013036433e+01 0.0 
1.919013036433e+01 -2.675962319660e+02 0.0 
0.0 0.0 -1.144752634919e+02 
-1.170308298693e+02 2.085404070375e+01 0.0 
2.085404070375e+01 -2.714308734100e+02 0.0 
0.0 0.0 -1.161385109838e+02 
-1.194975855848e+02 2.246242443479e+01 0.0 
2.246242443479e+01 -2.768856187755e+02 0.0 
0.0 0.0 -1.185149613081e+02 
-1.215061904051e+02 2.390430674598e+01 0.0 
2.390430674598e+01 -2.822767584427e+02 0.0 
0.0 0.0 -1.207348846543e+02 
-1.237018170822e+02 2.515224386903e+01 0.0 
2.515224386903e+01 -2.880198835729e+02 0.0 
0.0 0.0 -1.231165101965e+02 
-1.258305286957e+02 2.601928303917e+01 0.0 
2.601928303917e+01 -2.936706831762e+02 0.0 
0.0 0.0 -1.254503635616e+02 
-1.283542168615e+02 2.682475702494e+01 0.0 
2.682475702494e+01 -2.995480334920e+02 0.0 
0.0 0.0 -1.279706751060e+02 
-1.306493860821e+02 2.724711778150e+01 0.0 
2.724711778150e+01 -3.056876192544e+02 0.0 
0.0 0.0 -1.305011016010e+02 
-1.330888031969e+02 2.741410089050e+01 0.0 
2.741410089050e+01 -3.118640731623e+02 0.0 
0.0 0.0 -1.330858629078e+02 
-1.356571039778e+02 2.730477592408e+01 0.0 
2.730477592408e+01 -3.182708168889e+02 0.0 
0.0 0.0 -1.357783762600e+02 
-1.382631643004e+02 2.701057644292e+01 0.0 
2.701057644292e+01 -3.245871643588e+02 0.0 
0.0 0.0 -1.384550985978e+02 
-1.405236203531e+02 2.640597570247e+01 0.0 
2.640597570247e+01 -3.305347842418e+02 0.0 
0.0 0.0 -1.409175213785e+02 
-1.428743362241e+02 2.560003575330e+01 0.0 
2.560003575330e+01 -3.361810339987e+02 0.0 
0.0 0.0 -1.433166110668e+02 
-1.448402429166e+02 2.459544491399e+01 0.0 
2.459544491399e+01 -3.412516436605e+02 0.0 
0.0 0.0 -1.454275659731e+02 
-1.473545863031e+02 2.366489662136e+01 0.0 
2.366489662136e+01 -3.467468213755e+02 0.0 
0.0 0.0 -1.478304223036e+02 
-1.488480878334e+02 2.211282998894e+01 0.0 
2.211282998894e+01 -3.511711079652e+02 0.0 
0.0 0.0 -1.496057587396e+02 
-1.502044113387e+02 2.088136299371e+01 0.0 
2.088136299371e+01 -3.544349672805e+02 0.0 
0.0 0.0 -1.509918135858e+02 
-1.519511801997e+02 1.944407578532e+01 0.0 
1.944407578532e+01 -3.584565323777e+02 0.0 
0.0 0.0 -1.527223137732e+02 
-1.535362450868e+02 1.808723809976e+01 0.0 
1.808723809976e+01 -3.621362957633e+02 0.0 
0.0 0.0 -1.543017622550e+02 
-1.549333311596e+02 1.666544053542e+01 0.0 
1.666544053542e+01 -3.654036299987e+02 0.0 
0.0 0.0 -1.557010883475e+02 
-1.561942268617e+02 1.527705835463e+01 0.0 
1.527705835463e+01 -3.682519009560e+02 0.0 
0.0 0.0 -1.569338383453e+02 
-1.572692880028e+02 1.388900962479e+01 0.0 
1.388900962479e+01 -3.707563582066e+02 0.0 
0.0 0.0 -1.580076938628e+02 
-1.580882895394e+02 1.250286267514e+01 0.0 
1.250286267514e+01 -3.726754560823e+02 0.0 
0.0 0.0 -1.588291236865e+02 
-1.587789533369e+02 1.124530968638e+01 0.0 
1.124530968638e+01 -3.742522468787e+02 0.0 
0.0 0.0 -1.595093600647e+02 
-1.592607558713e+02 9.920922209425e+00 0.0 
9.920922209425e+00 -3.754855695431e+02 0.0 
0.0 0.0 -1.600238976243e+02 
-1.601337300670e+02 8.855587516715e+00 0.0 
8.855587516715e+00 -3.771806248577e+02 0.0 
0.0 0.0 -1.607943064774e+02 
-1.611426835813e+02 7.623837842997e+00 0.0 
7.623837842997e+00 -3.791796596581e+02 0.0 
0.0 0.0 -1.616967029718e+02 
-1.616801364263e+02 6.669997293026e+00 0.0 
6.669997293026e+00 -3.803208022074e+02 0.0 
0.0 0.0 -1.622002815901e+02 
-1.606435387467e+02 5.498605576052e+00 0.0 
5.498605576052e+00 -3.788127450320e+02 0.0 
0.0 0.0 -1.614368851336e+02 
-1.621886632696e+02 4.412964098120e+00 0.0 
4.412964098120e+00 -3.814195273695e+02 0.0 
0.0 0.0 -1.626824571917e+02 
-1.619425073704e+02 3.513169111570e+00 0.0 
3.513169111570e+00 -3.811285749283e+02 0.0 
0.0 0.0 -1.625213246896e+02 
-1.624596132939e+02 2.839892933079e+00 0.0 
2.839892933079e+00 -3.820183296995e+02 0.0 
0.0 0.0 -1.629433828980e+02 
-1.628561620940e+02 1.714890024117e+00 0.0 
1.714890024117e+00 -3.828843467119e+02 0.0 
0.0 0.0 -1.633221526418e+02 
-1.628402250297e+02 9.994293052045e-01 0.0 
9.994293052045e-01 -3.829331351237e+02 0.0 
0.0 0.0 -1.633320080460e+02 
-4.458905696479e+01 3.106898831226e-01 0.0 
3.106898831226e-01 -7.917442654752e+01 0.0 
0.0 0.0 -3.672904505369e+01 
-5.255143965054e+01 3.809835852680e-01 0.0 
3.809835852680e-01 -9.891111876308e+01 0.0 
0.0 0.0 -4.503876752409e+01 
-6.048958040087e+01 3.999224677837e-01 0.0 
3.999224677837e-01 -1.185377184093e+02 0.0 
0.0 0.0 -5.330818964304e+01 
-6.803353374982e+01 4.624959107130e-01 0.0 
4.624959107130e-01 -1.378405558575e+02 0.0 
0.0 0.0 -6.136222688219e+01 
-7.554507428480e+01 4.523830942000e-01 0.0 
4.523830942000e-01 -1.576668241429e+02 0.0 
0.0 0.0 -6.956356952832e+01 
-8.311322445395e+01 5.280847335622e-01 0.0 
5.280847335622e-01 -1.776875047072e+02 0.0 
0.0 0.0 -7.784021874836e+01 
-9.012211582150e+01 5.136900106202e-01 0.0 
5.136900106202e-01 -1.975456383082e+02 0.0 
0.0 0.0 -8.590032623891e+01 
-9.684338144975e+01 6.193117512318e-01 0.0 
6.193117512318e-01 -2.173033840982e+02 0.0 
0.0 0.0 -9.384402966438e+01 
-1.038732630182e+02 6.797483792501e-01 0.0 
6.797483792501e-01 -2.378002800860e+02 0.0 
0.0 0.0 -1.021020629313e+02 
-1.650360203306e+01 4.981218987516e+00 0.0 
4.981218987516e+00 -6.941104433360e+00 0.0 
0.0 0.0 -7.015866839873e+00 
-4.435558338757e+01 3.546156690322e+00 0.0 
3.546156690322e+00 -6.191276530737e+01 0.0 
0.0 0.0 -3.148050460848e+01 
-2.082519922134e+01 1.233712031254e+01 0.0 
1.233712031254e+01 -1.452550281492e+01 0.0 
0.0 0.0 -1.024106994968e+01 
-2.385258531428e+01 1.538600912100e+01 0.0 
1.538600912100e+01 -1.843098235117e+01 0.0 
0.0 0.0 -1.228507029963e+01 
-2.492868901785e+01 1.661529374200e+01 0.0 
1.661529374200e+01 -1.970880683917e+01 0.0 
0.0 0.0 -1.299124875711e+01 
-2.431927490146e+01 1.661793300527e+01 0.0 
1.661793300527e+01 -1.915433682356e+01 0.0 
0.0 0.0 -1.264208351750e+01 
-2.390740390316e+01 1.634444415087e+01 0.0 
1.634444415087e+01 -1.958268434550e+01 0.0 
0.0 0.0 -1.264702647460e+01 
-2.431770340288e+01 1.607648965076e+01 0.0 
1.607648965076e+01 -1.990772265224e+01 0.0 
0.0 0.0 -1.286762781654e+01 
-2.709038642518e+01 1.144602124941e+01 0.0 
1.144602124941e+01 -1.711221652629e+01 0.0 
0.0 0.0 -1.286078088544e+01 
-2.638107072500e+01 5.591640651697e+00 0.0 
5.591640651697e+00 -2.199730401189e+01 0.0 
0.0 0.0 -1.411351242107e+01 
-3.520054427433e+01 4.259287088581e+00 0.0 
4.259287088581e+00 -4.136190289524e+01 0.0 
0.0 0.0 -2.256873415087e+01 
-1.476015407544e+01 7.175169107781e-01 0.0 
7.175169107781e-01 -7.275914780284e+00 0.0 
0.0 0.0 -6.210820656717e+00 
-1.979649181374e+01 7.943528257440e-01 0.0 
7.943528257440e-01 -1.970040140670e+01 0.0 
0.0 0.0 -1.144906796613e+01 
-2.784839411536e+01 5.211085651296e-01 0.0 
5.211085651296e-01 -3.914032734953e+01 0.0 
0.0 0.0 -1.969661643947e+01 
-3.521052254609e+01 -2.603113564351e-01 0.0 
-2.603113564351e-01 -5.674059072118e+01 0.0 
0.0 0.0 -2.718533398018e+01 
-3.586618161206e+01 -7.482934570061e-02 0.0 
-7.482934570061e-02 -5.788013138387e+01 0.0 
0.0 0.0 -2.772389389878e+01 
-3.588157831943e+01 -8.034501880062e-02 0.0 
-8.034501880062e-02 -5.789107082122e+01 0.0 
0.0 0.0 -2.773179474220e+01 
-3.592625934397e+01 -4.465323270415e-02 0.0 
-4.465323270415e-02 -5.766096159403e+01 0.0 
0.0 0.0 -2.767616628140e+01 
-3.731408375890e+01 -6.906145583709e-02 0.0 
-6.906145583709e-02 -6.029673365807e+01 0.0 
0.0 0.0 -2.888324522509e+01 
-3.643517934524e+01 -1.225164625408e-01 0.0 
-1.225164625408e-01 -5.795540785484e+01 0.0 
0.0 0.0 -2.791717616002e+01 
-3.674451164389e+01 -7.970197671046e-02 0.0 
-7.970197671046e-02 -5.779328791694e+01 0.0 
0.0 0.0 -2.796133986825e+01 
-3.706383677578e+01 -1.415695653285e-01 0.0 
-1.415695653285e-01 -5.799344110501e+01 0.0 
0.0 0.0 -2.811718336424e+01 
-3.760017763633e+01 -3.208011328215e-02 0.0 
-3.208011328215e-02 -5.846635234755e+01 0.0 
0.0 0.0 -2.841995899516e+01 
-3.807169821846e+01 4.305332160768e-02 0.0 
4.305332160768e-02 -5.847858646948e+01 0.0 
0.0 0.0 -2.856508540638e+01 
-3.877511979807e+01 2.920643379756e-01 0.0 
2.920643379756e-01 -5.856131259249e+01 0.0 
0.0 0.0 -2.880092971717e+01 
-3.952014722793e+01 6.586607010514e-01 0.0 
6.586607010514e-01 -5.871228760093e+01 0.0 
0.0 0.0 -2.906973044866e+01 
-4.064854279795e+01 1.182860278337e+00 0.0 
1.182860278337e+00 -5.917403170154e+01 0.0 
0.0 0.0 -2.954677234985e+01 
-4.202169488577e+01 2.035104669173e+00 0.0 
2.035104669173e+00 -6.002271609086e+01 0.0 
0.0 0.0 -3.021332329299e+01 
-1.830813808387e+01 1.942888648037e+00 0.0 
1.942888648037e+00 -6.366919339550e+00 0.0 
0.0 0.0 -7.316417068644e+00 
-2.052638044484e+01 3.570625312573e-01 0.0 
3.570625312573e-01 -7.224775128695e+00 0.0 
0.0 0.0 -8.242217399656e+00 
-2.075947052906e+01 -4.935667385064e-01 0.0 
-4.935667385064e-01 -6.992320337832e+00 0.0 
0.0 0.0 -8.225955767814e+00 
-1.962776722954e+01 -5.163437468454e-01 0.0 
-5.163437468454e-01 -7.038002753569e+00 0.0 
0.0 0.0 -7.899873110667e+00 
-1.785759641338e+01 -6.386402077279e-01 0.0 
-6.386402077279e-01 -8.042576576693e+00 0.0 
0.0 0.0 -7.692830352072e+00 
-1.632596209881e+01 -7.869052976705e-01 0.0 
-7.869052976705e-01 -8.457325350962e+00 0.0 
0.0 0.0 -7.361969581845e+00 
-1.470401207829e+01 -7.929132721081e-01 0.0 
-7.929132721081e-01 -8.396507737449e+00 0.0 
0.0 0.0 -6.855648005683e+00 
-1.309000024876e+01 -7.402451937962e-01 0.0 
-7.402451937962e-01 -8.296029062123e+00 0.0 
0.0 0.0 -6.340557453014e+00 
-1.153479693433e+01 -6.996757634185e-01 0.0 
-6.996757634185e-01 -8.277197984615e+00 0.0 
0.0 0.0 -5.866902856611e+00 
-1.013663043352e+01 -6.251784903240e-01 0.0 
-6.251784903240e-01 -8.299176142616e+00 0.0 
0.0 0.0 -5.454688363767e+00 
-8.762033687524e+00 -5.076113361325e-01 0.0 
-5.076113361325e-01 -8.403114234970e+00 0.0 
0.0 0.0 -5.075220200393e+00 
-7.871661810223e+00 -5.562742656719e-01 0.0 
-5.562742656719e-01 -8.975516544191e+00 0.0 
0.0 0.0 -4.990822750993e+00 
-6.574116250560e+00 -5.960919744498e-01 0.0 
-5.960919744498e-01 -8.663370096285e+00 0.0 
0.0 0.0 -4.503135646294e+00 
-5.368400770524e+00 -4.593239162346e-01 0.0 
-4.593239162346e-01 -7.915536093050e+00 0.0 
0.0 0.0 -3.903405988621e+00 
-4.496638865860e+00 -3.604936684909e-01 0.0 
-3.604936684909e-01 -8.046179867427e+00 0.0 
0.0 0.0 -3.685808103533e+00 
-3.858248234465e+00 -2.977689083772e-01 0.0 
-2.977689083772e-01 -8.319335060859e+00 0.0 
0.0 0.0 -3.579026591029e+00 
-3.320080089730e+00 -1.949907843684e-01 0.0 
-1.949907843684e-01 -8.353042397980e+00 0.0 
0.0 0.0 -3.427320660430e+00 
-2.894577587221e+00 -1.842875993891e-01 0.0 
-1.842875993891e-01 -7.938771261455e+00 0.0 
0.0 0.0 -3.172897358493e+00 
-2.670656240209e+00 1.535901976498e-02 0.0 
1.535901976498e-02 -7.334526515483e+00 0.0 
0.0 0.0 -2.909971101096e+00 
-1.735895765497e+01 3.374318768395e+00 0.0 
3.374318768395e+00 -5.079875238041e+00 0.0 
0.0 0.0 -6.331649867903e+00 
-1.393300418642e+01 1.996635072920e+00 0.0 
1.996635072920e+00 -9.941965608843e+00 0.0 
0.0 0.0 -6.762490938580e+00 
-1.193323201421e+01 6.477401777991e-01 0.0 
6.477401777991e-01 -1.021197033700e+01 0.0 
0.0 0.0 -6.243560705363e+00 
-1.098248834721e+01 5.399271189837e-02 0.0 
5.399271189837e-02 -9.829346285612e+00 0.0 
0.0 0.0 -5.843550389845e+00 
-1.098539889945e+01 -2.166346759039e-01 0.0 
-2.166346759039e-01 -9.756617969943e+00 0.0 
0.0 0.0 -5.822605060818e+00 
-1.122438050987e+01 -2.819506428886e-01 0.0 
-2.819506428886e-01 -9.713577980386e+00 0.0 
0.0 0.0 -5.881387547077e+00 
-1.165927632550e+01 -3.075658108439e-01 0.0 
-3.075658108439e-01 -9.742337764757e+00 0.0 
0.0 0.0 -6.020484227077e+00 
-1.215845173040e+01 -3.152092712859e-01 0.0 
-3.152092712859e-01 -9.756753597852e+00 0.0 
0.0 0.0 -6.174561598476e+00 
-1.267809702123e+01 -3.070021472249e-01 0.0 
-3.070021472249e-01 -9.770144518285e+00 0.0 
0.0 0.0 -6.334472461855e+00 
-1.319482237357e+01 -2.803734119612e-01 0.0 
-2.803734119612e-01 -9.778213552582e+00 0.0 
0.0 0.0 -6.491910777845e+00 
-1.365215747146e+01 -2.344513596995e-01 0.0 
-2.344513596995e-01 -9.798562777525e+00 0.0 
0.0 0.0 -6.635216074695e+00 
-1.402491778299e+01 -2.004724950839e-01 0.0 
-2.004724950839e-01 -9.822132350029e+00 0.0 
0.0 0.0 -6.754115039907e+00 
-1.436383792714e+01 -1.743637205925e-01 0.0 
-1.743637205925e-01 -9.832867331510e+00 0.0 
0.0 0.0 -6.859011577595e+00 
-1.463629681596e+01 -1.349924237171e-01 0.0 
-1.349924237171e-01 -9.837019603409e+00 0.0 
0.0 0.0 -6.941994925810e+00 
-1.483837179599e+01 -8.459796060833e-02 0.0 
-8.459796060833e-02 -9.837684776909e+00 0.0 
0.0 0.0 -7.002816971870e+00 
-1.495792823121e+01 -2.073570139369e-02 0.0 
-2.073570139369e-02 -9.815751760299e+00 0.0 
0.0 0.0 -7.032103997453e+00 
-1.500059349346e+01 8.256070616213e-02 0.0 
8.256070616213e-02 -9.762701814422e+00 0.0 
0.0 0.0 -7.028988592366e+00 
-1.496928154260e+01 2.018609915304e-01 0.0 
2.018609915304e-01 -9.172269175430e+00 0.0 
0.0 0.0 -6.842465215409e+00 
-1.484404965233e+01 -2.845534001469e-01 0.0 
-2.845534001469e-01 -6.889456486905e+00 0.0 
0.0 0.0 -6.120051841771e+00 
-1.966043364679e+01 -2.521506941191e-01 0.0 
-2.521506941191e-01 -1.969463518136e+01 0.0 
0.0 0.0 -1.140652064845e+01 
-1.941941498910e+01 -1.765627864636e-02 0.0 
-1.765627864636e-02 -1.954440358156e+01 0.0 
0.0 0.0 -1.128914557120e+01 
-1.933316151338e+01 -4.467866261484e-02 0.0 
-4.467866261484e-02 -1.951957513799e+01 0.0 
0.0 0.0 -1.125582099541e+01 
-1.925304331926e+01 -1.147624114449e-01 0.0 
-1.147624114449e-01 -1.954947753954e+01 0.0 
0.0 0.0 -1.124075625764e+01 
-1.918017493926e+01 -1.874821295352e-01 0.0 
-1.874821295352e-01 -1.955754758777e+01 0.0 
0.0 0.0 -1.122131675811e+01 
-1.906042865360e+01 -2.586436428475e-01 0.0 
-2.586436428475e-01 -1.956915941810e+01 0.0 
0.0 0.0 -1.118887642151e+01 
-1.892415143921e+01 -3.201415539628e-01 0.0 
-3.201415539628e-01 -1.958944686715e+01 0.0 
0.0 0.0 -1.115407949191e+01 
-1.875960634134e+01 -3.584259491177e-01 0.0 
-3.584259491177e-01 -1.958570602141e+01 0.0 
0.0 0.0 -1.110359370882e+01 
-1.859778372214e+01 -4.256880103897e-01 0.0 
-4.256880103897e-01 -1.957238607214e+01 0.0 
0.0 0.0 -1.105105093829e+01 
-1.840676718018e+01 -4.763420595676e-01 0.0 
-4.763420595676e-01 -1.961228564085e+01 0.0 
0.0 0.0 -1.100571584631e+01 
-1.825377743645e+01 -4.731791130174e-01 0.0 
-4.731791130174e-01 -1.964860708406e+01 0.0 
0.0 0.0 -1.097071535615e+01 
-1.818652534859e+01 -4.331934545087e-01 0.0 
-4.331934545087e-01 -1.968214916539e+01 0.0 
0.0 0.0 -1.096060235419e+01 
-1.822983136879e+01 -3.301153373545e-01 0.0 
-3.301153373545e-01 -1.975542233546e+01 0.0 
0.0 0.0 -1.099557611128e+01 
-1.848949198305e+01 -1.264937033732e-01 0.0 
-1.264937033732e-01 -1.981077438844e+01 0.0 
0.0 0.0 -1.109007991145e+01 
-1.912631880822e+01 2.407881921334e-01 0.0 
2.407881921334e-01 -2.015721274843e+01 0.0 
0.0 0.0 -1.138505946699e+01 
-2.121073954138e+01 1.377857310762e+00 0.0 
1.377857310762e+00 -2.169873475695e+01 0.0 
0.0 0.0 -1.247284228950e+01 
-2.129365871574e+01 2.323662932527e+00 0.0 
2.323662932527e+00 -1.821969854492e+01 0.0 
0.0 0.0 -1.145400717820e+01 
-3.205648786451e+01 2.144150265501e+00 0.0 
2.144150265501e+00 -3.813030397899e+01 0.0 
0.0 0.0 -2.065603755305e+01 
-3.214680312458e+01 1.418925699235e+00 0.0 
1.418925699235e+00 -4.132905389958e+01 0.0 
0.0 0.0 -2.164275710725e+01 
-3.036895133883e+01 5.178983994030e-01 0.0 
5.178983994030e-01 -3.982105345832e+01 0.0 
0.0 0.0 -2.065700143915e+01 
-2.961761301862e+01 9.774031918007e-02 0.0 
9.774031918007e-02 -3.953791104402e+01 0.0 
0.0 0.0 -2.034665721879e+01 
-2.906039527443e+01 -1.250267774214e-01 0.0 
-1.250267774214e-01 -3.940414090854e+01 0.0 
0.0 0.0 -2.013936085489e+01 
-2.867079502703e+01 -2.841914102998e-01 0.0 
-2.841914102998e-01 -3.932867135121e+01 0.0 
0.0 0.0 -1.999983991347e+01 
-2.839458449637e+01 -3.586592338290e-01 0.0 
-3.586592338290e-01 -3.919581802145e+01 0.0 
0.0 0.0 -1.987712075535e+01 
-2.820417478945e+01 -3.205697350526e-01 0.0 
-3.205697350526e-01 -3.914138354969e+01 0.0 
0.0 0.0 -1.980366750174e+01 
-2.815655731448e+01 -3.162156606835e-01 0.0 
-3.162156606835e-01 -3.919849186825e+01 0.0 
0.0 0.0 -1.980651475482e+01 
-2.801745788123e+01 -2.699916859422e-01 0.0 
-2.699916859422e-01 -3.914955315514e+01 0.0 
0.0 0.0 -1.975010331091e+01 
-2.794613553268e+01 -2.306743124254e-01 0.0 
-2.306743124254e-01 -3.912304868640e+01 0.0 
0.0 0.0 -1.972075526572e+01 
-2.790554523004e+01 -1.436656734358e-01 0.0 
-1.436656734358e-01 -3.911486194000e+01 0.0 
0.0 0.0 -1.970612215101e+01 
-2.785256926085e+01 -1.196126718877e-01 0.0 
-1.196126718877e-01 -3.912263197997e+01 0.0 
0.0 0.0 -1.969256037225e+01 
-2.783931600486e+01 -5.864389164570e-02 0.0 
-5.864389164570e-02 -3.905556576033e+01 0.0 
0.0 0.0 -1.966846452956e+01 
-2.788145424151e+01 5.228720086200e-02 0.0 
5.228720086200e-02 -3.923487117177e+01 0.0 
0.0 0.0 -1.973489762398e+01 
-2.781655994825e+01 -5.025944501663e-01 0.0 
-5.025944501663e-01 -3.938309549511e+01 0.0 
0.0 0.0 -1.975989663301e+01 
-1.788757923799e+01 9.303072735914e+00 0.0 
9.303072735914e+00 -1.037184725530e+01 0.0 
0.0 0.0 -8.170226994773e+00 
-2.266583816287e+01 1.420196506512e+01 0.0 
1.420196506512e+01 -1.706347339307e+01 0.0 
0.0 0.0 -1.151879346678e+01 
-2.450037782325e+01 1.611524593245e+01 0.0 
1.611524593245e+01 -1.917911195152e+01 0.0 
0.0 0.0 -1.270384693243e+01 
-2.497826414635e+01 1.674540187683e+01 0.0 
1.674540187683e+01 -1.999626680938e+01 0.0 
0.0 0.0 -1.309235928672e+01 
-2.491511575363e+01 1.715323697279e+01 0.0 
1.715323697279e+01 -1.993169406244e+01 0.0 
0.0 0.0 -1.305404294482e+01 
-2.413090911696e+01 1.673997163077e+01 0.0 
1.673997163077e+01 -1.992870476059e+01 0.0 
0.0 0.0 -1.281788416326e+01 
-2.652345846347e+01 1.570380348138e+01 0.0 
1.570380348138e+01 -1.999366581673e+01 0.0 
0.0 0.0 -1.355513728406e+01 
-2.556869510818e+01 7.176456612661e+00 0.0 
7.176456612661e+00 -1.503479533564e+01 0.0 
0.0 0.0 -1.178104713315e+01 
-3.232844044642e+01 5.009688114215e+00 0.0 
5.009688114215e+00 -3.349117427842e+01 0.0 
0.0 0.0 -1.934588441745e+01 
-4.106322923634e+01 3.855720210130e+00 0.0 
3.855720210130e+00 -5.312247471579e+01 0.0 
0.0 0.0 -2.785571118564e+01 
-2.257529659367e+01 1.345963193373e+01 0.0 
1.345963193373e+01 -2.466350710687e+01 0.0 
0.0 0.0 -1.377164111016e+01 
-1.472475474573e+02 1.832506007292e+01 0.0 
1.832506007292e+01 -3.524378831139e+02 0.0 
0.0 0.0 -1.495056291714e+02 
-1.291962336801e+01 -1.147708780894e+00 0.0 
-1.147708780894e+00 -1.682716368522e+01 0.0 
0.0 0.0 -8.911336140826e+00 
-1.879097072769e+01 -9.241767476971e-01 0.0 
-9.241767476971e-01 -1.601729260368e+01 0.0 
0.0 0.0 -1.042938672998e+01 
-1.530104219125e+02 1.150464949619e+01 0.0 
1.150464949619e+01 -3.655064321764e+02 0.0 
0.0 0.0 -1.551550562267e+02 
-2.530972429049e+01 1.682258476600e+01 0.0 
1.682258476600e+01 -2.842279348850e+01 0.0 
0.0 0.0 -1.571975533370e+01 
-7.822856351004e+01 2.450743715774e-02 0.0 
2.450743715774e-02 -2.094678045107e+02 0.0 
0.0 0.0 -8.590891040622e+01 
-1.402407864985e+02 2.328049638557e+01 0.0 
2.328049638557e+01 -3.349080833745e+02 0.0 
0.0 0.0 -1.421446609619e+02 
-2.671486943977e+01 1.769814930696e+01 0.0 
1.769814930696e+01 -2.969869702909e+01 0.0 
0.0 0.0 -1.652406994066e+01 
-1.328876654256e+02 2.652316510276e+01 0.0 
2.652316510276e+01 -3.133766660918e+02 0.0 
0.0 0.0 -1.334792994552e+02 
-3.558819181957e+01 1.131281913924e+01 0.0 
1.131281913924e+01 -3.779152367377e+01 0.0 
0.0 0.0 -2.161391464800e+01 
-1.566505432365e+02 6.859601652469e+00 0.0 
6.859601652469e+00 -3.722983468889e+02 0.0 
0.0 0.0 -1.582846670376e+02 
-8.649365296411e+00 -7.682631484251e-01 0.0 
-7.682631484251e-01 -1.620473439040e+01 0.0 
0.0 0.0 -7.465913533195e+00 
-1.245875390335e+02 2.589936392039e+01 0.0 
2.589936392039e+01 -2.883441004360e+02 0.0 
0.0 0.0 -1.234794918408e+02 
-5.031136143338e+01 5.759070523890e+00 0.0 
5.759070523890e+00 -7.193620418004e+01 0.0 
0.0 0.0 -3.627426968403e+01 
-4.780909262828e+01 -2.951031063242e-01 0.0 
-2.951031063242e-01 -1.303824437109e+02 0.0 
0.0 0.0 -5.305746090176e+01 
-1.013579171162e+02 2.186020106337e-01 0.0 
2.186020106337e-01 -2.627612260531e+02 0.0 
0.0 0.0 -1.088357429508e+02 
-1.189597606283e+02 2.271942716866e+01 0.0 
2.271942716866e+01 -2.707525547933e+02 0.0 
0.0 0.0 -1.165136946265e+02 
-1.125834924698e+02 1.627321732926e+01 0.0 
1.627321732926e+01 -2.552617965560e+02 0.0 
0.0 0.0 -1.099535867077e+02 
-1.056163981669e+02 4.569218284216e+00 0.0 
4.569218284216e+00 -2.425749197525e+02 0.0 
0.0 0.0 -1.040573953758e+02 
-1.066183303745e+02 7.646140801351e+00 0.0 
7.646140801351e+00 -2.427076176709e+02 0.0 
0.0 0.0 -1.043977844136e+02 
-1.094136147460e+02 1.182434833327e+01 0.0 
1.182434833327e+01 -2.488258257048e+02 0.0 
0.0 0.0 -1.070718321352e+02 
-5.071816118910e+01 2.822241597391e+00 0.0 
2.822241597391e+00 -7.828252183153e+01 0.0 
0.0 0.0 -3.830020490619e+01 
-4.638276963141e+01 6.197036479386e-01 0.0 
6.197036479386e-01 -7.647147773982e+01 0.0 
0.0 0.0 -3.645627421137e+01 
-4.531713282784e+01 3.492546953641e-01 0.0 
3.492546953641e-01 -7.753334067424e+01 0.0 
0.0 0.0 -3.645514205063e+01 
-7.193634768186e+01 4.265147827433e-01 0.0 
4.265147827433e-01 -1.478554811852e+02 0.0 
0.0 0.0 -6.553754866010e+01 
-1.571700968634e+02 4.027059128298e+00 0.0 
4.027059128298e+00 -3.732878799652e+02 0.0 
0.0 0.0 -1.587373930486e+02 
-1.930160919677e+01 1.457910073283e+00 0.0 
1.457910073283e+00 -1.466957274757e+01 0.0 
0.0 0.0 -1.019161845701e+01 
-6.982638747971e+00 -4.381655106833e-01 0.0 
-4.381655106833e-01 -1.723081882489e+01 0.0 
0.0 0.0 -7.253037558429e+00 
-1.305542069353e+02 5.638957506449e-01 0.0 
5.638957506449e-01 -3.232494812141e+02 0.0 
0.0 0.0 -1.357411064448e+02 
-4.320992368583e+01 -7.454151534072e-03 0.0 
-7.454151534072e-03 -7.518835922110e+01 0.0 
0.0 0.0 -3.511948487208e+01 
-2.522998266770e+01 -3.331128695484e-01 0.0 
-3.331128695484e-01 -6.912650410363e+01 0.0 
0.0 0.0 -2.790694603140e+01 
-1.144100998952e+02 1.929372440185e+01 0.0 
1.929372440185e+01 -2.584047880829e+02 0.0 
0.0 0.0 -1.114444663934e+02 
-1.372996345431e+02 2.539062311790e+01 0.0 
2.539062311790e+01 -3.259063184813e+02 0.0 
0.0 0.0 -1.385617859073e+02 
-1.286532904508e+02 2.674932732503e+01 0.0 
2.674932732503e+01 -3.007478130642e+02 0.0 
0.0 0.0 -1.284203310545e+02 
-1.429517842997e+02 2.100974620840e+01 0.0 
2.100974620840e+01 -3.427717944127e+02 0.0 
0.0 0.0 -1.453170736137e+02 
-1.502842049107e+02 1.562007073432e+01 0.0 
1.562007073432e+01 -3.592414533385e+02 0.0 
0.0 0.0 -1.524576974747e+02 
-1.668907516558e+01 -1.355740281143e+00 0.0 
-1.355740281143e+00 -1.716499762664e+01 0.0 
0.0 0.0 -1.014542346188e+01 
-4.787122072321e+01 1.296459722113e+00 0.0 
1.296459722113e+00 -7.636533993062e+01 0.0 
0.0 0.0 -3.687096819615e+01 
-1.530132179726e+02 8.937682447603e+00 0.0 
8.937682447603e+00 -3.659878980112e+02 0.0 
0.0 0.0 -1.553003347951e+02 
-8.636299052925e+01 5.912165239827e-01 0.0 
5.912165239827e-01 -1.871348281615e+02 0.0 
0.0 0.0 -8.164934560723e+01 
-1.076375467841e+01 -1.017527177119e+00 0.0 
-1.017527177119e+00 -1.708950748706e+01 0.0 
0.0 0.0 -8.356847449148e+00 
-6.231958285293e+01 -1.423728336695e-01 0.0 
-1.423728336695e-01 -1.690589381399e+02 0.0 
0.0 0.0 -6.901355629786e+01 
-1.060816087532e+02 2.805216276113e+00 0.0 
2.805216276113e+00 -2.449564274755e+02 0.0 
0.0 0.0 -1.049114108686e+02 
-2.615350746706e+01 1.760449907905e+01 0.0 
1.760449907905e+01 -3.113072455957e+01 0.0 
0.0 0.0 -1.678526960799e+01 
-2.442703643644e+01 1.572823166915e+01 0.0 
1.572823166915e+01 -2.737987568804e+01 0.0 
0.0 0.0 -1.514207363734e+01 
-3.097007677076e+01 1.661717778259e+01 0.0 
1.661717778259e+01 -3.129073433192e+01 0.0 
0.0 0.0 -1.827824333080e+01 
-4.264816722818e+01 7.781042951040e+00 0.0 
7.781042951040e+00 -5.322381753660e+01 0.0 
0.0 0.0 -2.836159542944e+01 
-1.920006545609e+01 9.340014760494e+00 0.0 
9.340014760494e+00 -1.775597196584e+01 0.0 
0.0 0.0 -1.073607926026e+01 
-5.730945966093e+01 1.607129788443e-01 0.0 
1.607129788443e-01 -1.102745688013e+02 0.0 
0.0 0.0 -4.987520853866e+01 
-1.592420809386e+02 2.243752192532e+00 0.0 
2.243752192532e+00 -3.771080703346e+02 0.0 
0.0 0.0 -1.605050453819e+02 
-6.148940014768e+00 -2.619114862846e-01 0.0 
-2.619114862846e-01 -1.638512341023e+01 0.0 
0.0 0.0 -6.716084768976e+00 
-9.992339229872e+01 6.826295850865e-01 0.0 
6.826295850865e-01 -2.263612580694e+02 0.0 
0.0 0.0 -9.748539511045e+01 
-5.415629850715e+01 5.352769058943e+00 0.0 
5.352769058943e+00 -8.079307378481e+01 0.0 
0.0 0.0 -4.008481168759e+01 
-5.914265701287e+01 7.610096947343e+00 0.0 
7.610096947343e+00 -9.123807110573e+01 0.0 
0.0 0.0 -4.471421843558e+01 
-6.204323734662e+01 6.566571158742e+00 0.0 
6.566571158742e+00 -9.939075900366e+01 0.0 
0.0 0.0 -4.803019890508e+01 
-6.763877311106e+01 9.385577032679e+00 0.0 
9.385577032679e+00 -1.121579728839e+02 0.0 
0.0 0.0 -5.353902379848e+01 
-7.096717469331e+01 8.580829976297e+00 0.0 
8.580829976297e+00 -1.210258803408e+02 0.0 
0.0 0.0 -5.719791651022e+01 
-7.563279877045e+01 1.091542815936e+01 0.0 
1.091542815936e+01 -1.328676610523e+02 0.0 
0.0 0.0 -6.215013794682e+01 
-7.248865252563e+01 1.190777376103e+01 0.0 
1.190777376103e+01 -1.245946577237e+02 0.0 
0.0 0.0 -5.872499307480e+01 
-8.015667179874e+01 1.325648435291e+01 0.0 
1.325648435291e+01 -1.455005346680e+02 0.0 
0.0 0.0 -6.729716194004e+01 
-7.683490014998e+01 1.434489881491e+01 0.0 
1.434489881491e+01 -1.377646104853e+02 0.0 
0.0 0.0 -6.397985319058e+01 
-7.900660849320e+01 1.020068710848e+01 0.0 
1.020068710848e+01 -1.418915664919e+02 0.0 
0.0 0.0 -6.586945249554e+01 
-8.430712098176e+01 1.545809976770e+01 0.0 
1.545809976770e+01 -1.587584897024e+02 0.0 
0.0 0.0 -7.251968320525e+01 
-8.086352416732e+01 1.654270533927e+01 0.0 
1.654270533927e+01 -1.516333007264e+02 0.0 
0.0 0.0 -6.934904746812e+01 
-8.819499423185e+01 1.741376514063e+01 0.0 
1.741376514063e+01 -1.725568710479e+02 0.0 
0.0 0.0 -7.782555958393e+01 
-8.464386655751e+01 1.840987197558e+01 0.0 
1.840987197558e+01 -1.660270544323e+02 0.0 
0.0 0.0 -7.480127629695e+01 
-7.720552887616e+01 1.777860454192e+01 0.0 
1.777860454192e+01 -1.453139830823e+02 0.0 
0.0 0.0 -6.635585358753e+01 
-8.083599831482e+01 1.942853912784e+01 0.0 
1.942853912784e+01 -1.602623964945e+02 0.0 
0.0 0.0 -7.192951844281e+01 
-7.328642721127e+01 1.904934730175e+01 0.0 
1.904934730175e+01 -1.397507528435e+02 0.0 
0.0 0.0 -6.351115401642e+01 
-7.679578510141e+01 2.038228439788e+01 0.0 
2.038228439788e+01 -1.552399652635e+02 0.0 
0.0 0.0 -6.921072510946e+01 
-8.436186445356e+01 2.062297336911e+01 0.0 
2.062297336911e+01 -1.753545780457e+02 0.0 
0.0 0.0 -7.751493274979e+01 
-8.025596037645e+01 2.123038698905e+01 0.0 
2.123038698905e+01 -1.706823846870e+02 0.0 
0.0 0.0 -7.488150351902e+01 
-7.251806961865e+01 2.113246030289e+01 0.0 
2.113246030289e+01 -1.509027790918e+02 0.0 
0.0 0.0 -6.662625461314e+01 
-7.594997385628e+01 2.159174752036e+01 0.0 
2.159174752036e+01 -1.665120451524e+02 0.0 
0.0 0.0 -7.233860570262e+01 
-6.814851248420e+01 2.155107855586e+01 0.0 
2.155107855586e+01 -1.471764266120e+02 0.0 
0.0 0.0 -6.419748172885e+01 
-7.161008108799e+01 2.161880093616e+01 0.0 
2.161880093616e+01 -1.628080967348e+02 0.0 
0.0 0.0 -6.992545334684e+01 
-6.379828872658e+01 2.156268603293e+01 0.0 
2.156268603293e+01 -1.438737593334e+02 0.0 
0.0 0.0 -6.190161441800e+01 
-6.730716933235e+01 2.128544567757e+01 0.0 
2.128544567757e+01 -1.593814154034e+02 0.0 
0.0 0.0 -6.760657542071e+01 
-7.517233112936e+01 2.140165453937e+01 0.0 
2.140165453937e+01 -1.780060087802e+02 0.0 
0.0 0.0 -7.555350197287e+01 
-7.090095910006e+01 2.078931196062e+01 0.0 
2.078931196062e+01 -1.743486280816e+02 0.0 
0.0 0.0 -7.317487615449e+01 
-6.311766519427e+01 2.059922912483e+01 0.0 
2.059922912483e+01 -1.560811611150e+02 0.0 
0.0 0.0 -6.535964789278e+01 
-6.675652336286e+01 1.986109172526e+01 0.0 
1.986109172526e+01 -1.707271513145e+02 0.0 
0.0 0.0 -7.084510240321e+01 
-5.913250748975e+01 1.956203825355e+01 0.0 
1.956203825355e+01 -1.527787965815e+02 0.0 
0.0 0.0 -6.317339122137e+01 
-6.279963379304e+01 1.862388282448e+01 0.0 
1.862388282448e+01 -1.669976594438e+02 0.0 
0.0 0.0 -6.853918797106e+01 
-7.053442996843e+01 1.902132668528e+01 0.0 
1.902132668528e+01 -1.848334709967e+02 0.0 
0.0 0.0 -7.621037028955e+01 
-6.660961725882e+01 1.764040436172e+01 0.0 
1.764040436172e+01 -1.806736288087e+02 0.0 
0.0 0.0 -7.378497382027e+01 
-5.904475862655e+01 1.711735336016e+01 0.0 
1.711735336016e+01 -1.629993327485e+02 0.0 
0.0 0.0 -6.621322741251e+01 
-6.287855963118e+01 1.603541078671e+01 0.0 
1.603541078671e+01 -1.762400477619e+02 0.0 
0.0 0.0 -7.133558221793e+01 
-5.552249609342e+01 1.539398439314e+01 0.0 
1.539398439314e+01 -1.586709619811e+02 0.0 
0.0 0.0 -6.385803742235e+01 
-5.938532466496e+01 1.424690607542e+01 0.0 
1.424690607542e+01 -1.714879893063e+02 0.0 
0.0 0.0 -6.886199419139e+01 
-5.227540682412e+01 1.349911709504e+01 0.0 
1.349911709504e+01 -1.539559542919e+02 0.0 
0.0 0.0 -6.146940833480e+01 
-5.611097961126e+01 1.231618283595e+01 0.0 
1.231618283595e+01 -1.662637702648e+02 0.0 
0.0 0.0 -6.631242496281e+01 
-6.340688356634e+01 1.315772718358e+01 0.0 
1.315772718358e+01 -1.837882287160e+02 0.0 
0.0 0.0 -7.375853368471e+01 
-6.011905177433e+01 1.124310703300e+01 0.0 
1.124310703300e+01 -1.781193474328e+02 0.0 
0.0 0.0 -7.107151976213e+01 
-5.307541091989e+01 1.032324089686e+01 0.0 
1.032324089686e+01 -1.605590303809e+02 0.0 
0.0 0.0 -6.369033239023e+01 
-5.702266835206e+01 9.282311015857e+00 0.0 
9.282311015857e+00 -1.719053686209e+02 0.0 
0.0 0.0 -6.827841109189e+01 
-6.428010301309e+01 1.027764835170e+01 0.0 
1.027764835170e+01 -1.895819400802e+02 0.0 
0.0 0.0 -7.575861292799e+01 
-6.111111522356e+01 8.378516151861e+00 0.0 
8.378516151861e+00 -1.828798555366e+02 0.0 
0.0 0.0 -7.279729122804e+01 
-6.858057359431e+01 9.433196639102e+00 0.0 
9.433196639102e+00 -2.006817908020e+02 0.0 
0.0 0.0 -8.037870931890e+01 
-6.533467027050e+01 7.605902135186e+00 0.0 
7.605902135186e+00 -1.935431403263e+02 0.0 
0.0 0.0 -7.726334317904e+01 
-5.814385456453e+01 6.525835537826e+00 0.0 
6.525835537826e+00 -1.757536355372e+02 0.0 
0.0 0.0 -6.976924703052e+01 
-6.226364047699e+01 5.842490926641e+00 0.0 
5.842490926641e+00 -1.859835938483e+02 0.0 
0.0 0.0 -7.407417029758e+01 
-6.966929756280e+01 6.953714760814e+00 0.0 
6.953714760814e+00 -2.039081758873e+02 0.0 
0.0 0.0 -8.167324203503e+01 
-6.647425760567e+01 5.284080045846e+00 0.0 
5.284080045846e+00 -1.959310584289e+02 0.0 
0.0 0.0 -7.832159481038e+01 
-5.933289589099e+01 4.181583972508e+00 0.0 
4.181583972508e+00 -1.779890405557e+02 0.0 
0.0 0.0 -7.079658093400e+01 
-6.342773683110e+01 3.729850414646e+00 0.0 
3.729850414646e+00 -1.876017951009e+02 0.0 
0.0 0.0 -7.490885957961e+01 
-7.078936255497e+01 4.839441896431e+00 0.0 
4.839441896431e+00 -2.057018554701e+02 0.0 
0.0 0.0 -8.254736540751e+01 
-6.760800779847e+01 3.387848842011e+00 0.0 
3.387848842011e+00 -1.970435784080e+02 0.0 
0.0 0.0 -7.899547586194e+01 
-6.047246834711e+01 2.316959463278e+00 0.0 
2.316959463278e+00 -1.788841011413e+02 0.0 
0.0 0.0 -7.140697084654e+01 
-6.451101152496e+01 2.085957768312e+00 0.0 
2.085957768312e+00 -1.880596638357e+02 0.0 
0.0 0.0 -7.537120260820e+01 
-7.190314388288e+01 3.145257977740e+00 0.0 
3.145257977740e+00 -2.064488049929e+02 0.0 
0.0 0.0 -8.310558466272e+01 
-6.862211210575e+01 1.942005936377e+00 0.0 
1.942005936377e+00 -1.971393182314e+02 0.0 
0.0 0.0 -7.932842910113e+01 
-6.144017087872e+01 9.456644289962e-01 0.0 
9.456644289962e-01 -1.786868989365e+02 0.0 
0.0 0.0 -7.163812094456e+01 
-6.538099357598e+01 8.941527696078e-01 0.0 
8.941527696078e-01 -1.875208922949e+02 0.0 
0.0 0.0 -7.547056576126e+01 
-7.282318620737e+01 1.863096104719e+00 0.0 
1.863096104719e+00 -2.062161344086e+02 0.0 
0.0 0.0 -8.331179618478e+01 
-6.938903124201e+01 9.008395511432e-01 0.0 
9.008395511432e-01 -1.963276774532e+02 0.0 
0.0 0.0 -7.931501260857e+01 
-7.707466499992e+01 1.830537642462e+00 0.0 
1.830537642462e+00 -2.152186557510e+02 0.0 
0.0 0.0 -8.728799622528e+01 
-6.208590319154e+01 1.250701797234e-02 0.0 
1.250701797234e-02 -1.774580770274e+02 0.0 
0.0 0.0 -7.146319406568e+01 
-6.593212482679e+01 1.057623322519e-01 0.0 
1.057623322519e-01 -1.861276763921e+02 0.0 
0.0 0.0 -7.521794036567e+01 
-5.873704871157e+01 -6.900058120789e-01 0.0 
-6.900058120789e-01 -1.670418992541e+02 0.0 
0.0 0.0 -6.733368438969e+01 
-6.245684823380e+01 -5.160700651049e-01 0.0 
-5.160700651049e-01 -1.756858758894e+02 0.0 
0.0 0.0 -7.104281723696e+01 
-7.448117831914e+01 1.814459318331e+01 0.0 
1.814459318331e+01 -1.984398755327e+02 0.0 
0.0 0.0 -8.147631615555e+01 
-5.535008160732e+01 -1.199000188586e+00 0.0 
-1.199000188586e+00 -1.564216925447e+02 0.0 
0.0 0.0 -6.313153224561e+01 
-5.192361249219e+01 -1.397034949234e+00 0.0 
-1.397034949234e+00 -1.480622064445e+02 0.0 
0.0 0.0 -5.959574568102e+01 
-5.894088165087e+01 -9.630846483830e-01 0.0 
-9.630846483830e-01 -1.650603990831e+02 0.0 
0.0 0.0 -6.680038422020e+01 
-6.627498099844e+01 -3.255622508926e-01 0.0 
-3.255622508926e-01 -1.844539437497e+02 0.0 
0.0 0.0 -7.481867742444e+01 
-5.187960143495e+01 -1.528845717364e+00 0.0 
-1.528845717364e+00 -1.456235809761e+02 0.0 
0.0 0.0 -5.885095472331e+01 
-5.536200565373e+01 -1.256942272282e+00 0.0 
-1.256942272282e+00 -1.542745793889e+02 0.0 
0.0 0.0 -6.249097551279e+01 
-4.832854195651e+01 -1.711616209529e+00 0.0 
-1.711616209529e+00 -1.347088578644e+02 0.0 
0.0 0.0 -5.451121994628e+01 
-4.847804749927e+01 1.471628555236e+01 0.0 
1.471628555236e+01 -1.408255789459e+02 0.0 
0.0 0.0 -5.639108793355e+01 
-8.790645778020e+01 2.143669879695e+01 0.0 
2.143669879695e+01 -1.904456060055e+02 0.0 
0.0 0.0 -8.310561913570e+01 
-5.170750973459e+01 -1.416384362426e+00 0.0 
-1.416384362426e+00 -1.433723258190e+02 0.0 
0.0 0.0 -5.812395066608e+01 
-4.466572031896e+01 -1.733853865587e+00 0.0 
-1.733853865587e+00 -1.236902474872e+02 0.0 
0.0 0.0 -5.010679034185e+01 
-4.148722891649e+01 -2.039455722979e+00 0.0 
-2.039455722979e+00 -1.150545705371e+02 0.0 
0.0 0.0 -4.656253983606e+01 
-3.782959391675e+01 -1.950566461034e+00 0.0 
-1.950566461034e+00 -1.039682732290e+02 0.0 
0.0 0.0 -4.213936014373e+01 
-7.441688933714e+01 8.170289389940e+00 0.0 
8.170289389940e+00 -1.305583441542e+02 0.0 
0.0 0.0 -6.109257004740e+01 
-8.191310310874e+01 9.577496142816e+00 0.0 
9.577496142816e+00 -1.511388748154e+02 0.0 
0.0 0.0 -6.951559337726e+01 
-7.707285105771e+01 7.600453579057e+00 0.0 
7.600453579057e+00 -1.394579950394e+02 0.0 
0.0 0.0 -6.455925382912e+01 
-8.471549595522e+01 9.150494448757e+00 0.0 
9.150494448757e+00 -1.605376838304e+02 0.0 
0.0 0.0 -7.317595393568e+01 
-8.017232518358e+01 7.323834840586e+00 0.0 
7.323834840586e+00 -1.496030747466e+02 0.0 
0.0 0.0 -6.853261997906e+01 
-4.092044601195e+01 -1.618154375390e+00 0.0 
-1.618154375390e+00 -1.125680401560e+02 0.0 
0.0 0.0 -4.564654585038e+01 
-9.154124442646e+01 1.651912147991e+01 0.0 
1.651912147991e+01 -1.799074547420e+02 0.0 
0.0 0.0 -8.103460975053e+01 
-8.913668636870e+01 1.107756437906e+01 0.0 
1.107756437906e+01 -1.719608228963e+02 0.0 
0.0 0.0 -7.792925277950e+01 
-6.472658288078e+01 2.107426713452e+01 0.0 
2.107426713452e+01 -1.311058488060e+02 0.0 
0.0 0.0 -5.834972950604e+01 
-5.557493173859e+01 2.037251276612e+01 0.0 
2.037251276612e+01 -1.379469862219e+02 0.0 
0.0 0.0 -5.765657538813e+01 
-7.200702702572e+01 1.128271045814e+01 0.0 
1.128271045814e+01 -2.073860031982e+02 0.0 
0.0 0.0 -8.341790906717e+01 
-5.891652976039e+01 -9.745585871969e-01 0.0 
-9.745585871969e-01 -1.629521774845e+02 0.0 
0.0 0.0 -6.616061217346e+01 
-5.516795374545e+01 -1.125421962280e+00 0.0 
-1.125421962280e+00 -1.520771375008e+02 0.0 
0.0 0.0 -6.177352737387e+01 
-6.248332662423e+01 -6.908922512712e-01 0.0 
-6.908922512712e-01 -1.716752180644e+02 0.0 
0.0 0.0 -6.984756340657e+01 
-8.069341814122e+01 2.871157152813e+00 0.0 
2.871157152813e+00 -2.249998112947e+02 0.0 
0.0 0.0 -9.130796883076e+01 
-8.514454907170e+01 2.785642599632e+00 0.0 
2.785642599632e+00 -2.341041998300e+02 0.0 
0.0 0.0 -9.537462467052e+01 
-8.896874251374e+01 3.892923142304e+00 0.0 
3.892923142304e+00 -2.437905477958e+02 0.0 
0.0 0.0 -9.942778709286e+01 
-9.359722665347e+01 3.747308494225e+00 0.0 
3.747308494225e+00 -2.529536740612e+02 0.0 
0.0 0.0 -1.035652702144e+02 
-9.764383995891e+01 4.912653344105e+00 0.0 
4.912653344105e+00 -2.625582029760e+02 0.0 
0.0 0.0 -1.076606128805e+02 
-1.024305739553e+02 4.696506128671e+00 0.0 
4.696506128671e+00 -2.717592256158e+02 0.0 
0.0 0.0 -1.118569398713e+02 
-9.822866920830e+01 3.605387783099e+00 0.0 
3.605387783099e+00 -2.619934613968e+02 0.0 
0.0 0.0 -1.076666391815e+02 
-1.072122874889e+02 4.478247567424e+00 0.0 
4.478247567424e+00 -2.808294110302e+02 0.0 
0.0 0.0 -1.160125095558e+02 
-1.028564773787e+02 3.452935423736e+00 0.0 
3.452935423736e+00 -2.709275198875e+02 0.0 
0.0 0.0 -1.117351991799e+02 
-1.067081630100e+02 5.910761816072e+00 0.0 
5.910761816072e+00 -2.812843582295e+02 0.0 
0.0 0.0 -1.159977563718e+02 
-1.017446628524e+02 6.200715798004e+00 0.0 
6.200715798004e+00 -2.718640467948e+02 0.0 
0.0 0.0 -1.116826128942e+02 
-1.119817215236e+02 4.241883900742e+00 0.0 
4.241883900742e+00 -2.897772163149e+02 0.0 
0.0 0.0 -1.201276813516e+02 
-1.074726100594e+02 3.272331168498e+00 0.0 
3.272331168498e+00 -2.797586722637e+02 0.0 
0.0 0.0 -1.157693846969e+02 
-1.167375646413e+02 3.970886364787e+00 0.0 
3.970886364787e+00 -2.986149562834e+02 0.0 
0.0 0.0 -1.242057562774e+02 
-1.120734200811e+02 3.054886964563e+00 0.0 
3.054886964563e+00 -2.884972411628e+02 0.0 
0.0 0.0 -1.197711983732e+02 
-1.029985971792e+02 2.422343183069e+00 0.0 
2.422343183069e+00 -2.695265508120e+02 0.0 
0.0 0.0 -1.113575443974e+02 
-1.074347544501e+02 2.253204484841e+00 0.0 
2.253204484841e+00 -2.781757016550e+02 0.0 
0.0 0.0 -1.152831368315e+02 
-9.857951577700e+01 1.707339365712e+00 0.0 
1.707339365712e+00 -2.591879063567e+02 0.0 
0.0 0.0 -1.069302266401e+02 
-7.649957775708e+01 1.049792756376e+01 0.0 
1.049792756376e+01 -2.185962231475e+02 0.0 
0.0 0.0 -8.812874027138e+01 
-8.016125105998e+01 1.229591265163e+01 0.0 
1.229591265163e+01 -2.253272421375e+02 0.0 
0.0 0.0 -9.124654795923e+01 
-8.483880948930e+01 1.156835285011e+01 0.0 
1.156835285011e+01 -2.366245161146e+02 0.0 
0.0 0.0 -9.603899768116e+01 
-8.871692938376e+01 1.332187552080e+01 0.0 
1.332187552080e+01 -2.433959125434e+02 0.0 
0.0 0.0 -9.923385257815e+01 
-9.358810110152e+01 1.265716259929e+01 0.0 
1.265716259929e+01 -2.547619640540e+02 0.0 
0.0 0.0 -1.041050195467e+02 
-9.764909737414e+01 1.437509199525e+01 0.0 
1.437509199525e+01 -2.615623529747e+02 0.0 
0.0 0.0 -1.073634351047e+02 
-1.027167115565e+02 1.377123135731e+01 0.0 
1.377123135731e+01 -2.729501490169e+02 0.0 
0.0 0.0 -1.123000581720e+02 
-9.858831688282e+01 1.205781372387e+01 0.0 
1.205781372387e+01 -2.657910122528e+02 0.0 
0.0 0.0 -1.089137987407e+02 
-9.187607664777e+01 1.909933628410e+01 0.0 
1.909933628410e+01 -1.867263410146e+02 0.0 
0.0 0.0 -8.318072529870e+01 
-5.025096199897e+01 8.296627250629e+00 0.0 
8.296627250629e+00 -1.543348859088e+02 0.0 
0.0 0.0 -6.097575437232e+01 
-4.653351459700e+01 9.412385946398e+00 0.0 
9.412385946398e+00 -1.430916401014e+02 0.0 
0.0 0.0 -5.648754640952e+01 
-4.401070766667e+01 7.326359198765e+00 0.0 
7.326359198765e+00 -1.368737920079e+02 0.0 
0.0 0.0 -5.386534990237e+01 
-4.057136734281e+01 8.515214050177e+00 0.0 
8.515214050177e+00 -1.257555654744e+02 0.0 
0.0 0.0 -4.949807984516e+01 
-3.835155431207e+01 6.391443521691e+00 0.0 
6.391443521691e+00 -1.195051866860e+02 0.0 
0.0 0.0 -4.695702229942e+01 
-3.525716172855e+01 7.668052868377e+00 0.0 
7.668052868377e+00 -1.085342019702e+02 0.0 
0.0 0.0 -4.273740910964e+01 
-3.332041355193e+01 5.534859660296e+00 0.0 
5.534859660296e+00 -1.021671982320e+02 0.0 
0.0 0.0 -4.024628353519e+01 
-3.630125917856e+01 4.351770343666e+00 0.0 
4.351770343666e+00 -1.125974205077e+02 0.0 
0.0 0.0 -4.426960390587e+01 
-3.154422615974e+01 3.518002638182e+00 0.0 
3.518002638182e+00 -9.509051435342e+01 0.0 
0.0 0.0 -3.759042215395e+01 
-3.438313415146e+01 2.459229956003e+00 0.0 
2.459229956003e+00 -1.050017339045e+02 0.0 
0.0 0.0 -4.141546041679e+01 
-2.984984935993e+01 1.675280385656e+00 0.0 
1.675280385656e+00 -8.727648827770e+01 0.0 
0.0 0.0 -3.473790129129e+01 
-3.251169335699e+01 7.778298650001e-01 0.0 
7.778298650001e-01 -9.666729555339e+01 0.0 
0.0 0.0 -3.835369667311e+01 
-7.886288066591e+01 2.100189567319e+01 0.0 
2.100189567319e+01 -1.927594600559e+02 0.0 
0.0 0.0 -8.108670221655e+01 
-9.272155902214e+01 1.503924492253e+01 0.0 
1.503924492253e+01 -2.497938313583e+02 0.0 
0.0 0.0 -1.023546171141e+02 
-1.018355955645e+02 1.605512811881e+01 0.0 
1.605512811881e+01 -2.680441109225e+02 0.0 
0.0 0.0 -1.105639119461e+02 
-9.681297690792e+01 1.668173318251e+01 0.0 
1.668173318251e+01 -2.557953793673e+02 0.0 
0.0 0.0 -1.053825068826e+02 
-3.480499002706e+01 -2.214613876668e+00 0.0 
-2.214613876668e+00 -9.536553394768e+01 0.0 
0.0 0.0 -3.865115719242e+01 
-1.166555711713e+02 2.788877581012e+00 0.0 
2.788877581012e+00 -2.971633440069e+02 0.0 
0.0 0.0 -1.237456745534e+02 
-1.110628572429e+02 7.245362107947e+00 0.0 
7.245362107947e+00 -2.905356767385e+02 0.0 
0.0 0.0 -1.200795601944e+02 
-1.059117063116e+02 7.593316348683e+00 0.0 
7.593316348683e+00 -2.808323509998e+02 0.0 
0.0 0.0 -1.156232171934e+02 
-1.079351656743e+02 1.320816242823e+01 0.0 
1.320816242823e+01 -2.840371572331e+02 0.0 
0.0 0.0 -1.171916968722e+02 
-3.409464428087e+01 -1.745985102677e+00 0.0 
-1.745985102677e+00 -9.297062075415e+01 0.0 
0.0 0.0 -3.771957951051e+01 
-3.066746869901e+01 6.943828671049e+00 0.0 
6.943828671049e+00 -9.143901352394e+01 0.0 
0.0 0.0 -3.623194466689e+01 
-3.242657312824e+01 9.119810526725e+00 0.0 
9.119810526725e+00 -9.702116364177e+01 0.0 
0.0 0.0 -3.843432103100e+01 
-8.746010024757e+01 8.799983565020e+00 0.0 
8.799983565020e+00 -1.702032150245e+02 0.0 
0.0 0.0 -7.689899458163e+01 
-8.304779530360e+01 7.101732380559e+00 0.0 
7.101732380559e+00 -1.595347723439e+02 0.0 
0.0 0.0 -7.237477029425e+01 
-1.155279890153e+02 8.675686934032e+00 0.0 
8.675686934032e+00 -2.995236096832e+02 0.0 
0.0 0.0 -1.241154796096e+02 
-3.715109338190e+01 -1.451739261391e+00 0.0 
-1.451739261391e+00 -1.015502076040e+02 0.0 
0.0 0.0 -4.121039029577e+01 
-1.165576139820e+02 5.325164467750e+00 0.0 
5.325164467750e+00 -2.995953742351e+02 0.0 
0.0 0.0 -1.244458964651e+02 
-2.747366200809e+01 2.810941352879e+00 0.0 
2.810941352879e+00 -7.765945249180e+01 0.0 
0.0 0.0 -3.113993434997e+01 
-1.118623598913e+02 2.030087806849e+00 0.0 
2.030087806849e+00 -2.867716316630e+02 0.0 
0.0 0.0 -1.191901974663e+02 
-1.211920242794e+02 2.469937345895e+00 0.0 
2.469937345895e+00 -3.057505238093e+02 0.0 
0.0 0.0 -1.276827644266e+02 
-9.409666539570e+01 2.645390968668e+00 0.0 
2.645390968668e+00 -2.520317863381e+02 0.0 
0.0 0.0 -1.034385355202e+02 
-1.061077262964e+02 1.768108931548e+01 0.0 
1.768108931548e+01 -2.742332664735e+02 0.0 
0.0 0.0 -1.137022978310e+02 
-1.009860144501e+02 1.821119736422e+01 0.0 
1.821119736422e+01 -2.614898204459e+02 0.0 
0.0 0.0 -1.083427504688e+02 
-3.748240032406e+01 1.656073205034e+00 0.0 
1.656073205034e+00 -1.147264338353e+02 0.0 
0.0 0.0 -4.526265024780e+01 
-3.539687800516e+01 2.053960577166e-01 0.0 
2.053960577166e-01 -1.060032203865e+02 0.0 
0.0 0.0 -4.202002951749e+01 
-3.068682664523e+01 -5.484763969602e-01 0.0 
-5.484763969602e-01 -8.805377623457e+01 0.0 
0.0 0.0 -3.522218086394e+01 
-3.368833111369e+01 -1.008755480530e+00 0.0 
-1.008755480530e+00 -9.749034680997e+01 0.0 
0.0 0.0 -3.895360337710e+01 
-3.852039034742e+01 -2.727922376824e-01 0.0 
-2.727922376824e-01 -1.154168365142e+02 0.0 
0.0 0.0 -4.578116805849e+01 
-3.624663331961e+01 -1.405598738145e+00 0.0 
-1.405598738145e+00 -1.057800359430e+02 0.0 
0.0 0.0 -4.220800077878e+01 
-3.130001897577e+01 -2.062613412717e+00 0.0 
-2.062613412717e+00 -8.739703491313e+01 0.0 
0.0 0.0 -3.520911616667e+01 
-3.384356393458e+01 -2.172597069734e+00 0.0 
-2.172597069734e+00 -9.573445977682e+01 0.0 
0.0 0.0 -3.847340711342e+01 
-3.919869569357e+01 -1.567565405967e+00 0.0 
-1.567565405967e+00 -1.144947242132e+02 0.0 
0.0 0.0 -4.570802597203e+01 
-3.657077517680e+01 -2.240636506156e+00 0.0 
-2.240636506156e+00 -1.042367542582e+02 0.0 
0.0 0.0 -4.184225883049e+01 
-3.126956174295e+01 -2.646854992870e+00 0.0 
-2.646854992870e+00 -8.515516685060e+01 0.0 
0.0 0.0 -3.452741857807e+01 
-3.372389803289e+01 -2.613311974088e+00 0.0 
-2.613311974088e+00 -9.355602678896e+01 0.0 
0.0 0.0 -3.778397744655e+01 
-1.261505745964e+02 3.282078112344e+00 0.0 
3.282078112344e+00 -3.160072237822e+02 0.0 
0.0 0.0 -1.322473395136e+02 
-2.604337194098e+01 1.048807287622e+00 0.0 
1.048807287622e+00 -6.957926868817e+01 0.0 
0.0 0.0 -2.828679218875e+01 
-6.957518169921e+01 1.715900008772e+01 0.0 
1.715900008772e+01 -1.244102347327e+02 0.0 
0.0 0.0 -5.779562492958e+01 
-1.207683518474e+02 8.250975485812e+00 0.0 
8.250975485812e+00 -3.091368954029e+02 0.0 
0.0 0.0 -1.285715741751e+02 
-1.121644072436e+02 1.490954736405e+01 0.0 
1.490954736405e+01 -2.909943597552e+02 0.0 
0.0 0.0 -1.205476300996e+02 
-9.015351825448e+01 8.491379978920e+00 0.0 
8.491379978920e+00 -1.801027015161e+02 0.0 
0.0 0.0 -8.067686593117e+01 
-8.588834058309e+01 6.902884802811e+00 0.0 
6.902884802811e+00 -1.697036556174e+02 0.0 
0.0 0.0 -7.627759886015e+01 
-7.847039004317e+01 5.532984331304e+00 0.0 
5.532984331304e+00 -1.492276044490e+02 0.0 
0.0 0.0 -6.790939834765e+01 
-8.152528774448e+01 5.454608315909e+00 0.0 
5.454608315909e+00 -1.597002210971e+02 0.0 
0.0 0.0 -7.196765265249e+01 
-8.869665614843e+01 6.714185512487e+00 0.0 
6.714185512487e+00 -1.801242830806e+02 0.0 
0.0 0.0 -8.024628176871e+01 
-8.454039709032e+01 5.352693596606e+00 0.0 
5.352693596606e+00 -1.702549931246e+02 0.0 
0.0 0.0 -7.603861706449e+01 
-7.711552094097e+01 4.211398059216e+00 0.0 
4.211398059216e+00 -1.499680686308e+02 0.0 
0.0 0.0 -6.772507687155e+01 
-8.035582329362e+01 4.171160755444e+00 0.0 
4.171160755444e+00 -1.605962925577e+02 0.0 
0.0 0.0 -7.188563475539e+01 
-7.273953757120e+01 3.158283380615e+00 0.0 
3.158283380615e+00 -1.404287510267e+02 0.0 
0.0 0.0 -6.355048657936e+01 
-7.616868194552e+01 3.166463175343e+00 0.0 
3.166463175343e+00 -1.511451396662e+02 0.0 
0.0 0.0 -6.779414648350e+01 
-8.358040409761e+01 4.084622518013e+00 0.0 
4.084622518013e+00 -1.713034927433e+02 0.0 
0.0 0.0 -7.606516905227e+01 
-7.958153592253e+01 3.142203996465e+00 0.0 
3.142203996465e+00 -1.619622505551e+02 0.0 
0.0 0.0 -7.206313594329e+01 
-7.199022980527e+01 2.327982615387e+00 0.0 
2.327982615387e+00 -1.419153160463e+02 0.0 
0.0 0.0 -6.377166375547e+01 
-7.558593934448e+01 2.351492431972e+00 0.0 
2.351492431972e+00 -1.527436425296e+02 0.0 
0.0 0.0 -6.809887456222e+01 
-6.784948321788e+01 1.669482012580e+00 0.0 
1.669482012580e+00 -1.327648787351e+02 0.0 
0.0 0.0 -5.978430858588e+01 
-7.163335261401e+01 1.720008946868e+00 0.0 
1.720008946868e+00 -1.435336126781e+02 0.0 
0.0 0.0 -6.415008958763e+01 
-7.918499057205e+01 2.259033417790e+00 0.0 
2.259033417790e+00 -1.636414904451e+02 0.0 
0.0 0.0 -7.244794430516e+01 
-3.057746649311e+01 -1.490906720031e+00 0.0 
-1.490906720031e+00 -8.246845831369e+01 0.0 
0.0 0.0 -3.351377744204e+01 
-1.037119199862e+02 1.151206256141e+01 0.0 
1.151206256141e+01 -2.765385817333e+02 0.0 
0.0 0.0 -1.136751505158e+02 
-1.133308927811e+02 1.267242664169e+01 0.0 
1.267242664169e+01 -2.949499437493e+02 0.0 
0.0 0.0 -1.220842509591e+02 
-5.877827042819e+01 -7.345333815349e-01 0.0 
-7.345333815349e-01 -1.613453638728e+02 0.0 
0.0 0.0 -6.563709029031e+01 
-6.597034069452e+01 -3.997964943579e-01 0.0 
-3.997964943579e-01 -1.801363111878e+02 0.0 
0.0 0.0 -7.343199556469e+01 
-7.001968689443e+01 -3.171055933086e-01 0.0 
-3.171055933086e-01 -1.911374554366e+02 0.0 
0.0 0.0 -7.794714269930e+01 
-7.388294077394e+01 -1.203083580197e-01 0.0 
-1.203083580197e-01 -1.999568542220e+02 0.0 
0.0 0.0 -8.175193849878e+01 
-7.534866666648e+01 1.634817802494e+00 0.0 
1.634817802494e+00 -1.543345000545e+02 0.0 
0.0 0.0 -6.850495001629e+01 
-8.270398310067e+01 2.067388405117e+00 0.0 
2.067388405117e+00 -1.745769008728e+02 0.0 
0.0 0.0 -7.678426519203e+01 
-2.833340696896e+01 8.561444000560e+00 0.0 
8.561444000560e+00 -8.019063266874e+01 0.0 
0.0 0.0 -3.215721189131e+01 
-2.993352325044e+01 1.069328466913e+01 0.0 
1.069328466913e+01 -8.492717197650e+01 0.0 
0.0 0.0 -3.405820856808e+01 
-9.428758781035e+01 1.021423773012e+01 0.0 
1.021423773012e+01 -1.909082327447e+02 0.0 
0.0 0.0 -8.515874616652e+01 
-1.162668253710e+02 1.764773129170e+00 0.0 
1.764773129170e+00 -2.953568958855e+02 0.0 
0.0 0.0 -1.230871163770e+02 
-1.071373478192e+02 1.388824468698e+00 0.0 
1.388824468698e+00 -2.763218657244e+02 0.0 
0.0 0.0 -1.146377640631e+02 
-5.184607874237e+01 1.920526853599e+01 0.0 
1.920526853599e+01 -1.349604747054e+02 0.0 
0.0 0.0 -5.564196603434e+01 
-4.838542736193e+01 2.003013064286e+01 0.0 
2.003013064286e+01 -1.198962044216e+02 0.0 
0.0 0.0 -5.008448953507e+01 
-4.502023619945e+01 1.876277113097e+01 0.0 
1.876277113097e+01 -1.171659157880e+02 0.0 
0.0 0.0 -4.825584559624e+01 
-4.163528339835e+01 1.950713518917e+01 0.0 
1.950713518917e+01 -1.015760485424e+02 0.0 
0.0 0.0 -4.256339958221e+01 
-4.493274215446e+01 2.057975387125e+01 0.0 
2.057975387125e+01 -1.040292164501e+02 0.0 
0.0 0.0 -4.428858758138e+01 
-3.874237546704e+01 1.818653484875e+01 0.0 
1.818653484875e+01 -9.900307888676e+01 0.0 
0.0 0.0 -4.092363630614e+01 
-9.670576919724e+01 6.477894060282e+00 0.0 
6.477894060282e+00 -2.620948177081e+02 0.0 
0.0 0.0 -1.072401760716e+02 
-8.680862318650e+01 3.952559028871e+00 0.0 
3.952559028871e+00 -1.821522870194e+02 0.0 
0.0 0.0 -8.028827306178e+01 
-3.842677651587e+01 -2.324511049982e+00 0.0 
-2.324511049982e+00 -1.065089182745e+02 0.0 
0.0 0.0 -4.308070843712e+01 
-3.201153501658e+01 -2.446400898638e+00 0.0 
-2.446400898638e+00 -8.690493179824e+01 0.0 
0.0 0.0 -3.527494004445e+01 
-1.256697771757e+02 2.103612381096e+00 0.0 
2.103612381096e+00 -3.143172910022e+02 0.0 
0.0 0.0 -1.315961204534e+02 
-9.453502051914e+01 1.035140025449e+01 0.0 
1.035140025449e+01 -2.582305905855e+02 0.0 
0.0 0.0 -1.054296833314e+02 
-8.314613854051e+01 2.157865890062e+01 0.0 
2.157865890062e+01 -1.967515891862e+02 0.0 
0.0 0.0 -8.356931831800e+01 
-8.697751738560e+01 2.129052500740e+01 0.0 
2.129052500740e+01 -2.113519977450e+02 0.0 
0.0 0.0 -8.909885453918e+01 
-9.122862429296e+01 2.187475393245e+01 0.0 
2.187475393245e+01 -2.156962011953e+02 0.0 
0.0 0.0 -9.167744764649e+01 
-9.524275302863e+01 2.170705562837e+01 0.0 
2.170705562837e+01 -2.301653243816e+02 0.0 
0.0 0.0 -9.722242322308e+01 
-9.938645212462e+01 2.233945520105e+01 0.0 
2.233945520105e+01 -2.347973396661e+02 0.0 
0.0 0.0 -9.985513753721e+01 
-1.035902353203e+02 2.231640656876e+01 0.0 
2.231640656876e+01 -2.490564071689e+02 0.0 
0.0 0.0 -1.053939927468e+02 
-9.948505060217e+01 2.145933698220e+01 0.0 
2.145933698220e+01 -2.442934751305e+02 0.0 
0.0 0.0 -1.027335577198e+02 
-1.104136390070e+02 1.923771130101e+01 0.0 
1.923771130101e+01 -2.801239793931e+02 0.0 
0.0 0.0 -1.167612855200e+02 
-1.080739675815e+02 2.225353473522e+01 0.0 
2.225353473522e+01 -2.630358710808e+02 0.0 
0.0 0.0 -1.109329515987e+02 
-6.770268208323e+01 1.125056456014e+00 0.0 
1.125056456014e+00 -1.340831464355e+02 0.0 
0.0 0.0 -6.013574855561e+01 
-8.784139039686e+01 1.573373122991e+01 0.0 
1.573373122991e+01 -2.374563931078e+02 0.0 
0.0 0.0 -9.718933505139e+01 
-4.231282841100e+01 -1.626676928857e+00 0.0 
-1.626676928857e+00 -1.232605709819e+02 0.0 
0.0 0.0 -4.927201981787e+01 
-2.732431088323e+01 -1.664093117536e+00 0.0 
-1.664093117536e+00 -7.362062740953e+01 0.0 
0.0 0.0 -2.988348148783e+01 
-2.808120470614e+01 -2.808604012960e+00 0.0 
-2.808604012960e+00 -7.378937732186e+01 0.0 
0.0 0.0 -3.016117460840e+01 
-3.314457532585e+01 -1.254445883894e+00 0.0 
-1.254445883894e+00 -9.022789714356e+01 0.0 
0.0 0.0 -3.661174174083e+01 
-4.024398797865e+01 -1.176484422425e+00 0.0 
-1.176484422425e+00 -1.100904688799e+02 0.0 
0.0 0.0 -4.470033705756e+01 
-1.255224406078e+02 9.730072770635e+00 0.0 
9.730072770635e+00 -3.181163455156e+02 0.0 
0.0 0.0 -1.326916358370e+02 
-1.075571626907e+02 2.303078523308e+01 0.0 
2.303078523308e+01 -2.539015984521e+02 0.0 
0.0 0.0 -1.080376283428e+02 
-1.032983927762e+02 2.276525886939e+01 0.0 
2.276525886939e+01 -2.394171799260e+02 0.0 
0.0 0.0 -1.024146718107e+02 
-3.830371715472e+01 1.997528588075e+01 0.0 
1.997528588075e+01 -8.546857849502e+01 0.0 
0.0 0.0 -3.673168869492e+01 
-4.150986509273e+01 2.074517828710e+01 0.0 
2.074517828710e+01 -8.751345608116e+01 0.0 
0.0 0.0 -3.830699635217e+01 
-1.157769700045e+02 1.880450214262e+01 0.0 
1.880450214262e+01 -2.926717816467e+02 0.0 
0.0 0.0 -1.221346254954e+02 
-7.237268716002e+01 5.794111082974e+00 0.0 
5.794111082974e+00 -1.290344670552e+02 0.0 
0.0 0.0 -6.002214626457e+01 
-6.930122259293e+01 3.091172067805e+00 0.0 
3.091172067805e+00 -1.298527056244e+02 0.0 
0.0 0.0 -5.934617846521e+01 
-6.468194068154e+01 2.172839626838e+00 0.0 
2.172839626838e+00 -1.203530320145e+02 0.0 
0.0 0.0 -5.511049180881e+01 
-2.566659690593e+01 -1.152776427706e+00 0.0 
-1.152776427706e+00 -6.885003299787e+01 0.0 
0.0 0.0 -2.795498897114e+01 
-2.628452639743e+01 -2.813811633503e+00 0.0 
-2.813811633503e+00 -6.621146859808e+01 0.0 
0.0 0.0 -2.734879849865e+01 
-9.152628689804e+01 6.475724147730e+00 0.0 
6.475724147730e+00 -1.906794184054e+02 0.0 
0.0 0.0 -8.426171159103e+01 
-3.434467168231e+01 1.126769957615e+01 0.0 
1.126769957615e+01 -1.017906587522e+02 0.0 
0.0 0.0 -4.044059913034e+01 
-3.172031435616e+01 1.277900916976e+01 0.0 
1.277900916976e+01 -8.896291335934e+01 0.0 
0.0 0.0 -3.580496831465e+01 
-2.410248850414e+01 2.337907490115e+00 0.0 
2.337907490115e+00 -6.007864857134e+01 0.0 
0.0 0.0 -2.485434112264e+01 
-2.284049475275e+01 6.171459678748e-01 0.0 
6.171459678748e-01 -5.173269756782e+01 0.0 
0.0 0.0 -2.197195769617e+01 
-7.904856785131e+01 1.374913142305e+00 0.0 
1.374913142305e+00 -1.649762351853e+02 0.0 
0.0 0.0 -7.280744091099e+01 
-8.627123236895e+01 1.774055376787e+00 0.0 
1.774055376787e+00 -1.851109867019e+02 0.0 
0.0 0.0 -8.101466572127e+01 
-7.794326799172e+01 1.639784867288e-01 0.0 
1.639784867288e-01 -2.106001627916e+02 0.0 
0.0 0.0 -8.616302923500e+01 
-8.182187586740e+01 3.054643932151e-01 0.0 
3.054643932151e-01 -2.193280376480e+02 0.0 
0.0 0.0 -8.994497405462e+01 
-1.201298150270e+02 1.019931601463e+01 0.0 
1.019931601463e+01 -3.082721742147e+02 0.0 
0.0 0.0 -1.281205967725e+02 
-3.071152561437e+01 -2.764710254088e+00 0.0 
-2.764710254088e+00 -8.270189317113e+01 0.0 
0.0 0.0 -3.362402563565e+01 
-8.991121705419e+01 2.558218986755e+00 0.0 
2.558218986755e+00 -1.948206695082e+02 0.0 
0.0 0.0 -8.501956596871e+01 
-9.956228782816e+01 9.850142127176e+00 0.0 
9.850142127176e+00 -2.686757465173e+02 0.0 
0.0 0.0 -1.100714103036e+02 
-9.060377700694e+01 8.689299430815e+00 0.0 
8.689299430815e+00 -2.503074370430e+02 0.0 
0.0 0.0 -1.018733642150e+02 
-6.979285189924e+01 -3.427148108381e-01 0.0 
-3.427148108381e-01 -1.888536658645e+02 0.0 
0.0 0.0 -7.719395532911e+01 
-2.641880602636e+01 1.032772742999e+01 0.0 
1.032772742999e+01 -6.838437792019e+01 0.0 
0.0 0.0 -2.804095518396e+01 
-2.500922977864e+01 8.211823003562e+00 0.0 
8.211823003562e+00 -6.369278967584e+01 0.0 
0.0 0.0 -2.621060583634e+01 
-4.498187044883e+01 -8.008765829514e-01 0.0 
-8.008765829514e-01 -1.332434095454e+02 0.0 
0.0 0.0 -5.306758399828e+01 
-3.651367232890e+01 -2.549690861577e+00 0.0 
-2.549690861577e+00 -1.021654277378e+02 0.0 
0.0 0.0 -4.120373002000e+01 
-3.623848404766e+01 -9.182458661838e-01 0.0 
-9.182458661838e-01 -9.879963142361e+01 0.0 
0.0 0.0 -4.011143464138e+01 
-1.303186852526e+02 1.128862498838e+01 0.0 
1.128862498838e+01 -3.267276379592e+02 0.0 
0.0 0.0 -1.367138969636e+02 
-9.540035671845e+01 7.879757346403e+00 0.0 
7.879757346403e+00 -2.005728578355e+02 0.0 
0.0 0.0 -8.839196436617e+01 
-1.040428401546e+02 2.122400899149e+01 0.0 
2.122400899149e+01 -2.580711043845e+02 0.0 
0.0 0.0 -1.082341833617e+02 
-9.523792567510e+01 2.046259832189e+01 0.0 
2.046259832189e+01 -2.394032118499e+02 0.0 
0.0 0.0 -9.999234125749e+01 
-1.130833682913e+02 2.214105527927e+01 0.0 
2.214105527927e+01 -2.768698571945e+02 0.0 
0.0 0.0 -1.165859676457e+02 
-2.540377600822e+01 -2.721086711114e+00 0.0 
-2.721086711114e+00 -6.326512352710e+01 0.0 
0.0 0.0 -2.620066986060e+01 
-1.309847528038e+02 9.240876364328e+00 0.0 
9.240876364328e+00 -3.279465309103e+02 0.0 
0.0 0.0 -1.372793851142e+02 
-1.206281013661e+02 1.437023477726e+00 0.0 
1.437023477726e+00 -3.039513788484e+02 0.0 
0.0 0.0 -1.269738440643e+02 
-1.108797362775e+02 2.348943631953e+01 0.0 
2.348943631953e+01 -2.579488022933e+02 0.0 
0.0 0.0 -1.102485615712e+02 
-1.069916169219e+02 2.301786676679e+01 0.0 
2.301786676679e+01 -2.442943607073e+02 0.0 
0.0 0.0 -1.049857932888e+02 
-3.643909995442e+01 1.333312114751e+01 0.0 
1.333312114751e+01 -1.058869214246e+02 0.0 
0.0 0.0 -4.229780641370e+01 
-3.374091185264e+01 1.475012231078e+01 0.0 
1.475012231078e+01 -9.257860283173e+01 0.0 
0.0 0.0 -3.749585440531e+01 
-2.947863069832e+01 1.426541503333e+01 0.0 
1.426541503333e+01 -7.547619567881e+01 0.0 
0.0 0.0 -3.108644791314e+01 
-3.123936813047e+01 1.598226939367e+01 0.0 
1.598226939367e+01 -7.838055830555e+01 0.0 
0.0 0.0 -3.248597793081e+01 
-6.900044161461e+01 1.315308273794e+01 0.0 
1.315308273794e+01 -1.166551816913e+02 0.0 
0.0 0.0 -5.529668699178e+01 
-3.890075958255e+01 1.531560318092e+01 0.0 
1.531560318092e+01 -1.097636005299e+02 0.0 
0.0 0.0 -4.419930803374e+01 
-6.551254072893e+01 1.868900431540e+01 0.0 
1.868900431540e+01 -1.189840023721e+02 0.0 
0.0 0.0 -5.494896293032e+01 
-6.163125849277e+01 1.646242051140e+01 0.0 
1.646242051140e+01 -1.031989813792e+02 0.0 
0.0 0.0 -4.904907196159e+01 
-5.756536414642e+01 1.823506954956e+01 0.0 
1.823506954956e+01 -9.811673052587e+01 0.0 
0.0 0.0 -4.630462840168e+01 
-4.859287578181e+01 2.122693429405e+01 0.0 
2.122693429405e+01 -1.061832674668e+02 0.0 
0.0 0.0 -4.603284297457e+01 
-4.509710446186e+01 2.102847500710e+01 0.0 
2.102847500710e+01 -8.930597775859e+01 0.0 
0.0 0.0 -3.992092466613e+01 
-4.295040543603e+01 1.065178150518e+01 0.0 
1.065178150518e+01 -1.312878522160e+02 0.0 
0.0 0.0 -5.187147729561e+01 
-7.559082516087e+01 1.310925452310e+01 0.0 
1.310925452310e+01 -2.136172139564e+02 0.0 
0.0 0.0 -8.636241173519e+01 
-7.400747251408e+01 1.456177546286e-02 0.0 
1.456177546286e-02 -2.019269183736e+02 0.0 
0.0 0.0 -8.238031726631e+01 
-9.430266615894e+01 1.782656571503e+00 0.0 
1.782656571503e+00 -2.505658494425e+02 0.0 
0.0 0.0 -1.030605546804e+02 
-8.434380185765e+01 4.053237510038e+00 0.0 
4.053237510038e+00 -2.344557792239e+02 0.0 
0.0 0.0 -9.523987432445e+01 
-9.054831215553e+01 4.992350374446e+00 0.0 
4.992350374446e+00 -1.914778012862e+02 0.0 
0.0 0.0 -8.420783403252e+01 
-9.364574189753e+01 4.739152892220e+00 0.0 
4.739152892220e+00 -2.024668890105e+02 0.0 
0.0 0.0 -8.843378927240e+01 
-6.407080155190e+01 1.561690678590e+00 0.0 
1.561690678590e+00 -1.219745349072e+02 0.0 
0.0 0.0 -5.541360093773e+01 
-5.993318407941e+01 1.053539716949e+00 0.0 
1.053539716949e+00 -1.128162689574e+02 0.0 
0.0 0.0 -5.142483591104e+01 
-2.829913464113e+01 -2.203432284622e+00 0.0 
-2.203432284622e+00 -7.564691124773e+01 0.0 
0.0 0.0 -3.078381376666e+01 
-2.569600462662e+01 -2.379675297176e+00 0.0 
-2.379675297176e+00 -6.724350004913e+01 0.0 
0.0 0.0 -2.748185140272e+01 
-8.136828395842e+01 1.825860962913e+00 0.0 
1.825860962913e+00 -2.241758967897e+02 0.0 
0.0 0.0 -9.126325422443e+01 
-1.259566137739e+02 7.800788538919e+00 0.0 
7.800788538919e+00 -3.185138425018e+02 0.0 
0.0 0.0 -1.329411368827e+02 
-9.662669172449e+01 9.773726089360e+00 0.0 
9.773726089360e+00 -2.005242654202e+02 0.0 
0.0 0.0 -8.874528714340e+01 
-1.004906780394e+02 1.156614559061e+01 0.0 
1.156614559061e+01 -2.114838024395e+02 0.0 
0.0 0.0 -9.319234414367e+01 
-9.826279805641e+01 1.205564151460e+01 0.0 
1.205564151460e+01 -2.020052680625e+02 0.0 
0.0 0.0 -8.968041983566e+01 
-1.246967941571e+02 1.179763218479e+01 0.0 
1.179763218479e+01 -3.164682223122e+02 0.0 
0.0 0.0 -1.319495049408e+02 
-4.763840091290e+01 6.304588286377e+00 0.0 
6.304588286377e+00 -1.476089358827e+02 0.0 
0.0 0.0 -5.817420103869e+01 
-8.110234749601e+01 9.811392980920e+00 0.0 
9.811392980920e+00 -2.294604761474e+02 0.0 
0.0 0.0 -9.276884709303e+01 
-2.462794011627e+01 -3.157564326746e-01 0.0 
-3.157564326746e-01 -6.086647226595e+01 0.0 
0.0 0.0 -2.524832371467e+01 
-7.853432748447e+01 1.942603454335e+01 0.0 
1.942603454335e+01 -2.028117036611e+02 0.0 
0.0 0.0 -8.400380934367e+01 
-2.194147836501e+01 -1.993432946661e+00 0.0 
-1.993432946661e+00 -5.611290368386e+01 0.0 
0.0 0.0 -2.301631461466e+01 
-9.178772386182e+01 2.098524542753e+01 0.0 
2.098524542753e+01 -1.953856131030e+02 0.0 
0.0 0.0 -8.575200108946e+01 
-1.302373632696e+02 1.665482986894e+00 0.0 
1.665482986894e+00 -3.229338994778e+02 0.0 
0.0 0.0 -1.355513788242e+02 
-1.353532039678e+02 2.397210886504e+00 0.0 
2.397210886504e+00 -3.330752289410e+02 0.0 
0.0 0.0 -1.401285298726e+02 
-1.200347096045e+02 2.040668808071e+01 0.0 
2.040668808071e+01 -2.985140840876e+02 0.0 
0.0 0.0 -1.251646381077e+02 
-5.584015134191e+01 8.647981281558e+00 0.0 
8.647981281558e+00 -8.302654533801e+01 0.0 
0.0 0.0 -4.126000900398e+01 
-8.262969420043e+01 1.868348676349e+01 0.0 
1.868348676349e+01 -2.163441872637e+02 0.0 
0.0 0.0 -8.929216443923e+01 
-7.862665158048e+01 1.726403199226e+01 0.0 
1.726403199226e+01 -2.116035392090e+02 0.0 
0.0 0.0 -8.666905723685e+01 
-5.344386568544e+01 1.551022314074e+01 0.0 
1.551022314074e+01 -8.193413449604e+01 0.0 
0.0 0.0 -4.021340005444e+01 
-4.939605730312e+01 1.754475922836e+01 0.0 
1.754475922836e+01 -7.704640117518e+01 0.0 
0.0 0.0 -3.753273754349e+01 
-5.331958544001e+01 1.972763715567e+01 0.0 
1.972763715567e+01 -9.426656611701e+01 0.0 
0.0 0.0 -4.387584546711e+01 
-4.540740591437e+01 1.926768598385e+01 0.0 
1.926768598385e+01 -7.395111352846e+01 0.0 
0.0 0.0 -3.540755583285e+01 
-4.836216268688e+01 -8.623223142406e-01 0.0 
-8.623223142406e-01 -1.419781093825e+02 0.0 
0.0 0.0 -5.670208162081e+01 
-4.548685532178e+01 -1.591192495350e+00 0.0 
-1.591192495350e+00 -1.317934170632e+02 0.0 
0.0 0.0 -5.278408171549e+01 
-1.163964034610e+02 2.414864162748e+01 0.0 
2.414864162748e+01 -2.743482265738e+02 0.0 
0.0 0.0 -1.168233890104e+02 
-1.167103378070e+02 2.323279943978e+01 0.0 
2.323279943978e+01 -2.815984633139e+02 0.0 
0.0 0.0 -1.190926403363e+02 
-1.143696443485e+02 2.405712779237e+01 0.0 
2.405712779237e+01 -2.633483310640e+02 0.0 
0.0 0.0 -1.129153926238e+02 
-1.107596292257e+02 2.324500217954e+01 0.0 
2.324500217954e+01 -2.499888713669e+02 0.0 
0.0 0.0 -1.078245501778e+02 
-1.257498223734e+02 2.006618847213e+01 0.0 
2.006618847213e+01 -3.109858523779e+02 0.0 
0.0 0.0 -1.306207024254e+02 
-1.211684648716e+02 1.835196051579e+01 0.0 
1.835196051579e+01 -3.045897261391e+02 0.0 
0.0 0.0 -1.273274573032e+02 
-4.310110081003e+01 -8.147851425415e-01 0.0 
-8.147851425415e-01 -1.181133755172e+02 0.0 
0.0 0.0 -4.796434289818e+01 
-3.814665155733e+01 2.039377536509e+01 0.0 
2.039377536509e+01 -7.034261603685e+01 0.0 
0.0 0.0 -3.214678027826e+01 
-9.816069410637e+01 7.531952100523e+00 0.0 
7.531952100523e+00 -2.110848701100e+02 0.0 
0.0 0.0 -9.237366926490e+01 
-5.722451020223e+01 1.349805740073e+01 0.0 
1.349805740073e+01 -8.807775735232e+01 0.0 
0.0 0.0 -4.319068026636e+01 
-1.361352743090e+02 8.675728163439e+00 0.0 
8.675728163439e+00 -3.368388209438e+02 0.0 
0.0 0.0 -1.414922285758e+02 
-1.311588741563e+02 7.347197078933e+00 0.0 
7.347197078933e+00 -3.277540476042e+02 0.0 
0.0 0.0 -1.372738765281e+02 
-2.188848927166e+01 -5.540630989971e-01 0.0 
-5.540630989971e-01 -4.270880377484e+01 0.0 
0.0 0.0 -1.897918791395e+01 
-2.305294850291e+01 -1.443226657342e+00 0.0 
-1.443226657342e+00 -5.087853322443e+01 0.0 
0.0 0.0 -2.177944451820e+01 
-9.338381276988e+01 2.186282808611e+00 0.0 
2.186282808611e+00 -2.056716242738e+02 0.0 
0.0 0.0 -8.931663111310e+01 
-2.775200206040e+01 1.555180762477e+01 0.0 
1.555180762477e+01 -6.108633886875e+01 0.0 
0.0 0.0 -2.625150227875e+01 
-2.903274068402e+01 1.686585937522e+01 0.0 
1.686585937522e+01 -6.284914645181e+01 0.0 
0.0 0.0 -2.716456614075e+01 
-2.635509933226e+01 1.398303494021e+01 0.0 
1.398303494021e+01 -5.874515741359e+01 0.0 
0.0 0.0 -2.513007702376e+01 
-1.508184397410e+02 6.675934211390e-01 0.0 
6.675934211390e-01 -3.615306565080e+02 0.0 
0.0 0.0 -1.533047288747e+02 
-4.284741049375e+01 2.011752298967e-02 0.0 
2.011752298967e-02 -7.476521109608e+01 0.0 
0.0 0.0 -3.488378647695e+01 
-1.401613334859e+02 1.865776123795e+00 0.0 
1.865776123795e+00 -3.418093667166e+02 0.0 
0.0 0.0 -1.441912100607e+02 
-5.264838544044e+01 2.136969286482e+01 0.0 
2.136969286482e+01 -1.085239601958e+02 0.0 
0.0 0.0 -4.795170369086e+01 
-9.700517227917e+01 2.999059382386e+00 0.0 
2.999059382386e+00 -2.155153380550e+02 0.0 
0.0 0.0 -9.335615310026e+01 
-8.702176266328e+01 1.795607774880e+01 0.0 
1.795607774880e+01 -2.296120186482e+02 0.0 
0.0 0.0 -9.459013439346e+01 
-4.828363810771e+01 1.770332261651e+01 0.0 
1.770332261651e+01 -1.314489720660e+02 0.0 
0.0 0.0 -5.351978305210e+01 
-1.146749115641e+02 1.065965560736e+01 0.0 
1.065965560736e+01 -2.980779733583e+02 0.0 
0.0 0.0 -1.234258654767e+02 
-8.947849131910e+01 1.478605277395e+00 0.0 
1.478605277395e+00 -1.948234595479e+02 0.0 
0.0 0.0 -8.489058526010e+01 
-9.689236298507e+01 1.679505023708e+00 0.0 
1.679505023708e+00 -2.170058607295e+02 0.0 
0.0 0.0 -9.376946711437e+01 
-6.105216868065e+01 2.007291531715e+00 0.0 
2.007291531715e+00 -1.097985290822e+02 0.0 
0.0 0.0 -5.085520932884e+01 
-5.606655548307e+01 1.371608874354e+00 0.0 
1.371608874354e+00 -9.988792114902e+01 0.0 
0.0 0.0 -4.638634298963e+01 
-6.554971713753e+01 2.963158520355e+00 0.0 
2.963158520355e+00 -1.187822931984e+02 0.0 
0.0 0.0 -5.489960310079e+01 
-2.533271418818e+01 4.262708111809e+00 0.0 
4.262708111809e+00 -6.758753486250e+01 0.0 
0.0 0.0 -2.747607471520e+01 
-2.205945340176e+01 4.166618758637e+00 0.0 
4.166618758637e+00 -4.861550572398e+01 0.0 
0.0 0.0 -2.080248773772e+01 
-8.998341515566e+01 3.708559654230e+00 0.0 
3.708559654230e+00 -1.929689340617e+02 0.0 
0.0 0.0 -8.448570476520e+01 
-5.128367520241e+01 -1.104977935750e+00 0.0 
-1.104977935750e+00 -1.411539437509e+02 0.0 
0.0 0.0 -5.733128568599e+01 
-5.528219176943e+01 -8.396367447261e-01 0.0 
-8.396367447261e-01 -1.518534336384e+02 0.0 
0.0 0.0 -6.174068762236e+01 
-3.314167765149e+01 -2.673693882378e+00 0.0 
-2.673693882378e+00 -9.070632890759e+01 0.0 
0.0 0.0 -3.675440196772e+01 
-3.922195797424e+01 -2.415950170724e+00 0.0 
-2.415950170724e+00 -1.100946456958e+02 0.0 
0.0 0.0 -4.439498110102e+01 
-8.196416868892e+01 5.828405431312e-01 0.0 
5.828405431312e-01 -2.211975087374e+02 0.0 
0.0 0.0 -9.054850322790e+01 
-7.792466912629e+01 4.850184240526e-01 0.0 
4.850184240526e-01 -2.125190504053e+02 0.0 
0.0 0.0 -8.673311585946e+01 
-9.550039797480e+01 2.179690620625e+01 0.0 
2.179690620625e+01 -2.102347653743e+02 0.0 
0.0 0.0 -9.132054900473e+01 
-9.916062841628e+01 2.151724774405e+01 0.0 
2.151724774405e+01 -2.154365668886e+02 0.0 
0.0 0.0 -9.397915859147e+01 
-8.739643138380e+01 2.189193633343e+01 0.0 
2.189193633343e+01 -2.009078031506e+02 0.0 
0.0 0.0 -8.609127036031e+01 
-9.555524725099e+01 8.255542170193e+00 0.0 
8.255542170193e+00 -2.604978817733e+02 0.0 
0.0 0.0 -1.064159387073e+02 
-8.682279849964e+01 7.105814902684e+00 0.0 
7.105814902684e+00 -2.420742357063e+02 0.0 
0.0 0.0 -9.826911026179e+01 
-8.212295778448e+01 7.551238990889e+00 0.0 
7.551238990889e+00 -2.320884055828e+02 0.0 
0.0 0.0 -9.386340901018e+01 
-9.688289519527e+01 5.838647599033e+00 0.0 
5.838647599033e+00 -2.113900320974e+02 0.0 
0.0 0.0 -9.208187818779e+01 
-1.006981776151e+02 5.438328799305e+00 0.0 
5.438328799305e+00 -2.247115939948e+02 0.0 
0.0 0.0 -9.722293148297e+01 
-5.111154703060e+01 1.074663057786e-01 0.0 
1.074663057786e-01 -1.516672217941e+02 0.0 
0.0 0.0 -6.043363064742e+01 
-4.755019709962e+01 2.874073990071e-01 0.0 
2.874073990071e-01 -1.427382011764e+02 0.0 
0.0 0.0 -5.668651948281e+01 
-5.174801268276e+01 -8.572352647830e-01 0.0 
-8.572352647830e-01 -1.503930781344e+02 0.0 
0.0 0.0 -6.024232724516e+01 
-1.017223132084e+02 8.974097590374e+00 0.0 
8.974097590374e+00 -2.211342814848e+02 0.0 
0.0 0.0 -9.645697840797e+01 
-1.451557403255e+02 2.612516904906e+00 0.0 
2.612516904906e+00 -3.515601641261e+02 0.0 
0.0 0.0 -1.486147713355e+02 
-1.405030803590e+02 3.248497617778e+00 0.0 
3.248497617778e+00 -3.430498090868e+02 0.0 
0.0 0.0 -1.446658668338e+02 
-1.971107427390e+01 -2.016006457312e+00 0.0 
-2.016006457312e+00 -4.791028506504e+01 0.0 
0.0 0.0 -1.988640780168e+01 
-2.315196006751e+01 -2.398989251896e+00 0.0 
-2.398989251896e+00 -5.866797807238e+01 0.0 
0.0 0.0 -2.414598144197e+01 
-2.379776492816e+01 1.028167351159e+01 0.0 
1.028167351159e+01 -5.232552761444e+01 0.0 
0.0 0.0 -2.243698776278e+01 
-2.256914417667e+01 8.217822257690e+00 0.0 
8.217822257690e+00 -4.809406627636e+01 0.0 
0.0 0.0 -2.079896313591e+01 
-1.039621434808e+02 1.338229591925e+01 0.0 
1.338229591925e+01 -2.223067209467e+02 0.0 
0.0 0.0 -9.748065932826e+01 
-1.022184762070e+02 1.399981907676e+01 0.0 
1.399981907676e+01 -2.138413789782e+02 0.0 
0.0 0.0 -9.441795655557e+01 
-1.066801918389e+02 1.292977087685e+01 0.0 
1.292977087685e+01 -2.336093860249e+02 0.0 
0.0 0.0 -1.016868733591e+02 
-3.870116256046e+01 -6.558630587619e-01 0.0 
-6.558630587619e-01 -1.055794918730e+02 0.0 
0.0 0.0 -4.288419633005e+01 
-9.986564032843e+01 1.999984737680e+01 0.0 
1.999984737680e+01 -2.529848919129e+02 0.0 
0.0 0.0 -1.054551596724e+02 
-1.347215162113e+02 1.294844787545e+01 0.0 
1.294844787545e+01 -3.339454471646e+02 0.0 
0.0 0.0 -1.402000890128e+02 
-1.288392265260e+02 1.348990561147e+01 0.0 
1.348990561147e+01 -3.236462455317e+02 0.0 
0.0 0.0 -1.353456416173e+02 
-1.417890233719e+02 1.252293910398e+01 0.0 
1.252293910398e+01 -3.464426099666e+02 0.0 
0.0 0.0 -1.460694900015e+02 
-1.145130483342e+02 2.074122568392e+01 0.0 
2.074122568392e+01 -2.855248669535e+02 0.0 
0.0 0.0 -1.196113745863e+02 
-1.238911657595e+02 2.184586345521e+01 0.0 
2.184586345521e+01 -3.036449187394e+02 0.0 
0.0 0.0 -1.278608253497e+02 
-1.221774971597e+02 2.321106791396e+01 0.0 
2.321106791396e+01 -2.952939758992e+02 0.0 
0.0 0.0 -1.248414419177e+02 
-2.035561612941e+01 3.336421627895e-01 0.0 
3.336421627895e-01 -3.433758227416e+01 0.0 
0.0 0.0 -1.600795952107e+01 
-9.435489602550e+01 1.157697831610e+00 0.0 
1.157697831610e+00 -2.098451544276e+02 0.0 
0.0 0.0 -9.086001513592e+01 
-5.547943640638e+01 9.112678414185e-01 0.0 
9.112678414185e-01 -1.011670159823e+02 0.0 
0.0 0.0 -4.659393571662e+01 
-2.041086770723e+01 -4.020274962030e-01 0.0 
-4.020274962030e-01 -2.732376676022e+01 0.0 
0.0 0.0 -1.406078113119e+01 
-5.134150571980e+01 5.354731813893e-01 0.0 
5.354731813893e-01 -9.224941177616e+01 0.0 
0.0 0.0 -4.267727524879e+01 
-5.568571667853e+01 6.666287438917e-01 0.0 
6.666287438917e-01 -1.035960398893e+02 0.0 
0.0 0.0 -4.738452697036e+01 
-4.671539324827e+01 2.824779004871e-01 0.0 
2.824779004871e-01 -8.216896431766e+01 0.0 
0.0 0.0 -3.826530726978e+01 
-3.168495259479e+01 -6.684164439959e-01 0.0 
-6.684164439959e-01 -8.612962168735e+01 0.0 
0.0 0.0 -3.494437228464e+01 
-5.569172137652e+01 1.789934552941e+00 0.0 
1.789934552941e+00 -9.572077103858e+01 0.0 
0.0 0.0 -4.502374772453e+01 
-6.198339166696e+01 3.001035471133e+00 0.0 
3.001035471133e+00 -1.082535483236e+02 0.0 
0.0 0.0 -5.067108199718e+01 
-1.664435642900e+01 -1.936854965988e+00 0.0 
-1.936854965988e+00 -3.620529790567e+01 0.0 
0.0 0.0 -1.556550955918e+01 
-1.038959076085e+02 8.345687149061e+00 0.0 
8.345687149061e+00 -2.311851433792e+02 0.0 
0.0 0.0 -1.001243152963e+02 
-1.585728405209e+01 -1.568114958918e+00 0.0 
-1.568114958918e+00 -3.765363738293e+01 0.0 
0.0 0.0 -1.565184557336e+01 
-1.827942677889e+01 -1.510153691579e+00 0.0 
-1.510153691579e+00 -4.560462969061e+01 0.0 
0.0 0.0 -1.876521694085e+01 
-1.414550446369e+02 8.100475100457e+00 0.0 
8.100475100457e+00 -3.461897474019e+02 0.0 
0.0 0.0 -1.458934376116e+02 
-1.362512011923e+02 6.843041631710e+00 0.0 
6.843041631710e+00 -3.367188277602e+02 0.0 
0.0 0.0 -1.414910086858e+02 
-1.462635351845e+02 7.528930624411e+00 0.0 
7.528930624411e+00 -3.545593749225e+02 0.0 
0.0 0.0 -1.498468730321e+02 
-1.410028228339e+02 6.272277482325e+00 0.0 
6.272277482325e+00 -3.449214670520e+02 0.0 
0.0 0.0 -1.453772869658e+02 
-1.312015629211e+02 5.700303686362e+00 0.0 
5.700303686362e+00 -3.270319664734e+02 0.0 
0.0 0.0 -1.370700588184e+02 
-1.362821023192e+02 5.224002291986e+00 0.0 
5.224002291986e+00 -3.361103068426e+02 0.0 
0.0 0.0 -1.413177227486e+02 
-5.117577327315e+01 8.049626339632e-01 0.0 
8.049626339632e-01 -9.003542698619e+01 0.0 
0.0 0.0 -4.196336007780e+01 
-1.475928061997e+02 5.881378325627e+00 0.0 
5.881378325627e+00 -3.564606743923e+02 0.0 
0.0 0.0 -1.508160441776e+02 
-1.415482495206e+02 4.686972520851e+00 0.0 
4.686972520851e+00 -3.453242490355e+02 0.0 
0.0 0.0 -1.456617495668e+02 
-1.526084303768e+02 5.209778520798e+00 0.0 
5.209778520798e+00 -3.657399924685e+02 0.0 
0.0 0.0 -1.551045268536e+02 
-4.116371389091e+01 1.631302279572e+01 0.0 
1.631302279572e+01 -5.578348063304e+01 0.0 
0.0 0.0 -2.868415835718e+01 
-3.316474727244e+01 1.756510621891e+01 0.0 
1.756510621891e+01 -8.064309931773e+01 0.0 
0.0 0.0 -3.374235397705e+01 
-3.059741012931e+01 1.802227627529e+01 0.0 
1.802227627529e+01 -6.465575571142e+01 0.0 
0.0 0.0 -2.817594975222e+01 
-2.703298346349e+01 1.732318142251e+01 0.0 
1.732318142251e+01 -4.527352848101e+01 0.0 
0.0 0.0 -2.129195358335e+01 
-1.186912840957e+02 2.458978385762e+01 0.0 
2.458978385762e+01 -2.719706960704e+02 0.0 
0.0 0.0 -1.167985940498e+02 
-1.132613153347e+02 2.315177119890e+01 0.0 
2.315177119890e+01 -2.544953931375e+02 0.0 
0.0 0.0 -1.099270125416e+02 
-1.253130606481e+02 1.030492304785e+00 0.0 
1.030492304785e+00 -3.130664929681e+02 0.0 
0.0 0.0 -1.311138660849e+02 
-1.158613610207e+02 8.361144034588e-01 0.0 
8.361144034588e-01 -2.938980166144e+02 0.0 
0.0 0.0 -1.225278132905e+02 
-5.102757289935e+01 3.147703580183e-01 0.0 
3.147703580183e-01 -9.336693198352e+01 0.0 
0.0 0.0 -4.291835146486e+01 
-5.033538707283e+01 2.553237809210e-01 0.0 
2.553237809210e-01 -9.233315212348e+01 0.0 
0.0 0.0 -4.240056175889e+01 
-5.772930010183e+01 3.633158049065e-01 0.0 
3.633158049065e-01 -1.102113651709e+02 0.0 
0.0 0.0 -4.998219958183e+01 
-5.649607023609e+01 3.548919060582e-01 0.0 
3.548919060582e-01 -1.078000164637e+02 0.0 
0.0 0.0 -4.888882600994e+01 
-6.375802769754e+01 4.780818839231e-01 0.0 
4.780818839231e-01 -1.258214193968e+02 0.0 
0.0 0.0 -5.647383412829e+01 
-6.256501714621e+01 4.300327807466e-01 0.0 
4.300327807466e-01 -1.230896385215e+02 0.0 
0.0 0.0 -5.529639670032e+01 
-6.986135940167e+01 7.866972978693e-01 0.0 
7.866972978693e-01 -1.415277749975e+02 0.0 
0.0 0.0 -6.301674031974e+01 
-1.257673310620e+02 2.461424777664e+01 0.0 
2.461424777664e+01 -3.001827051180e+02 0.0 
0.0 0.0 -1.273850108540e+02 
-2.536021409004e+01 1.536164167093e+01 0.0 
1.536164167093e+01 -4.410589227014e+01 0.0 
0.0 0.0 -2.043983190805e+01 
-4.859395598657e+01 1.185506059058e+01 0.0 
1.185506059058e+01 -6.671794125890e+01 0.0 
0.0 0.0 -3.419356917364e+01 
-1.313165522330e+02 1.964691767017e+01 0.0 
1.964691767017e+01 -3.227471320650e+02 0.0 
0.0 0.0 -1.358191052894e+02 
-1.259216683575e+02 1.777981561324e+01 0.0 
1.777981561324e+01 -3.147761019742e+02 0.0 
0.0 0.0 -1.318093310995e+02 
-4.142832303479e+01 2.012811569778e+01 0.0 
2.012811569778e+01 -7.165281778719e+01 0.0 
0.0 0.0 -3.352434224659e+01 
-3.458009598233e+01 1.907676798522e+01 0.0 
1.907676798522e+01 -5.192655854695e+01 0.0 
0.0 0.0 -2.555199635878e+01 
-1.427065490830e+02 1.016661909526e+01 0.0 
1.016661909526e+01 -3.485217214239e+02 0.0 
0.0 0.0 -1.469684811521e+02 
-4.201698444141e+01 1.401416014925e+01 0.0 
1.401416014925e+01 -1.230834658559e+02 0.0 
0.0 0.0 -4.913013508918e+01 
-1.078445227708e+02 1.006012546976e+01 0.0 
1.006012546976e+01 -2.442150656605e+02 0.0 
0.0 0.0 -1.052178765294e+02 
-1.777169357233e+01 3.718101777012e+00 0.0 
3.718101777012e+00 -1.351481241728e+01 0.0 
0.0 0.0 -9.347657375984e+00 
-1.982318826299e+01 3.348985728517e+00 0.0 
3.348985728517e+00 -2.968134183435e+01 0.0 
0.0 0.0 -1.456365368404e+01 
-4.490826553149e+01 1.593179395988e+01 0.0 
1.593179395988e+01 -1.272258841753e+02 0.0 
0.0 0.0 -5.124024491204e+01 
-4.914285164332e+01 2.069922257477e+01 0.0 
2.069922257477e+01 -9.148367780879e+01 0.0 
0.0 0.0 -4.178795883563e+01 
-3.548312735913e+01 1.883504390042e+01 0.0 
1.883504390042e+01 -8.284577207239e+01 0.0 
0.0 0.0 -3.509866982946e+01 
-3.283202798686e+01 1.929226347617e+01 0.0 
1.929226347617e+01 -6.718894985034e+01 0.0 
0.0 0.0 -2.960629335116e+01 
-1.048125318766e+02 9.442627668645e+00 0.0 
9.442627668645e+00 -2.791831308266e+02 0.0 
0.0 0.0 -1.147986988110e+02 
-2.139122469370e+01 -2.485392401149e+00 0.0 
-2.485392401149e+00 -5.095379682209e+01 0.0 
0.0 0.0 -2.130350645474e+01 
-2.513648617215e+01 1.225926077925e+01 0.0 
1.225926077925e+01 -5.598945582334e+01 0.0 
0.0 0.0 -2.393778259864e+01 
-7.109818292737e+01 9.127940520806e-01 0.0 
9.127940520806e-01 -1.437991562669e+02 0.0 
0.0 0.0 -6.406920175829e+01 
-2.330209700255e+01 1.251006844704e+01 0.0 
1.251006844704e+01 -4.001718872687e+01 0.0 
0.0 0.0 -1.859578571883e+01 
-1.209294362561e+02 4.601238494473e-01 0.0 
4.601238494473e-01 -3.040358221111e+02 0.0 
0.0 0.0 -1.270895775102e+02 
-4.558729680334e+01 1.275188376582e+01 0.0 
1.275188376582e+01 -1.362869045371e+02 0.0 
0.0 0.0 -5.416226040214e+01 
-5.609483654516e+01 2.146573388279e+01 0.0 
2.146573388279e+01 -1.249734258552e+02 0.0 
0.0 0.0 -5.392047872010e+01 
-2.788598363299e+01 1.237002830800e+01 0.0 
1.237002830800e+01 -7.225228601993e+01 0.0 
0.0 0.0 -2.964148089588e+01 
-3.613990014844e+01 1.661479480406e+01 0.0 
1.661479480406e+01 -9.610245043396e+01 0.0 
0.0 0.0 -3.927270517472e+01 
-7.329524513703e+01 1.566371065539e+01 0.0 
1.566371065539e+01 -1.306777337043e+02 0.0 
0.0 0.0 -6.079189365241e+01 
-6.426209686191e+01 1.043901470701e+01 0.0 
1.043901470701e+01 -1.035941936941e+02 0.0 
0.0 0.0 -4.995688716681e+01 
-6.086923845232e+01 1.176174043478e+01 0.0 
1.176174043478e+01 -9.561875028843e+01 0.0 
0.0 0.0 -4.654639662222e+01 
-4.927544995775e+01 1.149320323248e+01 0.0 
1.149320323248e+01 -1.487445431337e+02 0.0 
0.0 0.0 -5.900599792743e+01 
-3.512923830822e+01 1.999601941077e+01 0.0 
1.999601941077e+01 -6.873099883600e+01 0.0 
0.0 0.0 -3.075807114327e+01 
-2.937043766249e+01 1.875196323027e+01 0.0 
1.875196323027e+01 -4.777653902980e+01 0.0 
0.0 0.0 -2.274409300769e+01 
-6.906919041616e+01 2.020692841930e+01 0.0 
2.020692841930e+01 -1.349929928979e+02 0.0 
0.0 0.0 -6.081865499421e+01 
-9.589661618702e+01 1.251517753810e+01 0.0 
1.251517753810e+01 -1.928574223202e+02 0.0 
0.0 0.0 -8.622621155218e+01 
-9.979353017681e+01 1.446019216373e+01 0.0 
1.446019216373e+01 -2.048150275104e+02 0.0 
0.0 0.0 -9.098256730617e+01 
-1.056739538221e+02 1.587052383328e+01 0.0 
1.587052383328e+01 -2.251667555496e+02 0.0 
0.0 0.0 -9.885221281150e+01 
-1.036753243577e+02 1.641953950806e+01 0.0 
1.641953950806e+01 -2.172630881423e+02 0.0 
0.0 0.0 -9.588152374999e+01 
-9.740113803912e+01 1.507959659437e+01 0.0 
1.507959659437e+01 -1.964095783519e+02 0.0 
0.0 0.0 -8.774321491730e+01 
-1.013140777121e+02 1.704855985648e+01 0.0 
1.704855985648e+01 -2.092175660386e+02 0.0 
0.0 0.0 -9.275949312522e+01 
-1.072547165911e+02 1.824734636451e+01 0.0 
1.824734636451e+01 -2.299072866253e+02 0.0 
0.0 0.0 -1.007486009649e+02 
-1.053854339650e+02 1.890081683398e+01 0.0 
1.890081683398e+01 -2.231098052375e+02 0.0 
0.0 0.0 -9.814857176074e+01 
-1.123341126438e+02 2.050156291017e+01 0.0 
2.050156291017e+01 -2.471986599742e+02 0.0 
0.0 0.0 -1.074598317854e+02 
-1.090550345216e+02 2.071312584662e+01 0.0 
2.071312584662e+01 -2.367008717644e+02 0.0 
0.0 0.0 -1.033267718858e+02 
-1.022794744908e+02 1.938986936973e+01 0.0 
1.938986936973e+01 -2.151685169511e+02 0.0 
0.0 0.0 -9.483439743258e+01 
-1.057727044278e+02 2.088057638237e+01 0.0 
2.088057638237e+01 -2.285109776223e+02 0.0 
0.0 0.0 -9.988510461502e+01 
-1.122346677000e+02 2.217164420113e+01 0.0 
2.217164420113e+01 -2.484235807351e+02 0.0 
0.0 0.0 -1.077974745305e+02 
-9.899655695926e+01 1.993380095993e+01 0.0 
1.993380095993e+01 -2.076814378686e+02 0.0 
0.0 0.0 -9.160339844835e+01 
-1.359364189888e+02 2.136738735149e+01 0.0 
2.136738735149e+01 -3.289005843642e+02 0.0 
0.0 0.0 -1.390511010059e+02 
-5.174967067826e+01 1.653158270107e+01 0.0 
1.653158270107e+01 -1.451514544821e+02 0.0 
0.0 0.0 -5.867033754812e+01 
-2.157298030667e+01 1.845201940025e+00 0.0 
1.845201940025e+00 -4.253563743581e+01 0.0 
0.0 0.0 -1.883258532274e+01 
-2.061339758262e+01 5.483205027008e+00 0.0 
5.483205027008e+00 -3.633627135277e+01 0.0 
0.0 0.0 -1.668490068062e+01 
-6.034764700556e+01 2.150873859727e+01 0.0 
2.150873859727e+01 -1.278368007541e+02 0.0 
0.0 0.0 -5.605533432791e+01 
-1.168398811850e+02 2.123632212820e+01 0.0 
2.123632212820e+01 -2.655307985537e+02 0.0 
0.0 0.0 -1.143112039216e+02 
-1.139077952593e+02 1.782816417414e+01 0.0 
1.782816417414e+01 -2.576787014481e+02 0.0 
0.0 0.0 -1.110759490122e+02 
-3.731786011770e+01 9.838432445628e+00 0.0 
9.838432445628e+00 -1.140561047815e+02 0.0 
0.0 0.0 -4.501218946975e+01 
-1.265954398965e+02 2.647968614624e+01 0.0 
2.647968614624e+01 -2.941937693238e+02 0.0 
0.0 0.0 -1.258367627661e+02 
-6.546875873111e+01 1.468723012187e+01 0.0 
1.468723012187e+01 -1.095064918302e+02 0.0 
0.0 0.0 -5.209257516838e+01 
-2.900269001216e+01 4.820748374763e+00 0.0 
4.820748374763e+00 -8.491340015492e+01 0.0 
0.0 0.0 -3.377482705012e+01 
-1.308224823071e+02 2.681409156504e+01 0.0 
2.681409156504e+01 -3.070503994433e+02 0.0 
0.0 0.0 -1.309618645251e+02 
-9.337636301586e+01 1.306089612151e+01 0.0 
1.306089612151e+01 -1.839119029945e+02 0.0 
0.0 0.0 -8.278647980312e+01 
-9.058542505482e+01 1.372084942443e+01 0.0 
1.372084942443e+01 -1.750948705092e+02 0.0 
0.0 0.0 -7.930408866921e+01 
-8.637073290304e+01 1.163180065224e+01 0.0 
1.163180065224e+01 -1.628039939257e+02 0.0 
0.0 0.0 -7.435241804863e+01 
-1.117729881814e+02 1.483651428743e+01 0.0 
1.483651428743e+01 -2.531704958970e+02 0.0 
0.0 0.0 -1.090830452235e+02 
-7.039998486604e+01 4.175366122149e+00 0.0 
4.175366122149e+00 -1.287151180733e+02 0.0 
0.0 0.0 -5.933453088180e+01 
-1.391529675179e+02 2.463560178855e+01 0.0 
2.463560178855e+01 -3.308138013016e+02 0.0 
0.0 0.0 -1.405900306458e+02 
-8.396156218050e+01 1.406185080490e+01 0.0 
1.406185080490e+01 -2.316343531849e+02 0.0 
0.0 0.0 -9.427877460962e+01 
-7.928725535969e+01 1.484830046395e+01 0.0 
1.484830046395e+01 -2.193309120959e+02 0.0 
0.0 0.0 -8.918545023668e+01 
-7.112875389096e+01 1.399512185521e+01 0.0 
1.399512185521e+01 -2.014382188575e+02 0.0 
0.0 0.0 -8.137009182454e+01 
-9.852014860174e+01 1.764590392405e+01 0.0 
1.764590392405e+01 -2.013281230399e+02 0.0 
0.0 0.0 -8.955448149250e+01 
-1.455658628887e+02 1.961930030365e+01 0.0 
1.961930030365e+01 -3.486304768200e+02 0.0 
0.0 0.0 -1.478589019126e+02 
-1.372720022140e+02 1.771897816432e+01 0.0 
1.771897816432e+01 -3.358832199274e+02 0.0 
0.0 0.0 -1.415465666424e+02 
-1.387408913127e+02 1.652949934495e+01 0.0 
1.652949934495e+01 -3.391887484305e+02 0.0 
0.0 0.0 -1.429788919230e+02 
-1.284035074856e+02 1.585038766545e+01 0.0 
1.585038766545e+01 -3.213987548880e+02 0.0 
0.0 0.0 -1.345406787121e+02 
-1.486554361007e+02 1.689186060118e+01 0.0 
1.689186060118e+01 -3.558348812746e+02 0.0 
0.0 0.0 -1.509470952126e+02 
-1.210162380947e+02 2.406337687542e+01 0.0 
2.406337687542e+01 -2.774235091375e+02 0.0 
0.0 0.0 -1.191319241696e+02 
-1.229839004851e+02 2.518312937740e+01 0.0 
2.518312937740e+01 -2.834880239823e+02 0.0 
0.0 0.0 -1.215415773402e+02 
-4.167087297780e+01 -6.277219471437e-01 0.0 
-6.277219471437e-01 -1.243342771725e+02 0.0 
0.0 0.0 -4.940154504508e+01 
-4.409749959675e+01 6.160950526778e-01 0.0 
6.160950526778e-01 -1.336953685693e+02 0.0 
0.0 0.0 -5.293786044980e+01 
-5.012343780795e+01 1.614388830326e+00 0.0 
1.614388830326e+00 -1.517638762120e+02 0.0 
0.0 0.0 -6.016619420598e+01 
-4.649815859947e+01 2.065281962881e+00 0.0 
2.065281962881e+00 -1.423850808979e+02 0.0 
0.0 0.0 -5.626497184921e+01 
-4.070622050077e+01 1.080709414172e+00 0.0 
1.080709414172e+00 -1.242959920790e+02 0.0 
0.0 0.0 -4.910066377392e+01 
-4.296098385543e+01 2.638621195823e+00 0.0 
2.638621195823e+00 -1.327046136356e+02 0.0 
0.0 0.0 -5.229967924732e+01 
-4.892357409967e+01 3.690207404701e+00 0.0 
3.690207404701e+00 -1.504891702337e+02 0.0 
0.0 0.0 -5.942382330001e+01 
-3.953042967145e+01 3.386278269326e+00 0.0 
3.386278269326e+00 -1.227425721429e+02 0.0 
0.0 0.0 -4.828190054429e+01 
-1.064783605859e+02 2.225585282962e+01 0.0 
2.225585282962e+01 -2.353779800473e+02 0.0 
0.0 0.0 -1.021569021900e+02 
-1.514288441458e+02 1.416322947573e+01 0.0 
1.416322947573e+01 -3.619429573614e+02 0.0 
0.0 0.0 -1.536115404522e+02 
-9.283235246805e+01 5.130900433462e+00 0.0 
5.130900433462e+00 -2.531545734922e+02 0.0 
0.0 0.0 -1.033960777881e+02 
-8.798273622399e+01 5.357986391370e+00 0.0 
5.357986391370e+00 -2.434456002493e+02 0.0 
0.0 0.0 -9.902850094200e+01 
-7.972647036589e+01 4.239179376168e+00 0.0 
4.239179376168e+00 -2.249193133882e+02 0.0 
0.0 0.0 -9.099373512623e+01 
-7.013602254038e+01 -1.373131826945e-01 0.0 
-1.373131826945e-01 -1.932358015808e+02 0.0 
0.0 0.0 -7.861154723634e+01 
-7.390001857154e+01 3.662621907213e-01 0.0 
3.662621907213e-01 -2.037623614173e+02 0.0 
0.0 0.0 -8.289871399665e+01 
-8.181759811088e+01 1.087791164749e+00 0.0 
1.087791164749e+00 -2.229206601043e+02 0.0 
0.0 0.0 -9.102147746454e+01 
-6.632152027005e+01 -4.918011952928e-01 0.0 
-4.918011952928e-01 -1.825274786486e+02 0.0 
0.0 0.0 -7.425469967559e+01 
-9.098749530307e+01 2.089231492251e+01 0.0 
2.089231492251e+01 -2.255642986260e+02 0.0 
0.0 0.0 -9.456553817871e+01 
-1.524226111615e+02 1.293115756144e+01 0.0 
1.293115756144e+01 -3.640112650144e+02 0.0 
0.0 0.0 -1.545301628528e+02 
-8.580615687742e+01 9.212012297740e+00 0.0 
9.212012297740e+00 -2.400165020779e+02 0.0 
0.0 0.0 -9.734679768659e+01 
-6.988631440465e+01 2.309190304983e-01 0.0 
2.309190304983e-01 -1.949253135325e+02 0.0 
0.0 0.0 -7.904348838116e+01 
-4.924651782685e+01 2.021679687122e+00 0.0 
2.021679687122e+00 -7.725889407823e+01 0.0 
0.0 0.0 -3.755162357153e+01 
-5.826001051653e+01 3.635024832365e+00 0.0 
3.635024832365e+00 -9.543042873233e+01 0.0 
0.0 0.0 -4.570713177466e+01 
-6.009661711137e+01 5.026300473291e+00 0.0 
5.026300473291e+00 -9.690018741158e+01 0.0 
0.0 0.0 -4.669904135689e+01 
-6.784397649513e+01 5.910197090396e+00 0.0 
5.910197090396e+00 -1.158810701342e+02 0.0 
0.0 0.0 -5.471751398881e+01 
-5.773808520110e+01 2.997588393918e+00 0.0 
2.997588393918e+00 -9.641910381630e+01 0.0 
0.0 0.0 -4.584715670522e+01 
-8.597688133965e+01 6.517243037842e-01 0.0 
6.517243037842e-01 -2.298531850004e+02 0.0 
0.0 0.0 -9.434901990202e+01 
-8.996975750192e+01 6.665894269435e-01 0.0 
6.665894269435e-01 -2.384535536689e+02 0.0 
0.0 0.0 -9.812699335124e+01 
-8.571625947622e+01 3.146347538105e-01 0.0 
3.146347538105e-01 -2.280010275352e+02 0.0 
0.0 0.0 -9.371518610341e+01 
-9.397679483803e+01 6.233226188719e-01 0.0 
6.233226188719e-01 -2.469883916609e+02 0.0 
0.0 0.0 -1.018895559497e+02 
-8.942898794222e+01 3.438851727087e-01 0.0 
3.438851727087e-01 -2.360998584398e+02 0.0 
0.0 0.0 -9.725865391459e+01 
-8.193672782561e+01 1.488900940724e-01 0.0 
1.488900940724e-01 -2.184157848137e+02 0.0 
0.0 0.0 -8.970575379178e+01 
-9.784703753095e+01 5.264356266601e-01 0.0 
5.264356266601e-01 -2.551230318841e+02 0.0 
0.0 0.0 -1.054910208245e+02 
-9.252403380127e+01 1.834770104165e-01 0.0 
1.834770104165e-01 -2.429295579166e+02 0.0 
0.0 0.0 -1.002360775154e+02 
-4.711060179562e+01 1.009404430579e+00 0.0 
1.009404430579e+00 -7.621737107465e+01 0.0 
0.0 0.0 -3.659839186108e+01 
-1.782576622014e+01 -1.231045756192e+00 0.0 
-1.231045756192e+00 -1.714767655816e+01 0.0 
0.0 0.0 -1.048189263969e+01 
-1.981141005702e+01 -2.099284845384e+00 0.0 
-2.099284845384e+00 -3.380571144923e+01 0.0 
0.0 0.0 -1.581307927737e+01 
-1.919350652072e+01 -2.131566294252e+00 0.0 
-2.131566294252e+00 -3.347844609221e+01 0.0 
0.0 0.0 -1.553013524706e+01 
-2.255441716911e+01 -2.520849922299e+00 0.0 
-2.520849922299e+00 -4.932519571280e+01 0.0 
0.0 0.0 -2.116388386457e+01 
-2.282446995567e+01 -2.191210022261e+00 0.0 
-2.191210022261e+00 -5.030270075697e+01 0.0 
0.0 0.0 -2.153815121379e+01 
-2.647241356962e+01 -2.317210740882e+00 0.0 
-2.317210740882e+00 -6.726842678201e+01 0.0 
0.0 0.0 -2.772225210549e+01 
-2.585503880343e+01 -1.727544025082e+00 0.0 
-1.727544025082e+00 -6.447680029430e+01 0.0 
0.0 0.0 -2.669955172932e+01 
-2.030033204130e+01 -1.741247811628e+00 0.0 
-1.741247811628e+00 -3.368682036944e+01 0.0 
0.0 0.0 -1.593657207361e+01 
-1.541800161507e+01 -1.330574988923e+00 0.0 
-1.330574988923e+00 -1.699769796957e+01 0.0 
0.0 0.0 -9.715415778646e+00 
-1.829315162985e+01 -2.167475516087e+00 0.0 
-2.167475516087e+00 -3.350919255355e+01 0.0 
0.0 0.0 -1.527746360272e+01 
-1.407213543575e+01 -1.292099723251e+00 0.0 
-1.292099723251e+00 -1.684300562295e+01 0.0 
0.0 0.0 -9.269743642756e+00 
-1.737531706773e+01 -2.138598289390e+00 0.0 
-2.138598289390e+00 -3.307602814393e+01 0.0 
0.0 0.0 -1.487025300723e+01 
-2.237742932466e+01 -2.673320764982e+00 0.0 
-2.673320764982e+00 -5.197343328005e+01 0.0 
0.0 0.0 -2.190525878141e+01 
-2.947124235224e+01 -2.583317694855e+00 0.0 
-2.583317694855e+00 -7.884139866151e+01 0.0 
0.0 0.0 -3.209379230412e+01 
-1.560790585168e+02 2.900916346698e+00 0.0 
2.900916346698e+00 -3.713985406559e+02 0.0 
0.0 0.0 -1.578432797518e+02 
-6.988651740752e+01 -1.165747840353e-01 0.0 
-1.165747840353e-01 -1.885602198732e+02 0.0 
0.0 0.0 -7.713402118423e+01 
-6.601400040269e+01 -3.368788053550e-01 0.0 
-3.368788053550e-01 -1.790745559214e+02 0.0 
0.0 0.0 -7.312656689724e+01 
-5.885222401930e+01 -4.588402158007e-01 0.0 
-4.588402158007e-01 -1.601226818770e+02 0.0 
0.0 0.0 -6.529247176889e+01 
-6.258401055043e+01 -4.564544647177e-01 0.0 
-4.564544647177e-01 -1.703363742523e+02 0.0 
0.0 0.0 -6.947611544082e+01 
-7.278903791910e+01 -2.081851622060e-01 0.0 
-2.081851622060e-01 -1.963177160562e+02 0.0 
0.0 0.0 -8.033202619258e+01 
-5.494869178597e+01 -2.860165602242e-01 0.0 
-2.860165602242e-01 -1.496646713967e+02 0.0 
0.0 0.0 -6.098400895479e+01 
-5.230686397151e+01 -5.716022313531e-01 0.0 
-5.716022313531e-01 -1.426181974000e+02 0.0 
0.0 0.0 -5.807751841145e+01 
-6.574681030648e+00 -2.700624512116e-01 0.0 
-2.700624512116e-01 -1.720580208830e+01 0.0 
0.0 0.0 -7.122032265439e+00 
-1.243732935922e+01 -3.861613146481e-01 0.0 
-3.861613146481e-01 -3.382681078687e+01 0.0 
0.0 0.0 -1.358320231692e+01 
-1.177791291112e+01 -3.405339903274e-01 0.0 
-3.405339903274e-01 -3.217300585894e+01 0.0 
0.0 0.0 -1.281974241874e+01 
-1.842282559840e+01 -4.672415547411e-01 0.0 
-4.672415547411e-01 -5.064790380566e+01 0.0 
0.0 0.0 -2.032121882122e+01 
-1.866889670286e+01 -6.717857318065e-01 0.0 
-6.717857318065e-01 -5.030047540685e+01 0.0 
0.0 0.0 -2.029081163291e+01 
-1.292183794099e+01 -6.466948356780e-01 0.0 
-6.466948356780e-01 -3.413625281377e+01 0.0 
0.0 0.0 -1.384460877547e+01 
-1.318051252409e+01 -8.890288613706e-01 0.0 
-8.890288613706e-01 -3.413143336008e+01 0.0 
0.0 0.0 -1.392723785521e+01 
-7.427674207013e+00 -5.380665037747e-01 0.0 
-5.380665037747e-01 -1.706942253294e+01 0.0 
0.0 0.0 -7.343707626634e+00 
-1.348475003630e+01 -1.011860250285e+00 0.0 
-1.011860250285e+00 -3.399003273955e+01 0.0 
0.0 0.0 -1.400379970783e+01 
-1.935690340208e+01 -1.249230731933e+00 0.0 
-1.249230731933e+00 -5.109671756817e+01 0.0 
0.0 0.0 -2.073608629108e+01 
-7.882384040069e+00 -6.332056313203e-01 0.0 
-6.332056313203e-01 -1.648475920882e+01 0.0 
0.0 0.0 -7.321879994628e+00 
-7.945851439759e+01 5.026792285026e-01 0.0 
5.026792285026e-01 -1.678553158648e+02 0.0 
0.0 0.0 -7.379414907873e+01 
-8.337727801826e+01 9.541394530404e-01 0.0 
9.541394530404e-01 -1.787222619460e+02 0.0 
0.0 0.0 -7.822986198928e+01 
-1.535042195303e+02 1.040386119456e+01 0.0 
1.040386119456e+01 -3.666297434456e+02 0.0 
0.0 0.0 -1.556401888928e+02 
-4.649723577072e+01 6.356977186073e-01 0.0 
6.356977186073e-01 -7.800460629740e+01 0.0 
0.0 0.0 -3.695055262044e+01 
-1.181768376452e+01 -1.097978398375e+00 0.0 
-1.097978398375e+00 -1.712769098197e+01 0.0 
0.0 0.0 -8.667776067786e+00 
-1.043413778533e+02 3.472884093933e+00 0.0 
3.472884093933e+00 -2.389838162465e+02 0.0 
0.0 0.0 -1.025975582299e+02 
-1.066217319786e+02 6.523160605210e+00 0.0 
6.523160605210e+00 -2.436572501164e+02 0.0 
0.0 0.0 -1.046836946285e+02 
-1.062613799156e+02 5.423344166504e+00 0.0 
5.423344166504e+00 -2.434268463597e+02 0.0 
0.0 0.0 -1.045064678826e+02 
-1.405982908834e+02 5.979201123565e-01 0.0 
5.979201123565e-01 -3.426220842080e+02 0.0 
0.0 0.0 -1.445661125274e+02 
-1.455530227536e+02 1.286452405649e+00 0.0 
1.286452405649e+00 -3.519232581210e+02 0.0 
0.0 0.0 -1.488428842624e+02 
-1.040467460726e+02 1.914587668114e+00 0.0 
1.914587668114e+00 -2.391642608951e+02 0.0 
0.0 0.0 -1.025633020903e+02 
-4.503477730903e+01 -1.989939466616e+00 0.0 
-1.989939466616e+00 -1.260639421738e+02 0.0 
0.0 0.0 -5.092961584486e+01 
-1.096982046067e+02 1.781098090714e+01 0.0 
1.781098090714e+01 -2.375902781055e+02 0.0 
0.0 0.0 -1.037865448137e+02 
-9.322155972477e+01 3.378538662077e+00 0.0 
3.378538662077e+00 -2.038926766399e+02 0.0 
0.0 0.0 -8.873427090941e+01 
-2.688398785699e+01 6.388812902813e+00 0.0 
6.388812902813e+00 -7.460263783856e+01 0.0 
0.0 0.0 -3.004598770867e+01 
-4.248395285368e+01 -2.102462345538e+00 0.0 
-2.102462345538e+00 -1.212280566002e+02 0.0 
0.0 0.0 -4.871360283617e+01 
-1.114280175847e+02 1.153054551702e+00 0.0 
1.153054551702e+00 -2.849478761312e+02 0.0 
0.0 0.0 -1.185127681148e+02 
-9.856202688470e+01 2.550143476565e+00 0.0 
2.550143476565e+00 -2.608383249751e+02 0.0 
0.0 0.0 -1.074201055579e+02 
-1.307153020198e+02 2.859037265168e+00 0.0 
2.859037265168e+00 -3.245215092391e+02 0.0 
0.0 0.0 -1.361710433777e+02 
-1.028579969881e+02 1.580682002231e+00 0.0 
1.580682002231e+00 -2.677840834270e+02 0.0 
0.0 0.0 -1.107926241245e+02 
-1.214735151112e+02 3.654622537546e+00 0.0 
3.654622537546e+00 -3.073632490660e+02 0.0 
0.0 0.0 -1.282510292532e+02 
-1.393783774660e+02 1.486958245349e+01 0.0 
1.486958245349e+01 -3.414510245156e+02 0.0 
0.0 0.0 -1.438488205945e+02 
-2.945445264238e+01 -9.123811694146e-01 0.0 
-9.123811694146e-01 -7.952194157466e+01 0.0 
0.0 0.0 -3.229291826511e+01 
-6.835509968283e+01 2.259693763598e+00 0.0 
2.259693763598e+00 -1.310436532638e+02 0.0 
0.0 0.0 -5.941962588398e+01 
-6.382767453672e+01 1.117150419535e+00 0.0 
1.117150419535e+00 -1.235969974732e+02 0.0 
0.0 0.0 -5.582740160298e+01 
-8.298774604647e+01 3.036308105639e+00 0.0 
3.036308105639e+00 -1.728419374530e+02 0.0 
0.0 0.0 -7.634890504983e+01 
-4.789550420761e+01 -1.409543704161e+00 0.0 
-1.409543704161e+00 -1.323340092027e+02 0.0 
0.0 0.0 -5.366885402308e+01 
-7.796295931920e+01 7.131385542392e-02 0.0 
7.131385542392e-02 -2.094246629318e+02 0.0 
0.0 0.0 -8.581628667530e+01 
-3.105948110716e+01 -1.998140474280e+00 0.0 
-1.998140474280e+00 -8.433066802677e+01 0.0 
0.0 0.0 -3.421704474018e+01 
-1.232334274833e+02 2.536147712368e+01 0.0 
2.536147712368e+01 -2.885349792389e+02 0.0 
0.0 0.0 -1.231305220167e+02 
-6.125149433607e+01 2.002482900976e+01 0.0 
2.002482900976e+01 -1.146420358434e+02 0.0 
0.0 0.0 -5.236805905383e+01 
-7.626838953343e+01 2.982169674037e+00 0.0 
2.982169674037e+00 -2.157694733664e+02 0.0 
0.0 0.0 -8.721135886995e+01 
-6.262074107536e+01 -7.229190255626e-01 0.0 
-7.229190255626e-01 -1.737909888341e+02 0.0 
0.0 0.0 -7.052351897284e+01 
-4.852890859912e+01 -1.781599960004e+00 0.0 
-1.781599960004e+00 -1.371154780859e+02 0.0 
0.0 0.0 -5.529331600551e+01 
-3.948815354276e+01 -2.196416037085e+00 0.0 
-2.196416037085e+00 -1.128684166513e+02 0.0 
0.0 0.0 -4.530697105822e+01 
-5.535885276697e+01 1.818948313663e+01 0.0 
1.818948313663e+01 -1.492271920613e+02 0.0 
0.0 0.0 -6.097581344849e+01 
-7.347762061600e+01 9.511365691959e-01 0.0 
9.511365691959e-01 -2.051827204960e+02 0.0 
0.0 0.0 -8.319810233360e+01 
-1.116384654493e+02 5.622705092429e+00 0.0 
5.622705092429e+00 -2.905087388790e+02 0.0 
0.0 0.0 -1.202441612985e+02 
-8.637208514102e+01 2.849865124571e+00 0.0 
2.849865124571e+00 -1.837752569170e+02 0.0 
0.0 0.0 -8.064420261739e+01 
-1.041478075170e+01 -1.055354665012e+00 0.0 
-1.055354665012e+00 -1.907569324105e+01 0.0 
0.0 0.0 -8.732441028950e+00 
-1.161560473499e+02 6.878563589095e+00 0.0 
6.878563589095e+00 -2.999533609880e+02 0.0 
0.0 0.0 -1.244328225014e+02 
-8.961591457352e+01 2.717160323007e+00 0.0 
2.717160323007e+00 -2.431105291847e+02 0.0 
0.0 0.0 -9.941793312745e+01 
-7.383433361243e+01 4.190966916751e+00 0.0 
4.190966916751e+00 -1.393914286584e+02 0.0 
0.0 0.0 -6.356772868125e+01 
-1.069396881209e+02 1.547022151670e+01 0.0 
1.547022151670e+01 -2.797687969198e+02 0.0 
0.0 0.0 -1.156125455122e+02 
-2.923299222103e+01 -2.516890636539e+00 0.0 
-2.516890636539e+00 -7.744711910994e+01 0.0 
0.0 0.0 -3.160403339929e+01 
-8.756711257091e+01 5.181136844621e+00 0.0 
5.181136844621e+00 -1.808798001816e+02 0.0 
0.0 0.0 -8.013407382574e+01 
-1.022542165529e+02 1.090331096167e+01 0.0 
1.090331096167e+01 -2.202128066793e+02 0.0 
0.0 0.0 -9.634010696965e+01 
-6.701957489011e+01 4.323833118540e+00 0.0 
4.323833118540e+00 -1.182352722314e+02 0.0 
0.0 0.0 -5.517645413645e+01 
-2.452017128273e+01 -1.882892814764e+00 0.0 
-1.882892814764e+00 -6.471001627436e+01 0.0 
0.0 0.0 -2.636905626713e+01 
-6.000427646821e+01 1.430839297521e+00 0.0 
1.430839297521e+00 -1.108102541930e+02 0.0 
0.0 0.0 -5.084435919837e+01 
-1.359537968483e+02 1.070555539431e+01 0.0 
1.070555539431e+01 -3.364993744271e+02 0.0 
0.0 0.0 -1.413359513826e+02 
-9.174461387239e+01 1.061462471230e+01 0.0 
1.061462471230e+01 -1.812849083786e+02 0.0 
0.0 0.0 -8.150885667530e+01 
-4.412366667709e+01 -1.294216246321e+00 0.0 
-1.294216246321e+00 -1.212389550015e+02 0.0 
0.0 0.0 -4.920878650359e+01 
-7.300111791753e+01 8.706275957666e+00 0.0 
8.706275957666e+00 -2.114528492632e+02 0.0 
0.0 0.0 -8.493619015423e+01 
-5.957941982609e+01 2.116660235442e+01 0.0 
2.116660235442e+01 -1.408482244989e+02 0.0 
0.0 0.0 -5.972829329751e+01 
-4.646779908687e+01 6.632988355934e+00 0.0 
6.632988355934e+00 -6.223124327392e+01 0.0 
0.0 0.0 -3.220971270824e+01 
-9.637609192724e+01 4.237133209180e+00 0.0 
4.237133209180e+00 -2.127060449392e+02 0.0 
0.0 0.0 -9.232464105993e+01 
-7.058551527055e+01 1.664996605592e+01 0.0 
1.664996605592e+01 -1.938313143544e+02 0.0 
0.0 0.0 -7.892504888749e+01 
-1.176659491933e+02 1.440771953978e+01 0.0 
1.440771953978e+01 -3.022620545902e+02 0.0 
0.0 0.0 -1.255784011351e+02 
-8.963405718956e+01 1.092402895963e+01 0.0 
1.092402895963e+01 -2.475796960273e+02 0.0 
0.0 0.0 -1.007641259651e+02 
-4.741950311307e+01 -1.000136441061e+00 0.0 
-1.000136441061e+00 -1.300529778523e+02 0.0 
0.0 0.0 -5.284174428961e+01 
-1.262606863868e+02 6.129292392186e+00 0.0 
6.129292392186e+00 -3.182756060411e+02 0.0 
0.0 0.0 -1.329608877284e+02 
-6.763274043655e+01 1.216959565254e+01 0.0 
1.216959565254e+01 -1.957880403431e+02 0.0 
0.0 0.0 -7.862623423389e+01 
-9.438654243145e+01 6.170621439435e+00 0.0 
6.170621439435e+00 -2.012661799601e+02 0.0 
0.0 0.0 -8.829581671745e+01 
-9.536467923887e+01 2.222936231062e+01 0.0 
2.222936231062e+01 -2.201849167081e+02 0.0 
0.0 0.0 -9.426487878410e+01 
-5.412586484921e+01 7.336984869886e+00 0.0 
7.336984869886e+00 -1.651997964572e+02 0.0 
0.0 0.0 -6.539769839192e+01 
-9.271935615312e+01 8.190524948069e+00 0.0 
8.190524948069e+00 -1.901329293966e+02 0.0 
0.0 0.0 -8.445568566493e+01 
-7.519251117277e+01 4.494593940070e+00 0.0 
4.494593940070e+00 -2.153095089817e+02 0.0 
0.0 0.0 -8.675060604635e+01 
-1.113061201099e+02 1.714252713325e+01 0.0 
1.714252713325e+01 -2.863539843093e+02 0.0 
0.0 0.0 -1.188980313258e+02 
-5.690579610301e+01 2.095385031710e+01 0.0 
2.095385031710e+01 -1.112650032378e+02 0.0 
0.0 0.0 -5.005123980223e+01 
-7.947010229666e+01 2.170465051025e+01 0.0 
2.170465051025e+01 -1.817931674933e+02 0.0 
0.0 0.0 -7.797898093700e+01 
-8.822590651162e+01 1.988375543231e+01 0.0 
1.988375543231e+01 -1.806440596792e+02 0.0 
0.0 0.0 -8.026098985726e+01 
-7.463265360395e+01 2.014783541733e+01 0.0 
2.014783541733e+01 -1.888177265025e+02 0.0 
0.0 0.0 -7.863511403193e+01 
-1.066927649507e+02 5.991475453111e-01 0.0 
5.991475453111e-01 -2.745613224262e+02 0.0 
0.0 0.0 -1.139762262131e+02 
-1.212179260298e+02 6.514825666552e+00 0.0 
6.514825666552e+00 -3.091965968868e+02 0.0 
0.0 0.0 -1.287243568750e+02 
-2.815177912832e+01 1.331940058700e-01 0.0 
1.331940058700e-01 -7.883465875063e+01 0.0 
0.0 0.0 -3.169593136369e+01 
-4.185230531607e+01 1.719017730467e+01 0.0 
1.719017730467e+01 -1.138034106535e+02 0.0 
0.0 0.0 -4.629671479086e+01 
-7.534901222378e+01 5.645372383017e+00 0.0 
5.645372383017e+00 -1.389492813125e+02 0.0 
0.0 0.0 -6.388948806088e+01 
-1.117845035001e+02 2.314605445183e+01 0.0 
2.314605445183e+01 -2.675716925593e+02 0.0 
0.0 0.0 -1.134068588178e+02 
-1.007848037180e+02 6.998473084328e+00 0.0 
6.998473084328e+00 -2.215329465212e+02 0.0 
0.0 0.0 -9.629532507176e+01 
-5.207134739972e+01 2.096932230449e+01 0.0 
2.096932230449e+01 -1.224266375270e+02 0.0 
0.0 0.0 -5.194939547802e+01 
-1.214503518542e+02 5.000128998792e+00 0.0 
5.000128998792e+00 -3.085192770236e+02 0.0 
0.0 0.0 -1.285908886633e+02 
-9.884386077266e+01 9.340554703142e+00 0.0 
9.340554703142e+00 -2.102197236927e+02 0.0 
0.0 0.0 -9.231907533961e+01 
-7.763212499538e+01 1.017714970843e+00 0.0 
1.017714970843e+00 -2.140669021951e+02 0.0 
0.0 0.0 -8.710970815714e+01 
-3.335311629650e+01 -3.257523390138e-01 0.0 
-3.257523390138e-01 -9.123531210907e+01 0.0 
0.0 0.0 -3.697652852167e+01 
-2.400149810125e+01 6.227766750602e+00 0.0 
6.227766750602e+00 -5.832501004569e+01 0.0 
0.0 0.0 -2.429795244408e+01 
-4.168629948853e+01 5.299691331105e+00 0.0 
5.299691331105e+00 -1.300906852263e+02 0.0 
0.0 0.0 -5.113309541445e+01 
-6.688748019416e+01 1.497750766632e+01 0.0 
1.497750766632e+01 -1.889826713486e+02 0.0 
0.0 0.0 -7.636104546282e+01 
-8.569791948443e+01 1.830748369388e+00 0.0 
1.830748369388e+00 -2.330950731893e+02 0.0 
0.0 0.0 -9.523789780213e+01 
-1.084379862409e+02 1.559696666822e+01 0.0 
1.559696666822e+01 -2.368173185546e+02 0.0 
0.0 0.0 -1.031765914386e+02 
-1.263246730760e+02 4.629579813461e+00 0.0 
4.629579813461e+00 -3.173231628904e+02 0.0 
0.0 0.0 -1.326943507899e+02 
-1.102255648969e+02 9.083575269136e+00 0.0 
9.083575269136e+00 -2.895765816609e+02 0.0 
0.0 0.0 -1.195406439673e+02 
-2.107177276200e+01 1.161305372140e+01 0.0 
1.161305372140e+01 -2.205282146343e+01 0.0 
0.0 0.0 -1.253737826763e+01 
-5.225318620193e+01 1.004988331281e+01 0.0 
1.004988331281e+01 -7.442989911997e+01 0.0 
0.0 0.0 -3.760492559657e+01 
-1.311845414700e+02 4.211142296262e+00 0.0 
4.211142296262e+00 -3.261061230811e+02 0.0 
0.0 0.0 -1.367871993653e+02 
-7.751974858798e+01 8.082665949891e+00 0.0 
8.082665949891e+00 -2.219143296360e+02 0.0 
0.0 0.0 -8.943022346720e+01 
-1.164622798548e+02 1.659231347690e+01 0.0 
1.659231347690e+01 -2.977047141317e+02 0.0 
0.0 0.0 -1.238500981960e+02 
-8.472507985531e+01 1.109844321691e-01 0.0 
1.109844321691e-01 -2.246597802582e+02 0.0 
0.0 0.0 -9.241545803406e+01 
-1.247490801424e+02 2.525579236133e+01 0.0 
2.525579236133e+01 -2.944494616146e+02 0.0 
0.0 0.0 -1.253595625271e+02 
-3.755893350513e+01 1.817763304748e+01 0.0 
1.817763304748e+01 -5.331305413940e+01 0.0 
0.0 0.0 -2.686159629336e+01 
-1.360573326025e+02 3.728921522510e+00 0.0 
3.728921522510e+00 -3.351039867384e+02 0.0 
0.0 0.0 -1.409483958023e+02 
-1.090668716872e+02 1.104794789916e+01 0.0 
1.104794789916e+01 -2.873368844326e+02 0.0 
0.0 0.0 -1.185211268359e+02 
-3.955012403460e+01 1.196825679036e+01 0.0 
1.196825679036e+01 -1.188555747021e+02 0.0 
0.0 0.0 -4.712170962102e+01 
-4.321414250918e+01 2.403729863674e-02 0.0 
2.403729863674e-02 -7.533711393007e+01 0.0 
0.0 0.0 -3.516537693178e+01 
-1.476196656362e+02 4.101862478543e+00 0.0 
4.101862478543e+00 -3.563733530273e+02 0.0 
0.0 0.0 -1.507979055990e+02 
-1.190336692257e+02 1.226212046640e+01 0.0 
1.226212046640e+01 -3.059450325977e+02 0.0 
0.0 0.0 -1.270936105470e+02 
-8.271652429795e+01 2.047796177298e+01 0.0 
2.047796177298e+01 -2.070777158727e+02 0.0 
0.0 0.0 -8.653827205121e+01 
-7.408575770697e+01 6.412561263602e+00 0.0 
6.412561263602e+00 -2.139841255184e+02 0.0 
0.0 0.0 -8.602096496761e+01 
-3.887412756842e+01 9.257217777010e+00 0.0 
9.257217777010e+00 -4.458349287845e+01 0.0 
0.0 0.0 -2.463728613406e+01 
-9.002451155672e+01 1.821401656037e+00 0.0 
1.821401656037e+00 -2.419131443280e+02 0.0 
0.0 0.0 -9.918129676543e+01 
-8.374874291033e+01 2.170704229056e+01 0.0 
2.170704229056e+01 -1.858965049789e+02 0.0 
0.0 0.0 -8.049357436676e+01 
-1.106324757656e+02 1.325428934792e+01 0.0 
1.325428934792e+01 -2.511835348149e+02 0.0 
0.0 0.0 -1.081448031741e+02 
-1.231744919669e+02 1.390480916469e+01 0.0 
1.390480916469e+01 -3.128305445178e+02 0.0 
0.0 0.0 -1.304015109454e+02 
-8.334625425677e+01 1.235634705929e+01 0.0 
1.235634705929e+01 -1.537968976690e+02 0.0 
0.0 0.0 -7.074294557774e+01 
-8.597517973861e+01 1.133523676123e+00 0.0 
1.133523676123e+00 -2.316149737203e+02 0.0 
0.0 0.0 -9.487704603768e+01 
-9.178318546319e+01 1.729612152121e+01 0.0 
1.729612152121e+01 -2.428221837845e+02 0.0 
0.0 0.0 -9.998161077432e+01 
-1.898830145849e+01 -9.569132644717e-01 0.0 
-9.569132644717e-01 -5.042267306096e+01 0.0 
0.0 0.0 -2.042329235584e+01 
-4.487506998895e+01 1.397632502031e+01 0.0 
1.397632502031e+01 -6.030452631327e+01 0.0 
0.0 0.0 -3.115387889066e+01 
-9.011820777718e+01 1.150339763981e+00 0.0 
1.150339763981e+00 -2.402544145025e+02 0.0 
0.0 0.0 -9.871178668390e+01 
-4.522843690918e+01 4.405514567304e+00 0.0 
4.405514567304e+00 -1.404196222152e+02 0.0 
0.0 0.0 -5.529441773730e+01 
-7.858819572866e+01 5.972596908287e+00 0.0 
5.972596908287e+00 -2.238496688839e+02 0.0 
0.0 0.0 -9.033135938377e+01 
-1.296678320090e+02 2.168750671128e+01 0.0 
2.168750671128e+01 -3.164421525352e+02 0.0 
0.0 0.0 -1.334329953633e+02 
-9.426041262591e+01 1.120268075545e+00 0.0 
1.120268075545e+00 -2.488732338956e+02 0.0 
0.0 0.0 -1.025400939565e+02 
-5.144045734857e+01 5.457489071302e+00 0.0 
5.457489071302e+00 -1.580689357474e+02 0.0 
0.0 0.0 -6.245281792880e+01 
-9.839006506640e+01 1.033782241481e+00 0.0 
1.033782241481e+00 -2.574226139455e+02 0.0 
0.0 0.0 -1.063438037036e+02 
-3.245129785222e+01 1.381693355686e+01 0.0 
1.381693355686e+01 -3.247358311289e+01 0.0 
0.0 0.0 -1.907746428953e+01 
-8.757227329897e+01 1.452927490939e+01 0.0 
1.452927490939e+01 -1.666370304758e+02 0.0 
0.0 0.0 -7.586279113243e+01 
-1.025310580485e+02 8.901466721366e-01 0.0 
8.901466721366e-01 -2.658911513046e+02 0.0 
0.0 0.0 -1.101266628059e+02 
-9.154446532932e+01 2.194647321361e+01 0.0 
2.194647321361e+01 -2.053814072036e+02 0.0 
0.0 0.0 -8.867776175989e+01 
-2.023213208218e+01 -1.405734925255e+00 0.0 
-1.405734925255e+00 -5.276612853019e+01 0.0 
0.0 0.0 -2.149947818371e+01 
-8.676382872797e+01 1.990361168139e+01 0.0 
1.990361168139e+01 -2.209629552342e+02 0.0 
0.0 0.0 -9.191803518865e+01 
-1.352145422221e+02 1.150098036979e+00 0.0 
1.150098036979e+00 -3.323527613483e+02 0.0 
0.0 0.0 -1.398701910711e+02 
-5.517418086340e+01 -7.993557907484e-01 0.0 
-7.993557907484e-01 -1.586489682953e+02 0.0 
0.0 0.0 -6.374694474762e+01 
-8.319371532195e+01 5.618776679004e+00 0.0 
5.618776679004e+00 -2.336061435369e+02 0.0 
0.0 0.0 -9.463995765766e+01 
-9.462623704948e+01 1.577309629869e+01 0.0 
1.577309629869e+01 -1.880099308715e+02 0.0 
0.0 0.0 -8.439085037629e+01 
-2.813335948665e+01 1.746330947897e+01 0.0 
1.746330947897e+01 -3.032761160386e+01 0.0 
0.0 0.0 -1.713829132715e+01 
-9.168355296487e+01 6.757358018645e+00 0.0 
6.757358018645e+00 -2.520691064558e+02 0.0 
0.0 0.0 -1.027257978262e+02 
-9.932540553755e+01 2.237458237147e+01 0.0 
2.237458237147e+01 -2.249376523261e+02 0.0 
0.0 0.0 -9.687891735910e+01 
-9.107284385457e+01 1.929900969213e+01 0.0 
1.929900969213e+01 -2.344914338505e+02 0.0 
0.0 0.0 -9.726928331153e+01 
-7.479353820772e+01 1.570828418254e+01 0.0 
1.570828418254e+01 -2.066762661478e+02 0.0 
0.0 0.0 -8.404094130665e+01 
-1.006919785392e+02 7.913640493034e+00 0.0 
7.913640493034e+00 -2.707596084839e+02 0.0 
0.0 0.0 -1.110354761069e+02 
-3.197976850066e+01 1.934474874264e+01 0.0 
1.934474874264e+01 -5.097837272373e+01 0.0 
0.0 0.0 -2.448744236732e+01 
-4.196481107075e+01 -2.248827790112e+00 0.0 
-2.248827790112e+00 -1.177680808084e+02 0.0 
0.0 0.0 -4.751986756375e+01 
-3.565739865045e+01 -2.508900049408e+00 0.0 
-2.508900049408e+00 -9.844990978882e+01 0.0 
0.0 0.0 -3.983219253178e+01 
-5.534704705606e+01 4.756156062552e+00 0.0 
4.756156062552e+00 -1.681924069709e+02 0.0 
0.0 0.0 -6.666183620810e+01 
-1.030896436767e+02 2.235613309576e+01 0.0 
2.235613309576e+01 -2.300231153668e+02 0.0 
0.0 0.0 -9.953382771305e+01 
-2.463517602550e+01 -5.715745908027e-01 0.0 
-5.715745908027e-01 -6.703150430785e+01 0.0 
0.0 0.0 -2.710000410001e+01 
-9.537357543012e+01 1.836703101470e+01 0.0 
1.836703101470e+01 -1.937444121847e+02 0.0 
0.0 0.0 -8.633539628444e+01 
-2.718932778562e+01 -2.676268040217e+00 0.0 
-2.676268040217e+00 -7.087535953594e+01 0.0 
0.0 0.0 -2.901940619647e+01 
-5.269413631920e+01 3.111191169225e+00 0.0 
3.111191169225e+00 -1.602040340664e+02 0.0 
0.0 0.0 -6.346945111567e+01 
-1.051359591543e+02 1.964705293281e+01 0.0 
1.964705293281e+01 -2.669158777407e+02 0.0 
0.0 0.0 -1.112155510685e+02 
-6.490900983582e+01 4.002665380145e-01 0.0 
4.002665380145e-01 -1.293713430531e+02 0.0 
0.0 0.0 -5.788410586667e+01 
-5.654633420542e+01 2.654794530679e+00 0.0 
2.654794530679e+00 -1.696521978813e+02 0.0 
0.0 0.0 -6.745955962602e+01 
-4.058604082166e+01 -3.294632335619e-01 0.0 
-3.294632335619e-01 -1.109200963842e+02 0.0 
0.0 0.0 -4.505184116176e+01 
-5.380688986376e+01 1.285575868604e+00 0.0 
1.285575868604e+00 -1.608559294654e+02 0.0 
0.0 0.0 -6.399884579876e+01 
-8.307628058020e+01 1.645494907769e+01 0.0 
1.645494907769e+01 -2.245829515379e+02 0.0 
0.0 0.0 -9.189776963544e+01 
-5.759384057754e+01 1.074711324523e+00 0.0 
1.074711324523e+00 -1.698498723524e+02 0.0 
0.0 0.0 -6.783311387897e+01 
-5.471259895259e+01 1.023076612412e-02 0.0 
1.023076612412e-02 -1.603691442772e+02 0.0 
0.0 0.0 -6.412452296895e+01 
-9.978327918732e+01 3.918110245317e+00 0.0 
3.918110245317e+00 -2.239929625045e+02 0.0 
0.0 0.0 -9.673287250754e+01 
-5.836376118458e+01 -2.208662582020e-02 0.0 
-2.208662582020e-02 -1.689264138541e+02 0.0 
0.0 0.0 -6.778705251159e+01 
-1.053928510186e+02 1.180133887432e+00 0.0 
1.180133887432e+00 -2.425766365562e+02 0.0 
0.0 0.0 -1.039908462724e+02 
-1.570133398245e+02 1.378780858673e+00 0.0 
1.378780858673e+00 -3.729881952795e+02 0.0 
0.0 0.0 -1.586004605312e+02 
-4.923064426410e+01 2.015485173106e-01 0.0 
2.015485173106e-01 -9.033773865411e+01 0.0 
0.0 0.0 -4.147051487546e+01 
-2.534551876044e+01 1.743877674898e+01 0.0 
1.743877674898e+01 -2.673948955651e+01 0.0 
0.0 0.0 -1.522550249508e+01 
-2.001714834457e+01 9.108836547056e-02 0.0 
9.108836547056e-02 -1.667710652133e+01 0.0 
0.0 0.0 -1.087282898920e+01 
-2.918335361658e+01 1.829253576072e+01 0.0 
1.829253576072e+01 -5.154659012882e+01 0.0 
0.0 0.0 -2.381898312362e+01 
-4.866583489033e+01 -1.519413515806e+00 0.0 
-1.519413515806e+00 -1.399707504316e+02 0.0 
0.0 0.0 -5.619097559657e+01 
-9.546246896999e+01 2.045872564454e+01 0.0 
2.045872564454e+01 -2.010236743473e+02 0.0 
0.0 0.0 -8.854584299520e+01 
-4.968148156624e+01 1.037525843717e-01 0.0 
1.037525843717e-01 -9.106290315640e+01 0.0 
0.0 0.0 -4.182331541679e+01 
-4.545626682431e+01 -1.996312050204e+00 0.0 
-1.996312050204e+00 -1.291328554825e+02 0.0 
0.0 0.0 -5.197673669203e+01 
-1.153861559728e+02 2.222220465047e+01 0.0 
2.222220465047e+01 -2.578698029770e+02 0.0 
0.0 0.0 -1.115767876849e+02 
-1.352953745133e+02 2.619317476473e+01 0.0 
2.619317476473e+01 -3.199293813574e+02 0.0 
0.0 0.0 -1.361674267612e+02 
-7.593590153938e+01 7.298347770654e-01 0.0 
7.298347770654e-01 -1.581043928521e+02 0.0 
0.0 0.0 -6.981208831744e+01 
-1.216035737905e+02 1.601816741291e+01 0.0 
1.601816741291e+01 -3.081738042858e+02 0.0 
0.0 0.0 -1.285332134229e+02 
-9.589414691675e+01 1.874163340826e+01 0.0 
1.874163340826e+01 -2.481587692428e+02 0.0 
0.0 0.0 -1.028158748479e+02 
-9.266801050004e+01 6.228072388768e-01 0.0 
6.228072388768e-01 -2.054802529404e+02 0.0 
0.0 0.0 -8.904447903212e+01 
-4.341554305478e+01 3.891783542117e-01 0.0 
3.891783542117e-01 -7.392661564577e+01 0.0 
0.0 0.0 -3.480264761017e+01 
-1.662958822605e+01 -1.993514615745e+00 0.0 
-1.993514615745e+00 -3.302652728114e+01 0.0 
0.0 0.0 -1.461986182764e+01 
-1.114739222761e+02 3.339465226001e-01 0.0 
3.339465226001e-01 -2.844798755112e+02 0.0 
0.0 0.0 -1.183861393362e+02 
-2.500883780356e+01 1.712006381311e+01 0.0 
1.712006381311e+01 -2.582586390742e+01 0.0 
0.0 0.0 -1.485041051330e+01 
-2.631987340609e+01 1.641210285989e+01 0.0 
1.641210285989e+01 -4.537576421971e+01 0.0 
0.0 0.0 -2.110869128774e+01 
-2.439386894910e+01 1.409439637076e+01 0.0 
1.409439637076e+01 -4.228147470838e+01 0.0 
0.0 0.0 -1.960260309724e+01 
-4.992947312049e+01 -7.477974361317e-01 0.0 
-7.477974361317e-01 -1.370244791120e+02 0.0 
0.0 0.0 -5.568618566975e+01 
-2.220231780250e+01 -2.632327716916e+00 0.0 
-2.632327716916e+00 -4.908351101695e+01 0.0 
0.0 0.0 -2.098574864583e+01 
-2.495421904418e+01 1.634954416242e+01 0.0 
1.634954416242e+01 -2.821427978323e+01 0.0 
0.0 0.0 -1.555054964822e+01 
-1.353409118317e+02 1.884641302928e+01 0.0 
1.884641302928e+01 -3.312066307039e+02 0.0 
0.0 0.0 -1.395642627607e+02 
-5.330549062399e+01 1.417194347565e+00 0.0 
1.417194347565e+00 -9.192204337453e+01 0.0 
0.0 0.0 -4.316826019956e+01 
-1.090078583831e+02 2.096551685323e+01 0.0 
2.096551685323e+01 -2.716534615224e+02 0.0 
0.0 0.0 -1.137983959717e+02 
-2.359154598749e+01 1.473424492730e+01 0.0 
1.473424492730e+01 -2.622566306124e+01 0.0 
0.0 0.0 -1.454516271462e+01 
-1.045342569032e+02 1.053029799818e+01 0.0 
1.053029799818e+01 -2.301813004966e+02 0.0 
0.0 0.0 -1.000146672199e+02 
-1.289666053957e+02 2.350219284967e+01 0.0 
2.350219284967e+01 -3.112282381265e+02 0.0 
0.0 0.0 -1.316584530567e+02 
-1.558166421757e+02 7.983123529075e+00 0.0 
7.983123529075e+00 -3.709661543807e+02 0.0 
0.0 0.0 -1.576348389669e+02 
-1.184607428858e+02 2.203249999172e+01 0.0 
2.203249999172e+01 -2.906848347602e+02 0.0 
0.0 0.0 -1.223436732938e+02 
-2.212368190021e+01 1.062546430596e+01 0.0 
1.062546430596e+01 -3.682197063176e+01 0.0 
0.0 0.0 -1.728369575959e+01 
-6.483981524682e+01 4.635888419105e+00 0.0 
4.635888419105e+00 -1.107536000951e+02 0.0 
0.0 0.0 -5.227802460256e+01 
-1.214510516068e+02 2.528477306658e+01 0.0 
2.528477306658e+01 -2.820142798791e+02 0.0 
0.0 0.0 -1.206395994458e+02 
-8.211480127949e+01 1.206330664909e+00 0.0 
1.206330664909e+00 -1.739227266712e+02 0.0 
0.0 0.0 -7.641125838520e+01 
-1.574434288112e+02 5.929439731783e+00 0.0 
5.929439731783e+00 -3.737039150829e+02 0.0 
0.0 0.0 -1.589442031682e+02 
-5.415387530897e+01 1.903029232033e+00 0.0 
1.903029232033e+00 -9.010771983465e+01 0.0 
0.0 0.0 -4.287847854309e+01 
-1.000391828223e+02 2.470185848499e+00 0.0 
2.470185848499e+00 -2.262503946420e+02 0.0 
0.0 0.0 -9.748687323930e+01 
-2.649220556817e+01 -1.050805951743e+00 0.0 
-1.050805951743e+00 -7.038890617009e+01 0.0 
0.0 0.0 -2.866433352148e+01 
-9.982309131248e+01 1.210218807506e+00 0.0 
1.210218807506e+00 -2.262937702150e+02 0.0 
0.0 0.0 -9.743505845826e+01 
-1.026424644558e+02 2.123664209095e+01 0.0 
2.123664209095e+01 -2.215604233189e+02 0.0 
0.0 0.0 -9.686086633242e+01 
-6.013746299970e+01 6.283052743186e-01 0.0 
6.283052743186e-01 -1.151039591932e+02 0.0 
0.0 0.0 -5.217242665787e+01 
-6.718440642215e+01 6.717808256366e+00 0.0 
6.717808256366e+00 -1.123654252703e+02 0.0 
0.0 0.0 -5.346494950773e+01 
-1.503128020488e+02 2.023392343548e+00 0.0 
2.023392343548e+00 -3.605991030797e+02 0.0 
0.0 0.0 -1.528735715386e+02 
-1.121503045321e+02 1.954629363902e+01 0.0 
1.954629363902e+01 -2.476858797728e+02 0.0 
0.0 0.0 -1.075508552915e+02 
-2.068919279320e+01 8.049245878674e+00 0.0 
8.049245878674e+00 -3.285648051138e+01 0.0 
0.0 0.0 -1.566370199137e+01 
-7.595117688219e+01 8.510505865428e-01 0.0 
8.510505865428e-01 -1.570454257247e+02 0.0 
0.0 0.0 -6.949898078208e+01 
-6.238134250896e+01 -4.976114442466e-01 0.0 
-4.976114442466e-01 -1.705086643165e+02 0.0 
0.0 0.0 -6.946700204763e+01 
-2.046387883162e+01 -1.136348180022e+00 0.0 
-1.136348180022e+00 -3.062536618246e+01 0.0 
0.0 0.0 -1.511921327519e+01 
-1.452559906637e+02 9.147462054210e+00 0.0 
9.147462054210e+00 -3.528679715636e+02 0.0 
0.0 0.0 -1.490371886682e+02 
-1.091151134165e+02 2.209744442228e+01 0.0 
2.209744442228e+01 -2.408930377910e+02 0.0 
0.0 0.0 -1.046024453623e+02 
-1.491070494753e+02 3.272237484222e+00 0.0 
3.272237484222e+00 -3.589028625788e+02 0.0 
0.0 0.0 -1.520029736162e+02 
-1.824806401686e+01 -3.613767195388e-01 0.0 
-3.613767195388e-01 -4.995705648007e+01 0.0 
0.0 0.0 -2.006153614908e+01 
-1.452982094468e+01 -1.706520087458e+00 0.0 
-1.706520087458e+00 -3.117614993867e+01 0.0 
0.0 0.0 -1.339370975485e+01 
-1.450521342524e+02 1.157112357907e+01 0.0 
1.157112357907e+01 -3.523511811364e+02 0.0 
0.0 0.0 -1.488209946166e+02 
-1.189269573096e+02 2.423997914544e+01 0.0 
2.423997914544e+01 -2.706782553308e+02 0.0 
0.0 0.0 -1.164815637921e+02 
-2.944155634534e+01 -1.581178704464e+00 0.0 
-1.581178704464e+00 -8.004740006502e+01 0.0 
0.0 0.0 -3.244668692311e+01 
-1.088479237681e+02 9.058867893363e+00 0.0 
9.058867893363e+00 -2.492466452705e+02 0.0 
0.0 0.0 -1.070283707116e+02 
-1.880575322952e+01 6.027698212428e+00 0.0 
6.027698212428e+00 -2.341064903869e+01 0.0 
0.0 0.0 -1.234672466551e+01 
-4.334354094559e+01 2.069251614294e-01 0.0 
2.069251614294e-01 -7.190273367022e+01 0.0 
0.0 0.0 -3.417388238474e+01 
-1.355599407172e+01 -1.082473545459e+00 0.0 
-1.082473545459e+00 -3.237992300430e+01 0.0 
0.0 0.0 -1.355654472747e+01 
-1.578220973467e+02 4.904220526420e+00 0.0 
4.904220526420e+00 -3.743029490422e+02 0.0 
0.0 0.0 -1.592375139167e+02 
-1.022259181288e+02 6.372071042240e+00 0.0 
6.372071042240e+00 -2.287867231203e+02 0.0 
0.0 0.0 -9.890379237472e+01 
-6.935598530116e+01 -4.044441351120e-01 0.0 
-4.044441351120e-01 -1.876572680882e+02 0.0 
0.0 0.0 -7.670397601682e+01 
-5.258016512637e+01 3.965346614063e+00 0.0 
3.965346614063e+00 -7.992824388955e+01 0.0 
0.0 0.0 -3.935252270477e+01 
-4.548127868820e+01 -6.259029089035e-01 0.0 
-6.259029089035e-01 -1.243277059326e+02 0.0 
0.0 0.0 -5.054269538624e+01 
-1.190528552214e+02 2.394354916892e+01 0.0 
2.394354916892e+01 -2.840311182663e+02 0.0 
0.0 0.0 -1.205251920463e+02 
-2.062028660732e+01 -2.541831577216e+00 0.0 
-2.541831577216e+00 -4.626505099673e+01 0.0 
0.0 0.0 -1.966560128121e+01 
-1.018993254967e+02 4.764461784636e+00 0.0 
4.764461784636e+00 -2.298850147862e+02 0.0 
0.0 0.0 -9.913530208485e+01 
-1.433840065376e+02 1.412362193368e+01 0.0 
1.412362193368e+01 -3.487595223898e+02 0.0 
0.0 0.0 -1.472430586782e+02 
-1.088461160934e+02 1.459166537035e+01 0.0 
1.459166537035e+01 -2.402328522108e+02 0.0 
0.0 0.0 -1.043236904912e+02 
-1.446739732141e+02 2.271782756576e+01 0.0 
2.271782756576e+01 -3.442440966516e+02 0.0 
0.0 0.0 -1.462754209597e+02 
-2.012848186293e+01 1.208039275247e+00 0.0 
1.208039275247e+00 -2.774243418033e+01 0.0 
0.0 0.0 -1.406312911990e+01 
-1.299758202728e+02 2.470302833930e+01 0.0 
2.470302833930e+01 -3.109208558277e+02 0.0 
0.0 0.0 -1.318690028301e+02 
-1.316716189549e+02 1.484703723046e+01 0.0 
1.484703723046e+01 -3.279947479934e+02 0.0 
0.0 0.0 -1.374999100845e+02 
-4.287164295831e+01 -9.480022951177e-02 0.0 
-9.480022951177e-02 -7.372221458904e+01 0.0 
0.0 0.0 -3.457815726421e+01 
-1.103511347764e+02 1.702309722668e+01 0.0 
1.702309722668e+01 -2.428340296866e+02 0.0 
0.0 0.0 -1.055555493389e+02 
-5.596363801102e+01 -7.042868674388e-01 0.0 
-7.042868674388e-01 -1.528018104494e+02 0.0 
0.0 0.0 -6.222963453813e+01 
-2.485552639437e+01 -1.278325577458e+00 0.0 
-1.278325577458e+00 -6.606071695596e+01 0.0 
0.0 0.0 -2.687487300510e+01 
-1.059676488148e+02 6.757928669594e-01 0.0 
6.757928669594e-01 -2.445954439174e+02 0.0 
0.0 0.0 -1.047689278197e+02 
-5.408644004004e+00 -5.642652311697e-02 0.0 
-5.642652311697e-02 -1.415297373549e+01 0.0 
0.0 0.0 -5.780836396514e+00 
-4.185937436369e+01 8.802069389674e-02 0.0 
8.802069389674e-02 -7.271796183281e+01 0.0 
0.0 0.0 -3.397320085895e+01 
-1.593817400811e+02 4.635618358392e-01 0.0 
4.635618358392e-01 -3.771920514086e+02 0.0 
0.0 0.0 -1.605721374469e+02 
-2.357392736221e+01 -9.083372823878e-01 0.0 
-9.083372823878e-01 -6.312215410854e+01 0.0 
0.0 0.0 -2.560882444122e+01 
-5.523620937279e+01 3.067017345626e-01 0.0 
3.067017345626e-01 -1.047068014942e+02 0.0 
0.0 0.0 -4.758290326010e+01 
-1.178087687118e+02 2.351894948780e+01 0.0 
2.351894948780e+01 -2.661313339040e+02 0.0 
0.0 0.0 -1.147820307848e+02 
-8.680180541277e+01 2.326318674923e-02 0.0 
2.326318674923e-02 -2.296642759969e+02 0.0 
0.0 0.0 -9.453982442290e+01 
-8.876208226405e+01 1.155012455402e+00 0.0 
1.155012455402e+00 -1.939910904939e+02 0.0 
0.0 0.0 -8.442595182737e+01 
-2.526368464991e+01 -2.707569421560e+00 0.0 
-2.707569421560e+00 -6.151705401542e+01 0.0 
0.0 0.0 -2.563422159960e+01 
-1.968101314606e+01 -6.119132092672e-01 0.0 
-6.119132092672e-01 -1.435957040350e+01 0.0 
0.0 0.0 -1.022944770240e+01 
-6.901998359338e+01 6.179827718915e-01 0.0 
6.179827718915e-01 -1.397402360533e+02 0.0 
0.0 0.0 -6.222806589399e+01 
-1.321975583520e+02 2.285299826434e+01 0.0 
2.285299826434e+01 -3.196088543145e+02 0.0 
0.0 0.0 -1.351419237999e+02 
-1.069381288148e+02 1.194491479280e+01 0.0 
1.194491479280e+01 -2.371472185567e+02 0.0 
0.0 0.0 -1.028256042114e+02 
-6.424208067395e+01 6.253302309168e-01 0.0 
6.253302309168e-01 -1.259695226153e+02 0.0 
0.0 0.0 -5.666348098676e+01 
-2.210404368491e+01 6.407906556232e+00 0.0 
6.407906556232e+00 -4.513862666858e+01 0.0 
0.0 0.0 -1.977280110605e+01 
-1.145160944654e+02 2.304726031942e+01 0.0 
2.304726031942e+01 -2.567730725949e+02 0.0 
0.0 0.0 -1.109867501181e+02 
-7.547630269636e+01 -8.135127534151e-02 0.0 
-8.135127534151e-02 -2.024710674365e+02 0.0 
0.0 0.0 -8.298421103985e+01 
-1.173216651352e+02 2.460547596546e+01 0.0 
2.460547596546e+01 -2.732890634865e+02 0.0 
0.0 0.0 -1.167832185865e+02 
-1.294999641747e+02 1.724866983274e+01 0.0 
1.724866983274e+01 -3.221883153737e+02 0.0 
0.0 0.0 -1.351064838645e+02 
-1.738051656594e+01 6.737416402815e+00 0.0 
6.737416402815e+00 -1.257233361580e+01 0.0 
0.0 0.0 -8.852934031631e+00 
-9.408250246774e+01 4.055611520460e-02 0.0 
4.055611520460e-02 -2.465166949058e+02 0.0 
0.0 0.0 -1.017797592121e+02 
-1.342514460752e+01 -1.124356991643e+00 0.0 
-1.124356991643e+00 -3.033161842913e+01 0.0 
0.0 0.0 -1.282858046050e+01 
-1.493101611980e+02 6.983656411534e+00 0.0 
6.983656411534e+00 -3.597489591662e+02 0.0 
0.0 0.0 -1.523177361093e+02 
-7.886617480176e+01 5.041007619390e-02 0.0 
5.041007619390e-02 -2.109191829260e+02 0.0 
0.0 0.0 -8.653560731834e+01 
-1.726601273687e+01 3.304267036576e+00 0.0 
3.304267036576e+00 -7.819264119824e+00 0.0 
0.0 0.0 -7.125583057008e+00 
-1.570801356693e+01 9.569176912609e-02 0.0 
9.569176912609e-02 -9.364028381737e+00 0.0 
0.0 0.0 -7.121612584599e+00 
-2.827366137988e+01 3.388418202022e+00 0.0 
3.388418202022e+00 -2.917337145241e+01 0.0 
0.0 0.0 -1.683410984969e+01 
-2.403859723161e+01 -7.516586434057e-02 0.0 
-7.516586434057e-02 -3.007251688691e+01 0.0 
0.0 0.0 -1.583333423555e+01 
-3.806305001325e+01 2.890842724880e+00 0.0 
2.890842724880e+00 -4.927301694892e+01 0.0 
0.0 0.0 -2.580082008865e+01 
-3.156375919250e+01 -1.835627106982e-01 0.0 
-1.835627106982e-01 -4.841614202817e+01 0.0 
0.0 0.0 -2.359397036620e+01 

TENSORS node_materi_strain_total float
3.022802745956e-05 5.680542472804e-07 0.0 
5.680542472804e-07 8.880265386513e-05 0.0 
0.0 0.0 0.0 
-7.012002909386e-04 -1.964819517407e-05 0.0 
-1.964819517407e-05 1.122719739750e-02 0.0 
0.0 0.0 0.0 
5.851864202655e-05 4.839760753029e-05 0.0 
4.839760753029e-05 8.240014873353e-03 0.0 
0.0 0.0 0.0 
-4.911722867590e-05 1.457636054196e-05 0.0 
1.457636054196e-05 1.484681320705e-02 0.0 
0.0 0.0 0.0 
5.573878629354e-05 -7.446937595125e-06 0.0 
-7.446937595125e-06 2.824598312712e-04 0.0 
0.0 0.0 0.0 
1.101226761345e-04 6.619592467675e-06 0.0 
6.619592467675e-06 6.634068708865e-04 0.0 
0.0 0.0 0.0 
1.877123861514e-04 6.430843678094e-06 0.0 
6.430843678094e-06 1.012099214408e-03 0.0 
0.0 0.0 0.0 
2.629153514336e-04 4.215653983267e-06 0.0 
4.215653983267e-06 1.404154457059e-03 0.0 
0.0 0.0 0.0 
3.410640264082e-04 2.489810480588e-06 0.0 
2.489810480588e-06 1.782869402961e-03 0.0 
0.0 0.0 0.0 
4.201997824714e-04 2.485257229717e-06 0.0 
2.485257229717e-06 2.156858551898e-03 0.0 
0.0 0.0 0.0 
4.918108103426e-04 3.982049673705e-06 0.0 
3.982049673705e-06 2.534511976210e-03 0.0 
0.0 0.0 0.0 
5.539881625952e-04 4.668192863442e-06 0.0 
4.668192863442e-06 2.918763173882e-03 0.0 
0.0 0.0 0.0 
6.057779506500e-04 6.819841784900e-06 0.0 
6.819841784900e-06 3.311051980128e-03 0.0 
0.0 0.0 0.0 
6.408098905698e-04 1.202860529280e-05 0.0 
1.202860529280e-05 3.719138476169e-03 0.0 
0.0 0.0 0.0 
6.556094534576e-04 2.127826589621e-05 0.0 
2.127826589621e-05 4.152328750406e-03 0.0 
0.0 0.0 0.0 
6.649024514550e-04 2.482570457724e-05 0.0 
2.482570457724e-05 4.580339950362e-03 0.0 
0.0 0.0 0.0 
6.581084107715e-04 3.518495499434e-05 0.0 
3.518495499434e-05 4.979731698781e-03 0.0 
0.0 0.0 0.0 
6.231787386116e-04 2.222853569963e-05 0.0 
2.222853569963e-05 5.437325029242e-03 0.0 
0.0 0.0 0.0 
5.682829473685e-04 2.478249835745e-05 0.0 
2.478249835745e-05 5.921540283768e-03 0.0 
0.0 0.0 0.0 
4.943582216822e-04 2.809258158383e-05 0.0 
2.809258158383e-05 6.405399272656e-03 0.0 
0.0 0.0 0.0 
3.982060386059e-04 2.979857379999e-05 0.0 
2.979857379999e-05 6.908871663199e-03 0.0 
0.0 0.0 0.0 
2.795792036810e-04 3.624745027130e-05 0.0 
3.624745027130e-05 7.431410287733e-03 0.0 
0.0 0.0 0.0 
1.624777146022e-04 4.170611703301e-05 0.0 
4.170611703301e-05 7.940311324790e-03 0.0 
0.0 0.0 0.0 
-3.491293986616e-05 7.558222890938e-05 0.0 
7.558222890938e-05 1.485884891844e-02 0.0 
0.0 0.0 0.0 
-4.015780996081e-05 1.394811046025e-04 0.0 
1.394811046025e-04 1.483688489412e-02 0.0 
0.0 0.0 0.0 
-4.050932613953e-05 1.988782349037e-04 0.0 
1.988782349037e-04 1.483762048165e-02 0.0 
0.0 0.0 0.0 
-4.046412506975e-05 2.857562621379e-04 0.0 
2.857562621379e-04 1.482704105567e-02 0.0 
0.0 0.0 0.0 
-5.106490263677e-05 3.530627709924e-04 0.0 
3.530627709924e-04 1.480474703587e-02 0.0 
0.0 0.0 0.0 
-4.725142347117e-05 4.399865825860e-04 0.0 
4.399865825860e-04 1.479921743198e-02 0.0 
0.0 0.0 0.0 
-5.340501150623e-05 5.332599040613e-04 0.0 
5.332599040613e-04 1.477531374345e-02 0.0 
0.0 0.0 0.0 
-5.778192801612e-05 6.339492676998e-04 0.0 
6.339492676998e-04 1.473561195932e-02 0.0 
0.0 0.0 0.0 
-6.065815950943e-05 7.336528313334e-04 0.0 
7.336528313334e-04 1.470504365632e-02 0.0 
0.0 0.0 0.0 
-5.745078460721e-05 8.576010482010e-04 0.0 
8.576010482010e-04 1.464873558513e-02 0.0 
0.0 0.0 0.0 
-7.599255137795e-05 9.700319883111e-04 0.0 
9.700319883111e-04 1.457586652465e-02 0.0 
0.0 0.0 0.0 
-7.113842576352e-05 1.104829411517e-03 0.0 
1.104829411517e-03 1.450110323571e-02 0.0 
0.0 0.0 0.0 
-7.742629607939e-05 1.246606881979e-03 0.0 
1.246606881979e-03 1.439718419772e-02 0.0 
0.0 0.0 0.0 
-7.493114072795e-05 1.386634956878e-03 0.0 
1.386634956878e-03 1.426932038176e-02 0.0 
0.0 0.0 0.0 
-8.361398883276e-05 1.527876202857e-03 0.0 
1.527876202857e-03 1.412135048080e-02 0.0 
0.0 0.0 0.0 
-7.935669375673e-05 1.668127831654e-03 0.0 
1.668127831654e-03 1.393858887306e-02 0.0 
0.0 0.0 0.0 
-8.438268172643e-05 1.806070952746e-03 0.0 
1.806070952746e-03 1.373883237298e-02 0.0 
0.0 0.0 0.0 
-7.889429420253e-05 1.947563079696e-03 0.0 
1.947563079696e-03 1.351306660405e-02 0.0 
0.0 0.0 0.0 
-6.668777076850e-05 2.069572531679e-03 0.0 
2.069572531679e-03 1.326776789547e-02 0.0 
0.0 0.0 0.0 
-5.097751191755e-05 2.177360621765e-03 0.0 
2.177360621765e-03 1.300180531565e-02 0.0 
0.0 0.0 0.0 
-3.429479105229e-05 2.263471613881e-03 0.0 
2.263471613881e-03 1.270670014858e-02 0.0 
0.0 0.0 0.0 
-3.032970285362e-05 2.324276944274e-03 0.0 
2.324276944274e-03 1.240136951003e-02 0.0 
0.0 0.0 0.0 
-1.318113974554e-05 2.363029562513e-03 0.0 
2.363029562513e-03 1.208636480289e-02 0.0 
0.0 0.0 0.0 
-9.417283897880e-07 2.375074053853e-03 0.0 
2.375074053853e-03 1.176914973653e-02 0.0 
0.0 0.0 0.0 
9.059806420112e-06 2.365771120763e-03 0.0 
2.365771120763e-03 1.145955448758e-02 0.0 
0.0 0.0 0.0 
2.181931512905e-05 2.338479152034e-03 0.0 
2.338479152034e-03 1.115819444582e-02 0.0 
0.0 0.0 0.0 
2.957846105104e-05 2.285610422349e-03 0.0 
2.285610422349e-03 1.086617931651e-02 0.0 
0.0 0.0 0.0 
4.459798405650e-05 2.216409727646e-03 0.0 
2.216409727646e-03 1.058765316705e-02 0.0 
0.0 0.0 0.0 
4.757128584417e-05 2.128673954052e-03 0.0 
2.128673954052e-03 1.031923669494e-02 0.0 
0.0 0.0 0.0 
4.263695999840e-05 2.033043995875e-03 0.0 
2.033043995875e-03 1.009727199148e-02 0.0 
0.0 0.0 0.0 
6.183540245841e-05 1.933704407023e-03 0.0 
1.933704407023e-03 9.852423659787e-03 0.0 
0.0 0.0 0.0 
6.757656443098e-05 1.815194531370e-03 0.0 
1.815194531370e-03 9.617643072811e-03 0.0 
0.0 0.0 0.0 
6.811648155029e-05 1.685129938674e-03 0.0 
1.685129938674e-03 9.415037467138e-03 0.0 
0.0 0.0 0.0 
6.681455048341e-05 1.563424536295e-03 0.0 
1.563424536295e-03 9.255515576225e-03 0.0 
0.0 0.0 0.0 
7.016177066288e-05 1.443383205551e-03 0.0 
1.443383205551e-03 9.101089206813e-03 0.0 
0.0 0.0 0.0 
5.892046884370e-05 1.318703058226e-03 0.0 
1.318703058226e-03 8.965456785175e-03 0.0 
0.0 0.0 0.0 
6.998213867522e-05 1.202673142798e-03 0.0 
1.202673142798e-03 8.848878015202e-03 0.0 
0.0 0.0 0.0 
6.001916617778e-05 1.083379947992e-03 0.0 
1.083379947992e-03 8.733858000981e-03 0.0 
0.0 0.0 0.0 
6.910062035962e-05 9.712300887073e-04 0.0 
9.712300887073e-04 8.634792529533e-03 0.0 
0.0 0.0 0.0 
6.003700571452e-05 8.607474634550e-04 0.0 
8.607474634550e-04 8.545219658645e-03 0.0 
0.0 0.0 0.0 
5.042643320174e-05 7.599214509749e-04 0.0 
7.599214509749e-04 8.489142098280e-03 0.0 
0.0 0.0 0.0 
5.179520065890e-05 6.660830553278e-04 0.0 
6.660830553278e-04 8.457599694146e-03 0.0 
0.0 0.0 0.0 
5.583034727189e-05 5.727423442744e-04 0.0 
5.727423442744e-04 8.422207205089e-03 0.0 
0.0 0.0 0.0 
6.277225473761e-05 4.710275232108e-04 0.0 
4.710275232108e-04 8.307249879993e-03 0.0 
0.0 0.0 0.0 
5.196831535311e-05 3.843517415623e-04 0.0 
3.843517415623e-04 8.336116664076e-03 0.0 
0.0 0.0 0.0 
4.398493733511e-05 3.047870615188e-04 0.0 
3.047870615188e-04 8.289419630126e-03 0.0 
0.0 0.0 0.0 
3.831196825336e-05 2.258415303509e-04 0.0 
2.258415303509e-04 8.281901718234e-03 0.0 
0.0 0.0 0.0 
4.094891235969e-05 1.569647741579e-04 0.0 
1.569647741579e-04 8.287587610470e-03 0.0 
0.0 0.0 0.0 
3.988851897496e-05 8.620129060446e-05 0.0 
8.620129060446e-05 8.278281789624e-03 0.0 
0.0 0.0 0.0 
-6.807535478980e-04 -1.234610205736e-05 0.0 
-1.234610205736e-05 1.165059396768e-02 0.0 
0.0 0.0 0.0 
-6.641693254051e-04 -1.145312532752e-05 0.0 
-1.145312532752e-05 1.206844314260e-02 0.0 
0.0 0.0 0.0 
-6.309695900059e-04 -8.589064474878e-06 0.0 
-8.589064474878e-06 1.247069495425e-02 0.0 
0.0 0.0 0.0 
-5.853687662289e-04 -6.092119491665e-06 0.0 
-6.092119491665e-06 1.285530279014e-02 0.0 
0.0 0.0 0.0 
-5.257106554908e-04 -1.452843511363e-06 0.0 
-1.452843511363e-06 1.323675487857e-02 0.0 
0.0 0.0 0.0 
-4.488564488365e-04 1.180030720256e-06 0.0 
1.180030720256e-06 1.360660826626e-02 0.0 
0.0 0.0 0.0 
-3.610674471985e-04 4.867449519626e-06 0.0 
4.867449519626e-06 1.396237401712e-02 0.0 
0.0 0.0 0.0 
-2.540648029693e-04 7.997697024873e-06 0.0 
7.997697024873e-06 1.430543285987e-02 0.0 
0.0 0.0 0.0 
-1.448390926086e-04 8.462210079547e-06 0.0 
8.462210079547e-06 1.464517176954e-02 0.0 
0.0 0.0 0.0 
-8.103971823102e-04 4.479095739529e-04 0.0 
4.479095739529e-04 5.065772804026e-04 0.0 
0.0 0.0 0.0 
-1.120167928634e-03 3.041264778772e-04 0.0 
3.041264778772e-04 1.128068352874e-02 0.0 
0.0 0.0 0.0 
-9.153738535669e-04 1.090195446473e-03 0.0 
1.090195446473e-03 1.295571579305e-03 0.0 
0.0 0.0 0.0 
-1.006740729506e-03 1.366634721719e-03 0.0 
1.366634721719e-03 2.562518610306e-03 0.0 
0.0 0.0 0.0 
-1.042147135477e-03 1.473859241434e-03 0.0 
1.473859241434e-03 3.929943244158e-03 0.0 
0.0 0.0 0.0 
-1.032016928727e-03 1.473913889092e-03 0.0 
1.473913889092e-03 5.273964360578e-03 0.0 
0.0 0.0 0.0 
-9.944973206637e-04 1.452845751764e-03 0.0 
1.452845751764e-03 6.645386653167e-03 0.0 
0.0 0.0 0.0 
-9.985528884531e-04 1.410523812938e-03 0.0 
1.410523812938e-03 8.056673454120e-03 0.0 
0.0 0.0 0.0 
-1.224633577238e-03 1.005499432233e-03 0.0 
1.005499432233e-03 9.671447195968e-03 0.0 
0.0 0.0 0.0 
-1.049795921670e-03 4.847755233530e-04 0.0 
4.847755233530e-04 1.034837867416e-02 0.0 
0.0 0.0 0.0 
-1.081893512123e-03 3.675642122047e-04 0.0 
3.675642122047e-04 1.080562032260e-02 0.0 
0.0 0.0 0.0 
-7.707030496601e-04 -2.106729018766e-05 0.0 
-2.106729018766e-05 1.012212470353e-02 0.0 
0.0 0.0 0.0 
-7.257273919852e-04 -3.124168850508e-05 0.0 
-3.124168850508e-05 1.036845038046e-02 0.0 
0.0 0.0 0.0 
-7.045012311693e-04 -2.571302368891e-05 0.0 
-2.571302368891e-05 1.078441262523e-02 0.0 
0.0 0.0 0.0 
-6.993332016542e-04 4.932730301090e-06 0.0 
4.932730301090e-06 1.117164946370e-02 0.0 
0.0 0.0 0.0 
-7.014591290870e-04 -4.352522644919e-06 0.0 
-4.352522644919e-06 1.120182174450e-02 0.0 
0.0 0.0 0.0 
-7.086212785120e-04 -4.779482199789e-06 0.0 
-4.779482199789e-06 1.120754204191e-02 0.0 
0.0 0.0 0.0 
-7.154722086670e-04 -7.403589833998e-06 0.0 
-7.403589833998e-06 1.120495173895e-02 0.0 
0.0 0.0 0.0 
-7.233888457005e-04 -3.656050541561e-06 0.0 
-3.656050541561e-06 1.126604614976e-02 0.0 
0.0 0.0 0.0 
-7.363699060980e-04 -7.910774634653e-06 0.0 
-7.910774634653e-06 1.122096348317e-02 0.0 
0.0 0.0 0.0 
-7.505895750728e-04 -9.983422232516e-06 0.0 
-9.983422232516e-06 1.122088676878e-02 0.0 
0.0 0.0 0.0 
-7.681086718907e-04 -6.361743283480e-06 0.0 
-6.361743283480e-06 1.123079536677e-02 0.0 
0.0 0.0 0.0 
-7.983551660553e-04 -1.568470908222e-06 0.0 
-1.568470908222e-06 1.124910765411e-02 0.0 
0.0 0.0 0.0 
-8.293648877262e-04 1.005557444161e-05 0.0 
1.005557444161e-05 1.125357092252e-02 0.0 
0.0 0.0 0.0 
-8.621140741967e-04 2.886026801406e-05 0.0 
2.886026801406e-05 1.125704501472e-02 0.0 
0.0 0.0 0.0 
-9.068528854673e-04 5.880508082183e-05 0.0 
5.880508082183e-05 1.126123647818e-02 0.0 
0.0 0.0 0.0 
-9.580548015947e-04 1.102499677083e-04 0.0 
1.102499677083e-04 1.126333722664e-02 0.0 
0.0 0.0 0.0 
-1.021561115065e-03 1.869249241040e-04 0.0 
1.869249241040e-04 1.126900716369e-02 0.0 
0.0 0.0 0.0 
-9.487246789647e-04 1.604333006591e-04 0.0 
1.604333006591e-04 5.612680798395e-04 0.0 
0.0 0.0 0.0 
-1.069074538213e-03 2.858403452812e-05 0.0 
2.858403452812e-05 5.877466817035e-04 0.0 
0.0 0.0 0.0 
-1.073082797641e-03 -3.934786381167e-05 0.0 
-3.934786381167e-05 5.675189361627e-04 0.0 
0.0 0.0 0.0 
-9.981024511041e-04 -5.519316373769e-05 0.0 
-5.519316373769e-05 5.294478001824e-04 0.0 
0.0 0.0 0.0 
-8.841826748665e-04 -7.079864617940e-05 0.0 
-7.079864617940e-05 4.879936962387e-04 0.0 
0.0 0.0 0.0 
-7.879582902071e-04 -7.126764777986e-05 0.0 
-7.126764777986e-05 4.512433313963e-04 0.0 
0.0 0.0 0.0 
-6.878466178560e-04 -6.843956654142e-05 0.0 
-6.843956654142e-05 4.092649281307e-04 0.0 
0.0 0.0 0.0 
-5.866765157281e-04 -6.482510189185e-05 0.0 
-6.482510189185e-05 3.650822258256e-04 0.0 
0.0 0.0 0.0 
-4.915269251949e-04 -6.251531735051e-05 0.0 
-6.251531735051e-05 3.245318960065e-04 0.0 
0.0 0.0 0.0 
-4.016716038654e-04 -5.812936041397e-05 0.0 
-5.812936041397e-05 2.853277517483e-04 0.0 
0.0 0.0 0.0 
-3.157374203831e-04 -5.212539473479e-05 0.0 
-5.212539473479e-05 2.532406557481e-04 0.0 
0.0 0.0 0.0 
-2.601281643572e-04 -4.588473762320e-05 0.0 
-4.588473762320e-05 2.321281698883e-04 0.0 
0.0 0.0 0.0 
-1.843167449111e-04 -3.705657955920e-05 0.0 
-3.705657955920e-05 1.960542093459e-04 0.0 
0.0 0.0 0.0 
-1.157874135298e-04 -3.516496854488e-05 0.0 
-3.516496854488e-05 1.607129030845e-04 0.0 
0.0 0.0 0.0 
-6.645747422851e-05 -3.344193407394e-05 0.0 
-3.344193407394e-05 1.404020228854e-04 0.0 
0.0 0.0 0.0 
-3.493430136510e-05 -2.499810828282e-05 0.0 
-2.499810828282e-05 1.289491608196e-04 0.0 
0.0 0.0 0.0 
-6.490472421146e-06 -1.407764296705e-05 0.0 
-1.407764296705e-05 1.164372571091e-04 0.0 
0.0 0.0 0.0 
2.387040571975e-05 -2.209229193270e-06 0.0 
-2.209229193270e-06 9.597643304578e-05 0.0 
0.0 0.0 0.0 
3.543813075576e-05 3.678087034400e-06 0.0 
3.678087034400e-06 8.166772915656e-05 0.0 
0.0 0.0 0.0 
-8.953427030857e-04 2.874269859498e-04 0.0 
2.874269859498e-04 1.007444167514e-02 0.0 
0.0 0.0 0.0 
-6.171025204146e-04 1.587581546037e-04 0.0 
1.587581546037e-04 1.006008484601e-02 0.0 
0.0 0.0 0.0 
-4.898392881126e-04 6.787192949387e-05 0.0 
6.787192949387e-05 1.005541363459e-02 0.0 
0.0 0.0 0.0 
-4.555604390395e-04 7.120023461887e-06 0.0 
7.120023461887e-06 1.004611625653e-02 0.0 
0.0 0.0 0.0 
-4.488665236161e-04 -1.273590500915e-05 0.0 
-1.273590500915e-05 1.004926700795e-02 0.0 
0.0 0.0 0.0 
-4.671170448302e-04 -2.459229507409e-05 0.0 
-2.459229507409e-05 1.005572380134e-02 0.0 
0.0 0.0 0.0 
-4.932514752478e-04 -2.703282931913e-05 0.0 
-2.703282931913e-05 1.006961450989e-02 0.0 
0.0 0.0 0.0 
-5.230958434103e-04 -2.721456702086e-05 0.0 
-2.721456702086e-05 1.008263467811e-02 0.0 
0.0 0.0 0.0 
-5.537999748110e-04 -2.571305651978e-05 0.0 
-2.571305651978e-05 1.009498347793e-02 0.0 
0.0 0.0 0.0 
-5.829863486349e-04 -2.363076501918e-05 0.0 
-2.363076501918e-05 1.010643691833e-02 0.0 
0.0 0.0 0.0 
-6.095276822962e-04 -2.143117474765e-05 0.0 
-2.143117474765e-05 1.011763912487e-02 0.0 
0.0 0.0 0.0 
-6.326448069709e-04 -1.824922757601e-05 0.0 
-1.824922757601e-05 1.012739613911e-02 0.0 
0.0 0.0 0.0 
-6.514398553116e-04 -1.502714440527e-05 0.0 
-1.502714440527e-05 1.013449727215e-02 0.0 
0.0 0.0 0.0 
-6.671287772402e-04 -1.182114599686e-05 0.0 
-1.182114599686e-05 1.013999108279e-02 0.0 
0.0 0.0 0.0 
-6.788397593394e-04 -8.109317438790e-06 0.0 
-8.109317438790e-06 1.014453311996e-02 0.0 
0.0 0.0 0.0 
-6.870124329515e-04 -3.049182148859e-06 0.0 
-3.049182148859e-06 1.014843125118e-02 0.0 
0.0 0.0 0.0 
-6.910350820595e-04 3.836469912784e-06 0.0 
3.836469912784e-06 1.015076200034e-02 0.0 
0.0 0.0 0.0 
-7.070123737302e-04 1.023444183240e-05 0.0 
1.023444183240e-05 1.014181159758e-02 0.0 
0.0 0.0 0.0 
-7.423569891502e-04 2.756643354952e-05 0.0 
2.756643354952e-05 1.010202401407e-02 0.0 
0.0 0.0 0.0 
-7.210433476243e-04 1.400724645096e-05 0.0 
1.400724645096e-05 1.036960296554e-02 0.0 
0.0 0.0 0.0 
-7.052797772831e-04 1.608005938621e-06 0.0 
1.608005938621e-06 1.036720804116e-02 0.0 
0.0 0.0 0.0 
-6.993398772205e-04 -5.879477534194e-06 0.0 
-5.879477534194e-06 1.036504803534e-02 0.0 
0.0 0.0 0.0 
-6.942939669075e-04 -1.158615003989e-05 0.0 
-1.158615003989e-05 1.036247345426e-02 0.0 
0.0 0.0 0.0 
-6.883410354857e-04 -1.668641268709e-05 0.0 
-1.668641268709e-05 1.035980055415e-02 0.0 
0.0 0.0 0.0 
-6.820014803223e-04 -2.197548378309e-05 0.0 
-2.197548378309e-05 1.035744177561e-02 0.0 
0.0 0.0 0.0 
-6.740177381708e-04 -2.670576846496e-05 0.0 
-2.670576846496e-05 1.035453422179e-02 0.0 
0.0 0.0 0.0 
-6.652012317629e-04 -3.243224859126e-05 0.0 
-3.243224859126e-05 1.035033061096e-02 0.0 
0.0 0.0 0.0 
-6.543841580751e-04 -3.647031605531e-05 0.0 
-3.647031605531e-05 1.034392173240e-02 0.0 
0.0 0.0 0.0 
-6.445061341602e-04 -3.880591338082e-05 0.0 
-3.880591338082e-05 1.033897002120e-02 0.0 
0.0 0.0 0.0 
-6.360638285506e-04 -3.980406600605e-05 0.0 
-3.980406600605e-05 1.033429991778e-02 0.0 
0.0 0.0 0.0 
-6.307987728602e-04 -3.695525074356e-05 0.0 
-3.695525074356e-05 1.032928186351e-02 0.0 
0.0 0.0 0.0 
-6.328465739745e-04 -2.849974893525e-05 0.0 
-2.849974893525e-05 1.032560472518e-02 0.0 
0.0 0.0 0.0 
-6.459514870656e-04 -1.021829663334e-05 0.0 
-1.021829663334e-05 1.032162525474e-02 0.0 
0.0 0.0 0.0 
-6.729946577503e-04 3.207450473190e-05 0.0 
3.207450473190e-05 1.032509323433e-02 0.0 
0.0 0.0 0.0 
-7.557080682890e-04 1.170837905691e-04 0.0 
1.170837905691e-04 1.035682529632e-02 0.0 
0.0 0.0 0.0 
-8.140828483320e-04 2.040964158131e-04 0.0 
2.040964158131e-04 1.029968625162e-02 0.0 
0.0 0.0 0.0 
-9.513871673000e-04 1.939316069862e-04 0.0 
1.939316069862e-04 1.076761784444e-02 0.0 
0.0 0.0 0.0 
-9.154179312063e-04 1.218110715356e-04 0.0 
1.218110715356e-04 1.084061099425e-02 0.0 
0.0 0.0 0.0 
-8.504035888735e-04 5.071302486960e-05 0.0 
5.071302486960e-05 1.082377070990e-02 0.0 
0.0 0.0 0.0 
-8.064043031286e-04 1.359109551854e-05 0.0 
1.359109551854e-05 1.081760675704e-02 0.0 
0.0 0.0 0.0 
-7.768560841790e-04 -9.442102365841e-06 0.0 
-9.442102365841e-06 1.081438380072e-02 0.0 
0.0 0.0 0.0 
-7.553916032208e-04 -2.079416928111e-05 0.0 
-2.079416928111e-05 1.081094832660e-02 0.0 
0.0 0.0 0.0 
-7.402598681997e-04 -2.597377781144e-05 0.0 
-2.597377781144e-05 1.080656677352e-02 0.0 
0.0 0.0 0.0 
-7.294593455795e-04 -2.823425948108e-05 0.0 
-2.823425948108e-05 1.080467319911e-02 0.0 
0.0 0.0 0.0 
-7.195309839196e-04 -2.509120911137e-05 0.0 
-2.509120911137e-05 1.080335772755e-02 0.0 
0.0 0.0 0.0 
-7.147908794731e-04 -2.326842134061e-05 0.0 
-2.326842134061e-05 1.080032965072e-02 0.0 
0.0 0.0 0.0 
-7.100119105890e-04 -1.887706441959e-05 0.0 
-1.887706441959e-05 1.079848137141e-02 0.0 
0.0 0.0 0.0 
-7.073971410614e-04 -1.634062399189e-05 0.0 
-1.634062399189e-05 1.079679673388e-02 0.0 
0.0 0.0 0.0 
-7.070185954389e-04 -1.193910587759e-05 0.0 
-1.193910587759e-05 1.079744981965e-02 0.0 
0.0 0.0 0.0 
-7.065898520496e-04 -1.001184461429e-05 0.0 
-1.001184461429e-05 1.079587438707e-02 0.0 
0.0 0.0 0.0 
-7.079999209940e-04 -1.243953649699e-05 0.0 
-1.243953649699e-05 1.079648221718e-02 0.0 
0.0 0.0 0.0 
-7.097416015987e-04 1.264948308515e-05 0.0 
1.264948308515e-05 1.079476355608e-02 0.0 
0.0 0.0 0.0 
-8.321027581184e-04 8.165542156624e-04 0.0 
8.165542156624e-04 7.766299244977e-04 0.0 
0.0 0.0 0.0 
-9.749312438958e-04 1.262837218149e-03 0.0 
1.262837218149e-03 1.914640630765e-03 0.0 
0.0 0.0 0.0 
-1.027377674563e-03 1.438221470190e-03 0.0 
1.438221470190e-03 3.243246947659e-03 0.0 
0.0 0.0 0.0 
-1.038814697420e-03 1.492266941622e-03 0.0 
1.492266941622e-03 4.624149417899e-03 0.0 
0.0 0.0 0.0 
-1.039485453301e-03 1.503791388353e-03 0.0 
1.503791388353e-03 5.975285497131e-03 0.0 
0.0 0.0 0.0 
-9.768273842723e-04 1.475266705713e-03 0.0 
1.475266705713e-03 7.353645538134e-03 0.0 
0.0 0.0 0.0 
-1.132364655434e-03 1.387389714825e-03 0.0 
1.387389714825e-03 8.816048897725e-03 0.0 
0.0 0.0 0.0 
-1.162960518827e-03 6.363313532832e-04 0.0 
6.363313532832e-04 1.017813621371e-02 0.0 
0.0 0.0 0.0 
-1.093881055277e-03 4.455675304628e-04 0.0 
4.455675304628e-04 1.063404200829e-02 0.0 
0.0 0.0 0.0 
-1.112591948302e-03 3.466255676891e-04 0.0 
3.466255676891e-04 1.108026088731e-02 0.0 
0.0 0.0 0.0 
-7.695520518140e-04 1.167985164753e-03 0.0 
1.167985164753e-03 2.317050923693e-03 0.0 
0.0 0.0 0.0 
2.008343235066e-04 1.580973484935e-03 0.0 
1.580973484935e-03 9.084166145171e-03 0.0 
0.0 0.0 0.0 
-3.473135078008e-04 -1.051307400823e-04 0.0 
-1.051307400823e-04 4.001508641826e-04 0.0 
0.0 0.0 0.0 
-7.233071521904e-04 -9.465498362353e-05 0.0 
-9.465498362353e-05 5.554274694973e-04 0.0 
0.0 0.0 0.0 
1.861350410244e-04 1.007488124317e-03 0.0 
1.007488124317e-03 8.445536352303e-03 0.0 
0.0 0.0 0.0 
-8.435522883723e-04 1.470825641113e-03 0.0 
1.470825641113e-03 4.996403351157e-03 0.0 
0.0 0.0 0.0 
6.536485693261e-04 -2.041846361703e-06 0.0 
-2.041846361703e-06 3.949115634133e-03 0.0 
0.0 0.0 0.0 
1.654977954429e-04 2.024204752793e-03 0.0 
2.024204752793e-03 9.921506396622e-03 0.0 
0.0 0.0 0.0 
-8.892140941886e-04 1.517934876277e-03 0.0 
1.517934876277e-03 7.624224360582e-03 0.0 
0.0 0.0 0.0 
5.355878224737e-05 2.300627739487e-03 0.0 
2.300627739487e-03 1.109950456195e-02 0.0 
0.0 0.0 0.0 
-1.218419211212e-03 9.821699502027e-04 0.0 
9.821699502027e-04 1.022336695325e-02 0.0 
0.0 0.0 0.0 
1.546561392101e-04 6.006564346119e-04 0.0 
6.006564346119e-04 8.215933538703e-03 0.0 
0.0 0.0 0.0 
-9.899532650063e-05 -6.246113238290e-05 0.0 
-6.246113238290e-05 2.811814253602e-04 0.0 
0.0 0.0 0.0 
-9.626186463133e-05 2.247612636508e-03 0.0 
2.247612636508e-03 1.241065066561e-02 0.0 
0.0 0.0 0.0 
-1.222542976886e-03 5.070166445579e-04 0.0 
5.070166445579e-04 1.137967759418e-02 0.0 
0.0 0.0 0.0 
4.616307087823e-04 -2.219824777850e-05 0.0 
-2.219824777850e-05 2.362422564219e-03 0.0 
0.0 0.0 0.0 
6.461709993471e-04 2.557764560724e-05 0.0 
2.557764560724e-05 5.137833806754e-03 0.0 
0.0 0.0 0.0 
-2.061987712508e-04 1.964199160356e-03 0.0 
1.964199160356e-03 1.327128699946e-02 0.0 
0.0 0.0 0.0 
-2.282509591593e-04 1.419027153540e-03 0.0 
1.419027153540e-03 1.410530027520e-02 0.0 
0.0 0.0 0.0 
-1.406730793101e-04 3.872045550331e-04 0.0 
3.872045550331e-04 1.467593525433e-02 0.0 
0.0 0.0 0.0 
-1.920845654533e-04 6.680652823467e-04 0.0 
6.680652823467e-04 1.457615693628e-02 0.0 
0.0 0.0 0.0 
-2.081154860293e-04 1.013853086594e-03 0.0 
1.013853086594e-03 1.443812622345e-02 0.0 
0.0 0.0 0.0 
-1.074426051002e-03 2.503259762713e-04 0.0 
2.503259762713e-04 1.164797291342e-02 0.0 
0.0 0.0 0.0 
-8.596467115927e-04 5.951833833580e-05 0.0 
5.951833833580e-05 1.165365095608e-02 0.0 
0.0 0.0 0.0 
-7.646658838172e-04 2.406199111893e-05 0.0 
2.406199111893e-05 1.165607352942e-02 0.0 
0.0 0.0 0.0 
-5.571621694307e-04 1.963801448837e-05 0.0 
1.963801448837e-05 1.305145655000e-02 0.0 
0.0 0.0 0.0 
1.381144853567e-04 3.434698089106e-04 0.0 
3.434698089106e-04 8.087671748975e-03 0.0 
0.0 0.0 0.0 
-7.843857094463e-04 1.172057257531e-04 0.0 
1.172057257531e-04 6.458645287134e-04 0.0 
0.0 0.0 0.0 
1.602696875525e-05 -3.521199722328e-05 0.0 
-3.521199722328e-05 2.499967480284e-04 0.0 
0.0 0.0 0.0 
4.515061384345e-04 4.829167937131e-05 0.0 
4.829167937131e-05 6.638630597167e-03 0.0 
0.0 0.0 0.0 
-7.093457333217e-04 9.160380311071e-06 0.0 
9.160380311071e-06 1.158410529693e-02 0.0 
0.0 0.0 0.0 
2.220215398806e-04 -2.773059572824e-05 0.0 
-2.773059572824e-05 1.207828877133e-03 0.0 
0.0 0.0 0.0 
-2.622491366521e-04 1.674763809671e-03 0.0 
1.674763809671e-03 1.371828754471e-02 0.0 
0.0 0.0 0.0 
1.099910983834e-04 2.207290827966e-03 0.0 
2.207290827966e-03 1.052209954910e-02 0.0 
0.0 0.0 0.0 
-2.201499571717e-05 2.320791039844e-03 0.0 
2.320791039844e-03 1.176053829212e-02 0.0 
0.0 0.0 0.0 
2.035839790731e-04 1.827090367431e-03 0.0 
1.827090367431e-03 9.461241857780e-03 0.0 
0.0 0.0 0.0 
1.850181558001e-04 1.345533588919e-03 0.0 
1.345533588919e-03 8.795795459388e-03 0.0 
0.0 0.0 0.0 
-5.712629827150e-04 -1.162468871379e-04 0.0 
-1.162468871379e-04 5.087252347928e-04 0.0 
0.0 0.0 0.0 
-9.506816582658e-04 1.194806520633e-04 0.0 
1.194806520633e-04 1.164873880538e-02 0.0 
0.0 0.0 0.0 
1.946949791848e-04 7.796872229061e-04 0.0 
7.796872229061e-04 8.203241905923e-03 0.0 
0.0 0.0 0.0 
-4.138167690396e-04 3.608323787748e-05 0.0 
3.608323787748e-05 1.377905048092e-02 0.0 
0.0 0.0 0.0 
-2.079312757899e-04 -9.559671499700e-05 0.0 
-9.559671499700e-05 3.483373587667e-04 0.0 
0.0 0.0 0.0 
5.824630096355e-04 -1.557472032036e-05 0.0 
-1.557472032036e-05 3.116110599728e-03 0.0 
0.0 0.0 0.0 
-1.093041886048e-04 2.378975085270e-04 0.0 
2.378975085270e-04 1.474340631831e-02 0.0 
0.0 0.0 0.0 
-8.261074256843e-04 1.518155423321e-03 0.0 
1.518155423321e-03 6.292277250339e-03 0.0 
0.0 0.0 0.0 
-8.121092273104e-04 1.366835160532e-03 0.0 
1.366835160532e-03 3.628403492645e-03 0.0 
0.0 0.0 0.0 
-1.109140996578e-03 1.436404610102e-03 0.0 
1.436404610102e-03 9.070577685905e-03 0.0 
0.0 0.0 0.0 
-1.242298718750e-03 6.708264705017e-04 0.0 
6.708264705017e-04 1.087532649462e-02 0.0 
0.0 0.0 0.0 
-7.389385278470e-04 8.021905047840e-04 0.0 
8.021905047840e-04 1.134592491962e-03 0.0 
0.0 0.0 0.0 
-6.454234780299e-04 9.839713491087e-06 0.0 
9.839713491087e-06 1.230331597619e-02 0.0 
0.0 0.0 0.0 
1.053889736888e-04 1.881087134765e-04 0.0 
1.881087134765e-04 8.141279837362e-03 0.0 
0.0 0.0 0.0 
5.565713563009e-05 -8.066479558804e-06 0.0 
-8.066479558804e-06 2.155316031210e-04 0.0 
0.0 0.0 0.0 
-2.013748193824e-04 5.909436173041e-05 0.0 
5.909436173041e-05 1.445614914298e-02 0.0 
0.0 0.0 0.0 
-1.215324776491e-03 4.692786107404e-04 0.0 
4.692786107404e-04 1.159883813622e-02 0.0 
0.0 0.0 0.0 
-1.250228195006e-03 6.620248051425e-04 0.0 
6.620248051425e-04 1.166418757332e-02 0.0 
0.0 0.0 0.0 
-1.209105619785e-03 5.799686721130e-04 0.0 
5.799686721130e-04 1.190750461904e-02 0.0 
0.0 0.0 0.0 
-1.228066000604e-03 8.093612057412e-04 0.0 
8.093612057412e-04 1.193925671344e-02 0.0 
0.0 0.0 0.0 
-1.195337172393e-03 7.437344934999e-04 0.0 
7.437344934999e-04 1.221537740923e-02 0.0 
0.0 0.0 0.0 
-1.174619092899e-03 9.422883754498e-04 0.0 
9.422883754498e-04 1.220989106948e-02 0.0 
0.0 0.0 0.0 
-1.197402490670e-03 1.028435464787e-03 0.0 
1.028435464787e-03 1.190177302580e-02 0.0 
0.0 0.0 0.0 
-1.117848301819e-03 1.144386179844e-03 0.0 
1.144386179844e-03 1.215423926495e-02 0.0 
0.0 0.0 0.0 
-1.118572327673e-03 1.240410754156e-03 0.0 
1.240410754156e-03 1.179968996476e-02 0.0 
0.0 0.0 0.0 
-1.134584861456e-03 8.793159993076e-04 0.0 
8.793159993076e-04 1.249466020706e-02 0.0 
0.0 0.0 0.0 
-1.024425057988e-03 1.334309154051e-03 0.0 
1.334309154051e-03 1.204813395554e-02 0.0 
0.0 0.0 0.0 
-1.001484037703e-03 1.430535841067e-03 0.0 
1.430535841067e-03 1.164705117698e-02 0.0 
0.0 0.0 0.0 
-9.006930905578e-04 1.504776641566e-03 0.0 
1.504776641566e-03 1.189940364609e-02 0.0 
0.0 0.0 0.0 
-8.562022462250e-04 1.592034064618e-03 0.0 
1.592034064618e-03 1.145743203574e-02 0.0 
0.0 0.0 0.0 
-9.443583375176e-04 1.539089795792e-03 0.0 
1.539089795792e-03 1.119831574081e-02 0.0 
0.0 0.0 0.0 
-7.758451378064e-04 1.682236592777e-03 0.0 
1.682236592777e-03 1.096771544895e-02 0.0 
0.0 0.0 0.0 
-8.504540323253e-04 1.650656133599e-03 0.0 
1.650656133599e-03 1.069640285568e-02 0.0 
0.0 0.0 0.0 
-6.608755235246e-04 1.765704045699e-03 0.0 
1.765704045699e-03 1.042807493817e-02 0.0 
0.0 0.0 0.0 
-5.970227814394e-04 1.786175842862e-03 0.0 
1.786175842862e-03 1.072682172544e-02 0.0 
0.0 0.0 0.0 
-4.688660814046e-04 1.838329331224e-03 0.0 
1.838329331224e-03 1.016140880459e-02 0.0 
0.0 0.0 0.0 
-5.138427684005e-04 1.830870382111e-03 0.0 
1.830870382111e-03 9.838879359043e-03 0.0 
0.0 0.0 0.0 
-3.155084944991e-04 1.870259488272e-03 0.0 
1.870259488272e-03 9.558647204986e-03 0.0 
0.0 0.0 0.0 
-3.449767971458e-04 1.867931896984e-03 0.0 
1.867931896984e-03 9.211154963087e-03 0.0 
0.0 0.0 0.0 
-1.477095400692e-04 1.873092418329e-03 0.0 
1.873092418329e-03 8.928959125948e-03 0.0 
0.0 0.0 0.0 
-1.665570421933e-04 1.868840253720e-03 0.0 
1.868840253720e-03 8.555490379221e-03 0.0 
0.0 0.0 0.0 
2.472896130893e-05 1.844247019283e-03 0.0 
1.844247019283e-03 8.282936097054e-03 0.0 
0.0 0.0 0.0 
3.236748098329e-05 1.853758645908e-03 0.0 
1.853758645908e-03 8.678238667336e-03 0.0 
0.0 0.0 0.0 
1.963724153158e-04 1.801414066890e-03 0.0 
1.801414066890e-03 8.045568522557e-03 0.0 
0.0 0.0 0.0 
1.935041708379e-04 1.785403338821e-03 0.0 
1.785403338821e-03 7.632106958865e-03 0.0 
0.0 0.0 0.0 
3.536733635579e-04 1.721517502885e-03 0.0 
1.721517502885e-03 7.414299043265e-03 0.0 
0.0 0.0 0.0 
3.495534543836e-04 1.696022005434e-03 0.0 
1.696022005434e-03 6.986718161781e-03 0.0 
0.0 0.0 0.0 
4.971128276810e-04 1.615017076131e-03 0.0 
1.615017076131e-03 6.791603852718e-03 0.0 
0.0 0.0 0.0 
4.915063449803e-04 1.649075085731e-03 0.0 
1.649075085731e-03 7.233328705803e-03 0.0 
0.0 0.0 0.0 
6.214702643653e-04 1.529114941448e-03 0.0 
1.529114941448e-03 6.637011189361e-03 0.0 
0.0 0.0 0.0 
6.210191927507e-04 1.483713354221e-03 0.0 
1.483713354221e-03 6.183645119494e-03 0.0 
0.0 0.0 0.0 
7.320007127853e-04 1.389382963087e-03 0.0 
1.389382963087e-03 6.060267641540e-03 0.0 
0.0 0.0 0.0 
7.213055401990e-04 1.332570791817e-03 0.0 
1.332570791817e-03 5.599606595249e-03 0.0 
0.0 0.0 0.0 
8.199519650512e-04 1.234728684853e-03 0.0 
1.234728684853e-03 5.509167382133e-03 0.0 
0.0 0.0 0.0 
7.955623145753e-04 1.168754118892e-03 0.0 
1.168754118892e-03 5.044808751627e-03 0.0 
0.0 0.0 0.0 
8.827738404238e-04 1.067653179966e-03 0.0 
1.067653179966e-03 4.984601834619e-03 0.0 
0.0 0.0 0.0 
8.956792897912e-04 1.140229646956e-03 0.0 
1.140229646956e-03 5.451951949516e-03 0.0 
0.0 0.0 0.0 
9.477333012091e-04 9.739167887763e-04 0.0 
9.739167887763e-04 4.955777126711e-03 0.0 
0.0 0.0 0.0 
9.185963694239e-04 8.943062922883e-04 0.0 
8.943062922883e-04 4.491482477957e-03 0.0 
0.0 0.0 0.0 
9.744224848247e-04 8.037946821765e-04 0.0 
8.037946821765e-04 4.490590751373e-03 0.0 
0.0 0.0 0.0 
9.938477487451e-04 8.897944764504e-04 0.0 
8.897944764504e-04 4.956511069508e-03 0.0 
0.0 0.0 0.0 
1.012059925236e-03 7.252521726144e-04 0.0 
7.252521726144e-04 4.517080784189e-03 0.0 
0.0 0.0 0.0 
1.021909337811e-03 8.164435227041e-04 0.0 
8.164435227041e-04 4.983742785585e-03 0.0 
0.0 0.0 0.0 
1.033197366296e-03 6.585141225954e-04 0.0 
6.585141225954e-04 4.567869333799e-03 0.0 
0.0 0.0 0.0 
1.006896613594e-03 5.648106494577e-04 0.0 
5.648106494577e-04 4.113115677757e-03 0.0 
0.0 0.0 0.0 
1.022960475474e-03 5.061897205721e-04 0.0 
5.061897205721e-04 4.184656235916e-03 0.0 
0.0 0.0 0.0 
1.039854666412e-03 6.023201707493e-04 0.0 
6.023201707493e-04 4.639205506050e-03 0.0 
0.0 0.0 0.0 
1.026076240441e-03 4.577759695496e-04 0.0 
4.577759695496e-04 4.273188098091e-03 0.0 
0.0 0.0 0.0 
9.926580975136e-04 3.619775271213e-04 0.0 
3.619775271213e-04 3.832292357608e-03 0.0 
0.0 0.0 0.0 
9.944288916303e-04 3.239559690759e-04 0.0 
3.239559690759e-04 3.937442541344e-03 0.0 
0.0 0.0 0.0 
1.018270536283e-03 4.199077311631e-04 0.0 
4.199077311631e-04 4.379084796129e-03 0.0 
0.0 0.0 0.0 
9.865369959771e-04 2.948792976101e-04 0.0 
2.948792976101e-04 4.056815010563e-03 0.0 
0.0 0.0 0.0 
9.472155088394e-04 2.018166175191e-04 0.0 
2.018166175191e-04 3.628919815911e-03 0.0 
0.0 0.0 0.0 
9.410513237892e-04 1.825373656850e-04 0.0 
1.825373656850e-04 3.759354498407e-03 0.0 
0.0 0.0 0.0 
9.707610675947e-04 2.740775602382e-04 0.0 
2.740775602382e-04 4.190758999713e-03 0.0 
0.0 0.0 0.0 
9.280392846294e-04 1.694829630988e-04 0.0 
1.694829630988e-04 3.899849387280e-03 0.0 
0.0 0.0 0.0 
8.841544904951e-04 8.373346336112e-05 0.0 
8.373346336112e-05 3.482401757511e-03 0.0 
0.0 0.0 0.0 
8.751980267507e-04 7.950997128332e-05 0.0 
7.950997128332e-05 3.628697722758e-03 0.0 
0.0 0.0 0.0 
9.095775293249e-04 1.626382849852e-04 0.0 
1.626382849852e-04 4.051042563201e-03 0.0 
0.0 0.0 0.0 
8.615078674511e-04 7.959446554283e-05 0.0 
7.959446554283e-05 3.782818534264e-03 0.0 
0.0 0.0 0.0 
8.860926429753e-04 1.595161973327e-04 0.0 
1.595161973327e-04 4.210114486079e-03 0.0 
0.0 0.0 0.0 
8.140990284875e-04 3.394305024242e-06 0.0 
3.394305024242e-06 3.370577895758e-03 0.0 
0.0 0.0 0.0 
8.066495462876e-04 1.042986705200e-05 0.0 
1.042986705200e-05 3.528301355337e-03 0.0 
0.0 0.0 0.0 
7.470913011173e-04 -5.724357292160e-05 0.0 
-5.724357292160e-05 3.124889480072e-03 0.0 
0.0 0.0 0.0 
7.468213708794e-04 -4.385189574124e-05 0.0 
-4.385189574124e-05 3.286465775919e-03 0.0 
0.0 0.0 0.0 
6.055434860211e-04 1.573205714036e-03 0.0 
1.573205714036e-03 7.090154348328e-03 0.0 
0.0 0.0 0.0 
6.775999863802e-04 -1.017654376311e-04 0.0 
-1.017654376311e-04 2.891909087674e-03 0.0 
0.0 0.0 0.0 
6.668919841641e-04 -1.176640146363e-04 0.0 
-1.176640146363e-04 2.738108237225e-03 0.0 
0.0 0.0 0.0 
6.846418682680e-04 -8.346977996950e-05 0.0 
-8.346977996950e-05 3.055155600949e-03 0.0 
0.0 0.0 0.0 
7.429504828180e-04 -2.854710653241e-05 0.0 
-2.854710653241e-05 3.455287380186e-03 0.0 
0.0 0.0 0.0 
6.078012015421e-04 -1.317065498949e-04 0.0 
-1.317065498949e-04 2.667231456549e-03 0.0 
0.0 0.0 0.0 
6.219227575733e-04 -1.095029975077e-04 0.0 
-1.095029975077e-04 2.831502619337e-03 0.0 
0.0 0.0 0.0 
5.386452504463e-04 -1.473022817386e-04 0.0 
-1.473022817386e-04 2.450092053112e-03 0.0 
0.0 0.0 0.0 
6.844237663471e-04 1.273861467302e-03 0.0 
1.273861467302e-03 5.133475700877e-03 0.0 
0.0 0.0 0.0 
-4.189269388972e-04 1.855545270266e-03 0.0 
1.855545270266e-03 1.048815862357e-02 0.0 
0.0 0.0 0.0 
5.597099423782e-04 -1.223498156818e-04 0.0 
-1.223498156818e-04 2.614209716554e-03 0.0 
0.0 0.0 0.0 
4.724436266334e-04 -1.507330737727e-04 0.0 
-1.507330737727e-04 2.237865078047e-03 0.0 
0.0 0.0 0.0 
4.408645644767e-04 -1.753642121744e-04 0.0 
-1.753642121744e-04 2.077637357120e-03 0.0 
0.0 0.0 0.0 
3.744650597473e-04 -1.689177422131e-04 0.0 
-1.689177422131e-04 1.868642234395e-03 0.0 
0.0 0.0 0.0 
-1.145430808711e-03 6.983785685724e-04 0.0 
6.983785685724e-04 1.246463690232e-02 0.0 
0.0 0.0 0.0 
-1.072224756664e-03 8.304662482396e-04 0.0 
8.304662482396e-04 1.276242182148e-02 0.0 
0.0 0.0 0.0 
-1.080344064112e-03 6.544676880500e-04 0.0 
6.544676880500e-04 1.270380167324e-02 0.0 
0.0 0.0 0.0 
-1.000489505957e-03 7.918324553740e-04 0.0 
7.918324553740e-04 1.301578595632e-02 0.0 
0.0 0.0 0.0 
-1.007246880150e-03 6.301232574051e-04 0.0 
6.301232574051e-04 1.294304945666e-02 0.0 
0.0 0.0 0.0 
4.110555578557e-04 -1.439428430929e-04 0.0 
-1.439428430929e-04 2.027402607176e-03 0.0 
0.0 0.0 0.0 
-9.101855857315e-04 1.427720270861e-03 0.0 
1.427720270861e-03 1.230044415949e-02 0.0 
0.0 0.0 0.0 
-9.710231899444e-04 9.617043437382e-04 0.0 
9.617043437382e-04 1.304910106474e-02 0.0 
0.0 0.0 0.0 
-5.558861079942e-04 1.827055531584e-03 0.0 
1.827055531584e-03 9.524407314002e-03 0.0 
0.0 0.0 0.0 
1.796845748050e-04 1.766198169046e-03 0.0 
1.766198169046e-03 7.220365146864e-03 0.0 
0.0 0.0 0.0 
9.882501685572e-04 9.760141039677e-04 0.0 
9.760141039677e-04 5.431396227024e-03 0.0 
0.0 0.0 0.0 
6.324792149415e-04 -8.700029639742e-05 0.0 
-8.700029639742e-05 2.999389450778e-03 0.0 
0.0 0.0 0.0 
5.770245818026e-04 -9.690410421938e-05 0.0 
-9.690410421938e-05 2.781595302656e-03 0.0 
0.0 0.0 0.0 
6.394377015096e-04 -6.549376486800e-05 0.0 
-6.549376486800e-05 3.171002270957e-03 0.0 
0.0 0.0 0.0 
9.204119662503e-04 2.492009561306e-04 0.0 
2.492009561306e-04 4.490144584533e-03 0.0 
0.0 0.0 0.0 
8.871607925655e-04 2.418458795750e-04 0.0 
2.418458795750e-04 4.652502239983e-03 0.0 
0.0 0.0 0.0 
9.068853760272e-04 3.375921062145e-04 0.0 
3.375921062145e-04 4.944382570505e-03 0.0 
0.0 0.0 0.0 
8.641867300826e-04 3.249729972659e-04 0.0 
3.249729972659e-04 5.109349872351e-03 0.0 
0.0 0.0 0.0 
8.685195969618e-04 4.259149667864e-04 0.0 
4.259149667864e-04 5.412989389709e-03 0.0 
0.0 0.0 0.0 
8.170555861925e-04 4.074562225364e-04 0.0 
4.074562225364e-04 5.580783176449e-03 0.0 
0.0 0.0 0.0 
8.181201496936e-04 3.122541302633e-04 0.0 
3.122541302633e-04 5.281713254994e-03 0.0 
0.0 0.0 0.0 
7.623565086615e-04 3.877550030151e-04 0.0 
3.877550030151e-04 5.756263607946e-03 0.0 
0.0 0.0 0.0 
7.695675103084e-04 2.984337655929e-04 0.0 
2.984337655929e-04 5.460479701068e-03 0.0 
0.0 0.0 0.0 
8.055811614359e-04 5.129006442384e-04 0.0 
5.129006442384e-04 5.895777966100e-03 0.0 
0.0 0.0 0.0 
8.616076437917e-04 5.369599148532e-04 0.0 
5.369599148532e-04 5.733586377721e-03 0.0 
0.0 0.0 0.0 
7.056647429144e-04 3.663000433036e-04 0.0 
3.663000433036e-04 5.938079817015e-03 0.0 
0.0 0.0 0.0 
7.193108563918e-04 2.827155211972e-04 0.0 
2.827155211972e-04 5.645198453137e-03 0.0 
0.0 0.0 0.0 
6.478552818557e-04 3.427573451855e-04 0.0 
3.427573451855e-04 6.126470165795e-03 0.0 
0.0 0.0 0.0 
6.681707000682e-04 2.636258136503e-04 0.0 
2.636258136503e-04 5.835176405444e-03 0.0 
0.0 0.0 0.0 
7.248348067728e-04 2.093396420612e-04 0.0 
2.093396420612e-04 5.363739403892e-03 0.0 
0.0 0.0 0.0 
6.812051939442e-04 1.948512584391e-04 0.0 
1.948512584391e-04 5.553849018390e-03 0.0 
0.0 0.0 0.0 
7.235231723873e-04 1.467944053461e-04 0.0 
1.467944053461e-04 5.094457319597e-03 0.0 
0.0 0.0 0.0 
1.007376773621e-03 9.080120917008e-04 0.0 
9.080120917008e-04 5.459506511353e-03 0.0 
0.0 0.0 0.0 
9.600279713352e-04 1.063409304761e-03 0.0 
1.063409304761e-03 5.914349697065e-03 0.0 
0.0 0.0 0.0 
9.703198549180e-04 1.000593222720e-03 0.0 
1.000593222720e-03 5.942953009810e-03 0.0 
0.0 0.0 0.0 
9.105300416464e-04 1.152010247396e-03 0.0 
1.152010247396e-03 6.403225084810e-03 0.0 
0.0 0.0 0.0 
9.111932530394e-04 1.094537880880e-03 0.0 
1.094537880880e-03 6.434194691895e-03 0.0 
0.0 0.0 0.0 
8.402289415134e-04 1.242880798287e-03 0.0 
1.242880798287e-03 6.898533368158e-03 0.0 
0.0 0.0 0.0 
8.297201033067e-04 1.190866946866e-03 0.0 
1.190866946866e-03 6.932518461375e-03 0.0 
0.0 0.0 0.0 
8.952621458474e-04 1.043242086107e-03 0.0 
1.043242086107e-03 6.489195138898e-03 0.0 
0.0 0.0 0.0 
-7.564428663394e-04 1.652387897999e-03 0.0 
1.652387897999e-03 1.171791282959e-02 0.0 
0.0 0.0 0.0 
9.283849654406e-04 7.186221317873e-04 0.0 
7.186221317873e-04 4.033902199539e-03 0.0 
0.0 0.0 0.0 
8.614019263326e-04 8.153020155459e-04 0.0 
8.153020155459e-04 4.035144750130e-03 0.0 
0.0 0.0 0.0 
8.526987217474e-04 6.351277492688e-04 0.0 
6.351277492688e-04 3.586748843711e-03 0.0 
0.0 0.0 0.0 
7.721448473461e-04 7.378488893800e-04 0.0 
7.378488893800e-04 3.588970003356e-03 0.0 
0.0 0.0 0.0 
7.439009795368e-04 5.549711345491e-04 0.0 
5.549711345491e-04 3.150657965376e-03 0.0 
0.0 0.0 0.0 
6.462288804209e-04 6.650896319445e-04 0.0 
6.650896319445e-04 3.155829188118e-03 0.0 
0.0 0.0 0.0 
5.970927907765e-04 4.815603812890e-04 0.0 
4.815603812890e-04 2.726867348513e-03 0.0 
0.0 0.0 0.0 
6.889490862574e-04 3.798936437559e-04 0.0 
3.798936437559e-04 2.753029955650e-03 0.0 
0.0 0.0 0.0 
5.208962152575e-04 3.088460609241e-04 0.0 
3.088460609241e-04 2.340180966046e-03 0.0 
0.0 0.0 0.0 
6.095851451720e-04 2.167545389257e-04 0.0 
2.167545389257e-04 2.397036199584e-03 0.0 
0.0 0.0 0.0 
4.212914827810e-04 1.495726374149e-04 0.0 
1.495726374149e-04 1.997378575931e-03 0.0 
0.0 0.0 0.0 
5.081457218234e-04 7.155809491224e-05 0.0 
7.155809491224e-05 2.080538151075e-03 0.0 
0.0 0.0 0.0 
1.925844453274e-04 1.819350495846e-03 0.0 
1.819350495846e-03 8.458622635067e-03 0.0 
0.0 0.0 0.0 
8.331310730221e-04 1.300878486223e-03 0.0 
1.300878486223e-03 6.887998390537e-03 0.0 
0.0 0.0 0.0 
7.540663175347e-04 1.390059431756e-03 0.0 
1.390059431756e-03 7.385638295208e-03 0.0 
0.0 0.0 0.0 
7.413741826148e-04 1.444233392348e-03 0.0 
1.444233392348e-03 7.390240021453e-03 0.0 
0.0 0.0 0.0 
3.317017876668e-04 -1.916694926568e-04 0.0 
-1.916694926568e-04 1.711933237727e-03 0.0 
0.0 0.0 0.0 
6.171854102947e-04 2.403848986579e-04 0.0 
2.403848986579e-04 6.029799287365e-03 0.0 
0.0 0.0 0.0 
7.821337922484e-04 6.272156966815e-04 0.0 
6.272156966815e-04 6.228541408106e-03 0.0 
0.0 0.0 0.0 
8.416586180987e-04 6.563053523805e-04 0.0 
6.563053523805e-04 6.071228674608e-03 0.0 
0.0 0.0 0.0 
8.022025077532e-04 1.144327346398e-03 0.0 
1.144327346398e-03 6.994340430220e-03 0.0 
0.0 0.0 0.0 
3.151396768328e-04 -1.528085631978e-04 0.0 
-1.528085631978e-04 1.663593943336e-03 0.0 
0.0 0.0 0.0 
4.796021438617e-04 6.016071133623e-04 0.0 
6.016071133623e-04 2.737624295761e-03 0.0 
0.0 0.0 0.0 
5.193102231785e-04 7.903415030370e-04 0.0 
7.903415030370e-04 3.200185997425e-03 0.0 
0.0 0.0 0.0 
-9.158161759860e-04 7.595521003591e-04 0.0 
7.595521003591e-04 1.325319420584e-02 0.0 
0.0 0.0 0.0 
-9.234554755462e-04 6.112019509141e-04 0.0 
6.112019509141e-04 1.316612868749e-02 0.0 
0.0 0.0 0.0 
7.451901080918e-04 7.499456176874e-04 0.0 
7.499456176874e-04 6.579941336757e-03 0.0 
0.0 0.0 0.0 
3.547528932212e-04 -1.282446101453e-04 0.0 
-1.282446101453e-04 1.820139341035e-03 0.0 
0.0 0.0 0.0 
6.822906547235e-04 4.602961039227e-04 0.0 
4.602961039227e-04 6.245499254766e-03 0.0 
0.0 0.0 0.0 
3.140298926792e-04 2.499379376249e-04 0.0 
2.499379376249e-04 1.941718120554e-03 0.0 
0.0 0.0 0.0 
6.380048277694e-04 1.766812575111e-04 0.0 
1.766812575111e-04 5.747922378913e-03 0.0 
0.0 0.0 0.0 
5.664463873833e-04 2.132291833649e-04 0.0 
2.132291833649e-04 6.227640856217e-03 0.0 
0.0 0.0 0.0 
8.101131122286e-04 2.286108545811e-04 0.0 
2.286108545811e-04 4.998007218473e-03 0.0 
0.0 0.0 0.0 
6.569788714911e-04 1.533032498212e-03 0.0 
1.533032498212e-03 7.889424685806e-03 0.0 
0.0 0.0 0.0 
6.381534134026e-04 1.577523907374e-03 0.0 
1.577523907374e-03 7.906509561017e-03 0.0 
0.0 0.0 0.0 
6.749475460056e-04 1.455085938909e-04 0.0 
1.455085938909e-04 2.480759072387e-03 0.0 
0.0 0.0 0.0 
5.725602435887e-04 1.557292216479e-05 0.0 
1.557292216479e-05 2.184508857669e-03 0.0 
0.0 0.0 0.0 
3.913540766487e-04 -4.800408125709e-05 0.0 
-4.800408125709e-05 1.811668425488e-03 0.0 
0.0 0.0 0.0 
4.573441117454e-04 -8.673859114443e-05 0.0 
-8.673859114443e-05 1.929409393512e-03 0.0 
0.0 0.0 0.0 
6.276213256758e-04 -2.285822175419e-05 0.0 
-2.285822175419e-05 2.298060886667e-03 0.0 
0.0 0.0 0.0 
5.191605605859e-04 -1.169007809249e-04 0.0 
-1.169007809249e-04 2.041895983109e-03 0.0 
0.0 0.0 0.0 
3.458662906363e-04 -1.692232127631e-04 0.0 
-1.692232127631e-04 1.678720628104e-03 0.0 
0.0 0.0 0.0 
4.051476486312e-04 -1.845474103721e-04 0.0 
-1.845474103721e-04 1.806023404812e-03 0.0 
0.0 0.0 0.0 
5.667033422097e-04 -1.324149538885e-04 0.0 
-1.324149538885e-04 2.172530758366e-03 0.0 
0.0 0.0 0.0 
4.598614444509e-04 -1.920169579791e-04 0.0 
-1.920169579791e-04 1.941819788713e-03 0.0 
0.0 0.0 0.0 
2.902743127519e-04 -2.290796399733e-04 0.0 
-2.290796399733e-04 1.585071798784e-03 0.0 
0.0 0.0 0.0 
3.541253694928e-04 -2.269881565200e-04 0.0 
-2.269881565200e-04 1.722680869308e-03 0.0 
0.0 0.0 0.0 
5.311899680613e-04 2.824170013748e-04 0.0 
2.824170013748e-04 6.519014966111e-03 0.0 
0.0 0.0 0.0 
1.956883249607e-04 9.370002487288e-05 0.0 
9.370002487288e-05 1.615997222640e-03 0.0 
0.0 0.0 0.0 
-1.025147575915e-03 1.486378124584e-03 0.0 
1.486378124584e-03 1.095230481276e-02 0.0 
0.0 0.0 0.0 
6.775380035493e-04 7.150504449985e-04 0.0 
7.150504449985e-04 6.736506861284e-03 0.0 
0.0 0.0 0.0 
7.240896771138e-04 1.291727446881e-03 0.0 
1.291727446881e-03 7.437367095759e-03 0.0 
0.0 0.0 0.0 
-8.206428590805e-04 7.327791857836e-04 0.0 
7.327791857836e-04 1.347891628500e-02 0.0 
0.0 0.0 0.0 
-8.319850234288e-04 5.950322002605e-04 0.0 
5.950322002605e-04 1.338007743989e-02 0.0 
0.0 0.0 0.0 
-9.131331769746e-04 4.788184059291e-04 0.0 
4.788184059291e-04 1.304626356585e-02 0.0 
0.0 0.0 0.0 
-8.290962432365e-04 4.716140554368e-04 0.0 
4.716140554368e-04 1.325473451323e-02 0.0 
0.0 0.0 0.0 
-7.333964250118e-04 5.781687927540e-04 0.0 
5.781687927540e-04 1.358552341607e-02 0.0 
0.0 0.0 0.0 
-7.392300280329e-04 4.621494755720e-04 0.0 
4.621494755720e-04 1.345633555732e-02 0.0 
0.0 0.0 0.0 
-8.164322440832e-04 3.641533960976e-04 0.0 
3.641533960976e-04 1.310829120279e-02 0.0 
0.0 0.0 0.0 
-7.358725292233e-04 3.607600974010e-04 0.0 
3.607600974010e-04 1.330846027018e-02 0.0 
0.0 0.0 0.0 
-7.969190421331e-04 2.729235139998e-04 0.0 
2.729235139998e-04 1.294494385099e-02 0.0 
0.0 0.0 0.0 
-7.266043218198e-04 2.747917726083e-04 0.0 
2.747917726083e-04 1.314607934000e-02 0.0 
0.0 0.0 0.0 
-6.517259181982e-04 3.532974650607e-04 0.0 
3.532974650607e-04 1.350468635279e-02 0.0 
0.0 0.0 0.0 
-6.524585306037e-04 2.711720955923e-04 0.0 
2.711720955923e-04 1.334344038754e-02 0.0 
0.0 0.0 0.0 
-7.149538182858e-04 2.035046388385e-04 0.0 
2.035046388385e-04 1.297298034977e-02 0.0 
0.0 0.0 0.0 
-6.506154572283e-04 2.018360055996e-04 0.0 
2.018360055996e-04 1.317288857579e-02 0.0 
0.0 0.0 0.0 
-7.032190967091e-04 1.452233183388e-04 0.0 
1.452233183388e-04 1.279204457211e-02 0.0 
0.0 0.0 0.0 
-6.476677327215e-04 1.445292457267e-04 0.0 
1.445292457267e-04 1.299360840267e-02 0.0 
0.0 0.0 0.0 
-5.833893546665e-04 1.949214090491e-04 0.0 
1.949214090491e-04 1.336996742072e-02 0.0 
0.0 0.0 0.0 
2.636985178047e-04 -1.295583441200e-04 0.0 
-1.295583441200e-04 1.466724731376e-03 0.0 
0.0 0.0 0.0 
8.634541564146e-04 9.981290874113e-04 0.0 
9.981290874113e-04 6.567035050313e-03 0.0 
0.0 0.0 0.0 
7.567602607614e-04 1.102781210940e-03 0.0 
1.102781210940e-03 7.083910517970e-03 0.0 
0.0 0.0 0.0 
5.906527972334e-04 -7.528671585739e-05 0.0 
-7.528671585739e-05 2.962634521329e-03 0.0 
0.0 0.0 0.0 
6.467762292662e-04 -4.736286677258e-05 0.0 
-4.736286677258e-05 3.340734713435e-03 0.0 
0.0 0.0 0.0 
6.862817290418e-04 -2.645374204198e-05 0.0 
-2.645374204198e-05 3.570708972707e-03 0.0 
0.0 0.0 0.0 
6.841486322045e-04 -1.161938429145e-05 0.0 
-1.161938429145e-05 3.751349225032e-03 0.0 
0.0 0.0 0.0 
-5.908622062147e-04 1.382184854414e-04 0.0 
1.382184854414e-04 1.319221812144e-02 0.0 
0.0 0.0 0.0 
-5.160573378959e-04 1.814367204002e-04 0.0 
1.814367204002e-04 1.356511532109e-02 0.0 
0.0 0.0 0.0 
3.312082262742e-04 7.417255661801e-04 0.0 
7.417255661801e-04 2.791779467412e-03 0.0 
0.0 0.0 0.0 
3.573166030817e-04 9.284731884204e-04 0.0 
9.284731884204e-04 3.292746044233e-03 0.0 
0.0 0.0 0.0 
-7.913877870510e-04 8.831403010929e-04 0.0 
8.831403010929e-04 1.354700234216e-02 0.0 
0.0 0.0 0.0 
5.943098277783e-04 1.531092433726e-04 0.0 
1.531092433726e-04 5.948293587860e-03 0.0 
0.0 0.0 0.0 
6.518587857922e-04 1.229624406994e-04 0.0 
1.229624406994e-04 5.477973971387e-03 0.0 
0.0 0.0 0.0 
3.284164433198e-04 1.665142836042e-03 0.0 
1.665142836042e-03 6.563038708925e-03 0.0 
0.0 0.0 0.0 
1.464977859924e-04 1.737366258666e-03 0.0 
1.737366258666e-03 6.812745354749e-03 0.0 
0.0 0.0 0.0 
2.807216152655e-04 1.625472237738e-03 0.0 
1.625472237738e-03 6.144369053501e-03 0.0 
0.0 0.0 0.0 
7.997622376721e-05 1.692939328777e-03 0.0 
1.692939328777e-03 6.408461635900e-03 0.0 
0.0 0.0 0.0 
-5.848860944678e-05 1.788371991614e-03 0.0 
1.788371991614e-03 7.111357843027e-03 0.0 
0.0 0.0 0.0 
1.904380985417e-04 1.571464419727e-03 0.0 
1.571464419727e-03 5.725858684212e-03 0.0 
0.0 0.0 0.0 
9.128942510028e-04 5.606168003549e-04 0.0 
5.606168003549e-04 5.576799379182e-03 0.0 
0.0 0.0 0.0 
-5.651779383073e-04 3.400061348910e-04 0.0 
3.400061348910e-04 1.369664341720e-02 0.0 
0.0 0.0 0.0 
4.031933259728e-04 -1.972361104119e-04 0.0 
-1.972361104119e-04 1.921888490400e-03 0.0 
0.0 0.0 0.0 
2.820000080228e-04 -2.096424112077e-04 0.0 
-2.096424112077e-04 1.560980100134e-03 0.0 
0.0 0.0 0.0 
5.145141064509e-04 1.817291634494e-04 0.0 
1.817291634494e-04 6.433361494407e-03 0.0 
0.0 0.0 0.0 
9.442150575965e-04 8.969859200022e-04 0.0 
8.969859200022e-04 6.067262400975e-03 0.0 
0.0 0.0 0.0 
3.681267868462e-05 1.868371437490e-03 0.0 
1.868371437490e-03 9.074250248441e-03 0.0 
0.0 0.0 0.0 
1.844447593778e-04 1.843949829084e-03 0.0 
1.843949829084e-03 8.871654705402e-03 0.0 
0.0 0.0 0.0 
3.953710567572e-05 1.893525609169e-03 0.0 
1.893525609169e-03 9.470970896904e-03 0.0 
0.0 0.0 0.0 
1.729341163800e-04 1.880418491521e-03 0.0 
1.880418491521e-03 9.284153734819e-03 0.0 
0.0 0.0 0.0 
4.112231183656e-05 1.933383436146e-03 0.0 
1.933383436146e-03 9.868769133548e-03 0.0 
0.0 0.0 0.0 
1.565014602509e-04 1.932626988293e-03 0.0 
1.932626988293e-03 9.697683105281e-03 0.0 
0.0 0.0 0.0 
2.820253725799e-04 1.860067775253e-03 0.0 
1.860067775253e-03 9.128780003916e-03 0.0 
0.0 0.0 0.0 
5.538235163138e-04 1.671114238668e-03 0.0 
1.671114238668e-03 8.404614181276e-03 0.0 
0.0 0.0 0.0 
2.459829335107e-04 1.926846193611e-03 0.0 
1.926846193611e-03 9.561373585306e-03 0.0 
0.0 0.0 0.0 
-6.460541955295e-04 1.015916472302e-04 0.0 
1.015916472302e-04 1.280391239643e-02 0.0 
0.0 0.0 0.0 
8.089261052040e-04 1.363034144274e-03 0.0 
1.363034144274e-03 6.895926211170e-03 0.0 
0.0 0.0 0.0 
6.048747513088e-04 -1.381997605053e-04 0.0 
-1.381997605053e-04 2.312774382122e-03 0.0 
0.0 0.0 0.0 
2.183207281300e-04 -1.521924580776e-04 0.0 
-1.521924580776e-04 1.307259733998e-03 0.0 
0.0 0.0 0.0 
1.771287030934e-04 -2.433429391080e-04 0.0 
-2.433429391080e-04 1.365021576233e-03 0.0 
0.0 0.0 0.0 
3.047539794793e-04 -1.054869210338e-04 0.0 
-1.054869210338e-04 1.608280717603e-03 0.0 
0.0 0.0 0.0 
3.899406819760e-04 -1.002910031477e-04 0.0 
-1.002910031477e-04 1.979808248975e-03 0.0 
0.0 0.0 0.0 
6.233413058540e-04 8.424466570323e-04 0.0 
8.424466570323e-04 7.099515527221e-03 0.0 
0.0 0.0 0.0 
3.990489811369e-05 1.993374460302e-03 0.0 
1.993374460302e-03 1.026969445033e-02 0.0 
0.0 0.0 0.0 
-7.776563473664e-05 1.970378900742e-03 0.0 
1.970378900742e-03 1.043868797190e-02 0.0 
0.0 0.0 0.0 
-1.379706230930e-04 1.741493981273e-03 0.0 
1.741493981273e-03 6.739026911147e-03 0.0 
0.0 0.0 0.0 
-2.808929860037e-04 1.800948373378e-03 0.0 
1.800948373378e-03 7.462984433791e-03 0.0 
0.0 0.0 0.0 
5.552143041015e-04 1.631221018664e-03 0.0 
1.631221018664e-03 8.390680443378e-03 0.0 
0.0 0.0 0.0 
-1.057855750326e-03 5.014078973533e-04 0.0 
5.014078973533e-04 1.261068172432e-02 0.0 
0.0 0.0 0.0 
-8.628460751975e-04 2.673296286394e-04 0.0 
2.673296286394e-04 1.274075650579e-02 0.0 
0.0 0.0 0.0 
-8.279674041071e-04 1.892172243872e-04 0.0 
1.892172243872e-04 1.256047842465e-02 0.0 
0.0 0.0 0.0 
2.130340284558e-04 -1.070156590061e-04 0.0 
-1.070156590061e-04 1.211426204416e-03 0.0 
0.0 0.0 0.0 
1.022824946239e-04 -2.414645045248e-04 0.0 
-2.414645045248e-04 1.248516877019e-03 0.0 
0.0 0.0 0.0 
-6.310994776938e-04 5.579348582948e-04 0.0 
5.579348582948e-04 1.378431734320e-02 0.0 
0.0 0.0 0.0 
5.273979285677e-04 9.776102901367e-04 0.0 
9.776102901367e-04 3.704141104999e-03 0.0 
0.0 0.0 0.0 
3.534139267496e-04 1.109114854358e-03 0.0 
1.109114854358e-03 3.838402751318e-03 0.0 
0.0 0.0 0.0 
6.029252197985e-05 2.073512491820e-04 0.0 
2.073512491820e-04 1.558651774952e-03 0.0 
0.0 0.0 0.0 
-7.320066897291e-05 5.456280274147e-05 0.0 
5.456280274147e-05 1.251070325692e-03 0.0 
0.0 0.0 0.0 
-5.318142412554e-04 1.286688226522e-04 0.0 
1.286688226522e-04 1.338622233996e-02 0.0 
0.0 0.0 0.0 
-4.486940122860e-04 1.605534315170e-04 0.0 
1.605534315170e-04 1.375023210092e-02 0.0 
0.0 0.0 0.0 
7.168005971194e-04 1.311613084984e-05 0.0 
1.311613084984e-05 3.982856930026e-03 0.0 
0.0 0.0 0.0 
7.042425861804e-04 2.096274849559e-05 0.0 
2.096274849559e-05 4.166616725353e-03 0.0 
0.0 0.0 0.0 
6.945139998190e-04 8.815084120992e-04 0.0 
8.815084120992e-04 6.953318666519e-03 0.0 
0.0 0.0 0.0 
2.518041089673e-04 -2.401052747122e-04 0.0 
-2.401052747122e-04 1.510508183910e-03 0.0 
0.0 0.0 0.0 
-4.210135333628e-04 2.221859927562e-04 0.0 
2.221859927562e-04 1.391944170528e-02 0.0 
0.0 0.0 0.0 
9.096043711180e-04 8.552548002875e-04 0.0 
8.552548002875e-04 6.164346110218e-03 0.0 
0.0 0.0 0.0 
9.759999335987e-04 7.536703387674e-04 0.0 
7.536703387674e-04 5.670495312767e-03 0.0 
0.0 0.0 0.0 
6.507499066760e-04 -2.257926887730e-05 0.0 
-2.257926887730e-05 3.516872476748e-03 0.0 
0.0 0.0 0.0 
1.397484754927e-04 8.984919275626e-04 0.0 
8.984919275626e-04 2.901672666434e-03 0.0 
0.0 0.0 0.0 
1.023290087070e-04 7.139687042657e-04 0.0 
7.139687042657e-04 2.399197387890e-03 0.0 
0.0 0.0 0.0 
7.015585407813e-04 -6.570489855911e-05 0.0 
-6.570489855911e-05 2.554489862371e-03 0.0 
0.0 0.0 0.0 
4.081607316244e-04 -2.194836860640e-04 0.0 
-2.194836860640e-04 1.866020443232e-03 0.0 
0.0 0.0 0.0 
3.404234524111e-04 -7.875991042252e-05 0.0 
-7.875991042252e-05 1.767569481890e-03 0.0 
0.0 0.0 0.0 
5.561252687145e-04 9.819958657593e-04 0.0 
9.819958657593e-04 7.485033462088e-03 0.0 
0.0 0.0 0.0 
-6.053152917148e-04 6.791193529164e-04 0.0 
6.791193529164e-04 1.389448401175e-02 0.0 
0.0 0.0 0.0 
3.620910813360e-04 1.834323149346e-03 0.0 
1.834323149346e-03 9.009680041066e-03 0.0 
0.0 0.0 0.0 
4.107505924101e-04 1.773440592570e-03 0.0 
1.773440592570e-03 8.558397642111e-03 0.0 
0.0 0.0 0.0 
3.092354591634e-04 1.914921448018e-03 0.0 
1.914921448018e-03 9.457230399449e-03 0.0 
0.0 0.0 0.0 
7.625397555807e-05 -2.386373758013e-04 0.0 
-2.386373758013e-04 1.169778754890e-03 0.0 
0.0 0.0 0.0 
5.442639269864e-04 7.997923040164e-04 0.0 
7.997923040164e-04 7.266068885762e-03 0.0 
0.0 0.0 0.0 
5.485015844459e-04 1.238107422208e-04 0.0 
1.238107422208e-04 6.155121312046e-03 0.0 
0.0 0.0 0.0 
-6.392522543354e-05 2.040041525862e-03 0.0 
2.040041525862e-03 1.081314118997e-02 0.0 
0.0 0.0 0.0 
-1.760267274074e-04 1.994459996827e-03 0.0 
1.994459996827e-03 1.098603549001e-02 0.0 
0.0 0.0 0.0 
5.061588908983e-04 1.157687444912e-03 0.0 
1.157687444912e-03 4.248534277379e-03 0.0 
0.0 0.0 0.0 
3.232745410295e-04 1.276312367166e-03 0.0 
1.276312367166e-03 4.431308318282e-03 0.0 
0.0 0.0 0.0 
1.380315447105e-04 1.237767004503e-03 0.0 
1.237767004503e-03 4.045145691980e-03 0.0 
0.0 0.0 0.0 
1.047361204014e-04 1.390494771306e-03 0.0 
1.390494771306e-03 4.677671624876e-03 0.0 
0.0 0.0 0.0 
-1.195554850358e-03 1.137687263739e-03 0.0 
1.137687263739e-03 1.156030501517e-02 0.0 
0.0 0.0 0.0 
4.568898330773e-04 1.326887633526e-03 0.0 
1.326887633526e-03 4.841510063030e-03 0.0 
0.0 0.0 0.0 
-9.188028969156e-04 1.619245682982e-03 0.0 
1.619245682982e-03 1.044131848557e-02 0.0 
0.0 0.0 0.0 
-1.094187384363e-03 1.425974005844e-03 0.0 
1.425974005844e-03 1.072348334670e-02 0.0 
0.0 0.0 0.0 
-9.794836255704e-04 1.580740090917e-03 0.0 
1.580740090917e-03 1.020132306279e-02 0.0 
0.0 0.0 0.0 
-2.252694230193e-04 1.840301848498e-03 0.0 
1.840301848498e-03 7.818926817226e-03 0.0 
0.0 0.0 0.0 
-4.515764632442e-04 1.821748008849e-03 0.0 
1.821748008849e-03 8.193790680339e-03 0.0 
0.0 0.0 0.0 
7.718153130859e-04 9.225871170929e-04 0.0 
9.225871170929e-04 4.066159122910e-03 0.0 
0.0 0.0 0.0 
9.325744573107e-04 1.134346791386e-03 0.0 
1.134346791386e-03 5.908600365732e-03 0.0 
0.0 0.0 0.0 
7.267676940120e-04 1.514415538606e-06 0.0 
1.514415538606e-06 3.804214686512e-03 0.0 
0.0 0.0 0.0 
7.593618553624e-04 1.532178720046e-04 0.0 
1.532178720046e-04 4.909018410996e-03 0.0 
0.0 0.0 0.0 
9.447439180303e-04 3.516789865875e-04 0.0 
3.516789865875e-04 4.787033554106e-03 0.0 
0.0 0.0 0.0 
-5.497645312064e-04 4.307782842625e-04 0.0 
4.307782842625e-04 1.384332655986e-02 0.0 
0.0 0.0 0.0 
-4.531947975307e-04 4.061950740958e-04 0.0 
4.061950740958e-04 1.403277592017e-02 0.0 
0.0 0.0 0.0 
-7.540662476785e-04 1.399137183339e-04 0.0 
1.399137183339e-04 1.258520066473e-02 0.0 
0.0 0.0 0.0 
-7.329232367853e-04 9.175923986548e-05 0.0 
9.175923986548e-05 1.239340258646e-02 0.0 
0.0 0.0 0.0 
2.144405999090e-04 -1.918286392365e-04 0.0 
-1.918286392365e-04 1.350665823657e-03 0.0 
0.0 0.0 0.0 
1.489630792138e-04 -2.023591917160e-04 0.0 
-2.023591917160e-04 1.205991462038e-03 0.0 
0.0 0.0 0.0 
8.584702170412e-04 1.585056433318e-04 0.0 
1.585056433318e-04 4.376924056955e-03 0.0 
0.0 0.0 0.0 
6.036971576450e-04 6.782656321747e-04 0.0 
6.782656321747e-04 6.901039801786e-03 0.0 
0.0 0.0 0.0 
-6.834583329731e-04 8.469762062651e-04 0.0 
8.469762062651e-04 1.377053282479e-02 0.0 
0.0 0.0 0.0 
-6.336646966048e-04 1.000985442885e-03 0.0 
1.000985442885e-03 1.382157877881e-02 0.0 
0.0 0.0 0.0 
-7.433757005431e-04 1.043162917192e-03 0.0 
1.043162917192e-03 1.358268726869e-02 0.0 
0.0 0.0 0.0 
6.327303507433e-04 1.022910520712e-03 0.0 
1.022910520712e-03 7.341192337871e-03 0.0 
0.0 0.0 0.0 
9.122183494825e-04 5.464637750140e-04 0.0 
5.464637750140e-04 3.614850849731e-03 0.0 
0.0 0.0 0.0 
1.010869890782e-03 8.488836867946e-04 0.0 
8.488836867946e-04 5.509774711566e-03 0.0 
0.0 0.0 0.0 
5.252033575526e-05 -3.270779120522e-05 0.0 
-3.270779120522e-05 1.341199366789e-03 0.0 
0.0 0.0 0.0 
4.736673689324e-04 1.683974805256e-03 0.0 
1.683974805256e-03 7.674516708440e-03 0.0 
0.0 0.0 0.0 
9.318245912227e-05 -1.746003249167e-04 0.0 
-1.746003249167e-04 9.973332799963e-04 0.0 
0.0 0.0 0.0 
-5.269884517283e-04 1.818009069430e-03 0.0 
1.818009069430e-03 1.102903406489e-02 0.0 
0.0 0.0 0.0 
4.622171712597e-04 1.446115356918e-04 0.0 
1.446115356918e-04 6.645486842683e-03 0.0 
0.0 0.0 0.0 
4.160109868199e-04 2.077746684275e-04 0.0 
2.077746684275e-04 6.929321345618e-03 0.0 
0.0 0.0 0.0 
4.501281309410e-04 1.769486429984e-03 0.0 
1.769486429984e-03 8.893257586569e-03 0.0 
0.0 0.0 0.0 
-1.266925112562e-03 7.552017961005e-04 0.0 
7.552017961005e-04 1.139348531897e-02 0.0 
0.0 0.0 0.0 
5.764515995500e-04 1.620637578209e-03 0.0 
1.620637578209e-03 7.545039663592e-03 0.0 
0.0 0.0 0.0 
6.955942299974e-04 1.497109147483e-03 0.0 
1.497109147483e-03 6.985947297225e-03 0.0 
0.0 0.0 0.0 
-1.149273746063e-03 1.346086540585e-03 0.0 
1.346086540585e-03 1.050865353173e-02 0.0 
0.0 0.0 0.0 
-1.031091595643e-03 1.522503301853e-03 0.0 
1.522503301853e-03 9.984318397987e-03 0.0 
0.0 0.0 0.0 
-8.215542774933e-04 1.711478483200e-03 0.0 
1.711478483200e-03 9.597216623630e-03 0.0 
0.0 0.0 0.0 
-8.703011489428e-04 1.671766713428e-03 0.0 
1.671766713428e-03 9.342624686669e-03 0.0 
0.0 0.0 0.0 
7.236709856271e-04 -7.224209389689e-05 0.0 
-7.224209389689e-05 2.692884065124e-03 0.0 
0.0 0.0 0.0 
6.338545006830e-04 -1.363524790225e-04 0.0 
-1.363524790225e-04 2.454391951389e-03 0.0 
0.0 0.0 0.0 
3.252001581187e-05 2.093897704564e-03 0.0 
2.093897704564e-03 1.070689095513e-02 0.0 
0.0 0.0 0.0 
2.056544827327e-04 2.024441038504e-03 0.0 
2.024441038504e-03 9.988728012726e-03 0.0 
0.0 0.0 0.0 
-1.305313401129e-04 2.082270448001e-03 0.0 
2.082270448001e-03 1.133599257107e-02 0.0 
0.0 0.0 0.0 
-2.432159491226e-04 2.014354130790e-03 0.0 
2.014354130790e-03 1.151859025672e-02 0.0 
0.0 0.0 0.0 
4.388335968140e-04 1.737572099965e-03 0.0 
1.737572099965e-03 8.888573500518e-03 0.0 
0.0 0.0 0.0 
5.415145281263e-04 1.589931411450e-03 0.0 
1.589931411450e-03 8.395986273755e-03 0.0 
0.0 0.0 0.0 
4.177364383420e-04 -7.349611693426e-05 0.0 
-7.349611693426e-05 2.130883866389e-03 0.0 
0.0 0.0 0.0 
-5.235388597814e-04 1.768619827929e-03 0.0 
1.768619827929e-03 7.874373189231e-03 0.0 
0.0 0.0 0.0 
-4.920269492752e-04 6.476887030144e-04 0.0 
6.476887030144e-04 1.409221005035e-02 0.0 
0.0 0.0 0.0 
-1.218664579021e-03 1.171428043471e-03 0.0 
1.171428043471e-03 1.094873358042e-02 0.0 
0.0 0.0 0.0 
4.587341016339e-04 7.497923256430e-04 0.0 
7.497923256430e-04 7.423228018570e-03 0.0 
0.0 0.0 0.0 
5.280484791448e-04 6.385676741686e-04 0.0 
6.385676741686e-04 7.081585521189e-03 0.0 
0.0 0.0 0.0 
-2.424569340415e-04 -5.125453580058e-05 0.0 
-5.125453580058e-05 9.996556896199e-04 0.0 
0.0 0.0 0.0 
-1.078762450045e-04 -1.360106363543e-04 0.0 
-1.360106363543e-04 1.090233625461e-03 0.0 
0.0 0.0 0.0 
-3.478286277664e-04 1.903560468106e-04 0.0 
1.903560468106e-04 1.410493873106e-02 0.0 
0.0 0.0 0.0 
-1.327393136846e-04 1.347707911713e-03 0.0 
1.347707911713e-03 4.315852040397e-03 0.0 
0.0 0.0 0.0 
-1.679954225035e-04 1.465702494278e-03 0.0 
1.465702494278e-03 4.969537316657e-03 0.0 
0.0 0.0 0.0 
-1.076801429970e-04 1.210913675634e-03 0.0 
1.210913675634e-03 3.675849871122e-03 0.0 
0.0 0.0 0.0 
2.153763901347e-04 6.021971162117e-05 0.0 
6.021971162117e-05 7.675284673411e-03 0.0 
0.0 0.0 0.0 
-6.907432282239e-04 2.630866288358e-07 0.0 
2.630866288358e-07 1.156110218592e-02 0.0 
0.0 0.0 0.0 
3.582182806511e-04 1.628023834498e-04 0.0 
1.628023834498e-04 7.148241204252e-03 0.0 
0.0 0.0 0.0 
-4.101235070138e-04 1.852172034454e-03 0.0 
1.852172034454e-03 8.530952627735e-03 0.0 
0.0 0.0 0.0 
-3.072147053252e-04 2.617455128479e-04 0.0 
2.617455128479e-04 1.426645100160e-02 0.0 
0.0 0.0 0.0 
6.548480427372e-04 1.557285076538e-03 0.0 
1.557285076538e-03 7.456834457571e-03 0.0 
0.0 0.0 0.0 
4.537302637481e-04 1.538285062625e-03 0.0 
1.538285062625e-03 5.912921663529e-03 0.0 
0.0 0.0 0.0 
7.579098533262e-04 9.194596910287e-04 0.0 
9.194596910287e-04 6.814062542960e-03 0.0 
0.0 0.0 0.0 
-3.900560207987e-04 1.197557150857e-04 0.0 
1.197557150857e-04 1.391710656528e-02 0.0 
0.0 0.0 0.0 
-2.754153784287e-04 1.519661107362e-04 0.0 
1.519661107362e-04 1.429738303065e-02 0.0 
0.0 0.0 0.0 
-8.747228293806e-04 1.787578138931e-04 0.0 
1.787578138931e-04 1.234943405854e-02 0.0 
0.0 0.0 0.0 
-8.377034529115e-04 1.098893877289e-04 0.0 
1.098893877289e-04 1.214640377498e-02 0.0 
0.0 0.0 0.0 
-9.218112326356e-04 2.584005725756e-04 0.0 
2.584005725756e-04 1.252033450930e-02 0.0 
0.0 0.0 0.0 
1.842934768510e-04 3.709135291448e-04 0.0 
3.709135291448e-04 1.919789201138e-03 0.0 
0.0 0.0 0.0 
-1.162976290131e-04 3.602927207110e-04 0.0 
3.602927207110e-04 1.510892765904e-03 0.0 
0.0 0.0 0.0 
-4.784205210507e-04 3.194222480800e-04 0.0 
3.194222480800e-04 1.388536093465e-02 0.0 
0.0 0.0 0.0 
5.231709982103e-04 -9.776724075648e-05 0.0 
-9.776724075648e-05 2.569625163080e-03 0.0 
0.0 0.0 0.0 
5.466185488968e-04 -6.540221185168e-05 0.0 
-6.540221185168e-05 2.778266680384e-03 0.0 
0.0 0.0 0.0 
3.125641088931e-04 -2.315110026442e-04 0.0 
-2.315110026442e-04 1.646130165321e-03 0.0 
0.0 0.0 0.0 
4.500835274914e-04 -2.078006734116e-04 0.0 
-2.078006734116e-04 2.002848838601e-03 0.0 
0.0 0.0 0.0 
7.462931468454e-04 4.925938686387e-05 0.0 
4.925938686387e-05 4.223073109217e-03 0.0 
0.0 0.0 0.0 
7.645982159914e-04 4.123259722305e-05 0.0 
4.123259722305e-05 4.044162436282e-03 0.0 
0.0 0.0 0.0 
-3.646669253697e-04 1.887298802404e-03 0.0 
1.887298802404e-03 1.081958199496e-02 0.0 
0.0 0.0 0.0 
-4.526224092722e-04 1.865123933773e-03 0.0 
1.865123933773e-03 1.134314350246e-02 0.0 
0.0 0.0 0.0 
-1.135664371646e-04 1.894900776787e-03 0.0 
1.894900776787e-03 9.679810326473e-03 0.0 
0.0 0.0 0.0 
9.403085009321e-04 7.157680837831e-04 0.0 
7.157680837831e-04 5.783629777346e-03 0.0 
0.0 0.0 0.0 
9.910470101336e-04 6.159698851249e-04 0.0 
6.159698851249e-04 5.299715589575e-03 0.0 
0.0 0.0 0.0 
1.017146966171e-03 6.538377462407e-04 0.0 
6.538377462407e-04 5.192570589575e-03 0.0 
0.0 0.0 0.0 
-4.215924211139e-04 5.009302626203e-04 0.0 
5.009302626203e-04 1.415595096480e-02 0.0 
0.0 0.0 0.0 
-3.053316258577e-04 4.704305369844e-04 0.0 
4.704305369844e-04 1.437333405578e-02 0.0 
0.0 0.0 0.0 
8.076705425344e-04 1.121199895771e-05 0.0 
1.121199895771e-05 2.945794033305e-03 0.0 
0.0 0.0 0.0 
7.911389089180e-04 2.751128855552e-05 0.0 
2.751128855552e-05 2.814810766959e-03 0.0 
0.0 0.0 0.0 
7.374013278069e-04 -7.222179677046e-05 0.0 
-7.222179677046e-05 2.831699609234e-03 0.0 
0.0 0.0 0.0 
-4.478019071918e-04 7.746043161526e-04 0.0 
7.746043161526e-04 1.418605782651e-02 0.0 
0.0 0.0 0.0 
3.031722578942e-04 2.348736662456e-04 0.0 
2.348736662456e-04 7.435114577972e-03 0.0 
0.0 0.0 0.0 
3.539591627901e-04 2.742840375191e-04 0.0 
2.742840375191e-04 7.221377028477e-03 0.0 
0.0 0.0 0.0 
1.097045361983e-05 -1.812182082406e-04 0.0 
-1.812182082406e-04 8.635325025309e-04 0.0 
0.0 0.0 0.0 
7.279904260306e-05 -2.114814649107e-04 0.0 
-2.114814649107e-04 1.064311534705e-03 0.0 
0.0 0.0 0.0 
-1.237331781475e-04 8.906881215836e-04 0.0 
8.906881215836e-04 2.516550864621e-03 0.0 
0.0 0.0 0.0 
-1.517862501609e-04 7.037236497357e-04 0.0 
7.037236497357e-04 2.003089548226e-03 0.0 
0.0 0.0 0.0 
-5.632152624067e-04 1.159910305360e-03 0.0 
1.159910305360e-03 1.383142553043e-02 0.0 
0.0 0.0 0.0 
-6.764159414969e-04 1.213309752194e-03 0.0 
1.213309752194e-03 1.358515818332e-02 0.0 
0.0 0.0 0.0 
-4.308697834612e-04 1.120512601124e-03 0.0 
1.120512601124e-03 1.408765684174e-02 0.0 
0.0 0.0 0.0 
3.641922816394e-04 -5.006573726518e-05 0.0 
-5.006573726518e-05 1.893723812434e-03 0.0 
0.0 0.0 0.0 
4.843955386734e-04 1.736348998971e-03 0.0 
1.736348998971e-03 8.471442107337e-03 0.0 
0.0 0.0 0.0 
4.774103239197e-04 1.128255102371e-03 0.0 
1.128255102371e-03 7.872865036140e-03 0.0 
0.0 0.0 0.0 
5.633186667665e-04 1.177910263810e-03 0.0 
1.177910263810e-03 7.742808906867e-03 0.0 
0.0 0.0 0.0 
3.731558560809e-04 1.090193089822e-03 0.0 
1.090193089822e-03 8.095184062457e-03 0.0 
0.0 0.0 0.0 
4.468868532663e-04 1.796558515541e-03 0.0 
1.796558515541e-03 8.910497519778e-03 0.0 
0.0 0.0 0.0 
3.404311817834e-04 1.889801683546e-03 0.0 
1.889801683546e-03 9.376337219243e-03 0.0 
0.0 0.0 0.0 
2.334350089086e-04 2.014796079928e-03 0.0 
2.014796079928e-03 9.912934985055e-03 0.0 
0.0 0.0 0.0 
-3.779375689420e-04 2.252428336410e-05 0.0 
2.252428336410e-05 8.956459555385e-04 0.0 
0.0 0.0 0.0 
-3.005327044306e-04 9.193559865095e-05 0.0 
9.193559865095e-05 1.417964978154e-02 0.0 
0.0 0.0 0.0 
-7.701450531514e-04 7.818584338430e-05 0.0 
7.818584338430e-05 1.216036431914e-02 0.0 
0.0 0.0 0.0 
-5.467795148961e-04 -5.061463002983e-05 0.0 
-5.061463002983e-05 7.470681657428e-04 0.0 
0.0 0.0 0.0 
-7.420697845690e-04 4.619962171476e-05 0.0 
4.619962171476e-05 1.196377336878e-02 0.0 
0.0 0.0 0.0 
-7.172383432070e-04 5.691980558193e-05 0.0 
5.691980558193e-05 1.219503059686e-02 0.0 
0.0 0.0 0.0 
-7.271895590895e-04 2.226202929087e-05 0.0 
2.226202929087e-05 1.174193737569e-02 0.0 
0.0 0.0 0.0 
2.873119189412e-04 -5.294946153168e-05 0.0 
-5.294946153168e-05 1.529336227157e-03 0.0 
0.0 0.0 0.0 
-9.166539335643e-04 1.498055778761e-04 0.0 
1.498055778761e-04 1.206276434990e-02 0.0 
0.0 0.0 0.0 
-9.764022186097e-04 2.523464247521e-04 0.0 
2.523464247521e-04 1.230199236224e-02 0.0 
0.0 0.0 0.0 
-9.681549368623e-05 -1.662179616666e-04 0.0 
-1.662179616666e-04 6.642314460062e-04 0.0 
0.0 0.0 0.0 
-3.172027638771e-04 7.250182714935e-04 0.0 
7.250182714935e-04 1.437507819071e-02 0.0 
0.0 0.0 0.0 
-2.739800229634e-05 -1.423366313463e-04 0.0 
-1.423366313463e-04 6.698440118872e-04 0.0 
0.0 0.0 0.0 
4.564516018124e-05 -1.392492468200e-04 0.0 
-1.392492468200e-04 7.974366110913e-04 0.0 
0.0 0.0 0.0 
3.943335356485e-04 7.093809834412e-04 0.0 
7.093809834412e-04 7.607395231943e-03 0.0 
0.0 0.0 0.0 
4.563239749346e-04 5.923896615790e-04 0.0 
5.923896615790e-04 7.261034882077e-03 0.0 
0.0 0.0 0.0 
3.096459495319e-04 6.491519376774e-04 0.0 
6.491519376774e-04 7.778867253094e-03 0.0 
0.0 0.0 0.0 
3.738345496434e-04 5.504781165447e-04 0.0 
5.504781165447e-04 7.435236447396e-03 0.0 
0.0 0.0 0.0 
5.095088996534e-04 4.915372054463e-04 0.0 
4.915372054463e-04 6.929194453879e-03 0.0 
0.0 0.0 0.0 
4.385775475444e-04 4.559705154616e-04 0.0 
4.559705154616e-04 7.133050223503e-03 0.0 
0.0 0.0 0.0 
-8.020715500673e-04 6.243562158327e-05 0.0 
6.243562158327e-05 1.193311476117e-02 0.0 
0.0 0.0 0.0 
2.847367178123e-04 5.185443850420e-04 0.0 
5.185443850420e-04 7.717884546719e-03 0.0 
0.0 0.0 0.0 
3.613853812640e-04 4.084407415922e-04 0.0 
4.084407415922e-04 7.349077410731e-03 0.0 
0.0 0.0 0.0 
2.135483825301e-04 4.564498554324e-04 0.0 
4.564498554324e-04 7.935363592303e-03 0.0 
0.0 0.0 0.0 
-1.084665779263e-03 1.415826456667e-03 0.0 
1.415826456667e-03 9.805839919166e-03 0.0 
0.0 0.0 0.0 
4.341873846455e-05 1.523838003997e-03 0.0 
1.523838003997e-03 5.325296480617e-03 0.0 
0.0 0.0 0.0 
-2.164015691139e-04 1.563252208871e-03 0.0 
1.563252208871e-03 5.661047190960e-03 0.0 
0.0 0.0 0.0 
-5.039560232490e-04 1.521421871168e-03 0.0 
1.521421871168e-03 5.395638547179e-03 0.0 
0.0 0.0 0.0 
-1.593037298778e-04 2.133822034580e-03 0.0 
2.133822034580e-03 1.190615747400e-02 0.0 
0.0 0.0 0.0 
-2.859244950953e-04 2.017409261190e-03 0.0 
2.017409261190e-03 1.199124295318e-02 0.0 
0.0 0.0 0.0 
5.024248812984e-04 8.985183987760e-05 0.0 
8.985183987760e-05 6.380353810154e-03 0.0 
0.0 0.0 0.0 
5.755132836513e-04 7.471871330890e-05 0.0 
7.471871330890e-05 5.894331253265e-03 0.0 
0.0 0.0 0.0 
-7.083805998415e-04 3.087346822616e-05 0.0 
3.087346822616e-05 1.197256980021e-02 0.0 
0.0 0.0 0.0 
-6.904460767245e-04 1.800242419715e-05 0.0 
1.800242419715e-05 1.194299014829e-02 0.0 
0.0 0.0 0.0 
-6.756140988658e-04 4.738633016499e-05 0.0 
4.738633016499e-05 1.231679151335e-02 0.0 
0.0 0.0 0.0 
-6.632302265841e-04 2.720168950105e-05 0.0 
2.720168950105e-05 1.226167812825e-02 0.0 
0.0 0.0 0.0 
-6.376000116756e-04 5.659995943222e-05 0.0 
5.659995943222e-05 1.262937736831e-02 0.0 
0.0 0.0 0.0 
-6.274003196273e-04 3.018689622772e-05 0.0 
3.018689622772e-05 1.256709979667e-02 0.0 
0.0 0.0 0.0 
-5.903709885252e-04 5.343436049435e-05 0.0 
5.343436049435e-05 1.293392376931e-02 0.0 
0.0 0.0 0.0 
1.380643358502e-04 2.146265089894e-03 0.0 
2.146265089894e-03 1.048391312031e-02 0.0 
0.0 0.0 0.0 
-4.269876690280e-04 1.335969510473e-03 0.0 
1.335969510473e-03 3.960015670526e-03 0.0 
0.0 0.0 0.0 
-1.249292109762e-03 1.029413788181e-03 0.0 
1.029413788181e-03 1.074759959965e-02 0.0 
0.0 0.0 0.0 
4.009587775325e-04 1.697194310728e-03 0.0 
1.697194310728e-03 8.898783838317e-03 0.0 
0.0 0.0 0.0 
5.077059793309e-04 1.539222646023e-03 0.0 
1.539222646023e-03 8.396464304839e-03 0.0 
0.0 0.0 0.0 
-6.879758028691e-04 1.745456740935e-03 0.0 
1.745456740935e-03 8.620001376430e-03 0.0 
0.0 0.0 0.0 
-7.882469881828e-04 1.658791002084e-03 0.0 
1.658791002084e-03 8.387568973258e-03 0.0 
0.0 0.0 0.0 
3.635568459730e-04 8.880862064561e-04 0.0 
8.880862064561e-04 7.874262174409e-03 0.0 
0.0 0.0 0.0 
6.146959436848e-04 1.215396940737e-03 0.0 
1.215396940737e-03 4.677513047866e-03 0.0 
0.0 0.0 0.0 
-2.274246968171e-04 8.703427043587e-04 0.0 
8.703427043587e-04 1.447827792789e-02 0.0 
0.0 0.0 0.0 
-7.204482927663e-04 3.194255124823e-04 0.0 
3.194255124823e-04 6.684396739268e-04 0.0 
0.0 0.0 0.0 
-4.496013997273e-04 2.960143851331e-04 0.0 
2.960143851331e-04 1.013649656008e-03 0.0 
0.0 0.0 0.0 
5.478220572568e-04 1.382178356117e-03 0.0 
1.382178356117e-03 5.271374167077e-03 0.0 
0.0 0.0 0.0 
-6.399079642925e-04 1.794538069510e-03 0.0 
1.794538069510e-03 8.918062406356e-03 0.0 
0.0 0.0 0.0 
-3.080592385126e-05 1.636935508690e-03 0.0 
1.636935508690e-03 6.013786027619e-03 0.0 
0.0 0.0 0.0 
-2.738528034859e-04 1.673491182106e-03 0.0 
1.673491182106e-03 6.404624021336e-03 0.0 
0.0 0.0 0.0 
8.647030828945e-04 8.186854456836e-04 0.0 
8.186854456836e-04 6.288324421958e-03 0.0 
0.0 0.0 0.0 
-5.119763288615e-06 -2.166706770122e-04 0.0 
-2.166706770122e-04 9.420908248401e-04 0.0 
0.0 0.0 0.0 
-1.071108535301e-04 1.061342372897e-03 0.0 
1.061342372897e-03 3.075724640237e-03 0.0 
0.0 0.0 0.0 
-6.027344086163e-04 9.338677490930e-05 0.0 
9.338677490930e-05 1.298394578806e-02 0.0 
0.0 0.0 0.0 
-4.084057403973e-04 1.084477030862e-03 0.0 
1.084477030862e-03 2.701071162039e-03 0.0 
0.0 0.0 0.0 
5.356032320485e-04 4.167299475115e-05 0.0 
4.167299475115e-05 6.143360485589e-03 0.0 
0.0 0.0 0.0 
7.417556627921e-04 1.103534290009e-03 0.0 
1.103534290009e-03 4.581283402937e-03 0.0 
0.0 0.0 0.0 
-1.911941868650e-04 1.860422537392e-03 0.0 
1.860422537392e-03 8.185466637409e-03 0.0 
0.0 0.0 0.0 
1.515276678026e-04 1.074881262195e-03 0.0 
1.074881262195e-03 3.451544936627e-03 0.0 
0.0 0.0 0.0 
2.691609292859e-04 1.435413866155e-03 0.0 
1.435413866155e-03 5.069982898914e-03 0.0 
0.0 0.0 0.0 
-1.089349080429e-03 1.355991427663e-03 0.0 
1.355991427663e-03 1.140191963481e-02 0.0 
0.0 0.0 0.0 
-1.249745922240e-03 9.011494865579e-04 0.0 
9.011494865579e-04 1.165124508184e-02 0.0 
0.0 0.0 0.0 
-1.248319915337e-03 1.021455011731e-03 0.0 
1.021455011731e-03 1.132244934598e-02 0.0 
0.0 0.0 0.0 
8.419527675387e-04 9.946943120938e-04 0.0 
9.946943120938e-04 4.521703458037e-03 0.0 
0.0 0.0 0.0 
-3.811504210191e-04 1.738190466470e-03 0.0 
1.738190466470e-03 7.139888441695e-03 0.0 
0.0 0.0 0.0 
-5.776533918818e-04 1.626732119441e-03 0.0 
1.626732119441e-03 6.846864009892e-03 0.0 
0.0 0.0 0.0 
-7.182515897746e-04 1.751695943345e-03 0.0 
1.751695943345e-03 1.013726195412e-02 0.0 
0.0 0.0 0.0 
-8.384028707075e-04 1.087060119074e-03 0.0 
1.087060119074e-03 1.332379690894e-02 0.0 
0.0 0.0 0.0 
-7.663987448556e-04 1.257469621956e-03 0.0 
1.257469621956e-03 1.330517441629e-02 0.0 
0.0 0.0 0.0 
-5.918250340394e-04 1.375415756564e-03 0.0 
1.375415756564e-03 1.354236673015e-02 0.0 
0.0 0.0 0.0 
-6.790331111104e-04 1.425124582758e-03 0.0 
1.425124582758e-03 1.325014002720e-02 0.0 
0.0 0.0 0.0 
-8.387430711058e-04 1.308125931971e-03 0.0 
1.308125931971e-03 1.300025575469e-02 0.0 
0.0 0.0 0.0 
-7.407884277149e-04 1.474438724214e-03 0.0 
1.474438724214e-03 1.292278123448e-02 0.0 
0.0 0.0 0.0 
-5.665752398943e-04 1.586786948948e-03 0.0 
1.586786948948e-03 1.317419717999e-02 0.0 
0.0 0.0 0.0 
-6.211627697936e-04 1.638049116465e-03 0.0 
1.638049116465e-03 1.282060934793e-02 0.0 
0.0 0.0 0.0 
-4.237474498799e-04 1.770980003935e-03 0.0 
1.770980003935e-03 1.312438663387e-02 0.0 
0.0 0.0 0.0 
-4.955602415475e-04 1.787761967448e-03 0.0 
1.787761967448e-03 1.267996444207e-02 0.0 
0.0 0.0 0.0 
-6.443810482452e-04 1.681925429405e-03 0.0 
1.681925429405e-03 1.241509492817e-02 0.0 
0.0 0.0 0.0 
-5.173747177729e-04 1.810444383449e-03 0.0 
1.810444383449e-03 1.226052626837e-02 0.0 
0.0 0.0 0.0 
-3.902540469754e-04 1.918510096398e-03 0.0 
1.918510096398e-03 1.250311291692e-02 0.0 
0.0 0.0 0.0 
-6.430787955946e-04 1.726587623615e-03 0.0 
1.726587623615e-03 1.198550412060e-02 0.0 
0.0 0.0 0.0 
2.801527594067e-04 1.849599374117e-03 0.0 
1.849599374117e-03 9.387504485959e-03 0.0 
0.0 0.0 0.0 
5.994635454583e-04 1.433974472689e-03 0.0 
1.433974472689e-03 5.726562388295e-03 0.0 
0.0 0.0 0.0 
-2.309474960766e-04 1.638261821233e-04 0.0 
1.638261821233e-04 1.170089971213e-03 0.0 
0.0 0.0 0.0 
-3.450035466947e-04 4.940237483304e-04 0.0 
4.940237483304e-04 1.356430006561e-03 0.0 
0.0 0.0 0.0 
-3.750419238019e-04 1.865068357889e-03 0.0 
1.865068357889e-03 8.869126720845e-03 0.0 
0.0 0.0 0.0 
-2.242762419424e-04 1.841838823833e-03 0.0 
1.841838823833e-03 1.350535880235e-02 0.0 
0.0 0.0 0.0 
-2.479548072207e-04 1.545169376331e-03 0.0 
1.545169376331e-03 1.395174189823e-02 0.0 
0.0 0.0 0.0 
6.654917299150e-04 8.528124158458e-04 0.0 
8.528124158458e-04 3.625119389495e-03 0.0 
0.0 0.0 0.0 
-6.451075613521e-05 2.294345431635e-03 0.0 
2.294345431635e-03 1.208704764637e-02 0.0 
0.0 0.0 0.0 
-1.165051635275e-03 1.271645933938e-03 0.0 
1.271645933938e-03 1.117055306528e-02 0.0 
0.0 0.0 0.0 
4.096026373033e-04 4.194878804327e-04 0.0 
4.194878804327e-04 2.319252189532e-03 0.0 
0.0 0.0 0.0 
1.381048440931e-05 2.319310276486e-03 0.0 
2.319310276486e-03 1.143177229674e-02 0.0 
0.0 0.0 0.0 
-9.172295052352e-04 1.135550369100e-03 0.0 
1.135550369100e-03 1.304425030626e-02 0.0 
0.0 0.0 0.0 
-9.770937445271e-04 1.188497802338e-03 0.0 
1.188497802338e-03 1.273896413784e-02 0.0 
0.0 0.0 0.0 
-1.039251957841e-03 1.009457180001e-03 0.0 
1.009457180001e-03 1.277214847594e-02 0.0 
0.0 0.0 0.0 
-2.274112672046e-04 1.278869404317e-03 0.0 
1.278869404317e-03 1.424522744238e-02 0.0 
0.0 0.0 0.0 
-9.617839354232e-04 3.620231123174e-04 0.0 
3.620231123174e-04 1.268743242977e-02 0.0 
0.0 0.0 0.0 
1.243650904338e-04 2.130937373552e-03 0.0 
2.130937373552e-03 1.025557518978e-02 0.0 
0.0 0.0 0.0 
8.928759214034e-04 1.216269189242e-03 0.0 
1.216269189242e-03 6.395603464915e-03 0.0 
0.0 0.0 0.0 
8.565007743130e-04 1.286099113135e-03 0.0 
1.286099113135e-03 6.407907312441e-03 0.0 
0.0 0.0 0.0 
8.861441945638e-04 1.212644956186e-03 0.0 
1.212644956186e-03 5.926444813233e-03 0.0 
0.0 0.0 0.0 
-7.752148120271e-04 1.526576171008e-03 0.0 
1.526576171008e-03 1.255499402011e-02 0.0 
0.0 0.0 0.0 
1.966554428683e-04 1.702899293722e-03 0.0 
1.702899293722e-03 9.263601020249e-03 0.0 
0.0 0.0 0.0 
3.669173193132e-04 1.534291766302e-03 0.0 
1.534291766302e-03 8.695449593097e-03 0.0 
0.0 0.0 0.0 
3.687996313818e-04 1.426053201879e-03 0.0 
1.426053201879e-03 8.528859801769e-03 0.0 
0.0 0.0 0.0 
5.204660578086e-04 1.373951608480e-03 0.0 
1.373951608480e-03 8.109492616756e-03 0.0 
0.0 0.0 0.0 
2.015784541686e-04 1.463776379168e-03 0.0 
1.463776379168e-03 8.921717691663e-03 0.0 
0.0 0.0 0.0 
-1.616816142137e-04 2.084253706331e-03 0.0 
2.084253706331e-03 1.302088436583e-02 0.0 
0.0 0.0 0.0 
-1.258216563183e-04 2.180770168230e-03 0.0 
2.180770168230e-03 1.274027560078e-02 0.0 
0.0 0.0 0.0 
6.701407457018e-04 -5.040343762637e-05 0.0 
-5.040343762637e-05 2.421483246775e-03 0.0 
0.0 0.0 0.0 
7.649632815809e-04 5.464270074528e-05 0.0 
5.464270074528e-05 2.692860108185e-03 0.0 
0.0 0.0 0.0 
8.695161294984e-04 1.403470757419e-04 0.0 
1.403470757419e-04 3.098455433266e-03 0.0 
0.0 0.0 0.0 
8.460764537485e-04 1.789219154359e-04 0.0 
1.789219154359e-04 2.989889703395e-03 0.0 
0.0 0.0 0.0 
7.267880606983e-04 9.345330609998e-05 0.0 
9.345330609998e-05 2.580875160496e-03 0.0 
0.0 0.0 0.0 
8.093360617528e-04 2.297121343430e-04 0.0 
2.297121343430e-04 2.892546311527e-03 0.0 
0.0 0.0 0.0 
9.095812345096e-04 3.189451536742e-04 0.0 
3.189451536742e-04 3.313696891554e-03 0.0 
0.0 0.0 0.0 
7.579428229999e-04 2.955608869439e-04 0.0 
2.955608869439e-04 2.810647920301e-03 0.0 
0.0 0.0 0.0 
-3.728727026553e-04 1.928671722667e-03 0.0 
1.928671722667e-03 1.166997920061e-02 0.0 
0.0 0.0 0.0 
1.896991020608e-04 1.231789501254e-03 0.0 
1.231789501254e-03 8.671250683161e-03 0.0 
0.0 0.0 0.0 
9.160134369699e-04 4.447042519310e-04 0.0 
4.447042519310e-04 5.252876782275e-03 0.0 
0.0 0.0 0.0 
9.572158051277e-04 4.643444131099e-04 0.0 
4.643444131099e-04 5.099005039774e-03 0.0 
0.0 0.0 0.0 
9.764558602756e-04 3.686799814186e-04 0.0 
3.686799814186e-04 4.637656087048e-03 0.0 
0.0 0.0 0.0 
7.359484292319e-04 -1.312686500594e-05 0.0 
-1.312686500594e-05 3.628685304584e-03 0.0 
0.0 0.0 0.0 
7.813208353589e-04 3.117163165777e-05 0.0 
3.117163165777e-05 3.868035694636e-03 0.0 
0.0 0.0 0.0 
7.986994053180e-04 9.350709921879e-05 0.0 
9.350709921879e-05 4.292491440924e-03 0.0 
0.0 0.0 0.0 
6.878735982833e-04 -4.492878463209e-05 0.0 
-4.492878463209e-05 3.397026508250e-03 0.0 
0.0 0.0 0.0 
3.103232812949e-04 1.810331670423e-03 0.0 
1.810331670423e-03 8.697835555758e-03 0.0 
0.0 0.0 0.0 
1.842956833917e-04 1.116470163371e-03 0.0 
1.116470163371e-03 8.557344536279e-03 0.0 
0.0 0.0 0.0 
1.000098667932e-03 7.977850003656e-04 0.0 
7.977850003656e-04 5.580144412535e-03 0.0 
0.0 0.0 0.0 
7.955747291766e-04 2.040567111364e-05 0.0 
2.040567111364e-05 3.695050564728e-03 0.0 
0.0 0.0 0.0 
-1.015781756333e-03 1.727327140561e-04 0.0 
1.727327140561e-04 1.165821898468e-02 0.0 
0.0 0.0 0.0 
-1.084975986369e-03 3.221355114854e-04 0.0 
3.221355114854e-04 1.199905916255e-02 0.0 
0.0 0.0 0.0 
-1.159988175464e-03 4.257851240583e-04 0.0 
4.257851240583e-04 1.197641822586e-02 0.0 
0.0 0.0 0.0 
-1.124081692144e-03 5.027622533552e-04 0.0 
5.027622533552e-04 1.233142067833e-02 0.0 
0.0 0.0 0.0 
-1.024167466103e-03 2.455677757855e-04 0.0 
2.455677757855e-04 1.205060290160e-02 0.0 
0.0 0.0 0.0 
7.262997711938e-04 5.450253986287e-05 0.0 
5.450253986287e-05 4.405834990698e-03 0.0 
0.0 0.0 0.0 
7.063081314151e-04 5.608376952840e-05 0.0 
5.608376952840e-05 4.591324351218e-03 0.0 
0.0 0.0 0.0 
6.929637246402e-04 2.771430548851e-05 0.0 
2.771430548851e-05 4.352250161963e-03 0.0 
0.0 0.0 0.0 
6.865721125521e-04 5.241290138835e-05 0.0 
5.241290138835e-05 4.778990539056e-03 0.0 
0.0 0.0 0.0 
6.824420598318e-04 2.413288238352e-05 0.0 
2.413288238352e-05 4.528118078176e-03 0.0 
0.0 0.0 0.0 
6.806955921792e-04 6.708937196785e-06 0.0 
6.708937196785e-06 4.137597101522e-03 0.0 
0.0 0.0 0.0 
6.680665470676e-04 4.117375584024e-05 0.0 
4.117375584024e-05 4.960476727995e-03 0.0 
0.0 0.0 0.0 
6.702181913853e-04 1.963220429535e-05 0.0 
1.963220429535e-05 4.680462526162e-03 0.0 
0.0 0.0 0.0 
-9.068415972948e-04 8.086634471736e-05 0.0 
8.086634471736e-05 1.164907484788e-02 0.0 
0.0 0.0 0.0 
-6.405292564676e-04 -1.107490271843e-04 0.0 
-1.107490271843e-04 5.400682058069e-04 0.0 
0.0 0.0 0.0 
-3.483848456669e-04 -1.767709956633e-04 0.0 
-1.767709956633e-04 7.482425208956e-04 0.0 
0.0 0.0 0.0 
-3.139260109909e-04 -1.890090230824e-04 0.0 
-1.890090230824e-04 7.147881878040e-04 0.0 
0.0 0.0 0.0 
-1.178561760200e-04 -2.205841627680e-04 0.0 
-2.205841627680e-04 9.911538953401e-04 0.0 
0.0 0.0 0.0 
-1.147810568433e-04 -1.801838435703e-04 0.0 
-1.801838435703e-04 1.030180287160e-03 0.0 
0.0 0.0 0.0 
1.153314890250e-04 -1.995600785320e-04 0.0 
-1.995600785320e-04 1.315805967536e-03 0.0 
0.0 0.0 0.0 
7.959839799365e-05 -1.623973265999e-04 0.0 
-1.623973265999e-04 1.298397853119e-03 0.0 
0.0 0.0 0.0 
-3.808098367956e-04 -1.565779417051e-04 0.0 
-1.565779417051e-04 7.727173916122e-04 0.0 
0.0 0.0 0.0 
-4.954454899938e-04 -1.164765636222e-04 0.0 
-1.164765636222e-04 4.702002670148e-04 0.0 
0.0 0.0 0.0 
-2.606783496518e-04 -1.866106642004e-04 0.0 
-1.866106642004e-04 6.881558518779e-04 0.0 
0.0 0.0 0.0 
-4.160142586710e-04 -1.111437174336e-04 0.0 
-1.111437174336e-04 4.323459828162e-04 0.0 
0.0 0.0 0.0 
-2.139504657911e-04 -1.851859703945e-04 0.0 
-1.851859703945e-04 6.542096209923e-04 0.0 
0.0 0.0 0.0 
-3.648746941896e-05 -2.295297243411e-04 0.0 
-2.295297243411e-04 9.881535354469e-04 0.0 
0.0 0.0 0.0 
2.239564056852e-04 -2.240038255609e-04 0.0 
-2.240038255609e-04 1.423811426884e-03 0.0 
0.0 0.0 0.0 
1.458469755849e-04 2.604296077230e-04 0.0 
2.604296077230e-04 7.998372363503e-03 0.0 
0.0 0.0 0.0 
6.253040174828e-04 -7.763435843468e-06 0.0 
-7.763435843468e-06 3.511140992146e-03 0.0 
0.0 0.0 0.0 
6.074160363516e-04 -1.981383008714e-05 0.0 
-1.981383008714e-05 3.318222249007e-03 0.0 
0.0 0.0 0.0 
5.622818095830e-04 -3.083390556305e-05 0.0 
-3.083390556305e-05 2.939509879444e-03 0.0 
0.0 0.0 0.0 
5.929424306499e-04 -4.217194922260e-05 0.0 
-4.217194922260e-05 3.142609000145e-03 0.0 
0.0 0.0 0.0 
6.431372694879e-04 -7.574652968951e-06 0.0 
-7.574652968951e-06 3.672375734951e-03 0.0 
0.0 0.0 0.0 
5.263762459691e-04 -1.788822814940e-05 0.0 
-1.788822814940e-05 2.734485550927e-03 0.0 
0.0 0.0 0.0 
5.042364957977e-04 -3.817677555518e-05 0.0 
-3.817677555518e-05 2.595837499903e-03 0.0 
0.0 0.0 0.0 
4.112140953287e-05 -2.453964510997e-05 0.0 
-2.453964510997e-05 2.373878309475e-04 0.0 
0.0 0.0 0.0 
9.662183915090e-05 -4.102572237691e-05 0.0 
-4.102572237691e-05 5.296373254086e-04 0.0 
0.0 0.0 0.0 
9.025239541513e-05 -2.087138372918e-05 0.0 
-2.087138372918e-05 4.969782263907e-04 0.0 
0.0 0.0 0.0 
1.521006097165e-04 -3.561571395459e-05 0.0 
-3.561571395459e-05 8.570213553024e-04 0.0 
0.0 0.0 0.0 
1.458670756124e-04 -6.224005600482e-05 0.0 
-6.224005600482e-05 8.520623222731e-04 0.0 
0.0 0.0 0.0 
8.381918095749e-05 -5.576738939566e-05 0.0 
-5.576738939566e-05 5.385270835985e-04 0.0 
0.0 0.0 0.0 
6.437731349969e-05 -7.146733712935e-05 0.0 
-7.146733712935e-05 5.482089708448e-04 0.0 
0.0 0.0 0.0 
-1.064188098870e-05 -4.774592596282e-05 0.0 
-4.774592596282e-05 2.591626296337e-04 0.0 
0.0 0.0 0.0 
4.398913212443e-05 -8.959667191062e-05 0.0 
-8.959667191062e-05 5.569238648828e-04 0.0 
0.0 0.0 0.0 
1.259713040386e-04 -1.028832485768e-04 0.0 
-1.028832485768e-04 8.787395109388e-04 0.0 
0.0 0.0 0.0 
-4.525195692464e-05 -5.744658853536e-05 0.0 
-5.744658853536e-05 2.646681041903e-04 0.0 
0.0 0.0 0.0 
-4.905810535114e-04 2.929451758785e-05 0.0 
2.929451758785e-05 1.342785893077e-02 0.0 
0.0 0.0 0.0 
-4.502725876209e-04 7.136431254904e-05 0.0 
7.136431254904e-05 1.362997856526e-02 0.0 
0.0 0.0 0.0 
1.822425079065e-04 8.996900282750e-04 0.0 
8.996900282750e-04 8.353147603944e-03 0.0 
0.0 0.0 0.0 
-8.215513578787e-04 4.232552918831e-05 0.0 
4.232552918831e-05 1.167783842749e-02 0.0 
0.0 0.0 0.0 
-2.708533999919e-04 -9.414551498697e-05 0.0 
-9.414551498697e-05 3.740858536185e-04 0.0 
0.0 0.0 0.0 
-1.550760796026e-04 3.004662727259e-04 0.0 
3.004662727259e-04 1.463820200805e-02 0.0 
0.0 0.0 0.0 
-1.650320869264e-04 5.593567612668e-04 0.0 
5.593567612668e-04 1.463608921324e-02 0.0 
0.0 0.0 0.0 
-1.447742945263e-04 4.747134286879e-04 0.0 
4.747134286879e-04 1.466544082455e-02 0.0 
0.0 0.0 0.0 
3.441987079554e-04 5.624717301592e-05 0.0 
5.624717301592e-05 7.154066086862e-03 0.0 
0.0 0.0 0.0 
2.917232781616e-04 1.134463146718e-04 0.0 
1.134463146718e-04 7.412363122005e-03 0.0 
0.0 0.0 0.0 
-1.355839141527e-04 1.689017628651e-04 0.0 
1.689017628651e-04 1.466076944320e-02 0.0 
0.0 0.0 0.0 
5.130130256414e-04 -1.707486893655e-04 0.0 
-1.707486893655e-04 2.289119048842e-03 0.0 
0.0 0.0 0.0 
-5.057247436287e-04 1.549086880710e-03 0.0 
1.549086880710e-03 1.348225599077e-02 0.0 
0.0 0.0 0.0 
-3.918701764253e-04 2.941081763193e-04 0.0 
2.941081763193e-04 1.407199596167e-02 0.0 
0.0 0.0 0.0 
2.737537845316e-04 5.533191372655e-04 0.0 
5.533191372655e-04 2.336784539678e-03 0.0 
0.0 0.0 0.0 
5.419012017038e-04 -1.810181309395e-04 0.0 
-1.810181309395e-04 2.226910823364e-03 0.0 
0.0 0.0 0.0 
6.152677964136e-04 1.012549959411e-04 0.0 
1.012549959411e-04 5.679348700685e-03 0.0 
0.0 0.0 0.0 
7.681351807656e-04 2.204039139779e-04 0.0 
2.204039139779e-04 5.178820582094e-03 0.0 
0.0 0.0 0.0 
4.725316092279e-04 2.465808004187e-04 0.0 
2.465808004187e-04 6.718385356703e-03 0.0 
0.0 0.0 0.0 
6.874207828118e-04 1.370209770405e-04 0.0 
1.370209770405e-04 5.284510041654e-03 0.0 
0.0 0.0 0.0 
5.892346946227e-04 3.150338700868e-04 0.0 
3.150338700868e-04 6.320796111915e-03 0.0 
0.0 0.0 0.0 
3.854363241736e-04 1.300231093260e-03 0.0 
1.300231093260e-03 8.320517338454e-03 0.0 
0.0 0.0 0.0 
2.593568521715e-04 -8.143198797282e-05 0.0 
-8.143198797282e-05 1.407885665166e-03 0.0 
0.0 0.0 0.0 
-7.745352478251e-04 1.990074445727e-04 0.0 
1.990074445727e-04 1.276760974983e-02 0.0 
0.0 0.0 0.0 
-6.923253047459e-04 1.000996554782e-04 0.0 
1.000996554782e-04 1.260453140138e-02 0.0 
0.0 0.0 0.0 
-5.758134768171e-04 2.614666333835e-04 0.0 
2.614666333835e-04 1.353790967769e-02 0.0 
0.0 0.0 0.0 
4.985046302738e-04 -1.245843500487e-04 0.0 
-1.245843500487e-04 2.401048839235e-03 0.0 
0.0 0.0 0.0 
6.829604222249e-04 -5.901252227712e-07 0.0 
-5.901252227712e-07 3.947152432787e-03 0.0 
0.0 0.0 0.0 
2.684669266900e-04 -1.757169091903e-04 0.0 
-1.757169091903e-04 1.506250717376e-03 0.0 
0.0 0.0 0.0 
-5.947514510440e-06 2.200156480923e-03 0.0 
2.200156480923e-03 1.125597924280e-02 0.0 
0.0 0.0 0.0 
-7.730745920032e-04 1.735498903063e-03 0.0 
1.735498903063e-03 9.862544813183e-03 0.0 
0.0 0.0 0.0 
9.485854497695e-04 2.593875419972e-04 0.0 
2.593875419972e-04 4.335738732726e-03 0.0 
0.0 0.0 0.0 
6.879802953594e-04 -6.406678732508e-05 0.0 
-6.406678732508e-05 3.224215714330e-03 0.0 
0.0 0.0 0.0 
5.892853975753e-04 -1.520948876851e-04 0.0 
-1.520948876851e-04 2.509258788100e-03 0.0 
0.0 0.0 0.0 
5.058624598084e-04 -1.889903595551e-04 0.0 
-1.889903595551e-04 2.085085994863e-03 0.0 
0.0 0.0 0.0 
4.865698910009e-04 1.578857129269e-03 0.0 
1.578857129269e-03 6.351179449794e-03 0.0 
0.0 0.0 0.0 
8.438685932949e-04 8.308299275945e-05 0.0 
8.308299275945e-05 3.945818228632e-03 0.0 
0.0 0.0 0.0 
7.454673423232e-04 4.881280658540e-04 0.0 
4.881280658540e-04 6.066555163285e-03 0.0 
0.0 0.0 0.0 
-4.985335450532e-04 2.456087598303e-04 0.0 
2.456087598303e-04 1.372998642081e-02 0.0 
0.0 0.0 0.0 
-1.524160921666e-04 -8.261850164968e-05 0.0 
-8.261850164968e-05 3.563498026311e-04 0.0 
0.0 0.0 0.0 
7.178731376286e-04 5.977287716958e-04 0.0 
5.977287716958e-04 6.392029523079e-03 0.0 
0.0 0.0 0.0 
8.500076340910e-04 2.353593716255e-04 0.0 
2.353593716255e-04 4.822065937124e-03 0.0 
0.0 0.0 0.0 
-8.922607424531e-04 3.648730170330e-04 0.0 
3.648730170330e-04 1.290259755011e-02 0.0 
0.0 0.0 0.0 
7.486394853539e-04 1.337790895660e-03 0.0 
1.337790895660e-03 7.399764503263e-03 0.0 
0.0 0.0 0.0 
2.180001349698e-04 -2.192797622607e-04 0.0 
-2.192797622607e-04 1.468269893352e-03 0.0 
0.0 0.0 0.0 
-6.457975199408e-04 4.485083007357e-04 0.0 
4.485083007357e-04 1.365207913641e-02 0.0 
0.0 0.0 0.0 
-5.175906469723e-04 9.483776753544e-04 0.0 
9.483776753544e-04 1.403139011019e-02 0.0 
0.0 0.0 0.0 
-1.022736102982e-03 3.619945953347e-04 0.0 
3.619945953347e-04 1.246954127791e-02 0.0 
0.0 0.0 0.0 
1.582220566424e-04 -1.656988661558e-04 0.0 
-1.656988661558e-04 1.145056317194e-03 0.0 
0.0 0.0 0.0 
-8.005172486307e-04 1.265235431133e-04 0.0 
1.265235431133e-04 1.236632247058e-02 0.0 
0.0 0.0 0.0 
4.653659931237e-04 9.300821826233e-04 0.0 
9.300821826233e-04 7.636990382831e-03 0.0 
0.0 0.0 0.0 
-8.879586968532e-04 9.196773251621e-04 0.0 
9.196773251621e-04 1.330691505288e-02 0.0 
0.0 0.0 0.0 
4.428751435299e-04 -1.177085141197e-04 0.0 
-1.177085141197e-04 2.189500834699e-03 0.0 
0.0 0.0 0.0 
1.033887883376e-03 7.532960057724e-04 0.0 
7.532960057724e-04 5.034399561412e-03 0.0 
0.0 0.0 0.0 
1.148836193856e-05 1.834792918031e-03 0.0 
1.834792918031e-03 7.887999291336e-03 0.0 
0.0 0.0 0.0 
-1.228032503882e-03 5.703276309415e-04 0.0 
5.703276309415e-04 1.113538743342e-02 0.0 
0.0 0.0 0.0 
-3.591545894766e-04 3.712305564183e-04 0.0 
3.712305564183e-04 1.420691908954e-02 0.0 
0.0 0.0 0.0 
7.216749143026e-04 1.442788566874e-03 0.0 
1.442788566874e-03 6.521518369258e-03 0.0 
0.0 0.0 0.0 
6.823106486285e-04 1.252016844332e-03 0.0 
1.252016844332e-03 7.518800614174e-03 0.0 
0.0 0.0 0.0 
9.646981274465e-04 9.452429160438e-04 0.0 
9.452429160438e-04 5.994454269449e-03 0.0 
0.0 0.0 0.0 
4.703342228786e-04 -8.874480177398e-05 0.0 
-8.874480177398e-05 2.357926835902e-03 0.0 
0.0 0.0 0.0 
5.782748691303e-04 5.281138685735e-04 0.0 
5.281138685735e-04 6.749247311635e-03 0.0 
0.0 0.0 0.0 
9.516643844443e-04 1.053883434504e-03 0.0 
1.053883434504e-03 5.428082535277e-03 0.0 
0.0 0.0 0.0 
-5.283110060904e-04 5.332022542522e-04 0.0 
5.332022542522e-04 1.397645027367e-02 0.0 
0.0 0.0 0.0 
-9.522139937681e-05 1.923908724639e-03 0.0 
1.923908724639e-03 1.005754875888e-02 0.0 
0.0 0.0 0.0 
9.760446347018e-04 6.350487402869e-04 0.0 
6.350487402869e-04 4.061219027821e-03 0.0 
0.0 0.0 0.0 
-7.155087087394e-04 7.071642703552e-04 0.0 
7.071642703552e-04 1.369134546801e-02 0.0 
0.0 0.0 0.0 
1.000945789965e-03 3.904392937288e-04 0.0 
3.904392937288e-04 4.500367828216e-03 0.0 
0.0 0.0 0.0 
6.557365792255e-04 1.486183747595e-03 0.0 
1.486183747595e-03 7.888853781426e-03 0.0 
0.0 0.0 0.0 
-5.971528637594e-04 1.816841818061e-03 0.0 
1.816841818061e-03 9.220686586274e-03 0.0 
0.0 0.0 0.0 
-1.304307031808e-04 1.879917361718e-03 0.0 
1.879917361718e-03 9.303259409178e-03 0.0 
0.0 0.0 0.0 
-6.941688361636e-04 1.721526365921e-03 0.0 
1.721526365921e-03 1.124456184206e-02 0.0 
0.0 0.0 0.0 
3.464041451716e-04 1.746072047985e-03 0.0 
1.746072047985e-03 7.842987962393e-03 0.0 
0.0 0.0 0.0 
6.316709569940e-04 6.056860825236e-05 0.0 
6.056860825236e-05 5.420398697795e-03 0.0 
0.0 0.0 0.0 
6.485885867047e-04 5.659130756306e-04 0.0 
5.659130756306e-04 6.567296729662e-03 0.0 
0.0 0.0 0.0 
3.023335527122e-04 1.183134898420e-05 0.0 
1.183134898420e-05 1.696414872213e-03 0.0 
0.0 0.0 0.0 
3.852077494607e-04 1.489609997848e-03 0.0 
1.489609997848e-03 5.485310945888e-03 0.0 
0.0 0.0 0.0 
-9.883400729678e-04 4.866641855532e-04 0.0 
4.866641855532e-04 1.283094866910e-02 0.0 
0.0 0.0 0.0 
1.339778006385e-04 2.002733519609e-03 0.0 
2.002733519609e-03 1.010172519533e-02 0.0 
0.0 0.0 0.0 
-3.840709692404e-04 6.098797548444e-04 0.0 
6.098797548444e-04 1.427928549564e-02 0.0 
0.0 0.0 0.0 
-1.254657249850e-05 1.819148959399e-03 0.0 
1.819148959399e-03 7.496264024268e-03 0.0 
0.0 0.0 0.0 
6.187594536359e-04 4.305708294021e-04 0.0 
4.305708294021e-04 6.428885597638e-03 0.0 
0.0 0.0 0.0 
-5.677101245435e-04 8.106998144031e-04 0.0 
8.106998144031e-04 1.397704827295e-02 0.0 
0.0 0.0 0.0 
8.226703614520e-04 8.838605110585e-05 0.0 
8.838605110585e-05 4.116443575248e-03 0.0 
0.0 0.0 0.0 
3.116590054655e-04 -2.654199714124e-05 0.0 
-2.654199714124e-05 1.622371304010e-03 0.0 
0.0 0.0 0.0 
2.933821820245e-05 5.384621684237e-04 0.0 
5.384621684237e-04 1.963110070780e-03 0.0 
0.0 0.0 0.0 
8.175205140570e-04 4.605330856326e-04 0.0 
4.605330856326e-04 3.178537705389e-03 0.0 
0.0 0.0 0.0 
8.195518466697e-04 1.298045720525e-03 0.0 
1.298045720525e-03 5.974874363072e-03 0.0 
0.0 0.0 0.0 
8.276290485272e-04 1.581115530785e-04 0.0 
1.581115530785e-04 4.550465706053e-03 0.0 
0.0 0.0 0.0 
-4.598366095462e-04 1.356033422727e-03 0.0 
1.356033422727e-03 1.383258015885e-02 0.0 
0.0 0.0 0.0 
5.543757696768e-04 3.993408707664e-04 0.0 
3.993408707664e-04 6.620224891485e-03 0.0 
0.0 0.0 0.0 
8.074556983631e-04 7.838006978858e-04 0.0 
7.838006978858e-04 6.430856294477e-03 0.0 
0.0 0.0 0.0 
-7.404315271962e-04 1.010237820415e-03 0.0 
1.010237820415e-03 1.699759131882e-03 0.0 
0.0 0.0 0.0 
-1.267135399018e-03 8.755624912372e-04 0.0 
8.755624912372e-04 1.109198996084e-02 0.0 
0.0 0.0 0.0 
4.890400900376e-04 3.628589281462e-04 0.0 
3.628589281462e-04 6.819461923003e-03 0.0 
0.0 0.0 0.0 
1.031922350203e-03 6.997426952536e-04 0.0 
6.997426952536e-04 5.104829514337e-03 0.0 
0.0 0.0 0.0 
6.364848945640e-04 1.438702578104e-03 0.0 
1.438702578104e-03 7.903021794407e-03 0.0 
0.0 0.0 0.0 
6.752295844639e-04 9.157537892958e-06 0.0 
9.157537892958e-06 4.272714832449e-03 0.0 
0.0 0.0 0.0 
5.525119729866e-05 2.184213701266e-03 0.0 
2.184213701266e-03 1.090381092959e-02 0.0 
0.0 0.0 0.0 
-9.285139154111e-04 1.580658972996e-03 0.0 
1.580658972996e-03 9.125133124090e-03 0.0 
0.0 0.0 0.0 
4.225816218661e-04 3.208767219737e-04 0.0 
3.208767219737e-04 7.030686361404e-03 0.0 
0.0 0.0 0.0 
8.180802967649e-04 9.610353951302e-04 0.0 
9.610353951302e-04 6.680116110603e-03 0.0 
0.0 0.0 0.0 
6.548798903450e-04 1.038203505077e-03 0.0 
1.038203505077e-03 4.132559517774e-03 0.0 
0.0 0.0 0.0 
-6.974868654022e-04 3.972747186078e-06 0.0 
3.972747186078e-06 1.157972706428e-02 0.0 
0.0 0.0 0.0 
2.734913378936e-04 3.588309132595e-04 0.0 
3.588309132595e-04 7.621866768143e-03 0.0 
0.0 0.0 0.0 
6.953669878171e-04 1.063814152322e-03 0.0 
1.063814152322e-03 7.211551098316e-03 0.0 
0.0 0.0 0.0 
3.312414449327e-04 1.774157445938e-03 0.0 
1.774157445938e-03 8.270765564851e-03 0.0 
0.0 0.0 0.0 
1.033958103270e-03 5.552893909522e-04 0.0 
5.552893909522e-04 4.727606541211e-03 0.0 
0.0 0.0 0.0 
-1.232458609853e-03 7.975333142351e-04 0.0 
7.975333142351e-04 1.059150929842e-02 0.0 
0.0 0.0 0.0 
7.944195031557e-04 1.568572862171e-04 0.0 
1.568572862171e-04 4.728536749559e-03 0.0 
0.0 0.0 0.0 
-2.843325460139e-04 1.878920159780e-03 0.0 
1.878920159780e-03 9.909297869062e-03 0.0 
0.0 0.0 0.0 
-2.105194127648e-04 1.149587792191e-03 0.0 
1.149587792191e-03 1.435558256101e-02 0.0 
0.0 0.0 0.0 
6.176112801362e-04 1.203473258487e-03 0.0 
1.203473258487e-03 7.609216439308e-03 0.0 
0.0 0.0 0.0 
-1.090628126267e-03 1.067297498730e-03 0.0 
1.067297498730e-03 1.247491357203e-02 0.0 
0.0 0.0 0.0 
7.726132684050e-04 9.694440779964e-05 0.0 
9.694440779964e-05 4.470510077905e-03 0.0 
0.0 0.0 0.0 
7.096327618037e-04 1.498363757938e-03 0.0 
1.498363757938e-03 7.408951857388e-03 0.0 
0.0 0.0 0.0 
1.382930439094e-04 -8.602294582464e-05 0.0 
-8.602294582464e-05 8.590470883400e-04 0.0 
0.0 0.0 0.0 
-1.189224230984e-03 1.213703706817e-03 0.0 
1.213703706817e-03 1.033801086246e-02 0.0 
0.0 0.0 0.0 
7.449705642933e-04 9.803276261508e-05 0.0 
9.803276261508e-05 4.652451459707e-03 0.0 
0.0 0.0 0.0 
8.717581516059e-04 3.820932105343e-04 0.0 
3.820932105343e-04 3.235258365776e-03 0.0 
0.0 0.0 0.0 
1.016788689156e-03 5.173614518702e-04 0.0 
5.173614518702e-04 4.833136598933e-03 0.0 
0.0 0.0 0.0 
3.334173151214e-04 1.885967838941e-03 0.0 
1.885967838941e-03 9.375348786806e-03 0.0 
0.0 0.0 0.0 
7.168297201533e-04 9.606980679202e-05 0.0 
9.606980679202e-05 4.838643888963e-03 0.0 
0.0 0.0 0.0 
9.537980454195e-04 4.722889671683e-04 0.0 
4.722889671683e-04 3.669367467531e-03 0.0 
0.0 0.0 0.0 
6.884730211603e-04 8.992215122224e-05 0.0 
8.992215122224e-05 5.027743414419e-03 0.0 
0.0 0.0 0.0 
-1.158319227013e-03 1.194762937044e-03 0.0 
1.194762937044e-03 9.747438812809e-03 0.0 
0.0 0.0 0.0 
-1.015054594537e-03 1.254126509340e-03 0.0 
1.254126509340e-03 1.240965869980e-02 0.0 
0.0 0.0 0.0 
6.611326664184e-04 7.721640122452e-05 0.0 
7.721640122452e-05 5.218228325187e-03 0.0 
0.0 0.0 0.0 
-2.497298127427e-04 1.898939906327e-03 0.0 
1.898939906327e-03 1.026283905105e-02 0.0 
0.0 0.0 0.0 
1.123709524139e-04 -1.317424822604e-04 0.0 
-1.317424822604e-04 9.186364325753e-04 0.0 
0.0 0.0 0.0 
4.459954266683e-04 1.724180101668e-03 0.0 
1.724180101668e-03 8.115470733327e-03 0.0 
0.0 0.0 0.0 
4.075855468982e-04 1.041603420037e-04 0.0 
1.041603420037e-04 6.885188262166e-03 0.0 
0.0 0.0 0.0 
7.441829907893e-04 -6.725123642186e-05 0.0 
-6.725123642186e-05 2.973926823785e-03 0.0 
0.0 0.0 0.0 
9.910277526527e-04 4.878555017289e-04 0.0 
4.878555017289e-04 4.956873663702e-03 0.0 
0.0 0.0 0.0 
-8.876490505659e-04 1.363957920693e-03 0.0 
1.363957920693e-03 1.266619486688e-02 0.0 
0.0 0.0 0.0 
-9.557608846550e-04 1.502875406995e-03 0.0 
1.502875406995e-03 8.335706390305e-03 0.0 
0.0 0.0 0.0 
9.562933338335e-04 5.857584827319e-04 0.0 
5.857584827319e-04 5.429285279164e-03 0.0 
0.0 0.0 0.0 
-2.128376633754e-04 1.936342950323e-03 0.0 
1.936342950323e-03 1.062208975768e-02 0.0 
0.0 0.0 0.0 
5.363523132835e-04 1.675045148150e-03 0.0 
1.675045148150e-03 8.003768602835e-03 0.0 
0.0 0.0 0.0 
7.999258129103e-04 1.361752144741e-03 0.0 
1.361752144741e-03 6.446592226307e-03 0.0 
0.0 0.0 0.0 
8.964016194058e-04 6.850462434148e-04 0.0 
6.850462434148e-04 5.920675528448e-03 0.0 
0.0 0.0 0.0 
-6.543592386750e-04 1.685175099706e-03 0.0 
1.685175099706e-03 7.659420240675e-03 0.0 
0.0 0.0 0.0 
4.827863244248e-04 -1.907381624519e-04 0.0 
-1.907381624519e-04 2.138221134259e-03 0.0 
0.0 0.0 0.0 
3.612108411286e-04 -2.164729100394e-04 0.0 
-2.164729100394e-04 1.778952101928e-03 0.0 
0.0 0.0 0.0 
9.799477258970e-04 4.112215532611e-04 0.0 
4.112215532611e-04 3.743116824164e-03 0.0 
0.0 0.0 0.0 
-3.087359969105e-04 1.936107912733e-03 0.0 
1.936107912733e-03 1.116619563713e-02 0.0 
0.0 0.0 0.0 
2.097915855635e-04 -6.103419060292e-05 0.0 
-6.103419060292e-05 1.171742146412e-03 0.0 
0.0 0.0 0.0 
-7.833430064402e-04 1.587771567086e-03 0.0 
1.587771567086e-03 1.215443768106e-02 0.0 
0.0 0.0 0.0 
1.595259672345e-04 -2.368141831614e-04 0.0 
-2.368141831614e-04 1.290603730679e-03 0.0 
0.0 0.0 0.0 
9.332458049079e-04 2.688972300458e-04 0.0 
2.688972300458e-04 3.406337193462e-03 0.0 
0.0 0.0 0.0 
5.311035146059e-04 1.705416379056e-03 0.0 
1.705416379056e-03 8.431130641026e-03 0.0 
0.0 0.0 0.0 
-6.094207212526e-04 1.064010844890e-05 0.0 
1.064010844890e-05 1.268846303661e-02 0.0 
0.0 0.0 0.0 
9.451426674161e-04 2.304425672925e-04 0.0 
2.304425672925e-04 3.511686973191e-03 0.0 
0.0 0.0 0.0 
3.879525717513e-04 -2.399134630246e-05 0.0 
-2.399134630246e-05 1.993503597159e-03 0.0 
0.0 0.0 0.0 
8.825566960843e-04 1.124093988624e-04 0.0 
1.124093988624e-04 3.216874000854e-03 0.0 
0.0 0.0 0.0 
7.631804445744e-04 1.426766270083e-03 0.0 
1.426766270083e-03 6.923136006994e-03 0.0 
0.0 0.0 0.0 
8.870112998661e-04 9.447938283866e-05 0.0 
9.447938283866e-05 3.345863272447e-03 0.0 
0.0 0.0 0.0 
8.161265726934e-04 2.716469585897e-06 0.0 
2.716469585897e-06 3.081613260618e-03 0.0 
0.0 0.0 0.0 
-2.701109729654e-04 3.368016480287e-04 0.0 
3.368016480287e-04 1.439262931145e-02 0.0 
0.0 0.0 0.0 
8.177843977852e-04 6.788107356477e-07 0.0 
6.788107356477e-07 3.222790636875e-03 0.0 
0.0 0.0 0.0 
-1.114079931750e-04 9.573898219813e-05 0.0 
9.573898219813e-05 1.471914139916e-02 0.0 
0.0 0.0 0.0 
1.380789969237e-04 1.164854660188e-04 0.0 
1.164854660188e-04 8.007583350636e-03 0.0 
0.0 0.0 0.0 
-6.752103054537e-04 -4.002777651955e-08 0.0 
-4.002777651955e-08 1.188919099251e-02 0.0 
0.0 0.0 0.0 
-8.904136710771e-04 1.522420641823e-03 0.0 
1.522420641823e-03 7.003571947139e-03 0.0 
0.0 0.0 0.0 
-7.899123973991e-04 9.581306684793e-06 0.0 
9.581306684793e-06 6.400518773558e-04 0.0 
0.0 0.0 0.0 
-4.572478452345e-04 1.576650179011e-03 0.0 
1.576650179011e-03 6.089521479361e-03 0.0 
0.0 0.0 0.0 
6.536189740072e-04 -1.292608540234e-04 0.0 
-1.292608540234e-04 2.594196074619e-03 0.0 
0.0 0.0 0.0 
-6.032822843921e-04 1.773333644484e-03 0.0 
1.773333644484e-03 1.152594156269e-02 0.0 
0.0 0.0 0.0 
-6.797012178611e-04 1.325034213741e-05 0.0 
1.325034213741e-05 1.190989244286e-02 0.0 
0.0 0.0 0.0 
5.672900079510e-04 -1.679518205568e-04 0.0 
-1.679518205568e-04 2.365558335923e-03 0.0 
0.0 0.0 0.0 
-3.268589092700e-04 1.926494516970e-03 0.0 
1.926494516970e-03 1.288980545381e-02 0.0 
0.0 0.0 0.0 
7.459304122355e-05 2.261694653565e-03 0.0 
2.261694653565e-03 1.081275397162e-02 0.0 
0.0 0.0 0.0 
-5.305366648744e-04 5.729615023315e-05 0.0 
5.729615023315e-05 1.325076641378e-02 0.0 
0.0 0.0 0.0 
5.903165366909e-04 1.394968848081e-03 0.0 
1.394968848081e-03 7.943742744816e-03 0.0 
0.0 0.0 0.0 
6.004668383544e-04 1.627076294917e-03 0.0 
1.627076294917e-03 7.940595935858e-03 0.0 
0.0 0.0 0.0 
-3.212399256186e-04 4.424449398750e-05 0.0 
4.424449398750e-05 1.410586733119e-02 0.0 
0.0 0.0 0.0 
-7.416167228110e-04 5.920934683373e-06 0.0 
5.920934683373e-06 1.156930793584e-02 0.0 
0.0 0.0 0.0 
-1.710072096977e-04 -1.723445869610e-04 0.0 
-1.723445869610e-04 6.314861798026e-04 0.0 
0.0 0.0 0.0 
5.991045838762e-04 3.432611976834e-05 0.0 
3.432611976834e-05 5.657072107944e-03 0.0 
0.0 0.0 0.0 
-8.901154604664e-04 1.487356889639e-03 0.0 
1.487356889639e-03 5.601593587361e-03 0.0 
0.0 0.0 0.0 
-4.516561580119e-04 1.422671230465e-03 0.0 
1.422671230465e-03 4.625257181303e-03 0.0 
0.0 0.0 0.0 
-4.182347008410e-04 1.220749462288e-03 0.0 
1.220749462288e-03 3.313384814921e-03 0.0 
0.0 0.0 0.0 
4.874576041279e-04 -6.329549821802e-05 0.0 
-6.329549821802e-05 2.490225543909e-03 0.0 
0.0 0.0 0.0 
-9.613177241402e-05 -2.244537321101e-04 0.0 
-2.244537321101e-04 9.630747792941e-04 0.0 
0.0 0.0 0.0 
-8.132533548376e-04 1.421390539968e-03 0.0 
1.421390539968e-03 4.302661300817e-03 0.0 
0.0 0.0 0.0 
3.584128190692e-04 1.624191545685e-03 0.0 
1.624191545685e-03 8.845571061101e-03 0.0 
0.0 0.0 0.0 
-8.662225587498e-04 9.915852827842e-05 0.0 
9.915852827842e-05 1.198061197033e-02 0.0 
0.0 0.0 0.0 
4.193270065369e-04 1.812430727965e-03 0.0 
1.812430727965e-03 8.941151768375e-03 0.0 
0.0 0.0 0.0 
-7.825248901004e-04 1.280419757834e-03 0.0 
1.280419757834e-03 2.959955941649e-03 0.0 
0.0 0.0 0.0 
-3.961335869328e-04 9.053124732342e-04 0.0 
9.053124732342e-04 1.423281304483e-02 0.0 
0.0 0.0 0.0 
2.295431693672e-04 2.040179249526e-03 0.0 
2.040179249526e-03 9.938428065560e-03 0.0 
0.0 0.0 0.0 
1.537648890484e-04 6.832162029195e-04 0.0 
6.832162029195e-04 8.255404118325e-03 0.0 
0.0 0.0 0.0 
3.407729988009e-04 1.907989600113e-03 0.0 
1.907989600113e-03 9.410979092325e-03 0.0 
0.0 0.0 0.0 
-4.244437955901e-04 9.194113007256e-04 0.0 
9.194113007256e-04 2.123137209048e-03 0.0 
0.0 0.0 0.0 
-1.072597755518e-03 3.799816264042e-04 0.0 
3.799816264042e-04 1.229839917615e-02 0.0 
0.0 0.0 0.0 
-7.627294652540e-05 2.186653390582e-03 0.0 
2.186653390582e-03 1.159475739289e-02 0.0 
0.0 0.0 0.0 
-4.870163958444e-04 1.030109819643e-04 0.0 
1.030109819643e-04 1.354637254216e-02 0.0 
0.0 0.0 0.0 
1.400958459581e-04 5.434214800342e-04 0.0 
5.434214800342e-04 8.202622384763e-03 0.0 
0.0 0.0 0.0 
-9.599097728521e-04 1.640869759852e-04 0.0 
1.640869759852e-04 1.194330800753e-02 0.0 
0.0 0.0 0.0 
-2.225927846097e-04 2.198145486729e-04 0.0 
2.198145486729e-04 1.444661897179e-02 0.0 
0.0 0.0 0.0 
1.846425356337e-04 -9.731255115015e-05 0.0 
-9.731255115015e-05 1.447801143918e-03 0.0 
0.0 0.0 0.0 
-2.063862249621e-04 1.139677383956e-04 0.0 
1.139677383956e-04 1.445519044634e-02 0.0 
0.0 0.0 0.0 
-5.058604021883e-04 1.839241179817e-03 0.0 
1.839241179817e-03 1.182129138371e-02 0.0 
0.0 0.0 0.0 
-6.850970581681e-04 6.922004705217e-05 0.0 
6.922004705217e-05 1.242399340975e-02 0.0 
0.0 0.0 0.0 
-1.177352493277e-03 5.885905970856e-04 0.0 
5.885905970856e-04 1.219146061602e-02 0.0 
0.0 0.0 0.0 
2.266340233107e-04 1.796423508489e-04 0.0 
1.796423508489e-04 7.667831006077e-03 0.0 
0.0 0.0 0.0 
-4.084414910768e-04 1.681668991227e-03 0.0 
1.681668991227e-03 1.341348161734e-02 0.0 
0.0 0.0 0.0 
-4.338473836584e-04 7.056002349429e-04 0.0 
7.056002349429e-04 1.565235675128e-03 0.0 
0.0 0.0 0.0 
-5.488417329986e-04 9.234997851913e-05 0.0 
9.234997851913e-05 1.323403018106e-02 0.0 
0.0 0.0 0.0 
6.088082678691e-04 -5.276641007708e-05 0.0 
-5.276641007708e-05 3.144561510570e-03 0.0 
0.0 0.0 0.0 
-4.562819942218e-04 -1.100125177768e-04 0.0 
-1.100125177768e-04 7.634983278012e-04 0.0 
0.0 0.0 0.0 
3.205670240353e-04 8.118621237460e-04 0.0 
8.118621237460e-04 7.884979236478e-03 0.0 
0.0 0.0 0.0 
-4.002062901271e-04 1.914311098882e-03 0.0 
1.914311098882e-03 1.210792634937e-02 0.0 
0.0 0.0 0.0 
2.420333148656e-04 3.022420594663e-04 0.0 
3.022420594663e-04 7.661830543752e-03 0.0 
0.0 0.0 0.0 
1.497482261948e-04 -1.777355464248e-05 0.0 
-1.777355464248e-05 8.426620727547e-04 0.0 
0.0 0.0 0.0 
-9.941466512000e-05 -1.399135698275e-04 0.0 
-1.399135698275e-04 5.611915316552e-04 0.0 
0.0 0.0 0.0 
3.204169087081e-04 1.008211390819e-03 0.0 
1.008211390819e-03 8.121626847458e-03 0.0 
0.0 0.0 0.0 
-2.124574136579e-04 2.104304139116e-03 0.0 
2.104304139116e-03 1.235027611358e-02 0.0 
0.0 0.0 0.0 
2.674505726639e-04 -1.297449782257e-04 0.0 
-1.297449782257e-04 1.594288118598e-03 0.0 
0.0 0.0 0.0 
-1.582851060019e-04 7.827937772644e-04 0.0 
7.827937772644e-04 1.460841480803e-02 0.0 
0.0 0.0 0.0 
-5.599286702411e-04 5.169910425849e-04 0.0 
5.169910425849e-04 1.057219331999e-03 0.0 
0.0 0.0 0.0 
-7.831526077427e-04 2.102540868566e-05 0.0 
2.102540868566e-05 1.154000516619e-02 0.0 
0.0 0.0 0.0 
4.335764791197e-06 -1.031102455519e-04 0.0 
-1.031102455519e-04 5.424093726886e-04 0.0 
0.0 0.0 0.0 
1.314070953593e-04 3.991104282879e-04 0.0 
3.991104282879e-04 8.145374132033e-03 0.0 
0.0 0.0 0.0 
-2.960059899864e-04 5.644686524029e-04 0.0 
5.644686524029e-04 1.440968491240e-02 0.0 
0.0 0.0 0.0 
6.352053638045e-04 -1.644529253623e-05 0.0 
-1.644529253623e-05 3.492146718007e-03 0.0 
0.0 0.0 0.0 
-1.137887308238e-03 3.575183241320e-04 0.0 
3.575183241320e-04 1.163607455336e-02 0.0 
0.0 0.0 0.0 
4.362664281161e-04 -4.508943201141e-05 0.0 
-4.508943201141e-05 2.247002183504e-03 0.0 
0.0 0.0 0.0 
1.195049720877e-04 2.095004184740e-03 0.0 
2.095004184740e-03 1.042188948253e-02 0.0 
0.0 0.0 0.0 
-6.833722787223e-05 -2.146877569108e-04 0.0 
-2.146877569108e-04 8.733702061194e-04 0.0 
0.0 0.0 0.0 
-2.492459273316e-04 4.056654464576e-04 0.0 
4.056654464576e-04 1.446988878334e-02 0.0 
0.0 0.0 0.0 
3.272672381840e-04 1.220967263082e-03 0.0 
1.220967263082e-03 8.357834879872e-03 0.0 
0.0 0.0 0.0 
-3.978172170876e-04 1.269251000887e-03 0.0 
1.269251000887e-03 1.402553909492e-02 0.0 
0.0 0.0 0.0 
1.358713720957e-04 1.969460795763e-03 0.0 
1.969460795763e-03 9.840297371753e-03 0.0 
0.0 0.0 0.0 
-5.100942057347e-04 1.217300572366e-04 0.0 
1.217300572366e-04 8.342301267995e-04 0.0 
0.0 0.0 0.0 
1.552363547950e-04 2.136084825410e-03 0.0 
2.136084825410e-03 1.033935237055e-02 0.0 
0.0 0.0 0.0 
4.953816868227e-04 1.302375960892e-03 0.0 
1.302375960892e-03 8.059231769166e-03 0.0 
0.0 0.0 0.0 
-7.200989823041e-04 1.504205125791e-05 0.0 
1.504205125791e-05 1.155689072323e-02 0.0 
0.0 0.0 0.0 
-4.158947439429e-04 1.495367098071e-03 0.0 
1.495367098071e-03 1.371453569433e-02 0.0 
0.0 0.0 0.0 
5.403734384141e-04 -4.719059049668e-05 0.0 
-4.719059049668e-05 2.795881535939e-03 0.0 
0.0 0.0 0.0 
1.870388878399e-04 -1.331387502763e-04 0.0 
-1.331387502763e-04 1.164305657392e-03 0.0 
0.0 0.0 0.0 
-8.939781650317e-05 4.471639091056e-05 0.0 
4.471639091056e-05 1.475697036041e-02 0.0 
0.0 0.0 0.0 
4.229048210216e-05 -6.983303844920e-06 0.0 
-6.983303844920e-06 1.721825011467e-04 0.0 
0.0 0.0 0.0 
-6.902967432276e-04 -3.332865391120e-06 0.0 
-3.332865391120e-06 1.151421991163e-02 0.0 
0.0 0.0 0.0 
1.043061314505e-04 6.083082676786e-05 0.0 
6.083082676786e-05 8.115137982043e-03 0.0 
0.0 0.0 0.0 
1.954087987549e-04 -8.056071782481e-05 0.0 
-8.056071782481e-05 1.100066656430e-03 0.0 
0.0 0.0 0.0 
-6.596054895231e-04 1.354867056078e-05 0.0 
1.354867056078e-05 1.219199219130e-02 0.0 
0.0 0.0 0.0 
-2.576125422893e-04 2.033715948194e-03 0.0 
2.033715948194e-03 1.266028261624e-02 0.0 
0.0 0.0 0.0 
6.666936698310e-04 6.812175088434e-06 0.0 
6.812175088434e-06 4.384927352378e-03 0.0 
0.0 0.0 0.0 
-3.785935200304e-04 6.967673297310e-05 0.0 
6.967673297310e-05 1.390495410322e-02 0.0 
0.0 0.0 0.0 
5.075250242448e-05 -2.284393433105e-04 0.0 
-2.284393433105e-04 1.184910649752e-03 0.0 
0.0 0.0 0.0 
-8.097970275790e-04 -5.421977971815e-05 0.0 
-5.421977971815e-05 5.695178525720e-04 0.0 
0.0 0.0 0.0 
-5.863446462857e-04 3.314299322553e-05 0.0 
3.314299322553e-05 1.289687699751e-02 0.0 
0.0 0.0 0.0 
2.471465241893e-04 1.998611291667e-03 0.0 
1.998611291667e-03 9.762473233584e-03 0.0 
0.0 0.0 0.0 
-3.639087173794e-04 1.026962047749e-03 0.0 
1.026962047749e-03 1.424074956969e-02 0.0 
0.0 0.0 0.0 
-6.533062701218e-04 7.402349138354e-05 0.0 
7.402349138354e-05 1.263760962745e-02 0.0 
0.0 0.0 0.0 
-1.949760417448e-04 5.320236533489e-04 0.0 
5.320236533489e-04 1.683256559599e-03 0.0 
0.0 0.0 0.0 
-3.122582109748e-04 2.002346543460e-03 0.0 
2.002346543460e-03 1.233285135340e-02 0.0 
0.0 0.0 0.0 
6.645838332780e-04 -8.409946460023e-06 0.0 
-8.409946460023e-06 3.797244878240e-03 0.0 
0.0 0.0 0.0 
-6.010850174896e-05 2.124723508589e-03 0.0 
2.124723508589e-03 1.116257030625e-02 0.0 
0.0 0.0 0.0 
4.685580134801e-04 1.490900594198e-03 0.0 
1.490900594198e-03 8.393548961266e-03 0.0 
0.0 0.0 0.0 
-7.312686283674e-04 5.750509283985e-04 0.0 
5.750509283985e-04 7.238721282398e-04 0.0 
0.0 0.0 0.0 
6.617889994796e-04 1.306312694846e-05 0.0 
1.306312694846e-05 4.762936451642e-03 0.0 
0.0 0.0 0.0 
-5.191161396831e-05 -1.123657259435e-04 0.0 
-1.123657259435e-04 5.227824264257e-04 0.0 
0.0 0.0 0.0 
2.535332961751e-04 5.955826216161e-04 0.0 
5.955826216161e-04 7.878094700561e-03 0.0 
0.0 0.0 0.0 
6.650447716463e-04 -2.310233393512e-06 0.0 
-2.310233393512e-06 3.977553170193e-03 0.0 
0.0 0.0 0.0 
-8.454687457575e-04 2.685142778676e-04 0.0 
2.685142778676e-04 1.019374334596e-02 0.0 
0.0 0.0 0.0 
-7.482864162814e-04 6.102863482117e-06 0.0 
6.102863482117e-06 1.015379669108e-02 0.0 
0.0 0.0 0.0 
-9.603981380867e-04 2.745132771435e-04 0.0 
2.745132771435e-04 1.058312726900e-02 0.0 
0.0 0.0 0.0 
-7.131369847274e-04 -2.699842137613e-06 0.0 
-2.699842137613e-06 1.058913928887e-02 0.0 
0.0 0.0 0.0 
-1.033696268416e-03 2.331248895363e-04 0.0 
2.331248895363e-04 1.102235423090e-02 0.0 
0.0 0.0 0.0 
-7.040476784523e-04 2.702475524312e-06 0.0 
2.702475524312e-06 1.099009370031e-02 0.0 
0.0 0.0 0.0 

TENSORS node_materi_strain_plasti float
-1.741775845201e-05 -2.168405097555e-06 0.0 
-2.168405097555e-06 1.395813736689e-04 0.0 
0.0 0.0 -3.282868849617e-05 
-7.193710724365e-04 -1.122442495585e-04 0.0 
-1.122442495585e-04 4.531072016065e-03 0.0 
0.0 0.0 -6.959116756397e-04 
-1.326721611229e-03 9.743109485010e-05 0.0 
9.743109485010e-05 8.921087027136e-03 0.0 
0.0 0.0 -1.332621093165e-03 
-1.328526300077e-03 -9.718698781146e-05 0.0 
-9.718698781146e-05 8.927311597372e-03 0.0 
0.0 0.0 -1.332621093165e-03 
-8.193859278095e-05 3.577520009443e-05 0.0 
3.577520009443e-05 3.368763971303e-04 0.0 
0.0 0.0 -8.453455331315e-05 
-1.695924659270e-04 1.267609683744e-04 0.0 
1.267609683744e-04 8.452299049113e-04 0.0 
0.0 0.0 -1.619080202416e-04 
-2.296336673595e-04 1.041833740940e-04 0.0 
1.041833740940e-04 1.224476071287e-03 0.0 
0.0 0.0 -2.266090766362e-04 
-2.971855348456e-04 9.450166671956e-05 0.0 
9.450166671956e-05 1.745895085854e-03 0.0 
0.0 0.0 -2.937643997455e-04 
-3.715291688780e-04 6.977872566512e-05 0.0 
6.977872566512e-05 2.214517262813e-03 0.0 
0.0 0.0 -3.610469555860e-04 
-4.249688263072e-04 6.584730845620e-05 0.0 
6.584730845620e-05 2.664484643095e-03 0.0 
0.0 0.0 -4.277228197774e-04 
-4.875317281637e-04 7.284843635981e-05 0.0 
7.284843635981e-05 3.123402469253e-03 0.0 
0.0 0.0 -4.940119848999e-04 
-5.560650258811e-04 6.506894170197e-05 0.0 
6.506894170197e-05 3.586726731214e-03 0.0 
0.0 0.0 -5.601824523721e-04 
-6.219544696599e-04 6.499150418632e-05 0.0 
6.499150418632e-05 4.044891981262e-03 0.0 
0.0 0.0 -6.267196139102e-04 
-6.989301157160e-04 8.304445482454e-05 0.0 
8.304445482454e-05 4.516508974108e-03 0.0 
0.0 0.0 -6.936951881209e-04 
-7.842461813792e-04 1.250766207628e-04 0.0 
1.250766207628e-04 5.027932232893e-03 0.0 
0.0 0.0 -7.607197531558e-04 
-8.342478146059e-04 1.327780010267e-04 0.0 
1.327780010267e-04 5.490101288132e-03 0.0 
0.0 0.0 -8.270758575052e-04 
-8.797786789151e-04 1.730981527132e-04 0.0 
1.730981527132e-04 5.870913224211e-03 0.0 
0.0 0.0 -8.903361771249e-04 
-9.530636179411e-04 6.774981962034e-05 0.0 
6.774981962034e-05 6.360455625450e-03 0.0 
0.0 0.0 -9.558084330571e-04 
-1.021468397639e-03 6.438406854751e-05 0.0 
6.438406854751e-05 6.838909130197e-03 0.0 
0.0 0.0 -1.024523475697e-03 
-1.087303877607e-03 6.616077821815e-05 0.0 
6.616077821815e-05 7.302617105742e-03 0.0 
0.0 0.0 -1.091244731156e-03 
-1.157611465321e-03 6.099216604955e-05 0.0 
6.099216604955e-05 7.775325521779e-03 0.0 
0.0 0.0 -1.158330123333e-03 
-1.229956863987e-03 7.577779225227e-05 0.0 
7.577779225227e-05 8.251739665694e-03 0.0 
0.0 0.0 -1.226073836101e-03 
-1.285597262298e-03 9.777469732990e-05 0.0 
9.777469732990e-05 8.717344745921e-03 0.0 
0.0 0.0 -1.289832767750e-03 
-1.328056332164e-03 -6.444803612954e-06 0.0 
-6.444803612954e-06 8.942057407760e-03 0.0 
0.0 0.0 -1.336902025401e-03 
-1.335490548137e-03 -3.051268407675e-06 0.0 
-3.051268407675e-06 8.928554519845e-03 0.0 
0.0 0.0 -1.332945767435e-03 
-1.336130347494e-03 -6.396074884473e-05 0.0 
-6.396074884473e-05 8.918857970665e-03 0.0 
0.0 0.0 -1.334903170087e-03 
-1.339230604727e-03 3.012709249355e-05 0.0 
3.012709249355e-05 8.923856553285e-03 0.0 
0.0 0.0 -1.334459899807e-03 
-1.337146058389e-03 -8.398799894841e-06 0.0 
-8.398799894841e-06 8.911324906834e-03 0.0 
0.0 0.0 -1.332067731643e-03 
-1.335355832928e-03 1.075181302778e-06 0.0 
1.075181302778e-06 8.911332561918e-03 0.0 
0.0 0.0 -1.335050935171e-03 
-1.325449513940e-03 2.957247518009e-06 0.0 
2.957247518009e-06 8.920139941522e-03 0.0 
0.0 0.0 -1.335055123498e-03 
-1.337345353037e-03 -9.523690686145e-06 0.0 
-9.523690686145e-06 8.921732771433e-03 0.0 
0.0 0.0 -1.333530254363e-03 
-1.334717977068e-03 -4.294761687244e-05 0.0 
-4.294761687244e-05 8.930458145260e-03 0.0 
0.0 0.0 -1.336259905589e-03 
-1.337792100019e-03 2.741258004608e-05 0.0 
2.741258004608e-05 8.934606220421e-03 0.0 
0.0 0.0 -1.335712483792e-03 
-1.336136187727e-03 -6.884802183734e-06 0.0 
-6.884802183734e-06 8.921957108707e-03 0.0 
0.0 0.0 -1.333313947604e-03 
-1.338126723765e-03 -4.814512478222e-06 0.0 
-4.814512478222e-06 8.924502617003e-03 0.0 
0.0 0.0 -1.335862559377e-03 
-1.327324523368e-03 -1.060172701732e-07 0.0 
-1.060172701732e-07 8.942333996565e-03 0.0 
0.0 0.0 -1.336097458551e-03 
-1.338609928482e-03 -2.842890241058e-06 0.0 
-2.842890241058e-06 8.932107808072e-03 0.0 
0.0 0.0 -1.335235043394e-03 
-1.329400644355e-03 -1.048596426291e-05 0.0 
-1.048596426291e-05 8.921074213048e-03 0.0 
0.0 0.0 -1.334297546486e-03 
-1.338340837827e-03 9.966400157394e-06 0.0 
9.966400157394e-06 8.903421378777e-03 0.0 
0.0 0.0 -1.332308435384e-03 
-1.339067962771e-03 -2.558483156538e-06 0.0 
-2.558483156538e-06 8.895896267544e-03 0.0 
0.0 0.0 -1.332019584455e-03 
-1.327125647707e-03 1.639257363239e-06 0.0 
1.639257363239e-06 8.917700513123e-03 0.0 
0.0 0.0 -1.333392124151e-03 
-1.334568721853e-03 -4.268105943771e-06 0.0 
-4.268105943771e-06 8.928545997729e-03 0.0 
0.0 0.0 -1.334727449481e-03 
-1.336827804858e-03 -5.001027102466e-06 0.0 
-5.001027102466e-06 8.928021219147e-03 0.0 
0.0 0.0 -1.336576889699e-03 
-1.337235537648e-03 1.693416763897e-05 0.0 
1.693416763897e-05 8.930023700079e-03 0.0 
0.0 0.0 -1.335888391555e-03 
-1.331872643832e-03 -1.070662442939e-06 0.0 
-1.070662442939e-06 8.931108733201e-03 0.0 
0.0 0.0 -1.334783226448e-03 
-1.335383687196e-03 3.225376233205e-06 0.0 
3.225376233205e-06 8.925108831379e-03 0.0 
0.0 0.0 -1.335053869153e-03 
-1.335647092677e-03 -1.629379981324e-06 0.0 
-1.629379981324e-06 8.920485307702e-03 0.0 
0.0 0.0 -1.334960189349e-03 
-1.336340449165e-03 -1.285585314741e-06 0.0 
-1.285585314741e-06 8.933772799625e-03 0.0 
0.0 0.0 -1.334889991128e-03 
-1.330589077276e-03 -4.874946038575e-06 0.0 
-4.874946038575e-06 8.935469598915e-03 0.0 
0.0 0.0 -1.335774086633e-03 
-1.341165284707e-03 -5.814943729734e-06 0.0 
-5.814943729734e-06 8.933862901487e-03 0.0 
0.0 0.0 -1.336605656894e-03 
-1.330240946256e-03 -4.520075279766e-06 0.0 
-4.520075279766e-06 8.938118272604e-03 0.0 
0.0 0.0 -1.336508443943e-03 
-1.338673330008e-03 -5.862543655787e-06 0.0 
-5.862543655787e-06 8.942517447788e-03 0.0 
0.0 0.0 -1.335343284290e-03 
-1.336600650314e-03 -3.582742261955e-05 0.0 
-3.582742261955e-05 8.951381047284e-03 0.0 
0.0 0.0 -1.337998490269e-03 
-1.341076503417e-03 3.451828262938e-05 0.0 
3.451828262938e-05 8.946627943271e-03 0.0 
0.0 0.0 -1.337247094005e-03 
-1.334448453648e-03 1.095281049642e-05 0.0 
1.095281049642e-05 8.923080866366e-03 0.0 
0.0 0.0 -1.333783489999e-03 
-1.333263826440e-03 -4.659210695767e-08 0.0 
-4.659210695767e-08 8.908320836892e-03 0.0 
0.0 0.0 -1.334548731617e-03 
-1.334150017560e-03 -8.272198035497e-06 0.0 
-8.272198035497e-06 8.929832025163e-03 0.0 
0.0 0.0 -1.334619746794e-03 
-1.331619300726e-03 -1.909948370355e-06 0.0 
-1.909948370355e-06 8.928586538444e-03 0.0 
0.0 0.0 -1.335242115105e-03 
-1.340870630612e-03 -1.061733168398e-05 0.0 
-1.061733168398e-05 8.926675419192e-03 0.0 
0.0 0.0 -1.335691437541e-03 
-1.329659514104e-03 -2.082049369217e-06 0.0 
-2.082049369217e-06 8.934711562866e-03 0.0 
0.0 0.0 -1.335646478247e-03 
-1.339117702311e-03 -4.029677061715e-07 0.0 
-4.029677061715e-07 8.924836081587e-03 0.0 
0.0 0.0 -1.334931242407e-03 
-1.328302087749e-03 -6.726834891378e-06 0.0 
-6.726834891378e-06 8.915098302923e-03 0.0 
0.0 0.0 -1.334100791702e-03 
-1.338339244626e-03 1.868410609583e-06 0.0 
1.868410609583e-06 8.913909047127e-03 0.0 
0.0 0.0 -1.332237298415e-03 
-1.340573467967e-03 -1.512560094747e-05 0.0 
-1.512560094747e-05 8.916790452845e-03 0.0 
0.0 0.0 -1.333749945600e-03 
-1.332872318884e-03 1.070088453609e-05 0.0 
1.070088453609e-05 8.939654193892e-03 0.0 
0.0 0.0 -1.336652505695e-03 
-1.326343527950e-03 -1.064817557575e-05 0.0 
-1.064817557575e-05 8.953327537606e-03 0.0 
0.0 0.0 -1.337094627689e-03 
-1.334975160234e-03 -1.103658676067e-05 0.0 
-1.103658676067e-05 8.887287544370e-03 0.0 
0.0 0.0 -1.328990728106e-03 
-1.326727222271e-03 3.789706117036e-06 0.0 
3.789706117036e-06 8.937395178325e-03 0.0 
0.0 0.0 -1.335900064369e-03 
-1.338702731113e-03 6.248103656108e-07 0.0 
6.248103656108e-07 8.926718973225e-03 0.0 
0.0 0.0 -1.332523500780e-03 
-1.338833780446e-03 -4.056504769858e-05 0.0 
-4.056504769858e-05 8.921997078910e-03 0.0 
0.0 0.0 -1.335219049675e-03 
-1.336003357241e-03 1.668194413567e-05 0.0 
1.668194413567e-05 8.951047853454e-03 0.0 
0.0 0.0 -1.336566422126e-03 
-1.338588357839e-03 -8.318316931956e-07 0.0 
-8.318316931956e-07 8.955066587464e-03 0.0 
0.0 0.0 -1.335855682064e-03 
-7.644479361829e-04 -7.854511718931e-05 0.0 
-7.854511718931e-05 4.967324475694e-03 0.0 
0.0 0.0 -7.648954205800e-04 
-8.429692067442e-04 -8.894340543483e-05 0.0 
-8.894340543483e-05 5.465473064469e-03 0.0 
0.0 0.0 -8.298981322982e-04 
-9.045101262401e-04 -8.649802336560e-05 0.0 
-8.649802336560e-05 5.927599153875e-03 0.0 
0.0 0.0 -8.959277352460e-04 
-9.682355907570e-04 -9.235019684024e-05 0.0 
-9.235019684024e-05 6.375436758553e-03 0.0 
0.0 0.0 -9.610467530554e-04 
-1.034301386645e-03 -8.131875668406e-05 0.0 
-8.131875668406e-05 6.841207604472e-03 0.0 
0.0 0.0 -1.026987810050e-03 
-1.084652817885e-03 -8.917462571028e-05 0.0 
-8.917462571028e-05 7.307643626561e-03 0.0 
0.0 0.0 -1.092790196867e-03 
-1.153469442186e-03 -7.930470280158e-05 0.0 
-7.930470280158e-05 7.768901773096e-03 0.0 
0.0 0.0 -1.158290425478e-03 
-1.218602686822e-03 -9.135197616377e-05 0.0 
-9.135197616377e-05 8.209166370611e-03 0.0 
0.0 0.0 -1.224481705251e-03 
-1.280117147855e-03 -1.008986322443e-04 0.0 
-1.008986322443e-04 8.709401710635e-03 0.0 
0.0 0.0 -1.288782062784e-03 
-1.752208263151e-05 3.240785673635e-05 0.0 
3.240785673635e-05 1.037696529891e-04 0.0 
0.0 0.0 -2.939528373048e-05 
-6.988773384999e-04 -6.414203901464e-06 0.0 
-6.414203901464e-06 4.541118799231e-03 0.0 
0.0 0.0 -6.945495707198e-04 
-1.068839245990e-04 4.195670543775e-05 0.0 
4.195670543775e-05 4.592598232628e-04 0.0 
0.0 0.0 -1.088012745759e-04 
-1.837805977244e-04 6.636119579704e-05 0.0 
6.636119579704e-05 9.280212819520e-04 0.0 
0.0 0.0 -1.795578361538e-04 
-2.541701604252e-04 6.773423425563e-05 0.0 
6.773423425563e-05 1.406381745625e-03 0.0 
0.0 0.0 -2.466011808795e-04 
-3.308726835263e-04 6.738605726992e-05 0.0 
6.738605726992e-05 1.832720200709e-03 0.0 
0.0 0.0 -3.108790080757e-04 
-3.964115229650e-04 7.265451737656e-05 0.0 
7.265451737656e-05 2.303753556439e-03 0.0 
0.0 0.0 -3.778135794433e-04 
-4.516675705781e-04 3.445608641046e-05 0.0 
3.445608641046e-05 2.777117745363e-03 0.0 
0.0 0.0 -4.454545662751e-04 
-5.016106832501e-04 2.702184790169e-05 0.0 
2.702184790169e-05 3.243637412452e-03 0.0 
0.0 0.0 -5.102095861231e-04 
-5.446829016033e-04 3.333337451860e-07 0.0 
3.333337451860e-07 3.565252150871e-03 0.0 
0.0 0.0 -5.580753662734e-04 
-6.120040484323e-04 -3.148004277967e-06 0.0 
-3.148004277967e-06 4.032884488981e-03 0.0 
0.0 0.0 -6.248674136757e-04 
-5.453163755931e-04 -1.665041782435e-04 0.0 
-1.665041782435e-04 3.343321749793e-03 0.0 
0.0 0.0 -5.155555555556e-04 
-5.622839918589e-04 -2.001712001391e-04 0.0 
-2.001712001391e-04 3.590232611973e-03 0.0 
0.0 0.0 -5.600000000000e-04 
-6.246804992585e-04 -1.417515320003e-04 0.0 
-1.417515320003e-04 4.042867570769e-03 0.0 
0.0 0.0 -6.266666666667e-04 
-6.913130996728e-04 5.498609571761e-05 0.0 
5.498609571761e-05 4.454824349021e-03 0.0 
0.0 0.0 -6.874962403976e-04 
-6.868874145390e-04 4.265374631601e-06 0.0 
4.265374631601e-06 4.486723904769e-03 0.0 
0.0 0.0 -6.910932206029e-04 
-6.934978988667e-04 4.367505525864e-06 0.0 
4.367505525864e-06 4.491335876748e-03 0.0 
0.0 0.0 -6.911911970487e-04 
-6.907997940409e-04 -7.067285999277e-06 0.0 
-7.067285999277e-06 4.485601554890e-03 0.0 
0.0 0.0 -6.903356507966e-04 
-6.907918205776e-04 4.658551261973e-06 0.0 
4.658551261973e-06 4.562156077984e-03 0.0 
0.0 0.0 -6.980756478071e-04 
-6.892878188424e-04 5.414637571102e-06 0.0 
5.414637571102e-06 4.494915586897e-03 0.0 
0.0 0.0 -6.911448554634e-04 
-6.797647522223e-04 -6.151835168552e-06 0.0 
-6.151835168552e-06 4.487621365133e-03 0.0 
0.0 0.0 -6.903833977050e-04 
-6.832908759363e-04 1.181523808998e-05 0.0 
1.181523808998e-05 4.498914041665e-03 0.0 
0.0 0.0 -6.905588330458e-04 
-6.949806625349e-04 2.423611152461e-06 0.0 
2.423611152461e-06 4.508372842652e-03 0.0 
0.0 0.0 -6.922444453805e-04 
-6.970682970385e-04 1.264857313788e-05 0.0 
1.264857313788e-05 4.510203072304e-03 0.0 
0.0 0.0 -6.916098530255e-04 
-6.888508586807e-04 7.096050779000e-06 0.0 
7.096050779000e-06 4.506612582973e-03 0.0 
0.0 0.0 -6.911665914957e-04 
-6.923116819991e-04 3.442306794751e-06 0.0 
3.442306794751e-06 4.500662587744e-03 0.0 
0.0 0.0 -6.911615840689e-04 
-6.874005628903e-04 1.547082050475e-05 0.0 
1.547082050475e-05 4.496710901947e-03 0.0 
0.0 0.0 -6.914992001314e-04 
-6.904170598993e-04 2.109837221793e-05 0.0 
2.109837221793e-05 4.507680445908e-03 0.0 
0.0 0.0 -6.922481495424e-04 
-2.592440264177e-05 -1.590076434164e-05 0.0 
-1.590076434164e-05 1.361807839618e-04 0.0 
0.0 0.0 -2.981554499673e-05 
-3.446067835928e-05 -4.722769695024e-06 0.0 
-4.722769695024e-06 1.514232641040e-04 0.0 
0.0 0.0 -3.001360406192e-05 
-1.576164107189e-05 6.855840384423e-06 0.0 
6.855840384423e-06 1.420727738414e-04 0.0 
0.0 0.0 -2.891678940537e-05 
-1.058332407333e-05 -2.088674468884e-05 0.0 
-2.088674468884e-05 1.367187831327e-04 0.0 
0.0 0.0 -2.889836327124e-05 
-3.364373544555e-05 -3.089965635262e-05 0.0 
-3.089965635262e-05 1.595260388365e-04 0.0 
0.0 0.0 -3.040745255895e-05 
-4.176671741939e-05 -6.138377296836e-06 0.0 
-6.138377296836e-06 1.798263625009e-04 0.0 
0.0 0.0 -3.068777868300e-05 
-3.824342451589e-05 5.591674158897e-07 0.0 
5.591674158897e-07 1.791426173783e-04 0.0 
0.0 0.0 -3.058835961954e-05 
-3.226360630243e-05 -1.341036859016e-06 0.0 
-1.341036859016e-06 1.722310666212e-04 0.0 
0.0 0.0 -3.053879953887e-05 
-3.075195274388e-05 -3.753502375142e-06 0.0 
-3.753502375142e-06 1.736984769829e-04 0.0 
0.0 0.0 -3.044251428418e-05 
-2.638860610350e-05 -7.894449171776e-06 0.0 
-7.894449171776e-06 1.709687444737e-04 0.0 
0.0 0.0 -3.048531495051e-05 
-2.681419529697e-05 -1.626482453994e-05 0.0 
-1.626482453994e-05 1.776638784057e-04 0.0 
0.0 0.0 -3.060061046523e-05 
-4.178895109067e-05 4.651397470064e-06 0.0 
4.651397470064e-06 1.936858804511e-04 0.0 
0.0 0.0 -3.133350520012e-05 
-3.584663091306e-05 2.920944978623e-05 0.0 
2.920944978623e-05 1.814285478668e-04 0.0 
0.0 0.0 -3.101487170496e-05 
-1.892508329037e-05 9.286208390908e-06 0.0 
9.286208390908e-06 1.578481945027e-04 0.0 
0.0 0.0 -3.010388419214e-05 
-2.660519595212e-05 -4.398298942796e-06 0.0 
-4.398298942796e-06 1.591906609278e-04 0.0 
0.0 0.0 -3.041972112533e-05 
-4.134075465171e-05 1.617060886407e-06 0.0 
1.617060886407e-06 1.756452327158e-04 0.0 
0.0 0.0 -3.060566238437e-05 
-4.636580504519e-05 5.643116689764e-06 0.0 
5.643116689764e-06 1.798643178415e-04 0.0 
0.0 0.0 -3.058114983003e-05 
-3.066571027206e-05 2.752472550757e-05 0.0 
2.752472550757e-05 1.500341931888e-04 0.0 
0.0 0.0 -3.041506914824e-05 
-1.475246436927e-05 4.693943976204e-06 0.0 
4.693943976204e-06 1.322021267256e-04 0.0 
0.0 0.0 -2.944997384815e-05 
-4.465285603305e-04 -1.002794795564e-05 0.0 
-1.002794795564e-05 3.216219090815e-03 0.0 
0.0 0.0 -5.068858654572e-04 
-5.158224380276e-04 -2.856710343205e-05 0.0 
-2.856710343205e-05 3.400004396798e-03 0.0 
0.0 0.0 -5.201643990929e-04 
-5.196974043085e-04 2.346889483589e-05 0.0 
2.346889483589e-05 3.424527654518e-03 0.0 
0.0 0.0 -5.229629629630e-04 
-5.331487790312e-04 4.881310194723e-06 0.0 
4.881310194723e-06 3.416737086019e-03 0.0 
0.0 0.0 -5.229629629630e-04 
-5.243873538977e-04 1.207820047172e-05 0.0 
1.207820047172e-05 3.415399978592e-03 0.0 
0.0 0.0 -5.229629629630e-04 
-5.270206176844e-04 -3.131453808356e-07 0.0 
-3.131453808356e-07 3.413032157416e-03 0.0 
0.0 0.0 -5.229629629630e-04 
-5.275191230140e-04 -7.542514253158e-07 0.0 
-7.542514253158e-07 3.417360335012e-03 0.0 
0.0 0.0 -5.229629629630e-04 
-5.274549949397e-04 2.071396478290e-07 0.0 
2.071396478290e-07 3.418276503241e-03 0.0 
0.0 0.0 -5.229629629630e-04 
-5.269821426279e-04 1.787592479421e-06 0.0 
1.787592479421e-06 3.417926908009e-03 0.0 
0.0 0.0 -5.229629629630e-04 
-5.250303066353e-04 1.336528034912e-06 0.0 
1.336528034912e-06 3.416435010662e-03 0.0 
0.0 0.0 -5.229629629630e-04 
-5.243557242064e-04 -2.224113814046e-06 0.0 
-2.224113814046e-06 3.416981024301e-03 0.0 
0.0 0.0 -5.229629629630e-04 
-5.254715321997e-04 -1.749889337476e-06 0.0 
-1.749889337476e-06 3.418476157836e-03 0.0 
0.0 0.0 -5.229629629630e-04 
-5.239845346472e-04 1.687560921588e-07 0.0 
1.687560921588e-07 3.417416622673e-03 0.0 
0.0 0.0 -5.229629629630e-04 
-5.232522430571e-04 -2.436052160832e-07 0.0 
-2.436052160832e-07 3.416078406704e-03 0.0 
0.0 0.0 -5.229629629630e-04 
-5.227213042119e-04 -1.554988372135e-06 0.0 
-1.554988372135e-06 3.415406848250e-03 0.0 
0.0 0.0 -5.229629629630e-04 
-5.230706289887e-04 -2.504176056145e-06 0.0 
-2.504176056145e-06 3.414865909141e-03 0.0 
0.0 0.0 -5.229629629630e-04 
-5.231256202607e-04 -6.637582575868e-06 0.0 
-6.637582575868e-06 3.412868998108e-03 0.0 
0.0 0.0 -5.229629629630e-04 
-5.256512550034e-04 -1.452035486713e-05 0.0 
-1.452035486713e-05 3.368913125967e-03 0.0 
0.0 0.0 -5.229629629630e-04 
-5.018327344572e-04 1.044554564578e-04 0.0 
1.044554564578e-04 3.297594638869e-03 0.0 
0.0 0.0 -5.155555555556e-04 
-5.657042211009e-04 7.172061321590e-05 0.0 
7.172061321590e-05 3.594572891729e-03 0.0 
0.0 0.0 -5.600000000000e-04 
-5.606564277313e-04 6.276433509278e-06 0.0 
6.276433509278e-06 3.589330402058e-03 0.0 
0.0 0.0 -5.600000000000e-04 
-5.593036989964e-04 -4.014653548484e-06 0.0 
-4.014653548484e-06 3.587906727700e-03 0.0 
0.0 0.0 -5.600000000000e-04 
-5.598957549004e-04 -3.280148762663e-06 0.0 
-3.280148762663e-06 3.589229298695e-03 0.0 
0.0 0.0 -5.600000000000e-04 
-5.585733264525e-04 -8.759229214119e-07 0.0 
-8.759229214119e-07 3.588940559384e-03 0.0 
0.0 0.0 -5.600000000000e-04 
-5.598002868746e-04 8.805971940519e-07 0.0 
8.805971940519e-07 3.590399635312e-03 0.0 
0.0 0.0 -5.600000000000e-04 
-5.606115027377e-04 2.079665756954e-06 0.0 
2.079665756954e-06 3.592266060973e-03 0.0 
0.0 0.0 -5.600000000000e-04 
-5.616801369451e-04 -2.737332668784e-06 0.0 
-2.737332668784e-06 3.592113678054e-03 0.0 
0.0 0.0 -5.600000000000e-04 
-5.603339834742e-04 8.452896902542e-07 0.0 
8.452896902542e-07 3.589104110670e-03 0.0 
0.0 0.0 -5.600000000000e-04 
-5.630816852247e-04 4.954130230072e-06 0.0 
4.954130230072e-06 3.591539403390e-03 0.0 
0.0 0.0 -5.600000000000e-04 
-5.648651149250e-04 2.409580910918e-06 0.0 
2.409580910918e-06 3.593050534195e-03 0.0 
0.0 0.0 -5.600000000000e-04 
-5.645521133458e-04 1.176363961043e-06 0.0 
1.176363961043e-06 3.591815920478e-03 0.0 
0.0 0.0 -5.600000000000e-04 
-5.658777849897e-04 2.204939376289e-07 0.0 
2.204939376289e-07 3.591458064609e-03 0.0 
0.0 0.0 -5.600000000000e-04 
-5.646691075266e-04 1.488981984683e-06 0.0 
1.488981984683e-06 3.584085442749e-03 0.0 
0.0 0.0 -5.600000000000e-04 
-5.620855148441e-04 2.241238949402e-05 0.0 
2.241238949402e-05 3.592013185388e-03 0.0 
0.0 0.0 -5.600000000000e-04 
-5.610961373632e-04 -4.661019393868e-06 0.0 
-4.661019393868e-06 3.625654344184e-03 0.0 
0.0 0.0 -5.626724975705e-04 
-5.133198511328e-04 5.424589988201e-06 0.0 
5.424589988201e-06 3.504617598641e-03 0.0 
0.0 0.0 -5.520068027211e-04 
-5.819676487161e-04 1.621050128555e-05 0.0 
1.621050128555e-05 3.968047816961e-03 0.0 
0.0 0.0 -6.186195084094e-04 
-6.343601883410e-04 -2.324978129531e-06 0.0 
-2.324978129531e-06 4.083322615344e-03 0.0 
0.0 0.0 -6.292929119699e-04 
-6.353679309005e-04 1.165699384269e-05 0.0 
1.165699384269e-05 4.057988551565e-03 0.0 
0.0 0.0 -6.266666666667e-04 
-6.295881338101e-04 1.024053571253e-05 0.0 
1.024053571253e-05 4.054182088558e-03 0.0 
0.0 0.0 -6.266666666667e-04 
-6.303664344858e-04 2.787103354690e-06 0.0 
2.787103354690e-06 4.057331405365e-03 0.0 
0.0 0.0 -6.266666666667e-04 
-6.305754933791e-04 7.671505889748e-06 0.0 
7.671505889748e-06 4.059447051202e-03 0.0 
0.0 0.0 -6.266666666667e-04 
-6.287463439775e-04 1.022004490749e-05 0.0 
1.022004490749e-05 4.054187203252e-03 0.0 
0.0 0.0 -6.266666666667e-04 
-6.280820473115e-04 -9.030982197206e-07 0.0 
-9.030982197206e-07 4.053941923266e-03 0.0 
0.0 0.0 -6.266666666667e-04 
-6.225272954157e-04 4.628296295730e-06 0.0 
4.628296295730e-06 4.057329077379e-03 0.0 
0.0 0.0 -6.266666666667e-04 
-6.249534833788e-04 2.617162154286e-07 0.0 
2.617162154286e-07 4.054948637219e-03 0.0 
0.0 0.0 -6.266666666667e-04 
-6.238122874528e-04 2.229418647887e-06 0.0 
2.229418647887e-06 4.053346801204e-03 0.0 
0.0 0.0 -6.266666666667e-04 
-6.234471408791e-04 -7.779197921562e-06 0.0 
-7.779197921562e-06 4.052220848929e-03 0.0 
0.0 0.0 -6.266666666667e-04 
-6.264844917596e-04 -3.145348627973e-06 0.0 
-3.145348627973e-06 4.054722692316e-03 0.0 
0.0 0.0 -6.266666666667e-04 
-6.251160575235e-04 -9.858748009992e-06 0.0 
-9.858748009992e-06 4.049423160403e-03 0.0 
0.0 0.0 -6.266666666667e-04 
-6.286316808085e-04 -3.394218781006e-05 0.0 
-3.394218781006e-05 4.059813257993e-03 0.0 
0.0 0.0 -6.266666666667e-04 
-6.381641142780e-04 1.124153375324e-04 0.0 
1.124153375324e-04 4.068774124134e-03 0.0 
0.0 0.0 -6.266666666667e-04 
-6.112648154112e-05 2.057582376636e-05 0.0 
2.057582376636e-05 2.373049901764e-04 0.0 
0.0 0.0 -7.119425116786e-05 
-1.546216371726e-04 6.400049167798e-05 0.0 
6.400049167798e-05 7.010998205819e-04 0.0 
0.0 0.0 -1.457676002711e-04 
-2.180259668060e-04 8.313364542154e-05 0.0 
8.313364542154e-05 1.168903010383e-03 0.0 
0.0 0.0 -2.130143027807e-04 
-2.888761379291e-04 8.199755792821e-05 0.0 
8.199755792821e-05 1.646730006385e-03 0.0 
0.0 0.0 -2.801731950103e-04 
-3.556189171031e-04 3.435503475517e-05 0.0 
3.435503475517e-05 2.100711759406e-03 0.0 
0.0 0.0 -3.440931072323e-04 
-4.072044444476e-04 4.893832875795e-05 0.0 
4.893832875795e-05 2.564834203635e-03 0.0 
0.0 0.0 -4.108392228286e-04 
-4.870759962323e-04 5.278682620990e-05 0.0 
5.278682620990e-05 3.019866235023e-03 0.0 
0.0 0.0 -4.786325096809e-04 
-4.998008163795e-04 2.874356037187e-05 0.0 
2.874356037187e-05 3.362017349155e-03 0.0 
0.0 0.0 -5.317697887215e-04 
-5.672864552025e-04 2.278912112824e-05 0.0 
2.278912112824e-05 3.826790215475e-03 0.0 
0.0 0.0 -5.985602557689e-04 
-6.332370943917e-04 2.492629895562e-05 0.0 
2.492629895562e-05 4.302559779817e-03 0.0 
0.0 0.0 -6.652967104836e-04 
-1.935964666812e-04 2.967460992407e-06 0.0 
2.967460992407e-06 9.892888486110e-04 0.0 
0.0 0.0 -1.870278901045e-04 
-1.298255034363e-03 -1.439677610189e-05 0.0 
-1.439677610189e-05 8.770849623045e-03 0.0 
0.0 0.0 -1.303388942653e-03 
-5.711706292197e-05 -1.132529147629e-05 0.0 
-1.132529147629e-05 2.965576224762e-04 0.0 
0.0 0.0 -5.718844814379e-05 
-5.424579011879e-05 -2.911933097956e-05 0.0 
-2.911933097956e-05 2.725297638318e-04 0.0 
0.0 0.0 -5.560925106412e-05 
-1.303094143304e-03 2.083700262778e-05 0.0 
2.083700262778e-05 8.775603321897e-03 0.0 
0.0 0.0 -1.303360877099e-03 
-3.337502689384e-04 2.573658945222e-05 0.0 
2.573658945222e-05 1.945399262405e-03 0.0 
0.0 0.0 -3.213286234882e-04 
-7.420382513691e-04 -8.331648497414e-06 0.0 
-8.331648497414e-06 4.783425200817e-03 0.0 
0.0 0.0 -7.300567563597e-04 
-1.300502925116e-03 1.312346542061e-05 0.0 
1.312346542061e-05 8.760360600138e-03 0.0 
0.0 0.0 -1.300998267065e-03 
-4.558051091763e-04 -3.180946065222e-05 0.0 
-3.180946065222e-05 2.815581106164e-03 0.0 
0.0 0.0 -4.497936382440e-04 
-1.301730818783e-03 3.906861163019e-06 0.0 
3.906861163019e-06 8.781071212001e-03 0.0 
0.0 0.0 -1.304014651794e-03 
-5.931132187702e-04 3.451249603910e-06 0.0 
3.451249603910e-06 3.770920661498e-03 0.0 
0.0 0.0 -5.857980290939e-04 
-1.294626432424e-03 1.231524946245e-05 0.0 
1.231524946245e-05 8.803233335001e-03 0.0 
0.0 0.0 -1.307658508868e-03 
-5.100449476861e-05 8.243347627880e-06 0.0 
8.243347627880e-06 2.661035943334e-04 0.0 
0.0 0.0 -5.457498774670e-05 
-1.304712708061e-03 6.002193481843e-06 0.0 
6.002193481843e-06 8.782841008775e-03 0.0 
0.0 0.0 -1.304481600125e-03 
-7.263025570844e-04 1.579439830822e-05 0.0 
1.579439830822e-05 4.732739805173e-03 0.0 
0.0 0.0 -7.203075318094e-04 
-4.572752679378e-04 6.754709539201e-06 0.0 
6.754709539201e-06 2.913924238746e-03 0.0 
0.0 0.0 -4.640473930190e-04 
-9.144584483085e-04 1.326427603797e-05 0.0 
1.326427603797e-05 6.048992087784e-03 0.0 
0.0 0.0 -9.125512086551e-04 
-1.295486455605e-03 -9.635721854310e-06 0.0 
-9.635721854310e-06 8.767400550756e-03 0.0 
0.0 0.0 -1.301280071178e-03 
-1.304620553661e-03 1.736330334078e-05 0.0 
1.736330334078e-05 8.785218481020e-03 0.0 
0.0 0.0 -1.304294760550e-03 
-1.308798115864e-03 -1.758872586471e-05 0.0 
-1.758872586471e-05 8.782113468746e-03 0.0 
0.0 0.0 -1.303238611778e-03 
-1.297364651419e-03 1.079949245934e-05 0.0 
1.079949245934e-05 8.741492182536e-03 0.0 
0.0 0.0 -1.297727402575e-03 
-1.310467176952e-03 -2.184753791197e-05 0.0 
-2.184753791197e-05 8.795852425490e-03 0.0 
0.0 0.0 -1.305306183856e-03 
-7.504043158260e-04 1.146340899481e-05 0.0 
1.146340899481e-05 4.928957716144e-03 0.0 
0.0 0.0 -7.522011426764e-04 
-7.523353912947e-04 1.162137769558e-05 0.0 
1.162137769558e-05 4.926512636401e-03 0.0 
0.0 0.0 -7.529849494387e-04 
-7.546537283985e-04 -1.241349829193e-05 0.0 
-1.241349829193e-05 4.950472109635e-03 0.0 
0.0 0.0 -7.580270452736e-04 
-9.976077557881e-04 -3.465320003210e-05 0.0 
-3.465320003210e-05 6.602229680106e-03 0.0 
0.0 0.0 -9.950081682429e-04 
-1.300592036334e-03 -1.108396441712e-05 0.0 
-1.108396441712e-05 8.788475349475e-03 0.0 
0.0 0.0 -1.302874185639e-03 
-4.947082956206e-05 -1.829296119633e-05 0.0 
-1.829296119633e-05 2.690780974868e-04 0.0 
0.0 0.0 -5.461765089471e-05 
-6.582489508632e-05 5.524694071877e-06 0.0 
5.524694071877e-06 3.064286723343e-04 0.0 
0.0 0.0 -5.841730026857e-05 
-1.120911548220e-03 -1.158571369170e-06 0.0 
-1.158571369170e-06 7.515613535503e-03 0.0 
0.0 0.0 -1.122886395833e-03 
-7.582082522979e-04 1.961281355472e-05 0.0 
1.961281355472e-05 4.902933380827e-03 0.0 
0.0 0.0 -7.500338828344e-04 
-2.694321437334e-04 2.278372598568e-06 0.0 
2.278372598568e-06 1.494554554088e-03 0.0 
0.0 0.0 -2.594501920933e-04 
-1.298427704971e-03 5.282056354371e-06 0.0 
5.282056354371e-06 8.696713485831e-03 0.0 
0.0 0.0 -1.293200138473e-03 
-1.306703206650e-03 1.354031549594e-05 0.0 
1.354031549594e-05 8.802982423650e-03 0.0 
0.0 0.0 -1.307307853467e-03 
-1.306558631645e-03 5.032010017814e-06 0.0 
5.032010017814e-06 8.775985095811e-03 0.0 
0.0 0.0 -1.304733450272e-03 
-1.299335994773e-03 1.249139207265e-05 0.0 
1.249139207265e-05 8.749655727550e-03 0.0 
0.0 0.0 -1.297928233296e-03 
-1.308929768589e-03 -1.641174944339e-05 0.0 
-1.641174944339e-05 8.785621003878e-03 0.0 
0.0 0.0 -1.305578568836e-03 
-6.266603041313e-05 2.501207789147e-06 0.0 
2.501207789147e-06 3.071735198218e-04 0.0 
0.0 0.0 -5.851952868525e-05 
-7.474245186294e-04 1.424161896041e-05 0.0 
1.424161896041e-05 4.916877911110e-03 0.0 
0.0 0.0 -7.500980793754e-04 
-1.296702677324e-03 1.017615489424e-05 0.0 
1.017615489424e-05 8.704965271547e-03 0.0 
0.0 0.0 -1.293180865222e-03 
-1.128899365850e-03 -3.031105506869e-05 0.0 
-3.031105506869e-05 7.537413441575e-03 0.0 
0.0 0.0 -1.123598490052e-03 
-5.732050020506e-05 -1.482205262673e-05 0.0 
-1.482205262673e-05 2.925850224953e-04 0.0 
0.0 0.0 -5.798785095130e-05 
-5.914251289981e-04 -6.471482804683e-06 0.0 
-6.471482804683e-06 3.820964198355e-03 0.0 
0.0 0.0 -5.937437734062e-04 
-1.319868342544e-03 -1.044247080549e-05 0.0 
-1.044247080549e-05 8.859569502417e-03 0.0 
0.0 0.0 -1.311981303940e-03 
-4.039407312574e-04 -1.513566039236e-05 0.0 
-1.513566039236e-05 2.425755132441e-03 0.0 
0.0 0.0 -3.897472533596e-04 
-2.622920170020e-04 7.443498411070e-06 0.0 
7.443498411070e-06 1.467365751784e-03 0.0 
0.0 0.0 -2.548795656134e-04 
-5.270389969687e-04 -7.501595445508e-06 0.0 
-7.501595445508e-06 3.294996993381e-03 0.0 
0.0 0.0 -5.178568985205e-04 
-6.568994839779e-04 -7.061170510205e-06 0.0 
-7.061170510205e-06 4.237934581571e-03 0.0 
0.0 0.0 -6.527703211191e-04 
-1.172487669236e-04 -1.455488225107e-05 0.0 
-1.455488225107e-05 4.809709659116e-04 0.0 
0.0 0.0 -1.118557093815e-04 
-8.696005125465e-04 -8.177489350844e-06 0.0 
-8.177489350844e-06 5.725890687358e-03 0.0 
0.0 0.0 -8.684787984471e-04 
-1.317974587429e-03 -1.269961975263e-05 0.0 
-1.269961975263e-05 8.865515668911e-03 0.0 
0.0 0.0 -1.313906642692e-03 
-5.185989643575e-05 2.926503183839e-05 0.0 
2.926503183839e-05 2.746618289318e-04 0.0 
0.0 0.0 -5.836448670120e-05 
-1.244012605559e-03 -1.337379541717e-07 0.0 
-1.337379541717e-07 8.417025004517e-03 0.0 
0.0 0.0 -1.253930875827e-03 
-7.490231005430e-04 1.074391793069e-05 0.0 
1.074391793069e-05 4.928373640173e-03 0.0 
0.0 0.0 -7.532271817479e-04 
-7.806985373677e-04 4.966139412135e-06 0.0 
4.966139412135e-06 5.109831204569e-03 0.0 
0.0 0.0 -7.809350190597e-04 
-8.062001814621e-04 2.173167671072e-05 0.0 
2.173167671072e-05 5.343609321704e-03 0.0 
0.0 0.0 -8.115578932774e-04 
-8.489268176994e-04 -8.110940848575e-06 0.0 
-8.110940848575e-06 5.566485028911e-03 0.0 
0.0 0.0 -8.428390908522e-04 
-8.804673106023e-04 1.251244415492e-07 0.0 
1.251244415492e-07 5.795279077470e-03 0.0 
0.0 0.0 -8.784658474099e-04 
-9.121627378672e-04 -7.430796722976e-06 0.0 
-7.430796722976e-06 6.000836909728e-03 0.0 
0.0 0.0 -9.060409163497e-04 
-8.756777626729e-04 -7.143189004739e-06 0.0 
-7.143189004739e-06 5.761383353658e-03 0.0 
0.0 0.0 -8.711257577414e-04 
-9.375016757268e-04 -9.018261483613e-06 0.0 
-9.018261483613e-06 6.200512371454e-03 0.0 
0.0 0.0 -9.341442283280e-04 
-9.034456709669e-04 -5.627619604467e-06 0.0 
-5.627619604467e-06 5.955351813444e-03 0.0 
0.0 0.0 -8.989774131092e-04 
-9.375397006910e-04 -9.487100187209e-06 0.0 
-9.487100187209e-06 6.248793060300e-03 0.0 
0.0 0.0 -9.415083590319e-04 
-9.651447206159e-04 -1.078565163388e-05 0.0 
-1.078565163388e-05 6.396664073005e-03 0.0 
0.0 0.0 -9.622976032585e-04 
-9.304266532056e-04 -6.330576673737e-06 0.0 
-6.330576673737e-06 6.148924780633e-03 0.0 
0.0 0.0 -9.268639294333e-04 
-9.923459703203e-04 -8.832674575543e-06 0.0 
-8.832674575543e-06 6.591396283472e-03 0.0 
0.0 0.0 -9.903372159162e-04 
-9.579486406670e-04 -6.976346530341e-06 0.0 
-6.976346530341e-06 6.343540435811e-03 0.0 
0.0 0.0 -9.547708836903e-04 
-8.957338589247e-04 -3.445195682082e-06 0.0 
-3.445195682082e-06 5.904490313780e-03 0.0 
0.0 0.0 -8.916807130884e-04 
-9.234034349690e-04 -3.140263271668e-06 0.0 
-3.140263271668e-06 6.097553141781e-03 0.0 
0.0 0.0 -9.194532194038e-04 
-8.597658352201e-04 -5.745984388477e-07 0.0 
-5.745984388477e-07 5.659471370407e-03 0.0 
0.0 0.0 -8.565021464485e-04 
-8.876676417698e-04 -1.521204235367e-06 0.0 
-1.521204235367e-06 5.852313305850e-03 0.0 
0.0 0.0 -8.841639842141e-04 
-9.508204613182e-04 -2.297031587579e-06 0.0 
-2.297031587579e-06 6.292146332209e-03 0.0 
0.0 0.0 -9.471984275390e-04 
-9.148993498348e-04 -3.275082318968e-06 0.0 
-3.275082318968e-06 6.045345094116e-03 0.0 
0.0 0.0 -9.118195294070e-04 
-8.520584533063e-04 -1.219021611581e-06 0.0 
-1.219021611581e-06 5.605756351829e-03 0.0 
0.0 0.0 -8.488396520500e-04 
-8.789321886970e-04 -2.050593653236e-06 0.0 
-2.050593653236e-06 5.797286878756e-03 0.0 
0.0 0.0 -8.764089341820e-04 
-8.161164546335e-04 3.435109532426e-07 0.0 
3.435109532426e-07 5.359457664966e-03 0.0 
0.0 0.0 -8.135623229517e-04 
-8.427829602136e-04 -1.073992276177e-06 0.0 
-1.073992276177e-06 5.550412011619e-03 0.0 
0.0 0.0 -8.410744910442e-04 
-7.803403629458e-04 1.482617335653e-07 0.0 
1.482617335653e-07 5.112144953619e-03 0.0 
0.0 0.0 -7.781617608290e-04 
-8.069161494671e-04 -9.832122125678e-07 0.0 
-9.832122125678e-07 5.303670065228e-03 0.0 
0.0 0.0 -8.056965831182e-04 
-8.693622760752e-04 -2.102828341516e-06 0.0 
-2.102828341516e-06 5.742393281941e-03 0.0 
0.0 0.0 -8.686949506212e-04 
-8.339431778097e-04 -6.526060623785e-07 0.0 
-6.526060623785e-07 5.495228078517e-03 0.0 
0.0 0.0 -8.332427817419e-04 
-7.711323033225e-04 2.736293389697e-07 0.0 
2.736293389697e-07 5.056666474078e-03 0.0 
0.0 0.0 -7.703313069557e-04 
-7.984646574761e-04 4.457733912314e-07 0.0 
4.457733912314e-07 5.248286890054e-03 0.0 
0.0 0.0 -7.977945042040e-04 
-7.355637814563e-04 1.290713586137e-06 0.0 
1.290713586137e-06 4.810484252267e-03 0.0 
0.0 0.0 -7.349073124327e-04 
-7.625544307913e-04 1.894462684370e-06 0.0 
1.894462684370e-06 4.999988831075e-03 0.0 
0.0 0.0 -7.622392297106e-04 
-8.257237067376e-04 1.120212681233e-06 0.0 
1.120212681233e-06 5.439584299338e-03 0.0 
0.0 0.0 -8.253152238873e-04 
-7.900934727742e-04 5.597935307140e-07 0.0 
5.597935307140e-07 5.191568262959e-03 0.0 
0.0 0.0 -7.896995018144e-04 
-7.266613947027e-04 4.187926819654e-07 0.0 
4.187926819654e-07 4.748654817893e-03 0.0 
0.0 0.0 -7.264132926704e-04 
-7.549260771137e-04 -7.052768559216e-07 0.0 
-7.052768559216e-07 4.942867002026e-03 0.0 
0.0 0.0 -7.539848323805e-04 
-6.914939078144e-04 -3.149044509647e-06 0.0 
-3.149044509647e-06 4.497991263930e-03 0.0 
0.0 0.0 -6.903858661722e-04 
-7.195945743336e-04 -6.350033788195e-09 0.0 
-6.350033788195e-09 4.694794432778e-03 0.0 
0.0 0.0 -7.182351804274e-04 
-6.554914090724e-04 -2.338725356814e-06 0.0 
-2.338725356814e-06 4.247612436471e-03 0.0 
0.0 0.0 -6.542402593883e-04 
-6.835277346368e-04 5.013350339305e-07 0.0 
5.013350339305e-07 4.443250069824e-03 0.0 
0.0 0.0 -6.821763112594e-04 
-7.475539329935e-04 -2.134179080115e-07 0.0 
-2.134179080115e-07 4.889262543532e-03 0.0 
0.0 0.0 -7.460902125261e-04 
-7.115638396740e-04 -9.716415015814e-07 0.0 
-9.716415015814e-07 4.638756710994e-03 0.0 
0.0 0.0 -7.100832486075e-04 
-6.472258987921e-04 -7.491708783298e-07 0.0 
-7.491708783298e-07 4.191362599469e-03 0.0 
0.0 0.0 -6.458624074531e-04 
-6.748538623222e-04 -1.344545062226e-06 0.0 
-1.344545062226e-06 4.385359401490e-03 0.0 
0.0 0.0 -6.737786430284e-04 
-7.391037565522e-04 -1.870094726741e-06 0.0 
-1.870094726741e-06 4.833803711944e-03 0.0 
0.0 0.0 -7.381473126730e-04 
-7.024920060125e-04 -1.771787760444e-06 0.0 
-1.771787760444e-06 4.579736205562e-03 0.0 
0.0 0.0 -7.017500108595e-04 
-7.668451599419e-04 -2.200372036206e-06 0.0 
-2.200372036206e-06 5.029184891420e-03 0.0 
0.0 0.0 -7.662494016216e-04 
-7.304037803270e-04 -1.328124908049e-06 0.0 
-1.328124908049e-06 4.775158829539e-03 0.0 
0.0 0.0 -7.297828278826e-04 
-6.661738894366e-04 -1.523527640999e-06 0.0 
-1.523527640999e-06 4.327585164653e-03 0.0 
0.0 0.0 -6.655364893108e-04 
-6.940255140087e-04 -3.189861403834e-07 0.0 
-3.189861403834e-07 4.522445273198e-03 0.0 
0.0 0.0 -6.934067383651e-04 
-7.582740677644e-04 -6.702170425336e-07 0.0 
-6.702170425336e-07 4.970550121083e-03 0.0 
0.0 0.0 -7.577868799165e-04 
-7.219132454205e-04 -3.552688472852e-07 0.0 
-3.552688472852e-07 4.715591284681e-03 0.0 
0.0 0.0 -7.212202614536e-04 
-6.579749567302e-04 -8.528343254353e-07 0.0 
-8.528343254353e-07 4.269380617603e-03 0.0 
0.0 0.0 -6.571136838490e-04 
-6.854396942303e-04 1.404532946377e-06 0.0 
1.404532946377e-06 4.463099019341e-03 0.0 
0.0 0.0 -6.848379476561e-04 
-7.499209568980e-04 9.788669448492e-07 0.0 
9.788669448492e-07 4.910836491420e-03 0.0 
0.0 0.0 -7.491645792950e-04 
-7.130866886284e-04 2.531462605044e-06 0.0 
2.531462605044e-06 4.656380230421e-03 0.0 
0.0 0.0 -7.127097857715e-04 
-6.490463142765e-04 2.026928070065e-06 0.0 
2.026928070065e-06 4.209801950481e-03 0.0 
0.0 0.0 -6.486049398320e-04 
-6.764658608434e-04 3.508718195911e-06 0.0 
3.508718195911e-06 4.404145734277e-03 0.0 
0.0 0.0 -6.763006240845e-04 
-7.410587565243e-04 2.977071001507e-06 0.0 
2.977071001507e-06 4.853988703533e-03 0.0 
0.0 0.0 -7.409416231994e-04 
-7.040690402047e-04 2.351563892176e-06 0.0 
2.351563892176e-06 4.597607851949e-03 0.0 
0.0 0.0 -7.042275185679e-04 
-6.395068044753e-04 3.551759029564e-06 0.0 
3.551759029564e-06 4.148883800447e-03 0.0 
0.0 0.0 -6.398389559308e-04 
-6.666949009552e-04 4.033462501281e-06 0.0 
4.033462501281e-06 4.341905952590e-03 0.0 
0.0 0.0 -6.674633383154e-04 
-7.319239687129e-04 2.339911819107e-06 0.0 
2.339911819107e-06 4.794577675996e-03 0.0 
0.0 0.0 -7.324886333286e-04 
-6.941465830902e-04 3.043408887488e-06 0.0 
3.043408887488e-06 4.534944571325e-03 0.0 
0.0 0.0 -6.954027321055e-04 
-7.599625173412e-04 1.739203305398e-06 0.0 
1.739203305398e-06 4.991507953981e-03 0.0 
0.0 0.0 -7.608997874520e-04 
-6.288087524292e-04 4.620726933277e-06 0.0 
4.620726933277e-06 4.080538413552e-03 0.0 
0.0 0.0 -6.302092384919e-04 
-6.562200550336e-04 2.527596513670e-06 0.0 
2.527596513670e-06 4.273760246295e-03 0.0 
0.0 0.0 -6.580989212857e-04 
-5.905021683275e-04 5.113861583814e-06 0.0 
5.113861583814e-06 3.817210818870e-03 0.0 
0.0 0.0 -5.925517106747e-04 
-6.180070563345e-04 1.748353135706e-06 0.0 
1.748353135706e-06 4.012241935297e-03 0.0 
0.0 0.0 -6.207111136070e-04 
-8.536335610934e-04 1.348609631282e-06 0.0 
1.348609631282e-06 5.632618076260e-03 0.0 
0.0 0.0 -8.529317679587e-04 
-5.517808621482e-04 4.295824092658e-06 0.0 
4.295824092658e-06 3.553884541992e-03 0.0 
0.0 0.0 -5.549884598765e-04 
-5.256512596246e-04 6.824695261283e-06 0.0 
6.824695261283e-06 3.365117692799e-03 0.0 
0.0 0.0 -5.276250340903e-04 
-5.798411198689e-04 -4.887552615003e-09 0.0 
-4.887552615003e-09 3.751124839276e-03 0.0 
0.0 0.0 -5.833260987948e-04 
-6.468648656295e-04 -6.634229100997e-07 0.0 
-6.634229100997e-07 4.212613913655e-03 0.0 
0.0 0.0 -6.493616581942e-04 
-5.137698154976e-04 1.586824553316e-06 0.0 
1.586824553316e-06 3.290773483107e-03 0.0 
0.0 0.0 -5.173870653820e-04 
-5.418307247046e-04 -1.136001153201e-06 0.0 
-1.136001153201e-06 3.490016299043e-03 0.0 
0.0 0.0 -5.459094278256e-04 
-4.770030151011e-04 2.075579507861e-06 0.0 
2.075579507861e-06 3.029794249274e-03 0.0 
0.0 0.0 -4.798161731008e-04 
-6.265889875599e-04 -3.099894472576e-06 0.0 
-3.099894472576e-06 4.044775427509e-03 0.0 
0.0 0.0 -6.252159162693e-04 
-9.779259260500e-04 -4.603917606284e-06 0.0 
-4.603917606284e-06 6.486620776824e-03 0.0 
0.0 0.0 -9.750716696758e-04 
-5.048311626822e-04 8.069914569194e-07 0.0 
8.069914569194e-07 3.230775089179e-03 0.0 
0.0 0.0 -5.084495576641e-04 
-4.414277464692e-04 -9.314775103436e-07 0.0 
-9.314775103436e-07 2.769397101649e-03 0.0 
0.0 0.0 -4.423119711188e-04 
-4.126781969751e-04 2.777234300749e-06 0.0 
2.777234300749e-06 2.568725273303e-03 0.0 
0.0 0.0 -4.136824817550e-04 
-3.752383636154e-04 2.627021531192e-07 0.0 
2.627021531192e-07 2.307149796782e-03 0.0 
0.0 0.0 -3.761903503575e-04 
-9.032923406135e-04 -1.942635711141e-05 0.0 
-1.942635711141e-05 6.054768473392e-03 0.0 
0.0 0.0 -9.126358703463e-04 
-9.750351070606e-04 8.331650578492e-07 0.0 
8.331650578492e-07 6.501449499714e-03 0.0 
0.0 0.0 -9.772611937912e-04 
-9.426936007590e-04 -8.476577603227e-06 0.0 
-8.476577603227e-06 6.285634427722e-03 0.0 
0.0 0.0 -9.468612964576e-04 
-1.013350986754e-03 -2.420793703351e-06 0.0 
-2.420793703351e-06 6.752430832338e-03 0.0 
0.0 0.0 -1.012955122490e-03 
-9.819905249802e-04 -9.218190891256e-06 0.0 
-9.218190891256e-06 6.546568860747e-03 0.0 
0.0 0.0 -9.835180958883e-04 
-4.033189249179e-04 -7.405594451594e-06 0.0 
-7.405594451594e-06 2.507023825451e-03 0.0 
0.0 0.0 -4.047791634435e-04 
-1.026297749493e-03 -7.873848128140e-06 0.0 
-7.873848128140e-06 6.842470359288e-03 0.0 
0.0 0.0 -1.026687169009e-03 
-1.041976492742e-03 3.297528438882e-06 0.0 
3.297528438882e-06 6.953471480802e-03 0.0 
0.0 0.0 -1.042264213861e-03 
-7.894126093117e-04 1.238093184258e-06 0.0 
1.238093184258e-06 5.169984540206e-03 0.0 
0.0 0.0 -7.861871271282e-04 
-7.083334352115e-04 1.160791963813e-06 0.0 
1.160791963813e-06 4.619009573669e-03 0.0 
0.0 0.0 -7.076088937226e-04 
-8.034448321061e-04 -3.641604808727e-06 0.0 
-3.641604808727e-06 5.283437919380e-03 0.0 
0.0 0.0 -8.027518904046e-04 
-5.699317647336e-04 -5.077104347375e-06 0.0 
-5.077104347375e-06 3.690391390143e-03 0.0 
0.0 0.0 -5.745905038755e-04 
-5.325923514100e-04 1.264931689698e-06 0.0 
1.264931689698e-06 3.434700451156e-03 0.0 
0.0 0.0 -5.371338854166e-04 
-6.021414154153e-04 -1.123287284899e-05 0.0 
-1.123287284899e-05 3.895898666929e-03 0.0 
0.0 0.0 -6.033452624549e-04 
-7.975586205945e-04 7.346724403244e-07 0.0 
7.346724403244e-07 5.250837552224e-03 0.0 
0.0 0.0 -7.980428604176e-04 
-8.260589898795e-04 8.470418804300e-07 0.0 
8.470418804300e-07 5.449813526142e-03 0.0 
0.0 0.0 -8.266132305475e-04 
-8.633840041631e-04 4.108677630608e-07 0.0 
4.108677630608e-07 5.709024598085e-03 0.0 
0.0 0.0 -8.638188500004e-04 
-8.921637692903e-04 4.125221994130e-07 0.0 
4.125221994130e-07 5.908664068470e-03 0.0 
0.0 0.0 -8.924533907576e-04 
-9.293171742377e-04 3.033539280223e-07 0.0 
3.033539280223e-07 6.168083546013e-03 0.0 
0.0 0.0 -9.297164513315e-04 
-9.582709124814e-04 8.513827699030e-07 0.0 
8.513827699030e-07 6.368400937687e-03 0.0 
0.0 0.0 -9.583747859490e-04 
-9.209100768105e-04 -4.256218772054e-07 0.0 
-4.256218772054e-07 6.108351576790e-03 0.0 
0.0 0.0 -9.210728288235e-04 
-9.873571107966e-04 -7.195723232426e-07 0.0 
-7.195723232426e-07 6.568673837727e-03 0.0 
0.0 0.0 -9.870277070005e-04 
-9.496224461858e-04 -1.641275595005e-06 0.0 
-1.641275595005e-06 6.308003890192e-03 0.0 
0.0 0.0 -9.497007337289e-04 
-9.952004913146e-04 1.269240357772e-06 0.0 
1.269240357772e-06 6.627713601016e-03 0.0 
0.0 0.0 -9.956835613869e-04 
-9.665012269537e-04 -8.709086142772e-07 0.0 
-8.709086142772e-07 6.427165842683e-03 0.0 
0.0 0.0 -9.668198671257e-04 
-1.015999965498e-03 -2.659789521436e-06 0.0 
-2.659789521436e-06 6.768164853944e-03 0.0 
0.0 0.0 -1.015681523326e-03 
-9.780689760981e-04 -1.773026811924e-06 0.0 
-1.773026811924e-06 6.507705614272e-03 0.0 
0.0 0.0 -9.783260305705e-04 
-1.043750394909e-03 -2.772279525269e-06 0.0 
-2.772279525269e-06 6.967527210065e-03 0.0 
0.0 0.0 -1.044362401637e-03 
-1.005977853166e-03 -2.262113223713e-06 0.0 
-2.262113223713e-06 6.706658029639e-03 0.0 
0.0 0.0 -1.007007767922e-03 
-9.404749716457e-04 -1.193534276240e-06 0.0 
-1.193534276240e-06 6.246239019973e-03 0.0 
0.0 0.0 -9.408676861799e-04 
-9.684909118554e-04 -8.529271608852e-07 0.0 
-8.529271608852e-07 6.444829778042e-03 0.0 
0.0 0.0 -9.695029660748e-04 
-9.037723104014e-04 -2.350012697862e-06 0.0 
-2.350012697862e-06 5.986848649888e-03 0.0 
0.0 0.0 -9.035672079865e-04 
-8.314464570683e-04 -3.616594317120e-06 0.0 
-3.616594317120e-06 5.479880314984e-03 0.0 
0.0 0.0 -8.309624794500e-04 
-8.682753299777e-04 -4.472916759998e-06 0.0 
-4.472916759998e-06 5.735257211893e-03 0.0 
0.0 0.0 -8.675775700443e-04 
-8.962132157839e-04 -3.994715245343e-06 0.0 
-3.994715245343e-06 5.931796623670e-03 0.0 
0.0 0.0 -8.958500940740e-04 
-9.334915543321e-04 -5.104595478867e-06 0.0 
-5.104595478867e-06 6.188168080628e-03 0.0 
0.0 0.0 -9.325549191312e-04 
-9.611906856985e-04 -4.832422115400e-06 0.0 
-4.832422115400e-06 6.384949120317e-03 0.0 
0.0 0.0 -9.609176734917e-04 
-9.993166695242e-04 -5.921015935425e-06 0.0 
-5.921015935425e-06 6.642197475408e-03 0.0 
0.0 0.0 -9.976363410588e-04 
-1.026869107811e-03 -5.279541534962e-06 0.0 
-5.279541534962e-06 6.837737939095e-03 0.0 
0.0 0.0 -1.026032504441e-03 
-9.888890578615e-04 -3.536873257987e-06 0.0 
-3.536873257987e-06 6.582021445560e-03 0.0 
0.0 0.0 -9.892761093609e-04 
-1.020948249731e-03 -5.775826579322e-06 0.0 
-5.775826579322e-06 6.785097853957e-03 0.0 
0.0 0.0 -1.018102500310e-03 
-6.106564943980e-04 -8.377932010434e-07 0.0 
-8.377932010434e-07 3.937861241286e-03 0.0 
0.0 0.0 -6.095594541484e-04 
-5.829707017919e-04 -8.761996171903e-07 0.0 
-8.761996171903e-07 3.743841342214e-03 0.0 
0.0 0.0 -5.816898710390e-04 
-5.468224651884e-04 3.532374184942e-07 0.0 
3.532374184942e-07 3.491149788400e-03 0.0 
0.0 0.0 -5.454521931755e-04 
-5.191424428682e-04 -2.726566040461e-07 0.0 
-2.726566040461e-07 3.297674531074e-03 0.0 
0.0 0.0 -5.176388733440e-04 
-4.833226440277e-04 2.092058671685e-06 0.0 
2.092058671685e-06 3.045002640289e-03 0.0 
0.0 0.0 -4.814163979944e-04 
-4.557758029646e-04 1.050100036915e-06 0.0 
1.050100036915e-06 2.852852491029e-03 0.0 
0.0 0.0 -4.537165770244e-04 
-4.203756978464e-04 3.745088126595e-06 0.0 
3.745088126595e-06 2.598843361212e-03 0.0 
0.0 0.0 -4.172264234068e-04 
-4.466735727578e-04 5.480427943032e-06 0.0 
5.480427943032e-06 2.790981770740e-03 0.0 
0.0 0.0 -4.450327826477e-04 
-3.836326554131e-04 7.904997896630e-06 0.0 
7.904997896630e-06 2.342835906920e-03 0.0 
0.0 0.0 -3.805252178390e-04 
-4.084193757355e-04 7.242552144221e-06 0.0 
7.242552144221e-06 2.535005811079e-03 0.0 
0.0 0.0 -4.085362445790e-04 
-3.461331758914e-04 8.763341315909e-06 0.0 
8.763341315909e-06 2.084280570054e-03 0.0 
0.0 0.0 -3.437934912881e-04 
-3.698709012629e-04 8.292346557788e-06 0.0 
8.292346557788e-06 2.277114687721e-03 0.0 
0.0 0.0 -3.717096690223e-04 
-8.965032625882e-04 -1.627591660557e-06 0.0 
-1.627591660557e-06 5.934603885101e-03 0.0 
0.0 0.0 -8.963565068603e-04 
-9.708908500796e-04 -5.045480792170e-06 0.0 
-5.045480792170e-06 6.444533853224e-03 0.0 
0.0 0.0 -9.691568884624e-04 
-1.036699855876e-03 -2.770010414096e-06 0.0 
-2.770010414096e-06 6.900219655108e-03 0.0 
0.0 0.0 -1.034312087004e-03 
-1.006639220865e-03 -3.033633605211e-06 0.0 
-3.033633605211e-06 6.698197690662e-03 0.0 
0.0 0.0 -1.005320805676e-03 
-3.491849021405e-04 5.274199755838e-07 0.0 
5.274199755838e-07 2.108115059856e-03 0.0 
0.0 0.0 -3.475522021424e-04 
-1.033063842021e-03 -2.635650059534e-06 0.0 
-2.635650059534e-06 6.905166544597e-03 0.0 
0.0 0.0 -1.035773625862e-03 
-1.032236772368e-03 -1.431372014475e-06 0.0 
-1.431372014475e-06 6.887149851833e-03 0.0 
0.0 0.0 -1.032922975483e-03 
-1.003745583219e-03 -3.564129010650e-06 0.0 
-3.564129010650e-06 6.683661322661e-03 0.0 
0.0 0.0 -1.003739924893e-03 
-1.054629030311e-03 -7.601280978046e-07 0.0 
-7.601280978046e-07 7.036563315422e-03 0.0 
0.0 0.0 -1.054598834243e-03 
-3.382801587767e-04 -2.979708598332e-06 0.0 
-2.979708598332e-06 2.049061231215e-03 0.0 
0.0 0.0 -3.392587823741e-04 
-3.925929468368e-04 -3.827429239530e-07 0.0 
-3.827429239530e-07 2.409736501278e-03 0.0 
0.0 0.0 -3.899405068163e-04 
-4.274717193387e-04 -8.415189164619e-08 0.0 
-8.415189164619e-08 2.658832617141e-03 0.0 
0.0 0.0 -4.261104576107e-04 
-1.049394948444e-03 -6.226283885141e-06 0.0 
-6.226283885141e-06 7.001982288460e-03 0.0 
0.0 0.0 -1.048874596840e-03 
-1.017918189327e-03 -8.563044135216e-06 0.0 
-8.563044135216e-06 6.794247194180e-03 0.0 
0.0 0.0 -1.019458214591e-03 
-1.069216758149e-03 -3.894499857361e-06 0.0 
-3.894499857361e-06 7.146438403505e-03 0.0 
0.0 0.0 -1.070157681403e-03 
-3.646275857635e-04 -4.854414982703e-06 0.0 
-4.854414982703e-06 2.250210390791e-03 0.0 
0.0 0.0 -3.675747464493e-04 
-1.054357939260e-03 -2.436299897868e-06 0.0 
-2.436299897868e-06 7.029823091953e-03 0.0 
0.0 0.0 -1.052997445444e-03 
-3.197645753905e-04 1.264604075079e-05 0.0 
1.264604075079e-05 1.895364248012e-03 0.0 
0.0 0.0 -3.160508651072e-04 
-9.953050425208e-04 1.480628501678e-06 0.0 
1.480628501678e-06 6.643084749548e-03 0.0 
0.0 0.0 -9.982306137915e-04 
-1.060585647238e-03 -1.664106558619e-06 0.0 
-1.664106558619e-06 7.103829563321e-03 0.0 
0.0 0.0 -1.064501221861e-03 
-8.833816014428e-04 -1.312725406901e-06 0.0 
-1.312725406901e-06 5.848632048973e-03 0.0 
0.0 0.0 -8.838659695519e-04 
-1.072126527592e-03 1.342848407697e-06 0.0 
1.342848407697e-06 7.156046509616e-03 0.0 
0.0 0.0 -1.070909199420e-03 
-1.040873144494e-03 -1.559728385230e-06 0.0 
-1.559728385230e-06 6.945723517804e-03 0.0 
0.0 0.0 -1.041442769611e-03 
-4.361432558223e-04 3.964498909213e-06 0.0 
3.964498909213e-06 2.732385665183e-03 0.0 
0.0 0.0 -4.368024751037e-04 
-4.014490958451e-04 -4.456139007959e-06 0.0 
-4.456139007959e-06 2.476345149205e-03 0.0 
0.0 0.0 -4.000028750317e-04 
-3.379276697082e-04 -9.389203744036e-07 0.0 
-9.389203744036e-07 2.030025360652e-03 0.0 
0.0 0.0 -3.362177140684e-04 
-3.635969428548e-04 1.373767669615e-06 0.0 
1.373767669615e-06 2.244616072891e-03 0.0 
0.0 0.0 -3.646174584383e-04 
-4.300938244296e-04 1.567544356571e-06 0.0 
1.567544356571e-06 2.681550340782e-03 0.0 
0.0 0.0 -4.284477484795e-04 
-3.889085083712e-04 9.835552762117e-06 0.0 
9.835552762117e-06 2.418297915731e-03 0.0 
0.0 0.0 -3.914172224959e-04 
-3.204770754165e-04 1.907323267821e-05 0.0 
1.907323267821e-05 1.962571053020e-03 0.0 
0.0 0.0 -3.275549428413e-04 
-3.502907991613e-04 7.488671343041e-06 0.0 
7.488671343041e-06 2.156719423536e-03 0.0 
0.0 0.0 -3.541853722931e-04 
-4.167106155497e-04 6.881429257356e-06 0.0 
6.881429257356e-06 2.610903268491e-03 0.0 
0.0 0.0 -4.192720002935e-04 
-3.788914181042e-04 4.343078442166e-06 0.0 
4.343078442166e-06 2.349536149817e-03 0.0 
0.0 0.0 -3.818909459020e-04 
-3.084459074470e-04 6.289188176845e-07 0.0 
6.289188176845e-07 1.890259859558e-03 0.0 
0.0 0.0 -3.163726278224e-04 
-3.419617535017e-04 -1.002237531295e-06 0.0 
-1.002237531295e-06 2.083935112305e-03 0.0 
0.0 0.0 -3.442135738104e-04 
-1.099071483736e-03 -4.059536723364e-06 0.0 
-4.059536723364e-06 7.365286043721e-03 0.0 
0.0 0.0 -1.101875158976e-03 
-2.778270531889e-04 5.606786557982e-06 0.0 
5.606786557982e-06 1.634146459113e-03 0.0 
0.0 0.0 -2.790856233436e-04 
-8.331232600789e-04 -1.470432704238e-06 0.0 
-1.470432704238e-06 5.468049203594e-03 0.0 
0.0 0.0 -8.288706041983e-04 
-1.097753538925e-03 -6.819421047743e-08 0.0 
-6.819421047743e-08 7.345996197340e-03 0.0 
0.0 0.0 -1.099012274073e-03 
-1.093116720620e-03 -8.666493400004e-07 0.0 
-8.666493400004e-07 7.286837829642e-03 0.0 
0.0 0.0 -1.090660416876e-03 
-1.084365567575e-03 -6.280824779061e-06 0.0 
-6.280824779061e-06 7.252032631151e-03 0.0 
0.0 0.0 -1.085032576515e-03 
-1.054657705810e-03 -6.435631966226e-06 0.0 
-6.435631966226e-06 7.045218181684e-03 0.0 
0.0 0.0 -1.055603631703e-03 
-9.875851288997e-04 -1.413805567797e-06 0.0 
-1.413805567797e-06 6.584177510452e-03 0.0 
0.0 0.0 -9.897378988699e-04 
-1.026769546168e-03 -2.237330550632e-06 0.0 
-2.237330550632e-06 6.840866959104e-03 0.0 
0.0 0.0 -1.026001677571e-03 
-1.092973095107e-03 -7.454569989655e-06 0.0 
-7.454569989655e-06 7.301089234385e-03 0.0 
0.0 0.0 -1.091942449670e-03 
-1.064751991023e-03 -3.501272267757e-06 0.0 
-3.501272267757e-06 7.095620902661e-03 0.0 
0.0 0.0 -1.062342898562e-03 
-9.988564979816e-04 -1.668871402209e-06 0.0 
-1.668871402209e-06 6.635005463114e-03 0.0 
0.0 0.0 -9.962627399151e-04 
-1.034436478479e-03 -1.481002808330e-06 0.0 
-1.481002808330e-06 6.886326563749e-03 0.0 
0.0 0.0 -1.032646955902e-03 
-9.669903561008e-04 -1.588757973743e-06 0.0 
-1.588757973743e-06 6.424013170772e-03 0.0 
0.0 0.0 -9.664557332607e-04 
-1.003700280699e-03 7.299281572320e-07 0.0 
7.299281572320e-07 6.676052297610e-03 0.0 
0.0 0.0 -1.002889032254e-03 
-1.069539961128e-03 -1.406306334187e-06 0.0 
-1.406306334187e-06 7.137459283332e-03 0.0 
0.0 0.0 -1.069134413525e-03 
-1.040251277345e-03 -2.304501535935e-06 0.0 
-2.304501535935e-06 6.929939891367e-03 0.0 
0.0 0.0 -1.039387411609e-03 
-9.757356294361e-04 3.492291009929e-06 0.0 
3.492291009929e-06 6.469291385121e-03 0.0 
0.0 0.0 -9.730575354659e-04 
-1.011311036558e-03 -3.920010342677e-06 0.0 
-3.920010342677e-06 6.721391753202e-03 0.0 
0.0 0.0 -1.009574527126e-03 
-9.473976655286e-04 1.069754497064e-06 0.0 
1.069754497064e-06 6.259448801403e-03 0.0 
0.0 0.0 -9.431603702596e-04 
-9.787243902099e-04 -9.076392670537e-06 0.0 
-9.076392670537e-06 6.505694726987e-03 0.0 
0.0 0.0 -9.796061197752e-04 
-1.045613844249e-03 -1.722974318839e-06 0.0 
-1.722974318839e-06 6.974649094867e-03 0.0 
0.0 0.0 -1.046101832713e-03 
-2.943775444909e-04 -6.928567679432e-07 0.0 
-6.928567679432e-07 1.805789486149e-03 0.0 
0.0 0.0 -3.035957800550e-04 
-1.017758437713e-03 8.339975111654e-07 0.0 
8.339975111654e-07 6.780275813963e-03 0.0 
0.0 0.0 -1.017732614895e-03 
-1.085695951343e-03 9.008470653871e-06 0.0 
9.008470653871e-06 7.238624846316e-03 0.0 
0.0 0.0 -1.083831836677e-03 
-5.709103913775e-04 -2.325431224873e-05 0.0 
-2.325431224873e-05 3.664168357293e-03 0.0 
0.0 0.0 -5.671321338944e-04 
-6.324387949388e-04 -2.542767452312e-05 0.0 
-2.542767452312e-05 4.079572971033e-03 0.0 
0.0 0.0 -6.325382687906e-04 
-6.703304024063e-04 2.057485422859e-06 0.0 
2.057485422859e-06 4.353279279577e-03 0.0 
0.0 0.0 -6.695659616924e-04 
-6.965174910300e-04 -2.385319859479e-06 0.0 
-2.385319859479e-06 4.560833435242e-03 0.0 
0.0 0.0 -6.986863204145e-04 
-1.013217864429e-03 -6.931448216259e-06 0.0 
-6.931448216259e-06 6.760757040862e-03 0.0 
0.0 0.0 -1.015477767897e-03 
-1.085754476307e-03 4.526117246910e-06 0.0 
4.526117246910e-06 7.228792746516e-03 0.0 
0.0 0.0 -1.082739357160e-03 
-3.632786350414e-04 -5.324944035329e-07 0.0 
-5.324944035329e-07 2.218076515491e-03 0.0 
0.0 0.0 -3.630904347118e-04 
-3.989196443091e-04 3.443700858761e-06 0.0 
3.443700858761e-06 2.465366928233e-03 0.0 
0.0 0.0 -3.987635198617e-04 
-1.114604240908e-03 -4.187271034226e-06 0.0 
-4.187271034226e-06 7.457266297093e-03 0.0 
0.0 0.0 -1.114382729655e-03 
-1.023827423401e-03 3.244776891224e-07 0.0 
3.244776891224e-07 6.846372715936e-03 0.0 
0.0 0.0 -1.027045364000e-03 
-9.591711885291e-04 5.195306824493e-06 0.0 
5.195306824493e-06 6.383348184143e-03 0.0 
0.0 0.0 -9.609938998495e-04 
-6.727539858769e-04 1.372459178945e-06 0.0 
1.372459178945e-06 4.373266699252e-03 0.0 
0.0 0.0 -6.721935305596e-04 
-6.457182263888e-04 2.843205903177e-06 0.0 
2.843205903177e-06 4.180265241662e-03 0.0 
0.0 0.0 -6.449639573754e-04 
-6.090109741668e-04 -1.269187225445e-06 0.0 
-1.269187225445e-06 3.932858286179e-03 0.0 
0.0 0.0 -6.093131083769e-04 
-5.816903259702e-04 4.641891431307e-06 0.0 
4.641891431307e-06 3.732340485873e-03 0.0 
0.0 0.0 -5.812298138028e-04 
-6.200283683434e-04 9.586645545084e-06 0.0 
9.586645545084e-06 3.992414838426e-03 0.0 
0.0 0.0 -6.173664885638e-04 
-5.434193891668e-04 -9.403867661894e-06 0.0 
-9.403867661894e-06 3.478668698049e-03 0.0 
0.0 0.0 -5.448148816535e-04 
-9.373928058819e-04 -1.601369738949e-06 0.0 
-1.601369738949e-06 6.221929865538e-03 0.0 
0.0 0.0 -9.373051277721e-04 
-1.105789133782e-03 -5.097961888882e-06 0.0 
-5.097961888882e-06 7.391609738888e-03 0.0 
0.0 0.0 -1.105708206284e-03 
-3.854345613970e-04 8.443027839789e-06 0.0 
8.443027839789e-06 2.371646984252e-03 0.0 
0.0 0.0 -3.852871208612e-04 
-3.201910169613e-04 4.758000015150e-06 0.0 
4.758000015150e-06 1.911169802832e-03 0.0 
0.0 0.0 -3.193625892355e-04 
-1.092402492623e-03 -1.167819157839e-06 0.0 
-1.167819157839e-06 7.309660398486e-03 0.0 
0.0 0.0 -1.093300181677e-03 
-9.522712570359e-04 -2.708707743093e-07 0.0 
-2.708707743093e-07 6.324723503682e-03 0.0 
0.0 0.0 -9.522822042369e-04 
-9.318364452749e-04 -3.558001127053e-06 0.0 
-3.558001127053e-06 6.182417451607e-03 0.0 
0.0 0.0 -9.319735432435e-04 
-9.592391997822e-04 -2.458009781571e-06 0.0 
-2.458009781571e-06 6.375907434676e-03 0.0 
0.0 0.0 -9.598347391831e-04 
-9.950739296231e-04 -4.572796618562e-06 0.0 
-4.572796618562e-06 6.625947379230e-03 0.0 
0.0 0.0 -9.957130113267e-04 
-1.022389104434e-03 -1.719325875492e-06 0.0 
-1.719325875492e-06 6.820013246431e-03 0.0 
0.0 0.0 -1.023751803962e-03 
-1.059370439720e-03 -5.405362556184e-06 0.0 
-5.405362556184e-06 7.072199763534e-03 0.0 
0.0 0.0 -1.059873349132e-03 
-1.087678763415e-03 -2.923161999975e-06 0.0 
-2.923161999975e-06 7.265128234670e-03 0.0 
0.0 0.0 -1.087854580038e-03 
-1.051303081443e-03 5.171402569028e-07 0.0 
5.171402569028e-07 7.018896459243e-03 0.0 
0.0 0.0 -1.051791170495e-03 
-1.103769166382e-03 7.691851827814e-06 0.0 
7.691851827814e-06 7.404894528321e-03 0.0 
0.0 0.0 -1.107463318235e-03 
-1.117712624745e-03 -3.586966882224e-06 0.0 
-3.586966882224e-06 7.467456065744e-03 0.0 
0.0 0.0 -1.115916943430e-03 
-9.389683298366e-04 8.173508751319e-06 0.0 
8.173508751319e-06 6.277342985551e-03 0.0 
0.0 0.0 -9.487150400336e-04 
-9.410739694122e-04 -1.111791304634e-06 0.0 
-1.111791304634e-06 6.241243045591e-03 0.0 
0.0 0.0 -9.398448712237e-04 
-4.457204000866e-04 5.557813324707e-06 0.0 
5.557813324707e-06 2.807268937135e-03 0.0 
0.0 0.0 -4.474652294669e-04 
-2.787239558753e-04 -1.594210911560e-05 0.0 
-1.594210911560e-05 1.590980471387e-03 0.0 
0.0 0.0 -2.752498982733e-04 
-2.801629165478e-04 1.388173637083e-07 0.0 
1.388173637083e-07 1.614413284500e-03 0.0 
0.0 0.0 -2.770275614452e-04 
-3.257086370933e-04 6.463444473936e-06 0.0 
6.463444473936e-06 1.982032803988e-03 0.0 
0.0 0.0 -3.299748606085e-04 
-3.924316838371e-04 3.341960258316e-06 0.0 
3.341960258316e-06 2.447443434601e-03 0.0 
0.0 0.0 -3.961554456411e-04 
-1.134349550786e-03 -1.652632845498e-06 0.0 
-1.652632845498e-06 7.607275251226e-03 0.0 
0.0 0.0 -1.136360603439e-03 
-1.125800754315e-03 -5.253853129321e-06 0.0 
-5.253853129321e-06 7.520991050392e-03 0.0 
0.0 0.0 -1.124065295910e-03 
-1.096791908378e-03 -5.220402544512e-06 0.0 
-5.220402544512e-06 7.320289406061e-03 0.0 
0.0 0.0 -1.095615423988e-03 
-5.557080703907e-04 2.060507655016e-05 0.0 
2.060507655016e-05 3.553838567094e-03 0.0 
0.0 0.0 -5.539799138139e-04 
-5.938414920039e-04 6.065843658318e-06 0.0 
6.065843658318e-06 3.806784454423e-03 0.0 
0.0 0.0 -5.905304635153e-04 
-1.132061157024e-03 2.994999273336e-06 0.0 
2.994999273336e-06 7.609332849678e-03 0.0 
0.0 0.0 -1.136278651916e-03 
-9.052603845710e-04 -1.496793008781e-06 0.0 
-1.496793008781e-06 6.089428360264e-03 0.0 
0.0 0.0 -9.177848451843e-04 
-9.302886435712e-04 -1.143901140706e-06 0.0 
-1.143901140706e-06 6.175006027383e-03 0.0 
0.0 0.0 -9.302130594432e-04 
-8.986318941469e-04 1.808913455713e-06 0.0 
1.808913455713e-06 5.958837749668e-03 0.0 
0.0 0.0 -9.001900590098e-04 
-2.448154097378e-04 -1.421673720988e-05 0.0 
-1.421673720988e-05 1.469020257813e-03 0.0 
0.0 0.0 -2.595221258752e-04 
-2.425141975508e-04 4.798340757522e-06 0.0 
4.798340757522e-06 1.427444744679e-03 0.0 
0.0 0.0 -2.525597767350e-04 
-1.129866785975e-03 -6.589135683467e-06 0.0 
-6.589135683467e-06 7.556758245339e-03 0.0 
0.0 0.0 -1.128363834889e-03 
-4.625030533362e-04 2.152653740951e-06 0.0 
2.152653740951e-06 2.905591162520e-03 0.0 
0.0 0.0 -4.615872697407e-04 
-4.348533942840e-04 3.201452625993e-06 0.0 
3.201452625993e-06 2.712395630356e-03 0.0 
0.0 0.0 -4.342639779644e-04 
-2.556862254963e-04 9.465200077415e-06 0.0 
9.465200077415e-06 1.446637132956e-03 0.0 
0.0 0.0 -2.508181872060e-04 
-2.123142658658e-04 2.153637717968e-06 0.0 
2.153637717968e-06 1.175585796085e-03 0.0 
0.0 0.0 -2.143868084631e-04 
-1.042731456099e-03 1.901936730490e-05 0.0 
1.901936730490e-05 6.995442815012e-03 0.0 
0.0 0.0 -1.051814883004e-03 
-1.110984337992e-03 1.360393105757e-05 0.0 
1.360393105757e-05 7.468547826848e-03 0.0 
0.0 0.0 -1.117859435171e-03 
-7.312716402703e-04 -2.190675999985e-06 0.0 
-2.190675999985e-06 4.814374156657e-03 0.0 
0.0 0.0 -7.356929296387e-04 
-7.645892286358e-04 -1.102166449944e-05 0.0 
-1.102166449944e-05 5.018862629850e-03 0.0 
0.0 0.0 -7.648299719236e-04 
-1.105578814045e-03 -4.864618337799e-06 0.0 
-4.864618337799e-06 7.407304501986e-03 0.0 
0.0 0.0 -1.107558395918e-03 
-3.066920262704e-04 -9.941053824372e-07 0.0 
-9.941053824372e-07 1.825477502809e-03 0.0 
0.0 0.0 -3.060794667268e-04 
-1.146252104278e-03 9.473611415334e-07 0.0 
9.473611415334e-07 7.693660702169e-03 0.0 
0.0 0.0 -1.149181664990e-03 
-9.819770468004e-04 3.151631864524e-06 0.0 
3.151631864524e-06 6.525650668115e-03 0.0 
0.0 0.0 -9.807908033776e-04 
-9.159380280943e-04 1.195442860157e-06 0.0 
1.195442860157e-06 6.068082639928e-03 0.0 
0.0 0.0 -9.152404036620e-04 
-6.511413906153e-04 1.424536279066e-05 0.0 
1.424536279066e-05 4.294241389317e-03 0.0 
0.0 0.0 -6.604623333687e-04 
-3.374810340453e-04 6.844433927076e-06 0.0 
6.844433927076e-06 2.031763814607e-03 0.0 
0.0 0.0 -3.366432492119e-04 
-3.027001806186e-04 4.554754580681e-06 0.0 
4.554754580681e-06 1.781580953442e-03 0.0 
0.0 0.0 -3.009099309908e-04 
-4.837618896288e-04 7.408810593364e-06 0.0 
7.408810593364e-06 3.065907824055e-03 0.0 
0.0 0.0 -4.845585894574e-04 
-3.706525314116e-04 2.979043878536e-06 0.0 
2.979043878536e-06 2.283251894813e-03 0.0 
0.0 0.0 -3.723415964733e-04 
-3.535775650443e-04 1.642795960159e-06 0.0 
1.642795960159e-06 2.183712345689e-03 0.0 
0.0 0.0 -3.583452993329e-04 
-1.171956394673e-03 7.296733533155e-06 0.0 
7.296733533155e-06 7.865937936914e-03 0.0 
0.0 0.0 -1.173829981771e-03 
-1.155496536768e-03 -7.585900876938e-06 0.0 
-7.585900876938e-06 7.757441294242e-03 0.0 
0.0 0.0 -1.157575248917e-03 
-1.081331483118e-03 -1.018192650105e-05 0.0 
-1.018192650105e-05 7.219793718708e-03 0.0 
0.0 0.0 -1.080172819833e-03 
-1.016976595983e-03 3.080934609207e-08 0.0 
3.080934609207e-08 6.767850029250e-03 0.0 
0.0 0.0 -1.015677837919e-03 
-1.139278177336e-03 -7.940019038875e-06 0.0 
-7.940019038875e-06 7.665797132760e-03 0.0 
0.0 0.0 -1.144955025780e-03 
-2.327287223155e-04 -5.619721676057e-06 0.0 
-5.619721676057e-06 1.369838176642e-03 0.0 
0.0 0.0 -2.399185640008e-04 
-1.167065302037e-03 -2.167295117523e-06 0.0 
-2.167295117523e-06 7.816099518397e-03 0.0 
0.0 0.0 -1.165794428787e-03 
-1.057599608467e-03 -1.462585030790e-06 0.0 
-1.462585030790e-06 7.053925433098e-03 0.0 
0.0 0.0 -1.056136825731e-03 
-1.166821884924e-03 8.580756338020e-06 0.0 
8.580756338020e-06 7.754116842770e-03 0.0 
0.0 0.0 -1.157598467365e-03 
-1.133408506306e-03 -8.435792570637e-07 0.0 
-8.435792570637e-07 7.569033753462e-03 0.0 
0.0 0.0 -1.131219827106e-03 
-4.984456519411e-04 4.300557589802e-06 0.0 
4.300557589802e-06 3.150357815837e-03 0.0 
0.0 0.0 -4.968499830348e-04 
-4.727344614058e-04 -4.063132868483e-06 0.0 
-4.063132868483e-06 2.963684111716e-03 0.0 
0.0 0.0 -4.705806478706e-04 
-4.091383170965e-04 2.862069894871e-06 0.0 
2.862069894871e-06 2.529363987017e-03 0.0 
0.0 0.0 -4.078257031896e-04 
-4.471058786427e-04 1.072951437622e-05 0.0 
1.072951437622e-05 2.788633828474e-03 0.0 
0.0 0.0 -4.438024830152e-04 
-8.440631779025e-04 -4.493147098223e-06 0.0 
-4.493147098223e-06 5.518369027804e-03 0.0 
0.0 0.0 -8.361670615231e-04 
-5.357092529258e-04 -9.292843076375e-07 0.0 
-9.292843076375e-07 3.402933662769e-03 0.0 
0.0 0.0 -5.333915535664e-04 
-7.972227851670e-04 -9.360487059462e-07 0.0 
-9.360487059462e-07 5.222669072684e-03 0.0 
0.0 0.0 -7.939299641313e-04 
-7.702508874020e-04 -1.538210288725e-06 0.0 
-1.538210288725e-06 5.031866795854e-03 0.0 
0.0 0.0 -7.665196690739e-04 
-7.355056886190e-04 7.347932432803e-07 0.0 
7.347932432803e-07 4.791036993934e-03 0.0 
0.0 0.0 -7.319524942586e-04 
-6.561872916337e-04 1.268419360750e-06 0.0 
1.268419360750e-06 4.239606973166e-03 0.0 
0.0 0.0 -6.527873785750e-04 
-6.291613184761e-04 -1.439650198993e-06 0.0 
-1.439650198993e-06 4.053875822961e-03 0.0 
0.0 0.0 -6.261871041946e-04 
-5.548406946331e-04 -1.134560045706e-06 0.0 
-1.134560045706e-06 3.546628030902e-03 0.0 
0.0 0.0 -5.534964465553e-04 
-8.399940984114e-04 -3.577201231008e-06 0.0 
-3.577201231008e-06 5.537581821643e-03 0.0 
0.0 0.0 -8.390310526140e-04 
-7.058409553932e-04 5.047899969827e-07 0.0 
5.047899969827e-07 4.614117323526e-03 0.0 
0.0 0.0 -7.069621042110e-04 
-8.747594299032e-04 -2.558061717916e-06 0.0 
-2.558061717916e-06 5.788017369400e-03 0.0 
0.0 0.0 -8.751042800696e-04 
-8.345970192924e-04 7.968047685432e-07 0.0 
7.968047685432e-07 5.508873449258e-03 0.0 
0.0 0.0 -8.350146568664e-04 
-1.135366159085e-03 -3.784163045625e-06 0.0 
-3.784163045625e-06 7.595187475630e-03 0.0 
0.0 0.0 -1.135109731873e-03 
-1.173430748718e-03 -9.063019793229e-06 0.0 
-9.063019793229e-06 7.855172062360e-03 0.0 
0.0 0.0 -1.171938512032e-03 
-9.103494794308e-04 9.134385712316e-06 0.0 
9.134385712316e-06 6.008446285683e-03 0.0 
0.0 0.0 -9.065739516476e-04 
-8.719468559850e-04 9.049287930877e-07 0.0 
9.049287930877e-07 5.790867004059e-03 0.0 
0.0 0.0 -8.764137937918e-04 
-2.822142401262e-04 -1.729015805274e-06 0.0 
-1.729015805274e-06 1.647043850495e-03 0.0 
0.0 0.0 -2.813159824896e-04 
-2.590672524343e-04 7.758668078462e-06 0.0 
7.758668078462e-06 1.453070456664e-03 0.0 
0.0 0.0 -2.532569443854e-04 
-7.885436432884e-04 5.287197585387e-07 0.0 
5.287197585387e-07 5.190389624089e-03 0.0 
0.0 0.0 -7.894497706086e-04 
-1.129157536929e-03 4.394584270014e-06 0.0 
4.394584270014e-06 7.545263270116e-03 0.0 
0.0 0.0 -1.127529358476e-03 
-1.150499129859e-03 -1.601096256567e-07 0.0 
-1.601096256567e-07 7.703368893988e-03 0.0 
0.0 0.0 -1.150095860580e-03 
-1.180515255213e-03 -2.827683268666e-06 0.0 
-2.827683268666e-06 7.908952217123e-03 0.0 
0.0 0.0 -1.179372829571e-03 
-1.142938913333e-03 -3.318694813183e-06 0.0 
-3.318694813183e-06 7.657003561438e-03 0.0 
0.0 0.0 -1.143369325256e-03 
-1.140111309187e-03 8.981293941595e-07 0.0 
8.981293941595e-07 7.659653688633e-03 0.0 
0.0 0.0 -1.144273392007e-03 
-5.742583376343e-04 1.322470559697e-07 0.0 
1.322470559697e-07 3.685291735877e-03 0.0 
0.0 0.0 -5.733740095480e-04 
-8.593234151620e-04 -2.874076437017e-06 0.0 
-2.874076437017e-06 5.675695790787e-03 0.0 
0.0 0.0 -8.590966742019e-04 
-2.435677437140e-04 -1.068446741351e-05 0.0 
-1.068446741351e-05 1.382271228051e-03 0.0 
0.0 0.0 -2.423215009416e-04 
-8.888171571715e-04 7.702896637570e-07 0.0 
7.702896637570e-07 5.879388839658e-03 0.0 
0.0 0.0 -8.884627649733e-04 
-2.162237035633e-04 -3.672272412215e-06 0.0 
-3.672272412215e-06 1.184819371308e-03 0.0 
0.0 0.0 -2.162536877156e-04 
-1.014212058360e-03 -1.424401912229e-06 0.0 
-1.424401912229e-06 6.732806316095e-03 0.0 
0.0 0.0 -1.010319580236e-03 
-1.121146682577e-03 5.393536552769e-07 0.0 
5.393536552769e-07 7.512550218556e-03 0.0 
0.0 0.0 -1.122815839103e-03 
-1.157064342210e-03 3.278319431581e-08 0.0 
3.278319431581e-08 7.769042756358e-03 0.0 
0.0 0.0 -1.159213750608e-03 
-1.166424981014e-03 1.813592645850e-06 0.0 
1.813592645850e-06 7.856112587899e-03 0.0 
0.0 0.0 -1.171959308352e-03 
-7.504080630279e-04 1.142017006419e-05 0.0 
1.142017006419e-05 4.900584458038e-03 0.0 
0.0 0.0 -7.470952864203e-04 
-9.172347539121e-04 2.804117413081e-06 0.0 
2.804117413081e-06 6.075069916316e-03 0.0 
0.0 0.0 -9.162722660995e-04 
-8.822868772852e-04 1.786082975063e-06 0.0 
1.786082975063e-06 5.828052429250e-03 0.0 
0.0 0.0 -8.808726170640e-04 
-7.075025449256e-04 3.734403441957e-06 0.0 
3.734403441957e-06 4.602949033639e-03 0.0 
0.0 0.0 -7.048691535495e-04 
-6.736902723486e-04 3.915004124880e-06 0.0 
3.915004124880e-06 4.364959797177e-03 0.0 
0.0 0.0 -6.707530558731e-04 
-7.003926698376e-04 3.499859416377e-06 0.0 
3.499859416377e-06 4.548937086678e-03 0.0 
0.0 0.0 -6.972958566626e-04 
-6.396081130526e-04 3.801189656251e-06 0.0 
3.801189656251e-06 4.126284090508e-03 0.0 
0.0 0.0 -6.359606378414e-04 
-5.113814833482e-04 4.985013341250e-06 0.0 
4.985013341250e-06 3.258506878652e-03 0.0 
0.0 0.0 -5.122594947013e-04 
-4.735906672379e-04 3.101741148840e-06 0.0 
3.101741148840e-06 2.998270021668e-03 0.0 
0.0 0.0 -4.750188804659e-04 
-1.196527535369e-03 2.030860363361e-06 0.0 
2.030860363361e-06 8.017120294099e-03 0.0 
0.0 0.0 -1.192042136895e-03 
-1.179471908673e-03 2.186350744697e-05 0.0 
2.186350744697e-05 7.917990259976e-03 0.0 
0.0 0.0 -1.178660172201e-03 
-1.197525366512e-03 -5.361254675000e-06 0.0 
-5.361254675000e-06 8.017772106938e-03 0.0 
0.0 0.0 -1.193029175878e-03 
-1.157007599871e-03 -4.254495392831e-07 0.0 
-4.254495392831e-07 7.831852404544e-03 0.0 
0.0 0.0 -1.168165168231e-03 
-1.184219832489e-03 -2.995135238665e-06 0.0 
-2.995135238665e-06 8.054139615854e-03 0.0 
0.0 0.0 -1.200910491468e-03 
-1.156433585434e-03 -1.143666503542e-06 0.0 
-1.143666503542e-06 7.807020133364e-03 0.0 
0.0 0.0 -1.164168769488e-03 
-4.264796299705e-04 -5.762809161324e-06 0.0 
-5.762809161324e-06 2.638842137297e-03 0.0 
0.0 0.0 -4.227350873389e-04 
-5.681760473818e-04 2.318592575022e-06 0.0 
2.318592575022e-06 3.626581176623e-03 0.0 
0.0 0.0 -5.646260317871e-04 
-1.184636686047e-03 -1.016095806196e-05 0.0 
-1.016095806196e-05 8.009054334469e-03 0.0 
0.0 0.0 -1.194151889699e-03 
-7.414862310133e-04 3.192804147294e-06 0.0 
3.192804147294e-06 4.838396811126e-03 0.0 
0.0 0.0 -7.390869131010e-04 
-1.198370689590e-03 -4.208230376702e-06 0.0 
-4.208230376702e-06 8.000236790466e-03 0.0 
0.0 0.0 -1.192835421428e-03 
-1.157965586969e-03 3.621187988870e-06 0.0 
3.621187988870e-06 7.751872966735e-03 0.0 
0.0 0.0 -1.156047193884e-03 
-1.679677723563e-04 -6.471467775008e-06 0.0 
-6.471467775008e-06 9.157850137993e-04 0.0 
0.0 0.0 -1.776502893165e-04 
-2.010012491603e-04 -2.186198543596e-05 0.0 
-2.186198543596e-05 1.109886420371e-03 0.0 
0.0 0.0 -2.034953494974e-04 
-1.179928424182e-03 1.756406795450e-06 0.0 
1.756406795450e-06 7.951460578279e-03 0.0 
0.0 0.0 -1.184588873336e-03 
-3.838885301584e-04 -2.308315346306e-07 0.0 
-2.308315346306e-07 2.344842445821e-03 0.0 
0.0 0.0 -3.811925308841e-04 
-4.219559892700e-04 7.989363516708e-06 0.0 
7.989363516708e-06 2.586701229719e-03 0.0 
0.0 0.0 -4.158690271831e-04 
-3.474814854535e-04 -1.898705035342e-06 0.0 
-1.898705035342e-06 2.092244309525e-03 0.0 
0.0 0.0 -3.459699425273e-04 
-1.258412294817e-03 4.723230244906e-06 0.0 
4.723230244906e-06 8.451854294521e-03 0.0 
0.0 0.0 -1.258310293365e-03 
-7.484881504012e-04 -2.960864060537e-06 0.0 
-2.960864060537e-06 4.893199602045e-03 0.0 
0.0 0.0 -7.479256703001e-04 
-1.180456674817e-03 2.203572108480e-06 0.0 
2.203572108480e-06 7.969948982011e-03 0.0 
0.0 0.0 -1.189418985649e-03 
-6.915459890032e-04 2.639723401829e-07 0.0 
2.639723401829e-07 4.488659587492e-03 0.0 
0.0 0.0 -6.884682336192e-04 
-1.207477073685e-03 3.654066082089e-06 0.0 
3.654066082089e-06 8.169097270233e-03 0.0 
0.0 0.0 -1.216510697198e-03 
-9.459891485395e-04 2.183343284727e-06 0.0 
2.183343284727e-06 6.276634781059e-03 0.0 
0.0 0.0 -9.449116413281e-04 
-6.354655665352e-04 7.994205054171e-06 0.0 
7.994205054171e-06 4.117898953292e-03 0.0 
0.0 0.0 -6.353966017694e-04 
-1.078683645923e-03 -8.754256551621e-06 0.0 
-8.754256551621e-06 7.202760317134e-03 0.0 
0.0 0.0 -1.078177493492e-03 
-1.141578224774e-03 -1.678015124370e-05 0.0 
-1.678015124370e-05 7.703318796330e-03 0.0 
0.0 0.0 -1.149140729088e-03 
-1.226390364052e-03 1.281801736300e-05 0.0 
1.281801736300e-05 8.221773688785e-03 0.0 
0.0 0.0 -1.221625961084e-03 
-8.548571335586e-04 9.585095622204e-06 0.0 
9.585095622204e-06 5.710330831809e-03 0.0 
0.0 0.0 -8.638707813346e-04 
-8.315226367926e-04 -1.796676276349e-05 0.0 
-1.796676276349e-05 5.471080815741e-03 0.0 
0.0 0.0 -8.327709333130e-04 
-8.913153694948e-04 3.187001622893e-06 0.0 
3.187001622893e-06 5.908304703834e-03 0.0 
0.0 0.0 -8.925140200429e-04 
-2.901697666163e-04 2.957652242807e-06 0.0 
2.957652242807e-06 1.700907778148e-03 0.0 
0.0 0.0 -2.887053311254e-04 
-2.259876589125e-04 -1.628476741887e-06 0.0 
-1.628476741887e-06 1.207242233754e-03 0.0 
0.0 0.0 -2.186270541161e-04 
-1.144042553285e-03 -3.972510573065e-06 0.0 
-3.972510573065e-06 7.644643748638e-03 0.0 
0.0 0.0 -1.142090266074e-03 
-5.015691225624e-04 -4.004972649539e-06 0.0 
-4.004972649539e-06 3.172327891301e-03 0.0 
0.0 0.0 -5.006138788623e-04 
-5.490396028458e-04 1.473261204918e-05 0.0 
1.473261204918e-05 3.431798845594e-03 0.0 
0.0 0.0 -5.359218444892e-04 
-3.334097721275e-04 4.182676571344e-07 0.0 
4.182676571344e-07 2.008435002854e-03 0.0 
0.0 0.0 -3.328711069468e-04 
-3.967994371980e-04 3.163349435490e-06 0.0 
3.163349435490e-06 2.463726324997e-03 0.0 
0.0 0.0 -3.985542937016e-04 
-7.704918098593e-04 -2.506920415004e-06 0.0 
-2.506920415004e-06 5.073323433467e-03 0.0 
0.0 0.0 -7.728092966600e-04 
-7.429755971663e-04 -1.604665723007e-06 0.0 
-1.604665723007e-06 4.873825415622e-03 0.0 
0.0 0.0 -7.441750962829e-04 
-1.041105417575e-03 -3.532804275432e-06 0.0 
-3.532804275432e-06 6.930458439110e-03 0.0 
0.0 0.0 -1.038692069610e-03 
-1.077691050121e-03 5.915919111282e-07 0.0 
5.915919111282e-07 7.178307862229e-03 0.0 
0.0 0.0 -1.074129358999e-03 
-9.680145315127e-04 -4.800744221101e-06 0.0 
-4.800744221101e-06 6.431374472253e-03 0.0 
0.0 0.0 -9.675620497173e-04 
-9.449072701309e-04 5.755247328020e-07 0.0 
5.755247328020e-07 6.268683015175e-03 0.0 
0.0 0.0 -9.439558448496e-04 
-8.793469056983e-04 2.651871179723e-07 0.0 
2.651871179723e-07 5.812169911194e-03 0.0 
0.0 0.0 -8.783802297791e-04 
-8.506353188412e-04 -1.205932606194e-06 0.0 
-1.205932606194e-06 5.614865789540e-03 0.0 
0.0 0.0 -8.502765121185e-04 
-1.205371287344e-03 -1.017172525851e-05 0.0 
-1.017172525851e-05 8.044519540676e-03 0.0 
0.0 0.0 -1.199867006878e-03 
-1.246871842620e-03 -1.782584577396e-06 0.0 
-1.782584577396e-06 8.370823131876e-03 0.0 
0.0 0.0 -1.242728214876e-03 
-5.491066158242e-04 3.796504913795e-06 0.0 
3.796504913795e-06 3.515286504074e-03 0.0 
0.0 0.0 -5.488632449009e-04 
-5.218883337208e-04 5.205294616476e-06 0.0 
5.205294616476e-06 3.322312941731e-03 0.0 
0.0 0.0 -5.212126360957e-04 
-5.377854580404e-04 4.143852354807e-06 0.0 
4.143852354807e-06 3.445251353484e-03 0.0 
0.0 0.0 -5.390128571062e-04 
-1.214529256448e-03 -6.301616693017e-06 0.0 
-6.301616693017e-06 8.215301645721e-03 0.0 
0.0 0.0 -1.223056365294e-03 
-1.220614911318e-03 1.691106897417e-05 0.0 
1.691106897417e-05 8.234319209605e-03 0.0 
0.0 0.0 -1.224004481682e-03 
-1.202636442924e-03 -1.450484537668e-05 0.0 
-1.450484537668e-05 8.019827799738e-03 0.0 
0.0 0.0 -1.195820777905e-03 
-1.923031463658e-04 -1.299529721394e-05 0.0 
-1.299529721394e-05 1.005842812599e-03 0.0 
0.0 0.0 -1.880780275778e-04 
-2.380587333974e-04 -7.138126159431e-06 0.0 
-7.138126159431e-06 1.256954979671e-03 0.0 
0.0 0.0 -2.247092568812e-04 
-2.809188805545e-04 -7.804988416229e-07 0.0 
-7.804988416229e-07 1.601881524077e-03 0.0 
0.0 0.0 -2.751197234063e-04 
-2.390831316058e-04 -1.697522519497e-05 0.0 
-1.697522519497e-05 1.345355817379e-03 0.0 
0.0 0.0 -2.407125716443e-04 
-1.208745358060e-03 2.226513834322e-07 0.0 
2.226513834322e-07 8.094728759758e-03 0.0 
0.0 0.0 -1.207258722210e-03 
-1.173002429905e-03 -1.580225167038e-08 0.0 
-1.580225167038e-08 7.865013445176e-03 0.0 
0.0 0.0 -1.172631524865e-03 
-1.245587066994e-03 -1.350830728552e-07 0.0 
-1.350830728552e-07 8.403006214559e-03 0.0 
0.0 0.0 -1.247471551777e-03 
-3.784912276641e-04 1.355145565503e-05 0.0 
1.355145565503e-05 2.351827936340e-03 0.0 
0.0 0.0 -3.801539159394e-04 
-1.045351836581e-03 6.057785964147e-06 0.0 
6.057785964147e-06 6.969505785323e-03 0.0 
0.0 0.0 -1.045322365442e-03 
-1.205298536187e-03 1.211257299848e-05 0.0 
1.211257299848e-05 8.100207033565e-03 0.0 
0.0 0.0 -1.207899217314e-03 
-1.178583019777e-03 1.757022163116e-05 0.0 
1.757022163116e-05 7.916687945301e-03 0.0 
0.0 0.0 -1.178012378629e-03 
-1.242442001561e-03 9.743401619653e-06 0.0 
9.743401619653e-06 8.382783963078e-03 0.0 
0.0 0.0 -1.244624083072e-03 
-1.137070212873e-03 -2.028754131547e-06 0.0 
-2.028754131547e-06 7.646903784891e-03 0.0 
0.0 0.0 -1.142102124289e-03 
-1.209034666392e-03 -7.012965144969e-06 0.0 
-7.012965144969e-06 8.081623741308e-03 0.0 
0.0 0.0 -1.205428683694e-03 
-1.206763234680e-03 6.340388102846e-06 0.0 
6.340388102846e-06 8.101632159503e-03 0.0 
0.0 0.0 -1.209323031234e-03 
-1.526588308959e-04 -1.278274148865e-05 0.0 
-1.278274148865e-05 7.096255753314e-04 0.0 
0.0 0.0 -1.515181680101e-04 
-1.197635794990e-03 -1.679642684383e-05 0.0 
-1.679642684383e-05 8.038463106290e-03 0.0 
0.0 0.0 -1.199992767657e-03 
-8.372255126924e-04 -1.581405743943e-06 0.0 
-1.581405743943e-06 5.516497338344e-03 0.0 
0.0 0.0 -8.371571859873e-04 
-1.098991945020e-04 -3.154449405114e-05 0.0 
-3.154449405114e-05 5.330743413542e-04 0.0 
0.0 0.0 -1.134605161963e-04 
-7.981850025034e-04 -4.161080113052e-07 0.0 
-4.161080113052e-07 5.308479178574e-03 0.0 
0.0 0.0 -8.070151920887e-04 
-8.429634412097e-04 -1.709371110711e-06 0.0 
-1.709371110711e-06 5.581100165216e-03 0.0 
0.0 0.0 -8.451615393777e-04 
-7.696584184699e-04 -4.438777502690e-06 0.0 
-4.438777502690e-06 5.046252634616e-03 0.0 
0.0 0.0 -7.748096441827e-04 
-3.107010397172e-04 9.959927229254e-06 0.0 
9.959927229254e-06 1.894638977858e-03 0.0 
0.0 0.0 -3.155299188714e-04 
-8.095068364426e-04 -1.064416675752e-05 0.0 
-1.064416675752e-05 5.359424365734e-03 0.0 
0.0 0.0 -8.174106193842e-04 
-8.516632903957e-04 -1.548663215885e-05 0.0 
-1.548663215885e-05 5.659882039523e-03 0.0 
0.0 0.0 -8.556612431672e-04 
-1.454483653541e-04 3.285604104571e-06 0.0 
3.285604104571e-06 7.139538730243e-04 0.0 
0.0 0.0 -1.421329337195e-04 
-1.249632985061e-03 3.450770483262e-06 0.0 
3.450770483262e-06 8.450128189206e-03 0.0 
0.0 0.0 -1.259301554906e-03 
-1.652376678941e-04 -1.286666981347e-05 0.0 
-1.286666981347e-05 7.455520390208e-04 0.0 
0.0 0.0 -1.556443337539e-04 
-1.771144640534e-04 -1.673852043297e-05 0.0 
-1.673852043297e-05 9.409763732996e-04 0.0 
0.0 0.0 -1.806578101979e-04 
-1.211541890789e-03 1.467961613660e-05 0.0 
1.467961613660e-05 8.216069586299e-03 0.0 
0.0 0.0 -1.221214701962e-03 
-1.182137557378e-03 -1.347893005179e-06 0.0 
-1.347893005179e-06 7.946617508211e-03 0.0 
0.0 0.0 -1.184344882880e-03 
-1.248636598491e-03 -6.710766209713e-06 0.0 
-6.710766209713e-06 8.399111666310e-03 0.0 
0.0 0.0 -1.247726601234e-03 
-1.216304493113e-03 1.376146948645e-05 0.0 
1.376146948645e-05 8.121468603000e-03 0.0 
0.0 0.0 -1.211018817991e-03 
-1.146160367712e-03 -4.978228076882e-06 0.0 
-4.978228076882e-06 7.680298396241e-03 0.0 
0.0 0.0 -1.147066289601e-03 
-1.174333499691e-03 6.447300312305e-06 0.0 
6.447300312305e-06 7.890872304648e-03 0.0 
0.0 0.0 -1.176490610025e-03 
-8.022613359354e-04 -1.465561338708e-05 0.0 
-1.465561338708e-05 5.265642214057e-03 0.0 
0.0 0.0 -7.985989294648e-04 
-1.243628943204e-03 1.764986030872e-05 0.0 
1.764986030872e-05 8.400828657624e-03 0.0 
0.0 0.0 -1.249018369598e-03 
-1.202560827820e-03 4.472912903621e-06 0.0 
4.472912903621e-06 8.095627160272e-03 0.0 
0.0 0.0 -1.207442871744e-03 
-1.280707394095e-03 9.871433926358e-06 0.0 
9.871433926358e-06 8.646120131381e-03 0.0 
0.0 0.0 -1.277927415301e-03 
-6.139046463498e-04 4.062295408135e-06 0.0 
4.062295408135e-06 3.949909662933e-03 0.0 
0.0 0.0 -6.108003466767e-04 
-4.855763441254e-04 3.057596715554e-06 0.0 
3.057596715554e-06 3.031592722143e-03 0.0 
0.0 0.0 -4.789358348571e-04 
-4.592668061051e-04 2.643196690479e-06 0.0 
2.643196690479e-06 2.831145132009e-03 0.0 
0.0 0.0 -4.527251363391e-04 
-3.939664762502e-04 4.015896243424e-05 0.0 
4.015896243424e-05 2.394779108390e-03 0.0 
0.0 0.0 -3.875663759467e-04 
-1.235451159508e-03 5.414867173194e-06 0.0 
5.414867173194e-06 8.338545045283e-03 0.0 
0.0 0.0 -1.240180566941e-03 
-1.197541601819e-03 2.184484790423e-05 0.0 
2.184484790423e-05 8.058909055166e-03 0.0 
0.0 0.0 -1.200590015451e-03 
-1.087867486780e-03 1.085013592512e-06 0.0 
1.085013592512e-06 7.270465583492e-03 0.0 
0.0 0.0 -1.087555896896e-03 
-1.022984886136e-03 4.510930018261e-06 0.0 
4.510930018261e-06 6.802736585016e-03 0.0 
0.0 0.0 -1.020738973070e-03 
-8.163996236660e-04 7.186741062483e-06 0.0 
7.186741062483e-06 5.339991771102e-03 0.0 
0.0 0.0 -8.108182148135e-04 
-8.104965103200e-04 -8.251273631999e-06 0.0 
-8.251273631999e-06 5.308853861974e-03 0.0 
0.0 0.0 -8.077352941366e-04 
-8.720514006204e-04 3.179792081286e-05 0.0 
3.179792081286e-05 5.733381675574e-03 0.0 
0.0 0.0 -8.678526801547e-04 
-8.648510791427e-04 -7.111218047989e-06 0.0 
-7.111218047989e-06 5.661166370703e-03 0.0 
0.0 0.0 -8.609153521579e-04 
-9.263549734801e-04 3.033239231777e-05 0.0 
3.033239231777e-05 6.105443762298e-03 0.0 
0.0 0.0 -9.200517378055e-04 
-9.083479877115e-04 -1.416522287398e-05 0.0 
-1.416522287398e-05 6.036653926986e-03 0.0 
0.0 0.0 -9.108947733944e-04 
-9.698621139042e-04 -2.949214397531e-05 0.0 
-2.949214397531e-05 6.467199866666e-03 0.0 
0.0 0.0 -9.726914458129e-04 
-1.247222366311e-03 2.606056517107e-05 0.0 
2.606056517107e-05 8.375150940582e-03 0.0 
0.0 0.0 -1.245087786853e-03 
-3.186375953883e-04 9.254464651470e-06 0.0 
9.254464651470e-06 1.904578218722e-03 0.0 
0.0 0.0 -3.180830487989e-04 
-6.795655702328e-04 3.950407328818e-06 0.0 
3.950407328818e-06 4.416747400763e-03 0.0 
0.0 0.0 -6.783069842581e-04 
-1.217523867403e-03 -1.107710803929e-05 0.0 
-1.107710803929e-05 8.250220171501e-03 0.0 
0.0 0.0 -1.228261380050e-03 
-1.189954932966e-03 -3.389414248166e-06 0.0 
-3.389414248166e-06 7.976695802146e-03 0.0 
0.0 0.0 -1.187396807988e-03 
-6.030585832721e-04 2.040094254679e-06 0.0 
2.040094254679e-06 3.869813641297e-03 0.0 
0.0 0.0 -6.000944487132e-04 
-5.459736888774e-04 1.094222006423e-05 0.0 
1.094222006423e-05 3.457763009941e-03 0.0 
0.0 0.0 -5.401620014017e-04 
-1.244604975369e-03 1.395843640121e-05 0.0 
1.395843640121e-05 8.345755076324e-03 0.0 
0.0 0.0 -1.238794375355e-03 
-5.618086059147e-04 1.672788938663e-06 0.0 
1.672788938663e-06 3.593027472553e-03 0.0 
0.0 0.0 -5.600314934590e-04 
-1.295241739404e-03 -3.069672707254e-06 0.0 
-3.069672707254e-06 8.734931616820e-03 0.0 
0.0 0.0 -1.295459716840e-03 
-4.726518995245e-05 -5.619949717431e-06 0.0 
-5.619949717431e-06 2.661811301103e-04 0.0 
0.0 0.0 -5.690003420296e-05 
-1.291194022148e-04 1.153791065657e-05 0.0 
1.153791065657e-05 6.783732708890e-04 0.0 
0.0 0.0 -1.353443326634e-04 
-5.978702258073e-04 2.845759188033e-06 0.0 
2.845759188033e-06 3.846572588730e-03 0.0 
0.0 0.0 -5.969207367497e-04 
-6.645061217588e-04 1.210892726751e-06 0.0 
1.210892726751e-06 4.303380572845e-03 0.0 
0.0 0.0 -6.620222007989e-04 
-5.132181813278e-04 9.130074641247e-06 0.0 
9.130074641247e-06 3.278288147999e-03 0.0 
0.0 0.0 -5.157319100482e-04 
-4.860075133993e-04 2.990028342235e-06 0.0 
2.990028342235e-06 3.124396954495e-03 0.0 
0.0 0.0 -4.917183783407e-04 
-1.011317378684e-03 6.487621353869e-07 0.0 
6.487621353869e-07 6.733904614894e-03 0.0 
0.0 0.0 -1.010552660601e-03 
-1.970258742010e-04 -2.540004491937e-06 0.0 
-2.540004491937e-06 1.065332307301e-03 0.0 
0.0 0.0 -1.995083582888e-04 
-3.139166667020e-04 -2.253789274913e-06 0.0 
-2.253789274913e-06 1.850494599455e-03 0.0 
0.0 0.0 -3.106934562087e-04 
-9.732483420248e-04 2.855591412463e-05 0.0 
2.855591412463e-05 6.524849625930e-03 0.0 
0.0 0.0 -9.796923013958e-04 
-2.492954901946e-04 5.421975703601e-07 0.0 
5.421975703601e-07 1.421478567984e-03 0.0 
0.0 0.0 -2.487700610537e-04 
-1.054075874997e-03 3.591188931439e-06 0.0 
3.591188931439e-06 7.044165573929e-03 0.0 
0.0 0.0 -1.055800198362e-03 
-5.906078188001e-04 -3.257939390625e-06 0.0 
-3.257939390625e-06 3.796619652219e-03 0.0 
0.0 0.0 -5.891999696964e-04 
-7.180999395262e-04 1.178684333597e-07 0.0 
1.178684333597e-07 4.675154024113e-03 0.0 
0.0 0.0 -7.153500975001e-04 
-3.728153202836e-04 5.624284337180e-06 0.0 
5.624284337180e-06 2.280349559801e-03 0.0 
0.0 0.0 -3.721998919698e-04 
-5.103591414383e-04 -9.070033727981e-06 0.0 
-9.070033727981e-06 3.229749929793e-03 0.0 
0.0 0.0 -5.080103017801e-04 
-8.695833745558e-04 -3.060324942187e-06 0.0 
-3.060324942187e-06 5.711345853531e-03 0.0 
0.0 0.0 -8.638580894607e-04 
-8.186088136840e-04 -7.130242765400e-06 0.0 
-7.130242765400e-06 5.325410070609e-03 0.0 
0.0 0.0 -8.086477316853e-04 
-7.808475722582e-04 4.208348100154e-06 0.0 
4.208348100154e-06 5.088284712977e-03 0.0 
0.0 0.0 -7.738406155293e-04 
-6.192436331633e-04 -2.766602775214e-06 0.0 
-2.766602775214e-06 3.995359302638e-03 0.0 
0.0 0.0 -6.178822433291e-04 
-5.311490319335e-04 1.040423507353e-05 0.0 
1.040423507353e-05 3.373878795457e-03 0.0 
0.0 0.0 -5.288330985435e-04 
-4.650941372061e-04 3.123945634371e-06 0.0 
3.123945634371e-06 2.898874049441e-03 0.0 
0.0 0.0 -4.617239487405e-04 
-8.245081772930e-04 8.576273435806e-07 0.0 
8.576273435806e-07 5.414129368543e-03 0.0 
0.0 0.0 -8.213029907542e-04 
-1.107776256753e-03 4.822798209685e-06 0.0 
4.822798209685e-06 7.407183480602e-03 0.0 
0.0 0.0 -1.107475121065e-03 
-1.139123580733e-03 8.505935532864e-06 0.0 
8.505935532864e-06 7.608538315330e-03 0.0 
0.0 0.0 -1.136341617999e-03 
-1.199876040135e-03 -5.928463900834e-08 0.0 
-5.928463900834e-08 8.046533922637e-03 0.0 
0.0 0.0 -1.199268560344e-03 
-1.168168474149e-03 4.195650786326e-06 0.0 
4.195650786326e-06 7.812169121329e-03 0.0 
0.0 0.0 -1.164598082371e-03 
-1.102136352719e-03 2.455120919214e-06 0.0 
2.455120919214e-06 7.358887921961e-03 0.0 
0.0 0.0 -1.100413285504e-03 
-1.128466826395e-03 -6.206260029604e-06 0.0 
-6.206260029604e-06 7.555420673368e-03 0.0 
0.0 0.0 -1.129075729544e-03 
-1.196306272628e-03 1.070052804672e-05 0.0 
1.070052804672e-05 8.004295185816e-03 0.0 
0.0 0.0 -1.193594387005e-03 
-1.153224420722e-03 -4.335162695660e-08 0.0 
-4.335162695660e-08 7.767660328472e-03 0.0 
0.0 0.0 -1.159256375294e-03 
-1.235596637609e-03 -1.164422989239e-05 0.0 
-1.164422989239e-05 8.301735673801e-03 0.0 
0.0 0.0 -1.234286862126e-03 
-1.186419994292e-03 -1.475121185168e-05 0.0 
-1.475121185168e-05 7.963391228364e-03 0.0 
0.0 0.0 -1.187309181180e-03 
-1.120005548931e-03 2.940168057842e-06 0.0 
2.940168057842e-06 7.498615446152e-03 0.0 
0.0 0.0 -1.120864512401e-03 
-1.154875778754e-03 1.588860619804e-06 0.0 
1.588860619804e-06 7.686132635796e-03 0.0 
0.0 0.0 -1.147759711419e-03 
-1.213465252650e-03 -6.064802065597e-06 0.0 
-6.064802065597e-06 8.128624196229e-03 0.0 
0.0 0.0 -1.207767947030e-03 
-1.084932373400e-03 -2.016919157366e-06 0.0 
-2.016919157366e-06 7.235951787837e-03 0.0 
0.0 0.0 -1.082593982084e-03 
-1.254330692315e-03 -4.481726023086e-06 0.0 
-4.481726023086e-06 8.484172233715e-03 0.0 
0.0 0.0 -1.264544343569e-03 
-6.624416308103e-04 2.474610527098e-06 0.0 
2.474610527098e-06 4.298662523578e-03 0.0 
0.0 0.0 -6.621140475474e-04 
-1.785384896330e-04 7.817361308899e-06 0.0 
7.817361308899e-06 9.797346640556e-04 0.0 
0.0 0.0 -1.850918921636e-04 
-1.812548087706e-04 3.762529197937e-05 0.0 
3.762529197937e-05 9.321215546565e-04 0.0 
0.0 0.0 -1.767209935827e-04 
-7.539589003549e-04 1.955358916879e-06 0.0 
1.955358916879e-06 4.924010090496e-03 0.0 
0.0 0.0 -7.509174086159e-04 
-1.304930514548e-03 2.715145444475e-06 0.0 
2.715145444475e-06 8.760435441101e-03 0.0 
0.0 0.0 -1.299806302097e-03 
-1.304281806298e-03 1.236291440953e-07 0.0 
1.236291440953e-07 8.779429009152e-03 0.0 
0.0 0.0 -1.301753673823e-03 
-4.909194379315e-04 2.965411161255e-07 0.0 
2.965411161255e-07 3.101621980483e-03 0.0 
0.0 0.0 -4.895692906686e-04 
-1.302172698065e-03 -1.121402078111e-06 0.0 
-1.121402078111e-06 8.776859442822e-03 0.0 
0.0 0.0 -1.303413959896e-03 
-8.069978020621e-04 -2.494686579820e-06 0.0 
-2.494686579820e-06 5.276076784830e-03 0.0 
0.0 0.0 -8.012154088905e-04 
-3.570511327706e-04 3.379375906443e-06 0.0 
3.379375906443e-06 2.154968683645e-03 0.0 
0.0 0.0 -3.530685601169e-04 
-1.302556100553e-03 -9.155318300849e-06 0.0 
-9.155318300849e-06 8.779430224672e-03 0.0 
0.0 0.0 -1.304286792737e-03 
-1.070880273795e-03 7.212077137813e-06 0.0 
7.212077137813e-06 7.154951258216e-03 0.0 
0.0 0.0 -1.071440646998e-03 
-1.034235002280e-03 -1.284962224397e-06 0.0 
-1.284962224397e-06 6.899499474228e-03 0.0 
0.0 0.0 -1.034857077839e-03 
-1.003722632452e-03 2.735580280944e-06 0.0 
2.735580280944e-06 6.699806917378e-03 0.0 
0.0 0.0 -1.006057961993e-03 
-1.300150248326e-03 -1.392366785444e-05 0.0 
-1.392366785444e-05 8.797329976127e-03 0.0 
0.0 0.0 -1.305867370806e-03 
-9.260727886855e-04 3.160967958010e-07 0.0 
3.160967958010e-07 6.120955206479e-03 0.0 
0.0 0.0 -9.232948652302e-04 
-1.306196713142e-03 -8.296229578648e-06 0.0 
-8.296229578648e-06 8.804073325104e-03 0.0 
0.0 0.0 -1.306016332489e-03 
-9.052728605033e-04 -4.849094365265e-06 0.0 
-4.849094365265e-06 5.990555075409e-03 0.0 
0.0 0.0 -9.039903713831e-04 
-8.761060883680e-04 -1.507187481080e-06 0.0 
-1.507187481080e-06 5.787161046779e-03 0.0 
0.0 0.0 -8.747633066757e-04 
-8.116067085345e-04 -5.312091983301e-07 0.0 
-5.312091983301e-07 5.336659872116e-03 0.0 
0.0 0.0 -8.101682821885e-04 
-1.090435695547e-03 -5.471004820642e-06 0.0 
-5.471004820642e-06 7.297274492399e-03 0.0 
0.0 0.0 -1.092245366321e-03 
-1.304752605299e-03 5.119868144754e-06 0.0 
5.119868144754e-06 8.772978853590e-03 0.0 
0.0 0.0 -1.302677999426e-03 
-1.251945645214e-03 -2.706015879737e-06 0.0 
-2.706015879737e-06 8.407016214184e-03 0.0 
0.0 0.0 -1.248400714067e-03 
-1.246920299523e-03 -1.300681603294e-05 0.0 
-1.300681603294e-05 8.402409073512e-03 0.0 
0.0 0.0 -1.248426544684e-03 
-1.200536970879e-03 5.026882822601e-07 0.0 
5.026882822601e-07 8.002917905198e-03 0.0 
0.0 0.0 -1.189114855724e-03 
-1.300430795451e-03 -3.697458702299e-07 0.0 
-3.697458702299e-07 8.777742711435e-03 0.0 
0.0 0.0 -1.303398793257e-03 
-1.305040401458e-03 -2.477912411202e-06 0.0 
-2.477912411202e-06 8.792831145886e-03 0.0 
0.0 0.0 -1.306665994082e-03 
-1.309321026579e-03 -3.535422289666e-06 0.0 
-3.535422289666e-06 8.803291043654e-03 0.0 
0.0 0.0 -1.308500709484e-03 
-4.563282024572e-04 7.998262252154e-06 0.0 
7.998262252154e-06 2.871636865217e-03 0.0 
0.0 0.0 -4.564773689951e-04 
-4.946429183726e-04 2.495592359726e-06 0.0 
2.495592359726e-06 3.130328514227e-03 0.0 
0.0 0.0 -4.934415926888e-04 
-5.584596756046e-04 8.667542273931e-07 0.0 
8.667542273931e-07 3.577137698620e-03 0.0 
0.0 0.0 -5.576035839405e-04 
-5.302623041630e-04 -1.383760276117e-07 0.0 
-1.383760276117e-07 3.381956619872e-03 0.0 
0.0 0.0 -5.298816096007e-04 
-4.659671190879e-04 -4.163529231180e-07 0.0 
-4.163529231180e-07 2.931155601344e-03 0.0 
0.0 0.0 -4.652367627802e-04 
-5.016537237260e-04 2.063261409906e-06 0.0 
2.063261409906e-06 3.184734037305e-03 0.0 
0.0 0.0 -5.016361848483e-04 
-5.661735479294e-04 -1.745642799752e-06 0.0 
-1.745642799752e-06 3.632429034736e-03 0.0 
0.0 0.0 -5.657331850765e-04 
-4.736975024201e-04 4.166873871265e-06 0.0 
4.166873871265e-06 2.986059562016e-03 0.0 
0.0 0.0 -4.731795164401e-04 
-1.136859235010e-03 -3.377117996671e-07 0.0 
-3.377117996671e-07 7.623291641590e-03 0.0 
0.0 0.0 -1.138512926666e-03 
-1.305247072706e-03 8.619226715472e-06 0.0 
8.619226715472e-06 8.792398553622e-03 0.0 
0.0 0.0 -1.305779161548e-03 
-9.003036646772e-04 5.242872870099e-08 0.0 
5.242872870099e-08 5.967493708530e-03 0.0 
0.0 0.0 -9.007942405787e-04 
-8.714438606503e-04 -2.881495110645e-08 0.0 
-2.881495110645e-08 5.762779516703e-03 0.0 
0.0 0.0 -8.713600568839e-04 
-8.060291522058e-04 2.568870967989e-06 0.0 
2.568870967989e-06 5.307363937555e-03 0.0 
0.0 0.0 -8.059887332522e-04 
-6.767854044606e-04 -2.452778344841e-06 0.0 
-2.452778344841e-06 4.414816973838e-03 0.0 
0.0 0.0 -6.781883600425e-04 
-7.139648610370e-04 -1.142183076152e-06 0.0 
-1.142183076152e-06 4.673969170683e-03 0.0 
0.0 0.0 -7.153987595530e-04 
-7.802120795526e-04 -1.536270118856e-06 0.0 
-1.536270118856e-06 5.133033430624e-03 0.0 
0.0 0.0 -7.812419408864e-04 
-6.404629301343e-04 -4.612028746758e-06 0.0 
-4.612028746758e-06 4.156213633446e-03 0.0 
0.0 0.0 -6.407943132712e-04 
-9.874131908799e-04 -6.712457213201e-07 0.0 
-6.712457213201e-07 6.570776206516e-03 0.0 
0.0 0.0 -9.876394229526e-04 
-1.303361853095e-03 -8.460317239556e-06 0.0 
-8.460317239556e-06 8.788997264875e-03 0.0 
0.0 0.0 -1.305003056577e-03 
-8.872565026320e-04 -1.178797543714e-06 0.0 
-1.178797543714e-06 5.871190587017e-03 0.0 
0.0 0.0 -8.871663004355e-04 
-6.846436599198e-04 7.853769409056e-07 0.0 
7.853769409056e-07 4.472455721995e-03 0.0 
0.0 0.0 -6.865966444657e-04 
-7.539028914794e-04 -4.959050989062e-06 0.0 
-4.959050989062e-06 4.922681506756e-03 0.0 
0.0 0.0 -7.516786372745e-04 
-8.065421024267e-04 1.420005202742e-05 0.0 
1.420005202742e-05 5.322326400601e-03 0.0 
0.0 0.0 -8.094822736869e-04 
-8.086043951130e-04 -1.965516725377e-05 0.0 
-1.965516725377e-05 5.337498560082e-03 0.0 
0.0 0.0 -8.097394517040e-04 
-8.597670883848e-04 -1.890965562489e-05 0.0 
-1.890965562489e-05 5.752558822544e-03 0.0 
0.0 0.0 -8.733121467894e-04 
-8.092120706638e-04 -2.844643670805e-05 0.0 
-2.844643670805e-05 5.361887279047e-03 0.0 
0.0 0.0 -8.155917408702e-04 
-8.008122296240e-04 -3.960466263523e-06 0.0 
-3.960466263523e-06 5.274822743462e-03 0.0 
0.0 0.0 -8.015266587451e-04 
-8.309313177437e-04 -3.374628280082e-06 0.0 
-3.374628280082e-06 5.475720121040e-03 0.0 
0.0 0.0 -8.302790088839e-04 
-7.940624788884e-04 8.919203165315e-07 0.0 
8.919203165315e-07 5.224020544311e-03 0.0 
0.0 0.0 -7.937858958383e-04 
-8.582675862213e-04 -3.216784494421e-06 0.0 
-3.216784494421e-06 5.673950666655e-03 0.0 
0.0 0.0 -8.590670690980e-04 
-8.174868470622e-04 -1.134099850246e-05 0.0 
-1.134099850246e-05 5.408679153658e-03 0.0 
0.0 0.0 -8.213578559547e-04 
-7.534944197864e-04 -1.238974191231e-05 0.0 
-1.238974191231e-05 4.986891128186e-03 0.0 
0.0 0.0 -7.608744282309e-04 
-8.810221771506e-04 -8.901330273947e-06 0.0 
-8.901330273947e-06 5.862708610279e-03 0.0 
0.0 0.0 -8.866101721103e-04 
-8.418977428013e-04 7.461726785164e-06 0.0 
7.461726785164e-06 5.581554122099e-03 0.0 
0.0 0.0 -8.437388122980e-04 
-7.467365547974e-04 -1.323074519901e-05 0.0 
-1.323074519901e-05 4.916042254111e-03 0.0 
0.0 0.0 -7.509531518293e-04 
-6.281984343026e-05 -8.116789961943e-06 0.0 
-8.116789961943e-06 3.039228182762e-04 0.0 
0.0 0.0 -5.875963060191e-05 
-1.355333239518e-04 1.033404854003e-05 0.0 
1.033404854003e-05 6.720001517331e-04 0.0 
0.0 0.0 -1.336704791874e-04 
-1.282422711095e-04 -8.546555161067e-06 0.0 
-8.546555161067e-06 6.602474725937e-04 0.0 
0.0 0.0 -1.318084371690e-04 
-1.928083139697e-04 -4.221005670837e-06 0.0 
-4.221005670837e-06 1.041957248050e-03 0.0 
0.0 0.0 -1.954650243430e-04 
-2.029746956204e-04 1.944205005130e-05 0.0 
1.944205005130e-05 1.074330231207e-03 0.0 
0.0 0.0 -1.996745964068e-04 
-2.516532851574e-04 2.529704688885e-06 0.0 
2.529704688885e-06 1.468491691138e-03 0.0 
0.0 0.0 -2.586654344069e-04 
-2.430663838691e-04 -2.535368885226e-05 0.0 
-2.535368885226e-05 1.426461466079e-03 0.0 
0.0 0.0 -2.494736616194e-04 
-1.355920943443e-04 -1.133959606150e-05 0.0 
-1.133959606150e-05 6.743890404386e-04 0.0 
0.0 0.0 -1.329747880817e-04 
-5.916993316141e-05 -2.320129164536e-06 0.0 
-2.320129164536e-06 2.981065881978e-04 0.0 
0.0 0.0 -5.794854899121e-05 
-1.308876834568e-04 2.474427721016e-06 0.0 
2.474427721016e-06 6.544145800914e-04 0.0 
0.0 0.0 -1.315689628225e-04 
-5.700489183938e-05 1.676517162928e-06 0.0 
1.676517162928e-06 2.920832994483e-04 0.0 
0.0 0.0 -5.719792189481e-05 
-1.267870388795e-04 3.184293720064e-07 0.0 
3.184293720064e-07 6.426508649646e-04 0.0 
0.0 0.0 -1.299421249981e-04 
-1.994525793345e-04 4.316150581251e-06 0.0 
4.316150581251e-06 1.086316860704e-03 0.0 
0.0 0.0 -2.038865569970e-04 
-2.958463202672e-04 -2.325840136610e-07 0.0 
-2.325840136610e-07 1.726726422813e-03 0.0 
0.0 0.0 -2.925150634556e-04 
-1.301927001702e-03 1.803371535174e-05 0.0 
1.803371535174e-05 8.724914391627e-03 0.0 
0.0 0.0 -1.294874803588e-03 
-6.623633125060e-04 4.679424212514e-06 0.0 
4.679424212514e-06 4.281040174428e-03 0.0 
0.0 0.0 -6.595503360071e-04 
-6.354861751499e-04 1.876466608724e-05 0.0 
1.876466608724e-05 4.076331016795e-03 0.0 
0.0 0.0 -6.264797819744e-04 
-5.600446600075e-04 1.786449294601e-05 0.0 
1.786449294601e-05 3.606391450714e-03 0.0 
0.0 0.0 -5.641716646261e-04 
-6.018396249448e-04 -5.225124560804e-06 0.0 
-5.225124560804e-06 3.865969919155e-03 0.0 
0.0 0.0 -5.974662984275e-04 
-6.971605018600e-04 2.093612217780e-05 0.0 
2.093612217780e-05 4.459125829408e-03 0.0 
0.0 0.0 -6.865721209800e-04 
-5.253766316691e-04 1.379974747340e-05 0.0 
1.379974747340e-05 3.365120840457e-03 0.0 
0.0 0.0 -5.286920563404e-04 
-4.997160733495e-04 2.272416899085e-05 0.0 
2.272416899085e-05 3.215754431319e-03 0.0 
0.0 0.0 -5.038291843518e-04 
-6.458044435334e-05 -2.268465343248e-06 0.0 
-2.268465343248e-06 3.061057402814e-04 0.0 
0.0 0.0 -5.826474687104e-05 
-1.365107396446e-04 -1.511681688148e-05 0.0 
-1.511681688148e-05 6.671209083265e-04 0.0 
0.0 0.0 -1.338235891287e-04 
-1.329944671513e-04 1.728312419837e-05 0.0 
1.728312419837e-05 6.296869018316e-04 0.0 
0.0 0.0 -1.329549719063e-04 
-2.100970973320e-04 9.757108245941e-06 0.0 
9.757108245941e-06 1.064616598962e-03 0.0 
0.0 0.0 -1.976702944042e-04 
-1.907673612491e-04 -8.037251829839e-06 0.0 
-8.037251829839e-06 1.054607848416e-03 0.0 
0.0 0.0 -1.960684762570e-04 
-1.291399276805e-04 5.589927261901e-07 0.0 
5.589927261901e-07 6.717799826530e-04 0.0 
0.0 0.0 -1.329856363161e-04 
-1.332115243411e-04 1.116366171221e-05 0.0 
1.116366171221e-05 6.698553752901e-04 0.0 
0.0 0.0 -1.328726424774e-04 
-6.123018265422e-05 -2.226991271356e-06 0.0 
-2.226991271356e-06 2.966407899736e-04 0.0 
0.0 0.0 -5.786540529839e-05 
-1.318562850822e-04 -3.804233771773e-06 0.0 
-3.804233771773e-06 6.638255964619e-04 0.0 
0.0 0.0 -1.308611123410e-04 
-1.930153503724e-04 1.076682971487e-05 0.0 
1.076682971487e-05 1.064256298509e-03 0.0 
0.0 0.0 -1.994574706984e-04 
-5.202007941149e-05 -5.137534308526e-06 0.0 
-5.137534308526e-06 2.737802621694e-04 0.0 
0.0 0.0 -5.534513975843e-05 
-1.060096701056e-03 -2.854203109808e-05 0.0 
-2.854203109808e-05 7.080511066382e-03 0.0 
0.0 0.0 -1.060427308513e-03 
-1.101245431622e-03 -2.265554676226e-05 0.0 
-2.265554676226e-05 7.326835296988e-03 0.0 
0.0 0.0 -1.097082233180e-03 
-1.303771853134e-03 -3.955883839580e-06 0.0 
-3.955883839580e-06 8.773017437093e-03 0.0 
0.0 0.0 -1.300897016293e-03 
-7.525731418623e-04 -2.553654618198e-05 0.0 
-2.553654618198e-05 4.964909214712e-03 0.0 
0.0 0.0 -7.584009903415e-04 
-5.671099606206e-05 2.025225744384e-06 0.0 
2.025225744384e-06 2.971089711715e-04 0.0 
0.0 0.0 -5.884959645352e-05 
-1.296052575560e-03 -1.034030829996e-06 0.0 
-1.034030829996e-06 8.715505616406e-03 0.0 
0.0 0.0 -1.292107529982e-03 
-1.300241625373e-03 -1.196764903613e-05 0.0 
-1.196764903613e-05 8.782711832524e-03 0.0 
0.0 0.0 -1.303172775453e-03 
-1.297505069925e-03 9.380535181827e-06 0.0 
9.380535181827e-06 8.784349503541e-03 0.0 
0.0 0.0 -1.304823151597e-03 
-1.190737660973e-03 8.854859890049e-06 0.0 
8.854859890049e-06 7.990764728896e-03 0.0 
0.0 0.0 -1.191058493115e-03 
-1.217720710694e-03 3.907545697867e-06 0.0 
3.907545697867e-06 8.218811643119e-03 0.0 
0.0 0.0 -1.224322658093e-03 
-1.301588133362e-03 5.941663257066e-06 0.0 
5.941663257066e-06 8.722214772172e-03 0.0 
0.0 0.0 -1.294569364341e-03 
-4.491538872292e-04 3.425462149076e-06 0.0 
3.425462149076e-06 2.829494640627e-03 0.0 
0.0 0.0 -4.512809064328e-04 
-1.219121534789e-03 1.093707084889e-05 0.0 
1.093707084889e-05 8.264877250953e-03 0.0 
0.0 0.0 -1.225740639889e-03 
-1.181600644536e-03 2.602984545298e-06 0.0 
2.602984545298e-06 7.898254142128e-03 0.0 
0.0 0.0 -1.178628832109e-03 
-3.271245572877e-04 -7.559619564441e-07 0.0 
-7.559619564441e-07 1.969290585494e-03 0.0 
0.0 0.0 -3.268383546744e-04 
-4.353641825210e-04 2.390544680942e-06 0.0 
2.390544680942e-06 2.735090082528e-03 0.0 
0.0 0.0 -4.373623857420e-04 
-9.887113880157e-04 2.647202920658e-06 0.0 
2.647202920658e-06 6.590846789922e-03 0.0 
0.0 0.0 -9.899674718230e-04 
-9.119629022756e-04 -1.217041315548e-06 0.0 
-1.217041315548e-06 6.048161892543e-03 0.0 
0.0 0.0 -9.123979313600e-04 
-1.130689760044e-03 -2.404858458437e-06 0.0 
-2.404858458437e-06 7.563292742476e-03 0.0 
0.0 0.0 -1.130390451587e-03 
-9.324694232769e-04 5.707369421324e-08 0.0 
5.707369421324e-08 6.185987888161e-03 0.0 
0.0 0.0 -9.322225209316e-04 
-1.071273223037e-03 -3.400166334329e-06 0.0 
-3.400166334329e-06 7.166794807332e-03 0.0 
0.0 0.0 -1.073123358692e-03 
-1.246132006402e-03 2.306789458163e-05 0.0 
2.306789458163e-05 8.374889379432e-03 0.0 
0.0 0.0 -1.244129926109e-03 
-2.805652380378e-04 -4.717906580444e-06 0.0 
-4.717906580444e-06 1.732830044642e-03 0.0 
0.0 0.0 -2.939217362394e-04 
-9.366102056303e-04 6.334636788540e-06 0.0 
6.334636788540e-06 6.210934504197e-03 0.0 
0.0 0.0 -9.364826870394e-04 
-9.120035044512e-04 6.559904903640e-06 0.0 
6.559904903640e-06 6.042070421320e-03 0.0 
0.0 0.0 -9.130351872960e-04 
-1.076387052139e-03 -3.360138210491e-06 0.0 
-3.360138210491e-06 7.184148688862e-03 0.0 
0.0 0.0 -1.075939795031e-03 
-4.728102684627e-04 -4.847791376172e-06 0.0 
-4.847791376172e-06 2.971951481931e-03 0.0 
0.0 0.0 -4.709579147287e-04 
-7.280869989337e-04 -1.354131871902e-05 0.0 
-1.354131871902e-05 4.780585004203e-03 0.0 
0.0 0.0 -7.304257169629e-04 
-3.156217836785e-04 -5.089469505394e-06 0.0 
-5.089469505394e-06 1.850033331779e-03 0.0 
0.0 0.0 -3.104331955072e-04 
-1.248490279357e-03 4.323593742191e-06 0.0 
4.323593742191e-06 8.417241528006e-03 0.0 
0.0 0.0 -1.251461238623e-03 
-7.622164195474e-04 2.744443286041e-08 0.0 
2.744443286041e-08 4.979735740211e-03 0.0 
0.0 0.0 -7.590395520047e-04 
-7.692339302932e-04 1.865673827908e-06 0.0 
1.865673827908e-06 5.052106796517e-03 0.0 
0.0 0.0 -7.694287042311e-04 
-6.089514047186e-04 -2.827610219313e-06 0.0 
-2.827610219313e-06 3.952389816829e-03 0.0 
0.0 0.0 -6.120242822960e-04 
-4.863994982411e-04 4.620884363803e-06 0.0 
4.620884363803e-06 3.095071946727e-03 0.0 
0.0 0.0 -4.894362539292e-04 
-4.085285658609e-04 2.731393984612e-06 0.0 
2.731393984612e-06 2.545768838986e-03 0.0 
0.0 0.0 -4.100935076628e-04 
-6.992575820323e-04 4.870514854699e-06 0.0 
4.870514854699e-06 4.559959934010e-03 0.0 
0.0 0.0 -6.990242139688e-04 
-7.223263303115e-04 1.302313524944e-06 0.0 
1.302313524944e-06 4.731940689569e-03 0.0 
0.0 0.0 -7.237531747479e-04 
-1.024699739881e-03 1.653915686907e-06 0.0 
1.653915686907e-06 6.828723699735e-03 0.0 
0.0 0.0 -1.024340108609e-03 
-1.114669738223e-03 -2.759101931756e-06 0.0 
-2.759101931756e-06 7.438940293733e-03 0.0 
0.0 0.0 -1.112552678551e-03 
-7.837510010110e-05 1.769113863605e-05 0.0 
1.769113863605e-05 3.475076993491e-04 0.0 
0.0 0.0 -7.176178390651e-05 
-1.061119640742e-03 3.173187948481e-06 0.0 
3.173187948481e-06 7.087064478518e-03 0.0 
0.0 0.0 -1.061672265243e-03 
-8.547259828445e-04 -2.557127369108e-07 0.0 
-2.557127369108e-07 5.648936137093e-03 0.0 
0.0 0.0 -8.552253422611e-04 
-9.623974161653e-04 3.311768495808e-06 0.0 
3.311768495808e-06 6.381924133008e-03 0.0 
0.0 0.0 -9.599091010803e-04 
-1.065648191468e-03 -5.923271574285e-06 0.0 
-5.923271574285e-06 7.096345784584e-03 0.0 
0.0 0.0 -1.062640036239e-03 
-2.783998705012e-04 -2.298480854645e-06 0.0 
-2.298480854645e-06 1.715267207971e-03 0.0 
0.0 0.0 -2.909097700217e-04 
-1.100348444179e-03 -1.047118262827e-06 0.0 
-1.047118262827e-06 7.347575470432e-03 0.0 
0.0 0.0 -1.098747615487e-03 
-1.217488030174e-03 6.848117353209e-06 0.0 
6.848117353209e-06 8.139341092548e-03 0.0 
0.0 0.0 -1.212453547082e-03 
-8.838417845426e-04 -2.547521654436e-05 0.0 
-2.547521654436e-05 5.856172789859e-03 0.0 
0.0 0.0 -8.875094802107e-04 
-2.462642296247e-04 -5.029644419162e-06 0.0 
-5.029644419162e-06 1.395111957816e-03 0.0 
0.0 0.0 -2.442495876194e-04 
-8.759046619095e-04 5.034941322805e-06 0.0 
5.034941322805e-06 5.740576630140e-03 0.0 
0.0 0.0 -8.692469099983e-04 
-1.203793389362e-03 4.534763565521e-06 0.0 
4.534763565521e-06 8.059936526886e-03 0.0 
0.0 0.0 -1.202705989510e-03 
-1.079080060508e-03 -5.136331411330e-07 0.0 
-5.136331411330e-07 7.205755043523e-03 0.0 
0.0 0.0 -1.078220320736e-03 
-4.314372885713e-04 -1.108621221051e-05 0.0 
-1.108621221051e-05 2.708353444584e-03 0.0 
0.0 0.0 -4.336020471383e-04 
-7.948364969143e-04 -2.495821117466e-06 0.0 
-2.495821117466e-06 5.224923007330e-03 0.0 
0.0 0.0 -7.943514531093e-04 
-7.442299034792e-04 7.080946298819e-07 0.0 
7.080946298819e-07 4.865637424934e-03 0.0 
0.0 0.0 -7.428158978947e-04 
-6.789224573102e-04 -9.062719812298e-06 0.0 
-9.062719812298e-06 4.471649261705e-03 0.0 
0.0 0.0 -6.865907729104e-04 
-1.214586438871e-03 8.024689912005e-06 0.0 
8.024689912005e-06 8.094834481891e-03 0.0 
0.0 0.0 -1.206557591227e-03 
-8.183792108392e-04 -4.169826119289e-07 0.0 
-4.169826119289e-07 5.384604412960e-03 0.0 
0.0 0.0 -8.172945450070e-04 
-1.123489439230e-03 6.695635103125e-06 0.0 
6.695635103125e-06 7.497291039553e-03 0.0 
0.0 0.0 -1.120054252910e-03 
-9.239887439885e-04 -3.012520915635e-06 0.0 
-3.012520915635e-06 6.128004255690e-03 0.0 
0.0 0.0 -9.240809108919e-04 
-4.625644487372e-04 -4.132620430772e-06 0.0 
-4.132620430772e-06 2.914638302916e-03 0.0 
0.0 0.0 -4.629711029823e-04 
-1.121328625940e-03 -6.182944165330e-06 0.0 
-6.182944165330e-06 7.491651595506e-03 0.0 
0.0 0.0 -1.118919378802e-03 
-7.755037056980e-04 -1.629710765716e-06 0.0 
-1.629710765716e-06 5.087191610180e-03 0.0 
0.0 0.0 -7.743986277066e-04 
-1.165062879850e-03 -3.169874331001e-06 0.0 
-3.169874331001e-06 7.809274989077e-03 0.0 
0.0 0.0 -1.164614768973e-03 
-1.031438669585e-03 -5.272017896807e-06 0.0 
-5.272017896807e-06 6.875819044250e-03 0.0 
0.0 0.0 -1.031533309622e-03 
-6.383681651354e-04 -1.646563539662e-06 0.0 
-1.646563539662e-06 4.132113027582e-03 0.0 
0.0 0.0 -6.375205594687e-04 
-1.120494149395e-03 -5.362450288189e-06 0.0 
-5.362450288189e-06 7.500323563236e-03 0.0 
0.0 0.0 -1.121170216299e-03 
-7.780649319143e-04 1.815637845550e-06 0.0 
1.815637845550e-06 5.106477756251e-03 0.0 
0.0 0.0 -7.773091661689e-04 
-1.101658644117e-03 9.961254280386e-07 0.0 
9.961254280386e-07 7.356355521752e-03 0.0 
0.0 0.0 -1.099429584637e-03 
-7.271456150641e-04 1.682914491907e-06 0.0 
1.682914491907e-06 4.735785920808e-03 0.0 
0.0 0.0 -7.240542973723e-04 
-9.053111554421e-04 -2.304698340663e-06 0.0 
-2.304698340663e-06 5.989601996014e-03 0.0 
0.0 0.0 -9.041109700986e-04 
-9.863008524358e-04 -3.464876425145e-06 0.0 
-3.464876425145e-06 6.537147458198e-03 0.0 
0.0 0.0 -9.824247929831e-04 
-8.612973840953e-04 -1.473763681908e-07 0.0 
-1.473763681908e-07 5.687311619382e-03 0.0 
0.0 0.0 -8.608216255090e-04 
-9.529955923155e-04 1.728497531747e-05 0.0 
1.728497531747e-05 6.336375010902e-03 0.0 
0.0 0.0 -9.534332399069e-04 
-1.092284604608e-03 2.589702392237e-06 0.0 
2.589702392237e-06 7.290468944473e-03 0.0 
0.0 0.0 -1.090315851396e-03 
-3.119597294078e-04 5.757369509454e-07 0.0 
5.757369509454e-07 1.828570008309e-03 0.0 
0.0 0.0 -3.071334217218e-04 
-5.718786607335e-04 -4.107371136129e-07 0.0 
-4.107371136129e-07 3.675898340669e-03 0.0 
0.0 0.0 -5.719042557127e-04 
-9.488327861295e-04 -5.202841949995e-06 0.0 
-5.202841949995e-06 6.331676782321e-03 0.0 
0.0 0.0 -9.536514739466e-04 
-1.157212024015e-03 -6.515732433153e-06 0.0 
-6.515732433153e-06 7.701144359915e-03 0.0 
0.0 0.0 -1.150585697120e-03 
-1.224312444037e-03 6.690841738660e-06 0.0 
6.690841738660e-06 8.269264616708e-03 0.0 
0.0 0.0 -1.229329624135e-03 
-6.820956806615e-04 3.615386019403e-06 0.0 
3.615386019403e-06 4.429302489243e-03 0.0 
0.0 0.0 -6.801182747099e-04 
-1.081664045678e-03 -5.547367653092e-06 0.0 
-5.547367653092e-06 7.227268260236e-03 0.0 
0.0 0.0 -1.081576975854e-03 
-1.187584404498e-03 2.370146928360e-06 0.0 
2.370146928360e-06 7.946791552093e-03 0.0 
0.0 0.0 -1.185355684152e-03 
-7.511569300737e-04 3.681739321803e-07 0.0 
3.681739321803e-07 4.931952546785e-03 0.0 
0.0 0.0 -7.524367508395e-04 
-3.356805227239e-04 3.379744479913e-06 0.0 
3.379744479913e-06 2.005119320146e-03 0.0 
0.0 0.0 -3.333104686742e-04 
-2.618377986137e-04 -2.555233257102e-06 0.0 
-2.555233257102e-06 1.542022096797e-03 0.0 
0.0 0.0 -2.654833071040e-04 
-5.104550227812e-04 2.453007206934e-06 0.0 
2.453007206934e-06 3.238650363468e-03 0.0 
0.0 0.0 -5.092532232582e-04 
-7.832353398933e-04 -9.887778138200e-09 0.0 
-9.887778138200e-09 5.137653853930e-03 0.0 
0.0 0.0 -7.817448632792e-04 
-8.173389799679e-04 -1.106611203733e-06 0.0 
-1.106611203733e-06 5.390375532825e-03 0.0 
0.0 0.0 -8.181699076277e-04 
-1.246124432281e-03 8.592622963334e-06 0.0 
8.592622963334e-06 8.369587963902e-03 0.0 
0.0 0.0 -1.242275372262e-03 
-1.107849420052e-03 -3.778759466968e-06 0.0 
-3.778759466968e-06 7.425444910215e-03 0.0 
0.0 0.0 -1.110186454522e-03 
-1.040708302916e-03 -6.884984212010e-06 0.0 
-6.884984212010e-06 6.941970815521e-03 0.0 
0.0 0.0 -1.040857148505e-03 
-1.527209700993e-04 7.546329121840e-06 0.0 
7.546329121840e-06 7.439800217049e-04 0.0 
0.0 0.0 -1.519369657486e-04 
-7.102565865705e-04 9.145208254823e-06 0.0 
9.145208254823e-06 4.653234839291e-03 0.0 
0.0 0.0 -7.126371066839e-04 
-1.135597595821e-03 -4.213475059683e-06 0.0 
-4.213475059683e-06 7.626732622695e-03 0.0 
0.0 0.0 -1.139074001596e-03 
-8.226822624901e-04 -1.510040807202e-06 0.0 
-1.510040807202e-06 5.420363658064e-03 0.0 
0.0 0.0 -8.223634564932e-04 
-1.130518051871e-03 1.404153544734e-06 0.0 
1.404153544734e-06 7.542933512680e-03 0.0 
0.0 0.0 -1.126725356868e-03 
-7.730615027956e-04 -9.222257900681e-07 0.0 
-9.222257900681e-07 5.135473060459e-03 0.0 
0.0 0.0 -7.817916451012e-04 
-1.247411460160e-03 -9.243273431626e-06 0.0 
-9.243273431626e-06 8.408376939558e-03 0.0 
0.0 0.0 -1.249754184115e-03 
-5.771690213087e-04 1.052821776230e-05 0.0 
1.052821776230e-05 3.703652171226e-03 0.0 
0.0 0.0 -5.757576642514e-04 
-1.170100609579e-03 -4.592953287667e-06 0.0 
-4.592953287667e-06 7.841109684677e-03 0.0 
0.0 0.0 -1.168790087466e-03 
-1.048740829087e-03 7.093154405118e-06 0.0 
7.093154405118e-06 6.993148920806e-03 0.0 
0.0 0.0 -1.047452346298e-03 
-5.261911269690e-04 1.909166491034e-06 0.0 
1.909166491034e-06 3.348024093927e-03 0.0 
0.0 0.0 -5.248669331578e-04 
-7.497340550745e-04 3.779029275121e-06 0.0 
3.779029275121e-06 4.910648048132e-03 0.0 
0.0 0.0 -7.498068730476e-04 
-1.245763281564e-03 6.672330238112e-06 0.0 
6.672330238112e-06 8.371772027766e-03 0.0 
0.0 0.0 -1.243807156011e-03 
-1.117703748533e-03 2.194090469623e-06 0.0 
2.194090469623e-06 7.455079503703e-03 0.0 
0.0 0.0 -1.114542488500e-03 
-9.240113812817e-04 -1.198482107010e-06 0.0 
-1.198482107010e-06 6.127698402996e-03 0.0 
0.0 0.0 -9.240346875991e-04 
-7.861216138726e-04 -9.318371198971e-07 0.0 
-9.318371198971e-07 5.164682558518e-03 0.0 
0.0 0.0 -7.856950878877e-04 
-6.177367695525e-04 -9.517786211563e-06 0.0 
-9.517786211563e-06 3.998918706787e-03 0.0 
0.0 0.0 -6.191377506773e-04 
-8.459389819467e-04 -1.995047945433e-06 0.0 
-1.995047945433e-06 5.590510800112e-03 0.0 
0.0 0.0 -8.467704336814e-04 
-9.417404110639e-04 -4.713677469938e-06 0.0 
-4.713677469938e-06 6.237570578551e-03 0.0 
0.0 0.0 -9.395224721591e-04 
-1.301810218994e-03 1.765430740851e-06 0.0 
1.765430740851e-06 8.802491938361e-03 0.0 
0.0 0.0 -1.306889097489e-03 
-1.157353199815e-03 -3.220404905657e-06 0.0 
-3.220404905657e-06 7.685679656852e-03 0.0 
0.0 0.0 -1.148622835147e-03 
-9.680073786691e-04 -7.171826150540e-06 0.0 
-7.171826150540e-06 6.444265355765e-03 0.0 
0.0 0.0 -9.696660045843e-04 
-8.086257517038e-04 -2.588621595282e-06 0.0 
-2.588621595282e-06 5.331381971752e-03 0.0 
0.0 0.0 -8.097439408559e-04 
-9.758814597954e-04 -1.266881133519e-06 0.0 
-1.266881133519e-06 6.485358460050e-03 0.0 
0.0 0.0 -9.749840279683e-04 
-1.830817571470e-04 -6.180925807514e-06 0.0 
-6.180925807514e-06 1.047535156776e-03 0.0 
0.0 0.0 -1.970089232863e-04 
-6.448165884168e-04 4.844410112051e-06 0.0 
4.844410112051e-06 4.184395435775e-03 0.0 
0.0 0.0 -6.447622526173e-04 
-8.380376970069e-04 -3.326700526570e-06 0.0 
-3.326700526570e-06 5.530905952602e-03 0.0 
0.0 0.0 -8.382314227178e-04 
-5.380831595536e-04 5.638960694157e-07 0.0 
5.638960694157e-07 3.435054469080e-03 0.0 
0.0 0.0 -5.374563060555e-04 
-8.145911171393e-04 -5.272270293876e-07 0.0 
-5.272270293876e-07 5.360444702331e-03 0.0 
0.0 0.0 -8.136389561866e-04 
-1.227174802196e-03 1.276784792674e-05 0.0 
1.276784792674e-05 8.302917635780e-03 0.0 
0.0 0.0 -1.234277959947e-03 
-8.676280294557e-04 -2.040186177103e-06 0.0 
-2.040186177103e-06 5.731120870230e-03 0.0 
0.0 0.0 -8.668853676281e-04 
-6.021329393957e-04 -1.386838022365e-06 0.0 
-1.386838022365e-06 3.881394728410e-03 0.0 
0.0 0.0 -6.015264011954e-04 
-8.964491756309e-04 6.553805878039e-07 0.0 
6.553805878039e-07 5.929532426753e-03 0.0 
0.0 0.0 -8.955981815692e-04 
-5.512424861372e-04 -5.409275769267e-06 0.0 
-5.409275769267e-06 3.527258760375e-03 0.0 
0.0 0.0 -5.519888345566e-04 
-9.985595773763e-04 -1.015463228059e-05 0.0 
-1.015463228059e-05 6.646851321069e-03 0.0 
0.0 0.0 -9.983267706061e-04 
-9.215064714085e-04 1.407126120283e-07 0.0 
1.407126120283e-07 6.123536504565e-03 0.0 
0.0 0.0 -9.243533921793e-04 
-1.004433427130e-03 -6.175544373030e-06 0.0 
-6.175544373030e-06 6.679704057184e-03 0.0 
0.0 0.0 -1.003151257071e-03 
-2.014979142818e-04 -1.982424414319e-05 0.0 
-1.982424414319e-05 1.118628598720e-03 0.0 
0.0 0.0 -2.040322045631e-04 
-9.524490800155e-04 -1.599154771324e-06 0.0 
-1.599154771324e-06 6.321577882661e-03 0.0 
0.0 0.0 -9.517466134248e-04 
-1.151323095747e-03 8.970357597644e-06 0.0 
8.970357597644e-06 7.737810625971e-03 0.0 
0.0 0.0 -1.155419075730e-03 
-5.642242598448e-04 4.052530886012e-06 0.0 
4.052530886012e-06 3.629354201895e-03 0.0 
0.0 0.0 -5.654343806685e-04 
-8.430123869833e-04 1.789712430402e-06 0.0 
1.789712430402e-06 5.558821852331e-03 0.0 
0.0 0.0 -8.420324705410e-04 
-1.064235786948e-03 -6.087517053087e-06 0.0 
-6.087517053087e-06 7.102031703649e-03 0.0 
0.0 0.0 -1.063653581392e-03 
-4.868392782287e-04 -2.122282903209e-05 0.0 
-2.122282903209e-05 3.049667270729e-03 0.0 
0.0 0.0 -4.839843007303e-04 
-9.081670479201e-04 2.415755652439e-07 0.0 
2.415755652439e-07 6.014517114267e-03 0.0 
0.0 0.0 -9.074658271045e-04 
-1.068096740287e-03 -5.575043742394e-06 0.0 
-5.575043742394e-06 7.125147388201e-03 0.0 
0.0 0.0 -1.067288052377e-03 
-9.808487270250e-04 4.928616331368e-06 0.0 
4.928616331368e-06 6.520553626334e-03 0.0 
0.0 0.0 -9.801762873724e-04 
-8.470889807538e-04 7.350311736710e-07 0.0 
7.350311736710e-07 5.583629027931e-03 0.0 
0.0 0.0 -8.455731917576e-04 
-9.738610544212e-04 -1.605198629571e-06 0.0 
-1.605198629571e-06 6.476533283027e-03 0.0 
0.0 0.0 -9.738262179588e-04 
-5.107285056984e-04 1.726041735429e-05 0.0 
1.726041735429e-05 3.222108758113e-03 0.0 
0.0 0.0 -5.057041985798e-04 
-4.224983753939e-04 8.320492048914e-06 0.0 
8.320492048914e-06 2.639215696168e-03 0.0 
0.0 0.0 -4.238464704258e-04 
-3.592226638991e-04 1.930188485338e-06 0.0 
1.930188485338e-06 2.185168436497e-03 0.0 
0.0 0.0 -3.586180353125e-04 
-6.301304693072e-04 -1.957277653439e-06 0.0 
-1.957277653439e-06 4.076615728565e-03 0.0 
0.0 0.0 -6.294631353604e-04 
-1.103647244802e-03 -2.847244465012e-06 0.0 
-2.847244465012e-06 7.378786394117e-03 0.0 
0.0 0.0 -1.103081964739e-03 
-2.559482480598e-04 -2.299545213337e-05 0.0 
-2.299545213337e-05 1.449439224095e-03 0.0 
0.0 0.0 -2.521214004998e-04 
-1.054932560315e-03 -8.075575040939e-06 0.0 
-8.075575040939e-06 7.041307941420e-03 0.0 
0.0 0.0 -1.054898413167e-03 
-2.650995954687e-04 -9.741906018430e-06 0.0 
-9.741906018430e-06 1.540523614087e-03 0.0 
0.0 0.0 -2.660187670962e-04 
-5.941857965255e-04 -1.478675907358e-06 0.0 
-1.478675907358e-06 3.826673915507e-03 0.0 
0.0 0.0 -5.935709857392e-04 
-1.072876015775e-03 5.343583090715e-06 0.0 
5.343583090715e-06 7.192683716525e-03 0.0 
0.0 0.0 -1.077081564483e-03 
-9.321388457541e-04 -4.809931635804e-05 0.0 
-4.809931635804e-05 6.189086367178e-03 0.0 
0.0 0.0 -9.315431351609e-04 
-6.217808576271e-04 7.207492673365e-07 0.0 
7.207492673365e-07 4.019499781701e-03 0.0 
0.0 0.0 -6.211106552582e-04 
-3.980785928310e-04 9.124267879156e-06 0.0 
9.124267879156e-06 2.462820491612e-03 0.0 
0.0 0.0 -3.989951351066e-04 
-5.857792725332e-04 1.985647166840e-06 0.0 
1.985647166840e-06 3.767357559114e-03 0.0 
0.0 0.0 -5.850331209179e-04 
-9.112445775697e-04 1.341366700746e-06 0.0 
1.341366700746e-06 6.030641515549e-03 0.0 
0.0 0.0 -9.098959706900e-04 
-6.128747489382e-04 2.675469426610e-06 0.0 
2.675469426610e-06 3.959229262623e-03 0.0 
0.0 0.0 -6.124823626799e-04 
-5.756573688348e-04 3.659606376946e-06 0.0 
3.659606376946e-06 3.704306399129e-03 0.0 
0.0 0.0 -5.760838601101e-04 
-1.248717565768e-03 -5.535813130846e-06 0.0 
-5.535813130846e-06 8.366851373819e-03 0.0 
0.0 0.0 -1.242975171717e-03 
-6.019390184711e-04 5.185969946797e-06 0.0 
5.185969946797e-06 3.892334269077e-03 0.0 
0.0 0.0 -6.030381679152e-04 
-1.295271260153e-03 -1.307857609192e-05 0.0 
-1.307857609192e-05 8.801391727423e-03 0.0 
0.0 0.0 -1.305370344976e-03 
-1.297876901994e-03 -6.017750132352e-06 0.0 
-6.017750132352e-06 8.756844234735e-03 0.0 
0.0 0.0 -1.298405437673e-03 
-8.024513087945e-04 -3.501513188687e-05 0.0 
-3.501513188687e-05 5.274019348334e-03 0.0 
0.0 0.0 -7.997855503562e-04 
-4.254874939528e-04 2.211998048868e-05 0.0 
2.211998048868e-05 2.578130903576e-03 0.0 
0.0 0.0 -4.121418992062e-04 
-6.508445551723e-05 3.373963354690e-06 0.0 
3.373963354690e-06 3.129607731290e-04 0.0 
0.0 0.0 -6.767973558354e-05 
-4.292600751843e-04 -1.740584050413e-05 0.0 
-1.740584050413e-05 2.722306669060e-03 0.0 
0.0 0.0 -4.369243393394e-04 
-4.999202719491e-04 4.843301359547e-06 0.0 
4.843301359547e-06 3.182731173833e-03 0.0 
0.0 0.0 -5.013603847490e-04 
-1.049593438910e-03 4.881772467583e-07 0.0 
4.881772467583e-07 6.980157933883e-03 0.0 
0.0 0.0 -1.045752072333e-03 
-8.016418655660e-04 8.516902983733e-06 0.0 
8.516902983733e-06 5.282246051091e-03 0.0 
0.0 0.0 -8.029817139903e-04 
-4.608886666597e-04 1.012378092174e-05 0.0 
1.012378092174e-05 2.916090626050e-03 0.0 
0.0 0.0 -4.630712860745e-04 
-1.246806949158e-03 1.140227857438e-06 0.0 
1.140227857438e-06 8.413894031447e-03 0.0 
0.0 0.0 -1.250093291501e-03 
-1.307722546221e-03 -1.676098542472e-05 0.0 
-1.676098542472e-05 8.791128539895e-03 0.0 
0.0 0.0 -1.306737725957e-03 
-1.028575866269e-03 -1.191239422504e-05 0.0 
-1.191239422504e-05 6.846657277970e-03 0.0 
0.0 0.0 -1.028769680629e-03 
-1.163087821654e-03 1.345534459018e-05 0.0 
1.345534459018e-05 7.719562356736e-03 0.0 
0.0 0.0 -1.152835590205e-03 
-1.010012111677e-03 5.602799068574e-06 0.0 
5.602799068574e-06 6.735304706068e-03 0.0 
0.0 0.0 -1.010595862668e-03 
-1.192917845756e-03 -1.946426676365e-05 0.0 
-1.946426676365e-05 7.943592006894e-03 0.0 
0.0 0.0 -1.185717314024e-03 
-7.402744024553e-04 -5.561571202994e-05 0.0 
-5.561571202994e-05 4.875197844443e-03 0.0 
0.0 0.0 -7.451086181774e-04 
-1.274079564101e-04 8.533594738718e-07 0.0 
8.533594738718e-07 6.386951496409e-04 0.0 
0.0 0.0 -1.305770345747e-04 
-9.879127130266e-04 1.076817561932e-05 0.0 
1.076817561932e-05 6.567110452730e-03 0.0 
0.0 0.0 -9.879584850274e-04 
-3.534515362331e-04 7.236051672509e-06 0.0 
7.236051672509e-06 2.087202708593e-03 0.0 
0.0 0.0 -3.437331075899e-04 
-3.524709716392e-04 5.779652154937e-07 0.0 
5.779652154937e-07 2.140761807693e-03 0.0 
0.0 0.0 -3.524505972177e-04 
-2.862323044565e-04 -1.529779689704e-06 0.0 
-1.529779689704e-06 1.660184670344e-03 0.0 
0.0 0.0 -2.832406441101e-04 
-4.971401695179e-04 3.027225826791e-06 0.0 
3.027225826791e-06 3.086653370969e-03 0.0 
0.0 0.0 -4.856826860430e-04 
-1.849802147030e-04 7.362673378462e-06 0.0 
7.362673378462e-06 1.024898749324e-03 0.0 
0.0 0.0 -1.942844358666e-04 
-2.871589559832e-04 8.860091783271e-06 0.0 
8.860091783271e-06 1.702387296045e-03 0.0 
0.0 0.0 -2.888902821290e-04 
-1.252722980053e-03 -1.832850037119e-05 0.0 
-1.832850037119e-05 8.369674222349e-03 0.0 
0.0 0.0 -1.245112051941e-03 
-7.926742292646e-04 -4.732996368771e-05 0.0 
-4.732996368771e-05 5.282443543312e-03 0.0 
0.0 0.0 -8.050116406322e-04 
-1.106262153398e-03 -9.161465296484e-06 0.0 
-9.161465296484e-06 7.422861484469e-03 0.0 
0.0 0.0 -1.110409235593e-03 
-2.195876704695e-04 6.903728268320e-06 0.0 
6.903728268320e-06 1.223775342103e-03 0.0 
0.0 0.0 -2.210826640180e-04 
-1.251801969841e-03 -1.462670654941e-05 0.0 
-1.462670654941e-05 8.397461752409e-03 0.0 
0.0 0.0 -1.247366155457e-03 
-1.250359073208e-03 6.645071777124e-06 0.0 
6.645071777124e-06 8.395286537502e-03 0.0 
0.0 0.0 -1.246608778627e-03 
-1.310061522222e-03 -1.730900586740e-05 0.0 
-1.730900586740e-05 8.803293803047e-03 0.0 
0.0 0.0 -1.306249356034e-03 
-1.172119357565e-03 -2.987465004731e-06 0.0 
-2.987465004731e-06 7.878008992010e-03 0.0 
0.0 0.0 -1.176371721005e-03 
-2.180388128944e-04 -2.924544915624e-06 0.0 
-2.924544915624e-06 1.180274271759e-03 0.0 
0.0 0.0 -2.130604828246e-04 
-8.442593127821e-04 -4.359073983633e-05 0.0 
-4.359073983633e-05 5.668047935442e-03 0.0 
0.0 0.0 -8.603500797662e-04 
-1.256774464996e-03 -9.387217043006e-06 0.0 
-9.387217043006e-06 8.415646483150e-03 0.0 
0.0 0.0 -1.250827372426e-03 
-1.072962494745e-03 -3.075351322395e-06 0.0 
-3.075351322395e-06 7.220489030587e-03 0.0 
0.0 0.0 -1.080253149739e-03 
-1.299956315864e-03 5.907340655945e-05 0.0 
5.907340655945e-05 8.822006705032e-03 0.0 
0.0 0.0 -1.309985050881e-03 
-7.806106637019e-04 -1.684448248671e-06 0.0 
-1.684448248671e-06 5.212548371629e-03 0.0 
0.0 0.0 -7.979019438933e-04 
-1.254167562389e-03 1.146355027263e-05 0.0 
1.146355027263e-05 8.413941643761e-03 0.0 
0.0 0.0 -1.252774941638e-03 
-2.773224831107e-04 -1.248540399814e-05 0.0 
-1.248540399814e-05 1.578602427722e-03 0.0 
0.0 0.0 -2.737139294578e-04 
-1.253589576776e-03 1.816421682348e-05 0.0 
1.816421682348e-05 8.411285343410e-03 0.0 
0.0 0.0 -1.254166199180e-03 
-1.115104807484e-03 -2.535602796043e-06 0.0 
-2.535602796043e-06 7.430825592014e-03 0.0 
0.0 0.0 -1.110316242656e-03 
-8.788088159188e-04 2.953384655579e-05 0.0 
2.953384655579e-05 5.848517526204e-03 0.0 
0.0 0.0 -8.840149073763e-04 
-8.453655219935e-04 1.276109640107e-05 0.0 
1.276109640107e-05 5.644378390582e-03 0.0 
0.0 0.0 -8.570326279659e-04 
-1.251636506986e-03 8.563362149488e-06 0.0 
8.563362149488e-06 8.428656629745e-03 0.0 
0.0 0.0 -1.256337174517e-03 
-1.259327999631e-03 -2.468624830886e-05 0.0 
-2.468624830886e-05 8.412107540714e-03 0.0 
0.0 0.0 -1.249505442739e-03 
-1.752421740853e-04 1.599785091571e-05 0.0 
1.599785091571e-05 9.248205746741e-04 0.0 
0.0 0.0 -1.769373265848e-04 
-1.014009013286e-03 3.718452203751e-05 0.0 
3.718452203751e-05 6.827048883928e-03 0.0 
0.0 0.0 -1.024357608964e-03 
-6.037112023629e-04 -1.928016981808e-05 0.0 
-1.928016981808e-05 3.870166564208e-03 0.0 
0.0 0.0 -5.984289768806e-04 
-1.136473903534e-04 -2.305801768321e-05 0.0 
-2.305801768321e-05 5.992740239483e-04 0.0 
0.0 0.0 -1.205697443559e-04 
-1.256657915508e-03 3.816415809550e-05 0.0 
3.816415809550e-05 8.403684845898e-03 0.0 
0.0 0.0 -1.249521112489e-03 
-1.181297459508e-03 -1.601502097637e-06 0.0 
-1.601502097637e-06 7.855797415999e-03 0.0 
0.0 0.0 -1.172189067419e-03 
-1.260809781498e-03 3.729628833418e-05 0.0 
3.729628833418e-05 8.413738862441e-03 0.0 
0.0 0.0 -1.251863004148e-03 
-2.027346260532e-04 2.709152210177e-05 0.0 
2.709152210177e-05 1.045860090397e-03 0.0 
0.0 0.0 -1.953152674555e-04 
-1.282550990439e-04 1.596967550426e-05 0.0 
1.596967550426e-05 5.957593377885e-04 0.0 
0.0 0.0 -1.273034037094e-04 
-1.264740521524e-03 1.076136126604e-05 0.0 
1.076136126604e-05 8.488256231164e-03 0.0 
0.0 0.0 -1.258522865334e-03 
-1.257630123801e-03 7.011893020699e-06 0.0 
7.011893020699e-06 8.461160637007e-03 0.0 
0.0 0.0 -1.257106814994e-03 
-2.964921431859e-04 1.458101898900e-05 0.0 
1.458101898900e-05 1.817377003358e-03 0.0 
0.0 0.0 -3.034980657766e-04 
-1.315300675602e-03 -4.616213654123e-06 0.0 
-4.616213654123e-06 8.874722920157e-03 0.0 
0.0 0.0 -1.314710167832e-03 
-1.230668747669e-04 -1.081893831763e-05 0.0 
-1.081893831763e-05 5.709731362741e-04 0.0 
0.0 0.0 -1.229206800733e-04 
-7.274132408296e-04 6.183789390236e-06 0.0 
6.183789390236e-06 4.811004360547e-03 0.0 
0.0 0.0 -7.389643750272e-04 
-1.204537552606e-04 -1.859174322418e-05 0.0 
-1.859174322418e-05 6.217166808925e-04 0.0 
0.0 0.0 -1.247417965529e-04 
-1.299793796178e-03 -5.184403467027e-05 0.0 
-5.184403467027e-05 8.811604799613e-03 0.0 
0.0 0.0 -1.308531455474e-03 
-1.262934174837e-03 2.444499081750e-05 0.0 
2.444499081750e-05 8.445031740868e-03 0.0 
0.0 0.0 -1.254845750201e-03 
-6.580718270354e-04 3.721306501361e-05 0.0 
3.721306501361e-05 4.264446760778e-03 0.0 
0.0 0.0 -6.564513288157e-04 
-7.456337922437e-04 2.770990182636e-05 0.0 
2.770990182636e-05 4.941313475091e-03 0.0 
0.0 0.0 -7.541421605440e-04 
-4.450321519268e-04 1.831097352044e-05 0.0 
1.831097352044e-05 2.791375237210e-03 0.0 
0.0 0.0 -4.426424662127e-04 
-1.211596464916e-03 3.979318020068e-05 0.0 
3.979318020068e-05 8.090084984478e-03 0.0 
0.0 0.0 -1.203498912175e-03 
-1.699334618160e-04 1.120862622912e-05 0.0 
1.120862622912e-05 9.446237105802e-04 0.0 
0.0 0.0 -1.843356288727e-04 
-1.269994123481e-03 -1.450914975506e-05 0.0 
-1.450914975506e-05 8.504040731719e-03 0.0 
0.0 0.0 -1.260296891839e-03 
-1.268600913962e-03 -6.159942340733e-06 0.0 
-6.159942340733e-06 8.509424202183e-03 0.0 
0.0 0.0 -1.261416966621e-03 
-1.266492101745e-03 9.280004247652e-06 0.0 
9.280004247652e-06 8.502341661499e-03 0.0 
0.0 0.0 -1.260618436842e-03 
-1.320646394007e-03 1.164813461446e-06 0.0 
1.164813461446e-06 8.896090470956e-03 0.0 
0.0 0.0 -1.317725628150e-03 
-1.063917710965e-04 3.406664009707e-05 0.0 
3.406664009707e-05 5.707022560973e-04 0.0 
0.0 0.0 -1.219614697575e-04 
-1.271929683323e-03 -9.688594658041e-06 0.0 
-9.688594658041e-06 8.520583266263e-03 0.0 
0.0 0.0 -1.263090216482e-03 
-1.211976787312e-03 3.126546850388e-05 0.0 
3.126546850388e-05 8.084092320638e-03 0.0 
0.0 0.0 -1.202239909569e-03 
-7.453046702514e-04 4.651614229786e-05 0.0 
4.651614229786e-05 4.880400084605e-03 0.0 
0.0 0.0 -7.439744481034e-04 
-1.252851707889e-03 4.006401018327e-05 0.0 
4.006401018327e-05 8.422629498426e-03 0.0 
0.0 0.0 -1.252574368527e-03 
-5.410687361656e-04 2.769520936269e-05 0.0 
2.769520936269e-05 3.454688790362e-03 0.0 
0.0 0.0 -5.383891422301e-04 
-2.371733345551e-04 -4.470106712651e-05 0.0 
-4.470106712651e-05 1.418248240622e-03 0.0 
0.0 0.0 -2.492021827984e-04 
-1.298998890690e-03 -2.770464845184e-05 0.0 
-2.770464845184e-05 8.833071909488e-03 0.0 
0.0 0.0 -1.313490227100e-03 
-4.294380069023e-05 -4.186010349566e-06 0.0 
-4.186010349566e-06 2.320436162997e-04 0.0 
0.0 0.0 -5.297760877488e-05 
-7.470694764219e-04 -2.192265105768e-05 0.0 
-2.192265105768e-05 4.855390412225e-03 0.0 
0.0 0.0 -7.402411036050e-04 
-1.312354484328e-03 4.131093532360e-05 0.0 
4.131093532360e-05 8.846630708308e-03 0.0 
0.0 0.0 -1.313492844077e-03 
-2.211400451138e-04 -3.676306702383e-06 0.0 
-3.676306702383e-06 1.335213202641e-03 0.0 
0.0 0.0 -2.401910970207e-04 
-8.452827785452e-04 -2.606429286929e-05 0.0 
-2.606429286929e-05 5.603903241888e-03 0.0 
0.0 0.0 -8.489638187885e-04 
-1.255507124853e-03 -9.186014831563e-06 0.0 
-9.186014831563e-06 8.480922712531e-03 0.0 
0.0 0.0 -1.260211869575e-03 
-8.025976065576e-04 9.592064473669e-06 0.0 
9.592064473669e-06 5.261098351640e-03 0.0 
0.0 0.0 -7.986629621775e-04 
-1.151240916671e-03 -6.084869299020e-05 0.0 
-6.084869299020e-05 7.669030971500e-03 0.0 
0.0 0.0 -1.148445367820e-03 
-2.192829735374e-04 1.243334644941e-05 0.0 
1.243334644941e-05 1.310510961281e-03 0.0 
0.0 0.0 -2.379222736554e-04 
-3.921137447330e-05 -2.374603163330e-06 0.0 
-2.374603163330e-06 2.327919393128e-04 0.0 
0.0 0.0 -4.855001867801e-05 
-9.645913781642e-04 -4.083102734347e-05 0.0 
-4.083102734347e-05 6.424950689754e-03 0.0 
0.0 0.0 -9.668795991591e-04 
-1.266746155896e-03 3.603621751388e-05 0.0 
3.603621751388e-05 8.474273100537e-03 0.0 
0.0 0.0 -1.258714341260e-03 
-1.271487619191e-03 -1.652780192113e-05 0.0 
-1.652780192113e-05 8.532655002207e-03 0.0 
0.0 0.0 -1.263997700767e-03 
-9.164544161814e-04 3.965640940816e-05 0.0 
3.965640940816e-05 6.111358236627e-03 0.0 
0.0 0.0 -9.199601189493e-04 
-2.093975888615e-04 -4.665649638245e-05 0.0 
-4.665649638245e-05 1.197818786362e-03 0.0 
0.0 0.0 -2.164625706183e-04 
-1.227420417668e-03 9.834631553130e-06 0.0 
9.834631553130e-06 8.219790599597e-03 0.0 
0.0 0.0 -1.221038716794e-03 
-6.921621610822e-04 -2.719005194183e-06 0.0 
-2.719005194183e-06 4.614590635001e-03 0.0 
0.0 0.0 -7.060606045914e-04 
-1.222382248160e-03 -1.550215016822e-05 0.0 
-1.550215016822e-05 8.147929268757e-03 0.0 
0.0 0.0 -1.208939113964e-03 
-1.221146925072e-03 -7.968249279303e-06 0.0 
-7.968249279303e-06 8.100682442682e-03 0.0 
0.0 0.0 -1.203806565432e-03 
-5.670525863280e-05 -1.771698635754e-05 0.0 
-1.771698635754e-05 2.585053466944e-04 0.0 
0.0 0.0 -6.449378323917e-05 
-8.615762060499e-04 1.909652726146e-05 0.0 
1.909652726146e-05 5.665696184107e-03 0.0 
0.0 0.0 -8.562696210230e-04 
-1.225143862683e-04 -2.984290666876e-05 0.0 
-2.984290666876e-05 5.860977302171e-04 0.0 
0.0 0.0 -1.223049983750e-04 
-1.270837356719e-03 -1.933520143365e-05 0.0 
-1.933520143365e-05 8.510135783999e-03 0.0 
0.0 0.0 -1.263714160583e-03 
-7.340830126836e-04 -1.335821332730e-05 0.0 
-1.335821332730e-05 4.821918862365e-03 0.0 
0.0 0.0 -7.344436328926e-04 
-4.858491939109e-04 -3.571106393789e-05 0.0 
-3.571106393789e-05 3.331481419020e-03 0.0 
0.0 0.0 -5.192176870747e-04 
-5.307983311464e-04 -4.380846350953e-06 0.0 
-4.380846350953e-06 3.321472726831e-03 0.0 
0.0 0.0 -5.266666666667e-04 
-5.549907469666e-04 -3.829926739680e-05 0.0 
-3.829926739680e-05 3.794910893621e-03 0.0 
0.0 0.0 -5.860204081633e-04 
-5.953475250696e-04 7.629065543805e-06 0.0 
7.629065543805e-06 3.863201785318e-03 0.0 
0.0 0.0 -5.933333333333e-04 
-6.234948668458e-04 -3.482962657325e-05 0.0 
-3.482962657325e-05 4.267925272266e-03 0.0 
0.0 0.0 -6.525251918948e-04 
-6.733326468399e-04 3.722248756964e-05 0.0 
3.722248756964e-05 4.248015244343e-03 0.0 
0.0 0.0 -6.600000000000e-04 

SCALARS node_materi_plasti_kappa_shear float
LOOKUP_TABLE default
1.154246033666e-04
3.030366954187e-03
5.919693902232e-03
5.923852315190e-03
2.859947626271e-04
6.218445993993e-04
8.718334659107e-04
1.197083009525e-03
1.504800919970e-03
1.797006115044e-03
2.096281833338e-03
2.401455262769e-03
2.703248692656e-03
3.016765538726e-03
3.359027883224e-03
3.663996831824e-03
3.908074174929e-03
4.228433772035e-03
4.543227631705e-03
4.848753617487e-03
5.161467818816e-03
5.477271259315e-03
5.779376537800e-03
5.932061195851e-03
5.925336573631e-03
5.920984287690e-03
5.924407700450e-03
5.915528138253e-03
5.915864416857e-03
5.918097125373e-03
5.921994664725e-03
5.927387718192e-03
5.930449677587e-03
5.921712747723e-03
5.924515498722e-03
5.931743115084e-03
5.928847067526e-03
5.919544915052e-03
5.911436947506e-03
5.907167024861e-03
5.916691287179e-03
5.925466264875e-03
5.926352037367e-03
5.927462665333e-03
5.926179788313e-03
5.923807961778e-03
5.921183308973e-03
5.929039143344e-03
5.928617810733e-03
5.930983770204e-03
5.930261081197e-03
5.934897168252e-03
5.940412066917e-03
5.938845524631e-03
5.922011629466e-03
5.913355498151e-03
5.926067531878e-03
5.924785671547e-03
5.926499683681e-03
5.927876554226e-03
5.924703349372e-03
5.915717987273e-03
5.917408892843e-03
5.920280365368e-03
5.931958681328e-03
5.938110150403e-03
5.906803770761e-03
5.928713183382e-03
5.925023434437e-03
5.923453604397e-03
5.939442334280e-03
5.942268996102e-03
3.313640150810e-03
3.643609585951e-03
3.947542440607e-03
4.242858391353e-03
4.550358348147e-03
4.852089997296e-03
5.156894848885e-03
5.448757344777e-03
5.772918013305e-03
9.252120421735e-05
3.026620073330e-03
3.625369357501e-04
6.731817662417e-04
9.805698534578e-04
1.254524899220e-03
1.561406696237e-03
1.870015848719e-03
2.170177173065e-03
2.380436576739e-03
2.688785350789e-03
2.251620696919e-03
2.410886229174e-03
2.706771452633e-03
2.974381815992e-03
2.988250338395e-03
2.992834626340e-03
2.988540146830e-03
3.040036634150e-03
2.993658303481e-03
2.986565369329e-03
2.994325014933e-03
3.003444053817e-03
3.004893136958e-03
3.000286560446e-03
2.997851424533e-03
2.994316307864e-03
3.001824735141e-03
9.621576344534e-05
1.072789967255e-04
9.631852337865e-05
9.634646192600e-05
1.161697218308e-04
1.255618245921e-04
1.234927640208e-04
1.176143698925e-04
1.181040846591e-04
1.155364499888e-04
1.206715439587e-04
1.365993450730e-04
1.279414962217e-04
1.070815165248e-04
1.087456221067e-04
1.225517974272e-04
1.266454771602e-04
1.116507655708e-04
1.010315185057e-04
2.132468845392e-03
2.263568889205e-03
2.278374651168e-03
2.277555345906e-03
2.274270717875e-03
2.273627855837e-03
2.276263359618e-03
2.276773575488e-03
2.276435822368e-03
2.275010101083e-03
2.275131705702e-03
2.276316271075e-03
2.275274614503e-03
2.274290256316e-03
2.273749743988e-03
2.273539058906e-03
2.272412762143e-03
2.248386364222e-03
2.207861172389e-03
2.407656875407e-03
2.395972459848e-03
2.394599199124e-03
2.395531468110e-03
2.394981263883e-03
2.396176998543e-03
2.397491354676e-03
2.397714307114e-03
2.395585196249e-03
2.397789855342e-03
2.399172565538e-03
2.398368259276e-03
2.398547875961e-03
2.393984296182e-03
2.398022086534e-03
2.418470853755e-03
2.331238587604e-03
2.637929620288e-03
2.723228742168e-03
2.707307494023e-03
2.703362484179e-03
2.705380261164e-03
2.706672240760e-03
2.703116806963e-03
2.702772263136e-03
2.703136713816e-03
2.702441216446e-03
2.701188865917e-03
2.700451988879e-03
2.702758821159e-03
2.699325300696e-03
2.707024502911e-03
2.723902039593e-03
2.292941970269e-04
5.236807730249e-04
8.235808296833e-04
1.134523506932e-03
1.423638051930e-03
1.725266219408e-03
2.028413709058e-03
2.241665025770e-03
2.548701800634e-03
2.861688706248e-03
7.103606478164e-04
5.814911313878e-03
2.047918518275e-04
1.970502068753e-04
5.819197632046e-03
1.328946267278e-03
3.191329080053e-03
5.810273490245e-03
1.892382905539e-03
5.822030968612e-03
2.522985579042e-03
5.833950524206e-03
1.864247367510e-04
5.824179591591e-03
3.155514371104e-03
1.957918245127e-03
4.023649944342e-03
5.811714724389e-03
5.825466270030e-03
5.824996473377e-03
5.797525205524e-03
5.833870913862e-03
3.279705906600e-03
3.278932509466e-03
3.299538154266e-03
4.392988308338e-03
5.825782847880e-03
1.875803799629e-04
2.130243859941e-04
4.990941270632e-03
3.266764248665e-03
1.027578116983e-03
5.770593586357e-03
5.837121425949e-03
5.820649096206e-03
5.802522940311e-03
5.827315517430e-03
2.124904197991e-04
3.271394634805e-03
5.775055632193e-03
5.005410343617e-03
2.049450714894e-04
2.556345996281e-03
5.876876022666e-03
1.638575426776e-03
1.018536859922e-03
2.209222523540e-03
2.829980156742e-03
3.757872655430e-04
3.812034731290e-03
5.879774981020e-03
2.000834389720e-04
5.582228690945e-03
3.282968380463e-03
3.405879163641e-03
3.554924991576e-03
3.706761369563e-03
3.858428676321e-03
3.994172834541e-03
3.835090176788e-03
4.124628089981e-03
3.963011153955e-03
4.154617485841e-03
4.253890367715e-03
4.090560016023e-03
4.382096032079e-03
4.218726563058e-03
3.929419603329e-03
4.056695462337e-03
3.767499058174e-03
3.894823734663e-03
4.184913419616e-03
4.022005877425e-03
3.732190171091e-03
3.858313833382e-03
3.569562641982e-03
3.695377336778e-03
3.406514106271e-03
3.532562577704e-03
3.821712444258e-03
3.658737601044e-03
3.369644961438e-03
3.495886750392e-03
3.207187652528e-03
3.332149617847e-03
3.621982769517e-03
3.458496973122e-03
3.166845774337e-03
3.294707675905e-03
3.002130027116e-03
3.131260622861e-03
2.837304896117e-03
2.965670032421e-03
3.259556182238e-03
3.094478366317e-03
2.799648397582e-03
2.927396624230e-03
3.222929756525e-03
3.055408384458e-03
3.351641860097e-03
3.184131490321e-03
2.889094859221e-03
3.017387565719e-03
3.312807633971e-03
3.144807155985e-03
2.850539984923e-03
2.978148191045e-03
3.273453875391e-03
3.105701933788e-03
2.811118638057e-03
2.939152856274e-03
3.235930558971e-03
3.066878938369e-03
2.770729598448e-03
2.897992444106e-03
3.196676201024e-03
3.025458962526e-03
3.326539777395e-03
2.725836099392e-03
2.853445082624e-03
2.552546008883e-03
2.681203652163e-03
3.749361599789e-03
2.379164116958e-03
2.254416588919e-03
2.509143601858e-03
2.813194765712e-03
2.206243071564e-03
2.337199456257e-03
2.035089294135e-03
2.704627779472e-03
4.313057656759e-03
2.166880539926e-03
1.864421071359e-03
1.732868546084e-03
1.561342170473e-03
4.024498791055e-03
4.321449536869e-03
4.179690524696e-03
4.487558501959e-03
4.351378253477e-03
1.692293086120e-03
4.547507496043e-03
4.620310667296e-03
3.444574795783e-03
3.081228819560e-03
3.519317618785e-03
2.468789982299e-03
2.300880945692e-03
2.604574973058e-03
3.497581244636e-03
3.628764160508e-03
3.799698635942e-03
3.931379681523e-03
4.102448612731e-03
4.234588908537e-03
4.063072780301e-03
4.366751221426e-03
4.194735028229e-03
4.405545622725e-03
4.273365102485e-03
4.498318737704e-03
4.326379418243e-03
4.629602997623e-03
4.457503609016e-03
4.153929470569e-03
4.284864263683e-03
3.982884066866e-03
3.648745610141e-03
3.817193794493e-03
3.946719407469e-03
4.115926409861e-03
4.245574739592e-03
4.415539763342e-03
4.544399560802e-03
4.375426891281e-03
4.509920023172e-03
2.632653377112e-03
2.504948411976e-03
2.338614636793e-03
2.211400256375e-03
2.045332097660e-03
1.919061142858e-03
1.752635209565e-03
1.878513981748e-03
1.584910331352e-03
1.710339413602e-03
1.415942396810e-03
1.540924270131e-03
3.948384266438e-03
4.285218450736e-03
4.585788453075e-03
4.452548000313e-03
1.432045145505e-03
4.588120534622e-03
4.576656745919e-03
4.442906503729e-03
4.675416510747e-03
1.391840176144e-03
1.627976054007e-03
1.791438559949e-03
4.652375729059e-03
4.515073750359e-03
4.747734229222e-03
1.522378979601e-03
4.671085369189e-03
1.291851135584e-03
4.415253925120e-03
4.718848314432e-03
3.891705484867e-03
4.754278458359e-03
4.616084921715e-03
1.839848146906e-03
1.672605894671e-03
1.378135101855e-03
1.515420670763e-03
1.805900116599e-03
1.632448232839e-03
1.332653763525e-03
1.460848178870e-03
1.759405537371e-03
1.587950129179e-03
1.285510927899e-03
1.415480434626e-03
4.891516996896e-03
1.121510096864e-03
3.641366942474e-03
4.879243427220e-03
4.841045972056e-03
4.817221487039e-03
4.680859314151e-03
4.376749942027e-03
4.546436710308e-03
4.850021688501e-03
4.714841530376e-03
4.411085338888e-03
4.576823668989e-03
4.271643822444e-03
4.438121527056e-03
4.742306724662e-03
4.605607762388e-03
4.302170490177e-03
4.468415119196e-03
4.164526586705e-03
4.326213013675e-03
4.634793358128e-03
1.226849014185e-03
4.506378239639e-03
4.809738295993e-03
2.453146888506e-03
2.728545033659e-03
2.907124081246e-03
3.043059147020e-03
4.493803980505e-03
4.803851567309e-03
1.501869364537e-03
1.664240495932e-03
4.952759396910e-03
4.548949919363e-03
4.244032685451e-03
2.918967585879e-03
2.792586959038e-03
2.629168594188e-03
2.499093692646e-03
2.668968419875e-03
2.332626947432e-03
4.138292167915e-03
4.909939925648e-03
1.603914124137e-03
1.302913386403e-03
4.855203702972e-03
4.205737706829e-03
4.111791117138e-03
4.239349827017e-03
4.404279031402e-03
4.532163345971e-03
4.698797086860e-03
4.826101189867e-03
4.663500232458e-03
4.917627217648e-03
4.959771601570e-03
4.174662190372e-03
4.151213148999e-03
1.888480938751e-03
1.096487228567e-03
1.112867725487e-03
1.347315636886e-03
1.652113615696e-03
5.051413102721e-03
4.995155339568e-03
4.862932033424e-03
2.379373966366e-03
2.546273267233e-03
5.051913667086e-03
4.046495241743e-03
4.106805891897e-03
3.964719198022e-03
1.001701890259e-03
9.814910827123e-04
5.018736248123e-03
1.953490702354e-03
1.826326942528e-03
1.000603477325e-03
8.270248169060e-04
4.649062039121e-03
4.959360782526e-03
3.209003612840e-03
3.344763241722e-03
4.919412739713e-03
1.246851632543e-03
5.108760944893e-03
4.338688324758e-03
4.036566623443e-03
2.862194265683e-03
1.379647792169e-03
1.216950747748e-03
2.058445277619e-03
1.544704251302e-03
1.478187698947e-03
5.222097844678e-03
5.150166074507e-03
4.796698922504e-03
4.498570299624e-03
5.089656245451e-03
9.457015925929e-04
5.189931181500e-03
4.686738709315e-03
5.150549732461e-03
5.027069730600e-03
2.114316632001e-03
1.991901980435e-03
1.705778784395e-03
1.877221421128e-03
3.675799238899e-03
2.280051155843e-03
3.479503618634e-03
3.353779208918e-03
3.194968393760e-03
2.831556800728e-03
2.708824037533e-03
2.375496384323e-03
3.686936591630e-03
3.078073203987e-03
3.851596386181e-03
3.667740788258e-03
5.044158210038e-03
5.215830386065e-03
3.998289725651e-03
3.853491964182e-03
1.131663708096e-03
1.005870343686e-03
3.457686078413e-03
5.011327749084e-03
5.115127262102e-03
5.250667570774e-03
5.084339547061e-03
5.085185550635e-03
2.466333230067e-03
3.777777636612e-03
9.588302078742e-04
3.912004250684e-03
8.314503266492e-04
4.475699055473e-03
4.989278594651e-03
5.157849786266e-03
5.214381496867e-03
3.266010047436e-03
4.041180497852e-03
3.878621153168e-03
3.070483235828e-03
2.913482248638e-03
3.035157386404e-03
2.755770959431e-03
2.184615498058e-03
2.013559352505e-03
5.319773126116e-03
5.255640298353e-03
5.321605394694e-03
5.197016645099e-03
5.342046142709e-03
5.180952194182e-03
1.777196002727e-03
2.427249311879e-03
5.314454420742e-03
3.225902650504e-03
5.312357786981e-03
5.147322410379e-03
6.540445478406e-04
7.723794913411e-04
5.277227190096e-03
1.587049601255e-03
1.745337399366e-03
1.421339300996e-03
5.610035015994e-03
3.257775872683e-03
5.289370763037e-03
2.995256057925e-03
5.420258365801e-03
4.174507003320e-03
2.750543209626e-03
4.785821545599e-03
5.111095174845e-03
5.457139877325e-03
3.797889722827e-03
3.646479732755e-03
3.931549897695e-03
1.164427047641e-03
8.448239735481e-04
5.077361997568e-03
2.130717764018e-03
2.299994958429e-03
1.365911109574e-03
1.662041853713e-03
3.380077755549e-03
3.249013876935e-03
4.605823304079e-03
4.769919328613e-03
4.276226867883e-03
4.169358572453e-03
3.867935193715e-03
3.737504250769e-03
5.341787835815e-03
5.553309217008e-03
2.353647089942e-03
2.227016294383e-03
2.307076216506e-03
5.450349556697e-03
5.463341176944e-03
5.325739410321e-03
7.148670898350e-04
8.870883348093e-04
1.101873869960e-03
9.316626042024e-04
5.373764850267e-03
5.221517258001e-03
5.572702457976e-03
1.582372335378e-03
4.632172669378e-03
5.375893312072e-03
5.254154539084e-03
5.559534277686e-03
5.076810545238e-03
5.365925183894e-03
5.378240200423e-03
5.392140300883e-04
5.334646512646e-03
3.675752576569e-03
3.994140177195e-04
3.535833562514e-03
3.716995656290e-03
3.370679194070e-03
1.282169154075e-03
3.567296707678e-03
3.765939256375e-03
5.126327859221e-04
5.605887865963e-03
5.560267422025e-04
6.660332016854e-04
5.449756143397e-03
5.274590684749e-03
5.572244234080e-03
5.392478454778e-03
5.099677131758e-03
5.238383322142e-03
3.509567093749e-03
5.572364392840e-03
5.374148307929e-03
5.737141131835e-03
2.638726436383e-03
2.039901378839e-03
1.905448348708e-03
1.617406521166e-03
5.530794330127e-03
5.348359015461e-03
4.829734702657e-03
4.521447046327e-03
3.557349194756e-03
3.532569652196e-03
3.813584889459e-03
3.767894522616e-03
4.058668074403e-03
4.012436085661e-03
4.295379223318e-03
5.556472121404e-03
1.300890945793e-03
2.946721722792e-03
5.471988497703e-03
5.293800497184e-03
2.587723201717e-03
2.314665718403e-03
5.537328889683e-03
2.406283520918e-03
5.792762283983e-03
1.858040090612e-04
4.857765212983e-04
2.573038789786e-03
2.873030274744e-03
2.199216706967e-03
2.091680435174e-03
4.476442988489e-03
7.504877515353e-04
1.263024816417e-03
4.334362747608e-03
9.849535248275e-04
4.679903303412e-03
2.540562741112e-03
3.118474233540e-03
1.542099058054e-03
2.168158947901e-03
3.802386178974e-03
3.549362578402e-03
3.391116114852e-03
2.670946485909e-03
2.260803135557e-03
1.949223813238e-03
3.605674145861e-03
4.919767447334e-03
5.053137848748e-03
5.341032503506e-03
5.187217989567e-03
4.888560595270e-03
5.017653317247e-03
5.314535410036e-03
5.156798542278e-03
5.508315270460e-03
5.286399283860e-03
4.980351695302e-03
5.106165886697e-03
5.394021959470e-03
4.807746362982e-03
5.628111934766e-03
2.871243858978e-03
6.965101933152e-04
6.551789095587e-04
3.282360146456e-03
5.809860564826e-03
5.821157866103e-03
2.082528349660e-03
5.819524766679e-03
3.515099545658e-03
1.460932159611e-03
5.821354656771e-03
4.753391499877e-03
4.585238946775e-03
4.452711673430e-03
5.831503303158e-03
4.073161563167e-03
5.837134571400e-03
3.985700881929e-03
3.851791908228e-03
3.554575317506e-03
4.847344029507e-03
5.817888275316e-03
5.575635814432e-03
5.571525256645e-03
5.311966086722e-03
5.819541179728e-03
5.830698806893e-03
5.838402623043e-03
1.930986719212e-03
2.101024040918e-03
2.394475490464e-03
2.266384359489e-03
1.970817861414e-03
2.136867911929e-03
2.431134490451e-03
2.006483688020e-03
5.062450549600e-03
5.830124137920e-03
3.970119493304e-03
3.835301643933e-03
3.534841884466e-03
2.946573758729e-03
3.117318954907e-03
3.419825569632e-03
2.776365598311e-03
4.367919564161e-03
5.827346570942e-03
3.906600699280e-03
2.984402664609e-03
3.276820545210e-03
3.539493379070e-03
3.549133742473e-03
3.824596042644e-03
3.567726925698e-03
3.513236360802e-03
3.646056828441e-03
3.479442829320e-03
3.776440321699e-03
3.600754084134e-03
3.319682840169e-03
3.899235541114e-03
3.712790048005e-03
3.270946734921e-03
2.113632266740e-04
4.663590485079e-04
4.566049970039e-04
7.156745567248e-04
7.373279452377e-04
1.003154234088e-03
9.722585000682e-04
4.717549759512e-04
2.060508248568e-04
4.540770013058e-04
2.016183866916e-04
4.467968440684e-04
7.550412036772e-04
1.182852220765e-03
5.788845613533e-03
2.859709310104e-03
2.724978007808e-03
2.413348020450e-03
2.580932184492e-03
2.979254934651e-03
2.254988964791e-03
2.151777952318e-03
2.124248935492e-04
4.645380525494e-04
4.620287622044e-04
7.358870940255e-04
7.228556758076e-04
4.637229493946e-04
4.638167508819e-04
2.058552859172e-04
4.611112548754e-04
7.280621305049e-04
1.906731245643e-04
4.704546691336e-03
4.866377932286e-03
5.817051415440e-03
3.306461396406e-03
2.060812032613e-04
5.781234699132e-03
5.822288119502e-03
5.823020880710e-03
5.305314190989e-03
5.454685450902e-03
5.787205338867e-03
1.904164271810e-03
5.481003932717e-03
5.244910374536e-03
1.337919885917e-03
1.840104844977e-03
4.380249884781e-03
4.023192351168e-03
5.022936148851e-03
4.114296708411e-03
4.760794110997e-03
5.555554324813e-03
1.179594138024e-03
4.131571153262e-03
4.020912679793e-03
4.773210184270e-03
1.997971753623e-03
3.186209854797e-03
1.264320056221e-03
5.581499467917e-03
3.319123411055e-03
3.366608306896e-03
2.641689808122e-03
2.077782102881e-03
1.716997042932e-03
3.042088607286e-03
3.155408692379e-03
4.538280633475e-03
4.941818270038e-03
2.600596271961e-04
4.708539861147e-03
3.760089428882e-03
4.244105085551e-03
4.715328609436e-03
1.167410736667e-03
4.880974533881e-03
5.403313920794e-03
3.898336749169e-03
9.671126416542e-04
3.824252090180e-03
5.351558397039e-03
4.786917829570e-03
1.824211420534e-03
3.480609807162e-03
3.243878701939e-03
2.980785244645e-03
5.375575519212e-03
3.585995865997e-03
4.980015277352e-03
4.076017659109e-03
1.959475074490e-03
4.975844888607e-03
3.389984283037e-03
5.185084528177e-03
4.569389381663e-03
2.760527645323e-03
4.981119205122e-03
3.402542523838e-03
4.886475886782e-03
3.158193069385e-03
3.984904577625e-03
4.346595079122e-03
3.785347613028e-03
4.212795144997e-03
4.843183184598e-03
1.250416126476e-03
2.458873987470e-03
4.209667670053e-03
5.115121627223e-03
5.486043343848e-03
2.956453768341e-03
4.801040750307e-03
5.276018678210e-03
3.287319671934e-03
1.360173557846e-03
1.054118268605e-03
2.172491032492e-03
3.423285296841e-03
3.589532674148e-03
5.552240847616e-03
4.931191158355e-03
4.613419327886e-03
5.464000382780e-04
3.101627176124e-03
5.063754079328e-03
3.609293720743e-03
5.009794558603e-03
3.416052821845e-03
5.575482653537e-03
2.475536180774e-03
5.206362114330e-03
4.647615435026e-03
2.244695150429e-03
3.268136202907e-03
5.555008699614e-03
4.952886856145e-03
4.075675641162e-03
3.440761170649e-03
2.670689667684e-03
3.721275175177e-03
4.148714793035e-03
5.835319629331e-03
5.106135759620e-03
4.284472671237e-03
3.550391241370e-03
4.312448323242e-03
7.156855192344e-04
2.792869111198e-03
3.682084945283e-03
2.301558692687e-03
3.569870679035e-03
5.507448749153e-03
3.814302881920e-03
2.595277141504e-03
3.945212643466e-03
2.359824458181e-03
4.418520852231e-03
4.072359630917e-03
4.440337999663e-03
7.757686492747e-04
4.203718467632e-03
5.137853672774e-03
2.428401079217e-03
3.700926420415e-03
4.718919712422e-03
2.045517196664e-03
4.001751556342e-03
4.734200010830e-03
4.335389309684e-03
3.717467635180e-03
4.306468150559e-03
2.158315669710e-03
1.778111948175e-03
1.480789573342e-03
2.723576269686e-03
4.901358873080e-03
9.907929562044e-04
4.678560104240e-03
1.061568277770e-03
2.558752785224e-03
4.777870338073e-03
4.115757970203e-03
2.685651994210e-03
1.661993244650e-03
2.519680303368e-03
4.012449715584e-03
2.645863061595e-03
2.477781824869e-03
5.552773111686e-03
2.601556434606e-03
5.832588277671e-03
5.807498199142e-03
3.510356051034e-03
1.737451315662e-03
2.405479085723e-04
1.829108936978e-03
2.134121346790e-03
4.639057668376e-03
3.513173410346e-03
1.958554503757e-03
5.579740788869e-03
5.830554327362e-03
4.549382429434e-03
5.128190593651e-03
4.477241356342e-03
5.275457844279e-03
3.249070074697e-03
4.477567605621e-04
4.366937944895e-03
1.414652943865e-03
1.454830351756e-03
1.141526190888e-03
2.071482774289e-03
7.048676555723e-04
1.168371653296e-03
5.554008919411e-03
3.515193931760e-03
4.930134979138e-03
8.572356047719e-04
5.572156000341e-03
5.569776879399e-03
5.838339516943e-03
5.230953075188e-03
8.277135440664e-04
3.767849181542e-03
5.583236268413e-03
4.792801184414e-03
5.849741729017e-03
3.467504393821e-03
5.585086652784e-03
1.085481836247e-03
5.581941862217e-03
4.937207249790e-03
3.891365713394e-03
3.752927955089e-03
5.593723576573e-03
5.582903556172e-03
6.530334131598e-04
4.532821262706e-03
2.586505146794e-03
4.309456059287e-04
5.577341518437e-03
5.218037136217e-03
5.584899765061e-03
7.371716874996e-04
4.403063957912e-04
5.630357557198e-03
5.612012503027e-03
1.230585207076e-03
5.884366405666e-03
4.092504687394e-04
3.203199811466e-03
4.370733977465e-04
5.843994283019e-03
5.604234858727e-03
2.845335710462e-03
3.286444788878e-03
1.873211432721e-03
5.369777350956e-03
6.577588307218e-04
5.641946929749e-03
5.644321122624e-03
5.639466704751e-03
5.898898139880e-03
4.211607310232e-04
5.652386425481e-03
5.366048530729e-03
3.253953958084e-03
5.587679770306e-03
2.309938481824e-03
9.687550335974e-04
5.854893632795e-03
1.859115235788e-04
3.234858844656e-03
5.866847427828e-03
9.109470946294e-04
3.727440323860e-03
5.623149802079e-03
3.507013142730e-03
5.092976750137e-03
8.975669244278e-04
1.659950822664e-04
4.270563646727e-03
5.623311015092e-03
5.659663736694e-03
4.061400799491e-03
8.220481444569e-04
5.453937277557e-03
3.071062049363e-03
5.407469273276e-03
5.377966207611e-03
2.102243503154e-04
3.774256867795e-03
4.259532598859e-04
5.646002650817e-03
3.210355763876e-03
2.215256382710e-03
2.237857692827e-03
2.521729557575e-03
2.586604075054e-03
2.833800295395e-03
2.849139881866e-03

SCALARS node_materi_plasti_phimob float
LOOKUP_TABLE default
1.836618015859e+01
3.880046328631e-01
2.061782647725e+01
1.875364651225e+01
-3.103132616225e+01
-5.472996585118e+00
4.931182437393e+00
1.096906161436e+01
1.452718374244e+01
1.669376618945e+01
1.823803568740e+01
1.937083461735e+01
2.016673466825e+01
2.076920548396e+01
2.120810510446e+01
2.139037636487e+01
2.144785746788e+01
2.150605435122e+01
2.146058784679e+01
2.135307173983e+01
2.120481211167e+01
2.101516738712e+01
2.080876765555e+01
1.878913421029e+01
1.878036909074e+01
1.879256897142e+01
1.880651012123e+01
1.879978953549e+01
1.883333624937e+01
1.885387761421e+01
1.890077482246e+01
1.895887685863e+01
1.902251080515e+01
1.906866950480e+01
1.917471831582e+01
1.927568380204e+01
1.940566331202e+01
1.951542111588e+01
1.965714407494e+01
1.982347597181e+01
1.999073344232e+01
2.022574231269e+01
2.043401127587e+01
2.060715829842e+01
2.071383600321e+01
2.084872071651e+01
2.093412362603e+01
2.099032212247e+01
2.101720869461e+01
2.105412031859e+01
2.103909554713e+01
2.103687512442e+01
2.098340853361e+01
2.098977203288e+01
2.095318167815e+01
2.090572998979e+01
2.086914019020e+01
2.083507195463e+01
2.079818463795e+01
2.077059772946e+01
2.074473636148e+01
2.072132794843e+01
2.070771218891e+01
2.067568344807e+01
2.064493120756e+01
2.063156152807e+01
2.066789553482e+01
2.060788257297e+01
2.061730118587e+01
2.059854424347e+01
2.059595504882e+01
2.060001891725e+01
6.087042011795e+00
9.628005530585e+00
1.200432844342e+01
1.371192119354e+01
1.506256030348e+01
1.612240442421e+01
1.700570835845e+01
1.774607207115e+01
1.838198318230e+01
-2.990222821644e+01
2.998748321327e-01
-7.112424451768e+00
1.671036183196e+00
4.810379407634e+00
4.944067246795e+00
4.007989053114e+00
3.114504149469e+00
-6.521966604842e+00
-1.764201283727e+01
-8.215756423386e+00
-4.087097062335e+01
-2.973519197694e+01
-1.064914630442e+01
-7.436468824154e-01
-3.833765875150e-01
-3.735312016673e-01
-4.596020610672e-01
3.682993211363e-01
-4.463205039682e-01
-5.635484657557e-01
-5.488806485810e-01
-4.812519034398e-01
-5.488332469896e-01
-6.371482110694e-01
-7.051740732606e-01
-6.890301045931e-01
-4.878592529405e-01
-3.147635771089e+01
-2.815427014422e+01
-2.751084495262e+01
-3.002596741813e+01
-3.447637401747e+01
-3.800373722033e+01
-4.180591343291e+01
-4.587513648937e+01
-5.002248724422e+01
-5.389544304682e+01
-5.726557238961e+01
-5.725131146428e+01
-5.852327002870e+01
-6.108753531207e+01
-6.077641737645e+01
-5.988080637687e+01
-5.972769600380e+01
-9.484598564565e+00
4.027882875657e+01
-3.232136902179e+01
-4.226406578320e+01
-4.752742473992e+01
-5.094138390040e+01
-5.160316107191e+01
-5.147657505052e+01
-5.024001888086e+01
-4.879307530553e+01
-4.734053621162e+01
-4.594707737503e+01
-4.475045567441e+01
-4.378958840778e+01
-4.293006150644e+01
-4.225028603276e+01
-4.175229675998e+01
-4.145612263585e+01
-4.133915901599e+01
-4.129397483401e+01
-4.095237123701e+01
-2.919990557499e+01
-2.995935050408e+01
-3.007303503166e+01
-3.015781908700e+01
-3.029792619917e+01
-3.048740065396e+01
-3.073267839797e+01
-3.103430850086e+01
-3.138429496507e+01
-3.176046563159e+01
-3.216707040665e+01
-3.254807800682e+01
-3.282197376687e+01
-3.283395838802e+01
-3.204142946049e+01
-2.843519499701e+01
-2.811084944203e+01
-1.165003477898e+01
-1.031275151443e+01
-1.137239663069e+01
-1.143983367472e+01
-1.142220401706e+01
-1.139312736303e+01
-1.143570459207e+01
-1.144747466852e+01
-1.139607351894e+01
-1.141420313364e+01
-1.142664394475e+01
-1.143587036210e+01
-1.142790143626e+01
-1.146896291130e+01
-1.114447281364e+01
-1.036027045352e+01
-1.792216033641e+01
-1.562380021100e+00
3.560130248285e+00
5.073403105242e+00
6.136114921823e+00
4.872725657395e+00
2.612430259670e+00
-1.498326340291e+01
-1.132201089663e+01
-2.784818875975e+00
-2.414051817917e+00
2.117587013165e+01
-3.758208310050e+01
-3.012859520325e+01
2.099318778158e+01
5.101783671787e+00
2.102449357494e+01
2.125260397488e+01
6.461906650955e+00
2.102641179085e+01
-3.472259401498e+00
2.082699758200e+01
-4.143056196496e+01
2.034764281397e+01
3.571004452670e+00
1.760109499210e+01
2.150782428073e+01
1.954181345994e+01
1.893569072577e+01
1.853135219534e+01
1.850652551416e+01
1.871327982328e+01
4.866255025724e+00
4.945331433539e+00
5.390529873847e+00
1.442926204453e+01
2.078493303199e+01
-2.971206982605e+01
-3.941451565640e+01
2.128956522004e+01
5.078427038913e+00
8.351593820781e+00
1.906719958923e+01
2.118094139449e+01
2.075062717193e+01
2.128064383670e+01
2.108730517201e+01
-3.193471694589e+01
4.680736802166e+00
2.097141565178e+01
1.657474837745e+01
-3.961318558192e+01
1.982625941817e+01
1.860765993198e+01
6.568710761927e+00
2.982485079050e+00
3.929648378178e+00
-1.083858317355e+00
-1.488596589663e+01
1.108352883946e+01
2.073224835812e+01
-1.520527868915e+01
1.804188973279e+01
5.472918415909e+00
7.624902743747e+00
8.737032735830e+00
1.061379180251e+01
1.146002709355e+01
1.270758691076e+01
1.210756951568e+01
1.384944142063e+01
1.346015833128e+01
1.334664869729e+01
1.489484035552e+01
1.465762831563e+01
1.583146894979e+01
1.570013436336e+01
1.452756439239e+01
1.565633234424e+01
1.450607773505e+01
1.569443031684e+01
1.659421944454e+01
1.669468034325e+01
1.587391147468e+01
1.719143775919e+01
1.652866751304e+01
1.798950192418e+01
1.747019277038e+01
1.879899966227e+01
1.914962579049e+01
1.985198455460e+01
1.957209191359e+01
2.051201051506e+01
2.025321731144e+01
2.108643907171e+01
2.124060004489e+01
2.172702273644e+01
2.154736840516e+01
2.211731562644e+01
2.187545204156e+01
2.238808568180e+01
2.204024862478e+01
2.251674409359e+01
2.274324029424e+01
2.284158355075e+01
2.249015046054e+01
2.280016417222e+01
2.304607789822e+01
2.299146910311e+01
2.315299209875e+01
2.308790626825e+01
2.280864578538e+01
2.290924417538e+01
2.310912982109e+01
2.293654872278e+01
2.261174338047e+01
2.265903810412e+01
2.290958206820e+01
2.265183952690e+01
2.227435990938e+01
2.230335519484e+01
2.260670002242e+01
2.229219097715e+01
2.185719407029e+01
2.189293009910e+01
2.225403613494e+01
2.189873084649e+01
2.219452790208e+01
2.140248512988e+01
2.146942102911e+01
2.081518146236e+01
2.095933355320e+01
2.179266804033e+01
2.012891614954e+01
1.984723113626e+01
2.036891210647e+01
2.107499049698e+01
1.934247355084e+01
1.969166277958e+01
1.844053130047e+01
2.136735071111e+01
1.741043900122e+01
1.892040768284e+01
1.740495930622e+01
1.662892963607e+01
1.517940064537e+01
1.233900066135e+01
1.400424691594e+01
1.310314942317e+01
1.463625135335e+01
1.390609529494e+01
1.617790953092e+01
1.604666889667e+01
1.533502684739e+01
1.491136059198e+01
1.917932174215e+01
2.311244074826e+01
1.997911825485e+01
1.932046397286e+01
2.023890038608e+01
2.244231180879e+01
2.233531588195e+01
2.249501459079e+01
2.235397960507e+01
2.244086911242e+01
2.227704270690e+01
2.221021518300e+01
2.211376642343e+01
2.206714929495e+01
2.230331337397e+01
2.248402723565e+01
2.195297245726e+01
2.192650817340e+01
2.179552505054e+01
2.178969882207e+01
2.187082065298e+01
2.175997040276e+01
2.178846900398e+01
2.316356710866e+01
2.305927776100e+01
2.306944515600e+01
2.292273356032e+01
2.289884515439e+01
2.272683857318e+01
2.267155485661e+01
2.281904815670e+01
1.666122081455e+01
2.229703313410e+01
2.182488474044e+01
2.141303809613e+01
2.068239123041e+01
1.995626172736e+01
1.881160227084e+01
1.761745681900e+01
1.893200067831e+01
1.601136155117e+01
1.755875221924e+01
1.392518696208e+01
1.577888772061e+01
2.007301486692e+01
2.271911430403e+01
2.250893516454e+01
2.246751780763e+01
1.395796585367e+01
2.165883592554e+01
2.229092156754e+01
2.248238108524e+01
2.256399315891e+01
1.346911893138e+01
1.583657141465e+01
1.723038835324e+01
1.524073389061e+01
1.461760402208e+01
2.223812379195e+01
1.473435507813e+01
2.194877755924e+01
1.143001679742e+01
2.165301470538e+01
2.153812060625e+01
2.210317525390e+01
2.225937585990e+01
2.217898862904e+01
1.869355484745e+01
1.719176917352e+01
1.363885744703e+01
1.535551861500e+01
1.828412100624e+01
1.664707583349e+01
1.303345342916e+01
1.467165626163e+01
1.766622360387e+01
1.599532259779e+01
1.216742175499e+01
1.396204253811e+01
2.150418621731e+01
8.134164610860e+00
1.303367431306e+01
2.203911950628e+01
2.239515736588e+01
1.581308172074e+01
1.527841870027e+01
1.397229628184e+01
1.473125179182e+01
1.589413839311e+01
1.541288906437e+01
1.415533007207e+01
1.490335184410e+01
1.352712114222e+01
1.435762957130e+01
1.557040959800e+01
1.509292491379e+01
1.376979567085e+01
1.457384325437e+01
1.311052396831e+01
1.398798544394e+01
1.527899927312e+01
1.139123743426e+01
2.269534371103e+01
2.241555590235e+01
1.972313058104e+01
2.046054609609e+01
2.087723432447e+01
2.097908153717e+01
1.475383997952e+01
1.590912052346e+01
1.345745369632e+01
1.508850009231e+01
1.633772525994e+01
2.155667577042e+01
2.162744671300e+01
1.982177497949e+01
1.854820629100e+01
1.905882062386e+01
1.742347621309e+01
1.691016425368e+01
1.764909365052e+01
2.266089236574e+01
1.617261035668e+01
1.568934159303e+01
1.240602497323e+01
2.143480016193e+01
2.292287949678e+01
1.945862031056e+01
2.026376574349e+01
1.974589439376e+01
2.043746367374e+01
2.001865047671e+01
2.060076928899e+01
2.097025646796e+01
2.198934163589e+01
2.103976915535e+01
1.329149498560e+01
2.264099206065e+01
1.846722725488e+01
9.393344881368e+00
9.046221816858e+00
1.295916320849e+01
1.577352253331e+01
2.194395584542e+01
2.027806628980e+01
1.965371769508e+01
1.542366934232e+01
1.481706600533e+01
2.201001300762e+01
1.222325570224e+01
1.258479072380e+01
1.177182314731e+01
7.918862340593e+00
6.303651004399e+00
1.645491161781e+01
1.819750322112e+01
1.625696543555e+01
4.220693815176e+00
-4.111744427700e-01
1.540837474182e+01
1.643151665856e+01
2.127288295609e+01
2.133244890070e+01
2.214659602607e+01
1.148870169356e+01
1.684009829755e+01
2.278879464826e+01
2.297221837693e+01
2.058420578306e+01
1.039481566632e+01
7.830396078042e+00
1.965295481173e+01
1.536182899437e+01
1.428947727758e+01
2.182168521844e+01
1.686318564096e+01
2.135248398757e+01
2.137016587973e+01
2.131416083348e+01
5.180537076648e+00
2.174200018234e+01
2.147648836162e+01
2.000655899983e+01
1.936685061989e+01
1.882478679375e+01
1.706444277508e+01
1.371464931247e+01
1.471738937366e+01
1.158469218022e+01
1.917146090785e+01
1.304559259134e+01
1.105418647687e+01
1.113259613834e+01
1.603230497830e+01
1.374865626624e+01
2.114272876817e+01
2.297674659127e+01
2.123464254499e+01
2.187104292991e+01
2.262720595121e+01
1.657115811951e+01
1.708003089049e+01
1.207826961884e+01
1.116657267050e+01
9.770159501710e+00
7.188765296772e+00
2.212255319634e+01
2.184367465804e+01
1.680775396142e+01
1.726415403423e+01
1.684590292230e+01
2.202580362946e+01
2.192363036553e+01
2.314878222515e+01
4.156847219471e+00
2.131678640295e+01
2.851928368477e+00
1.734650652651e+01
2.132553977001e+01
2.125918923512e+01
2.177413298718e+01
6.429020061286e+00
2.179392886312e+01
2.219307818495e+01
8.309292335916e+00
8.484091255809e+00
1.141676828669e+01
9.249180623817e+00
2.009321589381e+01
1.907032159641e+01
2.053393661820e+01
2.109061032305e+01
1.985987030421e+01
1.917674489738e+01
2.173148021579e+01
2.196882347746e+01
1.663970226334e+01
1.210316150339e+01
1.732513377181e+01
8.465233785663e+00
2.153136418625e+01
2.164799311055e+01
-6.300577035882e+00
-1.088980218037e+00
1.729246490447e+01
1.043018889087e+01
1.152772401240e+01
8.867040008244e+00
2.089337991121e+01
5.037145727084e+00
2.112774810403e+01
1.487964135422e+01
1.763319671389e+01
2.212890787036e+01
2.026291635614e+01
2.234665820985e+01
1.686727933313e+01
1.772589385813e+01
1.052667050421e+01
9.325906585650e+00
1.143618651177e+01
8.080802581603e+00
-1.508713269407e+00
1.671143838104e+01
1.859990629143e+01
1.921215962259e+01
1.323811778125e+01
1.637846342468e+01
2.154416913593e+01
2.155034288731e+01
1.804216432523e+01
1.798692806741e+01
1.887511867942e+01
2.282965755779e+01
2.296020264446e+01
2.307371352661e+01
1.741754715666e+01
1.791784685863e+01
2.094559907397e+01
2.063335572150e+01
2.040829495295e+01
1.768983647299e+01
2.106073148754e+01
2.117971430487e+01
-1.690154019909e+00
3.688029514037e+00
3.888788954466e+00
2.425717976253e-01
1.770162623149e+01
1.735253927902e+01
1.811381896999e+01
1.517811774209e+01
2.168902847065e+01
2.167029640968e+01
2.191361286837e+01
2.141950051586e+01
2.173363695586e+01
2.156116883112e+01
2.124714455557e+01
-1.363091411579e+01
1.748083345436e+01
9.647056328209e+00
-2.145685585692e+01
8.378178062081e+00
1.010451059427e+01
6.550907903402e+00
1.218084468852e+01
8.482531589467e+00
1.016203074012e+01
-1.137421094286e+01
1.808895932724e+01
-8.967361155828e+00
-2.759176062042e+00
2.134184081185e+01
2.146136658766e+01
2.117373960190e+01
2.128343204254e+01
2.154641817541e+01
2.137788403048e+01
7.888297660942e+00
2.107375159938e+01
2.119906665332e+01
2.095799199023e+01
4.680803246365e+00
1.532911598588e+01
1.227050316165e+01
7.703321605889e+00
1.985771858447e+01
1.911619060803e+01
2.138532132597e+01
2.149523156987e+01
8.635809795738e+00
8.538902623584e+00
1.101462916259e+01
1.075720404569e+01
1.265478409106e+01
1.241233268644e+01
1.394427439131e+01
2.108497547310e+01
5.298617923868e+00
4.337525192296e+00
2.165779586518e+01
2.189997243759e+01
1.068448846384e+01
8.248841582563e+00
2.136052053933e+01
2.042546993774e+01
1.854289059713e+01
-2.943748296077e+01
-1.689273671569e+01
2.044941316241e+01
1.233574290748e+01
1.548435363409e+01
1.301433161895e+01
2.262685286411e+01
-3.590241916431e-01
6.781330618518e+00
1.406327621759e+01
3.725730815533e-01
2.141988650394e+01
2.136211434048e+01
1.684524583369e+01
1.231965783196e+01
1.756321499961e+01
1.317690483870e+01
9.766465191636e+00
9.019974778236e+00
2.202624270081e+01
1.282560917219e+01
9.141578623299e+00
1.459076910782e+01
1.642754713940e+01
1.699602047079e+01
1.781729515132e+01
1.753495124589e+01
1.665898334792e+01
1.726023539188e+01
1.804377395193e+01
1.783541763019e+01
1.863372504725e+01
1.835906437728e+01
1.764095580385e+01
1.817946160934e+01
1.876779422954e+01
1.747822021203e+01
2.141936265552e+01
2.116785312092e+01
-6.162037138094e+00
-8.954970160974e+00
1.578105113815e+01
1.932709974550e+01
1.901066614651e+01
1.964439082047e+01
2.053939155607e+01
1.121227010342e+01
1.392542917654e+01
2.089371531240e+01
1.600846361248e+01
1.559689636184e+01
1.481620108801e+01
1.884632648915e+01
1.233494022133e+01
2.119813624599e+01
2.288169695764e+01
2.275741828881e+01
2.280438973862e+01
1.701246218165e+01
2.122261266490e+01
2.156161092094e+01
2.151478663100e+01
2.190228484882e+01
2.114413768250e+01
1.986406998082e+01
2.014908443569e+01
1.906271699514e+01
2.019547906645e+01
2.141778888571e+01
2.107815912479e+01
1.956542085551e+01
2.057877021380e+01
2.176267190922e+01
1.988386252717e+01
1.855651974397e+01
2.105667751416e+01
2.260241220781e+01
2.275337764768e+01
2.274471046761e+01
2.116723359004e+01
2.154041121635e+01
2.181948966900e+01
2.073905372439e+01
2.089451746248e+01
2.101377052951e+01
2.308110636185e+01
2.151358627506e+01
4.739807952390e+00
8.162847307919e+00
8.342056764422e+00
1.081638569130e+01
8.392852374398e+00
2.154310221754e+01
2.154047972921e+01
2.137558385127e+01
2.152632991283e+01
2.139218704252e+01
2.117472572825e+01
2.150075299020e+01
2.141251943462e+01
4.757178075062e+00
-3.046405280839e+01
-1.400554686816e+01
-1.420389877795e+01
-1.730112580383e+00
-1.202781635874e+00
6.673077992173e+00
5.625174553390e+00
-1.450466700186e+01
-3.382937488766e+01
-1.411764353404e+01
-3.578297327203e+01
-1.435238623475e+01
-1.948594107381e-01
1.054278110506e+01
2.080831084351e+01
2.050632852670e+01
2.026339955493e+01
1.945535489853e+01
1.995545059656e+01
2.077767243414e+01
1.889544880898e+01
1.848447258178e+01
-3.931997647163e+01
-1.173110587573e+01
-1.356765411358e+01
1.150372439744e+00
8.294435399929e-01
-1.173644459629e+01
-1.196867577281e+01
-3.990420546447e+01
-1.250735192531e+01
9.133432806233e-01
-4.111877378758e+01
1.562806324367e+01
1.618573080312e+01
2.097140317267e+01
5.360172339578e+00
-3.865385732155e+01
1.842019999999e+01
1.854062051230e+01
1.853904778101e+01
2.111379631684e+01
2.101607037416e+01
1.844287637585e+01
1.785618331395e+01
1.825569635928e+01
1.719652038498e+01
1.122420822367e+01
1.785120867245e+01
2.155790906220e+01
2.198567967717e+01
2.138280120736e+01
2.170843640020e+01
2.164409281093e+01
2.152051088010e+01
1.077400246801e+01
1.283523269012e+01
1.233906619384e+01
1.574425581439e+01
1.805722346858e+01
2.109937951926e+01
1.190550606892e+01
2.058945746323e+01
1.319493769986e+01
2.253510558094e+01
2.056721150786e+01
1.891946788830e+01
1.705622700223e+01
2.079461658584e+01
2.188563692015e+01
2.212485931619e+01
1.632675874218e+01
-3.575121268470e+01
2.209941737273e+01
2.222066023395e+01
1.330872359167e+01
2.248492784118e+01
1.006631308663e+01
1.602296096781e+01
1.764098837610e+01
1.122600602803e+01
6.499971130817e+00
1.082270122248e+01
2.158886587065e+01
1.584235676979e+01
1.700133336114e+01
2.318297598918e+01
1.837416608347e+01
1.190331436524e+00
1.752120037125e+01
2.219950253947e+01
2.226521635545e+01
2.301976593495e+01
1.770438371048e+01
2.172805680912e+01
2.297950281200e+01
1.695972118161e+01
1.927657933638e+01
2.261334034267e+01
1.635342062791e+01
2.284109873483e+01
2.226137176572e+01
1.373546367994e+01
1.845121503012e+01
1.659169274495e+01
2.067880622509e+01
2.153983005389e+01
2.191271836541e+01
1.131167515531e+01
1.928457770141e+01
1.313991826457e+01
2.076065832224e+01
1.775017157158e+01
1.780664410641e+01
2.177514636405e+01
1.725519846125e+01
2.185782085149e+01
1.318991236853e+01
4.540896535179e+00
2.077410029038e+01
2.252443958657e+01
2.204210536667e+01
1.822998402287e+01
2.160558369218e+01
2.243466463515e+01
-7.484703959628e+00
5.192693210569e+00
2.144756671260e+01
2.315242027507e+01
2.220425774832e+01
2.121558179927e+01
2.082026694077e+01
6.375010110169e+00
2.131505430086e+01
2.254195381573e+01
2.016979118041e+01
5.139788052438e+00
2.104077830102e+01
2.223047148956e+01
2.079788145172e+01
2.307344694740e+01
-3.036012626344e+00
2.195676298739e+01
1.779717058796e+01
1.878182464841e+01
2.208423832261e+01
1.430183316121e+01
2.177159493978e+01
2.234820239540e+01
6.713670554343e-01
4.059838093940e+00
2.172457058647e+01
2.135733639816e+01
2.299568731018e+01
2.155172281526e+01
2.167873417581e+01
2.227058626316e+01
2.163127398011e+01
-1.722846014146e+00
1.521614016351e+01
2.157554378353e+01
1.835739910569e+01
1.387035194875e+00
2.135409050751e+01
2.121668021780e+01
2.063832701825e+01
2.288744491073e+01
1.633677624766e+01
5.710456019678e+00
2.282119964528e+01
1.888212580453e+01
2.175734313940e+01
2.253723099809e+01
2.266741172841e+01
9.517828254642e+00
1.716681236410e+01
1.458070976499e+01
2.249075443755e+01
1.862069953002e+01
7.702433272685e+00
1.680683397324e+01
8.138574376538e+00
2.202886622342e+01
2.188312398862e+01
1.300803965797e+01
2.219042209591e+01
1.582991860321e+01
2.163988365563e+01
2.246901662293e+01
2.178015489499e+01
2.116032703387e+01
1.793317094941e+01
2.130438918079e+01
1.852484782958e+01
2.077246917460e+01
8.251660410007e+00
6.293983987170e+00
-2.829570688746e+01
9.593487418815e+00
1.951179149491e+01
1.737660994549e+01
8.367871371372e+00
1.843624351579e+01
1.903366024001e+01
2.110793197230e+01
1.506027784737e+01
2.207778301413e+01
2.202514537519e+01
1.733323014090e+01
4.723592185318e+00
-1.417602537753e+01
2.149840014818e+01
5.887616052175e+00
6.749225270329e+00
3.242702795689e+00
1.824581681310e+01
-1.736403104334e+00
4.327345721359e+00
2.158061554682e+01
8.049729863511e+00
2.159352007588e+01
7.212492986141e-01
1.802894548668e+01
2.135627015304e+01
2.087830177439e+01
2.148946322575e+01
-3.684055751479e+00
1.032119920340e+01
2.033220947043e+01
1.590401121318e+01
2.079408701721e+01
7.518735270346e+00
1.803341630914e+01
8.239357279990e+00
1.805084508024e+01
1.805239106379e+01
1.150904486250e+01
1.044602225668e+01
2.090803993384e+01
1.865205525310e+01
-9.183451213945e+00
1.496766020380e+01
2.007190738570e+01
-1.812016773581e+01
2.124288349953e+01
1.861919671814e+01
2.098174150247e+01
9.468105984816e-01
-1.536903337430e+01
2.129704801017e+01
1.964910838837e+01
1.106763614564e+01
1.871614060550e+01
-1.888061720185e+01
4.085418677159e+00
-1.449638866586e+01
2.076775048490e+01
1.805261391021e+01
2.054517445282e+01
5.166780109882e+00
1.715417681315e+01
2.089545823400e+01
-3.157343364938e+00
1.812060571832e+01
2.137835249316e+01
1.835462226998e+01
2.119052322273e+01
-2.047754639132e+01
2.122403442617e+01
2.180363974737e+01
4.741405565518e+00
1.845032571474e+01
1.914783618757e+01
7.103340094359e+00
1.858835305689e+01
-1.443984402541e+01
4.609441783832e+00
2.071116762866e+01
6.290901684266e+00
1.039208905995e+01
1.937047734040e+01
2.128937663630e+01
1.687703578858e+01
4.439257767910e+00
-3.032543669005e+01
1.383811441319e+01
2.142000189903e+01
1.826482511318e+01
1.263354717017e+01
-2.583048343835e+00
1.908820824303e+01
2.085330325309e+01
2.028113214425e+01
2.182419396284e+01
-2.464651659740e+01
2.144353144136e+01
-1.626893485633e+01
2.105919638763e+01
2.104126688514e+01
-3.313901233624e+01
-3.917738575053e+01
-1.586291346698e+01
-1.821913357456e+01
-4.476388055014e+00
-4.133400677002e+00

SCALARS node_materi_stress_average_a_sig float
LOOKUP_TABLE default
-5.104584434421e+00
-4.122140381241e+01
-2.357310203917e+02
-1.545467381216e+02
-1.230505324840e+01
-2.380076911150e+01
-3.459375357807e+01
-4.701798840040e+01
-5.885115414612e+01
-7.064541390517e+01
-8.241326326711e+01
-9.417475609714e+01
-1.060029390351e+02
-1.179548955850e+02
-1.302484684790e+02
-1.423760283453e+02
-1.535208803244e+02
-1.657168508606e+02
-1.783600371276e+02
-1.907195004309e+02
-2.032365192248e+02
-2.159404273142e+02
-2.281222911727e+02
-1.552116101422e+02
-1.545482091551e+02
-1.547812169037e+02
-1.548535106050e+02
-1.546855752900e+02
-1.552888510172e+02
-1.558992735181e+02
-1.560355566984e+02
-1.571073323569e+02
-1.576818738761e+02
-1.582373686887e+02
-1.595960350910e+02
-1.613755847894e+02
-1.625120952849e+02
-1.642716700918e+02
-1.657976028217e+02
-1.682000714210e+02
-1.716327218895e+02
-1.748392778340e+02
-1.782794036172e+02
-1.816505251445e+02
-1.852909751532e+02
-1.889460356458e+02
-1.926795797557e+02
-1.965687657089e+02
-2.004351424190e+02
-2.039919753245e+02
-2.074573270965e+02
-2.105064841834e+02
-2.139772766607e+02
-2.165416515127e+02
-2.185437307350e+02
-2.210433421169e+02
-2.233247677017e+02
-2.253460165020e+02
-2.271266553877e+02
-2.286777800241e+02
-2.298642897694e+02
-2.308468534267e+02
-2.315900743462e+02
-2.327028871341e+02
-2.340063487371e+02
-2.347337400746e+02
-2.336310563041e+02
-2.354302159436e+02
-2.351974689961e+02
-2.358071086305e+02
-2.363542204826e+02
-2.363684560664e+02
-5.349750952200e+01
-6.550044197924e+01
-7.744516281773e+01
-8.907877216317e+01
-1.009251559853e+02
-1.128803159698e+02
-1.245226934562e+02
-1.359969317374e+02
-1.479252020118e+02
-1.015352443543e+01
-4.591628443447e+01
-1.519725732865e+01
-1.818954598836e+01
-1.920958153804e+01
-1.870523174751e+01
-1.871237157442e+01
-1.903101795722e+01
-1.902112794564e+01
-2.083062905265e+01
-3.304372710681e+01
-9.415629837480e+00
-1.698198706219e+01
-2.889511263479e+01
-3.971214908248e+01
-4.049006896490e+01
-4.050148129428e+01
-4.042112907313e+01
-4.216468754735e+01
-4.076925445337e+01
-4.083304647636e+01
-4.105815374834e+01
-4.149549632635e+01
-4.170512336477e+01
-4.204578736924e+01
-4.243405509251e+01
-4.312311561645e+01
-4.408591142321e+01
-1.066382483069e+01
-1.199779099106e+01
-1.199258221157e+01
-1.152188103126e+01
-1.119766778071e+01
-1.071508567721e+01
-9.985389273808e+00
-9.242195587966e+00
-8.559632591851e+00
-7.963498313302e+00
-7.413456040962e+00
-7.279333701802e+00
-6.580207331046e+00
-5.729114284065e+00
-5.409542278940e+00
-5.252203295451e+00
-5.033481049380e+00
-4.668748735723e+00
-4.305051285596e+00
-9.590160920304e+00
-1.021248691128e+01
-9.462921018858e+00
-8.885128340888e+00
-8.854873976737e+00
-8.939782012445e+00
-9.140699439112e+00
-9.363255642243e+00
-9.594238000458e+00
-9.821648901331e+00
-1.002864544123e+01
-1.020038839098e+01
-1.035190561208e+01
-1.047177044839e+01
-1.055962451492e+01
-1.060192799632e+01
-1.059742796675e+01
-1.032800531115e+01
-9.284519327003e+00
-1.692052982554e+01
-1.675098804729e+01
-1.670285254893e+01
-1.668109237215e+01
-1.665301309505e+01
-1.660615483107e+01
-1.655589259942e+01
-1.648296869052e+01
-1.640707357752e+01
-1.634158955578e+01
-1.629103329222e+01
-1.627642562273e+01
-1.632694327185e+01
-1.646344876098e+01
-1.688953034121e+01
-1.846077219594e+01
-1.698912147962e+01
-3.028094313218e+01
-3.170620471047e+01
-3.028233541210e+01
-2.983406042714e+01
-2.953463234595e+01
-2.933310209724e+01
-2.915584109106e+01
-2.904974194696e+01
-2.905385464585e+01
-2.897237144909e+01
-2.892997982827e+01
-2.890884310702e+01
-2.888925387102e+01
-2.885444876492e+01
-2.895040767909e+01
-2.898651735879e+01
-1.214321782935e+01
-1.708270167424e+01
-1.879444556907e+01
-1.935563008082e+01
-1.930028425363e+01
-1.895916601360e+01
-2.002408718809e+01
-1.746151252565e+01
-2.838849971410e+01
-4.068047171259e+01
-2.033681493690e+01
-2.163970199142e+02
-1.288604106469e+01
-1.507921668712e+01
-2.245573034385e+02
-2.315075770423e+01
-1.245350928090e+02
-2.057645102783e+02
-2.431254546984e+01
-1.932478769909e+02
-3.166454338045e+01
-2.290778523877e+02
-1.077333774000e+01
-1.788037104368e+02
-5.284061176581e+01
-7.708299908031e+01
-1.576516287067e+02
-1.687420033493e+02
-1.592662919112e+02
-1.507495710984e+02
-1.512412441530e+02
-1.551037575287e+02
-5.576696264227e+01
-5.310350719420e+01
-5.310187185090e+01
-9.510979250904e+01
-2.297317899591e+02
-1.472093346711e+01
-1.048883171043e+01
-1.965149315314e+02
-5.117258925967e+01
-4.075447760091e+01
-1.614197847905e+02
-2.005892463106e+02
-1.859404781898e+02
-2.103468841087e+02
-2.206611185746e+02
-1.466649875137e+01
-5.370250961666e+01
-2.247671502596e+02
-1.183823880993e+02
-1.207003653821e+01
-1.001306924302e+02
-1.519831490324e+02
-2.468983387821e+01
-2.231632858728e+01
-2.684635147783e+01
-4.141119339807e+01
-1.589737222740e+01
-7.248641233362e+01
-2.322850655517e+02
-9.750049397990e+00
-1.412566818262e+02
-5.834472799318e+01
-6.503164885139e+01
-6.982139841845e+01
-7.777858993113e+01
-8.306365718144e+01
-9.021686592318e+01
-8.526943444138e+01
-9.765145613561e+01
-9.285978794194e+01
-9.558920916022e+01
-1.051950979631e+02
-1.006152907873e+02
-1.128591416212e+02
-1.084907324289e+02
-9.629178851531e+01
-1.043426377507e+02
-9.218277802372e+01
-1.004154918248e+02
-1.124104584164e+02
-1.086066161941e+02
-9.668236777454e+01
-1.049335415704e+02
-9.317414027500e+01
-1.014478770565e+02
-8.985788749267e+01
-9.809838671880e+01
-1.095772806275e+02
-1.061414877787e+02
-9.485282473402e+01
-1.027762590269e+02
-9.169489843087e+01
-9.944549373597e+01
-1.105260904182e+02
-1.070227399626e+02
-9.608577292918e+01
-1.034847298703e+02
-9.268383183229e+01
-9.991176938757e+01
-8.923358981693e+01
-9.622905827961e+01
-1.069845486557e+02
-1.031033063231e+02
-9.244159123033e+01
-9.906881602162e+01
-1.098735520071e+02
-1.055960873294e+02
-1.165470245717e+02
-1.120470512586e+02
-1.012222457108e+02
-1.074404682076e+02
-1.184169051617e+02
-1.135756369483e+02
-1.027061724602e+02
-1.086461305039e+02
-1.196795278108e+02
-1.145490206895e+02
-1.035878467783e+02
-1.093139593230e+02
-1.204858445128e+02
-1.150299531461e+02
-1.039217302533e+02
-1.094574838774e+02
-1.207837056002e+02
-1.150105737679e+02
-1.265271056587e+02
-1.036690580949e+02
-1.090925805282e+02
-9.770421078510e+01
-1.030618471200e+02
-1.181324566691e+02
-9.163443546588e+01
-8.652718820592e+01
-9.693388831807e+01
-1.085158673909e+02
-8.545137904478e+01
-9.070918685181e+01
-7.918287325574e+01
-8.189823812623e+01
-1.204858943071e+02
-8.440126207323e+01
-7.282091938268e+01
-6.770144642987e+01
-6.131240909650e+01
-8.868926784625e+01
-1.008558571005e+02
-9.369669997540e+01
-1.061430445738e+02
-9.943600663642e+01
-6.637834400610e+01
-1.174944363063e+02
-1.130089206815e+02
-8.472738706428e+01
-8.372616444953e+01
-1.209369797637e+02
-9.600977313945e+01
-8.967287287337e+01
-1.013353693651e+02
-1.323337327555e+02
-1.382077911907e+02
-1.440623591341e+02
-1.500387236430e+02
-1.559542186051e+02
-1.620155798142e+02
-1.559629232622e+02
-1.680180693583e+02
-1.618397321487e+02
-1.679967592038e+02
-1.617637741804e+02
-1.739622063967e+02
-1.676668890067e+02
-1.798527590674e+02
-1.734472865390e+02
-1.612942307962e+02
-1.669645309788e+02
-1.548992162579e+02
-1.277415137253e+02
-1.322450137189e+02
-1.391674410950e+02
-1.437822315018e+02
-1.508183615674e+02
-1.555249618178e+02
-1.626556395818e+02
-1.577643759588e+02
-1.205943809870e+02
-8.852053409334e+01
-8.203756703598e+01
-7.824994985898e+01
-7.194167088746e+01
-6.827125443249e+01
-6.217625760281e+01
-5.857796510639e+01
-6.438942786404e+01
-5.474172088903e+01
-6.026677615758e+01
-5.062141297631e+01
-5.584422852783e+01
-1.175696809795e+02
-1.482900024982e+02
-1.601478728110e+02
-1.526636210526e+02
-5.627389372239e+01
-1.791881965772e+02
-1.738926980586e+02
-1.674557581683e+02
-1.697213399265e+02
-5.492828151517e+01
-5.277947562995e+01
-5.596068593367e+01
-1.115207699512e+02
-1.049857793139e+02
-1.797223594360e+02
-5.997056376055e+01
-1.801996282274e+02
-4.542434961662e+01
-1.726080630069e+02
-1.848751041717e+02
-1.498556624180e+02
-1.646810968670e+02
-1.569395284549e+02
-6.582382813571e+01
-6.114004263638e+01
-5.132092791458e+01
-5.671076043359e+01
-6.657279830670e+01
-6.141155668046e+01
-5.130205668519e+01
-5.601714360827e+01
-6.646714862626e+01
-6.088326275515e+01
-5.031738239054e+01
-5.502130075613e+01
-1.914683792974e+02
-4.130314427263e+01
-8.392701378718e+01
-1.861589404751e+02
-1.745687990328e+02
-1.169776952339e+02
-1.106231983535e+02
-9.853579761328e+01
-1.043977204980e+02
-1.163557403326e+02
-1.102780024265e+02
-9.826955548112e+01
-1.042792502022e+02
-9.223959172574e+01
-9.836932269839e+01
-1.103163552977e+02
-1.045356408070e+02
-9.255906986902e+01
-9.880948547876e+01
-8.679955684627e+01
-9.310568495991e+01
-1.050914751075e+02
-4.885323408295e+01
-1.646418840784e+02
-1.767883624965e+02
-9.525357486378e+01
-1.065128824823e+02
-1.130347616768e+02
-1.185305778316e+02
-9.939603891242e+01
-1.113550497218e+02
-4.689375050967e+01
-4.963963459834e+01
-1.234515222405e+02
-1.782369458778e+02
-1.660323258689e+02
-8.081617316071e+01
-7.278870710622e+01
-7.014733252790e+01
-6.192491050764e+01
-6.441684872866e+01
-5.955636355331e+01
-1.553469209923e+02
-1.164163944226e+02
-6.267213440918e+01
-5.139713561975e+01
-1.905277295437e+02
-1.527317648120e+02
-1.211556820149e+02
-1.291427898899e+02
-1.328674243783e+02
-1.408768335444e+02
-1.446796431093e+02
-1.526802117453e+02
-1.488373611508e+02
-1.690996346401e+02
-1.606809300870e+02
-8.730719235811e+01
-1.408290395187e+02
-7.161513973692e+01
-4.360947326019e+01
-4.401058554547e+01
-5.332807140341e+01
-6.501159797203e+01
-1.921101406535e+02
-1.564987964952e+02
-1.483767481710e+02
-5.350132811489e+01
-5.577677250869e+01
-1.768611257155e+02
-8.714310015993e+01
-8.616670222752e+01
-8.004848816828e+01
-4.082387295831e+01
-3.994826449805e+01
-1.221558056315e+02
-5.885864318827e+01
-5.216273201005e+01
-3.634515939937e+01
-3.218171667225e+01
-1.056107479825e+02
-1.174656282641e+02
-1.249021533394e+02
-1.303649625233e+02
-1.855075286714e+02
-4.901248147372e+01
-1.232504841770e+02
-1.594364815497e+02
-1.475948594216e+02
-1.119468243643e+02
-4.094804637684e+01
-3.830420843027e+01
-7.709762133085e+01
-5.996094336223e+01
-5.838318337089e+01
-1.979200733918e+02
-1.281217263067e+02
-1.567827093003e+02
-1.448778262608e+02
-1.688463977105e+02
-3.828985646530e+01
-1.987368896095e+02
-1.838511080929e+02
-1.596923667140e+02
-1.520905903060e+02
-6.154127593091e+01
-5.460512302989e+01
-4.534709143009e+01
-4.736863478894e+01
-8.031743676591e+01
-6.428788938207e+01
-7.981516867713e+01
-7.129310394452e+01
-6.732890769132e+01
-6.693632874104e+01
-5.810800229553e+01
-7.536991164921e+01
-1.251901502842e+02
-1.194382360513e+02
-1.493096900940e+02
-1.380131518020e+02
-1.220779824914e+02
-1.281821400601e+02
-8.048631246561e+01
-7.472476298262e+01
-4.490995321851e+01
-4.014045202616e+01
-1.322691449908e+02
-1.924705310528e+02
-1.286320814294e+02
-1.350556082075e+02
-1.299828286515e+02
-1.910381738034e+02
-8.447384594477e+01
-1.344438902455e+02
-3.691424536563e+01
-1.217832801631e+02
-3.369023222118e+01
-1.243084460181e+02
-1.962408805239e+02
-2.028523209271e+02
-1.812378105999e+02
-6.004223522796e+01
-1.294220153011e+02
-1.256330826754e+02
-5.853046674531e+01
-5.465839867393e+01
-6.382066567471e+01
-5.158869175856e+01
-8.234745123006e+01
-7.668811803349e+01
-1.691893396817e+02
-1.724671471524e+02
-1.635444560121e+02
-1.561910169235e+02
-1.891187923922e+02
-1.843618827713e+02
-6.972627307515e+01
-4.687868262415e+01
-1.338730778271e+02
-6.283098260697e+01
-2.048221079429e+02
-1.987289327629e+02
-2.785882698682e+01
-3.190364208185e+01
-1.294573560523e+02
-3.836328106930e+01
-3.968215109219e+01
-3.674344458987e+01
-2.218846083746e+02
-5.083213602226e+01
-2.087206367544e+02
-6.970801644236e+01
-1.352922211448e+02
-1.370746385683e+02
-7.775079774193e+01
-1.787262501331e+02
-1.230641787090e+02
-1.358892302763e+02
-7.390196903055e+01
-6.744693987390e+01
-7.974387114559e+01
-4.013210792196e+01
-3.049248228782e+01
-1.224793513275e+02
-8.325630154644e+01
-8.962543767674e+01
-5.353413617560e+01
-6.457052825704e+01
-1.312367268847e+02
-1.257256117970e+02
-1.323519041179e+02
-1.361921179655e+02
-1.247985016316e+02
-1.541563559105e+02
-1.423887148226e+02
-1.360249241258e+02
-1.334516018268e+02
-1.408775676976e+02
-8.773746649072e+01
-8.232497258629e+01
-8.746113935412e+01
-1.397711910337e+02
-2.151102252624e+02
-2.094062520932e+02
-2.916925571354e+01
-3.532197319395e+01
-3.285342676846e+01
-3.048739119631e+01
-1.412498412519e+02
-1.368259372469e+02
-1.473254837409e+02
-6.238828358784e+01
-1.527685639713e+02
-2.029556841296e+02
-1.959437045583e+02
-2.114337077800e+02
-1.732164299580e+02
-1.851323032828e+02
-1.807709716589e+02
-2.356705264155e+01
-1.316866885297e+02
-6.774679603512e+01
-2.059847186621e+01
-6.208939758158e+01
-6.888876117941e+01
-5.571655494524e+01
-5.091964885560e+01
-6.547874671321e+01
-7.363600732926e+01
-2.280505463128e+01
-1.450684554280e+02
-2.305425566946e+01
-2.754975780345e+01
-2.111794098835e+02
-2.048203458794e+02
-2.168899277130e+02
-2.104338589505e+02
-1.984345294043e+02
-2.045700439701e+02
-6.105818677904e+01
-2.182898415899e+02
-2.108447493743e+02
-2.244843165663e+02
-4.187711762704e+01
-4.918340018908e+01
-4.114303853098e+01
-3.119948850928e+01
-1.691535247386e+02
-1.592279070046e+02
-1.898311399004e+02
-1.774290636419e+02
-6.243761878257e+01
-6.168970031840e+01
-7.264095495153e+01
-7.106163756992e+01
-8.201776040754e+01
-8.031701745602e+01
-9.146862490629e+01
-1.844450156780e+02
-2.996864608941e+01
-4.983515547303e+01
-1.966275965291e+02
-1.908357004771e+02
-4.886849435619e+01
-3.735288362935e+01
-2.127322505530e+02
-7.141019512882e+01
-1.524258216536e+02
-1.354472112187e+01
-2.135606126046e+01
-7.445813153961e+01
-6.080482942925e+01
-5.114252308699e+01
-4.320909039612e+01
-1.662647871714e+02
-3.121617599018e+01
-3.502124153138e+01
-9.298884698420e+01
-2.730502381608e+01
-1.840182786258e+02
-7.867882058087e+01
-7.832958037347e+01
-4.325991684960e+01
-5.717168525237e+01
-8.825495749793e+01
-7.260439257428e+01
-6.767812845432e+01
-8.567533033963e+01
-4.487276942916e+01
-3.329702323332e+01
-8.829361276941e+01
-1.249934166865e+02
-1.318637083311e+02
-1.432309740611e+02
-1.389399787500e+02
-1.271846437694e+02
-1.344303789587e+02
-1.459702013938e+02
-1.422146036544e+02
-1.556642014678e+02
-1.496942260573e+02
-1.374274629582e+02
-1.447229288884e+02
-1.561519076552e+02
-1.327604644254e+02
-2.012960347863e+02
-8.519048756950e+01
-2.764706768841e+01
-2.454485653867e+01
-8.141326069587e+01
-1.655606278867e+02
-1.608874819065e+02
-6.546205145631e+01
-1.822086573288e+02
-7.568927524322e+01
-4.923030573906e+01
-1.896115820918e+02
-1.200249152712e+02
-1.149947947444e+02
-1.078423816258e+02
-1.580088431007e+02
-8.614987794037e+01
-2.035189331551e+02
-1.366248966583e+02
-1.292678725641e+02
-1.179790215243e+02
-1.298009177114e+02
-2.140184138737e+02
-2.049005962613e+02
-2.069695105554e+02
-1.947809803619e+02
-2.184791375293e+02
-1.725238904673e+02
-1.760045006025e+02
-7.180223173178e+01
-7.691024287193e+01
-8.735116940864e+01
-8.171607044886e+01
-7.136762545122e+01
-7.598842557946e+01
-8.627885587779e+01
-7.018496745287e+01
-1.480044142744e+02
-2.223277806531e+02
-1.497943345828e+02
-1.434856124718e+02
-1.318798396268e+02
-1.139944571192e+02
-1.201870313285e+02
-1.319199118932e+02
-1.077012328647e+02
-1.370391107026e+02
-2.236546796763e+02
-1.410564855473e+02
-1.146183721061e+02
-5.468567849220e+01
-6.646585700784e+01
-6.789861529328e+01
-7.948085353939e+01
-6.666811524087e+01
-1.367263620807e+02
-1.421834348407e+02
-1.358108243716e+02
-1.476182474829e+02
-1.409291667655e+02
-1.300194221437e+02
-1.528203634132e+02
-1.452298897444e+02
-5.330878824378e+01
-1.515177847266e+01
-2.314340026121e+01
-2.273402928667e+01
-3.101449891549e+01
-3.155510730881e+01
-4.048769748570e+01
-3.901046360902e+01
-2.330790816145e+01
-1.404370512110e+01
-2.235993592871e+01
-1.339496156715e+01
-2.177386607296e+01
-3.208537379537e+01
-4.680214443929e+01
-2.284402929749e+02
-1.118602528217e+02
-1.060717077405e+02
-9.475579255506e+01
-1.007988334145e+02
-1.164795933893e+02
-8.853245737914e+01
-8.433419326099e+01
-1.030083846146e+01
-1.994911415434e+01
-1.892355372960e+01
-2.979731607509e+01
-2.975339458087e+01
-2.030089984341e+01
-2.041306124646e+01
-1.061360145553e+01
-2.049286082790e+01
-3.039656908711e+01
-1.056300774784e+01
-1.070359931137e+02
-1.134431339845e+02
-2.252580506229e+02
-5.381746489619e+01
-1.253771693809e+01
-1.486409174432e+02
-1.516542255745e+02
-1.513982313860e+02
-2.092621625396e+02
-2.154397217123e+02
-1.485914363526e+02
-7.400944510924e+01
-1.503583425086e+02
-1.286161690914e+02
-4.384420446807e+01
-7.080853743003e+01
-1.716295539436e+02
-1.556068191393e+02
-1.971359515455e+02
-1.604782348466e+02
-1.856959311435e+02
-2.082260741921e+02
-4.708977082739e+01
-8.627279294352e+01
-8.108402453763e+01
-1.107261961831e+02
-7.796612247778e+01
-1.244013029754e+02
-4.986906462470e+01
-1.782996429130e+02
-7.608719641109e+01
-1.264164072566e+02
-1.023117496274e+02
-8.031256756352e+01
-6.588784708410e+01
-8.852061942559e+01
-1.206194811485e+02
-1.741304552089e+02
-1.169305148918e+02
-1.274097167390e+01
-1.801807436131e+02
-1.440481256285e+02
-9.226449698403e+01
-1.674403435176e+02
-4.609471491009e+01
-1.161936621927e+02
-1.396023767339e+02
-8.014376708598e+01
-3.853308127474e+01
-7.388629661987e+01
-2.045963742194e+02
-1.181794596421e+02
-7.152380272740e+01
-1.231300524450e+02
-8.671864587418e+01
-4.696958502301e+01
-1.338022593088e+02
-1.144472928375e+02
-1.818354683062e+02
-1.459926263940e+02
-7.677140841833e+01
-1.924990600521e+02
-1.140156716712e+02
-1.279828463697e+02
-1.366048249104e+02
-9.490778656610e+01
-1.224359904049e+02
-1.257508754003e+02
-1.721860452483e+02
-7.274067971434e+01
-1.130807502423e+02
-1.163769853494e+02
-1.140284980461e+02
-1.650767711967e+02
-1.863796265972e+02
-4.622745641421e+01
-6.731747692013e+01
-9.272926053238e+01
-1.642543516258e+02
-1.395376917703e+02
-7.548246013492e+01
-1.861868391804e+02
-1.337942199350e+02
-1.262695784492e+02
-5.385498564241e+01
-3.554148686368e+01
-7.430336004310e+01
-1.107437323352e+02
-1.380102968253e+02
-1.494772987447e+02
-1.921140622521e+02
-1.731142635084e+02
-1.855399083102e+01
-5.476267030616e+01
-1.980259546388e+02
-1.296214338971e+02
-1.793390307275e+02
-1.339334393825e+02
-1.815193680947e+02
-3.924452797930e+01
-2.040365717144e+02
-1.716416276519e+02
-6.850913611925e+01
-5.123887779034e+01
-2.182636414208e+02
-1.840241041235e+02
-1.254441707406e+02
-1.246969493977e+02
-3.603163552698e+01
-1.437063175501e+02
-1.167129407520e+02
-1.566536045849e+02
-1.888021824767e+02
-1.026286991679e+02
-1.374890664989e+02
-1.448623266740e+02
-2.994475562510e+01
-4.544449173096e+01
-1.430281363212e+02
-8.031415895388e+01
-1.309230746654e+02
-1.931809933025e+02
-1.485579134927e+02
-9.065407034161e+01
-1.540521609052e+02
-2.800078175155e+01
-1.100240316357e+02
-1.595162907197e+02
-1.285345447643e+02
-3.149924626536e+01
-1.332149397169e+02
-2.024791648805e+02
-9.252336463545e+01
-1.371466055055e+02
-1.223423394324e+02
-2.519975413922e+01
-1.488261524156e+02
-1.403806584076e+02
-1.409445203389e+02
-1.218369152207e+02
-1.608290210434e+02
-3.581519453057e+01
-6.908425314764e+01
-5.797983365702e+01
-9.673376341170e+01
-1.442155289189e+02
-3.958889481112e+01
-1.251511279664e+02
-4.236136450601e+01
-9.212254050041e+01
-1.610891293212e+02
-8.405481958519e+01
-9.788603057092e+01
-6.551932612254e+01
-9.288722170931e+01
-1.331856672512e+02
-9.842560893629e+01
-9.306875539960e+01
-1.401697047331e+02
-9.835907585008e+01
-1.506534446157e+02
-2.295339985451e+02
-6.034629926456e+01
-2.243683693734e+01
-1.585569461837e+01
-3.484964228967e+01
-8.160918697282e+01
-1.283439954375e+02
-6.085590004648e+01
-7.552195299960e+01
-1.616109155449e+02
-1.971307275440e+02
-1.012841275696e+02
-1.861035304997e+02
-1.489562636691e+02
-1.290642474908e+02
-5.071493543691e+01
-2.142532577828e+01
-1.714466457078e+02
-2.189503740809e+01
-3.093477630451e+01
-2.875931558491e+01
-8.088004596742e+01
-3.075719248843e+01
-2.290634949188e+01
-2.020372684321e+02
-6.279859806603e+01
-1.648199052924e+02
-2.145412392111e+01
-1.449100748732e+02
-1.906177655263e+02
-2.281392118411e+02
-1.771630836466e+02
-2.540978276385e+01
-7.595714664814e+01
-1.747016436439e+02
-1.108162621119e+02
-2.300305156874e+02
-6.238002456224e+01
-1.412588169012e+02
-4.184848175324e+01
-1.411839733286e+02
-1.403545847024e+02
-7.580461628359e+01
-7.767159373339e+01
-2.212618255557e+02
-1.557956798655e+02
-2.306979176532e+01
-1.008318611297e+02
-1.007856696244e+02
-2.206948609642e+01
-2.157203836318e+02
-1.515368655233e+02
-2.200042952234e+02
-2.942221888200e+01
-1.969989354607e+01
-2.154081033352e+02
-1.686955921442e+02
-4.731188111116e+01
-1.550409799167e+02
-1.818770897791e+01
-4.980671900018e+01
-1.983082060116e+01
-2.304541867685e+02
-1.433054778746e+02
-1.112390764687e+02
-5.728697724023e+01
-7.345056000234e+01
-1.745363885113e+02
-2.885031296175e+01
-1.436398807892e+02
-2.131288625352e+02
-1.511342195985e+02
-2.117311636085e+02
-2.064468172105e+01
-1.909218929769e+02
-1.990554256776e+02
-5.039067160385e+01
-1.529135712673e+02
-9.033169433285e+01
-3.926370545181e+01
-1.517773401839e+02
-8.447484712003e+00
-4.951684568515e+01
-2.323819763122e+02
-3.743496863732e+01
-6.917530470903e+01
-1.662407111335e+02
-1.370019686109e+02
-1.223930415284e+02
-3.747165342165e+01
-1.475667708399e+01
-9.032942851354e+01
-1.956494454888e+02
-1.489703171943e+02
-8.229169475866e+01
-2.900515715318e+01
-1.607586390594e+02
-1.203105270576e+02
-1.691313157361e+02
-1.955982544710e+02
-1.293526140446e+01
-1.474596521952e+02
-1.886178116572e+01
-2.204589521578e+02
-1.254403216820e+02
-1.073695330457e+01
-1.073121817775e+01
-2.476038089399e+01
-2.331481611802e+01
-3.771229568361e+01
-3.452462386229e+01

SCALARS node_materi_stress_size_dev_sd_sig float
LOOKUP_TABLE default
4.212510676324e+00
2.292892609322e+01
1.791657130501e+02
1.164872842113e+02
1.039637316151e+01
2.040059787583e+01
2.957243417442e+01
4.001962730739e+01
5.016196183394e+01
5.999638961345e+01
6.984055800267e+01
7.963055435316e+01
8.927602554217e+01
9.892640614578e+01
1.086613305185e+02
1.176882608840e+02
1.257255428663e+02
1.345158658813e+02
1.432436339563e+02
1.514802018547e+02
1.595809673298e+02
1.675274086332e+02
1.749280160415e+02
1.171242168369e+02
1.167265465675e+02
1.169166352931e+02
1.170444333220e+02
1.168348004440e+02
1.173497039845e+02
1.176843183714e+02
1.180551439767e+02
1.189259509440e+02
1.196105122278e+02
1.200386493679e+02
1.214192988004e+02
1.228604681436e+02
1.243084187112e+02
1.258268404254e+02
1.275982815331e+02
1.298271075807e+02
1.327661939372e+02
1.358578211867e+02
1.390320159054e+02
1.420452468430e+02
1.449869711436e+02
1.480801062401e+02
1.510313909837e+02
1.539746499335e+02
1.567792962306e+02
1.594184820453e+02
1.617575671881e+02
1.638642407154e+02
1.660174565514e+02
1.678269267724e+02
1.690325853110e+02
1.705286450315e+02
1.719230928544e+02
1.731472529082e+02
1.741882686682e+02
1.751158626906e+02
1.757994920449e+02
1.763543054012e+02
1.767936958564e+02
1.773916178622e+02
1.781272988099e+02
1.785567192630e+02
1.779813702010e+02
1.789088846212e+02
1.787978851862e+02
1.791168019757e+02
1.794787093456e+02
1.795102402758e+02
3.193805022119e+01
4.126645614729e+01
5.058659160425e+01
5.991033547039e+01
6.962559772426e+01
7.946330983304e+01
8.948723495998e+01
9.960609390440e+01
1.100853631454e+02
1.049347931602e+01
2.217803827672e+01
1.900257489452e+01
2.324757390409e+01
2.497520873000e+01
2.491570462777e+01
2.447071567400e+01
2.415806430847e+01
1.920233204595e+01
1.182459637435e+01
1.482742186539e+01
6.666542040348e+00
6.869235772049e+00
1.382806872773e+01
2.161687041936e+01
2.206311469100e+01
2.206397817020e+01
2.190556421587e+01
2.299360133608e+01
2.189415476348e+01
2.168085428701e+01
2.168564788740e+01
2.177510497233e+01
2.161516013228e+01
2.142560844269e+01
2.128249406592e+01
2.123371920257e+01
2.142369567530e+01
9.780270611558e+00
1.048226305701e+01
1.079516746488e+01
9.973099747581e+00
8.210289759133e+00
7.004373159198e+00
5.986873059216e+00
5.021579588370e+00
4.142614868289e+00
3.451232601470e+00
2.963236472682e+00
3.013976329056e+00
3.060144159242e+00
2.943759885887e+00
3.319099470059e+00
3.785136841414e+00
4.075662449548e+00
4.018236648619e+00
3.714254683384e+00
1.068114358205e+01
5.813003183398e+00
4.226928766700e+00
3.814117641262e+00
3.826329131118e+00
3.915471814518e+00
4.078006208057e+00
4.281874039073e+00
4.511729332140e+00
4.756528184988e+00
4.980770543915e+00
5.169843436292e+00
5.350337913402e+00
5.499268101311e+00
5.611957662774e+00
5.686590757384e+00
5.729923779081e+00
5.925171436409e+00
6.842550634554e+00
6.762705865634e+00
6.689993977043e+00
6.672825226471e+00
6.668295359674e+00
6.663069247784e+00
6.654588989064e+00
6.647982213058e+00
6.633601695407e+00
6.623278131163e+00
6.624784016107e+00
6.624141169253e+00
6.624252710467e+00
6.634521826920e+00
6.649401033257e+00
6.789412969663e+00
7.595986311835e+00
7.840897264255e+00
1.290730773357e+01
1.407455261888e+01
1.357122455341e+01
1.357355857000e+01
1.363577976677e+01
1.369749494880e+01
1.370155364644e+01
1.372048237535e+01
1.376343295197e+01
1.377254181455e+01
1.377616930300e+01
1.378044918334e+01
1.379871472981e+01
1.376526305811e+01
1.385077413947e+01
1.396758281405e+01
1.500048074345e+01
2.157592363586e+01
2.427351078428e+01
2.514100153784e+01
2.567893336760e+01
2.501710565338e+01
2.402725437622e+01
1.438353613855e+01
1.317282285959e+01
1.868575878323e+01
2.071607965373e+01
1.686263319000e+02
5.828063606762e+00
6.163296880345e+00
1.733983823055e+02
2.556704931510e+01
1.041625812898e+02
1.615638236146e+02
2.686803152312e+01
1.518338583645e+02
2.024622918620e+01
1.756804158628e+02
6.791968781535e+00
1.390712534963e+02
2.667988443497e+01
6.538496045229e+01
1.288413586345e+02
1.290138181360e+02
1.198156866803e+02
1.126535074442e+02
1.125546026481e+02
1.160091009133e+02
2.921401243920e+01
2.948099034999e+01
3.057542152205e+01
6.476108133020e+01
1.759152895171e+02
6.763943087287e+00
8.282639746191e+00
1.552628643462e+02
2.996437086757e+01
3.480320138435e+01
1.218935165998e+02
1.576284138848e+02
1.456096369447e+02
1.648943645847e+02
1.711639536507e+02
5.869369401739e+00
2.888373608470e+01
1.734281672048e+02
8.427428623216e+01
6.539109819164e+00
8.455234925898e+01
1.139406376800e+02
2.694339112091e+01
2.400664645113e+01
2.573774118645e+01
2.079541918908e+01
1.467899424674e+01
4.657899586758e+01
1.774018614866e+02
8.144589158525e+00
1.042501185983e+02
3.020264867564e+01
3.535649759300e+01
3.867742190056e+01
4.526027547560e+01
4.902808483328e+01
5.529755603064e+01
5.194245943286e+01
6.219689482849e+01
5.931983640956e+01
5.924747176491e+01
6.964863920743e+01
6.721510093674e+01
7.749818945146e+01
7.544486455917e+01
6.554218966506e+01
7.406165056282e+01
6.455696392288e+01
7.326817818014e+01
8.256511122696e+01
8.182910611529e+01
7.294037293611e+01
8.140513661333e+01
7.287711362481e+01
8.114048885479e+01
7.285786958663e+01
8.086779102038e+01
8.910595117359e+01
8.857368297309e+01
8.046448588203e+01
8.788213591142e+01
7.981462880854e+01
8.692014669645e+01
9.498478878041e+01
9.372721453622e+01
8.560279070227e+01
9.214137960748e+01
8.390555496229e+01
9.019747881672e+01
8.179360519884e+01
8.782199489419e+01
9.616671880425e+01
9.356229381903e+01
8.502620277763e+01
9.051747654307e+01
9.903170653904e+01
9.574890946152e+01
1.042379812443e+02
1.007435601577e+02
9.211481986154e+01
9.690999734746e+01
1.055077802572e+02
1.014871709831e+02
9.274666931723e+01
9.718398590282e+01
1.059043294447e+02
1.014683218239e+02
9.260025462392e+01
9.679361179138e+01
1.056739253409e+02
1.008849698319e+02
9.186148990488e+01
9.588191879822e+01
1.049285354990e+02
9.984784727017e+01
1.088951072828e+02
9.061565028986e+01
9.457665963965e+01
8.514385387013e+01
8.915585466205e+01
1.017685648275e+02
7.955648125464e+01
7.558552726266e+01
8.363356478073e+01
9.320191262784e+01
7.389191735015e+01
7.803466925650e+01
6.818852149597e+01
7.531994071618e+01
9.095125083165e+01
7.239459361999e+01
6.246877566162e+01
5.817796570716e+01
5.240401300322e+01
5.340229701071e+01
6.366222423296e+01
5.774922541396e+01
6.835355720160e+01
6.284998461678e+01
5.671540269303e+01
8.027474534632e+01
7.430490098968e+01
6.430415360061e+01
7.240228893794e+01
1.073771563425e+02
8.215878615903e+01
7.658843461123e+01
8.631113559941e+01
1.138126732736e+02
1.177371165675e+02
1.224890726903e+02
1.263526656525e+02
1.309391095939e+02
1.347369445163e+02
1.301316556661e+02
1.384500977663e+02
1.338412474804e+02
1.391551027539e+02
1.353121732253e+02
1.420874388267e+02
1.374870406542e+02
1.456575162893e+02
1.410781012505e+02
1.327329052507e+02
1.363555614511e+02
1.278862522914e+02
1.125606459334e+02
1.155866459008e+02
1.207360670643e+02
1.236712405837e+02
1.287715770804e+02
1.316296440911e+02
1.366474738503e+02
1.335991046186e+02
8.560098168922e+01
8.180753015781e+01
7.627664878513e+01
7.287688500112e+01
6.729608989096e+01
6.368753301436e+01
5.804449697419e+01
5.417827098713e+01
5.962917827029e+01
4.985046267761e+01
5.512392490772e+01
4.508826313587e+01
5.018026247470e+01
9.677234238784e+01
1.263063600524e+02
1.342237807885e+02
1.286371572508e+02
4.805663360488e+01
1.446301959339e+02
1.433667246023e+02
1.394412110220e+02
1.413998300002e+02
4.672789710470e+01
4.851551313642e+01
5.208965972191e+01
7.332183806752e+01
6.797951822360e+01
1.473632142908e+02
5.104658864904e+01
1.465293264183e+02
3.976400816167e+01
1.399466745844e+02
1.481538613862e+02
1.253697407849e+02
1.365891554825e+02
1.307153454434e+02
6.019093426480e+01
5.514593838004e+01
4.510919629311e+01
5.010348010654e+01
6.004263801931e+01
5.453955715553e+01
4.438941820432e+01
4.885034171256e+01
5.904296942124e+01
5.332188117569e+01
4.289318520947e+01
4.742666535829e+01
1.526598015953e+02
3.469906740248e+01
5.582632277032e+01
1.511686754245e+02
1.442639774934e+02
7.852553829621e+01
7.332962198999e+01
6.301971139591e+01
6.850350032521e+01
7.890187294407e+01
7.408982324916e+01
6.394268026894e+01
6.948440904642e+01
5.954377757653e+01
6.506189118913e+01
7.510495364375e+01
7.067342726782e+01
6.081669158334e+01
6.635078784774e+01
5.663315359232e+01
6.203531506521e+01
7.193786766531e+01
4.127628273979e+01
1.381882577110e+02
1.459545489525e+02
8.109739604422e+01
9.032591932935e+01
9.582102873843e+01
9.988166619062e+01
6.749900189097e+01
7.759879776210e+01
4.262547279579e+01
4.588043842246e+01
8.411861189869e+01
1.435448050881e+02
1.351948952107e+02
7.170981204753e+01
6.428475813332e+01
6.344634349428e+01
5.585522775510e+01
5.657711128285e+01
5.475348459167e+01
1.312710298081e+02
8.083510556613e+01
5.388999604652e+01
4.368638283357e+01
1.516977074036e+02
1.302637830432e+02
9.748578538450e+01
1.051016352398e+02
1.060566822220e+02
1.135913903829e+02
1.148042298847e+02
1.221893094391e+02
1.208059900453e+02
1.387441280635e+02
1.292645637056e+02
5.755993020616e+01
1.205987596284e+02
6.348529893526e+01
3.687569862338e+01
3.671654000438e+01
4.529407908221e+01
5.532499126289e+01
1.550206205897e+02
1.236604557007e+02
1.160579373648e+02
4.829200113966e+01
4.875120157167e+01
1.443800212431e+02
5.268530447117e+01
5.414205833259e+01
4.991926644920e+01
3.440166603453e+01
3.241967371474e+01
8.457827909725e+01
5.511115326112e+01
4.864492132497e+01
2.925973387538e+01
2.396873374981e+01
7.286733295021e+01
8.296958520269e+01
1.051192620381e+02
1.091092208868e+02
1.511513006356e+02
4.149690668643e+01
8.779800815760e+01
1.347185842541e+02
1.266464371767e+02
9.433777863178e+01
3.665744159808e+01
3.320331026862e+01
6.901084327670e+01
5.192136284481e+01
4.959254111144e+01
1.586266008883e+02
8.956835168214e+01
1.276663983294e+02
1.193788543883e+02
1.359786323553e+02
3.083459247172e+01
1.588499162655e+02
1.471746474480e+02
1.248406869858e+02
1.175327995052e+02
5.764122544789e+01
5.104076572254e+01
4.207066738821e+01
4.420692240182e+01
4.919909730677e+01
5.987681659908e+01
5.527792192273e+01
4.634820179313e+01
4.637103255317e+01
5.670031447924e+01
4.855677553523e+01
7.040552375969e+01
1.101396251651e+02
1.012009227014e+02
1.241930784851e+02
1.185073425669e+02
8.540755370024e+01
9.130080643278e+01
5.122753379611e+01
4.706230048869e+01
3.781452004428e+01
3.338836850757e+01
1.128091277074e+02
1.548433754693e+02
8.930195345501e+01
9.516347827195e+01
9.004639504541e+01
1.546082622650e+02
7.819243301803e+01
1.174853517064e+02
2.934204495908e+01
1.030442010689e+02
2.761683326511e+01
9.207019901808e+01
1.552299862311e+02
1.595615986577e+02
1.465490034248e+02
3.237720189642e+01
1.097885949366e+02
1.082349889847e+02
3.728611203166e+01
3.791886489092e+01
4.704658041179e+01
3.927598258852e+01
7.328019794595e+01
6.772429043825e+01
1.332441074937e+02
1.376474840780e+02
1.268848628968e+02
1.195074217129e+02
1.519688686546e+02
1.495816064385e+02
5.937272804558e+01
4.093465074678e+01
9.525070464018e+01
3.766920162527e+01
1.621958808515e+02
1.584231031970e+02
1.832017207718e+01
2.334622996069e+01
9.343849671933e+01
3.548731074946e+01
3.709075321398e+01
3.343521979698e+01
1.710424225674e+02
2.984792433158e+01
1.630459973692e+02
5.643025066579e+01
9.837819430660e+01
1.162679304436e+02
7.046818259946e+01
1.470809194552e+02
8.797152134585e+01
9.940009717135e+01
4.464181855509e+01
4.036386723179e+01
4.858261701367e+01
3.419560002103e+01
2.298210984225e+01
8.657823716293e+01
7.105585273580e+01
7.635935624518e+01
4.575457392657e+01
5.597965360256e+01
1.103491649866e+02
1.064843478209e+02
1.002873667281e+02
1.017788374046e+02
9.822578145308e+01
1.309887989362e+02
1.227692911445e+02
1.184282492589e+02
9.587128278730e+01
1.029922592038e+02
7.857476782801e+01
7.427340494684e+01
7.731875433887e+01
1.005229300311e+02
1.671750928242e+02
1.637701754228e+02
2.312970399131e+01
2.880205294390e+01
2.794808660139e+01
2.452803471210e+01
1.011657210983e+02
9.653746070507e+01
1.073042042726e+02
5.298896024799e+01
1.260181642963e+02
1.615172096549e+02
1.576294080496e+02
1.663247266925e+02
1.406882044863e+02
1.484258152491e+02
1.440636435697e+02
1.355286523316e+01
9.577007002203e+01
4.143070758982e+01
9.398374279317e+00
3.745060202732e+01
4.292128208969e+01
3.294626695788e+01
4.319512414222e+01
3.788377773232e+01
4.335386741199e+01
1.665636663027e+01
1.061627964863e+02
1.801810176341e+01
2.221816200044e+01
1.657792867491e+02
1.618740143214e+02
1.689648034065e+02
1.649806837091e+02
1.577598103999e+02
1.613118726917e+02
3.610056624430e+01
1.694436319533e+02
1.648620623668e+02
1.731679756629e+02
3.000299112937e+01
4.584541123836e+01
3.849426481017e+01
3.022884124351e+01
1.306451765628e+02
1.212081213367e+02
1.509946252991e+02
1.427275182903e+02
3.831463844950e+01
3.794921362351e+01
4.634195039123e+01
4.531831533172e+01
5.389923630091e+01
5.264059220030e+01
6.151048652255e+01
1.459652354725e+02
2.799745960659e+01
2.850110835091e+01
1.569756194622e+02
1.539201437684e+02
4.025179040178e+01
3.297252562113e+01
1.669550026781e+02
6.650776035090e+01
1.133303130554e+02
7.945570864515e+00
1.184179917767e+01
6.858822549338e+01
4.791399024657e+01
4.708753184870e+01
4.015141381327e+01
1.391187144145e+02
2.442782659544e+01
3.099671612810e+01
6.244118006741e+01
2.380077757401e+01
1.470568366803e+02
7.307546158035e+01
6.471005996141e+01
3.960318536639e+01
5.320166127917e+01
5.716999627212e+01
4.196209275630e+01
3.937342375093e+01
7.923457343027e+01
4.078060570158e+01
3.224455052054e+01
6.420220974572e+01
8.525434060217e+01
9.186867422129e+01
1.029428169466e+02
9.885008050875e+01
8.769015656462e+01
9.490828347458e+01
1.060907511742e+02
1.027458918888e+02
1.158462045626e+02
1.105880113615e+02
9.922275882301e+01
1.068643276396e+02
1.173205030428e+02
9.613412833283e+01
1.591928475654e+02
7.722376964259e+01
1.852211344360e+01
1.662539664694e+01
6.455370828594e+01
1.260801824006e+02
1.212126512487e+02
6.136174611203e+01
1.421746577809e+02
4.728949996764e+01
4.435978715431e+01
1.487474855518e+02
8.074383957164e+01
7.653878986227e+01
6.981393670827e+01
1.184376310695e+02
5.304516002243e+01
1.597524131612e+02
1.182746336984e+02
1.125031458174e+02
1.043663058753e+02
9.130804508430e+01
1.671917286792e+02
1.623937556638e+02
1.636408241185e+02
1.567462702987e+02
1.699211472113e+02
1.329126123756e+02
1.363762510692e+02
6.457626043884e+01
6.983309306428e+01
7.924100060718e+01
7.468145246980e+01
6.511288041110e+01
6.987574143346e+01
7.916318325168e+01
6.484350852922e+01
1.115849159407e+02
1.721690232617e+02
1.270175456618e+02
1.229081739763e+02
1.143850183716e+02
9.723549237484e+01
1.025573510522e+02
1.116531528407e+02
9.181722056198e+01
1.124030345959e+02
1.728774338383e+02
1.221717759709e+02
9.856896482522e+01
2.899801279702e+01
3.692741280123e+01
3.744211117103e+01
4.629769454828e+01
3.763442764848e+01
1.142138501316e+02
1.180511016470e+02
1.130519338298e+02
1.218348114757e+02
1.166922412985e+02
1.084024843750e+02
1.254134102624e+02
1.197816466667e+02
2.906021033029e+01
5.997716285557e+00
1.368702444073e+01
1.374630979627e+01
2.272880520180e+01
2.318703303190e+01
3.297470503099e+01
3.129100308412e+01
1.331044012581e+01
5.734955347380e+00
1.415634035667e+01
5.718744492673e+00
1.427911690119e+01
2.465171648050e+01
3.945322117932e+01
1.751398804946e+02
9.407772187627e+01
8.955247087340e+01
8.018980479877e+01
8.530751218338e+01
9.792713497610e+01
7.499398324956e+01
7.150413549068e+01
8.474281572746e+00
1.702470115087e+01
1.625104931228e+01
2.558044352275e+01
2.520896054705e+01
1.698198071925e+01
1.685675366625e+01
7.943487583773e+00
1.659647260813e+01
2.543258634647e+01
7.318448721143e+00
7.459914825186e+01
8.004445971582e+01
1.737748403406e+02
3.039579767844e+01
6.242905169935e+00
1.107628157260e+02
1.130655386501e+02
1.129790429371e+02
1.633581644189e+02
1.671835969223e+02
1.109666004403e+02
6.395154631292e+01
1.098455817249e+02
9.237275469802e+01
3.880405671132e+01
6.197932587010e+01
1.388859932814e+02
1.290842514528e+02
1.561148654306e+02
1.315609895617e+02
1.491780287323e+02
1.645464447463e+02
3.979273641524e+01
5.528814229594e+01
5.239778177899e+01
7.634149205362e+01
6.674159176517e+01
1.042799364884e+02
4.236004483378e+01
1.396930864463e+02
5.541803614728e+01
1.097889639067e+02
8.772795808311e+01
6.977881316230e+01
5.776970383120e+01
7.877449878589e+01
1.038049390798e+02
1.428849746846e+02
8.206690615697e+01
7.989726303779e+00
1.471295401570e+02
1.215847251993e+02
5.847436642978e+01
1.394373941983e+02
3.859974441306e+01
7.973555080617e+01
1.000115735797e+02
4.779084605477e+01
3.219701302152e+01
4.572870661501e+01
1.623000425818e+02
7.906435586671e+01
6.102191214366e+01
1.091979675335e+02
7.273979732757e+01
2.321673752924e+01
9.686498233596e+01
1.002095352654e+02
1.489976920579e+02
1.256204884082e+02
6.538416748350e+01
1.543605910874e+02
1.019151950739e+02
9.027941116856e+01
1.070856736234e+02
8.707835432220e+01
8.392036014042e+01
1.101740477671e+02
1.420141841336e+02
5.592678617326e+01
8.958454027182e+01
8.377250547299e+01
9.596886697462e+01
1.341921860484e+02
1.507947991332e+02
4.001450305992e+01
6.198623905280e+01
5.773938246185e+01
1.307077086408e+02
1.009597328779e+02
6.469208667594e+01
1.500777606308e+02
9.464177076602e+01
1.077475701082e+02
4.585531591191e+01
2.926170693700e+01
6.905890898131e+01
9.836423668260e+01
1.166785366579e+02
1.092830749326e+02
1.535549762775e+02
1.433653213039e+02
1.801406955289e+01
2.982425040811e+01
1.570285217689e+02
1.139234681243e+02
1.469474469822e+02
1.112497145452e+02
1.428485403271e+02
3.185834805204e+01
1.606479750344e+02
1.427126288668e+02
6.416610173850e+01
3.005794315672e+01
1.692635218121e+02
1.504336056995e+02
1.041251662709e+02
1.100534697296e+02
1.955600637133e+01
1.204799966981e+02
9.015119394570e+01
1.172958149025e+02
1.532558456417e+02
6.566625561820e+01
1.154630719280e+02
1.225810716865e+02
2.513719592943e+01
2.856644546327e+01
1.192434279776e+02
7.421912942767e+01
1.144260575373e+02
1.540706142823e+02
1.230102915366e+02
8.329075899060e+01
1.267357259547e+02
2.238870130083e+01
7.278944361367e+01
1.303988028117e+02
9.912398684410e+01
2.613762969991e+01
1.111537753694e+02
1.591043983468e+02
8.122140893104e+01
1.186815623860e+02
8.377536363384e+01
2.664249427323e+01
1.270470412839e+02
1.083008049629e+02
1.178585551519e+02
1.064557692873e+02
1.352991000163e+02
3.348714742483e+01
5.983908749918e+01
4.977995785517e+01
8.814057452020e+01
1.097739865616e+02
3.366506063754e+01
8.816517428949e+01
3.515069392760e+01
8.384537777792e+01
1.326252054415e+02
5.572590074027e+01
8.831318852909e+01
5.569590369958e+01
8.357548231731e+01
1.145016829368e+02
8.778877761153e+01
8.269404985129e+01
1.028341552275e+02
8.668347002058e+01
1.125991921171e+02
1.757091955205e+02
3.714055334347e+01
2.621447048767e+01
6.545071328002e+00
3.319343406793e+01
7.170801377957e+01
9.372588947078e+01
3.741111428624e+01
6.588187979097e+01
1.220392089328e+02
1.548928956204e+02
6.973255826330e+01
1.512907827350e+02
1.244514301747e+02
9.362932020022e+01
2.907863564081e+01
1.455505120601e+01
1.385239292418e+02
2.570928018999e+01
2.941267835565e+01
2.613532692324e+01
6.889110487857e+01
2.276794336097e+01
2.492169483921e+01
1.604567827773e+02
3.643708550273e+01
1.342039251444e+02
2.256691939463e+01
1.055403267774e+02
1.514221196215e+02
1.752952273028e+02
1.425102896281e+02
2.080554647813e+01
4.402353885921e+01
1.362092932549e+02
7.741327064441e+01
1.761661466164e+02
3.498639670371e+01
1.041672367334e+02
3.502001135150e+01
1.042655115494e+02
1.039725238279e+02
4.846821604607e+01
4.460787558960e+01
1.706862102370e+02
1.159327646320e+02
1.690790975398e+01
6.900877667503e+01
8.554263558661e+01
1.125477344941e+01
1.684894422998e+02
1.138576500284e+02
1.701905587413e+02
2.518779187667e+01
1.428378406161e+01
1.685378111656e+02
1.295331561362e+02
4.021115465706e+01
1.160941111289e+02
1.159501922350e+01
2.782944037442e+01
1.544549949957e+01
1.763173391118e+02
1.051060881759e+02
9.373864544300e+01
2.979720864082e+01
6.242049699746e+01
1.383159959934e+02
2.163994405746e+01
1.058610164892e+02
1.673317464609e+02
1.111031460549e+02
1.654478704354e+02
9.842769157584e+00
1.510691825498e+02
1.593608382780e+02
2.917105198224e+01
1.127812207849e+02
7.664461173264e+01
3.290025609720e+01
1.136856738073e+02
6.993178032143e+00
2.895771136165e+01
1.773586058702e+02
3.151932427016e+01
4.385436779647e+01
1.267993190734e+02
1.136195157823e+02
8.775813378035e+01
2.969852601955e+01
6.756586474897e+00
6.071219590016e+01
1.552345201877e+02
1.093460895914e+02
5.376921639573e+01
2.180076000405e+01
1.220521926182e+02
1.007657142730e+02
1.322280548219e+02
1.569978185599e+02
1.128463408265e+01
1.214416474532e+02
1.414362230667e+01
1.708936065094e+02
1.048301901137e+02
9.274690486062e+00
6.299624326221e+00
1.084463710470e+01
1.010812790551e+01
1.709884495933e+01
1.792449644857e+01

SCALARS node_materi_strain_total_average_a_ept float
LOOKUP_TABLE default
3.967689377489e-05
3.508665702188e-03
2.766177838460e-03
4.932565326126e-03
1.127328725216e-04
2.578431823403e-04
3.999372001864e-04
5.556899361642e-04
7.079778097898e-04
8.590194447897e-04
1.008774262184e-03
1.157583778826e-03
1.305609976926e-03
1.453316122246e-03
1.602646067954e-03
1.748414133939e-03
1.879280036517e-03
2.020167922618e-03
2.163274410379e-03
2.299919164779e-03
2.435692567268e-03
2.570329830471e-03
2.700929679797e-03
4.941311992857e-03
4.932242361387e-03
4.932370385171e-03
4.928858976865e-03
4.917894044410e-03
4.917322002837e-03
4.907302910647e-03
4.892610010435e-03
4.881461832270e-03
4.863761600175e-03
4.833291324424e-03
4.809988269983e-03
4.773252633881e-03
4.731463080346e-03
4.679245497322e-03
4.619744059768e-03
4.551483230417e-03
4.478057436617e-03
4.400360041568e-03
4.316942601244e-03
4.224135119177e-03
4.123679935724e-03
4.024394554381e-03
3.922736002714e-03
3.822871431333e-03
3.726671253650e-03
3.631919259187e-03
3.544083717034e-03
3.455602660261e-03
3.379969650494e-03
3.304753020748e-03
3.228406545747e-03
3.161051316229e-03
3.107443375569e-03
3.057083659159e-03
3.008125751340e-03
2.972953384626e-03
2.931292389053e-03
2.901297716631e-03
2.868418888120e-03
2.846522843827e-03
2.836464964935e-03
2.826012517454e-03
2.790007378244e-03
2.796028326476e-03
2.777801522487e-03
2.773404562163e-03
2.776178840943e-03
2.772723436200e-03
3.656613473261e-03
3.801424605731e-03
3.946575121413e-03
4.089978007969e-03
4.237014741028e-03
4.385917272474e-03
4.533768856639e-03
4.683789352300e-03
4.833444225644e-03
-1.012733006359e-04
3.386838533368e-03
1.267325752459e-04
5.185926269333e-04
9.625987028937e-04
1.413982477284e-03
1.883629777501e-03
2.352706855222e-03
2.815604539577e-03
3.099527584163e-03
3.241242270158e-03
3.117140551289e-03
3.214240996157e-03
3.359970464687e-03
3.490772087349e-03
3.500120871805e-03
3.499640254467e-03
3.496493176760e-03
3.514219101353e-03
3.494864525689e-03
3.490099064570e-03
3.487562231627e-03
3.483584162684e-03
3.474735344933e-03
3.464976980174e-03
3.451461197570e-03
3.435094141682e-03
3.415815349541e-03
-1.291521997084e-04
-1.604426188366e-04
-1.685212871594e-04
-1.562182169739e-04
-1.320629928759e-04
-1.122383196036e-04
-9.286056324175e-05
-7.386476330085e-05
-5.566500972948e-05
-3.878128403903e-05
-2.083225487832e-05
-9.333331489608e-06
3.912488144945e-06
1.497516318489e-05
2.464818288562e-05
3.133828648484e-05
3.664892822932e-05
3.994894625518e-05
3.903528663744e-05
3.059699657351e-03
3.147660775198e-03
3.188524782160e-03
3.196851939165e-03
3.200133494778e-03
3.196202252171e-03
3.192121011549e-03
3.186512944900e-03
3.180394501041e-03
3.174483523233e-03
3.169370480858e-03
3.164917110712e-03
3.161019138946e-03
3.157620768518e-03
3.155231120207e-03
3.153806272741e-03
3.153242306095e-03
3.144933074617e-03
3.119889008306e-03
3.216186539306e-03
3.220642754626e-03
3.221902719374e-03
3.222726495785e-03
3.223819839554e-03
3.225146765095e-03
3.226838827872e-03
3.228376459734e-03
3.229845858109e-03
3.231487962345e-03
3.232745363075e-03
3.232827696883e-03
3.230919383735e-03
3.225224589226e-03
3.217366192193e-03
3.200372409345e-03
3.161867801096e-03
3.272076892382e-03
3.308397687683e-03
3.324455707010e-03
3.337067484637e-03
3.345842572179e-03
3.351852241126e-03
3.355435635108e-03
3.358404617844e-03
3.361275581210e-03
3.361846257082e-03
3.362823153608e-03
3.363133197607e-03
3.363477074736e-03
3.363094845007e-03
3.362827432064e-03
3.361673984829e-03
-1.849094454022e-05
3.132364622898e-04
7.386230910319e-04
1.195111573493e-03
1.645266681277e-03
2.125606051287e-03
2.561228080764e-03
3.005058564960e-03
3.180053651004e-03
3.322556313002e-03
5.158329572930e-04
3.095000156226e-03
1.761245212726e-05
-5.595989423104e-05
2.877223797776e-03
1.384283687595e-03
1.534254734486e-03
3.362334730688e-03
2.245003422131e-03
3.717687781399e-03
3.001649247344e-03
2.790196559304e-03
6.072869961984e-05
4.104796266993e-03
3.385711539099e-03
9.413510910003e-04
1.928001602034e-03
4.355029409403e-03
4.625683105348e-03
4.845087391675e-03
4.794690790276e-03
4.743336912474e-03
3.524515620805e-03
3.598001414828e-03
3.630469215201e-03
4.164764793524e-03
2.741928744777e-03
-4.617372691096e-05
8.867457226122e-05
2.363378911867e-03
3.624919854535e-03
4.766168056713e-04
4.485346136018e-03
3.544030215829e-03
3.912841098800e-03
3.221608612284e-03
2.993604538396e-03
-2.084591597408e-05
3.566019049038e-03
2.799312295036e-03
4.455077903962e-03
4.680202765893e-05
1.232857869788e-03
4.878034043235e-03
1.822056608218e-03
9.387647551115e-04
2.653812229776e-03
3.211009258622e-03
1.318846547051e-04
3.885964166054e-03
2.748889603684e-03
9.039624625035e-05
4.751591441198e-03
3.461171119909e-03
3.471319792773e-03
3.566132999753e-03
3.570396904279e-03
3.673346745612e-03
3.678423992195e-03
3.568123511710e-03
3.678796987711e-03
3.560372545697e-03
3.786691781868e-03
3.674569632516e-03
3.548522379759e-03
3.666236851843e-03
3.533743263173e-03
3.417985801096e-03
3.397290103715e-03
3.281982941117e-03
3.255733138214e-03
3.376599648000e-03
3.230847574396e-03
3.108345530214e-03
3.081046236829e-03
2.955392721980e-03
2.927083195293e-03
2.796311112342e-03
2.769221686121e-03
2.903535382773e-03
2.747313645958e-03
2.608537043234e-03
2.589324135608e-03
2.445423872055e-03
2.429572226800e-03
2.574945016928e-03
2.419493817909e-03
2.268221437415e-03
2.264089451442e-03
2.106970711816e-03
2.109706449061e-03
1.946790355401e-03
1.955791891681e-03
2.115877079769e-03
1.967836809307e-03
1.803359615794e-03
1.821671078732e-03
1.983452939418e-03
1.843046903142e-03
2.001884041132e-03
1.867022233365e-03
1.706670763783e-03
1.735872237130e-03
1.893020057488e-03
1.766421446177e-03
1.608316818374e-03
1.643957144325e-03
1.799118444137e-03
1.681117335513e-03
1.525378441584e-03
1.566801940732e-03
1.720506689103e-03
1.609296223970e-03
1.455518749335e-03
1.501298583170e-03
1.653540030842e-03
1.548108800572e-03
1.698735709685e-03
1.394892308082e-03
1.444983633875e-03
1.290660260396e-03
1.344429048933e-03
2.565232611450e-03
1.189836358018e-03
1.135000073796e-03
1.246599156406e-03
1.399412621001e-03
1.091677552697e-03
1.151141792303e-03
9.962457678528e-04
1.939299822408e-03
3.356410561558e-03
1.057973219644e-03
9.034362348935e-04
8.395006405321e-04
7.477024313808e-04
3.773068697869e-03
3.896732354939e-03
3.874485869709e-03
4.005098816789e-03
3.978600858837e-03
8.128193883439e-04
3.796752857919e-03
4.026025958265e-03
2.989507068669e-03
2.466683240556e-03
2.139882131860e-03
1.210622888573e-03
1.119539961486e-03
1.270146657489e-03
1.803518850261e-03
1.846554344183e-03
1.950422648844e-03
1.991178867478e-03
2.093836328890e-03
2.132612920881e-03
2.033277801563e-03
2.172873372203e-03
2.076682403792e-03
2.233786375845e-03
2.198398007171e-03
2.214581519976e-03
2.121503103176e-03
2.258108482550e-03
2.167782368504e-03
2.029524736888e-03
2.078351404111e-03
1.939326830662e-03
2.155627761658e-03
2.291459222800e-03
2.304424288243e-03
2.437918375485e-03
2.448462648311e-03
2.579587436557e-03
2.587412854894e-03
2.461485761582e-03
3.653823321085e-03
1.654095721660e-03
1.632182225488e-03
1.479815855153e-03
1.453704950234e-03
1.298186314971e-03
1.267352689513e-03
1.107986713096e-03
1.147326347302e-03
9.536923937677e-04
1.002207114919e-03
8.062233529040e-04
8.628946242995e-04
2.883735693465e-03
2.573709821186e-03
2.713234870914e-03
2.710538068023e-03
6.812116751312e-04
2.215661565886e-03
2.336891733452e-03
2.304295764236e-03
2.598847645991e-03
6.595778733897e-04
1.072408813208e-03
1.239832073534e-03
4.112459343286e-03
4.080891070648e-03
2.441710481616e-03
7.249640780854e-04
2.309263303163e-03
7.519160044111e-04
2.128642402227e-03
2.264695747867e-03
1.936040110234e-03
2.848801185766e-03
2.848220991473e-03
1.051902206131e-03
9.190230337527e-04
7.343408340456e-04
7.955845017526e-04
9.752274041141e-04
8.536855145649e-04
6.748623062467e-04
7.370570178143e-04
9.130780335253e-04
8.005604110548e-04
6.251153705121e-04
6.922687462671e-04
2.350068311391e-03
6.038951825336e-04
3.309052412283e-03
2.471348288278e-03
2.720485590957e-03
4.219424475307e-03
4.182697472154e-03
4.044376796291e-03
4.141879423330e-03
4.284042330352e-03
4.239035176429e-03
4.097286319568e-03
4.190862580319e-03
4.049341602952e-03
4.139825006060e-03
4.284320144866e-03
4.230327285645e-03
4.086008843829e-03
4.174091039522e-03
4.029608491800e-03
4.115313556649e-03
4.262192688684e-03
5.768077497270e-04
2.476829735576e-03
2.613556926244e-03
1.184429106188e-03
1.329170314234e-03
1.418996900583e-03
1.478499285745e-03
4.200451971742e-03
4.349685994397e-03
1.040995897895e-03
1.216687549105e-03
4.251871518369e-03
2.180867805213e-03
2.043277585726e-03
2.297151717415e-03
2.319747713580e-03
2.141696889589e-03
2.162812619889e-03
2.350956411193e-03
1.972098927585e-03
2.163231210062e-03
4.377155159630e-03
7.750272721242e-04
6.143267027189e-04
2.315958533619e-03
2.337159152857e-03
3.037020975708e-03
3.018699821593e-03
3.170169334193e-03
3.152362617066e-03
3.303297148462e-03
3.284728188511e-03
3.136935125499e-03
2.986145899197e-03
3.269118839605e-03
4.052619400301e-03
2.568284105458e-03
9.725497111437e-04
5.085268207095e-04
5.140500931089e-04
6.376782323606e-04
7.899163103169e-04
2.574285611025e-03
3.436533116148e-03
3.453640779054e-03
2.200352096018e-03
2.394030482596e-03
2.981964915826e-03
3.850941991332e-03
3.959303476864e-03
3.910837006846e-03
4.748200776240e-04
4.502664572144e-04
4.384405955170e-03
1.410513011189e-03
1.397272226022e-03
5.396480989774e-04
3.926232189064e-04
4.284802699568e-03
4.433846029546e-03
1.566552509049e-03
1.623619770511e-03
2.549277555446e-03
5.874374309590e-04
4.499476057305e-03
2.357983493779e-03
2.215498415455e-03
1.389207461141e-03
1.013807047309e-03
8.338421321989e-04
1.085349467717e-03
7.580603916190e-04
7.026643114336e-04
2.680386243601e-03
4.429722906677e-03
3.123923707467e-03
2.989716078174e-03
3.255488619537e-03
4.153442434825e-04
2.603444270916e-03
2.234540965497e-03
3.583071988178e-03
3.603336254200e-03
1.584897722759e-03
1.584860953104e-03
1.394392412230e-03
1.594135915092e-03
3.454916721603e-03
1.766133298702e-03
3.174171862884e-03
3.209765320777e-03
3.073946479074e-03
2.531219131402e-03
2.580738072365e-03
1.612658145332e-03
2.280391607681e-03
1.510327460175e-03
1.889460088786e-03
1.910592490712e-03
4.431187342885e-03
4.526527040880e-03
3.943711472350e-03
3.886826449892e-03
5.217021411888e-04
4.516515137505e-04
1.745131424665e-03
2.501578986477e-03
4.362358163938e-03
4.395971360736e-03
4.279770522716e-03
2.657974229538e-03
1.509023066405e-03
2.173548200782e-03
4.645732341815e-04
2.716061359124e-03
3.635052463728e-04
3.500681871053e-03
2.369234671314e-03
2.448444110813e-03
3.114461905837e-03
3.375520068804e-03
2.707163754381e-03
2.560513842407e-03
3.119793261888e-03
2.984408934114e-03
2.925220782046e-03
2.824107845909e-03
1.138851683584e-03
1.029415484024e-03
3.579803656982e-03
3.398127498486e-03
3.735153743653e-03
3.758458102534e-03
3.109135699111e-03
2.979166933960e-03
8.495401015771e-04
2.450278109817e-03
4.533394367026e-03
3.243356333801e-03
2.627320706735e-03
2.536544666778e-03
2.523995851928e-04
3.274524601523e-04
4.585703367764e-03
1.394370908904e-03
1.600513964718e-03
1.189389909375e-03
2.630220354515e-03
3.623452985899e-03
2.502153161634e-03
2.706943040240e-03
4.653078765424e-03
2.703894166770e-03
2.122217309092e-03
2.523990798762e-03
4.509016848162e-03
4.673989217408e-03
3.824903743053e-03
3.769566774021e-03
3.866174425556e-03
7.013608926631e-04
4.648650456302e-04
4.468980137866e-03
1.030932053764e-03
1.108295076427e-03
6.528980914048e-04
8.176441220309e-04
1.656455418688e-03
1.602920217424e-03
3.484971689863e-03
3.630173697730e-03
3.188747963103e-03
2.241312759426e-03
2.096920866570e-03
2.069905851915e-03
4.578119514563e-03
4.689334143307e-03
1.251154858613e-03
1.201983225292e-03
1.189700312347e-03
4.579418639773e-03
2.579428945289e-03
2.525112063756e-03
2.915009853836e-04
3.790368591026e-04
7.976058954911e-04
6.171010993550e-04
4.422736756009e-03
4.302914080607e-03
4.552262352759e-03
7.526386980243e-04
2.985279215337e-03
2.783425120020e-03
2.768709191211e-03
2.822779972846e-03
3.119128124348e-03
3.238922800342e-03
3.382123331321e-03
1.725694621988e-04
4.626372359038e-03
3.796739755328e-03
6.676288361555e-05
3.740567861403e-03
3.825930751217e-03
3.671582605534e-03
6.055493820326e-04
3.715370138777e-03
3.775196714542e-03
1.891386507733e-04
4.685958475611e-03
2.141486698636e-04
2.810272570909e-04
2.667242922531e-03
2.572452952337e-03
2.696171067542e-03
2.603023665680e-03
2.479567784511e-03
2.523875923682e-03
3.710347737034e-03
2.667540421510e-03
2.570154263998e-03
2.716303991611e-03
2.907058046635e-03
1.789571739694e-03
1.814881873949e-03
1.630560841310e-03
3.915617914709e-03
3.901772819360e-03
2.294259563818e-03
2.156614845639e-03
3.754729733455e-03
3.750848023855e-03
3.880392471495e-03
3.866149300556e-03
3.997259118877e-03
3.979899825681e-03
4.114517593595e-03
3.540659152055e-03
1.177676000499e-03
3.166102496631e-03
3.099914205283e-03
2.968056761390e-03
2.644008524520e-03
2.533107328358e-03
2.745939673461e-03
1.764069663850e-03
4.750284410357e-03
-1.733620627982e-05
1.880160854267e-04
1.939732074778e-03
2.759384814021e-03
1.994326701256e-03
2.043590405950e-03
2.384342501618e-03
3.123236871838e-04
9.895379289022e-04
4.127070459813e-03
7.642218072140e-04
2.226321239213e-03
1.774346355243e-03
2.664757483514e-03
1.201024201477e-03
1.779714609400e-03
3.437523518128e-03
3.467166386532e-03
3.358043143548e-03
1.787885408525e-03
2.252912673559e-03
2.089736872670e-03
3.139670121448e-03
4.161798012745e-03
4.179591890477e-03
4.316847232036e-03
4.190368972029e-03
4.053837561195e-03
4.060664268923e-03
4.202540646697e-03
4.066482192711e-03
4.233546394662e-03
4.061468066842e-03
3.923571293307e-03
3.914383850200e-03
4.037619623315e-03
3.780808441668e-03
3.222552415122e-03
2.108675311251e-03
3.130474917123e-04
3.371421532887e-04
2.831361599014e-03
4.427027520136e-03
4.567929030335e-03
1.430203706470e-03
4.007512296744e-03
3.335167143334e-03
9.096182756119e-04
3.815194260385e-03
4.042340267009e-03
3.920623464437e-03
3.910965506033e-03
4.672605391724e-03
3.908549498117e-03
3.459980093405e-03
2.429493128773e-03
2.421469362251e-03
2.270863002599e-03
3.926593069362e-03
3.153418821039e-03
3.020788970804e-03
2.965886477717e-03
2.876652891521e-03
3.041098715277e-03
4.286400917205e-03
4.204817981487e-03
1.030541330826e-03
1.152607796589e-03
1.322657187588e-03
1.278655385715e-03
1.102554407065e-03
1.233960791093e-03
1.407759375355e-03
1.189530247767e-03
3.765702165985e-03
2.953649928407e-03
2.056296739748e-03
2.018740281634e-03
1.871370649108e-03
1.454877911272e-03
1.549785509998e-03
1.697063615414e-03
1.361633368844e-03
3.002719612351e-03
2.913880073224e-03
2.193414360156e-03
1.496875097968e-03
3.547479076117e-03
3.638027725395e-03
3.605476683467e-03
3.735779662061e-03
3.675478478500e-03
1.710711587297e-03
1.765877494211e-03
1.681737962201e-03
1.821854217203e-03
1.736853379336e-03
1.606097564567e-03
1.876181091687e-03
1.783560239182e-03
3.580744416861e-03
-3.348701688690e-05
1.332858917429e-04
1.336207256044e-04
2.910992397734e-04
3.051330767722e-04
4.770458188538e-04
4.593320837043e-04
1.306358516055e-04
-8.415074326356e-06
1.424925007420e-04
5.443908048408e-06
1.467530517337e-04
3.172220220093e-04
5.492559441899e-04
2.714739779696e-03
1.378815003210e-03
1.308546095120e-03
1.167263896342e-03
1.245183810265e-03
1.438504334813e-03
1.086953932299e-03
1.033357998567e-03
9.283641349347e-05
2.087530548532e-04
1.957435406019e-04
3.363739883396e-04
3.326431326285e-04
2.074487548520e-04
2.041954281148e-04
8.284024954834e-05
2.003043323357e-04
3.349036049925e-04
7.313871575521e-05
4.312425959086e-03
4.393235325878e-03
2.845130037284e-03
3.618762356537e-03
3.441081787554e-05
4.827708642817e-03
4.823685708771e-03
4.840222176674e-03
2.499421598272e-03
2.568028800055e-03
4.841728509683e-03
9.340440248278e-04
4.325510415714e-03
4.560041928415e-03
8.701794414032e-04
9.229373416894e-04
2.098205499033e-03
1.982318587620e-03
2.396972321977e-03
1.990643608155e-03
2.303343602179e-03
2.901984554209e-03
5.557475057792e-04
3.997691500670e-03
3.970735365544e-03
4.320698733623e-03
9.665178231697e-04
1.543370951671e-03
5.915725480220e-04
3.750010576096e-03
3.029823407060e-03
1.761441394165e-03
1.304065336563e-03
1.032848061892e-03
8.636494848905e-04
2.279249780265e-03
1.596562273976e-03
2.270674168536e-03
4.410484291919e-03
6.797790348817e-05
2.369967553569e-03
1.890691190405e-03
4.003445602553e-03
2.716134662872e-03
5.620900094405e-04
4.335427205488e-03
4.504599821073e-03
3.815601724977e-03
4.344261246121e-04
3.855268407316e-03
2.700785458651e-03
4.139652118675e-03
8.774586594095e-04
2.022762481596e-03
2.633162551092e-03
3.302451643181e-03
4.615921500020e-03
2.414397761187e-03
2.733703754268e-03
2.319717465632e-03
9.427536862601e-04
2.442507393588e-03
2.126582306574e-03
4.482713089192e-03
3.320775786500e-03
1.679087887508e-03
4.325278919756e-03
1.833771206060e-03
2.848196786884e-03
2.874511240838e-03
3.057609568666e-03
3.516797668631e-03
2.729797369188e-03
2.017356551596e-03
2.405295105456e-03
6.662494749750e-04
1.956839565116e-03
3.947536198711e-03
3.411900998656e-03
4.631738175468e-03
2.494572483923e-03
2.349215017091e-03
4.469779382804e-03
1.646371312233e-03
6.446767698252e-04
6.641494296608e-04
1.332019406482e-03
2.264808736581e-03
1.792698251527e-03
4.457581183101e-03
2.391533553721e-03
2.412770664280e-03
3.197758682286e-04
3.274951520607e-03
2.436167337680e-03
2.045583954846e-03
2.846502229657e-03
1.649314805638e-03
3.653020708963e-03
2.732206402893e-03
2.484422661090e-03
2.499398802456e-03
1.595813136040e-03
3.627413399626e-03
2.631786035345e-03
2.635639362044e-03
2.867335669928e-03
1.920521548161e-03
3.119683562857e-03
1.840985417572e-03
3.208321774349e-03
4.715021049416e-03
2.742275906481e-03
3.794761815255e-03
1.747707782103e-03
2.706194873064e-03
3.324467107498e-04
3.049595543825e-03
1.799140674667e-03
1.369005505794e-03
1.949975096030e-03
3.236255367309e-03
1.851824536372e-03
1.541055170983e-03
1.905405478527e-03
2.863039861932e-03
3.798201368420e-03
1.959786997202e-03
3.337703079436e-03
3.436691283297e-04
2.853822053332e-03
2.430924603021e-03
1.239369938191e-03
1.982633805452e-03
3.926181938772e-03
2.459981835217e-03
2.128526204333e-03
3.469750698100e-03
2.846706972039e-03
2.415506013073e-03
2.272359049284e-03
2.335020334000e-03
8.736691528946e-04
7.133876476857e-04
1.574354850020e-03
3.619153213408e-03
4.605112439920e-04
3.790364891541e-03
4.833765659711e-04
1.446527666123e-03
2.987411385211e-03
4.026347438452e-03
1.485609880202e-03
7.938187229701e-04
1.366476898979e-03
2.562105483856e-03
1.410958190771e-03
1.299246611104e-03
4.707506112828e-03
1.346858344887e-03
4.869244468660e-03
2.715220782520e-03
3.737993562351e-03
2.037719425354e-03
-4.995350668109e-05
1.877424544709e-03
1.082605016209e-03
3.640886426099e-03
3.743397074998e-03
9.776161146245e-04
4.187648848181e-03
3.629115670948e-03
4.240076582968e-03
2.844686427169e-03
2.847020924738e-03
4.594875801856e-03
3.609230404343e-03
1.534929900350e-04
2.085392230607e-03
1.570492708965e-03
1.391200341097e-03
9.650500380265e-04
9.925610493456e-04
2.889810022934e-04
1.163135981993e-03
3.067994626723e-03
3.704796470527e-03
3.120159591637e-03
7.258103505161e-04
4.612226485965e-03
3.389323744976e-03
2.803056335791e-03
3.250584030375e-03
5.662311378194e-04
3.741933806878e-03
3.839494815454e-03
4.353118715437e-03
2.780906076907e-03
3.661132744894e-03
4.741342062394e-03
5.441478931840e-04
4.749601407126e-03
3.771810327173e-03
3.912965450526e-03
3.671369374246e-03
2.631488343129e-03
4.335013375423e-03
3.771294304898e-04
4.228396149355e-03
1.251123259480e-03
1.024054445264e-04
2.735182086838e-03
3.902573353081e-03
2.634621286206e-03
3.308034329832e-04
1.539256221784e-04
2.814014585389e-03
4.045939566639e-03
6.205795637539e-04
4.816709900678e-03
1.657635539193e-04
3.585617519481e-03
1.822483791599e-04
2.758927075798e-03
4.704559640805e-03
1.375784027271e-03
3.499395748374e-03
8.944228705400e-04
3.513798151539e-03
2.683443260824e-04
4.740214285337e-03
2.895034039352e-03
4.542573959278e-03
3.325389581283e-03
1.080453070216e-04
3.498196241782e-03
2.851537818663e-03
3.612263913643e-03
4.432880316795e-03
1.112084991451e-03
4.504481817441e-04
4.889190847970e-03
7.149099441630e-05
3.607974389467e-03
2.739814704498e-03
4.318251517281e-04
3.844128900593e-03
4.134223357983e-03
1.683873674070e-03
4.508786861063e-03
4.118877173923e-04
-8.009305833569e-05
4.103510783742e-03
3.336539919258e-03
4.625613617436e-03
3.994767785775e-03
4.960935059513e-04
4.006864380808e-03
1.487276237173e-03
3.700820601499e-03
2.954035658249e-03
-2.465500042526e-06
1.808241817040e-03
1.569569374858e-04
2.710542665579e-03
1.547532647280e-03
3.116091533399e-03
3.135170091599e-03
3.207576376972e-03
3.292000768047e-03
3.329552654162e-03
3.428682007284e-03

SCALARS node_materi_strain_total_size_dev_sd_ept float
LOOKUP_TABLE default
6.385548253649e-05
9.466266968796e-03
6.704530908230e-03
1.214249141479e-02
2.118376281434e-04
5.028657853833e-04
7.614553033117e-04
1.055668437206e-03
1.338380603182e-03
1.617057761340e-03
1.900732492495e-03
2.192287462572e-03
2.493245460347e-03
2.811856049289e-03
3.157077775209e-03
3.500283704327e-03
3.825993997294e-03
4.208397334230e-03
4.620556747969e-03
5.040458688077e-03
5.485896168449e-03
5.957085263686e-03
6.418205227094e-03
1.214694788038e-02
1.213229705513e-02
1.213469796980e-02
1.212951543356e-02
1.211921629334e-02
1.211883157087e-02
1.210936063517e-02
1.208852694799e-02
1.207611164410e-02
1.204538016177e-02
1.201088959439e-02
1.197164943996e-02
1.191810148347e-02
1.184501596447e-02
1.176445182788e-02
1.165460220897e-02
1.153856235378e-02
1.140334170483e-02
1.124788280648e-02
1.107354317551e-02
1.087097326725e-02
1.065763592949e-02
1.042405634720e-02
1.017994433626e-02
9.933387095248e-03
9.683930656706e-03
9.431343770304e-03
9.178439112801e-03
8.929045041992e-03
8.714968206706e-03
8.472799034083e-03
8.235633598431e-03
8.021855141524e-03
7.847866737539e-03
7.678813455429e-03
7.530895092380e-03
7.394932692256e-03
7.270067186393e-03
7.155306238914e-03
7.058517910657e-03
6.993923127399e-03
6.948698303316e-03
6.901718523134e-03
6.790114230843e-03
6.807031001692e-03
6.764145096742e-03
6.754113863032e-03
6.753780735602e-03
6.744065246305e-03
9.802428462719e-03
1.013588753035e-02
1.044940846376e-02
1.074326674384e-02
1.102865240558e-02
1.129745336105e-02
1.155045995375e-02
1.178543329999e-02
1.201730537570e-02
1.133067192504e-03
9.709869058831e-03
2.201200534942e-03
3.241696239887e-03
4.253852124013e-03
5.217908008440e-03
6.223144448883e-03
7.299353480361e-03
8.560127902636e-03
8.935312727716e-03
9.310487455890e-03
8.596661195865e-03
8.777206849650e-03
9.106755481751e-03
9.420106052108e-03
9.445652695422e-03
9.453504254639e-03
9.454446571556e-03
9.507781356712e-03
9.476821889806e-03
9.483117076361e-03
9.499029712938e-03
9.527524497452e-03
9.545132251701e-03
9.562832872693e-03
9.586813446259e-03
9.612769075973e-03
9.648865628408e-03
1.102967447287e-03
1.188602171608e-03
1.179611236633e-03
1.099728899648e-03
9.887466027463e-04
8.926727537645e-04
7.900186371306e-04
6.852086861816e-04
5.877416265669e-04
4.949728117570e-04
4.098208308230e-04
3.542592754057e-04
2.740627171719e-04
2.025728161380e-04
1.566634962640e-04
1.270898804940e-04
9.983330765474e-05
7.073385636296e-05
5.814873117202e-05
8.624149592085e-03
8.480166617806e-03
8.417863638073e-03
8.394790145088e-03
8.394463044557e-03
8.407726360562e-03
8.430479540710e-03
8.454172835641e-03
8.477734402991e-03
8.499942363053e-03
8.520817819452e-03
8.539025537248e-03
8.553171019223e-03
8.564639670775e-03
8.573567337879e-03
8.580395067824e-03
8.584096748432e-03
8.583973807833e-03
8.567518930486e-03
8.775955447198e-03
8.766915537721e-03
8.762499345279e-03
8.758154513403e-03
8.753330491983e-03
8.748598575134e-03
8.742690592401e-03
8.735370423697e-03
8.725358605746e-03
8.716946581323e-03
8.709395671597e-03
8.702940740667e-03
8.700788010613e-03
8.703286109127e-03
8.718267833158e-03
8.782664257251e-03
8.765691899949e-03
9.208826687125e-03
9.249325749060e-03
9.204690381686e-03
9.179499719196e-03
9.163546972536e-03
9.151138981051e-03
9.140808195849e-03
9.134441608100e-03
9.128910206878e-03
9.124313598057e-03
9.120651886884e-03
9.118101213817e-03
9.118451013728e-03
9.116970585942e-03
9.118101591051e-03
9.117478678387e-03
1.621124569191e-03
2.740712336321e-03
3.751589720705e-03
4.757177739528e-03
5.760784365142e-03
6.769676128837e-03
7.948270282047e-03
8.869365151968e-03
9.183586574741e-03
9.546318629889e-03
2.809103613987e-03
7.669699172562e-03
5.494740543626e-04
9.166228847483e-04
6.968252637885e-03
4.924790255489e-03
2.993487316046e-03
8.528927478727e-03
6.957559219072e-03
9.608539885717e-03
8.994520456638e-03
6.700109567761e-03
2.925780748469e-04
1.065781329530e-02
9.854779416894e-03
1.771074018229e-03
3.957854353788e-03
1.126884598209e-02
1.178337973188e-02
1.205313667643e-02
1.201776562558e-02
1.196080523487e-02
9.984405812850e-03
9.885181606663e-03
9.844236985586e-03
1.089109368735e-02
6.565891654999e-03
1.026391862673e-03
2.040722125916e-04
5.246261385797e-03
9.760876132263e-03
9.100502151760e-04
1.155486328459e-02
9.098928071443e-03
1.015637293960e-02
8.068257320960e-03
7.357728342517e-03
7.815790304477e-04
9.923506791928e-03
6.711069978604e-03
1.142334990636e-02
4.198577204502e-04
2.343091545344e-03
1.208749433674e-02
5.909748505814e-03
3.862314360372e-03
8.154994277218e-03
9.475458163134e-03
1.751618907253e-03
1.031921492248e-02
6.610078051163e-03
1.586419896084e-04
1.188675399244e-02
1.002553682790e-02
1.011645751533e-02
1.028452314198e-02
1.034992395778e-02
1.054846573008e-02
1.056619967197e-02
1.034440992557e-02
1.053535545496e-02
1.027289477228e-02
1.076722368108e-02
1.045276778631e-02
1.014759103153e-02
1.032530303170e-02
9.980628823670e-03
9.797132340127e-03
9.587899541024e-03
9.395286125363e-03
9.144262142230e-03
9.359365003329e-03
8.883571669631e-03
8.647908321613e-03
8.365673037240e-03
8.108001323675e-03
7.814194232279e-03
7.533340371579e-03
7.239086254841e-03
7.542821958563e-03
6.972569357822e-03
6.651949649724e-03
6.396120835225e-03
6.062104076426e-03
5.820747439322e-03
6.173369777480e-03
5.616998915864e-03
5.252757082633e-03
5.073966479438e-03
4.702062185141e-03
4.551897671973e-03
4.176722285964e-03
4.053386973595e-03
4.437956883017e-03
3.967090626465e-03
3.586151686270e-03
3.528685265104e-03
3.916113770287e-03
3.505681084951e-03
3.897759838252e-03
3.513245321361e-03
3.135507649599e-03
3.167095632071e-03
3.546622310968e-03
3.220458425894e-03
2.858993058444e-03
2.931629623531e-03
3.294756745805e-03
3.021000560640e-03
2.677199651608e-03
2.778553338339e-03
3.126442908538e-03
2.891025440461e-03
2.562668386770e-03
2.680367533150e-03
3.014729781160e-03
2.806182433756e-03
3.147063068668e-03
2.487247870385e-03
2.614551281263e-03
2.309160367937e-03
2.437206809231e-03
5.987125268557e-03
2.143795849637e-03
2.026078916387e-03
2.270378001981e-03
2.572459741710e-03
1.985688680731e-03
2.110164575255e-03
1.832748976011e-03
4.334028534241e-03
9.125052987251e-03
1.954324593323e-03
1.681693466536e-03
1.567851966664e-03
1.418427830638e-03
1.072131092254e-02
1.094782425503e-02
1.088004843259e-02
1.111499936979e-02
1.103826941927e-02
1.529294285996e-03
1.062827069059e-02
1.115549282071e-02
8.419510100843e-03
6.336504771357e-03
4.317942081374e-03
2.239348521983e-03
2.080601218518e-03
2.373372547328e-03
3.372642596090e-03
3.510060025952e-03
3.752979006303e-03
3.894754148028e-03
4.155133671103e-03
4.301237987965e-03
4.044522829218e-03
4.455595356438e-03
4.201115176347e-03
4.578852285911e-03
4.437811508970e-03
4.616707935338e-03
4.363851918307e-03
4.784470357005e-03
4.531764746181e-03
4.126235583256e-03
4.292619221902e-03
3.903474438073e-03
4.304625197203e-03
4.733973873456e-03
4.725618561801e-03
5.162777706536e-03
5.161419649905e-03
5.605572105924e-03
5.612527059391e-03
5.187592842304e-03
1.016322703858e-02
3.155788834325e-03
3.218972620993e-03
2.798047890625e-03
2.868097116624e-03
2.457673102220e-03
2.538308402984e-03
2.138509403683e-03
2.096041483284e-03
1.791637255087e-03
1.788318860841e-03
1.503916005791e-03
1.537312849308e-03
7.297784832073e-03
5.625944556579e-03
6.074196991560e-03
6.107033124348e-03
1.312275823217e-03
4.703987516135e-03
4.879556483962e-03
4.743452684776e-03
5.649891132355e-03
1.268238867484e-03
2.235684515064e-03
2.673687004337e-03
1.126511203503e-02
1.117970636864e-02
5.204798067479e-03
1.376565092014e-03
4.888500329894e-03
1.515812965192e-03
4.462593297410e-03
4.879422611525e-03
3.807378537902e-03
6.559574361472e-03
6.600015767054e-03
1.825532939471e-03
1.602054681926e-03
1.349866622750e-03
1.431072084985e-03
1.680128535163e-03
1.509921059305e-03
1.276198273200e-03
1.365364971991e-03
1.604673028447e-03
1.460543306099e-03
1.236672578937e-03
1.326036707646e-03
5.135248234630e-03
1.254285517323e-03
9.621489724614e-03
5.342236388465e-03
6.080520472772e-03
1.140254098357e-02
1.131114156859e-02
1.106464587545e-02
1.119619273499e-02
1.143301443390e-02
1.131982041642e-02
1.106326397156e-02
1.119048396347e-02
1.091623211103e-02
1.104915940913e-02
1.131303412204e-02
1.117735054876e-02
1.089980741015e-02
1.103452135034e-02
1.074522532410e-02
1.088520524432e-02
1.116572886717e-02
1.120833410704e-03
5.240226060529e-03
5.717926870565e-03
2.220088577122e-03
2.506637833008e-03
2.679867192368e-03
2.825432704105e-03
1.102227542339e-02
1.129536199809e-02
2.398547005284e-03
2.872801909885e-03
1.146613302054e-02
4.638289825802e-03
4.235375822103e-03
5.735505012243e-03
6.027284259057e-03
5.418099203742e-03
5.724822144902e-03
6.355343571185e-03
5.108150609109e-03
4.303944913482e-03
1.143110727221e-02
1.460144710819e-03
1.213215094562e-03
5.062402993917e-03
4.788052201187e-03
7.852038409281e-03
7.629084688666e-03
8.168341971019e-03
7.967759658677e-03
8.493228015603e-03
8.316930121871e-03
7.798254996022e-03
7.055374095455e-03
8.175844359247e-03
1.072879435881e-02
5.668830053146e-03
1.707465470527e-03
1.013468528822e-03
1.104693422807e-03
1.217290537037e-03
1.489935460642e-03
5.685971211968e-03
8.830969392250e-03
8.997451650404e-03
6.080663955216e-03
6.713249716862e-03
7.025468025133e-03
1.077784345024e-02
1.077896367395e-02
1.061314356409e-02
9.270810807188e-04
1.038097619361e-03
1.154812655983e-02
3.153032317526e-03
3.385468886937e-03
1.282715639826e-03
1.055476442455e-03
1.115474265643e-02
1.141686437309e-02
3.002504986848e-03
3.154220656874e-03
5.557756397253e-03
1.193772659666e-03
1.154517165926e-02
4.858930556671e-03
4.417898961602e-03
2.646355039529e-03
2.640150601728e-03
2.168004577747e-03
1.868766092711e-03
1.421621251344e-03
1.330933823881e-03
6.058896084202e-03
1.163950873775e-02
7.665391655734e-03
7.272541690231e-03
8.066849648147e-03
9.851700749899e-04
5.834170851003e-03
4.820530113428e-03
9.313239665427e-03
9.472465680691e-03
3.667563004816e-03
3.932377605940e-03
3.689634140900e-03
4.258488576453e-03
1.009204238023e-02
4.220491571801e-03
9.213204795225e-03
9.452479283566e-03
9.037500650382e-03
6.981301726736e-03
7.348403339257e-03
3.321096804743e-03
4.770134278348e-03
2.856042390821e-03
3.743242623466e-03
3.620013334411e-03
1.155009988441e-02
1.166129638039e-02
1.059888969860e-02
1.043207477459e-02
1.061772112737e-03
9.729011361909e-04
3.287587614615e-03
5.489553430181e-03
1.159477989045e-02
1.163906448076e-02
1.150082916287e-02
5.932256188877e-03
2.768588530807e-03
4.318303717009e-03
1.075280826855e-03
6.531702829615e-03
8.172631134320e-04
9.579316389953e-03
5.251489912293e-03
5.503659181522e-03
7.513666974148e-03
9.918410117326e-03
6.366054155637e-03
5.839630909559e-03
9.283167409456e-03
8.869368991153e-03
8.542194429860e-03
8.348946798135e-03
1.973527970993e-03
1.812155252705e-03
9.217505302591e-03
8.565739467631e-03
9.764186907942e-03
9.923421723537e-03
7.499163487917e-03
7.015360319918e-03
1.600255601397e-03
7.108044021117e-03
1.174804164417e-02
9.620099623668e-03
5.977515032751e-03
5.651641310234e-03
9.339348294812e-04
9.568537441776e-04
1.166433564670e-02
4.055122821295e-03
4.619107744286e-03
3.494588112829e-03
6.181379885975e-03
9.733857173599e-03
5.700558792789e-03
7.604197173192e-03
1.178174861773e-02
6.241021447700e-03
5.137094188160e-03
5.439218627274e-03
1.152705438958e-02
1.178977001218e-02
1.046173524687e-02
1.027774888307e-02
1.062544774675e-02
1.587131705105e-03
1.381175313211e-03
1.154646461943e-02
1.925444244948e-03
2.083544709062e-03
1.278987012741e-03
1.514831726916e-03
3.188200002966e-03
3.038947322148e-03
9.374702502681e-03
9.812984403963e-03
8.389790371833e-03
4.504303799829e-03
4.078819184945e-03
3.999856768430e-03
1.175555252953e-02
1.188103551625e-02
2.152700668714e-03
2.053358991344e-03
2.080037228381e-03
1.182081053327e-02
5.960101713255e-03
5.770222174167e-03
7.460364189080e-04
8.924689024476e-04
2.454885602201e-03
1.970639351548e-03
1.164622368967e-02
1.150708884757e-02
1.178938265790e-02
1.422829583115e-03
7.161990653983e-03
6.443095331473e-03
6.328199673783e-03
6.644097524787e-03
7.540891070744e-03
7.981380276934e-03
8.492544007769e-03
9.255768539249e-04
1.170297947229e-02
1.025836787799e-02
9.213199855840e-04
1.008520033601e-02
1.026286721577e-02
9.897541750233e-03
1.151935138440e-03
1.024614541245e-02
1.047202960790e-02
6.312790093084e-04
1.191302535316e-02
5.936178279196e-04
6.632046269084e-04
6.139368818397e-03
5.812070850838e-03
6.296144658070e-03
5.975060585510e-03
5.505613821656e-03
5.690230658219e-03
1.008713547541e-02
6.231956172206e-03
5.886943777483e-03
6.426302908380e-03
8.717061777015e-03
4.837058122830e-03
5.205805530877e-03
5.100995006239e-03
1.024168762767e-02
1.031213107129e-02
5.018626442748e-03
4.597016364755e-03
1.007730871430e-02
1.004518765118e-02
1.034369186142e-02
1.029314206040e-02
1.058205425267e-02
1.052656843851e-02
1.080985047779e-02
9.029706642756e-03
3.908056980097e-03
9.440254147377e-03
7.502110007109e-03
7.004906000472e-03
7.739420499671e-03
7.564781792080e-03
6.410383648498e-03
3.984411314925e-03
1.197879963344e-02
1.081212756183e-03
1.139660445499e-03
4.540996263620e-03
7.971162988970e-03
5.440006446331e-03
5.845217228123e-03
4.957414616537e-03
8.299490599124e-04
2.964269576862e-03
1.085658544079e-02
2.839481752056e-03
4.812660737529e-03
3.811695157626e-03
7.256580874396e-03
3.149521414708e-03
4.516176243538e-03
9.970866284757e-03
1.014267170748e-02
9.900178848058e-03
3.680206172507e-03
6.476036461811e-03
6.277319841856e-03
8.935561382137e-03
1.134143706735e-02
1.133007183876e-02
1.147274947244e-02
1.128767825967e-02
1.112797059741e-02
1.106471863705e-02
1.122195262960e-02
1.097777048329e-02
1.117734680226e-02
1.085968210105e-02
1.067821709041e-02
1.054402180987e-02
1.072074513020e-02
1.035106427323e-02
7.993198954571e-03
4.891411268865e-03
1.087257617299e-03
1.451225083571e-03
7.855520331658e-03
1.142077224739e-02
1.169998946605e-02
2.983705739163e-03
1.041385903193e-02
9.798099215546e-03
1.848358455715e-03
9.888219615174e-03
1.116025003288e-02
1.095203672809e-02
1.097081926529e-02
1.186378991873e-02
1.078553725730e-02
8.852100913835e-03
5.191558723986e-03
5.245229255417e-03
4.835137940914e-03
1.079978254710e-02
7.862605067790e-03
7.285470223342e-03
7.110222947237e-03
6.707074316611e-03
7.495206390164e-03
1.109676075115e-02
1.089956364970e-02
1.769662239777e-03
1.963955660304e-03
2.268835134402e-03
2.194181651881e-03
1.886723577652e-03
2.135276715708e-03
2.462928695004e-03
2.098567344536e-03
1.006108639333e-02
7.217273807443e-03
4.017741903625e-03
3.888625591019e-03
3.496724977342e-03
2.712805291436e-03
2.892853322065e-03
3.231225142478e-03
2.540641667550e-03
7.433321612617e-03
7.091052842809e-03
4.356366738229e-03
2.750502759802e-03
9.962516362139e-03
1.027892985971e-02
1.030263877299e-02
1.058134614843e-02
1.028878662516e-02
3.341441600845e-03
3.497206210580e-03
3.307429310040e-03
3.654882719920e-03
3.452646275398e-03
3.137594320923e-03
3.807343742061e-03
3.579585359980e-03
9.903090097986e-03
8.503634214022e-04
8.309268642720e-04
7.920587228740e-04
9.161738732425e-04
9.273941807068e-04
1.068446070981e-03
1.054495511589e-03
8.602002241242e-04
7.024782302497e-04
7.417859665257e-04
6.201676029271e-04
6.911898022204e-04
8.838874928462e-04
1.128142101875e-03
6.482394831565e-03
2.648743906770e-03
2.498691589931e-03
2.207094382461e-03
2.362134804880e-03
2.773481507595e-03
2.052003071426e-03
1.947320066751e-03
1.827362633885e-04
4.030932675304e-04
3.755761981809e-04
6.486252978315e-04
6.504465334471e-04
4.173153731132e-04
4.356665653592e-04
2.263853888528e-04
4.558386618076e-04
6.875613058417e-04
2.502985234134e-04
1.116954469146e-02
1.131758352905e-02
6.866067049757e-03
9.887573862872e-03
4.769446854598e-04
1.202336285576e-02
1.204426301479e-02
1.205253366288e-02
5.706499525713e-03
5.938825970035e-03
1.202857407971e-02
1.715879918042e-03
1.143224402187e-02
1.166043243849e-02
1.968804325988e-03
1.662192481342e-03
4.409836995306e-03
3.964670112327e-03
5.314617876026e-03
4.067942635438e-03
4.958021625936e-03
6.891750769773e-03
1.065882024306e-03
1.075854820580e-02
1.058647004570e-02
1.130212265735e-02
1.800587350794e-03
2.983364925566e-03
1.163075380168e-03
9.705191559462e-03
8.737955010642e-03
3.244222734743e-03
2.403192410053e-03
1.868041032288e-03
1.561167463142e-03
5.474931200398e-03
2.940810769070e-03
4.729425714189e-03
1.142473610501e-02
3.873041369883e-04
5.023714165810e-03
3.655336019463e-03
1.092962429967e-02
6.063347443718e-03
1.162614394675e-03
1.143725716301e-02
1.175042085580e-02
1.063583938489e-02
9.082523019558e-04
1.044076109526e-02
6.195770094740e-03
1.132006681278e-02
1.645588584543e-03
3.908236005298e-03
6.939233375905e-03
9.666276623894e-03
1.176099368271e-02
5.452187136575e-03
6.141139487557e-03
4.744241292895e-03
1.769302400803e-03
5.342941372599e-03
4.361654362457e-03
1.165781858408e-02
8.688126854563e-03
3.129653099630e-03
1.152566452948e-02
3.387024983572e-03
6.537951812214e-03
8.197013872599e-03
8.098697275080e-03
9.784975724231e-03
6.736067856923e-03
4.192598834228e-03
5.180177127820e-03
1.279782742767e-03
4.815312432635e-03
1.092403852920e-02
8.669572065578e-03
1.185033399648e-02
6.644099786904e-03
5.052502565825e-03
1.170717123798e-02
3.083164433928e-03
1.218115153149e-03
1.763876838086e-03
2.423385252838e-03
4.934831144948e-03
3.435171822091e-03
1.164556940788e-02
5.224495971312e-03
5.076632507658e-03
2.274161613161e-03
9.695110642789e-03
5.403963401142e-03
3.943372495395e-03
6.534131303398e-03
3.248303675440e-03
9.402342451129e-03
8.168984191273e-03
5.594459920687e-03
5.329108890173e-03
3.467389533808e-03
9.752036426342e-03
6.135656165751e-03
5.823540250781e-03
7.081363687694e-03
3.601501982837e-03
9.261418121494e-03
3.587713566085e-03
8.628773108901e-03
1.191955967240e-02
6.214344924412e-03
1.076524660830e-02
3.381972882904e-03
6.157585737197e-03
6.635693738644e-04
9.128788380558e-03
3.536776084227e-03
2.428234170463e-03
3.677116498113e-03
7.981355458318e-03
3.695540015602e-03
2.774085243858e-03
3.857027458532e-03
8.638182218474e-03
1.071898458684e-02
4.019531412792e-03
8.898280191328e-03
7.327392989082e-04
6.897279917027e-03
5.464929904443e-03
2.190657664614e-03
3.773092642118e-03
1.089479058140e-02
7.533937681128e-03
4.181625303094e-03
9.179075607745e-03
6.756353779547e-03
5.329461750336e-03
4.615805925412e-03
6.958273836898e-03
1.608707860712e-03
1.364587515206e-03
2.806002112475e-03
9.642689493895e-03
8.878235716450e-04
1.050168656331e-02
1.049909388932e-03
2.518206779042e-03
7.099932712901e-03
1.061764066002e-02
2.590431906966e-03
1.495082092862e-03
2.355987915662e-03
5.735017612004e-03
2.455001780702e-03
2.257939848555e-03
1.187290056085e-02
2.369191745804e-03
1.206462772273e-02
6.484622036856e-03
9.994547703600e-03
6.482398042106e-03
1.013077265394e-03
5.629283280338e-03
1.916869038342e-03
9.986618093591e-03
1.001343187453e-02
1.762640070777e-03
1.100306661820e-02
9.361639617351e-03
1.104246789059e-02
6.562520550580e-03
6.662716738825e-03
1.165092067186e-02
9.763161335238e-03
6.455565663752e-04
4.395129740460e-03
5.403265238585e-03
4.454062075347e-03
3.367481695333e-03
1.868507025813e-03
8.871207611350e-04
4.376793516388e-03
7.443843792773e-03
1.015522126142e-02
7.581797460959e-03
3.327496340776e-03
1.185542790719e-02
8.525676446860e-03
6.748150494244e-03
8.016521235897e-03
2.327368754528e-03
1.052062994639e-02
9.989092118391e-03
1.126559758262e-02
6.685277766650e-03
1.016888406262e-02
1.189159411003e-02
1.122884541950e-03
1.188885876882e-02
1.020219493676e-02
1.043554776729e-02
1.050113752794e-02
6.175544135267e-03
1.137397519987e-02
1.790879625234e-03
1.103720241414e-02
2.359778582328e-03
8.853631106701e-04
6.414845114892e-03
1.041157928436e-02
6.174240031494e-03
6.362727125822e-04
5.411945430224e-04
6.658861449343e-03
1.059819650333e-02
1.221308702918e-03
1.204384850336e-02
1.372355508064e-03
9.757867204990e-03
4.645931088523e-04
6.621776952959e-03
1.191491688172e-02
2.630735710882e-03
1.001056169406e-02
1.686249242756e-03
8.964809788461e-03
8.022475475583e-04
1.193147264301e-02
6.913636060164e-03
1.175546966826e-02
8.451793741240e-03
9.750646397780e-04
8.907294296975e-03
6.647945714129e-03
9.743478152809e-03
1.156643504093e-02
2.098383147802e-03
9.040643615035e-04
1.208584311727e-02
1.272790037472e-04
9.695429562318e-03
6.584374774470e-03
8.377902009075e-04
1.023465383462e-02
1.083262262519e-02
3.341536996026e-03
1.151144276296e-02
1.001001326836e-03
9.832378579564e-04
1.077770991409e-02
8.364111628429e-03
1.186809908716e-02
1.059586882450e-02
1.642906064810e-03
1.058539675955e-02
2.867910384617e-03
9.620149140026e-03
6.995555727039e-03
1.311523377340e-03
3.648925075430e-03
4.768038937584e-04
6.387250420631e-03
3.013080244729e-03
8.697203073663e-03
8.612300493171e-03
9.066974347151e-03
8.951348649553e-03
9.455778792071e-03
9.274172543173e-03


CELL_DATA 2039

SCALARS element_number int
LOOKUP_TABLE default
407
408
409
410
411
412
413
414
415
416
417
418
419
420
421
422
423
424
425
426
427
428
429
430
431
432
433
434
435
436
437
438
439
440
441
442
443
444
445
446
447
448
449
450
451
452
453
454
455
456
457
458
459
460
461
462
463
464
465
466
467
468
469
470
471
472
473
474
475
476
477
478
479
480
481
482
483
484
485
486
487
488
489
490
491
492
493
494
495
496
497
498
499
500
501
502
503
504
505
506
507
508
509
510
511
512
513
514
515
516
517
518
519
520
521
522
523
524
525
526
527
528
529
530
531
532
533
534
535
536
537
538
539
540
541
542
543
544
545
546
547
548
549
550
551
552
553
554
555
556
557
558
559
560
561
562
563
564
565
566
567
568
569
570
571
572
573
574
575
576
577
578
579
580
581
582
583
584
585
586
587
588
589
590
591
592
593
594
595
596
597
598
599
600
601
602
603
604
605
606
607
608
609
610
611
612
613
614
615
616
617
618
619
620
621
622
623
624
625
626
627
628
629
630
631
632
633
634
635
636
637
638
639
640
641
642
643
644
645
646
647
648
649
650
651
652
653
654
655
656
657
658
659
660
661
662
663
664
665
666
667
668
669
670
671
672
673
674
675
676
677
678
679
680
681
682
683
684
685
686
687
688
689
690
691
692
693
694
695
696
697
698
699
700
701
702
703
704
705
706
707
708
709
710
711
712
713
714
715
716
717
718
719
720
721
722
723
724
725
726
727
728
729
730
731
732
733
734
735
736
737
738
739
740
741
742
743
744
745
746
747
748
749
750
751
752
753
754
755
756
757
758
759
760
761
762
763
764
765
766
767
768
769
770
771
772
773
774
775
776
777
778
779
780
781
782
783
784
785
786
787
788
789
790
791
792
793
794
795
796
797
798
799
800
801
802
803
804
805
806
807
808
809
810
811
812
813
814
815
816
817
818
819
820
821
822
823
824
825
826
827
828
829
830
831
832
833
834
835
836
837
838
839
840
841
842
843
844
845
846
847
848
849
850
851
852
853
854
855
856
857
858
859
860
861
862
863
864
865
866
867
868
869
870
871
872
873
874
875
876
877
878
879
880
881
882
883
884
885
886
887
888
889
890
891
892
893
894
895
896
897
898
899
900
901
902
903
904
905
906
907
908
909
910
911
912
913
914
915
916
917
918
919
920
921
922
923
924
925
926
927
928
929
930
931
932
933
934
935
936
937
938
939
940
941
942
943
944
945
946
947
948
949
950
951
952
953
954
955
956
957
958
959
960
961
962
963
964
965
966
967
968
969
970
971
972
973
974
975
976
977
978
979
980
981
982
983
984
985
986
987
988
989
990
991
992
993
994
995
996
997
998
999
1000
1001
1002
1003
1004
1005
1006
1007
1008
1009
1010
1011
1012
1013
1014
1015
1016
1017
1018
1019
1020
1021
1022
1023
1024
1025
1026
1027
1028
1029
1030
1031
1032
1033
1034
1035
1036
1037
1038
1039
1040
1041
1042
1043
1044
1045
1046
1047
1048
1049
1050
1051
1052
1053
1054
1055
1056
1057
1058
1059
1060
1061
1062
1063
1064
1065
1066
1067
1068
1069
1070
1071
1072
1073
1074
1075
1076
1077
1078
1079
1080
1081
1082
1083
1084
1085
1086
1087
1088
1089
1090
1091
1092
1093
1094
1095
1096
1097
1098
1099
1100
1101
1102
1103
1104
1105
1106
1107
1108
1109
1110
1111
1112
1113
1114
1115
1116
1117
1118
1119
1120
1121
1122
1123
1124
1125
1126
1127
1128
1129
1130
1131
1132
1133
1134
1135
1136
1137
1138
1139
1140
1141
1142
1143
1144
1145
1146
1147
1148
1149
1150
1151
1152
1153
1154
1155
1156
1157
1158
1159
1160
1161
1162
1163
1164
1165
1166
1167
1168
1169
1170
1171
1172
1173
1174
1175
1176
1177
1178
1179
1180
1181
1182
1183
1184
1185
1186
1187
1188
1189
1190
1191
1192
1193
1194
1195
1196
1197
1198
1199
1200
1201
1202
1203
1204
1205
1206
1207
1208
1209
1210
1211
1212
1213
1214
1215
1216
1217
1218
1219
1220
1221
1222
1223
1224
1225
1226
1227
1228
1229
1230
1231
1232
1233
1234
1235
1236
1237
1238
1239
1240
1241
1242
1243
1244
1245
1246
1247
1248
1249
1250
1251
1252
1253
1254
1255
1256
1257
1258
1259
1260
1261
1262
1263
1264
1265
1266
1267
1268
1269
1270
1271
1272
1273
1274
1275
1276
1277
1278
1279
1280
1281
1282
1283
1284
1285
1286
1287
1288
1289
1290
1291
1292
1293
1294
1295
1296
1297
1298
1299
1300
1301
1302
1303
1304
1305
1306
1307
1308
1309
1310
1311
1312
1313
1314
1315
1316
1317
1318
1319
1320
1321
1322
1323
1324
1325
1326
1327
1328
1329
1330
1331
1332
1333
1334
1335
1336
1337
1338
1339
1340
1341
1342
1343
1344
1345
1346
1347
1348
1349
1350
1351
1352
1353
1354
1355
1356
1357
1358
1359
1360
1361
1362
1363
1364
1365
1366
1367
1368
1369
1370
1371
1372
1373
1374
1375
1376
1377
1378
1379
1380
1381
1382
1383
1384
1385
1386
1387
1388
1389
1390
1391
1392
1393
1394
1395
1396
1397
1398
1399
1400
1401
1402
1403
1404
1405
1406
1407
1408
1409
1410
1411
1412
1413
1414
1415
1416
1417
1418
1419
1420
1421
1422
1423
1424
1425
1426
1427
1428
1429
1430
1431
1432
1433
1434
1435
1436
1437
1438
1439
1440
1441
1442
1443
1444
1445
1446
1447
1448
1449
1450
1451
1452
1453
1454
1455
1456
1457
1458
1459
1460
1461
1462
1463
1464
1465
1466
1467
1468
1469
1470
1471
1472
1473
1474
1475
1476
1477
1478
1479
1480
1481
1482
1483
1484
1485
1486
1487
1488
1489
1490
1491
1492
1493
1494
1495
1496
1497
1498
1499
1500
1501
1502
1503
1504
1505
1506
1507
1508
1509
1510
1511
1512
1513
1514
1515
1516
1517
1518
1519
1520
1521
1522
1523
1524
1525
1526
1527
1528
1529
1530
1531
1532
1533
1534
1535
1536
1537
1538
1539
1540
1541
1542
1543
1544
1545
1546
1547
1548
1549
1550
1551
1552
1553
1554
1555
1556
1557
1558
1559
1560
1561
1562
1563
1564
1565
1566
1567
1568
1569
1570
1571
1572
1573
1574
1575
1576
1577
1578
1579
1580
1581
1582
1583
1584
1585
1586
1587
1588
1589
1590
1591
1592
1593
1594
1595
1596
1597
1598
1599
1600
1601
1602
1603
1604
1605
1606
1607
1608
1609
1610
1611
1612
1613
1614
1615
1616
1617
1618
1619
1620
1621
1622
1623
1624
1625
1626
1627
1628
1629
1630
1631
1632
1633
1634
1635
1636
1637
1638
1639
1640
1641
1642
1643
1644
1645
1646
1647
1648
1649
1650
1651
1652
1653
1654
1655
1656
1657
1658
1659
1660
1661
1662
1663
1664
1665
1666
1667
1668
1669
1670
1671
1672
1673
1674
1675
1676
1677
1678
1679
1680
1681
1682
1683
1684
1685
1686
1687
1688
1689
1690
1691
1692
1693
1694
1695
1696
1697
1698
1699
1700
1701
1702
1703
1704
1705
1706
1707
1708
1709
1710
1711
1712
1713
1714
1715
1716
1717
1718
1719
1720
1721
1722
1723
1724
1725
1726
1727
1728
1729
1730
1731
1732
1733
1734
1735
1736
1737
1738
1739
1740
1741
1742
1743
1744
1745
1746
1747
1748
1749
1750
1751
1752
1753
1754
1755
1756
1757
1758
1759
1760
1761
1762
1763
1764
1765
1766
1767
1768
1769
1770
1771
1772
1773
1774
1775
1776
1777
1778
1779
1780
1781
1782
1783
1784
1785
1786
1787
1788
1789
1790
1791
1792
1793
1794
1795
1796
1797
1798
1799
1800
1801
1802
1803
1804
1805
1806
1807
1808
1809
1810
1811
1812
1813
1814
1815
1816
1817
1818
1819
1820
1821
1822
1823
1824
1825
1826
1827
1828
1829
1830
1831
1832
1833
1834
1835
1836
1837
1838
1839
1840
1841
1842
1843
1844
1845
1846
1847
1848
1849
1850
1851
1852
1853
1854
1855
1856
1857
1858
1859
1860
1861
1862
1863
1864
1865
1866
1867
1868
1869
1870
1871
1872
1873
1874
1875
1876
1877
1878
1879
1880
1881
1882
1883
1884
1885
1886
1887
1888
1889
1890
1891
1892
1893
1894
1895
1896
1897
1898
1899
1900
1901
1902
1903
1904
1905
1906
1907
1908
1909
1910
1911
1912
1913
1914
1915
1916
1917
1918
1919
1920
1921
1922
1923
1924
1925
1926
1927
1928
1929
1930
1931
1932
1933
1934
1935
1936
1937
1938
1939
1940
1941
1942
1943
1944
1945
1946
1947
1948
1949
1950
1951
1952
1953
1954
1955
1956
1957
1958
1959
1960
1961
1962
1963
1964
1965
1966
1967
1968
1969
1970
1971
1972
1973
1974
1975
1976
1977
1978
1979
1980
1981
1982
1983
1984
1985
1986
1987
1988
1989
1990
1991
1992
1993
1994
1995
1996
1997
1998
1999
2000
2001
2002
2003
2004
2005
2006
2007
2008
2009
2010
2011
2012
2013
2014
2015
2016
2017
2018
2019
2020
2021
2022
2023
2024
2025
2026
2027
2028
2029
2030
2031
2032
2033
2034
2035
2036
2037
2038
2039
2040
2041
2042
2043
2044
2045
2046
2047
2048
2049
2050
2051
2052
2053
2054
2055
2056
2057
2058
2059
2060
2061
2062
2063
2064
2065
2066
2067
2068
2069
2070
2071
2072
2073
2074
2075
2076
2077
2078
2079
2080
2081
2082
2083
2084
2085
2086
2087
2088
2089
2090
2091
2092
2093
2094
2095
2096
2097
2098
2099
2100
2101
2102
2103
2104
2105
2106
2107
2108
2109
2110
2111
2112
2113
2114
2115
2116
2117
2118
2119
2120
2121
2122
2123
2124
2125
2126
2127
2128
2129
2130
2131
2132
2133
2134
2135
2136
2137
2138
2139
2140
2141
2142
2143
2144
2145
2146
2147
2148
2149
2150
2151
2152
2153
2154
2155
2156
2157
2158
2159
2160
2161
2162
2163
2164
2165
2166
2167
2168
2169
2170
2171
2172
2173
2174
2175
2176
2177
2178
2179
2180
2181
2182
2183
2184
2185
2186
2187
2188
2189
2190
2191
2192
2193
2194
2195
2196
2197
2198
2199
2200
2201
2202
2203
2204
2205
2206
2207
2208
2209
2210
2211
2212
2213
2214
2215
2216
2217
2218
2219
2220
2221
2222
2223
2224
2225
2226
2227
2228
2229
2230
2231
2232
2233
2234
2235
2236
2237
2238
2239
2240
2241
2242
2243
2244
2245
2246
2247
2248
2249
2250
2251
2252
2253
2254
2255
2256
2257
2258
2259
2260
2261
2262
2263
2264
2265
2266
2267
2268
2269
2270
2271
2272
2273
2274
2275
2276
2277
2278
2279
2280
2281
2282
2283
2284
2285
2286
2287
2288
2289
2290
2291
2292
2293
2294
2295
2296
2297
2298
2299
2300
2301
2302
2303
2304
2305
2306
2307
2308
2309
2310
2311
2312
2313
2314
2315
2316
2317
2318
2319
2320
2321
2322
2323
2324
2325
2711
2712
2713
2714
2715
2716
2717
2718
2719
2720
2721
2722
2723
2724
2725
2726
2727
2728
2729
2730
2731
2732
2733
2734
2735
2736
2737
2738
2739
2740
2741
2742
2743
2744
2745
2746
2747
2748
2749
2750
2751
2752
2753
2754
2755
2756
2757
2758
2759
2760
2761
2762
2763
2764
2765
2766
2767
2768
2769
2770
2771
2772
2773
2774
2775
2776
2777
2778
2779
2780
2781
2782
2783
2784
2785
2786
2787
2788
2789
2790
2791
2792
2793
2794
2795
2796
2797
2798
2799
2800
2801
2802
2803
2804
2805
2806
2807
2808
2809
2810
2811
2812
2813
2814
2815
2816
2817
2818
2819
2820
2821
2822
2823
2824
2825
2826
2827
2828
2829
2830

SCALARS element_group int
LOOKUP_TABLE default
0
0
0
0
0
0
0
0
0
0
0
0
0
0
0
0
0
0
0
0
0
0
0
0
0
0
0
0
0
0
0
0
0
0
0
0
0
0
0
0
0
0
0
0
0
0
0
0
0
0
0
0
0
0
0
0
0
0
0
0
0
0
0
0
0
0
0
0
0
0
0
0
0
0
0
0
0
0
0
0
0
0
0
0
0
0
0
0
0
0
0
0
0
0
0
0
0
0
0
0
0
0
0
0
0
0
0
0
0
0
0
0
0
0
0
0
0
0
0
0
0
0
0
0
0
0
0
0
0
0
0
0
0
0
0
0
0
0
0
0
0
0
0
0
0
0
0
0
0
0
0
0
0
0
0
0
0
0
0
0
0
0
0
0
0
0
0
0
0
0
0
0
0
0
0
0
0
0
0
0
0
0
0
0
0
0
0
0
0
0
0
0
0
0
0
0
0
0
0
0
0
0
0
0
0
0
0
0
0
0
0
0
0
0
0
0
0
0
0
0
0
0
0
0
0
0
0
0
0
0
0
0
0
0
0
0
0
0
0
0
0
0
0
0
0
0
0
0
0
0
0
0
0
0
0
0
0
0
0
0
0
0
0
0
0
0
0
0
0
0
0
0
0
0
0
0
0
0
0
0
0
0
0
0
0
0
0
0
0
0
0
0
0
0
0
0
0
0
0
0
0
0
0
0
0
0
0
0
0
0
0
0
0
0
0
0
0
0
0
0
0
0
0
0
0
0
0
0
0
0
0
0
0
0
0
0
0
0
0
0
0
0
0
0
0
0
0
0
0
0
0
0
0
0
0
0
0
0
0
0
0
0
0
0
0
0
0
0
0
0
0
0
0
0
0
0
0
0
0
0
0
0
0
0
0
0
0
0
0
0
0
0
0
0
0
0
0
0
0
0
0
0
0
0
0
0
0
0
0
0
0
0
0
0
0
0
0
0
0
0
0
0
0
0
0
0
0
0
0
0
0
0
0
0
0
0
0
0
0
0
0
0
0
0
0
0
0
0
0
0
0
0
0
0
0
0
0
0
0
0
0
0
0
0
0
0
0
0
0
0
0
0
0
0
0
0
0
0
0
0
0
0
0
0
0
0
0
0
0
0
0
0
0
0
0
0
0
0
0
0
0
0
0
0
0
0
0
0
0
0
0
0
0
0
0
0
0
0
0
0
0
0
0
0
0
0
0
0
0
0
0
0
0
0
0
0
0
0
0
0
0
0
0
0
0
0
0
0
0
0
0
0
0
0
0
0
0
0
0
0
0
0
0
0
0
0
0
0
0
0
0
0
0
0
0
0
0
0
0
0
0
0
0
0
0
0
0
0
0
0
0
0
0
0
0
0
0
0
0
0
0
0
0
0
0
0
0
0
0
0
0
0
0
0
0
0
0
0
0
0
0
0
0
0
0
0
0
0
0
0
0
0
0
0
0
0
0
0
0
0
0
0
0
0
0
0
0
0
0
0
0
0
0
0
0
0
0
0
0
0
0
0
0
0
0
0
0
0
0
0
0
0
0
0
0
0
0
0
0
0
0
0
0
0
0
0
0
0
0
0
0
0
0
0
0
0
0
0
0
0
0
0
0
0
0
0
0
0
0
0
0
0
0
0
0
0
0
0
0
0
0
0
0
0
0
0
0
0
0
0
0
0
0
0
0
0
0
0
0
0
0
0
0
0
0
0
0
0
0
0
0
0
0
0
0
0
0
0
0
0
0
0
0
0
0
0
0
0
0
0
0
0
0
0
0
0
0
0
0
0
0
0
0
0
0
0
0
0
0
0
0
0
0
0
0
0
0
0
0
0
0
0
0
0
0
0
0
0
0
0
0
0
0
0
0
0
0
0
0
0
0
0
0
0
0
0
0
0
0
0
0
0
0
0
0
0
0
0
0
0
0
0
0
0
0
0
0
0
0
0
0
0
0
0
0
0
0
0
0
0
0
0
0
0
0
0
0
0
0
0
0
0
0
0
0
0
0
0
0
0
0
0
0
0
0
0
0
0
0
0
0
0
0
0
0
0
0
0
0
0
0
0
0
0
0
0
0
0
0
0
0
0
0
0
0
0
0
0
0
0
0
0
0
0
0
0
0
0
0
0
0
0
0
0
0
0
0
0
0
0
0
0
0
0
0
0
0
0
0
0
0
0
0
0
0
0
0
0
0
0
0
0
0
0
0
0
0
0
0
0
0
0
0
0
0
0
0
0
0
0
0
0
0
0
0
0
0
0
0
0
0
0
0
0
0
0
0
0
0
0
0
0
0
0
0
0
0
0
0
0
0
0
0
0
0
0
0
0
0
0
0
0
0
0
0
0
0
0
0
0
0
0
0
0
0
0
0
0
0
0
0
0
0
0
0
0
0
0
0
0
0
0
0
0
0
0
0
0
0
0
0
0
0
0
0
0
0
0
0
0
0
0
0
0
0
0
0
0
0
0
0
0
0
0
0
0
0
0
0
0
0
0
0
0
0
0
0
0
0
0
0
0
0
0
0
0
0
0
0
0
0
0
0
0
0
0
0
0
0
0
0
0
0
0
0
0
0
0
0
0
0
0
0
0
0
0
0
0
0
0
0
0
0
0
0
0
0
0
0
0
0
0
0
0
0
0
0
0
0
0
0
0
0
0
0
0
0
0
0
0
0
0
0
0
0
0
0
0
0
0
0
0
0
0
0
0
0
0
0
0
0
0
0
0
0
0
0
0
0
0
0
0
0
0
0
0
0
0
0
0
0
0
0
0
0
0
0
0
0
0
0
0
0
0
0
0
0
0
0
0
0
0
0
0
0
0
0
0
0
0
0
0
0
0
0
0
0
0
0
0
0
0
0
0
0
0
0
0
0
0
0
0
0
0
0
0
0
0
0
0
0
0
0
0
0
0
0
0
0
0
0
0
0
0
0
0
0
0
0
0
0
0
0
0
0
0
0
0
0
0
0
0
0
0
0
0
0
0
0
0
0
0
0
0
0
0
0
0
0
0
0
0
0
0
0
0
0
0
0
0
0
0
0
0
0
0
0
0
0
0
0
0
0
0
0
0
0
0
0
0
0
0
0
0
0
0
0
0
0
0
0
0
0
0
0
0
0
0
0
0
0
0
0
0
0
0
0
0
0
0
0
0
0
0
0
0
0
0
0
0
0
0
0
0
0
0
0
0
0
0
0
0
0
0
0
0
0
0
0
0
0
0
0
0
0
0
0
0
0
0
0
0
0
0
0
0
0
0
0
0
0
0
0
0
0
0
0
0
0
0
0
0
0
0
0
0
0
0
0
0
0
0
0
0
0
0
0
0
0
0
0
0
0
0
0
0
0
0
0
0
0
0
0
0
0
0
0
0
0
0
0
0
0
0
0
0
0
0
0
0
0
0
0
0
0
0
0
0
0
0
0
0
0
0
0
0
0
0
0
0
0
0
0
0
0
0
0
0
0
0
0
0
0
0
0
0
0
0
0
0
0
0
0
0
0
0
0
0
0
0
0
0
0
0
0
0
0
0
0
0
0
0
0
0
0
0
0
0
0
0
0
0
0
0
0
0
0
0
0
0
0
0
0
0
0
0
0
0
0
0
0
0
0
0
0
0
0
0
0
0
0
0
0
0
0
0
0
0
0
0
0
0
0
0
0
0
0
0
0
0
0
0
0
0
0
0
0
0
0
0
0
0
0
0
0
0
0
0
0
0
0
0
0
0
0
0
0
0
0
0
0
0
0
0
0
0
0
0
0
0
0
0
0
0
0
0
0
0
0
0
0
0
0
0
0
0
0
0
0
0
0
0
0
0
0
0
0
0
0
0
0
0
0
0
0
0
0
0
0
0
0
0
0
0
0
0
0
0
0
0
0
0
0
0
0
0
0
0
0
0
0
0
0
0
0
0
0
0
0
0
0
0
0
0
0
0
0
0
0
0
0
0
0
0
0
0
0
0
0
0
0
0
0
0
0
0
0
0
0
0
0
0
0
0
0
0
0
0
0
0
0
0
0
0
0
0
0
0
0
0
0
0
0
0
0
0
0
0
0
0
0
0
0
0
0
0
0
0
0
0
0
0
0
0
0
0
0
0
0
0
0
0
0
0
0
0
0
0
0
0
0
0
0
0
0
0
0
0
0
0
0
0
0
0
0
0
0
0
0
0
0
0
0
0
0
0
0
0
0
0
0
0
0
0
0
0
0
0
0
0
0
0
0
0
0
0
0
0
0
0
0
0
0
0
0
0
0
0
0
0
0
0
0
0
0
0
0
0
0
0
0
0
0
0
0
0
0
0
0
0
0
0
0
0
0
0
0
0
0
0
0
0
0
0
0
0
0
0
0
0
0
0
0
0
0
0
0
0
0
0
0
0
0
0
0
0
0
0
0
0
0
0
0
0
0
0
0
0
0
0
0
0
0
0
0
0
0
0
0
0
0
0
0
0
0
0
0
0
0
0
0
0
0
0
0
0
0
0
0
0
0
0
0
0
0
0
0
0
0
0
0
0
0
0
0
0
0
0
0
0
0
0
0
0
0
0
0
0
0
0
0
0
0
0
0
0
0
0
0
0
0
0
0
0
0
0
0
0
0
0
0
0
0
0
0
0
0
0
0
0
0
0
0
0
0
0
0
0
0


VECTORS element_materi_velocity float
3.713508271253e-04 2.465037785946e-03 0.0 
4.608772058466e-04 2.142790755183e-03 0.0 
8.014837296871e-04 7.591094117285e-04 0.0 
1.085658000230e-04 1.487642386648e-03 0.0 
9.594832216339e-04 8.378407787123e-03 0.0 
-3.796720362525e-05 1.271386936088e-04 0.0 
7.274177581921e-04 8.322109117465e-03 0.0 
2.968416207818e-04 1.831472107309e-03 0.0 
8.029239524711e-04 8.369999508514e-03 0.0 
1.600905282358e-04 1.521762751342e-03 0.0 
5.428794467053e-05 -1.213313627316e-04 0.0 
1.064873434874e-04 1.820917781285e-03 0.0 
2.398004714263e-05 -6.563676996987e-06 0.0 
1.502957189996e-03 7.293653090624e-03 0.0 
1.973899667193e-05 -3.112171888798e-06 0.0 
8.817044979792e-05 1.049956153269e-03 0.0 
1.217146097257e-03 8.642182130056e-03 0.0 
-9.558682625420e-06 6.189615121150e-05 0.0 
3.727304518082e-05 -3.273344625343e-04 0.0 
2.932406235542e-05 -3.214090923287e-04 0.0 
1.911182548609e-04 1.558422198081e-03 0.0 
8.916170684929e-04 3.593192242984e-03 0.0 
1.163023579276e-03 3.714644099385e-03 0.0 
4.016409059956e-04 3.308955901376e-05 0.0 
1.809958683634e-03 6.113496530219e-03 0.0 
5.984963809430e-05 -1.066059198133e-04 0.0 
1.791648967739e-03 8.805482336014e-03 0.0 
7.569402358671e-04 2.903624295030e-04 0.0 
1.919885667217e-03 6.020302633201e-03 0.0 
3.263273093030e-04 3.043462011824e-05 0.0 
1.480009139118e-04 -2.628023769559e-04 0.0 
1.087661358073e-04 -3.760476683480e-04 0.0 
9.333996953768e-04 9.556047470500e-04 0.0 
1.692388673701e-05 -4.427518331056e-05 0.0 
1.411382361082e-04 1.442685728330e-06 0.0 
3.787930408406e-05 -4.054363498362e-07 0.0 
3.444835987891e-05 -6.961217728455e-07 0.0 
4.600275056188e-04 9.502655269849e-05 0.0 
5.985469053694e-04 9.286227796313e-03 0.0 
5.456862124856e-04 9.298739909658e-03 0.0 
1.880415263898e-03 5.717930578236e-03 0.0 
1.432332713875e-04 8.570370797418e-06 0.0 
-2.711785377148e-05 1.262359532999e-03 0.0 
1.924732913572e-03 8.352861058384e-03 0.0 
5.714928896564e-05 2.110721548662e-03 0.0 
1.344218049275e-05 1.082151373025e-03 0.0 
1.024033925657e-04 -2.561173330230e-04 0.0 
6.523920021735e-05 1.791379366206e-03 0.0 
4.726255983554e-05 -2.731381959425e-04 0.0 
1.445505327022e-03 7.780520810817e-03 0.0 
1.533620765162e-03 4.685880522660e-03 0.0 
3.839014846117e-05 -3.132818043961e-04 0.0 
2.664771649929e-04 -2.559554104157e-04 0.0 
1.594657596900e-03 5.592021598956e-03 0.0 
6.371306272261e-04 9.045014507142e-04 0.0 
6.946493904661e-05 -2.882701574550e-04 0.0 
3.097595981505e-05 -3.066105230597e-04 0.0 
3.434552739271e-05 -4.501994757472e-05 0.0 
7.811461166119e-05 -3.463879030712e-04 0.0 
1.062819468418e-04 1.058098184117e-03 0.0 
-3.281636092016e-05 -1.815600360377e-04 0.0 
9.527758515585e-04 2.845206849132e-04 0.0 
1.252829130254e-03 1.536757151206e-03 0.0 
2.262145641723e-04 -2.642496437239e-04 0.0 
3.930569293960e-05 -6.281057469045e-06 0.0 
1.227056483049e-03 4.518560017574e-03 0.0 
-3.198597088632e-05 -1.529175866778e-04 0.0 
9.616061676816e-04 8.705387306844e-04 0.0 
1.816452929883e-04 -3.638232999210e-04 0.0 
7.713295333738e-04 4.443001441346e-04 0.0 
9.009762006149e-05 -9.226823108502e-05 0.0 
1.109185381227e-04 2.872916703722e-04 0.0 
9.888089114123e-04 3.831220313741e-04 0.0 
5.746590610610e-06 -3.482350634781e-04 0.0 
6.255718472998e-05 -2.792410977692e-04 0.0 
3.833797662939e-04 1.346546838178e-03 0.0 
7.850056577721e-04 1.080453554156e-03 0.0 
-8.113714498448e-05 6.759030758530e-04 0.0 
8.829426016209e-05 -3.459885139784e-04 0.0 
-1.152246878095e-04 8.013691788306e-04 0.0 
1.876650813978e-04 -3.579088998093e-04 0.0 
1.161501507484e-03 8.394484456458e-03 0.0 
8.215701937631e-04 2.969421425143e-03 0.0 
5.365711102191e-04 2.891276278241e-03 0.0 
9.203376343295e-04 7.807711289018e-03 0.0 
8.434975648361e-04 7.783081199165e-03 0.0 
5.258177841896e-05 -7.969683572095e-05 0.0 
9.144805143983e-06 -5.426413784051e-05 0.0 
2.158586003307e-03 2.352278287045e-03 0.0 
1.032389824159e-03 8.332050548477e-03 0.0 
1.135233417084e-04 -3.749348693267e-04 0.0 
1.979064491394e-03 7.623921702359e-03 0.0 
1.683721084918e-04 4.232745872318e-03 0.0 
2.030650578343e-04 4.578332720279e-03 0.0 
2.213947486321e-04 5.294886557190e-04 0.0 
3.368622819205e-04 7.526331189365e-05 0.0 
1.298653459443e-03 8.378175347883e-03 0.0 
1.630969508284e-04 6.949959043637e-06 0.0 
1.199009984818e-04 6.730506278815e-03 0.0 
1.084749754112e-03 1.694198053346e-03 0.0 
9.187161017207e-04 8.872981248747e-03 0.0 
2.542712509202e-05 -3.121671053416e-06 0.0 
1.435201265060e-03 3.261523921179e-04 0.0 
9.128529193047e-04 2.540954311461e-04 0.0 
7.392476874941e-04 7.618936356976e-04 0.0 
8.830706459443e-05 -2.797057334905e-04 0.0 
2.812231803302e-05 -1.847969350738e-05 0.0 
1.720558446058e-04 3.645041947532e-03 0.0 
1.143036166370e-05 -2.442689847723e-04 0.0 
4.769974459590e-05 -2.279492503684e-06 0.0 
2.325542611397e-03 2.583865152318e-03 0.0 
1.018953850790e-05 -3.519447765959e-04 0.0 
1.390900925036e-03 6.346364691719e-04 0.0 
2.277702273155e-03 7.557290954246e-03 0.0 
1.122756978298e-04 -2.501646911847e-04 0.0 
8.454211679583e-04 1.570780145379e-03 0.0 
1.192239869422e-03 1.291344961131e-03 0.0 
9.942128367831e-05 2.829494842578e-06 0.0 
1.511838913063e-04 7.146323349094e-03 0.0 
9.768026759797e-04 1.193206012911e-03 0.0 
1.622889510115e-04 -3.708287691676e-04 0.0 
2.027793767469e-03 7.756548777153e-03 0.0 
1.363795379911e-04 3.340189282420e-03 0.0 
9.444217898181e-04 9.974754039216e-04 0.0 
-1.308282798638e-04 3.938037913804e-04 0.0 
2.231775516806e-03 7.118131634034e-03 0.0 
9.733027561902e-05 -2.556646371650e-04 0.0 
2.053566720359e-03 7.276093732420e-03 0.0 
2.938109523743e-04 9.489580837832e-04 0.0 
-6.209661089195e-05 3.413024410345e-04 0.0 
8.423487569278e-05 -1.056751514793e-04 0.0 
8.573616751479e-05 1.472904500208e-03 0.0 
2.222008226599e-03 3.043334618037e-03 0.0 
2.106054106672e-03 6.589310859272e-03 0.0 
1.537617026181e-04 3.029306374797e-06 0.0 
1.640623791228e-05 -6.474710329192e-06 0.0 
7.430028290636e-05 -7.971983840265e-05 0.0 
2.408966668573e-03 3.185573407362e-03 0.0 
2.232814233321e-04 2.149786514734e-05 0.0 
2.196828745957e-03 3.914934539033e-03 0.0 
2.215788387873e-04 1.076963027300e-03 0.0 
9.159501589941e-04 5.659511049216e-04 0.0 
1.597658401771e-03 7.198013285978e-03 0.0 
3.868007673115e-04 5.557931157250e-03 0.0 
2.102551743230e-03 3.357674771549e-03 0.0 
1.875865813485e-03 6.593680210405e-03 0.0 
2.469435406858e-03 2.867024826603e-03 0.0 
1.036072850410e-03 7.338957569551e-04 0.0 
6.889602123219e-04 8.808671931493e-03 0.0 
1.319130611642e-03 5.054087884237e-04 0.0 
1.129020034502e-04 -3.761562916346e-04 0.0 
1.693051853134e-04 8.054152221935e-03 0.0 
3.222809363376e-05 -3.342660627648e-04 0.0 
2.280916080518e-03 7.427473919219e-03 0.0 
1.774109731790e-04 1.681424244828e-05 0.0 
7.579435281217e-04 9.225547815063e-04 0.0 
3.975398874195e-05 -6.709855291751e-05 0.0 
9.365471992591e-05 1.367750262193e-03 0.0 
1.507259665481e-03 3.833124241107e-04 0.0 
3.941572954075e-04 8.481689624145e-03 0.0 
1.175253736390e-03 4.514516726973e-04 0.0 
3.856138971377e-05 -3.534583914132e-05 0.0 
1.702276794264e-04 -3.698755367838e-04 0.0 
3.949177160377e-05 -1.849104815317e-05 0.0 
2.633486117614e-03 5.992711114215e-03 0.0 
5.444373101660e-05 -4.309987430230e-06 0.0 
1.670565376104e-04 8.554560353685e-03 0.0 
8.687161201250e-04 6.727091063334e-04 0.0 
2.185830452403e-03 7.847677882219e-03 0.0 
3.477080712233e-05 -1.248293694926e-04 0.0 
3.647477791099e-05 1.586006909605e-03 0.0 
1.123351729957e-03 3.460704921774e-04 0.0 
3.408991461200e-04 5.032277612326e-03 0.0 
4.476829510566e-04 8.820967758224e-03 0.0 
1.140696637546e-03 6.485681231830e-04 0.0 
2.148307746303e-03 7.665993114776e-03 0.0 
1.862913582718e-03 1.297660124489e-03 0.0 
1.157136057802e-04 -2.342337818433e-04 0.0 
5.923525606204e-04 2.138889413325e-04 0.0 
9.058131724575e-04 4.991818552421e-04 0.0 
6.794218039981e-04 1.715476135872e-03 0.0 
1.027102119537e-04 -2.251296660642e-04 0.0 
6.349339073601e-04 5.712120914523e-05 0.0 
2.039109495599e-03 4.337262217070e-03 0.0 
4.567212664020e-04 1.590808114454e-03 0.0 
2.431861117290e-03 6.948955620350e-03 0.0 
1.306317896900e-03 7.132283843500e-04 0.0 
1.584779390363e-04 1.144340788736e-03 0.0 
2.177463239187e-03 3.019442760954e-03 0.0 
2.678268862857e-05 -2.621806371704e-05 0.0 
-4.298158637558e-05 8.599555712198e-04 0.0 
9.539718574807e-04 2.156981252051e-04 0.0 
2.114073219617e-03 2.475898011295e-03 0.0 
-2.599286752971e-04 1.857173789998e-04 0.0 
2.102411458460e-03 5.053891426702e-03 0.0 
6.415115031574e-04 5.611537963626e-06 0.0 
9.455779078676e-05 -3.619980922101e-04 0.0 
8.954746494526e-04 1.109635880757e-03 0.0 
2.069872163474e-03 4.821750289127e-03 0.0 
4.299688100856e-04 -2.768732700052e-04 0.0 
6.828364982383e-04 1.661996027916e-05 0.0 
2.028827495684e-03 7.117102021612e-03 0.0 
1.756986729873e-03 6.612060844281e-03 0.0 
3.023603726160e-04 2.479672748557e-05 0.0 
2.829644584905e-04 -3.250561039520e-04 0.0 
2.409257030236e-03 2.233078122574e-03 0.0 
2.764545279066e-03 5.041871831958e-03 0.0 
1.956450295137e-03 4.421086829906e-03 0.0 
2.641148770967e-03 5.793388028262e-03 0.0 
2.523187637640e-03 6.573003280499e-03 0.0 
1.482459236964e-03 2.560326124177e-04 0.0 
2.051151877866e-03 1.542948824199e-03 0.0 
-1.504836851510e-04 1.109756194776e-04 0.0 
7.193252088433e-04 2.041781785850e-03 0.0 
1.157528952333e-03 2.007438061208e-03 0.0 
2.371461310138e-03 2.479231621144e-03 0.0 
2.002075037848e-03 2.710979164460e-03 0.0 
1.147376682626e-04 9.229001859390e-05 0.0 
6.263130479419e-04 -2.242068302760e-05 0.0 
5.038470631759e-04 8.696805944423e-03 0.0 
9.933485054261e-04 3.029674786959e-04 0.0 
6.007291813067e-04 -5.020995258517e-05 0.0 
1.064821027727e-04 -3.726883329495e-04 0.0 
1.923056508404e-03 3.926680004427e-03 0.0 
1.001892542714e-04 -3.729531822318e-04 0.0 
9.090858961821e-05 -3.571183960087e-04 0.0 
-7.775508381732e-05 1.009418489953e-03 0.0 
2.479295179766e-04 -3.431647307741e-04 0.0 
1.773965521136e-03 3.528676767896e-03 0.0 
2.384150782576e-04 -3.509734799445e-04 0.0 
2.119584581950e-04 5.715869155565e-04 0.0 
2.450791270948e-04 -3.200758216728e-04 0.0 
1.757702242229e-04 -3.674221121950e-04 0.0 
6.878300240415e-04 4.492603666431e-05 0.0 
2.699292350009e-03 5.582871711522e-03 0.0 
4.697315227015e-05 -6.144514899686e-06 0.0 
-2.114958210120e-04 1.201828475627e-04 0.0 
4.388904648125e-04 5.288105550444e-04 0.0 
1.198780267799e-03 2.967970049109e-04 0.0 
1.756076469299e-03 4.095160292309e-03 0.0 
6.680938843980e-04 -1.277460064976e-05 0.0 
5.927209579786e-05 -2.749222013458e-06 0.0 
2.264023226368e-03 3.460017413723e-03 0.0 
6.191980174754e-04 1.251416958146e-04 0.0 
6.464866600325e-04 3.238869998044e-05 0.0 
4.399387797562e-05 -9.317599673736e-05 0.0 
2.593634172776e-03 2.955052093454e-03 0.0 
2.151524592869e-03 4.209656805061e-03 0.0 
8.163987114717e-04 2.545427964596e-04 0.0 
1.142277285909e-03 2.116330198759e-04 0.0 
3.183728766171e-04 6.110634590531e-04 0.0 
2.668544338537e-03 5.019668282889e-03 0.0 
1.789819304331e-04 4.895491965363e-04 0.0 
2.308379428102e-03 1.924559388090e-03 0.0 
1.345669549130e-03 1.344414499743e-04 0.0 
3.841517650597e-04 7.879437341765e-03 0.0 
1.647345326435e-04 -3.534355685937e-04 0.0 
2.557783097541e-03 6.114682914833e-03 0.0 
6.358193077023e-04 2.009057496239e-04 0.0 
2.645587800612e-04 5.071600296210e-05 0.0 
1.761433732427e-04 -2.447287065370e-04 0.0 
1.680166834945e-03 3.599255335248e-03 0.0 
2.759836188701e-03 4.897223189800e-03 0.0 
1.093082679476e-03 8.980009087346e-04 0.0 
1.519454716041e-03 3.179738879242e-03 0.0 
2.236719815999e-03 2.883827683600e-03 0.0 
2.742723122240e-03 3.402622304070e-03 0.0 
6.919326169635e-05 -2.250487828772e-08 0.0 
1.337026347616e-03 1.165547313662e-04 0.0 
2.811905357313e-03 3.779507408751e-03 0.0 
1.542784575245e-03 6.999270039235e-04 0.0 
1.390453608429e-03 1.533992267192e-04 0.0 
4.211694012230e-04 2.031230577822e-05 0.0 
1.791874307591e-03 7.932799938757e-03 0.0 
1.135812448937e-03 1.064392748204e-04 0.0 
5.388003391688e-04 -2.224141485989e-04 0.0 
2.188414310288e-03 3.596228197860e-03 0.0 
-2.171641711221e-04 6.750664226043e-05 0.0 
2.541601597021e-03 5.835688367347e-03 0.0 
7.012472552752e-04 8.159852139932e-05 0.0 
4.385110401982e-04 4.170686665241e-04 0.0 
4.147388269334e-04 -3.587090706054e-05 0.0 
2.680373694515e-03 4.514298046098e-03 0.0 
1.288612560543e-04 -3.744007213592e-04 0.0 
1.494322221264e-03 2.529269012011e-03 0.0 
1.358073153622e-03 1.371286391930e-04 0.0 
2.702245912996e-03 5.238899983412e-03 0.0 
1.840520552061e-03 7.314861020399e-03 0.0 
6.585929932723e-05 1.545938515318e-05 0.0 
5.614534642447e-04 -1.944989768599e-04 0.0 
4.564382765027e-04 -2.601984456238e-04 0.0 
9.581037710251e-04 2.210325803220e-03 0.0 
2.241322359069e-03 4.076846663885e-03 0.0 
1.409402322915e-03 2.150156417817e-03 0.0 
1.036717692507e-03 7.201781318825e-05 0.0 
1.027472100122e-03 1.736371536516e-04 0.0 
1.242373619223e-04 2.835575673144e-05 0.0 
1.597678676832e-03 6.255807915494e-04 0.0 
4.086813714144e-05 4.984635011404e-04 0.0 
3.293259442690e-04 4.421928101408e-04 0.0 
4.077205923763e-04 4.234601751344e-04 0.0 
2.327607652709e-03 1.734635462998e-03 0.0 
5.198051733688e-04 1.024620547646e-04 0.0 
3.363897139223e-04 2.928863879978e-04 0.0 
2.798115258599e-03 3.375093380262e-03 0.0 
4.321615687615e-04 1.527130820276e-04 0.0 
4.754906589432e-04 -2.367651800884e-04 0.0 
2.666921593784e-03 3.365482999754e-03 0.0 
2.883343443831e-04 1.307814090756e-03 0.0 
8.369671069174e-04 1.816161194536e-04 0.0 
1.561384886925e-03 3.169234048886e-04 0.0 
1.366185495616e-04 4.298481890291e-04 0.0 
1.164574026682e-04 1.677568560003e-05 0.0 
4.352326464706e-04 2.311639222400e-04 0.0 
2.607432774428e-03 2.648745667314e-03 0.0 
2.005298167837e-04 -2.246119147200e-05 0.0 
9.410754807982e-04 -3.046662693820e-05 0.0 
1.195562966831e-03 1.751616103870e-04 0.0 
4.930431214401e-04 -2.668985710298e-04 0.0 
2.794731129767e-03 4.635661571205e-03 0.0 
3.743240123597e-04 2.637983282297e-04 0.0 
8.770547969150e-04 7.171704562143e-05 0.0 
1.284434947825e-03 9.075727845373e-05 0.0 
1.521188887666e-04 3.349098843075e-04 0.0 
1.326026889657e-03 5.767245501137e-03 0.0 
6.417398637373e-04 -4.220167579509e-05 0.0 
4.417476178323e-04 7.984117597627e-04 0.0 
1.297367350311e-03 6.279332673304e-03 0.0 
3.723120328961e-04 1.858057372322e-04 0.0 
5.654282276601e-04 -1.312944427618e-05 0.0 
3.983071777608e-04 3.182616135022e-04 0.0 
1.595905705325e-03 6.199080239093e-03 0.0 
2.351884360145e-03 2.425015836389e-03 0.0 
1.792507043855e-04 8.354305343510e-04 0.0 
2.690796113686e-03 5.225746008088e-03 0.0 
2.816597987890e-03 4.157581216349e-03 0.0 
2.804650273082e-03 4.062816461855e-03 0.0 
2.063959243273e-03 1.560497409970e-03 0.0 
3.339057272213e-04 1.346371113879e-04 0.0 
1.984489026789e-03 6.398801324600e-03 0.0 
2.458793923838e-03 6.689958340638e-03 0.0 
9.816630246144e-04 1.027442825306e-04 0.0 
2.117916211641e-04 -3.573489072623e-04 0.0 
2.533542663588e-03 6.299050404190e-03 0.0 
5.790223758512e-04 7.046159033369e-04 0.0 
3.374731013852e-04 8.788739248666e-03 0.0 
4.700926823177e-04 -2.839810826531e-04 0.0 
8.058591218592e-04 1.085279109909e-04 0.0 
1.951599907586e-03 3.356534607864e-03 0.0 
5.678791003109e-04 5.701653172285e-04 0.0 
2.761852202392e-03 4.701327828257e-03 0.0 
1.242195909640e-03 8.202942646379e-05 0.0 
5.981194363115e-04 -1.695534568471e-04 0.0 
2.444155728085e-04 7.286581651195e-05 0.0 
2.315553390617e-03 5.204042375904e-03 0.0 
5.307602529139e-04 -1.420215529551e-04 0.0 
4.272398745760e-04 -2.894676999448e-04 0.0 
4.297169465531e-04 1.354053721426e-03 0.0 
4.413501318276e-04 9.593616985777e-04 0.0 
1.920714525298e-03 2.202434009672e-03 0.0 
2.677491713875e-03 2.695753140986e-03 0.0 
1.663810392113e-03 3.480293821564e-03 0.0 
2.605399251393e-03 5.256080197095e-03 0.0 
1.791128091458e-04 3.598289229573e-05 0.0 
4.561088492750e-04 8.607642755789e-05 0.0 
1.867972920341e-03 2.301900085483e-03 0.0 
2.016810771739e-03 3.829837415121e-03 0.0 
6.151115317164e-04 -1.849647409609e-04 0.0 
1.485259042088e-03 1.656862314128e-03 0.0 
5.087211858228e-04 3.778242890559e-05 0.0 
6.775280010089e-04 1.980872108114e-05 0.0 
2.521029728608e-03 2.314564901892e-03 0.0 
9.841032079611e-04 -3.647104765521e-05 0.0 
2.998790519970e-04 -2.291080866845e-04 0.0 
1.668568560710e-03 2.549313178297e-03 0.0 
5.126919578876e-04 -1.781199117814e-04 0.0 
1.807480711720e-03 1.234971429873e-03 0.0 
2.782975114390e-03 3.807325650917e-03 0.0 
1.536395179065e-03 1.266489988649e-03 0.0 
4.069826960250e-04 3.685532731215e-04 0.0 
3.811993474437e-04 4.491854459390e-04 0.0 
9.306510914196e-04 1.082264846422e-03 0.0 
6.177937482808e-04 -1.486363427257e-04 0.0 
1.429055477728e-03 3.221628154639e-03 0.0 
3.100867540965e-04 7.462140776629e-04 0.0 
8.397067117070e-04 1.234869765406e-05 0.0 
2.675077636893e-04 -9.167461569597e-06 0.0 
1.752936124290e-03 2.699888657112e-03 0.0 
1.615677772146e-03 8.104907438000e-03 0.0 
1.493827620496e-03 6.241463737391e-03 0.0 
3.006216189026e-04 3.866465828060e-05 0.0 
2.004995925411e-03 1.993934526929e-03 0.0 
2.591265695989e-03 5.295161780253e-03 0.0 
2.784307371744e-03 3.627350743383e-03 0.0 
3.388432877518e-04 -5.031010785203e-05 0.0 
1.252106254264e-04 -3.610132977742e-04 0.0 
1.389972819963e-03 4.463367610683e-04 0.0 
2.005588305272e-03 1.194363535171e-03 0.0 
1.516637234944e-03 5.012182294424e-04 0.0 
-1.563787459853e-04 4.872075895726e-04 0.0 
3.205956660105e-04 7.618189077242e-03 0.0 
1.996427344931e-04 -3.630404537658e-04 0.0 
5.481953345628e-04 3.486263591523e-04 0.0 
6.287366614351e-05 9.672367876181e-06 0.0 
1.335125366464e-03 1.831428924985e-04 0.0 
2.361684563448e-03 6.965237007093e-03 0.0 
2.151810731087e-05 -3.364076760993e-04 0.0 
2.165784360690e-03 1.829080997943e-03 0.0 
1.321524482552e-03 3.431061580754e-04 0.0 
2.732313404867e-03 4.232554731374e-03 0.0 
3.824994991031e-04 2.386449341576e-04 0.0 
2.658422112004e-03 5.701079630601e-03 0.0 
2.765956534115e-03 3.039488189800e-03 0.0 
3.281887133303e-04 -2.305701631614e-04 0.0 
1.695926460583e-03 3.062194048084e-03 0.0 
5.919574264177e-04 -1.329253230733e-04 0.0 
3.907439460381e-04 2.183868171942e-04 0.0 
2.068300771371e-04 1.752527070939e-04 0.0 
1.556945703138e-04 2.231669733085e-04 0.0 
2.075679734885e-04 2.301596091068e-04 0.0 
2.705905128578e-03 3.778387646837e-03 0.0 
1.779806583697e-03 2.986894477357e-03 0.0 
1.748817011260e-03 1.828458175558e-03 0.0 
1.618553419108e-03 1.505632159780e-03 0.0 
1.569053036527e-03 1.957021572876e-03 0.0 
2.544811684444e-04 -2.412530327115e-04 0.0 
1.740582599339e-03 2.474278928173e-03 0.0 
3.547546711205e-04 1.588048123480e-04 0.0 
1.429624131234e-03 2.718953308032e-03 0.0 
1.388066958195e-03 1.706829413614e-04 0.0 
1.512297189585e-03 2.671987044225e-03 0.0 
2.039949275781e-03 8.905858614723e-04 0.0 
1.868332885193e-03 1.115151994853e-03 0.0 
1.852566415687e-03 3.165135978841e-03 0.0 
2.458550593196e-04 2.702134283000e-04 0.0 
4.247853797114e-04 1.033676738072e-03 0.0 
1.342511541212e-03 1.172307952922e-03 0.0 
1.073253207942e-03 4.731191671468e-04 0.0 
2.807510259674e-04 -2.432244281026e-04 0.0 
3.985647113479e-04 -3.098495778665e-04 0.0 
2.293505202962e-04 2.923189379382e-05 0.0 
6.882617154671e-04 4.922851043161e-04 0.0 
1.914771006237e-04 1.430089064083e-04 0.0 
6.847689483035e-04 8.483045226896e-04 0.0 
2.652044666938e-03 2.408925272094e-03 0.0 
1.004790754583e-04 -3.590384489608e-04 0.0 
1.996525873671e-04 1.178555123363e-04 0.0 
2.936665592364e-04 4.890400891038e-05 0.0 
4.179852503991e-04 -2.965019101094e-04 0.0 
1.259165636250e-03 1.123491114368e-04 0.0 
2.316904249942e-04 6.272931882800e-05 0.0 
8.113050840226e-05 -3.612609594207e-04 0.0 
1.639200054426e-03 1.146212772808e-03 0.0 
2.725132509800e-03 2.707332143005e-03 0.0 
2.515583747098e-03 2.075766495103e-03 0.0 
2.739494640678e-03 3.039198871443e-03 0.0 
3.309703143918e-04 3.868417219160e-04 0.0 
1.812206742252e-04 8.527443237427e-05 0.0 
9.870344566386e-04 1.487461418891e-05 0.0 
8.411573459086e-05 -4.716557774414e-05 0.0 
9.001397071399e-05 -4.643582267692e-07 0.0 
9.585998505579e-05 -3.641309942262e-04 0.0 
2.456479305040e-03 4.651111171237e-03 0.0 
1.767450506393e-04 -2.906443239874e-04 0.0 
2.464114421619e-03 6.761134651395e-03 0.0 
1.530478443676e-04 2.725338405562e-05 0.0 
1.603717303260e-04 6.110673141418e-05 0.0 
2.778074324593e-03 4.396248174554e-03 0.0 
1.156804909676e-04 -3.031764810722e-04 0.0 
3.441404266856e-05 -6.034673739350e-05 0.0 
1.585209556664e-04 -3.074300276363e-04 0.0 
2.891364488165e-04 -2.656485314628e-05 0.0 
1.675877264306e-03 8.334623692250e-03 0.0 
2.363753129459e-03 6.645039700495e-03 0.0 
1.273988137053e-04 3.969810415434e-05 0.0 
1.507268789951e-03 8.483196877648e-03 0.0 
2.923272822359e-04 4.457261914774e-04 0.0 
1.922483841911e-03 7.798798234523e-04 0.0 
1.355434574351e-03 6.794593448589e-03 0.0 
6.050596668490e-04 1.223141892485e-03 0.0 
1.331398479008e-03 1.546312655951e-04 0.0 
1.880811394959e-04 1.013565349222e-04 0.0 
1.146736658909e-04 2.956160647039e-05 0.0 
2.001526188879e-04 1.933005660276e-04 0.0 
1.736313739552e-04 2.190258368323e-04 0.0 
5.518648988683e-04 -1.375455232458e-04 0.0 
2.116741334956e-04 -2.520115308107e-04 0.0 
1.773907107291e-03 9.296626379860e-04 0.0 
5.235849200273e-04 -1.215632508448e-04 0.0 
9.846784536360e-05 2.103041653510e-05 0.0 
5.394975413047e-04 2.566769487864e-04 0.0 
5.774624945510e-04 -2.310649847296e-04 0.0 
5.798347770933e-04 -2.543554979874e-04 0.0 
1.202704307146e-03 6.282240021692e-03 0.0 
1.007460989070e-04 1.286118181010e-05 0.0 
1.030691096930e-04 -3.179113467234e-04 0.0 
7.240288058538e-05 1.230090829499e-05 0.0 
4.980278114957e-04 -2.845865091628e-04 0.0 
1.828469117360e-04 1.207894218214e-04 0.0 
1.788585627684e-03 1.743578417065e-03 0.0 
6.587372111692e-05 -3.518208109874e-04 0.0 
1.627782726255e-03 8.558551466661e-04 0.0 
1.260646741569e-03 2.781933577134e-03 0.0 
1.910913586710e-04 1.005313048579e-04 0.0 
2.731323146966e-03 3.506615371545e-03 0.0 
1.721845132777e-03 5.922875131978e-04 0.0 
7.780840134485e-05 3.132278416419e-04 0.0 
4.553803254560e-04 6.019644242588e-05 0.0 
4.927842432781e-04 -2.923673766740e-04 0.0 
5.500553684485e-04 -2.697433539019e-04 0.0 
4.173279712943e-05 -2.922186471257e-04 0.0 
1.735339968953e-04 7.353037997376e-05 0.0 
3.423248784133e-04 6.575656951843e-05 0.0 
5.351628139740e-04 2.438316131942e-06 0.0 
1.304737545046e-03 7.361085186654e-03 0.0 
3.386682275802e-04 -3.325721361868e-04 0.0 
5.507576592629e-04 -2.521161416250e-04 0.0 
2.782464987838e-03 3.317701469387e-03 0.0 
1.170167591032e-04 3.316771235761e-05 0.0 
2.043230218744e-04 -2.372140052589e-04 0.0 
5.678072043355e-04 -7.677957443310e-05 0.0 
2.227705397359e-03 1.339197377538e-03 0.0 
8.187338321310e-04 -8.929998080699e-05 0.0 
6.404873778917e-04 -2.140599185157e-04 0.0 
6.024746495976e-04 -1.120425163590e-04 0.0 
2.226991458847e-03 1.488656859079e-03 0.0 
2.260228144532e-03 1.312886699452e-03 0.0 
1.255239710879e-03 1.661955434052e-04 0.0 
2.027233216080e-03 1.075403044424e-03 0.0 
3.646849483584e-04 -2.476919710325e-04 0.0 
6.689573743333e-04 3.824880347603e-04 0.0 
2.360637513280e-04 -2.542783155288e-04 0.0 
1.847139504867e-03 6.782860480718e-04 0.0 
1.245169235830e-03 5.740151984205e-05 0.0 
1.352765467289e-04 2.197327617117e-05 0.0 
1.240533988819e-03 2.312369347445e-03 0.0 
3.042201965819e-04 -3.418656759780e-04 0.0 
8.064496378219e-05 1.495247576064e-05 0.0 
3.378764305853e-04 5.048761536037e-05 0.0 
1.553062769373e-03 4.451170907224e-04 0.0 
7.016592061369e-05 -3.135210503248e-04 0.0 
8.848479223796e-05 9.995926887162e-06 0.0 
1.465430405609e-03 2.194539765083e-03 0.0 
4.249296755125e-04 -3.092008475907e-04 0.0 
5.358373652465e-05 7.103317723853e-06 0.0 
5.289547546155e-04 -1.017716845098e-04 0.0 
1.897174012305e-03 2.455376261838e-03 0.0 
2.444680989329e-03 6.090766486553e-03 0.0 
1.265380180813e-03 6.692838522835e-05 0.0 
5.581573999339e-04 -1.739511591436e-04 0.0 
8.851677892605e-04 -4.883889619539e-05 0.0 
2.171192197871e-03 4.707162853587e-03 0.0 
2.493738062488e-03 3.663611565837e-03 0.0 
1.298062289585e-03 2.290573184367e-04 0.0 
3.057335421023e-04 7.042498465852e-03 0.0 
3.356734885230e-04 -2.465795533849e-04 0.0 
1.195575385021e-03 1.034055172564e-04 0.0 
4.651955627286e-04 -3.001563673419e-04 0.0 
2.741321102509e-04 -1.181753904424e-04 0.0 
4.273561637287e-05 -3.307957044858e-04 0.0 
8.288734236383e-04 5.375511610603e-04 0.0 
4.722853437417e-04 -2.964586063434e-04 0.0 
2.899867057286e-04 -2.129250828631e-04 0.0 
1.743920636010e-03 6.159310161869e-04 0.0 
5.677519566365e-04 -9.687115019657e-05 0.0 
1.166166130394e-03 6.785888360129e-03 0.0 
4.028607033462e-04 -3.180078265652e-04 0.0 
4.716236238231e-05 5.757864086246e-06 0.0 
2.673223569427e-03 2.420214955755e-03 0.0 
2.506671064806e-04 -1.954721350234e-04 0.0 
2.576539745982e-03 2.123119391632e-03 0.0 
2.624605511392e-04 -2.114675807164e-04 0.0 
6.355553425406e-05 -3.450440310865e-04 0.0 
2.404993380104e-03 5.767065257268e-03 0.0 
7.286617586498e-05 -2.392624602389e-04 0.0 
9.076689483703e-05 -3.719531652227e-04 0.0 
2.100578586444e-04 -2.084486768438e-04 0.0 
5.247591817915e-04 -6.313801066730e-05 0.0 
3.469891385333e-04 3.073271046920e-03 0.0 
9.050252350400e-04 -8.312383843650e-05 0.0 
8.716488979854e-04 -7.425903677621e-05 0.0 
2.229681985967e-03 7.550620476189e-03 0.0 
1.453546438115e-03 9.107020080915e-03 0.0 
5.069666308494e-04 9.308636676801e-04 0.0 
2.423039273334e-03 1.804355790692e-03 0.0 
8.610643025716e-05 -3.715690455419e-04 0.0 
1.658088259257e-04 -3.666922716520e-04 0.0 
8.786950107879e-05 -3.409929702484e-04 0.0 
2.757792642125e-04 -3.350006113761e-04 0.0 
1.845768153263e-03 1.193174714474e-03 0.0 
3.978598806185e-04 3.104248804340e-03 0.0 
3.072668053530e-04 -3.929416122236e-05 0.0 
2.448462716055e-04 -3.094208444910e-04 0.0 
2.473628950865e-04 -1.186249078330e-04 0.0 
4.661675221911e-04 7.661623705488e-06 0.0 
2.060049528334e-04 -7.600087996876e-05 0.0 
5.163443768088e-05 -2.382661338779e-04 0.0 
3.672179135996e-05 -2.706561106104e-04 0.0 
7.930880482510e-05 7.562502952520e-06 0.0 
4.132242985565e-05 4.238062800916e-06 0.0 
5.334125073672e-05 -2.139009641099e-04 0.0 
2.240329427233e-04 -1.942254738853e-04 0.0 
5.377391843539e-04 -1.576542451947e-04 0.0 
4.545367532336e-04 2.598019410742e-05 0.0 
1.755435719166e-04 -3.612093600129e-04 0.0 
4.707420475788e-04 -1.244556186943e-05 0.0 
8.066888860092e-05 -3.569540069888e-04 0.0 
2.203145111471e-04 -2.239069464123e-04 0.0 
3.062748170820e-04 -1.977519108270e-04 0.0 
6.234507932034e-05 -3.567982476112e-04 0.0 
4.264306555846e-05 -2.255321373548e-04 0.0 
1.161955837467e-03 2.333460341151e-03 0.0 
7.498479284017e-05 -3.682329006257e-04 0.0 
1.603493059621e-03 8.922511170701e-03 0.0 
1.635135433148e-03 9.105935769631e-03 0.0 
9.468230425221e-04 -4.844351200675e-06 0.0 
1.828841967922e-05 -2.710230060142e-04 0.0 
4.226276910259e-04 -3.130545759858e-04 0.0 
2.249353205841e-04 4.591070669397e-04 0.0 
1.911305548962e-04 -1.352321299328e-05 0.0 
6.755848459785e-04 3.065638676777e-04 0.0 
7.247729579866e-04 3.722541371409e-03 0.0 
5.973207304741e-04 1.026226987961e-03 0.0 
1.411834778352e-04 -3.736026720911e-04 0.0 
2.596775975946e-03 4.716969562043e-03 0.0 
1.055848174288e-03 9.299814736062e-03 0.0 
9.833776895566e-04 9.622683450119e-03 0.0 
8.090922717218e-05 -3.685033841474e-04 0.0 
7.733799075922e-05 -3.612650892470e-04 0.0 
3.902016983974e-05 -3.443083453434e-04 0.0 
1.967490157256e-04 -3.370768564212e-04 0.0 
5.347663761577e-05 -3.570122902993e-04 0.0 
4.357778871758e-05 -1.999432111432e-04 0.0 
-2.741420014313e-05 -2.365414597927e-04 0.0 
2.222284962363e-04 -3.186415176510e-04 0.0 
2.775374737169e-04 5.911876552771e-03 0.0 
1.353567836737e-03 9.466894785420e-03 0.0 
1.670659108422e-03 1.163083923773e-03 0.0 
4.932206280379e-04 -8.685764792212e-05 0.0 
2.452731316008e-04 6.812902774281e-03 0.0 
9.649337090436e-06 -2.602980763385e-04 0.0 
4.725589302179e-05 -3.483770044725e-04 0.0 
6.240945288819e-05 2.641089355066e-04 0.0 
1.430611886196e-04 5.482910808978e-04 0.0 
1.210132144254e-03 7.349472749806e-03 0.0 
1.184084354319e-03 9.280766692317e-03 0.0 
4.811214766521e-05 -2.603951351126e-04 0.0 
9.140690117885e-05 5.247785265749e-04 0.0 
2.186689356274e-04 -3.297354440794e-04 0.0 
1.489571215625e-03 9.316618119718e-03 0.0 
1.314065043662e-03 9.224275718727e-03 0.0 
2.433812092989e-03 6.417528191273e-03 0.0 
1.366327119221e-04 2.225592181688e-04 0.0 
1.118432788877e-04 5.212883377105e-04 0.0 
6.904585321981e-05 -3.609646301031e-04 0.0 
6.815920860809e-05 -3.647218636606e-04 0.0 
1.470327431169e-04 -3.698279377743e-04 0.0 
3.355771939055e-04 -1.986626381542e-04 0.0 
1.814459147193e-05 -1.188505744727e-05 0.0 
-6.709050165160e-05 -2.022351863292e-04 0.0 
9.040605953079e-05 3.887933506024e-03 0.0 
9.788816932408e-06 -2.850913808646e-04 0.0 
8.382213727784e-04 -4.017112976355e-05 0.0 
1.296393339857e-05 -3.005441214690e-04 0.0 
-2.352598216831e-05 -2.582834047019e-04 0.0 
7.813062399379e-04 -7.803579687261e-05 0.0 
7.361298613918e-05 -1.677942954677e-05 0.0 
2.311419252613e-04 6.245976173700e-03 0.0 
2.627494221781e-03 3.755493891379e-03 0.0 
4.571273250765e-05 -3.531570982041e-04 0.0 
2.015872985914e-04 -1.043405502041e-04 0.0 
2.122258280089e-05 3.143422758509e-04 0.0 
4.202739241081e-05 5.323582423418e-04 0.0 
1.226771153197e-03 9.554385232386e-03 0.0 
8.886860360700e-04 3.902521879433e-07 0.0 
4.943382599956e-05 2.571794022039e-04 0.0 
1.651807653592e-03 5.152597520010e-04 0.0 
2.831835042145e-05 -3.458938609000e-04 0.0 
3.668559641334e-05 -3.541653731960e-04 0.0 
2.752693750918e-05 -3.509707950210e-04 0.0 
1.046961933191e-05 -2.371254641372e-04 0.0 
1.447037495771e-05 -9.929601831219e-07 0.0 
1.122351237424e-05 1.451240495041e-03 0.0 
3.641853885291e-05 -3.586774587377e-04 0.0 
2.240998420741e-05 -1.985350550851e-04 0.0 
4.877660526781e-06 -4.215629025522e-07 0.0 
2.058850006372e-05 -8.361161692511e-07 0.0 
7.139676111751e-05 5.666335022775e-06 0.0 
4.981273062308e-05 4.867536683060e-03 0.0 
2.007691635720e-05 3.394651837585e-03 0.0 
9.592714430932e-06 -5.713972805697e-07 0.0 
1.099578563279e-05 -2.647188886814e-07 0.0 
4.419130987844e-05 3.888237694567e-03 0.0 
2.773116211152e-05 -3.599011501833e-04 0.0 
7.532275375492e-04 9.656650525547e-03 0.0 
1.105460468534e-03 9.602577070443e-03 0.0 
5.300864881166e-05 -3.612450027340e-04 0.0 
1.898942428309e-05 6.887659887080e-07 0.0 
6.568425272218e-05 4.100401355688e-06 0.0 
3.227386657412e-05 1.758506484517e-06 0.0 
4.497768614311e-05 -3.619018961806e-04 0.0 
6.099044590450e-05 -3.647881936034e-04 0.0 
3.798637496945e-05 3.324440151604e-06 0.0 
3.341038614806e-05 2.341894871171e-06 0.0 
2.569833710183e-05 5.371748758034e-03 0.0 
4.034803905311e-04 9.666446734358e-03 0.0 
2.411439352125e-05 4.372327028693e-03 0.0 
3.035212191752e-05 7.357375512894e-03 0.0 
1.730206475513e-04 9.653946664701e-03 0.0 
9.407024383977e-05 -3.743829316331e-04 0.0 
9.845730318573e-05 -3.762716097121e-04 0.0 
9.341554964291e-05 -3.728852036750e-04 0.0 
8.259268859257e-05 -3.651844309859e-04 0.0 
1.137191743580e-05 -1.848562846710e-04 0.0 
1.103806677161e-05 -2.118160924890e-04 0.0 
9.946746592081e-05 -3.756342488852e-04 0.0 
1.153132916660e-05 -1.044520269320e-04 0.0 
9.306082173840e-05 -3.708094446105e-04 0.0 
1.104762105094e-04 2.421969853469e-04 0.0 
4.197307517929e-05 2.675991243711e-04 0.0 
8.065173573144e-05 2.841821453912e-04 0.0 
6.951748795287e-06 -3.284871242757e-04 0.0 
8.639082588780e-06 -2.810296487921e-04 0.0 
3.933407984476e-05 3.224843066984e-04 0.0 
7.779081593032e-06 -3.427140169594e-05 0.0 
2.080480960992e-05 2.180159664909e-04 0.0 
5.642939570496e-06 -1.806419146967e-05 0.0 
3.382940903957e-06 -6.917819231098e-06 0.0 
2.150768610352e-05 -2.248554217920e-04 0.0 
8.130715502405e-05 5.900834310695e-04 0.0 
6.013888945468e-05 5.405002731893e-04 0.0 
1.342202116353e-05 -2.588839053582e-05 0.0 
9.025880474453e-06 -1.179922859078e-05 0.0 
1.180871488524e-04 -7.863474915925e-05 0.0 
3.987469043435e-05 -3.204379394201e-04 0.0 
1.805504502272e-04 -2.353042680818e-04 0.0 
8.237578047952e-05 -3.652928063262e-04 0.0 
1.764524329210e-04 -1.554309338245e-05 0.0 
2.460830398847e-04 -2.256791891468e-04 0.0 
1.355843858793e-04 -4.118760122454e-05 0.0 
1.910615868090e-04 -3.463072888917e-04 0.0 
1.031884699388e-04 -3.633517070911e-04 0.0 
9.281464431091e-05 -2.368959824695e-05 0.0 
1.848899448228e-04 -2.070532353467e-04 0.0 
4.014839531638e-05 -2.495972845773e-04 0.0 
1.184603122381e-04 -4.224560548680e-05 0.0 
1.270748982138e-04 2.460066283343e-03 0.0 
2.011895642235e-05 -2.491333303995e-04 0.0 
5.135434929844e-04 -4.496343163488e-05 0.0 
3.601340359315e-04 -1.155651398078e-04 0.0 
1.396081026495e-04 -7.801358653411e-05 0.0 
1.007610809705e-04 -6.655667629582e-05 0.0 
8.946317035375e-04 -1.376726443611e-05 0.0 
2.401056623240e-03 4.078632543998e-03 0.0 
1.722208882303e-03 6.876196672708e-04 0.0 
2.262977762604e-04 -1.038783796060e-04 0.0 
8.346320507287e-05 -3.385127170164e-05 0.0 
6.575898244838e-05 -5.597729465860e-05 0.0 
2.550379023952e-04 -3.509122142903e-04 0.0 
2.430219834576e-04 2.536234118953e-03 0.0 
3.059361106295e-04 3.520320993601e-03 0.0 
5.242486395902e-04 8.166549580764e-03 0.0 
2.533457556572e-04 -8.819076581317e-05 0.0 
1.813609167311e-04 -9.042616408488e-05 0.0 
1.647671197282e-04 2.511404416358e-03 0.0 
2.098251675817e-04 3.017848081523e-03 0.0 
3.852764031876e-04 -1.314910127113e-04 0.0 
6.231430765784e-05 -1.763902512371e-05 0.0 
6.551979488321e-04 3.698569185229e-03 0.0 
4.668567540962e-05 -5.590878197346e-05 0.0 
1.278315488031e-04 -1.060414425894e-05 0.0 
2.843268281185e-04 2.560333741852e-03 0.0 
5.286870552994e-04 5.101147737149e-03 0.0 
4.889698075149e-04 -6.831554984309e-05 0.0 
1.008817857732e-04 -3.186389661455e-04 0.0 
2.546390249908e-04 -3.549372284638e-04 0.0 
1.358886682378e-04 -3.733316812409e-04 0.0 
6.513269745244e-05 -3.262876020148e-04 0.0 
2.546668001421e-04 3.016699450272e-03 0.0 
6.652345785961e-05 -2.553036774780e-05 0.0 
8.343141194188e-05 -3.493916342544e-04 0.0 
1.655099296256e-03 1.999862461825e-03 0.0 
6.212625013597e-04 7.669553351566e-03 0.0 
1.582805837854e-04 -5.167510073033e-05 0.0 
8.513563111338e-05 -4.415379715708e-05 0.0 
4.118199785284e-04 -3.102818381183e-04 0.0 
6.860513141457e-05 -4.494931398173e-05 0.0 
5.915613033995e-04 8.184804092844e-03 0.0 
1.187922572195e-03 1.287403223214e-04 0.0 
9.657000303643e-05 -5.700002427836e-06 0.0 
5.446403037421e-05 -3.129030333615e-04 0.0 
1.657756288790e-04 -5.927795289320e-06 0.0 
4.108274007851e-04 4.551301612028e-03 0.0 
8.120285064436e-05 -3.068694028113e-04 0.0 
2.857008011280e-04 -3.431927665859e-04 0.0 
9.890098698251e-05 -1.612245540422e-04 0.0 
7.066657717927e-04 6.175702850600e-03 0.0 
2.214907451853e-04 -2.804499247707e-04 0.0 
3.055164133852e-04 3.998471871153e-03 0.0 
4.506621824484e-04 5.560083080741e-03 0.0 
2.109028048428e-04 -1.785687246809e-04 0.0 
8.054580026811e-05 -6.719006828434e-05 0.0 
1.025047628495e-04 -5.454838584543e-05 0.0 
3.526245862737e-04 4.515869799642e-03 0.0 
1.182295528882e-04 -3.389217728680e-04 0.0 
1.732069767420e-04 -1.918960679401e-04 0.0 
1.107536792512e-03 2.540672222880e-04 0.0 
4.741807279313e-04 4.097835646305e-03 0.0 
1.713740256785e-04 -2.206017677381e-04 0.0 
3.302988723012e-04 -1.167278155902e-04 0.0 
2.209888165849e-04 -9.007100769333e-06 0.0 
4.629633757682e-04 5.069861348203e-03 0.0 
4.730272452857e-05 -1.111120322597e-04 0.0 
1.186278146029e-04 -3.679194609831e-04 0.0 
3.363475544001e-04 -9.983843476509e-05 0.0 
9.845571304284e-05 -3.287009777774e-05 0.0 
5.825330004719e-04 5.622206791000e-03 0.0 
7.114540460418e-05 -1.344182933366e-04 0.0 
7.258703890094e-04 7.194235031364e-03 0.0 
4.375583223008e-04 7.732071375903e-07 0.0 
1.712781636671e-04 -1.624362210664e-04 0.0 
1.208369360043e-04 -5.362136809906e-05 0.0 
8.539079315565e-05 -3.161839668112e-04 0.0 
1.407635891672e-04 -9.105366345461e-06 0.0 
1.852447526831e-04 -1.776347602328e-04 0.0 
6.467337326082e-05 -3.054459050019e-04 0.0 
1.490002980211e-04 -1.904951873556e-04 0.0 
1.943417073523e-04 -2.639916311457e-04 0.0 
2.029002560272e-04 -3.156816071346e-04 0.0 
9.390141370484e-05 -1.330606282996e-04 0.0 
9.784092462604e-05 -3.747624216001e-04 0.0 
1.010485252712e-04 -3.764046684671e-04 0.0 
1.585838666490e-04 -9.100186103581e-05 0.0 
1.033377392512e-04 -3.275794583433e-04 0.0 
2.285463410960e-04 -8.909598388048e-05 0.0 
2.778664059861e-04 -1.025236441482e-04 0.0 
3.133999427855e-04 -2.605528268700e-04 0.0 
3.602244209133e-04 -3.287856769230e-04 0.0 
5.675103179353e-04 3.190761608888e-03 0.0 
-8.017817341765e-06 1.614985613422e-04 0.0 
1.656683355004e-04 -2.477883251070e-04 0.0 
4.245128818060e-04 1.843301784953e-05 0.0 
9.180798995965e-05 -3.335991770583e-04 0.0 
6.819520889244e-04 6.668939106538e-03 0.0 
6.921791636993e-04 7.700734787852e-03 0.0 
1.637579798169e-04 -3.590965181621e-04 0.0 
2.858940565295e-04 -1.190818576749e-05 0.0 
8.204038311100e-04 4.721375907961e-03 0.0 
1.178177506835e-04 -3.305544891885e-04 0.0 
5.945007838735e-04 2.749841729782e-03 0.0 
5.347249890655e-04 2.722964324380e-03 0.0 
1.322014086693e-04 -3.244308802529e-04 0.0 
7.980633506581e-04 1.315200295020e-03 0.0 
1.803363281754e-04 -3.340262216654e-04 0.0 
1.406142079224e-04 -6.500849592431e-05 0.0 
1.322177940617e-04 -1.472665972279e-04 0.0 
1.393039157598e-03 2.241914060284e-03 0.0 
5.076095239960e-04 3.163679277630e-03 0.0 
1.827047268715e-04 -7.654962647671e-05 0.0 
2.051796735673e-04 -7.568161687032e-05 0.0 
1.706387524543e-04 -3.517961476086e-04 0.0 
1.609337820622e-04 -6.412023281784e-05 0.0 
7.443593651935e-04 4.698453850826e-03 0.0 
1.084095227146e-04 -1.471878603883e-04 0.0 
6.533209706765e-04 5.653353651371e-03 0.0 
6.689318489221e-04 4.184262707378e-03 0.0 
1.273162339268e-03 9.675863964297e-05 0.0 
4.672683527494e-04 3.615230713787e-03 0.0 
1.366823992780e-04 -2.042997149190e-04 0.0 
1.465607890375e-04 -1.619276613612e-04 0.0 
1.561734876822e-04 -2.727555375175e-04 0.0 
3.432730324844e-04 -2.909100876598e-04 0.0 
6.661973443514e-04 5.162465518409e-03 0.0 
4.994074350508e-04 -1.963266768668e-04 0.0 
1.654069063422e-04 -3.205364450863e-04 0.0 
1.389753266375e-04 -3.680790552837e-04 0.0 
7.396021166412e-04 5.189808584198e-03 0.0 
1.829280078682e-04 -3.237248988072e-04 0.0 
1.773721741108e-04 -3.934530596581e-06 0.0 
5.359950866207e-04 4.614047989990e-03 0.0 
1.777200815322e-04 -5.054611890340e-05 0.0 
2.601313818600e-04 3.850935838180e-05 0.0 
1.473731588546e-04 -2.192491278949e-04 0.0 
1.481007987564e-04 -3.275821945294e-04 0.0 
1.459658173467e-04 -3.628305473105e-04 0.0 
2.519557470869e-04 -7.350724496904e-05 0.0 
4.990731028757e-04 6.082841664731e-03 0.0 
1.251603221095e-04 -3.701211302544e-04 0.0 
1.990293794839e-04 -2.777697653563e-04 0.0 
6.015763861835e-05 -3.207317831642e-04 0.0 
7.822639727449e-04 6.204000271752e-03 0.0 
1.721084810042e-04 -2.616781626192e-04 0.0 
3.051414320121e-04 -1.015248824868e-04 0.0 
1.348397106396e-04 -2.696445777863e-04 0.0 
3.569536043597e-04 3.552792967350e-03 0.0 
2.033897492381e-04 -3.037158779921e-04 0.0 
3.286247781425e-04 -6.834576276008e-05 0.0 
2.406265831706e-04 -3.568754104019e-04 0.0 
3.053312682883e-04 -8.574560725464e-05 0.0 
1.124691686247e-04 -1.751009494637e-04 0.0 
2.248248854632e-04 -6.085408755055e-05 0.0 
6.713582674003e-04 -1.885235419033e-04 0.0 
7.455492401626e-05 -3.225892188046e-04 0.0 
5.842961664497e-04 7.132176590893e-03 0.0 
7.872748893102e-04 -5.432708641001e-05 0.0 
1.902757258250e-03 1.464683183962e-03 0.0 
5.652202413681e-04 6.113678986044e-03 0.0 
2.875697396692e-04 -3.476469417443e-04 0.0 
1.048969278169e-03 5.765083740098e-03 0.0 
7.851616734228e-05 -3.310639368539e-04 0.0 
2.285519765227e-04 -2.075014475078e-05 0.0 
8.359920578640e-04 -1.656425711775e-05 0.0 
1.230912206927e-03 1.876226987093e-04 0.0 
4.336749049657e-04 2.206902214891e-03 0.0 
5.000568650972e-04 -1.607759736451e-04 0.0 
1.313175438818e-04 -3.421978879357e-04 0.0 
4.232236082316e-04 -1.119399784513e-04 0.0 
2.376998923619e-04 -6.055618504151e-06 0.0 
3.984198797598e-04 -3.183478967377e-04 0.0 
2.028482265049e-04 -6.212324138452e-05 0.0 
6.027174054681e-04 4.644218910879e-03 0.0 
3.521942051425e-04 -3.204186057789e-04 0.0 
3.625922965923e-04 -9.867211458540e-05 0.0 
1.038765638854e-03 7.284020208336e-03 0.0 
9.356430344759e-05 -2.987717224093e-04 0.0 
2.236238032356e-04 -2.938877885255e-04 0.0 
2.128296966143e-03 1.141577223910e-03 0.0 
2.766662336920e-04 -7.206084807185e-05 0.0 
1.798210822891e-03 2.091621771796e-03 0.0 
1.929509850461e-03 9.023022370846e-04 0.0 
8.949758123793e-04 5.235754398956e-03 0.0 
6.112945287044e-04 6.638062102353e-03 0.0 
1.077903973633e-03 6.778962910928e-03 0.0 
1.363206993326e-04 -1.757253199430e-04 0.0 
3.587031517277e-04 -1.528580061464e-05 0.0 
4.865858330555e-04 -1.250952088645e-04 0.0 
8.016825958672e-04 7.228691051628e-03 0.0 
1.485504061308e-03 1.522485928861e-03 0.0 
1.253123843885e-03 2.440646118133e-04 0.0 
3.329469692382e-04 -8.405551513559e-05 0.0 
6.006946614866e-04 4.157370833220e-03 0.0 
3.165844558458e-04 -2.754836770017e-04 0.0 
2.680725600556e-04 -2.856050478980e-04 0.0 
1.575094128526e-04 -3.487769854206e-04 0.0 
4.582862887516e-04 -9.080218482213e-05 0.0 
2.411926908862e-04 -2.689385752782e-04 0.0 
8.816531737402e-04 5.732017895935e-03 0.0 
1.025293733100e-03 6.267482959463e-03 0.0 
1.141628006205e-03 -8.827807915494e-06 0.0 
2.664581201131e-04 -3.117965367455e-04 0.0 
7.447917823849e-04 -1.263023729469e-05 0.0 
2.457520853940e-04 -2.966328445079e-04 0.0 
2.923979910808e-04 -2.878470336713e-04 0.0 
1.615195596572e-04 -3.402374919479e-04 0.0 
4.403550572161e-04 -1.856510973843e-05 0.0 
4.582891065578e-04 -2.472353918277e-04 0.0 
5.270599674574e-04 3.644594979813e-03 0.0 
5.213581323867e-04 -2.279417563141e-04 0.0 
4.570213283573e-04 -1.092481794295e-04 0.0 
4.834158919567e-04 -1.797610724043e-04 0.0 
1.655815964969e-03 4.977910017455e-04 0.0 
1.468051317642e-04 -3.369819185328e-04 0.0 
3.064130703928e-04 -8.118812601294e-06 0.0 
2.664176348616e-04 1.071018944228e-06 0.0 
2.301179848575e-03 1.321201567657e-03 0.0 
3.432907992936e-04 -2.769643526951e-04 0.0 
4.771834926398e-04 -1.441992097159e-04 0.0 
8.023239439186e-04 5.708994138313e-03 0.0 
2.867871415631e-04 -2.586597780646e-04 0.0 
1.553927846862e-03 9.525858464677e-04 0.0 
1.832485990213e-04 -3.007295224340e-04 0.0 
3.413531901869e-04 -3.348989064692e-04 0.0 
3.691177460687e-04 -2.631459202110e-04 0.0 
1.652380042844e-04 -3.095067978557e-04 0.0 
1.142956319909e-04 -3.115788409228e-04 0.0 
4.482173218513e-04 -1.814017685161e-04 0.0 
3.932441986579e-04 -9.658632851428e-05 0.0 
1.795856923880e-03 9.965860010794e-04 0.0 
9.875693252869e-05 -3.761655078949e-04 0.0 
6.802774604900e-04 -2.158180673834e-04 0.0 
5.629824320477e-04 -2.382396026285e-04 0.0 
3.986692080818e-04 -2.635239401341e-04 0.0 
9.409952296945e-04 6.250911663345e-03 0.0 
4.766372711898e-04 -2.145360001981e-04 0.0 
1.810212873174e-04 -2.882212735530e-04 0.0 
4.257843105741e-04 -2.481666951281e-04 0.0 
4.147367216267e-04 4.066375657288e-03 0.0 
1.603986218639e-04 -2.855205142407e-04 0.0 
1.224022300352e-04 -3.631319468785e-04 0.0 
1.405880511195e-04 -3.533319168401e-04 0.0 
3.597816613537e-04 -3.294143768634e-04 0.0 
3.158580628825e-04 -3.028329008308e-04 0.0 
6.361662488241e-04 -2.130360788384e-04 0.0 
4.859724748678e-04 -2.303498547553e-04 0.0 
2.346600187100e-04 -3.580785556417e-04 0.0 
1.291106100417e-04 -3.500083927702e-04 0.0 
1.453133940532e-03 6.776227086088e-03 0.0 
1.468657314839e-04 -3.065173912308e-04 0.0 
4.632823647706e-04 -3.378346396237e-05 0.0 
1.884023685064e-03 9.522341966521e-04 0.0 
2.533052250402e-03 5.018868687685e-03 0.0 
9.152042938119e-04 3.286679307258e-03 0.0 
1.650314480050e-03 9.935401474900e-04 0.0 
1.206062023145e-03 4.432309239848e-05 0.0 
2.131893466134e-03 1.144637518530e-03 0.0 
2.815584165146e-04 -3.463684609569e-04 0.0 
3.876833761938e-04 -2.323639794367e-04 0.0 
1.368946424965e-03 2.986629215332e-04 0.0 
4.005299534013e-04 -2.728528453532e-04 0.0 
2.216334151364e-04 -3.527710061919e-04 0.0 
2.656462235982e-04 -2.713486424230e-04 0.0 
5.267482370130e-04 -2.424438594172e-04 0.0 
5.962751989888e-04 -2.194614507263e-04 0.0 
1.442536607673e-04 -2.950393564969e-04 0.0 
5.364666237714e-04 -1.936384920565e-04 0.0 
6.395401500223e-04 -2.251482178360e-04 0.0 
7.658445188546e-04 -1.822926023877e-04 0.0 
2.916893649267e-04 -3.012505225357e-04 0.0 
1.000776397488e-03 4.187557790778e-05 0.0 
9.779934134025e-04 5.252248947000e-03 0.0 
8.124462965178e-04 -1.734132282394e-04 0.0 
3.840509709022e-04 -1.054157812421e-05 0.0 
3.359228868742e-04 -3.305477258608e-04 0.0 
3.476500978810e-04 1.990449012320e-05 0.0 
5.877649889966e-04 -2.051636681475e-04 0.0 
1.423792253248e-03 9.202599557082e-04 0.0 
2.705631083531e-03 2.672404117008e-03 0.0 
3.035892995007e-04 -3.438379315590e-04 0.0 
2.606584401508e-03 4.289122162601e-03 0.0 
1.176804333148e-03 2.801415174691e-03 0.0 
6.570755390921e-04 -1.786498836440e-04 0.0 
1.081402790430e-03 5.160190922784e-04 0.0 
2.621540530296e-03 3.597815574028e-03 0.0 
2.105938116823e-03 1.409997196198e-03 0.0 
2.455598504024e-04 -3.533187983201e-04 0.0 
4.701015783917e-04 1.374627665898e-03 0.0 
2.047137950346e-04 -3.634451636251e-04 0.0 
7.032533284181e-04 1.189914611965e-04 0.0 
3.755771256420e-04 2.638685492073e-03 0.0 
8.758774772342e-04 2.289597608966e-05 0.0 
8.333624967344e-04 6.731692547954e-03 0.0 
9.525409913682e-04 3.771466753476e-03 0.0 
7.206509036549e-04 -1.947499214618e-04 0.0 
1.176373395140e-03 1.829122970931e-05 0.0 
7.225529804599e-04 2.329298203015e-03 0.0 
3.563349334730e-04 -6.588220986571e-05 0.0 
1.067937818232e-03 4.764335764225e-03 0.0 
7.381766759400e-04 -4.364988135758e-05 0.0 
2.950207731616e-04 -3.391914848049e-04 0.0 
1.147127986287e-03 4.270046537691e-03 0.0 
7.983265496400e-04 3.455516905077e-04 0.0 
2.837025728435e-04 5.145929085927e-06 0.0 
4.192312763964e-04 -2.324606836094e-04 0.0 
9.127645238624e-04 6.755580181924e-03 0.0 
9.579246924886e-04 7.277208775451e-03 0.0 
5.490821174291e-04 -2.094397169466e-04 0.0 
4.225533966022e-04 -7.641383149967e-05 0.0 
4.465150647893e-04 -5.529902613530e-05 0.0 
1.359252282510e-04 -3.600851081765e-04 0.0 
5.843947756631e-04 -1.327730362587e-06 0.0 
9.133067977472e-04 -1.280554998964e-04 0.0 
7.663930907486e-04 -1.902930433370e-04 0.0 
1.813439161752e-03 8.357733709647e-04 0.0 
5.793633424675e-04 1.856068501221e-03 0.0 
1.596157618426e-03 2.072159317826e-03 0.0 
4.255351543116e-04 2.668751699337e-03 0.0 
2.116260787070e-03 2.606283430056e-03 0.0 
1.394663562747e-03 3.735593650307e-03 0.0 
3.913090266343e-04 -7.950617617010e-05 0.0 
5.413473461041e-04 2.277951211262e-03 0.0 
1.345814761391e-03 4.749014151768e-03 0.0 
4.424008687020e-04 -2.157155257517e-04 0.0 
9.621068438945e-04 -1.021630816198e-04 0.0 
1.058600917303e-03 4.268977340292e-03 0.0 
7.892090635184e-04 2.796102440585e-03 0.0 
8.145513239932e-04 4.231156950693e-03 0.0 
9.816986033083e-04 4.755555734904e-03 0.0 
3.115057365895e-04 -2.319722395938e-05 0.0 
8.702101694502e-04 1.614123102714e-04 0.0 
3.837681841230e-04 -2.846738755351e-05 0.0 
4.177140734221e-04 -1.299516374259e-04 0.0 
2.323745489242e-03 5.863712176305e-03 0.0 
9.043889498176e-04 6.280910932866e-05 0.0 
1.854246656502e-03 4.510041999897e-03 0.0 
1.311352434546e-04 -3.143957241849e-04 0.0 
8.618922400194e-04 -1.492917306345e-04 0.0 
8.772832800656e-04 -1.091374799518e-04 0.0 
1.173143768986e-03 4.574843133471e-05 0.0 
4.447141292586e-04 -1.922791799313e-04 0.0 
9.100917404158e-04 -1.297480516815e-04 0.0 
1.129226119520e-03 7.052248540040e-05 0.0 
2.675109453440e-03 4.236373260345e-03 0.0 
4.299724624577e-04 -1.991468985322e-04 0.0 
1.424787793660e-03 5.747742927725e-03 0.0 
8.389969020512e-04 8.889203059991e-03 0.0 
-2.436635713210e-04 6.399358777818e-04 0.0 
4.421094531322e-04 -1.463638392556e-04 0.0 
8.034033829210e-04 2.620970044666e-05 0.0 
1.316709140685e-03 1.803868248743e-03 0.0 
1.131289280125e-03 -1.338926941185e-05 0.0 
4.297842554842e-04 -1.645812992965e-04 0.0 
1.138117695455e-03 5.772915353126e-03 0.0 
-2.391951511384e-04 1.015135432519e-03 0.0 
9.295516778185e-04 4.252129813958e-05 0.0 
1.081818993921e-03 -1.506177807795e-05 0.0 
2.754788817593e-03 4.251065715567e-03 0.0 
4.150329931630e-04 -5.945277089188e-05 0.0 
3.850273664201e-04 -2.920737982154e-04 0.0 
4.320433108520e-04 -3.894151928701e-05 0.0 
3.721661885850e-04 5.895557423638e-06 0.0 
1.060901443539e-03 6.721043367887e-05 0.0 
8.928284951683e-04 4.248842229591e-03 0.0 
1.648780531133e-03 5.868676540286e-04 0.0 
3.490458275492e-04 7.003200308386e-07 0.0 
-2.069162606639e-04 1.570163747584e-03 0.0 
1.246627196649e-03 5.266098085747e-03 0.0 
1.005653220214e-03 2.464491035197e-04 0.0 
8.730077841574e-04 3.760111672096e-03 0.0 
1.123764230096e-03 4.318508445178e-05 0.0 
1.022421037708e-03 -7.414350734158e-05 0.0 
2.491277157548e-04 -1.645891676458e-04 0.0 
1.479689332356e-04 -8.780889466264e-05 0.0 
6.968611218977e-04 3.241611200470e-03 0.0 
1.111660921765e-04 -3.010261611865e-04 0.0 
-8.431829810553e-05 2.387799926760e-03 0.0 
1.860274160849e-03 7.743747522102e-04 0.0 
3.843858641509e-04 2.179771921106e-03 0.0 
3.220507249292e-04 -3.174938694125e-04 0.0 
2.306327689355e-03 1.398095512350e-03 0.0 
1.249711038253e-03 4.762642458023e-03 0.0 
3.512135332720e-04 -1.825293052825e-04 0.0 
4.301659553901e-04 -2.230092764994e-04 0.0 
9.369363068071e-04 4.661887807775e-04 0.0 
2.310164401306e-04 -3.445034029615e-04 0.0 
3.354633471557e-04 -3.024967296062e-04 0.0 
2.791638655429e-04 -3.263057236273e-04 0.0 
1.146586966482e-03 1.536599319190e-05 0.0 
2.550463289911e-04 4.470444523977e-04 0.0 
3.518387540012e-04 3.753802968791e-03 0.0 
2.468136929795e-04 -1.822729721957e-05 0.0 
1.026278119269e-03 -5.546651915818e-06 0.0 
1.543636192886e-03 5.199228817051e-03 0.0 
2.704871663872e-04 -1.122354769794e-04 0.0 
3.239126045504e-04 1.425544626521e-05 0.0 
2.684052320435e-04 -3.378742189378e-04 0.0 
1.202048169777e-04 -2.797352077274e-04 0.0 
1.104129603596e-03 1.184489727173e-04 0.0 
6.696200462076e-04 -1.924234389428e-04 0.0 
1.054213726630e-03 2.191044654324e-04 0.0 
1.275735237428e-03 9.746945095157e-04 0.0 
1.727054183578e-03 4.086213741769e-03 0.0 
7.316160402022e-04 1.359208856269e-04 0.0 
1.153381045612e-03 5.268860589349e-03 0.0 
1.375422314872e-03 1.756522051611e-03 0.0 
1.210037539781e-03 3.772558968953e-03 0.0 
1.250234102565e-03 3.275068655184e-03 0.0 
3.422330584059e-04 1.334777199088e-04 0.0 
2.472786590640e-04 -3.174204734599e-05 0.0 
1.332464357709e-03 4.250080536499e-03 0.0 
1.419879485528e-03 1.973219052466e-04 0.0 
8.608699036125e-04 6.276308249977e-03 0.0 
6.186226086423e-04 1.263023915297e-04 0.0 
4.844895035994e-04 -7.117853755325e-05 0.0 
1.253936329237e-04 -2.923650097147e-04 0.0 
1.131951887718e-03 2.151954778621e-04 0.0 
1.419227924466e-05 -3.222918240343e-04 0.0 
1.839405451269e-03 6.720905158903e-04 0.0 
9.581699663892e-04 8.475507134878e-05 0.0 
1.009218471886e-03 2.365504677447e-03 0.0 
9.634908576475e-04 1.899284581386e-03 0.0 
1.043457740441e-03 8.980211593079e-05 0.0 
9.949411249561e-04 3.293040020273e-03 0.0 
1.171352937289e-03 8.104108699591e-05 0.0 
2.045568179995e-03 1.111827606189e-03 0.0 
1.419610669776e-03 8.225073191998e-03 0.0 
1.605581703285e-03 1.439069918597e-03 0.0 
1.794104599462e-03 8.820222170620e-03 0.0 
1.874846282084e-03 8.832956440828e-03 0.0 
1.206923066204e-03 3.237955659196e-05 0.0 
1.900259122434e-03 8.735964961120e-03 0.0 
1.760240699690e-03 4.807393895344e-04 0.0 
1.473820296806e-03 3.457923858061e-04 0.0 
9.629232750547e-04 -1.013120304566e-04 0.0 
3.695161444378e-04 -2.350011233645e-04 0.0 
1.081147664528e-03 -4.020656493065e-05 0.0 
7.203567538107e-04 2.782274436966e-03 0.0 
1.444527951260e-03 1.594424139317e-03 0.0 
2.951229196024e-04 -5.567230808841e-05 0.0 
9.134959495317e-04 1.871125120446e-04 0.0 
7.133673905707e-04 -1.834674320188e-04 0.0 
1.162431184171e-03 3.288430783919e-03 0.0 
1.020022411537e-03 -7.498500796348e-05 0.0 
1.938483374099e-04 -2.493841020447e-05 0.0 
1.120804891496e-03 3.778896663890e-03 0.0 
1.489642529489e-03 3.701634747318e-03 0.0 
1.005239203356e-03 1.701565246924e-05 0.0 
1.132429131855e-03 1.058660127004e-05 0.0 
1.757428531919e-03 9.009633178165e-04 0.0 
2.730804837084e-03 2.947168252929e-03 0.0 
3.589325248896e-04 -2.614114266829e-04 0.0 
4.718233995709e-04 -1.167599038241e-04 0.0 
1.384346667716e-03 8.752496189032e-04 0.0 
2.401045371468e-03 1.617275321585e-03 0.0 
1.465782993669e-04 -1.887736966525e-05 0.0 
1.429287462283e-03 4.226477346588e-03 0.0 
1.072809833236e-03 -3.273569155163e-05 0.0 
2.395122964801e-03 1.496074798618e-03 0.0 
8.186068335462e-04 6.117759498261e-05 0.0 
7.668187768933e-04 3.261496222259e-03 0.0 
1.634608849229e-03 9.156175772492e-04 0.0 
1.629010247584e-03 5.671621040397e-03 0.0 
5.694652530153e-04 1.153321599390e-05 0.0 
1.068410312277e-03 -4.560952704890e-05 0.0 
7.712954672338e-04 4.420350815054e-05 0.0 
1.933764386271e-03 8.103080330940e-04 0.0 
7.916368487927e-04 2.351474089853e-03 0.0 
1.420593054331e-03 8.552015894400e-04 0.0 
1.044513926312e-03 -1.285131709521e-05 0.0 
3.995769895531e-04 -1.309806002445e-04 0.0 
1.494322070121e-03 5.026393167580e-04 0.0 
1.892288508576e-03 6.495758926398e-04 0.0 
1.111501843490e-03 2.619835925904e-05 0.0 
1.059902359983e-03 1.501310729171e-05 0.0 
5.296166611552e-04 -2.112490570966e-05 0.0 
3.905360142670e-04 -1.704015175254e-04 0.0 
1.048726454730e-03 -4.435679919759e-05 0.0 
2.574159513578e-03 3.826806775068e-03 0.0 
1.325941027736e-04 -2.031673388932e-05 0.0 
2.554868688891e-03 3.178379775722e-03 0.0 
1.711865222161e-03 6.673611176606e-04 0.0 
2.536541599944e-03 4.518199306824e-03 0.0 
2.303260269872e-03 5.960244447301e-03 0.0 
2.628926064605e-03 2.363856533054e-03 0.0 
9.546018819398e-04 1.595037802066e-04 0.0 
2.836707320573e-04 -4.194850789086e-05 0.0 
1.544782235060e-03 4.691672572827e-03 0.0 
8.945959004888e-04 1.911847320126e-03 0.0 
2.443700542209e-03 5.235694045494e-03 0.0 
8.534499996961e-04 -6.114268091595e-05 0.0 
1.382063534230e-03 4.799895502119e-04 0.0 
5.972456610457e-04 2.290498896657e-03 0.0 
1.661021476323e-03 4.442025073324e-04 0.0 
1.828133118562e-03 6.019610603534e-04 0.0 
9.749619298780e-04 -5.077958350796e-05 0.0 
1.626929116435e-03 4.146703878443e-03 0.0 
1.912498250343e-03 1.900897051296e-03 0.0 
1.707087829131e-03 4.302591960770e-04 0.0 
1.816634840999e-03 1.615066698028e-03 0.0 
1.129647696618e-03 1.687295086333e-04 0.0 
1.046514808832e-03 3.608202497155e-04 0.0 
9.485899929580e-04 -9.784731281204e-05 0.0 
1.549637213933e-04 -1.344961509929e-04 0.0 
1.097953390098e-03 1.856683012971e-03 0.0 
2.205245132325e-03 2.360729013921e-03 0.0 
7.940040066393e-04 -1.489894686137e-04 0.0 
1.198691916959e-03 3.974168224363e-04 0.0 
1.647444922470e-03 4.645858007671e-03 0.0 
3.464291482287e-04 -5.055440852554e-05 0.0 
1.299487891135e-03 2.158823588799e-04 0.0 
1.039992046086e-04 -1.446181289406e-04 0.0 
9.298029354964e-05 -1.425505899712e-05 0.0 
2.268897512079e-03 1.250557795929e-03 0.0 
1.396719106681e-03 2.555343322135e-04 0.0 
1.559230343877e-03 7.486150874906e-04 0.0 
6.556843847051e-06 -1.197509783328e-04 0.0 
3.738828379507e-04 -4.721731422214e-05 0.0 
7.489765305603e-04 2.304507836714e-04 0.0 
1.735989733156e-03 5.612180270386e-03 0.0 
3.455843921163e-04 -1.493653885857e-04 0.0 
1.000566355480e-03 -6.235686515479e-05 0.0 
1.769062442199e-04 -2.677390857379e-05 0.0 
1.849253375966e-03 5.806069282215e-04 0.0 
8.945365634058e-04 -7.773373388307e-05 0.0 
2.304485865439e-03 1.287956685317e-03 0.0 
1.123514600363e-04 -1.871803350764e-04 0.0 
2.066070991510e-03 1.013106613343e-03 0.0 
1.070182231971e-03 1.370110037251e-04 0.0 
1.204907539133e-03 7.856316219620e-04 0.0 
1.830796664478e-03 8.506528029696e-04 0.0 
6.067985645616e-04 -1.251346447450e-04 0.0 
2.707800761019e-04 -5.769730128112e-05 0.0 
5.229083327609e-04 1.831097198482e-03 0.0 
5.096031926746e-04 1.206566631343e-04 0.0 
1.075625823109e-03 1.812949944095e-04 0.0 
1.259380541777e-03 1.178648762514e-04 0.0 
2.224066080110e-03 1.159317869645e-03 0.0 
1.061144441768e-04 -2.269307677487e-05 0.0 
7.590122308780e-05 -1.614113418099e-04 0.0 
1.926518684786e-03 8.787153073202e-04 0.0 
1.441491823790e-03 5.232967206081e-03 0.0 
2.272531419264e-04 -3.391043241051e-05 0.0 
3.570897828480e-04 -3.258943773205e-05 0.0 
3.431855270375e-04 9.373716079471e-03 0.0 
2.292897472297e-04 9.369861248547e-03 0.0 
2.463177660464e-03 3.583713783794e-03 0.0 
2.117291901444e-03 1.019472096253e-03 0.0 
2.955538358069e-04 -1.336342772125e-04 0.0 
2.566202232670e-03 2.298184198911e-03 0.0 
1.712996528394e-03 4.399603598364e-04 0.0 
5.500586097916e-04 5.330667993591e-05 0.0 
1.327764977729e-03 1.839838125687e-04 0.0 
2.288898275785e-04 4.666822195757e-04 0.0 
2.248994542395e-03 6.894992900600e-03 0.0 
1.737853814656e-03 4.922130662370e-04 0.0 
3.765800598424e-04 -1.488336130578e-04 0.0 
5.665936677294e-04 -5.410548398266e-05 0.0 
3.972014408717e-04 -1.995073622479e-04 0.0 
2.231615095146e-03 1.143838403544e-03 0.0 
2.532959196130e-03 1.894523667862e-03 0.0 
1.753278365868e-03 5.093973481884e-03 0.0 
2.454273087347e-03 2.011829057708e-03 0.0 
2.349376357750e-03 1.920282715208e-03 0.0 
4.172475486738e-05 -3.389291069181e-04 0.0 
3.780819469134e-04 -2.159792852949e-04 0.0 
2.100445785011e-03 2.019097125203e-03 0.0 
2.671976111373e-03 3.108910388603e-03 0.0 
2.579886251579e-03 2.961246865588e-03 0.0 
7.939565528039e-04 1.194128341824e-04 0.0 
7.240530449371e-06 -3.151069037886e-04 0.0 
3.206261376882e-04 -2.158889560587e-04 0.0 
2.112597199824e-03 1.024354020459e-03 0.0 
3.475987438852e-04 -2.152978866672e-04 0.0 
1.962867857217e-03 8.515448872327e-03 0.0 
1.992739106337e-03 8.491571640103e-03 0.0 
1.859955032757e-03 5.018647610784e-03 0.0 
2.547694815123e-04 1.892556004234e-04 0.0 
3.345558207647e-04 -1.658801478751e-04 0.0 
7.562877779346e-04 1.116348925915e-05 0.0 
3.270978336489e-04 -1.820194467876e-04 0.0 
6.378681051079e-04 2.588993665922e-04 0.0 
1.016287173926e-03 2.826367499021e-03 0.0 
2.643195634940e-04 -1.805468509288e-04 0.0 
2.393023714191e-04 -4.614188614809e-05 0.0 
7.461264719209e-05 -3.521387629465e-04 0.0 
7.291989955861e-04 -2.203441199692e-05 0.0 
2.174575453765e-03 1.074436457666e-03 0.0 
5.725569426048e-05 -3.477174116691e-04 0.0 
9.380297629954e-04 2.824639040438e-03 0.0 
2.702784209222e-04 -1.549955717210e-04 0.0 
2.673300185397e-03 2.859112543982e-03 0.0 
2.450009295382e-03 1.660090302226e-03 0.0 
8.064540677964e-04 -1.590076688061e-04 0.0 
6.447312093482e-04 -1.058018859069e-04 0.0 
9.365042310582e-04 2.377094873043e-03 0.0 
6.078298978288e-04 -7.039052673468e-05 0.0 
1.985584440584e-03 7.755829520648e-04 0.0 
2.015787985572e-03 8.661856369821e-04 0.0 
-2.461083594180e-04 4.990067597674e-04 0.0 
2.127909955260e-04 -1.654482310406e-04 0.0 
1.609659264490e-03 6.443119821915e-04 0.0 
2.245087069350e-03 5.590419932693e-03 0.0 
1.434316037571e-03 5.411687520134e-04 0.0 
7.734168039331e-04 3.200836584418e-04 0.0 
1.933626394677e-03 2.811061151148e-03 0.0 
1.517375015413e-03 6.724962757472e-04 0.0 
2.172632502221e-03 7.883677143630e-03 0.0 
1.662346182871e-03 7.232631123905e-04 0.0 
2.180576673856e-04 -4.785227552033e-05 0.0 
2.060032272433e-03 8.775528310322e-04 0.0 
3.823545772101e-04 -1.826926307486e-04 0.0 
3.966925324289e-04 -1.655116978133e-04 0.0 
1.167785500527e-03 1.833193989617e-03 0.0 
6.605850638703e-04 -1.424869380535e-04 0.0 
2.390879966628e-03 1.478309382379e-03 0.0 
1.467159015455e-03 2.118827097762e-04 0.0 
5.494907990063e-04 -3.842442125117e-05 0.0 
1.576801480786e-03 3.505222523198e-04 0.0 
6.582633144263e-04 -1.443474630896e-04 0.0 
9.615718534781e-04 -6.370811857268e-05 0.0 
7.687639901391e-04 -8.485762833026e-05 0.0 
2.585402599908e-03 2.518676073918e-03 0.0 
7.351638506941e-04 -1.244092419191e-04 0.0 
2.586558601373e-03 2.129086695292e-03 0.0 
9.067109770777e-04 1.344337285480e-04 0.0 
9.682694536008e-04 1.245064378428e-04 0.0 
1.492353496864e-03 3.047860418167e-04 0.0 
1.952593383629e-03 5.443660502268e-03 0.0 
1.890663447028e-04 -3.745632015207e-05 0.0 
1.707054178079e-04 -3.888100970117e-05 0.0 
9.515875134003e-05 2.314507672041e-04 0.0 
2.489819545065e-03 1.875907440138e-03 0.0 
1.037784179648e-04 -1.305632580800e-05 0.0 
1.377321784204e-03 3.267098133726e-03 0.0 
2.593461070942e-04 -1.493454952042e-04 0.0 
-2.173821158468e-04 5.408146442742e-04 0.0 
1.445611207316e-04 -2.963796234695e-05 0.0 
6.299658753487e-04 -8.279994204342e-05 0.0 
6.265374971920e-05 -1.487323131930e-04 0.0 
1.470634622665e-03 3.085007812879e-04 0.0 
2.060306875711e-03 5.335718350602e-03 0.0 
2.138307348260e-03 5.734711188369e-03 0.0 
2.123472625110e-03 9.589565432215e-04 0.0 
1.732503138168e-03 8.072106646375e-03 0.0 
1.884458860434e-03 8.390970376068e-03 0.0 
1.288795865499e-04 -3.081557204339e-05 0.0 
6.500312098804e-04 -8.424147204605e-05 0.0 
8.248671825323e-04 -1.247043814774e-04 0.0 
7.760678940418e-04 -9.104744403549e-06 0.0 
9.514747537029e-04 -9.696315947677e-05 0.0 
7.150307646583e-04 -6.246114679917e-05 0.0 
1.646863048746e-03 8.639121809282e-03 0.0 
2.228189292035e-03 6.533898876691e-03 0.0 
2.886794336494e-04 9.662177223435e-03 0.0 
9.169290511739e-04 1.008973622529e-04 0.0 
1.415756711618e-03 2.257580312326e-04 0.0 
6.519924751708e-04 1.434013120303e-04 0.0 
5.374768669687e-05 -3.520669286319e-05 0.0 
9.888900326384e-04 -6.938340913232e-05 0.0 
8.650106879144e-05 -6.712819752833e-06 0.0 
7.399894260424e-04 -1.688132932120e-04 0.0 
8.471058916129e-04 2.030938425201e-04 0.0 
2.031290826182e-03 8.182714210969e-04 0.0 
1.879853235616e-03 6.675170104172e-04 0.0 
5.304938326599e-04 2.430369982534e-05 0.0 
3.997078998965e-04 -2.778458406405e-04 0.0 
2.467888325009e-03 1.693963735168e-03 0.0 
8.964146195681e-04 -1.173015104325e-04 0.0 
2.546595227585e-03 1.910631684565e-03 0.0 
9.007840282357e-04 3.585183477148e-04 0.0 
1.696860229003e-03 5.064599015680e-04 0.0 
8.564485831920e-04 -1.428866121504e-04 0.0 
3.244455718313e-04 -1.331854640216e-04 0.0 
2.611354679925e-03 2.150517091996e-03 0.0 
-1.579193118862e-04 2.888461907998e-04 0.0 
1.464798403007e-03 2.241801191031e-04 0.0 
-1.090870020118e-04 5.250035940036e-04 0.0 
1.150327455221e-04 -3.538890598447e-04 0.0 
2.871826191496e-04 -1.495647484070e-04 0.0 
1.973447059110e-03 1.175459320962e-03 0.0 
2.268406631197e-03 5.076839659387e-03 0.0 
1.204742723129e-03 6.476617335703e-03 0.0 
1.184136170690e-04 2.244852342289e-04 0.0 
-2.545969728589e-04 3.824366091914e-04 0.0 
1.510485958780e-03 7.433429629175e-03 0.0 
7.996940716524e-04 -1.137316839928e-04 0.0 
2.223451208609e-04 -1.638577025360e-04 0.0 
2.473294679112e-03 5.849891606691e-03 0.0 
6.561408945928e-04 -2.356979254965e-04 0.0 
6.770053017578e-04 -1.205352879490e-04 0.0 
2.144923913132e-03 9.909595997120e-04 0.0 
1.409454679607e-03 2.310470615794e-04 0.0 
1.856103912880e-03 1.585941681755e-03 0.0 
1.783836609544e-04 1.721749819931e-04 0.0 
2.924011195061e-04 -1.813691245858e-04 0.0 
2.064785706170e-04 -1.484315320739e-04 0.0 
2.618051198257e-04 -3.235401464154e-04 0.0 
2.135288988285e-03 7.763471526305e-03 0.0 
2.365286993825e-03 4.915292962221e-03 0.0 
1.963475913202e-05 -6.619867304872e-05 0.0 
6.458097545091e-05 -3.522834627126e-04 0.0 
-5.082093948570e-05 -8.463740543995e-05 0.0 
1.976538568847e-04 -3.562476540524e-04 0.0 
1.810696655829e-04 -1.479440150525e-04 0.0 
8.345848008646e-04 -1.526056611373e-04 0.0 
6.361221214269e-04 -2.372890672653e-04 0.0 
6.309865091356e-04 -1.776134363782e-04 0.0 
2.409481085871e-04 -1.338645414003e-04 0.0 
2.398834173074e-03 3.760367582161e-03 0.0 
1.650274726119e-04 -1.331691127961e-04 0.0 
8.796539111506e-04 -1.235407031769e-04 0.0 
2.435908721041e-03 1.680669887445e-03 0.0 
1.344985048253e-03 7.829586544346e-03 0.0 
1.316347303376e-03 2.881932364200e-04 0.0 
1.408929757203e-04 -1.330002546767e-04 0.0 
2.148631670038e-04 -1.336820433798e-04 0.0 
6.606902750406e-04 4.032970916218e-03 0.0 
8.052748930232e-04 -1.769261866539e-04 0.0 
1.246124820379e-04 -1.189038188982e-04 0.0 
5.370440730943e-05 5.856867305903e-03 0.0 
5.835819212511e-05 6.832427356240e-03 0.0 
9.442204952702e-04 5.224392008144e-03 0.0 
1.965674758341e-04 -1.189045804105e-04 0.0 
5.390668284921e-04 -2.774992631157e-04 0.0 
1.552758773845e-05 6.057964680576e-04 0.0 
8.082716868123e-04 1.787200079007e-04 0.0 
2.118548723621e-04 -3.626282225596e-04 0.0 
5.523722050385e-04 -2.703937123357e-04 0.0 
1.511510005459e-03 2.491092999917e-04 0.0 
1.125120535422e-03 7.442275733753e-03 0.0 
1.014291913697e-04 -1.190429293606e-04 0.0 
1.635667705342e-05 -2.904776600972e-04 0.0 
2.152532978704e-03 7.428041257314e-03 0.0 
1.721406864763e-04 -1.188791668483e-04 0.0 
7.461109446132e-04 -1.609919127523e-04 0.0 
3.050457838222e-04 -1.656306945055e-04 0.0 
-1.024959028998e-04 1.725526289819e-04 0.0 
7.029274290864e-05 2.996658799620e-03 0.0 
6.778299629837e-04 -2.247145442287e-04 0.0 
6.748835601129e-04 7.075012580282e-05 0.0 
1.799611438938e-03 5.727186251102e-04 0.0 
1.543834591514e-04 -1.048908335927e-04 0.0 
1.309897516047e-04 -1.050843437619e-04 0.0 
7.696070189110e-04 -1.749176905507e-04 0.0 
1.587359786359e-04 -3.671857812830e-04 0.0 
-1.097053289164e-04 2.396073166647e-04 0.0 
1.136692053052e-04 -9.181653383015e-05 0.0 
5.661902445962e-04 3.415076149635e-05 0.0 
4.496912961204e-04 -2.972754293297e-04 0.0 
2.322191656791e-03 1.474466082689e-03 0.0 
1.023118825094e-03 2.605095793718e-03 0.0 
2.420257862974e-03 1.824322136696e-03 0.0 
1.790360490933e-04 1.077837992662e-05 0.0 
-1.667719247257e-04 -4.064147073681e-05 0.0 
1.059323733178e-05 2.600443608075e-04 0.0 
3.904586010844e-06 -5.618981159510e-07 0.0 
3.571884197389e-05 8.379190700562e-03 0.0 
5.639331791124e-04 -2.505841544893e-04 0.0 
1.975280569312e-03 7.560777553576e-04 0.0 
8.512049072002e-04 -1.150044058947e-04 0.0 
1.129871883842e-04 -3.602594226165e-04 0.0 
-2.262804296574e-04 4.158718209973e-04 0.0 
3.018630595941e-04 2.148288381919e-03 0.0 
2.439773224624e-03 4.232537717658e-03 0.0 
1.985759520636e-03 8.340921514762e-03 0.0 
2.997464329659e-04 1.088954984479e-04 0.0 
1.495812491401e-05 -3.075528907466e-04 0.0 
2.667735163451e-04 8.748687118809e-05 0.0 
2.357870326698e-03 4.412806015245e-03 0.0 
4.614349142545e-04 -2.616200661983e-04 0.0 
1.967990411083e-03 7.287994019128e-04 0.0 
5.263877616623e-04 -2.674030239730e-04 0.0 
7.387950648052e-05 7.783540047477e-04 0.0 
4.573947563295e-04 -2.868291088329e-04 0.0 
2.387623290570e-03 3.147748538003e-03 0.0 
5.333843918242e-05 -2.609027208470e-05 0.0 
6.321663139540e-04 -2.437085386433e-04 0.0 
2.289007342637e-03 1.588437844128e-03 0.0 
-1.207430236016e-04 -9.237689671842e-05 0.0 
7.493052650979e-04 -1.987295818218e-04 0.0 
2.033405679935e-03 3.255735531779e-03 0.0 
3.701386710742e-04 -2.914135556822e-04 0.0 
3.859055068050e-04 -3.131538221482e-04 0.0 
1.879248892875e-03 6.171419684624e-04 0.0 
2.551747389374e-04 -3.040619105649e-04 0.0 
7.659340089495e-05 2.581477934588e-03 0.0 
2.977664639095e-04 3.235879148656e-03 0.0 
3.358441045923e-04 -3.153177932977e-04 0.0 
7.508827715809e-04 -1.254120892673e-04 0.0 
1.568266901052e-03 3.120910061847e-04 0.0 
2.244851960478e-03 1.433819342814e-03 0.0 
1.273889629638e-03 1.188659761815e-03 0.0 
6.492607980452e-04 4.860254763188e-03 0.0 
1.013014699236e-04 4.845337671168e-03 0.0 
1.200132582375e-03 6.711282134927e-04 0.0 
7.765182040455e-04 -1.379649665165e-04 0.0 
-1.371244260174e-04 6.297540245688e-04 0.0 
1.307463904752e-03 2.781320645901e-03 0.0 
6.828747592767e-04 -1.570891948581e-04 0.0 
2.363387791185e-03 2.090612340352e-03 0.0 
7.281628204348e-04 -1.483872308904e-04 0.0 
5.104113707304e-05 1.490804941216e-04 0.0 
7.333986561887e-04 -8.921781392165e-05 0.0 
1.535868758394e-04 9.897649838954e-04 0.0 
1.487941691040e-03 2.379186696955e-04 0.0 
7.220149483103e-04 -1.121624031305e-04 0.0 
1.806297254425e-03 5.496219366001e-04 0.0 
3.781781889532e-04 6.049546917000e-03 0.0 
3.117861567337e-04 -3.148948725772e-04 0.0 
-2.775917157587e-05 4.638196783705e-04 0.0 
6.936890101684e-04 -7.603028487935e-05 0.0 
2.646533178965e-04 1.259275584346e-03 0.0 
-6.580405724733e-05 -4.117940707397e-05 0.0 
2.644702600138e-05 1.957696673623e-03 0.0 
3.530042998434e-05 2.925003563689e-03 0.0 
1.081312874251e-04 -3.696907119803e-04 0.0 
6.924983805474e-04 -5.417106277789e-05 0.0 
2.299433031381e-04 -3.419384575240e-04 0.0 
2.366337107092e-04 -3.322583805894e-04 0.0 
2.007652657671e-03 1.294125464115e-03 0.0 
1.723148866957e-03 4.626067029018e-04 0.0 
2.096563162080e-03 1.239430047236e-03 0.0 
7.088355558865e-04 -2.165704193267e-04 0.0 
6.415252372036e-04 9.707888701322e-03 0.0 
1.235343071325e-04 5.804429753511e-06 0.0 
2.062910991398e-04 -3.486459534845e-04 0.0 
7.750910431067e-04 7.552904015397e-05 0.0 
1.627629610327e-03 3.535185547967e-04 0.0 
5.203273953072e-05 -3.270359244045e-04 0.0 
2.483292613714e-03 2.595423504907e-03 0.0 
8.515057791934e-04 -1.544972408341e-04 0.0 
1.349545183810e-04 -3.543406512197e-04 0.0 
6.700698869371e-04 -2.180446446891e-04 0.0 
1.048995398803e-05 -7.768570725767e-05 0.0 
2.431933302278e-03 2.971405730970e-03 0.0 
1.959210905068e-04 -3.660566486050e-04 0.0 
4.212425400194e-05 -1.519127120924e-04 0.0 
2.201277933541e-03 1.657052641773e-03 0.0 
1.248498413091e-03 2.942868593244e-04 0.0 
3.936219426436e-04 -3.027860044716e-04 0.0 
3.319729758767e-05 -2.899061883227e-04 0.0 
1.591655390319e-03 3.165728085230e-04 0.0 
2.800607020760e-05 6.366734099901e-03 0.0 
1.248274430028e-04 -3.336520665654e-04 0.0 
8.361870755340e-04 4.057707111477e-04 0.0 
7.464666352032e-04 7.952082175497e-04 0.0 
1.253599269235e-04 7.722540650358e-03 0.0 
5.283963851385e-04 1.416297336023e-03 0.0 
7.585822346433e-04 6.229914984856e-04 0.0 
7.187519780426e-04 -2.116468392564e-04 0.0 
5.956735086897e-04 -2.535819855466e-04 0.0 
3.815249507905e-04 6.437911054760e-05 0.0 
-1.653732818558e-04 7.320712829366e-06 0.0 
7.717594464641e-06 -2.993198864378e-04 0.0 
3.109877133872e-05 -1.410966989969e-04 0.0 
3.667816493309e-04 -3.037592895737e-04 0.0 
5.705954859085e-04 -2.667473375240e-04 0.0 
-1.316472418076e-04 1.690814346619e-03 0.0 
-5.170784739198e-05 2.068532638473e-03 0.0 
1.157189531860e-03 7.826692575526e-03 0.0 
7.305583693144e-04 -1.986126654154e-04 0.0 
8.830018367799e-05 -2.885981821017e-04 0.0 
1.523657854903e-03 4.516059364741e-04 0.0 
4.091025348678e-05 1.642346595413e-06 0.0 
5.419469577780e-05 2.712087091222e-06 0.0 
6.005998472518e-04 -2.439181415846e-04 0.0 
1.446110751881e-03 8.305446259912e-03 0.0 
-7.474221412372e-05 -1.063651130318e-04 0.0 
-1.868793970526e-04 1.092787896311e-03 0.0 
2.228787288694e-04 -2.904917938122e-04 0.0 
-1.595668146428e-04 1.359965581376e-03 0.0 
1.623869437828e-03 3.525344201053e-04 0.0 
4.788590690546e-04 -2.924432793053e-04 0.0 
6.203936677193e-04 -2.497683398408e-04 0.0 
6.288552720969e-05 -2.236452751565e-04 0.0 
8.091808951570e-05 2.645558597239e-03 0.0 
5.197531261505e-04 -2.775487378574e-04 0.0 
2.614835041558e-04 2.100914389119e-03 0.0 
2.120993026419e-04 3.515641520270e-03 0.0 
3.181582013268e-05 5.743866366584e-04 0.0 
8.782246537625e-06 -9.834610185031e-07 0.0 
6.607096389141e-05 7.831671736733e-03 0.0 
4.931971647755e-04 -2.718512449240e-04 0.0 
3.757180505084e-05 3.011722462125e-03 0.0 
4.945083871909e-04 -2.592366322291e-04 0.0 
1.531116724930e-05 3.290120486195e-07 0.0 
-2.106976254651e-04 6.910792536455e-04 0.0 
-2.023139393371e-04 8.731796337717e-04 0.0 
7.582182223159e-04 1.018910266284e-04 0.0 
1.078827470299e-03 8.730306684338e-03 0.0 
1.557377017008e-04 2.014176985634e-03 0.0 
2.174924142801e-03 1.512714691704e-03 0.0 
1.053842025739e-03 2.794812936903e-04 0.0 
2.033817411223e-03 1.890132699674e-03 0.0 
4.279730144684e-04 7.501445195273e-03 0.0 
3.281708653629e-04 -3.255683261385e-04 0.0 
3.513919742629e-04 -3.243776400911e-04 0.0 
1.257221287491e-04 5.332513130935e-03 0.0 
1.222051378220e-03 3.342453188753e-04 0.0 
1.761018751597e-03 8.662526535171e-03 0.0 
2.260844737192e-04 8.811811451266e-03 0.0 
2.728898294598e-04 7.950852706305e-03 0.0 
4.906146057701e-04 7.619276594653e-03 0.0 
1.653902446279e-04 -2.130176232774e-04 0.0 
2.969277232263e-04 -3.350899128421e-04 0.0 
2.368394685346e-04 1.277480007130e-03 0.0 
4.818121584317e-04 6.575202536208e-03 0.0 
3.530681024478e-04 8.379450182894e-05 0.0 
1.354198655192e-03 1.190123510044e-03 0.0 
2.487484888020e-03 2.402650557858e-03 0.0 
7.733519888817e-04 1.943806382793e-03 0.0 
1.366599785832e-04 -2.319101247121e-04 0.0 
1.308850991414e-04 -2.565256993616e-04 0.0 
2.149054450341e-04 3.940836597254e-06 0.0 
1.295700106661e-05 -2.183644644536e-04 0.0 
4.057604989993e-05 -2.978060469764e-04 0.0 
1.393747026398e-04 4.778876703376e-05 0.0 
1.143127574717e-05 -3.343117534452e-04 0.0 
2.797617344866e-04 8.519150595349e-03 0.0 
4.734280681203e-04 5.464885718809e-05 0.0 
1.221997383186e-04 -3.746283847052e-04 0.0 
9.254979076230e-05 -3.694561177716e-04 0.0 
1.487151280418e-04 4.864396715554e-04 0.0 
9.308349729299e-04 9.404781038303e-03 0.0 
3.544732735568e-04 1.372058891609e-03 0.0 
4.967420645878e-04 7.697753784920e-05 0.0 
8.137107664694e-04 9.425115539103e-03 0.0 
-1.161053006958e-04 3.982413079679e-06 0.0 
5.512924501152e-05 1.077246661146e-03 0.0 
1.058949774080e-04 -3.501320925943e-04 0.0 
3.902068787518e-04 1.799889975550e-03 0.0 
1.188022304415e-05 3.832662561026e-08 0.0 
1.211384505535e-03 1.327616129702e-03 0.0 
2.658809927683e-04 -2.248243471406e-04 0.0 
1.658007008831e-03 7.539344353706e-03 0.0 
8.265358467800e-05 -2.279626465241e-04 0.0 
1.454731483979e-03 3.924991748296e-04 0.0 
1.888881739645e-04 4.706836675613e-05 0.0 
1.218178824741e-04 4.349823828258e-03 0.0 
1.726823534372e-04 3.853717682083e-05 0.0 
6.347368656860e-05 -1.915874876798e-04 0.0 
7.277197424800e-05 -1.445719265451e-06 0.0 
3.106386903645e-04 -2.734303226521e-04 0.0 
5.226932652701e-05 -3.383088955144e-04 0.0 
2.536697341614e-04 2.848121141762e-05 0.0 
6.347027729997e-04 1.111413480802e-03 0.0 
3.240777547656e-04 9.520676087642e-04 0.0 
6.240204198690e-04 8.702548343159e-03 0.0 
2.126905959002e-03 6.650515205148e-03 0.0 
9.830113776954e-05 6.496610045631e-04 0.0 
8.775106070148e-04 6.897241519175e-04 0.0 
6.633762989752e-05 -2.602686198528e-04 0.0 
-3.196801561769e-05 2.669799875395e-04 0.0 
1.314824193273e-03 3.414327657411e-04 0.0 
5.125549947366e-04 9.717252803240e-03 0.0 
8.476622055074e-04 1.525001431799e-03 0.0 
4.463647720778e-06 5.461428774710e-04 0.0 
4.463647720778e-06 2.303968491097e-04 0.0 
1.066082067066e-05 -3.589968011522e-04 0.0 
4.442947897295e-06 -3.561178407034e-04 0.0 
2.778866779894e-05 9.349092157549e-03 0.0 
6.626634620321e-05 9.688479259661e-03 0.0 
1.511993282457e-06 -5.352959715579e-07 0.0 
1.511993282457e-06 -1.626131845908e-06 0.0 
1.948495715934e-05 -3.529073530376e-04 0.0 
-7.401930183153e-05 -1.731582828928e-04 0.0 
7.175901700639e-05 -9.169272844430e-06 0.0 
1.102935129262e-03 4.075812392479e-04 0.0 
9.494329943771e-05 -3.406277454875e-04 0.0 
1.230657828327e-04 -3.579617415759e-06 0.0 
1.835990572511e-05 -1.178742254663e-04 0.0 
1.923121081878e-05 -1.709228737059e-04 0.0 
3.285376092193e-04 6.189786345043e-03 0.0 
2.101255391288e-04 -3.280000579286e-04 0.0 
1.621238611815e-03 4.336193353223e-04 0.0 
9.503199671028e-05 -3.519037628734e-04 0.0 
1.148175107356e-04 -2.011028310813e-04 0.0 
1.160843565607e-03 9.387351323455e-04 0.0 
1.522351362714e-05 2.420878486270e-03 0.0 
3.708527004053e-05 -1.678958662454e-04 0.0 
2.087066424446e-04 7.180846109838e-03 0.0 
1.200344467549e-03 5.650373363030e-04 0.0 
1.871898250413e-03 1.501002683225e-03 0.0 
2.221060394600e-03 1.947996594873e-03 0.0 
7.013677675672e-04 9.393345710247e-03 0.0 
1.562295845553e-03 3.449043031247e-04 0.0 
1.030798538675e-03 1.474085863136e-03 0.0 
5.819958143267e-05 -2.970201999533e-04 0.0 
1.038699439174e-04 -3.724456907993e-04 0.0 
1.418405360277e-03 6.961663101237e-04 0.0 
8.196322441629e-04 9.330284540419e-05 0.0 
1.759764144949e-04 -3.237562534346e-04 0.0 
1.737674583636e-04 5.438702756728e-03 0.0 
3.921270952857e-05 -2.828284470187e-06 0.0 
1.337736800191e-03 5.577334073051e-04 0.0 
1.144663438956e-03 4.792264451024e-04 0.0 
2.202128315463e-05 -9.206474814286e-05 0.0 
-1.479207723996e-04 1.657030639415e-04 0.0 
-1.840824017098e-04 1.947663084736e-03 0.0 
2.840254395458e-04 1.061498466022e-03 0.0 
1.766852745462e-03 7.151121689599e-03 0.0 
1.640841434282e-03 4.128628251662e-04 0.0 
3.023985889771e-04 1.749355131442e-03 0.0 
3.393740812853e-04 6.375890222795e-05 0.0 
1.146610575498e-04 -3.439671384004e-04 0.0 
1.247735485679e-04 -3.701569839662e-04 0.0 
-2.281310936138e-04 1.263126827760e-03 0.0 
2.884404645377e-04 4.989866959060e-03 0.0 
1.007131564609e-04 -2.782228188915e-04 0.0 
7.237199798708e-04 1.544084022172e-03 0.0 
5.753235964328e-05 -3.333473132311e-04 0.0 
5.863412405144e-04 1.004228419587e-04 0.0 
1.074085183220e-03 7.768165483257e-03 0.0 
4.927233932753e-04 1.452041365584e-04 0.0 
1.439236873076e-03 4.444053604004e-04 0.0 
1.943782670114e-03 6.952519583643e-03 0.0 
1.994617746506e-04 1.560628236241e-05 0.0 
5.614364096687e-04 1.119859348495e-03 0.0 
4.513017458487e-05 1.261884985191e-03 0.0 
-2.417995959597e-04 8.090387598708e-04 0.0 
7.067420175471e-04 1.919914058184e-03 0.0 
7.064482593469e-04 3.585429606759e-04 0.0 
5.848235863219e-04 9.070374393030e-05 0.0 
1.277537687099e-03 3.781111518900e-04 0.0 
2.192082920368e-05 9.535806067047e-07 0.0 
2.213749237866e-03 2.089627143860e-03 0.0 
-2.459364680785e-04 2.315345787921e-04 0.0 
-6.319246577501e-06 3.735223235937e-04 0.0 
1.644278502669e-03 1.385235010543e-03 0.0 
1.649913237136e-03 6.638203783144e-03 0.0 
3.708785427303e-05 -1.198537876086e-05 0.0 
1.149251266873e-03 3.537723804721e-04 0.0 
7.704212975372e-05 1.529505295551e-06 0.0 
2.565212379581e-04 3.992643766572e-03 0.0 
4.379726907744e-04 1.172386308143e-04 0.0 
2.435534924595e-04 1.086162234150e-05 0.0 
2.606431631306e-04 1.477590212798e-05 0.0 
7.359138351847e-05 -2.696794115060e-04 0.0 
3.430059153240e-05 1.017778037327e-06 0.0 
1.352885606971e-03 8.686650396486e-03 0.0 
1.891509328697e-04 2.040155319481e-03 0.0 
1.372337961667e-04 -3.665721150255e-04 0.0 
1.208670513030e-04 2.838181731946e-03 0.0 
2.625897205234e-04 5.391289132107e-03 0.0 
1.022611756249e-05 -3.438964664435e-04 0.0 
2.148652633329e-04 -2.014074971892e-04 0.0 
2.056922905491e-03 1.663563152156e-03 0.0 
2.592505202150e-04 1.036321546557e-03 0.0 
9.521584767815e-05 1.948100966180e-03 0.0 
5.517055299715e-04 1.384398400478e-04 0.0 
5.209609346694e-04 7.100154346061e-03 0.0 
1.061945556492e-04 -3.758759309268e-04 0.0 
-4.703124580494e-05 3.409024060713e-05 0.0 
1.098158636328e-04 -3.741225880650e-04 0.0 
1.561110696019e-04 -3.706265331659e-04 0.0 
-2.717939244035e-04 2.907344244238e-04 0.0 
1.026773877002e-04 -2.103337666371e-04 0.0 
4.672537164992e-05 -1.169326006830e-05 0.0 
1.201220546977e-03 1.417417185995e-03 0.0 
2.095197215750e-03 6.221152031434e-03 0.0 
1.457787306802e-04 -2.457468215805e-04 0.0 
2.067067163977e-04 6.035723150680e-07 0.0 
4.340660518625e-04 4.013587220624e-05 0.0 
6.079774397354e-04 1.871355568611e-04 0.0 
1.086020038802e-03 5.366767031339e-04 0.0 
1.673872748493e-03 1.245812154553e-03 0.0 
1.358501194061e-04 -3.723778148177e-04 0.0 
1.437555045936e-05 -1.576642276170e-04 0.0 
6.569150946179e-05 -1.069712192200e-05 0.0 
2.031294912619e-05 -3.426562358092e-04 0.0 
4.479526951883e-06 -3.392254952820e-04 0.0 
-1.720037199647e-04 3.642759073118e-04 0.0 
1.195288086696e-04 -3.731667162093e-04 0.0 
1.485219686790e-04 1.211240695289e-05 0.0 
7.182114833944e-04 4.608271998026e-04 0.0 
2.698338130899e-04 1.747937799519e-03 0.0 
4.990443219085e-04 1.625860038484e-04 0.0 
5.226583110369e-04 4.287356897091e-05 0.0 
4.247786596462e-04 6.544059711968e-03 0.0 
6.806339231039e-05 2.022575261642e-04 0.0 
3.026720996119e-04 -2.952946727131e-04 0.0 
8.669668160935e-04 9.735669257628e-03 0.0 
1.548942831059e-04 -3.352434267126e-04 0.0 
8.935587948977e-05 -3.658614202694e-04 0.0 
2.287600867694e-05 -2.263922630711e-07 0.0 
1.845373421355e-03 8.077278182748e-03 0.0 
5.956454273806e-05 -3.430285411363e-04 0.0 
7.212003167217e-05 -2.153351469182e-04 0.0 
8.443173455359e-04 5.849570479921e-04 0.0 
4.381035250822e-04 1.844061566518e-03 0.0 
5.384770414553e-04 8.507612388278e-04 0.0 
4.391307480378e-05 -2.800912816138e-04 0.0 
-2.131495577459e-05 -2.552768510056e-05 0.0 
1.032792933711e-04 9.581470581995e-07 0.0 
1.505688505256e-05 4.904412099172e-04 0.0 
5.416579293302e-06 -1.097194087509e-06 0.0 
6.350750977283e-05 8.808728011944e-03 0.0 
3.964144102923e-04 4.509533002138e-05 0.0 
7.039178839759e-05 -3.418437323046e-04 0.0 
6.751903090918e-04 1.564452889243e-03 0.0 
9.820146941038e-05 -3.700766448137e-04 0.0 
1.879389789157e-04 2.178286731007e-05 0.0 
7.096490124902e-04 1.090510661232e-03 0.0 
-1.068840541010e-04 5.496111442561e-05 0.0 
1.307364740729e-03 5.053570137702e-04 0.0 
2.511707292644e-04 4.467631041794e-03 0.0 
1.690769838143e-04 9.894044419109e-04 0.0 
7.421450807361e-05 1.750676028574e-05 0.0 
1.022394596561e-04 5.839830690696e-03 0.0 
7.000824618684e-04 5.057836887555e-04 0.0 
9.035465866062e-04 1.503490857090e-03 0.0 
2.061401050117e-04 5.132912167694e-03 0.0 
1.102865698339e-03 7.908405634423e-04 0.0 
7.960561573279e-05 -2.504670956785e-04 0.0 
4.512936205279e-04 9.420748037632e-03 0.0 
8.606970186594e-04 2.871979192977e-04 0.0 
1.568716009502e-05 1.045123477366e-03 0.0 
1.995623932210e-05 -3.573256226582e-04 0.0 
1.233066615323e-04 9.402963989241e-03 0.0 
4.894934186414e-06 -3.665876048406e-06 0.0 
1.068848509339e-04 -3.429753104521e-04 0.0 
5.263875679044e-04 7.121126327747e-05 0.0 
1.107330930823e-03 1.492134417463e-03 0.0 
1.968139418271e-04 1.286482397374e-03 0.0 
6.961850205694e-05 -3.355178900402e-04 0.0 
-5.773390196619e-05 2.336958454883e-04 0.0 
7.859293382985e-06 -1.571226267730e-04 0.0 
1.012839789339e-04 3.466002884972e-03 0.0 
-1.191897212756e-04 -1.305276172195e-04 0.0 
4.199923183199e-04 8.782371185598e-04 0.0 
1.838215254197e-04 6.031179342070e-03 0.0 
2.068214856639e-04 -3.408591439068e-04 0.0 
3.426024712652e-04 6.753481657543e-03 0.0 
6.642516358577e-04 2.278813425786e-04 0.0 
1.468786994150e-05 -1.432796062170e-04 0.0 
-2.401307657919e-04 3.188104357005e-04 0.0 
9.291211061800e-05 -2.683331079816e-04 0.0 
1.032838787707e-04 -1.866739330385e-04 0.0 
6.828576558518e-06 -1.297099134687e-04 0.0 
7.329290172684e-04 1.855583235632e-04 0.0 
5.352042953925e-05 -1.898817442901e-04 0.0 
6.849314158083e-05 -1.730230231257e-04 0.0 
1.096625403029e-04 -3.695307918226e-04 0.0 
1.333997005693e-04 -2.421926748787e-06 0.0 
1.455355473667e-03 7.675461166193e-04 0.0 
4.115969869194e-05 2.174227956608e-04 0.0 
2.628039742680e-05 9.894218098126e-04 0.0 
8.799520197258e-06 -3.136938290007e-06 0.0 
1.205478251019e-04 8.861627475506e-03 0.0 
1.380839289110e-04 6.247776407269e-03 0.0 
7.381704536599e-05 -1.936863060612e-04 0.0 
8.230761562162e-05 -1.844092189328e-04 0.0 
5.020668425082e-05 -1.763271486617e-04 0.0 
6.659973437376e-04 9.175055561413e-05 0.0 
1.745079119154e-04 -3.446534159215e-04 0.0 
1.250600632533e-03 6.613953109127e-04 0.0 
2.214612163954e-04 7.743105430472e-03 0.0 
5.049693323301e-04 1.157939966684e-03 0.0 
6.272038825908e-04 7.838346003877e-05 0.0 
4.012858445821e-04 6.951180122441e-03 0.0 
1.474015662232e-03 1.158231654278e-03 0.0 
7.504872394348e-04 2.035277220185e-04 0.0 
5.716068453503e-04 1.600153443904e-04 0.0 
-1.977298145120e-04 2.768159309944e-04 0.0 
1.487815570522e-03 1.103747796819e-03 0.0 
1.265717216336e-03 8.863912322932e-04 0.0 
1.036382372899e-04 -3.678355621925e-04 0.0 
8.265318547976e-05 -2.051819557226e-04 0.0 
-1.949407010420e-04 2.207274918189e-04 0.0 
1.241963773263e-03 9.606781846337e-04 0.0 
2.025663071863e-04 1.266102020054e-02 0.0 
2.303839707962e-04 1.232155599857e-02 0.0 
3.181923437082e-04 1.266660356752e-02 0.0 
3.434423468152e-04 1.233039660440e-02 0.0 
4.244068150527e-04 1.267310899956e-02 0.0 
4.545041617927e-04 1.233577989767e-02 0.0 
5.312604165865e-04 1.267658233114e-02 0.0 
5.623923191175e-04 1.233904414563e-02 0.0 
6.349753551093e-04 1.267734656978e-02 0.0 
6.654720765334e-04 1.233930472148e-02 0.0 
7.324566606545e-04 1.267376105537e-02 0.0 
7.616336239913e-04 1.233453474757e-02 0.0 
8.208787759269e-04 1.266292313267e-02 0.0 
8.487929274735e-04 1.232114105354e-02 0.0 
8.978247827593e-04 1.264085025496e-02 0.0 
8.357103685076e-04 9.521146261246e-03 0.0 
9.249537735697e-04 1.229512386721e-02 0.0 
9.821022928110e-04 9.708695801552e-03 0.0 
9.607955114958e-04 1.260336968146e-02 0.0 
9.878988606531e-04 1.225171903482e-02 0.0 
1.006499956784e-03 1.254489904684e-02 0.0 
1.035006692627e-03 1.218410302284e-02 0.0 
1.031612971661e-03 1.245728782958e-02 0.0 
1.064463453418e-03 1.208267318303e-02 0.0 
4.504405645983e-04 9.663595867627e-03 0.0 
1.033743322419e-03 1.232979481266e-02 0.0 
1.075330763232e-03 1.193536009292e-02 0.0 
1.011135003357e-03 1.214921565675e-02 0.0 
1.067663555099e-03 1.172746171077e-02 0.0 
9.626290246575e-04 1.190075022909e-02 0.0 
1.043672349606e-03 1.144046723625e-02 0.0 
8.886119038697e-04 1.155994874824e-02 0.0 
1.008960422110e-03 1.104289345301e-02 0.0 
9.767419623090e-04 1.049403231069e-02 0.0 
7.963777371315e-04 1.109454628534e-02 0.0 
1.065587302646e-03 8.848939619239e-03 0.0 
7.053409143917e-04 1.044909882476e-02 0.0 
6.803174987370e-04 8.991389225620e-03 0.0 
2.594540099548e-05 1.248760939375e-02 0.0 
1.287103956655e-04 1.248807911820e-02 0.0 
7.040259121514e-05 1.214267254605e-02 0.0 
8.425320544584e-05 1.283301596590e-02 0.0 
6.489754425085e-04 8.376368902956e-03 0.0 
1.609128309907e-04 1.129848494748e-02 0.0 
2.082381350111e-04 1.164218906098e-02 0.0 
2.796200107625e-04 1.130813311304e-02 0.0 
3.270158496545e-04 1.165129308750e-02 0.0 
3.938695098951e-04 1.131608552712e-02 0.0 
4.403933537958e-04 1.165785994212e-02 0.0 
5.043653612915e-04 1.132207575605e-02 0.0 
5.496080718194e-04 1.166245752609e-02 0.0 
6.112173945849e-04 1.132584539584e-02 0.0 
6.544983633071e-04 1.166439016708e-02 0.0 
7.140453710177e-04 1.132598031675e-02 0.0 
7.541960475808e-04 1.166166856335e-02 0.0 
8.121449004203e-04 1.131977263509e-02 0.0 
1.453057704989e-03 9.776805092519e-03 0.0 
8.474966283774e-04 1.165085674017e-02 0.0 
9.047210446428e-04 1.130361210863e-02 0.0 
1.286859038508e-03 1.000108308595e-02 0.0 
9.331463345493e-04 1.162817003424e-02 0.0 
9.910011507336e-04 1.127323070023e-02 0.0 
1.496918258807e-03 9.807899298886e-03 0.0 
1.009911938911e-03 1.158853388655e-02 0.0 
1.070487923952e-03 1.122248574089e-02 0.0 
1.076981581536e-03 1.152487486516e-02 0.0 
1.143353933990e-03 1.114312508592e-02 0.0 
1.134229526837e-03 1.142773859706e-02 0.0 
1.589864485553e-03 9.315827402306e-03 0.0 
1.210562670083e-03 1.102449613498e-02 0.0 
1.182384037477e-03 1.128499600121e-02 0.0 
1.223726117649e-03 1.108168665668e-02 0.0 
1.274250840152e-03 1.085307651095e-02 0.0 
1.263755035647e-03 1.079765712430e-02 0.0 
1.338774273248e-03 1.061216506307e-02 0.0 
1.309115921426e-03 1.040250389125e-02 0.0 
1.408850089226e-03 1.027674907454e-02 0.0 
1.423665819072e-03 9.540105395738e-03 0.0 
2.044774102265e-05 1.145972066467e-02 0.0 
1.037050952821e-04 1.146390012686e-02 0.0 
6.490493124231e-05 1.180166187018e-02 0.0 
5.924790506249e-05 1.112195892135e-02 0.0 
1.390310121292e-03 9.292651597266e-03 0.0 
1.549333191753e-04 1.061914551235e-02 0.0 
1.936358089534e-04 1.028263940658e-02 0.0 
2.709971965201e-04 1.062792289377e-02 0.0 
3.097717215377e-04 1.029154612678e-02 0.0 
3.852481960206e-04 1.063654878566e-02 0.0 
4.244507716259e-04 1.029991053721e-02 0.0 
4.970440929961e-04 1.064366309259e-02 0.0 
5.373350861100e-04 1.030670405535e-02 0.0 
6.062656771709e-04 1.064850458856e-02 0.0 
6.483935452114e-04 1.031071694700e-02 0.0 
7.128922703360e-04 1.064964790395e-02 0.0 
7.578837323102e-04 1.031012447357e-02 0.0 
1.660672336683e-03 9.508505709875e-03 0.0 
8.169856858314e-04 1.064456095811e-02 0.0 
1.653502824710e-03 9.450027655408e-03 0.0 
8.655855406944e-04 1.030164072861e-02 0.0 
9.179691715487e-04 1.062960777404e-02 0.0 
9.718931635746e-04 1.028153871487e-02 0.0 
1.016499852853e-03 1.060060371544e-02 0.0 
1.077596673082e-03 1.024451078507e-02 0.0 
1.112673956003e-03 1.055108962419e-02 0.0 
1.183224550333e-03 1.018277444963e-02 0.0 
1.582188983566e-03 9.773410904677e-03 0.0 
1.207410870736e-03 1.047242078710e-02 0.0 
1.290460266673e-03 1.008665063654e-02 0.0 
1.302736473173e-03 1.035411247328e-02 0.0 
1.401868820746e-03 9.943954660963e-03 0.0 
1.520906588737e-03 9.738506890082e-03 0.0 
1.401561820331e-03 1.018241883240e-02 0.0 
1.508643764157e-03 9.939642975017e-03 0.0 
1.767902855140e-03 9.168616184348e-03 0.0 
1.689419502023e-03 9.433521379150e-03 0.0 
1.890336807579e-05 1.044281384332e-02 0.0 
9.618121051990e-05 1.044564939052e-02 0.0 
5.738104648006e-05 1.010541561370e-02 0.0 
5.770353211563e-05 1.078304762014e-02 0.0 
1.703882945063e-03 9.342254956646e-03 0.0 

VECTORS element_materi_displacement float
0.0 0.0 0.0 
0.0 0.0 0.0 
0.0 0.0 0.0 
0.0 0.0 0.0 
0.0 0.0 0.0 
0.0 0.0 0.0 
0.0 0.0 0.0 
0.0 0.0 0.0 
0.0 0.0 0.0 
0.0 0.0 0.0 
0.0 0.0 0.0 
0.0 0.0 0.0 
0.0 0.0 0.0 
0.0 0.0 0.0 
0.0 0.0 0.0 
0.0 0.0 0.0 
0.0 0.0 0.0 
0.0 0.0 0.0 
0.0 0.0 0.0 
0.0 0.0 0.0 
0.0 0.0 0.0 
0.0 0.0 0.0 
0.0 0.0 0.0 
0.0 0.0 0.0 
0.0 0.0 0.0 
0.0 0.0 0.0 
0.0 0.0 0.0 
0.0 0.0 0.0 
0.0 0.0 0.0 
0.0 0.0 0.0 
0.0 0.0 0.0 
0.0 0.0 0.0 
0.0 0.0 0.0 
0.0 0.0 0.0 
0.0 0.0 0.0 
0.0 0.0 0.0 
0.0 0.0 0.0 
0.0 0.0 0.0 
0.0 0.0 0.0 
0.0 0.0 0.0 
0.0 0.0 0.0 
0.0 0.0 0.0 
0.0 0.0 0.0 
0.0 0.0 0.0 
0.0 0.0 0.0 
0.0 0.0 0.0 
0.0 0.0 0.0 
0.0 0.0 0.0 
0.0 0.0 0.0 
0.0 0.0 0.0 
0.0 0.0 0.0 
0.0 0.0 0.0 
0.0 0.0 0.0 
0.0 0.0 0.0 
0.0 0.0 0.0 
0.0 0.0 0.0 
0.0 0.0 0.0 
0.0 0.0 0.0 
0.0 0.0 0.0 
0.0 0.0 0.0 
0.0 0.0 0.0 
0.0 0.0 0.0 
0.0 0.0 0.0 
0.0 0.0 0.0 
0.0 0.0 0.0 
0.0 0.0 0.0 
0.0 0.0 0.0 
0.0 0.0 0.0 
0.0 0.0 0.0 
0.0 0.0 0.0 
0.0 0.0 0.0 
0.0 0.0 0.0 
0.0 0.0 0.0 
0.0 0.0 0.0 
0.0 0.0 0.0 
0.0 0.0 0.0 
0.0 0.0 0.0 
0.0 0.0 0.0 
0.0 0.0 0.0 
0.0 0.0 0.0 
0.0 0.0 0.0 
0.0 0.0 0.0 
0.0 0.0 0.0 
0.0 0.0 0.0 
0.0 0.0 0.0 
0.0 0.0 0.0 
0.0 0.0 0.0 
0.0 0.0 0.0 
0.0 0.0 0.0 
0.0 0.0 0.0 
0.0 0.0 0.0 
0.0 0.0 0.0 
0.0 0.0 0.0 
0.0 0.0 0.0 
0.0 0.0 0.0 
0.0 0.0 0.0 
0.0 0.0 0.0 
0.0 0.0 0.0 
0.0 0.0 0.0 
0.0 0.0 0.0 
0.0 0.0 0.0 
0.0 0.0 0.0 
0.0 0.0 0.0 
0.0 0.0 0.0 
0.0 0.0 0.0 
0.0 0.0 0.0 
0.0 0.0 0.0 
0.0 0.0 0.0 
0.0 0.0 0.0 
0.0 0.0 0.0 
0.0 0.0 0.0 
0.0 0.0 0.0 
0.0 0.0 0.0 
0.0 0.0 0.0 
0.0 0.0 0.0 
0.0 0.0 0.0 
0.0 0.0 0.0 
0.0 0.0 0.0 
0.0 0.0 0.0 
0.0 0.0 0.0 
0.0 0.0 0.0 
0.0 0.0 0.0 
0.0 0.0 0.0 
0.0 0.0 0.0 
0.0 0.0 0.0 
0.0 0.0 0.0 
0.0 0.0 0.0 
0.0 0.0 0.0 
0.0 0.0 0.0 
0.0 0.0 0.0 
0.0 0.0 0.0 
0.0 0.0 0.0 
0.0 0.0 0.0 
0.0 0.0 0.0 
0.0 0.0 0.0 
0.0 0.0 0.0 
0.0 0.0 0.0 
0.0 0.0 0.0 
0.0 0.0 0.0 
0.0 0.0 0.0 
0.0 0.0 0.0 
0.0 0.0 0.0 
0.0 0.0 0.0 
0.0 0.0 0.0 
0.0 0.0 0.0 
0.0 0.0 0.0 
0.0 0.0 0.0 
0.0 0.0 0.0 
0.0 0.0 0.0 
0.0 0.0 0.0 
0.0 0.0 0.0 
0.0 0.0 0.0 
0.0 0.0 0.0 
0.0 0.0 0.0 
0.0 0.0 0.0 
0.0 0.0 0.0 
0.0 0.0 0.0 
0.0 0.0 0.0 
0.0 0.0 0.0 
0.0 0.0 0.0 
0.0 0.0 0.0 
0.0 0.0 0.0 
0.0 0.0 0.0 
0.0 0.0 0.0 
0.0 0.0 0.0 
0.0 0.0 0.0 
0.0 0.0 0.0 
0.0 0.0 0.0 
0.0 0.0 0.0 
0.0 0.0 0.0 
0.0 0.0 0.0 
0.0 0.0 0.0 
0.0 0.0 0.0 
0.0 0.0 0.0 
0.0 0.0 0.0 
0.0 0.0 0.0 
0.0 0.0 0.0 
0.0 0.0 0.0 
0.0 0.0 0.0 
0.0 0.0 0.0 
0.0 0.0 0.0 
0.0 0.0 0.0 
0.0 0.0 0.0 
0.0 0.0 0.0 
0.0 0.0 0.0 
0.0 0.0 0.0 
0.0 0.0 0.0 
0.0 0.0 0.0 
0.0 0.0 0.0 
0.0 0.0 0.0 
0.0 0.0 0.0 
0.0 0.0 0.0 
0.0 0.0 0.0 
0.0 0.0 0.0 
0.0 0.0 0.0 
0.0 0.0 0.0 
0.0 0.0 0.0 
0.0 0.0 0.0 
0.0 0.0 0.0 
0.0 0.0 0.0 
0.0 0.0 0.0 
0.0 0.0 0.0 
0.0 0.0 0.0 
0.0 0.0 0.0 
0.0 0.0 0.0 
0.0 0.0 0.0 
0.0 0.0 0.0 
0.0 0.0 0.0 
0.0 0.0 0.0 
0.0 0.0 0.0 
0.0 0.0 0.0 
0.0 0.0 0.0 
0.0 0.0 0.0 
0.0 0.0 0.0 
0.0 0.0 0.0 
0.0 0.0 0.0 
0.0 0.0 0.0 
0.0 0.0 0.0 
0.0 0.0 0.0 
0.0 0.0 0.0 
0.0 0.0 0.0 
0.0 0.0 0.0 
0.0 0.0 0.0 
0.0 0.0 0.0 
0.0 0.0 0.0 
0.0 0.0 0.0 
0.0 0.0 0.0 
0.0 0.0 0.0 
0.0 0.0 0.0 
0.0 0.0 0.0 
0.0 0.0 0.0 
0.0 0.0 0.0 
0.0 0.0 0.0 
0.0 0.0 0.0 
0.0 0.0 0.0 
0.0 0.0 0.0 
0.0 0.0 0.0 
0.0 0.0 0.0 
0.0 0.0 0.0 
0.0 0.0 0.0 
0.0 0.0 0.0 
0.0 0.0 0.0 
0.0 0.0 0.0 
0.0 0.0 0.0 
0.0 0.0 0.0 
0.0 0.0 0.0 
0.0 0.0 0.0 
0.0 0.0 0.0 
0.0 0.0 0.0 
0.0 0.0 0.0 
0.0 0.0 0.0 
0.0 0.0 0.0 
0.0 0.0 0.0 
0.0 0.0 0.0 
0.0 0.0 0.0 
0.0 0.0 0.0 
0.0 0.0 0.0 
0.0 0.0 0.0 
0.0 0.0 0.0 
0.0 0.0 0.0 
0.0 0.0 0.0 
0.0 0.0 0.0 
0.0 0.0 0.0 
0.0 0.0 0.0 
0.0 0.0 0.0 
0.0 0.0 0.0 
0.0 0.0 0.0 
0.0 0.0 0.0 
0.0 0.0 0.0 
0.0 0.0 0.0 
0.0 0.0 0.0 
0.0 0.0 0.0 
0.0 0.0 0.0 
0.0 0.0 0.0 
0.0 0.0 0.0 
0.0 0.0 0.0 
0.0 0.0 0.0 
0.0 0.0 0.0 
0.0 0.0 0.0 
0.0 0.0 0.0 
0.0 0.0 0.0 
0.0 0.0 0.0 
0.0 0.0 0.0 
0.0 0.0 0.0 
0.0 0.0 0.0 
0.0 0.0 0.0 
0.0 0.0 0.0 
0.0 0.0 0.0 
0.0 0.0 0.0 
0.0 0.0 0.0 
0.0 0.0 0.0 
0.0 0.0 0.0 
0.0 0.0 0.0 
0.0 0.0 0.0 
0.0 0.0 0.0 
0.0 0.0 0.0 
0.0 0.0 0.0 
0.0 0.0 0.0 
0.0 0.0 0.0 
0.0 0.0 0.0 
0.0 0.0 0.0 
0.0 0.0 0.0 
0.0 0.0 0.0 
0.0 0.0 0.0 
0.0 0.0 0.0 
0.0 0.0 0.0 
0.0 0.0 0.0 
0.0 0.0 0.0 
0.0 0.0 0.0 
0.0 0.0 0.0 
0.0 0.0 0.0 
0.0 0.0 0.0 
0.0 0.0 0.0 
0.0 0.0 0.0 
0.0 0.0 0.0 
0.0 0.0 0.0 
0.0 0.0 0.0 
0.0 0.0 0.0 
0.0 0.0 0.0 
0.0 0.0 0.0 
0.0 0.0 0.0 
0.0 0.0 0.0 
0.0 0.0 0.0 
0.0 0.0 0.0 
0.0 0.0 0.0 
0.0 0.0 0.0 
0.0 0.0 0.0 
0.0 0.0 0.0 
0.0 0.0 0.0 
0.0 0.0 0.0 
0.0 0.0 0.0 
0.0 0.0 0.0 
0.0 0.0 0.0 
0.0 0.0 0.0 
0.0 0.0 0.0 
0.0 0.0 0.0 
0.0 0.0 0.0 
0.0 0.0 0.0 
0.0 0.0 0.0 
0.0 0.0 0.0 
0.0 0.0 0.0 
0.0 0.0 0.0 
0.0 0.0 0.0 
0.0 0.0 0.0 
0.0 0.0 0.0 
0.0 0.0 0.0 
0.0 0.0 0.0 
0.0 0.0 0.0 
0.0 0.0 0.0 
0.0 0.0 0.0 
0.0 0.0 0.0 
0.0 0.0 0.0 
0.0 0.0 0.0 
0.0 0.0 0.0 
0.0 0.0 0.0 
0.0 0.0 0.0 
0.0 0.0 0.0 
0.0 0.0 0.0 
0.0 0.0 0.0 
0.0 0.0 0.0 
0.0 0.0 0.0 
0.0 0.0 0.0 
0.0 0.0 0.0 
0.0 0.0 0.0 
0.0 0.0 0.0 
0.0 0.0 0.0 
0.0 0.0 0.0 
0.0 0.0 0.0 
0.0 0.0 0.0 
0.0 0.0 0.0 
0.0 0.0 0.0 
0.0 0.0 0.0 
0.0 0.0 0.0 
0.0 0.0 0.0 
0.0 0.0 0.0 
0.0 0.0 0.0 
0.0 0.0 0.0 
0.0 0.0 0.0 
0.0 0.0 0.0 
0.0 0.0 0.0 
0.0 0.0 0.0 
0.0 0.0 0.0 
0.0 0.0 0.0 
0.0 0.0 0.0 
0.0 0.0 0.0 
0.0 0.0 0.0 
0.0 0.0 0.0 
0.0 0.0 0.0 
0.0 0.0 0.0 
0.0 0.0 0.0 
0.0 0.0 0.0 
0.0 0.0 0.0 
0.0 0.0 0.0 
0.0 0.0 0.0 
0.0 0.0 0.0 
0.0 0.0 0.0 
0.0 0.0 0.0 
0.0 0.0 0.0 
0.0 0.0 0.0 
0.0 0.0 0.0 
0.0 0.0 0.0 
0.0 0.0 0.0 
0.0 0.0 0.0 
0.0 0.0 0.0 
0.0 0.0 0.0 
0.0 0.0 0.0 
0.0 0.0 0.0 
0.0 0.0 0.0 
0.0 0.0 0.0 
0.0 0.0 0.0 
0.0 0.0 0.0 
0.0 0.0 0.0 
0.0 0.0 0.0 
0.0 0.0 0.0 
0.0 0.0 0.0 
0.0 0.0 0.0 
0.0 0.0 0.0 
0.0 0.0 0.0 
0.0 0.0 0.0 
0.0 0.0 0.0 
0.0 0.0 0.0 
0.0 0.0 0.0 
0.0 0.0 0.0 
0.0 0.0 0.0 
0.0 0.0 0.0 
0.0 0.0 0.0 
0.0 0.0 0.0 
0.0 0.0 0.0 
0.0 0.0 0.0 
0.0 0.0 0.0 
0.0 0.0 0.0 
0.0 0.0 0.0 
0.0 0.0 0.0 
0.0 0.0 0.0 
0.0 0.0 0.0 
0.0 0.0 0.0 
0.0 0.0 0.0 
0.0 0.0 0.0 
0.0 0.0 0.0 
0.0 0.0 0.0 
0.0 0.0 0.0 
0.0 0.0 0.0 
0.0 0.0 0.0 
0.0 0.0 0.0 
0.0 0.0 0.0 
0.0 0.0 0.0 
0.0 0.0 0.0 
0.0 0.0 0.0 
0.0 0.0 0.0 
0.0 0.0 0.0 
0.0 0.0 0.0 
0.0 0.0 0.0 
0.0 0.0 0.0 
0.0 0.0 0.0 
0.0 0.0 0.0 
0.0 0.0 0.0 
0.0 0.0 0.0 
0.0 0.0 0.0 
0.0 0.0 0.0 
0.0 0.0 0.0 
0.0 0.0 0.0 
0.0 0.0 0.0 
0.0 0.0 0.0 
0.0 0.0 0.0 
0.0 0.0 0.0 
0.0 0.0 0.0 
0.0 0.0 0.0 
0.0 0.0 0.0 
0.0 0.0 0.0 
0.0 0.0 0.0 
0.0 0.0 0.0 
0.0 0.0 0.0 
0.0 0.0 0.0 
0.0 0.0 0.0 
0.0 0.0 0.0 
0.0 0.0 0.0 
0.0 0.0 0.0 
0.0 0.0 0.0 
0.0 0.0 0.0 
0.0 0.0 0.0 
0.0 0.0 0.0 
0.0 0.0 0.0 
0.0 0.0 0.0 
0.0 0.0 0.0 
0.0 0.0 0.0 
0.0 0.0 0.0 
0.0 0.0 0.0 
0.0 0.0 0.0 
0.0 0.0 0.0 
0.0 0.0 0.0 
0.0 0.0 0.0 
0.0 0.0 0.0 
0.0 0.0 0.0 
0.0 0.0 0.0 
0.0 0.0 0.0 
0.0 0.0 0.0 
0.0 0.0 0.0 
0.0 0.0 0.0 
0.0 0.0 0.0 
0.0 0.0 0.0 
0.0 0.0 0.0 
0.0 0.0 0.0 
0.0 0.0 0.0 
0.0 0.0 0.0 
0.0 0.0 0.0 
0.0 0.0 0.0 
0.0 0.0 0.0 
0.0 0.0 0.0 
0.0 0.0 0.0 
0.0 0.0 0.0 
0.0 0.0 0.0 
0.0 0.0 0.0 
0.0 0.0 0.0 
0.0 0.0 0.0 
0.0 0.0 0.0 
0.0 0.0 0.0 
0.0 0.0 0.0 
0.0 0.0 0.0 
0.0 0.0 0.0 
0.0 0.0 0.0 
0.0 0.0 0.0 
0.0 0.0 0.0 
0.0 0.0 0.0 
0.0 0.0 0.0 
0.0 0.0 0.0 
0.0 0.0 0.0 
0.0 0.0 0.0 
0.0 0.0 0.0 
0.0 0.0 0.0 
0.0 0.0 0.0 
0.0 0.0 0.0 
0.0 0.0 0.0 
0.0 0.0 0.0 
0.0 0.0 0.0 
0.0 0.0 0.0 
0.0 0.0 0.0 
0.0 0.0 0.0 
0.0 0.0 0.0 
0.0 0.0 0.0 
0.0 0.0 0.0 
0.0 0.0 0.0 
0.0 0.0 0.0 
0.0 0.0 0.0 
0.0 0.0 0.0 
0.0 0.0 0.0 
0.0 0.0 0.0 
0.0 0.0 0.0 
0.0 0.0 0.0 
0.0 0.0 0.0 
0.0 0.0 0.0 
0.0 0.0 0.0 
0.0 0.0 0.0 
0.0 0.0 0.0 
0.0 0.0 0.0 
0.0 0.0 0.0 
0.0 0.0 0.0 
0.0 0.0 0.0 
0.0 0.0 0.0 
0.0 0.0 0.0 
0.0 0.0 0.0 
0.0 0.0 0.0 
0.0 0.0 0.0 
0.0 0.0 0.0 
0.0 0.0 0.0 
0.0 0.0 0.0 
0.0 0.0 0.0 
0.0 0.0 0.0 
0.0 0.0 0.0 
0.0 0.0 0.0 
0.0 0.0 0.0 
0.0 0.0 0.0 
0.0 0.0 0.0 
0.0 0.0 0.0 
0.0 0.0 0.0 
0.0 0.0 0.0 
0.0 0.0 0.0 
0.0 0.0 0.0 
0.0 0.0 0.0 
0.0 0.0 0.0 
0.0 0.0 0.0 
0.0 0.0 0.0 
0.0 0.0 0.0 
0.0 0.0 0.0 
0.0 0.0 0.0 
0.0 0.0 0.0 
0.0 0.0 0.0 
0.0 0.0 0.0 
0.0 0.0 0.0 
0.0 0.0 0.0 
0.0 0.0 0.0 
0.0 0.0 0.0 
0.0 0.0 0.0 
0.0 0.0 0.0 
0.0 0.0 0.0 
0.0 0.0 0.0 
0.0 0.0 0.0 
0.0 0.0 0.0 
0.0 0.0 0.0 
0.0 0.0 0.0 
0.0 0.0 0.0 
0.0 0.0 0.0 
0.0 0.0 0.0 
0.0 0.0 0.0 
0.0 0.0 0.0 
0.0 0.0 0.0 
0.0 0.0 0.0 
0.0 0.0 0.0 
0.0 0.0 0.0 
0.0 0.0 0.0 
0.0 0.0 0.0 
0.0 0.0 0.0 
0.0 0.0 0.0 
0.0 0.0 0.0 
0.0 0.0 0.0 
0.0 0.0 0.0 
0.0 0.0 0.0 
0.0 0.0 0.0 
0.0 0.0 0.0 
0.0 0.0 0.0 
0.0 0.0 0.0 
0.0 0.0 0.0 
0.0 0.0 0.0 
0.0 0.0 0.0 
0.0 0.0 0.0 
0.0 0.0 0.0 
0.0 0.0 0.0 
0.0 0.0 0.0 
0.0 0.0 0.0 
0.0 0.0 0.0 
0.0 0.0 0.0 
0.0 0.0 0.0 
0.0 0.0 0.0 
0.0 0.0 0.0 
0.0 0.0 0.0 
0.0 0.0 0.0 
0.0 0.0 0.0 
0.0 0.0 0.0 
0.0 0.0 0.0 
0.0 0.0 0.0 
0.0 0.0 0.0 
0.0 0.0 0.0 
0.0 0.0 0.0 
0.0 0.0 0.0 
0.0 0.0 0.0 
0.0 0.0 0.0 
0.0 0.0 0.0 
0.0 0.0 0.0 
0.0 0.0 0.0 
0.0 0.0 0.0 
0.0 0.0 0.0 
0.0 0.0 0.0 
0.0 0.0 0.0 
0.0 0.0 0.0 
0.0 0.0 0.0 
0.0 0.0 0.0 
0.0 0.0 0.0 
0.0 0.0 0.0 
0.0 0.0 0.0 
0.0 0.0 0.0 
0.0 0.0 0.0 
0.0 0.0 0.0 
0.0 0.0 0.0 
0.0 0.0 0.0 
0.0 0.0 0.0 
0.0 0.0 0.0 
0.0 0.0 0.0 
0.0 0.0 0.0 
0.0 0.0 0.0 
0.0 0.0 0.0 
0.0 0.0 0.0 
0.0 0.0 0.0 
0.0 0.0 0.0 
0.0 0.0 0.0 
0.0 0.0 0.0 
0.0 0.0 0.0 
0.0 0.0 0.0 
0.0 0.0 0.0 
0.0 0.0 0.0 
0.0 0.0 0.0 
0.0 0.0 0.0 
0.0 0.0 0.0 
0.0 0.0 0.0 
0.0 0.0 0.0 
0.0 0.0 0.0 
0.0 0.0 0.0 
0.0 0.0 0.0 
0.0 0.0 0.0 
0.0 0.0 0.0 
0.0 0.0 0.0 
0.0 0.0 0.0 
0.0 0.0 0.0 
0.0 0.0 0.0 
0.0 0.0 0.0 
0.0 0.0 0.0 
0.0 0.0 0.0 
0.0 0.0 0.0 
0.0 0.0 0.0 
0.0 0.0 0.0 
0.0 0.0 0.0 
0.0 0.0 0.0 
0.0 0.0 0.0 
0.0 0.0 0.0 
0.0 0.0 0.0 
0.0 0.0 0.0 
0.0 0.0 0.0 
0.0 0.0 0.0 
0.0 0.0 0.0 
0.0 0.0 0.0 
0.0 0.0 0.0 
0.0 0.0 0.0 
0.0 0.0 0.0 
0.0 0.0 0.0 
0.0 0.0 0.0 
0.0 0.0 0.0 
0.0 0.0 0.0 
0.0 0.0 0.0 
0.0 0.0 0.0 
0.0 0.0 0.0 
0.0 0.0 0.0 
0.0 0.0 0.0 
0.0 0.0 0.0 
0.0 0.0 0.0 
0.0 0.0 0.0 
0.0 0.0 0.0 
0.0 0.0 0.0 
0.0 0.0 0.0 
0.0 0.0 0.0 
0.0 0.0 0.0 
0.0 0.0 0.0 
0.0 0.0 0.0 
0.0 0.0 0.0 
0.0 0.0 0.0 
0.0 0.0 0.0 
0.0 0.0 0.0 
0.0 0.0 0.0 
0.0 0.0 0.0 
0.0 0.0 0.0 
0.0 0.0 0.0 
0.0 0.0 0.0 
0.0 0.0 0.0 
0.0 0.0 0.0 
0.0 0.0 0.0 
0.0 0.0 0.0 
0.0 0.0 0.0 
0.0 0.0 0.0 
0.0 0.0 0.0 
0.0 0.0 0.0 
0.0 0.0 0.0 
0.0 0.0 0.0 
0.0 0.0 0.0 
0.0 0.0 0.0 
0.0 0.0 0.0 
0.0 0.0 0.0 
0.0 0.0 0.0 
0.0 0.0 0.0 
0.0 0.0 0.0 
0.0 0.0 0.0 
0.0 0.0 0.0 
0.0 0.0 0.0 
0.0 0.0 0.0 
0.0 0.0 0.0 
0.0 0.0 0.0 
0.0 0.0 0.0 
0.0 0.0 0.0 
0.0 0.0 0.0 
0.0 0.0 0.0 
0.0 0.0 0.0 
0.0 0.0 0.0 
0.0 0.0 0.0 
0.0 0.0 0.0 
0.0 0.0 0.0 
0.0 0.0 0.0 
0.0 0.0 0.0 
0.0 0.0 0.0 
0.0 0.0 0.0 
0.0 0.0 0.0 
0.0 0.0 0.0 
0.0 0.0 0.0 
0.0 0.0 0.0 
0.0 0.0 0.0 
0.0 0.0 0.0 
0.0 0.0 0.0 
0.0 0.0 0.0 
0.0 0.0 0.0 
0.0 0.0 0.0 
0.0 0.0 0.0 
0.0 0.0 0.0 
0.0 0.0 0.0 
0.0 0.0 0.0 
0.0 0.0 0.0 
0.0 0.0 0.0 
0.0 0.0 0.0 
0.0 0.0 0.0 
0.0 0.0 0.0 
0.0 0.0 0.0 
0.0 0.0 0.0 
0.0 0.0 0.0 
0.0 0.0 0.0 
0.0 0.0 0.0 
0.0 0.0 0.0 
0.0 0.0 0.0 
0.0 0.0 0.0 
0.0 0.0 0.0 
0.0 0.0 0.0 
0.0 0.0 0.0 
0.0 0.0 0.0 
0.0 0.0 0.0 
0.0 0.0 0.0 
0.0 0.0 0.0 
0.0 0.0 0.0 
0.0 0.0 0.0 
0.0 0.0 0.0 
0.0 0.0 0.0 
0.0 0.0 0.0 
0.0 0.0 0.0 
0.0 0.0 0.0 
0.0 0.0 0.0 
0.0 0.0 0.0 
0.0 0.0 0.0 
0.0 0.0 0.0 
0.0 0.0 0.0 
0.0 0.0 0.0 
0.0 0.0 0.0 
0.0 0.0 0.0 
0.0 0.0 0.0 
0.0 0.0 0.0 
0.0 0.0 0.0 
0.0 0.0 0.0 
0.0 0.0 0.0 
0.0 0.0 0.0 
0.0 0.0 0.0 
0.0 0.0 0.0 
0.0 0.0 0.0 
0.0 0.0 0.0 
0.0 0.0 0.0 
0.0 0.0 0.0 
0.0 0.0 0.0 
0.0 0.0 0.0 
0.0 0.0 0.0 
0.0 0.0 0.0 
0.0 0.0 0.0 
0.0 0.0 0.0 
0.0 0.0 0.0 
0.0 0.0 0.0 
0.0 0.0 0.0 
0.0 0.0 0.0 
0.0 0.0 0.0 
0.0 0.0 0.0 
0.0 0.0 0.0 
0.0 0.0 0.0 
0.0 0.0 0.0 
0.0 0.0 0.0 
0.0 0.0 0.0 
0.0 0.0 0.0 
0.0 0.0 0.0 
0.0 0.0 0.0 
0.0 0.0 0.0 
0.0 0.0 0.0 
0.0 0.0 0.0 
0.0 0.0 0.0 
0.0 0.0 0.0 
0.0 0.0 0.0 
0.0 0.0 0.0 
0.0 0.0 0.0 
0.0 0.0 0.0 
0.0 0.0 0.0 
0.0 0.0 0.0 
0.0 0.0 0.0 
0.0 0.0 0.0 
0.0 0.0 0.0 
0.0 0.0 0.0 
0.0 0.0 0.0 
0.0 0.0 0.0 
0.0 0.0 0.0 
0.0 0.0 0.0 
0.0 0.0 0.0 
0.0 0.0 0.0 
0.0 0.0 0.0 
0.0 0.0 0.0 
0.0 0.0 0.0 
0.0 0.0 0.0 
0.0 0.0 0.0 
0.0 0.0 0.0 
0.0 0.0 0.0 
0.0 0.0 0.0 
0.0 0.0 0.0 
0.0 0.0 0.0 
0.0 0.0 0.0 
0.0 0.0 0.0 
0.0 0.0 0.0 
0.0 0.0 0.0 
0.0 0.0 0.0 
0.0 0.0 0.0 
0.0 0.0 0.0 
0.0 0.0 0.0 
0.0 0.0 0.0 
0.0 0.0 0.0 
0.0 0.0 0.0 
0.0 0.0 0.0 
0.0 0.0 0.0 
0.0 0.0 0.0 
0.0 0.0 0.0 
0.0 0.0 0.0 
0.0 0.0 0.0 
0.0 0.0 0.0 
0.0 0.0 0.0 
0.0 0.0 0.0 
0.0 0.0 0.0 
0.0 0.0 0.0 
0.0 0.0 0.0 
0.0 0.0 0.0 
0.0 0.0 0.0 
0.0 0.0 0.0 
0.0 0.0 0.0 
0.0 0.0 0.0 
0.0 0.0 0.0 
0.0 0.0 0.0 
0.0 0.0 0.0 
0.0 0.0 0.0 
0.0 0.0 0.0 
0.0 0.0 0.0 
0.0 0.0 0.0 
0.0 0.0 0.0 
0.0 0.0 0.0 
0.0 0.0 0.0 
0.0 0.0 0.0 
0.0 0.0 0.0 
0.0 0.0 0.0 
0.0 0.0 0.0 
0.0 0.0 0.0 
0.0 0.0 0.0 
0.0 0.0 0.0 
0.0 0.0 0.0 
0.0 0.0 0.0 
0.0 0.0 0.0 
0.0 0.0 0.0 
0.0 0.0 0.0 
0.0 0.0 0.0 
0.0 0.0 0.0 
0.0 0.0 0.0 
0.0 0.0 0.0 
0.0 0.0 0.0 
0.0 0.0 0.0 
0.0 0.0 0.0 
0.0 0.0 0.0 
0.0 0.0 0.0 
0.0 0.0 0.0 
0.0 0.0 0.0 
0.0 0.0 0.0 
0.0 0.0 0.0 
0.0 0.0 0.0 
0.0 0.0 0.0 
0.0 0.0 0.0 
0.0 0.0 0.0 
0.0 0.0 0.0 
0.0 0.0 0.0 
0.0 0.0 0.0 
0.0 0.0 0.0 
0.0 0.0 0.0 
0.0 0.0 0.0 
0.0 0.0 0.0 
0.0 0.0 0.0 
0.0 0.0 0.0 
0.0 0.0 0.0 
0.0 0.0 0.0 
0.0 0.0 0.0 
0.0 0.0 0.0 
0.0 0.0 0.0 
0.0 0.0 0.0 
0.0 0.0 0.0 
0.0 0.0 0.0 
0.0 0.0 0.0 
0.0 0.0 0.0 
0.0 0.0 0.0 
0.0 0.0 0.0 
0.0 0.0 0.0 
0.0 0.0 0.0 
0.0 0.0 0.0 
0.0 0.0 0.0 
0.0 0.0 0.0 
0.0 0.0 0.0 
0.0 0.0 0.0 
0.0 0.0 0.0 
0.0 0.0 0.0 
0.0 0.0 0.0 
0.0 0.0 0.0 
0.0 0.0 0.0 
0.0 0.0 0.0 
0.0 0.0 0.0 
0.0 0.0 0.0 
0.0 0.0 0.0 
0.0 0.0 0.0 
0.0 0.0 0.0 
0.0 0.0 0.0 
0.0 0.0 0.0 
0.0 0.0 0.0 
0.0 0.0 0.0 
0.0 0.0 0.0 
0.0 0.0 0.0 
0.0 0.0 0.0 
0.0 0.0 0.0 
0.0 0.0 0.0 
0.0 0.0 0.0 
0.0 0.0 0.0 
0.0 0.0 0.0 
0.0 0.0 0.0 
0.0 0.0 0.0 
0.0 0.0 0.0 
0.0 0.0 0.0 
0.0 0.0 0.0 
0.0 0.0 0.0 
0.0 0.0 0.0 
0.0 0.0 0.0 
0.0 0.0 0.0 
0.0 0.0 0.0 
0.0 0.0 0.0 
0.0 0.0 0.0 
0.0 0.0 0.0 
0.0 0.0 0.0 
0.0 0.0 0.0 
0.0 0.0 0.0 
0.0 0.0 0.0 
0.0 0.0 0.0 
0.0 0.0 0.0 
0.0 0.0 0.0 
0.0 0.0 0.0 
0.0 0.0 0.0 
0.0 0.0 0.0 
0.0 0.0 0.0 
0.0 0.0 0.0 
0.0 0.0 0.0 
0.0 0.0 0.0 
0.0 0.0 0.0 
0.0 0.0 0.0 
0.0 0.0 0.0 
0.0 0.0 0.0 
0.0 0.0 0.0 
0.0 0.0 0.0 
0.0 0.0 0.0 
0.0 0.0 0.0 
0.0 0.0 0.0 
0.0 0.0 0.0 
0.0 0.0 0.0 
0.0 0.0 0.0 
0.0 0.0 0.0 
0.0 0.0 0.0 
0.0 0.0 0.0 
0.0 0.0 0.0 
0.0 0.0 0.0 
0.0 0.0 0.0 
0.0 0.0 0.0 
0.0 0.0 0.0 
0.0 0.0 0.0 
0.0 0.0 0.0 
0.0 0.0 0.0 
0.0 0.0 0.0 
0.0 0.0 0.0 
0.0 0.0 0.0 
0.0 0.0 0.0 
0.0 0.0 0.0 
0.0 0.0 0.0 
0.0 0.0 0.0 
0.0 0.0 0.0 
0.0 0.0 0.0 
0.0 0.0 0.0 
0.0 0.0 0.0 
0.0 0.0 0.0 
0.0 0.0 0.0 
0.0 0.0 0.0 
0.0 0.0 0.0 
0.0 0.0 0.0 
0.0 0.0 0.0 
0.0 0.0 0.0 
0.0 0.0 0.0 
0.0 0.0 0.0 
0.0 0.0 0.0 
0.0 0.0 0.0 
0.0 0.0 0.0 
0.0 0.0 0.0 
0.0 0.0 0.0 
0.0 0.0 0.0 
0.0 0.0 0.0 
0.0 0.0 0.0 
0.0 0.0 0.0 
0.0 0.0 0.0 
0.0 0.0 0.0 
0.0 0.0 0.0 
0.0 0.0 0.0 
0.0 0.0 0.0 
0.0 0.0 0.0 
0.0 0.0 0.0 
0.0 0.0 0.0 
0.0 0.0 0.0 
0.0 0.0 0.0 
0.0 0.0 0.0 
0.0 0.0 0.0 
0.0 0.0 0.0 
0.0 0.0 0.0 
0.0 0.0 0.0 
0.0 0.0 0.0 
0.0 0.0 0.0 
0.0 0.0 0.0 
0.0 0.0 0.0 
0.0 0.0 0.0 
0.0 0.0 0.0 
0.0 0.0 0.0 
0.0 0.0 0.0 
0.0 0.0 0.0 
0.0 0.0 0.0 
0.0 0.0 0.0 
0.0 0.0 0.0 
0.0 0.0 0.0 
0.0 0.0 0.0 
0.0 0.0 0.0 
0.0 0.0 0.0 
0.0 0.0 0.0 
0.0 0.0 0.0 
0.0 0.0 0.0 
0.0 0.0 0.0 
0.0 0.0 0.0 
0.0 0.0 0.0 
0.0 0.0 0.0 
0.0 0.0 0.0 
0.0 0.0 0.0 
0.0 0.0 0.0 
0.0 0.0 0.0 
0.0 0.0 0.0 
0.0 0.0 0.0 
0.0 0.0 0.0 
0.0 0.0 0.0 
0.0 0.0 0.0 
0.0 0.0 0.0 
0.0 0.0 0.0 
0.0 0.0 0.0 
0.0 0.0 0.0 
0.0 0.0 0.0 
0.0 0.0 0.0 
0.0 0.0 0.0 
0.0 0.0 0.0 
0.0 0.0 0.0 
0.0 0.0 0.0 
0.0 0.0 0.0 
0.0 0.0 0.0 
0.0 0.0 0.0 
0.0 0.0 0.0 
0.0 0.0 0.0 
0.0 0.0 0.0 
0.0 0.0 0.0 
0.0 0.0 0.0 
0.0 0.0 0.0 
0.0 0.0 0.0 
0.0 0.0 0.0 
0.0 0.0 0.0 
0.0 0.0 0.0 
0.0 0.0 0.0 
0.0 0.0 0.0 
0.0 0.0 0.0 
0.0 0.0 0.0 
0.0 0.0 0.0 
0.0 0.0 0.0 
0.0 0.0 0.0 
0.0 0.0 0.0 
0.0 0.0 0.0 
0.0 0.0 0.0 
0.0 0.0 0.0 
0.0 0.0 0.0 
0.0 0.0 0.0 
0.0 0.0 0.0 
0.0 0.0 0.0 
0.0 0.0 0.0 
0.0 0.0 0.0 
0.0 0.0 0.0 
0.0 0.0 0.0 
0.0 0.0 0.0 
0.0 0.0 0.0 
0.0 0.0 0.0 
0.0 0.0 0.0 
0.0 0.0 0.0 
0.0 0.0 0.0 
0.0 0.0 0.0 
0.0 0.0 0.0 
0.0 0.0 0.0 
0.0 0.0 0.0 
0.0 0.0 0.0 
0.0 0.0 0.0 
0.0 0.0 0.0 
0.0 0.0 0.0 
0.0 0.0 0.0 
0.0 0.0 0.0 
0.0 0.0 0.0 
0.0 0.0 0.0 
0.0 0.0 0.0 
0.0 0.0 0.0 
0.0 0.0 0.0 
0.0 0.0 0.0 
0.0 0.0 0.0 
0.0 0.0 0.0 
0.0 0.0 0.0 
0.0 0.0 0.0 
0.0 0.0 0.0 
0.0 0.0 0.0 
0.0 0.0 0.0 
0.0 0.0 0.0 
0.0 0.0 0.0 
0.0 0.0 0.0 
0.0 0.0 0.0 
0.0 0.0 0.0 
0.0 0.0 0.0 
0.0 0.0 0.0 
0.0 0.0 0.0 
0.0 0.0 0.0 
0.0 0.0 0.0 
0.0 0.0 0.0 
0.0 0.0 0.0 
0.0 0.0 0.0 
0.0 0.0 0.0 
0.0 0.0 0.0 
0.0 0.0 0.0 
0.0 0.0 0.0 
0.0 0.0 0.0 
0.0 0.0 0.0 
0.0 0.0 0.0 
0.0 0.0 0.0 
0.0 0.0 0.0 
0.0 0.0 0.0 
0.0 0.0 0.0 
0.0 0.0 0.0 
0.0 0.0 0.0 
0.0 0.0 0.0 
0.0 0.0 0.0 
0.0 0.0 0.0 
0.0 0.0 0.0 
0.0 0.0 0.0 
0.0 0.0 0.0 
0.0 0.0 0.0 
0.0 0.0 0.0 
0.0 0.0 0.0 
0.0 0.0 0.0 
0.0 0.0 0.0 
0.0 0.0 0.0 
0.0 0.0 0.0 
0.0 0.0 0.0 
0.0 0.0 0.0 
0.0 0.0 0.0 
0.0 0.0 0.0 
0.0 0.0 0.0 
0.0 0.0 0.0 
0.0 0.0 0.0 
0.0 0.0 0.0 
0.0 0.0 0.0 
0.0 0.0 0.0 
0.0 0.0 0.0 
0.0 0.0 0.0 
0.0 0.0 0.0 
0.0 0.0 0.0 
0.0 0.0 0.0 
0.0 0.0 0.0 
0.0 0.0 0.0 
0.0 0.0 0.0 
0.0 0.0 0.0 
0.0 0.0 0.0 
0.0 0.0 0.0 
0.0 0.0 0.0 
0.0 0.0 0.0 
0.0 0.0 0.0 
0.0 0.0 0.0 
0.0 0.0 0.0 
0.0 0.0 0.0 
0.0 0.0 0.0 
0.0 0.0 0.0 
0.0 0.0 0.0 
0.0 0.0 0.0 
0.0 0.0 0.0 
0.0 0.0 0.0 
0.0 0.0 0.0 
0.0 0.0 0.0 
0.0 0.0 0.0 
0.0 0.0 0.0 
0.0 0.0 0.0 
0.0 0.0 0.0 
0.0 0.0 0.0 
0.0 0.0 0.0 
0.0 0.0 0.0 
0.0 0.0 0.0 
0.0 0.0 0.0 
0.0 0.0 0.0 
0.0 0.0 0.0 
0.0 0.0 0.0 
0.0 0.0 0.0 
0.0 0.0 0.0 
0.0 0.0 0.0 
0.0 0.0 0.0 
0.0 0.0 0.0 
0.0 0.0 0.0 
0.0 0.0 0.0 
0.0 0.0 0.0 
0.0 0.0 0.0 
0.0 0.0 0.0 
0.0 0.0 0.0 
0.0 0.0 0.0 
0.0 0.0 0.0 
0.0 0.0 0.0 
0.0 0.0 0.0 
0.0 0.0 0.0 
0.0 0.0 0.0 
0.0 0.0 0.0 
0.0 0.0 0.0 
0.0 0.0 0.0 
0.0 0.0 0.0 
0.0 0.0 0.0 
0.0 0.0 0.0 
0.0 0.0 0.0 
0.0 0.0 0.0 
0.0 0.0 0.0 
0.0 0.0 0.0 
0.0 0.0 0.0 
0.0 0.0 0.0 
0.0 0.0 0.0 
0.0 0.0 0.0 
0.0 0.0 0.0 
0.0 0.0 0.0 
0.0 0.0 0.0 
0.0 0.0 0.0 
0.0 0.0 0.0 
0.0 0.0 0.0 
0.0 0.0 0.0 
0.0 0.0 0.0 
0.0 0.0 0.0 
0.0 0.0 0.0 
0.0 0.0 0.0 
0.0 0.0 0.0 
0.0 0.0 0.0 
0.0 0.0 0.0 
0.0 0.0 0.0 
0.0 0.0 0.0 
0.0 0.0 0.0 
0.0 0.0 0.0 
0.0 0.0 0.0 
0.0 0.0 0.0 
0.0 0.0 0.0 
0.0 0.0 0.0 
0.0 0.0 0.0 
0.0 0.0 0.0 
0.0 0.0 0.0 
0.0 0.0 0.0 
0.0 0.0 0.0 
0.0 0.0 0.0 
0.0 0.0 0.0 
0.0 0.0 0.0 
0.0 0.0 0.0 
0.0 0.0 0.0 
0.0 0.0 0.0 
0.0 0.0 0.0 
0.0 0.0 0.0 
0.0 0.0 0.0 
0.0 0.0 0.0 
0.0 0.0 0.0 
0.0 0.0 0.0 
0.0 0.0 0.0 
0.0 0.0 0.0 
0.0 0.0 0.0 
0.0 0.0 0.0 
0.0 0.0 0.0 
0.0 0.0 0.0 
0.0 0.0 0.0 
0.0 0.0 0.0 
0.0 0.0 0.0 
0.0 0.0 0.0 
0.0 0.0 0.0 
0.0 0.0 0.0 
0.0 0.0 0.0 
0.0 0.0 0.0 
0.0 0.0 0.0 
0.0 0.0 0.0 
0.0 0.0 0.0 
0.0 0.0 0.0 
0.0 0.0 0.0 
0.0 0.0 0.0 
0.0 0.0 0.0 
0.0 0.0 0.0 
0.0 0.0 0.0 
0.0 0.0 0.0 
0.0 0.0 0.0 
0.0 0.0 0.0 
0.0 0.0 0.0 
0.0 0.0 0.0 
0.0 0.0 0.0 
0.0 0.0 0.0 
0.0 0.0 0.0 
0.0 0.0 0.0 
0.0 0.0 0.0 
0.0 0.0 0.0 
0.0 0.0 0.0 
0.0 0.0 0.0 
0.0 0.0 0.0 
0.0 0.0 0.0 
0.0 0.0 0.0 
0.0 0.0 0.0 
0.0 0.0 0.0 
0.0 0.0 0.0 
0.0 0.0 0.0 
0.0 0.0 0.0 
0.0 0.0 0.0 
0.0 0.0 0.0 
0.0 0.0 0.0 
0.0 0.0 0.0 
0.0 0.0 0.0 
0.0 0.0 0.0 
0.0 0.0 0.0 
0.0 0.0 0.0 
0.0 0.0 0.0 
0.0 0.0 0.0 
0.0 0.0 0.0 
0.0 0.0 0.0 
0.0 0.0 0.0 
0.0 0.0 0.0 
0.0 0.0 0.0 
0.0 0.0 0.0 
0.0 0.0 0.0 
0.0 0.0 0.0 
0.0 0.0 0.0 
0.0 0.0 0.0 
0.0 0.0 0.0 
0.0 0.0 0.0 
0.0 0.0 0.0 
0.0 0.0 0.0 
0.0 0.0 0.0 
0.0 0.0 0.0 
0.0 0.0 0.0 
0.0 0.0 0.0 
0.0 0.0 0.0 
0.0 0.0 0.0 
0.0 0.0 0.0 
0.0 0.0 0.0 
0.0 0.0 0.0 
0.0 0.0 0.0 
0.0 0.0 0.0 
0.0 0.0 0.0 
0.0 0.0 0.0 
0.0 0.0 0.0 
0.0 0.0 0.0 
0.0 0.0 0.0 
0.0 0.0 0.0 
0.0 0.0 0.0 
0.0 0.0 0.0 
0.0 0.0 0.0 
0.0 0.0 0.0 
0.0 0.0 0.0 
0.0 0.0 0.0 
0.0 0.0 0.0 
0.0 0.0 0.0 
0.0 0.0 0.0 
0.0 0.0 0.0 
0.0 0.0 0.0 
0.0 0.0 0.0 
0.0 0.0 0.0 
0.0 0.0 0.0 
0.0 0.0 0.0 
0.0 0.0 0.0 
0.0 0.0 0.0 
0.0 0.0 0.0 
0.0 0.0 0.0 
0.0 0.0 0.0 
0.0 0.0 0.0 
0.0 0.0 0.0 
0.0 0.0 0.0 
0.0 0.0 0.0 
0.0 0.0 0.0 
0.0 0.0 0.0 
0.0 0.0 0.0 
0.0 0.0 0.0 
0.0 0.0 0.0 
0.0 0.0 0.0 
0.0 0.0 0.0 
0.0 0.0 0.0 
0.0 0.0 0.0 
0.0 0.0 0.0 
0.0 0.0 0.0 
0.0 0.0 0.0 
0.0 0.0 0.0 
0.0 0.0 0.0 
0.0 0.0 0.0 
0.0 0.0 0.0 
0.0 0.0 0.0 
0.0 0.0 0.0 
0.0 0.0 0.0 
0.0 0.0 0.0 
0.0 0.0 0.0 
0.0 0.0 0.0 
0.0 0.0 0.0 
0.0 0.0 0.0 
0.0 0.0 0.0 
0.0 0.0 0.0 
0.0 0.0 0.0 
0.0 0.0 0.0 
0.0 0.0 0.0 
0.0 0.0 0.0 
0.0 0.0 0.0 
0.0 0.0 0.0 
0.0 0.0 0.0 
0.0 0.0 0.0 
0.0 0.0 0.0 
0.0 0.0 0.0 
0.0 0.0 0.0 
0.0 0.0 0.0 
0.0 0.0 0.0 
0.0 0.0 0.0 
0.0 0.0 0.0 
0.0 0.0 0.0 
0.0 0.0 0.0 
0.0 0.0 0.0 
0.0 0.0 0.0 
0.0 0.0 0.0 
0.0 0.0 0.0 
0.0 0.0 0.0 
0.0 0.0 0.0 
0.0 0.0 0.0 
0.0 0.0 0.0 
0.0 0.0 0.0 
0.0 0.0 0.0 
0.0 0.0 0.0 
0.0 0.0 0.0 
0.0 0.0 0.0 
0.0 0.0 0.0 
0.0 0.0 0.0 
0.0 0.0 0.0 
0.0 0.0 0.0 
0.0 0.0 0.0 
0.0 0.0 0.0 
0.0 0.0 0.0 
0.0 0.0 0.0 
0.0 0.0 0.0 
0.0 0.0 0.0 
0.0 0.0 0.0 
0.0 0.0 0.0 
0.0 0.0 0.0 
0.0 0.0 0.0 
0.0 0.0 0.0 
0.0 0.0 0.0 
0.0 0.0 0.0 
0.0 0.0 0.0 
0.0 0.0 0.0 
0.0 0.0 0.0 
0.0 0.0 0.0 
0.0 0.0 0.0 
0.0 0.0 0.0 
0.0 0.0 0.0 
0.0 0.0 0.0 
0.0 0.0 0.0 
0.0 0.0 0.0 
0.0 0.0 0.0 
0.0 0.0 0.0 
0.0 0.0 0.0 
0.0 0.0 0.0 
0.0 0.0 0.0 
0.0 0.0 0.0 
0.0 0.0 0.0 
0.0 0.0 0.0 
0.0 0.0 0.0 
0.0 0.0 0.0 
0.0 0.0 0.0 
0.0 0.0 0.0 
0.0 0.0 0.0 
0.0 0.0 0.0 
0.0 0.0 0.0 
0.0 0.0 0.0 
0.0 0.0 0.0 
0.0 0.0 0.0 
0.0 0.0 0.0 
0.0 0.0 0.0 
0.0 0.0 0.0 
0.0 0.0 0.0 
0.0 0.0 0.0 
0.0 0.0 0.0 
0.0 0.0 0.0 
0.0 0.0 0.0 
0.0 0.0 0.0 
0.0 0.0 0.0 
0.0 0.0 0.0 
0.0 0.0 0.0 
0.0 0.0 0.0 
0.0 0.0 0.0 
0.0 0.0 0.0 
0.0 0.0 0.0 
0.0 0.0 0.0 
0.0 0.0 0.0 
0.0 0.0 0.0 
0.0 0.0 0.0 
0.0 0.0 0.0 
0.0 0.0 0.0 
0.0 0.0 0.0 
0.0 0.0 0.0 
0.0 0.0 0.0 
0.0 0.0 0.0 
0.0 0.0 0.0 
0.0 0.0 0.0 
0.0 0.0 0.0 
0.0 0.0 0.0 
0.0 0.0 0.0 
0.0 0.0 0.0 
0.0 0.0 0.0 
0.0 0.0 0.0 
0.0 0.0 0.0 
0.0 0.0 0.0 
0.0 0.0 0.0 
0.0 0.0 0.0 
0.0 0.0 0.0 
0.0 0.0 0.0 
0.0 0.0 0.0 
0.0 0.0 0.0 
0.0 0.0 0.0 
0.0 0.0 0.0 
0.0 0.0 0.0 
0.0 0.0 0.0 
0.0 0.0 0.0 
0.0 0.0 0.0 
0.0 0.0 0.0 
0.0 0.0 0.0 
0.0 0.0 0.0 
0.0 0.0 0.0 
0.0 0.0 0.0 
0.0 0.0 0.0 
0.0 0.0 0.0 
0.0 0.0 0.0 
0.0 0.0 0.0 
0.0 0.0 0.0 
0.0 0.0 0.0 
0.0 0.0 0.0 
0.0 0.0 0.0 
0.0 0.0 0.0 
0.0 0.0 0.0 
0.0 0.0 0.0 
0.0 0.0 0.0 
0.0 0.0 0.0 
0.0 0.0 0.0 
0.0 0.0 0.0 
0.0 0.0 0.0 
0.0 0.0 0.0 
0.0 0.0 0.0 
0.0 0.0 0.0 
0.0 0.0 0.0 
0.0 0.0 0.0 
0.0 0.0 0.0 
0.0 0.0 0.0 
0.0 0.0 0.0 
0.0 0.0 0.0 
0.0 0.0 0.0 
0.0 0.0 0.0 
0.0 0.0 0.0 
0.0 0.0 0.0 
0.0 0.0 0.0 
0.0 0.0 0.0 
0.0 0.0 0.0 
0.0 0.0 0.0 
0.0 0.0 0.0 
0.0 0.0 0.0 
0.0 0.0 0.0 
0.0 0.0 0.0 
0.0 0.0 0.0 
0.0 0.0 0.0 
0.0 0.0 0.0 
0.0 0.0 0.0 
0.0 0.0 0.0 
0.0 0.0 0.0 
0.0 0.0 0.0 
0.0 0.0 0.0 
0.0 0.0 0.0 
0.0 0.0 0.0 
0.0 0.0 0.0 
0.0 0.0 0.0 
0.0 0.0 0.0 
0.0 0.0 0.0 
0.0 0.0 0.0 
0.0 0.0 0.0 
0.0 0.0 0.0 
0.0 0.0 0.0 
0.0 0.0 0.0 
0.0 0.0 0.0 
0.0 0.0 0.0 
0.0 0.0 0.0 
0.0 0.0 0.0 
0.0 0.0 0.0 
0.0 0.0 0.0 
0.0 0.0 0.0 
0.0 0.0 0.0 
0.0 0.0 0.0 
0.0 0.0 0.0 
0.0 0.0 0.0 
0.0 0.0 0.0 
0.0 0.0 0.0 
0.0 0.0 0.0 
0.0 0.0 0.0 
0.0 0.0 0.0 
0.0 0.0 0.0 
0.0 0.0 0.0 
0.0 0.0 0.0 
0.0 0.0 0.0 
0.0 0.0 0.0 
0.0 0.0 0.0 
0.0 0.0 0.0 
0.0 0.0 0.0 
0.0 0.0 0.0 
0.0 0.0 0.0 
0.0 0.0 0.0 
0.0 0.0 0.0 
0.0 0.0 0.0 
0.0 0.0 0.0 
0.0 0.0 0.0 
0.0 0.0 0.0 
0.0 0.0 0.0 
0.0 0.0 0.0 
0.0 0.0 0.0 
0.0 0.0 0.0 
0.0 0.0 0.0 
0.0 0.0 0.0 
0.0 0.0 0.0 
0.0 0.0 0.0 
0.0 0.0 0.0 
0.0 0.0 0.0 
0.0 0.0 0.0 
0.0 0.0 0.0 
0.0 0.0 0.0 
0.0 0.0 0.0 
0.0 0.0 0.0 
0.0 0.0 0.0 
0.0 0.0 0.0 
0.0 0.0 0.0 
0.0 0.0 0.0 
0.0 0.0 0.0 
0.0 0.0 0.0 
0.0 0.0 0.0 
0.0 0.0 0.0 
0.0 0.0 0.0 
0.0 0.0 0.0 
0.0 0.0 0.0 
0.0 0.0 0.0 
0.0 0.0 0.0 
0.0 0.0 0.0 
0.0 0.0 0.0 
0.0 0.0 0.0 
0.0 0.0 0.0 
0.0 0.0 0.0 
0.0 0.0 0.0 
0.0 0.0 0.0 
0.0 0.0 0.0 
0.0 0.0 0.0 
0.0 0.0 0.0 
0.0 0.0 0.0 
0.0 0.0 0.0 
0.0 0.0 0.0 
0.0 0.0 0.0 
0.0 0.0 0.0 
0.0 0.0 0.0 
0.0 0.0 0.0 
0.0 0.0 0.0 
0.0 0.0 0.0 
0.0 0.0 0.0 
0.0 0.0 0.0 
0.0 0.0 0.0 
0.0 0.0 0.0 
0.0 0.0 0.0 
0.0 0.0 0.0 
0.0 0.0 0.0 
0.0 0.0 0.0 
0.0 0.0 0.0 
0.0 0.0 0.0 
0.0 0.0 0.0 
0.0 0.0 0.0 
0.0 0.0 0.0 
0.0 0.0 0.0 
0.0 0.0 0.0 
0.0 0.0 0.0 
0.0 0.0 0.0 
0.0 0.0 0.0 
0.0 0.0 0.0 
0.0 0.0 0.0 
0.0 0.0 0.0 
0.0 0.0 0.0 
0.0 0.0 0.0 
0.0 0.0 0.0 
0.0 0.0 0.0 
0.0 0.0 0.0 
0.0 0.0 0.0 
0.0 0.0 0.0 
0.0 0.0 0.0 
0.0 0.0 0.0 
0.0 0.0 0.0 
0.0 0.0 0.0 
0.0 0.0 0.0 
0.0 0.0 0.0 
0.0 0.0 0.0 
0.0 0.0 0.0 
0.0 0.0 0.0 
0.0 0.0 0.0 
0.0 0.0 0.0 
0.0 0.0 0.0 
0.0 0.0 0.0 
0.0 0.0 0.0 
0.0 0.0 0.0 
0.0 0.0 0.0 
0.0 0.0 0.0 
0.0 0.0 0.0 
0.0 0.0 0.0 
0.0 0.0 0.0 
0.0 0.0 0.0 
0.0 0.0 0.0 
0.0 0.0 0.0 
0.0 0.0 0.0 
0.0 0.0 0.0 
0.0 0.0 0.0 
0.0 0.0 0.0 
0.0 0.0 0.0 
0.0 0.0 0.0 
0.0 0.0 0.0 
0.0 0.0 0.0 
0.0 0.0 0.0 
0.0 0.0 0.0 
0.0 0.0 0.0 
0.0 0.0 0.0 
0.0 0.0 0.0 
0.0 0.0 0.0 
0.0 0.0 0.0 
0.0 0.0 0.0 
0.0 0.0 0.0 
0.0 0.0 0.0 
0.0 0.0 0.0 
0.0 0.0 0.0 
0.0 0.0 0.0 
0.0 0.0 0.0 
0.0 0.0 0.0 
0.0 0.0 0.0 
0.0 0.0 0.0 
0.0 0.0 0.0 
0.0 0.0 0.0 
0.0 0.0 0.0 
0.0 0.0 0.0 
0.0 0.0 0.0 
0.0 0.0 0.0 
0.0 0.0 0.0 
0.0 0.0 0.0 
0.0 0.0 0.0 
0.0 0.0 0.0 
0.0 0.0 0.0 
0.0 0.0 0.0 
0.0 0.0 0.0 
0.0 0.0 0.0 
0.0 0.0 0.0 
0.0 0.0 0.0 
0.0 0.0 0.0 
0.0 0.0 0.0 
0.0 0.0 0.0 
0.0 0.0 0.0 
0.0 0.0 0.0 
0.0 0.0 0.0 
0.0 0.0 0.0 
0.0 0.0 0.0 
0.0 0.0 0.0 
0.0 0.0 0.0 
0.0 0.0 0.0 
0.0 0.0 0.0 
0.0 0.0 0.0 
0.0 0.0 0.0 
0.0 0.0 0.0 
0.0 0.0 0.0 
0.0 0.0 0.0 
0.0 0.0 0.0 
0.0 0.0 0.0 
0.0 0.0 0.0 
0.0 0.0 0.0 
0.0 0.0 0.0 
0.0 0.0 0.0 
0.0 0.0 0.0 
0.0 0.0 0.0 
0.0 0.0 0.0 
0.0 0.0 0.0 
0.0 0.0 0.0 
0.0 0.0 0.0 
0.0 0.0 0.0 
0.0 0.0 0.0 
0.0 0.0 0.0 
0.0 0.0 0.0 
0.0 0.0 0.0 
0.0 0.0 0.0 
0.0 0.0 0.0 
0.0 0.0 0.0 
0.0 0.0 0.0 
0.0 0.0 0.0 
0.0 0.0 0.0 
0.0 0.0 0.0 
0.0 0.0 0.0 
0.0 0.0 0.0 
0.0 0.0 0.0 
0.0 0.0 0.0 
0.0 0.0 0.0 
0.0 0.0 0.0 
0.0 0.0 0.0 
0.0 0.0 0.0 
0.0 0.0 0.0 
0.0 0.0 0.0 
0.0 0.0 0.0 
0.0 0.0 0.0 
0.0 0.0 0.0 
0.0 0.0 0.0 
0.0 0.0 0.0 
0.0 0.0 0.0 
0.0 0.0 0.0 
0.0 0.0 0.0 
0.0 0.0 0.0 
0.0 0.0 0.0 
0.0 0.0 0.0 
0.0 0.0 0.0 
0.0 0.0 0.0 
0.0 0.0 0.0 
0.0 0.0 0.0 
0.0 0.0 0.0 
0.0 0.0 0.0 
0.0 0.0 0.0 
0.0 0.0 0.0 
0.0 0.0 0.0 
0.0 0.0 0.0 
0.0 0.0 0.0 
0.0 0.0 0.0 
0.0 0.0 0.0 
0.0 0.0 0.0 
0.0 0.0 0.0 
0.0 0.0 0.0 
0.0 0.0 0.0 
0.0 0.0 0.0 
0.0 0.0 0.0 
0.0 0.0 0.0 
0.0 0.0 0.0 
0.0 0.0 0.0 
0.0 0.0 0.0 
0.0 0.0 0.0 
0.0 0.0 0.0 
0.0 0.0 0.0 
0.0 0.0 0.0 
0.0 0.0 0.0 
0.0 0.0 0.0 
0.0 0.0 0.0 
0.0 0.0 0.0 
0.0 0.0 0.0 
0.0 0.0 0.0 
0.0 0.0 0.0 
0.0 0.0 0.0 
0.0 0.0 0.0 
0.0 0.0 0.0 
0.0 0.0 0.0 
0.0 0.0 0.0 
0.0 0.0 0.0 
0.0 0.0 0.0 
0.0 0.0 0.0 
0.0 0.0 0.0 
0.0 0.0 0.0 
0.0 0.0 0.0 
0.0 0.0 0.0 
0.0 0.0 0.0 
0.0 0.0 0.0 
0.0 0.0 0.0 
0.0 0.0 0.0 
0.0 0.0 0.0 
0.0 0.0 0.0 
0.0 0.0 0.0 
0.0 0.0 0.0 
0.0 0.0 0.0 
0.0 0.0 0.0 
0.0 0.0 0.0 
0.0 0.0 0.0 
0.0 0.0 0.0 
0.0 0.0 0.0 
0.0 0.0 0.0 
0.0 0.0 0.0 
0.0 0.0 0.0 
0.0 0.0 0.0 
0.0 0.0 0.0 
0.0 0.0 0.0 
0.0 0.0 0.0 
0.0 0.0 0.0 
0.0 0.0 0.0 
0.0 0.0 0.0 
0.0 0.0 0.0 
0.0 0.0 0.0 
0.0 0.0 0.0 
0.0 0.0 0.0 
0.0 0.0 0.0 
0.0 0.0 0.0 
0.0 0.0 0.0 
0.0 0.0 0.0 
0.0 0.0 0.0 
0.0 0.0 0.0 
0.0 0.0 0.0 
0.0 0.0 0.0 
0.0 0.0 0.0 
0.0 0.0 0.0 
0.0 0.0 0.0 
0.0 0.0 0.0 
0.0 0.0 0.0 
0.0 0.0 0.0 
0.0 0.0 0.0 
0.0 0.0 0.0 
0.0 0.0 0.0 
0.0 0.0 0.0 
0.0 0.0 0.0 
0.0 0.0 0.0 
0.0 0.0 0.0 
0.0 0.0 0.0 
0.0 0.0 0.0 
0.0 0.0 0.0 
0.0 0.0 0.0 
0.0 0.0 0.0 
0.0 0.0 0.0 
0.0 0.0 0.0 
0.0 0.0 0.0 
0.0 0.0 0.0 
0.0 0.0 0.0 
0.0 0.0 0.0 
0.0 0.0 0.0 
0.0 0.0 0.0 
0.0 0.0 0.0 
0.0 0.0 0.0 
0.0 0.0 0.0 
0.0 0.0 0.0 
0.0 0.0 0.0 
0.0 0.0 0.0 
0.0 0.0 0.0 
0.0 0.0 0.0 
0.0 0.0 0.0 
0.0 0.0 0.0 
0.0 0.0 0.0 
0.0 0.0 0.0 
0.0 0.0 0.0 
0.0 0.0 0.0 
0.0 0.0 0.0 
0.0 0.0 0.0 
0.0 0.0 0.0 
0.0 0.0 0.0 
0.0 0.0 0.0 
0.0 0.0 0.0 
0.0 0.0 0.0 

TENSORS element_materi_stress float
-2.693617325873e+01 1.904036135174e+01 0.0 
1.904036135174e+01 -3.890810415740e+01 0.0 
0.0 0.0 -1.935328322484e+01 
-2.802116273679e+01 1.757546586591e+01 0.0 
1.757546586591e+01 -4.075869006457e+01 0.0 
0.0 0.0 -2.023395584041e+01 
-1.139135975565e+02 2.077281812349e+01 0.0 
2.077281812349e+01 -2.574009826213e+02 0.0 
0.0 0.0 -1.109943740533e+02 
-1.007580508488e+02 2.647555249116e+00 0.0 
2.647555249116e+00 -2.278001783638e+02 0.0 
0.0 0.0 -9.816746876376e+01 
-5.092256041742e+01 -1.558704235522e-01 0.0 
-1.558704235522e-01 -8.925586434187e+01 0.0 
0.0 0.0 -4.165352742779e+01 
-2.093281758184e+01 4.576900820704e+00 0.0 
4.576900820704e+00 -3.911977528904e+01 0.0 
0.0 0.0 -1.761577786126e+01 
-5.024144400986e+01 -5.671883456864e-01 0.0 
-5.671883456864e-01 -8.944818682154e+01 0.0 
0.0 0.0 -4.150688924942e+01 
-2.875951252591e+01 1.893221584190e+01 0.0 
1.893221584190e+01 -4.421376464176e+01 0.0 
0.0 0.0 -2.149198315030e+01 
-5.118604037478e+01 1.819036947897e+00 0.0 
1.819036947897e+00 -9.021493054554e+01 0.0 
0.0 0.0 -4.202029127609e+01 
-1.001017596898e+02 2.226322201030e+00 0.0 
2.226322201030e+00 -2.261178009092e+02 0.0 
0.0 0.0 -9.746586817971e+01 
-9.673413565395e+01 -2.903828343568e-01 0.0 
-2.903828343568e-01 -2.523725150823e+02 0.0 
0.0 0.0 -1.043319952209e+02 
-2.393164881286e+01 1.632551465678e+01 0.0 
1.632551465678e+01 -3.310269190292e+01 0.0 
0.0 0.0 -1.671030221473e+01 
-1.507188222591e+02 5.530836296717e-01 0.0 
5.530836296717e-01 -3.618152587483e+02 0.0 
0.0 0.0 -1.533602243022e+02 
-6.164031348494e+01 2.415426340913e+00 0.0 
2.415426340913e+00 -1.074785540390e+02 0.0 
0.0 0.0 -5.033566025718e+01 
-1.555876628553e+02 2.728259510193e+00 0.0 
2.728259510193e+00 -3.695691548387e+02 0.0 
0.0 0.0 -1.571470453082e+02 
-1.026056525259e+02 1.716173940631e+00 0.0 
1.716173940631e+00 -2.359420335554e+02 0.0 
0.0 0.0 -1.011643058244e+02 
-5.047428479138e+01 1.166453836553e+00 0.0 
1.166453836553e+00 -8.546396539131e+01 0.0 
0.0 0.0 -4.038147505481e+01 
-2.056896735503e+01 2.742825324443e+00 0.0 
2.742825324443e+00 -3.962259248462e+01 0.0 
0.0 0.0 -1.765746795189e+01 
-2.844761460565e+01 -1.318941681195e-01 0.0 
-1.318941681195e-01 -7.725591452646e+01 0.0 
0.0 0.0 -3.131105873964e+01 
-2.883571116753e+01 -7.515615010970e-01 0.0 
-7.515615010970e-01 -7.989767103286e+01 0.0 
0.0 0.0 -3.222001466012e+01 
-1.015466144500e+02 4.311354464359e+00 0.0 
4.311354464359e+00 -2.272314216619e+02 0.0 
0.0 0.0 -9.823341083356e+01 
-2.792040451216e+01 1.732397762692e+01 0.0 
1.732397762692e+01 -3.842342992992e+01 0.0 
0.0 0.0 -1.950315033262e+01 
-3.195863712187e+01 1.998216939407e+01 0.0 
1.998216939407e+01 -4.339908860108e+01 0.0 
0.0 0.0 -2.220731771688e+01 
-1.347553762007e+02 1.459117743503e+01 0.0 
1.459117743503e+01 -3.327036464801e+02 0.0 
0.0 0.0 -1.398377068043e+02 
-7.140688733576e+01 5.236055162849e+00 0.0 
5.236055162849e+00 -1.274290668936e+02 0.0 
0.0 0.0 -5.925078626880e+01 
-1.024340337380e+02 1.097433443990e+00 0.0 
1.097433443990e+00 -2.653170633026e+02 0.0 
0.0 0.0 -1.099253291122e+02 
-4.744618344063e+01 3.713239018756e+00 0.0 
3.713239018756e+00 -7.068018564634e+01 0.0 
0.0 0.0 -3.503791072609e+01 
-1.283108277243e+02 2.634369867050e+01 0.0 
2.634369867050e+01 -3.049721613409e+02 0.0 
0.0 0.0 -1.295848967196e+02 
-7.428004487044e+01 8.377783652078e+00 0.0 
8.377783652078e+00 -1.290423426078e+02 0.0 
0.0 0.0 -6.059671624348e+01 
-1.386742526031e+02 1.312893094862e+01 0.0 
1.312893094862e+01 -3.417301077353e+02 0.0 
0.0 0.0 -1.437213081015e+02 
-2.591908540785e+01 -1.700445974997e+00 0.0 
-1.700445974997e+00 -5.781272501248e+01 0.0 
0.0 0.0 -2.471954312610e+01 
-1.427565319962e+01 -1.644435608889e+00 0.0 
-1.644435608889e+00 -2.599713046829e+01 0.0 
0.0 0.0 -1.168183510037e+01 
-1.158531315370e+02 2.096877803482e+01 0.0 
2.096877803482e+01 -2.574420163776e+02 0.0 
0.0 0.0 -1.115885443744e+02 
-1.257874560042e+02 1.170216338500e+00 0.0 
1.170216338500e+00 -3.135383836181e+02 0.0 
0.0 0.0 -1.313977518867e+02 
-1.475357342125e+02 9.242870797003e+00 0.0 
9.242870797003e+00 -3.561021178768e+02 0.0 
0.0 0.0 -1.506913556268e+02 
-1.579016781603e+02 4.179752931924e+00 0.0 
4.179752931924e+00 -3.760471095465e+02 0.0 
0.0 0.0 -1.597846363120e+02 
-1.588151773473e+02 6.839312728189e+00 0.0 
6.839312728189e+00 -3.762035051302e+02 0.0 
0.0 0.0 -1.601056047433e+02 
-1.361105800437e+02 1.963579383562e+01 0.0 
1.963579383562e+01 -3.320952011909e+02 0.0 
0.0 0.0 -1.400617343704e+02 
-4.219120449976e+01 1.369795918396e+00 0.0 
1.369795918396e+00 -7.077523447892e+01 0.0 
0.0 0.0 -3.348993169361e+01 
-4.192147574706e+01 -1.352587532907e+00 0.0 
-1.352587532907e+00 -7.130023405530e+01 0.0 
0.0 0.0 -3.356651294071e+01 
-3.772158338038e+01 1.839466923759e+01 0.0 
1.839466923759e+01 -4.574948252316e+01 0.0 
0.0 0.0 -2.464131977106e+01 
-1.500169294644e+02 1.045353860828e+01 0.0 
1.045353860828e+01 -3.585530733611e+02 0.0 
0.0 0.0 -1.521710008477e+02 
-2.535352190798e+01 1.649818241835e+01 0.0 
1.649818241835e+01 -3.690567077176e+01 0.0 
0.0 0.0 -1.827775780392e+01 
-4.958354099263e+01 3.455377500379e+00 0.0 
3.455377500379e+00 -7.114841612726e+01 0.0 
0.0 0.0 -3.581958713597e+01 
-9.698555679646e+01 1.080090086016e+00 0.0 
1.080090086016e+00 -2.163281161779e+02 0.0 
0.0 0.0 -9.359410189230e+01 
-2.525465320968e+01 1.601821809743e+01 0.0 
1.601821809743e+01 -3.692597940560e+01 0.0 
0.0 0.0 -1.825418978458e+01 
-1.981458890775e+01 -2.131404744682e+00 0.0 
-2.131404744682e+00 -4.324970602519e+01 0.0 
0.0 0.0 -1.851928847988e+01 
-9.633293831734e+01 8.084374620914e-01 0.0 
8.084374620914e-01 -2.176177810496e+02 0.0 
0.0 0.0 -9.378521581007e+01 
-1.685871575341e+01 -1.734368712316e+00 0.0 
-1.734368712316e+00 -2.565931245139e+01 0.0 
0.0 0.0 -1.274528189274e+01 
-5.906567064578e+01 3.481317331624e+00 0.0 
3.481317331624e+00 -9.895166634067e+01 0.0 
0.0 0.0 -4.700520109594e+01 
-3.510945110345e+01 1.948199885570e+01 0.0 
1.948199885570e+01 -4.541873242408e+01 0.0 
0.0 0.0 -2.375845505826e+01 
-3.615125873403e+01 -3.557790203837e-01 0.0 
-3.557790203837e-01 -9.715022400150e+01 0.0 
0.0 0.0 -3.959044482066e+01 
-2.884652086459e+01 -1.260151777267e+00 0.0 
-1.260151777267e+00 -7.903883998448e+01 0.0 
0.0 0.0 -3.196560825472e+01 
-3.246898937459e+01 1.520058356111e+01 0.0 
1.520058356111e+01 -4.004641314412e+01 0.0 
0.0 0.0 -2.135462075561e+01 
-1.095036238200e+02 1.598815364392e+01 0.0 
1.598815364392e+01 -2.461248528347e+02 0.0 
0.0 0.0 -1.062885429964e+02 
-4.704838252714e+01 -2.279094349978e-01 0.0 
-2.279094349978e-01 -1.281907686585e+02 0.0 
0.0 0.0 -5.217174535570e+01 
-3.636907438073e+01 -8.809535325667e-01 0.0 
-8.809535325667e-01 -1.001019274688e+02 0.0 
0.0 0.0 -4.054130055484e+01 
-1.253983218331e+02 -1.251917567286e-01 0.0 
-1.251917567286e-01 -3.134226189754e+02 0.0 
0.0 0.0 -1.312462822426e+02 
-2.259251157150e+01 -1.215588072895e+00 0.0 
-1.215588072895e+00 -5.922567934537e+01 0.0 
0.0 0.0 -2.414545727506e+01 
-1.032782813610e+02 3.581229913850e+00 0.0 
3.581229913850e+00 -2.362682079494e+02 0.0 
0.0 0.0 -1.014639467931e+02 
-2.150435534777e+01 -9.039296028206e-01 0.0 
-9.039296028206e-01 -2.219030765472e+01 0.0 
0.0 0.0 -1.270839890075e+01 
-1.222447471852e+02 2.187044532652e+01 0.0 
2.187044532652e+01 -2.999299642540e+02 0.0 
0.0 0.0 -1.262524134318e+02 
-3.766997936413e+01 1.867944996455e+01 0.0 
1.867944996455e+01 -9.183771628100e+01 0.0 
0.0 0.0 -3.845230869354e+01 
-2.733879924463e+01 -1.356657613733e+00 0.0 
-1.356657613733e+00 -7.246751496381e+01 0.0 
0.0 0.0 -2.954189426253e+01 
-1.504194489030e+02 3.444877639003e+00 0.0 
3.444877639003e+00 -3.610792463493e+02 0.0 
0.0 0.0 -1.530496085757e+02 
-3.052586450916e+01 1.670855300830e+01 0.0 
1.670855300830e+01 -3.860354117839e+01 0.0 
0.0 0.0 -2.033882170626e+01 
-1.767859595863e+01 -1.055391685781e+00 0.0 
-1.055391685781e+00 -2.093408855425e+01 0.0 
0.0 0.0 -1.188575930862e+01 
-1.180367073316e+02 2.276872027763e+01 0.0 
2.276872027763e+01 -2.613495998962e+02 0.0 
0.0 0.0 -1.134158921683e+02 
-2.538851534781e+01 -2.358236947058e+00 0.0 
-2.358236947058e+00 -6.356292408609e+01 0.0 
0.0 0.0 -2.628543183017e+01 
-1.217171561017e+02 2.461329966959e+01 0.0 
2.461329966959e+01 -2.817619584462e+02 0.0 
0.0 0.0 -1.206437343644e+02 
-1.072059610776e+02 1.625859290423e+00 0.0 
1.625859290423e+00 -2.756632237922e+02 0.0 
0.0 0.0 -1.144607554609e+02 
-1.082120964548e+02 1.033221789405e+01 0.0 
1.033221789405e+01 -2.538282250612e+02 0.0 
0.0 0.0 -1.082120964548e+02 
-1.226533507389e+02 2.378426641243e+01 0.0 
2.378426641243e+01 -2.904321136116e+02 0.0 
0.0 0.0 -1.235256393052e+02 
-1.085829264758e+01 -9.510055769506e-01 0.0 
-9.510055769506e-01 -2.983812867811e+01 0.0 
0.0 0.0 -1.180892639770e+01 
-4.844486818737e+01 -1.104272083816e+00 0.0 
-1.104272083816e+00 -1.334159155856e+02 0.0 
0.0 0.0 -5.415823513190e+01 
-1.044612130584e+02 8.248545644509e+00 0.0 
8.248545644509e+00 -2.320014026913e+02 0.0 
0.0 0.0 -1.005387847249e+02 
-1.135892289715e+02 1.748282779794e+01 0.0 
1.748282779794e+01 -2.495754171436e+02 0.0 
0.0 0.0 -1.085493938345e+02 
-2.310538091024e+01 1.350488609225e+01 0.0 
1.350488609225e+01 -3.403790342374e+01 0.0 
0.0 0.0 -1.674298530019e+01 
-2.179445992568e+01 -1.297019609455e+00 0.0 
-1.297019609455e+00 -5.910997333913e+01 0.0 
0.0 0.0 -2.387132997944e+01 
-2.433055849736e+01 1.506829096357e+01 0.0 
1.506829096357e+01 -3.446786406456e+01 0.0 
0.0 0.0 -1.723952676858e+01 
-2.457509197185e+01 -3.330018573090e+00 0.0 
-3.330018573090e+00 -6.300392508376e+01 0.0 
0.0 0.0 -2.587370511669e+01 
-5.065437827786e+01 8.758461549250e-01 0.0 
8.758461549250e-01 -8.497464629839e+01 0.0 
0.0 0.0 -4.028870737287e+01 
-3.070716971714e+01 2.014804818369e+01 0.0 
2.014804818369e+01 -4.336656595350e+01 0.0 
0.0 0.0 -2.182212070119e+01 
-2.537408842260e+01 1.674665518802e+01 0.0 
1.674665518802e+01 -3.434209625683e+01 0.0 
0.0 0.0 -1.751485540383e+01 
-5.621082004109e+01 2.138201933264e+00 0.0 
2.138201933264e+00 -1.006314996854e+02 0.0 
0.0 0.0 -4.665269591794e+01 
-5.488361220218e+01 3.005241593517e-02 0.0 
3.005241593517e-02 -1.000320957139e+02 0.0 
0.0 0.0 -4.607471237482e+01 
-1.113009588121e+02 1.409070520591e+00 0.0 
1.409070520591e+00 -2.841405269623e+02 0.0 
0.0 0.0 -1.182324457323e+02 
-1.214513210003e+02 -6.849405707231e-01 0.0 
-6.849405707231e-01 -3.052726010845e+02 0.0 
0.0 0.0 -1.276171766254e+02 
-1.001195021640e+02 2.040581825205e+01 0.0 
2.040581825205e+01 -2.054984371666e+02 0.0 
0.0 0.0 -9.128538179919e+01 
-5.200207608433e+01 2.197014602756e+00 0.0 
2.197014602756e+00 -8.895567900611e+01 0.0 
0.0 0.0 -4.188732652713e+01 
-1.339980709822e+01 -1.667818687153e+00 0.0 
-1.667818687153e+00 -2.575621772344e+01 0.0 
0.0 0.0 -1.170292266583e+01 
-5.734562970884e+01 4.745282890086e+00 0.0 
4.745282890086e+00 -8.913043920347e+01 0.0 
0.0 0.0 -4.354282067369e+01 
-7.949772096316e+01 1.215672366454e+00 0.0 
1.215672366454e+00 -1.687754074520e+02 0.0 
0.0 0.0 -7.408193852455e+01 
-7.907659507755e+01 5.849119795133e-01 0.0 
5.849119795133e-01 -1.653292115200e+02 0.0 
0.0 0.0 -7.292174197928e+01 
-1.130284305008e+02 1.150586643880e+01 0.0 
1.150586643880e+01 -2.566236096137e+02 0.0 
0.0 0.0 -1.104956120344e+02 
-1.420419817836e+02 2.253219305166e+01 0.0 
2.253219305166e+01 -3.380358213551e+02 0.0 
0.0 0.0 -1.436233409416e+02 
-5.185317088288e+01 1.844909690914e+00 0.0 
1.844909690914e+00 -8.483156720479e+01 0.0 
0.0 0.0 -4.060542142630e+01 
-1.470875875384e+02 1.030622522811e+01 0.0 
1.030622522811e+01 -3.581105218974e+02 0.0 
0.0 0.0 -1.511594328308e+02 
-6.122945609636e+01 7.900869394101e-01 0.0 
7.900869394101e-01 -1.198667204906e+02 0.0 
0.0 0.0 -5.392885297610e+01 
-3.588390344776e+01 2.022778991724e+01 0.0 
2.022778991724e+01 -7.674124320097e+01 0.0 
0.0 0.0 -3.338754399462e+01 
-4.749105741170e+01 1.315276613450e+00 0.0 
1.315276613450e+00 -8.025208059277e+01 0.0 
0.0 0.0 -3.792294140134e+01 
-1.549216280331e+02 1.460876034210e+00 0.0 
1.460876034210e+00 -3.691709964383e+02 0.0 
0.0 0.0 -1.568277873414e+02 
-1.013854185774e+02 1.987215934710e+01 0.0 
1.987215934710e+01 -2.582649586089e+02 0.0 
0.0 0.0 -1.074951131559e+02 
-1.244660471343e+02 2.350050317910e+01 0.0 
2.350050317910e+01 -3.012418189325e+02 0.0 
0.0 0.0 -1.273123598200e+02 
-3.416918972009e+01 1.634249435123e+01 0.0 
1.634249435123e+01 -8.776181361890e+01 0.0 
0.0 0.0 -3.617930100170e+01 
-2.354613818673e+01 -2.291179117109e+00 0.0 
-2.291179117109e+00 -4.244111826022e+01 0.0 
0.0 0.0 -1.939617693409e+01 
-1.404217731705e+02 1.943325217500e+00 0.0 
1.943325217500e+00 -3.421466038497e+02 0.0 
0.0 0.0 -1.443705131061e+02 
-8.604015142487e+01 9.706505055913e-01 0.0 
9.706505055913e-01 -1.846405670904e+02 0.0 
0.0 0.0 -8.080421555459e+01 
-2.127954608192e+01 -1.516227315038e+00 0.0 
-1.516227315038e+00 -2.543731213172e+01 0.0 
0.0 0.0 -1.361505746409e+01 
-1.544915060129e+02 4.644254044758e+00 0.0 
4.644254044758e+00 -3.664841055818e+02 0.0 
0.0 0.0 -1.558926834784e+02 
-9.456340660960e+01 1.809712945913e+01 0.0 
1.809712945913e+01 -1.961985631798e+02 0.0 
0.0 0.0 -8.682859093681e+01 
-8.043835789956e+00 3.527750795384e-01 0.0 
3.527750795384e-01 -2.207180269393e+01 0.0 
0.0 0.0 -8.634691545166e+00 
-4.765144265256e+01 1.598558491763e+01 0.0 
1.598558491763e+01 -1.358429357571e+02 0.0 
0.0 0.0 -5.464831352289e+01 
-5.307111710185e+01 9.762415371401e+00 0.0 
9.762415371401e+00 -7.352884899973e+01 0.0 
0.0 0.0 -3.757998983047e+01 
-5.884813465879e+01 -3.973209926620e-01 0.0 
-3.973209926620e-01 -1.619610754078e+02 0.0 
0.0 0.0 -6.584276301997e+01 
-3.215043526900e+01 1.797389484836e+01 0.0 
1.797389484836e+01 -7.296766170918e+01 0.0 
0.0 0.0 -3.113542909345e+01 
-3.904536450399e+01 1.956374128542e+01 0.0 
1.956374128542e+01 -9.252030483155e+01 0.0 
0.0 0.0 -3.906970080066e+01 
-1.515755118550e+02 7.355118001964e+00 0.0 
7.355118001964e+00 -3.633669666677e+02 0.0 
0.0 0.0 -1.540827435568e+02 
-5.884081022177e+01 -4.812494019079e-01 0.0 
-4.812494019079e-01 -1.132334435409e+02 0.0 
0.0 0.0 -5.122227612879e+01 
-3.490753286018e+01 1.764319859398e+01 0.0 
1.764319859398e+01 -8.944424171869e+01 0.0 
0.0 0.0 -3.690553237366e+01 
-2.426462855971e+01 -1.946168338755e+00 0.0 
-1.946168338755e+00 -6.090089216840e+01 0.0 
0.0 0.0 -2.514965621843e+01 
-5.731381330842e+01 5.005030271057e+00 0.0 
5.005030271057e+00 -8.999613024985e+01 0.0 
0.0 0.0 -4.379298306748e+01 
-8.593717682696e+01 1.373097181273e+00 0.0 
1.373097181273e+00 -1.860690541785e+02 0.0 
0.0 0.0 -8.120186930165e+01 
-3.650695682639e+01 1.805296866834e+01 0.0 
1.805296866834e+01 -9.015708417390e+01 0.0 
0.0 0.0 -3.759921230009e+01 
-2.097211539524e+01 9.548202148213e+00 0.0 
9.548202148213e+00 -2.939259620886e+01 0.0 
0.0 0.0 -1.470941348123e+01 
-4.595863410956e+01 1.353552870515e+01 0.0 
1.353552870515e+01 -5.768947892288e+01 0.0 
0.0 0.0 -3.069443390973e+01 
-5.896958588595e+01 -8.600386455083e-01 0.0 
-8.600386455083e-01 -1.606485741069e+02 0.0 
0.0 0.0 -6.548544799786e+01 
-3.823092455947e+01 1.000973664871e+01 0.0 
1.000973664871e+01 -4.615525363771e+01 0.0 
0.0 0.0 -2.491585345915e+01 
-1.055128214250e+02 7.861699617445e+00 0.0 
7.861699617445e+00 -2.404478658496e+02 0.0 
0.0 0.0 -1.033882061824e+02 
-2.168563601904e+01 9.303004776701e+00 0.0 
9.303004776701e+00 -4.010913365457e+01 0.0 
0.0 0.0 -1.813843090208e+01 
-1.019222379580e+02 -3.627784994299e-02 0.0 
-3.627784994299e-02 -2.643127495357e+02 0.0 
0.0 0.0 -1.094704962481e+02 
-1.001585311547e+02 8.303247177749e-01 0.0 
8.303247177749e-01 -2.276205998574e+02 0.0 
0.0 0.0 -9.793373930363e+01 
-4.909057027148e+01 2.014877690124e+01 0.0 
2.014877690124e+01 -9.885437320270e+01 0.0 
0.0 0.0 -4.398348304225e+01 
-4.222435442150e+01 1.579306943684e+01 0.0 
1.579306943684e+01 -5.128265326160e+01 0.0 
0.0 0.0 -2.765210230493e+01 
-1.461387512852e+02 7.777177989797e+00 0.0 
7.777177989797e+00 -3.555456066471e+02 0.0 
0.0 0.0 -1.501053073797e+02 
-1.512195826603e+02 2.251120693634e+00 0.0 
2.251120693634e+00 -3.624908703694e+02 0.0 
0.0 0.0 -1.537131359089e+02 
-1.109821171701e+02 1.159911230997e-01 0.0 
1.159911230997e-01 -2.840539561163e+02 0.0 
0.0 0.0 -1.181108219859e+02 
-5.273964944612e+01 2.224612556212e+01 0.0 
2.224612556212e+01 -1.015152736764e+02 0.0 
0.0 0.0 -4.587647693675e+01 
-1.450466893888e+02 1.362421314280e+01 0.0 
1.362421314280e+01 -3.538977770904e+02 0.0 
0.0 0.0 -1.492833399438e+02 
-4.542923071064e+01 1.908668415762e+01 0.0 
1.908668415762e+01 -8.150895760395e+01 0.0 
0.0 0.0 -3.768145649438e+01 
-1.029178677497e+02 5.671859510067e+00 0.0 
5.671859510067e+00 -2.340778825175e+02 0.0 
0.0 0.0 -1.006987250802e+02 
-1.219269617913e+02 2.554072181900e+01 0.0 
2.554072181900e+01 -2.802525637803e+02 0.0 
0.0 0.0 -1.202538576715e+02 
-6.342699130054e+01 4.984353380115e+00 0.0 
4.984353380115e+00 -1.074968206950e+02 0.0 
0.0 0.0 -5.087714359867e+01 
-7.131614294285e+01 5.543367338419e-01 0.0 
5.543367338419e-01 -1.441920779950e+02 0.0 
0.0 0.0 -6.425246628137e+01 
-4.509012495958e+01 2.197117246440e+01 0.0 
2.197117246440e+01 -8.153695641730e+01 0.0 
0.0 0.0 -3.758812441306e+01 
-3.539359883099e+01 1.232750450235e+01 0.0 
1.232750450235e+01 -4.214896579778e+01 0.0 
0.0 0.0 -2.286276938863e+01 
-5.677685082622e+01 2.036879537960e+01 0.0 
2.036879537960e+01 -1.180812237888e+02 0.0 
0.0 0.0 -5.205742238451e+01 
-3.930832977042e+01 1.704214542423e+01 0.0 
1.704214542423e+01 -1.054857492470e+02 0.0 
0.0 0.0 -4.303822370521e+01 
-4.756600892946e+01 1.165739062531e+00 0.0 
1.165739062531e+00 -8.294473609986e+01 0.0 
0.0 0.0 -3.875322350880e+01 
-4.873317791637e+01 1.639909766245e+01 0.0 
1.639909766245e+01 -1.363757502629e+02 0.0 
0.0 0.0 -5.513267845378e+01 
-1.224096865311e+01 -1.367874792228e+00 0.0 
-1.367874792228e+00 -2.506902384100e+01 0.0 
0.0 0.0 -1.121117534033e+01 
-5.251599098423e+01 2.051842395303e-01 0.0 
2.051842395303e-01 -9.792430627311e+01 0.0 
0.0 0.0 -4.473208917720e+01 
-2.117499270946e+01 -4.341326563551e-01 0.0 
-4.341326563551e-01 -6.017413001271e+01 0.0 
0.0 0.0 -2.400473681665e+01 
-4.967322236480e+01 1.142942729825e+01 0.0 
1.142942729825e+01 -6.574943143444e+01 0.0 
0.0 0.0 -3.422679613977e+01 
-1.488244701333e+02 1.282031486317e+01 0.0 
1.282031486317e+01 -3.558932410168e+02 0.0 
0.0 0.0 -1.510153133450e+02 
-3.278772522899e+01 1.639662942346e+01 0.0 
1.639662942346e+01 -8.717701550312e+01 0.0 
0.0 0.0 -3.558942221963e+01 
-1.159891380501e+02 -3.020857509928e-01 0.0 
-3.020857509928e-01 -2.942456410686e+02 0.0 
0.0 0.0 -1.226704337356e+02 
-2.628650202254e+01 1.692136654879e+01 0.0 
1.692136654879e+01 -3.755766079749e+01 0.0 
0.0 0.0 -1.875324884601e+01 
-9.973735107596e+01 1.854917413569e+01 0.0 
1.854917413569e+01 -2.573903728391e+02 0.0 
0.0 0.0 -1.067383171745e+02 
-4.696493180110e+01 1.329196005488e-01 0.0 
1.329196005488e-01 -8.440057314074e+01 0.0 
0.0 0.0 -3.900965148255e+01 
-4.439088012239e+01 1.435155800171e+01 0.0 
1.435155800171e+01 -1.316173692943e+02 0.0 
0.0 0.0 -5.240247482502e+01 
-1.302645432779e+02 1.877576088508e+00 0.0 
1.877576088508e+00 -3.227263951752e+02 0.0 
0.0 0.0 -1.354972815359e+02 
-2.404103753642e+01 -3.124256175301e+00 0.0 
-3.124256175301e+00 -6.048748568052e+01 0.0 
0.0 0.0 -2.495855696508e+01 
-1.400833856150e+02 4.780193927634e-01 0.0 
4.780193927634e-01 -3.417808804842e+02 0.0 
0.0 0.0 -1.441592798298e+02 
-6.061277646372e+01 1.209285532321e+01 0.0 
1.209285532321e+01 -9.814783722584e+01 0.0 
0.0 0.0 -4.722818410687e+01 
-1.513354603389e+02 3.928275188277e+00 0.0 
3.928275188277e+00 -3.648162603199e+02 0.0 
0.0 0.0 -1.544455161977e+02 
-4.628227100959e+01 -4.558104111253e-02 0.0 
-4.558104111253e-02 -8.339811002832e+01 0.0 
0.0 0.0 -3.850411431137e+01 
-3.564558799942e+01 1.505710949331e+01 0.0 
1.505710949331e+01 -1.009789890569e+02 0.0 
0.0 0.0 -4.058737311689e+01 
-4.581344096641e+01 6.699008009232e+00 0.0 
6.699008009232e+00 -6.155934244368e+01 0.0 
0.0 0.0 -3.181183502303e+01 
-9.673828732368e+01 7.020596445102e-01 0.0 
7.020596445102e-01 -2.533258375561e+02 0.0 
0.0 0.0 -1.046192374639e+02 
-2.648794262921e+01 1.779224715859e+01 0.0 
1.779224715859e+01 -3.729009156484e+01 0.0 
0.0 0.0 -1.873341025822e+01 
-4.576870399417e+01 1.438098217749e+01 0.0 
1.438098217749e+01 -1.322083973707e+02 0.0 
0.0 0.0 -5.299313040945e+01 
-7.564410130493e+01 2.247017687008e+00 0.0 
2.247017687008e+00 -1.551900280902e+02 0.0 
0.0 0.0 -6.885023881853e+01 
-4.660279332807e+01 -4.615815257188e-01 0.0 
-4.615815257188e-01 -8.314021194397e+01 0.0 
0.0 0.0 -3.852290158161e+01 
-4.123220543772e+01 1.552929612554e+01 0.0 
1.552929612554e+01 -1.180745871791e+02 0.0 
0.0 0.0 -4.739203778505e+01 
-4.189182817775e+01 8.056883674800e+00 0.0 
8.056883674800e+00 -5.294760012731e+01 0.0 
0.0 0.0 -2.805182849152e+01 
-1.063415806313e+02 2.163915013925e+01 0.0 
2.163915013925e+01 -2.396306331964e+02 0.0 
0.0 0.0 -1.033916641483e+02 
-6.617764585442e+01 -1.973015789969e-01 0.0 
-1.973015789969e-01 -1.790886004146e+02 0.0 
0.0 0.0 -7.317987388071e+01 
-1.305426841741e+02 2.456286532837e+01 0.0 
2.456286532837e+01 -3.090158151483e+02 0.0 
0.0 0.0 -1.314675497967e+02 
-1.239026658825e+02 2.654300887624e+01 0.0 
2.654300887624e+01 -2.855101583656e+02 0.0 
0.0 0.0 -1.224238472744e+02 
-3.105070765270e+01 1.932590443807e+01 0.0 
1.932590443807e+01 -5.895047066824e+01 0.0 
0.0 0.0 -2.660035349628e+01 
-6.626303088121e+01 -6.607576920823e-01 0.0 
-6.607576920823e-01 -1.800970417858e+02 0.0 
0.0 0.0 -7.350802180010e+01 
-1.236511383552e+02 1.561399480230e+01 0.0 
1.561399480230e+01 -3.119560629585e+02 0.0 
0.0 0.0 -1.302821603941e+02 
-4.138965279857e+01 2.076985090120e+01 0.0 
2.076985090120e+01 -6.368140460368e+01 0.0 
0.0 0.0 -3.112131722068e+01 
-2.780576319895e+01 1.687351874798e+01 0.0 
1.687351874798e+01 -5.508775802362e+01 0.0 
0.0 0.0 -2.446805636677e+01 
-5.544076009836e+01 8.898646567932e+00 0.0 
8.898646567932e+00 -8.431951285026e+01 0.0 
0.0 0.0 -4.152808188459e+01 
-4.529964556754e+01 1.772922349074e+01 0.0 
1.772922349074e+01 -1.229701246488e+02 0.0 
0.0 0.0 -5.008093106491e+01 
-1.014040982337e+02 3.479583888976e+00 0.0 
3.479583888976e+00 -2.325564852430e+02 0.0 
0.0 0.0 -9.978817504304e+01 
-9.382619350150e+01 1.560927583108e+01 0.0 
1.560927583108e+01 -1.895160260865e+02 0.0 
0.0 0.0 -8.460266587640e+01 
-1.353027422365e+02 -2.139797297575e-01 0.0 
-2.139797297575e-01 -3.326403227524e+02 0.0 
0.0 0.0 -1.399829194967e+02 
-2.454761721067e+01 1.509296250834e+01 0.0 
1.509296250834e+01 -3.583248532393e+01 0.0 
0.0 0.0 -1.771403076038e+01 
-4.314398637930e+01 1.221628715542e+01 0.0 
1.221628715542e+01 -1.278888254149e+02 0.0 
0.0 0.0 -5.090984353825e+01 
-9.779611839627e+01 1.746913582435e+01 0.0 
1.746913582435e+01 -2.034510051740e+02 0.0 
0.0 0.0 -8.997413707107e+01 
-1.688397977828e+01 3.152324230966e+00 0.0 
3.152324230966e+00 -4.313296961488e+00 0.0 
0.0 0.0 -5.959183021930e+00 
-4.147610875957e+01 1.713602349760e+01 0.0 
1.713602349760e+01 -6.361941231670e+01 0.0 
0.0 0.0 -3.112865632288e+01 
-1.151641753492e+02 1.233522174219e+01 0.0 
1.233522174219e+01 -2.974009930442e+02 0.0 
0.0 0.0 -1.233695505180e+02 
-1.687678705931e+01 -9.525380922876e-01 0.0 
-9.525380922876e-01 -4.268481658526e+01 0.0 
0.0 0.0 -1.746848109337e+01 
-1.115463209207e+02 1.733110582956e+01 0.0 
1.733110582956e+01 -2.470828509844e+02 0.0 
0.0 0.0 -1.071887515716e+02 
-8.127140489624e+01 9.447949240077e+00 0.0 
9.447949240077e+00 -1.513328996731e+02 0.0 
0.0 0.0 -6.938129137082e+01 
-5.757620136374e+01 -8.791369921170e-01 0.0 
-8.791369921170e-01 -1.675279542454e+02 0.0 
0.0 0.0 -6.713124668273e+01 
-1.129221196033e+02 1.100801154482e+01 0.0 
1.100801154482e+01 -2.963132461913e+02 0.0 
0.0 0.0 -1.223706097384e+02 
-6.488322566965e+01 6.642483094861e+00 0.0 
6.642483094861e+00 -1.062849715403e+02 0.0 
0.0 0.0 -5.095045916298e+01 
-7.019441992509e+01 6.302524848328e+00 0.0 
6.302524848328e+00 -1.204102880004e+02 0.0 
0.0 0.0 -5.678141237764e+01 
-1.405399483600e+02 1.384782634348e+01 0.0 
1.384782634348e+01 -3.422331846239e+02 0.0 
0.0 0.0 -1.444319398951e+02 
-4.445888845141e+01 -2.637856400534e+00 0.0 
-2.637856400534e+00 -1.269430159193e+02 0.0 
0.0 0.0 -5.102057131121e+01 
-6.020125505289e+01 2.064789813946e+01 0.0 
2.064789813946e+01 -1.343855256760e+02 0.0 
0.0 0.0 -5.797603421866e+01 
-6.526473656303e+01 1.494950143962e+01 0.0 
1.494950143962e+01 -1.131556336837e+02 0.0 
0.0 0.0 -5.312611107402e+01 
-8.713304984798e+01 1.172343597934e+01 0.0 
1.172343597934e+01 -1.624164098264e+02 0.0 
0.0 0.0 -7.446483790232e+01 
-6.611144313233e+01 1.444660493102e+01 0.0 
1.444660493102e+01 -1.068489785611e+02 0.0 
0.0 0.0 -5.148812650804e+01 
-5.780363627700e+01 1.309821787874e+01 0.0 
1.309821787874e+01 -8.529809221280e+01 0.0 
0.0 0.0 -4.253051854694e+01 
-8.794807114583e+01 1.726866857901e+01 0.0 
1.726866857901e+01 -2.339657296382e+02 0.0 
0.0 0.0 -9.617414023521e+01 
-1.033900184285e+02 2.297090307389e+01 0.0 
2.297090307389e+01 -2.255655695318e+02 0.0 
0.0 0.0 -9.828667638810e+01 
-2.060254346794e+01 2.964696345351e+00 0.0 
2.964696345351e+00 -2.064318192998e+01 0.0 
0.0 0.0 -1.197371761937e+01 
-3.027962196853e+01 1.875557390975e+01 0.0 
1.875557390975e+01 -5.872226724591e+01 0.0 
0.0 0.0 -2.630056676433e+01 
-3.470838858981e+01 1.901619731450e+01 0.0 
1.901619731450e+01 -7.596098724377e+01 0.0 
0.0 0.0 -3.280081275007e+01 
-5.614491675737e+01 2.256716603658e+01 0.0 
2.256716603658e+01 -1.182407690388e+02 0.0 
0.0 0.0 -5.191570573885e+01 
-9.943670313633e+01 1.784094742102e+01 0.0 
1.784094742102e+01 -1.996372402657e+02 0.0 
0.0 0.0 -8.932218302062e+01 
-2.266862841712e+01 4.518010452023e+00 0.0 
4.518010452023e+00 -5.848742418618e+01 0.0 
0.0 0.0 -2.394681578099e+01 
-1.106898997455e+02 1.067558362704e+01 0.0 
1.067558362704e+01 -2.892058673021e+02 0.0 
0.0 0.0 -1.195687301143e+02 
-4.666773886211e+01 1.140904063565e+00 0.0 
1.140904063565e+00 -8.192911857280e+01 0.0 
0.0 0.0 -3.817905723047e+01 
-4.171899248561e+01 1.250322633919e+01 0.0 
1.250322633919e+01 -1.273417368348e+02 0.0 
0.0 0.0 -5.031821879612e+01 
-1.063890240206e+02 9.095760774903e+00 0.0 
9.095760774903e+00 -2.807889174274e+02 0.0 
0.0 0.0 -1.157533824344e+02 
-1.263462702553e+01 -7.188257877847e-01 0.0 
-7.188257877847e-01 -2.861770767727e+01 0.0 
0.0 0.0 -1.197570041084e+01 
-8.851295295754e+01 1.096643025126e+01 0.0 
1.096643025126e+01 -1.723554188092e+02 0.0 
0.0 0.0 -7.786051153002e+01 
-1.209741962398e+01 -1.225929140488e+00 0.0 
-1.225929140488e+00 -2.418359637964e+01 0.0 
0.0 0.0 -1.048430480109e+01 
-1.608871355926e+01 -1.255981178913e+00 0.0 
-1.255981178913e+00 -4.300081851568e+01 0.0 
0.0 0.0 -1.732685962248e+01 
-2.467754300781e+01 1.577213297232e+01 0.0 
1.577213297232e+01 -3.583899956157e+01 0.0 
0.0 0.0 -1.775496277081e+01 
-3.801423333398e+01 -2.899662490788e+00 0.0 
-2.899662490788e+00 -1.075709296624e+02 0.0 
0.0 0.0 -4.327554889892e+01 
-9.407098729618e+01 1.308148350812e+01 0.0 
1.308148350812e+01 -1.832072124024e+02 0.0 
0.0 0.0 -8.278345990957e+01 
-3.683925574082e+01 -2.036255796344e+00 0.0 
-2.036255796344e+00 -1.010153289398e+02 0.0 
0.0 0.0 -4.095637540419e+01 
-2.604407481103e+01 1.283088150320e+01 0.0 
1.283088150320e+01 -6.420148098599e+01 0.0 
0.0 0.0 -2.667366673910e+01 
-2.947470731229e+01 -2.154799540069e+00 0.0 
-2.154799540069e+00 -7.811606250622e+01 0.0 
0.0 0.0 -3.187723094555e+01 
-2.615996720880e+01 -3.116192125527e+00 0.0 
-3.116192125527e+00 -6.870235243036e+01 0.0 
0.0 0.0 -2.805869589175e+01 
-1.172914312791e+02 1.268361620397e+01 0.0 
1.268361620397e+01 -3.036668526599e+02 0.0 
0.0 0.0 -1.258874851817e+02 
-6.213059624227e+01 1.626370286216e+01 0.0 
1.626370286216e+01 -9.902928076352e+01 0.0 
0.0 0.0 -4.794796310174e+01 
-1.499192432862e+02 1.977377886853e+00 0.0 
1.977377886853e+00 -3.609807637713e+02 0.0 
0.0 0.0 -1.528700021173e+02 
-1.649901680917e+01 1.812518766689e+00 0.0 
1.812518766689e+00 -8.616001821899e+00 0.0 
0.0 0.0 -8.076205114174e+00 
-2.913183197362e+01 1.296295980748e+01 0.0 
1.296295980748e+01 -8.054085500068e+01 0.0 
0.0 0.0 -3.250180609229e+01 
-4.810766691395e+01 1.309096115686e+01 0.0 
1.309096115686e+01 -1.449387332609e+02 0.0 
0.0 0.0 -5.751392005245e+01 
-3.718781561425e+01 1.808267223170e+01 0.0 
1.808267223170e+01 -6.136287982464e+01 0.0 
0.0 0.0 -2.916520863167e+01 
-1.085434854807e+02 9.422344690920e+00 0.0 
9.422344690920e+00 -2.881651548795e+02 0.0 
0.0 0.0 -1.186125921081e+02 
-1.522651406647e+02 3.834236814692e+00 0.0 
3.834236814692e+00 -3.662989822907e+02 0.0 
0.0 0.0 -1.551692368866e+02 
-9.246110818780e+01 1.665273441482e+01 0.0 
1.665273441482e+01 -1.782077887275e+02 0.0 
0.0 0.0 -8.080066907459e+01 
-3.550526084647e+01 9.101272323411e+00 0.0 
9.101272323411e+00 -1.058744304039e+02 0.0 
0.0 0.0 -4.201390737510e+01 
-1.192841921568e+02 1.382279681694e+01 0.0 
1.382279681694e+01 -3.045320708627e+02 0.0 
0.0 0.0 -1.267448789059e+02 
-1.063112809487e+02 -6.171912562940e-01 0.0 
-6.171912562940e-01 -2.738804148482e+02 0.0 
0.0 0.0 -1.136575087391e+02 
-6.048550744891e+01 2.238126626752e+01 0.0 
2.238126626752e+01 -1.213133584020e+02 0.0 
0.0 0.0 -5.413965975527e+01 
-8.556144255939e+01 1.146439920558e+01 0.0 
1.146439920558e+01 -1.632003232301e+02 0.0 
0.0 0.0 -7.422852973686e+01 
-1.276689448463e+02 2.422152612547e+01 0.0 
2.422152612547e+01 -3.042201939223e+02 0.0 
0.0 0.0 -1.291667416306e+02 
-4.957976859599e+01 1.316091159557e+01 0.0 
1.316091159557e+01 -1.455778502613e+02 0.0 
0.0 0.0 -5.814728565717e+01 
-2.797334517436e+01 1.367322190992e+01 0.0 
1.367322190992e+01 -6.719106999680e+01 0.0 
0.0 0.0 -2.814932455135e+01 
-7.394857065981e+01 1.558987704498e+01 0.0 
1.558987704498e+01 -1.278942182657e+02 0.0 
0.0 0.0 -6.015283667767e+01 
-1.117036903589e+02 9.693415424769e+00 0.0 
9.693415424769e+00 -2.555862965372e+02 0.0 
0.0 0.0 -1.097869960688e+02 
-5.964832043744e+01 2.239987732458e+01 0.0 
2.239987732458e+01 -1.344662942432e+02 0.0 
0.0 0.0 -5.783438440418e+01 
-6.783117805813e+01 1.376323908946e+01 0.0 
1.376323908946e+01 -1.929616504371e+02 0.0 
0.0 0.0 -7.783784854858e+01 
-5.441230391693e+01 5.966264877209e-01 0.0 
5.966264877209e-01 -1.017064999436e+02 0.0 
0.0 0.0 -4.643564115815e+01 
-2.498250693513e+01 -2.651264814147e+00 0.0 
-2.651264814147e+00 -5.742259706544e+01 0.0 
0.0 0.0 -2.432153120017e+01 
-6.362904387630e+01 1.050146164402e+01 0.0 
1.050146164402e+01 -1.049058255010e+02 0.0 
0.0 0.0 -5.016046081319e+01 
-3.398180158740e+01 9.797641049159e+00 0.0 
9.797641049159e+00 -1.053790372525e+02 0.0 
0.0 0.0 -4.140825165198e+01 
-2.618393267824e+01 5.033433761681e+00 0.0 
5.033433761681e+00 -7.617453365715e+01 0.0 
0.0 0.0 -3.030753990062e+01 
-2.415003381796e+01 -1.644372242990e+00 0.0 
-1.644372242990e+00 -6.100052459400e+01 0.0 
0.0 0.0 -2.514516752359e+01 
-9.116954618198e+01 1.053465212496e+01 0.0 
1.053465212496e+01 -1.815041527497e+02 0.0 
0.0 0.0 -8.140210967951e+01 
-7.014538885546e+01 1.706358031881e+01 0.0 
1.706358031881e+01 -1.207321876838e+02 0.0 
0.0 0.0 -5.686327296178e+01 
-3.842161134533e+01 1.679742146379e+01 0.0 
1.679742146379e+01 -1.050540510040e+02 0.0 
0.0 0.0 -4.264269870479e+01 
-9.657822879640e+01 1.253607560430e+01 0.0 
1.253607560430e+01 -1.924609661253e+02 0.0 
0.0 0.0 -8.631175847650e+01 
-9.628917806051e+01 1.855749788556e+01 0.0 
1.855749788556e+01 -1.914116856960e+02 0.0 
0.0 0.0 -8.591025912695e+01 
-6.496464743707e+01 2.167773660825e+01 0.0 
2.167773660825e+01 -1.250721771812e+02 0.0 
0.0 0.0 -5.661104738547e+01 
-1.538283634874e+02 5.863211910112e+00 0.0 
5.863211910112e+00 -3.657425618234e+02 0.0 
0.0 0.0 -1.554712775932e+02 
-7.081448332479e+01 1.239991236842e+01 0.0 
1.239991236842e+01 -2.044241627305e+02 0.0 
0.0 0.0 -8.217159381658e+01 
-6.944811110686e+01 2.055491053035e+01 0.0 
2.055491053035e+01 -1.296422315480e+02 0.0 
0.0 0.0 -5.932710279646e+01 
-5.203595548760e+01 1.822214150167e+01 0.0 
1.822214150167e+01 -1.406181740121e+02 0.0 
0.0 0.0 -5.739623884992e+01 
-7.578044769725e+01 1.470316068103e+01 0.0 
1.470316068103e+01 -2.107158568066e+02 0.0 
0.0 0.0 -8.554889135116e+01 
-3.004762464164e+01 5.512244430032e+00 0.0 
5.512244430032e+00 -9.326978010201e+01 0.0 
0.0 0.0 -3.659522142309e+01 
-5.481979123852e+01 3.191008173839e+00 0.0 
3.191008173839e+00 -8.663120914241e+01 0.0 
0.0 0.0 -4.203530011428e+01 
-5.334579569173e+01 1.191939156863e+01 0.0 
1.191939156863e+01 -1.579073306946e+02 0.0 
0.0 0.0 -6.297593791591e+01 
-4.127372633722e+01 2.095419425170e+00 0.0 
2.095419425170e+00 -1.243299388865e+02 0.0 
0.0 0.0 -4.928109956712e+01 
-8.984890997064e+01 1.364078878355e+01 0.0 
1.364078878355e+01 -1.762891192608e+02 0.0 
0.0 0.0 -7.944140876944e+01 
-2.154141766417e+01 8.638229464570e-01 0.0 
8.638229464570e-01 -6.171459235262e+00 0.0 
0.0 0.0 -7.913863069828e+00 
-6.975123339161e+01 1.308359484383e+01 0.0 
1.308359484383e+01 -1.148691322454e+02 0.0 
0.0 0.0 -5.498610969112e+01 
-3.691787050610e+01 8.341593651672e+00 0.0 
8.341593651672e+00 -1.169493241400e+02 0.0 
0.0 0.0 -4.576015839384e+01 
-3.009952964289e+01 1.210832457530e+01 0.0 
1.210832457530e+01 -8.078177656290e+01 0.0 
0.0 0.0 -3.286439186174e+01 
-3.196664829189e+01 4.755838925596e+00 0.0 
4.755838925596e+00 -9.389696771448e+01 0.0 
0.0 0.0 -3.735908480191e+01 
-7.643103748110e+01 1.442865933605e+01 0.0 
1.442865933605e+01 -1.404511710859e+02 0.0 
0.0 0.0 -6.466466257010e+01 
-1.923770412260e+01 -2.068316858276e+00 0.0 
-2.068316858276e+00 -4.144997222417e+01 0.0 
0.0 0.0 -1.780630290403e+01 
-3.785240963423e+01 1.961278908898e+01 0.0 
1.961278908898e+01 -7.796340518490e+01 0.0 
0.0 0.0 -3.434474444574e+01 
-7.899364189851e+01 1.326231062290e+01 0.0 
1.326231062290e+01 -2.223310046745e+02 0.0 
0.0 0.0 -8.999739397192e+01 
-6.854761112984e+01 1.330713585637e+01 0.0 
1.330713585637e+01 -1.191250330630e+02 0.0 
0.0 0.0 -5.590179325785e+01 
-6.298622890352e+01 5.158474234991e+00 0.0 
5.158474234991e+00 -1.054176211535e+02 0.0 
0.0 0.0 -5.012115501710e+01 
-2.207418265615e+01 3.012994259770e+00 0.0 
3.012994259770e+00 -5.150089517321e+01 0.0 
0.0 0.0 -2.167252334881e+01 
-3.900943427454e+01 2.171249160073e+00 0.0 
2.171249160073e+00 -1.233872623890e+02 0.0 
0.0 0.0 -4.831900899905e+01 
-3.899369140955e+01 6.758955433887e-01 0.0 
6.758955433887e-01 -1.156289630610e+02 0.0 
0.0 0.0 -4.598679634117e+01 
-3.291911099337e+01 2.045422042910e+01 0.0 
2.045422042910e+01 -5.979106903400e+01 0.0 
0.0 0.0 -2.741305400821e+01 
-8.837897973483e+01 1.459213564398e+01 0.0 
1.459213564398e+01 -1.652280796332e+02 0.0 
0.0 0.0 -7.568211781040e+01 
-3.851905858912e+01 2.130704693575e+01 0.0 
2.130704693575e+01 -7.860917488153e+01 0.0 
0.0 0.0 -3.473847004119e+01 
-4.887446965633e+01 9.902265343838e+00 0.0 
9.902265343838e+00 -1.515583214169e+02 0.0 
0.0 0.0 -5.972983732198e+01 
-4.520466245104e+01 1.115893417038e+01 0.0 
1.115893417038e+01 -1.397658840803e+02 0.0 
0.0 0.0 -5.509116395939e+01 
-2.437851520404e+01 3.568175796748e+00 0.0 
3.568175796748e+00 -5.870489869376e+01 0.0 
0.0 0.0 -2.452502416934e+01 
-5.500433981923e+01 1.661212978733e+01 0.0 
1.661212978733e+01 -1.540210673256e+02 0.0 
0.0 0.0 -6.230762214345e+01 
-2.404706047258e+01 1.159601845413e+01 0.0 
1.159601845413e+01 -4.819705699775e+01 0.0 
0.0 0.0 -2.127323524110e+01 
-1.180888782436e+02 1.831255113698e+01 0.0 
1.831255113698e+01 -2.666612541240e+02 0.0 
0.0 0.0 -1.150250397103e+02 
-1.201285691888e+02 2.171324192042e+01 0.0 
2.171324192042e+01 -2.727101392521e+02 0.0 
0.0 0.0 -1.174516125323e+02 
-6.364273940662e+01 2.051025993605e+01 0.0 
2.051025993605e+01 -1.501047585266e+02 0.0 
0.0 0.0 -6.372424937997e+01 
-3.196282968046e+01 7.648039752133e+00 0.0 
7.648039752133e+00 -9.981751524503e+01 0.0 
0.0 0.0 -3.913410347765e+01 
-2.854771769401e+01 9.922421643258e+00 0.0 
9.922421643258e+00 -7.680733819543e+01 0.0 
0.0 0.0 -3.120651676683e+01 
-7.306702863553e+01 1.886330649261e+01 0.0 
1.886330649261e+01 -1.448311085660e+02 0.0 
0.0 0.0 -6.496944116046e+01 
-3.096659437901e+01 8.344047794855e+00 0.0 
8.344047794855e+00 -8.891128835537e+01 0.0 
0.0 0.0 -3.556336482031e+01 
-3.681980582041e+01 5.555753693437e-01 0.0 
5.555753693437e-01 -1.146812647635e+02 0.0 
0.0 0.0 -4.505032117518e+01 
-6.112039156883e+01 1.972186665642e+01 0.0 
1.972186665642e+01 -1.209035039481e+02 0.0 
0.0 0.0 -5.420716865507e+01 
-1.052344638066e+02 6.404895060499e+00 0.0 
6.404895060499e+00 -2.357513518870e+02 0.0 
0.0 0.0 -1.018957447081e+02 
-3.919715406170e+01 1.043563278475e+01 0.0 
1.043563278475e+01 -1.224464019709e+02 0.0 
0.0 0.0 -4.809306680979e+01 
-8.672650875251e+01 1.643652949856e+01 0.0 
1.643652949856e+01 -2.333026992294e+02 0.0 
0.0 0.0 -9.560876239457e+01 
-2.466933974561e+01 1.095556727658e+01 0.0 
1.095556727658e+01 -6.041811275971e+01 0.0 
0.0 0.0 -2.512623575159e+01 
-1.522402760872e+02 1.713628778009e+01 0.0 
1.713628778009e+01 -3.642382160824e+02 0.0 
0.0 0.0 -1.545435476509e+02 
-2.952748359309e+01 9.268696076081e+00 0.0 
9.268696076081e+00 -8.851614563660e+01 0.0 
0.0 0.0 -3.501308876891e+01 
-6.457487574950e+01 2.045454518925e+01 0.0 
2.045454518925e+01 -1.374125989661e+02 0.0 
0.0 0.0 -6.019624241468e+01 
-2.469647863188e+01 3.039669085034e+00 0.0 
3.039669085034e+00 -6.882545930486e+01 0.0 
0.0 0.0 -2.765658138102e+01 
-8.914214311391e+01 9.348986636168e+00 0.0 
9.348986636168e+00 -2.486700371902e+02 0.0 
0.0 0.0 -1.009436540912e+02 
-5.186564835636e+01 1.184036395857e+01 0.0 
1.184036395857e+01 -1.572626339810e+02 0.0 
0.0 0.0 -6.233848470122e+01 
-4.010831473272e+01 5.842013408603e-02 0.0 
5.842013408603e-02 -1.241876013542e+02 0.0 
0.0 0.0 -4.888877482607e+01 
-6.597126155045e+01 1.877507758293e+01 0.0 
1.877507758293e+01 -1.141581409451e+02 0.0 
0.0 0.0 -5.363882074867e+01 
-1.257297930549e+02 2.606795282550e+01 0.0 
2.606795282550e+01 -2.888497816048e+02 0.0 
0.0 0.0 -1.239738723979e+02 
-4.256626361949e+01 9.109738612855e+00 0.0 
9.109738612855e+00 -1.341870949949e+02 0.0 
0.0 0.0 -5.262600758431e+01 
-8.044873569722e+01 1.391200102274e+01 0.0 
1.391200102274e+01 -2.230796474734e+02 0.0 
0.0 0.0 -9.065851495120e+01 
-2.526299556631e+01 9.506690870684e+00 0.0 
9.506690870684e+00 -6.038698633880e+01 0.0 
0.0 0.0 -2.529499457153e+01 
-7.321772119469e+01 3.675897236796e+00 0.0 
3.675897236796e+00 -1.382021458647e+02 0.0 
0.0 0.0 -6.302596011782e+01 
-1.043180993834e+02 7.905117219321e+00 0.0 
7.905117219321e+00 -2.796929366722e+02 0.0 
0.0 0.0 -1.148033108167e+02 
-2.967541579632e+01 1.555951986308e+01 0.0 
1.555951986308e+01 -6.994697017561e+01 0.0 
0.0 0.0 -2.948671579158e+01 
-7.103704748216e+01 4.625641554524e+00 0.0 
4.625641554524e+00 -1.299618505981e+02 0.0 
0.0 0.0 -5.989966942406e+01 
-1.311681884229e+02 2.821992628735e+01 0.0 
2.821992628735e+01 -3.059095948417e+02 0.0 
0.0 0.0 -1.307233349794e+02 
-1.142253497708e+02 9.057019671308e+00 0.0 
9.057019671308e+00 -2.985365518594e+02 0.0 
0.0 0.0 -1.234285704890e+02 
-1.241639355260e+02 2.478788143852e+01 0.0 
2.478788143852e+01 -2.833361253866e+02 0.0 
0.0 0.0 -1.218500182738e+02 
-7.273267327351e+01 6.183155236679e+00 0.0 
6.183155236679e+00 -1.293755698894e+02 0.0 
0.0 0.0 -6.023247294889e+01 
-9.614029386525e+01 2.083269663380e+01 0.0 
2.083269663380e+01 -1.976540925836e+02 0.0 
0.0 0.0 -8.773831593466e+01 
-2.654720063773e+01 1.509287754195e+01 0.0 
1.509287754195e+01 -5.288979190729e+01 0.0 
0.0 0.0 -2.343109776350e+01 
-5.808433654153e+01 1.819264329560e+01 0.0 
1.819264329560e+01 -9.302108935731e+01 0.0 
0.0 0.0 -4.493162776965e+01 
-6.935134365568e+01 1.721438683254e+01 0.0 
1.721438683254e+01 -1.289189652097e+02 0.0 
0.0 0.0 -5.908109265961e+01 
-7.376290901803e+01 1.919078258577e+01 0.0 
1.919078258577e+01 -1.352605285393e+02 0.0 
0.0 0.0 -6.230703126721e+01 
-5.564582774840e+01 2.177578673688e+01 0.0 
2.177578673688e+01 -1.317481129834e+02 0.0 
0.0 0.0 -5.581818221955e+01 
-1.351826565683e+02 2.834048813675e+01 0.0 
2.834048813675e+01 -3.179722548148e+02 0.0 
0.0 0.0 -1.355464734149e+02 
-6.964920103764e+01 6.306810320657e+00 0.0 
6.306810320657e+00 -1.206544125852e+02 0.0 
0.0 0.0 -5.669108408685e+01 
-6.161777086617e+01 1.153265626378e+01 0.0 
1.153265626378e+01 -9.419225537953e+01 0.0 
0.0 0.0 -4.634300787371e+01 
-4.678235499505e+01 1.097735275788e+01 0.0 
1.097735275788e+01 -1.403952383681e+02 0.0 
0.0 0.0 -5.575327800893e+01 
-3.201344280573e+01 -3.136536546656e+00 0.0 
-3.136536546656e+00 -8.832189408534e+01 0.0 
0.0 0.0 -3.570060106732e+01 
-5.412793265865e+01 1.518974106271e+01 0.0 
1.518974106271e+01 -7.801467872340e+01 0.0 
0.0 0.0 -3.924278341461e+01 
-3.077521317687e+01 1.467748149922e+01 0.0 
1.467748149922e+01 -8.384684597198e+01 0.0 
0.0 0.0 -3.398661774465e+01 
-4.702874648183e+01 2.820394902131e-01 0.0 
2.820394902131e-01 -8.411517862023e+01 0.0 
0.0 0.0 -3.894317753062e+01 
-4.233556385877e+01 2.246410715748e-01 0.0 
2.246410715748e-01 -1.251674284025e+02 0.0 
0.0 0.0 -4.985089767838e+01 
-4.080801110958e+01 1.001274354981e+01 0.0 
1.001274354981e+01 -1.230436684669e+02 0.0 
0.0 0.0 -4.875550387296e+01 
-9.269793492527e+01 1.296598228916e+01 0.0 
1.296598228916e+01 -1.847942362450e+02 0.0 
0.0 0.0 -8.284765135107e+01 
-3.191158117848e+01 1.425829208255e+01 0.0 
1.425829208255e+01 -8.425179762560e+01 0.0 
0.0 0.0 -3.444901364122e+01 
-6.138144089071e+01 1.666135536181e+01 0.0 
1.666135536181e+01 -1.079772551162e+02 0.0 
0.0 0.0 -5.040760880207e+01 
-8.358438046565e+01 1.243248334879e+01 0.0 
1.243248334879e+01 -2.340048645203e+02 0.0 
0.0 0.0 -9.487677349580e+01 
-7.918229135585e+01 3.013693181904e+00 0.0 
3.013693181904e+00 -2.246181970392e+02 0.0 
0.0 0.0 -9.074014651853e+01 
-1.413553536184e+02 2.643258249796e+01 0.0 
2.643258249796e+01 -3.355852402036e+02 0.0 
0.0 0.0 -1.426821781466e+02 
-4.561611793961e+01 1.956385265448e+01 0.0 
1.956385265448e+01 -6.701013256003e+01 0.0 
0.0 0.0 -3.338787514989e+01 
-3.574479917256e+01 3.057097116819e+00 0.0 
3.057097116819e+00 -1.135281601767e+02 0.0 
0.0 0.0 -4.438188780478e+01 
-5.597255924105e+01 -4.647290051158e-02 0.0 
-4.647290051158e-02 -1.602061000962e+02 0.0 
0.0 0.0 -6.445359780117e+01 
-2.901758023330e+01 1.773737781126e+01 0.0 
1.773737781126e+01 -5.577957265873e+01 0.0 
0.0 0.0 -2.503914586761e+01 
-2.880237056340e+01 1.584261240340e+01 0.0 
1.584261240340e+01 -6.961952126174e+01 0.0 
0.0 0.0 -2.912656754754e+01 
-1.030791100700e+02 1.958046201865e+01 0.0 
1.958046201865e+01 -2.129075114195e+02 0.0 
0.0 0.0 -9.439598644686e+01 
-6.834390334325e+01 2.238008361173e+01 0.0 
2.238008361173e+01 -1.411108263180e+02 0.0 
0.0 0.0 -6.243641889839e+01 
-3.818286993521e+01 2.117677986669e+01 0.0 
2.117677986669e+01 -6.215531406743e+01 0.0 
0.0 0.0 -2.970145520079e+01 
-5.320975891409e+01 1.589011407411e+01 0.0 
1.589011407411e+01 -8.690701576763e+01 0.0 
0.0 0.0 -4.163503240452e+01 
-1.475144371076e+02 2.149162440163e+01 0.0 
2.149162440163e+01 -3.534077090551e+02 0.0 
0.0 0.0 -1.498766438488e+02 
-1.368507816939e+02 2.102425449510e+01 0.0 
2.102425449510e+01 -3.331143908924e+02 0.0 
0.0 0.0 -1.405895517759e+02 
-1.006935884458e+02 1.681810456367e+01 0.0 
1.681810456367e+01 -2.110452695978e+02 0.0 
0.0 0.0 -9.312165741307e+01 
-9.150130669940e+01 1.378213235208e+01 0.0 
1.378213235208e+01 -1.743198169167e+02 0.0 
0.0 0.0 -7.934633708484e+01 
-7.681550223119e+01 4.115709841467e+00 0.0 
4.115709841467e+00 -2.162878520675e+02 0.0 
0.0 0.0 -8.753100628962e+01 
-4.189828502684e+01 2.093093554988e+01 0.0 
2.093093554988e+01 -9.510372483958e+01 0.0 
0.0 0.0 -4.070060295993e+01 
-3.372222446305e+01 6.891226041721e+00 0.0 
6.891226041721e+00 -1.003908946112e+02 0.0 
0.0 0.0 -3.983393572227e+01 
-3.870498705689e+01 7.812366814033e+00 0.0 
7.812366814033e+00 -1.175906962889e+02 0.0 
0.0 0.0 -4.648870500374e+01 
-6.390247619846e+01 2.263276057122e+01 0.0 
2.263276057122e+01 -1.375873286531e+02 0.0 
0.0 0.0 -6.004694145547e+01 
-8.621823683895e+01 1.074223400442e+01 0.0 
1.074223400442e+01 -2.390453200823e+02 0.0 
0.0 0.0 -9.717906707637e+01 
-7.079801159638e+01 6.560498303670e-01 0.0 
6.560498303670e-01 -1.946041136880e+02 0.0 
0.0 0.0 -7.922063758532e+01 
-9.931160796801e+01 1.444143090230e+01 0.0 
1.444143090230e+01 -2.061422050185e+02 0.0 
0.0 0.0 -9.123614389596e+01 
-3.795738847041e+01 2.734548768846e+00 0.0 
2.734548768846e+00 -1.143936133237e+02 0.0 
0.0 0.0 -4.530530053823e+01 
-5.192300476467e+01 2.069303108325e+01 0.0 
2.069303108325e+01 -1.290993103015e+02 0.0 
0.0 0.0 -5.390669451986e+01 
-6.527824867198e+01 1.857306122382e+01 0.0 
1.857306122382e+01 -1.243483615040e+02 0.0 
0.0 0.0 -5.648798305281e+01 
-4.516308935499e+01 2.022376512790e+01 0.0 
2.022376512790e+01 -1.110785805023e+02 0.0 
0.0 0.0 -4.647250095718e+01 
-1.229079297713e+02 2.341754543362e+01 0.0 
2.341754543362e+01 -2.782922600329e+02 0.0 
0.0 0.0 -1.199600569413e+02 
-1.183587928021e+02 1.971924263126e+01 0.0 
1.971924263126e+01 -2.690433547201e+02 0.0 
0.0 0.0 -1.158206442567e+02 
-1.141650733997e+02 1.997934653000e+01 0.0 
1.997934653000e+01 -2.487546309643e+02 0.0 
0.0 0.0 -1.084759113092e+02 
-8.482992823754e+01 5.270322029967e+00 0.0 
5.270322029967e+00 -2.347648476820e+02 0.0 
0.0 0.0 -9.547843277587e+01 
-9.365607297976e+01 1.014176646486e+01 0.0 
1.014176646486e+01 -1.907803037698e+02 0.0 
0.0 0.0 -8.493091302485e+01 
-2.740439689030e+01 1.446101503772e+01 0.0 
1.446101503772e+01 -6.707963530216e+01 0.0 
0.0 0.0 -2.794520965774e+01 
-4.434003325587e+01 8.799581788757e+00 0.0 
8.799581788757e+00 -1.348705391255e+02 0.0 
0.0 0.0 -5.336317171442e+01 
-2.793250095637e+01 3.971713021416e+00 0.0 
3.971713021416e+00 -7.665463048584e+01 0.0 
0.0 0.0 -3.097613943266e+01 
-4.161772247156e+01 2.182066910241e+01 0.0 
2.182066910241e+01 -8.013141140112e+01 0.0 
0.0 0.0 -3.612474016180e+01 
-5.420998381443e+01 2.579863847065e+00 0.0 
2.579863847065e+00 -8.616707703091e+01 0.0 
0.0 0.0 -4.171311825360e+01 
-6.986984661929e+01 3.630785186035e+00 0.0 
3.630785186035e+00 -1.278093547513e+02 0.0 
0.0 0.0 -5.890376041117e+01 
-1.419472536188e+02 1.664639522345e+01 0.0 
1.664639522345e+01 -3.471682301751e+02 0.0 
0.0 0.0 -1.463346451382e+02 
-1.012050243832e+02 1.891925078536e+01 0.0 
1.891925078536e+01 -2.170619239773e+02 0.0 
0.0 0.0 -9.508008450817e+01 
-7.201474749777e+01 1.198982210744e+01 0.0 
1.198982210744e+01 -1.262879025116e+02 0.0 
0.0 0.0 -5.909079500283e+01 
-7.691560921697e+01 1.770833818026e+01 0.0 
1.770833818026e+01 -1.495752842248e+02 0.0 
0.0 0.0 -6.754726803253e+01 
-2.840531746589e+01 3.541985921582e+00 0.0 
3.541985921582e+00 -8.614086828166e+01 0.0 
0.0 0.0 -3.396385572426e+01 
-2.106792641089e+01 -2.603907389466e+00 0.0 
-2.603907389466e+00 -4.211532287756e+01 0.0 
0.0 0.0 -1.855497478654e+01 
-5.134591480846e+01 1.491844867287e+01 0.0 
1.491844867287e+01 -1.496329921671e+02 0.0 
0.0 0.0 -5.989367209267e+01 
-5.921266405917e+01 2.104977468646e+01 0.0 
2.104977468646e+01 -1.471314519967e+02 0.0 
0.0 0.0 -6.150323481675e+01 
-5.572719338532e+01 1.705209366446e+01 0.0 
1.705209366446e+01 -1.544178073680e+02 0.0 
0.0 0.0 -6.264350022599e+01 
-2.224180234408e+01 1.220717887649e+01 0.0 
1.220717887649e+01 -2.986015679403e+01 0.0 
0.0 0.0 -1.523058774143e+01 
-5.346182694445e+01 6.895681468084e-03 0.0 
6.895681468084e-03 -1.006898342726e+02 0.0 
0.0 0.0 -4.584549836512e+01 
-3.057060387498e+01 -2.187921523590e+00 0.0 
-2.187921523590e+00 -8.117001450611e+01 0.0 
0.0 0.0 -3.312218551433e+01 
-3.136408509691e+01 1.132749929724e+01 0.0 
1.132749929724e+01 -9.326197974395e+01 0.0 
0.0 0.0 -3.698781945226e+01 
-1.556551932556e+02 1.711858298693e+01 0.0 
1.711858298693e+01 -3.645287842632e+02 0.0 
0.0 0.0 -1.556551932556e+02 
-9.299354042760e+01 1.669405614054e+01 0.0 
1.669405614054e+01 -2.471366304860e+02 0.0 
0.0 0.0 -1.016390512741e+02 
-5.836325835441e+01 7.647607108300e+00 0.0 
7.647607108300e+00 -9.212793531366e+01 0.0 
0.0 0.0 -4.474735810042e+01 
-2.217278421477e+01 -8.676089478788e-01 0.0 
-8.676089478788e-01 -5.930702177253e+01 0.0 
0.0 0.0 -2.404394179619e+01 
-5.593710182691e+01 2.041865507272e+01 0.0 
2.041865507272e+01 -1.316052667265e+02 0.0 
0.0 0.0 -5.586271056603e+01 
-5.252194124026e+01 1.515666564278e+01 0.0 
1.515666564278e+01 -1.501802313194e+02 0.0 
0.0 0.0 -6.041065176791e+01 
-7.774341214339e+01 1.783233960946e+01 0.0 
1.783233960946e+01 -1.416278397929e+02 0.0 
0.0 0.0 -6.541137558088e+01 
-1.271984705936e+02 2.684981619861e+01 0.0 
2.684981619861e+01 -2.943281133770e+02 0.0 
0.0 0.0 -1.260579751912e+02 
-5.695517916861e+01 1.393224252630e+01 0.0 
1.393224252630e+01 -9.185248840944e+01 0.0 
0.0 0.0 -4.424230027342e+01 
-7.278693490841e+01 2.174245118682e+01 0.0 
2.174245118682e+01 -1.452414505672e+02 0.0 
0.0 0.0 -6.500851564269e+01 
-6.922576084272e+01 -6.327174350456e-01 0.0 
-6.327174350456e-01 -1.936613083678e+02 0.0 
0.0 0.0 -7.846612076315e+01 
-9.535572769014e+01 1.252115847248e+01 0.0 
1.252115847248e+01 -1.935741947512e+02 0.0 
0.0 0.0 -8.627897673242e+01 
-8.750112966687e+01 4.068033642419e+00 0.0 
4.068033642419e+00 -2.433325576204e+02 0.0 
0.0 0.0 -9.885010618618e+01 
-1.296890262803e+02 2.788948286769e+01 0.0 
2.788948286769e+01 -3.001056437664e+02 0.0 
0.0 0.0 -1.285384010140e+02 
-1.189871408369e+02 2.278798216746e+01 0.0 
2.278798216746e+01 -2.789699952860e+02 0.0 
0.0 0.0 -1.189871408369e+02 
-1.119925939189e+02 1.657294513843e+01 0.0 
1.657294513843e+01 -2.626493858107e+02 0.0 
0.0 0.0 -1.119925939189e+02 
-1.143662342730e+02 1.966713448754e+01 0.0 
1.966713448754e+01 -2.681878799703e+02 0.0 
0.0 0.0 -1.143662342730e+02 
-8.053441371782e+01 1.652097823865e+01 0.0 
1.652097823865e+01 -1.551294927682e+02 0.0 
0.0 0.0 -7.029917194582e+01 
-9.811926852664e+01 1.504818985595e+01 0.0 
1.504818985595e+01 -1.952205388427e+02 0.0 
0.0 0.0 -8.760194221079e+01 
-1.045108855028e+02 1.867894790220e+01 0.0 
1.867894790220e+01 -2.252085350052e+02 0.0 
0.0 0.0 -9.851582615242e+01 
-4.466099601527e+01 1.937348431234e+01 0.0 
1.937348431234e+01 -1.107166193358e+02 0.0 
0.0 0.0 -4.621328460532e+01 
-4.114268791067e+01 1.969029560257e+01 0.0 
1.969029560257e+01 -9.455862452325e+01 0.0 
0.0 0.0 -4.031039373018e+01 
-6.702211557776e+01 2.338855149544e-01 0.0 
2.338855149544e-01 -1.839871573961e+02 0.0 
0.0 0.0 -7.490278189216e+01 
-1.020935093142e+02 1.712714517712e+01 0.0 
1.712714517712e+01 -2.078910791168e+02 0.0 
0.0 0.0 -9.259537652929e+01 
-1.331010772419e+02 2.845114355228e+01 0.0 
2.845114355228e+01 -3.118731106727e+02 0.0 
0.0 0.0 -1.330922563744e+02 
-9.771534512491e+01 1.199907441395e+01 0.0 
1.199907441395e+01 -2.023734111873e+02 0.0 
0.0 0.0 -8.962662689368e+01 
-8.418780409723e+01 1.568175103850e+01 0.0 
1.568175103850e+01 -2.288182457364e+02 0.0 
0.0 0.0 -9.350181495009e+01 
-1.004898620325e+02 1.441862110480e+01 0.0 
1.441862110480e+01 -2.040245967055e+02 0.0 
0.0 0.0 -9.095433762140e+01 
-9.119936744540e+01 2.223926651035e+01 0.0 
2.223926651035e+01 -2.209745142169e+02 0.0 
0.0 0.0 -9.325216449869e+01 
-5.538904441236e+01 1.901987060022e+01 0.0 
1.901987060022e+01 -1.438383179907e+02 0.0 
0.0 0.0 -5.936820872092e+01 
-4.129024419048e+01 1.968153456505e+01 0.0 
1.968153456505e+01 -7.967139420616e+01 0.0 
0.0 0.0 -3.588849151899e+01 
-2.596566295613e+01 8.936902737323e+00 0.0 
8.936902737323e+00 -7.189529665403e+01 0.0 
0.0 0.0 -2.895828788305e+01 
-1.048599912985e+02 1.020818409578e+01 0.0 
1.020818409578e+01 -2.380976154601e+02 0.0 
0.0 0.0 -1.024872820276e+02 
-4.137398612490e+01 1.827143489491e+01 0.0 
1.827143489491e+01 -1.081993454639e+02 0.0 
0.0 0.0 -4.447199947665e+01 
-1.208303103183e+02 2.402629179728e+01 0.0 
2.402629179728e+01 -2.833920665747e+02 0.0 
0.0 0.0 -1.208667130679e+02 
-6.560486563122e+01 -1.111096895544e+00 0.0 
-1.111096895544e+00 -1.830975237018e+02 0.0 
0.0 0.0 -7.421071679991e+01 
-3.989380169875e+01 -8.696825906091e-01 0.0 
-8.696825906091e-01 -1.155491028991e+02 0.0 
0.0 0.0 -4.623287137936e+01 
-1.462973387894e+02 1.512126560499e+01 0.0 
1.512126560499e+01 -3.506914113592e+02 0.0 
0.0 0.0 -1.486966250446e+02 
-3.335009361886e+01 1.329314608261e+01 0.0 
1.329314608261e+01 -9.729268016439e+01 0.0 
0.0 0.0 -3.879283213498e+01 
-1.213674948524e+02 2.413705663195e+01 0.0 
2.413705663195e+01 -2.845241546555e+02 0.0 
0.0 0.0 -1.213674948524e+02 
-1.106673357722e+02 1.728219586059e+01 0.0 
1.728219586059e+01 -2.491098686583e+02 0.0 
0.0 0.0 -1.075331613292e+02 
-7.233181686380e+01 2.049499076129e+01 0.0 
2.049499076129e+01 -1.567292521255e+02 0.0 
0.0 0.0 -6.831832069679e+01 
-1.440433827404e+01 -1.844903644711e+00 0.0 
-1.844903644711e+00 -2.480686468505e+01 0.0 
0.0 0.0 -1.179040971655e+01 
-1.262849521542e+02 2.595631076924e+01 0.0 
2.595631076924e+01 -2.959982216932e+02 0.0 
0.0 0.0 -1.262849521542e+02 
-1.436257421084e+02 1.798076988803e+01 0.0 
1.798076988803e+01 -3.440036819587e+02 0.0 
0.0 0.0 -1.458888272201e+02 
-3.777143126904e+01 -1.228003051068e+00 0.0 
-1.228003051068e+00 -1.145720509841e+02 0.0 
0.0 0.0 -4.530304467595e+01 
-8.901267175258e+01 1.495369749185e+01 0.0 
1.495369749185e+01 -2.411807899276e+02 0.0 
0.0 0.0 -9.865803850406e+01 
-1.428351129391e+02 2.532267368912e+01 0.0 
2.532267368912e+01 -3.404884940894e+02 0.0 
0.0 0.0 -1.445970821085e+02 
-1.087217497400e+01 -7.505010976804e-01 0.0 
-7.505010976804e-01 -8.885735826285e+00 0.0 
0.0 0.0 -6.497286382874e+00 
-4.821193661226e+01 1.870305477837e+01 0.0 
1.870305477837e+01 -1.261056337745e+02 0.0 
0.0 0.0 -5.189527111602e+01 
-7.659733295455e+01 1.994099320968e+01 0.0 
1.994099320968e+01 -1.606035809447e+02 0.0 
0.0 0.0 -7.076027416979e+01 
-6.798376034087e+01 2.070160306319e+01 0.0 
2.070160306319e+01 -1.533049623918e+02 0.0 
0.0 0.0 -6.598661681980e+01 
-6.887017173712e+01 1.983010447396e+01 0.0 
1.983010447396e+01 -1.408226280207e+02 0.0 
0.0 0.0 -6.250783992736e+01 
-2.744685479274e+01 1.097360025817e+01 0.0 
1.097360025817e+01 -7.656722676289e+01 0.0 
0.0 0.0 -3.080422446669e+01 
-1.316912976736e+02 2.689294961925e+01 0.0 
2.689294961925e+01 -3.086130279052e+02 0.0 
0.0 0.0 -1.316912976736e+02 
-5.056536795133e+01 9.815764676296e+00 0.0 
9.815764676296e+00 -1.522549545060e+02 0.0 
0.0 0.0 -6.044609673719e+01 
-2.342521039413e+01 1.353448172466e+00 0.0 
1.353448172466e+00 -5.167436231413e+01 0.0 
0.0 0.0 -2.212987181248e+01 
-1.507915528730e+02 6.513438674827e+00 0.0 
6.513438674827e+00 -3.641867275332e+02 0.0 
0.0 0.0 -1.540934841219e+02 
-1.650863999347e+01 -1.764984978834e+00 0.0 
-1.764984978834e+00 -2.522272572769e+01 0.0 
0.0 0.0 -1.211940971635e+01 
-4.924341154955e+01 1.776799876285e+01 0.0 
1.776799876285e+01 -8.357570374068e+01 0.0 
0.0 0.0 -3.944573458707e+01 
-2.290686519856e+01 -2.158720016879e+00 0.0 
-2.158720016879e+00 -5.844584551730e+01 0.0 
0.0 0.0 -2.400581321476e+01 
-5.171694040313e+01 1.041158475128e+01 0.0 
1.041158475128e+01 -7.612416677891e+01 0.0 
0.0 0.0 -3.795233215461e+01 
-1.492683245060e+02 2.003526828120e+01 0.0 
2.003526828120e+01 -3.573374262494e+02 0.0 
0.0 0.0 -1.515817252266e+02 
-1.373146206898e+02 2.667563013549e+01 0.0 
2.667563013549e+01 -3.217341149428e+02 0.0 
0.0 0.0 -1.373146206898e+02 
-7.295545055260e+01 1.576067176665e+01 0.0 
1.576067176665e+01 -1.342359523348e+02 0.0 
0.0 0.0 -6.175742086621e+01 
-1.895556614725e+01 -2.374004718112e+00 0.0 
-2.374004718112e+00 -4.189701830265e+01 0.0 
0.0 0.0 -1.785577533497e+01 
-2.075928827726e+01 9.320551836900e-01 0.0 
9.320551836900e-01 -4.272869836079e+01 0.0 
0.0 0.0 -1.864639599141e+01 
-2.580457588589e+01 -2.491505561789e+00 0.0 
-2.491505561789e+00 -5.796979142397e+01 0.0 
0.0 0.0 -2.473231019296e+01 
-1.267826772921e+02 7.598432830027e+00 0.0 
7.598432830027e+00 -3.189847003629e+02 0.0 
0.0 0.0 -1.333302132965e+02 
-5.406504347571e+01 2.962497248038e+00 0.0 
2.962497248038e+00 -8.693391415448e+01 0.0 
0.0 0.0 -4.189968728906e+01 
-6.488598315664e+01 1.044427611024e+01 0.0 
1.044427611024e+01 -1.023623805525e+02 0.0 
0.0 0.0 -4.977450911273e+01 
-1.424793869956e+02 2.558769279494e+01 0.0 
2.558769279494e+01 -3.337852363231e+02 0.0 
0.0 0.0 -1.424793869956e+02 
-5.254073867026e+01 2.443366154379e+00 0.0 
2.443366154379e+00 -8.631245229433e+01 0.0 
0.0 0.0 -4.125595728938e+01 
-1.159345610424e+02 1.636459835699e+01 0.0 
1.636459835699e+01 -2.635908180636e+02 0.0 
0.0 0.0 -1.134576137318e+02 
-9.495916642363e+01 2.040902705374e+01 0.0 
2.040902705374e+01 -2.346664975880e+02 0.0 
0.0 0.0 -9.848769920349e+01 
-6.494903320486e+01 2.350554660120e+00 0.0 
2.350554660120e+00 -1.178184740688e+02 0.0 
0.0 0.0 -5.443025218209e+01 
-3.031842571220e+01 1.730077301311e+01 0.0 
1.730077301311e+01 -7.158560651576e+01 0.0 
0.0 0.0 -3.017120966839e+01 
-8.754213917183e+01 1.412886130463e+01 0.0 
1.412886130463e+01 -2.403915667771e+02 0.0 
0.0 0.0 -9.798011178467e+01 
-2.613622924144e+01 5.445246553952e+00 0.0 
5.445246553952e+00 -6.667826284719e+01 0.0 
0.0 0.0 -2.744434762659e+01 
-1.468973477525e+02 2.368382908585e+01 0.0 
2.368382908585e+01 -3.440938114226e+02 0.0 
0.0 0.0 -1.468973477525e+02 
-1.165976861461e+02 2.118174570328e+01 0.0 
2.118174570328e+01 -2.733946010076e+02 0.0 
0.0 0.0 -1.165976861461e+02 
-1.132389119461e+02 1.818401397417e+01 0.0 
1.818401397417e+01 -2.655574612076e+02 0.0 
0.0 0.0 -1.132389119461e+02 
-8.952600390209e+01 5.114066960632e+00 0.0 
5.114066960632e+00 -2.444134555965e+02 0.0 
0.0 0.0 -9.978183784957e+01 
-6.318443228613e+01 -4.274633331093e-02 0.0 
-4.274633331093e-02 -1.731634662197e+02 0.0 
0.0 0.0 -7.050436955175e+01 
-5.549094036034e+01 1.978520210274e+01 0.0 
1.978520210274e+01 -1.440494939015e+02 0.0 
0.0 0.0 -5.946213027855e+01 
-9.226935670854e+01 3.838937311874e+00 0.0 
3.838937311874e+00 -2.526894651558e+02 0.0 
0.0 0.0 -1.030876465593e+02 
-1.506146233397e+02 2.131690115343e+01 0.0 
2.131690115343e+01 -3.527674544593e+02 0.0 
0.0 0.0 -1.506146233397e+02 
-3.261546868298e+01 1.055916616471e+01 0.0 
1.055916616471e+01 -9.362856495724e+01 0.0 
0.0 0.0 -3.747321009207e+01 
-4.241055530529e+01 1.478965152383e+00 0.0 
1.478965152383e+00 -1.329883977739e+02 0.0 
0.0 0.0 -5.221968592377e+01 
-4.593531605755e+01 9.798488911994e-01 0.0 
9.798488911994e-01 -1.423741199780e+02 0.0 
0.0 0.0 -5.609283081067e+01 
-6.869679046104e+01 2.551833892897e+00 0.0 
2.551833892897e+00 -1.286281627378e+02 0.0 
0.0 0.0 -5.879748595966e+01 
-1.536039481154e+02 1.570428094807e+01 0.0 
1.570428094807e+01 -3.671386604388e+02 0.0 
0.0 0.0 -1.558227825663e+02 
-2.287376351063e+01 -2.426745824389e+00 0.0 
-2.426745824389e+00 -4.162907295434e+01 0.0 
0.0 0.0 -1.895085093949e+01 
-1.541010425243e+02 1.846139564868e+01 0.0 
1.846139564868e+01 -3.609024325566e+02 0.0 
0.0 0.0 -1.541010425243e+02 
-4.341999800816e+01 -3.962532947243e-01 0.0 
-3.962532947243e-01 -1.331221583043e+02 0.0 
0.0 0.0 -5.256264689374e+01 
-1.240081633393e+02 2.525172214965e+01 0.0 
2.525172214965e+01 -2.906857144584e+02 0.0 
0.0 0.0 -1.240081633393e+02 
-1.069662064287e+02 2.128560143576e+01 0.0 
2.128560143576e+01 -2.268836889639e+02 0.0 
0.0 0.0 -9.975496861778e+01 
-1.269428608798e+01 -7.238963094959e-01 0.0 
-7.238963094959e-01 -7.910100569279e+00 0.0 
0.0 0.0 -5.781315997177e+00 
-5.154118097548e+01 1.769505799044e+01 0.0 
1.769505799044e+01 -1.402941091188e+02 0.0 
0.0 0.0 -5.715058702829e+01 
-9.901143712770e+01 1.206956046080e+01 0.0 
1.206956046080e+01 -2.020912632010e+02 0.0 
0.0 0.0 -8.993081009862e+01 
-1.290886721498e+02 2.662847743790e+01 0.0 
2.662847743790e+01 -3.025402350163e+02 0.0 
0.0 0.0 -1.290886721498e+02 
-8.132137860811e+01 1.965851687074e+01 0.0 
1.965851687074e+01 -1.560548008336e+02 0.0 
0.0 0.0 -7.081285383251e+01 
-9.913089752880e+01 2.004221973239e+01 0.0 
2.004221973239e+01 -2.484215215185e+02 0.0 
0.0 0.0 -1.038657257142e+02 
-2.320169955410e+01 8.857735853045e+00 0.0 
8.857735853045e+00 -5.570128125494e+01 0.0 
0.0 0.0 -2.327089424271e+01 
-1.350542015597e+02 1.612087655701e+01 0.0 
1.612087655701e+01 -3.308091053814e+02 0.0 
0.0 0.0 -1.393589920823e+02 
-4.693307643932e+01 -6.326981258621e-01 0.0 
-6.326981258621e-01 -1.420811134969e+02 0.0 
0.0 0.0 -5.630425698087e+01 
-4.815457552382e+01 1.209932653274e+00 0.0 
1.209932653274e+00 -1.433611167419e+02 0.0 
0.0 0.0 -5.705470767971e+01 
-2.038536863937e+01 -1.904560124002e+00 0.0 
-1.904560124002e+00 -2.581643129750e+01 0.0 
0.0 0.0 -1.346053998106e+01 
-1.344740346753e+02 2.689820949998e+01 0.0 
2.689820949998e+01 -3.151060809090e+02 0.0 
0.0 0.0 -1.344740346753e+02 
-2.948011603891e+01 6.109274188270e+00 0.0 
6.109274188270e+00 -8.334362068836e+01 0.0 
0.0 0.0 -3.344712101818e+01 
-1.205889363171e+02 1.185890396209e+01 0.0 
1.185890396209e+01 -3.080872843000e+02 0.0 
0.0 0.0 -1.282028661851e+02 
-6.207486728584e+01 3.584318222267e+00 0.0 
3.584318222267e+00 -1.084206270737e+02 0.0 
0.0 0.0 -5.074864830787e+01 
-4.328928707265e+01 -1.514507050671e+00 0.0 
-1.514507050671e+00 -1.228903131102e+02 0.0 
0.0 0.0 -4.945388005486e+01 
-4.463122939944e+01 1.619980860658e+00 0.0 
1.619980860658e+00 -1.339597866346e+02 0.0 
0.0 0.0 -5.317730481023e+01 
-7.717356163456e+01 2.076435918896e+01 0.0 
2.076435918896e+01 -1.502763989730e+02 0.0 
0.0 0.0 -6.783498818226e+01 
-1.447882680583e+02 2.477983196701e+01 0.0 
2.477983196701e+01 -3.391726254694e+02 0.0 
0.0 0.0 -1.447882680583e+02 
-6.565210543382e+01 -1.209278941703e+00 0.0 
-1.209278941703e+00 -1.811438110948e+02 0.0 
0.0 0.0 -7.363877495858e+01 
-1.022121450456e+02 7.600649086849e+00 0.0 
7.600649086849e+00 -2.720417246020e+02 0.0 
0.0 0.0 -1.118761608943e+02 
-6.712336493507e+01 2.008450159402e+01 0.0 
2.008450159402e+01 -1.651757420805e+02 0.0 
0.0 0.0 -6.928973210467e+01 
-8.726319832207e+01 8.519050143405e+00 0.0 
8.519050143405e+00 -2.417394349990e+02 0.0 
0.0 0.0 -9.830078999632e+01 
-4.696405523043e+01 3.149155978508e+00 0.0 
3.149155978508e+00 -1.421819805171e+02 0.0 
0.0 0.0 -5.634381072425e+01 
-9.328551131608e+01 6.432250857368e+00 0.0 
6.432250857368e+00 -2.533372374896e+02 0.0 
0.0 0.0 -1.035868246417e+02 
-6.320839815704e+01 2.195416439035e+01 0.0 
2.195416439035e+01 -1.501961170984e+02 0.0 
0.0 0.0 -6.362135457664e+01 
-9.143781612739e+01 2.297166737576e+01 0.0 
2.297166737576e+01 -2.107233118653e+02 0.0 
0.0 0.0 -9.024833839781e+01 
-9.650602522706e+01 1.503637813403e+01 0.0 
1.503637813403e+01 -2.585667012550e+02 0.0 
0.0 0.0 -1.061218179446e+02 
-6.291769740650e+01 1.925759090448e+01 0.0 
1.925759090448e+01 -1.617048221428e+02 0.0 
0.0 0.0 -6.698675586478e+01 
-6.523582224897e+01 -7.559940447467e-01 0.0 
-7.559940447467e-01 -1.848371640997e+02 0.0 
0.0 0.0 -7.462189590460e+01 
-3.446476462621e+01 1.272383317334e+01 0.0 
1.272383317334e+01 -9.764839105854e+01 0.0 
0.0 0.0 -3.923394670543e+01 
-6.192686960384e+01 -1.435701790430e+00 0.0 
-1.435701790430e+00 -1.723309688631e+02 0.0 
0.0 0.0 -6.987735154008e+01 
-9.544739049282e+01 2.187118471085e+01 0.0 
2.187118471085e+01 -2.352408359565e+02 0.0 
0.0 0.0 -9.880646793480e+01 
-7.521011157053e+01 1.149827771311e+01 0.0 
1.149827771311e+01 -2.160110258943e+02 0.0 
0.0 0.0 -8.696634123945e+01 
-1.508524994804e+02 1.868173566368e+01 0.0 
1.868173566368e+01 -3.609776704702e+02 0.0 
0.0 0.0 -1.531490509852e+02 
-1.029151825808e+02 1.387873498229e+01 0.0 
1.387873498229e+01 -2.131123079070e+02 0.0 
0.0 0.0 -9.440824714636e+01 
-3.875034914465e+01 -2.794322845467e+00 0.0 
-2.794322845467e+00 -1.114820377480e+02 0.0 
0.0 0.0 -4.466971606778e+01 
-1.524841735688e+02 1.983556342607e+01 0.0 
1.983556342607e+01 -3.571297383272e+02 0.0 
0.0 0.0 -1.524841735688e+02 
-1.406976207522e+02 1.814429460794e+01 0.0 
1.814429460794e+01 -3.440011121511e+02 0.0 
0.0 0.0 -1.450096198710e+02 
-5.876153590075e+01 1.554120999454e+01 0.0 
1.554120999454e+01 -1.673744809904e+02 0.0 
0.0 0.0 -6.744080506735e+01 
-1.624890810470e+01 -1.864850576378e+00 0.0 
-1.864850576378e+00 -2.539131542926e+01 0.0 
0.0 0.0 -1.246985058189e+01 
-1.546851681061e+02 1.424433564636e+01 0.0 
1.424433564636e+01 -3.696494508474e+02 0.0 
0.0 0.0 -1.569003856861e+02 
-1.042122916701e+02 1.627005917800e+01 0.0 
1.627005917800e+01 -2.158584025415e+02 0.0 
0.0 0.0 -9.562120826348e+01 
-4.099509682466e+01 -1.491886416048e+00 0.0 
-1.491886416048e+00 -1.234640507411e+02 0.0 
0.0 0.0 -4.893774426974e+01 
-1.569045241360e+02 1.574145083924e+01 0.0 
1.574145083924e+01 -3.674438896507e+02 0.0 
0.0 0.0 -1.569045241360e+02 
-9.818553168001e+01 6.223327612843e+00 0.0 
6.223327612843e+00 -2.631103651313e+02 0.0 
0.0 0.0 -1.079887690434e+02 
-4.488508880562e+01 2.018924302085e+01 0.0 
2.018924302085e+01 -9.670846120770e+01 0.0 
0.0 0.0 -4.207806500400e+01 
-6.732529152631e+01 9.424492271872e+00 0.0 
9.424492271872e+00 -1.131076331727e+02 0.0 
0.0 0.0 -5.372987740970e+01 
-7.229753077691e+01 1.287986473039e+01 0.0 
1.287986473039e+01 -2.051415861593e+02 0.0 
0.0 0.0 -8.283173508085e+01 
-8.127038819498e+01 4.013963644917e+00 0.0 
4.013963644917e+00 -2.257114178010e+02 0.0 
0.0 0.0 -9.169454179879e+01 
-9.103568944856e+01 1.019630187945e+01 0.0 
1.019630187945e+01 -2.496688371055e+02 0.0 
0.0 0.0 -1.018113579662e+02 
-8.424424045769e+01 1.240645688511e+01 0.0 
1.240645688511e+01 -1.531990950986e+02 0.0 
0.0 0.0 -7.083300066690e+01 
-5.321762074381e+01 1.946087043386e+01 0.0 
1.946087043386e+01 -1.011754356067e+02 0.0 
0.0 0.0 -4.591791690515e+01 
-1.006830146857e+02 1.661806209862e+01 0.0 
1.661806209862e+01 -2.646974335808e+02 0.0 
0.0 0.0 -1.092141344799e+02 
-6.066804169705e+01 5.594357452514e-01 0.0 
5.594357452514e-01 -1.175262536960e+02 0.0 
0.0 0.0 -5.305828861792e+01 
-6.695062483259e+01 4.496659678809e-01 0.0 
4.496659678809e-01 -1.858234260489e+02 0.0 
0.0 0.0 -7.543221526446e+01 
-9.233342431734e+01 1.339697779114e+01 0.0 
1.339697779114e+01 -2.521033496099e+02 0.0 
0.0 0.0 -1.029310321782e+02 
-4.902662663396e+01 -1.123161617995e-01 0.0 
-1.123161617995e-01 -1.430661237542e+02 0.0 
0.0 0.0 -5.722782511645e+01 
-9.792080249474e+01 1.438926293324e+00 0.0 
1.438926293324e+00 -2.596095586857e+02 0.0 
0.0 0.0 -1.068591083541e+02 
-1.442493342126e+01 -7.244757542039e-01 0.0 
-7.244757542039e-01 -8.052099727497e+00 0.0 
0.0 0.0 -6.343109944628e+00 
-3.659380542213e+01 1.487221035573e+01 0.0 
1.487221035573e+01 -1.013394905526e+02 0.0 
0.0 0.0 -4.097998879242e+01 
-4.560934620744e+01 -5.147401987417e-03 0.0 
-5.147401987417e-03 -1.341308717036e+02 0.0 
0.0 0.0 -5.352206537331e+01 
-7.325386601352e+01 -4.943244366162e-01 0.0 
-4.943244366162e-01 -2.024896707330e+02 0.0 
0.0 0.0 -8.232306102395e+01 
-6.254833172378e+01 1.709916652327e+01 0.0 
1.709916652327e+01 -1.717655425692e+02 0.0 
0.0 0.0 -6.989416228791e+01 
-9.622658153473e+01 5.108786215635e+00 0.0 
5.108786215635e+00 -2.620443599595e+02 0.0 
0.0 0.0 -1.070812824483e+02 
-6.650353697293e+01 3.504406848037e+00 0.0 
3.504406848037e+00 -1.205739205662e+02 0.0 
0.0 0.0 -5.572323726173e+01 
-4.301755492205e+01 -9.331582435948e-01 0.0 
-9.331582435948e-01 -1.244451938488e+02 0.0 
0.0 0.0 -4.983882463125e+01 
-1.580742083337e+02 1.438544327657e+01 0.0 
1.438544327657e+01 -3.701731527786e+02 0.0 
0.0 0.0 -1.580742083337e+02 
-7.617825790479e+01 2.240613857384e+01 0.0 
2.240613857384e+01 -1.609089365747e+02 0.0 
0.0 0.0 -7.072615834384e+01 
-7.728310256297e+01 -3.897036657985e-01 0.0 
-3.897036657985e-01 -2.111725358941e+02 0.0 
0.0 0.0 -8.613669153713e+01 
-7.175424240932e+01 2.264248813845e+01 0.0 
2.264248813845e+01 -1.569135912172e+02 0.0 
0.0 0.0 -6.820035008794e+01 
-7.466422430846e+01 8.229695530180e-01 0.0 
8.229695530180e-01 -2.033684878105e+02 0.0 
0.0 0.0 -8.300981363570e+01 
-1.215078123704e+01 -7.723635176889e-01 0.0 
-7.723635176889e-01 -8.925886889594e+00 0.0 
0.0 0.0 -6.897246417238e+00 
-7.319273508454e+01 1.179505978244e+01 0.0 
1.179505978244e+01 -1.234441463668e+02 0.0 
0.0 0.0 -5.859106443541e+01 
-6.212639824940e+01 -1.146218195845e+00 0.0 
-1.146218195845e+00 -1.693829540642e+02 0.0 
0.0 0.0 -6.905280569407e+01 
-5.746811236130e+00 -4.790684931459e-01 0.0 
-4.790684931459e-01 -8.747966026139e+00 0.0 
0.0 0.0 -4.903107967327e+00 
-7.333602915108e+01 -8.223519810658e-01 0.0 
-8.223519810658e-01 -2.004448423597e+02 0.0 
0.0 0.0 -8.173426145324e+01 
-1.054071524742e+02 6.144609535029e+00 0.0 
6.144609535029e+00 -2.807525346416e+02 0.0 
0.0 0.0 -1.154479061347e+02 
-8.922777908582e+01 2.247600644462e+00 0.0 
2.247600644462e+00 -1.934109049344e+02 0.0 
0.0 0.0 -8.439160520607e+01 
-8.256320404968e+01 9.002466421088e+00 0.0 
9.002466421088e+00 -2.315089496206e+02 0.0 
0.0 0.0 -9.382164610108e+01 
-8.528112141379e+01 7.702835463922e+00 0.0 
7.702835463922e+00 -2.407008831742e+02 0.0 
0.0 0.0 -9.739460137640e+01 
-5.673831646302e+01 8.468035766986e+00 0.0 
8.468035766986e+00 -8.275340147153e+01 0.0 
0.0 0.0 -4.144751538037e+01 
-4.444151105347e+01 1.073838031738e+00 0.0 
1.073838031738e+00 -6.761191248165e+01 0.0 
0.0 0.0 -3.321602706054e+01 
-1.076194849369e+02 1.334726671133e+01 0.0 
1.334726671133e+01 -2.422664214926e+02 0.0 
0.0 0.0 -1.045657719289e+02 
-6.741118092319e+01 2.248371716306e+01 0.0 
2.248371716306e+01 -1.533936865100e+02 0.0 
0.0 0.0 -6.584146022995e+01 
-4.619335724476e+00 -3.543722218315e-01 0.0 
-3.543722218315e-01 -7.344661686121e+00 0.0 
0.0 0.0 -3.189199223179e+00 
-2.658919357257e+01 -1.957154134650e+00 0.0 
-1.957154134650e+00 -6.917475592957e+01 0.0 
0.0 0.0 -2.832918485064e+01 
-1.554629156282e+01 -1.853764246362e+00 0.0 
-1.853764246362e+00 -2.515316378795e+01 0.0 
0.0 0.0 -1.220334986263e+01 
-4.310390684896e+01 -1.816882654317e+00 0.0 
-1.816882654317e+00 -1.201583815554e+02 0.0 
0.0 0.0 -4.857868652130e+01 
-1.074239004114e+02 2.377846199853e+01 0.0 
2.377846199853e+01 -2.402281329669e+02 0.0 
0.0 0.0 -1.038956100135e+02 
-9.060815821506e+01 4.021377495946e+00 0.0 
4.021377495946e+00 -1.943022247126e+02 0.0 
0.0 0.0 -8.507311487830e+01 
-1.206620308245e+02 5.084709072486e+00 0.0 
5.084709072486e+00 -3.085471555637e+02 0.0 
0.0 0.0 -1.283627559165e+02 
-4.906385159681e+01 -1.149142172284e+00 0.0 
-1.149142172284e+00 -1.362778858406e+02 0.0 
0.0 0.0 -5.520252123121e+01 
-9.918178741297e+01 2.760669603605e+00 0.0 
2.760669603605e+00 -2.604481350607e+02 0.0 
0.0 0.0 -1.074889767421e+02 
-1.243716637113e+02 1.013051251346e+01 0.0 
1.013051251346e+01 -3.170840809883e+02 0.0 
0.0 0.0 -1.320367234099e+02 
-2.664354038809e+01 1.930744575251e+00 0.0 
1.930744575251e+00 -6.938688867424e+01 0.0 
0.0 0.0 -2.840912871870e+01 
-6.250278616179e+01 5.487624187639e-01 0.0 
5.487624187639e-01 -1.695877897903e+02 0.0 
0.0 0.0 -6.922717278564e+01 
-5.119496926174e+01 -1.026276590857e+00 0.0 
-1.026276590857e+00 -1.396839951197e+02 0.0 
0.0 0.0 -5.686368931444e+01 
-1.555001042116e+02 1.274513386356e+01 0.0 
1.274513386356e+01 -3.715752512981e+02 0.0 
0.0 0.0 -1.577226066529e+02 
-1.590484875687e+02 1.303724995145e+01 0.0 
1.303724995145e+01 -3.724464709936e+02 0.0 
0.0 0.0 -1.590484875687e+02 
-6.964139006700e+01 4.546180770668e-01 0.0 
4.546180770668e-01 -1.881725946525e+02 0.0 
0.0 0.0 -7.694419541586e+01 
-7.861788034318e+01 9.734223678906e-01 0.0 
9.734223678906e-01 -2.120361758596e+02 0.0 
0.0 0.0 -8.679621686083e+01 
-8.375306978855e+01 2.839345600387e+00 0.0 
2.839345600387e+00 -2.338941996040e+02 0.0 
0.0 0.0 -9.489418081777e+01 
-1.289398164770e+02 1.189761442514e+01 0.0 
1.189761442514e+01 -3.252383529669e+02 0.0 
0.0 0.0 -1.358534508332e+02 
-2.846310780047e+01 -3.058356216254e+00 0.0 
-3.058356216254e+00 -7.665599780870e+01 0.0 
0.0 0.0 -3.113573168275e+01 
-1.196344954298e+02 8.575112725376e+00 0.0 
8.575112725376e+00 -3.084073213215e+02 0.0 
0.0 0.0 -1.280125450254e+02 
-1.702975207580e+01 -1.240687841105e+00 0.0 
-1.240687841105e+00 -4.308068138654e+01 0.0 
0.0 0.0 -1.763313003870e+01 
-7.067054660383e+01 4.343970410785e-01 0.0 
4.343970410785e-01 -1.926716121628e+02 0.0 
0.0 0.0 -7.860264762998e+01 
-7.857077677946e+01 1.365273169920e+00 0.0 
1.365273169920e+00 -2.138702266323e+02 0.0 
0.0 0.0 -8.733230102352e+01 
-9.725083936317e+00 -6.640933426643e-01 0.0 
-6.640933426643e-01 -2.555487107776e+01 0.0 
0.0 0.0 -1.056458167400e+01 
-6.617012351722e+01 -9.041285138660e-01 0.0 
-9.041285138660e-01 -1.787810540323e+02 0.0 
0.0 0.0 -7.308535326484e+01 
-9.970052172886e+01 1.170863716139e+01 0.0 
1.170863716139e+01 -2.112133561844e+02 0.0 
0.0 0.0 -9.287416337397e+01 
-3.777068748560e+00 -3.215920434387e-01 0.0 
-3.215920434387e-01 -7.816782230733e+00 0.0 
0.0 0.0 -3.078155293788e+00 
-4.595844717003e+01 1.609643474016e+00 0.0 
1.609643474016e+00 -6.820399156337e+01 0.0 
0.0 0.0 -3.384873162002e+01 
-4.567386194267e+01 2.297150684352e+00 0.0 
2.297150684352e+00 -6.931172401854e+01 0.0 
0.0 0.0 -3.409567578836e+01 
-9.493709920210e+01 1.192712612416e+01 0.0 
1.192712612416e+01 -2.572166283267e+02 0.0 
0.0 0.0 -1.052461182586e+02 
-5.129092199929e+01 5.053632179328e-01 0.0 
5.053632179328e-01 -1.396444040380e+02 0.0 
0.0 0.0 -5.688059781117e+01 
-4.430952166553e+01 -1.630053148417e+00 0.0 
-1.630053148417e+00 -1.322731037280e+02 0.0 
0.0 0.0 -5.257478761805e+01 
-2.662026540333e+01 1.167118179392e+01 0.0 
1.167118179392e+01 -6.423130681030e+01 0.0 
0.0 0.0 -2.685547166409e+01 
-1.356483395473e+02 5.389262051921e+00 0.0 
5.389262051921e+00 -3.358172010114e+02 0.0 
0.0 0.0 -1.410396621676e+02 
-1.263630954583e+02 2.529657581187e+01 0.0 
2.529657581187e+01 -2.958824202524e+02 0.0 
0.0 0.0 -1.262736547132e+02 
-8.820191442489e+01 5.469501597251e+00 0.0 
5.469501597251e+00 -1.819788653864e+02 0.0 
0.0 0.0 -8.065423394338e+01 
-3.122629429718e+01 1.707487882161e+01 0.0 
1.707487882161e+01 -7.193118330196e+01 0.0 
0.0 0.0 -3.054724327974e+01 
-1.970474147391e+01 -3.028929231598e+00 0.0 
-3.028929231598e+00 -4.778408177072e+01 0.0 
0.0 0.0 -1.984664697339e+01 
-5.366572677781e+01 2.003417259879e+01 0.0 
2.003417259879e+01 -8.786807449177e+01 0.0 
0.0 0.0 -4.206014038087e+01 
-4.263423559480e+01 2.400129189994e-01 0.0 
2.400129189994e-01 -6.803137623703e+01 0.0 
0.0 0.0 -3.279968354955e+01 
-4.135816530962e+01 3.101735856516e-01 0.0 
3.101735856516e-01 -6.777029725272e+01 0.0 
0.0 0.0 -3.233853876870e+01 
-5.093512124545e+00 -4.055167402025e-01 0.0 
-4.055167402025e-01 -8.977095685426e+00 0.0 
0.0 0.0 -4.790069793631e+00 
-1.003797505750e+01 -8.031133895846e-01 0.0 
-8.031133895846e-01 -2.540191213370e+01 0.0 
0.0 0.0 -1.065329552731e+01 
-1.487029292092e+01 -2.997632307256e-01 0.0 
-2.997632307256e-01 -4.210123118826e+01 0.0 
0.0 0.0 -1.669145723276e+01 
-3.767859935270e+01 -2.824933975342e+00 0.0 
-2.824933975342e+00 -1.048779510354e+02 0.0 
0.0 0.0 -4.236696511644e+01 
-9.870504251408e+00 -5.155083381672e-01 0.0 
-5.155083381672e-01 -2.591648960445e+01 0.0 
0.0 0.0 -1.033609815676e+01 
-7.349611926700e+01 -7.804346377466e-01 0.0 
-7.804346377466e-01 -1.983955902845e+02 0.0 
0.0 0.0 -8.116751286544e+01 
-1.572735077285e+01 -6.949193052654e-01 0.0 
-6.949193052654e-01 -8.840960651197e+00 0.0 
0.0 0.0 -7.938828792367e+00 
-4.430793648882e+01 -2.582132847694e+00 0.0 
-2.582132847694e+00 -1.245091477301e+02 0.0 
0.0 0.0 -5.024512526567e+01 
-6.705158713172e+01 4.786010654147e-01 0.0 
4.786010654147e-01 -1.345176425650e+02 0.0 
0.0 0.0 -6.007076890902e+01 
-4.322012882953e+01 8.516292177287e-01 0.0 
8.516292177287e-01 -6.794721825568e+01 0.0 
0.0 0.0 -3.295020412556e+01 
-1.109800533235e+02 2.375250665831e+01 0.0 
2.375250665831e+01 -2.454866245976e+02 0.0 
0.0 0.0 -1.065400033763e+02 
-1.012011419013e+02 4.826316219014e+00 0.0 
4.826316219014e+00 -2.714573329572e+02 0.0 
0.0 0.0 -1.113975424575e+02 
-5.981266002431e+01 1.085559469441e-01 0.0 
1.085559469441e-01 -1.167712230983e+02 0.0 
0.0 0.0 -5.257516493678e+01 
-5.472759472025e+01 -8.031420994248e-01 0.0 
-8.031420994248e-01 -1.491368278512e+02 0.0 
0.0 0.0 -6.075932677142e+01 
-1.633723825617e+01 -5.917391645816e-01 0.0 
-5.917391645816e-01 -4.282767879408e+01 0.0 
0.0 0.0 -1.734947511507e+01 
-1.071284496046e+02 6.759275640727e+00 0.0 
6.759275640727e+00 -2.512997157441e+02 0.0 
0.0 0.0 -1.071284496046e+02 
-1.105162027349e+02 7.445579016582e+00 0.0 
7.445579016582e+00 -2.529775312010e+02 0.0 
0.0 0.0 -1.086481201808e+02 
-6.003702741832e+01 1.162195944286e+00 0.0 
1.162195944286e+00 -1.072907241461e+02 0.0 
0.0 0.0 -4.979832546934e+01 
-4.292676572189e+01 4.042646327889e-01 0.0 
4.042646327889e-01 -6.762441215236e+01 0.0 
0.0 0.0 -3.276535336227e+01 
-5.567721296130e+01 2.373462953656e-03 0.0 
2.373462953656e-03 -1.512158426449e+02 0.0 
0.0 0.0 -6.166791668185e+01 
-1.096351448337e+02 5.240676418635e+00 0.0 
5.240676418635e+00 -2.517317644655e+02 0.0 
0.0 0.0 -1.080100727898e+02 
-4.222926901297e+01 -1.545485057669e+00 0.0 
-1.545485057669e+00 -1.166387537449e+02 0.0 
0.0 0.0 -4.726040682736e+01 
-4.426338277720e+01 1.460869367498e+00 0.0 
1.460869367498e+00 -6.832401694466e+01 0.0 
0.0 0.0 -3.337621991656e+01 
-4.399590082924e+01 6.405818723955e-01 0.0 
6.405818723955e-01 -6.759386619759e+01 0.0 
0.0 0.0 -3.307693010805e+01 
-4.819517820552e+01 1.250719805127e+01 0.0 
1.250719805127e+01 -6.978229156643e+01 0.0 
0.0 0.0 -3.499324093159e+01 
-1.111518364026e+02 1.511056272759e+01 0.0 
1.511056272759e+01 -2.606876182726e+02 0.0 
0.0 0.0 -1.111518364026e+02 
-1.108953996169e+02 6.188597161046e+00 0.0 
6.188597161046e+00 -2.528188094962e+02 0.0 
0.0 0.0 -1.087142627339e+02 
-1.028040135847e+01 -6.969744444688e-01 0.0 
-6.969744444688e-01 -2.571002485898e+01 0.0 
0.0 0.0 -1.039712786524e+01 
-4.704392407875e+00 -2.920206506296e-01 0.0 
-2.920206506296e-01 -9.090553795720e+00 0.0 
0.0 0.0 -4.715738668375e+00 
-2.247439030652e+01 -2.805261489801e+00 0.0 
-2.805261489801e+00 -5.736552238130e+01 0.0 
0.0 0.0 -2.355197380635e+01 
-7.701604861819e+01 7.459242647742e-02 0.0 
7.459242647742e-02 -2.129359960228e+02 0.0 
0.0 0.0 -8.658561339230e+01 
-1.455863903547e+02 -1.827995281052e-01 0.0 
-1.827995281052e-01 -3.522303482480e+02 0.0 
0.0 0.0 -1.489450215808e+02 
-1.978431499894e+01 -4.884187872001e-01 0.0 
-4.884187872001e-01 -7.148714686514e+00 0.0 
0.0 0.0 -7.679908905636e+00 
-8.299709637201e+01 1.343821497155e+00 0.0 
1.343821497155e+00 -1.774402212486e+02 0.0 
0.0 0.0 -7.773119528619e+01 
-1.464249260494e+01 -8.036165498114e-01 0.0 
-8.036165498114e-01 -8.993988424771e+00 0.0 
0.0 0.0 -7.671894349647e+00 
-9.401906355065e+01 8.789818356386e+00 0.0 
8.789818356386e+00 -2.589914834427e+02 0.0 
0.0 0.0 -1.055031640980e+02 
-1.627427022316e+01 -8.245168124818e-01 0.0 
-8.245168124818e-01 -8.239933235748e+00 0.0 
0.0 0.0 -6.954261037672e+00 
-1.806112346835e+01 -7.325825307182e-01 0.0 
-7.325825307182e-01 -8.138054392368e+00 0.0 
0.0 0.0 -7.459753358214e+00 
-9.006145750715e+01 7.196347946413e+00 0.0 
7.196347946413e+00 -2.507281091700e+02 0.0 
0.0 0.0 -1.018368700031e+02 
-1.400416617145e+02 1.873685879765e+00 0.0 
1.873685879765e+00 -3.421919506842e+02 0.0 
0.0 0.0 -1.442700837196e+02 
-6.705587489961e+01 9.650548071770e-01 0.0 
9.650548071770e-01 -1.334384103355e+02 0.0 
0.0 0.0 -5.974828557053e+01 
-5.709475658419e+01 2.154417760307e+01 0.0 
2.154417760307e+01 -1.046012240046e+02 0.0 
0.0 0.0 -4.810879417664e+01 
-9.402432048262e+00 -3.886612682484e-01 0.0 
-3.886612682484e-01 -2.554711633092e+01 0.0 
0.0 0.0 -1.046735863825e+01 
-1.034371627357e+02 2.657066737370e+00 0.0 
2.657066737370e+00 -2.690347689145e+02 0.0 
0.0 0.0 -1.113415794951e+02 
-1.060661842792e+02 2.118591470091e+00 0.0 
2.118591470091e+00 -2.488210966514e+02 0.0 
0.0 0.0 -1.060661842792e+02 
-1.088020408775e+02 2.966292645935e+00 0.0 
2.966292645935e+00 -2.506722064246e+02 0.0 
0.0 0.0 -1.074422741906e+02 
-4.242590506042e+01 4.834848149950e-01 0.0 
4.834848149950e-01 -6.772144685187e+01 0.0 
0.0 0.0 -3.264420557369e+01 
-9.811048598058e+01 1.043684429913e+01 0.0 
1.043684429913e+01 -2.669206068866e+02 0.0 
0.0 0.0 -1.091093278602e+02 
-1.070250095836e+02 5.459940747154e+00 0.0 
5.459940747154e+00 -2.510583556951e+02 0.0 
0.0 0.0 -1.070250095836e+02 
-1.001244651319e+02 2.151843620693e+01 0.0 
2.151843620693e+01 -2.491500112464e+02 0.0 
0.0 0.0 -1.043823429135e+02 
-1.555851116717e+01 -5.666587379667e-01 0.0 
-5.666587379667e-01 -4.165212840477e+01 0.0 
0.0 0.0 -1.676319187158e+01 
-9.504290528362e+00 -3.365865853200e-01 0.0 
-3.365865853200e-01 -2.569689485961e+01 0.0 
0.0 0.0 -1.016035561639e+01 
-8.951211234461e+00 -1.335589010466e-01 0.0 
-1.335589010466e-01 -2.513581514361e+01 0.0 
0.0 0.0 -1.006737542745e+01 
-6.230557750262e+01 -7.630085359871e-01 0.0 
-7.630085359871e-01 -1.689098978612e+02 0.0 
0.0 0.0 -6.896464260915e+01 
-1.607052241862e+02 3.246113380396e+00 0.0 
3.246113380396e+00 -3.811498858091e+02 0.0 
0.0 0.0 -1.621565329986e+02 
-1.007544042355e+02 1.066124074467e+00 0.0 
1.066124074467e+00 -2.283657178173e+02 0.0 
0.0 0.0 -9.833603661584e+01 
-3.803902633627e+00 -7.434019349214e-02 0.0 
-7.434019349214e-02 -9.065853697014e+00 0.0 
0.0 0.0 -4.429605010863e+00 
-7.388446516813e+01 6.562693450175e-01 0.0 
6.562693450175e-01 -1.985649841243e+02 0.0 
0.0 0.0 -8.133483478772e+01 
-1.637890636269e+02 2.219804227293e+00 0.0 
2.219804227293e+00 -3.835078151295e+02 0.0 
0.0 0.0 -1.637890636269e+02 
-1.599156429423e+02 3.450152893258e+00 0.0 
3.450152893258e+00 -3.802580067245e+02 0.0 
0.0 0.0 -1.616520949001e+02 
-1.562318624468e+02 1.149805372517e+01 0.0 
1.149805372517e+01 -3.731784129869e+02 0.0 
0.0 0.0 -1.584230826301e+02 
-7.553776360171e+01 -5.821860214274e-01 0.0 
-5.821860214274e-01 -1.576504034260e+02 0.0 
0.0 0.0 -6.955645010832e+01 
-8.680468767060e+01 9.428058164443e-01 0.0 
9.428058164443e-01 -1.878228365959e+02 0.0 
0.0 0.0 -8.198825727995e+01 
-1.628845520686e+02 3.053761191550e+00 0.0 
3.053761191550e+00 -3.813972881601e+02 0.0 
0.0 0.0 -1.628845520686e+02 
-1.630273271002e+02 4.035593249900e+00 0.0 
4.035593249900e+00 -3.817304299004e+02 0.0 
0.0 0.0 -1.630273271002e+02 
-8.303847136451e+01 -3.303472130964e-01 0.0 
-3.303472130964e-01 -1.775423120178e+02 0.0 
0.0 0.0 -7.777423501468e+01 
-2.235040392601e+00 -3.539465397397e-01 0.0 
-3.539465397397e-01 -6.804306505837e+00 0.0 
0.0 0.0 -2.311804069532e+00 
-4.042522461665e+01 4.851685828662e-02 0.0 
4.851685828662e-02 -6.689599988647e+01 0.0 
0.0 0.0 -3.179636735094e+01 
-4.185277812149e+01 1.808790113819e-01 0.0 
1.808790113819e-01 -6.783133504773e+01 0.0 
0.0 0.0 -3.250523395077e+01 
-4.222166986795e+00 -1.807022571065e-01 0.0 
-1.807022571065e-01 -9.062304456303e+00 0.0 
0.0 0.0 -4.561493175281e+00 
-1.623800217151e+02 7.000572320911e+00 0.0 
7.000572320911e+00 -3.802200506685e+02 0.0 
0.0 0.0 -1.623800217151e+02 
-1.565959434648e+02 1.005865625839e+01 0.0 
1.005865625839e+01 -3.743552856144e+02 0.0 
0.0 0.0 -1.588853687238e+02 
-1.607976034232e+02 9.192439246325e+00 0.0 
9.192439246325e+00 -3.765277413207e+02 0.0 
0.0 0.0 -1.607976034232e+02 
-2.644789735435e+00 -1.245760649355e-01 0.0 
-1.245760649355e-01 -7.946153581514e+00 0.0 
0.0 0.0 -2.777282995085e+00 
-3.093283546960e+00 -2.796940310633e-01 0.0 
-2.796940310633e-01 -8.050669156123e+00 0.0 
0.0 0.0 -2.943185810925e+00 
-1.597162768379e+02 1.172620421041e+01 0.0 
1.172620421041e+01 -3.740046459550e+02 0.0 
0.0 0.0 -1.597162768379e+02 
-1.603887207260e+02 1.051167112356e+01 0.0 
1.051167112356e+01 -3.755736816940e+02 0.0 
0.0 0.0 -1.603887207260e+02 
-7.160094492595e+01 9.675397066886e-01 0.0 
9.675397066886e-01 -1.476527034947e+02 0.0 
0.0 0.0 -6.537609452619e+01 
-3.966810530264e+01 -1.339589914389e-01 0.0 
-1.339589914389e-01 -6.656972393302e+01 0.0 
0.0 0.0 -3.147134877070e+01 
-7.949651432675e+01 9.717955973388e-01 0.0 
9.717955973388e-01 -1.676973655080e+02 0.0 
0.0 0.0 -7.375816395044e+01 
-5.608874694269e+01 8.994392789180e-01 0.0 
8.994392789180e-01 -1.080189655434e+02 0.0 
0.0 0.0 -4.883231374582e+01 
-3.975755693543e+01 -9.248078910752e-02 0.0 
-9.248078910752e-02 -6.674437505549e+01 0.0 
0.0 0.0 -3.155057959728e+01 
-5.739055350967e+00 -5.445310337263e-01 0.0 
-5.445310337263e-01 -7.653980566891e+00 0.0 
0.0 0.0 -3.617910775358e+00 
-8.308032615607e+00 -3.889444580922e-01 0.0 
-3.889444580922e-01 -8.317154622381e+00 0.0 
0.0 0.0 -4.587556171396e+00 
-9.526464005901e+00 -5.480056174324e-01 0.0 
-5.480056174324e-01 -7.912435089340e+00 0.0 
0.0 0.0 -4.831669728572e+00 
-1.103792974100e+01 -6.246298830793e-01 0.0 
-6.246298830793e-01 -8.035757558281e+00 0.0 
0.0 0.0 -5.322106189783e+00 
-7.782316446278e+01 -8.928744626782e-01 0.0 
-8.928744626782e-01 -2.085926627770e+02 0.0 
0.0 0.0 -8.552474817193e+01 
-6.998944826300e+01 -7.843279557055e-01 0.0 
-7.843279557055e-01 -1.886791677164e+02 0.0 
0.0 0.0 -7.720058479382e+01 
-8.451604441064e+00 -5.858839328729e-01 0.0 
-5.858839328729e-01 -8.979752993187e+00 0.0 
0.0 0.0 -5.806434701211e+00 
-1.028930039868e+02 -7.976266526679e-01 0.0 
-7.976266526679e-01 -2.662519246878e+02 0.0 
0.0 0.0 -1.103434786024e+02 
-9.845497553677e+00 -7.028999704603e-01 0.0 
-7.028999704603e-01 -8.949335780227e+00 0.0 
0.0 0.0 -6.210289172944e+00 
-1.090160572489e+02 1.185910606955e+01 0.0 
1.185910606955e+01 -2.557041335808e+02 0.0 
0.0 0.0 -1.090160572489e+02 
-1.065648389701e+02 4.511078708872e+00 0.0 
4.511078708872e+00 -2.499846242635e+02 0.0 
0.0 0.0 -1.065648389701e+02 
-1.073742018190e+02 7.904376178791e+00 0.0 
7.904376178791e+00 -2.518731375776e+02 0.0 
0.0 0.0 -1.073742018190e+02 
-2.544810691650e+01 -9.703857741015e-01 0.0 
-9.703857741015e-01 -6.906507424558e+01 0.0 
0.0 0.0 -2.795395434863e+01 
-4.742451090268e+01 -8.252192591074e-01 0.0 
-8.252192591074e-01 -1.292521784917e+02 0.0 
0.0 0.0 -5.260300681831e+01 
-1.062092252601e+02 3.607747593007e+00 0.0 
3.607747593007e+00 -2.491548589403e+02 0.0 
0.0 0.0 -1.062092252601e+02 
-1.309718919167e+02 -6.579306436510e-01 0.0 
-6.579306436510e-01 -3.242671955133e+02 0.0 
0.0 0.0 -1.361717262290e+02 
-1.070371458686e+02 2.906375437567e+00 0.0 
2.906375437567e+00 -2.510866736933e+02 0.0 
0.0 0.0 -1.070371458686e+02 
-1.408521831089e+02 -6.988981134364e-01 0.0 
-6.988981134364e-01 -3.433516049620e+02 0.0 
0.0 0.0 -1.448611364213e+02 
-1.510778724417e+02 -7.651097870935e-01 0.0 
-7.651097870935e-01 -3.623255812370e+02 0.0 
0.0 0.0 -1.536210361036e+02 
-6.613755816274e+01 6.585549810222e-01 0.0 
6.585549810222e-01 -1.787679284296e+02 0.0 
0.0 0.0 -7.307164597770e+01 
-1.091647428453e+02 4.247941153731e+00 0.0 
4.247941153731e+00 -2.507449232669e+02 0.0 
0.0 0.0 -1.075728998336e+02 
-1.086849231330e+02 2.856009442580e+00 0.0 
2.856009442580e+00 -2.508130157547e+02 0.0 
0.0 0.0 -1.074493816663e+02 
-1.356002863438e+02 1.332684206999e+00 0.0 
1.332684206999e+00 -3.329019712500e+02 0.0 
0.0 0.0 -1.401506772781e+02 
-1.458263700862e+02 1.407188620940e+00 0.0 
1.407188620940e+00 -3.524616541857e+02 0.0 
0.0 0.0 -1.490864072816e+02 
-1.119681825310e+02 2.248253055316e+00 0.0 
2.248253055316e+00 -2.860870422793e+02 0.0 
0.0 0.0 -1.190165674431e+02 
-1.341283259046e+01 -8.297472496386e-01 0.0 
-8.297472496386e-01 -8.897490249102e+00 0.0 
0.0 0.0 -7.269573034747e+00 
-6.653030904353e+01 2.052717876297e-01 0.0 
2.052717876297e-01 -1.818024767410e+02 0.0 
0.0 0.0 -7.409983573535e+01 
-1.067269554513e+01 -7.091817543241e-01 0.0 
-7.091817543241e-01 -2.542016649306e+01 0.0 
0.0 0.0 -1.042785861146e+01 
-1.365405368777e+02 6.642182599258e+00 0.0 
6.642182599258e+00 -3.363790055731e+02 0.0 
0.0 0.0 -1.414758627352e+02 
-6.947305211494e+01 -9.313626623456e-01 0.0 
-9.313626623456e-01 -1.918678561551e+02 0.0 
0.0 0.0 -7.800227248101e+01 
-1.256014323936e+02 1.997572099631e+00 0.0 
1.997572099631e+00 -3.149024827028e+02 0.0 
0.0 0.0 -1.317511745289e+02 
-3.553289364100e+01 -1.779513944258e+00 0.0 
-1.779513944258e+00 -9.694456402196e+01 0.0 
0.0 0.0 -3.934323729889e+01 
-1.642254587407e+01 -1.758073229086e+00 0.0 
-1.758073229086e+00 -4.156999668660e+01 0.0 
0.0 0.0 -1.699776276820e+01 
-1.357955118226e+02 3.714722072316e+00 0.0 
3.714722072316e+00 -3.340593092452e+02 0.0 
0.0 0.0 -1.405564463203e+02 
-7.462154924447e+01 6.318910017313e-01 0.0 
6.318910017313e-01 -2.013234955430e+02 0.0 
0.0 0.0 -8.238351343624e+01 
-5.819796373640e+01 -9.959660570237e-01 0.0 
-9.959660570237e-01 -1.590881871027e+02 0.0 
0.0 0.0 -6.478584525174e+01 
-1.262109676738e+02 3.343591460437e+00 0.0 
3.343591460437e+00 -3.154666420979e+02 0.0 
0.0 0.0 -1.321032829315e+02 
-9.286814039574e+01 7.038069089189e-01 0.0 
7.038069089189e-01 -2.057478451235e+02 0.0 
0.0 0.0 -8.918479565577e+01 
-5.860348803681e+01 6.015487050739e-01 0.0 
6.015487050739e-01 -1.592187716235e+02 0.0 
0.0 0.0 -6.494667789810e+01 
-1.115491581351e+02 8.734318476277e+00 0.0 
8.734318476277e+00 -2.907485881834e+02 0.0 
0.0 0.0 -1.202893238956e+02 
-9.761609967128e+01 2.414609398913e+00 0.0 
2.414609398913e+00 -2.610260056143e+02 0.0 
0.0 0.0 -1.071926315857e+02 
-1.112602021443e+02 8.688379173684e-01 0.0 
8.688379173684e-01 -2.854824952783e+02 0.0 
0.0 0.0 -1.186228092268e+02 
-1.157177919651e+02 6.380208762383e-01 0.0 
6.380208762383e-01 -2.942530073202e+02 0.0 
0.0 0.0 -1.225912397856e+02 
-4.607259810392e+01 7.869612498765e+00 0.0 
7.869612498765e+00 -1.452836921971e+02 0.0 
0.0 0.0 -5.700688709030e+01 
-4.928991372827e+01 2.128170592936e+01 0.0 
2.128170592936e+01 -8.431107034571e+01 0.0 
0.0 0.0 -3.968029522220e+01 
-5.919718713598e+01 1.873341849293e+01 0.0 
1.873341849293e+01 -1.583248502379e+02 0.0 
0.0 0.0 -6.485661121216e+01 
-1.023701149692e+02 1.296336772579e+00 0.0 
1.296336772579e+00 -2.682823158305e+02 0.0 
0.0 0.0 -1.107957292399e+02 
-1.306996620790e+02 2.967590257062e+00 0.0 
2.967590257062e+00 -3.240641135564e+02 0.0 
0.0 0.0 -1.360291326906e+02 
-1.202054144252e+02 2.578401012695e-01 0.0 
2.578401012695e-01 -3.031172321988e+02 0.0 
0.0 0.0 -1.265967939872e+02 
-3.555484498519e+01 -3.138397805504e+00 0.0 
-3.138397805504e+00 -1.002013680527e+02 0.0 
0.0 0.0 -4.032686391137e+01 
-9.311617238271e+01 1.786560133817e+00 0.0 
1.786560133817e+00 -2.047180896209e+02 0.0 
0.0 0.0 -8.895027860107e+01 
-8.572087794559e+01 1.393245227074e+00 0.0 
1.393245227074e+00 -1.842529335465e+02 0.0 
0.0 0.0 -8.059214344761e+01 
-5.102984534867e+01 -5.116573154447e-01 0.0 
-5.116573154447e-01 -9.325287287737e+01 0.0 
0.0 0.0 -4.288481546781e+01 
-1.068644938893e+02 2.069888112647e+00 0.0 
2.069888112647e+00 -2.786338910437e+02 0.0 
0.0 0.0 -1.152495154799e+02 
-1.068270360672e+02 1.110519005400e+00 0.0 
1.110519005400e+00 -2.769248636981e+02 0.0 
0.0 0.0 -1.147255699296e+02 
-9.378239568386e+01 2.542411630818e+00 0.0 
2.542411630818e+00 -2.068714095300e+02 0.0 
0.0 0.0 -8.979614156416e+01 
-8.951060540898e+01 1.212330249414e+00 0.0 
1.212330249414e+00 -1.952235956187e+02 0.0 
0.0 0.0 -8.502026030830e+01 
-9.469208952484e+01 3.767697108774e+00 0.0 
3.767697108774e+00 -2.530788723204e+02 0.0 
0.0 0.0 -1.039312885536e+02 
-1.404453555894e+02 3.194751222668e+00 0.0 
3.194751222668e+00 -3.425341168524e+02 0.0 
0.0 0.0 -1.444938417326e+02 
-8.616303101459e+01 3.613305612518e+00 0.0 
3.613305612518e+00 -1.807980331627e+02 0.0 
0.0 0.0 -7.968831925318e+01 
-1.205967367907e+02 1.583342147789e+00 0.0 
1.583342147789e+00 -3.032831599506e+02 0.0 
0.0 0.0 -1.267639690224e+02 
-1.419414902077e+02 6.287385308771e+00 0.0 
6.287385308771e+00 -3.460460245665e+02 0.0 
0.0 0.0 -1.459962544322e+02 
-9.401274487741e+01 3.737375933818e+00 0.0 
3.737375933818e+00 -2.055601961078e+02 0.0 
0.0 0.0 -8.947188229557e+01 
-7.615514480078e+01 2.871802294137e+00 0.0 
2.871802294137e+00 -1.540103760005e+02 0.0 
0.0 0.0 -6.864965624037e+01 
-1.072354244784e+02 7.300606118654e+00 0.0 
7.300606118654e+00 -2.817779634771e+02 0.0 
0.0 0.0 -1.163040163867e+02 
-3.640711960030e+01 -1.947630443617e+00 0.0 
-1.947630443617e+00 -9.988984750067e+01 0.0 
0.0 0.0 -4.048909013029e+01 
-3.304463086043e+01 -3.137264494971e+00 0.0 
-3.137264494971e+00 -9.231453782153e+01 0.0 
0.0 0.0 -3.720775060459e+01 
-1.971883928357e+01 -1.540230191047e+00 0.0 
-1.540230191047e+00 -4.808026375393e+01 0.0 
0.0 0.0 -1.993973091125e+01 
-1.917057883087e+01 -1.907150374549e+00 0.0 
-1.907150374549e+00 -2.565082712345e+01 0.0 
0.0 0.0 -1.304642178629e+01 
-9.040235063554e+01 2.926561051247e+00 0.0 
2.926561051247e+00 -1.958425037986e+02 0.0 
0.0 0.0 -8.547345633023e+01 
-1.349161030396e+02 1.077525235895e+00 0.0 
1.077525235895e+00 -3.320461706763e+02 0.0 
0.0 0.0 -1.396886821148e+02 
-1.780259204799e+01 -1.895948791094e+00 0.0 
-1.895948791094e+00 -2.530672003982e+01 0.0 
0.0 0.0 -1.253279362634e+01 
-1.058871567252e+02 1.889701258737e+01 0.0 
1.889701258737e+01 -2.203116009657e+02 0.0 
0.0 0.0 -9.745962730728e+01 
-5.533386172276e+01 -1.524348125821e-01 0.0 
-1.524348125821e-01 -1.022626237896e+02 0.0 
0.0 0.0 -4.687894565371e+01 
-1.217725129915e+02 3.722449072398e+00 0.0 
3.722449072398e+00 -3.069659634431e+02 0.0 
0.0 0.0 -1.282215429304e+02 
-1.251011605078e+02 8.672915373008e-01 0.0 
8.672915373008e-01 -3.131084909429e+02 0.0 
0.0 0.0 -1.310628954352e+02 
-4.760826144958e+01 -1.636578930731e+00 0.0 
-1.636578930731e+00 -1.407092067361e+02 0.0 
0.0 0.0 -5.609524045571e+01 
-1.254924449586e+02 2.264843638246e+00 0.0 
2.264843638246e+00 -3.135622558633e+02 0.0 
0.0 0.0 -1.313164102466e+02 
-5.179471517961e+01 1.577193418826e+00 0.0 
1.577193418826e+00 -9.351433968898e+01 0.0 
0.0 0.0 -4.319271646057e+01 
-9.794155323644e+01 1.602549867299e+01 0.0 
1.602549867299e+01 -2.593839500942e+02 0.0 
0.0 0.0 -1.067976509992e+02 
-1.466169061241e+02 4.183229559808e+00 0.0 
4.183229559808e+00 -3.547116556654e+02 0.0 
0.0 0.0 -1.499985685369e+02 
-3.518801173745e+01 -1.187086063700e+00 0.0 
-1.187086063700e+00 -9.651669728533e+01 0.0 
0.0 0.0 -3.911141270683e+01 
-1.415410004552e+02 7.762719087015e+00 0.0 
7.762719087015e+00 -3.461168049707e+02 0.0 
0.0 0.0 -1.458973416278e+02 
-7.977120174661e+01 2.665156831940e+00 0.0 
2.665156831940e+00 -1.649832555416e+02 0.0 
0.0 0.0 -7.302633718645e+01 
-3.952229327127e+01 -1.690610733271e+00 0.0 
-1.690610733271e+00 -1.084683108000e+02 0.0 
0.0 0.0 -4.399718122139e+01 
-4.023709918587e+01 -1.945066887791e+00 0.0 
-1.945066887791e+00 -1.122813931730e+02 0.0 
0.0 0.0 -4.535554770765e+01 
-8.509676519108e+01 -5.461655052901e-01 0.0 
-5.461655052901e-01 -2.265461108586e+02 0.0 
0.0 0.0 -9.309286281490e+01 
-6.725910111474e+01 1.041063166238e+00 0.0 
1.041063166238e+00 -1.314435324995e+02 0.0 
0.0 0.0 -5.921079008427e+01 
-5.465004477512e+01 -1.902150983143e+00 0.0 
-1.902150983143e+00 -1.527454359838e+02 0.0 
0.0 0.0 -6.181864422769e+01 
-8.332388125705e+01 2.538917694219e+00 0.0 
2.538917694219e+00 -1.758493351239e+02 0.0 
0.0 0.0 -7.735196491427e+01 
-7.205874409478e+01 2.334001538085e+00 0.0 
2.334001538085e+00 -1.444176211878e+02 0.0 
0.0 0.0 -6.454290958479e+01 
-8.134206869656e+01 -2.787649902720e-01 0.0 
-2.787649902720e-01 -2.198878261321e+02 0.0 
0.0 0.0 -8.996896844860e+01 
-1.160938008761e+02 1.952528278997e+00 0.0 
1.952528278997e+00 -2.945475833899e+02 0.0 
0.0 0.0 -1.227924152798e+02 
-1.211579954637e+02 2.641616434303e+00 0.0 
2.641616434303e+00 -3.051197033753e+02 0.0 
0.0 0.0 -1.274833096517e+02 
-7.836493937159e+01 8.832104005474e-01 0.0 
8.832104005474e-01 -1.640237608477e+02 0.0 
0.0 0.0 -7.231661006580e+01 
-3.099063760470e+01 -1.093736652099e+00 0.0 
-1.093736652099e+00 -8.358923259264e+01 0.0 
0.0 0.0 -3.397396105920e+01 
-7.729226733638e+01 -6.284695271523e-01 0.0 
-6.284695271523e-01 -2.092387516491e+02 0.0 
0.0 0.0 -8.555930569564e+01 
-1.143574707649e+02 1.919407586991e+01 0.0 
1.919407586991e+01 -2.890018421643e+02 0.0 
0.0 0.0 -1.206077938788e+02 
-8.359190717179e+01 3.432905937799e+00 0.0 
3.432905937799e+00 -1.741601373650e+02 0.0 
0.0 0.0 -7.692561336103e+01 
-6.930758188983e+01 -1.142562467522e+00 0.0 
-1.142562467522e+00 -1.894384947182e+02 0.0 
0.0 0.0 -7.722382298241e+01 
-9.916213283381e+01 3.678435429495e+00 0.0 
3.678435429495e+00 -2.619708172094e+02 0.0 
0.0 0.0 -1.079398850130e+02 
-1.367937573389e+02 8.395666693071e+00 0.0 
8.395666693071e+00 -3.373809004070e+02 0.0 
0.0 0.0 -1.418523973238e+02 
-7.493687053811e+01 1.125183623545e+00 0.0 
1.125183623545e+00 -1.532002566646e+02 0.0 
0.0 0.0 -6.804113816082e+01 
-2.212891507854e+01 8.995156171868e-02 0.0 
8.995156171868e-02 -4.318412338501e+01 0.0 
0.0 0.0 -1.919391153907e+01 
-1.862696654192e+01 -1.122458376813e+00 0.0 
-1.122458376813e+00 -4.674972159518e+01 0.0 
0.0 0.0 -1.921300644113e+01 
-3.035545832235e+01 2.729308139462e+00 0.0 
2.729308139462e+00 -8.677358940819e+01 0.0 
0.0 0.0 -3.473871431916e+01 
-1.302209295616e+02 1.554990651320e+00 0.0 
1.554990651320e+00 -3.235557126315e+02 0.0 
0.0 0.0 -1.357329926579e+02 
-7.104410246725e+01 1.135496521932e+00 0.0 
1.135496521932e+00 -1.422958093559e+02 0.0 
0.0 0.0 -6.360197354696e+01 
-9.406015491868e+01 1.199479472477e+00 0.0 
1.199479472477e+00 -2.462417707397e+02 0.0 
0.0 0.0 -1.016905776975e+02 
-5.942606471330e+01 4.006255754913e-01 0.0 
4.006255754913e-01 -1.117006247787e+02 0.0 
0.0 0.0 -5.093800684759e+01 
-1.259541895854e+02 1.133850973063e+01 0.0 
1.133850973063e+01 -3.180060707701e+02 0.0 
0.0 0.0 -1.327880781067e+02 
-8.537080233595e+01 -2.295409749385e-01 0.0 
-2.295409749385e-01 -2.285437593135e+02 0.0 
0.0 0.0 -9.377436849483e+01 
-1.206279477682e+02 1.246593946153e+00 0.0 
1.246593946153e+00 -3.045890834089e+02 0.0 
0.0 0.0 -1.271651093532e+02 
-3.699345157897e+01 -4.953561748619e-01 0.0 
-4.953561748619e-01 -1.004747330616e+02 0.0 
0.0 0.0 -4.084045539218e+01 
-1.410594111504e+02 4.764847121394e+00 0.0 
4.764847121394e+00 -3.457586709377e+02 0.0 
0.0 0.0 -1.456454246264e+02 
-8.244981317863e+01 1.108144049241e+00 0.0 
1.108144049241e+00 -2.206698852061e+02 0.0 
0.0 0.0 -9.053590951543e+01 
-4.003936229313e+01 -1.197713443432e-01 0.0 
-1.197713443432e-01 -1.090371808671e+02 0.0 
0.0 0.0 -4.432296294808e+01 
-7.823871068605e+01 8.508428075763e-01 0.0 
8.508428075763e-01 -2.099855146374e+02 0.0 
0.0 0.0 -8.606726759705e+01 
-5.820709684847e+01 -1.615560451649e+00 0.0 
-1.615560451649e+00 -1.614036795309e+02 0.0 
0.0 0.0 -6.548323291382e+01 
-4.539413904983e+01 -1.229326433106e+00 0.0 
-1.229326433106e+00 -1.252718988942e+02 0.0 
0.0 0.0 -5.079981138322e+01 
-9.335090550841e+01 -2.868136041517e-01 0.0 
-2.868136041517e-01 -2.455309181042e+02 0.0 
0.0 0.0 -1.012645470838e+02 
-6.850886070105e+00 -5.552667833595e-01 0.0 
-5.552667833595e-01 -9.237423761314e+00 0.0 
0.0 0.0 -5.422162176149e+00 
-8.174545484456e+00 -5.914002326599e-01 0.0 
-5.914002326599e-01 -9.510689049541e+00 0.0 
0.0 0.0 -5.915578094205e+00 
-1.076903176999e+02 2.490186763897e+00 0.0 
2.490186763897e+00 -2.775941457305e+02 0.0 
0.0 0.0 -1.151853390291e+02 
-3.410515552071e+01 -8.665140947606e-01 0.0 
-8.665140947606e-01 -9.221949134843e+01 0.0 
0.0 0.0 -3.749739406074e+01 
-1.080391850100e+02 3.409656158405e+00 0.0 
3.409656158405e+00 -2.794264048686e+02 0.0 
0.0 0.0 -1.158396769636e+02 
-1.036151992992e+02 3.558582157851e+00 0.0 
3.558582157851e+00 -2.707589993827e+02 0.0 
0.0 0.0 -1.119122596045e+02 
-6.176102089939e+01 -1.296714066646e+00 0.0 
-1.296714066646e+00 -1.743002613406e+02 0.0 
0.0 0.0 -7.041838467199e+01 
-3.847547513277e+01 -2.305322285075e+00 0.0 
-2.305322285075e+00 -1.133537133266e+02 0.0 
0.0 0.0 -4.514875653781e+01 
-9.125899774819e+01 5.290681779368e+00 0.0 
5.290681779368e+00 -1.928529201674e+02 0.0 
0.0 0.0 -8.483357537467e+01 
-2.000112069597e+01 4.887395071743e+00 0.0 
4.887395071743e+00 -4.195800768167e+01 0.0 
0.0 0.0 -1.818773851329e+01 
-6.178739068461e+01 -1.319723133621e+00 0.0 
-1.319723133621e+00 -1.702516627916e+02 0.0 
0.0 0.0 -6.921171604286e+01 
-1.305180793044e+02 1.291320415624e+01 0.0 
1.291320415624e+01 -3.257788807405e+02 0.0 
0.0 0.0 -1.364890880135e+02 
-2.929361097783e+01 -1.979750255044e+00 0.0 
-1.979750255044e+00 -7.955866345618e+01 0.0 
0.0 0.0 -3.225568233020e+01 
-6.461076864701e+01 2.203820625099e+00 0.0 
2.203820625099e+00 -1.232823634054e+02 0.0 
0.0 0.0 -5.596793961571e+01 
-5.642562462470e+01 1.718310914760e+00 0.0 
1.718310914760e+00 -1.030845980243e+02 0.0 
0.0 0.0 -4.745306679471e+01 
-2.907822512351e+01 -1.832907665517e+00 0.0 
-1.832907665517e+00 -7.721227217581e+01 0.0 
0.0 0.0 -3.148714918980e+01 
-1.315967497359e+02 8.877068624850e+00 0.0 
8.877068624850e+00 -3.281924447421e+02 0.0 
0.0 0.0 -1.375367583434e+02 
-8.097370855510e+01 4.573142082428e+00 0.0 
4.573142082428e+00 -1.617799512593e+02 0.0 
0.0 0.0 -7.242609794431e+01 
-3.344924159957e+01 -2.160092671591e+00 0.0 
-2.160092671591e+00 -9.157073618721e+01 0.0 
0.0 0.0 -3.710599333603e+01 
-9.494459101795e+01 6.295143766456e+00 0.0 
6.295143766456e+00 -2.020616626561e+02 0.0 
0.0 0.0 -8.870187610220e+01 
-9.275086254301e+01 4.614264223759e+00 0.0 
4.614264223759e+00 -2.007566901874e+02 0.0 
0.0 0.0 -8.765226581911e+01 
-3.779749401008e+01 -9.562626162890e-01 0.0 
-9.562626162890e-01 -1.029636678148e+02 0.0 
0.0 0.0 -4.182834854747e+01 
-3.324154870971e+01 1.892218879298e+01 0.0 
1.892218879298e+01 -7.356346469297e+01 0.0 
0.0 0.0 -3.164150402081e+01 
-3.855075281617e+01 -1.492172122327e+00 0.0 
-1.492172122327e+00 -1.055452501559e+02 0.0 
0.0 0.0 -4.282880089162e+01 
-1.168688323538e+02 2.945316545642e+00 0.0 
2.945316545642e+00 -2.966100436508e+02 0.0 
0.0 0.0 -1.236436628014e+02 
-8.937697513759e+01 -2.377791692167e-01 0.0 
-2.377791692167e-01 -2.371444807847e+02 0.0 
0.0 0.0 -9.755643677669e+01 
-1.012724231735e+02 1.406169346885e+01 0.0 
1.406169346885e+01 -2.140702272031e+02 0.0 
0.0 0.0 -9.420279511298e+01 
-8.941411661748e+01 3.410081475043e+00 0.0 
3.410081475043e+00 -1.917516022050e+02 0.0 
0.0 0.0 -8.394971564673e+01 
-1.124573185877e+02 3.201565657680e+00 0.0 
3.201565657680e+00 -2.880493140686e+02 0.0 
0.0 0.0 -1.197519897969e+02 
-1.114777093306e+02 1.844082577611e+00 0.0 
1.844082577611e+00 -2.873365425495e+02 0.0 
0.0 0.0 -1.192442755640e+02 
-3.125763203749e+01 -2.910174408480e+00 0.0 
-2.910174408480e+00 -8.525895066808e+01 0.0 
0.0 0.0 -3.455497481167e+01 
-1.160704524951e+02 1.564100951109e+00 0.0 
1.564100951109e+00 -2.959689275519e+02 0.0 
0.0 0.0 -1.232118140141e+02 
-7.896028878526e+01 2.684047479423e+00 0.0 
2.684047479423e+00 -1.606070808636e+02 0.0 
0.0 0.0 -7.147021089465e+01 
-9.015360244082e+01 1.159267161674e+00 0.0 
1.159267161674e+00 -2.377834742729e+02 0.0 
0.0 0.0 -9.798112301412e+01 
-7.256042863822e+01 2.888906243785e+00 0.0 
2.888906243785e+00 -1.432333632970e+02 0.0 
0.0 0.0 -6.433813758058e+01 
-8.421967193335e+01 4.478473265442e+00 0.0 
4.478473265442e+00 -1.725836833993e+02 0.0 
0.0 0.0 -7.664100659979e+01 
-6.305551460683e+01 1.154902431877e+01 0.0 
1.154902431877e+01 -1.866738133306e+02 0.0 
0.0 0.0 -7.451879838124e+01 
-8.576166809027e+01 2.473506392301e+00 0.0 
2.473506392301e+00 -1.824261543128e+02 0.0 
0.0 0.0 -8.005634672092e+01 
-7.347537341625e+01 -9.366023478976e-01 0.0 
-9.366023478976e-01 -1.993788088150e+02 0.0 
0.0 0.0 -8.145625466938e+01 
-8.624609829474e+01 1.187465488243e+00 0.0 
1.187465488243e+00 -2.292335788021e+02 0.0 
0.0 0.0 -9.424390312906e+01 
-5.452382979395e+01 -1.850088967133e+00 0.0 
-1.850088967133e+00 -1.507607286128e+02 0.0 
0.0 0.0 -6.118536752202e+01 
-5.611907509443e+01 -5.411086609851e-01 0.0 
-5.411086609851e-01 -1.580037285075e+02 0.0 
0.0 0.0 -6.383684108059e+01 
-7.497898094927e+01 1.824125269098e+00 0.0 
1.824125269098e+00 -1.513844566663e+02 0.0 
0.0 0.0 -6.750903128468e+01 
-7.769342004965e+01 2.867059484000e+00 0.0 
2.867059484000e+00 -2.161790352034e+02 0.0 
0.0 0.0 -8.776173657591e+01 
-4.166305716172e+01 -1.158311623048e+00 0.0 
-1.158311623048e+00 -1.141774919215e+02 0.0 
0.0 0.0 -4.635216472496e+01 
-2.265917468819e+01 -1.767615304929e+00 0.0 
-1.767615304929e+00 -5.763029827971e+01 0.0 
0.0 0.0 -2.368684189037e+01 
-7.678279845154e+01 3.644931304542e+00 0.0 
3.644931304542e+00 -1.524565196316e+02 0.0 
0.0 0.0 -6.837179542494e+01 
-4.076267677842e+01 -2.562683901734e+00 0.0 
-2.562683901734e+00 -1.134844216618e+02 0.0 
0.0 0.0 -4.587412953208e+01 
-1.410903110387e+02 6.505492445631e+00 0.0 
6.505492445631e+00 -3.457444244889e+02 0.0 
0.0 0.0 -1.456504206583e+02 
-7.859919828998e+01 1.793322472515e+00 0.0 
1.793322472515e+00 -1.622821859632e+02 0.0 
0.0 0.0 -7.186441527595e+01 
-1.209233571342e+02 2.366305135860e+00 0.0 
2.366305135860e+00 -3.063113001943e+02 0.0 
0.0 0.0 -1.277703971986e+02 
-1.449400553728e+02 1.664689634797e+01 0.0 
1.664689634797e+01 -3.474049752975e+02 0.0 
0.0 0.0 -1.473035092011e+02 
-7.036216207062e+01 5.030503851457e-01 0.0 
5.030503851457e-01 -1.903760599692e+02 0.0 
0.0 0.0 -7.782146661196e+01 
-3.709352887747e+01 -2.442952874476e+00 0.0 
-2.442952874476e+00 -1.023367639130e+02 0.0 
0.0 0.0 -4.142908783715e+01 
-2.491193626843e+01 -2.856756971903e+00 0.0 
-2.856756971903e+00 -6.542215371969e+01 0.0 
0.0 0.0 -2.670022699643e+01 
-1.126538779192e+02 4.284049364244e+00 0.0 
4.284049364244e+00 -2.896335830780e+02 0.0 
0.0 0.0 -1.202862382992e+02 
-6.722500784977e+01 5.460234228906e-01 0.0 
5.460234228906e-01 -1.333502335154e+02 0.0 
0.0 0.0 -5.977257240955e+01 
-1.901948502205e+01 -2.425788717560e+00 0.0 
-2.425788717560e+00 -4.645562998193e+01 0.0 
0.0 0.0 -1.924253450119e+01 
-5.591109681796e+01 -5.180551121578e-01 0.0 
-5.180551121578e-01 -1.535842455536e+02 0.0 
0.0 0.0 -6.244860271148e+01 
-3.326736907254e+01 -2.547901568685e-01 0.0 
-2.547901568685e-01 -8.959994859409e+01 0.0 
0.0 0.0 -3.646019529999e+01 
-6.897694172591e+01 2.812915899267e+00 0.0 
2.812915899267e+00 -1.324684648245e+02 0.0 
0.0 0.0 -6.003362196513e+01 
-5.953862544880e+01 -1.633164349721e-01 0.0 
-1.633164349721e-01 -1.622862120081e+02 0.0 
0.0 0.0 -6.614745123707e+01 
-1.022500476386e+02 2.262016641436e+00 0.0 
2.262016641436e+00 -2.698867435163e+02 0.0 
0.0 0.0 -1.112410373465e+02 
-5.512128190261e+01 -2.102461739193e-01 0.0 
-2.102461739193e-01 -1.512601558509e+02 0.0 
0.0 0.0 -6.151443132605e+01 
-8.698737739810e+01 3.257970930113e+00 0.0 
3.257970930113e+00 -1.851393890410e+02 0.0 
0.0 0.0 -8.123802993172e+01 
-4.761882328644e+01 -2.303348536337e+00 0.0 
-2.303348536337e+00 -1.331822172545e+02 0.0 
0.0 0.0 -5.384031216228e+01 
-1.125438467221e+02 5.540044616727e+00 0.0 
5.540044616727e+00 -2.907075380828e+02 0.0 
0.0 0.0 -1.205754154415e+02 
-3.425195027510e+01 -2.253025890317e+00 0.0 
-2.253025890317e+00 -9.302428582653e+01 0.0 
0.0 0.0 -3.778287083049e+01 
-1.080530019747e+02 4.493464676735e+00 0.0 
4.493464676735e+00 -2.808274241451e+02 0.0 
0.0 0.0 -1.162641278359e+02 
-8.209055242044e+01 7.806760311323e-01 0.0 
7.806760311323e-01 -2.190017842128e+02 0.0 
0.0 0.0 -8.992770098997e+01 
-1.161731778489e+02 2.686883483058e+00 0.0 
2.686883483058e+00 -2.976050092032e+02 0.0 
0.0 0.0 -1.237334561156e+02 
-4.475463223135e+01 3.153209323474e+00 0.0 
3.153209323474e+00 -1.412446712219e+02 0.0 
0.0 0.0 -5.539979103597e+01 
-3.242041633261e+01 -1.761860724058e+00 0.0 
-1.761860724058e+00 -8.870091793346e+01 0.0 
0.0 0.0 -3.593640027982e+01 
-6.056053226204e+01 1.710856761125e+00 0.0 
1.710856761125e+00 -1.141605792381e+02 0.0 
0.0 0.0 -5.201633345005e+01 
-9.596213179942e+01 9.731442795312e+00 0.0 
9.731442795312e+00 -2.600158743667e+02 0.0 
0.0 0.0 -1.063934018498e+02 
-5.188491806682e+01 1.975574282399e+01 0.0 
1.975574282399e+01 -1.288959266434e+02 0.0 
0.0 0.0 -5.383425341306e+01 
-6.838024593340e+01 2.307546280621e+00 0.0 
2.307546280621e+00 -1.339273793442e+02 0.0 
0.0 0.0 -6.029228758328e+01 
-3.724315952215e+01 -2.030067245409e+00 0.0 
-2.030067245409e+00 -1.036889438050e+02 0.0 
0.0 0.0 -4.187963099816e+01 
-7.214793598145e+01 2.642132155180e+00 0.0 
2.642132155180e+00 -1.392208820336e+02 0.0 
0.0 0.0 -6.301064540452e+01 
-2.964769794469e+01 -4.755636110202e-01 0.0 
-4.755636110202e-01 -8.052372956099e+01 0.0 
0.0 0.0 -3.265142825171e+01 
-1.317557423108e+02 7.163814253483e+00 0.0 
7.163814253483e+00 -3.280084091759e+02 0.0 
0.0 0.0 -1.375292454460e+02 
-9.996564181905e+01 1.140932423166e+01 0.0 
1.140932423166e+01 -2.679159505613e+02 0.0 
0.0 0.0 -1.099644777141e+02 
-1.021226760281e+02 1.770677740313e+01 0.0 
1.770677740313e+01 -2.655251285816e+02 0.0 
0.0 0.0 -1.098943413829e+02 
-9.793554443493e+01 6.068986235375e+00 0.0 
6.068986235375e+00 -2.135360210297e+02 0.0 
0.0 0.0 -9.304146963939e+01 
-8.573870182934e+01 3.914563047076e+00 0.0 
3.914563047076e+00 -2.349676790278e+02 0.0 
0.0 0.0 -9.581191425713e+01 
-3.043879559335e+01 -2.484167448746e+00 0.0 
-2.484167448746e+00 -8.292270814175e+01 0.0 
0.0 0.0 -3.360845112053e+01 
-9.880963033527e+01 4.816856251415e+00 0.0 
4.816856251415e+00 -2.628934600754e+02 0.0 
0.0 0.0 -1.081109271232e+02 
-1.356606288188e+02 7.083188071036e+00 0.0 
7.083188071036e+00 -3.366097128439e+02 0.0 
0.0 0.0 -1.412811024988e+02 
-4.625695049416e+01 -9.229176996121e-01 0.0 
-9.229176996121e-01 -1.332469819471e+02 0.0 
0.0 0.0 -5.345117973237e+01 
-1.172320764886e+02 4.034762091412e+00 0.0 
4.034762091412e+00 -2.983480162339e+02 0.0 
0.0 0.0 -1.242740278167e+02 
-8.017778092142e+01 3.595301790365e+00 0.0 
3.595301790365e+00 -1.632556638945e+02 0.0 
0.0 0.0 -7.263003344477e+01 
-3.551295253634e+01 -2.150189698267e+00 0.0 
-2.150189698267e+00 -1.046467393520e+02 0.0 
0.0 0.0 -4.164790756651e+01 
-1.034385372771e+02 4.665646287965e+00 0.0 
4.665646287965e+00 -2.719187955566e+02 0.0 
0.0 0.0 -1.122071998501e+02 
-6.148938133133e+01 2.670732358997e+00 0.0 
2.670732358997e+00 -1.109391070116e+02 0.0 
0.0 0.0 -5.132854650288e+01 
-4.411837151260e+01 -3.847001062153e-01 0.0 
-3.847001062153e-01 -1.203073682242e+02 0.0 
0.0 0.0 -4.892772192103e+01 
-5.243806585112e+01 -8.381760542223e-01 0.0 
-8.381760542223e-01 -1.449266782123e+02 0.0 
0.0 0.0 -5.880942321904e+01 
-6.684973522773e+01 2.130847250774e+01 0.0 
2.130847250774e+01 -1.653100359562e+02 0.0 
0.0 0.0 -6.924793135519e+01 
-1.113990396354e+02 2.965986058075e+00 0.0 
2.965986058075e+00 -2.888113924167e+02 0.0 
0.0 0.0 -1.196631296156e+02 
-4.504222314515e+01 2.185102597205e+01 0.0 
2.185102597205e+01 -9.710965928849e+01 0.0 
0.0 0.0 -4.224556473009e+01 
-6.290118587692e+01 2.017084228273e+01 0.0 
2.017084228273e+01 -1.618932356853e+02 0.0 
0.0 0.0 -6.703832646868e+01 
-7.557041716576e+01 2.679920138991e+00 0.0 
2.679920138991e+00 -1.498661952709e+02 0.0 
0.0 0.0 -6.723098373099e+01 
-6.324225250667e+01 4.400592378027e-01 0.0 
4.400592378027e-01 -1.224068245083e+02 0.0 
0.0 0.0 -5.529472310448e+01 
-6.416624288459e+01 1.544068391811e+00 0.0 
1.544068391811e+00 -1.192106625130e+02 0.0 
0.0 0.0 -5.461307161927e+01 
-8.133356337264e+01 -4.556554836794e-01 0.0 
-4.556554836794e-01 -2.182967362798e+02 0.0 
0.0 0.0 -8.948908989573e+01 
-1.264524917131e+02 9.340323680457e+00 0.0 
9.340323680457e+00 -3.188691621399e+02 0.0 
0.0 0.0 -1.331964961559e+02 
-9.417160847586e+01 4.964628269152e+00 0.0 
4.964628269152e+00 -2.537368898293e+02 0.0 
0.0 0.0 -1.039725494916e+02 
-6.071383251348e+01 2.066769540115e+00 0.0 
2.066769540115e+00 -1.125216600101e+02 0.0 
0.0 0.0 -5.157064775707e+01 
-1.104792453234e+02 2.115162256964e+01 0.0 
2.115162256964e+01 -2.352991500526e+02 0.0 
0.0 0.0 -1.033335186128e+02 
-1.064050885256e+02 1.933333273407e+01 0.0 
1.933333273407e+01 -2.713366781371e+02 0.0 
0.0 0.0 -1.129225299988e+02 
-1.066190448770e+02 3.203440107870e+00 0.0 
3.203440107870e+00 -2.799353332835e+02 0.0 
0.0 0.0 -1.155663134481e+02 
-8.236969449435e+01 2.626344869918e+00 0.0 
2.626344869918e+00 -1.714860988753e+02 0.0 
0.0 0.0 -7.575673801089e+01 
-5.964938119224e+01 -2.673893989155e-01 0.0 
-2.673893989155e-01 -1.665242895588e+02 0.0 
0.0 0.0 -6.745210122532e+01 
-5.607449437906e+01 -6.277153068037e-01 0.0 
-6.277153068037e-01 -1.557967891898e+02 0.0 
0.0 0.0 -6.316138507065e+01 
-3.170068244828e+01 -1.572308917844e+00 0.0 
-1.572308917844e+00 -8.574139195822e+01 0.0 
0.0 0.0 -3.483262232195e+01 
-1.029843739384e+02 5.996697515814e+00 0.0 
5.996697515814e+00 -2.724671849444e+02 0.0 
0.0 0.0 -1.122354676648e+02 
-5.961963823083e+01 -3.331368524903e-01 0.0 
-3.331368524903e-01 -1.644852687557e+02 0.0 
0.0 0.0 -6.683147209597e+01 
-7.334175076354e+01 3.660784237281e+00 0.0 
3.660784237281e+00 -1.416555316127e+02 0.0 
0.0 0.0 -6.409918471288e+01 
-6.986084034724e+01 3.645206571951e+00 0.0 
3.645206571951e+00 -1.309629142254e+02 0.0 
0.0 0.0 -5.984712637179e+01 
-6.891971853234e+01 1.097810026418e+01 0.0 
1.097810026418e+01 -1.989487407846e+02 0.0 
0.0 0.0 -7.996053779509e+01 
-4.773587749064e+01 -2.407803832361e+00 0.0 
-2.407803832361e+00 -1.354552079444e+02 0.0 
0.0 0.0 -5.455732563052e+01 
-4.009103850895e+01 7.015259883936e+00 0.0 
7.015259883936e+00 -1.278920698301e+02 0.0 
0.0 0.0 -4.999493250170e+01 
-5.114843546607e+01 -2.167571213533e+00 0.0 
-2.167571213533e+00 -1.440853192549e+02 0.0 
0.0 0.0 -5.817012641628e+01 
-5.460943602606e+01 -1.895224988067e+00 0.0 
-1.895224988067e+00 -1.548960401217e+02 0.0 
0.0 0.0 -6.245164284433e+01 
-3.410937986670e+01 -2.708579891760e+00 0.0 
-2.708579891760e+00 -9.382509584649e+01 0.0 
0.0 0.0 -3.798034271396e+01 
-1.212549582036e+02 9.823821327320e+00 0.0 
9.823821327320e+00 -3.093544003829e+02 0.0 
0.0 0.0 -1.287828075759e+02 
-6.467691750764e+01 -5.850538552390e-02 0.0 
-5.850538552390e-02 -1.863736985469e+02 0.0 
0.0 0.0 -7.491518481638e+01 
-8.742622731104e+01 4.296467170935e+00 0.0 
4.296467170935e+00 -1.834413843071e+02 0.0 
0.0 0.0 -8.086028348543e+01 
-6.798511889338e+01 8.917565499953e-01 0.0 
8.917565499953e-01 -1.963387792040e+02 0.0 
0.0 0.0 -7.889716942923e+01 
-9.705102704935e+01 3.626013135931e+00 0.0 
3.626013135931e+00 -2.618879798378e+02 0.0 
0.0 0.0 -1.072817020661e+02 
-8.006067881073e+01 1.743765610666e+00 0.0 
1.743765610666e+00 -2.241590026530e+02 0.0 
0.0 0.0 -9.086590443913e+01 
-6.302996379422e+01 1.766610169842e+01 0.0 
1.766610169842e+01 -1.720922479997e+02 0.0 
0.0 0.0 -7.013666353819e+01 
-3.479816800003e+01 -1.338698352859e+00 0.0 
-1.338698352859e+00 -9.444061587543e+01 0.0 
0.0 0.0 -3.837163516264e+01 
-1.302677249776e+02 7.611378810491e+00 0.0 
7.611378810491e+00 -3.272968795833e+02 0.0 
0.0 0.0 -1.368693813683e+02 
-1.369372013676e+02 1.042384864493e+01 0.0 
1.042384864493e+01 -3.382576443396e+02 0.0 
0.0 0.0 -1.421584537122e+02 
-8.720379267195e+01 2.088916983515e+01 0.0 
2.088916983515e+01 -2.060644949984e+02 0.0 
0.0 0.0 -8.758048630112e+01 
-5.798706428244e+01 -1.479570370029e+00 0.0 
-1.479570370029e+00 -1.655520358128e+02 0.0 
0.0 0.0 -6.666173002858e+01 
-8.835371437807e+01 2.685997664701e+00 0.0 
2.685997664701e+00 -2.430415975613e+02 0.0 
0.0 0.0 -9.901859358182e+01 
-7.138312795193e+01 1.755953809391e+00 0.0 
1.755953809391e+00 -1.405055593588e+02 0.0 
0.0 0.0 -6.316660619323e+01 
-6.330960218833e+01 -1.856090636674e-02 0.0 
-1.856090636674e-02 -1.752370293510e+02 0.0 
0.0 0.0 -7.116398946181e+01 
-4.852036532911e+01 1.933539466090e+01 0.0 
1.933539466090e+01 -1.263759831455e+02 0.0 
0.0 0.0 -5.206890454239e+01 
-4.861392532826e+01 -8.950030026020e-01 0.0 
-8.950030026020e-01 -1.339152257400e+02 0.0 
0.0 0.0 -5.435874532047e+01 
-4.023635333248e+01 -1.626762597251e+00 0.0 
-1.626762597251e+00 -1.142497064950e+02 0.0 
0.0 0.0 -4.594581794823e+01 
-6.315717594717e+01 2.535815218271e-01 0.0 
2.535815218271e-01 -1.770780784755e+02 0.0 
0.0 0.0 -7.167057632679e+01 
-4.394170030911e+01 -2.254449696698e+00 0.0 
-2.254449696698e+00 -1.221102294513e+02 0.0 
0.0 0.0 -4.941557892812e+01 
-4.093665211513e+01 -6.714002407345e-01 0.0 
-6.714002407345e-01 -1.116380956465e+02 0.0 
0.0 0.0 -4.537242432848e+01 
-8.198759240722e+01 2.860217136926e+00 0.0 
2.860217136926e+00 -2.252206604583e+02 0.0 
0.0 0.0 -9.176247585965e+01 
-1.018351542732e+02 3.417946403240e+00 0.0 
3.417946403240e+00 -2.709654043309e+02 0.0 
0.0 0.0 -1.114401675812e+02 
-1.067828343696e+02 2.223612407026e+01 0.0 
2.223612407026e+01 -2.486165717352e+02 0.0 
0.0 0.0 -1.062198218315e+02 
-7.132407330606e+00 -6.884781062636e-01 0.0 
-6.884781062636e-01 -9.098705960651e+00 0.0 
0.0 0.0 -4.469333987377e+00 
-6.283182478285e+01 2.521293350895e+00 0.0 
2.521293350895e+00 -1.874027862903e+02 0.0 
0.0 0.0 -7.467038332196e+01 
-6.385918563285e+01 1.017548669063e+00 0.0 
1.017548669063e+00 -1.873265367821e+02 0.0 
0.0 0.0 -7.495571672448e+01 
-6.132474507781e+01 -8.619844639283e-01 0.0 
-8.619844639283e-01 -1.760700008293e+02 0.0 
0.0 0.0 -7.081842377214e+01 
-6.779588607056e+01 1.671967807783e+00 0.0 
1.671967807783e+00 -1.297598025132e+02 0.0 
0.0 0.0 -5.886670657512e+01 
-7.216591689843e+01 8.162477710165e-01 0.0 
8.162477710165e-01 -2.052527304220e+02 0.0 
0.0 0.0 -8.282559419613e+01 
-5.101310234862e+01 -2.041572486095e+00 0.0 
-2.041572486095e+00 -1.418801521699e+02 0.0 
0.0 0.0 -5.746797635554e+01 
-6.662504191747e+01 9.562737330873e-01 0.0 
9.562737330873e-01 -1.874219967282e+02 0.0 
0.0 0.0 -7.581411159369e+01 
-8.205562088507e+01 1.665829346807e+00 0.0 
1.665829346807e+00 -1.732127311360e+02 0.0 
0.0 0.0 -7.618050560633e+01 
-5.181397121492e+01 -5.639383216703e-01 0.0 
-5.639383216703e-01 -1.425478071293e+02 0.0 
0.0 0.0 -5.790853350328e+01 
-2.125357790190e+01 -2.365278130558e+00 0.0 
-2.365278130558e+00 -5.456211407024e+01 0.0 
0.0 0.0 -2.234470759164e+01 
-2.766860220154e+01 -2.625745565782e+00 0.0 
-2.625745565782e+00 -7.438919450817e+01 0.0 
0.0 0.0 -3.021733901291e+01 
-4.158111491901e+01 -2.341847599194e+00 0.0 
-2.341847599194e+00 -1.219947265460e+02 0.0 
0.0 0.0 -4.867275243949e+01 
-5.109001939767e+01 -2.085090922381e+00 0.0 
-2.085090922381e+00 -1.463238177623e+02 0.0 
0.0 0.0 -5.882415114798e+01 
-6.702518671882e+01 2.210525274272e+00 0.0 
2.210525274272e+00 -1.967265081738e+02 0.0 
0.0 0.0 -7.872550846778e+01 
-7.004333818855e+01 1.841393279843e+00 0.0 
1.841393279843e+00 -1.974325904810e+02 0.0 
0.0 0.0 -7.984277860087e+01 
-3.131967032725e+01 -2.251313222319e+00 0.0 
-2.251313222319e+00 -8.398349526694e+01 0.0 
0.0 0.0 -3.419094967826e+01 
-2.764125853308e+01 -1.259342668686e+00 0.0 
-1.259342668686e+00 -7.466500183052e+01 0.0 
0.0 0.0 -3.029187810908e+01 
-6.734897532089e+01 4.755020190680e+00 0.0 
4.755020190680e+00 -1.188231931464e+02 0.0 
0.0 0.0 -5.545165054018e+01 
-4.481599826775e+01 -7.884139404753e-01 0.0 
-7.884139404753e-01 -1.228006807088e+02 0.0 
0.0 0.0 -4.988500369297e+01 
-1.149983058622e+02 7.152898752974e+00 0.0 
7.152898752974e+00 -2.993961315073e+02 0.0 
0.0 0.0 -1.239183312108e+02 
-1.031120021376e+02 2.177064353140e+01 0.0 
2.177064353140e+01 -2.440596263233e+02 0.0 
0.0 0.0 -1.037514885383e+02 
-7.753513673836e+01 1.425002741846e+01 0.0 
1.425002741846e+01 -1.357709049000e+02 0.0 
0.0 0.0 -6.359181249152e+01 
-9.086952309666e+01 6.264632350650e+00 0.0 
6.264632350650e+00 -1.896412996349e+02 0.0 
0.0 0.0 -8.375324681947e+01 
-1.102449404515e+02 2.244236066209e+01 0.0 
2.244236066209e+01 -2.534140758271e+02 0.0 
0.0 0.0 -1.086977048836e+02 
-6.457470240599e+01 1.185717146715e+01 0.0 
1.185717146715e+01 -1.873840091252e+02 0.0 
0.0 0.0 -7.518761345935e+01 
-9.512535996745e+01 2.122352434086e+01 0.0 
2.122352434086e+01 -2.250028659568e+02 0.0 
0.0 0.0 -9.563846777727e+01 
-3.455019415196e+01 -2.175310858835e+00 0.0 
-2.175310858835e+00 -9.509344065892e+01 0.0 
0.0 0.0 -3.849309044326e+01 
-7.054626399436e+01 1.089373551480e+00 0.0 
1.089373551480e+00 -1.961938737906e+02 0.0 
0.0 0.0 -7.962204133549e+01 
-5.521618140051e+01 1.379341061855e+01 0.0 
1.379341061855e+01 -1.626283030045e+02 0.0 
0.0 0.0 -6.495334532151e+01 
-3.492437684041e+01 -6.310537143741e-01 0.0 
-6.310537143741e-01 -1.060432583908e+02 0.0 
0.0 0.0 -4.189029056935e+01 
-2.929370183034e+01 -2.433540358026e+00 0.0 
-2.433540358026e+00 -7.593732083524e+01 0.0 
0.0 0.0 -3.116930679968e+01 
-5.824135522015e+01 -1.672903223498e+00 0.0 
-1.672903223498e+00 -1.636079849369e+02 0.0 
0.0 0.0 -6.615480204712e+01 
-6.598045563485e+01 1.844574997337e+00 0.0 
1.844574997337e+00 -1.884270854909e+02 0.0 
0.0 0.0 -7.592226233773e+01 
-6.921000722893e+01 2.996749555761e+00 0.0 
2.996749555761e+00 -1.978316680992e+02 0.0 
0.0 0.0 -7.971250259843e+01 
-4.717432777699e+01 -1.913884777424e+00 0.0 
-1.913884777424e+00 -1.307499600167e+02 0.0 
0.0 0.0 -5.297728633811e+01 
-7.564425017405e+01 1.848245529831e+00 0.0 
1.848245529831e+00 -2.150875334788e+02 0.0 
0.0 0.0 -8.681953509584e+01 
-6.503745906590e+01 3.158581553047e+00 0.0 
3.158581553047e+00 -1.884925137345e+02 0.0 
0.0 0.0 -7.565899184012e+01 
-6.591539703340e+01 3.976636088980e+00 0.0 
3.976636088980e+00 -1.961556113282e+02 0.0 
0.0 0.0 -7.822130250849e+01 
-5.264551365107e+01 -9.256167911349e-01 0.0 
-9.256167911349e-01 -1.472302435051e+02 0.0 
0.0 0.0 -5.956272714686e+01 
-9.895421104335e+01 1.368558288059e+01 0.0 
1.368558288059e+01 -2.643966675580e+02 0.0 
0.0 0.0 -1.086052635804e+02 
-7.772039509864e+01 4.649689372506e+00 0.0 
4.649689372506e+00 -1.511071805042e+02 0.0 
0.0 0.0 -6.824827268084e+01 
-6.170346798559e+01 4.485267631835e+00 0.0 
4.485267631835e+00 -1.864420745906e+02 0.0 
0.0 0.0 -7.404366277285e+01 
-1.249917714736e+02 8.126049845570e+00 0.0 
8.126049845570e+00 -3.179866222667e+02 0.0 
0.0 0.0 -1.324935181221e+02 
-3.729729304686e+01 -1.655153202208e+00 0.0 
-1.655153202208e+00 -1.055095451114e+02 0.0 
0.0 0.0 -4.244205144747e+01 
-1.349016243228e+02 1.131193394417e+01 0.0 
1.131193394417e+01 -3.359885104410e+02 0.0 
0.0 0.0 -1.408670404292e+02 
-7.129083220434e+01 1.987531832476e+00 0.0 
1.987531832476e+00 -2.059057021496e+02 0.0 
0.0 0.0 -8.275896030619e+01 
-1.138184623647e+02 2.278640451024e+01 0.0 
2.278640451024e+01 -2.600740367806e+02 0.0 
0.0 0.0 -1.117677497436e+02 
-8.056714237855e+01 2.183000955192e+01 0.0 
2.183000955192e+01 -1.654996828612e+02 0.0 
0.0 0.0 -7.342004757191e+01 
-3.582865726564e+01 -2.870988884520e+00 0.0 
-2.870988884520e+00 -1.029047722037e+02 0.0 
0.0 0.0 -4.122002884081e+01 
-8.146865780452e+01 1.653363501203e+01 0.0 
1.653363501203e+01 -1.487934657871e+02 0.0 
0.0 0.0 -6.867863707748e+01 
-9.612023192350e+01 9.749336008976e+00 0.0 
9.749336008976e+00 -2.004421918630e+02 0.0 
0.0 0.0 -8.856872713595e+01 
-7.466630913790e+01 3.256595330262e+00 0.0 
3.256595330262e+00 -2.151881043278e+02 0.0 
0.0 0.0 -8.655632403972e+01 
-4.214224149233e+01 1.559600356120e+01 0.0 
1.559600356120e+01 -1.184745379095e+02 0.0 
0.0 0.0 -4.778503382056e+01 
-8.518140132968e+01 1.850787703963e+01 0.0 
1.850787703963e+01 -1.624829921903e+02 0.0 
0.0 0.0 -7.389931805599e+01 
-5.939413138011e+01 1.994087066593e+01 0.0 
1.994087066593e+01 -1.469687974155e+02 0.0 
0.0 0.0 -6.150887863867e+01 
-3.035707606992e+01 -3.214927138475e+00 0.0 
-3.214927138475e+00 -8.335097097757e+01 0.0 
0.0 0.0 -3.371241411425e+01 
-1.038361758539e+02 8.444234833471e+00 0.0 
8.444234833471e+00 -2.314006739329e+02 0.0 
0.0 0.0 -1.001710549360e+02 
-2.755317268968e+01 -3.263587838792e+00 0.0 
-3.263587838792e+00 -7.289762768158e+01 0.0 
0.0 0.0 -2.973524011138e+01 
-1.269475770461e+02 1.971362346140e+01 0.0 
1.971362346140e+01 -3.143234468801e+02 0.0 
0.0 0.0 -1.319813071779e+02 
-9.255514457043e+01 3.141019533281e+00 0.0 
3.141019533281e+00 -2.025096574455e+02 0.0 
0.0 0.0 -8.811944060478e+01 
-1.040937516231e+02 1.313523476186e+01 0.0 
1.313523476186e+01 -2.754660862776e+02 0.0 
0.0 0.0 -1.134679513702e+02 
-6.343810059698e+01 8.449492653275e-01 0.0 
8.449492653275e-01 -1.204305639250e+02 0.0 
0.0 0.0 -5.476059935659e+01 
-8.935879151179e+01 6.949798138964e+00 0.0 
6.949798138964e+00 -1.811312077195e+02 0.0 
0.0 0.0 -8.074699976937e+01 
-6.812441219457e+01 4.568411946626e+00 0.0 
4.568411946626e+00 -1.972281438542e+02 0.0 
0.0 0.0 -7.920576681463e+01 
-7.683191893390e+01 1.207007400290e+01 0.0 
1.207007400290e+01 -2.168151288853e+02 0.0 
0.0 0.0 -8.769411434575e+01 
-9.756879077887e+01 7.373412580721e+00 0.0 
7.373412580721e+00 -2.101817512894e+02 0.0 
0.0 0.0 -9.192516262047e+01 
-1.110665570365e+02 4.267611586032e+00 0.0 
4.267611586032e+00 -2.897979478915e+02 0.0 
0.0 0.0 -1.198593514784e+02 
-8.216098863628e+01 5.802697231514e+00 0.0 
5.802697231514e+00 -1.607715716942e+02 0.0 
0.0 0.0 -7.247976809915e+01 
-9.904370329153e+01 8.298395416392e+00 0.0 
8.298395416392e+00 -2.692631910058e+02 0.0 
0.0 0.0 -1.100920682892e+02 
-3.303667813110e+01 -2.810281209045e+00 0.0 
-2.810281209045e+00 -9.430934775341e+01 0.0 
0.0 0.0 -3.780380776535e+01 
-8.657647692411e+01 7.157332343766e+00 0.0 
7.157332343766e+00 -1.706260209432e+02 0.0 
0.0 0.0 -7.676074936019e+01 
-1.273627271875e+02 2.669998782355e+01 0.0 
2.669998782355e+01 -2.990446576134e+02 0.0 
0.0 0.0 -1.275222154402e+02 
-1.357929068746e+02 9.003244814616e+00 0.0 
9.003244814616e+00 -3.373259427160e+02 0.0 
0.0 0.0 -1.415356548772e+02 
-6.870369977500e+01 -4.667630420820e-02 0.0 
-4.667630420820e-02 -1.951649444293e+02 0.0 
0.0 0.0 -7.876059326129e+01 
-6.519479098807e+01 2.811591562536e+00 0.0 
2.811591562536e+00 -1.214419973483e+02 0.0 
0.0 0.0 -5.559103650091e+01 
-5.958450246745e+01 6.934710679515e-01 0.0 
6.934710679515e-01 -1.098037084755e+02 0.0 
0.0 0.0 -5.041646328288e+01 
-7.340707304016e+01 2.913874013629e+00 0.0 
2.913874013629e+00 -2.070061376623e+02 0.0 
0.0 0.0 -8.372396321073e+01 
-1.061326733878e+02 4.546727062915e+00 0.0 
4.546727062915e+00 -2.806898774704e+02 0.0 
0.0 0.0 -1.156467652574e+02 
-1.105252606393e+02 5.789380724296e+00 0.0 
5.789380724296e+00 -2.901768872101e+02 0.0 
0.0 0.0 -1.198106443548e+02 
-2.517772976755e+01 -1.422700178204e+00 0.0 
-1.422700178204e+00 -6.585750445641e+01 0.0 
0.0 0.0 -2.691057026719e+01 
-3.472979781830e+01 6.213818627294e+00 0.0 
6.213818627294e+00 -1.105823511324e+02 0.0 
0.0 0.0 -4.319364468521e+01 
-6.483192314652e+01 6.164221247719e+00 0.0 
6.164221247719e+00 -1.945103709567e+02 0.0 
0.0 0.0 -7.740268823097e+01 
-6.389162051966e+01 4.949507757077e+00 0.0 
4.949507757077e+00 -1.874788349634e+02 0.0 
0.0 0.0 -7.501113664492e+01 
-5.888351282321e+01 1.808894894467e+01 0.0 
1.808894894467e+01 -1.580554577719e+02 0.0 
0.0 0.0 -6.468169117855e+01 
-1.024138570988e+02 8.917838528906e+00 0.0 
8.917838528906e+00 -2.216312599994e+02 0.0 
0.0 0.0 -9.681353512946e+01 
-1.031129775899e+02 1.659297632027e+01 0.0 
1.659297632027e+01 -2.187484431670e+02 0.0 
0.0 0.0 -9.615842622706e+01 
-9.413517612967e+01 4.908905857871e+00 0.0 
4.908905857871e+00 -2.033825813871e+02 0.0 
0.0 0.0 -8.885532725502e+01 
-4.860887607243e+01 2.235945398865e+01 0.0 
2.235945398865e+01 -9.893327011657e+01 0.0 
0.0 0.0 -4.386264385670e+01 
-8.952203233798e+01 8.326637413020e+00 0.0 
8.326637413020e+00 -1.796523859237e+02 0.0 
0.0 0.0 -8.035232547850e+01 
-1.077705847478e+02 5.774796402711e+00 0.0 
5.774796402711e+00 -2.816514470362e+02 0.0 
0.0 0.0 -1.164266095352e+02 
-9.665042778747e+01 5.612301790290e+00 0.0 
5.612301790290e+00 -2.109362596256e+02 0.0 
0.0 0.0 -9.187600622392e+01 
-8.371209029179e+01 7.348784693492e+00 0.0 
7.348784693492e+00 -1.602047054816e+02 0.0 
0.0 0.0 -7.277503873201e+01 
-7.411927316496e+01 1.896304212645e+00 0.0 
1.896304212645e+00 -2.063201041120e+02 0.0 
0.0 0.0 -8.373181318308e+01 
-6.062438377117e+01 6.895856128545e+00 0.0 
6.895856128545e+00 -1.842203164670e+02 0.0 
0.0 0.0 -7.305341007146e+01 
-8.389825403668e+01 5.033999023529e+00 0.0 
5.033999023529e+00 -1.691315865976e+02 0.0 
0.0 0.0 -7.550895219029e+01 
-9.612000023664e+01 8.048094467763e+00 0.0 
8.048094467763e+00 -2.016097957234e+02 0.0 
0.0 0.0 -8.891893878801e+01 
-8.296380987244e+01 3.689265071017e+00 0.0 
3.689265071017e+00 -1.700733423886e+02 0.0 
0.0 0.0 -7.551114567830e+01 
-7.973403300076e+01 3.762731575881e+00 0.0 
3.762731575881e+00 -1.593985763484e+02 0.0 
0.0 0.0 -7.133978280474e+01 
-1.254413752889e+02 6.287530995470e+00 0.0 
6.287530995470e+00 -3.181113007618e+02 0.0 
0.0 0.0 -1.326658028152e+02 
-1.216324427364e+02 2.010535499172e+01 0.0 
2.010535499172e+01 -3.024677495583e+02 0.0 
0.0 0.0 -1.268300576884e+02 
-1.202507419638e+02 6.712400268096e+00 0.0 
6.712400268096e+00 -3.088531007092e+02 0.0 
0.0 0.0 -1.283311528019e+02 
-9.298050416821e+01 2.549571248285e+00 0.0 
2.549571248285e+00 -2.520782304835e+02 0.0 
0.0 0.0 -1.031176203955e+02 
-4.455052001340e+01 1.466301744548e+01 0.0 
1.466301744548e+01 -6.489023733895e+01 0.0 
0.0 0.0 -3.243222720571e+01 
-1.082423438297e+02 1.485840570965e+01 0.0 
1.485840570965e+01 -2.825516826194e+02 0.0 
0.0 0.0 -1.168382079347e+02 
-8.415117729356e+01 9.013628924935e+00 0.0 
9.013628924935e+00 -1.605941092987e+02 0.0 
0.0 0.0 -7.302358597766e+01 
-4.021089744558e+01 -2.108535501355e+00 0.0 
-2.108535501355e+00 -1.110194071263e+02 0.0 
0.0 0.0 -4.496909137157e+01 
-6.694088857817e+01 6.614044241015e+00 0.0 
6.614044241015e+00 -1.955068156798e+02 0.0 
0.0 0.0 -7.833431127738e+01 
-7.699440697627e+01 6.631503339626e+00 0.0 
6.631503339626e+00 -2.225599459994e+02 0.0 
0.0 0.0 -8.946630589270e+01 
-8.516749466909e+01 1.316878994571e+01 0.0 
1.316878994571e+01 -2.348286042353e+02 0.0 
0.0 0.0 -9.559882967132e+01 
-3.376893406750e+01 1.283252071740e+00 0.0 
1.283252071740e+00 -1.053181887540e+02 0.0 
0.0 0.0 -4.132613684644e+01 
-6.267070797256e+01 7.210274855980e+00 0.0 
7.210274855980e+00 -1.851613322270e+02 0.0 
0.0 0.0 -7.394961205985e+01 
-9.391322497645e+01 1.428178925858e+01 0.0 
1.428178925858e+01 -2.529611682034e+02 0.0 
0.0 0.0 -1.036623179540e+02 
-5.740608325643e+01 1.827689760609e+01 0.0 
1.827689760609e+01 -1.040678885126e+02 0.0 
0.0 0.0 -4.804219153071e+01 
-7.642110866855e+01 7.996316395178e-01 0.0 
7.996316395178e-01 -2.141804016575e+02 0.0 
0.0 0.0 -8.678045309780e+01 
-7.597728537435e+01 6.014297904736e+00 0.0 
6.014297904736e+00 -1.396756900105e+02 0.0 
0.0 0.0 -6.429589261545e+01 
-4.636054919171e+01 -3.169216832145e-01 0.0 
-3.169216832145e-01 -7.982609103768e+01 0.0 
0.0 0.0 -3.745599206882e+01 
-2.424199413460e+01 1.547890795674e+01 0.0 
1.547890795674e+01 -1.811023218428e+01 0.0 
0.0 0.0 -1.230566789566e+01 
-9.021687551406e+01 3.840784395868e+00 0.0 
3.840784395868e+00 -2.440838865801e+02 0.0 
0.0 0.0 -9.989022862826e+01 
-1.075028281138e+02 1.154521313061e+01 0.0 
1.154521313061e+01 -2.852346173984e+02 0.0 
0.0 0.0 -1.174212336536e+02 
-1.055509569082e+02 1.578982763024e+01 0.0 
1.578982763024e+01 -2.267294472666e+02 0.0 
0.0 0.0 -9.928412125246e+01 
-7.155984889401e+01 9.701584097198e+00 0.0 
9.701584097198e+00 -2.092565171899e+02 0.0 
0.0 0.0 -8.384490982517e+01 
-8.450973149077e+01 1.668527742556e+00 0.0 
1.668527742556e+00 -2.331523726996e+02 0.0 
0.0 0.0 -9.489863125711e+01 
-7.443198891035e+01 4.659384546954e+00 0.0 
4.659384546954e+00 -1.405196916706e+02 0.0 
0.0 0.0 -6.408550417428e+01 
-2.520386267668e+01 1.671381630069e+01 0.0 
1.671381630069e+01 -1.953799910356e+01 0.0 
0.0 0.0 -1.302255853407e+01 
-1.023008322731e+02 1.212453113006e+01 0.0 
1.212453113006e+01 -2.744879801903e+02 0.0 
0.0 0.0 -1.126366437390e+02 
-8.147677431416e+01 1.136169814407e+01 0.0 
1.136169814407e+01 -2.281095255851e+02 0.0 
0.0 0.0 -9.247588996978e+01 
-6.164483849791e+01 2.035523436094e+01 0.0 
2.035523436094e+01 -1.088590599097e+02 0.0 
0.0 0.0 -5.075116952229e+01 
-1.121701037146e+02 7.004843255737e+00 0.0 
7.004843255737e+00 -2.911369033180e+02 0.0 
0.0 0.0 -1.205921021098e+02 
-3.698896397402e+01 -7.366534097021e-01 0.0 
-7.366534097021e-01 -1.069017168926e+02 0.0 
0.0 0.0 -4.276720425999e+01 
-1.166618418679e+02 8.350359040455e+00 0.0 
8.350359040455e+00 -3.003619554114e+02 0.0 
0.0 0.0 -1.247071391838e+02 
-1.298328085378e+02 9.576530605016e+00 0.0 
9.576530605016e+00 -3.270007239360e+02 0.0 
0.0 0.0 -1.366500597421e+02 
-9.723344346116e+01 1.273027772748e+01 0.0 
1.273027772748e+01 -2.634619449708e+02 0.0 
0.0 0.0 -1.078086165296e+02 
-8.517257606902e+01 5.672216291842e+00 0.0 
5.672216291842e+00 -1.713525095748e+02 0.0 
0.0 0.0 -7.655752569315e+01 
-1.043253306472e+02 2.259161369452e+01 0.0 
2.259161369452e+01 -2.541117245184e+02 0.0 
0.0 0.0 -1.071311165497e+02 
-1.314664204164e+02 1.094041238990e+01 0.0 
1.094041238990e+01 -3.279429344163e+02 0.0 
0.0 0.0 -1.374228064498e+02 
-2.494917552817e+01 1.674874738135e+01 0.0 
1.674874738135e+01 -2.005448038047e+01 0.0 
0.0 0.0 -1.310109677259e+01 
-7.912466960797e+01 5.881290796070e+00 0.0 
5.881290796070e+00 -1.502462115452e+02 0.0 
0.0 0.0 -6.841126434595e+01 
-1.202754503540e+02 2.198673954028e+01 0.0 
2.198673954028e+01 -2.955376296365e+02 0.0 
0.0 0.0 -1.243439239971e+02 
-8.691773928737e+01 4.894719317908e+00 0.0 
4.894719317908e+00 -1.797445068133e+02 0.0 
0.0 0.0 -7.959867383020e+01 
-8.829038012142e+01 1.169751528873e+01 0.0 
1.169751528873e+01 -2.452966987638e+02 0.0 
0.0 0.0 -9.967612366556e+01 
-6.570904648875e+01 9.074132877588e+00 0.0 
9.074132877588e+00 -1.922743028294e+02 0.0 
0.0 0.0 -7.699500479543e+01 
-8.535442920052e+01 2.015244825846e-01 0.0 
2.015244825846e-01 -2.303508370591e+02 0.0 
0.0 0.0 -9.431157987789e+01 
-2.339700375056e+01 1.122413051421e+00 0.0 
1.122413051421e+00 -6.037938726783e+01 0.0 
0.0 0.0 -2.473291730552e+01 
-8.997047618457e+01 4.671205267325e+00 0.0 
4.671205267325e+00 -1.904186361574e+02 0.0 
0.0 0.0 -8.371673370259e+01 
-4.348603979363e+01 -1.869208835849e+00 0.0 
-1.869208835849e+00 -1.197644580463e+02 0.0 
0.0 0.0 -4.857514935198e+01 
-2.404456157744e+01 1.627545219604e+01 0.0 
1.627545219604e+01 -1.976079598798e+01 0.0 
0.0 0.0 -1.274160726963e+01 
-9.972521144971e+01 2.277365164921e+01 0.0 
2.277365164921e+01 -2.399513394628e+02 0.0 
0.0 0.0 -1.015029652738e+02 
-9.637975391189e+01 4.141997781904e+00 0.0 
4.141997781904e+00 -2.125215190863e+02 0.0 
0.0 0.0 -9.227038189945e+01 
-3.453661363411e+01 -1.575011653576e+00 0.0 
-1.575011653576e+00 -9.690631928375e+01 0.0 
0.0 0.0 -3.903287987536e+01 
-7.101369465405e+01 2.210325354920e+01 0.0 
2.210325354920e+01 -1.687704608244e+02 0.0 
0.0 0.0 -7.153524664353e+01 
-8.089355324352e+01 5.100577027313e+00 0.0 
5.100577027313e+00 -1.586354262684e+02 0.0 
0.0 0.0 -7.145869385358e+01 
-8.242715045389e+01 2.035173164830e+00 0.0 
2.035173164830e+00 -2.241008784718e+02 0.0 
0.0 0.0 -9.155840867770e+01 
-3.606511297426e+01 1.096394435033e+00 0.0 
1.096394435033e+00 -1.062483348950e+02 0.0 
0.0 0.0 -4.229403436078e+01 
-3.848238737328e+01 1.379685412551e+01 0.0 
1.379685412551e+01 -1.142282492344e+02 0.0 
0.0 0.0 -4.541319098231e+01 
-2.820524644772e+01 -2.994287101072e+00 0.0 
-2.994287101072e+00 -7.534299466586e+01 0.0 
0.0 0.0 -3.066447233407e+01 
-3.277603680541e+01 -1.874052025649e+00 0.0 
-1.874052025649e+00 -9.610428624629e+01 0.0 
0.0 0.0 -3.826409691551e+01 
-3.050337243239e+01 -2.592163363539e+00 0.0 
-2.592163363539e+00 -8.613788094770e+01 0.0 
0.0 0.0 -3.459237601403e+01 
-7.972486502350e+01 1.069384987652e+01 0.0 
1.069384987652e+01 -2.272241818161e+02 0.0 
0.0 0.0 -9.168471405189e+01 
-1.158994443765e+02 1.475804223913e+01 0.0 
1.475804223913e+01 -2.618193050663e+02 0.0 
0.0 0.0 -1.129156248329e+02 
-2.274094018821e+01 1.551802571240e+01 0.0 
1.551802571240e+01 -1.918188609665e+01 0.0 
0.0 0.0 -1.217684788546e+01 
-1.306780564630e+02 5.841295259141e+00 0.0 
5.841295259141e+00 -3.272452265075e+02 0.0 
0.0 0.0 -1.369769848911e+02 
-5.263182072029e+01 8.756327039923e+00 0.0 
8.756327039923e+00 -1.627938084706e+02 0.0 
0.0 0.0 -6.422768875726e+01 
-8.081374991182e+01 7.592691919728e+00 0.0 
7.592691919728e+00 -1.500362208526e+02 0.0 
0.0 0.0 -6.885499122933e+01 
-2.680867628396e+01 1.652227374528e+00 0.0 
1.652227374528e+00 -7.817527879598e+01 0.0 
0.0 0.0 -3.109518652398e+01 
-1.363337460538e+02 1.246105898075e+01 0.0 
1.246105898075e+01 -3.365075608795e+02 0.0 
0.0 0.0 -1.414523920800e+02 
-3.217447382667e+01 -2.252783291769e+00 0.0 
-2.252783291769e+00 -8.689692621260e+01 0.0 
0.0 0.0 -3.532142001178e+01 
-5.095055586253e+01 -1.677855192270e+00 0.0 
-1.677855192270e+00 -1.401438824311e+02 0.0 
0.0 0.0 -5.692833148810e+01 
-1.014400878594e+02 1.439727550525e+01 0.0 
1.439727550525e+01 -2.702875413217e+02 0.0 
0.0 0.0 -1.111182887543e+02 
-7.241102577611e+01 4.304436032204e+00 0.0 
4.304436032204e+00 -2.067529951392e+02 0.0 
0.0 0.0 -8.334920627458e+01 
-1.160625672253e+02 2.049753185657e+01 0.0 
2.049753185657e+01 -2.899694797109e+02 0.0 
0.0 0.0 -1.214096140809e+02 
-4.219880114146e+01 1.879044418604e+01 0.0 
1.879044418604e+01 -1.086434461285e+02 0.0 
0.0 0.0 -4.485267418098e+01 
-8.978240463495e+01 1.114575548576e+01 0.0 
1.114575548576e+01 -1.716876342913e+02 0.0 
0.0 0.0 -7.804101167788e+01 
-1.254740826021e+02 1.833234299683e+01 0.0 
1.833234299683e+01 -3.133964372778e+02 0.0 
0.0 0.0 -1.312611559640e+02 
-7.649778401835e+01 3.751753473262e+00 0.0 
3.751753473262e+00 -1.487905095342e+02 0.0 
0.0 0.0 -6.718648806575e+01 
-1.077706026956e+02 1.829579784040e+01 0.0 
1.829579784040e+01 -2.282089517433e+02 0.0 
0.0 0.0 -1.003938663317e+02 
-9.083550542743e+01 8.659934741908e+00 0.0 
8.659934741908e+00 -1.806745652416e+02 0.0 
0.0 0.0 -8.105302120071e+01 
-9.498104979122e+01 1.029651488794e+01 0.0 
1.029651488794e+01 -1.911692405382e+02 0.0 
0.0 0.0 -8.544508709883e+01 
-2.782542299102e+01 7.158139819281e+00 0.0 
7.158139819281e+00 -8.290098214168e+01 0.0 
0.0 0.0 -3.281792153981e+01 
-1.256912658926e+02 4.705240930633e+00 0.0 
4.705240930633e+00 -3.174614617609e+02 0.0 
0.0 0.0 -1.325458182960e+02 
-8.528021180915e+01 6.651520778156e+00 0.0 
6.651520778156e+00 -1.689638424428e+02 0.0 
0.0 0.0 -7.587321627558e+01 
-6.657416376134e+01 1.337808646534e+01 0.0 
1.337808646534e+01 -1.923512098767e+02 0.0 
0.0 0.0 -7.727761209143e+01 
-2.798205642341e+01 1.414945578175e+01 0.0 
1.414945578175e+01 -1.985960115432e+01 0.0 
0.0 0.0 -1.395249727332e+01 
-1.319162805197e+02 2.146556186531e+01 0.0 
2.146556186531e+01 -3.208522058218e+02 0.0 
0.0 0.0 -1.354305459025e+02 
-3.276096824384e+01 4.183204571205e+00 0.0 
4.183204571205e+00 -1.035738915409e+02 0.0 
0.0 0.0 -4.050045793541e+01 
-4.811808466347e+01 -4.138541820865e-01 0.0 
-4.138541820865e-01 -1.314611284645e+02 0.0 
0.0 0.0 -5.347376393840e+01 
-1.100761922778e+02 1.757528755585e+01 0.0 
1.757528755585e+01 -2.830549701680e+02 0.0 
0.0 0.0 -1.175393487338e+02 
-2.954377420904e+01 3.197238888110e-01 0.0 
3.197238888110e-01 -8.042235231842e+01 0.0 
0.0 0.0 -3.258983795824e+01 
-6.673520264633e+01 1.922282804838e+01 0.0 
1.922282804838e+01 -1.761014579837e+02 0.0 
0.0 0.0 -7.245099818900e+01 
-1.065365883378e+02 1.380985768001e+01 0.0 
1.380985768001e+01 -2.816264551144e+02 0.0 
0.0 0.0 -1.160489130357e+02 
-1.008960877668e+02 1.138777777839e+01 0.0 
1.138777777839e+01 -2.111806487589e+02 0.0 
0.0 0.0 -9.322302095771e+01 
-1.047698892970e+02 1.327787641987e+01 0.0 
1.327787641987e+01 -2.226680207747e+02 0.0 
0.0 0.0 -9.783137302152e+01 
-1.030328503941e+02 1.541873301608e+01 0.0 
1.541873301608e+01 -2.711761636484e+02 0.0 
0.0 0.0 -1.118627042127e+02 
-9.344468551879e+01 8.380191985782e+00 0.0 
8.380191985782e+00 -1.910982102617e+02 0.0 
0.0 0.0 -8.496286873414e+01 
-5.570387195862e+01 1.071028791457e+01 0.0 
1.071028791457e+01 -1.690612587905e+02 0.0 
0.0 0.0 -6.702953922472e+01 
-9.964956730162e+01 2.342250497018e+01 0.0 
2.342250497018e+01 -2.301572920616e+02 0.0 
0.0 0.0 -9.854205780896e+01 
-2.711757983411e+01 6.067323819627e+00 0.0 
6.067323819627e+00 -2.358240368579e+01 0.0 
0.0 0.0 -1.480999505597e+01 
-1.078184432348e+02 2.021150214133e+01 0.0 
2.021150214133e+01 -2.378255467241e+02 0.0 
0.0 0.0 -1.032931969877e+02 
-3.487529038110e+01 3.862386717502e+00 0.0 
3.862386717502e+00 -4.108906102947e+01 0.0 
0.0 0.0 -2.238930542317e+01 
-3.930016195171e+01 3.292235096740e+00 0.0 
3.292235096740e+00 -5.046167173967e+01 0.0 
0.0 0.0 -2.652855010742e+01 
-6.722303344665e+01 1.056836194107e+01 0.0 
1.056836194107e+01 -1.981430202757e+02 0.0 
0.0 0.0 -7.920981611670e+01 
-4.343291363640e+01 2.863814881079e+00 0.0 
2.863814881079e+00 -6.064284227506e+01 0.0 
0.0 0.0 -3.082272677344e+01 
-7.877787659744e+01 1.884853500025e+01 0.0 
1.884853500025e+01 -2.076648464578e+02 0.0 
0.0 0.0 -8.553281691656e+01 
-5.956220982519e+01 1.590207776562e+01 0.0 
1.590207776562e+01 -1.677919570371e+02 0.0 
0.0 0.0 -6.780625005869e+01 
-7.007838083099e+01 8.382555908264e+00 0.0 
8.382555908264e+00 -2.030177836848e+02 0.0 
0.0 0.0 -8.152884935473e+01 
-3.179946154980e+01 -2.523577187985e-01 0.0 
-2.523577187985e-01 -9.628515513665e+01 0.0 
0.0 0.0 -3.802538500593e+01 
-6.381854390713e+01 8.719312159232e+00 0.0 
8.719312159232e+00 -1.913958690491e+02 0.0 
0.0 0.0 -7.616432388688e+01 
-9.371550766857e+01 6.007187088712e+00 0.0 
6.007187088712e+00 -2.002387597723e+02 0.0 
0.0 0.0 -8.778628023228e+01 
-1.076626177225e+02 1.827875136238e+01 0.0 
1.827875136238e+01 -2.338867643842e+02 0.0 
0.0 0.0 -1.020648146320e+02 
-1.159857669112e+02 3.972476668559e+00 0.0 
3.972476668559e+00 -2.987678156437e+02 0.0 
0.0 0.0 -1.240260747665e+02 
-1.198796000445e+02 1.873959547845e+01 0.0 
1.873959547845e+01 -3.014333435543e+02 0.0 
0.0 0.0 -1.259938830796e+02 
-7.021813825256e+01 3.563844895019e+00 0.0 
3.563844895019e+00 -2.056585232560e+02 0.0 
0.0 0.0 -8.236299845255e+01 
-9.217484337849e+01 8.041680387798e+00 0.0 
8.041680387798e+00 -1.895859231887e+02 0.0 
0.0 0.0 -8.412822997015e+01 
-6.809357941300e+01 7.908371793020e+00 0.0 
7.908371793020e+00 -2.020747357930e+02 0.0 
0.0 0.0 -8.065049456180e+01 
-1.307309262229e+02 4.283030524531e+00 0.0 
4.283030524531e+00 -3.262877708184e+02 0.0 
0.0 0.0 -1.367056091124e+02 
-8.803220580252e+01 6.499159232228e+00 0.0 
6.499159232228e+00 -1.791173733268e+02 0.0 
0.0 0.0 -7.974487373881e+01 
-9.243470270195e+01 1.070161114509e+01 0.0 
1.070161114509e+01 -1.813140111726e+02 0.0 
0.0 0.0 -8.172461416237e+01 
-9.313352117473e+01 1.103756314744e+01 0.0 
1.103756314744e+01 -2.562581042775e+02 0.0 
0.0 0.0 -1.044174876357e+02 
-5.968680561056e+01 9.656450880936e+00 0.0 
9.656450880936e+00 -1.804095338080e+02 0.0 
0.0 0.0 -7.162890182556e+01 
-1.075907140164e+02 2.395358295066e+01 0.0 
2.395358295066e+01 -2.491271118839e+02 0.0 
0.0 0.0 -1.066153477701e+02 
-8.058271009684e+01 1.915258675731e+01 0.0 
1.915258675731e+01 -1.649875696686e+02 0.0 
0.0 0.0 -7.327108392965e+01 
-3.377881943653e+01 -2.120775682932e-01 0.0 
-2.120775682932e-01 -9.713234607195e+01 0.0 
0.0 0.0 -3.887334965255e+01 
-3.483799651408e+01 3.615739814271e+00 0.0 
3.615739814271e+00 -1.043229766673e+02 0.0 
0.0 0.0 -4.134829195442e+01 
-4.465323863397e+01 1.725253313770e+01 0.0 
1.725253313770e+01 -1.225925057134e+02 0.0 
0.0 0.0 -4.977372330422e+01 
-7.144363791813e+01 2.057677743277e+01 0.0 
2.057677743277e+01 -1.686477273802e+02 0.0 
0.0 0.0 -7.162740958949e+01 
-1.357579801604e+02 3.772345640402e+00 0.0 
3.772345640402e+00 -3.352184014290e+02 0.0 
0.0 0.0 -1.408929144768e+02 
-8.812746678263e+01 8.971991664702e+00 0.0 
8.971991664702e+00 -1.705702517616e+02 0.0 
0.0 0.0 -7.720931556327e+01 
-6.145781417589e+01 9.886493397610e+00 0.0 
9.886493397610e+00 -1.812104674386e+02 0.0 
0.0 0.0 -7.240048448435e+01 
-8.329236504372e+01 2.268633121806e+01 0.0 
2.268633121806e+01 -1.914023909486e+02 0.0 
0.0 0.0 -8.200842679769e+01 
-1.118747158543e+02 1.326090513716e+01 0.0 
1.326090513716e+01 -2.928036342825e+02 0.0 
0.0 0.0 -1.210035050410e+02 
-9.217615958719e+01 6.689913522382e+00 0.0 
6.689913522382e+00 -1.917109407689e+02 0.0 
0.0 0.0 -8.476613010684e+01 
-1.110919999709e+02 2.432755392501e+01 0.0 
2.432755392501e+01 -2.540652613435e+02 0.0 
0.0 0.0 -1.091471783943e+02 
-7.480349761702e+01 5.274245721509e+00 0.0 
5.274245721509e+00 -1.383974048474e+02 0.0 
0.0 0.0 -6.356027073934e+01 
-1.188376227216e+02 1.060885995061e+01 0.0 
1.060885995061e+01 -3.070719887646e+02 0.0 
0.0 0.0 -1.273728834459e+02 
-7.338270433065e+01 1.021767864339e+01 0.0 
1.021767864339e+01 -2.101405791661e+02 0.0 
0.0 0.0 -8.465698504902e+01 
-1.135965223518e+02 1.432468470004e+01 0.0 
1.432468470004e+01 -2.936789426305e+02 0.0 
0.0 0.0 -1.217826394947e+02 
-6.653238255201e+01 1.842809265493e+01 0.0 
1.842809265493e+01 -1.758454124149e+02 0.0 
0.0 0.0 -7.231333849006e+01 
-9.974295807941e+01 9.405843413807e+00 0.0 
9.405843413807e+00 -2.114066448909e+02 0.0 
0.0 0.0 -9.294488089109e+01 
-1.157488381716e+02 2.507112910879e+01 0.0 
2.507112910879e+01 -2.610997248331e+02 0.0 
0.0 0.0 -1.126545689014e+02 
-8.436951697565e+01 9.978016552713e+00 0.0 
9.978016552713e+00 -2.380908857364e+02 0.0 
0.0 0.0 -9.633812081361e+01 
-3.093896812037e+01 2.281938456979e+00 0.0 
2.281938456979e+00 -9.583479250800e+01 0.0 
0.0 0.0 -3.763212818851e+01 
-1.077980342540e+02 2.085586426699e+01 0.0 
2.085586426699e+01 -2.669851358453e+02 0.0 
0.0 0.0 -1.120349510298e+02 
-7.460860149722e+01 1.969060262509e+01 0.0 
1.969060262509e+01 -1.940068308775e+02 0.0 
0.0 0.0 -8.018462971242e+01 
-5.733113954105e+01 1.083540883787e+01 0.0 
1.083540883787e+01 -1.697785084066e+02 0.0 
0.0 0.0 -6.773289438431e+01 
-9.000382583201e+01 1.251024729290e+01 0.0 
1.251024729290e+01 -2.461972005507e+02 0.0 
0.0 0.0 -1.004603079148e+02 
-1.160042553475e+02 1.023583748493e+01 0.0 
1.023583748493e+01 -2.995117360490e+02 0.0 
0.0 0.0 -1.242547974189e+02 
-3.305071856385e+01 1.782803507364e+00 0.0 
1.782803507364e+00 -9.661267199733e+01 0.0 
0.0 0.0 -3.849901716835e+01 
-7.602135504629e+01 8.942680618489e+00 0.0 
8.942680618489e+00 -2.200314062425e+02 0.0 
0.0 0.0 -8.841582838665e+01 
-8.382222252743e+01 1.543274279981e+01 0.0 
1.543274279981e+01 -1.613148427341e+02 0.0 
0.0 0.0 -7.314111957847e+01 
-1.365440071779e+02 5.176917729832e+00 0.0 
5.176917729832e+00 -3.358335250667e+02 0.0 
0.0 0.0 -1.413132596734e+02 
-8.773863676827e+01 1.731640151964e+01 0.0 
1.731640151964e+01 -1.756421494225e+02 0.0 
0.0 0.0 -7.861423585723e+01 
-1.033223070708e+02 2.106832505253e+01 0.0 
2.106832505253e+01 -2.533689317386e+02 0.0 
0.0 0.0 -1.066073716428e+02 
-7.961125071832e+01 1.327737197047e+01 0.0 
1.327737197047e+01 -1.473900003613e+02 0.0 
0.0 0.0 -6.770037532387e+01 
-6.993107639583e+01 8.384549211895e+00 0.0 
8.384549211895e+00 -1.212958101261e+02 0.0 
0.0 0.0 -5.696806595658e+01 
-8.413026671506e+01 2.012598855034e+01 0.0 
2.012598855034e+01 -1.803143981353e+02 0.0 
0.0 0.0 -7.893339945511e+01 
-1.153925115341e+02 1.707479544596e+01 0.0 
1.707479544596e+01 -2.951270243566e+02 0.0 
0.0 0.0 -1.227558607672e+02 
-1.219943455381e+02 6.382262007348e+00 0.0 
6.382262007348e+00 -3.094066828758e+02 0.0 
0.0 0.0 -1.290203085242e+02 
-8.245623247952e+01 6.868346897856e+00 0.0 
6.868346897856e+00 -1.590321660012e+02 0.0 
0.0 0.0 -7.204651954421e+01 
-1.024459003925e+02 1.120368571422e+01 0.0 
1.120368571422e+01 -2.213073338551e+02 0.0 
0.0 0.0 -9.672597027428e+01 
-7.511277091518e+01 1.090364614213e+01 0.0 
1.090364614213e+01 -1.340882271456e+02 0.0 
0.0 0.0 -6.236029941822e+01 
-4.799539433468e+01 7.731020750624e+00 0.0 
7.731020750624e+00 -1.460657255353e+02 0.0 
0.0 0.0 -5.781833596101e+01 
-1.131355032710e+02 2.348796097893e+01 0.0 
2.348796097893e+01 -2.729486129916e+02 0.0 
0.0 0.0 -1.154252348788e+02 
-9.886209234295e+01 7.747977201448e+00 0.0 
7.747977201448e+00 -2.122308207800e+02 0.0 
0.0 0.0 -9.292787393689e+01 
-6.631326314389e+01 1.606903414003e+01 0.0 
1.606903414003e+01 -1.848654032857e+02 0.0 
0.0 0.0 -7.495359992888e+01 
-7.028113984070e+01 1.751942753394e+01 0.0 
1.751942753394e+01 -1.894276485019e+02 0.0 
0.0 0.0 -7.751263650279e+01 
-5.448003013500e+01 8.807498653688e+00 0.0 
8.807498653688e+00 -1.635881056714e+02 0.0 
0.0 0.0 -6.502044074192e+01 
-8.684672793931e+01 8.627887448824e+00 0.0 
8.627887448824e+00 -1.699623821629e+02 0.0 
0.0 0.0 -7.664273303065e+01 
-4.838364147128e+01 2.020107605935e+01 0.0 
2.020107605935e+01 -1.132055147413e+02 0.0 
0.0 0.0 -4.807674686377e+01 
-8.234373696553e+01 1.714028076917e+01 0.0 
1.714028076917e+01 -2.203176095766e+02 0.0 
0.0 0.0 -9.039840396263e+01 
-4.846861935756e+01 2.143170573130e+01 0.0 
2.143170573130e+01 -1.134811559724e+02 0.0 
0.0 0.0 -4.818493259899e+01 
-1.057408800525e+02 1.601862857403e+01 0.0 
1.601862857403e+01 -2.768072658416e+02 0.0 
0.0 0.0 -1.143644437682e+02 
-1.219789898921e+02 2.433702527181e+01 0.0 
2.433702527181e+01 -2.911233992724e+02 0.0 
0.0 0.0 -1.235307167493e+02 
-5.850850306883e+01 7.943615063071e+00 0.0 
7.943615063071e+00 -1.745263895051e+02 0.0 
0.0 0.0 -6.951046777219e+01 
-2.524153744586e+01 4.605627412345e-01 0.0 
4.605627412345e-01 -6.100669670950e+01 0.0 
0.0 0.0 -2.547447024661e+01 
-1.038627813670e+02 1.355858441346e+01 0.0 
1.355858441346e+01 -2.235272862267e+02 0.0 
0.0 0.0 -9.781702027813e+01 
-5.252944926902e+01 2.052783932072e+01 0.0 
2.052783932072e+01 -1.155188513514e+02 0.0 
0.0 0.0 -5.001449018611e+01 
-7.353770965218e+01 5.044242184645e+00 0.0 
5.044242184645e+00 -2.142871042015e+02 0.0 
0.0 0.0 -8.594744415611e+01 
-1.168557646523e+02 2.187947056695e+01 0.0 
2.187947056695e+01 -2.859246633590e+02 0.0 
0.0 0.0 -1.204341284034e+02 
-8.537343924405e+01 9.303426820624e+00 0.0 
9.303426820624e+00 -1.606880931251e+02 0.0 
0.0 0.0 -7.341845971075e+01 
-1.170931368595e+02 6.703882855345e+00 0.0 
6.703882855345e+00 -3.003451053532e+02 0.0 
0.0 0.0 -1.248314726638e+02 
-5.636123443764e+01 1.395238959789e+01 0.0 
1.395238959789e+01 -1.631479739242e+02 0.0 
0.0 0.0 -6.545276250854e+01 
-2.209101357015e+01 -2.555549032815e-01 0.0 
-2.555549032815e-01 -5.142291736964e+01 0.0 
0.0 0.0 -2.165417928194e+01 
-1.414912301102e+02 4.729152052786e+00 0.0 
4.729152052786e+00 -3.456050760711e+02 0.0 
0.0 0.0 -1.457288918544e+02 
-7.497215655833e+01 2.021839989959e+01 0.0 
2.021839989959e+01 -1.834731610130e+02 0.0 
0.0 0.0 -7.713359527139e+01 
-9.701881396608e+01 1.828074794275e+01 0.0 
1.828074794275e+01 -2.525025281506e+02 0.0 
0.0 0.0 -1.044564026350e+02 
-1.112528076538e+02 2.270944063455e+01 0.0 
2.270944063455e+01 -2.634210751474e+02 0.0 
0.0 0.0 -1.120021648404e+02 
-1.990467623487e+01 -8.685738972467e-02 0.0 
-8.685738972467e-02 -3.434965592933e+01 0.0 
0.0 0.0 -1.587629964926e+01 
-1.155977369499e+02 5.438369391834e+00 0.0 
5.438369391834e+00 -2.994311522047e+02 0.0 
0.0 0.0 -1.241086667464e+02 
-3.749706259494e+01 1.134171131497e+01 0.0 
1.134171131497e+01 -1.106437664545e+02 0.0 
0.0 0.0 -4.404224871484e+01 
-7.799999546729e+01 7.794427151657e+00 0.0 
7.794427151657e+00 -1.401663318332e+02 0.0 
0.0 0.0 -6.504989819014e+01 
-9.063217719851e+01 2.856918485553e+00 0.0 
2.856918485553e+00 -2.430770163219e+02 0.0 
0.0 0.0 -9.971275805612e+01 
-5.654839992959e+01 7.751687285119e+00 0.0 
7.751687285119e+00 -1.736517879302e+02 0.0 
0.0 0.0 -6.866005635794e+01 
-1.316622692961e+02 5.594222557563e+00 0.0 
5.594222557563e+00 -3.269719677312e+02 0.0 
0.0 0.0 -1.371902711082e+02 
-7.828593327413e+01 1.796065268434e+01 0.0 
1.796065268434e+01 -2.072628028257e+02 0.0 
0.0 0.0 -8.526462082996e+01 
-4.976056074859e+01 6.799539884476e+00 0.0 
6.799539884476e+00 -1.560230290721e+02 0.0 
0.0 0.0 -6.133507694621e+01 
-7.900754473686e+01 2.227459380374e+01 0.0 
2.227459380374e+01 -1.874822526897e+02 0.0 
0.0 0.0 -7.954693922797e+01 
-2.390901238105e+01 -9.874570517860e-01 0.0 
-9.874570517860e-01 -5.200179842741e+01 0.0 
0.0 0.0 -2.237324324254e+01 
-9.545512161703e+01 2.292139891169e+01 0.0 
2.292139891169e+01 -2.254748951977e+02 0.0 
0.0 0.0 -9.587900504442e+01 
-1.072623509833e+02 1.714621042342e+01 0.0 
1.714621042342e+01 -2.776940784408e+02 0.0 
0.0 0.0 -1.150869288273e+02 
-1.170088690775e+02 2.415115339804e+01 0.0 
2.415115339804e+01 -2.635928435615e+02 0.0 
0.0 0.0 -1.137805137917e+02 
-1.038540353342e+02 2.351090438205e+01 0.0 
2.351090438205e+01 -2.447189768627e+02 0.0 
0.0 0.0 -1.041719036591e+02 
-3.993370081190e+01 4.610390287199e+00 0.0 
4.610390287199e+00 -1.218376200828e+02 0.0 
0.0 0.0 -4.813139626840e+01 
-1.172896290215e+02 5.275891276489e+00 0.0 
5.275891276489e+00 -2.996137943178e+02 0.0 
0.0 0.0 -1.246710270018e+02 
-1.002839165124e+02 7.097202735590e+00 0.0 
7.097202735590e+00 -2.206168330953e+02 0.0 
0.0 0.0 -9.587022488231e+01 
-1.359464086976e+02 2.305080509589e+01 0.0 
2.305080509589e+01 -3.261377245782e+02 0.0 
0.0 0.0 -1.382252399827e+02 
-1.116185062087e+02 1.883444752719e+01 0.0 
1.883444752719e+01 -2.839781225320e+02 0.0 
0.0 0.0 -1.182789886222e+02 
-6.036227652297e+01 1.285029877873e+01 0.0 
1.285029877873e+01 -1.754089611357e+02 0.0 
0.0 0.0 -7.033137129760e+01 
-8.715463052772e+01 2.253152855605e+01 0.0 
2.253152855605e+01 -2.063573209237e+02 0.0 
0.0 0.0 -8.765358543542e+01 
-1.351972049543e+02 2.391146757440e+00 0.0 
2.391146757440e+00 -3.334788270566e+02 0.0 
0.0 0.0 -1.402028096033e+02 
-8.563091850754e+01 9.080590505549e-01 0.0 
9.080590505549e-01 -2.271517151485e+02 0.0 
0.0 0.0 -9.343479009682e+01 
-9.912262638977e+01 2.118775507009e+01 0.0 
2.118775507009e+01 -2.393703815944e+02 0.0 
0.0 0.0 -1.011479023953e+02 
-7.789702054669e+01 5.177058329416e+00 0.0 
5.177058329416e+00 -1.484014475236e+02 0.0 
0.0 0.0 -6.748954042110e+01 
-1.268425666753e+02 6.018291758349e+00 0.0 
6.018291758349e+00 -3.182379505010e+02 0.0 
0.0 0.0 -1.331241551529e+02 
-1.217305989640e+02 7.976028854150e+00 0.0 
7.976028854150e+00 -3.097601670746e+02 0.0 
0.0 0.0 -1.290472298116e+02 
-3.962393694425e+01 3.927600978025e-02 0.0 
3.927600978025e-02 -6.685302798780e+01 0.0 
0.0 0.0 -3.154308947961e+01 
-3.952807518339e+01 -1.546062194318e-01 0.0 
-1.546062194318e-01 -6.684293447084e+01 0.0 
0.0 0.0 -3.151130289627e+01 
-8.895445741539e+01 1.755296481757e+01 0.0 
1.755296481757e+01 -1.699944600487e+02 0.0 
0.0 0.0 -7.728467523924e+01 
-9.099502484623e+01 2.071123457517e+01 0.0 
2.071123457517e+01 -2.205543182300e+02 0.0 
0.0 0.0 -9.306480292287e+01 
-9.494163784630e+01 2.819145222422e+00 0.0 
2.819145222422e+00 -2.518621213831e+02 0.0 
0.0 0.0 -1.036411277688e+02 
-8.822637874857e+01 2.203685560447e+01 0.0 
2.203685560447e+01 -1.856091900772e+02 0.0 
0.0 0.0 -8.175067064772e+01 
-7.418371630132e+01 1.658247302995e+01 0.0 
1.658247302995e+01 -2.024876520212e+02 0.0 
0.0 0.0 -8.260141049675e+01 
-1.272056172462e+02 1.396384375412e+01 0.0 
1.396384375412e+01 -3.206410953687e+02 0.0 
0.0 0.0 -1.339540137845e+02 
-5.902705070023e+01 1.262436519732e+01 0.0 
1.262436519732e+01 -1.747944630627e+02 0.0 
0.0 0.0 -6.974645412887e+01 
-1.137395251989e+02 1.318331041365e+01 0.0 
1.318331041365e+01 -2.587785286388e+02 0.0 
0.0 0.0 -1.113554161513e+02 
-6.230526479041e+01 6.961148602579e+00 0.0 
6.961148602579e+00 -1.010417772155e+02 0.0 
0.0 0.0 -4.860411260176e+01 
-7.074980240402e+01 1.826586822630e+01 0.0 
1.826586822630e+01 -1.897894725121e+02 0.0 
0.0 0.0 -7.776178247482e+01 
-8.899515195017e+01 1.610930274409e+00 0.0 
1.610930274409e+00 -2.420962968893e+02 0.0 
0.0 0.0 -9.892743465185e+01 
-3.669521785284e+01 5.652825365932e+00 0.0 
5.652825365932e+00 -1.112893042913e+02 0.0 
0.0 0.0 -4.399535664324e+01 
-7.825161116283e+01 1.961699761545e+00 0.0 
1.961699761545e+00 -2.152137431583e+02 0.0 
0.0 0.0 -8.763960629632e+01 
-8.292245693853e+01 2.041006695644e+01 0.0 
2.041006695644e+01 -2.019099840577e+02 0.0 
0.0 0.0 -8.504973229888e+01 
-7.576675335197e+01 2.075158030287e+01 0.0 
2.075158030287e+01 -1.722192536347e+02 0.0 
0.0 0.0 -7.399580209600e+01 
-7.958703638175e+01 7.109870532140e+00 0.0 
7.109870532140e+00 -1.492982318202e+02 0.0 
0.0 0.0 -6.826558046059e+01 
-9.156117412888e+01 2.045038566310e+01 0.0 
2.045038566310e+01 -2.000284513065e+02 0.0 
0.0 0.0 -8.707688763061e+01 
-9.578333136889e+01 2.238638106303e+01 0.0 
2.238638106303e+01 -2.056394270601e+02 0.0 
0.0 0.0 -9.002682752870e+01 
-2.225278977279e+01 -2.057365548355e-01 0.0 
-2.057365548355e-01 -5.936616841612e+01 0.0 
0.0 0.0 -2.408568745667e+01 
-7.282376693031e+01 6.486554195930e-03 0.0 
6.486554195930e-03 -2.040232558284e+02 0.0 
0.0 0.0 -8.265410682761e+01 
-5.210797592733e+01 2.223296740270e+01 0.0 
2.223296740270e+01 -1.156238480951e+02 0.0 
0.0 0.0 -4.991954720674e+01 
-8.427469141591e+01 1.824018596262e+01 0.0 
1.824018596262e+01 -1.699327667406e+02 0.0 
0.0 0.0 -7.586223744695e+01 
-8.881267750525e+01 2.021527222219e+01 0.0 
2.021527222219e+01 -1.769201246388e+02 0.0 
0.0 0.0 -7.931984064321e+01 
-1.206354852421e+02 1.655754093171e+01 0.0 
1.655754093171e+01 -3.061695808867e+02 0.0 
0.0 0.0 -1.276415198386e+02 
-3.251844717219e+01 -8.390174008194e-01 0.0 
-8.390174008194e-01 -8.943447252562e+01 0.0 
0.0 0.0 -3.618587590934e+01 
-3.122803065965e+01 1.841678356411e-01 0.0 
1.841678356411e-01 -8.814368648394e+01 0.0 
0.0 0.0 -3.541151514308e+01 
-7.069417050215e+01 1.947112460600e+01 0.0 
1.947112460600e+01 -1.797036072230e+02 0.0 
0.0 0.0 -7.471933331756e+01 
-7.453564757896e+01 1.228699589225e+00 0.0 
1.228699589225e+00 -2.050128530599e+02 0.0 
0.0 0.0 -8.346455019165e+01 
-4.359937239820e+01 7.781607138609e+00 0.0 
7.781607138609e+00 -5.359286228105e+01 0.0 
0.0 0.0 -2.875767040377e+01 
-4.721301693542e+01 6.684137908673e+00 0.0 
6.684137908673e+00 -6.300741616605e+01 0.0 
0.0 0.0 -3.266612993044e+01 
-8.255219023769e+01 9.702397480259e+00 0.0 
9.702397480259e+00 -1.509956522841e+02 0.0 
0.0 0.0 -6.966435275655e+01 
-2.716756020049e+01 7.738455932561e+00 0.0 
7.738455932561e+00 -7.211274502936e+01 0.0 
0.0 0.0 -2.938409156895e+01 
-8.509337728290e+01 8.163787946029e-01 0.0 
8.163787946029e-01 -2.320080446886e+02 0.0 
0.0 0.0 -9.473042659145e+01 
-1.093882631819e+02 1.265023745375e+01 0.0 
1.265023745375e+01 -2.862739327532e+02 0.0 
0.0 0.0 -1.182986587806e+02 
-2.915790232688e+01 5.727190590211e-01 0.0 
5.727190590211e-01 -8.739573605345e+01 0.0 
0.0 0.0 -3.456609151410e+01 
-1.284513027114e+02 2.519814456578e+01 0.0 
2.519814456578e+01 -3.024238723974e+02 0.0 
0.0 0.0 -1.288625525327e+02 
-9.717271419115e+01 9.755814061004e+00 0.0 
9.755814061004e+00 -2.008220591486e+02 0.0 
0.0 0.0 -8.899843200192e+01 
-8.259919667080e+01 1.454257638205e+00 0.0 
1.454257638205e+00 -2.225522408693e+02 0.0 
0.0 0.0 -9.114543126203e+01 
-1.208985370865e+02 3.646611351377e+00 0.0 
3.646611351377e+00 -3.076279570424e+02 0.0 
0.0 0.0 -1.281579482387e+02 
-1.537508750238e+01 -1.021136866674e+00 0.0 
-1.021136866674e+00 -4.239009882089e+01 0.0 
0.0 0.0 -1.692955589698e+01 
-1.051726373094e+02 1.097635047185e+01 0.0 
1.097635047185e+01 -2.784476832048e+02 0.0 
0.0 0.0 -1.146860961543e+02 
-7.475263272303e+01 2.155011960719e+01 0.0 
2.155011960719e+01 -1.836587613922e+02 0.0 
0.0 0.0 -7.712341823458e+01 
-1.556099393969e+01 -8.119996166791e-01 0.0 
-8.119996166791e-01 -4.232034919275e+01 0.0 
0.0 0.0 -1.696440293973e+01 
-9.465618260035e+01 7.806369279692e+00 0.0 
7.806369279692e+00 -1.994994452125e+02 0.0 
0.0 0.0 -8.784668834385e+01 
-2.878737254219e+01 1.032685776584e+00 0.0 
1.032685776584e+00 -7.886686090327e+01 0.0 
0.0 0.0 -3.189627003364e+01 
-8.474803891654e+01 2.104724780716e+01 0.0 
2.104724780716e+01 -1.707475585267e+02 0.0 
0.0 0.0 -7.624867923297e+01 
-7.530091158447e+01 2.255663951661e+01 0.0 
2.255663951661e+01 -1.723693592750e+02 0.0 
0.0 0.0 -7.390108125785e+01 
-7.126225739705e+01 6.135854761079e+00 0.0 
6.135854761079e+00 -2.055202919670e+02 0.0 
0.0 0.0 -8.263476480921e+01 
-9.119552586380e+01 5.390273258007e+00 0.0 
5.390273258007e+00 -2.522341369337e+02 0.0 
0.0 0.0 -1.026288988393e+02 
-9.841522329582e+01 9.411233412055e+00 0.0 
9.411233412055e+00 -2.099455290237e+02 0.0 
0.0 0.0 -9.210822569586e+01 
-1.001859970807e+02 6.452427381725e+00 0.0 
6.452427381725e+00 -2.709388604892e+02 0.0 
0.0 0.0 -1.109374572709e+02 
-7.440528466245e+01 1.873658185364e+01 0.0 
1.873658185364e+01 -1.937136817378e+02 0.0 
0.0 0.0 -8.003568992006e+01 
-7.064396861186e+01 2.053042739570e+01 0.0 
2.053042739570e+01 -1.799057944647e+02 0.0 
0.0 0.0 -7.476492892297e+01 
-2.284064640753e+01 1.417602490007e+01 0.0 
1.417602490007e+01 -1.623861725779e+01 0.0 
0.0 0.0 -1.132377909959e+01 
-2.538210123525e+01 9.421020671190e-02 0.0 
9.421020671190e-02 -6.966049977819e+01 0.0 
0.0 0.0 -2.811278030403e+01 
-1.082266069699e+02 2.348171367972e+01 0.0 
2.348171367972e+01 -2.588625793980e+02 0.0 
0.0 0.0 -1.097267559104e+02 
-7.642585191411e+01 1.107232980629e+01 0.0 
1.107232980629e+01 -1.322629205728e+02 0.0 
0.0 0.0 -6.220663174607e+01 
-1.116360232759e+02 2.203573073863e+01 0.0 
2.203573073863e+01 -2.719382419931e+02 0.0 
0.0 0.0 -1.146722795807e+02 
-3.614484750539e+01 1.185634645747e+01 0.0 
1.185634645747e+01 -1.101822130462e+02 0.0 
0.0 0.0 -4.349811816548e+01 
-9.666053106123e+01 1.501517306945e+01 0.0 
1.501517306945e+01 -1.976717631188e+02 0.0 
0.0 0.0 -8.789968825402e+01 
-1.122427922948e+02 2.436405032082e+01 0.0 
2.436405032082e+01 -2.640165665382e+02 0.0 
0.0 0.0 -1.124778076499e+02 
-4.980968516766e+01 5.578526610950e+00 0.0 
5.578526610950e+00 -7.123731801333e+01 0.0 
0.0 0.0 -3.591410095430e+01 
-1.072906247073e+02 2.187608957897e+01 0.0 
2.187608957897e+01 -2.580662339570e+02 0.0 
0.0 0.0 -1.092070575993e+02 
-1.220111263362e+02 4.965896655477e+00 0.0 
4.965896655477e+00 -3.083980016422e+02 0.0 
0.0 0.0 -1.287227383935e+02 
-8.670494656106e+01 1.999899433477e+01 0.0 
1.999899433477e+01 -2.161108442563e+02 0.0 
0.0 0.0 -9.044473724521e+01 
-8.073852522808e+01 7.996383287868e-01 0.0 
7.996383287868e-01 -2.231146866295e+02 0.0 
0.0 0.0 -9.075596355727e+01 
-8.630113479304e+01 2.865451168149e+00 0.0 
2.865451168149e+00 -2.341735161350e+02 0.0 
0.0 0.0 -9.574239527841e+01 
-1.070552629632e+02 1.608220607722e+01 0.0 
1.608220607722e+01 -2.259404446397e+02 0.0 
0.0 0.0 -9.949871228088e+01 
-8.270812060947e+01 4.325128923051e+00 0.0 
4.325128923051e+00 -2.336688087832e+02 0.0 
0.0 0.0 -9.451307881779e+01 
-7.929604132431e+01 2.068026303429e+01 0.0 
2.068026303429e+01 -1.872930914989e+02 0.0 
0.0 0.0 -7.957673984696e+01 
-7.448778293509e+01 1.411788048571e+01 0.0 
1.411788048571e+01 -2.100609037010e+02 0.0 
0.0 0.0 -8.496460599081e+01 
-1.097267611134e+02 7.532132837316e+00 0.0 
7.532132837316e+00 -2.897234806553e+02 0.0 
0.0 0.0 -1.194350725306e+02 
-6.705023124535e+01 1.660619710035e+01 0.0 
1.660619710035e+01 -1.852902329022e+02 0.0 
0.0 0.0 -7.530213924426e+01 
-4.118375554554e+01 3.960656147689e+00 0.0 
3.960656147689e+00 -1.312133458596e+02 0.0 
0.0 0.0 -5.131913042154e+01 
-8.059654639962e+01 8.279249381395e+00 0.0 
8.279249381395e+00 -2.305049852946e+02 0.0 
0.0 0.0 -9.293045950827e+01 
-4.351176963729e+01 5.879654738121e+00 0.0 
5.879654738121e+00 -1.384865970733e+02 0.0 
0.0 0.0 -5.419951001318e+01 
-8.791664986580e+01 1.954515194346e+01 0.0 
1.954515194346e+01 -1.849690690055e+02 0.0 
0.0 0.0 -8.146571566138e+01 
-4.560028630100e+01 5.693056374668e+00 0.0 
5.693056374668e+00 -1.393298497690e+02 0.0 
0.0 0.0 -5.507904082100e+01 
-8.403677851302e+01 2.251090147247e+01 0.0 
2.251090147247e+01 -1.807382518825e+02 0.0 
0.0 0.0 -7.903250911865e+01 
-1.169286900689e+02 1.832810526711e+01 0.0 
1.832810526711e+01 -2.960541178749e+02 0.0 
0.0 0.0 -1.234948423831e+02 
-1.108937818120e+02 1.545297556177e+01 0.0 
1.545297556177e+01 -2.884632968095e+02 0.0 
0.0 0.0 -1.194071235865e+02 
-6.255415387765e+01 1.442784402131e+01 0.0 
1.442784402131e+01 -1.800259643564e+02 0.0 
0.0 0.0 -7.237403547020e+01 
-7.661095205330e+01 7.382187495359e+00 0.0 
7.382187495359e+00 -1.398163447973e+02 0.0 
0.0 0.0 -6.452818905517e+01 
-1.258026128391e+02 3.269426033468e+00 0.0 
3.269426033468e+00 -3.164153296075e+02 0.0 
0.0 0.0 -1.322653827340e+02 
-1.266987400204e+02 4.604461826001e+00 0.0 
4.604461826001e+00 -3.171018375150e+02 0.0 
0.0 0.0 -1.327401732606e+02 
-2.394679440290e+01 7.382825466626e+00 0.0 
7.382825466626e+00 -5.565474611030e+01 0.0 
0.0 0.0 -2.348046215396e+01 
-8.761183826750e+01 2.074244684692e+01 0.0 
2.074244684692e+01 -1.953614955463e+02 0.0 
0.0 0.0 -8.449200014415e+01 
-1.412041483341e+02 3.074632054826e+00 0.0 
3.074632054826e+00 -3.449447333981e+02 0.0 
0.0 0.0 -1.454446645197e+02 
-3.451593761002e+01 1.902843455486e+01 0.0 
1.902843455486e+01 -6.061979518607e+01 0.0 
0.0 0.0 -2.814071983883e+01 
-9.072306832072e+01 2.101509331576e+00 0.0 
2.101509331576e+00 -2.415356500002e+02 0.0 
0.0 0.0 -9.927761549628e+01 
-2.091487394650e+01 1.295096233854e+01 0.0 
1.295096233854e+01 -1.684157073715e+01 0.0 
0.0 0.0 -1.092693340509e+01 
-1.306416393259e+02 2.849479990309e+00 0.0 
2.849479990309e+00 -3.250956771371e+02 0.0 
0.0 0.0 -1.363211949389e+02 
-3.783487247612e+01 4.991364906570e+00 0.0 
4.991364906570e+00 -1.210325702872e+02 0.0 
0.0 0.0 -4.726023282899e+01 
-8.828158108679e+01 -3.705155390112e-01 0.0 
-3.705155390112e-01 -2.333451615146e+02 0.0 
0.0 0.0 -9.608802278041e+01 
-9.549303721819e+01 1.713415854224e+01 0.0 
1.713415854224e+01 -2.516571818446e+02 0.0 
0.0 0.0 -1.037450657188e+02 
-7.975984432364e+01 1.019537773693e+01 0.0 
1.019537773693e+01 -1.416778330131e+02 0.0 
0.0 0.0 -6.603130320101e+01 
-7.401770148318e+01 7.982023062568e+00 0.0 
7.982023062568e+00 -1.306632626461e+02 0.0 
0.0 0.0 -6.100428923880e+01 
-7.863381504403e+01 1.970613466051e+01 0.0 
1.970613466051e+01 -1.978275963975e+02 0.0 
0.0 0.0 -8.253842343245e+01 
-3.689417029784e+01 1.076216806333e+01 0.0 
1.076216806333e+01 -3.560064786693e+01 0.0 
0.0 0.0 -2.134844544943e+01 
-4.003584908083e+01 8.856944867850e+00 0.0 
8.856944867850e+00 -4.440460790367e+01 0.0 
0.0 0.0 -2.493213709535e+01 
-1.312657657127e+02 4.152200549864e+00 0.0 
4.152200549864e+00 -3.256660817008e+02 0.0 
0.0 0.0 -1.366795542241e+02 
-9.712885434252e+01 7.882977562106e+00 0.0 
7.882977562106e+00 -2.619725867748e+02 0.0 
0.0 0.0 -1.073304323352e+02 
-7.905461187811e+01 7.324189726770e+00 0.0 
7.324189726770e+00 -2.235951826893e+02 0.0 
0.0 0.0 -9.039493837022e+01 
-1.032105491989e+02 9.895521491460e+00 0.0 
9.895521491460e+00 -2.774202965224e+02 0.0 
0.0 0.0 -1.137892537164e+02 
-7.249903248287e+01 7.221889598395e+00 0.0 
7.221889598395e+00 -2.124718567494e+02 0.0 
0.0 0.0 -8.509126676969e+01 
-4.205341215932e+01 6.663025532384e+00 0.0 
6.663025532384e+00 -1.286441282860e+02 0.0 
0.0 0.0 -5.080926213360e+01 
-3.023335918506e+01 4.322044702216e+00 0.0 
4.322044702216e+00 -3.070336881221e+01 0.0 
0.0 0.0 -1.788101839918e+01 
-6.819228771262e+01 9.303936217051e+00 0.0 
9.303936217051e+00 -1.116960898697e+02 0.0 
0.0 0.0 -5.356651327468e+01 
-3.976077397450e+01 -5.562142585822e-02 0.0 
-5.562142585822e-02 -6.705832177919e+01 0.0 
0.0 0.0 -3.164572872611e+01 
-1.124724693387e+02 1.659627691367e+01 0.0 
1.659627691367e+01 -2.893652461842e+02 0.0 
0.0 0.0 -1.201513146569e+02 
-6.359111774855e+01 1.478134925185e+01 0.0 
1.478134925185e+01 -1.805392744533e+02 0.0 
0.0 0.0 -7.283911766054e+01 
-1.297550768330e+02 2.008524364931e+01 0.0 
2.008524364931e+01 -3.195522562781e+02 0.0 
0.0 0.0 -1.343921999333e+02 
-1.299209026033e+02 3.245436096253e-01 0.0 
3.245436096253e-01 -3.222872956451e+02 0.0 
0.0 0.0 -1.352624594745e+02 
-7.793165540139e+01 9.564479184436e+00 0.0 
9.564479184436e+00 -2.209807339436e+02 0.0 
0.0 0.0 -8.927371680351e+01 
-1.472249651194e+02 5.627324831468e+00 0.0 
5.627324831468e+00 -3.551911540874e+02 0.0 
0.0 0.0 -1.503248357620e+02 
-4.931936574215e+01 4.927064725154e+00 0.0 
4.927064725154e+00 -1.497760010621e+02 0.0 
0.0 0.0 -5.932861004127e+01 
-1.237917177337e+02 2.035315388787e+01 0.0 
2.035315388787e+01 -3.069290876829e+02 0.0 
0.0 0.0 -1.288162416250e+02 
-7.866605008017e+01 2.089262438096e+01 0.0 
2.089262438096e+01 -1.980969177996e+02 0.0 
0.0 0.0 -8.262889036393e+01 
-9.066807843495e+01 1.950088326554e+01 0.0 
1.950088326554e+01 -2.298640928696e+02 0.0 
0.0 0.0 -9.575965139138e+01 
-1.249246464110e+02 1.337669810120e+01 0.0 
1.337669810120e+01 -3.155487461131e+02 0.0 
0.0 0.0 -1.317420177572e+02 
-5.949438569453e+01 6.723382713078e-02 0.0 
6.723382713078e-02 -1.685449156796e+02 0.0 
0.0 0.0 -6.801179041225e+01 
-8.352175366041e+01 2.086609221996e+01 0.0 
2.086609221996e+01 -1.912031299636e+02 0.0 
0.0 0.0 -8.201746508721e+01 
-7.453364621806e+01 7.796407774403e+00 0.0 
7.796407774403e+00 -2.134595062085e+02 0.0 
0.0 0.0 -8.599794572798e+01 
-7.964278881510e+01 2.268699676970e+01 0.0 
2.268699676970e+01 -1.762717796392e+02 0.0 
0.0 0.0 -7.637437053630e+01 
-3.959870118065e+01 1.345633669038e+01 0.0 
1.345633669038e+01 -1.146305044914e+02 0.0 
0.0 0.0 -4.586876170161e+01 
-9.477388238804e+01 1.900839606964e+01 0.0 
1.900839606964e+01 -2.432654110321e+02 0.0 
0.0 0.0 -1.010117880260e+02 
-6.913191412017e+01 5.543169795088e+00 0.0 
5.543169795088e+00 -2.044827220446e+02 0.0 
0.0 0.0 -8.168439084945e+01 
-9.348234119557e+01 1.543755114862e+00 0.0 
1.543755114862e+00 -2.509417096736e+02 0.0 
0.0 0.0 -1.029272152607e+02 
-8.002598379271e+01 2.056829057602e+01 0.0 
2.056829057602e+01 -1.760294577234e+02 0.0 
0.0 0.0 -7.641663245484e+01 
-1.965730663539e+01 7.344540542394e+00 0.0 
7.344540542394e+00 -2.432112377292e+01 0.0 
0.0 0.0 -1.279352912249e+01 
-8.282299642561e+01 1.487467294081e+01 0.0 
1.487467294081e+01 -2.280823318589e+02 0.0 
0.0 0.0 -9.287159848534e+01 
-2.223704341256e+01 1.192037141927e+01 0.0 
1.192037141927e+01 -3.232020879764e+01 0.0 
0.0 0.0 -1.596717566306e+01 
-2.389741851698e+01 -2.422859855364e+00 0.0 
-2.422859855364e+00 -6.355854950854e+01 0.0 
0.0 0.0 -2.583679040766e+01 
-8.937614870879e+01 8.085211717076e-01 0.0 
8.085211717076e-01 -2.406422995832e+02 0.0 
0.0 0.0 -9.860553448759e+01 
-1.036035109896e+02 2.367806162567e+01 0.0 
2.367806162567e+01 -2.349852516933e+02 0.0 
0.0 0.0 -1.011766288049e+02 
-7.832060788431e+01 1.009998591988e+01 0.0 
1.009998591988e+01 -1.422133879478e+02 0.0 
0.0 0.0 -6.576019874963e+01 
-3.155101845769e+01 1.610876188404e+01 0.0 
1.610876188404e+01 -2.281779003690e+01 0.0 
0.0 0.0 -1.591064254838e+01 
-1.101741379425e+02 1.328500663144e+01 0.0 
1.328500663144e+01 -2.584063218659e+02 0.0 
0.0 0.0 -1.101741379425e+02 
-2.045352316766e+01 1.191272221514e+01 0.0 
1.191272221514e+01 -1.264164299484e+01 0.0 
0.0 0.0 -9.636127865168e+00 
-3.366852297350e+01 1.291711236458e+01 0.0 
1.291711236458e+01 -2.797921779279e+01 0.0 
0.0 0.0 -1.809432222989e+01 
-8.158120406698e+01 6.127388850525e+00 0.0 
6.127388850525e+00 -2.324260370141e+02 0.0 
0.0 0.0 -9.380217232433e+01 
-8.658833465949e+01 1.536307426177e+00 0.0 
1.536307426177e+00 -2.311854366101e+02 0.0 
0.0 0.0 -9.493213138088e+01 
-5.009080862426e+01 1.734939983443e+01 0.0 
1.734939983443e+01 -7.202724315202e+01 0.0 
0.0 0.0 -3.623541553288e+01 
-5.216243835774e+01 1.953142476943e+00 0.0 
1.953142476943e+00 -1.602915321253e+02 0.0 
0.0 0.0 -6.333619114491e+01 
-8.837620165017e+01 6.661909637411e+00 0.0 
6.661909637411e+00 -2.433360129871e+02 0.0 
0.0 0.0 -9.911366439118e+01 
-8.288867799467e+01 2.185205911165e+01 0.0 
2.185205911165e+01 -2.022050047853e+02 0.0 
0.0 0.0 -8.512810483400e+01 
-9.155379111304e+01 1.575437737598e+01 0.0 
1.575437737598e+01 -2.463438541500e+02 0.0 
0.0 0.0 -1.009692935789e+02 
-1.047657677188e+02 2.036820015125e+01 0.0 
2.036820015125e+01 -2.307126842631e+02 0.0 
0.0 0.0 -1.002435355946e+02 
-2.451066599187e+01 6.848327161131e+00 0.0 
6.848327161131e+00 -6.640568266764e+01 0.0 
0.0 0.0 -2.687490459785e+01 
-8.117684842256e+01 1.516382855871e-01 0.0 
1.516382855871e-01 -2.216611404923e+02 0.0 
0.0 0.0 -9.045139667445e+01 
-8.953652812198e+01 2.098534675252e-01 0.0 
2.098534675252e-01 -2.390381317979e+02 0.0 
0.0 0.0 -9.817239797597e+01 
-4.579815334774e+01 -1.395139407273e+00 0.0 
-1.395139407273e+00 -1.276783457744e+02 0.0 
0.0 0.0 -5.164294973664e+01 
-5.335321747578e+01 4.795984548333e+00 0.0 
4.795984548333e+00 -8.029835668856e+01 0.0 
0.0 0.0 -3.969547224930e+01 
-8.081375042874e+01 1.323699809353e+01 0.0 
1.323699809353e+01 -1.439014741545e+02 0.0 
0.0 0.0 -6.701456737498e+01 
-1.163536438584e+02 1.119402688839e+00 0.0 
1.119402688839e+00 -2.944525279692e+02 0.0 
0.0 0.0 -1.228418515483e+02 
-1.663477521408e+01 -9.081672837274e-01 0.0 
-9.081672837274e-01 -4.265101188263e+01 0.0 
0.0 0.0 -1.738573612901e+01 
-1.963029357044e+01 -6.213743080254e-02 0.0 
-6.213743080254e-02 -2.550728390168e+01 0.0 
0.0 0.0 -1.314127324164e+01 
-3.303113885087e+01 -2.043745622451e+00 0.0 
-2.043745622451e+00 -8.902337720899e+01 0.0 
0.0 0.0 -3.621635481796e+01 
-9.057374104527e+01 1.564346844972e+00 0.0 
1.564346844972e+00 -2.397940709428e+02 0.0 
0.0 0.0 -9.871034359642e+01 
-5.576089640865e+01 6.056975428815e+00 0.0 
6.056975428815e+00 -1.674450145649e+02 0.0 
0.0 0.0 -6.656177329207e+01 
-5.062370556908e+01 2.667550057446e+00 0.0 
2.667550057446e+00 -1.518875351557e+02 0.0 
0.0 0.0 -6.035337221744e+01 
-4.335349975375e+01 3.783728135332e+00 0.0 
3.783728135332e+00 -1.320954310255e+02 0.0 
0.0 0.0 -5.223467923376e+01 
-9.367255217011e+01 7.671678063810e-01 0.0 
7.671678063810e-01 -2.492973319421e+02 0.0 
0.0 0.0 -1.024909652337e+02 
-8.687751990872e+01 1.441912812109e+01 0.0 
1.441912812109e+01 -1.682445937864e+02 0.0 
0.0 0.0 -7.613663410853e+01 
-9.369537436134e+01 1.682814532417e-01 0.0 
1.682814532417e-01 -2.476557150551e+02 0.0 
0.0 0.0 -1.020053268249e+02 
-5.365438263871e+01 5.910683060090e+00 0.0 
5.910683060090e+00 -1.665194870706e+02 0.0 
0.0 0.0 -6.565216091280e+01 
-8.765331441324e+01 2.286752585829e+01 0.0 
2.286752585829e+01 -1.957749151182e+02 0.0 
0.0 0.0 -8.462846885943e+01 
-5.682149005945e+01 1.419576081191e+00 0.0 
1.419576081191e+00 -9.802877527332e+01 0.0 
0.0 0.0 -4.605507959983e+01 
-1.049307137278e+02 1.802872352056e+01 0.0 
1.802872352056e+01 -2.704801423532e+02 0.0 
0.0 0.0 -1.122232568243e+02 
-9.455555383662e+01 1.546762919359e+00 0.0 
1.546762919359e+00 -2.483497171151e+02 0.0 
0.0 0.0 -1.024715812855e+02 
-9.483433419027e+01 2.085676069642e+00 0.0 
2.085676069642e+00 -2.501190996054e+02 0.0 
0.0 0.0 -1.030860301387e+02 
-2.680693180971e+01 1.780320218215e+01 0.0 
1.780320218215e+01 -2.141821361789e+01 0.0 
0.0 0.0 -1.406754362828e+01 
-5.979060165183e+01 5.443528892847e+00 0.0 
5.443528892847e+00 -1.776316962470e+02 0.0 
0.0 0.0 -7.082668936965e+01 
-9.784297469606e+01 8.332327362090e-02 0.0 
8.332327362090e-02 -2.561585851483e+02 0.0 
0.0 0.0 -1.058004679533e+02 
-6.822462509686e+01 -4.576271790686e-01 0.0 
-4.576271790686e-01 -1.382118074228e+02 0.0 
0.0 0.0 -6.153092975589e+01 
-6.110496303328e+01 -5.772470800858e-01 0.0 
-5.772470800858e-01 -1.199370330294e+02 0.0 
0.0 0.0 -5.391259881881e+01 
-2.818308075627e+01 1.805371360466e+01 0.0 
1.805371360466e+01 -2.099832805369e+01 0.0 
0.0 0.0 -1.435442264299e+01 
-9.798114318369e+01 6.771192046933e-01 0.0 
6.771192046933e-01 -2.579457867868e+02 0.0 
0.0 0.0 -1.063780789911e+02 
-5.168378601418e+01 9.767212199653e-01 0.0 
9.767212199653e-01 -1.523687064766e+02 0.0 
0.0 0.0 -6.081574774722e+01 
-2.421807859619e+01 1.306002501194e+01 0.0 
1.306002501194e+01 -4.824162914876e+01 0.0 
0.0 0.0 -2.133791232349e+01 
-1.258414515049e+02 2.166903185117e+01 0.0 
2.166903185117e+01 -3.082131217769e+02 0.0 
0.0 0.0 -1.298163719845e+02 
-2.961996822710e+01 -3.290025731857e+00 0.0 
-3.290025731857e+00 -8.050508203504e+01 0.0 
0.0 0.0 -3.263751507864e+01 
-5.322160366547e+01 2.891766757581e-01 0.0 
2.891766757581e-01 -1.603358054552e+02 0.0 
0.0 0.0 -6.366722273619e+01 
-7.945085910445e+01 1.645002701477e+01 0.0 
1.645002701477e+01 -2.159771297980e+02 0.0 
0.0 0.0 -8.822839667073e+01 
-2.390407409616e+01 7.952969791525e+00 0.0 
7.952969791525e+00 -1.609962938258e+01 0.0 
0.0 0.0 -1.160111104362e+01 
-9.858075740870e+01 1.475175131946e+00 0.0 
1.475175131946e+00 -2.569631745399e+02 0.0 
0.0 0.0 -1.062631795846e+02 
-4.400900040873e+01 6.071615371160e-01 0.0 
6.071615371160e-01 -1.200254548801e+02 0.0 
0.0 0.0 -4.881033658665e+01 
-5.920990183694e+01 7.343529547624e+00 0.0 
7.343529547624e+00 -8.884457539269e+01 0.0 
0.0 0.0 -4.401634316889e+01 
-9.894135485293e+01 2.016331413196e+00 0.0 
2.016331413196e+00 -2.586865991857e+02 0.0 
0.0 0.0 -1.068883862116e+02 
-7.567826080008e+01 5.747661502240e+00 0.0 
5.747661502240e+00 -2.153614582134e+02 0.0 
0.0 0.0 -8.691191570405e+01 
-8.662138710827e+01 2.083691147074e+00 0.0 
2.083691147074e+00 -2.329476743179e+02 0.0 
0.0 0.0 -9.547071842784e+01 
-2.068014263608e+01 4.580123987309e+00 0.0 
4.580123987309e+00 -3.032134898516e+01 0.0 
0.0 0.0 -1.490044748637e+01 
-8.958832521148e+01 1.348475414601e+00 0.0 
1.348475414601e+00 -1.966084327045e+02 0.0 
0.0 0.0 -8.545902737478e+01 
-6.101246870769e+01 3.412647114279e+00 0.0 
3.412647114279e+00 -1.792012230928e+02 0.0 
0.0 0.0 -7.166410754014e+01 
-1.217907659588e+02 1.456349820159e+01 0.0 
1.456349820159e+01 -3.112381502450e+02 0.0 
0.0 0.0 -1.295086748611e+02 
-9.128284007411e+01 2.083446994600e+01 0.0 
2.083446994600e+01 -2.304773984761e+02 0.0 
0.0 0.0 -9.612807156506e+01 
-1.022709673893e+02 5.328688888303e-01 0.0 
5.328688888303e-01 -2.665183362466e+02 0.0 
0.0 0.0 -1.102367910908e+02 
-1.030341652621e+02 1.855125500637e+00 0.0 
1.855125500637e+00 -2.671667309223e+02 0.0 
0.0 0.0 -1.106602688553e+02 
-5.094570484612e+01 4.125953243378e+00 0.0 
4.125953243378e+00 -1.589246979403e+02 0.0 
0.0 0.0 -6.256112083594e+01 
-2.357762049640e+01 -2.951090541649e+00 0.0 
-2.951090541649e+00 -5.461180370317e+01 0.0 
0.0 0.0 -2.305682725987e+01 
-1.845709393846e+01 6.295686601222e+00 0.0 
6.295686601222e+00 -2.987358915429e+01 0.0 
0.0 0.0 -1.409920492783e+01 
-1.066002518884e+02 3.376746861356e-01 0.0 
3.376746861356e-01 -2.750824438895e+02 0.0 
0.0 0.0 -1.141048087334e+02 
-1.230692591121e+02 1.242113464261e+01 0.0 
1.242113464261e+01 -3.148031506101e+02 0.0 
0.0 0.0 -1.309617229167e+02 
-5.250353870491e+01 -1.201427971065e-01 0.0 
-1.201427971065e-01 -1.517760718285e+02 0.0 
0.0 0.0 -6.088388316001e+01 
-9.126954638607e+01 2.107083149337e+01 0.0 
2.107083149337e+01 -2.102785760092e+02 0.0 
0.0 0.0 -9.006443671858e+01 
-3.135573654026e+01 1.854341768371e+01 0.0 
1.854341768371e+01 -5.854698049638e+01 0.0 
0.0 0.0 -2.657081511099e+01 
-9.187231030818e+01 2.275361464438e+01 0.0 
2.275361464438e+01 -2.006218490851e+02 0.0 
0.0 0.0 -8.734824781798e+01 
-1.464863351057e+02 1.086362127565e+01 0.0 
1.086362127565e+01 -3.570336451362e+02 0.0 
0.0 0.0 -1.506559940725e+02 
-2.238129980068e+01 -3.369622607608e-01 0.0 
-3.369622607608e-01 -6.829990148072e+00 0.0 
0.0 0.0 -8.363386984625e+00 
-1.066602914442e+02 1.357333634416e+00 0.0 
1.357333634416e+00 -2.502073467031e+02 0.0 
0.0 0.0 -1.066602914442e+02 
-1.635725966638e+02 1.361158034486e+00 0.0 
1.361158034486e+00 -3.830027255488e+02 0.0 
0.0 0.0 -1.635725966638e+02 
-4.825987711490e+01 7.673892352826e-01 0.0 
7.673892352826e-01 -8.818680312107e+01 0.0 
0.0 0.0 -4.053400407079e+01 
-6.205253114042e+01 1.894805209092e+00 0.0 
1.894805209092e+00 -1.795347840841e+02 0.0 
0.0 0.0 -7.207619456736e+01 
-8.694602246054e+01 2.133453365981e+01 0.0 
2.133453365981e+01 -2.165290068684e+02 0.0 
0.0 0.0 -9.064250879867e+01 
-5.180331257452e+01 6.808885272870e+00 0.0 
6.808885272870e+00 -1.568899794937e+02 0.0 
0.0 0.0 -6.220798762046e+01 
-2.148244077531e+01 -1.201430489988e+00 0.0 
-1.201430489988e+00 -5.522773327226e+01 0.0 
0.0 0.0 -2.261305221427e+01 
-1.918142808885e+01 1.092261382242e+01 0.0 
1.092261382242e+01 -1.469624819213e+01 0.0 
0.0 0.0 -9.763302884292e+00 
-9.705474218366e+01 4.373814919544e+00 0.0 
4.373814919544e+00 -2.142178351136e+02 0.0 
0.0 0.0 -9.298177318919e+01 
-8.510861751617e+01 1.553275588525e+01 0.0 
1.553275588525e+01 -1.568135754969e+02 0.0 
0.0 0.0 -7.217665790393e+01 
-5.132101892199e+01 6.163923427321e+00 0.0 
6.163923427321e+00 -7.367789046570e+01 0.0 
0.0 0.0 -3.709967281631e+01 
-1.375239006855e+02 2.801816377967e+01 0.0 
2.801816377967e+01 -3.241417779065e+02 0.0 
0.0 0.0 -1.380997035776e+02 
-3.670043211546e+01 5.530735319730e-01 0.0 
5.530735319730e-01 -1.004052253073e+02 0.0 
0.0 0.0 -4.073169722682e+01 
-1.391405025378e+02 2.729229889887e+01 0.0 
2.729229889887e+01 -3.299335161752e+02 0.0 
0.0 0.0 -1.403222056139e+02 
-8.275850447565e+01 1.233810660763e+01 0.0 
1.233810660763e+01 -1.550390259500e+02 0.0 
0.0 0.0 -7.093925912769e+01 
-6.281812758809e+01 8.511613891851e-01 0.0 
8.511613891851e-01 -1.788098961348e+02 0.0 
0.0 0.0 -7.208840711687e+01 
-8.245963364724e+01 1.908342449020e+01 0.0 
1.908342449020e+01 -2.116969251293e+02 0.0 
0.0 0.0 -8.784696763297e+01 
-5.693419030872e+01 1.102202055304e-01 0.0 
1.102202055304e-01 -1.690159835166e+02 0.0 
0.0 0.0 -6.738505214758e+01 
-2.494148047604e+01 1.439832301276e+01 0.0 
1.439832301276e+01 -5.046181805176e+01 0.0 
0.0 0.0 -2.222098955834e+01 
-5.400101635916e+01 -8.649087444321e-01 0.0 
-8.649087444321e-01 -1.591975289028e+02 0.0 
0.0 0.0 -6.355956357859e+01 
-9.083900948482e+01 1.632312780934e+01 0.0 
1.632312780934e+01 -1.820701741067e+02 0.0 
0.0 0.0 -8.147275507746e+01 
-1.352939064292e+02 2.491103643234e+00 0.0 
2.491103643234e+00 -3.325350701829e+02 0.0 
0.0 0.0 -1.399486929836e+02 
-5.593445143311e+01 1.531008279072e+00 0.0 
1.531008279072e+00 -1.693498359529e+02 0.0 
0.0 0.0 -6.718528621579e+01 
-9.520572479249e+01 2.108741082332e+01 0.0 
2.108741082332e+01 -2.148613789661e+02 0.0 
0.0 0.0 -9.262013112759e+01 
-1.802529691905e+01 -5.507464678078e-01 0.0 
-5.507464678078e-01 -8.453356529763e+00 0.0 
0.0 0.0 -8.444851557887e+00 
-5.480722938955e+01 3.483199799222e+00 0.0 
3.483199799222e+00 -1.686147543520e+02 0.0 
0.0 0.0 -6.662659512246e+01 
-9.552397643939e+01 1.587965827223e+01 0.0 
1.587965827223e+01 -1.867376477695e+02 0.0 
0.0 0.0 -8.427848726267e+01 
-5.433984617305e+01 -1.578186726489e+00 0.0 
-1.578186726489e+00 -1.570026362195e+02 0.0 
0.0 0.0 -6.300274471777e+01 
-4.950349718032e+01 -8.673737527958e-01 0.0 
-8.673737527958e-01 -1.416668941753e+02 0.0 
0.0 0.0 -5.695111740670e+01 
-8.278046174563e+01 2.019232122589e+01 0.0 
2.019232122589e+01 -2.120930635967e+02 0.0 
0.0 0.0 -8.806205760270e+01 
-2.784181798889e+01 -2.494042393813e+00 0.0 
-2.494042393813e+00 -7.736018079978e+01 0.0 
0.0 0.0 -3.116059963660e+01 
-2.476554495819e+01 1.670497802525e+01 0.0 
1.670497802525e+01 -1.984301918320e+01 0.0 
0.0 0.0 -1.298256924242e+01 
-2.673968198881e+01 1.864898694859e+01 0.0 
1.864898694859e+01 -2.145999031978e+01 0.0 
0.0 0.0 -1.405990169258e+01 
-4.778484548531e+01 -2.188093489830e+00 0.0 
-2.188093489830e+00 -1.381712821043e+02 0.0 
0.0 0.0 -5.538683827688e+01 
-8.365272552805e+01 6.950700255205e+00 0.0 
6.950700255205e+00 -2.335203286604e+02 0.0 
0.0 0.0 -9.475191625653e+01 
-7.027074696291e+01 1.506311711774e+01 0.0 
1.506311711774e+01 -1.975738169099e+02 0.0 
0.0 0.0 -7.995336916185e+01 
-9.565405780843e+01 2.315700961541e+01 0.0 
2.315700961541e+01 -2.153902284969e+02 0.0 
0.0 0.0 -9.291328589159e+01 
-1.103049238840e+02 2.013444500647e+01 0.0 
2.013444500647e+01 -2.457858231456e+02 0.0 
0.0 0.0 -1.064272241089e+02 
-2.340523821074e+01 1.490824105774e+01 0.0 
1.490824105774e+01 -1.912306824219e+01 0.0 
0.0 0.0 -1.235849193588e+01 
-7.591054701431e+01 1.376831456917e+00 0.0 
1.376831456917e+00 -1.580243155867e+02 0.0 
0.0 0.0 -6.978045878030e+01 
-1.167160352809e+02 2.342276962144e+01 0.0 
2.342276962144e+01 -2.715035867254e+02 0.0 
0.0 0.0 -1.160658866019e+02 
-4.715908188130e+01 4.915372697504e+00 0.0 
4.915372697504e+00 -1.488584343530e+02 0.0 
0.0 0.0 -5.840525487028e+01 
-2.344891671172e+01 1.375225906900e+01 0.0 
1.375225906900e+01 -3.274429884801e+01 0.0 
0.0 0.0 -1.645796466792e+01 
-3.542072550251e+01 2.104244501258e+01 0.0 
2.104244501258e+01 -6.151437617545e+01 0.0 
0.0 0.0 -2.868053050339e+01 
-8.015667062339e+01 5.453626950360e+00 0.0 
5.453626950360e+00 -2.249880704294e+02 0.0 
0.0 0.0 -9.114342231585e+01 
-9.500263496532e+01 2.002306464474e+01 0.0 
2.002306464474e+01 -2.048792104828e+02 0.0 
0.0 0.0 -8.956455363443e+01 
-7.802466244657e+01 4.641398930336e+00 0.0 
4.641398930336e+00 -2.239079025246e+02 0.0 
0.0 0.0 -9.017976949136e+01 
-2.379194190218e+01 5.860029585030e+00 0.0 
5.860029585030e+00 -5.091494655936e+01 0.0 
0.0 0.0 -2.201206653846e+01 
-9.213429449956e+01 8.161506842894e+00 0.0 
8.161506842894e+00 -2.518157665576e+02 0.0 
0.0 0.0 -1.027850183172e+02 
-2.619278999831e+01 1.579533589278e+01 0.0 
1.579533589278e+01 -5.268627937071e+01 0.0 
0.0 0.0 -2.326372081070e+01 
-7.128446756916e+01 1.560845204132e+01 0.0 
1.560845204132e+01 -1.981155295930e+02 0.0 
0.0 0.0 -8.041999914865e+01 
-8.624391107405e+01 5.679895377660e+00 0.0 
5.679895377660e+00 -2.422157378369e+02 0.0 
0.0 0.0 -9.813789467327e+01 
-8.644593600536e+01 1.847603750090e+01 0.0 
1.847603750090e+01 -2.251172444651e+02 0.0 
0.0 0.0 -9.306895414114e+01 
-6.749902864600e+01 1.604573780149e+00 0.0 
1.604573780149e+00 -1.334250868707e+02 0.0 
0.0 0.0 -5.987723465501e+01 
-4.944499925620e+01 -1.238092406337e+00 0.0 
-1.238092406337e+00 -1.390622376101e+02 0.0 
0.0 0.0 -5.615217105988e+01 
-2.275610191205e+01 1.122685063566e+01 0.0 
1.122685063566e+01 -4.456203514533e+01 0.0 
0.0 0.0 -1.979544111721e+01 
-9.502253035910e+01 6.767585433794e+00 0.0 
6.767585433794e+00 -2.608403976448e+02 0.0 
0.0 0.0 -1.063588784012e+02 
-2.694193482166e+01 1.668002919228e+01 0.0 
1.668002919228e+01 -5.388315977769e+01 0.0 
0.0 0.0 -2.384752837980e+01 
-1.852192278751e+01 4.482122033247e-01 0.0 
4.482122033247e-01 -2.511097712404e+01 0.0 
0.0 0.0 -1.268986997347e+01 
-9.594261406042e+01 -1.493445210352e-01 0.0 
-1.493445210352e-01 -2.154944782464e+02 0.0 
0.0 0.0 -9.303112769206e+01 
-8.972853374059e+01 -3.428914848477e-01 0.0 
-3.428914848477e-01 -1.967641220979e+02 0.0 
0.0 0.0 -8.554779675156e+01 
-1.384642165730e+01 -1.604410181866e+00 0.0 
-1.604410181866e+00 -2.469815338151e+01 0.0 
0.0 0.0 -1.154542034522e+01 
-1.011073660492e+02 9.377974586353e+00 0.0 
9.377974586353e+00 -2.703239518952e+02 0.0 
0.0 0.0 -1.110293953833e+02 
-3.934010852519e+01 -1.883492305344e+00 0.0 
-1.883492305344e+00 -1.084334999305e+02 0.0 
0.0 0.0 -4.393208253670e+01 
-4.107357591722e+01 -2.859933482413e+00 0.0 
-2.859933482413e+00 -1.158243120085e+02 0.0 
0.0 0.0 -4.666936637773e+01 
-1.028025153385e+02 2.164463831919e+01 0.0 
2.164463831919e+01 -2.344568706778e+02 0.0 
0.0 0.0 -1.007778158049e+02 
-8.714422061447e+01 1.948309340039e+01 0.0 
1.948309340039e+01 -2.256095566601e+02 0.0 
0.0 0.0 -9.342613318237e+01 
-9.905172784228e+01 2.153063606818e+01 0.0 
2.153063606818e+01 -2.295572258589e+02 0.0 
0.0 0.0 -9.818268611036e+01 
-5.701375805086e+01 3.777393524046e+00 0.0 
3.777393524046e+00 -1.696227121044e+02 0.0 
0.0 0.0 -6.759094104659e+01 
-4.016829073346e+01 -6.325054080367e-02 0.0 
-6.325054080367e-02 -6.685520549377e+01 0.0 
0.0 0.0 -3.170704886817e+01 
-1.507042735411e+02 9.595022223817e+00 0.0 
9.595022223817e+00 -3.600074851195e+02 0.0 
0.0 0.0 -1.528135275982e+02 
-3.470621264612e+01 -3.053707534867e+00 0.0 
-3.053707534867e+00 -9.633442890591e+01 0.0 
0.0 0.0 -3.891219246561e+01 
-1.177911213609e+02 1.599961819362e+01 0.0 
1.599961819362e+01 -3.002286847650e+02 0.0 
0.0 0.0 -1.250059418378e+02 
-7.494533156583e+01 1.731310672118e+01 0.0 
1.731310672118e+01 -2.029813084955e+02 0.0 
0.0 0.0 -8.297799201839e+01 
-2.821975025155e+01 -1.329387753806e+00 0.0 
-1.329387753806e+00 -7.635727468385e+01 0.0 
0.0 0.0 -3.097310748062e+01 
-9.136720727272e+01 1.878504101208e+01 0.0 
1.878504101208e+01 -1.901065084778e+02 0.0 
0.0 0.0 -8.404211472514e+01 
-5.764425352725e+01 5.137608690452e+00 0.0 
5.137608690452e+00 -1.766492733886e+02 0.0 
0.0 0.0 -6.988805807477e+01 
-1.879560043226e+01 -2.478679556376e+00 0.0 
-2.478679556376e+00 -4.201212500024e+01 0.0 
0.0 0.0 -1.784231762975e+01 
-4.842409003503e+01 2.496190837094e+00 0.0 
2.496190837094e+00 -1.509186653280e+02 0.0 
0.0 0.0 -5.940282660890e+01 
-1.121464552379e+02 -6.909460536809e-01 0.0 
-6.909460536809e-01 -2.860467848100e+02 0.0 
0.0 0.0 -1.190579720144e+02 
-9.263423786552e+01 1.934947685776e+01 0.0 
1.934947685776e+01 -1.838366077850e+02 0.0 
0.0 0.0 -8.254125369516e+01 
-2.847976130668e+01 -2.393044346274e+00 0.0 
-2.393044346274e+00 -7.348633039519e+01 0.0 
0.0 0.0 -3.018982751056e+01 
-8.899510492752e+01 5.859516131509e-01 0.0 
5.859516131509e-01 -2.339402897681e+02 0.0 
0.0 0.0 -9.648061840869e+01 
-9.894495079641e+01 2.095390726663e+01 0.0 
2.095390726663e+01 -2.198825275644e+02 0.0 
0.0 0.0 -9.524824350825e+01 
-1.106498015207e+02 2.079731626910e+01 0.0 
2.079731626910e+01 -2.769007638250e+02 0.0 
0.0 0.0 -1.158651696037e+02 
-5.089920316156e+01 -1.607934463121e+00 0.0 
-1.607934463121e+00 -1.488026670677e+02 0.0 
0.0 0.0 -5.951056106878e+01 
-4.368985840041e+01 -1.055614200211e+00 0.0 
-1.055614200211e+00 -1.199412825393e+02 0.0 
0.0 0.0 -4.868934228192e+01 
-7.832204110890e+01 1.569712171454e+01 0.0 
1.569712171454e+01 -2.153489083892e+02 0.0 
0.0 0.0 -8.770128484944e+01 
-6.427503122664e+01 8.775752045188e-01 0.0 
8.775752045188e-01 -1.276571566550e+02 0.0 
0.0 0.0 -5.717965636449e+01 
-1.917933606421e+01 -2.409237275323e+00 0.0 
-2.409237275323e+00 -4.138533832763e+01 0.0 
0.0 0.0 -1.776940231755e+01 
-1.255891533660e+02 2.665144694073e+01 0.0 
2.665144694073e+01 -2.928736992064e+02 0.0 
0.0 0.0 -1.251388557717e+02 
-1.116383729100e+02 1.936380355360e+01 0.0 
1.936380355360e+01 -2.539447920305e+02 0.0 
0.0 0.0 -1.092749494821e+02 
-5.328708677746e+01 8.571258951282e-01 0.0 
8.571258951282e-01 -1.000636625785e+02 0.0 
0.0 0.0 -4.560522480677e+01 
-1.064038132259e+02 1.073235806699e+01 0.0 
1.073235806699e+01 -2.329562143115e+02 0.0 
0.0 0.0 -1.014080082612e+02 
-1.157492527474e+02 2.178161557122e+01 0.0 
2.178161557122e+01 -2.651663655366e+02 0.0 
0.0 0.0 -1.138746854852e+02 
-5.879069774844e+01 2.950606230020e+00 0.0 
2.950606230020e+00 -1.781441710767e+02 0.0 
0.0 0.0 -7.068046064755e+01 
-5.813690673026e+01 2.040690133736e+00 0.0 
2.040690133736e+00 -1.704122756369e+02 0.0 
0.0 0.0 -6.816475471016e+01 
-1.392857009873e+02 1.961647669144e+01 0.0 
1.961647669144e+01 -3.402300336311e+02 0.0 
0.0 0.0 -1.434547203855e+02 
-1.765642386968e+01 5.443269080758e-01 0.0 
5.443269080758e-01 -8.672876002749e+00 0.0 
0.0 0.0 -8.449402144515e+00 
-3.991845564159e+01 -8.355790971834e-01 0.0 
-8.355790971834e-01 -1.093771113264e+02 0.0 
0.0 0.0 -4.438867009038e+01 
-9.033493889704e+01 -7.257302942706e-01 0.0 
-7.257302942706e-01 -2.383517728390e+02 0.0 
0.0 0.0 -9.820601352081e+01 
-5.276288954648e+01 -7.516374893827e-01 0.0 
-7.516374893827e-01 -1.498095364635e+02 0.0 
0.0 0.0 -6.037172780301e+01 
-4.950040040484e+01 5.718893433776e-01 0.0 
5.718893433776e-01 -1.513652403353e+02 0.0 
0.0 0.0 -5.985969222204e+01 
-2.392381189228e+01 1.629829852785e+01 0.0 
1.629829852785e+01 -1.870224987000e+01 0.0 
0.0 0.0 -1.238781852868e+01 
-2.661594839953e+01 1.837750561572e+01 0.0 
1.837750561572e+01 -2.132800597914e+01 0.0 
0.0 0.0 -1.398318631360e+01 
-5.792683091992e+01 2.476241940451e+00 0.0 
2.476241940451e+00 -1.010350918824e+02 0.0 
0.0 0.0 -4.728857684069e+01 
-5.313359651295e+01 4.289670320598e+00 0.0 
4.289670320598e+00 -1.598890053328e+02 0.0 
0.0 0.0 -6.350678055371e+01 
-4.624835102161e+01 -1.438998485344e+00 0.0 
-1.438998485344e+00 -1.276752797217e+02 0.0 
0.0 0.0 -5.177708922298e+01 
-1.034800504670e+02 1.978734520188e+01 0.0 
1.978734520188e+01 -2.616448749395e+02 0.0 
0.0 0.0 -1.091374776220e+02 
-1.591891502771e+02 7.839110520185e+00 0.0 
7.839110520185e+00 -3.783148778854e+02 0.0 
0.0 0.0 -1.608512084488e+02 
-1.577447080263e+02 9.342492615926e+00 0.0 
9.342492615926e+00 -3.760100828321e+02 0.0 
0.0 0.0 -1.597264372575e+02 
-5.988169936281e+01 1.237536348636e+00 0.0 
1.237536348636e+00 -1.784459721407e+02 0.0 
0.0 0.0 -7.109830145104e+01 
-5.204146146886e+01 1.252611320609e+00 0.0 
1.252611320609e+00 -8.465762170452e+01 0.0 
0.0 0.0 -4.060972495201e+01 
-2.177884396123e+01 -1.007990458577e-01 0.0 
-1.007990458577e-01 -2.061437610807e+01 0.0 
0.0 0.0 -1.231796602079e+01 
-2.445397922874e+01 1.632127323726e+01 0.0 
1.632127323726e+01 -1.968070891274e+01 0.0 
0.0 0.0 -1.284040644244e+01 
-2.896041034817e+01 -1.777524276809e+00 0.0 
-1.777524276809e+00 -7.265739138389e+01 0.0 
0.0 0.0 -3.008534051962e+01 
-2.485739176278e+01 1.667666656109e+01 0.0 
1.667666656109e+01 -2.002660754646e+01 0.0 
0.0 0.0 -1.306519979277e+01 
-8.318720694387e+01 1.800267471844e+01 0.0 
1.800267471844e+01 -2.208209103139e+02 0.0 
0.0 0.0 -9.080243517732e+01 
-5.046807717314e+01 -7.519251477776e-01 0.0 
-7.519251477776e-01 -1.507971683011e+02 0.0 
0.0 0.0 -5.997957364228e+01 
-5.436419093470e+01 2.303969559714e+00 0.0 
2.303969559714e+00 -1.613037129357e+02 0.0 
0.0 0.0 -6.430037116113e+01 
-2.307991797551e+01 -1.300362471148e+00 0.0 
-1.300362471148e+00 -4.111869208876e+01 0.0 
0.0 0.0 -1.885958301928e+01 
-8.992990713802e+01 8.593582382630e-01 0.0 
8.593582382630e-01 -1.996364121847e+02 0.0 
0.0 0.0 -8.646989579681e+01 
-5.533611225754e+01 8.758393743872e-01 0.0 
8.758393743872e-01 -1.613544132808e+02 0.0 
0.0 0.0 -6.460715766151e+01 
-9.587078941622e+01 2.750043445409e+00 0.0 
2.750043445409e+00 -2.133552415255e+02 0.0 
0.0 0.0 -9.236780928252e+01 
-8.587679616580e+01 1.939244136517e+00 0.0 
1.939244136517e+00 -1.842012361971e+02 0.0 
0.0 0.0 -8.062340970887e+01 
-1.086371789192e+02 1.405077392637e+00 0.0 
1.405077392637e+00 -2.504801192303e+02 0.0 
0.0 0.0 -1.073351894448e+02 
-1.612068259913e+02 1.563707810571e+00 0.0 
1.563707810571e+00 -3.821424994575e+02 0.0 
0.0 0.0 -1.626047976346e+02 
-5.330569489403e+01 -5.238777583966e-01 0.0 
-5.238777583966e-01 -1.005275876248e+02 0.0 
0.0 0.0 -4.574998475565e+01 
-5.903265891206e+01 8.123017061434e-01 0.0 
8.123017061434e-01 -1.700736998337e+02 0.0 
0.0 0.0 -6.833190762373e+01 
-2.291210517385e+01 1.605290223132e+01 0.0 
1.605290223132e+01 -1.914423786533e+01 0.0 
0.0 0.0 -1.221690291176e+01 
-6.078200364339e+01 -5.464213189029e-03 0.0 
-5.464213189029e-03 -1.777433039115e+02 0.0 
0.0 0.0 -7.115759226648e+01 
-1.627816113580e+02 6.202881591613e+00 0.0 
6.202881591613e+00 -3.811570931686e+02 0.0 
0.0 0.0 -1.627816113580e+02 
-2.236714901257e+01 1.444811194232e+01 0.0 
1.444811194232e+01 -1.810457528010e+01 0.0 
0.0 0.0 -1.174151728780e+01 
-2.334865799739e+01 1.540091403271e+01 0.0 
1.540091403271e+01 -1.892119716189e+01 0.0 
0.0 0.0 -1.228095654779e+01 
-1.217740479270e+02 1.768676163697e+01 0.0 
1.768676163697e+01 -3.067855874693e+02 0.0 
0.0 0.0 -1.281678906189e+02 
-4.975417528103e+01 8.507653329834e-01 0.0 
8.507653329834e-01 -8.490313131213e+01 0.0 
0.0 0.0 -3.999719197795e+01 
-9.610839964932e+01 1.467133670483e+00 0.0 
1.467133670483e+00 -2.152648685696e+02 0.0 
0.0 0.0 -9.301198046569e+01 
-9.963489645393e+01 2.314973777704e+01 0.0 
2.314973777704e+01 -2.203749582636e+02 0.0 
0.0 0.0 -9.560295641526e+01 
-1.181201186920e+02 2.050211572142e+01 0.0 
2.050211572142e+01 -2.941042862999e+02 0.0 
0.0 0.0 -1.232673214976e+02 
-1.037231157790e+02 2.185327950558e+01 0.0 
2.185327950558e+01 -2.191122621853e+02 0.0 
0.0 0.0 -9.645061338931e+01 
-5.536239919765e+01 -2.280100359631e-01 0.0 
-2.280100359631e-01 -1.039560497171e+02 0.0 
0.0 0.0 -4.739553467442e+01 
-4.636255315333e+01 -1.437511960611e+00 0.0 
-1.437511960611e+00 -1.311217429140e+02 0.0 
0.0 0.0 -5.284528882019e+01 
-4.468202081496e+01 -2.263929939093e+00 0.0 
-2.263929939093e+00 -1.302523798645e+02 0.0 
0.0 0.0 -5.208032020383e+01 
-7.193292698635e+01 -2.313836150867e-01 0.0 
-2.313836150867e-01 -1.473351884417e+02 0.0 
0.0 0.0 -6.538043462842e+01 
-1.146208996315e+02 2.224747470675e+01 0.0 
2.224747470675e+01 -2.815855663429e+02 0.0 
0.0 0.0 -1.184619397923e+02 
-4.740047090929e+01 2.350201864461e+00 0.0 
2.350201864461e+00 -6.932795207658e+01 0.0 
0.0 0.0 -3.461852689576e+01 
-4.669554304873e+01 2.169063416521e-02 0.0 
2.169063416521e-02 -8.356658659540e+01 0.0 
0.0 0.0 -3.867863889324e+01 
-5.349673387025e+01 5.020161226230e-01 0.0 
5.020161226230e-01 -9.950019263678e+01 0.0 
0.0 0.0 -4.549907795211e+01 
-5.615299784090e+01 1.534191231421e+00 0.0 
1.534191231421e+00 -1.051831976891e+02 0.0 
0.0 0.0 -4.800085865899e+01 
-2.426261147588e+01 -9.590352337303e-01 0.0 
-9.590352337303e-01 -6.088538819330e+01 0.0 
0.0 0.0 -2.514439990076e+01 
-4.158240775063e+01 -2.659435389598e+00 0.0 
-2.659435389598e+00 -1.193404727918e+02 0.0 
0.0 0.0 -4.787686416273e+01 
-1.044353285972e+02 5.029218225616e+00 0.0 
5.029218225616e+00 -2.353886760523e+02 0.0 
0.0 0.0 -1.015472013948e+02 
-6.431566095121e+01 1.856793634765e+00 0.0 
1.856793634765e+00 -1.245343421804e+02 0.0 
0.0 0.0 -5.625500093949e+01 
-1.398481860549e+02 2.143472661113e+01 0.0 
2.143472661113e+01 -3.367302969613e+02 0.0 
0.0 0.0 -1.425735449049e+02 
-1.142505027558e+02 2.281663602434e+01 0.0 
2.281663602434e+01 -2.492024866950e+02 0.0 
0.0 0.0 -1.086358968352e+02 
-9.223617409347e+01 2.146963364639e+01 0.0 
2.146963364639e+01 -1.911883306862e+02 0.0 
0.0 0.0 -8.462735143390e+01 
-1.027078022556e+02 1.069316993394e+01 0.0 
1.069316993394e+01 -2.204155193956e+02 0.0 
0.0 0.0 -9.653699649538e+01 
-6.518243729239e+01 -1.029609070010e+00 0.0 
-1.029609070010e+00 -1.779802217864e+02 0.0 
0.0 0.0 -7.254879772364e+01 
-5.904633155304e+01 -1.248619111795e+00 0.0 
-1.248619111795e+00 -1.625444728534e+02 0.0 
0.0 0.0 -6.607724132194e+01 
-1.408382558264e+02 8.460430223120e+00 0.0 
8.460430223120e+00 -3.449205220063e+02 0.0 
0.0 0.0 -1.453276333498e+02 
-1.722308534246e+01 -1.473944509472e+00 0.0 
-1.473944509472e+00 -2.421478125938e+01 0.0 
0.0 0.0 -1.248404465158e+01 
-4.282942398302e+01 -3.648676404991e-01 0.0 
-3.648676404991e-01 -1.156695767835e+02 0.0 
0.0 0.0 -4.714970022995e+01 
-1.399509715259e+02 2.633793541360e+01 0.0 
2.633793541360e+01 -3.278856002272e+02 0.0 
0.0 0.0 -1.399509715259e+02 
-2.098689485093e+01 5.040690719020e-01 0.0 
5.040690719020e-01 -5.776336481688e+01 0.0 
0.0 0.0 -2.322507790034e+01 
-4.664777942241e+01 1.144530295187e-02 0.0 
1.144530295187e-02 -8.358663412698e+01 0.0 
0.0 0.0 -3.867032406482e+01 
-1.329533043645e+02 1.656491592371e+01 0.0 
1.656491592371e+01 -3.311159145949e+02 0.0 
0.0 0.0 -1.388207656878e+02 
-1.793278117198e+01 -2.240379392723e+00 0.0 
-2.240379392723e+00 -3.930039555812e+01 0.0 
0.0 0.0 -1.676995301903e+01 
-1.095937268931e+01 -7.414353329189e-01 0.0 
-7.414353329189e-01 -2.406686403909e+01 0.0 
0.0 0.0 -1.010787101852e+01 
-1.115846921352e+02 9.048514579740e+00 0.0 
9.048514579740e+00 -2.545206817477e+02 0.0 
0.0 0.0 -1.094316121649e+02 
-4.131838029615e+01 -3.074886000371e-01 0.0 
-3.074886000371e-01 -6.686381533919e+01 0.0 
0.0 0.0 -3.205465869060e+01 
-1.038411730904e+02 6.345513330048e+00 0.0 
6.345513330048e+00 -2.321144947763e+02 0.0 
0.0 0.0 -1.003867003600e+02 
-1.337574075218e+02 1.710672646172e+01 0.0 
1.710672646172e+01 -3.282337349187e+02 0.0 
0.0 0.0 -1.381973427321e+02 
-4.097583141364e+01 2.932115472883e-01 0.0 
2.932115472883e-01 -6.658752440490e+01 0.0 
0.0 0.0 -3.186900674556e+01 
-2.212595750342e+01 6.957246521224e-01 0.0 
6.957246521224e-01 -2.155088583494e+01 0.0 
0.0 0.0 -1.270305300151e+01 
-1.012995839027e+02 1.718098260611e+00 0.0 
1.718098260611e+00 -2.328135921826e+02 0.0 
0.0 0.0 -9.983395282561e+01 
-2.359612301243e+01 -7.842908085895e-01 0.0 
-7.842908085895e-01 -6.354793114157e+01 0.0 
0.0 0.0 -2.574321624620e+01 
-9.840594587202e+01 5.501891774232e+00 0.0 
5.501891774232e+00 -2.197516909266e+02 0.0 
0.0 0.0 -9.504729103959e+01 
-1.630756881211e+02 4.772475052480e+00 0.0 
4.772475052480e+00 -3.818432722826e+02 0.0 
0.0 0.0 -1.630756881211e+02 
-1.100885651518e+02 1.943580499677e+01 0.0 
1.943580499677e+01 -2.392262833420e+02 0.0 
0.0 0.0 -1.043944545481e+02 
-2.747390341652e+01 -8.373544875420e-01 0.0 
-8.373544875420e-01 -7.871963616726e+01 0.0 
0.0 0.0 -3.145806187514e+01 
-6.124143702285e+01 3.826180382720e+00 0.0 
3.826180382720e+00 -1.038695346097e+02 0.0 
0.0 0.0 -4.913329148975e+01 
-6.657734947445e+01 1.352714578468e-01 0.0 
1.352714578468e-01 -1.809121042928e+02 0.0 
0.0 0.0 -7.384683613019e+01 
-1.050579209820e+02 2.091531232833e+01 0.0 
2.091531232833e+01 -2.624399153660e+02 0.0 
0.0 0.0 -1.098493509044e+02 
-1.455500580715e+02 2.460062935261e+01 0.0 
2.460062935261e+01 -3.457084955052e+02 0.0 
0.0 0.0 -1.469775660730e+02 
-7.977069370627e+01 2.361600541291e-01 0.0 
2.361600541291e-01 -1.687772774019e+02 0.0 
0.0 0.0 -7.416439133245e+01 
-1.463132870753e+02 2.231135738779e+01 0.0 
2.231135738779e+01 -3.503077122377e+02 0.0 
0.0 0.0 -1.485862997939e+02 
-2.023538955439e+01 -1.379508882060e+00 0.0 
-1.379508882060e+00 -4.008089822985e+01 0.0 
0.0 0.0 -1.769488633527e+01 
-1.528267148447e+02 6.594814258709e+00 0.0 
6.594814258709e+00 -3.659875480908e+02 0.0 
0.0 0.0 -1.552442788806e+02 
-3.099422394426e+01 -9.130846655015e-01 0.0 
-9.130846655015e-01 -8.900299356315e+01 0.0 
0.0 0.0 -3.559916525222e+01 
-2.093171403485e+01 -1.104413894350e+00 0.0 
-1.104413894350e+00 -5.771209274299e+01 0.0 
0.0 0.0 -2.319314203335e+01 
-1.443205615385e+02 1.581635025611e+01 0.0 
1.581635025611e+01 -3.510310805033e+02 0.0 
0.0 0.0 -1.482054926126e+02 
-1.117247967616e+02 1.468732861399e+01 0.0 
1.468732861399e+01 -2.453004379637e+02 0.0 
0.0 0.0 -1.067075704176e+02 
-1.068674617026e+02 9.504601534442e+00 0.0 
9.504601534442e+00 -2.410128247070e+02 0.0 
0.0 0.0 -1.039640859229e+02 
-4.668737985240e+01 -5.287811495128e-01 0.0 
-5.287811495128e-01 -8.224198623260e+01 0.0 
0.0 0.0 -3.827880982550e+01 
-6.505253839949e+01 5.964587487934e+00 0.0 
5.964587487934e+00 -1.087413295542e+02 0.0 
0.0 0.0 -5.173816038611e+01 
-2.522009800413e+01 1.344189063572e+01 0.0 
1.344189063572e+01 -5.064714823752e+01 0.0 
0.0 0.0 -2.236017387249e+01 
-1.204940750745e+02 2.419448416600e+01 0.0 
2.419448416600e+01 -2.698083092626e+02 0.0 
0.0 0.0 -1.166907153011e+02 
-5.548305415810e+01 -1.093177317877e+00 0.0 
-1.093177317877e+00 -1.511970479658e+02 0.0 
0.0 0.0 -6.160403063716e+01 
-2.077661411369e+01 6.904028185474e+00 0.0 
6.904028185474e+00 -4.060254554470e+01 0.0 
0.0 0.0 -1.801374789752e+01 
-1.090545490420e+02 1.971963199609e+01 0.0 
1.971963199609e+01 -2.760191134522e+02 0.0 
0.0 0.0 -1.151220987483e+02 
-3.979517859726e+01 1.026833400917e-01 0.0 
1.026833400917e-01 -6.619006867225e+01 0.0 
0.0 0.0 -3.139557418085e+01 
-1.049458657357e+02 1.298600052978e+01 0.0 
1.298600052978e+01 -2.306501196515e+02 0.0 
0.0 0.0 -1.002787956162e+02 
-1.077418259438e+02 8.437810053634e-01 0.0 
8.437810053634e-01 -2.486376947589e+02 0.0 
0.0 0.0 -1.065138562108e+02 
-1.068585504191e+02 6.139848665065e-01 0.0 
6.139848665065e-01 -2.506699509779e+02 0.0 
0.0 0.0 -1.068585504191e+02 
-2.218684166811e+00 3.168632701164e-01 0.0 
3.168632701164e-01 -6.656473620359e+00 0.0 
0.0 0.0 -2.262547336151e+00 
-4.381504763694e+00 -2.787342671304e-01 0.0 
-2.787342671304e-01 -1.042872210788e+01 0.0 
0.0 0.0 -4.679574611632e+00 
-4.027016880934e+01 6.455536512782e-01 0.0 
6.455536512782e-01 -6.872153040690e+01 0.0 
0.0 0.0 -3.229750976487e+01 
-3.896856125360e+01 -1.162594980260e-01 0.0 
-1.162594980260e-01 -6.621407221612e+01 0.0 
0.0 0.0 -3.115479004091e+01 
-1.638069254632e+02 6.071441548964e-01 0.0 
6.071441548964e-01 -3.835494927476e+02 0.0 
0.0 0.0 -1.638069254632e+02 
-1.607601990770e+02 -6.144812293908e-01 0.0 
-6.144812293908e-01 -3.804880922124e+02 0.0 
0.0 0.0 -1.619744873868e+02 
-8.840951138343e+00 -7.561970270275e-01 0.0 
-7.561970270275e-01 -2.306507083503e+01 0.0 
0.0 0.0 -9.171806592013e+00 
-1.722717182223e+01 -4.676209663857e-01 0.0 
-4.676209663857e-01 -8.271679238531e+00 0.0 
0.0 0.0 -8.150081665433e+00 
-1.453252088731e+02 2.875162362997e+00 0.0 
2.875162362997e+00 -3.512731594418e+02 0.0 
0.0 0.0 -1.485795104945e+02 
-1.204139894413e+02 2.333237214083e+01 0.0 
2.333237214083e+01 -2.907450461009e+02 0.0 
0.0 0.0 -1.229477106627e+02 
-2.824452121705e+01 -9.051853749553e-01 0.0 
-9.051853749553e-01 -7.443228505554e+01 0.0 
0.0 0.0 -3.040304188177e+01 
-1.460852047106e+02 6.962721445766e+00 0.0 
6.962721445766e+00 -3.527915321292e+02 0.0 
0.0 0.0 -1.492630210520e+02 
-9.765262141258e+01 3.504927421170e-01 0.0 
3.504927421170e-01 -2.540674694856e+02 0.0 
0.0 0.0 -1.051160272695e+02 
-8.243105568150e+01 7.793301119532e-01 0.0 
7.793301119532e-01 -2.197181465891e+02 0.0 
0.0 0.0 -9.024476068117e+01 
-6.743863785410e+01 4.225207971178e-01 0.0 
4.225207971178e-01 -1.344534559458e+02 0.0 
0.0 0.0 -6.016762813996e+01 
-2.715455064337e+01 -2.640481998937e+00 0.0 
-2.640481998937e+00 -6.895334287074e+01 0.0 
0.0 0.0 -2.843236805423e+01 
-9.602017192565e+01 2.022042031831e+01 0.0 
2.022042031831e+01 -2.440187660546e+02 0.0 
0.0 0.0 -1.016116813941e+02 
-2.326089577788e+01 -1.464970822558e+00 0.0 
-1.464970822558e+00 -5.977305400140e+01 0.0 
0.0 0.0 -2.451018493378e+01 
-7.446430423570e+01 5.665973580308e-01 0.0 
5.665973580308e-01 -2.000049840502e+02 0.0 
0.0 0.0 -8.194078648578e+01 
-1.134814740434e+02 2.163732685718e+01 0.0 
2.163732685718e+01 -2.559062333262e+02 0.0 
0.0 0.0 -1.104163122109e+02 
-9.383312605330e+01 9.411557002639e-01 0.0 
9.411557002639e-01 -2.080499562308e+02 0.0 
0.0 0.0 -9.016492468523e+01 
-8.249999808145e+01 -3.920977414628e-01 0.0 
-3.920977414628e-01 -2.188168296492e+02 0.0 
0.0 0.0 -8.999504831920e+01 
-5.908658781827e+01 1.024687691990e+00 0.0 
1.024687691990e+00 -1.139110058008e+02 0.0 
0.0 0.0 -5.149927808573e+01 
-1.195567394523e+02 2.520997226817e+01 0.0 
2.520997226817e+01 -2.811193143123e+02 0.0 
0.0 0.0 -1.198028161294e+02 
-1.072950693441e+02 2.293451134922e+01 0.0 
2.293451134922e+01 -2.323215786538e+02 0.0 
0.0 0.0 -1.014849943994e+02 
-9.980050466872e+01 2.214728680660e+01 0.0 
2.214728680660e+01 -2.117505557350e+02 0.0 
0.0 0.0 -9.306531812112e+01 
-4.046483125880e+01 2.388480446949e-03 0.0 
2.388480446949e-03 -6.681591592370e+01 0.0 
0.0 0.0 -3.178422415475e+01 
-9.195889058351e+01 1.890224718869e+01 0.0 
1.890224718869e+01 -2.391611096944e+02 0.0 
0.0 0.0 -9.893600008337e+01 
-1.058028941633e+02 1.553328411258e+01 0.0 
1.553328411258e+01 -2.326979001218e+02 0.0 
0.0 0.0 -1.011502382855e+02 
-4.162984423440e+01 -1.026720751078e+00 0.0 
-1.026720751078e+00 -1.150013448320e+02 0.0 
0.0 0.0 -4.658935671991e+01 
-1.540707628861e+01 -1.438826573443e+00 0.0 
-1.438826573443e+00 -2.517127383735e+01 0.0 
0.0 0.0 -1.177350503779e+01 
-1.149369948903e+02 2.445386602177e+01 0.0 
2.445386602177e+01 -2.664209479912e+02 0.0 
0.0 0.0 -1.140073828645e+02 
-1.160692047401e+02 1.493222055019e+01 0.0 
1.493222055019e+01 -2.993904555656e+02 0.0 
0.0 0.0 -1.242378980917e+02 
-2.316396761014e+01 -2.503401397881e+00 0.0 
-2.503401397881e+00 -5.737637297215e+01 0.0 
0.0 0.0 -2.376210217469e+01 
-7.282598155144e+01 1.232289644494e+00 0.0 
1.232289644494e+00 -1.487008567009e+02 0.0 
0.0 0.0 -6.605805147571e+01 
-1.537876701984e+02 3.673255401616e+00 0.0 
3.673255401616e+00 -3.657535973390e+02 0.0 
0.0 0.0 -1.554623802612e+02 
-1.150692174434e+02 2.279450545133e+01 0.0 
2.279450545133e+01 -2.756357173029e+02 0.0 
0.0 0.0 -1.168114804239e+02 
-1.208859621738e+02 2.548236489847e+01 0.0 
2.548236489847e+01 -2.864318981495e+02 0.0 
0.0 0.0 -1.217953580970e+02 
-1.067420567493e+02 1.085428987138e+00 0.0 
1.085428987138e+00 -2.741133574090e+02 0.0 
0.0 0.0 -1.138566242475e+02 
-1.717191860419e+01 4.362722949554e+00 0.0 
4.362722949554e+00 -2.115694115310e+01 0.0 
0.0 0.0 -1.137544897641e+01 
-2.408483728392e+01 1.680675310662e+01 0.0 
1.680675310662e+01 -1.870628022020e+01 0.0 
0.0 0.0 -1.243733525124e+01 
-2.788983847637e+01 1.655948500969e+01 0.0 
1.655948500969e+01 -5.429583519499e+01 0.0 
0.0 0.0 -2.425570210141e+01 
-6.223757864416e+01 4.092125107539e+00 0.0 
4.092125107539e+00 -1.035632163030e+02 0.0 
0.0 0.0 -4.934023848415e+01 
-9.077001211981e+01 1.777164091752e+01 0.0 
1.777164091752e+01 -2.384602264151e+02 0.0 
0.0 0.0 -9.836907156048e+01 
-9.957833893305e+01 5.249453007441e+00 0.0 
5.249453007441e+00 -2.219540164645e+02 0.0 
0.0 0.0 -9.605970661925e+01 
-1.412167990539e+02 1.875609913355e+01 0.0 
1.875609913355e+01 -3.396742716984e+02 0.0 
0.0 0.0 -1.438673212257e+02 
-2.214216105108e+01 -2.327649468512e+00 0.0 
-2.327649468512e+00 -4.166095893065e+01 0.0 
0.0 0.0 -1.874093599452e+01 
-2.016983239236e+01 -2.673336008378e+00 0.0 
-2.673336008378e+00 -4.052776704766e+01 0.0 
0.0 0.0 -1.780927983200e+01 
-2.512822514812e+01 1.681079168803e+01 0.0 
1.681079168803e+01 -1.990771250123e+01 0.0 
0.0 0.0 -1.311078129480e+01 
-7.476094112871e+01 5.282807067770e-02 0.0 
5.282807067770e-02 -1.542043492828e+02 0.0 
0.0 0.0 -6.828958712346e+01 
-5.159561582457e+01 -2.162018445993e-01 0.0 
-2.162018445993e-01 -1.409657502260e+02 0.0 
0.0 0.0 -5.736840981516e+01 
-1.054627315097e+02 1.219528609797e+01 0.0 
1.219528609797e+01 -2.295161516305e+02 0.0 
0.0 0.0 -1.000936649420e+02 
-2.678419477873e+01 -2.238825173501e-01 0.0 
-2.238825173501e-01 -7.132344546496e+01 0.0 
0.0 0.0 -2.903229207310e+01 
-1.306000114927e+02 1.770992936676e+01 0.0 
1.770992936676e+01 -3.227011103267e+02 0.0 
0.0 0.0 -1.355903365458e+02 
-5.618999255680e+01 6.861037067080e-01 0.0 
6.861037067080e-01 -9.974166837367e+01 0.0 
0.0 0.0 -4.637949827914e+01 
-1.350838830524e+02 2.367705555712e+01 0.0 
2.367705555712e+01 -3.207402333223e+02 0.0 
0.0 0.0 -1.363472349124e+02 
-1.093982628985e+02 2.254857484625e+01 0.0 
2.254857484625e+01 -2.681133582391e+02 0.0 
0.0 0.0 -1.128534863413e+02 
-6.415347474932e+01 5.897606306328e+00 0.0 
5.897606306328e+00 -1.046505433961e+02 0.0 
0.0 0.0 -5.024120544362e+01 
-1.463664135410e+02 1.299856574999e+01 0.0 
1.299856574999e+01 -3.558096116099e+02 0.0 
0.0 0.0 -1.502528075453e+02 
-1.097926742385e+02 1.281095205078e+01 0.0 
1.281095205078e+01 -2.435572168059e+02 0.0 
0.0 0.0 -1.056049673133e+02 
-1.036457430096e+02 8.084356319196e-01 0.0 
8.084356319196e-01 -2.346866150530e+02 0.0 
0.0 0.0 -1.010997074188e+02 
-2.494861279566e+01 1.623100746395e+01 0.0 
1.623100746395e+01 -1.907813958912e+01 0.0 
0.0 0.0 -1.280802571543e+01 
-1.003682842136e+02 8.970898118352e+00 0.0 
8.970898118352e+00 -2.192291444849e+02 0.0 
0.0 0.0 -9.547922860955e+01 
-1.240069305417e+02 2.498392173867e+01 0.0 
2.498392173867e+01 -2.893350255068e+02 0.0 
0.0 0.0 -1.236025868145e+02 
-1.303347702405e+02 1.886499202709e+01 0.0 
1.886499202709e+01 -3.232862427564e+02 0.0 
0.0 0.0 -1.356863038991e+02 
-1.124354672775e+02 2.057476204006e+01 0.0 
2.057476204006e+01 -2.801179407949e+02 0.0 
0.0 0.0 -1.173660224217e+02 
-1.618588787516e+02 8.031830687895e+00 0.0 
8.031830687895e+00 -3.790040504203e+02 0.0 
0.0 0.0 -1.618588787516e+02 
-9.822799895447e+01 1.949463112363e+01 0.0 
1.949463112363e+01 -2.105633481187e+02 0.0 
0.0 0.0 -9.223740412196e+01 
-1.682531072041e+01 4.107470827383e+00 0.0 
4.107470827383e+00 -9.596878141280e+00 0.0 
0.0 0.0 -8.478399559033e+00 
-2.284939231829e+01 9.547177979443e+00 0.0 
9.547177979443e+00 -4.468769319013e+01 0.0 
0.0 0.0 -1.986112565253e+01 
-1.101576690221e+02 2.264562427497e+01 0.0 
2.264562427497e+01 -2.394697596200e+02 0.0 
0.0 0.0 -1.044882285926e+02 
-6.709864934146e+01 3.974258376821e+00 0.0 
3.974258376821e+00 -1.184281408672e+02 0.0 
0.0 0.0 -5.525803706259e+01 
-1.452881824617e+02 2.675965028429e+00 0.0 
2.675965028429e+00 -3.510755870264e+02 0.0 
0.0 0.0 -1.485091308464e+02 
-1.188771773944e+02 2.349969897646e+01 0.0 
2.349969897646e+01 -2.871294319372e+02 0.0 
0.0 0.0 -1.214019827995e+02 
-1.538353948606e+02 7.134738522225e+00 0.0 
7.134738522225e+00 -3.657406006380e+02 0.0 
0.0 0.0 -1.554727986496e+02 
-8.279288280074e+01 6.340339022501e-01 0.0 
6.340339022501e-01 -1.752963159270e+02 0.0 
0.0 0.0 -7.702675961831e+01 
-1.371694482963e+02 2.293995496541e+01 0.0 
2.293995496541e+01 -3.261063941013e+02 0.0 
0.0 0.0 -1.385827527193e+02 
-1.417866274036e+02 1.165542487208e+01 0.0 
1.165542487208e+01 -3.454507005105e+02 0.0 
0.0 0.0 -1.457711983742e+02 
-1.405102718035e+02 1.059666070352e+01 0.0 
1.059666070352e+01 -3.447683841045e+02 0.0 
0.0 0.0 -1.451835967724e+02 
-5.379578446369e+01 -2.322275157040e-01 0.0 
-2.322275157040e-01 -1.464490358874e+02 0.0 
0.0 0.0 -5.967344610533e+01 
-1.598787762057e+02 6.806537966555e+00 0.0 
6.806537966555e+00 -3.795852627850e+02 0.0 
0.0 0.0 -1.614392116972e+02 
-5.098758348789e+01 1.516731735829e+00 0.0 
1.516731735829e+00 -8.406896864994e+01 0.0 
0.0 0.0 -4.011696564135e+01 
-9.738295285885e+01 3.182700115885e+00 0.0 
3.182700115885e+00 -2.161092785050e+02 0.0 
0.0 0.0 -9.364766940914e+01 
-1.825474367829e+01 -2.340047533086e+00 0.0 
-2.340047533086e+00 -4.108533514408e+01 0.0 
0.0 0.0 -1.740202364671e+01 
-9.233417332748e+01 1.608696329235e+00 0.0 
1.608696329235e+00 -2.010105090971e+02 0.0 
0.0 0.0 -8.760340472737e+01 
-7.397684148330e+01 1.029680230355e+00 0.0 
1.029680230355e+00 -1.506114531190e+02 0.0 
0.0 0.0 -6.697648838069e+01 
-1.568500559503e+01 1.004564318464e-01 0.0 
1.004564318464e-01 -4.216135221756e+01 0.0 
0.0 0.0 -1.695390734378e+01 
-2.688136458944e+01 -2.472643551964e-01 0.0 
-2.472643551964e-01 -7.022153311766e+01 0.0 
0.0 0.0 -2.873086931213e+01 
-1.020423302698e+02 2.062194360940e+01 0.0 
2.062194360940e+01 -2.249021109576e+02 0.0 
0.0 0.0 -9.768333236824e+01 
-1.030380083586e+02 6.668757242339e+00 0.0 
6.668757242339e+00 -2.350182098528e+02 0.0 
0.0 0.0 -1.010168654634e+02 
-9.767866017800e+01 1.885797965135e+00 0.0 
1.885797965135e+00 -2.187302629327e+02 0.0 
0.0 0.0 -9.452267693320e+01 
-1.334389436776e+02 2.193085589901e+01 0.0 
2.193085589901e+01 -3.250913669633e+02 0.0 
0.0 0.0 -1.371590931923e+02 
-5.924234771722e+01 -1.583768199947e-01 0.0 
-1.583768199947e-01 -1.132026260529e+02 0.0 
0.0 0.0 -5.133349213102e+01 
-1.313172367661e+01 -1.526624037971e+00 0.0 
-1.526624037971e+00 -2.466329394797e+01 0.0 
0.0 0.0 -1.093850528737e+01 
-2.142163232962e+01 2.349259851251e+00 0.0 
2.349259851251e+00 -3.454252133797e+01 0.0 
0.0 0.0 -1.638924610028e+01 
-1.288185605063e+01 -2.080958566557e+00 0.0 
-2.080958566557e+00 -2.821843591098e+01 0.0 
0.0 0.0 -1.192150244562e+01 
-2.338254867232e+01 -2.236304417611e+00 0.0 
-2.236304417611e+00 -5.454456961605e+01 0.0 
0.0 0.0 -2.297813548651e+01 
-1.580151560048e+01 7.683861904200e+00 0.0 
7.683861904200e+00 -6.913138197311e+00 0.0 
0.0 0.0 -6.610017938657e+00 
-7.262500954406e+01 -6.443807300561e-01 0.0 
-6.443807300561e-01 -1.950499442300e+02 0.0 
0.0 0.0 -7.990248613222e+01 
-1.449410677804e+02 1.277292219779e+00 0.0 
1.277292219779e+00 -3.508843750773e+02 0.0 
0.0 0.0 -1.483476328573e+02 
-1.090063796619e+02 1.798373507989e+01 0.0 
1.798373507989e+01 -2.390616761497e+02 0.0 
0.0 0.0 -1.040204167435e+02 
-7.218359225466e+01 8.777554072049e+00 0.0 
8.777554072049e+00 -1.214958692757e+02 0.0 
0.0 0.0 -5.770383845911e+01 
-6.265216318615e+01 3.847935322306e-01 0.0 
3.847935322306e-01 -1.709689511202e+02 0.0 
0.0 0.0 -6.968633429190e+01 
-1.415110851274e+02 9.598454606204e+00 0.0 
9.598454606204e+00 -3.457557221476e+02 0.0 
0.0 0.0 -1.457800421825e+02 
-1.328009473032e+02 1.372934029664e+01 0.0 
1.372934029664e+01 -3.321995423732e+02 0.0 
0.0 0.0 -1.391001469029e+02 
-1.321566093731e+02 2.488758918661e+01 0.0 
2.488758918661e+01 -3.183483038783e+02 0.0 
0.0 0.0 -1.347514739754e+02 
-1.196985391174e+02 2.428458810048e+01 0.0 
2.428458810048e+01 -2.788977174742e+02 0.0 
0.0 0.0 -1.191788769775e+02 
-1.088211115179e+02 2.161610214766e+01 0.0 
2.161610214766e+01 -2.443613633467e+02 0.0 
0.0 0.0 -1.055547424594e+02 
-1.771668779721e+01 -2.508379385353e+00 0.0 
-2.508379385353e+00 -4.055577947270e+01 0.0 
0.0 0.0 -1.708174018097e+01 
-2.306192881096e+01 -7.049519288491e-01 0.0 
-7.049519288491e-01 -3.521342930779e+01 0.0 
0.0 0.0 -1.708260743563e+01 
-1.451676646796e+02 3.907116581366e+00 0.0 
3.907116581366e+00 -3.516905320219e+02 0.0 
0.0 0.0 -1.486574590105e+02 
-1.450758280529e+01 -4.295492006850e-01 0.0 
-4.295492006850e-01 -4.128674303958e+01 0.0 
0.0 0.0 -1.633829775346e+01 
-1.788805261828e+01 -1.114250952879e+00 0.0 
-1.114250952879e+00 -4.926680055383e+01 0.0 
0.0 0.0 -1.974645595163e+01 
-2.027977038981e+01 9.873340242649e+00 0.0 
9.873340242649e+00 -2.528773959064e+01 0.0 
0.0 0.0 -1.327025299414e+01 
-1.646177517109e+01 -1.316763647810e+00 0.0 
-1.316763647810e+00 -3.862960043526e+01 0.0 
0.0 0.0 -1.612741268191e+01 
-1.501110234085e+02 1.174134529409e+01 0.0 
1.174134529409e+01 -3.586935643209e+02 0.0 
0.0 0.0 -1.522413763188e+02 
-1.207086672798e+02 2.454655219824e+01 0.0 
2.454655219824e+01 -2.776181015528e+02 0.0 
0.0 0.0 -1.190980306498e+02 
-9.855339583471e+01 3.607608155039e+00 0.0 
3.607608155039e+00 -2.216506601383e+02 0.0 
0.0 0.0 -9.566121679190e+01 
-1.335820716812e+02 2.446651977191e+01 0.0 
2.446651977191e+01 -3.170453809856e+02 0.0 
0.0 0.0 -1.347882358001e+02 
-1.285453136520e+02 1.492346876820e+01 0.0 
1.492346876820e+01 -3.213840346467e+02 0.0 
0.0 0.0 -1.345788044896e+02 
-6.380150801475e+01 -1.453903736444e-01 0.0 
-1.453903736444e-01 -1.245795168635e+02 0.0 
0.0 0.0 -5.611430746348e+01 
-1.085709532191e+02 9.186108310417e+00 0.0 
9.186108310417e+00 -2.546655575111e+02 0.0 
0.0 0.0 -1.085709532191e+02 
-3.266756568151e+01 -1.685611499658e+00 0.0 
-1.685611499658e+00 -8.975747969504e+01 0.0 
0.0 0.0 -3.632751361296e+01 
-4.057188641476e+01 5.054792966021e-02 0.0 
5.054792966021e-02 -6.598415697655e+01 0.0 
0.0 0.0 -3.156681301739e+01 
-2.534929379654e+01 -2.920204756302e+00 0.0 
-2.920204756302e+00 -5.569358029605e+01 0.0 
0.0 0.0 -2.391286222778e+01 
-1.020257692082e+01 -1.109659245499e+00 0.0 
-1.109659245499e+00 -2.435180132309e+01 0.0 
0.0 0.0 -1.051317335365e+01 
-1.604629745874e+02 4.430823991980e+00 0.0 
4.430823991980e+00 -3.806848799257e+02 0.0 
0.0 0.0 -1.619443563539e+02 
-5.639135239838e+01 4.522948139639e+00 0.0 
4.522948139639e+00 -8.928634003380e+01 0.0 
0.0 0.0 -4.330330772965e+01 
-2.206035129273e+01 -1.017061929668e+00 0.0 
-1.017061929668e+00 -5.747533210687e+01 0.0 
0.0 0.0 -2.346070501988e+01 
-6.906595494631e+01 -1.109578076096e+00 0.0 
-1.109578076096e+00 -1.876108386965e+02 0.0 
0.0 0.0 -7.660303809283e+01 
-1.216654313300e+02 2.497146227307e+01 0.0 
2.497146227307e+01 -2.765901145223e+02 0.0 
0.0 0.0 -1.190766637557e+02 
-1.006099995162e+02 6.939297804085e+00 0.0 
6.939297804085e+00 -2.212978681588e+02 0.0 
0.0 0.0 -9.617236030251e+01 
-1.083078055686e+02 1.475128707557e+01 0.0 
1.475128707557e+01 -2.453583745232e+02 0.0 
0.0 0.0 -1.056998540276e+02 
-4.924529479683e+01 2.396665718222e-02 0.0 
2.396665718222e-02 -1.337473471967e+02 0.0 
0.0 0.0 -5.449779259805e+01 
-2.118860082785e+01 6.806288485309e-01 0.0 
6.806288485309e-01 -3.514475494412e+01 0.0 
0.0 0.0 -1.650000673159e+01 
-1.506962092839e+02 8.195450826256e+00 0.0 
8.195450826256e+00 -3.633603478407e+02 0.0 
0.0 0.0 -1.538169671374e+02 
-1.094353780394e+02 7.565341007805e-01 0.0 
7.565341007805e-01 -2.516334757082e+02 0.0 
0.0 0.0 -1.079206561243e+02 
-1.611411529619e+02 1.029985726232e+00 0.0 
1.029985726232e+00 -3.822471870747e+02 0.0 
0.0 0.0 -1.626165020110e+02 
-4.523712497014e+01 -4.808732371931e-01 0.0 
-4.808732371931e-01 -8.061494611459e+01 0.0 
0.0 0.0 -3.735562132542e+01 
-1.368529122085e+02 1.505361740962e+01 0.0 
1.505361740962e+01 -3.346331529832e+02 0.0 
0.0 0.0 -1.410458195575e+02 
-2.170608923055e+01 -7.675258171872e-01 0.0 
-7.675258171872e-01 -5.847356701726e+01 0.0 
0.0 0.0 -2.365389687435e+01 
-1.035975540969e+02 1.052871283342e+01 0.0 
1.052871283342e+01 -2.289116574119e+02 0.0 
0.0 0.0 -9.935276345265e+01 
-1.050264680797e+01 -1.063348106912e+00 0.0 
-1.063348106912e+00 -2.333857556934e+01 0.0 
0.0 0.0 -1.026012446073e+01 
-1.483385807974e+02 1.420078897739e+01 0.0 
1.420078897739e+01 -3.549054619964e+02 0.0 
0.0 0.0 -1.505732128381e+02 
-1.116734922255e+02 1.564976862369e+01 0.0 
1.564976862369e+01 -2.471860939795e+02 0.0 
0.0 0.0 -1.072578758615e+02 
-1.738429586624e+01 1.866370821004e+00 0.0 
1.866370821004e+00 -2.236303166057e+01 0.0 
0.0 0.0 -1.203346979267e+01 
-1.162417563095e+02 2.432423694152e+01 0.0 
2.432423694152e+01 -2.769108161668e+02 0.0 
0.0 0.0 -1.175457717429e+02 
-7.940466124483e+01 1.893471099131e+00 0.0 
1.893471099131e+00 -1.652936218404e+02 0.0 
0.0 0.0 -7.300948492557e+01 
-1.026595291128e+02 4.949772936509e+00 0.0 
4.949772936509e+00 -2.354855899313e+02 0.0 
0.0 0.0 -1.010435357132e+02 
-1.496163530852e+02 2.271023142561e+01 0.0 
2.271023142561e+01 -3.504381571987e+02 0.0 
0.0 0.0 -1.496163530852e+02 
-6.841127846598e+01 1.485914348437e+00 0.0 
1.485914348437e+00 -1.382584687390e+02 0.0 
0.0 0.0 -6.160092416150e+01 
-1.185928773130e+02 2.341127061932e+01 0.0 
2.341127061932e+01 -2.728563183786e+02 0.0 
0.0 0.0 -1.170347587075e+02 
-1.075786201755e+02 1.488394200871e+01 0.0 
1.488394200871e+01 -2.326692349359e+02 0.0 
0.0 0.0 -1.016743565334e+02 
-7.253684547658e+01 6.943615530372e-01 0.0 
6.943615530372e-01 -1.497884928614e+02 0.0 
0.0 0.0 -6.629760150139e+01 
-1.159411594587e+02 2.291306520902e+01 0.0 
2.291306520902e+01 -2.622704143906e+02 0.0 
0.0 0.0 -1.130634721548e+02 
-5.912592884882e+01 -6.881560577598e-02 0.0 
-6.881560577598e-02 -1.602642696941e+02 0.0 
0.0 0.0 -6.541705956288e+01 
-3.937102825707e+01 9.658050741112e-02 0.0 
9.658050741112e-02 -6.605143970087e+01 0.0 
0.0 0.0 -3.122674038738e+01 
-1.254393589883e+02 2.345824121653e+01 0.0 
2.345824121653e+01 -3.034362026503e+02 0.0 
0.0 0.0 -1.282626684916e+02 
-1.031235588754e+02 1.293400579202e-01 0.0 
1.293400579202e-01 -2.363974276817e+02 0.0 
0.0 0.0 -1.014562959671e+02 
-3.558244161216e+00 8.316032891827e-02 0.0 
8.316032891827e-02 -8.542799420251e+00 0.0 
0.0 0.0 -4.155561897607e+00 
-3.909455268700e+01 -2.397897345104e-01 0.0 
-2.397897345104e-01 -6.639050558803e+01 0.0 
0.0 0.0 -3.124551748251e+01 
-1.555536875233e+02 1.131009921533e+00 0.0 
1.131009921533e+00 -3.700258140891e+02 0.0 
0.0 0.0 -1.572738504837e+02 
-2.738163203880e+01 -1.940161271734e+00 0.0 
-1.940161271734e+00 -7.344034124214e+01 0.0 
0.0 0.0 -2.984659198428e+01 
-1.312113403549e+02 1.734472477979e+01 0.0 
1.734472477979e+01 -3.280216515235e+02 0.0 
0.0 0.0 -1.373698975635e+02 
-1.101498940540e+02 1.748607253276e+01 0.0 
1.748607253276e+01 -2.357041115249e+02 0.0 
0.0 0.0 -1.033562016737e+02 
-1.042700350056e+02 4.986256598576e+00 0.0 
4.986256598576e+00 -2.349461313446e+02 0.0 
0.0 0.0 -1.013648499051e+02 
-2.638728747419e+01 -1.428802253384e+00 0.0 
-1.428802253384e+00 -7.062633321062e+01 0.0 
0.0 0.0 -2.870408620544e+01 
-2.299581306074e+01 7.075918654061e+00 0.0 
7.075918654061e+00 -4.040863565368e+01 0.0 
0.0 0.0 -1.862133461433e+01 
-8.583020310011e+01 -1.314687958377e+00 0.0 
-1.314687958377e+00 -2.282480107059e+02 0.0 
0.0 0.0 -9.382346414179e+01 
-8.602082881631e+01 5.854351136400e-01 0.0 
5.854351136400e-01 -1.866310443045e+02 0.0 
0.0 0.0 -8.139556193624e+01 
-2.187181486744e+01 -5.929914869505e-01 0.0 
-5.929914869505e-01 -5.693614335660e+00 0.0 
0.0 0.0 -7.869628760932e+00 
-1.065695879002e+02 1.214115804121e+01 0.0 
1.214115804121e+01 -2.422734150198e+02 0.0 
0.0 0.0 -1.042529008760e+02 
-6.572102586736e+01 3.201964867375e-01 0.0 
3.201964867375e-01 -1.321097944030e+02 0.0 
0.0 0.0 -5.894924608110e+01 
-2.788560266373e+01 -2.466828523847e+00 0.0 
-2.466828523847e+00 -6.923550745652e+01 0.0 
0.0 0.0 -2.873633303608e+01 
-6.052136457842e+01 3.343229416335e-01 0.0 
3.343229416335e-01 -1.182215307401e+02 0.0 
0.0 0.0 -5.322286859556e+01 
-1.310321164751e+02 2.648126539599e+01 0.0 
2.648126539599e+01 -3.115541977018e+02 0.0 
0.0 0.0 -1.323758942531e+02 
-9.071953178899e+01 1.206813389502e+00 0.0 
1.206813389502e+00 -2.389106064301e+02 0.0 
0.0 0.0 -9.848904146572e+01 
-1.740769894582e+01 8.312634088404e+00 0.0 
8.312634088404e+00 -1.156076057374e+01 0.0 
0.0 0.0 -8.264535180493e+00 
-5.244383669853e+01 -1.267175252329e+00 0.0 
-1.267175252329e+00 -1.454501245929e+02 0.0 
0.0 0.0 -5.896818838742e+01 
-7.817525178409e+01 -3.779752326187e-01 0.0 
-3.779752326187e-01 -2.098801495955e+02 0.0 
0.0 0.0 -8.601662041389e+01 
-9.496713291643e+01 -1.330854905836e+00 0.0 
-1.330854905836e+00 -2.479277882180e+02 0.0 
0.0 0.0 -1.024684763403e+02 
-1.292333936071e+02 2.303594988445e+01 0.0 
2.303594988445e+01 -3.127293579319e+02 0.0 
0.0 0.0 -1.321888254617e+02 
-7.604332852570e+01 6.071145834196e-01 0.0 
6.071145834196e-01 -2.046163138545e+02 0.0 
0.0 0.0 -8.379789271406e+01 
-8.152106314481e+01 -2.597356518185e-01 0.0 
-2.597356518185e-01 -2.171345811725e+02 0.0 
0.0 0.0 -8.919669329520e+01 
-1.551899450130e+01 -1.743894656981e+00 0.0 
-1.743894656981e+00 -3.725072869698e+01 0.0 
0.0 0.0 -1.543091695948e+01 
-1.451424442619e+02 6.111932588595e+00 0.0 
6.111932588595e+00 -3.526655876900e+02 0.0 
0.0 0.0 -1.489424095856e+02 
-1.136230667638e+02 2.325605031495e+01 0.0 
2.325605031495e+01 -2.660418456585e+02 0.0 
0.0 0.0 -1.134994737267e+02 
-2.295472865199e+01 7.312161284853e+00 0.0 
7.312161284853e+00 -5.180899790349e+01 0.0 
0.0 0.0 -2.202911796665e+01 
-1.026789307963e+02 1.035324304226e+00 0.0 
1.035324304226e+00 -2.356386704602e+02 0.0 
0.0 0.0 -1.010952803770e+02 
-1.556467353800e+02 1.641506059262e-01 0.0 
1.641506059262e-01 -3.696496709190e+02 0.0 
0.0 0.0 -1.571889218897e+02 
-4.572646409837e+01 6.314722879350e-01 0.0 
6.314722879350e-01 -8.164875483841e+01 0.0 
0.0 0.0 -3.781256568104e+01 
-6.620870509577e+01 2.828969948755e-01 0.0 
2.828969948755e-01 -1.322968719816e+02 0.0 
0.0 0.0 -5.915167312322e+01 
-7.623885304883e+01 -6.780552847076e-01 0.0 
-6.780552847076e-01 -2.044945474128e+02 0.0 
0.0 0.0 -8.382002013850e+01 
-7.910581590572e+01 3.884818724745e-01 0.0 
3.884818724745e-01 -2.107803678940e+02 0.0 
0.0 0.0 -8.656585513992e+01 
-8.142181338374e+01 1.942448616015e-01 0.0 
1.942448616015e-01 -2.175701042964e+02 0.0 
0.0 0.0 -8.929757530403e+01 
-1.252381181965e+02 1.614604625551e+01 0.0 
1.614604625551e+01 -3.153906435261e+02 0.0 
0.0 0.0 -1.317886285168e+02 
-2.276500853577e+01 -3.006930430834e+00 0.0 
-3.006930430834e+00 -5.632646648166e+01 0.0 
0.0 0.0 -2.332744250523e+01 
-1.187929854523e+02 2.582290312192e+01 0.0 
2.582290312192e+01 -2.739654919965e+02 0.0 
0.0 0.0 -1.174275432346e+02 
-5.245057106222e+01 -7.223975192776e-02 0.0 
-7.223975192776e-02 -9.840158927780e+01 0.0 
0.0 0.0 -4.485564810200e+01 
-1.092680963287e+02 1.204846494060e+01 0.0 
1.204846494060e+01 -2.414776519154e+02 0.0 
0.0 0.0 -1.048237244732e+02 
-1.269581845596e+02 1.678085963960e+01 0.0 
1.678085963960e+01 -3.160093041439e+02 0.0 
0.0 0.0 -1.324902466111e+02 
-6.194986427649e+01 9.106240093284e-01 0.0 
9.106240093284e-01 -1.191680226562e+02 0.0 
0.0 0.0 -5.393536607980e+01 
-1.110223220927e+02 2.173268810674e+01 0.0 
2.173268810674e+01 -2.487808445012e+02 0.0 
0.0 0.0 -1.075409499782e+02 
-1.274602670359e+02 2.169671851815e+01 0.0 
2.169671851815e+01 -3.113273319527e+02 0.0 
0.0 0.0 -1.312362796966e+02 
-1.336857391429e+02 2.466151205469e+01 0.0 
2.466151205469e+01 -3.227898206235e+02 0.0 
0.0 0.0 -1.365426679299e+02 
-1.822066550900e+01 7.674237651962e+00 0.0 
7.674237651962e+00 -1.802831667076e+01 0.0 
0.0 0.0 -1.068872751499e+01 
-1.126287408037e+02 2.328754050384e+01 0.0 
2.328754050384e+01 -2.497119963612e+02 0.0 
0.0 0.0 -1.083022211495e+02 
-1.163106549206e+02 2.331691997529e+01 0.0 
2.331691997529e+01 -2.637454941773e+02 0.0 
0.0 0.0 -1.136168447294e+02 
-1.637203507882e+01 -8.697872660514e-01 0.0 
-8.697872660514e-01 -3.826748382240e+01 0.0 
0.0 0.0 -1.599185567037e+01 
-7.224858165976e+01 2.572243648281e-01 0.0 
2.572243648281e-01 -1.946164114361e+02 0.0 
0.0 0.0 -7.965949792877e+01 
-1.864739205400e+01 5.908877542126e+00 0.0 
5.908877542126e+00 -1.676257449593e+01 0.0 
0.0 0.0 -1.022298996498e+01 
-1.166775950512e+02 2.398608780222e+01 0.0 
2.398608780222e+01 -2.593566135440e+02 0.0 
0.0 0.0 -1.124102625786e+02 
-1.469491352763e+01 4.851503418017e-01 0.0 
4.851503418017e-01 -8.008938366140e+00 0.0 
0.0 0.0 -6.411155568130e+00 
-1.539871591396e+01 -5.636380389660e-02 0.0 
-5.636380389660e-02 -9.861915501059e+00 0.0 
0.0 0.0 -7.178189424506e+00 
-1.481421518621e+01 1.767964366861e-01 0.0 
1.767964366861e-01 -9.645953659092e+00 0.0 
0.0 0.0 -6.938050653590e+00 
-1.529710188458e+01 3.611287940077e-02 0.0 
3.611287940077e-02 -9.907420769951e+00 0.0 
0.0 0.0 -7.161356796358e+00 
-1.489046340960e+01 3.477280239956e-02 0.0 
3.477280239956e-02 -9.734731014223e+00 0.0 
0.0 0.0 -6.987558327148e+00 
-1.518248222286e+01 -5.899912281164e-02 0.0 
-5.899912281164e-02 -9.933462835323e+00 0.0 
0.0 0.0 -7.134783517454e+00 
-1.480083906117e+01 -3.798078376899e-02 0.0 
-3.798078376899e-02 -9.779061431352e+00 0.0 
0.0 0.0 -6.973970147758e+00 
-1.512044835015e+01 -1.318124853336e-01 0.0 
-1.318124853336e-01 -9.967867089551e+00 0.0 
0.0 0.0 -7.126494631910e+00 
-1.459382797665e+01 -8.400061272241e-02 0.0 
-8.400061272241e-02 -9.766125809824e+00 0.0 
0.0 0.0 -6.907986135942e+00 
-1.503250121060e+01 -2.054908356475e-01 0.0 
-2.054908356475e-01 -1.000673907642e+01 0.0 
0.0 0.0 -7.111772086107e+00 
-1.428256126062e+01 -1.154858227814e-01 0.0 
-1.154858227814e-01 -9.738193923985e+00 0.0 
0.0 0.0 -6.806226555381e+00 
-1.492552901197e+01 -2.786530358197e-01 0.0 
-2.786530358197e-01 -1.005238987282e+01 0.0 
0.0 0.0 -7.093375665435e+00 
-1.388342350884e+01 -1.289523031764e-01 0.0 
-1.289523031764e-01 -9.708018197731e+00 0.0 
0.0 0.0 -6.677432511971e+00 
-1.477144544528e+01 -3.324975324972e-01 0.0 
-3.324975324972e-01 -1.009039048181e+01 0.0 
0.0 0.0 -7.058550778128e+00 
-1.341988439486e+01 -1.399676495782e-01 0.0 
-1.399676495782e-01 -9.667988370543e+00 0.0 
0.0 0.0 -6.526361829621e+00 
-1.621529313192e+01 3.907745677449e+00 0.0 
3.907745677449e+00 -1.267344747745e+01 0.0 
0.0 0.0 -8.266622182811e+00 
-1.466573286456e+01 -3.939835514051e-01 0.0 
-3.939835514051e-01 -1.013676850330e+01 0.0 
0.0 0.0 -7.040750410356e+00 
-2.074531425066e+01 1.924382045536e+00 0.0 
1.924382045536e+00 -1.100250273516e+01 0.0 
0.0 0.0 -9.124345095745e+00 
-1.287085515495e+01 -1.694028781152e-01 0.0 
-1.694028781152e-01 -9.590931458737e+00 0.0 
0.0 0.0 -6.338535984107e+00 
-1.450112589085e+01 -4.845758112849e-01 0.0 
-4.845758112849e-01 -1.019313666956e+01 0.0 
0.0 0.0 -7.008278768125e+00 
-1.221248607489e+01 -1.871415464835e-01 0.0 
-1.871415464835e-01 -9.550572529445e+00 0.0 
0.0 0.0 -6.128917581301e+00 
-1.433443073024e+01 -5.487366768977e-01 0.0 
-5.487366768977e-01 -1.025155826011e+01 0.0 
0.0 0.0 -6.975796697104e+00 
-1.148737425857e+01 -1.851282182935e-01 0.0 
-1.851282182935e-01 -9.508302765302e+00 0.0 
0.0 0.0 -5.898703107161e+00 
-1.425628019692e+01 -5.890031871177e-01 0.0 
-5.890031871177e-01 -1.031546732404e+01 0.0 
0.0 0.0 -6.971524256288e+00 
-9.051160793718e+00 7.608863089690e-01 0.0 
7.608863089690e-01 -5.727933380519e+00 0.0 
0.0 0.0 -4.033728252271e+00 
-1.073170073572e+01 -1.714964084465e-01 0.0 
-1.714964084465e-01 -9.446490704217e+00 0.0 
0.0 0.0 -5.653457431980e+00 
-1.426865151163e+01 -6.128411953419e-01 0.0 
-6.128411953419e-01 -1.038528481398e+01 0.0 
0.0 0.0 -6.996180897683e+00 
-9.977476729156e+00 -1.383598287432e-01 0.0 
-1.383598287432e-01 -9.395237776072e+00 0.0 
0.0 0.0 -5.411814351569e+00 
-1.442705335285e+01 -5.912420660087e-01 0.0 
-5.912420660087e-01 -1.045525977179e+01 0.0 
0.0 0.0 -7.064693937391e+00 
-9.268611447612e+00 -1.162500339138e-01 0.0 
-1.162500339138e-01 -9.290236393292e+00 0.0 
0.0 0.0 -5.167654352271e+00 
-1.501900363003e+01 -5.978747968889e-01 0.0 
-5.978747968889e-01 -1.058529397355e+01 0.0 
0.0 0.0 -7.281289281073e+00 
-8.668581620710e+00 6.422080309101e-02 0.0 
6.422080309101e-02 -9.394323542986e+00 0.0 
0.0 0.0 -5.018871549109e+00 
-1.564863769881e+01 -2.791274494675e-01 0.0 
-2.791274494675e-01 -1.065625022325e+01 0.0 
0.0 0.0 -7.491466376618e+00 
-1.744920175114e+01 1.728094915982e-01 0.0 
1.728094915982e-01 -1.083446707815e+01 0.0 
0.0 0.0 -8.085100648788e+00 
-8.630245722101e+00 3.768847820716e-01 0.0 
3.768847820716e-01 -9.437465090596e+00 0.0 
0.0 0.0 -5.020313243809e+00 
-2.569628157410e+01 6.759263704019e+00 0.0 
6.759263704019e+00 -1.303582881909e+01 0.0 
0.0 0.0 -1.121963311796e+01 
-9.720248569402e+00 1.393526259728e+00 0.0 
1.393526259728e+00 -1.036397884224e+01 0.0 
0.0 0.0 -5.625268223494e+00 
-1.810131544773e+01 1.789172455867e+00 0.0 
1.789172455867e+00 1.601531977565e-01 0.0 
0.0 0.0 -4.982348674993e+00 
-1.552415174619e+01 1.496769466643e+00 0.0 
1.496769466643e+00 -1.026605872516e+01 0.0 
0.0 0.0 -7.337063141405e+00 
-1.584107902468e+01 -1.277074897156e+00 0.0 
-1.277074897156e+00 -8.373660259171e+00 0.0 
0.0 0.0 -6.864421785155e+00 
-1.747066709215e+01 2.248081521040e-01 0.0 
2.248081521040e-01 -1.453062370721e+01 0.0 
0.0 0.0 -9.200387239807e+00 
-1.399615640469e+01 -6.173564508656e-02 0.0 
-6.173564508656e-02 -4.285770835405e+00 0.0 
0.0 0.0 -5.084578172028e+00 
-2.492439672345e+01 7.572897540349e+00 0.0 
7.572897540349e+00 -9.671845531359e+00 0.0 
0.0 0.0 -9.978872676444e+00 
-2.428722380133e+01 2.708958506345e-01 0.0 
2.708958506345e-01 -3.122682513877e+01 0.0 
0.0 0.0 -1.625421468203e+01 
-2.376871191171e+01 -2.405833429310e-01 0.0 
-2.405833429310e-01 -2.939190616247e+01 0.0 
0.0 0.0 -1.554818542225e+01 
-2.369721388870e+01 2.278941450736e-02 0.0 
2.278941450736e-02 -2.931713634205e+01 0.0 
0.0 0.0 -1.550430506922e+01 
-2.354053114948e+01 -4.468925564477e-02 0.0 
-4.468925564477e-02 -2.914208905471e+01 0.0 
0.0 0.0 -1.540478606126e+01 
-2.365017506840e+01 -1.021203571346e-01 0.0 
-1.021203571346e-01 -2.920290703250e+01 0.0 
0.0 0.0 -1.545592463027e+01 
-2.343821534540e+01 -1.331489218984e-01 0.0 
-1.331489218984e-01 -2.919684012125e+01 0.0 
0.0 0.0 -1.539051663999e+01 
-2.363843027797e+01 -1.256700290938e-01 0.0 
-1.256700290938e-01 -2.927784195185e+01 0.0 
0.0 0.0 -1.547488166894e+01 
-2.333784465802e+01 -2.009631257633e-01 0.0 
-2.009631257633e-01 -2.914179180792e+01 0.0 
0.0 0.0 -1.534389093978e+01 
-2.376032509268e+01 -1.985111615697e-01 0.0 
-1.985111615697e-01 -2.931428668047e+01 0.0 
0.0 0.0 -1.552238353194e+01 
-2.323610234747e+01 -3.041145561746e-01 0.0 
-3.041145561746e-01 -2.914847506243e+01 0.0 
0.0 0.0 -1.531537322297e+01 
-2.378744204101e+01 -2.573347611477e-01 0.0 
-2.573347611477e-01 -2.934665227825e+01 0.0 
0.0 0.0 -1.554022829578e+01 
-2.309843604992e+01 -3.907828455140e-01 0.0 
-3.907828455140e-01 -2.912250629470e+01 0.0 
0.0 0.0 -1.526628270338e+01 
-2.392177965027e+01 -3.184304824647e-01 0.0 
-3.184304824647e-01 -2.940300365197e+01 0.0 
0.0 0.0 -1.559743499067e+01 
-2.796923758190e+01 3.800284791596e+00 0.0 
3.800284791596e+00 -3.305563526173e+01 0.0 
0.0 0.0 -1.790746185309e+01 
-2.294429496901e+01 -4.715331243047e-01 0.0 
-4.715331243047e-01 -2.916037270385e+01 0.0 
0.0 0.0 -1.523140030186e+01 
-2.399926740436e+01 -2.952760243523e-01 0.0 
-2.952760243523e-01 -2.944229398642e+01 0.0 
0.0 0.0 -1.563246841723e+01 
-2.406476070738e+01 2.135192168470e+00 0.0 
2.135192168470e+00 -2.627077130937e+01 0.0 
0.0 0.0 -1.470065960502e+01 
-2.275701296995e+01 -5.172978125685e-01 0.0 
-5.172978125685e-01 -2.901642208254e+01 0.0 
0.0 0.0 -1.513203051574e+01 
-2.421157293320e+01 -3.867971046841e-01 0.0 
-3.867971046841e-01 -2.945227558267e+01 0.0 
0.0 0.0 -1.569915455476e+01 
-3.045878544638e+01 2.142073656411e+00 0.0 
2.142073656411e+00 -3.090040701832e+01 0.0 
0.0 0.0 -1.800775773941e+01 
-2.258040251935e+01 -6.020709042803e-01 0.0 
-6.020709042803e-01 -2.904478213605e+01 0.0 
0.0 0.0 -1.508755539662e+01 
-2.439705192146e+01 -4.153785949775e-01 0.0 
-4.153785949775e-01 -2.952719715704e+01 0.0 
0.0 0.0 -1.577727472355e+01 
-2.241510594429e+01 -6.201488234816e-01 0.0 
-6.201488234816e-01 -2.910646709289e+01 0.0 
0.0 0.0 -1.505647191115e+01 
-2.472579522207e+01 -3.381302379316e-01 0.0 
-3.381302379316e-01 -2.961711757540e+01 0.0 
0.0 0.0 -1.590287383924e+01 
-2.230367826661e+01 -5.579275343822e-01 0.0 
-5.579275343822e-01 -2.909272948663e+01 0.0 
0.0 0.0 -1.501892232597e+01 
-3.304371701565e+01 4.700684767890e+00 0.0 
4.700684767890e+00 -3.390353662056e+01 0.0 
0.0 0.0 -1.968417609086e+01 
-2.524784270673e+01 -2.424375736096e-01 0.0 
-2.424375736096e-01 -2.970216113743e+01 0.0 
0.0 0.0 -1.608500115325e+01 
-2.231099867395e+01 -4.254548281542e-01 0.0 
-4.254548281542e-01 -2.915076152605e+01 0.0 
0.0 0.0 -1.503852806000e+01 
-2.251909453430e+01 -1.437139156811e-01 0.0 
-1.437139156811e-01 -2.933668919519e+01 0.0 
0.0 0.0 -1.515673511885e+01 
-2.587571341089e+01 -6.908019019803e-02 0.0 
-6.908019019803e-02 -2.980930092971e+01 0.0 
0.0 0.0 -1.630550430218e+01 
-2.305669006726e+01 3.354510904595e-01 0.0 
3.354510904595e-01 -2.933989566042e+01 0.0 
0.0 0.0 -1.531897571830e+01 
-2.664649886628e+01 3.546675017935e-01 0.0 
3.546675017935e-01 -2.985727133642e+01 0.0 
0.0 0.0 -1.655113106081e+01 
-2.425430788195e+01 1.296883734652e+00 0.0 
1.296883734652e+00 -3.073614731725e+01 0.0 
0.0 0.0 -1.609713655976e+01 
-2.811069195058e+01 6.251757709541e-01 0.0 
6.251757709541e-01 -3.023136577310e+01 0.0 
0.0 0.0 -1.710261731710e+01 
-2.801693021458e+01 2.917511080133e+00 0.0 
2.917511080133e+00 -2.346354261798e+01 0.0 
0.0 0.0 -1.504414184977e+01 
-2.425019109424e+01 1.380592130490e+00 0.0 
1.380592130490e+00 -2.904362228330e+01 0.0 
0.0 0.0 -1.558814401326e+01 
-2.388120058051e+01 -1.499279407249e+00 0.0 
-1.499279407249e+00 -3.120191140497e+01 0.0 
0.0 0.0 -1.612493359564e+01 
-2.194095732240e+01 7.524155373890e-02 0.0 
7.524155373890e-02 -2.496130091113e+01 0.0 
0.0 0.0 -1.367067747006e+01 
-2.608203992927e+01 -2.572177343429e-01 0.0 
-2.572177343429e-01 -3.508323294824e+01 0.0 
0.0 0.0 -1.794958186325e+01 
-2.776549680129e+01 5.398556549699e+00 0.0 
5.398556549699e+00 -2.738292868663e+01 0.0 
0.0 0.0 -1.614452764637e+01 
-3.135628806327e+01 3.584034151232e-01 0.0 
3.584034151232e-01 -4.772130841664e+01 0.0 
0.0 0.0 -2.332327894397e+01 
-3.210300755128e+01 -3.674218136184e-02 0.0 
-3.674218136184e-02 -4.888375982582e+01 0.0 
0.0 0.0 -2.389603021313e+01 
-3.207628023276e+01 -6.103995080028e-02 0.0 
-6.103995080028e-02 -4.886829114486e+01 0.0 
0.0 0.0 -2.388337141329e+01 
-3.197139579498e+01 -4.848550764403e-02 0.0 
-4.848550764403e-02 -4.888310602700e+01 0.0 
0.0 0.0 -2.385635054659e+01 
-3.210029989484e+01 -1.183176931579e-01 0.0 
-1.183176931579e-01 -4.891986496087e+01 0.0 
0.0 0.0 -2.390604945671e+01 
-3.216495800540e+01 -1.649625044849e-01 0.0 
-1.649625044849e-01 -4.906238023944e+01 0.0 
0.0 0.0 -2.396820147345e+01 
-3.212333697312e+01 -7.345652555692e-02 0.0 
-7.345652555692e-02 -4.907595757388e+01 0.0 
0.0 0.0 -2.395978836410e+01 
-3.243494892832e+01 -9.480522224690e-02 0.0 
-9.480522224690e-02 -4.901619944471e+01 0.0 
0.0 0.0 -2.403534451191e+01 
-3.213838545013e+01 -1.685879763844e-01 0.0 
-1.685879763844e-01 -4.886309418119e+01 0.0 
0.0 0.0 -2.390044388940e+01 
-3.254910235628e+01 -2.766781770053e-01 0.0 
-2.766781770053e-01 -4.907709928035e+01 0.0 
0.0 0.0 -2.408786049099e+01 
-3.220545590850e+01 -1.788192422706e-01 0.0 
-1.788192422706e-01 -4.898868463572e+01 0.0 
0.0 0.0 -2.395824216327e+01 
-3.279817119775e+01 -2.672561538988e-01 0.0 
-2.672561538988e-01 -4.909954190902e+01 0.0 
0.0 0.0 -2.416931393203e+01 
-3.801740410937e+01 3.417188554150e+00 0.0 
3.417188554150e+00 -5.278910898877e+01 0.0 
0.0 0.0 -2.684195392944e+01 
-3.229346243993e+01 -2.073266303573e-01 0.0 
-2.073266303573e-01 -4.893693016119e+01 0.0 
0.0 0.0 -2.396911778034e+01 
-3.881112343115e+01 1.628402084876e+00 0.0 
1.628402084876e+00 -5.053171229089e+01 0.0 
0.0 0.0 -2.640285071661e+01 
-3.340249378061e+01 -3.959054112418e-01 0.0 
-3.959054112418e-01 -4.925557416352e+01 0.0 
0.0 0.0 -2.439742038324e+01 
-3.237804564269e+01 -2.088222913801e-01 0.0 
-2.088222913801e-01 -4.899277654254e+01 0.0 
0.0 0.0 -2.401124665557e+01 
-3.335404921083e+01 -2.979226046237e-01 0.0 
-2.979226046237e-01 -4.909402635553e+01 0.0 
0.0 0.0 -2.433442266991e+01 
-3.252510057567e+01 -2.173025727068e-01 0.0 
-2.173025727068e-01 -4.885050674843e+01 0.0 
0.0 0.0 -2.401268219723e+01 
-3.387673700556e+01 -4.083210183952e-01 0.0 
-4.083210183952e-01 -4.922057244388e+01 0.0 
0.0 0.0 -2.452919283483e+01 
-3.277664202300e+01 -1.220852079302e-01 0.0 
-1.220852079302e-01 -4.907957406064e+01 0.0 
0.0 0.0 -2.415686482509e+01 
-3.457136137837e+01 -2.799023031942e-01 0.0 
-2.799023031942e-01 -4.939417826042e+01 0.0 
0.0 0.0 -2.478966189164e+01 
-3.495875819446e+01 2.087786422397e+00 0.0 
2.087786422397e+00 -4.621018700882e+01 0.0 
0.0 0.0 -2.395068356098e+01 
-3.313881367299e+01 7.049670571612e-02 0.0 
7.049670571612e-02 -4.924749396089e+01 0.0 
0.0 0.0 -2.431589229017e+01 
-3.529860901787e+01 -1.390427978724e-02 0.0 
-1.390427978724e-02 -4.946367202846e+01 0.0 
0.0 0.0 -2.502868431390e+01 
-3.364763276030e+01 3.317422554662e-01 0.0 
3.317422554662e-01 -4.930167126244e+01 0.0 
0.0 0.0 -2.448479120682e+01 
-3.624961892922e+01 2.477896136656e-01 0.0 
2.477896136656e-01 -4.962523463271e+01 0.0 
0.0 0.0 -2.536245606858e+01 
-3.737207433796e+01 7.378258925814e-01 0.0 
7.378258925814e-01 -4.994088627421e+01 0.0 
0.0 0.0 -2.579388818365e+01 
-3.437387163063e+01 7.438826379105e-01 0.0 
7.438826379105e-01 -4.963833677577e+01 0.0 
0.0 0.0 -2.480366252192e+01 
-3.542645525294e+01 1.483808470012e+00 0.0 
1.483808470012e+00 -5.034383623863e+01 0.0 
0.0 0.0 -2.533108744747e+01 
-4.187689918078e+01 3.581151365696e+00 0.0 
3.581151365696e+00 -5.391920135754e+01 0.0 
0.0 0.0 -2.833883016150e+01 
-3.739913856838e+01 2.477244557276e+00 0.0 
2.477244557276e+00 -4.417357044055e+01 0.0 
0.0 0.0 -2.407181270268e+01 
-3.142336015188e+01 1.255780370827e+00 0.0 
1.255780370827e+00 -4.905401538585e+01 0.0 
0.0 0.0 -2.374321266132e+01 
-3.165462202904e+01 -1.593648318707e+00 0.0 
-1.593648318707e+00 -4.768485628133e+01 0.0 
0.0 0.0 -2.340184349311e+01 
-3.353906930303e+01 -1.016623884561e-01 0.0 
-1.016623884561e-01 -5.354525766479e+01 0.0 
0.0 0.0 -2.572529809035e+01 
-2.963798528605e+01 -2.947205064563e-01 0.0 
-2.947205064563e-01 -4.338043878073e+01 0.0 
0.0 0.0 -2.150552722003e+01 
-3.715724514533e+01 4.235737451316e+00 0.0 
4.235737451316e+00 -4.653014631588e+01 0.0 
0.0 0.0 -2.470621743836e+01 

TENSORS element_materi_strain_total float
-7.093004764196e-04 1.767307565831e-03 0.0 
1.767307565831e-03 6.681596769406e-03 0.0 
0.0 0.0 0.0 
-6.343285843423e-04 1.391360492744e-03 0.0 
1.391360492744e-03 6.418032887430e-03 0.0 
0.0 0.0 0.0 
-2.341041825172e-04 1.784858368109e-03 0.0 
1.784858368109e-03 1.327150608438e-02 0.0 
0.0 0.0 0.0 
-2.303835470459e-04 1.420590253308e-04 0.0 
1.420590253308e-04 1.447737230180e-02 0.0 
0.0 0.0 0.0 
-8.054582126111e-04 1.016457313644e-04 0.0 
1.016457313644e-04 1.192889308847e-02 0.0 
0.0 0.0 0.0 
-3.140654851520e-04 5.070450880952e-04 0.0 
5.070450880952e-04 1.309598788161e-03 0.0 
0.0 0.0 0.0 
-7.437891034602e-04 8.560611988657e-05 0.0 
8.560611988657e-05 1.191841715425e-02 0.0 
0.0 0.0 0.0 
-6.381110250898e-04 1.661196656638e-03 0.0 
1.661196656638e-03 6.035458033120e-03 0.0 
0.0 0.0 0.0 
-7.995230995460e-04 1.376154300703e-05 0.0 
1.376154300703e-05 1.192624029549e-02 0.0 
0.0 0.0 0.0 
-2.239732676532e-04 3.050526444601e-04 0.0 
3.050526444601e-04 1.444588775988e-02 0.0 
0.0 0.0 0.0 
6.667284319093e-04 4.885531002709e-05 0.0 
4.885531002709e-05 4.890569877312e-03 0.0 
0.0 0.0 0.0 
-6.336673231377e-04 1.414987485650e-03 0.0 
1.414987485650e-03 5.615570433653e-03 0.0 
0.0 0.0 0.0 
2.362262260625e-04 1.608865925016e-04 0.0 
1.608865925016e-04 7.683654804527e-03 0.0 
0.0 0.0 0.0 
-9.750345564666e-04 3.023446468860e-04 0.0 
3.023446468860e-04 1.227626536671e-02 0.0 
0.0 0.0 0.0 
1.364959194448e-04 1.448067296129e-04 0.0 
1.448067296129e-04 7.923524298467e-03 0.0 
0.0 0.0 0.0 
-1.401131762637e-04 2.507173656703e-04 0.0 
2.507173656703e-04 1.460244828372e-02 0.0 
0.0 0.0 0.0 
-8.895522450580e-04 1.034373423618e-04 0.0 
1.034373423618e-04 1.183921728412e-02 0.0 
0.0 0.0 0.0 
-2.438093818043e-04 1.384821509566e-04 0.0 
1.384821509566e-04 1.217106754409e-03 0.0 
0.0 0.0 0.0 
2.153733807253e-04 -7.087331472708e-05 0.0 
-7.087331472708e-05 1.366606547722e-03 0.0 
0.0 0.0 0.0 
2.946907979320e-04 -1.007320344544e-05 0.0 
-1.007320344544e-05 1.409323830180e-03 0.0 
0.0 0.0 0.0 
-2.737342280694e-04 2.599836097238e-04 0.0 
2.599836097238e-04 1.445382435713e-02 0.0 
0.0 0.0 0.0 
-7.272644087559e-04 1.547590250379e-03 0.0 
1.547590250379e-03 7.687728433002e-03 0.0 
0.0 0.0 0.0 
-8.513066704431e-04 1.681772484085e-03 0.0 
1.681772484085e-03 8.267008538567e-03 0.0 
0.0 0.0 0.0 
4.429272157087e-04 1.188517052334e-03 0.0 
1.188517052334e-03 8.002654990384e-03 0.0 
0.0 0.0 0.0 
-1.040919237084e-03 5.636403138596e-04 0.0 
5.636403138596e-04 1.253901282865e-02 0.0 
0.0 0.0 0.0 
6.497462446813e-04 2.257032986249e-05 0.0 
2.257032986249e-05 5.199920252216e-03 0.0 
0.0 0.0 0.0 
-1.073680908128e-03 3.126649220849e-04 0.0 
3.126649220849e-04 1.143672836410e-02 0.0 
0.0 0.0 0.0 
1.014530436325e-04 2.289721668260e-03 0.0 
2.289721668260e-03 1.088412720792e-02 0.0 
0.0 0.0 0.0 
-1.182975512733e-03 5.994432779888e-04 0.0 
5.994432779888e-04 1.253619661985e-02 0.0 
0.0 0.0 0.0 
4.266541572977e-04 1.212877911569e-03 0.0 
1.212877911569e-03 8.142812852772e-03 0.0 
0.0 0.0 0.0 
-1.016130860271e-04 -1.305960807816e-04 0.0 
-1.305960807816e-04 1.236391207510e-03 0.0 
0.0 0.0 0.0 
-2.290997529757e-04 -1.270554402688e-04 0.0 
-1.270554402688e-04 4.971440020989e-04 0.0 
0.0 0.0 0.0 
-3.995820126542e-04 1.845109171092e-03 0.0 
1.845109171092e-03 1.337654827137e-02 0.0 
0.0 0.0 0.0 
4.902566808365e-04 9.260971608044e-06 0.0 
9.260971608044e-06 6.381532205193e-03 0.0 
0.0 0.0 0.0 
2.988498250729e-04 6.969579945732e-04 0.0 
6.969579945732e-04 7.882427376008e-03 0.0 
0.0 0.0 0.0 
1.441479262947e-04 5.557932191187e-04 0.0 
5.557932191187e-04 8.237760968121e-03 0.0 
0.0 0.0 0.0 
1.069410926557e-04 3.886077536095e-04 0.0 
3.886077536095e-04 8.227486362708e-03 0.0 
0.0 0.0 0.0 
3.561284497140e-04 1.789524024065e-03 0.0 
1.789524024065e-03 9.155419212074e-03 0.0 
0.0 0.0 0.0 
-7.422035228904e-04 -3.998672180883e-05 0.0 
-3.998672180883e-05 1.149496095363e-02 0.0 
0.0 0.0 0.0 
-7.163356074906e-04 6.117541823166e-05 0.0 
6.117541823166e-05 1.151136388554e-02 0.0 
0.0 0.0 0.0 
-1.132542806751e-03 1.525912264976e-03 0.0 
1.525912264976e-03 9.720763181137e-03 0.0 
0.0 0.0 0.0 
2.045649577269e-04 9.110717970234e-04 0.0 
9.110717970234e-04 8.148028772414e-03 0.0 
0.0 0.0 0.0 
-6.150575425110e-04 1.538816183128e-03 0.0 
1.538816183128e-03 4.453282849599e-03 0.0 
0.0 0.0 0.0 
-1.180696617621e-03 3.271302042145e-04 0.0 
3.271302042145e-04 1.151072879506e-02 0.0 
0.0 0.0 0.0 
-3.061234758406e-04 4.452493434368e-05 0.0 
4.452493434368e-05 1.428979942182e-02 0.0 
0.0 0.0 0.0 
-6.075193766505e-04 1.293031784848e-03 0.0 
1.293031784848e-03 4.430878455653e-03 0.0 
0.0 0.0 0.0 
-1.074543518390e-04 -1.869107763405e-04 0.0 
-1.869107763405e-04 8.533711514336e-04 0.0 
0.0 0.0 0.0 
-2.065607248158e-04 1.016493152903e-04 0.0 
1.016493152903e-04 1.431420758353e-02 0.0 
0.0 0.0 0.0 
-3.564852694773e-04 -1.480199808502e-04 0.0 
-1.480199808502e-04 5.759821234088e-04 0.0 
0.0 0.0 0.0 
-1.024501828593e-03 2.111143154550e-04 0.0 
2.111143154550e-04 1.211181568292e-02 0.0 
0.0 0.0 0.0 
-9.886601188978e-04 1.631786923461e-03 0.0 
1.631786923461e-03 8.966206719208e-03 0.0 
0.0 0.0 0.0 
3.035979365633e-04 -6.604857157603e-05 0.0 
-6.604857157603e-05 1.734189522744e-03 0.0 
0.0 0.0 0.0 
2.676947474831e-04 -1.826029615157e-04 0.0 
-1.826029615157e-04 1.655081988353e-03 0.0 
0.0 0.0 0.0 
-9.564585871858e-04 1.382061342235e-03 0.0 
1.382061342235e-03 9.137097263713e-03 0.0 
0.0 0.0 0.0 
-2.630308954202e-04 1.381693364890e-03 0.0 
1.381693364890e-03 1.395350712798e-02 0.0 
0.0 0.0 0.0 
4.355271268570e-04 -9.236151318723e-05 0.0 
-9.236151318723e-05 2.319647418341e-03 0.0 
0.0 0.0 0.0 
3.698263107228e-04 -4.140532525350e-06 0.0 
-4.140532525350e-06 1.790577309275e-03 0.0 
0.0 0.0 0.0 
5.064727699846e-04 8.050459529893e-05 0.0 
8.050459529893e-05 6.383490326604e-03 0.0 
0.0 0.0 0.0 
1.319847263825e-04 -9.445256231148e-05 0.0 
-9.445256231148e-05 1.034510844733e-03 0.0 
0.0 0.0 0.0 
-1.634874131327e-04 2.074631403538e-04 0.0 
2.074631403538e-04 1.460306526747e-02 0.0 
0.0 0.0 0.0 
-7.610527648135e-04 -1.415108460752e-04 0.0 
-1.415108460752e-04 6.840283116376e-04 0.0 
0.0 0.0 0.0 
3.510476223159e-04 2.009524964393e-03 0.0 
2.009524964393e-03 9.651986324015e-03 0.0 
0.0 0.0 0.0 
6.678505137736e-05 1.732070334730e-03 0.0 
1.732070334730e-03 6.189838590131e-03 0.0 
0.0 0.0 0.0 
2.045697909345e-04 -5.699487725587e-05 0.0 
-5.699487725587e-05 1.405221730278e-03 0.0 
0.0 0.0 0.0 
2.317028254093e-04 2.073219981951e-04 0.0 
2.073219981951e-04 7.694242702076e-03 0.0 
0.0 0.0 0.0 
-8.910185527728e-04 1.500372877424e-03 0.0 
1.500372877424e-03 8.432143070982e-03 0.0 
0.0 0.0 0.0 
-5.001211130043e-04 -6.877285254066e-05 0.0 
-6.877285254066e-05 5.536359906415e-04 0.0 
0.0 0.0 0.0 
-4.037842060777e-04 1.933614973599e-03 0.0 
1.933614973599e-03 1.316761833589e-02 0.0 
0.0 0.0 0.0 
7.346646200634e-05 -3.095491492654e-04 0.0 
-3.095491492654e-04 1.187294565003e-03 0.0 
0.0 0.0 0.0 
-8.418144494193e-05 2.131259298418e-03 0.0 
2.131259298418e-03 1.209164261038e-02 0.0 
0.0 0.0 0.0 
6.352309585771e-04 5.616051722649e-05 0.0 
5.616051722649e-05 5.449458365903e-03 0.0 
0.0 0.0 0.0 
0.0 8.930676786181e-04 0.0 
8.930676786181e-04 1.460891982165e-02 0.0 
0.0 0.0 0.0 
7.101595310832e-05 2.062142951645e-03 0.0 
2.062142951645e-03 1.056822431147e-02 0.0 
0.0 0.0 0.0 
8.129017230463e-05 2.766247901027e-05 0.0 
2.766247901027e-05 4.654973048843e-04 0.0 
0.0 0.0 0.0 
4.866052568058e-04 -1.974802837614e-05 0.0 
-1.974802837614e-05 2.421973826766e-03 0.0 
0.0 0.0 0.0 
-3.314507653088e-04 6.282907406278e-04 0.0 
6.282907406278e-04 1.443175106296e-02 0.0 
0.0 0.0 0.0 
-4.504001835923e-04 1.512446876181e-03 0.0 
1.512446876181e-03 1.386231272605e-02 0.0 
0.0 0.0 0.0 
-5.503789754435e-04 1.075219264306e-03 0.0 
1.075219264306e-03 3.116435809454e-03 0.0 
0.0 0.0 0.0 
2.032678408475e-04 -1.184227696590e-04 0.0 
-1.184227696590e-04 1.031696374971e-03 0.0 
0.0 0.0 0.0 
-6.238887111203e-04 1.405966400854e-03 0.0 
1.405966400854e-03 3.130485156080e-03 0.0 
0.0 0.0 0.0 
1.004305319887e-04 -1.799390509709e-04 0.0 
-1.799390509709e-04 1.167174798967e-03 0.0 
0.0 0.0 0.0 
-8.821651165425e-04 9.190630608318e-05 0.0 
9.190630608318e-05 1.184957044381e-02 0.0 
0.0 0.0 0.0 
-7.876185817340e-04 1.696491476869e-03 0.0 
1.696491476869e-03 7.557728110425e-03 0.0 
0.0 0.0 0.0 
-6.918799673573e-04 1.462140257760e-03 0.0 
1.462140257760e-03 7.026593234907e-03 0.0 
0.0 0.0 0.0 
-8.486644459424e-04 6.197868614901e-05 0.0 
6.197868614901e-05 1.215332487907e-02 0.0 
0.0 0.0 0.0 
-7.711608409188e-04 1.140171444150e-04 0.0 
1.140171444150e-04 1.215279364590e-02 0.0 
0.0 0.0 0.0 
5.978246509226e-04 2.975558272111e-05 0.0 
2.975558272111e-05 5.649662609074e-03 0.0 
0.0 0.0 0.0 
5.373692861554e-04 3.776224671784e-05 0.0 
3.776224671784e-05 6.172820304917e-03 0.0 
0.0 0.0 0.0 
-7.672385922096e-04 1.663510421004e-03 0.0 
1.663510421004e-03 1.228381416471e-02 0.0 
0.0 0.0 0.0 
-8.721593907972e-04 4.362288484156e-05 0.0 
4.362288484156e-05 1.191680852705e-02 0.0 
0.0 0.0 0.0 
-1.462672293382e-04 -1.260143574748e-04 0.0 
-1.260143574748e-04 4.716299138938e-04 0.0 
0.0 0.0 0.0 
-1.191852419271e-03 4.216759016672e-04 0.0 
4.216759016672e-04 1.186443168396e-02 0.0 
0.0 0.0 0.0 
-4.803445872473e-04 5.025672764685e-05 0.0 
5.025672764685e-05 1.345182115399e-02 0.0 
0.0 0.0 0.0 
-5.328592611122e-04 1.069164484933e-04 0.0 
1.069164484933e-04 1.339071573022e-02 0.0 
0.0 0.0 0.0 
-2.279776541338e-04 9.865262084377e-04 0.0 
9.865262084377e-04 1.457687263361e-02 0.0 
0.0 0.0 0.0 
1.308220165503e-04 1.878339421100e-03 0.0 
1.878339421100e-03 9.646422180662e-03 0.0 
0.0 0.0 0.0 
-9.570418369538e-04 1.049570062669e-04 0.0 
1.049570062669e-04 1.185456815141e-02 0.0 
0.0 0.0 0.0 
3.312829887263e-04 8.923700645821e-04 0.0 
8.923700645821e-04 8.121674863979e-03 0.0 
0.0 0.0 0.0 
-6.235527022292e-04 -8.838895061554e-06 0.0 
-8.838895061554e-06 1.249771407775e-02 0.0 
0.0 0.0 0.0 
-2.117446646377e-04 1.684217291123e-03 0.0 
1.684217291123e-03 6.561443523883e-03 0.0 
0.0 0.0 0.0 
-8.186543375849e-04 2.341792651273e-05 0.0 
2.341792651273e-05 1.171826696885e-02 0.0 
0.0 0.0 0.0 
1.526663071600e-04 2.233000197270e-04 0.0 
2.233000197270e-04 7.918600940250e-03 0.0 
0.0 0.0 0.0 
5.311198894125e-04 1.611313731684e-03 0.0 
1.611313731684e-03 8.194437971440e-03 0.0 
0.0 0.0 0.0 
2.433010008318e-04 1.929221342166e-03 0.0 
1.929221342166e-03 9.665439581202e-03 0.0 
0.0 0.0 0.0 
1.717629801441e-04 1.314249504775e-03 0.0 
1.314249504775e-03 4.876898688428e-03 0.0 
0.0 0.0 0.0 
-3.572642438483e-04 -1.696957655828e-04 0.0 
-1.696957655828e-04 9.562885817680e-04 0.0 
0.0 0.0 0.0 
3.461400879705e-04 6.868782760574e-05 0.0 
6.868782760574e-05 7.145292839090e-03 0.0 
0.0 0.0 0.0 
-4.647545624903e-04 1.205828589021e-04 0.0 
1.205828589021e-04 1.373912706828e-02 0.0 
0.0 0.0 0.0 
-6.665240910472e-04 -1.536125365610e-04 0.0 
-1.536125365610e-04 6.889042066143e-04 0.0 
0.0 0.0 0.0 
1.519702187363e-04 3.595003393397e-04 0.0 
3.595003393397e-04 7.885821259798e-03 0.0 
0.0 0.0 0.0 
-6.734695906512e-04 1.659951855570e-03 0.0 
1.659951855570e-03 1.185742359702e-02 0.0 
0.0 0.0 0.0 
5.106629769069e-05 -5.426073890672e-05 0.0 
-5.426073890672e-05 2.903326107622e-04 0.0 
0.0 0.0 0.0 
6.072177615910e-04 1.489933081694e-03 0.0 
1.489933081694e-03 5.474721228471e-03 0.0 
0.0 0.0 0.0 
-1.337816604548e-03 7.725558798703e-04 0.0 
7.725558798703e-04 1.126280279105e-02 0.0 
0.0 0.0 0.0 
6.007798606686e-04 -7.011291764108e-05 0.0 
-7.011291764108e-05 2.970031240319e-03 0.0 
0.0 0.0 0.0 
-7.274020534997e-05 1.641487133587e-03 0.0 
1.641487133587e-03 5.807597164849e-03 0.0 
0.0 0.0 0.0 
2.801600153202e-06 1.583363536543e-03 0.0 
1.583363536543e-03 6.201071075930e-03 0.0 
0.0 0.0 0.0 
2.054419872581e-04 6.927373156361e-04 0.0 
6.927373156361e-04 8.036309569702e-03 0.0 
0.0 0.0 0.0 
-6.405801434625e-04 5.137211307383e-05 0.0 
5.137211307383e-05 1.236806002511e-02 0.0 
0.0 0.0 0.0 
1.764016798380e-04 1.647051320050e-03 0.0 
1.647051320050e-03 5.504620136831e-03 0.0 
0.0 0.0 0.0 
6.607282844495e-05 -2.850270518735e-04 0.0 
-2.850270518735e-04 1.120423007579e-03 0.0 
0.0 0.0 0.0 
-1.159667474908e-03 4.979210920285e-04 0.0 
4.979210920285e-04 1.171776087323e-02 0.0 
0.0 0.0 0.0 
-3.849754176278e-04 7.310585768024e-05 0.0 
7.310585768024e-05 1.376256108588e-02 0.0 
0.0 0.0 0.0 
9.461527733712e-05 1.439121282496e-03 0.0 
1.439121282496e-03 5.514656149662e-03 0.0 
0.0 0.0 0.0 
-5.325372906669e-04 7.507747445416e-04 0.0 
7.507747445416e-04 1.889514754362e-03 0.0 
0.0 0.0 0.0 
-1.322865871477e-03 1.096924616680e-03 0.0 
1.096924616680e-03 1.062665403545e-02 0.0 
0.0 0.0 0.0 
5.413357045065e-04 -3.848459869190e-05 0.0 
-3.848459869190e-05 2.955898188295e-03 0.0 
0.0 0.0 0.0 
-1.149787543025e-03 9.454162732929e-04 0.0 
9.454162732929e-04 1.037062277554e-02 0.0 
0.0 0.0 0.0 
-1.851147866651e-04 7.641804015126e-04 0.0 
7.641804015126e-04 1.449917098671e-02 0.0 
0.0 0.0 0.0 
-3.219269905180e-04 8.948756438425e-04 0.0 
8.948756438425e-04 1.830095983303e-03 0.0 
0.0 0.0 0.0 
6.617023745552e-04 8.106595387171e-05 0.0 
8.106595387171e-05 5.170683344862e-03 0.0 
0.0 0.0 0.0 
-2.080674394063e-04 1.867410123133e-04 0.0 
1.867410123133e-04 1.447869683339e-02 0.0 
0.0 0.0 0.0 
-4.446665963860e-04 1.834393218044e-03 0.0 
1.834393218044e-03 8.361802355794e-03 0.0 
0.0 0.0 0.0 
-1.263764158845e-03 1.291209864528e-03 0.0 
1.291209864528e-03 1.022939002453e-02 0.0 
0.0 0.0 0.0 
3.569885024504e-04 8.000586534450e-04 0.0 
8.000586534450e-04 7.884493457442e-03 0.0 
0.0 0.0 0.0 
2.211143185917e-04 6.394129771440e-05 0.0 
6.394129771440e-05 7.702293016352e-03 0.0 
0.0 0.0 0.0 
6.148714789536e-04 9.878597700359e-05 0.0 
9.878597700359e-05 5.651528835109e-03 0.0 
0.0 0.0 0.0 
-5.974297964219e-04 1.840487539087e-03 0.0 
1.840487539087e-03 9.067047714224e-03 0.0 
0.0 0.0 0.0 
3.654820218437e-04 1.217279253098e-03 0.0 
1.217279253098e-03 8.424399225172e-03 0.0 
0.0 0.0 0.0 
-6.734611986982e-04 1.743766727856e-03 0.0 
1.743766727856e-03 8.770905217762e-03 0.0 
0.0 0.0 0.0 
-1.632379069236e-04 4.875657066529e-04 0.0 
4.875657066529e-04 1.452130368930e-02 0.0 
0.0 0.0 0.0 
-1.538452833421e-04 2.251696088401e-03 0.0 
2.251696088401e-03 1.223482939309e-02 0.0 
0.0 0.0 0.0 
-1.089798109531e-03 2.972122154847e-04 0.0 
2.972122154847e-04 1.227637943650e-02 0.0 
0.0 0.0 0.0 
-6.017248704078e-04 1.453596458705e-04 0.0 
1.453596458705e-04 1.300268325779e-02 0.0 
0.0 0.0 0.0 
-6.523828001883e-04 1.812818372798e-03 0.0 
1.812818372798e-03 8.767993973453e-03 0.0 
0.0 0.0 0.0 
-1.093226178275e-03 1.149535305844e-03 0.0 
1.149535305844e-03 9.833669384814e-03 0.0 
0.0 0.0 0.0 
-4.128021619324e-04 1.855760025760e-03 0.0 
1.855760025760e-03 8.701067003312e-03 0.0 
0.0 0.0 0.0 
3.211728442254e-04 1.392508784220e-03 0.0 
1.392508784220e-03 5.290587314499e-03 0.0 
0.0 0.0 0.0 
-7.604864441412e-04 2.605881927409e-06 0.0 
2.605881927409e-06 1.176164669441e-02 0.0 
0.0 0.0 0.0 
5.527090395701e-04 1.313067257166e-03 0.0 
1.313067257166e-03 5.496608679402e-03 0.0 
0.0 0.0 0.0 
-8.592003227326e-05 -1.551795556288e-04 0.0 
-1.551795556288e-04 4.371013994378e-04 0.0 
0.0 0.0 0.0 
-6.793857431462e-04 1.097130884108e-05 0.0 
1.097130884108e-05 1.205137065456e-02 0.0 
0.0 0.0 0.0 
2.116951988793e-04 -3.605711703185e-05 0.0 
-3.605711703185e-05 1.039490238890e-03 0.0 
0.0 0.0 0.0 
-1.340268831413e-03 9.136031209641e-04 0.0 
9.136031209641e-04 1.094850687566e-02 0.0 
0.0 0.0 0.0 
2.079189858528e-04 1.113194029015e-03 0.0 
1.113194029015e-03 8.357465437562e-03 0.0 
0.0 0.0 0.0 
2.354204889150e-04 1.535259811783e-03 0.0 
1.535259811783e-03 4.860480908406e-03 0.0 
0.0 0.0 0.0 
5.792652967465e-04 7.601892765314e-05 0.0 
7.601892765314e-05 5.896970121501e-03 0.0 
0.0 0.0 0.0 
-6.478484209528e-04 1.355474587195e-03 0.0 
1.355474587195e-03 5.128863368898e-03 0.0 
0.0 0.0 0.0 
6.083736518767e-04 1.726003089159e-03 0.0 
1.726003089159e-03 8.183911039024e-03 0.0 
0.0 0.0 0.0 
-7.008551194501e-04 1.471461075512e-05 0.0 
1.471461075512e-05 1.178165781035e-02 0.0 
0.0 0.0 0.0 
6.927161772801e-04 1.347864524289e-03 0.0 
1.347864524289e-03 4.879246670692e-03 0.0 
0.0 0.0 0.0 
4.526733252730e-04 5.473900179678e-05 0.0 
5.473900179678e-05 6.629206454853e-03 0.0 
0.0 0.0 0.0 
9.606456887346e-05 -1.829432583158e-04 0.0 
-1.829432583158e-04 1.100866802040e-03 0.0 
0.0 0.0 0.0 
3.637038286597e-04 1.514671820189e-04 0.0 
1.514671820189e-04 7.136496160289e-03 0.0 
0.0 0.0 0.0 
-1.165931341288e-03 1.137999622020e-03 0.0 
1.137999622020e-03 1.107292529200e-02 0.0 
0.0 0.0 0.0 
2.554612979337e-04 3.469087224838e-04 0.0 
3.469087224838e-04 7.860146849014e-03 0.0 
0.0 0.0 0.0 
-6.785111657446e-04 8.182835167878e-06 0.0 
8.182835167878e-06 1.174473694798e-02 0.0 
0.0 0.0 0.0 
4.240641748536e-04 1.386185456885e-03 0.0 
1.386185456885e-03 4.611532861796e-03 0.0 
0.0 0.0 0.0 
-1.197404781201e-03 6.577513960723e-04 0.0 
6.577513960723e-04 1.104209814458e-02 0.0 
0.0 0.0 0.0 
6.545047448212e-04 -1.530162854430e-06 0.0 
-1.530162854430e-06 4.924164971488e-03 0.0 
0.0 0.0 0.0 
-6.862651533315e-04 1.665503313139e-03 0.0 
1.665503313139e-03 5.216265950797e-03 0.0 
0.0 0.0 0.0 
6.248030780929e-04 1.140687419449e-03 0.0 
1.140687419449e-03 4.907642690685e-03 0.0 
0.0 0.0 0.0 
-5.933806914836e-04 7.876535366925e-05 0.0 
7.876535366925e-05 1.320169306792e-02 0.0 
0.0 0.0 0.0 
-7.155499338024e-04 3.712158058555e-05 0.0 
3.712158058555e-05 1.175975014817e-02 0.0 
0.0 0.0 0.0 
5.328078153810e-04 1.431467144666e-03 0.0 
1.431467144666e-03 5.024319049240e-03 0.0 
0.0 0.0 0.0 
-1.203294251697e-03 7.711344631837e-04 0.0 
7.711344631837e-04 1.075013993932e-02 0.0 
0.0 0.0 0.0 
-2.512048891566e-04 1.978855808217e-03 0.0 
1.978855808217e-03 1.134810915447e-02 0.0 
0.0 0.0 0.0 
6.014084411630e-04 -4.538640058261e-05 0.0 
-4.538640058261e-05 3.319359583417e-03 0.0 
0.0 0.0 0.0 
9.577489643275e-05 2.155574209463e-03 0.0 
2.155574209463e-03 1.071268385435e-02 0.0 
0.0 0.0 0.0 
-1.362621253536e-04 2.283155740913e-03 0.0 
2.283155740913e-03 1.194262095216e-02 0.0 
0.0 0.0 0.0 
-3.835783103603e-04 1.606565744503e-03 0.0 
1.606565744503e-03 6.252361249520e-03 0.0 
0.0 0.0 0.0 
6.470988326304e-04 -2.131339746955e-05 0.0 
-2.131339746955e-05 3.331557156779e-03 0.0 
0.0 0.0 0.0 
5.698494389059e-04 1.255622516897e-03 0.0 
1.255622516897e-03 7.791740723713e-03 0.0 
0.0 0.0 0.0 
-8.920609279351e-04 1.721622620125e-03 0.0 
1.721622620125e-03 9.227101507508e-03 0.0 
0.0 0.0 0.0 
-3.051044584993e-04 1.544718876009e-03 0.0 
1.544718876009e-03 5.480695797970e-03 0.0 
0.0 0.0 0.0 
-1.210632528768e-03 8.598732392588e-04 0.0 
8.598732392588e-04 1.121533319894e-02 0.0 
0.0 0.0 0.0 
4.139121211217e-04 1.451887500390e-03 0.0 
1.451887500390e-03 5.703764299930e-03 0.0 
0.0 0.0 0.0 
-1.497505652434e-04 3.631556076692e-04 0.0 
3.631556076692e-04 1.453213076544e-02 0.0 
0.0 0.0 0.0 
-7.992251682115e-04 1.449721030365e-03 0.0 
1.449721030365e-03 1.243757394912e-02 0.0 
0.0 0.0 0.0 
4.093387998991e-04 9.570984391438e-05 0.0 
9.570984391438e-05 6.885312435532e-03 0.0 
0.0 0.0 0.0 
-5.952481648637e-04 1.199381246182e-03 0.0 
1.199381246182e-03 3.770843297155e-03 0.0 
0.0 0.0 0.0 
6.721035418467e-04 9.604120654041e-04 0.0 
9.604120654041e-04 4.362873015494e-03 0.0 
0.0 0.0 0.0 
-6.743923392062e-04 1.611022449450e-03 0.0 
1.611022449450e-03 1.229574405725e-02 0.0 
0.0 0.0 0.0 
-9.307234403156e-04 2.642569411123e-04 0.0 
2.642569411123e-04 6.047232234145e-04 0.0 
0.0 0.0 0.0 
-9.029213296577e-04 1.562889961369e-03 0.0 
1.562889961369e-03 9.230130711337e-03 0.0 
0.0 0.0 0.0 
7.109401822576e-04 9.532298234015e-04 0.0 
9.532298234015e-04 6.949399188889e-03 0.0 
0.0 0.0 0.0 
3.535787360387e-05 -1.236411959167e-04 0.0 
-1.236411959167e-04 7.353199876741e-04 0.0 
0.0 0.0 0.0 
-3.587343806226e-04 1.619755029060e-03 0.0 
1.619755029060e-03 1.360554458484e-02 0.0 
0.0 0.0 0.0 
-1.026834832941e-03 9.161384556929e-04 0.0 
9.161384556929e-04 1.264247225081e-02 0.0 
0.0 0.0 0.0 
8.294289118922e-04 1.776169979538e-05 0.0 
1.776169979538e-05 3.158927227339e-03 0.0 
0.0 0.0 0.0 
8.166565729186e-04 1.073638410845e-03 0.0 
1.073638410845e-03 6.941089889629e-03 0.0 
0.0 0.0 0.0 
-1.203417020414e-03 5.705675894934e-04 0.0 
5.705675894934e-04 1.204772500444e-02 0.0 
0.0 0.0 0.0 
-1.138692879238e-03 4.654746959663e-04 0.0 
4.654746959663e-04 1.244565469521e-02 0.0 
0.0 0.0 0.0 
3.399866086486e-04 1.128990660806e-03 0.0 
1.128990660806e-03 8.122373207999e-03 0.0 
0.0 0.0 0.0 
5.714165808128e-04 -1.267931816690e-04 0.0 
-1.267931816690e-04 2.313757103883e-03 0.0 
0.0 0.0 0.0 
-1.956318517956e-04 1.882178823366e-03 0.0 
1.882178823366e-03 8.364702777220e-03 0.0 
0.0 0.0 0.0 
-1.055964912870e-03 1.383867228641e-03 0.0 
1.383867228641e-03 1.085645480930e-02 0.0 
0.0 0.0 0.0 
-1.096893207350e-03 9.199143171034e-04 0.0 
9.199143171034e-04 1.290958705884e-02 0.0 
0.0 0.0 0.0 
-1.274993840100e-03 1.160997699984e-03 0.0 
1.160997699984e-03 1.144058140621e-02 0.0 
0.0 0.0 0.0 
-1.324601504389e-03 1.054581323248e-03 0.0 
1.054581323248e-03 1.121643972425e-02 0.0 
0.0 0.0 0.0 
7.123523056134e-04 1.397608615020e-03 0.0 
1.397608615020e-03 7.167319476150e-03 0.0 
0.0 0.0 0.0 
-4.439444414454e-04 1.887165986011e-03 0.0 
1.887165986011e-03 1.151189688539e-02 0.0 
0.0 0.0 0.0 
-7.339599364196e-04 2.543761764463e-04 0.0 
2.543761764463e-04 8.864741242851e-04 0.0 
0.0 0.0 0.0 
-3.251168478809e-04 1.679409125159e-03 0.0 
1.679409125159e-03 6.261059428766e-03 0.0 
0.0 0.0 0.0 
-1.704986970092e-04 1.740834935297e-03 0.0 
1.740834935297e-03 6.551943667030e-03 0.0 
0.0 0.0 0.0 
-3.698675271399e-04 1.866106760919e-03 0.0 
1.866106760919e-03 8.699461218181e-03 0.0 
0.0 0.0 0.0 
-8.768252350619e-04 1.441249242026e-03 0.0 
1.441249242026e-03 1.279687683196e-02 0.0 
0.0 0.0 0.0 
1.271995953045e-04 4.827744727662e-04 0.0 
4.827744727662e-04 1.658148800421e-03 0.0 
0.0 0.0 0.0 
7.701871270089e-04 8.146341602588e-04 0.0 
8.146341602588e-04 6.549473477387e-03 0.0 
0.0 0.0 0.0 
-7.303488814567e-04 -1.834794820152e-05 0.0 
-1.834794820152e-05 1.173171549834e-02 0.0 
0.0 0.0 0.0 
7.430961879431e-04 1.181823768768e-03 0.0 
1.181823768768e-03 4.331343243019e-03 0.0 
0.0 0.0 0.0 
8.119121265304e-04 6.831428126397e-04 0.0 
6.831428126397e-04 6.177516275996e-03 0.0 
0.0 0.0 0.0 
-6.485716547777e-05 -1.586187259727e-04 0.0 
-1.586187259727e-04 5.143968131101e-04 0.0 
0.0 0.0 0.0 
-9.209491687868e-04 1.051715275924e-03 0.0 
1.051715275924e-03 1.291818193167e-02 0.0 
0.0 0.0 0.0 
-1.349499977361e-04 -7.193245625659e-05 0.0 
-7.193245625659e-05 4.074997611911e-04 0.0 
0.0 0.0 0.0 
1.178754202384e-04 -1.115154016733e-04 0.0 
-1.115154016733e-04 7.271600743555e-04 0.0 
0.0 0.0 0.0 
-5.922026243738e-04 1.482746461825e-03 0.0 
1.482746461825e-03 3.785177458895e-03 0.0 
0.0 0.0 0.0 
4.569157124708e-04 -1.646326681827e-04 0.0 
-1.646326681827e-04 1.943957741312e-03 0.0 
0.0 0.0 0.0 
-9.779597414741e-04 1.040843847806e-03 0.0 
1.040843847806e-03 1.319104106888e-02 0.0 
0.0 0.0 0.0 
3.554629307723e-04 -2.729174629879e-04 0.0 
-2.729174629879e-04 1.834467159458e-03 0.0 
0.0 0.0 0.0 
5.362681238541e-05 1.200259629057e-03 0.0 
1.200259629057e-03 3.239735427299e-03 0.0 
0.0 0.0 0.0 
2.094168098585e-04 -2.772147064823e-04 0.0 
-2.772147064823e-04 1.500838896109e-03 0.0 
0.0 0.0 0.0 
1.637524494400e-04 -1.754396498206e-04 0.0 
-1.754396498206e-04 1.239244178343e-03 0.0 
0.0 0.0 0.0 
7.421182929748e-04 1.199089693544e-03 0.0 
1.199089693544e-03 7.338458373070e-03 0.0 
0.0 0.0 0.0 
-1.232158970723e-03 1.315468935948e-03 0.0 
1.315468935948e-03 1.106605864138e-02 0.0 
0.0 0.0 0.0 
2.562733423537e-04 2.952990959188e-04 0.0 
2.952990959188e-04 7.699072851114e-03 0.0 
0.0 0.0 0.0 
-7.299770135664e-04 1.570849597797e-04 0.0 
1.570849597797e-04 4.226905402029e-04 0.0 
0.0 0.0 0.0 
2.915972485442e-04 1.216109131551e-03 0.0 
1.216109131551e-03 3.613032955662e-03 0.0 
0.0 0.0 0.0 
8.143547742554e-04 1.236868025858e-03 0.0 
1.236868025858e-03 4.792781894393e-03 0.0 
0.0 0.0 0.0 
-6.984397220388e-04 1.659680725811e-03 0.0 
1.659680725811e-03 8.469499361638e-03 0.0 
0.0 0.0 0.0 
8.708228656440e-04 9.281267395462e-04 0.0 
9.281267395462e-04 6.541569241282e-03 0.0 
0.0 0.0 0.0 
2.422192193452e-04 4.301744385442e-04 0.0 
4.301744385442e-04 7.917074837452e-03 0.0 
0.0 0.0 0.0 
-1.010785436436e-03 1.340429820762e-03 0.0 
1.340429820762e-03 1.253822234584e-02 0.0 
0.0 0.0 0.0 
5.626102329235e-04 6.945660659827e-04 0.0 
6.945660659827e-04 3.421744946595e-03 0.0 
0.0 0.0 0.0 
6.419281715062e-04 1.102358310144e-03 0.0 
1.102358310144e-03 7.339125100658e-03 0.0 
0.0 0.0 0.0 
6.306500342745e-04 7.507328882877e-05 0.0 
7.507328882877e-05 5.401138779607e-03 0.0 
0.0 0.0 0.0 
-5.532869804361e-04 1.850328272249e-03 0.0 
1.850328272249e-03 9.370828011052e-03 0.0 
0.0 0.0 0.0 
-9.784851094299e-04 1.095833681349e-03 0.0 
1.095833681349e-03 1.261676225915e-02 0.0 
0.0 0.0 0.0 
1.270348678784e-04 2.019637290400e-03 0.0 
2.019637290400e-03 1.013258547243e-02 0.0 
0.0 0.0 0.0 
7.409061194976e-04 1.037694773350e-03 0.0 
1.037694773350e-03 4.822450826772e-03 0.0 
0.0 0.0 0.0 
1.436273868860e-05 1.099451672021e-03 0.0 
1.099451672021e-03 3.869525165766e-03 0.0 
0.0 0.0 0.0 
-1.201195435551e-03 1.255969170972e-03 0.0 
1.255969170972e-03 1.167754029290e-02 0.0 
0.0 0.0 0.0 
-1.723523538216e-04 8.897278765531e-04 0.0 
8.897278765531e-04 1.464198785413e-02 0.0 
0.0 0.0 0.0 
-1.592570889644e-04 1.847408155598e-03 0.0 
1.847408155598e-03 8.368940178814e-03 0.0 
0.0 0.0 0.0 
8.660180665685e-04 1.097068008601e-03 0.0 
1.097068008601e-03 5.694198881265e-03 0.0 
0.0 0.0 0.0 
-7.023347640951e-04 2.558748578128e-05 0.0 
2.558748578128e-05 1.213992604321e-02 0.0 
0.0 0.0 0.0 
-5.316612120754e-05 -2.885443626669e-04 0.0 
-2.885443626669e-04 1.117696712504e-03 0.0 
0.0 0.0 0.0 
-1.182100735964e-03 1.002283367275e-03 0.0 
1.002283367275e-03 1.146505344212e-02 0.0 
0.0 0.0 0.0 
6.423177851624e-04 9.430276116568e-04 0.0 
9.430276116568e-04 3.383813056426e-03 0.0 
0.0 0.0 0.0 
3.538042270732e-04 5.239660754946e-04 0.0 
5.239660754946e-04 2.091702856720e-03 0.0 
0.0 0.0 0.0 
9.165237672715e-05 -2.385171531559e-04 0.0 
-2.385171531559e-04 1.240674738928e-03 0.0 
0.0 0.0 0.0 
-8.470919920807e-04 1.010404562479e-03 0.0 
1.010404562479e-03 1.319441873052e-02 0.0 
0.0 0.0 0.0 
-1.156556906609e-03 1.387788017737e-03 0.0 
1.387788017737e-03 1.128137341318e-02 0.0 
0.0 0.0 0.0 
3.679298102401e-04 1.545158356769e-03 0.0 
1.545158356769e-03 5.265741470695e-03 0.0 
0.0 0.0 0.0 
-8.905560234553e-04 9.904457911653e-04 0.0 
9.904457911653e-04 1.345215033028e-02 0.0 
0.0 0.0 0.0 
-8.964313183403e-04 1.503965215286e-03 0.0 
1.503965215286e-03 1.242754062022e-02 0.0 
0.0 0.0 0.0 
-7.276934029231e-04 1.789438203001e-03 0.0 
1.789438203001e-03 9.993389648469e-03 0.0 
0.0 0.0 0.0 
1.728947606212e-04 5.459818750695e-04 0.0 
5.459818750695e-04 7.965807532859e-03 0.0 
0.0 0.0 0.0 
9.830606991192e-04 1.171257890187e-03 0.0 
1.171257890187e-03 5.653413722749e-03 0.0 
0.0 0.0 0.0 
-8.796552875542e-04 1.689821371437e-03 0.0 
1.689821371437e-03 1.056460439575e-02 0.0 
0.0 0.0 0.0 
4.651948452672e-04 1.489701755962e-03 0.0 
1.489701755962e-03 6.138094105152e-03 0.0 
0.0 0.0 0.0 
8.455158294252e-04 1.174933008120e-03 0.0 
1.174933008120e-03 6.171093074800e-03 0.0 
0.0 0.0 0.0 
5.640916604646e-04 5.734930915658e-04 0.0 
5.734930915658e-04 2.491141326772e-03 0.0 
0.0 0.0 0.0 
-1.127171058886e-03 2.990054918555e-04 0.0 
2.990054918555e-04 1.186023805497e-02 0.0 
0.0 0.0 0.0 
8.330455581473e-04 9.370889354592e-04 0.0 
9.370889354592e-04 4.761924316710e-03 0.0 
0.0 0.0 0.0 
6.944444279295e-04 8.620456660992e-05 0.0 
8.620456660992e-05 2.696708859656e-03 0.0 
0.0 0.0 0.0 
-9.019584198027e-04 1.279551534613e-03 0.0 
1.279551534613e-03 1.254877992343e-02 0.0 
0.0 0.0 0.0 
-1.185473583012e-03 5.995800108518e-05 0.0 
5.995800108518e-05 6.563904759009e-04 0.0 
0.0 0.0 0.0 
-1.287044667904e-03 1.034163991156e-03 0.0 
1.034163991156e-03 1.177626169457e-02 0.0 
0.0 0.0 0.0 
7.648979202772e-04 8.181839440345e-04 0.0 
8.181839440345e-04 3.345880244089e-03 0.0 
0.0 0.0 0.0 
2.400397853468e-04 9.598911944512e-04 0.0 
9.598911944512e-04 3.648880948140e-03 0.0 
0.0 0.0 0.0 
4.626800355216e-04 3.196862930893e-04 0.0 
3.196862930893e-04 2.534941580413e-03 0.0 
0.0 0.0 0.0 
-1.024335383626e-03 1.341515371678e-03 0.0 
1.341515371678e-03 1.153643968846e-02 0.0 
0.0 0.0 0.0 
-1.166259968149e-04 -2.378110060092e-04 0.0 
-2.378110060092e-04 7.871962282300e-04 0.0 
0.0 0.0 0.0 
-3.068473177370e-04 1.791225568706e-03 0.0 
1.791225568706e-03 7.286568657450e-03 0.0 
0.0 0.0 0.0 
9.524586894865e-04 1.244850108928e-03 0.0 
1.244850108928e-03 6.138439652972e-03 0.0 
0.0 0.0 0.0 
-1.104703840059e-03 1.243754099301e-03 0.0 
1.243754099301e-03 1.130592482958e-02 0.0 
0.0 0.0 0.0 
-1.133184732586e-03 4.342177653311e-04 0.0 
4.342177653311e-04 1.212882636611e-02 0.0 
0.0 0.0 0.0 
-4.620390990040e-05 3.559530246875e-04 0.0 
3.559530246875e-04 1.336092841925e-03 0.0 
0.0 0.0 0.0 
8.066446664892e-04 2.861483409769e-04 0.0 
2.861483409769e-04 2.665233880946e-03 0.0 
0.0 0.0 0.0 
6.032834382608e-04 -4.285901999412e-05 0.0 
-4.285901999412e-05 2.390579752401e-03 0.0 
0.0 0.0 0.0 
-4.794380956774e-04 1.688432862966e-03 0.0 
1.688432862966e-03 6.993339093970e-03 0.0 
0.0 0.0 0.0 
-1.101270953749e-03 1.158446645558e-03 0.0 
1.158446645558e-03 1.260610651639e-02 0.0 
0.0 0.0 0.0 
-3.306126326869e-04 1.761213284267e-03 0.0 
1.761213284267e-03 7.291193555004e-03 0.0 
0.0 0.0 0.0 
9.396453204344e-04 9.529173059161e-04 0.0 
9.529173059161e-04 4.240526784321e-03 0.0 
0.0 0.0 0.0 
8.552702751172e-04 1.063719687224e-03 0.0 
1.063719687224e-03 4.270608747256e-03 0.0 
0.0 0.0 0.0 
-3.449700334168e-06 2.074074642748e-04 0.0 
2.074074642748e-04 1.756873202138e-03 0.0 
0.0 0.0 0.0 
6.330179350655e-04 1.538708005631e-03 0.0 
1.538708005631e-03 5.938820789694e-03 0.0 
0.0 0.0 0.0 
-2.476776429544e-04 9.102675089735e-04 0.0 
9.102675089735e-04 2.886914620142e-03 0.0 
0.0 0.0 0.0 
-2.508419664983e-04 1.585782465553e-03 0.0 
1.585782465553e-03 1.411194104699e-02 0.0 
0.0 0.0 0.0 
-2.531480451793e-04 1.867011713434e-03 0.0 
1.867011713434e-03 1.374124796495e-02 0.0 
0.0 0.0 0.0 
5.081710836352e-06 1.871073368303e-03 0.0 
1.871073368303e-03 8.078855619339e-03 0.0 
0.0 0.0 0.0 
6.196269089227e-04 7.576029806006e-04 0.0 
7.576029806006e-04 2.916416962595e-03 0.0 
0.0 0.0 0.0 
2.315672537170e-04 7.680752598023e-04 0.0 
7.680752598023e-04 3.105054665524e-03 0.0 
0.0 0.0 0.0 
-7.052468324206e-04 1.727731307574e-03 0.0 
1.727731307574e-03 1.028974148184e-02 0.0 
0.0 0.0 0.0 
3.964869943969e-04 6.288143797455e-04 0.0 
6.288143797455e-04 3.007880641082e-03 0.0 
0.0 0.0 0.0 
7.140494487650e-04 1.471648107044e-04 0.0 
1.471648107044e-04 2.360414267075e-03 0.0 
0.0 0.0 0.0 
-6.023969926298e-04 1.797992841728e-03 0.0 
1.797992841728e-03 9.380522172824e-03 0.0 
0.0 0.0 0.0 
-3.107001950053e-04 5.357905625780e-04 0.0 
5.357905625780e-04 1.451642600615e-02 0.0 
0.0 0.0 0.0 
7.695542160309e-04 1.001669692427e-03 0.0 
1.001669692427e-03 3.819779100394e-03 0.0 
0.0 0.0 0.0 
7.678070288628e-04 1.522545706500e-03 0.0 
1.522545706500e-03 7.152101800135e-03 0.0 
0.0 0.0 0.0 
3.650381389431e-05 1.040711862940e-03 0.0 
1.040711862940e-03 2.682536750775e-03 0.0 
0.0 0.0 0.0 
2.104853119886e-04 1.488891547411e-03 0.0 
1.488891547411e-03 9.101850750733e-03 0.0 
0.0 0.0 0.0 
4.746160422222e-04 8.967078816142e-04 0.0 
8.967078816142e-04 2.964104487381e-03 0.0 
0.0 0.0 0.0 
-3.821540901451e-04 1.865649251350e-03 0.0 
1.865649251350e-03 9.039824015929e-03 0.0 
0.0 0.0 0.0 
2.481097384726e-04 3.669124656068e-04 0.0 
3.669124656068e-04 1.710666104705e-03 0.0 
0.0 0.0 0.0 
1.022992970438e-03 9.047818026110e-04 0.0 
9.047818026110e-04 5.808038537957e-03 0.0 
0.0 0.0 0.0 
9.065651924598e-04 1.122156562548e-03 0.0 
1.122156562548e-03 4.731967713739e-03 0.0 
0.0 0.0 0.0 
7.591361693902e-04 1.006379692415e-04 0.0 
1.006379692415e-04 2.476231974237e-03 0.0 
0.0 0.0 0.0 
-1.072934463142e-03 1.534704755200e-03 0.0 
1.534704755200e-03 1.083718107294e-02 0.0 
0.0 0.0 0.0 
-1.529325357527e-04 2.249356612695e-03 0.0 
2.249356612695e-03 1.300396682576e-02 0.0 
0.0 0.0 0.0 
8.701068662285e-04 8.839133145973e-04 0.0 
8.839133145973e-04 3.787871705507e-03 0.0 
0.0 0.0 0.0 
8.839985664346e-04 1.107180483078e-03 0.0 
1.107180483078e-03 6.158158148626e-03 0.0 
0.0 0.0 0.0 
1.714991402224e-06 7.394106069043e-04 0.0 
7.394106069043e-04 2.723854040303e-03 0.0 
0.0 0.0 0.0 
-8.841250165368e-04 4.235565275034e-04 0.0 
4.235565275034e-04 1.287263534981e-02 0.0 
0.0 0.0 0.0 
9.092020022035e-04 7.886880289022e-04 0.0 
7.886880289022e-04 6.163797857750e-03 0.0 
0.0 0.0 0.0 
-1.851572000011e-05 1.259188449025e-03 0.0 
1.259188449025e-03 4.502672497663e-03 0.0 
0.0 0.0 0.0 
-9.723264041079e-04 3.071733641338e-04 0.0 
3.071733641338e-04 1.272292862609e-02 0.0 
0.0 0.0 0.0 
-3.954341923662e-05 2.452342698598e-03 0.0 
2.452342698598e-03 1.208638847056e-02 0.0 
0.0 0.0 0.0 
7.968551775697e-04 8.798426147675e-04 0.0 
8.798426147675e-04 6.683699254678e-03 0.0 
0.0 0.0 0.0 
-2.000633123055e-04 2.139716692978e-03 0.0 
2.139716692978e-03 1.327220534006e-02 0.0 
0.0 0.0 0.0 
-1.071644909699e-03 4.309810808392e-04 0.0 
4.309810808392e-04 1.265574372230e-02 0.0 
0.0 0.0 0.0 
-7.308985436461e-04 1.711184656554e-03 0.0 
1.711184656554e-03 1.184765996877e-02 0.0 
0.0 0.0 0.0 
-2.719957746399e-04 1.210354804076e-03 0.0 
1.210354804076e-03 4.133369799981e-03 0.0 
0.0 0.0 0.0 
-1.143017303609e-03 1.486513705439e-03 0.0 
1.486513705439e-03 1.061130518327e-02 0.0 
0.0 0.0 0.0 
-8.930203301476e-04 1.583791057677e-03 0.0 
1.583791057677e-03 1.057979669390e-02 0.0 
0.0 0.0 0.0 
-9.959002677259e-04 1.569839207393e-03 0.0 
1.569839207393e-03 1.107181407866e-02 0.0 
0.0 0.0 0.0 
1.407037356382e-05 1.794464165233e-03 0.0 
1.794464165233e-03 7.693609789784e-03 0.0 
0.0 0.0 0.0 
2.717941926034e-05 2.450316977304e-03 0.0 
2.450316977304e-03 1.146499767591e-02 0.0 
0.0 0.0 0.0 
-1.107507800516e-03 6.185258257458e-04 0.0 
6.185258257458e-04 1.232203090066e-02 0.0 
0.0 0.0 0.0 
-1.331659541513e-03 9.129948186025e-04 0.0 
9.129948186025e-04 1.152436301237e-02 0.0 
0.0 0.0 0.0 
7.762841395755e-04 8.545886080646e-04 0.0 
8.545886080646e-04 4.302742359421e-03 0.0 
0.0 0.0 0.0 
3.180917486012e-04 -1.773548698128e-04 0.0 
-1.773548698128e-04 1.592127509865e-03 0.0 
0.0 0.0 0.0 
-1.291719251237e-03 1.225841368744e-03 0.0 
1.225841368744e-03 1.083795235170e-02 0.0 
0.0 0.0 0.0 
2.765806339122e-04 1.365580484401e-03 0.0 
1.365580484401e-03 4.207656220887e-03 0.0 
0.0 0.0 0.0 
-7.035070922597e-04 3.743111730891e-06 0.0 
3.743111730891e-06 1.176973448631e-02 0.0 
0.0 0.0 0.0 
6.502010033713e-04 -7.314890179001e-05 0.0 
-7.314890179001e-05 2.502627583614e-03 0.0 
0.0 0.0 0.0 
6.875728397164e-04 7.712193348400e-04 0.0 
7.712193348400e-04 3.853079809387e-03 0.0 
0.0 0.0 0.0 
-8.528951526451e-04 1.227054209249e-03 0.0 
1.227054209249e-03 1.287906355067e-02 0.0 
0.0 0.0 0.0 
2.193798426267e-04 1.144036988235e-03 0.0 
1.144036988235e-03 4.236748213505e-03 0.0 
0.0 0.0 0.0 
-9.555603931353e-04 1.535622386983e-03 0.0 
1.535622386983e-03 1.033763393061e-02 0.0 
0.0 0.0 0.0 
9.777978500984e-04 1.171470075127e-03 0.0 
1.171470075127e-03 6.144052578892e-03 0.0 
0.0 0.0 0.0 
1.001850912892e-03 3.601317757653e-04 0.0 
3.601317757653e-04 4.548704930587e-03 0.0 
0.0 0.0 0.0 
1.337939521695e-04 2.289775870161e-03 0.0 
2.289775870161e-03 1.058424227717e-02 0.0 
0.0 0.0 0.0 
-1.065340641919e-03 1.611623758025e-03 0.0 
1.611623758025e-03 9.879983379314e-03 0.0 
0.0 0.0 0.0 
7.472686589149e-04 3.631510123568e-04 0.0 
3.631510123568e-04 2.578927340954e-03 0.0 
0.0 0.0 0.0 
7.360856218153e-04 -9.352648381237e-05 0.0 
-9.352648381237e-05 3.032160616730e-03 0.0 
0.0 0.0 0.0 
-3.545604431503e-04 1.463117063057e-03 0.0 
1.463117063057e-03 5.492666493238e-03 0.0 
0.0 0.0 0.0 
2.666735741630e-05 1.470719204266e-03 0.0 
1.470719204266e-03 4.479262185256e-03 0.0 
0.0 0.0 0.0 
-7.526706581037e-04 1.596606796582e-03 0.0 
1.596606796582e-03 1.268239087120e-02 0.0 
0.0 0.0 0.0 
-5.145242021454e-04 1.846239617556e-03 0.0 
1.846239617556e-03 9.678488615356e-03 0.0 
0.0 0.0 0.0 
-7.395968768316e-04 1.741372762410e-03 0.0 
1.741372762410e-03 8.462785463818e-03 0.0 
0.0 0.0 0.0 
-1.006689406398e-03 1.469613245332e-03 0.0 
1.469613245332e-03 1.011010170736e-02 0.0 
0.0 0.0 0.0 
2.027296932929e-04 1.874173561102e-03 0.0 
1.874173561102e-03 9.609221850675e-03 0.0 
0.0 0.0 0.0 
3.208447436656e-04 1.749765037339e-03 0.0 
1.749765037339e-03 9.170821277803e-03 0.0 
0.0 0.0 0.0 
-6.517441532389e-04 1.556892292336e-03 0.0 
1.556892292336e-03 1.268983779092e-02 0.0 
0.0 0.0 0.0 
-1.052110489899e-03 1.096862675986e-03 0.0 
1.096862675986e-03 1.291131888047e-02 0.0 
0.0 0.0 0.0 
9.289146334592e-04 2.622697877225e-04 0.0 
2.622697877225e-04 4.418854449385e-03 0.0 
0.0 0.0 0.0 
-1.057438763159e-04 1.724280933428e-03 0.0 
1.724280933428e-03 6.925100956223e-03 0.0 
0.0 0.0 0.0 
5.264332924897e-04 5.030455125388e-04 0.0 
5.030455125388e-04 2.957300794757e-03 0.0 
0.0 0.0 0.0 
6.728649684786e-04 5.828091483158e-04 0.0 
5.828091483158e-04 3.382434262078e-03 0.0 
0.0 0.0 0.0 
-3.365089313624e-04 1.870387013688e-03 0.0 
1.870387013688e-03 9.038877299378e-03 0.0 
0.0 0.0 0.0 
9.498934061500e-04 8.338509645651e-04 0.0 
8.338509645651e-04 5.756737510395e-03 0.0 
0.0 0.0 0.0 
7.318244229635e-04 -4.244255556986e-05 0.0 
-4.244255556986e-05 3.664854090193e-03 0.0 
0.0 0.0 0.0 
-7.036212363226e-04 1.352928874483e-03 0.0 
1.352928874483e-03 1.313461760782e-02 0.0 
0.0 0.0 0.0 
6.373786953111e-04 1.433420894716e-04 0.0 
1.433420894716e-04 2.613777410642e-03 0.0 
0.0 0.0 0.0 
1.717424051013e-04 1.700366240077e-03 0.0 
1.700366240077e-03 7.018671726877e-03 0.0 
0.0 0.0 0.0 
-7.643138756113e-04 1.700534775305e-03 0.0 
1.700534775305e-03 1.001081508613e-02 0.0 
0.0 0.0 0.0 
1.136792164382e-04 1.654643611366e-03 0.0 
1.654643611366e-03 6.612612716590e-03 0.0 
0.0 0.0 0.0 
-2.366828826076e-04 2.019294227095e-03 0.0 
2.019294227095e-03 1.351595855927e-02 0.0 
0.0 0.0 0.0 
-2.380700812702e-04 1.735524369164e-03 0.0 
1.735524369164e-03 1.392482931573e-02 0.0 
0.0 0.0 0.0 
-4.782654042537e-04 1.618830669360e-03 0.0 
1.618830669360e-03 1.360633583628e-02 0.0 
0.0 0.0 0.0 
9.233654246517e-04 3.596578859700e-04 0.0 
3.596578859700e-04 4.871669142817e-03 0.0 
0.0 0.0 0.0 
-7.564573215065e-04 9.753600569894e-04 0.0 
9.753600569894e-04 1.345353106793e-02 0.0 
0.0 0.0 0.0 
4.478452449130e-05 1.342235301783e-03 0.0 
1.342235301783e-03 3.841239098399e-03 0.0 
0.0 0.0 0.0 
7.808454516607e-04 6.682096164610e-04 0.0 
6.682096164610e-04 3.821510728498e-03 0.0 
0.0 0.0 0.0 
2.594808537539e-04 2.574143811482e-04 0.0 
2.574143811482e-04 2.137747497538e-03 0.0 
0.0 0.0 0.0 
-4.788010912412e-04 1.802428067705e-03 0.0 
1.802428067705e-03 8.020804462006e-03 0.0 
0.0 0.0 0.0 
-1.067005501362e-03 2.146482805910e-04 0.0 
2.146482805910e-04 1.188044058846e-02 0.0 
0.0 0.0 0.0 
-9.481103814488e-04 4.216803165346e-04 0.0 
4.216803165346e-04 1.265634646658e-02 0.0 
0.0 0.0 0.0 
3.733374446979e-04 1.441595689579e-03 0.0 
1.441595689579e-03 8.664946080859e-03 0.0 
0.0 0.0 0.0 
-5.290689442538e-04 1.746908511874e-03 0.0 
1.746908511874e-03 1.212807633503e-02 0.0 
0.0 0.0 0.0 
-1.123290582570e-03 1.128955253749e-03 0.0 
1.128955253749e-03 1.169646842562e-02 0.0 
0.0 0.0 0.0 
-8.161281727076e-04 1.626854111587e-03 0.0 
1.626854111587e-03 1.084158248788e-02 0.0 
0.0 0.0 0.0 
4.775734880187e-04 4.054132457989e-04 0.0 
4.054132457989e-04 2.109857682836e-03 0.0 
0.0 0.0 0.0 
-2.297826503971e-04 -2.066743972563e-04 0.0 
-2.066743972563e-04 8.472780301294e-04 0.0 
0.0 0.0 0.0 
7.396205375190e-04 1.393336790592e-03 0.0 
1.393336790592e-03 5.349340286132e-03 0.0 
0.0 0.0 0.0 
1.978803989644e-04 1.731260734346e-03 0.0 
1.731260734346e-03 7.429127070729e-03 0.0 
0.0 0.0 0.0 
5.990211537370e-04 1.379099945092e-03 0.0 
1.379099945092e-03 5.961789240918e-03 0.0 
0.0 0.0 0.0 
-6.163597211499e-04 1.153325895940e-03 0.0 
1.153325895940e-03 1.897628513716e-03 0.0 
0.0 0.0 0.0 
-6.692430194821e-04 4.035992885475e-05 0.0 
4.035992885475e-05 1.212202359785e-02 0.0 
0.0 0.0 0.0 
2.170837094764e-04 -2.881239217661e-04 0.0 
-2.881239217661e-04 1.476558442812e-03 0.0 
0.0 0.0 0.0 
4.867660848669e-04 1.077948587058e-03 0.0 
1.077948587058e-03 3.468527371897e-03 0.0 
0.0 0.0 0.0 
0.0 1.483553896442e-03 0.0 
1.483553896442e-03 9.181270167641e-03 0.0 
0.0 0.0 0.0 
7.474631438413e-04 1.345212743511e-03 0.0 
1.345212743511e-03 7.149631944128e-03 0.0 
0.0 0.0 0.0 
-1.204909810946e-03 7.548502153335e-04 0.0 
7.548502153335e-04 1.154321947868e-02 0.0 
0.0 0.0 0.0 
1.534583770748e-04 -4.589363239675e-06 0.0 
-4.589363239675e-06 1.022857912999e-03 0.0 
0.0 0.0 0.0 
-8.614648853711e-06 1.863885668132e-03 0.0 
1.863885668132e-03 7.684191175342e-03 0.0 
0.0 0.0 0.0 
6.823389913653e-04 1.211344786455e-03 0.0 
1.211344786455e-03 5.375233983958e-03 0.0 
0.0 0.0 0.0 
-1.072794341734e-03 1.448643425434e-03 0.0 
1.448643425434e-03 1.152303077616e-02 0.0 
0.0 0.0 0.0 
-1.028843731569e-04 2.347046284160e-03 0.0 
2.347046284160e-03 1.270167969120e-02 0.0 
0.0 0.0 0.0 
-1.105488262701e-03 1.299667022854e-03 0.0 
1.299667022854e-03 1.063226644267e-02 0.0 
0.0 0.0 0.0 
-6.773391604527e-04 1.789964999131e-03 0.0 
1.789964999131e-03 1.028162969214e-02 0.0 
0.0 0.0 0.0 
8.027340086942e-04 4.310281474767e-05 0.0 
4.310281474767e-05 3.651655011850e-03 0.0 
0.0 0.0 0.0 
-7.865810297816e-04 1.184867394148e-03 0.0 
1.184867394148e-03 1.318444602273e-02 0.0 
0.0 0.0 0.0 
9.840680011075e-04 4.506140845350e-04 0.0 
4.506140845350e-04 5.007955860124e-03 0.0 
0.0 0.0 0.0 
-9.098910856087e-05 2.412747586539e-03 0.0 
2.412747586539e-03 1.240220997320e-02 0.0 
0.0 0.0 0.0 
0.0 1.976179371127e-03 0.0 
1.976179371127e-03 1.339182158618e-02 0.0 
0.0 0.0 0.0 
0.0 1.432972521157e-03 0.0 
1.432972521157e-03 1.420500257923e-02 0.0 
0.0 0.0 0.0 
0.0 1.703985503937e-03 0.0 
1.703985503937e-03 1.384382948728e-02 0.0 
0.0 0.0 0.0 
-8.904816261563e-04 1.523342774776e-03 0.0 
1.523342774776e-03 1.133861916287e-02 0.0 
0.0 0.0 0.0 
-9.128814488246e-04 1.211958811484e-03 0.0 
1.211958811484e-03 1.318145038315e-02 0.0 
0.0 0.0 0.0 
-5.145230443326e-04 1.723038230616e-03 0.0 
1.723038230616e-03 1.255219799575e-02 0.0 
0.0 0.0 0.0 
1.328018092561e-04 1.780594470468e-03 0.0 
1.780594470468e-03 6.597188595791e-03 0.0 
0.0 0.0 0.0 
-7.600891928539e-05 1.806347108795e-03 0.0 
1.806347108795e-03 6.914641174610e-03 0.0 
0.0 0.0 0.0 
6.852037182010e-04 -8.004894458974e-05 0.0 
-8.004894458974e-05 3.429844995180e-03 0.0 
0.0 0.0 0.0 
-8.259605449593e-04 1.384017800218e-03 0.0 
1.384017800218e-03 1.313068683557e-02 0.0 
0.0 0.0 0.0 
-2.825185169364e-06 2.463282347520e-03 0.0 
2.463282347520e-03 1.176892484293e-02 0.0 
0.0 0.0 0.0 
-7.000686982638e-04 1.137481020779e-03 0.0 
1.137481020779e-03 1.346148631234e-02 0.0 
0.0 0.0 0.0 
8.055314262612e-04 1.257199727165e-03 0.0 
1.257199727165e-03 6.657565150243e-03 0.0 
0.0 0.0 0.0 
-8.281597391897e-04 1.158318098064e-03 0.0 
1.158318098064e-03 1.345923898890e-02 0.0 
0.0 0.0 0.0 
1.787049416269e-04 1.831903262080e-03 0.0 
1.831903262080e-03 9.080350875516e-03 0.0 
0.0 0.0 0.0 
3.442404442071e-04 1.740471310619e-03 0.0 
1.740471310619e-03 6.761678301164e-03 0.0 
0.0 0.0 0.0 
-4.719132915226e-04 1.793479236609e-03 0.0 
1.793479236609e-03 8.021722734401e-03 0.0 
0.0 0.0 0.0 
2.591653720918e-04 8.691778896375e-04 0.0 
8.691778896375e-04 2.560495419104e-03 0.0 
0.0 0.0 0.0 
-2.109037049273e-04 9.317117206695e-04 0.0 
9.317117206695e-04 1.434607728801e-02 0.0 
0.0 0.0 0.0 
2.695335416942e-04 1.682683086126e-03 0.0 
1.682683086126e-03 5.924957880737e-03 0.0 
0.0 0.0 0.0 
2.643193200802e-05 2.077522775622e-03 0.0 
2.077522775622e-03 1.090535458622e-02 0.0 
0.0 0.0 0.0 
7.481368776532e-04 9.152437559765e-07 0.0 
9.152437559765e-07 3.417352979965e-03 0.0 
0.0 0.0 0.0 
5.518201080059e-04 -1.666206230590e-04 0.0 
-1.666206230590e-04 2.238268362784e-03 0.0 
0.0 0.0 0.0 
2.186488131508e-04 1.332191398525e-03 0.0 
1.332191398525e-03 8.587575965115e-03 0.0 
0.0 0.0 0.0 
4.698998141004e-04 1.245416415737e-03 0.0 
1.245416415737e-03 4.014621500396e-03 0.0 
0.0 0.0 0.0 
0.0 2.092821530933e-03 0.0 
2.092821530933e-03 1.313927676018e-02 0.0 
0.0 0.0 0.0 
-2.853857165431e-04 1.490695560340e-03 0.0 
1.490695560340e-03 1.381075335643e-02 0.0 
0.0 0.0 0.0 
-3.510899525111e-04 1.868387915396e-03 0.0 
1.868387915396e-03 9.385683500527e-03 0.0 
0.0 0.0 0.0 
-2.265374636049e-04 -1.609906258109e-04 0.0 
-1.609906258109e-04 4.996072210328e-04 0.0 
0.0 0.0 0.0 
0.0 2.253464835815e-03 0.0 
2.253464835815e-03 1.255624839354e-02 0.0 
0.0 0.0 0.0 
1.999794401530e-04 1.547183112677e-03 0.0 
1.547183112677e-03 8.928950195237e-03 0.0 
0.0 0.0 0.0 
6.520114168411e-04 -6.440304087370e-06 0.0 
-6.440304087370e-06 2.213562132588e-03 0.0 
0.0 0.0 0.0 
8.347426969431e-04 1.197136679974e-03 0.0 
1.197136679974e-03 6.646429509981e-03 0.0 
0.0 0.0 0.0 
1.427138575325e-04 2.196804110292e-03 0.0 
2.196804110292e-03 1.031295826268e-02 0.0 
0.0 0.0 0.0 
-3.791570112311e-04 -6.504342846563e-05 0.0 
-6.504342846563e-05 2.869257719873e-04 0.0 
0.0 0.0 0.0 
3.189448220182e-04 1.713099524336e-03 0.0 
1.713099524336e-03 6.340740583539e-03 0.0 
0.0 0.0 0.0 
-5.094162389064e-04 1.820812877154e-03 0.0 
1.820812877154e-03 1.000392371609e-02 0.0 
0.0 0.0 0.0 
-1.756113651286e-04 1.887886584158e-03 0.0 
1.887886584158e-03 8.738664797050e-03 0.0 
0.0 0.0 0.0 
-5.552609796859e-04 1.812685003620e-03 0.0 
1.812685003620e-03 9.683391420382e-03 0.0 
0.0 0.0 0.0 
2.907070768943e-04 1.046886108974e-03 0.0 
1.046886108974e-03 3.062752901986e-03 0.0 
0.0 0.0 0.0 
0.0 2.330127578475e-03 0.0 
2.330127578475e-03 1.192705577476e-02 0.0 
0.0 0.0 0.0 
8.552746961961e-04 7.555816388643e-04 0.0 
7.555816388643e-04 4.272078119147e-03 0.0 
0.0 0.0 0.0 
-1.151400732462e-04 2.953002131329e-05 0.0 
2.953002131329e-05 1.391183078278e-03 0.0 
0.0 0.0 0.0 
2.793799078922e-04 5.943197649879e-04 0.0 
5.943197649879e-04 7.985252129421e-03 0.0 
0.0 0.0 0.0 
-3.806833828466e-04 -1.505039547131e-04 0.0 
-1.505039547131e-04 5.415124364416e-04 0.0 
0.0 0.0 0.0 
-8.523081649968e-04 1.632648084993e-03 0.0 
1.632648084993e-03 9.482775307056e-03 0.0 
0.0 0.0 0.0 
1.017102357612e-04 -1.810280619265e-04 0.0 
-1.810280619265e-04 1.105542818711e-03 0.0 
0.0 0.0 0.0 
-1.192088143786e-03 9.950099880101e-04 0.0 
9.950099880101e-04 1.086675903055e-02 0.0 
0.0 0.0 0.0 
2.043494446509e-04 1.732495646377e-03 0.0 
1.732495646377e-03 9.413312324261e-03 0.0 
0.0 0.0 0.0 
0.0 2.315184149420e-03 0.0 
2.315184149420e-03 1.130219719492e-02 0.0 
0.0 0.0 0.0 
-9.765085749951e-04 1.458278480854e-03 0.0 
1.458278480854e-03 1.108720880859e-02 0.0 
0.0 0.0 0.0 
-1.128818480211e-04 -2.189650540976e-04 0.0 
-2.189650540976e-04 8.299926859106e-04 0.0 
0.0 0.0 0.0 
-1.819403089207e-04 1.785617171453e-04 0.0 
1.785617171453e-04 1.059511994173e-03 0.0 
0.0 0.0 0.0 
-1.111830470854e-04 -1.939073226929e-04 0.0 
-1.939073226929e-04 1.199495277625e-03 0.0 
0.0 0.0 0.0 
5.641242692829e-04 5.595524928662e-04 0.0 
5.595524928662e-04 6.829171762736e-03 0.0 
0.0 0.0 0.0 
-1.054284507469e-03 2.712698198448e-04 0.0 
2.712698198448e-04 1.180772026466e-02 0.0 
0.0 0.0 0.0 
-1.315543535073e-03 7.994714101358e-04 0.0 
7.994714101358e-04 1.180454899921e-02 0.0 
0.0 0.0 0.0 
0.0 2.220458075909e-03 0.0 
2.220458075909e-03 1.072523710335e-02 0.0 
0.0 0.0 0.0 
-9.965850682163e-04 1.903957594297e-04 0.0 
1.903957594297e-04 1.182580233218e-02 0.0 
0.0 0.0 0.0 
-2.247934221838e-04 1.426677203963e-03 0.0 
1.426677203963e-03 1.426643280691e-02 0.0 
0.0 0.0 0.0 
3.071913580697e-04 1.864748357467e-03 0.0 
1.864748357467e-03 8.903677695315e-03 0.0 
0.0 0.0 0.0 
-9.151112717203e-04 3.044480368710e-04 0.0 
3.044480368710e-04 1.249973622104e-02 0.0 
0.0 0.0 0.0 
-3.608699283519e-05 1.590200999959e-03 0.0 
1.590200999959e-03 5.114816766094e-03 0.0 
0.0 0.0 0.0 
9.027262991967e-04 1.319778061180e-03 0.0 
1.319778061180e-03 6.628975748776e-03 0.0 
0.0 0.0 0.0 
1.206161468359e-04 3.870063155784e-04 0.0 
3.870063155784e-04 2.163596745307e-03 0.0 
0.0 0.0 0.0 
0.0 2.050222514993e-03 0.0 
2.050222514993e-03 1.019127170152e-02 0.0 
0.0 0.0 0.0 
0.0 1.847215640868e-03 0.0 
1.847215640868e-03 1.363141966670e-02 0.0 
0.0 0.0 0.0 
0.0 1.564873621860e-03 0.0 
1.564873621860e-03 1.404710781617e-02 0.0 
0.0 0.0 0.0 
8.894266076007e-04 3.460547890735e-04 0.0 
3.460547890735e-04 5.023988134460e-03 0.0 
0.0 0.0 0.0 
6.371327633339e-04 -1.053552453802e-04 0.0 
-1.053552453802e-04 3.201280996263e-03 0.0 
0.0 0.0 0.0 
3.435913578917e-04 1.623961168179e-03 0.0 
1.623961168179e-03 6.779539443903e-03 0.0 
0.0 0.0 0.0 
9.380947002702e-04 4.302933397714e-04 0.0 
4.302933397714e-04 5.166518179992e-03 0.0 
0.0 0.0 0.0 
0.0 1.849270820862e-03 0.0 
1.849270820862e-03 9.741245691413e-03 0.0 
0.0 0.0 0.0 
4.202033754432e-04 8.213300986220e-04 0.0 
8.213300986220e-04 3.507155890469e-03 0.0 
0.0 0.0 0.0 
8.502656302303e-04 2.249012759899e-04 0.0 
2.249012759899e-04 2.767373006701e-03 0.0 
0.0 0.0 0.0 
8.789838669663e-04 1.775394510023e-04 0.0 
1.775394510023e-04 2.879997757674e-03 0.0 
0.0 0.0 0.0 
-8.597955579627e-04 3.173419275396e-04 0.0 
3.173419275396e-04 1.272141113518e-02 0.0 
0.0 0.0 0.0 
1.767614065311e-04 1.348725924841e-03 0.0 
1.348725924841e-03 8.965610225003e-03 0.0 
0.0 0.0 0.0 
-3.302221295635e-04 -2.006210120152e-04 0.0 
-2.006210120152e-04 9.046167926905e-04 0.0 
0.0 0.0 0.0 
0.0 1.600754957500e-03 0.0 
1.600754957500e-03 9.329338400808e-03 0.0 
0.0 0.0 0.0 
7.910826154225e-04 6.346703748097e-05 0.0 
6.346703748097e-05 2.602133174496e-03 0.0 
0.0 0.0 0.0 
0.0 2.189903721667e-03 0.0 
2.189903721667e-03 1.286217236101e-02 0.0 
0.0 0.0 0.0 
-6.283927113651e-04 1.750466166905e-03 0.0 
1.750466166905e-03 1.254834614506e-02 0.0 
0.0 0.0 0.0 
-5.983039664829e-04 -6.223744586300e-05 0.0 
-6.223744586300e-05 3.646536458759e-04 0.0 
0.0 0.0 0.0 
4.852314250545e-04 1.627189769483e-03 0.0 
1.627189769483e-03 6.117152598895e-03 0.0 
0.0 0.0 0.0 
-7.868079917306e-04 9.466834343412e-04 0.0 
9.466834343412e-04 1.369124263606e-02 0.0 
0.0 0.0 0.0 
0.0 2.306618410467e-03 0.0 
2.306618410467e-03 1.224565016334e-02 0.0 
0.0 0.0 0.0 
-9.143370417870e-04 1.607580774710e-03 0.0 
1.607580774710e-03 1.132763913068e-02 0.0 
0.0 0.0 0.0 
4.090013328568e-04 1.835513850245e-03 0.0 
1.835513850245e-03 8.769510691957e-03 0.0 
0.0 0.0 0.0 
2.865587138023e-06 8.642557254048e-04 0.0 
8.642557254048e-04 2.172058032434e-03 0.0 
0.0 0.0 0.0 
3.930802843073e-04 1.400257826939e-03 0.0 
1.400257826939e-03 8.365049753435e-03 0.0 
0.0 0.0 0.0 
8.113388181739e-04 4.064691186553e-05 0.0 
4.064691186553e-05 2.737537400894e-03 0.0 
0.0 0.0 0.0 
7.708267847208e-04 1.469041448864e-05 0.0 
1.469041448864e-05 2.902227056178e-03 0.0 
0.0 0.0 0.0 
-6.059908651052e-04 -1.569399456080e-04 0.0 
-1.569399456080e-04 6.679599158805e-04 0.0 
0.0 0.0 0.0 
0.0 2.331812235564e-03 0.0 
2.331812235564e-03 1.161146859191e-02 0.0 
0.0 0.0 0.0 
3.399855589881e-04 4.369541954991e-04 0.0 
4.369541954991e-04 2.550122192916e-03 0.0 
0.0 0.0 0.0 
6.603894343680e-04 9.251544053944e-04 0.0 
9.251544053944e-04 7.087254447465e-03 0.0 
0.0 0.0 0.0 
-9.785606600370e-04 1.948759754205e-04 0.0 
1.948759754205e-04 1.231272447126e-02 0.0 
0.0 0.0 0.0 
5.352039982280e-04 -2.248013732865e-04 0.0 
-2.248013732865e-04 2.276422698017e-03 0.0 
0.0 0.0 0.0 
7.395492496143e-04 4.467023404824e-05 0.0 
4.467023404824e-05 2.793943102907e-03 0.0 
0.0 0.0 0.0 
-8.127733033958e-04 1.705899745926e-03 0.0 
1.705899745926e-03 1.083087799602e-02 0.0 
0.0 0.0 0.0 
0.0 2.138995236870e-03 0.0 
2.138995236870e-03 1.045348012062e-02 0.0 
0.0 0.0 0.0 
6.903872636030e-04 -1.050022287307e-05 0.0 
-1.050022287307e-05 3.364886803147e-03 0.0 
0.0 0.0 0.0 
8.377077696502e-04 5.577358008574e-04 0.0 
5.577358008574e-04 5.826305884242e-03 0.0 
0.0 0.0 0.0 
1.866570070908e-04 1.833806816475e-03 0.0 
1.833806816475e-03 7.830577992879e-03 0.0 
0.0 0.0 0.0 
9.558917886761e-04 6.439850163983e-04 0.0 
6.439850163983e-04 5.435496320142e-03 0.0 
0.0 0.0 0.0 
8.135572241679e-04 1.797392420970e-04 0.0 
1.797392420970e-04 3.110814729284e-03 0.0 
0.0 0.0 0.0 
8.932536901873e-04 4.585671855270e-04 0.0 
4.585671855270e-04 5.340536188411e-03 0.0 
0.0 0.0 0.0 
3.514759797985e-05 1.809269972389e-03 0.0 
1.809269972389e-03 8.086973038357e-03 0.0 
0.0 0.0 0.0 
-1.029863247233e-04 1.892687579855e-03 0.0 
1.892687579855e-03 9.871331136286e-03 0.0 
0.0 0.0 0.0 
8.320900066570e-04 1.398759163879e-03 0.0 
1.398759163879e-03 7.124714677545e-03 0.0 
0.0 0.0 0.0 
3.517024151187e-04 1.762156769182e-03 0.0 
1.762156769182e-03 7.188555121005e-03 0.0 
0.0 0.0 0.0 
8.154320327798e-04 3.235843069876e-05 0.0 
3.235843069876e-05 3.480081124212e-03 0.0 
0.0 0.0 0.0 
4.128007850128e-04 1.011286809119e-03 0.0 
1.011286809119e-03 4.048605518305e-03 0.0 
0.0 0.0 0.0 
6.917114862870e-04 -2.891321795154e-05 0.0 
-2.891321795154e-05 3.189502728921e-03 0.0 
0.0 0.0 0.0 
2.899626107358e-04 1.800350688727e-03 0.0 
1.800350688727e-03 8.915124252673e-03 0.0 
0.0 0.0 0.0 
1.018017905849e-03 1.090226111483e-03 0.0 
1.090226111483e-03 5.657419252024e-03 0.0 
0.0 0.0 0.0 
2.004436514502e-04 1.605964754944e-03 0.0 
1.605964754944e-03 9.255938160226e-03 0.0 
0.0 0.0 0.0 
-7.324576946643e-04 1.108120307051e-03 0.0 
1.108120307051e-03 1.371875166237e-02 0.0 
0.0 0.0 0.0 
5.145324991436e-04 -1.470621021447e-04 0.0 
-1.470621021447e-04 2.037931299863e-03 0.0 
0.0 0.0 0.0 
0.0 1.722139212146e-03 0.0 
1.722139212146e-03 9.502461676344e-03 0.0 
0.0 0.0 0.0 
3.936779010616e-04 1.568981450010e-03 0.0 
1.568981450010e-03 8.838732765092e-03 0.0 
0.0 0.0 0.0 
7.516589575138e-04 1.439665736791e-03 0.0 
1.439665736791e-03 5.813689356280e-03 0.0 
0.0 0.0 0.0 
-3.274647179859e-04 -1.663842158259e-04 0.0 
-1.663842158259e-04 5.546150257150e-04 0.0 
0.0 0.0 0.0 
2.099464160257e-04 1.236435791498e-03 0.0 
1.236435791498e-03 8.848839930111e-03 0.0 
0.0 0.0 0.0 
-7.489120885659e-04 1.326164052874e-03 0.0 
1.326164052874e-03 1.343478857405e-02 0.0 
0.0 0.0 0.0 
6.897171966560e-04 -2.865102979823e-05 0.0 
-2.865102979823e-05 2.347729676545e-03 0.0 
0.0 0.0 0.0 
0.0 1.357704172801e-03 0.0 
1.357704172801e-03 9.020146702064e-03 0.0 
0.0 0.0 0.0 
8.501325956161e-04 4.412469272927e-04 0.0 
4.412469272927e-04 5.496760376030e-03 0.0 
0.0 0.0 0.0 
-2.471308151896e-04 1.840151668509e-03 0.0 
1.840151668509e-03 7.629833625284e-03 0.0 
0.0 0.0 0.0 
-1.177217242041e-03 9.031331168452e-04 0.0 
9.031331168452e-04 1.179402386407e-02 0.0 
0.0 0.0 0.0 
9.123950535495e-04 1.017633146521e-03 0.0 
1.017633146521e-03 5.673078343221e-03 0.0 
0.0 0.0 0.0 
9.038529842174e-04 2.502536523097e-04 0.0 
2.502536523097e-04 4.565119908306e-03 0.0 
0.0 0.0 0.0 
9.337949480734e-04 7.888548353752e-04 0.0 
7.888548353752e-04 5.827494456979e-03 0.0 
0.0 0.0 0.0 
-1.160238938639e-03 9.762786739538e-04 0.0 
9.762786739538e-04 1.263456847469e-02 0.0 
0.0 0.0 0.0 
-6.357927636109e-04 1.777713431071e-03 0.0 
1.777713431071e-03 9.075773179868e-03 0.0 
0.0 0.0 0.0 
7.387672148258e-04 1.539733144928e-03 0.0 
1.539733144928e-03 7.630715199902e-03 0.0 
0.0 0.0 0.0 
-6.731122622399e-04 3.595151176311e-05 0.0 
3.595151176311e-05 1.246166389376e-02 0.0 
0.0 0.0 0.0 
7.377418344308e-04 -5.826392156440e-05 0.0 
-5.826392156440e-05 3.494126854005e-03 0.0 
0.0 0.0 0.0 
9.167240992274e-04 1.254351745381e-03 0.0 
1.254351745381e-03 6.637164241287e-03 0.0 
0.0 0.0 0.0 
7.119393499282e-04 -9.864882156474e-05 0.0 
-9.864882156474e-05 2.755652029653e-03 0.0 
0.0 0.0 0.0 
7.751362047603e-04 2.206466546765e-04 0.0 
2.206466546765e-04 5.125148545448e-03 0.0 
0.0 0.0 0.0 
-7.064192296523e-04 -6.529968827950e-05 0.0 
-6.529968827950e-05 4.087286905226e-04 0.0 
0.0 0.0 0.0 
3.779598005398e-04 1.202405352965e-03 0.0 
1.202405352965e-03 4.640392424680e-03 0.0 
0.0 0.0 0.0 
6.860121339141e-04 -9.102680450461e-05 0.0 
-9.102680450461e-05 2.624578550622e-03 0.0 
0.0 0.0 0.0 
7.871495171097e-04 5.360093308914e-05 0.0 
5.360093308914e-05 3.827696954179e-03 0.0 
0.0 0.0 0.0 
6.365006722726e-04 1.576156924342e-03 0.0 
1.576156924342e-03 6.395029232664e-03 0.0 
0.0 0.0 0.0 
9.411050270376e-04 5.414491853866e-04 0.0 
5.414491853866e-04 5.481501954633e-03 0.0 
0.0 0.0 0.0 
-9.282588352877e-04 2.103311694952e-04 0.0 
2.103311694952e-04 1.255422117545e-02 0.0 
0.0 0.0 0.0 
5.925882388331e-04 -1.743617218412e-04 0.0 
-1.743617218412e-04 2.370961616627e-03 0.0 
0.0 0.0 0.0 
0.0 1.249679077036e-03 0.0 
1.249679077036e-03 8.910613428460e-03 0.0 
0.0 0.0 0.0 
-4.754260767017e-04 1.847131879810e-03 0.0 
1.847131879810e-03 1.000015920977e-02 0.0 
0.0 0.0 0.0 
7.691258324261e-04 6.321224318190e-05 0.0 
6.321224318190e-05 4.004772233842e-03 0.0 
0.0 0.0 0.0 
-3.099722415824e-04 1.869040999757e-03 0.0 
1.869040999757e-03 9.385391550284e-03 0.0 
0.0 0.0 0.0 
7.232848055649e-04 -2.648126633760e-05 0.0 
-2.648126633760e-05 3.839970495880e-03 0.0 
0.0 0.0 0.0 
-4.553063510492e-04 -6.693817153304e-05 0.0 
-6.693817153304e-05 3.218643410783e-04 0.0 
0.0 0.0 0.0 
-1.270908999594e-03 9.287212230171e-04 0.0 
9.287212230171e-04 1.207498627936e-02 0.0 
0.0 0.0 0.0 
5.944567095657e-04 5.062435832247e-06 0.0 
5.062435832247e-06 3.123381760541e-03 0.0 
0.0 0.0 0.0 
-7.312094996292e-05 -4.151926940598e-05 0.0 
-4.151926940598e-05 1.474971183966e-04 0.0 
0.0 0.0 0.0 
7.305381257341e-04 3.032799615222e-05 0.0 
3.032799615222e-05 3.767148484600e-03 0.0 
0.0 0.0 0.0 
8.698749696274e-04 6.300002304818e-04 0.0 
6.300002304818e-04 5.969798275827e-03 0.0 
0.0 0.0 0.0 
-4.180384212402e-04 2.924157157660e-04 0.0 
2.924157157660e-04 1.390283671572e-02 0.0 
0.0 0.0 0.0 
9.754687446233e-04 6.851762235354e-04 0.0 
6.851762235354e-04 5.347906092140e-03 0.0 
0.0 0.0 0.0 
1.049690406844e-03 7.621659997121e-04 0.0 
7.621659997121e-04 5.414487396969e-03 0.0 
0.0 0.0 0.0 
-1.325546471803e-03 6.588752731463e-04 0.0 
6.588752731463e-04 1.152281451396e-02 0.0 
0.0 0.0 0.0 
-9.915689697734e-04 8.924143018266e-05 0.0 
8.924143018266e-05 1.149595270008e-02 0.0 
0.0 0.0 0.0 
-2.383583083142e-04 1.145503400956e-03 0.0 
1.145503400956e-03 1.420775916657e-02 0.0 
0.0 0.0 0.0 
-1.374147267452e-04 1.854107577209e-03 0.0 
1.854107577209e-03 8.742901603523e-03 0.0 
0.0 0.0 0.0 
-1.046005163191e-04 -3.493397420502e-05 0.0 
-3.493397420502e-05 1.524617084991e-04 0.0 
0.0 0.0 0.0 
1.397830242786e-04 -2.685826284750e-04 0.0 
-2.685826284750e-04 1.255752519095e-03 0.0 
0.0 0.0 0.0 
-2.895509804635e-04 -1.690700330049e-04 0.0 
-1.690700330049e-04 5.307677322564e-04 0.0 
0.0 0.0 0.0 
4.763182907987e-04 -2.368662509052e-04 0.0 
-2.368662509052e-04 2.191124303835e-03 0.0 
0.0 0.0 0.0 
-3.080730875420e-04 1.958273420239e-03 0.0 
1.958273420239e-03 1.134903926625e-02 0.0 
0.0 0.0 0.0 
-4.822867097776e-04 2.490957907948e-04 0.0 
2.490957907948e-04 1.390825204212e-02 0.0 
0.0 0.0 0.0 
6.641028411025e-04 5.370307552449e-04 0.0 
5.370307552449e-04 6.486654922484e-03 0.0 
0.0 0.0 0.0 
5.353798229084e-04 -1.970583591313e-04 0.0 
-1.970583591313e-04 2.481931943620e-03 0.0 
0.0 0.0 0.0 
7.198266088957e-04 1.416733171991e-04 0.0 
1.416733171991e-04 5.138221482889e-03 0.0 
0.0 0.0 0.0 
6.709066360313e-04 9.733673920574e-04 0.0 
9.733673920574e-04 7.205746299134e-03 0.0 
0.0 0.0 0.0 
1.562676782929e-04 8.157770785815e-05 0.0 
8.157770785815e-05 1.758375141660e-03 0.0 
0.0 0.0 0.0 
5.807368224333e-04 -6.458778969581e-05 0.0 
-6.458778969581e-05 3.124635559994e-03 0.0 
0.0 0.0 0.0 
5.071852981977e-04 7.996651988638e-06 0.0 
7.996651988638e-06 2.541118639649e-03 0.0 
0.0 0.0 0.0 
1.800574985333e-04 1.112545958134e-03 0.0 
1.112545958134e-03 8.733107277510e-03 0.0 
0.0 0.0 0.0 
0.0 1.121904559859e-03 0.0 
1.121904559859e-03 8.787180687035e-03 0.0 
0.0 0.0 0.0 
6.229891412792e-04 -4.538756674219e-05 0.0 
-4.538756674219e-05 3.502962541083e-03 0.0 
0.0 0.0 0.0 
7.148510420716e-04 -1.321740276692e-05 0.0 
-1.321740276692e-05 4.016753378764e-03 0.0 
0.0 0.0 0.0 
9.658995777126e-04 3.433617318717e-04 0.0 
3.433617318717e-04 4.704763348343e-03 0.0 
0.0 0.0 0.0 
6.134186403890e-04 1.120065207343e-03 0.0 
1.120065207343e-03 7.603593375112e-03 0.0 
0.0 0.0 0.0 
2.297404496798e-04 -1.652475135458e-04 0.0 
-1.652475135458e-04 1.370796665133e-03 0.0 
0.0 0.0 0.0 
7.292739859974e-04 8.400541771948e-04 0.0 
8.400541771948e-04 6.828003903030e-03 0.0 
0.0 0.0 0.0 
5.331067972669e-05 -9.102640211923e-05 0.0 
-9.102640211923e-05 7.266430943769e-04 0.0 
0.0 0.0 0.0 
6.827151243762e-04 -6.045047661439e-05 0.0 
-6.045047661439e-05 3.604251213879e-03 0.0 
0.0 0.0 0.0 
7.600303232043e-04 1.958613359740e-05 0.0 
1.958613359740e-05 4.084052492555e-03 0.0 
0.0 0.0 0.0 
7.287779472431e-05 -5.039798294668e-05 0.0 
-5.039798294668e-05 3.730680285408e-04 0.0 
0.0 0.0 0.0 
6.152897555416e-04 1.973997823387e-05 0.0 
1.973997823387e-05 3.309169590034e-03 0.0 
0.0 0.0 0.0 
-5.939064736381e-04 1.100886892825e-03 0.0 
1.100886892825e-03 1.371896160317e-02 0.0 
0.0 0.0 0.0 
-6.847357102058e-05 -3.024704386593e-05 0.0 
-3.024704386593e-05 1.385841468913e-04 0.0 
0.0 0.0 0.0 
-1.048486551812e-03 1.463143674735e-04 0.0 
1.463143674735e-04 1.150156686010e-02 0.0 
0.0 0.0 0.0 
-9.951877583462e-04 1.996483536572e-04 0.0 
1.996483536572e-04 1.143151469695e-02 0.0 
0.0 0.0 0.0 
8.939102627021e-04 9.364159632142e-04 0.0 
9.364159632142e-04 6.245361995533e-03 0.0 
0.0 0.0 0.0 
4.910239341025e-04 -5.166382547088e-05 0.0 
-5.166382547088e-05 2.538924405525e-03 0.0 
0.0 0.0 0.0 
7.177555071824e-04 -4.218792551134e-05 0.0 
-4.218792551134e-05 2.490479899884e-03 0.0 
0.0 0.0 0.0 
1.883234495637e-05 9.266898371171e-04 0.0 
9.266898371171e-04 3.275342220911e-03 0.0 
0.0 0.0 0.0 
4.703007052420e-04 5.543452219369e-04 0.0 
5.543452219369e-04 7.171196486672e-03 0.0 
0.0 0.0 0.0 
-9.670404460871e-06 2.188414853762e-03 0.0 
2.188414853762e-03 1.142867189103e-02 0.0 
0.0 0.0 0.0 
-6.540773003888e-04 3.759760520167e-04 0.0 
3.759760520167e-04 1.368183557978e-02 0.0 
0.0 0.0 0.0 
-6.349901797920e-05 1.397971173585e-03 0.0 
1.397971173585e-03 5.139059248617e-03 0.0 
0.0 0.0 0.0 
-1.126075261959e-05 -1.431562000281e-04 0.0 
-1.431562000281e-04 8.655216822131e-04 0.0 
0.0 0.0 0.0 
-1.008799856950e-03 1.646432407876e-03 0.0 
1.646432407876e-03 1.008723702020e-02 0.0 
0.0 0.0 0.0 
-8.392091353141e-04 2.052296017606e-05 0.0 
2.052296017606e-05 1.147617644703e-02 0.0 
0.0 0.0 0.0 
-7.894010444464e-04 9.586128136781e-06 0.0 
9.586128136781e-06 1.144601335761e-02 0.0 
0.0 0.0 0.0 
-2.629833534584e-05 -3.514478415088e-05 0.0 
-3.514478415088e-05 1.301602132657e-04 0.0 
0.0 0.0 0.0 
5.338152265111e-05 -6.490750263638e-05 0.0 
-6.490750263638e-05 3.813468455423e-04 0.0 
0.0 0.0 0.0 
1.483911982250e-04 -5.158362573151e-05 0.0 
-5.158362573151e-05 6.960043340984e-04 0.0 
0.0 0.0 0.0 
4.070898646575e-04 -1.451389551454e-04 0.0 
-1.451389551454e-04 1.886476091183e-03 0.0 
0.0 0.0 0.0 
2.919217548403e-05 -4.356064964258e-05 0.0 
-4.356064964258e-05 3.797384144775e-04 0.0 
0.0 0.0 0.0 
6.388991113018e-04 2.616114025492e-05 0.0 
2.616114025492e-05 3.716896631905e-03 0.0 
0.0 0.0 0.0 
-6.750052383085e-04 -6.022633978967e-05 0.0 
-6.022633978967e-05 4.143725553669e-04 0.0 
0.0 0.0 0.0 
5.161146044890e-04 -1.224944662551e-04 0.0 
-1.224944662551e-04 2.255497978702e-03 0.0 
0.0 0.0 0.0 
-5.952084306516e-04 7.116746610637e-05 0.0 
7.116746610637e-05 1.280316350880e-02 0.0 
0.0 0.0 0.0 
-8.894297903949e-04 7.884835390631e-05 0.0 
7.884835390631e-05 1.144756834284e-02 0.0 
0.0 0.0 0.0 
-3.701408208376e-04 1.957617532220e-03 0.0 
1.957617532220e-03 1.183813227563e-02 0.0 
0.0 0.0 0.0 
8.841978641374e-04 5.159563632265e-04 0.0 
5.159563632265e-04 5.642561549870e-03 0.0 
0.0 0.0 0.0 
-6.308678342265e-04 4.856097214780e-05 0.0 
4.856097214780e-05 1.244749994986e-02 0.0 
0.0 0.0 0.0 
5.248210276585e-04 3.189570577337e-05 0.0 
3.189570577337e-05 2.723894546335e-03 0.0 
0.0 0.0 0.0 
9.223583556150e-05 -5.841705261983e-05 0.0 
-5.841705261983e-05 7.066962239208e-04 0.0 
0.0 0.0 0.0 
0.0 5.754200715896e-04 0.0 
5.754200715896e-04 1.475747961800e-02 0.0 
0.0 0.0 0.0 
-1.733457840484e-04 6.447498555510e-04 0.0 
6.447498555510e-04 1.473612419361e-02 0.0 
0.0 0.0 0.0 
-8.768146666983e-04 2.162329619933e-04 0.0 
2.162329619933e-04 1.231098542682e-02 0.0 
0.0 0.0 0.0 
-8.943058479922e-04 3.128286336752e-05 0.0 
3.128286336752e-05 1.147935440485e-02 0.0 
0.0 0.0 0.0 
5.254911496402e-04 -6.009323717849e-05 0.0 
-6.009323717849e-05 2.761635867687e-03 0.0 
0.0 0.0 0.0 
-1.417542704135e-04 4.427732362626e-04 0.0 
4.427732362626e-04 1.479927726609e-02 0.0 
0.0 0.0 0.0 
4.369451181270e-04 -2.298697165630e-04 0.0 
-2.298697165630e-04 2.110485118036e-03 0.0 
0.0 0.0 0.0 
-9.367599393652e-04 1.245266268149e-04 0.0 
1.245266268149e-04 1.143783116261e-02 0.0 
0.0 0.0 0.0 
-9.281649275019e-04 5.913058155389e-05 0.0 
5.913058155389e-05 1.148468505788e-02 0.0 
0.0 0.0 0.0 
-1.145516308961e-03 1.173969171505e-03 0.0 
1.173969171505e-03 1.045558536524e-02 0.0 
0.0 0.0 0.0 
0.0 1.300255145513e-03 0.0 
1.300255145513e-03 1.433652575915e-02 0.0 
0.0 0.0 0.0 
-1.602150345187e-04 5.443819900868e-04 0.0 
5.443819900868e-04 1.477492320481e-02 0.0 
0.0 0.0 0.0 
1.012905729070e-06 -5.690520748533e-05 0.0 
-5.690520748533e-05 3.896495105689e-04 0.0 
0.0 0.0 0.0 
9.833425766992e-07 -2.530845638789e-05 0.0 
-2.530845638789e-05 1.211368552871e-04 0.0 
0.0 0.0 0.0 
7.646803821504e-05 -1.462980804518e-04 0.0 
-1.462980804518e-04 1.024865019996e-03 0.0 
0.0 0.0 0.0 
8.306573250305e-04 1.043957497074e-04 0.0 
1.043957497074e-04 4.071044621920e-03 0.0 
0.0 0.0 0.0 
2.919014561031e-04 1.015442844674e-04 0.0 
1.015442844674e-04 7.412180633863e-03 0.0 
0.0 0.0 0.0 
-1.042491226882e-03 -7.612100610202e-05 0.0 
-7.612100610202e-05 5.453266485715e-04 0.0 
0.0 0.0 0.0 
-4.588950036479e-04 9.702995363585e-06 0.0 
9.702995363585e-06 1.360464175374e-02 0.0 
0.0 0.0 0.0 
-6.041185154584e-04 -6.964676765032e-05 0.0 
-6.964676765032e-05 3.889085487931e-04 0.0 
0.0 0.0 0.0 
9.948273967624e-04 8.588925883137e-04 0.0 
8.588925883137e-04 5.901799552064e-03 0.0 
0.0 0.0 0.0 
-8.247047957540e-04 -6.810758304275e-05 0.0 
-6.810758304275e-05 4.605395606181e-04 0.0 
0.0 0.0 0.0 
-9.350515594089e-04 -7.604859264651e-05 0.0 
-7.604859264651e-05 5.042818847776e-04 0.0 
0.0 0.0 0.0 
1.019215531808e-03 7.208327602582e-04 0.0 
7.208327602582e-04 5.524795846916e-03 0.0 
0.0 0.0 0.0 
3.683824390155e-04 2.601164472395e-04 0.0 
2.601164472395e-04 7.177228034930e-03 0.0 
0.0 0.0 0.0 
-6.325402859398e-04 3.644979027287e-05 0.0 
3.644979027287e-05 1.277401223654e-02 0.0 
0.0 0.0 0.0 
-7.812084875254e-04 1.778768798472e-03 0.0 
1.778768798472e-03 9.728881436362e-03 0.0 
0.0 0.0 0.0 
9.240323071258e-05 -4.047783342547e-05 0.0 
-4.047783342547e-05 3.628970757699e-04 0.0 
0.0 0.0 0.0 
6.845877966641e-04 1.321419882042e-04 0.0 
1.321419882042e-04 5.325623296327e-03 0.0 
0.0 0.0 0.0 
0.0 1.709571229850e-04 0.0 
1.709571229850e-04 1.482444482577e-02 0.0 
0.0 0.0 0.0 
-1.215279784186e-04 1.843129440394e-04 0.0 
1.843129440394e-04 1.483505497496e-02 0.0 
0.0 0.0 0.0 
-8.475145780363e-04 4.777132780758e-05 0.0 
4.777132780758e-05 1.144469826065e-02 0.0 
0.0 0.0 0.0 
9.535882998795e-04 9.995222579216e-04 0.0 
9.995222579216e-04 6.302241856032e-03 0.0 
0.0 0.0 0.0 
0.0 4.799776505075e-04 0.0 
4.799776505075e-04 1.479353840753e-02 0.0 
0.0 0.0 0.0 
3.674122519963e-04 1.760813538873e-03 0.0 
1.760813538873e-03 8.780578528294e-03 0.0 
0.0 0.0 0.0 
9.586624296687e-05 -2.856327950013e-05 0.0 
-2.856327950013e-05 6.870164942840e-04 0.0 
0.0 0.0 0.0 
5.306425325213e-05 -3.396246651591e-05 0.0 
-3.396246651591e-05 3.684600604092e-04 0.0 
0.0 0.0 0.0 
9.777027418734e-05 -3.315007646862e-05 0.0 
-3.315007646862e-05 3.567497639689e-04 0.0 
0.0 0.0 0.0 
5.832925420777e-04 3.155590299651e-05 0.0 
3.155590299651e-05 3.112325027933e-03 0.0 
0.0 0.0 0.0 
1.149359047601e-04 2.212192010983e-04 0.0 
2.212192010983e-04 8.279781231489e-03 0.0 
0.0 0.0 0.0 
-2.003606712393e-04 -2.387174208140e-05 0.0 
-2.387174208140e-05 1.448784209595e-02 0.0 
0.0 0.0 0.0 
5.422753936046e-05 -6.442816769319e-06 0.0 
-6.442816769319e-06 9.104614398181e-05 0.0 
0.0 0.0 0.0 
6.406047869019e-04 -3.599778916560e-05 0.0 
-3.599778916560e-05 3.716986277403e-03 0.0 
0.0 0.0 0.0 
0.0 1.951302267744e-04 0.0 
1.951302267744e-04 8.298633089237e-03 0.0 
0.0 0.0 0.0 
1.319548120053e-04 3.174004066358e-04 0.0 
3.174004066358e-04 8.289106264381e-03 0.0 
0.0 0.0 0.0 
2.073018610789e-04 9.972133347405e-04 0.0 
9.972133347405e-04 8.633519655073e-03 0.0 
0.0 0.0 0.0 
-5.256816791904e-04 5.666586280816e-05 0.0 
5.666586280816e-05 1.323948386153e-02 0.0 
0.0 0.0 0.0 
-4.095941590551e-04 -2.642705098575e-05 0.0 
-2.642705098575e-05 1.379005756006e-02 0.0 
0.0 0.0 0.0 
0.0 2.611751631801e-04 0.0 
2.611751631801e-04 8.267290833977e-03 0.0 
0.0 0.0 0.0 
0.0 3.357856147406e-04 0.0 
3.357856147406e-04 8.311861792019e-03 0.0 
0.0 0.0 0.0 
-4.481023454581e-04 5.918134555416e-05 0.0 
5.918134555416e-05 1.360638357503e-02 0.0 
0.0 0.0 0.0 
2.895068907960e-05 6.948371213460e-06 0.0 
6.948371213460e-06 8.395906312453e-05 0.0 
0.0 0.0 0.0 
-7.468734049619e-04 3.441931987377e-06 0.0 
3.441931987377e-06 1.142141249885e-02 0.0 
0.0 0.0 0.0 
-8.181459762803e-04 3.075748248537e-05 0.0 
3.075748248537e-05 1.145730185744e-02 0.0 
0.0 0.0 0.0 
2.940826966880e-05 -1.566086228257e-05 0.0 
-1.566086228257e-05 1.092611990159e-04 0.0 
0.0 0.0 0.0 
0.0 6.119929137405e-04 0.0 
6.119929137405e-04 8.440206079000e-03 0.0 
0.0 0.0 0.0 
1.801110171435e-04 8.844522646373e-04 0.0 
8.844522646373e-04 8.543898124593e-03 0.0 
0.0 0.0 0.0 
0.0 7.970025203298e-04 0.0 
7.970025203298e-04 8.502188956214e-03 0.0 
0.0 0.0 0.0 
-1.156701128080e-05 -7.133242023950e-06 0.0 
-7.133242023950e-06 1.129240920310e-04 0.0 
0.0 0.0 0.0 
-3.731267565144e-05 -1.943882459463e-05 0.0 
-1.943882459463e-05 1.271264802805e-04 0.0 
0.0 0.0 0.0 
0.0 1.015689325984e-03 0.0 
1.015689325984e-03 8.681286038398e-03 0.0 
0.0 0.0 0.0 
0.0 9.007876053978e-04 0.0 
9.007876053978e-04 8.589571895127e-03 0.0 
0.0 0.0 0.0 
-5.625774452858e-04 -3.181019093460e-05 0.0 
-3.181019093460e-05 1.304739711050e-02 0.0 
0.0 0.0 0.0 
-7.135765339140e-04 4.263372917256e-06 0.0 
4.263372917256e-06 1.139937323663e-02 0.0 
0.0 0.0 0.0 
-4.888728419963e-04 -2.921420240765e-05 0.0 
-2.921420240765e-05 1.342338366369e-02 0.0 
0.0 0.0 0.0 
-6.518662861763e-04 -3.438832345515e-05 0.0 
-3.438832345515e-05 1.225800646498e-02 0.0 
0.0 0.0 0.0 
-6.965262587545e-04 -1.436119203305e-06 0.0 
-1.436119203305e-06 1.138956812382e-02 0.0 
0.0 0.0 0.0 
-1.696407743075e-04 -2.904166202363e-05 0.0 
-2.904166202363e-05 1.821798823578e-04 0.0 
0.0 0.0 0.0 
-3.251205963002e-04 -5.239457060960e-05 0.0 
-5.239457060960e-05 2.588953364218e-04 0.0 
0.0 0.0 0.0 
-3.928436207284e-04 -5.320500607911e-05 0.0 
-5.320500607911e-05 2.757570746499e-04 0.0 
0.0 0.0 0.0 
-4.971197978708e-04 -6.026507772290e-05 0.0 
-6.026507772290e-05 3.220162701563e-04 0.0 
0.0 0.0 0.0 
6.535064464797e-04 3.848823323813e-05 0.0 
3.848823323813e-05 3.928791812694e-03 0.0 
0.0 0.0 0.0 
6.283184383278e-04 3.359537180588e-05 0.0 
3.359537180588e-05 3.511637338411e-03 0.0 
0.0 0.0 0.0 
-2.292480441206e-04 -5.077660751565e-05 0.0 
-5.077660751565e-05 2.250695561727e-04 0.0 
0.0 0.0 0.0 
6.480094391252e-04 4.124831194326e-05 0.0 
4.124831194326e-05 5.216192880365e-03 0.0 
0.0 0.0 0.0 
-3.150513929968e-04 -6.091799743989e-05 0.0 
-6.091799743989e-05 2.582099104387e-04 0.0 
0.0 0.0 0.0 
0.0 1.030502077877e-03 0.0 
1.030502077877e-03 1.454180711870e-02 0.0 
0.0 0.0 0.0 
0.0 3.972088609879e-04 0.0 
3.972088609879e-04 1.480483662232e-02 0.0 
0.0 0.0 0.0 
0.0 6.816778759589e-04 0.0 
6.816778759589e-04 1.471323206635e-02 0.0 
0.0 0.0 0.0 
2.254656645642e-04 3.478198808661e-05 0.0 
3.478198808661e-05 1.207110410825e-03 0.0 
0.0 0.0 0.0 
4.595874692668e-04 3.171426871862e-05 0.0 
3.171426871862e-05 2.340716976770e-03 0.0 
0.0 0.0 0.0 
0.0 3.102746938421e-04 0.0 
3.102746938421e-04 1.480466010160e-02 0.0 
0.0 0.0 0.0 
4.554486980546e-04 3.725452642561e-05 0.0 
3.725452642561e-05 6.661845307859e-03 0.0 
0.0 0.0 0.0 
0.0 2.413646376866e-04 0.0 
2.413646376866e-04 1.485336164423e-02 0.0 
0.0 0.0 0.0 
3.443228612039e-04 3.986005779024e-05 0.0 
3.986005779024e-05 7.174372828778e-03 0.0 
0.0 0.0 0.0 
2.157722638423e-04 4.948240589004e-05 0.0 
4.948240589004e-05 7.703017103473e-03 0.0 
0.0 0.0 0.0 
6.057228715446e-04 -4.469174944769e-05 0.0 
-4.469174944769e-05 3.309193574041e-03 0.0 
0.0 0.0 0.0 
-1.531947079103e-04 3.517047581473e-04 0.0 
3.517047581473e-04 1.480474438368e-02 0.0 
0.0 0.0 0.0 
-1.213923752093e-04 3.056294548849e-04 0.0 
3.056294548849e-04 1.482310142117e-02 0.0 
0.0 0.0 0.0 
3.948465565591e-04 1.228113718412e-05 0.0 
1.228113718412e-05 6.890396852961e-03 0.0 
0.0 0.0 0.0 
2.786424859968e-04 1.939988713364e-05 0.0 
1.939988713364e-05 7.416840930947e-03 0.0 
0.0 0.0 0.0 
6.162383771753e-04 1.015211888938e-04 0.0 
1.015211888938e-04 5.713513295239e-03 0.0 
0.0 0.0 0.0 
-5.324158281615e-04 -7.191142830201e-05 0.0 
-7.191142830201e-05 3.585265332515e-04 0.0 
0.0 0.0 0.0 
6.385426076594e-04 -8.332413182565e-05 0.0 
-8.332413182565e-05 3.375425162782e-03 0.0 
0.0 0.0 0.0 
-2.445715052268e-05 -7.396256125049e-05 0.0 
-7.396256125049e-05 3.940982062471e-04 0.0 
0.0 0.0 0.0 
4.280146089195e-04 4.889750250355e-04 0.0 
4.889750250355e-04 7.177918898089e-03 0.0 
0.0 0.0 0.0 
7.400912338988e-04 1.569539961642e-05 0.0 
1.569539961642e-05 3.592392312106e-03 0.0 
0.0 0.0 0.0 
5.362131071698e-04 2.663110201848e-04 0.0 
2.663110201848e-04 6.463546736252e-03 0.0 
0.0 0.0 0.0 
3.278342934905e-04 -2.515426002036e-04 0.0 
-2.515426002036e-04 1.744661127172e-03 0.0 
0.0 0.0 0.0 
6.837133525295e-05 -9.203639894000e-05 0.0 
-9.203639894000e-05 7.049173703317e-04 0.0 
0.0 0.0 0.0 
4.136810434725e-04 2.272070352794e-04 0.0 
2.272070352794e-04 6.967275341188e-03 0.0 
0.0 0.0 0.0 
6.849347665838e-04 -4.398920462167e-05 0.0 
-4.398920462167e-05 3.779375241365e-03 0.0 
0.0 0.0 0.0 
5.558851481662e-04 1.398236617050e-05 0.0 
1.398236617050e-05 2.921269898991e-03 0.0 
0.0 0.0 0.0 
5.132798230703e-04 1.943033739838e-04 0.0 
1.943033739838e-04 6.475122010383e-03 0.0 
0.0 0.0 0.0 
-3.089507642292e-04 1.584765112366e-04 0.0 
1.584765112366e-04 1.410882417675e-02 0.0 
0.0 0.0 0.0 
5.538509180494e-04 -4.944703017956e-05 0.0 
-4.944703017956e-05 2.920069947377e-03 0.0 
0.0 0.0 0.0 
7.577241016441e-04 6.553939715755e-04 0.0 
6.553939715755e-04 6.328821451438e-03 0.0 
0.0 0.0 0.0 
8.301154531807e-04 3.058399834135e-04 0.0 
3.058399834135e-04 5.217888590126e-03 0.0 
0.0 0.0 0.0 
6.415957254269e-04 1.764614133063e-04 0.0 
1.764614133063e-04 5.701809567787e-03 0.0 
0.0 0.0 0.0 
5.955463662553e-04 1.483937817737e-04 0.0 
1.483937817737e-04 5.909703397848e-03 0.0 
0.0 0.0 0.0 
9.462550839006e-04 7.766016093722e-04 0.0 
7.766016093722e-04 3.786138803886e-03 0.0 
0.0 0.0 0.0 
-8.357146304501e-04 1.758049128203e-03 0.0 
1.758049128203e-03 9.464851997036e-03 0.0 
0.0 0.0 0.0 
4.905345688300e-04 1.531221616629e-03 0.0 
1.531221616629e-03 6.576454606205e-03 0.0 
0.0 0.0 0.0 
7.306576217700e-04 2.095870829159e-04 0.0 
2.095870829159e-04 5.313414980858e-03 0.0 
0.0 0.0 0.0 
4.622449144966e-04 1.549463932066e-04 0.0 
1.549463932066e-04 6.687253985531e-03 0.0 
0.0 0.0 0.0 
5.504000540668e-04 1.199581034558e-04 0.0 
1.199581034558e-04 6.126539841583e-03 0.0 
0.0 0.0 0.0 
4.168522663124e-04 -1.721932062782e-04 0.0 
-1.721932062782e-04 1.816716463566e-03 0.0 
0.0 0.0 0.0 
-3.421112563549e-04 2.642777521880e-04 0.0 
2.642777521880e-04 1.409009477346e-02 0.0 
0.0 0.0 0.0 
-4.470344937378e-04 2.251153311777e-04 0.0 
2.251153311777e-04 1.374211814228e-02 0.0 
0.0 0.0 0.0 
-7.092500866631e-04 7.271860313739e-05 0.0 
7.271860313739e-05 1.198051756965e-02 0.0 
0.0 0.0 0.0 
7.270988652501e-04 2.763547496188e-04 0.0 
2.763547496188e-04 5.589248403185e-03 0.0 
0.0 0.0 0.0 
6.858753716195e-04 1.947826062107e-04 0.0 
1.947826062107e-04 5.505896961199e-03 0.0 
0.0 0.0 0.0 
-3.550020962684e-04 1.147292813752e-04 0.0 
1.147292813752e-04 1.412206956348e-02 0.0 
0.0 0.0 0.0 
-3.894317162948e-04 1.977255506206e-04 0.0 
1.977255506206e-04 1.393099115963e-02 0.0 
0.0 0.0 0.0 
8.011216919297e-04 2.289536492422e-04 0.0 
2.289536492422e-04 5.054889993173e-03 0.0 
0.0 0.0 0.0 
3.579720032330e-04 1.796700930436e-04 0.0 
1.796700930436e-04 7.184481685908e-03 0.0 
0.0 0.0 0.0 
-5.609291153832e-04 4.097848205848e-04 0.0 
4.097848205848e-04 1.367753019453e-02 0.0 
0.0 0.0 0.0 
5.348946139638e-04 4.681960297756e-05 0.0 
4.681960297756e-05 6.126471025198e-03 0.0 
0.0 0.0 0.0 
3.541286139823e-04 4.354380221525e-04 0.0 
4.354380221525e-04 7.404400804855e-03 0.0 
0.0 0.0 0.0 
-3.952554172018e-04 2.206966008412e-04 0.0 
2.206966008412e-04 1.409767662042e-02 0.0 
0.0 0.0 0.0 
-6.510686269957e-04 1.456777074906e-04 0.0 
1.456777074906e-04 1.318798106725e-02 0.0 
0.0 0.0 0.0 
7.866276366815e-04 5.353709818741e-04 0.0 
5.353709818741e-04 5.984590225723e-03 0.0 
0.0 0.0 0.0 
3.563614505120e-04 -7.365946142992e-05 0.0 
-7.365946142992e-05 1.789673968191e-03 0.0 
0.0 0.0 0.0 
3.626106573591e-04 -1.757770875016e-04 0.0 
-1.757770875016e-04 1.679023407096e-03 0.0 
0.0 0.0 0.0 
1.978667859337e-06 -2.503851788154e-04 0.0 
-2.503851788154e-04 8.800628010024e-04 0.0 
0.0 0.0 0.0 
-5.328831738250e-04 -1.644913823981e-04 0.0 
-1.644913823981e-04 6.218018244983e-04 0.0 
0.0 0.0 0.0 
-4.228273941174e-04 1.518085804576e-04 0.0 
1.518085804576e-04 1.393553667191e-02 0.0 
0.0 0.0 0.0 
4.170918041682e-04 1.898638535131e-04 0.0 
1.898638535131e-04 6.884581921665e-03 0.0 
0.0 0.0 0.0 
-4.560973768114e-04 -1.611486782159e-04 0.0 
-1.611486782159e-04 5.795124804815e-04 0.0 
0.0 0.0 0.0 
-7.229900639082e-04 1.540443886254e-03 0.0 
1.540443886254e-03 1.305693293155e-02 0.0 
0.0 0.0 0.0 
-7.131389141477e-04 9.345831344482e-05 0.0 
9.345831344482e-05 1.218088732971e-02 0.0 
0.0 0.0 0.0 
5.632340394017e-04 2.225945903393e-04 0.0 
2.225945903393e-04 6.277766390262e-03 0.0 
0.0 0.0 0.0 
5.160285983332e-04 1.714948246278e-04 0.0 
1.714948246278e-04 6.387745769699e-03 0.0 
0.0 0.0 0.0 
7.362324880480e-04 -4.911043501812e-05 0.0 
-4.911043501812e-05 2.631993835655e-03 0.0 
0.0 0.0 0.0 
5.042804709736e-04 9.700594611695e-05 0.0 
9.700594611695e-05 6.398517695970e-03 0.0 
0.0 0.0 0.0 
-7.407626162830e-04 1.309957254055e-06 0.0 
1.309957254055e-06 1.197893599739e-02 0.0 
0.0 0.0 0.0 
7.650401922674e-04 1.290032523414e-03 0.0 
1.290032523414e-03 7.141074221502e-03 0.0 
0.0 0.0 0.0 
3.048727076722e-04 4.742829388715e-04 0.0 
4.742829388715e-04 7.618323437569e-03 0.0 
0.0 0.0 0.0 
3.423363376818e-04 -2.926013546409e-05 0.0 
-2.926013546409e-05 1.726802864988e-03 0.0 
0.0 0.0 0.0 
3.712927813586e-04 5.890510919440e-04 0.0 
5.890510919440e-04 7.520991020050e-03 0.0 
0.0 0.0 0.0 
-5.841170052963e-04 1.369011511041e-04 0.0 
1.369011511041e-04 1.338654533034e-02 0.0 
0.0 0.0 0.0 
3.919242983534e-04 -4.466111421600e-05 0.0 
-4.466111421600e-05 1.948845661830e-03 0.0 
0.0 0.0 0.0 
4.464933115351e-04 -2.583488669825e-04 0.0 
-2.583488669825e-04 2.053633206489e-03 0.0 
0.0 0.0 0.0 
6.943957566723e-04 5.231822307841e-05 0.0 
5.231822307841e-05 4.315792945435e-03 0.0 
0.0 0.0 0.0 
-7.043765533482e-04 1.916265881031e-04 0.0 
1.916265881031e-04 1.278044271289e-02 0.0 
0.0 0.0 0.0 
6.253386914838e-04 -6.827094465045e-05 0.0 
-6.827094465045e-05 2.797946360158e-03 0.0 
0.0 0.0 0.0 
-5.173524429036e-04 1.194779153359e-04 0.0 
1.194779153359e-04 1.358352205127e-02 0.0 
0.0 0.0 0.0 
-6.455130263755e-04 9.033271865464e-05 0.0 
9.033271865464e-05 1.300069567563e-02 0.0 
0.0 0.0 0.0 
7.495835270774e-04 6.984915790107e-05 0.0 
6.984915790107e-05 4.186385023986e-03 0.0 
0.0 0.0 0.0 
5.758236072544e-04 7.697408604221e-05 0.0 
7.697408604221e-05 5.914815087129e-03 0.0 
0.0 0.0 0.0 
5.489304097923e-04 1.290377113085e-04 0.0 
1.290377113085e-04 6.193406080048e-03 0.0 
0.0 0.0 0.0 
-5.314497198174e-04 1.853323918192e-04 0.0 
1.853323918192e-04 1.337939529818e-02 0.0 
0.0 0.0 0.0 
2.610548600817e-04 -1.867026568192e-04 0.0 
-1.867026568192e-04 1.492999008400e-03 0.0 
0.0 0.0 0.0 
7.187930132406e-04 3.901396729692e-05 0.0 
3.901396729692e-05 3.949278990142e-03 0.0 
0.0 0.0 0.0 
5.466395120572e-04 1.767630405913e-03 0.0 
1.767630405913e-03 8.645859414914e-03 0.0 
0.0 0.0 0.0 
-5.779815324373e-04 1.983110495002e-04 0.0 
1.983110495002e-04 1.355611608103e-02 0.0 
0.0 0.0 0.0 
6.905724862944e-04 9.213587530684e-06 0.0 
9.213587530684e-06 3.533166930470e-03 0.0 
0.0 0.0 0.0 
7.611337387547e-04 2.211597060633e-04 0.0 
2.211597060633e-04 5.231913364779e-03 0.0 
0.0 0.0 0.0 
4.383135884871e-04 6.263302762276e-04 0.0 
6.263302762276e-04 7.350615142877e-03 0.0 
0.0 0.0 0.0 
-5.889879239074e-04 1.926196515306e-04 0.0 
1.926196515306e-04 1.318229609880e-02 0.0 
0.0 0.0 0.0 
-2.646224044158e-04 -9.892136876336e-05 0.0 
-9.892136876336e-05 1.089322365768e-03 0.0 
0.0 0.0 0.0 
3.732900775932e-05 -2.002728830987e-04 0.0 
-2.002728830987e-04 8.391609096183e-04 0.0 
0.0 0.0 0.0 
3.750204630355e-04 1.459421711111e-04 0.0 
1.459421711111e-04 2.153382069522e-03 0.0 
0.0 0.0 0.0 
4.766937165335e-04 2.348441882830e-04 0.0 
2.348441882830e-04 6.675107104484e-03 0.0 
0.0 0.0 0.0 
-6.491409207423e-04 1.951002946479e-04 0.0 
1.951002946479e-04 1.298340387259e-02 0.0 
0.0 0.0 0.0 
6.754512315581e-04 -3.453298880065e-06 0.0 
-3.453298880065e-06 4.754173598595e-03 0.0 
0.0 0.0 0.0 
-7.341406372963e-04 1.295339623326e-04 0.0 
1.295339623326e-04 1.238560884129e-02 0.0 
0.0 0.0 0.0 
5.941372895095e-04 8.855976763054e-04 0.0 
8.855976763054e-04 7.218863768340e-03 0.0 
0.0 0.0 0.0 
7.290274095217e-04 7.473471614684e-05 0.0 
7.473471614684e-05 4.369758706100e-03 0.0 
0.0 0.0 0.0 
5.699071764795e-04 2.057484892866e-04 0.0 
2.057484892866e-04 6.181534016297e-03 0.0 
0.0 0.0 0.0 
3.392831484264e-04 -1.341895122781e-04 0.0 
-1.341895122781e-04 1.799582966209e-03 0.0 
0.0 0.0 0.0 
3.955950748071e-04 5.328509584447e-04 0.0 
5.328509584447e-04 7.408429497966e-03 0.0 
0.0 0.0 0.0 
7.021031080086e-04 -3.287728862616e-06 0.0 
-3.287728862616e-06 4.198200461301e-03 0.0 
0.0 0.0 0.0 
3.673852816606e-04 -1.074305952818e-04 0.0 
-1.074305952818e-04 1.958753789726e-03 0.0 
0.0 0.0 0.0 
6.781582525563e-04 -3.328839001168e-05 0.0 
-3.328839001168e-05 3.961364860974e-03 0.0 
0.0 0.0 0.0 
6.352755185539e-04 -4.701625079464e-05 0.0 
-4.701625079464e-05 2.966421620596e-03 0.0 
0.0 0.0 0.0 
4.695769968712e-04 -2.038880986365e-04 0.0 
-2.038880986365e-04 2.268495442834e-03 0.0 
0.0 0.0 0.0 
6.882086777287e-04 6.905290734247e-05 0.0 
6.905290734247e-05 4.740030528812e-03 0.0 
0.0 0.0 0.0 
-1.238227374762e-04 -4.812312122449e-05 0.0 
-4.812312122449e-05 1.855906591124e-04 0.0 
0.0 0.0 0.0 
-1.957771738218e-04 -5.125468683053e-05 0.0 
-5.125468683053e-05 2.170970866757e-04 0.0 
0.0 0.0 0.0 
6.497764379900e-04 1.193599036679e-04 0.0 
1.193599036679e-04 5.517693415770e-03 0.0 
0.0 0.0 0.0 
3.014773694465e-04 -1.628462961518e-04 0.0 
-1.628462961518e-04 1.646024460580e-03 0.0 
0.0 0.0 0.0 
6.768189877699e-04 1.967543969109e-04 0.0 
1.967543969109e-04 5.601772332051e-03 0.0 
0.0 0.0 0.0 
7.194705521905e-04 2.110216510458e-04 0.0 
2.110216510458e-04 5.414630678920e-03 0.0 
0.0 0.0 0.0 
7.531235719216e-04 -1.446303371253e-05 0.0 
-1.446303371253e-05 3.245100810665e-03 0.0 
0.0 0.0 0.0 
5.810992284803e-04 -1.007007832883e-04 0.0 
-1.007007832883e-04 2.112673535252e-03 0.0 
0.0 0.0 0.0 
-5.558656198539e-04 3.565795446462e-04 0.0 
3.565795446462e-04 1.387016932092e-02 0.0 
0.0 0.0 0.0 
-1.679947306608e-04 3.794274585669e-04 0.0 
3.794274585669e-04 1.417129653521e-03 0.0 
0.0 0.0 0.0 
6.417512764945e-04 -2.759465073169e-05 0.0 
-2.759465073169e-05 3.140291911018e-03 0.0 
0.0 0.0 0.0 
5.208867638902e-04 1.035916727011e-03 0.0 
1.035916727011e-03 7.596071616426e-03 0.0 
0.0 0.0 0.0 
2.721875143372e-04 -7.714423321660e-05 0.0 
-7.714423321660e-05 1.406541787940e-03 0.0 
0.0 0.0 0.0 
-7.537638641024e-04 9.492518575531e-05 0.0 
9.492518575531e-05 1.260047093122e-02 0.0 
0.0 0.0 0.0 
-7.700049896285e-04 3.751459064323e-05 0.0 
3.751459064323e-05 1.218862268733e-02 0.0 
0.0 0.0 0.0 
2.100798389340e-04 -2.550508018847e-04 0.0 
-2.550508018847e-04 1.386086355488e-03 0.0 
0.0 0.0 0.0 
5.135963824727e-04 6.796512953541e-04 0.0 
6.796512953541e-04 7.160773716556e-03 0.0 
0.0 0.0 0.0 
-7.414842990134e-04 2.970395513347e-04 0.0 
2.970395513347e-04 1.333190520792e-02 0.0 
0.0 0.0 0.0 
3.174346235810e-04 -9.788754929905e-05 0.0 
-9.788754929905e-05 1.632805698027e-03 0.0 
0.0 0.0 0.0 
-5.396670168916e-04 4.530997875029e-04 0.0 
4.530997875029e-04 1.400968640009e-02 0.0 
0.0 0.0 0.0 
-4.446951843229e-04 4.849564355312e-04 0.0 
4.849564355312e-04 1.400413634443e-02 0.0 
0.0 0.0 0.0 
3.524827565207e-04 -1.859773601683e-04 0.0 
-1.859773601683e-04 1.847960553035e-03 0.0 
0.0 0.0 0.0 
-1.463390044885e-04 1.533423436109e-03 0.0 
1.533423436109e-03 5.818145674090e-03 0.0 
0.0 0.0 0.0 
3.713895294948e-04 -2.269173753258e-04 0.0 
-2.269173753258e-04 1.899453902598e-03 0.0 
0.0 0.0 0.0 
5.936409115406e-04 1.574928756669e-04 0.0 
1.574928756669e-04 5.989795169939e-03 0.0 
0.0 0.0 0.0 
7.081697651212e-04 7.477012570342e-05 0.0 
7.477012570342e-05 4.556162615382e-03 0.0 
0.0 0.0 0.0 
-6.182369264492e-04 1.310580500684e-03 0.0 
1.310580500684e-03 1.343650492106e-02 0.0 
0.0 0.0 0.0 
-4.747841948537e-04 3.910083431918e-04 0.0 
3.910083431918e-04 1.386584827477e-02 0.0 
0.0 0.0 0.0 
6.347372534019e-04 1.790659954868e-04 0.0 
1.790659954868e-04 5.794258344609e-03 0.0 
0.0 0.0 0.0 
6.745541324400e-04 2.567754809062e-04 0.0 
2.567754809062e-04 5.782128195294e-03 0.0 
0.0 0.0 0.0 
2.845748536993e-04 -1.534909208813e-04 0.0 
-1.534909208813e-04 1.524019508109e-03 0.0 
0.0 0.0 0.0 
6.224032666378e-04 2.329247507281e-04 0.0 
2.329247507281e-04 5.978080814171e-03 0.0 
0.0 0.0 0.0 
-6.503194151092e-04 3.310726690380e-04 0.0 
3.310726690380e-04 1.332762042526e-02 0.0 
0.0 0.0 0.0 
6.812273951198e-04 5.397003911669e-06 0.0 
5.397003911669e-06 4.567070954962e-03 0.0 
0.0 0.0 0.0 
-7.157656719400e-04 1.505735235322e-04 0.0 
1.505735235322e-04 1.298881063807e-02 0.0 
0.0 0.0 0.0 
-6.564452270577e-04 2.874240363579e-04 0.0 
2.874240363579e-04 1.352611197809e-02 0.0 
0.0 0.0 0.0 
9.920225453679e-04 1.095924193376e-03 0.0 
1.095924193376e-03 5.173349242500e-03 0.0 
0.0 0.0 0.0 
-4.965042412441e-04 3.120364699563e-04 0.0 
3.120364699563e-04 1.371360258154e-02 0.0 
0.0 0.0 0.0 
6.833766807250e-04 2.400489799029e-05 0.0 
2.400489799029e-05 3.735799216526e-03 0.0 
0.0 0.0 0.0 
6.913760051608e-04 3.082327887808e-06 0.0 
3.082327887808e-06 4.381257128975e-03 0.0 
0.0 0.0 0.0 
5.780508497626e-04 -4.837947893034e-05 0.0 
-4.837947893034e-05 2.755797597955e-03 0.0 
0.0 0.0 0.0 
6.716737798058e-04 -1.377094856614e-04 0.0 
-1.377094856614e-04 2.934768180418e-03 0.0 
0.0 0.0 0.0 
-6.503659091659e-04 2.564522916478e-04 0.0 
2.564522916478e-04 1.315959720819e-02 0.0 
0.0 0.0 0.0 
8.735129676147e-04 1.528981945991e-04 0.0 
1.528981945991e-04 4.273967522135e-03 0.0 
0.0 0.0 0.0 
4.084852273991e-04 -2.001170845015e-04 0.0 
-2.001170845015e-04 2.057440513079e-03 0.0 
0.0 0.0 0.0 
8.408136297344e-05 -2.364624656678e-04 0.0 
-2.364624656678e-04 1.036140248826e-03 0.0 
0.0 0.0 0.0 
-7.292081613286e-04 2.174299041493e-04 0.0 
2.174299041493e-04 1.316441992206e-02 0.0 
0.0 0.0 0.0 
4.440712732210e-04 -1.238766611208e-04 0.0 
-1.238766611208e-04 2.045415609365e-03 0.0 
0.0 0.0 0.0 
4.171305121246e-04 6.643415475035e-04 0.0 
6.643415475035e-04 7.513332058378e-03 0.0 
0.0 0.0 0.0 
-5.826048912673e-04 2.530273378112e-04 0.0 
2.530273378112e-04 1.335614215034e-02 0.0 
0.0 0.0 0.0 
5.959143256236e-04 3.010479810590e-04 0.0 
3.010479810590e-04 6.265672091236e-03 0.0 
0.0 0.0 0.0 
2.065555037238e-04 1.430460988104e-03 0.0 
1.430460988104e-03 8.738725025405e-03 0.0 
0.0 0.0 0.0 
6.490565938269e-04 -6.467116393325e-05 0.0 
-6.467116393325e-05 3.549110110712e-03 0.0 
0.0 0.0 0.0 
3.769870818486e-04 -1.144177886458e-04 0.0 
-1.144177886458e-04 1.836770020217e-03 0.0 
0.0 0.0 0.0 
1.536257612018e-04 -1.425136602710e-04 0.0 
-1.425136602710e-04 1.162307963690e-03 0.0 
0.0 0.0 0.0 
6.621073648883e-04 2.724389808097e-04 0.0 
2.724389808097e-04 5.888522079927e-03 0.0 
0.0 0.0 0.0 
-6.488179491112e-04 1.477227913689e-04 0.0 
1.477227913689e-04 1.280277948966e-02 0.0 
0.0 0.0 0.0 
2.642909829342e-05 -1.241707968340e-04 0.0 
-1.241707968340e-04 8.207428982829e-04 0.0 
0.0 0.0 0.0 
5.759824701150e-04 -1.439100408555e-04 0.0 
-1.439100408555e-04 2.809854230834e-03 0.0 
0.0 0.0 0.0 
2.948303359500e-04 -1.095664756718e-04 0.0 
-1.095664756718e-04 1.593649817984e-03 0.0 
0.0 0.0 0.0 
-7.755979878562e-04 1.506508197118e-04 0.0 
1.506508197118e-04 1.278542438151e-02 0.0 
0.0 0.0 0.0 
5.935367794130e-04 -1.191720876027e-04 0.0 
-1.191720876027e-04 2.977707131936e-03 0.0 
0.0 0.0 0.0 
7.792976472252e-04 2.922447390001e-04 0.0 
2.922447390001e-04 5.401388947935e-03 0.0 
0.0 0.0 0.0 
5.449829619639e-04 -1.224775901858e-04 0.0 
-1.224775901858e-04 2.763618656158e-03 0.0 
0.0 0.0 0.0 
-5.008142175250e-04 1.788019761068e-04 0.0 
1.788019761068e-04 1.374838730789e-02 0.0 
0.0 0.0 0.0 
5.415572524097e-04 -1.000137415664e-04 0.0 
-1.000137415664e-04 2.418378212718e-03 0.0 
0.0 0.0 0.0 
6.955760005480e-04 3.815754699270e-04 0.0 
3.815754699270e-04 6.003654131020e-03 0.0 
0.0 0.0 0.0 
3.063647567283e-04 -2.908797143727e-04 0.0 
-2.908797143727e-04 1.697397891171e-03 0.0 
0.0 0.0 0.0 
7.117666303660e-04 2.907898149922e-04 0.0 
2.907898149922e-04 5.701663094682e-03 0.0 
0.0 0.0 0.0 
6.766156971723e-04 -1.480344616649e-05 0.0 
-1.480344616649e-05 4.153377122400e-03 0.0 
0.0 0.0 0.0 
6.561754057974e-04 3.295306802280e-04 0.0 
3.295306802280e-04 6.068497533588e-03 0.0 
0.0 0.0 0.0 
9.215409624539e-04 3.671022858405e-04 0.0 
3.671022858405e-04 3.084176134246e-03 0.0 
0.0 0.0 0.0 
3.067813123943e-04 -4.745162962330e-05 0.0 
-4.745162962330e-05 1.577781790601e-03 0.0 
0.0 0.0 0.0 
-7.327013946121e-04 5.173137969009e-05 0.0 
5.173137969009e-05 1.241018066341e-02 0.0 
0.0 0.0 0.0 
9.025795294275e-04 7.472908325470e-04 0.0 
7.472908325470e-04 5.918898303533e-03 0.0 
0.0 0.0 0.0 
1.676715999239e-04 1.807970385468e-03 0.0 
1.807970385468e-03 7.003678046247e-03 0.0 
0.0 0.0 0.0 
-7.024779491969e-04 9.572231066730e-05 0.0 
9.572231066730e-05 1.280449421208e-02 0.0 
0.0 0.0 0.0 
4.021108986680e-04 -2.726411391044e-04 0.0 
-2.726411391044e-04 1.911420391211e-03 0.0 
0.0 0.0 0.0 
-7.940654514886e-04 3.257669803580e-04 0.0 
3.257669803580e-04 1.292778254587e-02 0.0 
0.0 0.0 0.0 
2.524330817595e-04 -1.376303935033e-04 0.0 
-1.376303935033e-04 1.430079332094e-03 0.0 
0.0 0.0 0.0 
4.975936233280e-04 5.182864167530e-04 0.0 
5.182864167530e-04 7.011970873601e-03 0.0 
0.0 0.0 0.0 
8.661764677231e-04 8.934480725773e-04 0.0 
8.934480725773e-04 6.318638007284e-03 0.0 
0.0 0.0 0.0 
6.711471203233e-04 1.437587970472e-03 0.0 
1.437587970472e-03 7.645221955495e-03 0.0 
0.0 0.0 0.0 
-4.292998761291e-04 4.227760543216e-04 0.0 
4.227760543216e-04 1.420320876327e-02 0.0 
0.0 0.0 0.0 
8.735608397323e-04 2.423684334325e-04 0.0 
2.423684334325e-04 4.720482762615e-03 0.0 
0.0 0.0 0.0 
2.718702931606e-04 -1.199482943153e-04 0.0 
-1.199482943153e-04 1.478312386513e-03 0.0 
0.0 0.0 0.0 
8.062860201421e-04 3.201883922305e-04 0.0 
3.201883922305e-04 5.347901875446e-03 0.0 
0.0 0.0 0.0 
4.860285620345e-04 7.172612458149e-04 0.0 
7.172612458149e-04 7.336246703023e-03 0.0 
0.0 0.0 0.0 
6.246034657962e-04 -1.722808546493e-04 0.0 
-1.722808546493e-04 2.509959402615e-03 0.0 
0.0 0.0 0.0 
6.122694442632e-04 2.499005934281e-04 0.0 
2.499005934281e-04 6.080889888617e-03 0.0 
0.0 0.0 0.0 
-6.547467232586e-04 2.101848784677e-04 0.0 
2.101848784677e-04 1.336139651833e-02 0.0 
0.0 0.0 0.0 
5.359650261141e-04 -8.664372144933e-05 0.0 
-8.664372144933e-05 1.971220506014e-03 0.0 
0.0 0.0 0.0 
7.600411651760e-04 3.062706294158e-04 0.0 
3.062706294158e-04 5.521594913239e-03 0.0 
0.0 0.0 0.0 
-8.729363077564e-04 1.349095401959e-04 0.0 
1.349095401959e-04 1.236381094860e-02 0.0 
0.0 0.0 0.0 
4.198854160484e-04 -1.270146131878e-04 0.0 
-1.270146131878e-04 2.170813023897e-03 0.0 
0.0 0.0 0.0 
5.572353967780e-04 -1.705216963466e-04 0.0 
-1.705216963466e-04 2.644538973529e-03 0.0 
0.0 0.0 0.0 
2.071353788042e-04 1.753269562004e-03 0.0 
1.753269562004e-03 7.841982583840e-03 0.0 
0.0 0.0 0.0 
7.161240784306e-04 3.534431917166e-04 0.0 
3.534431917166e-04 5.875737514170e-03 0.0 
0.0 0.0 0.0 
-2.459571398821e-04 1.804324542286e-03 0.0 
1.804324542286e-03 7.634865128392e-03 0.0 
0.0 0.0 0.0 
3.580568962234e-04 1.655921590551e-03 0.0 
1.655921590551e-03 7.204393878967e-03 0.0 
0.0 0.0 0.0 
-7.242131648384e-04 3.305673654985e-04 0.0 
3.305673654985e-04 1.312970065986e-02 0.0 
0.0 0.0 0.0 
-6.937896209247e-04 1.433920073268e-04 0.0 
1.433920073268e-04 1.259464506580e-02 0.0 
0.0 0.0 0.0 
-8.280408285009e-04 2.300128367475e-04 0.0 
2.300128367475e-04 1.255119121878e-02 0.0 
0.0 0.0 0.0 
7.059977285946e-04 4.552159851625e-05 0.0 
4.552159851625e-05 4.139840204627e-03 0.0 
0.0 0.0 0.0 
5.847527941802e-04 7.145779716051e-04 0.0 
7.145779716051e-04 7.000100606527e-03 0.0 
0.0 0.0 0.0 
8.497748634277e-04 3.330576916182e-04 0.0 
3.330576916182e-04 5.181540037422e-03 0.0 
0.0 0.0 0.0 
-8.022516480586e-04 8.868170002133e-05 0.0 
8.868170002133e-05 1.239050329055e-02 0.0 
0.0 0.0 0.0 
-6.060342540330e-04 1.705939637896e-03 0.0 
1.705939637896e-03 1.297117426319e-02 0.0 
0.0 0.0 0.0 
5.639612288835e-04 1.574106142371e-03 0.0 
1.574106142371e-03 8.161788867503e-03 0.0 
0.0 0.0 0.0 
7.750504271480e-04 3.742977206727e-04 0.0 
3.742977206727e-04 5.688429295648e-03 0.0 
0.0 0.0 0.0 
-5.736657477021e-04 3.244687938933e-04 0.0 
3.244687938933e-04 1.352149627330e-02 0.0 
0.0 0.0 0.0 
6.797921658845e-04 -1.202508729457e-04 0.0 
-1.202508729457e-04 3.092504729512e-03 0.0 
0.0 0.0 0.0 
6.182675191861e-04 -1.521653972395e-04 0.0 
-1.521653972395e-04 2.864861567587e-03 0.0 
0.0 0.0 0.0 
2.644733839428e-04 -2.366672906395e-04 0.0 
-2.366672906395e-04 1.536931430013e-03 0.0 
0.0 0.0 0.0 
8.019851220074e-04 4.228167954799e-04 0.0 
4.228167954799e-04 5.657147394794e-03 0.0 
0.0 0.0 0.0 
6.294343598756e-04 -1.285360787522e-04 0.0 
-1.285360787522e-04 3.031330767896e-03 0.0 
0.0 0.0 0.0 
-7.999922645534e-04 2.183464397428e-04 0.0 
2.183464397428e-04 1.296364258900e-02 0.0 
0.0 0.0 0.0 
-8.663864483528e-04 2.154395303574e-04 0.0 
2.154395303574e-04 1.275947542594e-02 0.0 
0.0 0.0 0.0 
9.564442643388e-04 8.544515603575e-04 0.0 
8.544515603575e-04 5.199302716082e-03 0.0 
0.0 0.0 0.0 
5.945952884514e-04 -1.103425488113e-04 0.0 
-1.103425488113e-04 2.469154852203e-03 0.0 
0.0 0.0 0.0 
8.565810377155e-04 7.027579780312e-04 0.0 
7.027579780312e-04 3.343043270580e-03 0.0 
0.0 0.0 0.0 
6.120074292213e-04 -8.983732849564e-05 0.0 
-8.983732849564e-05 2.631709767269e-03 0.0 
0.0 0.0 0.0 
6.832726224764e-04 -6.612164950630e-05 0.0 
-6.612164950630e-05 2.851203683911e-03 0.0 
0.0 0.0 0.0 
3.348488007162e-04 -1.362598137452e-04 0.0 
-1.362598137452e-04 1.680057367286e-03 0.0 
0.0 0.0 0.0 
6.532106897048e-04 7.516449355519e-04 0.0 
7.516449355519e-04 6.841240666943e-03 0.0 
0.0 0.0 0.0 
8.883552757004e-04 9.110846508318e-05 0.0 
9.110846508318e-05 3.563814421129e-03 0.0 
0.0 0.0 0.0 
-5.693777249931e-04 2.707712706721e-04 0.0 
2.707712706721e-04 1.371870446157e-02 0.0 
0.0 0.0 0.0 
9.459059836336e-04 1.736830611165e-04 0.0 
1.736830611165e-04 3.825904062760e-03 0.0 
0.0 0.0 0.0 
8.869324363119e-04 4.121186833298e-04 0.0 
4.121186833298e-04 5.333408800148e-03 0.0 
0.0 0.0 0.0 
9.369710968172e-04 2.489137231182e-04 0.0 
2.489137231182e-04 4.419101687260e-03 0.0 
0.0 0.0 0.0 
6.153818690855e-04 1.437427896844e-03 0.0 
1.437427896844e-03 6.416087491206e-03 0.0 
0.0 0.0 0.0 
3.110084458040e-04 -2.119177299392e-04 0.0 
-2.119177299392e-04 1.692715993825e-03 0.0 
0.0 0.0 0.0 
5.654688588150e-04 7.507355061938e-04 0.0 
7.507355061938e-04 7.147198404234e-03 0.0 
0.0 0.0 0.0 
4.429414002447e-04 7.964691090616e-04 0.0 
7.964691090616e-04 7.558613739121e-03 0.0 
0.0 0.0 0.0 
3.289418803343e-05 1.902425895437e-03 0.0 
1.902425895437e-03 9.269261172643e-03 0.0 
0.0 0.0 0.0 
7.544315962493e-04 -2.837636650079e-05 0.0 
-2.837636650079e-05 3.077881420007e-03 0.0 
0.0 0.0 0.0 
9.245556674196e-04 3.304166515198e-04 0.0 
3.304166515198e-04 4.869002960195e-03 0.0 
0.0 0.0 0.0 
-7.144086260760e-04 2.542947058868e-04 0.0 
2.542947058868e-04 1.295918723591e-02 0.0 
0.0 0.0 0.0 
6.841421812445e-04 -1.001311868513e-04 0.0 
-1.001311868513e-04 3.258634534436e-03 0.0 
0.0 0.0 0.0 
3.067482056460e-04 1.585769003556e-03 0.0 
1.585769003556e-03 6.360449599174e-03 0.0 
0.0 0.0 0.0 
4.961151203857e-04 -1.760807343435e-04 0.0 
-1.760807343435e-04 2.430391907185e-03 0.0 
0.0 0.0 0.0 
4.964857142684e-04 -2.350380048974e-04 0.0 
-2.350380048974e-04 2.133897647647e-03 0.0 
0.0 0.0 0.0 
7.404070240102e-04 -7.411561042279e-05 0.0 
-7.411561042279e-05 3.329099717109e-03 0.0 
0.0 0.0 0.0 
4.748558895136e-04 -1.004221224677e-04 0.0 
-1.004221224677e-04 2.207068783101e-03 0.0 
0.0 0.0 0.0 
3.876173581803e-04 -1.584399660820e-04 0.0 
-1.584399660820e-04 2.007380638068e-03 0.0 
0.0 0.0 0.0 
8.481438232550e-04 1.513336392598e-04 0.0 
1.513336392598e-04 4.434581372140e-03 0.0 
0.0 0.0 0.0 
8.324000759137e-04 3.939191210270e-04 0.0 
3.939191210270e-04 5.507733250274e-03 0.0 
0.0 0.0 0.0 
-5.211900559277e-05 2.014599242470e-03 0.0 
2.014599242470e-03 1.062930797732e-02 0.0 
0.0 0.0 0.0 
-2.594867229495e-04 -3.400495542947e-05 0.0 
-3.400495542947e-05 2.203920865675e-04 0.0 
0.0 0.0 0.0 
1.025767833919e-03 3.127697551590e-04 0.0 
3.127697551590e-04 3.824233076753e-03 0.0 
0.0 0.0 0.0 
9.616626398450e-04 1.830085453145e-04 0.0 
1.830085453145e-04 3.674269706858e-03 0.0 
0.0 0.0 0.0 
8.242591376038e-04 2.363677912293e-05 0.0 
2.363677912293e-05 3.314552390717e-03 0.0 
0.0 0.0 0.0 
-7.736810785776e-04 2.445417650074e-04 0.0 
2.445417650074e-04 1.275583377752e-02 0.0 
0.0 0.0 0.0 
9.247329699089e-04 1.687840346031e-04 0.0 
1.687840346031e-04 3.983695940073e-03 0.0 
0.0 0.0 0.0 
5.620307230969e-04 -7.530173632842e-05 0.0 
-7.530173632842e-05 2.584148614903e-03 0.0 
0.0 0.0 0.0 
7.981399599704e-04 -1.099189484989e-05 0.0 
-1.099189484989e-05 3.579992945225e-03 0.0 
0.0 0.0 0.0 
-5.155761480949e-04 2.429915568578e-04 0.0 
2.429915568578e-04 1.355072379656e-02 0.0 
0.0 0.0 0.0 
5.172711498742e-04 -1.476450308047e-04 0.0 
-1.476450308047e-04 2.595642619714e-03 0.0 
0.0 0.0 0.0 
1.009431645036e-04 -1.159502063453e-04 0.0 
-1.159502063453e-04 9.498886947361e-04 0.0 
0.0 0.0 0.0 
2.172034016743e-04 -1.350172244588e-04 0.0 
-1.350172244588e-04 1.318890719821e-03 0.0 
0.0 0.0 0.0 
6.167163532922e-04 -1.046292728442e-04 0.0 
-1.046292728442e-04 2.258674190708e-03 0.0 
0.0 0.0 0.0 
6.731452268562e-04 -8.342023498711e-05 0.0 
-8.342023498711e-05 2.690569587495e-03 0.0 
0.0 0.0 0.0 
1.013625971143e-03 2.884592849422e-04 0.0 
2.884592849422e-04 3.959487481857e-03 0.0 
0.0 0.0 0.0 
8.502734071723e-04 6.661130283616e-05 0.0 
6.661130283616e-05 3.844099217170e-03 0.0 
0.0 0.0 0.0 
2.470111769106e-04 -3.034513853817e-04 0.0 
-3.034513853817e-04 1.552236731209e-03 0.0 
0.0 0.0 0.0 
2.113972348423e-04 -2.144911020435e-04 0.0 
-2.144911020435e-04 1.330596406797e-03 0.0 
0.0 0.0 0.0 
-1.045540989836e-03 2.961998029832e-04 0.0 
2.961998029832e-04 1.249968062745e-02 0.0 
0.0 0.0 0.0 
4.403785907656e-04 -1.720656750338e-04 0.0 
-1.720656750338e-04 2.218185045315e-03 0.0 
0.0 0.0 0.0 
7.743541143383e-04 7.160840510560e-04 0.0 
7.160840510560e-04 6.470931098082e-03 0.0 
0.0 0.0 0.0 
5.537237935926e-05 1.979765587306e-03 0.0 
1.979765587306e-03 1.006627420242e-02 0.0 
0.0 0.0 0.0 
-1.212613908638e-03 1.139509936443e-03 0.0 
1.139509936443e-03 1.202762545318e-02 0.0 
0.0 0.0 0.0 
-6.180533080182e-04 6.377791721857e-04 0.0 
6.377791721857e-04 1.374498258030e-02 0.0 
0.0 0.0 0.0 
-1.252460083685e-04 2.032206255319e-03 0.0 
2.032206255319e-03 1.116327370027e-02 0.0 
0.0 0.0 0.0 
9.186018909875e-04 9.308051106372e-04 0.0 
9.308051106372e-04 5.198489601727e-03 0.0 
0.0 0.0 0.0 
4.456545710441e-05 1.932333984289e-03 0.0 
1.932333984289e-03 9.666090805893e-03 0.0 
0.0 0.0 0.0 
3.447144654978e-04 -2.829783967731e-04 0.0 
-2.829783967731e-04 1.769918046575e-03 0.0 
0.0 0.0 0.0 
7.885490965776e-04 -1.895596876595e-06 0.0 
-1.895596876595e-06 3.740564374273e-03 0.0 
0.0 0.0 0.0 
8.420494907113e-04 1.288304474138e-03 0.0 
1.288304474138e-03 5.260112760764e-03 0.0 
0.0 0.0 0.0 
5.992250230031e-04 3.424509521975e-05 0.0 
3.424509521975e-05 2.090678934515e-03 0.0 
0.0 0.0 0.0 
1.630285087493e-04 -3.086351398995e-04 0.0 
-3.086351398995e-04 1.424245343509e-03 0.0 
0.0 0.0 0.0 
6.892531488951e-04 -4.768653956170e-05 0.0 
-4.768653956170e-05 3.018628279582e-03 0.0 
0.0 0.0 0.0 
8.621196286591e-04 6.745559913491e-05 0.0 
6.745559913491e-05 3.694931342972e-03 0.0 
0.0 0.0 0.0 
9.103276189975e-04 1.664905382934e-04 0.0 
1.664905382934e-04 3.979670381548e-03 0.0 
0.0 0.0 0.0 
5.003763080065e-04 -7.599080131405e-05 0.0 
-7.599080131405e-05 2.370856065195e-03 0.0 
0.0 0.0 0.0 
9.686743314072e-04 2.574100014525e-04 0.0 
2.574100014525e-04 4.257432278538e-03 0.0 
0.0 0.0 0.0 
9.202373692492e-04 1.815959692655e-04 0.0 
1.815959692655e-04 3.847708932294e-03 0.0 
0.0 0.0 0.0 
1.065610393509e-03 4.389505183599e-04 0.0 
4.389505183599e-04 4.140965417816e-03 0.0 
0.0 0.0 0.0 
6.032845270088e-04 -1.747140161852e-04 0.0 
-1.747140161852e-04 2.704526924702e-03 0.0 
0.0 0.0 0.0 
8.368506515417e-04 1.087432128773e-03 0.0 
1.087432128773e-03 6.686605329510e-03 0.0 
0.0 0.0 0.0 
-8.231758449876e-04 3.028790030347e-04 0.0 
3.028790030347e-04 1.313322810776e-02 0.0 
0.0 0.0 0.0 
1.068847430407e-03 4.821877833506e-04 0.0 
4.821877833506e-04 4.032599607551e-03 0.0 
0.0 0.0 0.0 
6.525716663477e-04 8.007753592281e-04 0.0 
8.007753592281e-04 6.986656711933e-03 0.0 
0.0 0.0 0.0 
4.490302551690e-04 -2.375118438947e-04 0.0 
-2.375118438947e-04 1.994330852974e-03 0.0 
0.0 0.0 0.0 
5.205885575839e-04 1.083163055164e-03 0.0 
1.083163055164e-03 7.769684174148e-03 0.0 
0.0 0.0 0.0 
9.938543204282e-04 2.698169194293e-04 0.0 
2.698169194293e-04 4.103164471010e-03 0.0 
0.0 0.0 0.0 
-1.541632228544e-04 2.091131519766e-03 0.0 
2.091131519766e-03 1.170574177042e-02 0.0 
0.0 0.0 0.0 
-6.224961548045e-04 1.796922333755e-03 0.0 
1.796922333755e-03 1.057812316911e-02 0.0 
0.0 0.0 0.0 
4.701252952504e-04 -1.497702650534e-04 0.0 
-1.497702650534e-04 1.892169741733e-03 0.0 
0.0 0.0 0.0 
-1.112126763655e-03 1.336167191039e-03 0.0 
1.336167191039e-03 1.192388187736e-02 0.0 
0.0 0.0 0.0 
-6.544105194022e-04 9.405127610726e-04 0.0 
9.405127610726e-04 1.369149395981e-02 0.0 
0.0 0.0 0.0 
1.030045725945e-03 3.790152454699e-04 0.0 
3.790152454699e-04 4.400320499967e-03 0.0 
0.0 0.0 0.0 
4.875694285968e-04 1.258850628496e-03 0.0 
1.258850628496e-03 5.049585074727e-03 0.0 
0.0 0.0 0.0 
-9.797803208497e-04 1.506336532097e-03 0.0 
1.506336532097e-03 1.177497214662e-02 0.0 
0.0 0.0 0.0 
1.825022270694e-04 1.822656178531e-03 0.0 
1.822656178531e-03 7.415425946381e-03 0.0 
0.0 0.0 0.0 
2.981797232711e-04 -1.773106653055e-04 0.0 
-1.773106653055e-04 1.531316898027e-03 0.0 
0.0 0.0 0.0 
-3.058701194204e-04 8.345482746590e-04 0.0 
8.345482746590e-04 1.433592424380e-02 0.0 
0.0 0.0 0.0 
1.806558156341e-04 -1.811722438251e-04 0.0 
-1.811722438251e-04 1.327861120683e-03 0.0 
0.0 0.0 0.0 
4.499574425398e-04 1.610549806338e-03 0.0 
1.610549806338e-03 8.658384045804e-03 0.0 
0.0 0.0 0.0 
-3.894902713178e-04 3.665068267401e-04 0.0 
3.665068267401e-04 1.405128550549e-02 0.0 
0.0 0.0 0.0 
8.131732192935e-04 1.039986530091e-03 0.0 
1.039986530091e-03 6.744926083731e-03 0.0 
0.0 0.0 0.0 
-7.542667954092e-04 1.840640540794e-04 0.0 
1.840640540794e-04 1.256875383091e-02 0.0 
0.0 0.0 0.0 
-7.482864481019e-04 5.002481443347e-04 0.0 
5.002481443347e-04 1.362708173513e-02 0.0 
0.0 0.0 0.0 
9.600621916832e-04 3.034379247667e-04 0.0 
3.034379247667e-04 4.163679658311e-03 0.0 
0.0 0.0 0.0 
9.408742152612e-04 9.480553435837e-04 0.0 
9.480553435837e-04 5.677892333496e-03 0.0 
0.0 0.0 0.0 
-4.765809004732e-04 7.347847684973e-04 0.0 
7.347847684973e-04 1.404281804165e-02 0.0 
0.0 0.0 0.0 
7.611505456540e-04 4.672548413713e-04 0.0 
4.672548413713e-04 5.989914790959e-03 0.0 
0.0 0.0 0.0 
-8.406174642256e-04 4.031331443648e-04 0.0 
4.031331443648e-04 1.328892263160e-02 0.0 
0.0 0.0 0.0 
9.555323070936e-04 8.208747733104e-04 0.0 
8.208747733104e-04 6.020805765697e-03 0.0 
0.0 0.0 0.0 
4.177137080399e-04 -1.461024539677e-04 0.0 
-1.461024539677e-04 1.747928908098e-03 0.0 
0.0 0.0 0.0 
-8.498331861536e-04 5.190985627480e-04 0.0 
5.190985627480e-04 1.342697481658e-02 0.0 
0.0 0.0 0.0 
3.669168805431e-05 2.312524500005e-03 0.0 
2.312524500005e-03 1.124931077715e-02 0.0 
0.0 0.0 0.0 
4.999321429482e-04 8.895035947098e-04 0.0 
8.895035947098e-04 7.537261248068e-03 0.0 
0.0 0.0 0.0 
8.731100267838e-04 9.358709463957e-05 0.0 
9.358709463957e-05 3.725517580486e-03 0.0 
0.0 0.0 0.0 
-8.292647344781e-04 1.421468830082e-04 0.0 
1.421468830082e-04 1.257281668416e-02 0.0 
0.0 0.0 0.0 
-7.974950269770e-04 1.682527910066e-04 0.0 
1.682527910066e-04 1.235974249288e-02 0.0 
0.0 0.0 0.0 
8.943655162128e-04 1.564431153038e-04 0.0 
1.564431153038e-04 4.121156358530e-03 0.0 
0.0 0.0 0.0 
8.248090252507e-04 4.924821074745e-04 0.0 
4.924821074745e-04 5.812252471497e-03 0.0 
0.0 0.0 0.0 
8.058178885557e-04 5.997919152906e-04 0.0 
5.997919152906e-04 6.132139517584e-03 0.0 
0.0 0.0 0.0 
1.566863600020e-04 -2.282319372838e-04 0.0 
-2.282319372838e-04 1.175758964824e-03 0.0 
0.0 0.0 0.0 
7.309399594337e-04 6.343301401946e-04 0.0 
6.343301401946e-04 2.911197918593e-03 0.0 
0.0 0.0 0.0 
1.088780534008e-03 6.286023304752e-04 0.0 
6.286023304752e-04 4.393708987406e-03 0.0 
0.0 0.0 0.0 
9.627374024250e-04 3.348843271642e-04 0.0 
3.348843271642e-04 4.058055260885e-03 0.0 
0.0 0.0 0.0 
5.018492138962e-04 1.662360459727e-03 0.0 
1.662360459727e-03 6.557015154918e-03 0.0 
0.0 0.0 0.0 
-4.673488643809e-04 6.767979659717e-04 0.0 
6.767979659717e-04 1.424288816252e-02 0.0 
0.0 0.0 0.0 
-6.059528668740e-04 1.524471295329e-03 0.0 
1.524471295329e-03 1.305839056289e-02 0.0 
0.0 0.0 0.0 
-4.580799841181e-04 3.271147871251e-04 0.0 
3.271147871251e-04 1.405447274242e-02 0.0 
0.0 0.0 0.0 
-4.145641849376e-04 1.847217489431e-03 0.0 
1.847217489431e-03 8.360586931095e-03 0.0 
0.0 0.0 0.0 
-7.947418370675e-04 8.161936657762e-04 0.0 
8.161936657762e-04 1.340672595608e-02 0.0 
0.0 0.0 0.0 
7.499208375294e-04 4.032122356770e-04 0.0 
4.032122356770e-04 5.826255266537e-03 0.0 
0.0 0.0 0.0 
-4.192688380359e-04 5.864816730968e-04 0.0 
5.864816730968e-04 1.413289614652e-02 0.0 
0.0 0.0 0.0 
-9.451638365471e-04 5.354266671090e-04 0.0 
5.354266671090e-04 1.322016632318e-02 0.0 
0.0 0.0 0.0 
8.344355651706e-04 6.846779094480e-05 0.0 
6.846779094480e-05 3.999791101499e-03 0.0 
0.0 0.0 0.0 
1.076509448870e-03 6.913483314869e-04 0.0 
6.913483314869e-04 4.319740057741e-03 0.0 
0.0 0.0 0.0 
-7.296629877293e-04 5.322745876141e-04 0.0 
5.322745876141e-04 1.342503098872e-02 0.0 
0.0 0.0 0.0 
-6.230441353556e-04 5.924809882059e-04 0.0 
5.924809882059e-04 1.394641599510e-02 0.0 
0.0 0.0 0.0 
-6.471001522371e-04 4.184876610322e-04 0.0 
4.184876610322e-04 1.348311473120e-02 0.0 
0.0 0.0 0.0 
-7.303961237881e-04 4.237307112306e-04 0.0 
4.237307112306e-04 1.328615286509e-02 0.0 
0.0 0.0 0.0 
6.229154335247e-04 6.466273196399e-04 0.0 
6.466273196399e-04 6.814602091058e-03 0.0 
0.0 0.0 0.0 
4.623125612866e-04 1.643270791792e-03 0.0 
1.643270791792e-03 8.645790537145e-03 0.0 
0.0 0.0 0.0 
7.019347140811e-04 6.805673227384e-04 0.0 
6.805673227384e-04 6.635144204232e-03 0.0 
0.0 0.0 0.0 
8.787564918196e-04 3.183530062507e-04 0.0 
3.183530062507e-04 5.040270907708e-03 0.0 
0.0 0.0 0.0 
-1.050199560126e-03 1.353787585258e-03 0.0 
1.353787585258e-03 9.941102833867e-03 0.0 
0.0 0.0 0.0 
7.441770695524e-04 1.191959347995e-03 0.0 
1.191959347995e-03 7.185589366477e-03 0.0 
0.0 0.0 0.0 
-9.639926210000e-04 8.774200474004e-04 0.0 
8.774200474004e-04 1.291500235928e-02 0.0 
0.0 0.0 0.0 
4.131438010866e-04 -9.065702774050e-05 0.0 
-9.065702774050e-05 1.996990728309e-03 0.0 
0.0 0.0 0.0 
9.869459501353e-04 4.791865193223e-04 0.0 
4.791865193223e-04 4.418438008948e-03 0.0 
0.0 0.0 0.0 
1.080460916332e-03 6.679268512311e-04 0.0 
6.679268512311e-04 4.943797117650e-03 0.0 
0.0 0.0 0.0 
9.035059515163e-04 1.042943367521e-03 0.0 
1.042943367521e-03 6.162969204525e-03 0.0 
0.0 0.0 0.0 
6.556589653484e-04 2.109458533491e-04 0.0 
2.109458533491e-04 2.257152937573e-03 0.0 
0.0 0.0 0.0 
9.769387037490e-04 5.304764101972e-04 0.0 
5.304764101972e-04 4.347552067015e-03 0.0 
0.0 0.0 0.0 
8.442971372031e-04 1.138719861676e-03 0.0 
1.138719861676e-03 6.654707813181e-03 0.0 
0.0 0.0 0.0 
-8.155017614261e-04 1.675259048582e-03 0.0 
1.675259048582e-03 9.743780801260e-03 0.0 
0.0 0.0 0.0 
8.987594350851e-04 1.666998014713e-04 0.0 
1.666998014713e-04 4.149549293364e-03 0.0 
0.0 0.0 0.0 
-1.005489548889e-03 4.190806258787e-04 0.0 
4.190806258787e-04 1.287326728767e-02 0.0 
0.0 0.0 0.0 
-7.689683638007e-04 5.979269805137e-05 0.0 
5.979269805137e-05 1.171916968924e-02 0.0 
0.0 0.0 0.0 
-1.060426547517e-03 1.445640145806e-03 0.0 
1.445640145806e-03 2.132838803291e-03 0.0 
0.0 0.0 0.0 
8.388149013747e-04 2.357035586463e-04 0.0 
2.357035586463e-04 4.883974653188e-03 0.0 
0.0 0.0 0.0 
8.602361036678e-04 1.095854940217e-03 0.0 
1.095854940217e-03 6.807675747426e-03 0.0 
0.0 0.0 0.0 
-5.404775762825e-04 1.469594109927e-03 0.0 
1.469594109927e-03 1.337267094398e-02 0.0 
0.0 0.0 0.0 
1.063881521272e-03 9.351062041585e-04 0.0 
9.351062041585e-04 5.204719297122e-03 0.0 
0.0 0.0 0.0 
9.009184267943e-04 2.423392714733e-04 0.0 
2.423392714733e-04 4.587870004499e-03 0.0 
0.0 0.0 0.0 
-9.005293295925e-04 3.050853273388e-04 0.0 
3.050853273388e-04 1.293045753352e-02 0.0 
0.0 0.0 0.0 
-1.087145497664e-03 1.558464943046e-03 0.0 
1.558464943046e-03 3.486068020519e-03 0.0 
0.0 0.0 0.0 
8.959995506508e-04 1.145159069953e-03 0.0 
1.145159069953e-03 6.728612845876e-03 0.0 
0.0 0.0 0.0 
9.529860898780e-04 8.871235671424e-04 0.0 
8.871235671424e-04 5.705950178407e-03 0.0 
0.0 0.0 0.0 
-9.473330319036e-04 1.670999751288e-03 0.0 
1.670999751288e-03 1.031787973406e-02 0.0 
0.0 0.0 0.0 
7.300494319826e-04 5.109857020849e-04 0.0 
5.109857020849e-04 6.145976637133e-03 0.0 
0.0 0.0 0.0 
5.018709031883e-04 -1.495841691149e-04 0.0 
-1.495841691149e-04 2.114684942644e-03 0.0 
0.0 0.0 0.0 
6.984040426434e-04 6.266530298113e-04 0.0 
6.266530298113e-04 6.484967879986e-03 0.0 
0.0 0.0 0.0 
5.909375041817e-04 9.299155106137e-04 0.0 
9.299155106137e-04 7.355745508387e-03 0.0 
0.0 0.0 0.0 
9.156195171625e-04 1.196331733420e-03 0.0 
1.196331733420e-03 6.669830172266e-03 0.0 
0.0 0.0 0.0 
-7.488655904753e-04 3.918562922755e-04 0.0 
3.918562922755e-04 1.348666004925e-02 0.0 
0.0 0.0 0.0 
2.449609696800e-04 1.857467439086e-03 0.0 
1.857467439086e-03 9.350966151198e-03 0.0 
0.0 0.0 0.0 
5.199166993828e-04 8.466922832999e-04 0.0 
8.466922832999e-04 7.366582604691e-03 0.0 
0.0 0.0 0.0 
-1.065006862959e-03 1.567407275818e-03 0.0 
1.567407275818e-03 4.866616805361e-03 0.0 
0.0 0.0 0.0 
-9.269788961018e-04 4.117557454232e-04 0.0 
4.117557454232e-04 1.308494912319e-02 0.0 
0.0 0.0 0.0 
3.577770647514e-04 1.810023111760e-03 0.0 
1.810023111760e-03 9.151400331289e-03 0.0 
0.0 0.0 0.0 
-6.375515538776e-04 5.216539736124e-04 0.0 
5.216539736124e-04 1.362416507412e-02 0.0 
0.0 0.0 0.0 
9.861125148900e-04 1.107439754699e-03 0.0 
1.107439754699e-03 6.174027160993e-03 0.0 
0.0 0.0 0.0 
9.775666581426e-04 6.902716050727e-04 0.0 
6.902716050727e-04 4.756205472718e-03 0.0 
0.0 0.0 0.0 
7.771619946226e-04 1.110086437162e-04 0.0 
1.110086437162e-04 4.428646470715e-03 0.0 
0.0 0.0 0.0 
1.221713985944e-04 2.027268113515e-04 0.0 
2.027268113515e-04 1.398720281006e-03 0.0 
0.0 0.0 0.0 
-5.433529503980e-04 5.042730652933e-04 0.0 
5.042730652933e-04 1.381660151942e-02 0.0 
0.0 0.0 0.0 
4.445724203352e-04 -6.378135169217e-05 0.0 
-6.378135169217e-05 2.162553235654e-03 0.0 
0.0 0.0 0.0 
-1.009502607795e-03 1.502196974301e-03 0.0 
1.502196974301e-03 6.220248742530e-03 0.0 
0.0 0.0 0.0 
1.565523036451e-04 1.879543265668e-03 0.0 
1.879543265668e-03 9.492145204397e-03 0.0 
0.0 0.0 0.0 
-3.564439259068e-04 4.547352797588e-04 0.0 
4.547352797588e-04 1.419882007522e-02 0.0 
0.0 0.0 0.0 
3.922141931745e-04 -2.268944382600e-04 0.0 
-2.268944382600e-04 1.867008007381e-03 0.0 
0.0 0.0 0.0 
4.441733566618e-05 1.821340894816e-03 0.0 
1.821340894816e-03 8.482890937382e-03 0.0 
0.0 0.0 0.0 
-8.176756747916e-04 5.390970822117e-04 0.0 
5.390970822117e-04 1.321932598639e-02 0.0 
0.0 0.0 0.0 
7.924746251720e-04 7.866700924308e-05 0.0 
7.866700924308e-05 4.336573466261e-03 0.0 
0.0 0.0 0.0 
5.415090721905e-04 -7.540977663234e-07 0.0 
-7.540977663234e-07 2.291267078433e-03 0.0 
0.0 0.0 0.0 
5.977649348672e-04 1.289908433924e-03 0.0 
1.289908433924e-03 4.432643653236e-03 0.0 
0.0 0.0 0.0 
2.353721217481e-04 -1.771997513608e-04 0.0 
-1.771997513608e-04 1.401813748460e-03 0.0 
0.0 0.0 0.0 
4.810817161913e-04 -6.522142957854e-05 0.0 
-6.522142957854e-05 1.846631947242e-03 0.0 
0.0 0.0 0.0 
3.533253600849e-04 -1.278805721279e-04 0.0 
-1.278805721279e-04 1.620444306366e-03 0.0 
0.0 0.0 0.0 
1.035973338852e-03 1.020580447773e-03 0.0 
1.020580447773e-03 5.685606664831e-03 0.0 
0.0 0.0 0.0 
-2.322788882382e-04 1.281422883575e-03 0.0 
1.281422883575e-03 1.439594969863e-02 0.0 
0.0 0.0 0.0 
-9.378353015713e-04 1.431224261750e-03 0.0 
1.431224261750e-03 7.605445493272e-03 0.0 
0.0 0.0 0.0 
5.433126390670e-04 6.019834151089e-04 0.0 
6.019834151089e-04 6.998103710885e-03 0.0 
0.0 0.0 0.0 
1.003834133319e-03 8.533073181683e-04 0.0 
8.533073181683e-04 4.240509756133e-03 0.0 
0.0 0.0 0.0 
-1.033509138577e-03 5.543295139931e-04 0.0 
5.543295139931e-04 1.300649606749e-02 0.0 
0.0 0.0 0.0 
3.677271345015e-04 2.423676542262e-04 0.0 
2.423676542262e-04 1.780280227064e-03 0.0 
0.0 0.0 0.0 
4.392948610905e-04 9.840148334036e-04 0.0 
9.840148334036e-04 7.764089406093e-03 0.0 
0.0 0.0 0.0 
2.826373492051e-04 -2.822514325330e-04 0.0 
-2.822514325330e-04 1.635207848036e-03 0.0 
0.0 0.0 0.0 
5.271823368496e-04 -4.679428044816e-05 0.0 
-4.679428044816e-05 2.550796743809e-03 0.0 
0.0 0.0 0.0 
8.363422826854e-04 1.340989089996e-03 0.0 
1.340989089996e-03 7.136439059229e-03 0.0 
0.0 0.0 0.0 
9.477981355954e-04 2.784135855721e-04 0.0 
2.784135855721e-04 4.283056714509e-03 0.0 
0.0 0.0 0.0 
4.696130011108e-04 1.679754754563e-03 0.0 
1.679754754563e-03 8.657622447894e-03 0.0 
0.0 0.0 0.0 
2.313466819877e-04 1.531408936379e-03 0.0 
1.531408936379e-03 5.944105391415e-03 0.0 
0.0 0.0 0.0 
-1.019252408975e-03 8.699280117164e-04 0.0 
8.699280117164e-04 1.316637523924e-02 0.0 
0.0 0.0 0.0 
5.209777505186e-04 1.686635525229e-03 0.0 
1.686635525229e-03 8.646331537417e-03 0.0 
0.0 0.0 0.0 
-8.098092504168e-04 4.243252102589e-04 0.0 
4.243252102589e-04 1.308320353289e-02 0.0 
0.0 0.0 0.0 
-6.492743536579e-04 1.493571363717e-03 0.0 
1.493571363717e-03 1.336968563887e-02 0.0 
0.0 0.0 0.0 
-8.464808990475e-04 6.493016850551e-04 0.0 
6.493016850551e-04 1.354321042051e-02 0.0 
0.0 0.0 0.0 
-8.265742750683e-04 7.915518603506e-04 0.0 
7.915518603506e-04 1.363330938300e-02 0.0 
0.0 0.0 0.0 
4.309884479081e-04 7.097325202237e-04 0.0 
7.097325202237e-04 2.502883856445e-03 0.0 
0.0 0.0 0.0 
5.924509170010e-04 4.991314262842e-04 0.0 
4.991314262842e-04 6.669169814781e-03 0.0 
0.0 0.0 0.0 
-8.142816359884e-04 6.706997103508e-04 0.0 
6.706997103508e-04 1.332887470084e-02 0.0 
0.0 0.0 0.0 
9.257621265160e-04 1.254533772860e-03 0.0 
1.254533772860e-03 5.672006481551e-03 0.0 
0.0 0.0 0.0 
-1.245906038644e-03 1.318500220765e-03 0.0 
1.318500220765e-03 9.094880771368e-03 0.0 
0.0 0.0 0.0 
3.295991016454e-04 1.763409032106e-03 0.0 
1.763409032106e-03 9.137552062207e-03 0.0 
0.0 0.0 0.0 
6.677877502763e-04 4.616585534197e-04 0.0 
4.616585534197e-04 2.517752336578e-03 0.0 
0.0 0.0 0.0 
4.711623828053e-04 -1.453162628558e-04 0.0 
-1.453162628558e-04 2.381039295651e-03 0.0 
0.0 0.0 0.0 
6.474973335922e-04 1.623802931169e-03 0.0 
1.623802931169e-03 8.129937258727e-03 0.0 
0.0 0.0 0.0 
2.611295971964e-04 -5.439348362582e-05 0.0 
-5.439348362582e-05 1.415984736581e-03 0.0 
0.0 0.0 0.0 
4.953688147988e-04 1.573565369500e-03 0.0 
1.573565369500e-03 7.017143399695e-03 0.0 
0.0 0.0 0.0 
8.223234103979e-04 1.287459565219e-03 0.0 
1.287459565219e-03 7.172488352638e-03 0.0 
0.0 0.0 0.0 
-6.653254915172e-04 8.964706890922e-04 0.0 
8.964706890922e-04 1.391210848492e-02 0.0 
0.0 0.0 0.0 
-6.069139272651e-04 1.062480910655e-03 0.0 
1.062480910655e-03 1.395782778790e-02 0.0 
0.0 0.0 0.0 
7.633504205347e-04 1.236859835838e-03 0.0 
1.236859835838e-03 7.151984701481e-03 0.0 
0.0 0.0 0.0 
-7.360677120233e-04 6.230427955534e-04 0.0 
6.230427955534e-04 1.374715798383e-02 0.0 
0.0 0.0 0.0 
9.796499580432e-04 1.023293932635e-03 0.0 
1.023293932635e-03 4.702679528028e-03 0.0 
0.0 0.0 0.0 
-9.588322056431e-05 1.930663630669e-03 0.0 
1.930663630669e-03 1.025128539763e-02 0.0 
0.0 0.0 0.0 
-1.094824502849e-03 6.195883667923e-04 0.0 
6.195883667923e-04 1.024548947268e-02 0.0 
0.0 0.0 0.0 
-4.018989217692e-04 1.841230680446e-03 0.0 
1.841230680446e-03 1.239835684227e-02 0.0 
0.0 0.0 0.0 
-1.111439100740e-03 4.267411562638e-04 0.0 
4.267411562638e-04 1.078648862945e-02 0.0 
0.0 0.0 0.0 
-1.088888416026e-03 3.588033971557e-04 0.0 
3.588033971557e-04 1.101909530101e-02 0.0 
0.0 0.0 0.0 
1.037888051073e-03 1.010612257703e-03 0.0 
1.010612257703e-03 5.175965420198e-03 0.0 
0.0 0.0 0.0 
-1.113728469537e-03 3.498586403373e-04 0.0 
3.498586403373e-04 1.123683754437e-02 0.0 
0.0 0.0 0.0 
5.839771433354e-04 1.540503381841e-03 0.0 
1.540503381841e-03 7.321779790128e-03 0.0 
0.0 0.0 0.0 
7.131441103474e-04 1.283673017835e-03 0.0 
1.283673017835e-03 5.837473943442e-03 0.0 
0.0 0.0 0.0 
9.918723875744e-04 6.302368103021e-04 0.0 
6.302368103021e-04 4.806474845993e-03 0.0 
0.0 0.0 0.0 
5.404334519723e-04 7.641242761129e-05 0.0 
7.641242761129e-05 1.970996284218e-03 0.0 
0.0 0.0 0.0 
1.069226807432e-03 8.503605664609e-04 0.0 
8.503605664609e-04 4.731378051573e-03 0.0 
0.0 0.0 0.0 
-5.158238485411e-04 6.166441112462e-04 0.0 
6.166441112462e-04 1.394316080991e-02 0.0 
0.0 0.0 0.0 
-4.790144451454e-04 1.705373855107e-03 0.0 
1.705373855107e-03 1.297112223497e-02 0.0 
0.0 0.0 0.0 
6.954933882264e-04 4.393236260257e-04 0.0 
4.393236260257e-04 6.172956196658e-03 0.0 
0.0 0.0 0.0 
5.363557217091e-04 1.721066237255e-03 0.0 
1.721066237255e-03 8.633799553112e-03 0.0 
0.0 0.0 0.0 
1.051730474273e-03 4.045992659551e-04 0.0 
4.045992659551e-04 4.262724199653e-03 0.0 
0.0 0.0 0.0 
-6.952281044899e-04 7.932032718632e-04 0.0 
7.932032718632e-04 1.363263289006e-02 0.0 
0.0 0.0 0.0 
1.087516465431e-03 7.801492480385e-04 0.0 
7.801492480385e-04 4.783534571924e-03 0.0 
0.0 0.0 0.0 
5.220515803332e-04 4.659314935285e-04 0.0 
4.659314935285e-04 6.863717968339e-03 0.0 
0.0 0.0 0.0 
-7.184749080447e-04 6.565694940882e-04 0.0 
6.565694940882e-04 1.354191239184e-02 0.0 
0.0 0.0 0.0 
-9.293347775312e-04 8.285400280272e-04 0.0 
8.285400280272e-04 1.340571105008e-02 0.0 
0.0 0.0 0.0 
9.780508910169e-04 1.050936566688e-03 0.0 
1.050936566688e-03 6.227422722705e-03 0.0 
0.0 0.0 0.0 
1.033357353368e-03 9.315788233818e-04 0.0 
9.315788233818e-04 4.703659895573e-03 0.0 
0.0 0.0 0.0 
-8.615789045152e-05 1.984516069082e-03 0.0 
1.984516069082e-03 1.063136921414e-02 0.0 
0.0 0.0 0.0 
-6.379814511676e-04 1.752893010654e-03 0.0 
1.752893010654e-03 1.058415357382e-02 0.0 
0.0 0.0 0.0 
4.368610273404e-04 -1.207716827862e-04 0.0 
-1.207716827862e-04 2.003116829375e-03 0.0 
0.0 0.0 0.0 
5.636559213800e-04 2.214818702442e-04 0.0 
2.214818702442e-04 2.556879777328e-03 0.0 
0.0 0.0 0.0 
4.440772238083e-04 1.585229264666e-03 0.0 
1.585229264666e-03 5.683348149549e-03 0.0 
0.0 0.0 0.0 
1.448484302569e-05 1.875883486507e-03 0.0 
1.875883486507e-03 8.475417390845e-03 0.0 
0.0 0.0 0.0 
4.493455493486e-04 4.262915403794e-04 0.0 
4.262915403794e-04 7.067606181997e-03 0.0 
0.0 0.0 0.0 
-9.465504028212e-04 6.757249213056e-04 0.0 
6.757249213056e-04 1.332874435952e-02 0.0 
0.0 0.0 0.0 
9.475681252713e-04 7.609585401623e-04 0.0 
7.609585401623e-04 4.730270731896e-03 0.0 
0.0 0.0 0.0 
-1.111353862459e-04 1.869698065210e-03 0.0 
1.869698065210e-03 9.493527079708e-03 0.0 
0.0 0.0 0.0 
7.915583139213e-04 1.247453141252e-03 0.0 
1.247453141252e-03 7.244827851856e-03 0.0 
0.0 0.0 0.0 
-6.438375722683e-04 4.788027601842e-04 0.0 
4.788027601842e-04 1.382009786466e-02 0.0 
0.0 0.0 0.0 
-1.829472693018e-04 2.036782273276e-03 0.0 
2.036782273276e-03 1.116294832094e-02 0.0 
0.0 0.0 0.0 
-9.719203702117e-04 5.499197886247e-04 0.0 
5.499197886247e-04 1.278660114574e-02 0.0 
0.0 0.0 0.0 
7.382643331093e-04 1.015770402804e-03 0.0 
1.015770402804e-03 7.072979648062e-03 0.0 
0.0 0.0 0.0 
9.768203102467e-04 7.883219521364e-04 0.0 
7.883219521364e-04 5.227316604091e-03 0.0 
0.0 0.0 0.0 
7.080707894331e-04 1.145551048878e-03 0.0 
1.145551048878e-03 7.254410685952e-03 0.0 
0.0 0.0 0.0 
5.003668000649e-04 1.690876496036e-03 0.0 
1.690876496036e-03 6.999586843857e-03 0.0 
0.0 0.0 0.0 
-5.904893290419e-04 7.207183464562e-04 0.0 
7.207183464562e-04 1.404455786152e-02 0.0 
0.0 0.0 0.0 
-2.504676659765e-04 2.068040248980e-03 0.0 
2.068040248980e-03 1.170724537331e-02 0.0 
0.0 0.0 0.0 
1.037112427950e-03 9.591049591577e-04 0.0 
9.591049591577e-04 5.736589897394e-03 0.0 
0.0 0.0 0.0 
5.786596333128e-04 2.988942318815e-04 0.0 
2.988942318815e-04 2.168272349596e-03 0.0 
0.0 0.0 0.0 
3.642634193959e-04 1.899183689235e-03 0.0 
1.899183689235e-03 9.223619719755e-03 0.0 
0.0 0.0 0.0 
4.827894092250e-04 1.613986618307e-03 0.0 
1.613986618307e-03 7.458129541132e-03 0.0 
0.0 0.0 0.0 
9.001285504033e-04 8.436486226870e-04 0.0 
8.436486226870e-04 4.731176363403e-03 0.0 
0.0 0.0 0.0 
9.062288064223e-04 9.863672400269e-04 0.0 
9.863672400269e-04 6.192574952712e-03 0.0 
0.0 0.0 0.0 
7.155214754382e-04 7.850342068755e-04 0.0 
7.850342068755e-04 6.696344326466e-03 0.0 
0.0 0.0 0.0 
4.748889967645e-04 6.271217625110e-05 0.0 
6.271217625110e-05 2.207207381411e-03 0.0 
0.0 0.0 0.0 
1.073725166214e-03 8.688850354105e-04 0.0 
8.688850354105e-04 5.255553990174e-03 0.0 
0.0 0.0 0.0 
-9.293857901986e-04 1.427209751377e-03 0.0 
1.427209751377e-03 1.178536341041e-02 0.0 
0.0 0.0 0.0 
4.183523738570e-04 3.452822589771e-04 0.0 
3.452822589771e-04 7.079095137065e-03 0.0 
0.0 0.0 0.0 
-7.926423060886e-04 1.588727699903e-03 0.0 
1.588727699903e-03 1.160041182053e-02 0.0 
0.0 0.0 0.0 
2.844836604918e-04 1.922783050324e-03 0.0 
1.922783050324e-03 9.341256027957e-03 0.0 
0.0 0.0 0.0 
-1.037871891997e-03 1.240347601057e-03 0.0 
1.240347601057e-03 1.193618405106e-02 0.0 
0.0 0.0 0.0 
-1.145398414234e-03 8.260124780190e-04 0.0 
8.260124780190e-04 1.209033771266e-02 0.0 
0.0 0.0 0.0 
-4.538875555554e-04 1.836851278580e-03 0.0 
1.836851278580e-03 1.032764614943e-02 0.0 
0.0 0.0 0.0 
6.407631428436e-04 1.582277186712e-03 0.0 
1.582277186712e-03 8.133654069976e-03 0.0 
0.0 0.0 0.0 
6.080649250007e-04 4.526987051839e-04 0.0 
4.526987051839e-04 6.500412785321e-03 0.0 
0.0 0.0 0.0 
-9.018617503628e-04 6.870371052777e-04 0.0 
6.870371052777e-04 1.310525334907e-02 0.0 
0.0 0.0 0.0 
-4.946237760759e-04 1.058877969324e-03 0.0 
1.058877969324e-03 1.395783820102e-02 0.0 
0.0 0.0 0.0 
-1.113339543273e-03 1.036129267510e-03 0.0 
1.036129267510e-03 1.204127243800e-02 0.0 
0.0 0.0 0.0 
8.502124716037e-04 5.747508961732e-04 0.0 
5.747508961732e-04 3.819167620619e-03 0.0 
0.0 0.0 0.0 
1.983191196950e-04 1.935022044189e-03 0.0 
1.935022044189e-03 9.781933201802e-03 0.0 
0.0 0.0 0.0 
-5.079158104078e-04 5.599121281899e-04 0.0 
5.599121281899e-04 1.413625890140e-02 0.0 
0.0 0.0 0.0 
7.480408673424e-04 1.486136142566e-03 0.0 
1.486136142566e-03 6.274644006487e-03 0.0 
0.0 0.0 0.0 
6.264751107576e-04 1.612841552985e-03 0.0 
1.612841552985e-03 6.850038188767e-03 0.0 
0.0 0.0 0.0 
9.127436671512e-04 6.673928479254e-04 0.0 
6.673928479254e-04 4.270166254068e-03 0.0 
0.0 0.0 0.0 
-8.850596575704e-04 8.433855005953e-04 0.0 
8.433855005953e-04 1.316930389922e-02 0.0 
0.0 0.0 0.0 
-3.017039367004e-05 1.847161574428e-03 0.0 
1.847161574428e-03 7.292770743694e-03 0.0 
0.0 0.0 0.0 
6.964743811528e-04 1.583685017460e-03 0.0 
1.583685017460e-03 7.207110541915e-03 0.0 
0.0 0.0 0.0 
-2.585313678338e-05 1.767523320281e-03 0.0 
1.767523320281e-03 7.303580459450e-03 0.0 
0.0 0.0 0.0 
7.457562672548e-04 1.485810589841e-03 0.0 
1.485810589841e-03 7.625606039799e-03 0.0 
0.0 0.0 0.0 
1.361209328785e-04 2.031704561984e-03 0.0 
2.031704561984e-03 1.020480577154e-02 0.0 
0.0 0.0 0.0 
9.525854322618e-04 5.926920517691e-04 0.0 
5.926920517691e-04 4.297128884045e-03 0.0 
0.0 0.0 0.0 
3.022871723357e-05 -6.165926471371e-05 0.0 
-6.165926471371e-05 1.442077010324e-03 0.0 
0.0 0.0 0.0 
-5.212024164317e-04 1.273140735455e-03 0.0 
1.273140735455e-03 1.371879907775e-02 0.0 
0.0 0.0 0.0 
-2.214107752652e-04 1.869067173485e-03 0.0 
1.869067173485e-03 7.995750543804e-03 0.0 
0.0 0.0 0.0 
1.074796576860e-03 5.311407033589e-04 0.0 
5.311407033589e-04 4.589633388293e-03 0.0 
0.0 0.0 0.0 
3.276422788527e-04 1.996497744933e-03 0.0 
1.996497744933e-03 9.666224771625e-03 0.0 
0.0 0.0 0.0 
-1.037348630563e-03 7.064313811728e-04 0.0 
7.064313811728e-04 1.310342662108e-02 0.0 
0.0 0.0 0.0 
6.693562278095e-04 4.838932257833e-04 0.0 
4.838932257833e-04 6.319402702156e-03 0.0 
0.0 0.0 0.0 
7.871593191624e-04 1.116156090998e-03 0.0 
1.116156090998e-03 5.286305330134e-03 0.0 
0.0 0.0 0.0 
-2.990134308267e-05 7.713890011585e-05 0.0 
7.713890011585e-05 1.125607224603e-03 0.0 
0.0 0.0 0.0 
3.513831170301e-04 2.936183953956e-04 0.0 
2.936183953956e-04 7.318524411012e-03 0.0 
0.0 0.0 0.0 
1.867958025994e-04 1.845183413699e-03 0.0 
1.845183413699e-03 8.244490826685e-03 0.0 
0.0 0.0 0.0 
6.431741261868e-04 1.477293782906e-03 0.0 
1.477293782906e-03 7.658204112436e-03 0.0 
0.0 0.0 0.0 
6.230760853687e-05 2.060997671273e-03 0.0 
2.060997671273e-03 1.047518497979e-02 0.0 
0.0 0.0 0.0 
-3.605496513989e-04 6.365282845564e-05 0.0 
6.365282845564e-05 8.288102422986e-04 0.0 
0.0 0.0 0.0 
7.375179857128e-04 5.709402827327e-04 0.0 
5.709402827327e-04 6.305529111431e-03 0.0 
0.0 0.0 0.0 
5.659973853798e-04 8.882078461336e-04 0.0 
8.882078461336e-04 3.926419180077e-03 0.0 
0.0 0.0 0.0 
-1.117669434812e-03 5.748819955499e-04 0.0 
5.748819955499e-04 1.278424590610e-02 0.0 
0.0 0.0 0.0 
7.878443489104e-04 1.500764309842e-04 0.0 
1.500764309842e-04 4.777390960362e-03 0.0 
0.0 0.0 0.0 
1.048903079435e-03 7.658819407343e-04 0.0 
7.658819407343e-04 4.267761507164e-03 0.0 
0.0 0.0 0.0 
4.823298578758e-04 3.863360532292e-04 0.0 
3.863360532292e-04 6.876227989771e-03 0.0 
0.0 0.0 0.0 
6.043969693801e-04 1.651927580215e-03 0.0 
1.651927580215e-03 7.304701782531e-03 0.0 
0.0 0.0 0.0 
1.001989740473e-03 6.840984802205e-04 0.0 
6.840984802205e-04 3.815352643383e-03 0.0 
0.0 0.0 0.0 
4.685522820558e-05 1.835183928387e-03 0.0 
1.835183928387e-03 8.877789580567e-03 0.0 
0.0 0.0 0.0 
-1.202811824000e-04 -1.808347574629e-04 0.0 
-1.808347574629e-04 1.172626926971e-03 0.0 
0.0 0.0 0.0 
3.816564347514e-05 1.889761656139e-03 0.0 
1.889761656139e-03 9.671935494505e-03 0.0 
0.0 0.0 0.0 
6.740220360202e-04 1.387177252935e-03 0.0 
1.387177252935e-03 7.640773817681e-03 0.0 
0.0 0.0 0.0 
-2.759340504374e-04 2.019884693284e-03 0.0 
2.019884693284e-03 1.214979617721e-02 0.0 
0.0 0.0 0.0 
2.811491670140e-05 1.939049013583e-03 0.0 
1.939049013583e-03 1.007203056471e-02 0.0 
0.0 0.0 0.0 
7.095833841502e-04 3.070207394682e-04 0.0 
3.070207394682e-04 2.975311519868e-03 0.0 
0.0 0.0 0.0 
6.399779327677e-04 3.583704364875e-04 0.0 
3.583704364875e-04 6.186038669909e-03 0.0 
0.0 0.0 0.0 
-3.614481364925e-04 7.055122559753e-04 0.0 
7.055122559753e-04 1.424171839154e-02 0.0 
0.0 0.0 0.0 
2.039756918875e-04 1.906110120970e-03 0.0 
1.906110120970e-03 9.630337502743e-03 0.0 
0.0 0.0 0.0 
5.747440640671e-04 1.537154210493e-03 0.0 
1.537154210493e-03 8.143278793410e-03 0.0 
0.0 0.0 0.0 
8.626395090852e-04 1.018250049941e-03 0.0 
1.018250049941e-03 5.225308129035e-03 0.0 
0.0 0.0 0.0 
4.399191364501e-05 1.856116876410e-03 0.0 
1.856116876410e-03 9.275391969040e-03 0.0 
0.0 0.0 0.0 
4.252720805875e-04 2.930512375773e-04 0.0 
2.930512375773e-04 6.955813086341e-03 0.0 
0.0 0.0 0.0 
6.721130769431e-04 -1.738706497439e-05 0.0 
-1.738706497439e-05 4.328693786996e-03 0.0 
0.0 0.0 0.0 
1.763986949435e-04 1.928726744888e-03 0.0 
1.928726744888e-03 9.484998336125e-03 0.0 
0.0 0.0 0.0 
-8.993660889810e-04 5.439937874486e-04 0.0 
5.439937874486e-04 1.300723732483e-02 0.0 
0.0 0.0 0.0 
5.466419630968e-04 4.225536491396e-04 0.0 
4.225536491396e-04 6.681192681790e-03 0.0 
0.0 0.0 0.0 
6.335147627961e-04 5.974343775167e-04 0.0 
5.974343775167e-04 6.648419788109e-03 0.0 
0.0 0.0 0.0 
-7.033064492514e-04 -1.328657674673e-06 0.0 
-1.328657674673e-06 1.140241197895e-02 0.0 
0.0 0.0 0.0 
-6.942884971374e-04 3.614189299747e-06 0.0 
3.614189299747e-06 1.139471238438e-02 0.0 
0.0 0.0 0.0 
-1.013823927976e-03 1.418206404812e-03 0.0 
1.418206404812e-03 1.217357085178e-02 0.0 
0.0 0.0 0.0 
1.805917565196e-04 1.887827662885e-03 0.0 
1.887827662885e-03 9.071814803058e-03 0.0 
0.0 0.0 0.0 
7.546429925147e-04 1.479822196607e-04 0.0 
1.479822196607e-04 4.956895284816e-03 0.0 
0.0 0.0 0.0 
-5.642100620858e-04 1.813632631006e-03 0.0 
1.813632631006e-03 1.088035370032e-02 0.0 
0.0 0.0 0.0 
7.285680314939e-04 1.531413388417e-03 0.0 
1.531413388417e-03 6.737151970065e-03 0.0 
0.0 0.0 0.0 
5.716083022227e-04 1.275865191374e-03 0.0 
1.275865191374e-03 7.846561346964e-03 0.0 
0.0 0.0 0.0 
9.275835056450e-04 1.188973508216e-03 0.0 
1.188973508216e-03 5.199425990068e-03 0.0 
0.0 0.0 0.0 
-2.134152772906e-04 1.125843539826e-03 0.0 
1.125843539826e-03 1.450242545305e-02 0.0 
0.0 0.0 0.0 
-1.179726670962e-03 6.802134729920e-04 0.0 
6.802134729920e-04 1.180965083989e-02 0.0 
0.0 0.0 0.0 
6.070542519347e-04 1.488561762451e-03 0.0 
1.488561762451e-03 6.869124817346e-03 0.0 
0.0 0.0 0.0 
8.613334914476e-04 2.362668443624e-04 0.0 
2.362668443624e-04 4.763013731732e-03 0.0 
0.0 0.0 0.0 
6.306240464733e-04 3.971486969257e-04 0.0 
3.971486969257e-04 2.948870133963e-03 0.0 
0.0 0.0 0.0 
8.148954487264e-04 7.329328107612e-05 0.0 
7.329328107612e-05 4.164521995264e-03 0.0 
0.0 0.0 0.0 
1.844949271199e-04 1.861905580007e-03 0.0 
1.861905580007e-03 8.658424510054e-03 0.0 
0.0 0.0 0.0 
-1.556202250380e-04 1.891573989796e-03 0.0 
1.891573989796e-03 9.113643324083e-03 0.0 
0.0 0.0 0.0 
-9.811719563723e-04 7.081397598125e-04 0.0 
7.081397598125e-04 1.287227365048e-02 0.0 
0.0 0.0 0.0 
-3.914832285796e-04 1.865908235287e-03 0.0 
1.865908235287e-03 1.065517374111e-02 0.0 
0.0 0.0 0.0 
-5.024836438298e-04 1.843821324366e-03 0.0 
1.843821324366e-03 1.118513710298e-02 0.0 
0.0 0.0 0.0 
1.493255061451e-04 -6.933586597337e-05 0.0 
-6.933586597337e-05 1.024458471279e-03 0.0 
0.0 0.0 0.0 
8.534619874259e-04 9.834558530152e-05 0.0 
9.834558530152e-05 3.894965026908e-03 0.0 
0.0 0.0 0.0 
-1.923832291716e-04 1.833888642851e-03 0.0 
1.833888642851e-03 7.999753931090e-03 0.0 
0.0 0.0 0.0 
-7.334820083348e-04 1.670358448357e-03 0.0 
1.670358448357e-03 1.111554289457e-02 0.0 
0.0 0.0 0.0 
-8.264901741338e-04 1.655858157866e-03 0.0 
1.655858157866e-03 1.158740705920e-02 0.0 
0.0 0.0 0.0 
6.115501702315e-04 1.524867736433e-03 0.0 
1.524867736433e-03 8.143754644536e-03 0.0 
0.0 0.0 0.0 
3.021507925403e-04 3.225845748901e-05 0.0 
3.225845748901e-05 1.589368223771e-03 0.0 
0.0 0.0 0.0 
3.670758747387e-04 -7.237788926368e-05 0.0 
-7.237788926368e-05 1.903008548149e-03 0.0 
0.0 0.0 0.0 
3.482174794780e-04 1.781066493144e-03 0.0 
1.781066493144e-03 7.618643578738e-03 0.0 
0.0 0.0 0.0 
7.755294151512e-04 8.786714374875e-06 0.0 
8.786714374875e-06 3.908910997121e-03 0.0 
0.0 0.0 0.0 
-1.292060909424e-03 5.671067087887e-04 0.0 
5.671067087887e-04 1.097837440333e-02 0.0 
0.0 0.0 0.0 
-1.261038594296e-03 4.936870533703e-04 0.0 
4.936870533703e-04 1.121757504174e-02 0.0 
0.0 0.0 0.0 
-1.116111761262e-03 7.456900315463e-04 0.0 
7.456900315463e-04 1.286833396864e-02 0.0 
0.0 0.0 0.0 
1.944252473094e-04 5.778454660573e-04 0.0 
5.778454660573e-04 2.610257734933e-03 0.0 
0.0 0.0 0.0 
8.360176572468e-04 1.662911671711e-04 0.0 
1.662911671711e-04 4.500794401506e-03 0.0 
0.0 0.0 0.0 
7.715516340678e-04 1.000194862012e-03 0.0 
1.000194862012e-03 6.822703311086e-03 0.0 
0.0 0.0 0.0 
4.693079699261e-04 1.524100992920e-04 0.0 
1.524100992920e-04 1.853596676668e-03 0.0 
0.0 0.0 0.0 
3.148738877146e-05 2.169510744761e-03 0.0 
2.169510744761e-03 1.106726000153e-02 0.0 
0.0 0.0 0.0 
-7.091442634547e-04 7.549583289712e-04 0.0 
7.549583289712e-04 1.384218751371e-02 0.0 
0.0 0.0 0.0 
7.431985340736e-04 2.921999573003e-05 0.0 
2.921999573003e-05 4.260535967374e-03 0.0 
0.0 0.0 0.0 
6.299275957231e-04 4.113471332919e-04 0.0 
4.113471332919e-04 6.363543437370e-03 0.0 
0.0 0.0 0.0 
1.326467324716e-04 -9.115900314311e-05 0.0 
-9.115900314311e-05 7.074970583558e-04 0.0 
0.0 0.0 0.0 
8.225113118454e-04 8.512546733270e-04 0.0 
8.512546733270e-04 6.419909736411e-03 0.0 
0.0 0.0 0.0 
2.050114882564e-04 1.773817221199e-03 0.0 
1.773817221199e-03 8.254825215819e-03 0.0 
0.0 0.0 0.0 
1.431718035672e-04 -6.734289329406e-05 0.0 
-6.734289329406e-05 6.977134711983e-04 0.0 
0.0 0.0 0.0 
-5.876563653766e-04 7.659100466000e-04 0.0 
7.659100466000e-04 1.384097160808e-02 0.0 
0.0 0.0 0.0 
2.621446991458e-04 -4.890508272785e-06 0.0 
-4.890508272785e-06 1.821532751326e-03 0.0 
0.0 0.0 0.0 
-7.403688494458e-04 1.729833465429e-03 0.0 
1.729833465429e-03 1.110649661074e-02 0.0 
0.0 0.0 0.0 
-1.221235249468e-04 1.860061872546e-03 0.0 
1.860061872546e-03 9.117736089902e-03 0.0 
0.0 0.0 0.0 
9.848893251752e-04 4.365668069680e-04 0.0 
4.365668069680e-04 4.505916282597e-03 0.0 
0.0 0.0 0.0 
9.900605853028e-04 5.664693123433e-04 0.0 
5.664693123433e-04 5.324376942587e-03 0.0 
0.0 0.0 0.0 
-5.500673439062e-04 9.051603262406e-04 0.0 
9.051603262406e-04 1.391146471722e-02 0.0 
0.0 0.0 0.0 
9.316764597120e-04 6.600969348581e-04 0.0 
6.600969348581e-04 5.810623585561e-03 0.0 
0.0 0.0 0.0 
4.874767233773e-04 1.717366371166e-03 0.0 
1.717366371166e-03 7.442442008188e-03 0.0 
0.0 0.0 0.0 
3.565612116583e-04 1.685814106394e-03 0.0 
1.685814106394e-03 7.632632253179e-03 0.0 
0.0 0.0 0.0 
-9.897682228088e-04 1.307068470941e-03 0.0 
1.307068470941e-03 1.496028984592e-03 0.0 
0.0 0.0 0.0 
2.355903219962e-04 1.020777487880e-04 0.0 
1.020777487880e-04 1.494997924459e-03 0.0 
0.0 0.0 0.0 
1.294651512060e-04 1.946313041776e-03 0.0 
1.946313041776e-03 9.900843677495e-03 0.0 
0.0 0.0 0.0 
-1.237264627643e-03 8.520483717223e-04 0.0 
8.520483717223e-04 1.235574567544e-02 0.0 
0.0 0.0 0.0 
2.544052805955e-04 2.000307897058e-03 0.0 
2.000307897058e-03 9.769622733627e-03 0.0 
0.0 0.0 0.0 
6.363021555413e-04 1.123860788231e-03 0.0 
1.123860788231e-03 3.890325612819e-03 0.0 
0.0 0.0 0.0 
-7.612577022468e-04 1.399557829119e-03 0.0 
1.399557829119e-03 1.280396245402e-02 0.0 
0.0 0.0 0.0 
1.579834001886e-05 2.016571607053e-03 0.0 
2.016571607053e-03 1.047848291992e-02 0.0 
0.0 0.0 0.0 
-1.190985717795e-03 5.720613503915e-04 0.0 
5.720613503915e-04 1.129237891885e-02 0.0 
0.0 0.0 0.0 
1.639940345173e-04 1.979346813516e-03 0.0 
1.979346813516e-03 9.894824821002e-03 0.0 
0.0 0.0 0.0 
5.828193135269e-04 3.314136485795e-04 0.0 
3.314136485795e-04 6.376481759802e-03 0.0 
0.0 0.0 0.0 
3.245362157978e-04 1.827511448150e-03 0.0 
1.827511448150e-03 8.476068452225e-03 0.0 
0.0 0.0 0.0 
8.690033672061e-04 1.668279669321e-04 0.0 
1.668279669321e-04 4.322645344017e-03 0.0 
0.0 0.0 0.0 
8.191008011804e-04 1.505398997778e-04 0.0 
1.505398997778e-04 4.602376332443e-03 0.0 
0.0 0.0 0.0 
-6.583701739824e-04 1.292217851127e-03 0.0 
1.292217851127e-03 1.371616813748e-02 0.0 
0.0 0.0 0.0 
1.022614413302e-03 4.726164182956e-04 0.0 
4.726164182956e-04 4.854808847633e-03 0.0 
0.0 0.0 0.0 
2.377520134966e-05 1.884898279490e-03 0.0 
1.884898279490e-03 8.871107178632e-03 0.0 
0.0 0.0 0.0 
9.064235365073e-04 1.321690984894e-03 0.0 
1.321690984894e-03 6.152433904380e-03 0.0 
0.0 0.0 0.0 
8.410562814281e-04 7.514623638708e-04 0.0 
7.514623638708e-04 6.314306574585e-03 0.0 
0.0 0.0 0.0 
7.140530935466e-04 1.344758315297e-03 0.0 
1.344758315297e-03 6.295447756114e-03 0.0 
0.0 0.0 0.0 
8.772180738876e-04 4.395260448463e-04 0.0 
4.395260448463e-04 2.999666111064e-03 0.0 
0.0 0.0 0.0 
1.068751531464e-03 8.118801763951e-04 0.0 
8.118801763951e-04 5.326202480770e-03 0.0 
0.0 0.0 0.0 
9.246771768343e-04 6.045665418689e-04 0.0 
6.045665418689e-04 3.372669056852e-03 0.0 
0.0 0.0 0.0 
-5.631926155771e-04 1.786922337750e-03 0.0 
1.786922337750e-03 1.088415714922e-02 0.0 
0.0 0.0 0.0 
8.212485843504e-04 3.993043437849e-04 0.0 
3.993043437849e-04 3.405177337509e-03 0.0 
0.0 0.0 0.0 
-4.361013361865e-04 1.853906813574e-03 0.0 
1.853906813574e-03 1.032524812060e-02 0.0 
0.0 0.0 0.0 
5.635261013379e-04 1.491987422194e-03 0.0 
1.491987422194e-03 8.148002807651e-03 0.0 
0.0 0.0 0.0 
7.356078638296e-04 1.432695823399e-03 0.0 
1.432695823399e-03 7.641807160037e-03 0.0 
0.0 0.0 0.0 
8.497253788764e-04 1.344636669189e-03 0.0 
1.344636669189e-03 5.724263295710e-03 0.0 
0.0 0.0 0.0 
-1.043216482408e-03 7.350107495428e-04 0.0 
7.350107495428e-04 1.262274706572e-02 0.0 
0.0 0.0 0.0 
5.624843075049e-04 3.784632468299e-04 0.0 
3.784632468299e-04 6.560185511836e-03 0.0 
0.0 0.0 0.0 
5.257453710203e-04 2.998470703964e-04 0.0 
2.998470703964e-04 6.573049886410e-03 0.0 
0.0 0.0 0.0 
-4.690022477472e-05 5.487122868502e-04 0.0 
5.487122868502e-04 2.226375248817e-03 0.0 
0.0 0.0 0.0 
-2.731501879516e-04 1.890745022243e-03 0.0 
1.890745022243e-03 1.008622451860e-02 0.0 
0.0 0.0 0.0 
3.744491945696e-04 3.886070936228e-04 0.0 
3.886070936228e-04 7.296630841501e-03 0.0 
0.0 0.0 0.0 
-5.604599881128e-04 1.737760239317e-03 0.0 
1.737760239317e-03 7.727770685336e-03 0.0 
0.0 0.0 0.0 
7.416367270496e-04 8.575487720812e-05 0.0 
8.575487720812e-05 4.692738375478e-03 0.0 
0.0 0.0 0.0 
-8.745989613620e-04 1.035803037702e-03 0.0 
1.035803037702e-03 2.115054104413e-03 0.0 
0.0 0.0 0.0 
4.959830806190e-04 3.409333990654e-04 0.0 
3.409333990654e-04 6.760606830938e-03 0.0 
0.0 0.0 0.0 
8.147747563496e-04 5.289009901206e-04 0.0 
5.289009901206e-04 2.940438625207e-03 0.0 
0.0 0.0 0.0 
6.832562209691e-04 3.886952382305e-05 0.0 
3.886952382305e-05 4.462946654254e-03 0.0 
0.0 0.0 0.0 
7.156637118018e-04 1.593659084479e-03 0.0 
1.593659084479e-03 7.644050707985e-03 0.0 
0.0 0.0 0.0 
-1.186299635026e-03 7.886238881520e-04 0.0 
7.886238881520e-04 1.261638822559e-02 0.0 
0.0 0.0 0.0 
-1.113378923314e-03 7.788435632268e-04 0.0 
7.788435632268e-04 1.236475337703e-02 0.0 
0.0 0.0 0.0 
3.380004242253e-04 1.801578686810e-03 0.0 
1.801578686810e-03 8.048328054759e-03 0.0 
0.0 0.0 0.0 
-1.355208315480e-03 8.342577248475e-04 0.0 
8.342577248475e-04 1.048557563031e-02 0.0 
0.0 0.0 0.0 
-1.309324438026e-03 6.886219777376e-04 0.0 
6.886219777376e-04 1.074635097535e-02 0.0 
0.0 0.0 0.0 
4.700498845336e-04 2.637679472038e-04 0.0 
2.637679472038e-04 6.773447861568e-03 0.0 
0.0 0.0 0.0 
8.835619741268e-04 5.793823831572e-04 0.0 
5.793823831572e-04 5.677451719658e-03 0.0 
0.0 0.0 0.0 
9.827149222530e-04 5.399321904093e-04 0.0 
5.399321904093e-04 4.965584408810e-03 0.0 
0.0 0.0 0.0 
9.159992138561e-04 9.597678616496e-04 0.0 
9.597678616496e-04 6.406025296321e-03 0.0 
0.0 0.0 0.0 
1.090642247754e-03 7.197255706502e-04 0.0 
7.197255706502e-04 4.855903144037e-03 0.0 
0.0 0.0 0.0 
7.576211087699e-04 4.838798537066e-04 0.0 
4.838798537066e-04 3.377963581832e-03 0.0 
0.0 0.0 0.0 
-1.054271239412e-03 4.488448296692e-04 0.0 
4.488448296692e-04 1.056971243457e-02 0.0 
0.0 0.0 0.0 
-1.279601141722e-03 7.186155334385e-04 0.0 
7.186155334385e-04 1.206199258546e-02 0.0 
0.0 0.0 0.0 
-7.071692471028e-04 -1.027671328875e-06 0.0 
-1.027671328875e-06 1.140420237657e-02 0.0 
0.0 0.0 0.0 
6.601908986559e-04 1.341563806574e-03 0.0 
1.341563806574e-03 7.655093928513e-03 0.0 
0.0 0.0 0.0 
8.000499855645e-04 1.186628348742e-03 0.0 
1.186628348742e-03 5.747422972679e-03 0.0 
0.0 0.0 0.0 
4.252735400856e-04 1.829017000318e-03 0.0 
1.829017000318e-03 9.123665040300e-03 0.0 
0.0 0.0 0.0 
4.658280535283e-04 1.400837896196e-04 0.0 
1.400837896196e-04 6.617897516719e-03 0.0 
0.0 0.0 0.0 
9.827507230342e-04 7.324574180965e-04 0.0 
7.324574180965e-04 5.277614212255e-03 0.0 
0.0 0.0 0.0 
2.671638481540e-04 3.807425955502e-04 0.0 
3.807425955502e-04 7.628408061399e-03 0.0 
0.0 0.0 0.0 
8.670007704132e-04 3.312562690384e-04 0.0 
3.312562690384e-04 3.461021478858e-03 0.0 
0.0 0.0 0.0 
4.319005803788e-04 1.856410057322e-03 0.0 
1.856410057322e-03 9.126561499276e-03 0.0 
0.0 0.0 0.0 
3.431575440342e-04 1.716789409196e-03 0.0 
1.716789409196e-03 8.061056663678e-03 0.0 
0.0 0.0 0.0 
4.408188028644e-04 1.783655170014e-03 0.0 
1.783655170014e-03 8.323520883561e-03 0.0 
0.0 0.0 0.0 
5.925162966720e-04 1.067188989663e-03 0.0 
1.067188989663e-03 7.481508641028e-03 0.0 
0.0 0.0 0.0 
7.396323506910e-04 -8.578303424480e-05 0.0 
-8.578303424480e-05 3.175001989584e-03 0.0 
0.0 0.0 0.0 
-1.324069393153e-04 1.902200622869e-03 0.0 
1.902200622869e-03 9.489889600042e-03 0.0 
0.0 0.0 0.0 
9.934599380068e-04 5.812899316131e-04 0.0 
5.812899316131e-04 4.877554039169e-03 0.0 
0.0 0.0 0.0 
-2.850733448883e-04 1.871071340396e-03 0.0 
1.871071340396e-03 9.733653182702e-03 0.0 
0.0 0.0 0.0 
5.422258553285e-04 1.073246869498e-03 0.0 
1.073246869498e-03 4.464616954840e-03 0.0 
0.0 0.0 0.0 
5.392416302314e-04 1.752590111294e-03 0.0 
1.752590111294e-03 8.223871321763e-03 0.0 
0.0 0.0 0.0 
1.087426940996e-03 5.748798621329e-04 0.0 
5.748798621329e-04 4.483154010748e-03 0.0 
0.0 0.0 0.0 
8.191299491485e-04 2.293685134208e-04 0.0 
2.293685134208e-04 4.942946670667e-03 0.0 
0.0 0.0 0.0 
-3.158691262730e-04 1.874350804475e-03 0.0 
1.874350804475e-03 9.733352462550e-03 0.0 
0.0 0.0 0.0 
-6.335365044413e-04 5.849844328623e-04 0.0 
5.849844328623e-04 1.378104308818e-03 0.0 
0.0 0.0 0.0 
8.698799724569e-04 1.391592170373e-03 0.0 
1.391592170373e-03 6.639112708509e-03 0.0 
0.0 0.0 0.0 
-5.400329528406e-04 9.280084947506e-04 0.0 
9.280084947506e-04 2.487642258837e-03 0.0 
0.0 0.0 0.0 
1.570600817076e-04 -1.069858707004e-04 0.0 
-1.069858707004e-04 1.119061249480e-03 0.0 
0.0 0.0 0.0 
8.006658534294e-04 1.635803945497e-04 0.0 
1.635803945497e-04 4.678655990561e-03 0.0 
0.0 0.0 0.0 
-2.125930094009e-04 1.952338689210e-03 0.0 
1.952338689210e-03 1.080648723327e-02 0.0 
0.0 0.0 0.0 
-1.083492211172e-03 9.639630430981e-04 0.0 
9.639630430981e-04 1.235403323879e-02 0.0 
0.0 0.0 0.0 
-1.365650369797e-03 1.298536643709e-03 0.0 
1.298536643709e-03 9.730354859968e-03 0.0 
0.0 0.0 0.0 
0.0 1.158142616849e-03 0.0 
1.158142616849e-03 1.445907713539e-02 0.0 
0.0 0.0 0.0 
-9.243867690252e-04 1.099513184834e-03 0.0 
1.099513184834e-03 8.971216902103e-04 0.0 
0.0 0.0 0.0 
-1.353704568800e-03 1.053012165912e-03 0.0 
1.053012165912e-03 1.017545443160e-02 0.0 
0.0 0.0 0.0 
1.058655018295e-03 6.238401961578e-04 0.0 
6.238401961578e-04 5.048152201740e-03 0.0 
0.0 0.0 0.0 
7.238379508010e-04 3.548368342090e-05 0.0 
3.548368342090e-05 4.441345580622e-03 0.0 
0.0 0.0 0.0 
-1.203211943470e-03 1.420914729636e-03 0.0 
1.420914729636e-03 1.040471014013e-02 0.0 
0.0 0.0 0.0 
9.678027804474e-04 2.604259384075e-04 0.0 
2.604259384075e-04 3.288012808179e-03 0.0 
0.0 0.0 0.0 
9.299327162153e-04 4.781415919884e-04 0.0 
4.781415919884e-04 5.194683257073e-03 0.0 
0.0 0.0 0.0 
1.943488015577e-04 1.798434144973e-03 0.0 
1.798434144973e-03 8.667877622519e-03 0.0 
0.0 0.0 0.0 
8.156034838545e-04 1.466813548392e-03 0.0 
1.466813548392e-03 7.132952239214e-03 0.0 
0.0 0.0 0.0 
-4.027992408939e-04 1.866813683073e-03 0.0 
1.866813683073e-03 1.197433790356e-02 0.0 
0.0 0.0 0.0 
2.027030790750e-04 6.844102507402e-04 0.0 
6.844102507402e-04 2.102143851747e-03 0.0 
0.0 0.0 0.0 
8.048002835701e-04 1.082575440774e-04 0.0 
1.082575440774e-04 4.247946473861e-03 0.0 
0.0 0.0 0.0 
7.485646315166e-04 1.116086642553e-04 0.0 
1.116086642553e-04 4.613550953297e-03 0.0 
0.0 0.0 0.0 
5.092602426027e-04 -2.225197441806e-04 0.0 
-2.225197441806e-04 2.322706749359e-03 0.0 
0.0 0.0 0.0 
-1.183341499215e-03 5.250142518906e-04 0.0 
5.250142518906e-04 1.154765014161e-02 0.0 
0.0 0.0 0.0 
-1.197310761479e-03 1.046855869332e-03 0.0 
1.046855869332e-03 1.234297107265e-02 0.0 
0.0 0.0 0.0 
5.653607446039e-04 -3.283757485970e-07 0.0 
-3.283757485970e-07 5.898878930122e-03 0.0 
0.0 0.0 0.0 
7.303424569538e-05 -7.440792444538e-05 0.0 
-7.440792444538e-05 7.110492876841e-04 0.0 
0.0 0.0 0.0 
-5.708035908251e-04 -1.319353351774e-04 0.0 
-1.319353351774e-04 7.316922229794e-04 0.0 
0.0 0.0 0.0 
2.752870526352e-04 -2.692743699451e-04 0.0 
-2.692743699451e-04 1.608389246059e-03 0.0 
0.0 0.0 0.0 
7.046820002372e-04 3.862674631574e-05 0.0 
3.862674631574e-05 4.625769218883e-03 0.0 
0.0 0.0 0.0 
9.357557713781e-04 4.308717788316e-04 0.0 
4.308717788316e-04 3.899903915320e-03 0.0 
0.0 0.0 0.0 
8.430875275414e-04 1.393683626268e-04 0.0 
1.393683626268e-04 3.206110825124e-03 0.0 
0.0 0.0 0.0 
7.695634592462e-04 2.341770945437e-04 0.0 
2.341770945437e-04 3.030971258330e-03 0.0 
0.0 0.0 0.0 
7.642627455249e-04 1.596697687336e-04 0.0 
1.596697687336e-04 4.862450786782e-03 0.0 
0.0 0.0 0.0 
-9.303590517025e-04 1.342856650385e-03 0.0 
1.342856650385e-03 1.218746083829e-02 0.0 
0.0 0.0 0.0 
7.194450907899e-04 1.083561898194e-04 0.0 
1.083561898194e-04 4.801407836619e-03 0.0 
0.0 0.0 0.0 
1.038840824540e-03 6.053579581880e-04 0.0 
6.053579581880e-04 3.870704312890e-03 0.0 
0.0 0.0 0.0 
-2.633943414688e-04 1.881246355124e-03 0.0 
1.881246355124e-03 1.008741932987e-02 0.0 
0.0 0.0 0.0 
-9.196640050052e-04 2.050957708968e-04 0.0 
2.050957708968e-04 1.211173180404e-02 0.0 
0.0 0.0 0.0 
6.362343093052e-04 1.669037557873e-03 0.0 
1.669037557873e-03 8.149860506837e-03 0.0 
0.0 0.0 0.0 
6.851485176596e-04 3.693251129716e-05 0.0 
3.693251129716e-05 4.813590601349e-03 0.0 
0.0 0.0 0.0 
7.143593362453e-04 8.467093835637e-05 0.0 
8.467093835637e-05 4.875976591346e-03 0.0 
0.0 0.0 0.0 
-1.113787748301e-03 1.443847906372e-03 0.0 
1.443847906372e-03 8.274092377475e-03 0.0 
0.0 0.0 0.0 
9.555007337831e-04 3.785679138136e-04 0.0 
3.785679138136e-04 3.971973915046e-03 0.0 
0.0 0.0 0.0 
6.901159977100e-04 9.937352725766e-05 0.0 
9.937352725766e-05 4.989605767659e-03 0.0 
0.0 0.0 0.0 
-5.865116836647e-04 4.518640570566e-05 0.0 
4.518640570566e-05 1.286526286838e-02 0.0 
0.0 0.0 0.0 
-6.340253141051e-04 4.027370327657e-05 0.0 
4.027370327657e-05 1.250083000623e-02 0.0 
0.0 0.0 0.0 
-1.207152312170e-03 1.487169653017e-03 0.0 
1.487169653017e-03 9.062783430195e-03 0.0 
0.0 0.0 0.0 
7.274449252239e-04 1.530233366674e-04 0.0 
1.530233366674e-04 5.051056779382e-03 0.0 
0.0 0.0 0.0 
7.913798408750e-04 -4.519388117657e-06 0.0 
-4.519388117657e-06 3.020919458867e-03 0.0 
0.0 0.0 0.0 
-2.530331947111e-04 1.230749215519e-03 0.0 
1.230749215519e-03 2.891314891545e-03 0.0 
0.0 0.0 0.0 
3.584829056389e-04 1.782034013093e-03 0.0 
1.782034013093e-03 9.144302272926e-03 0.0 
0.0 0.0 0.0 
2.615292414683e-04 -1.875968406474e-04 0.0 
-1.875968406474e-04 1.459513525055e-03 0.0 
0.0 0.0 0.0 
9.046452760673e-04 1.180876255156e-04 0.0 
1.180876255156e-04 3.132132995176e-03 0.0 
0.0 0.0 0.0 
7.591951917412e-04 1.326328679332e-03 0.0 
1.326328679332e-03 6.688799383741e-03 0.0 
0.0 0.0 0.0 
-1.048332851271e-03 7.595198995857e-04 0.0 
7.595198995857e-04 9.887293755622e-03 0.0 
0.0 0.0 0.0 
6.665623219733e-04 2.895133281773e-05 0.0 
2.895133281773e-05 5.007482766173e-03 0.0 
0.0 0.0 0.0 
4.185291893011e-04 -5.632412014604e-05 0.0 
-5.632412014604e-05 2.165402895320e-03 0.0 
0.0 0.0 0.0 
-1.292301182040e-03 5.537242073567e-04 0.0 
5.537242073567e-04 1.175724146661e-02 0.0 
0.0 0.0 0.0 
6.864823369068e-04 8.013296533793e-05 0.0 
8.013296533793e-05 5.064101954250e-03 0.0 
0.0 0.0 0.0 
9.725342561993e-04 4.047511675703e-04 0.0 
4.047511675703e-04 4.611589830103e-03 0.0 
0.0 0.0 0.0 
7.682162176845e-04 8.384499151635e-05 0.0 
8.384499151635e-05 4.514537189440e-03 0.0 
0.0 0.0 0.0 
-4.975982468144e-04 3.392798688817e-04 0.0 
3.392798688817e-04 1.235292272231e-03 0.0 
0.0 0.0 0.0 
-3.889246878452e-04 1.707252915888e-05 0.0 
1.707252915888e-05 1.394934291636e-02 0.0 
0.0 0.0 0.0 
9.227373637668e-04 2.056695136924e-04 0.0 
2.056695136924e-04 3.732163650756e-03 0.0 
0.0 0.0 0.0 
6.609674043472e-04 1.365459692290e-03 0.0 
1.365459692290e-03 7.797411805052e-03 0.0 
0.0 0.0 0.0 
4.180669257761e-04 1.707720196271e-03 0.0 
1.707720196271e-03 8.337780174422e-03 0.0 
0.0 0.0 0.0 
6.903578284665e-04 1.426850621548e-04 0.0 
1.426850621548e-04 5.242687842996e-03 0.0 
0.0 0.0 0.0 
6.592883554288e-04 7.205265146652e-05 0.0 
7.205265146652e-05 5.255066483642e-03 0.0 
0.0 0.0 0.0 
1.006008782553e-03 4.501854089152e-04 0.0 
4.501854089152e-04 3.507836658091e-03 0.0 
0.0 0.0 0.0 
-2.927671591513e-05 -1.765556951291e-04 0.0 
-1.765556951291e-04 1.026989894884e-03 0.0 
0.0 0.0 0.0 
-3.722763108226e-04 6.052956100578e-04 0.0 
6.052956100578e-04 1.181412942229e-03 0.0 
0.0 0.0 0.0 
6.538959902658e-04 1.256944247070e-04 0.0 
1.256944247070e-04 5.437073222885e-03 0.0 
0.0 0.0 0.0 
6.718963704386e-04 1.170698977076e-03 0.0 
1.170698977076e-03 7.485204121632e-03 0.0 
0.0 0.0 0.0 
7.276812155261e-04 -9.745718833946e-05 0.0 
-9.745718833946e-05 2.892532583941e-03 0.0 
0.0 0.0 0.0 
-1.043698192675e-04 1.921146142224e-03 0.0 
1.921146142224e-03 9.867433640286e-03 0.0 
0.0 0.0 0.0 
-4.158911897613e-04 1.701983054757e-03 0.0 
1.701983054757e-03 6.989698544342e-03 0.0 
0.0 0.0 0.0 
-3.947292630244e-04 1.872227640904e-03 0.0 
1.872227640904e-03 1.065430551137e-02 0.0 
0.0 0.0 0.0 
3.521185924631e-04 9.959494386590e-04 0.0 
9.959494386590e-04 8.192396822089e-03 0.0 
0.0 0.0 0.0 
-1.223808148780e-03 -2.138089620071e-05 0.0 
-2.138089620071e-05 6.490200785085e-04 0.0 
0.0 0.0 0.0 
0.0 1.005177344212e-04 0.0 
1.005177344212e-04 1.484945237760e-02 0.0 
0.0 0.0 0.0 
0.0 1.196767055295e-04 0.0 
1.196767055295e-04 8.278270114803e-03 0.0 
0.0 0.0 0.0 
-6.744059403400e-04 -3.216524954634e-05 0.0 
-3.216524954634e-05 1.184343373000e-02 0.0 
0.0 0.0 0.0 
8.688230996483e-04 7.563525714696e-05 0.0 
7.563525714696e-05 3.559384650861e-03 0.0 
0.0 0.0 0.0 
3.207257586748e-04 1.753821096102e-03 0.0 
1.753821096102e-03 8.488271175256e-03 0.0 
0.0 0.0 0.0 
9.012050643495e-04 4.948691628843e-04 0.0 
4.948691628843e-04 3.846200565376e-03 0.0 
0.0 0.0 0.0 
1.060420971246e-04 -1.935168561028e-04 0.0 
-1.935168561028e-04 9.761418675054e-04 0.0 
0.0 0.0 0.0 
-8.319665688667e-04 8.640046836433e-04 0.0 
8.640046836433e-04 1.493564063111e-03 0.0 
0.0 0.0 0.0 
-3.676079636329e-04 2.989829515265e-04 0.0 
2.989829515265e-04 1.423911744817e-02 0.0 
0.0 0.0 0.0 
-1.122982922398e-03 1.241067325634e-03 0.0 
1.241067325634e-03 1.228234270430e-02 0.0 
0.0 0.0 0.0 
-1.260617108669e-03 4.426032982115e-04 0.0 
4.426032982115e-04 1.146080940459e-02 0.0 
0.0 0.0 0.0 
6.545794538715e-05 2.423458687716e-03 0.0 
2.423458687716e-03 1.116576143707e-02 0.0 
0.0 0.0 0.0 
3.385585978382e-04 -5.685464916382e-05 0.0 
-5.685464916382e-05 1.794784201508e-03 0.0 
0.0 0.0 0.0 
8.873538315313e-05 2.359578572173e-03 0.0 
2.359578572173e-03 1.086667614071e-02 0.0 
0.0 0.0 0.0 
-1.022970783132e-03 1.162407079087e-03 0.0 
1.162407079087e-03 1.229503987052e-02 0.0 
0.0 0.0 0.0 
8.047785350673e-04 -1.536618476135e-05 0.0 
-1.536618476135e-05 3.431178400556e-03 0.0 
0.0 0.0 0.0 
4.666799253066e-04 1.746809890399e-03 0.0 
1.746809890399e-03 7.882991420666e-03 0.0 
0.0 0.0 0.0 
9.057002628070e-04 1.004140909056e-04 0.0 
1.004140909056e-04 3.266405979863e-03 0.0 
0.0 0.0 0.0 
-2.359419041562e-04 1.353804463089e-03 0.0 
1.353804463089e-03 3.492725804541e-03 0.0 
0.0 0.0 0.0 
8.297920059248e-04 1.931654552752e-05 0.0 
1.931654552752e-05 3.015058712115e-03 0.0 
0.0 0.0 0.0 
-8.104886117223e-04 1.511142503558e-03 0.0 
1.511142503558e-03 1.203829635167e-02 0.0 
0.0 0.0 0.0 
4.078291860583e-04 1.142744070665e-04 0.0 
1.142744070665e-04 6.896924166511e-03 0.0 
0.0 0.0 0.0 
9.745574083078e-04 2.235981478797e-04 0.0 
2.235981478797e-04 3.403992903129e-03 0.0 
0.0 0.0 0.0 
-2.252938377035e-04 1.922043452382e-03 0.0 
1.922043452382e-03 1.043990353961e-02 0.0 
0.0 0.0 0.0 
-8.303052646345e-04 -4.773136054334e-05 0.0 
-4.773136054334e-05 4.336843559136e-04 0.0 
0.0 0.0 0.0 
1.023307123405e-03 3.915120624298e-04 0.0 
3.915120624298e-04 3.598088076834e-03 0.0 
0.0 0.0 0.0 
-9.758423416366e-04 1.273238067275e-03 0.0 
1.273238067275e-03 1.287175369692e-02 0.0 
0.0 0.0 0.0 
7.521439183436e-04 -4.111371982280e-05 0.0 
-4.111371982280e-05 2.918033182594e-03 0.0 
0.0 0.0 0.0 
6.473167858378e-04 -1.634882116898e-04 0.0 
-1.634882116898e-04 2.648306495412e-03 0.0 
0.0 0.0 0.0 
4.575036422709e-04 1.656968962252e-03 0.0 
1.656968962252e-03 7.897778834445e-03 0.0 
0.0 0.0 0.0 
3.057402242439e-04 -1.149222100964e-04 0.0 
-1.149222100964e-04 1.479922515488e-03 0.0 
0.0 0.0 0.0 
-1.058241060363e-03 1.388079530135e-03 0.0 
1.388079530135e-03 6.854178610252e-03 0.0 
0.0 0.0 0.0 
-1.076898557413e-03 1.526315104533e-03 0.0 
1.526315104533e-03 7.593758514411e-03 0.0 
0.0 0.0 0.0 
6.598711679546e-04 -9.718017391361e-05 0.0 
-9.718017391361e-05 2.541148446966e-03 0.0 
0.0 0.0 0.0 
9.604092649564e-04 5.070367312073e-04 0.0 
5.070367312073e-04 5.070922691483e-03 0.0 
0.0 0.0 0.0 
8.376355862685e-04 1.401331144608e-03 0.0 
1.401331144608e-03 6.194582857728e-03 0.0 
0.0 0.0 0.0 
-2.374414270405e-04 1.906230825083e-03 0.0 
1.906230825083e-03 1.044174776656e-02 0.0 
0.0 0.0 0.0 
-3.334403296393e-04 1.811361504852e-03 0.0 
1.811361504852e-03 1.282054222910e-02 0.0 
0.0 0.0 0.0 
-9.440356154873e-04 1.356499270692e-03 0.0 
1.356499270692e-03 8.290482491612e-03 0.0 
0.0 0.0 0.0 
-5.289356363939e-04 -4.156868935784e-06 0.0 
-4.156868935784e-06 1.324414955887e-02 0.0 
0.0 0.0 0.0 
-6.027231623906e-05 2.091586652302e-03 0.0 
2.091586652302e-03 1.151122604146e-02 0.0 
0.0 0.0 0.0 
9.739770592840e-04 5.211932251524e-04 0.0 
5.211932251524e-04 3.430537874650e-03 0.0 
0.0 0.0 0.0 
-6.002190033846e-04 1.296972212162e-03 0.0 
1.296972212162e-03 2.501048225928e-03 0.0 
0.0 0.0 0.0 
-5.836145932430e-04 1.745453092829e-03 0.0 
1.745453092829e-03 7.726587132376e-03 0.0 
0.0 0.0 0.0 
9.519440514039e-04 3.783887752882e-04 0.0 
3.783887752882e-04 4.731578651896e-03 0.0 
0.0 0.0 0.0 
-4.762007878131e-04 1.833152162494e-03 0.0 
1.833152162494e-03 1.118638259363e-02 0.0 
0.0 0.0 0.0 
1.051622096374e-03 4.974677225174e-04 0.0 
4.974677225174e-04 4.712937073168e-03 0.0 
0.0 0.0 0.0 
-1.657597905447e-04 4.509593856295e-04 0.0 
4.509593856295e-04 1.881299320750e-03 0.0 
0.0 0.0 0.0 
9.224664834013e-04 6.066428356516e-04 0.0 
6.066428356516e-04 5.542615016211e-03 0.0 
0.0 0.0 0.0 
-2.590181694843e-04 1.476498302817e-03 0.0 
1.476498302817e-03 4.147099206931e-03 0.0 
0.0 0.0 0.0 
7.900849092464e-04 1.256386072453e-03 0.0 
1.256386072453e-03 6.215522814652e-03 0.0 
0.0 0.0 0.0 
1.029643973665e-03 5.934817710762e-04 0.0 
5.934817710762e-04 5.176311460959e-03 0.0 
0.0 0.0 0.0 
5.721775051173e-04 1.696105294972e-03 0.0 
1.696105294972e-03 7.762481911612e-03 0.0 
0.0 0.0 0.0 
-6.385680726583e-04 5.367654764280e-05 0.0 
5.367654764280e-05 1.278367356696e-02 0.0 
0.0 0.0 0.0 
5.840105197201e-04 -1.947796002771e-04 0.0 
-1.947796002771e-04 2.554837510960e-03 0.0 
0.0 0.0 0.0 
-2.590926730494e-04 1.065645489460e-03 0.0 
1.065645489460e-03 2.323071166329e-03 0.0 
0.0 0.0 0.0 
9.820942702903e-04 6.904330021745e-04 0.0 
6.904330021745e-04 5.660273278498e-03 0.0 
0.0 0.0 0.0 
-2.621353385815e-04 1.544955116491e-03 0.0 
1.544955116491e-03 4.799949752579e-03 0.0 
0.0 0.0 0.0 
-4.929178852533e-04 1.435798890386e-04 0.0 
1.435798890386e-04 7.027029343118e-04 0.0 
0.0 0.0 0.0 
-2.459428330293e-04 7.285557922865e-05 0.0 
7.285557922865e-05 1.428265991483e-02 0.0 
0.0 0.0 0.0 
-3.577172779012e-04 6.602014561726e-05 0.0 
6.602014561726e-05 1.395126792247e-02 0.0 
0.0 0.0 0.0 
-1.992591020679e-04 -1.471503010086e-04 0.0 
-1.471503010086e-04 4.755361316147e-04 0.0 
0.0 0.0 0.0 
8.599628835719e-04 7.085342987571e-04 0.0 
7.085342987571e-04 6.034390453223e-03 0.0 
0.0 0.0 0.0 
3.970240425939e-04 -2.514098285221e-04 0.0 
-2.514098285221e-04 1.962843256034e-03 0.0 
0.0 0.0 0.0 
4.857830772700e-04 -1.422073012516e-04 0.0 
-1.422073012516e-04 2.094937651131e-03 0.0 
0.0 0.0 0.0 
-1.751819842382e-04 1.972560100446e-03 0.0 
1.972560100446e-03 1.080515644201e-02 0.0 
0.0 0.0 0.0 
5.441799560437e-04 1.594635232515e-03 0.0 
1.594635232515e-03 7.776385120918e-03 0.0 
0.0 0.0 0.0 
-7.521306176961e-05 1.960390185714e-03 0.0 
1.960390185714e-03 1.024740380661e-02 0.0 
0.0 0.0 0.0 
9.158977305834e-04 2.366893006566e-04 0.0 
2.366893006566e-04 3.627479101790e-03 0.0 
0.0 0.0 0.0 
-7.293891726672e-04 4.915276239241e-06 0.0 
4.915276239241e-06 1.141501025596e-02 0.0 
0.0 0.0 0.0 
1.701942227634e-04 8.122451032688e-04 0.0 
8.122451032688e-04 8.082192312481e-03 0.0 
0.0 0.0 0.0 
3.644835596981e-04 -1.632482607858e-04 0.0 
-1.632482607858e-04 1.731927698843e-03 0.0 
0.0 0.0 0.0 
6.212996521886e-04 1.298924973133e-03 0.0 
1.298924973133e-03 7.685954245403e-03 0.0 
0.0 0.0 0.0 
6.946976552298e-04 1.404530647906e-03 0.0 
1.404530647906e-03 6.758158807809e-03 0.0 
0.0 0.0 0.0 
2.730427247946e-04 -3.187506830565e-05 0.0 
-3.187506830565e-05 1.345444779321e-03 0.0 
0.0 0.0 0.0 
-6.371189970054e-04 1.721568060449e-03 0.0 
1.721568060449e-03 1.139076723654e-02 0.0 
0.0 0.0 0.0 
1.060749500764e-03 5.381173662735e-04 0.0 
5.381173662735e-04 3.943664829529e-03 0.0 
0.0 0.0 0.0 
-7.199422208981e-05 -2.046000335313e-04 0.0 
-2.046000335313e-04 7.972734700286e-04 0.0 
0.0 0.0 0.0 
9.510152239711e-04 3.073129268512e-04 0.0 
3.073129268512e-04 3.181098798680e-03 0.0 
0.0 0.0 0.0 
6.021188113461e-04 3.691362410310e-05 0.0 
3.691362410310e-05 5.692921616265e-03 0.0 
0.0 0.0 0.0 
-8.780375865115e-04 1.577036957651e-03 0.0 
1.577036957651e-03 1.202380729552e-02 0.0 
0.0 0.0 0.0 
1.526530057037e-04 -3.017543765448e-04 0.0 
-3.017543765448e-04 1.347016428244e-03 0.0 
0.0 0.0 0.0 
6.777220915091e-04 -8.222014332194e-06 0.0 
-8.222014332194e-06 4.473166371876e-03 0.0 
0.0 0.0 0.0 
-3.227089189812e-04 1.915297712384e-03 0.0 
1.915297712384e-03 1.099113231670e-02 0.0 
0.0 0.0 0.0 
4.589957129340e-04 1.712353640119e-03 0.0 
1.712353640119e-03 8.682616591782e-03 0.0 
0.0 0.0 0.0 
7.472998496894e-04 -4.906500729052e-05 0.0 
-4.906500729052e-05 2.770145411551e-03 0.0 
0.0 0.0 0.0 
4.361775009296e-04 5.096298239627e-06 0.0 
5.096298239627e-06 2.166759985955e-03 0.0 
0.0 0.0 0.0 
8.115179984685e-04 1.460245339250e-03 0.0 
1.460245339250e-03 6.670055589535e-03 0.0 
0.0 0.0 0.0 
-6.070171697363e-04 -3.165257324605e-05 0.0 
-3.165257324605e-05 1.265324839153e-02 0.0 
0.0 0.0 0.0 
-1.133276595630e-04 -2.163072778673e-04 0.0 
-2.163072778673e-04 8.024315743251e-04 0.0 
0.0 0.0 0.0 
-4.396252671790e-05 2.310629905835e-03 0.0 
2.310629905835e-03 1.159841506487e-02 0.0 
0.0 0.0 0.0 
-2.221403286961e-04 1.687543822402e-03 0.0 
1.687543822402e-03 1.349547226743e-02 0.0 
0.0 0.0 0.0 
-6.562806725074e-04 -2.157451390609e-05 0.0 
-2.157451390609e-05 1.209139605028e-02 0.0 
0.0 0.0 0.0 
-4.228851344218e-04 8.160371813586e-04 0.0 
8.160371813586e-04 1.433914735730e-02 0.0 
0.0 0.0 0.0 
-1.625580439970e-04 1.931531329231e-03 0.0 
1.931531329231e-03 1.300861209098e-02 0.0 
0.0 0.0 0.0 
1.029658164478e-03 3.480237753130e-04 0.0 
3.480237753130e-04 3.705558183544e-03 0.0 
0.0 0.0 0.0 
8.683618339411e-04 8.723171997064e-05 0.0 
8.723171997064e-05 3.429814495510e-03 0.0 
0.0 0.0 0.0 
3.438173361994e-04 1.681702961426e-03 0.0 
1.681702961426e-03 9.044986770540e-03 0.0 
0.0 0.0 0.0 
-7.979418828475e-04 4.717499869990e-05 0.0 
4.717499869990e-05 4.578294907012e-04 0.0 
0.0 0.0 0.0 
3.824826888463e-04 3.206562311657e-05 0.0 
3.206562311657e-05 1.964455783604e-03 0.0 
0.0 0.0 0.0 
6.636464275449e-04 4.327386798864e-05 0.0 
4.327386798864e-05 4.577753683449e-03 0.0 
0.0 0.0 0.0 
6.605072923045e-04 -1.517808731560e-04 0.0 
-1.517808731560e-04 2.789292514914e-03 0.0 
0.0 0.0 0.0 
8.961932604017e-04 1.418095601203e-04 0.0 
1.418095601203e-04 3.001468960694e-03 0.0 
0.0 0.0 0.0 
-1.021691073755e-03 1.347116458650e-03 0.0 
1.347116458650e-03 5.470523803490e-03 0.0 
0.0 0.0 0.0 
-1.099600902642e-03 1.501959257951e-03 0.0 
1.501959257951e-03 6.220855275980e-03 0.0 
0.0 0.0 0.0 
-9.127790046555e-04 1.321336821104e-04 0.0 
1.321336821104e-04 1.216055286781e-02 0.0 
0.0 0.0 0.0 
8.983644434992e-04 2.780747893030e-04 0.0 
2.780747893030e-04 3.537233550166e-03 0.0 
0.0 0.0 0.0 
4.718298267945e-04 -3.978497432470e-05 0.0 
-3.978497432470e-05 2.314265323966e-03 0.0 
0.0 0.0 0.0 
4.861515177763e-04 1.815919075132e-03 0.0 
1.815919075132e-03 8.697610294410e-03 0.0 
0.0 0.0 0.0 
1.553856019767e-04 6.778511281003e-04 0.0 
6.778511281003e-04 8.458539209836e-03 0.0 
0.0 0.0 0.0 
1.512792996052e-04 7.743567084524e-04 0.0 
7.743567084524e-04 8.491183545024e-03 0.0 
0.0 0.0 0.0 
9.716312438524e-04 2.000345991473e-04 0.0 
2.000345991473e-04 3.535605837026e-03 0.0 
0.0 0.0 0.0 
-9.738710454819e-04 1.606488403611e-04 0.0 
1.606488403611e-04 1.184649847093e-02 0.0 
0.0 0.0 0.0 
-8.154868965915e-04 2.215486596135e-05 0.0 
2.215486596135e-05 7.027417052634e-04 0.0 
0.0 0.0 0.0 
-1.013303356189e-03 1.304355260956e-03 0.0 
1.304355260956e-03 4.140797592417e-03 0.0 
0.0 0.0 0.0 
1.016726725724e-04 -2.048504598795e-04 0.0 
-2.048504598795e-04 1.504158770167e-03 0.0 
0.0 0.0 0.0 
-1.025444676724e-03 1.350636028749e-03 0.0 
1.350636028749e-03 4.842867328797e-03 0.0 
0.0 0.0 0.0 
6.583301703038e-04 1.462277110025e-03 0.0 
1.462277110025e-03 7.221427083896e-03 0.0 
0.0 0.0 0.0 
8.238138872818e-04 2.623266170159e-05 0.0 
2.623266170159e-05 2.876686638995e-03 0.0 
0.0 0.0 0.0 
8.602025569129e-04 1.082487278060e-04 0.0 
1.082487278060e-04 3.312915191748e-03 0.0 
0.0 0.0 0.0 
-3.890426193928e-04 -1.852965681032e-04 0.0 
-1.852965681032e-04 9.849895695651e-04 0.0 
0.0 0.0 0.0 
-3.128403744559e-04 8.998452164917e-05 0.0 
8.998452164917e-05 1.401633724283e-02 0.0 
0.0 0.0 0.0 
8.029060828805e-04 -1.452699565410e-05 0.0 
-1.452699565410e-05 3.151835676243e-03 0.0 
0.0 0.0 0.0 
-2.985422753817e-04 3.369511722472e-04 0.0 
3.369511722472e-04 1.423280743812e-02 0.0 
0.0 0.0 0.0 
-4.407176087881e-04 9.639865196496e-05 0.0 
9.639865196496e-05 1.373225278982e-02 0.0 
0.0 0.0 0.0 
-1.204734298824e-04 1.469684564014e-04 0.0 
1.469684564014e-04 1.483675747900e-02 0.0 
0.0 0.0 0.0 
1.228467370791e-04 1.560873901699e-04 0.0 
1.560873901699e-04 8.285859627369e-03 0.0 
0.0 0.0 0.0 
-6.662357496989e-04 3.219419701892e-05 0.0 
3.219419701892e-05 1.210388923281e-02 0.0 
0.0 0.0 0.0 
8.068659817400e-04 -1.768029662575e-05 0.0 
-1.768029662575e-05 3.287159972551e-03 0.0 
0.0 0.0 0.0 
-9.157482938330e-04 1.468260750855e-03 0.0 
1.468260750855e-03 6.861732606719e-03 0.0 
0.0 0.0 0.0 
8.997553302714e-04 9.356758429046e-05 0.0 
9.356758429046e-05 3.412258891961e-03 0.0 
0.0 0.0 0.0 
0.0 5.263719111266e-04 0.0 
5.263719111266e-04 8.405846596334e-03 0.0 
0.0 0.0 0.0 
-9.256751246305e-04 1.148161202156e-03 0.0 
1.148161202156e-03 2.768093635974e-03 0.0 
0.0 0.0 0.0 
-9.608670096518e-04 1.250096650328e-03 0.0 
1.250096650328e-03 3.457049430803e-03 0.0 
0.0 0.0 0.0 
5.430456153621e-04 1.458096832912e-03 0.0 
1.458096832912e-03 8.149223396042e-03 0.0 
0.0 0.0 0.0 
-8.345019483691e-04 7.920307554082e-05 0.0 
7.920307554082e-05 1.182028529921e-02 0.0 
0.0 0.0 0.0 
-2.679275162725e-04 2.300838185956e-04 0.0 
2.300838185956e-04 1.427252515729e-02 0.0 
0.0 0.0 0.0 
-3.513026600994e-04 1.904494449101e-03 0.0 
1.904494449101e-03 1.099183975799e-02 0.0 
0.0 0.0 0.0 
4.478110851314e-04 1.875216155048e-03 0.0 
1.875216155048e-03 9.133556970244e-03 0.0 
0.0 0.0 0.0 
-6.351650367917e-04 1.783586992131e-03 0.0 
1.783586992131e-03 1.212086854909e-02 0.0 
0.0 0.0 0.0 
-6.773937525089e-04 7.136888578234e-05 0.0 
7.136888578234e-05 1.219608423761e-02 0.0 
0.0 0.0 0.0 
5.636648353611e-04 -2.102461314429e-04 0.0 
-2.102461314429e-04 2.415288492943e-03 0.0 
0.0 0.0 0.0 
6.430539128959e-04 -1.038047266474e-04 0.0 
-1.038047266474e-04 2.400995085927e-03 0.0 
0.0 0.0 0.0 
-5.492757875161e-04 7.304477808026e-05 0.0 
7.304477808026e-05 1.304797858461e-02 0.0 
0.0 0.0 0.0 
3.380473438002e-04 1.812191232826e-03 0.0 
1.812191232826e-03 9.179081835763e-03 0.0 
0.0 0.0 0.0 
-1.096580325877e-03 2.234463843901e-04 0.0 
2.234463843901e-04 1.149762142831e-02 0.0 
0.0 0.0 0.0 
-6.942907966588e-04 6.589382474033e-06 0.0 
6.589382474033e-06 1.175244930890e-02 0.0 
0.0 0.0 0.0 
-6.843773550571e-04 1.136327944552e-05 0.0 
1.136327944552e-05 1.208974710146e-02 0.0 
0.0 0.0 0.0 
-7.229316609145e-04 1.295105974298e-05 0.0 
1.295105974298e-05 1.221833729414e-02 0.0 
0.0 0.0 0.0 
6.405584819080e-05 4.710416648744e-07 0.0 
4.710416648744e-07 1.280475073273e-03 0.0 
0.0 0.0 0.0 
5.484586530589e-04 -1.418455851331e-04 0.0 
-1.418455851331e-04 2.177194156948e-03 0.0 
0.0 0.0 0.0 
-2.635853124811e-04 4.798988717974e-04 0.0 
4.798988717974e-04 1.453700266233e-02 0.0 
0.0 0.0 0.0 
-6.915195280093e-04 5.267992359373e-05 0.0 
5.267992359373e-05 1.261376425045e-02 0.0 
0.0 0.0 0.0 
2.351177565576e-04 1.931196646146e-03 0.0 
1.931196646146e-03 9.631630917768e-03 0.0 
0.0 0.0 0.0 
-4.890721881455e-04 1.894535583974e-03 0.0 
1.894535583974e-03 1.278916917707e-02 0.0 
0.0 0.0 0.0 
-6.643603724846e-04 1.764617725676e-03 0.0 
1.764617725676e-03 1.138300010207e-02 0.0 
0.0 0.0 0.0 
-5.452663500688e-04 8.527124781781e-04 0.0 
8.527124781781e-04 1.411209664491e-02 0.0 
0.0 0.0 0.0 
6.562581217477e-04 -1.423624446796e-05 0.0 
-1.423624446796e-05 3.295024898204e-03 0.0 
0.0 0.0 0.0 
5.811186261921e-04 -3.053189048614e-05 0.0 
-3.053189048614e-05 2.987002563487e-03 0.0 
0.0 0.0 0.0 
3.756791825147e-04 8.033006143506e-04 0.0 
8.033006143506e-04 7.659278894554e-03 0.0 
0.0 0.0 0.0 
-4.080884451689e-04 -9.593202279319e-05 0.0 
-9.593202279319e-05 5.767687168834e-04 0.0 
0.0 0.0 0.0 
3.821411428699e-04 -6.379069733573e-05 0.0 
-6.379069733573e-05 2.079041407292e-03 0.0 
0.0 0.0 0.0 
0.0 2.276794618965e-03 0.0 
2.276794618965e-03 1.100662470547e-02 0.0 
0.0 0.0 0.0 
1.923377627926e-04 -5.290967611447e-05 0.0 
-5.290967611447e-05 9.934284627349e-04 0.0 
0.0 0.0 0.0 
-6.823591100028e-04 1.224612861534e-05 0.0 
1.224612861534e-05 1.175485185056e-02 0.0 
0.0 0.0 0.0 
4.866740097802e-04 1.412639708282e-03 0.0 
1.412639708282e-03 8.328770309767e-03 0.0 
0.0 0.0 0.0 
-9.051335964128e-05 -1.239239934414e-04 0.0 
-1.239239934414e-04 7.109640951675e-04 0.0 
0.0 0.0 0.0 
-7.150123644639e-05 -8.659197433214e-05 0.0 
-8.659197433214e-05 3.868163976322e-04 0.0 
0.0 0.0 0.0 
-1.819744785283e-04 7.292730286093e-04 0.0 
7.292730286093e-04 1.470659982299e-02 0.0 
0.0 0.0 0.0 
-7.914754360284e-04 1.827999774579e-05 0.0 
1.827999774579e-05 1.143842530421e-02 0.0 
0.0 0.0 0.0 
-2.900125425603e-04 6.600526930252e-04 0.0 
6.600526930252e-04 1.443594185379e-02 0.0 
0.0 0.0 0.0 
3.682696315628e-04 1.488147586251e-03 0.0 
1.488147586251e-03 8.527601579917e-03 0.0 
0.0 0.0 0.0 
-7.812529362073e-04 -2.141606953859e-06 0.0 
-2.141606953859e-06 1.142483694808e-02 0.0 
0.0 0.0 0.0 
-7.981231128614e-04 5.520698501515e-05 0.0 
5.520698501515e-05 8.026923538127e-04 0.0 
0.0 0.0 0.0 
-1.285218280519e-04 1.005564133152e-04 0.0 
1.005564133152e-04 1.457061140376e-02 0.0 
0.0 0.0 0.0 
1.851474344050e-04 -1.837782999349e-04 0.0 
-1.837782999349e-04 1.122924859839e-03 0.0 
0.0 0.0 0.0 
-3.022938886674e-04 5.392385871174e-04 0.0 
5.392385871174e-04 1.428863151686e-02 0.0 
0.0 0.0 0.0 
0.0 4.133372089884e-04 0.0 
4.133372089884e-04 8.357905592809e-03 0.0 
0.0 0.0 0.0 
-5.102727190922e-04 1.610602516893e-03 0.0 
1.610602516893e-03 1.329219501819e-02 0.0 
0.0 0.0 0.0 
3.444527978727e-04 2.720905898514e-05 0.0 
2.720905898514e-05 1.573941291572e-03 0.0 
0.0 0.0 0.0 
-1.042376153070e-03 3.426103722912e-04 0.0 
3.426103722912e-04 1.213701843350e-02 0.0 
0.0 0.0 0.0 
5.973997853559e-04 -5.434456935127e-05 0.0 
-5.434456935127e-05 3.355635741668e-03 0.0 
0.0 0.0 0.0 
4.198471231840e-04 1.711853707919e-03 0.0 
1.711853707919e-03 8.705487762397e-03 0.0 
0.0 0.0 0.0 
1.279108799952e-04 2.085925511363e-03 0.0 
2.085925511363e-03 1.010740847239e-02 0.0 
0.0 0.0 0.0 
-4.929988143818e-04 8.358797314465e-05 0.0 
8.358797314465e-05 1.344911117176e-02 0.0 
0.0 0.0 0.0 
1.855062073752e-04 1.988858438940e-03 0.0 
1.988858438940e-03 9.822889487400e-03 0.0 
0.0 0.0 0.0 
-1.924507002904e-04 -3.039016030060e-05 0.0 
-3.039016030060e-05 8.631067105485e-04 0.0 
0.0 0.0 0.0 
2.159455010589e-04 5.090981869001e-04 0.0 
5.090981869001e-04 7.983127886567e-03 0.0 
0.0 0.0 0.0 
3.916065604850e-04 -1.589344057331e-05 0.0 
-1.589344057331e-05 1.763865611262e-03 0.0 
0.0 0.0 0.0 
1.990695803038e-04 -5.195993663732e-05 0.0 
-5.195993663732e-05 9.964631430825e-04 0.0 
0.0 0.0 0.0 
3.261276210185e-04 1.320265557899e-03 0.0 
1.320265557899e-03 8.579013260757e-03 0.0 
0.0 0.0 0.0 
-4.334355521437e-04 1.244384652587e-03 0.0 
1.244384652587e-03 1.415856433309e-02 0.0 
0.0 0.0 0.0 
-2.519839109946e-04 7.407799902149e-04 0.0 
7.407799902149e-04 1.449901629672e-02 0.0 
0.0 0.0 0.0 
-7.242366397533e-04 5.670286713245e-05 0.0 
5.670286713245e-05 1.175413034959e-02 0.0 
0.0 0.0 0.0 
-1.157173429178e-03 6.170629078146e-04 0.0 
6.170629078146e-04 1.209372987973e-02 0.0 
0.0 0.0 0.0 
-2.509172547510e-04 1.059376183777e-03 0.0 
1.059376183777e-03 3.478503930748e-03 0.0 
0.0 0.0 0.0 
-3.190382889832e-04 2.056393776818e-03 0.0 
2.056393776818e-03 1.292635935698e-02 0.0 
0.0 0.0 0.0 
5.490033470337e-04 -8.743011852705e-06 0.0 
-8.743011852705e-06 2.763736859456e-03 0.0 
0.0 0.0 0.0 
-2.062132308135e-04 5.137504075203e-04 0.0 
5.137504075203e-04 1.732040989422e-03 0.0 
0.0 0.0 0.0 
5.320504009234e-04 1.801936547580e-03 0.0 
1.801936547580e-03 8.670469974677e-03 0.0 
0.0 0.0 0.0 
-7.189812175181e-04 -1.187057878442e-06 0.0 
-1.187057878442e-06 1.138991996297e-02 0.0 
0.0 0.0 0.0 
-4.035001862384e-04 1.201588770068e-03 0.0 
1.201588770068e-03 1.393734976604e-02 0.0 
0.0 0.0 0.0 
-9.823445735180e-05 -1.996450759183e-05 0.0 
-1.996450759183e-05 1.482684869946e-02 0.0 
0.0 0.0 0.0 
0.0 4.911722867575e-05 0.0 
4.911722867575e-05 1.486677771464e-02 0.0 
0.0 0.0 0.0 
2.559616603381e-05 -3.121338616510e-06 0.0 
-3.121338616510e-06 8.605572956322e-05 0.0 
0.0 0.0 0.0 
3.485988888530e-05 4.257447111071e-06 0.0 
4.257447111071e-06 9.154957816704e-05 0.0 
0.0 0.0 0.0 
-6.860841415672e-04 -2.887450159127e-05 0.0 
-2.887450159127e-05 1.142581281293e-02 0.0 
0.0 0.0 0.0 
-7.027863617355e-04 3.580497635488e-06 0.0 
3.580497635488e-06 1.137760503465e-02 0.0 
0.0 0.0 0.0 
0.0 5.851864202666e-05 0.0 
5.851864202666e-05 8.278291446387e-03 0.0 
0.0 0.0 0.0 
1.170372840531e-04 3.827657303393e-05 0.0 
3.827657303393e-05 8.201738300319e-03 0.0 
0.0 0.0 0.0 
4.816252074713e-05 1.100088268131e-05 0.0 
1.100088268131e-05 3.179861924594e-04 0.0 
0.0 0.0 0.0 
-7.866811469220e-04 -4.052715042009e-05 0.0 
-4.052715042009e-05 4.231643779098e-04 0.0 
0.0 0.0 0.0 
2.717924694864e-04 3.122648078801e-04 0.0 
3.122648078801e-04 7.446461116822e-03 0.0 
0.0 0.0 0.0 
2.218777316199e-04 2.145156646498e-03 0.0 
2.145156646498e-03 1.022605738801e-02 0.0 
0.0 0.0 0.0 
2.066422747986e-04 -1.515208045808e-04 0.0 
-1.515208045808e-04 1.322312940350e-03 0.0 
0.0 0.0 0.0 
2.703404586519e-04 5.378389488679e-04 0.0 
5.378389488679e-04 7.659850537792e-03 0.0 
0.0 0.0 0.0 
6.541501352546e-04 4.302770390993e-06 0.0 
4.302770390993e-06 4.929989295194e-03 0.0 
0.0 0.0 0.0 
6.552582493056e-04 -2.986139006410e-05 0.0 
-2.986139006410e-05 4.169948895512e-03 0.0 
0.0 0.0 0.0 
-6.461807564673e-04 8.561248421559e-05 0.0 
8.561248421559e-05 1.280344512450e-02 0.0 
0.0 0.0 0.0 
1.252549575448e-04 -1.540236843667e-04 0.0 
-1.540236843667e-04 1.333995548598e-03 0.0 
0.0 0.0 0.0 
4.853470569757e-04 1.650914471450e-03 0.0 
1.650914471450e-03 8.237193698137e-03 0.0 
0.0 0.0 0.0 
1.167424245652e-04 -1.107233525545e-04 0.0 
-1.107233525545e-04 1.044929618841e-03 0.0 
0.0 0.0 0.0 
6.684394737637e-04 -4.552662131001e-05 0.0 
-4.552662131001e-05 3.742437344391e-03 0.0 
0.0 0.0 0.0 
-2.532603987774e-04 1.931529933344e-03 0.0 
1.931529933344e-03 1.262653153286e-02 0.0 
0.0 0.0 0.0 
-3.158909046393e-04 -2.499074607263e-05 0.0 
-2.499074607263e-05 1.414579656882e-02 0.0 
0.0 0.0 0.0 
6.809935541965e-04 2.120925585531e-05 0.0 
2.120925585531e-05 4.140688233128e-03 0.0 
0.0 0.0 0.0 
-6.624977519422e-04 -3.174673485524e-06 0.0 
-3.174673485524e-06 1.238293543290e-02 0.0 
0.0 0.0 0.0 
5.144559170889e-06 2.225664454307e-03 0.0 
2.225664454307e-03 1.107030629333e-02 0.0 
0.0 0.0 0.0 
-5.041694058651e-04 1.879356681759e-03 0.0 
1.879356681759e-03 1.197304762455e-02 0.0 
0.0 0.0 0.0 
-5.884829393883e-04 1.815095957171e-03 0.0 
1.815095957171e-03 1.167265736615e-02 0.0 
0.0 0.0 0.0 
-7.517678346028e-04 5.367369926602e-06 0.0 
5.367369926602e-06 1.142079142562e-02 0.0 
0.0 0.0 0.0 
6.031959145030e-04 1.532261810329e-03 0.0 
1.532261810329e-03 7.699082808408e-03 0.0 
0.0 0.0 0.0 
-4.093036826891e-04 1.407426688964e-03 0.0 
1.407426688964e-03 1.365162555713e-02 0.0 
0.0 0.0 0.0 
4.198666803379e-04 -2.972389140806e-05 0.0 
-2.972389140806e-05 2.072977980576e-03 0.0 
0.0 0.0 0.0 
-3.126103597916e-04 -1.469036811436e-04 0.0 
-1.469036811436e-04 5.167046644570e-04 0.0 
0.0 0.0 0.0 
-9.111195200728e-05 2.046763434499e-03 0.0 
2.046763434499e-03 1.098746640326e-02 0.0 
0.0 0.0 0.0 
7.049887179669e-04 1.383003847112e-03 0.0 
1.383003847112e-03 7.680248829664e-03 0.0 
0.0 0.0 0.0 
7.470857027947e-05 -2.709741042800e-04 0.0 
-2.709741042800e-04 1.086687946055e-03 0.0 
0.0 0.0 0.0 
-5.906931397879e-04 2.683312119426e-05 0.0 
2.683312119426e-05 1.307246223230e-02 0.0 
0.0 0.0 0.0 
1.333956374057e-04 2.972913693060e-04 0.0 
2.972913693060e-04 7.840511721236e-03 0.0 
0.0 0.0 0.0 
1.446424447384e-04 2.035904421886e-03 0.0 
2.035904421886e-03 1.028285281018e-02 0.0 
0.0 0.0 0.0 
6.442717821731e-05 2.193859567305e-03 0.0 
2.193859567305e-03 1.074858869324e-02 0.0 
0.0 0.0 0.0 
6.194079653634e-04 -1.147632894748e-05 0.0 
-1.147632894748e-05 5.402860591096e-03 0.0 
0.0 0.0 0.0 
-4.951382901807e-04 4.032619689083e-04 0.0 
4.032619689083e-04 7.431562807947e-04 0.0 
0.0 0.0 0.0 
-1.009352849466e-03 1.507217932807e-03 0.0 
1.507217932807e-03 5.484752472883e-03 0.0 
0.0 0.0 0.0 
-3.183580998912e-04 1.327251408309e-03 0.0 
1.327251408309e-03 4.791469454156e-03 0.0 
0.0 0.0 0.0 
-1.085833964840e-03 3.710613389986e-04 0.0 
3.710613389986e-04 1.218011126761e-02 0.0 
0.0 0.0 0.0 
6.591008055568e-04 1.648305582399e-03 0.0 
1.648305582399e-03 7.684899390157e-03 0.0 
0.0 0.0 0.0 
-3.117602758906e-04 3.730086966646e-04 0.0 
3.730086966646e-04 1.434794567733e-02 0.0 
0.0 0.0 0.0 
2.290567429137e-04 1.659701268607e-03 0.0 
1.659701268607e-03 9.082673304434e-03 0.0 
0.0 0.0 0.0 
-2.901074045444e-04 -2.171802173829e-04 0.0 
-2.171802173829e-04 8.744961773386e-04 0.0 
0.0 0.0 0.0 
-2.023506255122e-04 -2.049511620101e-04 0.0 
-2.049511620101e-04 7.879566301243e-04 0.0 
0.0 0.0 0.0 
-1.025992552577e-03 1.558757520300e-03 0.0 
1.558757520300e-03 4.162964119538e-03 0.0 
0.0 0.0 0.0 
-5.452802378995e-04 1.445260703107e-04 0.0 
1.445260703107e-04 1.318840511176e-02 0.0 
0.0 0.0 0.0 
4.873729544383e-04 -1.097773281353e-04 0.0 
-1.097773281353e-04 2.568093392434e-03 0.0 
0.0 0.0 0.0 
-4.663703473845e-04 9.815218275786e-04 0.0 
9.815218275786e-04 1.414691824953e-02 0.0 
0.0 0.0 0.0 
2.102431225328e-04 -1.061038409422e-04 0.0 
-1.061038409422e-04 1.257989698179e-03 0.0 
0.0 0.0 0.0 
4.282451771116e-04 1.583282439292e-03 0.0 
1.583282439292e-03 8.624194894598e-03 0.0 
0.0 0.0 0.0 
-8.295073333846e-04 1.489266928161e-04 0.0 
1.489266928161e-04 1.215584271378e-02 0.0 
0.0 0.0 0.0 
1.284781421611e-04 2.052701204309e-03 0.0 
2.052701204309e-03 1.018375870198e-02 0.0 
0.0 0.0 0.0 
3.007569963109e-04 1.837041303503e-03 0.0 
1.837041303503e-03 9.235794860786e-03 0.0 
0.0 0.0 0.0 
-1.179457718010e-03 4.669725555960e-04 0.0 
4.669725555960e-04 1.216811207020e-02 0.0 
0.0 0.0 0.0 
3.350838635943e-04 1.102281750359e-03 0.0 
1.102281750359e-03 8.332594337123e-03 0.0 
0.0 0.0 0.0 
-3.728863868068e-04 1.149230676700e-03 0.0 
1.149230676700e-03 1.424734038800e-02 0.0 
0.0 0.0 0.0 
-2.066202251865e-04 1.011849354939e-04 0.0 
1.011849354939e-04 1.458762625982e-02 0.0 
0.0 0.0 0.0 
-1.034120516372e-03 1.506102817195e-03 0.0 
1.506102817195e-03 2.786623391653e-03 0.0 
0.0 0.0 0.0 
-4.236370954127e-04 8.647393599725e-04 0.0 
8.647393599725e-04 1.411101129228e-02 0.0 
0.0 0.0 0.0 
-3.608843871827e-05 2.179948854876e-03 0.0 
2.179948854876e-03 1.175377370855e-02 0.0 
0.0 0.0 0.0 
4.602432829619e-04 1.582549981195e-03 0.0 
1.582549981195e-03 8.623148539313e-03 0.0 
0.0 0.0 0.0 
4.391086572266e-04 1.895642500829e-03 0.0 
1.895642500829e-03 9.158465882217e-03 0.0 
0.0 0.0 0.0 
0.0 7.084051241426e-04 0.0 
7.084051241426e-04 8.474053793603e-03 0.0 
0.0 0.0 0.0 
-5.226320660154e-04 1.794383304557e-03 0.0 
1.794383304557e-03 1.167518210898e-02 0.0 
0.0 0.0 0.0 
-7.233989673195e-04 3.559808050399e-04 0.0 
3.559808050399e-04 3.812423699940e-04 0.0 
0.0 0.0 0.0 
-2.767131453159e-04 7.238375358188e-04 0.0 
7.238375358188e-04 2.310870577743e-03 0.0 
0.0 0.0 0.0 
-5.069234515639e-04 1.873660266265e-03 0.0 
1.873660266265e-03 1.239317183522e-02 0.0 
0.0 0.0 0.0 
-1.006287670913e-03 4.235495092803e-04 0.0 
4.235495092803e-04 1.245283204793e-02 0.0 
0.0 0.0 0.0 
2.912537515822e-04 1.341507037230e-04 0.0 
1.341507037230e-04 7.394261277906e-03 0.0 
0.0 0.0 0.0 
2.253222834994e-04 1.926141405418e-03 0.0 
1.926141405418e-03 9.677343960510e-03 0.0 
0.0 0.0 0.0 
1.527855229546e-04 5.939307178171e-04 0.0 
5.939307178171e-04 8.025227341169e-03 0.0 
0.0 0.0 0.0 
-4.748004178745e-04 1.727945595452e-04 0.0 
1.727945595452e-04 1.357697179064e-02 0.0 
0.0 0.0 0.0 
1.160357115273e-04 1.981405162115e-03 0.0 
1.981405162115e-03 9.944648461027e-03 0.0 
0.0 0.0 0.0 
3.383786571869e-04 9.279388268064e-04 0.0 
9.279388268064e-04 7.902580880642e-03 0.0 
0.0 0.0 0.0 
4.037360939524e-04 1.002428046907e-03 0.0 
1.002428046907e-03 7.895682649103e-03 0.0 
0.0 0.0 0.0 
4.998530622129e-04 -7.846426791141e-05 0.0 
-7.846426791141e-05 2.664947323764e-03 0.0 
0.0 0.0 0.0 
1.674910418157e-04 5.798622079561e-04 0.0 
5.798622079561e-04 8.420568939934e-03 0.0 
0.0 0.0 0.0 
-9.244701482267e-04 1.386189469464e-04 0.0 
1.386189469464e-04 1.179192592836e-02 0.0 
0.0 0.0 0.0 
-3.096717872905e-04 1.835112976269e-04 0.0 
1.835112976269e-04 1.427841506058e-02 0.0 
0.0 0.0 0.0 
-4.508957031824e-05 -2.408453815679e-04 0.0 
-2.408453815679e-04 7.733672766108e-04 0.0 
0.0 0.0 0.0 
-3.865599798926e-04 7.727129382045e-05 0.0 
7.727129382045e-05 1.402392011315e-02 0.0 
0.0 0.0 0.0 
-5.987978007458e-04 7.459985654982e-05 0.0 
7.459985654982e-05 1.310455687866e-02 0.0 
0.0 0.0 0.0 
1.037441250014e-04 -4.522392066939e-05 0.0 
-4.522392066939e-05 6.889645381116e-04 0.0 
0.0 0.0 0.0 
1.354296525937e-04 -1.334404156234e-04 0.0 
-1.334404156234e-04 1.531412041104e-03 0.0 
0.0 0.0 0.0 
-3.819137241754e-04 1.896210460212e-03 0.0 
1.896210460212e-03 1.151165474993e-02 0.0 
0.0 0.0 0.0 
-1.826936010623e-04 5.682323811424e-04 0.0 
5.682323811424e-04 1.451027856756e-02 0.0 
0.0 0.0 0.0 
-2.821609073498e-04 7.970701556543e-05 0.0 
7.970701556543e-05 1.432481015119e-02 0.0 
0.0 0.0 0.0 
3.327306706000e-04 2.017769203675e-03 0.0 
2.017769203675e-03 9.632289458230e-03 0.0 
0.0 0.0 0.0 
-6.846453866214e-04 1.093495202222e-04 0.0 
1.093495202222e-04 1.240132472686e-02 0.0 
0.0 0.0 0.0 
-1.824220552478e-04 -1.369194291286e-04 0.0 
-1.369194291286e-04 4.547167717932e-04 0.0 
0.0 0.0 0.0 
-4.017997297496e-04 3.002222091514e-04 0.0 
3.002222091514e-04 1.054809184795e-03 0.0 
0.0 0.0 0.0 
-1.055967924567e-04 -7.747613670542e-05 0.0 
-7.747613670542e-05 4.947554399675e-04 0.0 
0.0 0.0 0.0 
-1.603928295402e-05 -2.798495317273e-04 0.0 
-2.798495317273e-04 1.028643718482e-03 0.0 
0.0 0.0 0.0 
-7.770691392953e-04 7.234909757066e-04 0.0 
7.234909757066e-04 5.337662477991e-04 0.0 
0.0 0.0 0.0 
6.496112028751e-04 9.074047631954e-06 0.0 
9.074047631954e-06 3.644819027202e-03 0.0 
0.0 0.0 0.0 
3.114591102051e-04 2.073880613336e-04 0.0 
2.073880613336e-04 7.392702013234e-03 0.0 
0.0 0.0 0.0 
-4.319469906880e-04 1.646258776387e-03 0.0 
1.646258776387e-03 1.329685669346e-02 0.0 
0.0 0.0 0.0 
-1.239206498270e-03 6.698241067781e-04 0.0 
6.698241067781e-04 1.232570522506e-02 0.0 
0.0 0.0 0.0 
6.044762895741e-04 -1.035645972076e-04 0.0 
-1.035645972076e-04 3.151389267421e-03 0.0 
0.0 0.0 0.0 
3.686902237217e-04 7.513361830833e-04 0.0 
7.513361830833e-04 7.677256653933e-03 0.0 
0.0 0.0 0.0 
5.508863726218e-04 1.303786494554e-03 0.0 
1.303786494554e-03 8.029683343232e-03 0.0 
0.0 0.0 0.0 
2.181148157014e-04 2.200754491143e-03 0.0 
2.200754491143e-03 1.029473507800e-02 0.0 
0.0 0.0 0.0 
-5.032033511709e-05 2.086182396009e-03 0.0 
2.086182396009e-03 1.128381684418e-02 0.0 
0.0 0.0 0.0 
-2.858629344517e-04 1.972823867584e-03 0.0 
1.972823867584e-03 1.183703451370e-02 0.0 
0.0 0.0 0.0 
-4.892994466155e-05 -1.712370141196e-04 0.0 
-1.712370141196e-04 7.498935104959e-04 0.0 
0.0 0.0 0.0 
-4.869363226609e-04 -1.381726568481e-04 0.0 
-1.381726568481e-04 9.184606675310e-04 0.0 
0.0 0.0 0.0 
2.932438271486e-04 2.594463017428e-04 0.0 
2.594463017428e-04 7.462960180571e-03 0.0 
0.0 0.0 0.0 
1.538671350079e-04 -2.356503225101e-05 0.0 
-2.356503225101e-05 6.723006802642e-04 0.0 
0.0 0.0 0.0 
1.453337310975e-04 3.742021906214e-05 0.0 
3.742021906214e-05 8.357587696635e-04 0.0 
0.0 0.0 0.0 
-5.973583983226e-04 9.504500897254e-04 0.0 
9.504500897254e-04 1.306764371098e-03 0.0 
0.0 0.0 0.0 
-3.262108598101e-05 -2.060687342335e-04 0.0 
-2.060687342335e-04 7.084199519103e-04 0.0 
0.0 0.0 0.0 
1.727673363441e-04 1.012458891363e-03 0.0 
1.012458891363e-03 8.284879548335e-03 0.0 
0.0 0.0 0.0 
-1.456709777863e-04 2.089461725718e-03 0.0 
2.089461725718e-03 1.247729393225e-02 0.0 
0.0 0.0 0.0 
-2.715451159931e-04 4.070347966947e-04 0.0 
4.070347966947e-04 1.434987308859e-02 0.0 
0.0 0.0 0.0 
9.082429711538e-05 2.120476754101e-03 0.0 
2.120476754101e-03 1.047794799342e-02 0.0 
0.0 0.0 0.0 
5.082671047687e-04 1.217204861887e-03 0.0 
1.217204861887e-03 7.854208969812e-03 0.0 
0.0 0.0 0.0 
-6.501817266147e-04 1.197782562508e-04 0.0 
1.197782562508e-04 1.261987813810e-02 0.0 
0.0 0.0 0.0 
0.0 7.900075894320e-04 0.0 
7.900075894320e-04 1.469529907962e-02 0.0 
0.0 0.0 0.0 
3.334194402644e-04 -2.032059200333e-04 0.0 
-2.032059200333e-04 1.757478096037e-03 0.0 
0.0 0.0 0.0 
-7.554119650922e-04 5.778028072291e-06 0.0 
5.778028072291e-06 1.139932692056e-02 0.0 
0.0 0.0 0.0 
-1.142309421667e-04 -2.227302056550e-04 0.0 
-2.227302056550e-04 1.123699095434e-03 0.0 
0.0 0.0 0.0 
2.846644704912e-05 -7.252696786763e-05 0.0 
-7.252696786763e-05 3.769749811009e-04 0.0 
0.0 0.0 0.0 
1.559049460593e-04 4.039324009578e-04 0.0 
4.039324009578e-04 8.338582607400e-03 0.0 
0.0 0.0 0.0 
-1.124846103620e-03 3.622714404066e-04 0.0 
3.622714404066e-04 1.178917617551e-02 0.0 
0.0 0.0 0.0 
1.430085298721e-04 -7.480096177282e-05 0.0 
-7.480096177282e-05 9.910382900598e-04 0.0 
0.0 0.0 0.0 
6.336240039340e-04 2.063453120029e-05 0.0 
2.063453120029e-05 3.493548300723e-03 0.0 
0.0 0.0 0.0 
-2.179445469699e-04 2.173150369811e-03 0.0 
2.173150369811e-03 1.262165497344e-02 0.0 
0.0 0.0 0.0 
-3.943297226369e-04 5.190290381517e-04 0.0 
5.190290381517e-04 1.429714661765e-02 0.0 
0.0 0.0 0.0 
-2.356014323478e-04 1.274973139309e-03 0.0 
1.274973139309e-03 1.410613288991e-02 0.0 
0.0 0.0 0.0 
4.572808608962e-04 -7.000876000095e-05 0.0 
-7.000876000095e-05 2.421612482094e-03 0.0 
0.0 0.0 0.0 
-3.967915728383e-04 -1.979203051418e-05 0.0 
-1.979203051418e-05 9.618359737003e-04 0.0 
0.0 0.0 0.0 
2.576969224959e-04 6.520162233685e-04 0.0 
6.520162233685e-04 8.047111250618e-03 0.0 
0.0 0.0 0.0 
-1.047388195985e-04 7.711172363114e-05 0.0 
7.711172363114e-05 1.486031666307e-02 0.0 
0.0 0.0 0.0 
1.196655569249e-04 8.040852425721e-05 0.0 
8.040852425721e-05 8.278283807681e-03 0.0 
0.0 0.0 0.0 
-6.817705617869e-04 2.400144496552e-05 0.0 
2.400144496552e-05 1.168253536011e-02 0.0 
0.0 0.0 0.0 
3.594726447200e-04 1.302383548361e-03 0.0 
1.302383548361e-03 8.236934876057e-03 0.0 
0.0 0.0 0.0 
2.059122254676e-04 -1.139743299810e-04 0.0 
-1.139743299810e-04 1.012473578009e-03 0.0 
0.0 0.0 0.0 
-3.838905728812e-04 9.955227617128e-04 0.0 
9.955227617128e-04 1.414791436355e-02 0.0 
0.0 0.0 0.0 
-2.093626307464e-05 -9.755831105456e-05 0.0 
-9.755831105456e-05 3.775047334709e-04 0.0 
0.0 0.0 0.0 
1.780857821116e-04 1.225422932038e-03 0.0 
1.225422932038e-03 8.520575852658e-03 0.0 
0.0 0.0 0.0 
-3.952380385054e-04 1.412064226367e-03 0.0 
1.412064226367e-03 1.398878520020e-02 0.0 
0.0 0.0 0.0 
-4.608387279708e-04 1.294332334920e-04 0.0 
1.294332334920e-04 6.491101873778e-04 0.0 
0.0 0.0 0.0 
9.556155275470e-05 2.037957336365e-03 0.0 
2.037957336365e-03 1.028372420976e-02 0.0 
0.0 0.0 0.0 
-5.286219375540e-04 7.111664523331e-05 0.0 
7.111664523331e-05 1.338734671999e-02 0.0 
0.0 0.0 0.0 
-1.398532428211e-04 4.136831168204e-04 0.0 
4.136831168204e-04 1.456659971723e-02 0.0 
0.0 0.0 0.0 
0.0 1.962983961268e-03 0.0 
1.962983961268e-03 9.993135800547e-03 0.0 
0.0 0.0 0.0 
-5.899907845336e-04 -2.110189979350e-05 0.0 
-2.110189979350e-05 1.286446731612e-02 0.0 
0.0 0.0 0.0 
-1.354975042439e-04 2.035702295328e-03 0.0 
2.035702295328e-03 1.277488582100e-02 0.0 
0.0 0.0 0.0 
-5.213108762026e-04 1.213244216107e-03 0.0 
1.213244216107e-03 1.393686328536e-02 0.0 
0.0 0.0 0.0 
-5.386494276817e-04 6.459087200848e-05 0.0 
6.459087200848e-05 1.309912646469e-02 0.0 
0.0 0.0 0.0 
-2.414757912871e-04 1.978630648653e-03 0.0 
1.978630648653e-03 1.243605567080e-02 0.0 
0.0 0.0 0.0 
5.681176806589e-04 -7.062419665406e-05 0.0 
-7.062419665406e-05 2.942399329998e-03 0.0 
0.0 0.0 0.0 
-7.192792712528e-04 -3.551736447709e-06 0.0 
-3.551736447709e-06 1.139170412115e-02 0.0 
0.0 0.0 0.0 
2.334420680268e-04 2.105270512440e-03 0.0 
2.105270512440e-03 1.014466361021e-02 0.0 
0.0 0.0 0.0 
-1.359221492346e-04 6.922287991187e-05 0.0 
6.922287991187e-05 1.462082451321e-02 0.0 
0.0 0.0 0.0 
5.176753715386e-05 7.207228506250e-06 0.0 
7.207228506250e-06 7.498839478193e-05 0.0 
0.0 0.0 0.0 
-6.909603460963e-04 6.518449011258e-06 0.0 
6.518449011258e-06 1.137817137865e-02 0.0 
0.0 0.0 0.0 
1.546235959113e-04 3.735937217507e-05 0.0 
3.735937217507e-05 7.916178570578e-03 0.0 
0.0 0.0 0.0 
2.233944645831e-04 -1.012485246524e-04 0.0 
-1.012485246524e-04 1.299664492961e-03 0.0 
0.0 0.0 0.0 
5.026793225948e-04 1.519477660506e-03 0.0 
1.519477660506e-03 8.467376494363e-03 0.0 
0.0 0.0 0.0 
-5.756497562672e-04 1.446511335809e-03 0.0 
1.446511335809e-03 1.364244224719e-02 0.0 
0.0 0.0 0.0 
-2.594856894721e-04 3.547017503110e-04 0.0 
3.547017503110e-04 1.454802277124e-02 0.0 
0.0 0.0 0.0 
2.188105355980e-04 -5.596451979069e-05 0.0 
-5.596451979069e-05 1.242368572817e-03 0.0 
0.0 0.0 0.0 
-3.730829600237e-04 6.390707160503e-04 0.0 
6.390707160503e-04 1.638716376663e-03 0.0 
0.0 0.0 0.0 
6.580636645874e-04 5.520795451460e-05 0.0 
5.520795451460e-05 4.358245543010e-03 0.0 
0.0 0.0 0.0 
-4.196671403303e-04 9.094946255676e-05 0.0 
9.094946255676e-05 1.377260915789e-02 0.0 
0.0 0.0 0.0 
-1.165134979508e-03 -4.893133469097e-05 0.0 
-4.893133469097e-05 6.198523740659e-04 0.0 
0.0 0.0 0.0 
-2.061776159393e-04 1.037383635238e-03 0.0 
1.037383635238e-03 1.432094352444e-02 0.0 
0.0 0.0 0.0 
-5.863368463445e-04 4.696505683431e-05 0.0 
4.696505683431e-05 1.275022129487e-02 0.0 
0.0 0.0 0.0 
1.019942113776e-04 -2.971084266934e-04 0.0 
-2.971084266934e-04 1.317319012540e-03 0.0 
0.0 0.0 0.0 
-6.476905005287e-04 6.185753208757e-05 0.0 
6.185753208757e-05 1.248647949636e-02 0.0 
0.0 0.0 0.0 
1.067657252529e-04 2.234285078969e-03 0.0 
2.234285078969e-03 1.064682969870e-02 0.0 
0.0 0.0 0.0 
6.644780318428e-04 -4.073462343165e-05 0.0 
-4.073462343165e-05 4.589761387293e-03 0.0 
0.0 0.0 0.0 
-7.948523660346e-04 6.266584864467e-04 0.0 
6.266584864467e-04 8.990018354837e-04 0.0 
0.0 0.0 0.0 
5.435573976587e-04 -3.963687737335e-05 0.0 
-3.963687737335e-05 2.652425978183e-03 0.0 
0.0 0.0 0.0 
6.851747005376e-04 2.055120964501e-05 0.0 
2.055120964501e-05 3.950095847803e-03 0.0 
0.0 0.0 0.0 
6.721656579347e-04 6.000378264878e-05 0.0 
6.000378264878e-05 4.793012920784e-03 0.0 
0.0 0.0 0.0 
2.481405021375e-04 1.924466638270e-03 0.0 
1.924466638270e-03 9.594936947363e-03 0.0 
0.0 0.0 0.0 
6.519466668014e-04 -3.374545391901e-05 0.0 
-3.374545391901e-05 3.846028216150e-03 0.0 
0.0 0.0 0.0 
6.829613928696e-04 2.102244771754e-05 0.0 
2.102244771754e-05 4.106324576302e-03 0.0 
0.0 0.0 0.0 
-2.507107591532e-05 -8.741251123327e-05 0.0 
-8.741251123327e-05 6.415880584343e-04 0.0 
0.0 0.0 0.0 
3.074636688811e-04 5.998074530393e-04 0.0 
5.998074530393e-04 7.673032243807e-03 0.0 
0.0 0.0 0.0 
-3.352284378477e-05 2.096590464571e-03 0.0 
2.096590464571e-03 1.099257024435e-02 0.0 
0.0 0.0 0.0 
-6.182949668132e-05 6.769102989775e-04 0.0 
6.769102989775e-04 1.747096457637e-03 0.0 
0.0 0.0 0.0 
-1.080936563309e-04 4.809462992588e-05 0.0 
4.809462992588e-05 1.461008421169e-02 0.0 
0.0 0.0 0.0 
1.302042203630e-04 8.959102234645e-05 0.0 
8.959102234645e-05 7.901197785250e-03 0.0 
0.0 0.0 0.0 
-6.898823049520e-04 -2.189021697660e-05 0.0 
-2.189021697660e-05 1.170697497179e-02 0.0 
0.0 0.0 0.0 
-6.154266732467e-04 3.997390981231e-05 0.0 
3.997390981231e-05 1.274925555965e-02 0.0 
0.0 0.0 0.0 
6.630716993841e-04 2.316650608485e-05 0.0 
2.316650608485e-05 3.839645356182e-03 0.0 
0.0 0.0 0.0 
6.729129288801e-04 -2.144774611937e-05 0.0 
-2.144774611937e-05 3.971298330196e-03 0.0 
0.0 0.0 0.0 
6.543311702962e-04 -5.469207315801e-07 0.0 
-5.469207315801e-07 4.124469372136e-03 0.0 
0.0 0.0 0.0 
5.531941877785e-04 1.475989079969e-03 0.0 
1.475989079969e-03 8.180080308741e-03 0.0 
0.0 0.0 0.0 
6.603571508723e-05 -1.973602955574e-04 0.0 
-1.973602955574e-04 1.062851646134e-03 0.0 
0.0 0.0 0.0 
-1.307319370065e-04 2.168416793558e-03 0.0 
2.168416793558e-03 1.147869174611e-02 0.0 
0.0 0.0 0.0 
-6.592831365571e-04 3.014911828063e-05 0.0 
3.014911828063e-05 1.206619879367e-02 0.0 
0.0 0.0 0.0 
-3.902186638850e-04 9.711513375136e-04 0.0 
9.711513375136e-04 1.434063132290e-02 0.0 
0.0 0.0 0.0 
4.584036425024e-04 1.388338663070e-03 0.0 
1.388338663070e-03 8.169537883996e-03 0.0 
0.0 0.0 0.0 
-6.839102943400e-04 4.919263672090e-05 0.0 
4.919263672090e-05 1.249457181131e-02 0.0 
0.0 0.0 0.0 
-3.119105981222e-04 1.943215449153e-03 0.0 
1.943215449153e-03 1.223523977175e-02 0.0 
0.0 0.0 0.0 
3.136568574693e-04 1.943472796708e-03 0.0 
1.943472796708e-03 9.586127986081e-03 0.0 
0.0 0.0 0.0 
2.251688792125e-04 2.125942657565e-03 0.0 
2.125942657565e-03 1.005436331522e-02 0.0 
0.0 0.0 0.0 
-6.515305603916e-04 6.875321511923e-04 0.0 
6.875321511923e-04 8.329986830526e-04 0.0 
0.0 0.0 0.0 
-3.895721098658e-04 1.949996645458e-03 0.0 
1.949996645458e-03 1.223472644743e-02 0.0 
0.0 0.0 0.0 
-2.398738321249e-04 2.113001308826e-03 0.0 
2.113001308826e-03 1.218202653467e-02 0.0 
0.0 0.0 0.0 
-1.374356763773e-05 -1.463066252002e-04 0.0 
-1.463066252002e-04 6.729227659221e-04 0.0 
0.0 0.0 0.0 
6.482929942273e-04 -3.627707469258e-05 0.0 
-3.627707469258e-05 3.635173363662e-03 0.0 
0.0 0.0 0.0 
-7.094921087958e-04 4.815922236072e-04 0.0 
4.815922236072e-04 9.723515048694e-04 0.0 
0.0 0.0 0.0 
-3.784587234742e-04 2.026888665208e-03 0.0 
2.026888665208e-03 1.257620834235e-02 0.0 
0.0 0.0 0.0 
-7.211188446196e-04 2.647573235080e-06 0.0 
2.647573235080e-06 1.012475436549e-02 0.0 
0.0 0.0 0.0 
-7.159650928976e-04 1.835515035256e-05 0.0 
1.835515035256e-05 1.014994750109e-02 0.0 
0.0 0.0 0.0 
-6.839531836734e-04 9.700601909560e-06 0.0 
9.700601909560e-06 1.015073292616e-02 0.0 
0.0 0.0 0.0 
-7.043600142799e-04 3.599129328203e-07 0.0 
3.599129328203e-07 1.015091324599e-02 0.0 
0.0 0.0 0.0 
-6.847920482252e-04 1.448894895972e-06 0.0 
1.448894895972e-06 1.015063982889e-02 0.0 
0.0 0.0 0.0 
-6.977987633755e-04 -6.101588889141e-06 0.0 
-6.101588889141e-06 1.014758439734e-02 0.0 
0.0 0.0 0.0 
-6.784464872537e-04 -4.494852453409e-06 0.0 
-4.494852453409e-06 1.014706952730e-02 0.0 
0.0 0.0 0.0 
-6.916406547779e-04 -1.202729161814e-05 0.0 
-1.202729161814e-05 1.014398954327e-02 0.0 
0.0 0.0 0.0 
-6.664321359865e-04 -7.805808244826e-06 0.0 
-7.805808244826e-06 1.014254028932e-02 0.0 
0.0 0.0 0.0 
-6.859453791103e-04 -1.746255504815e-05 0.0 
-1.746255504815e-05 1.014022213791e-02 0.0 
0.0 0.0 0.0 
-6.490088166239e-04 -1.019507469760e-05 0.0 
-1.019507469760e-05 1.013721082115e-02 0.0 
0.0 0.0 0.0 
-6.785914301815e-04 -2.316884207321e-05 0.0 
-2.316884207321e-05 1.013593877133e-02 0.0 
0.0 0.0 0.0 
-6.267193191294e-04 -1.171751644500e-05 0.0 
-1.171751644500e-05 1.013034222396e-02 0.0 
0.0 0.0 0.0 
-6.712452377059e-04 -2.942213363423e-05 0.0 
-2.942213363423e-05 1.013051142435e-02 0.0 
0.0 0.0 0.0 
-5.999698640774e-04 -1.360803264880e-05 0.0 
-1.360803264880e-05 1.012133476901e-02 0.0 
0.0 0.0 0.0 
-7.433995658482e-04 2.587079076752e-04 0.0 
2.587079076752e-04 1.012605307835e-02 0.0 
0.0 0.0 0.0 
-6.605982374246e-04 -3.605577729385e-05 0.0 
-3.605577729385e-05 1.012295568155e-02 0.0 
0.0 0.0 0.0 
-9.548877354706e-04 1.766353989855e-04 0.0 
1.766353989855e-04 1.024274469051e-02 0.0 
0.0 0.0 0.0 
-5.680149453866e-04 -1.462971430028e-05 0.0 
-1.462971430028e-05 1.010862692405e-02 0.0 
0.0 0.0 0.0 
-6.506328543254e-04 -4.100387436819e-05 0.0 
-4.100387436819e-05 1.011553825772e-02 0.0 
0.0 0.0 0.0 
-5.303112461927e-04 -1.525870638906e-05 0.0 
-1.525870638906e-05 1.009514557323e-02 0.0 
0.0 0.0 0.0 
-6.424487401927e-04 -4.625588476648e-05 0.0 
-4.625588476648e-05 1.010914193487e-02 0.0 
0.0 0.0 0.0 
-4.886399380476e-04 -1.562457840379e-05 0.0 
-1.562457840379e-05 1.008066292571e-02 0.0 
0.0 0.0 0.0 
-6.361073860273e-04 -5.118052218849e-05 0.0 
-5.118052218849e-05 1.010314365392e-02 0.0 
0.0 0.0 0.0 
-3.962192763759e-04 7.492248126051e-05 0.0 
7.492248126051e-05 9.861600080051e-03 0.0 
0.0 0.0 0.0 
-4.445402061561e-04 -1.483860047031e-05 0.0 
-1.483860047031e-05 1.006409745470e-02 0.0 
0.0 0.0 0.0 
-6.354343877202e-04 -5.391082326537e-05 0.0 
-5.391082326537e-05 1.009832611541e-02 0.0 
0.0 0.0 0.0 
-3.997798318670e-04 -1.234906422170e-05 0.0 
-1.234906422170e-05 1.004641995957e-02 0.0 
0.0 0.0 0.0 
-6.452419871035e-04 -5.480480882010e-05 0.0 
-5.480480882010e-05 1.009493525219e-02 0.0 
0.0 0.0 0.0 
-3.563293155202e-04 -6.623012180486e-06 0.0 
-6.623012180486e-06 1.002581619227e-02 0.0 
0.0 0.0 0.0 
-6.669233005520e-04 -4.105743444119e-05 0.0 
-4.105743444119e-05 1.010409893986e-02 0.0 
0.0 0.0 0.0 
-3.233469547762e-04 9.472731594235e-06 0.0 
9.472731594235e-06 1.001788589171e-02 0.0 
0.0 0.0 0.0 
-7.281383477528e-04 -2.711087708623e-05 0.0 
-2.711087708623e-05 1.011971046278e-02 0.0 
0.0 0.0 0.0 
-7.804183457848e-04 3.985074211017e-05 0.0 
3.985074211017e-05 1.015554695354e-02 0.0 
0.0 0.0 0.0 
-3.151960145895e-04 3.899821587765e-05 0.0 
3.899821587765e-05 1.000075241511e-02 0.0 
0.0 0.0 0.0 
-1.191092357163e-03 5.985092108203e-04 0.0 
5.985092108203e-04 1.039885467697e-02 0.0 
0.0 0.0 0.0 
-3.739035039636e-04 1.247668304938e-04 0.0 
1.247668304938e-04 1.000994153512e-02 0.0 
0.0 0.0 0.0 
-1.051163783643e-03 1.419175117145e-04 0.0 
1.419175117145e-04 1.038846554845e-02 0.0 
0.0 0.0 0.0 
-7.659540419294e-04 -5.536108430704e-05 0.0 
-5.536108430704e-05 1.018448307659e-02 0.0 
0.0 0.0 0.0 
-7.305000654403e-04 6.682522348174e-05 0.0 
6.682522348174e-05 1.012155134624e-02 0.0 
0.0 0.0 0.0 
-7.212395003653e-04 -2.791891779598e-07 0.0 
-2.791891779598e-07 1.024938601101e-02 0.0 
0.0 0.0 0.0 
-7.754520573908e-04 1.322650393173e-05 0.0 
1.322650393173e-05 1.005976633047e-02 0.0 
0.0 0.0 0.0 
-1.238645049239e-03 6.454409648742e-04 0.0 
6.454409648742e-04 9.973259396915e-03 0.0 
0.0 0.0 0.0 
-7.106788214856e-04 -2.003969361168e-05 0.0 
-2.003969361168e-05 1.061892297414e-02 0.0 
0.0 0.0 0.0 
-7.159650928976e-04 -8.930073173270e-08 0.0 
-8.930073173270e-08 1.058605194215e-02 0.0 
0.0 0.0 0.0 
-7.070752656703e-04 -9.855877879856e-06 0.0 
-9.855877879856e-06 1.058487217243e-02 0.0 
0.0 0.0 0.0 
-7.043600142799e-04 -8.822450951627e-06 0.0 
-8.822450951627e-06 1.058073045915e-02 0.0 
0.0 0.0 0.0 
-7.069296597871e-04 -9.322797598240e-06 0.0 
-9.322797598240e-06 1.058066216857e-02 0.0 
0.0 0.0 0.0 
-6.977987633755e-04 -1.283883559495e-05 0.0 
-1.283883559495e-05 1.057975811212e-02 0.0 
0.0 0.0 0.0 
-7.084384778847e-04 -1.424021239643e-05 0.0 
-1.424021239643e-05 1.057957563889e-02 0.0 
0.0 0.0 0.0 
-6.916406547779e-04 -1.981411928730e-05 0.0 
-1.981411928730e-05 1.057686350667e-02 0.0 
0.0 0.0 0.0 
-7.084420091515e-04 -1.712926800206e-05 0.0 
-1.712926800206e-05 1.057801651990e-02 0.0 
0.0 0.0 0.0 
-6.859453791103e-04 -2.587943392207e-05 0.0 
-2.587943392207e-05 1.057717132782e-02 0.0 
0.0 0.0 0.0 
-7.139264467266e-04 -2.203534845889e-05 0.0 
-2.203534845889e-05 1.057939944659e-02 0.0 
0.0 0.0 0.0 
-6.785914301815e-04 -3.311164849861e-05 0.0 
-3.311164849861e-05 1.057470814884e-02 0.0 
0.0 0.0 0.0 
-7.177137741209e-04 -2.400402554392e-05 0.0 
-2.400402554392e-05 1.058011664657e-02 0.0 
0.0 0.0 0.0 
-9.278103885461e-04 2.541692312120e-04 0.0 
2.541692312120e-04 1.059487717333e-02 0.0 
0.0 0.0 0.0 
-6.712452377059e-04 -3.881044459481e-05 0.0 
-3.881044459481e-05 1.057558811565e-02 0.0 
0.0 0.0 0.0 
-7.275505762387e-04 -3.063505923452e-05 0.0 
-3.063505923452e-05 1.058255260639e-02 0.0 
0.0 0.0 0.0 
-7.804183457848e-04 1.915718829372e-04 0.0 
1.915718829372e-04 1.040615262806e-02 0.0 
0.0 0.0 0.0 
-6.605982374246e-04 -4.606204414133e-05 0.0 
-4.606204414133e-05 1.056904106882e-02 0.0 
0.0 0.0 0.0 
-7.358278195642e-04 -3.143201349849e-05 0.0 
-3.143201349849e-05 1.058205765610e-02 0.0 
0.0 0.0 0.0 
-1.029836687812e-03 1.969723742557e-04 0.0 
1.969723742557e-04 1.067758060510e-02 0.0 
0.0 0.0 0.0 
-6.506328543254e-04 -4.963847272972e-05 0.0 
-4.963847272972e-05 1.056531080616e-02 0.0 
0.0 0.0 0.0 
-7.505623697320e-04 -3.021473923873e-05 0.0 
-3.021473923873e-05 1.058538095348e-02 0.0 
0.0 0.0 0.0 
-6.424487401927e-04 -5.046380279273e-05 0.0 
-5.046380279273e-05 1.056330260171e-02 0.0 
0.0 0.0 0.0 
-7.706307808160e-04 -2.841587987356e-05 0.0 
-2.841587987356e-05 1.059098588306e-02 0.0 
0.0 0.0 0.0 
-6.361073860273e-04 -4.688372801122e-05 0.0 
-4.688372801122e-05 1.055856250739e-02 0.0 
0.0 0.0 0.0 
-1.093382394498e-03 4.174435787537e-04 0.0 
4.174435787537e-04 1.071796830788e-02 0.0 
0.0 0.0 0.0 
-7.971688835101e-04 -2.009562967787e-05 0.0 
-2.009562967787e-05 1.059753477716e-02 0.0 
0.0 0.0 0.0 
-6.354343877202e-04 -3.482220084813e-05 0.0 
-3.482220084813e-05 1.055402667247e-02 0.0 
0.0 0.0 0.0 
-6.452419871035e-04 -1.207005701279e-05 0.0 
-1.207005701279e-05 1.055227714535e-02 0.0 
0.0 0.0 0.0 
-8.359468623329e-04 -3.041539443383e-06 0.0 
-3.041539443383e-06 1.060764320609e-02 0.0 
0.0 0.0 0.0 
-6.669233005520e-04 3.412578004800e-05 0.0 
3.412578004800e-05 1.053230630027e-02 0.0 
0.0 0.0 0.0 
-8.950490315627e-04 1.911975260652e-05 0.0 
1.911975260652e-05 1.062031769851e-02 0.0 
0.0 0.0 0.0 
-7.281383477528e-04 1.251349646771e-04 0.0 
1.251349646771e-04 1.054315683636e-02 0.0 
0.0 0.0 0.0 
-9.244976951164e-04 9.188186359952e-05 0.0 
9.188186359952e-05 1.063340097500e-02 0.0 
0.0 0.0 0.0 
-1.039981423518e-03 2.348684156712e-04 0.0 
2.348684156712e-04 1.061351096675e-02 0.0 
0.0 0.0 0.0 
-6.944765252808e-04 -6.023686672438e-05 0.0 
-6.023686672438e-05 1.055700322216e-02 0.0 
0.0 0.0 0.0 
-7.316398629232e-04 5.372782187058e-05 0.0 
5.372782187058e-05 1.062328037214e-02 0.0 
0.0 0.0 0.0 
-7.212395003653e-04 -9.089613810939e-06 0.0 
-9.089613810939e-06 1.048292921206e-02 0.0 
0.0 0.0 0.0 
-7.051920503401e-04 4.799290114278e-06 0.0 
4.799290114278e-06 1.069334434910e-02 0.0 
0.0 0.0 0.0 
-9.548877354706e-04 4.568852246810e-04 0.0 
4.568852246810e-04 1.037022073573e-02 0.0 
0.0 0.0 0.0 
-7.106788214856e-04 -2.669919870005e-05 0.0 
-2.669919870005e-05 1.097803058233e-02 0.0 
0.0 0.0 0.0 
-6.965262587545e-04 -5.658936878557e-06 0.0 
-5.658936878557e-06 1.100509925490e-02 0.0 
0.0 0.0 0.0 
-7.070752656703e-04 -1.229421118007e-05 0.0 
-1.229421118007e-05 1.100591637716e-02 0.0 
0.0 0.0 0.0 
-7.071692471028e-04 -9.312386578460e-06 0.0 
-9.312386578460e-06 1.101143195018e-02 0.0 
0.0 0.0 0.0 
-7.069296597871e-04 -1.046334349749e-05 0.0 
-1.046334349749e-05 1.101163319493e-02 0.0 
0.0 0.0 0.0 
-7.135765339140e-04 -1.080820703649e-05 0.0 
-1.080820703649e-05 1.101619951422e-02 0.0 
0.0 0.0 0.0 
-7.084384778847e-04 -1.396123914194e-05 0.0 
-1.396123914194e-05 1.101687028916e-02 0.0 
0.0 0.0 0.0 
-7.189812175181e-04 -1.917667141666e-05 0.0 
-1.917667141666e-05 1.101564330956e-02 0.0 
0.0 0.0 0.0 
-7.084420091515e-04 -1.372223370694e-05 0.0 
-1.372223370694e-05 1.101381113912e-02 0.0 
0.0 0.0 0.0 
-7.293891726672e-04 -1.761036345096e-05 0.0 
-1.761036345096e-05 1.102161354152e-02 0.0 
0.0 0.0 0.0 
-7.139264467266e-04 -1.688573897663e-05 0.0 
-1.688573897663e-05 1.102087625353e-02 0.0 
0.0 0.0 0.0 
-7.468734049619e-04 -2.669312353355e-05 0.0 
-2.669312353355e-05 1.102607692352e-02 0.0 
0.0 0.0 0.0 
-1.028227856406e-03 2.143311455774e-04 0.0 
2.143311455774e-04 1.106186733613e-02 0.0 
0.0 0.0 0.0 
-7.177137741209e-04 -1.688064303204e-05 0.0 
-1.688064303204e-05 1.102080048526e-02 0.0 
0.0 0.0 0.0 
-1.073680908128e-03 1.620161225290e-04 0.0 
1.620161225290e-04 1.111687448158e-02 0.0 
0.0 0.0 0.0 
-7.554119650922e-04 -2.340511993531e-05 0.0 
-2.340511993531e-05 1.103286683642e-02 0.0 
0.0 0.0 0.0 
-7.275505762387e-04 -1.681196232762e-05 0.0 
-1.681196232762e-05 1.102822167499e-02 0.0 
0.0 0.0 0.0 
-7.894010444464e-04 -3.159753139281e-05 0.0 
-3.159753139281e-05 1.103991810685e-02 0.0 
0.0 0.0 0.0 
-7.358278195642e-04 -1.286694629174e-05 0.0 
-1.286694629174e-05 1.102624808151e-02 0.0 
0.0 0.0 0.0 
-8.181459762803e-04 -2.581291856300e-05 0.0 
-2.581291856300e-05 1.104898807419e-02 0.0 
0.0 0.0 0.0 
-7.505623697320e-04 -5.877576546956e-06 0.0 
-5.877576546956e-06 1.103141506968e-02 0.0 
0.0 0.0 0.0 
-8.475145780363e-04 -1.778773190087e-05 0.0 
-1.778773190087e-05 1.105966786833e-02 0.0 
0.0 0.0 0.0 
-9.244976951164e-04 1.924771362996e-04 0.0 
1.924771362996e-04 1.088444998883e-02 0.0 
0.0 0.0 0.0 
-7.706307808160e-04 7.994714666177e-06 0.0 
7.994714666177e-06 1.103493758331e-02 0.0 
0.0 0.0 0.0 
-8.894297903949e-04 -2.795637948757e-06 0.0 
-2.795637948757e-06 1.107071297530e-02 0.0 
0.0 0.0 0.0 
-7.971688835101e-04 3.354354665018e-05 0.0 
3.354354665018e-05 1.103356907806e-02 0.0 
0.0 0.0 0.0 
-9.367599393652e-04 2.946616532575e-05 0.0 
2.946616532575e-05 1.108178461017e-02 0.0 
0.0 0.0 0.0 
-9.951877583462e-04 8.504806187368e-05 0.0 
8.504806187368e-05 1.109624383173e-02 0.0 
0.0 0.0 0.0 
-8.359468623329e-04 7.649623110468e-05 0.0 
7.649623110468e-05 1.103108219828e-02 0.0 
0.0 0.0 0.0 
-8.950490315627e-04 1.387257000889e-04 0.0 
1.387257000889e-04 1.103506017946e-02 0.0 
0.0 0.0 0.0 
-1.110543631951e-03 3.202810121858e-04 0.0 
3.202810121858e-04 1.114093877535e-02 0.0 
0.0 0.0 0.0 
-1.071515890190e-03 2.054102640823e-04 0.0 
2.054102640823e-04 1.100216082331e-02 0.0 
0.0 0.0 0.0 
-7.131442987163e-04 -5.355481017971e-05 0.0 
-5.355481017971e-05 1.100533650283e-02 0.0 
0.0 0.0 0.0 
-6.950680030173e-04 5.796838680357e-05 0.0 
5.796838680357e-05 1.097303663196e-02 0.0 
0.0 0.0 0.0 
-7.027863617355e-04 2.560334392245e-07 0.0 
2.560334392245e-07 1.110003523960e-02 0.0 
0.0 0.0 0.0 
-7.051920503401e-04 6.140292034165e-06 0.0 
6.140292034165e-06 1.088196642683e-02 0.0 
0.0 0.0 0.0 
-1.029836687812e-03 3.517130390031e-04 0.0 
3.517130390031e-04 1.086495783807e-02 0.0 
0.0 0.0 0.0 

TENSORS element_materi_strain_plasti float
-4.741889373871e-04 2.342858306946e-04 0.0 
2.342858306946e-04 2.814002888893e-03 0.0 
0.0 0.0 -4.220722639049e-04 
-3.897703972720e-04 -2.636930979350e-04 0.0 
-2.636930979350e-04 2.518846771568e-03 0.0 
0.0 0.0 -4.303330772826e-04 
-1.259341393326e-03 -3.090507185477e-05 0.0 
-3.090507185477e-05 8.411433358411e-03 0.0 
0.0 0.0 -1.278236581085e-03 
-1.261464826866e-03 -1.747915258518e-04 0.0 
-1.747915258518e-04 8.480496286503e-03 0.0 
0.0 0.0 -1.255598393855e-03 
-7.983281552708e-04 2.303090028113e-04 0.0 
2.303090028113e-04 5.254489729699e-03 0.0 
0.0 0.0 -7.961861350945e-04 
-2.059346616286e-04 2.207607006017e-04 0.0 
2.207607006017e-04 1.009101900264e-03 0.0 
0.0 0.0 -1.793459522598e-04 
-7.878967474187e-04 2.695248863588e-04 0.0 
2.695248863588e-04 5.204562819075e-03 0.0 
0.0 0.0 -8.011023898636e-04 
-4.128254064944e-04 4.080923401224e-05 0.0 
4.080923401224e-05 2.687408780313e-03 0.0 
0.0 0.0 -4.045669272905e-04 
-8.029485881417e-04 -2.877766516214e-04 0.0 
-2.877766516214e-04 5.280709952101e-03 0.0 
0.0 0.0 -7.977904104816e-04 
-1.248589478216e-03 2.242094407416e-04 0.0 
2.242094407416e-04 8.399546616313e-03 0.0 
0.0 0.0 -1.253060141438e-03 
-8.734037686266e-04 1.480436446760e-04 0.0 
1.480436446760e-04 5.724300399011e-03 0.0 
0.0 0.0 -8.816510380685e-04 
-3.813204680076e-04 2.190974573023e-07 0.0 
2.190974573023e-07 2.153866306060e-03 0.0 
0.0 0.0 -3.735031833740e-04 
-1.251882997596e-03 2.259053558601e-04 0.0 
2.259053558601e-04 8.467796470942e-03 0.0 
0.0 0.0 -1.259187713256e-03 
-8.479147549375e-04 1.860153946805e-04 0.0 
1.860153946805e-04 5.638680799524e-03 0.0 
0.0 0.0 -8.526168115438e-04 
-1.288189434839e-03 -1.832848558744e-04 0.0 
-1.832848558744e-04 8.626562874010e-03 0.0 
0.0 0.0 -1.289538875031e-03 
-1.301181403367e-03 2.039645816312e-04 0.0 
2.039645816312e-04 8.626062176419e-03 0.0 
0.0 0.0 -1.285984941237e-03 
-7.889097476292e-04 4.689353054498e-06 0.0 
4.689353054498e-06 5.256085596916e-03 0.0 
0.0 0.0 -7.740676797406e-04 
-1.741032192830e-04 -1.984587543237e-04 0.0 
-1.984587543237e-04 9.106845467383e-04 0.0 
0.0 0.0 -1.826237857505e-04 
-3.103934600629e-04 -1.188849736468e-04 0.0 
-1.188849736468e-04 1.808737160777e-03 0.0 
0.0 0.0 -2.776016825098e-04 
-3.017260514233e-04 1.101242532993e-04 0.0 
1.101242532993e-04 1.644506395847e-03 0.0 
0.0 0.0 -3.031105466646e-04 
-1.236978180346e-03 -2.273342210413e-04 0.0 
-2.273342210413e-04 8.474882909105e-03 0.0 
0.0 0.0 -1.250388265701e-03 
-4.788832533263e-04 9.235771209212e-05 0.0 
9.235771209212e-05 2.938553769608e-03 0.0 
0.0 0.0 -4.811142067971e-04 
-5.153479436011e-04 -1.000310601358e-04 0.0 
-1.000310601358e-04 3.322116646267e-03 0.0 
0.0 0.0 -5.091556215902e-04 
-1.207914407075e-03 -1.521033174033e-04 0.0 
-1.521033174033e-04 8.119148175608e-03 0.0 
0.0 0.0 -1.210372970477e-03 
-9.004893154001e-04 2.196977328254e-04 0.0 
2.196977328254e-04 6.011080091783e-03 0.0 
0.0 0.0 -9.130988374533e-04 
-9.174590915307e-04 -1.450811372332e-04 0.0 
-1.450811372332e-04 6.162434229051e-03 0.0 
0.0 0.0 -9.179597371190e-04 
-7.131055436639e-04 -1.829825241457e-05 0.0 
-1.829825241457e-05 4.865076399380e-03 0.0 
0.0 0.0 -7.148082707961e-04 
-1.275014108034e-03 1.320223363471e-05 0.0 
1.320223363471e-05 8.706353732723e-03 0.0 
0.0 0.0 -1.266047838742e-03 
-9.084778585211e-04 -2.532626103826e-04 0.0 
-2.532626103826e-04 6.055345996359e-03 0.0 
0.0 0.0 -9.113908267906e-04 
-1.248671644074e-03 1.500744587119e-04 0.0 
1.500744587119e-04 8.319441606585e-03 0.0 
0.0 0.0 -1.237914324842e-03 
-2.162503473685e-04 3.355180743616e-05 0.0 
3.355180743616e-05 1.390767343688e-03 0.0 
0.0 0.0 -2.185975924268e-04 
-1.102777646679e-04 3.092462500308e-05 0.0 
3.092462500308e-05 6.008114765358e-04 0.0 
0.0 0.0 -1.059755802940e-04 
-1.291285801941e-03 5.563014948252e-05 0.0 
5.563014948252e-05 8.705630370944e-03 0.0 
0.0 0.0 -1.261301343383e-03 
-1.086169392383e-03 -1.843155554573e-04 0.0 
-1.843155554573e-04 7.250914267634e-03 0.0 
0.0 0.0 -1.090200430068e-03 
-1.229627234356e-03 -2.081816156675e-04 0.0 
-2.081816156675e-04 8.461501921680e-03 0.0 
0.0 0.0 -1.254989870190e-03 
-1.333928130876e-03 3.870959300371e-04 0.0 
3.870959300371e-04 8.918766405510e-03 0.0 
0.0 0.0 -1.314886350686e-03 
-1.319549054242e-03 -4.082653656671e-04 0.0 
-4.082653656671e-04 8.897494246722e-03 0.0 
0.0 0.0 -1.314653105918e-03 
-1.251043943053e-03 1.755104499557e-04 0.0 
1.755104499557e-04 8.438640087517e-03 0.0 
0.0 0.0 -1.264739017786e-03 
-7.261695585194e-04 -3.174047361397e-04 0.0 
-3.174047361397e-04 4.739951691414e-03 0.0 
0.0 0.0 -7.380763454960e-04 
-7.293562810949e-04 3.567993421673e-04 0.0 
3.567993421673e-04 4.808642079977e-03 0.0 
0.0 0.0 -7.371174501546e-04 
-5.783756129442e-04 -1.365848045621e-04 0.0 
-1.365848045621e-04 3.784424820314e-03 0.0 
0.0 0.0 -5.794556523337e-04 
-1.262877717034e-03 1.019690194500e-05 0.0 
1.019690194500e-05 8.450550888573e-03 0.0 
0.0 0.0 -1.280756488215e-03 
-3.226099019571e-04 2.179474137412e-04 0.0 
2.179474137412e-04 1.923375161646e-03 0.0 
0.0 0.0 -3.207852484642e-04 
-7.228265239816e-04 5.532830836335e-05 0.0 
5.532830836335e-05 4.629144605835e-03 0.0 
0.0 0.0 -7.350059072715e-04 
-1.225055898073e-03 -9.816574622214e-05 0.0 
-9.816574622214e-05 8.293394798268e-03 0.0 
0.0 0.0 -1.212858513926e-03 
-3.206551623609e-04 -1.904275671922e-04 0.0 
-1.904275671922e-04 1.917970267075e-03 0.0 
0.0 0.0 -3.198426158856e-04 
-1.782809379457e-04 -4.378063602815e-06 0.0 
-4.378063602815e-06 7.801372807209e-04 0.0 
0.0 0.0 -1.830859565219e-04 
-1.220501464306e-03 6.316947048485e-05 0.0 
6.316947048485e-05 8.106622909265e-03 0.0 
0.0 0.0 -1.234743356787e-03 
-9.829459878545e-05 4.583948434493e-06 0.0 
4.583948434493e-06 3.276774367732e-04 0.0 
0.0 0.0 -9.830693056618e-05 
-8.022047642295e-04 -1.811997065716e-04 0.0 
-1.811997065716e-04 5.439298518069e-03 0.0 
0.0 0.0 -8.229436299569e-04 
-5.489987759976e-04 -1.133059547326e-04 0.0 
-1.133059547326e-04 3.572814356686e-03 0.0 
0.0 0.0 -5.440916476828e-04 
-3.388458973027e-04 -7.042877961888e-05 0.0 
-7.042877961888e-05 2.248035829402e-03 0.0 
0.0 0.0 -3.443810396916e-04 
-3.074157494333e-04 -1.467796149718e-04 0.0 
-1.467796149718e-04 1.814374481458e-03 0.0 
0.0 0.0 -3.047895897720e-04 
-5.421593945536e-04 1.293548672114e-04 0.0 
1.293548672114e-04 3.418474043213e-03 0.0 
0.0 0.0 -5.489460876789e-04 
-1.266579725590e-03 -7.893235167102e-06 0.0 
-7.893235167102e-06 8.468672292321e-03 0.0 
0.0 0.0 -1.282189168212e-03 
-4.597210026087e-04 -1.452187243082e-04 0.0 
-1.452187243082e-04 2.937502524048e-03 0.0 
0.0 0.0 -4.512233509908e-04 
-3.611878323951e-04 1.444175472609e-04 0.0 
1.444175472609e-04 2.127268062759e-03 0.0 
0.0 0.0 -3.694212080277e-04 
-1.088084509005e-03 1.827090950975e-04 0.0 
1.827090950975e-04 7.290496234404e-03 0.0 
0.0 0.0 -1.087734043503e-03 
-2.215722591698e-04 2.179680801215e-05 0.0 
2.179680801215e-05 1.355906413413e-03 0.0 
0.0 0.0 -2.189683579105e-04 
-1.291565119731e-03 -2.058202376930e-04 0.0 
-2.058202376930e-04 8.638287399564e-03 0.0 
0.0 0.0 -1.285320035817e-03 
-9.406322495114e-05 -1.263405609948e-04 0.0 
-1.263405609948e-04 5.178868060056e-04 0.0 
0.0 0.0 -9.532668554595e-05 
-1.207108165930e-03 2.281727388557e-04 0.0 
2.281727388557e-04 8.099161405669e-03 0.0 
0.0 0.0 -1.210824713543e-03 
-5.507253245742e-04 2.263693422712e-04 0.0 
2.263693422712e-04 3.467321570737e-03 0.0 
0.0 0.0 -5.497085007362e-04 
-2.633068753573e-04 1.211642318687e-04 0.0 
1.211642318687e-04 1.594924151360e-03 0.0 
0.0 0.0 -2.769417647402e-04 
-1.253722868311e-03 -1.824681277037e-04 0.0 
-1.824681277037e-04 8.465445333241e-03 0.0 
0.0 0.0 -1.257478522087e-03 
-5.218987792326e-04 1.045965667427e-04 0.0 
1.045965667427e-04 3.169150320614e-03 0.0 
0.0 0.0 -5.137572693775e-04 
-6.027079853021e-05 4.538885378733e-05 0.0 
4.538885378733e-05 2.053936984274e-04 0.0 
0.0 0.0 -6.219552852736e-05 
-1.264974411680e-03 -7.934823425824e-05 0.0 
-7.934823425824e-05 8.671954395754e-03 0.0 
0.0 0.0 -1.261660853087e-03 
-2.446973118895e-04 -2.103372277075e-04 0.0 
-2.103372277075e-04 1.398643057908e-03 0.0 
0.0 0.0 -2.404310120911e-04 
-1.273528016320e-03 -3.786679226439e-06 0.0 
-3.786679226439e-06 8.448618323595e-03 0.0 
0.0 0.0 -1.282376455277e-03 
-9.491469452999e-04 -1.694945758870e-04 0.0 
-1.694945758870e-04 6.388198818832e-03 0.0 
0.0 0.0 -9.556290573178e-04 
-1.338499280800e-03 -4.782411066384e-06 0.0 
-4.782411066384e-06 8.836661036334e-03 0.0 
0.0 0.0 -1.338499280800e-03 
-1.237491500558e-03 1.679725136136e-06 0.0 
1.679725136136e-06 8.119391193773e-03 0.0 
0.0 0.0 -1.232909111256e-03 
-1.306267830690e-04 2.201659246920e-04 0.0 
2.201659246920e-04 5.612930774450e-04 0.0 
0.0 0.0 -1.295286970291e-04 
-4.862904107144e-04 1.519111044425e-04 0.0 
1.519111044425e-04 2.949318680170e-03 0.0 
0.0 0.0 -4.777371989943e-04 
-1.254133957623e-03 -1.731664304593e-04 0.0 
-1.731664304593e-04 8.495066883004e-03 0.0 
0.0 0.0 -1.262626981217e-03 
-1.278966520388e-03 -5.463065947739e-06 0.0 
-5.463065947739e-06 8.716306064884e-03 0.0 
0.0 0.0 -1.265352048664e-03 
-2.500278062254e-04 -1.904083940436e-04 0.0 
-1.904083940436e-04 1.447205075698e-03 0.0 
0.0 0.0 -2.510564503189e-04 
-2.134033531635e-04 -1.202880701253e-05 0.0 
-1.202880701253e-05 1.118917748560e-03 0.0 
0.0 0.0 -2.366757893512e-04 
-2.618885880878e-04 2.000957013545e-04 0.0 
2.000957013545e-04 1.434490946595e-03 0.0 
0.0 0.0 -2.525559601288e-04 
-2.561151872773e-04 2.173251173938e-04 0.0 
2.173251173938e-04 1.315804408785e-03 0.0 
0.0 0.0 -2.439992467140e-04 
-7.756433689863e-04 3.199927864604e-05 0.0 
3.199927864604e-05 4.983308918424e-03 0.0 
0.0 0.0 -7.918363975426e-04 
-4.925212314280e-04 -9.934539810259e-05 0.0 
-9.934539810259e-05 3.122416797223e-03 0.0 
0.0 0.0 -4.749402310763e-04 
-4.545793902690e-04 2.152694959795e-05 0.0 
2.152694959795e-05 2.617959458630e-03 0.0 
0.0 0.0 -4.438329512050e-04 
-8.539707940100e-04 -2.466642961344e-04 0.0 
-2.466642961344e-04 5.506675063211e-03 0.0 
0.0 0.0 -8.336771054075e-04 
-8.435305426983e-04 2.228252034013e-04 0.0 
2.228252034013e-04 5.474459253188e-03 0.0 
0.0 0.0 -8.358076868167e-04 
-9.896151407778e-04 -1.847277247936e-04 0.0 
-1.847277247936e-04 6.561076695027e-03 0.0 
0.0 0.0 -9.867109252839e-04 
-1.055581697673e-03 1.942475256944e-04 0.0 
1.942475256944e-04 7.096214809641e-03 0.0 
0.0 0.0 -1.058576829647e-03 
-1.087556198862e-03 -2.099876550133e-04 0.0 
-2.099876550133e-04 7.325766427452e-03 0.0 
0.0 0.0 -1.085941371602e-03 
-7.938707313230e-04 -2.935700947946e-04 0.0 
-2.935700947946e-04 5.166210845136e-03 0.0 
0.0 0.0 -7.983229688164e-04 
-9.891997245645e-05 3.705985749018e-05 0.0 
3.705985749018e-05 3.315907805062e-04 0.0 
0.0 0.0 -9.971606059273e-05 
-7.885073175136e-04 2.083610238613e-05 0.0 
2.083610238613e-05 5.061448418496e-03 0.0 
0.0 0.0 -7.928983479555e-04 
-1.080416093341e-03 -1.102030882250e-04 0.0 
-1.102030882250e-04 7.033104683541e-03 0.0 
0.0 0.0 -1.069439317440e-03 
-1.045886068578e-03 1.124481538710e-04 0.0 
1.124481538710e-04 7.095766026653e-03 0.0 
0.0 0.0 -1.046447409317e-03 
-1.328437641777e-03 -2.129776585030e-05 0.0 
-2.129776585030e-05 9.108372857470e-03 0.0 
0.0 0.0 -1.319970921405e-03 
-1.300424073257e-03 -1.489012867547e-04 0.0 
-1.489012867547e-04 8.723441004214e-03 0.0 
0.0 0.0 -1.294194962782e-03 
-7.712114504191e-04 -1.098703338913e-04 0.0 
-1.098703338913e-04 4.988523523052e-03 0.0 
0.0 0.0 -7.889745663688e-04 
-1.284794183645e-03 -1.672243708713e-06 0.0 
-1.672243708713e-06 8.719527791253e-03 0.0 
0.0 0.0 -1.263183913703e-03 
-8.948346215206e-04 -1.546261929542e-04 0.0 
-1.546261929542e-04 5.902983939671e-03 0.0 
0.0 0.0 -9.040008563810e-04 
-5.152734121650e-04 -1.377156700746e-04 0.0 
-1.377156700746e-04 3.387112186572e-03 0.0 
0.0 0.0 -5.198799001330e-04 
-7.537468891923e-04 -1.811454266392e-04 0.0 
-1.811454266392e-04 5.032849217033e-03 0.0 
0.0 0.0 -7.643292725053e-04 
-1.300051982580e-03 1.933815268577e-04 0.0 
1.933815268577e-04 8.643096299671e-03 0.0 
0.0 0.0 -1.287517816355e-03 
-1.042138929644e-03 -2.218801567961e-04 0.0 
-2.218801567961e-04 6.995297199161e-03 0.0 
0.0 0.0 -1.043751955586e-03 
-1.212978672895e-03 -2.149778667110e-04 0.0 
-2.149778667110e-04 8.151603330808e-03 0.0 
0.0 0.0 -1.209599240962e-03 
-4.772009659135e-04 -2.042000113292e-04 0.0 
-2.042000113292e-04 3.047489558792e-03 0.0 
0.0 0.0 -4.747543016519e-04 
-1.600906628411e-04 5.774618246661e-05 0.0 
5.774618246661e-05 1.025327310925e-03 0.0 
0.0 0.0 -1.624897275554e-04 
-1.185986913304e-03 -1.994673824885e-04 0.0 
-1.994673824885e-04 7.973913807476e-03 0.0 
0.0 0.0 -1.189902873528e-03 
-1.119764034804e-03 7.291963016848e-05 0.0 
7.291963016848e-05 7.561876066393e-03 0.0 
0.0 0.0 -1.108790581071e-03 
-1.060815689674e-04 -4.441233851537e-05 0.0 
-4.441233851537e-05 6.067820639570e-04 0.0 
0.0 0.0 -1.038131581323e-04 
-1.254593141611e-03 -8.600335574532e-05 0.0 
-8.600335574532e-05 8.491952788715e-03 0.0 
0.0 0.0 -1.285127980003e-03 
-1.054610615232e-03 1.830679382236e-04 0.0 
1.830679382236e-04 6.961937164299e-03 0.0 
0.0 0.0 -1.051491716222e-03 
-1.014932494026e-04 -1.696691582668e-04 0.0 
-1.696691582668e-04 3.826202340035e-04 0.0 
0.0 0.0 -1.013520483084e-04 
-6.301709070232e-04 2.090314443316e-04 0.0 
2.090314443316e-04 4.024350450833e-03 0.0 
0.0 0.0 -6.309931931857e-04 
-7.106440805021e-04 -1.470402379689e-04 0.0 
-1.470402379689e-04 4.709551499753e-03 0.0 
0.0 0.0 -7.153918394734e-04 
-5.826588176687e-04 -7.135686322073e-05 0.0 
-7.135686322073e-05 3.565625895428e-03 0.0 
0.0 0.0 -5.772375537024e-04 
-4.700128970004e-04 1.674991601262e-04 0.0 
1.674991601262e-04 2.986365482111e-03 0.0 
0.0 0.0 -4.852398935310e-04 
-5.464898507642e-04 -2.243214163868e-04 0.0 
-2.243214163868e-04 3.519571152392e-03 0.0 
0.0 0.0 -5.471823052058e-04 
-1.295684493703e-03 1.105875109316e-04 0.0 
1.105875109316e-04 8.547279304038e-03 0.0 
0.0 0.0 -1.283833066805e-03 
-8.570047827625e-04 1.861607891450e-04 0.0 
1.861607891450e-04 5.815261551137e-03 0.0 
0.0 0.0 -8.766975940251e-04 
-5.090056138741e-04 2.359482171436e-04 0.0 
2.359482171436e-04 3.233178911117e-03 0.0 
0.0 0.0 -5.122473358773e-04 
-2.401563577846e-04 -2.327182583627e-04 0.0 
-2.327182583627e-04 1.352155075276e-03 0.0 
0.0 0.0 -2.295267891405e-04 
-7.623542819022e-04 1.283036037405e-04 0.0 
1.283036037405e-04 5.225810972112e-03 0.0 
0.0 0.0 -7.744920945421e-04 
-1.103870852233e-03 -9.179179606017e-05 0.0 
-9.179179606017e-05 7.387674560017e-03 0.0 
0.0 0.0 -1.129288753466e-03 
-5.110192863145e-04 -2.509386708552e-04 0.0 
-2.509386708552e-04 3.262724462356e-03 0.0 
0.0 0.0 -5.109724225979e-04 
-1.701414425471e-04 -1.534722166071e-04 0.0 
-1.534722166071e-04 9.835208087659e-04 0.0 
0.0 0.0 -1.803716510945e-04 
-6.470086521654e-04 -1.523090755331e-04 0.0 
-1.523090755331e-04 4.254329431162e-03 0.0 
0.0 0.0 -6.470401313398e-04 
-5.812575166428e-04 7.210416783764e-05 0.0 
7.210416783764e-05 3.739643384108e-03 0.0 
0.0 0.0 -5.578851714504e-04 
-6.125337073477e-04 1.558115274756e-04 0.0 
1.558115274756e-04 3.923971555451e-03 0.0 
0.0 0.0 -6.167189930164e-04 
-1.291653437089e-03 1.656662026679e-04 0.0 
1.656662026679e-04 8.654933890924e-03 0.0 
0.0 0.0 -1.290671971449e-03 
-2.237296866694e-04 1.772304597235e-04 0.0 
1.772304597235e-04 1.151710267161e-03 0.0 
0.0 0.0 -2.092271396208e-04 
-9.141643905242e-04 1.684200684002e-04 0.0 
1.684200684002e-04 6.033430644026e-03 0.0 
0.0 0.0 -9.216843799351e-04 
-1.271942419784e-03 2.295590735456e-04 0.0 
2.295590735456e-04 8.471227576744e-03 0.0 
0.0 0.0 -1.256690274141e-03 
-6.609256603744e-04 1.763317732061e-04 0.0 
1.763317732061e-04 4.239720102404e-03 0.0 
0.0 0.0 -6.588732905211e-04 
-6.147586220519e-04 -1.550456399962e-04 0.0 
-1.550456399962e-04 4.029116054442e-03 0.0 
0.0 0.0 -6.139229799761e-04 
-1.241743830704e-03 2.520731219918e-04 0.0 
2.520731219918e-04 8.466488124430e-03 0.0 
0.0 0.0 -1.254964138299e-03 
-1.256064603940e-03 -2.623116581345e-04 0.0 
-2.623116581345e-04 8.488036362470e-03 0.0 
0.0 0.0 -1.261070974318e-03 
-9.903209289541e-04 1.774668260032e-04 0.0 
1.774668260032e-04 6.556735258886e-03 0.0 
0.0 0.0 -9.873713238705e-04 
-6.942353831373e-04 -1.750200192602e-04 0.0 
-1.750200192602e-04 4.553149239605e-03 0.0 
0.0 0.0 -6.916138708610e-04 
-1.272024970549e-03 7.302822811060e-05 0.0 
7.302822811060e-05 8.719688557752e-03 0.0 
0.0 0.0 -1.270330610962e-03 
-6.345922402826e-04 1.791748683913e-04 0.0 
1.791748683913e-04 4.059488016012e-03 0.0 
0.0 0.0 -6.326048069937e-04 
-1.254086704545e-03 -7.990901772481e-06 0.0 
-7.990901772481e-06 8.463054394802e-03 0.0 
0.0 0.0 -1.283174495648e-03 
-1.276280299661e-03 7.633372817429e-05 0.0 
7.633372817429e-05 8.703927362015e-03 0.0 
0.0 0.0 -1.267437373369e-03 
-8.565153591279e-04 -2.695301549172e-04 0.0 
-2.695301549172e-04 5.568894745570e-03 0.0 
0.0 0.0 -8.543707170918e-04 
-9.713226980400e-04 1.946342578751e-04 0.0 
1.946342578751e-04 6.532485670191e-03 0.0 
0.0 0.0 -9.817831382938e-04 
-6.315283379598e-04 -1.826998149000e-04 0.0 
-1.826998149000e-04 4.113094555245e-03 0.0 
0.0 0.0 -6.293189184696e-04 
-5.902450977428e-04 1.623031646130e-04 0.0 
1.623031646130e-04 3.689468477665e-03 0.0 
0.0 0.0 -5.830241378053e-04 
-7.249782629771e-04 1.809288523893e-04 0.0 
1.809288523893e-04 4.673091201127e-03 0.0 
0.0 0.0 -7.211932326589e-04 
-5.403888112139e-04 -1.689543050932e-04 0.0 
-1.689543050932e-04 3.513114326182e-03 0.0 
0.0 0.0 -5.383041810906e-04 
-7.661110268238e-04 -1.968496736506e-04 0.0 
-1.968496736506e-04 5.166653984338e-03 0.0 
0.0 0.0 -7.693993191400e-04 
-6.294182824657e-04 -2.163757471590e-04 0.0 
-2.163757471590e-04 4.099286379753e-03 0.0 
0.0 0.0 -6.275039421266e-04 
-9.046107145180e-05 -7.326081393818e-05 0.0 
-7.326081393818e-05 3.093039216746e-04 0.0 
0.0 0.0 -9.378979295261e-05 
-8.218888591145e-04 -1.362265050310e-05 0.0 
-1.362265050310e-05 5.568518320124e-03 0.0 
0.0 0.0 -8.171079392438e-04 
-2.708662158631e-04 3.135426371183e-06 0.0 
3.135426371183e-06 1.198400692882e-03 0.0 
0.0 0.0 -2.373169254524e-04 
-6.825469564227e-04 -1.538944897681e-04 0.0 
-1.538944897681e-04 4.493577698030e-03 0.0 
0.0 0.0 -6.809683978454e-04 
-1.266750237588e-03 4.200148413707e-06 0.0 
4.200148413707e-06 8.473073137795e-03 0.0 
0.0 0.0 -1.284796145094e-03 
-4.841925383156e-04 2.284371901656e-04 0.0 
2.284371901656e-04 3.002882293729e-03 0.0 
0.0 0.0 -4.767992880414e-04 
-1.020870051268e-03 2.043993854784e-04 0.0 
2.043993854784e-04 6.818231983257e-03 0.0 
0.0 0.0 -1.021089721936e-03 
-3.490407114895e-04 -2.220876940667e-04 0.0 
-2.220876940667e-04 2.148206482994e-03 0.0 
0.0 0.0 -3.540742325023e-04 
-1.043282338519e-03 2.368159947985e-04 0.0 
2.368159947985e-04 6.958410863996e-03 0.0 
0.0 0.0 -1.044905595188e-03 
-8.013630412541e-04 6.389824081770e-06 0.0 
6.389824081770e-06 5.002686662292e-03 0.0 
0.0 0.0 -7.899655494116e-04 
-5.947683694498e-04 2.081256616157e-04 0.0 
2.081256616157e-04 3.787155443009e-03 0.0 
0.0 0.0 -5.931463391684e-04 
-1.121794229525e-03 -2.159685184144e-04 0.0 
-2.159685184144e-04 7.508906289541e-03 0.0 
0.0 0.0 -1.120963572432e-03 
-2.180914166738e-04 1.756512204205e-04 0.0 
1.756512204205e-04 1.241780399830e-03 0.0 
0.0 0.0 -2.346376350630e-04 
-1.178651579784e-03 2.200776692921e-04 0.0 
2.200776692921e-04 7.962810812677e-03 0.0 
0.0 0.0 -1.189111243166e-03 
-7.770557330009e-04 1.799043213504e-04 0.0 
1.799043213504e-04 5.036915018676e-03 0.0 
0.0 0.0 -7.711223959738e-04 
-1.280064085681e-03 1.291641233302e-05 0.0 
1.291641233302e-05 8.715123744244e-03 0.0 
0.0 0.0 -1.265987209193e-03 
-7.886647595986e-04 2.426638412859e-05 0.0 
2.426638412859e-05 5.002569468986e-03 0.0 
0.0 0.0 -7.842605076999e-04 
-5.085061027867e-04 1.624719349291e-04 0.0 
1.624719349291e-04 3.132188298831e-03 0.0 
0.0 0.0 -5.042822341261e-04 
-6.680122214844e-04 1.543414038777e-04 0.0 
1.543414038777e-04 4.389762745766e-03 0.0 
0.0 0.0 -6.840799553763e-04 
-9.007934225225e-04 -1.247506640906e-04 0.0 
-1.247506640906e-04 5.946782140169e-03 0.0 
0.0 0.0 -8.722824885218e-04 
-3.656654935952e-04 2.470171187882e-04 0.0 
2.470171187882e-04 2.250740956869e-03 0.0 
0.0 0.0 -3.514598124168e-04 
-5.924594186081e-04 -2.113287385342e-04 0.0 
-2.113287385342e-04 3.843594924053e-03 0.0 
0.0 0.0 -5.911455407098e-04 
-1.021044424836e-03 -2.319523584095e-04 0.0 
-2.319523584095e-04 6.800629387681e-03 0.0 
0.0 0.0 -1.016465148841e-03 
-7.832948860766e-04 1.542506256290e-04 0.0 
1.542506256290e-04 5.221219062028e-03 0.0 
0.0 0.0 -7.680022369673e-04 
-5.676669992827e-04 1.711896275724e-04 0.0 
1.711896275724e-04 3.564089172862e-03 0.0 
0.0 0.0 -5.666226778950e-04 
-6.536822883720e-04 1.457424227354e-04 0.0 
1.457424227354e-04 4.156474681675e-03 0.0 
0.0 0.0 -6.498546761489e-04 
-1.132270982309e-03 2.069255922965e-04 0.0 
2.069255922965e-04 7.587995835191e-03 0.0 
0.0 0.0 -1.136725521675e-03 
-6.243703934397e-04 -5.657386080576e-05 0.0 
-5.657386080576e-05 4.179915537147e-03 0.0 
0.0 0.0 -6.189190723244e-04 
-1.269582323065e-03 5.358509534076e-05 0.0 
5.358509534076e-05 8.454036067307e-03 0.0 
0.0 0.0 -1.285202198870e-03 
-1.273584082277e-03 -3.447672338956e-05 0.0 
-3.447672338956e-05 8.706627272042e-03 0.0 
0.0 0.0 -1.265486236287e-03 
-4.574522532321e-04 -1.366919469267e-04 0.0 
-1.366919469267e-04 2.968706494426e-03 0.0 
0.0 0.0 -4.595713030950e-04 
-6.193411254741e-04 7.190453835518e-05 0.0 
7.190453835518e-05 3.976368456989e-03 0.0 
0.0 0.0 -6.385407451345e-04 
-1.157661612575e-03 -1.951807319382e-04 0.0 
-1.951807319382e-04 7.743964299132e-03 0.0 
0.0 0.0 -1.152822474774e-03 
-6.058642039219e-04 -1.568622492917e-04 0.0 
-1.568622492917e-04 3.943482715706e-03 0.0 
0.0 0.0 -6.037256927378e-04 
-4.410111678775e-04 1.646945023676e-04 0.0 
1.646945023676e-04 2.528625053889e-03 0.0 
0.0 0.0 -4.251746348339e-04 
-7.492101616992e-04 1.773144067427e-04 0.0 
1.773144067427e-04 4.849787455535e-03 0.0 
0.0 0.0 -7.443430781256e-04 
-6.015846242072e-04 -1.692904042825e-04 0.0 
-1.692904042825e-04 3.951833046067e-03 0.0 
0.0 0.0 -6.011186688906e-04 
-1.288763796550e-03 1.231833412492e-04 0.0 
1.231833412492e-04 8.478545606423e-03 0.0 
0.0 0.0 -1.279059907835e-03 
-1.060544670799e-03 1.938342500095e-04 0.0 
1.938342500095e-04 7.027045279308e-03 0.0 
0.0 0.0 -1.060691896764e-03 
-1.152244772895e-03 2.285095076534e-04 0.0 
2.285095076534e-04 7.745399107629e-03 0.0 
0.0 0.0 -1.155968210243e-03 
-2.882194771885e-04 -2.173510090808e-04 0.0 
-2.173510090808e-04 1.694759427097e-03 0.0 
0.0 0.0 -2.852154713500e-04 
-5.567709701176e-04 -1.966656427987e-04 0.0 
-1.966656427987e-04 3.599381630168e-03 0.0 
0.0 0.0 -5.558335581882e-04 
-1.085941057106e-03 1.940613560134e-04 0.0 
1.940613560134e-04 7.224719901000e-03 0.0 
0.0 0.0 -1.089453766084e-03 
-2.843827826583e-05 -1.788898447607e-05 0.0 
-1.788898447607e-05 1.853186358372e-04 0.0 
0.0 0.0 -4.453055683374e-05 
-6.135292459430e-04 1.555358498215e-04 0.0 
1.555358498215e-04 3.889243112960e-03 0.0 
0.0 0.0 -6.073871274648e-04 
-1.080867878280e-03 -2.316454551772e-04 0.0 
-2.316454551772e-04 7.249333231753e-03 0.0 
0.0 0.0 -1.080675545910e-03 
-1.764831160191e-04 -8.217578917013e-05 0.0 
-8.217578917013e-05 1.019550636912e-03 0.0 
0.0 0.0 -1.605608400042e-04 
-1.238595889810e-03 2.354517143287e-04 0.0 
2.354517143287e-04 8.471121261651e-03 0.0 
0.0 0.0 -1.257517519450e-03 
-9.713207705101e-04 1.946323764391e-04 0.0 
1.946323764391e-04 6.442137433534e-03 0.0 
0.0 0.0 -9.749624431058e-04 
-5.981973631964e-04 1.879071448910e-04 0.0 
1.879071448910e-04 3.813329018576e-03 0.0 
0.0 0.0 -5.995223474422e-04 
-1.084348145166e-03 2.392214872559e-04 0.0 
2.392214872559e-04 7.212887026288e-03 0.0 
0.0 0.0 -1.082135573042e-03 
-8.219004318722e-04 -1.022855745582e-05 0.0 
-1.022855745582e-05 5.626191621955e-03 0.0 
0.0 0.0 -8.259898420369e-04 
-8.600931526374e-04 -1.614882484442e-04 0.0 
-1.614882484442e-04 5.932770930688e-03 0.0 
0.0 0.0 -8.838609275114e-04 
-1.235110349403e-03 -1.423085779250e-04 0.0 
-1.423085779250e-04 8.282740067778e-03 0.0 
0.0 0.0 -1.237791025003e-03 
-4.556209105529e-04 2.036420794211e-04 0.0 
2.036420794211e-04 2.823352627341e-03 0.0 
0.0 0.0 -4.583583101839e-04 
-7.508195319224e-04 1.853886358928e-04 0.0 
1.853886358928e-04 4.860963236206e-03 0.0 
0.0 0.0 -7.480401524272e-04 
-8.027906713221e-04 1.764875410810e-04 0.0 
1.764875410810e-04 5.221920557136e-03 0.0 
0.0 0.0 -7.988399675000e-04 
-1.007530328557e-03 -1.922336022121e-04 0.0 
-1.922336022121e-04 6.759039767950e-03 0.0 
0.0 0.0 -1.008548823165e-03 
-8.112396533279e-04 -1.820827880749e-04 0.0 
-1.820827880749e-04 5.334789694812e-03 0.0 
0.0 0.0 -8.035999206669e-04 
-7.424823838501e-04 -1.611951191526e-04 0.0 
-1.611951191526e-04 4.887914283700e-03 0.0 
0.0 0.0 -7.415510827328e-04 
-9.420049562242e-04 -1.980186569885e-04 0.0 
-1.980186569885e-04 6.275886053793e-03 0.0 
0.0 0.0 -9.414312740916e-04 
-1.106765657790e-03 -2.072912274522e-04 0.0 
-2.072912274522e-04 7.417848919971e-03 0.0 
0.0 0.0 -1.105110859848e-03 
-8.771550322174e-05 -5.128346968202e-06 0.0 
-5.128346968202e-06 5.622743997178e-04 0.0 
0.0 0.0 -1.015871403443e-04 
-4.452411510456e-04 1.078521059613e-04 0.0 
1.078521059613e-04 2.907946245102e-03 0.0 
0.0 0.0 -4.649757541953e-04 
-5.301149448615e-04 1.855290027464e-04 0.0 
1.855290027464e-04 3.290005967673e-03 0.0 
0.0 0.0 -5.249394872960e-04 
-7.215069587740e-04 -1.794285911688e-04 0.0 
-1.794285911688e-04 4.739905292165e-03 0.0 
0.0 0.0 -7.181710532390e-04 
-1.095309768585e-03 -2.099324022586e-04 0.0 
-2.099324022586e-04 7.373113916822e-03 0.0 
0.0 0.0 -1.095076276885e-03 
-2.412241836648e-04 1.824271338485e-04 0.0 
1.824271338485e-04 1.391269291466e-03 0.0 
0.0 0.0 -2.576475407671e-04 
-1.042666947128e-03 -2.211661748355e-04 0.0 
-2.211661748355e-04 6.991049176526e-03 0.0 
0.0 0.0 -1.043355442177e-03 
-7.709980970025e-04 -2.344526007542e-04 0.0 
-2.344526007542e-04 5.001364750652e-03 0.0 
0.0 0.0 -7.763349569542e-04 
-5.598484848317e-04 1.964216387435e-04 0.0 
1.964216387435e-04 3.545883977612e-03 0.0 
0.0 0.0 -5.576783925304e-04 
-1.005904581142e-03 -2.103129090372e-04 0.0 
-2.103129090372e-04 6.739916943409e-03 0.0 
0.0 0.0 -1.006238978475e-03 
-1.328137378895e-04 -1.926409820628e-04 0.0 
-1.926409820628e-04 5.524811366159e-04 0.0 
0.0 0.0 -1.250635456846e-04 
-1.037748486931e-03 2.025826416299e-04 0.0 
2.025826416299e-04 6.894254509779e-03 0.0 
0.0 0.0 -1.040010908530e-03 
-9.586550230840e-05 6.862947183806e-05 0.0 
6.862947183806e-05 5.313753155377e-04 0.0 
0.0 0.0 -1.007187892234e-04 
-1.713724236673e-04 -5.327399001851e-06 0.0 
-5.327399001851e-06 7.517172537926e-04 0.0 
0.0 0.0 -1.819418517600e-04 
-2.796122854916e-04 2.316565417802e-04 0.0 
2.316565417802e-04 1.675994704222e-03 0.0 
0.0 0.0 -2.873666149908e-04 
-3.926605428350e-04 1.733428287045e-04 0.0 
1.733428287045e-04 2.352552718651e-03 0.0 
0.0 0.0 -3.935955730116e-04 
-1.073504857728e-03 -1.857694457952e-04 0.0 
-1.857694457952e-04 7.207934761623e-03 0.0 
0.0 0.0 -1.073797489760e-03 
-3.651136453237e-04 -1.928839212762e-04 0.0 
-1.928839212762e-04 2.293609592088e-03 0.0 
0.0 0.0 -3.637595386041e-04 
-3.442210319020e-04 1.764997975594e-04 0.0 
1.764997975594e-04 2.032847714738e-03 0.0 
0.0 0.0 -3.432832105208e-04 
-2.910729329916e-04 -1.809308260194e-04 0.0 
-1.809308260194e-04 1.763076573158e-03 0.0 
0.0 0.0 -2.922710279673e-04 
-2.622356291375e-04 1.892606687833e-04 0.0 
1.892606687833e-04 1.448318780245e-03 0.0 
0.0 0.0 -2.614315927221e-04 
-1.120397219207e-03 1.996859117335e-04 0.0 
1.996859117335e-04 7.447331785752e-03 0.0 
0.0 0.0 -1.117524173959e-03 
-7.717946648580e-04 -1.881039575464e-04 0.0 
-1.881039575464e-04 5.076611576994e-03 0.0 
0.0 0.0 -7.687972329812e-04 
-1.256202704630e-03 2.478526914498e-04 0.0 
2.478526914498e-04 8.487594918351e-03 0.0 
0.0 0.0 -1.256743614961e-03 
0.0 0.0 0.0 
0.0 0.0 0.0 
0.0 0.0 0.0 
-4.048716956913e-04 1.853052298050e-04 0.0 
1.853052298050e-04 2.461420572415e-03 0.0 
0.0 0.0 -4.044045206172e-04 
-6.239445424560e-04 2.046361178611e-04 0.0 
2.046361178611e-04 3.992995746549e-03 0.0 
0.0 0.0 -6.230907113744e-04 
-5.740868944919e-04 1.850315981272e-04 0.0 
1.850315981272e-04 3.613473978480e-03 0.0 
0.0 0.0 -5.709397776106e-04 
-1.047068133195e-03 2.230470659995e-04 0.0 
2.230470659995e-04 6.949500072304e-03 0.0 
0.0 0.0 -1.045235091131e-03 
-1.285400109254e-03 1.957478292084e-04 0.0 
1.957478292084e-04 8.698618921316e-03 0.0 
0.0 0.0 -1.275930989368e-03 
-1.029713153133e-03 -2.056143237118e-04 0.0 
-2.056143237118e-04 6.913851891301e-03 0.0 
0.0 0.0 -1.029499106509e-03 
-4.579566149125e-04 -1.884217374258e-04 0.0 
-1.884217374258e-04 2.912212194121e-03 0.0 
0.0 0.0 -4.564841486881e-04 
-1.120831572504e-03 -1.912348279819e-04 0.0 
-1.912348279819e-04 7.467678576310e-03 0.0 
0.0 0.0 -1.116166892424e-03 
-9.572670568062e-04 2.571263954152e-04 0.0 
2.571263954152e-04 6.316374419588e-03 0.0 
0.0 0.0 -9.512440159151e-04 
-7.570218913511e-04 -1.787629418727e-04 0.0 
-1.787629418727e-04 4.987297939344e-03 0.0 
0.0 0.0 -7.537083776970e-04 
-9.994998658216e-04 2.045048337303e-04 0.0 
2.045048337303e-04 6.629510214408e-03 0.0 
0.0 0.0 -1.003200534345e-03 
-1.242505065463e-03 -1.591232809489e-04 0.0 
-1.591232809489e-04 8.294319035880e-03 0.0 
0.0 0.0 -1.239730878702e-03 
-6.222328359965e-04 -2.058351298643e-04 0.0 
-2.058351298643e-04 4.057741749781e-03 0.0 
0.0 0.0 -6.206208101913e-04 
-3.761575650769e-04 -1.711217870111e-04 0.0 
-1.711217870111e-04 2.346047162404e-03 0.0 
0.0 0.0 -3.752687577596e-04 
-8.718273414275e-04 -1.903070125198e-04 0.0 
-1.903070125198e-04 5.767456116596e-03 0.0 
0.0 0.0 -8.662621843288e-04 
-1.329807574370e-03 9.926374614617e-05 0.0 
9.926374614617e-05 9.094631735092e-03 0.0 
0.0 0.0 -1.323568725688e-03 
-7.473763321356e-04 -1.878290917318e-04 0.0 
-1.878290917318e-04 4.922460573441e-03 0.0 
0.0 0.0 -7.453270327204e-04 
-7.780710127091e-04 -1.914920916377e-04 0.0 
-1.914920916377e-04 5.142441463468e-03 0.0 
0.0 0.0 -7.768443034385e-04 
-8.403853568470e-04 -5.224028630905e-05 0.0 
-5.224028630905e-05 5.665674692091e-03 0.0 
0.0 0.0 -8.293613651800e-04 
-2.119957057011e-04 -1.175361575482e-04 0.0 
-1.175361575482e-04 1.307524346166e-03 0.0 
0.0 0.0 -2.161141481901e-04 
-8.208799096496e-04 1.843133829192e-04 0.0 
1.843133829192e-04 5.271529166893e-03 0.0 
0.0 0.0 -8.060563724883e-04 
-4.603670611931e-04 1.877974414593e-04 0.0 
1.877974414593e-04 2.847786037855e-03 0.0 
0.0 0.0 -4.590591740919e-04 
-3.265147701176e-04 1.754702989645e-04 0.0 
1.754702989645e-04 1.892353118097e-03 0.0 
0.0 0.0 -3.229397045850e-04 
-2.372523115321e-04 -1.920097841935e-04 0.0 
-1.920097841935e-04 1.297568945568e-03 0.0 
0.0 0.0 -2.426597671045e-04 
-1.076566808285e-03 1.948027566312e-04 0.0 
1.948027566312e-04 7.152792080089e-03 0.0 
0.0 0.0 -1.075985979751e-03 
-8.366892688468e-04 -1.821112197861e-04 0.0 
-1.821112197861e-04 5.525859000099e-03 0.0 
0.0 0.0 -8.312490730234e-04 
-5.408471440859e-04 1.787636598150e-04 0.0 
1.787636598150e-04 3.420100638870e-03 0.0 
0.0 0.0 -5.429493831729e-04 
-1.110558394075e-03 -1.920281890810e-04 0.0 
-1.920281890810e-04 7.461731149687e-03 0.0 
0.0 0.0 -1.109763131677e-03 
-1.054698518121e-03 -2.087025362573e-04 0.0 
-2.087025362573e-04 7.108835153234e-03 0.0 
0.0 0.0 -1.057773507355e-03 
-7.924197653506e-04 -1.785979394266e-04 0.0 
-1.785979394266e-04 5.231483760846e-03 0.0 
0.0 0.0 -7.887050335656e-04 
-1.257903229921e-03 7.567368571961e-05 0.0 
7.567368571961e-05 8.498216080292e-03 0.0 
0.0 0.0 -1.288412101370e-03 
-8.091181034430e-04 1.931976365145e-04 0.0 
1.931976365145e-04 5.284760522789e-03 0.0 
0.0 0.0 -8.078958932737e-04 
-8.263277637735e-04 -1.832084157212e-04 0.0 
-1.832084157212e-04 5.471677470531e-03 0.0 
0.0 0.0 -8.238265297874e-04 
-6.650106902351e-04 -1.791010150323e-04 0.0 
-1.791010150323e-04 4.378261468460e-03 0.0 
0.0 0.0 -6.656476441012e-04 
-8.423857986256e-04 -1.986818351392e-04 0.0 
-1.986818351392e-04 5.587318921638e-03 0.0 
0.0 0.0 -8.413031780454e-04 
-3.899474951329e-04 1.915304819261e-04 0.0 
1.915304819261e-04 2.337472328750e-03 0.0 
0.0 0.0 -3.865807678710e-04 
-8.089876515704e-04 4.490290024565e-05 0.0 
4.490290024565e-05 5.014601975749e-03 0.0 
0.0 0.0 -7.898058234521e-04 
-6.502027287347e-04 -1.918500009783e-04 0.0 
-1.918500009783e-04 4.255074906530e-03 0.0 
0.0 0.0 -6.486359607860e-04 
-4.676332506753e-04 -1.907969004763e-04 0.0 
-1.907969004763e-04 2.994133619140e-03 0.0 
0.0 0.0 -4.681053320140e-04 
-1.032293230965e-03 1.946996800783e-04 0.0 
1.946996800783e-04 6.836459352288e-03 0.0 
0.0 0.0 -1.032318248600e-03 
-4.933492965950e-05 -2.981330854887e-05 0.0 
-2.981330854887e-05 2.232237160482e-04 0.0 
0.0 0.0 -4.491607815645e-05 
-8.460396934351e-04 -1.994951239522e-04 0.0 
-1.994951239522e-04 5.571843201912e-03 0.0 
0.0 0.0 -8.386390795737e-04 
-4.884576987713e-04 1.904916551125e-04 0.0 
1.904916551125e-04 3.043938579203e-03 0.0 
0.0 0.0 -4.870240021111e-04 
-4.011070509712e-04 -1.789938708171e-04 0.0 
-1.789938708171e-04 2.527031405991e-03 0.0 
0.0 0.0 -4.015254440178e-04 
-3.881231226590e-04 -1.849728275913e-04 0.0 
-1.849728275913e-04 2.413136850469e-03 0.0 
0.0 0.0 -3.834586606452e-04 
-9.010939454830e-04 1.820631251066e-04 0.0 
1.820631251066e-04 5.900115668490e-03 0.0 
0.0 0.0 -8.965110541436e-04 
-1.535639171873e-04 -1.171137565838e-04 0.0 
-1.171137565838e-04 9.290832055630e-04 0.0 
0.0 0.0 -1.609926926485e-04 
-5.642000446768e-04 1.829010286562e-04 0.0 
1.829010286562e-04 3.554613982315e-03 0.0 
0.0 0.0 -5.613503766092e-04 
-8.738800955345e-04 1.908997098880e-04 0.0 
1.908997098880e-04 5.736495439307e-03 0.0 
0.0 0.0 -8.726802719924e-04 
-8.424168210171e-04 1.809379834970e-04 0.0 
1.809379834970e-04 5.460364861261e-03 0.0 
0.0 0.0 -8.336838631977e-04 
-8.483140592107e-04 -2.570000340293e-05 0.0 
-2.570000340293e-05 5.646419876325e-03 0.0 
0.0 0.0 -8.301023967811e-04 
-2.301022018194e-04 1.896537110149e-04 0.0 
1.896537110149e-04 1.205962353600e-03 0.0 
0.0 0.0 -2.187087652219e-04 
-4.708793642351e-04 1.959468275411e-04 0.0 
1.959468275411e-04 2.928096743676e-03 0.0 
0.0 0.0 -4.706942212664e-04 
-4.339228685621e-04 -2.028732675089e-04 0.0 
-2.028732675089e-04 2.736979889631e-03 0.0 
0.0 0.0 -4.311372127493e-04 
-4.979504220913e-04 -1.685324817792e-04 0.0 
-1.685324817792e-04 3.206245351086e-03 0.0 
0.0 0.0 -4.957039317942e-04 
-1.001539925556e-03 -2.124102205074e-04 0.0 
-2.124102205074e-04 6.704131800771e-03 0.0 
0.0 0.0 -1.000663671924e-03 
-5.607402459632e-04 -1.707949003296e-04 0.0 
-1.707949003296e-04 3.631087283813e-03 0.0 
0.0 0.0 -5.577786207633e-04 
-6.163072057109e-04 1.894419522334e-04 0.0 
1.894419522334e-04 3.933506140839e-03 0.0 
0.0 0.0 -6.151539951222e-04 
-5.883906607910e-04 1.932241182488e-04 0.0 
1.932241182488e-04 3.740119885148e-03 0.0 
0.0 0.0 -5.868308051845e-04 
-2.691521273047e-04 -2.036688762200e-04 0.0 
-2.036688762200e-04 1.523725894567e-03 0.0 
0.0 0.0 -2.530049833111e-04 
-6.958714508919e-04 1.979801814587e-04 0.0 
1.979801814587e-04 4.490850522134e-03 0.0 
0.0 0.0 -6.959382511914e-04 
-2.861043400587e-04 -1.894415141015e-04 0.0 
-1.894415141015e-04 1.663430798726e-03 0.0 
0.0 0.0 -2.788248838327e-04 
-1.306755613337e-03 -2.610599304153e-06 0.0 
-2.610599304153e-06 9.100164486650e-03 0.0 
0.0 0.0 -1.321446319728e-03 
-1.339174511630e-03 -2.960517267117e-05 0.0 
-2.960517267117e-05 9.091242340448e-03 0.0 
0.0 0.0 -1.318029376683e-03 
-7.775136936644e-04 1.870350143580e-04 0.0 
1.870350143580e-04 5.054396183358e-03 0.0 
0.0 0.0 -7.755312068111e-04 
-4.251819947504e-04 1.895457374981e-04 0.0 
1.895457374981e-04 2.596133538266e-03 0.0 
0.0 0.0 -4.232985079168e-04 
-3.648329347482e-04 -1.837358985601e-04 0.0 
-1.837358985601e-04 2.280199425849e-03 0.0 
0.0 0.0 -3.659709354871e-04 
-8.573750887322e-04 1.858228230958e-04 0.0 
1.858228230958e-04 5.602884265534e-03 0.0 
0.0 0.0 -8.539191708179e-04 
-3.949528212466e-04 -1.886728582839e-04 0.0 
-1.886728582839e-04 2.475291397225e-03 0.0 
0.0 0.0 -3.930530440640e-04 
-4.332493895502e-04 1.980298907225e-04 0.0 
1.980298907225e-04 2.665937605433e-03 0.0 
0.0 0.0 -4.339875075689e-04 
-7.596321613464e-04 1.775287963430e-04 0.0 
1.775287963430e-04 4.918201734153e-03 0.0 
0.0 0.0 -7.563811545761e-04 
-1.287984799363e-03 -3.860068533034e-05 0.0 
-3.860068533034e-05 8.730948327736e-03 0.0 
0.0 0.0 -1.266640259566e-03 
-5.240495846065e-04 1.944963688322e-04 0.0 
1.944963688322e-04 3.293655739786e-03 0.0 
0.0 0.0 -5.226246958029e-04 
-9.447998235248e-04 1.960929665843e-04 0.0 
1.960929665843e-04 6.232881478096e-03 0.0 
0.0 0.0 -9.428115367422e-04 
-3.107562741713e-04 1.824587312734e-04 0.0 
1.824587312734e-04 1.780558679157e-03 0.0 
0.0 0.0 -3.076624342134e-04 
-1.311994729519e-03 7.493212939779e-06 0.0 
7.493212939779e-06 9.101970930917e-03 0.0 
0.0 0.0 -1.322863172658e-03 
-3.967767638387e-04 1.868417767078e-04 0.0 
1.868417767078e-04 2.404071077719e-03 0.0 
0.0 0.0 -3.959736908235e-04 
-7.861913752228e-04 1.858440032300e-04 0.0 
1.858440032300e-04 5.109311146391e-03 0.0 
0.0 0.0 -7.835188407616e-04 
-2.939612478105e-04 2.069489564744e-04 0.0 
2.069489564744e-04 1.627899719100e-03 0.0 
0.0 0.0 -2.855287480241e-04 
-9.209672284179e-04 1.890725882862e-04 0.0 
1.890725882862e-04 6.061382275032e-03 0.0 
0.0 0.0 -9.211625808215e-04 
-6.527425537756e-04 1.919833722786e-04 0.0 
1.919833722786e-04 4.182126969127e-03 0.0 
0.0 0.0 -6.516619296807e-04 
-4.643737788932e-04 1.911497819082e-04 0.0 
1.911497819082e-04 2.873282577301e-03 0.0 
0.0 0.0 -4.625367401933e-04 
-8.005133107045e-04 -1.849372706410e-04 0.0 
-1.849372706410e-04 5.279390117932e-03 0.0 
0.0 0.0 -7.963903837170e-04 
-1.325618080026e-03 -1.973193103059e-05 0.0 
-1.973193103059e-05 9.091764273344e-03 0.0 
0.0 0.0 -1.324865334549e-03 
-5.527714494018e-04 1.888052696331e-04 0.0 
1.888052696331e-04 3.488692206257e-03 0.0 
0.0 0.0 -5.510338386786e-04 
-8.711724193670e-04 -1.970525444519e-04 0.0 
-1.970525444519e-04 5.796794660819e-03 0.0 
0.0 0.0 -8.703234504572e-04 
-3.052115937337e-04 -1.690052037767e-04 0.0 
-1.690052037767e-04 1.853679927902e-03 0.0 
0.0 0.0 -3.041533380165e-04 
-9.585285003453e-04 2.099575339621e-04 0.0 
2.099575339621e-04 6.326919234623e-03 0.0 
0.0 0.0 -9.576894438039e-04 
-1.007861502229e-03 2.071557397888e-04 0.0 
2.071557397888e-04 6.684066242240e-03 0.0 
0.0 0.0 -1.008345180213e-03 
-4.131133098155e-04 -1.786065448845e-04 0.0 
-1.786065448845e-04 2.602572281114e-03 0.0 
0.0 0.0 -4.109515902261e-04 
-9.327998617517e-04 -1.874311411833e-04 0.0 
-1.874311411833e-04 6.181670543660e-03 0.0 
0.0 0.0 -9.257128893455e-04 
-1.323570257858e-03 1.323150738928e-05 0.0 
1.323150738928e-05 9.099733073090e-03 0.0 
0.0 0.0 -1.322580803729e-03 
-1.076618962997e-03 1.898018198415e-04 0.0 
1.898018198415e-04 7.144327477010e-03 0.0 
0.0 0.0 -1.075861678316e-03 
-1.321614991336e-03 -1.713273005325e-05 0.0 
-1.713273005325e-05 9.105058184061e-03 0.0 
0.0 0.0 -1.322091174222e-03 
-9.079440508188e-04 -2.097847460127e-04 0.0 
-2.097847460127e-04 6.119714420928e-03 0.0 
0.0 0.0 -9.196498359204e-04 
-1.050990778737e-03 -1.886314367517e-04 0.0 
-1.886314367517e-04 7.044669431277e-03 0.0 
0.0 0.0 -1.048263655743e-03 
-3.511245847016e-04 -1.953891657846e-04 0.0 
-1.953891657846e-04 2.144448464187e-03 0.0 
0.0 0.0 -3.491910591611e-04 
-7.374872672360e-04 -1.803640936936e-04 0.0 
-1.803640936936e-04 4.844525720206e-03 0.0 
0.0 0.0 -7.343713905235e-04 
-8.293244045423e-04 1.837550643812e-04 0.0 
1.837550643812e-04 5.409584064822e-03 0.0 
0.0 0.0 -8.263924940540e-04 
-8.620298851759e-04 -1.867239000810e-04 0.0 
-1.867239000810e-04 5.715504193618e-03 0.0 
0.0 0.0 -8.589723558544e-04 
-7.110415388043e-04 -1.855413705945e-04 0.0 
-1.855413705945e-04 4.678427107823e-03 0.0 
0.0 0.0 -7.101745248689e-04 
-1.326686360804e-03 -1.171732242914e-05 0.0 
-1.171732242914e-05 9.109208916885e-03 0.0 
0.0 0.0 -1.322334986692e-03 
-8.655458594576e-04 1.438711959111e-04 0.0 
1.438711959111e-04 5.877137978370e-03 0.0 
0.0 0.0 -8.810748613436e-04 
-7.842175920213e-04 -1.730041151839e-04 0.0 
-1.730041151839e-04 5.148772658244e-03 0.0 
0.0 0.0 -7.763708431881e-04 
-5.855858139709e-04 -1.935639285695e-04 0.0 
-1.935639285695e-04 3.803586164403e-03 0.0 
0.0 0.0 -5.843899590101e-04 
-3.295388154563e-04 1.889565951281e-04 0.0 
1.889565951281e-04 1.906230365352e-03 0.0 
0.0 0.0 -3.280768480529e-04 
-7.085854070096e-04 -1.812057133810e-04 0.0 
-1.812057133810e-04 4.648076014877e-03 0.0 
0.0 0.0 -7.069124235890e-04 
-4.422183154957e-04 1.870641756047e-04 0.0 
1.870641756047e-04 2.708861584455e-03 0.0 
0.0 0.0 -4.404772202000e-04 
-7.723719974628e-04 -4.140062150849e-05 0.0 
-4.140062150849e-05 5.256708913763e-03 0.0 
0.0 0.0 -7.696142143080e-04 
-4.606920221105e-04 -1.852355893197e-04 0.0 
-1.852355893197e-04 2.942829590752e-03 0.0 
0.0 0.0 -4.595640944490e-04 
-5.214756889107e-04 -1.931035456201e-04 0.0 
-1.931035456201e-04 3.354332559651e-03 0.0 
0.0 0.0 -5.202658224677e-04 
-1.068256360121e-03 2.066714883780e-04 0.0 
2.066714883780e-04 7.094366600133e-03 0.0 
0.0 0.0 -1.069052450572e-03 
-4.377877323945e-04 -1.833633178396e-04 0.0 
-1.833633178396e-04 2.778061496653e-03 0.0 
0.0 0.0 -4.372567615832e-04 
-7.685639283948e-04 1.832765112524e-04 0.0 
1.832765112524e-04 4.976704183313e-03 0.0 
0.0 0.0 -7.640689829422e-04 
-9.023009032283e-04 1.879763697979e-04 0.0 
1.879763697979e-04 5.928541464361e-03 0.0 
0.0 0.0 -9.014246907137e-04 
-8.033627654917e-04 1.978900666673e-04 0.0 
1.978900666673e-04 5.248675409052e-03 0.0 
0.0 0.0 -8.035328976187e-04 
-1.305960172853e-03 -2.095892658933e-06 0.0 
-2.095892658933e-06 9.102496999303e-03 0.0 
0.0 0.0 -1.324762665914e-03 
-6.445820078638e-04 -1.678202773937e-04 0.0 
-1.678202773937e-04 4.194265313441e-03 0.0 
0.0 0.0 -6.390224077203e-04 
-4.435428954874e-04 1.964051911317e-04 0.0 
1.964051911317e-04 2.726576725320e-03 0.0 
0.0 0.0 -4.422638729430e-04 
-5.680634224624e-04 -1.789976648694e-04 0.0 
-1.789976648694e-04 3.709617648682e-03 0.0 
0.0 0.0 -5.691257024010e-04 
-4.282333792406e-04 -1.482446945054e-04 0.0 
-1.482446945054e-04 2.644915346169e-03 0.0 
0.0 0.0 -4.184705811166e-04 
-4.155606553471e-04 1.953855919425e-04 0.0 
1.953855919425e-04 2.537485002560e-03 0.0 
0.0 0.0 -4.141309408042e-04 
-1.124019592153e-03 -2.007331567345e-04 0.0 
-2.007331567345e-04 7.565647962713e-03 0.0 
0.0 0.0 -1.123886314723e-03 
-8.186901870458e-04 -1.867352575880e-04 0.0 
-1.867352575880e-04 5.417532343352e-03 0.0 
0.0 0.0 -8.161479701220e-04 
-5.717796681142e-04 -1.878963187409e-04 0.0 
-1.878963187409e-04 3.680777609877e-03 0.0 
0.0 0.0 -5.672387349321e-04 
-7.059258560286e-04 1.849400511514e-04 0.0 
1.849400511514e-04 4.547028472385e-03 0.0 
0.0 0.0 -7.023794137935e-04 
-1.322670125945e-03 2.313222592219e-05 0.0 
2.313222592219e-05 9.105794211902e-03 0.0 
0.0 0.0 -1.320675234999e-03 
-1.261246667212e-03 -1.446740378058e-04 0.0 
-1.446740378058e-04 8.590068615086e-03 0.0 
0.0 0.0 -1.258064670439e-03 
-1.122100566517e-03 1.986464603035e-04 0.0 
1.986464603035e-04 7.484284741315e-03 0.0 
0.0 0.0 -1.126590436115e-03 
-1.036201990782e-03 -1.951775890560e-04 0.0 
-1.951775890560e-04 6.963709654535e-03 0.0 
0.0 0.0 -1.037522200811e-03 
-7.719052834795e-04 -1.888501304093e-04 0.0 
-1.888501304093e-04 5.114447170550e-03 0.0 
0.0 0.0 -7.721428985420e-04 
-5.862259843954e-04 -1.794669617907e-04 0.0 
-1.794669617907e-04 3.806767764826e-03 0.0 
0.0 0.0 -5.842812205453e-04 
-4.235649518208e-04 -1.883881554874e-04 0.0 
-1.883881554874e-04 2.667804805964e-03 0.0 
0.0 0.0 -4.203166018451e-04 
-4.860729007888e-04 -1.885252844674e-04 0.0 
-1.885252844674e-04 3.110387779236e-03 0.0 
0.0 0.0 -4.843489805398e-04 
-7.832353818819e-04 -1.822378049694e-04 0.0 
-1.822378049694e-04 5.173491727743e-03 0.0 
0.0 0.0 -7.808727949117e-04 
-8.901416230108e-04 -1.942852983019e-04 0.0 
-1.942852983019e-04 5.937129717394e-03 0.0 
0.0 0.0 -8.900964085843e-04 
-6.791455967192e-04 -1.986004150700e-04 0.0 
-1.986004150700e-04 4.477294610112e-03 0.0 
0.0 0.0 -6.810091006415e-04 
-1.137984490542e-03 2.026763925672e-04 0.0 
2.026763925672e-04 7.560494271962e-03 0.0 
0.0 0.0 -1.134236807130e-03 
-4.390058928460e-04 -1.873042743236e-04 0.0 
-1.873042743236e-04 2.794180260139e-03 0.0 
0.0 0.0 -4.395655422792e-04 
-6.752152374307e-04 -1.860595742761e-04 0.0 
-1.860595742761e-04 4.431501668800e-03 0.0 
0.0 0.0 -6.750378637491e-04 
-7.938192706807e-04 1.817389384797e-04 0.0 
1.817389384797e-04 5.160116736331e-03 0.0 
0.0 0.0 -7.913284153978e-04 
-6.120290380758e-04 -1.961653994373e-04 0.0 
-1.961653994373e-04 3.987310124629e-03 0.0 
0.0 0.0 -6.122259156574e-04 
-1.301288756895e-03 -2.045275430421e-05 0.0 
-2.045275430421e-05 9.103514886723e-03 0.0 
0.0 0.0 -1.320088186226e-03 
-1.336559860406e-03 5.304668224230e-05 0.0 
5.304668224230e-05 9.092320412842e-03 0.0 
0.0 0.0 -1.318462653075e-03 
-1.241699233934e-03 -2.254253931459e-04 0.0 
-2.254253931459e-04 8.519567921102e-03 0.0 
0.0 0.0 -1.256494544188e-03 
-8.370305663979e-04 -1.942067132543e-04 0.0 
-1.942067132543e-04 5.564466733165e-03 0.0 
0.0 0.0 -8.375255977276e-04 
-1.112341827327e-03 1.928139267360e-04 0.0 
1.928139267360e-04 7.404901105712e-03 0.0 
0.0 0.0 -1.112065035246e-03 
-3.806812841049e-04 1.778946636947e-04 0.0 
1.778946636947e-04 2.279220825059e-03 0.0 
0.0 0.0 -3.785953687517e-04 
-5.494616984378e-04 -1.888416104626e-04 0.0 
-1.888416104626e-04 3.555923799118e-03 0.0 
0.0 0.0 -5.483018170244e-04 
-3.235962926905e-04 -1.736014947489e-04 0.0 
-1.736014947489e-04 1.973084689826e-03 0.0 
0.0 0.0 -3.192951451658e-04 
-5.963652417522e-04 -1.773931756758e-04 0.0 
-1.773931756758e-04 3.870665993091e-03 0.0 
0.0 0.0 -5.936226173563e-04 
-7.754418230907e-04 -1.787983897596e-05 0.0 
-1.787983897596e-05 4.998811631156e-03 0.0 
0.0 0.0 -7.914980036671e-04 
-9.191665137011e-04 2.140245341565e-04 0.0 
2.140245341565e-04 6.074527525348e-03 0.0 
0.0 0.0 -9.214502702889e-04 
-1.272306740568e-03 -2.183792906095e-06 0.0 
-2.183792906095e-06 8.701539900471e-03 0.0 
0.0 0.0 -1.265403586923e-03 
-1.115465796477e-03 2.144802209519e-04 0.0 
2.144802209519e-04 7.405352776166e-03 0.0 
0.0 0.0 -1.117224974728e-03 
-8.719756485575e-04 1.796746755414e-04 0.0 
1.796746755414e-04 5.704231125349e-03 0.0 
0.0 0.0 -8.687609488834e-04 
-8.934000445298e-04 1.842629385947e-04 0.0 
1.842629385947e-04 5.848617048582e-03 0.0 
0.0 0.0 -8.891947744737e-04 
-3.538517022685e-04 1.968822651903e-04 0.0 
1.968822651903e-04 2.082939193951e-03 0.0 
0.0 0.0 -3.496852078947e-04 
-1.730179310379e-04 3.799515299487e-05 0.0 
3.799515299487e-05 9.814996314958e-04 0.0 
0.0 0.0 -1.610244214183e-04 
-6.605957920443e-04 2.008091445533e-04 0.0 
2.008091445533e-04 4.241664916870e-03 0.0 
0.0 0.0 -6.594106982652e-04 
-7.382500259092e-04 -1.861061436274e-04 0.0 
-1.861061436274e-04 4.870305797290e-03 0.0 
0.0 0.0 -7.376142925499e-04 
-6.935826622016e-04 -1.974963449897e-04 0.0 
-1.974963449897e-04 4.557561403421e-03 0.0 
0.0 0.0 -6.931905564144e-04 
-1.927200046455e-04 1.907407866213e-04 0.0 
1.907407866213e-04 9.362068114562e-04 0.0 
0.0 0.0 -1.839988823918e-04 
-8.553897316391e-04 7.952460625503e-05 0.0 
7.952460625503e-05 5.374666730048e-03 0.0 
0.0 0.0 -8.462285223656e-04 
-3.012637912477e-04 -1.970081127765e-04 0.0 
-1.970081127765e-04 1.826424334369e-03 0.0 
0.0 0.0 -2.972104253142e-04 
-4.320291499202e-04 1.924639625952e-04 0.0 
1.924639625952e-04 2.652618994648e-03 0.0 
0.0 0.0 -4.314049239902e-04 
-1.341153861134e-03 -1.132581839809e-07 0.0 
-1.132581839809e-07 8.854160665758e-03 0.0 
0.0 0.0 -1.341153861134e-03 
-9.735832254612e-04 -2.032109106710e-04 0.0 
-2.032109106710e-04 6.501326132665e-03 0.0 
0.0 0.0 -9.717687626070e-04 
-8.038658590279e-04 1.841151985618e-04 0.0 
1.841151985618e-04 5.090192522503e-03 0.0 
0.0 0.0 -7.790007367612e-04 
-2.263569738137e-04 1.412068244863e-04 0.0 
1.412068244863e-04 1.378581130634e-03 0.0 
0.0 0.0 -2.176483604987e-04 
-7.148393686400e-04 1.885377903274e-04 0.0 
1.885377903274e-04 4.617805235716e-03 0.0 
0.0 0.0 -7.126719623954e-04 
-6.583475203356e-04 -2.044658051723e-04 0.0 
-2.044658051723e-04 4.303955154821e-03 0.0 
0.0 0.0 -6.569982659716e-04 
-8.980808506786e-04 -1.936520147713e-04 0.0 
-1.936520147713e-04 5.958242186783e-03 0.0 
0.0 0.0 -8.940630110299e-04 
-1.327874025612e-03 4.012442722688e-05 0.0 
4.012442722688e-05 9.098102111315e-03 0.0 
0.0 0.0 -1.323832587333e-03 
-7.403554818969e-04 1.844120078152e-04 0.0 
1.844120078152e-04 4.792048619543e-03 0.0 
0.0 0.0 -7.366500567794e-04 
-8.545868996671e-04 -1.887615407860e-04 0.0 
-1.887615407860e-04 5.662533660862e-03 0.0 
0.0 0.0 -8.513774089097e-04 
-6.818667097911e-04 1.958766515699e-04 0.0 
1.958766515699e-04 4.409131248910e-03 0.0 
0.0 0.0 -6.837695253815e-04 
-1.105187862003e-03 1.994006530664e-04 0.0 
1.994006530664e-04 7.356411437885e-03 0.0 
0.0 0.0 -1.105258581891e-03 
-8.686753316721e-04 1.961023377174e-04 0.0 
1.961023377174e-04 5.708119835605e-03 0.0 
0.0 0.0 -8.691653677727e-04 
-1.313443091824e-03 -8.681857321596e-06 0.0 
-8.681857321596e-06 9.107589922997e-03 0.0 
0.0 0.0 -1.322174839672e-03 
-1.340103718614e-03 2.441833226494e-06 0.0 
2.441833226494e-06 8.842216911178e-03 0.0 
0.0 0.0 -1.340103718614e-03 
-1.341028575724e-03 -6.698781680328e-06 0.0 
-6.698781680328e-06 8.834191149721e-03 0.0 
0.0 0.0 -1.341028575724e-03 
-1.338044909071e-03 -9.989699658808e-07 0.0 
-9.989699658808e-07 8.789076720715e-03 0.0 
0.0 0.0 -1.338044909071e-03 
-9.278953530001e-04 1.830493215193e-04 0.0 
1.830493215193e-04 6.094694774967e-03 0.0 
0.0 0.0 -9.244680137507e-04 
-1.104382085207e-03 -1.844352853961e-04 0.0 
-1.844352853961e-04 7.413030585339e-03 0.0 
0.0 0.0 -1.103002250422e-03 
-1.150866030357e-03 2.083921581833e-04 0.0 
2.083921581833e-04 7.696092280171e-03 0.0 
0.0 0.0 -1.155914796392e-03 
-6.164628833105e-04 2.031183267964e-04 0.0 
2.031183267964e-04 3.927882065765e-03 0.0 
0.0 0.0 -6.147330147620e-04 
-5.911685103851e-04 1.997096464783e-04 0.0 
1.997096464783e-04 3.740736628945e-03 0.0 
0.0 0.0 -5.872917534094e-04 
-6.414807696811e-04 -2.006380451049e-04 0.0 
-2.006380451049e-04 4.218783169970e-03 0.0 
0.0 0.0 -6.436934073013e-04 
-1.134641282245e-03 -2.006695635977e-04 0.0 
-2.006695635977e-04 7.623716292157e-03 0.0 
0.0 0.0 -1.131852245309e-03 
-1.324500994006e-03 -4.966854021263e-06 0.0 
-4.966854021263e-06 9.095768239117e-03 0.0 
0.0 0.0 -1.322440284024e-03 
-1.140227253108e-03 1.951224764734e-04 0.0 
1.951224764734e-04 7.603009729401e-03 0.0 
0.0 0.0 -1.141180801552e-03 
-9.080174246261e-04 -2.037707256770e-04 0.0 
-2.037707256770e-04 6.042971740774e-03 0.0 
0.0 0.0 -9.063345769726e-04 
-1.140612365318e-03 -1.825914620366e-04 0.0 
-1.825914620366e-04 7.661221724928e-03 0.0 
0.0 0.0 -1.138864741757e-03 
-9.895587303989e-04 -1.909996709669e-04 0.0 
-1.909996709669e-04 6.631323534056e-03 0.0 
0.0 0.0 -9.903545940741e-04 
-7.055944550106e-04 1.841650505336e-04 0.0 
1.841650505336e-04 4.559451876543e-03 0.0 
0.0 0.0 -7.049739924763e-04 
-6.005001548621e-04 1.754924819421e-04 0.0 
1.754924819421e-04 3.808564972462e-03 0.0 
0.0 0.0 -5.967387615352e-04 
-3.335508235582e-04 1.892926381389e-04 0.0 
1.892926381389e-04 1.961394351476e-03 0.0 
0.0 0.0 -3.333553686509e-04 
-1.287482303742e-03 9.400486473720e-05 0.0 
9.400486473720e-05 8.494651886702e-03 0.0 
0.0 0.0 -1.282213402295e-03 
-5.782088747012e-04 1.983174571351e-04 0.0 
1.983174571351e-04 3.685190236892e-03 0.0 
0.0 0.0 -5.792479259103e-04 
-1.207490032650e-03 -9.511693616598e-06 0.0 
-9.511693616598e-06 8.106813054446e-03 0.0 
0.0 0.0 -1.230767059693e-03 
-6.442432414831e-04 1.944206160730e-04 0.0 
1.944206160730e-04 4.149320661563e-03 0.0 
0.0 0.0 -6.465396845166e-04 
-4.198574354174e-04 -1.824962637457e-04 0.0 
-1.824962637457e-04 2.680260699037e-03 0.0 
0.0 0.0 -4.222915044375e-04 
-1.273602229187e-03 4.336342551849e-05 0.0 
4.336342551849e-05 8.460076842639e-03 0.0 
0.0 0.0 -1.284312900220e-03 
-4.687866799151e-04 1.866875104872e-04 0.0 
1.866875104872e-04 2.893520146277e-03 0.0 
0.0 0.0 -4.669824892858e-04 
-1.341987455608e-03 1.886578995442e-06 0.0 
1.886578995442e-06 8.838362897947e-03 0.0 
0.0 0.0 -1.341987455608e-03 
-1.296411374061e-03 -1.418949515450e-05 0.0 
-1.418949515450e-05 8.470243795444e-03 0.0 
0.0 0.0 -1.282654109251e-03 
-8.495078228820e-04 1.843107655011e-04 0.0 
1.843107655011e-04 5.547072023185e-03 0.0 
0.0 0.0 -8.462542048450e-04 
-9.255048927816e-05 -2.197953205318e-06 0.0 
-2.197953205318e-06 3.085086574748e-04 0.0 
0.0 0.0 -9.255350065570e-05 
-1.340954708391e-03 7.835804962288e-06 0.0 
7.835804962288e-06 8.838032502772e-03 0.0 
0.0 0.0 -1.340954708391e-03 
-1.280816053348e-03 -2.230055523915e-05 0.0 
-2.230055523915e-05 8.460310632468e-03 0.0 
0.0 0.0 -1.284661450484e-03 
-4.260944399250e-04 1.999732540104e-04 0.0 
1.999732540104e-04 2.608418284960e-03 0.0 
0.0 0.0 -4.253660281670e-04 
-9.365021749047e-04 -1.977008719716e-04 0.0 
-1.977008719716e-04 6.250684752616e-03 0.0 
0.0 0.0 -9.353130867196e-04 
-1.333005063589e-03 4.344781136886e-06 0.0 
4.344781136886e-06 9.114671664273e-03 0.0 
0.0 0.0 -1.323014926434e-03 
0.0 0.0 0.0 
0.0 0.0 0.0 
0.0 0.0 0.0 
-6.428281947913e-04 1.843362204216e-04 0.0 
1.843362204216e-04 4.123262309836e-03 0.0 
0.0 0.0 -6.425506931502e-04 
-8.851411761515e-04 1.851869312966e-04 0.0 
1.851869312966e-04 5.794563189636e-03 0.0 
0.0 0.0 -8.816033652580e-04 
-8.134395165507e-04 1.874953040298e-04 0.0 
1.874953040298e-04 5.300126487808e-03 0.0 
0.0 0.0 -8.109139232486e-04 
-8.225202755535e-04 1.881518984198e-04 0.0 
1.881518984198e-04 5.356080317152e-03 0.0 
0.0 0.0 -8.186613860469e-04 
-3.691769062860e-04 1.916815065322e-04 0.0 
1.916815065322e-04 2.210779207524e-03 0.0 
0.0 0.0 -3.689119447714e-04 
-1.341360672448e-03 -1.189443720154e-06 0.0 
-1.189443720154e-06 8.827889647213e-03 0.0 
0.0 0.0 -1.341360672448e-03 
-6.134329689946e-04 -1.902359328294e-04 0.0 
-1.902359328294e-04 4.002222739953e-03 0.0 
0.0 0.0 -6.123778370825e-04 
-2.202070906780e-04 -1.755376406009e-04 0.0 
-1.755376406009e-04 1.255756531969e-03 0.0 
0.0 0.0 -2.173296945085e-04 
-1.279142293538e-03 5.964349300566e-05 0.0 
5.964349300566e-05 8.727032320364e-03 0.0 
0.0 0.0 -1.272354826527e-03 
-1.022272037246e-04 4.922820238373e-06 0.0 
4.922820238373e-06 5.965869288915e-04 0.0 
0.0 0.0 -1.019437782286e-04 
-6.710661406479e-04 1.855097177597e-04 0.0 
1.855097177597e-04 4.303579593448e-03 0.0 
0.0 0.0 -6.678899790657e-04 
-2.300720776572e-04 1.212201240613e-05 0.0 
1.212201240613e-05 1.125450156733e-03 0.0 
0.0 0.0 -2.365401520142e-04 
-7.086437154644e-04 1.853452857981e-04 0.0 
1.853452857981e-04 4.588815352963e-03 0.0 
0.0 0.0 -7.094882865497e-04 
-1.317968381893e-03 -7.788542654243e-06 0.0 
-7.788542654243e-06 9.086616382280e-03 0.0 
0.0 0.0 -1.321823097425e-03 
-1.341255375116e-03 6.592408687472e-06 0.0 
6.592408687472e-06 8.854311445215e-03 0.0 
0.0 0.0 -1.341255375116e-03 
-8.673920198819e-04 1.847071888205e-04 0.0 
1.847071888205e-04 5.656037287956e-03 0.0 
0.0 0.0 -8.613793510407e-04 
-1.969643249742e-04 -2.643595705593e-05 0.0 
-2.643595705593e-05 7.486662135306e-04 0.0 
0.0 0.0 -1.793976806842e-04 
-1.826266447966e-04 1.955672024510e-04 0.0 
1.955672024510e-04 9.200601904336e-04 0.0 
0.0 0.0 -1.838036673156e-04 
-2.361898229358e-04 4.404631865766e-05 0.0 
4.404631865766e-05 1.375633081646e-03 0.0 
0.0 0.0 -2.179364692381e-04 
-1.125162068454e-03 -1.979567048057e-04 0.0 
-1.979567048057e-04 7.560228932207e-03 0.0 
0.0 0.0 -1.121833217354e-03 
-7.703836607526e-04 2.904011669623e-05 0.0 
2.904011669623e-05 5.271332940567e-03 0.0 
0.0 0.0 -7.704300227928e-04 
-8.168157235620e-04 -2.113983721697e-04 0.0 
-2.113983721697e-04 5.355765378531e-03 0.0 
0.0 0.0 -8.109332722942e-04 
-1.342502730507e-03 5.716067361725e-06 0.0 
5.716067361725e-06 8.856705817959e-03 0.0 
0.0 0.0 -1.342502730507e-03 
-7.906151483404e-04 -4.272528123303e-05 0.0 
-4.272528123303e-05 5.268742702063e-03 0.0 
0.0 0.0 -7.720444664677e-04 
-1.332977220355e-03 1.682402604833e-05 0.0 
1.682402604833e-05 9.104707937730e-03 0.0 
0.0 0.0 -1.322852565091e-03 
-1.019613459442e-03 1.919320256201e-04 0.0 
1.919320256201e-04 6.758525883042e-03 0.0 
0.0 0.0 -1.020998643257e-03 
-8.942284646778e-04 2.014665993211e-04 0.0 
2.014665993211e-04 5.869620442183e-03 0.0 
0.0 0.0 -8.907448815977e-04 
-4.710891496910e-04 1.816013443133e-04 0.0 
1.816013443133e-04 2.782078830397e-03 0.0 
0.0 0.0 -4.477608806526e-04 
-9.397641453592e-04 1.905534962230e-04 0.0 
1.905534962230e-04 6.187842394577e-03 0.0 
0.0 0.0 -9.378661514434e-04 
-2.865699781098e-04 -1.698301048615e-04 0.0 
-1.698301048615e-04 1.797113955836e-03 0.0 
0.0 0.0 -2.938158648993e-04 
-1.340754991027e-03 -4.752011562158e-06 0.0 
-4.752011562158e-06 8.857728678543e-03 0.0 
0.0 0.0 -1.340754991027e-03 
-1.339984467612e-03 2.292869316744e-05 0.0 
2.292869316744e-05 8.807369741469e-03 0.0 
0.0 0.0 -1.339984467612e-03 
-1.340417744004e-03 -2.214851180424e-05 0.0 
-2.214851180424e-05 8.828867002772e-03 0.0 
0.0 0.0 -1.340417744004e-03 
-8.660623943402e-04 -1.943286950292e-04 0.0 
-1.943286950292e-04 5.772294168294e-03 0.0 
0.0 0.0 -8.666500598261e-04 
-6.034856013852e-04 -2.033011263199e-04 0.0 
-2.033011263199e-04 3.957936150372e-03 0.0 
0.0 0.0 -6.062238016986e-04 
-7.026976706331e-04 -1.815126947840e-04 0.0 
-1.815126947840e-04 4.627441659305e-03 0.0 
0.0 0.0 -7.021192356133e-04 
-8.976477462119e-04 1.951708788180e-04 0.0 
1.951708788180e-04 5.904473226514e-03 0.0 
0.0 0.0 -8.981573260837e-04 
-1.339627896631e-03 3.612108461989e-06 0.0 
3.612108461989e-06 8.853033835610e-03 0.0 
0.0 0.0 -1.339627896631e-03 
-4.295950600907e-04 -1.875952713054e-04 0.0 
-1.875952713054e-04 2.717501457664e-03 0.0 
0.0 0.0 -4.287941800800e-04 
-4.990450639494e-04 1.934485922333e-04 0.0 
1.934485922333e-04 3.125390132284e-03 0.0 
0.0 0.0 -4.991860405784e-04 
-5.285799076226e-04 1.852384275300e-04 0.0 
1.852384275300e-04 3.322934541718e-03 0.0 
0.0 0.0 -5.272458293186e-04 
-9.298142287186e-04 1.923659803104e-04 0.0 
1.923659803104e-04 6.128652270364e-03 0.0 
0.0 0.0 -9.279583942086e-04 
-1.339074735525e-03 -2.462351465060e-05 0.0 
-2.462351465060e-05 9.096799452257e-03 0.0 
0.0 0.0 -1.323537156312e-03 
-1.500618556416e-04 1.939391886362e-05 0.0 
1.939391886362e-05 9.791726158994e-04 0.0 
0.0 0.0 -1.598254822437e-04 
-1.340775759057e-03 1.534669228291e-06 0.0 
1.534669228291e-06 8.827931576809e-03 0.0 
0.0 0.0 -1.340775759057e-03 
-4.918224965486e-04 1.956179793808e-04 0.0 
1.956179793808e-04 3.063033243647e-03 0.0 
0.0 0.0 -4.905422085546e-04 
-1.342877878941e-03 2.842270727754e-06 0.0 
2.842270727754e-06 8.853936486152e-03 0.0 
0.0 0.0 -1.342877878941e-03 
-1.156184618631e-03 -1.885719150538e-04 0.0 
-1.885719150538e-04 7.774113329411e-03 0.0 
0.0 0.0 -1.152765850879e-03 
-4.494164570379e-05 1.000468586625e-06 0.0 
1.000468586625e-06 2.551504228595e-04 0.0 
0.0 0.0 -4.576175375704e-05 
-6.699730055747e-04 1.872361539573e-04 0.0 
1.872361539573e-04 4.302808495342e-03 0.0 
0.0 0.0 -6.690559060524e-04 
-1.145839910847e-03 -1.986902778568e-04 0.0 
-1.986902778568e-04 7.714207575352e-03 0.0 
0.0 0.0 -1.146019594970e-03 
-1.341220131281e-03 -2.365934969510e-06 0.0 
-2.365934969510e-06 8.847703773833e-03 0.0 
0.0 0.0 -1.341220131281e-03 
-9.256050002818e-04 -1.923147081747e-04 0.0 
-1.923147081747e-04 6.153846390776e-03 0.0 
0.0 0.0 -9.220067723808e-04 
-1.050351148173e-03 1.970429468760e-04 0.0 
1.970429468760e-04 6.958336458839e-03 0.0 
0.0 0.0 -1.049000704964e-03 
-2.748725954192e-04 1.931705696151e-04 0.0 
1.931705696151e-04 1.524979906539e-03 0.0 
0.0 0.0 -2.717413095444e-04 
-1.208683908170e-03 6.230383996266e-06 0.0 
6.230383996266e-06 8.102506712124e-03 0.0 
0.0 0.0 -1.228682347183e-03 
-5.192327213786e-04 1.909614988805e-04 0.0 
1.909614988805e-04 3.260562468968e-03 0.0 
0.0 0.0 -5.184025592846e-04 
-5.248109421633e-04 -1.803408309235e-04 0.0 
-1.803408309235e-04 3.388681347671e-03 0.0 
0.0 0.0 -5.242929400402e-04 
-1.101238409147e-04 1.624386361107e-05 0.0 
1.624386361107e-05 6.254833965552e-04 0.0 
0.0 0.0 -1.042847928631e-04 
-1.341079611575e-03 1.268157797447e-06 0.0 
1.268157797447e-06 8.837798036775e-03 0.0 
0.0 0.0 -1.341079611575e-03 
-3.602734137551e-04 -1.850324683020e-04 0.0 
-1.850324683020e-04 2.230825920775e-03 0.0 
0.0 0.0 -3.564518745397e-04 
-1.109985979917e-03 -2.052345426402e-04 0.0 
-2.052345426402e-04 7.476883123942e-03 0.0 
0.0 0.0 -1.110501492391e-03 
-8.524872272040e-04 -2.315298743519e-04 0.0 
-2.315298743519e-04 5.680178330686e-03 0.0 
0.0 0.0 -8.555322119248e-04 
-4.402194268269e-04 -1.870881911234e-04 0.0 
-1.870881911234e-04 2.811358430465e-03 0.0 
0.0 0.0 -4.411586999297e-04 
-4.975783628974e-04 -1.914562144175e-04 0.0 
-1.914562144175e-04 3.191209784275e-03 0.0 
0.0 0.0 -4.964677435772e-04 
-8.901378245668e-04 -1.873561009026e-04 0.0 
-1.873561009026e-04 5.908561179355e-03 0.0 
0.0 0.0 -8.867075537039e-04 
-1.342259935407e-03 -1.718040054209e-05 0.0 
-1.718040054209e-05 8.855152000548e-03 0.0 
0.0 0.0 -1.342259935407e-03 
-6.396775884645e-04 1.886079041491e-04 0.0 
1.886079041491e-04 4.098241029371e-03 0.0 
0.0 0.0 -6.378868265889e-04 
-9.691742763952e-04 -2.019742400056e-04 0.0 
-2.019742400056e-04 6.483311990656e-03 0.0 
0.0 0.0 -9.693340058278e-04 
-8.041747505047e-04 1.863000233207e-04 0.0 
1.863000233207e-04 5.244246416891e-03 0.0 
0.0 0.0 -8.030799362305e-04 
-8.818155169255e-04 -1.886653253936e-04 0.0 
-1.886653253936e-04 5.877887840043e-03 0.0 
0.0 0.0 -8.811160271665e-04 
-5.320000478192e-04 -1.863752187474e-04 0.0 
-1.863752187474e-04 3.439757636019e-03 0.0 
0.0 0.0 -5.326451291888e-04 
-9.026994633867e-04 -1.977891108898e-04 0.0 
-1.977891108898e-04 6.021154653626e-03 0.0 
0.0 0.0 -9.031726653527e-04 
-7.735880944809e-04 -1.868485495488e-04 0.0 
-1.868485495488e-04 5.115539884919e-03 0.0 
0.0 0.0 -7.729461360948e-04 
-9.981479559481e-04 -1.963805187542e-04 0.0 
-1.963805187542e-04 6.683666354433e-03 0.0 
0.0 0.0 -9.982497011217e-04 
-1.004413229733e-03 1.912127845263e-04 0.0 
1.912127845263e-04 6.639387752267e-03 0.0 
0.0 0.0 -1.003134534203e-03 
-7.686187780919e-04 1.863311149205e-04 0.0 
1.863311149205e-04 4.996748422869e-03 0.0 
0.0 0.0 -7.676694601592e-04 
-6.531466934909e-04 1.957558291536e-04 0.0 
1.957558291536e-04 4.207071568820e-03 0.0 
0.0 0.0 -6.551190094499e-04 
-4.645380568116e-04 -1.828907984747e-04 0.0 
-1.828907984747e-04 2.961721166152e-03 0.0 
0.0 0.0 -4.640097282922e-04 
-6.064572421459e-04 1.910285411048e-04 0.0 
1.910285411048e-04 3.887705448155e-03 0.0 
0.0 0.0 -6.091269606258e-04 
-1.019361563877e-03 -1.903039724259e-04 0.0 
-1.903039724259e-04 6.831244999586e-03 0.0 
0.0 0.0 -1.018204129641e-03 
-8.373723247002e-04 1.874174193606e-04 0.0 
1.874174193606e-04 5.476720692713e-03 0.0 
0.0 0.0 -8.365169925761e-04 
-1.320520432489e-03 -2.623800515080e-05 0.0 
-2.623800515080e-05 9.107403832922e-03 0.0 
0.0 0.0 -1.321929620191e-03 
-1.169515206127e-03 -1.894067828277e-04 0.0 
-1.894067828277e-04 7.912550107300e-03 0.0 
0.0 0.0 -1.174325249119e-03 
-4.054788487746e-04 1.902250889250e-04 0.0 
1.902250889250e-04 2.477005508033e-03 0.0 
0.0 0.0 -4.069995479128e-04 
-1.341047338368e-03 6.114097105079e-06 0.0 
6.114097105079e-06 8.810414551587e-03 0.0 
0.0 0.0 -1.341047338368e-03 
-1.246442799579e-03 -7.048165356661e-06 0.0 
-7.048165356661e-06 8.701531217890e-03 0.0 
0.0 0.0 -1.266414110344e-03 
-7.243231333996e-04 1.855217411942e-04 0.0 
1.855217411942e-04 4.688371918965e-03 0.0 
0.0 0.0 -7.237787631415e-04 
-9.766466055391e-05 -9.527665079689e-06 0.0 
-9.527665079689e-06 3.256739367154e-04 0.0 
0.0 0.0 -9.771826121206e-05 
-1.305508824941e-03 3.853404293036e-06 0.0 
3.853404293036e-06 9.105182867572e-03 0.0 
0.0 0.0 -1.323469717371e-03 
-1.171509388478e-03 -1.678154851061e-04 0.0 
-1.678154851061e-04 7.861802012676e-03 0.0 
0.0 0.0 -1.167157861819e-03 
-4.521694521813e-04 2.012915858519e-04 0.0 
2.012915858519e-04 2.804008720375e-03 0.0 
0.0 0.0 -4.535238702637e-04 
-1.341709311524e-03 -1.310979986686e-05 0.0 
-1.310979986686e-05 8.829628018658e-03 0.0 
0.0 0.0 -1.341709311524e-03 
-9.320413057689e-04 -1.962162649741e-04 0.0 
-1.962162649741e-04 6.231458751848e-03 0.0 
0.0 0.0 -9.325599965574e-04 
-6.268046795760e-04 1.808345467380e-04 0.0 
1.808345467380e-04 3.989844982223e-03 0.0 
0.0 0.0 -6.229492605273e-04 
-8.398341044081e-04 1.726875732325e-04 0.0 
1.726875732325e-04 5.514357495571e-03 0.0 
0.0 0.0 -8.408860858065e-04 
-8.060358487983e-04 -1.972435935582e-04 0.0 
-1.972435935582e-04 5.343400692596e-03 0.0 
0.0 0.0 -8.054665293395e-04 
-8.004419744920e-04 -1.952463938329e-04 0.0 
-1.952463938329e-04 5.314426112526e-03 0.0 
0.0 0.0 -8.008683130455e-04 
-9.182717976000e-04 -1.896493216883e-04 0.0 
-1.896493216883e-04 6.134019344383e-03 0.0 
0.0 0.0 -9.181754741429e-04 
-9.700343521080e-04 -1.978951788456e-04 0.0 
-1.978951788456e-04 6.510189924062e-03 0.0 
0.0 0.0 -9.721028620036e-04 
-6.977402691425e-04 1.822093202730e-04 0.0 
1.822093202730e-04 4.487185732323e-03 0.0 
0.0 0.0 -6.945885048819e-04 
-1.040005538332e-03 1.990021927621e-04 0.0 
1.990021927621e-04 6.900874594821e-03 0.0 
0.0 0.0 -1.039409037654e-03 
-8.975501320031e-04 -2.506583898402e-05 0.0 
-2.506583898402e-05 6.020256954513e-03 0.0 
0.0 0.0 -8.839498032872e-04 
-6.495260709226e-04 -1.944699442282e-04 0.0 
-1.944699442282e-04 4.277277504375e-03 0.0 
0.0 0.0 -6.521967345917e-04 
-9.682052284533e-04 1.865606736299e-04 0.0 
1.865606736299e-04 6.381518702333e-03 0.0 
0.0 0.0 -9.664699797409e-04 
-5.143750252182e-04 -1.778295084176e-04 0.0 
-1.778295084176e-04 3.324024151635e-03 0.0 
0.0 0.0 -5.155438399970e-04 
-9.088890292892e-04 1.918794185100e-04 0.0 
1.918794185100e-04 5.978978740211e-03 0.0 
0.0 0.0 -9.093720595694e-04 
-5.184917320349e-05 -5.023579163672e-06 0.0 
-5.023579163672e-06 2.615427770040e-04 0.0 
0.0 0.0 -4.585464485956e-05 
-5.019069719293e-04 -1.730390890632e-04 0.0 
-1.730390890632e-04 3.221983585288e-03 0.0 
0.0 0.0 -4.997308803768e-04 
-4.873333685603e-04 -1.811613926647e-04 0.0 
-1.811613926647e-04 3.131270652529e-03 0.0 
0.0 0.0 -4.875765080988e-04 
-7.115036268068e-04 1.928847685251e-04 0.0 
1.928847685251e-04 4.611615726792e-03 0.0 
0.0 0.0 -7.126562430122e-04 
-7.596608402965e-04 1.884583179831e-04 0.0 
1.884583179831e-04 4.937228765552e-03 0.0 
0.0 0.0 -7.595228636782e-04 
-9.346957466832e-04 1.973754267299e-04 0.0 
1.973754267299e-04 6.167461615292e-03 0.0 
0.0 0.0 -9.350600278798e-04 
-8.902631525082e-04 -1.867681813360e-04 0.0 
-1.867681813360e-04 5.973122971149e-03 0.0 
0.0 0.0 -8.962969588583e-04 
-4.491438895743e-04 -1.869760147927e-04 0.0 
-1.869760147927e-04 2.875737731611e-03 0.0 
0.0 0.0 -4.505554202764e-04 
-1.341827844788e-03 5.881319465521e-06 0.0 
5.881319465521e-06 8.853598786661e-03 0.0 
0.0 0.0 -1.341827844788e-03 
-8.819043585379e-04 -1.894669265130e-04 0.0 
-1.894669265130e-04 5.856756576790e-03 0.0 
0.0 0.0 -8.789935771182e-04 
-7.395748600620e-04 1.939731217689e-04 0.0 
1.939731217689e-04 4.808423671935e-03 0.0 
0.0 0.0 -7.413896480605e-04 
-8.456344442179e-04 -1.866159444842e-04 0.0 
-1.866159444842e-04 5.609212261315e-03 0.0 
0.0 0.0 -8.436662038215e-04 
-7.098621749807e-04 -1.956105885316e-04 0.0 
-1.956105885316e-04 4.679646247114e-03 0.0 
0.0 0.0 -7.098625721847e-04 
0.0 0.0 0.0 
0.0 0.0 0.0 
0.0 0.0 0.0 
-8.787853985481e-04 -1.870345829221e-04 0.0 
-1.870345829221e-04 5.815290073788e-03 0.0 
0.0 0.0 -8.733545218784e-04 
-6.014622352257e-04 2.088026922776e-04 0.0 
2.088026922776e-04 3.826503758406e-03 0.0 
0.0 0.0 -5.956302995864e-04 
0.0 0.0 0.0 
0.0 0.0 0.0 
0.0 0.0 0.0 
-7.014361857610e-04 2.031970023559e-04 0.0 
2.031970023559e-04 4.544280328863e-03 0.0 
0.0 0.0 -7.041275119738e-04 
-1.001578329479e-03 1.949348082252e-04 0.0 
1.949348082252e-04 6.625301000395e-03 0.0 
0.0 0.0 -1.001254648526e-03 
-1.145850176714e-03 1.952473198253e-04 0.0 
1.952473198253e-04 7.640587141445e-03 0.0 
0.0 0.0 -1.146946825052e-03 
-8.534899184108e-04 -1.900750659178e-04 0.0 
-1.900750659178e-04 5.682294137052e-03 0.0 
0.0 0.0 -8.532270185794e-04 
-8.843005196867e-04 1.891738523443e-04 0.0 
1.891738523443e-04 5.802847869315e-03 0.0 
0.0 0.0 -8.841559964380e-04 
-7.498668879057e-04 -1.500423199850e-04 0.0 
-1.500423199850e-04 4.956000169468e-03 0.0 
0.0 0.0 -7.495231765994e-04 
-7.499562203702e-04 -7.649065135862e-06 0.0 
-7.649065135862e-06 4.585920683461e-03 0.0 
0.0 0.0 -7.312625299843e-04 
-1.259814766287e-03 -2.251942805186e-05 0.0 
-2.251942805186e-05 8.482919934012e-03 0.0 
0.0 0.0 -1.286111585339e-03 
-8.096577215198e-04 -1.889624871780e-04 0.0 
-1.889624871780e-04 5.361431513159e-03 0.0 
0.0 0.0 -8.082854548548e-04 
-2.601123029567e-05 -8.443429959233e-06 0.0 
-8.443429959233e-06 2.242861713756e-04 0.0 
0.0 0.0 -4.535587742227e-05 
-2.679801948708e-04 -1.979252069441e-04 0.0 
-1.979252069441e-04 1.544873028567e-03 0.0 
0.0 0.0 -2.569639750501e-04 
-9.553383276932e-05 -1.682092997359e-05 0.0 
-1.682092997359e-05 3.188442541893e-04 0.0 
0.0 0.0 -9.570446632286e-05 
-4.265759374031e-04 -1.588061750622e-04 0.0 
-1.588061750622e-04 2.743578014403e-03 0.0 
0.0 0.0 -4.284133232656e-04 
-1.136810990824e-03 -2.050532392672e-04 0.0 
-2.050532392672e-04 7.627868260152e-03 0.0 
0.0 0.0 -1.134523071099e-03 
-1.147232605264e-03 -1.988471843745e-04 0.0 
-1.988471843745e-04 7.696346442353e-03 0.0 
0.0 0.0 -1.144649651339e-03 
-1.090721102207e-03 1.927119379256e-04 0.0 
1.927119379256e-04 7.225314130525e-03 0.0 
0.0 0.0 -1.087427768671e-03 
-4.794185500659e-04 -1.949320750668e-04 0.0 
-1.949320750668e-04 3.096205477872e-03 0.0 
0.0 0.0 -4.827803379924e-04 
-9.064466102036e-04 -1.951694302266e-04 0.0 
-1.951694302266e-04 6.052913189119e-03 0.0 
0.0 0.0 -9.063168105749e-04 
-1.135504702689e-03 1.907792817819e-04 0.0 
1.907792817819e-04 7.600364314815e-03 0.0 
0.0 0.0 -1.142106164842e-03 
-2.788698608247e-04 -1.715069773272e-04 0.0 
-1.715069773272e-04 1.706769297964e-03 0.0 
0.0 0.0 -2.821198837983e-04 
-5.962549057610e-04 -2.242943986440e-04 0.0 
-2.242943986440e-04 3.850260609285e-03 0.0 
0.0 0.0 -5.942115541274e-04 
-4.821057558984e-04 1.938812463926e-04 0.0 
1.938812463926e-04 3.093517382698e-03 0.0 
0.0 0.0 -4.980019828625e-04 
-1.334956243324e-03 1.593537991859e-05 0.0 
1.593537991859e-05 9.100113722888e-03 0.0 
0.0 0.0 -1.322396863610e-03 
-1.341641872583e-03 -1.598087186621e-05 0.0 
-1.598087186621e-05 8.845353034364e-03 0.0 
0.0 0.0 -1.341641872583e-03 
-6.679494605950e-04 -1.695756001759e-04 0.0 
-1.695756001759e-04 4.277020538631e-03 0.0 
0.0 0.0 -6.580288049735e-04 
-7.324961324261e-04 -1.951613493015e-04 0.0 
-1.951613493015e-04 4.877737690436e-03 0.0 
0.0 0.0 -7.385580096348e-04 
-8.320090833607e-04 1.945702263429e-04 0.0 
1.945702263429e-04 5.445258436908e-03 0.0 
0.0 0.0 -8.323457052078e-04 
-1.163041303964e-03 1.778772476613e-04 0.0 
1.778772476613e-04 7.881722024609e-03 0.0 
0.0 0.0 -1.177278300149e-03 
-2.899237030429e-04 1.996200503925e-04 0.0 
1.996200503925e-04 1.630038568431e-03 0.0 
0.0 0.0 -2.880367495917e-04 
-1.101530990218e-03 1.937554819912e-04 0.0 
1.937554819912e-04 7.342981690998e-03 0.0 
0.0 0.0 -1.104707344597e-03 
-1.602377275387e-04 3.299975488637e-05 0.0 
3.299975488637e-05 1.021185104458e-03 0.0 
0.0 0.0 -1.612556504808e-04 
-6.771993620364e-04 -1.961964403491e-04 0.0 
-1.961964403491e-04 4.422374575330e-03 0.0 
0.0 0.0 -6.724657308136e-04 
-7.463531003114e-04 -1.974750822580e-04 0.0 
-1.974750822580e-04 4.938620865557e-03 0.0 
0.0 0.0 -7.470513223636e-04 
-9.733051936627e-05 1.431354683513e-05 0.0 
1.431354683513e-05 3.247181541802e-04 0.0 
0.0 0.0 -9.745184349170e-05 
-6.107893375516e-04 1.961955655378e-04 0.0 
1.961955655378e-04 4.041501780348e-03 0.0 
0.0 0.0 -6.267591816330e-04 
-1.179150888516e-03 1.722766776771e-04 0.0 
1.722766776771e-04 7.845621701176e-03 0.0 
0.0 0.0 -1.176862138969e-03 
-5.380435756070e-05 -4.751466869154e-06 0.0 
-4.751466869154e-06 2.532858114077e-04 0.0 
0.0 0.0 -4.590328595372e-05 
-7.312532489837e-04 1.362386611749e-05 0.0 
1.362386611749e-05 4.573834094121e-03 0.0 
0.0 0.0 -7.322753781719e-04 
-7.047922472484e-04 1.123922026685e-06 0.0 
1.123922026685e-06 4.847576831705e-03 0.0 
0.0 0.0 -7.130472889423e-04 
-9.547380700052e-04 -1.945366017599e-04 0.0 
-1.945366017599e-04 6.390005998802e-03 0.0 
0.0 0.0 -9.552000144736e-04 
-4.877659469443e-04 -1.909239420501e-04 0.0 
-1.909239420501e-04 3.137535928941e-03 0.0 
0.0 0.0 -4.943513106837e-04 
-4.803168808599e-04 1.981666947029e-04 0.0 
1.981666947029e-04 2.999843219209e-03 0.0 
0.0 0.0 -4.817493388239e-04 
-3.413576717745e-04 -1.696251700452e-04 0.0 
-1.696251700452e-04 2.103971295735e-03 0.0 
0.0 0.0 -3.398054741319e-04 
-1.177842708252e-03 1.745516882076e-04 0.0 
1.745516882076e-04 7.866046843566e-03 0.0 
0.0 0.0 -1.180895453064e-03 
-1.288113258455e-03 -7.910099866540e-06 0.0 
-7.910099866540e-06 8.468043511099e-03 0.0 
0.0 0.0 -1.286194385238e-03 
-1.101033919243e-03 -1.960948394900e-04 0.0 
-1.960948394900e-04 7.394725323298e-03 0.0 
0.0 0.0 -1.101088927253e-03 
-4.503494869687e-04 -1.637033152419e-04 0.0 
-1.637033152419e-04 2.832512250195e-03 0.0 
0.0 0.0 -4.457015571677e-04 
-2.141424004700e-04 2.387020000876e-04 0.0 
2.387020000876e-04 9.652683007768e-04 0.0 
0.0 0.0 -1.905831712289e-04 
-7.028954825784e-04 -1.797251013726e-04 0.0 
-1.797251013726e-04 4.605141056062e-03 0.0 
0.0 0.0 -6.999131133628e-04 
-7.213924053117e-04 -5.563189410970e-07 0.0 
-5.563189410970e-07 4.593100885078e-03 0.0 
0.0 0.0 -7.345111139194e-04 
-7.221802994753e-04 -3.459116523938e-05 0.0 
-3.459116523938e-05 4.860709319501e-03 0.0 
0.0 0.0 -7.144802219087e-04 
0.0 0.0 0.0 
0.0 0.0 0.0 
0.0 0.0 0.0 
-9.462674636507e-05 9.391315588563e-06 0.0 
9.391315588563e-06 3.155479012844e-04 0.0 
0.0 0.0 -9.468049496542e-05 
-1.889846684321e-04 -5.120829147058e-05 0.0 
-5.120829147058e-05 7.312686420689e-04 0.0 
0.0 0.0 -1.795416262981e-04 
-3.813293178289e-04 1.993773121019e-04 0.0 
1.993773121019e-04 2.301443442693e-03 0.0 
0.0 0.0 -3.820941496288e-04 
-1.147287239146e-04 2.233479330491e-06 0.0 
2.233479330491e-06 6.267336868549e-04 0.0 
0.0 0.0 -1.035694276016e-04 
-7.177698882455e-04 1.875976177193e-04 0.0 
1.875976177193e-04 4.537921580666e-03 0.0 
0.0 0.0 -6.918148876825e-04 
0.0 0.0 0.0 
0.0 0.0 0.0 
0.0 0.0 0.0 
-4.466789787724e-04 2.025807610901e-04 0.0 
2.025807610901e-04 2.763058809203e-03 0.0 
0.0 0.0 -4.482372226011e-04 
-9.484602570362e-04 5.937741420751e-05 0.0 
5.937741420751e-05 6.186307546056e-03 0.0 
0.0 0.0 -9.582560723523e-04 
-7.114040901391e-04 1.008097673964e-05 0.0 
1.008097673964e-05 4.858827396878e-03 0.0 
0.0 0.0 -7.120344407548e-04 
-1.154819602250e-03 -2.018660896655e-04 0.0 
-2.018660896655e-04 7.854075905782e-03 0.0 
0.0 0.0 -1.169483110168e-03 
-9.636351090390e-04 1.953512484906e-04 0.0 
1.953512484906e-04 6.363047776900e-03 0.0 
0.0 0.0 -9.641449249716e-04 
-9.024629704431e-04 7.830558015861e-05 0.0 
7.830558015861e-05 5.773999043953e-03 0.0 
0.0 0.0 -8.988447104697e-04 
-5.248669465082e-04 2.030027087804e-04 0.0 
2.030027087804e-04 3.352814556998e-03 0.0 
0.0 0.0 -5.269378630653e-04 
-1.557908844091e-04 -1.426598337885e-05 0.0 
-1.426598337885e-05 1.017280518651e-03 0.0 
0.0 0.0 -1.602995255322e-04 
-1.340974968048e-03 -2.076763454680e-05 0.0 
-2.076763454680e-05 8.825339797415e-03 0.0 
0.0 0.0 -1.340974968048e-03 
-1.331740677566e-03 -1.067318438912e-06 0.0 
-1.067318438912e-06 9.107204473734e-03 0.0 
0.0 0.0 -1.320295381545e-03 
-8.482992821085e-04 2.310186269771e-04 0.0 
2.310186269771e-04 5.616583664962e-03 0.0 
0.0 0.0 -8.588387843224e-04 
-7.462574470129e-04 -7.506809615043e-06 0.0 
-7.506809615043e-06 4.590636784032e-03 0.0 
0.0 0.0 -7.326073368541e-04 
-5.251543525857e-04 -1.205978746023e-04 0.0 
-1.205978746023e-04 3.428806267578e-03 0.0 
0.0 0.0 -5.314511797787e-04 
-1.323491096028e-03 -2.283744003803e-05 0.0 
-2.283744003803e-05 9.085754239402e-03 0.0 
0.0 0.0 -1.322576402756e-03 
-4.157468964118e-04 -1.918553564634e-04 0.0 
-1.918553564634e-04 2.636700862140e-03 0.0 
0.0 0.0 -4.166600706249e-04 
-7.057672473389e-04 -4.164103403237e-06 0.0 
-4.164103403237e-06 4.837446989167e-03 0.0 
0.0 0.0 -7.125614225629e-04 
-7.131316839303e-04 7.226971892557e-06 0.0 
7.226971892557e-06 4.584933787265e-03 0.0 
0.0 0.0 -7.312775522649e-04 
-6.769264019625e-04 1.800240141216e-04 0.0 
1.800240141216e-04 4.359211225872e-03 0.0 
0.0 0.0 -6.755779900756e-04 
-1.341823989366e-03 -1.865391509118e-05 0.0 
-1.865391509118e-05 8.857424336763e-03 0.0 
0.0 0.0 -1.341823989366e-03 
-1.293765856573e-03 1.607380559243e-05 0.0 
1.607380559243e-05 9.094492997413e-03 0.0 
0.0 0.0 -1.322582685247e-03 
-1.126722208426e-04 6.998488737266e-06 0.0 
6.998488737266e-06 6.134703062313e-04 0.0 
0.0 0.0 -1.035688293187e-04 
0.0 0.0 0.0 
0.0 0.0 0.0 
0.0 0.0 0.0 
-2.390355384623e-04 1.936491639953e-04 0.0 
1.936491639953e-04 1.192457136132e-03 0.0 
0.0 0.0 -2.221130066924e-04 
-7.484754656573e-04 1.958621454920e-04 0.0 
1.958621454920e-04 4.871290639516e-03 0.0 
0.0 0.0 -7.497705102653e-04 
-1.223848934685e-03 2.347738204731e-04 0.0 
2.347738204731e-04 8.231542695031e-03 0.0 
0.0 0.0 -1.224669017856e-03 
-3.851215442265e-05 -6.758275575601e-05 0.0 
-6.758275575601e-05 2.149841041377e-04 0.0 
0.0 0.0 -4.506945562690e-05 
-1.095035538177e-03 -2.135230687797e-04 0.0 
-2.135230687797e-04 7.297496536284e-03 0.0 
0.0 0.0 -1.092518628633e-03 
0.0 0.0 0.0 
0.0 0.0 0.0 
0.0 0.0 0.0 
-9.497696422961e-04 1.942166615206e-04 0.0 
1.942166615206e-04 6.260470679264e-03 0.0 
0.0 0.0 -9.493083249531e-04 
-6.288110034417e-05 6.701081411341e-06 0.0 
6.701081411341e-06 2.758850751309e-04 0.0 
0.0 0.0 -4.591043399907e-05 
-6.241905191399e-05 -2.511621330185e-05 0.0 
-2.511621330185e-05 2.635940123717e-04 0.0 
0.0 0.0 -4.615290204994e-05 
-9.135771074388e-04 1.942985431381e-04 0.0 
1.942985431381e-04 6.003773453710e-03 0.0 
0.0 0.0 -9.122568895951e-04 
-1.191044637578e-03 1.954606753198e-04 0.0 
1.954606753198e-04 7.975629465802e-03 0.0 
0.0 0.0 -1.192963836147e-03 
-9.353430265023e-04 -9.437658603161e-05 0.0 
-9.437658603161e-05 6.401376295666e-03 0.0 
0.0 0.0 -9.361271490834e-04 
-7.292657224304e-04 -1.767865209210e-04 0.0 
-1.767865209210e-04 4.795789678295e-03 0.0 
0.0 0.0 -7.268406435589e-04 
-9.710718174905e-05 -1.358771368788e-05 0.0 
-1.358771368788e-05 3.239463226279e-04 0.0 
0.0 0.0 -9.721677466237e-05 
-9.353638871597e-04 -1.962742580692e-04 0.0 
-1.962742580692e-04 6.250401807132e-03 0.0 
0.0 0.0 -9.349022313484e-04 
-1.337797817327e-03 -2.530827551252e-05 0.0 
-2.530827551252e-05 8.814034455446e-03 0.0 
0.0 0.0 -1.337797817327e-03 
-1.326036287352e-03 -1.455315038832e-04 0.0 
-1.455315038832e-04 9.082015863419e-03 0.0 
0.0 0.0 -1.322354755130e-03 
-7.123437340294e-04 1.173862101604e-05 0.0 
1.173862101604e-05 4.855322276952e-03 0.0 
0.0 0.0 -7.125764448434e-04 
-9.860203699540e-04 1.899915039947e-04 0.0 
1.899915039947e-04 6.516626141221e-03 0.0 
0.0 0.0 -9.863757069361e-04 
-1.341607717199e-03 1.356557150840e-05 0.0 
1.356557150840e-05 8.840587029738e-03 0.0 
0.0 0.0 -1.341607717199e-03 
-1.048314093038e-03 -2.082351981232e-04 0.0 
-2.082351981232e-04 7.019832661667e-03 0.0 
0.0 0.0 -1.046710270629e-03 
-1.675301838823e-04 4.109428891396e-05 0.0 
4.109428891396e-05 9.648536059596e-04 0.0 
0.0 0.0 -1.589907658001e-04 
-1.067672517152e-04 -9.583258243013e-06 0.0 
-9.583258243013e-06 6.200113654204e-04 0.0 
0.0 0.0 -1.029725306715e-04 
-1.028842676796e-04 -4.314994342249e-05 0.0 
-4.314994342249e-05 3.453649952318e-04 0.0 
0.0 0.0 -1.039203118081e-04 
-5.871622493136e-04 1.953666188975e-04 0.0 
1.953666188975e-04 3.814212399553e-03 0.0 
0.0 0.0 -5.933358154923e-04 
-1.333672766825e-03 -1.202212504053e-04 0.0 
-1.202212504053e-04 9.086271765214e-03 0.0 
0.0 0.0 -1.322828574513e-03 
-1.249098589656e-03 -2.325383237370e-04 0.0 
-2.325383237370e-04 8.487130897030e-03 0.0 
0.0 0.0 -1.258329778789e-03 
0.0 0.0 0.0 
0.0 0.0 0.0 
0.0 0.0 0.0 
-6.989700289776e-04 -1.857489314676e-04 0.0 
-1.857489314676e-04 4.509333602690e-03 0.0 
0.0 0.0 -6.938761155152e-04 
-1.344798314370e-03 5.494387484636e-06 0.0 
5.494387484636e-06 8.860415151620e-03 0.0 
0.0 0.0 -1.344798314370e-03 
-1.337322942170e-03 3.677431177348e-05 0.0 
3.677431177348e-05 9.118625106116e-03 0.0 
0.0 0.0 -1.318785251170e-03 
-1.303755075695e-03 1.430690451396e-06 0.0 
1.430690451396e-06 9.096198326928e-03 0.0 
0.0 0.0 -1.321151187552e-03 
-1.034449558172e-03 2.142439693304e-04 0.0 
2.142439693304e-04 6.840882471351e-03 0.0 
0.0 0.0 -1.027148381742e-03 
-1.117879717661e-03 -2.162737768218e-04 0.0 
-2.162737768218e-04 7.549121072968e-03 0.0 
0.0 0.0 -1.125709525796e-03 
-1.338030260144e-03 -6.968280175092e-06 0.0 
-6.968280175092e-06 8.819304319896e-03 0.0 
0.0 0.0 -1.338030260144e-03 
-1.340754991027e-03 -2.793160050155e-05 0.0 
-2.793160050155e-05 8.842227493663e-03 0.0 
0.0 0.0 -1.340754991027e-03 
-1.084387157107e-03 1.756228747117e-04 0.0 
1.756228747117e-04 7.304356114432e-03 0.0 
0.0 0.0 -1.092518628633e-03 
-2.311762207506e-05 7.524747598181e-05 0.0 
7.524747598181e-05 1.841595127813e-04 0.0 
0.0 0.0 -4.541545915403e-05 
-7.129930244863e-04 -1.525724794926e-06 0.0 
-1.525724794926e-06 4.814692496190e-03 0.0 
0.0 0.0 -7.139539158865e-04 
-7.213897068280e-04 3.016260299788e-05 0.0 
3.016260299788e-05 4.878464797693e-03 0.0 
0.0 0.0 -7.133642253441e-04 
0.0 0.0 0.0 
0.0 0.0 0.0 
0.0 0.0 0.0 
-1.342313591240e-03 1.055329185635e-05 0.0 
1.055329185635e-05 8.873951644271e-03 0.0 
0.0 0.0 -1.342313591240e-03 
-1.336661786255e-03 2.540411115345e-05 0.0 
2.540411115345e-05 9.107640988403e-03 0.0 
0.0 0.0 -1.318355947622e-03 
-1.337959751097e-03 6.489046299362e-07 0.0 
6.489046299362e-07 8.814031058647e-03 0.0 
0.0 0.0 -1.337959751097e-03 
-6.887950874113e-05 7.326700540917e-06 0.0 
7.326700540917e-06 2.659430667850e-04 0.0 
0.0 0.0 -4.582974829071e-05 
-7.021790639444e-05 9.602649528375e-06 0.0 
9.602649528375e-06 2.736498867396e-04 0.0 
0.0 0.0 -4.591370119938e-05 
-1.340754991027e-03 -1.163411170892e-06 0.0 
-1.163411170892e-06 8.829041487509e-03 0.0 
0.0 0.0 -1.340754991027e-03 
-1.340396196526e-03 -2.044778395464e-05 0.0 
-2.044778395464e-05 8.820055094331e-03 0.0 
0.0 0.0 -1.340396196526e-03 
-1.016763022878e-03 -2.313272643619e-04 0.0 
-2.313272643619e-04 6.613286649783e-03 0.0 
0.0 0.0 -9.936726122374e-04 
-7.156761650400e-04 3.174630435060e-05 0.0 
3.174630435060e-05 4.813106322843e-03 0.0 
0.0 0.0 -7.124851972278e-04 
-1.051691578887e-03 -2.268729750207e-04 0.0 
-2.268729750207e-04 7.069453692283e-03 0.0 
0.0 0.0 -1.060142436171e-03 
-8.856361613045e-04 -2.246794552561e-04 0.0 
-2.246794552561e-04 5.656932423438e-03 0.0 
0.0 0.0 -8.626607521899e-04 
-6.974461573381e-04 1.315776503869e-05 0.0 
1.315776503869e-05 4.815685979733e-03 0.0 
0.0 0.0 -7.121912678902e-04 
-3.076401957545e-05 3.630205513196e-05 0.0 
3.630205513196e-05 2.492584121326e-04 0.0 
0.0 0.0 -4.495577515415e-05 
-4.859098010828e-05 -3.737210181655e-05 0.0 
-3.737210181655e-05 2.860304098853e-04 0.0 
0.0 0.0 -4.591167563965e-05 
-3.185160578265e-05 -1.142237180328e-05 0.0 
-1.142237180328e-05 2.469612253318e-04 0.0 
0.0 0.0 -4.589015575604e-05 
-4.731421252786e-05 -1.226097571205e-05 0.0 
-1.226097571205e-05 2.659450080892e-04 0.0 
0.0 0.0 -4.556578909549e-05 
-7.410966517881e-04 2.317413733405e-04 0.0 
2.317413733405e-04 4.761489269815e-03 0.0 
0.0 0.0 -7.271325101417e-04 
-6.567236663823e-04 2.031409226007e-04 0.0 
2.031409226007e-04 4.278704049819e-03 0.0 
0.0 0.0 -6.600769387058e-04 
0.0 0.0 0.0 
0.0 0.0 0.0 
0.0 0.0 0.0 
-9.198692932468e-04 2.207519103490e-04 0.0 
2.207519103490e-04 6.164531821473e-03 0.0 
0.0 0.0 -9.221709323543e-04 
0.0 0.0 0.0 
0.0 0.0 0.0 
0.0 0.0 0.0 
-1.341471640605e-03 5.425770365484e-06 0.0 
5.425770365484e-06 8.820837432317e-03 0.0 
0.0 0.0 -1.341471640605e-03 
-1.340968685557e-03 1.249741243797e-05 0.0 
1.249741243797e-05 8.807656416615e-03 0.0 
0.0 0.0 -1.340968685557e-03 
-1.339320413496e-03 -6.736119072725e-06 0.0 
-6.736119072725e-06 8.832654043149e-03 0.0 
0.0 0.0 -1.339320413496e-03 
-2.516213945074e-04 2.377641770175e-04 0.0 
2.377641770175e-04 1.477950192533e-03 0.0 
0.0 0.0 -2.599136149544e-04 
-4.499622910387e-04 2.064665423492e-04 0.0 
2.064665423492e-04 2.879856921820e-03 0.0 
0.0 0.0 -4.607467809507e-04 
-1.337132911908e-03 -4.793528436986e-06 0.0 
-4.793528436986e-06 8.820087587172e-03 0.0 
0.0 0.0 -1.337132911908e-03 
-1.120160542764e-03 1.885503644174e-04 0.0 
1.885503644174e-04 7.560722239950e-03 0.0 
0.0 0.0 -1.124956933753e-03 
-1.344556937803e-03 -2.104246713843e-05 0.0 
-2.104246713843e-05 8.860523593132e-03 0.0 
0.0 0.0 -1.344556937803e-03 
-1.195658010449e-03 2.008624552428e-04 0.0 
2.008624552428e-04 8.028011251528e-03 0.0 
0.0 0.0 -1.192538251246e-03 
-1.264541089761e-03 2.315838415429e-04 0.0 
2.315838415429e-04 8.498729307699e-03 0.0 
0.0 0.0 -1.259905836238e-03 
-6.219774932840e-04 -2.035330289392e-04 0.0 
-2.035330289392e-04 4.041759494414e-03 0.0 
0.0 0.0 -6.267460875326e-04 
-1.333336577702e-03 -3.290028368550e-05 0.0 
-3.290028368550e-05 9.106230716714e-03 0.0 
0.0 0.0 -1.318101597465e-03 
-1.336001964470e-03 1.162172730561e-04 0.0 
1.162172730561e-04 9.090958479552e-03 0.0 
0.0 0.0 -1.321689849711e-03 
-1.157015842751e-03 -2.064363215115e-04 0.0 
-2.064363215115e-04 7.737243073859e-03 0.0 
0.0 0.0 -1.157495185000e-03 
-1.229671491752e-03 -2.051129200289e-04 0.0 
-2.051129200289e-04 8.228478437854e-03 0.0 
0.0 0.0 -1.225777420818e-03 
-9.871372975694e-04 -1.866548184672e-04 0.0 
-1.866548184672e-04 6.644402027939e-03 0.0 
0.0 0.0 -9.925156490314e-04 
0.0 0.0 0.0 
0.0 0.0 0.0 
0.0 0.0 0.0 
-6.525071487266e-04 -2.022287068405e-04 0.0 
-2.022287068405e-04 4.165983179946e-03 0.0 
0.0 0.0 -6.350241097613e-04 
-1.062777711570e-04 -2.500028508481e-05 0.0 
-2.500028508481e-05 5.975407209184e-04 0.0 
0.0 0.0 -1.030398215525e-04 
-1.177532662352e-03 -1.733616004669e-04 0.0 
-1.733616004669e-04 7.926724853394e-03 0.0 
0.0 0.0 -1.177819030284e-03 
-6.744770170929e-04 1.928269940394e-04 0.0 
1.928269940394e-04 4.352241427477e-03 0.0 
0.0 0.0 -6.753691525988e-04 
-1.095781442937e-03 1.863762097668e-04 0.0 
1.863762097668e-04 7.297090200674e-03 0.0 
0.0 0.0 -1.099016898379e-03 
-3.528730048210e-04 -1.946361167359e-04 0.0 
-1.946361167359e-04 2.176757571714e-03 0.0 
0.0 0.0 -3.504775146279e-04 
-1.550760112037e-04 1.206598951615e-04 0.0 
1.206598951615e-04 7.508446244136e-04 0.0 
0.0 0.0 -1.735952156319e-04 
-1.160601579575e-03 -1.894710886425e-04 0.0 
-1.894710886425e-04 7.820833929290e-03 0.0 
0.0 0.0 -1.161668299909e-03 
-6.889768412053e-04 -1.975061828768e-04 0.0 
-1.975061828768e-04 4.617261067584e-03 0.0 
0.0 0.0 -7.012080445024e-04 
-5.762009062567e-04 2.005988488918e-04 0.0 
2.005988488918e-04 3.584897669436e-03 0.0 
0.0 0.0 -5.611363230934e-04 
-1.093490207039e-03 -1.909491051748e-04 0.0 
-1.909491051748e-04 7.367841895943e-03 0.0 
0.0 0.0 -1.096102707776e-03 
-1.178635420303e-03 1.949598249273e-04 0.0 
1.949598249273e-04 7.912911661083e-03 0.0 
0.0 0.0 -1.188907866872e-03 
-5.561658818215e-04 -2.031625025719e-04 0.0 
-2.031625025719e-04 3.593153237093e-03 0.0 
0.0 0.0 -5.602736785587e-04 
-1.035403721303e-03 -2.031605927371e-04 0.0 
-2.031605927371e-04 6.949569291118e-03 0.0 
0.0 0.0 -1.035646790376e-03 
-9.180249208977e-04 1.931476710153e-04 0.0 
1.931476710153e-04 6.042341158293e-03 0.0 
0.0 0.0 -9.181742748318e-04 
-9.917755747799e-04 2.023242542686e-04 0.0 
2.023242542686e-04 6.575747416083e-03 0.0 
0.0 0.0 -9.952786863929e-04 
-1.024377024952e-03 1.861972783327e-04 0.0 
1.861972783327e-04 6.794579129447e-03 0.0 
0.0 0.0 -1.024224580100e-03 
-5.802650742356e-04 1.891370522918e-04 0.0 
1.891370522918e-04 3.679117002713e-03 0.0 
0.0 0.0 -5.788817793163e-04 
-6.680148396562e-04 -1.727307713497e-04 0.0 
-1.727307713497e-04 4.367645791481e-03 0.0 
0.0 0.0 -6.651338130661e-04 
-7.292546132971e-04 -1.846826388501e-04 0.0 
-1.846826388501e-04 4.813421317749e-03 0.0 
0.0 0.0 -7.293057621918e-04 
-9.374184943370e-04 1.944757919182e-04 0.0 
1.944757919182e-04 6.178932175003e-03 0.0 
0.0 0.0 -9.378562126457e-04 
-1.124743441142e-03 -2.044895248108e-04 0.0 
-2.044895248108e-04 7.578873023721e-03 0.0 
0.0 0.0 -1.125100902632e-03 
-1.057275381377e-03 1.952239226915e-04 0.0 
1.952239226915e-04 7.019062258927e-03 0.0 
0.0 0.0 -1.053755873404e-03 
-3.652721065736e-04 1.996025403975e-04 0.0 
1.996025403975e-04 2.192815232503e-03 0.0 
0.0 0.0 -3.685493992842e-04 
-1.164581229115e-03 2.188850811810e-04 0.0 
2.188850811810e-04 7.900774321480e-03 0.0 
0.0 0.0 -1.183514100502e-03 
-1.119628239997e-03 2.087348229959e-04 0.0 
2.087348229959e-04 7.433542979005e-03 0.0 
0.0 0.0 -1.117084069417e-03 
-8.143956589139e-04 2.341244742852e-04 0.0 
2.341244742852e-04 5.337741611520e-03 0.0 
0.0 0.0 -8.110481619253e-04 
-9.749777922597e-04 1.939288930454e-04 0.0 
1.939288930454e-04 6.440647276838e-03 0.0 
0.0 0.0 -9.753747863247e-04 
-9.652234430735e-04 1.970752514855e-04 0.0 
1.970752514855e-04 6.378006768513e-03 0.0 
0.0 0.0 -9.665592132828e-04 
-1.194888926874e-03 -2.112261199247e-04 0.0 
-2.112261199247e-04 8.020188826812e-03 0.0 
0.0 0.0 -1.185362187646e-03 
-1.151241251503e-03 1.853138580095e-04 0.0 
1.853138580095e-04 7.714994671460e-03 0.0 
0.0 0.0 -1.150972777267e-03 
-8.863019395197e-04 -1.951602003697e-04 0.0 
-1.951602003697e-04 5.913977900844e-03 0.0 
0.0 0.0 -8.866930489607e-04 
-1.183768845123e-03 -1.944166925086e-04 0.0 
-1.944166925086e-04 8.022430172969e-03 0.0 
0.0 0.0 -1.190872049285e-03 
-1.103203670140e-03 1.932633349998e-04 0.0 
1.932633349998e-04 7.339211362922e-03 0.0 
0.0 0.0 -1.103416240745e-03 
-1.053347130920e-03 -1.808067663282e-04 0.0 
-1.808067663282e-04 7.018991585010e-03 0.0 
0.0 0.0 -1.053748284807e-03 
-1.207301516059e-03 -2.189374092153e-04 0.0 
-2.189374092153e-04 8.148472988394e-03 0.0 
0.0 0.0 -1.210017230578e-03 
-1.183451424094e-03 -2.064186268461e-04 0.0 
-2.064186268461e-04 7.961006455012e-03 0.0 
0.0 0.0 -1.181737430652e-03 
-1.012410866899e-03 -2.064236493359e-04 0.0 
-2.064236493359e-04 6.767125967856e-03 0.0 
0.0 0.0 -1.011817915138e-03 
-9.978825943573e-04 -1.946964301517e-04 0.0 
-1.946964301517e-04 6.692413921007e-03 0.0 
0.0 0.0 -9.985655989919e-04 
-3.618458064176e-04 1.902703540338e-04 0.0 
1.902703540338e-04 2.182295586331e-03 0.0 
0.0 0.0 -3.644364776638e-04 
-3.396688960244e-04 1.922383374584e-04 0.0 
1.922383374584e-04 2.020949841441e-03 0.0 
0.0 0.0 -3.414758422231e-04 
-2.048022796594e-04 -2.337971245160e-04 0.0 
-2.337971245160e-04 1.038657557028e-03 0.0 
0.0 0.0 -1.876370064529e-04 
-1.053265806660e-04 1.589966792158e-06 0.0 
1.589966792158e-06 6.159987105294e-04 0.0 
0.0 0.0 -1.032036840373e-04 
-1.146654591444e-03 -2.036534213010e-04 0.0 
-2.036534213010e-04 7.733548266154e-03 0.0 
0.0 0.0 -1.150998037120e-03 
-1.153371435519e-03 1.929566661377e-04 0.0 
1.929566661377e-04 7.706474852566e-03 0.0 
0.0 0.0 -1.156839719840e-03 
-1.023100123297e-04 6.333767357887e-06 0.0 
6.333767357887e-06 5.922537874641e-04 0.0 
0.0 0.0 -1.029284987275e-04 
-1.152902847458e-03 -1.945944093031e-04 0.0 
-1.945944093031e-04 7.806589318492e-03 0.0 
0.0 0.0 -1.160298666437e-03 
-8.240593874314e-04 2.133386610705e-04 0.0 
2.133386610705e-04 5.515954645069e-03 0.0 
0.0 0.0 -8.436798659344e-04 
-1.063159338098e-03 -2.000353252039e-04 0.0 
-2.000353252039e-04 7.170931875512e-03 0.0 
0.0 0.0 -1.067477449466e-03 
-1.091085119062e-03 1.926591161235e-04 0.0 
1.926591161235e-04 7.245677048731e-03 0.0 
0.0 0.0 -1.090430023688e-03 
-5.083685843408e-04 1.854528112905e-04 0.0 
1.854528112905e-04 3.184990427277e-03 0.0 
0.0 0.0 -5.090628918580e-04 
-1.088419020765e-03 -1.985610050621e-04 0.0 
-1.985610050621e-04 7.308442647816e-03 0.0 
0.0 0.0 -1.087955833448e-03 
-8.052736907314e-04 -2.707602780884e-04 0.0 
-2.707602780884e-04 5.346563189152e-03 0.0 
0.0 0.0 -8.100176300978e-04 
-1.002877096566e-03 -1.976880564896e-04 0.0 
-1.976880564896e-04 6.706443384887e-03 0.0 
0.0 0.0 -1.000388816061e-03 
-1.231169607282e-03 2.234727540430e-04 0.0 
2.234727540430e-04 8.305282306820e-03 0.0 
0.0 0.0 -1.242964905849e-03 
-3.519355017218e-04 1.472413134465e-04 0.0 
1.472413134465e-04 2.089181619658e-03 0.0 
0.0 0.0 -3.542437553904e-04 
-1.221302329282e-03 -1.674357911947e-04 0.0 
-1.674357911947e-04 8.209373583472e-03 0.0 
0.0 0.0 -1.215045542354e-03 
-1.047850802636e-03 -1.881582153281e-04 0.0 
-1.881582153281e-04 7.026769425363e-03 0.0 
0.0 0.0 -1.048288725887e-03 
-3.889604497647e-04 2.037169653349e-04 0.0 
2.037169653349e-04 2.380154464468e-03 0.0 
0.0 0.0 -3.930611257745e-04 
-4.005955795872e-04 -1.795528067479e-04 0.0 
-1.795528067479e-04 2.551679544192e-03 0.0 
0.0 0.0 -4.034900192350e-04 
-7.895600060851e-04 1.993051337404e-04 0.0 
1.993051337404e-04 5.154958880860e-03 0.0 
0.0 0.0 -7.909606353592e-04 
-9.478370252283e-04 2.028022273916e-04 0.0 
2.028022273916e-04 6.213549732246e-03 0.0 
0.0 0.0 -9.409807611877e-04 
-5.389171118930e-04 1.931642811105e-04 0.0 
1.931642811105e-04 3.423254400861e-03 0.0 
0.0 0.0 -5.429771841545e-04 
-1.084906178257e-03 -2.011232363262e-04 0.0 
-2.011232363262e-04 7.274950011924e-03 0.0 
0.0 0.0 -1.085119818393e-03 
-9.758201311387e-04 -2.238948292921e-04 0.0 
-2.238948292921e-04 6.526325342415e-03 0.0 
0.0 0.0 -9.816794289629e-04 
-7.681741524081e-04 1.880175807826e-04 0.0 
1.880175807826e-04 5.011383542904e-03 0.0 
0.0 0.0 -7.700930343086e-04 
-1.026480683520e-03 -1.844900629417e-04 0.0 
-1.844900629417e-04 6.842321728991e-03 0.0 
0.0 0.0 -1.021757709120e-03 
-1.057960421125e-03 -1.998047593287e-04 0.0 
-1.998047593287e-04 7.113469784678e-03 0.0 
0.0 0.0 -1.058696934625e-03 
-1.057942238941e-03 2.175749808768e-04 0.0 
2.175749808768e-04 6.964480207197e-03 0.0 
0.0 0.0 -1.050681058959e-03 
-3.033747618520e-04 -1.838242939413e-04 0.0 
-1.838242939413e-04 1.857406959021e-03 0.0 
0.0 0.0 -3.058749225436e-04 
-7.305418871957e-04 1.869626526336e-04 0.0 
1.869626526336e-04 4.754815575901e-03 0.0 
0.0 0.0 -7.328582426338e-04 
-1.136183616218e-03 2.082876610418e-04 0.0 
2.082876610418e-04 7.610878515336e-03 0.0 
0.0 0.0 -1.141128458404e-03 
-1.078434925953e-03 -1.984149302182e-04 0.0 
-1.984149302182e-04 7.234990828440e-03 0.0 
0.0 0.0 -1.078198857115e-03 
-6.621852882438e-04 2.164713360985e-04 0.0 
2.164713360985e-04 4.271535496369e-03 0.0 
0.0 0.0 -6.666835465145e-04 
-9.149083998474e-04 -1.952760623192e-04 0.0 
-1.952760623192e-04 6.113676858772e-03 0.0 
0.0 0.0 -9.153036164073e-04 
-1.187688204395e-03 -2.025883410103e-04 0.0 
-2.025883410103e-04 8.016876824675e-03 0.0 
0.0 0.0 -1.187586327529e-03 
-1.005326890981e-03 1.902074749802e-04 0.0 
1.902074749802e-04 6.713852212323e-03 0.0 
0.0 0.0 -1.013969106439e-03 
-1.909283182059e-04 -2.134343415579e-04 0.0 
-2.134343415579e-04 9.857203047885e-04 0.0 
0.0 0.0 -1.806728872115e-04 
-1.970147197368e-04 -2.059863142165e-04 0.0 
-2.059863142165e-04 1.002592449070e-03 0.0 
0.0 0.0 -1.835536028976e-04 
-3.515992897123e-04 -1.811957352846e-04 0.0 
-1.811957352846e-04 2.155411981566e-03 0.0 
0.0 0.0 -3.467375663575e-04 
-1.128856114321e-03 2.001566636704e-04 0.0 
2.001566636704e-04 7.510015093798e-03 0.0 
0.0 0.0 -1.127837695838e-03 
-9.816567297486e-04 1.933811921609e-04 0.0 
1.933811921609e-04 6.465198559992e-03 0.0 
0.0 0.0 -9.775003154318e-04 
-8.371572204409e-04 -2.148163729894e-04 0.0 
-2.148163729894e-04 5.710338305934e-03 0.0 
0.0 0.0 -8.513051444990e-04 
-8.730704368828e-04 1.896261582467e-04 0.0 
1.896261582467e-04 5.754508324044e-03 0.0 
0.0 0.0 -8.745614812816e-04 
-1.137329719499e-03 -1.941463340313e-04 0.0 
-1.941463340313e-04 7.669003078820e-03 0.0 
0.0 0.0 -1.139196670502e-03 
-7.981531024245e-04 1.892565346163e-04 0.0 
1.892565346163e-04 5.212239015909e-03 0.0 
0.0 0.0 -7.988714448434e-04 
-1.058279653052e-03 1.954206945734e-04 0.0 
1.954206945734e-04 7.042085544045e-03 0.0 
0.0 0.0 -1.061632825506e-03 
-3.556360797851e-04 -1.825172875801e-04 0.0 
-1.825172875801e-04 2.253382462632e-03 0.0 
0.0 0.0 -3.615122310665e-04 
-1.213390557451e-03 2.397950825144e-04 0.0 
2.397950825144e-04 8.136808344214e-03 0.0 
0.0 0.0 -1.211531131004e-03 
-7.660046426258e-04 -1.986537595937e-04 0.0 
-1.986537595937e-04 5.080766734255e-03 0.0 
0.0 0.0 -7.673127347790e-04 
-3.927767409547e-04 -1.941008242108e-04 0.0 
-1.941008242108e-04 2.469153154105e-03 0.0 
0.0 0.0 -3.889166325194e-04 
-7.314298842455e-04 -2.140562000032e-04 0.0 
-2.140562000032e-04 4.812028074598e-03 0.0 
0.0 0.0 -7.311132045151e-04 
-5.669903072896e-04 1.859979766966e-04 0.0 
1.859979766966e-04 3.622850524897e-03 0.0 
0.0 0.0 -5.716673668464e-04 
-4.441913073698e-04 -1.946929488681e-04 0.0 
-1.946929488681e-04 2.835535865590e-03 0.0 
0.0 0.0 -4.452767020142e-04 
-8.541353571324e-04 1.878201727379e-04 0.0 
1.878201727379e-04 5.598851307335e-03 0.0 
0.0 0.0 -8.564950983273e-04 
0.0 0.0 0.0 
0.0 0.0 0.0 
0.0 0.0 0.0 
0.0 0.0 0.0 
0.0 0.0 0.0 
0.0 0.0 0.0 
-9.633926432213e-04 -1.929125650732e-04 0.0 
-1.929125650732e-04 6.449382072422e-03 0.0 
0.0 0.0 -9.636005660098e-04 
-3.261615758852e-04 -1.754968158783e-04 0.0 
-1.754968158783e-04 2.064243752771e-03 0.0 
0.0 0.0 -3.336449385292e-04 
-9.716625480636e-04 -1.974982736352e-04 0.0 
-1.974982736352e-04 6.511810819199e-03 0.0 
0.0 0.0 -9.724388998541e-04 
-9.434553557208e-04 -1.947776052692e-04 0.0 
-1.947776052692e-04 6.314151919472e-03 0.0 
0.0 0.0 -9.438473481109e-04 
-6.149570530548e-04 1.958377041270e-04 0.0 
1.958377041270e-04 3.946002749694e-03 0.0 
0.0 0.0 -6.177757646845e-04 
-4.134741271649e-04 1.981876295031e-04 0.0 
1.981876295031e-04 2.543324249367e-03 0.0 
0.0 0.0 -4.162223005415e-04 
-1.136715502842e-03 -2.038924191314e-04 0.0 
-2.038924191314e-04 7.650435027918e-03 0.0 
0.0 0.0 -1.137719822027e-03 
-2.155883669570e-04 -8.829356196837e-05 0.0 
-8.829356196837e-05 9.573383583193e-04 0.0 
0.0 0.0 -2.047534254615e-04 
-6.021718484836e-04 1.735627083644e-04 0.0 
1.735627083644e-04 3.837011647565e-03 0.0 
0.0 0.0 -6.004815939294e-04 
-1.172134314024e-03 -1.664552663930e-04 0.0 
-1.664552663930e-04 7.890382462293e-03 0.0 
0.0 0.0 -1.175533656463e-03 
-2.822824235296e-04 1.888682444412e-04 0.0 
1.888682444412e-04 1.684200929602e-03 0.0 
0.0 0.0 -2.977570873278e-04 
-9.136045934539e-04 -1.921452035066e-04 0.0 
-1.921452035066e-04 6.056651557430e-03 0.0 
0.0 0.0 -9.088859120638e-04 
-8.340119380580e-04 -2.228113772719e-04 0.0 
-2.228113772719e-04 5.573887948833e-03 0.0 
0.0 0.0 -8.416286270284e-04 
-2.829330432203e-04 -1.923976084130e-04 0.0 
-1.923976084130e-04 1.716244531209e-03 0.0 
0.0 0.0 -2.842394630762e-04 
-1.159926400282e-03 -1.793893042658e-04 0.0 
-1.793893042658e-04 7.808824689671e-03 0.0 
0.0 0.0 -1.158722036769e-03 
-1.035589941137e-03 -1.985988582849e-04 0.0 
-1.985988582849e-04 6.933992631060e-03 0.0 
0.0 0.0 -1.034898561726e-03 
-3.359494272763e-04 1.786409644777e-04 0.0 
1.786409644777e-04 1.989232140030e-03 0.0 
0.0 0.0 -3.364655670308e-04 
-1.165152170532e-03 -1.849586778466e-04 0.0 
-1.849586778466e-04 7.849581652679e-03 0.0 
0.0 0.0 -1.166520446339e-03 
-1.171818434168e-03 1.701070722775e-04 0.0 
1.701070722775e-04 7.787163600185e-03 0.0 
0.0 0.0 -1.169001632583e-03 
-3.670484435220e-04 -2.062025335132e-04 0.0 
-2.062025335132e-04 2.310354927649e-03 0.0 
0.0 0.0 -3.701904734684e-04 
-4.878019895888e-04 -2.129991852320e-04 0.0 
-2.129991852320e-04 3.076179585064e-03 0.0 
0.0 0.0 -4.801335248058e-04 
-3.784853096696e-04 -1.951915827816e-04 0.0 
-1.951915827816e-04 2.373996755404e-03 0.0 
0.0 0.0 -3.791106726259e-04 
-1.023434568927e-03 -1.955357832441e-04 0.0 
-1.955357832441e-04 6.907952393425e-03 0.0 
0.0 0.0 -1.029923508343e-03 
-8.283537341300e-04 1.907553074044e-04 0.0 
1.907553074044e-04 5.413544228672e-03 0.0 
0.0 0.0 -8.276368238623e-04 
-1.175065292852e-03 1.838008001023e-04 0.0 
1.838008001023e-04 7.798269859187e-03 0.0 
0.0 0.0 -1.169529464977e-03 
-1.141233486497e-03 1.909358973763e-04 0.0 
1.909358973763e-04 7.594915182305e-03 0.0 
0.0 0.0 -1.140030709108e-03 
-9.986353517479e-04 -1.968060563576e-04 0.0 
-1.968060563576e-04 6.710344376514e-03 0.0 
0.0 0.0 -1.001167767022e-03 
-1.002641746751e-03 1.939099816930e-04 0.0 
1.939099816930e-04 6.639482721891e-03 0.0 
0.0 0.0 -1.004093472296e-03 
-3.170641866385e-04 1.974483890405e-04 0.0 
1.974483890405e-04 1.842860083610e-03 0.0 
0.0 0.0 -3.158693332420e-04 
-1.029368673375e-03 1.947386699308e-04 0.0 
1.947386699308e-04 6.837075470330e-03 0.0 
0.0 0.0 -1.032853941699e-03 
-1.038324079738e-03 1.969104416427e-04 0.0 
1.969104416427e-04 6.879456010501e-03 0.0 
0.0 0.0 -1.037144748481e-03 
-8.220289990508e-04 -1.901456335334e-04 0.0 
-1.901456335334e-04 5.481743507948e-03 0.0 
0.0 0.0 -8.248712778174e-04 
-9.784412971014e-04 -1.995967018582e-04 0.0 
-1.995967018582e-04 6.519224964638e-03 0.0 
0.0 0.0 -9.752741834902e-04 
-1.071043316413e-03 -2.014206266275e-04 0.0 
-2.014206266275e-04 7.187990111684e-03 0.0 
0.0 0.0 -1.071415751597e-03 
-7.449992410114e-04 1.900175048328e-04 0.0 
1.900175048328e-04 4.830596508428e-03 0.0 
0.0 0.0 -7.435371925968e-04 
-1.112301323396e-03 1.953318319138e-04 0.0 
1.953318319138e-04 7.388703494557e-03 0.0 
0.0 0.0 -1.110258267496e-03 
-7.048168666414e-04 2.103542029495e-04 0.0 
2.103542029495e-04 4.551180166485e-03 0.0 
0.0 0.0 -6.965171720951e-04 
-7.978310569570e-04 -1.996626955199e-04 0.0 
-1.996626955199e-04 5.282133349968e-03 0.0 
0.0 0.0 -7.960639764766e-04 
-5.335116196934e-04 2.239231297756e-04 0.0 
2.239231297756e-04 3.386453430155e-03 0.0 
0.0 0.0 -5.342291996904e-04 
-5.553576446558e-04 -1.816268034186e-04 0.0 
-1.816268034186e-04 3.628347878161e-03 0.0 
0.0 0.0 -5.581583723280e-04 
-1.010310088917e-03 1.967228699852e-04 0.0 
1.967228699852e-04 6.672709965049e-03 0.0 
0.0 0.0 -1.007339817349e-03 
-7.628577911211e-04 -1.911605880285e-04 0.0 
-1.911605880285e-04 5.057166832743e-03 0.0 
0.0 0.0 -7.637833264599e-04 
-4.056535220845e-04 -1.994601543415e-04 0.0 
-1.994601543415e-04 2.573810220736e-03 0.0 
0.0 0.0 -4.077494273363e-04 
-2.235505229119e-04 -1.665382784812e-04 0.0 
-1.665382784812e-04 1.264629605483e-03 0.0 
0.0 0.0 -2.185673950299e-04 
-1.005369566171e-03 -1.969282844887e-04 0.0 
-1.969282844887e-04 6.726819346583e-03 0.0 
0.0 0.0 -1.005115000480e-03 
-4.096373717980e-04 1.964452207256e-04 0.0 
1.964452207256e-04 2.501615904785e-03 0.0 
0.0 0.0 -4.107160730352e-04 
-1.196795855234e-03 2.010644044309e-04 0.0 
2.010644044309e-04 8.139442919111e-03 0.0 
0.0 0.0 -1.218716866995e-03 
-1.042807145316e-03 1.952121137200e-04 0.0 
1.952121137200e-04 6.924647329534e-03 0.0 
0.0 0.0 -1.043883448597e-03 
-1.067869276877e-03 1.919364052357e-04 0.0 
1.919364052357e-04 7.100655193935e-03 0.0 
0.0 0.0 -1.070373463590e-03 
-1.283006779812e-03 -2.454005743877e-05 0.0 
-2.454005743877e-05 8.441304095904e-03 0.0 
0.0 0.0 -1.284729618418e-03 
-6.611541786482e-04 -2.165377279584e-04 0.0 
-2.165377279584e-04 4.358180230514e-03 0.0 
0.0 0.0 -6.637377122259e-04 
-3.719232158052e-04 1.946095876176e-04 0.0 
1.946095876176e-04 2.237835984063e-03 0.0 
0.0 0.0 -3.731618544808e-04 
-2.509805120976e-04 2.101438879213e-04 0.0 
2.101438879213e-04 1.370179870162e-03 0.0 
0.0 0.0 -2.496210768721e-04 
-1.009272610852e-03 -1.976905948495e-04 0.0 
-1.976905948495e-04 6.773236228030e-03 0.0 
0.0 0.0 -1.009908742814e-03 
-9.502891484141e-04 2.008015227702e-04 0.0 
2.008015227702e-04 6.263291661127e-03 0.0 
0.0 0.0 -9.473489374553e-04 
-1.787867007396e-04 1.721284507091e-04 0.0 
1.721284507091e-04 9.234900215078e-04 0.0 
0.0 0.0 -1.858848441742e-04 
-5.306487836806e-04 -1.980238622702e-04 0.0 
-1.980238622702e-04 3.494279541485e-03 0.0 
0.0 0.0 -5.400474096907e-04 
-3.064883048416e-04 -1.749693241531e-04 0.0 
-1.749693241531e-04 2.001263288358e-03 0.0 
0.0 0.0 -3.246070344129e-04 
-9.392936976825e-04 -1.862704497827e-04 0.0 
-1.862704497827e-04 6.266809515345e-03 0.0 
0.0 0.0 -9.387834224271e-04 
-5.480159981423e-04 -2.100359931436e-04 0.0 
-2.100359931436e-04 3.693369469425e-03 0.0 
0.0 0.0 -5.687878759048e-04 
-9.467150260524e-04 1.924065934846e-04 0.0 
1.924065934846e-04 6.242240235616e-03 0.0 
0.0 0.0 -9.467935652645e-04 
-5.428455294621e-04 -2.085125102257e-04 0.0 
-2.085125102257e-04 3.415670535466e-03 0.0 
0.0 0.0 -5.337555413937e-04 
-1.117346964304e-03 -2.071110090059e-04 0.0 
-2.071110090059e-04 7.492505049919e-03 0.0 
0.0 0.0 -1.114809527198e-03 
-4.745048492879e-04 1.992195964989e-04 0.0 
1.992195964989e-04 2.965213732964e-03 0.0 
0.0 0.0 -4.768663991247e-04 
-1.019084130149e-03 -1.971234603786e-04 0.0 
-1.971234603786e-04 6.834832976306e-03 0.0 
0.0 0.0 -1.018590841688e-03 
-3.372917149944e-04 -1.912349410904e-04 0.0 
-1.912349410904e-04 2.104646860584e-03 0.0 
0.0 0.0 -3.376433569222e-04 
-9.810862783946e-04 -1.972875806497e-04 0.0 
-1.972875806497e-04 6.573374097127e-03 0.0 
0.0 0.0 -9.812220007866e-04 
-7.630262787413e-04 -1.649240710626e-04 0.0 
-1.649240710626e-04 5.040550269951e-03 0.0 
0.0 0.0 -7.604224332210e-04 
-1.040603755793e-03 1.933348900592e-04 0.0 
1.933348900592e-04 6.902261502476e-03 0.0 
0.0 0.0 -1.041555045145e-03 
-5.360677599798e-04 1.876482889455e-04 0.0 
1.876482889455e-04 3.380336319222e-03 0.0 
0.0 0.0 -5.350282927002e-04 
-3.256683131977e-04 2.104859329235e-04 0.0 
2.104859329235e-04 1.909139084910e-03 0.0 
0.0 0.0 -3.277310168338e-04 
-8.709310065230e-04 -1.930857458815e-04 0.0 
-1.930857458815e-04 5.840506173078e-03 0.0 
0.0 0.0 -8.787268422831e-04 
-9.478935846187e-04 -1.922017527602e-04 0.0 
-1.922017527602e-04 6.329496652854e-03 0.0 
0.0 0.0 -9.464297096767e-04 
-6.788789609642e-04 1.916120147782e-04 0.0 
1.916120147782e-04 4.369175427210e-03 0.0 
0.0 0.0 -6.776081642141e-04 
-9.468425740779e-04 -2.085300673065e-04 0.0 
-2.085300673065e-04 6.298374618209e-03 0.0 
0.0 0.0 -9.453210152248e-04 
-3.756080425156e-04 -1.934039556713e-04 0.0 
-1.934039556713e-04 2.352414382127e-03 0.0 
0.0 0.0 -3.758914132629e-04 
-9.664473934007e-04 1.935643871515e-04 0.0 
1.935643871515e-04 6.379409966944e-03 0.0 
0.0 0.0 -9.642804585795e-04 
-3.026576237448e-04 -1.928297610964e-04 0.0 
-1.928297610964e-04 1.798935007683e-03 0.0 
0.0 0.0 -2.947674122297e-04 
-1.153179427147e-03 -2.051549704311e-04 0.0 
-2.051549704311e-04 7.761192827607e-03 0.0 
0.0 0.0 -1.150402778756e-03 
-9.838604339423e-04 -1.907200549992e-04 0.0 
-1.907200549992e-04 6.585836583388e-03 0.0 
0.0 0.0 -9.834711240942e-04 
-1.039448222436e-03 -1.939988089318e-04 0.0 
-1.939988089318e-04 6.961176011231e-03 0.0 
0.0 0.0 -1.037051012011e-03 
-1.209610339595e-03 -2.064055054885e-04 0.0 
-2.064055054885e-04 8.130245976668e-03 0.0 
0.0 0.0 -1.204463612412e-03 
-8.289278457568e-04 -1.937873946282e-04 0.0 
-1.937873946282e-04 5.514638524943e-03 0.0 
0.0 0.0 -8.294769417472e-04 
-3.109821114722e-04 1.906924358187e-04 0.0 
1.906924358187e-04 1.784796369805e-03 0.0 
0.0 0.0 -3.081489256106e-04 
-9.237752216618e-04 -1.945449657842e-04 0.0 
-1.945449657842e-04 6.173770782065e-03 0.0 
0.0 0.0 -9.239488535170e-04 
-1.191042257491e-03 2.067698926501e-04 0.0 
2.067698926501e-04 7.951909524646e-03 0.0 
0.0 0.0 -1.189963100592e-03 
-4.775062598439e-04 -1.845893080325e-04 0.0 
-1.845893080325e-04 3.071724244623e-03 0.0 
0.0 0.0 -4.786098583285e-04 
-1.036708665275e-03 -1.995575756552e-04 0.0 
-1.995575756552e-04 6.972509629402e-03 0.0 
0.0 0.0 -1.038675661098e-03 
-1.042240091366e-03 -2.028158867280e-04 0.0 
-2.028158867280e-04 6.979443732142e-03 0.0 
0.0 0.0 -1.041631482750e-03 
-3.838009065761e-04 1.994121048010e-04 0.0 
1.994121048010e-04 2.344808306372e-03 0.0 
0.0 0.0 -3.880698300753e-04 
-9.524861751472e-04 -1.961707644156e-04 0.0 
-1.961707644156e-04 6.373861031903e-03 0.0 
0.0 0.0 -9.525765839929e-04 
-8.586433483391e-04 -1.931078618343e-04 0.0 
-1.931078618343e-04 5.748348032680e-03 0.0 
0.0 0.0 -8.663127257150e-04 
-4.249902311886e-04 -1.873478746315e-04 0.0 
-1.873478746315e-04 2.710801804411e-03 0.0 
0.0 0.0 -4.280652785065e-04 
-5.063403877371e-04 -1.957595432947e-04 0.0 
-1.957595432947e-04 3.295220362808e-03 0.0 
0.0 0.0 -5.113914792957e-04 
-8.011417777980e-04 -1.869294440003e-04 0.0 
-1.869294440003e-04 5.307962758149e-03 0.0 
0.0 0.0 -8.004334922225e-04 
-1.012906793309e-03 1.927821333669e-04 0.0 
1.927821333669e-04 6.702583928550e-03 0.0 
0.0 0.0 -1.012809740122e-03 
-6.237702296699e-04 -1.788620839172e-04 0.0 
-1.788620839172e-04 4.053757856152e-03 0.0 
0.0 0.0 -6.201901524263e-04 
-7.654836975307e-04 -1.844361479045e-04 0.0 
-1.844361479045e-04 5.061981616524e-03 0.0 
0.0 0.0 -7.649884091348e-04 
-1.002132587578e-03 1.966152402384e-04 0.0 
1.966152402384e-04 6.628701174112e-03 0.0 
0.0 0.0 -1.000670320419e-03 
-9.160037735612e-04 2.105070801011e-04 0.0 
2.105070801011e-04 6.003693375901e-03 0.0 
0.0 0.0 -9.110000341593e-04 
-8.984996443820e-04 1.923871522477e-04 0.0 
1.923871522477e-04 5.918711205323e-03 0.0 
0.0 0.0 -8.984003255416e-04 
-7.635747983664e-04 1.700234808703e-04 0.0 
1.700234808703e-04 4.971193028469e-03 0.0 
0.0 0.0 -7.627602282935e-04 
-1.130358647028e-03 -1.898334947356e-04 0.0 
-1.898334947356e-04 7.609563538776e-03 0.0 
0.0 0.0 -1.130631056169e-03 
-8.949695730274e-04 -1.944201834166e-04 0.0 
-1.944201834166e-04 5.973169188704e-03 0.0 
0.0 0.0 -8.953295484280e-04 
-8.818948229552e-04 -1.808766535772e-04 0.0 
-1.808766535772e-04 5.810855732820e-03 0.0 
0.0 0.0 -8.720525204519e-04 
-1.180322083838e-03 -2.544019696132e-04 0.0 
-2.544019696132e-04 8.044684295215e-03 0.0 
0.0 0.0 -1.193584144721e-03 
-1.074317409630e-03 -2.028987224978e-04 0.0 
-2.028987224978e-04 7.209609754448e-03 0.0 
0.0 0.0 -1.073433710836e-03 
-9.845138767756e-04 1.933324893146e-04 0.0 
1.933324893146e-04 6.502529959442e-03 0.0 
0.0 0.0 -9.841343610905e-04 
-1.074220521467e-03 1.937044770007e-04 0.0 
1.937044770007e-04 7.133220182241e-03 0.0 
0.0 0.0 -1.073677668998e-03 
-5.827062234071e-04 -1.941542500794e-04 0.0 
-1.941542500794e-04 3.817750575136e-03 0.0 
0.0 0.0 -5.862626530914e-04 
-5.447661780291e-04 -1.955268079663e-04 0.0 
-1.955268079663e-04 3.556218869368e-03 0.0 
0.0 0.0 -5.488365039436e-04 
-3.200298242821e-04 -2.008010355195e-04 0.0 
-2.008010355195e-04 1.912733596730e-03 0.0 
0.0 0.0 -3.130684191733e-04 
-9.610361432964e-04 -1.937939784480e-04 0.0 
-1.937939784480e-04 6.432925566233e-03 0.0 
0.0 0.0 -9.612598090090e-04 
-5.730915420071e-04 -1.993284364061e-04 0.0 
-1.993284364061e-04 3.756322275087e-03 0.0 
0.0 0.0 -5.775003002374e-04 
-9.676234080517e-04 -1.978430549766e-04 0.0 
-1.978430549766e-04 6.470709836540e-03 0.0 
0.0 0.0 -9.686535345556e-04 
-9.307775843259e-04 -2.009567450900e-04 0.0 
-2.009567450900e-04 6.218061512745e-03 0.0 
0.0 0.0 -9.322463471790e-04 
-7.694630900907e-04 -1.939675917432e-04 0.0 
-1.939675917432e-04 5.091771385308e-03 0.0 
0.0 0.0 -7.690363516573e-04 
-4.826168522865e-04 1.966675666533e-04 0.0 
1.966675666533e-04 3.022691758794e-03 0.0 
0.0 0.0 -4.860199686152e-04 
-5.166152208989e-04 1.895375761803e-04 0.0 
1.895375761803e-04 3.232772262981e-03 0.0 
0.0 0.0 -5.148587792422e-04 
-5.108840173734e-04 1.960376866878e-04 0.0 
1.960376866878e-04 3.223531247209e-03 0.0 
0.0 0.0 -5.143448975765e-04 
-5.481816317278e-04 1.962623655857e-04 0.0 
1.962623655857e-04 3.484569495256e-03 0.0 
0.0 0.0 -5.517963299543e-04 
-3.453277696027e-04 1.969675537481e-04 0.0 
1.969675537481e-04 2.040898908983e-03 0.0 
0.0 0.0 -3.446931235564e-04 
-1.101052151537e-03 -1.995058256316e-04 0.0 
-1.995058256316e-04 7.411556171306e-03 0.0 
0.0 0.0 -1.101849228970e-03 
-6.632570071378e-04 1.923578636572e-04 0.0 
1.923578636572e-04 4.270077985980e-03 0.0 
0.0 0.0 -6.642957827475e-04 
-1.108318305334e-03 -2.031784349512e-04 0.0 
-2.031784349512e-04 7.443886566257e-03 0.0 
0.0 0.0 -1.107989045227e-03 
-7.011090036509e-04 1.927949869006e-04 0.0 
1.927949869006e-04 4.532588404756e-03 0.0 
0.0 0.0 -7.013039408444e-04 
-9.265731680826e-04 1.957284230982e-04 0.0 
1.957284230982e-04 6.103426765876e-03 0.0 
0.0 0.0 -9.268471029392e-04 
-7.946469523286e-04 1.955747403876e-04 0.0 
1.955747403876e-04 5.185524606882e-03 0.0 
0.0 0.0 -7.951651613512e-04 
-7.572756681298e-04 -1.872685007043e-04 0.0 
-1.872685007043e-04 5.004494979539e-03 0.0 
0.0 0.0 -7.567435594048e-04 
-3.404029927324e-04 -1.917944120495e-04 0.0 
-1.917944120495e-04 2.114741006724e-03 0.0 
0.0 0.0 -3.417109511102e-04 
-1.168366620594e-03 1.821653519024e-04 0.0 
1.821653519024e-04 7.733894625141e-03 0.0 
0.0 0.0 -1.161691925552e-03 
-1.208283455631e-03 -2.138622136652e-04 0.0 
-2.138622136652e-04 8.118515122607e-03 0.0 
0.0 0.0 -1.198716319349e-03 
-9.647894746907e-04 1.840623527821e-04 0.0 
1.840623527821e-04 6.374025584992e-03 0.0 
0.0 0.0 -9.650368815299e-04 
-5.866113351029e-04 1.997061311368e-04 0.0 
1.997061311368e-04 3.745701321029e-03 0.0 
0.0 0.0 -5.892385666867e-04 
-8.606873822814e-04 1.952603744915e-04 0.0 
1.952603744915e-04 5.644314043148e-03 0.0 
0.0 0.0 -8.609535187098e-04 
-9.731621015164e-04 2.042240848124e-04 0.0 
2.042240848124e-04 6.416634786867e-03 0.0 
0.0 0.0 -9.708520278613e-04 
-6.114505218062e-04 -1.970451499323e-04 0.0 
-1.970451499323e-04 4.016656707276e-03 0.0 
0.0 0.0 -6.148791393494e-04 
-6.402153518211e-04 -1.799304007788e-04 0.0 
-1.799304007788e-04 4.195134185683e-03 0.0 
0.0 0.0 -6.394234923164e-04 
-4.756790629450e-04 -1.970276149026e-04 0.0 
-1.970276149026e-04 3.037216567460e-03 0.0 
0.0 0.0 -4.739097840058e-04 
-4.115649622256e-04 -1.881038262712e-04 0.0 
-1.881038262712e-04 2.615008917890e-03 0.0 
0.0 0.0 -4.132304097957e-04 
-6.210949620284e-04 -1.921853512956e-04 0.0 
-1.921853512956e-04 4.079647892730e-03 0.0 
0.0 0.0 -6.236739531379e-04 
-4.389003653302e-04 1.899270358256e-04 0.0 
1.899270358256e-04 2.702990318359e-03 0.0 
0.0 0.0 -4.393534411964e-04 
-3.957050609939e-04 -2.005038904366e-04 0.0 
-2.005038904366e-04 2.512628569390e-03 0.0 
0.0 0.0 -3.988888273503e-04 
-7.912937221892e-04 -1.931036918808e-04 0.0 
-1.931036918808e-04 5.255690323409e-03 0.0 
0.0 0.0 -7.922809795675e-04 
-9.555190717992e-04 1.953941988256e-04 0.0 
1.953941988256e-04 6.303135181036e-03 0.0 
0.0 0.0 -9.554846610150e-04 
-1.131935364223e-03 1.749369794293e-04 0.0 
1.749369794293e-04 7.516475401832e-03 0.0 
0.0 0.0 -1.128610778606e-03 
-7.677587316374e-05 5.132629422675e-05 0.0 
5.132629422675e-05 2.950272314679e-04 0.0 
0.0 0.0 -4.808883996072e-05 
-6.821273879062e-04 1.885153294960e-04 0.0 
1.885153294960e-04 4.394625922574e-03 0.0 
0.0 0.0 -6.818868151028e-04 
-6.732798359077e-04 1.896419879915e-04 0.0 
1.896419879915e-04 4.334337175818e-03 0.0 
0.0 0.0 -6.732431144785e-04 
-6.253359345237e-04 1.966841986601e-04 0.0 
1.966841986601e-04 4.007688208335e-03 0.0 
0.0 0.0 -6.268095852860e-04 
-9.342352764228e-04 1.992757766658e-04 0.0 
1.992757766658e-04 6.164738867849e-03 0.0 
0.0 0.0 -9.344164207832e-04 
-7.286499736730e-04 1.960851222301e-04 0.0 
1.960851222301e-04 4.727094990714e-03 0.0 
0.0 0.0 -7.295442444478e-04 
-5.028967805497e-04 2.032690915997e-04 0.0 
2.032690915997e-04 3.169465929495e-03 0.0 
0.0 0.0 -5.055050897130e-04 
-6.594115462037e-04 -1.877379034349e-04 0.0 
-1.877379034349e-04 4.343026444268e-03 0.0 
0.0 0.0 -6.611654675676e-04 
-1.086852433707e-03 1.972393602690e-04 0.0 
1.972393602690e-04 7.180508805687e-03 0.0 
0.0 0.0 -1.080452943103e-03 
-5.134906191046e-04 -1.975407525199e-04 0.0 
-1.975407525199e-04 3.241783811479e-03 0.0 
0.0 0.0 -5.025663706543e-04 
-2.068765507079e-04 1.780811299395e-04 0.0 
1.780811299395e-04 1.103158600140e-03 0.0 
0.0 0.0 -2.132551421006e-04 
-2.821446593327e-04 1.850947824845e-04 0.0 
1.850947824845e-04 1.595379339776e-03 0.0 
0.0 0.0 -2.784575373548e-04 
-4.423162808512e-04 1.966617048386e-04 0.0 
1.966617048386e-04 2.737975260110e-03 0.0 
0.0 0.0 -4.444240490352e-04 
-5.210766744925e-04 1.945752899052e-04 0.0 
1.945752899052e-04 3.285513932228e-03 0.0 
0.0 0.0 -5.239304829885e-04 
-7.103179674584e-04 1.937608556774e-04 0.0 
1.937608556774e-04 4.594082704701e-03 0.0 
0.0 0.0 -7.099160536912e-04 
-6.974191009827e-04 -1.859522295004e-04 0.0 
-1.859522295004e-04 4.604175499566e-03 0.0 
0.0 0.0 -6.984076724203e-04 
-3.111089899344e-04 -2.166751455614e-04 0.0 
-2.166751455614e-04 1.884393958953e-03 0.0 
0.0 0.0 -3.092759564244e-04 
-2.948433446490e-04 -2.106961415148e-04 0.0 
-2.106961415148e-04 1.651650768654e-03 0.0 
0.0 0.0 -2.765202162382e-04 
-9.029473964606e-04 -2.318038937515e-04 0.0 
-2.318038937515e-04 5.899437226641e-03 0.0 
0.0 0.0 -8.885078876198e-04 
-4.353328022797e-04 -2.074729337185e-04 0.0 
-2.074729337185e-04 2.774644133328e-03 0.0 
0.0 0.0 -4.363975895258e-04 
-1.066115861838e-03 1.923323182630e-04 0.0 
1.923323182630e-04 7.082058213666e-03 0.0 
0.0 0.0 -1.067401112627e-03 
-1.093430528172e-03 1.859529625014e-04 0.0 
1.859529625014e-04 7.265648937776e-03 0.0 
0.0 0.0 -1.093380752811e-03 
-9.055761456836e-04 -1.909848796465e-04 0.0 
-1.909848796465e-04 6.010442057108e-03 0.0 
0.0 0.0 -9.013836717722e-04 
-1.127393681638e-03 1.896887369254e-04 0.0 
1.896887369254e-04 7.503433377312e-03 0.0 
0.0 0.0 -1.126084317643e-03 
-1.155463123535e-03 1.744033292086e-04 0.0 
1.744033292086e-04 7.751673747269e-03 0.0 
0.0 0.0 -1.164310864388e-03 
-7.420687839785e-04 -1.936328330324e-04 0.0 
-1.936328330324e-04 4.896453187980e-03 0.0 
0.0 0.0 -7.408850503417e-04 
-1.028946225618e-03 1.859237494966e-04 0.0 
1.859237494966e-04 6.817745899264e-03 0.0 
0.0 0.0 -1.029042339204e-03 
-3.444765648254e-04 -1.889029113480e-04 0.0 
-1.889029113480e-04 2.157321474185e-03 0.0 
0.0 0.0 -3.474733517438e-04 
-6.874756161390e-04 -1.926159426764e-04 0.0 
-1.926159426764e-04 4.537720382930e-03 0.0 
0.0 0.0 -6.894573431515e-04 
-6.898061862194e-04 1.857511077275e-04 0.0 
1.857511077275e-04 4.440388507088e-03 0.0 
0.0 0.0 -6.879681371099e-04 
-4.019279772504e-04 1.778728342644e-04 0.0 
1.778728342644e-04 2.433102799940e-03 0.0 
0.0 0.0 -3.974404770784e-04 
-2.808996377464e-04 -1.954566177411e-04 0.0 
-1.954566177411e-04 1.711546538442e-03 0.0 
0.0 0.0 -2.813757158202e-04 
-5.769851111882e-04 1.945968129496e-04 0.0 
1.945968129496e-04 3.685550638925e-03 0.0 
0.0 0.0 -5.804062017457e-04 
-6.698465200997e-04 -1.848151346019e-04 0.0 
-1.848151346019e-04 4.407215399786e-03 0.0 
0.0 0.0 -6.703429011759e-04 
-7.069533997817e-04 -1.864555130785e-04 0.0 
-1.864555130785e-04 4.664424843705e-03 0.0 
0.0 0.0 -7.070647534220e-04 
-4.705619805672e-04 1.797584254587e-04 0.0 
1.797584254587e-04 2.905608131468e-03 0.0 
0.0 0.0 -4.680152132766e-04 
-7.664680765081e-04 1.944574444010e-04 0.0 
1.944574444010e-04 4.988010799345e-03 0.0 
0.0 0.0 -7.666177146937e-04 
-6.793079833930e-04 -1.842955306638e-04 0.0 
-1.842955306638e-04 4.467105658874e-03 0.0 
0.0 0.0 -6.790125122095e-04 
-7.192535587873e-04 1.886174479633e-04 0.0 
1.886174479633e-04 4.651675493154e-03 0.0 
0.0 0.0 -7.183521444552e-04 
-5.167516635029e-04 -1.889877885738e-04 0.0 
-1.889877885738e-04 3.361424050145e-03 0.0 
0.0 0.0 -5.205443542100e-04 
-9.916854113120e-04 -1.973034417571e-04 0.0 
-1.973034417571e-04 6.645632539252e-03 0.0 
0.0 0.0 -9.921115096417e-04 
-1.000725886826e-03 -2.001881518317e-04 0.0 
-2.001881518317e-04 6.682457666445e-03 0.0 
0.0 0.0 -9.984673180476e-04 
-6.910740697018e-04 1.869291771832e-04 0.0 
1.869291771832e-04 4.454330638785e-03 0.0 
0.0 0.0 -6.904379518788e-04 
-1.131075422052e-03 1.930354118908e-04 0.0 
1.930354118908e-04 7.540452433703e-03 0.0 
0.0 0.0 -1.133495712197e-03 
-3.818178823842e-04 -1.881304660734e-04 0.0 
-1.881304660734e-04 2.417279904182e-03 0.0 
0.0 0.0 -3.849690761666e-04 
-1.204919198583e-03 2.055908933390e-04 0.0 
2.055908933390e-04 8.107807864514e-03 0.0 
0.0 0.0 -1.208505026952e-03 
-7.381856154466e-04 1.951283212295e-04 0.0 
1.951283212295e-04 4.788651758778e-03 0.0 
0.0 0.0 -7.381355003807e-04 
-1.179893914325e-03 2.326195910896e-04 0.0 
2.326195910896e-04 8.057192319457e-03 0.0 
0.0 0.0 -1.203459118631e-03 
-9.174882615910e-04 -1.900236548234e-04 0.0 
-1.900236548234e-04 6.103327033778e-03 0.0 
0.0 0.0 -9.144069900286e-04 
-3.759838339719e-04 1.980975432100e-04 0.0 
1.980975432100e-04 2.280850535288e-03 0.0 
0.0 0.0 -3.788569260404e-04 
-9.329446838714e-04 -1.934956866743e-04 0.0 
-1.934956866743e-04 6.203824333692e-03 0.0 
0.0 0.0 -9.292863832265e-04 
-1.148316362968e-03 1.911406139228e-04 0.0 
1.911406139228e-04 7.656686617329e-03 0.0 
0.0 0.0 -1.148369591821e-03 
-7.751955477395e-04 1.935539670278e-04 0.0 
1.935539670278e-04 5.048248374235e-03 0.0 
0.0 0.0 -7.747733155264e-04 
-5.636121724150e-04 -1.856060269500e-04 0.0 
-1.856060269500e-04 3.652721039859e-03 0.0 
0.0 0.0 -5.621395992319e-04 
-9.592421645063e-04 -1.953589560094e-04 0.0 
-1.953589560094e-04 6.397497054977e-03 0.0 
0.0 0.0 -9.572423940436e-04 
-7.410203931500e-04 1.888947749690e-04 0.0 
1.888947749690e-04 4.805195564350e-03 0.0 
0.0 0.0 -7.402445244775e-04 
-3.049241937385e-04 2.026327067246e-04 0.0 
2.026327067246e-04 1.807680481835e-03 0.0 
0.0 0.0 -3.123079531677e-04 
-1.247303547099e-03 2.054291781832e-04 0.0 
2.054291781832e-04 8.428743189038e-03 0.0 
0.0 0.0 -1.259077240559e-03 
-2.832321787005e-04 2.033440710739e-04 0.0 
2.033440710739e-04 1.568411261078e-03 0.0 
0.0 0.0 -2.747754844540e-04 
-1.180725818141e-03 -1.959284539653e-04 0.0 
-1.959284539653e-04 8.086063063664e-03 0.0 
0.0 0.0 -1.194426649262e-03 
-1.181044415914e-03 1.885702677114e-04 0.0 
1.885702677114e-04 7.848025462359e-03 0.0 
0.0 0.0 -1.175981821618e-03 
-1.019774229423e-03 -1.968009652079e-04 0.0 
-1.968009652079e-04 6.844195853493e-03 0.0 
0.0 0.0 -1.020516803968e-03 
-9.063963003822e-04 2.216702355021e-04 0.0 
2.216702355021e-04 5.948302852210e-03 0.0 
0.0 0.0 -9.041796124737e-04 
-1.096159842107e-03 -2.041353887512e-04 0.0 
-2.041353887512e-04 7.354511593932e-03 0.0 
0.0 0.0 -1.094228678348e-03 
-7.158215028595e-04 -1.849822212151e-04 0.0 
-1.849822212151e-04 4.721957550486e-03 0.0 
0.0 0.0 -7.154996274706e-04 
-8.342688439829e-04 -1.960354733344e-04 0.0 
-1.960354733344e-04 5.542507863884e-03 0.0 
0.0 0.0 -8.337527902170e-04 
-1.179248762261e-03 1.915113563363e-04 0.0 
1.915113563363e-04 7.953436829066e-03 0.0 
0.0 0.0 -1.191782302182e-03 
-1.022355738208e-03 1.947903411638e-04 0.0 
1.947903411638e-04 6.764095762216e-03 0.0 
0.0 0.0 -1.021464098896e-03 
-1.029803380413e-03 -1.995345647328e-04 0.0 
-1.995345647328e-04 6.892395198165e-03 0.0 
0.0 0.0 -1.028225029406e-03 
-9.800703698298e-04 2.033610077795e-04 0.0 
2.033610077795e-04 6.469215121367e-03 0.0 
0.0 0.0 -9.780777104595e-04 
-3.460311380533e-04 1.949105016325e-04 0.0 
1.949105016325e-04 2.083431817991e-03 0.0 
0.0 0.0 -3.505936111242e-04 
-1.056998258985e-03 -2.024071474235e-04 0.0 
-2.024071474235e-04 7.098571223248e-03 0.0 
0.0 0.0 -1.057861461704e-03 
-1.245215734681e-03 -2.948889405547e-06 0.0 
-2.948889405547e-06 8.708064260567e-03 0.0 
0.0 0.0 -1.268085107495e-03 
-1.199968332554e-03 2.184447548860e-04 0.0 
2.184447548860e-04 8.021680446852e-03 0.0 
0.0 0.0 -1.202195648613e-03 
-6.908555778158e-04 1.952647486752e-04 0.0 
1.952647486752e-04 4.467406980685e-03 0.0 
0.0 0.0 -6.923681691211e-04 
-8.989504497264e-04 -2.030487714899e-04 0.0 
-2.030487714899e-04 5.998411166372e-03 0.0 
0.0 0.0 -9.020111041354e-04 
-8.706850616849e-04 2.163039302349e-04 0.0 
2.163039302349e-04 5.704755713039e-03 0.0 
0.0 0.0 -8.677534307045e-04 
-7.350398663415e-04 -1.921852650881e-04 0.0 
-1.921852650881e-04 4.858429528850e-03 0.0 
0.0 0.0 -7.352749011056e-04 
-9.925381973485e-04 1.968648573770e-04 0.0 
1.968648573770e-04 6.563559215451e-03 0.0 
0.0 0.0 -9.927925938930e-04 
-1.029028532084e-03 1.960911717032e-04 0.0 
1.960911717032e-04 6.822296250893e-03 0.0 
0.0 0.0 -1.030113165296e-03 
-2.401332151859e-04 -2.098625103455e-04 0.0 
-2.098625103455e-04 1.444865681486e-03 0.0 
0.0 0.0 -2.466400652194e-04 
-4.534206567438e-04 1.915983849915e-04 0.0 
1.915983849915e-04 2.786638049384e-03 0.0 
0.0 0.0 -4.508272210452e-04 
-7.276651503282e-04 1.887396446790e-04 0.0 
1.887396446790e-04 4.711996878728e-03 0.0 
0.0 0.0 -7.269793770173e-04 
-6.885109501689e-04 -1.881460235649e-04 0.0 
-1.881460235649e-04 4.526125077483e-03 0.0 
0.0 0.0 -6.875569550717e-04 
-7.327380615621e-04 1.893031023786e-04 0.0 
1.893031023786e-04 4.746976141071e-03 0.0 
0.0 0.0 -7.320784846625e-04 
-1.207414471784e-03 -1.921627464004e-04 0.0 
-1.921627464004e-04 8.251115158096e-03 0.0 
0.0 0.0 -1.225426844749e-03 
-1.165911235799e-03 1.728266951446e-04 0.0 
1.728266951446e-04 7.751919212480e-03 0.0 
0.0 0.0 -1.162686153705e-03 
-1.174125183305e-03 -1.966474411142e-04 0.0 
-1.966474411142e-04 7.895985343999e-03 0.0 
0.0 0.0 -1.173632101657e-03 
-6.588438363322e-04 -1.812037125043e-04 0.0 
-1.812037125043e-04 4.301364332342e-03 0.0 
0.0 0.0 -6.556197767577e-04 
-1.082747471146e-03 1.891035132956e-04 0.0 
1.891035132956e-04 7.201407994731e-03 0.0 
0.0 0.0 -1.082713561900e-03 
-9.901836726999e-04 -1.945402384493e-04 0.0 
-1.945402384493e-04 6.633588115461e-03 0.0 
0.0 0.0 -9.899156953211e-04 
-1.203900706285e-03 2.001643692101e-04 0.0 
2.001643692101e-04 8.020307122063e-03 0.0 
0.0 0.0 -1.198415070424e-03 
-1.018917370980e-03 -2.029360126540e-04 0.0 
-2.029360126540e-04 6.841232066874e-03 0.0 
0.0 0.0 -1.021631336281e-03 
-7.252862927281e-04 -1.917571483022e-04 0.0 
-1.917571483022e-04 4.797885526737e-03 0.0 
0.0 0.0 -7.266350563285e-04 
-6.996186826149e-04 1.874149340260e-04 0.0 
1.874149340260e-04 4.515630015583e-03 0.0 
0.0 0.0 -6.989458521267e-04 
-1.062701287971e-03 1.919893444833e-04 0.0 
1.919893444833e-04 7.044103527011e-03 0.0 
0.0 0.0 -1.060111126929e-03 
-1.159236038185e-03 -2.100410646672e-04 0.0 
-2.100410646672e-04 7.815649065545e-03 0.0 
0.0 0.0 -1.160283895044e-03 
-1.068044840095e-03 1.975027097548e-04 0.0 
1.975027097548e-04 7.089380260529e-03 0.0 
0.0 0.0 -1.066842251349e-03 
-1.033322736071e-03 1.952546159751e-04 0.0 
1.952546159751e-04 6.838585495745e-03 0.0 
0.0 0.0 -1.030428295937e-03 
-1.127957771235e-03 2.034159333983e-04 0.0 
2.034159333983e-04 7.486625778373e-03 0.0 
0.0 0.0 -1.124756152480e-03 
-1.155677614868e-03 -1.983866149799e-04 0.0 
-1.983866149799e-04 7.868967508162e-03 0.0 
0.0 0.0 -1.167530213646e-03 
-1.094507555949e-03 1.976519323401e-04 0.0 
1.976519323401e-04 7.281086392671e-03 0.0 
0.0 0.0 -1.096139997395e-03 
-8.893531318376e-04 1.947803294654e-04 0.0 
1.947803294654e-04 5.843023406601e-03 0.0 
0.0 0.0 -8.895595506239e-04 
-6.419372915529e-04 1.659854799663e-04 0.0 
1.659854799663e-04 4.112940198776e-03 0.0 
0.0 0.0 -6.419897747600e-04 
-1.057958817333e-03 -1.915382936823e-04 0.0 
-1.915382936823e-04 7.093836536897e-03 0.0 
0.0 0.0 -1.057160997780e-03 
-1.010397126926e-03 1.924777478121e-04 0.0 
1.924777478121e-04 6.699973834187e-03 0.0 
0.0 0.0 -1.010795753303e-03 
-4.010552004861e-04 1.841654314205e-04 0.0 
1.841654314205e-04 2.442507368575e-03 0.0 
0.0 0.0 -4.018221946533e-04 
-7.246063133898e-04 -1.880612964647e-04 0.0 
-1.880612964647e-04 4.782342909510e-03 0.0 
0.0 0.0 -7.241222962603e-04 
-8.198364604857e-04 1.863931235936e-04 0.0 
1.863931235936e-04 5.353653336719e-03 0.0 
0.0 0.0 -8.193994707270e-04 
-8.991995514688e-04 -1.967035222148e-04 0.0 
-1.967035222148e-04 5.995025760983e-03 0.0 
0.0 0.0 -8.986564694586e-04 
-4.050243053020e-04 1.994613475966e-04 0.0 
1.994613475966e-04 2.469637685563e-03 0.0 
0.0 0.0 -4.057256964758e-04 
-6.967689891126e-04 -1.888281546421e-04 0.0 
-1.888281546421e-04 4.585730407348e-03 0.0 
0.0 0.0 -6.962026719631e-04 
-9.643194553962e-04 -1.980704148002e-04 0.0 
-1.980704148002e-04 6.448875351116e-03 0.0 
0.0 0.0 -9.636952012155e-04 
-7.333735645701e-04 1.825225121088e-04 0.0 
1.825225121088e-04 4.734280668460e-03 0.0 
0.0 0.0 -7.294090860402e-04 
-7.570403720068e-04 1.947967854262e-04 0.0 
1.947967854262e-04 4.925685443404e-03 0.0 
0.0 0.0 -7.579899565570e-04 
-9.487659951765e-04 -2.043170517301e-04 0.0 
-2.043170517301e-04 6.373556266418e-03 0.0 
0.0 0.0 -9.556638187253e-04 
-7.610430462996e-04 1.745184878599e-04 0.0 
1.745184878599e-04 5.044670069107e-03 0.0 
0.0 0.0 -7.638029664831e-04 
-1.838096952562e-04 2.082695791091e-04 0.0 
2.082695791091e-04 7.724611367138e-04 0.0 
0.0 0.0 -1.578647551136e-04 
-8.576241388509e-04 -1.943288446579e-04 0.0 
-1.943288446579e-04 5.714280224429e-03 0.0 
0.0 0.0 -8.580817703278e-04 
-1.051194806149e-03 1.905396044606e-04 0.0 
1.905396044606e-04 6.972468322912e-03 0.0 
0.0 0.0 -1.051835763028e-03 
-1.194223105728e-03 2.022847639454e-04 0.0 
2.022847639454e-04 8.008401190618e-03 0.0 
0.0 0.0 -1.196871286280e-03 
-8.007996408172e-04 1.886044981360e-04 0.0 
1.886044981360e-04 5.220729595959e-03 0.0 
0.0 0.0 -7.999758813884e-04 
-8.231738978703e-04 1.954670675703e-04 0.0 
1.954670675703e-04 5.384433434041e-03 0.0 
0.0 0.0 -8.237210115815e-04 
-9.659298580920e-04 -1.974560001278e-04 0.0 
-1.974560001278e-04 6.432078237772e-03 0.0 
0.0 0.0 -9.620958722924e-04 
-2.561485936918e-04 2.198683939719e-04 0.0 
2.198683939719e-04 1.251380499118e-03 0.0 
0.0 0.0 -2.247161217206e-04 
-1.023132414130e-03 1.887327440293e-04 0.0 
1.887327440293e-04 6.775332410064e-03 0.0 
0.0 0.0 -1.023361637732e-03 
-8.622181034216e-04 -1.951138773542e-04 0.0 
-1.951138773542e-04 5.740266887697e-03 0.0 
0.0 0.0 -8.619475031456e-04 
-7.647880329061e-04 -1.862411199868e-04 0.0 
-1.862411199868e-04 5.038541863179e-03 0.0 
0.0 0.0 -7.615729788896e-04 
-1.027082371763e-03 -1.922014268245e-04 0.0 
-1.922014268245e-04 6.892038875610e-03 0.0 
0.0 0.0 -1.027225276160e-03 
-3.935518598362e-04 -1.714817472149e-04 0.0 
-1.714817472149e-04 2.494688902106e-03 0.0 
0.0 0.0 -3.946419382404e-04 
-1.063411595146e-03 -1.940895073896e-04 0.0 
-1.940895073896e-04 7.151260433919e-03 0.0 
0.0 0.0 -1.064556537081e-03 
-1.170769687049e-03 1.998990496914e-04 0.0 
1.998990496914e-04 7.807167189230e-03 0.0 
0.0 0.0 -1.170878753521e-03 
-9.957874322238e-04 1.860819940759e-04 0.0 
1.860819940759e-04 6.577964668805e-03 0.0 
0.0 0.0 -9.948919501216e-04 
-1.066802879167e-03 -1.994715727017e-04 0.0 
-1.994715727017e-04 7.144842154603e-03 0.0 
0.0 0.0 -1.064574987933e-03 
-1.080893362265e-03 -2.009448288779e-04 0.0 
-2.009448288779e-04 7.278345089593e-03 0.0 
0.0 0.0 -1.082686220397e-03 
-1.164339334361e-03 -2.029535809835e-04 0.0 
-2.029535809835e-04 7.872490943299e-03 0.0 
0.0 0.0 -1.168035910845e-03 
-3.299141803929e-04 2.316983388685e-04 0.0 
2.316983388685e-04 1.731538717207e-03 0.0 
0.0 0.0 -2.917408095836e-04 
-9.904023149971e-04 -1.959122471391e-04 0.0 
-1.959122471391e-04 6.637118298013e-03 0.0 
0.0 0.0 -9.919185416031e-04 
-1.168730602385e-03 -1.909886301281e-04 0.0 
-1.909886301281e-04 7.900162167174e-03 0.0 
0.0 0.0 -1.173906618061e-03 
-1.099721820410e-03 1.948899321208e-04 0.0 
1.948899321208e-04 7.299287446510e-03 0.0 
0.0 0.0 -1.096489272820e-03 
-9.304220125415e-04 1.873101926856e-04 0.0 
1.873101926856e-04 6.124362452359e-03 0.0 
0.0 0.0 -9.297700869391e-04 
-7.330744366569e-04 -1.923064886364e-04 0.0 
-1.923064886364e-04 4.838398720579e-03 0.0 
0.0 0.0 -7.325247082200e-04 
-8.060696050279e-04 1.870863771178e-04 0.0 
1.870863771178e-04 5.268149186535e-03 0.0 
0.0 0.0 -8.069452076110e-04 
-2.418248245405e-04 2.109020271233e-04 0.0 
2.109020271233e-04 1.359709000534e-03 0.0 
0.0 0.0 -2.482170483719e-04 
-1.134273257583e-03 1.988705509170e-04 0.0 
1.988705509170e-04 7.550007886780e-03 0.0 
0.0 0.0 -1.132911322290e-03 
-4.274524748729e-04 1.964334948294e-04 0.0 
1.964334948294e-04 2.645397720372e-03 0.0 
0.0 0.0 -4.309687334850e-04 
-3.881418594362e-04 1.833155679551e-04 0.0 
1.833155679551e-04 2.160044348329e-03 0.0 
0.0 0.0 -3.582286249851e-04 
-1.052002855886e-03 -1.883464211934e-04 0.0 
-1.883464211934e-04 7.074906707182e-03 0.0 
0.0 0.0 -1.054483161448e-03 
-1.207081545900e-03 1.915242773209e-04 0.0 
1.915242773209e-04 8.072287243083e-03 0.0 
0.0 0.0 -1.206783194404e-03 
-3.547804392101e-04 -1.807868565668e-04 0.0 
-1.807868565668e-04 2.226917608772e-03 0.0 
0.0 0.0 -3.573182248098e-04 
-8.366419951608e-04 -1.885488255625e-04 0.0 
-1.885488255625e-04 5.554595282055e-03 0.0 
0.0 0.0 -8.358581584049e-04 
-1.023802301552e-03 1.940941463559e-04 0.0 
1.940941463559e-04 6.787907294573e-03 0.0 
0.0 0.0 -1.023814440555e-03 
-7.829083596588e-04 -1.954293300844e-04 0.0 
-1.954293300844e-04 5.194152372337e-03 0.0 
0.0 0.0 -7.840072721007e-04 
-4.010673323253e-04 -1.915498976051e-04 0.0 
-1.915498976051e-04 2.542328077149e-03 0.0 
0.0 0.0 -4.027365510179e-04 
-5.321744599270e-04 1.883621527590e-04 0.0 
1.883621527590e-04 3.333505553591e-03 0.0 
0.0 0.0 -5.292697486782e-04 
-2.639771075776e-04 1.646102614642e-04 0.0 
1.646102614642e-04 1.613590548762e-03 0.0 
0.0 0.0 -2.862163191752e-04 
-3.553659692625e-04 1.943928252887e-04 0.0 
1.943928252887e-04 2.154693693141e-03 0.0 
0.0 0.0 -3.608158092454e-04 
-3.249476260035e-04 1.935471720910e-04 0.0 
1.935471720910e-04 1.899890607766e-03 0.0 
0.0 0.0 -3.238926756799e-04 
-8.653379371192e-04 1.875602502825e-04 0.0 
1.875602502825e-04 5.671952828596e-03 0.0 
0.0 0.0 -8.647910268431e-04 
-1.297827382279e-03 4.785112367274e-06 0.0 
4.785112367274e-06 9.109555355960e-03 0.0 
0.0 0.0 -1.324146187826e-03 
-4.467143920627e-04 1.726574000164e-04 0.0 
1.726574000164e-04 2.617142877359e-03 0.0 
0.0 0.0 -4.244337567297e-04 
-1.156016819955e-03 1.914756519666e-04 0.0 
1.914756519666e-04 7.686772050836e-03 0.0 
0.0 0.0 -1.153422328581e-03 
-6.441918423609e-04 1.888512827499e-04 0.0 
1.888512827499e-04 4.126863023303e-03 0.0 
0.0 0.0 -6.430507458085e-04 
-9.827241532880e-04 -2.074075714334e-04 0.0 
-2.074075714334e-04 6.589898560790e-03 0.0 
0.0 0.0 -9.856407671940e-04 
-3.167090590366e-04 1.983492302007e-04 0.0 
1.983492302007e-04 1.826080605665e-03 0.0 
0.0 0.0 -3.129386394028e-04 
-1.211080746195e-03 -1.918872231890e-04 0.0 
-1.918872231890e-04 8.120902711811e-03 0.0 
0.0 0.0 -1.206759618350e-03 
-3.103668027408e-04 -1.740204278261e-04 0.0 
-1.740204278261e-04 1.967988296131e-03 0.0 
0.0 0.0 -3.202688159031e-04 
-4.904887743195e-04 1.972396724306e-04 0.0 
1.972396724306e-04 3.115116694861e-03 0.0 
0.0 0.0 -4.995972236199e-04 
-1.033982221523e-03 1.864504257492e-04 0.0 
1.864504257492e-04 6.836114975340e-03 0.0 
0.0 0.0 -1.031547093314e-03 
-7.437947252400e-04 -1.892750744378e-04 0.0 
-1.892750744378e-04 4.914077369227e-03 0.0 
0.0 0.0 -7.436172176343e-04 
-1.132860593058e-03 -1.933960126786e-04 0.0 
-1.933960126786e-04 7.665930668868e-03 0.0 
0.0 0.0 -1.139062866688e-03 
-5.749455652610e-04 -1.941924528230e-04 0.0 
-1.941924528230e-04 3.751246786669e-03 0.0 
0.0 0.0 -5.762899171568e-04 
-1.046111348023e-03 -1.920749274325e-04 0.0 
-1.920749274325e-04 7.006833931181e-03 0.0 
0.0 0.0 -1.044446328659e-03 
-1.179461128015e-03 1.956649310083e-04 0.0 
1.956649310083e-04 7.993560630903e-03 0.0 
0.0 0.0 -1.198892520503e-03 
-9.969097330870e-04 1.983464851524e-04 0.0 
1.983464851524e-04 6.585106213615e-03 0.0 
0.0 0.0 -9.940794652285e-04 
-1.204741342101e-03 -1.841288982354e-04 0.0 
-1.841288982354e-04 8.066681748081e-03 0.0 
0.0 0.0 -1.194784139986e-03 
-1.085983696521e-03 -2.024519851537e-04 0.0 
-2.024519851537e-04 7.301290877674e-03 0.0 
0.0 0.0 -1.087318097122e-03 
-1.116801267184e-03 -2.016255265415e-04 0.0 
-2.016255265415e-04 7.509256724676e-03 0.0 
0.0 0.0 -1.116677092124e-03 
-3.616370043148e-04 1.787208051054e-04 0.0 
1.787208051054e-04 2.150891016686e-03 0.0 
0.0 0.0 -3.599422446610e-04 
-1.117518330453e-03 1.826877579253e-04 0.0 
1.826877579253e-04 7.419146366892e-03 0.0 
0.0 0.0 -1.115908039155e-03 
-1.052373239860e-03 1.884691524878e-04 0.0 
1.884691524878e-04 6.996291933739e-03 0.0 
0.0 0.0 -1.053364550114e-03 
-7.811189844041e-04 1.901992250615e-04 0.0 
1.901992250615e-04 5.082233377235e-03 0.0 
0.0 0.0 -7.792489223127e-04 
-5.208782508076e-04 1.844281060277e-04 0.0 
1.844281060277e-04 3.081353701983e-03 0.0 
0.0 0.0 -4.908673385051e-04 
-1.207263385308e-03 -1.938793257757e-04 0.0 
-1.938793257757e-04 8.301996435605e-03 0.0 
0.0 0.0 -1.232292820449e-03 
-4.172393042970e-04 1.982283144972e-04 0.0 
1.982283144972e-04 2.530985310794e-03 0.0 
0.0 0.0 -4.142712813041e-04 
-4.585162122278e-04 -2.188978008166e-04 0.0 
-2.188978008166e-04 2.969334744373e-03 0.0 
0.0 0.0 -4.655197245388e-04 
-1.104373486365e-03 2.012226859916e-04 0.0 
2.012226859916e-04 7.350396136819e-03 0.0 
0.0 0.0 -1.105063927110e-03 
-2.968425273524e-04 -1.642057746455e-04 0.0 
-1.642057746455e-04 1.792416919804e-03 0.0 
0.0 0.0 -2.939799329518e-04 
-7.924236500379e-04 -1.848261227191e-04 0.0 
-1.848261227191e-04 5.252920665959e-03 0.0 
0.0 0.0 -7.924235178053e-04 
-1.061921988885e-03 1.812104659022e-04 0.0 
1.812104659022e-04 7.031393709581e-03 0.0 
0.0 0.0 -1.059843925468e-03 
-1.181481514864e-03 -1.809401034034e-04 0.0 
-1.809401034034e-04 7.945597505832e-03 0.0 
0.0 0.0 -1.181155146799e-03 
-1.216519596998e-03 -1.765367581353e-04 0.0 
-1.765367581353e-04 8.170458135963e-03 0.0 
0.0 0.0 -1.210943746944e-03 
-1.030728582983e-03 -1.988607177778e-04 0.0 
-1.988607177778e-04 6.902267769970e-03 0.0 
0.0 0.0 -1.028825005900e-03 
-1.124714132978e-03 -2.064810197621e-04 0.0 
-2.064810197621e-04 7.559899990810e-03 0.0 
0.0 0.0 -1.123737208958e-03 
-6.812903531147e-04 1.901379600772e-04 0.0 
1.901379600772e-04 4.380740483724e-03 0.0 
0.0 0.0 -6.793824814286e-04 
-1.062351922354e-03 -1.985736001597e-04 0.0 
-1.985736001597e-04 7.130265690032e-03 0.0 
0.0 0.0 -1.062452857821e-03 
-5.858181118698e-04 1.875072715160e-04 0.0 
1.875072715160e-04 3.545318163494e-03 0.0 
0.0 0.0 -5.576509564599e-04 
-1.191462796189e-03 1.791343230628e-04 0.0 
1.791343230628e-04 7.859967464318e-03 0.0 
0.0 0.0 -1.181751882508e-03 
-6.536967362184e-04 1.840019481607e-04 0.0 
1.840019481607e-04 4.012532136348e-03 0.0 
0.0 0.0 -6.243763318321e-04 
-6.397657085006e-04 1.469527108765e-04 0.0 
1.469527108765e-04 4.231461376740e-03 0.0 
0.0 0.0 -6.577503189808e-04 
-7.727292442473e-04 1.893751122867e-04 0.0 
1.893751122867e-04 5.025497285819e-03 0.0 
0.0 0.0 -7.717627972493e-04 
-7.120157842107e-04 2.033227012876e-04 0.0 
2.033227012876e-04 4.491531755345e-03 0.0 
0.0 0.0 -6.911701761307e-04 
-8.847543506959e-04 -1.860726363621e-04 0.0 
-1.860726363621e-04 5.886975687793e-03 0.0 
0.0 0.0 -8.833033330409e-04 
-7.223081526863e-04 -1.890141103709e-04 0.0 
-1.890141103709e-04 4.756005682412e-03 0.0 
0.0 0.0 -7.209687761305e-04 
-7.611226546141e-04 -1.925027368284e-04 0.0 
-1.925027368284e-04 5.033487039423e-03 0.0 
0.0 0.0 -7.606211034647e-04 
-3.677272213406e-04 1.965668598143e-04 0.0 
1.965668598143e-04 2.206714062611e-03 0.0 
0.0 0.0 -3.685806404478e-04 
-7.360898597851e-04 1.893736919884e-04 0.0 
1.893736919884e-04 4.769891666687e-03 0.0 
0.0 0.0 -7.353490689725e-04 
-1.164475384932e-03 1.920424604491e-04 0.0 
1.920424604491e-04 7.760458237861e-03 0.0 
0.0 0.0 -1.162517914204e-03 
-1.189135404011e-03 2.424308074022e-04 0.0 
2.424308074022e-04 8.008663372928e-03 0.0 
0.0 0.0 -1.195263893373e-03 
-1.051433761328e-03 1.900846295012e-04 0.0 
1.900846295012e-04 6.962500509983e-03 0.0 
0.0 0.0 -1.050100468764e-03 
-1.163815806160e-03 1.939359249112e-04 0.0 
1.939359249112e-04 7.801481486737e-03 0.0 
0.0 0.0 -1.170266998156e-03 
-7.471505649134e-04 1.914654167736e-04 0.0 
1.914654167736e-04 4.846432176661e-03 0.0 
0.0 0.0 -7.463264885205e-04 
-1.116874559966e-03 1.925152765080e-04 0.0 
1.925152765080e-04 7.452691656896e-03 0.0 
0.0 0.0 -1.119019617531e-03 
-7.641727686352e-04 1.895140519536e-04 0.0 
1.895140519536e-04 4.965709915575e-03 0.0 
0.0 0.0 -7.634232545038e-04 
-1.140149646673e-03 1.894710294717e-04 0.0 
1.894710294717e-04 7.619303377370e-03 0.0 
0.0 0.0 -1.144395376583e-03 
-1.089871366962e-03 1.866180545902e-04 0.0 
1.866180545902e-04 7.246015693997e-03 0.0 
0.0 0.0 -1.089631904438e-03 
-1.081578605974e-03 -1.978658757614e-04 0.0 
-1.978658757614e-04 7.257137764756e-03 0.0 
0.0 0.0 -1.080451501872e-03 
-9.579838523443e-04 1.886955211530e-04 0.0 
1.886955211530e-04 6.320335730528e-03 0.0 
0.0 0.0 -9.580909834143e-04 
-7.089543903964e-04 1.893728274013e-04 0.0 
1.893728274013e-04 4.575360328887e-03 0.0 
0.0 0.0 -7.073300717972e-04 
-1.127664739308e-03 -1.829222399519e-04 0.0 
-1.829222399519e-04 7.564515174457e-03 0.0 
0.0 0.0 -1.126038590206e-03 
-9.212765999104e-04 1.860043167073e-04 0.0 
1.860043167073e-04 6.042010505937e-03 0.0 
0.0 0.0 -9.169694165663e-04 
-3.707997860418e-04 -2.047832537350e-04 0.0 
-2.047832537350e-04 2.273008460466e-03 0.0 
0.0 0.0 -3.661348613279e-04 
-4.119491099640e-04 -1.837644939853e-04 0.0 
-1.837644939853e-04 2.602040481245e-03 0.0 
0.0 0.0 -4.113794265144e-04 
-6.058388203502e-04 1.800194521297e-04 0.0 
1.800194521297e-04 3.855006073365e-03 0.0 
0.0 0.0 -6.061407060701e-04 
-8.399206414718e-04 1.851255513351e-04 0.0 
1.851255513351e-04 5.491811110990e-03 0.0 
0.0 0.0 -8.384786063130e-04 
-1.169227413895e-03 1.987098364224e-04 0.0 
1.987098364224e-04 7.826180536376e-03 0.0 
0.0 0.0 -1.173545322487e-03 
-1.051413170775e-03 -2.036953792706e-04 0.0 
-2.036953792706e-04 7.051256599190e-03 0.0 
0.0 0.0 -1.051102540299e-03 
-7.053171708153e-04 -1.917417752613e-04 0.0 
-1.917417752613e-04 4.643848416984e-03 0.0 
0.0 0.0 -7.045205360201e-04 
-9.343548124899e-04 -1.929012807103e-04 0.0 
-1.929012807103e-04 6.238086933522e-03 0.0 
0.0 0.0 -9.344940742331e-04 
-1.088202517562e-03 1.963493920645e-04 0.0 
1.963493920645e-04 7.240451625201e-03 0.0 
0.0 0.0 -1.088599101970e-03 
-1.132213948578e-03 -2.019794901778e-04 0.0 
-2.019794901778e-04 7.607209750872e-03 0.0 
0.0 0.0 -1.130578931274e-03 
-1.175177652279e-03 -1.432114671164e-04 0.0 
-1.432114671164e-04 7.818239968608e-03 0.0 
0.0 0.0 -1.160781586281e-03 
-9.493017134459e-04 1.856369855212e-04 0.0 
1.856369855212e-04 6.294032018234e-03 0.0 
0.0 0.0 -9.517943393003e-04 
-1.114893974024e-03 1.926717475023e-04 0.0 
1.926717475023e-04 7.405468821271e-03 0.0 
0.0 0.0 -1.113435711030e-03 
-7.974711636665e-04 -1.944203939156e-04 0.0 
-1.944203939156e-04 5.288608064412e-03 0.0 
0.0 0.0 -7.971871449874e-04 
-1.087511397267e-03 -1.918432502510e-04 0.0 
-1.918432502510e-04 7.293095143965e-03 0.0 
0.0 0.0 -1.086118700983e-03 
-7.957657220237e-04 1.875502652183e-04 0.0 
1.875502652183e-04 5.187404479596e-03 0.0 
0.0 0.0 -7.951163407912e-04 
-1.190027282138e-03 -1.889094988141e-04 0.0 
-1.889094988141e-04 8.016045742998e-03 0.0 
0.0 0.0 -1.188704642750e-03 
-1.182786985987e-03 -2.095818808978e-04 0.0 
-2.095818808978e-04 8.112308359412e-03 0.0 
0.0 0.0 -1.200489323427e-03 
-8.931557397796e-04 1.886870491784e-04 0.0 
1.886870491784e-04 5.866647832542e-03 0.0 
0.0 0.0 -8.929891684399e-04 
-3.790334035775e-04 2.022524645534e-04 0.0 
2.022524645534e-04 2.272501623496e-03 0.0 
0.0 0.0 -3.776191643183e-04 
-1.116621675417e-03 1.833509055246e-04 0.0 
1.833509055246e-04 7.407703431036e-03 0.0 
0.0 0.0 -1.113685640909e-03 
-8.560269120279e-04 -1.850645517349e-04 0.0 
-1.850645517349e-04 5.691539379015e-03 0.0 
0.0 0.0 -8.555605426019e-04 
-6.779302938367e-04 -1.908402865228e-04 0.0 
-1.908402865228e-04 4.449768302467e-03 0.0 
0.0 0.0 -6.765734244908e-04 
-9.269459503729e-04 -1.957083840496e-04 0.0 
-1.957083840496e-04 6.192523979842e-03 0.0 
0.0 0.0 -9.269463096178e-04 
-1.072502528949e-03 -2.041434169699e-04 0.0 
-2.041434169699e-04 7.210267326329e-03 0.0 
0.0 0.0 -1.072977024862e-03 
-3.719606472363e-04 -1.835949221075e-04 0.0 
-1.835949221075e-04 2.345098090713e-03 0.0 
0.0 0.0 -3.746637649435e-04 
-8.285830534024e-04 1.877054302829e-04 0.0 
1.877054302829e-04 5.415216649357e-03 0.0 
0.0 0.0 -8.281205301186e-04 
-9.633029216945e-04 1.794107507866e-04 0.0 
1.794107507866e-04 6.339174664891e-03 0.0 
0.0 0.0 -9.596127204057e-04 
-1.165821597608e-03 -2.067678885502e-04 0.0 
-2.067678885502e-04 7.892442231831e-03 0.0 
0.0 0.0 -1.170838755190e-03 
-9.895100639472e-04 1.759458030688e-04 0.0 
1.759458030688e-04 6.529075947432e-03 0.0 
0.0 0.0 -9.876491701490e-04 
-1.085596099012e-03 1.937230915425e-04 0.0 
1.937230915425e-04 7.212019617214e-03 0.0 
0.0 0.0 -1.085374163265e-03 
-9.372562607785e-04 1.792840605658e-04 0.0 
1.792840605658e-04 6.146041579427e-03 0.0 
0.0 0.0 -9.316602363005e-04 
-8.975747507543e-04 1.987030926428e-04 0.0 
1.987030926428e-04 5.753154163109e-03 0.0 
0.0 0.0 -8.756372412555e-04 
-9.482059618595e-04 1.851978750998e-04 0.0 
1.851978750998e-04 6.234676071384e-03 0.0 
0.0 0.0 -9.447135688329e-04 
-1.130898821175e-03 2.049231627906e-04 0.0 
2.049231627906e-04 7.550084487667e-03 0.0 
0.0 0.0 -1.133505030480e-03 
-1.085374007423e-03 -2.008613375727e-04 0.0 
-2.008613375727e-04 7.297255264970e-03 0.0 
0.0 0.0 -1.084522140297e-03 
-1.016986910713e-03 1.835607482604e-04 0.0 
1.835607482604e-04 6.748472102274e-03 0.0 
0.0 0.0 -1.017300281410e-03 
-1.211783257084e-03 1.757837481836e-04 0.0 
1.757837481836e-04 8.121141767087e-03 0.0 
0.0 0.0 -1.212886757924e-03 
-9.118555854047e-04 1.822932037185e-04 0.0 
1.822932037185e-04 5.952136168219e-03 0.0 
0.0 0.0 -9.037302385344e-04 
-5.771676927997e-04 -1.905418044285e-04 0.0 
-1.905418044285e-04 3.749121588691e-03 0.0 
0.0 0.0 -5.760585567884e-04 
-1.146857850750e-03 -2.012024813042e-04 0.0 
-2.012024813042e-04 7.726356069459e-03 0.0 
0.0 0.0 -1.146733564437e-03 
-1.190361811188e-03 -2.231584585378e-04 0.0 
-2.231584585378e-04 8.068085284209e-03 0.0 
0.0 0.0 -1.196744929305e-03 
-7.877111731868e-04 1.869730341934e-04 0.0 
1.869730341934e-04 5.130080362463e-03 0.0 
0.0 0.0 -7.869228524964e-04 
-8.229073892259e-04 1.889823334213e-04 0.0 
1.889823334213e-04 5.378866845597e-03 0.0 
0.0 0.0 -8.226527892688e-04 
-6.410005540226e-04 -1.918474041219e-04 0.0 
-1.918474041219e-04 4.195976321249e-03 0.0 
0.0 0.0 -6.402419685743e-04 
-1.047323379365e-03 1.912705100611e-04 0.0 
1.912705100611e-04 6.951134229714e-03 0.0 
0.0 0.0 -1.046609947212e-03 
-6.536475585395e-04 1.928032985675e-04 0.0 
1.928032985675e-04 4.182884861133e-03 0.0 
0.0 0.0 -6.500746975200e-04 
-9.153598550125e-04 1.963880349302e-04 0.0 
1.963880349302e-04 6.020758345298e-03 0.0 
0.0 0.0 -9.137630964162e-04 
-6.488950437602e-04 -1.797823528638e-04 0.0 
-1.797823528638e-04 4.242459853736e-03 0.0 
0.0 0.0 -6.476280927198e-04 
-1.069873888271e-03 1.950588935170e-04 0.0 
1.950588935170e-04 7.095085750561e-03 0.0 
0.0 0.0 -1.068254633495e-03 
-1.209590731991e-03 -1.550085898134e-04 0.0 
-1.550085898134e-04 8.118970202182e-03 0.0 
0.0 0.0 -1.211228670573e-03 
-6.691229637013e-04 -1.915091740608e-04 0.0 
-1.915091740608e-04 4.390308397494e-03 0.0 
0.0 0.0 -6.682047883386e-04 
-2.351166358341e-04 -2.031494045747e-04 0.0 
-2.031494045747e-04 1.435993492405e-03 0.0 
0.0 0.0 -2.451578436693e-04 
-1.204420763458e-03 1.961268392442e-04 0.0 
1.961268392442e-04 8.059775147050e-03 0.0 
0.0 0.0 -1.207184308065e-03 
-6.887858324241e-04 1.799755313790e-04 0.0 
1.799755313790e-04 4.424727357305e-03 0.0 
0.0 0.0 -6.853381776776e-04 
-7.835288517237e-04 1.879460947127e-04 0.0 
1.879460947127e-04 5.099659123499e-03 0.0 
0.0 0.0 -7.828151049093e-04 
-1.160407951921e-03 2.005539249279e-04 0.0 
2.005539249279e-04 7.864449254895e-03 0.0 
0.0 0.0 -1.177925372349e-03 
-1.016320152694e-03 -1.997312198958e-04 0.0 
-1.997312198958e-04 6.802485040097e-03 0.0 
0.0 0.0 -1.015069748350e-03 
-1.057178896244e-03 -1.942199100265e-04 0.0 
-1.942199100265e-04 7.094939907720e-03 0.0 
0.0 0.0 -1.055879354346e-03 
-6.858748156510e-04 -1.861020149715e-04 0.0 
-1.861020149715e-04 4.508466491458e-03 0.0 
0.0 0.0 -6.851017020021e-04 
-2.031820811394e-04 1.985739834672e-04 0.0 
1.985739834672e-04 1.096275256380e-03 0.0 
0.0 0.0 -2.111397097017e-04 
-1.218012060933e-03 -2.324828983585e-04 0.0 
-2.324828983585e-04 8.157957467951e-03 0.0 
0.0 0.0 -1.202131160132e-03 
-8.665795831995e-04 1.858441781355e-04 0.0 
1.858441781355e-04 5.682543428283e-03 0.0 
0.0 0.0 -8.660506973337e-04 
-1.008559534197e-03 -2.140754109309e-04 0.0 
-2.140754109309e-04 6.735537996686e-03 0.0 
0.0 0.0 -1.007142642412e-03 
-1.160459194418e-03 1.856922992241e-04 0.0 
1.856922992241e-04 7.735308684736e-03 0.0 
0.0 0.0 -1.157822513452e-03 
-1.616552956257e-04 1.423609377969e-04 0.0 
1.423609377969e-04 6.732585101887e-04 0.0 
0.0 0.0 -1.502316149797e-04 
-1.058859563023e-03 1.992298708810e-04 0.0 
1.992298708810e-04 7.024120321951e-03 0.0 
0.0 0.0 -1.058763633038e-03 
-4.932099791950e-04 -1.894809356614e-04 0.0 
-1.894809356614e-04 3.157806772283e-03 0.0 
0.0 0.0 -4.919579008500e-04 
-9.451714429142e-04 -2.012700485207e-04 0.0 
-2.012700485207e-04 6.343190678808e-03 0.0 
0.0 0.0 -9.498437721210e-04 
-8.487405687036e-04 -1.950463421940e-04 0.0 
-1.950463421940e-04 5.654542604036e-03 0.0 
0.0 0.0 -8.496012432876e-04 
-6.717289225013e-04 1.881380853814e-04 0.0 
1.881380853814e-04 4.320340016049e-03 0.0 
0.0 0.0 -6.709551114794e-04 
-1.138399201716e-03 -1.969931368524e-04 0.0 
-1.969931368524e-04 7.687743728139e-03 0.0 
0.0 0.0 -1.141635569211e-03 
-8.863371368954e-04 1.906753618111e-04 0.0 
1.906753618111e-04 5.821740968712e-03 0.0 
0.0 0.0 -8.859145181037e-04 
-6.078808339746e-04 1.896100471318e-04 0.0 
1.896100471318e-04 3.873866771809e-03 0.0 
0.0 0.0 -6.067458373204e-04 
-8.988471733596e-04 -1.905617358742e-04 0.0 
-1.905617358742e-04 5.993481774552e-03 0.0 
0.0 0.0 -8.989548790023e-04 
-1.952954180545e-04 -1.905102926163e-04 0.0 
-1.905102926163e-04 1.173502522438e-03 0.0 
0.0 0.0 -2.081142276587e-04 
-1.024988576596e-03 -1.935191657477e-04 0.0 
-1.935191657477e-04 6.880398785368e-03 0.0 
0.0 0.0 -1.026417656363e-03 
-1.069604476726e-03 -1.976553008556e-04 0.0 
-1.976553008556e-04 7.163110056360e-03 0.0 
0.0 0.0 -1.065496432940e-03 
-1.229744167387e-03 -1.464305357593e-04 0.0 
-1.464305357593e-04 8.209785373221e-03 0.0 
0.0 0.0 -1.233600908384e-03 
-1.090183204667e-03 -1.971253990561e-04 0.0 
-1.971253990561e-04 7.328950110722e-03 0.0 
0.0 0.0 -1.090749533212e-03 
-4.766984691118e-04 -1.850928375114e-04 0.0 
-1.850928375114e-04 3.048442125330e-03 0.0 
0.0 0.0 -4.758149136988e-04 
-1.046974953030e-03 -1.977469482829e-04 0.0 
-1.977469482829e-04 7.033167652259e-03 0.0 
0.0 0.0 -1.047231727503e-03 
-1.207083647933e-03 1.808427044483e-04 0.0 
1.808427044483e-04 8.205581432035e-03 0.0 
0.0 0.0 -1.228155452712e-03 
-1.260668266969e-03 -1.832526413473e-04 0.0 
-1.832526413473e-04 8.522719369677e-03 0.0 
0.0 0.0 -1.267145247477e-03 
-1.104740620517e-03 -1.903291503950e-04 0.0 
-1.903291503950e-04 7.419136809817e-03 0.0 
0.0 0.0 -1.102242875413e-03 
-7.141399757063e-04 -1.908850217655e-04 0.0 
-1.908850217655e-04 4.699621454475e-03 0.0 
0.0 0.0 -7.127912709901e-04 
-9.617225215176e-04 -1.932311968947e-04 0.0 
-1.932311968947e-04 6.435112240426e-03 0.0 
0.0 0.0 -9.624716764950e-04 
-1.172863749534e-03 1.716370371983e-04 0.0 
1.716370371983e-04 7.752633284680e-03 0.0 
0.0 0.0 -1.164316760544e-03 
-7.921196063416e-04 -1.921710320450e-04 0.0 
-1.921710320450e-04 5.233600587143e-03 0.0 
0.0 0.0 -7.878971455476e-04 
-1.056322180914e-03 1.849092776284e-04 0.0 
1.849092776284e-04 7.010189158039e-03 0.0 
0.0 0.0 -1.057196955382e-03 
-9.850942903468e-04 1.906307977985e-04 0.0 
1.906307977985e-04 6.538331902211e-03 0.0 
0.0 0.0 -9.877098122506e-04 
-1.110739431392e-03 -1.980632731678e-04 0.0 
-1.980632731678e-04 7.489376108620e-03 0.0 
0.0 0.0 -1.112977059762e-03 
-1.093828226484e-03 -1.876429130193e-04 0.0 
-1.876429130193e-04 7.351584596061e-03 0.0 
0.0 0.0 -1.093234982489e-03 
-7.343177045735e-04 -9.465157044590e-06 0.0 
-9.465157044590e-06 4.570354151395e-03 0.0 
0.0 0.0 -7.313513689239e-04 
-7.305590051733e-04 3.402678996767e-05 0.0 
3.402678996767e-05 4.568649633296e-03 0.0 
0.0 0.0 -7.310574395863e-04 
-9.952316992060e-04 -2.061010920873e-04 0.0 
-2.061010920873e-04 6.656041030992e-03 0.0 
0.0 0.0 -9.927888931629e-04 
-9.918488233690e-04 1.857079994066e-04 0.0 
1.857079994066e-04 6.564735410895e-03 0.0 
0.0 0.0 -9.930598132463e-04 
-8.773556303313e-04 -1.926873992318e-04 0.0 
-1.926873992318e-04 5.856781784187e-03 0.0 
0.0 0.0 -8.780428295617e-04 
-9.805249871409e-04 -1.924563760952e-04 0.0 
-1.924563760952e-04 6.542490604406e-03 0.0 
0.0 0.0 -9.775429604617e-04 
-8.511934619470e-04 1.885314516425e-04 0.0 
1.885314516425e-04 5.570767617800e-03 0.0 
0.0 0.0 -8.502279965035e-04 
-1.193540881150e-03 1.313307987014e-04 0.0 
1.313307987014e-04 7.848740983510e-03 0.0 
0.0 0.0 -1.180288150054e-03 
-7.169159808387e-04 1.897237155631e-04 0.0 
1.897237155631e-04 4.633470113633e-03 0.0 
0.0 0.0 -7.154845226688e-04 
-1.330586332229e-03 -3.342005871353e-05 0.0 
-3.342005871353e-05 9.092648121720e-03 0.0 
0.0 0.0 -1.323793839065e-03 
-8.042874267729e-04 1.538278548702e-04 0.0 
1.538278548702e-04 5.332999869485e-03 0.0 
0.0 0.0 -8.119939454945e-04 
-8.205821157683e-04 -1.889603009902e-04 0.0 
-1.889603009902e-04 5.445817958641e-03 0.0 
0.0 0.0 -8.199314282332e-04 
-8.518598072760e-04 1.933057744939e-04 0.0 
1.933057744939e-04 5.584111954891e-03 0.0 
0.0 0.0 -8.523954645778e-04 
-4.499586564247e-04 -1.855256695766e-04 0.0 
-1.855256695766e-04 2.857022821909e-03 0.0 
0.0 0.0 -4.479040077299e-04 
-7.538979209402e-04 -1.934413965155e-04 0.0 
-1.934413965155e-04 4.995274109938e-03 0.0 
0.0 0.0 -7.551671247638e-04 
-9.291971374277e-04 1.860662208979e-04 0.0 
1.860662208979e-04 6.122384862718e-03 0.0 
0.0 0.0 -9.293281999836e-04 
-8.759687264254e-04 1.862073937602e-04 0.0 
1.862073937602e-04 5.739375914108e-03 0.0 
0.0 0.0 -8.738309435711e-04 
-9.814387768267e-04 1.839019607207e-04 0.0 
1.839019607207e-04 6.501334764277e-03 0.0 
0.0 0.0 -9.814596669550e-04 
-1.010867161751e-03 1.870829556364e-04 0.0 
1.870829556364e-04 6.678666577386e-03 0.0 
0.0 0.0 -1.008022096355e-03 
-1.044436862417e-03 -1.926634021926e-04 0.0 
-1.926634021926e-04 6.979659342720e-03 0.0 
0.0 0.0 -1.040850218070e-03 
-2.258973833718e-04 -1.030107291086e-04 0.0 
-1.030107291086e-04 1.399562224303e-03 0.0 
0.0 0.0 -2.163717569139e-04 
-7.194022022389e-04 1.955668345424e-04 0.0 
1.955668345424e-04 4.667671693721e-03 0.0 
0.0 0.0 -7.209013985657e-04 
-6.852716132608e-04 -1.859370640984e-04 0.0 
-1.859370640984e-04 4.485062449844e-03 0.0 
0.0 0.0 -6.825522065409e-04 
-9.565981315295e-04 1.790846631940e-04 0.0 
1.790846631940e-04 6.284252226282e-03 0.0 
0.0 0.0 -9.521954671713e-04 
-9.888411307371e-04 -1.922642027801e-04 0.0 
-1.922642027801e-04 6.601876220435e-03 0.0 
0.0 0.0 -9.850634846466e-04 
-1.155748252282e-03 1.797617113703e-04 0.0 
1.797617113703e-04 7.721330663973e-03 0.0 
0.0 0.0 -1.160108757481e-03 
-3.430926826770e-04 2.099465977867e-04 0.0 
2.099465977867e-04 1.967318145224e-03 0.0 
0.0 0.0 -3.273996513303e-04 
-3.332214715971e-04 -1.766782033718e-04 0.0 
-1.766782033718e-04 2.091595055548e-03 0.0 
0.0 0.0 -3.377286911054e-04 
-8.312276761858e-04 1.871380545801e-04 0.0 
1.871380545801e-04 5.435579353952e-03 0.0 
0.0 0.0 -8.305977116616e-04 
-7.164446669360e-04 -1.954011667160e-04 0.0 
-1.954011667160e-04 4.735861933211e-03 0.0 
0.0 0.0 -7.181358556540e-04 
-6.612400540539e-04 -2.145984864481e-04 0.0 
-2.145984864481e-04 4.300984587983e-03 0.0 
0.0 0.0 -6.554599841463e-04 
-6.892288823092e-04 -1.712097974294e-04 0.0 
-1.712097974294e-04 4.548932917262e-03 0.0 
0.0 0.0 -6.889204951115e-04 
-9.785151366904e-04 -1.903688334857e-04 0.0 
-1.903688334857e-04 6.552823194572e-03 0.0 
0.0 0.0 -9.793492904611e-04 
-3.279214625417e-04 -1.856414295293e-04 0.0 
-1.856414295293e-04 2.036611823989e-03 0.0 
0.0 0.0 -3.302473245842e-04 
-8.146691974455e-04 1.910766766110e-04 0.0 
1.910766766110e-04 5.328191831945e-03 0.0 
0.0 0.0 -8.154759146177e-04 
-1.049892567768e-03 -1.923181012939e-04 0.0 
-1.923181012939e-04 7.038288222671e-03 0.0 
0.0 0.0 -1.049209916622e-03 
-3.402244297759e-04 2.055488950203e-04 0.0 
2.055488950203e-04 2.007315154740e-03 0.0 
0.0 0.0 -3.408226701431e-04 
-1.289740643797e-03 -2.865690188005e-05 0.0 
-2.865690188005e-05 8.457698383589e-03 0.0 
0.0 0.0 -1.285586381397e-03 
-1.153161816539e-03 -1.810911126316e-04 0.0 
-1.810911126316e-04 7.745860400322e-03 0.0 
0.0 0.0 -1.152455342817e-03 
-7.730865248008e-04 -1.936313324955e-04 0.0 
-1.936313324955e-04 5.137233279798e-03 0.0 
0.0 0.0 -7.756113943005e-04 
-1.077943790440e-03 1.906149656784e-04 0.0 
1.906149656784e-04 7.162163658694e-03 0.0 
0.0 0.0 -1.078722419643e-03 
-1.818286327115e-04 -5.320949396074e-06 0.0 
-5.320949396074e-06 7.441773179852e-04 0.0 
0.0 0.0 -1.797547709840e-04 
-1.014460031072e-03 -2.000580684662e-04 0.0 
-2.000580684662e-04 6.784645211728e-03 0.0 
0.0 0.0 -1.012471576362e-03 
-8.638932840094e-04 -1.877196228479e-04 0.0 
-1.877196228479e-04 5.746441231772e-03 0.0 
0.0 0.0 -8.634366945984e-04 
-1.573089574218e-04 6.060813636257e-06 0.0 
6.060813636257e-06 7.379677460024e-04 0.0 
0.0 0.0 -1.788519809851e-04 
-1.152359323407e-03 1.787160847201e-04 0.0 
1.787160847201e-04 7.696182759720e-03 0.0 
0.0 0.0 -1.154859126927e-03 
-3.172722260096e-04 -1.887798844868e-04 0.0 
-1.887798844868e-04 1.899275964143e-03 0.0 
0.0 0.0 -3.099791425632e-04 
-9.534030089958e-04 -1.885226890488e-04 0.0 
-1.885226890488e-04 6.348031499756e-03 0.0 
0.0 0.0 -9.496453321265e-04 
-8.720767110959e-04 -1.896937711200e-04 0.0 
-1.896937711200e-04 5.800514782336e-03 0.0 
0.0 0.0 -8.712718144564e-04 
-7.527095169076e-04 -1.904145446511e-04 0.0 
-1.904145446511e-04 4.974920507200e-03 0.0 
0.0 0.0 -7.519815330289e-04 
-9.060865555047e-04 1.986245932987e-04 0.0 
1.986245932987e-04 5.963263483029e-03 0.0 
0.0 0.0 -9.052548162676e-04 
-1.186359257630e-03 1.790401943917e-04 0.0 
1.790401943917e-04 7.910120458871e-03 0.0 
0.0 0.0 -1.182898372388e-03 
-9.717172959483e-04 2.017731235506e-04 0.0 
2.017731235506e-04 6.421670982773e-03 0.0 
0.0 0.0 -9.716005391689e-04 
-8.586682738840e-04 1.870585543685e-04 0.0 
1.870585543685e-04 5.626729716629e-03 0.0 
0.0 0.0 -8.581765416018e-04 
-8.285502932263e-04 -1.869792024667e-04 0.0 
-1.869792024667e-04 5.500044709232e-03 0.0 
0.0 0.0 -8.279616112547e-04 
-1.157597014143e-04 1.569592925357e-04 0.0 
1.569592925357e-04 5.309685908670e-04 0.0 
0.0 0.0 -1.241199786263e-04 
-2.771697128881e-04 1.878257284126e-04 0.0 
1.878257284126e-04 1.577050393967e-03 0.0 
0.0 0.0 -2.761011822561e-04 
-1.118878802421e-03 -1.775376209316e-04 0.0 
-1.775376209316e-04 7.515980410063e-03 0.0 
0.0 0.0 -1.118331045454e-03 
-9.134689604251e-04 -2.151070896450e-04 0.0 
-2.151070896450e-04 6.054442910930e-03 0.0 
0.0 0.0 -9.085367473448e-04 
-1.157427958602e-03 1.810891327533e-04 0.0 
1.810891327533e-04 7.664331777096e-03 0.0 
0.0 0.0 -1.148691026115e-03 
-4.952790128067e-04 1.926215238326e-04 0.0 
1.926215238326e-04 3.096112546519e-03 0.0 
0.0 0.0 -4.942977111402e-04 
-1.099935257767e-03 1.964856595336e-04 0.0 
1.964856595336e-04 7.292900558944e-03 0.0 
0.0 0.0 -1.097950598811e-03 
-1.159977421736e-03 -1.899588415039e-04 0.0 
-1.899588415039e-04 7.782799989863e-03 0.0 
0.0 0.0 -1.155407764312e-03 
-7.046437970110e-04 1.771780882184e-04 0.0 
1.771780882184e-04 4.649202442725e-03 0.0 
0.0 0.0 -7.179420443741e-04 
-1.123089437587e-03 1.668381000104e-04 0.0 
1.668381000104e-04 7.448723404798e-03 0.0 
0.0 0.0 -1.120992621467e-03 
-1.074800466033e-03 -1.979281231238e-04 0.0 
-1.979281231238e-04 7.231750290380e-03 0.0 
0.0 0.0 -1.075946734593e-03 
-9.566951811484e-04 1.885305449409e-04 0.0 
1.885305449409e-04 6.314170866049e-03 0.0 
0.0 0.0 -9.571162043194e-04 
-7.858129650109e-04 1.950519568745e-04 0.0 
1.950519568745e-04 5.127464531984e-03 0.0 
0.0 0.0 -7.866383436874e-04 
-8.200429817129e-04 -1.955984029235e-04 0.0 
-1.955984029235e-04 5.453789901756e-03 0.0 
0.0 0.0 -8.209012074946e-04 
-1.208173698565e-03 -2.031466844656e-04 0.0 
-2.031466844656e-04 8.155254103189e-03 0.0 
0.0 0.0 -1.204704583718e-03 
-8.401419513637e-04 1.955438232624e-04 0.0 
1.955438232624e-04 5.506398965405e-03 0.0 
0.0 0.0 -8.396599866114e-04 
-9.021075521636e-04 1.852176330369e-04 0.0 
1.852176330369e-04 5.931413313431e-03 0.0 
0.0 0.0 -9.015555482168e-04 
-8.449278259679e-04 1.962826855989e-04 0.0 
1.962826855989e-04 5.533739272216e-03 0.0 
0.0 0.0 -8.433600309793e-04 
-1.038695295048e-03 1.973550359402e-04 0.0 
1.973550359402e-04 6.882197727615e-03 0.0 
0.0 0.0 -1.038364586984e-03 
-7.853544279650e-04 -1.888908667992e-04 0.0 
-1.888908667992e-04 5.195025610649e-03 0.0 
0.0 0.0 -7.842421616061e-04 
-5.077615371431e-04 1.925383574265e-04 0.0 
1.925383574265e-04 3.178371744144e-03 0.0 
0.0 0.0 -5.065804551108e-04 
-8.563679286656e-04 1.886904600152e-04 0.0 
1.886904600152e-04 5.609470178926e-03 0.0 
0.0 0.0 -8.561803240471e-04 
-5.442096767108e-04 1.899929291301e-04 0.0 
1.899929291301e-04 3.427592308512e-03 0.0 
0.0 0.0 -5.426160209679e-04 
-9.840239484115e-04 1.860183386348e-04 0.0 
1.860183386348e-04 6.482342277994e-03 0.0 
0.0 0.0 -9.799122972177e-04 
-5.401920244119e-04 -1.881877507061e-04 0.0 
-1.881877507061e-04 3.494301074598e-03 0.0 
0.0 0.0 -5.399485503622e-04 
-9.444560097486e-04 -1.940759614132e-04 0.0 
-1.940759614132e-04 6.297600198433e-03 0.0 
0.0 0.0 -9.420580210740e-04 
-1.136089878121e-03 -1.928967352453e-04 0.0 
-1.928967352453e-04 7.622114445815e-03 0.0 
0.0 0.0 -1.130549445556e-03 
-1.098744179893e-03 1.868758827566e-04 0.0 
1.868758827566e-04 7.288601580292e-03 0.0 
0.0 0.0 -1.096529089934e-03 
-7.525839073148e-04 1.884470413513e-04 0.0 
1.884470413513e-04 4.883223458127e-03 0.0 
0.0 0.0 -7.512528815035e-04 
-9.420690742012e-04 1.904423332235e-04 0.0 
1.904423332235e-04 6.250031840530e-03 0.0 
0.0 0.0 -9.460253849645e-04 
-1.105063984059e-03 1.902259811921e-04 0.0 
1.902259811921e-04 7.362332298091e-03 0.0 
0.0 0.0 -1.107441567342e-03 
-1.102593190183e-03 -1.984125757140e-04 0.0 
-1.984125757140e-04 7.431259929710e-03 0.0 
0.0 0.0 -1.104747680386e-03 
-2.748138935716e-04 -1.822651738482e-04 0.0 
-1.822651738482e-04 1.604872033163e-03 0.0 
0.0 0.0 -2.683291303717e-04 
-9.752435611011e-04 1.861325910200e-04 0.0 
1.861325910200e-04 6.426869973039e-03 0.0 
0.0 0.0 -9.724793438395e-04 
-1.198880595075e-03 2.442779644092e-04 0.0 
2.442779644092e-04 8.051846061103e-03 0.0 
0.0 0.0 -1.205818386895e-03 
-5.437300718267e-04 1.772584891247e-04 0.0 
1.772584891247e-04 3.388245147726e-03 0.0 
0.0 0.0 -5.357889572170e-04 
-8.407105615714e-04 -1.927518630570e-04 0.0 
-1.927518630570e-04 5.595089898141e-03 0.0 
0.0 0.0 -8.409532000723e-04 
-1.642955148473e-04 -1.732273966109e-04 0.0 
-1.732273966109e-04 7.998697341648e-04 0.0 
0.0 0.0 -1.553180670733e-04 
-1.132480187466e-03 1.879569331440e-04 0.0 
1.879569331440e-04 7.560437012022e-03 0.0 
0.0 0.0 -1.136235114959e-03 
-4.806530012621e-04 1.926320631025e-04 0.0 
1.926320631025e-04 2.980823159841e-03 0.0 
0.0 0.0 -4.785631936959e-04 
-8.099198933223e-04 1.419617410747e-04 0.0 
1.419617410747e-04 5.272582332729e-03 0.0 
0.0 0.0 -8.166178341775e-04 
-1.008233793579e-03 2.173973549694e-04 0.0 
2.173973549694e-04 6.687663611020e-03 0.0 
0.0 0.0 -1.008721701990e-03 
-9.403782054792e-04 -1.899510314299e-04 0.0 
-1.899510314299e-04 6.304690927512e-03 0.0 
0.0 0.0 -9.438854677472e-04 
-8.963572268652e-04 1.741364622751e-04 0.0 
1.741364622751e-04 5.997227966099e-03 0.0 
0.0 0.0 -9.108073647308e-04 
-8.940895927013e-04 1.874273657985e-04 0.0 
1.874273657985e-04 5.875054319372e-03 0.0 
0.0 0.0 -8.936906232635e-04 
-5.964027012772e-04 -1.969270146159e-04 0.0 
-1.969270146159e-04 3.828565622584e-03 0.0 
0.0 0.0 -5.884905393267e-04 
-6.222186473161e-04 -1.579598216188e-04 0.0 
-1.579598216188e-04 4.074275639624e-03 0.0 
0.0 0.0 -6.218825813656e-04 
-1.132545466856e-03 -1.921788675688e-04 0.0 
-1.921788675688e-04 7.631342050474e-03 0.0 
0.0 0.0 -1.133400347077e-03 
-9.399834973732e-04 -2.076180111174e-04 0.0 
-2.076180111174e-04 6.274716467853e-03 0.0 
0.0 0.0 -9.394087121358e-04 
-8.165998643398e-04 -1.896618384882e-04 0.0 
-1.896618384882e-04 5.425461381261e-03 0.0 
0.0 0.0 -8.164864906097e-04 
-1.015808219044e-03 2.043119981127e-04 0.0 
2.043119981127e-04 6.724239760090e-03 0.0 
0.0 0.0 -1.014986374720e-03 
-7.921952984756e-04 1.876569442452e-04 0.0 
1.876569442452e-04 5.161072896404e-03 0.0 
0.0 0.0 -7.915105747054e-04 
-5.132154280476e-04 -1.871647182001e-04 0.0 
-1.871647182001e-04 3.302371768383e-03 0.0 
0.0 0.0 -5.119962057136e-04 
-5.745746208367e-04 1.485352442875e-04 0.0 
1.485352442875e-04 3.755895310226e-03 0.0 
0.0 0.0 -5.908395828668e-04 
-8.562635021512e-04 -1.754512107452e-04 0.0 
-1.754512107452e-04 5.627343192984e-03 0.0 
0.0 0.0 -8.442294783838e-04 
-7.160648306052e-04 7.585704491009e-06 0.0 
7.585704491009e-06 4.849167370763e-03 0.0 
0.0 0.0 -7.121995050294e-04 
-1.098907698795e-03 -1.935603852202e-04 0.0 
-1.935603852202e-04 7.356586615962e-03 0.0 
0.0 0.0 -1.093598669875e-03 
-7.500784032912e-04 -1.888438395023e-04 0.0 
-1.888438395023e-04 4.947212343952e-03 0.0 
0.0 0.0 -7.486350631497e-04 
-1.210182417684e-03 1.765917680884e-04 0.0 
1.765917680884e-04 8.247529209770e-03 0.0 
0.0 0.0 -1.233571955743e-03 
-1.118284649088e-03 2.239133535709e-04 0.0 
2.239133535709e-04 7.476894485255e-03 0.0 
0.0 0.0 -1.121177773779e-03 
-8.254740426919e-04 -1.929282224425e-04 0.0 
-1.929282224425e-04 5.485443478807e-03 0.0 
0.0 0.0 -8.252461108756e-04 
-1.242964237003e-03 -2.139177796874e-04 0.0 
-2.139177796874e-04 8.349538837109e-03 0.0 
0.0 0.0 -1.241472629463e-03 
-5.687293433059e-04 -1.915120142833e-04 0.0 
-1.915120142833e-04 3.690790191525e-03 0.0 
0.0 0.0 -5.682622744621e-04 
-1.208040625364e-03 1.849401074130e-04 0.0 
1.849401074130e-04 8.046920265334e-03 0.0 
0.0 0.0 -1.204482468497e-03 
-8.913551845653e-04 -1.878094076417e-04 0.0 
-1.878094076417e-04 5.940020385334e-03 0.0 
0.0 0.0 -8.910665706739e-04 
-9.852542746410e-04 1.871572406668e-04 0.0 
1.871572406668e-04 6.505324580404e-03 0.0 
0.0 0.0 -9.848034212814e-04 
-1.145107580505e-03 -1.842496915473e-04 0.0 
-1.842496915473e-04 7.703101384869e-03 0.0 
0.0 0.0 -1.146785027167e-03 
-5.943655314035e-04 -1.832199318589e-04 0.0 
-1.832199318589e-04 3.893020220943e-03 0.0 
0.0 0.0 -5.958228065582e-04 
-9.389816814797e-04 1.876119276122e-04 0.0 
1.876119276122e-04 6.182064030220e-03 0.0 
0.0 0.0 -9.369464185080e-04 
-7.887299262109e-04 -1.887974843369e-04 0.0 
-1.887974843369e-04 5.230247920474e-03 0.0 
0.0 0.0 -7.886172400246e-04 
-9.083774489983e-04 -1.902700926230e-04 0.0 
-1.902700926230e-04 6.046157002466e-03 0.0 
0.0 0.0 -9.065670216064e-04 
-5.279887302567e-04 -1.859379540021e-04 0.0 
-1.859379540021e-04 3.395303897193e-03 0.0 
0.0 0.0 -5.268093404353e-04 
-1.014606245907e-03 2.103915705160e-04 0.0 
2.103915705160e-04 6.713973890446e-03 0.0 
0.0 0.0 -1.013229387512e-03 
-7.553250635679e-04 1.889436264505e-04 0.0 
1.889436264505e-04 4.904153081957e-03 0.0 
0.0 0.0 -7.548706880268e-04 
-8.804539724126e-04 1.911528069323e-04 0.0 
1.911528069323e-04 5.783141817002e-03 0.0 
0.0 0.0 -8.810281692460e-04 
-9.122003311205e-04 1.835312424394e-04 0.0 
1.835312424394e-04 5.985147494673e-03 0.0 
0.0 0.0 -9.091416541300e-04 
-1.779440610295e-04 -1.030848282903e-04 0.0 
-1.030848282903e-04 7.740733373014e-04 0.0 
0.0 0.0 -1.392682743729e-04 
-9.092484897749e-04 2.049076976716e-04 0.0 
2.049076976716e-04 5.988548295435e-03 0.0 
0.0 0.0 -9.082496170556e-04 
-2.130732635602e-04 -2.101807231715e-04 0.0 
-2.101807231715e-04 1.221567911034e-03 0.0 
0.0 0.0 -2.164288490095e-04 
-2.520548988868e-04 2.059906335289e-04 0.0 
2.059906335289e-04 1.360441870585e-03 0.0 
0.0 0.0 -2.410360834028e-04 
-8.430214645806e-04 1.870171193368e-04 0.0 
1.870171193368e-04 5.521874591652e-03 0.0 
0.0 0.0 -8.438072171805e-04 
-1.100618043992e-03 -1.995199700289e-04 0.0 
-1.995199700289e-04 7.372933681793e-03 0.0 
0.0 0.0 -1.098354823938e-03 
-9.336786887582e-04 1.772618600829e-04 0.0 
1.772618600829e-04 6.184069199665e-03 0.0 
0.0 0.0 -9.387552692590e-04 
-5.316814076804e-04 -1.951121058158e-04 0.0 
-1.951121058158e-04 3.374217008638e-03 0.0 
0.0 0.0 -5.215302833573e-04 
-1.342322198460e-03 1.355075091338e-05 0.0 
1.355075091338e-05 8.860022296973e-03 0.0 
0.0 0.0 -1.342322198460e-03 
-6.904184216633e-05 1.341545190439e-04 0.0 
1.341545190439e-04 2.607547295547e-04 0.0 
0.0 0.0 -8.216266602360e-05 
-5.589210723321e-04 -1.329418113690e-04 0.0 
-1.329418113690e-04 3.609084095352e-03 0.0 
0.0 0.0 -5.549805679787e-04 
-8.477696331988e-04 1.855996582246e-04 0.0 
1.855996582246e-04 5.547050172852e-03 0.0 
0.0 0.0 -8.472740691907e-04 
-8.035495844310e-04 -1.953259203623e-04 0.0 
-1.953259203623e-04 5.337013229194e-03 0.0 
0.0 0.0 -8.042584860449e-04 
-6.757348554203e-04 -1.653998453620e-04 0.0 
-1.653998453620e-04 4.426804148949e-03 0.0 
0.0 0.0 -6.733236465360e-04 
-5.914609098287e-04 1.823071808114e-04 0.0 
1.823071808114e-04 3.765270744377e-03 0.0 
0.0 0.0 -5.908717820549e-04 
-8.740292955769e-04 -1.984478198410e-04 0.0 
-1.984478198410e-04 5.813273429386e-03 0.0 
0.0 0.0 -8.733819075714e-04 
-9.264128048314e-04 -1.908219560731e-04 0.0 
-1.908219560731e-04 6.187717693911e-03 0.0 
0.0 0.0 -9.266779469803e-04 
-9.738255750276e-04 2.028683516140e-04 0.0 
2.028683516140e-04 6.450883656299e-03 0.0 
0.0 0.0 -9.734188451722e-04 
-1.155174733819e-03 2.031393399309e-04 0.0 
2.031393399309e-04 7.608098909853e-03 0.0 
0.0 0.0 -1.144302277022e-03 
-2.998307148874e-04 1.817771268844e-04 0.0 
1.817771268844e-04 1.707947677580e-03 0.0 
0.0 0.0 -2.976331147772e-04 
-7.774732960360e-04 1.902311186531e-04 0.0 
1.902311186531e-04 5.067412702539e-03 0.0 
0.0 0.0 -7.784793977761e-04 
-8.354929195800e-04 1.868427274729e-04 0.0 
1.868427274729e-04 5.469964258699e-03 0.0 
0.0 0.0 -8.356154970834e-04 
-4.516910884492e-04 -2.032153244339e-04 0.0 
-2.032153244339e-04 2.897475389763e-03 0.0 
0.0 0.0 -4.544023106810e-04 
-7.514806211766e-04 2.187245154034e-04 0.0 
2.187245154034e-04 4.887888210751e-03 0.0 
0.0 0.0 -7.518103749233e-04 
-9.376130433125e-04 -2.007012642149e-04 0.0 
-2.007012642149e-04 6.245928942655e-03 0.0 
0.0 0.0 -9.362314798257e-04 
-1.020402468730e-03 -1.946865508960e-04 0.0 
-1.946865508960e-04 6.790144563629e-03 0.0 
0.0 0.0 -1.023451880212e-03 
-1.525732992224e-04 8.599813621991e-06 0.0 
8.599813621991e-06 1.000033467602e-03 0.0 
0.0 0.0 -1.605242656235e-04 
-1.269812495822e-04 -2.531001823489e-04 0.0 
-2.531001823489e-04 4.902479252968e-04 0.0 
0.0 0.0 -1.185594205871e-04 
-3.241357878482e-04 -1.842994986653e-04 0.0 
-1.842994986653e-04 2.004473459914e-03 0.0 
0.0 0.0 -3.233707900025e-04 
-8.334989762747e-04 -1.938999604970e-04 0.0 
-1.938999604970e-04 5.537569679809e-03 0.0 
0.0 0.0 -8.330087554115e-04 
-6.325222328161e-04 -1.881321833313e-04 0.0 
-1.881321833313e-04 4.138956718805e-03 0.0 
0.0 0.0 -6.322020076307e-04 
-5.606822046863e-04 -1.836386180369e-04 0.0 
-1.836386180369e-04 3.638290895272e-03 0.0 
0.0 0.0 -5.605319560360e-04 
-5.042968556974e-04 -1.874920210369e-04 0.0 
-1.874920210369e-04 3.240689773487e-03 0.0 
0.0 0.0 -5.041580933422e-04 
-8.721332834429e-04 1.863637843611e-04 0.0 
1.863637843611e-04 5.722466013089e-03 0.0 
0.0 0.0 -8.721335634590e-04 
-9.951021354220e-04 1.863977597818e-04 0.0 
1.863977597818e-04 6.578139400737e-03 0.0 
0.0 0.0 -9.956198530692e-04 
-8.650795473337e-04 1.875435944103e-04 0.0 
1.875435944103e-04 5.670505538654e-03 0.0 
0.0 0.0 -8.643287579461e-04 
-6.358273554876e-04 1.861975192937e-04 0.0 
1.861975192937e-04 4.071155698746e-03 0.0 
0.0 0.0 -6.348607296063e-04 
-9.711834339353e-04 -2.012117718550e-04 0.0 
-2.012117718550e-04 6.487584772475e-03 0.0 
0.0 0.0 -9.699423737970e-04 
-8.101971348646e-04 1.641316877204e-04 0.0 
1.641316877204e-04 5.432076920036e-03 0.0 
0.0 0.0 -8.236220363599e-04 
-1.071983661584e-03 2.130963721819e-04 0.0 
2.130963721819e-04 7.145357950686e-03 0.0 
0.0 0.0 -1.076197569190e-03 
-8.626714893425e-04 -1.942405500946e-04 0.0 
-1.942405500946e-04 5.738328913224e-03 0.0 
0.0 0.0 -8.617642947636e-04 
-8.702702279884e-04 -1.921753086919e-04 0.0 
-1.921753086919e-04 5.792753129953e-03 0.0 
0.0 0.0 -8.694825820363e-04 
-4.645559553229e-04 -1.981925654935e-04 0.0 
-1.981925654935e-04 2.889937884798e-03 0.0 
0.0 0.0 -4.548485160793e-04 
-6.608554486331e-04 -1.864091804662e-04 0.0 
-1.864091804662e-04 4.336541054874e-03 0.0 
0.0 0.0 -6.598952468720e-04 
-8.926027030231e-04 1.843043537544e-04 0.0 
1.843043537544e-04 5.864339266433e-03 0.0 
0.0 0.0 -8.930692851043e-04 
-9.679615503639e-04 1.696948557832e-04 0.0 
1.696948557832e-04 6.395623785343e-03 0.0 
0.0 0.0 -9.615701295831e-04 
-9.079120183865e-04 1.806035671013e-04 0.0 
1.806035671013e-04 6.008465197653e-03 0.0 
0.0 0.0 -8.972249362023e-04 
-4.966173735405e-04 -1.549710521065e-04 0.0 
-1.549710521065e-04 3.153972529156e-03 0.0 
0.0 0.0 -4.879487645214e-04 
-9.010013592765e-04 1.886793445213e-04 0.0 
1.886793445213e-04 5.923625585035e-03 0.0 
0.0 0.0 -9.007118478549e-04 
-5.518253028037e-04 -1.783371210293e-04 0.0 
-1.783371210293e-04 3.577417440001e-03 0.0 
0.0 0.0 -5.517684601482e-04 
-2.845535083016e-04 1.977607623022e-04 0.0 
1.977607623022e-04 1.633750881917e-03 0.0 
0.0 0.0 -2.811347238918e-04 
-1.188918642902e-03 -1.918974946843e-04 0.0 
-1.918974946843e-04 8.111302423947e-03 0.0 
0.0 0.0 -1.202908440308e-03 
-3.019785591690e-04 1.950774455603e-04 0.0 
1.950774455603e-04 1.726883632229e-03 0.0 
0.0 0.0 -3.019870735033e-04 
-5.828626320579e-04 1.860512938998e-04 0.0 
1.860512938998e-04 3.705650589538e-03 0.0 
0.0 0.0 -5.822209219963e-04 
-8.781768956791e-04 -1.986806572288e-04 0.0 
-1.986806572288e-04 5.833892611307e-03 0.0 
0.0 0.0 -8.766521650092e-04 
-5.060723315699e-04 1.405250353070e-04 0.0 
1.405250353070e-04 3.287884117067e-03 0.0 
0.0 0.0 -5.239962781855e-04 
-8.898132346489e-04 -1.977943572352e-04 0.0 
-1.977943572352e-04 5.946896776319e-03 0.0 
0.0 0.0 -8.905656347129e-04 
-4.258375091185e-04 -2.178895733922e-04 0.0 
-2.178895733922e-04 2.688533932087e-03 0.0 
0.0 0.0 -4.282508963332e-04 
-7.578747057613e-04 -1.654300402080e-04 0.0 
-1.654300402080e-04 5.036141076678e-03 0.0 
0.0 0.0 -7.823486082854e-04 
-9.004251462807e-04 -1.892315142781e-04 0.0 
-1.892315142781e-04 5.992307029229e-03 0.0 
0.0 0.0 -8.981647654366e-04 
-7.810617461966e-04 -1.867589919143e-04 0.0 
-1.867589919143e-04 5.170374097518e-03 0.0 
0.0 0.0 -7.800125773855e-04 
-8.113930582064e-04 -1.934831491269e-04 0.0 
-1.934831491269e-04 5.398532171848e-03 0.0 
0.0 0.0 -8.126672281948e-04 
-1.456223754453e-04 -1.153284200368e-04 0.0 
-1.153284200368e-04 8.334024863152e-04 0.0 
0.0 0.0 -1.489310416055e-04 
-1.183619524390e-03 -1.995906802130e-04 0.0 
-1.995906802130e-04 7.793015624773e-03 0.0 
0.0 0.0 -1.152567315725e-03 
-6.518619288048e-04 -1.801864724235e-04 0.0 
-1.801864724235e-04 4.278312019353e-03 0.0 
0.0 0.0 -6.514572604261e-04 
-1.161957516655e-03 2.065796963047e-04 0.0 
2.065796963047e-04 7.737413579119e-03 0.0 
0.0 0.0 -1.154039482800e-03 
-9.839722502603e-04 -1.958677314331e-04 0.0 
-1.958677314331e-04 6.578387584555e-03 0.0 
0.0 0.0 -9.821191134873e-04 
-9.294100606496e-04 1.930061835790e-04 0.0 
1.930061835790e-04 6.122204066633e-03 0.0 
0.0 0.0 -9.293965016571e-04 
-9.285061071557e-04 -1.774497838441e-04 0.0 
-1.774497838441e-04 6.189509746344e-03 0.0 
0.0 0.0 -9.268654845074e-04 
-5.996189068560e-04 1.852055889782e-04 0.0 
1.852055889782e-04 3.820597089734e-03 0.0 
0.0 0.0 -5.989583036242e-04 
-1.944838745679e-04 1.584109702943e-04 0.0 
1.584109702943e-04 1.163625171840e-03 0.0 
0.0 0.0 -2.103425724855e-04 
-1.545095455242e-04 1.193388759037e-04 0.0 
1.193388759037e-04 6.563556231282e-04 0.0 
0.0 0.0 -1.599169489567e-04 
-9.548054477989e-04 1.928585704838e-04 0.0 
1.928585704838e-04 6.318843775437e-03 0.0 
0.0 0.0 -9.583065114986e-04 
-1.160173340718e-03 1.884012827660e-04 0.0 
1.884012827660e-04 7.692007981726e-03 0.0 
0.0 0.0 -1.148056181429e-03 
-5.412400896945e-04 -1.740896251805e-04 0.0 
-1.740896251805e-04 3.519775267643e-03 0.0 
0.0 0.0 -5.426247857783e-04 
-1.000629830532e-03 1.900148255986e-04 0.0 
1.900148255986e-04 6.622819157878e-03 0.0 
0.0 0.0 -1.000702849114e-03 
-5.014074309498e-04 1.897737110036e-04 0.0 
1.897737110036e-04 3.104700833587e-03 0.0 
0.0 0.0 -5.002094317253e-04 
-1.008257874699e-03 -1.995045898855e-04 0.0 
-1.995045898855e-04 6.739421236299e-03 0.0 
0.0 0.0 -1.005614027492e-03 
-1.275786431468e-03 1.088711895384e-04 0.0 
1.088711895384e-04 8.693642459064e-03 0.0 
0.0 0.0 -1.266534580134e-03 
-5.404710541836e-05 1.564499946379e-05 0.0 
1.564499946379e-05 2.310460762638e-04 0.0 
0.0 0.0 -4.512473402930e-05 
-1.341620833825e-03 -3.423569445624e-05 0.0 
-3.423569445624e-05 8.854172159817e-03 0.0 
0.0 0.0 -1.341620833825e-03 
-1.340051318819e-03 3.419351748214e-06 0.0 
3.419351748214e-06 8.881496154702e-03 0.0 
0.0 0.0 -1.340051318819e-03 
-8.003500561082e-04 -1.973446332083e-04 0.0 
-1.973446332083e-04 5.182732733425e-03 0.0 
0.0 0.0 -7.955197795907e-04 
-6.427190039752e-04 -1.771623886154e-04 0.0 
-1.771623886154e-04 4.219584582941e-03 0.0 
0.0 0.0 -6.428246066218e-04 
-9.539959357727e-04 -1.903436421629e-04 0.0 
-1.903436421629e-04 6.384067375959e-03 0.0 
0.0 0.0 -9.543595451430e-04 
-6.046483611248e-04 -1.904684548622e-04 0.0 
-1.904684548622e-04 3.941030960147e-03 0.0 
0.0 0.0 -6.041149214933e-04 
-2.015327089857e-04 -1.787857606077e-04 0.0 
-1.787857606077e-04 1.215175486256e-03 0.0 
0.0 0.0 -2.095884814006e-04 
-1.358502302165e-04 -1.652436952664e-04 0.0 
-1.652436952664e-04 5.860561493667e-04 0.0 
0.0 0.0 -1.201211790779e-04 
-1.224116731780e-03 -1.601620163346e-04 0.0 
-1.601620163346e-04 8.159917680932e-03 0.0 
0.0 0.0 -1.209499414335e-03 
-9.670306227229e-04 -2.102097021759e-04 0.0 
-2.102097021759e-04 6.456763428288e-03 0.0 
0.0 0.0 -9.648175333861e-04 
-7.505793698933e-04 -1.832067976458e-04 0.0 
-1.832067976458e-04 4.862883335491e-03 0.0 
0.0 0.0 -7.224789237172e-04 
-1.308106101880e-03 -9.564346375639e-06 0.0 
-9.564346375639e-06 9.104818726286e-03 0.0 
0.0 0.0 -1.323661129950e-03 
-3.723881451927e-04 -2.095753772030e-04 0.0 
-2.095753772030e-04 2.251170567838e-03 0.0 
0.0 0.0 -3.615704333793e-04 
-1.338587368780e-03 -1.150799812337e-05 0.0 
-1.150799812337e-05 9.097604261257e-03 0.0 
0.0 0.0 -1.324908485340e-03 
-9.656783964584e-04 1.862090128514e-04 0.0 
1.862090128514e-04 6.391762053029e-03 0.0 
0.0 0.0 -9.670422101491e-04 
-6.322851321105e-04 -1.782670103148e-04 0.0 
-1.782670103148e-04 4.156088603212e-03 0.0 
0.0 0.0 -6.336394413500e-04 
-9.215195886709e-04 1.858262024962e-04 0.0 
1.858262024962e-04 6.065159777351e-03 0.0 
0.0 0.0 -9.212972352143e-04 
-6.095245585205e-04 1.817233461859e-04 0.0 
1.817233461859e-04 3.888318231073e-03 0.0 
0.0 0.0 -6.094834619596e-04 
-3.161972729321e-04 2.118996039674e-04 0.0 
2.118996039674e-04 1.862493464303e-03 0.0 
0.0 0.0 -3.160312483096e-04 
-5.714172847083e-04 1.885506067566e-04 0.0 
1.885506067566e-04 3.631122930928e-03 0.0 
0.0 0.0 -5.728018649490e-04 
-1.022496320278e-03 1.929428534962e-04 0.0 
1.929428534962e-04 6.770909400157e-03 0.0 
0.0 0.0 -1.023749757194e-03 
-1.150976429886e-03 -2.032424840275e-04 0.0 
-2.032424840275e-04 7.758939253249e-03 0.0 
0.0 0.0 -1.155390781228e-03 
-6.187002398341e-04 1.818215273869e-04 0.0 
1.818215273869e-04 3.950326342677e-03 0.0 
0.0 0.0 -6.181853003094e-04 
-1.037480631671e-03 1.889356953886e-04 0.0 
1.889356953886e-04 6.873009589990e-03 0.0 
0.0 0.0 -1.036271578259e-03 
0.0 0.0 0.0 
0.0 0.0 0.0 
0.0 0.0 0.0 
-6.276661230388e-04 1.792694929945e-04 0.0 
1.792694929945e-04 4.010933515786e-03 0.0 
0.0 0.0 -6.266282162577e-04 
-1.067618640436e-03 -2.059979659696e-04 0.0 
-2.059979659696e-04 7.168819223232e-03 0.0 
0.0 0.0 -1.066385360782e-03 
-5.602476022505e-04 1.913249262792e-04 0.0 
1.913249262792e-04 3.548859392025e-03 0.0 
0.0 0.0 -5.616069800515e-04 
-5.034317169211e-04 -1.766316395616e-04 0.0 
-1.766316395616e-04 3.262973984744e-03 0.0 
0.0 0.0 -5.052880831394e-04 
-9.189958469858e-04 -1.860644213167e-04 0.0 
-1.860644213167e-04 6.131142810909e-03 0.0 
0.0 0.0 -9.187611816440e-04 
-2.798438621563e-04 2.024562614015e-04 0.0 
2.024562614015e-04 1.659164072585e-03 0.0 
0.0 0.0 -2.979563435985e-04 
-4.237702008277e-04 -1.193704641066e-04 0.0 
-1.193704641066e-04 2.381332436810e-03 0.0 
0.0 0.0 -3.867203691650e-04 
-3.975764326489e-04 -1.798608620237e-04 0.0 
-1.798608620237e-04 2.707475849368e-03 0.0 
0.0 0.0 -4.195921675762e-04 
-4.963058465455e-04 1.849091904100e-04 0.0 
1.849091904100e-04 3.099739962777e-03 0.0 
0.0 0.0 -4.973376392308e-04 
-8.459383987434e-04 -1.907145818210e-04 0.0 
-1.907145818210e-04 5.622335891913e-03 0.0 
0.0 0.0 -8.444178005646e-04 
-8.162577903273e-04 1.917219888079e-04 0.0 
1.917219888079e-04 5.328762658263e-03 0.0 
0.0 0.0 -8.147327860212e-04 
-1.033805230839e-03 -2.014200165048e-04 0.0 
-2.014200165048e-04 6.928519613423e-03 0.0 
0.0 0.0 -1.033897369924e-03 
-1.221633880436e-03 1.327525419154e-04 0.0 
1.327525419154e-04 8.105302040654e-03 0.0 
0.0 0.0 -1.224260864640e-03 
-4.437323643489e-04 1.289034247085e-04 0.0 
1.289034247085e-04 2.824272473931e-03 0.0 
0.0 0.0 -4.570814260163e-04 
-1.026282183515e-03 -2.469645237371e-04 0.0 
-2.469645237371e-04 6.837925098464e-03 0.0 
0.0 0.0 -1.028620860735e-03 
-1.232340650598e-03 1.232265702215e-04 0.0 
1.232265702215e-04 8.131356307241e-03 0.0 
0.0 0.0 -1.228414553209e-03 
-5.714514367838e-04 1.903885160707e-04 0.0 
1.903885160707e-04 3.625837711505e-03 0.0 
0.0 0.0 -5.707601703556e-04 
-2.135565257302e-04 2.102195190307e-04 0.0 
2.102195190307e-04 1.190116728888e-03 0.0 
0.0 0.0 -2.192200328082e-04 
-5.324811030586e-04 -1.564509498562e-04 0.0 
-1.564509498562e-04 3.456619354267e-03 0.0 
0.0 0.0 -5.330167430730e-04 
-8.085387987626e-04 -1.885177874860e-04 0.0 
-1.885177874860e-04 5.361946972923e-03 0.0 
0.0 0.0 -8.082977034869e-04 
-1.047924752938e-03 1.956397865657e-04 0.0 
1.956397865657e-04 6.924645327261e-03 0.0 
0.0 0.0 -1.043024347135e-03 
-8.126482086337e-04 1.904262971100e-04 0.0 
1.904262971100e-04 5.297787546946e-03 0.0 
0.0 0.0 -8.108276944599e-04 
-2.458088517301e-04 -1.138196901462e-04 0.0 
-1.138196901462e-04 1.452613291321e-03 0.0 
0.0 0.0 -2.343049260409e-04 
-9.102031090638e-04 -2.013755147984e-04 0.0 
-2.013755147984e-04 6.070783801232e-03 0.0 
0.0 0.0 -9.096068616062e-04 
-3.560167896549e-04 2.151383842189e-04 0.0 
2.151383842189e-04 2.131802985450e-03 0.0 
0.0 0.0 -3.508512830963e-04 
-8.140185260576e-04 -1.926928755880e-04 0.0 
-1.926928755880e-04 5.389465675351e-03 0.0 
0.0 0.0 -8.123573650817e-04 
-8.767776688194e-04 2.024483433581e-04 0.0 
2.024483433581e-04 5.751188307413e-03 0.0 
0.0 0.0 -8.756097305517e-04 
-9.509565837624e-04 1.896974231217e-04 0.0 
1.896974231217e-04 6.265385166788e-03 0.0 
0.0 0.0 -9.491391837787e-04 
-9.274205801970e-04 -1.707730266069e-04 0.0 
-1.707730266069e-04 6.212775611049e-03 0.0 
0.0 0.0 -9.494079867578e-04 
-4.906398001625e-04 -1.749565167891e-04 0.0 
-1.749565167891e-04 3.179973922092e-03 0.0 
0.0 0.0 -4.933620968966e-04 
-2.484574972914e-04 1.853035354059e-04 0.0 
1.853035354059e-04 1.372800011643e-03 0.0 
0.0 0.0 -2.459554264611e-04 
-9.419221611826e-04 2.078178624915e-04 0.0 
2.078178624915e-04 6.213877196692e-03 0.0 
0.0 0.0 -9.415329344942e-04 
-3.796687070467e-04 1.987051729866e-04 0.0 
1.987051729866e-04 2.349690832434e-03 0.0 
0.0 0.0 -3.857152600925e-04 
-1.079925297708e-04 2.094696628342e-04 0.0 
2.094696628342e-04 4.385964497386e-04 0.0 
0.0 0.0 -1.205192217350e-04 
-1.217003238982e-03 1.715975421034e-04 0.0 
1.715975421034e-04 8.115367819263e-03 0.0 
0.0 0.0 -1.223389224544e-03 
-1.152822377069e-03 1.914748152748e-04 0.0 
1.914748152748e-04 7.732583850779e-03 0.0 
0.0 0.0 -1.157435638217e-03 
-9.394432781398e-05 -1.620283716039e-05 0.0 
-1.620283716039e-05 3.135234532214e-04 0.0 
0.0 0.0 -9.410533946034e-05 
-9.757772886518e-04 -2.084469974537e-04 0.0 
-2.084469974537e-04 6.524951865197e-03 0.0 
0.0 0.0 -9.758309632659e-04 
-3.896708157340e-04 -1.763476574511e-04 0.0 
-1.763476574511e-04 2.457499880861e-03 0.0 
0.0 0.0 -3.887237773309e-04 
-4.187709573894e-04 2.113072011152e-04 0.0 
2.113072011152e-04 2.560835545987e-03 0.0 
0.0 0.0 -4.195855280820e-04 
-1.100445862982e-03 1.933828922323e-04 0.0 
1.933828922323e-04 7.327011461119e-03 0.0 
0.0 0.0 -1.100737838324e-03 
-9.470047501208e-04 -1.877990577056e-04 0.0 
-1.877990577056e-04 6.324416518396e-03 0.0 
0.0 0.0 -9.467522836136e-04 
-1.064750852218e-03 1.888034529427e-04 0.0 
1.888034529427e-04 7.071897550473e-03 0.0 
0.0 0.0 -1.064854740548e-03 
-6.246803119835e-04 -1.813696095215e-04 0.0 
-1.813696095215e-04 4.082455365693e-03 0.0 
0.0 0.0 -6.238888496032e-04 
-7.066733059565e-04 2.079397955112e-05 0.0 
2.079397955112e-05 4.859565834242e-03 0.0 
0.0 0.0 -7.105917616147e-04 
-1.294146159652e-03 -3.864697892398e-05 0.0 
-3.864697892398e-05 8.444131533072e-03 0.0 
0.0 0.0 -1.281538364137e-03 
-3.542163761970e-04 2.028127844720e-04 0.0 
2.028127844720e-04 2.096644602115e-03 0.0 
0.0 0.0 -3.541816848729e-04 
-1.125206372116e-03 -1.754172072947e-04 0.0 
-1.754172072947e-04 7.521489804146e-03 0.0 
0.0 0.0 -1.121221582973e-03 
-8.491762958406e-04 -1.918772025260e-04 0.0 
-1.918772025260e-04 5.637172269943e-03 0.0 
0.0 0.0 -8.477100451819e-04 
-2.548170229509e-04 1.666770740484e-04 0.0 
1.666770740484e-04 1.576109573106e-03 0.0 
0.0 0.0 -2.892354545592e-04 
-1.017444257442e-03 1.870623454717e-04 0.0 
1.870623454717e-04 6.717348757917e-03 0.0 
0.0 0.0 -1.015166614560e-03 
-6.631831128869e-04 1.857158928685e-04 0.0 
1.857158928685e-04 4.263729749942e-03 0.0 
0.0 0.0 -6.628028861993e-04 
-1.684732311542e-04 2.043772270918e-05 0.0 
2.043772270918e-05 7.313008481942e-04 0.0 
0.0 0.0 -1.790968519484e-04 
-5.636882380034e-04 1.819527752727e-04 0.0 
1.819527752727e-04 3.574156729662e-03 0.0 
0.0 0.0 -5.632129589051e-04 
-9.884210265131e-04 1.935912308442e-04 0.0 
1.935912308442e-04 6.630368017320e-03 0.0 
0.0 0.0 -9.915417172310e-04 
-1.024292652289e-03 -1.998354067082e-04 0.0 
-1.998354067082e-04 6.855679602380e-03 0.0 
0.0 0.0 -1.020980360542e-03 
-2.668718187998e-04 -1.887143997354e-04 0.0 
-1.887143997354e-04 1.647579462571e-03 0.0 
0.0 0.0 -2.713190868338e-04 
-7.786512140660e-04 -1.180089749439e-04 0.0 
-1.180089749439e-04 5.426201302135e-03 0.0 
0.0 0.0 -8.076288038732e-04 
-1.074110154891e-03 1.985848318847e-04 0.0 
1.985848318847e-04 7.134481455861e-03 0.0 
0.0 0.0 -1.071782534217e-03 
-1.102896231441e-03 -1.801608730721e-04 0.0 
-1.801608730721e-04 7.447194143767e-03 0.0 
0.0 0.0 -1.109893377180e-03 
-5.341916501155e-04 1.805786256932e-04 0.0 
1.805786256932e-04 3.363027861628e-03 0.0 
0.0 0.0 -5.351738145117e-04 
-4.305045173780e-04 1.931657245159e-04 0.0 
1.931657245159e-04 2.621086994850e-03 0.0 
0.0 0.0 -4.333934152438e-04 
-8.799765506504e-04 1.996562479781e-04 0.0 
1.996562479781e-04 5.778741680504e-03 0.0 
0.0 0.0 -8.786267582723e-04 
-9.199821990293e-04 -2.154181819420e-04 0.0 
-2.154181819420e-04 6.117399840533e-03 0.0 
0.0 0.0 -9.278975173457e-04 
-1.674260928547e-04 -1.501342801196e-05 0.0 
-1.501342801196e-05 7.277150164985e-04 0.0 
0.0 0.0 -1.762926913357e-04 
-1.274115998275e-03 1.675675276393e-06 0.0 
1.675675276393e-06 8.713591812970e-03 0.0 
0.0 0.0 -1.269179263065e-03 
-1.298508155882e-03 1.869502884704e-05 0.0 
1.869502884704e-05 8.443421948614e-03 0.0 
0.0 0.0 -1.281197857596e-03 
-8.292940884850e-04 -1.917175163011e-04 0.0 
-1.917175163011e-04 5.414946975704e-03 0.0 
0.0 0.0 -8.387747867703e-04 
-1.244952979202e-03 -2.282010355606e-04 0.0 
-2.282010355606e-04 8.516132030964e-03 0.0 
0.0 0.0 -1.255037608383e-03 
-1.285595461777e-03 8.758262611812e-05 0.0 
8.758262611812e-05 8.470225568410e-03 0.0 
0.0 0.0 -1.285499913836e-03 
-6.550628368552e-04 1.846091374224e-04 0.0 
1.846091374224e-04 4.205898052995e-03 0.0 
0.0 0.0 -6.542748834104e-04 
-6.160633711768e-04 -1.792561832397e-04 0.0 
-1.792561832397e-04 4.023102319788e-03 0.0 
0.0 0.0 -6.153450468602e-04 
-1.283033344166e-03 -3.678337033124e-05 0.0 
-3.678337033124e-05 8.728014596535e-03 0.0 
0.0 0.0 -1.265535665854e-03 
0.0 0.0 0.0 
0.0 0.0 0.0 
0.0 0.0 0.0 
-3.991066787644e-04 2.089649564116e-04 0.0 
2.089649564116e-04 2.425063075378e-03 0.0 
0.0 0.0 -3.941707820484e-04 
-8.514609378297e-04 2.123409869842e-04 0.0 
2.123409869842e-04 5.409120252618e-03 0.0 
0.0 0.0 -8.329475646481e-04 
-5.302799896406e-04 -1.732779148191e-04 0.0 
-1.732779148191e-04 3.448271069514e-03 0.0 
0.0 0.0 -5.313546330462e-04 
-5.563051708704e-04 1.844916340551e-04 0.0 
1.844916340551e-04 3.512912497570e-03 0.0 
0.0 0.0 -5.546931404480e-04 
-3.415568276898e-04 -1.308054941934e-04 0.0 
-1.308054941934e-04 1.889315350148e-03 0.0 
0.0 0.0 -3.196518454468e-04 
-3.575678493770e-04 -1.815157908242e-04 0.0 
-1.815157908242e-04 2.264784395116e-03 0.0 
0.0 0.0 -3.528063275151e-04 
-8.197996438863e-04 -1.649479054574e-04 0.0 
-1.649479054574e-04 5.559213606059e-03 0.0 
0.0 0.0 -8.290026594306e-04 
-5.969369916122e-04 -1.873932769643e-04 0.0 
-1.873932769643e-04 3.888936242251e-03 0.0 
0.0 0.0 -5.962921515785e-04 
-4.656748358331e-04 1.698564554769e-04 0.0 
1.698564554769e-04 2.821912241395e-03 0.0 
0.0 0.0 -4.583473518421e-04 
-1.081990949278e-03 2.020316486048e-04 0.0 
2.020316486048e-04 7.171935137813e-03 0.0 
0.0 0.0 -1.077832113627e-03 
-1.313638198111e-03 -3.076900631441e-06 0.0 
-3.076900631441e-06 9.102354608081e-03 0.0 
0.0 0.0 -1.324978758543e-03 
-1.341095485501e-03 -7.065196985574e-05 0.0 
-7.065196985574e-05 9.093683970561e-03 0.0 
0.0 0.0 -1.320624918399e-03 
-6.462169745443e-04 1.855628978644e-04 0.0 
1.855628978644e-04 4.145339439620e-03 0.0 
0.0 0.0 -6.457427040837e-04 
-7.708747032324e-04 1.041783851500e-04 0.0 
1.041783851500e-04 4.982091340538e-03 0.0 
0.0 0.0 -7.877541558771e-04 
-8.769640556113e-05 6.178156653804e-05 0.0 
6.178156653804e-05 4.782988861832e-04 0.0 
0.0 0.0 -9.215226380795e-05 
-2.633621526955e-04 -2.203101725457e-04 0.0 
-2.203101725457e-04 1.488332341374e-03 0.0 
0.0 0.0 -2.565684379859e-04 
-2.684503074307e-04 -1.015967117788e-04 0.0 
-1.015967117788e-04 1.723596733047e-03 0.0 
0.0 0.0 -2.726290318112e-04 
-2.937144985059e-04 -1.893501464246e-04 0.0 
-1.893501464246e-04 1.729218905568e-03 0.0 
0.0 0.0 -2.902597925154e-04 
-9.132607495649e-04 -1.959093978123e-04 0.0 
-1.959093978123e-04 6.073898974161e-03 0.0 
0.0 0.0 -9.116044729693e-04 
-5.464820601322e-04 1.827990156846e-04 0.0 
1.827990156846e-04 3.450683961523e-03 0.0 
0.0 0.0 -5.459662534218e-04 
-5.889189184564e-04 -1.828572680718e-04 0.0 
-1.828572680718e-04 3.834736165113e-03 0.0 
0.0 0.0 -5.879858557453e-04 
-1.839870051548e-04 -1.451969745408e-04 0.0 
-1.451969745408e-04 1.010884541365e-03 0.0 
0.0 0.0 -1.607067486349e-04 
-1.189299804196e-03 3.101361533276e-05 0.0 
3.101361533276e-05 7.702189552740e-03 0.0 
0.0 0.0 -1.176327079312e-03 
-5.798619533544e-04 -1.808661495353e-04 0.0 
-1.808661495353e-04 3.773380412779e-03 0.0 
0.0 0.0 -5.792774345575e-04 
-1.207908513450e-03 1.972281472903e-04 0.0 
1.972281472903e-04 8.083641670665e-03 0.0 
0.0 0.0 -1.212957849656e-03 
-1.102884565855e-03 -1.433383463998e-04 0.0 
-1.433383463998e-04 7.411218118786e-03 0.0 
0.0 0.0 -1.117460450001e-03 
-1.327052993259e-03 5.039016474574e-05 0.0 
5.039016474574e-05 9.117456944274e-03 0.0 
0.0 0.0 -1.319418651152e-03 
-1.323160438534e-03 4.113209317417e-05 0.0 
4.113209317417e-05 9.111232254039e-03 0.0 
0.0 0.0 -1.324849633189e-03 
-8.429214028197e-04 1.551938721599e-04 0.0 
1.551938721599e-04 5.556754036543e-03 0.0 
0.0 0.0 -8.315138651140e-04 
-6.054182665991e-04 -1.761595556497e-04 0.0 
-1.761595556497e-04 3.962557590825e-03 0.0 
0.0 0.0 -6.063493599945e-04 
-3.773225086312e-04 1.540184482811e-04 0.0 
1.540184482811e-04 2.369883884178e-03 0.0 
0.0 0.0 -3.884917441798e-04 
-6.362526417499e-04 1.880822988670e-04 0.0 
1.880822988670e-04 4.081289822239e-03 0.0 
0.0 0.0 -6.367902913543e-04 
-1.343328350294e-03 -2.242232029302e-05 0.0 
-2.242232029302e-05 8.871791449146e-03 0.0 
0.0 0.0 -1.343328350294e-03 
-1.941237960476e-04 -2.080169990243e-04 0.0 
-2.080169990243e-04 1.015510769409e-03 0.0 
0.0 0.0 -1.893367542308e-04 
-2.245210048569e-04 -1.692984650136e-04 0.0 
-1.692984650136e-04 1.259236592297e-03 0.0 
0.0 0.0 -2.228547875044e-04 
-1.167115373107e-03 -1.495116845835e-04 0.0 
-1.495116845835e-04 7.791699083978e-03 0.0 
0.0 0.0 -1.156027955174e-03 
-7.604196719999e-04 1.094016003118e-05 0.0 
1.094016003118e-05 5.257478836262e-03 0.0 
0.0 0.0 -7.715229432315e-04 
-1.218850929264e-03 2.058644676408e-04 0.0 
2.058644676408e-04 8.144525734943e-03 0.0 
0.0 0.0 -1.219279742240e-03 
-1.071479820018e-03 -2.036323164842e-04 0.0 
-2.036323164842e-04 7.177512432405e-03 0.0 
0.0 0.0 -1.069611963270e-03 
-1.173316210076e-03 1.967322517175e-04 0.0 
1.967322517175e-04 7.835584524311e-03 0.0 
0.0 0.0 -1.175036385391e-03 
-1.118458415257e-03 -2.207277967068e-04 0.0 
-2.207277967068e-04 7.508134580034e-03 0.0 
0.0 0.0 -1.113576918908e-03 
-8.412072480000e-04 1.822595111316e-04 0.0 
1.822595111316e-04 5.484810982914e-03 0.0 
0.0 0.0 -8.542750875040e-04 
-4.656106938285e-04 -1.713235230467e-04 0.0 
-1.713235230467e-04 3.001776381545e-03 0.0 
0.0 0.0 -4.674384380614e-04 
-4.697017346435e-04 1.848050694814e-04 0.0 
1.848050694814e-04 2.920597782787e-03 0.0 
0.0 0.0 -4.715697005044e-04 
-9.776991098989e-04 1.861960494422e-04 0.0 
1.861960494422e-04 6.549106674112e-03 0.0 
0.0 0.0 -9.963059934037e-04 
-1.137349181097e-03 -2.318464835195e-04 0.0 
-2.318464835195e-04 7.668040183404e-03 0.0 
0.0 0.0 -1.142506377625e-03 
-7.233340711098e-04 3.952444560700e-05 0.0 
3.952444560700e-05 4.569127107640e-03 0.0 
0.0 0.0 -7.345222264051e-04 
-7.670993363219e-04 9.419055026096e-06 0.0 
9.419055026096e-06 5.242908179151e-03 0.0 
0.0 0.0 -7.676068998053e-04 
-8.154774784067e-04 -6.428956903028e-05 0.0 
-6.428956903028e-05 5.577286133226e-03 0.0 
0.0 0.0 -8.242303029217e-04 
-8.631530775677e-04 -2.400243606270e-04 0.0 
-2.400243606270e-04 5.666444636218e-03 0.0 
0.0 0.0 -8.467401457521e-04 
-2.520894261651e-04 1.671748571763e-04 0.0 
1.671748571763e-04 1.368563506489e-03 0.0 
0.0 0.0 -2.397236108670e-04 
-4.305788114654e-04 1.772776305973e-04 0.0 
1.772776305973e-04 2.648122848143e-03 0.0 
0.0 0.0 -4.335179088089e-04 
-1.282591321733e-03 8.806658448807e-05 0.0 
8.806658448807e-05 8.712918664304e-03 0.0 
0.0 0.0 -1.269310366786e-03 
-9.079866980401e-04 -2.164843828384e-04 0.0 
-2.164843828384e-04 6.067165963346e-03 0.0 
0.0 0.0 -9.150577043801e-04 
-1.296402067617e-03 1.470406796951e-04 0.0 
1.470406796951e-04 8.670707295504e-03 0.0 
0.0 0.0 -1.295322057178e-03 
-1.218050556302e-03 -1.658124096046e-04 0.0 
-1.658124096046e-04 8.300187960416e-03 0.0 
0.0 0.0 -1.215577547940e-03 
-1.017494637499e-03 -1.921677140224e-04 0.0 
-1.921677140224e-04 6.789033766802e-03 0.0 
0.0 0.0 -1.012565562176e-03 
-1.225370251071e-03 -1.480578321934e-04 0.0 
-1.480578321934e-04 8.186203026488e-03 0.0 
0.0 0.0 -1.214907066889e-03 
-6.126094482220e-04 1.499930831992e-04 0.0 
1.499930831992e-04 3.952786327319e-03 0.0 
0.0 0.0 -6.304496659280e-04 
-5.949124951754e-04 1.553635317388e-04 0.0 
1.553635317388e-04 3.760564116659e-03 0.0 
0.0 0.0 -5.666856080635e-04 
-1.240251440986e-03 1.401266566938e-04 0.0 
1.401266566938e-04 8.128078577480e-03 0.0 
0.0 0.0 -1.226851238141e-03 
-8.681779237156e-05 6.361966938885e-05 0.0 
6.361966938885e-05 2.955256088907e-04 0.0 
0.0 0.0 -8.944620707962e-05 
-3.994468741372e-04 -6.433767031829e-05 0.0 
-6.433767031829e-05 2.663800316761e-03 0.0 
0.0 0.0 -4.071640756073e-04 
-1.342405754833e-03 -1.165290042756e-05 0.0 
-1.165290042756e-05 8.847278625245e-03 0.0 
0.0 0.0 -1.342405754833e-03 
-2.282183831112e-04 -1.931913246920e-04 0.0 
-1.931913246920e-04 1.161289386138e-03 0.0 
0.0 0.0 -2.265802816212e-04 
-7.779914563104e-04 2.250840471903e-05 0.0 
2.250840471903e-05 4.976100040424e-03 0.0 
0.0 0.0 -7.870118106326e-04 
-1.235301241696e-03 -4.597267687938e-05 0.0 
-4.597267687938e-05 8.352549433381e-03 0.0 
0.0 0.0 -1.213461936786e-03 
-1.459711515859e-04 1.404844411891e-04 0.0 
1.404844411891e-04 8.229618690863e-04 0.0 
0.0 0.0 -1.562362318668e-04 
-9.769154927044e-05 -4.466849095833e-05 0.0 
-4.466849095833e-05 5.434427193163e-04 0.0 
0.0 0.0 -9.998712429274e-05 
-1.319764072821e-03 -1.098631366031e-04 0.0 
-1.098631366031e-04 9.086194502793e-03 0.0 
0.0 0.0 -1.324389858384e-03 
-7.180738404627e-04 8.985801949801e-05 0.0 
8.985801949801e-05 4.589525670273e-03 0.0 
0.0 0.0 -7.294542769151e-04 
-1.252043255197e-03 2.202164088421e-04 0.0 
2.202164088421e-04 8.539160480101e-03 0.0 
0.0 0.0 -1.261418349269e-03 
-1.248383097869e-03 1.112925246997e-05 0.0 
1.112925246997e-05 8.098072079257e-03 0.0 
0.0 0.0 -1.231858344535e-03 
-7.209227692000e-04 -5.510654877102e-05 0.0 
-5.510654877102e-05 4.575450219389e-03 0.0 
0.0 0.0 -7.289279708929e-04 
-7.887389828812e-05 -1.017830300424e-05 0.0 
-1.017830300424e-05 5.525360744204e-04 0.0 
0.0 0.0 -9.740250892546e-05 
-1.285641185581e-03 -9.669087187551e-05 0.0 
-9.669087187551e-05 8.464210102403e-03 0.0 
0.0 0.0 -1.284140717545e-03 
-2.442885352264e-04 -2.316128597143e-04 0.0 
-2.316128597143e-04 1.339036366238e-03 0.0 
0.0 0.0 -2.433545560381e-04 
-1.243394787484e-03 1.248159333678e-04 0.0 
1.248159333678e-04 8.192432393622e-03 0.0 
0.0 0.0 -1.232184317627e-03 
-1.343095105526e-03 -5.545911197484e-07 0.0 
-5.545911197484e-07 8.861098076103e-03 0.0 
0.0 0.0 -1.343095105526e-03 
-1.242483488035e-03 -1.476678323207e-04 0.0 
-1.476678323207e-04 8.164481882699e-03 0.0 
0.0 0.0 -1.225700354592e-03 
-3.053173479734e-04 1.995595624776e-04 0.0 
1.995595624776e-04 1.753941284829e-03 0.0 
0.0 0.0 -3.044764127662e-04 
-8.209179416884e-04 2.201614491102e-05 0.0 
2.201614491102e-05 5.636691216410e-03 0.0 
0.0 0.0 -8.279144014868e-04 
-6.598213782971e-04 -1.321361913960e-04 0.0 
-1.321361913960e-04 4.200506500251e-03 0.0 
0.0 0.0 -6.271989868224e-04 
-1.073009497438e-03 -2.016133877390e-04 0.0 
-2.016133877390e-04 7.190278966189e-03 0.0 
0.0 0.0 -1.077599360682e-03 
-1.322804215539e-03 -9.225806505936e-05 0.0 
-9.225806505936e-05 9.099454060859e-03 0.0 
0.0 0.0 -1.326997735404e-03 
-1.068734190482e-03 1.262415369069e-04 0.0 
1.262415369069e-04 7.132952485478e-03 0.0 
0.0 0.0 -1.061614915164e-03 
-1.337358869243e-03 1.104149306633e-04 0.0 
1.104149306633e-04 9.089889591754e-03 0.0 
0.0 0.0 -1.325870641008e-03 
-1.438532979018e-04 1.783345522892e-04 0.0 
1.783345522892e-04 7.477808023261e-04 0.0 
0.0 0.0 -1.715795432680e-04 
-1.271233225915e-03 -1.249047643759e-04 0.0 
-1.249047643759e-04 8.707020070809e-03 0.0 
0.0 0.0 -1.277656510522e-03 
-3.430844418630e-04 1.264811275403e-04 0.0 
1.264811275403e-04 2.040518818998e-03 0.0 
0.0 0.0 -3.355960889912e-04 
-2.267326677211e-04 8.751186841265e-05 0.0 
8.751186841265e-05 1.117406703756e-03 0.0 
0.0 0.0 -2.298118214877e-04 
-1.280901782935e-03 -1.009695952617e-04 0.0 
-1.009695952617e-04 8.719202259105e-03 0.0 
0.0 0.0 -1.270335377537e-03 
-1.269212628500e-03 -5.703432125204e-05 0.0 
-5.703432125204e-05 8.728165820739e-03 0.0 
0.0 0.0 -1.270603359501e-03 
-1.290208848841e-03 -1.659042855401e-04 0.0 
-1.659042855401e-04 8.665328582140e-03 0.0 
0.0 0.0 -1.289850838753e-03 
-7.717572245572e-04 2.050611335138e-04 0.0 
2.050611335138e-04 5.043252484980e-03 0.0 
0.0 0.0 -7.762633204683e-04 
-8.522136042615e-04 2.002639843872e-04 0.0 
2.002639843872e-04 5.495330100218e-03 0.0 
0.0 0.0 -8.489529362435e-04 
-3.165071740037e-04 -2.111753426379e-04 0.0 
-2.111753426379e-04 1.888408226457e-03 0.0 
0.0 0.0 -3.134500106614e-04 
-1.262455248765e-03 -8.092303513725e-05 0.0 
-8.092303513725e-05 8.720636871640e-03 0.0 
0.0 0.0 -1.273041473476e-03 
-5.172296523503e-04 1.719980447266e-04 0.0 
1.719980447266e-04 3.374654497821e-03 0.0 
0.0 0.0 -5.357483711987e-04 
-1.781924616035e-04 -1.691974037748e-04 0.0 
-1.691974037748e-04 1.076416545497e-03 0.0 
0.0 0.0 -2.114276361914e-04 
-1.103945436021e-03 1.858035491712e-04 0.0 
1.858035491712e-04 7.419563175353e-03 0.0 
0.0 0.0 -1.110141529071e-03 
-7.006483677025e-04 -2.017256137277e-05 0.0 
-2.017256137277e-05 4.817249357728e-03 0.0 
0.0 0.0 -7.096328662732e-04 
-1.236750495474e-03 1.522707816399e-04 0.0 
1.522707816399e-04 8.254648441428e-03 0.0 
0.0 0.0 -1.237729719596e-03 
-1.313320395878e-03 -1.861843894466e-04 0.0 
-1.861843894466e-04 8.989774958204e-03 0.0 
0.0 0.0 -1.321509982054e-03 
-1.343732204276e-03 -8.189586176291e-06 0.0 
-8.189586176291e-06 8.864848236539e-03 0.0 
0.0 0.0 -1.343732204276e-03 
-2.113977103276e-05 -6.116564405319e-05 0.0 
-6.116564405319e-05 2.124468673954e-04 0.0 
0.0 0.0 -4.293446239042e-05 
-1.369574587126e-05 5.682883385809e-05 0.0 
5.682883385809e-05 6.671587994240e-05 0.0 
0.0 0.0 -2.272291460191e-05 
-7.269437089926e-04 -1.696449694041e-04 0.0 
-1.696449694041e-04 4.683701017331e-03 0.0 
0.0 0.0 -7.318233512793e-04 
-7.351939856936e-04 2.731264159549e-05 0.0 
2.731264159549e-05 4.828327016366e-03 0.0 
0.0 0.0 -7.096011290571e-04 
-1.343732204276e-03 1.179896387127e-05 0.0 
1.179896387127e-05 8.857063084495e-03 0.0 
0.0 0.0 -1.343732204276e-03 
-1.309711018183e-03 1.830632258289e-04 0.0 
1.830632258289e-04 8.985110969777e-03 0.0 
0.0 0.0 -1.321509982054e-03 
-7.839023714454e-05 1.530759167140e-04 0.0 
1.530759167140e-04 4.984351001574e-04 0.0 
0.0 0.0 -9.787861857360e-05 
0.0 0.0 0.0 
0.0 0.0 0.0 
0.0 0.0 0.0 
-1.240428741391e-03 1.261681395074e-04 0.0 
1.261681395074e-04 8.137366373926e-03 0.0 
0.0 0.0 -1.230181737024e-03 
-1.207075559038e-03 2.460354552528e-04 0.0 
2.460354552528e-04 8.184062138694e-03 0.0 
0.0 0.0 -1.209364118140e-03 
-2.516969952369e-04 -1.461428108360e-04 0.0 
-1.461428108360e-04 1.687102641450e-03 0.0 
0.0 0.0 -2.712674790923e-04 
-1.245262172265e-03 -1.311938195304e-04 0.0 
-1.311938195304e-04 8.282968492479e-03 0.0 
0.0 0.0 -1.240191881334e-03 
-8.815159713630e-04 -5.214653451830e-05 0.0 
-5.214653451830e-05 5.742054567636e-03 0.0 
0.0 0.0 -8.888375990210e-04 
-7.830091470663e-04 -1.948066662001e-04 0.0 
-1.948066662001e-04 5.082527524584e-03 0.0 
0.0 0.0 -7.610796297342e-04 
-9.561048422874e-04 9.798803026410e-05 0.0 
9.798803026410e-05 6.427121213030e-03 0.0 
0.0 0.0 -9.400782610458e-04 
-2.481095332731e-04 1.496361777490e-04 0.0 
1.496361777490e-04 1.515795619755e-03 0.0 
0.0 0.0 -2.626203152100e-04 
-1.010907895305e-03 -2.030439122721e-04 0.0 
-2.030439122721e-04 6.762603191826e-03 0.0 
0.0 0.0 -1.011657465016e-03 
-2.096777059838e-04 3.248157080114e-05 0.0 
3.248157080114e-05 1.393633952846e-03 0.0 
0.0 0.0 -2.181484037039e-04 
-6.792638343957e-04 -1.892634513453e-04 0.0 
-1.892634513453e-04 4.524953282507e-03 0.0 
0.0 0.0 -6.997415131527e-04 
-1.228132135990e-03 1.125898781112e-04 0.0 
1.125898781112e-04 8.215057351811e-03 0.0 
0.0 0.0 -1.240519096027e-03 
-1.189706231828e-03 -2.131151468577e-04 0.0 
-2.131151468577e-04 8.025000395541e-03 0.0 
0.0 0.0 -1.191726112421e-03 
-7.376716687014e-04 1.103821202308e-04 0.0 
1.103821202308e-04 4.884590449632e-03 0.0 
0.0 0.0 -7.690942022927e-04 
-8.794968587204e-04 -1.839618802493e-04 0.0 
-1.839618802493e-04 5.894695197839e-03 0.0 
0.0 0.0 -8.745659502648e-04 
-1.233301431487e-03 8.160038213143e-05 0.0 
8.160038213143e-05 8.358065301524e-03 0.0 
0.0 0.0 -1.217119345309e-03 
-1.141574387304e-03 -2.166019370136e-04 0.0 
-2.166019370136e-04 7.685657586840e-03 0.0 
0.0 0.0 -1.140944809983e-03 
-1.081193771009e-03 -2.086711321348e-04 0.0 
-2.086711321348e-04 7.235399972245e-03 0.0 
0.0 0.0 -1.076426999079e-03 
-7.306608964195e-04 1.032073657573e-05 0.0 
1.032073657573e-05 4.566565227243e-03 0.0 
0.0 0.0 -7.312123441678e-04 
-9.778650762194e-04 -2.118658920496e-04 0.0 
-2.118658920496e-04 6.529297964408e-03 0.0 
0.0 0.0 -9.763781674015e-04 
-1.237478436388e-03 1.224174650820e-04 0.0 
1.224174650820e-04 8.159420566097e-03 0.0 
0.0 0.0 -1.231404929774e-03 
-4.267545194732e-04 1.185171473708e-04 0.0 
1.185171473708e-04 2.513528635352e-03 0.0 
0.0 0.0 -4.167967844001e-04 
-9.921663346532e-05 -4.441075622368e-05 0.0 
-4.441075622368e-05 6.032903446550e-04 0.0 
0.0 0.0 -1.015157820784e-04 
-1.196520802042e-03 -1.451432414406e-04 0.0 
-1.451432414406e-04 7.939655555732e-03 0.0 
0.0 0.0 -1.185975225609e-03 
-1.126502929027e-03 1.777561321906e-04 0.0 
1.777561321906e-04 7.477268686063e-03 0.0 
0.0 0.0 -1.123538223191e-03 
-2.078344596569e-04 -1.080252995940e-04 0.0 
-1.080252995940e-04 1.116725601039e-03 0.0 
0.0 0.0 -2.307047010092e-04 
-9.934730169899e-04 -1.599306293238e-04 0.0 
-1.599306293238e-04 6.730831912440e-03 0.0 
0.0 0.0 -9.893338170986e-04 
-1.294485487258e-03 -4.211486433477e-05 0.0 
-4.211486433477e-05 8.454062998903e-03 0.0 
0.0 0.0 -1.282739585886e-03 
-1.188427124013e-03 1.207612322075e-04 0.0 
1.207612322075e-04 7.845258460139e-03 0.0 
0.0 0.0 -1.182073443778e-03 
-1.229516741237e-03 -2.922411445841e-05 0.0 
-2.922411445841e-05 8.351941012253e-03 0.0 
0.0 0.0 -1.215129606110e-03 
-9.509005340635e-04 -2.110936823322e-04 0.0 
-2.110936823322e-04 6.286467037558e-03 0.0 
0.0 0.0 -9.537126495859e-04 
-9.113657589557e-05 5.031862656050e-05 0.0 
5.031862656050e-05 3.206408784025e-04 0.0 
0.0 0.0 -9.835898678870e-05 
-3.211470424961e-04 1.012653271346e-04 0.0 
1.012653271346e-04 1.877306534774e-03 0.0 
0.0 0.0 -3.212443691966e-04 
-3.868345573261e-04 -2.158079183948e-04 0.0 
-2.158079183948e-04 2.373525116556e-03 0.0 
0.0 0.0 -3.834349432650e-04 
-8.152074782471e-04 3.282099269051e-05 0.0 
3.282099269051e-05 5.366100763401e-03 0.0 
0.0 0.0 -8.471429939415e-04 
-9.776446367943e-04 2.161934057613e-04 0.0 
2.161934057613e-04 6.478555405996e-03 0.0 
0.0 0.0 -9.781602908260e-04 
-1.243353399719e-03 -1.638877946273e-04 0.0 
-1.638877946273e-04 8.293874922919e-03 0.0 
0.0 0.0 -1.236541257690e-03 
-1.282980388071e-03 6.834535406589e-05 0.0 
6.834535406589e-05 8.446722746771e-03 0.0 
0.0 0.0 -1.282325209426e-03 
-1.534406041715e-04 -3.090119355694e-05 0.0 
-3.090119355694e-05 9.940803017300e-04 0.0 
0.0 0.0 -1.581060378624e-04 
-1.515974677088e-04 5.347591743209e-05 0.0 
5.347591743209e-05 9.499659581657e-04 0.0 
0.0 0.0 -1.538280640939e-04 
-2.429997348883e-04 2.036444813407e-04 0.0 
2.036444813407e-04 1.479432396381e-03 0.0 
0.0 0.0 -2.585189829319e-04 
-1.003671688667e-03 2.798952750374e-04 0.0 
2.798952750374e-04 6.711627995117e-03 0.0 
0.0 0.0 -1.019242131223e-03 
-5.082641639813e-04 -1.820796698733e-04 0.0 
-1.820796698733e-04 3.225266612081e-03 0.0 
0.0 0.0 -4.953283059016e-04 
-1.242349672414e-03 -1.508059351584e-04 0.0 
-1.508059351584e-04 8.332022443394e-03 0.0 
0.0 0.0 -1.241298427557e-03 
-2.469827383889e-04 -1.734013788771e-04 0.0 
-1.734013788771e-04 1.596418989747e-03 0.0 
0.0 0.0 -2.623907620756e-04 
-1.225402262687e-03 9.684378834706e-05 0.0 
9.684378834706e-05 8.090992196230e-03 0.0 
0.0 0.0 -1.221152601860e-03 
-8.136377301276e-04 1.789287431362e-04 0.0 
1.789287431362e-04 5.446005510680e-03 0.0 
0.0 0.0 -8.343732341398e-04 
-1.267827958096e-03 1.379445383962e-06 0.0 
1.379445383962e-06 8.495733417342e-03 0.0 
0.0 0.0 -1.286815605725e-03 
-1.109817670536e-03 -2.343370330106e-04 0.0 
-2.343370330106e-04 7.482609533300e-03 0.0 
0.0 0.0 -1.111121968474e-03 
-8.202418952196e-04 -8.830664857145e-05 0.0 
-8.830664857145e-05 5.379056120884e-03 0.0 
0.0 0.0 -8.465141837044e-04 
-1.270879538861e-03 -4.852122928063e-05 0.0 
-4.852122928063e-05 8.726187780208e-03 0.0 
0.0 0.0 -1.269142588751e-03 
-1.282679052200e-03 7.789633126417e-05 0.0 
7.789633126417e-05 8.731686959293e-03 0.0 
0.0 0.0 -1.272727265576e-03 
-1.257303152988e-03 6.224102812164e-05 0.0 
6.224102812164e-05 8.713074082016e-03 0.0 
0.0 0.0 -1.271339345674e-03 
-1.734083018693e-04 1.988310073063e-04 0.0 
1.988310073063e-04 9.960919397328e-04 0.0 
0.0 0.0 -1.914719991171e-04 
-1.218228496203e-03 1.745230460975e-04 0.0 
1.745230460975e-04 8.126336924162e-03 0.0 
0.0 0.0 -1.218309553141e-03 
-1.287690608828e-03 2.935127504917e-05 0.0 
2.935127504917e-05 8.450884291377e-03 0.0 
0.0 0.0 -1.286645293131e-03 
-1.215292120313e-03 -1.048319889730e-04 0.0 
-1.048319889730e-04 8.264175100215e-03 0.0 
0.0 0.0 -1.211735819529e-03 
-1.131460186021e-03 2.249929147143e-04 0.0 
2.249929147143e-04 7.604741910755e-03 0.0 
0.0 0.0 -1.143254064081e-03 
-1.342665167303e-03 2.462626238338e-05 0.0 
2.462626238338e-05 8.842656329326e-03 0.0 
0.0 0.0 -1.342665167303e-03 
-1.082512435834e-03 2.096972143521e-04 0.0 
2.096972143521e-04 7.169850347795e-03 0.0 
0.0 0.0 -1.079065255302e-03 
0.0 0.0 0.0 
0.0 0.0 0.0 
0.0 0.0 0.0 
-2.601109826526e-04 -2.071691114659e-04 0.0 
-2.071691114659e-04 1.415839820494e-03 0.0 
0.0 0.0 -2.423809483696e-04 
-1.192508312149e-03 -1.779210084662e-04 0.0 
-1.779210084662e-04 7.961128754995e-03 0.0 
0.0 0.0 -1.176936364471e-03 
-8.685626322098e-04 1.582275665783e-04 0.0 
1.582275665783e-04 5.835782021141e-03 0.0 
0.0 0.0 -8.884613587993e-04 
-1.209889234857e-03 -1.955325308150e-04 0.0 
-1.955325308150e-04 8.188769710118e-03 0.0 
0.0 0.0 -1.221994126432e-03 
-1.170503729369e-03 -2.209983450853e-04 0.0 
-2.209983450853e-04 7.908922597115e-03 0.0 
0.0 0.0 -1.177009544428e-03 
-1.281372639421e-03 -4.882657488488e-05 0.0 
-4.882657488488e-05 8.503605837596e-03 0.0 
0.0 0.0 -1.292249833993e-03 
-1.060591200895e-03 2.356899093670e-04 0.0 
2.356899093670e-04 7.243032913762e-03 0.0 
0.0 0.0 -1.085521458831e-03 
-1.295424128128e-03 -1.344853644126e-05 0.0 
-1.344853644126e-05 8.497735658802e-03 0.0 
0.0 0.0 -1.288973456333e-03 
-1.240273266268e-03 -1.643959908807e-04 0.0 
-1.643959908807e-04 8.288290248441e-03 0.0 
0.0 0.0 -1.233322439334e-03 
-1.236328969747e-03 1.681015718690e-04 0.0 
1.681015718690e-04 8.249087621686e-03 0.0 
0.0 0.0 -1.235043566395e-03 
-5.200406812990e-04 -1.166757664341e-04 0.0 
-1.166757664341e-04 3.385215487565e-03 0.0 
0.0 0.0 -5.104964012366e-04 
-1.293388642315e-03 -2.007549829058e-05 0.0 
-2.007549829058e-05 9.114239519402e-03 0.0 
0.0 0.0 -1.325641941534e-03 
-7.485652657637e-04 1.433772634919e-05 0.0 
1.433772634919e-05 5.220751556451e-03 0.0 
0.0 0.0 -7.662153309038e-04 
-1.203353616891e-03 -1.846454248329e-04 0.0 
-1.846454248329e-04 8.194731648824e-03 0.0 
0.0 0.0 -1.217406395242e-03 
-1.473848137133e-04 -7.608252406758e-05 0.0 
-7.608252406758e-05 7.058205605385e-04 0.0 
0.0 0.0 -1.761976461317e-04 
-1.139762521842e-03 -1.242981094265e-04 0.0 
-1.242981094265e-04 7.914367669760e-03 0.0 
0.0 0.0 -1.163202487293e-03 
-9.847139031094e-04 -2.927819349531e-05 0.0 
-2.927819349531e-05 6.802999958382e-03 0.0 
0.0 0.0 -9.926133712568e-04 
-1.690893902523e-04 -1.078602895255e-04 0.0 
-1.078602895255e-04 9.402080020993e-04 0.0 
0.0 0.0 -1.628620303624e-04 
-2.985531882030e-04 -2.240216763461e-04 0.0 
-2.240216763461e-04 1.642242196626e-03 0.0 
0.0 0.0 -2.736924314970e-04 
-1.111715101682e-03 2.179506947960e-04 0.0 
2.179506947960e-04 7.377812155317e-03 0.0 
0.0 0.0 -1.107581195644e-03 
-1.292896746142e-03 -1.945315972067e-05 0.0 
-1.945315972067e-05 8.475231004044e-03 0.0 
0.0 0.0 -1.285368862661e-03 
-1.232559661219e-03 -1.674576161592e-04 0.0 
-1.674576161592e-04 8.301292046622e-03 0.0 
0.0 0.0 -1.223917301752e-03 
-1.254461742942e-03 2.341900515223e-04 0.0 
2.341900515223e-04 8.559507473306e-03 0.0 
0.0 0.0 -1.264779455601e-03 
-8.799678260909e-04 2.461510225769e-04 0.0 
2.461510225769e-04 5.779390736262e-03 0.0 
0.0 0.0 -8.807565902733e-04 
-9.459318500233e-05 -9.224025008730e-06 0.0 
-9.224025008730e-06 5.593643268762e-04 0.0 
0.0 0.0 -1.022500568216e-04 
-1.184228338263e-04 1.932393774192e-04 0.0 
1.932393774192e-04 8.360742900508e-04 0.0 
0.0 0.0 -1.527632439532e-04 
-1.485774023437e-04 2.057472114591e-04 0.0 
2.057472114591e-04 4.943058849460e-04 0.0 
0.0 0.0 -1.262112556552e-04 
-1.889957332613e-04 -1.720729644020e-04 0.0 
-1.720729644020e-04 1.198989706623e-03 0.0 
0.0 0.0 -2.080055930776e-04 
-2.412796962869e-05 1.151125546851e-04 0.0 
1.151125546851e-04 1.259903231300e-04 0.0 
0.0 0.0 -4.365529435769e-05 
-6.564338874859e-04 1.298407551403e-04 0.0 
1.298407551403e-04 4.516305724261e-03 0.0 
0.0 0.0 -6.753304527203e-04 
-1.206082523732e-03 1.933788045722e-04 0.0 
1.933788045722e-04 8.180269090487e-03 0.0 
0.0 0.0 -1.222305993939e-03 
-1.222663318362e-03 1.753368055927e-04 0.0 
1.753368055927e-04 8.227435580213e-03 0.0 
0.0 0.0 -1.222833113937e-03 
-8.669258191564e-04 -1.817944922656e-04 0.0 
-1.817944922656e-04 5.844176131481e-03 0.0 
0.0 0.0 -8.826313165011e-04 
-6.040048573085e-04 -2.738267400019e-04 0.0 
-2.738267400019e-04 3.891940944486e-03 0.0 
0.0 0.0 -5.988529843847e-04 
-1.222353962553e-03 -1.610597655754e-04 0.0 
-1.610597655754e-04 8.260198203253e-03 0.0 
0.0 0.0 -1.221067908166e-03 
-1.203746913663e-03 2.278206710251e-04 0.0 
2.278206710251e-04 8.189793790316e-03 0.0 
0.0 0.0 -1.208702654310e-03 
-1.279025858978e-03 8.766018994021e-05 0.0 
8.766018994021e-05 8.741593274881e-03 0.0 
0.0 0.0 -1.272252409145e-03 
-1.242705220595e-03 -3.696381206599e-05 0.0 
-3.696381206599e-05 8.148871227430e-03 0.0 
0.0 0.0 -1.237422270938e-03 
-1.174009678725e-03 1.988566962408e-04 0.0 
1.988566962408e-04 7.816359446438e-03 0.0 
0.0 0.0 -1.171232062679e-03 
-1.672054198288e-04 9.231173188879e-05 0.0 
9.231173188879e-05 7.047171557342e-04 0.0 
0.0 0.0 -1.733042685746e-04 
-1.128922232108e-04 -1.541536460290e-04 0.0 
-1.541536460290e-04 8.181726866747e-04 0.0 
0.0 0.0 -1.441637530793e-04 
-1.232867888531e-03 -1.583409372845e-04 0.0 
-1.583409372845e-04 8.274546276780e-03 0.0 
0.0 0.0 -1.223662873675e-03 
-1.809471586290e-04 2.732513028338e-05 0.0 
2.732513028338e-05 7.150332979246e-04 0.0 
0.0 0.0 -1.761523314621e-04 
-2.090612244597e-04 2.679772699566e-04 0.0 
2.679772699566e-04 1.034188635190e-03 0.0 
0.0 0.0 -1.933333333332e-04 
-1.375589269253e-04 1.895212040583e-04 0.0 
1.895212040583e-04 6.272580356086e-04 0.0 
0.0 0.0 -1.476920362276e-04 
-1.616726848356e-04 -1.838984361800e-04 0.0 
-1.838984361800e-04 7.928606863594e-04 0.0 
0.0 0.0 -1.580296812506e-04 
-1.300434401275e-03 -1.024873491582e-05 0.0 
-1.024873491582e-05 8.484073046421e-03 0.0 
0.0 0.0 -1.288571152055e-03 
-1.296196106557e-03 -7.581226292437e-05 0.0 
-7.581226292437e-05 8.500775829958e-03 0.0 
0.0 0.0 -1.290113636706e-03 
-1.257797356609e-03 1.887508465158e-04 0.0 
1.887508465158e-04 8.298916238051e-03 0.0 
0.0 0.0 -1.236907757659e-03 
-1.306315150684e-03 9.008107202712e-08 0.0 
9.008107202712e-08 8.523760771155e-03 0.0 
0.0 0.0 -1.292605224168e-03 
-1.191514572737e-03 -1.523248627148e-04 0.0 
-1.523248627148e-04 7.914354314681e-03 0.0 
0.0 0.0 -1.176879138244e-03 
-9.009707231897e-04 2.647575106000e-04 0.0 
2.647575106000e-04 6.062013665177e-03 0.0 
0.0 0.0 -9.170130443517e-04 
-1.345069444888e-03 -1.224359494155e-05 0.0 
-1.224359494155e-05 8.872525889838e-03 0.0 
0.0 0.0 -1.345069444888e-03 
-3.168516228751e-04 -1.142391801259e-04 0.0 
-1.142391801259e-04 2.071683762697e-03 0.0 
0.0 0.0 -3.330755757467e-04 
-6.832796589934e-04 2.794415003479e-06 0.0 
2.794415003479e-06 4.812526626932e-03 0.0 
0.0 0.0 -7.083073883397e-04 
-1.983733277546e-04 6.070841311558e-05 0.0 
6.070841311558e-05 1.303830959688e-03 0.0 
0.0 0.0 -2.086331215474e-04 
-8.213992574581e-05 4.728700015121e-05 0.0 
4.728700015121e-05 2.774119614064e-04 0.0 
0.0 0.0 -8.368801528309e-05 
-1.296331570259e-03 3.985530997241e-05 0.0 
3.985530997241e-05 9.108859965209e-03 0.0 
0.0 0.0 -1.323850096553e-03 
-7.636750152913e-04 -5.943479672422e-05 0.0 
-5.943479672422e-05 5.297273347084e-03 0.0 
0.0 0.0 -7.731261162940e-04 
-1.898896061389e-04 2.668881093009e-05 0.0 
2.668881093009e-05 1.324161255717e-03 0.0 
0.0 0.0 -2.115341463249e-04 
-6.766397334691e-04 2.335959289239e-04 0.0 
2.335959289239e-04 4.262192913851e-03 0.0 
0.0 0.0 -6.570498647039e-04 
-1.270388897102e-03 1.791394562200e-05 0.0 
1.791394562200e-05 8.744228481245e-03 0.0 
0.0 0.0 -1.276804206569e-03 
-1.238351285998e-03 -1.647535430714e-04 0.0 
-1.647535430714e-04 8.287386498838e-03 0.0 
0.0 0.0 -1.228616961883e-03 
-1.299245503170e-03 -6.943481147167e-06 0.0 
-6.943481147167e-06 8.501206471558e-03 0.0 
0.0 0.0 -1.289666537713e-03 
-4.674755872492e-04 -1.441717405802e-04 0.0 
-1.441717405802e-04 3.063014272079e-03 0.0 
0.0 0.0 -4.695399720401e-04 
-1.457689473944e-04 -1.575597281071e-04 0.0 
-1.575597281071e-04 7.498700715420e-04 0.0 
0.0 0.0 -1.553221962317e-04 
-1.285913149297e-03 -1.165123631474e-04 0.0 
-1.165123631474e-04 8.730182768681e-03 0.0 
0.0 0.0 -1.273144391159e-03 
-1.298815958390e-03 2.309086979367e-05 0.0 
2.309086979367e-05 9.107151826923e-03 0.0 
0.0 0.0 -1.325353038101e-03 
-1.331981550421e-03 -1.771381069907e-05 0.0 
-1.771381069907e-05 9.126640523196e-03 0.0 
0.0 0.0 -1.323783523096e-03 
-7.660500434480e-04 1.313542510445e-04 0.0 
1.313542510445e-04 5.035539676325e-03 0.0 
0.0 0.0 -7.673431308700e-04 
-1.235780327313e-03 -4.526587612997e-06 0.0 
-4.526587612997e-06 8.115023081303e-03 0.0 
0.0 0.0 -1.231867668451e-03 
-1.953177882174e-04 -9.491085164949e-05 0.0 
-9.491085164949e-05 1.122964739939e-03 0.0 
0.0 0.0 -2.324200178898e-04 
-1.257584227981e-03 1.660686322992e-04 0.0 
1.660686322992e-04 8.340961353616e-03 0.0 
0.0 0.0 -1.241575510934e-03 
-8.170589745739e-05 -1.080295024441e-05 0.0 
-1.080295024441e-05 2.725451190137e-04 0.0 
0.0 0.0 -8.178823780987e-05 
-1.306295822847e-03 -1.062422533943e-05 0.0 
-1.062422533943e-05 8.506048519693e-03 0.0 
0.0 0.0 -1.290713494763e-03 
-1.281136683791e-03 1.115018912951e-04 0.0 
1.115018912951e-04 8.702368548138e-03 0.0 
0.0 0.0 -1.268585396830e-03 
-8.090064620301e-05 -6.463780865666e-05 0.0 
-6.463780865666e-05 2.764343947345e-04 0.0 
0.0 0.0 -8.380017794208e-05 
-1.195471399734e-03 -1.402863971345e-04 0.0 
-1.402863971345e-04 7.949772117529e-03 0.0 
0.0 0.0 -1.178018281593e-03 
-1.028233004996e-03 -1.859683667160e-04 0.0 
-1.859683667160e-04 6.977936374390e-03 0.0 
0.0 0.0 -1.053859681778e-03 
-1.289487723471e-03 -3.059440868742e-05 0.0 
-3.059440868742e-05 8.509289695588e-03 0.0 
0.0 0.0 -1.289687241943e-03 
-1.346242744377e-03 -1.047219123713e-05 0.0 
-1.047219123713e-05 8.896960402449e-03 0.0 
0.0 0.0 -1.346242744377e-03 
-9.624911099011e-04 -2.997622866494e-04 0.0 
-2.997622866494e-04 6.376553401582e-03 0.0 
0.0 0.0 -9.627310317561e-04 
-1.292971171235e-03 1.345101664033e-05 0.0 
1.345101664033e-05 8.530939079912e-03 0.0 
0.0 0.0 -1.292510612804e-03 
-1.246115197789e-03 -1.533948492975e-04 0.0 
-1.533948492975e-04 8.325319025632e-03 0.0 
0.0 0.0 -1.236507170568e-03 
-1.007540401079e-03 8.825741490512e-06 0.0 
8.825741490512e-06 6.546914065101e-03 0.0 
0.0 0.0 -1.009625451247e-03 
-1.239682124839e-03 -1.433667225738e-05 0.0 
-1.433667225738e-05 8.247508066060e-03 0.0 
0.0 0.0 -1.247605899893e-03 
-5.439659078653e-04 -1.293203549736e-04 0.0 
-1.293203549736e-04 3.573225901759e-03 0.0 
0.0 0.0 -5.668522599723e-04 
-7.422257193807e-04 -2.384409418001e-05 0.0 
-2.384409418001e-05 4.553525172640e-03 0.0 
0.0 0.0 -7.287847301676e-04 
-1.250463763405e-03 1.444458806810e-04 0.0 
1.444458806810e-04 8.323970461278e-03 0.0 
0.0 0.0 -1.239219007812e-03 
-1.277932458032e-03 1.160268164509e-04 0.0 
1.160268164509e-04 8.651299276670e-03 0.0 
0.0 0.0 -1.286506427510e-03 
0.0 0.0 0.0 
0.0 0.0 0.0 
0.0 0.0 0.0 
-7.391696919878e-04 5.460045200431e-05 0.0 
5.460045200431e-05 4.572310123870e-03 0.0 
0.0 0.0 -7.284590636140e-04 
-1.282539678950e-03 -1.213229753822e-04 0.0 
-1.213229753822e-04 8.668193960288e-03 0.0 
0.0 0.0 -1.288082484959e-03 
-2.668000831652e-04 1.337975711291e-04 0.0 
1.337975711291e-04 1.552550494018e-03 0.0 
0.0 0.0 -2.765646858065e-04 
-1.244314668154e-03 3.253635918239e-05 0.0 
3.253635918239e-05 8.351662046828e-03 0.0 
0.0 0.0 -1.213252366005e-03 
-1.212806318798e-03 -1.378965673921e-04 0.0 
-1.378965673921e-04 8.296055804055e-03 0.0 
0.0 0.0 -1.225943235494e-03 
-1.276740815873e-03 -1.548809764645e-04 0.0 
-1.548809764645e-04 8.705204137735e-03 0.0 
0.0 0.0 -1.269037835114e-03 
-2.467774251027e-04 1.357300176719e-04 0.0 
1.357300176719e-04 1.515114324046e-03 0.0 
0.0 0.0 -2.647987373252e-04 
-1.846190942981e-04 5.164886539666e-05 0.0 
5.164886539666e-05 1.204409405256e-03 0.0 
0.0 0.0 -1.906575996298e-04 
-8.286327452832e-04 3.382951551479e-04 0.0 
3.382951551479e-04 5.239779904281e-03 0.0 
0.0 0.0 -7.939471195916e-04 
-1.139651880695e-03 8.042350541592e-05 0.0 
8.042350541592e-05 7.547907450212e-03 0.0 
0.0 0.0 -1.120841203304e-03 
6.762182202678e-06 4.922521689476e-06 0.0 
4.922521689476e-06 1.951722452603e-04 0.0 
0.0 0.0 -4.162563418681e-05 
-1.297631582513e-03 -2.970012333432e-05 0.0 
-2.970012333432e-05 8.538118962210e-03 0.0 
0.0 0.0 -1.292233508669e-03 
-9.496420787081e-04 3.842938930079e-05 0.0 
3.842938930079e-05 6.134769422350e-03 0.0 
0.0 0.0 -9.501928138396e-04 
-2.319252204205e-04 -1.666332425867e-04 0.0 
-1.666332425867e-04 1.531261602253e-03 0.0 
0.0 0.0 -2.601894661948e-04 
-9.182086126088e-04 6.576575429200e-05 0.0 
6.576575429200e-05 5.823601520571e-03 0.0 
0.0 0.0 -9.030544305944e-04 
-1.281338578084e-03 -1.215158440346e-04 0.0 
-1.215158440346e-04 8.719272788120e-03 0.0 
0.0 0.0 -1.271643562581e-03 
-8.361599263990e-04 -2.906502343770e-04 0.0 
-2.906502343770e-04 5.524370676589e-03 0.0 
0.0 0.0 -8.272804529249e-04 
-9.020963282834e-05 -1.875396024300e-04 0.0 
-1.875396024300e-04 3.251699178446e-04 0.0 
0.0 0.0 -8.776479312228e-05 
-5.428499226707e-04 1.403699556570e-04 0.0 
1.403699556570e-04 3.200704680557e-03 0.0 
0.0 0.0 -5.209635072927e-04 
-7.264103312116e-04 1.066181262773e-04 0.0 
1.066181262773e-04 4.783605203211e-03 0.0 
0.0 0.0 -7.319997505001e-04 
-8.379507721355e-04 3.506890823091e-04 0.0 
3.506890823091e-04 5.706153283525e-03 0.0 
0.0 0.0 -8.599999999992e-04 
-1.240777117315e-03 -1.439647034317e-04 0.0 
-1.439647034317e-04 8.329527072644e-03 0.0 
0.0 0.0 -1.232780192057e-03 
-7.376665261259e-04 -1.727241022974e-04 0.0 
-1.727241022974e-04 4.617911229220e-03 0.0 
0.0 0.0 -7.175509632692e-04 
-7.419227856637e-04 8.706574175029e-05 0.0 
8.706574175029e-05 4.905660942002e-03 0.0 
0.0 0.0 -7.596628988333e-04 
-1.725607618193e-04 1.274500514102e-04 0.0 
1.274500514102e-04 7.075820556251e-04 0.0 
0.0 0.0 -1.551230728613e-04 
-1.262496529076e-03 1.402132573888e-04 0.0 
1.402132573888e-04 8.306889500876e-03 0.0 
0.0 0.0 -1.240629869904e-03 
-1.209173557273e-03 1.621322078836e-04 0.0 
1.621322078836e-04 7.950506271258e-03 0.0 
0.0 0.0 -1.186362110037e-03 
-2.227791697187e-04 8.637930858051e-05 0.0 
8.637930858051e-05 1.298316331417e-03 0.0 
0.0 0.0 -2.411692657676e-04 
-1.261193436875e-03 -8.326695288083e-05 0.0 
-8.326695288083e-05 8.552285249105e-03 0.0 
0.0 0.0 -1.290349483557e-03 
-1.293807969811e-03 1.507292729990e-04 0.0 
1.507292729990e-04 8.596145003785e-03 0.0 
0.0 0.0 -1.290356026000e-03 
-7.679899519873e-04 -1.532356305286e-04 0.0 
-1.532356305286e-04 5.157074227234e-03 0.0 
0.0 0.0 -7.639788432047e-04 
-9.396515753232e-04 3.091234051286e-05 0.0 
3.091234051286e-05 6.333492038285e-03 0.0 
0.0 0.0 -9.358343396975e-04 
-7.048143922743e-04 1.638625948524e-04 0.0 
1.638625948524e-04 4.692848505541e-03 0.0 
0.0 0.0 -7.108516105536e-04 
-7.079275106751e-04 -1.102323501343e-04 0.0 
-1.102323501343e-04 4.802970885948e-03 0.0 
0.0 0.0 -7.343037059241e-04 
-7.780838486787e-04 -3.476295080742e-05 0.0 
-3.476295080742e-05 5.090202749114e-03 0.0 
0.0 0.0 -7.498489858827e-04 
-1.195445771267e-03 1.533301423155e-04 0.0 
1.533301423155e-04 7.905914704818e-03 0.0 
0.0 0.0 -1.180929064624e-03 
-2.101723265820e-04 1.264806835631e-04 0.0 
1.264806835631e-04 1.084941023670e-03 0.0 
0.0 0.0 -2.274637643159e-04 
-1.230210229403e-03 -1.391362873496e-04 0.0 
-1.391362873496e-04 8.342547987840e-03 0.0 
0.0 0.0 -1.217816617926e-03 
-8.387293036437e-04 7.281979356206e-05 0.0 
7.281979356206e-05 5.326094164637e-03 0.0 
0.0 0.0 -8.376728236383e-04 
-1.277193560845e-03 -1.460979146763e-04 0.0 
-1.460979146763e-04 8.720485292524e-03 0.0 
0.0 0.0 -1.272153791098e-03 
-1.202298967755e-03 -1.320050113913e-04 0.0 
-1.320050113913e-04 7.883588282291e-03 0.0 
0.0 0.0 -1.181257232468e-03 
-8.795673226242e-04 -5.945622150844e-05 0.0 
-5.945622150844e-05 6.031279173311e-03 0.0 
0.0 0.0 -8.902468719968e-04 
-1.211224544084e-03 1.194316264715e-04 0.0 
1.194316264715e-04 8.008237221313e-03 0.0 
0.0 0.0 -1.201032862555e-03 
-1.250364770317e-03 1.261810502704e-04 0.0 
1.261810502704e-04 8.225945087578e-03 0.0 
0.0 0.0 -1.236767197193e-03 
-1.292703020779e-03 -2.277677435045e-05 0.0 
-2.277677435045e-05 8.758650210356e-03 0.0 
0.0 0.0 -1.270271405117e-03 
-9.288790837536e-05 4.486310937797e-05 0.0 
4.486310937797e-05 3.125136257933e-04 0.0 
0.0 0.0 -9.412530746485e-05 
-1.213293100967e-03 -1.365137297491e-04 0.0 
-1.365137297491e-04 8.055302576551e-03 0.0 
0.0 0.0 -1.198686027802e-03 
-1.233489147260e-03 1.844031552690e-04 0.0 
1.844031552690e-04 8.360738709544e-03 0.0 
0.0 0.0 -1.227078865044e-03 
-1.296260318671e-04 -1.418501242849e-04 0.0 
-1.418501242849e-04 8.665050242929e-04 0.0 
0.0 0.0 -1.488313462956e-04 
-6.781230104505e-04 -1.171397059554e-04 0.0 
-1.171397059554e-04 4.366860208538e-03 0.0 
0.0 0.0 -6.841365946973e-04 
-7.630078233159e-05 -6.102099342081e-05 0.0 
-6.102099342081e-05 5.288528667040e-04 0.0 
0.0 0.0 -9.692352125104e-05 
-1.239413171189e-03 -1.038112219683e-04 0.0 
-1.038112219683e-04 8.427166424518e-03 0.0 
0.0 0.0 -1.230789928679e-03 
-5.187487103520e-04 -7.879757944213e-05 0.0 
-7.879757944213e-05 3.392117763543e-03 0.0 
0.0 0.0 -5.155555555556e-04 
-5.412972415894e-04 4.648002671386e-05 0.0 
4.648002671386e-05 3.200314872167e-03 0.0 
0.0 0.0 -5.377777777778e-04 
-5.169078130687e-04 -1.124351187313e-05 0.0 
-1.124351187313e-05 3.514306742191e-03 0.0 
0.0 0.0 -5.155555555556e-04 
-5.370398844120e-04 -5.539739897160e-06 0.0 
-5.539739897160e-06 3.206683234812e-03 0.0 
0.0 0.0 -5.377777777778e-04 
-5.154291633013e-04 -3.129495957312e-06 0.0 
-3.129495957312e-06 3.517617017321e-03 0.0 
0.0 0.0 -5.155555555556e-04 
-5.381093200183e-04 -1.976663157598e-06 0.0 
-1.976663157598e-06 3.207914382671e-03 0.0 
0.0 0.0 -5.377777777778e-04 
-5.156734036465e-04 -2.406369053525e-06 0.0 
-2.406369053525e-06 3.519066327430e-03 0.0 
0.0 0.0 -5.155555555556e-04 
-5.366091103083e-04 -1.207085778447e-06 0.0 
-1.207085778447e-06 3.208019600709e-03 0.0 
0.0 0.0 -5.377777777778e-04 
-5.158813986808e-04 -1.051510284434e-06 0.0 
-1.051510284434e-06 3.519134616611e-03 0.0 
0.0 0.0 -5.155555555556e-04 
-5.372599660982e-04 6.933014159414e-07 0.0 
6.933014159414e-07 3.208897054849e-03 0.0 
0.0 0.0 -5.377777777778e-04 
-5.166153643922e-04 -3.726067797575e-07 0.0 
-3.726067797575e-07 3.520203548651e-03 0.0 
0.0 0.0 -5.155555555556e-04 
-5.375825845931e-04 1.962175395656e-06 0.0 
1.962175395656e-06 3.210164447084e-03 0.0 
0.0 0.0 -5.377777777778e-04 
-5.177556549564e-04 -1.083300339423e-06 0.0 
-1.083300339423e-06 3.521881872284e-03 0.0 
0.0 0.0 -5.155555555556e-04 
-5.405721443305e-04 -1.211361635616e-06 0.0 
-1.211361635616e-06 3.211048643113e-03 0.0 
0.0 0.0 -5.377777777778e-04 
-5.180867973122e-04 -2.955006037389e-06 0.0 
-2.955006037389e-06 3.522497958112e-03 0.0 
0.0 0.0 -5.155555555556e-04 
-5.792879928889e-04 -1.599267687407e-04 0.0 
-1.599267687407e-04 3.507819207063e-03 0.0 
0.0 0.0 -5.247732426303e-04 
-5.375442025049e-04 -3.821072344149e-06 0.0 
-3.821072344149e-06 3.209055027385e-03 0.0 
0.0 0.0 -5.377777777778e-04 
-4.855148531560e-04 1.971124341130e-05 0.0 
1.971124341130e-05 3.223296130373e-03 0.0 
0.0 0.0 -5.377777777778e-04 
-5.174361728022e-04 1.037369393988e-07 0.0 
1.037369393988e-07 3.519390087404e-03 0.0 
0.0 0.0 -5.155555555556e-04 
-5.390305481335e-04 1.985391886319e-06 0.0 
1.985391886319e-06 3.209337053627e-03 0.0 
0.0 0.0 -5.377777777778e-04 
-5.186241989704e-04 1.920455279018e-06 0.0 
1.920455279018e-06 3.520577890956e-03 0.0 
0.0 0.0 -5.155555555556e-04 
-5.424782350988e-04 2.602587795957e-06 0.0 
2.602587795957e-06 3.210819048104e-03 0.0 
0.0 0.0 -5.377777777778e-04 
-5.198439938146e-04 8.397343632881e-07 0.0 
8.397343632881e-07 3.522383784968e-03 0.0 
0.0 0.0 -5.155555555556e-04 
-5.425396489500e-04 -2.671586099053e-07 0.0 
-2.671586099053e-07 3.210729830903e-03 0.0 
0.0 0.0 -5.377777777778e-04 
-4.639261431919e-04 1.795800229973e-05 0.0 
1.795800229973e-05 3.319383572120e-03 0.0 
0.0 0.0 -5.025510204081e-04 
-5.199813420545e-04 4.884319010419e-08 0.0 
4.884319010419e-08 3.521715893853e-03 0.0 
0.0 0.0 -5.155555555555e-04 
-5.429313789558e-04 -1.595839338138e-06 0.0 
-1.595839338138e-06 3.209826232599e-03 0.0 
0.0 0.0 -5.377777777778e-04 
-5.196446480316e-04 -7.157581279134e-07 0.0 
-7.157581279134e-07 3.520538878585e-03 0.0 
0.0 0.0 -5.155555555556e-04 
-5.449486155419e-04 -7.127659532017e-06 0.0 
-7.127659532017e-06 3.206562068945e-03 0.0 
0.0 0.0 -5.377777777778e-04 
-5.164685894796e-04 6.903981517423e-06 0.0 
6.903981517423e-06 3.511995524719e-03 0.0 
0.0 0.0 -5.155555555556e-04 
-5.340991680871e-04 2.151676257836e-05 0.0 
2.151676257836e-05 3.208223790984e-03 0.0 
0.0 0.0 -5.377777777778e-04 
-5.225943041263e-04 7.813857319361e-06 0.0 
7.813857319361e-06 3.525980620072e-03 0.0 
0.0 0.0 -5.155555555556e-04 
-5.589612776076e-04 -5.839662931428e-06 0.0 
-5.839662931428e-06 3.211769507264e-03 0.0 
0.0 0.0 -5.377777777778e-04 
-5.066406946919e-04 4.974783900999e-05 0.0 
4.974783900999e-05 3.211603155197e-03 0.0 
0.0 0.0 -5.377777777778e-04 
-5.178907553597e-04 1.266973619623e-05 0.0 
1.266973619623e-05 3.512461130721e-03 0.0 
0.0 0.0 -5.155555555556e-04 
-4.723338447053e-04 2.541271294392e-05 0.0 
2.541271294392e-05 3.400544018691e-03 0.0 
0.0 0.0 -5.358843537414e-04 
-5.345607628738e-04 7.989109301455e-06 0.0 
7.989109301455e-06 3.549518677637e-03 0.0 
0.0 0.0 -5.155555555556e-04 
-4.278487948575e-04 -2.628820225453e-05 0.0 
-2.628820225453e-05 3.098178878207e-03 0.0 
0.0 0.0 -5.136621315192e-04 
-5.830730295149e-04 -3.701622094988e-04 0.0 
-3.701622094988e-04 3.411662693846e-03 0.0 
0.0 0.0 -5.266666666667e-04 
-4.791897713482e-04 3.550100958038e-04 0.0 
3.550100958038e-04 3.225685347325e-03 0.0 
0.0 0.0 -5.266666666667e-04 
-5.533708020514e-04 -3.952512472061e-05 0.0 
-3.952512472061e-05 3.373562060412e-03 0.0 
0.0 0.0 -5.488888888889e-04 
-5.075597216713e-04 3.715385301179e-05 0.0 
3.715385301179e-05 3.274980805740e-03 0.0 
0.0 0.0 -5.044444444444e-04 
-4.478107429422e-04 -2.175364391212e-05 0.0 
-2.175364391212e-05 3.231094822119e-03 0.0 
0.0 0.0 -5.044444444444e-04 
-6.189291422575e-04 -8.703466800000e-05 0.0 
-8.703466800000e-05 3.800993658171e-03 0.0 
0.0 0.0 -6.044444444444e-04 
-5.857416860338e-04 4.152251131124e-05 0.0 
4.152251131124e-05 3.981396628525e-03 0.0 
0.0 0.0 -5.822222222222e-04 
-6.014676124271e-04 -2.366192094099e-05 0.0 
-2.366192094099e-05 3.666428660517e-03 0.0 
0.0 0.0 -6.044444444444e-04 
-5.814843288565e-04 -9.898764258159e-06 0.0 
-9.898764258159e-06 3.966852274136e-03 0.0 
0.0 0.0 -5.822222222222e-04 
-6.012057329272e-04 -9.447332931531e-07 0.0 
-9.447332931531e-07 3.656511754543e-03 0.0 
0.0 0.0 -6.044444444444e-04 
-5.825537644628e-04 -2.598524727520e-06 0.0 
-2.598524727520e-06 3.971861702718e-03 0.0 
0.0 0.0 -5.822222222222e-04 
-6.053753762140e-04 -6.697619749929e-06 0.0 
-6.697619749929e-06 3.660276641183e-03 0.0 
0.0 0.0 -6.044444444444e-04 
-5.810535547528e-04 -4.794630108956e-06 0.0 
-4.794630108956e-06 3.968237137461e-03 0.0 
0.0 0.0 -5.822222222222e-04 
-5.989315183322e-04 1.500653346346e-07 0.0 
1.500653346346e-07 3.657759237214e-03 0.0 
0.0 0.0 -6.044444444444e-04 
-5.817044105427e-04 9.543218927896e-07 0.0 
9.543218927896e-07 3.971595709461e-03 0.0 
0.0 0.0 -5.822222222222e-04 
-6.036123665841e-04 5.339950144768e-07 0.0 
5.339950144768e-07 3.660400636182e-03 0.0 
0.0 0.0 -6.044444444444e-04 
-5.820270290375e-04 1.512396225204e-06 0.0 
1.512396225204e-06 3.971136415647e-03 0.0 
0.0 0.0 -5.822222222222e-04 
-6.007150147338e-04 7.186565872699e-06 0.0 
7.186565872699e-06 3.661043708330e-03 0.0 
0.0 0.0 -6.044444444444e-04 
-6.473657891011e-04 -1.503775681194e-04 0.0 
-1.503775681194e-04 3.972322043345e-03 0.0 
0.0 0.0 -5.915759637188e-04 
-5.850165887749e-04 4.111519023205e-06 0.0 
4.111519023205e-06 3.978321279382e-03 0.0 
0.0 0.0 -5.822222222222e-04 
-6.068724417991e-04 -1.008894091463e-05 0.0 
-1.008894091463e-05 3.663848600166e-03 0.0 
0.0 0.0 -6.044444444444e-04 
-5.382166584107e-04 1.304379000631e-05 0.0 
1.304379000631e-05 3.784609928148e-03 0.0 
0.0 0.0 -5.693537414966e-04 
-5.819886469493e-04 -2.459134104127e-06 0.0 
-2.459134104127e-06 3.967910560167e-03 0.0 
0.0 0.0 -5.822222222222e-04 
-6.025293378773e-04 4.180804481603e-06 0.0 
4.180804481603e-06 3.658439256297e-03 0.0 
0.0 0.0 -6.044444444444e-04 
-5.551920643197e-04 2.265198140005e-05 0.0 
2.265198140005e-05 3.679387987049e-03 0.0 
0.0 0.0 -6.044444444444e-04 
-5.834749925779e-04 5.082011282481e-06 0.0 
5.082011282481e-06 3.970492679137e-03 0.0 
0.0 0.0 -5.822222222222e-04 
-6.079594570241e-04 1.156947798532e-05 0.0 
1.156947798532e-05 3.661485342161e-03 0.0 
0.0 0.0 -6.044444444444e-04 
-5.869226795433e-04 6.564857151341e-06 0.0 
6.564857151341e-06 3.976524406353e-03 0.0 
0.0 0.0 -5.822222222222e-04 
-6.104220387485e-04 1.777481494349e-06 0.0 
1.777481494349e-06 3.663998117975e-03 0.0 
0.0 0.0 -6.044444444444e-04 
-5.869840933945e-04 2.939983270480e-06 0.0 
2.939983270480e-06 3.973848016868e-03 0.0 
0.0 0.0 -5.822222222222e-04 
-5.382425891796e-04 2.010179773991e-05 0.0 
2.010179773991e-05 3.859360506165e-03 0.0 
0.0 0.0 -6.026870748299e-04 
-6.075003933196e-04 1.831253403250e-06 0.0 
1.831253403250e-06 3.662133086902e-03 0.0 
0.0 0.0 -6.044444444444e-04 
-5.873758234003e-04 4.101101850468e-06 0.0 
4.101101850468e-06 3.972642461745e-03 0.0 
0.0 0.0 -5.822222222222e-04 
-5.893930599864e-04 7.702980258158e-07 0.0 
7.702980258158e-07 3.976762054191e-03 0.0 
0.0 0.0 -5.822222222222e-04 
-6.109731840224e-04 5.890820747558e-06 0.0 
5.890820747558e-06 3.662416691587e-03 0.0 
0.0 0.0 -6.044444444444e-04 
-5.785436125316e-04 1.010670441635e-05 0.0 
1.010670441635e-05 3.943008250813e-03 0.0 
0.0 0.0 -5.822222222222e-04 
-6.245615995330e-04 -2.323619509783e-05 0.0 
-2.323619509783e-05 3.657960966842e-03 0.0 
0.0 0.0 -6.044444444444e-04 
-6.034057220520e-04 2.547674868114e-05 0.0 
2.547674868114e-05 4.007426657562e-03 0.0 
0.0 0.0 -5.822222222222e-04 
-5.749090046599e-04 7.539992690033e-05 0.0 
7.539992690033e-05 3.655670285631e-03 0.0 
0.0 0.0 -6.044444444444e-04 
-4.961379511751e-04 -3.596508921407e-05 0.0 
-3.596508921407e-05 3.563351096824e-03 0.0 
0.0 0.0 -5.804648526077e-04 
-5.370991115959e-04 -3.597763694004e-04 0.0 
-3.597763694004e-04 3.763144672232e-03 0.0 
0.0 0.0 -5.933333333333e-04 
-6.527633909014e-04 3.673307409976e-04 0.0 
3.673307409976e-04 3.969951782286e-03 0.0 
0.0 0.0 -5.933333333333e-04 
-5.755930242736e-04 -3.122109693662e-05 0.0 
-3.122109693662e-05 3.812561021402e-03 0.0 
0.0 0.0 -5.711111111111e-04 
-6.159345735075e-04 5.418298751467e-05 0.0 
5.418298751467e-05 3.907149665354e-03 0.0 
0.0 0.0 -6.155555555556e-04 
-5.188481864893e-04 -2.197935258578e-05 0.0 
-2.197935258578e-05 3.695326603665e-03 0.0 
0.0 0.0 -5.711111111111e-04 
-6.633735867020e-04 -1.155216560215e-04 0.0 
-1.155216560215e-04 4.354748692185e-03 0.0 
0.0 0.0 -6.488888888889e-04 
-6.563660005590e-04 -4.949228987729e-06 0.0 
-4.949228987729e-06 4.121813599109e-03 0.0 
0.0 0.0 -6.711111111111e-04 
-6.459120568716e-04 -1.400816422142e-05 0.0 
-1.400816422142e-05 4.433498309450e-03 0.0 
0.0 0.0 -6.488888888889e-04 
-6.749764366868e-04 -1.022061849862e-05 0.0 
-1.022061849862e-05 4.131528536263e-03 0.0 
0.0 0.0 -6.711111111111e-04 
-6.456501773717e-04 -4.182868476139e-07 0.0 
-4.182868476139e-07 4.441719427511e-03 0.0 
0.0 0.0 -6.488888888889e-04 
-6.743020789233e-04 6.977086704405e-06 0.0 
6.977086704405e-06 4.142139451712e-03 0.0 
0.0 0.0 -6.711111111111e-04 
-6.498198206585e-04 -1.519001385402e-05 0.0 
-1.519001385402e-05 4.455827176230e-03 0.0 
0.0 0.0 -6.488888888889e-04 
-6.621266125404e-04 -2.192043764385e-05 0.0 
-2.192043764385e-05 4.131761848184e-03 0.0 
0.0 0.0 -6.711111111111e-04 
-6.433759627766e-04 1.777448492757e-06 0.0 
1.777448492757e-06 4.439463053302e-03 0.0 
0.0 0.0 -6.488888888889e-04 
-6.671926554529e-04 1.273682377901e-05 0.0 
1.273682377901e-05 4.138458681040e-03 0.0 
0.0 0.0 -6.711111111111e-04 
-6.480568110285e-04 -2.776142626350e-06 0.0 
-2.776142626350e-06 4.452403490028e-03 0.0 
0.0 0.0 -6.488888888889e-04 
-6.701502197109e-04 -7.061847057976e-06 0.0 
-7.061847057976e-06 4.137807792637e-03 0.0 
0.0 0.0 -6.711111111111e-04 
-7.177695882629e-04 -1.636503915645e-04 0.0 
-1.636503915645e-04 4.444156976963e-03 0.0 
0.0 0.0 -6.580807474504e-04 
-6.451594591783e-04 2.175329864517e-06 0.0 
2.175329864517e-06 4.446899780493e-03 0.0 
0.0 0.0 -6.488888888889e-04 
-6.694083839789e-04 4.177588367940e-05 0.0 
4.177588367940e-05 4.159153595791e-03 0.0 
0.0 0.0 -6.711111111111e-04 
-6.460833817648e-04 2.181336474461e-05 0.0 
2.181336474461e-05 4.138351275158e-03 0.0 
0.0 0.0 -6.711111111111e-04 
-6.513168862435e-04 2.571939183972e-06 0.0 
2.571939183972e-06 4.455509820746e-03 0.0 
0.0 0.0 -6.488888888889e-04 
-6.788111886778e-04 -1.155514465084e-05 0.0 
-1.155514465084e-05 4.136861537379e-03 0.0 
0.0 0.0 -6.711111111111e-04 
-6.469737823218e-04 1.193188668569e-05 0.0 
1.193188668569e-05 4.441081764841e-03 0.0 
0.0 0.0 -6.488888888889e-04 
-6.791365925950e-04 1.914980606251e-05 0.0 
1.914980606251e-05 4.140018751422e-03 0.0 
0.0 0.0 -6.711111111111e-04 
-6.524039014686e-04 9.406282947327e-06 0.0 
9.406282947327e-06 4.453605425654e-03 0.0 
0.0 0.0 -6.488888888889e-04 
-6.708784002972e-04 1.294093541859e-05 0.0 
1.294093541859e-05 4.143170398070e-03 0.0 
0.0 0.0 -6.711111111111e-04 
-6.063230854436e-04 2.307129271710e-05 0.0 
2.307129271710e-05 4.258254267781e-03 0.0 
0.0 0.0 -6.358585252281e-04 
-6.548664831930e-04 3.770000341560e-06 0.0 
3.770000341560e-06 4.457898616998e-03 0.0 
0.0 0.0 -6.488888888889e-04 
-6.704807604954e-04 -3.181200734393e-06 0.0 
-3.181200734393e-06 4.139523021675e-03 0.0 
0.0 0.0 -6.711111111111e-04 
-6.519448377641e-04 9.585102352892e-06 0.0 
9.585102352892e-06 4.446587571773e-03 0.0 
0.0 0.0 -6.488888888889e-04 
-6.643169358871e-04 1.598213094946e-05 0.0 
1.598213094946e-05 4.135669863508e-03 0.0 
0.0 0.0 -6.711111111111e-04 
-6.628560694171e-04 4.220630236658e-05 0.0 
4.220630236658e-05 4.140094777351e-03 0.0 
0.0 0.0 -6.711111111111e-04 
-6.554176284668e-04 2.405280497155e-05 0.0 
2.405280497155e-05 4.445642855833e-03 0.0 
0.0 0.0 -6.488888888889e-04 
-6.690060439774e-04 2.025793204245e-05 0.0 
2.025793204245e-05 4.465053963584e-03 0.0 
0.0 0.0 -6.488888888889e-04 
-6.064361755080e-04 1.982912098429e-05 0.0 
1.982912098429e-05 4.335884925808e-03 0.0 
0.0 0.0 -6.691918585615e-04 
-5.634506181685e-04 -1.856852842989e-05 0.0 
-1.856852842989e-05 4.033404918511e-03 0.0 
0.0 0.0 -6.469696363393e-04 
-7.075315162010e-04 -3.247782179694e-04 0.0 
-3.247782179694e-04 4.305606072287e-03 0.0 
0.0 0.0 -6.600000000000e-04 
-6.398271965703e-04 3.921691488498e-04 0.0 
3.921691488498e-04 4.184231073606e-03 0.0 
0.0 0.0 -6.600000000000e-04 
-7.078150788587e-04 1.813354754417e-05 0.0 
1.813354754417e-05 4.306653958276e-03 0.0 
0.0 0.0 -6.822222222222e-04 
-6.381567957297e-04 6.336547185409e-05 0.0 
6.336547185409e-05 4.195569873202e-03 0.0 
0.0 0.0 -6.377777777778e-04 
-5.885253976530e-04 -3.076841355540e-05 0.0 
-3.076841355540e-05 4.174142785234e-03 0.0 
0.0 0.0 -6.377777777778e-04 

SCALARS element_materi_plasti_kappa_shear float
LOOKUP_TABLE default
1.898088649643e-03
1.711557051641e-03
5.588972410085e-03
5.625547274701e-03
3.501560146999e-03
7.282216725179e-04
3.474037579751e-03
1.788007566792e-03
3.522688057585e-03
5.576154387884e-03
3.814443258077e-03
1.461439354055e-03
5.618312958953e-03
3.751010953381e-03
5.727607835366e-03
5.730745783213e-03
3.485806207147e-03
6.593526459412e-04
1.219931793149e-03
1.129439279567e-03
5.615624188563e-03
1.975862239362e-03
2.216034645177e-03
5.387839390641e-03
4.000079313324e-03
4.090296639934e-03
3.221108468051e-03
5.760173945043e-03
4.029373913921e-03
5.523089313001e-03
9.290964436138e-04
4.104778426902e-04
5.763354464700e-03
4.818108341585e-03
5.606378478043e-03
5.926561905728e-03
5.911514681661e-03
5.601049808397e-03
3.175213616511e-03
3.219440155070e-03
2.522875806809e-03
5.613228156909e-03
1.314389251867e-03
3.093978597461e-03
5.492839635271e-03
1.306192107028e-03
5.547525844143e-04
5.389503964808e-03
2.459813448032e-04
3.614080566479e-03
2.381012112028e-03
1.496795143349e-03
1.233026261794e-03
2.292287135613e-03
5.625167383412e-03
1.964314716114e-03
1.446321564822e-03
4.840724010361e-03
9.102679910466e-04
5.734895616735e-03
3.755633206834e-04
5.378892164199e-03
2.330546822697e-03
1.083603178692e-03
5.615414212048e-03
2.131250052149e-03
1.604920622130e-04
5.736681007188e-03
9.706183660792e-04
5.615641150241e-03
4.241478972054e-03
5.874633494774e-03
5.400876667698e-03
4.558558305771e-04
1.986901141796e-03
5.633818988721e-03
5.766849763577e-03
9.985176399269e-04
7.761145875021e-04
9.970078257236e-04
9.298249562962e-04
3.329770783062e-03
2.084397622031e-03
1.770967893659e-03
3.674764228873e-03
3.652269385491e-03
4.362468712188e-03
4.711312884167e-03
4.861505206044e-03
3.454836133152e-03
2.515307574216e-04
3.378806059228e-03
4.682474906469e-03
4.702091845048e-03
6.023290360785e-03
5.787399672559e-03
3.332335907633e-03
5.769769997493e-03
3.930413862469e-03
2.258576815211e-03
3.348854702644e-03
5.740322727269e-03
4.646182631344e-03
5.409941681963e-03
2.044498184613e-03
6.875243722322e-04
5.293361504948e-03
5.009713215505e-03
4.133118292856e-04
5.636662395566e-03
4.631075715070e-03
3.269354662114e-04
2.695643369684e-03
3.134173944672e-03
2.394513305480e-03
2.006953041182e-03
2.358433690428e-03
5.680496234391e-03
3.862421047183e-03
2.174327584433e-03
9.453599785676e-04
3.463155550842e-03
4.910807945138e-03
2.193161772477e-03
6.864169327036e-04
2.833893873667e-03
2.488998346477e-03
2.624989890950e-03
5.744770783808e-03
8.095945313104e-04
4.016900758618e-03
5.625509815893e-03
2.834287320742e-03
2.685380764041e-03
5.614532063030e-03
5.633315586868e-03
4.360056895282e-03
3.033874980370e-03
5.768691703590e-03
2.715472649556e-03
5.618615457511e-03
5.760030365689e-03
3.718873437018e-03
4.339715431150e-03
2.744759010980e-03
2.474141180373e-03
3.120734003300e-03
2.345781934128e-03
3.431883328348e-03
2.738129196427e-03
2.430742527300e-04
3.688149105754e-03
8.387704164436e-04
2.991941880911e-03
5.628507851818e-03
2.024064835673e-03
4.530584219247e-03
1.460229167458e-03
4.626313542846e-03
3.347690434935e-03
2.537984777281e-03
4.987375735797e-03
8.656817948043e-04
5.285431651825e-03
3.359806122999e-03
5.766679500674e-03
3.342388058740e-03
2.107011085319e-03
2.928826646772e-03
3.947216798782e-03
1.526615979923e-03
2.569483147169e-03
4.520478967461e-03
3.465735922799e-03
2.391304591019e-03
2.779864257648e-03
5.040184275248e-03
2.772760665208e-03
5.618703717082e-03
5.759844672989e-03
1.983421498389e-03
2.659866027685e-03
5.141665672042e-03
2.630630496975e-03
1.717879912429e-03
3.236040194099e-03
2.634227826825e-03
5.637705462983e-03
4.673436176070e-03
5.143211062278e-03
1.164471534235e-03
2.407331954242e-03
4.803098661724e-03
1.296887470610e-04
2.602557350130e-03
4.814963733127e-03
6.908847608837e-04
5.616315559470e-03
4.285635638516e-03
2.554299594861e-03
4.795742518615e-03
3.724002802598e-03
3.932058578281e-03
5.497749636997e-03
1.904823798155e-03
3.244463136207e-03
3.481704692684e-03
4.488443812894e-03
3.550879868320e-03
3.254436741122e-03
4.171787960097e-03
4.925574717127e-03
3.793743182903e-04
1.944678655638e-03
2.211850110251e-03
3.157287865959e-03
4.893684273428e-03
9.647028340037e-04
4.643736636013e-03
3.342449784473e-03
2.377945774863e-03
4.477091166640e-03
4.380675775184e-04
4.584675247436e-03
3.699679224087e-04
5.360497299544e-04
1.154789664667e-03
1.594668909351e-03
4.784983334352e-03
1.546697935713e-03
1.383435816543e-03
1.200027858935e-03
1.005332530085e-03
4.949781021208e-03
3.380950736680e-03
5.631197498489e-03
0.0
1.665063222897e-03
2.673189362063e-03
2.423854183086e-03
4.621677125616e-03
5.764868817004e-03
4.590764537563e-03
1.954446704586e-03
4.960919873089e-03
4.205568891908e-03
3.320344157998e-03
4.410423547979e-03
5.507586445396e-03
2.709349539675e-03
1.580698985764e-03
3.836309747163e-03
6.017571415290e-03
3.278275707600e-03
3.423215564413e-03
3.753460771055e-03
8.863145511107e-04
3.518014179913e-03
1.918797851399e-03
1.292004175147e-03
9.082232253616e-04
4.755046881876e-03
3.676362788182e-03
2.294435875197e-03
4.952708212390e-03
4.718723855839e-03
3.481414558201e-03
5.642033395162e-03
3.523250685796e-03
3.640046674313e-03
2.917421140027e-03
3.717192777981e-03
1.585318004735e-03
3.357027743210e-03
2.838102944494e-03
2.007874057392e-03
4.547203828395e-03
1.589585432750e-04
3.708601455527e-03
2.047895045112e-03
1.700131027140e-03
1.626515464048e-03
3.929577795643e-03
6.380620704985e-04
2.384202047897e-03
3.820927590901e-03
3.640893065081e-03
3.744578397567e-03
8.473399745818e-04
1.972105034185e-03
1.841129336947e-03
2.144602490372e-03
4.453686851147e-03
2.425319558498e-03
2.633326203696e-03
2.506076668662e-03
1.050423010888e-03
3.001112002868e-03
1.139329181863e-03
6.012684016247e-03
6.015982038197e-03
3.371674230462e-03
1.754085065341e-03
1.538449888003e-03
3.733462517399e-03
1.667297713938e-03
1.800453244169e-03
3.281965826456e-03
5.778410886410e-03
2.212308197419e-03
4.148099921920e-03
1.220247403596e-03
6.015650448016e-03
1.627598388192e-03
3.408069598847e-03
1.126335977517e-03
4.035749165321e-03
2.797696233239e-03
1.935926706622e-03
3.513914298156e-03
6.014293587579e-03
2.340466570169e-03
3.854547700326e-03
1.257539573865e-03
4.211250131042e-03
4.445904991403e-03
1.749623395989e-03
4.109773335894e-03
6.017625920185e-03
4.749940685194e-03
6.020004411071e-03
4.066219120171e-03
4.677049970116e-03
1.453454976364e-03
3.226922138058e-03
3.605874528002e-03
3.801247617448e-03
3.116888250637e-03
6.023922603081e-03
3.900035487013e-03
3.427519582657e-03
2.541127325687e-03
1.304161433012e-03
3.097491959287e-03
1.828369059598e-03
3.480341907346e-03
1.973411461228e-03
2.245667589757e-03
4.717451703464e-03
1.865551334307e-03
3.320796694163e-03
3.948013352555e-03
3.499794145216e-03
6.014761074790e-03
2.797145162977e-03
1.840410315571e-03
2.476504328130e-03
1.777663760713e-03
1.715690849975e-03
5.020957594455e-03
3.604591250536e-03
2.461088412607e-03
3.037406839291e-03
6.020345341033e-03
5.688581187917e-03
4.974163615528e-03
4.623253995230e-03
3.403798714710e-03
2.542077870463e-03
1.793786123597e-03
2.084462978973e-03
3.443262116423e-03
3.946499106711e-03
2.984226002412e-03
5.025076478443e-03
1.876215262827e-03
2.954178187483e-03
3.441589599408e-03
2.662722220519e-03
6.012685245852e-03
6.016133295997e-03
5.644449372993e-03
3.701147822208e-03
4.921131353075e-03
1.545366707812e-03
2.377422492958e-03
1.336075859690e-03
2.584345771663e-03
3.338459339121e-03
4.044137853151e-03
5.756411723275e-03
4.924677558882e-03
3.800097117390e-03
3.895652219981e-03
1.419401544672e-03
6.642135258918e-04
2.837095037860e-03
3.243261720869e-03
3.038062407003e-03
6.767206337308e-04
3.595162726105e-03
1.242964933884e-03
1.791112892290e-03
5.886267587663e-03
4.319899469577e-03
3.400768600181e-03
9.348339381145e-04
3.083946857624e-03
2.871885156030e-03
3.962075947404e-03
6.018407561000e-03
3.198386693765e-03
3.766468143188e-03
2.946356736400e-03
4.889394747190e-03
3.802316230935e-03
6.019114699465e-03
5.878766063712e-03
5.874669666802e-03
5.846896484413e-03
4.057636266581e-03
4.920589971590e-03
5.113499940864e-03
2.631031740165e-03
2.507872621076e-03
2.813875816799e-03
5.059815959048e-03
6.015552509770e-03
5.051955043481e-03
4.017840351881e-03
5.084516464713e-03
4.404291654299e-03
3.045170865042e-03
2.550534457101e-03
1.338384591573e-03
5.646979922164e-03
2.469749811606e-03
5.384355873580e-03
2.775047533559e-03
1.799833226776e-03
5.623003894310e-03
1.949666713895e-03
5.877628319843e-03
5.634831675280e-03
3.696725743160e-03
2.315629071755e-04
5.876846230322e-03
5.625196717779e-03
1.763143550620e-03
4.153888461443e-03
6.029088701749e-03
0.0
2.757791127203e-03
3.859953108443e-03
3.533917503000e-03
3.571063382657e-03
1.501745143730e-03
5.871219529997e-03
2.671327868410e-03
8.692276940893e-04
5.775417212412e-03
4.034087724254e-04
2.877183319108e-03
7.845786155791e-04
3.064343649170e-03
6.008207932276e-03
5.886416939798e-03
3.769097730369e-03
5.416058611578e-04
6.663225248162e-04
9.264097944293e-04
5.017458723071e-03
3.488320970718e-03
3.568311924561e-03
5.888518575312e-03
3.493284622980e-03
6.023303222970e-03
4.495210095570e-03
3.909299515792e-03
1.880309591682e-03
4.118987834466e-03
1.217020428602e-03
5.888099209517e-03
5.858622551973e-03
5.871281062107e-03
3.837749785842e-03
2.642161995129e-03
3.082539161524e-03
3.932200029967e-03
5.884737103442e-03
1.826405636236e-03
2.101531865548e-03
2.230991329468e-03
4.079210194316e-03
6.020724823755e-03
6.550876827097e-04
5.870906118256e-03
2.061330388785e-03
5.887134204678e-03
5.158371209842e-03
1.735033884423e-04
2.876871465872e-03
5.119259939334e-03
5.882578435152e-03
4.090807838191e-03
4.627625074893e-03
1.056059908013e-03
5.381604359168e-03
2.190366286691e-03
2.266492401597e-03
4.233392830062e-04
5.876777887152e-03
1.506277909376e-03
4.962026184372e-03
3.779613678589e-03
1.886868617371e-03
2.137991957806e-03
3.928710791902e-03
5.887503593490e-03
2.741417539435e-03
4.307478873942e-03
3.496708023987e-03
3.907072451988e-03
2.300842511533e-03
4.002515627125e-03
3.405034769092e-03
4.439472514518e-03
4.416922306321e-03
3.333573885478e-03
2.813436354788e-03
1.986436464636e-03
2.602497471918e-03
4.536209320527e-03
3.650011259562e-03
6.021028889714e-03
5.248340798342e-03
1.675475904991e-03
5.860952443923e-03
5.749243689854e-03
3.130366137552e-03
2.446157471383e-04
6.015808451350e-03
5.216828897001e-03
1.891089920309e-03
5.872438978963e-03
4.140650168509e-03
2.670441489397e-03
3.672959727573e-03
3.555689535213e-03
3.535938459604e-03
4.076028772190e-03
4.323837798527e-03
2.998150908977e-03
4.588814172264e-03
3.990156233101e-03
2.851900776380e-03
4.246963853771e-03
2.223560657060e-03
3.981478068334e-03
1.793397212351e-04
2.156315504880e-03
2.097111767555e-03
3.079683430517e-03
3.294455684710e-03
4.105285117446e-03
3.968717882503e-03
1.929111457824e-03
5.886335248325e-03
3.894339398565e-03
3.209529361218e-03
3.730809639925e-03
3.117776647955e-03
0.0
3.867784336933e-03
2.563323944442e-03
0.0
3.036200146822e-03
4.407600196631e-03
5.076924335598e-03
3.778145075046e-03
3.865417070565e-03
3.297599931106e-03
3.075297279978e-03
5.632622103086e-03
3.567491943935e-03
1.510039486835e-04
1.062090790194e-03
2.398810579769e-04
1.837694429977e-03
5.063783013299e-03
5.108968424711e-03
4.804181478442e-03
2.074537259418e-03
4.022688107491e-03
5.049168604237e-03
1.160096365863e-03
2.576389109968e-03
2.078055360937e-03
6.021089235366e-03
5.881485963002e-03
2.857156921414e-03
3.246692301347e-03
3.629498285744e-03
5.229137518708e-03
1.125785695799e-03
4.880206649917e-03
6.831862832840e-04
2.949407645451e-03
3.288357648769e-03
2.441249237017e-04
2.697767110358e-03
5.212641935745e-03
1.752329176366e-04
3.063219008196e-03
3.208047659791e-03
4.245083115866e-03
2.103654506232e-03
2.019431576275e-03
1.421520152248e-03
5.225289819944e-03
5.632171442564e-03
4.908962959162e-03
1.901082200919e-03
7.152422822502e-04
3.069002747989e-03
3.072118229683e-03
3.221248037221e-03
0.0
2.370160903131e-04
5.310782124113e-04
1.561897998935e-03
4.249046179327e-04
3.032717901044e-03
0.0
1.864630217503e-03
4.122518464148e-03
3.216172429738e-03
5.209439031162e-03
4.234717777356e-03
3.854408568460e-03
2.248560931312e-03
6.787283102328e-04
5.869561306561e-03
6.023626633703e-03
3.742684779077e-03
3.077333598062e-03
2.287820883481e-03
6.009559958077e-03
1.773006016400e-03
3.202342050267e-03
3.064099742472e-03
2.912794716067e-03
5.888568312805e-03
6.006021539653e-03
4.166942996851e-04
0.0
8.441431879688e-04
3.250853044044e-03
5.464355466467e-03
1.629622625435e-04
4.849407318231e-03
0.0
4.167229288684e-03
1.911385708274e-04
1.855469029488e-04
3.998077199970e-03
5.296543687334e-03
4.237134437895e-03
3.194088539209e-03
2.435063913800e-04
4.153210895562e-03
5.861217735276e-03
6.009791560538e-03
3.214582083037e-03
4.335922088801e-03
5.878708529905e-03
4.662336340161e-03
6.526260522665e-04
4.186243951470e-04
2.626649538589e-04
2.550412609600e-03
6.014031515604e-03
5.628686910939e-03
0.0
3.011280459441e-03
5.891985303537e-03
6.031512279974e-03
6.009444186578e-03
4.549765932770e-03
5.010826545378e-03
5.864343994050e-03
5.879214029285e-03
4.848773824588e-03
1.474383398766e-04
3.191688509645e-03
3.230904037540e-03
0.0
5.898372924748e-03
6.024797090299e-03
5.861254662737e-03
1.875139568358e-04
1.924224746449e-04
5.871534849748e-03
5.866174925494e-03
4.404639489746e-03
3.191281210692e-03
4.696669621923e-03
3.777426634559e-03
3.187300555971e-03
1.702406008909e-04
1.962141474448e-04
1.658004844312e-04
1.808088655351e-04
3.181347729344e-03
2.857668427393e-03
0.0
4.096797302130e-03
0.0
5.867214387611e-03
5.859324762587e-03
5.872796053912e-03
1.028821985916e-03
1.936630062470e-03
5.864275948506e-03
5.016839626708e-03
5.891943567255e-03
5.328174982674e-03
5.640245512770e-03
2.701665040976e-03
6.022983703665e-03
6.017003585591e-03
5.139388847067e-03
5.463393282501e-03
4.411575174769e-03
0.0
2.784277416710e-03
4.061884078683e-04
5.259286228377e-03
2.908833121132e-03
4.850143225763e-03
1.472710261241e-03
5.420604269261e-04
5.189202363176e-03
3.073447472489e-03
2.406449859391e-03
4.889636581614e-03
5.255592395657e-03
2.405392247394e-03
4.614670723085e-03
4.023251322217e-03
4.374804059548e-03
4.518070815714e-03
2.466020010935e-03
2.911636777842e-03
3.205404967252e-03
4.113353234630e-03
5.029297459228e-03
4.665945937406e-03
1.491277829959e-03
5.243929663885e-03
4.941851688277e-03
3.558682000750e-03
4.285917425276e-03
4.244579152953e-03
5.321773155122e-03
5.122199489663e-03
3.931103671375e-03
5.320806263415e-03
4.878121851522e-03
4.664188533065e-03
5.406777608810e-03
5.283094587084e-03
4.496087669439e-03
4.444458481023e-03
1.481875117849e-03
1.376911560334e-03
7.503612397896e-04
4.158489178226e-04
5.132283977735e-03
5.119873486994e-03
4.012352521065e-04
5.178558947058e-03
3.672287986049e-03
4.759407346754e-03
4.816897172186e-03
2.140610803278e-03
4.851861367702e-03
3.563436395175e-03
4.454648778840e-03
5.513811741196e-03
1.417713283077e-03
5.445572691693e-03
4.665806061983e-03
1.612851643597e-03
1.714759419245e-03
3.438255392646e-03
4.137623841864e-03
2.296870595819e-03
4.830815432738e-03
4.338838747336e-03
3.342675223842e-03
4.545437980776e-03
4.722218982109e-03
4.634762812797e-03
1.261713162161e-03
3.173154214210e-03
5.055839016286e-03
4.803789849080e-03
2.857994266569e-03
4.062765352512e-03
5.318088809597e-03
4.463221862301e-03
7.092725784376e-04
7.188837629253e-04
1.457330486298e-03
4.991375457445e-03
4.302592537165e-03
3.790381226361e-03
3.831560113468e-03
5.088582652342e-03
3.475465703060e-03
4.681796565250e-03
1.519021719428e-03
5.403126934034e-03
3.381852318330e-03
1.662591917742e-03
3.207575975263e-03
2.427493216678e-03
1.903845874229e-03
3.731045389275e-03
0.0
0.0
4.284173046855e-03
1.393362755241e-03
4.325320826384e-03
4.194819161297e-03
2.641355429632e-03
1.719362769164e-03
5.077648961166e-03
6.798414436796e-04
2.568347176664e-03
5.235874665598e-03
1.155384575714e-03
4.027503858662e-03
3.708502873321e-03
1.170523382264e-03
5.180869859233e-03
4.605325228012e-03
1.354425768675e-03
5.208339196432e-03
5.174454579939e-03
1.560392004205e-03
2.066462287853e-03
1.601268088310e-03
4.585233918787e-03
3.608599847271e-03
5.182420533551e-03
5.047083544607e-03
4.455861124158e-03
4.416860348409e-03
1.262227011679e-03
4.546872248422e-03
4.575231375888e-03
3.645268122884e-03
4.332465809534e-03
4.772714813264e-03
3.224253829144e-03
4.911353602778e-03
3.039446067918e-03
3.515433690721e-03
2.274449684327e-03
2.423089078890e-03
4.439297428605e-03
3.365892711140e-03
1.732320824868e-03
8.737837506730e-04
4.468449371054e-03
1.692563081125e-03
5.400363428095e-03
4.604462714681e-03
4.720726376404e-03
5.614884535387e-03
2.906736885669e-03
1.519615723243e-03
9.588952552173e-04
4.497763875840e-03
4.168753252709e-03
6.612546370243e-04
2.334923660638e-03
1.349036943465e-03
4.164466221195e-03
2.463752493733e-03
4.155025201166e-03
2.292333716335e-03
4.974481416777e-03
1.996568548932e-03
4.538601579327e-03
1.422865093935e-03
4.366068561900e-03
3.354002373652e-03
4.590163414602e-03
2.268610930300e-03
1.307910686375e-03
3.881907493683e-03
4.205574957263e-03
2.920421497113e-03
4.187784013099e-03
1.586935699350e-03
4.244922793799e-03
1.226338966711e-03
5.150001748039e-03
4.374413810112e-03
4.622543358684e-03
5.394833408084e-03
3.667741289077e-03
1.224125341458e-03
4.102435654437e-03
5.282422523208e-03
2.057763750215e-03
4.628995763583e-03
4.635584555752e-03
1.589158083945e-03
4.234441115404e-03
3.821646127754e-03
1.821001696294e-03
2.204998645608e-03
3.531838972984e-03
4.458682283978e-03
2.705458114869e-03
3.369397376082e-03
4.409627360570e-03
3.999189459908e-03
3.940589006345e-03
3.315097548747e-03
5.049644574621e-03
3.970188919273e-03
3.865457449799e-03
5.335960465199e-03
4.786774600188e-03
4.326858616178e-03
4.742369029763e-03
2.549037087326e-03
2.376936366428e-03
1.302651264701e-03
4.273366818875e-03
2.508792953611e-03
4.299375558000e-03
4.132696996014e-03
3.389416804488e-03
2.034302780513e-03
2.172486861284e-03
2.165955219120e-03
2.337607654919e-03
1.391516248166e-03
4.919034255652e-03
2.855049591197e-03
4.941701353565e-03
3.027877065094e-03
4.063567962409e-03
3.458337729904e-03
3.331673446639e-03
1.430769057123e-03
5.141025598269e-03
5.386317345378e-03
4.241134245443e-03
2.509978051558e-03
3.760813505748e-03
4.270720268813e-03
2.680282115890e-03
2.797254708148e-03
2.037210772217e-03
1.757966815576e-03
2.721514213298e-03
1.824017326781e-03
1.691969220267e-03
3.496848774705e-03
4.195328690588e-03
4.995266969494e-03
2.135838877742e-04
2.937051639141e-03
2.897351463058e-03
2.682523461315e-03
4.103488450026e-03
3.156230924954e-03
2.130711016344e-03
2.894759596741e-03
4.775391991284e-03
2.173955602432e-03
7.788298120350e-04
1.098630592694e-03
1.847249263452e-03
2.207153680070e-03
3.068504768790e-03
3.066805177260e-03
1.285438509384e-03
1.138227833186e-03
3.930039062681e-03
1.865163626252e-03
4.708651258612e-03
4.829683528524e-03
3.996321467094e-03
4.986241804288e-03
5.148048922335e-03
3.260814721480e-03
4.534131096749e-03
1.457572490377e-03
3.023482251318e-03
2.967208668201e-03
1.645155887212e-03
1.166961927379e-03
2.469642956954e-03
2.937206611966e-03
3.106798960592e-03
1.956772177711e-03
3.328078992345e-03
2.976908204584e-03
3.106378807451e-03
2.248119148986e-03
4.413942525391e-03
4.439751776256e-03
2.976392922480e-03
5.010927287276e-03
1.627877766205e-03
5.381669347488e-03
3.196867194148e-03
5.344914307263e-03
4.057033022443e-03
1.547485956853e-03
4.123901821043e-03
5.087178339347e-03
3.367611906554e-03
2.440942977478e-03
4.251329185006e-03
3.207452396219e-03
1.238538391459e-03
5.593643574323e-03
1.085824202323e-03
5.357726211726e-03
5.214885560155e-03
4.544742657186e-03
3.963126868919e-03
4.882709138368e-03
3.144855381723e-03
3.686700440280e-03
5.279854728997e-03
4.499470890681e-03
4.577778607108e-03
4.305077680676e-03
1.417434976899e-03
4.713217591497e-03
5.753142823153e-03
5.329243380659e-03
2.984954618286e-03
3.988249552619e-03
3.801645055376e-03
3.235172335353e-03
4.367027888534e-03
4.537516687745e-03
9.970547420202e-04
1.879690939538e-03
3.146058965649e-03
3.016269873665e-03
3.169182906176e-03
5.469468509572e-03
5.150681403781e-03
5.240179499594e-03
2.868576175316e-03
4.786586511308e-03
4.405806436379e-03
5.327777423767e-03
4.543377517499e-03
3.194953866718e-03
3.016658390279e-03
4.683655011930e-03
5.186209915555e-03
4.713484120123e-03
4.548206090170e-03
4.976866936040e-03
5.217579174467e-03
4.840160058745e-03
3.891876227783e-03
2.750258353967e-03
4.710107048531e-03
4.455858956637e-03
1.652249011372e-03
3.184856128294e-03
3.569010409292e-03
3.985083673358e-03
1.671830613806e-03
3.055529241679e-03
4.284410717116e-03
3.160882025297e-03
3.286974656951e-03
4.234469480443e-03
3.357266040902e-03
5.832224582001e-04
3.799395819487e-03
4.636565872287e-03
5.317751045333e-03
3.481406310990e-03
3.589447844127e-03
4.274698478407e-03
8.890581030903e-04
4.506465777264e-03
3.816858646073e-03
3.354799917759e-03
4.576186082816e-03
1.676633756965e-03
4.747043128416e-03
5.187298868340e-03
4.376407166304e-03
4.744547438801e-03
4.830907234008e-03
5.222428902797e-03
1.201860364892e-03
4.408544086062e-03
5.240903661220e-03
4.852152895878e-03
4.077198400922e-03
3.222276421180e-03
3.512191017662e-03
9.501978410136e-04
5.017421712005e-03
1.785962296740e-03
1.474080171039e-03
4.696567737555e-03
5.360782323002e-03
1.502195583134e-03
3.694570648950e-03
4.514270677664e-03
3.456703744762e-03
1.710610669055e-03
2.238950842234e-03
1.102844825229e-03
1.463725195595e-03
1.298709706981e-03
3.778806340878e-03
6.016319104850e-03
1.770958764898e-03
5.108227611126e-03
2.760707398476e-03
4.377813891094e-03
1.251866579467e-03
5.389992930062e-03
1.329712956055e-03
2.093643212440e-03
4.546924323321e-03
3.272001809033e-03
5.085454575005e-03
2.505652950449e-03
4.652855770583e-03
5.305274251484e-03
4.381154287587e-03
5.353154153797e-03
4.847010383273e-03
4.984300817298e-03
1.461091507052e-03
4.931565832531e-03
4.651005362573e-03
3.390008201393e-03
2.079335679828e-03
5.500831082514e-03
1.712811546916e-03
1.993152190864e-03
4.885708378640e-03
1.216541976104e-03
3.495171392387e-03
4.675591106622e-03
5.272532937545e-03
5.420840566733e-03
4.583883740699e-03
5.018032232522e-03
2.928193951873e-03
4.734205484299e-03
2.384407325899e-03
5.226115629599e-03
2.691920380854e-03
2.821439891355e-03
3.352681362175e-03
3.005156168196e-03
3.913667205993e-03
3.168162756046e-03
3.350908701417e-03
1.499540076307e-03
3.184302201097e-03
5.155825657334e-03
5.317650690563e-03
4.630365567379e-03
5.181610671434e-03
3.234889799458e-03
4.952004252636e-03
3.313357221722e-03
5.062045811440e-03
4.816274352400e-03
4.818099421099e-03
4.206405183177e-03
3.056304276052e-03
5.021296019776e-03
4.023314824600e-03
1.538746154334e-03
1.749640413363e-03
2.581840747201e-03
3.659895849796e-03
5.198547264467e-03
4.682421595145e-03
3.094059173860e-03
4.145541869622e-03
4.812672239436e-03
5.049278077315e-03
5.190177469339e-03
4.186777916003e-03
4.922584909275e-03
3.519092201106e-03
4.841945469779e-03
3.459285380478e-03
5.318103245047e-03
5.375730321285e-03
3.907284938938e-03
1.543762532817e-03
4.924088818987e-03
3.784631978290e-03
2.966232018542e-03
4.115084444643e-03
4.786551662215e-03
1.580177343230e-03
3.609609721518e-03
4.218839080460e-03
5.235324707913e-03
4.343885302361e-03
4.794481932196e-03
4.091858975395e-03
3.838629298260e-03
4.150165290363e-03
5.016907512540e-03
4.843633938430e-03
4.487236376390e-03
5.391551705940e-03
3.964776956212e-03
2.504722224904e-03
5.126866157334e-03
5.351865102208e-03
3.421523486689e-03
3.585506366848e-03
2.798993443276e-03
4.621665338398e-03
2.797993190934e-03
4.008922037687e-03
2.829376981743e-03
4.717608549950e-03
5.388550033297e-03
2.927070685157e-03
9.888206599125e-04
5.353078015974e-03
2.956776001860e-03
3.401650254318e-03
5.219422455657e-03
4.518245132016e-03
4.710258760874e-03
3.004500417497e-03
7.783076031665e-04
5.413634110948e-03
3.785549847173e-03
4.475770357229e-03
5.138569278830e-03
4.994909691428e-04
4.670933741567e-03
2.116054709690e-03
4.214096454066e-03
3.759983120660e-03
2.888083435173e-03
5.100516085727e-03
3.877479781614e-03
2.594149316670e-03
3.983879265493e-03
8.165376085929e-04
4.568690469439e-03
4.756083401337e-03
5.452995028681e-03
4.864947734128e-03
2.043386112127e-03
4.669335817464e-03
5.443502610785e-03
5.653283028556e-03
4.924221690428e-03
3.131071400812e-03
4.275149951314e-03
5.153531541623e-03
3.483038301481e-03
4.661124208018e-03
4.348587759454e-03
4.969873350217e-03
4.879399467596e-03
3.061812406022e-03
3.059832632554e-03
4.421565437881e-03
4.367095910945e-03
3.892926071110e-03
4.346817112173e-03
3.712232804534e-03
5.218395199065e-03
3.094455246611e-03
6.015990180958e-03
3.548926640244e-03
3.622651461457e-03
3.720989189851e-03
1.917689178557e-03
3.325283759535e-03
4.075520205487e-03
3.823291195348e-03
4.324099751295e-03
4.442674123027e-03
4.635684442584e-03
9.413748427401e-04
3.116803001466e-03
2.990095831993e-03
4.183071766205e-03
4.385629020003e-03
5.129593891230e-03
1.345885066556e-03
1.412365657132e-03
3.622797484364e-03
3.154436867303e-03
2.871305297426e-03
3.029007655749e-03
4.352626062824e-03
1.378394098464e-03
3.551958554456e-03
4.673475020981e-03
1.371021261255e-03
5.626560674904e-03
5.140839489265e-03
3.418542020247e-03
4.761469995819e-03
5.340586268801e-04
4.506684223349e-03
3.820960628806e-03
5.232531716934e-04
5.112554520633e-03
1.291496177796e-03
4.218615333140e-03
3.856857888662e-03
3.312116629244e-03
3.970751915483e-03
5.253907736522e-03
4.273307236226e-03
3.748874096129e-03
3.658427402968e-03
4.072848571604e-04
1.086582957134e-03
4.988340503471e-03
4.027251590836e-03
5.093944963423e-03
2.082136659873e-03
4.849015704641e-03
5.165290452317e-03
3.099958031898e-03
4.951145023831e-03
4.800202598035e-03
4.202189340322e-03
3.419837614494e-03
3.627723820665e-03
5.408792691943e-03
3.669252203194e-03
3.949521165471e-03
3.687500356751e-03
4.577290825851e-03
3.457616430748e-03
2.136542330794e-03
3.737765005846e-03
2.300519927022e-03
4.313534934977e-03
2.336835197399e-03
4.185013498204e-03
5.058632123647e-03
4.845402042790e-03
3.258903797757e-03
4.157867652743e-03
4.893039108893e-03
4.931637404463e-03
1.098595117713e-03
4.276866742041e-03
5.348494697504e-03
2.274754905370e-03
3.720777205156e-03
5.805350037142e-04
5.023459904507e-03
2.007146323956e-03
3.516536072154e-03
4.448684330717e-03
4.188265097601e-03
3.987994876210e-03
3.912543751932e-03
2.560060998670e-03
2.716022476841e-03
5.063727723485e-03
4.170414237267e-03
3.608810319198e-03
4.473149988466e-03
3.442042596625e-03
2.210516303654e-03
2.509306508329e-03
3.743956289805e-03
3.211982025181e-03
4.884087041847e-03
3.294332851053e-03
5.470028085312e-03
4.968312631613e-03
3.648648400585e-03
5.541933827682e-03
2.466546029825e-03
5.345527466215e-03
3.948482313971e-03
4.328605554235e-03
5.112321421619e-03
2.597683647667e-03
4.115029269880e-03
3.480150837066e-03
4.019186076767e-03
2.272393606485e-03
4.466658165346e-03
3.272828574776e-03
3.852140252587e-03
3.985530946530e-03
5.486019707335e-04
3.987424940170e-03
8.554820142323e-04
9.504026979452e-04
3.679756779393e-03
4.895621551102e-03
4.114719913355e-03
2.260582699587e-03
5.890341927598e-03
2.361196323926e-04
2.408933314321e-03
3.696570178526e-03
3.550836608979e-03
2.949897068498e-03
2.521788525811e-03
3.865826064652e-03
4.111851899734e-03
4.291338337805e-03
5.060421643315e-03
1.172731196860e-03
3.380194152908e-03
3.645284340248e-03
1.945070109137e-03
3.263324571413e-03
4.151874911649e-03
4.514501832049e-03
6.678202814271e-04
4.351335771458e-04
1.356777941614e-03
3.683303970356e-03
2.761138937455e-03
2.431180347952e-03
2.170243072616e-03
3.811952085602e-03
4.376533666742e-03
3.777763179950e-03
2.723670872440e-03
4.310662224790e-03
3.611591761329e-03
4.750283438547e-03
3.815774579288e-03
3.851468414051e-03
1.944050795949e-03
2.890987107893e-03
3.905608017060e-03
4.252910968047e-03
3.994175970999e-03
2.110867462038e-03
3.944631663858e-03
2.390664015243e-03
1.124080825948e-03
5.376953591042e-03
1.187499430943e-03
2.482769913719e-03
3.879865431681e-03
2.200126612380e-03
3.952345974418e-03
1.811928905985e-03
3.356343314340e-03
3.983365723056e-03
3.440832380153e-03
3.590886272855e-03
5.778240294564e-04
5.177570466669e-03
2.852018100216e-03
5.139923105349e-03
4.369987342579e-03
4.075819768185e-03
4.112944593259e-03
2.558534294897e-03
8.044732495801e-04
4.846447285547e-04
4.204879470093e-03
5.110788681143e-03
2.351481271792e-03
4.405521083047e-03
2.090274329685e-03
4.476809174747e-03
5.754213561495e-03
1.628784469015e-04
5.886643384746e-03
5.901414175980e-03
3.458575707159e-03
2.812867409509e-03
4.241011420016e-03
2.631198119222e-03
8.395301720451e-04
4.442063176974e-04
5.416028733597e-03
4.290643224771e-03
3.238039868260e-03
6.016407931761e-03
1.526058316679e-03
6.021404174662e-03
4.252293004767e-03
2.770700704573e-03
4.037975120995e-03
2.603169544957e-03
1.275543801189e-03
2.434051418874e-03
4.504021302162e-03
5.149429450184e-03
2.644039120232e-03
4.570681309338e-03
0.0
2.683791218028e-03
4.759413754436e-03
2.380487600569e-03
2.182231533104e-03
4.074582213105e-03
1.142827734401e-03
1.613360141681e-03
1.808060117334e-03
2.084692713343e-03
3.738888209100e-03
3.552566181395e-03
4.601487464017e-03
5.387303345294e-03
1.895037985309e-03
4.547788030597e-03
5.406404464742e-03
2.430574595185e-03
8.388200309560e-04
2.308570276636e-03
3.567446514914e-03
4.605708546548e-03
3.532472732913e-03
9.838862332245e-04
4.035330324993e-03
1.450893591273e-03
3.586284318698e-03
3.831672797715e-03
4.170149154859e-03
4.132286282917e-03
2.127223100425e-03
9.534914560383e-04
4.136513997941e-03
1.590009906794e-03
3.818359164413e-04
5.392622240487e-03
5.134895118372e-03
2.358553379801e-04
4.335577273877e-03
1.652975194542e-03
1.733439247888e-03
4.869520458032e-03
4.202282593856e-03
4.701518647351e-03
2.723483443401e-03
3.214868672807e-03
5.618894135867e-03
1.429456025818e-03
4.994104156300e-03
3.749384831161e-03
1.080098481845e-03
4.468944246879e-03
2.850501028317e-03
5.229780796344e-04
2.395768144624e-03
4.403868178899e-03
4.552935884602e-03
1.122570998338e-03
3.592706244326e-03
4.742720139637e-03
4.941703297221e-03
2.257577943858e-03
1.773224354185e-03
3.849204691397e-03
4.071024716265e-03
5.196053913261e-04
5.764981452673e-03
5.619546678147e-03
3.612944456399e-03
5.643094491975e-03
5.633179208426e-03
2.812315344072e-03
2.684208433063e-03
5.774953852408e-03
0.0
1.642459376677e-03
3.615456688328e-03
2.303853360214e-03
2.356132906425e-03
1.288375400597e-03
1.523495052580e-03
3.689273836909e-03
2.596505031526e-03
1.903570888892e-03
4.768488117706e-03
6.016953446853e-03
6.019036760985e-03
2.772486331110e-03
3.327990862488e-03
3.338379874677e-04
1.033148740315e-03
1.155791037094e-03
1.182207438934e-03
4.038315348238e-03
2.314844929729e-03
2.560267431529e-03
6.984958962329e-04
5.129856721972e-03
2.519676737210e-03
5.369560606069e-03
4.921920194395e-03
6.028148600870e-03
6.024927523322e-03
3.694826416134e-03
2.643467046654e-03
1.596779775992e-03
2.730315514544e-03
5.897744789275e-03
7.273837460651e-04
8.727452914998e-04
5.171338012505e-03
3.477662201300e-03
5.409990092851e-03
4.766370635139e-03
5.205506796535e-03
4.984047288898e-03
3.660646591583e-03
2.009740382611e-03
1.966632147612e-03
4.354966851432e-03
5.090565716970e-03
3.059094088471e-03
3.470038770667e-03
3.693952598066e-03
3.772778857696e-03
9.470076460965e-04
1.787152598033e-03
5.767752696873e-03
4.034960654971e-03
5.756079931259e-03
5.497145112359e-03
4.509775173530e-03
5.432774287522e-03
2.645253503307e-03
2.511337306943e-03
5.406759837386e-03
2.304638287393e-04
1.771966949554e-03
5.883028560639e-03
8.247074295860e-04
3.324809475671e-03
5.529445601793e-03
5.796810560745e-04
3.735041338849e-04
6.010222977965e-03
3.068950323843e-03
5.659948107382e-03
5.391425944959e-03
3.060672020253e-03
3.701494320501e-04
5.629476601577e-03
9.427571928059e-04
5.445974576444e-03
5.891393706380e-03
5.428284510192e-03
1.205305933195e-03
3.730388698424e-03
2.799861645862e-03
4.776394335281e-03
6.019211625133e-03
4.734875419906e-03
6.017874104347e-03
5.525430350756e-04
5.764155817737e-03
1.379826528368e-03
7.818426790371e-04
5.771398210854e-03
5.772672408195e-03
5.750122728571e-03
3.364853212441e-03
3.669284283972e-03
1.289535518306e-03
5.767367083341e-03
2.258902969130e-03
7.533765705701e-04
4.926344783199e-03
3.188420317882e-03
5.482259513434e-03
5.953772275136e-03
5.893932355244e-03
1.556562156404e-04
7.519299109275e-05
3.129847729158e-03
3.204854259840e-03
5.889443725007e-03
5.949944079457e-03
3.717729449494e-04
0.0
5.412787547920e-03
5.428215329942e-03
1.134510679474e-03
5.501228040530e-03
3.826590884489e-03
3.385765392231e-03
4.259215926484e-03
1.033495775153e-03
4.492845514927e-03
9.286955643622e-04
3.016528213225e-03
5.456768976603e-03
5.324962882905e-03
3.256994374191e-03
3.913984556786e-03
5.533514411026e-03
5.100824001865e-03
4.804745634301e-03
3.058531543379e-03
4.339009031687e-03
5.424931143324e-03
1.698845153725e-03
4.086781350246e-04
5.273729960381e-03
4.969714239598e-03
7.789488230220e-04
4.461302677928e-03
5.625097067299e-03
5.215165969830e-03
5.527785936845e-03
4.184635835076e-03
2.450732908034e-04
1.273338932172e-03
1.607268086116e-03
3.578185125380e-03
4.310413086534e-03
5.506795170732e-03
5.617673364480e-03
6.645911850498e-04
6.388748237895e-04
1.019502716968e-03
4.467708076661e-03
2.159520161712e-03
5.529519713859e-03
1.082739524012e-03
5.378468444182e-03
3.624426704377e-03
5.642484205688e-03
4.966747949266e-03
3.587861483021e-03
5.771512121934e-03
5.779451194585e-03
5.760792399076e-03
7.089390944598e-04
5.397932790268e-03
5.622343722044e-03
5.472950722519e-03
5.052268972403e-03
5.880549672383e-03
4.768122438881e-03
0.0
9.845756963829e-04
5.283361989644e-03
3.879740068610e-03
5.433335536349e-03
5.248543119057e-03
5.652713428879e-03
4.807093912347e-03
5.652238210164e-03
5.501769948461e-03
5.478616351915e-03
2.254971077609e-03
6.018212737185e-03
3.451522871175e-03
5.433186761320e-03
5.068656971482e-04
5.235659828438e-03
4.498616084438e-03
6.477069853907e-04
1.135724772342e-03
4.905082491478e-03
5.637492893173e-03
5.504426529729e-03
5.673913725339e-03
3.852881204388e-03
3.799041860716e-04
5.935897059171e-04
4.188938165998e-04
8.250409444332e-04
1.478748655910e-04
2.994768496769e-03
5.427348189453e-03
5.458882754827e-03
3.883455718842e-03
2.608660953034e-03
5.476751558409e-03
5.429576111220e-03
5.784117117048e-03
5.420830804507e-03
5.193598780718e-03
5.135394386581e-04
5.681154926280e-04
5.488737210923e-03
5.166391021769e-04
7.619709822300e-04
4.832364846617e-04
5.799786674799e-04
5.645675802182e-03
5.655037542831e-03
5.514781828190e-03
5.671443408193e-03
5.255264111174e-03
4.033418773149e-03
5.899144122698e-03
1.388436502105e-03
3.180255969687e-03
8.723897877041e-04
2.133422569491e-04
6.015531814482e-03
3.502525969212e-03
8.808568387309e-04
2.855369314806e-03
5.783822611068e-03
5.499347830224e-03
5.655534667044e-03
2.044016280955e-03
5.432286145459e-04
5.780287558169e-03
6.015607847563e-03
6.035949087319e-03
3.352497016113e-03
5.397561630392e-03
7.778562056283e-04
5.539597143375e-03
2.048357633213e-04
5.660676748682e-03
5.761438663708e-03
2.169999861618e-04
5.276842850465e-03
4.633513032721e-03
5.657467102238e-03
5.913925366103e-03
4.247858577439e-03
5.671720231098e-03
5.525428271373e-03
4.362177274661e-03
5.479739394229e-03
2.387201356291e-03
3.053723610195e-03
5.526446984933e-03
5.736294853841e-03
0.0
3.063983621229e-03
5.747940021174e-03
1.061697143843e-03
5.531390322422e-03
5.495470709881e-03
5.762937850711e-03
1.031440225739e-03
8.053626735849e-04
3.509970528096e-03
5.010988788466e-03
1.260771232344e-04
5.677193264911e-03
4.090526400836e-03
1.039673297651e-03
3.888574816327e-03
5.772338171833e-03
3.681185629208e-03
3.038880930972e-04
2.159618659613e-03
3.184608949978e-03
3.800834338169e-03
5.524986598456e-03
3.091083311451e-03
3.266927546245e-03
5.190819916672e-04
5.520367014093e-03
5.284258696945e-03
8.877738012256e-04
5.674860832192e-03
5.710960226183e-03
3.423111596940e-03
4.198163726001e-03
3.122389092001e-03
3.191264477013e-03
3.380114392671e-03
5.252725700940e-03
7.633269386087e-04
5.525012493520e-03
3.559702453178e-03
5.772557366742e-03
5.241338347213e-03
3.993508198578e-03
5.321259532480e-03
5.468684898978e-03
5.796731642521e-03
2.386710946758e-04
5.348756869278e-03
5.540450075665e-03
5.978130445140e-04
2.916813067192e-03
3.606876982128e-04
5.579480516134e-03
2.258393672976e-03
2.159705713490e-03
2.327059706199e-03
2.161659692035e-03
2.328518888195e-03
2.162672994817e-03
2.329425293706e-03
2.162300175437e-03
2.329523762820e-03
2.162994370433e-03
2.330352635693e-03
2.163819996874e-03
2.331651210941e-03
2.165193397044e-03
2.332104205239e-03
2.349563023748e-03
2.163170879264e-03
2.156618435812e-03
2.330120032603e-03
2.163760401777e-03
2.331149868869e-03
2.165613130817e-03
2.332544467419e-03
2.165577836067e-03
2.195603305539e-03
2.332198422978e-03
2.165170022173e-03
2.331421633703e-03
2.163880370449e-03
2.325581563359e-03
2.161800956061e-03
2.335429634205e-03
2.170950976162e-03
2.156347734429e-03
2.326285427350e-03
2.254719671384e-03
2.352490791724e-03
2.061139530170e-03
2.319973192991e-03
2.181921643346e-03
2.266267734125e-03
2.183268200846e-03
2.140663700466e-03
2.549158764665e-03
2.636150175904e-03
2.465044416633e-03
2.626215054828e-03
2.459129987657e-03
2.629398577210e-03
2.462515755855e-03
2.626876011636e-03
2.459194547671e-03
2.628998715299e-03
2.462069348223e-03
2.628826924734e-03
2.461615336322e-03
2.655480925391e-03
2.633841262143e-03
2.465021985990e-03
2.504855940460e-03
2.626954113001e-03
2.460627946581e-03
2.459281500191e-03
2.628877804265e-03
2.463978196257e-03
2.633359730070e-03
2.466114496976e-03
2.631825731881e-03
2.557842814581e-03
2.464193016864e-03
2.631244525693e-03
2.634203394462e-03
2.465367309286e-03
2.611601312478e-03
2.466838180282e-03
2.656093472301e-03
2.452256167998e-03
2.368738549867e-03
2.524902431016e-03
2.677255740190e-03
2.532401558563e-03
2.611856570448e-03
2.448380073333e-03
2.895347462543e-03
2.762954093961e-03
2.933492103758e-03
2.773940618943e-03
2.938129622360e-03
2.779861874844e-03
2.947517109028e-03
2.770436758339e-03
2.936171750745e-03
2.775705167697e-03
2.944993665868e-03
2.776162261490e-03
2.967674935110e-03
2.940979762039e-03
2.788576165275e-03
2.769633692862e-03
2.947728243539e-03
2.778133822446e-03
2.938167467260e-03
2.780092728751e-03
2.946956698666e-03
2.779489675693e-03
2.817224370005e-03
2.950134646900e-03
2.777240784832e-03
2.942772889533e-03
2.773283112852e-03
2.775691965232e-03
2.943314050847e-03
2.958430064026e-03
2.871806310958e-03
2.678495565508e-03
2.898963514100e-03
2.818430404747e-03
2.887802313650e-03
2.791363294968e-03
2.764226645725e-03

SCALARS element_materi_plasti_phimob float
LOOKUP_TABLE default
8.987950342603e+00
6.318722051123e+00
1.902135344166e+01
1.807803997840e+01
7.852004668288e+00
-7.130161709962e+00
8.006798826782e+00
8.873069331617e+00
8.070400343261e+00
1.802966794627e+01
2.145964333541e+01
4.009545210032e+00
2.092849968552e+01
1.011415204263e+01
2.074268306932e+01
1.838510028368e+01
7.001659910732e+00
-7.372566690898e+00
1.052818239639e+01
1.150477886711e+01
1.799889796186e+01
5.485698869503e+00
9.123657882940e+00
2.161506398508e+01
1.213135508210e+01
2.153531041242e+01
3.383526044944e+00
2.115558845988e+01
1.221142051755e+01
2.160060890140e+01
2.223928109570e+00
-2.085308622268e+01
1.889846966367e+01
2.133295460413e+01
2.111090543005e+01
2.087647741545e+01
2.077479213421e+01
2.154993685825e+01
4.082122136167e+00
4.307204586730e+00
5.352095186447e+00
2.091593821878e+01
4.661169142198e+00
3.153630417598e+00
1.768685944421e+01
3.839348441995e+00
-4.610223300791e+00
1.781555281816e+01
-2.207530763462e+01
8.892439287634e+00
7.538030528029e+00
1.383384122631e+01
1.112660609681e+01
1.055944462964e+00
1.864479501363e+01
1.744084862608e+01
1.475001910344e+01
2.139671688827e+01
4.780132211405e+00
1.836300380110e+01
-2.762892815745e+01
2.155250745769e+01
1.662625275290e+01
8.979503774180e+00
2.093376788082e+01
3.683746049533e+00
-3.007106668465e+01
1.898969971372e+01
5.551619109017e+00
2.019516311620e+01
2.154217710465e+01
1.914492943073e+01
2.074774343891e+01
-1.423099611823e+01
1.809453950721e+01
1.810017788890e+01
1.857790348933e+01
-8.605136346260e-01
5.344672323060e+00
1.764127626859e+00
6.007865809006e+00
6.840297677352e+00
9.857034699328e+00
4.580546755036e+00
9.568188029091e+00
9.604725891196e+00
2.150324659788e+01
2.142863329549e+01
1.729867972334e+01
7.663752885549e+00
-2.128613777932e+01
7.111881083849e+00
1.572728862120e+01
1.545647750656e+01
1.880667346426e+01
2.113838860101e+01
6.646622210561e+00
2.137013575760e+01
1.216373381190e+01
1.464350393496e+01
6.094168848876e+00
2.081381769628e+01
2.187432033558e+01
2.134869136420e+01
1.617194064981e+01
-6.021604735687e+00
2.110659640592e+01
1.642740099338e+01
-2.281732911437e+01
2.069770420666e+01
1.703112903580e+01
-2.559534268889e+01
2.101493192348e+01
4.974075860602e+00
1.982700723425e+01
1.390987958864e+01
1.656324812462e+01
2.097018536379e+01
1.143711141918e+01
1.695355457429e+01
4.675666347225e+00
7.344443896889e+00
1.654788437011e+01
1.646401750587e+01
-9.892062054420e+00
3.499464357806e+00
1.953032133850e+01
-1.433376042470e+00
1.846761536991e+01
-3.488659486890e+00
2.154386818333e+01
1.810631089642e+01
1.363641450008e+01
3.526879696002e+00
2.127434139735e+01
2.090403960118e+01
2.156079981997e+01
1.383650515816e+01
2.148038528467e+01
1.044981190677e+01
1.829016379963e+01
2.009629830147e+01
1.001292380950e+01
1.411953129300e+01
1.269302790225e+01
-1.004828477398e+00
1.477660653567e+01
1.852045713069e+01
6.813113776307e+00
2.072956398747e+01
-2.221448849295e+01
9.525042142391e+00
6.494571509895e+00
4.078893953776e+00
2.097115456645e+01
1.686335454515e+01
2.149898762320e+01
5.206963812054e+00
2.206471854533e+01
7.277502641262e+00
2.127820710306e+01
2.129975326792e+01
4.807188378306e+00
2.113154807138e+01
9.624542834396e+00
2.107854896754e+01
7.127752346389e+00
1.856606436368e+01
1.327309662796e+00
2.156963787788e+01
6.653850478534e+00
2.074613503961e+01
1.484172254800e+01
7.009316764576e+00
2.008421393652e+01
-5.778359963878e-01
1.884411795354e+01
2.021742826899e+01
2.093974923662e+01
2.028875091781e+01
1.172897637222e+01
2.036075837435e+01
2.198247622485e+01
9.623607182646e+00
9.593708607933e+00
6.950262725746e+00
1.986024923280e+01
1.829908592729e+01
1.651603521867e+01
2.122001768024e+01
2.132848405094e+00
2.057637721507e+01
1.720665397892e+01
-3.224588783735e+01
6.632727662375e+00
2.223696066282e+01
-3.901100805002e+00
1.859095856798e+01
1.410907396712e+01
2.137082974198e+01
2.256001882465e+01
9.751383287290e+00
1.133965849657e+01
2.133488763556e+01
1.843125682682e+01
1.678142342824e+01
1.182389332942e+01
1.473949728909e+01
1.078639742519e+01
7.901581592462e+00
2.232763404658e+01
1.829503549189e+01
-2.569605594199e+01
1.145296073118e+01
1.412996035327e+01
1.594997627972e+01
1.685671383591e+01
4.986759566466e+00
2.234619524996e+01
6.687339838540e+00
2.123647578320e+01
2.241118976285e+01
-1.716483774177e+01
1.543949772733e+01
-2.326022410719e+01
-2.846020768086e+00
3.326240627436e+00
1.636240041909e+01
1.591516033164e+01
1.483927378725e+01
1.052769846793e+01
1.034440975289e+01
8.055003659795e+00
2.239131432845e+01
1.043068652046e+01
2.100011890351e+01
-3.716724602324e+01
1.512453132777e+01
2.206023355809e+01
8.047655638555e+00
2.267398863367e+01
2.103958530756e+01
1.586776243151e+01
1.821298967965e+01
2.210804554465e+01
2.155357820509e+01
1.482674862910e+01
1.494132504351e+01
2.104293680324e+01
2.153469081699e+01
1.113311475033e+01
1.282544034297e+01
1.881584563539e+01
1.757234710715e+01
2.265115080092e+01
1.000335250484e+01
2.336439901986e+00
1.013568025831e+01
1.914119093209e+01
1.222493611574e+01
4.783963411298e+00
1.592432933078e+01
1.257652827650e+01
1.879345580246e+01
1.635986604190e+01
1.660409127374e+01
1.423072288867e+01
2.076266160903e+01
2.317379556817e+01
1.409550735761e+01
2.057322958828e+01
2.266955432206e+01
1.670258380320e+01
6.731790774285e+00
2.209073711767e+01
1.934441662151e+01
1.577137160227e+01
-2.501593927207e+01
1.130418478719e+01
2.039981621202e+01
1.413549773003e+01
1.555666636785e+01
1.382563806715e+01
-5.803947360520e+00
1.344313838025e+01
2.309037427029e+01
1.203157223454e+01
9.712587858135e+00
1.042954230641e-01
2.030469417577e+01
1.813917844825e+01
1.222070873343e+01
1.505050812413e+01
1.457412465309e+01
2.255198730787e+01
2.201877362993e+01
3.531220519317e+00
2.147550906052e+01
2.791435719176e+00
1.908203655282e+01
1.937754233679e+01
1.833004799040e+01
1.814985486954e+01
1.255272345292e+01
1.500993361828e+01
1.515682644068e+01
1.907725422394e+01
1.390206932691e+01
1.822079039904e+01
2.095520446640e+01
2.250624472315e+01
8.271810524559e+00
2.120114150188e+01
1.624961132760e+01
1.570033317045e+01
9.186436496165e+00
2.319376533808e+01
2.258775948935e+01
1.987925365301e+01
1.248869780033e+01
2.019104617124e+01
2.176993571753e+01
2.280888976445e+01
6.806844218159e+00
1.325394006150e+01
2.273640910998e+01
1.252703625526e+01
1.248802421091e+01
2.085414488488e+01
2.242654242641e+01
1.986937403869e+01
1.228865127340e+01
1.714832076533e+01
7.463178365948e+00
1.041355566244e+01
1.360114545886e+01
1.406523990075e+01
1.842244467903e+01
2.113520035304e+01
1.144007791293e+01
8.721383833323e+00
2.137350784307e+01
1.318481050979e+01
7.566879681717e+00
1.612214167278e+01
7.193770527105e+00
1.897451316465e+01
2.016257373702e+01
1.614488755040e+01
1.530845779940e+01
1.182460893163e+01
2.315418535671e+01
2.283787812766e+01
2.131265627912e+01
7.961017386733e+00
1.946305671445e+01
2.062722945597e+01
1.012306138093e+01
1.319348684918e+01
1.747211886678e+01
1.566209387978e+01
1.104510423332e+01
9.382509526166e+00
2.135290573757e+01
2.157557356200e+01
1.741915991590e+01
1.547880040515e+01
2.246307566059e+01
1.651134844411e+01
1.708557052319e+01
1.948597604129e+01
1.665121878572e+01
2.292516108031e+01
2.116789552133e+01
1.712995195873e+01
1.843219926411e+01
1.909664238611e+01
1.369053097573e+01
1.821528557285e+01
1.951348946436e+01
1.920413521906e+01
1.857942953556e+01
2.255754845097e+01
1.639490886324e+01
1.207261406926e+01
2.099800401934e+01
1.097661587291e+01
1.381555146160e+01
6.663763572162e+00
1.229903016225e+01
2.159422217048e+01
1.781739601115e+01
1.242487803311e+01
1.496752445214e+01
1.474636552730e+01
-5.624997452907e+00
2.187329851766e+01
1.959952104145e+01
2.134058564813e+01
-4.757490141029e+00
9.940084673014e+00
1.101010747472e+01
1.740942194083e+01
2.066698510629e+01
2.246955201445e+01
8.019274778971e+00
5.136821924889e+00
1.783042186457e+01
2.151666606076e+01
1.415570899852e+01
2.047359873898e+01
9.343676616906e+00
1.537172414965e+01
2.154440886174e+01
1.653791843506e+01
2.283605508403e+01
2.060167459783e+01
2.032303991026e+01
1.965414441534e+01
1.995721462628e+01
1.502629389093e+01
1.653451722530e+01
1.801453821913e+01
1.801453508605e+01
1.605682591559e+01
2.074529190828e+01
1.713576895555e+01
2.101947851197e+01
1.692541018469e+01
2.260184601289e+01
1.690259851235e+01
2.045122644667e+01
1.998440282388e+01
1.224772391952e+01
1.174041108657e+01
1.843114290150e+01
1.861018729801e+01
2.047716779877e+01
2.109818670075e+01
1.763226583272e+01
2.106411968426e+01
1.817302854846e+01
2.048481298912e+01
1.874504422477e+01
1.650092725074e+01
-2.282118422431e+01
2.072170148901e+01
2.110589647449e+01
1.852160163892e+01
2.269599237656e+01
2.136783762760e+01
-5.192964579509e+01
1.947850520286e+01
1.612795569637e+01
1.740985718764e+01
1.514619565697e+01
1.371188923264e+01
2.087388534185e+01
2.192675209732e+01
-3.028066594644e-01
2.115042877617e+01
-2.231097305923e+01
9.746530316386e+00
4.143912878455e+00
5.924035468033e+00
2.128962785698e+01
2.092675899008e+01
1.364654111250e+01
-5.341748314612e+00
-5.369061554780e+00
2.389045547824e+00
2.171518953005e+01
6.903174451374e+00
9.560362448171e+00
2.091380512478e+01
6.947829759407e+00
1.903638153929e+01
2.088688799012e+01
1.140616648515e+01
1.405771019103e+01
2.293889396493e+01
7.578846919022e+00
2.085196250819e+01
2.013567095235e+01
1.981008237947e+01
2.244510039640e+01
2.025793987118e+01
2.018100357992e+01
2.266374125968e+01
2.077513451967e+01
1.647185686986e+01
2.091067036030e+01
2.133633852686e+01
1.251961268968e+01
2.114559994603e+01
-6.434716516976e+00
2.069605733519e+01
2.041831286579e+01
2.062617466726e+01
1.803634802376e+01
-4.675043137150e+01
2.059024032072e+01
1.680600852798e+01
2.081813192279e+01
1.530407799948e+01
2.136936680239e+01
5.189893870596e+00
2.146478562941e+01
2.079704141738e+01
2.052270436232e+01
-2.190448203899e+01
2.090900702428e+01
1.334540737221e+01
2.208786209057e+01
1.027047010622e+01
1.791323790586e+01
2.004175182604e+01
1.529711562267e+01
2.089082523748e+01
2.075660766153e+01
2.242656430378e+01
1.953815127441e+01
2.285176859746e+01
2.087387165391e+01
2.253799821530e+01
1.888011249246e+01
1.922606160055e+01
2.272292683620e+01
2.028957390996e+01
2.151197156766e+01
1.739085526682e+01
2.058297729619e+01
2.099266173126e+01
2.328250110340e+01
2.124437812911e+01
1.726430997960e+01
1.714163591355e+01
2.073150477722e+01
2.162528149114e+01
2.212868749109e+01
-2.225542196805e+01
2.111155073643e+01
1.741834351653e+01
1.924196027885e+01
2.063708925571e+01
2.239614397780e+01
1.503199513561e+01
1.085790504385e+01
2.283536451925e+01
2.238862027216e+01
2.284818806051e+01
1.418901209590e+01
1.231730868965e+01
2.246602679398e+01
1.187926219023e+01
2.107193088747e+01
2.296318005576e+01
2.005029075763e+01
2.199384922157e+01
-4.229019101755e+01
1.804502361632e+01
1.958764818992e+01
2.156224911293e+01
2.168208613057e+01
2.273543431363e+01
1.166684694160e+01
1.844728232351e+01
2.061186471211e+01
1.643457221456e+01
2.155785418246e+01
1.724757480392e+01
2.124651987480e+01
-4.858478707906e+01
1.191632540714e+01
1.997496334294e+01
-5.859167147793e+01
2.123372792005e+01
2.254683805564e+01
1.680899898670e+01
2.293745749420e+01
2.323771040642e+01
6.344694666479e+00
2.542560134563e+00
1.851680373565e+01
1.807626212313e+01
-6.298692446915e+01
7.829017768864e+00
-2.249185735103e+01
1.727940892151e+01
1.891245399238e+01
1.677165273163e+01
2.193483248222e+01
1.849476337839e+01
2.179135144830e+01
2.208449364604e+01
7.902063494176e+00
1.986780601036e+01
1.833185590195e+01
2.108087297634e+01
2.058837773985e+01
2.053626289421e+01
2.127824768347e+01
2.269803337603e+01
2.196950837360e+01
1.045636125375e+01
2.220632680204e+01
-3.597775157825e+00
2.090824718699e+01
2.155146829211e+01
-2.031499500499e+01
2.017115214513e+01
1.732491393639e+01
-6.141593845475e+01
2.524537254368e+00
3.030828458307e+00
2.278214206534e+01
1.827474761485e+01
1.979350590310e+01
9.285215483071e+00
2.146699629638e+01
2.063913772519e+01
1.607631912022e+01
1.342637626981e+01
-1.077675455637e+00
1.058214344210e+01
2.998766536008e+00
3.138070090406e+00
-5.792638920546e+01
-2.081589766323e+01
-2.744625643825e+00
1.569104777448e+01
-1.983259179500e+01
2.087385969081e+01
-3.979566404719e+01
1.787443457481e+01
1.345366335897e+01
2.876080555733e+00
1.877554757129e+01
2.253495129764e+01
1.187163486547e+01
1.890159500379e+01
-3.326028135431e+00
1.895567348035e+01
1.874038426528e+01
1.026599863705e+01
2.798347444293e+00
1.894306912211e+01
1.871705449580e+01
1.673456493418e+01
2.856982542466e+00
2.598659667778e+00
5.533713688831e+00
1.952646398144e+01
1.869295229439e+01
-2.050465291049e+01
-5.760432647370e+01
3.884113546564e+00
2.188586165239e+01
2.102969939476e+01
-2.976204823712e+01
1.613306963445e+01
-4.232012424707e+01
2.306570216535e+01
-3.781967764583e+01
-3.387140976809e+01
2.310208515263e+01
2.117751236726e+01
1.331993434626e+01
1.275354374015e+01
-2.009825977089e+01
2.171515265522e+01
1.880883428046e+01
1.870688070860e+01
2.927067679822e+00
2.297378455537e+01
1.891300706787e+01
2.135289136530e+01
-3.823522761243e+00
-1.992683802129e+01
-2.046736092172e+01
1.981861438162e+01
2.080912218322e+01
1.810414929999e+01
-5.750123543335e+01
2.077510680690e+01
2.049954673441e+01
2.086796280196e+01
2.105106614864e+01
1.508494688228e+01
1.660213047396e+01
2.048696381279e+01
2.049697694284e+01
1.613446076011e+01
8.999999999681e+01
2.985628342548e+00
3.068096643209e+00
-5.760837355209e+01
2.051920169291e+01
2.104765980220e+01
2.052751743612e+01
-6.095256025715e+01
-6.062215420216e+01
2.056495836823e+01
2.054795932842e+01
1.447211198958e+01
3.005381289854e+00
1.563062203858e+01
1.093115186562e+01
3.053899433037e+00
-6.168400998914e+01
-5.890519993448e+01
-5.577316213658e+01
-5.138738456606e+01
2.102947878259e+01
2.050303086239e+01
-5.711835509776e+01
2.152794145190e+01
-5.452578243782e+01
1.925440561940e+01
1.886994718443e+01
1.900626672175e+01
8.512683971132e+00
1.753776444357e+01
1.883621549716e+01
2.129762731986e+01
1.886199192519e+01
2.112648745535e+01
2.090935930103e+01
2.017855876074e+01
1.869320592488e+01
1.872132294134e+01
2.119032155980e+01
2.100965540498e+01
2.156006800288e+01
-4.530787163534e+01
2.055283472671e+01
-2.115802807920e+01
2.137204548329e+01
2.118325842217e+01
2.149791013012e+01
1.416860650388e+01
-4.467048094964e+00
2.127005388423e+01
2.095613757433e+01
1.952913074455e+01
2.144068698143e+01
1.734576316874e+01
1.939229446664e+01
2.224256433415e+01
2.223493374099e+01
2.164595212573e+01
2.155761882537e+01
2.232912145749e+01
1.108138928799e+01
2.100346365287e+01
2.187392075794e+01
2.134321246669e+01
2.147781657714e+01
1.538917357488e+01
1.726106465647e+01
1.642770649841e+01
8.755616262315e+00
2.193274612211e+01
2.175761948138e+01
1.735244643997e+01
1.690911793605e+01
2.208713870848e+01
2.114300827660e+01
1.613532041462e+01
2.141765975134e+01
2.120690755030e+01
1.725764569127e+01
1.467791649411e+01
2.226423146541e+01
1.469891620714e+01
1.408273753881e+01
-1.237948782591e+00
-2.200072414004e+01
1.688747454895e+01
2.124145606524e+01
-2.230081810295e+01
1.765651673238e+01
9.976420174989e+00
2.154392476801e+01
2.142758367719e+01
2.019242110932e+01
2.139882052958e+01
8.717068121948e+00
2.252414057627e+01
2.107461983182e+01
1.419196446697e+01
2.130917952136e+01
1.537164030676e+01
1.574342320880e+01
1.652790312617e+01
2.136114847796e+01
1.304059560195e+01
1.970401773113e+01
1.598007617913e+01
1.407933668668e+01
2.154963652433e+01
2.151287904971e+01
2.148421151074e+01
1.540764625706e+01
1.171729841506e+01
2.128187458893e+01
2.198373797141e+01
1.582376124728e+01
2.085585087722e+01
2.197813859941e+01
2.144548532001e+01
1.470316278564e+01
-5.405237506249e+00
-1.557287225113e+00
1.358968986716e+01
2.137989235066e+01
1.393677835731e+01
2.141884007409e+01
1.110551571750e+01
2.189417092965e+01
2.154303847899e+01
2.153321398485e+01
1.451154290308e+01
2.131721079237e+01
2.133767344544e+01
1.560580092764e+01
2.110208364143e+01
1.998395132438e+01
1.749396815891e+01
2.151279692238e+01
-5.700592693472e+01
-5.596886129611e+01
2.164140362808e+01
1.324266301498e+01
2.176319094774e+01
2.186986542020e+01
2.099040927671e+01
1.781807297647e+01
1.662981579555e+01
-4.769294617639e+00
2.026049382819e+01
2.175178511689e+01
1.111447633350e+01
1.226007727356e+01
9.999570997745e+00
1.015681502759e+01
2.163340191771e+01
1.498698288899e+01
1.346269757928e+01
1.698310964424e+01
1.704973242569e+01
1.490385783131e+01
1.420968282913e+01
1.534422900584e+01
2.155899017293e+01
2.153625118256e+01
1.745279317674e+01
1.668260920955e+01
2.166012522403e+01
2.178981335027e+01
1.239662780747e+01
2.165399760013e+01
1.504192805660e+01
2.141163497088e+01
1.389964871809e+01
1.564735011965e+01
2.314864568673e+01
1.628848558810e+01
2.103000760167e+01
2.139277047869e+01
1.934503877328e+01
2.013971069276e+01
1.451599450645e+01
2.215412091756e+01
1.630731345877e+01
3.722443656451e+00
1.446686807474e+01
1.663533336817e+01
2.133536920870e+01
1.522756030909e+01
2.164147125416e+01
2.109397950299e+01
2.064853493944e+01
1.516306405388e+01
7.083840527403e+00
2.178984790372e+01
1.328668208969e+01
-1.857619712190e+00
1.933765000428e+01
1.272880404193e+01
1.299892132234e+01
1.962157490450e+01
2.208195950596e+01
1.918034877054e+01
1.639769940352e+01
1.845351699152e+01
2.194183461880e+01
1.353027039135e+01
2.192052869445e+01
2.121444522680e+01
2.179891125195e+01
2.171746433486e+01
1.295532811708e+01
1.137584425048e+01
2.272785587918e+01
1.876329715523e+01
1.324403625023e+01
1.549925342147e+01
1.347245872057e+01
1.123205267516e+01
2.154926953757e+01
2.267369479601e+01
2.228839766962e+01
1.748295628171e+01
2.229676835356e+01
1.189325150479e+01
2.218655966481e+01
2.155987972212e+01
1.907284293675e+01
2.166368335661e+01
1.518516114114e+01
1.681699061603e+01
2.205302655603e+01
1.074524771082e+01
1.678036713944e+01
1.896196070405e+01
1.991557039601e+01
2.196410139397e+01
1.598076048581e+01
2.052054920066e+01
1.430413295444e+01
1.228200760874e+01
1.170215137076e+01
2.133725277073e+01
2.181262225885e+01
2.231874970051e+01
1.109532619277e+01
1.821769498352e+01
2.201409869240e+01
2.213430867288e+01
1.570024758415e+01
2.037724889663e+01
1.971975283913e+01
1.219536424873e+01
2.224594439391e+01
2.000817330196e+01
1.364911965147e+01
1.272229576038e+01
2.290002886764e+01
1.894556360623e+01
2.127804165523e+01
1.936454399513e+01
2.015742178636e+01
1.395191978159e+01
2.199972981694e+01
2.195761987726e+01
1.624031901655e+01
2.237630755018e+01
2.248568404499e+01
2.250091458305e+01
2.165387844775e+01
1.367454420399e+01
2.177742653822e+01
2.154319637712e+01
1.946023547064e+01
2.085219183610e+01
2.254769445856e+01
1.369674580154e+01
2.057711173390e+01
1.959985556345e+01
1.813389294290e+01
1.709418421432e+01
2.095224885462e+01
1.740573091705e+01
1.592593608264e+01
2.209417233316e+01
2.230868916916e+01
1.980509154032e+01
-5.687987316224e+01
2.281236564289e+01
2.240734472968e+01
2.145638862645e+01
1.276245842507e+01
2.231689424623e+01
1.893140772316e+01
2.144688436083e+01
1.586995449586e+01
1.870316110754e+01
2.780726548750e+00
9.848842983500e+00
1.857747517511e+01
1.987412798558e+01
2.277843721701e+01
2.186183955200e+01
1.175217505008e+01
9.869113690917e+00
1.135363236107e+01
1.711543117107e+01
2.229247053685e+01
2.010690107861e+01
1.319803283876e+01
1.644554853662e+01
1.956354794455e+01
2.274396173026e+01
1.979447168571e+01
1.410970849900e+01
2.149840169248e+01
2.244454842597e+01
1.755884947222e+01
9.465318814866e+00
2.039152810607e+01
2.184298938870e+01
2.222085811949e+01
1.805371694976e+01
2.261541335038e+01
2.221192423804e+01
2.311699302776e+01
1.937279569978e+01
2.266387206062e+01
1.425226134137e+01
2.312895802768e+01
2.198849707203e+01
1.604076959563e+01
2.174992444554e+01
2.270600488159e+01
1.951743141803e+01
1.630721459355e+01
1.611157538308e+01
1.436127332534e+01
1.685600301386e+01
2.295561984897e+01
1.972931279113e+01
1.539353338097e+01
1.920962236722e+01
1.221680533625e+01
1.811613378846e+01
9.283546781927e+00
2.176415419425e+01
1.716881289784e+01
2.256869691732e+01
1.196918160493e+01
1.593942425460e+01
2.254027561624e+01
2.293294142715e+01
1.732303061572e+01
2.215160116545e+01
1.480557392897e+01
2.291295868598e+01
1.479762491826e+01
1.532361101562e+01
2.084874518093e+01
2.163686605509e+01
2.195063107264e+01
1.193496933540e+01
1.076381628147e+01
2.219964119328e+01
2.234224061026e+01
2.233495245802e+01
6.939466415559e+00
1.953540629937e+01
2.333243169198e+01
2.251851461555e+01
2.094425331274e+01
1.767704192944e+01
1.767896395960e+01
1.711675084255e+01
1.506722467837e+01
1.584590970833e+01
2.209313835825e+01
1.741483328471e+01
1.465102069906e+01
2.185851596996e+01
2.328989471165e+01
1.538784343531e+01
1.689195708369e+01
1.553455698796e+01
1.486512304600e+01
2.187210253143e+01
2.178506726445e+01
2.207692479783e+01
2.239094325855e+01
5.616928024033e+00
2.242749814021e+01
1.471372280159e+01
1.617205975342e+01
2.277168904355e+01
2.332780565571e+01
2.286098599453e+01
1.803880310298e+01
2.270541895681e+01
2.271029250583e+01
1.201969424386e+01
2.224254936251e+01
1.320884804707e+01
6.140298184938e+00
2.138138159425e+00
2.219424650301e+01
2.269829120645e+01
1.791829758090e+01
2.339971000543e+01
2.237809906034e+01
1.342537885981e+01
5.162763658905e+00
2.283735214255e+01
2.295867102220e+01
1.257306502386e+01
2.209756001859e+01
1.663132966037e+01
2.206447255515e+01
2.188161765912e+01
2.293150662836e+01
1.547705384581e+01
2.099877301105e+01
2.169339279273e+01
5.061162278760e+00
1.405420119241e+01
2.155884574706e+01
1.600231587554e+01
2.315176507254e+01
2.285860905896e+01
2.177960439541e+01
4.902953617795e+00
1.655265131674e+01
1.698094965878e+01
3.792274959813e+00
2.057087510067e+01
1.751832078792e+01
1.473666734638e+01
1.922623676880e+01
1.470509664293e+01
2.180900161912e+01
1.696396169637e+01
2.008369360876e+01
9.994929387089e+00
1.554359990653e+01
1.321774151901e+01
2.331616291978e+01
1.892266665443e+01
1.712522461588e+00
2.166189964195e+01
2.292530479725e+01
1.392815017645e+01
1.217892952681e+01
2.156811951339e+01
1.242014357447e+01
1.855726559628e+01
2.272715563216e+01
2.251620440685e+01
2.180495744350e+01
1.851009859789e+01
1.527795360393e+01
2.189092306654e+01
1.411118453572e+01
1.792838150400e+01
1.582195875886e+01
1.631720948110e+01
1.457918547910e+01
2.173900242023e+01
1.528365937922e+01
2.295098607195e+01
-6.664360554906e-01
2.148594306295e+01
1.830695392287e+01
1.775990655116e+01
2.223200710146e+01
1.125320793703e+01
2.123761402266e+01
2.266434412722e+01
1.722109107971e+01
1.766963340084e+01
2.250475604071e+01
1.638323741057e+01
2.297816917729e+01
1.955512580443e+01
-1.509618962150e+01
1.848910461837e+01
-8.055175427410e+00
-3.757004751939e+00
2.332409856667e+01
1.771918719308e-01
2.181270922610e+01
2.194892610576e+01
2.292114950846e+01
1.617220753384e+01
2.336731320044e+01
1.695535529580e+01
1.823247706346e+01
2.196465860429e+01
2.196070937955e+01
2.305183004035e+01
1.637091035354e+01
2.341993368162e+01
2.154619777865e+01
1.588516570597e+01
1.580631196512e+01
2.308844119899e+01
2.322735692835e+01
1.986411555934e+01
1.605263822052e+01
1.523916366650e+01
1.722350689347e+01
1.993899150808e+01
1.874318732443e+01
2.137628833609e+01
1.523884264338e+01
2.271370809600e+01
1.887350531388e+01
2.254465344725e+01
1.649486866059e+01
1.964652401046e+01
1.315415888017e+01
2.230840019564e+01
2.297235777842e+01
2.230746709967e+01
2.113066811073e+01
1.727266080994e+01
1.944737050450e+01
2.328189246698e+01
1.664498672838e+01
2.137964082351e+01
2.134777253060e+01
2.246795226584e+01
2.284719345998e+01
2.218018026172e+01
1.554996061206e+01
2.340155949894e+01
1.518332223088e+01
2.130211453481e+01
1.611721936632e+01
2.100297417228e+01
1.412568738032e+01
1.165441562648e+01
1.694224176245e+01
2.220976166264e+01
2.176814724269e+01
1.464328018632e+01
1.770727424657e+01
1.294409098400e+01
2.158301666517e+01
2.103385954308e+01
1.735750888755e+01
2.223869626746e+01
2.177254322847e+01
2.230519780168e+01
1.529077081377e+01
1.717654324757e+01
2.220741687668e+01
1.772097234292e+01
2.248814970784e+01
2.099364844760e+01
2.255782440740e+01
3.886559230870e+00
1.779350947860e+01
1.601112097332e+01
2.323405011625e+01
2.135957968253e+01
1.461928802676e+01
2.193159124196e+01
2.209759339753e+01
-1.794537847925e-01
2.122807225527e+01
1.980480764591e+01
2.217890250272e+01
2.041389747236e+01
-1.244221094022e+01
2.213302450261e+01
1.899456989564e+01
1.313806396187e+01
2.194749634308e+01
2.316146514420e+01
2.144865424215e+01
2.179717586802e+01
2.271280598566e+01
1.950735585288e+01
-2.590856369444e-01
1.998220041524e+01
2.230284056514e+01
1.933754207092e+01
2.019808427986e+01
1.955700066702e+01
2.179240275919e+01
1.774590881867e+01
2.128574921865e+01
2.206757519409e+01
2.248341551604e+01
1.975392469707e+01
2.131903030711e+01
2.129245034938e+01
2.047511959642e+01
1.396067104809e+01
2.160499753632e+01
2.188956990418e+01
3.119418092174e+00
3.134099709586e+00
1.559428889294e+01
2.025847249333e+01
2.186921383216e+01
1.708328815547e+01
2.224848906709e+01
2.198004660291e+01
2.286278986365e+01
1.889182855783e+01
9.167028397475e+00
2.177731832171e+01
2.225029264767e+01
1.851755999752e+01
2.183950263994e+01
2.004130442184e+01
1.795935906201e+01
1.395363053808e+01
1.763084153144e+01
1.774005809627e+01
5.084675043125e+00
2.192422078340e+01
1.692618534912e+01
1.604422384270e+01
1.631545769976e+01
2.211430714144e+01
1.314129293491e+01
1.343644318653e+01
2.049108400593e+01
2.153058385762e+01
-6.034848138472e-01
1.636664158941e+00
1.396214233598e+01
1.046596439103e+01
2.206484580804e+01
2.242819841023e+01
1.451195019188e+01
2.081072307897e+01
1.679657214932e+01
2.154879087782e+01
2.178166962155e+01
-2.848676080702e+00
2.252315998220e+01
2.013605723656e+01
-3.116735051791e+00
1.686267938923e+01
1.107560484622e+01
1.627241392791e+01
1.850077104393e+01
2.277747815769e+01
2.292384401982e+01
1.728473769100e+01
2.275965905500e+01
2.123038490981e+01
2.072461746709e+01
-1.292936804168e+00
8.858876949288e+00
2.069431114387e+01
1.260326426277e+01
2.112905623830e+01
1.977712442145e+01
1.681428895196e+01
2.042214790783e+01
3.564428502594e+00
2.066325144082e+01
2.164621737285e+01
2.077258377574e+01
2.215775455646e+01
2.202324122564e+01
1.777661434214e+01
2.299484681404e+01
1.911539610703e+01
2.292790566082e+01
2.250747100001e+01
2.212150297486e+01
2.122472020523e+01
2.334435579157e+01
2.189338428334e+01
1.690752000731e+01
2.104891021595e+01
1.713917937228e+01
2.204872753544e+01
2.245117592916e+01
2.261220247172e+01
1.322228410342e+01
2.160576560156e+01
2.150850802843e+01
3.628353836998e+00
1.788641261839e+01
2.120780558478e+01
1.005485516300e+01
2.172802892439e+01
-5.532341418556e+00
2.144406953256e+01
2.052392587451e+01
2.135625146043e+01
2.237312111132e+01
1.327876099846e+01
1.242123046839e+01
2.064348141802e+01
-3.572871127563e+00
-2.672857283058e+00
2.138923359060e+01
2.258185428694e+01
2.287364104902e+01
2.282939638081e+01
2.340180197675e+01
2.039666049621e+01
-1.345859966639e+01
1.052671389191e+01
3.170234932491e+00
2.225929475270e+01
2.236245382617e+01
2.169968081084e+01
2.132116094155e+01
2.298105349087e+01
2.102666408209e+01
2.151893110299e+01
2.176998967117e+01
2.084721231316e+01
2.133432551367e+01
2.195277235401e+01
2.080777998946e+01
1.846898385030e+01
2.292204724131e+01
1.778927480357e+01
1.947899530070e+01
2.177905513060e+01
2.330565946446e+01
2.212105148374e+01
1.721691842031e+01
-1.626214029510e+01
2.282872529620e+01
-4.238872220845e+00
6.670711179925e+00
2.196738479867e+01
1.919519951553e+01
1.347855039110e+01
3.627961954760e+00
1.937792077024e+01
-8.044412114244e+00
-3.253170836056e+00
2.321389795683e+01
2.155088115207e+01
7.615418839436e+00
2.224629310829e+01
2.266997330190e+01
2.030508262632e+01
2.267930102883e+01
1.835065419077e+01
9.150909064904e+00
2.183517498373e+01
2.172703509318e+01
1.792233095487e+01
5.494585922403e+00
1.364887479305e+01
2.144436686118e+01
-3.730057819645e+00
-2.317802975324e+01
1.272138596341e+01
2.155034861125e+01
2.226653900850e+01
2.126490240562e+01
2.032150413647e+01
2.187642935436e+01
1.542723629549e+01
2.167627924253e+01
2.295157206747e+01
1.828225446292e+01
8.935324158020e+00
2.216746233826e+01
2.154419038123e+01
2.168544459942e+01
7.465906481591e+00
2.243634177178e+01
2.161904700636e+01
1.377050079286e+01
1.218868266647e+01
8.338643329271e+00
2.178851520861e+01
2.086321254023e+01
4.414119980811e+00
2.156655771042e+01
1.147507094950e+01
2.178556123469e+01
2.242610417063e+01
-1.611507837559e+01
2.153405901358e+01
1.675960997473e+01
7.163470248983e+00
2.164478229984e+01
2.273686545094e+01
2.177058565863e+01
-1.451521043594e+01
1.700082105133e+01
2.215848167446e+01
2.224137670546e+01
2.139269473516e+01
2.170314512806e+01
2.160019982261e+01
2.258281035693e+01
1.353730416905e+00
-1.316137083329e+01
2.161391157064e+01
2.221663135557e+01
2.038360556359e+01
1.893967137824e+01
1.057312705039e+01
1.778067056726e+01
2.140137368934e+01
-2.393981030585e+01
1.882916905783e+01
2.049224630468e+01
8.019969927693e+00
2.179221221167e+01
2.092941931740e+01
2.199117664960e+01
2.890965966254e+00
-1.199992443689e+01
1.757299596369e+01
1.467723400812e+01
4.208461593672e+00
2.119045062651e+01
1.465633414238e+01
2.131413936374e+01
1.450272851956e+01
2.137540818330e+01
2.128950925967e+01
2.189141648547e+01
6.607930860437e+00
2.124366609722e+01
1.627059926767e+01
2.122100493982e+01
2.236250786413e+01
1.850711273020e+01
-3.463429463956e+01
2.273667589701e+01
1.619448544561e+01
2.068276877478e+01
1.952912105650e+01
2.138866353643e+01
1.114497342502e+01
4.995768327615e+00
9.669730638684e+00
1.954841939564e+01
2.278889052964e+01
2.264654616690e+01
1.874827287711e+01
1.870142103322e+01
1.650835052292e-01
1.508719198205e+01
2.012147376233e+01
2.231248839347e+01
-9.817496671648e-01
1.201259586268e+01
2.265929390341e+01
1.763213783673e+01
2.312677875843e+01
8.875462379912e-02
2.271968747328e+01
8.422160842298e+00
2.245294600782e+01
2.308488615694e+01
2.178993068275e+01
1.327262441296e+01
1.897073225654e+01
1.111018311968e+00
2.294695263282e+01
9.463052420126e+00
-2.346953174583e+01
1.771642762191e+01
1.699735530983e+01
-2.297209248967e+01
2.256840552286e+01
1.584003462711e+01
1.716544243522e+01
1.907828671612e+01
2.176767698873e+01
1.939587267224e+01
2.204237192296e+01
3.018376236369e+00
2.089565978037e+01
1.453635328328e+01
2.212401032705e+01
2.216446243879e+01
1.029749713243e+01
1.692534746017e+01
2.308062556045e+01
-5.196852474075e+00
2.204141997602e+01
2.150876338369e+01
1.642985055994e+01
8.808409449690e+00
2.123925951292e+01
1.822629271022e+01
2.173378626832e+01
2.047372643509e+01
1.690321935621e+01
2.260542154355e+01
1.289315079817e+01
-5.770521092627e+00
2.063863267079e+01
1.901607261415e+01
9.847598475177e+00
1.805863079152e+01
1.953392419095e+01
2.280759804784e+01
2.169152538358e+01
2.164266060334e+01
-3.550706085472e+01
1.578392415004e+01
2.143148434696e+01
1.986762771224e+01
2.161121495335e+01
4.158614766652e+00
9.003645110686e+00
9.417348426333e+00
2.184153403064e+01
1.770709784243e+01
2.172845600727e+01
2.088969937428e+01
2.097364035260e+01
2.240935465317e+01
6.548579158328e+00
-2.930247664141e+01
3.978269079557e+00
7.994564593446e+00
4.868941552523e+00
2.211996995750e+01
2.106662909248e+01
2.152527995780e+01
-7.093359667112e+00
1.718027812660e+01
2.111085940138e+01
1.759901603872e+01
1.641280006378e+01
1.870310393393e+01
2.079607210737e+01
9.932894798444e+00
2.126578556308e+01
3.235923871914e+00
2.194341604317e+01
2.051562446050e+01
-1.111995619335e+00
1.530661076452e+00
2.200089773037e+01
6.964820389638e+00
1.769179785665e+01
1.836801031598e+01
2.176247106573e+01
1.787942532290e+01
1.029315254728e+01
1.851502297507e+01
1.913683139491e+01
1.439929831574e+01
2.144700043095e+01
2.746613404454e+00
7.104048940384e+00
9.701549282400e+00
1.042438801135e+01
4.558894639702e+00
1.787262071916e+01
1.824388721649e+01
1.246810021936e+01
2.135647738139e+01
1.869527938569e+01
1.708519353186e+01
1.762301982515e+01
2.038377421556e+01
1.986953922026e+01
2.134921676945e+01
-2.441017755856e+01
1.612640489247e+01
2.093441646725e+01
5.030910139017e+00
7.117156112884e+00
2.189804564010e+01
-7.146192506328e+00
-2.332434041526e+01
1.876360650482e+01
2.809622958277e+00
1.812386901331e+01
2.153147556282e+01
2.769217340058e+00
-2.803874427161e+01
1.831186454948e+01
6.714011730112e+00
1.781591976727e+01
2.050468812912e+01
1.837495943152e+01
1.191188383925e+01
9.570278991133e+00
2.038673403914e+01
2.154247619256e+01
2.126356855227e+01
1.569808816457e+01
2.135948703859e+01
-7.226979081984e+00
2.095581317024e+01
1.394684035926e+01
5.080636506517e+00
2.145637080488e+01
1.841893392284e+01
1.842687816806e+01
6.756096474713e+00
1.009430834441e+01
5.397703535557e+00
1.924322854032e+01
1.902621859353e+01
-4.847643717176e+00
2.191598025167e+01
2.837993719236e+00
1.809235883447e+01
1.867278509468e+01
1.883450792982e+01
8.999999999681e+01
-5.326763967964e+01
3.689139653897e+00
3.002978878356e+00
2.049515102359e+01
2.074050193091e+01
-2.417272403141e+01
-3.635742410481e+01
2.100706770322e+01
2.119273084129e+01
9.314606495320e+00
2.104861946569e+01
2.142720046436e+01
2.121304195377e+01
1.340049316579e+01
7.401671832013e+00
2.166657358283e+01
4.647727155889e+00
2.080817050911e+01
1.903840857615e+01
1.741763929154e+01
2.106977539691e+01
1.151901385922e+01
2.063001973000e+01
1.836185218609e+01
1.777428966521e+01
2.948252303032e+00
2.202401095977e+01
1.821195634502e+01
1.656067583567e+01
-2.236662025511e+01
2.009229371412e+01
2.235114340083e+01
3.292967915560e+00
1.445485094249e+01
2.074642262599e+01
2.082039601714e+01
2.088163368717e+01
2.148145821806e+01
-2.457711948628e+01
5.612424694971e+00
8.902656963301e+00
9.395488200428e+00
2.214812771631e+01
1.785288975838e+01
2.121308053982e+01
-6.270151598985e+00
-6.593248997262e+00
5.290105484441e+00
1.482070337256e+01
1.844071547482e+01
1.797303889450e+01
8.729037047750e+00
2.168024444711e+01
9.362429938683e+00
2.103318015905e+01
2.128577591588e+01
9.484111771419e+00
2.138574986981e+01
1.841868975502e+01
1.823949232857e+01
3.986966009499e+00
1.769152090285e+01
2.047848389689e+01
2.184065856586e+01
2.164143165693e+01
2.052589255550e+01
1.769437041366e+01
-3.274265193157e+01
-8.382689176592e-01
1.850384148907e+01
1.128764651935e+01
2.099603908622e+01
2.118467737898e+01
2.078013560882e+01
1.597192472505e+01
2.105395635220e+01
2.130691690791e+01
2.144628229563e+01
1.871177970462e+01
2.085985843082e+01
6.570711537185e+00
1.765288798874e+01
-5.791821185100e+00
1.707554235986e+01
1.453419537186e+01
-3.437946839154e+00
8.075291918703e+00
1.825375460413e+01
1.834375883512e+01
1.778100480857e+01
2.158867618388e+01
1.137772674455e+01
-2.261912244757e+01
-1.211067015205e+01
-1.735964310330e+01
1.278728324044e+00
-2.471814488040e+01
2.064076657227e+01
2.103343218491e+01
1.839134502062e+01
1.146022996733e+01
2.006178798945e+01
2.132506379288e+01
2.190078526275e+01
2.145888162459e+01
2.030304167369e+01
1.880881065687e+01
-6.034105383276e+00
-1.229049526511e+01
2.107654931211e+01
-3.245685434374e+00
1.249953202031e+00
-1.143346890270e+01
-7.505720321359e+00
2.094491728815e+01
1.999742064031e+01
1.789743197710e+01
2.105298581565e+01
2.182691587921e+01
1.252269521192e+01
1.910675734932e+01
1.321332862511e+01
2.613786053647e+00
1.484296978532e+00
-2.272528907850e+01
2.082198264696e+01
7.260585811557e+00
3.998738521363e+00
2.064347889779e+01
1.974423244178e+01
1.775873153633e+01
1.865670910125e+01
1.779937266128e+01
-1.192141319443e+01
2.113025739136e+01
1.870372564322e+01
2.081265942348e+01
6.552016453795e+00
2.141240535187e+01
4.944800551977e+00
1.803676851969e+01
-2.471719886550e+01
2.101950983929e+01
1.854007773232e+01
-2.684737259268e+01
2.083478718550e+01
1.542817536908e+01
1.837722181184e+01
2.083469454038e+01
1.376152230467e+01
1.986203395457e+01
1.806503175903e+01
1.459874939895e+01
1.930309797614e+01
1.939094157773e+01
2.865172918509e+00
2.134951756338e+01
1.836901515225e+01
-5.916351372390e+01
3.046725206952e+00
2.077644173469e+01
9.495682767414e+00
2.199956576444e+01
1.812576594659e+01
1.823159782779e+01
8.701295793726e+00
-5.198813208041e+00
2.138179457703e+01
1.658065303502e+01
-2.395842991245e+01
1.856303841732e+01
1.330425292932e+01
7.018982454284e+00
1.200371661961e+01
2.121585032401e+01
2.140090403022e+01
-2.100392401457e+01
1.907991972346e+01
2.110431736580e+01
2.138843048737e+01
2.139968329660e+01
2.099814965891e+01
2.112371134129e+01
-8.359058831228e+00
2.118654069612e+01
2.021743170238e+01
1.811755199884e+00
1.836173146448e+01
2.073108403062e+01
6.756348726159e+00
1.327064757373e+01
2.092014908256e+01
2.095228160825e+01
2.121204273468e+01
2.199957254654e+01
2.998369659162e+00
2.016287390104e+01
9.631679403783e+00
1.833258997938e+01
2.174969737455e+01
1.196820644054e+01
1.884826875456e+01
2.152733184198e+01
2.153036182049e+01
-2.057192561627e+01
1.884175303148e+01
1.941605889958e+01
-7.843354735949e+00
2.069413438056e+01
-2.419593654421e+01
1.903186255341e+01
-4.172672612226e+01
-4.038770070783e+01
-4.176749767195e+01
-4.064167959170e+01
-4.160829978434e+01
-4.092319803160e+01
-4.183687009162e+01
-4.107294852783e+01
-4.234707166048e+01
-4.128115383107e+01
-4.312263260672e+01
-4.153140831875e+01
-4.413614359385e+01
-4.189759511647e+01
-4.533502651301e+01
-3.297959421843e+01
-4.213930362327e+01
-2.842971347889e+01
-4.677703688695e+01
-4.250590342696e+01
-4.855829181117e+01
-4.288339887793e+01
-5.057991794576e+01
-4.305343527559e+01
-5.707562748525e+01
-5.274587269524e+01
-4.301071660573e+01
-5.496346734160e+01
-4.264567654477e+01
-5.682058126519e+01
-4.122251906971e+01
-5.676638288084e+01
-3.988302300427e+01
-3.583620045344e+01
-5.617474581609e+01
-1.554666200420e+01
-5.057132795023e+01
-2.695416563706e+01
-3.914678640432e+01
-3.853523274640e+01
-3.643236900901e+01
-4.259515484237e+01
-1.293431394305e+01
-1.681040751322e+01
-1.886529711520e+01
-1.895623211681e+01
-1.913769582100e+01
-1.908438542324e+01
-1.904295153809e+01
-1.898770646456e+01
-1.908323986831e+01
-1.896360903888e+01
-1.903953426844e+01
-1.892278456878e+01
-1.902689033002e+01
-1.887388247037e+01
-1.313011417971e+01
-1.893015055834e+01
-1.884649010689e+01
-2.098656642918e+01
-1.905728508719e+01
-1.886342460660e+01
-1.599896737393e+01
-1.896281615946e+01
-1.880576903120e+01
-1.884661448281e+01
-1.878365289014e+01
-1.885540296765e+01
-1.090414466248e+01
-1.881003788774e+01
-1.881300260899e+01
-1.866367688020e+01
-1.883530261996e+01
-1.875911140448e+01
-1.889218516380e+01
-1.703674772241e+01
-1.858079268122e+01
-1.843082859655e+01
-1.887949636496e+01
-1.635939525652e+01
-2.448211612946e+01
-1.315552654733e+01
-1.441045974389e+01
-4.442790696869e+00
-3.894300595777e+00
-3.897808843975e+00
-3.866384160452e+00
-3.871271102336e+00
-3.798566261736e+00
-3.782527827575e+00
-3.885066204691e+00
-3.913072768599e+00
-3.869462457258e+00
-3.851400566517e+00
-3.909316881984e+00
-2.335521372721e+00
-3.900943984166e+00
-4.140431025068e+00
-3.939661664637e+00
-3.885312329220e+00
-4.029788999959e+00
-4.002546881255e+00
-4.060108809048e+00
-3.919562064842e+00
-4.106840375373e+00
-5.865670066935e+00
-3.896325333808e+00
-4.221531460569e+00
-3.966273562429e+00
-4.318862649327e+00
-4.332143513492e+00
-3.895522719880e+00
-3.615548886788e+00
-2.347733705427e+00
-7.356627074974e+00
-3.572694985461e+00
-4.404635387268e+00
-1.567405015338e+00
-6.988867319942e+00
-5.061403754382e+00


