# vtk DataFile Version 2.0
Calculation C:\Users\johan\Documents\GitHub\TOCHNOG\standsicherheit_phiC at time 3.000000000000e+00 
ASCII
DATASET UNSTRUCTURED_GRID
Field FieldData 1
Time 1 1 double
3.000000000000e+00

POINTS 1220 float
0.0 0.0 0.0 
5.000000000000e+01 -1.000000000000e+01 0.0 
0.0 -2.000000000000e+01 0.0 
5.000000000000e+01 -2.000000000000e+01 0.0 
0.0 -9.999999999991e-01 0.0 
0.0 -1.999999999998e+00 0.0 
0.0 -2.999999999997e+00 0.0 
0.0 -3.999999999994e+00 0.0 
0.0 -4.999999999991e+00 0.0 
0.0 -5.999999999988e+00 0.0 
0.0 -6.999999999985e+00 0.0 
0.0 -7.999999999982e+00 0.0 
0.0 -8.999999999983e+00 0.0 
0.0 -9.999999999985e+00 0.0 
0.0 -1.099999999999e+01 0.0 
0.0 -1.199999999999e+01 0.0 
0.0 -1.299999999999e+01 0.0 
0.0 -1.399999999999e+01 0.0 
0.0 -1.499999999999e+01 0.0 
0.0 -1.599999999999e+01 0.0 
0.0 -1.700000000000e+01 0.0 
0.0 -1.800000000000e+01 0.0 
0.0 -1.900000000000e+01 0.0 
4.900000000001e+01 -2.000000000000e+01 0.0 
4.800000000001e+01 -2.000000000000e+01 0.0 
4.700000000002e+01 -2.000000000000e+01 0.0 
4.600000000003e+01 -2.000000000000e+01 0.0 
4.500000000004e+01 -2.000000000000e+01 0.0 
4.400000000004e+01 -2.000000000000e+01 0.0 
4.300000000005e+01 -2.000000000000e+01 0.0 
4.200000000006e+01 -2.000000000000e+01 0.0 
4.100000000006e+01 -2.000000000000e+01 0.0 
4.000000000007e+01 -2.000000000000e+01 0.0 
3.900000000008e+01 -2.000000000000e+01 0.0 
3.800000000009e+01 -2.000000000000e+01 0.0 
3.700000000009e+01 -2.000000000000e+01 0.0 
3.600000000010e+01 -2.000000000000e+01 0.0 
3.500000000011e+01 -2.000000000000e+01 0.0 
3.400000000011e+01 -2.000000000000e+01 0.0 
3.300000000012e+01 -2.000000000000e+01 0.0 
3.200000000013e+01 -2.000000000000e+01 0.0 
3.100000000013e+01 -2.000000000000e+01 0.0 
3.000000000013e+01 -2.000000000000e+01 0.0 
2.900000000013e+01 -2.000000000000e+01 0.0 
2.800000000013e+01 -2.000000000000e+01 0.0 
2.700000000013e+01 -2.000000000000e+01 0.0 
2.600000000013e+01 -2.000000000000e+01 0.0 
2.500000000013e+01 -2.000000000000e+01 0.0 
2.400000000013e+01 -2.000000000000e+01 0.0 
2.300000000013e+01 -2.000000000000e+01 0.0 
2.200000000013e+01 -2.000000000000e+01 0.0 
2.100000000013e+01 -2.000000000000e+01 0.0 
2.000000000013e+01 -2.000000000000e+01 0.0 
1.900000000013e+01 -2.000000000000e+01 0.0 
1.800000000013e+01 -2.000000000000e+01 0.0 
1.700000000012e+01 -2.000000000000e+01 0.0 
1.600000000011e+01 -2.000000000000e+01 0.0 
1.500000000011e+01 -2.000000000000e+01 0.0 
1.400000000010e+01 -2.000000000000e+01 0.0 
1.300000000009e+01 -2.000000000000e+01 0.0 
1.200000000009e+01 -2.000000000000e+01 0.0 
1.100000000008e+01 -2.000000000000e+01 0.0 
1.000000000007e+01 -2.000000000000e+01 0.0 
9.000000000064e+00 -2.000000000000e+01 0.0 
8.000000000057e+00 -2.000000000000e+01 0.0 
7.000000000050e+00 -2.000000000000e+01 0.0 
6.000000000043e+00 -2.000000000000e+01 0.0 
5.000000000036e+00 -2.000000000000e+01 0.0 
4.000000000028e+00 -2.000000000000e+01 0.0 
3.000000000021e+00 -2.000000000000e+01 0.0 
2.000000000014e+00 -2.000000000000e+01 0.0 
1.000000000007e+00 -2.000000000000e+01 0.0 
5.000000000000e+01 -1.100000000000e+01 0.0 
5.000000000000e+01 -1.200000000000e+01 0.0 
5.000000000000e+01 -1.300000000000e+01 0.0 
5.000000000000e+01 -1.400000000000e+01 0.0 
5.000000000000e+01 -1.500000000000e+01 0.0 
5.000000000000e+01 -1.600000000000e+01 0.0 
5.000000000000e+01 -1.700000000000e+01 0.0 
5.000000000000e+01 -1.800000000000e+01 0.0 
5.000000000000e+01 -1.900000000000e+01 0.0 
2.000000000000e+01 0.0 0.0 
3.500000000000e+01 -1.000000000000e+01 0.0 
2.150000000000e+01 -1.000000000000e+00 0.0 
2.300000000000e+01 -2.000000000000e+00 0.0 
2.450000000000e+01 -3.000000000000e+00 0.0 
2.600000000000e+01 -4.000000000000e+00 0.0 
2.750000000000e+01 -5.000000000000e+00 0.0 
2.900000000000e+01 -6.000000000000e+00 0.0 
3.050000000000e+01 -7.000000000000e+00 0.0 
3.200000000000e+01 -8.000000000000e+00 0.0 
3.350000000000e+01 -9.000000000000e+00 0.0 
5.000000000000e+01 -2.000000000000e+00 0.0 
5.000000000000e+01 -3.000000000000e+00 0.0 
5.000000000000e+01 -4.000000000000e+00 0.0 
5.000000000000e+01 -5.000000000000e+00 0.0 
5.000000000000e+01 -6.000000000000e+00 0.0 
5.000000000000e+01 -7.000000000000e+00 0.0 
5.000000000000e+01 -8.000000000000e+00 0.0 
5.000000000000e+01 -9.000000000000e+00 0.0 
4.900000000000e+01 -1.000000000000e+01 0.0 
4.800000000000e+01 -1.000000000000e+01 0.0 
4.700000000000e+01 -1.000000000000e+01 0.0 
4.600000000000e+01 -1.000000000000e+01 0.0 
4.500000000000e+01 -1.000000000000e+01 0.0 
4.400000000000e+01 -1.000000000000e+01 0.0 
4.300000000000e+01 -1.000000000000e+01 0.0 
4.200000000000e+01 -1.000000000000e+01 0.0 
4.100000000000e+01 -1.000000000000e+01 0.0 
4.000000000000e+01 -1.000000000000e+01 0.0 
3.900000000000e+01 -1.000000000000e+01 0.0 
3.800000000000e+01 -1.000000000000e+01 0.0 
3.700000000000e+01 -1.000000000000e+01 0.0 
3.600000000000e+01 -1.000000000000e+01 0.0 
1.900000000000e+01 0.0 0.0 
1.800000000000e+01 0.0 0.0 
1.700000000000e+01 0.0 0.0 
1.600000000000e+01 0.0 0.0 
1.500000000000e+01 0.0 0.0 
1.400000000000e+01 0.0 0.0 
1.300000000000e+01 0.0 0.0 
1.200000000000e+01 0.0 0.0 
1.100000000000e+01 0.0 0.0 
1.000000000000e+01 0.0 0.0 
9.000000000000e+00 0.0 0.0 
8.000000000000e+00 0.0 0.0 
7.000000000000e+00 0.0 0.0 
6.000000000000e+00 0.0 0.0 
5.000000000000e+00 0.0 0.0 
4.000000000000e+00 0.0 0.0 
3.000000000000e+00 0.0 0.0 
2.000000000000e+00 0.0 0.0 
1.000000000000e+00 0.0 0.0 
2.400000000000e+01 -2.000000000000e+00 0.0 
2.500000000000e+01 -2.000000000000e+00 0.0 
2.600000000000e+01 -2.000000000000e+00 0.0 
2.700000000000e+01 -2.000000000000e+00 0.0 
2.800000000000e+01 -2.000000000000e+00 0.0 
2.900000000000e+01 -2.000000000000e+00 0.0 
3.000000000000e+01 -2.000000000000e+00 0.0 
3.100000000000e+01 -2.000000000000e+00 0.0 
3.200000000000e+01 -2.000000000000e+00 0.0 
3.300000000000e+01 -2.000000000000e+00 0.0 
3.400000000000e+01 -2.000000000000e+00 0.0 
3.500000000000e+01 -2.000000000000e+00 0.0 
3.600000000000e+01 -2.000000000000e+00 0.0 
3.700000000000e+01 -2.000000000000e+00 0.0 
3.800000000000e+01 -2.000000000000e+00 0.0 
3.900000000000e+01 -2.000000000000e+00 0.0 
4.000000000000e+01 -2.000000000000e+00 0.0 
4.100000000000e+01 -2.000000000000e+00 0.0 
4.200000000000e+01 -2.000000000000e+00 0.0 
4.300000000000e+01 -2.000000000000e+00 0.0 
4.400000000000e+01 -2.000000000000e+00 0.0 
4.500000000000e+01 -2.000000000000e+00 0.0 
4.600000000000e+01 -2.000000000000e+00 0.0 
4.700000000000e+01 -2.000000000000e+00 0.0 
4.800000000000e+01 -2.000000000000e+00 0.0 
4.900000000000e+01 -2.000000000000e+00 0.0 
2.548076923077e+01 -3.000000000000e+00 0.0 
2.646153846153e+01 -3.000000000000e+00 0.0 
2.744230769230e+01 -3.000000000000e+00 0.0 
2.842307692306e+01 -3.000000000000e+00 0.0 
2.940384615383e+01 -3.000000000000e+00 0.0 
3.038461538459e+01 -3.000000000000e+00 0.0 
3.136538461536e+01 -3.000000000000e+00 0.0 
3.234615384612e+01 -3.000000000000e+00 0.0 
3.332692307687e+01 -3.000000000000e+00 0.0 
3.430769230762e+01 -3.000000000000e+00 0.0 
3.528846153837e+01 -3.000000000000e+00 0.0 
3.626923076912e+01 -3.000000000000e+00 0.0 
3.724999999988e+01 -3.000000000000e+00 0.0 
3.823076923065e+01 -3.000000000000e+00 0.0 
3.921153846143e+01 -3.000000000000e+00 0.0 
4.019230769221e+01 -3.000000000000e+00 0.0 
4.117307692299e+01 -3.000000000000e+00 0.0 
4.215384615377e+01 -3.000000000000e+00 0.0 
4.313461538455e+01 -3.000000000000e+00 0.0 
4.411538461533e+01 -3.000000000000e+00 0.0 
4.509615384611e+01 -3.000000000000e+00 0.0 
4.607692307688e+01 -3.000000000000e+00 0.0 
4.705769230766e+01 -3.000000000000e+00 0.0 
4.803846153844e+01 -3.000000000000e+00 0.0 
4.901923076922e+01 -3.000000000000e+00 0.0 
4.900000000000e+01 -4.000000000000e+00 0.0 
4.800000000000e+01 -4.000000000000e+00 0.0 
4.700000000000e+01 -4.000000000000e+00 0.0 
4.600000000000e+01 -4.000000000000e+00 0.0 
4.500000000000e+01 -4.000000000000e+00 0.0 
4.400000000000e+01 -4.000000000000e+00 0.0 
4.300000000000e+01 -4.000000000000e+00 0.0 
4.200000000000e+01 -4.000000000000e+00 0.0 
4.100000000000e+01 -4.000000000000e+00 0.0 
4.000000000000e+01 -4.000000000000e+00 0.0 
3.900000000000e+01 -4.000000000000e+00 0.0 
3.800000000000e+01 -4.000000000000e+00 0.0 
3.700000000000e+01 -4.000000000000e+00 0.0 
3.600000000000e+01 -4.000000000000e+00 0.0 
3.500000000000e+01 -4.000000000000e+00 0.0 
3.400000000000e+01 -4.000000000000e+00 0.0 
3.300000000000e+01 -4.000000000000e+00 0.0 
3.200000000000e+01 -4.000000000000e+00 0.0 
3.100000000000e+01 -4.000000000000e+00 0.0 
3.000000000000e+01 -4.000000000000e+00 0.0 
2.900000000000e+01 -4.000000000000e+00 0.0 
2.800000000000e+01 -4.000000000000e+00 0.0 
2.700000000000e+01 -4.000000000000e+00 0.0 
2.847826086957e+01 -5.000000000000e+00 0.0 
2.945652173913e+01 -5.000000000000e+00 0.0 
3.043478260870e+01 -5.000000000000e+00 0.0 
3.141304347826e+01 -5.000000000000e+00 0.0 
3.239130434783e+01 -5.000000000000e+00 0.0 
3.336956521739e+01 -5.000000000000e+00 0.0 
3.434782608696e+01 -5.000000000000e+00 0.0 
3.532608695652e+01 -5.000000000000e+00 0.0 
3.630434782609e+01 -5.000000000000e+00 0.0 
3.728260869565e+01 -5.000000000000e+00 0.0 
3.826086956522e+01 -5.000000000000e+00 0.0 
3.923913043478e+01 -5.000000000000e+00 0.0 
4.021739130435e+01 -5.000000000000e+00 0.0 
4.119565217391e+01 -5.000000000000e+00 0.0 
4.217391304348e+01 -5.000000000000e+00 0.0 
4.315217391304e+01 -5.000000000000e+00 0.0 
4.413043478261e+01 -5.000000000000e+00 0.0 
4.510869565217e+01 -5.000000000000e+00 0.0 
4.608695652174e+01 -5.000000000000e+00 0.0 
4.706521739130e+01 -5.000000000000e+00 0.0 
4.804347826087e+01 -5.000000000000e+00 0.0 
4.902173913043e+01 -5.000000000000e+00 0.0 
4.900000000001e+01 -6.000000000000e+00 0.0 
4.800000000003e+01 -6.000000000000e+00 0.0 
4.700000000004e+01 -6.000000000000e+00 0.0 
4.600000000006e+01 -6.000000000000e+00 0.0 
4.500000000007e+01 -6.000000000000e+00 0.0 
4.400000000009e+01 -6.000000000000e+00 0.0 
4.300000000010e+01 -6.000000000000e+00 0.0 
4.200000000012e+01 -6.000000000000e+00 0.0 
4.100000000013e+01 -6.000000000000e+00 0.0 
4.000000000014e+01 -6.000000000000e+00 0.0 
3.900000000014e+01 -6.000000000000e+00 0.0 
3.800000000012e+01 -6.000000000000e+00 0.0 
3.700000000010e+01 -6.000000000000e+00 0.0 
3.600000000008e+01 -6.000000000000e+00 0.0 
3.500000000006e+01 -6.000000000000e+00 0.0 
3.400000000005e+01 -6.000000000000e+00 0.0 
3.300000000003e+01 -6.000000000000e+00 0.0 
3.200000000001e+01 -6.000000000000e+00 0.0 
3.100000000000e+01 -6.000000000000e+00 0.0 
3.000000000000e+01 -6.000000000000e+00 0.0 
3.147499999998e+01 -7.000000000000e+00 0.0 
3.244999999998e+01 -7.000000000000e+00 0.0 
3.342499999998e+01 -7.000000000000e+00 0.0 
3.439999999998e+01 -7.000000000000e+00 0.0 
3.537499999998e+01 -7.000000000000e+00 0.0 
3.634999999998e+01 -7.000000000000e+00 0.0 
3.732499999998e+01 -7.000000000000e+00 0.0 
3.829999999998e+01 -7.000000000000e+00 0.0 
3.927499999999e+01 -7.000000000000e+00 0.0 
4.024999999999e+01 -7.000000000000e+00 0.0 
4.122499999999e+01 -7.000000000000e+00 0.0 
4.219999999999e+01 -7.000000000000e+00 0.0 
4.317499999999e+01 -7.000000000000e+00 0.0 
4.414999999999e+01 -7.000000000000e+00 0.0 
4.512499999999e+01 -7.000000000000e+00 0.0 
4.609999999999e+01 -7.000000000000e+00 0.0 
4.707500000000e+01 -7.000000000000e+00 0.0 
4.805000000000e+01 -7.000000000000e+00 0.0 
4.902500000000e+01 -7.000000000000e+00 0.0 
4.900000000000e+01 -8.000000000000e+00 0.0 
4.800000000000e+01 -8.000000000000e+00 0.0 
4.700000000000e+01 -8.000000000000e+00 0.0 
4.600000000000e+01 -8.000000000000e+00 0.0 
4.500000000000e+01 -8.000000000000e+00 0.0 
4.400000000000e+01 -8.000000000000e+00 0.0 
4.300000000000e+01 -8.000000000000e+00 0.0 
4.200000000000e+01 -8.000000000000e+00 0.0 
4.100000000000e+01 -8.000000000000e+00 0.0 
4.000000000000e+01 -8.000000000000e+00 0.0 
3.900000000000e+01 -8.000000000000e+00 0.0 
3.800000000000e+01 -8.000000000000e+00 0.0 
3.700000000000e+01 -8.000000000000e+00 0.0 
3.600000000000e+01 -8.000000000000e+00 0.0 
3.500000000000e+01 -8.000000000000e+00 0.0 
3.400000000000e+01 -8.000000000000e+00 0.0 
3.300000000000e+01 -8.000000000000e+00 0.0 
3.447058823527e+01 -9.000000000000e+00 0.0 
3.544117647055e+01 -9.000000000000e+00 0.0 
3.641176470582e+01 -9.000000000000e+00 0.0 
3.738235294109e+01 -9.000000000000e+00 0.0 
3.835294117637e+01 -9.000000000000e+00 0.0 
3.932352941164e+01 -9.000000000000e+00 0.0 
4.029411764691e+01 -9.000000000000e+00 0.0 
4.126470588219e+01 -9.000000000000e+00 0.0 
4.223529411748e+01 -9.000000000000e+00 0.0 
4.320588235279e+01 -9.000000000000e+00 0.0 
4.417647058811e+01 -9.000000000000e+00 0.0 
4.514705882342e+01 -9.000000000000e+00 0.0 
4.611764705874e+01 -9.000000000000e+00 0.0 
4.708823529405e+01 -9.000000000000e+00 0.0 
4.805882352937e+01 -9.000000000000e+00 0.0 
4.902941176468e+01 -9.000000000000e+00 0.0 
2.075000000000e+01 -5.000000000006e-01 0.0 
2.225000000000e+01 -1.500000000000e+00 0.0 
2.375000000000e+01 -2.500000000000e+00 0.0 
2.525000000000e+01 -3.500000000000e+00 0.0 
2.675000000000e+01 -4.500000000000e+00 0.0 
2.825000000000e+01 -5.500000000000e+00 0.0 
2.975000000000e+01 -6.500000000000e+00 0.0 
3.125000000000e+01 -7.500000000000e+00 0.0 
3.275000000000e+01 -8.500000000000e+00 0.0 
3.425000000000e+01 -9.500000000000e+00 0.0 
2.226951693683e+01 -2.403913980114e+00 0.0 
1.650149491944e+01 -1.913490915758e+01 0.0 
1.050042386896e+01 -8.504605092970e-01 0.0 
1.553146524712e+01 -8.281255032105e-01 0.0 
1.150000000008e+01 -1.913397459621e+01 0.0 
2.530060260647e+01 -4.428336431260e+00 0.0 
8.651114563942e-01 -1.052096295641e+01 0.0 
2.050000000013e+01 -1.913397459622e+01 0.0 
2.819198729811e+01 -6.399519052838e+00 0.0 
2.445670302931e+01 -1.915649188023e+01 0.0 
3.117591465718e+01 -8.394293040695e+00 0.0 
7.465053044742e+00 -1.920411160581e+01 0.0 
6.398295709691e+00 -8.230098819370e-01 0.0 
2.849659607461e+01 -1.914296187762e+01 0.0 
3.418732642882e+01 -1.040265792588e+01 0.0 
8.386450935063e-01 -6.533605142809e+00 0.0 
9.178661865596e-01 -1.329769195597e+01 0.0 
3.149448624493e+01 -1.910466733764e+01 0.0 
3.552916747426e+01 -1.914628590759e+01 0.0 
4.449210346537e+01 -1.914359085008e+01 0.0 
4.140975975145e+01 -1.906941860733e+01 0.0 
3.847475958753e+01 -1.916622382724e+01 0.0 
3.653774794640e+01 -1.088712800241e+01 0.0 
4.047886341787e+01 -1.090139014048e+01 0.0 
4.348006339825e+01 -1.092792621489e+01 0.0 
4.919519968029e+01 -1.451526755068e+01 0.0 
4.500000000032e+00 -1.913397459621e+01 0.0 
1.856136921614e+01 -8.212235170404e-01 0.0 
3.499895312306e+00 -8.661165539723e-01 0.0 
9.076088696565e-01 -1.642306201891e+01 0.0 
4.655174095477e+01 -1.086183387525e+01 0.0 
9.430688970604e-01 -3.496112672958e+00 0.0 
3.353992337063e+01 -1.901202090820e+01 0.0 
2.249746016977e+01 -1.921262287282e+01 0.0 
2.650122741777e+01 -1.916123026018e+01 0.0 
1.863571384842e+01 -1.908325534840e+01 0.0 
1.450089971693e+01 -1.917691901860e+01 0.0 
1.350044695317e+01 -8.659695299584e-01 0.0 
3.849987469880e+01 -1.084154983397e+01 0.0 
9.454419857884e+00 -1.900818879936e+01 0.0 
4.917398660523e+01 -1.645692866081e+01 0.0 
8.500000000000e+00 -8.660254037844e-01 0.0 
8.660319230785e-01 -8.500111697188e+00 0.0 
4.649022621545e+01 -1.930506220113e+01 0.0 
2.667688107845e+01 -5.420288124331e+00 0.0 
2.379251615665e+01 -3.412225477429e+00 0.0 
2.966631491830e+01 -7.389030232731e+00 0.0 
3.267915035995e+01 -9.396934932445e+00 0.0 
2.074836922338e+01 -1.320054020319e+00 0.0 
4.915985743621e+01 -1.261973384855e+01 0.0 
2.527129768623e+00 -1.931592414663e+01 0.0 
1.538676247410e+00 -8.436956619311e-01 0.0 
4.908096641539e+01 -1.842484004551e+01 0.0 
3.478612492673e+01 -1.090889364140e+01 0.0 
3.409757055860e+01 -1.131991530427e+01 0.0 
3.501895309466e+01 -1.177687842717e+01 0.0 
3.407758073088e+01 -1.224293381580e+01 0.0 
3.484541875390e+01 -1.277051428430e+01 0.0 
3.400322025842e+01 -1.319022775640e+01 0.0 
3.321672625034e+01 -1.266779191233e+01 0.0 
3.315244139236e+01 -1.360984106532e+01 0.0 
3.236335186892e+01 -1.308463225210e+01 0.0 
3.478337442841e+01 -1.372341158982e+01 0.0 
3.230105923633e+01 -1.403023731610e+01 0.0 
3.150954055289e+01 -1.350301767700e+01 0.0 
3.144604792090e+01 -1.444931742516e+01 0.0 
3.065653897123e+01 -1.392357262981e+01 0.0 
3.071897610812e+01 -1.297447031198e+01 0.0 
2.986790411740e+01 -1.339226181535e+01 0.0 
2.993181466745e+01 -1.244703272398e+01 0.0 
2.908023061869e+01 -1.286254537734e+01 0.0 
2.901619051372e+01 -1.380881655279e+01 0.0 
2.822986160390e+01 -1.327695262116e+01 0.0 
2.829453476870e+01 -1.233265343811e+01 0.0 
2.744542905518e+01 -1.274510491105e+01 0.0 
2.751120089246e+01 -1.180368086886e+01 0.0 
2.666218649885e+01 -1.221619339205e+01 0.0 
2.672371209234e+01 -1.127125228527e+01 0.0 
2.587763216302e+01 -1.168539979114e+01 0.0 
2.581165585299e+01 -1.262994410089e+01 0.0 
2.502890882577e+01 -1.209827323619e+01 0.0 
2.509631327757e+01 -1.115492410304e+01 0.0 
2.424662989877e+01 -1.156630981079e+01 0.0 
2.431704046904e+01 -1.062389179334e+01 0.0 
2.346445438728e+01 -1.103427680694e+01 0.0 
2.339382552877e+01 -1.197964871788e+01 0.0 
2.260936050780e+01 -1.144513277642e+01 0.0 
2.268075012022e+01 -1.049911928216e+01 0.0 
2.182525737661e+01 -1.090920811464e+01 0.0 
2.189682319817e+01 -9.961716944568e+00 0.0 
2.104174127792e+01 -1.037266986667e+01 0.0 
2.111304367575e+01 -9.424179358711e+00 0.0 
2.025306185381e+01 -9.832727364719e+00 0.0 
2.018141124247e+01 -1.079140628871e+01 0.0 
1.938594498257e+01 -1.025147354112e+01 0.0 
1.946106490453e+01 -9.288010758448e+00 0.0 
1.858929958352e+01 -9.706319802516e+00 0.0 
1.851540991219e+01 -1.067205988724e+01 0.0 
1.771485303178e+01 -1.012504443115e+01 0.0 
1.764134552256e+01 -1.109360378538e+01 0.0 
1.683745148095e+01 -1.054496365337e+01 0.0 
1.691852964353e+01 -9.582555261178e+00 0.0 
1.603603813062e+01 -1.000160132379e+01 0.0 
1.595824239350e+01 -1.096750698862e+01 0.0 
1.515080624291e+01 -1.041639501931e+01 0.0 
1.523171602559e+01 -9.451711491453e+00 0.0 
1.434621060709e+01 -9.871956467464e+00 0.0 
1.426777178765e+01 -1.083749501371e+01 0.0 
1.345775282374e+01 -1.028803175500e+01 0.0 
1.354103873368e+01 -9.324918457162e+00 0.0 
1.265072018622e+01 -9.742612837270e+00 0.0 
1.257285762070e+01 -1.071557782384e+01 0.0 
1.175874815690e+01 -1.015972324288e+01 0.0 
1.184203019714e+01 -9.193604071377e+00 0.0 
1.094927709905e+01 -9.612103238656e+00 0.0 
1.086938022910e+01 -1.058685085646e+01 0.0 
1.005424098961e+01 -1.002939116380e+01 0.0 
9.977974613295e+00 -1.101324897989e+01 0.0 
1.012915646404e+01 -9.051815821181e+00 0.0 
9.237127782494e+00 -9.471239055559e+00 0.0 
9.308426593771e+00 -8.483376461131e+00 0.0 
8.418806073345e+00 -8.910712374517e+00 0.0 
2.253688464062e+01 -1.239459402279e+01 0.0 
8.495126726666e+00 -7.921646665254e+00 0.0 
9.389727383206e+00 -7.512103628377e+00 0.0 
7.601560812974e+00 -8.349460349344e+00 0.0 
7.525680547759e+00 -9.339736686940e+00 0.0 
7.677888324502e+00 -7.359727833346e+00 0.0 
6.782001206724e+00 -7.788454494773e+00 0.0 
6.858778622885e+00 -6.797338062822e+00 0.0 
2.196596590865e+01 -8.979025665442e+00 0.0 
2.816540108272e+01 -1.422634142353e+01 0.0 
5.961601194403e+00 -7.226824010712e+00 0.0 
6.038171749656e+00 -6.234825887079e+00 0.0 
6.936257279557e+00 -5.805287640737e+00 0.0 
6.115068918323e+00 -5.242109758768e+00 0.0 
3.564391741903e+01 -1.329240553876e+01 0.0 
3.558115605778e+01 -1.425902892003e+01 0.0 
3.645445282201e+01 -1.381970786460e+01 0.0 
3.639744204358e+01 -1.479198128612e+01 0.0 
3.727266909778e+01 -1.435399586226e+01 0.0 
5.216667013081e+00 -5.671788584287e+00 0.0 
3.220697293295e+01 -1.499594545107e+01 0.0 
3.551112158269e+01 -1.523479869250e+01 0.0 
2.836056961467e+01 -1.139032434851e+01 0.0 
2.516730388602e+01 -1.021382726837e+01 0.0 
1.844436907403e+01 -1.164097215196e+01 0.0 
5.885434318740e+00 -8.218694781467e+00 0.0 
5.064071066867e+00 -7.656614643901e+00 0.0 
4.988089103470e+00 -8.649722082718e+00 0.0 
1.079421050408e+01 -1.157014985435e+01 0.0 
9.902420005256e+00 -1.199903342656e+01 0.0 
1.071994252214e+01 -1.255727909771e+01 0.0 
9.826974788171e+00 -1.298659581767e+01 0.0 
1.064607883789e+01 -1.354595476388e+01 0.0 
9.751541265343e+00 -1.397556905071e+01 0.0 
8.932296185869e+00 -1.341553353988e+01 0.0 
8.856399248106e+00 -1.440570715508e+01 0.0 
8.036186803543e+00 -1.384470558472e+01 0.0 
1.057112875118e+01 -1.453516759081e+01 0.0 
1.146582585687e+01 -1.410539926903e+01 0.0 
7.959894480382e+00 -1.483563350928e+01 0.0 
7.138792279156e+00 -1.427465094140e+01 0.0 
7.062506792418e+00 -1.526615385482e+01 0.0 
6.240693558277e+00 -1.470508863040e+01 0.0 
6.316957575451e+00 -1.371212581281e+01 0.0 
5.418183007107e+00 -1.414253605022e+01 0.0 
5.494748364428e+00 -1.314886770603e+01 0.0 
1.756825565873e+01 -1.206433872514e+01 0.0 
1.837565773345e+01 -1.261356468266e+01 0.0 
1.749574831391e+01 -1.303769280014e+01 0.0 
1.830539187332e+01 -1.358828364284e+01 0.0 
1.742278925170e+01 -1.401367746928e+01 0.0 
1.823303007798e+01 -1.456432294258e+01 0.0 
1.734941694138e+01 -1.499213734361e+01 0.0 
1.653760041637e+01 -1.443920312098e+01 0.0 
3.056237977307e+01 -1.487132260174e+01 0.0 
1.866469084762e+01 -8.742953000418e+00 0.0 
1.953669694916e+01 -8.326038909849e+00 0.0 
1.874194303780e+01 -7.780688158966e+00 0.0 
1.961032016741e+01 -7.366854697285e+00 0.0 
1.881715755159e+01 -6.821102209649e+00 0.0 
1.968369797150e+01 -6.407747217358e+00 0.0 
1.889237123259e+01 -5.858375520026e+00 0.0 
1.802038875366e+01 -6.276202618170e+00 0.0 
1.809793837984e+01 -5.307629520489e+00 0.0 
1.721985207997e+01 -5.728242054488e+00 0.0 
1.729850893523e+01 -4.756990819347e+00 0.0 
1.641745664240e+01 -5.174636548624e+00 0.0 
2.495978509456e+01 -1.304406404294e+01 0.0 
1.911567814831e+01 -1.413854250293e+01 0.0 
1.904387332608e+01 -1.511463127723e+01 0.0 
1.992115934240e+01 -1.468788025898e+01 0.0 
7.013706899628e+00 -4.812582868662e+00 0.0 
5.342091874585e+00 -1.513658157269e+01 0.0 
1.139098043784e+01 -1.509488509480e+01 0.0 
1.228151810610e+01 -1.465617481983e+01 0.0 
1.646373110164e+01 -1.541993323337e+01 0.0 
5.293328636712e+00 -4.678385108584e+00 0.0 
1.975965862987e+01 -5.448124345648e+00 0.0 
2.054318374236e+01 -5.992561293251e+00 0.0 
3.721453439063e+01 -1.533216152738e+01 0.0 
3.809302733893e+01 -1.489235527381e+01 0.0 
1.220852788900e+01 -1.565304565230e+01 0.0 
4.394120899730e+00 -5.108397613210e+00 0.0 
8.779354620288e+00 -1.539524721159e+01 0.0 
1.817791047702e+01 -4.338570146253e+00 0.0 
4.518860013839e+00 -1.457343189307e+01 0.0 
4.442712140414e+00 -1.556841391069e+01 0.0 
8.115343466391e+00 -1.285760324283e+01 0.0 
1.985334703171e+01 -1.566478400426e+01 0.0 
2.071953850276e+01 -1.522074243119e+01 0.0 
1.634012953883e+01 -6.154777738301e+00 0.0 
1.553479994708e+01 -5.593730508879e+00 0.0 
1.561265946942e+01 -4.617761762647e+00 0.0 
1.470674212978e+01 -5.064576488228e+00 0.0 
1.464498299883e+01 -6.026514471420e+00 0.0 
1.383271561817e+01 -5.467796261169e+00 0.0 
1.389241253067e+01 -4.504338666645e+00 0.0 
1.301868735463e+01 -4.907185188626e+00 0.0 
1.294514184846e+01 -5.888160903592e+00 0.0 
1.212955968622e+01 -5.328262335277e+00 0.0 
1.220721122383e+01 -4.341264976687e+00 0.0 
1.131324345897e+01 -4.766773516508e+00 0.0 
5.266597955397e+00 -1.613148974258e+01 0.0 
1.737805990867e+01 -3.786677807525e+00 0.0 
3.078438094513e+01 -1.203225297748e+01 0.0 
1.131569882285e+01 -1.608511932110e+01 0.0 
1.728478341782e+01 -1.596017432313e+01 0.0 
3.803465906019e+01 -1.587509751228e+01 0.0 
3.891681276677e+01 -1.543395196905e+01 0.0 
3.897340985302e+01 -1.444710288980e+01 0.0 
3.980095968193e+01 -1.499059496613e+01 0.0 
3.974334598189e+01 -1.597921884150e+01 0.0 
4.062964983717e+01 -1.553518690417e+01 0.0 
4.068729602479e+01 -1.454434445295e+01 0.0 
4.151772679790e+01 -1.508974196007e+01 0.0 
4.157505195739e+01 -1.409694289912e+01 0.0 
4.240699932656e+01 -1.464347955968e+01 0.0 
4.234898051011e+01 -1.563721375790e+01 0.0 
4.323934606035e+01 -1.519082036405e+01 0.0 
4.329740528208e+01 -1.419587509788e+01 0.0 
4.413056841369e+01 -1.474359631875e+01 0.0 
4.418850110108e+01 -1.374786684042e+01 0.0 
4.502219770667e+01 -1.429605103525e+01 0.0 
4.496411937907e+01 -1.529215882720e+01 0.0 
4.490027319897e+00 -4.154167794594e+00 0.0 
1.565080385988e+01 -1.486411982419e+01 0.0 
1.557610691279e+01 -1.584855627870e+01 0.0 
4.195350646612e+00 -8.089117689096e+00 0.0 
4.124027797830e+00 -9.082831955007e+00 0.0 
4.917944318925e+00 -9.643530901533e+00 0.0 
4.020105689502e+00 -1.007439673661e+01 0.0 
4.587185899277e+01 -1.484039992728e+01 0.0 
4.580078661551e+01 -1.584043391042e+01 0.0 
2.061956522375e+01 -5.046701343981e+00 0.0 
2.139572955529e+01 -5.579553449826e+00 0.0 
3.715344357292e+01 -1.631485124583e+01 0.0 
3.618886196443e+00 -1.500471207167e+01 0.0 
3.695606940204e+00 -1.400939692294e+01 0.0 
2.438890661143e+01 -9.686110599723e+00 0.0 
2.523267572778e+01 -9.276766000622e+00 0.0 
2.446094171539e+01 -8.751904591412e+00 0.0 
2.529089822738e+01 -8.321495612547e+00 0.0 
2.606882688827e+01 -8.864724051119e+00 0.0 
2.452116646430e+01 -7.792756462004e+00 0.0 
1.235543269617e+01 -1.365845617339e+01 0.0 
4.318116874181e+01 -1.618567469992e+01 0.0 
7.835066111909e+00 -5.376366223896e+00 0.0 
7.905687335704e+00 -4.382539065697e+00 0.0 
3.542640009567e+00 -1.600035116542e+01 0.0 
1.572431503071e+01 -1.388358386695e+01 0.0 
2.574684696680e+01 -1.357896141127e+01 0.0 
2.488842657651e+01 -1.399674354505e+01 0.0 
2.568301775611e+01 -1.453552048595e+01 0.0 
2.481535572009e+01 -1.495542756508e+01 0.0 
2.561729699688e+01 -1.549784648532e+01 0.0 
2.474623061296e+01 -1.592058894178e+01 0.0 
2.394234041695e+01 -1.537572575827e+01 0.0 
2.065825452567e+01 -1.621899055217e+01 0.0 
2.387180528935e+01 -1.634552264687e+01 0.0 
4.585364400844e+01 -1.383912334080e+01 0.0 
1.998744432052e+01 -1.370317155541e+01 0.0 
1.205356951443e+01 -6.313580285498e+00 0.0 
5.396543905849e+00 -3.731818611283e+00 0.0 
1.139652573295e+01 -3.745819399350e+00 0.0 
3.574124306703e+00 -4.551456826011e+00 0.0 
3.494140761930e+00 -5.539787055649e+00 0.0 
1.213651452413e+01 -1.664505033022e+01 0.0 
2.555045568519e+01 -1.646529356744e+01 0.0 
2.641671114986e+01 -1.603899382371e+01 0.0 
2.612920721894e+01 -7.906435260873e+00 0.0 
2.690339829698e+01 -8.456969591431e+00 0.0 
1.978024383368e+01 -1.664410216353e+01 0.0 
3.732829979082e+01 -1.336926601859e+01 0.0 
4.074336584605e+01 -1.355133328401e+01 0.0 
4.163204691081e+01 -1.310280943992e+01 0.0 
3.773826114429e+00 -3.493444309145e+00 0.0 
1.228783001032e+01 -3.374822835872e+00 0.0 
4.057110462520e+01 -1.652588478000e+01 0.0 
2.132535497898e+01 -6.523623360525e+00 0.0 
2.216932532211e+01 -6.110044769206e+00 0.0 
1.825781152128e+01 -3.370146817147e+00 0.0 
1.745679445888e+01 -2.812942552063e+00 0.0 
4.666517057280e+01 -1.539981381543e+01 0.0 
4.660575894464e+01 -1.639014410186e+01 0.0 
4.838230979954e+00 -1.063643436446e+01 0.0 
3.938942630206e+00 -1.106778981745e+01 0.0 
1.302967218620e+01 -1.621373452436e+01 0.0 
1.049548003190e+01 -4.204825123240e+00 0.0 
4.573571907195e+01 -1.683820511148e+01 0.0 
1.483686335807e+01 -1.430849689310e+01 0.0 
1.490982658890e+01 -1.332679386284e+01 0.0 
3.190805600162e+00 -9.510968358545e+00 0.0 
2.146625721848e+01 -4.642437303115e+00 0.0 
2.069866208266e+01 -4.111852942193e+00 0.0 
1.286859345584e+01 -6.873252723348e+00 0.0 
1.041794493184e+01 -5.194814260291e+00 0.0 
2.671081808965e+00 -4.976806516331e+00 0.0 
1.295786792925e+01 -1.720506531799e+01 0.0 
3.968438206511e+01 -1.696869067241e+01 0.0 
2.308550456051e+01 -1.579963151273e+01 0.0 
2.315593682844e+01 -1.482967445235e+01 0.0 
2.299471449450e+01 -1.677069968132e+01 0.0 
1.057344714696e+01 -3.214252277840e+00 0.0 
1.124057603753e+01 -1.707713739755e+01 0.0 
2.718402535754e+00 -1.543629882103e+01 0.0 
2.638549692805e+01 -1.696744916809e+01 0.0 
2.723416349007e+01 -1.658104204545e+01 0.0 
2.210193351704e+01 -7.046769643417e+00 0.0 
2.295180925161e+01 -6.657397605239e+00 0.0 
2.301355235833e+01 -5.709111896800e+00 0.0 
2.379052718281e+01 -6.254965406962e+00 0.0 
3.243528601237e+01 -1.214181853533e+01 0.0 
2.287977995457e+01 -7.583722368300e+00 0.0 
2.999876029544e+01 -1.150837653096e+01 0.0 
3.084435366963e+01 -1.109693775882e+01 0.0 
3.006650579669e+01 -1.057778994262e+01 0.0 
2.683802665066e+01 -9.386863216633e+00 0.0 
2.768641973621e+01 -8.988883915666e+00 0.0 
2.040296980397e+01 -7.903629133404e+00 0.0 
1.925235024054e+01 -1.218872783130e+01 0.0 
5.735667000424e+00 -1.020577277283e+01 0.0 
6.396559909872e+00 -1.272326295703e+01 0.0 
1.161199420714e+01 -1.212812778229e+01 0.0 
4.229046132615e+01 -1.663084237572e+01 0.0 
4.312275399692e+01 -1.718087491556e+01 0.0 
4.335502068163e+01 -1.320039231514e+01 0.0 
4.424630298089e+01 -1.275160688731e+01 0.0 
7.090116643816e+00 -3.818998061530e+00 0.0 
7.989472176569e+00 -3.389238711200e+00 0.0 
9.085824861778e+00 -1.144036167408e+01 0.0 
1.041972423731e+01 -1.651614080893e+01 0.0 
3.797525112640e+01 -1.686052038746e+01 0.0 
3.709114253394e+01 -1.730125999865e+01 0.0 
3.626966748340e+01 -1.675477052919e+01 0.0 
1.385164591440e+01 -1.677597757552e+01 0.0 
1.787152588784e+01 -8.198993896093e+00 0.0 
1.668849729812e+01 -1.248560611628e+01 0.0 
1.659546177905e+01 -3.232482605530e+00 0.0 
2.332214717345e+01 -1.292598167641e+01 0.0 
7.168238450786e+00 -2.824711686516e+00 0.0 
2.894878403906e+01 -1.475427524446e+01 0.0 
2.646763248247e+00 -1.643270107952e+01 0.0 
3.467431944285e+00 -1.699648837348e+01 0.0 
2.059475877282e+01 -1.719473628526e+01 0.0 
3.333868355437e+01 -1.080596971682e+01 0.0 
2.246451062637e+01 -1.334557761546e+01 0.0 
2.167821896388e+01 -1.280847834858e+01 0.0 
3.089653185767e+01 -1.017198487212e+01 0.0 
3.012604365669e+01 -9.657298805968e+00 0.0 
2.929627299435e+01 -1.006100135274e+01 0.0 
2.936201435219e+01 -9.136748899251e+00 0.0 
1.198219052702e+01 -7.291887238230e+00 0.0 
1.116702076035e+01 -6.731976101053e+00 0.0 
2.551388807505e+01 -1.746927036981e+01 0.0 
2.378639090370e+01 -1.728678807149e+01 0.0 
2.718543627188e+01 -1.748668016909e+01 0.0 
2.804681050301e+01 -1.712626668293e+01 0.0 
1.970737034667e+01 -1.762317646822e+01 0.0 
1.889535776135e+01 -1.707158098231e+01 0.0 
2.593777711283e+00 -5.971157087874e+00 0.0 
2.773468281110e+01 -8.067164273938e+00 0.0 
4.051205884347e+01 -1.751819982458e+01 0.0 
3.166903145421e+01 -1.068032992414e+01 0.0 
1.033042452886e+01 -1.748285844336e+01 0.0 
9.519274604626e+00 -1.694349240233e+01 0.0 
1.668308673328e+01 -2.255861778986e+00 0.0 
1.570531902832e+01 -2.676795860126e+00 0.0 
4.655826903379e+01 -1.736656245706e+01 0.0 
2.384148070773e+01 -5.328744256413e+00 0.0 
2.460255123641e+01 -5.852182672816e+00 0.0 
2.306638135119e+01 -4.798935440613e+00 0.0 
8.467720450578e-01 -1.849576263072e+01 0.0 
4.849657322345e+01 -1.084860705506e+01 0.0 
2.565860899507e+00 -1.742859793981e+01 0.0 
2.764418872564e+01 -9.927142821799e+00 0.0 
4.565165880064e+01 -1.785336695404e+01 0.0 
2.162231831329e+01 -1.376528337468e+01 0.0 
2.360646352969e+01 -9.136041963102e+00 0.0 
1.392738739903e+01 -1.578285505772e+01 0.0 
4.756405947478e+01 -1.683706841809e+01 0.0 
4.740895034054e+01 -1.793766756892e+01 0.0 
4.080779328826e+01 -1.257387192544e+01 0.0 
4.168907939671e+01 -1.210739129181e+01 0.0 
3.991197722154e+01 -1.300815793917e+01 0.0 
1.905536506762e+01 -3.940076697685e+00 0.0 
1.923879596617e+01 -2.875000734166e+00 0.0 
4.401386745746e+01 -1.673483229438e+01 0.0 
4.247233362525e+00 -7.094581653070e+00 0.0 
3.286051630211e+00 -7.635300020553e+00 0.0 
9.609533347623e+00 -4.594311677967e+00 0.0 
9.523554636369e+00 -5.595597029530e+00 0.0 
5.660336628893e+00 -1.119290329628e+01 0.0 
6.558070063295e+00 -1.076385809362e+01 0.0 
2.809866407414e+01 -1.518037766799e+01 0.0 
2.888868674504e+01 -1.570360690070e+01 0.0 
2.654431550819e+01 -1.411217777162e+01 0.0 
1.402158265969e+01 -1.375404617952e+01 0.0 
1.409592494026e+01 -1.277071998942e+01 0.0 
1.499355196178e+01 -1.235270737023e+01 0.0 
4.221535326155e+01 -1.759335617494e+01 0.0 
4.305583287033e+01 -1.822663146802e+01 0.0 
1.280748808359e+01 -7.834332838285e+00 0.0 
1.368988389326e+01 -7.420529606172e+00 0.0 
1.110091796060e+01 -7.683966794328e+00 0.0 
3.963446145980e+01 -1.794331310122e+01 0.0 
3.423932362213e+00 -1.796415590455e+01 0.0 
4.280814572302e+00 -1.752272834860e+01 0.0 
8.050136380041e+00 -2.421582378631e+00 0.0 
8.888674091650e+00 -2.984264211327e+00 0.0 
2.152839430898e+01 -3.732609965436e+00 0.0 
2.077799585292e+01 -3.183896021866e+00 0.0 
3.618719395821e+01 -1.770276572576e+01 0.0 
3.538165138340e+01 -1.718709995539e+01 0.0 
3.702925326420e+01 -1.828844288807e+01 0.0 
1.756739438711e+00 -5.353284859169e+00 0.0 
2.233710191104e+01 -1.527265621324e+01 0.0 
1.389483555057e+01 -1.771797164730e+01 0.0 
1.475634224300e+01 -1.728357428390e+01 0.0 
1.298797563052e+01 -1.825968924755e+01 0.0 
2.145331271866e+01 -1.673705379077e+01 0.0 
2.133282821169e+01 -1.769400773673e+01 0.0 
2.292139194136e+01 -1.774915400288e+01 0.0 
1.750750053243e+01 -1.861475593469e+00 0.0 
4.830478841772e+01 -1.752611802221e+01 0.0 
4.341203507805e+01 -1.220326745522e+01 0.0 
1.685254151866e+01 -1.443085301632e+00 0.0 
4.431538535165e+01 -1.171841387375e+01 0.0 
4.511308610496e+01 -1.229557320599e+01 0.0 
4.510133242889e+01 -1.123680627466e+01 0.0 
1.846818030617e+00 -4.410877617069e+00 0.0 
3.995468694584e+01 -1.186571542989e+01 0.0 
3.901387459804e+01 -1.242507616755e+01 0.0 
8.966735877533e+00 -1.837818700423e+00 0.0 
4.049310011091e+01 -1.848269508791e+01 0.0 
7.278862053803e+00 -1.918523922691e+00 0.0 
6.429715522129e+00 -2.316676521184e+00 0.0 
9.443505505022e+00 -1.792198868094e+01 0.0 
8.620386951051e+00 -1.737590365556e+01 0.0 
8.571868171503e+00 -1.834436667826e+01 0.0 
7.758629848526e+00 -1.775677907213e+01 0.0 
7.806648388584e+00 -1.680761266021e+01 0.0 
6.908555145436e+00 -1.723746463044e+01 0.0 
4.251709122090e+01 -1.156937480156e+01 0.0 
6.931136405615e+00 -1.832465719263e+01 0.0 
6.015545461353e+00 -1.768865355295e+01 0.0 
5.960535926343e+00 -1.872011001764e+01 0.0 
3.023253444786e+01 -8.761960642196e+00 0.0 
2.454622702599e+01 -6.749421992767e+00 0.0 
2.537499741604e+01 -6.347634963783e+00 0.0 
2.544077378460e+01 -5.431358513649e+00 0.0 
2.801367161747e+01 -1.820907270221e+01 0.0 
2.884507806914e+01 -1.762032095326e+01 0.0 
1.821474531936e+00 -1.588901260460e+01 0.0 
1.821006262604e+00 -1.489370287756e+01 0.0 
4.599962488908e+01 -1.176478780598e+01 0.0 
4.705457470007e+01 -1.172182804229e+01 0.0 
4.667668314802e+01 -1.263464558483e+01 0.0 
4.759648056504e+01 -1.252380987933e+01 0.0 
4.728041618103e+01 -1.341928568376e+01 0.0 
4.825209352360e+01 -1.330491640804e+01 0.0 
4.778118233428e+01 -1.420151961695e+01 0.0 
2.388192727579e+01 -1.826934810142e+01 0.0 
2.381714684947e+01 -4.385917965223e+00 0.0 
3.172733219247e+01 -9.758744265248e+00 0.0 
1.882012070658e+01 -1.805540597212e+01 0.0 
1.805667505243e+01 -1.742221226236e+01 0.0 
2.852599958080e+01 -8.597196079481e+00 0.0 
2.856486123437e+01 -7.661382718527e+00 0.0 
1.111792842875e+01 -1.818223852980e+01 0.0 
2.203322722466e+01 -7.986646678802e+00 0.0 
3.955703676900e+01 -1.903246763601e+01 0.0 
1.944842206513e+01 -8.038750575182e-01 0.0 
1.909882767783e+01 -1.746322740933e+00 0.0 
2.281147422941e+01 -8.525912918334e+00 0.0 
2.850633001468e+01 -9.533271335986e+00 0.0 
2.532883344309e+01 -7.308951659710e+00 0.0 
2.620475466461e+01 -6.979208585400e+00 0.0 
1.396278270396e+01 -1.475095389807e+01 0.0 
9.791001166724e+00 -2.554159793552e+00 0.0 
2.229293380421e+01 -4.269762271052e+00 0.0 
4.677238984118e+01 -1.430071795514e+01 0.0 
2.228658385918e+01 -3.344747535984e+00 0.0 
8.940223674553e-01 -1.543595733415e+01 0.0 
2.118566862474e+01 -8.435876987696e+00 0.0 
2.678325936437e+01 -1.032621195706e+01 0.0 
2.223400220487e+01 -5.179046761770e+00 0.0 
2.375370625384e+01 -7.251580562134e+00 0.0 
3.156971327386e+01 -1.255534750737e+01 0.0 
3.328226391312e+01 -1.172914813316e+01 0.0 
3.250948774219e+01 -1.120157009348e+01 0.0 
2.032993445717e+01 -8.867880112202e+00 0.0 
2.697226974856e+01 -7.536633082045e+00 0.0 
2.707377810386e+01 -6.590835263295e+00 0.0 
2.914099246827e+01 -1.191678458549e+01 0.0 
3.544824072239e+01 -1.621126558525e+01 0.0 
3.456511855436e+01 -1.665054783843e+01 0.0 
3.448395810225e+01 -1.759117813016e+01 0.0 
3.368378673938e+01 -1.708037781328e+01 0.0 
3.375560452567e+01 -1.610973066913e+01 0.0 
3.288001547988e+01 -1.654324255651e+01 0.0 
3.282475929147e+01 -1.749725654692e+01 0.0 
3.199880906313e+01 -1.697294088625e+01 0.0 
3.197001272932e+01 -1.811667776864e+01 0.0 
3.111884713021e+01 -1.742166785755e+01 0.0 
3.120418962865e+01 -1.642155709385e+01 0.0 
3.034666704371e+01 -1.683123833816e+01 0.0 
3.026224379976e+01 -1.772592851714e+01 0.0 
3.046632362943e+01 -1.582232843075e+01 0.0 
1.961344017324e+01 -1.857459447985e+01 0.0 
2.274975894774e+01 -9.532738811922e+00 0.0 
1.833923246887e+01 -2.396746883672e+00 0.0 
1.988859500848e+01 -2.249244376594e+00 0.0 
2.758045562861e+01 -1.086434261689e+01 0.0 
3.247300178163e+01 -1.909930104252e+01 0.0 
3.461947482503e+01 -1.911879848019e+01 0.0 
2.047161538662e+01 -6.941478180358e+00 0.0 
2.750230940214e+01 -1.915490590764e+01 0.0 
3.165081350803e+01 -1.161860780120e+01 0.0 
1.897456727641e+01 -4.889634688522e+00 0.0 
2.549338539756e+01 -1.914858252089e+01 0.0 
3.462873135081e+01 -1.567482276144e+01 0.0 
3.384432415243e+01 -1.512280684518e+01 0.0 
3.471433767690e+01 -1.469086942990e+01 0.0 
3.651470373046e+01 -1.918207952149e+01 0.0 
3.901742690249e+01 -1.345028556517e+01 0.0 
2.153224102692e+01 -1.920169709333e+01 0.0 
1.918382939341e+01 -1.316226275662e+01 0.0 
2.005389162382e+01 -1.271962165174e+01 0.0 
2.011472087878e+01 -1.175029352900e+01 0.0 
3.210679478412e+01 -1.598038618242e+01 0.0 
1.752175226543e+01 -1.914713022656e+01 0.0 
1.696897240059e+01 -1.832772588765e+01 0.0 
1.599682523337e+01 -1.832599992024e+01 0.0 
1.644507199462e+01 -1.743697981535e+01 0.0 
1.549987712903e+01 -1.915192375101e+01 0.0 
3.050250861901e+01 -1.918943550234e+01 0.0 
2.949944061527e+01 -1.922950455235e+01 0.0 
1.375892575273e+01 -6.447160534926e+00 0.0 
1.457223670180e+01 -7.006709243857e+00 0.0 
1.450818793236e+01 -7.965943451779e+00 0.0 
1.538804712402e+01 -7.553409623699e+00 0.0 
1.545817644768e+01 -6.580929593419e+00 0.0 
1.626506893751e+01 -7.129032608911e+00 0.0 
1.619833811522e+01 -8.086588580887e+00 0.0 
1.714448609609e+01 -6.697429609777e+00 0.0 
2.887616543568e+01 -1.668015232137e+01 0.0 
1.349814589130e+01 -1.918225301544e+01 0.0 
1.153887772210e+01 -1.311384581217e+01 0.0 
1.242708159886e+01 -1.267046795531e+01 0.0 
1.249799674267e+01 -1.169005616014e+01 0.0 
6.631723893693e+00 -9.774184881867e+00 0.0 
7.451471631867e+00 -1.033148796006e+01 0.0 
7.377795355458e+00 -1.132196345268e+01 0.0 
5.810931797536e+00 -9.211654212252e+00 0.0 
2.402683899133e+01 -1.441378562320e+01 0.0 
1.249768692036e+01 -1.917388426624e+01 0.0 
1.580373499437e+01 -1.290751860664e+01 0.0 
8.344650507834e+00 -9.898403995170e+00 0.0 
3.750622115305e+01 -1.086526401533e+01 0.0 
3.699391251667e+01 -1.171695900794e+01 0.0 
3.606517829518e+01 -1.173717504500e+01 0.0 
3.650257641795e+01 -1.270047380221e+01 0.0 
3.808951488918e+01 -1.183518714175e+01 0.0 
4.760380962420e+00 -1.162484888315e+01 0.0 
3.861210370848e+00 -1.205657631736e+01 0.0 
3.038284309476e+00 -1.149851280664e+01 0.0 
2.961598794889e+00 -1.248856794980e+01 0.0 
2.138953225512e+00 -1.193212674534e+01 0.0 
2.227383593457e+00 -1.096258903918e+01 0.0 
2.043265419276e+00 -1.292158472959e+01 0.0 
1.252449446028e+00 -1.225502002753e+01 0.0 
3.949985210740e+01 -1.086594001795e+01 0.0 
1.453499444792e+01 -8.768805922472e-01 0.0 
1.403518950933e+01 -1.749965556633e+00 0.0 
1.300715031023e+01 -1.714737233040e+00 0.0 
1.350929389899e+01 -2.527443911291e+00 0.0 
1.449600910711e+01 -2.595486162864e+00 0.0 
1.395693872901e+01 -3.484211041558e+00 0.0 
1.495105865208e+01 -3.364609636216e+00 0.0 
1.508822528740e+01 -1.766586020494e+00 0.0 
1.250223858430e+01 -8.634590186802e-01 0.0 
1.200279523409e+01 -1.709044504992e+00 0.0 
1.150086239419e+01 -8.592789190668e-01 0.0 
1.101482754194e+01 -1.677730591922e+00 0.0 
1.148018564526e+01 -2.659323866909e+00 0.0 
8.800552119754e+00 -3.989875954728e+00 0.0 
3.452790439430e+00 -1.901136170646e+01 0.0 
8.658451825200e-01 -9.503462241795e+00 0.0 
1.694787786797e+00 -9.000589234502e+00 0.0 
1.703436717094e+00 -8.038819004041e+00 0.0 
2.594197971110e+00 -8.563955242845e+00 0.0 
1.630513735412e+00 -9.907244747511e+00 0.0 
8.566859292791e-01 -7.512203837972e+00 0.0 
1.685461277022e+00 -7.164280248030e+00 0.0 
2.506394468801e+00 -8.623386730818e-01 0.0 
2.007475081581e+00 -1.727729545205e+00 0.0 
9.211534699767e-01 -1.628791366312e+00 0.0 
1.500000000020e+00 -2.598063549486e+00 0.0 
2.482078929963e+00 -2.553580088725e+00 0.0 
2.999795253092e+00 -1.732169015019e+00 0.0 
3.999712607169e+00 -1.728832897453e+00 0.0 
4.499752199340e+00 -8.656478679175e-01 0.0 
4.964377774841e+00 -1.730129617941e+00 0.0 
4.425017908337e+00 -2.597541756243e+00 0.0 
5.446573195014e+00 -8.410144840023e-01 0.0 
4.915722346614e+01 -1.550640962770e+01 0.0 
4.826794919243e+01 -1.600000000000e+01 0.0 
1.053139533193e+01 -1.911782884365e+01 0.0 
4.156049861949e+01 -1.095160998589e+01 0.0 
9.494526624416e+00 -8.650570090219e-01 0.0 
4.555762166964e+01 -1.897098103585e+01 0.0 
4.250656411371e+01 -1.914387356218e+01 0.0 
4.350906466345e+01 -1.917234727395e+01 0.0 
8.759665722424e-01 -1.746422130609e+01 0.0 
1.698936011838e+00 -1.795012186674e+01 0.0 
4.742476811029e+01 -1.900090177972e+01 0.0 
7.749196752349e+00 -6.368049313489e+00 0.0 
3.361572113416e+01 -1.798765193915e+01 0.0 
4.484660149212e+01 -1.728661231383e+01 0.0 
1.984038172228e+01 -4.502575320116e+00 0.0 
1.035080352627e+01 -6.166639575753e+00 0.0 
2.753558010652e+00 -1.444909521181e+01 0.0 
7.217069543032e+00 -1.328635391078e+01 0.0 
4.364336727739e+00 -1.655585677381e+01 0.0 
4.595208426108e+00 -1.357919665443e+01 0.0 
6.164967006980e+00 -1.569873454630e+01 0.0 
1.487855768353e+01 -1.826523774028e+01 0.0 
2.791876456372e+00 -4.019632415181e+00 0.0 
4.246464893515e+01 -1.364898659620e+01 0.0 
4.503855590351e+01 -1.329552780944e+01 0.0 
4.407239109604e+01 -1.573900004093e+01 0.0 
5.141054449252e+00 -6.664290382472e+00 0.0 
3.141083947149e+00 -1.055790764912e+01 0.0 
6.196463198741e+00 -4.256497932609e+00 0.0 
2.599618716181e+01 -1.836893455464e+01 0.0 
2.923057372337e+01 -1.098461757645e+01 0.0 
1.168343877486e+01 -1.114079645041e+01 0.0 
6.706222096238e+00 -8.780364234441e+00 0.0 
8.567858614669e+00 -6.943121440850e+00 0.0 
1.123755132901e+01 -5.753525820030e+00 0.0 
2.353456234423e+01 -1.008536320953e+01 0.0 
9.162073319168e+00 -1.045593739109e+01 0.0 
9.676343469685e+00 -1.496493008366e+01 0.0 
4.490637882905e+01 -1.628778970202e+01 0.0 
7.398129387772e+00 -9.639977982323e-01 0.0 
1.049641705805e+01 -1.552503975272e+01 0.0 
9.010356286268e+00 -1.242805042052e+01 0.0 
3.985573925497e+01 -1.399863651620e+01 0.0 
1.816196318262e+01 -1.554066497931e+01 0.0 
1.306332244168e+01 -3.963646550326e+00 0.0 
4.145850903932e+01 -1.608094559275e+01 0.0 
3.794664933633e+01 -1.779020121986e+01 0.0 
3.819614412903e+01 -1.290749321016e+01 0.0 
6.270014188119e+00 -3.255093186826e+00 0.0 
4.251165370388e+01 -1.263870364997e+01 0.0 
1.207347709171e+01 -1.763942826023e+01 0.0 
3.633240829927e+01 -1.577330481104e+01 0.0 
4.319052668832e+00 -6.101812561904e+00 0.0 
1.676492415806e+01 -1.151547901392e+01 0.0 
2.594059220037e+01 -1.074225223009e+01 0.0 
3.340750911501e+01 -9.898764354137e+00 0.0 
4.397619591281e+01 -1.769773736461e+01 0.0 
2.175611595028e+01 -1.185718747128e+01 0.0 
1.641818733106e+01 -1.640685203215e+01 0.0 
1.661211421753e+01 -1.346121366338e+01 0.0 
3.428853504935e+00 -6.551993389271e+00 0.0 
8.700728832502e+00 -1.638460872825e+01 0.0 
1.931369795309e+01 -1.121629383702e+01 0.0 
4.139798872363e+01 -1.706922153459e+01 0.0 
2.647837478700e+01 -1.507353829290e+01 0.0 
1.779469616424e+01 -9.161615782908e+00 0.0 
3.885879219319e+01 -1.642026488918e+01 0.0 
1.338194936770e+01 -1.125916521471e+01 0.0 
1.897071181111e+01 -1.609204322578e+01 0.0 
2.844308548793e+01 -1.046221003096e+01 0.0 
2.659854702194e+01 -1.316109415760e+01 0.0 
2.979604503271e+01 -1.433296157755e+01 0.0 
2.417694041347e+01 -1.251231397779e+01 0.0 
1.807401327411e+00 -1.388891148480e+01 0.0 
9.599810618782e+00 -1.595439365034e+01 0.0 
1.652144692160e+01 -4.205392788472e+00 0.0 
2.367839450246e+01 -8.188385218643e+00 0.0 
3.814894930468e+01 -1.390748338767e+01 0.0 
2.466448215774e+01 -1.685878545680e+01 0.0 
4.134044524611e+01 -1.806610045954e+01 0.0 
2.600511411958e+01 -9.801774120648e+00 0.0 
7.882158050716e+00 -1.582364037353e+01 0.0 
3.881607873422e+01 -1.737970515013e+01 0.0 
8.270182347708e+00 -1.088622154920e+01 0.0 
8.672520392520e-01 -4.532984309881e+00 0.0 
1.993447205337e+01 -3.579061902667e+00 0.0 
1.794616079549e+01 -7.238038888498e+00 0.0 
2.097277068165e+01 -1.132450168636e+01 0.0 
8.194803300681e+00 -1.187214224265e+01 0.0 
3.522279404911e+01 -1.823342818178e+01 0.0 
6.984481050295e+00 -1.625271465557e+01 0.0 
1.309433007797e+01 -1.521718594215e+01 0.0 
2.150246167611e+01 -1.885399038185e+00 0.0 
3.250689370209e+01 -1.028789870535e+01 0.0 
6.085886272238e+00 -1.668342132851e+01 0.0 
1.588455661727e+01 -1.193498985921e+01 0.0 
1.809323400821e+01 -1.651110084195e+01 0.0 
1.348885082381e+00 -1.136065576512e+01 0.0 
2.497670221995e+01 -1.834631276173e+01 0.0 
2.937062818424e+01 -8.233711194470e+00 0.0 
5.185823744469e+00 -1.711566910207e+01 0.0 
1.477497877209e+01 -1.530177014512e+01 0.0 
2.125346158933e+01 -7.473003997367e+00 0.0 
4.751561118290e+01 -1.084897772632e+01 0.0 
5.056026576843e+00 -1.825750475525e+01 0.0 
1.473948554523e+01 -1.634577436309e+01 0.0 
2.410566630936e+01 -1.345970002612e+01 0.0 
1.507337507513e+01 -1.138527895328e+01 0.0 
3.189857338687e+01 -8.887781229006e+00 0.0 
7.298712468334e+00 -1.230231046246e+01 0.0 
2.738235495295e+01 -1.368931690364e+01 0.0 
3.750141041969e+01 -1.920449893070e+01 0.0 
1.557271965640e+01 -1.683317951731e+01 0.0 
3.393731848929e+01 -1.413034777044e+01 0.0 
6.482156824153e+00 -1.174575135362e+01 0.0 
2.077971718439e+01 -1.421279621836e+01 0.0 
3.455084320178e+00 -2.562590040585e+00 0.0 
3.099056096250e+01 -9.270280416035e+00 0.0 
5.580176125418e+00 -1.217387969259e+01 0.0 
1.707247630389e+01 -7.660651981710e+00 0.0 
1.418658814174e+01 -1.180390575393e+01 0.0 
2.049103025389e+01 -1.811296706038e+01 0.0 
4.680386172316e+00 -1.260396879301e+01 0.0 
1.699679896554e+01 -8.624561788199e+00 0.0 
3.779470168555e+00 -1.303424899720e+01 0.0 
3.036589870126e+01 -7.879832518349e+00 0.0 
3.306993001774e+01 -1.457671062095e+01 0.0 
2.840150110165e+00 -1.346530088269e+01 0.0 
2.732011135052e+01 -1.464591214560e+01 0.0 
5.423639259568e+00 -2.659711955016e+00 0.0 
2.324455961696e+01 -1.387269388211e+01 0.0 
1.752768355571e+00 -1.693128613594e+01 0.0 
1.020244783051e+01 -8.076834012808e+00 0.0 
1.330873875224e+01 -1.222417528206e+01 0.0 
3.297727364880e+01 -1.555480372087e+01 0.0 
2.890929955439e+01 -6.868664170731e+00 0.0 
1.323294664622e+01 -1.320754260334e+01 0.0 
2.726532861246e+01 -1.560593120806e+01 0.0 
2.240020643398e+01 -1.429299177247e+01 0.0 
2.090445823633e+01 -1.228128621332e+01 0.0 
1.315809881502e+01 -1.420739326938e+01 0.0 
2.781328038068e+01 -7.181956082300e+00 0.0 
8.614200829057e+00 -5.936933226306e+00 0.0 
8.714765730069e+00 -4.979270529687e+00 0.0 
1.611881701099e+01 -9.041973294003e+00 0.0 
2.806830314340e+01 -1.614622947108e+01 0.0 
2.084435391396e+00 -3.385085422913e+00 0.0 
3.133211811152e+01 -1.542347619750e+01 0.0 
9.693114650768e+00 -3.590281506442e+00 0.0 
1.531883592202e+01 -8.504584946143e+00 0.0 
2.151589117094e+01 -1.578915763018e+01 0.0 
4.918943882696e+01 -1.355538828056e+01 0.0 
1.443236615188e+01 -8.918701794549e+00 0.0 
8.276250966452e-01 -5.537685192197e+00 0.0 
1.362790867918e+01 -8.374718262212e+00 0.0 
2.083767477370e+01 -1.324843956035e+01 0.0 
1.273834678703e+01 -8.790890389337e+00 0.0 
1.192275845670e+01 -8.242261327467e+00 0.0 
4.477236023583e+01 -1.824312396664e+01 0.0 
1.102989384254e+01 -8.649855800911e+00 0.0 
4.849096516045e+01 -1.917293752213e+01 0.0 
1.588996752238e+00 -1.910230934687e+01 0.0 
4.904245197583e+01 -1.159839008158e+01 0.0 
2.753852929608e+01 -5.782128488093e+00 0.0 
1.756133602833e+01 -8.306130313187e-01 0.0 
2.615423700951e+01 -6.153865090092e+00 0.0 
1.028818761294e+01 -7.122020845892e+00 0.0 
2.970818901196e+01 -1.527821347593e+01 0.0 
4.801461623449e+01 -1.164472570985e+01 0.0 
9.455722100419e+00 -6.546069291118e+00 0.0 
3.089099236677e+01 -1.835339328261e+01 0.0 
2.350000000013e+01 -1.920825896750e+01 0.0 
4.830620531887e+01 -1.506626155470e+01 0.0 
1.725381944701e+01 -1.688794487850e+01 0.0 
2.156246225273e+01 -1.475893794002e+01 0.0 
4.919319648787e+01 -1.742767505896e+01 0.0 
4.437935623576e+01 -1.077662927266e+01 0.0 
1.001520521978e+01 -1.652692675208e+00 0.0 
9.067160240050e-01 -1.441937727541e+01 0.0 
2.603365149390e+01 -4.755996613848e+00 0.0 
2.458344439002e+01 -4.873645517696e+00 0.0 
2.304312390142e+01 -3.836552768096e+00 0.0 
2.546923202198e+00 -6.902480355749e+00 0.0 
1.251534969393e+01 -2.490989965776e+00 0.0 
2.454061833377e+01 -3.933354231935e+00 0.0 
1.788186558740e+01 -1.827424884923e+01 0.0 
4.090785243552e+01 -1.166553231904e+01 0.0 
2.230128851568e+01 -1.623015738726e+01 0.0 
2.302362347568e+01 -2.916239960270e+00 0.0 
3.878119254461e+01 -1.830091164002e+01 0.0 
2.210081359958e+01 -1.829238229150e+01 0.0 
8.443704882233e+00 -1.921993252862e+01 0.0 
2.218405824691e+01 -1.724557581508e+01 0.0 
2.151157503963e+01 -2.790636689331e+00 0.0 
3.741658958955e+01 -1.250400191722e+01 0.0 
2.697247663737e+01 -1.838290202309e+01 0.0 
4.743362342862e+01 -1.585850773010e+01 0.0 
6.671345075358e+00 -1.924977576322e+01 0.0 
3.900825404537e+01 -1.157220003875e+01 0.0 
4.649692961375e+01 -1.836335837481e+01 0.0 
1.578831424832e+01 -3.678284023361e+00 0.0 
4.814208768888e+01 -1.841249298770e+01 0.0 
2.964123298315e+01 -1.625739458193e+01 0.0 
4.580760351902e+01 -1.284294554687e+01 0.0 
3.561520879615e+01 -1.245548941949e+01 0.0 
2.555418095658e+00 -1.841101588290e+01 0.0 
3.288468366144e+01 -1.834258164109e+01 0.0 
2.065894391445e+01 -2.240688571739e+00 0.0 
4.739171429915e+01 -1.496536413446e+01 0.0 
3.478086729185e+00 -8.576434653209e+00 0.0 
1.606010630246e+01 -1.588421807951e+00 0.0 
1.018329200594e+01 -1.834320874317e+01 0.0 
2.957213339430e+01 -1.720496954591e+01 0.0 
4.142712790164e+00 -1.837794506222e+01 0.0 
6.698721532573e-01 -2.499999999997e+00 0.0 
8.037039123140e+00 -1.571229354954e+00 0.0 
1.203541361428e+01 -1.847784298001e+01 0.0 
2.899968332038e+01 -1.848264722179e+01 0.0 
1.469229460948e+01 -4.219485753730e+00 0.0 
4.049590781957e+01 -1.932812501995e+01 0.0 
1.996211678340e+01 -1.506329754720e+00 0.0 
4.250588298353e+01 -1.067383247529e+01 0.0 
5.831497011152e+00 -1.635396227234e+00 0.0 
5.317606125670e+00 -1.923927974868e+01 0.0 
4.208546426993e+01 -1.842830665025e+01 0.0 
2.327553405011e+00 -9.459409929662e+00 0.0 
3.568351902251e+01 -1.096637218582e+01 0.0 
1.682104374890e+00 -6.231413350963e+00 0.0 
2.451812238018e+01 -1.766524914339e+01 0.0 
1.058003429638e+01 -2.391839617098e+00 0.0 
4.399988753123e+01 -1.851998776342e+01 0.0 
1.400000000010e+01 -1.852293523028e+01 0.0 
3.604719565984e+01 -1.850662876800e+01 0.0 
1.951297136734e+01 -1.938092349694e+01 0.0 
1.821365318472e+01 -1.531276353287e+00 0.0 
2.298031859732e+01 -1.854635324722e+01 0.0 
1.552168066204e+01 -1.764280741977e+01 0.0 
4.572957713638e+01 -1.073347898229e+01 0.0 
3.429637429624e+01 -1.838861552790e+01 0.0 
2.427434426052e+00 -7.705577451869e+00 0.0 
4.662792031485e+00 -3.359424455416e+00 0.0 
4.926794919243e+01 -1.926794919243e+01 0.0 
7.320508075690e-01 -7.320508075688e-01 0.0 
4.926794919243e+01 -1.073205080757e+01 0.0 
7.320508075705e-01 -1.926794919243e+01 0.0 
2.917460242467e+00 -3.202866455310e+00 0.0 
4.838200575963e+01 -1.232674147454e+01 0.0 
2.998445708009e+01 -1.854403752148e+01 0.0 
5.949940090766e-01 -1.152762038165e+01 0.0 
4.844763495759e+01 -1.678092548787e+01 0.0 
1.301685480160e+01 -3.170056592566e+00 0.0 
1.650046335855e+01 -6.731535384067e-01 0.0 
4.854881540991e+01 -1.405224059779e+01 0.0 
2.119545114693e+01 -1.846813384545e+01 0.0 
3.797852849897e+01 -1.857978513215e+01 0.0 
4.649823708745e+01 -1.338351810816e+01 0.0 
2.012685900976e+01 -2.889659035009e+00 0.0 
2.953271913273e+01 -1.791558075192e+01 0.0 
2.408509097292e+00 -1.021949208421e+01 0.0 
2.642589566221e+01 -1.773216561448e+01 0.0 
1.730010270775e+01 -1.763165076721e+01 0.0 
2.017406551304e+01 -8.513536440582e-01 0.0 
5.254761581934e-01 -1.249999999999e+01 0.0 
6.640448215642e+00 -1.545337834885e+00 0.0 
7.843361506349e+00 -1.852719839527e+01 0.0 
1.588442191088e+00 -1.066158564320e+01 0.0 
2.431250000000e+01 -2.420918367347e+00 0.0 
4.950961538461e+01 -2.500000000000e+00 0.0 
2.580823483239e+01 -3.416278049680e+00 0.0 
4.950961538461e+01 -3.500000000000e+00 0.0 
2.731250000000e+01 -4.420918367347e+00 0.0 
4.951086956522e+01 -4.500000000000e+00 0.0 
2.880770112393e+01 -5.415638864241e+00 0.0 
4.951086956522e+01 -5.500000000000e+00 0.0 
3.031250000000e+01 -6.420918367347e+00 0.0 
4.951250000000e+01 -6.500000000000e+00 0.0 
3.180701530612e+01 -7.414795918363e+00 0.0 
4.951250000000e+01 -7.500000000000e+00 0.0 
3.331250000000e+01 -8.420918367347e+00 0.0 
4.951470588234e+01 -8.500000000000e+00 0.0 
3.480610198624e+01 -9.413633635267e+00 0.0 
4.951470588234e+01 -9.500000000000e+00 0.0 

CELLS 2299 9196 
3 355 825 1101 
3 825 355 1103 
3 835 328 846 
3 948 713 1137 
3 715 775 941 
3 805 718 844 
3 335 757 759 
3 355 782 1103 
3 757 335 775 
3 708 943 1137 
3 327 902 903 
3 782 355 1117 
3 947 1099 1143 
3 764 895 985 
3 1099 361 1143 
3 354 948 1137 
3 763 334 904 
3 718 805 843 
3 342 762 1084 
3 762 342 1022 
3 943 708 1096 
3 1073 319 1079 
3 800 1073 1079 
3 750 749 959 
3 449 605 894 
3 902 327 1011 
3 113 82 1164 
3 794 320 1036 
3 447 449 894 
3 959 749 1169 
3 699 909 911 
3 352 765 942 
3 835 846 1144 
3 19 340 815 
3 350 769 771 
3 778 66 1135 
3 66 778 1161 
3 797 346 841 
3 761 104 1114 
3 104 761 1175 
3 1037 779 1063 
3 315 801 940 
3 1118 316 1122 
3 82 364 1164 
3 756 363 1113 
3 795 1118 1122 
3 909 699 912 
3 363 756 1139 
3 905 906 912 
3 895 764 1136 
3 357 800 1037 
3 747 762 1022 
3 525 1138 1156 
3 357 1037 1063 
3 847 329 1027 
3 1120 692 1165 
3 747 1022 1091 
3 340 785 815 
3 608 936 1054 
3 943 354 1137 
3 314 1148 1189 
3 1128 754 1130 
3 574 602 808 
3 1138 911 1156 
3 919 738 1143 
3 800 357 1073 
3 1148 758 1189 
3 328 835 1108 
3 635 596 917 
3 324 783 849 
3 1011 954 1065 
3 33 32 803 
3 794 1036 1166 
3 4 5 929 
3 926 1120 1165 
3 766 331 1017 
3 847 1027 1176 
3 814 1119 1126 
3 936 608 1178 
3 1119 356 1126 
3 596 609 917 
3 334 763 1124 
3 319 825 1079 
3 825 319 1101 
3 775 715 987 
3 757 775 987 
3 786 1011 1116 
3 18 19 815 
3 840 837 1085 
3 715 941 1124 
3 942 765 1115 
3 366 893 1164 
3 939 1110 1134 
3 1134 1110 1146 
3 332 33 803 
3 841 346 1171 
3 763 904 1136 
3 940 801 1149 
3 360 792 1089 
3 808 602 809 
3 941 775 1159 
3 361 919 1143 
3 522 1088 1112 
3 753 1128 1130 
3 643 641 819 
3 906 909 912 
3 946 947 1069 
3 712 939 1134 
3 314 905 912 
3 1042 337 1161 
3 487 840 1085 
3 4 929 1180 
3 710 806 842 
3 677 993 1031 
3 721 923 1147 
3 781 808 809 
3 576 574 808 
3 350 771 1129 
3 792 360 1184 
3 780 576 808 
3 811 741 1086 
3 364 366 1164 
3 939 712 1187 
3 576 780 819 
3 1131 1030 1145 
3 796 1046 1055 
3 923 721 1177 
3 1046 321 1055 
3 331 766 1157 
3 743 1131 1145 
3 902 1011 1065 
3 713 948 1139 
3 650 707 807 
3 321 779 1055 
3 769 350 1149 
3 947 704 1099 
3 786 954 1011 
3 807 707 1007 
3 751 879 1169 
3 683 799 807 
3 733 944 945 
3 783 324 1155 
3 985 895 1132 
3 592 564 813 
3 799 650 807 
3 779 321 1063 
3 707 845 1007 
3 819 645 1014 
3 335 759 1114 
3 806 441 842 
3 765 352 1153 
3 1100 1106 1184 
3 930 342 1084 
3 358 796 1031 
3 879 751 888 
3 780 643 819 
3 815 786 1116 
3 782 316 1118 
3 1088 748 1112 
3 341 787 788 
3 802 441 806 
3 785 340 1069 
3 635 811 1086 
3 947 706 1069 
3 822 695 850 
3 337 1042 1151 
3 1100 705 1106 
3 641 645 819 
3 993 358 1031 
3 327 903 1200 
3 316 782 1117 
3 441 802 816 
3 564 615 813 
3 787 341 1175 
3 645 806 1014 
3 796 358 1046 
3 689 878 1083 
3 923 624 1147 
3 320 794 1109 
3 849 783 1133 
3 781 809 1103 
3 624 923 1163 
3 866 996 1050 
3 799 683 1037 
3 782 781 1103 
3 822 677 1031 
3 806 710 1014 
3 330 943 1096 
3 453 862 1072 
3 340 946 1069 
3 795 356 1119 
3 651 816 1040 
3 837 862 1085 
3 81 114 804 
3 683 779 1037 
3 1039 711 1043 
3 935 1067 1160 
3 950 343 1176 
3 448 373 855 
3 1070 429 1097 
3 559 1039 1043 
3 893 366 1142 
3 894 605 1132 
3 749 751 1169 
3 1080 971 1107 
3 817 388 845 
3 647 537 850 
3 454 448 855 
3 644 822 850 
3 695 822 1031 
3 593 1053 1093 
3 878 727 1083 
3 804 338 805 
3 809 825 1103 
3 809 602 824 
3 707 817 845 
3 862 832 1072 
3 718 717 1023 
3 711 810 1029 
3 761 787 1175 
3 816 802 1040 
3 507 1029 1078 
3 767 977 1201 
3 853 454 855 
3 977 323 1201 
3 935 936 1067 
3 356 795 1122 
3 1080 723 1081 
3 827 454 853 
3 723 722 1081 
3 703 812 818 
3 529 910 982 
3 741 918 1086 
3 996 559 1050 
3 695 647 850 
3 738 919 1151 
3 114 338 804 
3 612 642 818 
3 402 441 816 
3 800 799 1037 
3 810 711 1039 
3 778 1042 1161 
3 1064 453 1072 
3 511 493 848 
3 559 1043 1050 
3 1011 327 1116 
3 845 455 1007 
3 854 855 1051 
3 754 1128 1173 
3 402 816 823 
3 642 703 818 
3 372 644 820 
3 803 32 1157 
3 388 817 992 
3 861 404 1000 
3 788 787 789 
3 917 609 1121 
3 644 821 822 
3 611 511 848 
3 717 851 952 
3 699 911 1138 
3 454 827 989 
3 537 820 850 
3 576 819 1014 
3 827 666 989 
3 862 453 1085 
3 455 826 968 
3 322 776 1135 
3 652 861 1000 
3 380 646 826 
3 710 842 973 
3 652 860 861 
3 494 510 851 
3 892 333 893 
3 406 403 823 
3 523 874 875 
3 854 1064 1072 
3 114 115 338 
3 644 370 821 
3 493 491 848 
3 567 612 818 
3 496 494 851 
3 375 372 820 
3 765 811 1115 
3 603 693 824 
3 652 859 860 
3 820 644 850 
3 892 893 894 
3 613 718 843 
3 523 875 877 
3 524 527 874 
3 809 824 825 
3 854 1051 1064 
3 602 603 824 
3 489 406 823 
3 816 651 823 
3 613 717 718 
3 842 398 973 
3 742 812 814 
3 37 329 847 
3 39 343 846 
3 389 388 992 
3 510 493 511 
3 566 567 625 
3 381 380 826 
3 510 511 566 
3 523 524 874 
3 455 968 1007 
3 944 733 1162 
3 848 651 1040 
3 1053 709 1093 
3 742 625 812 
3 347 57 867 
3 566 511 567 
3 386 455 845 
3 613 517 717 
3 889 582 997 
3 403 402 823 
3 527 871 874 
3 646 537 647 
3 42 868 869 
3 491 489 651 
3 652 480 859 
3 626 625 742 
3 857 542 980 
3 1029 810 1078 
3 642 643 701 
3 716 857 980 
3 345 45 849 
3 619 711 1029 
3 41 328 868 
3 985 605 1015 
3 840 487 1105 
3 703 701 795 
3 648 647 680 
3 380 537 646 
3 380 378 537 
3 456 992 1018 
3 320 47 852 
3 447 894 1142 
3 821 677 822 
3 651 489 823 
3 722 918 1081 
3 680 695 796 
3 642 641 643 
3 341 788 1041 
3 527 870 871 
3 491 651 848 
3 831 853 854 
3 612 641 642 
3 646 647 648 
3 480 482 859 
3 655 882 969 
3 50 344 858 
3 683 681 779 
3 495 497 877 
3 736 1070 1097 
3 702 781 782 
3 701 643 702 
3 837 834 862 
3 386 384 455 
3 693 799 800 
3 648 680 681 
3 54 346 863 
3 346 797 1123 
3 834 832 862 
3 854 853 855 
3 882 422 969 
3 574 575 602 
3 494 493 510 
3 492 491 493 
3 388 386 845 
3 669 889 997 
3 437 883 884 
3 830 828 831 
3 497 523 877 
3 571 456 572 
3 826 646 968 
3 573 572 574 
3 328 40 846 
3 343 38 847 
3 343 950 1144 
3 655 881 882 
3 666 568 989 
3 642 701 703 
3 490 489 491 
3 717 517 851 
3 603 650 693 
3 891 892 895 
3 857 985 1015 
3 867 865 959 
3 838 837 840 
3 372 370 644 
3 379 378 380 
3 517 496 851 
3 914 916 917 
3 441 400 842 
3 394 392 456 
3 400 398 842 
3 311 1030 1131 
3 788 789 790 
3 918 722 1086 
3 567 611 612 
3 57 56 867 
3 501 503 593 
3 365 677 821 
3 342 930 1152 
3 992 817 1018 
3 402 400 441 
3 378 375 820 
3 324 43 869 
3 680 647 695 
3 384 381 826 
3 437 884 890 
3 828 827 853 
3 655 880 881 
3 44 324 849 
3 41 40 328 
3 37 36 329 
3 39 38 343 
3 377 375 378 
3 831 828 853 
3 836 834 837 
3 574 572 575 
3 602 575 603 
3 886 883 970 
3 830 831 832 
3 46 345 852 
3 745 666 827 
3 859 593 860 
3 745 827 828 
3 586 584 887 
3 394 456 571 
3 693 650 799 
3 566 625 626 
3 332 803 1127 
3 573 574 576 
3 967 686 1036 
3 883 437 970 
3 528 531 870 
3 347 867 959 
3 612 640 641 
3 42 41 868 
3 343 847 1176 
3 385 384 386 
3 914 915 916 
3 44 43 324 
3 312 863 864 
3 527 528 870 
3 482 501 859 
3 318 51 858 
3 122 313 915 
3 571 572 573 
3 383 381 384 
3 387 386 388 
3 455 384 826 
3 625 567 818 
3 46 45 345 
3 488 406 489 
3 614 613 843 
3 776 322 1202 
3 915 313 916 
3 682 681 683 
3 909 910 911 
3 796 695 1031 
3 312 55 863 
3 48 47 320 
3 537 378 820 
3 906 908 909 
3 755 614 843 
3 909 908 910 
3 999 697 1012 
3 891 333 892 
3 367 365 821 
3 50 49 344 
3 349 891 895 
3 329 36 856 
3 589 586 887 
3 716 764 857 
3 702 780 781 
3 501 593 859 
3 717 952 1023 
3 52 51 318 
3 40 39 846 
3 38 37 847 
3 655 463 880 
3 458 460 886 
3 394 571 973 
3 463 465 880 
3 54 53 346 
3 567 511 611 
3 874 873 875 
3 871 872 873 
3 606 716 980 
3 58 347 879 
3 906 907 908 
3 56 55 312 
3 870 735 871 
3 43 42 869 
3 836 837 838 
3 121 122 915 
3 571 710 973 
3 665 568 666 
3 45 44 849 
3 377 378 379 
3 632 589 633 
3 626 742 743 
3 865 864 866 
3 627 734 735 
3 871 735 872 
3 905 348 906 
3 47 46 852 
3 851 510 952 
3 619 667 711 
3 716 763 764 
3 953 685 972 
3 871 873 874 
3 379 380 381 
3 51 50 858 
3 460 562 886 
3 471 507 577 
3 391 389 392 
3 730 623 731 
3 875 873 876 
3 880 577 881 
3 392 389 992 
3 728 585 1002 
3 501 502 503 
3 393 392 394 
3 430 432 890 
3 612 611 640 
3 458 886 970 
3 633 589 887 
3 457 480 652 
3 56 312 867 
3 744 666 745 
3 628 953 972 
3 55 54 863 
3 312 864 865 
3 399 398 400 
3 906 348 907 
3 59 879 888 
3 829 828 830 
3 531 627 870 
3 58 57 347 
3 465 471 880 
3 603 649 650 
3 370 367 821 
3 457 652 1000 
3 461 655 969 
3 623 582 889 
3 855 373 1051 
3 682 807 1007 
3 503 521 522 
3 790 789 791 
3 432 437 890 
3 482 484 501 
3 627 684 734 
3 654 476 955 
3 120 121 913 
3 641 640 645 
3 627 735 870 
3 883 725 884 
3 397 395 398 
3 471 577 880 
3 606 714 716 
3 531 594 627 
3 59 58 879 
3 383 384 385 
3 653 724 725 
3 385 386 387 
3 653 725 883 
3 913 121 915 
3 369 367 370 
3 922 921 923 
3 323 127 937 
3 562 617 653 
3 471 506 507 
3 951 621 976 
3 731 889 1033 
3 731 623 889 
3 365 325 677 
3 349 111 891 
3 746 856 1049 
3 387 388 389 
3 127 128 937 
3 741 661 918 
3 907 913 914 
3 723 1080 1107 
3 639 689 1083 
3 719 951 976 
3 516 999 1012 
3 440 438 949 
3 478 476 654 
3 619 630 667 
3 536 517 613 
3 353 921 922 
3 326 925 926 
3 315 60 888 
3 60 59 888 
3 921 920 924 
3 653 617 724 
3 461 463 655 
3 667 749 750 
3 661 580 918 
3 514 599 619 
3 935 933 936 
3 562 653 886 
3 884 725 885 
3 339 932 933 
3 353 920 921 
3 665 666 744 
3 128 129 934 
3 112 333 891 
3 112 113 333 
3 582 486 997 
3 326 10 925 
3 627 594 684 
3 812 625 818 
3 772 770 773 
3 852 345 967 
3 656 550 983 
3 702 643 780 
3 765 741 811 
3 648 681 682 
3 108 334 941 
3 107 108 941 
3 128 934 937 
3 934 933 935 
3 928 930 931 
3 504 445 579 
3 339 927 932 
3 920 317 924 
3 314 118 905 
3 445 440 949 
3 793 791 813 
3 110 111 349 
3 689 784 878 
3 465 470 471 
3 790 791 792 
3 10 11 925 
3 928 931 932 
3 30 29 944 
3 331 30 944 
3 716 714 763 
3 334 109 904 
3 925 922 926 
3 28 330 945 
3 579 445 949 
3 111 112 891 
3 110 349 904 
3 680 796 1055 
3 36 35 856 
3 944 29 945 
3 339 933 934 
3 129 339 934 
3 740 661 741 
3 884 885 1021 
3 946 704 947 
3 117 118 314 
3 351 938 939 
3 119 348 905 
3 622 582 623 
3 119 120 348 
3 118 119 905 
3 729 623 730 
3 675 738 739 
3 792 791 793 
3 968 682 1007 
3 927 928 932 
3 477 478 957 
3 25 24 948 
3 354 25 948 
3 109 110 904 
3 558 486 582 
3 29 28 945 
3 632 633 748 
3 928 929 930 
3 927 362 928 
3 928 362 929 
3 11 12 353 
3 361 69 919 
3 80 79 363 
3 131 362 927 
3 13 317 920 
3 70 69 361 
3 68 337 919 
3 61 315 940 
3 76 336 938 
3 78 77 351 
3 69 68 919 
3 68 67 337 
3 351 77 938 
3 131 132 362 
3 105 106 335 
3 108 109 334 
3 339 130 927 
3 65 64 322 
3 350 62 940 
3 63 62 350 
3 130 131 927 
3 129 130 339 
3 61 60 315 
3 62 61 940 
3 76 75 336 
3 102 103 341 
3 77 76 938 
3 74 73 360 
3 100 101 705 
3 126 127 323 
3 124 125 352 
3 123 124 942 
3 122 123 313 
3 13 14 317 
3 12 13 920 
3 124 352 942 
3 16 17 327 
3 313 123 942 
3 34 33 332 
3 28 27 330 
3 31 30 331 
3 6 7 342 
3 9 10 326 
3 27 26 943 
3 19 20 340 
3 26 25 354 
3 20 21 946 
3 21 22 704 
3 353 12 920 
3 330 27 943 
3 26 354 943 
3 340 20 946 
3 21 704 946 
3 569 570 954 
3 348 120 913 
3 460 561 562 
3 934 935 937 
3 772 773 774 
3 653 883 886 
3 535 519 956 
3 504 579 580 
3 1067 768 1160 
3 675 739 956 
3 562 563 617 
3 353 922 925 
3 519 581 956 
3 712 713 756 
3 11 353 925 
3 507 506 514 
3 469 467 520 
3 569 518 570 
3 637 569 954 
3 488 489 490 
3 682 683 807 
3 398 395 973 
3 477 476 478 
3 581 674 675 
3 785 637 786 
3 628 722 723 
3 700 621 708 
3 616 565 621 
3 761 760 787 
3 475 473 476 
3 518 477 957 
3 712 700 713 
3 616 700 712 
3 520 467 979 
3 675 706 738 
3 578 550 656 
3 785 786 815 
3 776 774 777 
3 708 621 951 
3 555 553 556 
3 471 470 506 
3 515 597 598 
3 534 620 628 
3 740 741 765 
3 907 348 913 
3 616 621 700 
3 675 674 706 
3 914 913 915 
3 833 832 834 
3 759 659 760 
3 505 519 535 
3 581 637 674 
3 684 685 736 
3 674 637 785 
3 759 760 761 
3 501 484 502 
3 776 777 778 
3 747 629 762 
3 771 770 772 
3 564 556 565 
3 598 629 692 
3 628 723 953 
3 900 898 901 
3 552 554 658 
3 439 443 458 
3 615 565 616 
3 555 564 592 
3 724 617 896 
3 786 637 954 
3 581 569 637 
3 564 565 615 
3 557 509 595 
3 617 563 618 
3 590 676 752 
3 556 963 976 
3 562 561 563 
3 469 520 955 
3 769 697 770 
3 555 556 564 
3 698 614 755 
3 672 767 768 
3 498 496 517 
3 581 675 956 
3 554 553 555 
3 902 900 903 
3 658 659 757 
3 619 599 630 
3 896 618 897 
3 519 569 581 
3 598 597 629 
3 772 774 776 
3 617 618 896 
3 692 629 747 
3 618 563 965 
3 458 459 460 
3 444 440 445 
3 899 900 902 
3 126 323 977 
3 352 125 977 
3 570 518 957 
3 515 557 597 
3 475 476 477 
3 476 473 955 
3 432 436 437 
3 531 532 594 
3 578 656 657 
3 844 718 1194 
3 460 560 561 
3 667 630 749 
3 597 557 608 
3 658 554 659 
3 757 659 759 
3 660 580 661 
3 696 663 697 
3 549 547 550 
3 515 509 557 
3 732 656 1001 
3 657 656 732 
3 452 509 515 
3 781 780 808 
3 446 445 504 
3 519 518 569 
3 897 898 899 
3 745 828 829 
3 578 657 719 
3 505 477 518 
3 475 477 505 
3 504 580 660 
3 505 518 519 
3 549 550 551 
3 899 898 900 
3 552 553 554 
3 551 550 578 
3 404 405 1000 
3 963 719 976 
3 563 624 965 
3 897 618 898 
3 560 459 720 
3 434 431 435 
3 552 551 553 
3 426 428 461 
3 444 446 452 
3 672 661 740 
3 549 551 552 
3 444 445 446 
3 769 770 771 
3 556 553 963 
3 505 535 958 
3 312 865 867 
3 563 561 624 
3 452 446 509 
3 660 661 672 
3 474 473 475 
3 555 592 962 
3 672 740 767 
3 458 443 459 
3 762 629 960 
3 552 658 961 
3 460 459 560 
3 473 469 955 
3 560 720 721 
3 621 565 976 
3 443 440 444 
3 468 472 516 
3 628 620 722 
3 472 469 473 
3 901 898 965 
3 474 475 958 
3 875 876 1057 
3 629 597 960 
3 760 659 962 
3 622 623 729 
3 572 456 1018 
3 554 555 962 
3 534 628 972 
3 546 548 606 
3 597 608 960 
3 773 770 999 
3 558 582 622 
3 503 502 521 
3 657 732 733 
3 461 462 463 
3 595 509 966 
3 466 464 467 
3 696 697 769 
3 684 594 685 
3 475 505 958 
3 553 551 963 
3 528 530 531 
3 468 467 469 
3 714 607 715 
3 598 692 998 
3 439 440 443 
3 391 392 393 
3 472 473 474 
3 603 575 649 
3 393 394 395 
3 548 547 549 
3 659 554 962 
3 606 607 714 
3 898 618 965 
3 636 538 663 
3 463 464 465 
3 658 757 987 
3 835 834 836 
3 522 521 590 
3 468 469 472 
3 551 578 963 
3 432 434 436 
3 436 438 439 
3 504 660 966 
3 465 466 470 
3 439 458 970 
3 548 549 961 
3 606 548 607 
3 408 410 457 
3 949 438 971 
3 490 491 492 
3 439 438 440 
3 436 434 438 
3 446 504 966 
3 514 538 599 
3 427 425 429 
3 578 719 963 
3 423 425 426 
3 465 464 466 
3 461 428 462 
3 397 398 399 
3 509 446 966 
3 636 663 696 
3 636 696 801 
3 583 585 728 
3 432 431 434 
3 463 462 464 
3 549 552 961 
3 437 436 970 
3 571 573 710 
3 443 444 964 
3 594 532 972 
3 430 431 432 
3 444 452 964 
3 515 598 990 
3 462 428 662 
3 466 467 468 
3 601 638 639 
3 125 126 977 
3 419 417 420 
3 423 421 424 
3 430 429 431 
3 607 548 961 
3 426 427 428 
3 459 443 964 
3 427 429 430 
3 565 556 976 
3 720 459 964 
3 672 768 986 
3 966 660 986 
3 685 594 972 
3 434 435 971 
3 419 421 422 
3 426 425 427 
3 534 596 620 
3 595 966 986 
3 857 764 985 
3 964 452 990 
3 514 506 538 
3 587 600 601 
3 371 370 372 
3 610 544 631 
3 639 688 689 
3 405 408 1000 
3 585 587 1002 
3 532 533 534 
3 430 890 974 
3 401 400 402 
3 524 526 527 
3 596 533 609 
3 436 439 970 
3 423 424 425 
3 422 421 423 
3 720 964 990 
3 426 461 969 
3 419 420 421 
3 415 417 418 
3 438 434 971 
3 485 483 486 
3 546 547 548 
3 415 413 416 
3 599 538 636 
3 531 530 532 
3 749 630 751 
3 422 423 969 
3 689 783 784 
3 382 381 383 
3 532 534 972 
3 374 372 375 
3 664 568 665 
3 422 882 1005 
3 645 802 806 
3 376 375 377 
3 456 392 992 
3 534 533 596 
3 766 737 803 
3 620 596 635 
3 797 691 798 
3 951 719 994 
3 508 486 558 
3 961 658 987 
3 545 544 610 
3 418 417 419 
3 457 479 480 
3 694 631 737 
3 468 516 975 
3 543 545 546 
3 622 729 810 
3 532 530 533 
3 543 541 544 
3 852 967 1036 
3 636 801 988 
3 427 430 974 
3 607 961 987 
3 715 607 987 
3 423 426 969 
3 470 466 975 
3 506 470 978 
3 660 672 986 
3 492 493 494 
3 411 413 414 
3 415 416 417 
3 395 394 973 
3 694 737 766 
3 830 832 833 
3 719 657 994 
3 650 649 707 
3 540 512 568 
3 466 468 975 
3 732 1001 1017 
3 513 541 542 
3 428 427 974 
3 411 409 412 
3 543 544 545 
3 610 631 694 
3 550 547 983 
3 546 545 547 
3 697 663 1012 
3 690 604 691 
3 663 538 978 
3 467 464 979 
3 779 681 1055 
3 485 508 539 
3 450 448 454 
3 452 515 990 
3 414 413 415 
3 731 1033 1045 
3 480 481 482 
3 497 499 523 
3 411 412 413 
3 482 483 484 
3 648 682 968 
3 662 428 974 
3 542 857 1015 
3 775 335 1159 
3 84 302 311 
3 464 462 979 
3 508 558 559 
3 829 830 950 
3 457 410 479 
3 462 662 979 
3 546 606 980 
3 85 303 356 
3 485 486 508 
3 481 479 669 
3 646 648 968 
3 470 975 978 
3 527 526 528 
3 538 506 978 
3 630 599 988 
3 484 483 485 
3 547 545 983 
3 591 589 632 
3 599 636 988 
3 86 304 316 
3 542 543 980 
3 752 676 753 
3 545 610 983 
3 482 481 483 
3 410 409 411 
3 1052 724 1056 
3 536 613 614 
3 656 983 1001 
3 990 598 998 
3 87 305 355 
3 588 586 589 
3 657 733 994 
3 528 529 530 
3 390 389 391 
3 542 541 543 
3 1021 885 1026 
3 523 499 524 
3 645 640 802 
3 609 533 982 
3 528 526 529 
3 530 529 982 
3 480 479 481 
3 856 35 1049 
3 88 306 319 
3 770 697 999 
3 407 406 488 
3 451 513 1015 
3 498 517 536 
3 751 630 988 
3 533 530 982 
3 721 720 998 
3 502 484 981 
3 419 422 1005 
3 590 604 676 
3 573 576 1014 
3 450 454 989 
3 690 691 797 
3 543 546 980 
3 830 833 950 
3 541 540 1004 
3 540 568 664 
3 510 566 952 
3 773 999 1019 
3 513 540 541 
3 404 861 1025 
3 89 307 357 
3 690 797 841 
3 495 494 496 
3 720 990 998 
3 590 521 604 
3 342 7 1022 
3 396 395 397 
3 485 539 981 
3 664 665 984 
3 665 744 746 
3 484 485 981 
3 631 544 1004 
3 405 403 406 
3 587 601 1002 
3 90 308 321 
3 836 838 839 
3 91 309 358 
3 310 91 993 
3 408 457 1000 
3 82 310 325 
3 678 433 679 
3 399 400 401 
3 411 414 991 
3 524 499 525 
3 408 409 410 
3 610 694 1001 
3 833 834 835 
3 516 472 1019 
3 676 604 690 
3 418 419 1005 
3 540 664 1004 
3 410 411 991 
3 774 773 1028 
3 544 541 1004 
3 568 512 989 
3 486 483 997 
3 405 407 408 
3 601 600 638 
3 379 381 382 
3 524 525 526 
3 495 496 497 
3 710 573 1014 
3 387 389 390 
3 777 774 1032 
3 513 512 540 
3 408 407 409 
3 583 728 1008 
3 539 508 996 
3 983 610 1001 
3 639 638 688 
3 605 451 1015 
3 711 667 1043 
3 479 410 991 
3 508 559 996 
3 393 395 396 
3 737 631 1020 
3 689 688 783 
3 481 669 997 
3 497 496 498 
3 591 632 634 
3 396 433 671 
3 405 406 407 
3 483 481 997 
3 514 619 1029 
3 497 498 499 
3 669 479 991 
3 374 375 376 
3 777 1032 1038 
3 376 377 487 
3 588 589 591 
3 371 372 374 
3 368 367 369 
3 382 383 442 
3 691 604 1006 
3 999 516 1019 
3 451 512 513 
3 665 746 984 
3 369 370 371 
3 488 490 668 
3 591 634 687 
3 1001 694 1017 
3 397 399 995 
3 396 397 433 
3 407 488 1003 
3 512 450 989 
3 649 575 1018 
3 678 679 709 
3 575 572 1018 
3 521 502 1006 
3 687 754 794 
3 412 409 1003 
3 536 614 670 
3 744 745 1027 
3 707 649 817 
3 1045 418 1058 
3 687 634 754 
3 451 450 512 
3 975 516 1012 
3 401 402 403 
3 670 614 698 
3 1038 739 1042 
3 390 391 500 
3 503 522 1053 
3 638 600 686 
3 698 755 758 
3 978 975 1012 
3 611 848 1040 
3 449 451 605 
3 520 1026 1047 
3 409 407 1003 
3 774 1028 1032 
3 671 433 678 
3 488 668 1003 
3 390 500 583 
3 670 698 699 
3 585 586 587 
3 502 981 1006 
3 784 783 1155 
3 587 588 600 
3 495 877 1024 
3 472 474 1019 
3 694 766 1017 
3 841 318 1059 
3 604 521 1006 
3 404 403 405 
3 583 584 585 
3 956 739 1038 
3 900 901 1035 
3 587 586 588 
3 513 542 1015 
3 773 1019 1028 
3 663 978 1012 
3 102 341 1041 
3 705 101 1041 
3 374 376 453 
3 585 584 586 
3 654 955 1047 
3 382 442 673 
3 679 433 995 
3 866 1050 1174 
3 401 403 404 
3 34 332 1049 
3 366 365 367 
3 433 397 995 
3 520 979 1026 
3 492 494 495 
3 662 974 1021 
3 583 500 584 
3 385 387 1008 
3 449 450 451 
3 673 442 726 
3 673 726 727 
3 931 930 1084 
3 974 890 1021 
3 817 649 1018 
3 377 379 1009 
3 487 377 1009 
3 798 691 1034 
3 7 8 1022 
3 525 499 1013 
3 391 393 1010 
3 890 884 1021 
3 91 358 993 
3 325 310 993 
3 449 448 450 
3 566 626 952 
3 1026 885 1047 
3 559 558 1039 
3 499 498 1013 
3 320 852 1036 
3 1004 664 1020 
3 725 724 1052 
3 1019 474 1028 
3 936 933 1054 
3 622 810 1039 
3 500 391 1010 
3 932 931 1054 
3 631 1004 1020 
3 498 536 1013 
3 379 382 1009 
3 387 390 1008 
3 415 418 1045 
3 881 577 1074 
3 664 984 1020 
3 577 507 1078 
3 396 671 1010 
3 393 396 1010 
3 302 83 1030 
3 536 670 1013 
3 588 591 1016 
3 368 369 373 
3 591 687 1016 
3 640 611 1040 
3 832 831 1072 
3 686 600 1016 
3 677 325 993 
3 600 588 1016 
3 474 958 1028 
3 887 584 1044 
3 662 1021 1026 
3 979 662 1026 
3 745 829 1027 
3 882 881 1071 
3 390 583 1008 
3 861 860 1077 
3 507 514 1029 
3 995 399 1025 
3 1024 877 1057 
3 889 669 1033 
3 668 490 1024 
3 382 673 1009 
3 668 1024 1057 
3 442 383 1048 
3 691 1006 1034 
3 1006 981 1034 
3 399 401 1025 
3 447 448 449 
3 1028 958 1032 
3 958 535 1032 
3 626 743 1023 
3 442 1048 1066 
3 777 1038 1042 
3 693 800 1079 
3 654 1052 1056 
3 311 302 1030 
3 1032 535 1038 
3 492 495 1024 
3 903 900 1035 
3 1053 522 1112 
3 447 373 448 
3 368 373 447 
3 500 1010 1044 
3 90 321 1046 
3 358 309 1046 
3 535 956 1038 
3 1074 577 1078 
3 731 1045 1058 
3 558 622 1039 
3 991 414 1033 
3 490 492 1024 
3 309 90 1046 
3 366 367 368 
3 101 102 1041 
3 981 539 1034 
3 401 404 1025 
3 690 841 1059 
3 674 785 1069 
3 669 991 1033 
3 778 777 1042 
3 1057 876 1061 
3 753 676 1059 
3 1010 671 1044 
3 633 887 1068 
3 667 750 1043 
3 431 429 1070 
3 1008 728 1048 
3 1033 414 1045 
3 385 1008 1048 
3 802 640 1040 
3 748 633 1076 
3 414 415 1045 
3 955 520 1047 
3 383 385 1048 
3 1145 359 1158 
3 860 593 1093 
3 814 311 1131 
3 595 986 1067 
3 654 1047 1052 
3 601 639 1075 
3 373 369 1051 
3 89 357 1063 
3 35 34 1049 
3 83 301 359 
3 321 308 1063 
3 730 731 1058 
3 724 896 1056 
3 681 680 1055 
3 1087 872 1090 
3 1071 881 1074 
3 584 500 1044 
3 593 503 1053 
3 838 1140 1150 
3 952 626 1023 
3 885 725 1052 
3 1056 896 1060 
3 949 971 1080 
3 364 325 365 
3 369 371 1051 
3 18 815 1116 
3 933 932 1054 
3 758 755 1102 
3 918 580 1081 
3 896 897 1060 
3 412 1061 1082 
3 873 872 1087 
3 877 875 1057 
3 478 654 1056 
3 374 453 1064 
3 1060 897 1062 
3 412 1003 1061 
3 1048 728 1066 
3 764 763 1136 
3 522 590 1088 
3 897 899 1062 
3 478 1056 1060 
3 88 319 1073 
3 416 413 1082 
3 1062 899 1065 
3 336 75 1089 
3 74 360 1089 
3 357 307 1073 
3 957 478 1060 
3 735 734 1092 
3 814 812 1119 
3 676 690 1059 
3 722 620 1086 
3 1092 734 1094 
3 1077 860 1093 
3 308 89 1063 
3 899 902 1065 
3 9 326 1091 
3 364 365 366 
3 957 1060 1062 
3 418 1005 1058 
3 1047 885 1052 
3 805 844 1158 
3 1113 351 1187 
3 420 417 1090 
3 996 866 1111 
3 633 1068 1076 
3 570 957 1062 
3 570 1062 1065 
3 1061 876 1082 
3 635 917 1167 
3 844 1145 1158 
3 954 570 1065 
3 1043 750 1050 
3 684 736 1095 
3 728 1002 1066 
3 825 824 1079 
3 726 442 1066 
3 801 315 1154 
3 115 116 1102 
3 24 23 1098 
3 71 70 1099 
3 73 72 1100 
3 424 421 1094 
3 887 1044 1068 
3 1003 668 1061 
3 986 768 1067 
3 83 359 1030 
3 951 994 1096 
3 371 374 1064 
3 82 325 364 
3 48 320 1109 
3 1022 8 1091 
3 344 49 1109 
3 1051 371 1064 
3 429 425 1097 
3 1044 671 1068 
3 424 1094 1095 
3 703 795 1119 
3 1095 736 1097 
3 453 376 1085 
3 706 674 1069 
3 420 1090 1092 
3 726 1066 1075 
3 1102 116 1189 
3 416 1082 1087 
3 831 854 1072 
3 435 431 1070 
3 736 685 1104 
3 671 678 1068 
3 910 529 1156 
3 87 355 1101 
3 319 306 1101 
3 435 1104 1107 
3 730 1058 1071 
3 995 1025 1077 
3 1066 1002 1075 
3 835 836 1108 
3 307 88 1073 
3 938 336 1110 
3 783 688 1133 
3 668 1057 1061 
3 311 814 1126 
3 824 693 1079 
3 1005 882 1071 
3 673 727 1105 
3 1058 1005 1071 
3 718 1023 1194 
3 729 730 1074 
3 795 701 1118 
3 1025 861 1077 
3 730 1071 1074 
3 1068 678 1076 
3 592 813 1193 
3 971 435 1107 
3 742 814 1131 
3 729 1074 1078 
3 702 782 1118 
3 1102 755 1172 
3 363 79 1113 
3 78 351 1113 
3 916 313 1115 
3 810 729 1078 
3 579 1080 1081 
3 579 949 1080 
3 1075 639 1083 
3 678 709 1076 
3 1002 601 1075 
3 416 1087 1090 
3 104 105 1114 
3 350 940 1149 
3 580 579 1081 
3 539 996 1111 
3 679 995 1077 
3 762 960 1084 
3 487 1009 1105 
3 413 412 1082 
3 914 917 1121 
3 876 873 1087 
3 17 18 1116 
3 376 487 1085 
3 620 635 1086 
3 903 1035 1186 
3 727 726 1083 
3 590 752 1088 
3 1070 736 1104 
3 1091 326 1165 
3 679 1077 1093 
3 75 74 1089 
3 908 907 1121 
3 967 345 1133 
3 846 343 1144 
3 360 1100 1184 
3 803 737 1127 
3 868 328 1108 
3 417 416 1090 
3 420 1092 1094 
3 864 863 1123 
3 338 115 1102 
3 8 9 1091 
3 903 1186 1200 
3 435 1070 1104 
3 872 735 1092 
3 86 316 1117 
3 355 305 1117 
3 763 714 1124 
3 1082 876 1087 
3 998 692 1120 
3 632 748 1125 
3 322 64 1129 
3 63 350 1129 
3 421 420 1094 
3 349 895 1136 
3 758 1102 1189 
3 85 356 1122 
3 911 910 1156 
3 316 304 1122 
3 709 679 1093 
3 734 684 1095 
3 1090 872 1092 
3 912 699 1148 
3 756 1113 1187 
3 1094 734 1095 
3 708 951 1096 
3 616 712 1134 
3 948 24 1098 
3 70 361 1099 
3 360 73 1100 
3 424 1095 1097 
3 306 87 1101 
3 425 424 1097 
3 66 65 1135 
3 84 311 1126 
3 356 303 1126 
3 798 1034 1111 
3 941 334 1124 
3 713 700 1137 
3 726 1075 1083 
3 752 753 1130 
3 838 840 1140 
3 789 787 1141 
3 1104 953 1107 
3 685 953 1104 
3 1110 336 1190 
3 1125 752 1130 
3 333 113 1164 
3 705 1041 1106 
3 788 790 1106 
3 787 760 1141 
3 670 699 1138 
3 953 723 1107 
3 733 945 1168 
3 962 592 1141 
3 318 841 1171 
3 836 839 1108 
3 1009 673 1105 
3 1020 984 1127 
3 624 561 1147 
3 560 721 1147 
3 801 696 1149 
3 314 912 1148 
3 747 1091 1165 
3 49 48 1109 
3 6 342 1152 
3 1041 788 1106 
3 865 866 1174 
3 740 765 1153 
3 323 937 1160 
3 31 331 1157 
3 107 941 1159 
3 1017 331 1162 
3 864 1123 1198 
3 335 106 1159 
3 338 1102 1172 
3 948 1098 1139 
3 595 1067 1178 
3 733 732 1162 
3 67 66 1161 
3 833 835 1144 
3 525 1013 1138 
3 895 892 1132 
3 923 921 1163 
3 748 1088 1125 
3 52 318 1171 
3 939 938 1110 
3 346 53 1171 
3 699 698 1148 
3 776 778 1135 
3 526 525 1156 
3 931 1084 1183 
3 347 959 1169 
3 856 746 1170 
3 766 803 1157 
3 759 761 1114 
3 366 368 1142 
3 812 703 1119 
3 868 1108 1185 
3 926 922 1177 
3 743 1145 1194 
3 1088 752 1125 
3 103 104 1175 
3 746 744 1170 
3 3 80 1179 
3 23 3 1179 
3 132 0 1180 
3 0 4 1180 
3 72 1 1181 
3 1 100 1181 
3 2 71 1182 
3 22 2 1182 
3 929 362 1180 
3 117 314 1189 
3 1042 739 1151 
3 687 794 1166 
3 608 557 1178 
3 772 776 1202 
3 16 327 1200 
3 317 14 1186 
3 813 791 1193 
3 982 910 1188 
3 748 1076 1112 
3 1067 936 1178 
3 965 624 1196 
3 1108 839 1185 
3 79 78 1113 
3 1035 317 1186 
3 790 792 1184 
3 686 967 1197 
3 1140 878 1150 
3 1105 727 1140 
3 105 335 1114 
3 709 1053 1112 
3 1027 829 1176 
3 692 747 1165 
3 313 942 1115 
3 638 686 1197 
3 1034 539 1111 
3 910 908 1188 
3 793 1110 1190 
3 919 337 1151 
3 686 1016 1166 
3 1036 686 1166 
3 327 17 1116 
3 804 805 1158 
3 305 86 1117 
3 701 702 1118 
3 892 894 1132 
3 1076 709 1112 
3 994 733 1168 
3 863 346 1123 
3 907 914 1121 
3 916 1115 1167 
3 304 85 1122 
3 813 615 1146 
3 721 998 1120 
3 984 746 1192 
3 1084 960 1183 
3 797 798 1123 
3 714 715 1124 
3 858 344 1128 
3 634 632 1125 
3 894 893 1142 
3 888 751 1154 
3 746 1049 1192 
3 1098 363 1139 
3 303 84 1126 
3 737 1020 1127 
3 345 849 1133 
3 1123 798 1198 
3 634 1125 1130 
3 64 63 1129 
3 840 1105 1140 
3 81 804 1199 
3 743 742 1131 
3 839 838 1150 
3 605 985 1132 
3 706 947 1143 
3 754 634 1130 
3 322 1129 1202 
3 615 616 1134 
3 318 858 1191 
3 988 801 1154 
3 751 988 1154 
3 1120 926 1177 
3 65 322 1135 
3 904 349 1136 
3 700 708 1137 
3 917 916 1167 
3 712 756 1187 
3 793 813 1146 
3 929 5 1152 
3 1013 670 1138 
3 727 878 1140 
3 331 944 1162 
3 756 713 1139 
3 1059 318 1191 
3 760 962 1141 
3 352 977 1153 
3 843 805 1172 
3 977 767 1153 
3 811 635 1167 
3 301 81 1199 
3 624 1163 1196 
3 738 706 1143 
3 950 833 1144 
3 368 447 1142 
3 561 560 1147 
3 696 769 1149 
3 750 959 1174 
3 1128 344 1173 
3 967 1133 1197 
3 878 784 1150 
3 1115 811 1167 
3 698 758 1148 
3 739 738 1151 
3 930 929 1152 
3 5 6 1152 
3 1030 359 1145 
3 767 740 1153 
3 315 888 1154 
3 324 869 1155 
3 1096 994 1168 
3 344 1109 1173 
3 1050 750 1174 
3 1141 592 1193 
3 32 31 1157 
3 529 526 1156 
3 106 107 1159 
3 908 1121 1188 
3 937 935 1160 
3 337 67 1161 
3 893 333 1164 
3 1054 931 1183 
3 921 924 1163 
3 1155 869 1185 
3 732 1017 1162 
3 329 856 1170 
3 326 926 1165 
3 755 843 1172 
3 1129 771 1202 
3 1098 23 1179 
3 71 1099 1182 
3 1100 72 1181 
3 959 865 1174 
3 608 1054 1183 
3 1127 984 1192 
3 323 1160 1201 
3 879 347 1169 
3 1027 329 1170 
3 805 338 1172 
3 1016 687 1166 
3 615 1134 1146 
3 945 330 1168 
3 53 52 1171 
3 336 1089 1190 
3 869 868 1185 
3 744 1027 1170 
3 1110 793 1146 
3 1155 1185 1195 
3 922 923 1177 
3 341 103 1175 
3 794 754 1173 
3 80 363 1179 
3 362 132 1180 
3 100 705 1181 
3 704 22 1182 
3 557 595 1178 
3 866 864 1198 
3 829 950 1176 
3 330 1096 1168 
3 960 608 1183 
3 1145 844 1194 
3 14 15 1186 
3 351 939 1187 
3 116 117 1189 
3 1049 332 1192 
3 792 793 1190 
3 609 982 1188 
3 791 789 1193 
3 1109 794 1173 
3 1186 15 1200 
3 359 301 1199 
3 721 1120 1177 
3 901 965 1196 
3 15 16 1200 
3 753 1059 1191 
3 924 317 1203 
3 1035 901 1203 
3 768 767 1201 
3 771 772 1202 
3 688 638 1197 
3 1023 743 1194 
3 363 1098 1179 
3 1099 704 1182 
3 705 1100 1181 
3 1089 792 1190 
3 1196 924 1203 
3 901 1196 1203 
3 317 1035 1203 
3 798 1111 1198 
3 1121 609 1188 
3 1133 688 1197 
3 1106 790 1184 
3 332 1127 1192 
3 1111 866 1198 
3 789 1141 1193 
3 839 1150 1195 
3 1128 753 1191 
3 858 1128 1191 
3 1158 359 1199 
3 1150 784 1195 
3 784 1155 1195 
3 1160 768 1201 
3 1163 924 1196 
3 804 1158 1199 
3 1185 839 1195 
3 183 182 158 
3 182 157 158 
3 182 181 157 
3 181 156 157 
3 181 180 156 
3 180 155 156 
3 180 179 155 
3 179 154 155 
3 179 178 154 
3 178 153 154 
3 178 177 153 
3 177 152 153 
3 177 176 152 
3 176 151 152 
3 176 175 151 
3 151 175 150 
3 175 174 150 
3 174 149 150 
3 174 173 149 
3 173 148 149 
3 134 85 1204 
3 173 172 148 
3 172 147 148 
3 172 171 147 
3 133 134 1204 
3 171 146 147 
3 171 170 146 
3 159 85 134 
3 170 145 146 
3 170 169 145 
3 169 144 145 
3 169 168 144 
3 168 143 144 
3 168 167 143 
3 167 142 143 
3 167 166 142 
3 142 166 141 
3 85 303 1204 
3 166 165 141 
3 141 165 140 
3 165 164 140 
3 140 164 139 
3 163 138 139 
3 164 163 139 
3 138 162 137 
3 163 162 138 
3 137 161 136 
3 162 161 137 
3 136 160 135 
3 159 134 135 
3 161 160 136 
3 160 159 135 
3 303 133 1204 
3 92 93 1205 
3 183 158 1205 
3 158 92 1205 
3 93 183 1205 
3 133 303 84 
3 182 183 184 
3 182 184 185 
3 181 182 185 
3 186 181 185 
3 180 181 186 
3 187 180 186 
3 179 180 187 
3 188 179 187 
3 178 179 188 
3 189 178 188 
3 177 178 189 
3 190 177 189 
3 176 177 190 
3 191 176 190 
3 175 176 191 
3 192 175 191 
3 174 175 192 
3 174 192 193 
3 173 174 193 
3 160 86 1206 
3 194 173 193 
3 172 173 194 
3 172 194 195 
3 86 160 206 
3 171 172 195 
3 171 195 196 
3 170 171 196 
3 170 196 197 
3 169 170 197 
3 159 160 1206 
3 169 197 198 
3 168 169 198 
3 168 198 199 
3 167 168 199 
3 167 199 200 
3 166 167 200 
3 166 200 201 
3 165 166 201 
3 165 201 202 
3 164 165 202 
3 164 202 203 
3 86 304 1206 
3 163 203 204 
3 163 164 203 
3 162 204 205 
3 162 163 204 
3 161 205 206 
3 161 162 205 
3 160 161 206 
3 304 159 1206 
3 93 94 1207 
3 184 183 1207 
3 94 184 1207 
3 183 93 1207 
3 159 304 85 
3 184 227 228 
3 184 185 227 
3 185 226 227 
3 185 186 226 
3 186 225 226 
3 186 187 225 
3 187 224 225 
3 187 188 224 
3 188 223 224 
3 188 189 223 
3 189 222 223 
3 189 190 222 
3 190 221 222 
3 190 191 221 
3 221 191 220 
3 191 192 220 
3 192 219 220 
3 192 193 219 
3 87 205 1208 
3 193 218 219 
3 193 194 218 
3 194 217 218 
3 205 206 1208 
3 217 194 195 
3 205 87 207 
3 216 217 195 
3 196 216 195 
3 215 216 196 
3 197 215 196 
3 215 197 214 
3 197 198 214 
3 214 198 213 
3 198 199 213 
3 305 87 1208 
3 213 199 212 
3 199 200 212 
3 212 200 211 
3 200 201 211 
3 201 202 210 
3 201 210 211 
3 202 203 209 
3 210 202 209 
3 203 204 208 
3 204 205 207 
3 209 203 208 
3 208 204 207 
3 206 305 1208 
3 95 94 1209 
3 184 228 1209 
3 94 184 1209 
3 228 95 1209 
3 305 206 86 
3 227 228 229 
3 227 229 230 
3 226 227 230 
3 226 230 231 
3 225 226 231 
3 232 225 231 
3 232 224 225 
3 232 233 224 
3 233 223 224 
3 233 234 223 
3 234 222 223 
3 234 235 222 
3 235 221 222 
3 235 236 221 
3 221 236 220 
3 236 237 220 
3 237 219 220 
3 208 88 1210 
3 237 238 219 
3 238 218 219 
3 248 88 208 
3 238 239 218 
3 239 217 218 
3 239 240 217 
3 217 240 216 
3 240 241 216 
3 207 208 1210 
3 216 241 215 
3 241 242 215 
3 215 242 214 
3 242 243 214 
3 214 243 213 
3 243 244 213 
3 213 244 212 
3 244 245 212 
3 212 245 211 
3 245 246 211 
3 88 306 1210 
3 246 247 210 
3 246 210 211 
3 247 248 209 
3 210 247 209 
3 209 248 208 
3 306 207 1210 
3 95 96 1211 
3 229 228 1211 
3 96 229 1211 
3 228 95 1211 
3 306 87 207 
3 266 267 229 
3 230 266 229 
3 265 266 230 
3 231 265 230 
3 264 265 231 
3 232 264 231 
3 263 264 232 
3 233 263 232 
3 262 263 233 
3 262 233 234 
3 261 262 234 
3 235 261 234 
3 260 261 235 
3 236 260 235 
3 259 260 236 
3 237 259 236 
3 89 247 1212 
3 258 259 237 
3 258 237 238 
3 247 248 1212 
3 258 238 257 
3 257 238 239 
3 247 89 249 
3 256 257 239 
3 256 239 240 
3 255 256 240 
3 255 240 241 
3 254 255 241 
3 242 254 241 
3 307 89 1212 
3 253 254 242 
3 253 242 243 
3 252 253 243 
3 252 243 244 
3 251 244 245 
3 251 252 244 
3 245 246 250 
3 251 245 250 
3 246 247 249 
3 246 249 250 
3 248 307 1212 
3 97 96 1213 
3 229 267 1213 
3 96 229 1213 
3 267 97 1213 
3 248 88 307 
3 266 267 268 
3 269 266 268 
3 265 266 269 
3 270 265 269 
3 264 265 270 
3 271 264 270 
3 263 264 271 
3 272 263 271 
3 262 263 272 
3 273 262 272 
3 261 262 273 
3 274 261 273 
3 260 261 274 
3 260 274 275 
3 259 260 275 
3 250 90 1214 
3 276 259 275 
3 90 250 284 
3 259 276 258 
3 276 277 258 
3 258 277 257 
3 277 278 257 
3 278 256 257 
3 256 278 279 
3 249 250 1214 
3 256 279 255 
3 279 280 255 
3 280 254 255 
3 280 281 254 
3 281 253 254 
3 282 253 281 
3 253 282 252 
3 252 282 283 
3 251 283 284 
3 251 252 283 
3 90 308 1214 
3 250 251 284 
3 308 249 1214 
3 97 98 1215 
3 268 267 1215 
3 98 268 1215 
3 267 97 1215 
3 89 249 308 
3 299 300 268 
3 269 299 268 
3 298 299 269 
3 270 298 269 
3 297 298 270 
3 271 297 270 
3 296 297 271 
3 272 296 271 
3 295 296 272 
3 273 295 272 
3 294 295 273 
3 274 294 273 
3 293 294 274 
3 91 283 1216 
3 293 274 275 
3 292 293 275 
3 283 284 1216 
3 276 292 275 
3 292 276 291 
3 283 91 285 
3 276 277 291 
3 277 290 291 
3 277 278 290 
3 278 289 290 
3 278 279 289 
3 309 91 1216 
3 279 288 289 
3 279 280 288 
3 280 281 287 
3 280 287 288 
3 281 282 286 
3 281 286 287 
3 282 283 285 
3 282 285 286 
3 284 309 1216 
3 99 98 1217 
3 268 300 1217 
3 98 268 1217 
3 300 99 1217 
3 90 309 284 
3 299 300 100 
3 299 100 101 
3 298 299 101 
3 298 101 102 
3 297 298 102 
3 297 102 103 
3 296 297 103 
3 296 103 104 
3 295 296 104 
3 295 104 105 
3 294 295 105 
3 294 105 106 
3 286 82 1218 
3 293 294 106 
3 113 82 286 
3 293 106 107 
3 292 293 107 
3 108 292 107 
3 291 292 108 
3 109 291 108 
3 290 291 109 
3 290 109 110 
3 285 286 1218 
3 290 110 289 
3 110 111 289 
3 111 288 289 
3 111 112 288 
3 112 113 287 
3 288 112 287 
3 287 113 286 
3 82 310 1218 
3 310 285 1218 
3 99 1 1219 
3 100 300 1219 
3 1 100 1219 
3 300 99 1219 
3 310 91 285 

CELL_TYPES 2299
5
5
5
5
5
5
5
5
5
5
5
5
5
5
5
5
5
5
5
5
5
5
5
5
5
5
5
5
5
5
5
5
5
5
5
5
5
5
5
5
5
5
5
5
5
5
5
5
5
5
5
5
5
5
5
5
5
5
5
5
5
5
5
5
5
5
5
5
5
5
5
5
5
5
5
5
5
5
5
5
5
5
5
5
5
5
5
5
5
5
5
5
5
5
5
5
5
5
5
5
5
5
5
5
5
5
5
5
5
5
5
5
5
5
5
5
5
5
5
5
5
5
5
5
5
5
5
5
5
5
5
5
5
5
5
5
5
5
5
5
5
5
5
5
5
5
5
5
5
5
5
5
5
5
5
5
5
5
5
5
5
5
5
5
5
5
5
5
5
5
5
5
5
5
5
5
5
5
5
5
5
5
5
5
5
5
5
5
5
5
5
5
5
5
5
5
5
5
5
5
5
5
5
5
5
5
5
5
5
5
5
5
5
5
5
5
5
5
5
5
5
5
5
5
5
5
5
5
5
5
5
5
5
5
5
5
5
5
5
5
5
5
5
5
5
5
5
5
5
5
5
5
5
5
5
5
5
5
5
5
5
5
5
5
5
5
5
5
5
5
5
5
5
5
5
5
5
5
5
5
5
5
5
5
5
5
5
5
5
5
5
5
5
5
5
5
5
5
5
5
5
5
5
5
5
5
5
5
5
5
5
5
5
5
5
5
5
5
5
5
5
5
5
5
5
5
5
5
5
5
5
5
5
5
5
5
5
5
5
5
5
5
5
5
5
5
5
5
5
5
5
5
5
5
5
5
5
5
5
5
5
5
5
5
5
5
5
5
5
5
5
5
5
5
5
5
5
5
5
5
5
5
5
5
5
5
5
5
5
5
5
5
5
5
5
5
5
5
5
5
5
5
5
5
5
5
5
5
5
5
5
5
5
5
5
5
5
5
5
5
5
5
5
5
5
5
5
5
5
5
5
5
5
5
5
5
5
5
5
5
5
5
5
5
5
5
5
5
5
5
5
5
5
5
5
5
5
5
5
5
5
5
5
5
5
5
5
5
5
5
5
5
5
5
5
5
5
5
5
5
5
5
5
5
5
5
5
5
5
5
5
5
5
5
5
5
5
5
5
5
5
5
5
5
5
5
5
5
5
5
5
5
5
5
5
5
5
5
5
5
5
5
5
5
5
5
5
5
5
5
5
5
5
5
5
5
5
5
5
5
5
5
5
5
5
5
5
5
5
5
5
5
5
5
5
5
5
5
5
5
5
5
5
5
5
5
5
5
5
5
5
5
5
5
5
5
5
5
5
5
5
5
5
5
5
5
5
5
5
5
5
5
5
5
5
5
5
5
5
5
5
5
5
5
5
5
5
5
5
5
5
5
5
5
5
5
5
5
5
5
5
5
5
5
5
5
5
5
5
5
5
5
5
5
5
5
5
5
5
5
5
5
5
5
5
5
5
5
5
5
5
5
5
5
5
5
5
5
5
5
5
5
5
5
5
5
5
5
5
5
5
5
5
5
5
5
5
5
5
5
5
5
5
5
5
5
5
5
5
5
5
5
5
5
5
5
5
5
5
5
5
5
5
5
5
5
5
5
5
5
5
5
5
5
5
5
5
5
5
5
5
5
5
5
5
5
5
5
5
5
5
5
5
5
5
5
5
5
5
5
5
5
5
5
5
5
5
5
5
5
5
5
5
5
5
5
5
5
5
5
5
5
5
5
5
5
5
5
5
5
5
5
5
5
5
5
5
5
5
5
5
5
5
5
5
5
5
5
5
5
5
5
5
5
5
5
5
5
5
5
5
5
5
5
5
5
5
5
5
5
5
5
5
5
5
5
5
5
5
5
5
5
5
5
5
5
5
5
5
5
5
5
5
5
5
5
5
5
5
5
5
5
5
5
5
5
5
5
5
5
5
5
5
5
5
5
5
5
5
5
5
5
5
5
5
5
5
5
5
5
5
5
5
5
5
5
5
5
5
5
5
5
5
5
5
5
5
5
5
5
5
5
5
5
5
5
5
5
5
5
5
5
5
5
5
5
5
5
5
5
5
5
5
5
5
5
5
5
5
5
5
5
5
5
5
5
5
5
5
5
5
5
5
5
5
5
5
5
5
5
5
5
5
5
5
5
5
5
5
5
5
5
5
5
5
5
5
5
5
5
5
5
5
5
5
5
5
5
5
5
5
5
5
5
5
5
5
5
5
5
5
5
5
5
5
5
5
5
5
5
5
5
5
5
5
5
5
5
5
5
5
5
5
5
5
5
5
5
5
5
5
5
5
5
5
5
5
5
5
5
5
5
5
5
5
5
5
5
5
5
5
5
5
5
5
5
5
5
5
5
5
5
5
5
5
5
5
5
5
5
5
5
5
5
5
5
5
5
5
5
5
5
5
5
5
5
5
5
5
5
5
5
5
5
5
5
5
5
5
5
5
5
5
5
5
5
5
5
5
5
5
5
5
5
5
5
5
5
5
5
5
5
5
5
5
5
5
5
5
5
5
5
5
5
5
5
5
5
5
5
5
5
5
5
5
5
5
5
5
5
5
5
5
5
5
5
5
5
5
5
5
5
5
5
5
5
5
5
5
5
5
5
5
5
5
5
5
5
5
5
5
5
5
5
5
5
5
5
5
5
5
5
5
5
5
5
5
5
5
5
5
5
5
5
5
5
5
5
5
5
5
5
5
5
5
5
5
5
5
5
5
5
5
5
5
5
5
5
5
5
5
5
5
5
5
5
5
5
5
5
5
5
5
5
5
5
5
5
5
5
5
5
5
5
5
5
5
5
5
5
5
5
5
5
5
5
5
5
5
5
5
5
5
5
5
5
5
5
5
5
5
5
5
5
5
5
5
5
5
5
5
5
5
5
5
5
5
5
5
5
5
5
5
5
5
5
5
5
5
5
5
5
5
5
5
5
5
5
5
5
5
5
5
5
5
5
5
5
5
5
5
5
5
5
5
5
5
5
5
5
5
5
5
5
5
5
5
5
5
5
5
5
5
5
5
5
5
5
5
5
5
5
5
5
5
5
5
5
5
5
5
5
5
5
5
5
5
5
5
5
5
5
5
5
5
5
5
5
5
5
5
5
5
5
5
5
5
5
5
5
5
5
5
5
5
5
5
5
5
5
5
5
5
5
5
5
5
5
5
5
5
5
5
5
5
5
5
5
5
5
5
5
5
5
5
5
5
5
5
5
5
5
5
5
5
5
5
5
5
5
5
5
5
5
5
5
5
5
5
5
5
5
5
5
5
5
5
5
5
5
5
5
5
5
5
5
5
5
5
5
5
5
5
5
5
5
5
5
5
5
5
5
5
5
5
5
5
5
5
5
5
5
5
5
5
5
5
5
5
5
5
5
5
5
5
5
5
5
5
5
5
5
5
5
5
5
5
5
5
5
5
5
5
5
5
5
5
5
5
5
5
5
5
5
5
5
5
5
5
5
5
5
5
5
5
5
5
5
5
5
5
5
5
5
5
5
5
5
5
5
5
5
5
5
5
5
5
5
5
5
5
5
5
5
5
5
5
5
5
5
5
5
5
5
5
5
5
5
5
5
5
5
5
5
5
5
5
5
5
5
5
5
5
5
5
5
5
5
5
5
5
5
5
5
5
5
5
5
5
5
5
5
5
5
5
5
5
5
5
5
5
5
5
5
5
5
5
5
5
5
5
5
5
5
5
5
5
5
5
5
5
5
5
5
5
5
5
5
5
5
5
5
5
5
5
5
5
5
5
5
5
5
5
5
5
5
5
5
5
5
5
5
5
5
5
5
5
5
5
5
5
5
5
5
5
5
5
5
5
5
5
5
5
5
5
5
5
5
5
5
5
5
5
5
5
5
5
5
5
5
5
5
5
5
5
5
5
5
5
5
5
5
5
5
5
5
5
5
5
5
5
5
5
5
5
5
5
5
5
5
5
5
5
5
5
5
5
5
5
5
5
5
5
5
5
5
5
5
5
5
5
5
5
5
5
5
5
5
5
5
5
5
5
5
5
5
5
5
5
5
5
5
5
5
5
5
5
5
5
5
5
5
5
5
5
5
5
5
5
5
5
5
5
5
5
5
5
5
5
5
5
5
5
5
5
5
5
5
5
5
5
5
5
5
5
5
5
5
5
5
5
5
5
5
5
5
5
5
5
5
5
5
5
5
5
5
5
5
5
5
5
5
5
5
5
5
5
5
5
5
5
5
5
5
5
5
5
5
5
5
5
5
5
5
5
5
5
5
5
5
5
5
5
5
5
5
5
5
5
5
5
5
5
5
5
5
5
5
5
5
5
5
5
5
5
5
5
5
5
5
5
5
5
5
5
5
5
5
5
5
5
5
5
5
5
5
5
5
5
5
5
5
5
5
5
5
5
5
5
5
5
5
5
5
5
5
5
5
5
5
5
5
5
5
5
5
5
5
5
5
5
5
5
5
5
5
5
5
5
5
5
5
5
5
5
5
5
5
5
5
5
5
5
5
5
5
5
5
5
5
5
5
5
5
5
5
5
5
5
5
5
5
5
5
5
5
5
5
5
5
5
5
5
5
5
5
5
5
5
5
5
5
5
5
5
5
5
5
5
5
5
5
5
5
5
5
5
5
5
5
5
5
5
5
5
5
5
5
5
5
5
5
5
5
5
5
5
5
5
5
5
5
5
5
5
5
5
5
5
5
5
5
5
5
5
5
5
5
5
5
5
5
5
5
5
5
5
5
5
5
5
5
5
5
5
5
5
5
5
5
5
5
5
5
5
5
5
5
5
5
5
5
5
5
5
5
5
5
5
5
5
5
5
5
5
5
5
5
5
5
5
5
5
5
5
5
5
5
5
5
5
5
5
5
5
5
5
5
5
5
5
5
5
5
5
5
5
5
5
5
5
5
5
5
5
5
5
5
5
5
5
5
5
5
5
5
5
5
5
5
5
5
5
5
5
5
5
5
5
5
5
5
5
5
5
5
5
5
5
5
5
5
5
5
5
5
5
5
5
5
5
5
5
5
5
5
5
5
5
5
5
5
5
5
5
5
5
5
5
5
5
5
5
5
5
5
5
5
5
5
5
5
5
5
5
5
5
5
5
5
5
5
5
5
5
5
5
5
5
5
5
5
5
5
5
5
5
5
5
5
5
5
5
5
5
5
5
5
5
5
5
5
5
5
5
5
5
5
5
5
5
5
5
5
5
5
5
5
5

POINT_DATA 1220

VECTORS coord float
0.0 0.0 0.0 
5.000000000000e+01 -1.000000000000e+01 0.0 
0.0 -2.000000000000e+01 0.0 
5.000000000000e+01 -2.000000000000e+01 0.0 
0.0 -9.999999999991e-01 0.0 
0.0 -1.999999999998e+00 0.0 
0.0 -2.999999999997e+00 0.0 
0.0 -3.999999999994e+00 0.0 
0.0 -4.999999999991e+00 0.0 
0.0 -5.999999999988e+00 0.0 
0.0 -6.999999999985e+00 0.0 
0.0 -7.999999999982e+00 0.0 
0.0 -8.999999999983e+00 0.0 
0.0 -9.999999999985e+00 0.0 
0.0 -1.099999999999e+01 0.0 
0.0 -1.199999999999e+01 0.0 
0.0 -1.299999999999e+01 0.0 
0.0 -1.399999999999e+01 0.0 
0.0 -1.499999999999e+01 0.0 
0.0 -1.599999999999e+01 0.0 
0.0 -1.700000000000e+01 0.0 
0.0 -1.800000000000e+01 0.0 
0.0 -1.900000000000e+01 0.0 
4.900000000001e+01 -2.000000000000e+01 0.0 
4.800000000001e+01 -2.000000000000e+01 0.0 
4.700000000002e+01 -2.000000000000e+01 0.0 
4.600000000003e+01 -2.000000000000e+01 0.0 
4.500000000004e+01 -2.000000000000e+01 0.0 
4.400000000004e+01 -2.000000000000e+01 0.0 
4.300000000005e+01 -2.000000000000e+01 0.0 
4.200000000006e+01 -2.000000000000e+01 0.0 
4.100000000006e+01 -2.000000000000e+01 0.0 
4.000000000007e+01 -2.000000000000e+01 0.0 
3.900000000008e+01 -2.000000000000e+01 0.0 
3.800000000009e+01 -2.000000000000e+01 0.0 
3.700000000009e+01 -2.000000000000e+01 0.0 
3.600000000010e+01 -2.000000000000e+01 0.0 
3.500000000011e+01 -2.000000000000e+01 0.0 
3.400000000011e+01 -2.000000000000e+01 0.0 
3.300000000012e+01 -2.000000000000e+01 0.0 
3.200000000013e+01 -2.000000000000e+01 0.0 
3.100000000013e+01 -2.000000000000e+01 0.0 
3.000000000013e+01 -2.000000000000e+01 0.0 
2.900000000013e+01 -2.000000000000e+01 0.0 
2.800000000013e+01 -2.000000000000e+01 0.0 
2.700000000013e+01 -2.000000000000e+01 0.0 
2.600000000013e+01 -2.000000000000e+01 0.0 
2.500000000013e+01 -2.000000000000e+01 0.0 
2.400000000013e+01 -2.000000000000e+01 0.0 
2.300000000013e+01 -2.000000000000e+01 0.0 
2.200000000013e+01 -2.000000000000e+01 0.0 
2.100000000013e+01 -2.000000000000e+01 0.0 
2.000000000013e+01 -2.000000000000e+01 0.0 
1.900000000013e+01 -2.000000000000e+01 0.0 
1.800000000013e+01 -2.000000000000e+01 0.0 
1.700000000012e+01 -2.000000000000e+01 0.0 
1.600000000011e+01 -2.000000000000e+01 0.0 
1.500000000011e+01 -2.000000000000e+01 0.0 
1.400000000010e+01 -2.000000000000e+01 0.0 
1.300000000009e+01 -2.000000000000e+01 0.0 
1.200000000009e+01 -2.000000000000e+01 0.0 
1.100000000008e+01 -2.000000000000e+01 0.0 
1.000000000007e+01 -2.000000000000e+01 0.0 
9.000000000064e+00 -2.000000000000e+01 0.0 
8.000000000057e+00 -2.000000000000e+01 0.0 
7.000000000050e+00 -2.000000000000e+01 0.0 
6.000000000043e+00 -2.000000000000e+01 0.0 
5.000000000036e+00 -2.000000000000e+01 0.0 
4.000000000028e+00 -2.000000000000e+01 0.0 
3.000000000021e+00 -2.000000000000e+01 0.0 
2.000000000014e+00 -2.000000000000e+01 0.0 
1.000000000007e+00 -2.000000000000e+01 0.0 
5.000000000000e+01 -1.100000000000e+01 0.0 
5.000000000000e+01 -1.200000000000e+01 0.0 
5.000000000000e+01 -1.300000000000e+01 0.0 
5.000000000000e+01 -1.400000000000e+01 0.0 
5.000000000000e+01 -1.500000000000e+01 0.0 
5.000000000000e+01 -1.600000000000e+01 0.0 
5.000000000000e+01 -1.700000000000e+01 0.0 
5.000000000000e+01 -1.800000000000e+01 0.0 
5.000000000000e+01 -1.900000000000e+01 0.0 
2.000000000000e+01 0.0 0.0 
3.500000000000e+01 -1.000000000000e+01 0.0 
2.150000000000e+01 -1.000000000000e+00 0.0 
2.300000000000e+01 -2.000000000000e+00 0.0 
2.450000000000e+01 -3.000000000000e+00 0.0 
2.600000000000e+01 -4.000000000000e+00 0.0 
2.750000000000e+01 -5.000000000000e+00 0.0 
2.900000000000e+01 -6.000000000000e+00 0.0 
3.050000000000e+01 -7.000000000000e+00 0.0 
3.200000000000e+01 -8.000000000000e+00 0.0 
3.350000000000e+01 -9.000000000000e+00 0.0 
5.000000000000e+01 -2.000000000000e+00 0.0 
5.000000000000e+01 -3.000000000000e+00 0.0 
5.000000000000e+01 -4.000000000000e+00 0.0 
5.000000000000e+01 -5.000000000000e+00 0.0 
5.000000000000e+01 -6.000000000000e+00 0.0 
5.000000000000e+01 -7.000000000000e+00 0.0 
5.000000000000e+01 -8.000000000000e+00 0.0 
5.000000000000e+01 -9.000000000000e+00 0.0 
4.900000000000e+01 -1.000000000000e+01 0.0 
4.800000000000e+01 -1.000000000000e+01 0.0 
4.700000000000e+01 -1.000000000000e+01 0.0 
4.600000000000e+01 -1.000000000000e+01 0.0 
4.500000000000e+01 -1.000000000000e+01 0.0 
4.400000000000e+01 -1.000000000000e+01 0.0 
4.300000000000e+01 -1.000000000000e+01 0.0 
4.200000000000e+01 -1.000000000000e+01 0.0 
4.100000000000e+01 -1.000000000000e+01 0.0 
4.000000000000e+01 -1.000000000000e+01 0.0 
3.900000000000e+01 -1.000000000000e+01 0.0 
3.800000000000e+01 -1.000000000000e+01 0.0 
3.700000000000e+01 -1.000000000000e+01 0.0 
3.600000000000e+01 -1.000000000000e+01 0.0 
1.900000000000e+01 0.0 0.0 
1.800000000000e+01 0.0 0.0 
1.700000000000e+01 0.0 0.0 
1.600000000000e+01 0.0 0.0 
1.500000000000e+01 0.0 0.0 
1.400000000000e+01 0.0 0.0 
1.300000000000e+01 0.0 0.0 
1.200000000000e+01 0.0 0.0 
1.100000000000e+01 0.0 0.0 
1.000000000000e+01 0.0 0.0 
9.000000000000e+00 0.0 0.0 
8.000000000000e+00 0.0 0.0 
7.000000000000e+00 0.0 0.0 
6.000000000000e+00 0.0 0.0 
5.000000000000e+00 0.0 0.0 
4.000000000000e+00 0.0 0.0 
3.000000000000e+00 0.0 0.0 
2.000000000000e+00 0.0 0.0 
1.000000000000e+00 0.0 0.0 
2.400000000000e+01 -2.000000000000e+00 0.0 
2.500000000000e+01 -2.000000000000e+00 0.0 
2.600000000000e+01 -2.000000000000e+00 0.0 
2.700000000000e+01 -2.000000000000e+00 0.0 
2.800000000000e+01 -2.000000000000e+00 0.0 
2.900000000000e+01 -2.000000000000e+00 0.0 
3.000000000000e+01 -2.000000000000e+00 0.0 
3.100000000000e+01 -2.000000000000e+00 0.0 
3.200000000000e+01 -2.000000000000e+00 0.0 
3.300000000000e+01 -2.000000000000e+00 0.0 
3.400000000000e+01 -2.000000000000e+00 0.0 
3.500000000000e+01 -2.000000000000e+00 0.0 
3.600000000000e+01 -2.000000000000e+00 0.0 
3.700000000000e+01 -2.000000000000e+00 0.0 
3.800000000000e+01 -2.000000000000e+00 0.0 
3.900000000000e+01 -2.000000000000e+00 0.0 
4.000000000000e+01 -2.000000000000e+00 0.0 
4.100000000000e+01 -2.000000000000e+00 0.0 
4.200000000000e+01 -2.000000000000e+00 0.0 
4.300000000000e+01 -2.000000000000e+00 0.0 
4.400000000000e+01 -2.000000000000e+00 0.0 
4.500000000000e+01 -2.000000000000e+00 0.0 
4.600000000000e+01 -2.000000000000e+00 0.0 
4.700000000000e+01 -2.000000000000e+00 0.0 
4.800000000000e+01 -2.000000000000e+00 0.0 
4.900000000000e+01 -2.000000000000e+00 0.0 
2.548076923077e+01 -3.000000000000e+00 0.0 
2.646153846153e+01 -3.000000000000e+00 0.0 
2.744230769230e+01 -3.000000000000e+00 0.0 
2.842307692306e+01 -3.000000000000e+00 0.0 
2.940384615383e+01 -3.000000000000e+00 0.0 
3.038461538459e+01 -3.000000000000e+00 0.0 
3.136538461536e+01 -3.000000000000e+00 0.0 
3.234615384612e+01 -3.000000000000e+00 0.0 
3.332692307687e+01 -3.000000000000e+00 0.0 
3.430769230762e+01 -3.000000000000e+00 0.0 
3.528846153837e+01 -3.000000000000e+00 0.0 
3.626923076912e+01 -3.000000000000e+00 0.0 
3.724999999988e+01 -3.000000000000e+00 0.0 
3.823076923065e+01 -3.000000000000e+00 0.0 
3.921153846143e+01 -3.000000000000e+00 0.0 
4.019230769221e+01 -3.000000000000e+00 0.0 
4.117307692299e+01 -3.000000000000e+00 0.0 
4.215384615377e+01 -3.000000000000e+00 0.0 
4.313461538455e+01 -3.000000000000e+00 0.0 
4.411538461533e+01 -3.000000000000e+00 0.0 
4.509615384611e+01 -3.000000000000e+00 0.0 
4.607692307688e+01 -3.000000000000e+00 0.0 
4.705769230766e+01 -3.000000000000e+00 0.0 
4.803846153844e+01 -3.000000000000e+00 0.0 
4.901923076922e+01 -3.000000000000e+00 0.0 
4.900000000000e+01 -4.000000000000e+00 0.0 
4.800000000000e+01 -4.000000000000e+00 0.0 
4.700000000000e+01 -4.000000000000e+00 0.0 
4.600000000000e+01 -4.000000000000e+00 0.0 
4.500000000000e+01 -4.000000000000e+00 0.0 
4.400000000000e+01 -4.000000000000e+00 0.0 
4.300000000000e+01 -4.000000000000e+00 0.0 
4.200000000000e+01 -4.000000000000e+00 0.0 
4.100000000000e+01 -4.000000000000e+00 0.0 
4.000000000000e+01 -4.000000000000e+00 0.0 
3.900000000000e+01 -4.000000000000e+00 0.0 
3.800000000000e+01 -4.000000000000e+00 0.0 
3.700000000000e+01 -4.000000000000e+00 0.0 
3.600000000000e+01 -4.000000000000e+00 0.0 
3.500000000000e+01 -4.000000000000e+00 0.0 
3.400000000000e+01 -4.000000000000e+00 0.0 
3.300000000000e+01 -4.000000000000e+00 0.0 
3.200000000000e+01 -4.000000000000e+00 0.0 
3.100000000000e+01 -4.000000000000e+00 0.0 
3.000000000000e+01 -4.000000000000e+00 0.0 
2.900000000000e+01 -4.000000000000e+00 0.0 
2.800000000000e+01 -4.000000000000e+00 0.0 
2.700000000000e+01 -4.000000000000e+00 0.0 
2.847826086957e+01 -5.000000000000e+00 0.0 
2.945652173913e+01 -5.000000000000e+00 0.0 
3.043478260870e+01 -5.000000000000e+00 0.0 
3.141304347826e+01 -5.000000000000e+00 0.0 
3.239130434783e+01 -5.000000000000e+00 0.0 
3.336956521739e+01 -5.000000000000e+00 0.0 
3.434782608696e+01 -5.000000000000e+00 0.0 
3.532608695652e+01 -5.000000000000e+00 0.0 
3.630434782609e+01 -5.000000000000e+00 0.0 
3.728260869565e+01 -5.000000000000e+00 0.0 
3.826086956522e+01 -5.000000000000e+00 0.0 
3.923913043478e+01 -5.000000000000e+00 0.0 
4.021739130435e+01 -5.000000000000e+00 0.0 
4.119565217391e+01 -5.000000000000e+00 0.0 
4.217391304348e+01 -5.000000000000e+00 0.0 
4.315217391304e+01 -5.000000000000e+00 0.0 
4.413043478261e+01 -5.000000000000e+00 0.0 
4.510869565217e+01 -5.000000000000e+00 0.0 
4.608695652174e+01 -5.000000000000e+00 0.0 
4.706521739130e+01 -5.000000000000e+00 0.0 
4.804347826087e+01 -5.000000000000e+00 0.0 
4.902173913043e+01 -5.000000000000e+00 0.0 
4.900000000001e+01 -6.000000000000e+00 0.0 
4.800000000003e+01 -6.000000000000e+00 0.0 
4.700000000004e+01 -6.000000000000e+00 0.0 
4.600000000006e+01 -6.000000000000e+00 0.0 
4.500000000007e+01 -6.000000000000e+00 0.0 
4.400000000009e+01 -6.000000000000e+00 0.0 
4.300000000010e+01 -6.000000000000e+00 0.0 
4.200000000012e+01 -6.000000000000e+00 0.0 
4.100000000013e+01 -6.000000000000e+00 0.0 
4.000000000014e+01 -6.000000000000e+00 0.0 
3.900000000014e+01 -6.000000000000e+00 0.0 
3.800000000012e+01 -6.000000000000e+00 0.0 
3.700000000010e+01 -6.000000000000e+00 0.0 
3.600000000008e+01 -6.000000000000e+00 0.0 
3.500000000006e+01 -6.000000000000e+00 0.0 
3.400000000005e+01 -6.000000000000e+00 0.0 
3.300000000003e+01 -6.000000000000e+00 0.0 
3.200000000001e+01 -6.000000000000e+00 0.0 
3.100000000000e+01 -6.000000000000e+00 0.0 
3.000000000000e+01 -6.000000000000e+00 0.0 
3.147499999998e+01 -7.000000000000e+00 0.0 
3.244999999998e+01 -7.000000000000e+00 0.0 
3.342499999998e+01 -7.000000000000e+00 0.0 
3.439999999998e+01 -7.000000000000e+00 0.0 
3.537499999998e+01 -7.000000000000e+00 0.0 
3.634999999998e+01 -7.000000000000e+00 0.0 
3.732499999998e+01 -7.000000000000e+00 0.0 
3.829999999998e+01 -7.000000000000e+00 0.0 
3.927499999999e+01 -7.000000000000e+00 0.0 
4.024999999999e+01 -7.000000000000e+00 0.0 
4.122499999999e+01 -7.000000000000e+00 0.0 
4.219999999999e+01 -7.000000000000e+00 0.0 
4.317499999999e+01 -7.000000000000e+00 0.0 
4.414999999999e+01 -7.000000000000e+00 0.0 
4.512499999999e+01 -7.000000000000e+00 0.0 
4.609999999999e+01 -7.000000000000e+00 0.0 
4.707500000000e+01 -7.000000000000e+00 0.0 
4.805000000000e+01 -7.000000000000e+00 0.0 
4.902500000000e+01 -7.000000000000e+00 0.0 
4.900000000000e+01 -8.000000000000e+00 0.0 
4.800000000000e+01 -8.000000000000e+00 0.0 
4.700000000000e+01 -8.000000000000e+00 0.0 
4.600000000000e+01 -8.000000000000e+00 0.0 
4.500000000000e+01 -8.000000000000e+00 0.0 
4.400000000000e+01 -8.000000000000e+00 0.0 
4.300000000000e+01 -8.000000000000e+00 0.0 
4.200000000000e+01 -8.000000000000e+00 0.0 
4.100000000000e+01 -8.000000000000e+00 0.0 
4.000000000000e+01 -8.000000000000e+00 0.0 
3.900000000000e+01 -8.000000000000e+00 0.0 
3.800000000000e+01 -8.000000000000e+00 0.0 
3.700000000000e+01 -8.000000000000e+00 0.0 
3.600000000000e+01 -8.000000000000e+00 0.0 
3.500000000000e+01 -8.000000000000e+00 0.0 
3.400000000000e+01 -8.000000000000e+00 0.0 
3.300000000000e+01 -8.000000000000e+00 0.0 
3.447058823527e+01 -9.000000000000e+00 0.0 
3.544117647055e+01 -9.000000000000e+00 0.0 
3.641176470582e+01 -9.000000000000e+00 0.0 
3.738235294109e+01 -9.000000000000e+00 0.0 
3.835294117637e+01 -9.000000000000e+00 0.0 
3.932352941164e+01 -9.000000000000e+00 0.0 
4.029411764691e+01 -9.000000000000e+00 0.0 
4.126470588219e+01 -9.000000000000e+00 0.0 
4.223529411748e+01 -9.000000000000e+00 0.0 
4.320588235279e+01 -9.000000000000e+00 0.0 
4.417647058811e+01 -9.000000000000e+00 0.0 
4.514705882342e+01 -9.000000000000e+00 0.0 
4.611764705874e+01 -9.000000000000e+00 0.0 
4.708823529405e+01 -9.000000000000e+00 0.0 
4.805882352937e+01 -9.000000000000e+00 0.0 
4.902941176468e+01 -9.000000000000e+00 0.0 
2.075000000000e+01 -5.000000000006e-01 0.0 
2.225000000000e+01 -1.500000000000e+00 0.0 
2.375000000000e+01 -2.500000000000e+00 0.0 
2.525000000000e+01 -3.500000000000e+00 0.0 
2.675000000000e+01 -4.500000000000e+00 0.0 
2.825000000000e+01 -5.500000000000e+00 0.0 
2.975000000000e+01 -6.500000000000e+00 0.0 
3.125000000000e+01 -7.500000000000e+00 0.0 
3.275000000000e+01 -8.500000000000e+00 0.0 
3.425000000000e+01 -9.500000000000e+00 0.0 
2.226951693683e+01 -2.403913980114e+00 0.0 
1.650149491944e+01 -1.913490915758e+01 0.0 
1.050042386896e+01 -8.504605092970e-01 0.0 
1.553146524712e+01 -8.281255032105e-01 0.0 
1.150000000008e+01 -1.913397459621e+01 0.0 
2.530060260647e+01 -4.428336431260e+00 0.0 
8.651114563942e-01 -1.052096295641e+01 0.0 
2.050000000013e+01 -1.913397459622e+01 0.0 
2.819198729811e+01 -6.399519052838e+00 0.0 
2.445670302931e+01 -1.915649188023e+01 0.0 
3.117591465718e+01 -8.394293040695e+00 0.0 
7.465053044742e+00 -1.920411160581e+01 0.0 
6.398295709691e+00 -8.230098819370e-01 0.0 
2.849659607461e+01 -1.914296187762e+01 0.0 
3.418732642882e+01 -1.040265792588e+01 0.0 
8.386450935063e-01 -6.533605142809e+00 0.0 
9.178661865596e-01 -1.329769195597e+01 0.0 
3.149448624493e+01 -1.910466733764e+01 0.0 
3.552916747426e+01 -1.914628590759e+01 0.0 
4.449210346537e+01 -1.914359085008e+01 0.0 
4.140975975145e+01 -1.906941860733e+01 0.0 
3.847475958753e+01 -1.916622382724e+01 0.0 
3.653774794640e+01 -1.088712800241e+01 0.0 
4.047886341787e+01 -1.090139014048e+01 0.0 
4.348006339825e+01 -1.092792621489e+01 0.0 
4.919519968029e+01 -1.451526755068e+01 0.0 
4.500000000032e+00 -1.913397459621e+01 0.0 
1.856136921614e+01 -8.212235170404e-01 0.0 
3.499895312306e+00 -8.661165539723e-01 0.0 
9.076088696565e-01 -1.642306201891e+01 0.0 
4.655174095477e+01 -1.086183387525e+01 0.0 
9.430688970604e-01 -3.496112672958e+00 0.0 
3.353992337063e+01 -1.901202090820e+01 0.0 
2.249746016977e+01 -1.921262287282e+01 0.0 
2.650122741777e+01 -1.916123026018e+01 0.0 
1.863571384842e+01 -1.908325534840e+01 0.0 
1.450089971693e+01 -1.917691901860e+01 0.0 
1.350044695317e+01 -8.659695299584e-01 0.0 
3.849987469880e+01 -1.084154983397e+01 0.0 
9.454419857884e+00 -1.900818879936e+01 0.0 
4.917398660523e+01 -1.645692866081e+01 0.0 
8.500000000000e+00 -8.660254037844e-01 0.0 
8.660319230785e-01 -8.500111697188e+00 0.0 
4.649022621545e+01 -1.930506220113e+01 0.0 
2.667688107845e+01 -5.420288124331e+00 0.0 
2.379251615665e+01 -3.412225477429e+00 0.0 
2.966631491830e+01 -7.389030232731e+00 0.0 
3.267915035995e+01 -9.396934932445e+00 0.0 
2.074836922338e+01 -1.320054020319e+00 0.0 
4.915985743621e+01 -1.261973384855e+01 0.0 
2.527129768623e+00 -1.931592414663e+01 0.0 
1.538676247410e+00 -8.436956619311e-01 0.0 
4.908096641539e+01 -1.842484004551e+01 0.0 
3.478612492673e+01 -1.090889364140e+01 0.0 
3.409757055860e+01 -1.131991530427e+01 0.0 
3.501895309466e+01 -1.177687842717e+01 0.0 
3.407758073088e+01 -1.224293381580e+01 0.0 
3.484541875390e+01 -1.277051428430e+01 0.0 
3.400322025842e+01 -1.319022775640e+01 0.0 
3.321672625034e+01 -1.266779191233e+01 0.0 
3.315244139236e+01 -1.360984106532e+01 0.0 
3.236335186892e+01 -1.308463225210e+01 0.0 
3.478337442841e+01 -1.372341158982e+01 0.0 
3.230105923633e+01 -1.403023731610e+01 0.0 
3.150954055289e+01 -1.350301767700e+01 0.0 
3.144604792090e+01 -1.444931742516e+01 0.0 
3.065653897123e+01 -1.392357262981e+01 0.0 
3.071897610812e+01 -1.297447031198e+01 0.0 
2.986790411740e+01 -1.339226181535e+01 0.0 
2.993181466745e+01 -1.244703272398e+01 0.0 
2.908023061869e+01 -1.286254537734e+01 0.0 
2.901619051372e+01 -1.380881655279e+01 0.0 
2.822986160390e+01 -1.327695262116e+01 0.0 
2.829453476870e+01 -1.233265343811e+01 0.0 
2.744542905518e+01 -1.274510491105e+01 0.0 
2.751120089246e+01 -1.180368086886e+01 0.0 
2.666218649885e+01 -1.221619339205e+01 0.0 
2.672371209234e+01 -1.127125228527e+01 0.0 
2.587763216302e+01 -1.168539979114e+01 0.0 
2.581165585299e+01 -1.262994410089e+01 0.0 
2.502890882577e+01 -1.209827323619e+01 0.0 
2.509631327757e+01 -1.115492410304e+01 0.0 
2.424662989877e+01 -1.156630981079e+01 0.0 
2.431704046904e+01 -1.062389179334e+01 0.0 
2.346445438728e+01 -1.103427680694e+01 0.0 
2.339382552877e+01 -1.197964871788e+01 0.0 
2.260936050780e+01 -1.144513277642e+01 0.0 
2.268075012022e+01 -1.049911928216e+01 0.0 
2.182525737661e+01 -1.090920811464e+01 0.0 
2.189682319817e+01 -9.961716944568e+00 0.0 
2.104174127792e+01 -1.037266986667e+01 0.0 
2.111304367575e+01 -9.424179358711e+00 0.0 
2.025306185381e+01 -9.832727364719e+00 0.0 
2.018141124247e+01 -1.079140628871e+01 0.0 
1.938594498257e+01 -1.025147354112e+01 0.0 
1.946106490453e+01 -9.288010758448e+00 0.0 
1.858929958352e+01 -9.706319802516e+00 0.0 
1.851540991219e+01 -1.067205988724e+01 0.0 
1.771485303178e+01 -1.012504443115e+01 0.0 
1.764134552256e+01 -1.109360378538e+01 0.0 
1.683745148095e+01 -1.054496365337e+01 0.0 
1.691852964353e+01 -9.582555261178e+00 0.0 
1.603603813062e+01 -1.000160132379e+01 0.0 
1.595824239350e+01 -1.096750698862e+01 0.0 
1.515080624291e+01 -1.041639501931e+01 0.0 
1.523171602559e+01 -9.451711491453e+00 0.0 
1.434621060709e+01 -9.871956467464e+00 0.0 
1.426777178765e+01 -1.083749501371e+01 0.0 
1.345775282374e+01 -1.028803175500e+01 0.0 
1.354103873368e+01 -9.324918457162e+00 0.0 
1.265072018622e+01 -9.742612837270e+00 0.0 
1.257285762070e+01 -1.071557782384e+01 0.0 
1.175874815690e+01 -1.015972324288e+01 0.0 
1.184203019714e+01 -9.193604071377e+00 0.0 
1.094927709905e+01 -9.612103238656e+00 0.0 
1.086938022910e+01 -1.058685085646e+01 0.0 
1.005424098961e+01 -1.002939116380e+01 0.0 
9.977974613295e+00 -1.101324897989e+01 0.0 
1.012915646404e+01 -9.051815821181e+00 0.0 
9.237127782494e+00 -9.471239055559e+00 0.0 
9.308426593771e+00 -8.483376461131e+00 0.0 
8.418806073345e+00 -8.910712374517e+00 0.0 
2.253688464062e+01 -1.239459402279e+01 0.0 
8.495126726666e+00 -7.921646665254e+00 0.0 
9.389727383206e+00 -7.512103628377e+00 0.0 
7.601560812974e+00 -8.349460349344e+00 0.0 
7.525680547759e+00 -9.339736686940e+00 0.0 
7.677888324502e+00 -7.359727833346e+00 0.0 
6.782001206724e+00 -7.788454494773e+00 0.0 
6.858778622885e+00 -6.797338062822e+00 0.0 
2.196596590865e+01 -8.979025665442e+00 0.0 
2.816540108272e+01 -1.422634142353e+01 0.0 
5.961601194403e+00 -7.226824010712e+00 0.0 
6.038171749656e+00 -6.234825887079e+00 0.0 
6.936257279557e+00 -5.805287640737e+00 0.0 
6.115068918323e+00 -5.242109758768e+00 0.0 
3.564391741903e+01 -1.329240553876e+01 0.0 
3.558115605778e+01 -1.425902892003e+01 0.0 
3.645445282201e+01 -1.381970786460e+01 0.0 
3.639744204358e+01 -1.479198128612e+01 0.0 
3.727266909778e+01 -1.435399586226e+01 0.0 
5.216667013081e+00 -5.671788584287e+00 0.0 
3.220697293295e+01 -1.499594545107e+01 0.0 
3.551112158269e+01 -1.523479869250e+01 0.0 
2.836056961467e+01 -1.139032434851e+01 0.0 
2.516730388602e+01 -1.021382726837e+01 0.0 
1.844436907403e+01 -1.164097215196e+01 0.0 
5.885434318740e+00 -8.218694781467e+00 0.0 
5.064071066867e+00 -7.656614643901e+00 0.0 
4.988089103470e+00 -8.649722082718e+00 0.0 
1.079421050408e+01 -1.157014985435e+01 0.0 
9.902420005256e+00 -1.199903342656e+01 0.0 
1.071994252214e+01 -1.255727909771e+01 0.0 
9.826974788171e+00 -1.298659581767e+01 0.0 
1.064607883789e+01 -1.354595476388e+01 0.0 
9.751541265343e+00 -1.397556905071e+01 0.0 
8.932296185869e+00 -1.341553353988e+01 0.0 
8.856399248106e+00 -1.440570715508e+01 0.0 
8.036186803543e+00 -1.384470558472e+01 0.0 
1.057112875118e+01 -1.453516759081e+01 0.0 
1.146582585687e+01 -1.410539926903e+01 0.0 
7.959894480382e+00 -1.483563350928e+01 0.0 
7.138792279156e+00 -1.427465094140e+01 0.0 
7.062506792418e+00 -1.526615385482e+01 0.0 
6.240693558277e+00 -1.470508863040e+01 0.0 
6.316957575451e+00 -1.371212581281e+01 0.0 
5.418183007107e+00 -1.414253605022e+01 0.0 
5.494748364428e+00 -1.314886770603e+01 0.0 
1.756825565873e+01 -1.206433872514e+01 0.0 
1.837565773345e+01 -1.261356468266e+01 0.0 
1.749574831391e+01 -1.303769280014e+01 0.0 
1.830539187332e+01 -1.358828364284e+01 0.0 
1.742278925170e+01 -1.401367746928e+01 0.0 
1.823303007798e+01 -1.456432294258e+01 0.0 
1.734941694138e+01 -1.499213734361e+01 0.0 
1.653760041637e+01 -1.443920312098e+01 0.0 
3.056237977307e+01 -1.487132260174e+01 0.0 
1.866469084762e+01 -8.742953000418e+00 0.0 
1.953669694916e+01 -8.326038909849e+00 0.0 
1.874194303780e+01 -7.780688158966e+00 0.0 
1.961032016741e+01 -7.366854697285e+00 0.0 
1.881715755159e+01 -6.821102209649e+00 0.0 
1.968369797150e+01 -6.407747217358e+00 0.0 
1.889237123259e+01 -5.858375520026e+00 0.0 
1.802038875366e+01 -6.276202618170e+00 0.0 
1.809793837984e+01 -5.307629520489e+00 0.0 
1.721985207997e+01 -5.728242054488e+00 0.0 
1.729850893523e+01 -4.756990819347e+00 0.0 
1.641745664240e+01 -5.174636548624e+00 0.0 
2.495978509456e+01 -1.304406404294e+01 0.0 
1.911567814831e+01 -1.413854250293e+01 0.0 
1.904387332608e+01 -1.511463127723e+01 0.0 
1.992115934240e+01 -1.468788025898e+01 0.0 
7.013706899628e+00 -4.812582868662e+00 0.0 
5.342091874585e+00 -1.513658157269e+01 0.0 
1.139098043784e+01 -1.509488509480e+01 0.0 
1.228151810610e+01 -1.465617481983e+01 0.0 
1.646373110164e+01 -1.541993323337e+01 0.0 
5.293328636712e+00 -4.678385108584e+00 0.0 
1.975965862987e+01 -5.448124345648e+00 0.0 
2.054318374236e+01 -5.992561293251e+00 0.0 
3.721453439063e+01 -1.533216152738e+01 0.0 
3.809302733893e+01 -1.489235527381e+01 0.0 
1.220852788900e+01 -1.565304565230e+01 0.0 
4.394120899730e+00 -5.108397613210e+00 0.0 
8.779354620288e+00 -1.539524721159e+01 0.0 
1.817791047702e+01 -4.338570146253e+00 0.0 
4.518860013839e+00 -1.457343189307e+01 0.0 
4.442712140414e+00 -1.556841391069e+01 0.0 
8.115343466391e+00 -1.285760324283e+01 0.0 
1.985334703171e+01 -1.566478400426e+01 0.0 
2.071953850276e+01 -1.522074243119e+01 0.0 
1.634012953883e+01 -6.154777738301e+00 0.0 
1.553479994708e+01 -5.593730508879e+00 0.0 
1.561265946942e+01 -4.617761762647e+00 0.0 
1.470674212978e+01 -5.064576488228e+00 0.0 
1.464498299883e+01 -6.026514471420e+00 0.0 
1.383271561817e+01 -5.467796261169e+00 0.0 
1.389241253067e+01 -4.504338666645e+00 0.0 
1.301868735463e+01 -4.907185188626e+00 0.0 
1.294514184846e+01 -5.888160903592e+00 0.0 
1.212955968622e+01 -5.328262335277e+00 0.0 
1.220721122383e+01 -4.341264976687e+00 0.0 
1.131324345897e+01 -4.766773516508e+00 0.0 
5.266597955397e+00 -1.613148974258e+01 0.0 
1.737805990867e+01 -3.786677807525e+00 0.0 
3.078438094513e+01 -1.203225297748e+01 0.0 
1.131569882285e+01 -1.608511932110e+01 0.0 
1.728478341782e+01 -1.596017432313e+01 0.0 
3.803465906019e+01 -1.587509751228e+01 0.0 
3.891681276677e+01 -1.543395196905e+01 0.0 
3.897340985302e+01 -1.444710288980e+01 0.0 
3.980095968193e+01 -1.499059496613e+01 0.0 
3.974334598189e+01 -1.597921884150e+01 0.0 
4.062964983717e+01 -1.553518690417e+01 0.0 
4.068729602479e+01 -1.454434445295e+01 0.0 
4.151772679790e+01 -1.508974196007e+01 0.0 
4.157505195739e+01 -1.409694289912e+01 0.0 
4.240699932656e+01 -1.464347955968e+01 0.0 
4.234898051011e+01 -1.563721375790e+01 0.0 
4.323934606035e+01 -1.519082036405e+01 0.0 
4.329740528208e+01 -1.419587509788e+01 0.0 
4.413056841369e+01 -1.474359631875e+01 0.0 
4.418850110108e+01 -1.374786684042e+01 0.0 
4.502219770667e+01 -1.429605103525e+01 0.0 
4.496411937907e+01 -1.529215882720e+01 0.0 
4.490027319897e+00 -4.154167794594e+00 0.0 
1.565080385988e+01 -1.486411982419e+01 0.0 
1.557610691279e+01 -1.584855627870e+01 0.0 
4.195350646612e+00 -8.089117689096e+00 0.0 
4.124027797830e+00 -9.082831955007e+00 0.0 
4.917944318925e+00 -9.643530901533e+00 0.0 
4.020105689502e+00 -1.007439673661e+01 0.0 
4.587185899277e+01 -1.484039992728e+01 0.0 
4.580078661551e+01 -1.584043391042e+01 0.0 
2.061956522375e+01 -5.046701343981e+00 0.0 
2.139572955529e+01 -5.579553449826e+00 0.0 
3.715344357292e+01 -1.631485124583e+01 0.0 
3.618886196443e+00 -1.500471207167e+01 0.0 
3.695606940204e+00 -1.400939692294e+01 0.0 
2.438890661143e+01 -9.686110599723e+00 0.0 
2.523267572778e+01 -9.276766000622e+00 0.0 
2.446094171539e+01 -8.751904591412e+00 0.0 
2.529089822738e+01 -8.321495612547e+00 0.0 
2.606882688827e+01 -8.864724051119e+00 0.0 
2.452116646430e+01 -7.792756462004e+00 0.0 
1.235543269617e+01 -1.365845617339e+01 0.0 
4.318116874181e+01 -1.618567469992e+01 0.0 
7.835066111909e+00 -5.376366223896e+00 0.0 
7.905687335704e+00 -4.382539065697e+00 0.0 
3.542640009567e+00 -1.600035116542e+01 0.0 
1.572431503071e+01 -1.388358386695e+01 0.0 
2.574684696680e+01 -1.357896141127e+01 0.0 
2.488842657651e+01 -1.399674354505e+01 0.0 
2.568301775611e+01 -1.453552048595e+01 0.0 
2.481535572009e+01 -1.495542756508e+01 0.0 
2.561729699688e+01 -1.549784648532e+01 0.0 
2.474623061296e+01 -1.592058894178e+01 0.0 
2.394234041695e+01 -1.537572575827e+01 0.0 
2.065825452567e+01 -1.621899055217e+01 0.0 
2.387180528935e+01 -1.634552264687e+01 0.0 
4.585364400844e+01 -1.383912334080e+01 0.0 
1.998744432052e+01 -1.370317155541e+01 0.0 
1.205356951443e+01 -6.313580285498e+00 0.0 
5.396543905849e+00 -3.731818611283e+00 0.0 
1.139652573295e+01 -3.745819399350e+00 0.0 
3.574124306703e+00 -4.551456826011e+00 0.0 
3.494140761930e+00 -5.539787055649e+00 0.0 
1.213651452413e+01 -1.664505033022e+01 0.0 
2.555045568519e+01 -1.646529356744e+01 0.0 
2.641671114986e+01 -1.603899382371e+01 0.0 
2.612920721894e+01 -7.906435260873e+00 0.0 
2.690339829698e+01 -8.456969591431e+00 0.0 
1.978024383368e+01 -1.664410216353e+01 0.0 
3.732829979082e+01 -1.336926601859e+01 0.0 
4.074336584605e+01 -1.355133328401e+01 0.0 
4.163204691081e+01 -1.310280943992e+01 0.0 
3.773826114429e+00 -3.493444309145e+00 0.0 
1.228783001032e+01 -3.374822835872e+00 0.0 
4.057110462520e+01 -1.652588478000e+01 0.0 
2.132535497898e+01 -6.523623360525e+00 0.0 
2.216932532211e+01 -6.110044769206e+00 0.0 
1.825781152128e+01 -3.370146817147e+00 0.0 
1.745679445888e+01 -2.812942552063e+00 0.0 
4.666517057280e+01 -1.539981381543e+01 0.0 
4.660575894464e+01 -1.639014410186e+01 0.0 
4.838230979954e+00 -1.063643436446e+01 0.0 
3.938942630206e+00 -1.106778981745e+01 0.0 
1.302967218620e+01 -1.621373452436e+01 0.0 
1.049548003190e+01 -4.204825123240e+00 0.0 
4.573571907195e+01 -1.683820511148e+01 0.0 
1.483686335807e+01 -1.430849689310e+01 0.0 
1.490982658890e+01 -1.332679386284e+01 0.0 
3.190805600162e+00 -9.510968358545e+00 0.0 
2.146625721848e+01 -4.642437303115e+00 0.0 
2.069866208266e+01 -4.111852942193e+00 0.0 
1.286859345584e+01 -6.873252723348e+00 0.0 
1.041794493184e+01 -5.194814260291e+00 0.0 
2.671081808965e+00 -4.976806516331e+00 0.0 
1.295786792925e+01 -1.720506531799e+01 0.0 
3.968438206511e+01 -1.696869067241e+01 0.0 
2.308550456051e+01 -1.579963151273e+01 0.0 
2.315593682844e+01 -1.482967445235e+01 0.0 
2.299471449450e+01 -1.677069968132e+01 0.0 
1.057344714696e+01 -3.214252277840e+00 0.0 
1.124057603753e+01 -1.707713739755e+01 0.0 
2.718402535754e+00 -1.543629882103e+01 0.0 
2.638549692805e+01 -1.696744916809e+01 0.0 
2.723416349007e+01 -1.658104204545e+01 0.0 
2.210193351704e+01 -7.046769643417e+00 0.0 
2.295180925161e+01 -6.657397605239e+00 0.0 
2.301355235833e+01 -5.709111896800e+00 0.0 
2.379052718281e+01 -6.254965406962e+00 0.0 
3.243528601237e+01 -1.214181853533e+01 0.0 
2.287977995457e+01 -7.583722368300e+00 0.0 
2.999876029544e+01 -1.150837653096e+01 0.0 
3.084435366963e+01 -1.109693775882e+01 0.0 
3.006650579669e+01 -1.057778994262e+01 0.0 
2.683802665066e+01 -9.386863216633e+00 0.0 
2.768641973621e+01 -8.988883915666e+00 0.0 
2.040296980397e+01 -7.903629133404e+00 0.0 
1.925235024054e+01 -1.218872783130e+01 0.0 
5.735667000424e+00 -1.020577277283e+01 0.0 
6.396559909872e+00 -1.272326295703e+01 0.0 
1.161199420714e+01 -1.212812778229e+01 0.0 
4.229046132615e+01 -1.663084237572e+01 0.0 
4.312275399692e+01 -1.718087491556e+01 0.0 
4.335502068163e+01 -1.320039231514e+01 0.0 
4.424630298089e+01 -1.275160688731e+01 0.0 
7.090116643816e+00 -3.818998061530e+00 0.0 
7.989472176569e+00 -3.389238711200e+00 0.0 
9.085824861778e+00 -1.144036167408e+01 0.0 
1.041972423731e+01 -1.651614080893e+01 0.0 
3.797525112640e+01 -1.686052038746e+01 0.0 
3.709114253394e+01 -1.730125999865e+01 0.0 
3.626966748340e+01 -1.675477052919e+01 0.0 
1.385164591440e+01 -1.677597757552e+01 0.0 
1.787152588784e+01 -8.198993896093e+00 0.0 
1.668849729812e+01 -1.248560611628e+01 0.0 
1.659546177905e+01 -3.232482605530e+00 0.0 
2.332214717345e+01 -1.292598167641e+01 0.0 
7.168238450786e+00 -2.824711686516e+00 0.0 
2.894878403906e+01 -1.475427524446e+01 0.0 
2.646763248247e+00 -1.643270107952e+01 0.0 
3.467431944285e+00 -1.699648837348e+01 0.0 
2.059475877282e+01 -1.719473628526e+01 0.0 
3.333868355437e+01 -1.080596971682e+01 0.0 
2.246451062637e+01 -1.334557761546e+01 0.0 
2.167821896388e+01 -1.280847834858e+01 0.0 
3.089653185767e+01 -1.017198487212e+01 0.0 
3.012604365669e+01 -9.657298805968e+00 0.0 
2.929627299435e+01 -1.006100135274e+01 0.0 
2.936201435219e+01 -9.136748899251e+00 0.0 
1.198219052702e+01 -7.291887238230e+00 0.0 
1.116702076035e+01 -6.731976101053e+00 0.0 
2.551388807505e+01 -1.746927036981e+01 0.0 
2.378639090370e+01 -1.728678807149e+01 0.0 
2.718543627188e+01 -1.748668016909e+01 0.0 
2.804681050301e+01 -1.712626668293e+01 0.0 
1.970737034667e+01 -1.762317646822e+01 0.0 
1.889535776135e+01 -1.707158098231e+01 0.0 
2.593777711283e+00 -5.971157087874e+00 0.0 
2.773468281110e+01 -8.067164273938e+00 0.0 
4.051205884347e+01 -1.751819982458e+01 0.0 
3.166903145421e+01 -1.068032992414e+01 0.0 
1.033042452886e+01 -1.748285844336e+01 0.0 
9.519274604626e+00 -1.694349240233e+01 0.0 
1.668308673328e+01 -2.255861778986e+00 0.0 
1.570531902832e+01 -2.676795860126e+00 0.0 
4.655826903379e+01 -1.736656245706e+01 0.0 
2.384148070773e+01 -5.328744256413e+00 0.0 
2.460255123641e+01 -5.852182672816e+00 0.0 
2.306638135119e+01 -4.798935440613e+00 0.0 
8.467720450578e-01 -1.849576263072e+01 0.0 
4.849657322345e+01 -1.084860705506e+01 0.0 
2.565860899507e+00 -1.742859793981e+01 0.0 
2.764418872564e+01 -9.927142821799e+00 0.0 
4.565165880064e+01 -1.785336695404e+01 0.0 
2.162231831329e+01 -1.376528337468e+01 0.0 
2.360646352969e+01 -9.136041963102e+00 0.0 
1.392738739903e+01 -1.578285505772e+01 0.0 
4.756405947478e+01 -1.683706841809e+01 0.0 
4.740895034054e+01 -1.793766756892e+01 0.0 
4.080779328826e+01 -1.257387192544e+01 0.0 
4.168907939671e+01 -1.210739129181e+01 0.0 
3.991197722154e+01 -1.300815793917e+01 0.0 
1.905536506762e+01 -3.940076697685e+00 0.0 
1.923879596617e+01 -2.875000734166e+00 0.0 
4.401386745746e+01 -1.673483229438e+01 0.0 
4.247233362525e+00 -7.094581653070e+00 0.0 
3.286051630211e+00 -7.635300020553e+00 0.0 
9.609533347623e+00 -4.594311677967e+00 0.0 
9.523554636369e+00 -5.595597029530e+00 0.0 
5.660336628893e+00 -1.119290329628e+01 0.0 
6.558070063295e+00 -1.076385809362e+01 0.0 
2.809866407414e+01 -1.518037766799e+01 0.0 
2.888868674504e+01 -1.570360690070e+01 0.0 
2.654431550819e+01 -1.411217777162e+01 0.0 
1.402158265969e+01 -1.375404617952e+01 0.0 
1.409592494026e+01 -1.277071998942e+01 0.0 
1.499355196178e+01 -1.235270737023e+01 0.0 
4.221535326155e+01 -1.759335617494e+01 0.0 
4.305583287033e+01 -1.822663146802e+01 0.0 
1.280748808359e+01 -7.834332838285e+00 0.0 
1.368988389326e+01 -7.420529606172e+00 0.0 
1.110091796060e+01 -7.683966794328e+00 0.0 
3.963446145980e+01 -1.794331310122e+01 0.0 
3.423932362213e+00 -1.796415590455e+01 0.0 
4.280814572302e+00 -1.752272834860e+01 0.0 
8.050136380041e+00 -2.421582378631e+00 0.0 
8.888674091650e+00 -2.984264211327e+00 0.0 
2.152839430898e+01 -3.732609965436e+00 0.0 
2.077799585292e+01 -3.183896021866e+00 0.0 
3.618719395821e+01 -1.770276572576e+01 0.0 
3.538165138340e+01 -1.718709995539e+01 0.0 
3.702925326420e+01 -1.828844288807e+01 0.0 
1.756739438711e+00 -5.353284859169e+00 0.0 
2.233710191104e+01 -1.527265621324e+01 0.0 
1.389483555057e+01 -1.771797164730e+01 0.0 
1.475634224300e+01 -1.728357428390e+01 0.0 
1.298797563052e+01 -1.825968924755e+01 0.0 
2.145331271866e+01 -1.673705379077e+01 0.0 
2.133282821169e+01 -1.769400773673e+01 0.0 
2.292139194136e+01 -1.774915400288e+01 0.0 
1.750750053243e+01 -1.861475593469e+00 0.0 
4.830478841772e+01 -1.752611802221e+01 0.0 
4.341203507805e+01 -1.220326745522e+01 0.0 
1.685254151866e+01 -1.443085301632e+00 0.0 
4.431538535165e+01 -1.171841387375e+01 0.0 
4.511308610496e+01 -1.229557320599e+01 0.0 
4.510133242889e+01 -1.123680627466e+01 0.0 
1.846818030617e+00 -4.410877617069e+00 0.0 
3.995468694584e+01 -1.186571542989e+01 0.0 
3.901387459804e+01 -1.242507616755e+01 0.0 
8.966735877533e+00 -1.837818700423e+00 0.0 
4.049310011091e+01 -1.848269508791e+01 0.0 
7.278862053803e+00 -1.918523922691e+00 0.0 
6.429715522129e+00 -2.316676521184e+00 0.0 
9.443505505022e+00 -1.792198868094e+01 0.0 
8.620386951051e+00 -1.737590365556e+01 0.0 
8.571868171503e+00 -1.834436667826e+01 0.0 
7.758629848526e+00 -1.775677907213e+01 0.0 
7.806648388584e+00 -1.680761266021e+01 0.0 
6.908555145436e+00 -1.723746463044e+01 0.0 
4.251709122090e+01 -1.156937480156e+01 0.0 
6.931136405615e+00 -1.832465719263e+01 0.0 
6.015545461353e+00 -1.768865355295e+01 0.0 
5.960535926343e+00 -1.872011001764e+01 0.0 
3.023253444786e+01 -8.761960642196e+00 0.0 
2.454622702599e+01 -6.749421992767e+00 0.0 
2.537499741604e+01 -6.347634963783e+00 0.0 
2.544077378460e+01 -5.431358513649e+00 0.0 
2.801367161747e+01 -1.820907270221e+01 0.0 
2.884507806914e+01 -1.762032095326e+01 0.0 
1.821474531936e+00 -1.588901260460e+01 0.0 
1.821006262604e+00 -1.489370287756e+01 0.0 
4.599962488908e+01 -1.176478780598e+01 0.0 
4.705457470007e+01 -1.172182804229e+01 0.0 
4.667668314802e+01 -1.263464558483e+01 0.0 
4.759648056504e+01 -1.252380987933e+01 0.0 
4.728041618103e+01 -1.341928568376e+01 0.0 
4.825209352360e+01 -1.330491640804e+01 0.0 
4.778118233428e+01 -1.420151961695e+01 0.0 
2.388192727579e+01 -1.826934810142e+01 0.0 
2.381714684947e+01 -4.385917965223e+00 0.0 
3.172733219247e+01 -9.758744265248e+00 0.0 
1.882012070658e+01 -1.805540597212e+01 0.0 
1.805667505243e+01 -1.742221226236e+01 0.0 
2.852599958080e+01 -8.597196079481e+00 0.0 
2.856486123437e+01 -7.661382718527e+00 0.0 
1.111792842875e+01 -1.818223852980e+01 0.0 
2.203322722466e+01 -7.986646678802e+00 0.0 
3.955703676900e+01 -1.903246763601e+01 0.0 
1.944842206513e+01 -8.038750575182e-01 0.0 
1.909882767783e+01 -1.746322740933e+00 0.0 
2.281147422941e+01 -8.525912918334e+00 0.0 
2.850633001468e+01 -9.533271335986e+00 0.0 
2.532883344309e+01 -7.308951659710e+00 0.0 
2.620475466461e+01 -6.979208585400e+00 0.0 
1.396278270396e+01 -1.475095389807e+01 0.0 
9.791001166724e+00 -2.554159793552e+00 0.0 
2.229293380421e+01 -4.269762271052e+00 0.0 
4.677238984118e+01 -1.430071795514e+01 0.0 
2.228658385918e+01 -3.344747535984e+00 0.0 
8.940223674553e-01 -1.543595733415e+01 0.0 
2.118566862474e+01 -8.435876987696e+00 0.0 
2.678325936437e+01 -1.032621195706e+01 0.0 
2.223400220487e+01 -5.179046761770e+00 0.0 
2.375370625384e+01 -7.251580562134e+00 0.0 
3.156971327386e+01 -1.255534750737e+01 0.0 
3.328226391312e+01 -1.172914813316e+01 0.0 
3.250948774219e+01 -1.120157009348e+01 0.0 
2.032993445717e+01 -8.867880112202e+00 0.0 
2.697226974856e+01 -7.536633082045e+00 0.0 
2.707377810386e+01 -6.590835263295e+00 0.0 
2.914099246827e+01 -1.191678458549e+01 0.0 
3.544824072239e+01 -1.621126558525e+01 0.0 
3.456511855436e+01 -1.665054783843e+01 0.0 
3.448395810225e+01 -1.759117813016e+01 0.0 
3.368378673938e+01 -1.708037781328e+01 0.0 
3.375560452567e+01 -1.610973066913e+01 0.0 
3.288001547988e+01 -1.654324255651e+01 0.0 
3.282475929147e+01 -1.749725654692e+01 0.0 
3.199880906313e+01 -1.697294088625e+01 0.0 
3.197001272932e+01 -1.811667776864e+01 0.0 
3.111884713021e+01 -1.742166785755e+01 0.0 
3.120418962865e+01 -1.642155709385e+01 0.0 
3.034666704371e+01 -1.683123833816e+01 0.0 
3.026224379976e+01 -1.772592851714e+01 0.0 
3.046632362943e+01 -1.582232843075e+01 0.0 
1.961344017324e+01 -1.857459447985e+01 0.0 
2.274975894774e+01 -9.532738811922e+00 0.0 
1.833923246887e+01 -2.396746883672e+00 0.0 
1.988859500848e+01 -2.249244376594e+00 0.0 
2.758045562861e+01 -1.086434261689e+01 0.0 
3.247300178163e+01 -1.909930104252e+01 0.0 
3.461947482503e+01 -1.911879848019e+01 0.0 
2.047161538662e+01 -6.941478180358e+00 0.0 
2.750230940214e+01 -1.915490590764e+01 0.0 
3.165081350803e+01 -1.161860780120e+01 0.0 
1.897456727641e+01 -4.889634688522e+00 0.0 
2.549338539756e+01 -1.914858252089e+01 0.0 
3.462873135081e+01 -1.567482276144e+01 0.0 
3.384432415243e+01 -1.512280684518e+01 0.0 
3.471433767690e+01 -1.469086942990e+01 0.0 
3.651470373046e+01 -1.918207952149e+01 0.0 
3.901742690249e+01 -1.345028556517e+01 0.0 
2.153224102692e+01 -1.920169709333e+01 0.0 
1.918382939341e+01 -1.316226275662e+01 0.0 
2.005389162382e+01 -1.271962165174e+01 0.0 
2.011472087878e+01 -1.175029352900e+01 0.0 
3.210679478412e+01 -1.598038618242e+01 0.0 
1.752175226543e+01 -1.914713022656e+01 0.0 
1.696897240059e+01 -1.832772588765e+01 0.0 
1.599682523337e+01 -1.832599992024e+01 0.0 
1.644507199462e+01 -1.743697981535e+01 0.0 
1.549987712903e+01 -1.915192375101e+01 0.0 
3.050250861901e+01 -1.918943550234e+01 0.0 
2.949944061527e+01 -1.922950455235e+01 0.0 
1.375892575273e+01 -6.447160534926e+00 0.0 
1.457223670180e+01 -7.006709243857e+00 0.0 
1.450818793236e+01 -7.965943451779e+00 0.0 
1.538804712402e+01 -7.553409623699e+00 0.0 
1.545817644768e+01 -6.580929593419e+00 0.0 
1.626506893751e+01 -7.129032608911e+00 0.0 
1.619833811522e+01 -8.086588580887e+00 0.0 
1.714448609609e+01 -6.697429609777e+00 0.0 
2.887616543568e+01 -1.668015232137e+01 0.0 
1.349814589130e+01 -1.918225301544e+01 0.0 
1.153887772210e+01 -1.311384581217e+01 0.0 
1.242708159886e+01 -1.267046795531e+01 0.0 
1.249799674267e+01 -1.169005616014e+01 0.0 
6.631723893693e+00 -9.774184881867e+00 0.0 
7.451471631867e+00 -1.033148796006e+01 0.0 
7.377795355458e+00 -1.132196345268e+01 0.0 
5.810931797536e+00 -9.211654212252e+00 0.0 
2.402683899133e+01 -1.441378562320e+01 0.0 
1.249768692036e+01 -1.917388426624e+01 0.0 
1.580373499437e+01 -1.290751860664e+01 0.0 
8.344650507834e+00 -9.898403995170e+00 0.0 
3.750622115305e+01 -1.086526401533e+01 0.0 
3.699391251667e+01 -1.171695900794e+01 0.0 
3.606517829518e+01 -1.173717504500e+01 0.0 
3.650257641795e+01 -1.270047380221e+01 0.0 
3.808951488918e+01 -1.183518714175e+01 0.0 
4.760380962420e+00 -1.162484888315e+01 0.0 
3.861210370848e+00 -1.205657631736e+01 0.0 
3.038284309476e+00 -1.149851280664e+01 0.0 
2.961598794889e+00 -1.248856794980e+01 0.0 
2.138953225512e+00 -1.193212674534e+01 0.0 
2.227383593457e+00 -1.096258903918e+01 0.0 
2.043265419276e+00 -1.292158472959e+01 0.0 
1.252449446028e+00 -1.225502002753e+01 0.0 
3.949985210740e+01 -1.086594001795e+01 0.0 
1.453499444792e+01 -8.768805922472e-01 0.0 
1.403518950933e+01 -1.749965556633e+00 0.0 
1.300715031023e+01 -1.714737233040e+00 0.0 
1.350929389899e+01 -2.527443911291e+00 0.0 
1.449600910711e+01 -2.595486162864e+00 0.0 
1.395693872901e+01 -3.484211041558e+00 0.0 
1.495105865208e+01 -3.364609636216e+00 0.0 
1.508822528740e+01 -1.766586020494e+00 0.0 
1.250223858430e+01 -8.634590186802e-01 0.0 
1.200279523409e+01 -1.709044504992e+00 0.0 
1.150086239419e+01 -8.592789190668e-01 0.0 
1.101482754194e+01 -1.677730591922e+00 0.0 
1.148018564526e+01 -2.659323866909e+00 0.0 
8.800552119754e+00 -3.989875954728e+00 0.0 
3.452790439430e+00 -1.901136170646e+01 0.0 
8.658451825200e-01 -9.503462241795e+00 0.0 
1.694787786797e+00 -9.000589234502e+00 0.0 
1.703436717094e+00 -8.038819004041e+00 0.0 
2.594197971110e+00 -8.563955242845e+00 0.0 
1.630513735412e+00 -9.907244747511e+00 0.0 
8.566859292791e-01 -7.512203837972e+00 0.0 
1.685461277022e+00 -7.164280248030e+00 0.0 
2.506394468801e+00 -8.623386730818e-01 0.0 
2.007475081581e+00 -1.727729545205e+00 0.0 
9.211534699767e-01 -1.628791366312e+00 0.0 
1.500000000020e+00 -2.598063549486e+00 0.0 
2.482078929963e+00 -2.553580088725e+00 0.0 
2.999795253092e+00 -1.732169015019e+00 0.0 
3.999712607169e+00 -1.728832897453e+00 0.0 
4.499752199340e+00 -8.656478679175e-01 0.0 
4.964377774841e+00 -1.730129617941e+00 0.0 
4.425017908337e+00 -2.597541756243e+00 0.0 
5.446573195014e+00 -8.410144840023e-01 0.0 
4.915722346614e+01 -1.550640962770e+01 0.0 
4.826794919243e+01 -1.600000000000e+01 0.0 
1.053139533193e+01 -1.911782884365e+01 0.0 
4.156049861949e+01 -1.095160998589e+01 0.0 
9.494526624416e+00 -8.650570090219e-01 0.0 
4.555762166964e+01 -1.897098103585e+01 0.0 
4.250656411371e+01 -1.914387356218e+01 0.0 
4.350906466345e+01 -1.917234727395e+01 0.0 
8.759665722424e-01 -1.746422130609e+01 0.0 
1.698936011838e+00 -1.795012186674e+01 0.0 
4.742476811029e+01 -1.900090177972e+01 0.0 
7.749196752349e+00 -6.368049313489e+00 0.0 
3.361572113416e+01 -1.798765193915e+01 0.0 
4.484660149212e+01 -1.728661231383e+01 0.0 
1.984038172228e+01 -4.502575320116e+00 0.0 
1.035080352627e+01 -6.166639575753e+00 0.0 
2.753558010652e+00 -1.444909521181e+01 0.0 
7.217069543032e+00 -1.328635391078e+01 0.0 
4.364336727739e+00 -1.655585677381e+01 0.0 
4.595208426108e+00 -1.357919665443e+01 0.0 
6.164967006980e+00 -1.569873454630e+01 0.0 
1.487855768353e+01 -1.826523774028e+01 0.0 
2.791876456372e+00 -4.019632415181e+00 0.0 
4.246464893515e+01 -1.364898659620e+01 0.0 
4.503855590351e+01 -1.329552780944e+01 0.0 
4.407239109604e+01 -1.573900004093e+01 0.0 
5.141054449252e+00 -6.664290382472e+00 0.0 
3.141083947149e+00 -1.055790764912e+01 0.0 
6.196463198741e+00 -4.256497932609e+00 0.0 
2.599618716181e+01 -1.836893455464e+01 0.0 
2.923057372337e+01 -1.098461757645e+01 0.0 
1.168343877486e+01 -1.114079645041e+01 0.0 
6.706222096238e+00 -8.780364234441e+00 0.0 
8.567858614669e+00 -6.943121440850e+00 0.0 
1.123755132901e+01 -5.753525820030e+00 0.0 
2.353456234423e+01 -1.008536320953e+01 0.0 
9.162073319168e+00 -1.045593739109e+01 0.0 
9.676343469685e+00 -1.496493008366e+01 0.0 
4.490637882905e+01 -1.628778970202e+01 0.0 
7.398129387772e+00 -9.639977982323e-01 0.0 
1.049641705805e+01 -1.552503975272e+01 0.0 
9.010356286268e+00 -1.242805042052e+01 0.0 
3.985573925497e+01 -1.399863651620e+01 0.0 
1.816196318262e+01 -1.554066497931e+01 0.0 
1.306332244168e+01 -3.963646550326e+00 0.0 
4.145850903932e+01 -1.608094559275e+01 0.0 
3.794664933633e+01 -1.779020121986e+01 0.0 
3.819614412903e+01 -1.290749321016e+01 0.0 
6.270014188119e+00 -3.255093186826e+00 0.0 
4.251165370388e+01 -1.263870364997e+01 0.0 
1.207347709171e+01 -1.763942826023e+01 0.0 
3.633240829927e+01 -1.577330481104e+01 0.0 
4.319052668832e+00 -6.101812561904e+00 0.0 
1.676492415806e+01 -1.151547901392e+01 0.0 
2.594059220037e+01 -1.074225223009e+01 0.0 
3.340750911501e+01 -9.898764354137e+00 0.0 
4.397619591281e+01 -1.769773736461e+01 0.0 
2.175611595028e+01 -1.185718747128e+01 0.0 
1.641818733106e+01 -1.640685203215e+01 0.0 
1.661211421753e+01 -1.346121366338e+01 0.0 
3.428853504935e+00 -6.551993389271e+00 0.0 
8.700728832502e+00 -1.638460872825e+01 0.0 
1.931369795309e+01 -1.121629383702e+01 0.0 
4.139798872363e+01 -1.706922153459e+01 0.0 
2.647837478700e+01 -1.507353829290e+01 0.0 
1.779469616424e+01 -9.161615782908e+00 0.0 
3.885879219319e+01 -1.642026488918e+01 0.0 
1.338194936770e+01 -1.125916521471e+01 0.0 
1.897071181111e+01 -1.609204322578e+01 0.0 
2.844308548793e+01 -1.046221003096e+01 0.0 
2.659854702194e+01 -1.316109415760e+01 0.0 
2.979604503271e+01 -1.433296157755e+01 0.0 
2.417694041347e+01 -1.251231397779e+01 0.0 
1.807401327411e+00 -1.388891148480e+01 0.0 
9.599810618782e+00 -1.595439365034e+01 0.0 
1.652144692160e+01 -4.205392788472e+00 0.0 
2.367839450246e+01 -8.188385218643e+00 0.0 
3.814894930468e+01 -1.390748338767e+01 0.0 
2.466448215774e+01 -1.685878545680e+01 0.0 
4.134044524611e+01 -1.806610045954e+01 0.0 
2.600511411958e+01 -9.801774120648e+00 0.0 
7.882158050716e+00 -1.582364037353e+01 0.0 
3.881607873422e+01 -1.737970515013e+01 0.0 
8.270182347708e+00 -1.088622154920e+01 0.0 
8.672520392520e-01 -4.532984309881e+00 0.0 
1.993447205337e+01 -3.579061902667e+00 0.0 
1.794616079549e+01 -7.238038888498e+00 0.0 
2.097277068165e+01 -1.132450168636e+01 0.0 
8.194803300681e+00 -1.187214224265e+01 0.0 
3.522279404911e+01 -1.823342818178e+01 0.0 
6.984481050295e+00 -1.625271465557e+01 0.0 
1.309433007797e+01 -1.521718594215e+01 0.0 
2.150246167611e+01 -1.885399038185e+00 0.0 
3.250689370209e+01 -1.028789870535e+01 0.0 
6.085886272238e+00 -1.668342132851e+01 0.0 
1.588455661727e+01 -1.193498985921e+01 0.0 
1.809323400821e+01 -1.651110084195e+01 0.0 
1.348885082381e+00 -1.136065576512e+01 0.0 
2.497670221995e+01 -1.834631276173e+01 0.0 
2.937062818424e+01 -8.233711194470e+00 0.0 
5.185823744469e+00 -1.711566910207e+01 0.0 
1.477497877209e+01 -1.530177014512e+01 0.0 
2.125346158933e+01 -7.473003997367e+00 0.0 
4.751561118290e+01 -1.084897772632e+01 0.0 
5.056026576843e+00 -1.825750475525e+01 0.0 
1.473948554523e+01 -1.634577436309e+01 0.0 
2.410566630936e+01 -1.345970002612e+01 0.0 
1.507337507513e+01 -1.138527895328e+01 0.0 
3.189857338687e+01 -8.887781229006e+00 0.0 
7.298712468334e+00 -1.230231046246e+01 0.0 
2.738235495295e+01 -1.368931690364e+01 0.0 
3.750141041969e+01 -1.920449893070e+01 0.0 
1.557271965640e+01 -1.683317951731e+01 0.0 
3.393731848929e+01 -1.413034777044e+01 0.0 
6.482156824153e+00 -1.174575135362e+01 0.0 
2.077971718439e+01 -1.421279621836e+01 0.0 
3.455084320178e+00 -2.562590040585e+00 0.0 
3.099056096250e+01 -9.270280416035e+00 0.0 
5.580176125418e+00 -1.217387969259e+01 0.0 
1.707247630389e+01 -7.660651981710e+00 0.0 
1.418658814174e+01 -1.180390575393e+01 0.0 
2.049103025389e+01 -1.811296706038e+01 0.0 
4.680386172316e+00 -1.260396879301e+01 0.0 
1.699679896554e+01 -8.624561788199e+00 0.0 
3.779470168555e+00 -1.303424899720e+01 0.0 
3.036589870126e+01 -7.879832518349e+00 0.0 
3.306993001774e+01 -1.457671062095e+01 0.0 
2.840150110165e+00 -1.346530088269e+01 0.0 
2.732011135052e+01 -1.464591214560e+01 0.0 
5.423639259568e+00 -2.659711955016e+00 0.0 
2.324455961696e+01 -1.387269388211e+01 0.0 
1.752768355571e+00 -1.693128613594e+01 0.0 
1.020244783051e+01 -8.076834012808e+00 0.0 
1.330873875224e+01 -1.222417528206e+01 0.0 
3.297727364880e+01 -1.555480372087e+01 0.0 
2.890929955439e+01 -6.868664170731e+00 0.0 
1.323294664622e+01 -1.320754260334e+01 0.0 
2.726532861246e+01 -1.560593120806e+01 0.0 
2.240020643398e+01 -1.429299177247e+01 0.0 
2.090445823633e+01 -1.228128621332e+01 0.0 
1.315809881502e+01 -1.420739326938e+01 0.0 
2.781328038068e+01 -7.181956082300e+00 0.0 
8.614200829057e+00 -5.936933226306e+00 0.0 
8.714765730069e+00 -4.979270529687e+00 0.0 
1.611881701099e+01 -9.041973294003e+00 0.0 
2.806830314340e+01 -1.614622947108e+01 0.0 
2.084435391396e+00 -3.385085422913e+00 0.0 
3.133211811152e+01 -1.542347619750e+01 0.0 
9.693114650768e+00 -3.590281506442e+00 0.0 
1.531883592202e+01 -8.504584946143e+00 0.0 
2.151589117094e+01 -1.578915763018e+01 0.0 
4.918943882696e+01 -1.355538828056e+01 0.0 
1.443236615188e+01 -8.918701794549e+00 0.0 
8.276250966452e-01 -5.537685192197e+00 0.0 
1.362790867918e+01 -8.374718262212e+00 0.0 
2.083767477370e+01 -1.324843956035e+01 0.0 
1.273834678703e+01 -8.790890389337e+00 0.0 
1.192275845670e+01 -8.242261327467e+00 0.0 
4.477236023583e+01 -1.824312396664e+01 0.0 
1.102989384254e+01 -8.649855800911e+00 0.0 
4.849096516045e+01 -1.917293752213e+01 0.0 
1.588996752238e+00 -1.910230934687e+01 0.0 
4.904245197583e+01 -1.159839008158e+01 0.0 
2.753852929608e+01 -5.782128488093e+00 0.0 
1.756133602833e+01 -8.306130313187e-01 0.0 
2.615423700951e+01 -6.153865090092e+00 0.0 
1.028818761294e+01 -7.122020845892e+00 0.0 
2.970818901196e+01 -1.527821347593e+01 0.0 
4.801461623449e+01 -1.164472570985e+01 0.0 
9.455722100419e+00 -6.546069291118e+00 0.0 
3.089099236677e+01 -1.835339328261e+01 0.0 
2.350000000013e+01 -1.920825896750e+01 0.0 
4.830620531887e+01 -1.506626155470e+01 0.0 
1.725381944701e+01 -1.688794487850e+01 0.0 
2.156246225273e+01 -1.475893794002e+01 0.0 
4.919319648787e+01 -1.742767505896e+01 0.0 
4.437935623576e+01 -1.077662927266e+01 0.0 
1.001520521978e+01 -1.652692675208e+00 0.0 
9.067160240050e-01 -1.441937727541e+01 0.0 
2.603365149390e+01 -4.755996613848e+00 0.0 
2.458344439002e+01 -4.873645517696e+00 0.0 
2.304312390142e+01 -3.836552768096e+00 0.0 
2.546923202198e+00 -6.902480355749e+00 0.0 
1.251534969393e+01 -2.490989965776e+00 0.0 
2.454061833377e+01 -3.933354231935e+00 0.0 
1.788186558740e+01 -1.827424884923e+01 0.0 
4.090785243552e+01 -1.166553231904e+01 0.0 
2.230128851568e+01 -1.623015738726e+01 0.0 
2.302362347568e+01 -2.916239960270e+00 0.0 
3.878119254461e+01 -1.830091164002e+01 0.0 
2.210081359958e+01 -1.829238229150e+01 0.0 
8.443704882233e+00 -1.921993252862e+01 0.0 
2.218405824691e+01 -1.724557581508e+01 0.0 
2.151157503963e+01 -2.790636689331e+00 0.0 
3.741658958955e+01 -1.250400191722e+01 0.0 
2.697247663737e+01 -1.838290202309e+01 0.0 
4.743362342862e+01 -1.585850773010e+01 0.0 
6.671345075358e+00 -1.924977576322e+01 0.0 
3.900825404537e+01 -1.157220003875e+01 0.0 
4.649692961375e+01 -1.836335837481e+01 0.0 
1.578831424832e+01 -3.678284023361e+00 0.0 
4.814208768888e+01 -1.841249298770e+01 0.0 
2.964123298315e+01 -1.625739458193e+01 0.0 
4.580760351902e+01 -1.284294554687e+01 0.0 
3.561520879615e+01 -1.245548941949e+01 0.0 
2.555418095658e+00 -1.841101588290e+01 0.0 
3.288468366144e+01 -1.834258164109e+01 0.0 
2.065894391445e+01 -2.240688571739e+00 0.0 
4.739171429915e+01 -1.496536413446e+01 0.0 
3.478086729185e+00 -8.576434653209e+00 0.0 
1.606010630246e+01 -1.588421807951e+00 0.0 
1.018329200594e+01 -1.834320874317e+01 0.0 
2.957213339430e+01 -1.720496954591e+01 0.0 
4.142712790164e+00 -1.837794506222e+01 0.0 
6.698721532573e-01 -2.499999999997e+00 0.0 
8.037039123140e+00 -1.571229354954e+00 0.0 
1.203541361428e+01 -1.847784298001e+01 0.0 
2.899968332038e+01 -1.848264722179e+01 0.0 
1.469229460948e+01 -4.219485753730e+00 0.0 
4.049590781957e+01 -1.932812501995e+01 0.0 
1.996211678340e+01 -1.506329754720e+00 0.0 
4.250588298353e+01 -1.067383247529e+01 0.0 
5.831497011152e+00 -1.635396227234e+00 0.0 
5.317606125670e+00 -1.923927974868e+01 0.0 
4.208546426993e+01 -1.842830665025e+01 0.0 
2.327553405011e+00 -9.459409929662e+00 0.0 
3.568351902251e+01 -1.096637218582e+01 0.0 
1.682104374890e+00 -6.231413350963e+00 0.0 
2.451812238018e+01 -1.766524914339e+01 0.0 
1.058003429638e+01 -2.391839617098e+00 0.0 
4.399988753123e+01 -1.851998776342e+01 0.0 
1.400000000010e+01 -1.852293523028e+01 0.0 
3.604719565984e+01 -1.850662876800e+01 0.0 
1.951297136734e+01 -1.938092349694e+01 0.0 
1.821365318472e+01 -1.531276353287e+00 0.0 
2.298031859732e+01 -1.854635324722e+01 0.0 
1.552168066204e+01 -1.764280741977e+01 0.0 
4.572957713638e+01 -1.073347898229e+01 0.0 
3.429637429624e+01 -1.838861552790e+01 0.0 
2.427434426052e+00 -7.705577451869e+00 0.0 
4.662792031485e+00 -3.359424455416e+00 0.0 
4.926794919243e+01 -1.926794919243e+01 0.0 
7.320508075690e-01 -7.320508075688e-01 0.0 
4.926794919243e+01 -1.073205080757e+01 0.0 
7.320508075705e-01 -1.926794919243e+01 0.0 
2.917460242467e+00 -3.202866455310e+00 0.0 
4.838200575963e+01 -1.232674147454e+01 0.0 
2.998445708009e+01 -1.854403752148e+01 0.0 
5.949940090766e-01 -1.152762038165e+01 0.0 
4.844763495759e+01 -1.678092548787e+01 0.0 
1.301685480160e+01 -3.170056592566e+00 0.0 
1.650046335855e+01 -6.731535384067e-01 0.0 
4.854881540991e+01 -1.405224059779e+01 0.0 
2.119545114693e+01 -1.846813384545e+01 0.0 
3.797852849897e+01 -1.857978513215e+01 0.0 
4.649823708745e+01 -1.338351810816e+01 0.0 
2.012685900976e+01 -2.889659035009e+00 0.0 
2.953271913273e+01 -1.791558075192e+01 0.0 
2.408509097292e+00 -1.021949208421e+01 0.0 
2.642589566221e+01 -1.773216561448e+01 0.0 
1.730010270775e+01 -1.763165076721e+01 0.0 
2.017406551304e+01 -8.513536440582e-01 0.0 
5.254761581934e-01 -1.249999999999e+01 0.0 
6.640448215642e+00 -1.545337834885e+00 0.0 
7.843361506349e+00 -1.852719839527e+01 0.0 
1.588442191088e+00 -1.066158564320e+01 0.0 
2.431250000000e+01 -2.420918367347e+00 0.0 
4.950961538461e+01 -2.500000000000e+00 0.0 
2.580823483239e+01 -3.416278049680e+00 0.0 
4.950961538461e+01 -3.500000000000e+00 0.0 
2.731250000000e+01 -4.420918367347e+00 0.0 
4.951086956522e+01 -4.500000000000e+00 0.0 
2.880770112393e+01 -5.415638864241e+00 0.0 
4.951086956522e+01 -5.500000000000e+00 0.0 
3.031250000000e+01 -6.420918367347e+00 0.0 
4.951250000000e+01 -6.500000000000e+00 0.0 
3.180701530612e+01 -7.414795918363e+00 0.0 
4.951250000000e+01 -7.500000000000e+00 0.0 
3.331250000000e+01 -8.420918367347e+00 0.0 
4.951470588234e+01 -8.500000000000e+00 0.0 
3.480610198624e+01 -9.413633635267e+00 0.0 
4.951470588234e+01 -9.500000000000e+00 0.0 

SCALARS node_number int
LOOKUP_TABLE default
1
2
3
4
5
6
7
8
9
10
11
12
13
14
15
16
17
18
19
20
21
22
23
24
25
26
27
28
29
30
31
32
33
34
35
36
37
38
39
40
41
42
43
44
45
46
47
48
49
50
51
52
53
54
55
56
57
58
59
60
61
62
63
64
65
66
67
68
69
70
71
72
73
74
75
76
77
78
79
80
81
82
84
85
86
87
88
89
90
91
92
93
95
96
97
98
99
100
101
102
104
105
106
107
108
109
110
111
112
113
114
115
116
117
118
119
120
121
122
123
124
125
126
127
128
129
130
131
132
133
134
135
136
194
195
196
197
198
199
200
201
202
203
204
205
206
207
208
209
210
211
212
213
214
215
216
217
218
219
220
221
222
223
224
225
226
227
228
229
230
231
232
233
234
235
236
237
238
239
240
241
242
243
244
245
246
247
248
249
250
251
252
253
254
255
256
257
258
259
260
261
262
263
264
265
266
267
268
269
270
271
272
273
274
275
276
277
278
279
280
281
282
283
284
285
286
287
288
289
290
291
292
293
294
295
296
297
298
299
300
301
302
303
304
305
306
307
308
309
310
311
312
313
314
315
316
317
318
319
320
321
322
323
324
325
326
327
328
329
330
331
332
333
334
335
336
337
338
339
340
341
342
343
344
345
346
347
348
349
350
351
352
353
354
355
356
357
358
359
360
361
362
363
364
365
366
367
368
369
370
371
372
373
374
375
376
377
378
379
380
381
382
383
384
385
386
387
388
389
390
391
392
393
394
395
396
397
398
399
400
401
402
403
404
405
406
407
408
409
410
411
412
413
414
415
416
417
418
419
420
421
422
423
424
425
426
427
428
429
430
431
432
433
434
435
436
437
438
439
440
441
442
443
444
445
446
447
448
449
450
451
452
453
454
455
456
457
458
459
460
461
462
463
464
465
466
467
468
469
470
471
472
473
474
475
476
477
478
479
480
481
482
483
484
485
486
487
488
489
490
491
492
493
494
495
496
497
498
499
500
501
502
503
504
505
506
507
508
509
510
511
512
513
514
515
516
517
518
519
520
521
522
523
524
525
526
527
528
529
530
531
532
533
534
535
536
537
538
539
540
541
542
543
544
545
546
547
548
549
550
551
552
553
554
555
556
557
558
559
560
561
562
563
564
565
566
567
568
569
570
571
572
573
574
575
576
577
578
579
580
581
582
583
584
585
586
587
588
589
590
591
592
593
594
595
596
597
598
599
600
601
602
603
604
605
606
607
608
609
610
611
612
613
614
615
616
617
618
619
620
621
622
623
624
625
626
627
628
629
630
631
632
633
634
635
636
637
638
639
640
641
642
643
644
645
646
647
648
649
650
651
652
653
654
655
656
657
658
659
660
661
662
663
664
665
666
667
668
669
670
671
672
673
674
675
676
677
678
679
680
681
682
683
684
685
686
687
688
689
690
691
692
693
694
695
696
697
698
699
700
701
702
703
704
705
706
707
708
709
710
711
712
713
714
715
716
717
718
719
720
721
722
723
724
725
726
727
728
729
730
731
732
733
734
735
736
737
738
739
740
741
742
743
744
745
746
747
748
749
750
751
752
753
754
755
756
757
758
759
760
761
762
763
764
765
766
767
768
769
770
771
772
773
774
775
776
777
778
779
780
781
782
783
784
785
786
787
788
789
790
791
792
793
794
795
796
797
798
799
800
801
802
803
804
805
806
807
808
809
810
811
812
813
814
815
816
817
818
819
820
821
822
823
824
825
826
827
828
829
830
831
832
833
834
835
836
837
838
839
840
841
842
843
844
845
846
847
848
849
850
851
852
853
854
855
856
857
858
859
860
861
862
863
864
865
866
867
868
869
870
871
872
873
874
875
876
877
878
879
880
881
882
883
884
885
886
887
888
889
890
891
892
893
894
895
896
897
898
899
900
901
902
903
904
905
906
907
908
909
910
911
912
913
914
915
916
917
918
919
920
921
922
923
924
925
926
927
928
929
930
931
932
933
934
935
936
937
938
939
940
941
942
943
944
945
946
947
948
949
950
951
952
953
954
955
956
957
958
959
960
961
962
963
964
965
966
967
968
969
970
971
972
973
974
975
976
977
978
979
980
981
982
983
984
985
986
987
988
989
990
991
992
993
994
995
996
997
998
999
1000
1001
1002
1003
1004
1005
1006
1007
1008
1009
1010
1011
1012
1013
1014
1015
1016
1017
1018
1019
1020
1021
1022
1023
1024
1025
1026
1027
1028
1029
1030
1031
1032
1033
1034
1035
1036
1037
1038
1039
1040
1041
1042
1043
1044
1045
1046
1047
1048
1049
1050
1051
1052
1053
1054
1055
1056
1057
1058
1059
1060
1061
1062
1063
1064
1065
1066
1067
1068
1069
1070
1071
1072
1073
1074
1075
1076
1077
1078
1079
1080
1081
1082
1083
1084
1085
1086
1087
1088
1089
1090
1091
1092
1093
1094
1095
1096
1097
1098
1099
1100
1101
1102
1103
1104
1105
1106
1107
1108
1109
1110
1111
1112
1113
1114
1115
1116
1117
1118
1119
1120
1121
1122
1123
1124
1125
1126
1127
1128
1129
1130
1131
1132
1133
1134
1135
1136
1137
1138
1139
1140
1141
1142
1143
1144
1145
1146
1147
1148
1149
1150
1151
1152
1153
1154
1155
1156
1157
1158
1159
1160
1161
1162
1163
1164
1165
1166
1167
1168
1169
1170
1171
1172
1173
1174
1175
1176
1177
1178
1179
1180
1181
1182
1183
1184
1185
1186
1187
1188
1189
1190
1191
1192
1193
1194
1195
1196
1197
1198
1199
1200
1201
1202
1203
1204
1205
1206
1207
1208
1209
1210
1211
1212
1213
1214
1215
1216
1217
1218
1219
1220
1221
1222
1223
1224
1225
1226
1227
1228
1229
1230
1231
1232
1233
1234
1235
1236
1237
1238
1239
1240
1241
1242
1243
1244
1245
1246
1247
1248
1249
1250
1251
1252
1253
1254
1255
1256
1257
1258
1259
1260
1261
1262
1263
1264
1269
1270
1271
1272
1273
1274
1275
1276
1277
1278
1279
1280
1281
1282
1283
1284

VECTORS node_mesh_deformation float
0.0 8.057617490366e-02 0.0 
0.000000000000e+00 8.232113608126e-02 0.0 
0.0 0.000000000000e+00 0.0 
0.000000000000e+00 0.000000000000e+00 0.0 
0.0 8.046591873420e-02 0.0 
0.0 7.996916721909e-02 0.0 
0.0 7.908387310985e-02 0.0 
0.0 7.780455512879e-02 0.0 
0.0 7.611327849260e-02 0.0 
0.0 7.401896140227e-02 0.0 
0.0 7.152121094634e-02 0.0 
0.0 6.861409825821e-02 0.0 
0.0 6.529620240268e-02 0.0 
0.0 6.156092645978e-02 0.0 
0.0 5.739628978409e-02 0.0 
0.0 5.279815991683e-02 0.0 
0.0 4.776811239063e-02 0.0 
0.0 4.232228080874e-02 0.0 
0.0 3.641856906287e-02 0.0 
0.0 3.006149316035e-02 0.0 
0.0 2.324905507286e-02 0.0 
0.0 1.596757678776e-02 0.0 
0.0 8.209756186826e-03 0.0 
0.000000000000e+00 0.000000000000e+00 0.0 
0.000000000000e+00 0.000000000000e+00 0.0 
0.000000000000e+00 0.000000000000e+00 0.0 
0.000000000000e+00 0.000000000000e+00 0.0 
0.000000000000e+00 0.000000000000e+00 0.0 
0.000000000000e+00 0.000000000000e+00 0.0 
0.000000000000e+00 0.000000000000e+00 0.0 
0.000000000000e+00 0.000000000000e+00 0.0 
0.000000000000e+00 0.000000000000e+00 0.0 
0.000000000000e+00 0.000000000000e+00 0.0 
0.000000000000e+00 0.000000000000e+00 0.0 
0.000000000000e+00 0.000000000000e+00 0.0 
0.000000000000e+00 0.000000000000e+00 0.0 
0.000000000000e+00 0.000000000000e+00 0.0 
0.000000000000e+00 0.000000000000e+00 0.0 
0.000000000000e+00 0.000000000000e+00 0.0 
0.000000000000e+00 0.000000000000e+00 0.0 
0.000000000000e+00 0.000000000000e+00 0.0 
0.000000000000e+00 0.000000000000e+00 0.0 
0.000000000000e+00 0.000000000000e+00 0.0 
0.000000000000e+00 0.000000000000e+00 0.0 
0.000000000000e+00 0.000000000000e+00 0.0 
0.000000000000e+00 0.000000000000e+00 0.0 
0.000000000000e+00 0.000000000000e+00 0.0 
0.000000000000e+00 0.000000000000e+00 0.0 
0.000000000000e+00 0.000000000000e+00 0.0 
0.000000000000e+00 0.000000000000e+00 0.0 
0.000000000000e+00 0.000000000000e+00 0.0 
0.000000000000e+00 0.000000000000e+00 0.0 
0.000000000000e+00 0.000000000000e+00 0.0 
0.000000000000e+00 0.000000000000e+00 0.0 
0.000000000000e+00 0.000000000000e+00 0.0 
0.000000000000e+00 0.000000000000e+00 0.0 
0.000000000000e+00 0.000000000000e+00 0.0 
0.000000000000e+00 0.000000000000e+00 0.0 
0.000000000000e+00 0.000000000000e+00 0.0 
0.000000000000e+00 0.000000000000e+00 0.0 
0.000000000000e+00 0.000000000000e+00 0.0 
0.000000000000e+00 0.000000000000e+00 0.0 
0.000000000000e+00 0.000000000000e+00 0.0 
0.000000000000e+00 0.000000000000e+00 0.0 
0.000000000000e+00 0.000000000000e+00 0.0 
0.000000000000e+00 0.000000000000e+00 0.0 
0.000000000000e+00 0.000000000000e+00 0.0 
0.000000000000e+00 0.000000000000e+00 0.0 
0.000000000000e+00 0.000000000000e+00 0.0 
0.000000000000e+00 0.000000000000e+00 0.0 
0.000000000000e+00 0.000000000000e+00 0.0 
0.000000000000e+00 0.000000000000e+00 0.0 
0.000000000000e+00 7.596512410904e-02 0.0 
0.000000000000e+00 6.918729120673e-02 0.0 
0.000000000000e+00 6.198333421518e-02 0.0 
0.000000000000e+00 5.436733519221e-02 0.0 
0.000000000000e+00 4.632962120137e-02 0.0 
0.000000000000e+00 3.788124759634e-02 0.0 
0.000000000000e+00 2.902167159057e-02 0.0 
0.000000000000e+00 1.975247818061e-02 0.0 
0.000000000000e+00 1.007785143295e-02 0.0 
-4.883531209586e-03 9.473545987797e-02 0.0 
3.163716670230e-03 8.189082168432e-02 0.0 
-2.702701892215e-03 1.000184645630e-01 0.0 
-3.117827109129e-04 1.045409708898e-01 0.0 
1.692163876683e-03 1.059285797163e-01 0.0 
2.853196912149e-03 1.053181014862e-01 0.0 
3.506090869529e-03 1.034671784461e-01 0.0 
3.812246032663e-03 1.006302712503e-01 0.0 
3.873161397301e-03 9.695931745124e-02 0.0 
3.754906971032e-03 9.256172173807e-02 0.0 
3.503740890011e-03 8.751619991628e-02 0.0 
0.000000000000e+00 1.177472778301e-01 0.0 
0.000000000000e+00 1.148168430178e-01 0.0 
0.000000000000e+00 1.114473898904e-01 0.0 
0.000000000000e+00 1.076812372154e-01 0.0 
0.000000000000e+00 1.034531718020e-01 0.0 
0.000000000000e+00 9.882676314163e-02 0.0 
0.000000000000e+00 9.373834961081e-02 0.0 
0.000000000000e+00 8.825563532819e-02 0.0 
1.788218978120e-04 8.232315053574e-02 0.0 
3.465146124810e-04 8.232846844934e-02 0.0 
5.220623580726e-04 8.233517940209e-02 0.0 
7.007901764382e-04 8.233605761231e-02 0.0 
8.804226841121e-04 8.234747619887e-02 0.0 
1.066053529748e-03 8.234605675424e-02 0.0 
1.259399134490e-03 8.234859226727e-02 0.0 
1.452845963414e-03 8.234055152799e-02 0.0 
1.664684931043e-03 8.233688480754e-02 0.0 
1.886783695198e-03 8.231047620977e-02 0.0 
2.116942392625e-03 8.227162120559e-02 0.0 
2.359357141401e-03 8.222031247516e-02 0.0 
2.612732595694e-03 8.214245780163e-02 0.0 
2.879575451992e-03 8.203082017074e-02 0.0 
-4.400191074321e-03 9.195778393212e-02 0.0 
-3.819467779625e-03 8.978370065755e-02 0.0 
-3.245327457787e-03 8.802163907079e-02 0.0 
-2.734107816933e-03 8.659761337850e-02 0.0 
-2.281628616663e-03 8.544988852211e-02 0.0 
-1.875811999534e-03 8.449593213403e-02 0.0 
-1.518208748474e-03 8.370267487022e-02 0.0 
-1.213096631860e-03 8.304811330102e-02 0.0 
-9.531496563131e-04 8.250992500090e-02 0.0 
-7.331099444343e-04 8.207598135861e-02 0.0 
-5.598024848990e-04 8.171430014862e-02 0.0 
-4.053528672001e-04 8.143689091763e-02 0.0 
-2.665769276904e-04 8.119573224929e-02 0.0 
-1.820951227218e-04 8.099961311250e-02 0.0 
-1.276975966364e-04 8.085801066618e-02 0.0 
-8.011332979452e-05 8.075093779313e-02 0.0 
-4.018104001613e-05 8.066950170120e-02 0.0 
-9.235939667507e-06 8.061603431427e-02 0.0 
-9.151880401403e-06 8.057676171562e-02 0.0 
-3.959670865612e-04 1.076220787811e-01 0.0 
-7.564942329452e-05 1.097527760108e-01 0.0 
1.603598107280e-04 1.114153639644e-01 0.0 
4.053554161025e-04 1.127451409194e-01 0.0 
6.414462474176e-04 1.138204305641e-01 0.0 
8.536190866515e-04 1.146856844021e-01 0.0 
1.037815048122e-03 1.153845765575e-01 0.0 
1.190468775722e-03 1.159458626109e-01 0.0 
1.311459287066e-03 1.163948790343e-01 0.0 
1.401049166560e-03 1.167509360082e-01 0.0 
1.460733115870e-03 1.170305820563e-01 0.0 
1.492244149752e-03 1.172472825581e-01 0.0 
1.497707091396e-03 1.174124618213e-01 0.0 
1.479339879708e-03 1.175356880679e-01 0.0 
1.439446493706e-03 1.176250829835e-01 0.0 
1.380300270817e-03 1.176874906332e-01 0.0 
1.304091251157e-03 1.177286770237e-01 0.0 
1.212889605327e-03 1.177534925000e-01 0.0 
1.108667295064e-03 1.177660215134e-01 0.0 
9.933498700860e-04 1.177696902994e-01 0.0 
8.689097590917e-04 1.177673607746e-01 0.0 
7.375252291482e-04 1.177614199118e-01 0.0 
6.018467667346e-04 1.177538807863e-01 0.0 
4.654174406653e-04 1.177466332719e-01 0.0 
3.331632964603e-04 1.177437357294e-01 0.0 
2.058545438928e-04 1.177735584066e-01 0.0 
1.617187776013e-03 1.077893207472e-01 0.0 
1.614048725862e-03 1.092720778886e-01 0.0 
1.617961249853e-03 1.104448774322e-01 0.0 
1.647242039951e-03 1.114050433478e-01 0.0 
1.680626660352e-03 1.121730943420e-01 0.0 
1.713457799369e-03 1.127954018447e-01 0.0 
1.737632311347e-03 1.132925397479e-01 0.0 
1.750239201066e-03 1.136892723539e-01 0.0 
1.748860935244e-03 1.140020979793e-01 0.0 
1.732671275128e-03 1.142463395937e-01 0.0 
1.701354122943e-03 1.144339475988e-01 0.0 
1.655229537775e-03 1.145753769255e-01 0.0 
1.594924531453e-03 1.146792722491e-01 0.0 
1.521320059254e-03 1.147530232294e-01 0.0 
1.435456494200e-03 1.148028536040e-01 0.0 
1.338488865422e-03 1.148340418738e-01 0.0 
1.231624858711e-03 1.148510334383e-01 0.0 
1.116101029211e-03 1.148575840764e-01 0.0 
9.931829443346e-04 1.148568767671e-01 0.0 
8.641784962080e-04 1.148516255008e-01 0.0 
7.304376070678e-04 1.148441687398e-01 0.0 
5.932932819661e-04 1.148365378203e-01 0.0 
4.537754687988e-04 1.148303537766e-01 0.0 
3.111840146701e-04 1.148248246232e-01 0.0 
1.574827557604e-04 1.147969726502e-01 0.0 
1.564255812525e-04 1.114795433011e-01 0.0 
3.126411954071e-04 1.114714893922e-01 0.0 
4.648405470746e-04 1.114781312255e-01 0.0 
6.139463744290e-04 1.114863310706e-01 0.0 
7.604190351955e-04 1.114955367037e-01 0.0 
9.040894868662e-04 1.115044745183e-01 0.0 
1.044425110422e-03 1.115112345164e-01 0.0 
1.180723554043e-03 1.115134045494e-01 0.0 
1.312251202776e-03 1.115080640248e-01 0.0 
1.438304483244e-03 1.114917339900e-01 0.0 
1.558252175599e-03 1.114602681995e-01 0.0 
1.671563798695e-03 1.114087210877e-01 0.0 
1.777857130143e-03 1.113311608471e-01 0.0 
1.877082255078e-03 1.112205875890e-01 0.0 
1.969435308474e-03 1.110686895889e-01 0.0 
2.055728609953e-03 1.108657646344e-01 0.0 
2.136821935672e-03 1.105998420561e-01 0.0 
2.215342620381e-03 1.102575780499e-01 0.0 
2.292871793234e-03 1.098207049318e-01 0.0 
2.376240106607e-03 1.092717310310e-01 0.0 
2.466155447941e-03 1.085770250227e-01 0.0 
2.581585675781e-03 1.077248273847e-01 0.0 
2.697235788609e-03 1.066449118522e-01 0.0 
3.296638763270e-03 1.043916413020e-01 0.0 
3.116972153702e-03 1.051638593480e-01 0.0 
2.934111691090e-03 1.057648609966e-01 0.0 
2.772087727902e-03 1.062571264553e-01 0.0 
2.618315153001e-03 1.066417774692e-01 0.0 
2.473420251910e-03 1.069467706443e-01 0.0 
2.332651507253e-03 1.071813413034e-01 0.0 
2.194837454631e-03 1.073605450762e-01 0.0 
2.057949454581e-03 1.074934326798e-01 0.0 
1.920843087348e-03 1.075893208991e-01 0.0 
1.782535198089e-03 1.076554400112e-01 0.0 
1.642656192509e-03 1.076984066633e-01 0.0 
1.501016504079e-03 1.077235643900e-01 0.0 
1.357541474562e-03 1.077353922529e-01 0.0 
1.212279324463e-03 1.077376682065e-01 0.0 
1.065371746044e-03 1.077335416656e-01 0.0 
9.170386027577e-04 1.077256384841e-01 0.0 
7.674048677160e-04 1.077159715219e-01 0.0 
6.164277332132e-04 1.077059759702e-01 0.0 
4.638555885705e-04 1.076963726907e-01 0.0 
3.095450272639e-04 1.076861275650e-01 0.0 
1.547173093286e-04 1.076567704403e-01 0.0 
1.621073216853e-04 1.034838924106e-01 0.0 
3.246157576129e-04 1.034739116436e-01 0.0 
4.869385755484e-04 1.034826691291e-01 0.0 
6.489976746451e-04 1.034929667138e-01 0.0 
8.110340648102e-04 1.035034809393e-01 0.0 
9.733731989243e-04 1.035133065474e-01 0.0 
1.136366884857e-03 1.035209557428e-01 0.0 
1.300173976205e-03 1.035244033047e-01 0.0 
1.464973637667e-03 1.035206981789e-01 0.0 
1.631150732564e-03 1.035063310552e-01 0.0 
1.799258964169e-03 1.034770621419e-01 0.0 
1.969856947539e-03 1.034279902480e-01 0.0 
2.143545385955e-03 1.033532238048e-01 0.0 
2.321014752411e-03 1.032448268268e-01 0.0 
2.504622664944e-03 1.030948370052e-01 0.0 
2.695107173210e-03 1.028924015542e-01 0.0 
2.896995641656e-03 1.026292153504e-01 0.0 
3.107201104257e-03 1.022844054948e-01 0.0 
3.337876785849e-03 1.018573745222e-01 0.0 
3.565374183477e-03 1.013011516751e-01 0.0 
3.611826429108e-03 9.741909858369e-02 0.0 
3.366189211185e-03 9.780674755194e-02 0.0 
3.114518296833e-03 9.809443227884e-02 0.0 
2.881800108952e-03 9.833050855009e-02 0.0 
2.659196991566e-03 9.850551167277e-02 0.0 
2.448611449992e-03 9.863824037840e-02 0.0 
2.245667038920e-03 9.873160416539e-02 0.0 
2.050056842343e-03 9.879656052025e-02 0.0 
1.860820624053e-03 9.883924884704e-02 0.0 
1.677309062991e-03 9.886458450334e-02 0.0 
1.498644708100e-03 9.887664797084e-02 0.0 
1.323582169732e-03 9.887917784602e-02 0.0 
1.151809781540e-03 9.887565742424e-02 0.0 
9.829657781211e-04 9.886871347968e-02 0.0 
8.164195395821e-04 9.885967690025e-02 0.0 
6.515257885340e-04 9.884988987305e-02 0.0 
4.879116765864e-04 9.884013090223e-02 0.0 
3.249220625818e-04 9.882989211577e-02 0.0 
1.623320348756e-04 9.880142055993e-02 0.0 
1.702976080722e-04 9.376783208302e-02 0.0 
3.410176190002e-04 9.375740184929e-02 0.0 
5.118671689743e-04 9.376597471574e-02 0.0 
6.849319432121e-04 9.377474805974e-02 0.0 
8.600167501100e-04 9.378373332395e-02 0.0 
1.038554308494e-03 9.379120456162e-02 0.0 
1.221036428106e-03 9.379599220854e-02 0.0 
1.409233093263e-03 9.379677492942e-02 0.0 
1.602141032819e-03 9.379154649687e-02 0.0 
1.801960860270e-03 9.377412702384e-02 0.0 
2.010380808315e-03 9.374144829315e-02 0.0 
2.227543136669e-03 9.368998488952e-02 0.0 
2.454758001520e-03 9.361362149580e-02 0.0 
2.693774838157e-03 9.350665038825e-02 0.0 
2.941619005782e-03 9.335084701617e-02 0.0 
3.210868382553e-03 9.315365003733e-02 0.0 
3.476257679488e-03 9.288209919770e-02 0.0 
3.232286929560e-03 8.772574094085e-02 0.0 
2.973175286357e-03 8.791488035818e-02 0.0 
2.709620674253e-03 8.803338761217e-02 0.0 
2.463409427797e-03 8.812671496782e-02 0.0 
2.230143144423e-03 8.819244219069e-02 0.0 
2.007035273266e-03 8.823682859811e-02 0.0 
1.794402999067e-03 8.826744286935e-02 0.0 
1.591959364227e-03 8.828344824752e-02 0.0 
1.395832506553e-03 8.828579468477e-02 0.0 
1.208422278687e-03 8.828840313401e-02 0.0 
1.025716289860e-03 8.828461757196e-02 0.0 
8.493281255255e-04 8.827992680488e-02 0.0 
6.749741128473e-04 8.827142143274e-02 0.0 
5.049882506682e-04 8.826551333339e-02 0.0 
3.374782594676e-04 8.825492315825e-02 0.0 
1.664792304084e-04 8.822440766451e-02 0.0 
-3.817075233595e-03 9.732279330792e-02 0.0 
-1.496323482584e-03 1.025180006465e-01 0.0 
8.694570446686e-04 1.055454224981e-01 0.0 
2.375145537712e-03 1.058002020164e-01 0.0 
3.248347757310e-03 1.045265327046e-01 0.0 
3.702359061680e-03 1.021558314000e-01 0.0 
3.880501780337e-03 9.889188736750e-02 0.0 
3.843694608445e-03 9.484803451191e-02 0.0 
3.652558670488e-03 9.011730674312e-02 0.0 
3.351015869221e-03 8.477321135295e-02 0.0 
9.538409539971e-04 1.007876962806e-01 0.0 
1.056942524531e-03 7.584985607501e-03 0.0 
-4.320284093708e-04 8.211619203047e-02 0.0 
-1.490994825776e-03 8.582031997502e-02 0.0 
7.479827881340e-04 7.339551322676e-03 0.0 
3.553350138233e-03 1.026413432156e-01 0.0 
2.627426914905e-04 5.945843192207e-02 0.0 
1.192070609907e-03 7.879583323259e-03 0.0 
4.296104140199e-03 9.816496850643e-02 0.0 
1.127517014265e-03 7.955826462446e-03 0.0 
4.122774337667e-03 9.010576134572e-02 0.0 
4.383507197119e-04 6.655091643097e-03 0.0 
-4.248977630272e-05 8.095298898857e-02 0.0 
9.622444626913e-04 8.324286970907e-03 0.0 
3.432909764477e-03 7.921792497878e-02 0.0 
1.856900229299e-04 7.274283741121e-02 0.0 
2.758171099230e-04 4.621766197180e-02 0.0 
8.155034913955e-04 8.830840964311e-03 0.0 
5.365268355391e-04 8.535764584600e-03 0.0 
1.583802454519e-04 8.644649624337e-03 0.0 
2.828573744580e-04 9.376990073790e-03 0.0 
3.793914315295e-04 8.380622628597e-03 0.0 
2.752137046386e-03 7.646585339999e-02 0.0 
1.771393857958e-03 7.659689321124e-02 0.0 
1.155522522808e-03 7.647421039054e-02 0.0 
1.134738264952e-04 5.028072174937e-02 0.0 
2.632418322390e-04 7.176141900921e-03 0.0 
-2.369414028951e-03 9.070214092995e-02 0.0 
2.305258508262e-05 8.059660326233e-02 0.0 
1.915635749777e-04 2.723982480351e-02 0.0 
5.907728745598e-04 7.689169052018e-02 0.0 
9.991654553609e-05 7.852018283903e-02 0.0 
7.516993900580e-04 9.799667983412e-03 0.0 
1.089579301148e-03 7.302501583101e-03 0.0 
1.042698742307e-03 8.034976157838e-03 0.0 
1.215521255897e-03 8.188862474096e-03 0.0 
8.951746937100e-04 7.108988909323e-03 0.0 
-9.601129957755e-04 8.387002830432e-02 0.0 
2.235896786388e-03 7.690829564065e-02 0.0 
6.931755935771e-04 8.309263152320e-03 0.0 
7.878450286114e-05 3.388472612284e-02 0.0 
-2.014610060659e-04 8.141183704191e-02 0.0 
2.400699579193e-04 6.701158866476e-02 0.0 
7.426014558121e-05 7.039173502232e-03 0.0 
4.099605053700e-03 1.008203763602e-01 0.0 
2.594634945616e-03 1.029221194864e-01 0.0 
4.295176940015e-03 9.454902529910e-02 0.0 
3.822709636140e-03 8.498030403006e-02 0.0 
-1.546573269135e-03 9.669596961041e-02 0.0 
1.384665584041e-04 6.477972517435e-02 0.0 
1.243070931509e-04 5.670451253788e-03 0.0 
2.801651082462e-06 8.051558894166e-02 0.0 
4.122560332576e-05 1.570240403154e-02 0.0 
3.249664107173e-03 7.606335921091e-02 0.0 
3.450189413947e-03 7.322608168031e-02 0.0 
3.151105851629e-03 7.028834606941e-02 0.0 
3.394693371305e-03 6.686711047472e-02 0.0 
3.092870969112e-03 6.320185663378e-02 0.0 
3.274751587419e-03 5.996652961431e-02 0.0 
3.606173686485e-03 6.365297486382e-02 0.0 
3.438110053040e-03 5.664676631896e-02 0.0 
3.798037892238e-03 6.041017266354e-02 0.0 
2.944127132771e-03 5.605016439259e-02 0.0 
3.575053379244e-03 5.324065911846e-02 0.0 
3.963864958635e-03 5.707291476583e-02 0.0 
3.680863178488e-03 4.976792406198e-02 0.0 
4.095363522261e-03 5.364234700941e-02 0.0 
4.345162148613e-03 6.074325102661e-02 0.0 
4.502558930888e-03 5.738027100457e-02 0.0 
4.712547378837e-03 6.422386195278e-02 0.0 
4.894300585214e-03 6.091537117718e-02 0.0 
4.618333418023e-03 5.395512621351e-02 0.0 
5.030894861914e-03 5.754577937976e-02 0.0 
5.264921796272e-03 6.425040277446e-02 0.0 
5.418704614495e-03 6.092688779584e-02 0.0 
5.608238285358e-03 6.736520167425e-02 0.0 
5.774796794945e-03 6.406536158577e-02 0.0 
5.920875549272e-03 7.026942468299e-02 0.0 
6.094469785999e-03 6.698091945719e-02 0.0 
5.879544877939e-03 6.070647401629e-02 0.0 
6.201084539725e-03 6.365482947031e-02 0.0 
6.368297952804e-03 6.964704268112e-02 0.0 
6.470989873524e-03 6.635293079392e-02 0.0 
6.588010728528e-03 7.205517524883e-02 0.0 
6.679803334912e-03 6.878780284514e-02 0.0 
6.496265919683e-03 6.302984460669e-02 0.0 
6.689455267768e-03 6.551749279888e-02 0.0 
6.817296225080e-03 7.096525163739e-02 0.0 
6.804748451881e-03 6.774953342093e-02 0.0 
6.871492093445e-03 7.287615594652e-02 0.0 
6.832155821897e-03 6.972129097735e-02 0.0 
6.831357114340e-03 7.450912168179e-02 0.0 
6.761908021474e-03 7.144542117450e-02 0.0 
6.713722353737e-03 6.657925760132e-02 0.0 
6.618198518154e-03 6.840491060753e-02 0.0 
6.586002633078e-03 7.293996092051e-02 0.0 
6.421160359590e-03 7.002875185844e-02 0.0 
6.410608975877e-03 6.543237998173e-02 0.0 
6.199898548083e-03 6.720537758484e-02 0.0 
6.149332270788e-03 6.252636828935e-02 0.0 
5.932359809634e-03 6.445456082770e-02 0.0 
5.899566449433e-03 6.877641356730e-02 0.0 
5.633254598219e-03 6.618803303192e-02 0.0 
5.627763038618e-03 6.175690582039e-02 0.0 
5.334696454774e-03 6.368280790552e-02 0.0 
5.260223193336e-03 6.779579596078e-02 0.0 
4.978646034363e-03 6.543676900469e-02 0.0 
5.012681660238e-03 6.120207919880e-02 0.0 
4.673448000215e-03 6.313707261421e-02 0.0 
4.571406409895e-03 6.707416552025e-02 0.0 
4.290946871652e-03 6.493180229105e-02 0.0 
4.353259971960e-03 6.081817980256e-02 0.0 
3.992991981821e-03 6.281234634409e-02 0.0 
3.876176627951e-03 6.662745202995e-02 0.0 
3.607225257440e-03 6.465860209593e-02 0.0 
3.683367055975e-03 6.065920937348e-02 0.0 
3.322624647039e-03 6.269307225717e-02 0.0 
3.361972724930e-03 5.850069396797e-02 0.0 
3.199700996261e-03 6.644018251260e-02 0.0 
2.946102821232e-03 6.461510685792e-02 0.0 
2.786099599289e-03 6.814310673678e-02 0.0 
2.564577605305e-03 6.643607014850e-02 0.0 
6.444037168674e-03 5.969561766228e-02 0.0 
2.383606047026e-03 6.972110305727e-02 0.0 
2.559871456469e-03 7.121028410013e-02 0.0 
2.189120542488e-03 6.815267039534e-02 0.0 
2.324648926024e-03 6.469342620190e-02 0.0 
1.996000618579e-03 7.119796821767e-02 0.0 
1.827159529988e-03 6.976245385901e-02 0.0 
1.632160178366e-03 7.257527638176e-02 0.0 
6.810386690198e-03 7.780967805459e-02 0.0 
4.683905599382e-03 5.046313908400e-02 0.0 
1.486179405807e-03 7.126883851580e-02 0.0 
1.300025716104e-03 7.385215628778e-02 0.0 
1.394943313881e-03 7.498734781356e-02 0.0 
1.079777605618e-03 7.603562377610e-02 0.0 
2.789417021170e-03 5.944337617248e-02 0.0 
2.608958443986e-03 5.197180395499e-02 0.0 
2.481975951667e-03 5.550385887375e-02 0.0 
2.273553353227e-03 4.777164994447e-02 0.0 
2.172682279522e-03 5.136863598167e-02 0.0 
1.002376384421e-03 7.502766242330e-02 0.0 
3.262082896107e-03 4.555114734046e-02 0.0 
2.351655935435e-03 4.404817695299e-02 0.0 
5.387614755190e-03 7.060415710211e-02 0.0 
6.415354158793e-03 7.529816211749e-02 0.0 
6.276014654766e-03 6.040976486125e-02 0.0 
1.635266185528e-03 6.828182268913e-02 0.0 
1.313462377311e-03 6.991592563464e-02 0.0 
1.423662476652e-03 6.675163699148e-02 0.0 
3.671320870431e-03 5.620194314519e-02 0.0 
3.317949965130e-03 5.387272119533e-02 0.0 
3.569153512363e-03 5.129512867459e-02 0.0 
3.190727584345e-03 4.880342346617e-02 0.0 
3.377395089689e-03 4.594342878327e-02 0.0 
2.981069202896e-03 4.328908043021e-02 0.0 
2.814285727379e-03 4.628620785695e-02 0.0 
2.592214131548e-03 4.059971653953e-02 0.0 
2.443762401628e-03 4.373217187282e-02 0.0 
3.096894860594e-03 4.014727472043e-02 0.0 
3.511853790732e-03 4.293498361449e-02 0.0 
2.215166205741e-03 3.787163868190e-02 0.0 
2.083048822887e-03 4.113016150806e-02 0.0 
1.853859998985e-03 3.509201170658e-02 0.0 
1.736075744598e-03 3.847483041760e-02 0.0 
1.909045995113e-03 4.425478962609e-02 0.0 
1.575983805822e-03 4.172338631598e-02 0.0 
1.701414904261e-03 4.724520232182e-02 0.0 
5.976952047778e-03 5.741689431293e-02 0.0 
6.021061182938e-03 5.495440139314e-02 0.0 
5.685366433262e-03 5.187426998759e-02 0.0 
5.646028926524e-03 4.907046363984e-02 0.0 
5.274895870475e-03 4.589609899647e-02 0.0 
5.150609032285e-03 4.276165483883e-02 0.0 
4.744207627528e-03 3.948135479687e-02 0.0 
4.869437210576e-03 4.274788781778e-02 0.0 
3.753492647313e-03 4.619555351757e-02 0.0 
6.300325556577e-03 7.420230690082e-02 0.0 
6.418144196946e-03 7.706329370772e-02 0.0 
6.037148803536e-03 7.795725637889e-02 0.0 
6.101513999454e-03 8.076457731113e-02 0.0 
5.615539345694e-03 8.127942849424e-02 0.0 
5.616249356716e-03 8.405240064323e-02 0.0 
5.010556527978e-03 8.418521538179e-02 0.0 
5.018614760797e-03 8.160980053765e-02 0.0 
4.293883422406e-03 8.415734664987e-02 0.0 
4.333441953431e-03 8.181802984099e-02 0.0 
3.505871641835e-03 8.402589661379e-02 0.0 
3.593261090646e-03 8.195679434768e-02 0.0 
5.916937604013e-03 5.730884891186e-02 0.0 
5.517298662227e-03 4.605339750820e-02 0.0 
4.937738797100e-03 3.941385681721e-02 0.0 
5.300469090109e-03 4.281561817609e-02 0.0 
1.121251994472e-03 7.700096537714e-02 0.0 
1.406074021902e-03 3.575747239878e-02 0.0 
3.152813297323e-03 3.684916903598e-02 0.0 
3.586503657193e-03 3.982188704685e-02 0.0 
4.308073272064e-03 3.621666028288e-02 0.0 
8.068726495978e-04 7.698423140386e-02 0.0 
4.933240410168e-03 8.692854303407e-02 0.0 
5.529552461262e-03 8.700049070490e-02 0.0 
1.945585407640e-03 4.337177314932e-02 0.0 
1.870977604213e-03 4.706529130237e-02 0.0 
3.140223410735e-03 3.339583772335e-02 0.0 
7.423216111873e-04 7.609875525523e-02 0.0 
2.296618714166e-03 3.447311475333e-02 0.0 
3.345865905214e-03 8.627396708111e-02 0.0 
1.256940347451e-03 3.913117528316e-02 0.0 
1.096244526273e-03 3.297737504235e-02 0.0 
2.605914679107e-03 4.913209735852e-02 0.0 
4.638041324259e-03 3.584493885166e-02 0.0 
5.010557980199e-03 3.946406712512e-02 0.0 
4.323607780087e-03 7.961544041572e-02 0.0 
3.630544902810e-03 8.001558576253e-02 0.0 
2.840549721526e-03 8.205372628713e-02 0.0 
2.955556693010e-03 8.027533863950e-02 0.0 
3.626216793011e-03 7.813494951685e-02 0.0 
2.987733233226e-03 7.869144876879e-02 0.0 
2.292121849521e-03 8.057820874998e-02 0.0 
2.376295918991e-03 7.919843760730e-02 0.0 
2.981070654165e-03 7.711812092414e-02 0.0 
2.417639733427e-03 7.781676460277e-02 0.0 
1.810771403736e-03 7.966943116573e-02 0.0 
1.897638742882e-03 7.845837435020e-02 0.0 
1.193586397493e-03 2.933825588761e-02 0.0 
2.460462374621e-03 8.580950368959e-02 0.0 
4.493767070429e-03 6.744733637337e-02 0.0 
2.700016227493e-03 3.031191522599e-02 0.0 
4.100178670281e-03 3.272284247266e-02 0.0 
1.630330877028e-03 3.881204942351e-02 0.0 
1.580435797344e-03 4.260331030434e-02 0.0 
1.777630589494e-03 5.071731835956e-02 0.0 
1.508919982257e-03 4.632967176808e-02 0.0 
1.304503887354e-03 3.797952285308e-02 0.0 
1.253848400985e-03 4.180278906514e-02 0.0 
1.419377528343e-03 4.999404627396e-02 0.0 
1.183637842630e-03 4.555377536257e-02 0.0 
1.315171871894e-03 5.357923958759e-02 0.0 
1.097433047782e-03 4.922509377332e-02 0.0 
9.635322544881e-04 4.097007808587e-02 0.0 
8.936880335852e-04 4.473903395117e-02 0.0 
9.980428111191e-04 5.282065085014e-02 0.0 
8.082627831456e-04 4.842885734091e-02 0.0 
8.867752343633e-04 5.633141551257e-02 0.0 
7.094419535960e-04 5.203468136135e-02 0.0 
6.346740664966e-04 4.390638454939e-02 0.0 
5.872895958836e-04 7.776918650845e-02 0.0 
4.439214653368e-03 3.962296876548e-02 0.0 
3.850802188003e-03 3.295574073933e-02 0.0 
1.124465678625e-03 6.850553669483e-02 0.0 
1.210250876211e-03 6.516040702351e-02 0.0 
1.498583734550e-03 6.316956377054e-02 0.0 
1.235174937003e-03 6.141281170428e-02 0.0 
5.475496458587e-04 4.764764217546e-02 0.0 
4.753200941892e-04 3.926179949927e-02 0.0 
4.769494192999e-03 8.985871285192e-02 0.0 
5.335792307399e-03 9.011891121521e-02 0.0 
1.654209109390e-03 3.495188936358e-02 0.0 
9.544991048189e-04 3.647370738146e-02 0.0 
1.073495968987e-03 4.236919647777e-02 0.0 
6.583401584255e-03 7.740334745388e-02 0.0 
6.339631662613e-03 8.059694854862e-02 0.0 
6.451416689430e-03 8.241262989304e-02 0.0 
6.128670944587e-03 8.566311722481e-02 0.0 
6.021217165870e-03 8.374431352413e-02 0.0 
6.174482692323e-03 8.721243100077e-02 0.0 
3.933160520525e-03 4.580047878729e-02 0.0 
7.618319977212e-04 3.625221553368e-02 0.0 
1.455585760281e-03 7.608400831543e-02 0.0 
1.120335966792e-03 7.793086584072e-02 0.0 
8.116697259566e-04 3.012733272946e-02 0.0 
4.908866844820e-03 4.583160753659e-02 0.0 
5.546764445125e-03 5.406388250495e-02 0.0 
5.513655064100e-03 5.057067524851e-02 0.0 
5.092818606798e-03 4.702135555630e-02 0.0 
4.987614545520e-03 4.343722365771e-02 0.0 
4.514428463832e-03 3.958101189606e-02 0.0 
4.332251823399e-03 3.589854667281e-02 0.0 
4.814987538559e-03 3.983218597532e-02 0.0 
4.252792118834e-03 3.201751359670e-02 0.0 
4.083064685751e-03 3.217974852176e-02 0.0 
6.102647273778e-04 5.562480654005e-02 0.0 
5.840418421027e-03 4.943003058095e-02 0.0 
2.933603833259e-03 7.556769286453e-02 0.0 
6.106370458321e-04 7.848341051195e-02 0.0 
1.292144933725e-03 8.012993838925e-02 0.0 
5.229239990872e-04 7.704989987354e-02 0.0 
6.453370992201e-04 7.515691429848e-02 0.0 
2.595171048515e-03 2.655054253733e-02 0.0 
3.805883162808e-03 3.173989711793e-02 0.0 
4.004389433202e-03 3.551178562056e-02 0.0 
5.729921537728e-03 8.877769554597e-02 0.0 
5.640704475834e-03 8.678337880479e-02 0.0 
3.841113873833e-03 2.844764226916e-02 0.0 
2.338756282434e-03 5.902751356906e-02 0.0 
1.543995933524e-03 5.779938964556e-02 0.0 
1.411849023533e-03 6.120695988113e-02 0.0 
3.902349299807e-04 7.865475323934e-02 0.0 
1.140221534255e-03 8.110710055691e-02 0.0 
1.047101470164e-03 3.321375952200e-02 0.0 
5.965266877556e-03 8.684639664159e-02 0.0 
5.733795889437e-03 9.005012362502e-02 0.0 
2.146713722841e-03 8.795685883281e-02 0.0 
1.181752578525e-03 8.717976118224e-02 0.0 
4.011451618595e-04 4.301020537588e-02 0.0 
3.397574033741e-04 3.448288009131e-02 0.0 
1.526204230286e-03 5.917651352134e-02 0.0 
1.243651852021e-03 5.723691576733e-02 0.0 
3.050981185350e-03 2.975298457530e-02 0.0 
1.433501404858e-03 7.903624195424e-02 0.0 
3.895529395592e-04 3.048546732562e-02 0.0 
4.484916897368e-03 4.283158247432e-02 0.0 
4.865313234140e-03 4.873151571223e-02 0.0 
9.513927201161e-04 6.354212527049e-02 0.0 
4.482581106576e-03 9.300702869051e-02 0.0 
3.762758780756e-03 9.230191162746e-02 0.0 
3.478754527258e-03 7.461759785481e-02 0.0 
1.932302367962e-03 7.725036421262e-02 0.0 
4.331966096585e-04 7.622908383188e-02 0.0 
2.406159671363e-03 2.260989449952e-02 0.0 
1.053173891350e-03 2.922779866469e-02 0.0 
4.573063869909e-03 3.620004571765e-02 0.0 
5.244661989618e-03 4.355294707395e-02 0.0 
3.771243007694e-03 2.845380435814e-02 0.0 
8.892325905894e-04 8.043312802369e-02 0.0 
2.152403585443e-03 2.331171708566e-02 0.0 
6.760429291335e-04 3.374642850524e-02 0.0 
3.275361395094e-03 2.773534786796e-02 0.0 
3.461636282804e-03 3.122991210467e-02 0.0 
6.251567455127e-03 8.640090329930e-02 0.0 
5.992602988130e-03 8.955903955745e-02 0.0 
5.374632875569e-03 9.330790914989e-02 0.0 
5.603130995052e-03 9.276772204007e-02 0.0 
3.928521473092e-03 6.720907882517e-02 0.0 
6.414542803402e-03 8.556518149343e-02 0.0 
4.817913078540e-03 7.067955177894e-02 0.0 
4.546496562337e-03 7.375731841877e-02 0.0 
4.821516809876e-03 7.674342761703e-02 0.0 
5.859531411023e-03 8.164358339715e-02 0.0 
5.493805990294e-03 8.461545829629e-02 0.0 
6.460068500161e-03 8.005943971377e-02 0.0 
6.310220406629e-03 5.808308704638e-02 0.0 
1.804109161072e-03 6.105726462594e-02 0.0 
2.030123703174e-03 4.957380846015e-02 0.0 
3.945593571373e-03 5.376791507106e-02 0.0 
7.974377814008e-04 3.231321868935e-02 0.0 
6.018135735033e-04 2.735951430922e-02 0.0 
1.076625069310e-03 6.049723327521e-02 0.0 
9.448285533082e-04 6.382551486489e-02 0.0 
8.196560284546e-04 7.862062046002e-02 0.0 
7.624540886315e-04 7.938489578867e-02 0.0 
3.032945389307e-03 5.632082053832e-02 0.0 
2.273502211187e-03 2.720160281589e-02 0.0 
1.330930585084e-03 3.014795696660e-02 0.0 
1.297752359605e-03 2.611573664160e-02 0.0 
1.646639220098e-03 3.101126787485e-02 0.0 
2.877156672989e-03 2.591596909210e-02 0.0 
5.911727104611e-03 7.526605732746e-02 0.0 
5.637281491875e-03 5.448437662982e-02 0.0 
1.592838762214e-03 8.537217983671e-02 0.0 
6.196600199509e-03 5.691944847656e-02 0.0 
5.090224026150e-04 7.984552682761e-02 0.0 
4.235166616208e-03 4.665753142909e-02 0.0 
5.578389067411e-04 2.720518290755e-02 0.0 
6.447806218239e-04 2.332308047184e-02 0.0 
3.376204835632e-03 2.433433638418e-02 0.0 
3.705942727883e-03 7.645043253642e-02 0.0 
6.082395816655e-03 5.350706117940e-02 0.0 
6.318541943042e-03 5.638348053973e-02 0.0 
4.508556568723e-03 7.965422834073e-02 0.0 
4.730611589125e-03 8.240464020134e-02 0.0 
5.069943895396e-03 7.952506547666e-02 0.0 
4.921093631921e-03 8.499861089037e-02 0.0 
3.350871550920e-03 7.293205641160e-02 0.0 
2.846495110918e-03 7.405730970029e-02 0.0 
2.928003797884e-03 2.322958691459e-02 0.0 
3.246200697863e-03 2.439128680799e-02 0.0 
2.708199612805e-03 2.339450637571e-02 0.0 
2.898631637148e-03 2.671506411231e-02 0.0 
2.908788442888e-03 2.064623681702e-02 0.0 
3.384919509649e-03 2.486394961011e-02 0.0 
5.173957961842e-04 7.415458226824e-02 0.0 
5.223910895047e-03 8.961116836322e-02 0.0 
7.991694726570e-04 2.421485868282e-02 0.0 
4.262503428993e-03 7.676313687539e-02 0.0 
1.747219913005e-03 2.022619165372e-02 0.0 
1.870251713433e-03 2.406941907199e-02 0.0 
3.052562121582e-04 8.648920195766e-02 0.0 
7.927714887757e-04 8.482804958238e-02 0.0 
2.692975497922e-04 2.567987316601e-02 0.0 
4.894566471506e-03 9.647369529432e-02 0.0 
5.106482739730e-03 9.589192995808e-02 0.0 
4.566089534027e-03 9.660806829147e-02 0.0 
8.413807371799e-05 1.219276896984e-02 0.0 
2.547086870734e-04 7.696810596403e-02 0.0 
4.201615111206e-04 2.021111612498e-02 0.0 
5.643846849527e-03 7.920713666740e-02 0.0 
2.827918494148e-04 2.114151444047e-02 0.0 
5.899260007858e-03 5.011646038957e-02 0.0 
6.683253555977e-03 7.932754478435e-02 0.0 
3.512701299858e-03 3.293348457908e-02 0.0 
2.180474941369e-04 3.051516591761e-02 0.0 
1.607280258114e-04 2.035335137371e-02 0.0 
1.626770454372e-03 6.508279621679e-02 0.0 
1.478906228726e-03 6.843074687320e-02 0.0 
1.780441653885e-03 6.187170441343e-02 0.0 
3.129341844264e-03 8.871485567908e-02 0.0 
1.618157105110e-03 9.071015783164e-02 0.0 
5.801243185175e-04 3.140207900267e-02 0.0 
1.024264309802e-03 7.144425673175e-02 0.0 
8.389723955720e-04 6.984091514983e-02 0.0 
1.482940102987e-03 7.805974004934e-02 0.0 
1.908452239650e-03 7.609792466087e-02 0.0 
1.817057420960e-03 5.684469447073e-02 0.0 
2.112840034700e-03 5.884374344342e-02 0.0 
4.221741873245e-03 4.299882974806e-02 0.0 
3.737058850643e-03 3.898897404415e-02 0.0 
5.133608496902e-03 5.060329550678e-02 0.0 
4.449771569618e-03 4.585189622829e-02 0.0 
4.744693940047e-03 5.145169263738e-02 0.0 
5.135801547551e-03 5.416190429563e-02 0.0 
6.084085687803e-04 2.354577428181e-02 0.0 
4.048145949795e-04 1.758804927259e-02 0.0 
3.860936719230e-03 7.178295907296e-02 0.0 
4.028656979132e-03 7.363170869526e-02 0.0 
3.186668934200e-03 7.134716344078e-02 0.0 
7.566969793089e-04 2.022727841865e-02 0.0 
4.658989058846e-04 1.627414648522e-02 0.0 
6.868574134788e-04 1.957241755892e-02 0.0 
4.016844451264e-04 8.042329914300e-02 0.0 
6.592740390161e-04 8.010145830818e-02 0.0 
3.373663264782e-03 9.544970844376e-02 0.0 
2.435528569524e-03 9.434451983426e-02 0.0 
1.246472224395e-03 2.237124617208e-02 0.0 
1.605834104730e-03 2.706578149475e-02 0.0 
8.775525628835e-04 1.689440441518e-02 0.0 
3.099398124791e-04 7.545696446147e-02 0.0 
4.990653601581e-03 3.986674914742e-02 0.0 
2.179731020771e-03 1.886164228359e-02 0.0 
2.671079144907e-03 2.231444011161e-02 0.0 
1.614414648920e-03 1.452721580134e-02 0.0 
3.825541101492e-03 2.825114425751e-02 0.0 
2.889572942660e-03 2.041604259232e-02 0.0 
2.812475524784e-03 2.027846680897e-02 0.0 
-2.847487083848e-04 8.810406895256e-02 0.0 
1.235458911566e-04 2.420327280532e-02 0.0 
1.126248481917e-03 6.777300870108e-02 0.0 
-8.978347781081e-04 8.729943160004e-02 0.0 
9.780923872640e-04 7.115526936483e-02 0.0 
8.171399531705e-04 6.711402080381e-02 0.0 
8.471552050082e-04 7.441432727721e-02 0.0 
2.560862513707e-04 7.719575497339e-02 0.0 
1.862101641912e-03 7.009209628196e-02 0.0 
2.038836731444e-03 6.609345985535e-02 0.0 
1.557679184181e-04 8.112768913299e-02 0.0 
5.139042130367e-04 1.509519417738e-02 0.0 
2.190999401863e-04 8.063157864270e-02 0.0 
3.299019068397e-04 8.017945351520e-02 0.0 
1.353979802406e-03 1.683979698221e-02 0.0 
1.491270181651e-03 2.086002076528e-02 0.0 
9.894050849510e-04 1.354648496377e-02 0.0 
1.167183819443e-03 1.798946067703e-02 0.0 
1.567658681496e-03 2.487979959614e-02 0.0 
1.228807358117e-03 2.175294603567e-02 0.0 
1.327885035785e-03 7.217271697191e-02 0.0 
8.070198607300e-04 1.363451016130e-02 0.0 
9.165767522479e-04 1.840913301009e-02 0.0 
5.331058314724e-04 1.050132304907e-02 0.0 
4.533167435650e-03 8.761555036889e-02 0.0 
5.699565291465e-03 9.200807188776e-02 0.0 
5.201537462536e-03 9.506481156100e-02 0.0 
4.504494567602e-03 9.902584544926e-02 0.0 
1.947757242462e-03 1.702951927486e-02 0.0 
2.373754526587e-03 2.246854029534e-02 0.0 
4.227659087650e-04 3.080792245641e-02 0.0 
4.839040636173e-04 3.709178871743e-02 0.0 
6.753870908156e-04 7.083885230059e-02 0.0 
4.909729311677e-04 7.112786795985e-02 0.0 
5.371745896596e-04 6.468021045454e-02 0.0 
3.867911302677e-04 6.548629323966e-02 0.0 
4.091373728130e-04 5.886048811335e-02 0.0 
2.627518552032e-04 5.972314237616e-02 0.0 
3.134535565437e-04 5.279725193962e-02 0.0 
2.205045971145e-03 1.592706753615e-02 0.0 
3.941454191363e-03 9.979777298309e-02 0.0 
4.183453207048e-03 8.250512210450e-02 0.0 
2.396994271251e-03 1.692859015908e-02 0.0 
2.972158398450e-03 2.190837549627e-02 0.0 
5.099596706746e-03 8.743460089100e-02 0.0 
4.780352881294e-03 9.239217959529e-02 0.0 
1.431024777306e-03 1.497785408373e-02 0.0 
6.600565439133e-03 8.239962247111e-02 0.0 
3.815138860759e-04 9.729555850186e-03 0.0 
-2.604703525023e-03 9.290098754188e-02 0.0 
-4.776521998977e-04 9.148489592525e-02 0.0 
6.687581833106e-03 8.119222971950e-02 0.0 
5.295196027479e-03 8.215086038478e-02 0.0 
5.745380866006e-03 9.064860967450e-02 0.0 
5.295416525204e-03 9.335330338102e-02 0.0 
4.044942590291e-03 3.973417670748e-02 0.0 
4.854967826411e-04 8.082876833724e-02 0.0 
4.076923883947e-03 9.624673657411e-02 0.0 
4.524083744073e-04 5.200476207413e-02 0.0 
2.786972016420e-03 9.869672013802e-02 0.0 
2.221696655856e-04 3.370834998263e-02 0.0 
6.692279767112e-03 7.910170182975e-02 0.0 
5.949962864499e-03 7.613954193289e-02 0.0 
5.018625530123e-03 9.334466892337e-02 0.0 
6.141357824770e-03 8.849375354717e-02 0.0 
4.153257266154e-03 6.403673609992e-02 0.0 
3.690333206094e-03 7.028012267894e-02 0.0 
3.974000683151e-03 7.363859634958e-02 0.0 
6.682225627650e-03 7.595506195551e-02 0.0 
5.293397418558e-03 9.156324361527e-02 0.0 
4.787266663818e-03 9.619071175807e-02 0.0 
5.063678427792e-03 6.752780586960e-02 0.0 
2.016185396471e-03 3.574122203835e-02 0.0 
1.999385854248e-03 3.181184786036e-02 0.0 
1.538790248027e-03 2.330857873106e-02 0.0 
1.945496541651e-03 2.789666851020e-02 0.0 
2.412133165052e-03 3.645321047563e-02 0.0 
2.385315189706e-03 3.258386558262e-02 0.0 
1.848373705371e-03 2.404344945419e-02 0.0 
2.313358804077e-03 2.868699061073e-02 0.0 
1.557086220309e-03 1.826555211447e-02 0.0 
2.169877720462e-03 2.456093177985e-02 0.0 
2.799475015337e-03 3.341198073713e-02 0.0 
2.712341733446e-03 2.970559442602e-02 0.0 
2.078231048319e-03 2.169375647800e-02 0.0 
3.304840519352e-03 3.837781509737e-02 0.0 
1.860081385814e-03 1.267601107073e-02 0.0 
6.823321148925e-03 7.616696680448e-02 0.0 
6.502320640749e-04 8.923650281290e-02 0.0 
5.562426349037e-04 9.308927882343e-02 0.0 
5.683002994076e-03 7.345927624058e-02 0.0 
7.574302443700e-04 8.913201527726e-03 0.0 
6.050235670187e-04 8.784773339247e-03 0.0 
6.080919858192e-03 8.374884675497e-02 0.0 
1.003184573506e-03 8.156765115359e-03 0.0 
4.241985902333e-03 7.058002725105e-02 0.0 
4.187183186904e-03 8.668614166504e-02 0.0 
1.100666866538e-03 8.093324735754e-03 0.0 
2.399537464768e-03 4.026630690081e-02 0.0 
2.791728253094e-03 4.477839735075e-02 0.0 
2.713702194427e-03 4.841528613268e-02 0.0 
4.628049025968e-04 8.201775620751e-03 0.0 
1.929804996415e-03 5.850816923270e-02 0.0 
1.103392573608e-03 7.335813310579e-03 0.0 
5.974321652850e-03 5.228151265067e-02 0.0 
6.256011312072e-03 5.562615631346e-02 0.0 
6.545148580365e-03 6.132709063754e-02 0.0 
2.841993783122e-03 3.734085240031e-02 0.0 
1.089614575342e-03 7.537398669971e-03 0.0 
1.978067092722e-03 1.440714537518e-02 0.0 
1.881859332489e-03 1.429934395119e-02 0.0 
2.788622120097e-03 2.146839985475e-02 0.0 
9.855837955488e-04 7.386597378179e-03 0.0 
7.987591021639e-04 7.963938395111e-03 0.0 
8.151280227864e-04 7.536243659210e-03 0.0 
3.570851130988e-03 7.635913089663e-02 0.0 
4.167130320774e-03 7.552840289673e-02 0.0 
4.566492589619e-03 7.256964134339e-02 0.0 
4.741716545363e-03 7.465626213611e-02 0.0 
4.266497333242e-03 7.752870708522e-02 0.0 
4.877442186295e-03 7.685679729036e-02 0.0 
5.270332606738e-03 7.372919583941e-02 0.0 
4.969680125178e-03 7.918423817344e-02 0.0 
3.097339513911e-03 3.075069905851e-02 0.0 
8.381549483918e-04 7.023838259911e-03 0.0 
3.776929745028e-03 4.858762357586e-02 0.0 
4.174968206499e-03 5.127637703149e-02 0.0 
4.314233607463e-03 5.627528093297e-02 0.0 
2.070598014000e-03 6.289279453421e-02 0.0 
2.400442291726e-03 6.081069314117e-02 0.0 
2.414279090311e-03 5.650992064711e-02 0.0 
1.742529857703e-03 6.488032931110e-02 0.0 
5.412361197745e-03 4.706338739114e-02 0.0 
7.730231191019e-04 7.047507351036e-03 0.0 
5.264286220619e-03 5.158727389645e-02 0.0 
2.678958613437e-03 6.274051083405e-02 0.0 
2.493089882087e-03 7.669838000280e-02 0.0 
2.590616698924e-03 7.093603065128e-02 0.0 
2.849908515564e-03 7.070176724518e-02 0.0 
2.643288083576e-03 6.393260239705e-02 0.0 
2.303029923574e-03 7.021045529134e-02 0.0 
1.518232464817e-03 5.478085025498e-02 0.0 
1.219510374982e-03 5.266122006727e-02 0.0 
9.573063038499e-04 5.524180840628e-02 0.0 
9.234382107510e-04 5.047973681868e-02 0.0 
6.695245838628e-04 5.316859597803e-02 0.0 
6.947602451710e-04 5.759845051045e-02 0.0 
6.264054534642e-04 4.822998966212e-02 0.0 
3.856912783369e-04 5.158995475580e-02 0.0 
2.000045893936e-03 7.679894989093e-02 0.0 
-1.188127102120e-03 8.476128964289e-02 0.0 
-2.130111822449e-04 8.388591113298e-02 0.0 
-1.514421096438e-04 8.310942320357e-02 0.0 
5.406450939525e-04 8.285307241665e-02 0.0 
6.318095247764e-04 8.362816253725e-02 0.0 
1.442177385609e-03 8.216011898972e-02 0.0 
1.468123389508e-03 8.323622452711e-02 0.0 
-2.870162886399e-04 8.488852085305e-02 0.0 
-7.558822753264e-04 8.316765255534e-02 0.0 
-6.919922532767e-05 8.248189679305e-02 0.0 
-5.786707665614e-04 8.258687642465e-02 0.0 
-2.372931864514e-05 8.198727218128e-02 0.0 
5.958204767200e-04 8.146039609564e-02 0.0 
1.090830392643e-03 7.877820841155e-02 0.0 
2.372791576231e-04 8.160044575408e-03 0.0 
2.565777374381e-04 6.347506580248e-02 0.0 
4.911996971200e-04 6.531372797348e-02 0.0 
4.480103813875e-04 6.851825705204e-02 0.0 
7.224402918005e-04 6.686534459235e-02 0.0 
4.849879105173e-04 6.193737658484e-02 0.0 
2.143231441200e-04 7.008981073600e-02 0.0 
4.083995607558e-04 7.109680266574e-02 0.0 
1.948399421225e-05 8.053616798218e-02 0.0 
6.439477568909e-05 8.018238000877e-02 0.0 
1.890606587329e-05 8.020752707973e-02 0.0 
9.805387110018e-05 7.952989199437e-02 0.0 
1.580259301863e-04 7.958648362512e-02 0.0 
1.038074988169e-04 8.021948465175e-02 0.0 
1.343757080825e-04 8.029679279792e-02 0.0 
1.429830380584e-05 8.069006523745e-02 0.0 
1.584141940167e-04 8.040010746680e-02 0.0 
2.920749599804e-04 7.968672316691e-02 0.0 
-4.005234389481e-06 8.080857545067e-02 0.0 
9.693244316367e-05 4.210703808901e-02 0.0 
1.859900893848e-04 3.789164708104e-02 0.0 
6.839025421694e-04 7.435105911206e-03 0.0 
1.540512887225e-03 7.629732327867e-02 0.0 
-2.946410158096e-04 8.173154904427e-02 0.0 
1.461915945669e-04 1.037672255836e-02 0.0 
2.182807271396e-04 8.637311062529e-03 0.0 
1.834092022364e-04 8.360743933896e-03 0.0 
1.390249689155e-04 1.993063467528e-02 0.0 
2.261003933512e-04 1.635636031786e-02 0.0 
7.363947909056e-05 1.008033512756e-02 0.0 
1.746972571050e-03 7.384076695005e-02 0.0 
1.428078053124e-03 1.956944118653e-02 0.0 
4.195160365725e-04 2.640480437061e-02 0.0 
4.027122819029e-03 8.936100207805e-02 0.0 
2.362652866829e-03 7.511445682166e-02 0.0 
7.652731099248e-04 3.978201655632e-02 0.0 
2.253458984915e-03 4.670848527491e-02 0.0 
9.035734250666e-04 2.642467275391e-02 0.0 
1.381802700362e-03 4.483700243126e-02 0.0 
1.511994572747e-03 3.224531462996e-02 0.0 
1.831624142708e-03 1.467231019543e-02 0.0 
3.507609291704e-04 7.784837749094e-02 0.0 
1.200413323346e-03 5.707899131635e-02 0.0 
7.743920676049e-04 5.978595298417e-02 0.0 
7.066198504972e-04 4.012050457157e-02 0.0 
1.174881811865e-03 7.267352560461e-02 0.0 
9.754371715558e-04 5.937697698922e-02 0.0 
8.372792815008e-04 7.781087780442e-02 0.0 
1.965295829063e-03 1.531572192763e-02 0.0 
5.115007588660e-03 7.372520194296e-02 0.0 
4.017407882220e-03 5.851940743746e-02 0.0 
1.974375937240e-03 6.653849503071e-02 0.0 
2.140104889161e-03 7.256620009234e-02 0.0 
2.413378907869e-03 7.644649614795e-02 0.0 
6.744614039139e-03 7.422413801854e-02 0.0 
3.027951845695e-03 6.067882584844e-02 0.0 
2.690260857847e-03 3.733051219278e-02 0.0 
5.374579151862e-04 3.537239913092e-02 0.0 
-7.186809029402e-05 8.112379720356e-02 0.0 
2.728994810361e-03 3.390274235421e-02 0.0 
2.961962072289e-03 5.151991053646e-02 0.0 
1.668529197261e-03 5.430792979636e-02 0.0 
4.532951486990e-03 3.603617601630e-02 0.0 
1.696336565082e-03 8.080566418614e-02 0.0 
1.015946553387e-03 3.713876101967e-02 0.0 
9.921564191941e-04 2.162073074415e-02 0.0 
2.192938801834e-03 6.253452193832e-02 0.0 
5.703548681177e-04 7.921798215034e-02 0.0 
1.277420840168e-03 6.463597341382e-02 0.0 
1.948458293606e-03 1.923530758918e-02 0.0 
1.995581606323e-03 3.958283530242e-02 0.0 
8.932998858731e-04 7.397100890637e-02 0.0 
5.844758846326e-03 5.968123820306e-02 0.0 
6.192874172598e-03 7.291081444641e-02 0.0 
3.647377000867e-03 8.217425652505e-02 0.0 
4.336480420832e-04 2.258713843934e-02 0.0 
6.619796350222e-03 6.226244454649e-02 0.0 
3.625574153155e-03 2.922119059305e-02 0.0 
5.311829181462e-03 4.883496792116e-02 0.0 
7.582310836862e-04 7.281205215699e-02 0.0 
1.929693742763e-03 2.789965412229e-02 0.0 
6.524692861852e-03 6.346224584973e-02 0.0 
8.129238667749e-04 2.835155349763e-02 0.0 
4.632364529996e-03 4.325088160764e-02 0.0 
6.124539872115e-03 7.144891786328e-02 0.0 
1.331750655865e-03 3.410050219770e-02 0.0 
4.670584778838e-03 5.875029365359e-02 0.0 
4.230083087467e-03 3.235346209997e-02 0.0 
5.393192887386e-03 7.654468753371e-02 0.0 
5.514058926114e-03 5.752413258272e-02 0.0 
4.192856879033e-03 5.022493488156e-02 0.0 
6.235608191229e-03 6.029213669614e-02 0.0 
5.231718981893e-04 4.298323998561e-02 0.0 
2.319233169576e-03 3.092477900792e-02 0.0 
2.702169879388e-03 8.388274335549e-02 0.0 
6.485179628950e-03 8.409181657793e-02 0.0 
2.055421185766e-03 5.494382658942e-02 0.0 
3.571966574800e-03 2.821731395964e-02 0.0 
5.750936121771e-04 1.909039606646e-02 0.0 
6.170196242795e-03 7.849837435732e-02 0.0 
1.921793738155e-03 3.158469781288e-02 0.0 
1.036773433320e-03 2.545677047079e-02 0.0 
2.724367411119e-03 5.862393153465e-02 0.0 
1.224152901282e-04 7.696267912082e-02 0.0 
2.871121854458e-03 9.137292804188e-02 0.0 
5.548992280339e-03 7.865081701245e-02 0.0 
6.712026717768e-03 6.454672525887e-02 0.0 
2.700172268650e-03 5.409108789970e-02 0.0 
1.095058233425e-03 1.735278082319e-02 0.0 
1.568166712189e-03 2.863962708518e-02 0.0 
3.587164969511e-03 3.647996494381e-02 0.0 
-1.995496916223e-04 9.882442884123e-02 0.0 
3.964441935544e-03 7.952118605923e-02 0.0 
1.240122853695e-03 2.562649331082e-02 0.0 
5.505141311515e-03 5.689894649635e-02 0.0 
3.791906708745e-03 2.893983079030e-02 0.0 
4.218329966548e-04 5.580441658871e-02 0.0 
2.056274021914e-03 1.538957034653e-02 0.0 
4.695660829597e-03 8.998886660387e-02 0.0 
9.411735847307e-04 2.254139134116e-02 0.0 
3.989217210284e-03 3.642285796289e-02 0.0 
6.407915444939e-03 8.318475166224e-02 0.0 
4.225370932147e-04 7.696217384707e-02 0.0 
5.969931186547e-04 1.409576093360e-02 0.0 
3.349262550765e-03 2.921145198763e-02 0.0 
5.883796252860e-03 5.387786064247e-02 0.0 
5.292440183288e-03 5.913112733949e-02 0.0 
3.996404941358e-03 8.765929392855e-02 0.0 
2.364630435710e-03 5.183106296538e-02 0.0 
5.114935842794e-03 5.413438636723e-02 0.0 
4.067945323527e-04 7.995074400505e-03 0.0 
3.156137671867e-03 2.586704396827e-02 0.0 
3.079683247648e-03 5.276516783920e-02 0.0 
2.099567321765e-03 5.440868197165e-02 0.0 
5.638445420132e-03 4.655708185013e-02 0.0 
2.261904331444e-04 7.963572165826e-02 0.0 
4.370015352816e-03 8.509297946816e-02 0.0 
1.782920313847e-03 5.223977054247e-02 0.0 
5.430862715013e-03 7.613928243713e-02 0.0 
4.934207819860e-03 5.654082410136e-02 0.0 
2.422948966618e-03 1.672840300384e-02 0.0 
1.469968516560e-03 5.000869314089e-02 0.0 
5.736624147314e-03 7.265926766151e-02 0.0 
1.162714244081e-03 4.771822564397e-02 0.0 
4.244553735571e-03 9.245234935707e-02 0.0 
3.183950494574e-03 4.908808798086e-02 0.0 
8.520120035440e-04 4.536007221412e-02 0.0 
4.691348558939e-03 4.690747618647e-02 0.0 
3.640957076554e-04 7.974672445448e-02 0.0 
5.781765093069e-03 5.045302985434e-02 0.0 
3.287390393638e-04 2.374410066487e-02 0.0 
2.994018383736e-03 6.976608792753e-02 0.0 
4.563267032273e-03 5.397152685598e-02 0.0 
2.835135128677e-03 4.106724105748e-02 0.0 
4.317031998887e-03 9.656874218196e-02 0.0 
4.347775352596e-03 4.866957721896e-02 0.0 
4.145466357013e-03 3.930642433513e-02 0.0 
5.606899030266e-03 4.698710620035e-02 0.0 
6.473641644678e-03 5.896819352498e-02 0.0 
4.022205755350e-03 4.283175329649e-02 0.0 
4.837151162459e-03 9.413461330875e-02 0.0 
1.822534778746e-03 7.507096209424e-02 0.0 
1.484672019455e-03 7.708751922612e-02 0.0 
5.517273415574e-03 7.017660832486e-02 0.0 
3.626965144022e-03 3.509868816937e-02 0.0 
1.995718782171e-04 7.868219912679e-02 0.0 
3.299986704803e-03 4.187551875345e-02 0.0 
1.009379016606e-03 7.962486183597e-02 0.0 
5.068917409112e-03 7.143109504397e-02 0.0 
4.619402262747e-03 3.562508573457e-02 0.0 
1.181327612301e-04 5.780575179459e-02 0.0 
4.834324639239e-03 6.921176670189e-02 0.0 
1.507869890222e-04 7.504370716566e-02 0.0 
4.362233932092e-03 7.055634360476e-02 0.0 
6.114715412693e-03 5.294527880987e-02 0.0 
4.132553886148e-03 6.855480119270e-02 0.0 
3.664868097498e-03 6.998362022757e-02 0.0 
2.846647439370e-04 1.743704931011e-02 0.0 
3.443722743933e-03 6.819977457028e-02 0.0 
3.220138813731e-05 8.367562549193e-03 0.0 
1.003379137798e-04 7.425127351507e-03 0.0 
1.599797062042e-04 7.196714796793e-02 0.0 
4.094994700129e-03 1.002626914897e-01 0.0 
-2.065717878555e-03 8.871801557470e-02 0.0 
4.804416152588e-03 9.700553686478e-02 0.0 
2.718717810918e-03 7.263581518912e-02 0.0 
3.779696374494e-03 4.268921644686e-02 0.0 
3.324604749935e-04 7.164915352963e-02 0.0 
2.261110764135e-03 7.386392522252e-02 0.0 
1.499513398336e-03 1.595510322500e-02 0.0 
1.079564768148e-03 7.406418907859e-03 0.0 
2.138660583668e-04 4.580511591548e-02 0.0 
3.367120126146e-03 2.586225271606e-02 0.0 
5.339212326724e-03 4.320895531252e-02 0.0 
5.971100961943e-05 2.510692465751e-02 0.0 
9.861589843325e-04 7.743339630651e-02 0.0 
2.747802045633e-05 8.157730469151e-02 0.0 
2.526610331283e-04 3.990814272615e-02 0.0 
3.685708411080e-03 1.025708098639e-01 0.0 
4.250879361134e-03 9.967906309284e-02 0.0 
3.418016879476e-03 9.960400093246e-02 0.0 
5.918568028171e-04 7.184834861376e-02 0.0 
4.980176766818e-04 8.218658509798e-02 0.0 
3.162085997324e-03 1.029609367854e-01 0.0 
2.100417099040e-03 1.497341431046e-02 0.0 
1.661123770482e-03 7.148230688407e-02 0.0 
4.262444577300e-03 3.254007210595e-02 0.0 
1.920638522858e-03 1.021955949809e-01 0.0 
7.060332103990e-04 1.681458713715e-02 0.0 
2.233220268142e-03 1.546253157893e-02 0.0 
4.937287179594e-04 6.534246694155e-03 0.0 
3.344810790100e-03 2.433916785445e-02 0.0 
1.799534895568e-03 9.735967044833e-02 0.0 
2.427134205341e-03 6.542066675665e-02 0.0 
1.870561622958e-03 1.530027312775e-02 0.0 
2.880176966329e-04 3.911864336165e-02 0.0 
3.541998553533e-04 6.261247657697e-03 0.0 
2.092645600179e-03 7.205393070643e-02 0.0 
1.758074167100e-04 1.629062126960e-02 0.0 
1.958745960966e-03 8.374474303719e-02 0.0 
8.408427476070e-05 1.580954687203e-02 0.0 
3.230018722149e-03 3.453032983737e-02 0.0 
6.714965540979e-04 6.315098641233e-02 0.0 
2.909584556363e-03 6.558602859386e-02 0.0 
2.748583498486e-04 1.286345420807e-02 0.0 
1.277509812326e-03 1.618608265369e-02 0.0 
6.317303052299e-04 9.540409141575e-02 0.0 
3.348990384993e-04 4.662092068178e-02 0.0 
9.730733096882e-04 6.686092087406e-02 0.0 
-5.916400945623e-04 8.611933179125e-02 0.0 
1.202184340052e-03 1.363491695510e-02 0.0 
2.587401997264e-03 2.628393051701e-02 0.0 
4.576032158159e-04 1.313401914140e-02 0.0 
3.916793802117e-05 7.957947710236e-02 0.0 
7.763252394533e-05 8.101272108746e-02 0.0 
1.318361378376e-03 1.269135070991e-02 0.0 
1.579096046871e-03 1.458650567692e-02 0.0 
2.241845373099e-03 8.176197237777e-02 0.0 
2.340704890784e-04 6.787992329706e-03 0.0 
-1.017115262858e-03 9.398046541488e-02 0.0 
1.351070842922e-03 7.809538133171e-02 0.0 
1.563863883929e-04 8.056350227890e-02 0.0 
2.871589858353e-04 6.327442953772e-03 0.0 
4.256252799095e-04 1.563025241763e-02 0.0 
6.839079002559e-04 6.366629327344e-02 0.0 
2.988824410529e-03 7.584852347998e-02 0.0 
3.522173506028e-04 7.350944538892e-02 0.0 
2.813935703514e-03 2.131660647197e-02 0.0 
4.110925461358e-04 8.127071122771e-02 0.0 
2.866389378084e-04 1.475499475532e-02 0.0 
1.494192901513e-03 1.248615438036e-02 0.0 
8.586235493766e-04 1.476199123766e-02 0.0 
8.439826743789e-04 5.602680873604e-03 0.0 
-8.986649790508e-04 8.963744598201e-02 0.0 
1.908837833838e-03 1.333424449433e-02 0.0 
2.479318029197e-03 1.968271729439e-02 0.0 
7.420172157993e-04 7.771342336631e-02 0.0 
1.100287032983e-03 1.582344811170e-02 0.0 
6.259391283434e-04 6.955999337839e-02 0.0 
4.571393269206e-04 7.888411288195e-02 0.0 
1.539763553637e-05 7.416169734114e-03 0.0 
-5.497357274398e-06 8.050102851587e-02 0.0 
1.229916369638e-04 7.770662559407e-02 0.0 
4.125777737063e-05 6.057996687460e-03 0.0 
2.604980157153e-04 7.893491669384e-02 0.0 
2.627724418431e-04 6.688234058005e-02 0.0 
1.428093339296e-03 1.408976101966e-02 0.0 
1.790421091801e-04 5.503552880979e-02 0.0 
1.449898811217e-04 3.099537192354e-02 0.0 
1.058532055875e-03 8.181710768767e-02 0.0 
-1.986309500875e-03 8.709080375049e-02 0.0 
2.075108779707e-04 5.396280752380e-02 0.0 
2.021587770972e-03 1.379116111799e-02 0.0 
6.604986036720e-04 1.410621819063e-02 0.0 
5.359731851939e-04 5.911615641456e-02 0.0 
1.789033222590e-03 9.295098065227e-02 0.0 
2.024349188364e-03 1.987386961143e-02 0.0 
7.316709921428e-04 6.072895711057e-02 0.0 
2.568250898079e-03 2.108112477586e-02 0.0 
2.692420949696e-03 2.008127444292e-02 0.0 
-2.651317882236e-03 9.506976441650e-02 0.0 
1.660631076944e-04 5.034385986079e-02 0.0 
1.302783002988e-04 8.072715017624e-02 0.0 
8.135379014806e-04 1.207295297830e-02 0.0 
4.828056791988e-04 5.886029133665e-02 0.0 
6.256042312991e-04 1.071926591415e-01 0.0 
8.328051324469e-05 1.163322628968e-01 0.0 
2.177413058813e-03 1.069814411803e-01 0.0 
8.517724214840e-05 1.131894428418e-01 0.0 
3.059106332792e-03 1.054660332896e-01 0.0 
6.879958287698e-05 1.096212416338e-01 0.0 
3.515247351917e-03 1.029642467808e-01 0.0 
8.627076041989e-05 1.056240901528e-01 0.0 
3.694807075053e-03 9.957685883910e-02 0.0 
7.198666843067e-05 1.011966178583e-01 0.0 
3.663168647218e-03 9.549647415271e-02 0.0 
9.003295916443e-05 9.633882535294e-02 0.0 
3.479744671488e-03 9.069704429104e-02 0.0 
7.413238610354e-05 9.105132721691e-02 0.0 
3.189927275649e-03 8.538082996616e-02 0.0 
9.011417341043e-05 8.533691833472e-02 0.0 

VECTORS node_bounda_dof_materi_velocity_x float
1.000000000000e+00 0.0 0.0 
1.000000000000e+00 0.0 0.0 
1.000000000000e+00 0.0 0.0 
1.000000000000e+00 0.0 0.0 
1.000000000000e+00 0.0 0.0 
1.000000000000e+00 0.0 0.0 
1.000000000000e+00 0.0 0.0 
1.000000000000e+00 0.0 0.0 
1.000000000000e+00 0.0 0.0 
1.000000000000e+00 0.0 0.0 
1.000000000000e+00 0.0 0.0 
1.000000000000e+00 0.0 0.0 
1.000000000000e+00 0.0 0.0 
1.000000000000e+00 0.0 0.0 
1.000000000000e+00 0.0 0.0 
1.000000000000e+00 0.0 0.0 
1.000000000000e+00 0.0 0.0 
1.000000000000e+00 0.0 0.0 
1.000000000000e+00 0.0 0.0 
1.000000000000e+00 0.0 0.0 
1.000000000000e+00 0.0 0.0 
1.000000000000e+00 0.0 0.0 
1.000000000000e+00 0.0 0.0 
1.000000000000e+00 0.0 0.0 
1.000000000000e+00 0.0 0.0 
1.000000000000e+00 0.0 0.0 
1.000000000000e+00 0.0 0.0 
1.000000000000e+00 0.0 0.0 
1.000000000000e+00 0.0 0.0 
1.000000000000e+00 0.0 0.0 
1.000000000000e+00 0.0 0.0 
1.000000000000e+00 0.0 0.0 
1.000000000000e+00 0.0 0.0 
1.000000000000e+00 0.0 0.0 
1.000000000000e+00 0.0 0.0 
1.000000000000e+00 0.0 0.0 
1.000000000000e+00 0.0 0.0 
1.000000000000e+00 0.0 0.0 
1.000000000000e+00 0.0 0.0 
1.000000000000e+00 0.0 0.0 
1.000000000000e+00 0.0 0.0 
1.000000000000e+00 0.0 0.0 
1.000000000000e+00 0.0 0.0 
1.000000000000e+00 0.0 0.0 
1.000000000000e+00 0.0 0.0 
1.000000000000e+00 0.0 0.0 
1.000000000000e+00 0.0 0.0 
1.000000000000e+00 0.0 0.0 
1.000000000000e+00 0.0 0.0 
1.000000000000e+00 0.0 0.0 
1.000000000000e+00 0.0 0.0 
1.000000000000e+00 0.0 0.0 
1.000000000000e+00 0.0 0.0 
1.000000000000e+00 0.0 0.0 
1.000000000000e+00 0.0 0.0 
1.000000000000e+00 0.0 0.0 
1.000000000000e+00 0.0 0.0 
1.000000000000e+00 0.0 0.0 
1.000000000000e+00 0.0 0.0 
1.000000000000e+00 0.0 0.0 
1.000000000000e+00 0.0 0.0 
1.000000000000e+00 0.0 0.0 
1.000000000000e+00 0.0 0.0 
1.000000000000e+00 0.0 0.0 
1.000000000000e+00 0.0 0.0 
1.000000000000e+00 0.0 0.0 
1.000000000000e+00 0.0 0.0 
1.000000000000e+00 0.0 0.0 
1.000000000000e+00 0.0 0.0 
1.000000000000e+00 0.0 0.0 
1.000000000000e+00 0.0 0.0 
1.000000000000e+00 0.0 0.0 
1.000000000000e+00 0.0 0.0 
1.000000000000e+00 0.0 0.0 
1.000000000000e+00 0.0 0.0 
1.000000000000e+00 0.0 0.0 
1.000000000000e+00 0.0 0.0 
1.000000000000e+00 0.0 0.0 
1.000000000000e+00 0.0 0.0 
1.000000000000e+00 0.0 0.0 
1.000000000000e+00 0.0 0.0 
0.0 0.0 0.0 
0.0 0.0 0.0 
0.0 0.0 0.0 
0.0 0.0 0.0 
0.0 0.0 0.0 
0.0 0.0 0.0 
0.0 0.0 0.0 
0.0 0.0 0.0 
0.0 0.0 0.0 
0.0 0.0 0.0 
0.0 0.0 0.0 
1.000000000000e+00 0.0 0.0 
1.000000000000e+00 0.0 0.0 
1.000000000000e+00 0.0 0.0 
1.000000000000e+00 0.0 0.0 
1.000000000000e+00 0.0 0.0 
1.000000000000e+00 0.0 0.0 
1.000000000000e+00 0.0 0.0 
1.000000000000e+00 0.0 0.0 
0.0 0.0 0.0 
0.0 0.0 0.0 
0.0 0.0 0.0 
0.0 0.0 0.0 
0.0 0.0 0.0 
0.0 0.0 0.0 
0.0 0.0 0.0 
0.0 0.0 0.0 
0.0 0.0 0.0 
0.0 0.0 0.0 
0.0 0.0 0.0 
0.0 0.0 0.0 
0.0 0.0 0.0 
0.0 0.0 0.0 
0.0 0.0 0.0 
0.0 0.0 0.0 
0.0 0.0 0.0 
0.0 0.0 0.0 
0.0 0.0 0.0 
0.0 0.0 0.0 
0.0 0.0 0.0 
0.0 0.0 0.0 
0.0 0.0 0.0 
0.0 0.0 0.0 
0.0 0.0 0.0 
0.0 0.0 0.0 
0.0 0.0 0.0 
0.0 0.0 0.0 
0.0 0.0 0.0 
0.0 0.0 0.0 
0.0 0.0 0.0 
0.0 0.0 0.0 
0.0 0.0 0.0 
0.0 0.0 0.0 
0.0 0.0 0.0 
0.0 0.0 0.0 
0.0 0.0 0.0 
0.0 0.0 0.0 
0.0 0.0 0.0 
0.0 0.0 0.0 
0.0 0.0 0.0 
0.0 0.0 0.0 
0.0 0.0 0.0 
0.0 0.0 0.0 
0.0 0.0 0.0 
0.0 0.0 0.0 
0.0 0.0 0.0 
0.0 0.0 0.0 
0.0 0.0 0.0 
0.0 0.0 0.0 
0.0 0.0 0.0 
0.0 0.0 0.0 
0.0 0.0 0.0 
0.0 0.0 0.0 
0.0 0.0 0.0 
0.0 0.0 0.0 
0.0 0.0 0.0 
0.0 0.0 0.0 
0.0 0.0 0.0 
0.0 0.0 0.0 
0.0 0.0 0.0 
0.0 0.0 0.0 
0.0 0.0 0.0 
0.0 0.0 0.0 
0.0 0.0 0.0 
0.0 0.0 0.0 
0.0 0.0 0.0 
0.0 0.0 0.0 
0.0 0.0 0.0 
0.0 0.0 0.0 
0.0 0.0 0.0 
0.0 0.0 0.0 
0.0 0.0 0.0 
0.0 0.0 0.0 
0.0 0.0 0.0 
0.0 0.0 0.0 
0.0 0.0 0.0 
0.0 0.0 0.0 
0.0 0.0 0.0 
0.0 0.0 0.0 
0.0 0.0 0.0 
0.0 0.0 0.0 
0.0 0.0 0.0 
0.0 0.0 0.0 
0.0 0.0 0.0 
0.0 0.0 0.0 
0.0 0.0 0.0 
0.0 0.0 0.0 
0.0 0.0 0.0 
0.0 0.0 0.0 
0.0 0.0 0.0 
0.0 0.0 0.0 
0.0 0.0 0.0 
0.0 0.0 0.0 
0.0 0.0 0.0 
0.0 0.0 0.0 
0.0 0.0 0.0 
0.0 0.0 0.0 
0.0 0.0 0.0 
0.0 0.0 0.0 
0.0 0.0 0.0 
0.0 0.0 0.0 
0.0 0.0 0.0 
0.0 0.0 0.0 
0.0 0.0 0.0 
0.0 0.0 0.0 
0.0 0.0 0.0 
0.0 0.0 0.0 
0.0 0.0 0.0 
0.0 0.0 0.0 
0.0 0.0 0.0 
0.0 0.0 0.0 
0.0 0.0 0.0 
0.0 0.0 0.0 
0.0 0.0 0.0 
0.0 0.0 0.0 
0.0 0.0 0.0 
0.0 0.0 0.0 
0.0 0.0 0.0 
0.0 0.0 0.0 
0.0 0.0 0.0 
0.0 0.0 0.0 
0.0 0.0 0.0 
0.0 0.0 0.0 
0.0 0.0 0.0 
0.0 0.0 0.0 
0.0 0.0 0.0 
0.0 0.0 0.0 
0.0 0.0 0.0 
0.0 0.0 0.0 
0.0 0.0 0.0 
0.0 0.0 0.0 
0.0 0.0 0.0 
0.0 0.0 0.0 
0.0 0.0 0.0 
0.0 0.0 0.0 
0.0 0.0 0.0 
0.0 0.0 0.0 
0.0 0.0 0.0 
0.0 0.0 0.0 
0.0 0.0 0.0 
0.0 0.0 0.0 
0.0 0.0 0.0 
0.0 0.0 0.0 
0.0 0.0 0.0 
0.0 0.0 0.0 
0.0 0.0 0.0 
0.0 0.0 0.0 
0.0 0.0 0.0 
0.0 0.0 0.0 
0.0 0.0 0.0 
0.0 0.0 0.0 
0.0 0.0 0.0 
0.0 0.0 0.0 
0.0 0.0 0.0 
0.0 0.0 0.0 
0.0 0.0 0.0 
0.0 0.0 0.0 
0.0 0.0 0.0 
0.0 0.0 0.0 
0.0 0.0 0.0 
0.0 0.0 0.0 
0.0 0.0 0.0 
0.0 0.0 0.0 
0.0 0.0 0.0 
0.0 0.0 0.0 
0.0 0.0 0.0 
0.0 0.0 0.0 
0.0 0.0 0.0 
0.0 0.0 0.0 
0.0 0.0 0.0 
0.0 0.0 0.0 
0.0 0.0 0.0 
0.0 0.0 0.0 
0.0 0.0 0.0 
0.0 0.0 0.0 
0.0 0.0 0.0 
0.0 0.0 0.0 
0.0 0.0 0.0 
0.0 0.0 0.0 
0.0 0.0 0.0 
0.0 0.0 0.0 
0.0 0.0 0.0 
0.0 0.0 0.0 
0.0 0.0 0.0 
0.0 0.0 0.0 
0.0 0.0 0.0 
0.0 0.0 0.0 
0.0 0.0 0.0 
0.0 0.0 0.0 
0.0 0.0 0.0 
0.0 0.0 0.0 
0.0 0.0 0.0 
0.0 0.0 0.0 
0.0 0.0 0.0 
0.0 0.0 0.0 
0.0 0.0 0.0 
0.0 0.0 0.0 
0.0 0.0 0.0 
0.0 0.0 0.0 
0.0 0.0 0.0 
0.0 0.0 0.0 
0.0 0.0 0.0 
0.0 0.0 0.0 
0.0 0.0 0.0 
0.0 0.0 0.0 
0.0 0.0 0.0 
0.0 0.0 0.0 
0.0 0.0 0.0 
0.0 0.0 0.0 
0.0 0.0 0.0 
0.0 0.0 0.0 
0.0 0.0 0.0 
0.0 0.0 0.0 
0.0 0.0 0.0 
0.0 0.0 0.0 
0.0 0.0 0.0 
0.0 0.0 0.0 
0.0 0.0 0.0 
0.0 0.0 0.0 
0.0 0.0 0.0 
0.0 0.0 0.0 
0.0 0.0 0.0 
0.0 0.0 0.0 
0.0 0.0 0.0 
0.0 0.0 0.0 
0.0 0.0 0.0 
0.0 0.0 0.0 
0.0 0.0 0.0 
0.0 0.0 0.0 
0.0 0.0 0.0 
0.0 0.0 0.0 
0.0 0.0 0.0 
0.0 0.0 0.0 
0.0 0.0 0.0 
0.0 0.0 0.0 
0.0 0.0 0.0 
0.0 0.0 0.0 
0.0 0.0 0.0 
0.0 0.0 0.0 
0.0 0.0 0.0 
0.0 0.0 0.0 
0.0 0.0 0.0 
0.0 0.0 0.0 
0.0 0.0 0.0 
0.0 0.0 0.0 
0.0 0.0 0.0 
0.0 0.0 0.0 
0.0 0.0 0.0 
0.0 0.0 0.0 
0.0 0.0 0.0 
0.0 0.0 0.0 
0.0 0.0 0.0 
0.0 0.0 0.0 
0.0 0.0 0.0 
0.0 0.0 0.0 
0.0 0.0 0.0 
0.0 0.0 0.0 
0.0 0.0 0.0 
0.0 0.0 0.0 
0.0 0.0 0.0 
0.0 0.0 0.0 
0.0 0.0 0.0 
0.0 0.0 0.0 
0.0 0.0 0.0 
0.0 0.0 0.0 
0.0 0.0 0.0 
0.0 0.0 0.0 
0.0 0.0 0.0 
0.0 0.0 0.0 
0.0 0.0 0.0 
0.0 0.0 0.0 
0.0 0.0 0.0 
0.0 0.0 0.0 
0.0 0.0 0.0 
0.0 0.0 0.0 
0.0 0.0 0.0 
0.0 0.0 0.0 
0.0 0.0 0.0 
0.0 0.0 0.0 
0.0 0.0 0.0 
0.0 0.0 0.0 
0.0 0.0 0.0 
0.0 0.0 0.0 
0.0 0.0 0.0 
0.0 0.0 0.0 
0.0 0.0 0.0 
0.0 0.0 0.0 
0.0 0.0 0.0 
0.0 0.0 0.0 
0.0 0.0 0.0 
0.0 0.0 0.0 
0.0 0.0 0.0 
0.0 0.0 0.0 
0.0 0.0 0.0 
0.0 0.0 0.0 
0.0 0.0 0.0 
0.0 0.0 0.0 
0.0 0.0 0.0 
0.0 0.0 0.0 
0.0 0.0 0.0 
0.0 0.0 0.0 
0.0 0.0 0.0 
0.0 0.0 0.0 
0.0 0.0 0.0 
0.0 0.0 0.0 
0.0 0.0 0.0 
0.0 0.0 0.0 
0.0 0.0 0.0 
0.0 0.0 0.0 
0.0 0.0 0.0 
0.0 0.0 0.0 
0.0 0.0 0.0 
0.0 0.0 0.0 
0.0 0.0 0.0 
0.0 0.0 0.0 
0.0 0.0 0.0 
0.0 0.0 0.0 
0.0 0.0 0.0 
0.0 0.0 0.0 
0.0 0.0 0.0 
0.0 0.0 0.0 
0.0 0.0 0.0 
0.0 0.0 0.0 
0.0 0.0 0.0 
0.0 0.0 0.0 
0.0 0.0 0.0 
0.0 0.0 0.0 
0.0 0.0 0.0 
0.0 0.0 0.0 
0.0 0.0 0.0 
0.0 0.0 0.0 
0.0 0.0 0.0 
0.0 0.0 0.0 
0.0 0.0 0.0 
0.0 0.0 0.0 
0.0 0.0 0.0 
0.0 0.0 0.0 
0.0 0.0 0.0 
0.0 0.0 0.0 
0.0 0.0 0.0 
0.0 0.0 0.0 
0.0 0.0 0.0 
0.0 0.0 0.0 
0.0 0.0 0.0 
0.0 0.0 0.0 
0.0 0.0 0.0 
0.0 0.0 0.0 
0.0 0.0 0.0 
0.0 0.0 0.0 
0.0 0.0 0.0 
0.0 0.0 0.0 
0.0 0.0 0.0 
0.0 0.0 0.0 
0.0 0.0 0.0 
0.0 0.0 0.0 
0.0 0.0 0.0 
0.0 0.0 0.0 
0.0 0.0 0.0 
0.0 0.0 0.0 
0.0 0.0 0.0 
0.0 0.0 0.0 
0.0 0.0 0.0 
0.0 0.0 0.0 
0.0 0.0 0.0 
0.0 0.0 0.0 
0.0 0.0 0.0 
0.0 0.0 0.0 
0.0 0.0 0.0 
0.0 0.0 0.0 
0.0 0.0 0.0 
0.0 0.0 0.0 
0.0 0.0 0.0 
0.0 0.0 0.0 
0.0 0.0 0.0 
0.0 0.0 0.0 
0.0 0.0 0.0 
0.0 0.0 0.0 
0.0 0.0 0.0 
0.0 0.0 0.0 
0.0 0.0 0.0 
0.0 0.0 0.0 
0.0 0.0 0.0 
0.0 0.0 0.0 
0.0 0.0 0.0 
0.0 0.0 0.0 
0.0 0.0 0.0 
0.0 0.0 0.0 
0.0 0.0 0.0 
0.0 0.0 0.0 
0.0 0.0 0.0 
0.0 0.0 0.0 
0.0 0.0 0.0 
0.0 0.0 0.0 
0.0 0.0 0.0 
0.0 0.0 0.0 
0.0 0.0 0.0 
0.0 0.0 0.0 
0.0 0.0 0.0 
0.0 0.0 0.0 
0.0 0.0 0.0 
0.0 0.0 0.0 
0.0 0.0 0.0 
0.0 0.0 0.0 
0.0 0.0 0.0 
0.0 0.0 0.0 
0.0 0.0 0.0 
0.0 0.0 0.0 
0.0 0.0 0.0 
0.0 0.0 0.0 
0.0 0.0 0.0 
0.0 0.0 0.0 
0.0 0.0 0.0 
0.0 0.0 0.0 
0.0 0.0 0.0 
0.0 0.0 0.0 
0.0 0.0 0.0 
0.0 0.0 0.0 
0.0 0.0 0.0 
0.0 0.0 0.0 
0.0 0.0 0.0 
0.0 0.0 0.0 
0.0 0.0 0.0 
0.0 0.0 0.0 
0.0 0.0 0.0 
0.0 0.0 0.0 
0.0 0.0 0.0 
0.0 0.0 0.0 
0.0 0.0 0.0 
0.0 0.0 0.0 
0.0 0.0 0.0 
0.0 0.0 0.0 
0.0 0.0 0.0 
0.0 0.0 0.0 
0.0 0.0 0.0 
0.0 0.0 0.0 
0.0 0.0 0.0 
0.0 0.0 0.0 
0.0 0.0 0.0 
0.0 0.0 0.0 
0.0 0.0 0.0 
0.0 0.0 0.0 
0.0 0.0 0.0 
0.0 0.0 0.0 
0.0 0.0 0.0 
0.0 0.0 0.0 
0.0 0.0 0.0 
0.0 0.0 0.0 
0.0 0.0 0.0 
0.0 0.0 0.0 
0.0 0.0 0.0 
0.0 0.0 0.0 
0.0 0.0 0.0 
0.0 0.0 0.0 
0.0 0.0 0.0 
0.0 0.0 0.0 
0.0 0.0 0.0 
0.0 0.0 0.0 
0.0 0.0 0.0 
0.0 0.0 0.0 
0.0 0.0 0.0 
0.0 0.0 0.0 
0.0 0.0 0.0 
0.0 0.0 0.0 
0.0 0.0 0.0 
0.0 0.0 0.0 
0.0 0.0 0.0 
0.0 0.0 0.0 
0.0 0.0 0.0 
0.0 0.0 0.0 
0.0 0.0 0.0 
0.0 0.0 0.0 
0.0 0.0 0.0 
0.0 0.0 0.0 
0.0 0.0 0.0 
0.0 0.0 0.0 
0.0 0.0 0.0 
0.0 0.0 0.0 
0.0 0.0 0.0 
0.0 0.0 0.0 
0.0 0.0 0.0 
0.0 0.0 0.0 
0.0 0.0 0.0 
0.0 0.0 0.0 
0.0 0.0 0.0 
0.0 0.0 0.0 
0.0 0.0 0.0 
0.0 0.0 0.0 
0.0 0.0 0.0 
0.0 0.0 0.0 
0.0 0.0 0.0 
0.0 0.0 0.0 
0.0 0.0 0.0 
0.0 0.0 0.0 
0.0 0.0 0.0 
0.0 0.0 0.0 
0.0 0.0 0.0 
0.0 0.0 0.0 
0.0 0.0 0.0 
0.0 0.0 0.0 
0.0 0.0 0.0 
0.0 0.0 0.0 
0.0 0.0 0.0 
0.0 0.0 0.0 
0.0 0.0 0.0 
0.0 0.0 0.0 
0.0 0.0 0.0 
0.0 0.0 0.0 
0.0 0.0 0.0 
0.0 0.0 0.0 
0.0 0.0 0.0 
0.0 0.0 0.0 
0.0 0.0 0.0 
0.0 0.0 0.0 
0.0 0.0 0.0 
0.0 0.0 0.0 
0.0 0.0 0.0 
0.0 0.0 0.0 
0.0 0.0 0.0 
0.0 0.0 0.0 
0.0 0.0 0.0 
0.0 0.0 0.0 
0.0 0.0 0.0 
0.0 0.0 0.0 
0.0 0.0 0.0 
0.0 0.0 0.0 
0.0 0.0 0.0 
0.0 0.0 0.0 
0.0 0.0 0.0 
0.0 0.0 0.0 
0.0 0.0 0.0 
0.0 0.0 0.0 
0.0 0.0 0.0 
0.0 0.0 0.0 
0.0 0.0 0.0 
0.0 0.0 0.0 
0.0 0.0 0.0 
0.0 0.0 0.0 
0.0 0.0 0.0 
0.0 0.0 0.0 
0.0 0.0 0.0 
0.0 0.0 0.0 
0.0 0.0 0.0 
0.0 0.0 0.0 
0.0 0.0 0.0 
0.0 0.0 0.0 
0.0 0.0 0.0 
0.0 0.0 0.0 
0.0 0.0 0.0 
0.0 0.0 0.0 
0.0 0.0 0.0 
0.0 0.0 0.0 
0.0 0.0 0.0 
0.0 0.0 0.0 
0.0 0.0 0.0 
0.0 0.0 0.0 
0.0 0.0 0.0 
0.0 0.0 0.0 
0.0 0.0 0.0 
0.0 0.0 0.0 
0.0 0.0 0.0 
0.0 0.0 0.0 
0.0 0.0 0.0 
0.0 0.0 0.0 
0.0 0.0 0.0 
0.0 0.0 0.0 
0.0 0.0 0.0 
0.0 0.0 0.0 
0.0 0.0 0.0 
0.0 0.0 0.0 
0.0 0.0 0.0 
0.0 0.0 0.0 
0.0 0.0 0.0 
0.0 0.0 0.0 
0.0 0.0 0.0 
0.0 0.0 0.0 
0.0 0.0 0.0 
0.0 0.0 0.0 
0.0 0.0 0.0 
0.0 0.0 0.0 
0.0 0.0 0.0 
0.0 0.0 0.0 
0.0 0.0 0.0 
0.0 0.0 0.0 
0.0 0.0 0.0 
0.0 0.0 0.0 
0.0 0.0 0.0 
0.0 0.0 0.0 
0.0 0.0 0.0 
0.0 0.0 0.0 
0.0 0.0 0.0 
0.0 0.0 0.0 
0.0 0.0 0.0 
0.0 0.0 0.0 
0.0 0.0 0.0 
0.0 0.0 0.0 
0.0 0.0 0.0 
0.0 0.0 0.0 
0.0 0.0 0.0 
0.0 0.0 0.0 
0.0 0.0 0.0 
0.0 0.0 0.0 
0.0 0.0 0.0 
0.0 0.0 0.0 
0.0 0.0 0.0 
0.0 0.0 0.0 
0.0 0.0 0.0 
0.0 0.0 0.0 
0.0 0.0 0.0 
0.0 0.0 0.0 
0.0 0.0 0.0 
0.0 0.0 0.0 
0.0 0.0 0.0 
0.0 0.0 0.0 
0.0 0.0 0.0 
0.0 0.0 0.0 
0.0 0.0 0.0 
0.0 0.0 0.0 
0.0 0.0 0.0 
0.0 0.0 0.0 
0.0 0.0 0.0 
0.0 0.0 0.0 
0.0 0.0 0.0 
0.0 0.0 0.0 
0.0 0.0 0.0 
0.0 0.0 0.0 
0.0 0.0 0.0 
0.0 0.0 0.0 
0.0 0.0 0.0 
0.0 0.0 0.0 
0.0 0.0 0.0 
0.0 0.0 0.0 
0.0 0.0 0.0 
0.0 0.0 0.0 
0.0 0.0 0.0 
0.0 0.0 0.0 
0.0 0.0 0.0 
0.0 0.0 0.0 
0.0 0.0 0.0 
0.0 0.0 0.0 
0.0 0.0 0.0 
0.0 0.0 0.0 
0.0 0.0 0.0 
0.0 0.0 0.0 
0.0 0.0 0.0 
0.0 0.0 0.0 
0.0 0.0 0.0 
0.0 0.0 0.0 
0.0 0.0 0.0 
0.0 0.0 0.0 
0.0 0.0 0.0 
0.0 0.0 0.0 
0.0 0.0 0.0 
0.0 0.0 0.0 
0.0 0.0 0.0 
0.0 0.0 0.0 
0.0 0.0 0.0 
0.0 0.0 0.0 
0.0 0.0 0.0 
0.0 0.0 0.0 
0.0 0.0 0.0 
0.0 0.0 0.0 
0.0 0.0 0.0 
0.0 0.0 0.0 
0.0 0.0 0.0 
0.0 0.0 0.0 
0.0 0.0 0.0 
0.0 0.0 0.0 
0.0 0.0 0.0 
0.0 0.0 0.0 
0.0 0.0 0.0 
0.0 0.0 0.0 
0.0 0.0 0.0 
0.0 0.0 0.0 
0.0 0.0 0.0 
0.0 0.0 0.0 
0.0 0.0 0.0 
0.0 0.0 0.0 
0.0 0.0 0.0 
0.0 0.0 0.0 
0.0 0.0 0.0 
0.0 0.0 0.0 
0.0 0.0 0.0 
0.0 0.0 0.0 
0.0 0.0 0.0 
0.0 0.0 0.0 
0.0 0.0 0.0 
0.0 0.0 0.0 
0.0 0.0 0.0 
0.0 0.0 0.0 
0.0 0.0 0.0 
0.0 0.0 0.0 
0.0 0.0 0.0 
0.0 0.0 0.0 
0.0 0.0 0.0 
0.0 0.0 0.0 
0.0 0.0 0.0 
0.0 0.0 0.0 
0.0 0.0 0.0 
0.0 0.0 0.0 
0.0 0.0 0.0 
0.0 0.0 0.0 
0.0 0.0 0.0 
0.0 0.0 0.0 
0.0 0.0 0.0 
0.0 0.0 0.0 
0.0 0.0 0.0 
0.0 0.0 0.0 
0.0 0.0 0.0 
0.0 0.0 0.0 
0.0 0.0 0.0 
0.0 0.0 0.0 
0.0 0.0 0.0 
0.0 0.0 0.0 
0.0 0.0 0.0 
0.0 0.0 0.0 
0.0 0.0 0.0 
0.0 0.0 0.0 
0.0 0.0 0.0 
0.0 0.0 0.0 
0.0 0.0 0.0 
0.0 0.0 0.0 
0.0 0.0 0.0 
0.0 0.0 0.0 
0.0 0.0 0.0 
0.0 0.0 0.0 
0.0 0.0 0.0 
0.0 0.0 0.0 
0.0 0.0 0.0 
0.0 0.0 0.0 
0.0 0.0 0.0 
0.0 0.0 0.0 
0.0 0.0 0.0 
0.0 0.0 0.0 
0.0 0.0 0.0 
0.0 0.0 0.0 
0.0 0.0 0.0 
0.0 0.0 0.0 
0.0 0.0 0.0 
0.0 0.0 0.0 
0.0 0.0 0.0 
0.0 0.0 0.0 
0.0 0.0 0.0 
0.0 0.0 0.0 
0.0 0.0 0.0 
0.0 0.0 0.0 
0.0 0.0 0.0 
0.0 0.0 0.0 
0.0 0.0 0.0 
0.0 0.0 0.0 
0.0 0.0 0.0 
0.0 0.0 0.0 
0.0 0.0 0.0 
0.0 0.0 0.0 
0.0 0.0 0.0 
0.0 0.0 0.0 
0.0 0.0 0.0 
0.0 0.0 0.0 
0.0 0.0 0.0 
0.0 0.0 0.0 
0.0 0.0 0.0 
0.0 0.0 0.0 
0.0 0.0 0.0 
0.0 0.0 0.0 
0.0 0.0 0.0 
0.0 0.0 0.0 
0.0 0.0 0.0 
0.0 0.0 0.0 
0.0 0.0 0.0 
0.0 0.0 0.0 
0.0 0.0 0.0 
0.0 0.0 0.0 
0.0 0.0 0.0 
0.0 0.0 0.0 
0.0 0.0 0.0 
0.0 0.0 0.0 
0.0 0.0 0.0 
0.0 0.0 0.0 
0.0 0.0 0.0 
0.0 0.0 0.0 
0.0 0.0 0.0 
0.0 0.0 0.0 
0.0 0.0 0.0 
0.0 0.0 0.0 
0.0 0.0 0.0 
0.0 0.0 0.0 
0.0 0.0 0.0 
0.0 0.0 0.0 
0.0 0.0 0.0 
0.0 0.0 0.0 
0.0 0.0 0.0 
0.0 0.0 0.0 
0.0 0.0 0.0 
0.0 0.0 0.0 
0.0 0.0 0.0 
0.0 0.0 0.0 
0.0 0.0 0.0 
0.0 0.0 0.0 
0.0 0.0 0.0 
0.0 0.0 0.0 
0.0 0.0 0.0 
0.0 0.0 0.0 
0.0 0.0 0.0 
0.0 0.0 0.0 
0.0 0.0 0.0 
0.0 0.0 0.0 
0.0 0.0 0.0 
0.0 0.0 0.0 
0.0 0.0 0.0 
0.0 0.0 0.0 
0.0 0.0 0.0 
0.0 0.0 0.0 
0.0 0.0 0.0 
0.0 0.0 0.0 
0.0 0.0 0.0 
0.0 0.0 0.0 
0.0 0.0 0.0 
0.0 0.0 0.0 
0.0 0.0 0.0 
0.0 0.0 0.0 
0.0 0.0 0.0 
0.0 0.0 0.0 
0.0 0.0 0.0 
0.0 0.0 0.0 
0.0 0.0 0.0 
0.0 0.0 0.0 
0.0 0.0 0.0 
0.0 0.0 0.0 
0.0 0.0 0.0 
0.0 0.0 0.0 
0.0 0.0 0.0 
0.0 0.0 0.0 
0.0 0.0 0.0 
0.0 0.0 0.0 
0.0 0.0 0.0 
0.0 0.0 0.0 
0.0 0.0 0.0 
0.0 0.0 0.0 
0.0 0.0 0.0 
0.0 0.0 0.0 
0.0 0.0 0.0 
0.0 0.0 0.0 
0.0 0.0 0.0 
0.0 0.0 0.0 
0.0 0.0 0.0 
0.0 0.0 0.0 
0.0 0.0 0.0 
0.0 0.0 0.0 
0.0 0.0 0.0 
0.0 0.0 0.0 
0.0 0.0 0.0 
0.0 0.0 0.0 
0.0 0.0 0.0 
0.0 0.0 0.0 
0.0 0.0 0.0 
0.0 0.0 0.0 
0.0 0.0 0.0 
0.0 0.0 0.0 
0.0 0.0 0.0 
0.0 0.0 0.0 
0.0 0.0 0.0 
0.0 0.0 0.0 
0.0 0.0 0.0 
0.0 0.0 0.0 
0.0 0.0 0.0 
0.0 0.0 0.0 
0.0 0.0 0.0 
0.0 0.0 0.0 
0.0 0.0 0.0 
0.0 0.0 0.0 
0.0 0.0 0.0 
0.0 0.0 0.0 
0.0 0.0 0.0 
0.0 0.0 0.0 
0.0 0.0 0.0 
0.0 0.0 0.0 
0.0 0.0 0.0 
0.0 0.0 0.0 
0.0 0.0 0.0 
0.0 0.0 0.0 
0.0 0.0 0.0 
0.0 0.0 0.0 
0.0 0.0 0.0 
0.0 0.0 0.0 
0.0 0.0 0.0 
0.0 0.0 0.0 
0.0 0.0 0.0 
0.0 0.0 0.0 
0.0 0.0 0.0 
0.0 0.0 0.0 
0.0 0.0 0.0 
0.0 0.0 0.0 
0.0 0.0 0.0 
0.0 0.0 0.0 
0.0 0.0 0.0 
0.0 0.0 0.0 
0.0 0.0 0.0 
0.0 0.0 0.0 
0.0 0.0 0.0 
0.0 0.0 0.0 
0.0 0.0 0.0 
0.0 0.0 0.0 
0.0 0.0 0.0 
0.0 0.0 0.0 
0.0 0.0 0.0 
0.0 0.0 0.0 
0.0 0.0 0.0 
0.0 0.0 0.0 
0.0 0.0 0.0 
0.0 0.0 0.0 
0.0 0.0 0.0 
0.0 0.0 0.0 
0.0 0.0 0.0 
0.0 0.0 0.0 
0.0 0.0 0.0 
0.0 0.0 0.0 
0.0 0.0 0.0 
0.0 0.0 0.0 
0.0 0.0 0.0 
0.0 0.0 0.0 
0.0 0.0 0.0 
0.0 0.0 0.0 
0.0 0.0 0.0 
0.0 0.0 0.0 
0.0 0.0 0.0 
0.0 0.0 0.0 
0.0 0.0 0.0 
0.0 0.0 0.0 
0.0 0.0 0.0 
0.0 0.0 0.0 
0.0 0.0 0.0 
0.0 0.0 0.0 
0.0 0.0 0.0 
0.0 0.0 0.0 
0.0 0.0 0.0 
0.0 0.0 0.0 
0.0 0.0 0.0 
0.0 0.0 0.0 
0.0 0.0 0.0 
0.0 0.0 0.0 
0.0 0.0 0.0 
0.0 0.0 0.0 
0.0 0.0 0.0 
0.0 0.0 0.0 
0.0 0.0 0.0 
0.0 0.0 0.0 
0.0 0.0 0.0 
0.0 0.0 0.0 
0.0 0.0 0.0 
0.0 0.0 0.0 
0.0 0.0 0.0 
0.0 0.0 0.0 
0.0 0.0 0.0 
0.0 0.0 0.0 
0.0 0.0 0.0 
0.0 0.0 0.0 
0.0 0.0 0.0 
0.0 0.0 0.0 
0.0 0.0 0.0 
0.0 0.0 0.0 
0.0 0.0 0.0 
0.0 0.0 0.0 
0.0 0.0 0.0 
0.0 0.0 0.0 
0.0 0.0 0.0 
0.0 0.0 0.0 
0.0 0.0 0.0 
0.0 0.0 0.0 
0.0 0.0 0.0 
0.0 0.0 0.0 
0.0 0.0 0.0 
0.0 0.0 0.0 
0.0 0.0 0.0 
0.0 0.0 0.0 
0.0 0.0 0.0 
0.0 0.0 0.0 
0.0 0.0 0.0 
0.0 0.0 0.0 
0.0 0.0 0.0 
0.0 0.0 0.0 
0.0 0.0 0.0 
0.0 0.0 0.0 
0.0 0.0 0.0 
0.0 0.0 0.0 
0.0 0.0 0.0 
0.0 0.0 0.0 
0.0 0.0 0.0 
0.0 0.0 0.0 
0.0 0.0 0.0 
0.0 0.0 0.0 
0.0 0.0 0.0 
0.0 0.0 0.0 
0.0 0.0 0.0 
0.0 0.0 0.0 
0.0 0.0 0.0 
0.0 0.0 0.0 
0.0 0.0 0.0 
0.0 0.0 0.0 
0.0 0.0 0.0 
0.0 0.0 0.0 
0.0 0.0 0.0 
0.0 0.0 0.0 
0.0 0.0 0.0 
0.0 0.0 0.0 
0.0 0.0 0.0 
0.0 0.0 0.0 
0.0 0.0 0.0 
0.0 0.0 0.0 
0.0 0.0 0.0 
0.0 0.0 0.0 
0.0 0.0 0.0 
0.0 0.0 0.0 
0.0 0.0 0.0 
0.0 0.0 0.0 
0.0 0.0 0.0 
0.0 0.0 0.0 
0.0 0.0 0.0 
0.0 0.0 0.0 
0.0 0.0 0.0 
0.0 0.0 0.0 
0.0 0.0 0.0 
0.0 0.0 0.0 
0.0 0.0 0.0 
0.0 0.0 0.0 
0.0 0.0 0.0 
0.0 0.0 0.0 
0.0 0.0 0.0 
0.0 0.0 0.0 
0.0 0.0 0.0 
0.0 0.0 0.0 
0.0 0.0 0.0 
0.0 0.0 0.0 
0.0 0.0 0.0 
0.0 0.0 0.0 
0.0 0.0 0.0 
0.0 0.0 0.0 
0.0 0.0 0.0 
0.0 0.0 0.0 
0.0 0.0 0.0 
0.0 0.0 0.0 
0.0 0.0 0.0 
0.0 0.0 0.0 
0.0 0.0 0.0 
0.0 0.0 0.0 
0.0 0.0 0.0 
0.0 0.0 0.0 
0.0 0.0 0.0 
0.0 0.0 0.0 
0.0 0.0 0.0 
0.0 0.0 0.0 
0.0 0.0 0.0 
0.0 0.0 0.0 
0.0 0.0 0.0 
0.0 0.0 0.0 
0.0 0.0 0.0 
0.0 0.0 0.0 
0.0 0.0 0.0 
0.0 0.0 0.0 
0.0 0.0 0.0 
0.0 0.0 0.0 
0.0 0.0 0.0 
0.0 0.0 0.0 
0.0 0.0 0.0 
0.0 0.0 0.0 
0.0 0.0 0.0 
0.0 0.0 0.0 
0.0 0.0 0.0 
0.0 0.0 0.0 
0.0 0.0 0.0 
0.0 0.0 0.0 
0.0 0.0 0.0 
0.0 0.0 0.0 
0.0 0.0 0.0 
0.0 0.0 0.0 
0.0 0.0 0.0 
0.0 0.0 0.0 
0.0 0.0 0.0 
0.0 0.0 0.0 
0.0 0.0 0.0 
0.0 0.0 0.0 
0.0 0.0 0.0 
0.0 0.0 0.0 
0.0 0.0 0.0 
0.0 0.0 0.0 
0.0 0.0 0.0 
0.0 0.0 0.0 
0.0 0.0 0.0 
0.0 0.0 0.0 
0.0 0.0 0.0 
0.0 0.0 0.0 
0.0 0.0 0.0 
0.0 0.0 0.0 
0.0 0.0 0.0 
0.0 0.0 0.0 
0.0 0.0 0.0 
0.0 0.0 0.0 
0.0 0.0 0.0 
0.0 0.0 0.0 
0.0 0.0 0.0 
0.0 0.0 0.0 
0.0 0.0 0.0 
0.0 0.0 0.0 
0.0 0.0 0.0 
0.0 0.0 0.0 
0.0 0.0 0.0 
0.0 0.0 0.0 
0.0 0.0 0.0 
0.0 0.0 0.0 
0.0 0.0 0.0 
0.0 0.0 0.0 
0.0 0.0 0.0 
0.0 0.0 0.0 
0.0 0.0 0.0 
0.0 0.0 0.0 
0.0 0.0 0.0 
0.0 0.0 0.0 
0.0 0.0 0.0 
0.0 0.0 0.0 
0.0 0.0 0.0 
0.0 0.0 0.0 

VECTORS node_bounda_dof_materi_velocity_y float
0.0 0.0 0.0 
0.0 0.0 0.0 
0.0 1.000000000000e+00 0.0 
0.0 1.000000000000e+00 0.0 
0.0 0.0 0.0 
0.0 0.0 0.0 
0.0 0.0 0.0 
0.0 0.0 0.0 
0.0 0.0 0.0 
0.0 0.0 0.0 
0.0 0.0 0.0 
0.0 0.0 0.0 
0.0 0.0 0.0 
0.0 0.0 0.0 
0.0 0.0 0.0 
0.0 0.0 0.0 
0.0 0.0 0.0 
0.0 0.0 0.0 
0.0 0.0 0.0 
0.0 0.0 0.0 
0.0 0.0 0.0 
0.0 0.0 0.0 
0.0 0.0 0.0 
0.0 1.000000000000e+00 0.0 
0.0 1.000000000000e+00 0.0 
0.0 1.000000000000e+00 0.0 
0.0 1.000000000000e+00 0.0 
0.0 1.000000000000e+00 0.0 
0.0 1.000000000000e+00 0.0 
0.0 1.000000000000e+00 0.0 
0.0 1.000000000000e+00 0.0 
0.0 1.000000000000e+00 0.0 
0.0 1.000000000000e+00 0.0 
0.0 1.000000000000e+00 0.0 
0.0 1.000000000000e+00 0.0 
0.0 1.000000000000e+00 0.0 
0.0 1.000000000000e+00 0.0 
0.0 1.000000000000e+00 0.0 
0.0 1.000000000000e+00 0.0 
0.0 1.000000000000e+00 0.0 
0.0 1.000000000000e+00 0.0 
0.0 1.000000000000e+00 0.0 
0.0 1.000000000000e+00 0.0 
0.0 1.000000000000e+00 0.0 
0.0 1.000000000000e+00 0.0 
0.0 1.000000000000e+00 0.0 
0.0 1.000000000000e+00 0.0 
0.0 1.000000000000e+00 0.0 
0.0 1.000000000000e+00 0.0 
0.0 1.000000000000e+00 0.0 
0.0 1.000000000000e+00 0.0 
0.0 1.000000000000e+00 0.0 
0.0 1.000000000000e+00 0.0 
0.0 1.000000000000e+00 0.0 
0.0 1.000000000000e+00 0.0 
0.0 1.000000000000e+00 0.0 
0.0 1.000000000000e+00 0.0 
0.0 1.000000000000e+00 0.0 
0.0 1.000000000000e+00 0.0 
0.0 1.000000000000e+00 0.0 
0.0 1.000000000000e+00 0.0 
0.0 1.000000000000e+00 0.0 
0.0 1.000000000000e+00 0.0 
0.0 1.000000000000e+00 0.0 
0.0 1.000000000000e+00 0.0 
0.0 1.000000000000e+00 0.0 
0.0 1.000000000000e+00 0.0 
0.0 1.000000000000e+00 0.0 
0.0 1.000000000000e+00 0.0 
0.0 1.000000000000e+00 0.0 
0.0 1.000000000000e+00 0.0 
0.0 1.000000000000e+00 0.0 
0.0 0.0 0.0 
0.0 0.0 0.0 
0.0 0.0 0.0 
0.0 0.0 0.0 
0.0 0.0 0.0 
0.0 0.0 0.0 
0.0 0.0 0.0 
0.0 0.0 0.0 
0.0 0.0 0.0 
0.0 0.0 0.0 
0.0 0.0 0.0 
0.0 0.0 0.0 
0.0 0.0 0.0 
0.0 0.0 0.0 
0.0 0.0 0.0 
0.0 0.0 0.0 
0.0 0.0 0.0 
0.0 0.0 0.0 
0.0 0.0 0.0 
0.0 0.0 0.0 
0.0 0.0 0.0 
0.0 0.0 0.0 
0.0 0.0 0.0 
0.0 0.0 0.0 
0.0 0.0 0.0 
0.0 0.0 0.0 
0.0 0.0 0.0 
0.0 0.0 0.0 
0.0 0.0 0.0 
0.0 0.0 0.0 
0.0 0.0 0.0 
0.0 0.0 0.0 
0.0 0.0 0.0 
0.0 0.0 0.0 
0.0 0.0 0.0 
0.0 0.0 0.0 
0.0 0.0 0.0 
0.0 0.0 0.0 
0.0 0.0 0.0 
0.0 0.0 0.0 
0.0 0.0 0.0 
0.0 0.0 0.0 
0.0 0.0 0.0 
0.0 0.0 0.0 
0.0 0.0 0.0 
0.0 0.0 0.0 
0.0 0.0 0.0 
0.0 0.0 0.0 
0.0 0.0 0.0 
0.0 0.0 0.0 
0.0 0.0 0.0 
0.0 0.0 0.0 
0.0 0.0 0.0 
0.0 0.0 0.0 
0.0 0.0 0.0 
0.0 0.0 0.0 
0.0 0.0 0.0 
0.0 0.0 0.0 
0.0 0.0 0.0 
0.0 0.0 0.0 
0.0 0.0 0.0 
0.0 0.0 0.0 
0.0 0.0 0.0 
0.0 0.0 0.0 
0.0 0.0 0.0 
0.0 0.0 0.0 
0.0 0.0 0.0 
0.0 0.0 0.0 
0.0 0.0 0.0 
0.0 0.0 0.0 
0.0 0.0 0.0 
0.0 0.0 0.0 
0.0 0.0 0.0 
0.0 0.0 0.0 
0.0 0.0 0.0 
0.0 0.0 0.0 
0.0 0.0 0.0 
0.0 0.0 0.0 
0.0 0.0 0.0 
0.0 0.0 0.0 
0.0 0.0 0.0 
0.0 0.0 0.0 
0.0 0.0 0.0 
0.0 0.0 0.0 
0.0 0.0 0.0 
0.0 0.0 0.0 
0.0 0.0 0.0 
0.0 0.0 0.0 
0.0 0.0 0.0 
0.0 0.0 0.0 
0.0 0.0 0.0 
0.0 0.0 0.0 
0.0 0.0 0.0 
0.0 0.0 0.0 
0.0 0.0 0.0 
0.0 0.0 0.0 
0.0 0.0 0.0 
0.0 0.0 0.0 
0.0 0.0 0.0 
0.0 0.0 0.0 
0.0 0.0 0.0 
0.0 0.0 0.0 
0.0 0.0 0.0 
0.0 0.0 0.0 
0.0 0.0 0.0 
0.0 0.0 0.0 
0.0 0.0 0.0 
0.0 0.0 0.0 
0.0 0.0 0.0 
0.0 0.0 0.0 
0.0 0.0 0.0 
0.0 0.0 0.0 
0.0 0.0 0.0 
0.0 0.0 0.0 
0.0 0.0 0.0 
0.0 0.0 0.0 
0.0 0.0 0.0 
0.0 0.0 0.0 
0.0 0.0 0.0 
0.0 0.0 0.0 
0.0 0.0 0.0 
0.0 0.0 0.0 
0.0 0.0 0.0 
0.0 0.0 0.0 
0.0 0.0 0.0 
0.0 0.0 0.0 
0.0 0.0 0.0 
0.0 0.0 0.0 
0.0 0.0 0.0 
0.0 0.0 0.0 
0.0 0.0 0.0 
0.0 0.0 0.0 
0.0 0.0 0.0 
0.0 0.0 0.0 
0.0 0.0 0.0 
0.0 0.0 0.0 
0.0 0.0 0.0 
0.0 0.0 0.0 
0.0 0.0 0.0 
0.0 0.0 0.0 
0.0 0.0 0.0 
0.0 0.0 0.0 
0.0 0.0 0.0 
0.0 0.0 0.0 
0.0 0.0 0.0 
0.0 0.0 0.0 
0.0 0.0 0.0 
0.0 0.0 0.0 
0.0 0.0 0.0 
0.0 0.0 0.0 
0.0 0.0 0.0 
0.0 0.0 0.0 
0.0 0.0 0.0 
0.0 0.0 0.0 
0.0 0.0 0.0 
0.0 0.0 0.0 
0.0 0.0 0.0 
0.0 0.0 0.0 
0.0 0.0 0.0 
0.0 0.0 0.0 
0.0 0.0 0.0 
0.0 0.0 0.0 
0.0 0.0 0.0 
0.0 0.0 0.0 
0.0 0.0 0.0 
0.0 0.0 0.0 
0.0 0.0 0.0 
0.0 0.0 0.0 
0.0 0.0 0.0 
0.0 0.0 0.0 
0.0 0.0 0.0 
0.0 0.0 0.0 
0.0 0.0 0.0 
0.0 0.0 0.0 
0.0 0.0 0.0 
0.0 0.0 0.0 
0.0 0.0 0.0 
0.0 0.0 0.0 
0.0 0.0 0.0 
0.0 0.0 0.0 
0.0 0.0 0.0 
0.0 0.0 0.0 
0.0 0.0 0.0 
0.0 0.0 0.0 
0.0 0.0 0.0 
0.0 0.0 0.0 
0.0 0.0 0.0 
0.0 0.0 0.0 
0.0 0.0 0.0 
0.0 0.0 0.0 
0.0 0.0 0.0 
0.0 0.0 0.0 
0.0 0.0 0.0 
0.0 0.0 0.0 
0.0 0.0 0.0 
0.0 0.0 0.0 
0.0 0.0 0.0 
0.0 0.0 0.0 
0.0 0.0 0.0 
0.0 0.0 0.0 
0.0 0.0 0.0 
0.0 0.0 0.0 
0.0 0.0 0.0 
0.0 0.0 0.0 
0.0 0.0 0.0 
0.0 0.0 0.0 
0.0 0.0 0.0 
0.0 0.0 0.0 
0.0 0.0 0.0 
0.0 0.0 0.0 
0.0 0.0 0.0 
0.0 0.0 0.0 
0.0 0.0 0.0 
0.0 0.0 0.0 
0.0 0.0 0.0 
0.0 0.0 0.0 
0.0 0.0 0.0 
0.0 0.0 0.0 
0.0 0.0 0.0 
0.0 0.0 0.0 
0.0 0.0 0.0 
0.0 0.0 0.0 
0.0 0.0 0.0 
0.0 0.0 0.0 
0.0 0.0 0.0 
0.0 0.0 0.0 
0.0 0.0 0.0 
0.0 0.0 0.0 
0.0 0.0 0.0 
0.0 0.0 0.0 
0.0 0.0 0.0 
0.0 0.0 0.0 
0.0 0.0 0.0 
0.0 0.0 0.0 
0.0 0.0 0.0 
0.0 0.0 0.0 
0.0 0.0 0.0 
0.0 0.0 0.0 
0.0 0.0 0.0 
0.0 0.0 0.0 
0.0 0.0 0.0 
0.0 0.0 0.0 
0.0 0.0 0.0 
0.0 0.0 0.0 
0.0 0.0 0.0 
0.0 0.0 0.0 
0.0 0.0 0.0 
0.0 0.0 0.0 
0.0 0.0 0.0 
0.0 0.0 0.0 
0.0 0.0 0.0 
0.0 0.0 0.0 
0.0 0.0 0.0 
0.0 0.0 0.0 
0.0 0.0 0.0 
0.0 0.0 0.0 
0.0 0.0 0.0 
0.0 0.0 0.0 
0.0 0.0 0.0 
0.0 0.0 0.0 
0.0 0.0 0.0 
0.0 0.0 0.0 
0.0 0.0 0.0 
0.0 0.0 0.0 
0.0 0.0 0.0 
0.0 0.0 0.0 
0.0 0.0 0.0 
0.0 0.0 0.0 
0.0 0.0 0.0 
0.0 0.0 0.0 
0.0 0.0 0.0 
0.0 0.0 0.0 
0.0 0.0 0.0 
0.0 0.0 0.0 
0.0 0.0 0.0 
0.0 0.0 0.0 
0.0 0.0 0.0 
0.0 0.0 0.0 
0.0 0.0 0.0 
0.0 0.0 0.0 
0.0 0.0 0.0 
0.0 0.0 0.0 
0.0 0.0 0.0 
0.0 0.0 0.0 
0.0 0.0 0.0 
0.0 0.0 0.0 
0.0 0.0 0.0 
0.0 0.0 0.0 
0.0 0.0 0.0 
0.0 0.0 0.0 
0.0 0.0 0.0 
0.0 0.0 0.0 
0.0 0.0 0.0 
0.0 0.0 0.0 
0.0 0.0 0.0 
0.0 0.0 0.0 
0.0 0.0 0.0 
0.0 0.0 0.0 
0.0 0.0 0.0 
0.0 0.0 0.0 
0.0 0.0 0.0 
0.0 0.0 0.0 
0.0 0.0 0.0 
0.0 0.0 0.0 
0.0 0.0 0.0 
0.0 0.0 0.0 
0.0 0.0 0.0 
0.0 0.0 0.0 
0.0 0.0 0.0 
0.0 0.0 0.0 
0.0 0.0 0.0 
0.0 0.0 0.0 
0.0 0.0 0.0 
0.0 0.0 0.0 
0.0 0.0 0.0 
0.0 0.0 0.0 
0.0 0.0 0.0 
0.0 0.0 0.0 
0.0 0.0 0.0 
0.0 0.0 0.0 
0.0 0.0 0.0 
0.0 0.0 0.0 
0.0 0.0 0.0 
0.0 0.0 0.0 
0.0 0.0 0.0 
0.0 0.0 0.0 
0.0 0.0 0.0 
0.0 0.0 0.0 
0.0 0.0 0.0 
0.0 0.0 0.0 
0.0 0.0 0.0 
0.0 0.0 0.0 
0.0 0.0 0.0 
0.0 0.0 0.0 
0.0 0.0 0.0 
0.0 0.0 0.0 
0.0 0.0 0.0 
0.0 0.0 0.0 
0.0 0.0 0.0 
0.0 0.0 0.0 
0.0 0.0 0.0 
0.0 0.0 0.0 
0.0 0.0 0.0 
0.0 0.0 0.0 
0.0 0.0 0.0 
0.0 0.0 0.0 
0.0 0.0 0.0 
0.0 0.0 0.0 
0.0 0.0 0.0 
0.0 0.0 0.0 
0.0 0.0 0.0 
0.0 0.0 0.0 
0.0 0.0 0.0 
0.0 0.0 0.0 
0.0 0.0 0.0 
0.0 0.0 0.0 
0.0 0.0 0.0 
0.0 0.0 0.0 
0.0 0.0 0.0 
0.0 0.0 0.0 
0.0 0.0 0.0 
0.0 0.0 0.0 
0.0 0.0 0.0 
0.0 0.0 0.0 
0.0 0.0 0.0 
0.0 0.0 0.0 
0.0 0.0 0.0 
0.0 0.0 0.0 
0.0 0.0 0.0 
0.0 0.0 0.0 
0.0 0.0 0.0 
0.0 0.0 0.0 
0.0 0.0 0.0 
0.0 0.0 0.0 
0.0 0.0 0.0 
0.0 0.0 0.0 
0.0 0.0 0.0 
0.0 0.0 0.0 
0.0 0.0 0.0 
0.0 0.0 0.0 
0.0 0.0 0.0 
0.0 0.0 0.0 
0.0 0.0 0.0 
0.0 0.0 0.0 
0.0 0.0 0.0 
0.0 0.0 0.0 
0.0 0.0 0.0 
0.0 0.0 0.0 
0.0 0.0 0.0 
0.0 0.0 0.0 
0.0 0.0 0.0 
0.0 0.0 0.0 
0.0 0.0 0.0 
0.0 0.0 0.0 
0.0 0.0 0.0 
0.0 0.0 0.0 
0.0 0.0 0.0 
0.0 0.0 0.0 
0.0 0.0 0.0 
0.0 0.0 0.0 
0.0 0.0 0.0 
0.0 0.0 0.0 
0.0 0.0 0.0 
0.0 0.0 0.0 
0.0 0.0 0.0 
0.0 0.0 0.0 
0.0 0.0 0.0 
0.0 0.0 0.0 
0.0 0.0 0.0 
0.0 0.0 0.0 
0.0 0.0 0.0 
0.0 0.0 0.0 
0.0 0.0 0.0 
0.0 0.0 0.0 
0.0 0.0 0.0 
0.0 0.0 0.0 
0.0 0.0 0.0 
0.0 0.0 0.0 
0.0 0.0 0.0 
0.0 0.0 0.0 
0.0 0.0 0.0 
0.0 0.0 0.0 
0.0 0.0 0.0 
0.0 0.0 0.0 
0.0 0.0 0.0 
0.0 0.0 0.0 
0.0 0.0 0.0 
0.0 0.0 0.0 
0.0 0.0 0.0 
0.0 0.0 0.0 
0.0 0.0 0.0 
0.0 0.0 0.0 
0.0 0.0 0.0 
0.0 0.0 0.0 
0.0 0.0 0.0 
0.0 0.0 0.0 
0.0 0.0 0.0 
0.0 0.0 0.0 
0.0 0.0 0.0 
0.0 0.0 0.0 
0.0 0.0 0.0 
0.0 0.0 0.0 
0.0 0.0 0.0 
0.0 0.0 0.0 
0.0 0.0 0.0 
0.0 0.0 0.0 
0.0 0.0 0.0 
0.0 0.0 0.0 
0.0 0.0 0.0 
0.0 0.0 0.0 
0.0 0.0 0.0 
0.0 0.0 0.0 
0.0 0.0 0.0 
0.0 0.0 0.0 
0.0 0.0 0.0 
0.0 0.0 0.0 
0.0 0.0 0.0 
0.0 0.0 0.0 
0.0 0.0 0.0 
0.0 0.0 0.0 
0.0 0.0 0.0 
0.0 0.0 0.0 
0.0 0.0 0.0 
0.0 0.0 0.0 
0.0 0.0 0.0 
0.0 0.0 0.0 
0.0 0.0 0.0 
0.0 0.0 0.0 
0.0 0.0 0.0 
0.0 0.0 0.0 
0.0 0.0 0.0 
0.0 0.0 0.0 
0.0 0.0 0.0 
0.0 0.0 0.0 
0.0 0.0 0.0 
0.0 0.0 0.0 
0.0 0.0 0.0 
0.0 0.0 0.0 
0.0 0.0 0.0 
0.0 0.0 0.0 
0.0 0.0 0.0 
0.0 0.0 0.0 
0.0 0.0 0.0 
0.0 0.0 0.0 
0.0 0.0 0.0 
0.0 0.0 0.0 
0.0 0.0 0.0 
0.0 0.0 0.0 
0.0 0.0 0.0 
0.0 0.0 0.0 
0.0 0.0 0.0 
0.0 0.0 0.0 
0.0 0.0 0.0 
0.0 0.0 0.0 
0.0 0.0 0.0 
0.0 0.0 0.0 
0.0 0.0 0.0 
0.0 0.0 0.0 
0.0 0.0 0.0 
0.0 0.0 0.0 
0.0 0.0 0.0 
0.0 0.0 0.0 
0.0 0.0 0.0 
0.0 0.0 0.0 
0.0 0.0 0.0 
0.0 0.0 0.0 
0.0 0.0 0.0 
0.0 0.0 0.0 
0.0 0.0 0.0 
0.0 0.0 0.0 
0.0 0.0 0.0 
0.0 0.0 0.0 
0.0 0.0 0.0 
0.0 0.0 0.0 
0.0 0.0 0.0 
0.0 0.0 0.0 
0.0 0.0 0.0 
0.0 0.0 0.0 
0.0 0.0 0.0 
0.0 0.0 0.0 
0.0 0.0 0.0 
0.0 0.0 0.0 
0.0 0.0 0.0 
0.0 0.0 0.0 
0.0 0.0 0.0 
0.0 0.0 0.0 
0.0 0.0 0.0 
0.0 0.0 0.0 
0.0 0.0 0.0 
0.0 0.0 0.0 
0.0 0.0 0.0 
0.0 0.0 0.0 
0.0 0.0 0.0 
0.0 0.0 0.0 
0.0 0.0 0.0 
0.0 0.0 0.0 
0.0 0.0 0.0 
0.0 0.0 0.0 
0.0 0.0 0.0 
0.0 0.0 0.0 
0.0 0.0 0.0 
0.0 0.0 0.0 
0.0 0.0 0.0 
0.0 0.0 0.0 
0.0 0.0 0.0 
0.0 0.0 0.0 
0.0 0.0 0.0 
0.0 0.0 0.0 
0.0 0.0 0.0 
0.0 0.0 0.0 
0.0 0.0 0.0 
0.0 0.0 0.0 
0.0 0.0 0.0 
0.0 0.0 0.0 
0.0 0.0 0.0 
0.0 0.0 0.0 
0.0 0.0 0.0 
0.0 0.0 0.0 
0.0 0.0 0.0 
0.0 0.0 0.0 
0.0 0.0 0.0 
0.0 0.0 0.0 
0.0 0.0 0.0 
0.0 0.0 0.0 
0.0 0.0 0.0 
0.0 0.0 0.0 
0.0 0.0 0.0 
0.0 0.0 0.0 
0.0 0.0 0.0 
0.0 0.0 0.0 
0.0 0.0 0.0 
0.0 0.0 0.0 
0.0 0.0 0.0 
0.0 0.0 0.0 
0.0 0.0 0.0 
0.0 0.0 0.0 
0.0 0.0 0.0 
0.0 0.0 0.0 
0.0 0.0 0.0 
0.0 0.0 0.0 
0.0 0.0 0.0 
0.0 0.0 0.0 
0.0 0.0 0.0 
0.0 0.0 0.0 
0.0 0.0 0.0 
0.0 0.0 0.0 
0.0 0.0 0.0 
0.0 0.0 0.0 
0.0 0.0 0.0 
0.0 0.0 0.0 
0.0 0.0 0.0 
0.0 0.0 0.0 
0.0 0.0 0.0 
0.0 0.0 0.0 
0.0 0.0 0.0 
0.0 0.0 0.0 
0.0 0.0 0.0 
0.0 0.0 0.0 
0.0 0.0 0.0 
0.0 0.0 0.0 
0.0 0.0 0.0 
0.0 0.0 0.0 
0.0 0.0 0.0 
0.0 0.0 0.0 
0.0 0.0 0.0 
0.0 0.0 0.0 
0.0 0.0 0.0 
0.0 0.0 0.0 
0.0 0.0 0.0 
0.0 0.0 0.0 
0.0 0.0 0.0 
0.0 0.0 0.0 
0.0 0.0 0.0 
0.0 0.0 0.0 
0.0 0.0 0.0 
0.0 0.0 0.0 
0.0 0.0 0.0 
0.0 0.0 0.0 
0.0 0.0 0.0 
0.0 0.0 0.0 
0.0 0.0 0.0 
0.0 0.0 0.0 
0.0 0.0 0.0 
0.0 0.0 0.0 
0.0 0.0 0.0 
0.0 0.0 0.0 
0.0 0.0 0.0 
0.0 0.0 0.0 
0.0 0.0 0.0 
0.0 0.0 0.0 
0.0 0.0 0.0 
0.0 0.0 0.0 
0.0 0.0 0.0 
0.0 0.0 0.0 
0.0 0.0 0.0 
0.0 0.0 0.0 
0.0 0.0 0.0 
0.0 0.0 0.0 
0.0 0.0 0.0 
0.0 0.0 0.0 
0.0 0.0 0.0 
0.0 0.0 0.0 
0.0 0.0 0.0 
0.0 0.0 0.0 
0.0 0.0 0.0 
0.0 0.0 0.0 
0.0 0.0 0.0 
0.0 0.0 0.0 
0.0 0.0 0.0 
0.0 0.0 0.0 
0.0 0.0 0.0 
0.0 0.0 0.0 
0.0 0.0 0.0 
0.0 0.0 0.0 
0.0 0.0 0.0 
0.0 0.0 0.0 
0.0 0.0 0.0 
0.0 0.0 0.0 
0.0 0.0 0.0 
0.0 0.0 0.0 
0.0 0.0 0.0 
0.0 0.0 0.0 
0.0 0.0 0.0 
0.0 0.0 0.0 
0.0 0.0 0.0 
0.0 0.0 0.0 
0.0 0.0 0.0 
0.0 0.0 0.0 
0.0 0.0 0.0 
0.0 0.0 0.0 
0.0 0.0 0.0 
0.0 0.0 0.0 
0.0 0.0 0.0 
0.0 0.0 0.0 
0.0 0.0 0.0 
0.0 0.0 0.0 
0.0 0.0 0.0 
0.0 0.0 0.0 
0.0 0.0 0.0 
0.0 0.0 0.0 
0.0 0.0 0.0 
0.0 0.0 0.0 
0.0 0.0 0.0 
0.0 0.0 0.0 
0.0 0.0 0.0 
0.0 0.0 0.0 
0.0 0.0 0.0 
0.0 0.0 0.0 
0.0 0.0 0.0 
0.0 0.0 0.0 
0.0 0.0 0.0 
0.0 0.0 0.0 
0.0 0.0 0.0 
0.0 0.0 0.0 
0.0 0.0 0.0 
0.0 0.0 0.0 
0.0 0.0 0.0 
0.0 0.0 0.0 
0.0 0.0 0.0 
0.0 0.0 0.0 
0.0 0.0 0.0 
0.0 0.0 0.0 
0.0 0.0 0.0 
0.0 0.0 0.0 
0.0 0.0 0.0 
0.0 0.0 0.0 
0.0 0.0 0.0 
0.0 0.0 0.0 
0.0 0.0 0.0 
0.0 0.0 0.0 
0.0 0.0 0.0 
0.0 0.0 0.0 
0.0 0.0 0.0 
0.0 0.0 0.0 
0.0 0.0 0.0 
0.0 0.0 0.0 
0.0 0.0 0.0 
0.0 0.0 0.0 
0.0 0.0 0.0 
0.0 0.0 0.0 
0.0 0.0 0.0 
0.0 0.0 0.0 
0.0 0.0 0.0 
0.0 0.0 0.0 
0.0 0.0 0.0 
0.0 0.0 0.0 
0.0 0.0 0.0 
0.0 0.0 0.0 
0.0 0.0 0.0 
0.0 0.0 0.0 
0.0 0.0 0.0 
0.0 0.0 0.0 
0.0 0.0 0.0 
0.0 0.0 0.0 
0.0 0.0 0.0 
0.0 0.0 0.0 
0.0 0.0 0.0 
0.0 0.0 0.0 
0.0 0.0 0.0 
0.0 0.0 0.0 
0.0 0.0 0.0 
0.0 0.0 0.0 
0.0 0.0 0.0 
0.0 0.0 0.0 
0.0 0.0 0.0 
0.0 0.0 0.0 
0.0 0.0 0.0 
0.0 0.0 0.0 
0.0 0.0 0.0 
0.0 0.0 0.0 
0.0 0.0 0.0 
0.0 0.0 0.0 
0.0 0.0 0.0 
0.0 0.0 0.0 
0.0 0.0 0.0 
0.0 0.0 0.0 
0.0 0.0 0.0 
0.0 0.0 0.0 
0.0 0.0 0.0 
0.0 0.0 0.0 
0.0 0.0 0.0 
0.0 0.0 0.0 
0.0 0.0 0.0 
0.0 0.0 0.0 
0.0 0.0 0.0 
0.0 0.0 0.0 
0.0 0.0 0.0 
0.0 0.0 0.0 
0.0 0.0 0.0 
0.0 0.0 0.0 
0.0 0.0 0.0 
0.0 0.0 0.0 
0.0 0.0 0.0 
0.0 0.0 0.0 
0.0 0.0 0.0 
0.0 0.0 0.0 
0.0 0.0 0.0 
0.0 0.0 0.0 
0.0 0.0 0.0 
0.0 0.0 0.0 
0.0 0.0 0.0 
0.0 0.0 0.0 
0.0 0.0 0.0 
0.0 0.0 0.0 
0.0 0.0 0.0 
0.0 0.0 0.0 
0.0 0.0 0.0 
0.0 0.0 0.0 
0.0 0.0 0.0 
0.0 0.0 0.0 
0.0 0.0 0.0 
0.0 0.0 0.0 
0.0 0.0 0.0 
0.0 0.0 0.0 
0.0 0.0 0.0 
0.0 0.0 0.0 
0.0 0.0 0.0 
0.0 0.0 0.0 
0.0 0.0 0.0 
0.0 0.0 0.0 
0.0 0.0 0.0 
0.0 0.0 0.0 
0.0 0.0 0.0 
0.0 0.0 0.0 
0.0 0.0 0.0 
0.0 0.0 0.0 
0.0 0.0 0.0 
0.0 0.0 0.0 
0.0 0.0 0.0 
0.0 0.0 0.0 
0.0 0.0 0.0 
0.0 0.0 0.0 
0.0 0.0 0.0 
0.0 0.0 0.0 
0.0 0.0 0.0 
0.0 0.0 0.0 
0.0 0.0 0.0 
0.0 0.0 0.0 
0.0 0.0 0.0 
0.0 0.0 0.0 
0.0 0.0 0.0 
0.0 0.0 0.0 
0.0 0.0 0.0 
0.0 0.0 0.0 
0.0 0.0 0.0 
0.0 0.0 0.0 
0.0 0.0 0.0 
0.0 0.0 0.0 
0.0 0.0 0.0 
0.0 0.0 0.0 
0.0 0.0 0.0 
0.0 0.0 0.0 
0.0 0.0 0.0 
0.0 0.0 0.0 
0.0 0.0 0.0 
0.0 0.0 0.0 
0.0 0.0 0.0 
0.0 0.0 0.0 
0.0 0.0 0.0 
0.0 0.0 0.0 
0.0 0.0 0.0 
0.0 0.0 0.0 
0.0 0.0 0.0 
0.0 0.0 0.0 
0.0 0.0 0.0 
0.0 0.0 0.0 
0.0 0.0 0.0 
0.0 0.0 0.0 
0.0 0.0 0.0 
0.0 0.0 0.0 
0.0 0.0 0.0 
0.0 0.0 0.0 
0.0 0.0 0.0 
0.0 0.0 0.0 
0.0 0.0 0.0 
0.0 0.0 0.0 
0.0 0.0 0.0 
0.0 0.0 0.0 
0.0 0.0 0.0 
0.0 0.0 0.0 
0.0 0.0 0.0 
0.0 0.0 0.0 
0.0 0.0 0.0 
0.0 0.0 0.0 
0.0 0.0 0.0 
0.0 0.0 0.0 
0.0 0.0 0.0 
0.0 0.0 0.0 
0.0 0.0 0.0 
0.0 0.0 0.0 
0.0 0.0 0.0 
0.0 0.0 0.0 
0.0 0.0 0.0 
0.0 0.0 0.0 
0.0 0.0 0.0 
0.0 0.0 0.0 
0.0 0.0 0.0 
0.0 0.0 0.0 
0.0 0.0 0.0 
0.0 0.0 0.0 
0.0 0.0 0.0 
0.0 0.0 0.0 
0.0 0.0 0.0 
0.0 0.0 0.0 
0.0 0.0 0.0 
0.0 0.0 0.0 
0.0 0.0 0.0 
0.0 0.0 0.0 
0.0 0.0 0.0 
0.0 0.0 0.0 
0.0 0.0 0.0 
0.0 0.0 0.0 
0.0 0.0 0.0 
0.0 0.0 0.0 
0.0 0.0 0.0 
0.0 0.0 0.0 
0.0 0.0 0.0 
0.0 0.0 0.0 
0.0 0.0 0.0 
0.0 0.0 0.0 
0.0 0.0 0.0 
0.0 0.0 0.0 
0.0 0.0 0.0 
0.0 0.0 0.0 
0.0 0.0 0.0 
0.0 0.0 0.0 
0.0 0.0 0.0 
0.0 0.0 0.0 
0.0 0.0 0.0 
0.0 0.0 0.0 
0.0 0.0 0.0 
0.0 0.0 0.0 
0.0 0.0 0.0 
0.0 0.0 0.0 
0.0 0.0 0.0 
0.0 0.0 0.0 
0.0 0.0 0.0 
0.0 0.0 0.0 
0.0 0.0 0.0 
0.0 0.0 0.0 
0.0 0.0 0.0 
0.0 0.0 0.0 
0.0 0.0 0.0 
0.0 0.0 0.0 
0.0 0.0 0.0 
0.0 0.0 0.0 
0.0 0.0 0.0 
0.0 0.0 0.0 
0.0 0.0 0.0 
0.0 0.0 0.0 
0.0 0.0 0.0 
0.0 0.0 0.0 
0.0 0.0 0.0 
0.0 0.0 0.0 
0.0 0.0 0.0 
0.0 0.0 0.0 
0.0 0.0 0.0 
0.0 0.0 0.0 
0.0 0.0 0.0 
0.0 0.0 0.0 
0.0 0.0 0.0 
0.0 0.0 0.0 
0.0 0.0 0.0 
0.0 0.0 0.0 
0.0 0.0 0.0 
0.0 0.0 0.0 
0.0 0.0 0.0 
0.0 0.0 0.0 
0.0 0.0 0.0 
0.0 0.0 0.0 
0.0 0.0 0.0 
0.0 0.0 0.0 
0.0 0.0 0.0 
0.0 0.0 0.0 
0.0 0.0 0.0 
0.0 0.0 0.0 
0.0 0.0 0.0 
0.0 0.0 0.0 
0.0 0.0 0.0 
0.0 0.0 0.0 
0.0 0.0 0.0 
0.0 0.0 0.0 
0.0 0.0 0.0 
0.0 0.0 0.0 
0.0 0.0 0.0 
0.0 0.0 0.0 
0.0 0.0 0.0 
0.0 0.0 0.0 
0.0 0.0 0.0 
0.0 0.0 0.0 
0.0 0.0 0.0 
0.0 0.0 0.0 
0.0 0.0 0.0 
0.0 0.0 0.0 
0.0 0.0 0.0 
0.0 0.0 0.0 
0.0 0.0 0.0 
0.0 0.0 0.0 
0.0 0.0 0.0 
0.0 0.0 0.0 
0.0 0.0 0.0 
0.0 0.0 0.0 
0.0 0.0 0.0 
0.0 0.0 0.0 
0.0 0.0 0.0 
0.0 0.0 0.0 
0.0 0.0 0.0 
0.0 0.0 0.0 
0.0 0.0 0.0 
0.0 0.0 0.0 
0.0 0.0 0.0 
0.0 0.0 0.0 
0.0 0.0 0.0 
0.0 0.0 0.0 
0.0 0.0 0.0 
0.0 0.0 0.0 
0.0 0.0 0.0 
0.0 0.0 0.0 
0.0 0.0 0.0 
0.0 0.0 0.0 
0.0 0.0 0.0 
0.0 0.0 0.0 
0.0 0.0 0.0 
0.0 0.0 0.0 
0.0 0.0 0.0 
0.0 0.0 0.0 
0.0 0.0 0.0 
0.0 0.0 0.0 
0.0 0.0 0.0 
0.0 0.0 0.0 
0.0 0.0 0.0 
0.0 0.0 0.0 
0.0 0.0 0.0 
0.0 0.0 0.0 
0.0 0.0 0.0 
0.0 0.0 0.0 
0.0 0.0 0.0 
0.0 0.0 0.0 
0.0 0.0 0.0 
0.0 0.0 0.0 
0.0 0.0 0.0 
0.0 0.0 0.0 
0.0 0.0 0.0 
0.0 0.0 0.0 
0.0 0.0 0.0 
0.0 0.0 0.0 
0.0 0.0 0.0 
0.0 0.0 0.0 
0.0 0.0 0.0 
0.0 0.0 0.0 
0.0 0.0 0.0 
0.0 0.0 0.0 
0.0 0.0 0.0 
0.0 0.0 0.0 
0.0 0.0 0.0 
0.0 0.0 0.0 
0.0 0.0 0.0 
0.0 0.0 0.0 
0.0 0.0 0.0 
0.0 0.0 0.0 
0.0 0.0 0.0 
0.0 0.0 0.0 
0.0 0.0 0.0 
0.0 0.0 0.0 
0.0 0.0 0.0 
0.0 0.0 0.0 
0.0 0.0 0.0 
0.0 0.0 0.0 
0.0 0.0 0.0 
0.0 0.0 0.0 
0.0 0.0 0.0 
0.0 0.0 0.0 
0.0 0.0 0.0 
0.0 0.0 0.0 
0.0 0.0 0.0 
0.0 0.0 0.0 
0.0 0.0 0.0 
0.0 0.0 0.0 
0.0 0.0 0.0 
0.0 0.0 0.0 
0.0 0.0 0.0 
0.0 0.0 0.0 
0.0 0.0 0.0 
0.0 0.0 0.0 
0.0 0.0 0.0 
0.0 0.0 0.0 
0.0 0.0 0.0 
0.0 0.0 0.0 
0.0 0.0 0.0 
0.0 0.0 0.0 
0.0 0.0 0.0 
0.0 0.0 0.0 
0.0 0.0 0.0 
0.0 0.0 0.0 
0.0 0.0 0.0 
0.0 0.0 0.0 
0.0 0.0 0.0 
0.0 0.0 0.0 
0.0 0.0 0.0 
0.0 0.0 0.0 
0.0 0.0 0.0 
0.0 0.0 0.0 
0.0 0.0 0.0 
0.0 0.0 0.0 
0.0 0.0 0.0 
0.0 0.0 0.0 
0.0 0.0 0.0 
0.0 0.0 0.0 
0.0 0.0 0.0 
0.0 0.0 0.0 
0.0 0.0 0.0 
0.0 0.0 0.0 
0.0 0.0 0.0 
0.0 0.0 0.0 
0.0 0.0 0.0 
0.0 0.0 0.0 
0.0 0.0 0.0 
0.0 0.0 0.0 
0.0 0.0 0.0 
0.0 0.0 0.0 
0.0 0.0 0.0 
0.0 0.0 0.0 
0.0 0.0 0.0 
0.0 0.0 0.0 
0.0 0.0 0.0 
0.0 0.0 0.0 
0.0 0.0 0.0 
0.0 0.0 0.0 
0.0 0.0 0.0 
0.0 0.0 0.0 
0.0 0.0 0.0 
0.0 0.0 0.0 
0.0 0.0 0.0 
0.0 0.0 0.0 
0.0 0.0 0.0 
0.0 0.0 0.0 
0.0 0.0 0.0 
0.0 0.0 0.0 
0.0 0.0 0.0 
0.0 0.0 0.0 
0.0 0.0 0.0 
0.0 0.0 0.0 
0.0 0.0 0.0 
0.0 0.0 0.0 
0.0 0.0 0.0 
0.0 0.0 0.0 
0.0 0.0 0.0 
0.0 0.0 0.0 
0.0 0.0 0.0 
0.0 0.0 0.0 
0.0 0.0 0.0 
0.0 0.0 0.0 
0.0 0.0 0.0 
0.0 0.0 0.0 
0.0 0.0 0.0 
0.0 0.0 0.0 
0.0 0.0 0.0 
0.0 0.0 0.0 
0.0 0.0 0.0 
0.0 0.0 0.0 
0.0 0.0 0.0 
0.0 0.0 0.0 
0.0 0.0 0.0 
0.0 0.0 0.0 
0.0 0.0 0.0 
0.0 0.0 0.0 
0.0 0.0 0.0 
0.0 0.0 0.0 

SCALARS node_boundary float
LOOKUP_TABLE default
1.000000000000e+00 
1.000000000000e+00 
1.000000000000e+00 
1.000000000000e+00 
1.000000000000e+00 
1.000000000000e+00 
1.000000000000e+00 
1.000000000000e+00 
1.000000000000e+00 
1.000000000000e+00 
1.000000000000e+00 
1.000000000000e+00 
1.000000000000e+00 
1.000000000000e+00 
1.000000000000e+00 
1.000000000000e+00 
1.000000000000e+00 
1.000000000000e+00 
1.000000000000e+00 
1.000000000000e+00 
1.000000000000e+00 
1.000000000000e+00 
1.000000000000e+00 
1.000000000000e+00 
1.000000000000e+00 
1.000000000000e+00 
1.000000000000e+00 
1.000000000000e+00 
1.000000000000e+00 
1.000000000000e+00 
1.000000000000e+00 
1.000000000000e+00 
1.000000000000e+00 
1.000000000000e+00 
1.000000000000e+00 
1.000000000000e+00 
1.000000000000e+00 
1.000000000000e+00 
1.000000000000e+00 
1.000000000000e+00 
1.000000000000e+00 
1.000000000000e+00 
1.000000000000e+00 
1.000000000000e+00 
1.000000000000e+00 
1.000000000000e+00 
1.000000000000e+00 
1.000000000000e+00 
1.000000000000e+00 
1.000000000000e+00 
1.000000000000e+00 
1.000000000000e+00 
1.000000000000e+00 
1.000000000000e+00 
1.000000000000e+00 
1.000000000000e+00 
1.000000000000e+00 
1.000000000000e+00 
1.000000000000e+00 
1.000000000000e+00 
1.000000000000e+00 
1.000000000000e+00 
1.000000000000e+00 
1.000000000000e+00 
1.000000000000e+00 
1.000000000000e+00 
1.000000000000e+00 
1.000000000000e+00 
1.000000000000e+00 
1.000000000000e+00 
1.000000000000e+00 
1.000000000000e+00 
1.000000000000e+00 
1.000000000000e+00 
1.000000000000e+00 
1.000000000000e+00 
1.000000000000e+00 
1.000000000000e+00 
1.000000000000e+00 
1.000000000000e+00 
1.000000000000e+00 
1.000000000000e+00 
0.0
1.000000000000e+00 
1.000000000000e+00 
0.0
0.0
0.0
0.0
0.0
0.0
0.0
1.000000000000e+00 
1.000000000000e+00 
1.000000000000e+00 
1.000000000000e+00 
1.000000000000e+00 
1.000000000000e+00 
1.000000000000e+00 
1.000000000000e+00 
0.0
0.0
0.0
0.0
0.0
0.0
0.0
0.0
0.0
0.0
0.0
0.0
0.0
0.0
1.000000000000e+00 
1.000000000000e+00 
1.000000000000e+00 
1.000000000000e+00 
1.000000000000e+00 
1.000000000000e+00 
1.000000000000e+00 
1.000000000000e+00 
1.000000000000e+00 
1.000000000000e+00 
1.000000000000e+00 
1.000000000000e+00 
1.000000000000e+00 
1.000000000000e+00 
1.000000000000e+00 
1.000000000000e+00 
1.000000000000e+00 
1.000000000000e+00 
1.000000000000e+00 
1.000000000000e+00 
1.000000000000e+00 
1.000000000000e+00 
1.000000000000e+00 
1.000000000000e+00 
1.000000000000e+00 
1.000000000000e+00 
1.000000000000e+00 
1.000000000000e+00 
1.000000000000e+00 
1.000000000000e+00 
1.000000000000e+00 
1.000000000000e+00 
1.000000000000e+00 
1.000000000000e+00 
1.000000000000e+00 
1.000000000000e+00 
1.000000000000e+00 
1.000000000000e+00 
1.000000000000e+00 
1.000000000000e+00 
1.000000000000e+00 
1.000000000000e+00 
1.000000000000e+00 
1.000000000000e+00 
1.000000000000e+00 
0.0
0.0
0.0
0.0
0.0
0.0
0.0
0.0
0.0
0.0
0.0
0.0
0.0
0.0
0.0
0.0
0.0
0.0
0.0
0.0
0.0
0.0
0.0
0.0
0.0
0.0
0.0
0.0
0.0
0.0
0.0
0.0
0.0
0.0
0.0
0.0
0.0
0.0
0.0
0.0
0.0
0.0
0.0
0.0
0.0
0.0
0.0
0.0
0.0
0.0
0.0
0.0
0.0
0.0
0.0
0.0
0.0
0.0
0.0
0.0
0.0
0.0
0.0
0.0
0.0
0.0
0.0
0.0
0.0
0.0
0.0
0.0
0.0
0.0
0.0
0.0
0.0
0.0
0.0
0.0
0.0
0.0
0.0
0.0
0.0
0.0
0.0
0.0
0.0
0.0
0.0
0.0
0.0
0.0
0.0
0.0
0.0
0.0
0.0
0.0
0.0
0.0
0.0
0.0
0.0
0.0
0.0
0.0
0.0
0.0
0.0
0.0
0.0
0.0
0.0
0.0
0.0
0.0
0.0
0.0
0.0
0.0
0.0
0.0
0.0
0.0
0.0
0.0
0.0
0.0
0.0
0.0
0.0
0.0
0.0
0.0
0.0
0.0
0.0
0.0
0.0
0.0
1.000000000000e+00 
1.000000000000e+00 
0.0
0.0
0.0
0.0
0.0
0.0
0.0
0.0
0.0
0.0
0.0
0.0
0.0
0.0
0.0
0.0
0.0
0.0
0.0
0.0
0.0
0.0
0.0
0.0
0.0
0.0
0.0
0.0
0.0
0.0
0.0
0.0
0.0
0.0
0.0
0.0
0.0
0.0
0.0
0.0
0.0
0.0
0.0
0.0
0.0
0.0
0.0
0.0
0.0
0.0
0.0
0.0
0.0
0.0
0.0
0.0
0.0
0.0
0.0
0.0
0.0
0.0
0.0
0.0
0.0
0.0
0.0
0.0
0.0
0.0
0.0
0.0
0.0
0.0
0.0
0.0
0.0
0.0
0.0
0.0
0.0
0.0
0.0
0.0
0.0
0.0
0.0
0.0
0.0
0.0
0.0
0.0
0.0
0.0
0.0
0.0
0.0
0.0
0.0
0.0
0.0
0.0
0.0
0.0
0.0
0.0
0.0
0.0
0.0
0.0
0.0
0.0
0.0
0.0
0.0
0.0
0.0
0.0
0.0
0.0
0.0
0.0
0.0
0.0
0.0
0.0
0.0
0.0
0.0
0.0
0.0
0.0
0.0
0.0
0.0
0.0
0.0
0.0
0.0
0.0
0.0
0.0
0.0
0.0
0.0
0.0
0.0
0.0
0.0
0.0
0.0
0.0
0.0
0.0
0.0
0.0
0.0
0.0
0.0
0.0
0.0
0.0
0.0
0.0
0.0
0.0
0.0
0.0
0.0
0.0
0.0
0.0
0.0
0.0
0.0
0.0
0.0
0.0
0.0
0.0
0.0
0.0
0.0
0.0
0.0
0.0
0.0
0.0
0.0
0.0
0.0
0.0
0.0
0.0
0.0
0.0
0.0
0.0
0.0
0.0
0.0
0.0
0.0
0.0
0.0
0.0
0.0
0.0
0.0
0.0
0.0
0.0
0.0
0.0
0.0
0.0
0.0
0.0
0.0
0.0
0.0
0.0
0.0
0.0
0.0
0.0
0.0
0.0
0.0
0.0
0.0
0.0
0.0
0.0
0.0
0.0
0.0
0.0
0.0
0.0
0.0
0.0
0.0
0.0
0.0
0.0
0.0
0.0
0.0
0.0
0.0
0.0
0.0
0.0
0.0
0.0
0.0
0.0
0.0
0.0
0.0
0.0
0.0
0.0
0.0
0.0
0.0
0.0
0.0
0.0
0.0
0.0
0.0
0.0
0.0
0.0
0.0
0.0
0.0
0.0
0.0
0.0
0.0
0.0
0.0
0.0
0.0
0.0
0.0
0.0
0.0
0.0
0.0
0.0
0.0
0.0
0.0
0.0
0.0
0.0
0.0
0.0
0.0
0.0
0.0
0.0
0.0
0.0
0.0
0.0
0.0
0.0
0.0
0.0
0.0
0.0
0.0
0.0
0.0
0.0
0.0
0.0
0.0
0.0
0.0
0.0
0.0
0.0
0.0
0.0
0.0
0.0
0.0
0.0
0.0
0.0
0.0
0.0
0.0
0.0
0.0
0.0
0.0
0.0
0.0
0.0
0.0
0.0
0.0
0.0
0.0
0.0
0.0
0.0
0.0
0.0
0.0
0.0
0.0
0.0
0.0
0.0
0.0
0.0
0.0
0.0
0.0
0.0
0.0
0.0
0.0
0.0
0.0
0.0
0.0
0.0
0.0
0.0
0.0
0.0
0.0
0.0
0.0
0.0
0.0
0.0
0.0
0.0
0.0
0.0
0.0
0.0
0.0
0.0
0.0
0.0
0.0
0.0
0.0
0.0
0.0
0.0
0.0
0.0
0.0
0.0
0.0
0.0
0.0
0.0
0.0
0.0
0.0
0.0
0.0
0.0
0.0
0.0
0.0
0.0
0.0
0.0
0.0
0.0
0.0
0.0
0.0
0.0
0.0
0.0
0.0
0.0
0.0
0.0
0.0
0.0
0.0
0.0
0.0
0.0
0.0
0.0
0.0
0.0
0.0
0.0
0.0
0.0
0.0
0.0
0.0
0.0
0.0
0.0
0.0
0.0
0.0
0.0
0.0
0.0
0.0
0.0
0.0
0.0
0.0
0.0
0.0
0.0
0.0
0.0
0.0
0.0
0.0
0.0
0.0
0.0
0.0
0.0
0.0
0.0
0.0
0.0
0.0
0.0
0.0
0.0
0.0
0.0
0.0
0.0
0.0
0.0
0.0
0.0
0.0
0.0
0.0
0.0
0.0
0.0
0.0
0.0
0.0
0.0
0.0
0.0
0.0
0.0
0.0
0.0
0.0
0.0
0.0
0.0
0.0
0.0
0.0
0.0
0.0
0.0
0.0
0.0
0.0
0.0
0.0
0.0
0.0
0.0
0.0
0.0
0.0
0.0
0.0
0.0
0.0
0.0
0.0
0.0
0.0
0.0
0.0
0.0
0.0
0.0
0.0
0.0
0.0
0.0
0.0
0.0
0.0
0.0
0.0
0.0
0.0
0.0
0.0
0.0
0.0
0.0
0.0
0.0
0.0
0.0
0.0
0.0
0.0
0.0
0.0
0.0
0.0
0.0
0.0
0.0
0.0
0.0
0.0
0.0
0.0
0.0
0.0
0.0
0.0
0.0
0.0
0.0
0.0
0.0
0.0
0.0
0.0
0.0
0.0
0.0
0.0
0.0
0.0
0.0
0.0
0.0
0.0
0.0
0.0
0.0
0.0
0.0
0.0
0.0
0.0
0.0
0.0
0.0
0.0
0.0
0.0
0.0
0.0
0.0
0.0
0.0
0.0
0.0
0.0
0.0
0.0
0.0
0.0
0.0
0.0
0.0
0.0
0.0
0.0
0.0
0.0
0.0
0.0
0.0
0.0
0.0
0.0
0.0
0.0
0.0
0.0
0.0
0.0
0.0
0.0
0.0
0.0
0.0
0.0
0.0
0.0
0.0
0.0
0.0
0.0
0.0
0.0
0.0
0.0
0.0
0.0
0.0
0.0
0.0
0.0
0.0
0.0
0.0
0.0
0.0
0.0
0.0
0.0
0.0
0.0
0.0
0.0
0.0
0.0
0.0
0.0
0.0
0.0
0.0
0.0
0.0
0.0
0.0
0.0
0.0
0.0
0.0
0.0
0.0
0.0
0.0
0.0
0.0
0.0
0.0
0.0
0.0
0.0
0.0
0.0
0.0
0.0
0.0
0.0
0.0
0.0
0.0
0.0
0.0
0.0
0.0
0.0
0.0
0.0
0.0
0.0
0.0
0.0
0.0
0.0
0.0
0.0
0.0
0.0
0.0
0.0
0.0
0.0
0.0
0.0
0.0
0.0
0.0
0.0
0.0
0.0
0.0
0.0
0.0
0.0
0.0
0.0
0.0
0.0
0.0
0.0
0.0
0.0
0.0
0.0
0.0
0.0
0.0
0.0
0.0
0.0
0.0
0.0
0.0
0.0
0.0
0.0
0.0
0.0
0.0
0.0
0.0
0.0
0.0
0.0
0.0
0.0
0.0
0.0
0.0
0.0
0.0
0.0
0.0
0.0
0.0
0.0
0.0
0.0
0.0
0.0
0.0
0.0
0.0
0.0
0.0
0.0
0.0
0.0
0.0
0.0
0.0
0.0
0.0
0.0
0.0
0.0
0.0
0.0
0.0
0.0
0.0
0.0
0.0
0.0
0.0
0.0
0.0
0.0
0.0
0.0
0.0
0.0
0.0
0.0
0.0
0.0
0.0
0.0
0.0
0.0
0.0
0.0
0.0
0.0
0.0
0.0
0.0
0.0
0.0
0.0
0.0
0.0
0.0
0.0
0.0
0.0
0.0
0.0
0.0
0.0
0.0
0.0
0.0
0.0
0.0
0.0
0.0
0.0
0.0
0.0
0.0
0.0
0.0
0.0
0.0
0.0
0.0
0.0
0.0
0.0
0.0
0.0
0.0
0.0
0.0
0.0
0.0
0.0
0.0
0.0
0.0
0.0
0.0
0.0
0.0
0.0
0.0
0.0
0.0
0.0
0.0
0.0
0.0
0.0
0.0
0.0
0.0
0.0
0.0
0.0
0.0
0.0
0.0
0.0
0.0
0.0
0.0
0.0
0.0
0.0
0.0
0.0

VECTORS node_force_gravity float
0.0 -1.962000000000e+01 0.0 
0.0 -1.962000000000e+01 0.0 
0.0 -1.962000000000e+01 0.0 
0.0 -1.962000000000e+01 0.0 
0.0 -1.962000000000e+01 0.0 
0.0 -1.962000000000e+01 0.0 
0.0 -1.962000000000e+01 0.0 
0.0 -1.962000000000e+01 0.0 
0.0 -1.962000000000e+01 0.0 
0.0 -1.962000000000e+01 0.0 
0.0 -1.962000000000e+01 0.0 
0.0 -1.962000000000e+01 0.0 
0.0 -1.962000000000e+01 0.0 
0.0 -1.962000000000e+01 0.0 
0.0 -1.962000000000e+01 0.0 
0.0 -1.962000000000e+01 0.0 
0.0 -1.962000000000e+01 0.0 
0.0 -1.962000000000e+01 0.0 
0.0 -1.962000000000e+01 0.0 
0.0 -1.962000000000e+01 0.0 
0.0 -1.962000000000e+01 0.0 
0.0 -1.962000000000e+01 0.0 
0.0 -1.962000000000e+01 0.0 
0.0 -1.962000000000e+01 0.0 
0.0 -1.962000000000e+01 0.0 
0.0 -1.962000000000e+01 0.0 
0.0 -1.962000000000e+01 0.0 
0.0 -1.962000000000e+01 0.0 
0.0 -1.962000000000e+01 0.0 
0.0 -1.962000000000e+01 0.0 
0.0 -1.962000000000e+01 0.0 
0.0 -1.962000000000e+01 0.0 
0.0 -1.962000000000e+01 0.0 
0.0 -1.962000000000e+01 0.0 
0.0 -1.962000000000e+01 0.0 
0.0 -1.962000000000e+01 0.0 
0.0 -1.962000000000e+01 0.0 
0.0 -1.962000000000e+01 0.0 
0.0 -1.962000000000e+01 0.0 
0.0 -1.962000000000e+01 0.0 
0.0 -1.962000000000e+01 0.0 
0.0 -1.962000000000e+01 0.0 
0.0 -1.962000000000e+01 0.0 
0.0 -1.962000000000e+01 0.0 
0.0 -1.962000000000e+01 0.0 
0.0 -1.962000000000e+01 0.0 
0.0 -1.962000000000e+01 0.0 
0.0 -1.962000000000e+01 0.0 
0.0 -1.962000000000e+01 0.0 
0.0 -1.962000000000e+01 0.0 
0.0 -1.962000000000e+01 0.0 
0.0 -1.962000000000e+01 0.0 
0.0 -1.962000000000e+01 0.0 
0.0 -1.962000000000e+01 0.0 
0.0 -1.962000000000e+01 0.0 
0.0 -1.962000000000e+01 0.0 
0.0 -1.962000000000e+01 0.0 
0.0 -1.962000000000e+01 0.0 
0.0 -1.962000000000e+01 0.0 
0.0 -1.962000000000e+01 0.0 
0.0 -1.962000000000e+01 0.0 
0.0 -1.962000000000e+01 0.0 
0.0 -1.962000000000e+01 0.0 
0.0 -1.962000000000e+01 0.0 
0.0 -1.962000000000e+01 0.0 
0.0 -1.962000000000e+01 0.0 
0.0 -1.962000000000e+01 0.0 
0.0 -1.962000000000e+01 0.0 
0.0 -1.962000000000e+01 0.0 
0.0 -1.962000000000e+01 0.0 
0.0 -1.962000000000e+01 0.0 
0.0 -1.962000000000e+01 0.0 
0.0 -1.962000000000e+01 0.0 
0.0 -1.962000000000e+01 0.0 
0.0 -1.962000000000e+01 0.0 
0.0 -1.962000000000e+01 0.0 
0.0 -1.962000000000e+01 0.0 
0.0 -1.962000000000e+01 0.0 
0.0 -1.962000000000e+01 0.0 
0.0 -1.962000000000e+01 0.0 
0.0 -1.962000000000e+01 0.0 
0.0 -1.962000000000e+01 0.0 
0.0 -1.962000000000e+01 0.0 
0.0 -1.962000000000e+01 0.0 
0.0 -1.962000000000e+01 0.0 
0.0 -1.962000000000e+01 0.0 
0.0 -1.962000000000e+01 0.0 
0.0 -1.962000000000e+01 0.0 
0.0 -1.962000000000e+01 0.0 
0.0 -1.962000000000e+01 0.0 
0.0 -1.962000000000e+01 0.0 
0.0 -1.962000000000e+01 0.0 
0.0 -1.962000000000e+01 0.0 
0.0 -1.962000000000e+01 0.0 
0.0 -1.962000000000e+01 0.0 
0.0 -1.962000000000e+01 0.0 
0.0 -1.962000000000e+01 0.0 
0.0 -1.962000000000e+01 0.0 
0.0 -1.962000000000e+01 0.0 
0.0 -1.962000000000e+01 0.0 
0.0 -1.962000000000e+01 0.0 
0.0 -1.962000000000e+01 0.0 
0.0 -1.962000000000e+01 0.0 
0.0 -1.962000000000e+01 0.0 
0.0 -1.962000000000e+01 0.0 
0.0 -1.962000000000e+01 0.0 
0.0 -1.962000000000e+01 0.0 
0.0 -1.962000000000e+01 0.0 
0.0 -1.962000000000e+01 0.0 
0.0 -1.962000000000e+01 0.0 
0.0 -1.962000000000e+01 0.0 
0.0 -1.962000000000e+01 0.0 
0.0 -1.962000000000e+01 0.0 
0.0 -1.962000000000e+01 0.0 
0.0 -1.962000000000e+01 0.0 
0.0 -1.962000000000e+01 0.0 
0.0 -1.962000000000e+01 0.0 
0.0 -1.962000000000e+01 0.0 
0.0 -1.962000000000e+01 0.0 
0.0 -1.962000000000e+01 0.0 
0.0 -1.962000000000e+01 0.0 
0.0 -1.962000000000e+01 0.0 
0.0 -1.962000000000e+01 0.0 
0.0 -1.962000000000e+01 0.0 
0.0 -1.962000000000e+01 0.0 
0.0 -1.962000000000e+01 0.0 
0.0 -1.962000000000e+01 0.0 
0.0 -1.962000000000e+01 0.0 
0.0 -1.962000000000e+01 0.0 
0.0 -1.962000000000e+01 0.0 
0.0 -1.962000000000e+01 0.0 
0.0 -1.962000000000e+01 0.0 
0.0 -1.962000000000e+01 0.0 
0.0 -1.962000000000e+01 0.0 
0.0 -1.962000000000e+01 0.0 
0.0 -1.962000000000e+01 0.0 
0.0 -1.962000000000e+01 0.0 
0.0 -1.962000000000e+01 0.0 
0.0 -1.962000000000e+01 0.0 
0.0 -1.962000000000e+01 0.0 
0.0 -1.962000000000e+01 0.0 
0.0 -1.962000000000e+01 0.0 
0.0 -1.962000000000e+01 0.0 
0.0 -1.962000000000e+01 0.0 
0.0 -1.962000000000e+01 0.0 
0.0 -1.962000000000e+01 0.0 
0.0 -1.962000000000e+01 0.0 
0.0 -1.962000000000e+01 0.0 
0.0 -1.962000000000e+01 0.0 
0.0 -1.962000000000e+01 0.0 
0.0 -1.962000000000e+01 0.0 
0.0 -1.962000000000e+01 0.0 
0.0 -1.962000000000e+01 0.0 
0.0 -1.962000000000e+01 0.0 
0.0 -1.962000000000e+01 0.0 
0.0 -1.962000000000e+01 0.0 
0.0 -1.962000000000e+01 0.0 
0.0 -1.962000000000e+01 0.0 
0.0 -1.962000000000e+01 0.0 
0.0 -1.962000000000e+01 0.0 
0.0 -1.962000000000e+01 0.0 
0.0 -1.962000000000e+01 0.0 
0.0 -1.962000000000e+01 0.0 
0.0 -1.962000000000e+01 0.0 
0.0 -1.962000000000e+01 0.0 
0.0 -1.962000000000e+01 0.0 
0.0 -1.962000000000e+01 0.0 
0.0 -1.962000000000e+01 0.0 
0.0 -1.962000000000e+01 0.0 
0.0 -1.962000000000e+01 0.0 
0.0 -1.962000000000e+01 0.0 
0.0 -1.962000000000e+01 0.0 
0.0 -1.962000000000e+01 0.0 
0.0 -1.962000000000e+01 0.0 
0.0 -1.962000000000e+01 0.0 
0.0 -1.962000000000e+01 0.0 
0.0 -1.962000000000e+01 0.0 
0.0 -1.962000000000e+01 0.0 
0.0 -1.962000000000e+01 0.0 
0.0 -1.962000000000e+01 0.0 
0.0 -1.962000000000e+01 0.0 
0.0 -1.962000000000e+01 0.0 
0.0 -1.962000000000e+01 0.0 
0.0 -1.962000000000e+01 0.0 
0.0 -1.962000000000e+01 0.0 
0.0 -1.962000000000e+01 0.0 
0.0 -1.962000000000e+01 0.0 
0.0 -1.962000000000e+01 0.0 
0.0 -1.962000000000e+01 0.0 
0.0 -1.962000000000e+01 0.0 
0.0 -1.962000000000e+01 0.0 
0.0 -1.962000000000e+01 0.0 
0.0 -1.962000000000e+01 0.0 
0.0 -1.962000000000e+01 0.0 
0.0 -1.962000000000e+01 0.0 
0.0 -1.962000000000e+01 0.0 
0.0 -1.962000000000e+01 0.0 
0.0 -1.962000000000e+01 0.0 
0.0 -1.962000000000e+01 0.0 
0.0 -1.962000000000e+01 0.0 
0.0 -1.962000000000e+01 0.0 
0.0 -1.962000000000e+01 0.0 
0.0 -1.962000000000e+01 0.0 
0.0 -1.962000000000e+01 0.0 
0.0 -1.962000000000e+01 0.0 
0.0 -1.962000000000e+01 0.0 
0.0 -1.962000000000e+01 0.0 
0.0 -1.962000000000e+01 0.0 
0.0 -1.962000000000e+01 0.0 
0.0 -1.962000000000e+01 0.0 
0.0 -1.962000000000e+01 0.0 
0.0 -1.962000000000e+01 0.0 
0.0 -1.962000000000e+01 0.0 
0.0 -1.962000000000e+01 0.0 
0.0 -1.962000000000e+01 0.0 
0.0 -1.962000000000e+01 0.0 
0.0 -1.962000000000e+01 0.0 
0.0 -1.962000000000e+01 0.0 
0.0 -1.962000000000e+01 0.0 
0.0 -1.962000000000e+01 0.0 
0.0 -1.962000000000e+01 0.0 
0.0 -1.962000000000e+01 0.0 
0.0 -1.962000000000e+01 0.0 
0.0 -1.962000000000e+01 0.0 
0.0 -1.962000000000e+01 0.0 
0.0 -1.962000000000e+01 0.0 
0.0 -1.962000000000e+01 0.0 
0.0 -1.962000000000e+01 0.0 
0.0 -1.962000000000e+01 0.0 
0.0 -1.962000000000e+01 0.0 
0.0 -1.962000000000e+01 0.0 
0.0 -1.962000000000e+01 0.0 
0.0 -1.962000000000e+01 0.0 
0.0 -1.962000000000e+01 0.0 
0.0 -1.962000000000e+01 0.0 
0.0 -1.962000000000e+01 0.0 
0.0 -1.962000000000e+01 0.0 
0.0 -1.962000000000e+01 0.0 
0.0 -1.962000000000e+01 0.0 
0.0 -1.962000000000e+01 0.0 
0.0 -1.962000000000e+01 0.0 
0.0 -1.962000000000e+01 0.0 
0.0 -1.962000000000e+01 0.0 
0.0 -1.962000000000e+01 0.0 
0.0 -1.962000000000e+01 0.0 
0.0 -1.962000000000e+01 0.0 
0.0 -1.962000000000e+01 0.0 
0.0 -1.962000000000e+01 0.0 
0.0 -1.962000000000e+01 0.0 
0.0 -1.962000000000e+01 0.0 
0.0 -1.962000000000e+01 0.0 
0.0 -1.962000000000e+01 0.0 
0.0 -1.962000000000e+01 0.0 
0.0 -1.962000000000e+01 0.0 
0.0 -1.962000000000e+01 0.0 
0.0 -1.962000000000e+01 0.0 
0.0 -1.962000000000e+01 0.0 
0.0 -1.962000000000e+01 0.0 
0.0 -1.962000000000e+01 0.0 
0.0 -1.962000000000e+01 0.0 
0.0 -1.962000000000e+01 0.0 
0.0 -1.962000000000e+01 0.0 
0.0 -1.962000000000e+01 0.0 
0.0 -1.962000000000e+01 0.0 
0.0 -1.962000000000e+01 0.0 
0.0 -1.962000000000e+01 0.0 
0.0 -1.962000000000e+01 0.0 
0.0 -1.962000000000e+01 0.0 
0.0 -1.962000000000e+01 0.0 
0.0 -1.962000000000e+01 0.0 
0.0 -1.962000000000e+01 0.0 
0.0 -1.962000000000e+01 0.0 
0.0 -1.962000000000e+01 0.0 
0.0 -1.962000000000e+01 0.0 
0.0 -1.962000000000e+01 0.0 
0.0 -1.962000000000e+01 0.0 
0.0 -1.962000000000e+01 0.0 
0.0 -1.962000000000e+01 0.0 
0.0 -1.962000000000e+01 0.0 
0.0 -1.962000000000e+01 0.0 
0.0 -1.962000000000e+01 0.0 
0.0 -1.962000000000e+01 0.0 
0.0 -1.962000000000e+01 0.0 
0.0 -1.962000000000e+01 0.0 
0.0 -1.962000000000e+01 0.0 
0.0 -1.962000000000e+01 0.0 
0.0 -1.962000000000e+01 0.0 
0.0 -1.962000000000e+01 0.0 
0.0 -1.962000000000e+01 0.0 
0.0 -1.962000000000e+01 0.0 
0.0 -1.962000000000e+01 0.0 
0.0 -1.962000000000e+01 0.0 
0.0 -1.962000000000e+01 0.0 
0.0 -1.962000000000e+01 0.0 
0.0 -1.962000000000e+01 0.0 
0.0 -1.962000000000e+01 0.0 
0.0 -1.962000000000e+01 0.0 
0.0 -1.962000000000e+01 0.0 
0.0 -1.962000000000e+01 0.0 
0.0 -1.962000000000e+01 0.0 
0.0 -1.962000000000e+01 0.0 
0.0 -1.962000000000e+01 0.0 
0.0 -1.962000000000e+01 0.0 
0.0 -1.962000000000e+01 0.0 
0.0 -1.962000000000e+01 0.0 
0.0 -1.962000000000e+01 0.0 
0.0 -1.962000000000e+01 0.0 
0.0 -1.962000000000e+01 0.0 
0.0 -1.962000000000e+01 0.0 
0.0 -1.962000000000e+01 0.0 
0.0 -1.962000000000e+01 0.0 
0.0 -1.962000000000e+01 0.0 
0.0 -1.962000000000e+01 0.0 
0.0 -1.962000000000e+01 0.0 
0.0 -1.962000000000e+01 0.0 
0.0 -1.962000000000e+01 0.0 
0.0 -1.962000000000e+01 0.0 
0.0 -1.962000000000e+01 0.0 
0.0 -1.962000000000e+01 0.0 
0.0 -1.962000000000e+01 0.0 
0.0 -1.962000000000e+01 0.0 
0.0 -1.962000000000e+01 0.0 
0.0 -1.962000000000e+01 0.0 
0.0 -1.962000000000e+01 0.0 
0.0 -1.962000000000e+01 0.0 
0.0 -1.962000000000e+01 0.0 
0.0 -1.962000000000e+01 0.0 
0.0 -1.962000000000e+01 0.0 
0.0 -1.962000000000e+01 0.0 
0.0 -1.962000000000e+01 0.0 
0.0 -1.962000000000e+01 0.0 
0.0 -1.962000000000e+01 0.0 
0.0 -1.962000000000e+01 0.0 
0.0 -1.962000000000e+01 0.0 
0.0 -1.962000000000e+01 0.0 
0.0 -1.962000000000e+01 0.0 
0.0 -1.962000000000e+01 0.0 
0.0 -1.962000000000e+01 0.0 
0.0 -1.962000000000e+01 0.0 
0.0 -1.962000000000e+01 0.0 
0.0 -1.962000000000e+01 0.0 
0.0 -1.962000000000e+01 0.0 
0.0 -1.962000000000e+01 0.0 
0.0 -1.962000000000e+01 0.0 
0.0 -1.962000000000e+01 0.0 
0.0 -1.962000000000e+01 0.0 
0.0 -1.962000000000e+01 0.0 
0.0 -1.962000000000e+01 0.0 
0.0 -1.962000000000e+01 0.0 
0.0 -1.962000000000e+01 0.0 
0.0 -1.962000000000e+01 0.0 
0.0 -1.962000000000e+01 0.0 
0.0 -1.962000000000e+01 0.0 
0.0 -1.962000000000e+01 0.0 
0.0 -1.962000000000e+01 0.0 
0.0 -1.962000000000e+01 0.0 
0.0 -1.962000000000e+01 0.0 
0.0 -1.962000000000e+01 0.0 
0.0 -1.962000000000e+01 0.0 
0.0 -1.962000000000e+01 0.0 
0.0 -1.962000000000e+01 0.0 
0.0 -1.962000000000e+01 0.0 
0.0 -1.962000000000e+01 0.0 
0.0 -1.962000000000e+01 0.0 
0.0 -1.962000000000e+01 0.0 
0.0 -1.962000000000e+01 0.0 
0.0 -1.962000000000e+01 0.0 
0.0 -1.962000000000e+01 0.0 
0.0 -1.962000000000e+01 0.0 
0.0 -1.962000000000e+01 0.0 
0.0 -1.962000000000e+01 0.0 
0.0 -1.962000000000e+01 0.0 
0.0 -1.962000000000e+01 0.0 
0.0 -1.962000000000e+01 0.0 
0.0 -1.962000000000e+01 0.0 
0.0 -1.962000000000e+01 0.0 
0.0 -1.962000000000e+01 0.0 
0.0 -1.962000000000e+01 0.0 
0.0 -1.962000000000e+01 0.0 
0.0 -1.962000000000e+01 0.0 
0.0 -1.962000000000e+01 0.0 
0.0 -1.962000000000e+01 0.0 
0.0 -1.962000000000e+01 0.0 
0.0 -1.962000000000e+01 0.0 
0.0 -1.962000000000e+01 0.0 
0.0 -1.962000000000e+01 0.0 
0.0 -1.962000000000e+01 0.0 
0.0 -1.962000000000e+01 0.0 
0.0 -1.962000000000e+01 0.0 
0.0 -1.962000000000e+01 0.0 
0.0 -1.962000000000e+01 0.0 
0.0 -1.962000000000e+01 0.0 
0.0 -1.962000000000e+01 0.0 
0.0 -1.962000000000e+01 0.0 
0.0 -1.962000000000e+01 0.0 
0.0 -1.962000000000e+01 0.0 
0.0 -1.962000000000e+01 0.0 
0.0 -1.962000000000e+01 0.0 
0.0 -1.962000000000e+01 0.0 
0.0 -1.962000000000e+01 0.0 
0.0 -1.962000000000e+01 0.0 
0.0 -1.962000000000e+01 0.0 
0.0 -1.962000000000e+01 0.0 
0.0 -1.962000000000e+01 0.0 
0.0 -1.962000000000e+01 0.0 
0.0 -1.962000000000e+01 0.0 
0.0 -1.962000000000e+01 0.0 
0.0 -1.962000000000e+01 0.0 
0.0 -1.962000000000e+01 0.0 
0.0 -1.962000000000e+01 0.0 
0.0 -1.962000000000e+01 0.0 
0.0 -1.962000000000e+01 0.0 
0.0 -1.962000000000e+01 0.0 
0.0 -1.962000000000e+01 0.0 
0.0 -1.962000000000e+01 0.0 
0.0 -1.962000000000e+01 0.0 
0.0 -1.962000000000e+01 0.0 
0.0 -1.962000000000e+01 0.0 
0.0 -1.962000000000e+01 0.0 
0.0 -1.962000000000e+01 0.0 
0.0 -1.962000000000e+01 0.0 
0.0 -1.962000000000e+01 0.0 
0.0 -1.962000000000e+01 0.0 
0.0 -1.962000000000e+01 0.0 
0.0 -1.962000000000e+01 0.0 
0.0 -1.962000000000e+01 0.0 
0.0 -1.962000000000e+01 0.0 
0.0 -1.962000000000e+01 0.0 
0.0 -1.962000000000e+01 0.0 
0.0 -1.962000000000e+01 0.0 
0.0 -1.962000000000e+01 0.0 
0.0 -1.962000000000e+01 0.0 
0.0 -1.962000000000e+01 0.0 
0.0 -1.962000000000e+01 0.0 
0.0 -1.962000000000e+01 0.0 
0.0 -1.962000000000e+01 0.0 
0.0 -1.962000000000e+01 0.0 
0.0 -1.962000000000e+01 0.0 
0.0 -1.962000000000e+01 0.0 
0.0 -1.962000000000e+01 0.0 
0.0 -1.962000000000e+01 0.0 
0.0 -1.962000000000e+01 0.0 
0.0 -1.962000000000e+01 0.0 
0.0 -1.962000000000e+01 0.0 
0.0 -1.962000000000e+01 0.0 
0.0 -1.962000000000e+01 0.0 
0.0 -1.962000000000e+01 0.0 
0.0 -1.962000000000e+01 0.0 
0.0 -1.962000000000e+01 0.0 
0.0 -1.962000000000e+01 0.0 
0.0 -1.962000000000e+01 0.0 
0.0 -1.962000000000e+01 0.0 
0.0 -1.962000000000e+01 0.0 
0.0 -1.962000000000e+01 0.0 
0.0 -1.962000000000e+01 0.0 
0.0 -1.962000000000e+01 0.0 
0.0 -1.962000000000e+01 0.0 
0.0 -1.962000000000e+01 0.0 
0.0 -1.962000000000e+01 0.0 
0.0 -1.962000000000e+01 0.0 
0.0 -1.962000000000e+01 0.0 
0.0 -1.962000000000e+01 0.0 
0.0 -1.962000000000e+01 0.0 
0.0 -1.962000000000e+01 0.0 
0.0 -1.962000000000e+01 0.0 
0.0 -1.962000000000e+01 0.0 
0.0 -1.962000000000e+01 0.0 
0.0 -1.962000000000e+01 0.0 
0.0 -1.962000000000e+01 0.0 
0.0 -1.962000000000e+01 0.0 
0.0 -1.962000000000e+01 0.0 
0.0 -1.962000000000e+01 0.0 
0.0 -1.962000000000e+01 0.0 
0.0 -1.962000000000e+01 0.0 
0.0 -1.962000000000e+01 0.0 
0.0 -1.962000000000e+01 0.0 
0.0 -1.962000000000e+01 0.0 
0.0 -1.962000000000e+01 0.0 
0.0 -1.962000000000e+01 0.0 
0.0 -1.962000000000e+01 0.0 
0.0 -1.962000000000e+01 0.0 
0.0 -1.962000000000e+01 0.0 
0.0 -1.962000000000e+01 0.0 
0.0 -1.962000000000e+01 0.0 
0.0 -1.962000000000e+01 0.0 
0.0 -1.962000000000e+01 0.0 
0.0 -1.962000000000e+01 0.0 
0.0 -1.962000000000e+01 0.0 
0.0 -1.962000000000e+01 0.0 
0.0 -1.962000000000e+01 0.0 
0.0 -1.962000000000e+01 0.0 
0.0 -1.962000000000e+01 0.0 
0.0 -1.962000000000e+01 0.0 
0.0 -1.962000000000e+01 0.0 
0.0 -1.962000000000e+01 0.0 
0.0 -1.962000000000e+01 0.0 
0.0 -1.962000000000e+01 0.0 
0.0 -1.962000000000e+01 0.0 
0.0 -1.962000000000e+01 0.0 
0.0 -1.962000000000e+01 0.0 
0.0 -1.962000000000e+01 0.0 
0.0 -1.962000000000e+01 0.0 
0.0 -1.962000000000e+01 0.0 
0.0 -1.962000000000e+01 0.0 
0.0 -1.962000000000e+01 0.0 
0.0 -1.962000000000e+01 0.0 
0.0 -1.962000000000e+01 0.0 
0.0 -1.962000000000e+01 0.0 
0.0 -1.962000000000e+01 0.0 
0.0 -1.962000000000e+01 0.0 
0.0 -1.962000000000e+01 0.0 
0.0 -1.962000000000e+01 0.0 
0.0 -1.962000000000e+01 0.0 
0.0 -1.962000000000e+01 0.0 
0.0 -1.962000000000e+01 0.0 
0.0 -1.962000000000e+01 0.0 
0.0 -1.962000000000e+01 0.0 
0.0 -1.962000000000e+01 0.0 
0.0 -1.962000000000e+01 0.0 
0.0 -1.962000000000e+01 0.0 
0.0 -1.962000000000e+01 0.0 
0.0 -1.962000000000e+01 0.0 
0.0 -1.962000000000e+01 0.0 
0.0 -1.962000000000e+01 0.0 
0.0 -1.962000000000e+01 0.0 
0.0 -1.962000000000e+01 0.0 
0.0 -1.962000000000e+01 0.0 
0.0 -1.962000000000e+01 0.0 
0.0 -1.962000000000e+01 0.0 
0.0 -1.962000000000e+01 0.0 
0.0 -1.962000000000e+01 0.0 
0.0 -1.962000000000e+01 0.0 
0.0 -1.962000000000e+01 0.0 
0.0 -1.962000000000e+01 0.0 
0.0 -1.962000000000e+01 0.0 
0.0 -1.962000000000e+01 0.0 
0.0 -1.962000000000e+01 0.0 
0.0 -1.962000000000e+01 0.0 
0.0 -1.962000000000e+01 0.0 
0.0 -1.962000000000e+01 0.0 
0.0 -1.962000000000e+01 0.0 
0.0 -1.962000000000e+01 0.0 
0.0 -1.962000000000e+01 0.0 
0.0 -1.962000000000e+01 0.0 
0.0 -1.962000000000e+01 0.0 
0.0 -1.962000000000e+01 0.0 
0.0 -1.962000000000e+01 0.0 
0.0 -1.962000000000e+01 0.0 
0.0 -1.962000000000e+01 0.0 
0.0 -1.962000000000e+01 0.0 
0.0 -1.962000000000e+01 0.0 
0.0 -1.962000000000e+01 0.0 
0.0 -1.962000000000e+01 0.0 
0.0 -1.962000000000e+01 0.0 
0.0 -1.962000000000e+01 0.0 
0.0 -1.962000000000e+01 0.0 
0.0 -1.962000000000e+01 0.0 
0.0 -1.962000000000e+01 0.0 
0.0 -1.962000000000e+01 0.0 
0.0 -1.962000000000e+01 0.0 
0.0 -1.962000000000e+01 0.0 
0.0 -1.962000000000e+01 0.0 
0.0 -1.962000000000e+01 0.0 
0.0 -1.962000000000e+01 0.0 
0.0 -1.962000000000e+01 0.0 
0.0 -1.962000000000e+01 0.0 
0.0 -1.962000000000e+01 0.0 
0.0 -1.962000000000e+01 0.0 
0.0 -1.962000000000e+01 0.0 
0.0 -1.962000000000e+01 0.0 
0.0 -1.962000000000e+01 0.0 
0.0 -1.962000000000e+01 0.0 
0.0 -1.962000000000e+01 0.0 
0.0 -1.962000000000e+01 0.0 
0.0 -1.962000000000e+01 0.0 
0.0 -1.962000000000e+01 0.0 
0.0 -1.962000000000e+01 0.0 
0.0 -1.962000000000e+01 0.0 
0.0 -1.962000000000e+01 0.0 
0.0 -1.962000000000e+01 0.0 
0.0 -1.962000000000e+01 0.0 
0.0 -1.962000000000e+01 0.0 
0.0 -1.962000000000e+01 0.0 
0.0 -1.962000000000e+01 0.0 
0.0 -1.962000000000e+01 0.0 
0.0 -1.962000000000e+01 0.0 
0.0 -1.962000000000e+01 0.0 
0.0 -1.962000000000e+01 0.0 
0.0 -1.962000000000e+01 0.0 
0.0 -1.962000000000e+01 0.0 
0.0 -1.962000000000e+01 0.0 
0.0 -1.962000000000e+01 0.0 
0.0 -1.962000000000e+01 0.0 
0.0 -1.962000000000e+01 0.0 
0.0 -1.962000000000e+01 0.0 
0.0 -1.962000000000e+01 0.0 
0.0 -1.962000000000e+01 0.0 
0.0 -1.962000000000e+01 0.0 
0.0 -1.962000000000e+01 0.0 
0.0 -1.962000000000e+01 0.0 
0.0 -1.962000000000e+01 0.0 
0.0 -1.962000000000e+01 0.0 
0.0 -1.962000000000e+01 0.0 
0.0 -1.962000000000e+01 0.0 
0.0 -1.962000000000e+01 0.0 
0.0 -1.962000000000e+01 0.0 
0.0 -1.962000000000e+01 0.0 
0.0 -1.962000000000e+01 0.0 
0.0 -1.962000000000e+01 0.0 
0.0 -1.962000000000e+01 0.0 
0.0 -1.962000000000e+01 0.0 
0.0 -1.962000000000e+01 0.0 
0.0 -1.962000000000e+01 0.0 
0.0 -1.962000000000e+01 0.0 
0.0 -1.962000000000e+01 0.0 
0.0 -1.962000000000e+01 0.0 
0.0 -1.962000000000e+01 0.0 
0.0 -1.962000000000e+01 0.0 
0.0 -1.962000000000e+01 0.0 
0.0 -1.962000000000e+01 0.0 
0.0 -1.962000000000e+01 0.0 
0.0 -1.962000000000e+01 0.0 
0.0 -1.962000000000e+01 0.0 
0.0 -1.962000000000e+01 0.0 
0.0 -1.962000000000e+01 0.0 
0.0 -1.962000000000e+01 0.0 
0.0 -1.962000000000e+01 0.0 
0.0 -1.962000000000e+01 0.0 
0.0 -1.962000000000e+01 0.0 
0.0 -1.962000000000e+01 0.0 
0.0 -1.962000000000e+01 0.0 
0.0 -1.962000000000e+01 0.0 
0.0 -1.962000000000e+01 0.0 
0.0 -1.962000000000e+01 0.0 
0.0 -1.962000000000e+01 0.0 
0.0 -1.962000000000e+01 0.0 
0.0 -1.962000000000e+01 0.0 
0.0 -1.962000000000e+01 0.0 
0.0 -1.962000000000e+01 0.0 
0.0 -1.962000000000e+01 0.0 
0.0 -1.962000000000e+01 0.0 
0.0 -1.962000000000e+01 0.0 
0.0 -1.962000000000e+01 0.0 
0.0 -1.962000000000e+01 0.0 
0.0 -1.962000000000e+01 0.0 
0.0 -1.962000000000e+01 0.0 
0.0 -1.962000000000e+01 0.0 
0.0 -1.962000000000e+01 0.0 
0.0 -1.962000000000e+01 0.0 
0.0 -1.962000000000e+01 0.0 
0.0 -1.962000000000e+01 0.0 
0.0 -1.962000000000e+01 0.0 
0.0 -1.962000000000e+01 0.0 
0.0 -1.962000000000e+01 0.0 
0.0 -1.962000000000e+01 0.0 
0.0 -1.962000000000e+01 0.0 
0.0 -1.962000000000e+01 0.0 
0.0 -1.962000000000e+01 0.0 
0.0 -1.962000000000e+01 0.0 
0.0 -1.962000000000e+01 0.0 
0.0 -1.962000000000e+01 0.0 
0.0 -1.962000000000e+01 0.0 
0.0 -1.962000000000e+01 0.0 
0.0 -1.962000000000e+01 0.0 
0.0 -1.962000000000e+01 0.0 
0.0 -1.962000000000e+01 0.0 
0.0 -1.962000000000e+01 0.0 
0.0 -1.962000000000e+01 0.0 
0.0 -1.962000000000e+01 0.0 
0.0 -1.962000000000e+01 0.0 
0.0 -1.962000000000e+01 0.0 
0.0 -1.962000000000e+01 0.0 
0.0 -1.962000000000e+01 0.0 
0.0 -1.962000000000e+01 0.0 
0.0 -1.962000000000e+01 0.0 
0.0 -1.962000000000e+01 0.0 
0.0 -1.962000000000e+01 0.0 
0.0 -1.962000000000e+01 0.0 
0.0 -1.962000000000e+01 0.0 
0.0 -1.962000000000e+01 0.0 
0.0 -1.962000000000e+01 0.0 
0.0 -1.962000000000e+01 0.0 
0.0 -1.962000000000e+01 0.0 
0.0 -1.962000000000e+01 0.0 
0.0 -1.962000000000e+01 0.0 
0.0 -1.962000000000e+01 0.0 
0.0 -1.962000000000e+01 0.0 
0.0 -1.962000000000e+01 0.0 
0.0 -1.962000000000e+01 0.0 
0.0 -1.962000000000e+01 0.0 
0.0 -1.962000000000e+01 0.0 
0.0 -1.962000000000e+01 0.0 
0.0 -1.962000000000e+01 0.0 
0.0 -1.962000000000e+01 0.0 
0.0 -1.962000000000e+01 0.0 
0.0 -1.962000000000e+01 0.0 
0.0 -1.962000000000e+01 0.0 
0.0 -1.962000000000e+01 0.0 
0.0 -1.962000000000e+01 0.0 
0.0 -1.962000000000e+01 0.0 
0.0 -1.962000000000e+01 0.0 
0.0 -1.962000000000e+01 0.0 
0.0 -1.962000000000e+01 0.0 
0.0 -1.962000000000e+01 0.0 
0.0 -1.962000000000e+01 0.0 
0.0 -1.962000000000e+01 0.0 
0.0 -1.962000000000e+01 0.0 
0.0 -1.962000000000e+01 0.0 
0.0 -1.962000000000e+01 0.0 
0.0 -1.962000000000e+01 0.0 
0.0 -1.962000000000e+01 0.0 
0.0 -1.962000000000e+01 0.0 
0.0 -1.962000000000e+01 0.0 
0.0 -1.962000000000e+01 0.0 
0.0 -1.962000000000e+01 0.0 
0.0 -1.962000000000e+01 0.0 
0.0 -1.962000000000e+01 0.0 
0.0 -1.962000000000e+01 0.0 
0.0 -1.962000000000e+01 0.0 
0.0 -1.962000000000e+01 0.0 
0.0 -1.962000000000e+01 0.0 
0.0 -1.962000000000e+01 0.0 
0.0 -1.962000000000e+01 0.0 
0.0 -1.962000000000e+01 0.0 
0.0 -1.962000000000e+01 0.0 
0.0 -1.962000000000e+01 0.0 
0.0 -1.962000000000e+01 0.0 
0.0 -1.962000000000e+01 0.0 
0.0 -1.962000000000e+01 0.0 
0.0 -1.962000000000e+01 0.0 
0.0 -1.962000000000e+01 0.0 
0.0 -1.962000000000e+01 0.0 
0.0 -1.962000000000e+01 0.0 
0.0 -1.962000000000e+01 0.0 
0.0 -1.962000000000e+01 0.0 
0.0 -1.962000000000e+01 0.0 
0.0 -1.962000000000e+01 0.0 
0.0 -1.962000000000e+01 0.0 
0.0 -1.962000000000e+01 0.0 
0.0 -1.962000000000e+01 0.0 
0.0 -1.962000000000e+01 0.0 
0.0 -1.962000000000e+01 0.0 
0.0 -1.962000000000e+01 0.0 
0.0 -1.962000000000e+01 0.0 
0.0 -1.962000000000e+01 0.0 
0.0 -1.962000000000e+01 0.0 
0.0 -1.962000000000e+01 0.0 
0.0 -1.962000000000e+01 0.0 
0.0 -1.962000000000e+01 0.0 
0.0 -1.962000000000e+01 0.0 
0.0 -1.962000000000e+01 0.0 
0.0 -1.962000000000e+01 0.0 
0.0 -1.962000000000e+01 0.0 
0.0 -1.962000000000e+01 0.0 
0.0 -1.962000000000e+01 0.0 
0.0 -1.962000000000e+01 0.0 
0.0 -1.962000000000e+01 0.0 
0.0 -1.962000000000e+01 0.0 
0.0 -1.962000000000e+01 0.0 
0.0 -1.962000000000e+01 0.0 
0.0 -1.962000000000e+01 0.0 
0.0 -1.962000000000e+01 0.0 
0.0 -1.962000000000e+01 0.0 
0.0 -1.962000000000e+01 0.0 
0.0 -1.962000000000e+01 0.0 
0.0 -1.962000000000e+01 0.0 
0.0 -1.962000000000e+01 0.0 
0.0 -1.962000000000e+01 0.0 
0.0 -1.962000000000e+01 0.0 
0.0 -1.962000000000e+01 0.0 
0.0 -1.962000000000e+01 0.0 
0.0 -1.962000000000e+01 0.0 
0.0 -1.962000000000e+01 0.0 
0.0 -1.962000000000e+01 0.0 
0.0 -1.962000000000e+01 0.0 
0.0 -1.962000000000e+01 0.0 
0.0 -1.962000000000e+01 0.0 
0.0 -1.962000000000e+01 0.0 
0.0 -1.962000000000e+01 0.0 
0.0 -1.962000000000e+01 0.0 
0.0 -1.962000000000e+01 0.0 
0.0 -1.962000000000e+01 0.0 
0.0 -1.962000000000e+01 0.0 
0.0 -1.962000000000e+01 0.0 
0.0 -1.962000000000e+01 0.0 
0.0 -1.962000000000e+01 0.0 
0.0 -1.962000000000e+01 0.0 
0.0 -1.962000000000e+01 0.0 
0.0 -1.962000000000e+01 0.0 
0.0 -1.962000000000e+01 0.0 
0.0 -1.962000000000e+01 0.0 
0.0 -1.962000000000e+01 0.0 
0.0 -1.962000000000e+01 0.0 
0.0 -1.962000000000e+01 0.0 
0.0 -1.962000000000e+01 0.0 
0.0 -1.962000000000e+01 0.0 
0.0 -1.962000000000e+01 0.0 
0.0 -1.962000000000e+01 0.0 
0.0 -1.962000000000e+01 0.0 
0.0 -1.962000000000e+01 0.0 
0.0 -1.962000000000e+01 0.0 
0.0 -1.962000000000e+01 0.0 
0.0 -1.962000000000e+01 0.0 
0.0 -1.962000000000e+01 0.0 
0.0 -1.962000000000e+01 0.0 
0.0 -1.962000000000e+01 0.0 
0.0 -1.962000000000e+01 0.0 
0.0 -1.962000000000e+01 0.0 
0.0 -1.962000000000e+01 0.0 
0.0 -1.962000000000e+01 0.0 
0.0 -1.962000000000e+01 0.0 
0.0 -1.962000000000e+01 0.0 
0.0 -1.962000000000e+01 0.0 
0.0 -1.962000000000e+01 0.0 
0.0 -1.962000000000e+01 0.0 
0.0 -1.962000000000e+01 0.0 
0.0 -1.962000000000e+01 0.0 
0.0 -1.962000000000e+01 0.0 
0.0 -1.962000000000e+01 0.0 
0.0 -1.962000000000e+01 0.0 
0.0 -1.962000000000e+01 0.0 
0.0 -1.962000000000e+01 0.0 
0.0 -1.962000000000e+01 0.0 
0.0 -1.962000000000e+01 0.0 
0.0 -1.962000000000e+01 0.0 
0.0 -1.962000000000e+01 0.0 
0.0 -1.962000000000e+01 0.0 
0.0 -1.962000000000e+01 0.0 
0.0 -1.962000000000e+01 0.0 
0.0 -1.962000000000e+01 0.0 
0.0 -1.962000000000e+01 0.0 
0.0 -1.962000000000e+01 0.0 
0.0 -1.962000000000e+01 0.0 
0.0 -1.962000000000e+01 0.0 
0.0 -1.962000000000e+01 0.0 
0.0 -1.962000000000e+01 0.0 
0.0 -1.962000000000e+01 0.0 
0.0 -1.962000000000e+01 0.0 
0.0 -1.962000000000e+01 0.0 
0.0 -1.962000000000e+01 0.0 
0.0 -1.962000000000e+01 0.0 
0.0 -1.962000000000e+01 0.0 
0.0 -1.962000000000e+01 0.0 
0.0 -1.962000000000e+01 0.0 
0.0 -1.962000000000e+01 0.0 
0.0 -1.962000000000e+01 0.0 
0.0 -1.962000000000e+01 0.0 
0.0 -1.962000000000e+01 0.0 
0.0 -1.962000000000e+01 0.0 
0.0 -1.962000000000e+01 0.0 
0.0 -1.962000000000e+01 0.0 
0.0 -1.962000000000e+01 0.0 
0.0 -1.962000000000e+01 0.0 
0.0 -1.962000000000e+01 0.0 
0.0 -1.962000000000e+01 0.0 
0.0 -1.962000000000e+01 0.0 
0.0 -1.962000000000e+01 0.0 
0.0 -1.962000000000e+01 0.0 
0.0 -1.962000000000e+01 0.0 
0.0 -1.962000000000e+01 0.0 
0.0 -1.962000000000e+01 0.0 
0.0 -1.962000000000e+01 0.0 
0.0 -1.962000000000e+01 0.0 
0.0 -1.962000000000e+01 0.0 
0.0 -1.962000000000e+01 0.0 
0.0 -1.962000000000e+01 0.0 
0.0 -1.962000000000e+01 0.0 
0.0 -1.962000000000e+01 0.0 
0.0 -1.962000000000e+01 0.0 
0.0 -1.962000000000e+01 0.0 
0.0 -1.962000000000e+01 0.0 
0.0 -1.962000000000e+01 0.0 
0.0 -1.962000000000e+01 0.0 
0.0 -1.962000000000e+01 0.0 
0.0 -1.962000000000e+01 0.0 
0.0 -1.962000000000e+01 0.0 
0.0 -1.962000000000e+01 0.0 
0.0 -1.962000000000e+01 0.0 
0.0 -1.962000000000e+01 0.0 
0.0 -1.962000000000e+01 0.0 
0.0 -1.962000000000e+01 0.0 
0.0 -1.962000000000e+01 0.0 
0.0 -1.962000000000e+01 0.0 
0.0 -1.962000000000e+01 0.0 
0.0 -1.962000000000e+01 0.0 
0.0 -1.962000000000e+01 0.0 
0.0 -1.962000000000e+01 0.0 
0.0 -1.962000000000e+01 0.0 
0.0 -1.962000000000e+01 0.0 
0.0 -1.962000000000e+01 0.0 
0.0 -1.962000000000e+01 0.0 
0.0 -1.962000000000e+01 0.0 
0.0 -1.962000000000e+01 0.0 
0.0 -1.962000000000e+01 0.0 
0.0 -1.962000000000e+01 0.0 
0.0 -1.962000000000e+01 0.0 
0.0 -1.962000000000e+01 0.0 
0.0 -1.962000000000e+01 0.0 
0.0 -1.962000000000e+01 0.0 
0.0 -1.962000000000e+01 0.0 
0.0 -1.962000000000e+01 0.0 
0.0 -1.962000000000e+01 0.0 
0.0 -1.962000000000e+01 0.0 
0.0 -1.962000000000e+01 0.0 
0.0 -1.962000000000e+01 0.0 
0.0 -1.962000000000e+01 0.0 
0.0 -1.962000000000e+01 0.0 
0.0 -1.962000000000e+01 0.0 
0.0 -1.962000000000e+01 0.0 
0.0 -1.962000000000e+01 0.0 
0.0 -1.962000000000e+01 0.0 
0.0 -1.962000000000e+01 0.0 
0.0 -1.962000000000e+01 0.0 
0.0 -1.962000000000e+01 0.0 
0.0 -1.962000000000e+01 0.0 
0.0 -1.962000000000e+01 0.0 
0.0 -1.962000000000e+01 0.0 
0.0 -1.962000000000e+01 0.0 
0.0 -1.962000000000e+01 0.0 
0.0 -1.962000000000e+01 0.0 
0.0 -1.962000000000e+01 0.0 
0.0 -1.962000000000e+01 0.0 
0.0 -1.962000000000e+01 0.0 
0.0 -1.962000000000e+01 0.0 
0.0 -1.962000000000e+01 0.0 
0.0 -1.962000000000e+01 0.0 
0.0 -1.962000000000e+01 0.0 
0.0 -1.962000000000e+01 0.0 
0.0 -1.962000000000e+01 0.0 
0.0 -1.962000000000e+01 0.0 
0.0 -1.962000000000e+01 0.0 
0.0 -1.962000000000e+01 0.0 
0.0 -1.962000000000e+01 0.0 
0.0 -1.962000000000e+01 0.0 
0.0 -1.962000000000e+01 0.0 
0.0 -1.962000000000e+01 0.0 
0.0 -1.962000000000e+01 0.0 
0.0 -1.962000000000e+01 0.0 
0.0 -1.962000000000e+01 0.0 
0.0 -1.962000000000e+01 0.0 
0.0 -1.962000000000e+01 0.0 
0.0 -1.962000000000e+01 0.0 
0.0 -1.962000000000e+01 0.0 
0.0 -1.962000000000e+01 0.0 
0.0 -1.962000000000e+01 0.0 
0.0 -1.962000000000e+01 0.0 
0.0 -1.962000000000e+01 0.0 
0.0 -1.962000000000e+01 0.0 
0.0 -1.962000000000e+01 0.0 
0.0 -1.962000000000e+01 0.0 
0.0 -1.962000000000e+01 0.0 
0.0 -1.962000000000e+01 0.0 
0.0 -1.962000000000e+01 0.0 
0.0 -1.962000000000e+01 0.0 
0.0 -1.962000000000e+01 0.0 
0.0 -1.962000000000e+01 0.0 
0.0 -1.962000000000e+01 0.0 
0.0 -1.962000000000e+01 0.0 
0.0 -1.962000000000e+01 0.0 
0.0 -1.962000000000e+01 0.0 
0.0 -1.962000000000e+01 0.0 
0.0 -1.962000000000e+01 0.0 
0.0 -1.962000000000e+01 0.0 
0.0 -1.962000000000e+01 0.0 
0.0 -1.962000000000e+01 0.0 
0.0 -1.962000000000e+01 0.0 
0.0 -1.962000000000e+01 0.0 
0.0 -1.962000000000e+01 0.0 
0.0 -1.962000000000e+01 0.0 
0.0 -1.962000000000e+01 0.0 
0.0 -1.962000000000e+01 0.0 
0.0 -1.962000000000e+01 0.0 
0.0 -1.962000000000e+01 0.0 
0.0 -1.962000000000e+01 0.0 
0.0 -1.962000000000e+01 0.0 
0.0 -1.962000000000e+01 0.0 
0.0 -1.962000000000e+01 0.0 
0.0 -1.962000000000e+01 0.0 
0.0 -1.962000000000e+01 0.0 
0.0 -1.962000000000e+01 0.0 
0.0 -1.962000000000e+01 0.0 
0.0 -1.962000000000e+01 0.0 
0.0 -1.962000000000e+01 0.0 
0.0 -1.962000000000e+01 0.0 
0.0 -1.962000000000e+01 0.0 
0.0 -1.962000000000e+01 0.0 
0.0 -1.962000000000e+01 0.0 
0.0 -1.962000000000e+01 0.0 
0.0 -1.962000000000e+01 0.0 
0.0 -1.962000000000e+01 0.0 
0.0 -1.962000000000e+01 0.0 
0.0 -1.962000000000e+01 0.0 
0.0 -1.962000000000e+01 0.0 
0.0 -1.962000000000e+01 0.0 
0.0 -1.962000000000e+01 0.0 
0.0 -1.962000000000e+01 0.0 
0.0 -1.962000000000e+01 0.0 
0.0 -1.962000000000e+01 0.0 
0.0 -1.962000000000e+01 0.0 
0.0 -1.962000000000e+01 0.0 
0.0 -1.962000000000e+01 0.0 
0.0 -1.962000000000e+01 0.0 
0.0 -1.962000000000e+01 0.0 
0.0 -1.962000000000e+01 0.0 
0.0 -1.962000000000e+01 0.0 
0.0 -1.962000000000e+01 0.0 
0.0 -1.962000000000e+01 0.0 
0.0 -1.962000000000e+01 0.0 
0.0 -1.962000000000e+01 0.0 
0.0 -1.962000000000e+01 0.0 
0.0 -1.962000000000e+01 0.0 
0.0 -1.962000000000e+01 0.0 
0.0 -1.962000000000e+01 0.0 
0.0 -1.962000000000e+01 0.0 
0.0 -1.962000000000e+01 0.0 
0.0 -1.962000000000e+01 0.0 
0.0 -1.962000000000e+01 0.0 
0.0 -1.962000000000e+01 0.0 
0.0 -1.962000000000e+01 0.0 
0.0 -1.962000000000e+01 0.0 
0.0 -1.962000000000e+01 0.0 
0.0 -1.962000000000e+01 0.0 
0.0 -1.962000000000e+01 0.0 
0.0 -1.962000000000e+01 0.0 
0.0 -1.962000000000e+01 0.0 
0.0 -1.962000000000e+01 0.0 
0.0 -1.962000000000e+01 0.0 
0.0 -1.962000000000e+01 0.0 
0.0 -1.962000000000e+01 0.0 
0.0 -1.962000000000e+01 0.0 
0.0 -1.962000000000e+01 0.0 
0.0 -1.962000000000e+01 0.0 
0.0 -1.962000000000e+01 0.0 
0.0 -1.962000000000e+01 0.0 
0.0 -1.962000000000e+01 0.0 
0.0 -1.962000000000e+01 0.0 
0.0 -1.962000000000e+01 0.0 
0.0 -1.962000000000e+01 0.0 
0.0 -1.962000000000e+01 0.0 
0.0 -1.962000000000e+01 0.0 
0.0 -1.962000000000e+01 0.0 
0.0 -1.962000000000e+01 0.0 
0.0 -1.962000000000e+01 0.0 
0.0 -1.962000000000e+01 0.0 
0.0 -1.962000000000e+01 0.0 
0.0 -1.962000000000e+01 0.0 
0.0 -1.962000000000e+01 0.0 
0.0 -1.962000000000e+01 0.0 
0.0 -1.962000000000e+01 0.0 
0.0 -1.962000000000e+01 0.0 
0.0 -1.962000000000e+01 0.0 
0.0 -1.962000000000e+01 0.0 
0.0 -1.962000000000e+01 0.0 
0.0 -1.962000000000e+01 0.0 
0.0 -1.962000000000e+01 0.0 
0.0 -1.962000000000e+01 0.0 
0.0 -1.962000000000e+01 0.0 
0.0 -1.962000000000e+01 0.0 
0.0 -1.962000000000e+01 0.0 
0.0 -1.962000000000e+01 0.0 
0.0 -1.962000000000e+01 0.0 
0.0 -1.962000000000e+01 0.0 
0.0 -1.962000000000e+01 0.0 
0.0 -1.962000000000e+01 0.0 
0.0 -1.962000000000e+01 0.0 
0.0 -1.962000000000e+01 0.0 
0.0 -1.962000000000e+01 0.0 
0.0 -1.962000000000e+01 0.0 
0.0 -1.962000000000e+01 0.0 
0.0 -1.962000000000e+01 0.0 
0.0 -1.962000000000e+01 0.0 
0.0 -1.962000000000e+01 0.0 
0.0 -1.962000000000e+01 0.0 
0.0 -1.962000000000e+01 0.0 
0.0 -1.962000000000e+01 0.0 
0.0 -1.962000000000e+01 0.0 
0.0 -1.962000000000e+01 0.0 
0.0 -1.962000000000e+01 0.0 
0.0 -1.962000000000e+01 0.0 
0.0 -1.962000000000e+01 0.0 
0.0 -1.962000000000e+01 0.0 
0.0 -1.962000000000e+01 0.0 
0.0 -1.962000000000e+01 0.0 
0.0 -1.962000000000e+01 0.0 
0.0 -1.962000000000e+01 0.0 
0.0 -1.962000000000e+01 0.0 
0.0 -1.962000000000e+01 0.0 
0.0 -1.962000000000e+01 0.0 
0.0 -1.962000000000e+01 0.0 
0.0 -1.962000000000e+01 0.0 
0.0 -1.962000000000e+01 0.0 
0.0 -1.962000000000e+01 0.0 
0.0 -1.962000000000e+01 0.0 
0.0 -1.962000000000e+01 0.0 
0.0 -1.962000000000e+01 0.0 
0.0 -1.962000000000e+01 0.0 
0.0 -1.962000000000e+01 0.0 
0.0 -1.962000000000e+01 0.0 
0.0 -1.962000000000e+01 0.0 
0.0 -1.962000000000e+01 0.0 
0.0 -1.962000000000e+01 0.0 
0.0 -1.962000000000e+01 0.0 
0.0 -1.962000000000e+01 0.0 
0.0 -1.962000000000e+01 0.0 
0.0 -1.962000000000e+01 0.0 
0.0 -1.962000000000e+01 0.0 
0.0 -1.962000000000e+01 0.0 
0.0 -1.962000000000e+01 0.0 
0.0 -1.962000000000e+01 0.0 
0.0 -1.962000000000e+01 0.0 
0.0 -1.962000000000e+01 0.0 
0.0 -1.962000000000e+01 0.0 
0.0 -1.962000000000e+01 0.0 
0.0 -1.962000000000e+01 0.0 
0.0 -1.962000000000e+01 0.0 
0.0 -1.962000000000e+01 0.0 
0.0 -1.962000000000e+01 0.0 
0.0 -1.962000000000e+01 0.0 
0.0 -1.962000000000e+01 0.0 
0.0 -1.962000000000e+01 0.0 
0.0 -1.962000000000e+01 0.0 
0.0 -1.962000000000e+01 0.0 
0.0 -1.962000000000e+01 0.0 
0.0 -1.962000000000e+01 0.0 
0.0 -1.962000000000e+01 0.0 
0.0 -1.962000000000e+01 0.0 
0.0 -1.962000000000e+01 0.0 
0.0 -1.962000000000e+01 0.0 
0.0 -1.962000000000e+01 0.0 
0.0 -1.962000000000e+01 0.0 
0.0 -1.962000000000e+01 0.0 
0.0 -1.962000000000e+01 0.0 
0.0 -1.962000000000e+01 0.0 
0.0 -1.962000000000e+01 0.0 
0.0 -1.962000000000e+01 0.0 
0.0 -1.962000000000e+01 0.0 
0.0 -1.962000000000e+01 0.0 
0.0 -1.962000000000e+01 0.0 
0.0 -1.962000000000e+01 0.0 
0.0 -1.962000000000e+01 0.0 
0.0 -1.962000000000e+01 0.0 
0.0 -1.962000000000e+01 0.0 
0.0 -1.962000000000e+01 0.0 
0.0 -1.962000000000e+01 0.0 
0.0 -1.962000000000e+01 0.0 
0.0 -1.962000000000e+01 0.0 
0.0 -1.962000000000e+01 0.0 
0.0 -1.962000000000e+01 0.0 
0.0 -1.962000000000e+01 0.0 
0.0 -1.962000000000e+01 0.0 
0.0 -1.962000000000e+01 0.0 
0.0 -1.962000000000e+01 0.0 
0.0 -1.962000000000e+01 0.0 
0.0 -1.962000000000e+01 0.0 
0.0 -1.962000000000e+01 0.0 
0.0 -1.962000000000e+01 0.0 
0.0 -1.962000000000e+01 0.0 
0.0 -1.962000000000e+01 0.0 
0.0 -1.962000000000e+01 0.0 
0.0 -1.962000000000e+01 0.0 
0.0 -1.962000000000e+01 0.0 
0.0 -1.962000000000e+01 0.0 
0.0 -1.962000000000e+01 0.0 
0.0 -1.962000000000e+01 0.0 
0.0 -1.962000000000e+01 0.0 
0.0 -1.962000000000e+01 0.0 
0.0 -1.962000000000e+01 0.0 
0.0 -1.962000000000e+01 0.0 
0.0 -1.962000000000e+01 0.0 
0.0 -1.962000000000e+01 0.0 
0.0 -1.962000000000e+01 0.0 
0.0 -1.962000000000e+01 0.0 
0.0 -1.962000000000e+01 0.0 
0.0 -1.962000000000e+01 0.0 
0.0 -1.962000000000e+01 0.0 
0.0 -1.962000000000e+01 0.0 
0.0 -1.962000000000e+01 0.0 
0.0 -1.962000000000e+01 0.0 
0.0 -1.962000000000e+01 0.0 
0.0 -1.962000000000e+01 0.0 
0.0 -1.962000000000e+01 0.0 
0.0 -1.962000000000e+01 0.0 
0.0 -1.962000000000e+01 0.0 
0.0 -1.962000000000e+01 0.0 
0.0 -1.962000000000e+01 0.0 
0.0 -1.962000000000e+01 0.0 
0.0 -1.962000000000e+01 0.0 
0.0 -1.962000000000e+01 0.0 
0.0 -1.962000000000e+01 0.0 
0.0 -1.962000000000e+01 0.0 
0.0 -1.962000000000e+01 0.0 
0.0 -1.962000000000e+01 0.0 
0.0 -1.962000000000e+01 0.0 
0.0 -1.962000000000e+01 0.0 
0.0 -1.962000000000e+01 0.0 
0.0 -1.962000000000e+01 0.0 
0.0 -1.962000000000e+01 0.0 
0.0 -1.962000000000e+01 0.0 
0.0 -1.962000000000e+01 0.0 
0.0 -1.962000000000e+01 0.0 
0.0 -1.962000000000e+01 0.0 
0.0 -1.962000000000e+01 0.0 
0.0 -1.962000000000e+01 0.0 
0.0 -1.962000000000e+01 0.0 
0.0 -1.962000000000e+01 0.0 
0.0 -1.962000000000e+01 0.0 
0.0 -1.962000000000e+01 0.0 
0.0 -1.962000000000e+01 0.0 
0.0 -1.962000000000e+01 0.0 
0.0 -1.962000000000e+01 0.0 
0.0 -1.962000000000e+01 0.0 
0.0 -1.962000000000e+01 0.0 
0.0 -1.962000000000e+01 0.0 
0.0 -1.962000000000e+01 0.0 
0.0 -1.962000000000e+01 0.0 
0.0 -1.962000000000e+01 0.0 
0.0 -1.962000000000e+01 0.0 
0.0 -1.962000000000e+01 0.0 
0.0 -1.962000000000e+01 0.0 
0.0 -1.962000000000e+01 0.0 

VECTORS node_rhside_materi_fixed float
-1.636942862160e+00 0.0 0.0 
6.926305548517e+01 0.0 0.0 
-8.187292181148e+01 -1.955793092185e+02 0.0 
7.415066238064e+01 -1.772107026972e+02 0.0 
-7.643001658204e+00 0.0 0.0 
-1.589838538080e+01 0.0 0.0 
-2.277092901339e+01 0.0 0.0 
-3.137880039281e+01 0.0 0.0 
-3.897240566051e+01 0.0 0.0 
-4.686128889618e+01 0.0 0.0 
-5.478042777805e+01 0.0 0.0 
-6.271829791303e+01 0.0 0.0 
-7.070407781555e+01 0.0 0.0 
-7.868654476678e+01 0.0 0.0 
-8.719741695389e+01 0.0 0.0 
-9.569873729516e+01 0.0 0.0 
-1.037934381025e+02 0.0 0.0 
-1.125954926608e+02 0.0 0.0 
-1.213375886366e+02 0.0 0.0 
-1.302024961649e+02 0.0 0.0 
-1.391968823287e+02 0.0 0.0 
-1.482885252935e+02 0.0 0.0 
-1.579238443091e+02 0.0 0.0 
7.181119173565e-02 -3.533916503719e+02 0.0 
2.254918237757e-02 -3.544488598403e+02 0.0 
1.306630109565e+00 -3.536992517182e+02 0.0 
1.558036105984e-01 -3.538274464053e+02 0.0 
1.172285809184e+00 -3.544131084541e+02 0.0 
1.313176633393e+00 -3.538807532980e+02 0.0 
1.316022653545e+00 -3.543588266675e+02 0.0 
1.641393727195e+00 -3.547999241543e+02 0.0 
2.541245376277e+00 -3.542987465364e+02 0.0 
1.652963442549e+00 -3.546444028369e+02 0.0 
2.700535799418e+00 -3.554732733809e+02 0.0 
3.049558091906e+00 -3.550933684449e+02 0.0 
3.188467367946e+00 -3.559473539072e+02 0.0 
3.479584318909e+00 -3.561077947121e+02 0.0 
3.986477864160e+00 -3.564887203393e+02 0.0 
4.070013254474e+00 -3.574271227132e+02 0.0 
5.064701735438e+00 -3.579903447053e+02 0.0 
5.423700004224e+00 -3.588318022438e+02 0.0 
5.878100276966e+00 -3.596346246010e+02 0.0 
6.312491794582e+00 -3.603414490516e+02 0.0 
6.369627886858e+00 -3.614979066205e+02 0.0 
7.110119905585e+00 -3.629525880901e+02 0.0 
7.355022287867e+00 -3.640623003588e+02 0.0 
7.795518921045e+00 -3.654167554313e+02 0.0 
8.126265215448e+00 -3.671683096980e+02 0.0 
8.323875885722e+00 -3.685065382981e+02 0.0 
8.459888338590e+00 -3.699277557451e+02 0.0 
8.470689451228e+00 -3.717242318230e+02 0.0 
8.460180572875e+00 -3.736030419374e+02 0.0 
8.793660899848e+00 -3.749991709086e+02 0.0 
7.771194988295e+00 -3.762901831993e+02 0.0 
7.897574366727e+00 -3.786035060666e+02 0.0 
7.706453287063e+00 -3.795834433848e+02 0.0 
7.417744868169e+00 -3.811941964422e+02 0.0 
6.853467029789e+00 -3.824368947727e+02 0.0 
6.546132217617e+00 -3.834925740310e+02 0.0 
5.971570131087e+00 -3.848051006378e+02 0.0 
5.433188409466e+00 -3.856595822995e+02 0.0 
4.999663784605e+00 -3.865620450649e+02 0.0 
4.466843739176e+00 -3.877026762693e+02 0.0 
4.242982327640e+00 -3.880977271827e+02 0.0 
3.572217109884e+00 -3.886361659163e+02 0.0 
3.104886104742e+00 -3.889210002123e+02 0.0 
2.664217779887e+00 -3.901178198961e+02 0.0 
1.998199397737e+00 -3.896783170589e+02 0.0 
1.574889150597e+00 -3.906342294410e+02 0.0 
1.636262335821e+00 -3.902553401495e+02 0.0 
7.536880928045e-01 -3.906499128435e+02 0.0 
4.243941851316e-01 -3.905918499229e+02 0.0 
7.731582623884e+01 0.0 0.0 
8.606421513725e+01 0.0 0.0 
9.434173804814e+01 0.0 0.0 
1.024642918942e+02 0.0 0.0 
1.106531538334e+02 0.0 0.0 
1.191326916125e+02 0.0 0.0 
1.271590569119e+02 0.0 0.0 
1.348570713816e+02 0.0 0.0 
1.437074061736e+02 0.0 0.0 
0.0 0.0 0.0 
0.0 0.0 0.0 
0.0 0.0 0.0 
0.0 0.0 0.0 
0.0 0.0 0.0 
0.0 0.0 0.0 
0.0 0.0 0.0 
0.0 0.0 0.0 
0.0 0.0 0.0 
0.0 0.0 0.0 
0.0 0.0 0.0 
2.583347531383e+00 0.0 0.0 
1.056958079962e+01 0.0 0.0 
1.876746380164e+01 0.0 0.0 
2.718693945810e+01 0.0 0.0 
3.563570132603e+01 0.0 0.0 
4.409355737624e+01 0.0 0.0 
5.256262710745e+01 0.0 0.0 
6.100212828057e+01 0.0 0.0 
0.0 0.0 0.0 
0.0 0.0 0.0 
0.0 0.0 0.0 
0.0 0.0 0.0 
0.0 0.0 0.0 
0.0 0.0 0.0 
0.0 0.0 0.0 
0.0 0.0 0.0 
0.0 0.0 0.0 
0.0 0.0 0.0 
0.0 0.0 0.0 
0.0 0.0 0.0 
0.0 0.0 0.0 
0.0 0.0 0.0 
0.0 0.0 0.0 
0.0 0.0 0.0 
0.0 0.0 0.0 
0.0 0.0 0.0 
0.0 0.0 0.0 
0.0 0.0 0.0 
0.0 0.0 0.0 
0.0 0.0 0.0 
0.0 0.0 0.0 
0.0 0.0 0.0 
0.0 0.0 0.0 
0.0 0.0 0.0 
0.0 0.0 0.0 
0.0 0.0 0.0 
0.0 0.0 0.0 
0.0 0.0 0.0 
0.0 0.0 0.0 
0.0 0.0 0.0 
0.0 0.0 0.0 
0.0 0.0 0.0 
0.0 0.0 0.0 
0.0 0.0 0.0 
0.0 0.0 0.0 
0.0 0.0 0.0 
0.0 0.0 0.0 
0.0 0.0 0.0 
0.0 0.0 0.0 
0.0 0.0 0.0 
0.0 0.0 0.0 
0.0 0.0 0.0 
0.0 0.0 0.0 
0.0 0.0 0.0 
0.0 0.0 0.0 
0.0 0.0 0.0 
0.0 0.0 0.0 
0.0 0.0 0.0 
0.0 0.0 0.0 
0.0 0.0 0.0 
0.0 0.0 0.0 
0.0 0.0 0.0 
0.0 0.0 0.0 
0.0 0.0 0.0 
0.0 0.0 0.0 
0.0 0.0 0.0 
0.0 0.0 0.0 
0.0 0.0 0.0 
0.0 0.0 0.0 
0.0 0.0 0.0 
0.0 0.0 0.0 
0.0 0.0 0.0 
0.0 0.0 0.0 
0.0 0.0 0.0 
0.0 0.0 0.0 
0.0 0.0 0.0 
0.0 0.0 0.0 
0.0 0.0 0.0 
0.0 0.0 0.0 
0.0 0.0 0.0 
0.0 0.0 0.0 
0.0 0.0 0.0 
0.0 0.0 0.0 
0.0 0.0 0.0 
0.0 0.0 0.0 
0.0 0.0 0.0 
0.0 0.0 0.0 
0.0 0.0 0.0 
0.0 0.0 0.0 
0.0 0.0 0.0 
0.0 0.0 0.0 
0.0 0.0 0.0 
0.0 0.0 0.0 
0.0 0.0 0.0 
0.0 0.0 0.0 
0.0 0.0 0.0 
0.0 0.0 0.0 
0.0 0.0 0.0 
0.0 0.0 0.0 
0.0 0.0 0.0 
0.0 0.0 0.0 
0.0 0.0 0.0 
0.0 0.0 0.0 
0.0 0.0 0.0 
0.0 0.0 0.0 
0.0 0.0 0.0 
0.0 0.0 0.0 
0.0 0.0 0.0 
0.0 0.0 0.0 
0.0 0.0 0.0 
0.0 0.0 0.0 
0.0 0.0 0.0 
0.0 0.0 0.0 
0.0 0.0 0.0 
0.0 0.0 0.0 
0.0 0.0 0.0 
0.0 0.0 0.0 
0.0 0.0 0.0 
0.0 0.0 0.0 
0.0 0.0 0.0 
0.0 0.0 0.0 
0.0 0.0 0.0 
0.0 0.0 0.0 
0.0 0.0 0.0 
0.0 0.0 0.0 
0.0 0.0 0.0 
0.0 0.0 0.0 
0.0 0.0 0.0 
0.0 0.0 0.0 
0.0 0.0 0.0 
0.0 0.0 0.0 
0.0 0.0 0.0 
0.0 0.0 0.0 
0.0 0.0 0.0 
0.0 0.0 0.0 
0.0 0.0 0.0 
0.0 0.0 0.0 
0.0 0.0 0.0 
0.0 0.0 0.0 
0.0 0.0 0.0 
0.0 0.0 0.0 
0.0 0.0 0.0 
0.0 0.0 0.0 
0.0 0.0 0.0 
0.0 0.0 0.0 
0.0 0.0 0.0 
0.0 0.0 0.0 
0.0 0.0 0.0 
0.0 0.0 0.0 
0.0 0.0 0.0 
0.0 0.0 0.0 
0.0 0.0 0.0 
0.0 0.0 0.0 
0.0 0.0 0.0 
0.0 0.0 0.0 
0.0 0.0 0.0 
0.0 0.0 0.0 
0.0 0.0 0.0 
0.0 0.0 0.0 
0.0 0.0 0.0 
0.0 0.0 0.0 
0.0 0.0 0.0 
0.0 0.0 0.0 
0.0 0.0 0.0 
0.0 0.0 0.0 
0.0 0.0 0.0 
0.0 0.0 0.0 
0.0 0.0 0.0 
0.0 0.0 0.0 
0.0 0.0 0.0 
0.0 0.0 0.0 
0.0 0.0 0.0 
0.0 0.0 0.0 
0.0 0.0 0.0 
0.0 0.0 0.0 
0.0 0.0 0.0 
0.0 0.0 0.0 
0.0 0.0 0.0 
0.0 0.0 0.0 
0.0 0.0 0.0 
0.0 0.0 0.0 
0.0 0.0 0.0 
0.0 0.0 0.0 
0.0 0.0 0.0 
0.0 0.0 0.0 
0.0 0.0 0.0 
0.0 0.0 0.0 
0.0 0.0 0.0 
0.0 0.0 0.0 
0.0 0.0 0.0 
0.0 0.0 0.0 
0.0 0.0 0.0 
0.0 0.0 0.0 
0.0 0.0 0.0 
0.0 0.0 0.0 
0.0 0.0 0.0 
0.0 0.0 0.0 
0.0 0.0 0.0 
0.0 0.0 0.0 
0.0 0.0 0.0 
0.0 0.0 0.0 
0.0 0.0 0.0 
0.0 0.0 0.0 
0.0 0.0 0.0 
0.0 0.0 0.0 
0.0 0.0 0.0 
0.0 0.0 0.0 
0.0 0.0 0.0 
0.0 0.0 0.0 
0.0 0.0 0.0 
0.0 0.0 0.0 
0.0 0.0 0.0 
0.0 0.0 0.0 
0.0 0.0 0.0 
0.0 0.0 0.0 
0.0 0.0 0.0 
0.0 0.0 0.0 
0.0 0.0 0.0 
0.0 0.0 0.0 
0.0 0.0 0.0 
0.0 0.0 0.0 
0.0 0.0 0.0 
0.0 0.0 0.0 
0.0 0.0 0.0 
0.0 0.0 0.0 
0.0 0.0 0.0 
0.0 0.0 0.0 
0.0 0.0 0.0 
0.0 0.0 0.0 
0.0 0.0 0.0 
0.0 0.0 0.0 
0.0 0.0 0.0 
0.0 0.0 0.0 
0.0 0.0 0.0 
0.0 0.0 0.0 
0.0 0.0 0.0 
0.0 0.0 0.0 
0.0 0.0 0.0 
0.0 0.0 0.0 
0.0 0.0 0.0 
0.0 0.0 0.0 
0.0 0.0 0.0 
0.0 0.0 0.0 
0.0 0.0 0.0 
0.0 0.0 0.0 
0.0 0.0 0.0 
0.0 0.0 0.0 
0.0 0.0 0.0 
0.0 0.0 0.0 
0.0 0.0 0.0 
0.0 0.0 0.0 
0.0 0.0 0.0 
0.0 0.0 0.0 
0.0 0.0 0.0 
0.0 0.0 0.0 
0.0 0.0 0.0 
0.0 0.0 0.0 
0.0 0.0 0.0 
0.0 0.0 0.0 
0.0 0.0 0.0 
0.0 0.0 0.0 
0.0 0.0 0.0 
0.0 0.0 0.0 
0.0 0.0 0.0 
0.0 0.0 0.0 
0.0 0.0 0.0 
0.0 0.0 0.0 
0.0 0.0 0.0 
0.0 0.0 0.0 
0.0 0.0 0.0 
0.0 0.0 0.0 
0.0 0.0 0.0 
0.0 0.0 0.0 
0.0 0.0 0.0 
0.0 0.0 0.0 
0.0 0.0 0.0 
0.0 0.0 0.0 
0.0 0.0 0.0 
0.0 0.0 0.0 
0.0 0.0 0.0 
0.0 0.0 0.0 
0.0 0.0 0.0 
0.0 0.0 0.0 
0.0 0.0 0.0 
0.0 0.0 0.0 
0.0 0.0 0.0 
0.0 0.0 0.0 
0.0 0.0 0.0 
0.0 0.0 0.0 
0.0 0.0 0.0 
0.0 0.0 0.0 
0.0 0.0 0.0 
0.0 0.0 0.0 
0.0 0.0 0.0 
0.0 0.0 0.0 
0.0 0.0 0.0 
0.0 0.0 0.0 
0.0 0.0 0.0 
0.0 0.0 0.0 
0.0 0.0 0.0 
0.0 0.0 0.0 
0.0 0.0 0.0 
0.0 0.0 0.0 
0.0 0.0 0.0 
0.0 0.0 0.0 
0.0 0.0 0.0 
0.0 0.0 0.0 
0.0 0.0 0.0 
0.0 0.0 0.0 
0.0 0.0 0.0 
0.0 0.0 0.0 
0.0 0.0 0.0 
0.0 0.0 0.0 
0.0 0.0 0.0 
0.0 0.0 0.0 
0.0 0.0 0.0 
0.0 0.0 0.0 
0.0 0.0 0.0 
0.0 0.0 0.0 
0.0 0.0 0.0 
0.0 0.0 0.0 
0.0 0.0 0.0 
0.0 0.0 0.0 
0.0 0.0 0.0 
0.0 0.0 0.0 
0.0 0.0 0.0 
0.0 0.0 0.0 
0.0 0.0 0.0 
0.0 0.0 0.0 
0.0 0.0 0.0 
0.0 0.0 0.0 
0.0 0.0 0.0 
0.0 0.0 0.0 
0.0 0.0 0.0 
0.0 0.0 0.0 
0.0 0.0 0.0 
0.0 0.0 0.0 
0.0 0.0 0.0 
0.0 0.0 0.0 
0.0 0.0 0.0 
0.0 0.0 0.0 
0.0 0.0 0.0 
0.0 0.0 0.0 
0.0 0.0 0.0 
0.0 0.0 0.0 
0.0 0.0 0.0 
0.0 0.0 0.0 
0.0 0.0 0.0 
0.0 0.0 0.0 
0.0 0.0 0.0 
0.0 0.0 0.0 
0.0 0.0 0.0 
0.0 0.0 0.0 
0.0 0.0 0.0 
0.0 0.0 0.0 
0.0 0.0 0.0 
0.0 0.0 0.0 
0.0 0.0 0.0 
0.0 0.0 0.0 
0.0 0.0 0.0 
0.0 0.0 0.0 
0.0 0.0 0.0 
0.0 0.0 0.0 
0.0 0.0 0.0 
0.0 0.0 0.0 
0.0 0.0 0.0 
0.0 0.0 0.0 
0.0 0.0 0.0 
0.0 0.0 0.0 
0.0 0.0 0.0 
0.0 0.0 0.0 
0.0 0.0 0.0 
0.0 0.0 0.0 
0.0 0.0 0.0 
0.0 0.0 0.0 
0.0 0.0 0.0 
0.0 0.0 0.0 
0.0 0.0 0.0 
0.0 0.0 0.0 
0.0 0.0 0.0 
0.0 0.0 0.0 
0.0 0.0 0.0 
0.0 0.0 0.0 
0.0 0.0 0.0 
0.0 0.0 0.0 
0.0 0.0 0.0 
0.0 0.0 0.0 
0.0 0.0 0.0 
0.0 0.0 0.0 
0.0 0.0 0.0 
0.0 0.0 0.0 
0.0 0.0 0.0 
0.0 0.0 0.0 
0.0 0.0 0.0 
0.0 0.0 0.0 
0.0 0.0 0.0 
0.0 0.0 0.0 
0.0 0.0 0.0 
0.0 0.0 0.0 
0.0 0.0 0.0 
0.0 0.0 0.0 
0.0 0.0 0.0 
0.0 0.0 0.0 
0.0 0.0 0.0 
0.0 0.0 0.0 
0.0 0.0 0.0 
0.0 0.0 0.0 
0.0 0.0 0.0 
0.0 0.0 0.0 
0.0 0.0 0.0 
0.0 0.0 0.0 
0.0 0.0 0.0 
0.0 0.0 0.0 
0.0 0.0 0.0 
0.0 0.0 0.0 
0.0 0.0 0.0 
0.0 0.0 0.0 
0.0 0.0 0.0 
0.0 0.0 0.0 
0.0 0.0 0.0 
0.0 0.0 0.0 
0.0 0.0 0.0 
0.0 0.0 0.0 
0.0 0.0 0.0 
0.0 0.0 0.0 
0.0 0.0 0.0 
0.0 0.0 0.0 
0.0 0.0 0.0 
0.0 0.0 0.0 
0.0 0.0 0.0 
0.0 0.0 0.0 
0.0 0.0 0.0 
0.0 0.0 0.0 
0.0 0.0 0.0 
0.0 0.0 0.0 
0.0 0.0 0.0 
0.0 0.0 0.0 
0.0 0.0 0.0 
0.0 0.0 0.0 
0.0 0.0 0.0 
0.0 0.0 0.0 
0.0 0.0 0.0 
0.0 0.0 0.0 
0.0 0.0 0.0 
0.0 0.0 0.0 
0.0 0.0 0.0 
0.0 0.0 0.0 
0.0 0.0 0.0 
0.0 0.0 0.0 
0.0 0.0 0.0 
0.0 0.0 0.0 
0.0 0.0 0.0 
0.0 0.0 0.0 
0.0 0.0 0.0 
0.0 0.0 0.0 
0.0 0.0 0.0 
0.0 0.0 0.0 
0.0 0.0 0.0 
0.0 0.0 0.0 
0.0 0.0 0.0 
0.0 0.0 0.0 
0.0 0.0 0.0 
0.0 0.0 0.0 
0.0 0.0 0.0 
0.0 0.0 0.0 
0.0 0.0 0.0 
0.0 0.0 0.0 
0.0 0.0 0.0 
0.0 0.0 0.0 
0.0 0.0 0.0 
0.0 0.0 0.0 
0.0 0.0 0.0 
0.0 0.0 0.0 
0.0 0.0 0.0 
0.0 0.0 0.0 
0.0 0.0 0.0 
0.0 0.0 0.0 
0.0 0.0 0.0 
0.0 0.0 0.0 
0.0 0.0 0.0 
0.0 0.0 0.0 
0.0 0.0 0.0 
0.0 0.0 0.0 
0.0 0.0 0.0 
0.0 0.0 0.0 
0.0 0.0 0.0 
0.0 0.0 0.0 
0.0 0.0 0.0 
0.0 0.0 0.0 
0.0 0.0 0.0 
0.0 0.0 0.0 
0.0 0.0 0.0 
0.0 0.0 0.0 
0.0 0.0 0.0 
0.0 0.0 0.0 
0.0 0.0 0.0 
0.0 0.0 0.0 
0.0 0.0 0.0 
0.0 0.0 0.0 
0.0 0.0 0.0 
0.0 0.0 0.0 
0.0 0.0 0.0 
0.0 0.0 0.0 
0.0 0.0 0.0 
0.0 0.0 0.0 
0.0 0.0 0.0 
0.0 0.0 0.0 
0.0 0.0 0.0 
0.0 0.0 0.0 
0.0 0.0 0.0 
0.0 0.0 0.0 
0.0 0.0 0.0 
0.0 0.0 0.0 
0.0 0.0 0.0 
0.0 0.0 0.0 
0.0 0.0 0.0 
0.0 0.0 0.0 
0.0 0.0 0.0 
0.0 0.0 0.0 
0.0 0.0 0.0 
0.0 0.0 0.0 
0.0 0.0 0.0 
0.0 0.0 0.0 
0.0 0.0 0.0 
0.0 0.0 0.0 
0.0 0.0 0.0 
0.0 0.0 0.0 
0.0 0.0 0.0 
0.0 0.0 0.0 
0.0 0.0 0.0 
0.0 0.0 0.0 
0.0 0.0 0.0 
0.0 0.0 0.0 
0.0 0.0 0.0 
0.0 0.0 0.0 
0.0 0.0 0.0 
0.0 0.0 0.0 
0.0 0.0 0.0 
0.0 0.0 0.0 
0.0 0.0 0.0 
0.0 0.0 0.0 
0.0 0.0 0.0 
0.0 0.0 0.0 
0.0 0.0 0.0 
0.0 0.0 0.0 
0.0 0.0 0.0 
0.0 0.0 0.0 
0.0 0.0 0.0 
0.0 0.0 0.0 
0.0 0.0 0.0 
0.0 0.0 0.0 
0.0 0.0 0.0 
0.0 0.0 0.0 
0.0 0.0 0.0 
0.0 0.0 0.0 
0.0 0.0 0.0 
0.0 0.0 0.0 
0.0 0.0 0.0 
0.0 0.0 0.0 
0.0 0.0 0.0 
0.0 0.0 0.0 
0.0 0.0 0.0 
0.0 0.0 0.0 
0.0 0.0 0.0 
0.0 0.0 0.0 
0.0 0.0 0.0 
0.0 0.0 0.0 
0.0 0.0 0.0 
0.0 0.0 0.0 
0.0 0.0 0.0 
0.0 0.0 0.0 
0.0 0.0 0.0 
0.0 0.0 0.0 
0.0 0.0 0.0 
0.0 0.0 0.0 
0.0 0.0 0.0 
0.0 0.0 0.0 
0.0 0.0 0.0 
0.0 0.0 0.0 
0.0 0.0 0.0 
0.0 0.0 0.0 
0.0 0.0 0.0 
0.0 0.0 0.0 
0.0 0.0 0.0 
0.0 0.0 0.0 
0.0 0.0 0.0 
0.0 0.0 0.0 
0.0 0.0 0.0 
0.0 0.0 0.0 
0.0 0.0 0.0 
0.0 0.0 0.0 
0.0 0.0 0.0 
0.0 0.0 0.0 
0.0 0.0 0.0 
0.0 0.0 0.0 
0.0 0.0 0.0 
0.0 0.0 0.0 
0.0 0.0 0.0 
0.0 0.0 0.0 
0.0 0.0 0.0 
0.0 0.0 0.0 
0.0 0.0 0.0 
0.0 0.0 0.0 
0.0 0.0 0.0 
0.0 0.0 0.0 
0.0 0.0 0.0 
0.0 0.0 0.0 
0.0 0.0 0.0 
0.0 0.0 0.0 
0.0 0.0 0.0 
0.0 0.0 0.0 
0.0 0.0 0.0 
0.0 0.0 0.0 
0.0 0.0 0.0 
0.0 0.0 0.0 
0.0 0.0 0.0 
0.0 0.0 0.0 
0.0 0.0 0.0 
0.0 0.0 0.0 
0.0 0.0 0.0 
0.0 0.0 0.0 
0.0 0.0 0.0 
0.0 0.0 0.0 
0.0 0.0 0.0 
0.0 0.0 0.0 
0.0 0.0 0.0 
0.0 0.0 0.0 
0.0 0.0 0.0 
0.0 0.0 0.0 
0.0 0.0 0.0 
0.0 0.0 0.0 
0.0 0.0 0.0 
0.0 0.0 0.0 
0.0 0.0 0.0 
0.0 0.0 0.0 
0.0 0.0 0.0 
0.0 0.0 0.0 
0.0 0.0 0.0 
0.0 0.0 0.0 
0.0 0.0 0.0 
0.0 0.0 0.0 
0.0 0.0 0.0 
0.0 0.0 0.0 
0.0 0.0 0.0 
0.0 0.0 0.0 
0.0 0.0 0.0 
0.0 0.0 0.0 
0.0 0.0 0.0 
0.0 0.0 0.0 
0.0 0.0 0.0 
0.0 0.0 0.0 
0.0 0.0 0.0 
0.0 0.0 0.0 
0.0 0.0 0.0 
0.0 0.0 0.0 
0.0 0.0 0.0 
0.0 0.0 0.0 
0.0 0.0 0.0 
0.0 0.0 0.0 
0.0 0.0 0.0 
0.0 0.0 0.0 
0.0 0.0 0.0 
0.0 0.0 0.0 
0.0 0.0 0.0 
0.0 0.0 0.0 
0.0 0.0 0.0 
0.0 0.0 0.0 
0.0 0.0 0.0 
0.0 0.0 0.0 
0.0 0.0 0.0 
0.0 0.0 0.0 
0.0 0.0 0.0 
0.0 0.0 0.0 
0.0 0.0 0.0 
0.0 0.0 0.0 
0.0 0.0 0.0 
0.0 0.0 0.0 
0.0 0.0 0.0 
0.0 0.0 0.0 
0.0 0.0 0.0 
0.0 0.0 0.0 
0.0 0.0 0.0 
0.0 0.0 0.0 
0.0 0.0 0.0 
0.0 0.0 0.0 
0.0 0.0 0.0 
0.0 0.0 0.0 
0.0 0.0 0.0 
0.0 0.0 0.0 
0.0 0.0 0.0 
0.0 0.0 0.0 
0.0 0.0 0.0 
0.0 0.0 0.0 
0.0 0.0 0.0 
0.0 0.0 0.0 
0.0 0.0 0.0 
0.0 0.0 0.0 
0.0 0.0 0.0 
0.0 0.0 0.0 
0.0 0.0 0.0 
0.0 0.0 0.0 
0.0 0.0 0.0 
0.0 0.0 0.0 
0.0 0.0 0.0 
0.0 0.0 0.0 
0.0 0.0 0.0 
0.0 0.0 0.0 
0.0 0.0 0.0 
0.0 0.0 0.0 
0.0 0.0 0.0 
0.0 0.0 0.0 
0.0 0.0 0.0 
0.0 0.0 0.0 
0.0 0.0 0.0 
0.0 0.0 0.0 
0.0 0.0 0.0 
0.0 0.0 0.0 
0.0 0.0 0.0 
0.0 0.0 0.0 
0.0 0.0 0.0 
0.0 0.0 0.0 
0.0 0.0 0.0 
0.0 0.0 0.0 
0.0 0.0 0.0 
0.0 0.0 0.0 
0.0 0.0 0.0 
0.0 0.0 0.0 
0.0 0.0 0.0 
0.0 0.0 0.0 
0.0 0.0 0.0 
0.0 0.0 0.0 
0.0 0.0 0.0 
0.0 0.0 0.0 
0.0 0.0 0.0 
0.0 0.0 0.0 
0.0 0.0 0.0 
0.0 0.0 0.0 
0.0 0.0 0.0 
0.0 0.0 0.0 
0.0 0.0 0.0 
0.0 0.0 0.0 
0.0 0.0 0.0 
0.0 0.0 0.0 
0.0 0.0 0.0 
0.0 0.0 0.0 
0.0 0.0 0.0 
0.0 0.0 0.0 
0.0 0.0 0.0 
0.0 0.0 0.0 
0.0 0.0 0.0 
0.0 0.0 0.0 
0.0 0.0 0.0 
0.0 0.0 0.0 
0.0 0.0 0.0 
0.0 0.0 0.0 
0.0 0.0 0.0 
0.0 0.0 0.0 
0.0 0.0 0.0 
0.0 0.0 0.0 
0.0 0.0 0.0 
0.0 0.0 0.0 
0.0 0.0 0.0 
0.0 0.0 0.0 
0.0 0.0 0.0 
0.0 0.0 0.0 
0.0 0.0 0.0 
0.0 0.0 0.0 
0.0 0.0 0.0 
0.0 0.0 0.0 
0.0 0.0 0.0 
0.0 0.0 0.0 
0.0 0.0 0.0 
0.0 0.0 0.0 
0.0 0.0 0.0 
0.0 0.0 0.0 
0.0 0.0 0.0 
0.0 0.0 0.0 
0.0 0.0 0.0 
0.0 0.0 0.0 
0.0 0.0 0.0 
0.0 0.0 0.0 
0.0 0.0 0.0 
0.0 0.0 0.0 
0.0 0.0 0.0 
0.0 0.0 0.0 
0.0 0.0 0.0 
0.0 0.0 0.0 
0.0 0.0 0.0 
0.0 0.0 0.0 
0.0 0.0 0.0 
0.0 0.0 0.0 
0.0 0.0 0.0 
0.0 0.0 0.0 
0.0 0.0 0.0 
0.0 0.0 0.0 
0.0 0.0 0.0 
0.0 0.0 0.0 
0.0 0.0 0.0 
0.0 0.0 0.0 
0.0 0.0 0.0 
0.0 0.0 0.0 
0.0 0.0 0.0 
0.0 0.0 0.0 
0.0 0.0 0.0 
0.0 0.0 0.0 
0.0 0.0 0.0 
0.0 0.0 0.0 
0.0 0.0 0.0 
0.0 0.0 0.0 
0.0 0.0 0.0 
0.0 0.0 0.0 
0.0 0.0 0.0 
0.0 0.0 0.0 
0.0 0.0 0.0 
0.0 0.0 0.0 
0.0 0.0 0.0 
0.0 0.0 0.0 
0.0 0.0 0.0 
0.0 0.0 0.0 
0.0 0.0 0.0 
0.0 0.0 0.0 
0.0 0.0 0.0 
0.0 0.0 0.0 
0.0 0.0 0.0 
0.0 0.0 0.0 
0.0 0.0 0.0 
0.0 0.0 0.0 
0.0 0.0 0.0 
0.0 0.0 0.0 
0.0 0.0 0.0 
0.0 0.0 0.0 
0.0 0.0 0.0 
0.0 0.0 0.0 
0.0 0.0 0.0 
0.0 0.0 0.0 
0.0 0.0 0.0 
0.0 0.0 0.0 
0.0 0.0 0.0 
0.0 0.0 0.0 
0.0 0.0 0.0 
0.0 0.0 0.0 
0.0 0.0 0.0 
0.0 0.0 0.0 
0.0 0.0 0.0 
0.0 0.0 0.0 
0.0 0.0 0.0 
0.0 0.0 0.0 
0.0 0.0 0.0 
0.0 0.0 0.0 
0.0 0.0 0.0 
0.0 0.0 0.0 
0.0 0.0 0.0 
0.0 0.0 0.0 
0.0 0.0 0.0 
0.0 0.0 0.0 
0.0 0.0 0.0 
0.0 0.0 0.0 
0.0 0.0 0.0 
0.0 0.0 0.0 
0.0 0.0 0.0 
0.0 0.0 0.0 
0.0 0.0 0.0 
0.0 0.0 0.0 
0.0 0.0 0.0 
0.0 0.0 0.0 
0.0 0.0 0.0 
0.0 0.0 0.0 
0.0 0.0 0.0 
0.0 0.0 0.0 
0.0 0.0 0.0 
0.0 0.0 0.0 
0.0 0.0 0.0 
0.0 0.0 0.0 
0.0 0.0 0.0 
0.0 0.0 0.0 
0.0 0.0 0.0 
0.0 0.0 0.0 
0.0 0.0 0.0 
0.0 0.0 0.0 
0.0 0.0 0.0 
0.0 0.0 0.0 
0.0 0.0 0.0 
0.0 0.0 0.0 
0.0 0.0 0.0 
0.0 0.0 0.0 
0.0 0.0 0.0 
0.0 0.0 0.0 
0.0 0.0 0.0 
0.0 0.0 0.0 
0.0 0.0 0.0 
0.0 0.0 0.0 
0.0 0.0 0.0 
0.0 0.0 0.0 
0.0 0.0 0.0 
0.0 0.0 0.0 
0.0 0.0 0.0 
0.0 0.0 0.0 
0.0 0.0 0.0 
0.0 0.0 0.0 
0.0 0.0 0.0 
0.0 0.0 0.0 
0.0 0.0 0.0 
0.0 0.0 0.0 
0.0 0.0 0.0 
0.0 0.0 0.0 
0.0 0.0 0.0 
0.0 0.0 0.0 
0.0 0.0 0.0 
0.0 0.0 0.0 
0.0 0.0 0.0 
0.0 0.0 0.0 
0.0 0.0 0.0 
0.0 0.0 0.0 
0.0 0.0 0.0 
0.0 0.0 0.0 
0.0 0.0 0.0 
0.0 0.0 0.0 
0.0 0.0 0.0 
0.0 0.0 0.0 
0.0 0.0 0.0 
0.0 0.0 0.0 
0.0 0.0 0.0 
0.0 0.0 0.0 
0.0 0.0 0.0 
0.0 0.0 0.0 
0.0 0.0 0.0 
0.0 0.0 0.0 
0.0 0.0 0.0 
0.0 0.0 0.0 
0.0 0.0 0.0 
0.0 0.0 0.0 
0.0 0.0 0.0 
0.0 0.0 0.0 
0.0 0.0 0.0 
0.0 0.0 0.0 
0.0 0.0 0.0 
0.0 0.0 0.0 
0.0 0.0 0.0 
0.0 0.0 0.0 
0.0 0.0 0.0 
0.0 0.0 0.0 
0.0 0.0 0.0 
0.0 0.0 0.0 
0.0 0.0 0.0 
0.0 0.0 0.0 
0.0 0.0 0.0 
0.0 0.0 0.0 
0.0 0.0 0.0 
0.0 0.0 0.0 
0.0 0.0 0.0 
0.0 0.0 0.0 
0.0 0.0 0.0 
0.0 0.0 0.0 
0.0 0.0 0.0 
0.0 0.0 0.0 
0.0 0.0 0.0 
0.0 0.0 0.0 
0.0 0.0 0.0 
0.0 0.0 0.0 
0.0 0.0 0.0 
0.0 0.0 0.0 
0.0 0.0 0.0 
0.0 0.0 0.0 
0.0 0.0 0.0 
0.0 0.0 0.0 
0.0 0.0 0.0 
0.0 0.0 0.0 
0.0 0.0 0.0 
0.0 0.0 0.0 
0.0 0.0 0.0 
0.0 0.0 0.0 
0.0 0.0 0.0 
0.0 0.0 0.0 
0.0 0.0 0.0 
0.0 0.0 0.0 
0.0 0.0 0.0 
0.0 0.0 0.0 
0.0 0.0 0.0 
0.0 0.0 0.0 
0.0 0.0 0.0 
0.0 0.0 0.0 
0.0 0.0 0.0 
0.0 0.0 0.0 
0.0 0.0 0.0 
0.0 0.0 0.0 
0.0 0.0 0.0 
0.0 0.0 0.0 
0.0 0.0 0.0 
0.0 0.0 0.0 
0.0 0.0 0.0 
0.0 0.0 0.0 
0.0 0.0 0.0 
0.0 0.0 0.0 
0.0 0.0 0.0 
0.0 0.0 0.0 
0.0 0.0 0.0 
0.0 0.0 0.0 
0.0 0.0 0.0 
0.0 0.0 0.0 
0.0 0.0 0.0 
0.0 0.0 0.0 
0.0 0.0 0.0 
0.0 0.0 0.0 
0.0 0.0 0.0 
0.0 0.0 0.0 
0.0 0.0 0.0 
0.0 0.0 0.0 
0.0 0.0 0.0 
0.0 0.0 0.0 
0.0 0.0 0.0 
0.0 0.0 0.0 
0.0 0.0 0.0 
0.0 0.0 0.0 
0.0 0.0 0.0 
0.0 0.0 0.0 
0.0 0.0 0.0 
0.0 0.0 0.0 
0.0 0.0 0.0 
0.0 0.0 0.0 
0.0 0.0 0.0 
0.0 0.0 0.0 
0.0 0.0 0.0 
0.0 0.0 0.0 
0.0 0.0 0.0 
0.0 0.0 0.0 
0.0 0.0 0.0 
0.0 0.0 0.0 
0.0 0.0 0.0 
0.0 0.0 0.0 
0.0 0.0 0.0 
0.0 0.0 0.0 
0.0 0.0 0.0 
0.0 0.0 0.0 
0.0 0.0 0.0 
0.0 0.0 0.0 
0.0 0.0 0.0 
0.0 0.0 0.0 
0.0 0.0 0.0 
0.0 0.0 0.0 
0.0 0.0 0.0 
0.0 0.0 0.0 
0.0 0.0 0.0 
0.0 0.0 0.0 
0.0 0.0 0.0 
0.0 0.0 0.0 
0.0 0.0 0.0 
0.0 0.0 0.0 
0.0 0.0 0.0 
0.0 0.0 0.0 
0.0 0.0 0.0 
0.0 0.0 0.0 
0.0 0.0 0.0 
0.0 0.0 0.0 
0.0 0.0 0.0 
0.0 0.0 0.0 
0.0 0.0 0.0 
0.0 0.0 0.0 
0.0 0.0 0.0 
0.0 0.0 0.0 
0.0 0.0 0.0 
0.0 0.0 0.0 
0.0 0.0 0.0 
0.0 0.0 0.0 
0.0 0.0 0.0 
0.0 0.0 0.0 
0.0 0.0 0.0 
0.0 0.0 0.0 
0.0 0.0 0.0 
0.0 0.0 0.0 
0.0 0.0 0.0 
0.0 0.0 0.0 
0.0 0.0 0.0 
0.0 0.0 0.0 
0.0 0.0 0.0 
0.0 0.0 0.0 
0.0 0.0 0.0 
0.0 0.0 0.0 
0.0 0.0 0.0 
0.0 0.0 0.0 
0.0 0.0 0.0 
0.0 0.0 0.0 
0.0 0.0 0.0 
0.0 0.0 0.0 
0.0 0.0 0.0 
0.0 0.0 0.0 
0.0 0.0 0.0 
0.0 0.0 0.0 
0.0 0.0 0.0 
0.0 0.0 0.0 
0.0 0.0 0.0 
0.0 0.0 0.0 
0.0 0.0 0.0 
0.0 0.0 0.0 
0.0 0.0 0.0 
0.0 0.0 0.0 
0.0 0.0 0.0 
0.0 0.0 0.0 
0.0 0.0 0.0 
0.0 0.0 0.0 
0.0 0.0 0.0 
0.0 0.0 0.0 
0.0 0.0 0.0 
0.0 0.0 0.0 
0.0 0.0 0.0 
0.0 0.0 0.0 
0.0 0.0 0.0 
0.0 0.0 0.0 
0.0 0.0 0.0 
0.0 0.0 0.0 
0.0 0.0 0.0 
0.0 0.0 0.0 
0.0 0.0 0.0 
0.0 0.0 0.0 
0.0 0.0 0.0 
0.0 0.0 0.0 
0.0 0.0 0.0 
0.0 0.0 0.0 
0.0 0.0 0.0 
0.0 0.0 0.0 
0.0 0.0 0.0 
0.0 0.0 0.0 
0.0 0.0 0.0 
0.0 0.0 0.0 
0.0 0.0 0.0 
0.0 0.0 0.0 
0.0 0.0 0.0 
0.0 0.0 0.0 
0.0 0.0 0.0 

VECTORS node_materi_velocity float
0.0 -8.760443132728e-04 0.0 
0.0 9.925124299401e-03 0.0 
0.0 0.0 0.0 
0.0 0.0 0.0 
0.0 -8.765492764600e-04 0.0 
0.0 -8.705251639182e-04 0.0 
0.0 -8.562814488751e-04 0.0 
0.0 -8.324029607133e-04 0.0 
0.0 -7.965716726735e-04 0.0 
0.0 -7.502117775636e-04 0.0 
0.0 -6.941217601198e-04 0.0 
0.0 -6.291003257284e-04 0.0 
0.0 -5.569530493345e-04 0.0 
0.0 -4.795578607895e-04 0.0 
0.0 -3.992456026034e-04 0.0 
0.0 -3.190984654677e-04 0.0 
0.0 -2.416496551231e-04 0.0 
0.0 -1.683915873021e-04 0.0 
0.0 -1.035252190553e-04 0.0 
0.0 -4.971737410029e-05 0.0 
0.0 -9.483486317138e-06 0.0 
0.0 1.355060596359e-05 0.0 
0.0 1.602300468022e-05 0.0 
0.0 0.0 0.0 
0.0 0.0 0.0 
0.0 0.0 0.0 
0.0 0.0 0.0 
0.0 0.0 0.0 
0.0 0.0 0.0 
0.0 0.0 0.0 
0.0 0.0 0.0 
0.0 0.0 0.0 
0.0 0.0 0.0 
0.0 0.0 0.0 
0.0 0.0 0.0 
0.0 0.0 0.0 
0.0 0.0 0.0 
0.0 0.0 0.0 
0.0 0.0 0.0 
0.0 0.0 0.0 
0.0 0.0 0.0 
0.0 0.0 0.0 
0.0 0.0 0.0 
0.0 0.0 0.0 
0.0 0.0 0.0 
0.0 0.0 0.0 
0.0 0.0 0.0 
0.0 0.0 0.0 
0.0 0.0 0.0 
0.0 0.0 0.0 
0.0 0.0 0.0 
0.0 0.0 0.0 
0.0 0.0 0.0 
0.0 0.0 0.0 
0.0 0.0 0.0 
0.0 0.0 0.0 
0.0 0.0 0.0 
0.0 0.0 0.0 
0.0 0.0 0.0 
0.0 0.0 0.0 
0.0 0.0 0.0 
0.0 0.0 0.0 
0.0 0.0 0.0 
0.0 0.0 0.0 
0.0 0.0 0.0 
0.0 0.0 0.0 
0.0 0.0 0.0 
0.0 0.0 0.0 
0.0 0.0 0.0 
0.0 0.0 0.0 
0.0 0.0 0.0 
0.0 0.0 0.0 
0.0 8.911471356234e-03 0.0 
0.0 7.899138613400e-03 0.0 
0.0 6.889535463888e-03 0.0 
0.0 5.883539946429e-03 0.0 
0.0 4.882896258050e-03 0.0 
0.0 3.888581042274e-03 0.0 
0.0 2.902018896868e-03 0.0 
0.0 1.924424416115e-03 0.0 
0.0 9.570930767727e-04 0.0 
-2.477503572298e-03 4.895574968718e-03 0.0 
1.627746209796e-03 9.683174458541e-03 0.0 
-1.849675885092e-03 6.922412959444e-03 0.0 
-7.571952549346e-04 1.031807250158e-02 0.0 
5.757443613012e-04 1.209212746092e-02 0.0 
1.303208390400e-03 1.257277146446e-02 0.0 
1.708109450850e-03 1.264528132872e-02 0.0 
1.905985483216e-03 1.240389025742e-02 0.0 
1.961591822831e-03 1.193289823030e-02 0.0 
1.916715963871e-03 1.129406091918e-02 0.0 
1.798446652048e-03 1.053246469798e-02 0.0 
0.0 1.802109721289e-02 0.0 
0.0 1.700094038580e-02 0.0 
0.0 1.599345502713e-02 0.0 
0.0 1.498555986056e-02 0.0 
0.0 1.397610777584e-02 0.0 
0.0 1.296526896602e-02 0.0 
0.0 1.195270257003e-02 0.0 
0.0 1.093918275200e-02 0.0 
8.886633317560e-05 9.925582868658e-03 0.0 
1.782789572938e-04 9.926861892960e-03 0.0 
2.686532291413e-04 9.928818768079e-03 0.0 
3.605725086379e-04 9.931438504858e-03 0.0 
4.546546830066e-04 9.933726662692e-03 0.0 
5.508403726908e-04 9.935070140579e-03 0.0 
6.503442310265e-04 9.935321622124e-03 0.0 
7.534864894843e-04 9.932270157037e-03 0.0 
8.608187975915e-04 9.925795643157e-03 0.0 
9.732190947855e-04 9.913806171164e-03 0.0 
1.090909421798e-03 9.893962445090e-03 0.0 
1.214816839876e-03 9.863748469405e-03 0.0 
1.345192835540e-03 9.821029570370e-03 0.0 
1.482582974268e-03 9.761926127864e-03 0.0 
-2.245224328051e-03 3.855482527053e-03 0.0 
-1.966764839614e-03 2.972167722934e-03 0.0 
-1.687712158918e-03 2.241555062876e-03 0.0 
-1.417083824419e-03 1.642080989084e-03 0.0 
-1.184325190793e-03 1.149366149515e-03 0.0 
-9.797270897998e-04 7.447935890550e-04 0.0 
-7.990963054333e-04 4.112789427989e-04 0.0 
-6.424988826152e-04 1.364860506142e-04 0.0 
-5.080272621398e-04 -8.788695685339e-05 0.0 
-3.948053645008e-04 -2.697495411272e-04 0.0 
-3.010882702161e-04 -4.185612931886e-04 0.0 
-2.238636556911e-04 -5.355407674917e-04 0.0 
-1.638563154254e-04 -6.298775783736e-04 0.0 
-1.150030004745e-04 -7.044037887929e-04 0.0 
-7.807030996693e-05 -7.626550387044e-04 0.0 
-5.118966831513e-05 -8.060417554085e-04 0.0 
-3.221148758414e-05 -8.376649560608e-04 0.0 
-1.883982422477e-05 -8.596773039405e-04 0.0 
-8.532589066126e-06 -8.715179795748e-04 0.0 
-9.931345485065e-04 1.231865551440e-02 0.0 
-2.624304188203e-04 1.355780230671e-02 0.0 
-1.452212181581e-04 1.446712174470e-02 0.0 
1.166704264662e-05 1.520108599958e-02 0.0 
1.719535405520e-04 1.580337998327e-02 0.0 
3.213328813031e-04 1.628451712842e-02 0.0 
4.522011077590e-04 1.667342179286e-02 0.0 
5.619861514094e-04 1.698438350497e-02 0.0 
6.501006189240e-04 1.723301963341e-02 0.0 
7.171127957476e-04 1.742989816192e-02 0.0 
7.642201975406e-04 1.758463982736e-02 0.0 
7.928616490791e-04 1.770477980803e-02 0.0 
8.046328853421e-04 1.779676856831e-02 0.0 
8.011545689213e-04 1.786591823076e-02 0.0 
7.840411870922e-04 1.791672327235e-02 0.0 
7.548420658033e-04 1.795292215249e-02 0.0 
7.150017609683e-04 1.797762588329e-02 0.0 
6.658377187293e-04 1.799342629137e-02 0.0 
6.085589102291e-04 1.800250052323e-02 0.0 
5.443122138024e-04 1.800667493655e-02 0.0 
4.742709544577e-04 1.800748519242e-02 0.0 
3.998130631028e-04 1.800625152707e-02 0.0 
3.228889552109e-04 1.800422585044e-02 0.0 
2.467534403922e-04 1.800301609941e-02 0.0 
1.770878778887e-04 1.800610046121e-02 0.0 
1.153348128559e-04 1.801837884099e-02 0.0 
5.962417051082e-04 1.308317127859e-02 0.0 
6.297803759691e-04 1.389945980280e-02 0.0 
6.698385909882e-04 1.455735753522e-02 0.0 
7.161756992019e-04 1.509093033839e-02 0.0 
7.633710934799e-04 1.551837867153e-02 0.0 
8.064390296718e-04 1.586208926291e-02 0.0 
8.421929412135e-04 1.613638105272e-02 0.0 
8.685286383586e-04 1.635444373600e-02 0.0 
8.844960036554e-04 1.652626605578e-02 0.0 
8.897316892593e-04 1.666032360756e-02 0.0 
8.843543393871e-04 1.676349887337e-02 0.0 
8.687734996301e-04 1.684158502489e-02 0.0 
8.436042154850e-04 1.689940626282e-02 0.0 
8.095753546622e-04 1.694101231934e-02 0.0 
7.674782019327e-04 1.696977734653e-02 0.0 
7.181299740698e-04 1.698851462264e-02 0.0 
6.623542063482e-04 1.699958192441e-02 0.0 
6.009778119785e-04 1.700497705041e-02 0.0 
5.348516650037e-04 1.700641768790e-02 0.0 
4.648942138326e-04 1.700542991075e-02 0.0 
3.921523126271e-04 1.700346503860e-02 0.0 
3.178277452091e-04 1.700204470582e-02 0.0 
2.430110127193e-04 1.700273910460e-02 0.0 
1.671288038461e-04 1.700551325428e-02 0.0 
8.482535046843e-05 1.700434775259e-02 0.0 
8.364895654093e-05 1.599518573150e-02 0.0 
1.671448731314e-04 1.599776651948e-02 0.0 
2.479689706654e-04 1.599769227838e-02 0.0 
3.270055236966e-04 1.599845553302e-02 0.0 
4.046915484019e-04 1.600068598576e-02 0.0 
4.808087404487e-04 1.600341697673e-02 0.0 
5.548422024559e-04 1.600529037068e-02 0.0 
6.261939666459e-04 1.600481400905e-02 0.0 
6.942717191874e-04 1.600033648721e-02 0.0 
7.585192476129e-04 1.598996946019e-02 0.0 
8.184285262754e-04 1.597150248572e-02 0.0 
8.735545019971e-04 1.594230883974e-02 0.0 
9.235372471990e-04 1.589923672406e-02 0.0 
9.681398407292e-04 1.583849245448e-02 0.0 
1.007291628156e-03 1.575551100618e-02 0.0 
1.041177310109e-03 1.564481202374e-02 0.0 
1.070297016001e-03 1.549979165784e-02 0.0 
1.095669507561e-03 1.531253185763e-02 0.0 
1.118755808694e-03 1.507329626431e-02 0.0 
1.142072346576e-03 1.477037492496e-02 0.0 
1.168388190371e-03 1.438841255016e-02 0.0 
1.203128739799e-03 1.391189161781e-02 0.0 
1.243214154759e-03 1.331773209945e-02 0.0 
1.608239326367e-03 1.316741995702e-02 0.0 
1.524254681907e-03 1.358703956919e-02 0.0 
1.445767812378e-03 1.392242739745e-02 0.0 
1.374741547457e-03 1.419034874020e-02 0.0 
1.308228700018e-03 1.440163645272e-02 0.0 
1.244473792996e-03 1.456706352621e-02 0.0 
1.181764617728e-03 1.469469937279e-02 0.0 
1.118960872816e-03 1.479170044709e-02 0.0 
1.055221052272e-03 1.486388799170e-02 0.0 
9.900118190488e-04 1.491620153677e-02 0.0 
9.230147453385e-04 1.495273805609e-02 0.0 
8.540908386653e-04 1.497693404694e-02 0.0 
7.832300591928e-04 1.499165029748e-02 0.0 
7.105245163276e-04 1.499928513242e-02 0.0 
6.361438265824e-04 1.500186296792e-02 0.0 
5.603096656221e-04 1.500110998168e-02 0.0 
4.832595655408e-04 1.499850500855e-02 0.0 
4.051815222516e-04 1.499529460725e-02 0.0 
3.261090680536e-04 1.499243127973e-02 0.0 
2.458257551755e-04 1.499033687706e-02 0.0 
1.641514479101e-04 1.498857403779e-02 0.0 
8.205129402282e-05 1.498635907824e-02 0.0 
8.540604353012e-05 1.397708635392e-02 0.0 
1.709696216860e-04 1.397893610099e-02 0.0 
2.561881978494e-04 1.398147026740e-02 0.0 
3.408676477578e-04 1.398451511753e-02 0.0 
4.251276368543e-04 1.398806256201e-02 0.0 
5.091472936387e-04 1.399164425971e-02 0.0 
5.930443113363e-04 1.399433930743e-02 0.0 
6.768790291874e-04 1.399488490675e-02 0.0 
7.606930906951e-04 1.399170795282e-02 0.0 
8.445513809361e-04 1.398292003653e-02 0.0 
9.285858425445e-04 1.396626870079e-02 0.0 
1.013020662466e-03 1.393906197165e-02 0.0 
1.098192751684e-03 1.389807919325e-02 0.0 
1.184566584957e-03 1.383942243686e-02 0.0 
1.272833365310e-03 1.375845459931e-02 0.0 
1.363835023769e-03 1.364954939485e-02 0.0 
1.458822564652e-03 1.350619354318e-02 0.0 
1.559008221743e-03 1.332010610111e-02 0.0 
1.666435095885e-03 1.308306539281e-02 0.0 
1.779770792838e-03 1.278302051376e-02 0.0 
1.824784930340e-03 1.219307891416e-02 0.0 
1.698522117586e-03 1.239831274717e-02 0.0 
1.577504827533e-03 1.255921932419e-02 0.0 
1.463239628262e-03 1.268417646346e-02 0.0 
1.354368836622e-03 1.277896401503e-02 0.0 
1.250163233527e-03 1.284960431713e-02 0.0 
1.149762534372e-03 1.290067766072e-02 0.0 
1.052573082836e-03 1.293632867715e-02 0.0 
9.580480337142e-04 1.295989060668e-02 0.0 
8.657269776426e-04 1.297417855579e-02 0.0 
7.752174925529e-04 1.298156345434e-02 0.0 
6.862218507808e-04 1.298404784899e-02 0.0 
5.984918481756e-04 1.298328592936e-02 0.0 
5.117647584364e-04 1.298061947836e-02 0.0 
4.257915331750e-04 1.297710278905e-02 0.0 
3.402906221251e-04 1.297348403618e-02 0.0 
2.550108034669e-04 1.297022474406e-02 0.0 
1.698691254755e-04 1.296758797856e-02 0.0 
8.490643630681e-05 1.296566150265e-02 0.0 
8.845775517485e-05 1.195347415932e-02 0.0 
1.770998317069e-04 1.195511305329e-02 0.0 
2.662118133649e-04 1.195780405302e-02 0.0 
3.559674634375e-04 1.196116174892e-02 0.0 
4.466643413843e-04 1.196469254537e-02 0.0 
5.387218019582e-04 1.196780394400e-02 0.0 
6.324618752891e-04 1.196973567871e-02 0.0 
7.283724307792e-04 1.196925907860e-02 0.0 
8.268584568766e-04 1.196498843584e-02 0.0 
9.283152371143e-04 1.195510376124e-02 0.0 
1.033273297081e-03 1.193731655500e-02 0.0 
1.142312671313e-03 1.190902957306e-02 0.0 
1.256045031125e-03 1.186712933216e-02 0.0 
1.375123195503e-03 1.180801510897e-02 0.0 
1.500050229090e-03 1.172683784770e-02 0.0 
1.631743694759e-03 1.161904359013e-02 0.0 
1.769304371921e-03 1.147765315277e-02 0.0 
1.653722198204e-03 1.065284396383e-02 0.0 
1.518144532262e-03 1.074373214248e-02 0.0 
1.387590995612e-03 1.081213751096e-02 0.0 
1.263681938595e-03 1.086283259433e-02 0.0 
1.145673082573e-03 1.089901732984e-02 0.0 
1.033092181623e-03 1.092369009896e-02 0.0 
9.252866204650e-04 1.093935871306e-02 0.0 
8.216609083618e-04 1.094818685305e-02 0.0 
7.217216007380e-04 1.095230999259e-02 0.0 
6.251055356917e-04 1.095319996098e-02 0.0 
5.311268822413e-04 1.095173075078e-02 0.0 
4.394457997819e-04 1.094934890992e-02 0.0 
3.495355494474e-04 1.094635177126e-02 0.0 
2.609732530127e-04 1.094341207796e-02 0.0 
1.734773932594e-04 1.094114031808e-02 0.0 
8.667150908568e-05 1.093966214842e-02 0.0 
-2.169544927859e-03 5.767294958265e-03 0.0 
-1.399023568927e-03 8.640817561385e-03 0.0 
2.635934517194e-05 1.135739287119e-02 0.0 
9.997567303282e-04 1.238803986932e-02 0.0 
1.544721642256e-03 1.265393191160e-02 0.0 
1.831045017101e-03 1.255544690099e-02 0.0 
1.950208581563e-03 1.219180929892e-02 0.0 
1.950581037067e-03 1.163088217830e-02 0.0 
1.865988050187e-03 1.092578472770e-02 0.0 
1.718576522006e-03 1.011670033115e-02 0.0 
2.056583299488e-05 8.316385695639e-03 0.0 
5.136931906059e-04 2.231169632902e-04 0.0 
-2.760511747616e-04 -2.180584487129e-04 0.0 
-8.769223853481e-04 1.328881806346e-03 0.0 
3.525785268901e-04 1.033465371031e-04 0.0 
1.676317376996e-03 1.152694017148e-02 0.0 
1.188564392910e-04 -4.356503565328e-04 0.0 
5.960909470722e-04 3.618944297571e-04 0.0 
2.151327790315e-03 1.163642808350e-02 0.0 
5.749059433993e-04 4.975852194560e-04 0.0 
2.103230815148e-03 1.070984896391e-02 0.0 
2.014881975785e-04 4.695526536101e-05 0.0 
-6.152158047343e-05 -6.900468574225e-04 0.0 
4.969826449464e-04 6.364348927299e-04 0.0 
1.764122992433e-03 9.190247997859e-03 0.0 
7.825839621261e-05 -7.192674103474e-04 0.0 
1.244534051416e-04 -2.162277409356e-04 0.0 
4.235876191625e-04 7.383276086918e-04 0.0 
2.800743767769e-04 7.651870832883e-04 0.0 
8.035128206296e-05 8.146502267179e-04 0.0 
1.477142772216e-04 8.764061916639e-04 0.0 
1.964252608971e-04 7.717821927022e-04 0.0 
1.418201119192e-03 8.888606290286e-03 0.0 
9.175642252321e-04 8.999181662486e-03 0.0 
5.971503484487e-04 8.990673849402e-03 0.0 
5.578123743963e-05 5.366998086106e-03 0.0 
1.239313078328e-04 2.834334364425e-05 0.0 
-1.414369598030e-03 3.361285864259e-03 0.0 
-7.238089219978e-06 -8.278158212245e-04 0.0 
8.665524565967e-05 -2.911514306528e-05 0.0 
3.056947477424e-04 9.055044724352e-03 0.0 
3.831034181702e-05 -8.440499016112e-04 0.0 
3.912855524055e-04 8.574707028391e-04 0.0 
5.502208305613e-04 3.972067352556e-04 0.0 
5.368406194330e-04 5.636606783573e-04 0.0 
5.991330026480e-04 3.094388859777e-04 0.0 
4.309561668108e-04 1.588040888789e-04 0.0 
-5.748542950514e-04 5.137004819916e-04 0.0 
1.156282001835e-03 9.018910440110e-03 0.0 
3.230982565515e-04 8.185109125453e-05 0.0 
4.178439836718e-05 3.436343856000e-03 0.0 
-1.445815652683e-04 -5.042357305088e-04 0.0 
1.046144146898e-04 -5.913751448740e-04 0.0 
4.075648070889e-05 6.623840751195e-04 0.0 
2.012192016352e-03 1.170794562819e-02 0.0 
1.098966493473e-03 1.060422642342e-02 0.0 
2.174853586720e-03 1.127240797192e-02 0.0 
1.959660958327e-03 1.000325704256e-02 0.0 
-1.302729652588e-03 5.705604368064e-03 0.0 
6.864562254833e-05 7.273115932258e-03 0.0 
5.621921660452e-05 1.645679487458e-05 0.0 
-4.467196755875e-07 -8.685063763727e-04 0.0 
2.267380253631e-05 1.510838172874e-03 0.0 
1.676128612342e-03 8.735943727102e-03 0.0 
1.783591525352e-03 8.249891696885e-03 0.0 
1.628708934974e-03 7.876096491867e-03 0.0 
1.754628190508e-03 7.319312950862e-03 0.0 
1.603580361357e-03 6.859827888195e-03 0.0 
1.695517124632e-03 6.368169487494e-03 0.0 
1.863844858680e-03 6.802124905915e-03 0.0 
1.779263243929e-03 5.870045468625e-03 0.0 
1.962632800235e-03 6.286295177468e-03 0.0 
1.524212658143e-03 5.904503955185e-03 0.0 
1.849289301294e-03 5.367896296832e-03 0.0 
2.047519010843e-03 5.764140800569e-03 0.0 
1.903043043345e-03 4.866052142170e-03 0.0 
2.114314513774e-03 5.238653046501e-03 0.0 
2.240800219221e-03 6.132016590956e-03 0.0 
2.320331196390e-03 5.583217499480e-03 0.0 
2.425743087348e-03 6.464039348662e-03 0.0 
2.517138057795e-03 5.887189557370e-03 0.0 
2.377303331400e-03 5.037830253793e-03 0.0 
2.583953676551e-03 5.314199798253e-03 0.0 
2.701777736267e-03 6.145950878545e-03 0.0 
2.776198725248e-03 5.541436541214e-03 0.0 
2.870814107329e-03 6.351582341839e-03 0.0 
2.950318618249e-03 5.710173075255e-03 0.0 
3.022183418242e-03 6.497633191285e-03 0.0 
3.103440595358e-03 5.816578706807e-03 0.0 
2.996171557760e-03 5.081312319204e-03 0.0 
3.148009400367e-03 5.153986002133e-03 0.0 
3.230303415513e-03 5.853061760978e-03 0.0 
3.270102796292e-03 5.155801845459e-03 0.0 
3.325947406943e-03 5.812827442899e-03 0.0 
3.356949389213e-03 5.081221457019e-03 0.0 
3.268474348947e-03 4.491816541725e-03 0.0 
3.344577259307e-03 4.393964886534e-03 0.0 
3.402523246438e-03 4.927373753637e-03 0.0 
3.376263867323e-03 4.224220669019e-03 0.0 
3.399956124105e-03 4.694182700187e-03 0.0 
3.358394526600e-03 3.985263403298e-03 0.0 
3.343301339962e-03 4.384756236335e-03 0.0 
3.286470658423e-03 3.681596056603e-03 0.0 
3.279424453886e-03 3.347281363886e-03 0.0 
3.196404459811e-03 3.057408729971e-03 0.0 
3.157894783456e-03 3.324881572036e-03 0.0 
3.061207615191e-03 2.727992473920e-03 0.0 
3.078849577737e-03 2.514461862371e-03 0.0 
2.941431818294e-03 2.216064261321e-03 0.0 
2.938847903721e-03 2.047357233827e-03 0.0 
2.802949677286e-03 1.780546211588e-03 0.0 
2.762238960613e-03 1.900400652105e-03 0.0 
2.629728427188e-03 1.500937298570e-03 0.0 
2.649638448222e-03 1.413676845260e-03 0.0 
2.484003325376e-03 1.167709210308e-03 0.0 
2.424631987305e-03 1.217540722270e-03 0.0 
2.292068630101e-03 9.213760752425e-04 0.0 
2.329015216471e-03 8.934291135471e-04 0.0 
2.149237100527e-03 6.786313174714e-04 0.0 
2.080506381849e-03 6.813967114252e-04 0.0 
1.953173139747e-03 4.709800224465e-04 0.0 
2.000198029661e-03 4.835616950092e-04 0.0 
1.817662410672e-03 3.025667927869e-04 0.0 
1.746255320899e-03 2.740306113941e-04 0.0 
1.627077808684e-03 1.324113031617e-04 0.0 
1.676799785856e-03 1.710823141424e-04 0.0 
1.500143623970e-03 2.244942968299e-05 0.0 
1.530425693182e-03 6.970270601796e-05 0.0 
1.430007362445e-03 -2.746764717173e-05 0.0 
1.319385401753e-03 -1.158769575888e-04 0.0 
1.233614174067e-03 -1.732029993941e-04 0.0 
1.139314321667e-03 -2.422189460471e-04 0.0 
3.226462680130e-03 3.870240657651e-03 0.0 
1.045807428244e-03 -3.017793494167e-04 0.0 
1.117496213353e-03 -2.258121385348e-04 0.0 
9.648652635229e-04 -3.553531328020e-04 0.0 
1.035631248496e-03 -2.910862977427e-04 0.0 
8.677762844482e-04 -4.150926981034e-04 0.0 
7.990448389789e-04 -4.553620020304e-04 0.0 
7.028410717492e-04 -5.132080291716e-04 0.0 
3.356654778015e-03 5.185609324952e-03 0.0 
2.407382083261e-03 4.499788320391e-03 0.0 
6.448099159312e-04 -5.423984661138e-04 0.0 
5.536538132056e-04 -5.967529484416e-04 0.0 
5.878911838759e-04 -5.622490744365e-04 0.0 
4.483516532277e-04 -6.410850605071e-04 0.0 
1.443757401368e-03 6.393797249966e-03 0.0 
1.350735402158e-03 5.425988523129e-03 0.0 
1.284534920109e-03 5.911213199448e-03 0.0 
1.177540559293e-03 4.939666242738e-03 0.0 
1.124980366981e-03 5.412061942342e-03 0.0 
4.216562606173e-04 -6.668837666755e-04 0.0 
1.688483533010e-03 4.443261670654e-03 0.0 
1.218361422394e-03 4.460819533785e-03 0.0 
2.761466809284e-03 6.998566480270e-03 0.0 
3.250788836872e-03 6.576857091796e-03 0.0 
3.031174921445e-03 2.289859318141e-03 0.0 
7.187781801386e-04 -4.800160666080e-04 0.0 
5.740973438620e-04 -5.580340771870e-04 0.0 
6.283291994414e-04 -4.915925859237e-04 0.0 
1.683799208040e-03 2.055692274270e-04 0.0 
1.520298308987e-03 1.119583714601e-04 0.0 
1.646615926852e-03 2.328178422686e-04 0.0 
1.469549532417e-03 1.469404161178e-04 0.0 
1.565262882551e-03 2.507397673932e-04 0.0 
1.378413546771e-03 1.725244098948e-04 0.0 
1.293981873203e-03 8.306068875848e-05 0.0 
1.195862691680e-03 1.145216252504e-04 0.0 
1.121708853339e-03 3.736769197755e-05 0.0 
1.440202623299e-03 2.572939940843e-04 0.0 
1.637874765047e-03 3.499393988816e-04 0.0 
1.019515008000e-03 7.293388264951e-05 0.0 
9.544853422026e-04 6.396510515818e-06 0.0 
8.512164956864e-04 4.433463681884e-05 0.0 
7.941560997031e-04 -1.278083626805e-05 0.0 
8.710253712708e-04 -6.296153825475e-05 0.0 
7.182995229605e-04 -7.309410561173e-05 0.0 
7.730290816374e-04 -1.330442945838e-04 0.0 
2.872369112897e-03 1.865792963122e-03 0.0 
2.920561096665e-03 2.054919908832e-03 0.0 
2.743891335752e-03 1.672747566692e-03 0.0 
2.747712062906e-03 1.809983772055e-03 0.0 
2.554098655474e-03 1.468920707738e-03 0.0 
2.512918095533e-03 1.556222077676e-03 0.0 
2.302722034442e-03 1.255088896146e-03 0.0 
2.346328503816e-03 1.180197903513e-03 0.0 
1.939279659495e-03 4.360633387917e-03 0.0 
2.973779678881e-03 2.928192114906e-03 0.0 
3.046913920566e-03 3.579962329806e-03 0.0 
2.809976077386e-03 3.113066007254e-03 0.0 
2.855264955178e-03 3.817192459901e-03 0.0 
2.560470748158e-03 3.277005281593e-03 0.0 
2.571029509914e-03 4.033859351049e-03 0.0 
2.211456468462e-03 3.419451800941e-03 0.0 
2.220471984886e-03 2.737097054880e-03 0.0 
1.814264656130e-03 2.824091959367e-03 0.0 
1.853518077862e-03 2.220976336006e-03 0.0 
1.407430668299e-03 2.270981182739e-03 0.0 
1.479892018207e-03 1.746209909161e-03 0.0 
3.005834019152e-03 4.474376747546e-03 0.0 
2.706087157075e-03 1.908958646837e-03 0.0 
2.426660498144e-03 1.604185509038e-03 0.0 
2.618513145249e-03 1.962419065733e-03 0.0 
4.579272631549e-04 -6.005428132444e-04 0.0 
6.422966562527e-04 -2.257292217147e-05 0.0 
1.474663200810e-03 3.336811962163e-04 0.0 
1.683341471701e-03 4.402384902291e-04 0.0 
2.080530420558e-03 1.000975326281e-03 0.0 
3.289202022248e-04 -7.056776965702e-04 0.0 
2.177240331689e-03 4.228280305178e-03 0.0 
2.548313339491e-03 4.922554304616e-03 0.0 
1.008313774998e-03 4.437371510611e-03 0.0 
9.691886681697e-04 4.902002819567e-03 0.0 
1.477273750983e-03 3.975299565576e-04 0.0 
3.077054752591e-04 -7.250139670996e-04 0.0 
1.061883686705e-03 1.339961829470e-04 0.0 
1.297777969844e-03 2.899946170818e-03 0.0 
5.725506029828e-04 -7.483302172270e-05 0.0 
5.004453648855e-04 -2.502951213648e-05 0.0 
1.191619122836e-03 -7.828071770322e-06 0.0 
2.295157364024e-03 1.607645315486e-03 0.0 
2.491661707775e-03 1.971978632171e-03 0.0 
1.868928042080e-03 1.716836173444e-03 0.0 
1.523934298107e-03 1.308584106595e-03 0.0 
1.119365888018e-03 1.322171225418e-03 0.0 
1.202234243412e-03 9.345295570040e-04 0.0 
1.544291291385e-03 9.427108361290e-04 0.0 
1.240680218392e-03 6.298096608833e-04 0.0 
8.984831238831e-04 6.173966380186e-04 0.0 
9.597380608450e-04 3.572063468155e-04 0.0 
1.257943674573e-03 3.762587658246e-04 0.0 
9.983802144094e-04 1.427190623890e-04 0.0 
7.068435361168e-04 1.254481488101e-04 0.0 
7.644375417658e-04 -5.630263817141e-05 0.0 
5.458938070812e-04 1.584510455537e-05 0.0 
8.653780061614e-04 2.320882710684e-03 0.0 
2.314042298739e-03 7.037252629453e-03 0.0 
1.265344240437e-03 3.030144497996e-04 0.0 
1.993874925890e-03 1.036014379833e-03 0.0 
8.453435810389e-04 3.926100709960e-03 0.0 
8.189167433116e-04 4.383703469240e-03 0.0 
9.198709227630e-04 5.370740563958e-03 0.0 
7.813343850936e-04 4.843224029349e-03 0.0 
6.761097754176e-04 3.858982477955e-03 0.0 
6.498768191129e-04 4.312785449958e-03 0.0 
7.347725321138e-04 5.304388163836e-03 0.0 
6.135586370680e-04 4.767677151388e-03 0.0 
6.807982662656e-04 5.765179105451e-03 0.0 
5.688208803820e-04 5.222590188206e-03 0.0 
4.999617172312e-04 4.228677562945e-03 0.0 
4.637913664957e-04 4.679764609794e-03 0.0 
5.172202433902e-04 5.677891985213e-03 0.0 
4.197922002950e-04 5.131381020995e-03 0.0 
4.600008709388e-04 6.132579415789e-03 0.0 
3.691253171970e-04 5.583067830623e-03 0.0 
3.297100852233e-04 4.585574533451e-03 0.0 
2.337871241665e-04 -7.564541327542e-04 0.0 
2.128982957106e-03 9.391600520492e-04 0.0 
1.850503918876e-03 7.897397702331e-04 0.0 
4.959406477985e-04 -5.610880601733e-04 0.0 
5.334215900943e-04 -4.906888058324e-04 0.0 
6.660780547647e-04 -4.196363385834e-04 0.0 
5.520473571572e-04 -4.176177963297e-04 0.0 
2.838038213772e-04 5.039058002477e-03 0.0 
2.481793325506e-04 4.042080908232e-03 0.0 
2.113281659521e-03 5.186808047341e-03 0.0 
2.483515657940e-03 5.961141169676e-03 0.0 
8.582350675903e-04 3.470788296296e-03 0.0 
4.352087901027e-04 -7.029050540171e-05 0.0 
4.872421155007e-04 -1.291124331182e-04 0.0 
3.319412380428e-03 6.491431543368e-03 0.0 
3.207505473772e-03 7.322185588475e-03 0.0 
3.246946250566e-03 7.195249265100e-03 0.0 
3.093007621402e-03 8.108585880434e-03 0.0 
3.052734935830e-03 8.164838851405e-03 0.0 
3.098371009103e-03 7.940747094336e-03 0.0 
1.839647293080e-03 4.687852860829e-04 0.0 
3.953903253308e-04 3.689709786182e-03 0.0 
6.054218863069e-04 -5.108735977219e-04 0.0 
4.478938945275e-04 -5.432097205624e-04 0.0 
3.701887072039e-04 -2.272678045077e-05 0.0 
2.347327349964e-03 1.075613617222e-03 0.0 
2.828338813294e-03 4.365242757524e-03 0.0 
2.802637596434e-03 3.809191718729e-03 0.0 
2.598287568674e-03 3.664201376422e-03 0.0 
2.536684468942e-03 3.158061337228e-03 0.0 
2.304509628619e-03 2.977752309181e-03 0.0 
2.204511723029e-03 2.521049118601e-03 0.0 
2.440203192288e-03 2.684559808396e-03 0.0 
2.118045470719e-03 1.560980013622e-03 0.0 
2.069795811459e-03 2.096711627011e-03 0.0 
3.178324513376e-04 6.043929932043e-03 0.0 
2.879690814824e-03 2.317254419658e-03 0.0 
1.253125474359e-03 1.704921604284e-04 0.0 
2.358068577226e-04 -7.297834080739e-04 0.0 
4.807501438616e-04 -6.863050296328e-05 0.0 
2.130300694595e-04 -7.709137059098e-04 0.0 
2.709696610009e-04 -7.324241383714e-04 0.0 
1.222813491410e-03 3.397050106367e-04 0.0 
1.943862496124e-03 2.305649289161e-03 0.0 
2.050913285050e-03 2.746041469308e-03 0.0 
2.894851481063e-03 9.022260706103e-03 0.0 
2.862030812767e-03 8.999602570978e-03 0.0 
1.903905293563e-03 1.249090812665e-03 0.0 
1.208999206827e-03 6.403841002530e-03 0.0 
7.982671486016e-04 6.306233014248e-03 0.0 
7.291111463923e-04 6.770840955852e-03 0.0 
1.517323944654e-04 -7.969227152784e-04 0.0 
3.951383905104e-04 1.245320983932e-04 0.0 
5.430180694403e-04 3.331478988486e-03 0.0 
2.837943845843e-03 5.585698810643e-03 0.0 
2.757175010928e-03 6.662538563241e-03 0.0 
6.667525247210e-04 2.972622116942e-03 0.0 
2.335468427449e-04 2.381878089177e-03 0.0 
2.100004780757e-04 4.481912764347e-03 0.0 
1.777330098208e-04 3.498993051436e-03 0.0 
6.844694355832e-04 -3.455667507768e-04 0.0 
5.585143042081e-04 -3.414988708115e-04 0.0 
1.443516299075e-03 4.446469260648e-04 0.0 
5.600002290312e-04 -2.243308629432e-04 0.0 
2.026513262553e-04 3.055575903543e-03 0.0 
2.135333785579e-03 8.495270432600e-04 0.0 
2.308055041200e-03 9.467426510108e-04 0.0 
4.217841005572e-04 -4.841514467556e-04 0.0 
2.001657034864e-03 6.316604575026e-03 0.0 
1.535808375004e-03 5.422838337831e-03 0.0 
1.510862979079e-03 4.008600961089e-04 0.0 
7.954321398567e-04 -2.015769176752e-04 0.0 
1.796353083209e-04 -7.748888178123e-04 0.0 
1.140007272027e-03 3.560067875473e-04 0.0 
5.462901796925e-04 2.885731913700e-03 0.0 
2.308342002432e-03 2.251103612796e-03 0.0 
2.645346504357e-03 2.797746035723e-03 0.0 
1.902786743300e-03 1.710756929185e-03 0.0 
3.080611303487e-04 -2.319458717232e-04 0.0 
1.010204309577e-03 2.560548994404e-04 0.0 
3.080049395891e-04 -6.103910064644e-05 0.0 
1.679037805488e-03 2.076848528653e-03 0.0 
1.778864344119e-03 2.470393330445e-03 0.0 
3.041647548163e-03 6.172514941474e-03 0.0 
2.942812004494e-03 7.243937757799e-03 0.0 
2.609861171757e-03 7.865543850938e-03 0.0 
2.768075524652e-03 8.387729378178e-03 0.0 
2.027639082617e-03 7.218048916022e-03 0.0 
3.170085958625e-03 6.649680571844e-03 0.0 
2.476369343571e-03 7.358558597719e-03 0.0 
2.337493992689e-03 7.951442391799e-03 0.0 
2.473938779726e-03 8.263874071388e-03 0.0 
2.981617152751e-03 8.141753408343e-03 0.0 
2.797191500468e-03 8.910815514242e-03 0.0 
3.088713921903e-03 4.335543273233e-03 0.0 
3.077215011417e-03 2.499830638411e-03 0.0 
8.069300916380e-04 -3.398790398899e-04 0.0 
9.229737538451e-04 -1.214640132477e-04 0.0 
1.823364858128e-03 3.452714369824e-04 0.0 
4.138326240257e-04 3.243988963277e-03 0.0 
3.120463171562e-04 2.709150290511e-03 0.0 
5.562694140058e-04 6.682705199168e-03 0.0 
4.880466353673e-04 7.139545572972e-03 0.0 
3.182056217646e-04 -6.264574661729e-04 0.0 
2.822877224375e-04 -5.608656568409e-04 0.0 
1.380425895319e-03 -6.203013499452e-06 0.0 
1.061550192496e-03 2.295868870604e-04 0.0 
6.907948702936e-04 2.960552041533e-03 0.0 
6.740468494504e-04 2.515667785752e-03 0.0 
8.548808394732e-04 3.017383159551e-03 0.0 
1.368838691932e-03 4.705426415518e-04 0.0 
2.741444925580e-03 2.513440818405e-03 0.0 
2.696685318634e-03 1.505114535582e-03 0.0 
4.731005141108e-04 1.824610694904e-03 0.0 
3.120810589733e-03 3.917480010394e-03 0.0 
1.749219547817e-04 -6.382558667047e-04 0.0 
2.181520388861e-03 4.209168295555e-03 0.0 
2.536377945834e-04 -1.656739570750e-05 0.0 
2.931255953174e-04 1.084537380672e-05 0.0 
1.682526221216e-03 1.159113940642e-03 0.0 
1.908492287696e-03 8.677452333582e-03 0.0 
3.049164606863e-03 3.356922230624e-03 0.0 
3.147294640478e-03 3.300693247261e-03 0.0 
2.313009030337e-03 8.868482464935e-03 0.0 
2.421393669906e-03 9.173906935223e-03 0.0 
2.595638636267e-03 8.531973164868e-03 0.0 
2.512377897310e-03 9.441865467064e-03 0.0 
1.465269878140e-03 2.048803540288e-04 0.0 
1.227287176080e-03 6.736302893463e-06 0.0 
1.496603285337e-03 1.630325583240e-03 0.0 
1.643574488719e-03 1.536866481293e-03 0.0 
1.396222262576e-03 1.791516163950e-03 0.0 
1.494461051891e-03 2.149780268176e-03 0.0 
1.442624384236e-03 8.887615943313e-04 0.0 
1.670335283070e-03 9.783045611803e-04 0.0 
2.197434799101e-04 -7.306937370815e-04 0.0 
2.649249357360e-03 9.793711845053e-03 0.0 
4.140386654198e-04 2.360701338324e-03 0.0 
2.191210608694e-03 8.531742147733e-03 0.0 
8.151535360866e-04 1.919371555002e-04 0.0 
8.693113579826e-04 1.715527506198e-04 0.0 
-1.352927472359e-04 1.888344297999e-03 0.0 
1.341733560360e-04 1.342790953666e-03 0.0 
1.381171305541e-04 2.538441008856e-03 0.0 
2.387339416871e-03 9.121771856711e-03 0.0 
2.523630746091e-03 9.541100575254e-03 0.0 
2.172127454643e-03 8.485984966640e-03 0.0 
3.889508788872e-05 1.994554586223e-05 0.0 
1.320451932257e-04 9.065607636488e-03 0.0 
1.904788631525e-04 1.275098561093e-05 0.0 
2.880830556707e-03 8.039465432457e-03 0.0 
1.479858803156e-04 2.061736289407e-03 0.0 
2.943168747925e-03 2.851447222167e-03 0.0 
3.347686428067e-03 6.323253741755e-03 0.0 
1.669800438172e-03 5.771751340786e-04 0.0 
1.133447686906e-04 3.059321676951e-03 0.0 
8.292978373484e-05 1.982594343186e-03 0.0 
8.387952569087e-04 7.298574957113e-03 0.0 
7.597494719601e-04 7.782384742216e-03 0.0 
9.198402461837e-04 6.843499213135e-03 0.0 
1.159577014119e-03 3.653261580537e-03 0.0 
3.505807200477e-04 3.858208266377e-03 0.0 
3.011648628193e-04 3.151412405334e-03 0.0 
4.420725475026e-04 -6.254733504322e-04 0.0 
3.656308890820e-04 -6.185897530607e-04 0.0 
5.955962814800e-04 -3.449404735794e-04 0.0 
7.978836984129e-04 -3.153432033250e-04 0.0 
8.183405823123e-04 -2.678142309797e-04 0.0 
9.503879443685e-04 -2.527710933582e-04 0.0 
2.171072636000e-03 3.702320094434e-03 0.0 
1.926364141864e-03 3.399310910689e-03 0.0 
2.626129087885e-03 4.200069928075e-03 0.0 
2.102781061012e-03 7.388339805328e-04 0.0 
2.232465992932e-03 8.008207690808e-04 0.0 
2.424983012280e-03 1.033396342057e-03 0.0 
3.145473627330e-04 2.300488065048e-03 0.0 
2.092425217656e-04 1.690984566686e-03 0.0 
1.711173339937e-03 4.301164329460e-04 0.0 
1.777827696485e-03 6.623553647288e-04 0.0 
1.400380937877e-03 4.817313300442e-05 0.0 
3.948322311758e-04 1.940736620584e-03 0.0 
2.099732588354e-04 2.756902575250e-05 0.0 
3.118955047656e-04 3.295975702028e-05 0.0 
1.191998030497e-04 -5.657595375307e-04 0.0 
2.275402452610e-04 -4.721122093900e-04 0.0 
1.369749999309e-03 6.624682659591e-03 0.0 
7.787101724762e-04 5.623562234421e-03 0.0 
6.472609125511e-04 2.111539808838e-03 0.0 
8.345742672571e-04 2.575936438636e-03 0.0 
4.568205248053e-04 1.577021668841e-03 0.0 
1.294265928025e-04 -7.726796845214e-04 0.0 
2.506779524269e-03 2.350996552380e-03 0.0 
1.039314148909e-03 3.624370831986e-04 0.0 
1.277795215557e-03 4.846858557202e-04 0.0 
7.668643063648e-04 2.468911751045e-04 0.0 
1.915198845852e-03 1.480342819251e-03 0.0 
1.446506766932e-03 1.037623560294e-03 0.0 
1.420731754986e-03 1.181513091474e-03 0.0 
-4.459042969145e-04 2.448654461761e-03 0.0 
6.260817097944e-05 2.384575136802e-03 0.0 
5.817933416693e-04 7.693709132068e-03 0.0 
-6.826147579455e-04 2.029180532844e-03 0.0 
5.037412978234e-04 8.187760363650e-03 0.0 
4.189395341275e-04 7.602752350323e-03 0.0 
4.366926764583e-04 8.676666672759e-03 0.0 
1.056198061661e-04 -8.082801193109e-04 0.0 
9.608389141076e-04 8.006887782953e-03 0.0 
1.052834290769e-03 7.416746686798e-03 0.0 
3.808982143207e-06 -4.655248536932e-04 0.0 
2.664284461087e-04 1.430485854027e-03 0.0 
4.675845634861e-05 -6.328013576844e-04 0.0 
1.001716903302e-04 -6.950635743201e-04 0.0 
6.282393199529e-04 1.382782434884e-04 0.0 
6.899668016248e-04 1.279590307291e-04 0.0 
4.608005504868e-04 1.003031326406e-04 0.0 
5.384524413081e-04 9.794359682360e-05 0.0 
7.225188882005e-04 1.046653312647e-04 0.0 
5.646692256205e-04 7.816597105551e-05 0.0 
6.849261384833e-04 8.334997132584e-03 0.0 
3.707760682926e-04 6.989323215393e-05 0.0 
4.200848726260e-04 5.949439461759e-05 0.0 
2.460971587375e-04 4.665028518411e-05 0.0 
2.313736207287e-03 1.008742222481e-02 0.0 
2.844433791597e-03 8.761508430807e-03 0.0 
2.595637001810e-03 9.827895222871e-03 0.0 
2.209472187636e-03 1.071887929316e-02 0.0 
1.006139404462e-03 1.317492306838e-03 0.0 
1.224104832400e-03 1.832514489449e-03 0.0 
1.921307249314e-04 -4.780075327394e-05 0.0 
2.195826545856e-04 -1.013594438927e-04 0.0 
3.473666418903e-04 8.140177231096e-03 0.0 
2.540149756703e-04 8.182482831545e-03 0.0 
2.750134343428e-04 7.259202494742e-03 0.0 
1.988687635697e-04 7.370312941732e-03 0.0 
2.127264672798e-04 6.466971101687e-03 0.0 
1.372485195504e-04 6.582022247482e-03 0.0 
1.607809011978e-04 5.680587787162e-03 0.0 
1.122363858806e-03 9.843328361694e-04 0.0 
1.864044508281e-03 9.826565384164e-03 0.0 
2.145047815311e-03 9.462075353845e-03 0.0 
1.185297056776e-03 6.559472727675e-04 0.0 
1.461340312540e-03 7.761506373766e-04 0.0 
2.595684817804e-03 9.647197977343e-03 0.0 
2.421161154999e-03 1.056906192154e-02 0.0 
6.713036447686e-04 1.808673389849e-04 0.0 
3.235654861674e-03 5.686809141446e-03 0.0 
1.988451262068e-04 9.019896221950e-04 0.0 
-1.595329174807e-03 4.225853957861e-03 0.0 
-6.623198493448e-04 3.780548302186e-03 0.0 
3.319039310836e-03 6.072439621770e-03 0.0 
2.703999525988e-03 8.751736156376e-03 0.0 
2.886532305660e-03 8.964389796159e-03 0.0 
2.658479006842e-03 9.896843079183e-03 0.0 
1.917874458759e-03 6.653904714596e-04 0.0 
1.416541755799e-04 -3.579162055310e-04 0.0 
1.842684554366e-03 7.629198409843e-03 0.0 
2.339809752438e-04 5.580989729768e-03 0.0 
1.104507003959e-03 7.999436265819e-03 0.0 
1.006851124301e-04 -7.655864617526e-05 0.0 
3.254810293758e-03 4.798735699180e-03 0.0 
3.033137786195e-03 7.309626840585e-03 0.0 
2.364119071299e-03 7.152680768618e-03 0.0 
3.057393828999e-03 7.663631567810e-03 0.0 
2.142785768631e-03 6.679759894458e-03 0.0 
1.905900131677e-03 7.743203686973e-03 0.0 
2.047061399934e-03 8.160544258885e-03 0.0 
3.225689000792e-03 4.014628094195e-03 0.0 
2.673022831916e-03 9.880778224270e-03 0.0 
2.396223622304e-03 1.083762300715e-02 0.0 
2.601288317756e-03 6.756014512182e-03 0.0 
1.045907204326e-03 3.509776401398e-03 0.0 
1.037731994816e-03 3.050602195096e-03 0.0 
7.992071710840e-04 2.166343216929e-03 0.0 
1.009383582138e-03 2.607805736864e-03 0.0 
1.250699519187e-03 3.519178484526e-03 0.0 
1.236443786121e-03 3.059086670319e-03 0.0 
9.584368086999e-04 2.184557516368e-03 0.0 
1.199841680283e-03 2.611422032664e-03 0.0 
8.075855970971e-04 1.597463351452e-03 0.0 
1.126540238370e-03 2.158304702148e-03 0.0 
1.449765284275e-03 3.043237073186e-03 0.0 
1.404119512077e-03 2.610314804149e-03 0.0 
1.077038289371e-03 1.845240130223e-03 0.0 
1.709048737818e-03 3.500423602491e-03 0.0 
9.224628051646e-04 5.354309804348e-04 0.0 
3.397689245973e-03 5.483687572795e-03 0.0 
-6.921204336148e-05 3.062097341539e-03 0.0 
-2.152951580890e-04 4.575117292102e-03 0.0 
2.905637570745e-03 7.185024699322e-03 0.0 
3.907348763600e-04 7.638801119041e-04 0.0 
3.179456627428e-04 7.780284850690e-04 0.0 
2.866017112112e-03 4.638598143909e-03 0.0 
5.182232263762e-04 5.981996518458e-04 0.0 
2.184868420636e-03 7.603935256096e-03 0.0 
1.745632633533e-03 3.546001601813e-03 0.0 
5.642930559964e-04 5.380482190158e-04 0.0 
1.243866913951e-03 3.985554163568e-03 0.0 
1.446338506814e-03 4.466206888260e-03 0.0 
1.405411436456e-03 4.946426902384e-03 0.0 
2.431571359085e-04 7.412939466637e-04 0.0 
9.962376119332e-04 6.376504325417e-03 0.0 
5.566678719677e-04 3.682841882154e-04 0.0 
2.922802335185e-03 2.207645352590e-03 0.0 
3.077044664004e-03 2.669070370941e-03 0.0 
3.209393401600e-03 3.010662142641e-03 0.0 
1.471991279118e-03 3.520152038519e-03 0.0 
5.327174651526e-04 2.506390828512e-04 0.0 
9.634204591295e-04 4.450678655691e-04 0.0 
9.132143113362e-04 3.862489828913e-04 0.0 
1.352520965032e-03 6.099606956096e-04 0.0 
4.759837114152e-04 1.911105585601e-04 0.0 
4.145769945743e-04 6.488607653337e-04 0.0 
4.223830807242e-04 5.950089965698e-04 0.0 
1.537350965017e-03 6.447571398910e-04 0.0 
1.829180731689e-03 9.475058950252e-04 0.0 
2.046801238720e-03 9.504909178333e-04 0.0 
2.119957060593e-03 1.281999118439e-03 0.0 
1.860097119945e-03 1.296669756673e-03 0.0 
2.173504543193e-03 1.681255656787e-03 0.0 
2.397572876249e-03 1.638488750599e-03 0.0 
2.206323907952e-03 2.162884394705e-03 0.0 
1.597960713473e-03 2.592928603610e-03 0.0 
3.989343555014e-04 1.365033005005e-04 0.0 
1.754491912245e-03 3.531588588727e-04 0.0 
1.943855519081e-03 4.842856015664e-04 0.0 
1.996999161992e-03 4.884365443284e-04 0.0 
9.245924074147e-04 -3.224841104391e-04 0.0 
1.078554602830e-03 -2.246887468581e-04 0.0 
1.092233491880e-03 -1.590695747564e-04 0.0 
7.734339955065e-04 -4.116860593503e-04 0.0 
2.741232850906e-03 3.285390156489e-03 0.0 
3.681158531919e-04 1.165578455826e-04 0.0 
2.507504302935e-03 1.201003157456e-03 0.0 
1.201896776369e-03 -1.802868869090e-04 0.0 
1.285287540451e-03 8.958969534297e-03 0.0 
1.342415347745e-03 8.065490141773e-03 0.0 
1.473036038556e-03 7.993920022103e-03 0.0 
1.368026618760e-03 7.041055773868e-03 0.0 
1.192623235977e-03 7.990771129520e-03 0.0 
6.842465532061e-04 -2.715641433037e-04 0.0 
5.497436697379e-04 -2.660845458798e-04 0.0 
4.300158959616e-04 -3.292985022839e-04 0.0 
4.161428121166e-04 -2.531936513164e-04 0.0 
3.011615436597e-04 -3.101338776334e-04 0.0 
3.111496758127e-04 -3.866770315134e-04 0.0 
2.822292697997e-04 -2.344035483865e-04 0.0 
1.750411814091e-04 -2.936787489359e-04 0.0 
1.032653479409e-03 9.019683266289e-03 0.0 
-7.066854230405e-04 8.866437358009e-04 0.0 
-2.642447880950e-04 6.585607453835e-04 0.0 
-2.083373802394e-04 3.284062880998e-04 0.0 
8.692786367627e-05 4.668814045259e-04 0.0 
1.032464586633e-04 8.140450729035e-04 0.0 
4.909390249206e-04 6.158319278443e-04 0.0 
4.741301570079e-04 1.003756473291e-03 0.0 
-3.328625264069e-04 1.076842696997e-03 0.0 
-4.594676248049e-04 2.190035131623e-04 0.0 
-1.484449778286e-04 6.399263280916e-05 0.0 
-3.597940795645e-04 -2.316669919466e-05 0.0 
-1.078697541256e-04 -1.453761042081e-04 0.0 
1.592042929451e-04 -6.439063866982e-05 0.0 
4.238037549996e-04 -4.638150447382e-04 0.0 
1.094104511656e-04 2.633000321747e-05 0.0 
1.132192478673e-04 -5.160448891709e-04 0.0 
2.142513758545e-04 -5.477476038350e-04 0.0 
1.968922842603e-04 -6.174340094690e-04 0.0 
3.173787707409e-04 -5.679496032330e-04 0.0 
2.186330470036e-04 -4.783871497752e-04 0.0 
9.276773635574e-05 -6.594840237886e-04 0.0 
1.740798259990e-04 -6.752669127479e-04 0.0 
-1.896992916284e-06 -8.524333071435e-04 0.0 
2.344907816017e-05 -8.589727463913e-04 0.0 
9.536461130124e-06 -8.719623099462e-04 0.0 
3.871059969618e-05 -8.571213503894e-04 0.0 
6.102901949525e-05 -8.422675637787e-04 0.0 
3.227864148749e-05 -8.395480681651e-04 0.0 
3.757478215195e-05 -8.121856938528e-04 0.0 
-1.802169367270e-05 -7.933539300920e-04 0.0 
3.918485117352e-05 -7.754833615649e-04 0.0 
1.041431716964e-04 -7.906518991092e-04 0.0 
-3.583728993106e-05 -7.488764992630e-04 0.0 
5.127455785184e-05 4.378045948724e-03 0.0 
9.694135182756e-05 3.887005194393e-03 0.0 
3.230396933406e-04 8.803275161114e-05 0.0 
7.969220807335e-04 8.959307866161e-03 0.0 
-2.005499262960e-04 -3.778342877209e-04 0.0 
7.648083535527e-05 9.802359954474e-04 0.0 
1.159765676120e-04 8.096391848599e-04 0.0 
9.326847053947e-05 7.851155273430e-04 0.0 
6.375917657782e-05 4.824135306252e-06 0.0 
1.034997531463e-04 1.675708316458e-05 0.0 
4.210934947064e-05 9.539772120555e-04 0.0 
7.458024987095e-04 -4.684396033302e-04 0.0 
7.428320725838e-04 1.775186099205e-03 0.0 
2.182238618862e-04 2.612524881532e-03 0.0 
1.660172729688e-03 4.398669129258e-03 0.0 
1.003656190723e-03 -1.661958355872e-04 0.0 
3.482042280837e-04 -1.176611713447e-04 0.0 
1.029333610829e-03 -4.188071145270e-05 0.0 
4.125801880860e-04 1.167844157407e-05 0.0 
6.273820726453e-04 -1.347592085606e-04 0.0 
6.927344295793e-04 2.610296358414e-05 0.0 
8.814678460219e-04 3.376749487250e-04 0.0 
1.394533538042e-04 -8.061028285987e-04 0.0 
6.207955760119e-04 6.224618078328e-03 0.0 
4.017464100125e-04 6.590869633999e-03 0.0 
3.669537646919e-04 4.137330570886e-03 0.0 
5.044212271507e-04 -6.170975376855e-04 0.0 
4.368149639760e-04 -4.022585380891e-04 0.0 
3.340832352227e-04 -6.731970930501e-04 0.0 
1.007174536948e-03 1.074251858797e-03 0.0 
2.623845374930e-03 7.641325447339e-03 0.0 
1.844195630113e-03 3.274341121572e-04 0.0 
8.736001103942e-04 -3.910173626156e-04 0.0 
9.241803812733e-04 -3.561616662552e-04 0.0 
1.012992296337e-03 -2.978529481179e-05 0.0 
3.384686403780e-03 5.690775721631e-03 0.0 
1.368267062935e-03 -5.956326172668e-05 0.0 
1.247572714299e-03 1.866635339404e-04 0.0 
2.794900108673e-04 3.596113579761e-03 0.0 
-8.135537657847e-05 -6.150199144995e-04 0.0 
1.272231615976e-03 2.508957147314e-04 0.0 
1.355840523290e-03 4.226025359741e-05 0.0 
8.625478061785e-04 5.840326904965e-03 0.0 
2.215973396806e-03 1.295536297361e-03 0.0 
6.335540871817e-04 3.416614051841e-04 0.0 
5.271446085389e-04 3.780495433302e-03 0.0 
5.155571364141e-04 2.064291749975e-03 0.0 
1.130306258020e-03 6.903241587164e-03 0.0 
2.126311705076e-04 -6.941263250538e-04 0.0 
6.583787947715e-04 7.248015586961e-03 0.0 
9.186452619345e-04 2.652607959383e-04 0.0 
1.034667050491e-03 3.971224900724e-03 0.0 
3.794814163803e-04 -6.803214716030e-04 0.0 
2.781068706869e-03 1.649861586472e-03 0.0 
3.150478780260e-03 6.573665856453e-03 0.0 
1.871203422758e-03 9.605320228132e-03 0.0 
2.245583488396e-04 2.207938412322e-03 0.0 
3.291731671527e-03 3.762079495616e-03 0.0 
1.754489218801e-03 8.135833503128e-04 0.0 
2.551477989528e-03 1.348099091775e-03 0.0 
3.252351422952e-04 -6.815716902081e-04 0.0 
8.930049888094e-04 1.392371226220e-04 0.0 
3.168335227616e-03 2.781269446896e-03 0.0 
4.215498398217e-04 2.806917078046e-03 0.0 
2.371101348153e-03 3.464292260561e-03 0.0 
2.877895797731e-03 2.373339765959e-03 0.0 
6.904966827618e-04 3.408419405325e-03 0.0 
2.165771370655e-03 6.688216717994e-04 0.0 
2.082560368682e-03 1.294092293268e-03 0.0 
2.760292104938e-03 7.866929117822e-03 0.0 
2.819041469066e-03 4.945328352609e-03 0.0 
2.162543025590e-03 4.724563704326e-03 0.0 
3.153796419223e-03 4.517568954962e-03 0.0 
2.376021233616e-04 -1.664895639025e-04 0.0 
1.077559283755e-03 1.871516462011e-04 0.0 
1.018484241953e-03 1.789308641344e-03 0.0 
3.240350931212e-03 6.980108833756e-03 0.0 
1.063196177811e-03 5.890940577875e-03 0.0 
1.817876204002e-03 1.915074259630e-03 0.0 
2.951332714083e-04 1.837479124304e-03 0.0 
3.134758353206e-03 7.356196971710e-03 0.0 
8.858053943084e-04 9.600287834473e-05 0.0 
5.387955244146e-04 2.472823364253e-03 0.0 
1.231902007135e-03 -1.188270719231e-04 0.0 
5.185585145494e-05 -8.122778854616e-04 0.0 
1.002493639831e-03 4.557180163662e-03 0.0 
2.525375416778e-03 2.634695104102e-03 0.0 
3.310475326696e-03 3.586152779068e-03 0.0 
1.228661303444e-03 -6.050109185554e-05 0.0 
5.688018482003e-04 1.593037277731e-03 0.0 
7.207566367270e-04 6.898007734625e-05 0.0 
1.694330768555e-03 5.168165266521e-04 0.0 
-6.692655610496e-04 6.853087420944e-03 0.0 
2.036850893990e-03 9.074616507668e-03 0.0 
5.686375713808e-04 5.070750318588e-05 0.0 
2.609058085439e-03 1.314768682104e-03 0.0 
1.857305644656e-03 1.029618979017e-03 0.0 
1.886644304892e-04 -3.645325107876e-04 0.0 
1.053154048784e-03 1.018105966509e-03 0.0 
2.388409271534e-03 1.032702393576e-02 0.0 
4.309222186997e-04 3.914607049121e-05 0.0 
1.904473197516e-03 7.396199510023e-04 0.0 
3.089046674337e-03 5.196054750051e-03 0.0 
2.190806807065e-04 9.066523491362e-03 0.0 
2.734973304676e-04 4.515563895146e-05 0.0 
1.601888127055e-03 6.117279924932e-04 0.0 
2.978093039482e-03 3.896302053927e-03 0.0 
2.483849032370e-03 1.106919119265e-03 0.0 
2.043179301613e-03 1.037403619404e-02 0.0 
1.075590797161e-03 -9.773840944154e-05 0.0 
2.622399219407e-03 4.752320235226e-03 0.0 
2.097925049682e-04 7.293602057774e-04 0.0 
1.519521930559e-03 6.354303990971e-04 0.0 
1.594546669740e-03 5.436515236022e-03 0.0 
9.501508453578e-04 -1.849192136425e-04 0.0 
2.799272037153e-03 2.386612174783e-03 0.0 
8.179829320382e-05 -8.209697583441e-04 0.0 
2.235754008359e-03 9.785418832405e-03 0.0 
8.069135975684e-04 -1.980748514171e-04 0.0 
2.470315566947e-03 2.092645552155e-03 0.0 
2.309039452220e-03 8.538300651429e-04 0.0 
1.205371631196e-03 7.772615513435e-04 0.0 
6.651375897007e-04 -2.005521439839e-04 0.0 
2.653663575771e-03 2.004604649176e-03 0.0 
5.257562845286e-04 -1.947076911220e-04 0.0 
2.156276591506e-03 1.100838225341e-02 0.0 
1.648345393979e-03 4.926206273480e-03 0.0 
3.850241003516e-04 -1.828574827051e-04 0.0 
2.406534145806e-03 3.974795113007e-03 0.0 
1.267456861463e-04 -7.487014835189e-04 0.0 
2.914388685380e-03 3.355294888301e-03 0.0 
1.493335534058e-04 -6.567275439151e-06 0.0 
1.320984124954e-03 -7.788014389306e-05 0.0 
2.129699252097e-03 6.492821578275e-04 0.0 
1.468753965976e-03 3.987904436359e-03 0.0 
2.173056382914e-03 1.149953576692e-02 0.0 
2.039547536914e-03 6.178336993195e-04 0.0 
2.127913504119e-03 3.216821204081e-03 0.0 
2.813616899980e-03 2.857637759014e-03 0.0 
3.201304441591e-03 3.186114246447e-03 0.0 
1.894264551488e-03 5.736670308178e-04 0.0 
2.437886917361e-03 1.067965143215e-02 0.0 
7.699066550351e-04 -4.074909286022e-04 0.0 
6.081170726047e-04 -4.405433298322e-04 0.0 
2.547324251066e-03 1.576906060354e-03 0.0 
1.866839641936e-03 2.921866962778e-03 0.0 
8.188658261395e-05 -8.337407007114e-04 0.0 
1.707858537713e-03 3.954931124212e-03 0.0 
3.758235435975e-04 -3.606767882807e-04 0.0 
2.306389441179e-03 1.258405296592e-03 0.0 
2.310748498138e-03 1.916360912455e-03 0.0 
6.214712768135e-05 6.330291267351e-03 0.0 
2.200038485065e-03 9.418724324261e-04 0.0 
6.387882664863e-05 -7.706792971002e-04 0.0 
1.959229609052e-03 6.783473037999e-04 0.0 
3.030286517910e-03 2.783893703233e-03 0.0 
1.859366306566e-03 4.550466281798e-04 0.0 
1.629674664734e-03 2.422554510709e-04 0.0 
1.505083196257e-04 1.680671569114e-03 0.0 
1.535650245797e-03 9.152136878467e-05 0.0 
2.113598251649e-05 7.893719989663e-04 0.0 
4.531820087779e-05 2.006418367285e-05 0.0 
8.217667625504e-05 8.305736913046e-03 0.0 
2.033232716057e-03 1.189197349432e-02 0.0 
-1.219982527141e-03 2.547472015501e-03 0.0 
2.394048706900e-03 1.061676134766e-02 0.0 
1.180329003176e-03 -1.227672922098e-04 0.0 
1.950998266882e-03 3.879729185626e-03 0.0 
1.707270827913e-04 8.259568274304e-03 0.0 
9.690474549199e-04 -2.750577747164e-04 0.0 
7.767751060619e-04 1.351155467049e-03 0.0 
5.500651783865e-04 4.337928695678e-04 0.0 
1.102894976239e-04 4.815203416363e-03 0.0 
1.641129371956e-03 8.206001787383e-04 0.0 
2.667314377759e-03 2.388461033155e-03 0.0 
3.115585047742e-05 2.482387297692e-03 0.0 
5.098659234562e-04 9.144904104917e-03 0.0 
-6.839138178444e-05 -3.176672215500e-04 0.0 
1.142750794951e-04 -1.377830995649e-04 0.0 
1.768532353043e-03 1.185443641171e-02 0.0 
2.054371072008e-03 1.036649496631e-02 0.0 
1.531312803260e-03 9.062916609938e-03 0.0 
2.538366617626e-04 -6.795914884496e-04 0.0 
9.266115912701e-05 1.798304837993e-04 0.0 
1.441254966549e-03 1.119001118541e-02 0.0 
1.031645944918e-03 5.189673366549e-04 0.0 
8.560465280885e-04 8.224828092475e-03 0.0 
2.142583150087e-03 1.868199099834e-03 0.0 
6.520238612923e-04 9.650567951160e-03 0.0 
3.696312466808e-04 1.588534639992e-03 0.0 
1.124219832438e-03 8.306515381474e-04 0.0 
2.264771384412e-04 5.386735233014e-05 0.0 
1.682158328882e-03 1.349716647181e-03 0.0 
4.589207034571e-04 6.765645779161e-03 0.0 
1.252847259314e-03 7.283968988263e-03 0.0 
9.623857905464e-04 1.126741892859e-03 0.0 
1.481080894358e-04 4.026450708176e-03 0.0 
1.656338220580e-04 3.765051069178e-05 0.0 
1.081862170279e-03 8.286403741351e-03 0.0 
9.160095073586e-05 1.567821287174e-03 0.0 
6.767411195409e-04 1.389921746371e-03 0.0 
4.690597780983e-05 1.522553605146e-03 0.0 
1.668588183670e-03 3.030081406825e-03 0.0 
3.463049481398e-04 7.048965014938e-03 0.0 
1.508066758086e-03 7.234512706030e-03 0.0 
1.246129268104e-04 2.524004005953e-05 0.0 
6.661460328078e-04 1.432772047724e-03 0.0 
-2.243257286487e-04 5.511687783355e-03 0.0 
1.730562090440e-04 4.916173824127e-03 0.0 
4.285000015197e-04 -5.466542320150e-04 0.0 
-5.084345711410e-04 1.557875053656e-03 0.0 
5.592751757811e-04 1.394352950095e-04 0.0 
1.336717707500e-03 2.228451179767e-03 0.0 
2.079953667304e-04 3.522237748349e-05 0.0 
1.638317471136e-05 -8.631837943539e-04 0.0 
-1.700156933690e-05 -5.623311532940e-04 0.0 
6.231535099383e-04 1.847694607052e-04 0.0 
8.185331762453e-04 1.162863345471e-03 0.0 
8.504407612484e-04 9.055362801740e-04 0.0 
1.227961250349e-04 6.291966386331e-04 0.0 
-9.923680631149e-04 4.707359276802e-03 0.0 
6.986301455724e-04 9.247453058787e-03 0.0 
2.794121786335e-05 -7.317420977552e-04 0.0 
1.318797634871e-04 3.020874733262e-05 0.0 
2.179892241694e-04 1.492517566017e-03 0.0 
3.051173830098e-04 -5.042235801398e-04 0.0 
1.541093311525e-03 8.752077101377e-03 0.0 
1.489866406748e-04 -7.300576143186e-04 0.0 
1.431440727846e-03 1.398788775967e-03 0.0 
9.520735046499e-05 -2.311973125215e-04 0.0 
1.492702253126e-04 1.412046170900e-03 0.0 
7.143881124560e-04 2.524050369712e-04 0.0 
4.477874082171e-04 1.358245643139e-03 0.0 
4.198562173902e-04 2.325622619696e-04 0.0 
-7.636890939267e-04 3.010512778274e-03 0.0 
9.665179015777e-04 7.645663140699e-04 0.0 
1.193439950405e-03 4.890165379426e-04 0.0 
3.819449840190e-04 9.187195893059e-03 0.0 
5.704549999441e-04 1.430070818093e-03 0.0 
2.704335182119e-04 -6.294800570955e-04 0.0 
1.728996635550e-04 -7.692860596811e-04 0.0 
8.915636808629e-06 6.991439512660e-04 0.0 
-9.272854766798e-07 -8.744727676040e-04 0.0 
6.438656334606e-05 9.183302880519e-03 0.0 
1.760317138443e-05 1.498448385732e-05 0.0 
1.036995396115e-04 -8.226695687341e-04 0.0 
1.347980054983e-04 7.569433250894e-03 0.0 
7.406163093960e-04 1.156464747215e-03 0.0 
8.318048730753e-05 -3.555636329374e-04 0.0 
7.219866323586e-05 3.116394269276e-03 0.0 
3.391470613007e-04 3.185209229564e-04 0.0 
-1.131757803014e-03 1.861423688153e-03 0.0 
1.063652036327e-04 5.830852668069e-03 0.0 
1.010258993129e-03 6.822681988197e-04 0.0 
3.444170858954e-04 1.316816870360e-03 0.0 
2.763097238963e-04 6.503485328293e-03 0.0 
4.159112579277e-04 4.813062375357e-03 0.0 
1.047241929129e-03 1.643178103702e-03 0.0 
3.286997069922e-04 -4.436796235456e-04 0.0 
1.319137046316e-03 1.544358360817e-03 0.0 
1.316929091616e-03 6.436817182026e-04 0.0 
-1.692210504336e-03 5.024884688872e-03 0.0 
7.322719675351e-05 -2.785855490337e-04 0.0 
8.545811218148e-06 -6.797917301639e-04 0.0 
3.759502862032e-04 7.844593706193e-05 0.0 
2.194285116208e-04 -4.185226387223e-04 0.0 
-7.585051666480e-05 1.239959083563e-02 0.0 
5.039199408102e-05 1.750721984176e-02 0.0 
9.123548006410e-04 1.296834119070e-02 0.0 
4.147210898198e-05 1.649808237815e-02 0.0 
1.447330882175e-03 1.309811695120e-02 0.0 
4.084521278050e-05 1.549016107238e-02 0.0 
1.730240032461e-03 1.290017735082e-02 0.0 
4.142579469502e-05 1.448148441704e-02 0.0 
1.850335946837e-03 1.245690947361e-02 0.0 
4.196144451890e-05 1.347125614065e-02 0.0 
1.852321303015e-03 1.184523814211e-02 0.0 
4.284208882326e-05 1.245946138709e-02 0.0 
1.770904321933e-03 1.109496569138e-02 0.0 
4.309159667657e-05 1.144636531356e-02 0.0 
1.629241223784e-03 1.026330738319e-02 0.0 
4.322488092713e-05 1.043232517220e-02 0.0 

VECTORS node_materi_displacement float
0.0 8.057617490366e-02 0.0 
0.0 8.232113608126e-02 0.0 
0.0 0.0 0.0 
0.0 0.0 0.0 
0.0 8.046591873420e-02 0.0 
0.0 7.996916721909e-02 0.0 
0.0 7.908387310985e-02 0.0 
0.0 7.780455512879e-02 0.0 
0.0 7.611327849260e-02 0.0 
0.0 7.401896140227e-02 0.0 
0.0 7.152121094634e-02 0.0 
0.0 6.861409825821e-02 0.0 
0.0 6.529620240268e-02 0.0 
0.0 6.156092645978e-02 0.0 
0.0 5.739628978408e-02 0.0 
0.0 5.279815991683e-02 0.0 
0.0 4.776811239063e-02 0.0 
0.0 4.232228080874e-02 0.0 
0.0 3.641856906287e-02 0.0 
0.0 3.006149316035e-02 0.0 
0.0 2.324905507286e-02 0.0 
0.0 1.596757678776e-02 0.0 
0.0 8.209756186827e-03 0.0 
0.0 0.0 0.0 
0.0 0.0 0.0 
0.0 0.0 0.0 
0.0 0.0 0.0 
0.0 0.0 0.0 
0.0 0.0 0.0 
0.0 0.0 0.0 
0.0 0.0 0.0 
0.0 0.0 0.0 
0.0 0.0 0.0 
0.0 0.0 0.0 
0.0 0.0 0.0 
0.0 0.0 0.0 
0.0 0.0 0.0 
0.0 0.0 0.0 
0.0 0.0 0.0 
0.0 0.0 0.0 
0.0 0.0 0.0 
0.0 0.0 0.0 
0.0 0.0 0.0 
0.0 0.0 0.0 
0.0 0.0 0.0 
0.0 0.0 0.0 
0.0 0.0 0.0 
0.0 0.0 0.0 
0.0 0.0 0.0 
0.0 0.0 0.0 
0.0 0.0 0.0 
0.0 0.0 0.0 
0.0 0.0 0.0 
0.0 0.0 0.0 
0.0 0.0 0.0 
0.0 0.0 0.0 
0.0 0.0 0.0 
0.0 0.0 0.0 
0.0 0.0 0.0 
0.0 0.0 0.0 
0.0 0.0 0.0 
0.0 0.0 0.0 
0.0 0.0 0.0 
0.0 0.0 0.0 
0.0 0.0 0.0 
0.0 0.0 0.0 
0.0 0.0 0.0 
0.0 0.0 0.0 
0.0 0.0 0.0 
0.0 0.0 0.0 
0.0 0.0 0.0 
0.0 0.0 0.0 
0.0 7.596512410904e-02 0.0 
0.0 6.918729120673e-02 0.0 
0.0 6.198333421518e-02 0.0 
0.0 5.436733519221e-02 0.0 
0.0 4.632962120137e-02 0.0 
0.0 3.788124759634e-02 0.0 
0.0 2.902167159057e-02 0.0 
0.0 1.975247818061e-02 0.0 
0.0 1.007785143295e-02 0.0 
-4.883531209586e-03 9.473545987797e-02 0.0 
3.163716670227e-03 8.189082168432e-02 0.0 
-2.702701892214e-03 1.000184645630e-01 0.0 
-3.117827109134e-04 1.045409708898e-01 0.0 
1.692163876684e-03 1.059285797163e-01 0.0 
2.853196912149e-03 1.053181014862e-01 0.0 
3.506090869530e-03 1.034671784461e-01 0.0 
3.812246032664e-03 1.006302712503e-01 0.0 
3.873161397301e-03 9.695931745124e-02 0.0 
3.754906971031e-03 9.256172173807e-02 0.0 
3.503740890010e-03 8.751619991628e-02 0.0 
0.0 1.177472778301e-01 0.0 
0.0 1.148168430178e-01 0.0 
0.0 1.114473898904e-01 0.0 
0.0 1.076812372154e-01 0.0 
0.0 1.034531718020e-01 0.0 
0.0 9.882676314163e-02 0.0 
0.0 9.373834961081e-02 0.0 
0.0 8.825563532819e-02 0.0 
1.788218978100e-04 8.232315053574e-02 0.0 
3.465146124814e-04 8.232846844934e-02 0.0 
5.220623580719e-04 8.233517940209e-02 0.0 
7.007901764370e-04 8.233605761231e-02 0.0 
8.804226841114e-04 8.234747619887e-02 0.0 
1.066053529749e-03 8.234605675424e-02 0.0 
1.259399134490e-03 8.234859226727e-02 0.0 
1.452845963414e-03 8.234055152799e-02 0.0 
1.664684931042e-03 8.233688480754e-02 0.0 
1.886783695197e-03 8.231047620977e-02 0.0 
2.116942392624e-03 8.227162120559e-02 0.0 
2.359357141398e-03 8.222031247516e-02 0.0 
2.612732595691e-03 8.214245780163e-02 0.0 
2.879575451993e-03 8.203082017074e-02 0.0 
-4.400191074322e-03 9.195778393212e-02 0.0 
-3.819467779626e-03 8.978370065755e-02 0.0 
-3.245327457786e-03 8.802163907079e-02 0.0 
-2.734107816933e-03 8.659761337850e-02 0.0 
-2.281628616662e-03 8.544988852211e-02 0.0 
-1.875811999534e-03 8.449593213403e-02 0.0 
-1.518208748474e-03 8.370267487022e-02 0.0 
-1.213096631860e-03 8.304811330102e-02 0.0 
-9.531496563136e-04 8.250992500090e-02 0.0 
-7.331099444334e-04 8.207598135861e-02 0.0 
-5.598024848996e-04 8.171430014862e-02 0.0 
-4.053528671999e-04 8.143689091763e-02 0.0 
-2.665769276908e-04 8.119573224929e-02 0.0 
-1.820951227215e-04 8.099961311250e-02 0.0 
-1.276975966362e-04 8.085801066618e-02 0.0 
-8.011332979463e-05 8.075093779313e-02 0.0 
-4.018104001606e-05 8.066950170120e-02 0.0 
-9.235939667445e-06 8.061603431427e-02 0.0 
-9.151880401415e-06 8.057676171562e-02 0.0 
-3.959670865601e-04 1.076220787811e-01 0.0 
-7.564942329418e-05 1.097527760108e-01 0.0 
1.603598107294e-04 1.114153639644e-01 0.0 
4.053554161016e-04 1.127451409194e-01 0.0 
6.414462474180e-04 1.138204305641e-01 0.0 
8.536190866516e-04 1.146856844021e-01 0.0 
1.037815048123e-03 1.153845765575e-01 0.0 
1.190468775721e-03 1.159458626109e-01 0.0 
1.311459287065e-03 1.163948790343e-01 0.0 
1.401049166558e-03 1.167509360082e-01 0.0 
1.460733115869e-03 1.170305820563e-01 0.0 
1.492244149751e-03 1.172472825581e-01 0.0 
1.497707091393e-03 1.174124618213e-01 0.0 
1.479339879705e-03 1.175356880679e-01 0.0 
1.439446493705e-03 1.176250829835e-01 0.0 
1.380300270814e-03 1.176874906332e-01 0.0 
1.304091251160e-03 1.177286770237e-01 0.0 
1.212889605328e-03 1.177534925000e-01 0.0 
1.108667295066e-03 1.177660215134e-01 0.0 
9.933498700865e-04 1.177696902994e-01 0.0 
8.689097590906e-04 1.177673607746e-01 0.0 
7.375252291484e-04 1.177614199118e-01 0.0 
6.018467667361e-04 1.177538807863e-01 0.0 
4.654174406675e-04 1.177466332719e-01 0.0 
3.331632964605e-04 1.177437357294e-01 0.0 
2.058545438960e-04 1.177735584066e-01 0.0 
1.617187776012e-03 1.077893207472e-01 0.0 
1.614048725862e-03 1.092720778886e-01 0.0 
1.617961249854e-03 1.104448774322e-01 0.0 
1.647242039952e-03 1.114050433478e-01 0.0 
1.680626660354e-03 1.121730943420e-01 0.0 
1.713457799368e-03 1.127954018447e-01 0.0 
1.737632311347e-03 1.132925397479e-01 0.0 
1.750239201062e-03 1.136892723539e-01 0.0 
1.748860935242e-03 1.140020979793e-01 0.0 
1.732671275130e-03 1.142463395937e-01 0.0 
1.701354122941e-03 1.144339475988e-01 0.0 
1.655229537772e-03 1.145753769255e-01 0.0 
1.594924531453e-03 1.146792722491e-01 0.0 
1.521320059256e-03 1.147530232294e-01 0.0 
1.435456494201e-03 1.148028536040e-01 0.0 
1.338488865420e-03 1.148340418738e-01 0.0 
1.231624858713e-03 1.148510334383e-01 0.0 
1.116101029209e-03 1.148575840764e-01 0.0 
9.931829443381e-04 1.148568767671e-01 0.0 
8.641784962076e-04 1.148516255008e-01 0.0 
7.304376070690e-04 1.148441687398e-01 0.0 
5.932932819647e-04 1.148365378203e-01 0.0 
4.537754688013e-04 1.148303537766e-01 0.0 
3.111840146709e-04 1.148248246232e-01 0.0 
1.574827557621e-04 1.147969726502e-01 0.0 
1.564255812511e-04 1.114795433011e-01 0.0 
3.126411954094e-04 1.114714893922e-01 0.0 
4.648405470738e-04 1.114781312255e-01 0.0 
6.139463744320e-04 1.114863310706e-01 0.0 
7.604190351932e-04 1.114955367037e-01 0.0 
9.040894868635e-04 1.115044745183e-01 0.0 
1.044425110423e-03 1.115112345164e-01 0.0 
1.180723554040e-03 1.115134045494e-01 0.0 
1.312251202777e-03 1.115080640248e-01 0.0 
1.438304483243e-03 1.114917339900e-01 0.0 
1.558252175598e-03 1.114602681995e-01 0.0 
1.671563798696e-03 1.114087210877e-01 0.0 
1.777857130143e-03 1.113311608471e-01 0.0 
1.877082255077e-03 1.112205875890e-01 0.0 
1.969435308472e-03 1.110686895889e-01 0.0 
2.055728609951e-03 1.108657646344e-01 0.0 
2.136821935670e-03 1.105998420561e-01 0.0 
2.215342620384e-03 1.102575780499e-01 0.0 
2.292871793235e-03 1.098207049318e-01 0.0 
2.376240106605e-03 1.092717310310e-01 0.0 
2.466155447941e-03 1.085770250227e-01 0.0 
2.581585675781e-03 1.077248273847e-01 0.0 
2.697235788610e-03 1.066449118522e-01 0.0 
3.296638763271e-03 1.043916413020e-01 0.0 
3.116972153701e-03 1.051638593480e-01 0.0 
2.934111691091e-03 1.057648609966e-01 0.0 
2.772087727903e-03 1.062571264553e-01 0.0 
2.618315153002e-03 1.066417774692e-01 0.0 
2.473420251910e-03 1.069467706443e-01 0.0 
2.332651507250e-03 1.071813413034e-01 0.0 
2.194837454633e-03 1.073605450762e-01 0.0 
2.057949454580e-03 1.074934326798e-01 0.0 
1.920843087349e-03 1.075893208991e-01 0.0 
1.782535198092e-03 1.076554400112e-01 0.0 
1.642656192512e-03 1.076984066633e-01 0.0 
1.501016504081e-03 1.077235643900e-01 0.0 
1.357541474563e-03 1.077353922529e-01 0.0 
1.212279324460e-03 1.077376682065e-01 0.0 
1.065371746047e-03 1.077335416656e-01 0.0 
9.170386027554e-04 1.077256384841e-01 0.0 
7.674048677154e-04 1.077159715219e-01 0.0 
6.164277332138e-04 1.077059759702e-01 0.0 
4.638555885686e-04 1.076963726907e-01 0.0 
3.095450272610e-04 1.076861275650e-01 0.0 
1.547173093251e-04 1.076567704403e-01 0.0 
1.621073216859e-04 1.034838924106e-01 0.0 
3.246157576096e-04 1.034739116436e-01 0.0 
4.869385755464e-04 1.034826691291e-01 0.0 
6.489976746418e-04 1.034929667138e-01 0.0 
8.110340648071e-04 1.035034809393e-01 0.0 
9.733731989236e-04 1.035133065474e-01 0.0 
1.136366884854e-03 1.035209557428e-01 0.0 
1.300173976205e-03 1.035244033047e-01 0.0 
1.464973637669e-03 1.035206981789e-01 0.0 
1.631150732567e-03 1.035063310552e-01 0.0 
1.799258964169e-03 1.034770621419e-01 0.0 
1.969856947536e-03 1.034279902480e-01 0.0 
2.143545385959e-03 1.033532238048e-01 0.0 
2.321014752413e-03 1.032448268268e-01 0.0 
2.504622664943e-03 1.030948370052e-01 0.0 
2.695107173213e-03 1.028924015542e-01 0.0 
2.896995641657e-03 1.026292153504e-01 0.0 
3.107201104258e-03 1.022844054948e-01 0.0 
3.337876785850e-03 1.018573745222e-01 0.0 
3.565374183479e-03 1.013011516751e-01 0.0 
3.611826429109e-03 9.741909858369e-02 0.0 
3.366189211186e-03 9.780674755194e-02 0.0 
3.114518296834e-03 9.809443227884e-02 0.0 
2.881800108951e-03 9.833050855009e-02 0.0 
2.659196991568e-03 9.850551167277e-02 0.0 
2.448611449991e-03 9.863824037840e-02 0.0 
2.245667038922e-03 9.873160416539e-02 0.0 
2.050056842340e-03 9.879656052025e-02 0.0 
1.860820624054e-03 9.883924884704e-02 0.0 
1.677309062991e-03 9.886458450334e-02 0.0 
1.498644708103e-03 9.887664797084e-02 0.0 
1.323582169731e-03 9.887917784602e-02 0.0 
1.151809781537e-03 9.887565742424e-02 0.0 
9.829657781214e-04 9.886871347968e-02 0.0 
8.164195395828e-04 9.885967690025e-02 0.0 
6.515257885319e-04 9.884988987305e-02 0.0 
4.879116765882e-04 9.884013090223e-02 0.0 
3.249220625815e-04 9.882989211577e-02 0.0 
1.623320348753e-04 9.880142055993e-02 0.0 
1.702976080741e-04 9.376783208302e-02 0.0 
3.410176189984e-04 9.375740184929e-02 0.0 
5.118671689749e-04 9.376597471574e-02 0.0 
6.849319432139e-04 9.377474805974e-02 0.0 
8.600167501123e-04 9.378373332395e-02 0.0 
1.038554308492e-03 9.379120456162e-02 0.0 
1.221036428107e-03 9.379599220854e-02 0.0 
1.409233093260e-03 9.379677492941e-02 0.0 
1.602141032817e-03 9.379154649687e-02 0.0 
1.801960860267e-03 9.377412702384e-02 0.0 
2.010380808316e-03 9.374144829315e-02 0.0 
2.227543136669e-03 9.368998488952e-02 0.0 
2.454758001518e-03 9.361362149580e-02 0.0 
2.693774838160e-03 9.350665038825e-02 0.0 
2.941619005783e-03 9.335084701617e-02 0.0 
3.210868382554e-03 9.315365003733e-02 0.0 
3.476257679486e-03 9.288209919770e-02 0.0 
3.232286929557e-03 8.772574094085e-02 0.0 
2.973175286357e-03 8.791488035818e-02 0.0 
2.709620674251e-03 8.803338761217e-02 0.0 
2.463409427800e-03 8.812671496782e-02 0.0 
2.230143144420e-03 8.819244219069e-02 0.0 
2.007035273267e-03 8.823682859811e-02 0.0 
1.794402999066e-03 8.826744286935e-02 0.0 
1.591959364230e-03 8.828344824752e-02 0.0 
1.395832506556e-03 8.828579468477e-02 0.0 
1.208422278685e-03 8.828840313401e-02 0.0 
1.025716289862e-03 8.828461757196e-02 0.0 
8.493281255227e-04 8.827992680488e-02 0.0 
6.749741128493e-04 8.827142143274e-02 0.0 
5.049882506691e-04 8.826551333339e-02 0.0 
3.374782594654e-04 8.825492315825e-02 0.0 
1.664792304052e-04 8.822440766451e-02 0.0 
-3.817075233594e-03 9.732279330792e-02 0.0 
-1.496323482586e-03 1.025180006465e-01 0.0 
8.694570446669e-04 1.055454224981e-01 0.0 
2.375145537711e-03 1.058002020164e-01 0.0 
3.248347757309e-03 1.045265327046e-01 0.0 
3.702359061680e-03 1.021558314000e-01 0.0 
3.880501780338e-03 9.889188736750e-02 0.0 
3.843694608445e-03 9.484803451191e-02 0.0 
3.652558670489e-03 9.011730674312e-02 0.0 
3.351015869224e-03 8.477321135295e-02 0.0 
9.538409539986e-04 1.007876962806e-01 0.0 
1.056942524533e-03 7.584985607502e-03 0.0 
-4.320284093712e-04 8.211619203047e-02 0.0 
-1.490994825776e-03 8.582031997502e-02 0.0 
7.479827881349e-04 7.339551322675e-03 0.0 
3.553350138232e-03 1.026413432156e-01 0.0 
2.627426914905e-04 5.945843192207e-02 0.0 
1.192070609906e-03 7.879583323260e-03 0.0 
4.296104140199e-03 9.816496850643e-02 0.0 
1.127517014266e-03 7.955826462448e-03 0.0 
4.122774337666e-03 9.010576134572e-02 0.0 
4.383507197117e-04 6.655091643098e-03 0.0 
-4.248977630293e-05 8.095298898857e-02 0.0 
9.622444626920e-04 8.324286970908e-03 0.0 
3.432909764480e-03 7.921792497878e-02 0.0 
1.856900229299e-04 7.274283741121e-02 0.0 
2.758171099230e-04 4.621766197180e-02 0.0 
8.155034913952e-04 8.830840964312e-03 0.0 
5.365268355396e-04 8.535764584601e-03 0.0 
1.583802454521e-04 8.644649624338e-03 0.0 
2.828573744565e-04 9.376990073788e-03 0.0 
3.793914315280e-04 8.380622628597e-03 0.0 
2.752137046386e-03 7.646585339999e-02 0.0 
1.771393857958e-03 7.659689321124e-02 0.0 
1.155522522807e-03 7.647421039054e-02 0.0 
1.134738264967e-04 5.028072174937e-02 0.0 
2.632418322393e-04 7.176141900920e-03 0.0 
-2.369414028950e-03 9.070214092995e-02 0.0 
2.305258508283e-05 8.059660326233e-02 0.0 
1.915635749777e-04 2.723982480351e-02 0.0 
5.907728745610e-04 7.689169052018e-02 0.0 
9.991654553610e-05 7.852018283903e-02 0.0 
7.516993900558e-04 9.799667983411e-03 0.0 
1.089579301150e-03 7.302501583102e-03 0.0 
1.042698742308e-03 8.034976157837e-03 0.0 
1.215521255899e-03 8.188862474095e-03 0.0 
8.951746937101e-04 7.108988909324e-03 0.0 
-9.601129957761e-04 8.387002830432e-02 0.0 
2.235896786390e-03 7.690829564065e-02 0.0 
6.931755935763e-04 8.309263152321e-03 0.0 
7.878450285782e-05 3.388472612284e-02 0.0 
-2.014610060652e-04 8.141183704191e-02 0.0 
2.400699579192e-04 6.701158866476e-02 0.0 
7.426014557913e-05 7.039173502231e-03 0.0 
4.099605053698e-03 1.008203763602e-01 0.0 
2.594634945615e-03 1.029221194864e-01 0.0 
4.295176940017e-03 9.454902529910e-02 0.0 
3.822709636142e-03 8.498030403006e-02 0.0 
-1.546573269133e-03 9.669596961041e-02 0.0 
1.384665584076e-04 6.477972517435e-02 0.0 
1.243070931511e-04 5.670451253789e-03 0.0 
2.801651082446e-06 8.051558894166e-02 0.0 
4.122560332907e-05 1.570240403153e-02 0.0 
3.249664107170e-03 7.606335921091e-02 0.0 
3.450189413950e-03 7.322608168031e-02 0.0 
3.151105851631e-03 7.028834606941e-02 0.0 
3.394693371308e-03 6.686711047472e-02 0.0 
3.092870969114e-03 6.320185663378e-02 0.0 
3.274751587422e-03 5.996652961431e-02 0.0 
3.606173686485e-03 6.365297486382e-02 0.0 
3.438110053039e-03 5.664676631896e-02 0.0 
3.798037892242e-03 6.041017266354e-02 0.0 
2.944127132769e-03 5.605016439259e-02 0.0 
3.575053379242e-03 5.324065911846e-02 0.0 
3.963864958634e-03 5.707291476583e-02 0.0 
3.680863178487e-03 4.976792406198e-02 0.0 
4.095363522262e-03 5.364234700942e-02 0.0 
4.345162148614e-03 6.074325102661e-02 0.0 
4.502558930887e-03 5.738027100457e-02 0.0 
4.712547378838e-03 6.422386195278e-02 0.0 
4.894300585212e-03 6.091537117718e-02 0.0 
4.618333418022e-03 5.395512621351e-02 0.0 
5.030894861915e-03 5.754577937976e-02 0.0 
5.264921796270e-03 6.425040277446e-02 0.0 
5.418704614495e-03 6.092688779584e-02 0.0 
5.608238285357e-03 6.736520167425e-02 0.0 
5.774796794945e-03 6.406536158577e-02 0.0 
5.920875549273e-03 7.026942468299e-02 0.0 
6.094469785998e-03 6.698091945719e-02 0.0 
5.879544877939e-03 6.070647401629e-02 0.0 
6.201084539724e-03 6.365482947031e-02 0.0 
6.368297952803e-03 6.964704268112e-02 0.0 
6.470989873525e-03 6.635293079392e-02 0.0 
6.588010728529e-03 7.205517524883e-02 0.0 
6.679803334913e-03 6.878780284514e-02 0.0 
6.496265919682e-03 6.302984460669e-02 0.0 
6.689455267767e-03 6.551749279888e-02 0.0 
6.817296225081e-03 7.096525163739e-02 0.0 
6.804748451880e-03 6.774953342093e-02 0.0 
6.871492093446e-03 7.287615594652e-02 0.0 
6.832155821899e-03 6.972129097735e-02 0.0 
6.831357114340e-03 7.450912168179e-02 0.0 
6.761908021473e-03 7.144542117450e-02 0.0 
6.713722353737e-03 6.657925760132e-02 0.0 
6.618198518154e-03 6.840491060753e-02 0.0 
6.586002633079e-03 7.293996092051e-02 0.0 
6.421160359589e-03 7.002875185844e-02 0.0 
6.410608975878e-03 6.543237998173e-02 0.0 
6.199898548082e-03 6.720537758484e-02 0.0 
6.149332270786e-03 6.252636828935e-02 0.0 
5.932359809636e-03 6.445456082770e-02 0.0 
5.899566449432e-03 6.877641356730e-02 0.0 
5.633254598219e-03 6.618803303191e-02 0.0 
5.627763038618e-03 6.175690582039e-02 0.0 
5.334696454774e-03 6.368280790552e-02 0.0 
5.260223193335e-03 6.779579596078e-02 0.0 
4.978646034364e-03 6.543676900469e-02 0.0 
5.012681660238e-03 6.120207919880e-02 0.0 
4.673448000215e-03 6.313707261421e-02 0.0 
4.571406409894e-03 6.707416552025e-02 0.0 
4.290946871652e-03 6.493180229105e-02 0.0 
4.353259971960e-03 6.081817980256e-02 0.0 
3.992991981821e-03 6.281234634409e-02 0.0 
3.876176627951e-03 6.662745202995e-02 0.0 
3.607225257439e-03 6.465860209593e-02 0.0 
3.683367055975e-03 6.065920937348e-02 0.0 
3.322624647038e-03 6.269307225716e-02 0.0 
3.361972724929e-03 5.850069396797e-02 0.0 
3.199700996261e-03 6.644018251260e-02 0.0 
2.946102821233e-03 6.461510685792e-02 0.0 
2.786099599290e-03 6.814310673678e-02 0.0 
2.564577605306e-03 6.643607014850e-02 0.0 
6.444037168675e-03 5.969561766228e-02 0.0 
2.383606047026e-03 6.972110305727e-02 0.0 
2.559871456470e-03 7.121028410013e-02 0.0 
2.189120542488e-03 6.815267039534e-02 0.0 
2.324648926024e-03 6.469342620190e-02 0.0 
1.996000618579e-03 7.119796821767e-02 0.0 
1.827159529988e-03 6.976245385901e-02 0.0 
1.632160178366e-03 7.257527638176e-02 0.0 
6.810386690198e-03 7.780967805459e-02 0.0 
4.683905599381e-03 5.046313908400e-02 0.0 
1.486179405807e-03 7.126883851580e-02 0.0 
1.300025716103e-03 7.385215628778e-02 0.0 
1.394943313881e-03 7.498734781356e-02 0.0 
1.079777605618e-03 7.603562377610e-02 0.0 
2.789417021166e-03 5.944337617248e-02 0.0 
2.608958443986e-03 5.197180395499e-02 0.0 
2.481975951664e-03 5.550385887375e-02 0.0 
2.273553353229e-03 4.777164994447e-02 0.0 
2.172682279525e-03 5.136863598167e-02 0.0 
1.002376384421e-03 7.502766242330e-02 0.0 
3.262082896107e-03 4.555114734046e-02 0.0 
2.351655935433e-03 4.404817695299e-02 0.0 
5.387614755189e-03 7.060415710211e-02 0.0 
6.415354158794e-03 7.529816211748e-02 0.0 
6.276014654767e-03 6.040976486125e-02 0.0 
1.635266185528e-03 6.828182268913e-02 0.0 
1.313462377311e-03 6.991592563464e-02 0.0 
1.423662476652e-03 6.675163699148e-02 0.0 
3.671320870432e-03 5.620194314519e-02 0.0 
3.317949965130e-03 5.387272119534e-02 0.0 
3.569153512362e-03 5.129512867459e-02 0.0 
3.190727584345e-03 4.880342346617e-02 0.0 
3.377395089690e-03 4.594342878327e-02 0.0 
2.981069202896e-03 4.328908043021e-02 0.0 
2.814285727378e-03 4.628620785695e-02 0.0 
2.592214131547e-03 4.059971653953e-02 0.0 
2.443762401628e-03 4.373217187282e-02 0.0 
3.096894860593e-03 4.014727472043e-02 0.0 
3.511853790731e-03 4.293498361449e-02 0.0 
2.215166205742e-03 3.787163868190e-02 0.0 
2.083048822887e-03 4.113016150806e-02 0.0 
1.853859998985e-03 3.509201170658e-02 0.0 
1.736075744598e-03 3.847483041759e-02 0.0 
1.909045995113e-03 4.425478962609e-02 0.0 
1.575983805822e-03 4.172338631598e-02 0.0 
1.701414904261e-03 4.724520232182e-02 0.0 
5.976952047776e-03 5.741689431293e-02 0.0 
6.021061182937e-03 5.495440139314e-02 0.0 
5.685366433262e-03 5.187426998759e-02 0.0 
5.646028926523e-03 4.907046363984e-02 0.0 
5.274895870473e-03 4.589609899647e-02 0.0 
5.150609032285e-03 4.276165483883e-02 0.0 
4.744207627526e-03 3.948135479687e-02 0.0 
4.869437210576e-03 4.274788781778e-02 0.0 
3.753492647311e-03 4.619555351757e-02 0.0 
6.300325556577e-03 7.420230690082e-02 0.0 
6.418144196947e-03 7.706329370772e-02 0.0 
6.037148803536e-03 7.795725637889e-02 0.0 
6.101513999454e-03 8.076457731113e-02 0.0 
5.615539345694e-03 8.127942849424e-02 0.0 
5.616249356718e-03 8.405240064323e-02 0.0 
5.010556527979e-03 8.418521538179e-02 0.0 
5.018614760798e-03 8.160980053765e-02 0.0 
4.293883422406e-03 8.415734664987e-02 0.0 
4.333441953433e-03 8.181802984099e-02 0.0 
3.505871641836e-03 8.402589661379e-02 0.0 
3.593261090648e-03 8.195679434768e-02 0.0 
5.916937604014e-03 5.730884891186e-02 0.0 
5.517298662225e-03 4.605339750820e-02 0.0 
4.937738797102e-03 3.941385681721e-02 0.0 
5.300469090109e-03 4.281561817609e-02 0.0 
1.121251994472e-03 7.700096537714e-02 0.0 
1.406074021901e-03 3.575747239878e-02 0.0 
3.152813297322e-03 3.684916903598e-02 0.0 
3.586503657193e-03 3.982188704685e-02 0.0 
4.308073272063e-03 3.621666028288e-02 0.0 
8.068726495975e-04 7.698423140386e-02 0.0 
4.933240410169e-03 8.692854303408e-02 0.0 
5.529552461263e-03 8.700049070490e-02 0.0 
1.945585407639e-03 4.337177314932e-02 0.0 
1.870977604210e-03 4.706529130237e-02 0.0 
3.140223410736e-03 3.339583772335e-02 0.0 
7.423216111876e-04 7.609875525523e-02 0.0 
2.296618714166e-03 3.447311475333e-02 0.0 
3.345865905213e-03 8.627396708111e-02 0.0 
1.256940347451e-03 3.913117528316e-02 0.0 
1.096244526274e-03 3.297737504235e-02 0.0 
2.605914679106e-03 4.913209735852e-02 0.0 
4.638041324258e-03 3.584493885166e-02 0.0 
5.010557980199e-03 3.946406712512e-02 0.0 
4.323607780086e-03 7.961544041572e-02 0.0 
3.630544902810e-03 8.001558576253e-02 0.0 
2.840549721527e-03 8.205372628713e-02 0.0 
2.955556693010e-03 8.027533863950e-02 0.0 
3.626216793010e-03 7.813494951685e-02 0.0 
2.987733233225e-03 7.869144876879e-02 0.0 
2.292121849521e-03 8.057820874998e-02 0.0 
2.376295918991e-03 7.919843760730e-02 0.0 
2.981070654166e-03 7.711812092414e-02 0.0 
2.417639733427e-03 7.781676460277e-02 0.0 
1.810771403736e-03 7.966943116573e-02 0.0 
1.897638742882e-03 7.845837435020e-02 0.0 
1.193586397493e-03 2.933825588761e-02 0.0 
2.460462374620e-03 8.580950368959e-02 0.0 
4.493767070429e-03 6.744733637337e-02 0.0 
2.700016227493e-03 3.031191522599e-02 0.0 
4.100178670282e-03 3.272284247266e-02 0.0 
1.630330877027e-03 3.881204942350e-02 0.0 
1.580435797343e-03 4.260331030434e-02 0.0 
1.777630589492e-03 5.071731835956e-02 0.0 
1.508919982256e-03 4.632967176808e-02 0.0 
1.304503887356e-03 3.797952285308e-02 0.0 
1.253848400987e-03 4.180278906514e-02 0.0 
1.419377528345e-03 4.999404627396e-02 0.0 
1.183637842633e-03 4.555377536257e-02 0.0 
1.315171871895e-03 5.357923958759e-02 0.0 
1.097433047785e-03 4.922509377332e-02 0.0 
9.635322544870e-04 4.097007808587e-02 0.0 
8.936880335868e-04 4.473903395117e-02 0.0 
9.980428111159e-04 5.282065085014e-02 0.0 
8.082627831447e-04 4.842885734091e-02 0.0 
8.867752343602e-04 5.633141551257e-02 0.0 
7.094419535936e-04 5.203468136135e-02 0.0 
6.346740664977e-04 4.390638454939e-02 0.0 
5.872895958838e-04 7.776918650845e-02 0.0 
4.439214653369e-03 3.962296876548e-02 0.0 
3.850802188004e-03 3.295574073933e-02 0.0 
1.124465678625e-03 6.850553669483e-02 0.0 
1.210250876210e-03 6.516040702351e-02 0.0 
1.498583734550e-03 6.316956377054e-02 0.0 
1.235174937003e-03 6.141281170428e-02 0.0 
5.475496458594e-04 4.764764217546e-02 0.0 
4.753200941918e-04 3.926179949927e-02 0.0 
4.769494193000e-03 8.985871285192e-02 0.0 
5.335792307398e-03 9.011891121521e-02 0.0 
1.654209109389e-03 3.495188936358e-02 0.0 
9.544991048189e-04 3.647370738146e-02 0.0 
1.073495968987e-03 4.236919647777e-02 0.0 
6.583401584254e-03 7.740334745388e-02 0.0 
6.339631662611e-03 8.059694854862e-02 0.0 
6.451416689429e-03 8.241262989304e-02 0.0 
6.128670944586e-03 8.566311722481e-02 0.0 
6.021217165869e-03 8.374431352413e-02 0.0 
6.174482692323e-03 8.721243100077e-02 0.0 
3.933160520525e-03 4.580047878728e-02 0.0 
7.618319977189e-04 3.625221553368e-02 0.0 
1.455585760281e-03 7.608400831543e-02 0.0 
1.120335966792e-03 7.793086584072e-02 0.0 
8.116697259565e-04 3.012733272946e-02 0.0 
4.908866844821e-03 4.583160753659e-02 0.0 
5.546764445124e-03 5.406388250495e-02 0.0 
5.513655064100e-03 5.057067524851e-02 0.0 
5.092818606799e-03 4.702135555630e-02 0.0 
4.987614545521e-03 4.343722365771e-02 0.0 
4.514428463831e-03 3.958101189607e-02 0.0 
4.332251823399e-03 3.589854667281e-02 0.0 
4.814987538559e-03 3.983218597532e-02 0.0 
4.252792118833e-03 3.201751359670e-02 0.0 
4.083064685751e-03 3.217974852176e-02 0.0 
6.102647273772e-04 5.562480654005e-02 0.0 
5.840418421025e-03 4.943003058095e-02 0.0 
2.933603833260e-03 7.556769286453e-02 0.0 
6.106370458323e-04 7.848341051195e-02 0.0 
1.292144933726e-03 8.012993838925e-02 0.0 
5.229239990872e-04 7.704989987354e-02 0.0 
6.453370992199e-04 7.515691429848e-02 0.0 
2.595171048516e-03 2.655054253733e-02 0.0 
3.805883162809e-03 3.173989711793e-02 0.0 
4.004389433203e-03 3.551178562056e-02 0.0 
5.729921537729e-03 8.877769554597e-02 0.0 
5.640704475833e-03 8.678337880479e-02 0.0 
3.841113873832e-03 2.844764226916e-02 0.0 
2.338756282431e-03 5.902751356906e-02 0.0 
1.543995933525e-03 5.779938964557e-02 0.0 
1.411849023532e-03 6.120695988113e-02 0.0 
3.902349299807e-04 7.865475323934e-02 0.0 
1.140221534255e-03 8.110710055691e-02 0.0 
1.047101470165e-03 3.321375952200e-02 0.0 
5.965266877558e-03 8.684639664159e-02 0.0 
5.733795889438e-03 9.005012362502e-02 0.0 
2.146713722840e-03 8.795685883281e-02 0.0 
1.181752578525e-03 8.717976118224e-02 0.0 
4.011451618586e-04 4.301020537587e-02 0.0 
3.397574033756e-04 3.448288009131e-02 0.0 
1.526204230286e-03 5.917651352134e-02 0.0 
1.243651852021e-03 5.723691576733e-02 0.0 
3.050981185349e-03 2.975298457530e-02 0.0 
1.433501404858e-03 7.903624195424e-02 0.0 
3.895529395583e-04 3.048546732562e-02 0.0 
4.484916897368e-03 4.283158247432e-02 0.0 
4.865313234140e-03 4.873151571223e-02 0.0 
9.513927201159e-04 6.354212527049e-02 0.0 
4.482581106576e-03 9.300702869050e-02 0.0 
3.762758780756e-03 9.230191162746e-02 0.0 
3.478754527258e-03 7.461759785481e-02 0.0 
1.932302367962e-03 7.725036421262e-02 0.0 
4.331966096586e-04 7.622908383188e-02 0.0 
2.406159671363e-03 2.260989449952e-02 0.0 
1.053173891352e-03 2.922779866469e-02 0.0 
4.573063869910e-03 3.620004571764e-02 0.0 
5.244661989618e-03 4.355294707395e-02 0.0 
3.771243007693e-03 2.845380435814e-02 0.0 
8.892325905889e-04 8.043312802369e-02 0.0 
2.152403585443e-03 2.331171708566e-02 0.0 
6.760429291333e-04 3.374642850524e-02 0.0 
3.275361395093e-03 2.773534786796e-02 0.0 
3.461636282805e-03 3.122991210467e-02 0.0 
6.251567455127e-03 8.640090329930e-02 0.0 
5.992602988131e-03 8.955903955745e-02 0.0 
5.374632875570e-03 9.330790914989e-02 0.0 
5.603130995050e-03 9.276772204007e-02 0.0 
3.928521473091e-03 6.720907882517e-02 0.0 
6.414542803401e-03 8.556518149343e-02 0.0 
4.817913078538e-03 7.067955177894e-02 0.0 
4.546496562338e-03 7.375731841877e-02 0.0 
4.821516809876e-03 7.674342761703e-02 0.0 
5.859531411022e-03 8.164358339715e-02 0.0 
5.493805990296e-03 8.461545829629e-02 0.0 
6.460068500161e-03 8.005943971377e-02 0.0 
6.310220406629e-03 5.808308704638e-02 0.0 
1.804109161072e-03 6.105726462594e-02 0.0 
2.030123703174e-03 4.957380846015e-02 0.0 
3.945593571373e-03 5.376791507106e-02 0.0 
7.974377813997e-04 3.231321868935e-02 0.0 
6.018135735049e-04 2.735951430922e-02 0.0 
1.076625069313e-03 6.049723327521e-02 0.0 
9.448285533075e-04 6.382551486489e-02 0.0 
8.196560284550e-04 7.862062046002e-02 0.0 
7.624540886314e-04 7.938489578867e-02 0.0 
3.032945389307e-03 5.632082053832e-02 0.0 
2.273502211188e-03 2.720160281589e-02 0.0 
1.330930585083e-03 3.014795696660e-02 0.0 
1.297752359602e-03 2.611573664160e-02 0.0 
1.646639220098e-03 3.101126787485e-02 0.0 
2.877156672988e-03 2.591596909210e-02 0.0 
5.911727104612e-03 7.526605732746e-02 0.0 
5.637281491877e-03 5.448437662983e-02 0.0 
1.592838762215e-03 8.537217983671e-02 0.0 
6.196600199509e-03 5.691944847656e-02 0.0 
5.090224026146e-04 7.984552682761e-02 0.0 
4.235166616209e-03 4.665753142908e-02 0.0 
5.578389067413e-04 2.720518290755e-02 0.0 
6.447806218241e-04 2.332308047184e-02 0.0 
3.376204835631e-03 2.433433638417e-02 0.0 
3.705942727881e-03 7.645043253642e-02 0.0 
6.082395816656e-03 5.350706117940e-02 0.0 
6.318541943041e-03 5.638348053973e-02 0.0 
4.508556568721e-03 7.965422834073e-02 0.0 
4.730611589124e-03 8.240464020134e-02 0.0 
5.069943895395e-03 7.952506547666e-02 0.0 
4.921093631923e-03 8.499861089037e-02 0.0 
3.350871550920e-03 7.293205641160e-02 0.0 
2.846495110918e-03 7.405730970029e-02 0.0 
2.928003797884e-03 2.322958691459e-02 0.0 
3.246200697862e-03 2.439128680799e-02 0.0 
2.708199612806e-03 2.339450637571e-02 0.0 
2.898631637148e-03 2.671506411231e-02 0.0 
2.908788442888e-03 2.064623681702e-02 0.0 
3.384919509648e-03 2.486394961011e-02 0.0 
5.173957961842e-04 7.415458226824e-02 0.0 
5.223910895047e-03 8.961116836322e-02 0.0 
7.991694726597e-04 2.421485868282e-02 0.0 
4.262503428992e-03 7.676313687539e-02 0.0 
1.747219913006e-03 2.022619165372e-02 0.0 
1.870251713432e-03 2.406941907199e-02 0.0 
3.052562121590e-04 8.648920195766e-02 0.0 
7.927714887765e-04 8.482804958238e-02 0.0 
2.692975497945e-04 2.567987316601e-02 0.0 
4.894566471505e-03 9.647369529432e-02 0.0 
5.106482739730e-03 9.589192995808e-02 0.0 
4.566089534028e-03 9.660806829147e-02 0.0 
8.413807371798e-05 1.219276896984e-02 0.0 
2.547086870711e-04 7.696810596403e-02 0.0 
4.201615111204e-04 2.021111612498e-02 0.0 
5.643846849527e-03 7.920713666741e-02 0.0 
2.827918494156e-04 2.114151444047e-02 0.0 
5.899260007858e-03 5.011646038957e-02 0.0 
6.683253555979e-03 7.932754478435e-02 0.0 
3.512701299857e-03 3.293348457908e-02 0.0 
2.180474941392e-04 3.051516591761e-02 0.0 
1.607280258114e-04 2.035335137371e-02 0.0 
1.626770454375e-03 6.508279621679e-02 0.0 
1.478906228728e-03 6.843074687320e-02 0.0 
1.780441653884e-03 6.187170441343e-02 0.0 
3.129341844265e-03 8.871485567908e-02 0.0 
1.618157105111e-03 9.071015783164e-02 0.0 
5.801243185203e-04 3.140207900267e-02 0.0 
1.024264309801e-03 7.144425673175e-02 0.0 
8.389723955719e-04 6.984091514983e-02 0.0 
1.482940102988e-03 7.805974004934e-02 0.0 
1.908452239650e-03 7.609792466087e-02 0.0 
1.817057420959e-03 5.684469447073e-02 0.0 
2.112840034700e-03 5.884374344342e-02 0.0 
4.221741873246e-03 4.299882974806e-02 0.0 
3.737058850643e-03 3.898897404415e-02 0.0 
5.133608496903e-03 5.060329550678e-02 0.0 
4.449771569619e-03 4.585189622829e-02 0.0 
4.744693940047e-03 5.145169263738e-02 0.0 
5.135801547552e-03 5.416190429563e-02 0.0 
6.084085687815e-04 2.354577428181e-02 0.0 
4.048145949825e-04 1.758804927259e-02 0.0 
3.860936719230e-03 7.178295907296e-02 0.0 
4.028656979132e-03 7.363170869526e-02 0.0 
3.186668934201e-03 7.134716344078e-02 0.0 
7.566969793063e-04 2.022727841865e-02 0.0 
4.658989058847e-04 1.627414648522e-02 0.0 
6.868574134787e-04 1.957241755892e-02 0.0 
4.016844451273e-04 8.042329914300e-02 0.0 
6.592740390160e-04 8.010145830818e-02 0.0 
3.373663264781e-03 9.544970844376e-02 0.0 
2.435528569524e-03 9.434451983426e-02 0.0 
1.246472224394e-03 2.237124617208e-02 0.0 
1.605834104727e-03 2.706578149475e-02 0.0 
8.775525628863e-04 1.689440441517e-02 0.0 
3.099398124791e-04 7.545696446147e-02 0.0 
4.990653601581e-03 3.986674914742e-02 0.0 
2.179731020772e-03 1.886164228359e-02 0.0 
2.671079144908e-03 2.231444011161e-02 0.0 
1.614414648920e-03 1.452721580134e-02 0.0 
3.825541101492e-03 2.825114425751e-02 0.0 
2.889572942660e-03 2.041604259232e-02 0.0 
2.812475524784e-03 2.027846680897e-02 0.0 
-2.847487083839e-04 8.810406895256e-02 0.0 
1.235458911542e-04 2.420327280532e-02 0.0 
1.126248481920e-03 6.777300870108e-02 0.0 
-8.978347781068e-04 8.729943160004e-02 0.0 
9.780923872615e-04 7.115526936483e-02 0.0 
8.171399531714e-04 6.711402080381e-02 0.0 
8.471552050093e-04 7.441432727721e-02 0.0 
2.560862513707e-04 7.719575497339e-02 0.0 
1.862101641912e-03 7.009209628196e-02 0.0 
2.038836731444e-03 6.609345985535e-02 0.0 
1.557679184175e-04 8.112768913299e-02 0.0 
5.139042130356e-04 1.509519417738e-02 0.0 
2.190999401861e-04 8.063157864270e-02 0.0 
3.299019068397e-04 8.017945351520e-02 0.0 
1.353979802406e-03 1.683979698222e-02 0.0 
1.491270181651e-03 2.086002076529e-02 0.0 
9.894050849512e-04 1.354648496377e-02 0.0 
1.167183819443e-03 1.798946067703e-02 0.0 
1.567658681496e-03 2.487979959614e-02 0.0 
1.228807358116e-03 2.175294603567e-02 0.0 
1.327885035785e-03 7.217271697191e-02 0.0 
8.070198607299e-04 1.363451016130e-02 0.0 
9.165767522482e-04 1.840913301009e-02 0.0 
5.331058314724e-04 1.050132304907e-02 0.0 
4.533167435648e-03 8.761555036889e-02 0.0 
5.699565291464e-03 9.200807188776e-02 0.0 
5.201537462536e-03 9.506481156100e-02 0.0 
4.504494567601e-03 9.902584544926e-02 0.0 
1.947757242461e-03 1.702951927486e-02 0.0 
2.373754526588e-03 2.246854029534e-02 0.0 
4.227659087651e-04 3.080792245641e-02 0.0 
4.839040636174e-04 3.709178871743e-02 0.0 
6.753870908190e-04 7.083885230059e-02 0.0 
4.909729311698e-04 7.112786795985e-02 0.0 
5.371745896607e-04 6.468021045454e-02 0.0 
3.867911302646e-04 6.548629323966e-02 0.0 
4.091373728128e-04 5.886048811335e-02 0.0 
2.627518552005e-04 5.972314237616e-02 0.0 
3.134535565423e-04 5.279725193962e-02 0.0 
2.205045971144e-03 1.592706753615e-02 0.0 
3.941454191362e-03 9.979777298309e-02 0.0 
4.183453207047e-03 8.250512210450e-02 0.0 
2.396994271250e-03 1.692859015908e-02 0.0 
2.972158398448e-03 2.190837549628e-02 0.0 
5.099596706744e-03 8.743460089100e-02 0.0 
4.780352881295e-03 9.239217959529e-02 0.0 
1.431024777306e-03 1.497785408373e-02 0.0 
6.600565439131e-03 8.239962247111e-02 0.0 
3.815138860748e-04 9.729555850185e-03 0.0 
-2.604703525022e-03 9.290098754188e-02 0.0 
-4.776521998973e-04 9.148489592525e-02 0.0 
6.687581833106e-03 8.119222971950e-02 0.0 
5.295196027479e-03 8.215086038478e-02 0.0 
5.745380866005e-03 9.064860967450e-02 0.0 
5.295416525204e-03 9.335330338102e-02 0.0 
4.044942590291e-03 3.973417670748e-02 0.0 
4.854967826415e-04 8.082876833724e-02 0.0 
4.076923883945e-03 9.624673657411e-02 0.0 
4.524083744102e-04 5.200476207413e-02 0.0 
2.786972016418e-03 9.869672013802e-02 0.0 
2.221696655857e-04 3.370834998263e-02 0.0 
6.692279767110e-03 7.910170182975e-02 0.0 
5.949962864499e-03 7.613954193289e-02 0.0 
5.018625530125e-03 9.334466892337e-02 0.0 
6.141357824771e-03 8.849375354717e-02 0.0 
4.153257266152e-03 6.403673609992e-02 0.0 
3.690333206096e-03 7.028012267894e-02 0.0 
3.974000683147e-03 7.363859634958e-02 0.0 
6.682225627649e-03 7.595506195551e-02 0.0 
5.293397418559e-03 9.156324361527e-02 0.0 
4.787266663819e-03 9.619071175807e-02 0.0 
5.063678427793e-03 6.752780586960e-02 0.0 
2.016185396470e-03 3.574122203835e-02 0.0 
1.999385854246e-03 3.181184786036e-02 0.0 
1.538790248026e-03 2.330857873106e-02 0.0 
1.945496541654e-03 2.789666851020e-02 0.0 
2.412133165055e-03 3.645321047563e-02 0.0 
2.385315189709e-03 3.258386558262e-02 0.0 
1.848373705372e-03 2.404344945419e-02 0.0 
2.313358804078e-03 2.868699061073e-02 0.0 
1.557086220309e-03 1.826555211448e-02 0.0 
2.169877720461e-03 2.456093177985e-02 0.0 
2.799475015338e-03 3.341198073713e-02 0.0 
2.712341733444e-03 2.970559442602e-02 0.0 
2.078231048321e-03 2.169375647800e-02 0.0 
3.304840519351e-03 3.837781509737e-02 0.0 
1.860081385813e-03 1.267601107073e-02 0.0 
6.823321148925e-03 7.616696680448e-02 0.0 
6.502320640751e-04 8.923650281290e-02 0.0 
5.562426349020e-04 9.308927882343e-02 0.0 
5.683002994077e-03 7.345927624058e-02 0.0 
7.574302443693e-04 8.913201527726e-03 0.0 
6.050235670217e-04 8.784773339247e-03 0.0 
6.080919858194e-03 8.374884675497e-02 0.0 
1.003184573505e-03 8.156765115358e-03 0.0 
4.241985902333e-03 7.058002725105e-02 0.0 
4.187183186903e-03 8.668614166504e-02 0.0 
1.100666866540e-03 8.093324735752e-03 0.0 
2.399537464768e-03 4.026630690081e-02 0.0 
2.791728253096e-03 4.477839735075e-02 0.0 
2.713702194430e-03 4.841528613268e-02 0.0 
4.628049025967e-04 8.201775620750e-03 0.0 
1.929804996414e-03 5.850816923269e-02 0.0 
1.103392573608e-03 7.335813310580e-03 0.0 
5.974321652849e-03 5.228151265067e-02 0.0 
6.256011312071e-03 5.562615631346e-02 0.0 
6.545148580365e-03 6.132709063754e-02 0.0 
2.841993783124e-03 3.734085240031e-02 0.0 
1.089614575342e-03 7.537398669969e-03 0.0 
1.978067092724e-03 1.440714537518e-02 0.0 
1.881859332488e-03 1.429934395119e-02 0.0 
2.788622120095e-03 2.146839985475e-02 0.0 
9.855837955494e-04 7.386597378180e-03 0.0 
7.987591021630e-04 7.963938395110e-03 0.0 
8.151280227866e-04 7.536243659211e-03 0.0 
3.570851130987e-03 7.635913089663e-02 0.0 
4.167130320773e-03 7.552840289673e-02 0.0 
4.566492589619e-03 7.256964134339e-02 0.0 
4.741716545363e-03 7.465626213611e-02 0.0 
4.266497333243e-03 7.752870708522e-02 0.0 
4.877442186294e-03 7.685679729036e-02 0.0 
5.270332606739e-03 7.372919583941e-02 0.0 
4.969680125180e-03 7.918423817344e-02 0.0 
3.097339513911e-03 3.075069905851e-02 0.0 
8.381549483913e-04 7.023838259910e-03 0.0 
3.776929745027e-03 4.858762357586e-02 0.0 
4.174968206500e-03 5.127637703149e-02 0.0 
4.314233607463e-03 5.627528093297e-02 0.0 
2.070598013999e-03 6.289279453421e-02 0.0 
2.400442291725e-03 6.081069314117e-02 0.0 
2.414279090311e-03 5.650992064711e-02 0.0 
1.742529857703e-03 6.488032931110e-02 0.0 
5.412361197746e-03 4.706338739114e-02 0.0 
7.730231191011e-04 7.047507351035e-03 0.0 
5.264286220620e-03 5.158727389645e-02 0.0 
2.678958613437e-03 6.274051083404e-02 0.0 
2.493089882088e-03 7.669838000280e-02 0.0 
2.590616698923e-03 7.093603065128e-02 0.0 
2.849908515563e-03 7.070176724518e-02 0.0 
2.643288083574e-03 6.393260239706e-02 0.0 
2.303029923578e-03 7.021045529134e-02 0.0 
1.518232464817e-03 5.478085025498e-02 0.0 
1.219510374982e-03 5.266122006727e-02 0.0 
9.573063038500e-04 5.524180840628e-02 0.0 
9.234382107510e-04 5.047973681868e-02 0.0 
6.695245838628e-04 5.316859597803e-02 0.0 
6.947602451711e-04 5.759845051045e-02 0.0 
6.264054534640e-04 4.822998966212e-02 0.0 
3.856912783370e-04 5.158995475580e-02 0.0 
2.000045893938e-03 7.679894989093e-02 0.0 
-1.188127102120e-03 8.476128964289e-02 0.0 
-2.130111822450e-04 8.388591113298e-02 0.0 
-1.514421096439e-04 8.310942320357e-02 0.0 
5.406450939528e-04 8.285307241665e-02 0.0 
6.318095247765e-04 8.362816253725e-02 0.0 
1.442177385609e-03 8.216011898972e-02 0.0 
1.468123389508e-03 8.323622452712e-02 0.0 
-2.870162886404e-04 8.488852085305e-02 0.0 
-7.558822753256e-04 8.316765255534e-02 0.0 
-6.919922532742e-05 8.248189679305e-02 0.0 
-5.786707665617e-04 8.258687642465e-02 0.0 
-2.372931864564e-05 8.198727218128e-02 0.0 
5.958204767200e-04 8.146039609564e-02 0.0 
1.090830392642e-03 7.877820841155e-02 0.0 
2.372791576232e-04 8.160044575407e-03 0.0 
2.565777374382e-04 6.347506580248e-02 0.0 
4.911996971200e-04 6.531372797348e-02 0.0 
4.480103813876e-04 6.851825705204e-02 0.0 
7.224402918003e-04 6.686534459235e-02 0.0 
4.849879105174e-04 6.193737658484e-02 0.0 
2.143231441200e-04 7.008981073600e-02 0.0 
4.083995607558e-04 7.109680266574e-02 0.0 
1.948399421226e-05 8.053616798218e-02 0.0 
6.439477568892e-05 8.018238000877e-02 0.0 
1.890606587326e-05 8.020752707973e-02 0.0 
9.805387110026e-05 7.952989199437e-02 0.0 
1.580259301864e-04 7.958648362512e-02 0.0 
1.038074988167e-04 8.021948465175e-02 0.0 
1.343757080823e-04 8.029679279792e-02 0.0 
1.429830380624e-05 8.069006523745e-02 0.0 
1.584141940169e-04 8.040010746680e-02 0.0 
2.920749599803e-04 7.968672316691e-02 0.0 
-4.005234389521e-06 8.080857545067e-02 0.0 
9.693244316655e-05 4.210703808901e-02 0.0 
1.859900893866e-04 3.789164708104e-02 0.0 
6.839025421702e-04 7.435105911205e-03 0.0 
1.540512887222e-03 7.629732327867e-02 0.0 
-2.946410158092e-04 8.173154904427e-02 0.0 
1.461915945644e-04 1.037672255835e-02 0.0 
2.182807271369e-04 8.637311062531e-03 0.0 
1.834092022346e-04 8.360743933896e-03 0.0 
1.390249689155e-04 1.993063467528e-02 0.0 
2.261003933512e-04 1.635636031786e-02 0.0 
7.363947908937e-05 1.008033512756e-02 0.0 
1.746972571050e-03 7.384076695005e-02 0.0 
1.428078053123e-03 1.956944118653e-02 0.0 
4.195160365750e-04 2.640480437061e-02 0.0 
4.027122819028e-03 8.936100207805e-02 0.0 
2.362652866828e-03 7.511445682166e-02 0.0 
7.652731099249e-04 3.978201655632e-02 0.0 
2.253458984915e-03 4.670848527491e-02 0.0 
9.035734250665e-04 2.642467275391e-02 0.0 
1.381802700361e-03 4.483700243126e-02 0.0 
1.511994572746e-03 3.224531462996e-02 0.0 
1.831624142708e-03 1.467231019543e-02 0.0 
3.507609291702e-04 7.784837749094e-02 0.0 
1.200413323348e-03 5.707899131635e-02 0.0 
7.743920676053e-04 5.978595298417e-02 0.0 
7.066198504965e-04 4.012050457157e-02 0.0 
1.174881811865e-03 7.267352560461e-02 0.0 
9.754371715558e-04 5.937697698922e-02 0.0 
8.372792815011e-04 7.781087780442e-02 0.0 
1.965295829064e-03 1.531572192763e-02 0.0 
5.115007588661e-03 7.372520194296e-02 0.0 
4.017407882220e-03 5.851940743746e-02 0.0 
1.974375937240e-03 6.653849503071e-02 0.0 
2.140104889161e-03 7.256620009234e-02 0.0 
2.413378907870e-03 7.644649614795e-02 0.0 
6.744614039139e-03 7.422413801854e-02 0.0 
3.027951845695e-03 6.067882584844e-02 0.0 
2.690260857847e-03 3.733051219278e-02 0.0 
5.374579151836e-04 3.537239913092e-02 0.0 
-7.186809029440e-05 8.112379720356e-02 0.0 
2.728994810362e-03 3.390274235421e-02 0.0 
2.961962072289e-03 5.151991053647e-02 0.0 
1.668529197263e-03 5.430792979636e-02 0.0 
4.532951486991e-03 3.603617601630e-02 0.0 
1.696336565082e-03 8.080566418614e-02 0.0 
1.015946553384e-03 3.713876101967e-02 0.0 
9.921564191924e-04 2.162073074415e-02 0.0 
2.192938801835e-03 6.253452193832e-02 0.0 
5.703548681178e-04 7.921798215034e-02 0.0 
1.277420840167e-03 6.463597341382e-02 0.0 
1.948458293606e-03 1.923530758919e-02 0.0 
1.995581606325e-03 3.958283530242e-02 0.0 
8.932998858732e-04 7.397100890637e-02 0.0 
5.844758846326e-03 5.968123820306e-02 0.0 
6.192874172599e-03 7.291081444641e-02 0.0 
3.647377000866e-03 8.217425652505e-02 0.0 
4.336480420838e-04 2.258713843934e-02 0.0 
6.619796350222e-03 6.226244454649e-02 0.0 
3.625574153156e-03 2.922119059305e-02 0.0 
5.311829181460e-03 4.883496792116e-02 0.0 
7.582310836860e-04 7.281205215699e-02 0.0 
1.929693742764e-03 2.789965412229e-02 0.0 
6.524692861851e-03 6.346224584973e-02 0.0 
8.129238667726e-04 2.835155349763e-02 0.0 
4.632364529997e-03 4.325088160764e-02 0.0 
6.124539872115e-03 7.144891786328e-02 0.0 
1.331750655868e-03 3.410050219770e-02 0.0 
4.670584778837e-03 5.875029365359e-02 0.0 
4.230083087466e-03 3.235346209997e-02 0.0 
5.393192887386e-03 7.654468753371e-02 0.0 
5.514058926112e-03 5.752413258272e-02 0.0 
4.192856879032e-03 5.022493488156e-02 0.0 
6.235608191227e-03 6.029213669614e-02 0.0 
5.231718981892e-04 4.298323998561e-02 0.0 
2.319233169576e-03 3.092477900792e-02 0.0 
2.702169879387e-03 8.388274335549e-02 0.0 
6.485179628950e-03 8.409181657793e-02 0.0 
2.055421185769e-03 5.494382658943e-02 0.0 
3.571966574799e-03 2.821731395964e-02 0.0 
5.750936121736e-04 1.909039606646e-02 0.0 
6.170196242794e-03 7.849837435732e-02 0.0 
1.921793738155e-03 3.158469781288e-02 0.0 
1.036773433319e-03 2.545677047079e-02 0.0 
2.724367411119e-03 5.862393153465e-02 0.0 
1.224152901282e-04 7.696267912082e-02 0.0 
2.871121854458e-03 9.137292804187e-02 0.0 
5.548992280339e-03 7.865081701245e-02 0.0 
6.712026717769e-03 6.454672525887e-02 0.0 
2.700172268649e-03 5.409108789971e-02 0.0 
1.095058233425e-03 1.735278082319e-02 0.0 
1.568166712189e-03 2.863962708518e-02 0.0 
3.587164969511e-03 3.647996494381e-02 0.0 
-1.995496916214e-04 9.882442884123e-02 0.0 
3.964441935542e-03 7.952118605923e-02 0.0 
1.240122853696e-03 2.562649331082e-02 0.0 
5.505141311514e-03 5.689894649635e-02 0.0 
3.791906708745e-03 2.893983079030e-02 0.0 
4.218329966548e-04 5.580441658871e-02 0.0 
2.056274021913e-03 1.538957034653e-02 0.0 
4.695660829597e-03 8.998886660387e-02 0.0 
9.411735847305e-04 2.254139134116e-02 0.0 
3.989217210284e-03 3.642285796289e-02 0.0 
6.407915444940e-03 8.318475166224e-02 0.0 
4.225370932167e-04 7.696217384707e-02 0.0 
5.969931186547e-04 1.409576093360e-02 0.0 
3.349262550766e-03 2.921145198763e-02 0.0 
5.883796252861e-03 5.387786064247e-02 0.0 
5.292440183287e-03 5.913112733949e-02 0.0 
3.996404941359e-03 8.765929392855e-02 0.0 
2.364630435710e-03 5.183106296538e-02 0.0 
5.114935842793e-03 5.413438636723e-02 0.0 
4.067945323507e-04 7.995074400505e-03 0.0 
3.156137671867e-03 2.586704396826e-02 0.0 
3.079683247648e-03 5.276516783920e-02 0.0 
2.099567321765e-03 5.440868197165e-02 0.0 
5.638445420134e-03 4.655708185013e-02 0.0 
2.261904331446e-04 7.963572165826e-02 0.0 
4.370015352815e-03 8.509297946816e-02 0.0 
1.782920313847e-03 5.223977054247e-02 0.0 
5.430862715012e-03 7.613928243713e-02 0.0 
4.934207819860e-03 5.654082410136e-02 0.0 
2.422948966617e-03 1.672840300384e-02 0.0 
1.469968516560e-03 5.000869314089e-02 0.0 
5.736624147315e-03 7.265926766151e-02 0.0 
1.162714244081e-03 4.771822564397e-02 0.0 
4.244553735570e-03 9.245234935707e-02 0.0 
3.183950494572e-03 4.908808798086e-02 0.0 
8.520120035438e-04 4.536007221412e-02 0.0 
4.691348558939e-03 4.690747618647e-02 0.0 
3.640957076558e-04 7.974672445448e-02 0.0 
5.781765093067e-03 5.045302985434e-02 0.0 
3.287390393639e-04 2.374410066487e-02 0.0 
2.994018383736e-03 6.976608792753e-02 0.0 
4.563267032272e-03 5.397152685598e-02 0.0 
2.835135128675e-03 4.106724105748e-02 0.0 
4.317031998887e-03 9.656874218196e-02 0.0 
4.347775352596e-03 4.866957721896e-02 0.0 
4.145466357014e-03 3.930642433513e-02 0.0 
5.606899030267e-03 4.698710620035e-02 0.0 
6.473641644678e-03 5.896819352498e-02 0.0 
4.022205755350e-03 4.283175329649e-02 0.0 
4.837151162460e-03 9.413461330875e-02 0.0 
1.822534778747e-03 7.507096209424e-02 0.0 
1.484672019455e-03 7.708751922612e-02 0.0 
5.517273415572e-03 7.017660832486e-02 0.0 
3.626965144023e-03 3.509868816937e-02 0.0 
1.995718782169e-04 7.868219912679e-02 0.0 
3.299986704803e-03 4.187551875345e-02 0.0 
1.009379016607e-03 7.962486183597e-02 0.0 
5.068917409112e-03 7.143109504397e-02 0.0 
4.619402262748e-03 3.562508573457e-02 0.0 
1.181327612332e-04 5.780575179459e-02 0.0 
4.834324639239e-03 6.921176670189e-02 0.0 
1.507869890221e-04 7.504370716566e-02 0.0 
4.362233932092e-03 7.055634360476e-02 0.0 
6.114715412692e-03 5.294527880987e-02 0.0 
4.132553886147e-03 6.855480119270e-02 0.0 
3.664868097498e-03 6.998362022757e-02 0.0 
2.846647439389e-04 1.743704931012e-02 0.0 
3.443722743932e-03 6.819977457028e-02 0.0 
3.220138813938e-05 8.367562549192e-03 0.0 
1.003379137797e-04 7.425127351506e-03 0.0 
1.599797062023e-04 7.196714796793e-02 0.0 
4.094994700129e-03 1.002626914897e-01 0.0 
-2.065717878554e-03 8.871801557470e-02 0.0 
4.804416152589e-03 9.700553686478e-02 0.0 
2.718717810918e-03 7.263581518912e-02 0.0 
3.779696374494e-03 4.268921644686e-02 0.0 
3.324604749969e-04 7.164915352963e-02 0.0 
2.261110764135e-03 7.386392522252e-02 0.0 
1.499513398338e-03 1.595510322500e-02 0.0 
1.079564768149e-03 7.406418907860e-03 0.0 
2.138660583681e-04 4.580511591549e-02 0.0 
3.367120126145e-03 2.586225271606e-02 0.0 
5.339212326725e-03 4.320895531252e-02 0.0 
5.971100962224e-05 2.510692465751e-02 0.0 
9.861589843360e-04 7.743339630651e-02 0.0 
2.747802045697e-05 8.157730469151e-02 0.0 
2.526610331282e-04 3.990814272615e-02 0.0 
3.685708411081e-03 1.025708098639e-01 0.0 
4.250879361133e-03 9.967906309284e-02 0.0 
3.418016879476e-03 9.960400093246e-02 0.0 
5.918568028171e-04 7.184834861376e-02 0.0 
4.980176766818e-04 8.218658509798e-02 0.0 
3.162085997326e-03 1.029609367854e-01 0.0 
2.100417099042e-03 1.497341431046e-02 0.0 
1.661123770482e-03 7.148230688407e-02 0.0 
4.262444577299e-03 3.254007210595e-02 0.0 
1.920638522859e-03 1.021955949809e-01 0.0 
7.060332103989e-04 1.681458713715e-02 0.0 
2.233220268144e-03 1.546253157893e-02 0.0 
4.937287179595e-04 6.534246694154e-03 0.0 
3.344810790101e-03 2.433916785446e-02 0.0 
1.799534895568e-03 9.735967044833e-02 0.0 
2.427134205344e-03 6.542066675665e-02 0.0 
1.870561622958e-03 1.530027312775e-02 0.0 
2.880176966304e-04 3.911864336165e-02 0.0 
3.541998553532e-04 6.261247657696e-03 0.0 
2.092645600178e-03 7.205393070643e-02 0.0 
1.758074167098e-04 1.629062126960e-02 0.0 
1.958745960967e-03 8.374474303719e-02 0.0 
8.408427475955e-05 1.580954687203e-02 0.0 
3.230018722149e-03 3.453032983737e-02 0.0 
6.714965540992e-04 6.315098641233e-02 0.0 
2.909584556364e-03 6.558602859386e-02 0.0 
2.748583498486e-04 1.286345420806e-02 0.0 
1.277509812327e-03 1.618608265369e-02 0.0 
6.317303052311e-04 9.540409141575e-02 0.0 
3.348990384984e-04 4.662092068178e-02 0.0 
9.730733096884e-04 6.686092087406e-02 0.0 
-5.916400945635e-04 8.611933179125e-02 0.0 
1.202184340053e-03 1.363491695510e-02 0.0 
2.587401997266e-03 2.628393051701e-02 0.0 
4.576032158163e-04 1.313401914140e-02 0.0 
3.916793802121e-05 7.957947710236e-02 0.0 
7.763252394540e-05 8.101272108746e-02 0.0 
1.318361378376e-03 1.269135070991e-02 0.0 
1.579096046870e-03 1.458650567692e-02 0.0 
2.241845373100e-03 8.176197237777e-02 0.0 
2.340704890816e-04 6.787992329706e-03 0.0 
-1.017115262858e-03 9.398046541488e-02 0.0 
1.351070842919e-03 7.809538133171e-02 0.0 
1.563863883933e-04 8.056350227890e-02 0.0 
2.871589858350e-04 6.327442953772e-03 0.0 
4.256252799063e-04 1.563025241763e-02 0.0 
6.839079002556e-04 6.366629327344e-02 0.0 
2.988824410529e-03 7.584852347998e-02 0.0 
3.522173506028e-04 7.350944538892e-02 0.0 
2.813935703513e-03 2.131660647196e-02 0.0 
4.110925461362e-04 8.127071122771e-02 0.0 
2.866389378093e-04 1.475499475532e-02 0.0 
1.494192901513e-03 1.248615438036e-02 0.0 
8.586235493767e-04 1.476199123766e-02 0.0 
8.439826743775e-04 5.602680873604e-03 0.0 
-8.986649790498e-04 8.963744598201e-02 0.0 
1.908837833839e-03 1.333424449433e-02 0.0 
2.479318029197e-03 1.968271729439e-02 0.0 
7.420172157984e-04 7.771342336631e-02 0.0 
1.100287032984e-03 1.582344811170e-02 0.0 
6.259391283435e-04 6.955999337839e-02 0.0 
4.571393269206e-04 7.888411288195e-02 0.0 
1.539763553395e-05 7.416169734116e-03 0.0 
-5.497357274452e-06 8.050102851587e-02 0.0 
1.229916369642e-04 7.770662559407e-02 0.0 
4.125777737067e-05 6.057996687458e-03 0.0 
2.604980157152e-04 7.893491669384e-02 0.0 
2.627724418438e-04 6.688234058005e-02 0.0 
1.428093339296e-03 1.408976101966e-02 0.0 
1.790421091800e-04 5.503552880979e-02 0.0 
1.449898811205e-04 3.099537192354e-02 0.0 
1.058532055875e-03 8.181710768767e-02 0.0 
-1.986309500874e-03 8.709080375049e-02 0.0 
2.075108779714e-04 5.396280752380e-02 0.0 
2.021587770972e-03 1.379116111799e-02 0.0 
6.604986036714e-04 1.410621819063e-02 0.0 
5.359731851915e-04 5.911615641456e-02 0.0 
1.789033222589e-03 9.295098065227e-02 0.0 
2.024349188364e-03 1.987386961143e-02 0.0 
7.316709921427e-04 6.072895711057e-02 0.0 
2.568250898079e-03 2.108112477586e-02 0.0 
2.692420949698e-03 2.008127444292e-02 0.0 
-2.651317882236e-03 9.506976441650e-02 0.0 
1.660631076944e-04 5.034385986079e-02 0.0 
1.302783002988e-04 8.072715017624e-02 0.0 
8.135379014810e-04 1.207295297830e-02 0.0 
4.828056791988e-04 5.886029133665e-02 0.0 
6.256042312990e-04 1.071926591415e-01 0.0 
8.328051324276e-05 1.163322628968e-01 0.0 
2.177413058813e-03 1.069814411803e-01 0.0 
8.517724215075e-05 1.131894428418e-01 0.0 
3.059106332793e-03 1.054660332896e-01 0.0 
6.879958287714e-05 1.096212416338e-01 0.0 
3.515247351917e-03 1.029642467808e-01 0.0 
8.627076041819e-05 1.056240901528e-01 0.0 
3.694807075053e-03 9.957685883910e-02 0.0 
7.198666842990e-05 1.011966178583e-01 0.0 
3.663168647219e-03 9.549647415271e-02 0.0 
9.003295916535e-05 9.633882535294e-02 0.0 
3.479744671491e-03 9.069704429104e-02 0.0 
7.413238610483e-05 9.105132721691e-02 0.0 
3.189927275650e-03 8.538082996616e-02 0.0 
9.011417340790e-05 8.533691833472e-02 0.0 

TENSORS node_materi_stress float
-3.923392940988e+00 3.140067166915e-02 0.0 
3.140067166915e-02 -8.513932800879e+00 0.0 
0.0 0.0 -3.649450997640e+00 
-6.936409507260e+01 4.470377176836e-01 0.0 
4.470377176836e-01 -1.572453334946e+02 0.0 
0.0 0.0 -6.758282857016e+01 
-1.628740940261e+02 -2.102360579272e-01 0.0 
-2.102360579272e-01 -3.822298131401e+02 0.0 
0.0 0.0 -1.631311721498e+02 
-1.475620486205e+02 4.689885989661e-01 0.0 
4.689885989661e-01 -3.450827965092e+02 0.0 
0.0 0.0 -1.473934535389e+02 
-8.573608678276e+00 -2.587798766326e-01 0.0 
-2.587798766326e-01 -2.072737754774e+01 0.0 
0.0 0.0 -8.602464717857e+00 
-1.591965121732e+01 -5.991969598385e-01 0.0 
-5.991969598385e-01 -4.022119854119e+01 0.0 
0.0 0.0 -1.644225492756e+01 
-2.302599243554e+01 -4.620586371847e-01 0.0 
-4.620586371847e-01 -5.839158642974e+01 0.0 
0.0 0.0 -2.402527365958e+01 
-3.123215529468e+01 -4.148941428366e-01 0.0 
-4.148941428366e-01 -7.907612839342e+01 0.0 
0.0 0.0 -3.269248510643e+01 
-3.900774869534e+01 -3.021410338853e-01 0.0 
-3.021410338853e-01 -9.894814303901e+01 0.0 
0.0 0.0 -4.098676752031e+01 
-4.695859272830e+01 -2.817971795092e-01 0.0 
-2.817971795092e-01 -1.185428298504e+02 0.0 
0.0 0.0 -4.925042677360e+01 
-5.484537532370e+01 -3.059678505338e-01 0.0 
-3.059678505338e-01 -1.381190736842e+02 0.0 
0.0 0.0 -5.748933470236e+01 
-6.272294471606e+01 -2.639111618108e-01 0.0 
-2.639111618108e-01 -1.576692855932e+02 0.0 
0.0 0.0 -6.571766909278e+01 
-7.072612412568e+01 -2.519780955294e-01 0.0 
-2.519780955294e-01 -1.772068266320e+02 0.0 
0.0 0.0 -7.397988522730e+01 
-7.879032083034e+01 -3.120859668162e-01 0.0 
-3.120859668162e-01 -1.969168680077e+02 0.0 
0.0 0.0 -8.231215665142e+01 
-8.709751810495e+01 -4.687412196001e-01 0.0 
-4.687412196001e-01 -2.170972616161e+02 0.0 
0.0 0.0 -9.085843391631e+01 
-9.563793943853e+01 -4.927116136163e-01 0.0 
-4.927116136163e-01 -2.366198206436e+02 0.0 
0.0 0.0 -9.927732802463e+01 
-1.035674221691e+02 -6.312155526036e-01 0.0 
-6.312155526036e-01 -2.543918658789e+02 0.0 
0.0 0.0 -1.069877864144e+02 
-1.121017314833e+02 -1.938862541146e-01 0.0 
-1.938862541146e-01 -2.739015172481e+02 0.0 
0.0 0.0 -1.154009746194e+02 
-1.210989042511e+02 -1.674730377502e-01 0.0 
-1.674730377502e-01 -2.938914812625e+02 0.0 
0.0 0.0 -1.240971156541e+02 
-1.299730580478e+02 -1.616183524476e-01 0.0 
-1.616183524476e-01 -3.132540601897e+02 0.0 
0.0 0.0 -1.325681354712e+02 
-1.390077282681e+02 -1.303243407763e-01 0.0 
-1.303243407763e-01 -3.327376673702e+02 0.0 
0.0 0.0 -1.411236186915e+02 
-1.482470865918e+02 -1.694264399524e-01 0.0 
-1.694264399524e-01 -3.523471881485e+02 0.0 
0.0 0.0 -1.497782824221e+02 
-1.572642073358e+02 -2.473905998135e-01 0.0 
-2.473905998135e-01 -3.710491235442e+02 0.0 
0.0 0.0 -1.580939992640e+02 
-1.480394138029e+02 2.321822709791e-01 0.0 
2.321822709791e-01 -3.461845859817e+02 0.0 
0.0 0.0 -1.478671999354e+02 
-1.474746289659e+02 3.887141158951e-01 0.0 
3.887141158951e-01 -3.451574603537e+02 0.0 
0.0 0.0 -1.473896267959e+02 
-1.476096180192e+02 8.153570004294e-01 0.0 
8.153570004294e-01 -3.454361551922e+02 0.0 
0.0 0.0 -1.475137319634e+02 
-1.475674141028e+02 6.288948775503e-01 0.0 
6.288948775503e-01 -3.454431823424e+02 0.0 
0.0 0.0 -1.475031789336e+02 
-1.473453500164e+02 9.729806529857e-01 0.0 
9.729806529857e-01 -3.448502475232e+02 0.0 
0.0 0.0 -1.472586792619e+02 
-1.476834579637e+02 1.153277969087e+00 0.0 
1.153277969087e+00 -3.455372517116e+02 0.0 
0.0 0.0 -1.475662129026e+02 
-1.479605302436e+02 1.379553136756e+00 0.0 
1.379553136756e+00 -3.458461331618e+02 0.0 
0.0 0.0 -1.477419990216e+02 
-1.477072028498e+02 1.684938098291e+00 0.0 
1.684938098291e+00 -3.456178478764e+02 0.0 
0.0 0.0 -1.475975152179e+02 
-1.481527671180e+02 2.075487908287e+00 0.0 
2.075487908287e+00 -3.464854323626e+02 0.0 
0.0 0.0 -1.479914598442e+02 
-1.481508993142e+02 2.070193691386e+00 0.0 
2.070193691386e+00 -3.466063465315e+02 0.0 
0.0 0.0 -1.480271737537e+02 
-1.480235689259e+02 2.494537220185e+00 0.0 
2.494537220185e+00 -3.461846386841e+02 0.0 
0.0 0.0 -1.478624622830e+02 
-1.483685893086e+02 2.814538431490e+00 0.0 
2.814538431490e+00 -3.470099306368e+02 0.0 
0.0 0.0 -1.482135559836e+02 
-1.488608622575e+02 3.145283691195e+00 0.0 
3.145283691195e+00 -3.477673030037e+02 0.0 
0.0 0.0 -1.485884495784e+02 
-1.487066952352e+02 3.513012466433e+00 0.0 
3.513012466433e+00 -3.477654094987e+02 0.0 
0.0 0.0 -1.485416314202e+02 
-1.489376183494e+02 3.917487533622e+00 0.0 
3.917487533622e+00 -3.479574894581e+02 0.0 
0.0 0.0 -1.486685323423e+02 
-1.487298953023e+02 4.214871512072e+00 0.0 
4.214871512072e+00 -3.477871641240e+02 0.0 
0.0 0.0 -1.485551178279e+02 
-1.489589371770e+02 4.671795381589e+00 0.0 
4.671795381589e+00 -3.482678813402e+02 0.0 
0.0 0.0 -1.487680455552e+02 
-1.497786005076e+02 5.098968584798e+00 0.0 
5.098968584798e+00 -3.497533464134e+02 0.0 
0.0 0.0 -1.494595840763e+02 
-1.502144703274e+02 5.553567435667e+00 0.0 
5.553567435667e+00 -3.510074795802e+02 0.0 
0.0 0.0 -1.499665849723e+02 
-1.507363386868e+02 5.988394591760e+00 0.0 
5.988394591760e+00 -3.523290875179e+02 0.0 
0.0 0.0 -1.505196278614e+02 
-1.511092911658e+02 6.301920760066e+00 0.0 
6.301920760066e+00 -3.533008257518e+02 0.0 
0.0 0.0 -1.509230350753e+02 
-1.516413083855e+02 6.768956991406e+00 0.0 
6.768956991406e+00 -3.543453921255e+02 0.0 
0.0 0.0 -1.513960101533e+02 
-1.520813877945e+02 7.108698885470e+00 0.0 
7.108698885470e+00 -3.555981308296e+02 0.0 
0.0 0.0 -1.519038555872e+02 
-1.526183324258e+02 7.443483400264e+00 0.0 
7.443483400264e+00 -3.569358021285e+02 0.0 
0.0 0.0 -1.524662403663e+02 
-1.533041493610e+02 7.706233952353e+00 0.0 
7.706233952353e+00 -3.586382650122e+02 0.0 
0.0 0.0 -1.531827243120e+02 
-1.541230310458e+02 7.941900908342e+00 0.0 
7.941900908342e+00 -3.604610275317e+02 0.0 
0.0 0.0 -1.539752175732e+02 
-1.546554671230e+02 8.079829888151e+00 0.0 
8.079829888151e+00 -3.621667383229e+02 0.0 
0.0 0.0 -1.546466616338e+02 
-1.555032599939e+02 8.139367902087e+00 0.0 
8.139367902087e+00 -3.639504383620e+02 0.0 
0.0 0.0 -1.554361095068e+02 
-1.559505374790e+02 8.131301113379e+00 0.0 
8.131301113379e+00 -3.654046186427e+02 0.0 
0.0 0.0 -1.560065468365e+02 
-1.569922471687e+02 8.180220198366e+00 0.0 
8.180220198366e+00 -3.677187990334e+02 0.0 
0.0 0.0 -1.570133138606e+02 
-1.574030746143e+02 7.729869074477e+00 0.0 
7.729869074477e+00 -3.691453837308e+02 0.0 
0.0 0.0 -1.575645375035e+02 
-1.576632414883e+02 7.587422280705e+00 0.0 
7.587422280705e+00 -3.697337802407e+02 0.0 
0.0 0.0 -1.578191065187e+02 
-1.583118661450e+02 7.321402207938e+00 0.0 
7.321402207938e+00 -3.712806082280e+02 0.0 
0.0 0.0 -1.584777423119e+02 
-1.590127079589e+02 7.020297102492e+00 0.0 
7.020297102492e+00 -3.729986527449e+02 0.0 
0.0 0.0 -1.592034082111e+02 
-1.596297898906e+02 6.618686978524e+00 0.0 
6.618686978524e+00 -3.744627775649e+02 0.0 
0.0 0.0 -1.598277702366e+02 
-1.600875639368e+02 6.230582899741e+00 0.0 
6.230582899741e+00 -3.757271536504e+02 0.0 
0.0 0.0 -1.603444152762e+02 
-1.606883354648e+02 5.759968273429e+00 0.0 
5.759968273429e+00 -3.769822853557e+02 0.0 
0.0 0.0 -1.609011862461e+02 
-1.608892906183e+02 5.282647797737e+00 0.0 
5.282647797737e+00 -3.776854943565e+02 0.0 
0.0 0.0 -1.611724354924e+02 
-1.612254743529e+02 4.844172079971e+00 0.0 
4.844172079971e+00 -3.783259828525e+02 0.0 
0.0 0.0 -1.614654371616e+02 
-1.612609173447e+02 4.322210888525e+00 0.0 
4.322210888525e+00 -3.786928593254e+02 0.0 
0.0 0.0 -1.615861330010e+02 
-1.617412603591e+02 3.945107817457e+00 0.0 
3.945107817457e+00 -3.797141001020e+02 0.0 
0.0 0.0 -1.620366081383e+02 
-1.625063388796e+02 3.382102471889e+00 0.0 
3.382102471889e+00 -3.812182345056e+02 0.0 
0.0 0.0 -1.627173720155e+02 
-1.628847035813e+02 3.031377415770e+00 0.0 
3.031377415770e+00 -3.819703060022e+02 0.0 
0.0 0.0 -1.630565028751e+02 
-1.617157822716e+02 2.527020426735e+00 0.0 
2.527020426735e+00 -3.799112519961e+02 0.0 
0.0 0.0 -1.620881102803e+02 
-1.630286199808e+02 2.015917779969e+00 0.0 
2.015917779969e+00 -3.823280497606e+02 0.0 
0.0 0.0 -1.632070009224e+02 
-1.626185165698e+02 1.619468829643e+00 0.0 
1.619468829643e+00 -3.817393143552e+02 0.0 
0.0 0.0 -1.629073492775e+02 
-1.629920497884e+02 1.402686421217e+00 0.0 
1.402686421217e+00 -3.824374096845e+02 0.0 
0.0 0.0 -1.632288378419e+02 
-1.633694957737e+02 7.611815355838e-01 0.0 
7.611815355838e-01 -3.832371245030e+02 0.0 
0.0 0.0 -1.635819860830e+02 
-1.633216203344e+02 4.671261466182e-01 0.0 
4.671261466182e-01 -3.832172604410e+02 0.0 
0.0 0.0 -1.635616642326e+02 
-7.808429816642e+01 3.186702768036e-01 0.0 
3.186702768036e-01 -1.770673644048e+02 0.0 
0.0 0.0 -7.614549877135e+01 
-8.628300301256e+01 3.682061499151e-01 0.0 
3.682061499151e-01 -1.967766791053e+02 0.0 
0.0 0.0 -8.451790463536e+01 
-9.456209608576e+01 3.650164565668e-01 0.0 
3.650164565668e-01 -2.163111142153e+02 0.0 
0.0 0.0 -9.286196309033e+01 
-1.025875215374e+02 3.973833218481e-01 0.0 
3.973833218481e-01 -2.354641675051e+02 0.0 
0.0 0.0 -1.010155067127e+02 
-1.107247844322e+02 3.603974328984e-01 0.0 
3.603974328984e-01 -2.550493468395e+02 0.0 
0.0 0.0 -1.093322393815e+02 
-1.190392053973e+02 4.013985841659e-01 0.0 
4.013985841659e-01 -2.747360412543e+02 0.0 
0.0 0.0 -1.177325739955e+02 
-1.269805477012e+02 3.661623087469e-01 0.0 
3.661623087469e-01 -2.941930761235e+02 0.0 
0.0 0.0 -1.259520871474e+02 
-1.348545963041e+02 4.268223158047e-01 0.0 
4.268223158047e-01 -3.135214516390e+02 0.0 
0.0 0.0 -1.341128143829e+02 
-1.429782790551e+02 4.695486938918e-01 0.0 
4.695486938918e-01 -3.333889176766e+02 0.0 
0.0 0.0 -1.425101590195e+02 
-9.158453119198e+00 2.887872192787e+00 0.0 
2.887872192787e+00 -6.871378927723e+00 0.0 
0.0 0.0 -4.791404514025e+00 
-7.192042995174e+01 6.740335674100e-01 0.0 
6.740335674100e-01 -1.579629399700e+02 0.0 
0.0 0.0 -6.856501097651e+01 
-1.005711338097e+01 6.980241417326e+00 0.0 
6.980241417326e+00 -1.216807128151e+01 0.0 
0.0 0.0 -6.303414737551e+00 
-7.989766535319e+00 5.192191899500e+00 0.0 
5.192191899500e+00 -1.245369910042e+01 0.0 
0.0 0.0 -5.733039690722e+00 
-1.052910591602e+01 2.500242454468e+00 0.0 
2.500242454468e+00 -2.047489021158e+01 0.0 
0.0 0.0 -8.901198838281e+00 
-1.962231267917e+01 1.736695050988e+00 0.0 
1.736695050988e+00 -3.946827278735e+01 0.0 
0.0 0.0 -1.732717563996e+01 
-2.888349488569e+01 1.289320642365e+00 0.0 
1.289320642365e+00 -5.914738036562e+01 0.0 
0.0 0.0 -2.600926257539e+01 
-3.798556469070e+01 1.046159964689e+00 0.0 
1.046159964689e+00 -7.890116600971e+01 0.0 
0.0 0.0 -3.466601921012e+01 
-4.658042605633e+01 7.846276265316e-01 0.0 
7.846276265316e-01 -9.837904924739e+01 0.0 
0.0 0.0 -4.308784259112e+01 
-5.506156097871e+01 6.443257445977e-01 0.0 
6.443257445977e-01 -1.178685137031e+02 0.0 
0.0 0.0 -5.147902240455e+01 
-6.341535241532e+01 6.242706163901e-01 0.0 
6.242706163901e-01 -1.373826886524e+02 0.0 
0.0 0.0 -5.983941232031e+01 
-6.020706137654e+00 8.661288336841e-01 0.0 
8.661288336841e-01 -7.383224309091e+00 0.0 
0.0 0.0 -3.621179134024e+00 
-1.052786647350e+01 6.627723510755e-01 0.0 
6.627723510755e-01 -1.971542698729e+01 0.0 
0.0 0.0 -8.672988038237e+00 
-1.876738184093e+01 7.846700607633e-01 0.0 
7.846700607633e-01 -3.929810578471e+01 0.0 
0.0 0.0 -1.701964628769e+01 
-2.719010297500e+01 6.368881087891e-01 0.0 
6.368881087891e-01 -5.884219985088e+01 0.0 
0.0 0.0 -2.540969084776e+01 
-3.563557296286e+01 7.970114303100e-01 0.0 
7.970114303100e-01 -7.839500612124e+01 0.0 
0.0 0.0 -3.380917372523e+01 
-4.409662309698e+01 6.483267937587e-01 0.0 
6.483267937587e-01 -9.795524407295e+01 0.0 
0.0 0.0 -4.221556015098e+01 
-5.254358785921e+01 7.866110156335e-01 0.0 
7.866110156335e-01 -1.175033086654e+02 0.0 
0.0 0.0 -5.061406895739e+01 
-6.096326823881e+01 5.587807573972e-01 0.0 
5.587807573972e-01 -1.369517261785e+02 0.0 
0.0 0.0 -5.897449832519e+01 
-6.848134740498e+01 -2.255720866220e-01 0.0 
-2.255720866220e-01 -1.546380251525e+02 0.0 
0.0 0.0 -6.653581176725e+01 
-6.911474876856e+01 -2.673293342326e-02 0.0 
-2.673293342326e-02 -1.558357574913e+02 0.0 
0.0 0.0 -6.708515187797e+01 
-6.910297431680e+01 -3.046180691864e-02 0.0 
-3.046180691864e-02 -1.558778482786e+02 0.0 
0.0 0.0 -6.709424677862e+01 
-6.908910076579e+01 1.386344694173e-02 0.0 
1.386344694173e-02 -1.556449693186e+02 0.0 
0.0 0.0 -6.702022102532e+01 
-7.038847082186e+01 -1.706361708029e-02 0.0 
-1.706361708029e-02 -1.582897780558e+02 0.0 
0.0 0.0 -6.820347466330e+01 
-6.941719932073e+01 -2.703650548780e-02 0.0 
-2.703650548780e-02 -1.559519333823e+02 0.0 
0.0 0.0 -6.721073981091e+01 
-6.956282221197e+01 2.775300616526e-02 0.0 
2.775300616526e-02 -1.557704571529e+02 0.0 
0.0 0.0 -6.719998380947e+01 
-6.972079276806e+01 -2.790642306822e-02 0.0 
-2.790642306822e-02 -1.559589029254e+02 0.0 
0.0 0.0 -6.730390870805e+01 
-6.995263298593e+01 3.819223196283e-02 0.0 
3.819223196283e-02 -1.563941905718e+02 0.0 
0.0 0.0 -6.750404706730e+01 
-7.006344489863e+01 3.412832436589e-02 0.0 
3.412832436589e-02 -1.563259317814e+02 0.0 
0.0 0.0 -6.751681300400e+01 
-7.032783216982e+01 1.134303004579e-01 0.0 
1.134303004579e-01 -1.562983090283e+02 0.0 
0.0 0.0 -6.758784235945e+01 
-7.047938119809e+01 2.023787353694e-01 0.0 
2.023787353694e-01 -1.562744222822e+02 0.0 
0.0 0.0 -6.762614104407e+01 
-7.082877523341e+01 2.578815073499e-01 0.0 
2.578815073499e-01 -1.564352529945e+02 0.0 
0.0 0.0 -6.777920846837e+01 
-7.121593043297e+01 3.726190549380e-01 0.0 
3.726190549380e-01 -1.568664108876e+02 0.0 
0.0 0.0 -6.802470239616e+01 
-9.902010799514e+00 8.703418379181e-01 0.0 
8.703418379181e-01 -6.790256148287e+00 0.0 
0.0 0.0 -4.921579925958e+00 
-1.095950837614e+01 1.062081009632e-03 0.0 
1.062081009632e-03 -7.556992035799e+00 0.0 
0.0 0.0 -5.471820851176e+00 
-1.085228739445e+01 -3.880855638249e-01 0.0 
-3.880855638249e-01 -7.162776915006e+00 0.0 
0.0 0.0 -5.304937800584e+00 
-1.014898876922e+01 -3.031184200118e-01 0.0 
-3.031184200118e-01 -7.133044048815e+00 0.0 
0.0 0.0 -5.084751961147e+00 
-9.385634059491e+00 -2.802000297474e-01 0.0 
-2.802000297474e-01 -8.080505560858e+00 0.0 
0.0 0.0 -5.162620341156e+00 
-8.789451281203e+00 -3.425619248895e-01 0.0 
-3.425619248895e-01 -8.440121453243e+00 0.0 
0.0 0.0 -5.095855167246e+00 
-8.126891063249e+00 -3.300554417065e-01 0.0 
-3.300554417065e-01 -8.361509666786e+00 0.0 
0.0 0.0 -4.872012279970e+00 
-7.494575950734e+00 -2.898414328907e-01 0.0 
-2.898414328907e-01 -8.257423546283e+00 0.0 
0.0 0.0 -4.650348508855e+00 
-6.884290563974e+00 -2.677916289769e-01 0.0 
-2.677916289769e-01 -8.238808108365e+00 0.0 
0.0 0.0 -4.460233982631e+00 
-6.372502373112e+00 -2.320535975083e-01 0.0 
-2.320535975083e-01 -8.251283995917e+00 0.0 
0.0 0.0 -4.311082301633e+00 
-5.855686420492e+00 -1.555650441881e-01 0.0 
-1.555650441881e-01 -8.366673018857e+00 0.0 
0.0 0.0 -4.192383655450e+00 
-5.678960447285e+00 -2.338720233453e-01 0.0 
-2.338720233453e-01 -8.925897416598e+00 0.0 
0.0 0.0 -4.318126603834e+00 
-5.080781372566e+00 -2.979623388625e-01 0.0 
-2.979623388625e-01 -8.618017489252e+00 0.0 
0.0 0.0 -4.041529400786e+00 
-4.408739474546e+00 -2.207498314100e-01 0.0 
-2.207498314100e-01 -7.876235728513e+00 0.0 
0.0 0.0 -3.603717490466e+00 
-4.035114816115e+00 -1.612870719727e-01 0.0 
-1.612870719727e-01 -8.021813311865e+00 0.0 
0.0 0.0 -3.540040921941e+00 
-3.798425947848e+00 -1.338565261044e-01 0.0 
-1.338565261044e-01 -8.289804757872e+00 0.0 
0.0 0.0 -3.552220814148e+00 
-3.570425875898e+00 -7.570071605500e-02 0.0 
-7.570071605500e-02 -8.320716308828e+00 0.0 
0.0 0.0 -3.492726569535e+00 
-3.357134391681e+00 -1.070497016836e-01 0.0 
-1.070497016836e-01 -7.917388006508e+00 0.0 
0.0 0.0 -3.305249423347e+00 
-3.248475465126e+00 6.228255258743e-02 0.0 
6.228255258743e-02 -7.318469739310e+00 0.0 
0.0 0.0 -3.078499835719e+00 
-2.194646018993e+00 1.152823489198e+00 0.0 
1.152823489198e+00 -4.532253931200e+00 0.0 
0.0 0.0 -1.397603083668e+00 
-1.697824225386e+00 6.645174187519e-01 0.0 
6.645174187519e-01 -9.301140339330e+00 0.0 
0.0 0.0 -2.734339193372e+00 
-1.167818207891e+00 9.425040805792e-02 0.0 
9.425040805792e-02 -9.858749078312e+00 0.0 
0.0 0.0 -2.907970185861e+00 
-7.623287150218e-01 -6.819463338556e-02 0.0 
-6.819463338556e-02 -9.673616792121e+00 0.0 
0.0 0.0 -2.730783652143e+00 
-8.756890669734e-01 -2.200989933211e-01 0.0 
-2.200989933211e-01 -9.703334313718e+00 0.0 
0.0 0.0 -2.773707014207e+00 
-1.092511526925e+00 -2.607922092737e-01 0.0 
-2.607922092737e-01 -9.663102021538e+00 0.0 
0.0 0.0 -2.826684064539e+00 
-1.457042902015e+00 -2.943907557886e-01 0.0 
-2.943907557886e-01 -9.678325605638e+00 0.0 
0.0 0.0 -2.940610552296e+00 
-1.854317550195e+00 -2.941069343289e-01 0.0 
-2.941069343289e-01 -9.675039659866e+00 0.0 
0.0 0.0 -3.058807163018e+00 
-2.280621881625e+00 -2.902195766331e-01 0.0 
-2.902195766331e-01 -9.685486488889e+00 0.0 
0.0 0.0 -3.189832511154e+00 
-2.704229392039e+00 -2.759741383228e-01 0.0 
-2.759741383228e-01 -9.690322753159e+00 0.0 
0.0 0.0 -3.318365643559e+00 
-3.116883737639e+00 -2.591534388102e-01 0.0 
-2.591534388102e-01 -9.697599155762e+00 0.0 
0.0 0.0 -3.444344868020e+00 
-3.507385522451e+00 -2.386891686386e-01 0.0 
-2.386891686386e-01 -9.703239572792e+00 0.0 
0.0 0.0 -3.563187528573e+00 
-3.870828260692e+00 -2.172159364330e-01 0.0 
-2.172159364330e-01 -9.709030131500e+00 0.0 
0.0 0.0 -3.673957517657e+00 
-4.203165193470e+00 -1.949748098754e-01 0.0 
-1.949748098754e-01 -9.714077108121e+00 0.0 
0.0 0.0 -3.775172690477e+00 
-4.502910550769e+00 -1.731316549008e-01 0.0 
-1.731316549008e-01 -9.718944403896e+00 0.0 
0.0 0.0 -3.866556486400e+00 
-4.770333366626e+00 -1.523477387711e-01 0.0 
-1.523477387711e-01 -9.723460499235e+00 0.0 
0.0 0.0 -3.948138159758e+00 
-5.006962887534e+00 -1.330557224492e-01 0.0 
-1.330557224492e-01 -9.727491394874e+00 0.0 
0.0 0.0 -4.020336284722e+00 
-5.214450461690e+00 -1.150884790223e-01 0.0 
-1.150884790223e-01 -9.730835886077e+00 0.0 
0.0 0.0 -4.083585904330e+00 
-5.394143638571e+00 -9.804197834482e-02 0.0 
-9.804197834482e-02 -9.733471574741e+00 0.0 
0.0 0.0 -4.138284563993e+00 
-5.546734820054e+00 -8.130769927949e-02 0.0 
-8.130769927949e-02 -9.735308321356e+00 0.0 
0.0 0.0 -4.184612942423e+00 
-5.671824981481e+00 -6.390891908369e-02 0.0 
-6.390891908369e-02 -9.736101591889e+00 0.0 
0.0 0.0 -4.222377972011e+00 
-5.767123540866e+00 -4.423262528560e-02 0.0 
-4.423262528560e-02 -9.735376800265e+00 0.0 
0.0 0.0 -4.250750102339e+00 
-5.827402138845e+00 -1.967587714954e-02 0.0 
-1.967587714954e-02 -9.732368056436e+00 0.0 
0.0 0.0 -4.267931058585e+00 
-5.844685942382e+00 1.268432269955e-02 0.0 
1.268432269955e-02 -9.727239754476e+00 0.0 
0.0 0.0 -4.271577709057e+00 
-5.868207565946e+00 2.966570823922e-03 0.0 
2.966570823922e-03 -9.778144914885e+00 0.0 
0.0 0.0 -4.293905744249e+00 
-6.088687385328e+00 -1.825704502385e-01 0.0 
-1.825704502385e-01 -9.523055031703e+00 0.0 
0.0 0.0 -4.283522725109e+00 
-7.810644055063e+00 9.096638464411e-01 0.0 
9.096638464411e-01 -1.752548843297e+01 0.0 
0.0 0.0 -7.200839746409e+00 
-8.571658271911e+00 6.112808616791e-01 0.0 
6.112808616791e-01 -2.101748894875e+01 0.0 
0.0 0.0 -8.476744166199e+00 
-7.415849276545e+00 7.646379945192e-02 0.0 
7.646379945192e-02 -1.992928787617e+01 0.0 
0.0 0.0 -7.803541145814e+00 
-7.147161186902e+00 -1.121389602216e-01 0.0 
-1.121389602216e-01 -1.971809130985e+01 0.0 
0.0 0.0 -7.659575749026e+00 
-7.162669106194e+00 -2.471732050707e-01 0.0 
-2.471732050707e-01 -1.971072886085e+01 0.0 
0.0 0.0 -7.662019390113e+00 
-7.253116589642e+00 -3.097342443180e-01 0.0 
-3.097342443180e-01 -1.964329651485e+01 0.0 
0.0 0.0 -7.668923931346e+00 
-7.444915712662e+00 -3.457765617552e-01 0.0 
-3.457765617552e-01 -1.963250314856e+01 0.0 
0.0 0.0 -7.723225658368e+00 
-7.669724446376e+00 -3.568348282361e-01 0.0 
-3.568348282361e-01 -1.960948761865e+01 0.0 
0.0 0.0 -7.783763619509e+00 
-7.925303023347e+00 -3.545719008202e-01 0.0 
-3.545719008202e-01 -1.960108271775e+01 0.0 
0.0 0.0 -7.857915722329e+00 
-8.185874838986e+00 -3.414242244833e-01 0.0 
-3.414242244833e-01 -1.959195019420e+01 0.0 
0.0 0.0 -7.933347509956e+00 
-8.445699685314e+00 -3.217751836160e-01 0.0 
-3.217751836160e-01 -1.958772831690e+01 0.0 
0.0 0.0 -8.010028400665e+00 
-8.694018880883e+00 -2.974966759253e-01 0.0 
-2.974966759253e-01 -1.958476338400e+01 0.0 
0.0 0.0 -8.083634679465e+00 
-8.926570451292e+00 -2.708472023567e-01 0.0 
-2.708472023567e-01 -1.958422356214e+01 0.0 
0.0 0.0 -8.153238204030e+00 
-9.140086565031e+00 -2.436564691878e-01 0.0 
-2.436564691878e-01 -1.958506904329e+01 0.0 
0.0 0.0 -8.217546682497e+00 
-9.334000717732e+00 -2.172305908533e-01 0.0 
-2.172305908533e-01 -1.958676191486e+01 0.0 
0.0 0.0 -8.276228789777e+00 
-9.507946718483e+00 -1.918950123033e-01 0.0 
-1.918950123033e-01 -1.958852156809e+01 0.0 
0.0 0.0 -8.328940485972e+00 
-9.661934147182e+00 -1.674958193469e-01 0.0 
-1.674958193469e-01 -1.959004872930e+01 0.0 
0.0 0.0 -8.375594862944e+00 
-9.796243172173e+00 -1.435857398515e-01 0.0 
-1.435857398515e-01 -1.959106558393e+01 0.0 
0.0 0.0 -8.416192626831e+00 
-9.911155316831e+00 -1.193770599971e-01 0.0 
-1.193770599971e-01 -1.959122126613e+01 0.0 
0.0 0.0 -8.450712974887e+00 
-1.000684119673e+01 -9.357238844116e-02 0.0 
-9.357238844116e-02 -1.959014741808e+01 0.0 
0.0 0.0 -8.479096584442e+00 
-1.008323326117e+01 -6.433878589955e-02 0.0 
-6.433878589955e-02 -1.958768743663e+01 0.0 
0.0 0.0 -8.501276209339e+00 
-1.014092253767e+01 -2.960956327828e-02 0.0 
-2.960956327828e-02 -1.958404725566e+01 0.0 
0.0 0.0 -8.517490938001e+00 
-1.018425569860e+01 1.282785548645e-02 0.0 
1.282785548645e-02 -1.957823726780e+01 0.0 
0.0 0.0 -8.528747889921e+00 
-1.024701351381e+01 7.079645727958e-02 0.0 
7.079645727958e-02 -1.957255347599e+01 0.0 
0.0 0.0 -8.545870096939e+00 
-1.047058495328e+01 -3.922559742244e-01 0.0 
-3.922559742244e-01 -1.966990313369e+01 0.0 
0.0 0.0 -8.642146426090e+00 
-1.877458921933e+01 -3.487531686237e-01 0.0 
-3.487531686237e-01 -3.923755717138e+01 0.0 
0.0 0.0 -1.700364391721e+01 
-1.872651087958e+01 -1.280459222239e-01 0.0 
-1.280459222239e-01 -3.916200540700e+01 0.0 
0.0 0.0 -1.696655488597e+01 
-1.867926739486e+01 -7.999643545528e-02 0.0 
-7.999643545528e-02 -3.916017521231e+01 0.0 
0.0 0.0 -1.695183278215e+01 
-1.863271927388e+01 -1.139662792692e-01 0.0 
-1.139662792692e-01 -3.917037826735e+01 0.0 
0.0 0.0 -1.694092926237e+01 
-1.858121525232e+01 -1.553349167590e-01 0.0 
-1.553349167590e-01 -3.917960559209e+01 0.0 
0.0 0.0 -1.692824625332e+01 
-1.852189571776e+01 -1.968704640207e-01 0.0 
-1.968704640207e-01 -3.918575571753e+01 0.0 
0.0 0.0 -1.691229543059e+01 
-1.845352339271e+01 -2.378150443647e-01 0.0 
-2.378150443647e-01 -3.918869559430e+01 0.0 
0.0 0.0 -1.689266569610e+01 
-1.837580540615e+01 -2.788802037724e-01 0.0 
-2.788802037724e-01 -3.918929440480e+01 0.0 
0.0 0.0 -1.686952994329e+01 
-1.828829566170e+01 -3.205571511918e-01 0.0 
-3.205571511918e-01 -3.918861657048e+01 0.0 
0.0 0.0 -1.684307366965e+01 
-1.819129430798e+01 -3.629169743928e-01 0.0 
-3.629169743928e-01 -3.918734763069e+01 0.0 
0.0 0.0 -1.681359258160e+01 
-1.808598236740e+01 -4.055329912377e-01 0.0 
-4.055329912377e-01 -3.918607114011e+01 0.0 
0.0 0.0 -1.678161605225e+01 
-1.797481303094e+01 -4.477394299167e-01 0.0 
-4.477394299167e-01 -3.918531295165e+01 0.0 
0.0 0.0 -1.674803779478e+01 
-1.786053799017e+01 -4.885762777877e-01 0.0 
-4.885762777877e-01 -3.918780730883e+01 0.0 
0.0 0.0 -1.671450358970e+01 
-1.774501296671e+01 -5.237357566190e-01 0.0 
-5.237357566190e-01 -3.919457266879e+01 0.0 
0.0 0.0 -1.668187569065e+01 
-1.763502385021e+01 -5.492333464254e-01 0.0 
-5.492333464254e-01 -3.920848169975e+01 0.0 
0.0 0.0 -1.665305166499e+01 
-1.753863960163e+01 -5.565040038675e-01 0.0 
-5.565040038675e-01 -3.922439922001e+01 0.0 
0.0 0.0 -1.662891164649e+01 
-1.747521185682e+01 -5.456653710018e-01 0.0 
-5.456653710018e-01 -3.925555174822e+01 0.0 
0.0 0.0 -1.661922908151e+01 
-1.744720012651e+01 -4.963450594499e-01 0.0 
-4.963450594499e-01 -3.928286848457e+01 0.0 
0.0 0.0 -1.661902058332e+01 
-1.750347479709e+01 -4.177551489154e-01 0.0 
-4.177551489154e-01 -3.935724424616e+01 0.0 
0.0 0.0 -1.665821571298e+01 
-1.760998138361e+01 -2.526832462058e-01 0.0 
-2.526832462058e-01 -3.939209049846e+01 0.0 
0.0 0.0 -1.670062156462e+01 
-1.794400457324e+01 -5.003018482802e-02 0.0 
-5.003018482802e-02 -3.960123089081e+01 0.0 
0.0 0.0 -1.686357063922e+01 
-1.895659043828e+01 4.885021952623e-01 0.0 
4.885021952623e-01 -4.077525752273e+01 0.0 
0.0 0.0 -1.751955438830e+01 
-1.813176701755e+01 8.064382484022e-01 0.0 
8.064382484022e-01 -3.732660080006e+01 0.0 
0.0 0.0 -1.623751034528e+01 
-2.770948275805e+01 5.692292796601e-01 0.0 
5.692292796601e-01 -5.697602380372e+01 0.0 
0.0 0.0 -2.500565196853e+01 
-2.860240672921e+01 3.678534327754e-01 0.0 
3.678534327754e-01 -6.041277154729e+01 0.0 
0.0 0.0 -2.630455348295e+01 
-2.764085334668e+01 -8.277659831973e-02 0.0 
-8.277659831973e-02 -5.926729022624e+01 0.0 
0.0 0.0 -2.567244307188e+01 
-2.727552796581e+01 -2.639326562749e-01 0.0 
-2.639326562749e-01 -5.903291333118e+01 0.0 
0.0 0.0 -2.549253238910e+01 
-2.711760630311e+01 -4.144028595292e-01 0.0 
-4.144028595292e-01 -5.898759878227e+01 0.0 
0.0 0.0 -2.543156152561e+01 
-2.697180313561e+01 -4.923514527900e-01 0.0 
-4.923514527900e-01 -5.888890074762e+01 0.0 
0.0 0.0 -2.535821116497e+01 
-2.691362466178e+01 -5.380558964064e-01 0.0 
-5.380558964064e-01 -5.884948703140e+01 0.0 
0.0 0.0 -2.532893350796e+01 
-2.687923731956e+01 -5.469160406795e-01 0.0 
-5.469160406795e-01 -5.880345553756e+01 0.0 
0.0 0.0 -2.530480785713e+01 
-2.687603938856e+01 -5.325474924037e-01 0.0 
-5.325474924037e-01 -5.878110538026e+01 0.0 
0.0 0.0 -2.529714343065e+01 
-2.688265036941e+01 -5.032041680244e-01 0.0 
-5.032041680244e-01 -5.876821822020e+01 0.0 
0.0 0.0 -2.529526057688e+01 
-2.690280394825e+01 -4.685643101155e-01 0.0 
-4.685643101155e-01 -5.876528147823e+01 0.0 
0.0 0.0 -2.530042562794e+01 
-2.693222211555e+01 -4.299618119763e-01 0.0 
-4.299618119763e-01 -5.876366789831e+01 0.0 
0.0 0.0 -2.530876700416e+01 
-2.696608362825e+01 -3.877990920640e-01 0.0 
-3.877990920640e-01 -5.876384848210e+01 0.0 
0.0 0.0 -2.531897963310e+01 
-2.700031243561e+01 -3.440973269147e-01 0.0 
-3.440973269147e-01 -5.876516394219e+01 0.0 
0.0 0.0 -2.532964291334e+01 
-2.703337387889e+01 -3.002808546529e-01 0.0 
-3.002808546529e-01 -5.876589002957e+01 0.0 
0.0 0.0 -2.533977917254e+01 
-2.706586923353e+01 -2.571546598458e-01 0.0 
-2.571546598458e-01 -5.876435677189e+01 0.0 
0.0 0.0 -2.534906780162e+01 
-2.709764723231e+01 -2.136967379756e-01 0.0 
-2.136967379756e-01 -5.875942548202e+01 0.0 
0.0 0.0 -2.535712181430e+01 
-2.712755115812e+01 -1.701450030513e-01 0.0 
-1.701450030513e-01 -5.875254942637e+01 0.0 
0.0 0.0 -2.536403017535e+01 
-2.715608774597e+01 -1.285463554154e-01 0.0 
-1.285463554154e-01 -5.874720910843e+01 0.0 
0.0 0.0 -2.537098905632e+01 
-2.718210760847e+01 -9.139685467535e-02 0.0 
-9.139685467535e-02 -5.875244614276e+01 0.0 
0.0 0.0 -2.538036612537e+01 
-2.719892318518e+01 -4.450454930232e-02 0.0 
-4.450454930232e-02 -5.878652119836e+01 0.0 
0.0 0.0 -2.539563331506e+01 
-2.719305454152e+01 -4.727799004911e-01 0.0 
-4.727799004911e-01 -5.882879134891e+01 0.0 
0.0 0.0 -2.540655376713e+01 
-3.564143935729e+01 -3.452631820608e-01 0.0 
-3.452631820608e-01 -7.837736905432e+01 0.0 
0.0 0.0 -3.380564252348e+01 
-3.565505357713e+01 -1.582561766961e-01 0.0 
-1.582561766961e-01 -7.833994354615e+01 0.0 
0.0 0.0 -3.379849913698e+01 
-3.565921787869e+01 -1.299287981936e-01 0.0 
-1.299287981936e-01 -7.832546631570e+01 0.0 
0.0 0.0 -3.379540525832e+01 
-3.565710961685e+01 -1.703863770202e-01 0.0 
-1.703863770202e-01 -7.832538265050e+01 0.0 
0.0 0.0 -3.379474768021e+01 
-3.565571975692e+01 -2.150705729756e-01 0.0 
-2.150705729756e-01 -7.833114629430e+01 0.0 
0.0 0.0 -3.379605981537e+01 
-3.565529185327e+01 -2.603728233495e-01 0.0 
-2.603728233495e-01 -7.833806779331e+01 0.0 
0.0 0.0 -3.379800789397e+01 
-3.565755589565e+01 -3.030577549256e-01 0.0 
-3.030577549256e-01 -7.834231029747e+01 0.0 
0.0 0.0 -3.379995985793e+01 
-3.566672598500e+01 -3.450864726051e-01 0.0 
-3.450864726051e-01 -7.834085363607e+01 0.0 
0.0 0.0 -3.380227388632e+01 
-3.568410600436e+01 -3.882794966024e-01 0.0 
-3.882794966024e-01 -7.833993490912e+01 0.0 
0.0 0.0 -3.380721227404e+01 
-3.570442038746e+01 -4.294860604145e-01 0.0 
-4.294860604145e-01 -7.834264370358e+01 0.0 
0.0 0.0 -3.381411922731e+01 
-3.573487416583e+01 -4.630513841125e-01 0.0 
-4.630513841125e-01 -7.834974288985e+01 0.0 
0.0 0.0 -3.382538511671e+01 
-3.578303992581e+01 -4.864111581741e-01 0.0 
-4.864111581741e-01 -7.835886542722e+01 0.0 
0.0 0.0 -3.384257160591e+01 
-3.585318782201e+01 -5.016377574295e-01 0.0 
-5.016377574295e-01 -7.836772915127e+01 0.0 
0.0 0.0 -3.386627509198e+01 
-3.595053990170e+01 -5.104240392378e-01 0.0 
-5.104240392378e-01 -7.840724097677e+01 0.0 
0.0 0.0 -3.390733426354e+01 
-3.605913538719e+01 -4.827138079604e-01 0.0 
-4.827138079604e-01 -7.846176880834e+01 0.0 
0.0 0.0 -3.395627125866e+01 
-3.622308594436e+01 -4.224930984318e-01 0.0 
-4.224930984318e-01 -7.857235481150e+01 0.0 
0.0 0.0 -3.403863222676e+01 
-3.640651258122e+01 -2.794549636376e-01 0.0 
-2.794549636376e-01 -7.863222977202e+01 0.0 
0.0 0.0 -3.411162270597e+01 
-3.677868975686e+01 -1.396659764061e-01 0.0 
-1.396659764061e-01 -7.884394397238e+01 0.0 
0.0 0.0 -3.428679011877e+01 
-3.767303618818e+01 2.505972238879e-01 0.0 
2.505972238879e-01 -8.002063422466e+01 0.0 
0.0 0.0 -3.490810112385e+01 
-3.681186218185e+01 4.578925522631e-01 0.0 
4.578925522631e-01 -7.658887632192e+01 0.0 
0.0 0.0 -3.362022155113e+01 
-4.556375645547e+01 3.351652002609e-01 0.0 
3.351652002609e-01 -9.608719729927e+01 0.0 
0.0 0.0 -4.209528612642e+01 
-4.643892819050e+01 2.335053281662e-01 0.0 
2.335053281662e-01 -9.955279134868e+01 0.0 
0.0 0.0 -4.339751586175e+01 
-4.557991848174e+01 -1.066633700757e-01 0.0 
-1.066633700757e-01 -9.845502064570e+01 0.0 
0.0 0.0 -4.281048173823e+01 
-4.522375523266e+01 -2.305148827693e-01 0.0 
-2.305148827693e-01 -9.819613015287e+01 0.0 
0.0 0.0 -4.262596561566e+01 
-4.505965471918e+01 -3.252662434536e-01 0.0 
-3.252662434536e-01 -9.811405966561e+01 0.0 
0.0 0.0 -4.255211431544e+01 
-4.485449343690e+01 -3.474559500504e-01 0.0 
-3.474559500504e-01 -9.800941542358e+01 0.0 
0.0 0.0 -4.245917265815e+01 
-4.470427611901e+01 -3.642194094073e-01 0.0 
-3.642194094073e-01 -9.799634480502e+01 0.0 
0.0 0.0 -4.241018627721e+01 
-4.458072146067e+01 -3.731865294852e-01 0.0 
-3.731865294852e-01 -9.797466716206e+01 0.0 
0.0 0.0 -4.236661658682e+01 
-4.448066979465e+01 -3.683449688722e-01 0.0 
-3.683449688722e-01 -9.795245873277e+01 0.0 
0.0 0.0 -4.232993855823e+01 
-4.440831269632e+01 -3.468099368196e-01 0.0 
-3.468099368196e-01 -9.793391215178e+01 0.0 
0.0 0.0 -4.230266745443e+01 
-4.434486552701e+01 -3.107881721450e-01 0.0 
-3.107881721450e-01 -9.793227602395e+01 0.0 
0.0 0.0 -4.228314246529e+01 
-4.428256834822e+01 -2.802453481192e-01 0.0 
-2.802453481192e-01 -9.793695797272e+01 0.0 
0.0 0.0 -4.226585789628e+01 
-4.424482279588e+01 -2.514110736049e-01 0.0 
-2.514110736049e-01 -9.793146658603e+01 0.0 
0.0 0.0 -4.225288681457e+01 
-4.421119405491e+01 -2.144170049351e-01 0.0 
-2.144170049351e-01 -9.791978902109e+01 0.0 
0.0 0.0 -4.223929492280e+01 
-4.418448362337e+01 -1.739444781383e-01 0.0 
-1.739444781383e-01 -9.791384751142e+01 0.0 
0.0 0.0 -4.222949934044e+01 
-4.415951610355e+01 -1.340648349764e-01 0.0 
-1.340648349764e-01 -9.790958397819e+01 0.0 
0.0 0.0 -4.222073002452e+01 
-4.414187265481e+01 -8.603088890521e-02 0.0 
-8.603088890521e-02 -9.791798874721e+01 0.0 
0.0 0.0 -4.221795842061e+01 
-4.411327924380e+01 -2.106014407161e-02 0.0 
-2.106014407161e-02 -9.794257342024e+01 0.0 
0.0 0.0 -4.221675579921e+01 
-4.410075552906e+01 -4.556598608951e-01 0.0 
-4.556598608951e-01 -9.795790187966e+01 0.0 
0.0 0.0 -4.221759722261e+01 
-5.252395964600e+01 -3.228957229367e-01 0.0 
-3.228957229367e-01 -1.175410801323e+02 0.0 
0.0 0.0 -5.061951193350e+01 
-5.258047281995e+01 -9.914088397437e-02 0.0 
-9.914088397437e-02 -1.174893375938e+02 0.0 
0.0 0.0 -5.062094312412e+01 
-5.261732870253e+01 -8.892807032039e-02 0.0 
-8.892807032039e-02 -1.174727878127e+02 0.0 
0.0 0.0 -5.062703495456e+01 
-5.265240109487e+01 -1.207505143316e-01 0.0 
-1.207505143316e-01 -1.174858339879e+02 0.0 
0.0 0.0 -5.064147052483e+01 
-5.271561012452e+01 -1.579691390137e-01 0.0 
-1.579691390137e-01 -1.174879961433e+02 0.0 
0.0 0.0 -5.066108188033e+01 
-5.276602234487e+01 -1.928287355340e-01 0.0 
-1.928287355340e-01 -1.175011450514e+02 0.0 
0.0 0.0 -5.068015021889e+01 
-5.283786903196e+01 -2.223247237512e-01 0.0 
-2.223247237512e-01 -1.175258310285e+02 0.0 
0.0 0.0 -5.070911001813e+01 
-5.291043611840e+01 -2.244471932195e-01 0.0 
-2.244471932195e-01 -1.175233906548e+02 0.0 
0.0 0.0 -5.073014803197e+01 
-5.301562820465e+01 -2.548969458291e-01 0.0 
-2.548969458291e-01 -1.175026490429e+02 0.0 
0.0 0.0 -5.075548317425e+01 
-5.311498465213e+01 -2.776091196769e-01 0.0 
-2.776091196769e-01 -1.175421302024e+02 0.0 
0.0 0.0 -5.079713445635e+01 
-5.324440069022e+01 -2.613276605320e-01 0.0 
-2.613276605320e-01 -1.175835310464e+02 0.0 
0.0 0.0 -5.084837952099e+01 
-5.341205348272e+01 -2.347532143333e-01 0.0 
-2.347532143333e-01 -1.176127241032e+02 0.0 
0.0 0.0 -5.090743327577e+01 
-5.358922037952e+01 -1.888203779352e-01 0.0 
-1.888203779352e-01 -1.176632001145e+02 0.0 
0.0 0.0 -5.097572614821e+01 
-5.379159687480e+01 -1.235882518278e-01 0.0 
-1.235882518278e-01 -1.176596641840e+02 0.0 
0.0 0.0 -5.103537831764e+01 
-5.412889606065e+01 -9.627353355128e-02 0.0 
-9.627353355128e-02 -1.179100625997e+02 0.0 
0.0 0.0 -5.121168759810e+01 
-5.496519645450e+01 2.084756282209e-01 0.0 
2.084756282209e-01 -1.191245032979e+02 0.0 
0.0 0.0 -5.182690992573e+01 
-5.410395861495e+01 3.094434504027e-01 0.0 
3.094434504027e-01 -1.156819503107e+02 0.0 
0.0 0.0 -5.053577267769e+01 
-6.244271074831e+01 3.014332418133e-01 0.0 
3.014332418133e-01 -1.351494145054e+02 0.0 
0.0 0.0 -5.887763757611e+01 
-6.320570025196e+01 2.703581255380e-01 0.0 
2.703581255380e-01 -1.384929800482e+02 0.0 
0.0 0.0 -6.010960409004e+01 
-6.245655632009e+01 6.447731424302e-02 0.0 
6.447731424302e-02 -1.374237677905e+02 0.0 
0.0 0.0 -5.956409723318e+01 
-6.225890361201e+01 -1.657397433157e-02 0.0 
-1.657397433157e-02 -1.373023403498e+02 0.0 
0.0 0.0 -5.946837318855e+01 
-6.204268582156e+01 -4.646792974318e-02 0.0 
-4.646792974318e-02 -1.372676398723e+02 0.0 
0.0 0.0 -5.939309770816e+01 
-6.185443647091e+01 -1.065974290694e-01 0.0 
-1.065974290694e-01 -1.372435923450e+02 0.0 
0.0 0.0 -5.932940864478e+01 
-6.167819736417e+01 -1.414080828557e-01 0.0 
-1.414080828557e-01 -1.371417652502e+02 0.0 
0.0 0.0 -5.924598878430e+01 
-6.153650666626e+01 -1.072691420349e-01 0.0 
-1.072691420349e-01 -1.371136989151e+02 0.0 
0.0 0.0 -5.919506167439e+01 
-6.150778915234e+01 -1.294757733516e-01 0.0 
-1.294757733516e-01 -1.371797223522e+02 0.0 
0.0 0.0 -5.920625345136e+01 
-6.135193135925e+01 -1.089490934145e-01 0.0 
-1.089490934145e-01 -1.371239260990e+02 0.0 
0.0 0.0 -5.914275723749e+01 
-6.126635332080e+01 -1.067762500438e-01 0.0 
-1.067762500438e-01 -1.371006816741e+02 0.0 
0.0 0.0 -5.911011049846e+01 
-6.119361497019e+01 -5.473272057731e-02 0.0 
-5.473272057731e-02 -1.370878200269e+02 0.0 
0.0 0.0 -5.908443049914e+01 
-6.110591715356e+01 -5.935131173067e-02 0.0 
-5.935131173067e-02 -1.371033292874e+02 0.0 
0.0 0.0 -5.906277393228e+01 
-6.104642611744e+01 -1.500057746695e-02 0.0 
-1.500057746695e-02 -1.370368727912e+02 0.0 
0.0 0.0 -5.902498967258e+01 
-6.102659094889e+01 1.003524073350e-01 0.0 
1.003524073350e-01 -1.371636072176e+02 0.0 
0.0 0.0 -5.905705944994e+01 
-6.093502921370e+01 -4.673393392599e-01 0.0 
-4.673393392599e-01 -1.372329533655e+02 0.0 
0.0 0.0 -5.905039477377e+01 
-9.613864370266e+00 5.658437725837e+00 0.0 
5.658437725837e+00 -9.321364388249e+00 0.0 
0.0 0.0 -5.372967674343e+00 
-9.748998219571e+00 7.169848554717e+00 0.0 
7.169848554717e+00 -1.363536198979e+01 0.0 
0.0 0.0 -6.615308062808e+00 
-8.059279888987e+00 3.106991409774e+00 0.0 
3.106991409774e+00 -1.314689740375e+01 0.0 
0.0 0.0 -5.961853187820e+00 
-1.668331981456e+01 2.041455439331e+00 0.0 
2.041455439331e+00 -3.226258904408e+01 0.0 
0.0 0.0 -1.428377265759e+01 
-2.569418031866e+01 1.604504622616e+00 0.0 
1.604504622616e+00 -5.153345542503e+01 0.0 
0.0 0.0 -2.276829072311e+01 
-3.476408980494e+01 1.113675211271e+00 0.0 
1.113675211271e+00 -7.110225108775e+01 0.0 
0.0 0.0 -3.135990226781e+01 
-4.339035524912e+01 8.567453505092e-01 0.0 
8.567453505092e-01 -9.055898464058e+01 0.0 
0.0 0.0 -3.978480196691e+01 
-5.194631319169e+01 6.265542982491e-01 0.0 
6.265542982491e-01 -1.100477296872e+02 0.0 
0.0 0.0 -4.819821286368e+01 
-6.033586287231e+01 5.648802954160e-01 0.0 
5.648802954160e-01 -1.295211400523e+02 0.0 
0.0 0.0 -5.655710087738e+01 
-6.865973857976e+01 5.550934844002e-01 0.0 
5.550934844002e-01 -1.491571416203e+02 0.0 
0.0 0.0 -6.494506406002e+01 
-1.220389288444e+01 7.751850766207e+00 0.0 
7.751850766207e+00 -2.303438195840e+01 0.0 
0.0 0.0 -1.017148245285e+01 
-1.547165580449e+02 7.062261525962e+00 0.0 
7.062261525962e+00 -3.640488238060e+02 0.0 
0.0 0.0 -1.552296145553e+02 
-9.505885814575e+00 -4.129633020612e-01 0.0 
-4.129633020612e-01 -1.678839058242e+01 0.0 
0.0 0.0 -7.875582943954e+00 
-1.137319062790e+01 -3.586775549734e-01 0.0 
-3.586775549734e-01 -1.612969402479e+01 0.0 
0.0 0.0 -8.237773126373e+00 
-1.568677057342e+02 4.864613018501e+00 0.0 
4.864613018501e+00 -3.699247284416e+02 0.0 
0.0 0.0 -1.576377302528e+02 
-2.562343653763e+01 3.255325109633e+00 0.0 
3.255325109633e+00 -5.059173837842e+01 0.0 
0.0 0.0 -2.246455247482e+01 
-8.325091386347e+01 7.606944922914e-02 0.0 
7.606944922914e-02 -2.077339172659e+02 0.0 
0.0 0.0 -8.689544933880e+01 
-1.522309585654e+02 7.819008569431e+00 0.0 
7.819008569431e+00 -3.570382789817e+02 0.0 
0.0 0.0 -1.523807712641e+02 
-4.187836776123e+01 1.980277220036e+00 0.0 
1.980277220036e+00 -8.707823427747e+01 0.0 
0.0 0.0 -3.828698061161e+01 
-1.504389966095e+02 7.645636018415e+00 0.0 
7.645636018415e+00 -3.512339191668e+02 0.0 
0.0 0.0 -1.501018747329e+02 
-5.899389311436e+01 1.132999953663e+00 0.0 
1.132999953663e+00 -1.265928134240e+02 0.0 
0.0 0.0 -5.527601196152e+01 
-1.588209722375e+02 3.059985879706e+00 0.0 
3.059985879706e+00 -3.739981145447e+02 0.0 
0.0 0.0 -1.594457260347e+02 
-7.800426445908e+00 -3.144928317525e-01 0.0 
-3.144928317525e-01 -1.616738549713e+01 0.0 
0.0 0.0 -7.200027210063e+00 
-1.484128393978e+02 6.413075735167e+00 0.0 
6.413075735167e+00 -3.456021682877e+02 0.0 
0.0 0.0 -1.478045023057e+02 
-7.560820458894e+01 9.176044706513e-01 0.0 
9.176044706513e-01 -1.660275954398e+02 0.0 
0.0 0.0 -7.209074000864e+01 
-5.128123956893e+01 -1.064109261280e-01 0.0 
-1.064109261280e-01 -1.292526549517e+02 0.0 
0.0 0.0 -5.376016835619e+01 
-1.063774576540e+02 1.079694917912e-01 0.0 
1.079694917912e-01 -2.611068034125e+02 0.0 
0.0 0.0 -1.098452783199e+02 
-1.469896001881e+02 5.241881212931e+00 0.0 
5.241881212931e+00 -3.416938561417e+02 0.0 
0.0 0.0 -1.462050368989e+02 
-1.459187041690e+02 3.516836673671e+00 0.0 
3.516836673671e+00 -3.398026242705e+02 0.0 
0.0 0.0 -1.453163985318e+02 
-1.444682451683e+02 1.105162683872e+00 0.0 
1.105162683872e+00 -3.373874312017e+02 0.0 
0.0 0.0 -1.441567029110e+02 
-1.441590512450e+02 1.686560123731e+00 0.0 
1.686560123731e+00 -3.361074211822e+02 0.0 
0.0 0.0 -1.436799417282e+02 
-1.453896932702e+02 2.673171373969e+00 0.0 
2.673171373969e+00 -3.390145481818e+02 0.0 
0.0 0.0 -1.449212724356e+02 
-7.879313866377e+01 6.113908457756e-01 0.0 
6.113908457756e-01 -1.746125175211e+02 0.0 
0.0 0.0 -7.562169685546e+01 
-7.778064817640e+01 2.087253493535e-01 0.0 
2.087253493535e-01 -1.742764290574e+02 0.0 
0.0 0.0 -7.521712317015e+01 
-7.788957678776e+01 1.844940357385e-01 0.0 
1.844940357385e-01 -1.755217799528e+02 0.0 
0.0 0.0 -7.562340702216e+01 
-1.067750708475e+02 2.179896763642e-01 0.0 
2.179896763642e-01 -2.453863285027e+02 0.0 
0.0 0.0 -1.052484198051e+02 
-1.587039733675e+02 1.878427899983e+00 0.0 
1.878427899983e+00 -3.739439386159e+02 0.0 
0.0 0.0 -1.593943735950e+02 
-1.110035888302e+01 7.051238640351e-01 0.0 
7.051238640351e-01 -1.532955068539e+01 0.0 
0.0 0.0 -7.929236744233e+00 
-7.275593261042e+00 -1.797082432273e-01 0.0 
-1.797082432273e-01 -1.717081832864e+01 0.0 
0.0 0.0 -7.322923763474e+00 
-1.341511284675e+02 2.751518520413e-01 0.0 
2.751518520413e-01 -3.222961836902e+02 0.0 
0.0 0.0 -1.365341936473e+02 
-7.644725233380e+01 -3.535117370987e-02 0.0 
-3.535117370987e-02 -1.731847071455e+02 0.0 
0.0 0.0 -7.448958784379e+01 
-2.703383978531e+01 -1.283595714162e-01 0.0 
-1.283595714162e-01 -6.869093825320e+01 0.0 
0.0 0.0 -2.831743341155e+01 
-1.450656911387e+02 4.278199983278e+00 0.0 
4.278199983278e+00 -3.373927556247e+02 0.0 
0.0 0.0 -1.443375340290e+02 
-1.518835268484e+02 7.889277104772e+00 0.0 
7.889277104772e+00 -3.554381043839e+02 0.0 
0.0 0.0 -1.517964893697e+02 
-1.493305760717e+02 7.113151356495e+00 0.0 
7.113151356495e+00 -3.481781726211e+02 0.0 
0.0 0.0 -1.488526246078e+02 
-1.528582999113e+02 7.530328049182e+00 0.0 
7.530328049182e+00 -3.593662295116e+02 0.0 
0.0 0.0 -1.532673588269e+02 
-1.558976522266e+02 6.332931392266e+00 0.0 
6.332931392266e+00 -3.673072830139e+02 0.0 
0.0 0.0 -1.565614805722e+02 
-1.091418036446e+01 -5.465032456227e-01 0.0 
-5.465032456227e-01 -1.718444754387e+01 0.0 
0.0 0.0 -8.418789996716e+00 
-7.797194222779e+01 3.464945133780e-01 0.0 
3.464945133780e-01 -1.737446726976e+02 0.0 
0.0 0.0 -7.511498447761e+01 
-1.560991508061e+02 3.913861496789e+00 0.0 
3.913861496789e+00 -3.686178785677e+02 0.0 
0.0 0.0 -1.570151088121e+02 
-1.226929601575e+02 2.390798290089e-01 0.0 
2.390798290089e-01 -2.839973530280e+02 0.0 
0.0 0.0 -1.216070939556e+02 
-8.822711123788e+00 -3.687562089208e-01 0.0 
-3.687562089208e-01 -1.706193377580e+01 0.0 
0.0 0.0 -7.766262269384e+00 
-6.672550758872e+01 -2.324878642802e-03 0.0 
-2.324878642802e-03 -1.675543853212e+02 0.0 
0.0 0.0 -6.988396787298e+01 
-1.454936932749e+02 6.840368483213e-01 0.0 
6.840368483213e-01 -3.400921843177e+02 0.0 
0.0 0.0 -1.452757632778e+02 
-3.442292486106e+01 2.720091770952e+00 0.0 
2.720091770952e+00 -7.030436428231e+01 0.0 
0.0 0.0 -3.101818674301e+01 
-1.773058359430e+01 5.365604394318e+00 0.0 
5.365604394318e+00 -3.294275424000e+01 0.0 
0.0 0.0 -1.480200135029e+01 
-5.047806063203e+01 1.468422024663e+00 0.0 
1.468422024663e+00 -1.068174750820e+02 0.0 
0.0 0.0 -4.678866071420e+01 
-6.728607916391e+01 1.047575702187e+00 0.0 
1.047575702187e+00 -1.460579072764e+02 0.0 
0.0 0.0 -6.360319593209e+01 
-1.011981233379e+01 5.812310075216e+00 0.0 
5.812310075216e+00 -1.715677785656e+01 0.0 
0.0 0.0 -7.832245090789e+00 
-9.120548796718e+01 7.574484231148e-02 0.0 
7.574484231148e-02 -2.081061488614e+02 0.0 
0.0 0.0 -8.939349104859e+01 
-1.603612902007e+02 1.069816730791e+00 0.0 
1.069816730791e+00 -3.775018783034e+02 0.0 
0.0 0.0 -1.609589505512e+02 
-6.811494064559e+00 -1.530795454963e-01 0.0 
-1.530795454963e-01 -1.634137339506e+01 0.0 
0.0 0.0 -6.901725979364e+00 
-1.384730535357e+02 1.625233791660e-01 0.0 
1.625233791660e-01 -3.223290588352e+02 0.0 
0.0 0.0 -1.378406337113e+02 
-7.956783122690e+01 9.552780262174e-01 0.0 
9.552780262174e-01 -1.752192181395e+02 0.0 
0.0 0.0 -7.603611480991e+01 
-8.321180459780e+01 1.318527654796e+00 0.0 
1.318527654796e+00 -1.835145934387e+02 0.0 
0.0 0.0 -7.961791941095e+01 
-8.695849768127e+01 1.200198538335e+00 0.0 
1.200198538335e+00 -1.926695293447e+02 0.0 
0.0 0.0 -8.348840810780e+01 
-9.112701794957e+01 1.755776147239e+00 0.0 
1.755776147239e+00 -2.023625407438e+02 0.0 
0.0 0.0 -8.764686760801e+01 
-9.524243858567e+01 1.697754674497e+00 0.0 
1.697754674497e+00 -2.124202479328e+02 0.0 
0.0 0.0 -9.189880595555e+01 
-9.900954305375e+01 2.134129172918e+00 0.0 
2.134129172918e+00 -2.211915115607e+02 0.0 
0.0 0.0 -9.566031638434e+01 
-9.501819935556e+01 2.188933343664e+00 0.0 
2.188933343664e+00 -2.112084728530e+02 0.0 
0.0 0.0 -9.146800166257e+01 
-1.028748321943e+02 2.588926431362e+00 0.0 
2.588926431362e+00 -2.301278884313e+02 0.0 
0.0 0.0 -9.950081618768e+01 
-9.881284223049e+01 2.656646694666e+00 0.0 
2.656646694666e+00 -2.200632787682e+02 0.0 
0.0 0.0 -9.526283629962e+01 
-1.032645592875e+02 2.109805367760e+00 0.0 
2.109805367760e+00 -2.315243131027e+02 0.0 
0.0 0.0 -1.000366617170e+02 
-1.066609652121e+02 3.070372493754e+00 0.0 
3.070372493754e+00 -2.391212668453e+02 0.0 
0.0 0.0 -1.033346696172e+02 
-1.025912216842e+02 3.160355900137e+00 0.0 
3.160355900137e+00 -2.290484169445e+02 0.0 
0.0 0.0 -9.909189158861e+01 
-1.104022304138e+02 3.555974791421e+00 0.0 
3.555974791421e+00 -2.481903339381e+02 0.0 
0.0 0.0 -1.071777693056e+02 
-1.063325935993e+02 3.680882317845e+00 0.0 
3.680882317845e+00 -2.381785206218e+02 0.0 
0.0 0.0 -1.029533342663e+02 
-9.853938713529e+01 3.292715317030e+00 0.0 
3.292715317030e+00 -2.191345781311e+02 0.0 
0.0 0.0 -9.490218957992e+01 
-1.022633551651e+02 3.832932744125e+00 0.0 
3.832932744125e+00 -2.283163976531e+02 0.0 
0.0 0.0 -9.877392584548e+01 
-9.446999355990e+01 3.464700630636e+00 0.0 
3.464700630636e+00 -2.092813756632e+02 0.0 
0.0 0.0 -9.072541076694e+01 
-9.818020886237e+01 4.037593972714e+00 0.0 
4.037593972714e+00 -2.185552114533e+02 0.0 
0.0 0.0 -9.462062609470e+01 
-1.059490430536e+02 4.364123992215e+00 0.0 
4.364123992215e+00 -2.376512113070e+02 0.0 
0.0 0.0 -1.026800763082e+02 
-1.018417085055e+02 4.595449146393e+00 0.0 
4.595449146393e+00 -2.279793154005e+02 0.0 
0.0 0.0 -9.854630717180e+01 
-9.403461882445e+01 4.295464667179e+00 0.0 
4.295464667179e+00 -2.088517268776e+02 0.0 
0.0 0.0 -9.046590371062e+01 
-9.766474301450e+01 4.863997882216e+00 0.0 
4.863997882216e+00 -2.183813211132e+02 0.0 
0.0 0.0 -9.441381923831e+01 
-8.985149524515e+01 4.602995652412e+00 0.0 
4.602995652412e+00 -1.992632851696e+02 0.0 
0.0 0.0 -8.633443412443e+01 
-9.344828448077e+01 5.180724514770e+00 0.0 
5.180724514770e+00 -2.089361839831e+02 0.0 
0.0 0.0 -9.031534053916e+01 
-8.559767213792e+01 4.974997022833e+00 0.0 
4.974997022833e+00 -1.897570225402e+02 0.0 
0.0 0.0 -8.220640840343e+01 
-8.916029505460e+01 5.547919146520e+00 0.0 
5.547919146520e+00 -1.996217746575e+02 0.0 
0.0 0.0 -8.623462091364e+01 
-9.699458780676e+01 5.680056940068e+00 0.0 
5.680056940068e+00 -2.187745441477e+02 0.0 
0.0 0.0 -9.433073958635e+01 
-9.264308065556e+01 6.013741700131e+00 0.0 
6.013741700131e+00 -2.096046598779e+02 0.0 
0.0 0.0 -9.027432216003e+01 
-8.479573754947e+01 5.952302148957e+00 0.0 
5.952302148957e+00 -1.904663750035e+02 0.0 
0.0 0.0 -8.217863376589e+01 
-8.821490016511e+01 6.368142982158e+00 0.0 
6.368142982158e+00 -2.006095490625e+02 0.0 
0.0 0.0 -8.624733476828e+01 
-8.035064661876e+01 6.384039203200e+00 0.0 
6.384039203200e+00 -1.815059757867e+02 0.0 
0.0 0.0 -7.815698672163e+01 
-8.369586042760e+01 6.717321455194e+00 0.0 
6.717321455194e+00 -1.917771542374e+02 0.0 
0.0 0.0 -8.224190439951e+01 
-9.159862014130e+01 6.641452887251e+00 0.0 
6.641452887251e+00 -2.108039638859e+02 0.0 
0.0 0.0 -9.032077520816e+01 
-8.703397795155e+01 6.890119598642e+00 0.0 
6.890119598642e+00 -2.020938044035e+02 0.0 
0.0 0.0 -8.633833470652e+01 
-7.905814143366e+01 7.036092760406e+00 0.0 
7.036092760406e+00 -1.830769308807e+02 0.0 
0.0 0.0 -7.824052169432e+01 
-8.238400845325e+01 7.067719054877e+00 0.0 
7.067719054877e+00 -1.935411773059e+02 0.0 
0.0 0.0 -8.237755572773e+01 
-7.433416595209e+01 7.275621319862e+00 0.0 
7.275621319862e+00 -1.745732480938e+02 0.0 
0.0 0.0 -7.427222421376e+01 
-7.769304546003e+01 7.124524173662e+00 0.0 
7.124524173662e+00 -1.851720714342e+02 0.0 
0.0 0.0 -7.845953506828e+01 
-6.956658583128e+01 7.356332812667e+00 0.0 
7.356332812667e+00 -1.662802521316e+02 0.0 
0.0 0.0 -7.035405138888e+01 
-7.295269058339e+01 7.017759178266e+00 0.0 
7.017759178266e+00 -1.768569796073e+02 0.0 
0.0 0.0 -7.454290105720e+01 
-8.110052341535e+01 6.848901020236e+00 0.0 
6.848901020236e+00 -1.955447924676e+02 0.0 
0.0 0.0 -8.259359476487e+01 
-7.641801525277e+01 6.598018380337e+00 0.0 
6.598018380337e+00 -1.871777243858e+02 0.0 
0.0 0.0 -7.867872189156e+01 
-6.823417459823e+01 6.719305726227e+00 0.0 
6.719305726227e+00 -1.685969715342e+02 0.0 
0.0 0.0 -7.064934383974e+01 
-7.176326948668e+01 6.164014709757e+00 0.0 
6.164014709757e+00 -1.787366053255e+02 0.0 
0.0 0.0 -7.474996244366e+01 
-7.997837168403e+01 6.127573657702e+00 0.0 
6.127573657702e+00 -1.972751863189e+02 0.0 
0.0 0.0 -8.277606740089e+01 
-7.537481499075e+01 5.607980209688e+00 0.0 
5.607980209688e+00 -1.886186324038e+02 0.0 
0.0 0.0 -7.879803421837e+01 
-8.361686150303e+01 5.649062483502e+00 0.0 
5.649062483502e+00 -2.071517390103e+02 0.0 
0.0 0.0 -8.683058015398e+01 
-7.906095135279e+01 5.077437408141e+00 0.0 
5.077437408141e+00 -1.982926211170e+02 0.0 
0.0 0.0 -8.280607174094e+01 
-7.091253125575e+01 4.952765160448e+00 0.0 
4.952765160448e+00 -1.799188940905e+02 0.0 
0.0 0.0 -7.484942760386e+01 
-7.463196236736e+01 4.405293800753e+00 0.0 
4.405293800753e+00 -1.893421249926e+02 0.0 
0.0 0.0 -7.879222620798e+01 
-8.280174158870e+01 4.588835161777e+00 0.0 
4.588835161777e+00 -2.077656633082e+02 0.0 
0.0 0.0 -8.677022146907e+01 
-7.837980560338e+01 3.923997381970e+00 0.0 
3.923997381970e+00 -1.985572487503e+02 0.0 
0.0 0.0 -8.268111630612e+01 
-7.033818175785e+01 3.667896064721e+00 0.0 
3.667896064721e+00 -1.802353054343e+02 0.0 
0.0 0.0 -7.477204615766e+01 
-7.410468247861e+01 3.217012235322e+00 0.0 
3.217012235322e+00 -1.892486666203e+02 0.0 
0.0 0.0 -7.860600472966e+01 
-8.218194118832e+01 3.505026741491e+00 0.0 
3.505026741491e+00 -2.076779310105e+02 0.0 
0.0 0.0 -8.655796165965e+01 
-7.790043966376e+01 2.838850700902e+00 0.0 
2.838850700902e+00 -1.981596185851e+02 0.0 
0.0 0.0 -8.241801747466e+01 
-6.995313076966e+01 2.503096742245e+00 0.0 
2.503096742245e+00 -1.797673292052e+02 0.0 
0.0 0.0 -7.451613799245e+01 
-7.372781251950e+01 2.184075424768e+00 0.0 
2.184075424768e+00 -1.885062718317e+02 0.0 
0.0 0.0 -7.827022530538e+01 
-8.176550940320e+01 2.528097717885e+00 0.0 
2.528097717885e+00 -2.071001042618e+02 0.0 
0.0 0.0 -8.625968409950e+01 
-7.752432193019e+01 1.932178973650e+00 0.0 
1.932178973650e+00 -1.972033725518e+02 0.0 
0.0 0.0 -8.201830834460e+01 
-6.962264337195e+01 1.564153224226e+00 0.0 
1.564153224226e+00 -1.786268280254e+02 0.0 
0.0 0.0 -7.407484141921e+01 
-7.335527599818e+01 1.369447493005e+00 0.0 
1.369447493005e+00 -1.871468434394e+02 0.0 
0.0 0.0 -7.775063583127e+01 
-8.137177167574e+01 1.728419679914e+00 0.0 
1.728419679914e+00 -2.059498198139e+02 0.0 
0.0 0.0 -8.579647744689e+01 
-7.711407870971e+01 1.222501857023e+00 0.0 
1.222501857023e+00 -1.956823944668e+02 0.0 
0.0 0.0 -8.143894195294e+01 
-8.523532515407e+01 1.566234950777e+00 0.0 
1.566234950777e+00 -2.146707695851e+02 0.0 
0.0 0.0 -8.957182842174e+01 
-6.917141501740e+01 8.637300360544e-01 0.0 
8.637300360544e-01 -1.767690443816e+02 0.0 
0.0 0.0 -7.338213781969e+01 
-7.287141451080e+01 7.776947168428e-01 0.0 
7.776947168428e-01 -1.852166114793e+02 0.0 
0.0 0.0 -7.702640779704e+01 
-6.498273657486e+01 4.302816879777e-01 0.0 
4.302816879777e-01 -1.661455590932e+02 0.0 
0.0 0.0 -6.893848870041e+01 
-6.865372715253e+01 4.038220949151e-01 0.0 
4.038220949151e-01 -1.746067416900e+02 0.0 
0.0 0.0 -7.257814065277e+01 
-9.498563475640e+01 6.780352996735e+00 0.0 
6.780352996735e+00 -2.210212000631e+02 0.0 
0.0 0.0 -9.440205044585e+01 
-6.082337618753e+01 8.683478620018e-02 0.0 
8.683478620018e-02 -1.554128294742e+02 0.0 
0.0 0.0 -6.447086169851e+01 
-5.731719906027e+01 9.171043910583e-02 0.0 
9.171043910583e-02 -1.472257645665e+02 0.0 
0.0 0.0 -6.096288908802e+01 
-6.445033280447e+01 1.096150267674e-01 0.0 
1.096150267674e-01 -1.638932514613e+02 0.0 
0.0 0.0 -6.810307527974e+01 
-7.238532489169e+01 3.928083120850e-01 0.0 
3.928083120850e-01 -1.832146912492e+02 0.0 
0.0 0.0 -7.628000484226e+01 
-5.665044767623e+01 -1.666285697225e-01 0.0 
-1.666285697225e-01 -1.445694267856e+02 0.0 
0.0 0.0 -5.996596233856e+01 
-6.024154351483e+01 -1.135731340334e-01 0.0 
-1.135731340334e-01 -1.530817298687e+02 0.0 
0.0 0.0 -6.359698201506e+01 
-5.246419711386e+01 -3.512619153723e-01 0.0 
-3.512619153723e-01 -1.336664816255e+02 0.0 
0.0 0.0 -5.543920362182e+01 
-6.609158097287e+01 7.523640733332e+00 0.0 
7.523640733332e+00 -1.551397948547e+02 0.0 
0.0 0.0 -6.596941274827e+01 
-1.096040823835e+02 4.885667170999e+00 0.0 
4.885667170999e+00 -2.471384410736e+02 0.0 
0.0 0.0 -1.066227570371e+02 
-5.601517924037e+01 -2.761221075960e-01 0.0 
-2.761221075960e-01 -1.422044603332e+02 0.0 
0.0 0.0 -5.906589187208e+01 
-4.824071279451e+01 -4.448734301164e-01 0.0 
-4.448734301164e-01 -1.227052071156e+02 0.0 
0.0 0.0 -5.088377597304e+01 
-4.478427189586e+01 -5.429594046037e-01 0.0 
-5.429594046037e-01 -1.141921486976e+02 0.0 
0.0 0.0 -4.729292617804e+01 
-4.059851725556e+01 -5.871501590340e-01 0.0 
-5.871501590340e-01 -1.031847416837e+02 0.0 
0.0 0.0 -4.273497768179e+01 
-9.951482039652e+01 1.771535870093e+00 0.0 
1.771535870093e+00 -2.227264765349e+02 0.0 
0.0 0.0 -9.627238907943e+01 
-1.073435328084e+02 2.036678249257e+00 0.0 
2.036678249257e+00 -2.419163516850e+02 0.0 
0.0 0.0 -1.043779653480e+02 
-1.033152117479e+02 1.693285995429e+00 0.0 
1.693285995429e+00 -2.325155133068e+02 0.0 
0.0 0.0 -1.003492175164e+02 
-1.113917768747e+02 2.020461545345e+00 0.0 
2.020461545345e+00 -2.522921874037e+02 0.0 
0.0 0.0 -1.087051892835e+02 
-1.075467699118e+02 1.687916892119e+00 0.0 
1.687916892119e+00 -2.432696055482e+02 0.0 
0.0 0.0 -1.048449126380e+02 
-4.400304275846e+01 -4.563403993436e-01 0.0 
-4.563403993436e-01 -1.116714893169e+02 0.0 
0.0 0.0 -4.630235962260e+01 
-1.145377473373e+02 3.450137373112e+00 0.0 
3.450137373112e+00 -2.584763840815e+02 0.0 
0.0 0.0 -1.115042394257e+02 
-1.152267410749e+02 2.385457790305e+00 0.0 
2.385457790305e+00 -2.613180332166e+02 0.0 
0.0 0.0 -1.125634322874e+02 
-8.619558923520e+01 3.971426393096e+00 0.0 
3.971426393096e+00 -1.897936265933e+02 0.0 
0.0 0.0 -8.239676474855e+01 
-7.693394290313e+01 5.881564687431e+00 0.0 
5.881564687431e+00 -1.712831695380e+02 0.0 
0.0 0.0 -7.406513373235e+01 
-8.826053312065e+01 6.103436132325e+00 0.0 
6.103436132325e+00 -2.159432834930e+02 0.0 
0.0 0.0 -9.086114498410e+01 
-6.386249822186e+01 -4.958598137071e-02 0.0 
-4.958598137071e-02 -1.616344961929e+02 0.0 
0.0 0.0 -6.724909832441e+01 
-5.960295354821e+01 -2.048602659047e-01 0.0 
-2.048602659047e-01 -1.507918998361e+02 0.0 
0.0 0.0 -6.271845601530e+01 
-6.746680937491e+01 2.419829015179e-02 0.0 
2.419829015179e-02 -1.702422489887e+02 0.0 
0.0 0.0 -7.091271750909e+01 
-8.959242662079e+01 2.071674972985e+00 0.0 
2.071674972985e+00 -2.249008655067e+02 0.0 
0.0 0.0 -9.394798763824e+01 
-9.352076122465e+01 1.894384767283e+00 0.0 
1.894384767283e+00 -2.337147198733e+02 0.0 
0.0 0.0 -9.777064432940e+01 
-9.797539727234e+01 2.394326206998e+00 0.0 
2.394326206998e+00 -2.439214118143e+02 0.0 
0.0 0.0 -1.021690427260e+02 
-1.019549423363e+02 2.206687909020e+00 0.0 
2.206687909020e+00 -2.527857301222e+02 0.0 
0.0 0.0 -1.060222017376e+02 
-1.065031245057e+02 2.701947392071e+00 0.0 
2.701947392071e+00 -2.629808276681e+02 0.0 
0.0 0.0 -1.104451856521e+02 
-1.105309848042e+02 2.503002518464e+00 0.0 
2.503002518464e+00 -2.718788446114e+02 0.0 
0.0 0.0 -1.143229488247e+02 
-1.059403493142e+02 2.040832431907e+00 0.0 
2.040832431907e+00 -2.615851489341e+02 0.0 
0.0 0.0 -1.098576494745e+02 
-1.145667520715e+02 2.324733422750e+00 0.0 
2.324733422750e+00 -2.807072131996e+02 0.0 
0.0 0.0 -1.181821895813e+02 
-1.099315810048e+02 1.887700526000e+00 0.0 
1.887700526000e+00 -2.703292230263e+02 0.0 
0.0 0.0 -1.136782412093e+02 
-1.151656824754e+02 2.994554388242e+00 0.0 
2.994554388242e+00 -2.820632856879e+02 0.0 
0.0 0.0 -1.187686904490e+02 
-1.110787244817e+02 3.221444742648e+00 0.0 
3.221444742648e+00 -2.730261857950e+02 0.0 
0.0 0.0 -1.148314730830e+02 
-1.186105533919e+02 2.154459382164e+00 0.0 
2.154459382164e+00 -2.894660124651e+02 0.0 
0.0 0.0 -1.220229697571e+02 
-1.139280464849e+02 1.734313350941e+00 0.0 
1.734313350941e+00 -2.790194345256e+02 0.0 
0.0 0.0 -1.174842443031e+02 
-1.226699596900e+02 1.977608126373e+00 0.0 
1.977608126373e+00 -2.981705250959e+02 0.0 
0.0 0.0 -1.258521454358e+02 
-1.179321749100e+02 1.578118167895e+00 0.0 
1.578118167895e+00 -2.876615260756e+02 0.0 
0.0 0.0 -1.212781102957e+02 
-1.092560389695e+02 1.352434150403e+00 0.0 
1.352434150403e+00 -2.684524338459e+02 0.0 
0.0 0.0 -1.129125418446e+02 
-1.131963779789e+02 1.214658462934e+00 0.0 
1.214658462934e+00 -2.770312503126e+02 0.0 
0.0 0.0 -1.166682884874e+02 
-1.046262627388e+02 1.021690480661e+00 0.0 
1.021690480661e+00 -2.578606580880e+02 0.0 
0.0 0.0 -1.083460762480e+02 
-9.193444917528e+01 5.694548132261e+00 0.0 
5.694548132261e+00 -2.258126377731e+02 0.0 
0.0 0.0 -9.492412608452e+01 
-9.660384301711e+01 6.098408382527e+00 0.0 
6.098408382527e+00 -2.347408523467e+02 0.0 
0.0 0.0 -9.900340860913e+01 
-1.003200557154e+02 5.751360484763e+00 0.0 
5.751360484763e+00 -2.445881397077e+02 0.0 
0.0 0.0 -1.030724586269e+02 
-1.049983930554e+02 6.125324923393e+00 0.0 
6.125324923393e+00 -2.536352853362e+02 0.0 
0.0 0.0 -1.071901035175e+02 
-1.087750790977e+02 5.838550396170e+00 0.0 
5.838550396170e+00 -2.634657290922e+02 0.0 
0.0 0.0 -1.112722424570e+02 
-1.134389672780e+02 6.196987213949e+00 0.0 
6.196987213949e+00 -2.726019994583e+02 0.0 
0.0 0.0 -1.154122900209e+02 
-1.172748898197e+02 5.964202568287e+00 0.0 
5.964202568287e+00 -2.823824213222e+02 0.0 
0.0 0.0 -1.194971933426e+02 
-1.126272963794e+02 5.547996536218e+00 0.0 
5.547996536218e+00 -2.731548493264e+02 0.0 
0.0 0.0 -1.153346437118e+02 
-1.140602190845e+02 4.048116231595e+00 0.0 
4.048116231595e+00 -2.573071918538e+02 0.0 
0.0 0.0 -1.110102232815e+02 
-6.361027025975e+01 6.189474323639e+00 0.0 
6.189474323639e+00 -1.603289506780e+02 0.0 
0.0 0.0 -6.678176628134e+01 
-6.008309321530e+01 6.840320049508e+00 0.0 
6.840320049508e+00 -1.501086564336e+02 0.0 
0.0 0.0 -6.265752489468e+01 
-5.552956036037e+01 6.176517578207e+00 0.0 
6.176517578207e+00 -1.420692692529e+02 0.0 
0.0 0.0 -5.887964888397e+01 
-5.199178428361e+01 6.934205604565e+00 0.0 
6.934205604565e+00 -1.317781392740e+02 0.0 
0.0 0.0 -5.473097706729e+01 
-4.754910160680e+01 6.090911607121e+00 0.0 
6.090911607121e+00 -1.239738154865e+02 0.0 
0.0 0.0 -5.105687512799e+01 
-4.398692748654e+01 6.964369282316e+00 0.0 
6.964369282316e+00 -1.136306041085e+02 0.0 
0.0 0.0 -4.688525947851e+01 
-3.970572112414e+01 5.889859994361e+00 0.0 
5.889859994361e+00 -1.060070280158e+02 0.0 
0.0 0.0 -4.331382474198e+01 
-4.339930050357e+01 4.972171654225e+00 0.0 
4.972171654225e+00 -1.158996935539e+02 0.0 
0.0 0.0 -4.738969821725e+01 
-3.582886821727e+01 4.532413945440e+00 0.0 
4.532413945440e+00 -9.797878456640e+01 0.0 
0.0 0.0 -3.974229583510e+01 
-3.959358697602e+01 3.699949912149e+00 0.0 
3.699949912149e+00 -1.074071724871e+02 0.0 
0.0 0.0 -4.370022783894e+01 
-3.236252019805e+01 3.078533863514e+00 0.0 
3.078533863514e+00 -8.939211853607e+01 0.0 
0.0 0.0 -3.612639162023e+01 
-3.607118964801e+01 2.417077478304e+00 0.0 
2.417077478304e+00 -9.835515651601e+01 0.0 
0.0 0.0 -3.992790384921e+01 
-1.004878937107e+02 6.084844265130e+00 0.0 
6.084844265130e+00 -2.287167374452e+02 0.0 
0.0 0.0 -9.836138934675e+01 
-1.096734585528e+02 6.412348663338e+00 0.0 
6.412348663338e+00 -2.626493715406e+02 0.0 
0.0 0.0 -1.112968490280e+02 
-1.181056026334e+02 6.474989028536e+00 0.0 
6.474989028536e+00 -2.817344288580e+02 0.0 
0.0 0.0 -1.195520094474e+02 
-1.142969696273e+02 6.617780685446e+00 0.0 
6.617780685446e+00 -2.715757977210e+02 0.0 
0.0 0.0 -1.153618302045e+02 
-3.719853436025e+01 -6.732601844612e-01 0.0 
-6.732601844612e-01 -9.469412863488e+01 0.0 
0.0 0.0 -3.916779889854e+01 
-1.219477842572e+02 1.410985743481e+00 0.0 
1.410985743481e+00 -2.962700754039e+02 0.0 
0.0 0.0 -1.250653578983e+02 
-1.198333783086e+02 3.514982986500e+00 0.0 
3.514982986500e+00 -2.921287402158e+02 0.0 
0.0 0.0 -1.231886355573e+02 
-1.156699311857e+02 3.752916949812e+00 0.0 
3.752916949812e+00 -2.828938715865e+02 0.0 
0.0 0.0 -1.191691408316e+02 
-1.212177537579e+02 5.714960438566e+00 0.0 
5.714960438566e+00 -2.920992378301e+02 0.0 
0.0 0.0 -1.235950974764e+02 
-3.642162779868e+01 -5.609418834376e-01 0.0 
-5.609418834376e-01 -9.228874741172e+01 0.0 
0.0 0.0 -3.821311256312e+01 
-3.614603740760e+01 6.892161840583e+00 0.0 
6.892161840583e+00 -9.570223788181e+01 0.0 
0.0 0.0 -3.915448258683e+01 
-4.052086687466e+01 7.798291002164e+00 0.0 
7.798291002164e+00 -1.026889172875e+02 0.0 
0.0 0.0 -4.256293524864e+01 
-1.154764127258e+02 1.999153153372e+00 0.0 
1.999153153372e+00 -2.627401757304e+02 0.0 
0.0 0.0 -1.130649765369e+02 
-1.116601711795e+02 1.669043594665e+00 0.0 
1.669043594665e+00 -2.537264691469e+02 0.0 
0.0 0.0 -1.092159920979e+02 
-1.245431005120e+02 4.042375270918e+00 0.0 
4.042375270918e+00 -3.020933629301e+02 0.0 
0.0 0.0 -1.275909390326e+02 
-3.980274005572e+01 -4.519921991443e-01 0.0 
-4.519921991443e-01 -1.007555604645e+02 0.0 
0.0 0.0 -4.176749015606e+01 
-1.233238265317e+02 2.603797110578e+00 0.0 
2.603797110578e+00 -2.998264327426e+02 0.0 
0.0 0.0 -1.265450777823e+02 
-2.869935277804e+01 3.878781417703e+00 0.0 
3.878781417703e+00 -8.020101632909e+01 0.0 
0.0 0.0 -3.227011073214e+01 
-1.171533286576e+02 1.058672067706e+00 0.0 
1.058672067706e+00 -2.855889320946e+02 0.0 
0.0 0.0 -1.204226782256e+02 
-1.259483614231e+02 1.226124500976e+00 0.0 
1.226124500976e+00 -3.048276176536e+02 0.0 
0.0 0.0 -1.288327937230e+02 
-1.014020832103e+02 1.613264829910e+00 0.0 
1.613264829910e+00 -2.512129694996e+02 0.0 
0.0 0.0 -1.053845158130e+02 
-1.227455879347e+02 6.693371514043e+00 0.0 
6.693371514043e+00 -2.908553947983e+02 0.0 
0.0 0.0 -1.236802948199e+02 
-1.188599798328e+02 6.756912549300e+00 0.0 
6.756912549300e+00 -2.804746563884e+02 0.0 
0.0 0.0 -1.194003908663e+02 
-4.339618621487e+01 3.030624931515e+00 0.0 
3.030624931515e+00 -1.166397419571e+02 0.0 
0.0 0.0 -4.761077845158e+01 
-3.977259854639e+01 1.957799062938e+00 0.0 
1.957799062938e+00 -1.072627058648e+02 0.0 
0.0 0.0 -4.371059132336e+01 
-3.286260419622e+01 1.319931405286e+00 0.0 
1.319931405286e+00 -8.916613674877e+01 0.0 
0.0 0.0 -3.620862228350e+01 
-3.668655431284e+01 9.790101978059e-01 0.0 
9.790101978059e-01 -9.818208750322e+01 0.0 
0.0 0.0 -4.006059254482e+01 
-4.354054794688e+01 1.531584341457e+00 0.0 
1.531584341457e+00 -1.162274029202e+02 0.0 
0.0 0.0 -4.753038526012e+01 
-3.999780491274e+01 6.530716980471e-01 0.0 
6.530716980471e-01 -1.061720313014e+02 0.0 
0.0 0.0 -4.345095086426e+01 
-3.320152534437e+01 8.763493171924e-02 0.0 
8.763493171924e-02 -8.772164220272e+01 0.0 
0.0 0.0 -3.587695026413e+01 
-3.645340281047e+01 -8.692279682031e-04 0.0 
-8.692279682031e-04 -9.580557133915e+01 0.0 
0.0 0.0 -3.927769224489e+01 
-4.351303604823e+01 4.644274663512e-01 0.0 
4.644274663512e-01 -1.145864510297e+02 0.0 
0.0 0.0 -4.702984612337e+01 
-3.981781421026e+01 -9.336636630589e-02 0.0 
-9.336636630589e-02 -1.040888789366e+02 0.0 
0.0 0.0 -4.277200794407e+01 
-3.287544250934e+01 -4.547341871926e-01 0.0 
-4.547341871926e-01 -8.504256095577e+01 0.0 
0.0 0.0 -3.497540103953e+01 
-3.603197772633e+01 -4.688164960725e-01 0.0 
-4.688164960725e-01 -9.327044088913e+01 0.0 
0.0 0.0 -3.839072558464e+01 
-1.307927160472e+02 1.592313363028e+00 0.0 
1.592313363028e+00 -3.154309406224e+02 0.0 
0.0 0.0 -1.334670970009e+02 
-2.575697989968e+01 2.304346279530e+00 0.0 
2.304346279530e+00 -7.143741560035e+01 0.0 
0.0 0.0 -2.875831865001e+01 
-9.069494506535e+01 2.899953993466e+00 0.0 
2.899953993466e+00 -2.001768812573e+02 0.0 
0.0 0.0 -8.686154789679e+01 
-1.287052087512e+02 3.801078299850e+00 0.0 
3.801078299850e+00 -3.112184749631e+02 0.0 
0.0 0.0 -1.315771051143e+02 
-1.257582444785e+02 6.122647623679e+00 0.0 
6.122647623679e+00 -3.011636144207e+02 0.0 
0.0 0.0 -1.276765576698e+02 
-1.195966923206e+02 1.955189763474e+00 0.0 
1.955189763474e+00 -2.732729495960e+02 0.0 
0.0 0.0 -1.174608925750e+02 
-1.157997433399e+02 1.633672833098e+00 0.0 
1.633672833098e+00 -2.642926135174e+02 0.0 
0.0 0.0 -1.136277070572e+02 
-1.077711060856e+02 1.332803327226e+00 0.0 
1.332803327226e+00 -2.446779857416e+02 0.0 
0.0 0.0 -1.053347275482e+02 
-1.119651199292e+02 1.324290809685e+00 0.0 
1.324290809685e+00 -2.553616893827e+02 0.0 
0.0 0.0 -1.097980427936e+02 
-1.199638454205e+02 1.598392810722e+00 0.0 
1.598392810722e+00 -2.749831170502e+02 0.0 
0.0 0.0 -1.180840887412e+02 
-1.161703204762e+02 1.302804831737e+00 0.0 
1.302804831737e+00 -2.660562457612e+02 0.0 
0.0 0.0 -1.142679698712e+02 
-1.081044946609e+02 1.062979298499e+00 0.0 
1.062979298499e+00 -2.464281810020e+02 0.0 
0.0 0.0 -1.059598026989e+02 
-1.123682523048e+02 1.045530627019e+00 0.0 
1.045530627019e+00 -2.571089602289e+02 0.0 
0.0 0.0 -1.104431637601e+02 
-1.042620839245e+02 8.351562083936e-01 0.0 
8.351562083936e-01 -2.374691783747e+02 0.0 
0.0 0.0 -1.021193786898e+02 
-1.085579251627e+02 8.182207446662e-01 0.0 
8.182207446662e-01 -2.481745315596e+02 0.0 
0.0 0.0 -1.066197370167e+02 
-1.166491949698e+02 1.013531652092e+00 0.0 
1.013531652092e+00 -2.678221944277e+02 0.0 
0.0 0.0 -1.149414168192e+02 
-1.128738403693e+02 8.078514502115e-01 0.0 
8.078514502115e-01 -2.589328068886e+02 0.0 
0.0 0.0 -1.111419941774e+02 
-1.047243818691e+02 6.183974262453e-01 0.0 
6.183974262453e-01 -2.392932780404e+02 0.0 
0.0 0.0 -1.028052979729e+02 
-1.090809647020e+02 6.320177983856e-01 0.0 
6.320177983856e-01 -2.500396060596e+02 0.0 
0.0 0.0 -1.073361712285e+02 
-1.008766821637e+02 4.687917860464e-01 0.0 
4.687917860464e-01 -2.303812561787e+02 0.0 
0.0 0.0 -9.897738150271e+01 
-1.052865681705e+02 4.976589011490e-01 0.0 
4.976589011490e-01 -2.410578339574e+02 0.0 
0.0 0.0 -1.035033206384e+02 
-1.134650449323e+02 5.883434772791e-01 0.0 
5.883434772791e-01 -2.608212792152e+02 0.0 
0.0 0.0 -1.118858972442e+02 
-3.251638174599e+01 -5.070657653837e-01 0.0 
-5.070657653837e-01 -8.188732154523e+01 0.0 
0.0 0.0 -3.392111098737e+01 
-1.165545231780e+02 5.259470083874e+00 0.0 
5.259470083874e+00 -2.827386372737e+02 0.0 
0.0 0.0 -1.193879481355e+02 
-1.252839123383e+02 5.454024557144e+00 0.0 
5.454024557144e+00 -3.018400065830e+02 0.0 
0.0 0.0 -1.277371756764e+02 
-6.332178305602e+01 -3.144651957958e-02 0.0 
-3.144651957958e-02 -1.599377460512e+02 0.0 
0.0 0.0 -6.657785873218e+01 
-7.099483698242e+01 1.236690194200e-01 0.0 
1.236690194200e-01 -1.786220496348e+02 0.0 
0.0 0.0 -7.448506598516e+01 
-7.543796978861e+01 1.578325351987e-01 0.0 
1.578325351987e-01 -1.896094130929e+02 0.0 
0.0 0.0 -7.911421486445e+01 
-7.923220776770e+01 1.893918302823e-01 0.0 
1.893918302823e-01 -1.983436918781e+02 0.0 
0.0 0.0 -8.287276989375e+01 
-1.096511789026e+02 4.561837054025e-01 0.0 
4.561837054025e-01 -2.517334897265e+02 0.0 
0.0 0.0 -1.080154005887e+02 
-1.177841157032e+02 5.097862092325e-01 0.0 
5.097862092325e-01 -2.716106269110e+02 0.0 
0.0 0.0 -1.164184227843e+02 
-3.271025925372e+01 7.856386443453e+00 0.0 
7.856386443453e+00 -8.471436356598e+01 0.0 
0.0 0.0 -3.482738684591e+01 
-3.717870731820e+01 8.419214317939e+00 0.0 
8.419214317939e+00 -9.109502404795e+01 0.0 
0.0 0.0 -3.808211940985e+01 
-1.233536095744e+02 2.300054649391e+00 0.0 
2.300054649391e+00 -2.822788764983e+02 0.0 
0.0 0.0 -1.212897458218e+02 
-1.211156660911e+02 8.996983724578e-01 0.0 
8.996983724578e-01 -2.941742914538e+02 0.0 
0.0 0.0 -1.241869872635e+02 
-1.124058296255e+02 7.500723289189e-01 0.0 
7.500723289189e-01 -2.749224759772e+02 0.0 
0.0 0.0 -1.157984916808e+02 
-7.247826045693e+01 6.397383551446e+00 0.0 
6.397383551446e+00 -1.623383137218e+02 0.0 
0.0 0.0 -7.004497225363e+01 
-6.901921826567e+01 5.772023737088e+00 0.0 
5.772023737088e+00 -1.519847995335e+02 0.0 
0.0 0.0 -6.590120533977e+01 
-6.454847180797e+01 6.393459023511e+00 0.0 
6.393459023511e+00 -1.429700277661e+02 0.0 
0.0 0.0 -6.185554987223e+01 
-6.088952575407e+01 5.594207834759e+00 0.0 
5.594207834759e+00 -1.321975738958e+02 0.0 
0.0 0.0 -5.752612989496e+01 
-6.538687838713e+01 4.969501328419e+00 0.0 
4.969501328419e+00 -1.418041625162e+02 0.0 
0.0 0.0 -6.175731227099e+01 
-5.635208985830e+01 6.359854058777e+00 0.0 
6.359854058777e+00 -1.229052532214e+02 0.0 
0.0 0.0 -5.337720292392e+01 
-1.069251961317e+02 3.458491809924e+00 0.0 
3.458491809924e+00 -2.637158864386e+02 0.0 
0.0 0.0 -1.107923247711e+02 
-1.209456162789e+02 9.809656977137e-01 0.0 
9.809656977137e-01 -2.786057961604e+02 0.0 
0.0 0.0 -1.194654237318e+02 
-4.138141936967e+01 -6.386370750378e-01 0.0 
-6.386370750378e-01 -1.057701738068e+02 0.0 
0.0 0.0 -4.374547795294e+01 
-3.394639906763e+01 -7.575752097007e-01 0.0 
-7.575752097007e-01 -8.634327355828e+01 0.0 
0.0 0.0 -3.568690178777e+01 
-1.299276751536e+02 1.028283518331e+00 0.0 
1.028283518331e+00 -3.134137831480e+02 0.0 
0.0 0.0 -1.326024374905e+02 
-1.079476596138e+02 5.072855959407e+00 0.0 
5.072855959407e+00 -2.637995098572e+02 0.0 
0.0 0.0 -1.111241508413e+02 
-1.048218770368e+02 5.819939967110e+00 0.0 
5.819939967110e+00 -2.379271208776e+02 0.0 
0.0 0.0 -1.024246993743e+02 
-1.083480483548e+02 6.179539023424e+00 0.0 
6.179539023424e+00 -2.478638388361e+02 0.0 
0.0 0.0 -1.064635661573e+02 
-1.126661326081e+02 5.979825995412e+00 0.0 
5.979825995412e+00 -2.571627564692e+02 0.0 
0.0 0.0 -1.105486667232e+02 
-1.162344238966e+02 6.305577886433e+00 0.0 
6.305577886433e+00 -2.670896687214e+02 0.0 
0.0 0.0 -1.145972277854e+02 
-1.205093356061e+02 6.173536813466e+00 0.0 
6.173536813466e+00 -2.764660576788e+02 0.0 
0.0 0.0 -1.186926179855e+02 
-1.240790572805e+02 6.489915825638e+00 0.0 
6.489915825638e+00 -2.863055010465e+02 0.0 
0.0 0.0 -1.227153674981e+02 
-1.198182535235e+02 6.566591779956e+00 0.0 
6.566591779956e+00 -2.771102861383e+02 0.0 
0.0 0.0 -1.186785618986e+02 
-1.273266672186e+02 6.858095660712e+00 0.0 
6.858095660712e+00 -2.999374060860e+02 0.0 
0.0 0.0 -1.277792219914e+02 
-1.277165423584e+02 6.768615380565e+00 0.0 
6.768615380565e+00 -2.963054693940e+02 0.0 
0.0 0.0 -1.268066035257e+02 
-1.014406309730e+02 2.982596602770e-01 0.0 
2.982596602770e-01 -2.317708844875e+02 0.0 
0.0 0.0 -9.956345463817e+01 
-1.058813179760e+02 6.587551763970e+00 0.0 
6.587551763970e+00 -2.523410426348e+02 0.0 
0.0 0.0 -1.070667081833e+02 
-4.706986834245e+01 3.232224089559e-01 0.0 
3.232224089559e-01 -1.230877030457e+02 0.0 
0.0 0.0 -5.064727141643e+01 
-2.892403220957e+01 -5.373839644495e-01 0.0 
-5.373839644495e-01 -7.315692339171e+01 0.0 
0.0 0.0 -3.022428668038e+01 
-2.880367516605e+01 -7.305736711552e-01 0.0 
-7.305736711552e-01 -7.357547410425e+01 0.0 
0.0 0.0 -3.031374478109e+01 
-3.544103615055e+01 -4.422381515570e-01 0.0 
-4.422381515570e-01 -8.956401421833e+01 0.0 
0.0 0.0 -3.710151511066e+01 
-4.318054641101e+01 -3.778936849976e-01 0.0 
-3.778936849976e-01 -1.092003844343e+02 0.0 
0.0 0.0 -4.531427925359e+01 
-1.335094338299e+02 4.334901118204e+00 0.0 
4.334901118204e+00 -3.212393788891e+02 0.0 
0.0 0.0 -1.360246438157e+02 
-1.282922657348e+02 6.409249059658e+00 0.0 
6.409249059658e+00 -2.957458725079e+02 0.0 
0.0 0.0 -1.268114414728e+02 
-1.246217923100e+02 6.032143416310e+00 0.0 
6.032143416310e+00 -2.858066360667e+02 0.0 
0.0 0.0 -1.227285285130e+02 
-5.720785816573e+01 4.598679239013e+00 0.0 
4.598679239013e+00 -1.221765889103e+02 0.0 
0.0 0.0 -5.341533412280e+01 
-6.167222102482e+01 4.087019450571e+00 0.0 
4.087019450571e+00 -1.320575190082e+02 0.0 
0.0 0.0 -5.771892200990e+01 
-1.312519533877e+02 6.864598583126e+00 0.0 
6.864598583126e+00 -3.100739425541e+02 0.0 
0.0 0.0 -1.319977687825e+02 
-9.959247022265e+01 1.336028515409e+00 0.0 
1.336028515409e+00 -2.237789789148e+02 0.0 
0.0 0.0 -9.661143474123e+01 
-1.000038094985e+02 8.245452564256e-01 0.0 
8.245452564256e-01 -2.268593348743e+02 0.0 
0.0 0.0 -9.765894331185e+01 
-9.606087416269e+01 6.102879287729e-01 0.0 
6.102879287729e-01 -2.178070215059e+02 0.0 
0.0 0.0 -9.376036870059e+01 
-2.727085654538e+01 -3.773982122548e-01 0.0 
-3.773982122548e-01 -6.844441278916e+01 0.0 
0.0 0.0 -2.831458080036e+01 
-2.619920237925e+01 -7.351288109445e-01 0.0 
-7.351288109445e-01 -6.616071392047e+01 0.0 
0.0 0.0 -2.730797488992e+01 
-1.241630722927e+02 1.538225172373e+00 0.0 
1.538225172373e+00 -2.857131536674e+02 0.0 
0.0 0.0 -1.225628677880e+02 
-4.512403968100e+01 8.171338055414e+00 0.0 
8.171338055414e+00 -1.095626838607e+02 0.0 
0.0 0.0 -4.600601706252e+01 
-4.187277933733e+01 8.357694392282e+00 0.0 
8.357694392282e+00 -9.780056247501e+01 0.0 
0.0 0.0 -4.150200254370e+01 
-2.217216396743e+01 3.059714289010e+00 0.0 
3.059714289010e+00 -6.230811997232e+01 0.0 
0.0 0.0 -2.494408518192e+01 
-1.984534723841e+01 1.457138109152e+00 0.0 
1.457138109152e+00 -5.329665849985e+01 0.0 
0.0 0.0 -2.154260172148e+01 
-1.140092484545e+02 3.010711634316e-01 0.0 
3.010711634316e-01 -2.622470664727e+02 0.0 
0.0 0.0 -1.124768944782e+02 
-1.220967931465e+02 4.004205696732e-01 0.0 
4.004205696732e-01 -2.819837546029e+02 0.0 
0.0 0.0 -1.208241643248e+02 
-8.364834153996e+01 3.660902013003e-01 0.0 
3.660902013003e-01 -2.090209457973e+02 0.0 
0.0 0.0 -8.740078620119e+01 
-8.737904145375e+01 3.816348264846e-01 0.0 
3.816348264846e-01 -2.176771423366e+02 0.0 
0.0 0.0 -9.111685513712e+01 
-1.293179347691e+02 4.569687494908e+00 0.0 
4.569687494908e+00 -3.120166881253e+02 0.0 
0.0 0.0 -1.320003868683e+02 
-3.217698159353e+01 -7.124642280222e-01 0.0 
-7.124642280222e-01 -8.233570512294e+01 0.0 
0.0 0.0 -3.395380601494e+01 
-1.259449324449e+02 6.205338142465e-01 0.0 
6.205338142465e-01 -2.913777098080e+02 0.0 
0.0 0.0 -1.247967926759e+02 
-1.118892220340e+02 4.762192692523e+00 0.0 
4.762192692523e+00 -2.732951737952e+02 0.0 
0.0 0.0 -1.151553187488e+02 
-1.033021429343e+02 4.554659463106e+00 0.0 
4.554659463106e+00 -2.543575350919e+02 0.0 
0.0 0.0 -1.068979034079e+02 
-7.478519412318e+01 -2.771286885650e-04 0.0 
-2.771286885650e-04 -1.872502014508e+02 0.0 
0.0 0.0 -7.821061867219e+01 
-2.937886098189e+01 8.576810024723e+00 0.0 
8.576810024723e+00 -7.291576408442e+01 0.0 
0.0 0.0 -3.028838751989e+01 
-2.517822571644e+01 7.684606604312e+00 0.0 
7.684606604312e+00 -6.713934574572e+01 0.0 
0.0 0.0 -2.729527143865e+01 
-5.085052497882e+01 9.318631592904e-01 0.0 
9.318631592904e-01 -1.333693772132e+02 0.0 
0.0 0.0 -5.486597065762e+01 
-3.938312249371e+01 -4.909897295226e-01 0.0 
-4.909897295226e-01 -1.016956374042e+02 0.0 
0.0 0.0 -4.192362796936e+01 
-3.881337877279e+01 -3.072612456408e-01 0.0 
-3.072612456408e-01 -9.803424250732e+01 0.0 
0.0 0.0 -4.065428638403e+01 
-1.382989171549e+02 4.846143336662e+00 0.0 
4.846143336662e+00 -3.311178694333e+02 0.0 
0.0 0.0 -1.404250359765e+02 
-1.278764853765e+02 1.833166376171e+00 0.0 
1.833166376171e+00 -2.945371567658e+02 0.0 
0.0 0.0 -1.263240926427e+02 
-1.234690265556e+02 6.817165959270e+00 0.0 
6.817165959270e+00 -2.872096785958e+02 0.0 
0.0 0.0 -1.228036115454e+02 
-1.153945826948e+02 6.656217690133e+00 0.0 
6.656217690133e+00 -2.679199421792e+02 0.0 
0.0 0.0 -1.145943574622e+02 
-1.316007774920e+02 7.004615607752e+00 0.0 
7.004615607752e+00 -3.064963715573e+02 0.0 
0.0 0.0 -1.310291447148e+02 
-2.534038705735e+01 -8.251261592747e-01 0.0 
-8.251261592747e-01 -6.302015521296e+01 0.0 
0.0 0.0 -2.610816268109e+01 
-1.377969366160e+02 4.111816516192e+00 0.0 
4.111816516192e+00 -3.305806633034e+02 0.0 
0.0 0.0 -1.401132799758e+02 
-1.250560268127e+02 7.213093572770e-01 0.0 
7.213093572770e-01 -3.028002345856e+02 0.0 
0.0 0.0 -1.279568784195e+02 
-1.319617729193e+02 6.242774841238e+00 0.0 
6.242774841238e+00 -3.043867259640e+02 0.0 
0.0 0.0 -1.305045496650e+02 
-1.286519725071e+02 5.888598571214e+00 0.0 
5.888598571214e+00 -2.952606379212e+02 0.0 
0.0 0.0 -1.267737831285e+02 
-4.981054162152e+01 8.066470804032e+00 0.0 
8.066470804032e+00 -1.166796457235e+02 0.0 
0.0 0.0 -4.954705620351e+01 
-4.668455499617e+01 7.853677891011e+00 0.0 
7.853677891011e+00 -1.053360326614e+02 0.0 
0.0 0.0 -4.520617629726e+01 
-3.868063329083e+01 7.973258243639e+00 0.0 
7.973258243639e+00 -8.592456430322e+01 0.0 
0.0 0.0 -3.698155927822e+01 
-4.337470353966e+01 7.057148991190e+00 0.0 
7.057148991190e+00 -9.400283032077e+01 0.0 
0.0 0.0 -4.081326015813e+01 
-9.090114018653e+01 2.254479124541e+00 0.0 
2.254479124541e+00 -2.011617162717e+02 0.0 
0.0 0.0 -8.721885693748e+01 
-5.465981688719e+01 7.648632466949e+00 0.0 
7.648632466949e+00 -1.246331920650e+02 0.0 
0.0 0.0 -5.338790268565e+01 
-8.659853913877e+01 3.087682867957e+00 0.0 
3.087682867957e+00 -1.903030648229e+02 0.0 
0.0 0.0 -8.267048118851e+01 
-8.278593220629e+01 2.499546138912e+00 0.0 
2.499546138912e+00 -1.813037626627e+02 0.0 
0.0 0.0 -7.882690846069e+01 
-7.869401445014e+01 2.678065584377e+00 0.0 
2.678065584377e+00 -1.715060521462e+02 0.0 
0.0 0.0 -7.466001997892e+01 
-6.972215302562e+01 4.462446701459e+00 0.0 
4.462446701459e+00 -1.512845232007e+02 0.0 
0.0 0.0 -6.590200286790e+01 
-6.601206240310e+01 3.632045984747e+00 0.0 
3.632045984747e+00 -1.418610991701e+02 0.0 
0.0 0.0 -6.196194847196e+01 
-5.659943798825e+01 7.440384670242e+00 0.0 
7.440384670242e+00 -1.394077981365e+02 0.0 
0.0 0.0 -5.840217083742e+01 
-9.293129228215e+01 6.429454932240e+00 0.0 
6.429454932240e+00 -2.246615448981e+02 0.0 
0.0 0.0 -9.487785115406e+01 
-7.986426041795e+01 3.677606653442e-01 0.0 
3.677606653442e-01 -2.004378783580e+02 0.0 
0.0 0.0 -8.369064163280e+01 
-1.007658638660e+02 1.127585517760e+00 0.0 
1.127585517760e+00 -2.493216052451e+02 0.0 
0.0 0.0 -1.046262407333e+02 
-9.398773826479e+01 2.607456679650e+00 0.0 
2.607456679650e+00 -2.349480993580e+02 0.0 
0.0 0.0 -9.828075128685e+01 
-1.246180006754e+02 1.202464356057e+00 0.0 
1.202464356057e+00 -2.873873128908e+02 0.0 
0.0 0.0 -1.232015940699e+02 
-1.289226577298e+02 1.149253324431e+00 0.0 
1.149253324431e+00 -2.982993874781e+02 0.0 
0.0 0.0 -1.277666135624e+02 
-9.650676037287e+01 4.311634961793e-01 0.0 
4.311634961793e-01 -2.196521402675e+02 0.0 
0.0 0.0 -9.444767019210e+01 
-9.270693145774e+01 3.261610548013e-01 0.0 
3.261610548013e-01 -2.106569900733e+02 0.0 
0.0 0.0 -9.060917645931e+01 
-2.974200017390e+01 -7.272016973772e-01 0.0 
-7.272016973772e-01 -7.516648811621e+01 0.0 
0.0 0.0 -3.107254648704e+01 
-2.656154699063e+01 -8.140282449618e-01 0.0 
-8.140282449618e-01 -6.685877266315e+01 0.0 
0.0 0.0 -2.762609589613e+01 
-8.911795480169e+01 1.436075947628e+00 0.0 
1.436075947628e+00 -2.233934970803e+02 0.0 
0.0 0.0 -9.335343556460e+01 
-1.328281052549e+02 3.559577150960e+00 0.0 
3.559577150960e+00 -3.201767749269e+02 0.0 
0.0 0.0 -1.355014640545e+02 
-1.273450121655e+02 2.204183595204e+00 0.0 
2.204183595204e+00 -2.926458590103e+02 0.0 
0.0 0.0 -1.255972613527e+02 
-1.310424942624e+02 2.585253041447e+00 0.0 
2.585253041447e+00 -3.016774109730e+02 0.0 
0.0 0.0 -1.294159715706e+02 
-1.270513047274e+02 2.680411955654e+00 0.0 
2.680411955654e+00 -2.912081908463e+02 0.0 
0.0 0.0 -1.250778486721e+02 
-1.340033489321e+02 5.075010729404e+00 0.0 
5.075010729404e+00 -3.215901621513e+02 0.0 
0.0 0.0 -1.362780533250e+02 
-5.916113571412e+01 5.446227630512e+00 0.0 
5.446227630512e+00 -1.520024838432e+02 0.0 
0.0 0.0 -6.294908586720e+01 
-9.566809712958e+01 5.292845450493e+00 0.0 
5.292845450493e+00 -2.354851112246e+02 0.0 
0.0 0.0 -9.894596250625e+01 
-2.309260979665e+01 1.047019454244e+00 0.0 
1.047019454244e+00 -6.208828327708e+01 0.0 
0.0 0.0 -2.515426792212e+01 
-9.950123690609e+01 6.597319386765e+00 0.0 
6.597319386765e+00 -2.297875819586e+02 0.0 
0.0 0.0 -9.838664565942e+01 
-2.244856912742e+01 -6.899025308322e-01 0.0 
-6.899025308322e-01 -5.582630714251e+01 0.0 
0.0 0.0 -2.308246288098e+01 
-1.136436693168e+02 4.679457921765e+00 0.0 
4.679457921765e+00 -2.567458687213e+02 0.0 
0.0 0.0 -1.107168614114e+02 
-1.340094553128e+02 8.013907053779e-01 0.0 
8.013907053779e-01 -3.220796674954e+02 0.0 
0.0 0.0 -1.364267368425e+02 
-1.388621175180e+02 1.136254867452e+00 0.0 
1.136254867452e+00 -3.325154836020e+02 0.0 
0.0 0.0 -1.410132803360e+02 
-1.356410868255e+02 7.101045890685e+00 0.0 
7.101045890685e+00 -3.190233801363e+02 0.0 
0.0 0.0 -1.359993400885e+02 
-7.930444087291e+01 1.330987656897e+00 0.0 
1.330987656897e+00 -1.740885539809e+02 0.0 
0.0 0.0 -7.561789845614e+01 
-1.029532208928e+02 6.716984915774e+00 0.0 
6.716984915774e+00 -2.399464798715e+02 0.0 
0.0 0.0 -1.024699102293e+02 
-9.842878352868e+01 6.793251405210e+00 0.0 
6.793251405210e+00 -2.312588510042e+02 0.0 
0.0 0.0 -9.850629035988e+01 
-7.487004285020e+01 2.059917410723e+00 0.0 
2.059917410723e+00 -1.626875543643e+02 0.0 
0.0 0.0 -7.086727916434e+01 
-7.076567166163e+01 2.235965723850e+00 0.0 
2.235965723850e+00 -1.529389426471e+02 0.0 
0.0 0.0 -6.671138429262e+01 
-7.455819955476e+01 2.905280501662e+00 0.0 
2.905280501662e+00 -1.617197654783e+02 0.0 
0.0 0.0 -7.048338950991e+01 
-6.658944461243e+01 2.475223447056e+00 0.0 
2.475223447056e+00 -1.431145623508e+02 0.0 
0.0 0.0 -6.251120208896e+01 
-5.446153858300e+01 7.541037974359e-01 0.0 
7.541037974359e-01 -1.418050439475e+02 0.0 
0.0 0.0 -5.847997475917e+01 
-5.056160179083e+01 2.299624369557e-01 0.0 
2.299624369557e-01 -1.313763851749e+02 0.0 
0.0 0.0 -5.418139608970e+01 
-1.366072537125e+02 6.714003057577e+00 0.0 
6.714003057577e+00 -3.164283337251e+02 0.0 
0.0 0.0 -1.355106762313e+02 
-1.355434083820e+02 6.932258131019e+00 0.0 
6.932258131019e+00 -3.152618237445e+02 0.0 
0.0 0.0 -1.348415696379e+02 
-1.360762952288e+02 6.246312420588e+00 0.0 
6.246312420588e+00 -3.141004416336e+02 0.0 
0.0 0.0 -1.346530210587e+02 
-1.330191527814e+02 5.788617804613e+00 0.0 
5.788617804613e+00 -3.053776955828e+02 0.0 
0.0 0.0 -1.311190545093e+02 
-1.397782025567e+02 7.155670130813e+00 0.0 
7.155670130813e+00 -3.290962595259e+02 0.0 
0.0 0.0 -1.402623386248e+02 
-1.351713431771e+02 6.839099014635e+00 0.0 
6.839099014635e+00 -3.198619011439e+02 0.0 
0.0 0.0 -1.361099732963e+02 
-4.627127898317e+01 -2.307673305368e-01 0.0 
-2.307673305368e-01 -1.171260883818e+02 0.0 
0.0 0.0 -4.861921020949e+01 
-5.791124279685e+01 3.160559692430e+00 0.0 
3.160559692430e+00 -1.229207689093e+02 0.0 
0.0 0.0 -5.384960351186e+01 
-1.321503948323e+02 1.757818719568e+00 0.0 
1.757818719568e+00 -3.052802529269e+02 0.0 
0.0 0.0 -1.308291943278e+02 
-7.893270166530e+01 1.923464787506e+00 0.0 
1.923464787506e+00 -1.724390205730e+02 0.0 
0.0 0.0 -7.501151667150e+01 
-1.417737288084e+02 3.870034087682e+00 0.0 
3.870034087682e+00 -3.390345939093e+02 0.0 
0.0 0.0 -1.438424968153e+02 
-1.370321535536e+02 3.339315725829e+00 0.0 
3.339315725829e+00 -3.291342563012e+02 0.0 
0.0 0.0 -1.394499229564e+02 
-1.774034661077e+01 3.844960970220e-01 0.0 
3.844960970220e-01 -4.360864351437e+01 0.0 
0.0 0.0 -1.800469703754e+01 
-2.038195098526e+01 5.091445897412e-02 0.0 
5.091445897412e-02 -5.153027233315e+01 0.0 
0.0 0.0 -2.117366699552e+01 
-1.302549471508e+02 5.213051897506e-01 0.0 
5.213051897506e-01 -3.020246099640e+02 0.0 
0.0 0.0 -1.292838671344e+02 
-3.520030081528e+01 6.919602607452e+00 0.0 
6.919602607452e+00 -7.400477269733e+01 0.0 
0.0 0.0 -3.236152205378e+01 
-3.948134307200e+01 5.823775517225e+00 0.0 
5.823775517225e+00 -8.232245942851e+01 0.0 
0.0 0.0 -3.614114075015e+01 
-3.066106595295e+01 7.991985315595e+00 0.0 
7.991985315595e+00 -6.637422943520e+01 0.0 
0.0 0.0 -2.871058861645e+01 
-1.526457248750e+02 3.019535856332e-01 0.0 
3.019535856332e-01 -3.613463296584e+02 0.0 
0.0 0.0 -1.537976163600e+02 
-7.623394912219e+01 2.869459262455e-02 0.0 
2.869459262455e-02 -1.726853431556e+02 0.0 
0.0 0.0 -7.427578768333e+01 
-1.431308002959e+02 8.743843068780e-01 0.0 
8.743843068780e-01 -3.413133213896e+02 0.0 
0.0 0.0 -1.449332365057e+02 
-7.405207522703e+01 4.001875516509e+00 0.0 
4.001875516509e+00 -1.610139224358e+02 0.0 
0.0 0.0 -7.011979929884e+01 
-1.341966280724e+02 6.995196250227e-01 0.0 
6.995196250227e-01 -3.114937117711e+02 0.0 
0.0 0.0 -1.333071019530e+02 
-1.065517865000e+02 6.743884805149e+00 0.0 
6.743884805149e+00 -2.502798975667e+02 0.0 
0.0 0.0 -1.066495052200e+02 
-6.775765899322e+01 6.909849796794e+00 0.0 
6.909849796794e+00 -1.532681880104e+02 0.0 
0.0 0.0 -6.590775410107e+01 
-1.250670886436e+02 4.811197529749e+00 0.0 
4.811197529749e+00 -3.025203779493e+02 0.0 
0.0 0.0 -1.278762399779e+02 
-1.259587091087e+02 4.142866973651e-01 0.0 
4.142866973651e-01 -2.914911410519e+02 0.0 
0.0 0.0 -1.248349550482e+02 
-1.346149909827e+02 3.615476236754e-01 0.0 
3.615476236754e-01 -3.131133904391e+02 0.0 
0.0 0.0 -1.339185144265e+02 
-9.185522373580e+01 5.525091502157e-01 0.0 
5.525091502157e-01 -2.072331102227e+02 0.0 
0.0 0.0 -8.932650018755e+01 
-8.753988947575e+01 4.854621859274e-01 0.0 
4.854621859274e-01 -1.976196409710e+02 0.0 
0.0 0.0 -8.514785913403e+01 
-9.551992679465e+01 7.813562858452e-01 0.0 
7.813562858452e-01 -2.157269508425e+02 0.0 
0.0 0.0 -9.297406329115e+01 
-2.505723920620e+01 4.901524011341e+00 0.0 
4.901524011341e+00 -7.048540344091e+01 0.0 
0.0 0.0 -2.826279279413e+01 
-1.810047751082e+01 4.105386787549e+00 0.0 
4.105386787549e+00 -5.106381879435e+01 0.0 
0.0 0.0 -2.034928889155e+01 
-1.251927408586e+02 9.081561653417e-01 0.0 
9.081561653417e-01 -2.893278873461e+02 0.0 
0.0 0.0 -1.239561884614e+02 
-5.527648548743e+01 -2.519055230517e-01 0.0 
-2.519055230517e-01 -1.399470247036e+02 0.0 
0.0 0.0 -5.816705305732e+01 
-5.948113969852e+01 -2.252350892765e-01 0.0 
-2.252350892765e-01 -1.505258546590e+02 0.0 
0.0 0.0 -6.260209830725e+01 
-3.522273042539e+01 -6.991535684699e-01 0.0 
-6.991535684699e-01 -9.022613875173e+01 0.0 
0.0 0.0 -3.723466075314e+01 
-4.252462410567e+01 -4.872844736040e-01 0.0 
-4.872844736040e-01 -1.094739178424e+02 0.0 
0.0 0.0 -4.519956258441e+01 
-8.805054523064e+01 6.014034747180e-01 0.0 
6.014034747180e-01 -2.197028768287e+02 0.0 
0.0 0.0 -9.192602661781e+01 
-8.425044470215e+01 6.385496437262e-01 0.0 
6.385496437262e-01 -2.111283630863e+02 0.0 
0.0 0.0 -8.821364233653e+01 
-1.173411990600e+02 5.169897260762e+00 0.0 
5.169897260762e+00 -2.663656215580e+02 0.0 
0.0 0.0 -1.147120461854e+02 
-1.213503013093e+02 4.993018916363e+00 0.0 
4.993018916363e+00 -2.760092505228e+02 0.0 
0.0 0.0 -1.188078655496e+02 
-1.090695615569e+02 5.577783728876e+00 0.0 
5.577783728876e+00 -2.472792280049e+02 0.0 
0.0 0.0 -1.065046368685e+02 
-1.072816577328e+02 4.245785616325e+00 0.0 
4.245785616325e+00 -2.637670879051e+02 0.0 
0.0 0.0 -1.109146236914e+02 
-9.873942433551e+01 4.007724974047e+00 0.0 
4.007724974047e+00 -2.448576158507e+02 0.0 
0.0 0.0 -1.026791120558e+02 
-9.487477174328e+01 4.361011080774e+00 0.0 
4.361011080774e+00 -2.356206314788e+02 0.0 
0.0 0.0 -9.874862096663e+01 
-1.322837810495e+02 1.388851759463e+00 0.0 
1.388851759463e+00 -3.065877073023e+02 0.0 
0.0 0.0 -1.312614465055e+02 
-1.374900067613e+02 1.261358971725e+00 0.0 
1.261358971725e+00 -3.196770387195e+02 0.0 
0.0 0.0 -1.367501136442e+02 
-5.832597021315e+01 1.398592783657e+00 0.0 
1.398592783657e+00 -1.518603382012e+02 0.0 
0.0 0.0 -6.265589252430e+01 
-5.463892609228e+01 1.674534342061e+00 0.0 
1.674534342061e+00 -1.432993698620e+02 0.0 
0.0 0.0 -5.898148878628e+01 
-5.796789392245e+01 6.139775203022e-01 0.0 
6.139775203022e-01 -1.499483799428e+02 0.0 
0.0 0.0 -6.197488215957e+01 
-1.357583350450e+02 2.044523668811e+00 0.0 
2.044523668811e+00 -3.141262846823e+02 0.0 
0.0 0.0 -1.345653859182e+02 
-1.478202957216e+02 1.182723678298e+00 0.0 
1.182723678298e+00 -3.514244660167e+02 0.0 
0.0 0.0 -1.493734285215e+02 
-1.436459689728e+02 1.549992945506e+00 0.0 
1.549992945506e+00 -3.428208284134e+02 0.0 
0.0 0.0 -1.455400392159e+02 
-1.951510940462e+01 -6.912350287001e-01 0.0 
-6.912350287001e-01 -4.770733610291e+01 0.0 
0.0 0.0 -1.976673365226e+01 
-2.334731369116e+01 -7.940729317567e-01 0.0 
-7.940729317567e-01 -5.838418896075e+01 0.0 
0.0 0.0 -2.411945079557e+01 
-2.187264882645e+01 8.507444470829e+00 0.0 
8.507444470829e+00 -5.510939414564e+01 0.0 
0.0 0.0 -2.269461289163e+01 
-1.856098904162e+01 7.226576438251e+00 0.0 
7.226576438251e+00 -5.046088243145e+01 0.0 
0.0 0.0 -2.030656144192e+01 
-1.344771247346e+02 2.960927924560e+00 0.0 
2.960927924560e+00 -3.102218980649e+02 0.0 
0.0 0.0 -1.330097068399e+02 
-1.307922649196e+02 3.086030245345e+00 0.0 
3.086030245345e+00 -3.003964422878e+02 0.0 
0.0 0.0 -1.289566121622e+02 
-1.391893008295e+02 2.857837402098e+00 0.0 
2.857837402098e+00 -3.223843012092e+02 0.0 
0.0 0.0 -1.380720806116e+02 
-4.145965395184e+01 -2.492304286561e-01 0.0 
-2.492304286561e-01 -1.047229084247e+02 0.0 
0.0 0.0 -4.345476871295e+01 
-1.191490041090e+02 6.753900517024e+00 0.0 
6.753900517024e+00 -2.782884179412e+02 0.0 
0.0 0.0 -1.188312266151e+02 
-1.426534707703e+02 5.378432273129e+00 0.0 
5.378432273129e+00 -3.398541604511e+02 0.0 
0.0 0.0 -1.443522893664e+02 
-1.383145562671e+02 5.561843946875e+00 0.0 
5.561843946875e+00 -3.304641091761e+02 0.0 
0.0 0.0 -1.402335996330e+02 
-1.481811912603e+02 5.238369296465e+00 0.0 
5.238369296465e+00 -3.517781332134e+02 0.0 
0.0 0.0 -1.495877973421e+02 
-1.316059915341e+02 7.054172674524e+00 0.0 
7.054172674524e+00 -3.086400502573e+02 0.0 
0.0 0.0 -1.316738125374e+02 
-1.394979519675e+02 7.314648966713e+00 0.0 
7.314648966713e+00 -3.272866894877e+02 0.0 
0.0 0.0 -1.396353924366e+02 
-1.394768018615e+02 7.211403041650e+00 0.0 
7.211403041650e+00 -3.254382171147e+02 0.0 
0.0 0.0 -1.390745056929e+02 
-1.487323645546e+01 6.712663602807e-01 0.0 
6.712663602807e-01 -3.535060378481e+01 0.0 
0.0 0.0 -1.466715207208e+01 
-1.318662301012e+02 3.302861658991e-01 0.0 
3.302861658991e-01 -3.062405185149e+02 0.0 
0.0 0.0 -1.310320245848e+02 
-8.786017445182e+01 3.072698839394e-01 0.0 
3.072698839394e-01 -1.990502672556e+02 0.0 
0.0 0.0 -8.567313251223e+01 
-1.400282994166e+01 7.807585992398e-02 0.0 
7.807585992398e-02 -2.791924087773e+01 0.0 
0.0 0.0 -1.231701203677e+01 
-8.410064291159e+01 1.976391994835e-01 0.0 
1.976391994835e-01 -1.902169972425e+02 0.0 
0.0 0.0 -8.189529204621e+01 
-8.872186296698e+01 2.287765066512e-01 0.0 
2.287765066512e-01 -2.015161714758e+02 0.0 
0.0 0.0 -8.667141033283e+01 
-7.969540749401e+01 1.289393114321e-01 0.0 
1.289393114321e-01 -1.801605729141e+02 0.0 
0.0 0.0 -7.755679412243e+01 
-3.388734020575e+01 -2.549544640123e-01 0.0 
-2.549544640123e-01 -8.550485559264e+01 0.0 
0.0 0.0 -3.541765873952e+01 
-8.605670208815e+01 5.613311786661e-01 0.0 
5.613311786661e-01 -1.931692454884e+02 0.0 
0.0 0.0 -8.336778427297e+01 
-9.125282575732e+01 8.377731842775e-01 0.0 
8.377731842775e-01 -2.050533510105e+02 0.0 
0.0 0.0 -8.849185303035e+01 
-1.544617560160e+01 -7.267270341168e-01 0.0 
-7.267270341168e-01 -3.607162319322e+01 0.0 
0.0 0.0 -1.516595289722e+01 
-1.397484353098e+02 1.870124523378e+00 0.0 
1.870124523378e+00 -3.245088501389e+02 0.0 
0.0 0.0 -1.388771856346e+02 
-1.552988164003e+01 -5.388273417129e-01 0.0 
-5.388273417129e-01 -3.754643747912e+01 0.0 
0.0 0.0 -1.552146487860e+01 
-1.849286171864e+01 -4.833355888264e-01 0.0 
-4.833355888264e-01 -4.539406365971e+01 0.0 
0.0 0.0 -1.876607761350e+01 
-1.462071791525e+02 3.579440351172e+00 0.0 
3.579440351172e+00 -3.481473227743e+02 0.0 
0.0 0.0 -1.479063505780e+02 
-1.412081877325e+02 3.116699924011e+00 0.0 
3.116699924011e+00 -3.378541764236e+02 0.0 
0.0 0.0 -1.433187092468e+02 
-1.500275659290e+02 3.387172408410e+00 0.0 
3.387172408410e+00 -3.562512509384e+02 0.0 
0.0 0.0 -1.514836450602e+02 
-1.450172590743e+02 2.823564865479e+00 0.0 
2.823564865479e+00 -3.458413285305e+02 0.0 
0.0 0.0 -1.468575762815e+02 
-1.362971367256e+02 2.660247864304e+00 0.0 
2.660247864304e+00 -3.274755501334e+02 0.0 
0.0 0.0 -1.387318060577e+02 
-1.405821180319e+02 2.402613326191e+00 0.0 
2.402613326191e+00 -3.364566603719e+02 0.0 
0.0 0.0 -1.427116335211e+02 
-8.323516797025e+01 3.271425707449e-01 0.0 
3.271425707449e-01 -1.879291487906e+02 0.0 
0.0 0.0 -8.094929502825e+01 
-1.506873022755e+02 2.635530495959e+00 0.0 
2.635530495959e+00 -3.574140784153e+02 0.0 
0.0 0.0 -1.520304142072e+02 
-1.450324995081e+02 2.153821388150e+00 0.0 
2.153821388150e+00 -3.456133574759e+02 0.0 
0.0 0.0 -1.467937570952e+02 
-1.549997988345e+02 2.359809561929e+00 0.0 
2.359809561929e+00 -3.666557334900e+02 0.0 
0.0 0.0 -1.560966596973e+02 
-6.286369927469e+01 1.768490201873e+00 0.0 
1.768490201873e+00 -1.347853169789e+02 0.0 
0.0 0.0 -5.889470487609e+01 
-4.780890255724e+01 6.186909474041e+00 0.0 
6.186909474041e+00 -1.024211472326e+02 0.0 
0.0 0.0 -4.466901493696e+01 
-4.401563135499e+01 4.911223443942e+00 0.0 
4.911223443942e+00 -9.171522292079e+01 0.0 
0.0 0.0 -4.031925628273e+01 
-3.503682175126e+01 3.917853036137e+00 0.0 
3.917853036137e+00 -7.121957665165e+01 0.0 
0.0 0.0 -3.147691952087e+01 
-1.413565169441e+02 6.182971319205e+00 0.0 
6.182971319205e+00 -3.270283051990e+02 0.0 
0.0 0.0 -1.401154466429e+02 
-1.363991331332e+02 5.562992928814e+00 0.0 
5.562992928814e+00 -3.140429701077e+02 0.0 
0.0 0.0 -1.347326309723e+02 
-1.293322296224e+02 5.039406455285e-01 0.0 
5.039406455285e-01 -3.119901724853e+02 0.0 
0.0 0.0 -1.319967206323e+02 
-1.204197008947e+02 4.213017724463e-01 0.0 
4.213017724463e-01 -2.925523214223e+02 0.0 
0.0 0.0 -1.234916066951e+02 
-8.423090472028e+01 9.953514160686e-02 0.0 
9.953514160686e-02 -1.913125003915e+02 0.0 
0.0 0.0 -8.226302153353e+01 
-8.374232573341e+01 1.218185370070e-01 0.0 
1.218185370070e-01 -1.902753944281e+02 0.0 
0.0 0.0 -8.180531604845e+01 
-9.127210871765e+01 3.499518949111e-02 0.0 
3.499518949111e-02 -2.080784384795e+02 0.0 
0.0 0.0 -8.940516415915e+01 
-9.020365630751e+01 1.402843970821e-01 0.0 
1.402843970821e-01 -2.056849188551e+02 0.0 
0.0 0.0 -8.836657254880e+01 
-9.772018087153e+01 6.017622773892e-02 0.0 
6.017622773892e-02 -2.235854198146e+02 0.0 
0.0 0.0 -9.599168020584e+01 
-9.663253677633e+01 1.714685931079e-01 0.0 
1.714685931079e-01 -2.208606148070e+02 0.0 
0.0 0.0 -9.484794547500e+01 
-1.042902458314e+02 3.072366370994e-01 0.0 
3.072366370994e-01 -2.391218727960e+02 0.0 
0.0 0.0 -1.026236355882e+02 
-1.435755624759e+02 7.250149350324e+00 0.0 
7.250149350324e+00 -3.347768830056e+02 0.0 
0.0 0.0 -1.431057336445e+02 
-2.671075870643e+01 6.435466274595e+00 0.0 
6.435466274595e+00 -5.373128505051e+01 0.0 
0.0 0.0 -2.373261312708e+01 
-7.106310507446e+01 1.497963221658e+00 0.0 
1.497963221658e+00 -1.541670457225e+02 0.0 
0.0 0.0 -6.716904523909e+01 
-1.436323933408e+02 7.182109611846e+00 0.0 
7.182109611846e+00 -3.386691038051e+02 0.0 
0.0 0.0 -1.442904491438e+02 
-1.384083053235e+02 6.754385813919e+00 0.0 
6.754385813919e+00 -3.281433061935e+02 0.0 
0.0 0.0 -1.395654834551e+02 
-6.221105531363e+01 2.783608619837e+00 0.0 
2.783608619837e+00 -1.328521945812e+02 0.0 
0.0 0.0 -5.811897496845e+01 
-5.414911359542e+01 2.220921135854e+00 0.0 
2.220921135854e+00 -1.145427701678e+02 0.0 
0.0 0.0 -5.020756512896e+01 
-1.479712273505e+02 4.383688121450e+00 0.0 
4.383688121450e+00 -3.519074119465e+02 0.0 
0.0 0.0 -1.495635917891e+02 
-5.783871879141e+01 7.789849500067e+00 0.0 
7.789849500067e+00 -1.356799403050e+02 0.0 
0.0 0.0 -5.765559772894e+01 
-1.442030239045e+02 2.243181099137e+00 0.0 
2.243181099137e+00 -3.359332884579e+02 0.0 
0.0 0.0 -1.436408937087e+02 
-9.984469514667e+00 2.079271904945e+00 0.0 
2.079271904945e+00 -1.418124711152e+01 0.0 
0.0 0.0 -7.211420566958e+00 
-1.310985693193e+01 2.468400480750e+00 0.0 
2.468400480750e+00 -3.127187642128e+01 0.0 
0.0 0.0 -1.302681466080e+01 
-6.271442591099e+01 7.422007750060e+00 0.0 
7.422007750060e+00 -1.439968174219e+02 0.0 
0.0 0.0 -6.161337299987e+01 
-7.034497057188e+01 3.226427478072e+00 0.0 
3.226427478072e+00 -1.518462062592e+02 0.0 
0.0 0.0 -6.625735304932e+01 
-5.249277562275e+01 5.316490926382e+00 0.0 
5.316490926382e+00 -1.118205057844e+02 0.0 
0.0 0.0 -4.889398442215e+01 
-4.912917917088e+01 4.241658464576e+00 0.0 
4.241658464576e+00 -1.028786448673e+02 0.0 
0.0 0.0 -4.520234721146e+01 
-1.160557757055e+02 4.502347773676e+00 0.0 
4.502347773676e+00 -2.830105237343e+02 0.0 
0.0 0.0 -1.193198898319e+02 
-2.081073827742e+01 -8.543919508975e-01 0.0 
-8.543919508975e-01 -5.077594956207e+01 0.0 
0.0 0.0 -2.107600635185e+01 
-2.618305401039e+01 8.767380646538e+00 0.0 
8.767380646538e+00 -6.026527303678e+01 0.0 
0.0 0.0 -2.553449811415e+01 
-1.053301734561e+02 1.709776860378e-01 0.0 
1.709776860378e-01 -2.413531892787e+02 0.0 
0.0 0.0 -1.036050088204e+02 
-1.846862344742e+01 8.578803773523e+00 0.0 
8.578803773523e+00 -4.161349140793e+01 0.0 
0.0 0.0 -1.762463445660e+01 
-1.251468862709e+02 2.234515268264e-01 0.0 
2.234515268264e-01 -3.027836081856e+02 0.0 
0.0 0.0 -1.279791483369e+02 
-6.132461613584e+01 7.628197469121e+00 0.0 
7.628197469121e+00 -1.471423972938e+02 0.0 
0.0 0.0 -6.214010402890e+01 
-7.769281606067e+01 4.746048052374e+00 0.0 
4.746048052374e+00 -1.705299943698e+02 0.0 
0.0 0.0 -7.406684312914e+01 
-3.397107069774e+01 8.598944039374e+00 0.0 
8.598944039374e+00 -7.898917563582e+01 0.0 
0.0 0.0 -3.348807390007e+01 
-5.162101055664e+01 7.146494854730e+00 0.0 
7.146494854730e+00 -1.139950296691e+02 0.0 
0.0 0.0 -4.928481206771e+01 
-9.473867058980e+01 2.757995727437e+00 0.0 
2.757995727437e+00 -2.100689819451e+02 0.0 
0.0 0.0 -9.104229576047e+01 
-8.705092181364e+01 1.797521651450e+00 0.0 
1.797521651450e+00 -1.924263577002e+02 0.0 
0.0 0.0 -8.344318385415e+01 
-8.302765769409e+01 1.818809439292e+00 0.0 
1.818809439292e+00 -1.825055780196e+02 0.0 
0.0 0.0 -7.925997071410e+01 
-6.477879882599e+01 7.232622073195e+00 0.0 
7.232622073195e+00 -1.581150218460e+02 0.0 
0.0 0.0 -6.646814620161e+01 
-5.349368991552e+01 3.604848549860e+00 0.0 
3.604848549860e+00 -1.128356065603e+02 0.0 
0.0 0.0 -4.949878894275e+01 
-4.422670533851e+01 2.919350274804e+00 0.0 
2.919350274804e+00 -9.186329648623e+01 0.0 
0.0 0.0 -4.042700054742e+01 
-9.034478206341e+01 3.688502522178e+00 0.0 
3.688502522178e+00 -1.994794053561e+02 0.0 
0.0 0.0 -8.654725622585e+01 
-1.230459363221e+02 2.724880254347e+00 0.0 
2.724880254347e+00 -2.808169190611e+02 0.0 
0.0 0.0 -1.207588566150e+02 
-1.267133613582e+02 3.136808676214e+00 0.0 
3.136808676214e+00 -2.898552248869e+02 0.0 
0.0 0.0 -1.245705758735e+02 
-1.341366029120e+02 3.504509081553e+00 0.0 
3.504509081553e+00 -3.087611062875e+02 0.0 
0.0 0.0 -1.324693127599e+02 
-1.303718989423e+02 3.600675577911e+00 0.0 
3.600675577911e+00 -2.989232257745e+02 0.0 
0.0 0.0 -1.283885374150e+02 
-1.227708309456e+02 3.248195582313e+00 0.0 
3.248195582313e+00 -2.795669211964e+02 0.0 
0.0 0.0 -1.203013256426e+02 
-1.264890508850e+02 3.746287360823e+00 0.0 
3.746287360823e+00 -2.886749236054e+02 0.0 
0.0 0.0 -1.241491923471e+02 
-1.339588459367e+02 4.031368327202e+00 0.0 
4.031368327202e+00 -3.080265704961e+02 0.0 
0.0 0.0 -1.321956249298e+02 
-1.304403950035e+02 4.212100407441e+00 0.0 
4.212100407441e+00 -2.984486105228e+02 0.0 
0.0 0.0 -1.282667016579e+02 
-1.391023409468e+02 4.686786326283e+00 0.0 
4.686786326283e+00 -3.211370823019e+02 0.0 
0.0 0.0 -1.376718269746e+02 
-1.339482518957e+02 4.774139457179e+00 0.0 
4.774139457179e+00 -3.076139886860e+02 0.0 
0.0 0.0 -1.320686721745e+02 
-1.261076639233e+02 4.301098220784e+00 0.0 
4.301098220784e+00 -2.875363457220e+02 0.0 
0.0 0.0 -1.236932028936e+02 
-1.294627237596e+02 4.777628083851e+00 0.0 
4.777628083851e+00 -2.963665255883e+02 0.0 
0.0 0.0 -1.273487748044e+02 
-1.367010797076e+02 5.202862044283e+00 0.0 
5.202862044283e+00 -3.149027463785e+02 0.0 
0.0 0.0 -1.350811478258e+02 
-1.218374682580e+02 4.417214629768e+00 0.0 
4.417214629768e+00 -2.768011166050e+02 0.0 
0.0 0.0 -1.191915754589e+02 
-1.479640492801e+02 7.500389309805e+00 0.0 
7.500389309805e+00 -3.476261782581e+02 0.0 
0.0 0.0 -1.482770682615e+02 
-7.093955689520e+01 7.207625559539e+00 0.0 
7.207625559539e+00 -1.636845037653e+02 0.0 
0.0 0.0 -6.998721819815e+01 
-1.685084666256e+01 1.991083618099e+00 0.0 
1.991083618099e+00 -4.431138496126e+01 0.0 
0.0 0.0 -1.794866948715e+01 
-1.409351677240e+01 4.407398960176e+00 0.0 
4.407398960176e+00 -3.825810495130e+01 0.0 
0.0 0.0 -1.530548651711e+01 
-8.198450202412e+01 4.317332461782e+00 0.0 
4.317332461782e+00 -1.801502462349e+02 0.0 
0.0 0.0 -7.824042447770e+01 
-1.462904885164e+02 4.780908516133e+00 0.0 
4.780908516133e+00 -3.404208305337e+02 0.0 
0.0 0.0 -1.456133957150e+02 
-1.459601437496e+02 3.927511240985e+00 0.0 
3.927511240985e+00 -3.397019091541e+02 0.0 
0.0 0.0 -1.452986158711e+02 
-4.850706847210e+01 7.639548861311e+00 0.0 
7.639548861311e+00 -1.209319977595e+02 0.0 
0.0 0.0 -5.043171986947e+01 
-1.488161652735e+02 6.800754129177e+00 0.0 
6.800754129177e+00 -3.465755175694e+02 0.0 
0.0 0.0 -1.482175048529e+02 
-8.685505348629e+01 2.354859424940e+00 0.0 
2.354859424940e+00 -1.912075462640e+02 0.0 
0.0 0.0 -8.301877992510e+01 
-3.215778672815e+01 5.524239857548e+00 0.0 
5.524239857548e+00 -8.824375792592e+01 0.0 
0.0 0.0 -3.572046339622e+01 
-1.499134089486e+02 7.460791415025e+00 0.0 
7.460791415025e+00 -3.496588727000e+02 0.0 
0.0 0.0 -1.494716844946e+02 
-1.190300904491e+02 2.785798092996e+00 0.0 
2.785798092996e+00 -2.704042852145e+02 0.0 
0.0 0.0 -1.164303126991e+02 
-1.149197449960e+02 2.881479357941e+00 0.0 
2.881479357941e+00 -2.598693319288e+02 0.0 
0.0 0.0 -1.120367230775e+02 
-1.111524786507e+02 2.432810304193e+00 0.0 
2.432810304193e+00 -2.508420346375e+02 0.0 
0.0 0.0 -1.081983539864e+02 
-1.460025050789e+02 3.294755114134e+00 0.0 
3.294755114134e+00 -3.398999971006e+02 0.0 
0.0 0.0 -1.453707506538e+02 
-9.950537834060e+01 1.041239513503e+00 0.0 
1.041239513503e+00 -2.249150617841e+02 0.0 
0.0 0.0 -9.692613203742e+01 
-1.523533119276e+02 8.002023365091e+00 0.0 
8.002023365091e+00 -3.567883357902e+02 0.0 
0.0 0.0 -1.523424943153e+02 
-1.012784432949e+02 6.399015033654e+00 0.0 
6.399015033654e+00 -2.436112619668e+02 0.0 
0.0 0.0 -1.030669115785e+02 
-9.754369365127e+01 6.627560264797e+00 0.0 
6.627560264797e+00 -2.332429860418e+02 0.0 
0.0 0.0 -9.883600390793e+01 
-8.928206046545e+01 6.715302231439e+00 0.0 
6.715302231439e+00 -2.143086783707e+02 0.0 
0.0 0.0 -9.067722165085e+01 
-1.224210048459e+02 3.834695091674e+00 0.0 
3.834695091674e+00 -2.781989304189e+02 0.0 
0.0 0.0 -1.197859805795e+02 
-1.540377900686e+02 7.297779965254e+00 0.0 
7.297779965254e+00 -3.624145952269e+02 0.0 
0.0 0.0 -1.545357155887e+02 
-1.469954523470e+02 6.792727092092e+00 0.0 
6.792727092092e+00 -3.476648827130e+02 0.0 
0.0 0.0 -1.479981005180e+02 
-1.474673691949e+02 6.523590668584e+00 0.0 
6.523590668584e+00 -3.490379332389e+02 0.0 
0.0 0.0 -1.485515907302e+02 
-1.391587032922e+02 6.290804619894e+00 0.0 
6.290804619894e+00 -3.313219329262e+02 0.0 
0.0 0.0 -1.407441908655e+02 
-1.552203843639e+02 6.649185676108e+00 0.0 
6.649185676108e+00 -3.655331970174e+02 0.0 
0.0 0.0 -1.558260744144e+02 
-1.478252124236e+02 5.651731214548e+00 0.0 
5.651731214548e+00 -3.440188781763e+02 0.0 
0.0 0.0 -1.471532271800e+02 
-1.483776847282e+02 6.076769551158e+00 0.0 
6.076769551158e+00 -3.455372148928e+02 0.0 
0.0 0.0 -1.477744698863e+02 
-4.718983396995e+01 1.176365383024e+00 0.0 
1.176365383024e+00 -1.247937554746e+02 0.0 
0.0 0.0 -5.119507683336e+01 
-5.094270123038e+01 2.047094079554e+00 0.0 
2.047094079554e+00 -1.346580840544e+02 0.0 
0.0 0.0 -5.528023558543e+01 
-5.852526204237e+01 2.509248465304e+00 0.0 
2.509248465304e+00 -1.529138718314e+02 0.0 
0.0 0.0 -6.303174016213e+01 
-5.478596289330e+01 2.975514087493e+00 0.0 
2.975514087493e+00 -1.440362799001e+02 0.0 
0.0 0.0 -5.924667283802e+01 
-4.717235129982e+01 2.505355901327e+00 0.0 
2.505355901327e+00 -1.257255511304e+02 0.0 
0.0 0.0 -5.146937072907e+01 
-5.099534075204e+01 3.521113384390e+00 0.0 
3.521113384390e+00 -1.348896731574e+02 0.0 
0.0 0.0 -5.536550417283e+01 
-5.874554174411e+01 3.908789522603e+00 0.0 
3.908789522603e+00 -1.530086059159e+02 0.0 
0.0 0.0 -6.312624429801e+01 
-4.717081638407e+01 4.179801467397e+00 0.0 
4.179801467397e+00 -1.254835532257e+02 0.0 
0.0 0.0 -5.139631088292e+01 
-1.290826747844e+02 5.321024925200e+00 0.0 
5.321024925200e+00 -2.953555607273e+02 0.0 
0.0 0.0 -1.269314706535e+02 
-1.564178777565e+02 5.808771589297e+00 0.0 
5.808771589297e+00 -3.686320774677e+02 0.0 
0.0 0.0 -1.571149865673e+02 
-1.024591244725e+02 2.919936486228e+00 0.0 
2.919936486228e+00 -2.539513256493e+02 0.0 
0.0 0.0 -1.065231350365e+02 
-9.836066809297e+01 3.161766525364e+00 0.0 
3.161766525364e+00 -2.446850313305e+02 0.0 
0.0 0.0 -1.025137098270e+02 
-8.998301898855e+01 2.849763725148e+00 0.0 
2.849763725148e+00 -2.258361983761e+02 0.0 
0.0 0.0 -9.434576520938e+01 
-7.613031266609e+01 3.889690080769e-01 0.0 
3.889690080769e-01 -1.918593790725e+02 0.0 
0.0 0.0 -7.999690752157e+01 
-8.045270108401e+01 6.781616654545e-01 0.0 
6.781616654545e-01 -2.025027339463e+02 0.0 
0.0 0.0 -8.448663050910e+01 
-8.863494434795e+01 9.576756959414e-01 0.0 
9.576756959414e-01 -2.216974590811e+02 0.0 
0.0 0.0 -9.269972102871e+01 
-7.179174159452e+01 1.662112371139e-01 0.0 
1.662112371139e-01 -1.810976941112e+02 0.0 
0.0 0.0 -7.546683071172e+01 
-1.118559285730e+02 6.453178954422e+00 0.0 
6.453178954422e+00 -2.578540360457e+02 0.0 
0.0 0.0 -1.105129893856e+02 
-1.567640122274e+02 5.444119741019e+00 0.0 
5.444119741019e+00 -3.694813516985e+02 0.0 
0.0 0.0 -1.574736091778e+02 
-9.945682069221e+01 4.910258961611e+00 0.0 
4.910258961611e+00 -2.449858514259e+02 0.0 
0.0 0.0 -1.029328016354e+02 
-7.664577560374e+01 7.190939408485e-01 0.0 
7.190939408485e-01 -1.938251978973e+02 0.0 
0.0 0.0 -8.074129205031e+01 
-7.836413256706e+01 5.383659849438e-01 0.0 
5.383659849438e-01 -1.742330072949e+02 0.0 
0.0 0.0 -7.537914195858e+01 
-8.590100052867e+01 8.064036728740e-01 0.0 
8.064036728740e-01 -1.914336156700e+02 0.0 
0.0 0.0 -8.280038485961e+01 
-8.635704373962e+01 1.125418711916e+00 0.0 
1.125418711916e+00 -1.919021752209e+02 0.0 
0.0 0.0 -8.307776568815e+01 
-9.418260148353e+01 1.357821391954e+00 0.0 
1.357821391954e+00 -2.103680741455e+02 0.0 
0.0 0.0 -9.096520268870e+01 
-8.640158061848e+01 8.498975510435e-01 0.0 
8.498975510435e-01 -1.930598209380e+02 0.0 
0.0 0.0 -8.343842046694e+01 
-9.182513005033e+01 5.621697445407e-01 0.0 
5.621697445407e-01 -2.282787973274e+02 0.0 
0.0 0.0 -9.563117821333e+01 
-9.559166519560e+01 5.029374466670e-01 0.0 
5.029374466670e-01 -2.368245160999e+02 0.0 
0.0 0.0 -9.932485438865e+01 
-9.113696339837e+01 2.990768761806e-01 0.0 
2.990768761806e-01 -2.263008680580e+02 0.0 
0.0 0.0 -9.483134943692e+01 
-9.938046274994e+01 4.263260427642e-01 0.0 
4.263260427642e-01 -2.453274394155e+02 0.0 
0.0 0.0 -1.030123706496e+02 
-9.471885145262e+01 2.854643289292e-01 0.0 
2.854643289292e-01 -2.343704141805e+02 0.0 
0.0 0.0 -9.832677968995e+01 
-8.717486445378e+01 2.148293753950e-01 0.0 
2.148293753950e-01 -2.166782830445e+02 0.0 
0.0 0.0 -9.075594424948e+01 
-1.030463273246e+02 3.442340147203e-01 0.0 
3.442340147203e-01 -2.534491372450e+02 0.0 
0.0 0.0 -1.065486393709e+02 
-9.769609430087e+01 1.259632902866e-01 0.0 
1.259632902866e-01 -2.411912000204e+02 0.0 
0.0 0.0 -1.012661882964e+02 
-7.784394348102e+01 3.732653838766e-01 0.0 
3.732653838766e-01 -1.738282502900e+02 0.0 
0.0 0.0 -7.510165813131e+01 
-1.128170885158e+01 -4.873750434144e-01 0.0 
-4.873750434144e-01 -1.721815558666e+01 0.0 
0.0 0.0 -8.539819137670e+00 
-1.566309262260e+01 -7.415203848807e-01 0.0 
-7.415203848807e-01 -3.392302427583e+01 0.0 
0.0 0.0 -1.460377789503e+01 
-1.553553603926e+01 -7.344251038717e-01 0.0 
-7.344251038717e-01 -3.349792970122e+01 0.0 
0.0 0.0 -1.443858918533e+01 
-2.039930283433e+01 -7.085585587420e-01 0.0 
-7.085585587420e-01 -4.945205862671e+01 0.0 
0.0 0.0 -2.055540843831e+01 
-2.040838767196e+01 -5.234036069075e-01 0.0 
-5.234036069075e-01 -5.055929998833e+01 0.0 
0.0 0.0 -2.089030629809e+01 
-2.621053294084e+01 -3.012239030646e-01 0.0 
-3.012239030646e-01 -6.758004323087e+01 0.0 
0.0 0.0 -2.773717285151e+01 
-2.500797144192e+01 1.220768705925e-01 0.0 
1.220768705925e-01 -6.501905391561e+01 0.0 
0.0 0.0 -2.660810760726e+01 
-1.559716655657e+01 -5.164076366240e-01 0.0 
-5.164076366240e-01 -3.392387016644e+01 0.0 
0.0 0.0 -1.459673736729e+01 
-1.044421406298e+01 -5.162041880833e-01 0.0 
-5.162041880833e-01 -1.698592326128e+01 0.0 
0.0 0.0 -8.219747100531e+00 
-1.525771005247e+01 -7.886582829630e-01 0.0 
-7.886582829630e-01 -3.347490350740e+01 0.0 
0.0 0.0 -1.435654441566e+01 
-9.921581949617e+00 -5.058090922417e-01 0.0 
-5.058090922417e-01 -1.682111287542e+01 0.0 
0.0 0.0 -8.018009772655e+00 
-1.490289476134e+01 -7.896161340858e-01 0.0 
-7.896161340858e-01 -3.300656850881e+01 0.0 
0.0 0.0 -1.410768842478e+01 
-2.125337567428e+01 -8.696654880082e-01 0.0 
-8.696654880082e-01 -5.187142097026e+01 0.0 
0.0 0.0 -2.153743899336e+01 
-3.087285557638e+01 -7.859485960367e-01 0.0 
-7.859485960367e-01 -7.839819368815e+01 0.0 
0.0 0.0 -3.238131477936e+01 
-1.575629001805e+02 1.304723311833e+00 0.0 
1.304723311833e+00 -3.717541007462e+02 0.0 
0.0 0.0 -1.583951002780e+02 
-7.464755928901e+01 -1.460571708451e-02 0.0 
-1.460571708451e-02 -1.869195197423e+02 0.0 
0.0 0.0 -7.807012370939e+01 
-7.065278580723e+01 -9.713241238025e-02 0.0 
-9.713241238025e-02 -1.774946767501e+02 0.0 
0.0 0.0 -7.404423876719e+01 
-6.310712657248e+01 -1.519274543234e-01 0.0 
-1.519274543234e-01 -1.587070059582e+02 0.0 
0.0 0.0 -6.614423975919e+01 
-6.710941501688e+01 -4.581443761403e-02 0.0 
-4.581443761403e-02 -1.688297946887e+02 0.0 
0.0 0.0 -7.038176291167e+01 
-7.773467343357e+01 -4.769554069294e-02 0.0 
-4.769554069294e-02 -1.946527442206e+02 0.0 
0.0 0.0 -8.131622529626e+01 
-5.891869479969e+01 -1.136338557223e-01 0.0 
-1.136338557223e-01 -1.483362597601e+02 0.0 
0.0 0.0 -6.177648636795e+01 
-5.609811968020e+01 -2.186222941720e-01 0.0 
-2.186222941720e-01 -1.413398809519e+02 0.0 
0.0 0.0 -5.883140018962e+01 
-7.094827205161e+00 -9.126477724827e-02 0.0 
-9.126477724827e-02 -1.714454144694e+01 0.0 
0.0 0.0 -7.259697925383e+00 
-1.333154386842e+01 -1.291773791605e-01 0.0 
-1.291773791605e-01 -3.369085536519e+01 0.0 
0.0 0.0 -1.381068004317e+01 
-1.273633071629e+01 -2.127774366085e-01 0.0 
-2.127774366085e-01 -3.205365997732e+01 0.0 
0.0 0.0 -1.307146399580e+01 
-1.974642190414e+01 -2.092540223814e-01 0.0 
-2.092540223814e-01 -5.039019303538e+01 0.0 
0.0 0.0 -2.064098448186e+01 
-1.985897527560e+01 -2.416434600177e-01 0.0 
-2.416434600177e-01 -5.003448505145e+01 0.0 
0.0 0.0 -2.056803809811e+01 
-1.365332575171e+01 -2.542495501047e-01 0.0 
-2.542495501047e-01 -3.398407953935e+01 0.0 
0.0 0.0 -1.401840313636e+01 
-1.372646191142e+01 -3.626887709120e-01 0.0 
-3.626887709120e-01 -3.398789396350e+01 0.0 
0.0 0.0 -1.404796085243e+01 
-7.425159656720e+00 -2.080985515932e-01 0.0 
-2.080985515932e-01 -1.702191180134e+01 0.0 
0.0 0.0 -7.328700042067e+00 
-1.378445540535e+01 -3.648956591531e-01 0.0 
-3.648956591531e-01 -3.385808409525e+01 0.0 
0.0 0.0 -1.405412672525e+01 
-2.029851684859e+01 -4.853346323434e-01 0.0 
-4.853346323434e-01 -5.083715708801e+01 0.0 
0.0 0.0 -2.094070218098e+01 
-7.502795080130e+00 -2.457420659918e-01 0.0 
-2.457420659918e-01 -1.644896767790e+01 0.0 
0.0 0.0 -7.197265847371e+00 
-1.149728724748e+02 2.155672100562e-01 0.0 
2.155672100562e-01 -2.650823392450e+02 0.0 
0.0 0.0 -1.136165635159e+02 
-1.193277831015e+02 3.101560122343e-01 0.0 
3.101560122343e-01 -2.757780821392e+02 0.0 
0.0 0.0 -1.181317595722e+02 
-1.569168507192e+02 4.519398407865e+00 0.0 
4.519398407865e+00 -3.701943773554e+02 0.0 
0.0 0.0 -1.577333684224e+02 
-7.834788222729e+01 3.175127428791e-01 0.0 
3.175127428791e-01 -1.758755976205e+02 0.0 
0.0 0.0 -7.586704395433e+01 
-9.158542802722e+00 -4.241130429674e-01 0.0 
-4.241130429674e-01 -1.708030193028e+01 0.0 
0.0 0.0 -7.855817063741e+00 
-1.431732722217e+02 8.092092338797e-01 0.0 
8.092092338797e-01 -3.341718678936e+02 0.0 
0.0 0.0 -1.428035420346e+02 
-1.447572271152e+02 1.515404992751e+00 0.0 
1.515404992751e+00 -3.376406934101e+02 0.0 
0.0 0.0 -1.443193761576e+02 
-1.448571645096e+02 1.209185370739e+00 0.0 
1.209185370739e+00 -3.378961873235e+02 0.0 
0.0 0.0 -1.444260055499e+02 
-1.433953329372e+02 2.640595439206e-01 0.0 
2.640595439206e-01 -3.420258620505e+02 0.0 
0.0 0.0 -1.452263584963e+02 
-1.479764091187e+02 5.950541358598e-01 0.0 
5.950541358598e-01 -3.515667383116e+02 0.0 
0.0 0.0 -1.494629442291e+02 
-1.432755433155e+02 4.301115124103e-01 0.0 
4.301115124103e-01 -3.346455510011e+02 0.0 
0.0 0.0 -1.429763282950e+02 
-4.894452831264e+01 -4.185665362774e-01 0.0 
-4.185665362774e-01 -1.251565024515e+02 0.0 
0.0 0.0 -5.183030922925e+01 
-1.378483410731e+02 3.920415326060e+00 0.0 
3.920415326060e+00 -3.177796128429e+02 0.0 
0.0 0.0 -1.362883861748e+02 
-1.294790530844e+02 8.003202207218e-01 0.0 
8.003202207218e-01 -3.001066023519e+02 0.0 
0.0 0.0 -1.284756966309e+02 
-2.868314098487e+01 6.623687564541e+00 0.0 
6.623687564541e+00 -7.814576830712e+01 0.0 
0.0 0.0 -3.164867278760e+01 
-4.662664941470e+01 -1.816651367137e-01 0.0 
-1.816651367137e-01 -1.206649433177e+02 0.0 
0.0 0.0 -4.978747781973e+01 
-1.163390393956e+02 6.051460542811e-01 0.0 
6.051460542811e-01 -2.835601200281e+02 0.0 
0.0 0.0 -1.195697478271e+02 
-1.053367639392e+02 1.483123561510e+00 0.0 
1.483123561510e+00 -2.598718967689e+02 0.0 
0.0 0.0 -1.091625982124e+02 
-1.347640451064e+02 1.371175354619e+00 0.0 
1.371175354619e+00 -3.239145168099e+02 0.0 
0.0 0.0 -1.372035685749e+02 
-1.085055260595e+02 8.989633502427e-01 0.0 
8.989633502427e-01 -2.664054943119e+02 0.0 
0.0 0.0 -1.120733061114e+02 
-1.267401885950e+02 1.792841399962e+00 0.0 
1.792841399962e+00 -3.068336916977e+02 0.0 
0.0 0.0 -1.296721640878e+02 
-1.472827106225e+02 5.952704640096e+00 0.0 
5.952704640096e+00 -3.493382274355e+02 0.0 
0.0 0.0 -1.485862814174e+02 
-3.141832679589e+01 -3.069383355156e-01 0.0 
-3.069383355156e-01 -7.897942297770e+01 0.0 
0.0 0.0 -3.271932493208e+01 
-1.003727636238e+02 6.067708172067e-01 0.0 
6.067708172067e-01 -2.284759084057e+02 0.0 
0.0 0.0 -9.825460160885e+01 
-9.707254465190e+01 3.138131404214e-01 0.0 
3.138131404214e-01 -2.213767608766e+02 0.0 
0.0 0.0 -9.513479165855e+01 
-1.172049457315e+02 7.717096538341e-01 0.0 
7.717096538341e-01 -2.697175634131e+02 0.0 
0.0 0.0 -1.156767527434e+02 
-5.169451544921e+01 -3.382636641642e-01 0.0 
-3.382636641642e-01 -1.312327331092e+02 0.0 
0.0 0.0 -5.447817456752e+01 
-8.326233897849e+01 2.382117316738e-01 0.0 
2.382117316738e-01 -2.077349439183e+02 0.0 
0.0 0.0 -8.689918486902e+01 
-3.299773767223e+01 -6.481122369952e-01 0.0 
-6.481122369952e-01 -8.375134885158e+01 0.0 
0.0 0.0 -3.462472595714e+01 
-1.435057631742e+02 6.905842772616e+00 0.0 
6.905842772616e+00 -3.332531544340e+02 0.0 
0.0 0.0 -1.426276752825e+02 
-8.247690036931e+01 3.322015727588e+00 0.0 
3.322015727588e+00 -1.805314342202e+02 0.0 
0.0 0.0 -7.850250037684e+01 
-8.566629589686e+01 2.277733192329e+00 0.0 
2.277733192329e+00 -2.160179374781e+02 0.0 
0.0 0.0 -9.010527001250e+01 
-6.812569257572e+01 1.377402689920e-01 0.0 
1.377402689920e-01 -1.724838546003e+02 0.0 
0.0 0.0 -7.178286415280e+01 
-5.313986044699e+01 -2.087558159912e-01 0.0 
-2.087558159912e-01 -1.362125822310e+02 0.0 
0.0 0.0 -5.640573280340e+01 
-4.324929507732e+01 -1.450550593175e-01 0.0 
-1.450550593175e-01 -1.125072111128e+02 0.0 
0.0 0.0 -4.632695185702e+01 
-7.575998235487e+01 6.808695411013e+00 0.0 
6.808695411013e+00 -1.726303739627e+02 0.0 
0.0 0.0 -7.411710689526e+01 
-8.092261801249e+01 1.113824056864e+00 0.0 
1.113824056864e+00 -2.043077829682e+02 0.0 
0.0 0.0 -8.516912029422e+01 
-1.192390231804e+02 2.788605747635e+00 0.0 
2.788605747635e+00 -2.909805556876e+02 0.0 
0.0 0.0 -1.226658736604e+02 
-1.215195044739e+02 7.123267042553e-01 0.0 
7.123267042553e-01 -2.805191687185e+02 0.0 
0.0 0.0 -1.202116019577e+02 
-9.131326151879e+00 -4.481980547721e-01 0.0 
-4.481980547721e-01 -1.901916802229e+01 0.0 
0.0 0.0 -8.330447083374e+00 
-1.239542247713e+02 3.278162515349e+00 0.0 
3.278162515349e+00 -3.011475193140e+02 0.0 
0.0 0.0 -1.271305232256e+02 
-9.745729394962e+01 1.745971085439e+00 0.0 
1.745971085439e+00 -2.424825119961e+02 0.0 
0.0 0.0 -1.015819417837e+02 
-1.038455072171e+02 1.043798907074e+00 0.0 
1.043798907074e+00 -2.357462992080e+02 0.0 
0.0 0.0 -1.014775419275e+02 
-1.219123771855e+02 6.320846728941e+00 0.0 
6.320846728941e+00 -2.915816092524e+02 0.0 
0.0 0.0 -1.236481959314e+02 
-3.002460864122e+01 -3.618383064001e-01 0.0 
-3.618383064001e-01 -7.751681495251e+01 0.0 
0.0 0.0 -3.186242707812e+01 
-1.204043646861e+02 1.248164024284e+00 0.0 
1.248164024284e+00 -2.767524167613e+02 0.0 
0.0 0.0 -1.187470344342e+02 
-1.346361825452e+02 2.413101737769e+00 0.0 
2.413101737769e+00 -3.112665645688e+02 0.0 
0.0 0.0 -1.333708241342e+02 
-9.529655013906e+01 1.133546515703e+00 0.0 
1.133546515703e+00 -2.142450554944e+02 0.0 
0.0 0.0 -9.246248169004e+01 
-2.558680304702e+01 -6.476457201307e-01 0.0 
-6.476457201307e-01 -6.431534194838e+01 0.0 
0.0 0.0 -2.657064349862e+01 
-9.191917061313e+01 4.222389369298e-01 0.0 
4.222389369298e-01 -2.085276127970e+02 0.0 
0.0 0.0 -8.973403502305e+01 
-1.425474665174e+02 4.618707841954e+00 0.0 
4.618707841954e+00 -3.402512759991e+02 0.0 
0.0 0.0 -1.444396227550e+02 
-1.192727453097e+02 2.346629426181e+00 0.0 
2.346629426181e+00 -2.717598488225e+02 0.0 
0.0 0.0 -1.169097782397e+02 
-4.746518960087e+01 -3.408845865867e-01 0.0 
-3.408845865867e-01 -1.202319374738e+02 0.0 
0.0 0.0 -4.990913812241e+01 
-8.732267758447e+01 5.188475842339e+00 0.0 
5.188475842339e+00 -2.168294475940e+02 0.0 
0.0 0.0 -9.084563755354e+01 
-8.129659369322e+01 5.404185651581e+00 0.0 
5.404185651581e+00 -1.804173800166e+02 0.0 
0.0 0.0 -7.811419211294e+01 
-7.155376192012e+01 1.023745698857e+00 0.0 
1.023745698857e+00 -1.559240046470e+02 0.0 
0.0 0.0 -6.784332997015e+01 
-1.328500600831e+02 9.726710993106e-01 0.0 
9.726710993106e-01 -3.084571318803e+02 0.0 
0.0 0.0 -1.319921575890e+02 
-9.039143371338e+01 6.910516481656e+00 0.0 
6.910516481656e+00 -2.123742402918e+02 0.0 
0.0 0.0 -9.042970220157e+01 
-1.298811090955e+02 5.923445781304e+00 0.0 
5.923445781304e+00 -3.111140832833e+02 0.0 
0.0 0.0 -1.318985577136e+02 
-1.041035075216e+02 5.406759447652e+00 0.0 
5.406759447652e+00 -2.542667968049e+02 0.0 
0.0 0.0 -1.071110912979e+02 
-5.098271591706e+01 -2.644190537185e-01 0.0 
-2.644190537185e-01 -1.289466650628e+02 0.0 
0.0 0.0 -5.357881429395e+01 
-1.322121132427e+02 2.880152380537e+00 0.0 
2.880152380537e+00 -3.189286735070e+02 0.0 
0.0 0.0 -1.349422360249e+02 
-8.464429243628e+01 6.496301444187e+00 0.0 
6.496301444187e+00 -2.058536113162e+02 0.0 
0.0 0.0 -8.674937112574e+01 
-1.283674226932e+02 1.450719825215e+00 0.0 
1.450719825215e+00 -2.963897414776e+02 0.0 
0.0 0.0 -1.270271492512e+02 
-1.168840655323e+02 5.792947288726e+00 0.0 
5.792947288726e+00 -2.665661624501e+02 0.0 
0.0 0.0 -1.146350683947e+02 
-6.722505861317e+01 5.551205747314e+00 0.0 
5.551205747314e+00 -1.702434548278e+02 0.0 
0.0 0.0 -7.084055403229e+01 
-1.236808855936e+02 1.895358470500e+00 0.0 
1.895358470500e+00 -2.837939834008e+02 0.0 
0.0 0.0 -1.218424606983e+02 
-8.603056118750e+01 3.148547674685e+00 0.0 
3.148547674685e+00 -2.167175717290e+02 0.0 
0.0 0.0 -9.042443987496e+01 
-1.265860395147e+02 6.603503474634e+00 0.0 
6.603503474634e+00 -3.008420499209e+02 0.0 
0.0 0.0 -1.278284268307e+02 
-7.831113471912e+01 3.615919452130e+00 0.0 
3.615919452130e+00 -1.708056775699e+02 0.0 
0.0 0.0 -7.433504368670e+01 
-1.012573533017e+02 5.374561949387e+00 0.0 
5.374561949387e+00 -2.280796285828e+02 0.0 
0.0 0.0 -9.840109456534e+01 
-1.099904733135e+02 4.184124000336e+00 0.0 
4.184124000336e+00 -2.473670425180e+02 0.0 
0.0 0.0 -1.068072547494e+02 
-9.608019860678e+01 6.364464071645e+00 0.0 
6.364464071645e+00 -2.196748044849e+02 0.0 
0.0 0.0 -9.432650092751e+01 
-1.116511685942e+02 3.010645364538e-01 0.0 
3.010645364538e-01 -2.730191394489e+02 0.0 
0.0 0.0 -1.150010924129e+02 
-1.280719742198e+02 3.067759244224e+00 0.0 
3.067759244224e+00 -3.100871175361e+02 0.0 
0.0 0.0 -1.310477275268e+02 
-2.920011535380e+01 1.755264010709e+00 0.0 
1.755264010709e+00 -8.027281596306e+01 0.0 
0.0 0.0 -3.244187939506e+01 
-5.975935260860e+01 7.045652224021e+00 0.0 
7.045652224021e+00 -1.338007551509e+02 0.0 
0.0 0.0 -5.766803232784e+01 
-1.036008532552e+02 1.350382960289e+00 0.0 
1.350382960289e+00 -2.341054113688e+02 0.0 
0.0 0.0 -1.009118793872e+02 
-1.316330867659e+02 6.737217115153e+00 0.0 
6.737217115153e+00 -3.050545664669e+02 0.0 
0.0 0.0 -1.306062959698e+02 
-1.362202140702e+02 1.579049645813e+00 0.0 
1.579049645813e+00 -3.158239238595e+02 0.0 
0.0 0.0 -1.352132413789e+02 
-7.338901769330e+01 5.224850112694e+00 0.0 
5.224850112694e+00 -1.611744198797e+02 0.0 
0.0 0.0 -6.996903127191e+01 
-1.274170778003e+02 2.417860565265e+00 0.0 
2.417860565265e+00 -3.085581142653e+02 0.0 
0.0 0.0 -1.303925576197e+02 
-1.312656605129e+02 2.103581330121e+00 0.0 
2.103581330121e+00 -3.029060859701e+02 0.0 
0.0 0.0 -1.298515239449e+02 
-8.477172841551e+01 1.026596025226e+00 0.0 
1.026596025226e+00 -2.130004091350e+02 0.0 
0.0 0.0 -8.893164126516e+01 
-3.575945228170e+01 -1.205431998725e-01 0.0 
-1.205431998725e-01 -9.055090785551e+01 0.0 
0.0 0.0 -3.749310804116e+01 
-2.191522704554e+01 6.205032182243e+00 0.0 
6.205032182243e+00 -6.125848472691e+01 0.0 
0.0 0.0 -2.455211353173e+01 
-5.120617047741e+01 5.265687537642e+00 0.0 
5.265687537642e+00 -1.338967474322e+02 0.0 
0.0 0.0 -5.513087537287e+01 
-8.576043592100e+01 6.943006853409e+00 0.0 
6.943006853409e+00 -2.039091491686e+02 0.0 
0.0 0.0 -8.650087552689e+01 
-9.302214812912e+01 1.328150119284e+00 0.0 
1.328150119284e+00 -2.321207017426e+02 0.0 
0.0 0.0 -9.714285496152e+01 
-1.389896744897e+02 3.414406764547e+00 0.0 
3.414406764547e+00 -3.216027368417e+02 0.0 
0.0 0.0 -1.377777233994e+02 
-1.315335217785e+02 2.210738251394e+00 0.0 
2.210738251394e+00 -3.172376598422e+02 0.0 
0.0 0.0 -1.342313544862e+02 
-1.203405613676e+02 4.286322538439e+00 0.0 
4.286322538439e+00 -2.927234357294e+02 0.0 
0.0 0.0 -1.235191991291e+02 
-1.102465480298e+01 7.151214545844e+00 0.0 
7.151214545844e+00 -2.082595876099e+01 0.0 
0.0 0.0 -9.155184069192e+00 
-7.522050904309e+01 1.395660030597e+00 0.0 
1.395660030597e+00 -1.640542331067e+02 0.0 
0.0 0.0 -7.138242264495e+01 
-1.356743325558e+02 1.995638718567e+00 0.0 
1.995638718567e+00 -3.259468312133e+02 0.0 
0.0 0.0 -1.380863491307e+02 
-9.107919099302e+01 4.755274014145e+00 0.0 
4.755274014145e+00 -2.263144875965e+02 0.0 
0.0 0.0 -9.481810357684e+01 
-1.303177677458e+02 6.481338324884e+00 0.0 
6.481338324884e+00 -3.102867379802e+02 0.0 
0.0 0.0 -1.317813517178e+02 
-8.989513230411e+01 1.251419952807e-01 0.0 
1.251419952807e-01 -2.229029472366e+02 0.0 
0.0 0.0 -9.343942386221e+01 
-1.437707428932e+02 7.199869684210e+00 0.0 
7.199869684210e+00 -3.343335344111e+02 0.0 
0.0 0.0 -1.430312831913e+02 
-5.857868079539e+01 1.963318749001e+00 0.0 
1.963318749001e+00 -1.247095096496e+02 0.0 
0.0 0.0 -5.458645713349e+01 
-1.398733324914e+02 1.759674480252e+00 0.0 
1.759674480252e+00 -3.349114266561e+02 0.0 
0.0 0.0 -1.420354277443e+02 
-1.207170214628e+02 4.992067529663e+00 0.0 
4.992067529663e+00 -2.925990810848e+02 0.0 
0.0 0.0 -1.235948307643e+02 
-5.314936906549e+01 7.890864160664e+00 0.0 
7.890864160664e+00 -1.281919996825e+02 0.0 
0.0 0.0 -5.400241062440e+01 
-7.653988009801e+01 1.510004900947e-02 0.0 
1.510004900947e-02 -1.733018542378e+02 0.0 
0.0 0.0 -7.455252030074e+01 
-1.502756616905e+02 1.879120376376e+00 0.0 
1.879120376376e+00 -3.566901111789e+02 0.0 
0.0 0.0 -1.516897318608e+02 
-1.296370790593e+02 5.278724541141e+00 0.0 
5.278724541141e+00 -3.119048098506e+02 0.0 
0.0 0.0 -1.320625666730e+02 
-1.039555074504e+02 6.391593464234e+00 0.0 
6.391593464234e+00 -2.387322172393e+02 0.0 
0.0 0.0 -1.024063174069e+02 
-8.657524702538e+01 4.152609331389e+00 0.0 
4.152609331389e+00 -2.170426402209e+02 0.0 
0.0 0.0 -9.068536617389e+01 
-6.320618268894e+01 1.103484074435e+00 0.0 
1.103484074435e+00 -1.362496193647e+02 0.0 
0.0 0.0 -5.943674061608e+01 
-9.691733537121e+01 1.227811536950e+00 0.0 
1.227811536950e+00 -2.407862084539e+02 0.0 
0.0 0.0 -1.009110631475e+02 
-1.054528483268e+02 5.115975090961e+00 0.0 
5.115975090961e+00 -2.375291574003e+02 0.0 
0.0 0.0 -1.024946017181e+02 
-1.458727415843e+02 2.903028472162e+00 0.0 
2.903028472162e+00 -3.397962925461e+02 0.0 
0.0 0.0 -1.453007102391e+02 
-1.338686718385e+02 5.767835855336e+00 0.0 
5.767835855336e+00 -3.204768439884e+02 0.0 
0.0 0.0 -1.359036547481e+02 
-1.069895910345e+02 2.518354832987e+00 0.0 
2.518354832987e+00 -2.403090178538e+02 0.0 
0.0 0.0 -1.037895826665e+02 
-9.245963974842e+01 8.893916023582e-01 0.0 
8.893916023582e-01 -2.302671096711e+02 0.0 
0.0 0.0 -9.641802482585e+01 
-1.103701139413e+02 6.708327138084e+00 0.0 
6.708327138084e+00 -2.609131482505e+02 0.0 
0.0 0.0 -1.109849786576e+02 
-2.006743017162e+01 -3.490010514639e-01 0.0 
-3.490010514639e-01 -5.017076580307e+01 0.0 
0.0 0.0 -2.067145879241e+01 
-6.702285603792e+01 1.607254710025e+00 0.0 
1.607254710025e+00 -1.445220887017e+02 0.0 
0.0 0.0 -6.306348342190e+01 
-9.627107860132e+01 8.193756982679e-01 0.0 
8.193756982679e-01 -2.388118837214e+02 0.0 
0.0 0.0 -1.001248886968e+02 
-5.495697773675e+01 4.536486679079e+00 0.0 
4.536486679079e+00 -1.435704306703e+02 0.0 
0.0 0.0 -5.915822252211e+01 
-9.039326713122e+01 3.769581561408e+00 0.0 
3.769581561408e+00 -2.262049438688e+02 0.0 
0.0 0.0 -9.457946330001e+01 
-1.437646523567e+02 7.380938167146e+00 0.0 
7.380938167146e+00 -3.376209683429e+02 0.0 
0.0 0.0 -1.440156862099e+02 
-1.000927652453e+02 7.346080811520e-01 0.0 
7.346080811520e-01 -2.473649269818e+02 0.0 
0.0 0.0 -1.038373076681e+02 
-6.288009620687e+01 4.783468444316e+00 0.0 
4.783468444316e+00 -1.616978465379e+02 0.0 
0.0 0.0 -6.697338282343e+01 
-1.039144866604e+02 6.306956338091e-01 0.0 
6.306956338091e-01 -2.558756335230e+02 0.0 
0.0 0.0 -1.075370360550e+02 
-5.484332526103e+01 1.291084828217e+00 0.0 
1.291084828217e+00 -1.166883437362e+02 0.0 
0.0 0.0 -5.105950069918e+01 
-1.107921816532e+02 2.985970958375e+00 0.0 
2.985970958375e+00 -2.494107270637e+02 0.0 
0.0 0.0 -1.076608726151e+02 
-1.077614104659e+02 5.153301623746e-01 0.0 
5.153301623746e-01 -2.643279068317e+02 0.0 
0.0 0.0 -1.112267951893e+02 
-1.132377043135e+02 5.366733591740e+00 0.0 
5.366733591740e+00 -2.567546712180e+02 0.0 
0.0 0.0 -1.105977126595e+02 
-2.099890310629e+01 -4.524028519082e-01 0.0 
-4.524028519082e-01 -5.248530812023e+01 0.0 
0.0 0.0 -2.164526336796e+01 
-1.074173140889e+02 6.609001270001e+00 0.0 
6.609001270001e+00 -2.487805229125e+02 0.0 
0.0 0.0 -1.064593511004e+02 
-1.385147066927e+02 5.297585484233e-01 0.0 
5.297585484233e-01 -3.316066858982e+02 0.0 
0.0 0.0 -1.406364177773e+02 
-6.143228547875e+01 5.062108193832e-01 0.0 
5.062108193832e-01 -1.579630899226e+02 0.0 
0.0 0.0 -6.541861262040e+01 
-9.429778367453e+01 3.433276845299e+00 0.0 
3.433276845299e+00 -2.353626370494e+02 0.0 
0.0 0.0 -9.849812621719e+01 
-1.186863339908e+02 3.362338698262e+00 0.0 
3.362338698262e+00 -2.690398936537e+02 0.0 
0.0 0.0 -1.159178682933e+02 
-4.622755987578e+01 1.709998994065e+00 0.0 
1.709998994065e+00 -9.688530310753e+01 0.0 
0.0 0.0 -4.253385889499e+01 
-1.027630612250e+02 3.709101606503e+00 0.0 
3.709101606503e+00 -2.542268961462e+02 0.0 
0.0 0.0 -1.066969872114e+02 
-1.210087452061e+02 5.625940165460e+00 0.0 
5.625940165460e+00 -2.760708105044e+02 0.0 
0.0 0.0 -1.187238667132e+02 
-1.109898339225e+02 6.706632026335e+00 0.0 
6.706632026335e+00 -2.589881736627e+02 0.0 
0.0 0.0 -1.105934022756e+02 
-9.388018741299e+01 6.805907212967e+00 0.0 
6.805907212967e+00 -2.227521868848e+02 0.0 
0.0 0.0 -9.458971228935e+01 
-1.114552084321e+02 3.986787703296e+00 0.0 
3.986787703296e+00 -2.733807651952e+02 0.0 
0.0 0.0 -1.150507920882e+02 
-4.991974222213e+01 2.513947192089e+00 0.0 
2.513947192089e+00 -1.047902789028e+02 0.0 
0.0 0.0 -4.601300633749e+01 
-4.559284324138e+01 -4.851379075896e-01 0.0 
-4.851379075896e-01 -1.170001191939e+02 0.0 
0.0 0.0 -4.837788873057e+01 
-3.821590253191e+01 -6.655038422293e-01 0.0 
-6.655038422293e-01 -9.783862370262e+01 0.0 
0.0 0.0 -4.041635787036e+01 
-6.661259957232e+01 4.191032246456e+00 0.0 
4.191032246456e+00 -1.711023040009e+02 0.0 
0.0 0.0 -7.091447107197e+01 
-1.251071003048e+02 5.461544229261e+00 0.0 
5.461544229261e+00 -2.857559326511e+02 0.0 
0.0 0.0 -1.228589098868e+02 
-2.631502070196e+01 -1.508097946414e-01 0.0 
-1.508097946414e-01 -6.662129069579e+01 0.0 
0.0 0.0 -2.748089341932e+01 
-1.182526679428e+02 3.948234116896e+00 0.0 
3.948234116896e+00 -2.676743006718e+02 0.0 
0.0 0.0 -1.153780905844e+02 
-2.796918277335e+01 -7.983658560175e-01 0.0 
-7.983658560175e-01 -7.054669512680e+01 0.0 
0.0 0.0 -2.915476337004e+01 
-6.249392971642e+01 3.362840586897e+00 0.0 
3.362840586897e+00 -1.621280113392e+02 0.0 
0.0 0.0 -6.698658231668e+01 
-1.233285184463e+02 6.838967385641e+00 0.0 
6.838967385641e+00 -2.893554470310e+02 0.0 
0.0 0.0 -1.234051896432e+02 
-9.917540127291e+01 2.544842644329e-01 0.0 
2.544842644329e-01 -2.270643362075e+02 0.0 
0.0 0.0 -9.747192124414e+01 
-6.622519980203e+01 2.893338801577e+00 0.0 
2.893338801577e+00 -1.710272330574e+02 0.0 
0.0 0.0 -7.077572985784e+01 
-4.353023118541e+01 -1.308346546333e-01 0.0 
-1.308346546333e-01 -1.100089071523e+02 0.0 
0.0 0.0 -4.566174150132e+01 
-6.221926290295e+01 2.123481306462e+00 0.0 
2.123481306462e+00 -1.615582891481e+02 0.0 
0.0 0.0 -6.673326561531e+01 
-1.020596789087e+02 6.717517333240e+00 0.0 
6.717517333240e+00 -2.417041992525e+02 0.0 
0.0 0.0 -1.027291634483e+02 
-6.592767045952e+01 1.814976207363e+00 0.0 
1.814976207363e+00 -1.701481106625e+02 0.0 
0.0 0.0 -7.042273433662e+01 
-6.195596373285e+01 1.175469053126e+00 0.0 
1.175469053126e+00 -1.602325290204e+02 0.0 
0.0 0.0 -6.625654782598e+01 
-1.372928269616e+02 9.331505070731e-01 0.0 
9.331505070731e-01 -3.195145645465e+02 0.0 
0.0 0.0 -1.366422174524e+02 
-6.555687653168e+01 9.946194700912e-01 0.0 
9.946194700912e-01 -1.684964363264e+02 0.0 
0.0 0.0 -6.981599385743e+01 
-1.448404281699e+02 3.168951928516e-01 0.0 
3.168951928516e-01 -3.379991145821e+02 0.0 
0.0 0.0 -1.444518628256e+02 
-1.583152199099e+02 6.553422955353e-01 0.0 
6.553422955353e-01 -3.731716371179e+02 0.0 
0.0 0.0 -1.590460571083e+02 
-8.280029304033e+01 1.675606250988e-01 0.0 
1.675606250988e-01 -1.882239830062e+02 0.0 
0.0 0.0 -8.090728281395e+01 
-3.680917362475e+01 1.822934473911e+00 0.0 
1.822934473911e+00 -7.624920257773e+01 0.0 
0.0 0.0 -3.351751286074e+01 
-1.188173663332e+01 2.770841899826e-02 0.0 
2.770841899826e-02 -1.712470719302e+01 0.0 
0.0 0.0 -8.566485677335e+00 
-4.169271480426e+01 3.855383523986e+00 0.0 
3.855383523986e+00 -8.548346171583e+01 0.0 
0.0 0.0 -3.775285295602e+01 
-5.393942662551e+01 1.474289971282e-01 0.0 
1.474289971282e-01 -1.393300602591e+02 0.0 
0.0 0.0 -5.758084606538e+01 
-1.176750524320e+02 4.519971056751e+00 0.0 
4.519971056751e+00 -2.665209594831e+02 0.0 
0.0 0.0 -1.148588035745e+02 
-8.319650654430e+01 2.399600030712e-02 0.0 
2.399600030712e-02 -1.889875625464e+02 0.0 
0.0 0.0 -8.125522072722e+01 
-4.985817815795e+01 -2.346456756982e-01 0.0 
-2.346456756982e-01 -1.283905383122e+02 0.0 
0.0 0.0 -5.307461494105e+01 
-1.413854843274e+02 5.152434849933e+00 0.0 
5.152434849933e+00 -3.268900868143e+02 0.0 
0.0 0.0 -1.400826713425e+02 
-1.512213330271e+02 7.911759368099e+00 0.0 
7.911759368099e+00 -3.534855040796e+02 0.0 
0.0 0.0 -1.510120511320e+02 
-1.110329914098e+02 2.299418035905e-01 0.0 
2.299418035905e-01 -2.555178726724e+02 0.0 
0.0 0.0 -1.095652592247e+02 
-1.339166915021e+02 6.294473269269e+00 0.0 
6.294473269269e+00 -3.191574414452e+02 0.0 
0.0 0.0 -1.355222398842e+02 
-1.148936940247e+02 6.748721409553e+00 0.0 
6.748721409553e+00 -2.697543643890e+02 0.0 
0.0 0.0 -1.149944175241e+02 
-1.300157670624e+02 2.101813940554e-01 0.0 
2.101813940554e-01 -3.020030550100e+02 0.0 
0.0 0.0 -1.292056466217e+02 
-7.626208997709e+01 3.097697854042e-01 0.0 
3.097697854042e-01 -1.719232159971e+02 0.0 
0.0 0.0 -7.405559179226e+01 
-1.466949852075e+01 -7.381299535295e-01 0.0 
-7.381299535295e-01 -3.292916616540e+01 0.0 
0.0 0.0 -1.400262658133e+01 
-1.161557124421e+02 1.573238968970e-01 0.0 
1.573238968970e-01 -2.829951456647e+02 0.0 
0.0 0.0 -1.193452574320e+02 
-2.800003551659e+01 2.593417931679e+00 0.0 
2.593417931679e+00 -5.628293107361e+01 0.0 
0.0 0.0 -2.488488997706e+01 
-3.093585080150e+01 5.271913676796e+00 0.0 
5.271913676796e+00 -6.204089549412e+01 0.0 
0.0 0.0 -2.749302388869e+01 
-2.244657359755e+01 7.778150129559e+00 0.0 
7.778150129559e+00 -4.647694621113e+01 0.0 
0.0 0.0 -2.027705594260e+01 
-5.364457677575e+01 -2.108953862728e-01 0.0 
-2.108953862728e-01 -1.358195673139e+02 0.0 
0.0 0.0 -5.643924322691e+01 
-2.038910287584e+01 -8.293425007032e-01 0.0 
-8.293425007032e-01 -4.908665871522e+01 0.0 
0.0 0.0 -2.044272847732e+01 
-2.165527123207e+01 4.163012118908e+00 0.0 
4.163012118908e+00 -4.144749535210e+01 0.0 
0.0 0.0 -1.853082997525e+01 
-1.460259596380e+02 7.077576859376e+00 0.0 
7.077576859376e+00 -3.450120617064e+02 0.0 
0.0 0.0 -1.469114064033e+02 
-8.441198304883e+01 5.890747651867e-01 0.0 
5.890747651867e-01 -1.896035283708e+02 0.0 
0.0 0.0 -8.180465342589e+01 
-1.274024793811e+02 6.959558968090e+00 0.0 
6.959558968090e+00 -2.976494460714e+02 0.0 
0.0 0.0 -1.271155776358e+02 
-1.396460663071e+01 6.636536004230e+00 0.0 
6.636536004230e+00 -2.598575966666e+01 0.0 
0.0 0.0 -1.158510988921e+01 
-1.386589256047e+02 2.393889723093e+00 0.0 
2.393889723093e+00 -3.217075873542e+02 0.0 
0.0 0.0 -1.377099538877e+02 
-1.445672955138e+02 7.512968204006e+00 0.0 
7.512968204006e+00 -3.384253653916e+02 0.0 
0.0 0.0 -1.444977982716e+02 
-1.582534823166e+02 3.597357010201e+00 0.0 
3.597357010201e+00 -3.731215901955e+02 0.0 
0.0 0.0 -1.590125217536e+02 
-1.356702184193e+02 7.166804774776e+00 0.0 
7.166804774776e+00 -3.172064381029e+02 0.0 
0.0 0.0 -1.354629969567e+02 
-1.532505268376e+01 7.987648960898e+00 0.0 
7.987648960898e+00 -3.787583903404e+01 0.0 
0.0 0.0 -1.556026751534e+01 
-9.233661497825e+01 1.224875335676e+00 0.0 
1.224875335676e+00 -2.064206694866e+02 0.0 
0.0 0.0 -8.922718533945e+01 
-1.428979584421e+02 6.663455269014e+00 0.0 
6.663455269014e+00 -3.316262134063e+02 0.0 
0.0 0.0 -1.419572515545e+02 
-1.175788317378e+02 3.179609385088e-01 0.0 
3.179609385088e-01 -2.710327919992e+02 0.0 
0.0 0.0 -1.161834871211e+02 
-1.593154155636e+02 2.556940813514e+00 0.0 
2.556940813514e+00 -3.750651620212e+02 0.0 
0.0 0.0 -1.599141732754e+02 
-8.390454559164e+01 5.500915399594e-01 0.0 
5.500915399594e-01 -1.873864610600e+02 0.0 
0.0 0.0 -8.098730199548e+01 
-1.382733277115e+02 5.465606154882e-01 0.0 
5.465606154882e-01 -3.220472499787e+02 0.0 
0.0 0.0 -1.376961733071e+02 
-2.644224421639e+01 7.141477986734e-01 0.0 
7.141477986734e-01 -7.129235652217e+01 0.0 
0.0 0.0 -2.892038022157e+01 
-1.383335424473e+02 2.312338516251e-01 0.0 
2.312338516251e-01 -3.222454276375e+02 0.0 
0.0 0.0 -1.377736910254e+02 
-1.253993955771e+02 4.890484647702e+00 0.0 
4.890484647702e+00 -2.859980169223e+02 0.0 
0.0 0.0 -1.230192237498e+02 
-9.350723513557e+01 1.162764125744e-01 0.0 
1.162764125744e-01 -2.129482552015e+02 0.0 
0.0 0.0 -9.153664710111e+01 
-9.246216790211e+01 1.345476056253e+00 0.0 
1.345476056253e+00 -2.058217554458e+02 0.0 
0.0 0.0 -8.908517700437e+01 
-1.522894457091e+02 9.239996580833e-01 0.0 
9.239996580833e-01 -3.605172434347e+02 0.0 
0.0 0.0 -1.534420067431e+02 
-1.404113300294e+02 4.461080297888e+00 0.0 
4.461080297888e+00 -3.250116820493e+02 0.0 
0.0 0.0 -1.392269036236e+02 
-1.323606437373e+01 6.100169277067e+00 0.0 
6.100169277067e+00 -3.416435765753e+01 0.0 
0.0 0.0 -1.382012660938e+01 
-1.107680941824e+02 1.179956253763e-01 0.0 
1.179956253763e-01 -2.544462965272e+02 0.0 
0.0 0.0 -1.091643172129e+02 
-6.706608143773e+01 2.179244355203e-02 0.0 
2.179244355203e-02 -1.690200938625e+02 0.0 
0.0 0.0 -7.042585259008e+01 
-1.489418841793e+01 -2.368713555438e-01 0.0 
-2.368713555438e-01 -3.107266852640e+01 0.0 
0.0 0.0 -1.358249685426e+01 
-1.496956950492e+02 3.927788918113e+00 0.0 
3.927788918113e+00 -3.555612077119e+02 0.0 
0.0 0.0 -1.511770708283e+02 
-1.325759336445e+02 5.220815243894e+00 0.0 
5.220815243894e+00 -3.045035978256e+02 0.0 
0.0 0.0 -1.307238594410e+02 
-1.513916256391e+02 1.434759511968e+00 0.0 
1.434759511968e+00 -3.590499212905e+02 0.0 
0.0 0.0 -1.527324640789e+02 
-1.958496217741e+01 -2.306589319738e-01 0.0 
-2.306589319738e-01 -4.970483876394e+01 0.0 
0.0 0.0 -2.038694028241e+01 
-1.350894841202e+01 -6.966094075841e-01 0.0 
-6.966094075841e-01 -3.108388177550e+01 0.0 
0.0 0.0 -1.305976754610e+01 
-1.504212423777e+02 4.905034416957e+00 0.0 
4.905034416957e+00 -3.568192425419e+02 0.0 
0.0 0.0 -1.517721454759e+02 
-1.428582401706e+02 5.890430549783e+00 0.0 
5.890430549783e+00 -3.308754017853e+02 0.0 
0.0 0.0 -1.417200925868e+02 
-3.041138609665e+01 3.989455049852e-01 0.0 
3.989455049852e-01 -8.068255551778e+01 0.0 
0.0 0.0 -3.292818248433e+01 
-1.463605433752e+02 2.030462260967e+00 0.0 
2.030462260967e+00 -3.415650074690e+02 0.0 
0.0 0.0 -1.459776652533e+02 
-1.103212827836e+01 4.079499930782e+00 0.0 
4.079499930782e+00 -2.462803199837e+01 0.0 
0.0 0.0 -1.037985206807e+01 
-7.570079230056e+01 9.940563805146e-02 0.0 
9.940563805146e-02 -1.698772262359e+02 0.0 
0.0 0.0 -7.327340556095e+01 
-1.348938442640e+01 -3.466181225550e-01 0.0 
-3.466181225550e-01 -3.228095323266e+01 0.0 
0.0 0.0 -1.350687090239e+01 
-1.593847477278e+02 2.360554243422e+00 0.0 
2.360554243422e+00 -3.751753657263e+02 0.0 
0.0 0.0 -1.599680340362e+02 
-1.389065788529e+02 1.380876719010e+00 0.0 
1.380876719010e+00 -3.232103465136e+02 0.0 
0.0 0.0 -1.382350776099e+02 
-7.422000864242e+01 -1.307398408648e-01 0.0 
-1.307398408648e-01 -1.860405543295e+02 0.0 
0.0 0.0 -7.767816889159e+01 
-7.943912724469e+01 7.203314405671e-01 0.0 
7.203314405671e-01 -1.754029640145e+02 0.0 
0.0 0.0 -7.605262737775e+01 
-4.877701721589e+01 -2.398017421917e-01 0.0 
-2.398017421917e-01 -1.232485699519e+02 0.0 
0.0 0.0 -5.120767615035e+01 
-1.382155404124e+02 6.827395115422e+00 0.0 
6.827395115422e+00 -3.213297072099e+02 0.0 
0.0 0.0 -1.374635742867e+02 
-1.936167751313e+01 -9.083677590410e-01 0.0 
-9.083677590410e-01 -4.613806782135e+01 0.0 
0.0 0.0 -1.924992360034e+01 
-1.394816502951e+02 1.147371732131e+00 0.0 
1.147371732131e+00 -3.249478780118e+02 0.0 
0.0 0.0 -1.389288584921e+02 
-1.500582267477e+02 5.812649859758e+00 0.0 
5.812649859758e+00 -3.555806464308e+02 0.0 
0.0 0.0 -1.512916619536e+02 
-1.408813705758e+02 3.184705259685e+00 0.0 
3.184705259685e+00 -3.267668705377e+02 0.0 
0.0 0.0 -1.398944723340e+02 
-1.550038532559e+02 7.910618778093e+00 0.0 
7.910618778093e+00 -3.637570847178e+02 0.0 
0.0 0.0 -1.552282813921e+02 
-1.335973432557e+01 8.743844192098e-01 0.0 
8.743844192098e-01 -2.878769631374e+01 0.0 
0.0 0.0 -1.234608349872e+01 
-1.462449105978e+02 7.643879055071e+00 0.0 
7.643879055071e+00 -3.418815623950e+02 0.0 
0.0 0.0 -1.460379418978e+02 
-1.412261555894e+02 5.919610307901e+00 0.0 
5.919610307901e+00 -3.363585080137e+02 0.0 
0.0 0.0 -1.428753990809e+02 
-7.597438724505e+01 -1.341447887830e-01 0.0 
-1.341447887830e-01 -1.717231175758e+02 0.0 
0.0 0.0 -7.390925144626e+01 
-1.403579274894e+02 3.646554481386e+00 0.0 
3.646554481386e+00 -3.249078304488e+02 0.0 
0.0 0.0 -1.391797273815e+02 
-6.006291674323e+01 -2.451333007157e-01 0.0 
-2.451333007157e-01 -1.514425805932e+02 0.0 
0.0 0.0 -6.305164920094e+01 
-2.621959974170e+01 -3.395284884803e-01 0.0 
-3.395284884803e-01 -6.567339289998e+01 0.0 
0.0 0.0 -2.716789779250e+01 
-1.456934569314e+02 2.436021959869e-01 0.0 
2.436021959869e-01 -3.400544757843e+02 0.0 
0.0 0.0 -1.453243798147e+02 
-6.085224559549e+00 -4.629299719424e-03 0.0 
-4.629299719424e-03 -1.411638978589e+01 0.0 
0.0 0.0 -5.972835378296e+00 
-7.526314335666e+01 9.527981808265e-02 0.0 
9.527981808265e-02 -1.706080163957e+02 0.0 
0.0 0.0 -7.336134792572e+01 
-1.603878965597e+02 1.277949533502e-01 0.0 
1.277949533502e-01 -3.773989948477e+02 0.0 
0.0 0.0 -1.609360674222e+02 
-2.507543562813e+01 -3.267380233294e-01 0.0 
-3.267380233294e-01 -6.276927280912e+01 0.0 
0.0 0.0 -2.595341253118e+01 
-8.895881709177e+01 1.759398714434e-01 0.0 
1.759398714434e-01 -2.025757626590e+02 0.0 
0.0 0.0 -8.706037392524e+01 
-1.429094190549e+02 5.615932135497e+00 0.0 
5.615932135497e+00 -3.307974885889e+02 0.0 
0.0 0.0 -1.417120722931e+02 
-9.192540623021e+01 2.196086167955e-02 0.0 
2.196086167955e-02 -2.278995816429e+02 0.0 
0.0 0.0 -9.554749636194e+01 
-1.254820300554e+02 4.686503072136e-01 0.0 
4.686503072136e-01 -2.907711328664e+02 0.0 
0.0 0.0 -1.244759488765e+02 
-2.456611431248e+01 -6.825833997678e-01 0.0 
-6.825833997678e-01 -6.160516164303e+01 0.0 
0.0 0.0 -2.545138278665e+01 
-1.146296277479e+01 -3.107870465354e-01 0.0 
-3.107870465354e-01 -1.454034413082e+01 0.0 
0.0 0.0 -7.818264709217e+00 
-1.035229132689e+02 2.926494417459e-01 0.0 
2.926494417459e-01 -2.373673993708e+02 0.0 
0.0 0.0 -1.018670937919e+02 
-1.463853136823e+02 7.462884521364e+00 0.0 
7.462884521364e+00 -3.435036757185e+02 0.0 
0.0 0.0 -1.465666968202e+02 
-1.408555498084e+02 2.694107832763e+00 0.0 
2.694107832763e+00 -3.271799250053e+02 0.0 
0.0 0.0 -1.400106424441e+02 
-9.796108397959e+01 7.646018010848e-02 0.0 
7.646018010848e-02 -2.237217682235e+02 0.0 
0.0 0.0 -9.610485566094e+01 
-1.716485595299e+01 5.821879122275e+00 0.0 
5.821879122275e+00 -4.753268673105e+01 0.0 
0.0 0.0 -1.900926280521e+01 
-1.384915088646e+02 5.475795538818e+00 0.0 
5.475795538818e+00 -3.196174698784e+02 0.0 
0.0 0.0 -1.370326936229e+02 
-8.054388264270e+01 1.021126744875e-01 0.0 
1.021126744875e-01 -2.007710299332e+02 0.0 
0.0 0.0 -8.399447377277e+01 
-1.382547510155e+02 6.628114698557e+00 0.0 
6.628114698557e+00 -3.201785865936e+02 0.0 
0.0 0.0 -1.371300012827e+02 
-1.407226148120e+02 6.661882090938e+00 0.0 
6.661882090938e+00 -3.341148969851e+02 0.0 
0.0 0.0 -1.420512535391e+02 
-9.459750963477e+00 4.099257189261e+00 0.0 
4.099257189261e+00 -1.249478821075e+01 0.0 
0.0 0.0 -6.453440729374e+00 
-9.919765043274e+01 2.016237555242e-03 0.0 
2.016237555242e-03 -2.447843500926e+02 0.0 
0.0 0.0 -1.027946001576e+02 
-1.293590221861e+01 -3.263478803029e-01 0.0 
-3.263478803029e-01 -3.024712762193e+01 0.0 
0.0 0.0 -1.265646050167e+01 
-1.524102108037e+02 3.187010741731e+00 0.0 
3.187010741731e+00 -3.612197510665e+02 0.0 
0.0 0.0 -1.536889885611e+02 
-8.396354531045e+01 1.420812294936e-01 0.0 
1.420812294936e-01 -2.091842037044e+02 0.0 
0.0 0.0 -8.754432470447e+01 
-3.133477807138e+00 1.297663435445e+00 0.0 
1.297663435445e+00 -7.644140770455e+00 0.0 
0.0 0.0 -2.667935397235e+00 
-6.848425044052e+00 8.604384634579e-02 0.0 
8.604384634579e-02 -1.045488277837e+01 0.0 
0.0 0.0 -4.790992346726e+00 
-1.385184703617e+01 1.485680795330e+00 0.0 
1.485680795330e+00 -2.830383638534e+01 0.0 
0.0 0.0 -1.224670502645e+01 
-1.436046094097e+01 -2.212784432284e-02 0.0 
-2.212784432284e-02 -2.894716445832e+01 0.0 
0.0 0.0 -1.259228761979e+01 
-2.368494896924e+01 1.210638765165e+00 0.0 
1.210638765165e+00 -4.813088125664e+01 0.0 
0.0 0.0 -2.114474906776e+01 
-2.321099930423e+01 -2.009842610466e-02 0.0 
-2.009842610466e-02 -4.961067733703e+01 0.0 
0.0 0.0 -2.144650299238e+01 
-3.302351578791e+01 9.166237437902e-01 0.0 
9.166237437902e-01 -6.786902101145e+01 0.0 
0.0 0.0 -2.986776103981e+01 
-3.117171700452e+01 -1.163412439244e-02 0.0 
-1.163412439244e-02 -6.806201232715e+01 0.0 
0.0 0.0 -2.937011879950e+01 
-4.171970964194e+01 7.616714292560e-01 0.0 
7.616714292560e-01 -8.735666145541e+01 0.0 
0.0 0.0 -3.832291132920e+01 
-4.010494250083e+01 -9.210550021526e-03 0.0 
-9.210550021526e-03 -8.872003968698e+01 0.0 
0.0 0.0 -3.824749465634e+01 
-5.037144776899e+01 6.436887005489e-01 0.0 
6.436887005489e-01 -1.069392921757e+02 0.0 
0.0 0.0 -4.679322198342e+01 
-4.807752195934e+01 -1.228539576673e-03 0.0 
-1.228539576673e-03 -1.071919865332e+02 0.0 
0.0 0.0 -4.618085254777e+01 
-5.880158200321e+01 6.134821893550e-01 0.0 
6.134821893550e-01 -1.264203429957e+02 0.0 
0.0 0.0 -5.516657749967e+01 
-5.700939210730e+01 -4.657077656907e-02 0.0 
-4.657077656907e-02 -1.278645308748e+02 0.0 
0.0 0.0 -5.506217689463e+01 
-6.711935777103e+01 6.340526593039e-01 0.0 
6.340526593039e-01 -1.460088415083e+02 0.0 
0.0 0.0 -6.353845978379e+01 
-6.478874148896e+01 -1.543693211350e-01 0.0 
-1.543693211350e-01 -1.462784292504e+02 0.0 
0.0 0.0 -6.292015122180e+01 

TENSORS node_materi_strain_total float
-8.330705045967e-06 1.637188995882e-06 0.0 
1.637188995882e-06 1.067474280708e-04 0.0 
0.0 0.0 0.0 
-1.778358270082e-04 -1.737885591332e-05 0.0 
-1.737885591332e-05 6.156418381569e-03 0.0 
0.0 0.0 0.0 
2.817958599599e-05 3.049508907136e-05 0.0 
3.049508907136e-05 8.242566778961e-03 0.0 
0.0 0.0 0.0 
-1.051678064878e-05 -7.947815328672e-06 0.0 
-7.947815328672e-06 1.010426384426e-02 0.0 
0.0 0.0 0.0 
5.096817295917e-06 -4.539989260943e-06 0.0 
-4.539989260943e-06 3.067473683047e-04 0.0 
0.0 0.0 0.0 
3.760787586800e-05 1.145008100118e-05 0.0 
1.145008100118e-05 7.044337417776e-04 0.0 
0.0 0.0 0.0 
8.357978202741e-05 1.204660515768e-05 0.0 
1.204660515768e-05 1.071922704114e-03 0.0 
0.0 0.0 0.0 
1.231407819182e-04 1.129334098060e-05 0.0 
1.129334098060e-05 1.492014264085e-03 0.0 
0.0 0.0 0.0 
1.610327515384e-04 8.703806562499e-06 0.0 
8.703806562499e-06 1.899188762729e-03 0.0 
0.0 0.0 0.0 
2.013796107290e-04 8.501232003969e-06 0.0 
8.501232003969e-06 2.300595853327e-03 0.0 
0.0 0.0 0.0 
2.356234028871e-04 9.907004466979e-06 0.0 
9.907004466979e-06 2.704992879428e-03 0.0 
0.0 0.0 0.0 
2.636602058067e-04 9.662170160714e-06 0.0 
9.662170160714e-06 3.113474301053e-03 0.0 
0.0 0.0 0.0 
2.867577730573e-04 1.065765048061e-05 0.0 
1.065765048061e-05 3.525964987599e-03 0.0 
0.0 0.0 0.0 
2.999908435655e-04 1.447477695487e-05 0.0 
1.447477695487e-05 3.949166623587e-03 0.0 
0.0 0.0 0.0 
3.024196087618e-04 2.191407134938e-05 0.0 
2.191407134938e-05 4.390643709760e-03 0.0 
0.0 0.0 0.0 
3.082417203611e-04 2.368732733325e-05 0.0 
2.368732733325e-05 4.819480599564e-03 0.0 
0.0 0.0 0.0 
3.069890661380e-04 3.184372846431e-05 0.0 
3.184372846431e-05 5.213932817035e-03 0.0 
0.0 0.0 0.0 
2.886792202494e-04 1.707143445357e-05 0.0 
1.707143445357e-05 5.658393327095e-03 0.0 
0.0 0.0 0.0 
2.629000663176e-04 1.767770433541e-05 0.0 
1.767770433541e-05 6.120059437221e-03 0.0 
0.0 0.0 0.0 
2.288475635812e-04 1.907346523029e-05 0.0 
1.907346523029e-05 6.573929866331e-03 0.0 
0.0 0.0 0.0 
1.840958280359e-04 1.920130682416e-05 0.0 
1.920130682416e-05 7.038729696289e-03 0.0 
0.0 0.0 0.0 
1.288206107380e-04 2.320527133026e-05 0.0 
2.320527133026e-05 7.514134874813e-03 0.0 
0.0 0.0 0.0 
7.615080589699e-05 2.744683001444e-05 0.0 
2.744683001444e-05 7.972226056806e-03 0.0 
0.0 0.0 0.0 
-6.079508614050e-06 1.690006167837e-05 0.0 
1.690006167837e-05 1.012451230602e-02 0.0 
0.0 0.0 0.0 
-9.911635437435e-06 3.216292250707e-05 0.0 
3.216292250707e-05 1.010324968892e-02 0.0 
0.0 0.0 0.0 
-9.537302241328e-06 3.868389894819e-05 0.0 
3.868389894819e-05 1.010755900538e-02 0.0 
0.0 0.0 0.0 
-1.033775292266e-05 6.956776896781e-05 0.0 
6.956776896781e-05 1.010482818849e-02 0.0 
0.0 0.0 0.0 
-1.258979213881e-05 8.012558997801e-05 0.0 
8.012558997801e-05 1.008900390053e-02 0.0 
0.0 0.0 0.0 
-1.046613638330e-05 1.004883479723e-04 0.0 
1.004883479723e-04 1.009788895753e-02 0.0 
0.0 0.0 0.0 
-9.333763014337e-06 1.210398956112e-04 0.0 
1.210398956112e-04 1.009522004501e-02 0.0 
0.0 0.0 0.0 
-1.332136010930e-05 1.412661231755e-04 0.0 
1.412661231755e-04 1.008272750211e-02 0.0 
0.0 0.0 0.0 
-1.243803520778e-05 1.584018102819e-04 0.0 
1.584018102819e-04 1.008861920525e-02 0.0 
0.0 0.0 0.0 
-1.280249813336e-05 1.931230766098e-04 0.0 
1.931230766098e-04 1.007771935277e-02 0.0 
0.0 0.0 0.0 
-1.678481583900e-05 2.127508246575e-04 0.0 
2.127508246575e-04 1.005376375373e-02 0.0 
0.0 0.0 0.0 
-1.570038588753e-05 2.415194078234e-04 0.0 
2.415194078234e-04 1.005089264500e-02 0.0 
0.0 0.0 0.0 
-1.483616367604e-05 2.725382446018e-04 0.0 
2.725382446018e-04 1.003886445275e-02 0.0 
0.0 0.0 0.0 
-1.768041572758e-05 3.030396353036e-04 0.0 
3.030396353036e-04 1.001267098211e-02 0.0 
0.0 0.0 0.0 
-1.842388515860e-05 3.342726041157e-04 0.0 
3.342726041157e-04 9.982863580474e-03 0.0 
0.0 0.0 0.0 
-2.117978356175e-05 3.702720644583e-04 0.0 
3.702720644583e-04 9.942295461820e-03 0.0 
0.0 0.0 0.0 
-2.359231887779e-05 4.036096914928e-04 0.0 
4.036096914928e-04 9.907518015214e-03 0.0 
0.0 0.0 0.0 
-2.138161426860e-05 4.427302393641e-04 0.0 
4.427302393641e-04 9.879730848683e-03 0.0 
0.0 0.0 0.0 
-2.132466981504e-05 4.791751247859e-04 0.0 
4.791751247859e-04 9.844519424445e-03 0.0 
0.0 0.0 0.0 
-1.903252002392e-05 5.164936844013e-04 0.0 
5.164936844013e-04 9.803277838040e-03 0.0 
0.0 0.0 0.0 
-1.748934060549e-05 5.546335496918e-04 0.0 
5.546335496918e-04 9.746385989888e-03 0.0 
0.0 0.0 0.0 
-1.834859750841e-05 5.861076080337e-04 0.0 
5.861076080337e-04 9.682460799220e-03 0.0 
0.0 0.0 0.0 
-1.571594267039e-05 6.176999248573e-04 0.0 
6.176999248573e-04 9.615692478509e-03 0.0 
0.0 0.0 0.0 
-1.386821515055e-05 6.442872046989e-04 0.0 
6.442872046989e-04 9.542565939200e-03 0.0 
0.0 0.0 0.0 
-1.197396229010e-05 6.672308165466e-04 0.0 
6.672308165466e-04 9.469419148060e-03 0.0 
0.0 0.0 0.0 
-7.625491595609e-06 6.858606057037e-04 0.0 
6.858606057037e-04 9.394203282044e-03 0.0 
0.0 0.0 0.0 
-5.322770212220e-06 6.973444517748e-04 0.0 
6.973444517748e-04 9.314602118271e-03 0.0 
0.0 0.0 0.0 
4.477888016681e-07 7.031518472077e-04 0.0 
7.031518472077e-04 9.231327987017e-03 0.0 
0.0 0.0 0.0 
1.524098597994e-06 7.017814913316e-04 0.0 
7.017814913316e-04 9.142823871306e-03 0.0 
0.0 0.0 0.0 
3.223619921740e-06 6.910387058819e-04 0.0 
6.910387058819e-04 9.075551196079e-03 0.0 
0.0 0.0 0.0 
1.016404098930e-05 6.871811277693e-04 0.0 
6.871811277693e-04 8.984413919644e-03 0.0 
0.0 0.0 0.0 
1.284333898958e-05 6.630530029093e-04 0.0 
6.630530029093e-04 8.883444670447e-03 0.0 
0.0 0.0 0.0 
1.566083963800e-05 6.344982286345e-04 0.0 
6.344982286345e-04 8.802421366802e-03 0.0 
0.0 0.0 0.0 
1.699708442970e-05 6.042896498649e-04 0.0 
6.042896498649e-04 8.738920620683e-03 0.0 
0.0 0.0 0.0 
2.078111103998e-05 5.726645639536e-04 0.0 
5.726645639536e-04 8.673608848136e-03 0.0 
0.0 0.0 0.0 
1.708125633996e-05 5.346751854689e-04 0.0 
5.346751854689e-04 8.613184885670e-03 0.0 
0.0 0.0 0.0 
2.443403186255e-05 4.981562256792e-04 0.0 
4.981562256792e-04 8.560067002164e-03 0.0 
0.0 0.0 0.0 
2.035276252377e-05 4.576279919508e-04 0.0 
4.576279919508e-04 8.502741707060e-03 0.0 
0.0 0.0 0.0 
2.659548070993e-05 4.164648294851e-04 0.0 
4.164648294851e-04 8.451262093535e-03 0.0 
0.0 0.0 0.0 
2.208341066975e-05 3.755258156437e-04 0.0 
3.755258156437e-04 8.402648276825e-03 0.0 
0.0 0.0 0.0 
1.877328516827e-05 3.343465437058e-04 0.0 
3.343465437058e-04 8.377240387722e-03 0.0 
0.0 0.0 0.0 
2.206972526086e-05 2.984659898318e-04 0.0 
2.984659898318e-04 8.369381191157e-03 0.0 
0.0 0.0 0.0 
2.564037186385e-05 2.573952882455e-04 0.0 
2.573952882455e-04 8.353456054235e-03 0.0 
0.0 0.0 0.0 
2.628399529070e-05 2.134901436034e-04 0.0 
2.134901436034e-04 8.268485455819e-03 0.0 
0.0 0.0 0.0 
2.463252370573e-05 1.766077273225e-04 0.0 
1.766077273225e-04 8.302838513510e-03 0.0 
0.0 0.0 0.0 
1.885293766746e-05 1.406663704186e-04 0.0 
1.406663704186e-04 8.269944344081e-03 0.0 
0.0 0.0 0.0 
1.690690052699e-05 1.012836326562e-04 0.0 
1.012836326562e-04 8.270320881341e-03 0.0 
0.0 0.0 0.0 
1.897889169356e-05 7.431003848510e-05 0.0 
7.431003848510e-05 8.279532433481e-03 0.0 
0.0 0.0 0.0 
1.807112874001e-05 4.006835019365e-05 0.0 
4.006835019365e-05 8.273561131629e-03 0.0 
0.0 0.0 0.0 
-1.675817965086e-04 -1.165446793834e-05 0.0 
-1.165446793834e-05 6.582632008919e-03 0.0 
0.0 0.0 0.0 
-1.660462671365e-04 -1.256050305811e-05 0.0 
-1.256050305811e-05 7.008286462581e-03 0.0 
0.0 0.0 0.0 
-1.559272505980e-04 -1.161425211367e-05 0.0 
-1.161425211367e-05 7.424994349818e-03 0.0 
0.0 0.0 0.0 
-1.434301225039e-04 -1.173521052662e-05 0.0 
-1.173521052662e-05 7.831207365993e-03 0.0 
0.0 0.0 0.0 
-1.280008143206e-04 -9.424934157506e-06 0.0 
-9.424934157506e-06 8.243554298815e-03 0.0 
0.0 0.0 0.0 
-1.051040091749e-04 -9.799435560762e-06 0.0 
-9.799435560762e-06 8.653072553599e-03 0.0 
0.0 0.0 0.0 
-8.431226470570e-05 -7.918284642727e-06 0.0 
-7.918284642727e-06 9.057415351863e-03 0.0 
0.0 0.0 0.0 
-5.840874807343e-05 -8.684720712143e-06 0.0 
-8.684720712143e-06 9.456495015271e-03 0.0 
0.0 0.0 0.0 
-3.190548815442e-05 -9.755095984836e-06 0.0 
-9.755095984836e-06 9.862858172668e-03 0.0 
0.0 0.0 0.0 
-3.666043446826e-04 2.664861850764e-04 0.0 
2.664861850764e-04 3.198334226509e-04 0.0 
0.0 0.0 0.0 
-2.951307456335e-04 5.520914055813e-05 0.0 
5.520914055813e-05 6.170325609876e-03 0.0 
0.0 0.0 0.0 
-3.234031991197e-04 6.259326088871e-04 0.0 
6.259326088871e-04 1.158618860482e-03 0.0 
0.0 0.0 0.0 
-1.863344596594e-04 4.741911723470e-04 0.0 
4.741911723470e-04 2.477035776664e-03 0.0 
0.0 0.0 0.0 
-1.273860609353e-04 2.253849264220e-04 0.0 
2.253849264220e-04 3.048802736776e-03 0.0 
0.0 0.0 0.0 
-1.907528295794e-04 1.579845444639e-04 0.0 
1.579845444639e-04 3.499540084285e-03 0.0 
0.0 0.0 0.0 
-2.382153398228e-04 1.198623141422e-04 0.0 
1.198623141422e-04 3.948870966292e-03 0.0 
0.0 0.0 0.0 
-2.664530371245e-04 8.856676605125e-05 0.0 
8.856676605125e-05 4.394411640474e-03 0.0 
0.0 0.0 0.0 
-2.874492032829e-04 6.832366980084e-05 0.0 
6.832366980084e-05 4.837994861021e-03 0.0 
0.0 0.0 0.0 
-2.970942117571e-04 5.600823140439e-05 0.0 
5.600823140439e-05 5.277884699490e-03 0.0 
0.0 0.0 0.0 
-2.970514429910e-04 5.252945128150e-05 0.0 
5.252945128150e-05 5.713944331662e-03 0.0 
0.0 0.0 0.0 
-1.878407364300e-04 -2.332986760768e-05 0.0 
-2.332986760768e-05 2.893119929870e-03 0.0 
0.0 0.0 0.0 
-1.661657507836e-04 -2.281850397012e-05 0.0 
-2.281850397012e-05 3.146382012428e-03 0.0 
0.0 0.0 0.0 
-1.568007139504e-04 -3.315388032062e-05 0.0 
-3.315388032062e-05 3.567981891476e-03 0.0 
0.0 0.0 0.0 
-1.583359113394e-04 -2.720090380962e-05 0.0 
-2.720090380962e-05 3.997130262588e-03 0.0 
0.0 0.0 0.0 
-1.620638452783e-04 -3.323838800516e-05 0.0 
-3.323838800516e-05 4.427329621744e-03 0.0 
0.0 0.0 0.0 
-1.663341858821e-04 -2.696715768069e-05 0.0 
-2.696715768069e-05 4.857601800471e-03 0.0 
0.0 0.0 0.0 
-1.695089633498e-04 -3.191264538132e-05 0.0 
-3.191264538132e-05 5.286498503943e-03 0.0 
0.0 0.0 0.0 
-1.703738917722e-04 -2.244810035905e-05 0.0 
-2.244810035905e-05 5.711507823482e-03 0.0 
0.0 0.0 0.0 
-1.724299478780e-04 7.943467018225e-06 0.0 
7.943467018225e-06 6.097579887864e-03 0.0 
0.0 0.0 0.0 
-1.716925911208e-04 -1.841669142152e-07 0.0 
-1.841669142152e-07 6.123643173384e-03 0.0 
0.0 0.0 0.0 
-1.763964217936e-04 -4.562705033499e-07 0.0 
-4.562705033499e-07 6.126767172097e-03 0.0 
0.0 0.0 0.0 
-1.797670540846e-04 -2.332144264688e-06 0.0 
-2.332144264688e-06 6.122822480623e-03 0.0 
0.0 0.0 0.0 
-1.820825065126e-04 8.504288173615e-07 0.0 
8.504288173615e-07 6.181068853266e-03 0.0 
0.0 0.0 0.0 
-1.893694542300e-04 3.641549766081e-07 0.0 
3.641549766081e-07 6.133373453862e-03 0.0 
0.0 0.0 0.0 
-1.941606827342e-04 -6.706570499533e-07 0.0 
-6.706570499533e-07 6.130214576571e-03 0.0 
0.0 0.0 0.0 
-2.021953280913e-04 3.489062379076e-06 0.0 
3.489062379076e-06 6.136638205465e-03 0.0 
0.0 0.0 0.0 
-2.149469967684e-04 4.521799013009e-06 0.0 
4.521799013009e-06 6.149315974261e-03 0.0 
0.0 0.0 0.0 
-2.261665415471e-04 9.282074680653e-06 0.0 
9.282074680653e-06 6.149284053954e-03 0.0 
0.0 0.0 0.0 
-2.351500507507e-04 1.337865142918e-05 0.0 
1.337865142918e-05 6.148037752609e-03 0.0 
0.0 0.0 0.0 
-2.484309112785e-04 1.926064379606e-05 0.0 
1.926064379606e-05 6.147407057408e-03 0.0 
0.0 0.0 0.0 
-2.601971490624e-04 3.008514088937e-05 0.0 
3.008514088937e-05 6.147509178190e-03 0.0 
0.0 0.0 0.0 
-2.747420068796e-04 4.284283753693e-05 0.0 
4.284283753693e-05 6.152873136913e-03 0.0 
0.0 0.0 0.0 
-4.277462000199e-04 6.747924378208e-05 0.0 
6.747924378208e-05 3.170263373828e-04 0.0 
0.0 0.0 0.0 
-4.800466597940e-04 -2.269337826677e-06 0.0 
-2.269337826677e-06 3.188535155529e-04 0.0 
0.0 0.0 0.0 
-4.676151498016e-04 -3.020616200595e-05 0.0 
-3.020616200595e-05 2.995911423143e-04 0.0 
0.0 0.0 0.0 
-4.205854841688e-04 -3.671363541211e-05 0.0 
-3.671363541211e-05 2.772337216361e-04 0.0 
0.0 0.0 0.0 
-3.692308051424e-04 -3.973383075442e-05 0.0 
-3.973383075442e-05 2.654216499983e-04 0.0 
0.0 0.0 0.0 
-3.311906019460e-04 -3.275788880551e-05 0.0 
-3.275788880551e-05 2.563377532666e-04 0.0 
0.0 0.0 0.0 
-2.897445594472e-04 -2.832522123995e-05 0.0 
-2.832522123995e-05 2.403829980264e-04 0.0 
0.0 0.0 0.0 
-2.482245183931e-04 -2.579010928003e-05 0.0 
-2.579010928003e-05 2.219432620379e-04 0.0 
0.0 0.0 0.0 
-2.103943421761e-04 -2.508535903224e-05 0.0 
-2.508535903224e-05 2.059477162032e-04 0.0 
0.0 0.0 0.0 
-1.745596973478e-04 -2.405853636994e-05 0.0 
-2.405853636994e-05 1.903658790773e-04 0.0 
0.0 0.0 0.0 
-1.403664911354e-04 -2.161471609960e-05 0.0 
-2.161471609960e-05 1.798863939161e-04 0.0 
0.0 0.0 0.0 
-1.283943789897e-04 -1.794320995490e-05 0.0 
-1.794320995490e-05 1.781281615259e-04 0.0 
0.0 0.0 0.0 
-9.490026342899e-05 -1.121867780830e-05 0.0 
-1.121867780830e-05 1.599788940114e-04 0.0 
0.0 0.0 0.0 
-5.858977105178e-05 -1.448854786008e-05 0.0 
-1.448854786008e-05 1.381459315043e-04 0.0 
0.0 0.0 0.0 
-3.909187898854e-05 -1.617736237570e-05 0.0 
-1.617736237570e-05 1.298806352961e-04 0.0 
0.0 0.0 0.0 
-3.207287052135e-05 -1.079236848585e-05 0.0 
-1.079236848585e-05 1.291852864154e-04 0.0 
0.0 0.0 0.0 
-2.251859509994e-05 -3.739170379884e-06 0.0 
-3.739170379884e-06 1.249073636247e-04 0.0 
0.0 0.0 0.0 
-4.747338379444e-06 4.484721941205e-06 0.0 
4.484721941205e-06 1.093001607619e-04 0.0 
0.0 0.0 0.0 
-3.371173632842e-08 7.744793212346e-06 0.0 
7.744793212346e-06 9.766514009220e-05 0.0 
0.0 0.0 0.0 
5.085092237045e-05 9.442880319747e-05 0.0 
9.442880319747e-05 2.702420479200e-03 0.0 
0.0 0.0 0.0 
1.424270701794e-04 4.649998406179e-05 0.0 
4.649998406179e-05 2.767112130482e-03 0.0 
0.0 0.0 0.0 
1.592680797478e-04 2.150739374343e-05 0.0 
2.150739374343e-05 2.786953274429e-03 0.0 
0.0 0.0 0.0 
1.616918922790e-04 -9.795702102723e-06 0.0 
-9.795702102723e-06 2.787358246548e-03 0.0 
0.0 0.0 0.0 
1.593728645960e-04 -1.630668099178e-05 0.0 
-1.630668099178e-05 2.795634983729e-03 0.0 
0.0 0.0 0.0 
1.434693405022e-04 -2.244254300137e-05 0.0 
-2.244254300137e-05 2.801712489549e-03 0.0 
0.0 0.0 0.0 
1.234415253023e-04 -2.293841628522e-05 0.0 
-2.293841628522e-05 2.811035267941e-03 0.0 
0.0 0.0 0.0 
9.943092032009e-05 -2.347573434495e-05 0.0 
-2.347573434495e-05 2.820323873912e-03 0.0 
0.0 0.0 0.0 
7.447815815594e-05 -2.257814104909e-05 0.0 
-2.257814104909e-05 2.830624560235e-03 0.0 
0.0 0.0 0.0 
4.928951272147e-05 -2.161274140261e-05 0.0 
-2.161274140261e-05 2.840743728079e-03 0.0 
0.0 0.0 0.0 
2.489595958840e-05 -2.036370293476e-05 0.0 
-2.036370293476e-05 2.850682532729e-03 0.0 
0.0 0.0 0.0 
1.680920509080e-06 -1.915518718919e-05 0.0 
-1.915518718919e-05 2.860138716005e-03 0.0 
0.0 0.0 0.0 
-1.997775294867e-05 -1.792962103682e-05 0.0 
-1.792962103682e-05 2.869050883046e-03 0.0 
0.0 0.0 0.0 
-3.991601837102e-05 -1.673805502702e-05 0.0 
-1.673805502702e-05 2.877308226999e-03 0.0 
0.0 0.0 0.0 
-5.802910201080e-05 -1.554555228952e-05 0.0 
-1.554555228952e-05 2.884879664285e-03 0.0 
0.0 0.0 0.0 
-7.430080230464e-05 -1.434573181507e-05 0.0 
-1.434573181507e-05 2.891731937081e-03 0.0 
0.0 0.0 0.0 
-8.875987344063e-05 -1.313715966580e-05 0.0 
-1.313715966580e-05 2.897835796244e-03 0.0 
0.0 0.0 0.0 
-1.014611118266e-04 -1.193908464310e-05 0.0 
-1.193908464310e-05 2.903164158276e-03 0.0 
0.0 0.0 0.0 
-1.124429126238e-04 -1.077114072505e-05 0.0 
-1.077114072505e-05 2.907698132802e-03 0.0 
0.0 0.0 0.0 
-1.216952597908e-04 -9.640934138658e-06 0.0 
-9.640934138658e-06 2.911406086164e-03 0.0 
0.0 0.0 0.0 
-1.291195293501e-04 -8.513911516408e-06 0.0 
-8.513911516408e-06 2.914222403274e-03 0.0 
0.0 0.0 0.0 
-1.344754172891e-04 -7.249010777005e-06 0.0 
-7.249010777005e-06 2.916032054300e-03 0.0 
0.0 0.0 0.0 
-1.373137393326e-04 -5.444930129721e-06 0.0 
-5.444930129721e-06 2.916685394486e-03 0.0 
0.0 0.0 0.0 
-1.369789756110e-04 -1.824078058959e-06 0.0 
-1.824078058959e-06 2.916271174095e-03 0.0 
0.0 0.0 0.0 
-1.349834205886e-04 9.794957169423e-06 0.0 
9.794957169423e-06 2.918288246110e-03 0.0 
0.0 0.0 0.0 
-1.716636446787e-04 2.643774772233e-05 0.0 
2.643774772233e-05 2.932574041611e-03 0.0 
0.0 0.0 0.0 
-9.929586720655e-06 8.891619999599e-05 0.0 
8.891619999599e-05 2.989474229160e-03 0.0 
0.0 0.0 0.0 
-1.779997574717e-06 4.821690523159e-05 0.0 
4.821690523159e-05 3.068386421930e-03 0.0 
0.0 0.0 0.0 
3.135484087663e-05 1.137161266406e-05 0.0 
1.137161266406e-05 3.049002541338e-03 0.0 
0.0 0.0 0.0 
3.742181657886e-05 -9.379617711708e-06 0.0 
-9.379617711708e-06 3.050898252523e-03 0.0 
0.0 0.0 0.0 
3.821813923577e-05 -1.866333048234e-05 0.0 
-1.866333048234e-05 3.055309140778e-03 0.0 
0.0 0.0 0.0 
3.092203865668e-05 -2.461873671574e-05 0.0 
-2.461873671574e-05 3.059264029213e-03 0.0 
0.0 0.0 0.0 
1.974442496531e-05 -2.728908537586e-05 0.0 
-2.728908537586e-05 3.065342219904e-03 0.0 
0.0 0.0 0.0 
5.661130126844e-06 -2.834033845891e-05 0.0 
-2.834033845891e-05 3.071745068297e-03 0.0 
0.0 0.0 0.0 
-9.539027757244e-06 -2.824740101080e-05 0.0 
-2.824740101080e-05 3.078581974186e-03 0.0 
0.0 0.0 0.0 
-2.527648407461e-05 -2.755622372009e-05 0.0 
-2.755622372009e-05 3.085411073808e-03 0.0 
0.0 0.0 0.0 
-4.080175289141e-05 -2.645716476737e-05 0.0 
-2.645716476737e-05 3.092148550704e-03 0.0 
0.0 0.0 0.0 
-5.577087151208e-05 -2.511906330429e-05 0.0 
-2.511906330429e-05 3.098613709852e-03 0.0 
0.0 0.0 0.0 
-6.987617109664e-05 -2.361146113413e-05 0.0 
-2.361146113413e-05 3.104729167661e-03 0.0 
0.0 0.0 0.0 
-8.294126150143e-05 -2.197691734668e-05 0.0 
-2.197691734668e-05 3.110408750528e-03 0.0 
0.0 0.0 0.0 
-9.483149173624e-05 -2.024982988584e-05 0.0 
-2.024982988584e-05 3.115574030319e-03 0.0 
0.0 0.0 0.0 
-1.054852657903e-04 -1.847426994216e-05 0.0 
-1.847426994216e-05 3.120157726366e-03 0.0 
0.0 0.0 0.0 
-1.148744538385e-04 -1.668136358917e-05 0.0 
-1.668136358917e-05 3.124119679297e-03 0.0 
0.0 0.0 0.0 
-1.229750601083e-04 -1.487877903515e-05 0.0 
-1.487877903515e-05 3.127431331800e-03 0.0 
0.0 0.0 0.0 
-1.297500192623e-04 -1.303589763168e-05 0.0 
-1.303589763168e-05 3.130065705374e-03 0.0 
0.0 0.0 0.0 
-1.351415658103e-04 -1.105239511367e-05 0.0 
-1.105239511367e-05 3.132000253821e-03 0.0 
0.0 0.0 0.0 
-1.390907502054e-04 -8.696759117037e-06 0.0 
-8.696759117037e-06 3.133246062158e-03 0.0 
0.0 0.0 0.0 
-1.416181542625e-04 -5.522187953781e-06 0.0 
-5.522187953781e-06 3.133945788984e-03 0.0 
0.0 0.0 0.0 
-1.432891898291e-04 -8.832114768031e-07 0.0 
-8.832114768031e-07 3.134911074465e-03 0.0 
0.0 0.0 0.0 
-1.479548524792e-04 5.115853041495e-06 0.0 
5.115853041495e-06 3.139890840042e-03 0.0 
0.0 0.0 0.0 
-1.624835749855e-04 2.284410112302e-05 0.0 
2.284410112302e-05 3.145584877237e-03 0.0 
0.0 0.0 0.0 
-1.571704139156e-04 8.702680723020e-06 0.0 
8.702680723020e-06 3.569462095839e-03 0.0 
0.0 0.0 0.0 
-1.533261635887e-04 -1.940315477720e-06 0.0 
-1.940315477720e-06 3.568521186126e-03 0.0 
0.0 0.0 0.0 
-1.501377418918e-04 -7.808828071986e-06 0.0 
-7.808828071986e-06 3.566352552923e-03 0.0 
0.0 0.0 0.0 
-1.475537646151e-04 -1.183684907392e-05 0.0 
-1.183684907392e-05 3.564805533372e-03 0.0 
0.0 0.0 0.0 
-1.449347355879e-04 -1.567330779084e-05 0.0 
-1.567330779084e-05 3.563631404940e-03 0.0 
0.0 0.0 0.0 
-1.418625888229e-04 -1.933039917655e-05 0.0 
-1.933039917655e-05 3.562436660358e-03 0.0 
0.0 0.0 0.0 
-1.381280948361e-04 -2.287797782514e-05 0.0 
-2.287797782514e-05 3.560979834464e-03 0.0 
0.0 0.0 0.0 
-1.336552308700e-04 -2.636116364395e-05 0.0 
-2.636116364395e-05 3.559154500996e-03 0.0 
0.0 0.0 0.0 
-1.284641002167e-04 -2.979767565926e-05 0.0 
-2.979767565926e-05 3.556942849276e-03 0.0 
0.0 0.0 0.0 
-1.226096895900e-04 -3.317336867193e-05 0.0 
-3.317336867193e-05 3.554359164451e-03 0.0 
0.0 0.0 0.0 
-1.161755372001e-04 -3.643776568799e-05 0.0 
-3.643776568799e-05 3.551442019949e-03 0.0 
0.0 0.0 0.0 
-1.092731673565e-04 -3.948240286083e-05 0.0 
-3.948240286083e-05 3.548246183555e-03 0.0 
0.0 0.0 0.0 
-1.021129242632e-04 -4.212714154956e-05 0.0 
-4.212714154956e-05 3.544912835116e-03 0.0 
0.0 0.0 0.0 
-9.501921684470e-05 -4.423521501511e-05 0.0 
-4.423521501511e-05 3.541568053384e-03 0.0 
0.0 0.0 0.0 
-8.835008514409e-05 -4.554112526715e-05 0.0 
-4.554112526715e-05 3.538369745420e-03 0.0 
0.0 0.0 0.0 
-8.252954963480e-05 -4.582533154966e-05 0.0 
-4.582533154966e-05 3.535264274945e-03 0.0 
0.0 0.0 0.0 
-7.812468321468e-05 -4.428108724130e-05 0.0 
-4.428108724130e-05 3.532647814939e-03 0.0 
0.0 0.0 0.0 
-7.607256245542e-05 -4.065177517727e-05 0.0 
-4.065177517727e-05 3.530085743737e-03 0.0 
0.0 0.0 0.0 
-7.712849102104e-05 -3.275615901488e-05 0.0 
-3.275615901488e-05 3.528727663901e-03 0.0 
0.0 0.0 0.0 
-8.333607516988e-05 -2.037429837984e-05 0.0 
-2.037429837984e-05 3.526253486407e-03 0.0 
0.0 0.0 0.0 
-9.338518640706e-05 2.959298519604e-06 0.0 
2.959298519604e-06 3.526600973025e-03 0.0 
0.0 0.0 0.0 
-1.188111925740e-04 3.862311835263e-05 0.0 
3.862311835263e-05 3.543559322923e-03 0.0 
0.0 0.0 0.0 
-1.224036658795e-04 7.619145945366e-05 0.0 
7.619145945366e-05 3.461608600043e-03 0.0 
0.0 0.0 0.0 
-1.899177204301e-04 6.139690484355e-05 0.0 
6.139690484355e-05 3.915335181591e-03 0.0 
0.0 0.0 0.0 
-1.880036826419e-04 2.881991522460e-05 0.0 
2.881991522460e-05 3.997385081954e-03 0.0 
0.0 0.0 0.0 
-1.693271265493e-04 -1.690642941290e-06 0.0 
-1.690642941290e-06 3.983556234269e-03 0.0 
0.0 0.0 0.0 
-1.589722220523e-04 -2.182510009649e-05 0.0 
-2.182510009649e-05 3.983983101404e-03 0.0 
0.0 0.0 0.0 
-1.498892015570e-04 -3.294572958463e-05 0.0 
-3.294572958463e-05 3.985995935660e-03 0.0 
0.0 0.0 0.0 
-1.445008746160e-04 -4.023893554743e-05 0.0 
-4.023893554743e-05 3.985937960068e-03 0.0 
0.0 0.0 0.0 
-1.410541436594e-04 -4.386706828230e-05 0.0 
-4.386706828230e-05 3.986791501042e-03 0.0 
0.0 0.0 0.0 
-1.395956752301e-04 -4.538407405027e-05 0.0 
-4.538407405027e-05 3.987348026950e-03 0.0 
0.0 0.0 0.0 
-1.394767922312e-04 -4.525417411262e-05 0.0 
-4.525417411262e-05 3.988353485463e-03 0.0 
0.0 0.0 0.0 
-1.405084860772e-04 -4.392346206366e-05 0.0 
-4.392346206366e-05 3.989565745982e-03 0.0 
0.0 0.0 0.0 
-1.421078763547e-04 -4.158416902074e-05 0.0 
-4.158416902074e-05 3.990885574352e-03 0.0 
0.0 0.0 0.0 
-1.439342089891e-04 -3.861099703294e-05 0.0 
-3.861099703294e-05 3.992056731700e-03 0.0 
0.0 0.0 0.0 
-1.458552627511e-04 -3.528168529175e-05 0.0 
-3.528168529175e-05 3.993099739240e-03 0.0 
0.0 0.0 0.0 
-1.477724054976e-04 -3.170878589984e-05 0.0 
-3.170878589984e-05 3.994008817653e-03 0.0 
0.0 0.0 0.0 
-1.495717188783e-04 -2.795496032958e-05 0.0 
-2.795496032958e-05 3.994750573664e-03 0.0 
0.0 0.0 0.0 
-1.511554271258e-04 -2.406021561938e-05 0.0 
-2.406021561938e-05 3.995310138444e-03 0.0 
0.0 0.0 0.0 
-1.525310524703e-04 -2.011933447516e-05 0.0 
-2.011933447516e-05 3.995751250879e-03 0.0 
0.0 0.0 0.0 
-1.538485455171e-04 -1.620903547873e-05 0.0 
-1.620903547873e-05 3.996269687336e-03 0.0 
0.0 0.0 0.0 
-1.552924273038e-04 -1.247003406783e-05 0.0 
-1.247003406783e-05 3.997062203701e-03 0.0 
0.0 0.0 0.0 
-1.569878021475e-04 -9.290722790095e-06 0.0 
-9.290722790095e-06 3.998106653114e-03 0.0 
0.0 0.0 0.0 
-1.584566812748e-04 -7.690599070367e-06 0.0 
-7.690599070367e-06 3.998453768551e-03 0.0 
0.0 0.0 0.0 
-1.584457410480e-04 1.306224971982e-05 0.0 
1.306224971982e-05 3.997595906697e-03 0.0 
0.0 0.0 0.0 
-1.623759977218e-04 6.813702841735e-06 0.0 
6.813702841735e-06 4.427765973570e-03 0.0 
0.0 0.0 0.0 
-1.624285045835e-04 -6.457140263456e-06 0.0 
-6.457140263456e-06 4.428103730142e-03 0.0 
0.0 0.0 0.0 
-1.620893027342e-04 -1.227185314874e-05 0.0 
-1.227185314874e-05 4.428039869207e-03 0.0 
0.0 0.0 0.0 
-1.619408260692e-04 -1.577814636906e-05 0.0 
-1.577814636906e-05 4.428007627965e-03 0.0 
0.0 0.0 0.0 
-1.620877721060e-04 -1.952753883438e-05 0.0 
-1.952753883438e-05 4.428177691841e-03 0.0 
0.0 0.0 0.0 
-1.625780687173e-04 -2.346147932739e-05 0.0 
-2.346147932739e-05 4.428558811212e-03 0.0 
0.0 0.0 0.0 
-1.633250923736e-04 -2.751447912264e-05 0.0 
-2.751447912264e-05 4.429000723575e-03 0.0 
0.0 0.0 0.0 
-1.642091708217e-04 -3.145567871777e-05 0.0 
-3.145567871777e-05 4.429309689793e-03 0.0 
0.0 0.0 0.0 
-1.653103947392e-04 -3.505679961884e-05 0.0 
-3.505679961884e-05 4.429577330975e-03 0.0 
0.0 0.0 0.0 
-1.669291459620e-04 -3.823357892977e-05 0.0 
-3.823357892977e-05 4.429923610352e-03 0.0 
0.0 0.0 0.0 
-1.690813811449e-04 -4.094597847579e-05 0.0 
-4.094597847579e-05 4.430283754864e-03 0.0 
0.0 0.0 0.0 
-1.717633473533e-04 -4.294369494973e-05 0.0 
-4.294369494973e-05 4.430486695808e-03 0.0 
0.0 0.0 0.0 
-1.751028165079e-04 -4.364255251492e-05 0.0 
-4.364255251492e-05 4.430360665815e-03 0.0 
0.0 0.0 0.0 
-1.796782807355e-04 -4.225228145295e-05 0.0 
-4.225228145295e-05 4.430667735772e-03 0.0 
0.0 0.0 0.0 
-1.862287197215e-04 -3.907819827707e-05 0.0 
-3.907819827707e-05 4.431062028471e-03 0.0 
0.0 0.0 0.0 
-1.945547022174e-04 -3.273267284018e-05 0.0 
-3.273267284018e-05 4.432100715718e-03 0.0 
0.0 0.0 0.0 
-2.050711107627e-04 -2.381169934635e-05 0.0 
-2.381169934635e-05 4.430786091395e-03 0.0 
0.0 0.0 0.0 
-2.151479399563e-04 -6.625805408934e-06 0.0 
-6.625805408934e-06 4.429973067009e-03 0.0 
0.0 0.0 0.0 
-2.322734389022e-04 1.723253933291e-05 0.0 
1.723253933291e-05 4.445526213165e-03 0.0 
0.0 0.0 0.0 
-2.325733581229e-04 4.176730585707e-05 0.0 
4.176730585707e-05 4.361047951668e-03 0.0 
0.0 0.0 0.0 
-2.570820723980e-04 3.364423019536e-05 0.0 
3.364423019536e-05 4.800482916099e-03 0.0 
0.0 0.0 0.0 
-2.580626279923e-04 1.405418919427e-05 0.0 
1.405418919427e-05 4.886136199975e-03 0.0 
0.0 0.0 0.0 
-2.434827394370e-04 -3.181571231039e-06 0.0 
-3.181571231039e-06 4.871571475343e-03 0.0 
0.0 0.0 0.0 
-2.322877176823e-04 -1.617838332274e-05 0.0 
-1.617838332274e-05 4.870598068599e-03 0.0 
0.0 0.0 0.0 
-2.200073668487e-04 -2.380218349852e-05 0.0 
-2.380218349852e-05 4.870662722529e-03 0.0 
0.0 0.0 0.0 
-2.107921287705e-04 -2.967030124119e-05 0.0 
-2.967030124119e-05 4.869409040127e-03 0.0 
0.0 0.0 0.0 
-2.030752027328e-04 -3.223551911318e-05 0.0 
-3.223551911318e-05 4.869448494577e-03 0.0 
0.0 0.0 0.0 
-1.961981425057e-04 -3.259833482390e-05 0.0 
-3.259833482390e-05 4.868484518788e-03 0.0 
0.0 0.0 0.0 
-1.901898348472e-04 -3.170700619758e-05 0.0 
-3.170700619758e-05 4.867082338171e-03 0.0 
0.0 0.0 0.0 
-1.848203130244e-04 -3.015618493167e-05 0.0 
-3.015618493167e-05 4.865466109562e-03 0.0 
0.0 0.0 0.0 
-1.805502047041e-04 -2.818341037492e-05 0.0 
-2.818341037492e-05 4.864264832553e-03 0.0 
0.0 0.0 0.0 
-1.772433360210e-04 -2.534766964962e-05 0.0 
-2.534766964962e-05 4.863281219419e-03 0.0 
0.0 0.0 0.0 
-1.740293493379e-04 -2.208432743539e-05 0.0 
-2.208432743539e-05 4.861921380545e-03 0.0 
0.0 0.0 0.0 
-1.714761126657e-04 -1.891604571656e-05 0.0 
-1.891604571656e-05 4.860599738568e-03 0.0 
0.0 0.0 0.0 
-1.694996831312e-04 -1.586505026744e-05 0.0 
-1.586505026744e-05 4.859587127430e-03 0.0 
0.0 0.0 0.0 
-1.681643594003e-04 -1.290515388300e-05 0.0 
-1.290515388300e-05 4.858829882901e-03 0.0 
0.0 0.0 0.0 
-1.671881214731e-04 -1.033091132256e-05 0.0 
-1.033091132256e-05 4.858314129108e-03 0.0 
0.0 0.0 0.0 
-1.668473536930e-04 -8.298188340687e-06 0.0 
-8.298188340687e-06 4.858176240473e-03 0.0 
0.0 0.0 0.0 
-1.665894232268e-04 1.306097407694e-05 0.0 
1.306097407694e-05 4.857948963811e-03 0.0 
0.0 0.0 0.0 
-1.707563561845e-04 7.876010620096e-06 0.0 
7.876010620096e-06 5.288036981164e-03 0.0 
0.0 0.0 0.0 
-1.704823347033e-04 -5.453993189807e-06 0.0 
-5.453993189807e-06 5.287402881354e-03 0.0 
0.0 0.0 0.0 
-1.717958238206e-04 -9.714426202009e-06 0.0 
-9.714426202009e-06 5.287941479997e-03 0.0 
0.0 0.0 0.0 
-1.741764043039e-04 -1.210511895674e-05 0.0 
-1.210511895674e-05 5.289384465230e-03 0.0 
0.0 0.0 0.0 
-1.766324409488e-04 -1.412862017522e-05 0.0 
-1.412862017522e-05 5.290607989931e-03 0.0 
0.0 0.0 0.0 
-1.805758711268e-04 -1.627152514926e-05 0.0 
-1.627152514926e-05 5.292580083160e-03 0.0 
0.0 0.0 0.0 
-1.851039506033e-04 -1.822830984663e-05 0.0 
-1.822830984663e-05 5.294816906744e-03 0.0 
0.0 0.0 0.0 
-1.906384377685e-04 -2.082075641341e-05 0.0 
-2.082075641341e-05 5.296699317405e-03 0.0 
0.0 0.0 0.0 
-1.962132194418e-04 -2.166842379340e-05 0.0 
-2.166842379340e-05 5.297683068724e-03 0.0 
0.0 0.0 0.0 
-2.039620355260e-04 -2.158239192363e-05 0.0 
-2.158239192363e-05 5.300306438735e-03 0.0 
0.0 0.0 0.0 
-2.125202829255e-04 -2.144360679065e-05 0.0 
-2.144360679065e-05 5.302670735326e-03 0.0 
0.0 0.0 0.0 
-2.216191979484e-04 -1.975709659503e-05 0.0 
-1.975709659503e-05 5.304024048770e-03 0.0 
0.0 0.0 0.0 
-2.323806183699e-04 -1.625418578557e-05 0.0 
-1.625418578557e-05 5.305210320862e-03 0.0 
0.0 0.0 0.0 
-2.435413824811e-04 -9.966490832738e-06 0.0 
-9.966490832738e-06 5.303314000999e-03 0.0 
0.0 0.0 0.0 
-2.549102482652e-04 2.862488505898e-06 0.0 
2.862488505898e-06 5.304820685251e-03 0.0 
0.0 0.0 0.0 
-2.704084722860e-04 1.573737808221e-05 0.0 
1.573737808221e-05 5.323944551246e-03 0.0 
0.0 0.0 0.0 
-2.705558296405e-04 2.953072736233e-05 0.0 
2.953072736233e-05 5.240044108543e-03 0.0 
0.0 0.0 0.0 
-2.723211485641e-04 3.422946493327e-05 0.0 
3.422946493327e-05 5.671833600822e-03 0.0 
0.0 0.0 0.0 
-2.733956104044e-04 2.226854848186e-05 0.0 
2.226854848186e-05 5.753530799885e-03 0.0 
0.0 0.0 0.0 
-2.593810517666e-04 1.141653082241e-05 0.0 
1.141653082241e-05 5.736817103264e-03 0.0 
0.0 0.0 0.0 
-2.447674371762e-04 3.683856747528e-06 0.0 
3.683856747528e-06 5.735238267913e-03 0.0 
0.0 0.0 0.0 
-2.333307376470e-04 -2.633668900397e-06 0.0 
-2.633668900397e-06 5.734871084472e-03 0.0 
0.0 0.0 0.0 
-2.227445716435e-04 -5.402690907805e-06 0.0 
-5.402690907805e-06 5.733551130513e-03 0.0 
0.0 0.0 0.0 
-2.128710875662e-04 -7.145344727087e-06 0.0 
-7.145344727087e-06 5.729886576210e-03 0.0 
0.0 0.0 0.0 
-2.043406132732e-04 -9.748208086218e-06 0.0 
-9.748208086218e-06 5.727660029076e-03 0.0 
0.0 0.0 0.0 
-1.953270561681e-04 -8.907085542605e-06 0.0 
-8.907085542605e-06 5.726295105975e-03 0.0 
0.0 0.0 0.0 
-1.897485739314e-04 -9.311396654876e-06 0.0 
-9.311396654876e-06 5.723247335884e-03 0.0 
0.0 0.0 0.0 
-1.840199987225e-04 -8.139232346516e-06 0.0 
-8.139232346516e-06 5.720830632652e-03 0.0 
0.0 0.0 0.0 
-1.795764617034e-04 -8.633101410815e-06 0.0 
-8.633101410815e-06 5.718593756520e-03 0.0 
0.0 0.0 0.0 
-1.768902376035e-04 -6.716454663978e-06 0.0 
-6.716454663978e-06 5.717874561540e-03 0.0 
0.0 0.0 0.0 
-1.736405494108e-04 -6.229424052132e-06 0.0 
-6.229424052132e-06 5.715059956792e-03 0.0 
0.0 0.0 0.0 
-1.726577440510e-04 -8.273885269327e-06 0.0 
-8.273885269327e-06 5.717245784798e-03 0.0 
0.0 0.0 0.0 
-1.748324324052e-04 1.570492603037e-05 0.0 
1.570492603037e-05 5.719619046181e-03 0.0 
0.0 0.0 0.0 
-3.574766106866e-04 5.006858481224e-04 0.0 
5.006858481224e-04 6.252426318712e-04 0.0 
0.0 0.0 0.0 
-2.804405171543e-04 6.533871205811e-04 0.0 
6.533871205811e-04 1.786774884039e-03 0.0 
0.0 0.0 0.0 
-1.513398936932e-04 2.903087673657e-04 0.0 
2.903087673657e-04 2.857067575635e-03 0.0 
0.0 0.0 0.0 
-1.780178223265e-04 1.998090461926e-04 0.0 
1.998090461926e-04 3.328568996935e-03 0.0 
0.0 0.0 0.0 
-2.216973998275e-04 1.477913424625e-04 0.0 
1.477913424625e-04 3.766736658732e-03 0.0 
0.0 0.0 0.0 
-2.527685609420e-04 1.124902513340e-04 0.0 
1.124902513340e-04 4.215915661895e-03 0.0 
0.0 0.0 0.0 
-2.813584181685e-04 8.450417293794e-05 0.0 
8.450417293794e-05 4.659630074710e-03 0.0 
0.0 0.0 0.0 
-2.928663894187e-04 6.867315270086e-05 0.0 
6.867315270086e-05 5.099836266548e-03 0.0 
0.0 0.0 0.0 
-2.962189056614e-04 6.035085283351e-05 0.0 
6.035085283351e-05 5.536417067748e-03 0.0 
0.0 0.0 0.0 
-2.898788422862e-04 6.057125145916e-05 0.0 
6.057125145916e-05 5.971667004696e-03 0.0 
0.0 0.0 0.0 
-1.827108139812e-04 6.733107969008e-04 0.0 
6.733107969008e-04 2.146228019594e-03 0.0 
0.0 0.0 0.0 
4.959880585942e-05 6.048642775325e-04 0.0 
6.048642775325e-04 8.573963351791e-03 0.0 
0.0 0.0 0.0 
-1.412215302320e-04 -4.145279858345e-05 0.0 
-4.145279858345e-05 3.137459226967e-04 0.0 
0.0 0.0 0.0 
-2.703727225206e-04 -4.564505358748e-05 0.0 
-4.564505358748e-05 3.557461673549e-04 0.0 
0.0 0.0 0.0 
6.700219206549e-05 4.320182962507e-04 0.0 
4.320182962507e-04 8.277782424912e-03 0.0 
0.0 0.0 0.0 
-2.861915975606e-04 2.949964708943e-04 0.0 
2.949964708943e-04 3.659643879594e-03 0.0 
0.0 0.0 0.0 
3.038782461860e-04 2.426861351152e-06 0.0 
2.426861351152e-06 4.184885902841e-03 0.0 
0.0 0.0 0.0 
1.347910917062e-05 6.842091420610e-04 0.0 
6.842091420610e-04 8.890685670191e-03 0.0 
0.0 0.0 0.0 
-3.172650238994e-04 1.557192954104e-04 0.0 
1.557192954104e-04 4.537450057205e-03 0.0 
0.0 0.0 0.0 
-2.693339629349e-05 6.645752188442e-04 0.0 
6.645752188442e-04 9.259165819517e-03 0.0 
0.0 0.0 0.0 
-3.295315562556e-04 9.991895411937e-05 0.0 
9.991895411937e-05 5.444636942060e-03 0.0 
0.0 0.0 0.0 
6.717740553116e-05 2.713564009724e-04 0.0 
2.713564009724e-04 8.169245454946e-03 0.0 
0.0 0.0 0.0 
-4.846410746181e-05 -2.313437160461e-05 0.0 
-2.313437160461e-05 2.613748481054e-04 0.0 
0.0 0.0 0.0 
-5.295365592171e-05 5.588009937887e-04 0.0 
5.588009937887e-04 9.556452358743e-03 0.0 
0.0 0.0 0.0 
-3.108419555681e-04 8.742291994390e-05 0.0 
8.742291994390e-05 6.329184446466e-03 0.0 
0.0 0.0 0.0 
2.216126199764e-04 -5.844925494829e-06 0.0 
-5.844925494829e-06 2.521238902735e-03 0.0 
0.0 0.0 0.0 
2.986372180658e-04 1.598949397423e-05 0.0 
1.598949397423e-05 5.368710167598e-03 0.0 
0.0 0.0 0.0 
-6.220186948432e-05 4.494785108602e-04 0.0 
4.494785108602e-04 9.696290546209e-03 0.0 
0.0 0.0 0.0 
-5.252561500096e-05 3.134741633886e-04 0.0 
3.134741633886e-04 9.843205564705e-03 0.0 
0.0 0.0 0.0 
-3.255983304949e-05 8.698640300321e-05 0.0 
8.698640300321e-05 9.934124248450e-03 0.0 
0.0 0.0 0.0 
-4.116007363837e-05 1.515682902864e-04 0.0 
1.515682902864e-04 9.885960932561e-03 0.0 
0.0 0.0 0.0 
-4.575746542932e-05 2.207510834546e-04 0.0 
2.207510834546e-04 9.902055101475e-03 0.0 
0.0 0.0 0.0 
-2.730614632034e-04 5.871891113129e-05 0.0 
5.871891113129e-05 6.533902589259e-03 0.0 
0.0 0.0 0.0 
-2.215226090643e-04 2.390021912509e-05 0.0 
2.390021912509e-05 6.536495418312e-03 0.0 
0.0 0.0 0.0 
-1.930280628102e-04 9.782733951372e-06 0.0 
9.782733951372e-06 6.558325089479e-03 0.0 
0.0 0.0 0.0 
-1.349093445596e-04 1.565838602180e-06 0.0 
1.565838602180e-06 8.040391948379e-03 0.0 
0.0 0.0 0.0 
6.211683568769e-05 1.572551024567e-04 0.0 
1.572551024567e-04 8.087751646610e-03 0.0 
0.0 0.0 0.0 
-2.696837640285e-04 5.196425428488e-05 0.0 
5.196425428488e-05 3.925933589944e-04 0.0 
0.0 0.0 0.0 
-3.305617940319e-06 -1.281236737709e-05 0.0 
-1.281236737709e-05 2.612535954743e-04 0.0 
0.0 0.0 0.0 
2.085071631984e-04 2.326720815899e-05 0.0 
2.326720815899e-05 6.789983940118e-03 0.0 
0.0 0.0 0.0 
-1.778386252641e-04 6.742638389169e-06 0.0 
6.742638389169e-06 6.503164067692e-03 0.0 
0.0 0.0 0.0 
1.012628293012e-04 -9.985309890122e-06 0.0 
-9.985309890122e-06 1.281153490451e-03 0.0 
0.0 0.0 0.0 
-6.833451600328e-05 3.734183600612e-04 0.0 
3.734183600612e-04 9.723396219501e-03 0.0 
0.0 0.0 0.0 
-6.938601340267e-06 6.905075068282e-04 0.0 
6.905075068282e-04 9.109685737621e-03 0.0 
0.0 0.0 0.0 
-4.324764157393e-05 6.189891225718e-04 0.0 
6.189891225718e-04 9.420705905145e-03 0.0 
0.0 0.0 0.0 
3.404401120315e-05 6.588741269654e-04 0.0 
6.588741269654e-04 8.712082201017e-03 0.0 
0.0 0.0 0.0 
5.418059019350e-05 5.406481792747e-04 0.0 
5.406481792747e-04 8.452418089291e-03 0.0 
0.0 0.0 0.0 
-2.204136669321e-04 -4.611301072606e-05 0.0 
-4.611301072606e-05 3.573980083182e-04 0.0 
0.0 0.0 0.0 
-2.449294442697e-04 3.715033397296e-05 0.0 
3.715033397296e-05 6.523678043302e-03 0.0 
0.0 0.0 0.0 
7.586121508612e-05 3.442894071689e-04 0.0 
3.442894071689e-04 8.123924005835e-03 0.0 
0.0 0.0 0.0 
-9.940927995777e-05 5.564724313094e-06 0.0 
5.564724313094e-06 8.847303182695e-03 0.0 
0.0 0.0 0.0 
-9.089154996883e-05 -3.936989775317e-05 0.0 
-3.936989775317e-05 2.995430314962e-04 0.0 
0.0 0.0 0.0 
2.760518690439e-04 -3.437230884718e-06 0.0 
-3.437230884718e-06 3.321940847195e-03 0.0 
0.0 0.0 0.0 
-2.677430502385e-05 5.406195811843e-05 0.0 
5.406195811843e-05 9.996551267446e-03 0.0 
0.0 0.0 0.0 
-3.092707814622e-04 2.281734566197e-04 0.0 
2.281734566197e-04 4.130747959403e-03 0.0 
0.0 0.0 0.0 
-2.612229125360e-04 4.687407967131e-04 0.0 
4.687407967131e-04 3.116814419930e-03 0.0 
0.0 0.0 0.0 
-3.289300913266e-04 1.235124444147e-04 0.0 
1.235124444147e-04 4.995829660795e-03 0.0 
0.0 0.0 0.0 
-3.233123762827e-04 8.725930893448e-05 0.0 
8.725930893448e-05 5.883977427398e-03 0.0 
0.0 0.0 0.0 
-2.036488852688e-04 4.964560987265e-04 0.0 
4.964560987265e-04 9.348570200786e-04 0.0 
0.0 0.0 0.0 
-1.581614470443e-04 2.475808324906e-06 0.0 
2.475808324906e-06 7.249496855170e-03 0.0 
0.0 0.0 0.0 
4.772928564383e-05 8.636764012559e-05 0.0 
8.636764012559e-05 8.146488261403e-03 0.0 
0.0 0.0 0.0 
1.432468954858e-05 1.365621976186e-06 0.0 
1.365621976186e-06 2.354121760021e-04 0.0 
0.0 0.0 0.0 
-4.489144784697e-05 1.401849055063e-05 0.0 
1.401849055063e-05 9.636393755346e-03 0.0 
0.0 0.0 0.0 
-3.018780082671e-04 8.816272123752e-05 0.0 
8.816272123752e-05 6.531018562748e-03 0.0 
0.0 0.0 0.0 
-3.112335678347e-04 1.167554664550e-04 0.0 
1.167554664550e-04 6.691876388999e-03 0.0 
0.0 0.0 0.0 
-2.953833845521e-04 1.148830450111e-04 0.0 
1.148830450111e-04 6.896389320387e-03 0.0 
0.0 0.0 0.0 
-3.077007564489e-04 1.481117956697e-04 0.0 
1.481117956697e-04 7.077540629073e-03 0.0 
0.0 0.0 0.0 
-2.917829578022e-04 1.472013006772e-04 0.0 
1.472013006772e-04 7.301942636510e-03 0.0 
0.0 0.0 0.0 
-2.963881328669e-04 1.812424632914e-04 0.0 
1.812424632914e-04 7.459372823338e-03 0.0 
0.0 0.0 0.0 
-3.122358049909e-04 1.861359619485e-04 0.0 
1.861359619485e-04 7.232969792201e-03 0.0 
0.0 0.0 0.0 
-2.957721679693e-04 2.198644933096e-04 0.0 
2.198644933096e-04 7.610851973596e-03 0.0 
0.0 0.0 0.0 
-3.121354385333e-04 2.274289037354e-04 0.0 
2.274289037354e-04 7.378330583025e-03 0.0 
0.0 0.0 0.0 
-2.757824644295e-04 1.781062484456e-04 0.0 
1.781062484456e-04 7.687646966659e-03 0.0 
0.0 0.0 0.0 
-2.911260689151e-04 2.607061236417e-04 0.0 
2.607061236417e-04 7.753992092192e-03 0.0 
0.0 0.0 0.0 
-3.068379987200e-04 2.707322230084e-04 0.0 
2.707322230084e-04 7.515454261853e-03 0.0 
0.0 0.0 0.0 
-2.814620504474e-04 3.037681446353e-04 0.0 
3.037681446353e-04 7.888361704811e-03 0.0 
0.0 0.0 0.0 
-2.960468991654e-04 3.155216276147e-04 0.0 
3.155216276147e-04 7.644149990002e-03 0.0 
0.0 0.0 0.0 
-3.192769339679e-04 2.836460629682e-04 0.0 
2.836460629682e-04 7.274546622580e-03 0.0 
0.0 0.0 0.0 
-3.063674232684e-04 3.306173728550e-04 0.0 
3.306173728550e-04 7.396217323438e-03 0.0 
0.0 0.0 0.0 
-3.277941974950e-04 2.999867554357e-04 0.0 
2.999867554357e-04 7.028984463009e-03 0.0 
0.0 0.0 0.0 
-3.120008307541e-04 3.491642088508e-04 0.0 
3.491642088508e-04 7.142945020436e-03 0.0 
0.0 0.0 0.0 
-2.869324850507e-04 3.770755635315e-04 0.0 
3.770755635315e-04 7.508759284523e-03 0.0 
0.0 0.0 0.0 
-2.886812693479e-04 3.966347181946e-04 0.0 
3.966347181946e-04 7.246624459325e-03 0.0 
0.0 0.0 0.0 
-3.125074444546e-04 3.716640936831e-04 0.0 
3.716640936831e-04 6.882740139389e-03 0.0 
0.0 0.0 0.0 
-2.842699817843e-04 4.205211862988e-04 0.0 
4.205211862988e-04 6.976495128147e-03 0.0 
0.0 0.0 0.0 
-3.073660954777e-04 3.990980453523e-04 0.0 
3.990980453523e-04 6.615496429041e-03 0.0 
0.0 0.0 0.0 
-2.732302774423e-04 4.484591284753e-04 0.0 
4.484591284753e-04 6.698315121097e-03 0.0 
0.0 0.0 0.0 
-2.960881257729e-04 4.312405395123e-04 0.0 
4.312405395123e-04 6.338689713373e-03 0.0 
0.0 0.0 0.0 
-2.547779918992e-04 4.803280532588e-04 0.0 
4.803280532588e-04 6.409868904413e-03 0.0 
0.0 0.0 0.0 
-2.315341712231e-04 4.912201873018e-04 0.0 
4.912201873018e-04 6.772326195317e-03 0.0 
0.0 0.0 0.0 
-2.059927990140e-04 5.208646443135e-04 0.0 
5.208646443135e-04 6.471997754024e-03 0.0 
0.0 0.0 0.0 
-2.276166576104e-04 5.160030009125e-04 0.0 
5.160030009125e-04 6.109700530866e-03 0.0 
0.0 0.0 0.0 
-1.711924876645e-04 5.521286118160e-04 0.0 
5.521286118160e-04 6.159351376745e-03 0.0 
0.0 0.0 0.0 
-1.907736601082e-04 5.539287544038e-04 0.0 
5.539287544038e-04 5.795607574021e-03 0.0 
0.0 0.0 0.0 
-1.263247235153e-04 5.831150907923e-04 0.0 
5.831150907923e-04 5.831616394404e-03 0.0 
0.0 0.0 0.0 
-1.111550437222e-04 5.761526899024e-04 0.0 
5.761526899024e-04 6.205454415022e-03 0.0 
0.0 0.0 0.0 
-6.068305219583e-05 5.974235953143e-04 0.0 
5.974235953143e-04 5.868553914621e-03 0.0 
0.0 0.0 0.0 
-7.110847944171e-05 6.100041022429e-04 0.0 
6.100041022429e-04 5.485952119121e-03 0.0 
0.0 0.0 0.0 
-1.500480944661e-06 6.121830129947e-04 0.0 
6.121830129947e-04 5.517807451915e-03 0.0 
0.0 0.0 0.0 
-6.476325631018e-06 6.289793254665e-04 0.0 
6.289793254665e-04 5.123971320739e-03 0.0 
0.0 0.0 0.0 
6.506970547552e-05 6.174555867005e-04 0.0 
6.174555867005e-04 5.155000473712e-03 0.0 
0.0 0.0 0.0 
6.699586530760e-05 6.363794810860e-04 0.0 
6.363794810860e-04 4.746705336868e-03 0.0 
0.0 0.0 0.0 
1.364668176867e-04 6.084564629667e-04 0.0 
6.084564629667e-04 4.779831619782e-03 0.0 
0.0 0.0 0.0 
1.279357964912e-04 5.934647127997e-04 0.0 
5.934647127997e-04 5.198755051331e-03 0.0 
0.0 0.0 0.0 
1.944473176294e-04 5.713424388785e-04 0.0 
5.713424388785e-04 4.830008642000e-03 0.0 
0.0 0.0 0.0 
2.079511762587e-04 5.819652441672e-04 0.0 
5.819652441672e-04 4.397975236957e-03 0.0 
0.0 0.0 0.0 
2.577715036445e-04 5.335423356478e-04 0.0 
5.335423356478e-04 4.459418020793e-03 0.0 
0.0 0.0 0.0 
2.415105182486e-04 5.301213363041e-04 0.0 
5.301213363041e-04 4.897942449803e-03 0.0 
0.0 0.0 0.0 
2.959370045736e-04 4.851390576261e-04 0.0 
4.851390576261e-04 4.539784514858e-03 0.0 
0.0 0.0 0.0 
2.779265247624e-04 4.884852292187e-04 0.0 
4.884852292187e-04 4.982176079912e-03 0.0 
0.0 0.0 0.0 
3.239561478614e-04 4.393805129182e-04 0.0 
4.393805129182e-04 4.636617473970e-03 0.0 
0.0 0.0 0.0 
3.405602833776e-04 4.284778834183e-04 0.0 
4.284778834183e-04 4.192408919498e-03 0.0 
0.0 0.0 0.0 
3.599374238766e-04 3.816326363284e-04 0.0 
3.816326363284e-04 4.302481715645e-03 0.0 
0.0 0.0 0.0 
3.434477351173e-04 3.973639388327e-04 0.0 
3.973639388327e-04 4.746628147190e-03 0.0 
0.0 0.0 0.0 
3.720872769366e-04 3.399021386804e-04 0.0 
3.399021386804e-04 4.423410133199e-03 0.0 
0.0 0.0 0.0 
3.834069751020e-04 3.174579084464e-04 0.0 
3.174579084464e-04 3.982156387508e-03 0.0 
0.0 0.0 0.0 
3.895128485170e-04 2.795099935344e-04 0.0 
2.795099935344e-04 4.115132922675e-03 0.0 
0.0 0.0 0.0 
3.784987299122e-04 3.042584177350e-04 0.0 
3.042584177350e-04 4.555409924474e-03 0.0 
0.0 0.0 0.0 
3.911465074211e-04 2.472994587140e-04 0.0 
2.472994587140e-04 4.256711801649e-03 0.0 
0.0 0.0 0.0 
3.950192515305e-04 2.179485150296e-04 0.0 
2.179485150296e-04 3.821834536359e-03 0.0 
0.0 0.0 0.0 
3.935105380166e-04 1.910408959112e-04 0.0 
1.910408959112e-04 3.971897105840e-03 0.0 
0.0 0.0 0.0 
3.893780070208e-04 2.205903377174e-04 0.0 
2.205903377174e-04 4.407668347593e-03 0.0 
0.0 0.0 0.0 
3.896373009451e-04 1.686312929958e-04 0.0 
1.686312929958e-04 4.127420880608e-03 0.0 
0.0 0.0 0.0 
3.861893155516e-04 1.373358256144e-04 0.0 
1.373358256144e-04 3.698790344273e-03 0.0 
0.0 0.0 0.0 
3.816996228951e-04 1.207021806444e-04 0.0 
1.207021806444e-04 3.858721362968e-03 0.0 
0.0 0.0 0.0 
3.840391647815e-04 1.509663281688e-04 0.0 
1.509663281688e-04 4.289462204123e-03 0.0 
0.0 0.0 0.0 
3.760776300952e-04 1.074718653857e-04 0.0 
1.074718653857e-04 4.022816936271e-03 0.0 
0.0 0.0 0.0 
3.767675533087e-04 1.366099640534e-04 0.0 
1.366099640534e-04 4.455530077488e-03 0.0 
0.0 0.0 0.0 
3.663297955946e-04 7.716696659135e-05 0.0 
7.716696659135e-05 3.596602517076e-03 0.0 
0.0 0.0 0.0 
3.619782843928e-04 6.866400704988e-05 0.0 
6.866400704988e-05 3.763994158496e-03 0.0 
0.0 0.0 0.0 
3.448813932281e-04 3.984801041664e-05 0.0 
3.984801041664e-05 3.341655334277e-03 0.0 
0.0 0.0 0.0 
3.428198939600e-04 3.587209146049e-05 0.0 
3.587209146049e-05 3.513052102566e-03 0.0 
0.0 0.0 0.0 
-5.127910004878e-05 5.883048978660e-04 0.0 
5.883048978660e-04 6.253336527519e-03 0.0 
0.0 0.0 0.0 
3.193230086798e-04 9.673593517011e-06 0.0 
9.673593517011e-06 3.095419106373e-03 0.0 
0.0 0.0 0.0 
3.179335768707e-04 1.136058568648e-05 0.0 
1.136058568648e-05 2.929085628598e-03 0.0 
0.0 0.0 0.0 
3.200559934498e-04 9.497525210203e-06 0.0 
9.497525210203e-06 3.269208286665e-03 0.0 
0.0 0.0 0.0 
3.400357216134e-04 3.371167559231e-05 0.0 
3.371167559231e-05 3.689337639776e-03 0.0 
0.0 0.0 0.0 
2.909618539525e-04 -1.364773043262e-05 0.0 
-1.364773043262e-05 2.855225479709e-03 0.0 
0.0 0.0 0.0 
2.948833731412e-04 -1.041100552616e-05 0.0 
-1.041100552616e-05 3.030736807951e-03 0.0 
0.0 0.0 0.0 
2.606470553559e-04 -2.940490957834e-05 0.0 
-2.940490957834e-05 2.620856579030e-03 0.0 
0.0 0.0 0.0 
-1.196098408858e-05 6.504989163192e-04 0.0 
6.504989163192e-04 4.723031806055e-03 0.0 
0.0 0.0 0.0 
-2.612357863929e-04 4.211225293501e-04 0.0 
4.211225293501e-04 7.612931535793e-03 0.0 
0.0 0.0 0.0 
2.680134897295e-04 -2.352708692986e-05 0.0 
-2.352708692986e-05 2.797059629844e-03 0.0 
0.0 0.0 0.0 
2.299497001226e-04 -3.902143603193e-05 0.0 
-3.902143603193e-05 2.390573998287e-03 0.0 
0.0 0.0 0.0 
2.184209892357e-04 -4.566786458195e-05 0.0 
-4.566786458195e-05 2.215680732844e-03 0.0 
0.0 0.0 0.0 
1.861118903486e-04 -5.075499603972e-05 0.0 
-5.075499603972e-05 1.988168488285e-03 0.0 
0.0 0.0 0.0 
-2.716671844156e-04 1.438199301857e-04 0.0 
1.438199301857e-04 7.525649745432e-03 0.0 
0.0 0.0 0.0 
-2.547897598352e-04 1.769286974646e-04 0.0 
1.769286974646e-04 7.916446063584e-03 0.0 
0.0 0.0 0.0 
-2.528851376979e-04 1.425131641356e-04 0.0 
1.425131641356e-04 7.740613609628e-03 0.0 
0.0 0.0 0.0 
-2.332334555014e-04 1.738962704115e-04 0.0 
1.738962704115e-04 8.142929376783e-03 0.0 
0.0 0.0 0.0 
-2.326333928203e-04 1.416770352047e-04 0.0 
1.416770352047e-04 7.972348817630e-03 0.0 
0.0 0.0 0.0 
2.007343667507e-04 -4.325229850224e-05 0.0 
-4.325229850224e-05 2.161940873491e-03 0.0 
0.0 0.0 0.0 
-2.625145994967e-04 2.950749816057e-04 0.0 
2.950749816057e-04 8.131838188571e-03 0.0 
0.0 0.0 0.0 
-2.305323737908e-04 2.083884393792e-04 0.0 
2.083884393792e-04 8.306438394336e-03 0.0 
0.0 0.0 0.0 
-3.324569376926e-04 3.448093339938e-04 0.0 
3.448093339938e-04 6.522209626788e-03 0.0 
0.0 0.0 0.0 
-2.493546696236e-04 5.103160022259e-04 0.0 
5.103160022259e-04 5.753304315961e-03 0.0 
0.0 0.0 0.0 
2.246934197971e-04 5.271436623972e-04 0.0 
5.271436623972e-04 5.334845714272e-03 0.0 
0.0 0.0 0.0 
2.981640813636e-04 -6.836003892482e-06 0.0 
-6.836003892482e-06 3.207923962469e-03 0.0 
0.0 0.0 0.0 
2.745517478212e-04 -1.712209053356e-05 0.0 
-1.712209053356e-05 2.974876382516e-03 0.0 
0.0 0.0 0.0 
2.998492186685e-04 -3.519251278009e-06 0.0 
-3.519251278009e-06 3.387506279730e-03 0.0 
0.0 0.0 0.0 
3.779661946695e-04 1.799125005456e-04 0.0 
1.799125005456e-04 4.727521516138e-03 0.0 
0.0 0.0 0.0 
3.688774430793e-04 1.646035341047e-04 0.0 
1.646035341047e-04 4.893912206665e-03 0.0 
0.0 0.0 0.0 
3.638841184865e-04 2.077137051547e-04 0.0 
2.077137051547e-04 5.170616510439e-03 0.0 
0.0 0.0 0.0 
3.527854362417e-04 1.914525465481e-04 0.0 
1.914525465481e-04 5.336839079074e-03 0.0 
0.0 0.0 0.0 
3.420445764549e-04 2.343204509435e-04 0.0 
2.343204509435e-04 5.617691556600e-03 0.0 
0.0 0.0 0.0 
3.287407552420e-04 2.173525763185e-04 0.0 
2.173525763185e-04 5.784136972793e-03 0.0 
0.0 0.0 0.0 
3.396620992387e-04 1.766593331600e-04 0.0 
1.766593331600e-04 5.506987893822e-03 0.0 
0.0 0.0 0.0 
3.130085137241e-04 2.011171104767e-04 0.0 
2.011171104767e-04 5.954893022151e-03 0.0 
0.0 0.0 0.0 
3.247888386015e-04 1.627800744558e-04 0.0 
1.627800744558e-04 5.680729071595e-03 0.0 
0.0 0.0 0.0 
3.127437611156e-04 2.601626671599e-04 0.0 
2.601626671599e-04 6.068418539726e-03 0.0 
0.0 0.0 0.0 
3.255568522849e-04 2.787564233890e-04 0.0 
2.787564233890e-04 5.905768880738e-03 0.0 
0.0 0.0 0.0 
2.954243094757e-04 1.853899183601e-04 0.0 
1.853899183601e-04 6.129309145814e-03 0.0 
0.0 0.0 0.0 
3.084608653863e-04 1.494206436756e-04 0.0 
1.494206436756e-04 5.857886889648e-03 0.0 
0.0 0.0 0.0 
2.764014380286e-04 1.700065645230e-04 0.0 
1.700065645230e-04 6.307674595766e-03 0.0 
0.0 0.0 0.0 
2.910109815141e-04 1.356391846057e-04 0.0 
1.356391846057e-04 6.038204079619e-03 0.0 
0.0 0.0 0.0 
3.172896303816e-04 1.166141925634e-04 0.0 
1.166141925634e-04 5.591595986378e-03 0.0 
0.0 0.0 0.0 
3.019109649635e-04 1.048439365405e-04 0.0 
1.048439365405e-04 5.773081278240e-03 0.0 
0.0 0.0 0.0 
3.221787350528e-04 8.737150197505e-05 0.0 
8.737150197505e-05 5.332192468902e-03 0.0 
0.0 0.0 0.0 
2.586213545154e-04 4.917192076374e-04 0.0 
4.917192076374e-04 5.423017347607e-03 0.0 
0.0 0.0 0.0 
2.072645913754e-04 5.262922681057e-04 0.0 
5.262922681057e-04 5.770764735259e-03 0.0 
0.0 0.0 0.0 
2.381784639603e-04 4.964538843902e-04 0.0 
4.964538843902e-04 5.862338913702e-03 0.0 
0.0 0.0 0.0 
1.890116048453e-04 5.283091956213e-04 0.0 
5.283091956213e-04 6.205354524175e-03 0.0 
0.0 0.0 0.0 
2.161478122668e-04 5.035914899437e-04 0.0 
5.035914899437e-04 6.301027707477e-03 0.0 
0.0 0.0 0.0 
1.693409759157e-04 5.341117172412e-04 0.0 
5.341117172412e-04 6.639331432325e-03 0.0 
0.0 0.0 0.0 
1.917630352773e-04 5.142577851507e-04 0.0 
5.142577851507e-04 6.738806576360e-03 0.0 
0.0 0.0 0.0 
2.350238202996e-04 4.790579298432e-04 0.0 
4.790579298432e-04 6.407469156677e-03 0.0 
0.0 0.0 0.0 
-2.671787190106e-04 3.479488267819e-04 0.0 
3.479488267819e-04 8.012795582033e-03 0.0 
0.0 0.0 0.0 
2.737659482874e-04 5.360022114482e-04 0.0 
5.360022114482e-04 4.017604284984e-03 0.0 
0.0 0.0 0.0 
2.218365814603e-04 5.923896378154e-04 0.0 
5.923896378154e-04 3.961734803384e-03 0.0 
0.0 0.0 0.0 
2.889707333659e-04 5.354748088206e-04 0.0 
5.354748088206e-04 3.571046727552e-03 0.0 
0.0 0.0 0.0 
2.358931383940e-04 6.008281574269e-04 0.0 
6.008281574269e-04 3.520531366641e-03 0.0 
0.0 0.0 0.0 
3.021007924697e-04 5.289250352863e-04 0.0 
5.289250352863e-04 3.118697381141e-03 0.0 
0.0 0.0 0.0 
2.491295466968e-04 6.041037211525e-04 0.0 
6.041037211525e-04 3.073621368105e-03 0.0 
0.0 0.0 0.0 
3.095530391066e-04 5.123270769079e-04 0.0 
5.123270769079e-04 2.659935671842e-03 0.0 
0.0 0.0 0.0 
3.441936784087e-04 4.336617573377e-04 0.0 
4.336617573377e-04 2.737241131961e-03 0.0 
0.0 0.0 0.0 
3.360562893048e-04 3.967617075531e-04 0.0 
3.967617075531e-04 2.276359933287e-03 0.0 
0.0 0.0 0.0 
3.560257436292e-04 3.242836017917e-04 0.0 
3.242836017917e-04 2.386578032345e-03 0.0 
0.0 0.0 0.0 
3.238625053197e-04 2.711879388291e-04 0.0 
2.711879388291e-04 1.934359782048e-03 0.0 
0.0 0.0 0.0 
3.360873318630e-04 2.136262213986e-04 0.0 
2.136262213986e-04 2.070688156243e-03 0.0 
0.0 0.0 0.0 
-1.844438006007e-04 5.265393738143e-04 0.0 
5.265393738143e-04 6.839464812616e-03 0.0 
0.0 0.0 0.0 
1.389598795669e-04 5.532141437599e-04 0.0 
5.532141437599e-04 6.548845007277e-03 0.0 
0.0 0.0 0.0 
1.229674883399e-04 5.597807105994e-04 0.0 
5.597807105994e-04 6.978112524248e-03 0.0 
0.0 0.0 0.0 
9.096950150008e-05 5.720241759360e-04 0.0 
5.720241759360e-04 6.887478452035e-03 0.0 
0.0 0.0 0.0 
1.690368933205e-04 -5.808550599885e-05 0.0 
-5.808550599885e-05 1.814897312699e-03 0.0 
0.0 0.0 0.0 
2.728994994062e-04 1.209676060719e-04 0.0 
1.209676060719e-04 6.221588456179e-03 0.0 
0.0 0.0 0.0 
2.914751646685e-04 3.039161728227e-04 0.0 
3.039161728227e-04 6.359929104862e-03 0.0 
0.0 0.0 0.0 
3.032591776597e-04 3.234707378117e-04 0.0 
3.234707378117e-04 6.199876939075e-03 0.0 
0.0 0.0 0.0 
2.060062595375e-04 4.949165072935e-04 0.0 
4.949165072935e-04 6.850588164174e-03 0.0 
0.0 0.0 0.0 
1.562406365157e-04 -5.010481753043e-05 0.0 
-5.010481753043e-05 1.765462497574e-03 0.0 
0.0 0.0 0.0 
2.580794755120e-04 5.971293213885e-04 0.0 
5.971293213885e-04 2.621431471140e-03 0.0 
0.0 0.0 0.0 
1.756179973501e-04 6.758098109084e-04 0.0 
6.758098109084e-04 3.066793913660e-03 0.0 
0.0 0.0 0.0 
-2.095114879797e-04 1.701467980164e-04 0.0 
1.701467980164e-04 8.367709380788e-03 0.0 
0.0 0.0 0.0 
-2.102888284696e-04 1.403689228033e-04 0.0 
1.403689228033e-04 8.195754187547e-03 0.0 
0.0 0.0 0.0 
2.650869283756e-04 3.483919402176e-04 0.0 
3.483919402176e-04 6.658435872029e-03 0.0 
0.0 0.0 0.0 
1.732255027146e-04 -4.159986475053e-05 0.0 
-4.159986475053e-05 1.937290747686e-03 0.0 
0.0 0.0 0.0 
2.778146145692e-04 2.244442663011e-04 0.0 
2.244442663011e-04 6.407403231606e-03 0.0 
0.0 0.0 0.0 
3.057519790723e-04 3.424840765763e-04 0.0 
3.424840765763e-04 1.819397874443e-03 0.0 
0.0 0.0 0.0 
2.862692005052e-04 9.249189345206e-05 0.0 
9.249189345206e-05 5.957238007320e-03 0.0 
0.0 0.0 0.0 
2.538997072793e-04 1.054320701386e-04 0.0 
1.054320701386e-04 6.407295262066e-03 0.0 
0.0 0.0 0.0 
3.456285270065e-04 1.391599225554e-04 0.0 
1.391599225554e-04 5.237622969856e-03 0.0 
0.0 0.0 0.0 
7.979060188249e-05 5.807636220876e-04 0.0 
5.807636220876e-04 7.313599970028e-03 0.0 
0.0 0.0 0.0 
4.740524802649e-05 5.848192234134e-04 0.0 
5.848192234134e-04 7.219485947121e-03 0.0 
0.0 0.0 0.0 
3.659238797968e-04 2.646364101859e-04 0.0 
2.646364101859e-04 2.518443479492e-03 0.0 
0.0 0.0 0.0 
3.398464865242e-04 1.674478492840e-04 0.0 
1.674478492840e-04 2.221868806056e-03 0.0 
0.0 0.0 0.0 
2.882782785907e-04 1.139245949376e-04 0.0 
1.139245949376e-04 1.800755437286e-03 0.0 
0.0 0.0 0.0 
2.934371623549e-04 8.553443431132e-05 0.0 
8.553443431132e-05 1.965397594633e-03 0.0 
0.0 0.0 0.0 
3.441398245306e-04 1.335210817713e-04 0.0 
1.335210817713e-04 2.379410622290e-03 0.0 
0.0 0.0 0.0 
3.017813632562e-04 6.151732354514e-05 0.0 
6.151732354514e-05 2.115645392784e-03 0.0 
0.0 0.0 0.0 
2.389480271368e-04 1.713164375477e-05 0.0 
1.713164375477e-05 1.708466951453e-03 0.0 
0.0 0.0 0.0 
2.486663241143e-04 3.669002580943e-06 0.0 
3.669002580943e-06 1.869565114137e-03 0.0 
0.0 0.0 0.0 
3.073515912553e-04 4.369109504578e-05 0.0 
4.369109504578e-05 2.279138847388e-03 0.0 
0.0 0.0 0.0 
2.590296513943e-04 -5.920212525428e-06 0.0 
-5.920212525428e-06 2.035213906424e-03 0.0 
0.0 0.0 0.0 
1.899231263254e-04 -3.909583681451e-05 0.0 
-3.909583681451e-05 1.633656122997e-03 0.0 
0.0 0.0 0.0 
2.066766346954e-04 -4.113188175860e-05 0.0 
-4.113188175860e-05 1.800016485927e-03 0.0 
0.0 0.0 0.0 
2.345833578933e-04 1.359707231007e-04 0.0 
1.359707231007e-04 6.674671822192e-03 0.0 
0.0 0.0 0.0 
2.613745951831e-04 2.025134041716e-04 0.0 
2.025134041716e-04 1.495823450227e-03 0.0 
0.0 0.0 0.0 
-3.364804104892e-04 2.505941297483e-04 0.0 
2.505941297483e-04 6.904908771127e-03 0.0 
0.0 0.0 0.0 
2.501564199470e-04 3.293926888818e-04 0.0 
3.293926888818e-04 6.816582647464e-03 0.0 
0.0 0.0 0.0 
1.637975061651e-04 5.301961360489e-04 0.0 
5.301961360489e-04 7.173872080824e-03 0.0 
0.0 0.0 0.0 
-1.844356356825e-04 1.663093671115e-04 0.0 
1.663093671115e-04 8.592110427209e-03 0.0 
0.0 0.0 0.0 
-1.872972186075e-04 1.383671628854e-04 0.0 
1.383671628854e-04 8.419377132302e-03 0.0 
0.0 0.0 0.0 
-2.090000366088e-04 1.148027189090e-04 0.0 
1.148027189090e-04 8.017425717866e-03 0.0 
0.0 0.0 0.0 
-1.885812203516e-04 1.136532048973e-04 0.0 
1.136532048973e-04 8.242707740705e-03 0.0 
0.0 0.0 0.0 
-1.639428909747e-04 1.348000919344e-04 0.0 
1.348000919344e-04 8.643701076319e-03 0.0 
0.0 0.0 0.0 
-1.672794782290e-04 1.111591159500e-04 0.0 
1.111591159500e-04 8.466770905403e-03 0.0 
0.0 0.0 0.0 
-1.884670614442e-04 9.129043683544e-05 0.0 
9.129043683544e-05 8.062091035655e-03 0.0 
0.0 0.0 0.0 
-1.686305297838e-04 8.987215293749e-05 0.0 
8.987215293749e-05 8.285681585749e-03 0.0 
0.0 0.0 0.0 
-1.862357431831e-04 7.158582574058e-05 0.0 
7.158582574058e-05 7.877410797060e-03 0.0 
0.0 0.0 0.0 
-1.687875544331e-04 7.127742861635e-05 0.0 
7.127742861635e-05 8.101749888778e-03 0.0 
0.0 0.0 0.0 
-1.484129873166e-04 8.713625668085e-05 0.0 
8.713625668085e-05 8.509007013285e-03 0.0 
0.0 0.0 0.0 
-1.509572023680e-04 6.886154158370e-05 0.0 
6.886154158370e-05 8.326159885586e-03 0.0 
0.0 0.0 0.0 
-1.689986983106e-04 5.534058911289e-05 0.0 
5.534058911289e-05 7.916471942454e-03 0.0 
0.0 0.0 0.0 
-1.529519438062e-04 5.281487068875e-05 0.0 
5.281487068875e-05 8.141137447603e-03 0.0 
0.0 0.0 0.0 
-1.688433525543e-04 4.116349870589e-05 0.0 
4.116349870589e-05 7.728691513121e-03 0.0 
0.0 0.0 0.0 
-1.536663898868e-04 3.859224176431e-05 0.0 
3.859224176431e-05 7.952122582859e-03 0.0 
0.0 0.0 0.0 
-1.363714778314e-04 5.012828087143e-05 0.0 
5.012828087143e-05 8.365674982033e-03 0.0 
0.0 0.0 0.0 
1.309614364838e-04 -4.429212805056e-05 0.0 
-4.429212805056e-05 1.552392158571e-03 0.0 
0.0 0.0 0.0 
2.455376734961e-04 4.562377393580e-04 0.0 
4.562377393580e-04 6.524806030516e-03 0.0 
0.0 0.0 0.0 
2.107520413025e-04 4.771863636127e-04 0.0 
4.771863636127e-04 6.976691881212e-03 0.0 
0.0 0.0 0.0 
2.784149677834e-04 -1.435252115460e-05 0.0 
-1.435252115460e-05 3.166161330830e-03 0.0 
0.0 0.0 0.0 
3.025859874219e-04 -1.995855578493e-06 0.0 
-1.995855578493e-06 3.563236817803e-03 0.0 
0.0 0.0 0.0 
3.178434658591e-04 1.470756242865e-05 0.0 
1.470756242865e-05 3.804285563473e-03 0.0 
0.0 0.0 0.0 
3.176842136425e-04 1.522129869472e-05 0.0 
1.522129869472e-05 3.988295349064e-03 0.0 
0.0 0.0 0.0 
-1.395075503990e-04 3.607019702675e-05 0.0 
3.607019702675e-05 8.175211399480e-03 0.0 
0.0 0.0 0.0 
-1.213751721246e-04 4.644453009027e-05 0.0 
4.644453009027e-05 8.590486055768e-03 0.0 
0.0 0.0 0.0 
1.832961909933e-04 6.806205778975e-04 0.0 
6.806205778975e-04 2.631137952383e-03 0.0 
0.0 0.0 0.0 
7.813959016171e-05 7.313870913174e-04 0.0 
7.313870913174e-04 3.106937804327e-03 0.0 
0.0 0.0 0.0 
-1.790897031452e-04 1.972444340968e-04 0.0 
1.972444340968e-04 8.759566520308e-03 0.0 
0.0 0.0 0.0 
2.693991088705e-04 7.813609779090e-05 0.0 
7.813609779090e-05 6.146108115438e-03 0.0 
0.0 0.0 0.0 
2.958534227841e-04 6.760392191855e-05 0.0 
6.760392191855e-05 5.699850809680e-03 0.0 
0.0 0.0 0.0 
-2.114454329363e-04 5.551261373814e-04 0.0 
5.551261373814e-04 5.438553199841e-03 0.0 
0.0 0.0 0.0 
-2.709820559253e-04 5.016636601659e-04 0.0 
5.016636601659e-04 5.402515814791e-03 0.0 
0.0 0.0 0.0 
-2.330844335538e-04 5.534651884249e-04 0.0 
5.534651884249e-04 5.086653719317e-03 0.0 
0.0 0.0 0.0 
-2.919548199564e-04 4.871522913947e-04 0.0 
4.871522913947e-04 5.051366065706e-03 0.0 
0.0 0.0 0.0 
-3.172242765122e-04 4.354834379022e-04 0.0 
4.354834379022e-04 5.351485323737e-03 0.0 
0.0 0.0 0.0 
-2.564280418257e-04 5.464854179297e-04 0.0 
5.464854179297e-04 4.733646015413e-03 0.0 
0.0 0.0 0.0 
3.350634706360e-04 2.989352719906e-04 0.0 
2.989352719906e-04 5.744159643165e-03 0.0 
0.0 0.0 0.0 
-1.283642815799e-04 8.246804619075e-05 0.0 
8.246804619075e-05 8.732692349713e-03 0.0 
0.0 0.0 0.0 
2.047376366815e-04 -5.112703258338e-05 0.0 
-5.112703258338e-05 2.043526368974e-03 0.0 
0.0 0.0 0.0 
1.500151413533e-04 -6.327751816649e-05 0.0 
-6.327751816649e-05 1.645360498686e-03 0.0 
0.0 0.0 0.0 
2.327104249181e-04 8.853399534310e-05 0.0 
8.853399534310e-05 6.598879651651e-03 0.0 
0.0 0.0 0.0 
2.753068535828e-04 4.395120810948e-04 0.0 
4.395120810948e-04 6.078143248287e-03 0.0 
0.0 0.0 0.0 
-2.076182994454e-04 5.026157965860e-04 0.0 
5.026157965860e-04 7.139837193395e-03 0.0 
0.0 0.0 0.0 
-1.627262510494e-04 5.343310438060e-04 0.0 
5.343310438060e-04 7.212236817740e-03 0.0 
0.0 0.0 0.0 
-1.828746283201e-04 5.159651879597e-04 0.0 
5.159651879597e-04 7.512708426481e-03 0.0 
0.0 0.0 0.0 
-1.405276301116e-04 5.456237538865e-04 0.0 
5.456237538865e-04 7.589860287441e-03 0.0 
0.0 0.0 0.0 
-1.569459510433e-04 5.323371758889e-04 0.0 
5.323371758889e-04 7.890061877961e-03 0.0 
0.0 0.0 0.0 
-1.180106311807e-04 5.609977905553e-04 0.0 
5.609977905553e-04 7.970614114337e-03 0.0 
0.0 0.0 0.0 
-9.828518511062e-05 5.693631910580e-04 0.0 
5.693631910580e-04 7.666556745395e-03 0.0 
0.0 0.0 0.0 
4.291556549241e-05 5.982142165089e-04 0.0 
5.982142165089e-04 7.642338362076e-03 0.0 
0.0 0.0 0.0 
-8.065704681108e-05 5.848198495411e-04 0.0 
5.848198495411e-04 8.053724898506e-03 0.0 
0.0 0.0 0.0 
-1.529419054905e-04 2.993592493300e-05 0.0 
2.993592493300e-05 7.754709625742e-03 0.0 
0.0 0.0 0.0 
1.015047197697e-04 5.703652572250e-04 0.0 
5.703652572250e-04 6.461962256922e-03 0.0 
0.0 0.0 0.0 
3.117864291256e-04 3.079151543853e-05 0.0 
3.079151543853e-05 2.446944741804e-03 0.0 
0.0 0.0 0.0 
1.092146632021e-04 -5.454433147675e-05 0.0 
-5.454433147675e-05 1.376983865564e-03 0.0 
0.0 0.0 0.0 
1.277373448676e-04 -6.324697615160e-05 0.0 
-6.324697615160e-05 1.396782603393e-03 0.0 
0.0 0.0 0.0 
1.481744000582e-04 -3.509558423131e-05 0.0 
-3.509558423131e-05 1.708264263176e-03 0.0 
0.0 0.0 0.0 
1.886472748280e-04 -3.107980590397e-05 0.0 
-3.107980590397e-05 2.110157224581e-03 0.0 
0.0 0.0 0.0 
2.199959180910e-04 3.748651138216e-04 0.0 
3.748651138216e-04 7.117713326334e-03 0.0 
0.0 0.0 0.0 
-1.300735611108e-04 5.528413252724e-04 0.0 
5.528413252724e-04 8.270254503427e-03 0.0 
0.0 0.0 0.0 
-1.652593467944e-04 5.201755614746e-04 0.0 
5.201755614746e-04 8.178802687242e-03 0.0 
0.0 0.0 0.0 
-3.304135736305e-04 4.088547389896e-04 0.0 
4.088547389896e-04 5.003581945574e-03 0.0 
0.0 0.0 0.0 
-3.459302764485e-04 3.572412742120e-04 0.0 
3.572412742120e-04 5.284865870454e-03 0.0 
0.0 0.0 0.0 
6.885482911312e-05 5.964293768409e-04 0.0 
5.964293768409e-04 7.737298916293e-03 0.0 
0.0 0.0 0.0 
-2.458319477767e-04 1.150407414977e-04 0.0 
1.150407414977e-04 7.570562364470e-03 0.0 
0.0 0.0 0.0 
-2.032973203049e-04 7.088863831986e-05 0.0 
7.088863831986e-05 7.653954924173e-03 0.0 
0.0 0.0 0.0 
-1.978189751861e-04 5.379607722150e-05 0.0 
5.379607722150e-05 7.464121999342e-03 0.0 
0.0 0.0 0.0 
1.051628182357e-04 -3.981621366702e-05 0.0 
-3.981621366702e-05 1.277744581037e-03 0.0 
0.0 0.0 0.0 
1.061391967754e-04 -6.131199323643e-05 0.0 
-6.131199323643e-05 1.249377569655e-03 0.0 
0.0 0.0 0.0 
-1.401873414879e-04 1.300182804306e-04 0.0 
1.300182804306e-04 8.867493824234e-03 0.0 
0.0 0.0 0.0 
7.552225613655e-05 7.092589583397e-04 0.0 
7.092589583397e-04 3.512901816379e-03 0.0 
0.0 0.0 0.0 
-3.272340510058e-05 7.259342403108e-04 0.0 
7.259342403108e-04 3.566216127811e-03 0.0 
0.0 0.0 0.0 
2.353651336328e-04 2.699078384196e-04 0.0 
2.699078384196e-04 1.373208738671e-03 0.0 
0.0 0.0 0.0 
1.491679311298e-04 1.273621216521e-04 0.0 
1.273621216521e-04 1.078316193776e-03 0.0 
0.0 0.0 0.0 
-1.237205843773e-04 3.560251781652e-05 0.0 
3.560251781652e-05 8.394102937539e-03 0.0 
0.0 0.0 0.0 
-1.034194007006e-04 4.150508156712e-05 0.0 
4.150508156712e-05 8.804748761816e-03 0.0 
0.0 0.0 0.0 
3.296331600080e-04 3.063247944604e-05 0.0 
3.063247944604e-05 4.226994673267e-03 0.0 
0.0 0.0 0.0 
3.241845958462e-04 2.756418604561e-05 0.0 
2.756418604561e-05 4.411257346155e-03 0.0 
0.0 0.0 0.0 
2.344587638070e-04 3.936072737231e-04 0.0 
3.936072737231e-04 6.965042602569e-03 0.0 
0.0 0.0 0.0 
1.533788903119e-04 -6.224395245315e-05 0.0 
-6.224395245315e-05 1.570825447625e-03 0.0 
0.0 0.0 0.0 
-9.657588593959e-05 5.425327780547e-05 0.0 
5.425327780547e-05 8.998524527249e-03 0.0 
0.0 0.0 0.0 
2.818754718588e-04 4.142991826176e-04 0.0 
4.142991826176e-04 6.204601144708e-03 0.0 
0.0 0.0 0.0 
3.109349499451e-04 3.953348748993e-04 0.0 
3.953348748993e-04 5.754946878578e-03 0.0 
0.0 0.0 0.0 
3.061910703344e-04 7.098663575654e-06 0.0 
7.098663575654e-06 3.743950215667e-03 0.0 
0.0 0.0 0.0 
7.798784846008e-05 7.467457524396e-04 0.0 
7.467457524396e-04 2.703730001315e-03 0.0 
0.0 0.0 0.0 
1.816870462968e-04 6.682766163307e-04 0.0 
6.682766163307e-04 2.194500214034e-03 0.0 
0.0 0.0 0.0 
3.488019919910e-04 8.446587910185e-05 0.0 
8.446587910185e-05 2.699432841637e-03 0.0 
0.0 0.0 0.0 
2.218662062848e-04 -4.106292128603e-05 0.0 
-4.106292128603e-05 1.969126761091e-03 0.0 
0.0 0.0 0.0 
1.643130605962e-04 -2.580790997546e-05 0.0 
-2.580790997546e-05 1.880950338998e-03 0.0 
0.0 0.0 0.0 
1.861372183019e-04 4.236474559440e-04 0.0 
4.236474559440e-04 7.426178782118e-03 0.0 
0.0 0.0 0.0 
-1.324619914482e-04 1.550814688297e-04 0.0 
1.550814688297e-04 9.038362555083e-03 0.0 
0.0 0.0 0.0 
-5.882796416806e-05 5.857300865529e-04 0.0 
5.857300865529e-04 7.747020718675e-03 0.0 
0.0 0.0 0.0 
-7.065161155645e-05 5.768876044845e-04 0.0 
5.768876044845e-04 7.352455751313e-03 0.0 
0.0 0.0 0.0 
-4.386465891387e-05 6.030966764857e-04 0.0 
6.030966764857e-04 8.141341167323e-03 0.0 
0.0 0.0 0.0 
7.373039574310e-05 -7.432079464183e-05 0.0 
-7.432079464183e-05 1.182992053225e-03 0.0 
0.0 0.0 0.0 
1.994788846037e-04 3.552737838445e-04 0.0 
3.552737838445e-04 7.283381633029e-03 0.0 
0.0 0.0 0.0 
2.499443565201e-04 6.178218511528e-05 0.0 
6.178218511528e-05 6.340083458933e-03 0.0 
0.0 0.0 0.0 
-1.355160996009e-04 5.453308644096e-04 0.0 
5.453308644096e-04 8.544040106633e-03 0.0 
0.0 0.0 0.0 
-1.649650920120e-04 5.099234198767e-04 0.0 
5.099234198767e-04 8.457250584244e-03 0.0 
0.0 0.0 0.0 
-2.443107180043e-05 7.012444151443e-04 0.0 
7.012444151443e-04 3.941433153256e-03 0.0 
0.0 0.0 0.0 
-1.302799674404e-04 6.786205174533e-04 0.0 
6.786205174533e-04 3.993892297016e-03 0.0 
0.0 0.0 0.0 
-1.485656950004e-04 6.924467493962e-04 0.0 
6.924467493962e-04 3.650530062838e-03 0.0 
0.0 0.0 0.0 
-2.252951553600e-04 6.169843364246e-04 0.0 
6.169843364246e-04 4.045439176591e-03 0.0 
0.0 0.0 0.0 
-3.270273312970e-04 1.931416172444e-04 0.0 
1.931416172444e-04 7.002993413493e-03 0.0 
0.0 0.0 0.0 
-1.125502634934e-04 6.624168383151e-04 0.0 
6.624168383151e-04 4.349156999825e-03 0.0 
0.0 0.0 0.0 
-3.437245100581e-04 2.671311575366e-04 0.0 
2.671311575366e-04 6.662864655540e-03 0.0 
0.0 0.0 0.0 
-3.468466096142e-04 2.158582268947e-04 0.0 
2.158582268947e-04 6.535148132051e-03 0.0 
0.0 0.0 0.0 
-3.531660485333e-04 2.324664139343e-04 0.0 
2.324664139343e-04 6.298382459053e-03 0.0 
0.0 0.0 0.0 
-3.344795933945e-04 3.873795904735e-04 0.0 
3.873795904735e-04 5.632145177705e-03 0.0 
0.0 0.0 0.0 
-3.539840883139e-04 3.140574935786e-04 0.0 
3.140574935786e-04 5.549235554513e-03 0.0 
0.0 0.0 0.0 
1.548925988504e-04 6.442660580648e-04 0.0 
6.442660580648e-04 3.928423916758e-03 0.0 
0.0 0.0 0.0 
1.677387231020e-04 5.554308268453e-04 0.0 
5.554308268453e-04 5.689429767093e-03 0.0 
0.0 0.0 0.0 
3.327408541048e-04 3.212498599499e-05 0.0 
3.212498599499e-05 4.046826266292e-03 0.0 
0.0 0.0 0.0 
3.349108453368e-04 9.644504734689e-05 0.0 
9.644504734689e-05 5.152545699354e-03 0.0 
0.0 0.0 0.0 
3.724787661524e-04 2.263779812873e-04 0.0 
2.263779812873e-04 5.007908479218e-03 0.0 
0.0 0.0 0.0 
-1.230116663572e-04 1.023214960021e-04 0.0 
1.023214960021e-04 8.910628090697e-03 0.0 
0.0 0.0 0.0 
-1.016827311942e-04 9.507044488740e-05 0.0 
9.507044488740e-05 9.136137491438e-03 0.0 
0.0 0.0 0.0 
-1.822300101168e-04 4.193469585836e-05 0.0 
4.193469585836e-05 7.502760868885e-03 0.0 
0.0 0.0 0.0 
-1.773384953898e-04 2.871975581266e-05 0.0 
2.871975581266e-05 7.309849603931e-03 0.0 
0.0 0.0 0.0 
1.144157561681e-04 -6.388865500866e-05 0.0 
-6.388865500866e-05 1.417325997488e-03 0.0 
0.0 0.0 0.0 
8.645059709452e-05 -6.666978052413e-05 0.0 
-6.666978052413e-05 1.251835691585e-03 0.0 
0.0 0.0 0.0 
3.679811267721e-04 1.247242753404e-04 0.0 
1.247242753404e-04 4.625881081248e-03 0.0 
0.0 0.0 0.0 
2.300629175148e-04 3.106939785515e-04 0.0 
3.106939785515e-04 6.978814013170e-03 0.0 
0.0 0.0 0.0 
-1.518750063831e-04 1.909491901048e-04 0.0 
1.909491901048e-04 8.980499145119e-03 0.0 
0.0 0.0 0.0 
-1.421077255975e-04 2.226414219578e-04 0.0 
2.226414219578e-04 9.144180416246e-03 0.0 
0.0 0.0 0.0 
-1.706024462009e-04 2.306430220834e-04 0.0 
2.306430220834e-04 8.919544459918e-03 0.0 
0.0 0.0 0.0 
2.013031302052e-04 4.402833279121e-04 0.0 
4.402833279121e-04 7.272431745122e-03 0.0 
0.0 0.0 0.0 
3.274046851807e-04 4.720725181724e-04 0.0 
4.720725181724e-04 3.647900044960e-03 0.0 
0.0 0.0 0.0 
2.838549250175e-04 4.572762341576e-04 0.0 
4.572762341576e-04 5.522989674025e-03 0.0 
0.0 0.0 0.0 
1.774307947684e-04 8.539945232776e-05 0.0 
8.539945232776e-05 1.227157577137e-03 0.0 
0.0 0.0 0.0 
-9.695230024304e-05 5.721528250182e-04 0.0 
5.721528250182e-04 6.583119736685e-03 0.0 
0.0 0.0 0.0 
5.496744279432e-05 -6.162768887823e-05 0.0 
-6.162768887823e-05 1.027904496661e-03 0.0 
0.0 0.0 0.0 
-2.575491632534e-04 4.048408189302e-04 0.0 
4.048408189302e-04 7.874766472544e-03 0.0 
0.0 0.0 0.0 
2.111668890939e-04 6.972353796039e-05 0.0 
6.972353796039e-05 6.795384642740e-03 0.0 
0.0 0.0 0.0 
1.885835192926e-04 9.849181344301e-05 0.0 
9.849181344301e-05 7.054510981825e-03 0.0 
0.0 0.0 0.0 
3.658294346517e-05 6.163307735156e-04 0.0 
6.163307735156e-04 8.054792767364e-03 0.0 
0.0 0.0 0.0 
-3.228131193943e-04 1.210623486299e-04 0.0 
1.210623486299e-04 6.479128322443e-03 0.0 
0.0 0.0 0.0 
-4.284941198024e-05 5.835407514070e-04 0.0 
5.835407514070e-04 6.641578939381e-03 0.0 
0.0 0.0 0.0 
5.302998482707e-06 5.896414966058e-04 0.0 
5.896414966058e-04 6.308380478967e-03 0.0 
0.0 0.0 0.0 
-3.495395774843e-04 1.803933773170e-04 0.0 
1.803933773170e-04 6.166693332672e-03 0.0 
0.0 0.0 0.0 
-3.543087884558e-04 1.957411981294e-04 0.0 
1.957411981294e-04 5.935780855343e-03 0.0 
0.0 0.0 0.0 
-3.562470170624e-04 2.535409065189e-04 0.0 
2.535409065189e-04 6.057259829365e-03 0.0 
0.0 0.0 0.0 
-3.570951605790e-04 2.164199602397e-04 0.0 
2.164199602397e-04 5.697441797599e-03 0.0 
0.0 0.0 0.0 
3.491424799536e-04 6.784816911507e-05 0.0 
6.784816911507e-05 2.861967141476e-03 0.0 
0.0 0.0 0.0 
3.151437191308e-04 2.148094844391e-05 0.0 
2.148094844391e-05 2.611635294143e-03 0.0 
0.0 0.0 0.0 
-9.952211351129e-05 5.828956951717e-04 0.0 
5.828956951717e-04 8.679513227825e-03 0.0 
0.0 0.0 0.0 
-6.163776095606e-05 6.117274584118e-04 0.0 
6.117274584118e-04 8.436143981556e-03 0.0 
0.0 0.0 0.0 
-1.278466187092e-04 5.386664491134e-04 0.0 
5.386664491134e-04 8.821404119407e-03 0.0 
0.0 0.0 0.0 
-1.535176152289e-04 5.014674849635e-04 0.0 
5.014674849635e-04 8.737082533415e-03 0.0 
0.0 0.0 0.0 
5.864911820930e-05 6.186605103845e-04 0.0 
6.186605103845e-04 8.154613351638e-03 0.0 
0.0 0.0 0.0 
8.908312771742e-05 5.921500813499e-04 0.0 
5.921500813499e-04 7.833549159409e-03 0.0 
0.0 0.0 0.0 
1.997428303162e-04 -2.288123989385e-05 0.0 
-2.288123989385e-05 2.273203918442e-03 0.0 
0.0 0.0 0.0 
-3.555587536277e-04 2.750744696315e-04 0.0 
2.750744696315e-04 5.198511287195e-03 0.0 
0.0 0.0 0.0 
-1.049888400739e-04 1.472638099982e-04 0.0 
1.472638099982e-04 9.261422378332e-03 0.0 
0.0 0.0 0.0 
-3.422353507076e-04 1.682966836575e-04 0.0 
1.682966836575e-04 6.395229923072e-03 0.0 
0.0 0.0 0.0 
1.737579591037e-04 3.332988390774e-04 0.0 
3.332988390774e-04 7.436617608981e-03 0.0 
0.0 0.0 0.0 
2.076216218269e-04 2.912179568996e-04 0.0 
2.912179568996e-04 7.150558124570e-03 0.0 
0.0 0.0 0.0 
3.259288728065e-05 3.008726118774e-05 0.0 
3.008726118774e-05 8.372137029051e-04 0.0 
0.0 0.0 0.0 
7.110948789322e-05 -6.518406273556e-06 0.0 
-6.518406273556e-06 9.812488507402e-04 0.0 
0.0 0.0 0.0 
-7.949981892846e-05 4.605798650944e-05 0.0 
4.605798650944e-05 9.218173759756e-03 0.0 
0.0 0.0 0.0 
-2.487234919375e-04 5.995834768785e-04 0.0 
5.995834768785e-04 3.725789489090e-03 0.0 
0.0 0.0 0.0 
-2.955711633139e-04 5.087218932512e-04 0.0 
5.087218932512e-04 4.059819991491e-03 0.0 
0.0 0.0 0.0 
-1.705529120903e-04 6.916893748339e-04 0.0 
6.916893748339e-04 3.324974633949e-03 0.0 
0.0 0.0 0.0 
9.972859391579e-05 2.853092587733e-05 0.0 
2.853092587733e-05 7.733976582439e-03 0.0 
0.0 0.0 0.0 
-1.702698048028e-04 1.006432663859e-06 0.0 
1.006432663859e-06 6.488664178652e-03 0.0 
0.0 0.0 0.0 
1.651734490098e-04 7.688175931700e-05 0.0 
7.688175931700e-05 7.255540757813e-03 0.0 
0.0 0.0 0.0 
-3.438750024939e-04 3.469611976008e-04 0.0 
3.469611976008e-04 5.903057519627e-03 0.0 
0.0 0.0 0.0 
-6.805864016255e-05 6.245206720967e-05 0.0 
6.245206720967e-05 9.410740846781e-03 0.0 
0.0 0.0 0.0 
7.391448524722e-06 5.855616880886e-04 0.0 
5.855616880886e-04 6.710763756270e-03 0.0 
0.0 0.0 0.0 
-1.603940554188e-04 6.028507515826e-04 0.0 
6.028507515826e-04 5.095547105926e-03 0.0 
0.0 0.0 0.0 
2.429536298720e-04 4.125933243025e-04 0.0 
4.125933243025e-04 6.814753268504e-03 0.0 
0.0 0.0 0.0 
-8.982951426179e-05 2.751477148313e-05 0.0 
2.751477148313e-05 9.001086216570e-03 0.0 
0.0 0.0 0.0 
-6.512570450331e-05 3.774313606671e-05 0.0 
3.774313606671e-05 9.447647889543e-03 0.0 
0.0 0.0 0.0 
-2.101423930721e-04 5.267667416313e-05 0.0 
5.267667416313e-05 7.239282234113e-03 0.0 
0.0 0.0 0.0 
-2.060609997623e-04 3.309000806529e-05 0.0 
3.309000806529e-05 7.035652789584e-03 0.0 
0.0 0.0 0.0 
-2.194428530882e-04 6.931104558470e-05 0.0 
6.931104558470e-05 7.418250729982e-03 0.0 
0.0 0.0 0.0 
2.763502087967e-04 4.262775737709e-04 0.0 
4.262775737709e-04 1.736822824516e-03 0.0 
0.0 0.0 0.0 
1.875363815336e-04 3.549859498833e-04 0.0 
3.549859498833e-04 1.259428399803e-03 0.0 
0.0 0.0 0.0 
-1.091201616352e-04 7.672061237641e-05 0.0 
7.672061237641e-05 8.955026903671e-03 0.0 
0.0 0.0 0.0 
2.495606123566e-04 -2.383429832258e-05 0.0 
-2.383429832258e-05 2.746657986025e-03 0.0 
0.0 0.0 0.0 
2.573653210660e-04 -1.215406837937e-05 0.0 
-1.215406837937e-05 2.967979117960e-03 0.0 
0.0 0.0 0.0 
1.738286298907e-04 -6.038417543882e-05 0.0 
-6.038417543882e-05 1.729369073565e-03 0.0 
0.0 0.0 0.0 
2.335828579949e-04 -4.064964632793e-05 0.0 
-4.064964632793e-05 2.126375647795e-03 0.0 
0.0 0.0 0.0 
3.381925403556e-04 5.086817426806e-05 0.0 
5.086817426806e-05 4.471993235095e-03 0.0 
0.0 0.0 0.0 
3.446766274294e-04 5.453863626143e-05 0.0 
5.453863626143e-05 4.293000965272e-03 0.0 
0.0 0.0 0.0 
-2.302732637647e-04 4.462913604616e-04 0.0 
4.462913604616e-04 7.982170881365e-03 0.0 
0.0 0.0 0.0 
-2.239061236244e-04 4.330241020404e-04 0.0 
4.330241020404e-04 8.245332190540e-03 0.0 
0.0 0.0 0.0 
-2.227459547847e-04 4.810075510587e-04 0.0 
4.810075510587e-04 7.430111936475e-03 0.0 
0.0 0.0 0.0 
3.139056244592e-04 3.682558491146e-04 0.0 
3.682558491146e-04 5.890184611215e-03 0.0 
0.0 0.0 0.0 
3.404729265100e-04 3.474687579764e-04 0.0 
3.474687579764e-04 5.440689465885e-03 0.0 
0.0 0.0 0.0 
3.353747926348e-04 3.773513273640e-04 0.0 
3.773513273640e-04 5.309829381476e-03 0.0 
0.0 0.0 0.0 
-9.410660760515e-05 1.152812898576e-04 0.0 
1.152812898576e-04 9.301048367909e-03 0.0 
0.0 0.0 0.0 
-6.826769788967e-05 1.084264852608e-04 0.0 
1.084264852608e-04 9.568684633622e-03 0.0 
0.0 0.0 0.0 
3.750165627095e-04 1.231096270405e-04 0.0 
1.231096270405e-04 3.121653307357e-03 0.0 
0.0 0.0 0.0 
3.756797358549e-04 1.477289569536e-04 0.0 
1.477289569536e-04 2.965073487177e-03 0.0 
0.0 0.0 0.0 
3.484997129493e-04 5.528331127026e-05 0.0 
5.528331127026e-05 3.020394878427e-03 0.0 
0.0 0.0 0.0 
-9.486181548076e-05 1.740412429504e-04 0.0 
1.740412429504e-04 9.429479533618e-03 0.0 
0.0 0.0 0.0 
1.379944130203e-04 1.109582532729e-04 0.0 
1.109582532729e-04 7.512625370238e-03 0.0 
0.0 0.0 0.0 
1.573370893782e-04 1.270802992555e-04 0.0 
1.270802992555e-04 7.316983626623e-03 0.0 
0.0 0.0 0.0 
1.758231600746e-05 -6.640468442765e-05 0.0 
-6.640468442765e-05 8.707496529654e-04 0.0 
0.0 0.0 0.0 
5.356907253310e-05 -7.238871716529e-05 0.0 
-7.238871716529e-05 1.086607268358e-03 0.0 
0.0 0.0 0.0 
6.543772850032e-05 7.369216047177e-04 0.0 
7.369216047177e-04 2.297609943084e-03 0.0 
0.0 0.0 0.0 
1.529123813981e-04 6.178156787176e-04 0.0 
6.178156787176e-04 1.755290667972e-03 0.0 
0.0 0.0 0.0 
-1.286628533947e-04 2.567250791536e-04 0.0 
2.567250791536e-04 9.291294297858e-03 0.0 
0.0 0.0 0.0 
-1.594608106802e-04 2.674480534707e-04 0.0 
2.674480534707e-04 9.077069515734e-03 0.0 
0.0 0.0 0.0 
-9.494126743246e-05 2.476116999787e-04 0.0 
2.476116999787e-04 9.547215487642e-03 0.0 
0.0 0.0 0.0 
1.745726342380e-04 -1.482424265601e-05 0.0 
-1.482424265601e-05 2.017410651144e-03 0.0 
0.0 0.0 0.0 
-2.757018728137e-05 5.883669377908e-04 0.0 
5.883669377908e-04 7.437728986584e-03 0.0 
0.0 0.0 0.0 
1.498316261216e-04 4.721870835037e-04 0.0 
4.721870835037e-04 7.720633915296e-03 0.0 
0.0 0.0 0.0 
1.657464505609e-04 4.908115862114e-04 0.0 
4.908115862114e-04 7.575550419040e-03 0.0 
0.0 0.0 0.0 
1.240879419329e-04 4.588637065035e-04 0.0 
4.588637065035e-04 7.937692017251e-03 0.0 
0.0 0.0 0.0 
1.090973170316e-05 6.103472547263e-04 0.0 
6.103472547263e-04 7.952592922544e-03 0.0 
0.0 0.0 0.0 
8.305524622313e-06 6.304297612093e-04 0.0 
6.304297612093e-04 8.347846235250e-03 0.0 
0.0 0.0 0.0 
-3.230587139247e-05 6.281584576611e-04 0.0 
6.281584576611e-04 8.533966273558e-03 0.0 
0.0 0.0 0.0 
-1.900130944521e-05 5.178504714666e-05 0.0 
5.178504714666e-05 6.916474457030e-04 0.0 
0.0 0.0 0.0 
-6.994083875013e-05 2.022658762267e-05 0.0 
2.022658762267e-05 9.306959046213e-03 0.0 
0.0 0.0 0.0 
-1.896119614691e-04 2.583935373611e-05 0.0 
2.583935373611e-05 7.064012931072e-03 0.0 
0.0 0.0 0.0 
-1.425428967295e-04 -9.005672498825e-06 0.0 
-9.005672498825e-06 5.443337540422e-04 0.0 
0.0 0.0 0.0 
-1.823002187474e-04 1.692067661625e-05 0.0 
1.692067661625e-05 6.872144084143e-03 0.0 
0.0 0.0 0.0 
-1.755077967920e-04 1.897261168775e-05 0.0 
1.897261168775e-05 7.113482417448e-03 0.0 
0.0 0.0 0.0 
-1.801952664914e-04 8.955351572768e-06 0.0 
8.955351572768e-06 6.654593491231e-03 0.0 
0.0 0.0 0.0 
1.374564854140e-04 -1.711608993310e-05 0.0 
-1.711608993310e-05 1.624500781454e-03 0.0 
0.0 0.0 0.0 
-2.251357610405e-04 4.332661877230e-05 0.0 
4.332661877230e-05 6.940379731774e-03 0.0 
0.0 0.0 0.0 
-2.352863502325e-04 6.486369322463e-05 0.0 
6.486369322463e-05 7.190476285582e-03 0.0 
0.0 0.0 0.0 
-2.760139934719e-05 -6.134020757117e-05 0.0 
-6.134020757117e-05 6.411883437154e-04 0.0 
0.0 0.0 0.0 
-6.583973533845e-05 1.638028439344e-04 0.0 
1.638028439344e-04 9.645605700857e-03 0.0 
0.0 0.0 0.0 
-1.032278679780e-05 -5.313170452186e-05 0.0 
-5.313170452186e-05 6.678350100055e-04 0.0 
0.0 0.0 0.0 
2.722205703285e-05 -5.025834458144e-05 0.0 
-5.025834458144e-05 8.157602587330e-04 0.0 
0.0 0.0 0.0 
1.569343347193e-04 3.175579718366e-04 0.0 
3.175579718366e-04 7.612191156757e-03 0.0 
0.0 0.0 0.0 
1.851191900797e-04 2.694400469117e-04 0.0 
2.694400469117e-04 7.321038713210e-03 0.0 
0.0 0.0 0.0 
1.252835274485e-04 2.901995589574e-04 0.0 
2.901995589574e-04 7.774091574150e-03 0.0 
0.0 0.0 0.0 
1.542084828288e-04 2.515896897514e-04 0.0 
2.515896897514e-04 7.483806859952e-03 0.0 
0.0 0.0 0.0 
2.119105973354e-04 2.280657008679e-04 0.0 
2.280657008679e-04 7.034768630759e-03 0.0 
0.0 0.0 0.0 
1.867151194017e-04 2.114501384260e-04 0.0 
2.114501384260e-04 7.223838517926e-03 0.0 
0.0 0.0 0.0 
-2.017713947772e-04 2.102454943768e-05 0.0 
2.102454943768e-05 6.827773233828e-03 0.0 
0.0 0.0 0.0 
1.217924604781e-04 2.372375731375e-04 0.0 
2.372375731375e-04 7.740501600629e-03 0.0 
0.0 0.0 0.0 
1.575243681428e-04 1.889009767581e-04 0.0 
1.889009767581e-04 7.422128665018e-03 0.0 
0.0 0.0 0.0 
9.228129598845e-05 2.094525456637e-04 0.0 
2.094525456637e-04 7.941984216899e-03 0.0 
0.0 0.0 0.0 
-3.470838142188e-04 1.553002985331e-04 0.0 
1.553002985331e-04 5.577261467494e-03 0.0 
0.0 0.0 0.0 
-2.787641030264e-04 5.377276194414e-04 0.0 
5.377276194414e-04 4.384842944519e-03 0.0 
0.0 0.0 0.0 
-3.268941760281e-04 4.269609634869e-04 0.0 
4.269609634869e-04 4.368313265459e-03 0.0 
0.0 0.0 0.0 
-3.149249602704e-04 3.596267443490e-04 0.0 
3.596267443490e-04 4.029678086976e-03 0.0 
0.0 0.0 0.0 
-1.028300186715e-04 5.385649479177e-04 0.0 
5.385649479177e-04 9.155291907594e-03 0.0 
0.0 0.0 0.0 
-1.413817736464e-04 4.930484777826e-04 0.0 
4.930484777826e-04 8.980273213078e-03 0.0 
0.0 0.0 0.0 
2.306109643075e-04 4.421736274206e-05 0.0 
4.421736274206e-05 6.550148979438e-03 0.0 
0.0 0.0 0.0 
2.639859229700e-04 3.876828528781e-05 0.0 
3.876828528781e-05 6.094486931644e-03 0.0 
0.0 0.0 0.0 
-1.761312850374e-04 1.221974947050e-05 0.0 
1.221974947050e-05 6.893825277468e-03 0.0 
0.0 0.0 0.0 
-1.706353888802e-04 6.431969724609e-06 0.0 
6.431969724609e-06 6.869741186985e-03 0.0 
0.0 0.0 0.0 
-1.660005822017e-04 1.893187682899e-05 0.0 
1.893187682899e-05 7.251635423307e-03 0.0 
0.0 0.0 0.0 
-1.631496527397e-04 8.602372056450e-06 0.0 
8.602372056450e-06 7.199724621029e-03 0.0 
0.0 0.0 0.0 
-1.561066267012e-04 2.038146922959e-05 0.0 
2.038146922959e-05 7.581377325482e-03 0.0 
0.0 0.0 0.0 
-1.521177937655e-04 7.777999965697e-06 0.0 
7.777999965697e-06 7.521416079068e-03 0.0 
0.0 0.0 0.0 
-1.416102225013e-04 1.188110322763e-05 0.0 
1.188110322763e-05 7.908366216707e-03 0.0 
0.0 0.0 0.0 
-4.285307818568e-05 6.413765596136e-04 0.0 
6.413765596136e-04 8.848213678564e-03 0.0 
0.0 0.0 0.0 
-2.586604967992e-04 5.623676427906e-04 0.0 
5.623676427906e-04 3.411189335210e-03 0.0 
0.0 0.0 0.0 
-3.387437717062e-04 1.317986828748e-04 0.0 
1.317986828748e-04 6.026551805146e-03 0.0 
0.0 0.0 0.0 
6.776901556826e-05 6.169109456737e-04 0.0 
6.169109456737e-04 8.253062754886e-03 0.0 
0.0 0.0 0.0 
9.773064642612e-05 5.836853967489e-04 0.0 
5.836853967489e-04 7.910173143319e-03 0.0 
0.0 0.0 0.0 
-3.576110978076e-04 2.422661275132e-04 0.0 
2.422661275132e-04 5.447590223509e-03 0.0 
0.0 0.0 0.0 
-3.474125545689e-04 1.979509418061e-04 0.0 
1.979509418061e-04 5.097646592868e-03 0.0 
0.0 0.0 0.0 
1.321943179960e-04 3.868988553929e-04 0.0 
3.868988553929e-04 7.805745250995e-03 0.0 
0.0 0.0 0.0 
-1.764760453680e-05 6.759566844751e-04 0.0 
6.759566844751e-04 4.324692024383e-03 0.0 
0.0 0.0 0.0 
-4.849997286687e-05 1.928741922382e-04 0.0 
1.928741922382e-04 9.859360107658e-03 0.0 
0.0 0.0 0.0 
-2.306960645510e-04 1.773935902365e-04 0.0 
1.773935902365e-04 4.255414769768e-04 0.0 
0.0 0.0 0.0 
-9.720663826255e-07 2.196969969933e-04 0.0 
2.196969969933e-04 7.426106097928e-04 0.0 
0.0 0.0 0.0 
-9.637407468760e-05 6.446635512659e-04 0.0 
6.446635512659e-04 4.716897719983e-03 0.0 
0.0 0.0 0.0 
-3.567441062478e-04 2.802291611296e-04 0.0 
2.802291611296e-04 5.807324105840e-03 0.0 
0.0 0.0 0.0 
-3.093815086649e-04 4.653275842737e-04 0.0 
4.653275842737e-04 4.698236370610e-03 0.0 
0.0 0.0 0.0 
-3.346145715421e-04 3.691054144344e-04 0.0 
3.691054144344e-04 4.663175121091e-03 0.0 
0.0 0.0 0.0 
2.821251728774e-04 3.905278547863e-04 0.0 
3.905278547863e-04 6.348453591776e-03 0.0 
0.0 0.0 0.0 
2.547238387168e-05 -7.531730465708e-05 0.0 
-7.531730465708e-05 9.377875784583e-04 0.0 
0.0 0.0 0.0 
-5.943138816722e-05 7.587127613958e-04 0.0 
7.587127613958e-04 2.843535826415e-03 0.0 
0.0 0.0 0.0 
-1.430703090518e-04 2.909602318559e-05 0.0 
2.909602318559e-05 7.955699539089e-03 0.0 
0.0 0.0 0.0 
-7.367114167839e-05 7.437674258238e-04 0.0 
7.437674258238e-04 2.478558486955e-03 0.0 
0.0 0.0 0.0 
2.471870357563e-04 2.116139345734e-05 0.0 
2.116139345734e-05 6.328981830787e-03 0.0 
0.0 0.0 0.0 
6.926776829449e-05 6.594814776285e-04 0.0 
6.594814776285e-04 4.331887145009e-03 0.0 
0.0 0.0 0.0 
-3.170008294248e-04 4.113830987558e-04 0.0 
4.113830987558e-04 5.983248948256e-03 0.0 
0.0 0.0 0.0 
-4.247515077901e-05 7.480539589143e-04 0.0 
7.480539589143e-04 3.201052563614e-03 0.0 
0.0 0.0 0.0 
-2.048193753657e-04 6.148278705460e-04 0.0 
6.148278705460e-04 4.387008629265e-03 0.0 
0.0 0.0 0.0 
-3.260777703037e-04 2.374961339068e-04 0.0 
2.374961339068e-04 7.143046303312e-03 0.0 
0.0 0.0 0.0 
-3.226317051546e-04 1.522200884096e-04 0.0 
1.522200884096e-04 6.854603247547e-03 0.0 
0.0 0.0 0.0 
-3.335398283283e-04 1.597343254554e-04 0.0 
1.597343254554e-04 6.627434030579e-03 0.0 
0.0 0.0 0.0 
1.450487160528e-04 6.254439449560e-04 0.0 
6.254439449560e-04 4.356314820062e-03 0.0 
0.0 0.0 0.0 
-3.485406843641e-04 3.176223251913e-04 0.0 
3.176223251913e-04 4.941684648211e-03 0.0 
0.0 0.0 0.0 
-3.326779370264e-04 2.545723299669e-04 0.0 
2.545723299669e-04 4.558530350445e-03 0.0 
0.0 0.0 0.0 
-3.323240924607e-04 3.200990322605e-04 0.0 
3.200990322605e-04 6.778251647814e-03 0.0 
0.0 0.0 0.0 
-1.985147103094e-04 2.385676878149e-04 0.0 
2.385676878149e-04 8.693469763512e-03 0.0 
0.0 0.0 0.0 
-1.884900380717e-04 2.761097197050e-04 0.0 
2.761097197050e-04 8.845984719498e-03 0.0 
0.0 0.0 0.0 
-1.451059596433e-04 3.036944780818e-04 0.0 
3.036944780818e-04 9.211004995053e-03 0.0 
0.0 0.0 0.0 
-1.754617241410e-04 3.141563754788e-04 0.0 
3.141563754788e-04 8.990202616709e-03 0.0 
0.0 0.0 0.0 
-2.157468601394e-04 2.827378442601e-04 0.0 
2.827378442601e-04 8.614988971025e-03 0.0 
0.0 0.0 0.0 
-2.021788367974e-04 3.215751079232e-04 0.0 
3.215751079232e-04 8.756917511259e-03 0.0 
0.0 0.0 0.0 
-1.555243728851e-04 3.547355190475e-04 0.0 
3.547355190475e-04 9.129267988145e-03 0.0 
0.0 0.0 0.0 
-1.823548020486e-04 3.650270261648e-04 0.0 
3.650270261648e-04 8.901484147622e-03 0.0 
0.0 0.0 0.0 
-1.252876530767e-04 4.003660333317e-04 0.0 
4.003660333317e-04 9.334762948534e-03 0.0 
0.0 0.0 0.0 
-1.620077222796e-04 4.063831470296e-04 0.0 
4.063831470296e-04 9.025125667221e-03 0.0 
0.0 0.0 0.0 
-2.083943257714e-04 3.742319298302e-04 0.0 
3.742319298302e-04 8.644312907976e-03 0.0 
0.0 0.0 0.0 
-1.903249767877e-04 4.148555309104e-04 0.0 
4.148555309104e-04 8.759896861063e-03 0.0 
0.0 0.0 0.0 
-1.460914020412e-04 4.478823094718e-04 0.0 
4.478823094718e-04 9.106170246753e-03 0.0 
0.0 0.0 0.0 
-2.316491005724e-04 3.818168083345e-04 0.0 
3.818168083345e-04 8.386107304358e-03 0.0 
0.0 0.0 0.0 
3.734196297448e-05 6.477928771715e-04 0.0 
6.477928771715e-04 8.564203510637e-03 0.0 
0.0 0.0 0.0 
-8.286360367425e-05 6.258981870903e-04 0.0 
6.258981870903e-04 5.101161106757e-03 0.0 
0.0 0.0 0.0 
1.016980473284e-04 1.764692608897e-04 0.0 
1.764692608897e-04 9.395858132553e-04 0.0 
0.0 0.0 0.0 
1.005035626867e-04 4.007872225383e-04 0.0 
4.007872225383e-04 1.070321867184e-03 0.0 
0.0 0.0 0.0 
-3.275282124287e-04 3.751464928129e-04 0.0 
3.751464928129e-04 6.258002592162e-03 0.0 
0.0 0.0 0.0 
-6.380558857041e-05 4.157029774538e-04 0.0 
4.157029774538e-04 9.727745986180e-03 0.0 
0.0 0.0 0.0 
-5.986054861127e-05 3.404461221241e-04 0.0 
3.404461221241e-04 9.809028358142e-03 0.0 
0.0 0.0 0.0 
1.654529738419e-04 6.622425052050e-04 0.0 
6.622425052050e-04 3.498901299379e-03 0.0 
0.0 0.0 0.0 
-5.064264128953e-05 5.888379901563e-04 0.0 
5.888379901563e-04 9.486960445938e-03 0.0 
0.0 0.0 0.0 
-3.382594351419e-04 2.028404735382e-04 0.0 
2.028404735382e-04 6.770066093256e-03 0.0 
0.0 0.0 0.0 
3.047827385791e-04 4.804571422740e-04 0.0 
4.804571422740e-04 2.199242999374e-03 0.0 
0.0 0.0 0.0 
-3.655209383082e-05 6.420242634851e-04 0.0 
6.420242634851e-04 9.343222345180e-03 0.0 
0.0 0.0 0.0 
-2.247536984664e-04 2.450418732952e-04 0.0 
2.450418732952e-04 8.464042698181e-03 0.0 
0.0 0.0 0.0 
-2.492398240493e-04 2.490857299094e-04 0.0 
2.490857299094e-04 8.228672463520e-03 0.0 
0.0 0.0 0.0 
-2.536888080236e-04 2.122113498372e-04 0.0 
2.122113498372e-04 8.075499395529e-03 0.0 
0.0 0.0 0.0 
-4.903492769108e-05 2.785836092978e-04 0.0 
2.785836092978e-04 9.873605142029e-03 0.0 
0.0 0.0 0.0 
-2.263126030650e-04 9.039880623485e-05 0.0 
9.039880623485e-05 7.608042741654e-03 0.0 
0.0 0.0 0.0 
-1.117907047007e-06 6.893605768519e-04 0.0 
6.893605768519e-04 9.022995718788e-03 0.0 
0.0 0.0 0.0 
1.537180954562e-04 5.521567557340e-04 0.0 
5.521567557340e-04 6.119243241124e-03 0.0 
0.0 0.0 0.0 
1.106574405514e-04 5.736349625418e-04 0.0 
5.736349625418e-04 6.038575555302e-03 0.0 
0.0 0.0 0.0 
1.194755430555e-04 5.817272554589e-04 0.0 
5.817272554589e-04 5.617622907033e-03 0.0 
0.0 0.0 0.0 
-2.265590989862e-04 3.296047388681e-04 0.0 
3.296047388681e-04 8.512920634801e-03 0.0 
0.0 0.0 0.0 
4.107893920206e-05 6.350341977278e-04 0.0 
6.350341977278e-04 8.647634610237e-03 0.0 
0.0 0.0 0.0 
8.335124367220e-05 5.873500067081e-04 0.0 
5.873500067081e-04 8.233505087562e-03 0.0 
0.0 0.0 0.0 
9.547211154914e-05 5.588744499275e-04 0.0 
5.588744499275e-04 8.158231014996e-03 0.0 
0.0 0.0 0.0 
1.259868078643e-04 5.454544111987e-04 0.0 
5.454544111987e-04 7.787121573409e-03 0.0 
0.0 0.0 0.0 
5.546113551661e-05 5.760778856609e-04 0.0 
5.760778856609e-04 8.504041858111e-03 0.0 
0.0 0.0 0.0 
-5.661312848667e-05 4.885777490552e-04 0.0 
4.885777490552e-04 9.677798643353e-03 0.0 
0.0 0.0 0.0 
-5.309893672565e-05 5.248856499555e-04 0.0 
5.248856499555e-04 9.636196409196e-03 0.0 
0.0 0.0 0.0 
3.472702146997e-04 1.059507976548e-04 0.0 
1.059507976548e-04 2.537101215576e-03 0.0 
0.0 0.0 0.0 
3.747183184206e-04 1.786626164079e-04 0.0 
1.786626164079e-04 2.812430611228e-03 0.0 
0.0 0.0 0.0 
3.897053453820e-04 2.179015774400e-04 0.0 
2.179015774400e-04 3.247136462450e-03 0.0 
0.0 0.0 0.0 
3.862141673138e-04 2.578086995689e-04 0.0 
2.578086995689e-04 3.105199875567e-03 0.0 
0.0 0.0 0.0 
3.716779942274e-04 2.169226683201e-04 0.0 
2.169226683201e-04 2.662267978817e-03 0.0 
0.0 0.0 0.0 
3.787299575914e-04 3.061947906854e-04 0.0 
3.061947906854e-04 2.968879313185e-03 0.0 
0.0 0.0 0.0 
3.792205251514e-04 3.378889372257e-04 0.0 
3.378889372257e-04 3.416222285588e-03 0.0 
0.0 0.0 0.0 
3.656915372541e-04 3.643328974434e-04 0.0 
3.643328974434e-04 2.843011789138e-03 0.0 
0.0 0.0 0.0 
-1.847839996855e-04 4.609866376175e-04 0.0 
4.609866376175e-04 8.619051475186e-03 0.0 
0.0 0.0 0.0 
6.094818577488e-05 5.077364844301e-04 0.0 
5.077364844301e-04 8.395158937256e-03 0.0 
0.0 0.0 0.0 
3.527048247846e-04 2.530873765041e-04 0.0 
2.530873765041e-04 5.454836556859e-03 0.0 
0.0 0.0 0.0 
3.598464798528e-04 2.740053580560e-04 0.0 
2.740053580560e-04 5.293639116112e-03 0.0 
0.0 0.0 0.0 
3.780642535182e-04 2.482639583302e-04 0.0 
2.482639583302e-04 4.848701995307e-03 0.0 
0.0 0.0 0.0 
3.365078430568e-04 3.248425819424e-05 0.0 
3.248425819424e-05 3.868039813355e-03 0.0 
0.0 0.0 0.0 
3.510411153570e-04 5.820291946798e-05 0.0 
5.820291946798e-05 4.114822839866e-03 0.0 
0.0 0.0 0.0 
3.533105069993e-04 8.223042525549e-05 0.0 
8.223042525549e-05 4.543949971828e-03 0.0 
0.0 0.0 0.0 
3.188391066276e-04 1.209895950983e-05 0.0 
1.209895950983e-05 3.625992524619e-03 0.0 
0.0 0.0 0.0 
-1.161618308332e-04 5.589398865226e-04 0.0 
5.589398865226e-04 7.281504083976e-03 0.0 
0.0 0.0 0.0 
6.313960584603e-05 4.675935522685e-04 0.0 
4.675935522685e-04 8.338369038492e-03 0.0 
0.0 0.0 0.0 
3.011614795508e-04 4.249663779011e-04 0.0 
4.249663779011e-04 5.633587811272e-03 0.0 
0.0 0.0 0.0 
3.568977432483e-04 6.271416334399e-05 0.0 
6.271416334399e-05 3.937536904444e-03 0.0 
0.0 0.0 0.0 
-2.609234402739e-04 4.417885986727e-05 0.0 
4.417885986727e-05 6.532180766120e-03 0.0 
0.0 0.0 0.0 
-2.657798533913e-04 7.698834432946e-05 0.0 
7.698834432946e-05 6.893531561981e-03 0.0 
0.0 0.0 0.0 
-2.830690412027e-04 8.770870473917e-05 0.0 
8.770870473917e-05 6.895735391101e-03 0.0 
0.0 0.0 0.0 
-2.652961704813e-04 1.082230261569e-04 0.0 
1.082230261569e-04 7.284013351343e-03 0.0 
0.0 0.0 0.0 
-2.504275429272e-04 5.943456940308e-05 0.0 
5.943456940308e-05 6.932983610406e-03 0.0 
0.0 0.0 0.0 
3.305719365811e-04 4.674114472843e-05 0.0 
4.674114472843e-05 4.653402309338e-03 0.0 
0.0 0.0 0.0 
3.228907545378e-04 4.190059790443e-05 0.0 
4.190059790443e-05 4.836322230439e-03 0.0 
0.0 0.0 0.0 
3.199035402907e-04 2.636595609392e-05 0.0 
2.636595609392e-05 4.596331472219e-03 0.0 
0.0 0.0 0.0 
3.155648341846e-04 3.533986479236e-05 0.0 
3.533986479236e-05 5.020250340982e-03 0.0 
0.0 0.0 0.0 
3.165581227947e-04 1.906974258930e-05 0.0 
1.906974258930e-05 4.770574147838e-03 0.0 
0.0 0.0 0.0 
3.177402574053e-04 1.242367491141e-05 0.0 
1.242367491141e-05 4.379197094518e-03 0.0 
0.0 0.0 0.0 
3.091217056393e-04 2.538294947212e-05 0.0 
2.538294947212e-05 5.197207870731e-03 0.0 
0.0 0.0 0.0 
3.112492157738e-04 1.464768188409e-05 0.0 
1.464768188409e-05 4.920396478192e-03 0.0 
0.0 0.0 0.0 
-2.334481332760e-04 2.573429400313e-05 0.0 
2.573429400313e-05 6.526415059300e-03 0.0 
0.0 0.0 0.0 
-2.416906547009e-04 -4.629756541022e-05 0.0 
-4.629756541022e-05 3.656469864955e-04 0.0 
0.0 0.0 0.0 
-9.367012115419e-05 -5.909807575298e-05 0.0 
-5.909807575298e-05 6.332692894537e-04 0.0 
0.0 0.0 0.0 
-9.150256128162e-05 -6.792345324941e-05 0.0 
-6.792345324941e-05 6.184989496728e-04 0.0 
0.0 0.0 0.0 
1.618586271847e-05 -6.351891125973e-05 0.0 
-6.351891125973e-05 9.274245725250e-04 0.0 
0.0 0.0 0.0 
3.846618171710e-05 -3.564062090634e-05 0.0 
-3.564062090634e-05 9.517951277475e-04 0.0 
0.0 0.0 0.0 
1.393209415080e-04 -2.484121925449e-05 0.0 
-2.484121925449e-05 1.290092339957e-03 0.0 
0.0 0.0 0.0 
1.450857454129e-04 -2.096848974780e-06 0.0 
-2.096848974780e-06 1.243477382027e-03 0.0 
0.0 0.0 0.0 
-8.932116933382e-05 -5.042512653817e-05 0.0 
-5.042512653817e-05 6.360540679917e-04 0.0 
0.0 0.0 0.0 
-1.940085209156e-04 -4.589776088282e-05 0.0 
-4.589776088282e-05 3.415961229632e-04 0.0 
0.0 0.0 0.0 
-7.741974249059e-05 -6.711317066295e-05 0.0 
-6.711317066295e-05 6.113145729990e-04 0.0 
0.0 0.0 0.0 
-1.647832252813e-04 -4.299852941281e-05 0.0 
-4.299852941281e-05 3.257597521937e-04 0.0 
0.0 0.0 0.0 
-6.576279638374e-05 -6.827418360143e-05 0.0 
-6.827418360143e-05 5.941405255568e-04 0.0 
0.0 0.0 0.0 
2.905279864948e-05 -7.321293367009e-05 0.0 
-7.321293367009e-05 9.651168873308e-04 0.0 
0.0 0.0 0.0 
1.274018741135e-04 -6.823183699667e-05 0.0 
-6.823183699667e-05 1.487141139096e-03 0.0 
0.0 0.0 0.0 
6.507181033449e-05 1.220928780347e-04 0.0 
1.220928780347e-04 8.015381601283e-03 0.0 
0.0 0.0 0.0 
2.938092732679e-04 1.073883292266e-06 0.0 
1.073883292266e-06 3.734463889009e-03 0.0 
0.0 0.0 0.0 
2.849195300207e-04 9.641906373326e-07 0.0 
9.641906373326e-07 3.534676672588e-03 0.0 
0.0 0.0 0.0 
2.673434808004e-04 -4.234799568356e-06 0.0 
-4.234799568356e-06 3.136021684903e-03 0.0 
0.0 0.0 0.0 
2.792301576984e-04 -6.583146873618e-06 0.0 
-6.583146873618e-06 3.351668676466e-03 0.0 
0.0 0.0 0.0 
2.998127805526e-04 6.334447562181e-06 0.0 
6.334447562181e-06 3.901970549683e-03 0.0 
0.0 0.0 0.0 
2.509906939200e-04 -2.948393759236e-06 0.0 
-2.948393759236e-06 2.918295935234e-03 0.0 
0.0 0.0 0.0 
2.409974218193e-04 -7.585180999483e-06 0.0 
-7.585180999483e-06 2.771961346182e-03 0.0 
0.0 0.0 0.0 
7.973098270275e-06 -9.043846699808e-06 0.0 
-9.043846699808e-06 2.546281103943e-04 0.0 
0.0 0.0 0.0 
3.883798462952e-05 -1.875378130132e-05 0.0 
-1.875378130132e-05 5.611348648964e-04 0.0 
0.0 0.0 0.0 
2.900538897935e-05 -9.799149073548e-06 0.0 
-9.799149073548e-06 5.291374061437e-04 0.0 
0.0 0.0 0.0 
6.510195380782e-05 -1.325679448342e-05 0.0 
-1.325679448342e-05 9.070693126486e-04 0.0 
0.0 0.0 0.0 
6.675322629261e-05 -2.496105911645e-05 0.0 
-2.496105911645e-05 8.991411133918e-04 0.0 
0.0 0.0 0.0 
3.548574863891e-05 -2.175546464598e-05 0.0 
-2.175546464598e-05 5.667776119916e-04 0.0 
0.0 0.0 0.0 
2.752435969035e-05 -2.585119595627e-05 0.0 
-2.585119595627e-05 5.711117116413e-04 0.0 
0.0 0.0 0.0 
-1.172461062580e-05 -1.914870344042e-05 0.0 
-1.914870344042e-05 2.619795690430e-04 0.0 
0.0 0.0 0.0 
2.237634165064e-05 -3.352640734582e-05 0.0 
-3.352640734582e-05 5.727210888991e-04 0.0 
0.0 0.0 0.0 
6.209818246657e-05 -3.667891994566e-05 0.0 
-3.667891994566e-05 9.189681296777e-04 0.0 
0.0 0.0 0.0 
-2.315413982553e-05 -2.386641287355e-05 0.0 
-2.386641287355e-05 2.569701441075e-04 0.0 
0.0 0.0 0.0 
-1.172161689802e-04 4.411475989166e-06 0.0 
4.411475989166e-06 8.452792822385e-03 0.0 
0.0 0.0 0.0 
-1.078185709777e-04 1.555241434584e-05 0.0 
1.555241434584e-05 8.676638605697e-03 0.0 
0.0 0.0 0.0 
6.789003076590e-05 3.897032534285e-04 0.0 
3.897032534285e-04 8.225621557660e-03 0.0 
0.0 0.0 0.0 
-2.091781351777e-04 1.474949795853e-05 0.0 
1.474949795853e-05 6.568448428428e-03 0.0 
0.0 0.0 0.0 
-1.107642969870e-04 -3.574385085165e-05 0.0 
-3.574385085165e-05 3.078231244144e-04 0.0 
0.0 0.0 0.0 
-3.598832845802e-05 6.961445152125e-05 0.0 
6.961445152125e-05 9.873089461704e-03 0.0 
0.0 0.0 0.0 
-3.501593291583e-05 1.253512748537e-04 0.0 
1.253512748537e-04 9.925949860311e-03 0.0 
0.0 0.0 0.0 
-3.004902816360e-05 1.094863330549e-04 0.0 
1.094863330549e-04 9.937791205516e-03 0.0 
0.0 0.0 0.0 
1.590097139339e-04 2.731259041814e-05 0.0 
2.731259041814e-05 7.262959991148e-03 0.0 
0.0 0.0 0.0 
1.354349902966e-04 5.352513129012e-05 0.0 
5.352513129012e-05 7.497000035936e-03 0.0 
0.0 0.0 0.0 
-3.295073746464e-05 4.024716270409e-05 0.0 
4.024716270409e-05 9.888186571752e-03 0.0 
0.0 0.0 0.0 
2.522280319766e-04 -3.456303540283e-05 0.0 
-3.456303540283e-05 2.445823918087e-03 0.0 
0.0 0.0 0.0 
-1.285769860868e-04 3.452378636830e-04 0.0 
3.452378636830e-04 9.349339898163e-03 0.0 
0.0 0.0 0.0 
-8.992937172884e-05 7.066257806854e-05 0.0 
7.066257806854e-05 9.177712629159e-03 0.0 
0.0 0.0 0.0 
2.567265536230e-04 5.736749412820e-04 0.0 
5.736749412820e-04 2.168612605910e-03 0.0 
0.0 0.0 0.0 
2.759366649898e-04 -1.454903950805e-05 0.0 
-1.454903950805e-05 2.368783139757e-03 0.0 
0.0 0.0 0.0 
2.812508145400e-04 5.376959283135e-05 0.0 
5.376959283135e-05 5.891225804690e-03 0.0 
0.0 0.0 0.0 
3.320073327651e-04 1.279288546731e-04 0.0 
1.279288546731e-04 5.413593723355e-03 0.0 
0.0 0.0 0.0 
2.111260588113e-04 1.176327681711e-04 0.0 
1.176327681711e-04 6.860476884330e-03 0.0 
0.0 0.0 0.0 
3.089607021534e-04 7.793869386814e-05 0.0 
7.793869386814e-05 5.514980203827e-03 0.0 
0.0 0.0 0.0 
2.559546783670e-04 1.536795048296e-04 0.0 
1.536795048296e-04 6.489856102836e-03 0.0 
0.0 0.0 0.0 
1.109740552635e-04 5.274350160991e-04 0.0 
5.274350160991e-04 8.047539690051e-03 0.0 
0.0 0.0 0.0 
1.261096700046e-04 -2.896027570157e-05 0.0 
-2.896027570157e-05 1.491859188040e-03 0.0 
0.0 0.0 0.0 
-1.837015598899e-04 5.575412255219e-05 0.0 
5.575412255219e-05 7.689178867025e-03 0.0 
0.0 0.0 0.0 
-1.669069099123e-04 3.047709128834e-05 0.0 
3.047709128834e-05 7.536925711233e-03 0.0 
0.0 0.0 0.0 
-1.328906494123e-04 6.520143422704e-05 0.0 
6.520143422704e-05 8.550435561249e-03 0.0 
0.0 0.0 0.0 
2.393981031859e-04 -3.174007991565e-05 0.0 
-3.174007991565e-05 2.566633881188e-03 0.0 
0.0 0.0 0.0 
3.175320285425e-04 1.387435738555e-05 0.0 
1.387435738555e-05 4.187445924084e-03 0.0 
0.0 0.0 0.0 
1.358170631880e-04 -5.871446195895e-05 0.0 
-5.871446195895e-05 1.591790751362e-03 0.0 
0.0 0.0 0.0 
-7.312999135426e-05 6.006681704978e-04 0.0 
6.006681704978e-04 9.070157342263e-03 0.0 
0.0 0.0 0.0 
-3.476248668903e-04 2.879217519407e-04 0.0 
2.879217519407e-04 6.417115201856e-03 0.0 
0.0 0.0 0.0 
3.849058639602e-04 1.983363802492e-04 0.0 
1.983363802492e-04 4.565010808729e-03 0.0 
0.0 0.0 0.0 
3.200277475903e-04 1.052368486965e-05 0.0 
1.052368486965e-05 3.446643930193e-03 0.0 
0.0 0.0 0.0 
2.860790265774e-04 -1.578172853734e-05 0.0 
-1.578172853734e-05 2.683919218009e-03 0.0 
0.0 0.0 0.0 
2.682951960432e-04 -1.120574148188e-05 0.0 
-1.120574148188e-05 2.204788810767e-03 0.0 
0.0 0.0 0.0 
-1.426159078960e-04 5.925221930485e-04 0.0 
5.925221930485e-04 5.461815783730e-03 0.0 
0.0 0.0 0.0 
3.694570421859e-04 9.718257502406e-05 0.0 
9.718257502406e-05 4.192467704292e-03 0.0 
0.0 0.0 0.0 
2.966340769961e-04 2.425061226385e-04 0.0 
2.425061226385e-04 6.235546111239e-03 0.0 
0.0 0.0 0.0 
-1.154686110777e-04 6.035543006958e-05 0.0 
6.035543006958e-05 8.774688674175e-03 0.0 
0.0 0.0 0.0 
-7.602283546504e-05 -2.999826209556e-05 0.0 
-2.999826209556e-05 3.264091796405e-04 0.0 
0.0 0.0 0.0 
2.758318238721e-04 2.856940119711e-04 0.0 
2.856940119711e-04 6.522336530923e-03 0.0 
0.0 0.0 0.0 
3.579688383710e-04 1.511896377029e-04 0.0 
1.511896377029e-04 5.064041510342e-03 0.0 
0.0 0.0 0.0 
-2.077119735172e-04 9.211845619432e-05 0.0 
9.211845619432e-05 7.837359250492e-03 0.0 
0.0 0.0 0.0 
1.474294694124e-04 5.448450807210e-04 0.0 
5.448450807210e-04 7.072410470769e-03 0.0 
0.0 0.0 0.0 
1.717874973849e-04 -3.250856031533e-05 0.0 
-3.250856031533e-05 1.484623705828e-03 0.0 
0.0 0.0 0.0 
-1.452361171866e-04 1.076506563065e-04 0.0 
1.076506563065e-04 8.689575618894e-03 0.0 
0.0 0.0 0.0 
-1.146988787121e-04 2.125595426166e-04 0.0 
2.125595426166e-04 9.349393247362e-03 0.0 
0.0 0.0 0.0 
-2.419515699131e-04 8.550308975540e-05 0.0 
8.550308975540e-05 7.380149116429e-03 0.0 
0.0 0.0 0.0 
8.325153046666e-05 -5.864411795424e-05 0.0 
-5.864411795424e-05 1.196732318842e-03 0.0 
0.0 0.0 0.0 
-1.960361697187e-04 3.911151186199e-05 0.0 
3.911151186199e-05 7.267923296372e-03 0.0 
0.0 0.0 0.0 
1.628994740669e-04 4.025553947521e-04 0.0 
4.025553947521e-04 7.580810432194e-03 0.0 
0.0 0.0 0.0 
-2.056502191740e-04 2.031177336984e-04 0.0 
2.031177336984e-04 8.533833416651e-03 0.0 
0.0 0.0 0.0 
2.139736304339e-04 -3.508643694277e-05 0.0 
-3.508643694277e-05 2.337472827398e-03 0.0 
0.0 0.0 0.0 
3.048381535147e-04 4.484199957773e-04 0.0 
4.484199957773e-04 5.080579814019e-03 0.0 
0.0 0.0 0.0 
-2.772221425414e-04 4.687168037853e-04 0.0 
4.687168037853e-04 6.052117043810e-03 0.0 
0.0 0.0 0.0 
-3.139024533970e-04 8.419326732813e-05 0.0 
8.419326732813e-05 6.103594943786e-03 0.0 
0.0 0.0 0.0 
-8.238039713078e-05 8.831050689625e-05 0.0 
8.831050689625e-05 9.346342987163e-03 0.0 
0.0 0.0 0.0 
2.231936477322e-06 5.987029371042e-04 0.0 
5.987029371042e-04 5.911534741901e-03 0.0 
0.0 0.0 0.0 
1.714103605808e-04 5.167131185979e-04 0.0 
5.167131185979e-04 7.299371697587e-03 0.0 
0.0 0.0 0.0 
2.607494275236e-04 4.670795583387e-04 0.0 
4.670795583387e-04 5.964975864238e-03 0.0 
0.0 0.0 0.0 
2.254018469087e-04 -2.498262820433e-05 0.0 
-2.498262820433e-05 2.517686678037e-03 0.0 
0.0 0.0 0.0 
2.342013939872e-04 2.465217342306e-04 0.0 
2.465217342306e-04 6.864364983621e-03 0.0 
0.0 0.0 0.0 
1.813350750960e-04 5.621979364467e-04 0.0 
5.621979364467e-04 5.259738248232e-03 0.0 
0.0 0.0 0.0 
-1.166051425125e-04 1.241441143531e-04 0.0 
1.241441143531e-04 9.089123761740e-03 0.0 
0.0 0.0 0.0 
-1.948184452197e-04 4.994194227412e-04 0.0 
4.994194227412e-04 7.803257227494e-03 0.0 
0.0 0.0 0.0 
3.124953306573e-04 4.802812163308e-04 0.0 
4.802812163308e-04 4.095816124533e-03 0.0 
0.0 0.0 0.0 
-1.586540906890e-04 1.615831756326e-04 0.0 
1.615831756326e-04 8.814241290541e-03 0.0 
0.0 0.0 0.0 
3.800470538347e-04 2.737819507288e-04 0.0 
2.737819507288e-04 4.696734655263e-03 0.0 
0.0 0.0 0.0 
1.054445079055e-04 5.728016971823e-04 0.0 
5.728016971823e-04 7.407189038843e-03 0.0 
0.0 0.0 0.0 
-3.476858738349e-04 3.142211430973e-04 0.0 
3.142211430973e-04 6.165091147478e-03 0.0 
0.0 0.0 0.0 
-2.487426091597e-04 4.646430197766e-04 0.0 
4.646430197766e-04 7.061682629216e-03 0.0 
0.0 0.0 0.0 
-2.797550016691e-04 3.608916418165e-04 0.0 
3.608916418165e-04 7.762579620019e-03 0.0 
0.0 0.0 0.0 
-1.524628907899e-04 5.515131980252e-04 0.0 
5.515131980252e-04 6.528628068199e-03 0.0 
0.0 0.0 0.0 
2.907643785471e-04 3.473474748473e-05 0.0 
3.473474748473e-05 5.642876293149e-03 0.0 
0.0 0.0 0.0 
2.559298667253e-04 2.671673190288e-04 0.0 
2.671673190288e-04 6.691477063212e-03 0.0 
0.0 0.0 0.0 
2.761265758895e-04 1.524107494036e-04 0.0 
1.524107494036e-04 1.636423409854e-03 0.0 
0.0 0.0 0.0 
-1.812221626863e-04 6.104178241917e-04 0.0 
6.104178241917e-04 4.737721942650e-03 0.0 
0.0 0.0 0.0 
-2.282257140753e-04 1.144317689167e-04 0.0 
1.144317689167e-04 7.792691312501e-03 0.0 
0.0 0.0 0.0 
-9.561486255361e-05 5.806342837633e-04 0.0 
5.806342837633e-04 8.343827343182e-03 0.0 
0.0 0.0 0.0 
-8.225378648051e-05 1.401963901731e-04 0.0 
1.401963901731e-04 9.480286872949e-03 0.0 
0.0 0.0 0.0 
-2.983762291388e-04 4.546280361099e-04 0.0 
4.546280361099e-04 5.699824655837e-03 0.0 
0.0 0.0 0.0 
2.577878478554e-04 2.067742318298e-04 0.0 
2.067742318298e-04 6.581664346242e-03 0.0 
0.0 0.0 0.0 
-1.247872229089e-04 1.834954554080e-04 0.0 
1.834954554080e-04 9.197042421374e-03 0.0 
0.0 0.0 0.0 
3.618056010691e-04 8.915574248570e-05 0.0 
8.915574248570e-05 4.366773843149e-03 0.0 
0.0 0.0 0.0 
1.478801117704e-04 -8.757205082331e-06 0.0 
-8.757205082331e-06 1.726456564342e-03 0.0 
0.0 0.0 0.0 
2.321756706275e-04 5.364918391658e-04 0.0 
5.364918391658e-04 1.730902892671e-03 0.0 
0.0 0.0 0.0 
3.389392914176e-04 4.575860901991e-04 0.0 
4.575860901991e-04 3.195153243944e-03 0.0 
0.0 0.0 0.0 
6.268095589623e-05 6.017223167397e-04 0.0 
6.017223167397e-04 5.560031557553e-03 0.0 
0.0 0.0 0.0 
3.579588531352e-04 1.145530380694e-04 0.0 
1.145530380694e-04 4.800007518583e-03 0.0 
0.0 0.0 0.0 
-1.088848211743e-04 3.002115644091e-04 0.0 
3.002115644091e-04 9.483275343897e-03 0.0 
0.0 0.0 0.0 
2.361492024738e-04 1.897079353874e-04 0.0 
1.897079353874e-04 6.760842142677e-03 0.0 
0.0 0.0 0.0 
2.756307849216e-04 3.680387945587e-04 0.0 
3.680387945587e-04 6.502937055893e-03 0.0 
0.0 0.0 0.0 
-1.628048012791e-04 6.235450918674e-04 0.0 
6.235450918674e-04 1.512963735562e-03 0.0 
0.0 0.0 0.0 
-3.302536343920e-04 1.255298067791e-04 0.0 
1.255298067791e-04 6.251930759510e-03 0.0 
0.0 0.0 0.0 
2.125178422676e-04 1.708486180793e-04 0.0 
1.708486180793e-04 6.945860197880e-03 0.0 
0.0 0.0 0.0 
3.237202846009e-04 4.113687274890e-04 0.0 
4.113687274890e-04 5.190432100602e-03 0.0 
0.0 0.0 0.0 
1.230512492355e-04 5.624180649289e-04 0.0 
5.624180649289e-04 7.499955032767e-03 0.0 
0.0 0.0 0.0 
3.159020773409e-04 1.038452669596e-05 0.0 
1.038452669596e-05 4.513717399430e-03 0.0 
0.0 0.0 0.0 
-6.174378354305e-05 6.193670692490e-04 0.0 
6.193670692490e-04 8.978740411454e-03 0.0 
0.0 0.0 0.0 
-3.474040744218e-04 1.754184004613e-04 0.0 
1.754184004613e-04 5.340261586019e-03 0.0 
0.0 0.0 0.0 
1.860710664655e-04 1.502086449780e-04 0.0 
1.502086449780e-04 7.141584336842e-03 0.0 
0.0 0.0 0.0 
2.481216566693e-04 4.361924297734e-04 0.0 
4.361924297734e-04 6.663780074535e-03 0.0 
0.0 0.0 0.0 
7.260607462782e-05 6.848294771698e-04 0.0 
6.848294771698e-04 3.919730106433e-03 0.0 
0.0 0.0 0.0 
-1.721650311232e-04 3.198185551714e-06 0.0 
3.198185551714e-06 6.503001996253e-03 0.0 
0.0 0.0 0.0 
1.205966225422e-04 1.661932644050e-04 0.0 
1.661932644050e-04 7.671706004356e-03 0.0 
0.0 0.0 0.0 
2.070476664890e-04 4.585865054670e-04 0.0 
4.585865054670e-04 7.125679933978e-03 0.0 
0.0 0.0 0.0 
-1.342398307835e-04 5.533388591801e-04 0.0 
5.533388591801e-04 6.902606043906e-03 0.0 
0.0 0.0 0.0 
3.557838002196e-04 3.594268901604e-04 0.0 
3.594268901604e-04 4.866783371536e-03 0.0 
0.0 0.0 0.0 
-3.252839985231e-04 9.087639334526e-05 0.0 
9.087639334526e-05 5.663064391393e-03 0.0 
0.0 0.0 0.0 
3.469545256836e-04 1.054128092296e-04 0.0 
1.054128092296e-04 4.976117611764e-03 0.0 
0.0 0.0 0.0 
-2.585993116533e-04 4.410276691483e-04 0.0 
4.410276691483e-04 7.341223696321e-03 0.0 
0.0 0.0 0.0 
-4.449717141817e-05 2.524785162911e-04 0.0 
2.524785162911e-04 9.895988836603e-03 0.0 
0.0 0.0 0.0 
1.676348208300e-04 4.982689050096e-04 0.0 
4.982689050096e-04 7.423389614751e-03 0.0 
0.0 0.0 0.0 
-2.756754326454e-04 2.146715057836e-04 0.0 
2.146715057836e-04 7.841238370378e-03 0.0 
0.0 0.0 0.0 
3.441782291954e-04 7.578629474007e-05 0.0 
7.578629474007e-05 4.720876457148e-03 0.0 
0.0 0.0 0.0 
5.239084358225e-05 5.807549114005e-04 0.0 
5.807549114005e-04 6.794693486880e-03 0.0 
0.0 0.0 0.0 
6.627631327409e-05 -3.333722069730e-05 0.0 
-3.333722069730e-05 9.023868085271e-04 0.0 
0.0 0.0 0.0 
-3.431999625208e-04 1.417176132582e-04 0.0 
1.417176132582e-04 5.804654514831e-03 0.0 
0.0 0.0 0.0 
3.341906006550e-04 6.934921025326e-05 0.0 
6.934921025326e-05 4.899939635185e-03 0.0 
0.0 0.0 0.0 
3.634810278998e-04 3.934441268882e-04 0.0 
3.934441268882e-04 3.297051381016e-03 0.0 
0.0 0.0 0.0 
3.618515070089e-04 3.264334551407e-04 0.0 
3.264334551407e-04 4.997181772981e-03 0.0 
0.0 0.0 0.0 
2.885942502710e-05 6.460652317827e-04 0.0 
6.460652317827e-04 8.457017956845e-03 0.0 
0.0 0.0 0.0 
3.237843481543e-04 6.264594061129e-05 0.0 
6.264594061129e-05 5.081789009837e-03 0.0 
0.0 0.0 0.0 
3.541449685684e-04 4.138738461629e-04 0.0 
4.138738461629e-04 3.746644156558e-03 0.0 
0.0 0.0 0.0 
3.131032868083e-04 5.498797855736e-05 0.0 
5.498797855736e-05 5.265228521493e-03 0.0 
0.0 0.0 0.0 
-3.271851136079e-04 1.091893805609e-04 0.0 
1.091893805609e-04 5.220602714289e-03 0.0 
0.0 0.0 0.0 
-2.716129234102e-04 2.537068335856e-04 0.0 
2.537068335856e-04 7.991772057343e-03 0.0 
0.0 0.0 0.0 
3.031802634664e-04 4.473230371181e-05 0.0 
4.473230371181e-05 5.449054319398e-03 0.0 
0.0 0.0 0.0 
-2.300814467457e-04 4.620291390977e-04 0.0 
4.620291390977e-04 7.710218581102e-03 0.0 
0.0 0.0 0.0 
5.855217962579e-05 -4.912036923698e-05 0.0 
-4.912036923698e-05 9.556089174060e-04 0.0 
0.0 0.0 0.0 
-8.372592559056e-05 5.719805326811e-04 0.0 
5.719805326811e-04 6.964862246896e-03 0.0 
0.0 0.0 0.0 
1.879776073123e-04 5.039758632884e-05 0.0 
5.039758632884e-05 7.016254449037e-03 0.0 
0.0 0.0 0.0 
3.466918064334e-04 4.589786978955e-05 0.0 
4.589786978955e-05 3.178247498397e-03 0.0 
0.0 0.0 0.0 
3.630497705886e-04 2.984455161411e-04 0.0 
2.984455161411e-04 5.139018834442e-03 0.0 
0.0 0.0 0.0 
-2.405158993370e-04 2.883589286562e-04 0.0 
2.883589286562e-04 8.375939645238e-03 0.0 
0.0 0.0 0.0 
-3.229757291666e-04 1.375884983029e-04 0.0 
1.375884983029e-04 4.768322315867e-03 0.0 
0.0 0.0 0.0 
3.402390313337e-04 3.215762603462e-04 0.0 
3.215762603462e-04 5.586446586045e-03 0.0 
0.0 0.0 0.0 
-1.988314906303e-04 4.847939591353e-04 0.0 
4.847939591353e-04 8.083778326239e-03 0.0 
0.0 0.0 0.0 
-3.502984905696e-05 5.837057504480e-04 0.0 
5.837057504480e-04 7.035474795996e-03 0.0 
0.0 0.0 0.0 
5.997636695513e-05 5.902128073773e-04 0.0 
5.902128073773e-04 5.967572580928e-03 0.0 
0.0 0.0 0.0 
3.115824137300e-04 3.447190016376e-04 0.0 
3.447190016376e-04 6.041502665180e-03 0.0 
0.0 0.0 0.0 
-3.436080837877e-04 2.265056319915e-04 0.0 
2.265056319915e-04 4.861270582567e-03 0.0 
0.0 0.0 0.0 
2.427187040954e-04 -3.788503929997e-05 0.0 
-3.788503929997e-05 2.279139641978e-03 0.0 
0.0 0.0 0.0 
1.901015007456e-04 -5.671190541720e-05 0.0 
-5.671190541720e-05 1.882557892076e-03 0.0 
0.0 0.0 0.0 
3.721615293569e-04 3.622441558661e-04 0.0 
3.622441558661e-04 3.859487436434e-03 0.0 
0.0 0.0 0.0 
-1.954084496269e-04 4.719102109701e-04 0.0 
4.719102109701e-04 8.357525260886e-03 0.0 
0.0 0.0 0.0 
9.721545461168e-05 -2.456790826894e-05 0.0 
-2.456790826894e-05 1.240304400465e-03 0.0 
0.0 0.0 0.0 
-2.491641848762e-04 3.381425026105e-04 0.0 
3.381425026105e-04 8.264214184843e-03 0.0 
0.0 0.0 0.0 
1.036694900077e-04 -7.406266053073e-05 0.0 
-7.406266053073e-05 1.330818934514e-03 0.0 
0.0 0.0 0.0 
3.887484145698e-04 2.907068462441e-04 0.0 
2.907068462441e-04 3.544410533905e-03 0.0 
0.0 0.0 0.0 
1.085038577207e-05 5.953822983009e-04 0.0 
5.953822983009e-04 7.542803312341e-03 0.0 
0.0 0.0 0.0 
-1.482306464204e-04 -1.994355261504e-06 0.0 
-1.994355261504e-06 7.652680962602e-03 0.0 
0.0 0.0 0.0 
3.937090691348e-04 2.511164041036e-04 0.0 
2.511164041036e-04 3.679918678017e-03 0.0 
0.0 0.0 0.0 
1.856474363211e-04 -6.776869461972e-06 0.0 
-6.776869461972e-06 2.125331360018e-03 0.0 
0.0 0.0 0.0 
3.904674167888e-04 1.850278701435e-04 0.0 
1.850278701435e-04 3.392985879126e-03 0.0 
0.0 0.0 0.0 
5.667338655846e-05 5.828555188978e-04 0.0 
5.828555188978e-04 6.378015335519e-03 0.0 
0.0 0.0 0.0 
3.891798164234e-04 1.586356726848e-04 0.0 
1.586356726848e-04 3.544449725228e-03 0.0 
0.0 0.0 0.0 
3.731437793459e-04 1.037037877927e-04 0.0 
1.037037877927e-04 3.278228737154e-03 0.0 
0.0 0.0 0.0 
-6.212855151211e-05 7.810513738091e-05 0.0 
7.810513738091e-05 9.572900363033e-03 0.0 
0.0 0.0 0.0 
3.702226510085e-04 8.879333904797e-05 0.0 
8.879333904797e-05 3.435896939245e-03 0.0 
0.0 0.0 0.0 
-2.357657835308e-05 2.092496200117e-05 0.0 
2.092496200117e-05 9.955814738191e-03 0.0 
0.0 0.0 0.0 
6.386775954183e-05 5.378745721355e-05 0.0 
5.378745721355e-05 8.030303427994e-03 0.0 
0.0 0.0 0.0 
-1.667266447248e-04 -2.985645101542e-06 0.0 
-2.985645101542e-06 6.823569703329e-03 0.0 
0.0 0.0 0.0 
-2.986228609607e-04 1.690476446499e-04 0.0 
1.690476446499e-04 4.298037716991e-03 0.0 
0.0 0.0 0.0 
-2.847264694526e-04 4.088377990528e-06 0.0 
4.088377990528e-06 4.013767321142e-04 0.0 
0.0 0.0 0.0 
-3.337904293582e-04 3.254303184934e-04 0.0 
3.254303184934e-04 4.355927993962e-03 0.0 
0.0 0.0 0.0 
3.170297975887e-04 1.519883043089e-05 0.0 
1.519883043089e-05 2.770177996864e-03 0.0 
0.0 0.0 0.0 
-2.479162675557e-04 3.919749135418e-04 0.0 
3.919749135418e-04 8.129966767798e-03 0.0 
0.0 0.0 0.0 
-1.669049223893e-04 6.338104851817e-06 0.0 
6.338104851817e-06 6.840520422623e-03 0.0 
0.0 0.0 0.0 
2.809404739503e-04 -1.527406809964e-05 0.0 
-1.527406809964e-05 2.525041938926e-03 0.0 
0.0 0.0 0.0 
-1.096241163490e-04 4.471144675895e-04 0.0 
4.471144675895e-04 9.378557438239e-03 0.0 
0.0 0.0 0.0 
-1.912258450656e-05 6.773053191896e-04 0.0 
6.773053191896e-04 9.191090781166e-03 0.0 
0.0 0.0 0.0 
-1.270096416836e-04 1.397209253199e-05 0.0 
1.397209253199e-05 8.253539641307e-03 0.0 
0.0 0.0 0.0 
1.288952949971e-04 5.522486889651e-04 0.0 
5.522486889651e-04 7.597543150983e-03 0.0 
0.0 0.0 0.0 
9.313120941527e-06 5.876905883622e-04 0.0 
5.876905883622e-04 7.124451388461e-03 0.0 
0.0 0.0 0.0 
-7.741096992351e-05 8.483587436314e-06 0.0 
8.483587436314e-06 9.221192342918e-03 0.0 
0.0 0.0 0.0 
-1.863956269635e-04 -9.611412799401e-07 0.0 
-9.611412799401e-07 6.478191067841e-03 0.0 
0.0 0.0 0.0 
-5.462648991829e-05 -6.354458290228e-05 0.0 
-6.354458290228e-05 5.864304218193e-04 0.0 
0.0 0.0 0.0 
2.764730044618e-04 1.901882554073e-05 0.0 
1.901882554073e-05 5.868872262949e-03 0.0 
0.0 0.0 0.0 
-2.796977087357e-04 2.283809132484e-04 0.0 
2.283809132484e-04 3.831635986484e-03 0.0 
0.0 0.0 0.0 
-2.983987068651e-04 4.571881679301e-04 0.0 
4.571881679301e-04 3.734254629602e-03 0.0 
0.0 0.0 0.0 
-1.910165237751e-04 6.733414547169e-04 0.0 
6.733414547169e-04 3.008229864613e-03 0.0 
0.0 0.0 0.0 
2.307469422920e-04 -1.676398723024e-05 0.0 
-1.676398723024e-05 2.659916221362e-03 0.0 
0.0 0.0 0.0 
1.395177329174e-05 -6.819501337171e-05 0.0 
-6.819501337171e-05 9.157402308389e-04 0.0 
0.0 0.0 0.0 
-2.690535827783e-04 3.652244295304e-04 0.0 
3.652244295304e-04 3.414073579857e-03 0.0 
0.0 0.0 0.0 
6.912779154914e-05 6.042257442937e-04 0.0 
6.042257442937e-04 8.285852823250e-03 0.0 
0.0 0.0 0.0 
-2.136311559535e-04 2.738816447233e-05 0.0 
2.738816447233e-05 6.863370683603e-03 0.0 
0.0 0.0 0.0 
-2.071773573586e-05 5.985810445863e-04 0.0 
5.985810445863e-04 7.842322185018e-03 0.0 
0.0 0.0 0.0 
-2.047280573814e-04 5.786183178341e-04 0.0 
5.786183178341e-04 2.724209657644e-03 0.0 
0.0 0.0 0.0 
-8.668002986349e-05 2.001570893934e-04 0.0 
2.001570893934e-04 9.567459695041e-03 0.0 
0.0 0.0 0.0 
-9.773388900704e-06 6.544464469025e-04 0.0 
6.544464469025e-04 8.694086954546e-03 0.0 
0.0 0.0 0.0 
6.197125168765e-05 3.031164379504e-04 0.0 
3.031164379504e-04 8.187998855891e-03 0.0 
0.0 0.0 0.0 
-1.370682998919e-05 6.196293479782e-04 0.0 
6.196293479782e-04 8.249448186738e-03 0.0 
0.0 0.0 0.0 
1.540695533384e-05 6.908006374866e-04 0.0 
6.908006374866e-04 1.882438166349e-03 0.0 
0.0 0.0 0.0 
-2.533931350454e-04 8.436049250712e-05 0.0 
8.436049250712e-05 7.209513759417e-03 0.0 
0.0 0.0 0.0 
-8.747502282848e-05 5.728058481263e-04 0.0 
5.728058481263e-04 9.142586336624e-03 0.0 
0.0 0.0 0.0 
-1.136392117821e-04 2.601893900956e-05 0.0 
2.601893900956e-05 8.577093370834e-03 0.0 
0.0 0.0 0.0 
6.192107004130e-05 2.511382404510e-04 0.0 
2.511382404510e-04 8.168711726068e-03 0.0 
0.0 0.0 0.0 
-2.355364981425e-04 4.683237600548e-05 0.0 
4.683237600548e-05 6.815248467214e-03 0.0 
0.0 0.0 0.0 
-5.141266913529e-05 5.310036181196e-05 0.0 
5.310036181196e-05 9.629030848485e-03 0.0 
0.0 0.0 0.0 
2.111632334626e-04 5.565010721929e-05 0.0 
5.565010721929e-05 1.391692827412e-03 0.0 
0.0 0.0 0.0 
-4.794383415336e-05 2.912237555258e-05 0.0 
2.912237555258e-05 9.635394958878e-03 0.0 
0.0 0.0 0.0 
-2.110701231951e-04 4.225742014028e-04 0.0 
4.225742014028e-04 8.503757580925e-03 0.0 
0.0 0.0 0.0 
-1.655782048621e-04 2.484421236768e-05 0.0 
2.484421236768e-05 7.355720194109e-03 0.0 
0.0 0.0 0.0 
-2.810054384980e-04 1.229884730758e-04 0.0 
1.229884730758e-04 7.178998383847e-03 0.0 
0.0 0.0 0.0 
1.045892904814e-04 8.436165144197e-05 0.0 
8.436165144197e-05 7.724189893043e-03 0.0 
0.0 0.0 0.0 
-1.124728453939e-04 3.742838349958e-04 0.0 
3.742838349958e-04 9.457169608838e-03 0.0 
0.0 0.0 0.0 
5.231387958928e-05 5.366802628036e-04 0.0 
5.366802628036e-04 1.292109789355e-03 0.0 
0.0 0.0 0.0 
-1.286454083435e-04 2.881854855137e-05 0.0 
2.881854855137e-05 8.230283868851e-03 0.0 
0.0 0.0 0.0 
2.858979410549e-04 -7.751406467865e-06 0.0 
-7.751406467865e-06 3.356671330256e-03 0.0 
0.0 0.0 0.0 
-1.067575815151e-04 -3.205785965540e-05 0.0 
-3.205785965540e-05 5.915500348457e-04 0.0 
0.0 0.0 0.0 
1.212490978410e-04 3.594904519508e-04 0.0 
3.594904519508e-04 7.837021890835e-03 0.0 
0.0 0.0 0.0 
-1.696214897226e-04 4.516699034220e-04 0.0 
4.516699034220e-04 8.858867033196e-03 0.0 
0.0 0.0 0.0 
1.072592207643e-04 1.429939685376e-04 0.0 
1.429939685376e-04 7.712307962167e-03 0.0 
0.0 0.0 0.0 
6.208541050170e-05 -6.444679720180e-06 0.0 
-6.444679720180e-06 8.927226330413e-04 0.0 
0.0 0.0 0.0 
-3.988070371421e-05 -5.238797757183e-05 0.0 
-5.238797757183e-05 5.402464477050e-04 0.0 
0.0 0.0 0.0 
1.108606123190e-04 4.304836634360e-04 0.0 
4.304836634360e-04 7.990161266778e-03 0.0 
0.0 0.0 0.0 
-9.916276607038e-05 5.140099274916e-04 0.0 
5.140099274916e-04 9.320529249716e-03 0.0 
0.0 0.0 0.0 
2.251282761895e-04 4.186578659322e-05 0.0 
4.186578659322e-05 1.580970927998e-03 0.0 
0.0 0.0 0.0 
-3.377327833671e-05 1.736652891234e-04 0.0 
1.736652891234e-04 9.983095611110e-03 0.0 
0.0 0.0 0.0 
-5.667679958593e-05 3.481471915090e-04 0.0 
3.481471915090e-04 7.812505170486e-04 0.0 
0.0 0.0 0.0 
-1.988223832356e-04 1.170704999291e-05 0.0 
1.170704999291e-05 6.437507819096e-03 0.0 
0.0 0.0 0.0 
5.803535877998e-06 -3.933610890019e-05 0.0 
-3.933610890019e-05 5.466816880564e-04 0.0 
0.0 0.0 0.0 
5.928913935671e-05 1.786593504281e-04 0.0 
1.786593504281e-04 8.133076429774e-03 0.0 
0.0 0.0 0.0 
-6.628519902652e-05 1.318984777230e-04 0.0 
1.318984777230e-04 9.635015605373e-03 0.0 
0.0 0.0 0.0 
2.980867233753e-04 7.275746298521e-06 0.0 
7.275746298521e-06 3.716691959574e-03 0.0 
0.0 0.0 0.0 
-2.849882868340e-04 7.628367576233e-05 0.0 
7.628367576233e-05 6.542274547524e-03 0.0 
0.0 0.0 0.0 
2.082674219390e-04 -1.162733089640e-05 0.0 
-1.162733089640e-05 2.398158968051e-03 0.0 
0.0 0.0 0.0 
-7.326795030240e-05 6.116041667702e-04 0.0 
6.116041667702e-04 8.657338234919e-03 0.0 
0.0 0.0 0.0 
4.716827948670e-06 -7.312089266899e-05 0.0 
-7.312089266899e-05 8.483500156438e-04 0.0 
0.0 0.0 0.0 
-5.760585457089e-05 9.218430857386e-05 0.0 
9.218430857386e-05 9.679882192416e-03 0.0 
0.0 0.0 0.0 
9.971377050015e-05 5.006830166753e-04 0.0 
5.006830166753e-04 8.117549746849e-03 0.0 
0.0 0.0 0.0 
-9.140484585262e-05 2.806477912965e-04 0.0 
2.806477912965e-04 9.608725266298e-03 0.0 
0.0 0.0 0.0 
1.652967261294e-05 6.861693674988e-04 0.0 
6.861693674988e-04 8.925086310155e-03 0.0 
0.0 0.0 0.0 
-7.228003966624e-05 9.281330304672e-05 0.0 
9.281330304672e-05 5.948301214011e-04 0.0 
0.0 0.0 0.0 
-2.677675417118e-05 6.576252207772e-04 0.0 
6.576252207772e-04 8.884065853916e-03 0.0 
0.0 0.0 0.0 
1.331975581878e-04 5.286656276033e-04 0.0 
5.286656276033e-04 7.800248280432e-03 0.0 
0.0 0.0 0.0 
-1.803086580434e-04 1.163218945440e-05 0.0 
1.163218945440e-05 6.472173960158e-03 0.0 
0.0 0.0 0.0 
-1.023880153814e-04 3.360667268118e-04 0.0 
3.360667268118e-04 9.515568391959e-03 0.0 
0.0 0.0 0.0 
2.563438857323e-04 -7.397281380678e-06 0.0 
-7.397281380678e-06 2.984922727586e-03 0.0 
0.0 0.0 0.0 
9.421467931272e-05 -5.177633589822e-05 0.0 
-5.177633589822e-05 1.223269223819e-03 0.0 
0.0 0.0 0.0 
-1.749534703683e-05 7.259866092941e-06 0.0 
7.259866092941e-06 9.998660104851e-03 0.0 
0.0 0.0 0.0 
2.934123760623e-07 -2.494211150466e-06 0.0 
-2.494211150466e-06 1.919930218669e-04 0.0 
0.0 0.0 0.0 
-1.716506434984e-04 -2.703741295008e-06 0.0 
-2.703741295008e-06 6.444054595294e-03 0.0 
0.0 0.0 0.0 
4.864650116607e-05 3.173103028548e-05 0.0 
3.173103028548e-05 8.128743481847e-03 0.0 
0.0 0.0 0.0 
9.514238350423e-05 -3.015544870640e-05 0.0 
-3.015544870640e-05 1.160514003508e-03 0.0 
0.0 0.0 0.0 
-1.608507008567e-04 2.215975757116e-06 0.0 
2.215975757116e-06 7.131396347999e-03 0.0 
0.0 0.0 0.0 
-9.906530796183e-05 4.821211109940e-04 0.0 
4.821211109940e-04 9.389819474277e-03 0.0 
0.0 0.0 0.0 
3.099798337032e-04 6.699306915729e-06 0.0 
6.699306915729e-06 4.625199097773e-03 0.0 
0.0 0.0 0.0 
-8.998925101760e-05 1.019201346341e-05 0.0 
1.019201346341e-05 8.988350175194e-03 0.0 
0.0 0.0 0.0 
9.536256787994e-05 -5.294055475517e-05 0.0 
-5.294055475517e-05 1.161428624904e-03 0.0 
0.0 0.0 0.0 
-3.065351881449e-04 -2.812217894807e-05 0.0 
-2.812217894807e-05 3.448816034614e-04 0.0 
0.0 0.0 0.0 
-1.412161336802e-04 4.947437946248e-06 0.0 
4.947437946248e-06 7.871238594478e-03 0.0 
0.0 0.0 0.0 
7.688057318234e-06 6.648014339418e-04 0.0 
6.648014339418e-04 8.681735706999e-03 0.0 
0.0 0.0 0.0 
-8.071522332767e-05 2.252254445455e-04 0.0 
2.252254445455e-04 9.660618324307e-03 0.0 
0.0 0.0 0.0 
-1.573674181820e-04 2.645475364682e-05 0.0 
2.645475364682e-05 7.584000813159e-03 0.0 
0.0 0.0 0.0 
1.669135756159e-04 4.812346090726e-04 0.0 
4.812346090726e-04 1.409598034779e-03 0.0 
0.0 0.0 0.0 
-1.328123551510e-04 4.794862624741e-04 0.0 
4.794862624741e-04 9.143652025907e-03 0.0 
0.0 0.0 0.0 
3.129496747824e-04 7.490262525160e-06 0.0 
7.490262525160e-06 4.032137565375e-03 0.0 
0.0 0.0 0.0 
-1.109214443700e-04 5.666855321242e-04 0.0 
5.666855321242e-04 8.862199470640e-03 0.0 
0.0 0.0 0.0 
9.780833004225e-05 5.733789899083e-04 0.0 
5.733789899083e-04 7.961791926748e-03 0.0 
0.0 0.0 0.0 
-2.527583623492e-04 3.464104632238e-04 0.0 
3.464104632238e-04 5.226366438158e-04 0.0 
0.0 0.0 0.0 
3.064290577938e-04 9.723004218853e-06 0.0 
9.723004218853e-06 5.001025884064e-03 0.0 
0.0 0.0 0.0 
-2.442767002817e-05 -4.320493629396e-05 0.0 
-4.320493629396e-05 5.151878999507e-04 0.0 
0.0 0.0 0.0 
1.037042095034e-04 2.665399968999e-04 0.0 
2.665399968999e-04 7.869467948359e-03 0.0 
0.0 0.0 0.0 
3.106948343568e-04 5.634599892465e-06 0.0 
5.634599892465e-06 4.215340209531e-03 0.0 
0.0 0.0 0.0 
3.989729218604e-05 9.567197584641e-05 0.0 
9.567197584641e-05 2.829320144004e-03 0.0 
0.0 0.0 0.0 
-1.832570997412e-04 9.325143595903e-06 0.0 
9.325143595903e-06 2.953835833213e-03 0.0 
0.0 0.0 0.0 
-1.036666044169e-04 1.180417542866e-04 0.0 
1.180417542866e-04 3.260468890213e-03 0.0 
0.0 0.0 0.0 
-1.585612138002e-04 -2.317672565226e-06 0.0 
-2.317672565226e-06 3.343103659795e-03 0.0 
0.0 0.0 0.0 
-1.785230011131e-04 9.035113676574e-05 0.0 
9.035113676574e-05 3.712144831269e-03 0.0 
0.0 0.0 0.0 
-1.571954257052e-04 -2.639550493543e-06 0.0 
-2.639550493543e-06 3.794865029310e-03 0.0 
0.0 0.0 0.0 
-2.241594201010e-04 6.967555894574e-05 0.0 
6.967555894574e-05 4.157874665198e-03 0.0 
0.0 0.0 0.0 
-1.602304201186e-04 -2.826446855117e-06 0.0 
-2.826446855117e-06 4.200054347456e-03 0.0 
0.0 0.0 0.0 
-2.593793787015e-04 4.775842806405e-05 0.0 
4.775842806405e-05 4.601644352617e-03 0.0 
0.0 0.0 0.0 
-1.641831742544e-04 -2.753143983795e-06 0.0 
-2.753143983795e-06 4.654922768853e-03 0.0 
0.0 0.0 0.0 
-2.767444082524e-04 3.793082207863e-05 0.0 
3.793082207863e-05 5.041202954732e-03 0.0 
0.0 0.0 0.0 
-1.685096801490e-04 -2.296896605455e-06 0.0 
-2.296896605455e-06 5.060507781424e-03 0.0 
0.0 0.0 0.0 
-2.840040624432e-04 3.401882271236e-05 0.0 
3.401882271236e-05 5.477203598251e-03 0.0 
0.0 0.0 0.0 
-1.707728435002e-04 -2.216011974166e-07 0.0 
-2.216011974166e-07 5.513664440369e-03 0.0 
0.0 0.0 0.0 
-2.813141671786e-04 3.753641718638e-05 0.0 
3.753641718638e-05 5.909178209339e-03 0.0 
0.0 0.0 0.0 
-1.752771366604e-04 5.232569286454e-06 0.0 
5.232569286454e-06 5.916964481867e-03 0.0 
0.0 0.0 0.0 

TENSORS node_materi_strain_plasti float
-1.741775845201e-05 -2.168405097555e-06 0.0 
-2.168405097555e-06 1.395813736689e-04 0.0 
0.0 0.0 -3.282868849617e-05 
-7.193710724365e-04 -1.122442495585e-04 0.0 
-1.122442495585e-04 4.531072016065e-03 0.0 
0.0 0.0 -6.959116756397e-04 
-1.326721611229e-03 9.743109485010e-05 0.0 
9.743109485010e-05 8.921087027136e-03 0.0 
0.0 0.0 -1.332621093165e-03 
-1.328526300077e-03 -9.718698781146e-05 0.0 
-9.718698781146e-05 8.927311597372e-03 0.0 
0.0 0.0 -1.332621093165e-03 
-8.193859278095e-05 3.577520009443e-05 0.0 
3.577520009443e-05 3.368763971303e-04 0.0 
0.0 0.0 -8.453455331316e-05 
-1.695924659270e-04 1.267609683744e-04 0.0 
1.267609683744e-04 8.452299049113e-04 0.0 
0.0 0.0 -1.619080202416e-04 
-2.296336673595e-04 1.041833740940e-04 0.0 
1.041833740940e-04 1.224476071287e-03 0.0 
0.0 0.0 -2.266090766362e-04 
-2.971855348456e-04 9.450166671956e-05 0.0 
9.450166671956e-05 1.745895085854e-03 0.0 
0.0 0.0 -2.937643997455e-04 
-3.715291688780e-04 6.977872566512e-05 0.0 
6.977872566512e-05 2.214517262813e-03 0.0 
0.0 0.0 -3.610469555860e-04 
-4.249688263072e-04 6.584730845620e-05 0.0 
6.584730845620e-05 2.664484643095e-03 0.0 
0.0 0.0 -4.277228197774e-04 
-4.875317281637e-04 7.284843635981e-05 0.0 
7.284843635981e-05 3.123402469253e-03 0.0 
0.0 0.0 -4.940119848999e-04 
-5.560650258811e-04 6.506894170197e-05 0.0 
6.506894170197e-05 3.586726731214e-03 0.0 
0.0 0.0 -5.601824523721e-04 
-6.219544696599e-04 6.499150418632e-05 0.0 
6.499150418632e-05 4.044891981262e-03 0.0 
0.0 0.0 -6.267196139102e-04 
-6.989301157160e-04 8.304445482454e-05 0.0 
8.304445482454e-05 4.516508974108e-03 0.0 
0.0 0.0 -6.936951881209e-04 
-7.842461813792e-04 1.250766207628e-04 0.0 
1.250766207628e-04 5.027932232893e-03 0.0 
0.0 0.0 -7.607197531558e-04 
-8.342478146059e-04 1.327780010267e-04 0.0 
1.327780010267e-04 5.490101288132e-03 0.0 
0.0 0.0 -8.270758575053e-04 
-8.797786789151e-04 1.730981527132e-04 0.0 
1.730981527132e-04 5.870913224211e-03 0.0 
0.0 0.0 -8.903361771249e-04 
-9.530636179411e-04 6.774981962034e-05 0.0 
6.774981962034e-05 6.360455625450e-03 0.0 
0.0 0.0 -9.558084330571e-04 
-1.021468397639e-03 6.438406854751e-05 0.0 
6.438406854751e-05 6.838909130197e-03 0.0 
0.0 0.0 -1.024523475697e-03 
-1.087303877607e-03 6.616077821815e-05 0.0 
6.616077821815e-05 7.302617105742e-03 0.0 
0.0 0.0 -1.091244731156e-03 
-1.157611465321e-03 6.099216604955e-05 0.0 
6.099216604955e-05 7.775325521779e-03 0.0 
0.0 0.0 -1.158330123333e-03 
-1.229956863987e-03 7.577779225227e-05 0.0 
7.577779225227e-05 8.251739665694e-03 0.0 
0.0 0.0 -1.226073836101e-03 
-1.285597262298e-03 9.777469732990e-05 0.0 
9.777469732990e-05 8.717344745921e-03 0.0 
0.0 0.0 -1.289832767750e-03 
-1.328056332164e-03 -6.444803612954e-06 0.0 
-6.444803612954e-06 8.942057407760e-03 0.0 
0.0 0.0 -1.336902025401e-03 
-1.335490548137e-03 -3.051268407675e-06 0.0 
-3.051268407675e-06 8.928554519845e-03 0.0 
0.0 0.0 -1.332945767435e-03 
-1.336130347494e-03 -6.396074884473e-05 0.0 
-6.396074884473e-05 8.918857970665e-03 0.0 
0.0 0.0 -1.334903170087e-03 
-1.339230604727e-03 3.012709249355e-05 0.0 
3.012709249355e-05 8.923856553285e-03 0.0 
0.0 0.0 -1.334459899807e-03 
-1.337146058389e-03 -8.398799894841e-06 0.0 
-8.398799894841e-06 8.911324906834e-03 0.0 
0.0 0.0 -1.332067731643e-03 
-1.335355832928e-03 1.075181302777e-06 0.0 
1.075181302777e-06 8.911332561918e-03 0.0 
0.0 0.0 -1.335050935171e-03 
-1.325449513940e-03 2.957247518010e-06 0.0 
2.957247518010e-06 8.920139941522e-03 0.0 
0.0 0.0 -1.335055123498e-03 
-1.337345353037e-03 -9.523690686145e-06 0.0 
-9.523690686145e-06 8.921732771433e-03 0.0 
0.0 0.0 -1.333530254363e-03 
-1.334717977068e-03 -4.294761687244e-05 0.0 
-4.294761687244e-05 8.930458145260e-03 0.0 
0.0 0.0 -1.336259905589e-03 
-1.337792100019e-03 2.741258004608e-05 0.0 
2.741258004608e-05 8.934606220421e-03 0.0 
0.0 0.0 -1.335712483792e-03 
-1.336136187727e-03 -6.884802183734e-06 0.0 
-6.884802183734e-06 8.921957108707e-03 0.0 
0.0 0.0 -1.333313947604e-03 
-1.338126723765e-03 -4.814512478221e-06 0.0 
-4.814512478221e-06 8.924502617003e-03 0.0 
0.0 0.0 -1.335862559377e-03 
-1.327324523368e-03 -1.060172701729e-07 0.0 
-1.060172701729e-07 8.942333996565e-03 0.0 
0.0 0.0 -1.336097458551e-03 
-1.338609928482e-03 -2.842890241057e-06 0.0 
-2.842890241057e-06 8.932107808072e-03 0.0 
0.0 0.0 -1.335235043394e-03 
-1.329400644355e-03 -1.048596426291e-05 0.0 
-1.048596426291e-05 8.921074213048e-03 0.0 
0.0 0.0 -1.334297546486e-03 
-1.338340837827e-03 9.966400157392e-06 0.0 
9.966400157392e-06 8.903421378777e-03 0.0 
0.0 0.0 -1.332308435384e-03 
-1.339067962771e-03 -2.558483156538e-06 0.0 
-2.558483156538e-06 8.895896267544e-03 0.0 
0.0 0.0 -1.332019584455e-03 
-1.327125647707e-03 1.639257363238e-06 0.0 
1.639257363238e-06 8.917700513123e-03 0.0 
0.0 0.0 -1.333392124151e-03 
-1.334568721853e-03 -4.268105943770e-06 0.0 
-4.268105943770e-06 8.928545997729e-03 0.0 
0.0 0.0 -1.334727449481e-03 
-1.336827804858e-03 -5.001027102463e-06 0.0 
-5.001027102463e-06 8.928021219147e-03 0.0 
0.0 0.0 -1.336576889699e-03 
-1.337235537648e-03 1.693416763897e-05 0.0 
1.693416763897e-05 8.930023700079e-03 0.0 
0.0 0.0 -1.335888391555e-03 
-1.331872643832e-03 -1.070662442939e-06 0.0 
-1.070662442939e-06 8.931108733201e-03 0.0 
0.0 0.0 -1.334783226448e-03 
-1.335383687196e-03 3.225376233209e-06 0.0 
3.225376233209e-06 8.925108831379e-03 0.0 
0.0 0.0 -1.335053869153e-03 
-1.335647092677e-03 -1.629379981320e-06 0.0 
-1.629379981320e-06 8.920485307702e-03 0.0 
0.0 0.0 -1.334960189349e-03 
-1.336340449165e-03 -1.285585314741e-06 0.0 
-1.285585314741e-06 8.933772799625e-03 0.0 
0.0 0.0 -1.334889991128e-03 
-1.330589077276e-03 -4.874946038578e-06 0.0 
-4.874946038578e-06 8.935469598915e-03 0.0 
0.0 0.0 -1.335774086633e-03 
-1.341165284707e-03 -5.814943729737e-06 0.0 
-5.814943729737e-06 8.933862901487e-03 0.0 
0.0 0.0 -1.336605656894e-03 
-1.330240946256e-03 -4.520075279768e-06 0.0 
-4.520075279768e-06 8.938118272604e-03 0.0 
0.0 0.0 -1.336508443943e-03 
-1.338673330008e-03 -5.862543655791e-06 0.0 
-5.862543655791e-06 8.942517447788e-03 0.0 
0.0 0.0 -1.335343284290e-03 
-1.336600650314e-03 -3.582742261955e-05 0.0 
-3.582742261955e-05 8.951381047284e-03 0.0 
0.0 0.0 -1.337998490269e-03 
-1.341076503417e-03 3.451828262938e-05 0.0 
3.451828262938e-05 8.946627943271e-03 0.0 
0.0 0.0 -1.337247094005e-03 
-1.334448453648e-03 1.095281049642e-05 0.0 
1.095281049642e-05 8.923080866366e-03 0.0 
0.0 0.0 -1.333783489999e-03 
-1.333263826440e-03 -4.659210695639e-08 0.0 
-4.659210695639e-08 8.908320836892e-03 0.0 
0.0 0.0 -1.334548731617e-03 
-1.334150017560e-03 -8.272198035495e-06 0.0 
-8.272198035495e-06 8.929832025163e-03 0.0 
0.0 0.0 -1.334619746794e-03 
-1.331619300726e-03 -1.909948370353e-06 0.0 
-1.909948370353e-06 8.928586538444e-03 0.0 
0.0 0.0 -1.335242115105e-03 
-1.340870630612e-03 -1.061733168398e-05 0.0 
-1.061733168398e-05 8.926675419192e-03 0.0 
0.0 0.0 -1.335691437541e-03 
-1.329659514104e-03 -2.082049369214e-06 0.0 
-2.082049369214e-06 8.934711562866e-03 0.0 
0.0 0.0 -1.335646478247e-03 
-1.339117702311e-03 -4.029677061714e-07 0.0 
-4.029677061714e-07 8.924836081587e-03 0.0 
0.0 0.0 -1.334931242407e-03 
-1.328302087749e-03 -6.726834891379e-06 0.0 
-6.726834891379e-06 8.915098302923e-03 0.0 
0.0 0.0 -1.334100791702e-03 
-1.338339244626e-03 1.868410609584e-06 0.0 
1.868410609584e-06 8.913909047127e-03 0.0 
0.0 0.0 -1.332237298415e-03 
-1.340573467967e-03 -1.512560094748e-05 0.0 
-1.512560094748e-05 8.916790452845e-03 0.0 
0.0 0.0 -1.333749945600e-03 
-1.332872318884e-03 1.070088453609e-05 0.0 
1.070088453609e-05 8.939654193892e-03 0.0 
0.0 0.0 -1.336652505695e-03 
-1.326343527950e-03 -1.064817557575e-05 0.0 
-1.064817557575e-05 8.953327537606e-03 0.0 
0.0 0.0 -1.337094627689e-03 
-1.334975160234e-03 -1.103658676067e-05 0.0 
-1.103658676067e-05 8.887287544370e-03 0.0 
0.0 0.0 -1.328990728106e-03 
-1.326727222271e-03 3.789706117036e-06 0.0 
3.789706117036e-06 8.937395178325e-03 0.0 
0.0 0.0 -1.335900064369e-03 
-1.338702731113e-03 6.248103656105e-07 0.0 
6.248103656105e-07 8.926718973225e-03 0.0 
0.0 0.0 -1.332523500780e-03 
-1.338833780446e-03 -4.056504769858e-05 0.0 
-4.056504769858e-05 8.921997078910e-03 0.0 
0.0 0.0 -1.335219049675e-03 
-1.336003357241e-03 1.668194413567e-05 0.0 
1.668194413567e-05 8.951047853454e-03 0.0 
0.0 0.0 -1.336566422126e-03 
-1.338588357839e-03 -8.318316931957e-07 0.0 
-8.318316931957e-07 8.955066587464e-03 0.0 
0.0 0.0 -1.335855682064e-03 
-7.644479361829e-04 -7.854511718931e-05 0.0 
-7.854511718931e-05 4.967324475694e-03 0.0 
0.0 0.0 -7.648954205800e-04 
-8.429692067442e-04 -8.894340543483e-05 0.0 
-8.894340543483e-05 5.465473064469e-03 0.0 
0.0 0.0 -8.298981322982e-04 
-9.045101262401e-04 -8.649802336560e-05 0.0 
-8.649802336560e-05 5.927599153875e-03 0.0 
0.0 0.0 -8.959277352460e-04 
-9.682355907570e-04 -9.235019684024e-05 0.0 
-9.235019684024e-05 6.375436758553e-03 0.0 
0.0 0.0 -9.610467530554e-04 
-1.034301386645e-03 -8.131875668406e-05 0.0 
-8.131875668406e-05 6.841207604472e-03 0.0 
0.0 0.0 -1.026987810050e-03 
-1.084652817885e-03 -8.917462571028e-05 0.0 
-8.917462571028e-05 7.307643626561e-03 0.0 
0.0 0.0 -1.092790196867e-03 
-1.153469442186e-03 -7.930470280158e-05 0.0 
-7.930470280158e-05 7.768901773096e-03 0.0 
0.0 0.0 -1.158290425478e-03 
-1.218602686822e-03 -9.135197616377e-05 0.0 
-9.135197616377e-05 8.209166370611e-03 0.0 
0.0 0.0 -1.224481705251e-03 
-1.280117147855e-03 -1.008986322443e-04 0.0 
-1.008986322443e-04 8.709401710635e-03 0.0 
0.0 0.0 -1.288782062784e-03 
-1.752208263150e-05 3.240785673635e-05 0.0 
3.240785673635e-05 1.037696529891e-04 0.0 
0.0 0.0 -2.939528373048e-05 
-6.988773384999e-04 -6.414203901464e-06 0.0 
-6.414203901464e-06 4.541118799231e-03 0.0 
0.0 0.0 -6.945495707198e-04 
-1.068839245990e-04 4.195670543775e-05 0.0 
4.195670543775e-05 4.592598232628e-04 0.0 
0.0 0.0 -1.088012745759e-04 
-1.681976213541e-04 4.840241544749e-05 0.0 
4.840241544749e-05 9.219134236667e-04 0.0 
0.0 0.0 -1.774461548932e-04 
-2.114848956374e-04 1.739449406965e-05 0.0 
1.739449406965e-05 1.245945048977e-03 0.0 
0.0 0.0 -2.251841147728e-04 
-2.826384836080e-04 1.494194675665e-05 0.0 
1.494194675665e-05 1.693936406411e-03 0.0 
0.0 0.0 -2.907975307606e-04 
-3.467236823258e-04 1.624238360765e-05 0.0 
1.624238360765e-05 2.160989176577e-03 0.0 
0.0 0.0 -3.576084760620e-04 
-4.034182833337e-04 -4.200861776885e-06 0.0 
-4.200861776885e-06 2.629562399745e-03 0.0 
0.0 0.0 -4.246591878591e-04 
-4.761223259385e-04 6.452176695319e-07 0.0 
6.452176695319e-07 3.097474449594e-03 0.0 
0.0 0.0 -4.913636896408e-04 
-5.446829016033e-04 3.333337451863e-07 0.0 
3.333337451863e-07 3.565252150871e-03 0.0 
0.0 0.0 -5.580753662734e-04 
-6.120040484323e-04 -3.148004277967e-06 0.0 
-3.148004277967e-06 4.032884488981e-03 0.0 
0.0 0.0 -6.248674136757e-04 
-1.621039516709e-04 -1.967887330539e-04 0.0 
-1.967887330539e-04 1.014719400598e-03 0.0 
0.0 0.0 -1.822222222222e-04 
-2.320762863940e-04 -1.605175487933e-04 0.0 
-1.605175487933e-04 1.276726721346e-03 0.0 
0.0 0.0 -2.266666666667e-04 
-2.986636326697e-04 -2.023172378402e-04 0.0 
-2.023172378402e-04 1.738781714551e-03 0.0 
0.0 0.0 -2.933333333333e-04 
-3.640335269792e-04 -1.647957464760e-04 0.0 
-1.647957464760e-04 2.201281042858e-03 0.0 
0.0 0.0 -3.600000000000e-04 
-4.304425780172e-04 -2.046254239307e-04 0.0 
-2.046254239307e-04 2.664768429398e-03 0.0 
0.0 0.0 -4.266666666667e-04 
-4.966420638955e-04 -1.663109596129e-04 0.0 
-1.663109596129e-04 3.128374407042e-03 0.0 
0.0 0.0 -4.933333333333e-04 
-5.622839918589e-04 -2.001712001391e-04 0.0 
-2.001712001391e-04 3.590232611973e-03 0.0 
0.0 0.0 -5.600000000000e-04 
-6.246804992585e-04 -1.417515320003e-04 0.0 
-1.417515320003e-04 4.042867570769e-03 0.0 
0.0 0.0 -6.266666666667e-04 
-6.913130996728e-04 5.498609571761e-05 0.0 
5.498609571761e-05 4.454824349021e-03 0.0 
0.0 0.0 -6.874962403976e-04 
-6.868874145390e-04 4.265374631601e-06 0.0 
4.265374631601e-06 4.486723904769e-03 0.0 
0.0 0.0 -6.910932206029e-04 
-6.934978988668e-04 4.367505525864e-06 0.0 
4.367505525864e-06 4.491335876748e-03 0.0 
0.0 0.0 -6.911911970487e-04 
-6.907997940409e-04 -7.067285999277e-06 0.0 
-7.067285999277e-06 4.485601554890e-03 0.0 
0.0 0.0 -6.903356507966e-04 
-6.907918205776e-04 4.658551261973e-06 0.0 
4.658551261973e-06 4.562156077984e-03 0.0 
0.0 0.0 -6.980756478071e-04 
-6.892878188424e-04 5.414637571102e-06 0.0 
5.414637571102e-06 4.494915586897e-03 0.0 
0.0 0.0 -6.911448554634e-04 
-6.797647522223e-04 -6.151835168552e-06 0.0 
-6.151835168552e-06 4.487621365133e-03 0.0 
0.0 0.0 -6.903833977050e-04 
-6.832908759363e-04 1.181523808998e-05 0.0 
1.181523808998e-05 4.498914041665e-03 0.0 
0.0 0.0 -6.905588330458e-04 
-6.949806625349e-04 2.423611152461e-06 0.0 
2.423611152461e-06 4.508372842652e-03 0.0 
0.0 0.0 -6.922444453805e-04 
-6.970682970385e-04 1.264857313788e-05 0.0 
1.264857313788e-05 4.510203072304e-03 0.0 
0.0 0.0 -6.916098530255e-04 
-6.888508586807e-04 7.096050779000e-06 0.0 
7.096050779000e-06 4.506612582973e-03 0.0 
0.0 0.0 -6.911665914957e-04 
-6.923116819991e-04 3.442306794751e-06 0.0 
3.442306794751e-06 4.500662587744e-03 0.0 
0.0 0.0 -6.911615840689e-04 
-6.874005628903e-04 1.547082050475e-05 0.0 
1.547082050475e-05 4.496710901947e-03 0.0 
0.0 0.0 -6.914992001314e-04 
-6.904170598993e-04 2.109837221793e-05 0.0 
2.109837221793e-05 4.507680445908e-03 0.0 
0.0 0.0 -6.922481495424e-04 
-2.592440264177e-05 -1.590076434165e-05 0.0 
-1.590076434165e-05 1.361807839618e-04 0.0 
0.0 0.0 -2.981554499673e-05 
-3.446067835928e-05 -4.722769695024e-06 0.0 
-4.722769695024e-06 1.514232641040e-04 0.0 
0.0 0.0 -3.001360406192e-05 
-1.576164107189e-05 6.855840384423e-06 0.0 
6.855840384423e-06 1.420727738414e-04 0.0 
0.0 0.0 -2.891678940537e-05 
-1.058332407333e-05 -2.088674468884e-05 0.0 
-2.088674468884e-05 1.367187831327e-04 0.0 
0.0 0.0 -2.889836327124e-05 
-3.364373544555e-05 -3.089965635262e-05 0.0 
-3.089965635262e-05 1.595260388365e-04 0.0 
0.0 0.0 -3.040745255895e-05 
-4.176671741939e-05 -6.138377296836e-06 0.0 
-6.138377296836e-06 1.798263625009e-04 0.0 
0.0 0.0 -3.068777868300e-05 
-3.824342451589e-05 5.591674158896e-07 0.0 
5.591674158896e-07 1.791426173783e-04 0.0 
0.0 0.0 -3.058835961954e-05 
-3.226360630243e-05 -1.341036859016e-06 0.0 
-1.341036859016e-06 1.722310666212e-04 0.0 
0.0 0.0 -3.053879953887e-05 
-3.075195274388e-05 -3.753502375142e-06 0.0 
-3.753502375142e-06 1.736984769829e-04 0.0 
0.0 0.0 -3.044251428418e-05 
-2.638860610350e-05 -7.894449171776e-06 0.0 
-7.894449171776e-06 1.709687444737e-04 0.0 
0.0 0.0 -3.048531495051e-05 
-2.681419529697e-05 -1.626482453994e-05 0.0 
-1.626482453994e-05 1.776638784057e-04 0.0 
0.0 0.0 -3.060061046523e-05 
-4.178895109067e-05 4.651397470064e-06 0.0 
4.651397470064e-06 1.936858804511e-04 0.0 
0.0 0.0 -3.133350520012e-05 
-3.584663091306e-05 2.920944978623e-05 0.0 
2.920944978623e-05 1.814285478668e-04 0.0 
0.0 0.0 -3.101487170496e-05 
-1.892508329037e-05 9.286208390908e-06 0.0 
9.286208390908e-06 1.578481945027e-04 0.0 
0.0 0.0 -3.010388419214e-05 
-2.660519595212e-05 -4.398298942796e-06 0.0 
-4.398298942796e-06 1.591906609278e-04 0.0 
0.0 0.0 -3.041972112533e-05 
-4.134075465171e-05 1.617060886407e-06 0.0 
1.617060886407e-06 1.756452327158e-04 0.0 
0.0 0.0 -3.060566238437e-05 
-4.636580504519e-05 5.643116689764e-06 0.0 
5.643116689764e-06 1.798643178415e-04 0.0 
0.0 0.0 -3.058114983003e-05 
-3.066571027206e-05 2.752472550757e-05 0.0 
2.752472550757e-05 1.500341931888e-04 0.0 
0.0 0.0 -3.041506914824e-05 
-1.475246436927e-05 4.693943976204e-06 0.0 
4.693943976204e-06 1.322021267256e-04 0.0 
0.0 0.0 -2.944997384815e-05 
-6.841305173253e-05 -1.096513173277e-05 0.0 
-1.096513173277e-05 8.750538015544e-04 0.0 
0.0 0.0 -1.883410284978e-04 
-1.453266650861e-04 -2.218305112676e-05 0.0 
-2.218305112676e-05 1.055290916475e-03 0.0 
0.0 0.0 -1.979224380400e-04 
-1.811747213059e-04 2.667805009015e-05 0.0 
2.667805009015e-05 1.081205963627e-03 0.0 
0.0 0.0 -1.896296296296e-04 
-1.985371652345e-04 -7.771001085282e-06 0.0 
-7.771001085282e-06 1.080922303865e-03 0.0 
0.0 0.0 -1.896296296296e-04 
-1.947516537940e-04 5.537130192098e-06 0.0 
5.537130192098e-06 1.088054534872e-03 0.0 
0.0 0.0 -1.896296296296e-04 
-1.964552423874e-04 3.188969380366e-07 0.0 
3.188969380366e-07 1.086053897675e-03 0.0 
0.0 0.0 -1.896296296296e-04 
-1.947639673517e-04 5.150898432925e-06 0.0 
5.150898432925e-06 1.086822424416e-03 0.0 
0.0 0.0 -1.896296296296e-04 
-1.945878090876e-04 4.027066593775e-06 0.0 
4.027066593775e-06 1.085582542157e-03 0.0 
0.0 0.0 -1.896296296296e-04 
-1.939497260329e-04 5.148444518229e-06 0.0 
5.148444518229e-06 1.085433090157e-03 0.0 
0.0 0.0 -1.896296296296e-04 
-1.935652587066e-04 4.610034504062e-06 0.0 
4.610034504062e-06 1.084831862763e-03 0.0 
0.0 0.0 -1.896296296296e-04 
-1.931136346743e-04 4.192523524240e-06 0.0 
4.192523524240e-06 1.084483089518e-03 0.0 
0.0 0.0 -1.896296296296e-04 
-1.927848829844e-04 3.062414852305e-06 0.0 
3.062414852305e-06 1.084128411689e-03 0.0 
0.0 0.0 -1.896296296296e-04 
-1.925452515153e-04 1.791520241420e-06 0.0 
1.791520241420e-06 1.083942361431e-03 0.0 
0.0 0.0 -1.896296296296e-04 
-1.924529644079e-04 3.195236577143e-07 0.0 
3.195236577143e-07 1.083865128380e-03 0.0 
0.0 0.0 -1.896296296296e-04 
-1.925080460617e-04 -1.081617729578e-06 0.0 
-1.081617729578e-06 1.083938468986e-03 0.0 
0.0 0.0 -1.896296296296e-04 
-1.926735140057e-04 -2.284522243158e-06 0.0 
-2.284522243158e-06 1.084111725021e-03 0.0 
0.0 0.0 -1.896296296296e-04 
-1.928818641599e-04 -3.211327440398e-06 0.0 
-3.211327440398e-06 1.084307757642e-03 0.0 
0.0 0.0 -1.896296296296e-04 
-1.930824798183e-04 -3.929499588986e-06 0.0 
-3.929499588986e-06 1.084444341880e-03 0.0 
0.0 0.0 -1.896296296296e-04 
-1.932314224567e-04 -4.548338536988e-06 0.0 
-4.548338536988e-06 1.084466192252e-03 0.0 
0.0 0.0 -1.896296296296e-04 
-1.932743266925e-04 -5.188533735537e-06 0.0 
-5.188533735537e-06 1.084318204190e-03 0.0 
0.0 0.0 -1.896296296296e-04 
-1.931304181590e-04 -5.950277058310e-06 0.0 
-5.950277058310e-06 1.083930302182e-03 0.0 
0.0 0.0 -1.896296296296e-04 
-1.926860155797e-04 -6.831033171172e-06 0.0 
-6.831033171172e-06 1.083218219972e-03 0.0 
0.0 0.0 -1.896296296296e-04 
-1.917892086729e-04 -7.479374886855e-06 0.0 
-7.479374886855e-06 1.082121786151e-03 0.0 
0.0 0.0 -1.896296296296e-04 
-1.902725583525e-04 -5.846772052506e-06 0.0 
-5.846772052506e-06 1.080947069883e-03 0.0 
0.0 0.0 -1.896296296296e-04 
-1.881735590044e-04 1.907570872937e-05 0.0 
1.907570872937e-05 1.085440826084e-03 0.0 
0.0 0.0 -1.896296296296e-04 
-2.029938185709e-04 8.452104015267e-05 0.0 
8.452104015267e-05 1.104444619294e-03 0.0 
0.0 0.0 -1.877777777778e-04 
-1.757189766350e-04 2.015733327553e-05 0.0 
2.015733327553e-05 1.169996428695e-03 0.0 
0.0 0.0 -2.186390966643e-04 
-2.228638103157e-04 -9.521538894529e-06 0.0 
-9.521538894529e-06 1.291581809780e-03 0.0 
0.0 0.0 -2.293097019027e-04 
-2.289117877934e-04 9.489500089782e-06 0.0 
9.489500089782e-06 1.273233924635e-03 0.0 
0.0 0.0 -2.266666666667e-04 
-2.336541121386e-04 6.781843483305e-07 0.0 
6.781843483305e-07 1.269302934461e-03 0.0 
0.0 0.0 -2.266666666667e-04 
-2.317255520372e-04 5.516694580898e-06 0.0 
5.516694580898e-06 1.272863961575e-03 0.0 
0.0 0.0 -2.266666666667e-04 
-2.317812642911e-04 4.449795583642e-06 0.0 
4.449795583642e-06 1.270376319783e-03 0.0 
0.0 0.0 -2.266666666667e-04 
-2.310424369959e-04 5.356433285844e-06 0.0 
5.356433285844e-06 1.270812935721e-03 0.0 
0.0 0.0 -2.266666666667e-04 
-2.308889315447e-04 5.170693309769e-06 0.0 
5.170693309769e-06 1.269974481556e-03 0.0 
0.0 0.0 -2.266666666667e-04 
-2.303654616690e-04 4.964327453901e-06 0.0 
4.964327453901e-06 1.269656447122e-03 0.0 
0.0 0.0 -2.266666666667e-04 
-2.300574488921e-04 4.067751470260e-06 0.0 
4.067751470260e-06 1.269156639776e-03 0.0 
0.0 0.0 -2.266666666667e-04 
-2.297102415552e-04 2.860035625364e-06 0.0 
2.860035625364e-06 1.268882543445e-03 0.0 
0.0 0.0 -2.266666666667e-04 
-2.295375740558e-04 1.327963885137e-06 0.0 
1.327963885137e-06 1.268711530911e-03 0.0 
0.0 0.0 -2.266666666667e-04 
-2.295207096673e-04 -2.760738597612e-07 0.0 
-2.760738597612e-07 1.268747898697e-03 0.0 
0.0 0.0 -2.266666666667e-04 
-2.296544716818e-04 -1.720046700809e-06 0.0 
-1.720046700809e-06 1.268927355130e-03 0.0 
0.0 0.0 -2.266666666667e-04 
-2.298245913134e-04 -2.846357357122e-06 0.0 
-2.846357357122e-06 1.269153567826e-03 0.0 
0.0 0.0 -2.266666666667e-04 
-2.299713923060e-04 -3.686737751759e-06 0.0 
-3.686737751759e-06 1.269321420150e-03 0.0 
0.0 0.0 -2.266666666667e-04 
-2.300583825379e-04 -4.330118491552e-06 0.0 
-4.330118491552e-06 1.269372347715e-03 0.0 
0.0 0.0 -2.266666666667e-04 
-2.300373461787e-04 -4.869363162707e-06 0.0 
-4.869363162707e-06 1.269253654748e-03 0.0 
0.0 0.0 -2.266666666667e-04 
-2.298450162938e-04 -5.379771530527e-06 0.0 
-5.379771530527e-06 1.268909757281e-03 0.0 
0.0 0.0 -2.266666666667e-04 
-2.294036994123e-04 -5.885576230873e-06 0.0 
-5.885576230873e-06 1.268291326069e-03 0.0 
0.0 0.0 -2.266666666667e-04 
-2.286544723799e-04 -6.241462011484e-06 0.0 
-6.241462011484e-06 1.267401701856e-03 0.0 
0.0 0.0 -2.266666666667e-04 
-2.275874156243e-04 -5.912051605994e-06 0.0 
-5.912051605994e-06 1.266380669848e-03 0.0 
0.0 0.0 -2.266666666667e-04 
-2.264785130765e-04 -3.989917904591e-06 0.0 
-3.989917904591e-06 1.265866820548e-03 0.0 
0.0 0.0 -2.266666666667e-04 
-2.271890896838e-04 -2.039679845470e-06 0.0 
-2.039679845470e-06 1.268870066226e-03 0.0 
0.0 0.0 -2.266666666667e-04 
-2.306855692958e-04 1.136792377783e-04 0.0 
1.136792377783e-04 1.274657125229e-03 0.0 
0.0 0.0 -2.266666666667e-04 
-2.970218210651e-04 7.785591067416e-05 0.0 
7.785591067416e-05 1.736401244533e-03 0.0 
0.0 0.0 -2.933333333333e-04 
-2.941299774760e-04 1.831399556336e-05 0.0 
1.831399556336e-05 1.732126897949e-03 0.0 
0.0 0.0 -2.933333333333e-04 
-2.937600754570e-04 -1.751607331723e-06 0.0 
-1.751607331723e-06 1.731075563536e-03 0.0 
0.0 0.0 -2.933333333333e-04 
-2.942652969506e-04 -3.919543074498e-06 0.0 
-3.919543074498e-06 1.731357780471e-03 0.0 
0.0 0.0 -2.933333333333e-04 
-2.950107556752e-04 -4.421896676778e-06 0.0 
-4.421896676778e-06 1.732082547633e-03 0.0 
0.0 0.0 -2.933333333333e-04 
-2.956972306013e-04 -4.536584589521e-06 0.0 
-4.536584589521e-06 1.732803218560e-03 0.0 
0.0 0.0 -2.933333333333e-04 
-2.961870944633e-04 -4.534681293724e-06 0.0 
-4.534681293724e-06 1.733302425641e-03 0.0 
0.0 0.0 -2.933333333333e-04 
-2.964446907551e-04 -4.383091967344e-06 0.0 
-4.383091967344e-06 1.733534087661e-03 0.0 
0.0 0.0 -2.933333333333e-04 
-2.965448609061e-04 -4.032111778608e-06 0.0 
-4.032111778608e-06 1.733556567348e-03 0.0 
0.0 0.0 -2.933333333333e-04 
-2.965422066374e-04 -3.441128449114e-06 0.0 
-3.441128449114e-06 1.733417935372e-03 0.0 
0.0 0.0 -2.933333333333e-04 
-2.964637898872e-04 -2.583146228120e-06 0.0 
-2.583146228120e-06 1.733161460897e-03 0.0 
0.0 0.0 -2.933333333333e-04 
-2.962859802226e-04 -1.356637869441e-06 0.0 
-1.356637869441e-06 1.732810030484e-03 0.0 
0.0 0.0 -2.933333333333e-04 
-2.961232762224e-04 4.322717174006e-07 0.0 
4.322717174006e-07 1.732599157441e-03 0.0 
0.0 0.0 -2.933333333333e-04 
-2.962139862530e-04 2.310434450395e-06 0.0 
2.310434450395e-06 1.732668458157e-03 0.0 
0.0 0.0 -2.933333333333e-04 
-2.965791624248e-04 4.118196179431e-06 0.0 
4.118196179431e-06 1.733173681766e-03 0.0 
0.0 0.0 -2.933333333333e-04 
-2.970197935224e-04 4.810030904380e-06 0.0 
4.810030904380e-06 1.733539864650e-03 0.0 
0.0 0.0 -2.933333333333e-04 
-2.972728426878e-04 6.019823157721e-06 0.0 
6.019823157721e-06 1.734462446054e-03 0.0 
0.0 0.0 -2.933333333333e-04 
-2.976303353793e-04 4.729593283429e-06 0.0 
4.729593283429e-06 1.734285895178e-03 0.0 
0.0 0.0 -2.933333333333e-04 
-2.972060370648e-04 6.898574448906e-06 0.0 
6.898574448906e-06 1.735976803444e-03 0.0 
0.0 0.0 -2.933333333333e-04 
-2.978582241910e-04 3.049832582668e-06 0.0 
3.049832582668e-06 1.732847460673e-03 0.0 
0.0 0.0 -2.933333333333e-04 
-2.930809121252e-04 1.459049574273e-05 0.0 
1.459049574273e-05 1.737198194830e-03 0.0 
0.0 0.0 -2.933333333333e-04 
-2.902738991463e-04 -7.427477140218e-06 0.0 
-7.427477140218e-06 1.761638628587e-03 0.0 
0.0 0.0 -2.960058309038e-04 
-2.435748903376e-04 1.260028918427e-05 0.0 
1.260028918427e-05 1.641234534695e-03 0.0 
0.0 0.0 -2.853401360544e-04 
-3.075534139628e-04 2.412740121268e-05 0.0 
2.412740121268e-05 2.105219673239e-03 0.0 
0.0 0.0 -3.519676952907e-04 
-3.514953782150e-04 -6.121431231864e-06 0.0 
-6.121431231864e-06 2.223151637376e-03 0.0 
0.0 0.0 -3.626389769158e-04 
-3.587315693994e-04 1.096665782617e-05 0.0 
1.096665782617e-05 2.201776320981e-03 0.0 
0.0 0.0 -3.600000000000e-04 
-3.644459387370e-04 2.098126894678e-06 0.0 
2.098126894678e-06 2.197482783051e-03 0.0 
0.0 0.0 -3.600000000000e-04 
-3.637653208407e-04 5.938369815788e-06 0.0 
5.938369815788e-06 2.200852497904e-03 0.0 
0.0 0.0 -3.600000000000e-04 
-3.646562371603e-04 4.863047388731e-06 0.0 
4.863047388731e-06 2.198597723898e-03 0.0 
0.0 0.0 -3.600000000000e-04 
-3.637142436613e-04 5.528885479162e-06 0.0 
5.528885479162e-06 2.198572806408e-03 0.0 
0.0 0.0 -3.600000000000e-04 
-3.631451218202e-04 4.030632283913e-06 0.0 
4.030632283913e-06 2.197230825920e-03 0.0 
0.0 0.0 -3.600000000000e-04 
-3.626391425452e-04 1.799883791411e-06 0.0 
1.799883791411e-06 2.196963521096e-03 0.0 
0.0 0.0 -3.600000000000e-04 
-3.629347040582e-04 -6.248683364205e-07 0.0 
-6.248683364205e-07 2.197222075070e-03 0.0 
0.0 0.0 -3.600000000000e-04 
-3.632350885949e-04 -1.950524288124e-06 0.0 
-1.950524288124e-06 2.197839748043e-03 0.0 
0.0 0.0 -3.600000000000e-04 
-3.632347660019e-04 -2.695279989995e-06 0.0 
-2.695279989995e-06 2.198148142526e-03 0.0 
0.0 0.0 -3.600000000000e-04 
-3.631062498386e-04 -3.344861292403e-06 0.0 
-3.344861292403e-06 2.198321706153e-03 0.0 
0.0 0.0 -3.600000000000e-04 
-3.629810469011e-04 -3.774035134459e-06 0.0 
-3.774035134459e-06 2.198420640153e-03 0.0 
0.0 0.0 -3.600000000000e-04 
-3.627935109947e-04 -3.861239186004e-06 0.0 
-3.861239186004e-06 2.198346847940e-03 0.0 
0.0 0.0 -3.600000000000e-04 
-3.623659696942e-04 -3.546956865480e-06 0.0 
-3.546956865480e-06 2.197968515867e-03 0.0 
0.0 0.0 -3.600000000000e-04 
-3.616855162426e-04 -3.197901034564e-06 0.0 
-3.197901034564e-06 2.197284235415e-03 0.0 
0.0 0.0 -3.600000000000e-04 
-3.610100603434e-04 -2.926270428563e-06 0.0 
-2.926270428563e-06 2.196608022425e-03 0.0 
0.0 0.0 -3.600000000000e-04 
-3.605838742006e-04 -2.658699863657e-06 0.0 
-2.658699863657e-06 2.196334608217e-03 0.0 
0.0 0.0 -3.600000000000e-04 
-3.608368736122e-04 -2.739324103129e-06 0.0 
-2.739324103129e-06 2.197020254621e-03 0.0 
0.0 0.0 -3.600000000000e-04 
-3.621715591980e-04 -7.667076261664e-06 0.0 
-7.667076261664e-06 2.198997385104e-03 0.0 
0.0 0.0 -3.600000000000e-04 
-3.636156739340e-04 1.080730155248e-04 0.0 
1.080730155248e-04 2.200856497118e-03 0.0 
0.0 0.0 -3.600000000000e-04 
-4.299402721253e-04 7.347302390735e-05 0.0 
7.347302390735e-05 2.663982272909e-03 0.0 
0.0 0.0 -4.266666666667e-04 
-4.281937864377e-04 1.451679010042e-05 0.0 
1.451679010042e-05 2.661695578936e-03 0.0 
0.0 0.0 -4.266666666667e-04 
-4.272255423018e-04 -2.022714610604e-06 0.0 
-2.022714610604e-06 2.660645160847e-03 0.0 
0.0 0.0 -4.266666666667e-04 
-4.272027915600e-04 -2.022654054614e-06 0.0 
-2.022654054614e-06 2.660662658724e-03 0.0 
0.0 0.0 -4.266666666667e-04 
-4.275839105044e-04 -1.776178352994e-06 0.0 
-1.776178352994e-06 2.661218520015e-03 0.0 
0.0 0.0 -4.266666666667e-04 
-4.282801255787e-04 -1.791669274209e-06 0.0 
-1.791669274209e-06 2.662030669155e-03 0.0 
0.0 0.0 -4.266666666667e-04 
-4.290001024384e-04 -2.498947391507e-06 0.0 
-2.498947391507e-06 2.662671095001e-03 0.0 
0.0 0.0 -4.266666666667e-04 
-4.292899889364e-04 -3.096368850652e-06 0.0 
-3.096368850652e-06 2.662653268105e-03 0.0 
0.0 0.0 -4.266666666667e-04 
-4.293129381118e-04 -2.811819826595e-06 0.0 
-2.811819826595e-06 2.662413292682e-03 0.0 
0.0 0.0 -4.266666666667e-04 
-4.297697120826e-04 -2.022907387695e-06 0.0 
-2.022907387695e-06 2.662395731629e-03 0.0 
0.0 0.0 -4.266666666667e-04 
-4.302589968875e-04 -1.629717038756e-06 0.0 
-1.629717038756e-06 2.662394761870e-03 0.0 
0.0 0.0 -4.266666666667e-04 
-4.302560929618e-04 -1.576122482626e-06 0.0 
-1.576122482626e-06 2.661898826988e-03 0.0 
0.0 0.0 -4.266666666667e-04 
-4.295703799059e-04 -3.345604087347e-07 0.0 
-3.345604087347e-07 2.660486684286e-03 0.0 
0.0 0.0 -4.266666666667e-04 
-4.292671254284e-04 3.968937228661e-06 0.0 
3.968937228661e-06 2.660659650919e-03 0.0 
0.0 0.0 -4.266666666667e-04 
-4.306471619154e-04 5.513996825656e-06 0.0 
5.513996825656e-06 2.661538482777e-03 0.0 
0.0 0.0 -4.266666666667e-04 
-4.319020466916e-04 7.766791381143e-06 0.0 
7.766791381143e-06 2.665023339729e-03 0.0 
0.0 0.0 -4.266666666667e-04 
-4.328473215747e-04 8.154616711599e-07 0.0 
8.154616711599e-07 2.662572037119e-03 0.0 
0.0 0.0 -4.266666666667e-04 
-4.258499713216e-04 1.095715842585e-05 0.0 
1.095715842585e-05 2.664926400988e-03 0.0 
0.0 0.0 -4.266666666667e-04 
-4.219848975642e-04 -8.971773474751e-06 0.0 
-8.971773474751e-06 2.691197449249e-03 0.0 
0.0 0.0 -4.293391642371e-04 
-3.746379728483e-04 4.166569321879e-06 0.0 
4.166569321879e-06 2.570236127041e-03 0.0 
0.0 0.0 -4.186734693878e-04 
-4.417760951276e-04 9.193159012164e-06 0.0 
9.193159012164e-06 3.032321566953e-03 0.0 
0.0 0.0 -4.852947845805e-04 
-4.904405177128e-04 -1.236587849360e-05 0.0 
-1.236587849360e-05 3.156055993877e-03 0.0 
0.0 0.0 -4.959669582118e-04 
-4.967982216663e-04 1.212517501771e-05 0.0 
1.212517501771e-05 3.134098180657e-03 0.0 
0.0 0.0 -4.933333333333e-04 
-5.004792842088e-04 7.599146367873e-06 0.0 
7.599146367873e-06 3.126678995157e-03 0.0 
0.0 0.0 -4.933333333333e-04 
-4.960205318575e-04 8.775115201583e-06 0.0 
8.775115201583e-06 3.126031319544e-03 0.0 
0.0 0.0 -4.933333333333e-04 
-4.965309946115e-04 8.850955263561e-07 0.0 
8.850955263561e-07 3.123763413131e-03 0.0 
0.0 0.0 -4.933333333333e-04 
-4.975874164433e-04 -1.339673929105e-06 0.0 
-1.339673929105e-06 3.126915566987e-03 0.0 
0.0 0.0 -4.933333333333e-04 
-4.976423867724e-04 -5.110045370361e-07 0.0 
-5.110045370361e-07 3.127848901976e-03 0.0 
0.0 0.0 -4.933333333333e-04 
-4.971264610240e-04 4.324488760150e-07 0.0 
4.324488760150e-07 3.127700753298e-03 0.0 
0.0 0.0 -4.933333333333e-04 
-4.956643920610e-04 -1.986474812840e-07 0.0 
-1.986474812840e-07 3.126840649999e-03 0.0 
0.0 0.0 -4.933333333333e-04 
-4.952008726881e-04 -2.496870911378e-06 0.0 
-2.496870911378e-06 3.127189740971e-03 0.0 
0.0 0.0 -4.933333333333e-04 
-4.957950968529e-04 -2.119478958571e-06 0.0 
-2.119478958571e-06 3.128109892710e-03 0.0 
0.0 0.0 -4.933333333333e-04 
-4.947282309581e-04 -5.907354459318e-07 0.0 
-5.907354459318e-07 3.127398294072e-03 0.0 
0.0 0.0 -4.933333333333e-04 
-4.939115212163e-04 -6.664772443702e-07 0.0 
-6.664772443702e-07 3.126242560420e-03 0.0 
0.0 0.0 -4.933333333333e-04 
-4.934010452771e-04 -1.579724324248e-06 0.0 
-1.579724324248e-06 3.125563968915e-03 0.0 
0.0 0.0 -4.933333333333e-04 
-4.934695658845e-04 -2.572403036763e-06 0.0 
-2.572403036763e-06 3.125197225552e-03 0.0 
0.0 0.0 -4.933333333333e-04 
-4.937822211755e-04 -5.749801901555e-06 0.0 
-5.749801901555e-06 3.125650090747e-03 0.0 
0.0 0.0 -4.933333333333e-04 
-4.958153218285e-04 -1.294595170896e-05 0.0 
-1.294595170896e-05 3.127747100962e-03 0.0 
0.0 0.0 -4.933333333333e-04 
-4.967157033350e-04 1.051029907090e-04 0.0 
1.051029907090e-04 3.128775367421e-03 0.0 
0.0 0.0 -4.933333333333e-04 
-5.657042211009e-04 7.172061321590e-05 0.0 
7.172061321590e-05 3.594572891729e-03 0.0 
0.0 0.0 -5.600000000000e-04 
-5.606564277313e-04 6.276433509278e-06 0.0 
6.276433509278e-06 3.589330402058e-03 0.0 
0.0 0.0 -5.600000000000e-04 
-5.593036989964e-04 -4.014653548484e-06 0.0 
-4.014653548484e-06 3.587906727700e-03 0.0 
0.0 0.0 -5.600000000000e-04 
-5.598957549004e-04 -3.280148762663e-06 0.0 
-3.280148762663e-06 3.589229298695e-03 0.0 
0.0 0.0 -5.600000000000e-04 
-5.585733264525e-04 -8.759229214119e-07 0.0 
-8.759229214119e-07 3.588940559384e-03 0.0 
0.0 0.0 -5.600000000000e-04 
-5.598002868746e-04 8.805971940518e-07 0.0 
8.805971940518e-07 3.590399635312e-03 0.0 
0.0 0.0 -5.600000000000e-04 
-5.606115027377e-04 2.079665756954e-06 0.0 
2.079665756954e-06 3.592266060973e-03 0.0 
0.0 0.0 -5.600000000000e-04 
-5.616801369451e-04 -2.737332668784e-06 0.0 
-2.737332668784e-06 3.592113678054e-03 0.0 
0.0 0.0 -5.600000000000e-04 
-5.603339834742e-04 8.452896902541e-07 0.0 
8.452896902541e-07 3.589104110670e-03 0.0 
0.0 0.0 -5.600000000000e-04 
-5.630816852247e-04 4.954130230072e-06 0.0 
4.954130230072e-06 3.591539403390e-03 0.0 
0.0 0.0 -5.600000000000e-04 
-5.648651149250e-04 2.409580910918e-06 0.0 
2.409580910918e-06 3.593050534195e-03 0.0 
0.0 0.0 -5.600000000000e-04 
-5.645521133458e-04 1.176363961043e-06 0.0 
1.176363961043e-06 3.591815920478e-03 0.0 
0.0 0.0 -5.600000000000e-04 
-5.658777849897e-04 2.204939376286e-07 0.0 
2.204939376286e-07 3.591458064609e-03 0.0 
0.0 0.0 -5.600000000000e-04 
-5.646691075266e-04 1.488981984683e-06 0.0 
1.488981984683e-06 3.584085442749e-03 0.0 
0.0 0.0 -5.600000000000e-04 
-5.620855148441e-04 2.241238949402e-05 0.0 
2.241238949402e-05 3.592013185388e-03 0.0 
0.0 0.0 -5.600000000000e-04 
-5.610961373632e-04 -4.661019393868e-06 0.0 
-4.661019393868e-06 3.625654344184e-03 0.0 
0.0 0.0 -5.626724975705e-04 
-5.133198511328e-04 5.424589988201e-06 0.0 
5.424589988201e-06 3.504617598641e-03 0.0 
0.0 0.0 -5.520068027211e-04 
-5.819676487161e-04 1.621050128555e-05 0.0 
1.621050128555e-05 3.968047816961e-03 0.0 
0.0 0.0 -6.186195084094e-04 
-6.343601883410e-04 -2.324978129531e-06 0.0 
-2.324978129531e-06 4.083322615344e-03 0.0 
0.0 0.0 -6.292929119699e-04 
-6.353679309005e-04 1.165699384269e-05 0.0 
1.165699384269e-05 4.057988551565e-03 0.0 
0.0 0.0 -6.266666666667e-04 
-6.295881338101e-04 1.024053571253e-05 0.0 
1.024053571253e-05 4.054182088558e-03 0.0 
0.0 0.0 -6.266666666667e-04 
-6.303664344858e-04 2.787103354690e-06 0.0 
2.787103354690e-06 4.057331405365e-03 0.0 
0.0 0.0 -6.266666666667e-04 
-6.305754933791e-04 7.671505889748e-06 0.0 
7.671505889748e-06 4.059447051202e-03 0.0 
0.0 0.0 -6.266666666667e-04 
-6.287463439775e-04 1.022004490749e-05 0.0 
1.022004490749e-05 4.054187203252e-03 0.0 
0.0 0.0 -6.266666666667e-04 
-6.280820473115e-04 -9.030982197206e-07 0.0 
-9.030982197206e-07 4.053941923266e-03 0.0 
0.0 0.0 -6.266666666667e-04 
-6.225272954157e-04 4.628296295730e-06 0.0 
4.628296295730e-06 4.057329077379e-03 0.0 
0.0 0.0 -6.266666666667e-04 
-6.249534833788e-04 2.617162154286e-07 0.0 
2.617162154286e-07 4.054948637219e-03 0.0 
0.0 0.0 -6.266666666667e-04 
-6.238122874528e-04 2.229418647887e-06 0.0 
2.229418647887e-06 4.053346801204e-03 0.0 
0.0 0.0 -6.266666666667e-04 
-6.234471408791e-04 -7.779197921562e-06 0.0 
-7.779197921562e-06 4.052220848929e-03 0.0 
0.0 0.0 -6.266666666667e-04 
-6.264844917596e-04 -3.145348627973e-06 0.0 
-3.145348627973e-06 4.054722692316e-03 0.0 
0.0 0.0 -6.266666666667e-04 
-6.251160575235e-04 -9.858748009992e-06 0.0 
-9.858748009992e-06 4.049423160403e-03 0.0 
0.0 0.0 -6.266666666667e-04 
-6.286316808085e-04 -3.394218781006e-05 0.0 
-3.394218781006e-05 4.059813257993e-03 0.0 
0.0 0.0 -6.266666666667e-04 
-6.381641142780e-04 1.124153375324e-04 0.0 
1.124153375324e-04 4.068774124134e-03 0.0 
0.0 0.0 -6.266666666667e-04 
-6.112648154112e-05 2.057582376636e-05 0.0 
2.057582376636e-05 2.373049901764e-04 0.0 
0.0 0.0 -7.119425116786e-05 
-1.546216371726e-04 6.400049167798e-05 0.0 
6.400049167798e-05 7.010998205819e-04 0.0 
0.0 0.0 -1.457676002711e-04 
-1.684472374073e-04 4.207235703721e-05 0.0 
4.207235703721e-05 1.042057531603e-03 0.0 
0.0 0.0 -1.988843244818e-04 
-2.358197999292e-04 4.576581623456e-05 0.0 
4.576581623456e-05 1.512721513539e-03 0.0 
0.0 0.0 -2.657627312065e-04 
-2.992106949204e-04 1.746855033810e-05 0.0 
1.746855033810e-05 1.971118758993e-03 0.0 
0.0 0.0 -3.310903933743e-04 
-3.554966514658e-04 3.194346604773e-05 0.0 
3.194346604773e-05 2.438311747236e-03 0.0 
0.0 0.0 -3.977576770754e-04 
-4.339038949759e-04 2.050581845428e-05 0.0 
2.050581845428e-05 2.896351248714e-03 0.0 
0.0 0.0 -4.650267612653e-04 
-4.998008163795e-04 2.874356037187e-05 0.0 
2.874356037187e-05 3.362017349155e-03 0.0 
0.0 0.0 -5.317697887215e-04 
-5.672864552025e-04 2.278912112824e-05 0.0 
2.278912112824e-05 3.826790215475e-03 0.0 
0.0 0.0 -5.985602557689e-04 
-6.332370943917e-04 2.492629895562e-05 0.0 
2.492629895562e-05 4.302559779817e-03 0.0 
0.0 0.0 -6.652967104836e-04 
-1.935964666812e-04 2.967460992406e-06 0.0 
2.967460992406e-06 9.892888486110e-04 0.0 
0.0 0.0 -1.870278901045e-04 
-1.298255034363e-03 -1.439677610189e-05 0.0 
-1.439677610189e-05 8.770849623045e-03 0.0 
0.0 0.0 -1.303388942653e-03 
-5.711706292197e-05 -1.132529147629e-05 0.0 
-1.132529147629e-05 2.965576224762e-04 0.0 
0.0 0.0 -5.718844814379e-05 
-5.424579011879e-05 -2.911933097956e-05 0.0 
-2.911933097956e-05 2.725297638318e-04 0.0 
0.0 0.0 -5.560925106412e-05 
-1.303094143304e-03 2.083700262778e-05 0.0 
2.083700262778e-05 8.775603321897e-03 0.0 
0.0 0.0 -1.303360877099e-03 
-3.337502689384e-04 2.573658945222e-05 0.0 
2.573658945222e-05 1.945399262405e-03 0.0 
0.0 0.0 -3.213286234882e-04 
-7.420382513691e-04 -8.331648497414e-06 0.0 
-8.331648497414e-06 4.783425200817e-03 0.0 
0.0 0.0 -7.300567563597e-04 
-1.300502925116e-03 1.312346542061e-05 0.0 
1.312346542061e-05 8.760360600138e-03 0.0 
0.0 0.0 -1.300998267065e-03 
-4.558051091763e-04 -3.180946065222e-05 0.0 
-3.180946065222e-05 2.815581106164e-03 0.0 
0.0 0.0 -4.497936382440e-04 
-1.301730818783e-03 3.906861163017e-06 0.0 
3.906861163017e-06 8.781071212001e-03 0.0 
0.0 0.0 -1.304014651794e-03 
-5.931132187702e-04 3.451249603908e-06 0.0 
3.451249603908e-06 3.770920661498e-03 0.0 
0.0 0.0 -5.857980290939e-04 
-1.294626432424e-03 1.231524946245e-05 0.0 
1.231524946245e-05 8.803233335001e-03 0.0 
0.0 0.0 -1.307658508868e-03 
-5.100449476861e-05 8.243347627880e-06 0.0 
8.243347627880e-06 2.661035943334e-04 0.0 
0.0 0.0 -5.457498774670e-05 
-1.304712708061e-03 6.002193481844e-06 0.0 
6.002193481844e-06 8.782841008775e-03 0.0 
0.0 0.0 -1.304481600125e-03 
-7.263025570844e-04 1.579439830822e-05 0.0 
1.579439830822e-05 4.732739805173e-03 0.0 
0.0 0.0 -7.203075318094e-04 
-4.572752679378e-04 6.754709539201e-06 0.0 
6.754709539201e-06 2.913924238746e-03 0.0 
0.0 0.0 -4.640473930190e-04 
-9.144584483085e-04 1.326427603797e-05 0.0 
1.326427603797e-05 6.048992087784e-03 0.0 
0.0 0.0 -9.125512086551e-04 
-1.295486455605e-03 -9.635721854312e-06 0.0 
-9.635721854312e-06 8.767400550756e-03 0.0 
0.0 0.0 -1.301280071178e-03 
-1.304620553661e-03 1.736330334078e-05 0.0 
1.736330334078e-05 8.785218481020e-03 0.0 
0.0 0.0 -1.304294760550e-03 
-1.308798115864e-03 -1.758872586471e-05 0.0 
-1.758872586471e-05 8.782113468746e-03 0.0 
0.0 0.0 -1.303238611779e-03 
-1.297364651419e-03 1.079949245934e-05 0.0 
1.079949245934e-05 8.741492182536e-03 0.0 
0.0 0.0 -1.297727402575e-03 
-1.310467176952e-03 -2.184753791197e-05 0.0 
-2.184753791197e-05 8.795852425490e-03 0.0 
0.0 0.0 -1.305306183856e-03 
-7.504043158260e-04 1.146340899481e-05 0.0 
1.146340899481e-05 4.928957716144e-03 0.0 
0.0 0.0 -7.522011426764e-04 
-7.523353912947e-04 1.162137769558e-05 0.0 
1.162137769558e-05 4.926512636401e-03 0.0 
0.0 0.0 -7.529849494387e-04 
-7.546537283985e-04 -1.241349829193e-05 0.0 
-1.241349829193e-05 4.950472109635e-03 0.0 
0.0 0.0 -7.580270452736e-04 
-9.976077557881e-04 -3.465320003210e-05 0.0 
-3.465320003210e-05 6.602229680106e-03 0.0 
0.0 0.0 -9.950081682429e-04 
-1.300592036334e-03 -1.108396441712e-05 0.0 
-1.108396441712e-05 8.788475349475e-03 0.0 
0.0 0.0 -1.302874185639e-03 
-4.947082956206e-05 -1.829296119633e-05 0.0 
-1.829296119633e-05 2.690780974868e-04 0.0 
0.0 0.0 -5.461765089471e-05 
-6.582489508632e-05 5.524694071877e-06 0.0 
5.524694071877e-06 3.064286723343e-04 0.0 
0.0 0.0 -5.841730026857e-05 
-1.120911548220e-03 -1.158571369170e-06 0.0 
-1.158571369170e-06 7.515613535503e-03 0.0 
0.0 0.0 -1.122886395833e-03 
-7.582082522979e-04 1.961281355472e-05 0.0 
1.961281355472e-05 4.902933380827e-03 0.0 
0.0 0.0 -7.500338828344e-04 
-2.694321437334e-04 2.278372598568e-06 0.0 
2.278372598568e-06 1.494554554088e-03 0.0 
0.0 0.0 -2.594501920933e-04 
-1.298427704971e-03 5.282056354370e-06 0.0 
5.282056354370e-06 8.696713485831e-03 0.0 
0.0 0.0 -1.293200138473e-03 
-1.306703206650e-03 1.354031549594e-05 0.0 
1.354031549594e-05 8.802982423650e-03 0.0 
0.0 0.0 -1.307307853467e-03 
-1.306558631645e-03 5.032010017815e-06 0.0 
5.032010017815e-06 8.775985095811e-03 0.0 
0.0 0.0 -1.304733450272e-03 
-1.299335994773e-03 1.249139207265e-05 0.0 
1.249139207265e-05 8.749655727550e-03 0.0 
0.0 0.0 -1.297928233296e-03 
-1.308929768589e-03 -1.641174944339e-05 0.0 
-1.641174944339e-05 8.785621003878e-03 0.0 
0.0 0.0 -1.305578568836e-03 
-6.266603041313e-05 2.501207789146e-06 0.0 
2.501207789146e-06 3.071735198218e-04 0.0 
0.0 0.0 -5.851952868525e-05 
-7.474245186294e-04 1.424161896041e-05 0.0 
1.424161896041e-05 4.916877911110e-03 0.0 
0.0 0.0 -7.500980793754e-04 
-1.296702677324e-03 1.017615489424e-05 0.0 
1.017615489424e-05 8.704965271547e-03 0.0 
0.0 0.0 -1.293180865222e-03 
-1.128899365850e-03 -3.031105506869e-05 0.0 
-3.031105506869e-05 7.537413441575e-03 0.0 
0.0 0.0 -1.123598490052e-03 
-5.732050020506e-05 -1.482205262673e-05 0.0 
-1.482205262673e-05 2.925850224953e-04 0.0 
0.0 0.0 -5.798785095130e-05 
-5.914251289981e-04 -6.471482804683e-06 0.0 
-6.471482804683e-06 3.820964198355e-03 0.0 
0.0 0.0 -5.937437734062e-04 
-1.319868342544e-03 -1.044247080549e-05 0.0 
-1.044247080549e-05 8.859569502417e-03 0.0 
0.0 0.0 -1.311981303940e-03 
-4.039407312574e-04 -1.513566039236e-05 0.0 
-1.513566039236e-05 2.425755132441e-03 0.0 
0.0 0.0 -3.897472533596e-04 
-2.622920170020e-04 7.443498411070e-06 0.0 
7.443498411070e-06 1.467365751784e-03 0.0 
0.0 0.0 -2.548795656134e-04 
-5.270389969687e-04 -7.501595445508e-06 0.0 
-7.501595445508e-06 3.294996993381e-03 0.0 
0.0 0.0 -5.178568985205e-04 
-6.568994839779e-04 -7.061170510206e-06 0.0 
-7.061170510206e-06 4.237934581571e-03 0.0 
0.0 0.0 -6.527703211191e-04 
-1.172487669236e-04 -1.455488225107e-05 0.0 
-1.455488225107e-05 4.809709659116e-04 0.0 
0.0 0.0 -1.118557093815e-04 
-8.696005125465e-04 -8.177489350844e-06 0.0 
-8.177489350844e-06 5.725890687358e-03 0.0 
0.0 0.0 -8.684787984471e-04 
-1.317974587429e-03 -1.269961975263e-05 0.0 
-1.269961975263e-05 8.865515668911e-03 0.0 
0.0 0.0 -1.313906642692e-03 
-5.185989643575e-05 2.926503183839e-05 0.0 
2.926503183839e-05 2.746618289318e-04 0.0 
0.0 0.0 -5.836448670120e-05 
-1.244012605559e-03 -1.337379541718e-07 0.0 
-1.337379541718e-07 8.417025004517e-03 0.0 
0.0 0.0 -1.253930875827e-03 
-7.490231005430e-04 1.074391793069e-05 0.0 
1.074391793069e-05 4.928373640173e-03 0.0 
0.0 0.0 -7.532271817479e-04 
-7.806985373677e-04 4.966139412134e-06 0.0 
4.966139412134e-06 5.109831204569e-03 0.0 
0.0 0.0 -7.809350190597e-04 
-8.062001814621e-04 2.173167671072e-05 0.0 
2.173167671072e-05 5.343609321704e-03 0.0 
0.0 0.0 -8.115578932774e-04 
-8.489268176994e-04 -8.110940848576e-06 0.0 
-8.110940848576e-06 5.566485028911e-03 0.0 
0.0 0.0 -8.428390908522e-04 
-8.804673106023e-04 1.251244415498e-07 0.0 
1.251244415498e-07 5.795279077470e-03 0.0 
0.0 0.0 -8.784658474099e-04 
-9.121627378672e-04 -7.430796722975e-06 0.0 
-7.430796722975e-06 6.000836909728e-03 0.0 
0.0 0.0 -9.060409163497e-04 
-8.756777626728e-04 -7.143189004740e-06 0.0 
-7.143189004740e-06 5.761383353658e-03 0.0 
0.0 0.0 -8.711257577414e-04 
-9.375016757268e-04 -9.018261483613e-06 0.0 
-9.018261483613e-06 6.200512371454e-03 0.0 
0.0 0.0 -9.341442283280e-04 
-9.034456709669e-04 -5.627619604468e-06 0.0 
-5.627619604468e-06 5.955351813444e-03 0.0 
0.0 0.0 -8.989774131092e-04 
-9.375397006910e-04 -9.487100187209e-06 0.0 
-9.487100187209e-06 6.248793060300e-03 0.0 
0.0 0.0 -9.415083590319e-04 
-9.651447206159e-04 -1.078565163388e-05 0.0 
-1.078565163388e-05 6.396664073005e-03 0.0 
0.0 0.0 -9.622976032585e-04 
-9.304266532056e-04 -6.330576673737e-06 0.0 
-6.330576673737e-06 6.148924780633e-03 0.0 
0.0 0.0 -9.268639294333e-04 
-9.923459703203e-04 -8.832674575543e-06 0.0 
-8.832674575543e-06 6.591396283472e-03 0.0 
0.0 0.0 -9.903372159162e-04 
-9.579486406670e-04 -6.976346530339e-06 0.0 
-6.976346530339e-06 6.343540435811e-03 0.0 
0.0 0.0 -9.547708836903e-04 
-8.957338589247e-04 -3.445195682082e-06 0.0 
-3.445195682082e-06 5.904490313780e-03 0.0 
0.0 0.0 -8.916807130884e-04 
-9.234034349690e-04 -3.140263271668e-06 0.0 
-3.140263271668e-06 6.097553141781e-03 0.0 
0.0 0.0 -9.194532194038e-04 
-8.597658352201e-04 -5.745984388493e-07 0.0 
-5.745984388493e-07 5.659471370407e-03 0.0 
0.0 0.0 -8.565021464485e-04 
-8.876676417698e-04 -1.521204235369e-06 0.0 
-1.521204235369e-06 5.852313305850e-03 0.0 
0.0 0.0 -8.841639842141e-04 
-9.508204613182e-04 -2.297031587581e-06 0.0 
-2.297031587581e-06 6.292146332209e-03 0.0 
0.0 0.0 -9.471984275390e-04 
-9.148993498348e-04 -3.275082318969e-06 0.0 
-3.275082318969e-06 6.045345094116e-03 0.0 
0.0 0.0 -9.118195294070e-04 
-8.520584533063e-04 -1.219021611581e-06 0.0 
-1.219021611581e-06 5.605756351829e-03 0.0 
0.0 0.0 -8.488396520500e-04 
-8.789321886970e-04 -2.050593653237e-06 0.0 
-2.050593653237e-06 5.797286878756e-03 0.0 
0.0 0.0 -8.764089341820e-04 
-8.161164546335e-04 3.435109532427e-07 0.0 
3.435109532427e-07 5.359457664966e-03 0.0 
0.0 0.0 -8.135623229517e-04 
-8.427829602136e-04 -1.073992276177e-06 0.0 
-1.073992276177e-06 5.550412011619e-03 0.0 
0.0 0.0 -8.410744910442e-04 
-7.803403629458e-04 1.482617335662e-07 0.0 
1.482617335662e-07 5.112144953619e-03 0.0 
0.0 0.0 -7.781617608290e-04 
-8.069161494671e-04 -9.832122125679e-07 0.0 
-9.832122125679e-07 5.303670065228e-03 0.0 
0.0 0.0 -8.056965831182e-04 
-8.693622760752e-04 -2.102828341516e-06 0.0 
-2.102828341516e-06 5.742393281941e-03 0.0 
0.0 0.0 -8.686949506212e-04 
-8.339431778097e-04 -6.526060623795e-07 0.0 
-6.526060623795e-07 5.495228078517e-03 0.0 
0.0 0.0 -8.332427817419e-04 
-7.711323033225e-04 2.736293389702e-07 0.0 
2.736293389702e-07 5.056666474078e-03 0.0 
0.0 0.0 -7.703313069557e-04 
-7.984646574761e-04 4.457733912314e-07 0.0 
4.457733912314e-07 5.248286890054e-03 0.0 
0.0 0.0 -7.977945042040e-04 
-7.355637814563e-04 1.290713586137e-06 0.0 
1.290713586137e-06 4.810484252267e-03 0.0 
0.0 0.0 -7.349073124327e-04 
-7.625544307913e-04 1.894462684370e-06 0.0 
1.894462684370e-06 4.999988831075e-03 0.0 
0.0 0.0 -7.622392297106e-04 
-8.257237067376e-04 1.120212681233e-06 0.0 
1.120212681233e-06 5.439584299338e-03 0.0 
0.0 0.0 -8.253152238873e-04 
-7.900934727742e-04 5.597935307122e-07 0.0 
5.597935307122e-07 5.191568262959e-03 0.0 
0.0 0.0 -7.896995018144e-04 
-7.266613947027e-04 4.187926819652e-07 0.0 
4.187926819652e-07 4.748654817893e-03 0.0 
0.0 0.0 -7.264132926704e-04 
-7.549260771137e-04 -7.052768559221e-07 0.0 
-7.052768559221e-07 4.942867002026e-03 0.0 
0.0 0.0 -7.539848323805e-04 
-6.914939078144e-04 -3.149044509648e-06 0.0 
-3.149044509648e-06 4.497991263930e-03 0.0 
0.0 0.0 -6.903858661722e-04 
-7.195945743336e-04 -6.350033788250e-09 0.0 
-6.350033788250e-09 4.694794432778e-03 0.0 
0.0 0.0 -7.182351804274e-04 
-6.554914090724e-04 -2.338725356815e-06 0.0 
-2.338725356815e-06 4.247612436471e-03 0.0 
0.0 0.0 -6.542402593883e-04 
-6.835277346368e-04 5.013350339318e-07 0.0 
5.013350339318e-07 4.443250069824e-03 0.0 
0.0 0.0 -6.821763112594e-04 
-7.475539329935e-04 -2.134179080123e-07 0.0 
-2.134179080123e-07 4.889262543532e-03 0.0 
0.0 0.0 -7.460902125261e-04 
-7.115638396740e-04 -9.716415015798e-07 0.0 
-9.716415015798e-07 4.638756710994e-03 0.0 
0.0 0.0 -7.100832486075e-04 
-6.472258987921e-04 -7.491708783280e-07 0.0 
-7.491708783280e-07 4.191362599469e-03 0.0 
0.0 0.0 -6.458624074531e-04 
-6.748538623222e-04 -1.344545062226e-06 0.0 
-1.344545062226e-06 4.385359401490e-03 0.0 
0.0 0.0 -6.737786430284e-04 
-7.391037565522e-04 -1.870094726741e-06 0.0 
-1.870094726741e-06 4.833803711944e-03 0.0 
0.0 0.0 -7.381473126730e-04 
-7.024920060125e-04 -1.771787760445e-06 0.0 
-1.771787760445e-06 4.579736205563e-03 0.0 
0.0 0.0 -7.017500108595e-04 
-7.668451599419e-04 -2.200372036207e-06 0.0 
-2.200372036207e-06 5.029184891420e-03 0.0 
0.0 0.0 -7.662494016216e-04 
-7.304037803270e-04 -1.328124908049e-06 0.0 
-1.328124908049e-06 4.775158829539e-03 0.0 
0.0 0.0 -7.297828278826e-04 
-6.661738894366e-04 -1.523527641000e-06 0.0 
-1.523527641000e-06 4.327585164653e-03 0.0 
0.0 0.0 -6.655364893108e-04 
-6.940255140087e-04 -3.189861403832e-07 0.0 
-3.189861403832e-07 4.522445273198e-03 0.0 
0.0 0.0 -6.934067383651e-04 
-7.582740677644e-04 -6.702170425335e-07 0.0 
-6.702170425335e-07 4.970550121083e-03 0.0 
0.0 0.0 -7.577868799165e-04 
-7.219132454205e-04 -3.552688472854e-07 0.0 
-3.552688472854e-07 4.715591284681e-03 0.0 
0.0 0.0 -7.212202614536e-04 
-6.579749567302e-04 -8.528343254352e-07 0.0 
-8.528343254352e-07 4.269380617603e-03 0.0 
0.0 0.0 -6.571136838490e-04 
-6.854396942303e-04 1.404532946377e-06 0.0 
1.404532946377e-06 4.463099019341e-03 0.0 
0.0 0.0 -6.848379476561e-04 
-7.499209568980e-04 9.788669448488e-07 0.0 
9.788669448488e-07 4.910836491420e-03 0.0 
0.0 0.0 -7.491645792950e-04 
-7.130866886284e-04 2.531462605044e-06 0.0 
2.531462605044e-06 4.656380230421e-03 0.0 
0.0 0.0 -7.127097857715e-04 
-6.490463142765e-04 2.026928070065e-06 0.0 
2.026928070065e-06 4.209801950481e-03 0.0 
0.0 0.0 -6.486049398320e-04 
-6.764658608434e-04 3.508718195911e-06 0.0 
3.508718195911e-06 4.404145734277e-03 0.0 
0.0 0.0 -6.763006240845e-04 
-7.410587565243e-04 2.977071001508e-06 0.0 
2.977071001508e-06 4.853988703533e-03 0.0 
0.0 0.0 -7.409416231994e-04 
-7.040690402047e-04 2.351563892175e-06 0.0 
2.351563892175e-06 4.597607851949e-03 0.0 
0.0 0.0 -7.042275185679e-04 
-6.395068044754e-04 3.551759029564e-06 0.0 
3.551759029564e-06 4.148883800447e-03 0.0 
0.0 0.0 -6.398389559308e-04 
-6.666949009553e-04 4.033462501281e-06 0.0 
4.033462501281e-06 4.341905952590e-03 0.0 
0.0 0.0 -6.674633383154e-04 
-7.319239687129e-04 2.339911819107e-06 0.0 
2.339911819107e-06 4.794577675996e-03 0.0 
0.0 0.0 -7.324886333286e-04 
-6.941465830902e-04 3.043408887488e-06 0.0 
3.043408887488e-06 4.534944571325e-03 0.0 
0.0 0.0 -6.954027321055e-04 
-7.599625173412e-04 1.739203305398e-06 0.0 
1.739203305398e-06 4.991507953981e-03 0.0 
0.0 0.0 -7.608997874520e-04 
-6.288087524292e-04 4.620726933277e-06 0.0 
4.620726933277e-06 4.080538413552e-03 0.0 
0.0 0.0 -6.302092384919e-04 
-6.562200550336e-04 2.527596513670e-06 0.0 
2.527596513670e-06 4.273760246295e-03 0.0 
0.0 0.0 -6.580989212857e-04 
-5.905021683275e-04 5.113861583814e-06 0.0 
5.113861583814e-06 3.817210818870e-03 0.0 
0.0 0.0 -5.925517106747e-04 
-6.180070563345e-04 1.748353135706e-06 0.0 
1.748353135706e-06 4.012241935297e-03 0.0 
0.0 0.0 -6.207111136070e-04 
-8.536335610934e-04 1.348609631281e-06 0.0 
1.348609631281e-06 5.632618076260e-03 0.0 
0.0 0.0 -8.529317679587e-04 
-5.517808621482e-04 4.295824092658e-06 0.0 
4.295824092658e-06 3.553884541992e-03 0.0 
0.0 0.0 -5.549884598765e-04 
-5.256512596246e-04 6.824695261283e-06 0.0 
6.824695261283e-06 3.365117692799e-03 0.0 
0.0 0.0 -5.276250340903e-04 
-5.798411198689e-04 -4.887552615026e-09 0.0 
-4.887552615026e-09 3.751124839276e-03 0.0 
0.0 0.0 -5.833260987948e-04 
-6.468648656295e-04 -6.634229100997e-07 0.0 
-6.634229100997e-07 4.212613913655e-03 0.0 
0.0 0.0 -6.493616581942e-04 
-5.137698154976e-04 1.586824553316e-06 0.0 
1.586824553316e-06 3.290773483107e-03 0.0 
0.0 0.0 -5.173870653820e-04 
-5.418307247047e-04 -1.136001153200e-06 0.0 
-1.136001153200e-06 3.490016299043e-03 0.0 
0.0 0.0 -5.459094278256e-04 
-4.770030151011e-04 2.075579507861e-06 0.0 
2.075579507861e-06 3.029794249274e-03 0.0 
0.0 0.0 -4.798161731008e-04 
-6.265889875599e-04 -3.099894472578e-06 0.0 
-3.099894472578e-06 4.044775427509e-03 0.0 
0.0 0.0 -6.252159162693e-04 
-9.779259260500e-04 -4.603917606282e-06 0.0 
-4.603917606282e-06 6.486620776824e-03 0.0 
0.0 0.0 -9.750716696758e-04 
-5.048311626822e-04 8.069914569193e-07 0.0 
8.069914569193e-07 3.230775089179e-03 0.0 
0.0 0.0 -5.084495576641e-04 
-4.414277464692e-04 -9.314775103438e-07 0.0 
-9.314775103438e-07 2.769397101649e-03 0.0 
0.0 0.0 -4.423119711188e-04 
-4.126781969751e-04 2.777234300748e-06 0.0 
2.777234300748e-06 2.568725273303e-03 0.0 
0.0 0.0 -4.136824817550e-04 
-3.752383636154e-04 2.627021531192e-07 0.0 
2.627021531192e-07 2.307149796782e-03 0.0 
0.0 0.0 -3.761903503575e-04 
-9.032923406135e-04 -1.942635711141e-05 0.0 
-1.942635711141e-05 6.054768473392e-03 0.0 
0.0 0.0 -9.126358703463e-04 
-9.750351070606e-04 8.331650578495e-07 0.0 
8.331650578495e-07 6.501449499714e-03 0.0 
0.0 0.0 -9.772611937912e-04 
-9.426936007590e-04 -8.476577603226e-06 0.0 
-8.476577603226e-06 6.285634427722e-03 0.0 
0.0 0.0 -9.468612964576e-04 
-1.013350986754e-03 -2.420793703351e-06 0.0 
-2.420793703351e-06 6.752430832338e-03 0.0 
0.0 0.0 -1.012955122490e-03 
-9.819905249802e-04 -9.218190891256e-06 0.0 
-9.218190891256e-06 6.546568860747e-03 0.0 
0.0 0.0 -9.835180958883e-04 
-4.033189249179e-04 -7.405594451594e-06 0.0 
-7.405594451594e-06 2.507023825451e-03 0.0 
0.0 0.0 -4.047791634435e-04 
-1.026297749493e-03 -7.873848128138e-06 0.0 
-7.873848128138e-06 6.842470359288e-03 0.0 
0.0 0.0 -1.026687169009e-03 
-1.041976492742e-03 3.297528438882e-06 0.0 
3.297528438882e-06 6.953471480802e-03 0.0 
0.0 0.0 -1.042264213861e-03 
-7.894126093117e-04 1.238093184259e-06 0.0 
1.238093184259e-06 5.169984540206e-03 0.0 
0.0 0.0 -7.861871271282e-04 
-7.083334352115e-04 1.160791963812e-06 0.0 
1.160791963812e-06 4.619009573669e-03 0.0 
0.0 0.0 -7.076088937226e-04 
-8.034448321061e-04 -3.641604808727e-06 0.0 
-3.641604808727e-06 5.283437919380e-03 0.0 
0.0 0.0 -8.027518904046e-04 
-5.699317647336e-04 -5.077104347375e-06 0.0 
-5.077104347375e-06 3.690391390143e-03 0.0 
0.0 0.0 -5.745905038755e-04 
-5.325923514100e-04 1.264931689698e-06 0.0 
1.264931689698e-06 3.434700451156e-03 0.0 
0.0 0.0 -5.371338854166e-04 
-6.021414154153e-04 -1.123287284899e-05 0.0 
-1.123287284899e-05 3.895898666929e-03 0.0 
0.0 0.0 -6.033452624549e-04 
-7.975586205945e-04 7.346724403241e-07 0.0 
7.346724403241e-07 5.250837552224e-03 0.0 
0.0 0.0 -7.980428604176e-04 
-8.260589898795e-04 8.470418804300e-07 0.0 
8.470418804300e-07 5.449813526142e-03 0.0 
0.0 0.0 -8.266132305475e-04 
-8.633840041631e-04 4.108677630607e-07 0.0 
4.108677630607e-07 5.709024598085e-03 0.0 
0.0 0.0 -8.638188500004e-04 
-8.921637692903e-04 4.125221994134e-07 0.0 
4.125221994134e-07 5.908664068470e-03 0.0 
0.0 0.0 -8.924533907576e-04 
-9.293171742377e-04 3.033539280225e-07 0.0 
3.033539280225e-07 6.168083546013e-03 0.0 
0.0 0.0 -9.297164513315e-04 
-9.582709124814e-04 8.513827699034e-07 0.0 
8.513827699034e-07 6.368400937687e-03 0.0 
0.0 0.0 -9.583747859490e-04 
-9.209100768105e-04 -4.256218772052e-07 0.0 
-4.256218772052e-07 6.108351576790e-03 0.0 
0.0 0.0 -9.210728288235e-04 
-9.873571107966e-04 -7.195723232427e-07 0.0 
-7.195723232427e-07 6.568673837727e-03 0.0 
0.0 0.0 -9.870277070005e-04 
-9.496224461858e-04 -1.641275595006e-06 0.0 
-1.641275595006e-06 6.308003890192e-03 0.0 
0.0 0.0 -9.497007337289e-04 
-9.952004913146e-04 1.269240357773e-06 0.0 
1.269240357773e-06 6.627713601016e-03 0.0 
0.0 0.0 -9.956835613869e-04 
-9.665012269537e-04 -8.709086142766e-07 0.0 
-8.709086142766e-07 6.427165842683e-03 0.0 
0.0 0.0 -9.668198671257e-04 
-1.015999965498e-03 -2.659789521436e-06 0.0 
-2.659789521436e-06 6.768164853944e-03 0.0 
0.0 0.0 -1.015681523326e-03 
-9.780689760981e-04 -1.773026811925e-06 0.0 
-1.773026811925e-06 6.507705614272e-03 0.0 
0.0 0.0 -9.783260305704e-04 
-1.043750394909e-03 -2.772279525269e-06 0.0 
-2.772279525269e-06 6.967527210065e-03 0.0 
0.0 0.0 -1.044362401637e-03 
-1.005977853166e-03 -2.262113223713e-06 0.0 
-2.262113223713e-06 6.706658029639e-03 0.0 
0.0 0.0 -1.007007767922e-03 
-9.404749716457e-04 -1.193534276241e-06 0.0 
-1.193534276241e-06 6.246239019973e-03 0.0 
0.0 0.0 -9.408676861799e-04 
-9.684909118554e-04 -8.529271608850e-07 0.0 
-8.529271608850e-07 6.444829778042e-03 0.0 
0.0 0.0 -9.695029660748e-04 
-9.037723104014e-04 -2.350012697862e-06 0.0 
-2.350012697862e-06 5.986848649888e-03 0.0 
0.0 0.0 -9.035672079865e-04 
-8.314464570683e-04 -3.616594317120e-06 0.0 
-3.616594317120e-06 5.479880314984e-03 0.0 
0.0 0.0 -8.309624794500e-04 
-8.682753299777e-04 -4.472916759998e-06 0.0 
-4.472916759998e-06 5.735257211893e-03 0.0 
0.0 0.0 -8.675775700443e-04 
-8.962132157839e-04 -3.994715245344e-06 0.0 
-3.994715245344e-06 5.931796623670e-03 0.0 
0.0 0.0 -8.958500940740e-04 
-9.334915543321e-04 -5.104595478866e-06 0.0 
-5.104595478866e-06 6.188168080628e-03 0.0 
0.0 0.0 -9.325549191312e-04 
-9.611906856985e-04 -4.832422115401e-06 0.0 
-4.832422115401e-06 6.384949120317e-03 0.0 
0.0 0.0 -9.609176734917e-04 
-9.993166695242e-04 -5.921015935425e-06 0.0 
-5.921015935425e-06 6.642197475408e-03 0.0 
0.0 0.0 -9.976363410588e-04 
-1.026869107811e-03 -5.279541534963e-06 0.0 
-5.279541534963e-06 6.837737939095e-03 0.0 
0.0 0.0 -1.026032504441e-03 
-9.888890578615e-04 -3.536873257987e-06 0.0 
-3.536873257987e-06 6.582021445560e-03 0.0 
0.0 0.0 -9.892761093609e-04 
-1.020948249731e-03 -5.775826579324e-06 0.0 
-5.775826579324e-06 6.785097853957e-03 0.0 
0.0 0.0 -1.018102500310e-03 
-6.106564943980e-04 -8.377932010432e-07 0.0 
-8.377932010432e-07 3.937861241286e-03 0.0 
0.0 0.0 -6.095594541484e-04 
-5.829707017919e-04 -8.761996171907e-07 0.0 
-8.761996171907e-07 3.743841342214e-03 0.0 
0.0 0.0 -5.816898710390e-04 
-5.468224651884e-04 3.532374184944e-07 0.0 
3.532374184944e-07 3.491149788400e-03 0.0 
0.0 0.0 -5.454521931755e-04 
-5.191424428682e-04 -2.726566040464e-07 0.0 
-2.726566040464e-07 3.297674531074e-03 0.0 
0.0 0.0 -5.176388733440e-04 
-4.833226440277e-04 2.092058671685e-06 0.0 
2.092058671685e-06 3.045002640289e-03 0.0 
0.0 0.0 -4.814163979944e-04 
-4.557758029646e-04 1.050100036915e-06 0.0 
1.050100036915e-06 2.852852491029e-03 0.0 
0.0 0.0 -4.537165770244e-04 
-4.203756978464e-04 3.745088126595e-06 0.0 
3.745088126595e-06 2.598843361212e-03 0.0 
0.0 0.0 -4.172264234068e-04 
-4.466735727578e-04 5.480427943032e-06 0.0 
5.480427943032e-06 2.790981770740e-03 0.0 
0.0 0.0 -4.450327826477e-04 
-3.836326554131e-04 7.904997896629e-06 0.0 
7.904997896629e-06 2.342835906920e-03 0.0 
0.0 0.0 -3.805252178390e-04 
-4.084193757355e-04 7.242552144220e-06 0.0 
7.242552144220e-06 2.535005811079e-03 0.0 
0.0 0.0 -4.085362445790e-04 
-3.461331758914e-04 8.763341315909e-06 0.0 
8.763341315909e-06 2.084280570054e-03 0.0 
0.0 0.0 -3.437934912881e-04 
-3.698709012629e-04 8.292346557788e-06 0.0 
8.292346557788e-06 2.277114687721e-03 0.0 
0.0 0.0 -3.717096690223e-04 
-8.965032625882e-04 -1.627591660556e-06 0.0 
-1.627591660556e-06 5.934603885101e-03 0.0 
0.0 0.0 -8.963565068603e-04 
-9.708908500796e-04 -5.045480792170e-06 0.0 
-5.045480792170e-06 6.444533853224e-03 0.0 
0.0 0.0 -9.691568884624e-04 
-1.036699855876e-03 -2.770010414098e-06 0.0 
-2.770010414098e-06 6.900219655108e-03 0.0 
0.0 0.0 -1.034312087004e-03 
-1.006639220865e-03 -3.033633605211e-06 0.0 
-3.033633605211e-06 6.698197690662e-03 0.0 
0.0 0.0 -1.005320805676e-03 
-3.491849021405e-04 5.274199755838e-07 0.0 
5.274199755838e-07 2.108115059856e-03 0.0 
0.0 0.0 -3.475522021424e-04 
-1.033063842021e-03 -2.635650059534e-06 0.0 
-2.635650059534e-06 6.905166544597e-03 0.0 
0.0 0.0 -1.035773625862e-03 
-1.032236772368e-03 -1.431372014474e-06 0.0 
-1.431372014474e-06 6.887149851833e-03 0.0 
0.0 0.0 -1.032922975483e-03 
-1.003745583219e-03 -3.564129010650e-06 0.0 
-3.564129010650e-06 6.683661322661e-03 0.0 
0.0 0.0 -1.003739924893e-03 
-1.054629030311e-03 -7.601280978035e-07 0.0 
-7.601280978035e-07 7.036563315422e-03 0.0 
0.0 0.0 -1.054598834243e-03 
-3.382801587767e-04 -2.979708598332e-06 0.0 
-2.979708598332e-06 2.049061231215e-03 0.0 
0.0 0.0 -3.392587823741e-04 
-3.925929468368e-04 -3.827429239524e-07 0.0 
-3.827429239524e-07 2.409736501278e-03 0.0 
0.0 0.0 -3.899405068163e-04 
-4.274717193387e-04 -8.415189164508e-08 0.0 
-8.415189164508e-08 2.658832617141e-03 0.0 
0.0 0.0 -4.261104576107e-04 
-1.049394948444e-03 -6.226283885141e-06 0.0 
-6.226283885141e-06 7.001982288460e-03 0.0 
0.0 0.0 -1.048874596840e-03 
-1.017918189327e-03 -8.563044135216e-06 0.0 
-8.563044135216e-06 6.794247194180e-03 0.0 
0.0 0.0 -1.019458214591e-03 
-1.069216758149e-03 -3.894499857360e-06 0.0 
-3.894499857360e-06 7.146438403505e-03 0.0 
0.0 0.0 -1.070157681403e-03 
-3.646275857635e-04 -4.854414982703e-06 0.0 
-4.854414982703e-06 2.250210390791e-03 0.0 
0.0 0.0 -3.675747464493e-04 
-1.054357939260e-03 -2.436299897868e-06 0.0 
-2.436299897868e-06 7.029823091953e-03 0.0 
0.0 0.0 -1.052997445444e-03 
-3.197645753905e-04 1.264604075079e-05 0.0 
1.264604075079e-05 1.895364248012e-03 0.0 
0.0 0.0 -3.160508651072e-04 
-9.953050425208e-04 1.480628501678e-06 0.0 
1.480628501678e-06 6.643084749548e-03 0.0 
0.0 0.0 -9.982306137915e-04 
-1.060585647238e-03 -1.664106558619e-06 0.0 
-1.664106558619e-06 7.103829563321e-03 0.0 
0.0 0.0 -1.064501221861e-03 
-8.833816014428e-04 -1.312725406901e-06 0.0 
-1.312725406901e-06 5.848632048973e-03 0.0 
0.0 0.0 -8.838659695519e-04 
-1.072126527592e-03 1.342848407697e-06 0.0 
1.342848407697e-06 7.156046509616e-03 0.0 
0.0 0.0 -1.070909199420e-03 
-1.040873144494e-03 -1.559728385229e-06 0.0 
-1.559728385229e-06 6.945723517804e-03 0.0 
0.0 0.0 -1.041442769611e-03 
-4.361432558223e-04 3.964498909213e-06 0.0 
3.964498909213e-06 2.732385665183e-03 0.0 
0.0 0.0 -4.368024751037e-04 
-4.014490958451e-04 -4.456139007959e-06 0.0 
-4.456139007959e-06 2.476345149205e-03 0.0 
0.0 0.0 -4.000028750317e-04 
-3.379276697082e-04 -9.389203744037e-07 0.0 
-9.389203744037e-07 2.030025360652e-03 0.0 
0.0 0.0 -3.362177140684e-04 
-3.635969428548e-04 1.373767669615e-06 0.0 
1.373767669615e-06 2.244616072891e-03 0.0 
0.0 0.0 -3.646174584383e-04 
-4.300938244296e-04 1.567544356571e-06 0.0 
1.567544356571e-06 2.681550340782e-03 0.0 
0.0 0.0 -4.284477484795e-04 
-3.889085083712e-04 9.835552762117e-06 0.0 
9.835552762117e-06 2.418297915731e-03 0.0 
0.0 0.0 -3.914172224959e-04 
-3.204770754165e-04 1.907323267821e-05 0.0 
1.907323267821e-05 1.962571053020e-03 0.0 
0.0 0.0 -3.275549428413e-04 
-3.502907991613e-04 7.488671343041e-06 0.0 
7.488671343041e-06 2.156719423536e-03 0.0 
0.0 0.0 -3.541853722931e-04 
-4.167106155497e-04 6.881429257357e-06 0.0 
6.881429257357e-06 2.610903268491e-03 0.0 
0.0 0.0 -4.192720002935e-04 
-3.788914181042e-04 4.343078442166e-06 0.0 
4.343078442166e-06 2.349536149817e-03 0.0 
0.0 0.0 -3.818909459020e-04 
-3.084459074470e-04 6.289188176843e-07 0.0 
6.289188176843e-07 1.890259859558e-03 0.0 
0.0 0.0 -3.163726278224e-04 
-3.419617535017e-04 -1.002237531295e-06 0.0 
-1.002237531295e-06 2.083935112305e-03 0.0 
0.0 0.0 -3.442135738104e-04 
-1.099071483736e-03 -4.059536723364e-06 0.0 
-4.059536723364e-06 7.365286043721e-03 0.0 
0.0 0.0 -1.101875158976e-03 
-2.778270531889e-04 5.606786557982e-06 0.0 
5.606786557982e-06 1.634146459113e-03 0.0 
0.0 0.0 -2.790856233436e-04 
-8.331232600789e-04 -1.470432704238e-06 0.0 
-1.470432704238e-06 5.468049203594e-03 0.0 
0.0 0.0 -8.288706041983e-04 
-1.097753538925e-03 -6.819421047825e-08 0.0 
-6.819421047825e-08 7.345996197340e-03 0.0 
0.0 0.0 -1.099012274073e-03 
-1.093116720620e-03 -8.666493399981e-07 0.0 
-8.666493399981e-07 7.286837829642e-03 0.0 
0.0 0.0 -1.090660416876e-03 
-1.084365567575e-03 -6.280824779061e-06 0.0 
-6.280824779061e-06 7.252032631151e-03 0.0 
0.0 0.0 -1.085032576515e-03 
-1.054657705810e-03 -6.435631966225e-06 0.0 
-6.435631966225e-06 7.045218181684e-03 0.0 
0.0 0.0 -1.055603631703e-03 
-9.875851288997e-04 -1.413805567798e-06 0.0 
-1.413805567798e-06 6.584177510452e-03 0.0 
0.0 0.0 -9.897378988699e-04 
-1.026769546168e-03 -2.237330550632e-06 0.0 
-2.237330550632e-06 6.840866959104e-03 0.0 
0.0 0.0 -1.026001677571e-03 
-1.092973095107e-03 -7.454569989655e-06 0.0 
-7.454569989655e-06 7.301089234385e-03 0.0 
0.0 0.0 -1.091942449670e-03 
-1.064751991023e-03 -3.501272267758e-06 0.0 
-3.501272267758e-06 7.095620902661e-03 0.0 
0.0 0.0 -1.062342898562e-03 
-9.988564979816e-04 -1.668871402209e-06 0.0 
-1.668871402209e-06 6.635005463114e-03 0.0 
0.0 0.0 -9.962627399151e-04 
-1.034436478479e-03 -1.481002808329e-06 0.0 
-1.481002808329e-06 6.886326563749e-03 0.0 
0.0 0.0 -1.032646955902e-03 
-9.669903561008e-04 -1.588757973743e-06 0.0 
-1.588757973743e-06 6.424013170772e-03 0.0 
0.0 0.0 -9.664557332607e-04 
-1.003700280699e-03 7.299281572321e-07 0.0 
7.299281572321e-07 6.676052297610e-03 0.0 
0.0 0.0 -1.002889032254e-03 
-1.069539961128e-03 -1.406306334187e-06 0.0 
-1.406306334187e-06 7.137459283332e-03 0.0 
0.0 0.0 -1.069134413525e-03 
-1.040251277345e-03 -2.304501535935e-06 0.0 
-2.304501535935e-06 6.929939891367e-03 0.0 
0.0 0.0 -1.039387411609e-03 
-9.757356294361e-04 3.492291009929e-06 0.0 
3.492291009929e-06 6.469291385121e-03 0.0 
0.0 0.0 -9.730575354659e-04 
-1.011311036558e-03 -3.920010342677e-06 0.0 
-3.920010342677e-06 6.721391753202e-03 0.0 
0.0 0.0 -1.009574527126e-03 
-9.473976655285e-04 1.069754497064e-06 0.0 
1.069754497064e-06 6.259448801403e-03 0.0 
0.0 0.0 -9.431603702596e-04 
-9.787243902099e-04 -9.076392670537e-06 0.0 
-9.076392670537e-06 6.505694726987e-03 0.0 
0.0 0.0 -9.796061197752e-04 
-1.045613844249e-03 -1.722974318839e-06 0.0 
-1.722974318839e-06 6.974649094867e-03 0.0 
0.0 0.0 -1.046101832713e-03 
-2.943775444909e-04 -6.928567679433e-07 0.0 
-6.928567679433e-07 1.805789486149e-03 0.0 
0.0 0.0 -3.035957800550e-04 
-1.017758437713e-03 8.339975111657e-07 0.0 
8.339975111657e-07 6.780275813963e-03 0.0 
0.0 0.0 -1.017732614895e-03 
-1.085695951343e-03 9.008470653870e-06 0.0 
9.008470653870e-06 7.238624846316e-03 0.0 
0.0 0.0 -1.083831836677e-03 
-5.709103913775e-04 -2.325431224873e-05 0.0 
-2.325431224873e-05 3.664168357293e-03 0.0 
0.0 0.0 -5.671321338944e-04 
-6.324387949388e-04 -2.542767452312e-05 0.0 
-2.542767452312e-05 4.079572971033e-03 0.0 
0.0 0.0 -6.325382687906e-04 
-6.703304024063e-04 2.057485422859e-06 0.0 
2.057485422859e-06 4.353279279577e-03 0.0 
0.0 0.0 -6.695659616924e-04 
-6.965174910300e-04 -2.385319859479e-06 0.0 
-2.385319859479e-06 4.560833435242e-03 0.0 
0.0 0.0 -6.986863204145e-04 
-1.013217864429e-03 -6.931448216259e-06 0.0 
-6.931448216259e-06 6.760757040862e-03 0.0 
0.0 0.0 -1.015477767897e-03 
-1.085754476307e-03 4.526117246910e-06 0.0 
4.526117246910e-06 7.228792746516e-03 0.0 
0.0 0.0 -1.082739357160e-03 
-3.632786350414e-04 -5.324944035327e-07 0.0 
-5.324944035327e-07 2.218076515491e-03 0.0 
0.0 0.0 -3.630904347118e-04 
-3.989196443091e-04 3.443700858762e-06 0.0 
3.443700858762e-06 2.465366928233e-03 0.0 
0.0 0.0 -3.987635198617e-04 
-1.114604240908e-03 -4.187271034226e-06 0.0 
-4.187271034226e-06 7.457266297093e-03 0.0 
0.0 0.0 -1.114382729655e-03 
-1.023827423401e-03 3.244776891225e-07 0.0 
3.244776891225e-07 6.846372715936e-03 0.0 
0.0 0.0 -1.027045364000e-03 
-9.591711885291e-04 5.195306824493e-06 0.0 
5.195306824493e-06 6.383348184143e-03 0.0 
0.0 0.0 -9.609938998495e-04 
-6.727539858769e-04 1.372459178944e-06 0.0 
1.372459178944e-06 4.373266699252e-03 0.0 
0.0 0.0 -6.721935305596e-04 
-6.457182263888e-04 2.843205903177e-06 0.0 
2.843205903177e-06 4.180265241662e-03 0.0 
0.0 0.0 -6.449639573754e-04 
-6.090109741668e-04 -1.269187225447e-06 0.0 
-1.269187225447e-06 3.932858286179e-03 0.0 
0.0 0.0 -6.093131083769e-04 
-5.816903259702e-04 4.641891431307e-06 0.0 
4.641891431307e-06 3.732340485873e-03 0.0 
0.0 0.0 -5.812298138028e-04 
-6.200283683434e-04 9.586645545084e-06 0.0 
9.586645545084e-06 3.992414838426e-03 0.0 
0.0 0.0 -6.173664885638e-04 
-5.434193891668e-04 -9.403867661895e-06 0.0 
-9.403867661895e-06 3.478668698049e-03 0.0 
0.0 0.0 -5.448148816535e-04 
-9.373928058819e-04 -1.601369738948e-06 0.0 
-1.601369738948e-06 6.221929865538e-03 0.0 
0.0 0.0 -9.373051277721e-04 
-1.105789133782e-03 -5.097961888882e-06 0.0 
-5.097961888882e-06 7.391609738888e-03 0.0 
0.0 0.0 -1.105708206284e-03 
-3.854345613970e-04 8.443027839789e-06 0.0 
8.443027839789e-06 2.371646984252e-03 0.0 
0.0 0.0 -3.852871208612e-04 
-3.201910169613e-04 4.758000015150e-06 0.0 
4.758000015150e-06 1.911169802832e-03 0.0 
0.0 0.0 -3.193625892355e-04 
-1.092402492623e-03 -1.167819157839e-06 0.0 
-1.167819157839e-06 7.309660398486e-03 0.0 
0.0 0.0 -1.093300181677e-03 
-9.522712570359e-04 -2.708707743114e-07 0.0 
-2.708707743114e-07 6.324723503682e-03 0.0 
0.0 0.0 -9.522822042369e-04 
-9.318364452749e-04 -3.558001127055e-06 0.0 
-3.558001127055e-06 6.182417451607e-03 0.0 
0.0 0.0 -9.319735432435e-04 
-9.592391997822e-04 -2.458009781571e-06 0.0 
-2.458009781571e-06 6.375907434676e-03 0.0 
0.0 0.0 -9.598347391831e-04 
-9.950739296231e-04 -4.572796618563e-06 0.0 
-4.572796618563e-06 6.625947379230e-03 0.0 
0.0 0.0 -9.957130113267e-04 
-1.022389104434e-03 -1.719325875494e-06 0.0 
-1.719325875494e-06 6.820013246431e-03 0.0 
0.0 0.0 -1.023751803962e-03 
-1.059370439720e-03 -5.405362556185e-06 0.0 
-5.405362556185e-06 7.072199763534e-03 0.0 
0.0 0.0 -1.059873349132e-03 
-1.087678763415e-03 -2.923161999974e-06 0.0 
-2.923161999974e-06 7.265128234670e-03 0.0 
0.0 0.0 -1.087854580038e-03 
-1.051303081443e-03 5.171402569004e-07 0.0 
5.171402569004e-07 7.018896459243e-03 0.0 
0.0 0.0 -1.051791170495e-03 
-1.103769166382e-03 7.691851827816e-06 0.0 
7.691851827816e-06 7.404894528321e-03 0.0 
0.0 0.0 -1.107463318235e-03 
-1.117712624745e-03 -3.586966882223e-06 0.0 
-3.586966882223e-06 7.467456065744e-03 0.0 
0.0 0.0 -1.115916943430e-03 
-9.389683298366e-04 8.173508751319e-06 0.0 
8.173508751319e-06 6.277342985551e-03 0.0 
0.0 0.0 -9.487150400336e-04 
-9.410739694122e-04 -1.111791304635e-06 0.0 
-1.111791304635e-06 6.241243045591e-03 0.0 
0.0 0.0 -9.398448712237e-04 
-4.457204000866e-04 5.557813324707e-06 0.0 
5.557813324707e-06 2.807268937135e-03 0.0 
0.0 0.0 -4.474652294669e-04 
-2.787239558753e-04 -1.594210911560e-05 0.0 
-1.594210911560e-05 1.590980471387e-03 0.0 
0.0 0.0 -2.752498982733e-04 
-2.801629165478e-04 1.388173637082e-07 0.0 
1.388173637082e-07 1.614413284500e-03 0.0 
0.0 0.0 -2.770275614452e-04 
-3.257086370933e-04 6.463444473936e-06 0.0 
6.463444473936e-06 1.982032803988e-03 0.0 
0.0 0.0 -3.299748606085e-04 
-3.924316838371e-04 3.341960258316e-06 0.0 
3.341960258316e-06 2.447443434601e-03 0.0 
0.0 0.0 -3.961554456411e-04 
-1.134349550786e-03 -1.652632845498e-06 0.0 
-1.652632845498e-06 7.607275251226e-03 0.0 
0.0 0.0 -1.136360603439e-03 
-1.125800754315e-03 -5.253853129321e-06 0.0 
-5.253853129321e-06 7.520991050392e-03 0.0 
0.0 0.0 -1.124065295910e-03 
-1.096791908378e-03 -5.220402544512e-06 0.0 
-5.220402544512e-06 7.320289406061e-03 0.0 
0.0 0.0 -1.095615423988e-03 
-5.557080703907e-04 2.060507655016e-05 0.0 
2.060507655016e-05 3.553838567094e-03 0.0 
0.0 0.0 -5.539799138139e-04 
-5.938414920039e-04 6.065843658319e-06 0.0 
6.065843658319e-06 3.806784454423e-03 0.0 
0.0 0.0 -5.905304635153e-04 
-1.132061157024e-03 2.994999273335e-06 0.0 
2.994999273335e-06 7.609332849678e-03 0.0 
0.0 0.0 -1.136278651916e-03 
-9.052603845710e-04 -1.496793008781e-06 0.0 
-1.496793008781e-06 6.089428360264e-03 0.0 
0.0 0.0 -9.177848451843e-04 
-9.302886435712e-04 -1.143901140706e-06 0.0 
-1.143901140706e-06 6.175006027383e-03 0.0 
0.0 0.0 -9.302130594432e-04 
-8.986318941469e-04 1.808913455713e-06 0.0 
1.808913455713e-06 5.958837749668e-03 0.0 
0.0 0.0 -9.001900590098e-04 
-2.448154097378e-04 -1.421673720988e-05 0.0 
-1.421673720988e-05 1.469020257813e-03 0.0 
0.0 0.0 -2.595221258752e-04 
-2.425141975508e-04 4.798340757522e-06 0.0 
4.798340757522e-06 1.427444744679e-03 0.0 
0.0 0.0 -2.525597767350e-04 
-1.129866785975e-03 -6.589135683467e-06 0.0 
-6.589135683467e-06 7.556758245339e-03 0.0 
0.0 0.0 -1.128363834889e-03 
-4.625030533362e-04 2.152653740951e-06 0.0 
2.152653740951e-06 2.905591162520e-03 0.0 
0.0 0.0 -4.615872697407e-04 
-4.348533942840e-04 3.201452625993e-06 0.0 
3.201452625993e-06 2.712395630356e-03 0.0 
0.0 0.0 -4.342639779644e-04 
-2.556862254963e-04 9.465200077415e-06 0.0 
9.465200077415e-06 1.446637132956e-03 0.0 
0.0 0.0 -2.508181872060e-04 
-2.123142658658e-04 2.153637717968e-06 0.0 
2.153637717968e-06 1.175585796085e-03 0.0 
0.0 0.0 -2.143868084631e-04 
-1.042731456099e-03 1.901936730490e-05 0.0 
1.901936730490e-05 6.995442815012e-03 0.0 
0.0 0.0 -1.051814883004e-03 
-1.110984337992e-03 1.360393105757e-05 0.0 
1.360393105757e-05 7.468547826848e-03 0.0 
0.0 0.0 -1.117859435171e-03 
-7.312716402703e-04 -2.190675999985e-06 0.0 
-2.190675999985e-06 4.814374156657e-03 0.0 
0.0 0.0 -7.356929296387e-04 
-7.645892286358e-04 -1.102166449944e-05 0.0 
-1.102166449944e-05 5.018862629850e-03 0.0 
0.0 0.0 -7.648299719236e-04 
-1.105578814045e-03 -4.864618337798e-06 0.0 
-4.864618337798e-06 7.407304501986e-03 0.0 
0.0 0.0 -1.107558395918e-03 
-3.066920262704e-04 -9.941053824373e-07 0.0 
-9.941053824373e-07 1.825477502809e-03 0.0 
0.0 0.0 -3.060794667268e-04 
-1.146252104278e-03 9.473611415330e-07 0.0 
9.473611415330e-07 7.693660702169e-03 0.0 
0.0 0.0 -1.149181664990e-03 
-9.819770468004e-04 3.151631864523e-06 0.0 
3.151631864523e-06 6.525650668115e-03 0.0 
0.0 0.0 -9.807908033776e-04 
-9.159380280943e-04 1.195442860156e-06 0.0 
1.195442860156e-06 6.068082639928e-03 0.0 
0.0 0.0 -9.152404036620e-04 
-6.511413906153e-04 1.424536279066e-05 0.0 
1.424536279066e-05 4.294241389317e-03 0.0 
0.0 0.0 -6.604623333687e-04 
-3.374810340453e-04 6.844433927076e-06 0.0 
6.844433927076e-06 2.031763814607e-03 0.0 
0.0 0.0 -3.366432492119e-04 
-3.027001806186e-04 4.554754580681e-06 0.0 
4.554754580681e-06 1.781580953442e-03 0.0 
0.0 0.0 -3.009099309908e-04 
-4.837618896288e-04 7.408810593364e-06 0.0 
7.408810593364e-06 3.065907824055e-03 0.0 
0.0 0.0 -4.845585894574e-04 
-3.706525314116e-04 2.979043878536e-06 0.0 
2.979043878536e-06 2.283251894813e-03 0.0 
0.0 0.0 -3.723415964733e-04 
-3.535775650443e-04 1.642795960159e-06 0.0 
1.642795960159e-06 2.183712345689e-03 0.0 
0.0 0.0 -3.583452993329e-04 
-1.171956394673e-03 7.296733533156e-06 0.0 
7.296733533156e-06 7.865937936914e-03 0.0 
0.0 0.0 -1.173829981771e-03 
-1.155496536768e-03 -7.585900876937e-06 0.0 
-7.585900876937e-06 7.757441294242e-03 0.0 
0.0 0.0 -1.157575248917e-03 
-1.081331483118e-03 -1.018192650105e-05 0.0 
-1.018192650105e-05 7.219793718708e-03 0.0 
0.0 0.0 -1.080172819833e-03 
-1.016976595983e-03 3.080934608838e-08 0.0 
3.080934608838e-08 6.767850029250e-03 0.0 
0.0 0.0 -1.015677837919e-03 
-1.139278177336e-03 -7.940019038874e-06 0.0 
-7.940019038874e-06 7.665797132760e-03 0.0 
0.0 0.0 -1.144955025780e-03 
-2.327287223155e-04 -5.619721676057e-06 0.0 
-5.619721676057e-06 1.369838176642e-03 0.0 
0.0 0.0 -2.399185640008e-04 
-1.167065302037e-03 -2.167295117524e-06 0.0 
-2.167295117524e-06 7.816099518397e-03 0.0 
0.0 0.0 -1.165794428787e-03 
-1.057599608467e-03 -1.462585030790e-06 0.0 
-1.462585030790e-06 7.053925433098e-03 0.0 
0.0 0.0 -1.056136825731e-03 
-1.166821884924e-03 8.580756338021e-06 0.0 
8.580756338021e-06 7.754116842770e-03 0.0 
0.0 0.0 -1.157598467365e-03 
-1.133408506306e-03 -8.435792570640e-07 0.0 
-8.435792570640e-07 7.569033753462e-03 0.0 
0.0 0.0 -1.131219827106e-03 
-4.984456519411e-04 4.300557589800e-06 0.0 
4.300557589800e-06 3.150357815837e-03 0.0 
0.0 0.0 -4.968499830348e-04 
-4.727344614058e-04 -4.063132868482e-06 0.0 
-4.063132868482e-06 2.963684111716e-03 0.0 
0.0 0.0 -4.705806478706e-04 
-4.091383170965e-04 2.862069894870e-06 0.0 
2.862069894870e-06 2.529363987017e-03 0.0 
0.0 0.0 -4.078257031896e-04 
-4.471058786427e-04 1.072951437623e-05 0.0 
1.072951437623e-05 2.788633828474e-03 0.0 
0.0 0.0 -4.438024830152e-04 
-8.440631779025e-04 -4.493147098224e-06 0.0 
-4.493147098224e-06 5.518369027804e-03 0.0 
0.0 0.0 -8.361670615231e-04 
-5.357092529258e-04 -9.292843076379e-07 0.0 
-9.292843076379e-07 3.402933662769e-03 0.0 
0.0 0.0 -5.333915535664e-04 
-7.972227851670e-04 -9.360487059456e-07 0.0 
-9.360487059456e-07 5.222669072684e-03 0.0 
0.0 0.0 -7.939299641313e-04 
-7.702508874020e-04 -1.538210288725e-06 0.0 
-1.538210288725e-06 5.031866795854e-03 0.0 
0.0 0.0 -7.665196690739e-04 
-7.355056886190e-04 7.347932432812e-07 0.0 
7.347932432812e-07 4.791036993934e-03 0.0 
0.0 0.0 -7.319524942586e-04 
-6.561872916337e-04 1.268419360752e-06 0.0 
1.268419360752e-06 4.239606973166e-03 0.0 
0.0 0.0 -6.527873785750e-04 
-6.291613184761e-04 -1.439650198990e-06 0.0 
-1.439650198990e-06 4.053875822961e-03 0.0 
0.0 0.0 -6.261871041946e-04 
-5.548406946331e-04 -1.134560045706e-06 0.0 
-1.134560045706e-06 3.546628030902e-03 0.0 
0.0 0.0 -5.534964465553e-04 
-8.399940984114e-04 -3.577201231007e-06 0.0 
-3.577201231007e-06 5.537581821643e-03 0.0 
0.0 0.0 -8.390310526140e-04 
-7.058409553932e-04 5.047899969827e-07 0.0 
5.047899969827e-07 4.614117323526e-03 0.0 
0.0 0.0 -7.069621042110e-04 
-8.747594299032e-04 -2.558061717916e-06 0.0 
-2.558061717916e-06 5.788017369400e-03 0.0 
0.0 0.0 -8.751042800696e-04 
-8.345970192924e-04 7.968047685435e-07 0.0 
7.968047685435e-07 5.508873449258e-03 0.0 
0.0 0.0 -8.350146568664e-04 
-1.135366159085e-03 -3.784163045626e-06 0.0 
-3.784163045626e-06 7.595187475630e-03 0.0 
0.0 0.0 -1.135109731873e-03 
-1.173430748718e-03 -9.063019793230e-06 0.0 
-9.063019793230e-06 7.855172062360e-03 0.0 
0.0 0.0 -1.171938512032e-03 
-9.103494794308e-04 9.134385712316e-06 0.0 
9.134385712316e-06 6.008446285683e-03 0.0 
0.0 0.0 -9.065739516476e-04 
-8.719468559850e-04 9.049287930879e-07 0.0 
9.049287930879e-07 5.790867004059e-03 0.0 
0.0 0.0 -8.764137937918e-04 
-2.822142401262e-04 -1.729015805274e-06 0.0 
-1.729015805274e-06 1.647043850495e-03 0.0 
0.0 0.0 -2.813159824896e-04 
-2.590672524343e-04 7.758668078462e-06 0.0 
7.758668078462e-06 1.453070456664e-03 0.0 
0.0 0.0 -2.532569443854e-04 
-7.885436432884e-04 5.287197585389e-07 0.0 
5.287197585389e-07 5.190389624089e-03 0.0 
0.0 0.0 -7.894497706086e-04 
-1.129157536929e-03 4.394584270014e-06 0.0 
4.394584270014e-06 7.545263270116e-03 0.0 
0.0 0.0 -1.127529358476e-03 
-1.150499129859e-03 -1.601096256568e-07 0.0 
-1.601096256568e-07 7.703368893988e-03 0.0 
0.0 0.0 -1.150095860580e-03 
-1.180515255213e-03 -2.827683268667e-06 0.0 
-2.827683268667e-06 7.908952217123e-03 0.0 
0.0 0.0 -1.179372829571e-03 
-1.142938913333e-03 -3.318694813184e-06 0.0 
-3.318694813184e-06 7.657003561438e-03 0.0 
0.0 0.0 -1.143369325256e-03 
-1.140111309187e-03 8.981293941603e-07 0.0 
8.981293941603e-07 7.659653688633e-03 0.0 
0.0 0.0 -1.144273392007e-03 
-5.742583376343e-04 1.322470559702e-07 0.0 
1.322470559702e-07 3.685291735877e-03 0.0 
0.0 0.0 -5.733740095480e-04 
-8.593234151620e-04 -2.874076437017e-06 0.0 
-2.874076437017e-06 5.675695790787e-03 0.0 
0.0 0.0 -8.590966742019e-04 
-2.435677437140e-04 -1.068446741351e-05 0.0 
-1.068446741351e-05 1.382271228051e-03 0.0 
0.0 0.0 -2.423215009416e-04 
-8.888171571715e-04 7.702896637583e-07 0.0 
7.702896637583e-07 5.879388839658e-03 0.0 
0.0 0.0 -8.884627649733e-04 
-2.162237035633e-04 -3.672272412215e-06 0.0 
-3.672272412215e-06 1.184819371308e-03 0.0 
0.0 0.0 -2.162536877156e-04 
-1.014212058360e-03 -1.424401912228e-06 0.0 
-1.424401912228e-06 6.732806316095e-03 0.0 
0.0 0.0 -1.010319580236e-03 
-1.121146682577e-03 5.393536552769e-07 0.0 
5.393536552769e-07 7.512550218556e-03 0.0 
0.0 0.0 -1.122815839103e-03 
-1.157064342210e-03 3.278319431578e-08 0.0 
3.278319431578e-08 7.769042756358e-03 0.0 
0.0 0.0 -1.159213750608e-03 
-1.166424981014e-03 1.813592645852e-06 0.0 
1.813592645852e-06 7.856112587899e-03 0.0 
0.0 0.0 -1.171959308352e-03 
-7.504080630279e-04 1.142017006419e-05 0.0 
1.142017006419e-05 4.900584458038e-03 0.0 
0.0 0.0 -7.470952864203e-04 
-9.172347539121e-04 2.804117413083e-06 0.0 
2.804117413083e-06 6.075069916316e-03 0.0 
0.0 0.0 -9.162722660995e-04 
-8.822868772852e-04 1.786082975063e-06 0.0 
1.786082975063e-06 5.828052429250e-03 0.0 
0.0 0.0 -8.808726170640e-04 
-7.075025449256e-04 3.734403441957e-06 0.0 
3.734403441957e-06 4.602949033639e-03 0.0 
0.0 0.0 -7.048691535495e-04 
-6.736902723486e-04 3.915004124880e-06 0.0 
3.915004124880e-06 4.364959797177e-03 0.0 
0.0 0.0 -6.707530558731e-04 
-7.003926698376e-04 3.499859416378e-06 0.0 
3.499859416378e-06 4.548937086678e-03 0.0 
0.0 0.0 -6.972958566626e-04 
-6.396081130526e-04 3.801189656251e-06 0.0 
3.801189656251e-06 4.126284090508e-03 0.0 
0.0 0.0 -6.359606378414e-04 
-5.113814833482e-04 4.985013341250e-06 0.0 
4.985013341250e-06 3.258506878652e-03 0.0 
0.0 0.0 -5.122594947013e-04 
-4.735906672379e-04 3.101741148840e-06 0.0 
3.101741148840e-06 2.998270021668e-03 0.0 
0.0 0.0 -4.750188804659e-04 
-1.196527535369e-03 2.030860363362e-06 0.0 
2.030860363362e-06 8.017120294099e-03 0.0 
0.0 0.0 -1.192042136895e-03 
-1.179471908673e-03 2.186350744697e-05 0.0 
2.186350744697e-05 7.917990259976e-03 0.0 
0.0 0.0 -1.178660172201e-03 
-1.197525366512e-03 -5.361254674999e-06 0.0 
-5.361254674999e-06 8.017772106938e-03 0.0 
0.0 0.0 -1.193029175878e-03 
-1.157007599871e-03 -4.254495392840e-07 0.0 
-4.254495392840e-07 7.831852404544e-03 0.0 
0.0 0.0 -1.168165168231e-03 
-1.184219832489e-03 -2.995135238665e-06 0.0 
-2.995135238665e-06 8.054139615854e-03 0.0 
0.0 0.0 -1.200910491468e-03 
-1.156433585434e-03 -1.143666503543e-06 0.0 
-1.143666503543e-06 7.807020133364e-03 0.0 
0.0 0.0 -1.164168769488e-03 
-4.264796299705e-04 -5.762809161323e-06 0.0 
-5.762809161323e-06 2.638842137297e-03 0.0 
0.0 0.0 -4.227350873389e-04 
-5.681760473818e-04 2.318592575022e-06 0.0 
2.318592575022e-06 3.626581176623e-03 0.0 
0.0 0.0 -5.646260317871e-04 
-1.184636686047e-03 -1.016095806196e-05 0.0 
-1.016095806196e-05 8.009054334469e-03 0.0 
0.0 0.0 -1.194151889699e-03 
-7.414862310133e-04 3.192804147294e-06 0.0 
3.192804147294e-06 4.838396811126e-03 0.0 
0.0 0.0 -7.390869131010e-04 
-1.198370689590e-03 -4.208230376703e-06 0.0 
-4.208230376703e-06 8.000236790466e-03 0.0 
0.0 0.0 -1.192835421428e-03 
-1.157965586969e-03 3.621187988871e-06 0.0 
3.621187988871e-06 7.751872966735e-03 0.0 
0.0 0.0 -1.156047193884e-03 
-1.679677723563e-04 -6.471467775008e-06 0.0 
-6.471467775008e-06 9.157850137993e-04 0.0 
0.0 0.0 -1.776502893165e-04 
-2.010012491603e-04 -2.186198543596e-05 0.0 
-2.186198543596e-05 1.109886420371e-03 0.0 
0.0 0.0 -2.034953494974e-04 
-1.179928424182e-03 1.756406795450e-06 0.0 
1.756406795450e-06 7.951460578279e-03 0.0 
0.0 0.0 -1.184588873336e-03 
-3.838885301584e-04 -2.308315346304e-07 0.0 
-2.308315346304e-07 2.344842445821e-03 0.0 
0.0 0.0 -3.811925308841e-04 
-4.219559892700e-04 7.989363516710e-06 0.0 
7.989363516710e-06 2.586701229719e-03 0.0 
0.0 0.0 -4.158690271831e-04 
-3.474814854535e-04 -1.898705035342e-06 0.0 
-1.898705035342e-06 2.092244309525e-03 0.0 
0.0 0.0 -3.459699425273e-04 
-1.258412294817e-03 4.723230244906e-06 0.0 
4.723230244906e-06 8.451854294521e-03 0.0 
0.0 0.0 -1.258310293365e-03 
-7.484881504012e-04 -2.960864060537e-06 0.0 
-2.960864060537e-06 4.893199602045e-03 0.0 
0.0 0.0 -7.479256703001e-04 
-1.180456674817e-03 2.203572108480e-06 0.0 
2.203572108480e-06 7.969948982011e-03 0.0 
0.0 0.0 -1.189418985649e-03 
-6.915459890032e-04 2.639723401847e-07 0.0 
2.639723401847e-07 4.488659587491e-03 0.0 
0.0 0.0 -6.884682336192e-04 
-1.207477073685e-03 3.654066082089e-06 0.0 
3.654066082089e-06 8.169097270233e-03 0.0 
0.0 0.0 -1.216510697198e-03 
-9.459891485395e-04 2.183343284727e-06 0.0 
2.183343284727e-06 6.276634781059e-03 0.0 
0.0 0.0 -9.449116413281e-04 
-6.354655665352e-04 7.994205054170e-06 0.0 
7.994205054170e-06 4.117898953292e-03 0.0 
0.0 0.0 -6.353966017694e-04 
-1.078683645923e-03 -8.754256551620e-06 0.0 
-8.754256551620e-06 7.202760317134e-03 0.0 
0.0 0.0 -1.078177493492e-03 
-1.141578224774e-03 -1.678015124370e-05 0.0 
-1.678015124370e-05 7.703318796330e-03 0.0 
0.0 0.0 -1.149140729088e-03 
-1.226390364052e-03 1.281801736300e-05 0.0 
1.281801736300e-05 8.221773688785e-03 0.0 
0.0 0.0 -1.221625961084e-03 
-8.548571335586e-04 9.585095622204e-06 0.0 
9.585095622204e-06 5.710330831809e-03 0.0 
0.0 0.0 -8.638707813346e-04 
-8.315226367926e-04 -1.796676276349e-05 0.0 
-1.796676276349e-05 5.471080815741e-03 0.0 
0.0 0.0 -8.327709333130e-04 
-8.913153694948e-04 3.187001622893e-06 0.0 
3.187001622893e-06 5.908304703834e-03 0.0 
0.0 0.0 -8.925140200429e-04 
-2.901697666163e-04 2.957652242808e-06 0.0 
2.957652242808e-06 1.700907778148e-03 0.0 
0.0 0.0 -2.887053311254e-04 
-2.259876589125e-04 -1.628476741887e-06 0.0 
-1.628476741887e-06 1.207242233754e-03 0.0 
0.0 0.0 -2.186270541161e-04 
-1.144042553285e-03 -3.972510573065e-06 0.0 
-3.972510573065e-06 7.644643748638e-03 0.0 
0.0 0.0 -1.142090266074e-03 
-5.015691225624e-04 -4.004972649539e-06 0.0 
-4.004972649539e-06 3.172327891301e-03 0.0 
0.0 0.0 -5.006138788623e-04 
-5.490396028458e-04 1.473261204918e-05 0.0 
1.473261204918e-05 3.431798845594e-03 0.0 
0.0 0.0 -5.359218444892e-04 
-3.334097721275e-04 4.182676571345e-07 0.0 
4.182676571345e-07 2.008435002854e-03 0.0 
0.0 0.0 -3.328711069468e-04 
-3.967994371980e-04 3.163349435490e-06 0.0 
3.163349435490e-06 2.463726324997e-03 0.0 
0.0 0.0 -3.985542937016e-04 
-7.704918098593e-04 -2.506920415004e-06 0.0 
-2.506920415004e-06 5.073323433467e-03 0.0 
0.0 0.0 -7.728092966600e-04 
-7.429755971663e-04 -1.604665723007e-06 0.0 
-1.604665723007e-06 4.873825415622e-03 0.0 
0.0 0.0 -7.441750962829e-04 
-1.041105417575e-03 -3.532804275431e-06 0.0 
-3.532804275431e-06 6.930458439110e-03 0.0 
0.0 0.0 -1.038692069610e-03 
-1.077691050121e-03 5.915919111289e-07 0.0 
5.915919111289e-07 7.178307862229e-03 0.0 
0.0 0.0 -1.074129358999e-03 
-9.680145315127e-04 -4.800744221103e-06 0.0 
-4.800744221103e-06 6.431374472253e-03 0.0 
0.0 0.0 -9.675620497173e-04 
-9.449072701309e-04 5.755247328020e-07 0.0 
5.755247328020e-07 6.268683015175e-03 0.0 
0.0 0.0 -9.439558448496e-04 
-8.793469056983e-04 2.651871179730e-07 0.0 
2.651871179730e-07 5.812169911194e-03 0.0 
0.0 0.0 -8.783802297791e-04 
-8.506353188412e-04 -1.205932606194e-06 0.0 
-1.205932606194e-06 5.614865789540e-03 0.0 
0.0 0.0 -8.502765121185e-04 
-1.205371287344e-03 -1.017172525851e-05 0.0 
-1.017172525851e-05 8.044519540676e-03 0.0 
0.0 0.0 -1.199867006878e-03 
-1.246871842620e-03 -1.782584577396e-06 0.0 
-1.782584577396e-06 8.370823131876e-03 0.0 
0.0 0.0 -1.242728214876e-03 
-5.491066158242e-04 3.796504913795e-06 0.0 
3.796504913795e-06 3.515286504074e-03 0.0 
0.0 0.0 -5.488632449009e-04 
-5.218883337208e-04 5.205294616476e-06 0.0 
5.205294616476e-06 3.322312941731e-03 0.0 
0.0 0.0 -5.212126360957e-04 
-5.377854580404e-04 4.143852354807e-06 0.0 
4.143852354807e-06 3.445251353484e-03 0.0 
0.0 0.0 -5.390128571062e-04 
-1.214529256448e-03 -6.301616693016e-06 0.0 
-6.301616693016e-06 8.215301645721e-03 0.0 
0.0 0.0 -1.223056365294e-03 
-1.220614911318e-03 1.691106897417e-05 0.0 
1.691106897417e-05 8.234319209605e-03 0.0 
0.0 0.0 -1.224004481682e-03 
-1.202636442924e-03 -1.450484537668e-05 0.0 
-1.450484537668e-05 8.019827799738e-03 0.0 
0.0 0.0 -1.195820777905e-03 
-1.923031463658e-04 -1.299529721394e-05 0.0 
-1.299529721394e-05 1.005842812599e-03 0.0 
0.0 0.0 -1.880780275778e-04 
-2.380587333974e-04 -7.138126159431e-06 0.0 
-7.138126159431e-06 1.256954979671e-03 0.0 
0.0 0.0 -2.247092568812e-04 
-2.809188805545e-04 -7.804988416237e-07 0.0 
-7.804988416237e-07 1.601881524077e-03 0.0 
0.0 0.0 -2.751197234063e-04 
-2.390831316058e-04 -1.697522519497e-05 0.0 
-1.697522519497e-05 1.345355817379e-03 0.0 
0.0 0.0 -2.407125716443e-04 
-1.208745358060e-03 2.226513834317e-07 0.0 
2.226513834317e-07 8.094728759758e-03 0.0 
0.0 0.0 -1.207258722210e-03 
-1.173002429905e-03 -1.580225167142e-08 0.0 
-1.580225167142e-08 7.865013445176e-03 0.0 
0.0 0.0 -1.172631524865e-03 
-1.245587066994e-03 -1.350830728560e-07 0.0 
-1.350830728560e-07 8.403006214559e-03 0.0 
0.0 0.0 -1.247471551777e-03 
-3.784912276641e-04 1.355145565503e-05 0.0 
1.355145565503e-05 2.351827936340e-03 0.0 
0.0 0.0 -3.801539159394e-04 
-1.045351836581e-03 6.057785964146e-06 0.0 
6.057785964146e-06 6.969505785323e-03 0.0 
0.0 0.0 -1.045322365442e-03 
-1.205298536187e-03 1.211257299848e-05 0.0 
1.211257299848e-05 8.100207033565e-03 0.0 
0.0 0.0 -1.207899217314e-03 
-1.178583019777e-03 1.757022163116e-05 0.0 
1.757022163116e-05 7.916687945301e-03 0.0 
0.0 0.0 -1.178012378629e-03 
-1.242442001561e-03 9.743401619654e-06 0.0 
9.743401619654e-06 8.382783963078e-03 0.0 
0.0 0.0 -1.244624083072e-03 
-1.137070212873e-03 -2.028754131542e-06 0.0 
-2.028754131542e-06 7.646903784891e-03 0.0 
0.0 0.0 -1.142102124289e-03 
-1.209034666392e-03 -7.012965144967e-06 0.0 
-7.012965144967e-06 8.081623741308e-03 0.0 
0.0 0.0 -1.205428683694e-03 
-1.206763234680e-03 6.340388102845e-06 0.0 
6.340388102845e-06 8.101632159503e-03 0.0 
0.0 0.0 -1.209323031234e-03 
-1.526588308959e-04 -1.278274148865e-05 0.0 
-1.278274148865e-05 7.096255753314e-04 0.0 
0.0 0.0 -1.515181680101e-04 
-1.197635794990e-03 -1.679642684382e-05 0.0 
-1.679642684382e-05 8.038463106290e-03 0.0 
0.0 0.0 -1.199992767657e-03 
-8.372255126924e-04 -1.581405743943e-06 0.0 
-1.581405743943e-06 5.516497338344e-03 0.0 
0.0 0.0 -8.371571859873e-04 
-1.098991945020e-04 -3.154449405114e-05 0.0 
-3.154449405114e-05 5.330743413542e-04 0.0 
0.0 0.0 -1.134605161963e-04 
-7.981850025034e-04 -4.161080113052e-07 0.0 
-4.161080113052e-07 5.308479178574e-03 0.0 
0.0 0.0 -8.070151920887e-04 
-8.429634412097e-04 -1.709371110710e-06 0.0 
-1.709371110710e-06 5.581100165216e-03 0.0 
0.0 0.0 -8.451615393777e-04 
-7.696584184699e-04 -4.438777502690e-06 0.0 
-4.438777502690e-06 5.046252634616e-03 0.0 
0.0 0.0 -7.748096441827e-04 
-3.107010397172e-04 9.959927229254e-06 0.0 
9.959927229254e-06 1.894638977858e-03 0.0 
0.0 0.0 -3.155299188714e-04 
-8.095068364426e-04 -1.064416675752e-05 0.0 
-1.064416675752e-05 5.359424365734e-03 0.0 
0.0 0.0 -8.174106193842e-04 
-8.516632903957e-04 -1.548663215885e-05 0.0 
-1.548663215885e-05 5.659882039523e-03 0.0 
0.0 0.0 -8.556612431672e-04 
-1.454483653541e-04 3.285604104571e-06 0.0 
3.285604104571e-06 7.139538730243e-04 0.0 
0.0 0.0 -1.421329337195e-04 
-1.249632985061e-03 3.450770483263e-06 0.0 
3.450770483263e-06 8.450128189206e-03 0.0 
0.0 0.0 -1.259301554906e-03 
-1.652376678941e-04 -1.286666981347e-05 0.0 
-1.286666981347e-05 7.455520390208e-04 0.0 
0.0 0.0 -1.556443337539e-04 
-1.771144640534e-04 -1.673852043297e-05 0.0 
-1.673852043297e-05 9.409763732996e-04 0.0 
0.0 0.0 -1.806578101979e-04 
-1.211541890789e-03 1.467961613660e-05 0.0 
1.467961613660e-05 8.216069586299e-03 0.0 
0.0 0.0 -1.221214701962e-03 
-1.182137557378e-03 -1.347893005180e-06 0.0 
-1.347893005180e-06 7.946617508211e-03 0.0 
0.0 0.0 -1.184344882880e-03 
-1.248636598491e-03 -6.710766209712e-06 0.0 
-6.710766209712e-06 8.399111666310e-03 0.0 
0.0 0.0 -1.247726601234e-03 
-1.216304493113e-03 1.376146948645e-05 0.0 
1.376146948645e-05 8.121468603000e-03 0.0 
0.0 0.0 -1.211018817991e-03 
-1.146160367712e-03 -4.978228076883e-06 0.0 
-4.978228076883e-06 7.680298396241e-03 0.0 
0.0 0.0 -1.147066289601e-03 
-1.174333499691e-03 6.447300312305e-06 0.0 
6.447300312305e-06 7.890872304648e-03 0.0 
0.0 0.0 -1.176490610025e-03 
-8.022613359354e-04 -1.465561338708e-05 0.0 
-1.465561338708e-05 5.265642214057e-03 0.0 
0.0 0.0 -7.985989294648e-04 
-1.243628943204e-03 1.764986030872e-05 0.0 
1.764986030872e-05 8.400828657624e-03 0.0 
0.0 0.0 -1.249018369598e-03 
-1.202560827820e-03 4.472912903621e-06 0.0 
4.472912903621e-06 8.095627160272e-03 0.0 
0.0 0.0 -1.207442871744e-03 
-1.280707394095e-03 9.871433926358e-06 0.0 
9.871433926358e-06 8.646120131381e-03 0.0 
0.0 0.0 -1.277927415301e-03 
-6.139046463498e-04 4.062295408134e-06 0.0 
4.062295408134e-06 3.949909662933e-03 0.0 
0.0 0.0 -6.108003466767e-04 
-4.855763441254e-04 3.057596715555e-06 0.0 
3.057596715555e-06 3.031592722143e-03 0.0 
0.0 0.0 -4.789358348571e-04 
-4.592668061051e-04 2.643196690481e-06 0.0 
2.643196690481e-06 2.831145132009e-03 0.0 
0.0 0.0 -4.527251363391e-04 
-3.939664762502e-04 4.015896243424e-05 0.0 
4.015896243424e-05 2.394779108390e-03 0.0 
0.0 0.0 -3.875663759467e-04 
-1.235451159508e-03 5.414867173192e-06 0.0 
5.414867173192e-06 8.338545045283e-03 0.0 
0.0 0.0 -1.240180566941e-03 
-1.197541601819e-03 2.184484790423e-05 0.0 
2.184484790423e-05 8.058909055166e-03 0.0 
0.0 0.0 -1.200590015451e-03 
-1.087867486780e-03 1.085013592512e-06 0.0 
1.085013592512e-06 7.270465583492e-03 0.0 
0.0 0.0 -1.087555896896e-03 
-1.022984886136e-03 4.510930018261e-06 0.0 
4.510930018261e-06 6.802736585016e-03 0.0 
0.0 0.0 -1.020738973070e-03 
-8.163996236660e-04 7.186741062483e-06 0.0 
7.186741062483e-06 5.339991771102e-03 0.0 
0.0 0.0 -8.108182148135e-04 
-8.104965103200e-04 -8.251273631999e-06 0.0 
-8.251273631999e-06 5.308853861974e-03 0.0 
0.0 0.0 -8.077352941366e-04 
-8.720514006204e-04 3.179792081286e-05 0.0 
3.179792081286e-05 5.733381675574e-03 0.0 
0.0 0.0 -8.678526801547e-04 
-8.648510791427e-04 -7.111218047989e-06 0.0 
-7.111218047989e-06 5.661166370703e-03 0.0 
0.0 0.0 -8.609153521579e-04 
-9.263549734802e-04 3.033239231777e-05 0.0 
3.033239231777e-05 6.105443762298e-03 0.0 
0.0 0.0 -9.200517378055e-04 
-9.083479877115e-04 -1.416522287398e-05 0.0 
-1.416522287398e-05 6.036653926986e-03 0.0 
0.0 0.0 -9.108947733944e-04 
-9.698621139042e-04 -2.949214397531e-05 0.0 
-2.949214397531e-05 6.467199866666e-03 0.0 
0.0 0.0 -9.726914458129e-04 
-1.247222366311e-03 2.606056517107e-05 0.0 
2.606056517107e-05 8.375150940582e-03 0.0 
0.0 0.0 -1.245087786853e-03 
-3.186375953883e-04 9.254464651469e-06 0.0 
9.254464651469e-06 1.904578218722e-03 0.0 
0.0 0.0 -3.180830487989e-04 
-6.795655702328e-04 3.950407328818e-06 0.0 
3.950407328818e-06 4.416747400763e-03 0.0 
0.0 0.0 -6.783069842581e-04 
-1.217523867403e-03 -1.107710803929e-05 0.0 
-1.107710803929e-05 8.250220171501e-03 0.0 
0.0 0.0 -1.228261380050e-03 
-1.189954932966e-03 -3.389414248165e-06 0.0 
-3.389414248165e-06 7.976695802146e-03 0.0 
0.0 0.0 -1.187396807988e-03 
-6.030585832721e-04 2.040094254680e-06 0.0 
2.040094254680e-06 3.869813641297e-03 0.0 
0.0 0.0 -6.000944487132e-04 
-5.459736888774e-04 1.094222006423e-05 0.0 
1.094222006423e-05 3.457763009941e-03 0.0 
0.0 0.0 -5.401620014017e-04 
-1.244604975369e-03 1.395843640121e-05 0.0 
1.395843640121e-05 8.345755076324e-03 0.0 
0.0 0.0 -1.238794375355e-03 
-5.618086059147e-04 1.672788938663e-06 0.0 
1.672788938663e-06 3.593027472553e-03 0.0 
0.0 0.0 -5.600314934590e-04 
-1.295241739404e-03 -3.069672707254e-06 0.0 
-3.069672707254e-06 8.734931616820e-03 0.0 
0.0 0.0 -1.295459716840e-03 
-4.726518995245e-05 -5.619949717432e-06 0.0 
-5.619949717432e-06 2.661811301103e-04 0.0 
0.0 0.0 -5.690003420296e-05 
-1.291194022148e-04 1.153791065656e-05 0.0 
1.153791065656e-05 6.783732708890e-04 0.0 
0.0 0.0 -1.353443326634e-04 
-5.978702258073e-04 2.845759188033e-06 0.0 
2.845759188033e-06 3.846572588730e-03 0.0 
0.0 0.0 -5.969207367497e-04 
-6.645061217588e-04 1.210892726751e-06 0.0 
1.210892726751e-06 4.303380572845e-03 0.0 
0.0 0.0 -6.620222007989e-04 
-5.132181813278e-04 9.130074641248e-06 0.0 
9.130074641248e-06 3.278288147999e-03 0.0 
0.0 0.0 -5.157319100482e-04 
-4.860075133993e-04 2.990028342235e-06 0.0 
2.990028342235e-06 3.124396954495e-03 0.0 
0.0 0.0 -4.917183783407e-04 
-1.011317378684e-03 6.487621353875e-07 0.0 
6.487621353875e-07 6.733904614894e-03 0.0 
0.0 0.0 -1.010552660601e-03 
-1.970258742010e-04 -2.540004491937e-06 0.0 
-2.540004491937e-06 1.065332307301e-03 0.0 
0.0 0.0 -1.995083582888e-04 
-3.139166667020e-04 -2.253789274914e-06 0.0 
-2.253789274914e-06 1.850494599455e-03 0.0 
0.0 0.0 -3.106934562087e-04 
-9.732483420248e-04 2.855591412463e-05 0.0 
2.855591412463e-05 6.524849625930e-03 0.0 
0.0 0.0 -9.796923013958e-04 
-2.492954901946e-04 5.421975703593e-07 0.0 
5.421975703593e-07 1.421478567984e-03 0.0 
0.0 0.0 -2.487700610537e-04 
-1.054075874997e-03 3.591188931439e-06 0.0 
3.591188931439e-06 7.044165573929e-03 0.0 
0.0 0.0 -1.055800198362e-03 
-5.906078188001e-04 -3.257939390625e-06 0.0 
-3.257939390625e-06 3.796619652219e-03 0.0 
0.0 0.0 -5.891999696964e-04 
-7.180999395262e-04 1.178684333617e-07 0.0 
1.178684333617e-07 4.675154024113e-03 0.0 
0.0 0.0 -7.153500975001e-04 
-3.728153202836e-04 5.624284337178e-06 0.0 
5.624284337178e-06 2.280349559801e-03 0.0 
0.0 0.0 -3.721998919698e-04 
-5.103591414383e-04 -9.070033727981e-06 0.0 
-9.070033727981e-06 3.229749929793e-03 0.0 
0.0 0.0 -5.080103017801e-04 
-8.695833745558e-04 -3.060324942188e-06 0.0 
-3.060324942188e-06 5.711345853531e-03 0.0 
0.0 0.0 -8.638580894607e-04 
-8.186088136840e-04 -7.130242765401e-06 0.0 
-7.130242765401e-06 5.325410070609e-03 0.0 
0.0 0.0 -8.086477316853e-04 
-7.808475722582e-04 4.208348100155e-06 0.0 
4.208348100155e-06 5.088284712977e-03 0.0 
0.0 0.0 -7.738406155293e-04 
-6.192436331633e-04 -2.766602775212e-06 0.0 
-2.766602775212e-06 3.995359302638e-03 0.0 
0.0 0.0 -6.178822433291e-04 
-5.311490319335e-04 1.040423507353e-05 0.0 
1.040423507353e-05 3.373878795457e-03 0.0 
0.0 0.0 -5.288330985435e-04 
-4.650941372061e-04 3.123945634371e-06 0.0 
3.123945634371e-06 2.898874049441e-03 0.0 
0.0 0.0 -4.617239487405e-04 
-8.245081772929e-04 8.576273435798e-07 0.0 
8.576273435798e-07 5.414129368543e-03 0.0 
0.0 0.0 -8.213029907542e-04 
-1.107776256753e-03 4.822798209685e-06 0.0 
4.822798209685e-06 7.407183480602e-03 0.0 
0.0 0.0 -1.107475121065e-03 
-1.139123580733e-03 8.505935532864e-06 0.0 
8.505935532864e-06 7.608538315330e-03 0.0 
0.0 0.0 -1.136341617999e-03 
-1.199876040135e-03 -5.928463900808e-08 0.0 
-5.928463900808e-08 8.046533922637e-03 0.0 
0.0 0.0 -1.199268560344e-03 
-1.168168474149e-03 4.195650786324e-06 0.0 
4.195650786324e-06 7.812169121329e-03 0.0 
0.0 0.0 -1.164598082371e-03 
-1.102136352719e-03 2.455120919214e-06 0.0 
2.455120919214e-06 7.358887921961e-03 0.0 
0.0 0.0 -1.100413285504e-03 
-1.128466826395e-03 -6.206260029605e-06 0.0 
-6.206260029605e-06 7.555420673368e-03 0.0 
0.0 0.0 -1.129075729544e-03 
-1.196306272628e-03 1.070052804672e-05 0.0 
1.070052804672e-05 8.004295185816e-03 0.0 
0.0 0.0 -1.193594387005e-03 
-1.153224420722e-03 -4.335162695885e-08 0.0 
-4.335162695885e-08 7.767660328472e-03 0.0 
0.0 0.0 -1.159256375294e-03 
-1.235596637609e-03 -1.164422989239e-05 0.0 
-1.164422989239e-05 8.301735673801e-03 0.0 
0.0 0.0 -1.234286862126e-03 
-1.186419994292e-03 -1.475121185168e-05 0.0 
-1.475121185168e-05 7.963391228364e-03 0.0 
0.0 0.0 -1.187309181180e-03 
-1.120005548931e-03 2.940168057839e-06 0.0 
2.940168057839e-06 7.498615446152e-03 0.0 
0.0 0.0 -1.120864512401e-03 
-1.154875778754e-03 1.588860619801e-06 0.0 
1.588860619801e-06 7.686132635796e-03 0.0 
0.0 0.0 -1.147759711419e-03 
-1.213465252650e-03 -6.064802065599e-06 0.0 
-6.064802065599e-06 8.128624196229e-03 0.0 
0.0 0.0 -1.207767947030e-03 
-1.084932373400e-03 -2.016919157366e-06 0.0 
-2.016919157366e-06 7.235951787837e-03 0.0 
0.0 0.0 -1.082593982084e-03 
-1.254330692315e-03 -4.481726023085e-06 0.0 
-4.481726023085e-06 8.484172233715e-03 0.0 
0.0 0.0 -1.264544343569e-03 
-6.624416308103e-04 2.474610527100e-06 0.0 
2.474610527100e-06 4.298662523578e-03 0.0 
0.0 0.0 -6.621140475474e-04 
-1.785384896330e-04 7.817361308898e-06 0.0 
7.817361308898e-06 9.797346640556e-04 0.0 
0.0 0.0 -1.850918921636e-04 
-1.812548087706e-04 3.762529197937e-05 0.0 
3.762529197937e-05 9.321215546565e-04 0.0 
0.0 0.0 -1.767209935827e-04 
-7.539589003549e-04 1.955358916881e-06 0.0 
1.955358916881e-06 4.924010090496e-03 0.0 
0.0 0.0 -7.509174086159e-04 
-1.304930514548e-03 2.715145444474e-06 0.0 
2.715145444474e-06 8.760435441101e-03 0.0 
0.0 0.0 -1.299806302097e-03 
-1.304281806298e-03 1.236291440945e-07 0.0 
1.236291440945e-07 8.779429009152e-03 0.0 
0.0 0.0 -1.301753673823e-03 
-4.909194379315e-04 2.965411161252e-07 0.0 
2.965411161252e-07 3.101621980483e-03 0.0 
0.0 0.0 -4.895692906686e-04 
-1.302172698065e-03 -1.121402078109e-06 0.0 
-1.121402078109e-06 8.776859442822e-03 0.0 
0.0 0.0 -1.303413959896e-03 
-8.069978020621e-04 -2.494686579821e-06 0.0 
-2.494686579821e-06 5.276076784830e-03 0.0 
0.0 0.0 -8.012154088905e-04 
-3.570511327706e-04 3.379375906443e-06 0.0 
3.379375906443e-06 2.154968683645e-03 0.0 
0.0 0.0 -3.530685601169e-04 
-1.302556100553e-03 -9.155318300849e-06 0.0 
-9.155318300849e-06 8.779430224672e-03 0.0 
0.0 0.0 -1.304286792737e-03 
-1.070880273795e-03 7.212077137813e-06 0.0 
7.212077137813e-06 7.154951258216e-03 0.0 
0.0 0.0 -1.071440646998e-03 
-1.034235002280e-03 -1.284962224397e-06 0.0 
-1.284962224397e-06 6.899499474228e-03 0.0 
0.0 0.0 -1.034857077839e-03 
-1.003722632452e-03 2.735580280944e-06 0.0 
2.735580280944e-06 6.699806917378e-03 0.0 
0.0 0.0 -1.006057961993e-03 
-1.300150248326e-03 -1.392366785444e-05 0.0 
-1.392366785444e-05 8.797329976127e-03 0.0 
0.0 0.0 -1.305867370806e-03 
-9.260727886855e-04 3.160967958009e-07 0.0 
3.160967958009e-07 6.120955206479e-03 0.0 
0.0 0.0 -9.232948652302e-04 
-1.306196713142e-03 -8.296229578649e-06 0.0 
-8.296229578649e-06 8.804073325104e-03 0.0 
0.0 0.0 -1.306016332489e-03 
-9.052728605033e-04 -4.849094365264e-06 0.0 
-4.849094365264e-06 5.990555075409e-03 0.0 
0.0 0.0 -9.039903713831e-04 
-8.761060883680e-04 -1.507187481079e-06 0.0 
-1.507187481079e-06 5.787161046779e-03 0.0 
0.0 0.0 -8.747633066757e-04 
-8.116067085345e-04 -5.312091983312e-07 0.0 
-5.312091983312e-07 5.336659872116e-03 0.0 
0.0 0.0 -8.101682821885e-04 
-1.090435695547e-03 -5.471004820643e-06 0.0 
-5.471004820643e-06 7.297274492399e-03 0.0 
0.0 0.0 -1.092245366321e-03 
-1.304752605299e-03 5.119868144753e-06 0.0 
5.119868144753e-06 8.772978853590e-03 0.0 
0.0 0.0 -1.302677999426e-03 
-1.251945645214e-03 -2.706015879739e-06 0.0 
-2.706015879739e-06 8.407016214184e-03 0.0 
0.0 0.0 -1.248400714067e-03 
-1.246920299523e-03 -1.300681603294e-05 0.0 
-1.300681603294e-05 8.402409073512e-03 0.0 
0.0 0.0 -1.248426544684e-03 
-1.200536970879e-03 5.026882822594e-07 0.0 
5.026882822594e-07 8.002917905198e-03 0.0 
0.0 0.0 -1.189114855724e-03 
-1.300430795451e-03 -3.697458702285e-07 0.0 
-3.697458702285e-07 8.777742711435e-03 0.0 
0.0 0.0 -1.303398793257e-03 
-1.305040401458e-03 -2.477912411200e-06 0.0 
-2.477912411200e-06 8.792831145886e-03 0.0 
0.0 0.0 -1.306665994082e-03 
-1.309321026579e-03 -3.535422289666e-06 0.0 
-3.535422289666e-06 8.803291043654e-03 0.0 
0.0 0.0 -1.308500709484e-03 
-4.563282024572e-04 7.998262252153e-06 0.0 
7.998262252153e-06 2.871636865217e-03 0.0 
0.0 0.0 -4.564773689951e-04 
-4.946429183726e-04 2.495592359726e-06 0.0 
2.495592359726e-06 3.130328514227e-03 0.0 
0.0 0.0 -4.934415926888e-04 
-5.584596756046e-04 8.667542273927e-07 0.0 
8.667542273927e-07 3.577137698620e-03 0.0 
0.0 0.0 -5.576035839405e-04 
-5.302623041630e-04 -1.383760276122e-07 0.0 
-1.383760276122e-07 3.381956619872e-03 0.0 
0.0 0.0 -5.298816096007e-04 
-4.659671190879e-04 -4.163529231183e-07 0.0 
-4.163529231183e-07 2.931155601344e-03 0.0 
0.0 0.0 -4.652367627802e-04 
-5.016537237260e-04 2.063261409906e-06 0.0 
2.063261409906e-06 3.184734037305e-03 0.0 
0.0 0.0 -5.016361848483e-04 
-5.661735479294e-04 -1.745642799752e-06 0.0 
-1.745642799752e-06 3.632429034736e-03 0.0 
0.0 0.0 -5.657331850765e-04 
-4.736975024202e-04 4.166873871264e-06 0.0 
4.166873871264e-06 2.986059562016e-03 0.0 
0.0 0.0 -4.731795164401e-04 
-1.136859235010e-03 -3.377117996649e-07 0.0 
-3.377117996649e-07 7.623291641590e-03 0.0 
0.0 0.0 -1.138512926666e-03 
-1.305247072706e-03 8.619226715474e-06 0.0 
8.619226715474e-06 8.792398553622e-03 0.0 
0.0 0.0 -1.305779161548e-03 
-9.003036646772e-04 5.242872870156e-08 0.0 
5.242872870156e-08 5.967493708530e-03 0.0 
0.0 0.0 -9.007942405787e-04 
-8.714438606503e-04 -2.881495110637e-08 0.0 
-2.881495110637e-08 5.762779516703e-03 0.0 
0.0 0.0 -8.713600568839e-04 
-8.060291522058e-04 2.568870967989e-06 0.0 
2.568870967989e-06 5.307363937555e-03 0.0 
0.0 0.0 -8.059887332522e-04 
-6.767854044606e-04 -2.452778344841e-06 0.0 
-2.452778344841e-06 4.414816973838e-03 0.0 
0.0 0.0 -6.781883600425e-04 
-7.139648610370e-04 -1.142183076152e-06 0.0 
-1.142183076152e-06 4.673969170683e-03 0.0 
0.0 0.0 -7.153987595530e-04 
-7.802120795526e-04 -1.536270118857e-06 0.0 
-1.536270118857e-06 5.133033430624e-03 0.0 
0.0 0.0 -7.812419408864e-04 
-6.404629301343e-04 -4.612028746758e-06 0.0 
-4.612028746758e-06 4.156213633446e-03 0.0 
0.0 0.0 -6.407943132712e-04 
-9.874131908799e-04 -6.712457213212e-07 0.0 
-6.712457213212e-07 6.570776206516e-03 0.0 
0.0 0.0 -9.876394229526e-04 
-1.303361853095e-03 -8.460317239555e-06 0.0 
-8.460317239555e-06 8.788997264875e-03 0.0 
0.0 0.0 -1.305003056577e-03 
-8.872565026320e-04 -1.178797543715e-06 0.0 
-1.178797543715e-06 5.871190587017e-03 0.0 
0.0 0.0 -8.871663004355e-04 
-6.846436599198e-04 7.853769409056e-07 0.0 
7.853769409056e-07 4.472455721995e-03 0.0 
0.0 0.0 -6.865966444657e-04 
-7.539028914794e-04 -4.959050989062e-06 0.0 
-4.959050989062e-06 4.922681506756e-03 0.0 
0.0 0.0 -7.516786372745e-04 
-8.065421024267e-04 1.420005202742e-05 0.0 
1.420005202742e-05 5.322326400601e-03 0.0 
0.0 0.0 -8.094822736869e-04 
-8.086043951130e-04 -1.965516725377e-05 0.0 
-1.965516725377e-05 5.337498560082e-03 0.0 
0.0 0.0 -8.097394517040e-04 
-8.597670883848e-04 -1.890965562489e-05 0.0 
-1.890965562489e-05 5.752558822544e-03 0.0 
0.0 0.0 -8.733121467894e-04 
-8.092120706638e-04 -2.844643670805e-05 0.0 
-2.844643670805e-05 5.361887279047e-03 0.0 
0.0 0.0 -8.155917408702e-04 
-8.008122296240e-04 -3.960466263523e-06 0.0 
-3.960466263523e-06 5.274822743462e-03 0.0 
0.0 0.0 -8.015266587451e-04 
-8.309313177437e-04 -3.374628280082e-06 0.0 
-3.374628280082e-06 5.475720121040e-03 0.0 
0.0 0.0 -8.302790088839e-04 
-7.940624788884e-04 8.919203165315e-07 0.0 
8.919203165315e-07 5.224020544311e-03 0.0 
0.0 0.0 -7.937858958383e-04 
-8.582675862213e-04 -3.216784494421e-06 0.0 
-3.216784494421e-06 5.673950666655e-03 0.0 
0.0 0.0 -8.590670690980e-04 
-8.174868470622e-04 -1.134099850246e-05 0.0 
-1.134099850246e-05 5.408679153658e-03 0.0 
0.0 0.0 -8.213578559547e-04 
-7.534944197864e-04 -1.238974191231e-05 0.0 
-1.238974191231e-05 4.986891128186e-03 0.0 
0.0 0.0 -7.608744282309e-04 
-8.810221771506e-04 -8.901330273947e-06 0.0 
-8.901330273947e-06 5.862708610280e-03 0.0 
0.0 0.0 -8.866101721103e-04 
-8.418977428013e-04 7.461726785164e-06 0.0 
7.461726785164e-06 5.581554122099e-03 0.0 
0.0 0.0 -8.437388122980e-04 
-7.467365547974e-04 -1.323074519901e-05 0.0 
-1.323074519901e-05 4.916042254111e-03 0.0 
0.0 0.0 -7.509531518293e-04 
-6.281984343026e-05 -8.116789961943e-06 0.0 
-8.116789961943e-06 3.039228182762e-04 0.0 
0.0 0.0 -5.875963060191e-05 
-1.355333239518e-04 1.033404854003e-05 0.0 
1.033404854003e-05 6.720001517331e-04 0.0 
0.0 0.0 -1.336704791874e-04 
-1.282422711095e-04 -8.546555161067e-06 0.0 
-8.546555161067e-06 6.602474725937e-04 0.0 
0.0 0.0 -1.318084371690e-04 
-1.928083139697e-04 -4.221005670837e-06 0.0 
-4.221005670837e-06 1.041957248050e-03 0.0 
0.0 0.0 -1.954650243430e-04 
-2.029746956204e-04 1.944205005130e-05 0.0 
1.944205005130e-05 1.074330231207e-03 0.0 
0.0 0.0 -1.996745964068e-04 
-2.516532851574e-04 2.529704688886e-06 0.0 
2.529704688886e-06 1.468491691138e-03 0.0 
0.0 0.0 -2.586654344069e-04 
-2.430663838691e-04 -2.535368885226e-05 0.0 
-2.535368885226e-05 1.426461466079e-03 0.0 
0.0 0.0 -2.494736616194e-04 
-1.355920943443e-04 -1.133959606150e-05 0.0 
-1.133959606150e-05 6.743890404386e-04 0.0 
0.0 0.0 -1.329747880817e-04 
-5.916993316141e-05 -2.320129164536e-06 0.0 
-2.320129164536e-06 2.981065881978e-04 0.0 
0.0 0.0 -5.794854899121e-05 
-1.308876834568e-04 2.474427721016e-06 0.0 
2.474427721016e-06 6.544145800914e-04 0.0 
0.0 0.0 -1.315689628225e-04 
-5.700489183938e-05 1.676517162928e-06 0.0 
1.676517162928e-06 2.920832994483e-04 0.0 
0.0 0.0 -5.719792189481e-05 
-1.267870388795e-04 3.184293720066e-07 0.0 
3.184293720066e-07 6.426508649646e-04 0.0 
0.0 0.0 -1.299421249981e-04 
-1.994525793345e-04 4.316150581252e-06 0.0 
4.316150581252e-06 1.086316860704e-03 0.0 
0.0 0.0 -2.038865569970e-04 
-2.958463202672e-04 -2.325840136609e-07 0.0 
-2.325840136609e-07 1.726726422813e-03 0.0 
0.0 0.0 -2.925150634556e-04 
-1.301927001702e-03 1.803371535174e-05 0.0 
1.803371535174e-05 8.724914391628e-03 0.0 
0.0 0.0 -1.294874803588e-03 
-6.623633125060e-04 4.679424212514e-06 0.0 
4.679424212514e-06 4.281040174428e-03 0.0 
0.0 0.0 -6.595503360071e-04 
-6.354861751499e-04 1.876466608724e-05 0.0 
1.876466608724e-05 4.076331016795e-03 0.0 
0.0 0.0 -6.264797819744e-04 
-5.600446600075e-04 1.786449294601e-05 0.0 
1.786449294601e-05 3.606391450714e-03 0.0 
0.0 0.0 -5.641716646261e-04 
-6.018396249448e-04 -5.225124560804e-06 0.0 
-5.225124560804e-06 3.865969919155e-03 0.0 
0.0 0.0 -5.974662984275e-04 
-6.971605018600e-04 2.093612217780e-05 0.0 
2.093612217780e-05 4.459125829408e-03 0.0 
0.0 0.0 -6.865721209800e-04 
-5.253766316691e-04 1.379974747340e-05 0.0 
1.379974747340e-05 3.365120840457e-03 0.0 
0.0 0.0 -5.286920563404e-04 
-4.997160733495e-04 2.272416899085e-05 0.0 
2.272416899085e-05 3.215754431319e-03 0.0 
0.0 0.0 -5.038291843518e-04 
-6.458044435334e-05 -2.268465343248e-06 0.0 
-2.268465343248e-06 3.061057402814e-04 0.0 
0.0 0.0 -5.826474687104e-05 
-1.365107396446e-04 -1.511681688148e-05 0.0 
-1.511681688148e-05 6.671209083265e-04 0.0 
0.0 0.0 -1.338235891287e-04 
-1.329944671513e-04 1.728312419837e-05 0.0 
1.728312419837e-05 6.296869018316e-04 0.0 
0.0 0.0 -1.329549719063e-04 
-2.100970973320e-04 9.757108245941e-06 0.0 
9.757108245941e-06 1.064616598962e-03 0.0 
0.0 0.0 -1.976702944042e-04 
-1.907673612491e-04 -8.037251829839e-06 0.0 
-8.037251829839e-06 1.054607848416e-03 0.0 
0.0 0.0 -1.960684762570e-04 
-1.291399276805e-04 5.589927261900e-07 0.0 
5.589927261900e-07 6.717799826530e-04 0.0 
0.0 0.0 -1.329856363161e-04 
-1.332115243411e-04 1.116366171221e-05 0.0 
1.116366171221e-05 6.698553752901e-04 0.0 
0.0 0.0 -1.328726424774e-04 
-6.123018265422e-05 -2.226991271356e-06 0.0 
-2.226991271356e-06 2.966407899736e-04 0.0 
0.0 0.0 -5.786540529839e-05 
-1.318562850822e-04 -3.804233771773e-06 0.0 
-3.804233771773e-06 6.638255964619e-04 0.0 
0.0 0.0 -1.308611123410e-04 
-1.930153503724e-04 1.076682971487e-05 0.0 
1.076682971487e-05 1.064256298509e-03 0.0 
0.0 0.0 -1.994574706984e-04 
-5.202007941149e-05 -5.137534308526e-06 0.0 
-5.137534308526e-06 2.737802621694e-04 0.0 
0.0 0.0 -5.534513975843e-05 
-1.060096701056e-03 -2.854203109808e-05 0.0 
-2.854203109808e-05 7.080511066382e-03 0.0 
0.0 0.0 -1.060427308513e-03 
-1.101245431622e-03 -2.265554676226e-05 0.0 
-2.265554676226e-05 7.326835296988e-03 0.0 
0.0 0.0 -1.097082233180e-03 
-1.303771853134e-03 -3.955883839580e-06 0.0 
-3.955883839580e-06 8.773017437093e-03 0.0 
0.0 0.0 -1.300897016293e-03 
-7.525731418623e-04 -2.553654618198e-05 0.0 
-2.553654618198e-05 4.964909214712e-03 0.0 
0.0 0.0 -7.584009903415e-04 
-5.671099606206e-05 2.025225744384e-06 0.0 
2.025225744384e-06 2.971089711715e-04 0.0 
0.0 0.0 -5.884959645352e-05 
-1.296052575560e-03 -1.034030829996e-06 0.0 
-1.034030829996e-06 8.715505616406e-03 0.0 
0.0 0.0 -1.292107529982e-03 
-1.300241625373e-03 -1.196764903613e-05 0.0 
-1.196764903613e-05 8.782711832524e-03 0.0 
0.0 0.0 -1.303172775453e-03 
-1.297505069925e-03 9.380535181827e-06 0.0 
9.380535181827e-06 8.784349503541e-03 0.0 
0.0 0.0 -1.304823151597e-03 
-1.190737660973e-03 8.854859890049e-06 0.0 
8.854859890049e-06 7.990764728896e-03 0.0 
0.0 0.0 -1.191058493115e-03 
-1.217720710694e-03 3.907545697867e-06 0.0 
3.907545697867e-06 8.218811643119e-03 0.0 
0.0 0.0 -1.224322658093e-03 
-1.301588133362e-03 5.941663257066e-06 0.0 
5.941663257066e-06 8.722214772172e-03 0.0 
0.0 0.0 -1.294569364341e-03 
-4.491538872292e-04 3.425462149076e-06 0.0 
3.425462149076e-06 2.829494640627e-03 0.0 
0.0 0.0 -4.512809064328e-04 
-1.219121534789e-03 1.093707084889e-05 0.0 
1.093707084889e-05 8.264877250953e-03 0.0 
0.0 0.0 -1.225740639889e-03 
-1.181600644536e-03 2.602984545298e-06 0.0 
2.602984545298e-06 7.898254142128e-03 0.0 
0.0 0.0 -1.178628832109e-03 
-3.271245572877e-04 -7.559619564441e-07 0.0 
-7.559619564441e-07 1.969290585494e-03 0.0 
0.0 0.0 -3.268383546744e-04 
-4.353641825210e-04 2.390544680942e-06 0.0 
2.390544680942e-06 2.735090082528e-03 0.0 
0.0 0.0 -4.373623857420e-04 
-9.887113880157e-04 2.647202920657e-06 0.0 
2.647202920657e-06 6.590846789922e-03 0.0 
0.0 0.0 -9.899674718230e-04 
-9.119629022756e-04 -1.217041315548e-06 0.0 
-1.217041315548e-06 6.048161892543e-03 0.0 
0.0 0.0 -9.123979313600e-04 
-1.130689760044e-03 -2.404858458437e-06 0.0 
-2.404858458437e-06 7.563292742476e-03 0.0 
0.0 0.0 -1.130390451587e-03 
-9.324694232769e-04 5.707369421331e-08 0.0 
5.707369421331e-08 6.185987888161e-03 0.0 
0.0 0.0 -9.322225209316e-04 
-1.071273223037e-03 -3.400166334330e-06 0.0 
-3.400166334330e-06 7.166794807332e-03 0.0 
0.0 0.0 -1.073123358692e-03 
-1.246132006402e-03 2.306789458163e-05 0.0 
2.306789458163e-05 8.374889379432e-03 0.0 
0.0 0.0 -1.244129926109e-03 
-2.805652380378e-04 -4.717906580444e-06 0.0 
-4.717906580444e-06 1.732830044642e-03 0.0 
0.0 0.0 -2.939217362394e-04 
-9.366102056303e-04 6.334636788540e-06 0.0 
6.334636788540e-06 6.210934504197e-03 0.0 
0.0 0.0 -9.364826870394e-04 
-9.120035044512e-04 6.559904903640e-06 0.0 
6.559904903640e-06 6.042070421320e-03 0.0 
0.0 0.0 -9.130351872960e-04 
-1.076387052139e-03 -3.360138210491e-06 0.0 
-3.360138210491e-06 7.184148688862e-03 0.0 
0.0 0.0 -1.075939795031e-03 
-4.728102684627e-04 -4.847791376172e-06 0.0 
-4.847791376172e-06 2.971951481931e-03 0.0 
0.0 0.0 -4.709579147287e-04 
-7.280869989337e-04 -1.354131871902e-05 0.0 
-1.354131871902e-05 4.780585004203e-03 0.0 
0.0 0.0 -7.304257169629e-04 
-3.156217836785e-04 -5.089469505394e-06 0.0 
-5.089469505394e-06 1.850033331779e-03 0.0 
0.0 0.0 -3.104331955072e-04 
-1.248490279357e-03 4.323593742189e-06 0.0 
4.323593742189e-06 8.417241528006e-03 0.0 
0.0 0.0 -1.251461238623e-03 
-7.622164195474e-04 2.744443286047e-08 0.0 
2.744443286047e-08 4.979735740211e-03 0.0 
0.0 0.0 -7.590395520047e-04 
-7.692339302932e-04 1.865673827908e-06 0.0 
1.865673827908e-06 5.052106796517e-03 0.0 
0.0 0.0 -7.694287042311e-04 
-6.089514047186e-04 -2.827610219313e-06 0.0 
-2.827610219313e-06 3.952389816829e-03 0.0 
0.0 0.0 -6.120242822960e-04 
-4.863994982411e-04 4.620884363803e-06 0.0 
4.620884363803e-06 3.095071946727e-03 0.0 
0.0 0.0 -4.894362539292e-04 
-4.085285658609e-04 2.731393984612e-06 0.0 
2.731393984612e-06 2.545768838986e-03 0.0 
0.0 0.0 -4.100935076628e-04 
-6.992575820323e-04 4.870514854700e-06 0.0 
4.870514854700e-06 4.559959934010e-03 0.0 
0.0 0.0 -6.990242139688e-04 
-7.223263303115e-04 1.302313524945e-06 0.0 
1.302313524945e-06 4.731940689569e-03 0.0 
0.0 0.0 -7.237531747479e-04 
-1.024699739881e-03 1.653915686907e-06 0.0 
1.653915686907e-06 6.828723699735e-03 0.0 
0.0 0.0 -1.024340108609e-03 
-1.114669738223e-03 -2.759101931756e-06 0.0 
-2.759101931756e-06 7.438940293733e-03 0.0 
0.0 0.0 -1.112552678551e-03 
-7.837510010110e-05 1.769113863605e-05 0.0 
1.769113863605e-05 3.475076993491e-04 0.0 
0.0 0.0 -7.176178390651e-05 
-1.061119640742e-03 3.173187948481e-06 0.0 
3.173187948481e-06 7.087064478518e-03 0.0 
0.0 0.0 -1.061672265243e-03 
-8.547259828445e-04 -2.557127369107e-07 0.0 
-2.557127369107e-07 5.648936137093e-03 0.0 
0.0 0.0 -8.552253422611e-04 
-9.623974161653e-04 3.311768495808e-06 0.0 
3.311768495808e-06 6.381924133008e-03 0.0 
0.0 0.0 -9.599091010803e-04 
-1.065648191468e-03 -5.923271574285e-06 0.0 
-5.923271574285e-06 7.096345784584e-03 0.0 
0.0 0.0 -1.062640036239e-03 
-2.783998705012e-04 -2.298480854645e-06 0.0 
-2.298480854645e-06 1.715267207971e-03 0.0 
0.0 0.0 -2.909097700217e-04 
-1.100348444179e-03 -1.047118262827e-06 0.0 
-1.047118262827e-06 7.347575470432e-03 0.0 
0.0 0.0 -1.098747615487e-03 
-1.217488030174e-03 6.848117353208e-06 0.0 
6.848117353208e-06 8.139341092548e-03 0.0 
0.0 0.0 -1.212453547082e-03 
-8.838417845426e-04 -2.547521654436e-05 0.0 
-2.547521654436e-05 5.856172789859e-03 0.0 
0.0 0.0 -8.875094802107e-04 
-2.462642296247e-04 -5.029644419161e-06 0.0 
-5.029644419161e-06 1.395111957816e-03 0.0 
0.0 0.0 -2.442495876194e-04 
-8.759046619095e-04 5.034941322806e-06 0.0 
5.034941322806e-06 5.740576630140e-03 0.0 
0.0 0.0 -8.692469099983e-04 
-1.203793389362e-03 4.534763565521e-06 0.0 
4.534763565521e-06 8.059936526886e-03 0.0 
0.0 0.0 -1.202705989510e-03 
-1.079080060508e-03 -5.136331411319e-07 0.0 
-5.136331411319e-07 7.205755043523e-03 0.0 
0.0 0.0 -1.078220320736e-03 
-4.314372885713e-04 -1.108621221051e-05 0.0 
-1.108621221051e-05 2.708353444584e-03 0.0 
0.0 0.0 -4.336020471383e-04 
-7.948364969143e-04 -2.495821117467e-06 0.0 
-2.495821117467e-06 5.224923007330e-03 0.0 
0.0 0.0 -7.943514531093e-04 
-7.442299034792e-04 7.080946298819e-07 0.0 
7.080946298819e-07 4.865637424934e-03 0.0 
0.0 0.0 -7.428158978947e-04 
-6.789224573102e-04 -9.062719812299e-06 0.0 
-9.062719812299e-06 4.471649261705e-03 0.0 
0.0 0.0 -6.865907729104e-04 
-1.214586438871e-03 8.024689912005e-06 0.0 
8.024689912005e-06 8.094834481891e-03 0.0 
0.0 0.0 -1.206557591227e-03 
-8.183792108392e-04 -4.169826119301e-07 0.0 
-4.169826119301e-07 5.384604412960e-03 0.0 
0.0 0.0 -8.172945450071e-04 
-1.123489439230e-03 6.695635103126e-06 0.0 
6.695635103126e-06 7.497291039553e-03 0.0 
0.0 0.0 -1.120054252910e-03 
-9.239887439885e-04 -3.012520915636e-06 0.0 
-3.012520915636e-06 6.128004255690e-03 0.0 
0.0 0.0 -9.240809108919e-04 
-4.625644487372e-04 -4.132620430772e-06 0.0 
-4.132620430772e-06 2.914638302916e-03 0.0 
0.0 0.0 -4.629711029823e-04 
-1.121328625940e-03 -6.182944165330e-06 0.0 
-6.182944165330e-06 7.491651595506e-03 0.0 
0.0 0.0 -1.118919378802e-03 
-7.755037056980e-04 -1.629710765716e-06 0.0 
-1.629710765716e-06 5.087191610180e-03 0.0 
0.0 0.0 -7.743986277066e-04 
-1.165062879850e-03 -3.169874331001e-06 0.0 
-3.169874331001e-06 7.809274989077e-03 0.0 
0.0 0.0 -1.164614768973e-03 
-1.031438669585e-03 -5.272017896807e-06 0.0 
-5.272017896807e-06 6.875819044251e-03 0.0 
0.0 0.0 -1.031533309622e-03 
-6.383681651354e-04 -1.646563539662e-06 0.0 
-1.646563539662e-06 4.132113027582e-03 0.0 
0.0 0.0 -6.375205594687e-04 
-1.120494149395e-03 -5.362450288189e-06 0.0 
-5.362450288189e-06 7.500323563236e-03 0.0 
0.0 0.0 -1.121170216299e-03 
-7.780649319143e-04 1.815637845550e-06 0.0 
1.815637845550e-06 5.106477756251e-03 0.0 
0.0 0.0 -7.773091661689e-04 
-1.101658644117e-03 9.961254280371e-07 0.0 
9.961254280371e-07 7.356355521752e-03 0.0 
0.0 0.0 -1.099429584637e-03 
-7.271456150642e-04 1.682914491909e-06 0.0 
1.682914491909e-06 4.735785920808e-03 0.0 
0.0 0.0 -7.240542973723e-04 
-9.053111554421e-04 -2.304698340665e-06 0.0 
-2.304698340665e-06 5.989601996014e-03 0.0 
0.0 0.0 -9.041109700986e-04 
-9.863008524358e-04 -3.464876425146e-06 0.0 
-3.464876425146e-06 6.537147458198e-03 0.0 
0.0 0.0 -9.824247929831e-04 
-8.612973840953e-04 -1.473763681905e-07 0.0 
-1.473763681905e-07 5.687311619382e-03 0.0 
0.0 0.0 -8.608216255090e-04 
-9.529955923155e-04 1.728497531747e-05 0.0 
1.728497531747e-05 6.336375010902e-03 0.0 
0.0 0.0 -9.534332399069e-04 
-1.092284604608e-03 2.589702392238e-06 0.0 
2.589702392238e-06 7.290468944473e-03 0.0 
0.0 0.0 -1.090315851396e-03 
-3.119597294078e-04 5.757369509454e-07 0.0 
5.757369509454e-07 1.828570008309e-03 0.0 
0.0 0.0 -3.071334217218e-04 
-5.718786607335e-04 -4.107371136149e-07 0.0 
-4.107371136149e-07 3.675898340669e-03 0.0 
0.0 0.0 -5.719042557127e-04 
-9.488327861295e-04 -5.202841949995e-06 0.0 
-5.202841949995e-06 6.331676782321e-03 0.0 
0.0 0.0 -9.536514739466e-04 
-1.157212024015e-03 -6.515732433154e-06 0.0 
-6.515732433154e-06 7.701144359915e-03 0.0 
0.0 0.0 -1.150585697120e-03 
-1.224312444037e-03 6.690841738661e-06 0.0 
6.690841738661e-06 8.269264616708e-03 0.0 
0.0 0.0 -1.229329624135e-03 
-6.820956806615e-04 3.615386019401e-06 0.0 
3.615386019401e-06 4.429302489243e-03 0.0 
0.0 0.0 -6.801182747099e-04 
-1.081664045678e-03 -5.547367653092e-06 0.0 
-5.547367653092e-06 7.227268260236e-03 0.0 
0.0 0.0 -1.081576975854e-03 
-1.187584404498e-03 2.370146928361e-06 0.0 
2.370146928361e-06 7.946791552093e-03 0.0 
0.0 0.0 -1.185355684152e-03 
-7.511569300737e-04 3.681739321804e-07 0.0 
3.681739321804e-07 4.931952546785e-03 0.0 
0.0 0.0 -7.524367508395e-04 
-3.356805227239e-04 3.379744479913e-06 0.0 
3.379744479913e-06 2.005119320146e-03 0.0 
0.0 0.0 -3.333104686742e-04 
-2.618377986137e-04 -2.555233257102e-06 0.0 
-2.555233257102e-06 1.542022096797e-03 0.0 
0.0 0.0 -2.654833071040e-04 
-5.104550227812e-04 2.453007206933e-06 0.0 
2.453007206933e-06 3.238650363468e-03 0.0 
0.0 0.0 -5.092532232582e-04 
-7.832353398933e-04 -9.887778140698e-09 0.0 
-9.887778140698e-09 5.137653853930e-03 0.0 
0.0 0.0 -7.817448632792e-04 
-8.173389799679e-04 -1.106611203733e-06 0.0 
-1.106611203733e-06 5.390375532825e-03 0.0 
0.0 0.0 -8.181699076276e-04 
-1.246124432281e-03 8.592622963334e-06 0.0 
8.592622963334e-06 8.369587963902e-03 0.0 
0.0 0.0 -1.242275372262e-03 
-1.107849420052e-03 -3.778759466968e-06 0.0 
-3.778759466968e-06 7.425444910215e-03 0.0 
0.0 0.0 -1.110186454522e-03 
-1.040708302916e-03 -6.884984212009e-06 0.0 
-6.884984212009e-06 6.941970815521e-03 0.0 
0.0 0.0 -1.040857148505e-03 
-1.527209700993e-04 7.546329121840e-06 0.0 
7.546329121840e-06 7.439800217049e-04 0.0 
0.0 0.0 -1.519369657486e-04 
-7.102565865705e-04 9.145208254823e-06 0.0 
9.145208254823e-06 4.653234839291e-03 0.0 
0.0 0.0 -7.126371066839e-04 
-1.135597595821e-03 -4.213475059683e-06 0.0 
-4.213475059683e-06 7.626732622695e-03 0.0 
0.0 0.0 -1.139074001596e-03 
-8.226822624901e-04 -1.510040807203e-06 0.0 
-1.510040807203e-06 5.420363658064e-03 0.0 
0.0 0.0 -8.223634564932e-04 
-1.130518051871e-03 1.404153544734e-06 0.0 
1.404153544734e-06 7.542933512680e-03 0.0 
0.0 0.0 -1.126725356868e-03 
-7.730615027956e-04 -9.222257900680e-07 0.0 
-9.222257900680e-07 5.135473060459e-03 0.0 
0.0 0.0 -7.817916451012e-04 
-1.247411460160e-03 -9.243273431627e-06 0.0 
-9.243273431627e-06 8.408376939558e-03 0.0 
0.0 0.0 -1.249754184115e-03 
-5.771690213087e-04 1.052821776230e-05 0.0 
1.052821776230e-05 3.703652171226e-03 0.0 
0.0 0.0 -5.757576642514e-04 
-1.170100609579e-03 -4.592953287667e-06 0.0 
-4.592953287667e-06 7.841109684677e-03 0.0 
0.0 0.0 -1.168790087466e-03 
-1.048740829087e-03 7.093154405120e-06 0.0 
7.093154405120e-06 6.993148920806e-03 0.0 
0.0 0.0 -1.047452346298e-03 
-5.261911269690e-04 1.909166491033e-06 0.0 
1.909166491033e-06 3.348024093927e-03 0.0 
0.0 0.0 -5.248669331578e-04 
-7.497340550745e-04 3.779029275121e-06 0.0 
3.779029275121e-06 4.910648048132e-03 0.0 
0.0 0.0 -7.498068730476e-04 
-1.245763281564e-03 6.672330238112e-06 0.0 
6.672330238112e-06 8.371772027766e-03 0.0 
0.0 0.0 -1.243807156011e-03 
-1.117703748533e-03 2.194090469623e-06 0.0 
2.194090469623e-06 7.455079503703e-03 0.0 
0.0 0.0 -1.114542488500e-03 
-9.240113812817e-04 -1.198482107008e-06 0.0 
-1.198482107008e-06 6.127698402996e-03 0.0 
0.0 0.0 -9.240346875991e-04 
-7.861216138726e-04 -9.318371198969e-07 0.0 
-9.318371198969e-07 5.164682558518e-03 0.0 
0.0 0.0 -7.856950878877e-04 
-6.177367695525e-04 -9.517786211563e-06 0.0 
-9.517786211563e-06 3.998918706787e-03 0.0 
0.0 0.0 -6.191377506773e-04 
-8.459389819467e-04 -1.995047945433e-06 0.0 
-1.995047945433e-06 5.590510800112e-03 0.0 
0.0 0.0 -8.467704336814e-04 
-9.417404110639e-04 -4.713677469938e-06 0.0 
-4.713677469938e-06 6.237570578551e-03 0.0 
0.0 0.0 -9.395224721591e-04 
-1.301810218994e-03 1.765430740852e-06 0.0 
1.765430740852e-06 8.802491938361e-03 0.0 
0.0 0.0 -1.306889097489e-03 
-1.157353199815e-03 -3.220404905657e-06 0.0 
-3.220404905657e-06 7.685679656852e-03 0.0 
0.0 0.0 -1.148622835147e-03 
-9.680073786691e-04 -7.171826150541e-06 0.0 
-7.171826150541e-06 6.444265355765e-03 0.0 
0.0 0.0 -9.696660045843e-04 
-8.086257517038e-04 -2.588621595282e-06 0.0 
-2.588621595282e-06 5.331381971752e-03 0.0 
0.0 0.0 -8.097439408559e-04 
-9.758814597954e-04 -1.266881133519e-06 0.0 
-1.266881133519e-06 6.485358460050e-03 0.0 
0.0 0.0 -9.749840279683e-04 
-1.830817571470e-04 -6.180925807514e-06 0.0 
-6.180925807514e-06 1.047535156776e-03 0.0 
0.0 0.0 -1.970089232863e-04 
-6.448165884168e-04 4.844410112050e-06 0.0 
4.844410112050e-06 4.184395435775e-03 0.0 
0.0 0.0 -6.447622526173e-04 
-8.380376970069e-04 -3.326700526570e-06 0.0 
-3.326700526570e-06 5.530905952602e-03 0.0 
0.0 0.0 -8.382314227178e-04 
-5.380831595536e-04 5.638960694152e-07 0.0 
5.638960694152e-07 3.435054469080e-03 0.0 
0.0 0.0 -5.374563060555e-04 
-8.145911171393e-04 -5.272270293874e-07 0.0 
-5.272270293874e-07 5.360444702331e-03 0.0 
0.0 0.0 -8.136389561866e-04 
-1.227174802196e-03 1.276784792674e-05 0.0 
1.276784792674e-05 8.302917635780e-03 0.0 
0.0 0.0 -1.234277959947e-03 
-8.676280294557e-04 -2.040186177104e-06 0.0 
-2.040186177104e-06 5.731120870230e-03 0.0 
0.0 0.0 -8.668853676281e-04 
-6.021329393957e-04 -1.386838022365e-06 0.0 
-1.386838022365e-06 3.881394728410e-03 0.0 
0.0 0.0 -6.015264011954e-04 
-8.964491756309e-04 6.553805878037e-07 0.0 
6.553805878037e-07 5.929532426753e-03 0.0 
0.0 0.0 -8.955981815692e-04 
-5.512424861372e-04 -5.409275769267e-06 0.0 
-5.409275769267e-06 3.527258760375e-03 0.0 
0.0 0.0 -5.519888345566e-04 
-9.985595773763e-04 -1.015463228059e-05 0.0 
-1.015463228059e-05 6.646851321069e-03 0.0 
0.0 0.0 -9.983267706061e-04 
-9.215064714085e-04 1.407126120283e-07 0.0 
1.407126120283e-07 6.123536504565e-03 0.0 
0.0 0.0 -9.243533921793e-04 
-1.004433427130e-03 -6.175544373030e-06 0.0 
-6.175544373030e-06 6.679704057184e-03 0.0 
0.0 0.0 -1.003151257071e-03 
-2.014979142818e-04 -1.982424414319e-05 0.0 
-1.982424414319e-05 1.118628598720e-03 0.0 
0.0 0.0 -2.040322045631e-04 
-9.524490800155e-04 -1.599154771323e-06 0.0 
-1.599154771323e-06 6.321577882661e-03 0.0 
0.0 0.0 -9.517466134248e-04 
-1.151323095747e-03 8.970357597644e-06 0.0 
8.970357597644e-06 7.737810625971e-03 0.0 
0.0 0.0 -1.155419075730e-03 
-5.642242598448e-04 4.052530886012e-06 0.0 
4.052530886012e-06 3.629354201895e-03 0.0 
0.0 0.0 -5.654343806685e-04 
-8.430123869833e-04 1.789712430402e-06 0.0 
1.789712430402e-06 5.558821852331e-03 0.0 
0.0 0.0 -8.420324705410e-04 
-1.064235786948e-03 -6.087517053086e-06 0.0 
-6.087517053086e-06 7.102031703649e-03 0.0 
0.0 0.0 -1.063653581392e-03 
-4.868392782287e-04 -2.122282903209e-05 0.0 
-2.122282903209e-05 3.049667270729e-03 0.0 
0.0 0.0 -4.839843007303e-04 
-9.081670479201e-04 2.415755652444e-07 0.0 
2.415755652444e-07 6.014517114267e-03 0.0 
0.0 0.0 -9.074658271045e-04 
-1.068096740287e-03 -5.575043742393e-06 0.0 
-5.575043742393e-06 7.125147388201e-03 0.0 
0.0 0.0 -1.067288052377e-03 
-9.808487270250e-04 4.928616331368e-06 0.0 
4.928616331368e-06 6.520553626334e-03 0.0 
0.0 0.0 -9.801762873724e-04 
-8.470889807538e-04 7.350311736693e-07 0.0 
7.350311736693e-07 5.583629027931e-03 0.0 
0.0 0.0 -8.455731917576e-04 
-9.738610544212e-04 -1.605198629572e-06 0.0 
-1.605198629572e-06 6.476533283027e-03 0.0 
0.0 0.0 -9.738262179588e-04 
-5.107285056984e-04 1.726041735429e-05 0.0 
1.726041735429e-05 3.222108758113e-03 0.0 
0.0 0.0 -5.057041985798e-04 
-4.224983753939e-04 8.320492048914e-06 0.0 
8.320492048914e-06 2.639215696168e-03 0.0 
0.0 0.0 -4.238464704258e-04 
-3.592226638991e-04 1.930188485338e-06 0.0 
1.930188485338e-06 2.185168436497e-03 0.0 
0.0 0.0 -3.586180353125e-04 
-6.301304693072e-04 -1.957277653438e-06 0.0 
-1.957277653438e-06 4.076615728565e-03 0.0 
0.0 0.0 -6.294631353604e-04 
-1.103647244802e-03 -2.847244465010e-06 0.0 
-2.847244465010e-06 7.378786394117e-03 0.0 
0.0 0.0 -1.103081964739e-03 
-2.559482480598e-04 -2.299545213337e-05 0.0 
-2.299545213337e-05 1.449439224095e-03 0.0 
0.0 0.0 -2.521214004998e-04 
-1.054932560315e-03 -8.075575040939e-06 0.0 
-8.075575040939e-06 7.041307941420e-03 0.0 
0.0 0.0 -1.054898413167e-03 
-2.650995954687e-04 -9.741906018429e-06 0.0 
-9.741906018429e-06 1.540523614087e-03 0.0 
0.0 0.0 -2.660187670962e-04 
-5.941857965255e-04 -1.478675907358e-06 0.0 
-1.478675907358e-06 3.826673915507e-03 0.0 
0.0 0.0 -5.935709857392e-04 
-1.072876015775e-03 5.343583090715e-06 0.0 
5.343583090715e-06 7.192683716525e-03 0.0 
0.0 0.0 -1.077081564483e-03 
-9.321388457541e-04 -4.809931635804e-05 0.0 
-4.809931635804e-05 6.189086367178e-03 0.0 
0.0 0.0 -9.315431351609e-04 
-6.217808576271e-04 7.207492673364e-07 0.0 
7.207492673364e-07 4.019499781701e-03 0.0 
0.0 0.0 -6.211106552582e-04 
-3.980785928310e-04 9.124267879156e-06 0.0 
9.124267879156e-06 2.462820491612e-03 0.0 
0.0 0.0 -3.989951351066e-04 
-5.857792725332e-04 1.985647166840e-06 0.0 
1.985647166840e-06 3.767357559114e-03 0.0 
0.0 0.0 -5.850331209179e-04 
-9.112445775697e-04 1.341366700746e-06 0.0 
1.341366700746e-06 6.030641515549e-03 0.0 
0.0 0.0 -9.098959706900e-04 
-6.128747489382e-04 2.675469426610e-06 0.0 
2.675469426610e-06 3.959229262623e-03 0.0 
0.0 0.0 -6.124823626799e-04 
-5.756573688348e-04 3.659606376946e-06 0.0 
3.659606376946e-06 3.704306399129e-03 0.0 
0.0 0.0 -5.760838601101e-04 
-1.248717565768e-03 -5.535813130846e-06 0.0 
-5.535813130846e-06 8.366851373819e-03 0.0 
0.0 0.0 -1.242975171717e-03 
-6.019390184711e-04 5.185969946797e-06 0.0 
5.185969946797e-06 3.892334269077e-03 0.0 
0.0 0.0 -6.030381679152e-04 
-1.295271260153e-03 -1.307857609192e-05 0.0 
-1.307857609192e-05 8.801391727423e-03 0.0 
0.0 0.0 -1.305370344976e-03 
-1.297876901994e-03 -6.017750132352e-06 0.0 
-6.017750132352e-06 8.756844234735e-03 0.0 
0.0 0.0 -1.298405437673e-03 
-8.024513087945e-04 -3.501513188687e-05 0.0 
-3.501513188687e-05 5.274019348334e-03 0.0 
0.0 0.0 -7.997855503562e-04 
-4.254874939528e-04 2.211998048868e-05 0.0 
2.211998048868e-05 2.578130903576e-03 0.0 
0.0 0.0 -4.121418992062e-04 
-6.508445551723e-05 3.373963354691e-06 0.0 
3.373963354691e-06 3.129607731290e-04 0.0 
0.0 0.0 -6.767973558354e-05 
-4.292600751843e-04 -1.740584050413e-05 0.0 
-1.740584050413e-05 2.722306669060e-03 0.0 
0.0 0.0 -4.369243393394e-04 
-4.999202719491e-04 4.843301359547e-06 0.0 
4.843301359547e-06 3.182731173833e-03 0.0 
0.0 0.0 -5.013603847490e-04 
-1.049593438910e-03 4.881772467559e-07 0.0 
4.881772467559e-07 6.980157933883e-03 0.0 
0.0 0.0 -1.045752072333e-03 
-8.016418655660e-04 8.516902983733e-06 0.0 
8.516902983733e-06 5.282246051091e-03 0.0 
0.0 0.0 -8.029817139903e-04 
-4.608886666597e-04 1.012378092174e-05 0.0 
1.012378092174e-05 2.916090626050e-03 0.0 
0.0 0.0 -4.630712860745e-04 
-1.246806949158e-03 1.140227857438e-06 0.0 
1.140227857438e-06 8.413894031447e-03 0.0 
0.0 0.0 -1.250093291501e-03 
-1.307722546221e-03 -1.676098542473e-05 0.0 
-1.676098542473e-05 8.791128539895e-03 0.0 
0.0 0.0 -1.306737725957e-03 
-1.028575866269e-03 -1.191239422504e-05 0.0 
-1.191239422504e-05 6.846657277970e-03 0.0 
0.0 0.0 -1.028769680629e-03 
-1.163087821654e-03 1.345534459019e-05 0.0 
1.345534459019e-05 7.719562356736e-03 0.0 
0.0 0.0 -1.152835590205e-03 
-1.010012111677e-03 5.602799068574e-06 0.0 
5.602799068574e-06 6.735304706068e-03 0.0 
0.0 0.0 -1.010595862668e-03 
-1.192917845756e-03 -1.946426676365e-05 0.0 
-1.946426676365e-05 7.943592006894e-03 0.0 
0.0 0.0 -1.185717314024e-03 
-7.402744024553e-04 -5.561571202994e-05 0.0 
-5.561571202994e-05 4.875197844443e-03 0.0 
0.0 0.0 -7.451086181774e-04 
-1.274079564101e-04 8.533594738718e-07 0.0 
8.533594738718e-07 6.386951496409e-04 0.0 
0.0 0.0 -1.305770345747e-04 
-9.879127130266e-04 1.076817561932e-05 0.0 
1.076817561932e-05 6.567110452730e-03 0.0 
0.0 0.0 -9.879584850274e-04 
-3.534515362331e-04 7.236051672507e-06 0.0 
7.236051672507e-06 2.087202708593e-03 0.0 
0.0 0.0 -3.437331075899e-04 
-3.524709716392e-04 5.779652154928e-07 0.0 
5.779652154928e-07 2.140761807693e-03 0.0 
0.0 0.0 -3.524505972177e-04 
-2.862323044565e-04 -1.529779689702e-06 0.0 
-1.529779689702e-06 1.660184670344e-03 0.0 
0.0 0.0 -2.832406441101e-04 
-4.971401695179e-04 3.027225826791e-06 0.0 
3.027225826791e-06 3.086653370969e-03 0.0 
0.0 0.0 -4.856826860430e-04 
-1.849802147030e-04 7.362673378462e-06 0.0 
7.362673378462e-06 1.024898749324e-03 0.0 
0.0 0.0 -1.942844358666e-04 
-2.871589559832e-04 8.860091783270e-06 0.0 
8.860091783270e-06 1.702387296045e-03 0.0 
0.0 0.0 -2.888902821290e-04 
-1.252722980053e-03 -1.832850037119e-05 0.0 
-1.832850037119e-05 8.369674222349e-03 0.0 
0.0 0.0 -1.245112051941e-03 
-7.926742292646e-04 -4.732996368771e-05 0.0 
-4.732996368771e-05 5.282443543312e-03 0.0 
0.0 0.0 -8.050116406322e-04 
-1.106262153398e-03 -9.161465296480e-06 0.0 
-9.161465296480e-06 7.422861484469e-03 0.0 
0.0 0.0 -1.110409235593e-03 
-2.195876704695e-04 6.903728268320e-06 0.0 
6.903728268320e-06 1.223775342103e-03 0.0 
0.0 0.0 -2.210826640180e-04 
-1.251801969841e-03 -1.462670654941e-05 0.0 
-1.462670654941e-05 8.397461752409e-03 0.0 
0.0 0.0 -1.247366155457e-03 
-1.250359073208e-03 6.645071777124e-06 0.0 
6.645071777124e-06 8.395286537502e-03 0.0 
0.0 0.0 -1.246608778627e-03 
-1.310061522222e-03 -1.730900586740e-05 0.0 
-1.730900586740e-05 8.803293803047e-03 0.0 
0.0 0.0 -1.306249356034e-03 
-1.172119357565e-03 -2.987465004727e-06 0.0 
-2.987465004727e-06 7.878008992010e-03 0.0 
0.0 0.0 -1.176371721005e-03 
-2.180388128944e-04 -2.924544915625e-06 0.0 
-2.924544915625e-06 1.180274271759e-03 0.0 
0.0 0.0 -2.130604828246e-04 
-8.442593127821e-04 -4.359073983633e-05 0.0 
-4.359073983633e-05 5.668047935442e-03 0.0 
0.0 0.0 -8.603500797662e-04 
-1.256774464996e-03 -9.387217043007e-06 0.0 
-9.387217043007e-06 8.415646483150e-03 0.0 
0.0 0.0 -1.250827372426e-03 
-1.072962494745e-03 -3.075351322395e-06 0.0 
-3.075351322395e-06 7.220489030587e-03 0.0 
0.0 0.0 -1.080253149739e-03 
-1.299956315864e-03 5.907340655945e-05 0.0 
5.907340655945e-05 8.822006705032e-03 0.0 
0.0 0.0 -1.309985050881e-03 
-7.806106637019e-04 -1.684448248671e-06 0.0 
-1.684448248671e-06 5.212548371629e-03 0.0 
0.0 0.0 -7.979019438933e-04 
-1.254167562389e-03 1.146355027263e-05 0.0 
1.146355027263e-05 8.413941643761e-03 0.0 
0.0 0.0 -1.252774941638e-03 
-2.773224831107e-04 -1.248540399814e-05 0.0 
-1.248540399814e-05 1.578602427722e-03 0.0 
0.0 0.0 -2.737139294578e-04 
-1.253589576776e-03 1.816421682348e-05 0.0 
1.816421682348e-05 8.411285343410e-03 0.0 
0.0 0.0 -1.254166199180e-03 
-1.115104807484e-03 -2.535602796045e-06 0.0 
-2.535602796045e-06 7.430825592014e-03 0.0 
0.0 0.0 -1.110316242656e-03 
-8.788088159188e-04 2.953384655579e-05 0.0 
2.953384655579e-05 5.848517526204e-03 0.0 
0.0 0.0 -8.840149073763e-04 
-8.453655219935e-04 1.276109640107e-05 0.0 
1.276109640107e-05 5.644378390582e-03 0.0 
0.0 0.0 -8.570326279659e-04 
-1.251636506986e-03 8.563362149488e-06 0.0 
8.563362149488e-06 8.428656629745e-03 0.0 
0.0 0.0 -1.256337174517e-03 
-1.259327999631e-03 -2.468624830886e-05 0.0 
-2.468624830886e-05 8.412107540714e-03 0.0 
0.0 0.0 -1.249505442739e-03 
-1.752421740853e-04 1.599785091572e-05 0.0 
1.599785091572e-05 9.248205746741e-04 0.0 
0.0 0.0 -1.769373265848e-04 
-1.014009013286e-03 3.718452203751e-05 0.0 
3.718452203751e-05 6.827048883928e-03 0.0 
0.0 0.0 -1.024357608964e-03 
-6.037112023629e-04 -1.928016981808e-05 0.0 
-1.928016981808e-05 3.870166564208e-03 0.0 
0.0 0.0 -5.984289768806e-04 
-1.136473903534e-04 -2.305801768321e-05 0.0 
-2.305801768321e-05 5.992740239483e-04 0.0 
0.0 0.0 -1.205697443559e-04 
-1.256657915508e-03 3.816415809549e-05 0.0 
3.816415809549e-05 8.403684845898e-03 0.0 
0.0 0.0 -1.249521112489e-03 
-1.181297459508e-03 -1.601502097636e-06 0.0 
-1.601502097636e-06 7.855797415999e-03 0.0 
0.0 0.0 -1.172189067419e-03 
-1.260809781498e-03 3.729628833418e-05 0.0 
3.729628833418e-05 8.413738862441e-03 0.0 
0.0 0.0 -1.251863004148e-03 
-2.027346260532e-04 2.709152210177e-05 0.0 
2.709152210177e-05 1.045860090397e-03 0.0 
0.0 0.0 -1.953152674555e-04 
-1.282550990439e-04 1.596967550426e-05 0.0 
1.596967550426e-05 5.957593377885e-04 0.0 
0.0 0.0 -1.273034037094e-04 
-1.264740521523e-03 1.076136126604e-05 0.0 
1.076136126604e-05 8.488256231164e-03 0.0 
0.0 0.0 -1.258522865334e-03 
-1.257630123801e-03 7.011893020696e-06 0.0 
7.011893020696e-06 8.461160637007e-03 0.0 
0.0 0.0 -1.257106814994e-03 
-2.964921431859e-04 1.458101898900e-05 0.0 
1.458101898900e-05 1.817377003358e-03 0.0 
0.0 0.0 -3.034980657766e-04 
-1.315300675602e-03 -4.616213654123e-06 0.0 
-4.616213654123e-06 8.874722920157e-03 0.0 
0.0 0.0 -1.314710167832e-03 
-1.230668747669e-04 -1.081893831763e-05 0.0 
-1.081893831763e-05 5.709731362741e-04 0.0 
0.0 0.0 -1.229206800733e-04 
-7.274132408296e-04 6.183789390236e-06 0.0 
6.183789390236e-06 4.811004360547e-03 0.0 
0.0 0.0 -7.389643750272e-04 
-1.204537552606e-04 -1.859174322418e-05 0.0 
-1.859174322418e-05 6.217166808925e-04 0.0 
0.0 0.0 -1.247417965529e-04 
-1.299793796178e-03 -5.184403467027e-05 0.0 
-5.184403467027e-05 8.811604799613e-03 0.0 
0.0 0.0 -1.308531455474e-03 
-1.262934174837e-03 2.444499081750e-05 0.0 
2.444499081750e-05 8.445031740868e-03 0.0 
0.0 0.0 -1.254845750201e-03 
-6.580718270354e-04 3.721306501361e-05 0.0 
3.721306501361e-05 4.264446760778e-03 0.0 
0.0 0.0 -6.564513288157e-04 
-7.456337922437e-04 2.770990182636e-05 0.0 
2.770990182636e-05 4.941313475091e-03 0.0 
0.0 0.0 -7.541421605440e-04 
-4.450321519268e-04 1.831097352044e-05 0.0 
1.831097352044e-05 2.791375237210e-03 0.0 
0.0 0.0 -4.426424662127e-04 
-1.211596464916e-03 3.979318020068e-05 0.0 
3.979318020068e-05 8.090084984478e-03 0.0 
0.0 0.0 -1.203498912175e-03 
-1.699334618160e-04 1.120862622912e-05 0.0 
1.120862622912e-05 9.446237105802e-04 0.0 
0.0 0.0 -1.843356288727e-04 
-1.269994123481e-03 -1.450914975506e-05 0.0 
-1.450914975506e-05 8.504040731719e-03 0.0 
0.0 0.0 -1.260296891839e-03 
-1.268600913962e-03 -6.159942340731e-06 0.0 
-6.159942340731e-06 8.509424202183e-03 0.0 
0.0 0.0 -1.261416966621e-03 
-1.266492101745e-03 9.280004247652e-06 0.0 
9.280004247652e-06 8.502341661499e-03 0.0 
0.0 0.0 -1.260618436842e-03 
-1.320646394007e-03 1.164813461446e-06 0.0 
1.164813461446e-06 8.896090470956e-03 0.0 
0.0 0.0 -1.317725628150e-03 
-1.063917710965e-04 3.406664009707e-05 0.0 
3.406664009707e-05 5.707022560973e-04 0.0 
0.0 0.0 -1.219614697575e-04 
-1.271929683323e-03 -9.688594658046e-06 0.0 
-9.688594658046e-06 8.520583266263e-03 0.0 
0.0 0.0 -1.263090216482e-03 
-1.211976787312e-03 3.126546850388e-05 0.0 
3.126546850388e-05 8.084092320638e-03 0.0 
0.0 0.0 -1.202239909569e-03 
-7.453046702514e-04 4.651614229786e-05 0.0 
4.651614229786e-05 4.880400084605e-03 0.0 
0.0 0.0 -7.439744481034e-04 
-1.252851707889e-03 4.006401018327e-05 0.0 
4.006401018327e-05 8.422629498426e-03 0.0 
0.0 0.0 -1.252574368527e-03 
-5.410687361656e-04 2.769520936269e-05 0.0 
2.769520936269e-05 3.454688790362e-03 0.0 
0.0 0.0 -5.383891422301e-04 
-2.371733345551e-04 -4.470106712651e-05 0.0 
-4.470106712651e-05 1.418248240622e-03 0.0 
0.0 0.0 -2.492021827984e-04 
-1.298998890690e-03 -2.770464845184e-05 0.0 
-2.770464845184e-05 8.833071909488e-03 0.0 
0.0 0.0 -1.313490227100e-03 
-4.294380069023e-05 -4.186010349566e-06 0.0 
-4.186010349566e-06 2.320436162997e-04 0.0 
0.0 0.0 -5.297760877488e-05 
-7.470694764219e-04 -2.192265105768e-05 0.0 
-2.192265105768e-05 4.855390412225e-03 0.0 
0.0 0.0 -7.402411036050e-04 
-1.312354484328e-03 4.131093532360e-05 0.0 
4.131093532360e-05 8.846630708308e-03 0.0 
0.0 0.0 -1.313492844077e-03 
-2.211400451138e-04 -3.676306702383e-06 0.0 
-3.676306702383e-06 1.335213202641e-03 0.0 
0.0 0.0 -2.401910970206e-04 
-8.452827785452e-04 -2.606429286929e-05 0.0 
-2.606429286929e-05 5.603903241888e-03 0.0 
0.0 0.0 -8.489638187885e-04 
-1.255507124853e-03 -9.186014831564e-06 0.0 
-9.186014831564e-06 8.480922712531e-03 0.0 
0.0 0.0 -1.260211869575e-03 
-8.025976065576e-04 9.592064473669e-06 0.0 
9.592064473669e-06 5.261098351640e-03 0.0 
0.0 0.0 -7.986629621775e-04 
-1.151240916671e-03 -6.084869299020e-05 0.0 
-6.084869299020e-05 7.669030971500e-03 0.0 
0.0 0.0 -1.148445367820e-03 
-2.192829735374e-04 1.243334644941e-05 0.0 
1.243334644941e-05 1.310510961281e-03 0.0 
0.0 0.0 -2.379222736554e-04 
-3.921137447330e-05 -2.374603163330e-06 0.0 
-2.374603163330e-06 2.327919393128e-04 0.0 
0.0 0.0 -4.855001867801e-05 
-9.645913781642e-04 -4.083102734347e-05 0.0 
-4.083102734347e-05 6.424950689754e-03 0.0 
0.0 0.0 -9.668795991591e-04 
-1.266746155896e-03 3.603621751388e-05 0.0 
3.603621751388e-05 8.474273100537e-03 0.0 
0.0 0.0 -1.258714341260e-03 
-1.271487619191e-03 -1.652780192113e-05 0.0 
-1.652780192113e-05 8.532655002207e-03 0.0 
0.0 0.0 -1.263997700767e-03 
-9.164544161814e-04 3.965640940816e-05 0.0 
3.965640940816e-05 6.111358236627e-03 0.0 
0.0 0.0 -9.199601189493e-04 
-2.093975888615e-04 -4.665649638245e-05 0.0 
-4.665649638245e-05 1.197818786362e-03 0.0 
0.0 0.0 -2.164625706183e-04 
-1.227420417668e-03 9.834631553133e-06 0.0 
9.834631553133e-06 8.219790599597e-03 0.0 
0.0 0.0 -1.221038716794e-03 
-6.921621610822e-04 -2.719005194183e-06 0.0 
-2.719005194183e-06 4.614590635001e-03 0.0 
0.0 0.0 -7.060606045913e-04 
-1.222382248160e-03 -1.550215016822e-05 0.0 
-1.550215016822e-05 8.147929268757e-03 0.0 
0.0 0.0 -1.208939113964e-03 
-1.221146925072e-03 -7.968249279301e-06 0.0 
-7.968249279301e-06 8.100682442682e-03 0.0 
0.0 0.0 -1.203806565432e-03 
-5.670525863280e-05 -1.771698635754e-05 0.0 
-1.771698635754e-05 2.585053466944e-04 0.0 
0.0 0.0 -6.449378323917e-05 
-8.615762060499e-04 1.909652726146e-05 0.0 
1.909652726146e-05 5.665696184107e-03 0.0 
0.0 0.0 -8.562696210230e-04 
-1.225143862683e-04 -2.984290666876e-05 0.0 
-2.984290666876e-05 5.860977302171e-04 0.0 
0.0 0.0 -1.223049983750e-04 
-1.270837356719e-03 -1.933520143365e-05 0.0 
-1.933520143365e-05 8.510135783999e-03 0.0 
0.0 0.0 -1.263714160583e-03 
-7.340830126836e-04 -1.335821332730e-05 0.0 
-1.335821332730e-05 4.821918862365e-03 0.0 
0.0 0.0 -7.344436328926e-04 
-1.167994521885e-04 -3.358437711766e-05 0.0 
-3.358437711766e-05 9.919488836607e-04 0.0 
0.0 0.0 -1.970437532328e-04 
-1.982795993062e-04 3.736020491869e-06 0.0 
3.736020491869e-06 1.084706337289e-03 0.0 
0.0 0.0 -1.933333333333e-04 
-2.171382535679e-04 -2.143449595072e-05 0.0 
-2.143449595072e-05 1.462578214749e-03 0.0 
0.0 0.0 -2.525839566596e-04 
-2.653195259643e-04 -7.998521144922e-07 0.0 
-7.998521144922e-07 1.467192985801e-03 0.0 
0.0 0.0 -2.600000000000e-04 
-2.777260844818e-04 -2.914177909710e-05 0.0 
-2.914177909710e-05 1.926657240019e-03 0.0 
0.0 0.0 -3.193537414966e-04 
-3.309390786780e-04 -1.795373795612e-06 0.0 
-1.795373795612e-06 2.009093472513e-03 0.0 
0.0 0.0 -3.266666666667e-04 
-3.365637611374e-04 -1.953033103217e-05 0.0 
-1.953033103217e-05 2.395340660532e-03 0.0 
0.0 0.0 -3.859030858720e-04 
-3.974252423505e-04 -3.636312148879e-06 0.0 
-3.636312148879e-06 2.393351786518e-03 0.0 
0.0 0.0 -3.933333333333e-04 
-4.176772664276e-04 -3.650619160961e-05 0.0 
-3.650619160961e-05 2.860283649269e-03 0.0 
0.0 0.0 -4.526870748299e-04 
-4.632043610658e-04 -3.909792630526e-06 0.0 
-3.909792630526e-06 2.935876671509e-03 0.0 
0.0 0.0 -4.600000000000e-04 
-4.858491939109e-04 -3.571106393789e-05 0.0 
-3.571106393789e-05 3.331481419020e-03 0.0 
0.0 0.0 -5.192176870747e-04 
-5.307983311464e-04 -4.380846350954e-06 0.0 
-4.380846350954e-06 3.321472726831e-03 0.0 
0.0 0.0 -5.266666666667e-04 
-5.549907469666e-04 -3.829926739680e-05 0.0 
-3.829926739680e-05 3.794910893621e-03 0.0 
0.0 0.0 -5.860204081633e-04 
-5.953475250696e-04 7.629065543805e-06 0.0 
7.629065543805e-06 3.863201785318e-03 0.0 
0.0 0.0 -5.933333333333e-04 
-6.234948668458e-04 -3.482962657325e-05 0.0 
-3.482962657325e-05 4.267925272266e-03 0.0 
0.0 0.0 -6.525251918948e-04 
-6.733326468399e-04 3.722248756964e-05 0.0 
3.722248756964e-05 4.248015244343e-03 0.0 
0.0 0.0 -6.600000000000e-04 

SCALARS node_materi_plasti_kappa_shear float
LOOKUP_TABLE default
1.154246033666e-04
3.030366954187e-03
5.919693902232e-03
5.923852315190e-03
2.859947626271e-04
6.218445993993e-04
8.718334659107e-04
1.197083009525e-03
1.504800919970e-03
1.797006115044e-03
2.096281833338e-03
2.401455262769e-03
2.703248692656e-03
3.016765538726e-03
3.359027883223e-03
3.663996831824e-03
3.908074174929e-03
4.228433772035e-03
4.543227631705e-03
4.848753617487e-03
5.161467818816e-03
5.477271259315e-03
5.779376537800e-03
5.932061195851e-03
5.925336573631e-03
5.920984287690e-03
5.924407700450e-03
5.915528138253e-03
5.915864416856e-03
5.918097125373e-03
5.921994664725e-03
5.927387718192e-03
5.930449677587e-03
5.921712747723e-03
5.924515498722e-03
5.931743115084e-03
5.928847067526e-03
5.919544915052e-03
5.911436947505e-03
5.907167024861e-03
5.916691287179e-03
5.925466264875e-03
5.926352037367e-03
5.927462665333e-03
5.926179788313e-03
5.923807961778e-03
5.921183308973e-03
5.929039143344e-03
5.928617810733e-03
5.930983770204e-03
5.930261081197e-03
5.934897168252e-03
5.940412066917e-03
5.938845524630e-03
5.922011629466e-03
5.913355498151e-03
5.926067531878e-03
5.924785671547e-03
5.926499683681e-03
5.927876554226e-03
5.924703349372e-03
5.915717987273e-03
5.917408892843e-03
5.920280365368e-03
5.931958681328e-03
5.938110150403e-03
5.906803770761e-03
5.928713183382e-03
5.925023434436e-03
5.923453604397e-03
5.939442334279e-03
5.942268996102e-03
3.313640150810e-03
3.643609585951e-03
3.947542440607e-03
4.242858391353e-03
4.550358348147e-03
4.852089997296e-03
5.156894848885e-03
5.448757344777e-03
5.772918013305e-03
9.252120421734e-05
3.026620073330e-03
3.625369357501e-04
6.565552453234e-04
8.579966173549e-04
1.150050340834e-03
1.455650881849e-03
1.761739050222e-03
2.071596637440e-03
2.380436576739e-03
2.688785350789e-03
7.312842958560e-04
9.082535612244e-04
1.203400472496e-03
1.503243346296e-03
1.805240586308e-03
2.108589051748e-03
2.410886229174e-03
2.706771452633e-03
2.974381815992e-03
2.988250338395e-03
2.992834626340e-03
2.988540146830e-03
3.040036634150e-03
2.993658303481e-03
2.986565369329e-03
2.994325014933e-03
3.003444053817e-03
3.004893136958e-03
3.000286560445e-03
2.997851424533e-03
2.994316307864e-03
3.001824735141e-03
9.621576344534e-05
1.072789967255e-04
9.631852337864e-05
9.634646192599e-05
1.161697218308e-04
1.255618245920e-04
1.234927640208e-04
1.176143698925e-04
1.181040846591e-04
1.155364499888e-04
1.206715439587e-04
1.365993450730e-04
1.279414962217e-04
1.070815165248e-04
1.087456221067e-04
1.225517974272e-04
1.266454771602e-04
1.116507655708e-04
1.010315185057e-04
6.359496619946e-04
7.537312906529e-04
7.322702098211e-04
7.363681610587e-04
7.392080595312e-04
7.385039017390e-04
7.384689139448e-04
7.376907422305e-04
7.374269589737e-04
7.369641248051e-04
7.366296158133e-04
7.363238272115e-04
7.361427869375e-04
7.360692590350e-04
7.361282113324e-04
7.362788820459e-04
7.364558818874e-04
7.365963749350e-04
7.366557505051e-04
7.365870196345e-04
7.363271826455e-04
7.357950494017e-04
7.349088919294e-04
7.337829317923e-04
7.367405095167e-04
7.717737371133e-04
7.904255727578e-04
8.783000424664e-04
8.670380613553e-04
8.657947099438e-04
8.672635734924e-04
8.658146930651e-04
8.658546933484e-04
8.653242019037e-04
8.649872547731e-04
8.646047193751e-04
8.643408386468e-04
8.641883682696e-04
8.642034570515e-04
8.643474733228e-04
8.645303581457e-04
8.646730498603e-04
8.647307615589e-04
8.646592228385e-04
8.644084069495e-04
8.639276918068e-04
8.632012764269e-04
8.623034044442e-04
8.616810527116e-04
8.652010616203e-04
8.934809853961e-04
1.187992031409e-03
1.170134596188e-03
1.168919802431e-03
1.169232374386e-03
1.169868085339e-03
1.170482980653e-03
1.170912721050e-03
1.171120299723e-03
1.171160922491e-03
1.171078166626e-03
1.170905132217e-03
1.170648727803e-03
1.170479286423e-03
1.170547781896e-03
1.170950149661e-03
1.171291949906e-03
1.171904111755e-03
1.171902869802e-03
1.172775691022e-03
1.171191663991e-03
1.172612854848e-03
1.187833400543e-03
1.100890959270e-03
1.406472201895e-03
1.491080212999e-03
1.478875045824e-03
1.477895659223e-03
1.479619060523e-03
1.478564647702e-03
1.478277220900e-03
1.477332716482e-03
1.477027418563e-03
1.477261296584e-03
1.477705681800e-03
1.477884862686e-03
1.477949264049e-03
1.477971194428e-03
1.477874591721e-03
1.477531872393e-03
1.476939422515e-03
1.476353314810e-03
1.476071760447e-03
1.476543377434e-03
1.479007895978e-03
1.494609376958e-03
1.795031686062e-03
1.783773745531e-03
1.782623055880e-03
1.782626379155e-03
1.783057178786e-03
1.783727354425e-03
1.784306026727e-03
1.784380359053e-03
1.784248010391e-03
1.784368936443e-03
1.784509361012e-03
1.784222028420e-03
1.783208560618e-03
1.783225774654e-03
1.784136159459e-03
1.786530570038e-03
1.785403695648e-03
1.784867355603e-03
1.800532715687e-03
1.713377617146e-03
2.018704063446e-03
2.107896464569e-03
2.095467463099e-03
2.092115637880e-03
2.090444484697e-03
2.089262768386e-03
2.091381496790e-03
2.091935832999e-03
2.091701405459e-03
2.090782435672e-03
2.090851254199e-03
2.091553502457e-03
2.090833695651e-03
2.089930293994e-03
2.089391547646e-03
2.089200621047e-03
2.089561437809e-03
2.092034405906e-03
2.102852006717e-03
2.407656875407e-03
2.395972459848e-03
2.394599199124e-03
2.395531468110e-03
2.394981263883e-03
2.396176998543e-03
2.397491354676e-03
2.397714307114e-03
2.395585196249e-03
2.397789855342e-03
2.399172565538e-03
2.398368259276e-03
2.398547875961e-03
2.393984296182e-03
2.398022086534e-03
2.418470853755e-03
2.331238587604e-03
2.637929620288e-03
2.723228742168e-03
2.707307494023e-03
2.703362484179e-03
2.705380261164e-03
2.706672240760e-03
2.703116806963e-03
2.702772263136e-03
2.703136713816e-03
2.702441216446e-03
2.701188865917e-03
2.700451988879e-03
2.702758821159e-03
2.699325300696e-03
2.707024502911e-03
2.723902039593e-03
2.292941970269e-04
5.236807730249e-04
7.205477140506e-04
1.028419111739e-03
1.324751298754e-03
1.629703414510e-03
1.935057087960e-03
2.241665025770e-03
2.548701800634e-03
2.861688706248e-03
7.103606478164e-04
5.814911313878e-03
2.047918518275e-04
1.970502068753e-04
5.819197632046e-03
1.328946267278e-03
3.191329080053e-03
5.810273490245e-03
1.892382905539e-03
5.822030968611e-03
2.522985579042e-03
5.833950524206e-03
1.864247367510e-04
5.824179591591e-03
3.155514371104e-03
1.957918245127e-03
4.023649944342e-03
5.811714724389e-03
5.825466270030e-03
5.824996473377e-03
5.797525205523e-03
5.833870913861e-03
3.279705906600e-03
3.278932509466e-03
3.299538154266e-03
4.392988308338e-03
5.825782847880e-03
1.875803799629e-04
2.130243859941e-04
4.990941270632e-03
3.266764248665e-03
1.027578116983e-03
5.770593586357e-03
5.837121425949e-03
5.820649096206e-03
5.802522940310e-03
5.827315517430e-03
2.124904197991e-04
3.271394634805e-03
5.775055632193e-03
5.005410343617e-03
2.049450714894e-04
2.556345996281e-03
5.876876022666e-03
1.638575426776e-03
1.018536859922e-03
2.209222523540e-03
2.829980156742e-03
3.757872655430e-04
3.812034731290e-03
5.879774981020e-03
2.000834389720e-04
5.582228690945e-03
3.282968380463e-03
3.405879163641e-03
3.554924991576e-03
3.706761369563e-03
3.858428676321e-03
3.994172834541e-03
3.835090176788e-03
4.124628089981e-03
3.963011153955e-03
4.154617485841e-03
4.253890367715e-03
4.090560016023e-03
4.382096032079e-03
4.218726563058e-03
3.929419603329e-03
4.056695462337e-03
3.767499058174e-03
3.894823734663e-03
4.184913419616e-03
4.022005877425e-03
3.732190171091e-03
3.858313833382e-03
3.569562641982e-03
3.695377336778e-03
3.406514106271e-03
3.532562577704e-03
3.821712444257e-03
3.658737601044e-03
3.369644961438e-03
3.495886750392e-03
3.207187652528e-03
3.332149617847e-03
3.621982769517e-03
3.458496973122e-03
3.166845774337e-03
3.294707675905e-03
3.002130027115e-03
3.131260622861e-03
2.837304896117e-03
2.965670032421e-03
3.259556182238e-03
3.094478366317e-03
2.799648397582e-03
2.927396624230e-03
3.222929756525e-03
3.055408384458e-03
3.351641860097e-03
3.184131490321e-03
2.889094859221e-03
3.017387565719e-03
3.312807633971e-03
3.144807155985e-03
2.850539984923e-03
2.978148191045e-03
3.273453875391e-03
3.105701933788e-03
2.811118638057e-03
2.939152856274e-03
3.235930558971e-03
3.066878938369e-03
2.770729598448e-03
2.897992444106e-03
3.196676201024e-03
3.025458962526e-03
3.326539777395e-03
2.725836099392e-03
2.853445082624e-03
2.552546008883e-03
2.681203652163e-03
3.749361599789e-03
2.379164116958e-03
2.254416588919e-03
2.509143601858e-03
2.813194765712e-03
2.206243071564e-03
2.337199456257e-03
2.035089294135e-03
2.704627779472e-03
4.313057656759e-03
2.166880539926e-03
1.864421071359e-03
1.732868546084e-03
1.561342170472e-03
4.024498791055e-03
4.321449536869e-03
4.179690524695e-03
4.487558501959e-03
4.351378253477e-03
1.692293086120e-03
4.547507496043e-03
4.620310667296e-03
3.444574795783e-03
3.081228819560e-03
3.519317618785e-03
2.468789982299e-03
2.300880945692e-03
2.604574973058e-03
3.497581244635e-03
3.628764160508e-03
3.799698635942e-03
3.931379681523e-03
4.102448612731e-03
4.234588908537e-03
4.063072780301e-03
4.366751221426e-03
4.194735028229e-03
4.405545622725e-03
4.273365102485e-03
4.498318737704e-03
4.326379418243e-03
4.629602997623e-03
4.457503609016e-03
4.153929470569e-03
4.284864263682e-03
3.982884066866e-03
3.648745610141e-03
3.817193794493e-03
3.946719407469e-03
4.115926409861e-03
4.245574739592e-03
4.415539763342e-03
4.544399560802e-03
4.375426891281e-03
4.509920023172e-03
2.632653377112e-03
2.504948411976e-03
2.338614636793e-03
2.211400256375e-03
2.045332097660e-03
1.919061142858e-03
1.752635209565e-03
1.878513981748e-03
1.584910331352e-03
1.710339413602e-03
1.415942396810e-03
1.540924270131e-03
3.948384266438e-03
4.285218450736e-03
4.585788453075e-03
4.452548000313e-03
1.432045145505e-03
4.588120534621e-03
4.576656745919e-03
4.442906503729e-03
4.675416510747e-03
1.391840176144e-03
1.627976054006e-03
1.791438559949e-03
4.652375729059e-03
4.515073750359e-03
4.747734229222e-03
1.522378979601e-03
4.671085369189e-03
1.291851135584e-03
4.415253925120e-03
4.718848314431e-03
3.891705484867e-03
4.754278458359e-03
4.616084921715e-03
1.839848146906e-03
1.672605894671e-03
1.378135101855e-03
1.515420670763e-03
1.805900116599e-03
1.632448232839e-03
1.332653763525e-03
1.460848178870e-03
1.759405537371e-03
1.587950129179e-03
1.285510927899e-03
1.415480434626e-03
4.891516996896e-03
1.121510096864e-03
3.641366942474e-03
4.879243427220e-03
4.841045972056e-03
4.817221487039e-03
4.680859314151e-03
4.376749942027e-03
4.546436710308e-03
4.850021688501e-03
4.714841530376e-03
4.411085338888e-03
4.576823668989e-03
4.271643822444e-03
4.438121527056e-03
4.742306724662e-03
4.605607762388e-03
4.302170490177e-03
4.468415119196e-03
4.164526586705e-03
4.326213013675e-03
4.634793358128e-03
1.226849014185e-03
4.506378239639e-03
4.809738295993e-03
2.453146888506e-03
2.728545033659e-03
2.907124081246e-03
3.043059147020e-03
4.493803980504e-03
4.803851567309e-03
1.501869364537e-03
1.664240495932e-03
4.952759396910e-03
4.548949919363e-03
4.244032685451e-03
2.918967585879e-03
2.792586959038e-03
2.629168594188e-03
2.499093692646e-03
2.668968419875e-03
2.332626947431e-03
4.138292167915e-03
4.909939925648e-03
1.603914124137e-03
1.302913386403e-03
4.855203702972e-03
4.205737706829e-03
4.111791117138e-03
4.239349827017e-03
4.404279031402e-03
4.532163345971e-03
4.698797086860e-03
4.826101189866e-03
4.663500232458e-03
4.917627217648e-03
4.959771601570e-03
4.174662190372e-03
4.151213148999e-03
1.888480938751e-03
1.096487228567e-03
1.112867725487e-03
1.347315636886e-03
1.652113615696e-03
5.051413102721e-03
4.995155339568e-03
4.862932033424e-03
2.379373966366e-03
2.546273267233e-03
5.051913667086e-03
4.046495241742e-03
4.106805891897e-03
3.964719198022e-03
1.001701890259e-03
9.814910827122e-04
5.018736248123e-03
1.953490702354e-03
1.826326942528e-03
1.000603477325e-03
8.270248169059e-04
4.649062039121e-03
4.959360782526e-03
3.209003612840e-03
3.344763241722e-03
4.919412739713e-03
1.246851632543e-03
5.108760944892e-03
4.338688324758e-03
4.036566623443e-03
2.862194265683e-03
1.379647792169e-03
1.216950747748e-03
2.058445277619e-03
1.544704251302e-03
1.478187698947e-03
5.222097844678e-03
5.150166074507e-03
4.796698922503e-03
4.498570299624e-03
5.089656245451e-03
9.457015925929e-04
5.189931181500e-03
4.686738709315e-03
5.150549732461e-03
5.027069730600e-03
2.114316632000e-03
1.991901980435e-03
1.705778784395e-03
1.877221421128e-03
3.675799238899e-03
2.280051155843e-03
3.479503618634e-03
3.353779208918e-03
3.194968393760e-03
2.831556800728e-03
2.708824037533e-03
2.375496384323e-03
3.686936591630e-03
3.078073203987e-03
3.851596386181e-03
3.667740788258e-03
5.044158210038e-03
5.215830386065e-03
3.998289725651e-03
3.853491964182e-03
1.131663708096e-03
1.005870343686e-03
3.457686078413e-03
5.011327749084e-03
5.115127262102e-03
5.250667570774e-03
5.084339547061e-03
5.085185550635e-03
2.466333230067e-03
3.777777636612e-03
9.588302078742e-04
3.912004250684e-03
8.314503266492e-04
4.475699055473e-03
4.989278594651e-03
5.157849786265e-03
5.214381496867e-03
3.266010047436e-03
4.041180497852e-03
3.878621153168e-03
3.070483235828e-03
2.913482248638e-03
3.035157386404e-03
2.755770959431e-03
2.184615498058e-03
2.013559352505e-03
5.319773126116e-03
5.255640298353e-03
5.321605394694e-03
5.197016645099e-03
5.342046142709e-03
5.180952194182e-03
1.777196002727e-03
2.427249311879e-03
5.314454420742e-03
3.225902650504e-03
5.312357786980e-03
5.147322410379e-03
6.540445478406e-04
7.723794913411e-04
5.277227190096e-03
1.587049601255e-03
1.745337399366e-03
1.421339300996e-03
5.610035015994e-03
3.257775872683e-03
5.289370763037e-03
2.995256057925e-03
5.420258365801e-03
4.174507003320e-03
2.750543209626e-03
4.785821545599e-03
5.111095174845e-03
5.457139877325e-03
3.797889722827e-03
3.646479732755e-03
3.931549897695e-03
1.164427047641e-03
8.448239735481e-04
5.077361997568e-03
2.130717764018e-03
2.299994958428e-03
1.365911109574e-03
1.662041853713e-03
3.380077755549e-03
3.249013876935e-03
4.605823304079e-03
4.769919328613e-03
4.276226867883e-03
4.169358572453e-03
3.867935193715e-03
3.737504250769e-03
5.341787835815e-03
5.553309217008e-03
2.353647089942e-03
2.227016294383e-03
2.307076216506e-03
5.450349556697e-03
5.463341176944e-03
5.325739410321e-03
7.148670898350e-04
8.870883348093e-04
1.101873869960e-03
9.316626042024e-04
5.373764850267e-03
5.221517258001e-03
5.572702457976e-03
1.582372335378e-03
4.632172669378e-03
5.375893312072e-03
5.254154539084e-03
5.559534277686e-03
5.076810545238e-03
5.365925183894e-03
5.378240200423e-03
5.392140300883e-04
5.334646512646e-03
3.675752576569e-03
3.994140177194e-04
3.535833562514e-03
3.716995656290e-03
3.370679194070e-03
1.282169154075e-03
3.567296707678e-03
3.765939256375e-03
5.126327859221e-04
5.605887865963e-03
5.560267422025e-04
6.660332016854e-04
5.449756143397e-03
5.274590684749e-03
5.572244234080e-03
5.392478454778e-03
5.099677131758e-03
5.238383322142e-03
3.509567093749e-03
5.572364392840e-03
5.374148307929e-03
5.737141131835e-03
2.638726436383e-03
2.039901378839e-03
1.905448348708e-03
1.617406521166e-03
5.530794330127e-03
5.348359015461e-03
4.829734702657e-03
4.521447046327e-03
3.557349194756e-03
3.532569652196e-03
3.813584889458e-03
3.767894522616e-03
4.058668074403e-03
4.012436085661e-03
4.295379223318e-03
5.556472121404e-03
1.300890945793e-03
2.946721722792e-03
5.471988497703e-03
5.293800497184e-03
2.587723201717e-03
2.314665718403e-03
5.537328889683e-03
2.406283520918e-03
5.792762283983e-03
1.858040090612e-04
4.857765212983e-04
2.573038789786e-03
2.873030274744e-03
2.199216706967e-03
2.091680435174e-03
4.476442988489e-03
7.504877515353e-04
1.263024816417e-03
4.334362747608e-03
9.849535248274e-04
4.679903303412e-03
2.540562741112e-03
3.118474233540e-03
1.542099058054e-03
2.168158947901e-03
3.802386178974e-03
3.549362578402e-03
3.391116114852e-03
2.670946485909e-03
2.260803135556e-03
1.949223813238e-03
3.605674145861e-03
4.919767447334e-03
5.053137848748e-03
5.341032503505e-03
5.187217989567e-03
4.888560595270e-03
5.017653317247e-03
5.314535410036e-03
5.156798542278e-03
5.508315270460e-03
5.286399283860e-03
4.980351695302e-03
5.106165886697e-03
5.394021959470e-03
4.807746362982e-03
5.628111934766e-03
2.871243858978e-03
6.965101933152e-04
6.551789095587e-04
3.282360146456e-03
5.809860564826e-03
5.821157866103e-03
2.082528349660e-03
5.819524766679e-03
3.515099545658e-03
1.460932159611e-03
5.821354656771e-03
4.753391499877e-03
4.585238946775e-03
4.452711673430e-03
5.831503303158e-03
4.073161563167e-03
5.837134571400e-03
3.985700881929e-03
3.851791908227e-03
3.554575317505e-03
4.847344029507e-03
5.817888275316e-03
5.575635814432e-03
5.571525256645e-03
5.311966086722e-03
5.819541179728e-03
5.830698806893e-03
5.838402623042e-03
1.930986719212e-03
2.101024040918e-03
2.394475490464e-03
2.266384359489e-03
1.970817861414e-03
2.136867911929e-03
2.431134490451e-03
2.006483688020e-03
5.062450549600e-03
5.830124137920e-03
3.970119493304e-03
3.835301643933e-03
3.534841884466e-03
2.946573758729e-03
3.117318954907e-03
3.419825569632e-03
2.776365598311e-03
4.367919564161e-03
5.827346570942e-03
3.906600699280e-03
2.984402664609e-03
3.276820545210e-03
3.539493379070e-03
3.549133742473e-03
3.824596042644e-03
3.567726925698e-03
3.513236360802e-03
3.646056828441e-03
3.479442829320e-03
3.776440321699e-03
3.600754084134e-03
3.319682840169e-03
3.899235541114e-03
3.712790048005e-03
3.270946734921e-03
2.113632266740e-04
4.663590485079e-04
4.566049970039e-04
7.156745567248e-04
7.373279452377e-04
1.003154234088e-03
9.722585000682e-04
4.717549759512e-04
2.060508248568e-04
4.540770013058e-04
2.016183866916e-04
4.467968440684e-04
7.550412036772e-04
1.182852220765e-03
5.788845613533e-03
2.859709310104e-03
2.724978007808e-03
2.413348020450e-03
2.580932184492e-03
2.979254934651e-03
2.254988964791e-03
2.151777952318e-03
2.124248935492e-04
4.645380525494e-04
4.620287622044e-04
7.358870940255e-04
7.228556758076e-04
4.637229493946e-04
4.638167508818e-04
2.058552859172e-04
4.611112548754e-04
7.280621305049e-04
1.906731245643e-04
4.704546691336e-03
4.866377932286e-03
5.817051415440e-03
3.306461396406e-03
2.060812032613e-04
5.781234699132e-03
5.822288119502e-03
5.823020880709e-03
5.305314190989e-03
5.454685450902e-03
5.787205338867e-03
1.904164271810e-03
5.481003932717e-03
5.244910374535e-03
1.337919885917e-03
1.840104844977e-03
4.380249884781e-03
4.023192351168e-03
5.022936148851e-03
4.114296708411e-03
4.760794110997e-03
5.555554324813e-03
1.179594138024e-03
4.131571153262e-03
4.020912679793e-03
4.773210184270e-03
1.997971753623e-03
3.186209854797e-03
1.264320056221e-03
5.581499467917e-03
3.319123411055e-03
3.366608306896e-03
2.641689808122e-03
2.077782102881e-03
1.716997042932e-03
3.042088607286e-03
3.155408692379e-03
4.538280633475e-03
4.941818270038e-03
2.600596271961e-04
4.708539861147e-03
3.760089428881e-03
4.244105085551e-03
4.715328609436e-03
1.167410736667e-03
4.880974533881e-03
5.403313920794e-03
3.898336749169e-03
9.671126416541e-04
3.824252090180e-03
5.351558397039e-03
4.786917829570e-03
1.824211420534e-03
3.480609807162e-03
3.243878701939e-03
2.980785244645e-03
5.375575519212e-03
3.585995865997e-03
4.980015277352e-03
4.076017659109e-03
1.959475074490e-03
4.975844888606e-03
3.389984283037e-03
5.185084528177e-03
4.569389381663e-03
2.760527645323e-03
4.981119205122e-03
3.402542523838e-03
4.886475886782e-03
3.158193069385e-03
3.984904577625e-03
4.346595079122e-03
3.785347613028e-03
4.212795144997e-03
4.843183184598e-03
1.250416126476e-03
2.458873987470e-03
4.209667670053e-03
5.115121627223e-03
5.486043343848e-03
2.956453768340e-03
4.801040750307e-03
5.276018678210e-03
3.287319671934e-03
1.360173557846e-03
1.054118268605e-03
2.172491032492e-03
3.423285296841e-03
3.589532674148e-03
5.552240847616e-03
4.931191158355e-03
4.613419327886e-03
5.464000382780e-04
3.101627176124e-03
5.063754079328e-03
3.609293720743e-03
5.009794558602e-03
3.416052821844e-03
5.575482653537e-03
2.475536180774e-03
5.206362114330e-03
4.647615435026e-03
2.244695150429e-03
3.268136202907e-03
5.555008699614e-03
4.952886856145e-03
4.075675641162e-03
3.440761170649e-03
2.670689667684e-03
3.721275175177e-03
4.148714793035e-03
5.835319629331e-03
5.106135759620e-03
4.284472671237e-03
3.550391241370e-03
4.312448323242e-03
7.156855192344e-04
2.792869111198e-03
3.682084945283e-03
2.301558692687e-03
3.569870679035e-03
5.507448749153e-03
3.814302881920e-03
2.595277141504e-03
3.945212643466e-03
2.359824458181e-03
4.418520852231e-03
4.072359630917e-03
4.440337999663e-03
7.757686492746e-04
4.203718467632e-03
5.137853672774e-03
2.428401079217e-03
3.700926420415e-03
4.718919712422e-03
2.045517196664e-03
4.001751556342e-03
4.734200010830e-03
4.335389309684e-03
3.717467635180e-03
4.306468150559e-03
2.158315669710e-03
1.778111948175e-03
1.480789573342e-03
2.723576269686e-03
4.901358873080e-03
9.907929562044e-04
4.678560104240e-03
1.061568277770e-03
2.558752785224e-03
4.777870338073e-03
4.115757970203e-03
2.685651994210e-03
1.661993244650e-03
2.519680303368e-03
4.012449715584e-03
2.645863061595e-03
2.477781824869e-03
5.552773111685e-03
2.601556434606e-03
5.832588277671e-03
5.807498199142e-03
3.510356051034e-03
1.737451315662e-03
2.405479085723e-04
1.829108936978e-03
2.134121346790e-03
4.639057668376e-03
3.513173410346e-03
1.958554503757e-03
5.579740788868e-03
5.830554327362e-03
4.549382429434e-03
5.128190593651e-03
4.477241356342e-03
5.275457844279e-03
3.249070074697e-03
4.477567605621e-04
4.366937944895e-03
1.414652943865e-03
1.454830351756e-03
1.141526190888e-03
2.071482774289e-03
7.048676555723e-04
1.168371653296e-03
5.554008919411e-03
3.515193931760e-03
4.930134979137e-03
8.572356047719e-04
5.572156000341e-03
5.569776879399e-03
5.838339516943e-03
5.230953075188e-03
8.277135440664e-04
3.767849181542e-03
5.583236268412e-03
4.792801184414e-03
5.849741729017e-03
3.467504393821e-03
5.585086652784e-03
1.085481836247e-03
5.581941862217e-03
4.937207249790e-03
3.891365713394e-03
3.752927955089e-03
5.593723576573e-03
5.582903556172e-03
6.530334131598e-04
4.532821262706e-03
2.586505146794e-03
4.309456059287e-04
5.577341518437e-03
5.218037136216e-03
5.584899765061e-03
7.371716874996e-04
4.403063957911e-04
5.630357557197e-03
5.612012503027e-03
1.230585207076e-03
5.884366405666e-03
4.092504687394e-04
3.203199811466e-03
4.370733977465e-04
5.843994283019e-03
5.604234858726e-03
2.845335710462e-03
3.286444788878e-03
1.873211432721e-03
5.369777350956e-03
6.577588307218e-04
5.641946929749e-03
5.644321122624e-03
5.639466704751e-03
5.898898139880e-03
4.211607310232e-04
5.652386425481e-03
5.366048530729e-03
3.253953958084e-03
5.587679770306e-03
2.309938481824e-03
9.687550335974e-04
5.854893632795e-03
1.859115235788e-04
3.234858844656e-03
5.866847427828e-03
9.109470946294e-04
3.727440323860e-03
5.623149802079e-03
3.507013142730e-03
5.092976750137e-03
8.975669244277e-04
1.659950822664e-04
4.270563646727e-03
5.623311015092e-03
5.659663736694e-03
4.061400799491e-03
8.220481444569e-04
5.453937277557e-03
3.071062049363e-03
5.407469273276e-03
5.377966207611e-03
2.102243503154e-04
3.774256867795e-03
4.259532598859e-04
5.646002650816e-03
3.210355763876e-03
7.092067453493e-04
7.823421882473e-04
9.833305910441e-04
1.031318664959e-03
1.287275284106e-03
1.374254474632e-03
1.593862915393e-03
1.630621312590e-03
1.904403431918e-03
1.978503866699e-03
2.215256382710e-03
2.237857692827e-03
2.521729557575e-03
2.586604075054e-03
2.833800295395e-03
2.849139881866e-03

SCALARS node_materi_plasti_phimob float
LOOKUP_TABLE default
1.826413255940e+01
1.566382840520e+01
2.054129498640e+01
2.013456607866e+01
-3.166957867633e+01
-6.653737323881e+00
3.482898498622e+00
9.358011308997e+00
1.277808553550e+01
1.487244897265e+01
1.637638735232e+01
1.750124310232e+01
1.832675811182e+01
1.899198967747e+01
1.953297960255e+01
1.984149151396e+01
2.003443050399e+01
2.025770655853e+01
2.040282966282e+01
2.049446138659e+01
2.055643171244e+01
2.058698696396e+01
2.057943629487e+01
2.014543537531e+01
2.014157688526e+01
2.014390690679e+01
2.014628619307e+01
2.013903663963e+01
2.014409733338e+01
2.014052489114e+01
2.014703978841e+01
2.015309887020e+01
2.015762368943e+01
2.015219517955e+01
2.016240902922e+01
2.016358492977e+01
2.017378831055e+01
2.017093851645e+01
2.017872507345e+01
2.018552658411e+01
2.019482423318e+01
2.021676512675e+01
2.023629374457e+01
2.025172597536e+01
2.026251900362e+01
2.028357458535e+01
2.030184764538e+01
2.032298232944e+01
2.034089881126e+01
2.038447159148e+01
2.038757448076e+01
2.042833168509e+01
2.044088063197e+01
2.047689799400e+01
2.047808896525e+01
2.048881378752e+01
2.050386988192e+01
2.051149938812e+01
2.052972503088e+01
2.052387067979e+01
2.053974219085e+01
2.053045443916e+01
2.054749358376e+01
2.054577507491e+01
2.053460516411e+01
2.052955362545e+01
2.055620209073e+01
2.052853561679e+01
2.054688489739e+01
2.054028424326e+01
2.053980260565e+01
2.054535599961e+01
1.654452922289e+01
1.728170084160e+01
1.786771519661e+01
1.835177962159e+01
1.877698608320e+01
1.913317612278e+01
1.945456077721e+01
1.973500216040e+01
1.998753849360e+01
-5.035603308887e+01
1.546530855771e+01
-3.117854583619e+01
-3.809463386772e+01
-3.111289648583e+01
-8.303802753534e+00
1.873589292657e+00
7.202950810971e+00
1.043833357681e+01
1.262245268658e+01
1.419958422386e+01
1.791833955955e+01
-3.342274411077e+01
-8.455900729328e+00
2.022593558344e+00
7.473739989681e+00
1.072459770921e+01
1.290422777624e+01
1.443276655496e+01
1.549979543190e+01
1.554706654472e+01
1.555272381023e+01
1.553325005144e+01
1.564577813039e+01
1.552697928926e+01
1.549521873039e+01
1.549600783772e+01
1.551106939535e+01
1.549381044858e+01
1.546439223943e+01
1.544595789083e+01
1.542506596874e+01
1.542624817022e+01
-5.359826612746e+01
-5.203365658168e+01
-5.216433296159e+01
-5.428374742744e+01
-5.627222775263e+01
-5.764792623746e+01
-5.909106683701e+01
-6.000386979092e+01
-6.022496395875e+01
-6.025343219918e+01
-5.989425915462e+01
-5.806271884858e+01
-5.900352501761e+01
-6.140617904775e+01
-6.093596585323e+01
-6.003470872516e+01
-5.991703646355e+01
-9.608914362382e+00
4.024636519661e+01
4.016730865625e+01
1.873348389514e+01
4.079031486649e+01
4.062983237769e+01
4.121690709752e+01
-6.447868677970e+00
-5.471827446811e+01
-5.485911647931e+01
-5.496277545834e+01
-5.508601898575e+01
-5.518158506093e+01
-5.527156870571e+01
-5.533464154380e+01
-5.536514265090e+01
-5.538172628324e+01
-5.539608137378e+01
-5.540865726861e+01
-5.542025564043e+01
-5.543112616453e+01
-5.544167439533e+01
-5.545267893283e+01
-5.546541025626e+01
-5.548159062569e+01
-5.549928633137e+01
-5.533641928139e+01
-1.618307339512e+01
-1.406784031733e+01
-1.218147575145e+01
-1.098874277484e+01
-1.087628098619e+01
-3.498529049790e+01
-3.515850614119e+01
-3.527446667127e+01
-3.543534047158e+01
-3.555530047478e+01
-3.564452920749e+01
-3.571647464190e+01
-3.577420074206e+01
-3.581954588269e+01
-3.585902991782e+01
-3.589323378043e+01
-3.592335218203e+01
-3.594986729157e+01
-3.597321178644e+01
-3.599381723092e+01
-3.601193123917e+01
-3.602699256663e+01
-3.603649296408e+01
-3.602002753364e+01
-3.548225401714e+01
-3.339331579105e+01
-9.189440282982e+00
-9.263154123790e+00
-9.227513962472e+00
-9.203571280505e+00
-9.181064702472e+00
-9.159473899844e+00
-9.138256097164e+00
-9.116501334559e+00
-9.093192048146e+00
-9.067815528782e+00
-9.040165113308e+00
-9.010310327037e+00
-8.977054984895e+00
-8.940220409081e+00
-8.900096173027e+00
-8.861978894496e+00
-8.816707099781e+00
-8.764929268884e+00
-8.705908600861e+00
-8.693094096202e+00
-8.617416106110e+00
-7.835824407620e+00
-9.963174894902e+00
1.084175834727e+00
2.219898040134e+00
1.885648127128e+00
1.865393450552e+00
1.880473911953e+00
1.870288784441e+00
1.865885176955e+00
1.852925425784e+00
1.842670688842e+00
1.833954899150e+00
1.826694185870e+00
1.818223028483e+00
1.809615379128e+00
1.801465689413e+00
1.793405804132e+00
1.784623926826e+00
1.774562706520e+00
1.763979327742e+00
1.754432566795e+00
1.754098436007e+00
1.836194518486e+00
2.080051096223e+00
7.353647512437e+00
7.339445725911e+00
7.338257564410e+00
7.339185494711e+00
7.341581572531e+00
7.344114887725e+00
7.345422800798e+00
7.344010165618e+00
7.341291427725e+00
7.338938598344e+00
7.335915341417e+00
7.330223568800e+00
7.320706024229e+00
7.314352877464e+00
7.309848882275e+00
7.309597263754e+00
7.293108004972e+00
7.283680353258e+00
7.465369200154e+00
6.744446319471e+00
1.013141085011e+01
1.063524338519e+01
1.054255786296e+01
1.054660584026e+01
1.055627359741e+01
1.056721542770e+01
1.058750811642e+01
1.060226407744e+01
1.061322669322e+01
1.062068975496e+01
1.062982799031e+01
1.063995515199e+01
1.064455697420e+01
1.064721168593e+01
1.064988570007e+01
1.065275344843e+01
1.065794915703e+01
1.068328114420e+01
1.074223485555e+01
1.287464807945e+01
1.285988621856e+01
1.285350504048e+01
1.285075920736e+01
1.284287143562e+01
1.283813276403e+01
1.283222064627e+01
1.282219115923e+01
1.280535545521e+01
1.279776504712e+01
1.278657351010e+01
1.276861699764e+01
1.275207625278e+01
1.272508661459e+01
1.271727449810e+01
1.279087534821e+01
1.241919560707e+01
1.404663695550e+01
1.433364914997e+01
1.429281045682e+01
1.430216154798e+01
1.432320081891e+01
1.434233397393e+01
1.435113042122e+01
1.436446606932e+01
1.437598320851e+01
1.438739713927e+01
1.439478350164e+01
1.440179878074e+01
1.441368698603e+01
1.441354728026e+01
1.443659500459e+01
1.447596031054e+01
-3.908141055634e+01
-2.908495717212e+01
-1.614080951360e+01
-1.449205337559e+01
-1.211701189819e+00
5.421558418456e+00
9.289054746189e+00
1.181250271055e+01
1.359479763991e+01
1.493380885974e+01
-1.708710493912e+01
2.050326215087e+01
-4.073750297489e+01
-4.025397716337e+01
2.058219307816e+01
-1.653349418336e+00
1.929238094568e+01
2.037012068010e+01
8.728806030032e+00
2.021281882417e+01
1.337001004809e+01
2.056660220364e+01
-4.158980325894e+01
2.012833309207e+01
1.584908798932e+01
1.574912494232e+01
2.014360613270e+01
2.006739536057e+01
2.005315021828e+01
2.004291720502e+01
2.001705111449e+01
2.005190116223e+01
1.627287403832e+01
1.634215170278e+01
1.642960270850e+01
1.857154070682e+01
2.057452737778e+01
-4.046482041434e+01
-3.975554220378e+01
2.052720297195e+01
1.637812468598e+01
6.815584092154e+00
2.002050859242e+01
2.030088953921e+01
2.016880331800e+01
2.044674387769e+01
2.055457141253e+01
-3.981382045968e+01
1.628020576435e+01
2.059585988555e+01
1.929962267191e+01
-4.001766779181e+01
1.796156021159e+01
2.007855066017e+01
5.178391601142e+00
-1.253873153426e+01
1.146649187912e+01
1.475207085173e+01
-2.767342913199e+01
1.762510550148e+01
2.058011308539e+01
-1.562292519972e+01
1.984944896143e+01
1.625924382419e+01
1.658600268213e+01
1.693368732173e+01
1.725935138699e+01
1.757721837505e+01
1.781965592431e+01
1.752126862940e+01
1.804500187912e+01
1.777014638157e+01
1.809165250054e+01
1.826259669322e+01
1.800868170959e+01
1.847145237350e+01
1.823981713599e+01
1.773989053442e+01
1.799655452301e+01
1.745137359697e+01
1.773901662565e+01
1.824442349437e+01
1.801554532539e+01
1.746699953903e+01
1.777694174818e+01
1.718049053686e+01
1.753022796294e+01
1.687868296604e+01
1.727632289494e+01
1.786215629539e+01
1.764919879135e+01
1.701714809865e+01
1.743566585238e+01
1.675574900199e+01
1.722196295377e+01
1.781811295934e+01
1.765079583249e+01
1.701604167282e+01
1.760116151411e+01
1.695067359621e+01
1.767488834503e+01
1.703953856460e+01
1.777344653314e+01
1.827603671976e+01
1.836535245588e+01
1.787228551413e+01
1.843170618198e+01
1.883903871247e+01
1.887327137048e+01
1.921814278272e+01
1.922434602380e+01
1.885130312669e+01
1.917343752926e+01
1.950377242831e+01
1.943087940634e+01
1.904472592172e+01
1.928787363363e+01
1.964010576378e+01
1.948782891180e+01
1.906013154983e+01
1.926468911434e+01
1.965684718921e+01
1.943933199117e+01
1.895728816046e+01
1.915062258316e+01
1.959211532506e+01
1.932141479775e+01
1.972454077897e+01
1.877921012443e+01
1.898388052110e+01
1.831812450529e+01
1.857227840579e+01
1.817456215097e+01
1.776117807122e+01
1.741578408866e+01
1.808260711589e+01
1.880653896175e+01
1.710254971430e+01
1.750584894253e+01
1.632804844066e+01
1.612800593274e+01
1.848345804282e+01
1.683366251374e+01
1.541506521367e+01
1.467163228112e+01
1.337001461201e+01
1.786980750649e+01
1.835609539844e+01
1.814030328176e+01
1.860034811867e+01
1.841079063396e+01
1.430620015504e+01
1.869396972286e+01
1.877766745907e+01
1.681513109937e+01
1.624163142062e+01
1.917522267840e+01
1.786137412515e+01
1.727674234369e+01
1.819439295831e+01
1.992106843117e+01
2.002383249410e+01
2.016442935282e+01
2.024340756809e+01
2.034174839471e+01
2.040138380371e+01
2.030860744475e+01
2.044859475826e+01
2.036236837321e+01
2.046723013543e+01
2.041126654842e+01
2.048442224013e+01
2.040600133455e+01
2.050976121460e+01
2.044052235521e+01
2.030638297110e+01
2.035319242535e+01
2.018618968189e+01
1.950158562562e+01
1.945856839317e+01
1.973804242746e+01
1.969936655259e+01
1.993623086512e+01
1.990500640566e+01
2.010257306078e+01
2.012573847492e+01
1.867373335013e+01
1.792979507279e+01
1.726419575094e+01
1.729345423696e+01
1.649444645494e+01
1.644913865678e+01
1.547386441199e+01
1.524738587571e+01
1.614559487729e+01
1.457220187279e+01
1.547009808210e+01
1.330014394722e+01
1.432994349226e+01
1.817435235639e+01
1.965839242735e+01
1.987316593981e+01
1.961991794532e+01
1.225647910245e+01
2.046737273560e+01
2.051054557849e+01
2.045483520171e+01
2.025925908868e+01
1.179681597123e+01
1.401750223363e+01
1.411603836004e+01
1.882630030644e+01
1.865121087224e+01
2.053342345300e+01
1.297493835673e+01
2.054327395321e+01
1.194817455757e+01
2.039141891776e+01
2.049069789980e+01
2.018692716083e+01
1.984638222279e+01
1.959222674870e+01
1.618184033317e+01
1.519321085941e+01
1.274526219237e+01
1.383829954209e+01
1.591293703473e+01
1.467491594441e+01
1.190205759269e+01
1.309040943648e+01
1.542197080574e+01
1.408397801995e+01
1.098703511354e+01
1.238535267850e+01
2.054186815788e+01
9.493270999408e+00
1.715457652626e+01
2.057301251217e+01
2.023840881289e+01
1.903638623820e+01
1.887588274035e+01
1.846652159152e+01
1.870904683112e+01
1.908714638884e+01
1.893178441433e+01
1.853186384649e+01
1.876526567421e+01
1.833856490950e+01
1.858791385458e+01
1.898034010423e+01
1.881772536759e+01
1.840177495697e+01
1.864454143153e+01
1.820048549172e+01
1.845400261232e+01
1.886680129397e+01
9.862790259747e+00
2.027658105172e+01
2.038423316166e+01
1.772931709179e+01
1.848395296853e+01
1.887806595252e+01
1.907898832165e+01
1.868849725879e+01
1.907602279001e+01
1.223960150880e+01
1.217621242992e+01
1.919023557710e+01
2.042876234501e+01
2.030093755481e+01
1.591175551433e+01
1.526384385416e+01
1.482709767917e+01
1.396347427736e+01
1.455688219666e+01
1.334045114122e+01
2.033683721708e+01
1.918083284113e+01
1.380553604545e+01
1.088375761700e+01
2.051955438830e+01
2.014269262523e+01
1.835408686160e+01
1.861937846842e+01
1.877558320353e+01
1.900261326787e+01
1.914155081279e+01
1.933688969128e+01
1.921594264335e+01
1.982784962713e+01
1.952124459865e+01
1.823558189072e+01
1.935733607583e+01
1.606718502168e+01
8.001367471972e+00
8.274591184281e+00
1.129448472608e+01
1.396194912438e+01
2.057991725243e+01
1.946249433797e+01
1.927979488208e+01
1.305637414376e+01
1.380607194597e+01
2.003000839158e+01
1.792348622730e+01
1.806820470639e+01
1.784047270222e+01
6.523981561861e+00
6.058091896514e+00
1.928209204850e+01
1.394944879892e+01
1.194816985505e+01
7.130711192525e+00
2.399406510806e+00
1.889697193972e+01
1.925203667631e+01
1.936564250165e+01
1.953529467724e+01
2.053892488181e+01
1.025649555813e+01
1.940419134528e+01
2.028622004951e+01
2.014241787567e+01
1.869668224980e+01
9.601298979534e+00
9.282820223239e+00
1.697118337264e+01
1.352172262516e+01
1.256061764028e+01
2.057662949753e+01
1.941708401472e+01
1.941398462605e+01
1.909754696770e+01
1.968748936601e+01
4.800235200961e+00
2.061181239284e+01
2.047246946785e+01
1.958123783461e+01
1.941859458770e+01
1.374928737144e+01
1.210511997015e+01
9.564395649201e+00
1.037260512202e+01
1.720001945585e+01
1.387991520313e+01
1.680776379385e+01
1.645878644786e+01
1.603911552127e+01
1.508448923780e+01
1.446005885390e+01
1.639171912885e+01
1.911455750431e+01
1.920846521001e+01
2.011451297418e+01
2.006823476460e+01
1.932284290347e+01
1.950198712639e+01
1.791590433485e+01
1.766522240858e+01
8.467183475406e+00
6.210599620393e+00
1.984173332797e+01
2.060292325442e+01
1.937415294650e+01
1.951237969601e+01
1.933525670733e+01
2.052954150953e+01
1.789965599707e+01
1.976398767085e+01
5.909307482894e+00
1.831387139773e+01
2.118486922037e+00
1.867917629189e+01
2.053520058496e+01
2.056544537780e+01
2.003162321109e+01
1.618906164527e+01
1.861571724487e+01
1.858384498779e+01
1.562467314465e+01
1.510584528904e+01
1.557484994508e+01
1.451681161334e+01
1.739161513115e+01
1.660209117958e+01
1.976493525267e+01
1.978445974199e+01
1.970806174753e+01
1.955465723516e+01
2.017336069385e+01
2.018894079500e+01
1.479703837911e+01
1.303016786184e+01
1.958416679145e+01
1.608906348416e+01
2.062225863621e+01
2.061701811454e+01
-4.181940773631e+00
3.231852042985e-01
1.956783231844e+01
6.808685749431e+00
8.200240743190e+00
5.621909202694e+00
2.057396630938e+01
1.635928568860e+01
2.055708793098e+01
1.557619181158e+01
1.969766836836e+01
1.896596546835e+01
1.556093457183e+01
2.048146000931e+01
1.940674826813e+01
1.973315418134e+01
1.751660156410e+01
1.723225786560e+01
1.775572395072e+01
1.005355528771e+01
2.795958625096e+00
1.936685972673e+01
1.662133391746e+01
1.725674146203e+01
1.168867940269e+01
1.438319918830e+01
1.962887815039e+01
1.949684736975e+01
1.888853080006e+01
1.906009553316e+01
1.853392435021e+01
2.027420832485e+01
2.011482853918e+01
1.995867630794e+01
1.962515236893e+01
1.981004811856e+01
1.801351814038e+01
1.767108914819e+01
1.774241653139e+01
1.970840810664e+01
2.058574353041e+01
2.059535915198e+01
-1.999825276629e+00
3.164255239995e+00
5.374623079088e+00
3.929336868007e+00
1.963979339544e+01
1.947896798649e+01
1.981615543059e+01
1.341888424813e+01
1.932214212547e+01
2.055459252585e+01
2.052748434903e+01
2.058522309225e+01
1.983299817731e+01
2.006812740450e+01
1.993945307370e+01
-1.103234616942e+01
1.963485564844e+01
1.730185270607e+01
-1.981727911466e+01
1.700584952144e+01
1.739854650927e+01
1.663837710786e+01
1.054520264825e+01
1.704298695200e+01
1.742416235636e+01
-1.138911452423e+01
1.985838958994e+01
-9.136675245788e+00
-3.260130989606e+00
2.060768874251e+01
2.061527331437e+01
2.061585869724e+01
2.061578271115e+01
2.060026276527e+01
2.060200081629e+01
1.691373139287e+01
2.059371390932e+01
2.059045827287e+01
2.061144277898e+01
1.396020735148e+01
1.125609236208e+01
9.597161856397e+00
5.513422605914e+00
1.987425330412e+01
1.968388399793e+01
2.050118445563e+01
2.040978497888e+01
1.706917683283e+01
1.704017130012e+01
1.761743070787e+01
1.754984546992e+01
1.805217048917e+01
1.797633239570e+01
1.842316416857e+01
2.002948414096e+01
6.364154124650e-01
1.519215457079e+01
2.031247304186e+01
2.032880522539e+01
1.381086884140e+01
1.225311005782e+01
2.062117777858e+01
1.508346015602e+01
2.000974160680e+01
-4.110166211318e+01
-1.474989695684e+01
1.519327433761e+01
1.505163531297e+01
1.214625431226e+01
1.103792478694e+01
2.039638010947e+01
-5.068679155805e-01
5.460573955524e+00
1.846458648315e+01
-1.582067373289e+00
2.045195787718e+01
1.624514972375e+01
1.608109083758e+01
9.395863072206e+00
1.271745276161e+01
1.747474920190e+01
1.691407577784e+01
1.652608637312e+01
1.715793576119e+01
1.210370601431e+01
9.444652283679e+00
1.714330973415e+01
1.914883071655e+01
1.930230465394e+01
1.960684288232e+01
1.944853974910e+01
1.911466464605e+01
1.927031444279e+01
1.959133252120e+01
1.942823137843e+01
1.978267974832e+01
1.957975931597e+01
1.924921938056e+01
1.940723375982e+01
1.969652111964e+01
1.905998263644e+01
2.031830163028e+01
1.621806105846e+01
-2.640425690305e+00
-5.029514885610e+00
1.646203817483e+01
2.005958359961e+01
2.004930148047e+01
1.541751408065e+01
2.014150058599e+01
1.684542251178e+01
1.337570789417e+01
2.018845738139e+01
1.894795823158e+01
1.873168307183e+01
1.854656762196e+01
2.005106901357e+01
1.799486160295e+01
2.033319334476e+01
1.940758217938e+01
1.905154623102e+01
1.869555136152e+01
1.908051567584e+01
2.048996167625e+01
2.047373068087e+01
2.050103567769e+01
2.046073540999e+01
2.053107115138e+01
2.010278401237e+01
2.012608924278e+01
1.647912792956e+01
1.727208884138e+01
1.818295566837e+01
1.781921127869e+01
1.678095775972e+01
1.737406616049e+01
1.817492689405e+01
1.682846121544e+01
1.939324021143e+01
2.056609178643e+01
2.026693123005e+01
2.017211074364e+01
1.995129054319e+01
1.902033204620e+01
1.934425725783e+01
1.974160934774e+01
1.864303849682e+01
1.886725986850e+01
2.057120144526e+01
1.997415519169e+01
1.917216752327e+01
1.628202728017e+01
1.693531368599e+01
1.693175969683e+01
1.752656134582e+01
1.700663245770e+01
1.975759502878e+01
1.987479009552e+01
1.967986132749e+01
1.997266798397e+01
1.978814228690e+01
1.945373577876e+01
2.004830795958e+01
1.988436461516e+01
1.629948425071e+01
-3.939997370173e+01
-1.328470075161e+01
-1.374493138274e+01
-1.149427004841e+00
-2.721948003403e-01
6.793390397796e+00
6.309072925354e+00
-1.346387759624e+01
-4.040536532189e+01
-1.380769073707e+01
-4.071857124865e+01
-1.418577373559e+01
-1.217305602131e-01
9.290390428451e+00
2.058729198448e+01
1.868826419643e+01
1.840235198729e+01
1.756626911511e+01
1.805612981995e+01
1.896545916983e+01
1.701836338881e+01
1.660668794862e+01
-3.976057006232e+01
-1.269005961678e+01
-1.454458184061e+01
-1.670943418044e-01
-3.958241972730e-01
-1.258488922810e+01
-1.267416915134e+01
-4.012272252699e+01
-1.302042438397e+01
-1.293213215238e-01
-4.125950214524e+01
1.896453522901e+01
1.916053270846e+01
2.059140269578e+01
1.641727603056e+01
-4.028747124412e+01
2.000249603211e+01
2.003667183717e+01
2.003947654085e+01
2.056948393035e+01
2.056979900780e+01
2.001314891441e+01
1.574367635845e+01
1.973061516301e+01
1.953936525931e+01
1.171018040935e+01
1.561870862241e+01
2.035423573182e+01
2.025131214853e+01
2.056024278270e+01
2.024941672666e+01
2.052766479751e+01
2.054857924307e+01
9.228724797917e+00
1.813154808165e+01
1.797393292681e+01
1.902924455167e+01
1.606380184230e+01
1.929030610549e+01
1.036886836207e+01
1.997680608294e+01
1.643414773842e+01
1.979999236615e+01
1.837387990113e+01
1.664815812895e+01
1.493559700513e+01
1.648884486221e+01
1.947634788060e+01
2.051098382145e+01
1.922623118310e+01
-3.596911005991e+01
2.055084753497e+01
2.011163543322e+01
1.827678871834e+01
2.007911700711e+01
9.442818913746e+00
1.913551204934e+01
1.966800475767e+01
1.768382814990e+01
5.389965046405e+00
1.759397341886e+01
2.059709209501e+01
1.899129169036e+01
1.510192205489e+01
1.952188014067e+01
1.656451690500e+01
1.531259770476e+01
1.966231917513e+01
1.813444108216e+01
2.036910765409e+01
1.996274122509e+01
1.580035211143e+01
2.059978239050e+01
1.877231012064e+01
1.946048472499e+01
1.893228210973e+01
1.844542826965e+01
1.923265031914e+01
1.981032009780e+01
2.005451412392e+01
1.602704159106e+01
1.807286801516e+01
1.846275138401e+01
1.799554904534e+01
2.026244474708e+01
2.058251865899e+01
1.135800454974e+01
1.435739789818e+01
1.820620809249e+01
1.962869975026e+01
1.974360694212e+01
1.568329608036e+01
2.056154963260e+01
1.954547702995e+01
1.961628513027e+01
1.148211326504e+01
7.833736584707e+00
1.717332393003e+01
1.819303893469e+01
1.994491893923e+01
1.980090566260e+01
2.056967888503e+01
2.047578355848e+01
-2.007030865597e+01
1.571031598889e+01
2.057557851193e+01
1.976475618771e+01
2.021981747242e+01
1.956003508487e+01
2.000061667993e+01
1.317115350026e+01
2.059251586172e+01
2.039776020942e+01
1.524536115396e+01
1.638034018759e+01
2.060026078380e+01
2.047793391880e+01
1.846532592955e+01
1.972708184242e+01
1.409306812416e+01
2.003502263533e+01
1.828030889086e+01
2.005310589228e+01
2.046563927289e+01
1.829895172424e+01
1.985054362321e+01
1.931669799173e+01
-4.612122457788e-01
1.461588325158e+01
1.995156943222e+01
1.773193350505e+01
1.990820765229e+01
2.020471075396e+01
2.004372281744e+01
1.837193078341e+01
2.012451258588e+01
1.248023720258e+01
1.850253337904e+01
2.018766125049e+01
1.871229912959e+01
4.840043010176e-01
1.873410736178e+01
2.054814159456e+01
1.804535259303e+01
2.005446022537e+01
1.891128205995e+01
1.021514443981e+01
2.023887474984e+01
1.908874204678e+01
1.899261689666e+01
1.862871540655e+01
2.037723787062e+01
1.120476791863e+01
1.508989513663e+01
1.282602301975e+01
1.874573124955e+01
1.924395055424e+01
6.230129267588e+00
1.888059080224e+01
7.257690588349e+00
1.853041374862e+01
1.958239261310e+01
1.814236668952e+01
1.882056537380e+01
1.403190764132e+01
1.848268506322e+01
1.899833510097e+01
1.873917310430e+01
1.830402524447e+01
1.981556853348e+01
1.855508440742e+01
2.004300627050e+01
2.057444490348e+01
1.697390354150e+01
6.691213241732e+00
-3.718982670726e+01
8.474767294601e+00
1.704039846650e+01
1.886927104409e+01
1.699656455641e+01
1.616571647785e+01
1.986359997747e+01
2.026175169646e+01
1.877699265072e+01
2.034748944617e+01
1.929820302125e+01
1.958075608212e+01
1.629707319715e+01
-1.406949181087e+01
2.033466326107e+01
8.772670203989e-01
3.169115501108e+00
-1.335912567545e+00
1.634090522402e+01
-1.411945953732e+00
-6.579587361904e+00
2.042607928485e+01
1.693672827681e+01
1.960557938023e+01
-1.759766457208e+01
1.982070692130e+01
2.013727447788e+01
2.059407929806e+01
1.987218972155e+01
-3.056302260949e+00
1.742816176556e+01
1.995286259875e+01
1.906339873281e+01
2.056679785924e+01
1.681790356192e+01
1.985081774239e+01
8.769370624886e+00
1.985521399916e+01
1.923246703067e+01
1.774441936840e+01
1.737950286767e+01
2.056751274754e+01
1.984838668136e+01
-7.582057351673e+00
1.874596818728e+01
1.811583811650e+01
-1.673062258478e+01
2.062069046691e+01
1.954413360022e+01
2.060054895248e+01
-3.861017964746e-01
-1.543789176435e+01
2.061012531670e+01
1.992528886377e+01
1.067712980700e+01
2.008394937291e+01
-2.062132491764e+01
1.617836852300e+01
-1.475813730193e+01
2.056360281309e+01
1.985877186915e+01
1.868602368255e+01
1.627778774221e+01
1.531347734040e+01
1.985258058250e+01
-3.068319408276e+00
1.988798351194e+01
2.058327735939e+01
1.987941909158e+01
2.044876643316e+01
-1.821588610720e+01
2.014502463180e+01
2.051832361724e+01
1.630719754084e+01
1.984467579997e+01
1.724177807399e+01
5.838567213299e+00
2.006662298068e+01
-1.476863386575e+01
1.628300131981e+01
2.056687619732e+01
4.923243234184e+00
1.745158153212e+01
1.991864382061e+01
1.968056623945e+01
1.940856619305e+01
4.580190242770e+00
-4.156515800533e+01
1.838757354799e+01
2.024659251056e+01
1.989387567652e+01
1.804437577350e+01
2.011375700085e+00
1.976906463952e+01
1.905686907003e+01
1.980865494519e+01
2.042820488403e+01
-3.945178163236e+01
1.995349890961e+01
-1.632735196966e+01
2.061353755689e+01
1.930096012367e+01
2.154624316644e+01
-1.331240775333e+01
-1.817348291179e+01
-1.749939010939e+01
-2.562607656182e+00
-1.557490511560e+00
4.714295090670e+00
5.156233815902e+00
8.853797783767e+00
9.450846342074e+00
1.152602308695e+01
1.190381921750e+01
1.338798217683e+01
1.380714518677e+01
1.477659544343e+01
1.506682298038e+01

SCALARS node_materi_stress_average_a_sig float
LOOKUP_TABLE default
-5.362258913169e+00
-9.806408571245e+01
-2.360783597720e+02
-2.133460995562e+02
-1.263448364796e+01
-2.419436822869e+01
-3.514761750828e+01
-4.766692293151e+01
-5.964755308489e+01
-7.158394978409e+01
-8.348459457008e+01
-9.536996646735e+01
-1.073042786617e+02
-1.193397818298e+02
-1.316844045458e+02
-1.438450293689e+02
-1.549823581541e+02
-1.671347411169e+02
-1.796958337226e+02
-1.919317512362e+02
-2.042896714433e+02
-2.167908523875e+02
-2.288024433813e+02
-2.140303999066e+02
-2.133405720385e+02
-2.135198350583e+02
-2.135045917929e+02
-2.131514256005e+02
-2.135956408593e+02
-2.138495541424e+02
-2.136408553147e+02
-2.142098864416e+02
-2.142614731998e+02
-2.140235566310e+02
-2.145306919764e+02
-2.150722049465e+02
-2.150045787180e+02
-2.151878800499e+02
-2.150240590847e+02
-2.153316213575e+02
-2.163305103324e+02
-2.170628449600e+02
-2.178616846887e+02
-2.184443839976e+02
-2.191275702214e+02
-2.198611247371e+02
-2.206734583068e+02
-2.217083795617e+02
-2.228530920502e+02
-2.238229556932e+02
-2.249632692876e+02
-2.257872343194e+02
-2.272414533542e+02
-2.280376652829e+02
-2.284053760826e+02
-2.293567388950e+02
-2.304049229717e+02
-2.313067792307e+02
-2.320530442878e+02
-2.328572690222e+02
-2.332490734891e+02
-2.336722981223e+02
-2.338466365571e+02
-2.344973228664e+02
-2.354806484669e+02
-2.359705041529e+02
-2.345717148493e+02
-2.361878902213e+02
-2.357550600675e+02
-2.362194324383e+02
-2.367295354532e+02
-2.367001816693e+02
-1.104323871142e+02
-1.225258622511e+02
-1.345783911305e+02
-1.463557319184e+02
-1.583687902177e+02
-1.705026068823e+02
-1.823752369907e+02
-1.941629541087e+02
-2.062924519170e+02
-6.940412186982e+00
-9.948279363273e+01
-9.509533133344e+00
-8.725501775487e+00
-1.330173165529e+01
-2.547258703549e+01
-3.801337927557e+01
-5.051758330351e+01
-6.268243929828e+01
-7.480303236212e+01
-8.687915112934e+01
-5.675036526923e+00
-1.297209383301e+01
-2.502837797111e+01
-3.714733122455e+01
-4.927991760311e+01
-6.142247577364e+01
-7.355365516068e+01
-8.562983091417e+01
-9.655172810825e+01
-9.734521937928e+01
-9.735835645801e+01
-9.725143036991e+01
-9.896057451366e+01
-9.752662417132e+01
-9.751108772479e+01
-9.766120146719e+01
-9.795029020833e+01
-9.796872989467e+01
-9.807132785254e+01
-9.812664817477e+01
-9.834774556542e+01
-9.870234790557e+01
-7.204615624586e+00
-7.996107087704e+00
-7.773334036680e+00
-7.455594926396e+00
-7.542919987168e+00
-7.441809300564e+00
-7.120137670002e+00
-6.800782668624e+00
-6.527777551657e+00
-6.311622890221e+00
-6.138247698266e+00
-6.307661489239e+00
-5.913442754201e+00
-5.296230897842e+00
-5.198989683307e+00
-5.213483839956e+00
-5.127956251420e+00
-4.859923940512e+00
-4.548481680052e+00
-2.708167677954e+00
-4.577767919363e+00
-4.644845824021e+00
-4.388909719762e+00
-4.450910131633e+00
-4.527432537667e+00
-4.691993019983e+00
-4.862721457693e+00
-5.051980293889e+00
-5.237639262919e+00
-5.419609253807e+00
-5.591270874605e+00
-5.751271969950e+00
-5.897471664023e+00
-6.029470480355e+00
-6.147310675206e+00
-6.251596855710e+00
-6.342957417366e+00
-6.421966592435e+00
-6.488885361278e+00
-6.543434848461e+00
-6.584416814490e+00
-6.609233751289e+00
-6.614501135305e+00
-6.646752741694e+00
-6.631755047380e+00
-1.084565741148e+01
-1.268863046229e+01
-1.171622609951e+01
-1.150827608193e+01
-1.151180578572e+01
-1.152177901194e+01
-1.160021483986e+01
-1.168765856151e+01
-1.179476715447e+01
-1.190372418105e+01
-1.201448546763e+01
-1.212080564812e+01
-1.222134407249e+01
-1.231423409694e+01
-1.239899714079e+01
-1.247513625752e+01
-1.254252591314e+01
-1.260116712764e+01
-1.265102985261e+01
-1.269202839975e+01
-1.272406563571e+01
-1.274748691045e+01
-1.276374695211e+01
-1.278847902891e+01
-1.292754483769e+01
-2.500526343597e+01
-2.495169039085e+01
-2.493042512977e+01
-2.491467560120e+01
-2.489635569924e+01
-2.487331562196e+01
-2.484496156104e+01
-2.481154325141e+01
-2.477332863394e+01
-2.473074484009e+01
-2.468455651992e+01
-2.463605459246e+01
-2.458761629623e+01
-2.454048710872e+01
-2.449885240498e+01
-2.446398348938e+01
-2.444999756218e+01
-2.444969639814e+01
-2.450631158541e+01
-2.456756448223e+01
-2.480293536776e+01
-2.575046744977e+01
-2.389862605429e+01
-3.656371951010e+01
-3.843991058649e+01
-3.752686221493e+01
-3.726699122870e+01
-3.717892220366e+01
-3.707297168273e+01
-3.703068173371e+01
-3.699583357142e+01
-3.698476273315e+01
-3.698204305550e+01
-3.698950368481e+01
-3.700155233934e+01
-3.701630391448e+01
-3.703170643038e+01
-3.704634769366e+01
-3.705976460235e+01
-3.707139817621e+01
-3.708137691995e+01
-3.709142863691e+01
-3.710497329220e+01
-3.712702589953e+01
-3.714279988585e+01
-4.927481697837e+01
-4.926449875342e+01
-4.926002981757e+01
-4.925907998252e+01
-4.926097528886e+01
-4.926378918019e+01
-4.926660868368e+01
-4.926995116913e+01
-4.927708439584e+01
-4.928706110612e+01
-4.930333405746e+01
-4.932815898631e+01
-4.936239735509e+01
-4.942170504734e+01
-4.949239181806e+01
-4.961135766087e+01
-4.971678835307e+01
-4.996980794934e+01
-5.086725717890e+01
-4.900698668496e+01
-6.124874662706e+01
-6.312974513364e+01
-6.228180695523e+01
-6.201528366706e+01
-6.190860956674e+01
-6.177436050621e+01
-6.170360240041e+01
-6.164066840318e+01
-6.158768902855e+01
-6.154829743418e+01
-6.152009467208e+01
-6.149512807241e+01
-6.147639206550e+01
-6.145675933293e+01
-6.144261015841e+01
-6.142994336876e+01
-6.142593994088e+01
-6.142420282109e+01
-6.142541821044e+01
-7.356151723727e+01
-7.356358451262e+01
-7.357238382326e+01
-7.359323520253e+01
-7.362156271604e+01
-7.364910587173e+01
-7.369093669285e+01
-7.372132493507e+01
-7.375792014059e+01
-7.381808310362e+01
-7.389210375254e+01
-7.397740362055e+01
-7.407604888075e+01
-7.416221312547e+01
-7.441688208614e+01
-7.530553655938e+01
-7.344056053444e+01
-8.548992094327e+01
-8.726942813006e+01
-8.648147378126e+01
-8.634320571680e+01
-8.623447446735e+01
-8.614247915358e+01
-8.602198379955e+01
-8.594842241857e+01
-8.596458831862e+01
-8.587287156526e+01
-8.582571516444e+01
-8.578862183209e+01
-8.575734012441e+01
-8.570276286040e+01
-8.574908587213e+01
-8.573945911767e+01
-8.102732144286e+00
-9.999889424056e+00
-9.056010160184e+00
-2.107656050541e+01
-3.333197548893e+01
-4.574208105350e+01
-5.791138061887e+01
-7.006408524753e+01
-8.213803460066e+01
-9.425398142002e+01
-1.513658576523e+01
-2.246649988021e+02
-1.138995311365e+01
-1.191355259302e+01
-2.281433881429e+02
-3.289324246362e+01
-1.259600934894e+02
-2.205500029371e+02
-5.574786088344e+01
-2.172582635030e+02
-8.028757283331e+01
-2.307549376056e+02
-1.038927971770e+01
-2.139398366637e+02
-1.045755133458e+02
-7.809802095894e+01
-1.591098464621e+02
-2.116294977429e+02
-2.103459089904e+02
-2.086707930937e+02
-2.079821380518e+02
-2.097751712959e+02
-1.096757843468e+02
-1.090914001347e+02
-1.096782545876e+02
-1.524699397184e+02
-2.306807618595e+02
-1.145304877088e+01
-1.058977845105e+01
-1.976605019350e+02
-1.080405157744e+02
-4.134740381669e+01
-2.089319935975e+02
-2.197060402007e+02
-2.154537911002e+02
-2.218306294166e+02
-2.265888052709e+02
-1.217247263501e+01
-1.089438664677e+02
-2.272440460620e+02
-1.760991357137e+02
-1.121696905632e+01
-1.013879535943e+02
-2.102872136235e+02
-4.524849196213e+01
-2.182511306153e+01
-6.802806547607e+01
-9.231572745747e+01
-1.170294509371e+01
-1.295683759591e+02
-2.329407063518e+02
-1.001819781300e+01
-1.995475820274e+02
-1.102743880588e+02
-1.154481058158e+02
-1.210388117113e+02
-1.270454754338e+02
-1.331871641580e+02
-1.386204569996e+02
-1.325648912904e+02
-1.441678456044e+02
-1.380463190995e+02
-1.449418447024e+02
-1.497056338915e+02
-1.435771767391e+02
-1.552567778858e+02
-1.491548161624e+02
-1.375253849488e+02
-1.431178928879e+02
-1.314922599967e+02
-1.371186821368e+02
-1.487601102229e+02
-1.427891103593e+02
-1.311174164709e+02
-1.368199611220e+02
-1.251497381797e+02
-1.308999363343e+02
-1.191870343605e+02
-1.250055635419e+02
-1.366999571803e+02
-1.308406875645e+02
-1.191469154396e+02
-1.250239279986e+02
-1.133378697090e+02
-1.192383063549e+02
-1.309077864118e+02
-1.251553723539e+02
-1.134585313362e+02
-1.194342471623e+02
-1.077265460865e+02
-1.137748839875e+02
-1.020669631173e+02
-1.081175237493e+02
-1.197463035493e+02
-1.140914871767e+02
-1.024934966574e+02
-1.084166124186e+02
-1.200098751346e+02
-1.142638272043e+02
-1.258663935558e+02
-1.200532147369e+02
-1.085602843167e+02
-1.142554378560e+02
-1.257792087887e+02
-1.198727235533e+02
-1.084485111166e+02
-1.139864512762e+02
-1.254726112862e+02
-1.194926919078e+02
-1.080788659891e+02
-1.135014365522e+02
-1.250417659215e+02
-1.189153342755e+02
-1.074414376055e+02
-1.127509184230e+02
-1.243726896455e+02
-1.180784717098e+02
-1.298259743870e+02
-1.064408657396e+02
-1.117048112624e+02
-1.000222614561e+02
-1.052795364984e+02
-1.368029617551e+02
-9.356902245340e+01
-8.850195090492e+01
-9.881555318185e+01
-1.106266736610e+02
-8.706194560014e+01
-9.230675179953e+01
-8.052329412040e+01
-9.573359619195e+01
-1.544550934981e+02
-8.576184381522e+01
-7.394323196106e+01
-6.875644892383e+01
-6.217274554037e+01
-1.395045620036e+02
-1.512126166138e+02
-1.453933141904e+02
-1.574630511873e+02
-1.518870960327e+02
-6.732563056597e+01
-1.615061236148e+02
-1.630360688596e+02
-1.194619935257e+02
-1.074274153912e+02
-1.316883205326e+02
-9.758203091304e+01
-9.103776979988e+01
-1.028739252909e+02
-1.361470932552e+02
-1.416687084758e+02
-1.480219506042e+02
-1.535876247320e+02
-1.599763792753e+02
-1.655775927467e+02
-1.591277159076e+02
-1.711520516175e+02
-1.646463484135e+02
-1.719992195375e+02
-1.663121277866e+02
-1.766998452047e+02
-1.701439084379e+02
-1.822308767406e+02
-1.756239370938e+02
-1.635403382200e+02
-1.689653055930e+02
-1.569443323583e+02
-1.375570710110e+02
-1.434493679910e+02
-1.493268846833e+02
-1.552745939697e+02
-1.611710168823e+02
-1.671510855857e+02
-1.730515014949e+02
-1.670389298059e+02
-1.607925447399e+02
-9.690699573971e+01
-9.094975818121e+01
-8.549282616574e+01
-7.950030020830e+01
-7.419326407376e+01
-6.816759702451e+01
-6.300885796064e+01
-6.889623075826e+01
-5.784998287292e+01
-6.356699576735e+01
-5.262701011812e+01
-5.811808333774e+01
-1.425220068342e+02
-1.612065597071e+02
-1.731306803130e+02
-1.670781991843e+02
-5.702015396456e+01
-1.810944058531e+02
-1.783835846939e+02
-1.725776478679e+02
-1.789706963548e+02
-5.564116259117e+01
-5.700091929208e+01
-6.192423980359e+01
-1.637605216643e+02
-1.582008774748e+02
-1.847424674916e+02
-6.077526355875e+01
-1.832317790188e+02
-4.705682661309e+01
-1.743883129926e+02
-1.865362575999e+02
-1.526665228410e+02
-1.790937591843e+02
-1.729116756958e+02
-6.921556887451e+01
-6.358196524485e+01
-5.274578774283e+01
-5.830974478696e+01
-6.909944537573e+01
-6.320692902615e+01
-5.226670593707e+01
-5.717888879817e+01
-6.837644440042e+01
-6.222623369698e+01
-5.096446816822e+01
-5.589771473337e+01
-1.932302512235e+02
-4.198423805001e+01
-1.259111247398e+02
-1.905002629429e+02
-1.848661388563e+02
-1.701101781639e+02
-1.645733546381e+02
-1.525946064585e+02
-1.590416173685e+02
-1.710103504040e+02
-1.654981787029e+02
-1.534974927873e+02
-1.599734587646e+02
-1.479502136630e+02
-1.544507312463e+02
-1.664709354056e+02
-1.609828804784e+02
-1.489409859608e+02
-1.554855806634e+02
-1.434117732817e+02
-1.499492409221e+02
-1.620574071306e+02
-4.944160475953e+01
-1.728937028624e+02
-1.849536981992e+02
-9.661246261314e+01
-1.080339842008e+02
-1.147205325820e+02
-1.201495565132e+02
-1.564666897392e+02
-1.686043884662e+02
-5.075066988854e+01
-5.545195025867e+01
-1.756407439648e+02
-1.798256482694e+02
-1.677089324278e+02
-1.016205154775e+02
-9.563507437966e+01
-8.979134981545e+01
-8.353774318161e+01
-8.964945105809e+01
-7.754484866789e+01
-1.604778024471e+02
-1.730056120570e+02
-6.363235704314e+01
-5.199219147123e+01
-1.919812985973e+02
-1.609571067708e+02
-1.483912324296e+02
-1.542251511160e+02
-1.601258519335e+02
-1.659737734678e+02
-1.718893370901e+02
-1.776999752750e+02
-1.718690338535e+02
-1.850144317653e+02
-1.836095384260e+02
-1.442583233662e+02
-1.550963562647e+02
-7.360161426818e+01
-4.410174742722e+01
-4.423096468380e+01
-5.403552182651e+01
-6.589840336630e+01
-1.969244855116e+02
-1.836165265718e+02
-1.777189856299e+02
-7.759992706627e+01
-8.381622068096e+01
-1.911078882414e+02
-1.399942946262e+02
-1.415073625616e+02
-1.358760881231e+02
-4.134328337830e+01
-3.988929706321e+01
-1.774796979160e+02
-6.689758020142e+01
-6.039178145201e+01
-3.647478970722e+01
-3.156153581992e+01
-1.629110698018e+02
-1.749682373581e+02
-1.266900245128e+02
-1.320576796425e+02
-1.911116699209e+02
-4.948883091047e+01
-1.807064783096e+02
-1.667799048593e+02
-1.548525271447e+02
-1.134153380821e+02
-4.419433752873e+01
-3.987094763360e+01
-7.969529094990e+01
-6.100079595575e+01
-5.916730255471e+01
-2.032806075216e+02
-1.829125782617e+02
-1.778274388990e+02
-1.659696274454e+02
-1.897087645881e+02
-3.815623498380e+01
-2.028302932984e+02
-1.852710466059e+02
-1.889510161828e+02
-1.835621311856e+02
-7.201241451619e+01
-6.574225465160e+01
-5.386225229076e+01
-5.939693133952e+01
-1.264272377986e+02
-7.756030387927e+01
-1.198573617167e+02
-1.143055344432e+02
-1.082866955251e+02
-9.563622636475e+01
-8.994503668172e+01
-8.480313565405e+01
-1.374902294448e+02
-1.213309268029e+02
-1.515712366148e+02
-1.424055296366e+02
-1.784023025454e+02
-1.849962195901e+02
-1.368688569441e+02
-1.313243659968e+02
-4.532701159238e+01
-4.034880518331e+01
-1.352882958155e+02
-1.961687814121e+02
-1.818627108428e+02
-1.873786256020e+02
-1.811124480819e+02
-1.972905214695e+02
-9.137090180818e+01
-1.433663902868e+02
-3.677838699862e+01
-1.425584881747e+02
-3.378577971697e+01
-1.603687998165e+02
-1.975052865502e+02
-2.041302938186e+02
-1.968879356835e+02
-1.096702977700e+02
-1.484565369979e+02
-1.427313082976e+02
-1.028082921263e+02
-9.680533286712e+01
-1.022537848476e+02
-9.073840301739e+01
-8.491551909657e+01
-7.870646101846e+01
-1.961820878896e+02
-1.952156005881e+02
-1.949432526404e+02
-1.898386342912e+02
-2.030456002358e+02
-1.970477392057e+02
-7.067219252481e+01
-7.822720507268e+01
-1.894199473623e+02
-1.087944129699e+02
-2.082169398444e+02
-2.018721109371e+02
-2.645122905423e+01
-3.102863010464e+01
-1.871878080831e+02
-4.718886518880e+01
-5.264831441689e+01
-4.191529466820e+01
-2.225965569645e+02
-1.077316933204e+02
-2.097924527304e+02
-1.017285989872e+02
-1.929991472655e+02
-1.544937297622e+02
-9.564453370155e+01
-1.851545688569e+02
-1.807616017363e+02
-1.938822986161e+02
-1.294716113820e+02
-1.234357965269e+02
-1.347403136428e+02
-4.126847848042e+01
-2.983786173224e+01
-1.794922722221e+02
-8.446352108280e+01
-9.086969755491e+01
-5.422784331008e+01
-6.573270151082e+01
-1.332264828924e+02
-1.278641500416e+02
-1.661396222678e+02
-1.720558057939e+02
-1.542844754768e+02
-1.606544564431e+02
-1.487587174140e+02
-1.430813413962e+02
-1.900443116191e+02
-1.979723863750e+02
-9.094740031288e+01
-8.563992824685e+01
-8.996371867493e+01
-1.948166685485e+02
-2.162060634200e+02
-2.106689455340e+02
-2.899639305327e+01
-3.528365114916e+01
-3.322555195457e+01
-2.977614430500e+01
-1.925695765465e+02
-1.867151064565e+02
-1.998818942168e+02
-6.321244369648e+01
-1.720895495551e+02
-2.089533068626e+02
-2.030040883587e+02
-2.165157072719e+02
-1.906399514429e+02
-2.021400112973e+02
-2.013298415564e+02
-2.163033077078e+01
-1.897129244003e+02
-1.241945247399e+02
-1.807969428539e+01
-1.187376440668e+02
-1.256364815919e+02
-1.124709248435e+02
-5.160328484597e+01
-1.208645772832e+02
-1.282660099327e+02
-2.222791723068e+01
-2.010448236944e+02
-2.286592799925e+01
-2.755100099728e+01
-2.140869508349e+02
-2.074603578010e+02
-2.192541539759e+02
-2.125720546288e+02
-2.008348309723e+02
-2.065834706416e+02
-1.173712039297e+02
-2.200439316327e+02
-2.124798713597e+02
-2.259173973406e+02
-8.551457370991e+01
-6.496635490894e+01
-5.868337018617e+01
-4.591110597459e+01
-2.028334229287e+02
-1.950582447377e+02
-1.911063742467e+02
-1.788212096707e+02
-1.192688088818e+02
-1.186076787366e+02
-1.295852371188e+02
-1.280850492372e+02
-1.390990936307e+02
-1.374470323528e+02
-1.486785847385e+02
-2.071527263753e+02
-3.472488562801e+01
-9.746639867869e+01
-2.088639820966e+02
-2.020390316574e+02
-8.439407495443e+01
-7.296648296405e+01
-2.164807436954e+02
-8.372475227513e+01
-2.079257353570e+02
-1.045904573105e+01
-1.913618267133e+01
-8.944153877759e+01
-9.614950996013e+01
-7.106908860977e+01
-6.573672374988e+01
-1.727953964239e+02
-3.088756473044e+01
-3.732760838711e+01
-1.500961238517e+02
-2.590224977065e+01
-1.853032142645e+02
-9.020237248618e+01
-1.074298845199e+02
-4.881610674454e+01
-7.163361743114e+01
-1.319499827651e+02
-1.209734877893e+02
-1.149310688093e+02
-9.645398895788e+01
-7.194269513952e+01
-5.883900079072e+01
-1.254571478818e+02
-1.748739039994e+02
-1.803797207062e+02
-1.917890073198e+02
-1.858945540440e+02
-1.742130259282e+02
-1.797710556125e+02
-1.913936804542e+02
-1.857185690614e+02
-1.993037500744e+02
-1.912103042521e+02
-1.791124041796e+02
-1.843926747174e+02
-1.955616579706e+02
-1.726100534406e+02
-2.146224319332e+02
-1.015370929529e+02
-2.637030037032e+01
-2.255236941361e+01
-1.134583909122e+02
-2.107749049217e+02
-2.103202229249e+02
-7.329026203367e+01
-2.145363958986e+02
-1.203604598918e+02
-5.204066935009e+01
-2.163479887144e+02
-1.686215627876e+02
-1.622752666674e+02
-1.567309557582e+02
-2.104244176111e+02
-1.404488573874e+02
-2.204947140110e+02
-1.493188722801e+02
-1.432075612003e+02
-1.314226534957e+02
-1.734686386148e+02
-2.236627002947e+02
-2.142194785260e+02
-2.150189643880e+02
-2.037416090280e+02
-2.255265519319e+02
-2.129991059266e+02
-2.138964565024e+02
-7.439288875930e+01
-8.029367362340e+01
-9.149029134530e+01
-8.602297187714e+01
-7.478909105310e+01
-8.041683936076e+01
-9.162679731935e+01
-7.468356016422e+01
-1.837899020551e+02
-2.273883139305e+02
-1.543111950528e+02
-1.485198030835e+02
-1.367216608580e+02
-1.159955330867e+02
-1.224806885131e+02
-1.343440414859e+02
-1.094520888058e+02
-1.600743180014e+02
-2.279063243679e+02
-1.491251579179e+02
-1.170707551838e+02
-1.093254272735e+02
-1.200450003528e+02
-1.204456615495e+02
-1.318386261059e+02
-1.209666073411e+02
-1.385783685304e+02
-1.439136785614e+02
-1.374230602978e+02
-1.492400909384e+02
-1.424720151077e+02
-1.315363639159e+02
-1.543480346468e+02
-1.467178275392e+02
-1.089246173008e+02
-1.234656119197e+01
-2.139663159782e+01
-2.115735164194e+01
-3.013558996645e+01
-3.061933131946e+01
-4.050924967441e+01
-3.887837765493e+01
-2.137259136343e+01
-1.188329480826e+01
-2.102971932518e+01
-1.158690153256e+01
-2.067238389831e+01
-3.155407854597e+01
-4.721745468130e+01
-2.292373670683e+02
-1.132124009136e+02
-1.073972337748e+02
-9.598612409661e+01
-1.021069908724e+02
-1.179012143168e+02
-8.967714697592e+01
-8.542313360723e+01
-1.049968885916e+01
-2.027769309226e+01
-1.928715156313e+01
-3.025919980713e+01
-3.015383280839e+01
-2.055193614248e+01
-2.058743890912e+01
-1.059192383338e+01
-2.056555540862e+01
-3.069212537253e+01
-1.038300953513e+01
-1.645572584119e+02
-1.710792082710e+02
-2.282815321657e+02
-1.100301746007e+02
-1.136488726558e+01
-2.067162273833e+02
-2.089057655610e+02
-2.090597857943e+02
-2.102158511613e+02
-2.163353638865e+02
-2.069658075372e+02
-7.531044666448e+01
-1.973054466969e+02
-1.860204506891e+02
-4.615919402653e+01
-7.235969018405e+01
-1.731563024169e+02
-1.581237529735e+02
-1.986273768304e+02
-1.623281088276e+02
-1.877486814602e+02
-2.150690731585e+02
-4.770569156856e+01
-1.423677578794e+02
-1.378613657290e+02
-1.675330872960e+02
-7.913514104197e+01
-1.259654892553e+02
-5.045793749365e+01
-2.064621976302e+02
-1.138369449888e+02
-1.305965011292e+02
-1.041308037763e+02
-8.191939182714e+01
-6.736115268237e+01
-1.075024877376e+02
-1.234665070916e+02
-1.776284841761e+02
-1.740834250501e+02
-1.216031375251e+01
-1.840774224370e+02
-1.471739159098e+02
-1.470231161176e+02
-1.790473941231e+02
-4.646795022395e+01
-1.719679386272e+02
-1.930911904161e+02
-1.340013624412e+02
-3.882426283134e+01
-1.300602728111e+02
-2.090794550905e+02
-1.693141241239e+02
-7.253542173237e+01
-1.316659209107e+02
-1.132760552743e+02
-9.844036551244e+01
-1.910997831841e+02
-1.310651254023e+02
-1.909645833641e+02
-1.551604652081e+02
-7.783606509126e+01
-1.953610075916e+02
-1.257490916261e+02
-1.839281044740e+02
-1.660284321257e+02
-1.027696891578e+02
-1.764391098976e+02
-1.310575242638e+02
-1.850855054221e+02
-1.078172853252e+02
-1.425793588166e+02
-1.547215901936e+02
-1.366938346731e+02
-1.665571334853e+02
-1.897356064276e+02
-4.730493690398e+01
-8.374271336244e+01
-1.462060480037e+02
-1.890979830675e+02
-1.957524597695e+02
-1.015108229483e+02
-1.887892498951e+02
-1.880077568093e+02
-1.289012596052e+02
-5.460115605946e+01
-3.590860843473e+01
-8.007793109415e+01
-1.253901535388e+02
-1.407619016111e+02
-1.994567115770e+02
-1.943341787023e+02
-1.788610654087e+02
-1.366859921105e+01
-1.035523882649e+02
-1.999025043000e+02
-1.374039273888e+02
-1.907952858146e+02
-1.354125011343e+02
-2.070451868319e+02
-7.929154919281e+01
-2.056067289639e+02
-1.789703111040e+02
-7.844792645747e+01
-1.081314182122e+02
-2.195518349101e+02
-1.912014851943e+02
-1.483646806989e+02
-1.314344178067e+02
-8.629751422323e+01
-1.462048689909e+02
-1.484922024817e+02
-2.103232481232e+02
-1.967497235250e+02
-1.503627305183e+02
-1.397149247484e+02
-1.607560802831e+02
-3.030321825570e+01
-9.153614272052e+01
-1.450692836732e+02
-8.589521030972e+01
-1.370592247667e+02
-2.084671023032e+02
-1.504316666317e+02
-9.718377518940e+01
-1.557757187461e+02
-7.419705656548e+01
-1.559545937773e+02
-1.611053708290e+02
-1.601966960637e+02
-3.170982486483e+01
-1.542190627006e+02
-2.035859367894e+02
-9.493799600725e+01
-1.427195156471e+02
-1.678813653126e+02
-6.188224062610e+01
-1.545623148609e+02
-1.719344741412e+02
-1.601904699536e+02
-1.370740288624e+02
-1.666289219052e+02
-6.690767582082e+01
-7.032361705527e+01
-5.882362803497e+01
-1.028764582151e+02
-1.779073142809e+02
-4.013906827236e+01
-1.671016863996e+02
-4.255688042340e+01
-9.720284112410e+01
-1.786963850402e+02
-1.412372195749e+02
-1.026760542391e+02
-6.640029327969e+01
-9.683693922211e+01
-1.488310138698e+02
-1.021661718196e+02
-9.614834685974e+01
-1.978165363202e+02
-1.012897689052e+02
-2.090971351925e+02
-2.301776380454e+02
-1.173105196201e+02
-4.885862968774e+01
-1.252430983456e+01
-5.497634315870e+01
-8.361677764999e+01
-1.663516051632e+02
-1.178130966060e+02
-7.710777713707e+01
-2.027860808281e+02
-2.185729627463e+02
-1.587053744356e+02
-1.961987909438e+02
-1.665474919793e+02
-1.870748228980e+02
-1.074136325888e+02
-2.053376375583e+01
-1.728320385129e+02
-3.638928552242e+01
-4.015659006144e+01
-2.973352525043e+01
-8.196779577220e+01
-2.997283002280e+01
-2.721119885314e+01
-2.126498092492e+02
-1.186067216152e+02
-1.840558343628e+02
-1.717849206219e+01
-1.993588222822e+02
-2.091634863923e+02
-2.301291980886e+02
-1.961132178263e+02
-2.292038641104e+01
-1.293281566014e+02
-2.054938078010e+02
-1.682650369527e+02
-2.314315836201e+02
-1.174261028824e+02
-1.993389169991e+02
-4.221832698671e+01
-1.994508870368e+02
-1.781388787497e+02
-1.326640458127e+02
-1.291230334508e+02
-2.220828986290e+02
-2.015499719008e+02
-2.040684954688e+01
-1.581262359742e+02
-1.021706759635e+02
-1.984978459953e+01
-2.188113245298e+02
-1.892677969704e+02
-2.210580036695e+02
-2.989224707459e+01
-1.921753257787e+01
-2.196708767985e+02
-2.051512448476e+02
-4.800737469959e+01
-2.113010720325e+02
-1.534667078160e+01
-1.062838080325e+02
-1.975906952048e+01
-2.315093824968e+02
-2.001173343255e+02
-1.126462439545e+02
-1.102982395456e+02
-7.441108777272e+01
-1.990029406364e+02
-2.824988964494e+01
-2.011194622663e+02
-2.189768450440e+02
-2.025142378158e+02
-2.246630731220e+02
-1.816450471268e+01
-2.113881382969e+02
-2.068200208947e+02
-1.072022520890e+02
-2.014818284399e+02
-9.151904884580e+01
-3.968696347806e+01
-2.103574375101e+02
-8.724816574577e+00
-1.064108358927e+02
-2.329076529432e+02
-3.793270698948e+01
-1.261983178920e+02
-2.051396599790e+02
-1.384574947450e+02
-1.802430372661e+02
-3.720755291405e+01
-1.127385720494e+01
-1.475858021439e+02
-2.121518954070e+02
-2.026820390859e+02
-1.392625692880e+02
-2.790226849642e+01
-1.983805574553e+02
-1.217697954496e+02
-1.985211129639e+02
-2.056295884454e+02
-9.469326634533e+00
-1.489255335610e+02
-1.861316344740e+01
-2.224396501438e+02
-1.268973579065e+02
-4.481851324943e+00
-7.364766723049e+00
-1.813412948266e+01
-1.863330433970e+01
-3.098685976455e+01
-3.142272654454e+01
-4.358676594639e+01
-4.286794937706e+01
-5.579976080885e+01
-5.569082561472e+01
-6.803465397606e+01
-6.715012034679e+01
-8.012950083286e+01
-7.997869995892e+01
-9.222221968769e+01
-9.132910732037e+01

SCALARS node_materi_stress_size_dev_sd_sig float
LOOKUP_TABLE default
3.865108865250e+00
7.249562934547e+01
1.789985821882e+02
1.613452512437e+02
9.918505325614e+00
1.965053602605e+01
2.848419587566e+01
3.848659295783e+01
4.815542952022e+01
5.753685511534e+01
6.694080934193e+01
7.633106333969e+01
8.564443814802e+01
9.504579374627e+01
1.046448561082e+02
1.136567241662e+02
1.217785763222e+02
1.307831579928e+02
1.398768015285e+02
1.486003816586e+02
1.573232466976e+02
1.660256303660e+02
1.742172313739e+02
1.618555405037e+02
1.614430050441e+02
1.615679655367e+02
1.615935660690e+02
1.613033374805e+02
1.616030630428e+02
1.616739791090e+02
1.616557264588e+02
1.620304242517e+02
1.621151667909e+02
1.619020871507e+02
1.623021203956e+02
1.625786157400e+02
1.626740711378e+02
1.627033601202e+02
1.627101983491e+02
1.629470570194e+02
1.635681192312e+02
1.642359968503e+02
1.649059394225e+02
1.654050651585e+02
1.658838650497e+02
1.665469459131e+02
1.672183063301e+02
1.680579356939e+02
1.689084792593e+02
1.698207014155e+02
1.706125746400e+02
1.713819088820e+02
1.724374066161e+02
1.731663855814e+02
1.734235475174e+02
1.741286784183e+02
1.749229687093e+02
1.755793080672e+02
1.761846981567e+02
1.767042942926e+02
1.770555628341e+02
1.772963438889e+02
1.775050936507e+02
1.779411137218e+02
1.785554969143e+02
1.788639328251e+02
1.780399184610e+02
1.790071593656e+02
1.788082515452e+02
1.790907825591e+02
1.794377102075e+02
1.794473370710e+02
8.162360486288e+01
9.094836250840e+01
1.001102828606e+02
1.091422071491e+02
1.184142069454e+02
1.276639696465e+02
1.369512348893e+02
1.461858949209e+02
1.556625129342e+02
5.120773061759e+00
7.166888679325e+01
1.072820604150e+01
8.792798440115e+00
9.539851723147e+00
1.739209233852e+01
2.602737605361e+01
3.487320236660e+01
4.380299411506e+01
5.281288789060e+01
6.191190559899e+01
2.959067671139e+00
8.414727234314e+00
1.755552339869e+01
2.661573169516e+01
3.569973236112e+01
4.477247584827e+01
5.385589197254e+01
6.287692323133e+01
7.115490971440e+01
7.165037078776e+01
7.168553364115e+01
7.153215083103e+01
7.267956573796e+01
7.157311526216e+01
7.137243328039e+01
7.142027173563e+01
7.159982498811e+01
7.149538107149e+01
7.133969098768e+01
7.124533566808e+01
7.117598410597e+01
7.127381701561e+01
3.764953696421e+00
3.917472716568e+00
4.030748635951e+00
3.628094180171e+00
3.083414328229e+00
2.924203173955e+00
2.797587851654e+00
2.719473285897e+00
2.733658394325e+00
2.806394823828e+00
2.980018141592e+00
3.364233297249e+00
3.419016260183e+00
3.225853152732e+00
3.482395149382e+00
3.776475765592e+00
3.912167553185e+00
3.747852061450e+00
3.395799591062e+00
2.822512835010e+00
5.906413375784e+00
6.504537758343e+00
6.621095203721e+00
6.578758460421e+00
6.418905975265e+00
6.210401541190e+00
5.969590028619e+00
5.725893491709e+00
5.484568398164e+00
5.257350359972e+00
5.047566922062e+00
4.858962756472e+00
4.692263293780e+00
4.547609167047e+00
4.423538571321e+00
4.317972666463e+00
4.228770367103e+00
4.154144116228e+00
4.092652311432e+00
4.043302909553e+00
4.005799608162e+00
3.980917122643e+00
3.971318308557e+00
3.993451655832e+00
3.772982515580e+00
8.292835521577e+00
1.023751231788e+01
1.006322123074e+01
1.006270509105e+01
1.005387357825e+01
9.960767455463e+00
9.851615821040e+00
9.715669203490e+00
9.574004230205e+00
9.430177881254e+00
9.291554991113e+00
9.161293064062e+00
9.042329863765e+00
8.935426016315e+00
8.840235441208e+00
8.756086517658e+00
8.682442677177e+00
8.618672991071e+00
8.564130601890e+00
8.518249959381e+00
8.480774101144e+00
8.451470556216e+00
8.427728018512e+00
8.395979269525e+00
8.376659018368e+00
1.748281037571e+01
1.744938661826e+01
1.747093286425e+01
1.750127541368e+01
1.753371758586e+01
1.756820522237e+01
1.760526368421e+01
1.764566727456e+01
1.769041086344e+01
1.773985611136e+01
1.779383289725e+01
1.785146515383e+01
1.791319283066e+01
1.797851673866e+01
1.804564324728e+01
1.810629737689e+01
1.815952936569e+01
1.818983641303e+01
1.820800844491e+01
1.817115909057e+01
1.814036935576e+01
1.844251284936e+01
1.653966590129e+01
2.508578570183e+01
2.696517430448e+01
2.666308944229e+01
2.669010874771e+01
2.674308123835e+01
2.675236065988e+01
2.675677537092e+01
2.674315262089e+01
2.672890755477e+01
2.671558486178e+01
2.670205349648e+01
2.668467815005e+01
2.666628572069e+01
2.664858602991e+01
2.663122692667e+01
2.661277780476e+01
2.659251472846e+01
2.657202435791e+01
2.655344758676e+01
2.654353902892e+01
2.655805891603e+01
2.659823627199e+01
3.567017373574e+01
3.563489472514e+01
3.562260602437e+01
3.562396925115e+01
3.562911648750e+01
3.563468612431e+01
3.563711065766e+01
3.563218089768e+01
3.562354287417e+01
3.561594945958e+01
3.560607681942e+01
3.558832357624e+01
3.555898059405e+01
3.553660577087e+01
3.551780185793e+01
3.550847721033e+01
3.545340009932e+01
3.540787188873e+01
3.576069239613e+01
3.386227355117e+01
4.274127141880e+01
4.466197025801e+01
4.434647367190e+01
4.435156150930e+01
4.438025913612e+01
4.441372579945e+01
4.448192287355e+01
4.453053856943e+01
4.456656697480e+01
4.459065891837e+01
4.462161982458e+01
4.465647864710e+01
4.467179207262e+01
4.468069989891e+01
4.469002378860e+01
4.469968300761e+01
4.471431498686e+01
4.474579728280e+01
4.476742050848e+01
5.388251026539e+01
5.381586394146e+01
5.378535726995e+01
5.377630913749e+01
5.374529211092e+01
5.372850088576e+01
5.370858037741e+01
5.366944217275e+01
5.360117566607e+01
5.357731600642e+01
5.353894163575e+01
5.347250293155e+01
5.341578522620e+01
5.330920456507e+01
5.330814868824e+01
5.371372370627e+01
5.179826253150e+01
6.087392338784e+01
6.277513440380e+01
6.242489449586e+01
6.244312759013e+01
6.253071592425e+01
6.261147069742e+01
6.263262644277e+01
6.268646164927e+01
6.274684846552e+01
6.278909022432e+01
6.281744009217e+01
6.284617668609e+01
6.290238601957e+01
6.288743766654e+01
6.298522982529e+01
6.308393345683e+01
8.675023585337e+00
1.129373519960e+01
6.827109804559e+00
1.410336291821e+01
2.250266857346e+01
3.119266143816e+01
4.008449955986e+01
4.904943427434e+01
5.809918866871e+01
6.729822554058e+01
1.469049024871e+01
1.710019260076e+02
6.736817628452e+00
5.642383670965e+00
1.737830488681e+02
2.227192613739e+01
1.001852797325e+02
1.675286818977e+02
3.855749566660e+01
1.644420347467e+02
5.679561300992e+01
1.754902669530e+02
7.103366152825e+00
1.615081870085e+02
7.531538929731e+01
6.267607245940e+01
1.249444078205e+02
1.594690201751e+02
1.586300077635e+02
1.576529437948e+02
1.569392749089e+02
1.583307494021e+02
7.956723944019e+01
7.985615164949e+01
8.065786128816e+01
1.138044082088e+02
1.754816287550e+02
5.344465153468e+00
8.064170075040e+00
1.526567085548e+02
7.979703771845e+01
3.350164282359e+01
1.574487922072e+02
1.666111492229e+02
1.628648219794e+02
1.687825739995e+02
1.725774241943e+02
6.433557093019e+00
7.939167432899e+01
1.732365345104e+02
1.321504514575e+02
7.216330316174e+00
8.106776781003e+01
1.589809900112e+02
3.102078377312e+01
1.572484136875e+01
4.762400454313e+01
6.588861420374e+01
1.071442095842e+01
9.619732740402e+01
1.770575224854e+02
7.747564892029e+00
1.503768245967e+02
7.959150742359e+01
8.342364857579e+01
8.778007334762e+01
9.231040956104e+01
9.709880034354e+01
1.012012166493e+02
9.640074787931e+01
1.053697799008e+02
1.005514262671e+02
1.061079543209e+02
1.096226236708e+02
1.048050461942e+02
1.139537504821e+02
1.091816716285e+02
1.000919036144e+02
1.045162601066e+02
9.543447503570e+01
9.993398874054e+01
1.090682172135e+02
1.045644427764e+02
9.543167408575e+01
1.001548020263e+02
9.103728229988e+01
9.588050585240e+01
8.674927304093e+01
9.174533797515e+01
1.008584695312e+02
9.685443040332e+01
8.777233269418e+01
9.302054243172e+01
8.398960658491e+01
8.935395059722e+01
9.830632227485e+01
9.473369487843e+01
8.584538302316e+01
9.131079327798e+01
8.251420243470e+01
8.802357073827e+01
7.933196735849e+01
8.477872056079e+01
9.334369772429e+01
9.001122260263e+01
8.153354368789e+01
8.658985174796e+01
9.504683233615e+01
9.144240637356e+01
9.989969412443e+01
9.612845973327e+01
8.772050002802e+01
9.221975386152e+01
1.006611013232e+02
9.657602138222e+01
8.812917937587e+01
9.234408954663e+01
1.008499731729e+02
9.648342049550e+01
8.793062686848e+01
9.196980537571e+01
1.006143016474e+02
9.597442364422e+01
8.726880254818e+01
9.118958742907e+01
9.999003015063e+01
9.510990738886e+01
1.039820548097e+02
8.619417740813e+01
9.008783913189e+01
8.103474568167e+01
8.495539255836e+01
1.035914289620e+02
7.578688445944e+01
7.196799139849e+01
7.974556736733e+01
8.894618209209e+01
7.047139446149e+01
7.447182165384e+01
6.512272774566e+01
7.353137059545e+01
1.137430789742e+02
6.916255742606e+01
5.975352749155e+01
5.568070135947e+01
5.025880483748e+01
1.019821746507e+02
1.111460514169e+02
1.067499384737e+02
1.161921727978e+02
1.119620145910e+02
5.434052543610e+01
1.188833676482e+02
1.204323220792e+02
8.636300078084e+01
7.867424385318e+01
1.035675317436e+02
7.848450108333e+01
7.321728756142e+01
8.254498694245e+01
1.087838097493e+02
1.128047448550e+02
1.175385848036e+02
1.215664691108e+02
1.262428039356e+02
1.302676236091e+02
1.255479628981e+02
1.342417394446e+02
1.294891908135e+02
1.348909690512e+02
1.308037929054e+02
1.381644614258e+02
1.333910013021e+02
1.420418533813e+02
1.372560037776e+02
1.285307934926e+02
1.323871235577e+02
1.236331808510e+02
1.084107579423e+02
1.121537462634e+02
1.169700996793e+02
1.207877453112e+02
1.255691342371e+02
1.294549927860e+02
1.341770762332e+02
1.302156210270e+02
1.183640206673e+02
7.819952001522e+01
7.312015228142e+01
6.988026297842e+01
6.480259785962e+01
6.162390440716e+01
5.658208694317e+01
5.337746761980e+01
5.806371406526e+01
4.964095182646e+01
5.402548612017e+01
4.531608876563e+01
4.947377826907e+01
1.059273762892e+02
1.245773664760e+02
1.333306352990e+02
1.283268450338e+02
4.617183244310e+01
1.410921460569e+02
1.394176448425e+02
1.352360707379e+02
1.387993075332e+02
4.490882129596e+01
4.843776679150e+01
5.115026981627e+01
1.212697761912e+02
1.170310489366e+02
1.438547018551e+02
4.898953894841e+01
1.428643330717e+02
4.103987103600e+01
1.362202350218e+02
1.449014683585e+02
1.207486577777e+02
1.372079956694e+02
1.320838747904e+02
5.831662762592e+01
5.364168621100e+01
4.470732701606e+01
4.891129276000e+01
5.782920953593e+01
5.268600510627e+01
4.346461856976e+01
4.734996529141e+01
5.665388275579e+01
5.131376681316e+01
4.176832641287e+01
4.580723102322e+01
1.496935530168e+02
3.628165572871e+01
9.108935623839e+01
1.479606378632e+02
1.427041268659e+02
1.263873509044e+02
1.221621567090e+02
1.128075520961e+02
1.179923303151e+02
1.273671102281e+02
1.231791027144e+02
1.138364129788e+02
1.189831825033e+02
1.096547223298e+02
1.148017568453e+02
1.241435834185e+02
1.199753600503e+02
1.106702819113e+02
1.158145786293e+02
1.065259575692e+02
1.115941257502e+02
1.209685611782e+02
3.975660536450e+01
1.347523752048e+02
1.433740410592e+02
7.759149615739e+01
8.648776740017e+01
9.175687357039e+01
9.580283290714e+01
1.166850412958e+02
1.261621181669e+02
4.308114973908e+01
4.525281736963e+01
1.306531562378e+02
1.400705312275e+02
1.313354338156e+02
7.493190251032e+01
6.953007123342e+01
6.578249184792e+01
6.016573132732e+01
6.431290424878e+01
5.631758087248e+01
1.265644209582e+02
1.293449589137e+02
5.164303925538e+01
4.210294260599e+01
1.487429472848e+02
1.261798422582e+02
1.099801328108e+02
1.150237140705e+02
1.191553596427e+02
1.241672148352e+02
1.283834532900e+02
1.333338223480e+02
1.292303040213e+02
1.410854506856e+02
1.383567908987e+02
1.071896093106e+02
1.194666806783e+02
6.066232212475e+01
3.560516492570e+01
3.597023742749e+01
4.353366974890e+01
5.305802825036e+01
1.523877782149e+02
1.376326222134e+02
1.326611322043e+02
5.504639400113e+01
5.943110329593e+01
1.460270751121e+02
1.026539001337e+02
1.045540420787e+02
1.003613861646e+02
3.320446298312e+01
3.220212000023e+01
1.325810469729e+02
5.352006239414e+01
4.731697576203e+01
3.199385730963e+01
2.672658182777e+01
1.216668224865e+02
1.310710183911e+02
1.008706070363e+02
1.048966896708e+02
1.482308908519e+02
4.026126527271e+01
1.355492953097e+02
1.306481703932e+02
1.220648372883e+02
9.046130299661e+01
3.721447936963e+01
3.515246224694e+01
6.581154871451e+01
4.987799521465e+01
4.762186284976e+01
1.567251693276e+02
1.367406148475e+02
1.343126220191e+02
1.252187312648e+02
1.433782074587e+02
3.047914368555e+01
1.565781988274e+02
1.439614986208e+02
1.416584302620e+02
1.370618458740e+02
5.588302900114e+01
4.975896100453e+01
4.087269134357e+01
4.358026578989e+01
9.162318683712e+01
5.866512800047e+01
8.643308405816e+01
8.217953682717e+01
7.757261890405e+01
6.849980325415e+01
6.385531727228e+01
6.771150063450e+01
1.071579566993e+02
9.692500074248e+01
1.197609953366e+02
1.134416301763e+02
1.334934218038e+02
1.387793989238e+02
1.014006889858e+02
9.717464131338e+01
3.657231685561e+01
3.249706878823e+01
1.079670505838e+02
1.519733143876e+02
1.357225222427e+02
1.400393100545e+02
1.348996862234e+02
1.524129247088e+02
7.470461956329e+01
1.130937166577e+02
3.106773231229e+01
1.072429140156e+02
2.701536813452e+01
1.182408003659e+02
1.525856174773e+02
1.572546703107e+02
1.499216931125e+02
7.896142066644e+01
1.124542886593e+02
1.088484646629e+02
7.344921134560e+01
6.888171694195e+01
7.300333983167e+01
6.430756248715e+01
6.974122393807e+01
6.455879945281e+01
1.475787802209e+02
1.473533244808e+02
1.462077262854e+02
1.417488391667e+02
1.547115945400e+02
1.507281149048e+02
5.691932499670e+01
5.499544258037e+01
1.419241637177e+02
7.804512409423e+01
1.603183774581e+02
1.559445585055e+02
2.102132064136e+01
2.511562447528e+01
1.406493925183e+02
3.432827517044e+01
3.733957045256e+01
3.204691988934e+01
1.699355610602e+02
7.956370897112e+01
1.610892976684e+02
7.288268502797e+01
1.451303448967e+02
1.177006782181e+02
7.125960585307e+01
1.439178259453e+02
1.356190288791e+02
1.460293938189e+02
9.525798552898e+01
9.087461920911e+01
9.921045737807e+01
3.651890905259e+01
2.668424361805e+01
1.345295787204e+02
6.798480245090e+01
7.309758733122e+01
4.412275462052e+01
5.360964045296e+01
1.059503804270e+02
1.020199133500e+02
1.229828780699e+02
1.275247837563e+02
1.141820859795e+02
1.264554259902e+02
1.178659480499e+02
1.135377492409e+02
1.427512697612e+02
1.490687404430e+02
7.469180169494e+01
7.072449269493e+01
7.352565059409e+01
1.461548783683e+02
1.656201327816e+02
1.618727244787e+02
2.293766234431e+01
2.831980706631e+01
2.938443225376e+01
2.734516250780e+01
1.441586417251e+02
1.393050650566e+02
1.500906997057e+02
5.086052001299e+01
1.304169479224e+02
1.605049789415e+02
1.563099323142e+02
1.658305041404e+02
1.448639361069e+02
1.536214640508e+02
1.523431091791e+02
1.683125871136e+01
1.427185566510e+02
9.169325867892e+01
1.211025178923e+01
8.755830517062e+01
9.294513360419e+01
8.291654098034e+01
4.153643809479e+01
8.857873837043e+01
9.407262533655e+01
1.698728403578e+01
1.512363151108e+02
1.799602020203e+01
2.186474051546e+01
1.642721624774e+02
1.597669449225e+02
1.678580138727e+02
1.632748831580e+02
1.551577431818e+02
1.591049359252e+02
8.643183456670e+01
1.682873431291e+02
1.630877573439e+02
1.724026039460e+02
6.046106835709e+01
4.675229777057e+01
4.113060622447e+01
3.158818812131e+01
1.523606956194e+02
1.459428987736e+02
1.480655148352e+02
1.393098056971e+02
8.824622556308e+01
8.778552210595e+01
9.614322222658e+01
9.504912648146e+01
1.034814479398e+02
1.021684383398e+02
1.107770739617e+02
1.566433137231e+02
2.508246312467e+01
6.953067453586e+01
1.593029703060e+02
1.547428352800e+02
5.954958901048e+01
5.109319299094e+01
1.659827550251e+02
6.457857711319e+01
1.568091904015e+02
5.768346229014e+00
1.526767972106e+01
6.764019661991e+01
6.842774981682e+01
5.053734068198e+01
4.596712732071e+01
1.351552104935e+02
2.438886901034e+01
3.071072986025e+01
1.117735413627e+02
2.275549555063e+01
1.438977941080e+02
7.056883831514e+01
7.761481545872e+01
3.890528819600e+01
5.288296095430e+01
9.579097934371e+01
8.758560944878e+01
8.284434386647e+01
7.621793133271e+01
5.042137235069e+01
4.074518682716e+01
9.084801927034e+01
1.298204489753e+02
1.341614845087e+02
1.433515294701e+02
1.385320090826e+02
1.291251937059e+02
1.334948894254e+02
1.429646980713e+02
1.382025304504e+02
1.493653118355e+02
1.427307880234e+02
1.329418683193e+02
1.373138768245e+02
1.463519549241e+02
1.277739817392e+02
1.632407898619e+02
7.679716279225e+01
2.216653355567e+01
2.023832897473e+01
8.195116306114e+01
1.589277900227e+02
1.585575624053e+02
5.935638154029e+01
1.620005376164e+02
8.687585219375e+01
4.509297304649e+01
1.636126891805e+02
1.247336548056e+02
1.196146484158e+02
1.153323168499e+02
1.586436223286e+02
1.034761042124e+02
1.673080745837e+02
1.158450526585e+02
1.106718154392e+02
1.019622650046e+02
1.283959986970e+02
1.702491458736e+02
1.637201844072e+02
1.643999034562e+02
1.565104274479e+02
1.717305964954e+02
1.606654318579e+02
1.614557837143e+02
6.181552964024e+01
6.671597989047e+01
7.537924905332e+01
7.124585739836e+01
6.255853460707e+01
6.697223361849e+01
7.544363583746e+01
6.256858496929e+01
1.368549770544e+02
1.731832201524e+02
1.221373963495e+02
1.178992964298e+02
1.092605156470e+02
9.295570215589e+01
9.805278034180e+01
1.070328213145e+02
8.778637440814e+01
1.201061974725e+02
1.735648616193e+02
1.176357570965e+02
9.405470500759e+01
7.952688650185e+01
8.746776022001e+01
8.756117853202e+01
9.622460443912e+01
8.832882870738e+01
1.098959756339e+02
1.138249087023e+02
1.088848024587e+02
1.177120498987e+02
1.125817266748e+02
1.043083120318e+02
1.213998059851e+02
1.157334510028e+02
7.951579139621e+01
6.311314949123e+00
1.539566656868e+01
1.516954867234e+01
2.367921529942e+01
2.443496575045e+01
3.317511992522e+01
3.203611175606e+01
1.540570291684e+01
6.485544376180e+00
1.529620631141e+01
6.589304346027e+00
1.515788009077e+01
2.491474637410e+01
3.821950918700e+01
1.745573829767e+02
9.030485285581e+01
8.588508085518e+01
7.684739243718e+01
8.175119052318e+01
9.403517597401e+01
7.187104132107e+01
6.851171398377e+01
8.140107405081e+00
1.643221051982e+01
1.564040636514e+01
2.466521899616e+01
2.435628601780e+01
1.645690252652e+01
1.642172526169e+01
7.880887015129e+00
1.628924913316e+01
2.468624626463e+01
7.440512392756e+00
1.231216899664e+02
1.282329478471e+02
1.739254631136e+02
8.066417114761e+01
7.085706605988e+00
1.561050557677e+02
1.576823110998e+02
1.578012824600e+02
1.614392586643e+02
1.656294056487e+02
1.563764371418e+02
6.108566262168e+01
1.476583661875e+02
1.397328142881e+02
4.033429142372e+01
5.920437182344e+01
1.352385135849e+02
1.246625242952e+02
1.534667294479e+02
1.274995452985e+02
1.458855246268e+02
1.646633769813e+02
3.831584704448e+01
1.054746416319e+02
1.022951916792e+02
1.251593364375e+02
6.383840436962e+01
1.001802993981e+02
4.080245708478e+01
1.555946237464e+02
8.186697652529e+01
1.047160974467e+02
8.375520719429e+01
6.653604966824e+01
5.533559392713e+01
8.035252660935e+01
9.906798386413e+01
1.389045084583e+02
1.303638040966e+02
8.443239276180e+00
1.434735115242e+02
1.167912493376e+02
1.086861881228e+02
1.381207337884e+02
3.805257735846e+01
1.283517412636e+02
1.447776753169e+02
9.831155191344e+01
3.124124729907e+01
9.611674748409e+01
1.607903136156e+02
1.255248776519e+02
5.844360758546e+01
1.045910397803e+02
8.261604273541e+01
7.046653755774e+01
1.437406731443e+02
1.000613284667e+02
1.473976355493e+02
1.216391644142e+02
6.262547279210e+01
1.514059755438e+02
9.854806266605e+01
1.377553521238e+02
1.234155512843e+02
8.304957106816e+01
1.315160749409e+02
1.050521079631e+02
1.420821968822e+02
7.736511315357e+01
1.050109286428e+02
1.136435215140e+02
1.020358395858e+02
1.304110054604e+02
1.474787414735e+02
4.051836614458e+01
6.213035137774e+01
1.076880191966e+02
1.423383335193e+02
1.470755877963e+02
7.348512413511e+01
1.467412353372e+02
1.407561333152e+02
1.030522229926e+02
4.404666643196e+01
3.231726745843e+01
6.639167171254e+01
9.666712898294e+01
1.119449133283e+02
1.496780812003e+02
1.505699584657e+02
1.396021348454e+02
1.344875060979e+01
7.417527237116e+01
1.544073592169e+02
1.091322434949e+02
1.466369572889e+02
1.071829256977e+02
1.562287898931e+02
5.576616235658e+01
1.583921952130e+02
1.393600675253e+02
6.194033052772e+01
7.982952995702e+01
1.679833986172e+02
1.480290857747e+02
1.110510802267e+02
1.050527795235e+02
6.125650098615e+01
1.158854375452e+02
1.093073237506e+02
1.586251008093e+02
1.517603602588e+02
1.102420344382e+02
1.109457693310e+02
1.230339373142e+02
2.434142964322e+01
6.499438866895e+01
1.148489498206e+02
7.099036002946e+01
1.093509051670e+02
1.585246658251e+02
1.187525811938e+02
7.935514313085e+01
1.226268583693e+02
5.214169821137e+01
1.145591893587e+02
1.264471173426e+02
1.185168860784e+02
2.545681213778e+01
1.161921739113e+02
1.568017232711e+02
7.724442760086e+01
1.136068577741e+02
1.240000589854e+02
4.301733930876e+01
1.222080026040e+02
1.277985820230e+02
1.213734558814e+02
1.053755787739e+02
1.308899810223e+02
4.661446747534e+01
5.720483139218e+01
4.781800521767e+01
8.382440934224e+01
1.323222235203e+02
3.244514252567e+01
1.233190367100e+02
3.430921403139e+01
7.972217977770e+01
1.358737939784e+02
1.051238382614e+02
8.387444157502e+01
5.343100887468e+01
7.938819912505e+01
1.141429674912e+02
8.336070471255e+01
7.856325204293e+01
1.490555879441e+02
8.237810871087e+01
1.578729133590e+02
1.751343817321e+02
8.686153827261e+01
3.372579013674e+01
6.102660382746e+00
3.786179662817e+01
6.828344035715e+01
1.228644587455e+02
8.718137616367e+01
6.285034001973e+01
1.521730931648e+02
1.656119092505e+02
1.185755986180e+02
1.508601149408e+02
1.267619159008e+02
1.407592423416e+02
7.902439977010e+01
1.522435654113e+01
1.349407327912e+02
2.473740889781e+01
2.792663446629e+01
2.332093181038e+01
6.598495268840e+01
2.343895745857e+01
1.853511838100e+01
1.624199033668e+02
8.697650807135e+01
1.394710543801e+02
1.439688044777e+01
1.498857637057e+02
1.586689693703e+02
1.752038992889e+02
1.486542957575e+02
2.152048046841e+01
9.446014095870e+01
1.547686058367e+02
1.258689513247e+02
1.759521594483e+02
8.571194742281e+01
1.502889433211e+02
3.566566112285e+01
1.503928603925e+02
1.322915598975e+02
9.833768384894e+01
9.398597543733e+01
1.695537480620e+02
1.513429704909e+02
1.893404972232e+01
1.179730689337e+02
8.190794827787e+01
1.378049958860e+01
1.675790801805e+02
1.413335190645e+02
1.690197325364e+02
2.427418743645e+01
1.457006437798e+01
1.681176449216e+02
1.542072874110e+02
4.006228412501e+01
1.595661560762e+02
1.275589552137e+01
7.790475033239e+01
1.534394990497e+01
1.759863251792e+02
1.507709307933e+02
8.992274915229e+01
7.977913052729e+01
5.983910560483e+01
1.501308299623e+02
2.194622715061e+01
1.516674010202e+02
1.675089021753e+02
1.522460074574e+02
1.707216947422e+02
1.308897016247e+01
1.601863907806e+02
1.588765968985e+02
7.903531810099e+01
1.512555974329e+02
7.342227813920e+01
3.183743025019e+01
1.588463704296e+02
6.603783087309e+00
7.863678240001e+01
1.769655467507e+02
3.042829998149e+01
9.355284633089e+01
1.541059020401e+02
1.095736788467e+02
1.353722100042e+02
2.990298744055e+01
4.779120675040e+00
1.099665629061e+02
1.612183023951e+02
1.525269116118e+02
1.034493543303e+02
2.544640350711e+01
1.486896638821e+02
9.678722394243e+01
1.492960403856e+02
1.576462995196e+02
7.201173254615e+00
1.174301413269e+02
1.425747990831e+01
1.700323684756e+02
1.008123943360e+02
4.298411038615e+00
4.056420539344e+00
1.268215845260e+01
1.269361113119e+01
2.114317406614e+01
2.231053254755e+01
2.985132591289e+01
3.088258992785e+01
3.873869349560e+01
4.047367909226e+01
4.772406971693e+01
4.905940533667e+01
5.675933801482e+01
5.866412332062e+01
6.592963287514e+01
6.731222359585e+01

SCALARS node_materi_strain_total_average_a_ept float
LOOKUP_TABLE default
3.280557434162e-05
1.992860851520e-03
2.756915454986e-03
3.364582354536e-03
1.039480618669e-04
2.473472058819e-04
3.851674953805e-04
5.383850153344e-04
6.867405047559e-04
8.339918213519e-04
9.802054274383e-04
1.125711502287e-03
1.270907586886e-03
1.416385822384e-03
1.564354439507e-03
1.709240773308e-03
1.840307294391e-03
1.982357515781e-03
2.127653167846e-03
2.267592476637e-03
2.407608508108e-03
2.547651828517e-03
2.682792287568e-03
3.372810932470e-03
3.364446017827e-03
3.366007234381e-03
3.364830145188e-03
3.358804702796e-03
3.362474273715e-03
3.361962094000e-03
3.356468714000e-03
3.358727056680e-03
3.354972284877e-03
3.345659645962e-03
3.345064086372e-03
3.341342763024e-03
3.331663522129e-03
3.321479898439e-03
3.307038559420e-03
3.294641898779e-03
3.286116411471e-03
3.274398251543e-03
3.261415106005e-03
3.242965549761e-03
3.221370733904e-03
3.199992178613e-03
3.176232574683e-03
3.152481728590e-03
3.128859263483e-03
3.103093116020e-03
3.077258591940e-03
3.048115989968e-03
3.026258272000e-03
2.998192653544e-03
2.965429336479e-03
2.939360735480e-03
2.918639235037e-03
2.898129986392e-03
2.876755380670e-03
2.861500344675e-03
2.841031489861e-03
2.825952524748e-03
2.808243895832e-03
2.798671224297e-03
2.797150305473e-03
2.793032142033e-03
2.764923150370e-03
2.775823679072e-03
2.762932427250e-03
2.762409260623e-03
2.766170441725e-03
2.763877420123e-03
2.138350070803e-03
2.280746731815e-03
2.423022366407e-03
2.562592414496e-03
2.705184494831e-03
2.849322848141e-03
2.991034362386e-03
3.132695422399e-03
3.276984228171e-03
-1.559030734393e-05
1.958398288081e-03
2.784052204540e-04
7.635671056681e-04
9.738055586135e-04
1.102929084902e-03
1.236885208823e-03
1.375986201117e-03
1.516848552579e-03
1.660263495911e-03
1.805630962890e-03
9.017597311468e-04
9.934054205483e-04
1.137060392508e-03
1.279598117083e-03
1.421755258822e-03
1.563755871530e-03
1.705663180198e-03
1.847044643903e-03
1.975049979995e-03
1.983983527421e-03
1.983456916768e-03
1.981018475513e-03
1.999662115584e-03
1.981334666544e-03
1.978684631279e-03
1.978147625791e-03
1.978122992498e-03
1.974372504136e-03
1.970962567286e-03
1.966325382043e-03
1.962437343042e-03
1.959377043344e-03
-3.690662087904e-05
-5.373104808034e-05
-5.600800249575e-05
-4.778392084426e-05
-3.460305171469e-05
-2.495094955980e-05
-1.645385380691e-05
-8.760418785059e-06
-1.482208657650e-06
5.268727243157e-06
1.317330092691e-05
1.657792751207e-05
2.169287686081e-05
2.651872015085e-05
3.026291876917e-05
3.237080529803e-05
3.412958950825e-05
3.485094079414e-05
3.254380945196e-05
9.177571338567e-04
9.698464002204e-04
9.820737847256e-04
9.830167129425e-04
9.850026161084e-04
9.817272766839e-04
9.781589310811e-04
9.732515980773e-04
9.683675727970e-04
9.633444136001e-04
9.585261641057e-04
9.539398788379e-04
9.496910433658e-04
9.457974028761e-04
9.422835207580e-04
9.391437115920e-04
9.363586409345e-04
9.339010154833e-04
9.317517400595e-04
9.299036087910e-04
9.283676246412e-04
9.271855456702e-04
9.264572183843e-04
9.264307328281e-04
9.277682751738e-04
9.203034656442e-04
9.931815474799e-04
1.022202141452e-03
1.026785794071e-03
1.029440023034e-03
1.031175760005e-03
1.030062022623e-03
1.028362214956e-03
1.025802066141e-03
1.023014315476e-03
1.020044863245e-03
1.017115599271e-03
1.014280946113e-03
1.011617665521e-03
1.009155829675e-03
1.006914179527e-03
1.004890820192e-03
1.003081741820e-03
1.001485423897e-03
1.000105228704e-03
9.989528960034e-04
9.980517706509e-04
9.974425449072e-04
9.972072948786e-04
9.973119958541e-04
9.943671007504e-04
1.137430560641e-03
1.138398340846e-03
1.138738270344e-03
1.139083922919e-03
1.139565556451e-03
1.140191357179e-03
1.140950579876e-03
1.141833090042e-03
1.142826249687e-03
1.143916491620e-03
1.145088827583e-03
1.146324338733e-03
1.147599970284e-03
1.148849612180e-03
1.150006553425e-03
1.150911575104e-03
1.151507710575e-03
1.151337727094e-03
1.150533057627e-03
1.147639137079e-03
1.144405262206e-03
1.141582710116e-03
1.113068311388e-03
1.241805820387e-03
1.269793799771e-03
1.271409702573e-03
1.275003626451e-03
1.278702244701e-03
1.280479028484e-03
1.281912452461e-03
1.282584117240e-03
1.282958897744e-03
1.283019086635e-03
1.282925899332e-03
1.282707507570e-03
1.282414825496e-03
1.282078804052e-03
1.281726284928e-03
1.281384903773e-03
1.281073399470e-03
1.280807047273e-03
1.280589925466e-03
1.280372950322e-03
1.279999029092e-03
1.279716721883e-03
1.421796658616e-03
1.421891741853e-03
1.421983522158e-03
1.422022267299e-03
1.422029973245e-03
1.421993580832e-03
1.421891877067e-03
1.421700172990e-03
1.421422312079e-03
1.420998154797e-03
1.420400791240e-03
1.419574449485e-03
1.418419283102e-03
1.416996485012e-03
1.414944436250e-03
1.412515337834e-03
1.408571660211e-03
1.404941709018e-03
1.404417591421e-03
1.376158197848e-03
1.514466947900e-03
1.542691190661e-03
1.542696245302e-03
1.546103450306e-03
1.550218451893e-03
1.552872303785e-03
1.555457763948e-03
1.557428792094e-03
1.558964167774e-03
1.560215265512e-03
1.561238209283e-03
1.562012627799e-03
1.562630677069e-03
1.563041208634e-03
1.563362481433e-03
1.563555174500e-03
1.563708669212e-03
1.563776295593e-03
1.563786513528e-03
1.705760208326e-03
1.705640182217e-03
1.705381885392e-03
1.705069353642e-03
1.704658516327e-03
1.704001404011e-03
1.703237652047e-03
1.702020293212e-03
1.700489949761e-03
1.698781467736e-03
1.696716817467e-03
1.694134950274e-03
1.690943234164e-03
1.686590872839e-03
1.683303478995e-03
1.684512026320e-03
1.656496092967e-03
1.799837484086e-03
1.826711729827e-03
1.825812017166e-03
1.830156943579e-03
1.833846782275e-03
1.836935519623e-03
1.839005162881e-03
1.841106471934e-03
1.843656016602e-03
1.844499587318e-03
1.845603544643e-03
1.846339098272e-03
1.846994774646e-03
1.847139802460e-03
1.848196013582e-03
1.848262204592e-03
8.925534039486e-05
5.021114556282e-04
9.019092273139e-04
1.050183724869e-03
1.181679752968e-03
1.321049033651e-03
1.459423885514e-03
1.602323292376e-03
1.746732720696e-03
1.893929387470e-03
6.545057352042e-04
2.874520719217e-03
5.750813082158e-05
2.845781494476e-05
2.781594872326e-03
1.124484094011e-03
1.496254716342e-03
2.968054926454e-03
1.406728344435e-03
3.077410807741e-03
1.705035128601e-03
2.745474286826e-03
7.097024688121e-05
3.167832900940e-03
2.006114163633e-03
9.142838409037e-04
1.889115795221e-03
3.211362892242e-03
3.263559983235e-03
3.300521471800e-03
3.281600286307e-03
3.285432545349e-03
2.086947042018e-03
2.104990936416e-03
2.121765675556e-03
2.635160867940e-03
2.716622827433e-03
4.096986498863e-05
8.598265917800e-05
2.332830367772e-03
2.108441814143e-03
4.608054399173e-04
3.218353901166e-03
3.034249045427e-03
3.125819421190e-03
2.915375404073e-03
2.835532893162e-03
4.566144712870e-05
2.092916199677e-03
2.733261740307e-03
2.915964634246e-03
6.955049384247e-05
1.199330905413e-03
3.323258987474e-03
1.273825725980e-03
9.518638357981e-04
1.555633189823e-03
1.853555017038e-03
2.437360449366e-04
2.363778469375e-03
2.731405849016e-03
8.324562185021e-05
3.197167435833e-03
2.076380184827e-03
2.126880940388e-03
2.200335311945e-03
2.256613290875e-03
2.336719892903e-03
2.387661563490e-03
2.306911329070e-03
2.438359935209e-03
2.355398381497e-03
2.470621500743e-03
2.487622007759e-03
2.402872087711e-03
2.535633218121e-03
2.449367696946e-03
2.318423229537e-03
2.363283300056e-03
2.233730088505e-03
2.276981396561e-03
2.407275599824e-03
2.319314396659e-03
2.190077564978e-03
2.230741715454e-03
2.102710111188e-03
2.141694947885e-03
2.014200529200e-03
2.051696970838e-03
2.180264008031e-03
2.088668318337e-03
1.960694624418e-03
1.996052963027e-03
1.868277971304e-03
1.901763890296e-03
2.031433123767e-03
1.935956954142e-03
1.804947879893e-03
1.838768990323e-03
1.705831665036e-03
1.740023393063e-03
1.604567067392e-03
1.638766145823e-03
1.775563615941e-03
1.674818653210e-03
1.535308804405e-03
1.572396508146e-03
1.713150989350e-03
1.611907173144e-03
1.753367534892e-03
1.653524540611e-03
1.510989734292e-03
1.554139713174e-03
1.696691960769e-03
1.598499136712e-03
1.455187787537e-03
1.501548590397e-03
1.644636218129e-03
1.549286103023e-03
1.405617929296e-03
1.455135881286e-03
1.599015451538e-03
1.505686060518e-03
1.361659886608e-03
1.413473661954e-03
1.557833789635e-03
1.466298188789e-03
1.610765876932e-03
1.320977437557e-03
1.375324147629e-03
1.228845575835e-03
1.285290665509e-03
2.067352475823e-03
1.138247371684e-03
1.082339735156e-03
1.196421426705e-03
1.343124453796e-03
1.048729111221e-03
1.108540060364e-03
9.605012114618e-04
1.570356940656e-03
2.450565249800e-03
1.021691039858e-03
8.735078994699e-04
8.113672406931e-04
7.247601262111e-04
2.417994187006e-03
2.553885434583e-03
2.495909490643e-03
2.636565307094e-03
2.579905141603e-03
7.875584134139e-04
2.623107863025e-03
2.691968673515e-03
2.063250896365e-03
1.834649882113e-03
1.853179711356e-03
1.168696014611e-03
1.083142710112e-03
1.229118499466e-03
1.701829236936e-03
1.754263216582e-03
1.844833542975e-03
1.896541505105e-03
1.986578711018e-03
2.037625909345e-03
1.948883331020e-03
2.089300511958e-03
2.001839303399e-03
2.127054100281e-03
2.077108577674e-03
2.141577818430e-03
2.055449251678e-03
2.194692011265e-03
2.109738353711e-03
1.969628538920e-03
2.024997414401e-03
1.884790401318e-03
1.893879567374e-03
1.992676442212e-03
2.033505792554e-03
2.131455376340e-03
2.172391839915e-03
2.269557469413e-03
2.310189870546e-03
2.214164325659e-03
2.581872287674e-03
1.430456744424e-03
1.394523794948e-03
1.286672486973e-03
1.252141501678e-03
1.140266057870e-03
1.107583638267e-03
9.898295703163e-04
1.027144936790e-03
8.708054075306e-04
9.142012586582e-04
7.527407624558e-04
8.022584960352e-04
2.218340337339e-03
2.229268295615e-03
2.367026670862e-03
2.326149317845e-03
6.613114020066e-04
2.164829318529e-03
2.217134756510e-03
2.167712038911e-03
2.352198141237e-03
6.405677113631e-04
9.598369822173e-04
1.080803970337e-03
2.719399297603e-03
2.661821786359e-03
2.307840933468e-03
7.035054168002e-04
2.228405948725e-03
7.083832845052e-04
2.081169069275e-03
2.220398323115e-03
1.861083832287e-03
2.464463523970e-03
2.422297065049e-03
9.614557864296e-04
8.539050975267e-04
6.963445719588e-04
7.529449189961e-04
9.078501489402e-04
8.058089186799e-04
6.491383261965e-04
7.060771460837e-04
8.621634795478e-04
7.647478526060e-04
6.078597497741e-04
6.688977068742e-04
2.303085060028e-03
5.857326818035e-04
2.189476120213e-03
2.355579689137e-03
2.445889862330e-03
2.802558263842e-03
2.744026637898e-03
2.602808560419e-03
2.684708840118e-03
2.826586061781e-03
2.766497142391e-03
2.624541324737e-03
2.705683685322e-03
2.563725017959e-03
2.644320778115e-03
2.786864675323e-03
2.725067561073e-03
2.582491081381e-03
2.662728501265e-03
2.519949386855e-03
2.599485397657e-03
2.743101168067e-03
5.611178650181e-04
2.256781234671e-03
2.395814640838e-03
1.148192099538e-03
1.288607601742e-03
1.374043009777e-03
1.435326520902e-03
2.678567949694e-03
2.823036961214e-03
9.381447144588e-04
1.061692464830e-03
2.860158939054e-03
2.138502408103e-03
1.998568077488e-03
1.742369255635e-03
1.710511252955e-03
1.617856428588e-03
1.586470415250e-03
1.678087015742e-03
1.492405991196e-03
2.026407704600e-03
2.868109356044e-03
7.494213352185e-04
5.984585466797e-04
2.277196692190e-03
2.117816700623e-03
2.310739631316e-03
2.349836855563e-03
2.443277932720e-03
2.483110885777e-03
2.577705308973e-03
2.617534494385e-03
2.522757186761e-03
2.561751309190e-03
2.657689283898e-03
2.533922573417e-03
2.187822325564e-03
9.195770569767e-04
4.953995095887e-04
5.081733160867e-04
6.188128877446e-04
7.662681664698e-04
2.445903081475e-03
2.713393647439e-03
2.671181113482e-03
1.557722790648e-03
1.646311864668e-03
2.602051248469e-03
2.441576805564e-03
2.483552534623e-03
2.422101008052e-03
4.609691330910e-04
4.518389221435e-04
2.909102160916e-03
1.196141357505e-03
1.177830907570e-03
5.361912907681e-04
4.091613749686e-04
2.756794117721e-03
2.900443120372e-03
1.518875944425e-03
1.578480647334e-03
2.399833788792e-03
5.747347793123e-04
2.967316213770e-03
2.162158872189e-03
2.021960609508e-03
1.350047095334e-03
9.272392832582e-04
7.920624201102e-04
1.016078277876e-03
7.303309891252e-04
6.817544665316e-04
2.537438666807e-03
2.968633521211e-03
2.562730918169e-03
2.427268046585e-03
2.699158836136e-03
4.189074829893e-04
2.494286839211e-03
2.196675938484e-03
2.802841335677e-03
2.764095164077e-03
1.305667360485e-03
1.287870776525e-03
1.167321455946e-03
1.273381340410e-03
2.225322027399e-03
1.412202245444e-03
2.106380048494e-03
2.062767174146e-03
1.981738803507e-03
1.765888528104e-03
1.731750488733e-03
1.361105505203e-03
1.952389496732e-03
1.459855706799e-03
1.829152181563e-03
1.793462415123e-03
2.929205474780e-03
3.011484920081e-03
2.440176952923e-03
2.377503702847e-03
5.105805845520e-04
4.460954295599e-04
1.664620736007e-03
2.402958976895e-03
2.942874712912e-03
3.000690896883e-03
2.916314004572e-03
2.491244958442e-03
1.325101576714e-03
1.935614866347e-03
4.681961239685e-04
2.162055812147e-03
3.609573131518e-04
2.539072436430e-03
2.335517177278e-03
2.414364833706e-03
2.697125236943e-03
2.052105067683e-03
2.199576509134e-03
2.104561159150e-03
1.939051251729e-03
1.860490688963e-03
1.900337604101e-03
1.780115545673e-03
1.070369873810e-03
9.755930044247e-04
2.859997038105e-03
2.791502073533e-03
2.897852500233e-03
2.861188306062e-03
2.737754156616e-03
2.640877429042e-03
8.243155829194e-04
1.614317511189e-03
3.052144512753e-03
2.017664857455e-03
2.536791856028e-03
2.452726582132e-03
2.899355300619e-04
3.507861128778e-04
3.046224646943e-03
1.159021999051e-03
1.254749609392e-03
1.051473907286e-03
2.611235058785e-03
2.106131457950e-03
2.473571402274e-03
1.853060839044e-03
3.114227402206e-03
2.239385068265e-03
1.645051016836e-03
2.352568966125e-03
2.970418900770e-03
3.127507395013e-03
2.343046613680e-03
2.276530596607e-03
2.399602625631e-03
6.710576777710e-04
4.823215937790e-04
2.948635580678e-03
9.987395327940e-04
1.075114813009e-03
6.343992344852e-04
7.866528352632e-04
1.603395258483e-03
1.545892530901e-03
2.583965872534e-03
2.673808688972e-03
2.402455327230e-03
2.068030078558e-03
1.927054130798e-03
1.881734724704e-03
3.068980586768e-03
3.166805645244e-03
1.165556623356e-03
1.113584407677e-03
1.122964863792e-03
3.111539239379e-03
2.550206594419e-03
2.491440238667e-03
2.961106563243e-04
3.800587802971e-04
7.876825571947e-04
6.360676831234e-04
3.054210481488e-03
2.972536235018e-03
3.150758073403e-03
7.306610951272e-04
2.470052933101e-03
2.623488513806e-03
2.580432289867e-03
2.687259986395e-03
2.654500884749e-03
2.785383919958e-03
2.833886800722e-03
2.242153787526e-04
3.079006069154e-03
2.291466989868e-03
1.339302857709e-04
2.229947955132e-03
2.312658206885e-03
2.158132741580e-03
5.873190889560e-04
2.238414656911e-03
2.318396645117e-03
2.045289814561e-04
3.193255321840e-03
2.191707410692e-04
2.809941052553e-04
2.589708497159e-03
2.502052634430e-03
2.633125033866e-03
2.546005114260e-03
2.415559742698e-03
2.470184545776e-03
2.208667279684e-03
2.620764687036e-03
2.526551011054e-03
2.678088504296e-03
1.743392551092e-03
1.368692947164e-03
1.347139696477e-03
1.238251042235e-03
3.017487296308e-03
2.946297146477e-03
2.260253314582e-03
2.119490951538e-03
2.239231330810e-03
2.233035266035e-03
2.361878280368e-03
2.345524989430e-03
2.475090232927e-03
2.456432761767e-03
2.588918664735e-03
2.935120200126e-03
1.050842946137e-03
1.895936011146e-03
2.773610590152e-03
2.669301263248e-03
1.696659708567e-03
1.583411346100e-03
2.645979856330e-03
1.435681473282e-03
3.270286711597e-03
6.494847080860e-05
2.472128478034e-04
1.540174548432e-03
1.816859999864e-03
1.462951620649e-03
1.442853516516e-03
2.210192921551e-03
3.210866541100e-04
9.280348127493e-04
2.604209743346e-03
8.016291150922e-04
2.192056288848e-03
1.467051637768e-03
1.888749372944e-03
1.052859137612e-03
1.394063084633e-03
2.272322844336e-03
2.177323847464e-03
2.097964734083e-03
1.500454512038e-03
1.531047987949e-03
1.408617471140e-03
2.148642518451e-03
2.831651684401e-03
2.885831560476e-03
3.021966345137e-03
2.938246964189e-03
2.799747370295e-03
2.851579558154e-03
2.991247871753e-03
2.906376448524e-03
3.069825098486e-03
2.954372648314e-03
2.811972860735e-03
2.856523961425e-03
2.986692948237e-03
2.718152734595e-03
2.867181824537e-03
1.672765834361e-03
3.470946201946e-04
3.902751432903e-04
1.976824793245e-03
3.221313465870e-03
3.249722603177e-03
1.221451424407e-03
3.145439268216e-03
2.143935552705e-03
8.346752459845e-04
3.102223417116e-03
2.746429666571e-03
2.659810879823e-03
2.607270195835e-03
3.274856738113e-03
2.460576712863e-03
3.007292603914e-03
2.090987112194e-03
2.049744331951e-03
1.912366150030e-03
2.762120511938e-03
2.896237849813e-03
2.772285443745e-03
2.751234375515e-03
2.637702793758e-03
2.853167664542e-03
3.207061838289e-03
3.194365824157e-03
9.614571434252e-04
1.062382976549e-03
1.212280602611e-03
1.163804680960e-03
1.011315324348e-03
1.115869756925e-03
1.265147603580e-03
1.069567775464e-03
2.811422491834e-03
2.818702374344e-03
1.935847127215e-03
1.884495198655e-03
1.742255416275e-03
1.401515885471e-03
1.488621318408e-03
1.632420159609e-03
1.314943877082e-03
2.388447417714e-03
2.800502881446e-03
1.978249763608e-03
1.431478215897e-03
2.090419108616e-03
2.209250569530e-03
2.204222116633e-03
2.339572393621e-03
2.227518689160e-03
1.661324748640e-03
1.719737661659e-03
1.638745004170e-03
1.778605058389e-03
1.695710756878e-03
1.565645783974e-03
1.835443192123e-03
1.743881897989e-03
2.097655642008e-03
4.131877726485e-05
1.798663894332e-04
1.756654627971e-04
3.145368117478e-04
3.300871031549e-04
4.764710938216e-04
4.628543758132e-04
1.822442995526e-04
4.919586734919e-05
1.779649435028e-04
5.365884230415e-05
1.761259097243e-04
3.313898953268e-04
5.381810044031e-04
2.693484470539e-03
1.342757720759e-03
1.273198734203e-03
1.134455055234e-03
1.210299611388e-03
1.400594443412e-03
1.056428876385e-03
1.004319589334e-03
8.753373622154e-05
1.999909498420e-04
1.860475983743e-04
3.240570888188e-04
3.219647798948e-04
2.007544535435e-04
1.995453571106e-04
8.341831947241e-05
1.983658101832e-04
3.270221040481e-04
7.793866809400e-05
2.778525551135e-03
2.856273344906e-03
2.764503862809e-03
2.119756764417e-03
6.568627580913e-05
3.279033711082e-03
3.296977975799e-03
3.302580725784e-03
2.473989901694e-03
2.544145008744e-03
3.285078611429e-03
8.993506500213e-04
3.073587637359e-03
3.029261085810e-03
8.084463865111e-04
8.815732682488e-04
2.057492206410e-03
1.915200352040e-03
2.357200981047e-03
1.941313635327e-03
2.248603593734e-03
2.719504581772e-03
5.393229526814e-04
2.501825769045e-03
2.456672933773e-03
2.805848303945e-03
9.353439947913e-04
1.501659317542e-03
5.758692715167e-04
2.999009116970e-03
2.023163444988e-03
1.649972224230e-03
1.255557225928e-03
9.899994148621e-04
8.243613356033e-04
1.773066625278e-03
1.520641582159e-03
2.177393396078e-03
2.886406687699e-03
8.346211472516e-05
2.266056118265e-03
1.807336782904e-03
2.543215758992e-03
2.406613313394e-03
5.521370677375e-04
2.848113167236e-03
3.078231456217e-03
2.379399182172e-03
4.266612831028e-04
2.357295708884e-03
2.581236635420e-03
2.776061065826e-03
8.504821526105e-04
1.795139322511e-03
1.924964967090e-03
1.929897496796e-03
3.087987530011e-03
1.971255559459e-03
2.490260686056e-03
2.075241763921e-03
9.143628416486e-04
2.366188792536e-03
1.813691107776e-03
2.990839539743e-03
2.536146260758e-03
1.469437151730e-03
2.885195733284e-03
1.692260569699e-03
2.504211182249e-03
1.939135091214e-03
2.270980006686e-03
2.494274872783e-03
2.125388392470e-03
1.977880223899e-03
2.315802309979e-03
6.375166619146e-04
1.518833259988e-03
2.521488532809e-03
2.749404160209e-03
3.132677695489e-03
1.800482808900e-03
2.279817398033e-03
3.024085066155e-03
1.576193148073e-03
6.247788920374e-04
6.543595210994e-04
1.178030845120e-03
1.874237504483e-03
1.719322123906e-03
3.124796840908e-03
2.332330448384e-03
2.259522613605e-03
4.500529780943e-04
1.973892375039e-03
2.386126013382e-03
1.838050795068e-03
2.541002094001e-03
1.609873158924e-03
2.972332209304e-03
1.664285837199e-03
2.442551801102e-03
2.303967243735e-03
1.330778727020e-03
2.110278988377e-03
2.597434208966e-03
2.444242533489e-03
2.256122071041e-03
1.740855723919e-03
1.779260130957e-03
1.774357379149e-03
2.360874794889e-03
3.283830555062e-03
2.530341478527e-03
2.521854312577e-03
1.688351562115e-03
2.282361443487e-03
3.228877072671e-04
1.820484850770e-03
1.744710078613e-03
1.220177469638e-03
1.786344426663e-03
2.828625793957e-03
1.801857785997e-03
1.366929708375e-03
1.859443936101e-03
1.631139200227e-03
2.573386377977e-03
1.917411527621e-03
2.493379044785e-03
3.380536990106e-04
2.293712107102e-03
2.401410685450e-03
1.174979768277e-03
1.834022868344e-03
2.711807915300e-03
1.481782195567e-03
1.975561872460e-03
2.628315611870e-03
2.333481648980e-03
2.009182982628e-03
2.117695026303e-03
1.505887499593e-03
8.406194486911e-04
6.908864642738e-04
1.410549655264e-03
2.720705603753e-03
4.458399516923e-04
2.671683333322e-03
4.781628081740e-04
1.311052982825e-03
2.517884566038e-03
2.501483438727e-03
1.357875915717e-03
7.703262654462e-04
1.261151098638e-03
2.144896240693e-03
1.311209847217e-03
1.217124172167e-03
3.170257270507e-03
1.268706530084e-03
3.310746053279e-03
2.698057062512e-03
2.218947686202e-03
1.333138285343e-03
3.888342088720e-05
1.340712521535e-03
1.029069264817e-03
2.627350166747e-03
2.224538500078e-03
9.353274709588e-04
3.089644440630e-03
3.057322732220e-03
2.708843333208e-03
2.575479481993e-03
2.377921503134e-03
3.047927124332e-03
2.097265146959e-03
1.772679773003e-04
2.048448422470e-03
1.183979425916e-03
1.145285307579e-03
9.390711136127e-04
9.635543878848e-04
3.098973347102e-04
1.048339999026e-03
2.784993538266e-03
2.216579842550e-03
2.607201483094e-03
8.398272000874e-04
3.160259888393e-03
2.894771188549e-03
2.749990035860e-03
2.745247118916e-03
6.326150405610e-04
2.318706874791e-03
3.018370437932e-03
2.821151386351e-03
2.743544265370e-03
2.193237323024e-03
3.192539393117e-03
5.342853536248e-04
3.195817041575e-03
2.764229152577e-03
2.396713996416e-03
2.299330981783e-03
2.609593061175e-03
3.114898921148e-03
4.481412229815e-04
2.700546153502e-03
1.214189757104e-03
1.615974844435e-04
2.652756996225e-03
2.896415181158e-03
2.606522394310e-03
3.182693478477e-04
1.667885813303e-04
2.700340626366e-03
3.073788827882e-03
6.020330680624e-04
3.316440777591e-03
2.415245724876e-04
2.079561811953e-03
1.841617413115e-04
2.730788523043e-03
3.189576802115e-03
1.338259560983e-03
2.085762086897e-03
8.688087966632e-04
2.861356761539e-03
2.843556145308e-04
3.207425445948e-03
2.739087839116e-03
3.172440140148e-03
2.980538660923e-03
1.741833605783e-04
2.952429699915e-03
2.644481946206e-03
2.097288434038e-03
3.137726792192e-03
1.080422204439e-03
4.391613010440e-04
3.327054919272e-03
6.409547808098e-05
2.090801317265e-03
2.725796661004e-03
4.185521290041e-04
2.323515215714e-03
3.096918055439e-03
1.645059643825e-03
2.966120308059e-03
4.189303975947e-04
1.278213843882e-05
2.576674153599e-03
2.896474588106e-03
3.193301033660e-03
2.475544464992e-03
5.255038701316e-04
3.003613223585e-03
1.448362413386e-03
2.917092675423e-03
2.686533418930e-03
8.995942715552e-05
1.769151647286e-03
1.635867433075e-04
2.657724052621e-03
1.508678347963e-03
9.564058120632e-04
9.235262444906e-04
1.052267428599e-03
1.061514148665e-03
1.177873943385e-03
1.212556534535e-03
1.311238415032e-03
1.346607975779e-03
1.447421657972e-03
1.496913198200e-03
1.588152848826e-03
1.630666033758e-03
1.731066511936e-03
1.780963865623e-03
1.875954680720e-03
1.913895781736e-03

SCALARS node_materi_strain_total_size_dev_sd_ept float
LOOKUP_TABLE default
9.078082230440e-05
5.100905194080e-03
6.718691287580e-03
8.254401341782e-03
2.484865183783e-04
5.606795313005e-04
8.433457810754e-04
1.171302702676e-03
1.489350010382e-03
1.801891366206e-03
2.119031175627e-03
2.441668790677e-03
2.769344327093e-03
3.109322140252e-03
3.468220843840e-03
3.815627906817e-03
4.137773911175e-03
4.506895787894e-03
4.893275483202e-03
5.276715433737e-03
5.673500524962e-03
6.083445168474e-03
6.478546945752e-03
8.269147287409e-03
8.253443548224e-03
8.256864949230e-03
8.255367539911e-03
8.243560598035e-03
8.250391931935e-03
8.248302178301e-03
8.240378443455e-03
8.245449176144e-03
8.238183489436e-03
8.221232132271e-03
8.220035978413e-03
8.211812188665e-03
8.193754533804e-03
8.172190337139e-03
8.143364067530e-03
8.119191810880e-03
8.099745411821e-03
8.075220325856e-03
8.045350494394e-03
8.003568317882e-03
7.956490422297e-03
7.906013242899e-03
7.850198018535e-03
7.793972873653e-03
7.734509817781e-03
7.671170631811e-03
7.602479879610e-03
7.530152184575e-03
7.473017563467e-03
7.395725456549e-03
7.308469010993e-03
7.236609605684e-03
7.179414288397e-03
7.119714843769e-03
7.066246258893e-03
7.014778021155e-03
6.964301670003e-03
6.914723507504e-03
6.872286641436e-03
6.848678873139e-03
6.837619687846e-03
6.819846369842e-03
6.747243776682e-03
6.773811587981e-03
6.747630854630e-03
6.747317637594e-03
6.753292881330e-03
6.748206882534e-03
5.444426177357e-03
5.791247626622e-03
6.127153663789e-03
6.453527468838e-03
6.783706943222e-03
7.108514714738e-03
7.430016631320e-03
7.745160978049e-03
8.066058685820e-03
6.148111615843e-04
5.163346281534e-03
1.413521189963e-03
2.207042621024e-03
2.562836371767e-03
2.946816583556e-03
3.330076177183e-03
3.703717720620e-03
4.073778218443e-03
4.436347719484e-03
4.791869003758e-03
2.442745135737e-03
2.639660812375e-03
2.979691358634e-03
3.330388318429e-03
3.683145096575e-03
4.036015298694e-03
4.387479447458e-03
4.734620889301e-03
5.050531803950e-03
5.071480278714e-03
5.076030739963e-03
5.074246702692e-03
5.122774826687e-03
5.086950933261e-03
5.086418328736e-03
5.095098789456e-03
5.110911693202e-03
5.115718682579e-03
5.118587833140e-03
5.123842978443e-03
5.129122820484e-03
5.139992882562e-03
5.371155470794e-04
5.687368312011e-04
5.484823755534e-04
4.995963957859e-04
4.542526618555e-04
4.191357387212e-04
3.775292622707e-04
3.346255336297e-04
2.965336417290e-04
2.603547651557e-04
2.290756444540e-04
2.191670436218e-04
1.828641060243e-04
1.443162088816e-04
1.271732510292e-04
1.216834030501e-04
1.124384843512e-04
9.146323634843e-05
8.050556358773e-05
2.190128167532e-03
2.204475763068e-03
2.213592838602e-03
2.212857112517e-03
2.220544083482e-03
2.231550654563e-03
2.246736465699e-03
2.263528100643e-03
2.281621062714e-03
2.299802432432e-03
2.317654601138e-03
2.334764713063e-03
2.350905312681e-03
2.365894770439e-03
2.379640032022e-03
2.392085506860e-03
2.403200631178e-03
2.412970834974e-03
2.421383893507e-03
2.428398415644e-03
2.433908318432e-03
2.437706415378e-03
2.439466973635e-03
2.438972272691e-03
2.439786215293e-03
2.467788771110e-03
2.448190798526e-03
2.506981549316e-03
2.476851034996e-03
2.475947538012e-03
2.479334763124e-03
2.485594783136e-03
2.495118357985e-03
2.506081907254e-03
2.517871904437e-03
2.529909981968e-03
2.541825127532e-03
2.553327580771e-03
2.564221125882e-03
2.574354550622e-03
2.583599459406e-03
2.591867530273e-03
2.599107059008e-03
2.605277949438e-03
2.610336156756e-03
2.614232674862e-03
2.616946002378e-03
2.618598481603e-03
2.620101835802e-03
2.626207116438e-03
2.637394745727e-03
2.980716159768e-03
2.978255789988e-03
2.975123406488e-03
2.972768789504e-03
2.970713247801e-03
2.968453854936e-03
2.965703774591e-03
2.962344660577e-03
2.958372145301e-03
2.953822664154e-03
2.948763694987e-03
2.943285724454e-03
2.937588530512e-03
2.931907253410e-03
2.926511397939e-03
2.921525659851e-03
2.917484474227e-03
2.914423071734e-03
2.913560487091e-03
2.913934111991e-03
2.918332146686e-03
2.943514738028e-03
2.879681204031e-03
3.278294129261e-03
3.343495950549e-03
3.323845629467e-03
3.319855937727e-03
3.317764747873e-03
3.315560381140e-03
3.314868440265e-03
3.314737488178e-03
3.315503367699e-03
3.316899468962e-03
3.318602750072e-03
3.320271069337e-03
3.321873797402e-03
3.323368146042e-03
3.324680435179e-03
3.325758114867e-03
3.326658412224e-03
3.327606674099e-03
3.328843842856e-03
3.330406872892e-03
3.331316077210e-03
3.330644782326e-03
3.683348085516e-03
3.683645025877e-03
3.683476592873e-03
3.683413131620e-03
3.683651046381e-03
3.684218834846e-03
3.684956859739e-03
3.685652419000e-03
3.686409723331e-03
3.687452356118e-03
3.688731568589e-03
3.690098708464e-03
3.691453126114e-03
3.693647826248e-03
3.696734068654e-03
3.701069089239e-03
3.704433988665e-03
3.708025646604e-03
3.728281356054e-03
3.659902247713e-03
4.028915595953e-03
4.098979140702e-03
4.080658967956e-03
4.075033616139e-03
4.069810799067e-03
4.064861768816e-03
4.061588343298e-03
4.057832820156e-03
4.054080105163e-03
4.050422543163e-03
4.047575213446e-03
4.045312605945e-03
4.042783355724e-03
4.040576202683e-03
4.038875319473e-03
4.037663410639e-03
4.036809023723e-03
4.036540998778e-03
4.036270130868e-03
4.389050380833e-03
4.388408328164e-03
4.389424280704e-03
4.391632271315e-03
4.393694252707e-03
4.397007931803e-03
4.400790678160e-03
4.404726375750e-03
4.407934477461e-03
4.413411948860e-03
4.419033557064e-03
4.424057772604e-03
4.429663489927e-03
4.432931777393e-03
4.439097466583e-03
4.461531055178e-03
4.393298183153e-03
4.746362144690e-03
4.813338380984e-03
4.793520743106e-03
4.785861773521e-03
4.780608894114e-03
4.774964479322e-03
4.767724448911e-03
4.762248988349e-03
4.757264387152e-03
4.752389063449e-03
4.747961841636e-03
4.744239361706e-03
4.742499423984e-03
4.738814473270e-03
4.740185804466e-03
4.743087830885e-03
9.980936657200e-04
1.835399980102e-03
2.431866874038e-03
2.807534800204e-03
3.176796852085e-03
3.553538135292e-03
3.926301398298e-03
4.289663491648e-03
4.646904178736e-03
4.999126797454e-03
2.064277001721e-03
7.032668134659e-03
3.345073067945e-04
4.487695898907e-04
6.759263324007e-03
3.139355245682e-03
3.299892310226e-03
7.317971544994e-03
3.847200697889e-03
7.629208719477e-03
4.588158203779e-03
6.653981178272e-03
2.379614494118e-04
7.864324955841e-03
5.300660515446e-03
1.974355909934e-03
4.266903902862e-03
7.967899749340e-03
8.070657689369e-03
8.125434882980e-03
8.091548818844e-03
8.109750306260e-03
5.450440125448e-03
5.429827486551e-03
5.435385034216e-03
6.620716707332e-03
6.582167179086e-03
4.766800352882e-04
2.154382248717e-04
5.460965784155e-03
5.383890762583e-03
1.007364322947e-03
7.984646560199e-03
7.504666668637e-03
7.759228313163e-03
7.160413693518e-03
6.921717101662e-03
4.175086073066e-04
5.429570082736e-03
6.620332872692e-03
7.264720813580e-03
2.942370909499e-04
2.606978211214e-03
8.173460014170e-03
3.520647303051e-03
2.739355968403e-03
4.223391503126e-03
4.943071011953e-03
1.109119494727e-03
5.984804591535e-03
6.633304913864e-03
1.866502572079e-04
7.886498212012e-03
5.461393147709e-03
5.597720251453e-03
5.757552151332e-03
5.912125225845e-03
6.088190242882e-03
6.220370027462e-03
6.042939414300e-03
6.346056429727e-03
6.164165306854e-03
6.397460724642e-03
6.463767737096e-03
6.277054355580e-03
6.572801076607e-03
6.381345805284e-03
6.087414696647e-03
6.185562506276e-03
5.892826605215e-03
5.984054355702e-03
6.274013130732e-03
6.064147369372e-03
5.775527846388e-03
5.846139241298e-03
5.560005034515e-03
5.619941252048e-03
5.335501939930e-03
5.383714321356e-03
5.669210816233e-03
5.420717838503e-03
5.136126739374e-03
5.159837784698e-03
4.875217752795e-03
4.884018472750e-03
5.177234993296e-03
4.890158422919e-03
4.590362352936e-03
4.588302868308e-03
4.279809460006e-03
4.272905630648e-03
3.952436118097e-03
3.943245946979e-03
4.276674399540e-03
3.950266452107e-03
3.604341492253e-03
3.620068748468e-03
3.975621447960e-03
3.656939671090e-03
4.019162119834e-03
3.713064696006e-03
3.348162259606e-03
3.418499679186e-03
3.785226609466e-03
3.502923722507e-03
3.139014966421e-03
3.237027401095e-03
3.600789131305e-03
3.345749947331e-03
2.988340217129e-03
3.106694241749e-03
3.464956629763e-03
3.231566468357e-03
2.881937111724e-03
3.011783493688e-03
3.363333970450e-03
3.146029204405e-03
3.499618049775e-03
2.801198403334e-03
2.938292065492e-03
2.599729779923e-03
2.739656526720e-03
5.193959356823e-03
2.407686139711e-03
2.272994632171e-03
2.548738192847e-03
2.883948607591e-03
2.222126372501e-03
2.363462583711e-03
2.042270222342e-03
3.969308179421e-03
6.353254988086e-03
2.182870382877e-03
1.865936252798e-03
1.728053687920e-03
1.554597051054e-03
6.261827834544e-03
6.575001991513e-03
6.429072825368e-03
6.750388629557e-03
6.609453616678e-03
1.690348894607e-03
6.762230412105e-03
6.884535528272e-03
5.487852057112e-03
4.856512388306e-03
4.331743492157e-03
2.506435777472e-03
2.325136575353e-03
2.651968375040e-03
3.724028314943e-03
3.861129057968e-03
4.091912060696e-03
4.229539931642e-03
4.466069876259e-03
4.604675585723e-03
4.371528832178e-03
4.748061871055e-03
4.517420003711e-03
4.846215433059e-03
4.711301677199e-03
4.895444649271e-03
4.666907444574e-03
5.046874473577e-03
4.819585470965e-03
4.444716681664e-03
4.597799320653e-03
4.230134590145e-03
4.381693538876e-03
4.688962905958e-03
4.744601354529e-03
5.046886694372e-03
5.108719987066e-03
5.406225630369e-03
5.474146286002e-03
5.182887149756e-03
6.672347469210e-03
3.263750792189e-03
3.257654868639e-03
2.905644006183e-03
2.910017286046e-03
2.544885376919e-03
2.561029462942e-03
2.180997752178e-03
2.195906004088e-03
1.826111143185e-03
1.877641318086e-03
1.514550929715e-03
1.600350079388e-03
5.709963599373e-03
5.348818668985e-03
5.703283134340e-03
5.645099312362e-03
1.420272955347e-03
4.975182955751e-03
5.096207068509e-03
4.964149511651e-03
5.555571364455e-03
1.383946882577e-03
2.210831004213e-03
2.616312810810e-03
6.923507607511e-03
6.782192071598e-03
5.354381748340e-03
1.517169733073e-03
5.131799720651e-03
1.460432453198e-03
4.753309388942e-03
5.133188418478e-03
4.147286501886e-03
5.995743694346e-03
5.933353388458e-03
1.960441536139e-03
1.709038455811e-03
1.377350662974e-03
1.504243065140e-03
1.828416584933e-03
1.620682615793e-03
1.308587318715e-03
1.435792732688e-03
1.750079744896e-03
1.566762352381e-03
1.264705366813e-03
1.394233057114e-03
5.360097665124e-03
1.165581188677e-03
5.790955188655e-03
5.486265514492e-03
5.840064595916e-03
7.095822520438e-03
6.954871380484e-03
6.635157743322e-03
6.810333560752e-03
7.127974565321e-03
6.984152444639e-03
6.662195440874e-03
6.836295560367e-03
6.510028861337e-03
6.685783746861e-03
7.010033385492e-03
6.861430660138e-03
6.534327293690e-03
6.710940533535e-03
6.380762862934e-03
6.556742533952e-03
6.887258432737e-03
1.219194866182e-03
5.269772633720e-03
5.652811362477e-03
2.479409035341e-03
2.794046208031e-03
2.984972891647e-03
3.134868380334e-03
6.732901834845e-03
7.064480429752e-03
2.289678284043e-03
2.710617973926e-03
7.231760643791e-03
4.913232510037e-03
4.538958691136e-03
4.596884626187e-03
4.581091029449e-03
4.323036383427e-03
4.304126661856e-03
4.546470055324e-03
4.048286753210e-03
4.579014912993e-03
7.184138165857e-03
1.593188141572e-03
1.289676667076e-03
5.296996225291e-03
4.893926666478e-03
5.958781155001e-03
6.004053575161e-03
6.252827361428e-03
6.302667589690e-03
6.550632047944e-03
6.604513034499e-03
6.351471461367e-03
6.279744307971e-03
6.660561674784e-03
6.395186791722e-03
5.296998479008e-03
1.884085903170e-03
1.085219127445e-03
1.095718245194e-03
1.339327322063e-03
1.651902692833e-03
5.748387883143e-03
6.851115273204e-03
6.786432321549e-03
4.266125752177e-03
4.491513042796e-03
6.345863173100e-03
6.286209089179e-03
6.334848585650e-03
6.177241918869e-03
1.004680779881e-03
9.834901763553e-04
7.300498789269e-03
3.009986192868e-03
3.100172961873e-03
1.106479176346e-03
8.457068127915e-04
6.905002864956e-03
7.231876021559e-03
3.325216727063e-03
3.477211976983e-03
5.621301993124e-03
1.227927559134e-03
7.387405557301e-03
4.989491337424e-03
4.611257889749e-03
2.939921001002e-03
2.419127610697e-03
1.964673003836e-03
2.079813516947e-03
1.526403315220e-03
1.473749503202e-03
6.018799526356e-03
7.437693824733e-03
6.403372622042e-03
6.087224764350e-03
6.719705056425e-03
9.431347159173e-04
5.888588816681e-03
5.078445528726e-03
7.074319670570e-03
7.010825806303e-03
3.377081264892e-03
3.451574532357e-03
3.196793450065e-03
3.509013432149e-03
5.862362716225e-03
3.717859701521e-03
5.598581904503e-03
5.491505074430e-03
5.302882524589e-03
4.772627673967e-03
4.703159036979e-03
3.275490666328e-03
4.645350354913e-03
3.177427777459e-03
4.079473329072e-03
3.958643637017e-03
7.327661978928e-03
7.502686195466e-03
6.201996032325e-03
6.042303224072e-03
1.117134669110e-03
9.932032153150e-04
3.640386187343e-03
5.623806534646e-03
7.400258061160e-03
7.531462734434e-03
7.360645953623e-03
5.890465255518e-03
2.931278036096e-03
4.445489504432e-03
9.457064594658e-04
5.475228481250e-03
8.223955692627e-04
6.562423655451e-03
5.465129933062e-03
5.686265695547e-03
6.619463607456e-03
5.429476833621e-03
5.502639006753e-03
5.215698760515e-03
5.189952682454e-03
5.005135512889e-03
5.109992713447e-03
4.814104394513e-03
2.210178304577e-03
2.016316494196e-03
7.175279794689e-03
6.967301771723e-03
7.295285542273e-03
7.232145087220e-03
6.691841810876e-03
6.414905368634e-03
1.780424616385e-03
4.414092259714e-03
7.607994611309e-03
5.372134019239e-03
6.020773269305e-03
5.770234047892e-03
6.720206339303e-04
7.738463378632e-04
7.559552669543e-03
3.260732341223e-03
3.516234755876e-03
2.953746919022e-03
6.274577436046e-03
5.368834836449e-03
5.858865856113e-03
4.990350571157e-03
7.712278447205e-03
5.538558779610e-03
4.312610123245e-03
5.498782852436e-03
7.386404484383e-03
7.740880671682e-03
5.998942777930e-03
5.830719212636e-03
6.149303116445e-03
1.450997202195e-03
1.084185167941e-03
7.357501668157e-03
2.148279492034e-03
2.325471309744e-03
1.349384717682e-03
1.650112446136e-03
3.522164642178e-03
3.374204652912e-03
6.643477313946e-03
6.852948118495e-03
6.197059050813e-03
4.715272104408e-03
4.337958031648e-03
4.238959263544e-03
7.634724017375e-03
7.842316285222e-03
2.416630304253e-03
2.292647604555e-03
2.338204333378e-03
7.742069131238e-03
6.080505312624e-03
5.913837989692e-03
7.101328733674e-04
8.721990738839e-04
2.123221377328e-03
1.629132793437e-03
7.648000679661e-03
7.486905947101e-03
7.842138178349e-03
1.580906053033e-03
6.140801203679e-03
6.279210372941e-03
6.158111370855e-03
6.463695961052e-03
6.545974023417e-03
6.870691258679e-03
7.037474470682e-03
5.773066887856e-04
7.627867429160e-03
5.846802872829e-03
5.128040104485e-04
5.687017377657e-03
5.881155589206e-03
5.508505647941e-03
1.274225984133e-03
5.761233443898e-03
5.970078262909e-03
5.421376750658e-04
7.906014691306e-03
5.546608651641e-04
6.590785848081e-04
6.168630190132e-03
5.915764589319e-03
6.310355378395e-03
6.058986218147e-03
5.668519833763e-03
5.831182789143e-03
5.659103253577e-03
6.279931459064e-03
6.002815586899e-03
6.454060409254e-03
4.707047509291e-03
3.776625200864e-03
3.756228937474e-03
3.463574609413e-03
7.556080967149e-03
7.423576548020e-03
5.256929548871e-03
4.872241763957e-03
5.702076549095e-03
5.680070743793e-03
5.989915049810e-03
5.946287749624e-03
6.254939428597e-03
6.204254581571e-03
6.515757241952e-03
7.298675064881e-03
3.003800920872e-03
5.068046538214e-03
6.767573316038e-03
6.471959519292e-03
4.613626360425e-03
4.320126265134e-03
6.343728202676e-03
3.665182607197e-03
8.074615121464e-03
5.334681648981e-04
6.816615196037e-04
3.996646260654e-03
4.909826434386e-03
4.022625896144e-03
3.985494690125e-03
5.102217496286e-03
7.629874566923e-04
2.580072160540e-03
6.555119546180e-03
2.308079691717e-03
5.069780639613e-03
3.630861382077e-03
5.053326333136e-03
2.835872707543e-03
3.770091067701e-03
5.979288645325e-03
5.737055115552e-03
5.557048918251e-03
3.609264048251e-03
4.208464307766e-03
3.881736488749e-03
5.692984056551e-03
7.188525573255e-03
7.311318343525e-03
7.592844503678e-03
7.426441455699e-03
7.135033780107e-03
7.248226248653e-03
7.535031845724e-03
7.361731493490e-03
7.694322830292e-03
7.458182157890e-03
7.164223531695e-03
7.255138827735e-03
7.522225208389e-03
6.964693985416e-03
7.037332774025e-03
4.291593117398e-03
7.707287248279e-04
1.009953760612e-03
5.275209205902e-03
7.990503721263e-03
8.048002034509e-03
2.944653547396e-03
7.811342968216e-03
5.678126795473e-03
1.816918303166e-03
7.697412537193e-03
7.012987688615e-03
6.831798932506e-03
6.706306150947e-03
8.091454789720e-03
6.307659023903e-03
7.431921863432e-03
4.996182537963e-03
4.952817225342e-03
4.612736915885e-03
7.060488379717e-03
7.101072288599e-03
6.740238406221e-03
6.669532049000e-03
6.354348748661e-03
6.968775943936e-03
7.955166318659e-03
7.924530999947e-03
1.951084520776e-03
2.174407426300e-03
2.526233338093e-03
2.420957309646e-03
2.061952995270e-03
2.325875171512e-03
2.690896765488e-03
2.247219965865e-03
7.143873006697e-03
6.867514231000e-03
4.331886043738e-03
4.200987501995e-03
3.830111199231e-03
3.030567545612e-03
3.227040709221e-03
3.576513192204e-03
2.839461345841e-03
6.045211302166e-03
6.814779756177e-03
4.522033428351e-03
3.080916967040e-03
5.443511182801e-03
5.741158985772e-03
5.750729943371e-03
6.060516483966e-03
5.766326569041e-03
3.672574106223e-03
3.824302498683e-03
3.629536614887e-03
3.976768110113e-03
3.772666052319e-03
3.453244068492e-03
4.123258339492e-03
3.896695326003e-03
5.426733684973e-03
4.373525995862e-04
5.654498169904e-04
5.545861484125e-04
7.560736777702e-04
7.635847255213e-04
1.001952410528e-03
9.615571470574e-04
5.639055606345e-04
3.889469452596e-04
5.419346046279e-04
3.582357610212e-04
5.230577688566e-04
7.832988896070e-04
1.169707139321e-03
6.520415179827e-03
2.936588470291e-03
2.777051516865e-03
2.458693879872e-03
2.630069129403e-03
3.070887125845e-03
2.287212051278e-03
2.171633260805e-03
2.051247481280e-04
4.439538199210e-04
4.209259165612e-04
7.157691646733e-04
7.093468019793e-04
4.500396076377e-04
4.569548091243e-04
2.205181595842e-04
4.612062471015e-04
7.281613312705e-04
2.224537536833e-04
6.950026786693e-03
7.128904111491e-03
6.711315183713e-03
5.450559523908e-03
3.108616905790e-04
8.076676097695e-03
8.120772211464e-03
8.127942737976e-03
5.866471322378e-03
6.067211927914e-03
8.087356468419e-03
1.903041788862e-03
7.702223318251e-03
7.531216011853e-03
1.861783648754e-03
1.831988993829e-03
4.700170560994e-03
4.294878378826e-03
5.519891560011e-03
4.383664717102e-03
5.202146234780e-03
6.568445035583e-03
1.170733590138e-03
6.355001055909e-03
6.223282019063e-03
7.036885429759e-03
2.005574888016e-03
3.297115835693e-03
1.250704838573e-03
7.484152567936e-03
5.402447358099e-03
3.591507458603e-03
2.693087780581e-03
2.084577938067e-03
1.701356022317e-03
4.595937366640e-03
3.285592853528e-03
4.986433546755e-03
7.212610427878e-03
3.053267786160e-04
5.232128454200e-03
4.002371294657e-03
6.486946640355e-03
5.767068121572e-03
1.149419888658e-03
7.156657701307e-03
7.686881445085e-03
6.128225003642e-03
9.486083353681e-04
6.016117474346e-03
6.150689151233e-03
7.059148199301e-03
1.828131935537e-03
4.079191460327e-03
5.101753947323e-03
5.117916564010e-03
7.666127464260e-03
4.899550281193e-03
5.936328725026e-03
4.813041534869e-03
1.970437069844e-03
5.522622080718e-03
4.296677272683e-03
7.471360490586e-03
6.490878487292e-03
3.294991126321e-03
7.266028876600e-03
3.709774628045e-03
6.059748396929e-03
5.200573955938e-03
5.906688593514e-03
6.475505335444e-03
5.450021609554e-03
4.493659894641e-03
5.375434970323e-03
1.257498728684e-03
4.037760159217e-03
6.459922667085e-03
6.901101330165e-03
7.776947106865e-03
4.823400019531e-03
5.279921325349e-03
7.565264757683e-03
3.429629726795e-03
1.353376585246e-03
1.530038628372e-03
2.565031021113e-03
4.593878605983e-03
3.785002750170e-03
7.799458649703e-03
5.432995045475e-03
5.226733250026e-03
1.576559095738e-03
5.247710722287e-03
5.591755016732e-03
4.153135742760e-03
6.125930161031e-03
3.563506671483e-03
7.408410525655e-03
4.515648855344e-03
5.760537878779e-03
5.378035117890e-03
3.315814004748e-03
5.381344069249e-03
6.219715713373e-03
5.771985943862e-03
5.745093377604e-03
3.870245718582e-03
4.763961080620e-03
3.931833582806e-03
6.134187833927e-03
8.106135732379e-03
6.035186377825e-03
6.524870597525e-03
3.723577219579e-03
5.587274437435e-03
7.128448835196e-04
4.889731356525e-03
3.872811722341e-03
2.616441028654e-03
3.967719818056e-03
6.953661949615e-03
4.024573322662e-03
2.983262263494e-03
4.177812484163e-03
4.404967896491e-03
6.648607084226e-03
4.331132912660e-03
6.424681525829e-03
7.606585777262e-04
5.778173925869e-03
5.654018223115e-03
2.466563040151e-03
4.077810628765e-03
6.951173143687e-03
4.036339529085e-03
4.452239493094e-03
6.718104456487e-03
5.817658264565e-03
4.919529775921e-03
4.835349393871e-03
4.129108415934e-03
1.770970710318e-03
1.467863399123e-03
3.054118226748e-03
6.937225273558e-03
9.760600530128e-04
6.868356723953e-03
1.052082668628e-03
2.779642518791e-03
6.211580446080e-03
6.309774006424e-03
2.879487141368e-03
1.664746991797e-03
2.638518964152e-03
5.249761228348e-03
2.758097450628e-03
2.542312949453e-03
7.842505253988e-03
2.670088448743e-03
8.138584666659e-03
6.531240516147e-03
5.640720928757e-03
3.645227699135e-03
4.875142171252e-04
3.728914631298e-03
2.144272692636e-03
6.764333233275e-03
5.654639036543e-03
1.957222139605e-03
7.728613811994e-03
7.573132346978e-03
6.791460953790e-03
6.200802324744e-03
5.872403490128e-03
7.560882578123e-03
5.367135306552e-03
5.105768441087e-04
4.683203985937e-03
3.264744856996e-03
3.242947141334e-03
2.710562301575e-03
2.084142351986e-03
7.483093396924e-04
2.949239859058e-03
6.791299296578e-03
5.693269450785e-03
6.467344609014e-03
2.452937213571e-03
7.852528031032e-03
7.162732934706e-03
6.674098385403e-03
6.797964334186e-03
1.815934056422e-03
5.993857305601e-03
7.544472783422e-03
7.050114403236e-03
6.654075510994e-03
5.663621261118e-03
7.883501399167e-03
1.063583653790e-03
7.887020423497e-03
7.056393772995e-03
6.074747422229e-03
5.982178975039e-03
6.265648758520e-03
7.786083615184e-03
1.282904591739e-03
6.773251408212e-03
2.631792150209e-03
5.338939939097e-04
6.370299929216e-03
7.331346756225e-03
6.257013362435e-03
7.049859801419e-04
4.642094382800e-04
6.507693986218e-03
7.685439342346e-03
1.210919427116e-03
8.168679182486e-03
8.252122191081e-04
5.339248952974e-03
4.474847116082e-04
6.621379604646e-03
7.896360764964e-03
2.920606911636e-03
5.462874932467e-03
1.878916168766e-03
7.151286965962e-03
6.984547092350e-04
7.928284783803e-03
6.625565419176e-03
7.893057273711e-03
7.344948165087e-03
5.340939679476e-04
7.324053628590e-03
6.359303045623e-03
5.359660555644e-03
7.826009107466e-03
2.339583060594e-03
9.654209613714e-04
8.171030050323e-03
1.566817085165e-04
5.333007382907e-03
6.617472967900e-03
9.121983740223e-04
5.889526956247e-03
7.737615970038e-03
3.656498360117e-03
7.375983706994e-03
9.149359762784e-04
4.625999423752e-04
6.485263208261e-03
7.147574467393e-03
7.927420758496e-03
6.257657017752e-03
1.284343142134e-03
7.551075979863e-03
3.172210902761e-03
7.325630278539e-03
6.511899772978e-03
7.434770834773e-04
3.964171424255e-03
4.352777832615e-04
6.394597412940e-03
3.322251764509e-03
2.298002239570e-03
2.490020288671e-03
2.710622001784e-03
2.796615386216e-03
3.109028029232e-03
3.164623971132e-03
3.491395136758e-03
3.496582212021e-03
3.868059174453e-03
3.869499953414e-03
4.233970214717e-03
4.202371940781e-03
4.592707079549e-03
4.573200427635e-03
4.943958418440e-03
4.904309770379e-03


CELL_DATA 2299

SCALARS element_number int
LOOKUP_TABLE default
407
408
409
410
411
412
413
414
415
416
417
418
419
420
421
422
423
424
425
426
427
428
429
430
431
432
433
434
435
436
437
438
439
440
441
442
443
444
445
446
447
448
449
450
451
452
453
454
455
456
457
458
459
460
461
462
463
464
465
466
467
468
469
470
471
472
473
474
475
476
477
478
479
480
481
482
483
484
485
486
487
488
489
490
491
492
493
494
495
496
497
498
499
500
501
502
503
504
505
506
507
508
509
510
511
512
513
514
515
516
517
518
519
520
521
522
523
524
525
526
527
528
529
530
531
532
533
534
535
536
537
538
539
540
541
542
543
544
545
546
547
548
549
550
551
552
553
554
555
556
557
558
559
560
561
562
563
564
565
566
567
568
569
570
571
572
573
574
575
576
577
578
579
580
581
582
583
584
585
586
587
588
589
590
591
592
593
594
595
596
597
598
599
600
601
602
603
604
605
606
607
608
609
610
611
612
613
614
615
616
617
618
619
620
621
622
623
624
625
626
627
628
629
630
631
632
633
634
635
636
637
638
639
640
641
642
643
644
645
646
647
648
649
650
651
652
653
654
655
656
657
658
659
660
661
662
663
664
665
666
667
668
669
670
671
672
673
674
675
676
677
678
679
680
681
682
683
684
685
686
687
688
689
690
691
692
693
694
695
696
697
698
699
700
701
702
703
704
705
706
707
708
709
710
711
712
713
714
715
716
717
718
719
720
721
722
723
724
725
726
727
728
729
730
731
732
733
734
735
736
737
738
739
740
741
742
743
744
745
746
747
748
749
750
751
752
753
754
755
756
757
758
759
760
761
762
763
764
765
766
767
768
769
770
771
772
773
774
775
776
777
778
779
780
781
782
783
784
785
786
787
788
789
790
791
792
793
794
795
796
797
798
799
800
801
802
803
804
805
806
807
808
809
810
811
812
813
814
815
816
817
818
819
820
821
822
823
824
825
826
827
828
829
830
831
832
833
834
835
836
837
838
839
840
841
842
843
844
845
846
847
848
849
850
851
852
853
854
855
856
857
858
859
860
861
862
863
864
865
866
867
868
869
870
871
872
873
874
875
876
877
878
879
880
881
882
883
884
885
886
887
888
889
890
891
892
893
894
895
896
897
898
899
900
901
902
903
904
905
906
907
908
909
910
911
912
913
914
915
916
917
918
919
920
921
922
923
924
925
926
927
928
929
930
931
932
933
934
935
936
937
938
939
940
941
942
943
944
945
946
947
948
949
950
951
952
953
954
955
956
957
958
959
960
961
962
963
964
965
966
967
968
969
970
971
972
973
974
975
976
977
978
979
980
981
982
983
984
985
986
987
988
989
990
991
992
993
994
995
996
997
998
999
1000
1001
1002
1003
1004
1005
1006
1007
1008
1009
1010
1011
1012
1013
1014
1015
1016
1017
1018
1019
1020
1021
1022
1023
1024
1025
1026
1027
1028
1029
1030
1031
1032
1033
1034
1035
1036
1037
1038
1039
1040
1041
1042
1043
1044
1045
1046
1047
1048
1049
1050
1051
1052
1053
1054
1055
1056
1057
1058
1059
1060
1061
1062
1063
1064
1065
1066
1067
1068
1069
1070
1071
1072
1073
1074
1075
1076
1077
1078
1079
1080
1081
1082
1083
1084
1085
1086
1087
1088
1089
1090
1091
1092
1093
1094
1095
1096
1097
1098
1099
1100
1101
1102
1103
1104
1105
1106
1107
1108
1109
1110
1111
1112
1113
1114
1115
1116
1117
1118
1119
1120
1121
1122
1123
1124
1125
1126
1127
1128
1129
1130
1131
1132
1133
1134
1135
1136
1137
1138
1139
1140
1141
1142
1143
1144
1145
1146
1147
1148
1149
1150
1151
1152
1153
1154
1155
1156
1157
1158
1159
1160
1161
1162
1163
1164
1165
1166
1167
1168
1169
1170
1171
1172
1173
1174
1175
1176
1177
1178
1179
1180
1181
1182
1183
1184
1185
1186
1187
1188
1189
1190
1191
1192
1193
1194
1195
1196
1197
1198
1199
1200
1201
1202
1203
1204
1205
1206
1207
1208
1209
1210
1211
1212
1213
1214
1215
1216
1217
1218
1219
1220
1221
1222
1223
1224
1225
1226
1227
1228
1229
1230
1231
1232
1233
1234
1235
1236
1237
1238
1239
1240
1241
1242
1243
1244
1245
1246
1247
1248
1249
1250
1251
1252
1253
1254
1255
1256
1257
1258
1259
1260
1261
1262
1263
1264
1265
1266
1267
1268
1269
1270
1271
1272
1273
1274
1275
1276
1277
1278
1279
1280
1281
1282
1283
1284
1285
1286
1287
1288
1289
1290
1291
1292
1293
1294
1295
1296
1297
1298
1299
1300
1301
1302
1303
1304
1305
1306
1307
1308
1309
1310
1311
1312
1313
1314
1315
1316
1317
1318
1319
1320
1321
1322
1323
1324
1325
1326
1327
1328
1329
1330
1331
1332
1333
1334
1335
1336
1337
1338
1339
1340
1341
1342
1343
1344
1345
1346
1347
1348
1349
1350
1351
1352
1353
1354
1355
1356
1357
1358
1359
1360
1361
1362
1363
1364
1365
1366
1367
1368
1369
1370
1371
1372
1373
1374
1375
1376
1377
1378
1379
1380
1381
1382
1383
1384
1385
1386
1387
1388
1389
1390
1391
1392
1393
1394
1395
1396
1397
1398
1399
1400
1401
1402
1403
1404
1405
1406
1407
1408
1409
1410
1411
1412
1413
1414
1415
1416
1417
1418
1419
1420
1421
1422
1423
1424
1425
1426
1427
1428
1429
1430
1431
1432
1433
1434
1435
1436
1437
1438
1439
1440
1441
1442
1443
1444
1445
1446
1447
1448
1449
1450
1451
1452
1453
1454
1455
1456
1457
1458
1459
1460
1461
1462
1463
1464
1465
1466
1467
1468
1469
1470
1471
1472
1473
1474
1475
1476
1477
1478
1479
1480
1481
1482
1483
1484
1485
1486
1487
1488
1489
1490
1491
1492
1493
1494
1495
1496
1497
1498
1499
1500
1501
1502
1503
1504
1505
1506
1507
1508
1509
1510
1511
1512
1513
1514
1515
1516
1517
1518
1519
1520
1521
1522
1523
1524
1525
1526
1527
1528
1529
1530
1531
1532
1533
1534
1535
1536
1537
1538
1539
1540
1541
1542
1543
1544
1545
1546
1547
1548
1549
1550
1551
1552
1553
1554
1555
1556
1557
1558
1559
1560
1561
1562
1563
1564
1565
1566
1567
1568
1569
1570
1571
1572
1573
1574
1575
1576
1577
1578
1579
1580
1581
1582
1583
1584
1585
1586
1587
1588
1589
1590
1591
1592
1593
1594
1595
1596
1597
1598
1599
1600
1601
1602
1603
1604
1605
1606
1607
1608
1609
1610
1611
1612
1613
1614
1615
1616
1617
1618
1619
1620
1621
1622
1623
1624
1625
1626
1627
1628
1629
1630
1631
1632
1633
1634
1635
1636
1637
1638
1639
1640
1641
1642
1643
1644
1645
1646
1647
1648
1649
1650
1651
1652
1653
1654
1655
1656
1657
1658
1659
1660
1661
1662
1663
1664
1665
1666
1667
1668
1669
1670
1671
1672
1673
1674
1675
1676
1677
1678
1679
1680
1681
1682
1683
1684
1685
1686
1687
1688
1689
1690
1691
1692
1693
1694
1695
1696
1697
1698
1699
1700
1701
1702
1703
1704
1705
1706
1707
1708
1709
1710
1711
1712
1713
1714
1715
1716
1717
1718
1719
1720
1721
1722
1723
1724
1725
1726
1727
1728
1729
1730
1731
1732
1733
1734
1735
1736
1737
1738
1739
1740
1741
1742
1743
1744
1745
1746
1747
1748
1749
1750
1751
1752
1753
1754
1755
1756
1757
1758
1759
1760
1761
1762
1763
1764
1765
1766
1767
1768
1769
1770
1771
1772
1773
1774
1775
1776
1777
1778
1779
1780
1781
1782
1783
1784
1785
1786
1787
1788
1789
1790
1791
1792
1793
1794
1795
1796
1797
1798
1799
1800
1801
1802
1803
1804
1805
1806
1807
1808
1809
1810
1811
1812
1813
1814
1815
1816
1817
1818
1819
1820
1821
1822
1823
1824
1825
1826
1827
1828
1829
1830
1831
1832
1833
1834
1835
1836
1837
1838
1839
1840
1841
1842
1843
1844
1845
1846
1847
1848
1849
1850
1851
1852
1853
1854
1855
1856
1857
1858
1859
1860
1861
1862
1863
1864
1865
1866
1867
1868
1869
1870
1871
1872
1873
1874
1875
1876
1877
1878
1879
1880
1881
1882
1883
1884
1885
1886
1887
1888
1889
1890
1891
1892
1893
1894
1895
1896
1897
1898
1899
1900
1901
1902
1903
1904
1905
1906
1907
1908
1909
1910
1911
1912
1913
1914
1915
1916
1917
1918
1919
1920
1921
1922
1923
1924
1925
1926
1927
1928
1929
1930
1931
1932
1933
1934
1935
1936
1937
1938
1939
1940
1941
1942
1943
1944
1945
1946
1947
1948
1949
1950
1951
1952
1953
1954
1955
1956
1957
1958
1959
1960
1961
1962
1963
1964
1965
1966
1967
1968
1969
1970
1971
1972
1973
1974
1975
1976
1977
1978
1979
1980
1981
1982
1983
1984
1985
1986
1987
1988
1989
1990
1991
1992
1993
1994
1995
1996
1997
1998
1999
2000
2001
2002
2003
2004
2005
2006
2007
2008
2009
2010
2011
2012
2013
2014
2015
2016
2017
2018
2019
2020
2021
2022
2023
2024
2025
2026
2027
2028
2029
2030
2031
2032
2033
2034
2035
2036
2037
2038
2039
2040
2041
2042
2043
2044
2045
2046
2047
2048
2049
2050
2051
2052
2053
2054
2055
2056
2057
2058
2059
2060
2061
2062
2063
2064
2065
2066
2067
2068
2069
2070
2071
2072
2073
2074
2075
2076
2077
2078
2079
2080
2081
2082
2083
2084
2085
2086
2087
2088
2089
2090
2091
2092
2093
2094
2095
2096
2097
2098
2099
2100
2101
2102
2103
2104
2105
2106
2107
2108
2109
2110
2111
2112
2113
2114
2115
2116
2117
2118
2119
2120
2121
2122
2123
2124
2125
2126
2127
2128
2129
2130
2131
2132
2133
2134
2135
2136
2137
2138
2139
2140
2141
2142
2143
2144
2145
2146
2147
2148
2149
2150
2151
2152
2153
2154
2155
2156
2157
2158
2159
2160
2161
2162
2163
2164
2165
2166
2167
2168
2169
2170
2171
2172
2173
2174
2175
2176
2177
2178
2179
2180
2181
2182
2183
2184
2185
2186
2187
2188
2189
2190
2191
2192
2193
2194
2195
2196
2197
2198
2199
2200
2201
2202
2203
2204
2205
2206
2207
2208
2209
2210
2211
2212
2213
2214
2215
2216
2217
2218
2219
2220
2221
2222
2223
2224
2225
2226
2227
2228
2229
2230
2231
2232
2233
2234
2235
2236
2237
2238
2239
2240
2241
2242
2243
2244
2245
2246
2247
2248
2249
2250
2251
2252
2253
2254
2255
2256
2257
2258
2259
2260
2261
2262
2263
2264
2265
2266
2267
2268
2269
2270
2271
2272
2273
2274
2275
2276
2277
2278
2279
2280
2281
2282
2283
2284
2285
2286
2287
2288
2289
2290
2291
2292
2293
2294
2295
2296
2297
2298
2299
2300
2301
2302
2303
2304
2305
2306
2307
2308
2309
2310
2311
2312
2313
2314
2315
2316
2317
2318
2319
2320
2321
2322
2323
2324
2325
2451
2452
2453
2454
2455
2456
2457
2458
2459
2460
2461
2462
2463
2464
2465
2466
2467
2468
2469
2470
2471
2472
2473
2474
2475
2476
2477
2478
2479
2480
2481
2482
2483
2484
2485
2486
2487
2488
2489
2490
2491
2492
2493
2494
2495
2496
2497
2498
2499
2500
2501
2502
2503
2504
2505
2506
2507
2508
2509
2510
2511
2512
2513
2514
2515
2516
2517
2518
2519
2520
2521
2522
2523
2524
2525
2526
2527
2528
2529
2530
2531
2532
2533
2534
2535
2536
2537
2538
2539
2540
2541
2542
2543
2544
2545
2546
2547
2548
2549
2550
2551
2552
2553
2554
2555
2556
2557
2558
2559
2560
2561
2562
2563
2564
2565
2566
2567
2568
2569
2570
2571
2572
2573
2574
2575
2576
2577
2578
2579
2580
2581
2582
2583
2584
2585
2586
2587
2588
2589
2590
2591
2592
2593
2594
2595
2596
2597
2598
2599
2600
2601
2602
2603
2604
2605
2606
2607
2608
2609
2610
2611
2612
2613
2614
2615
2616
2617
2618
2619
2620
2621
2622
2623
2624
2625
2626
2627
2628
2629
2630
2631
2632
2633
2634
2635
2636
2637
2638
2639
2640
2641
2642
2643
2644
2645
2646
2647
2648
2649
2650
2651
2652
2653
2654
2655
2656
2657
2658
2659
2660
2661
2662
2663
2664
2665
2666
2667
2668
2669
2670
2671
2672
2673
2674
2675
2676
2677
2678
2679
2680
2681
2682
2683
2684
2685
2686
2687
2688
2689
2690
2691
2692
2693
2694
2695
2696
2697
2698
2699
2700
2701
2702
2703
2704
2705
2706
2707
2708
2709
2710
2711
2712
2713
2714
2715
2716
2717
2718
2719
2720
2721
2722
2723
2724
2725
2726
2727
2728
2729
2730
2731
2732
2733
2734
2735
2736
2737
2738
2739
2740
2741
2742
2743
2744
2745
2746
2747
2748
2749
2750
2751
2752
2753
2754
2755
2756
2757
2758
2759
2760
2761
2762
2763
2764
2765
2766
2767
2768
2769
2770
2771
2772
2773
2774
2775
2776
2777
2778
2779
2780
2781
2782
2783
2784
2785
2786
2787
2788
2789
2790
2791
2792
2793
2794
2795
2796
2797
2798
2799
2800
2801
2802
2803
2804
2805
2806
2807
2808
2809
2810
2811
2812
2813
2814
2815
2816
2817
2818
2819
2820
2821
2822
2823
2824
2825
2826
2827
2828
2829
2830

SCALARS element_group int
LOOKUP_TABLE default
0
0
0
0
0
0
0
0
0
0
0
0
0
0
0
0
0
0
0
0
0
0
0
0
0
0
0
0
0
0
0
0
0
0
0
0
0
0
0
0
0
0
0
0
0
0
0
0
0
0
0
0
0
0
0
0
0
0
0
0
0
0
0
0
0
0
0
0
0
0
0
0
0
0
0
0
0
0
0
0
0
0
0
0
0
0
0
0
0
0
0
0
0
0
0
0
0
0
0
0
0
0
0
0
0
0
0
0
0
0
0
0
0
0
0
0
0
0
0
0
0
0
0
0
0
0
0
0
0
0
0
0
0
0
0
0
0
0
0
0
0
0
0
0
0
0
0
0
0
0
0
0
0
0
0
0
0
0
0
0
0
0
0
0
0
0
0
0
0
0
0
0
0
0
0
0
0
0
0
0
0
0
0
0
0
0
0
0
0
0
0
0
0
0
0
0
0
0
0
0
0
0
0
0
0
0
0
0
0
0
0
0
0
0
0
0
0
0
0
0
0
0
0
0
0
0
0
0
0
0
0
0
0
0
0
0
0
0
0
0
0
0
0
0
0
0
0
0
0
0
0
0
0
0
0
0
0
0
0
0
0
0
0
0
0
0
0
0
0
0
0
0
0
0
0
0
0
0
0
0
0
0
0
0
0
0
0
0
0
0
0
0
0
0
0
0
0
0
0
0
0
0
0
0
0
0
0
0
0
0
0
0
0
0
0
0
0
0
0
0
0
0
0
0
0
0
0
0
0
0
0
0
0
0
0
0
0
0
0
0
0
0
0
0
0
0
0
0
0
0
0
0
0
0
0
0
0
0
0
0
0
0
0
0
0
0
0
0
0
0
0
0
0
0
0
0
0
0
0
0
0
0
0
0
0
0
0
0
0
0
0
0
0
0
0
0
0
0
0
0
0
0
0
0
0
0
0
0
0
0
0
0
0
0
0
0
0
0
0
0
0
0
0
0
0
0
0
0
0
0
0
0
0
0
0
0
0
0
0
0
0
0
0
0
0
0
0
0
0
0
0
0
0
0
0
0
0
0
0
0
0
0
0
0
0
0
0
0
0
0
0
0
0
0
0
0
0
0
0
0
0
0
0
0
0
0
0
0
0
0
0
0
0
0
0
0
0
0
0
0
0
0
0
0
0
0
0
0
0
0
0
0
0
0
0
0
0
0
0
0
0
0
0
0
0
0
0
0
0
0
0
0
0
0
0
0
0
0
0
0
0
0
0
0
0
0
0
0
0
0
0
0
0
0
0
0
0
0
0
0
0
0
0
0
0
0
0
0
0
0
0
0
0
0
0
0
0
0
0
0
0
0
0
0
0
0
0
0
0
0
0
0
0
0
0
0
0
0
0
0
0
0
0
0
0
0
0
0
0
0
0
0
0
0
0
0
0
0
0
0
0
0
0
0
0
0
0
0
0
0
0
0
0
0
0
0
0
0
0
0
0
0
0
0
0
0
0
0
0
0
0
0
0
0
0
0
0
0
0
0
0
0
0
0
0
0
0
0
0
0
0
0
0
0
0
0
0
0
0
0
0
0
0
0
0
0
0
0
0
0
0
0
0
0
0
0
0
0
0
0
0
0
0
0
0
0
0
0
0
0
0
0
0
0
0
0
0
0
0
0
0
0
0
0
0
0
0
0
0
0
0
0
0
0
0
0
0
0
0
0
0
0
0
0
0
0
0
0
0
0
0
0
0
0
0
0
0
0
0
0
0
0
0
0
0
0
0
0
0
0
0
0
0
0
0
0
0
0
0
0
0
0
0
0
0
0
0
0
0
0
0
0
0
0
0
0
0
0
0
0
0
0
0
0
0
0
0
0
0
0
0
0
0
0
0
0
0
0
0
0
0
0
0
0
0
0
0
0
0
0
0
0
0
0
0
0
0
0
0
0
0
0
0
0
0
0
0
0
0
0
0
0
0
0
0
0
0
0
0
0
0
0
0
0
0
0
0
0
0
0
0
0
0
0
0
0
0
0
0
0
0
0
0
0
0
0
0
0
0
0
0
0
0
0
0
0
0
0
0
0
0
0
0
0
0
0
0
0
0
0
0
0
0
0
0
0
0
0
0
0
0
0
0
0
0
0
0
0
0
0
0
0
0
0
0
0
0
0
0
0
0
0
0
0
0
0
0
0
0
0
0
0
0
0
0
0
0
0
0
0
0
0
0
0
0
0
0
0
0
0
0
0
0
0
0
0
0
0
0
0
0
0
0
0
0
0
0
0
0
0
0
0
0
0
0
0
0
0
0
0
0
0
0
0
0
0
0
0
0
0
0
0
0
0
0
0
0
0
0
0
0
0
0
0
0
0
0
0
0
0
0
0
0
0
0
0
0
0
0
0
0
0
0
0
0
0
0
0
0
0
0
0
0
0
0
0
0
0
0
0
0
0
0
0
0
0
0
0
0
0
0
0
0
0
0
0
0
0
0
0
0
0
0
0
0
0
0
0
0
0
0
0
0
0
0
0
0
0
0
0
0
0
0
0
0
0
0
0
0
0
0
0
0
0
0
0
0
0
0
0
0
0
0
0
0
0
0
0
0
0
0
0
0
0
0
0
0
0
0
0
0
0
0
0
0
0
0
0
0
0
0
0
0
0
0
0
0
0
0
0
0
0
0
0
0
0
0
0
0
0
0
0
0
0
0
0
0
0
0
0
0
0
0
0
0
0
0
0
0
0
0
0
0
0
0
0
0
0
0
0
0
0
0
0
0
0
0
0
0
0
0
0
0
0
0
0
0
0
0
0
0
0
0
0
0
0
0
0
0
0
0
0
0
0
0
0
0
0
0
0
0
0
0
0
0
0
0
0
0
0
0
0
0
0
0
0
0
0
0
0
0
0
0
0
0
0
0
0
0
0
0
0
0
0
0
0
0
0
0
0
0
0
0
0
0
0
0
0
0
0
0
0
0
0
0
0
0
0
0
0
0
0
0
0
0
0
0
0
0
0
0
0
0
0
0
0
0
0
0
0
0
0
0
0
0
0
0
0
0
0
0
0
0
0
0
0
0
0
0
0
0
0
0
0
0
0
0
0
0
0
0
0
0
0
0
0
0
0
0
0
0
0
0
0
0
0
0
0
0
0
0
0
0
0
0
0
0
0
0
0
0
0
0
0
0
0
0
0
0
0
0
0
0
0
0
0
0
0
0
0
0
0
0
0
0
0
0
0
0
0
0
0
0
0
0
0
0
0
0
0
0
0
0
0
0
0
0
0
0
0
0
0
0
0
0
0
0
0
0
0
0
0
0
0
0
0
0
0
0
0
0
0
0
0
0
0
0
0
0
0
0
0
0
0
0
0
0
0
0
0
0
0
0
0
0
0
0
0
0
0
0
0
0
0
0
0
0
0
0
0
0
0
0
0
0
0
0
0
0
0
0
0
0
0
0
0
0
0
0
0
0
0
0
0
0
0
0
0
0
0
0
0
0
0
0
0
0
0
0
0
0
0
0
0
0
0
0
0
0
0
0
0
0
0
0
0
0
0
0
0
0
0
0
0
0
0
0
0
0
0
0
0
0
0
0
0
0
0
0
0
0
0
0
0
0
0
0
0
0
0
0
0
0
0
0
0
0
0
0
0
0
0
0
0
0
0
0
0
0
0
0
0
0
0
0
0
0
0
0
0
0
0
0
0
0
0
0
0
0
0
0
0
0
0
0
0
0
0
0
0
0
0
0
0
0
0
0
0
0
0
0
0
0
0
0
0
0
0
0
0
0
0
0
0
0
0
0
0
0
0
0
0
0
0
0
0
0
0
0
0
0
0
0
0
0
0
0
0
0
0
0
0
0
0
0
0
0
0
0
0
0
0
0
0
0
0
0
0
0
0
0
0
0
0
0
0
0
0
0
0
0
0
0
0
0
0
0
0
0
0
0
0
0
0
0
0
0
0
0
0
0
0
0
0
0
0
0
0
0
0
0
0
0
0
0
0
0
0
0
0
0
0
0
0
0
0
0
0
0
0
0
0
0
0
0
0
0
0
0
0
0
0
0
0
0
0
0
0
0
0
0
0
0
0
0
0
0
0
0
0
0
0
0
0
0
0
0
0
0
0
0
0
0
0
0
0
0
0
0
0
0
0
0
0
0
0
0
0
0
0
0
0
0
0
0
0
0
0
0
0
0
0
0
0
0
0
0
0
0
0
0
0
0
0
0
0
0
0
0
0
0
0
0
0
0
0
0
0
0
0
0
0
0
0
0
0
0
0
0
0
0
0
0
0
0
0
0
0
0
0
0
0
0
0
0
0
0
0
0
0
0
0
0
0
0
0
0
0
0
0
0
0
0
0
0
0
0
0
0
0
0
0
0
0
0
0
0
0
0
0
0
0
0
0
0
0
0
0
0
0
0
0
0
0
0
0
0
0
0
0
0
0
0
0
0
0
0
0
0
0
0
0
0
0
0
0
0
0
0
0
0
0
0
0
0
0
0
0
0
0
0
0
0
0
0
0
0
0
0
0
0
0
0
0
0
0
0
0
0
0
0
0
0
0
0
0
0
0
0
0
0
0
0
0
0
0
0
0
0
0
0
0
0
0
0
0
0
0
0
0
0
0
0
0
0
0
0
0
0
0
0
0
0
0
0
0
0
0
0
0
0
0
0
0
0
0
0
0
0
0
0
0
0
0
0
0
0
0
0
0
0
0
0
0
0
0
0
0
0
0
0
0
0
0
0
0
0
0
0
0
0
0
0
0
0
0
0
0
0
0
0
0
0
0
0
0
0
0
0
0
0
0
0
0
0
0
0
0
0
0
0
0
0
0
0
0
0
0
0
0
0
0
0
0
0
0
0
0
0
0
0
0
0
0
0
0
0
0
0
0
0
0
0
0
0
0
0
0
0
0
0
0
0
0
0
0
0
0
0
0
0
0
0
0
0
0
0
0
0
0
0
0
0
0
0
0
0
0
0
0
0
0
0
0
0
0
0
0
0
0
0
0
0
0
0
0
0
0
0
0
0
0
0
0
0
0
0
0
0
0
0
0
0
0
0
0
0
0
0
0
0
0
0
0
0
0
0
0
0
0
0
0
0
0
0
0
0
0
0
0
0
0
0
0
0
0
0
0
0
0
0
0
0
0
0
0
0
0
0
0
0
0
0
0
0
0
0
0
0
0
0
0
0
0
0
0
0
0
0
0
0
0
0
0
0
0
0
0
0
0
0
0
0
0
0
0
0
0
0


VECTORS element_materi_velocity float
2.147216118237e-03 1.147918070988e-02 0.0 
2.267488115185e-03 1.105410999433e-02 0.0 
5.406360308732e-04 1.033223690683e-03 0.0 
7.221336131378e-05 1.501464280805e-03 0.0 
7.471992303923e-04 8.358896580320e-03 0.0 
-1.756780957954e-04 4.071291286889e-03 0.0 
5.608949959805e-04 8.290714448373e-03 0.0 
2.205237636963e-03 1.101452875633e-02 0.0 
6.212899428671e-04 8.339793371351e-03 0.0 
1.053558888022e-04 1.536597857343e-03 0.0 
1.939079521168e-04 -2.481033460860e-04 0.0 
1.996732185677e-03 1.142708711102e-02 0.0 
9.114362694483e-05 2.068710229899e-05 0.0 
1.125254594922e-03 7.436919801161e-03 0.0 
7.538344809755e-05 2.058700620232e-05 0.0 
5.815559363846e-05 1.061394191450e-03 0.0 
9.703522062497e-04 8.675250903909e-03 0.0 
-1.269837242195e-04 3.566951303368e-03 0.0 
7.527224353235e-05 -8.286902405445e-04 0.0 
6.526199981268e-05 -8.215359687946e-04 0.0 
1.249916784322e-04 1.574214617990e-03 0.0 
2.254090363530e-03 1.127187176086e-02 0.0 
2.344034818425e-03 1.091608304020e-02 0.0 
1.066192403496e-03 3.949326292146e-04 0.0 
1.287186915232e-03 6.452036658615e-03 0.0 
2.147615994343e-04 -2.057069510748e-04 0.0 
1.550474165196e-03 9.399059229261e-03 0.0 
9.168079503297e-04 8.333413407116e-04 0.0 
1.365439646746e-03 6.448688741094e-03 0.0 
8.783900357958e-04 3.175056896316e-04 0.0 
2.371833239024e-04 1.053530833287e-03 0.0 
-1.137741698070e-04 -4.491982906410e-04 0.0 
6.214888354216e-04 1.264705170360e-03 0.0 
6.244678602991e-05 -5.179705444694e-05 0.0 
4.707127089971e-04 1.068108224612e-04 0.0 
1.372436602652e-04 2.810026529197e-05 0.0 
1.259923074082e-04 2.561967750558e-05 0.0 
9.022976215294e-04 5.002723797267e-04 0.0 
4.670710943070e-04 9.251765813456e-03 0.0 
4.244307811613e-04 9.265863076170e-03 0.0 
2.286140690109e-03 1.047427613799e-02 0.0 
4.489739549998e-04 1.240822092330e-04 0.0 
1.723981138518e-03 1.102781544107e-02 0.0 
1.614989377888e-03 9.057065095673e-03 0.0 
3.881260799772e-05 2.125933535789e-03 0.0 
1.786556848946e-03 1.046102384530e-02 0.0 
-3.181423723586e-05 1.077892907856e-03 0.0 
4.406265044186e-05 1.805988971608e-03 0.0 
-4.345975791808e-04 8.740157260606e-04 0.0 
1.109106565675e-03 7.897973852556e-03 0.0 
2.328141337751e-03 1.072283127641e-02 0.0 
9.563408347452e-05 -7.977458964313e-04 0.0 
8.821825896024e-04 1.205876417321e-03 0.0 
2.239846483253e-03 1.086927138703e-02 0.0 
3.889406292400e-04 1.045417615363e-03 0.0 
2.075222607825e-04 -7.134476132832e-04 0.0 
8.172042363537e-05 -7.852122890278e-04 0.0 
1.264903610071e-04 -5.115818083816e-05 0.0 
1.125579531219e-04 -8.028481242439e-04 0.0 
6.961275560001e-05 1.070147119247e-03 0.0 
-8.390382531677e-04 1.582726849385e-03 0.0 
1.409036638769e-03 1.120627092267e-03 0.0 
2.958130469375e-03 8.698412127565e-03 0.0 
6.671040125991e-04 1.099738166612e-03 0.0 
1.479988789371e-04 2.637968967650e-05 0.0 
2.256357041544e-03 1.111366855346e-02 0.0 
-7.742690440335e-04 1.816159758217e-03 0.0 
6.693161074405e-04 1.228982142398e-03 0.0 
3.160051890518e-04 -1.216556711188e-04 0.0 
6.737817585948e-04 8.507089504711e-04 0.0 
3.236101505990e-04 -1.556694059841e-04 0.0 
6.628170873558e-05 3.006632073983e-04 0.0 
1.202319545145e-03 1.133742526215e-03 0.0 
3.178820376708e-06 -8.730122501082e-04 0.0 
1.923010428121e-04 -6.949720051720e-04 0.0 
2.364253315795e-04 1.381457056665e-03 0.0 
4.857341702957e-04 1.267045526965e-03 0.0 
1.095947889504e-03 8.904306942305e-03 0.0 
1.429250765722e-04 -7.856202246896e-04 0.0 
1.094101052675e-03 9.772570328173e-03 0.0 
3.450309424390e-04 -2.829681079969e-06 0.0 
9.114832224761e-04 8.410299179305e-03 0.0 
2.328479443327e-03 1.105123417427e-02 0.0 
2.193594709558e-03 1.145534152832e-02 0.0 
7.010181350716e-04 7.788465820587e-03 0.0 
6.416994249747e-04 7.758907283871e-03 0.0 
1.904866191474e-04 -1.352107024534e-04 0.0 
3.356170414336e-05 -7.660041311030e-05 0.0 
1.622224186602e-03 3.499530599963e-03 0.0 
8.042393602607e-04 8.322173566950e-03 0.0 
-8.837744197908e-05 -3.870087876547e-04 0.0 
1.547612761685e-03 8.207364538449e-03 0.0 
1.184463129624e-04 4.242886439644e-03 0.0 
1.438179320346e-04 4.585942649556e-03 0.0 
1.317567957013e-04 5.579239382991e-04 0.0 
6.471506750676e-04 3.591440427940e-04 0.0 
1.025118187932e-03 8.437658263531e-03 0.0 
5.178728379634e-04 1.361117952019e-04 0.0 
8.934708992669e-05 6.728476482364e-03 0.0 
2.813287597855e-03 9.294497860481e-03 0.0 
7.268261215964e-04 8.847252685844e-03 0.0 
9.674753152683e-05 2.267561271719e-05 0.0 
2.489908194557e-03 2.092266859260e-03 0.0 
1.417628309417e-03 1.072663915207e-03 0.0 
2.922760452715e-03 7.765099567929e-03 0.0 
-1.646202852795e-04 8.498161717614e-04 0.0 
1.055308277100e-04 5.004647677226e-06 0.0 
1.194647366513e-04 3.657592526507e-03 0.0 
-6.388234449318e-04 1.097456079715e-03 0.0 
1.764361339292e-04 3.456924330945e-05 0.0 
1.785395645009e-03 3.938662704873e-03 0.0 
2.869725217815e-06 -8.743281180034e-04 0.0 
3.354804994959e-03 5.959793645440e-03 0.0 
1.938848868148e-03 9.119129689794e-03 0.0 
3.705032204475e-04 -5.777311961029e-04 0.0 
2.713549438104e-03 9.563042699404e-03 0.0 
3.025970312055e-03 8.337907590310e-03 0.0 
3.367919818265e-04 7.867385874174e-05 0.0 
1.135640491990e-04 7.141523810211e-03 0.0 
2.943112368787e-03 8.555548440434e-03 0.0 
2.483393214795e-04 -3.969017344006e-04 0.0 
1.615310286280e-03 8.454705773449e-03 0.0 
9.416159458466e-05 3.354240380207e-03 0.0 
3.000066209900e-03 8.121962364317e-03 0.0 
-1.448901954137e-04 6.376806994487e-03 0.0 
2.141327041761e-03 9.873843460095e-03 0.0 
3.178143926782e-04 -6.053398044631e-04 0.0 
2.127388041707e-03 1.028976799678e-02 0.0 
1.789796161217e-04 9.786962281082e-04 0.0 
3.377683824282e-04 5.966965265646e-03 0.0 
3.016184978376e-04 -1.945835316647e-04 0.0 
5.731503700510e-05 1.486375053463e-03 0.0 
2.794007194388e-03 8.567339034358e-03 0.0 
2.217573676932e-03 1.019423000704e-02 0.0 
5.035375840952e-04 1.198548765842e-04 0.0 
6.257101397095e-05 1.892227089988e-05 0.0 
2.684630020103e-04 -1.285033930466e-04 0.0 
2.781707395878e-03 8.219376902218e-03 0.0 
6.267289247740e-04 2.119331708588e-04 0.0 
2.604020747034e-03 9.280266533594e-03 0.0 
1.394958533057e-04 1.095246426296e-03 0.0 
7.738850752178e-04 1.038930181680e-03 0.0 
1.191925584437e-03 7.392660568316e-03 0.0 
2.785390826529e-04 5.554659221429e-03 0.0 
2.698958614753e-03 9.103249882654e-03 0.0 
2.191081204647e-03 1.060188448071e-02 0.0 
2.848920077463e-03 7.697139749867e-03 0.0 
3.155943572945e-03 7.097806991137e-03 0.0 
5.369191899094e-04 8.774446105989e-03 0.0 
3.357794444941e-03 5.580578839839e-03 0.0 
-5.259138415399e-05 -5.106972458320e-04 0.0 
1.292339215149e-04 8.044912812748e-03 0.0 
5.296917470905e-05 -8.449706509040e-04 0.0 
2.047186555876e-03 9.513316301356e-03 0.0 
5.113048383527e-04 1.666507737292e-04 0.0 
2.889967715083e-03 8.270956458931e-03 0.0 
1.448476155036e-04 -1.052337298776e-04 0.0 
1.980053545547e-03 1.087077147698e-02 0.0 
2.494947466722e-03 2.218606165997e-03 0.0 
3.023587884344e-04 8.459234928998e-03 0.0 
3.303782983509e-03 5.648286029389e-03 0.0 
1.427065079990e-04 -2.782772392612e-05 0.0 
2.751796165087e-04 -3.168462885117e-04 0.0 
1.477707232349e-04 7.646931112117e-06 0.0 
2.141046809755e-03 8.098740554238e-03 0.0 
2.018080016769e-04 3.624045335974e-05 0.0 
1.283163174240e-04 8.543637607946e-03 0.0 
3.056763930706e-03 7.185749965818e-03 0.0 
1.955905091692e-03 9.561064592785e-03 0.0 
1.242405944348e-04 -2.628306796351e-04 0.0 
1.884773972558e-03 1.136675195878e-02 0.0 
3.282373311149e-03 5.223718055193e-03 0.0 
2.425950915656e-04 5.033986832197e-03 0.0 
3.450021245506e-04 8.794139282836e-03 0.0 
3.243158733557e-03 6.567409675790e-03 0.0 
2.049296025084e-03 9.946456196813e-03 0.0 
1.653087135767e-03 2.554858611521e-03 0.0 
3.892209576059e-04 -5.329184273345e-04 0.0 
7.491116601974e-04 6.385703083977e-04 0.0 
8.289161404614e-04 1.014144617181e-03 0.0 
2.549388238517e-03 1.011383321657e-02 0.0 
3.480934181026e-04 -5.187748767095e-04 0.0 
1.542177371464e-03 6.863248150065e-04 0.0 
2.498823995549e-03 9.805362460056e-03 0.0 
2.399719298782e-03 1.038784528790e-02 0.0 
1.997468193873e-03 8.637537700045e-03 0.0 
3.302358890038e-03 6.458600732427e-03 0.0 
1.024468123480e-04 1.158519263760e-03 0.0 
1.543076259368e-03 3.983772715177e-03 0.0 
9.991599188110e-05 -1.028609439939e-05 0.0 
1.498107935004e-03 9.831236139174e-03 0.0 
3.144190296666e-03 4.776777907488e-03 0.0 
1.543205033702e-03 3.506106745306e-03 0.0 
-2.106019025052e-03 4.325637151211e-03 0.0 
2.404841125377e-03 9.952103875877e-03 0.0 
1.725387254248e-03 6.428410258581e-04 0.0 
6.462391839439e-05 -7.519756476130e-04 0.0 
5.681908749778e-04 1.354242540046e-03 0.0 
1.426786498919e-03 5.425639793566e-03 0.0 
1.428880577732e-03 -4.608807426703e-06 0.0 
1.785621747815e-03 7.136959045762e-04 0.0 
1.536603910538e-03 7.701509740000e-03 0.0 
1.276624361634e-03 6.909621921554e-03 0.0 
8.401888559101e-04 2.872444317581e-04 0.0 
8.877114970761e-04 -3.462367898579e-04 0.0 
2.986986258394e-03 6.997428243731e-03 0.0 
2.278801570688e-03 7.530876759116e-03 0.0 
1.324836087003e-03 4.944411653100e-03 0.0 
2.086522967729e-03 7.660842810334e-03 0.0 
2.091707634206e-03 8.588967638095e-03 0.0 
2.903083123295e-03 2.495920099224e-03 0.0 
1.797054832424e-03 2.971368825692e-03 0.0 
-1.224006207394e-03 3.789229374769e-03 0.0 
2.482917112015e-03 1.045040914466e-02 0.0 
2.742117773273e-03 9.599960669852e-03 0.0 
2.939868637882e-03 7.511372324121e-03 0.0 
1.392396343738e-03 3.522381048399e-03 0.0 
8.375504579993e-04 4.022883336859e-03 0.0 
1.760668555162e-03 5.864607107301e-04 0.0 
3.886681007892e-04 8.668013265638e-03 0.0 
3.193170609923e-03 5.227199863559e-03 0.0 
1.757312263914e-03 5.102406825664e-04 0.0 
-8.683703003906e-06 -6.425376674493e-04 0.0 
1.289213257600e-03 4.464266866579e-03 0.0 
-4.477704861125e-05 -6.616195006953e-04 0.0 
9.002456967205e-05 -7.716122480643e-04 0.0 
1.468088656101e-03 1.054026766433e-02 0.0 
7.253024753509e-04 -3.877924872531e-04 0.0 
1.169378513557e-03 3.985383366250e-03 0.0 
6.671990174992e-04 -3.669423355789e-04 0.0 
2.126310360103e-03 7.755954715034e-03 0.0 
6.743254119952e-04 5.249633236823e-04 0.0 
3.423891812860e-04 -4.322013474697e-04 0.0 
1.708171689412e-03 7.462511732143e-04 0.0 
2.237857674006e-03 8.029039931876e-03 0.0 
1.757930255772e-04 2.970713548449e-05 0.0 
-1.751641033629e-03 3.814207449725e-03 0.0 
2.577051751328e-03 7.226921060932e-03 0.0 
3.318255470578e-03 4.789700420156e-03 0.0 
2.468418414779e-03 1.018109461155e-02 0.0 
1.830716031482e-03 6.607285188468e-04 0.0 
2.171580842307e-04 4.067155715607e-05 0.0 
1.601860964322e-03 4.452457460165e-03 0.0 
2.661786653839e-03 4.531670599858e-03 0.0 
1.657304658830e-03 6.789660539411e-04 0.0 
1.587768693328e-04 -1.735001348010e-04 0.0 
2.809132161655e-03 7.350173432471e-03 0.0 
1.482098871004e-03 4.949716342222e-03 0.0 
1.170489829667e-03 9.255769812303e-04 0.0 
3.274600211504e-03 4.399373343237e-03 0.0 
2.382035899233e-03 7.834736528732e-03 0.0 
2.044352550494e-03 6.728034662649e-03 0.0 
1.072137504139e-04 5.103954202760e-04 0.0 
3.068599994899e-03 6.793641962775e-03 0.0 
3.219051027701e-03 3.046404317808e-03 0.0 
2.921316839678e-04 7.860620852461e-03 0.0 
2.156679475275e-04 7.999064784090e-05 0.0 
1.993533538076e-03 7.707265620626e-03 0.0 
2.750758099148e-03 5.048950419723e-03 0.0 
1.521794125780e-03 3.865977437203e-03 0.0 
4.283482108616e-04 1.245489724443e-03 0.0 
1.099645225737e-03 3.980606945303e-03 0.0 
2.213898829336e-03 7.106982593336e-03 0.0 
3.132038589771e-03 7.528162498634e-03 0.0 
9.784850314302e-04 3.499461487224e-03 0.0 
1.622777783281e-03 3.972781611128e-03 0.0 
2.662200167323e-03 7.131968813263e-03 0.0 
2.459660293097e-04 5.149966940224e-05 0.0 
3.151647880211e-03 2.763920742649e-03 0.0 
2.501133582892e-03 6.859537486187e-03 0.0 
3.376687359273e-03 5.832572345394e-03 0.0 
3.121217692340e-03 2.726521050664e-03 0.0 
2.044776477895e-03 3.731244569311e-03 0.0 
1.411217501831e-03 8.316005484721e-03 0.0 
3.223351480891e-03 3.673701907611e-03 0.0 
1.967509901739e-03 1.564920528968e-03 0.0 
1.521145955590e-03 4.460105866033e-03 0.0 
-1.875452921898e-03 3.396312038082e-03 0.0 
1.932461357658e-03 7.254459169637e-03 0.0 
2.764103859068e-03 4.163216651620e-03 0.0 
2.534936580056e-03 6.592120167179e-03 0.0 
1.923784586041e-03 3.263181787374e-03 0.0 
2.050979193236e-03 6.243398624165e-03 0.0 
2.569059197956e-05 -3.803694269248e-04 0.0 
2.728101000681e-03 9.558030880100e-03 0.0 
3.025687336869e-03 2.458848787314e-03 0.0 
2.118431090628e-03 7.167248022192e-03 0.0 
1.394492668354e-03 7.700155312581e-03 0.0 
3.160404004691e-04 3.297642574953e-03 0.0 
2.082918831075e-03 1.853658741646e-03 0.0 
1.642774236479e-03 1.182654899799e-03 0.0 
2.575908487020e-03 1.020508143687e-02 0.0 
1.563076856845e-03 4.942976132587e-03 0.0 
2.809968375249e-03 9.300880500450e-03 0.0 
3.143499234938e-03 3.639823998679e-03 0.0 
3.189737738818e-03 4.382969022203e-03 0.0 
7.256367529627e-04 3.494697321286e-03 0.0 
3.394966298731e-03 5.367279016021e-03 0.0 
1.438980519211e-03 7.417772445084e-03 0.0 
1.993400131732e-04 5.144051894524e-04 0.0 
2.606734762552e-04 5.404502715811e-04 0.0 
3.092034264620e-03 6.295959251515e-03 0.0 
2.432194393698e-03 4.394897986947e-03 0.0 
2.199484784108e-03 5.821517930681e-03 0.0 
2.514723154300e-03 6.369081139404e-03 0.0 
2.279611776900e-03 4.779214219045e-03 0.0 
1.750986486711e-03 1.440696678904e-03 0.0 
2.715201429717e-03 7.502273681810e-03 0.0 
1.810694378490e-04 1.331047105854e-03 0.0 
3.014592569451e-03 4.723398722398e-03 0.0 
2.924242434329e-03 2.673984366728e-03 0.0 
1.738030529513e-03 6.856828548153e-03 0.0 
3.023132927420e-04 1.166382158130e-04 0.0 
2.381703552317e-03 5.356834507211e-03 0.0 
2.845972829119e-03 6.845057840477e-03 0.0 
1.041369169561e-03 3.175276622766e-03 0.0 
2.468769880809e-03 1.208238622151e-03 0.0 
3.285153666393e-03 4.026993462378e-03 0.0 
1.744523047673e-03 1.062295495943e-03 0.0 
2.375968545000e-03 7.449084539657e-03 0.0 
2.789866917662e-04 4.146232539679e-04 0.0 
2.996964265883e-03 3.910899354313e-03 0.0 
2.973526147756e-03 2.254131966611e-03 0.0 
1.635738469726e-03 6.121375190816e-03 0.0 
9.262187802916e-04 5.862523931447e-03 0.0 
1.835489926267e-03 5.852913429765e-04 0.0 
2.588425371093e-03 8.458348361942e-03 0.0 
9.262085547652e-04 6.353443481173e-03 0.0 
3.516879486031e-04 3.872867767343e-04 0.0 
1.602549168601e-03 5.128795289319e-04 0.0 
2.793882045789e-04 4.623961246752e-04 0.0 
1.134167214219e-03 6.399341055856e-03 0.0 
1.866442221398e-03 3.913595392011e-03 0.0 
2.141170459931e-03 9.144774069172e-03 0.0 
2.374813934251e-03 8.361266309374e-03 0.0 
2.405384909886e-03 6.953283525278e-03 0.0 
2.326861868436e-03 6.544436189690e-03 0.0 
3.178675323446e-03 6.835573306653e-03 0.0 
3.797329997986e-04 3.452111461573e-04 0.0 
1.439950259405e-03 6.889788576621e-03 0.0 
1.953817939769e-03 8.193733426480e-03 0.0 
3.120438947754e-03 3.976711232411e-03 0.0 
5.425057030281e-04 -4.164329493833e-04 0.0 
2.216422484781e-03 8.954099988838e-03 0.0 
2.773582900301e-03 7.832403662305e-03 0.0 
2.595968013731e-04 8.768017015753e-03 0.0 
1.636940996030e-03 8.449912903484e-04 0.0 
2.936665329731e-03 4.263777959014e-03 0.0 
1.313634979984e-03 3.990313178785e-03 0.0 
2.769949395726e-03 7.257340057326e-03 0.0 
2.429267371995e-03 7.857958353635e-03 0.0 
2.863691831585e-03 2.024183011159e-03 0.0 
1.888186550078e-03 3.870473644893e-04 0.0 
3.689629008430e-04 2.551636411570e-04 0.0 
2.415835924834e-03 9.567731542365e-03 0.0 
2.093437990234e-03 2.373652595197e-03 0.0 
1.419005102876e-03 2.060478596535e-05 0.0 
2.442913311846e-03 1.002929169709e-02 0.0 
2.559681895871e-03 9.016867270048e-03 0.0 
1.373866081225e-03 3.058270381456e-03 0.0 
2.778019550960e-03 6.498699900218e-03 0.0 
2.555365110054e-03 1.000332391465e-02 0.0 
2.402780493323e-03 8.768754490516e-03 0.0 
3.772834892669e-04 1.866926562763e-04 0.0 
9.386920014471e-04 4.947844984667e-04 0.0 
1.302758915174e-03 3.063553580500e-03 0.0 
1.365205619074e-03 4.466062651404e-03 0.0 
1.947130940589e-03 4.331441171649e-04 0.0 
3.013531346098e-03 8.431895145980e-03 0.0 
2.319908770021e-03 3.893863819056e-03 0.0 
2.662255071083e-03 3.709352364181e-03 0.0 
2.932878365439e-03 6.678080077482e-03 0.0 
2.585222537032e-03 1.351405594938e-03 0.0 
1.012926086247e-03 -2.794197183466e-04 0.0 
1.099271698714e-03 3.059195472162e-03 0.0 
1.976256675965e-03 2.033565634719e-03 0.0 
3.259235563691e-03 6.796824741213e-03 0.0 
2.567167678752e-03 7.251966185746e-03 0.0 
3.182486448580e-03 7.542006911337e-03 0.0 
2.714408318408e-04 5.007359068653e-04 0.0 
2.364104050494e-04 5.451663959694e-04 0.0 
6.000878859324e-04 1.355142949923e-03 0.0 
1.921406513067e-03 4.393311942924e-04 0.0 
9.159276525181e-04 3.486465452190e-03 0.0 
2.389776014424e-03 8.491100224763e-03 0.0 
2.904051651043e-03 3.503406932320e-03 0.0 
1.400995872499e-03 3.366403117723e-03 0.0 
2.769490556865e-03 9.234709976758e-03 0.0 
1.273442041391e-03 8.338410268530e-03 0.0 
1.063246682588e-03 6.390228830152e-03 0.0 
7.568886229244e-04 3.050114967255e-04 0.0 
1.520977844723e-03 3.051325159942e-03 0.0 
1.951372247177e-03 6.768822999801e-03 0.0 
2.328958167653e-03 6.059757813032e-03 0.0 
1.619225086502e-03 3.090013243999e-03 0.0 
-3.237014633636e-05 -4.859137002291e-05 0.0 
3.384766716031e-03 5.121159865978e-03 0.0 
3.269013219776e-03 6.080915431891e-03 0.0 
3.400056205505e-03 5.035081342206e-03 0.0 
-6.325967486587e-05 7.311706298581e-03 0.0 
2.426323911943e-04 7.603999422673e-03 0.0 
4.650745266923e-04 -3.898107688661e-04 0.0 
2.692878171570e-03 6.069792847853e-03 0.0 
1.586612371384e-04 6.370351952005e-05 0.0 
2.734763705716e-03 2.062877377409e-03 0.0 
1.865994648242e-03 8.223515905813e-03 0.0 
3.113470540818e-05 -8.547850154515e-04 0.0 
3.106124973220e-03 7.079829889583e-03 0.0 
3.366637414027e-03 4.754849420491e-03 0.0 
2.143701666232e-03 6.191972428661e-03 0.0 
3.064552418902e-04 4.104812964332e-04 0.0 
2.280571210573e-03 8.450555668156e-03 0.0 
2.606734703939e-03 6.263051649366e-03 0.0 
1.105360875898e-03 -2.320206438366e-04 0.0 
1.109168704364e-03 3.515310920021e-03 0.0 
1.840570763151e-03 3.942386324738e-04 0.0 
3.384019571075e-04 4.115448481919e-04 0.0 
1.411958730542e-04 2.461092028973e-04 0.0 
9.335812559228e-05 2.550623610961e-04 0.0 
1.304285174685e-04 2.858235676130e-04 0.0 
2.134211247946e-03 5.711603479342e-03 0.0 
1.177432809318e-03 3.518444947730e-03 0.0 
1.258715734309e-03 2.604321269333e-03 0.0 
3.117749343668e-03 7.865203440105e-03 0.0 
2.936539076553e-03 8.728900709495e-03 0.0 
8.572088377718e-04 -3.750625108016e-04 0.0 
1.165508962482e-03 3.062023630570e-03 0.0 
3.670445584765e-04 3.672362991244e-04 0.0 
9.117874370189e-04 3.034365333195e-03 0.0 
2.959845938004e-03 2.397990047730e-03 0.0 
9.727378221331e-04 3.045438345043e-03 0.0 
2.693518305427e-03 3.417547737482e-03 0.0 
3.298716208081e-03 6.293705359354e-03 0.0 
2.680708558544e-03 9.450575112213e-03 0.0 
1.883582356463e-03 5.642083653399e-03 0.0 
2.549672112616e-04 1.087435484963e-03 0.0 
3.146108293690e-03 7.748194079957e-03 0.0 
1.185643957023e-03 1.240894469516e-03 0.0 
9.446079221016e-04 -3.348625902658e-04 0.0 
1.345324952661e-03 5.502751888663e-04 0.0 
5.961359080826e-04 2.291965320547e-04 0.0 
2.913878187862e-03 6.692997087505e-03 0.0 
1.381923315248e-04 2.162869217779e-04 0.0 
4.265620716975e-04 1.021856668667e-03 0.0 
2.782930189614e-03 6.012989920532e-03 0.0 
-2.053696038396e-04 -3.485005686453e-05 0.0 
1.656608816488e-04 2.121449642433e-04 0.0 
6.699437049627e-04 3.062746372368e-04 0.0 
1.440774158265e-03 7.390925456344e-04 0.0 
2.792200518389e-03 1.975529257161e-03 0.0 
3.842529396800e-04 2.433928726575e-04 0.0 
-3.812908388220e-04 -1.097040349203e-04 0.0 
3.257954701589e-03 7.002955465648e-03 0.0 
2.600956490204e-03 5.782446744723e-03 0.0 
2.947772047940e-03 6.186462869460e-03 0.0 
2.688177621102e-03 6.633510623666e-03 0.0 
2.283097254701e-03 6.476808837774e-03 0.0 
1.789468731443e-04 1.878868927858e-04 0.0 
3.059529460968e-03 3.277678672249e-03 0.0 
2.770291080348e-04 2.805532515886e-03 0.0 
3.160715173581e-04 6.509814485896e-05 0.0 
-2.479050028173e-04 -1.288670840386e-04 0.0 
2.509803401161e-03 9.049248522385e-03 0.0 
3.561052135306e-04 8.112111580129e-04 0.0 
2.124369772665e-03 9.022811336415e-03 0.0 
3.488035519195e-04 1.579186820471e-04 0.0 
1.916353144664e-04 1.658617398187e-04 0.0 
2.232542762197e-03 6.616343038289e-03 0.0 
-2.469015525179e-05 6.464957409376e-04 0.0 
-9.385649917703e-05 2.630876630826e-03 0.0 
2.270377824201e-04 6.322528017579e-04 0.0 
9.466252101824e-04 1.659805064810e-04 0.0 
1.348634669129e-03 8.637688655452e-03 0.0 
1.814706615846e-03 7.770802778240e-03 0.0 
1.834069435204e-04 1.324022450852e-04 0.0 
1.211397592754e-03 8.656217034642e-03 0.0 
1.744105042285e-04 5.021603433173e-04 0.0 
2.572706837379e-03 3.042670434038e-03 0.0 
9.896373829619e-04 6.878916741783e-03 0.0 
2.654567179833e-03 9.376834742977e-03 0.0 
2.836193435695e-03 2.144619473028e-03 0.0 
1.274081127880e-03 4.203036957819e-03 0.0 
1.986969823574e-04 1.206314765857e-04 0.0 
1.302449587867e-04 2.546267039680e-04 0.0 
1.059818875809e-04 2.593428283563e-04 0.0 
1.741490899075e-03 3.104160460413e-04 0.0 
7.068471250289e-04 -4.610982372940e-04 0.0 
3.343348730384e-03 5.998344902633e-03 0.0 
1.655456907216e-03 2.789054895115e-04 0.0 
1.997110008827e-04 1.031462953259e-04 0.0 
2.623257614425e-03 5.489798094978e-03 0.0 
2.051186241244e-03 1.419974843967e-03 0.0 
1.998646343667e-03 1.059998643766e-03 0.0 
8.602184003213e-04 6.330019710783e-03 0.0 
2.766301741040e-04 9.843579645981e-05 0.0 
-1.285514348860e-04 4.846161460031e-04 0.0 
1.712310635353e-04 7.437232109675e-05 0.0 
1.714786464397e-03 7.515394665483e-04 0.0 
1.407943602414e-04 1.983363321899e-04 0.0 
1.326808344907e-03 2.603952193161e-03 0.0 
-5.034400747732e-04 8.477464855381e-06 0.0 
3.350595070759e-03 6.168487002251e-03 0.0 
7.957209188380e-04 3.001279747199e-03 0.0 
1.727410754587e-04 1.993998839486e-04 0.0 
2.225148643128e-03 5.651295712312e-03 0.0 
2.464630566359e-03 2.577803152305e-03 0.0 
1.228089515596e-03 5.890361077281e-03 0.0 
1.076385245166e-03 4.804258480234e-04 0.0 
1.666621338500e-03 4.977772979279e-04 0.0 
1.884603222298e-03 8.534507258624e-04 0.0 
-5.152615020623e-04 6.863016543920e-04 0.0 
1.880976853321e-04 1.793494063386e-04 0.0 
1.861015231637e-03 4.057650345416e-03 0.0 
1.494051809726e-03 4.974549005651e-04 0.0 
9.778378170201e-04 7.422377894295e-03 0.0 
1.081311887713e-03 -6.308160916851e-05 0.0 
1.936411637409e-03 1.175391590046e-03 0.0 
2.421070780511e-03 5.978148801837e-03 0.0 
1.855559573226e-04 1.227613960718e-04 0.0 
6.892804165709e-04 -4.409716612858e-04 0.0 
1.720287843276e-03 4.196543917312e-04 0.0 
3.160584470413e-03 5.607875489972e-03 0.0 
2.321834682137e-03 9.269865873830e-04 0.0 
2.230344826678e-03 1.533914508609e-03 0.0 
1.845998241469e-03 4.354099155073e-04 0.0 
3.161407597044e-03 6.081102108079e-03 0.0 
2.531839334904e-03 3.776187855019e-03 0.0 
2.583753600156e-03 1.825187740536e-03 0.0 
3.275451206249e-03 5.607230349779e-03 0.0 
1.220198833263e-03 -1.794609301816e-04 0.0 
2.878922134978e-03 6.140250771786e-03 0.0 
7.886040953465e-04 -4.275731628579e-04 0.0 
2.608927515850e-03 2.922565333536e-03 0.0 
3.009650343176e-03 2.281536621795e-03 0.0 
3.298923006737e-04 1.380758406168e-04 0.0 
7.789053397605e-04 2.568286469008e-03 0.0 
9.373602089723e-04 -1.325193493580e-04 0.0 
1.775724883842e-04 8.354636095039e-05 0.0 
7.967759870239e-04 3.514779372502e-04 0.0 
3.392914412622e-03 4.615259040948e-03 0.0 
-3.491454877952e-04 5.002225051583e-04 0.0 
2.556834028978e-04 8.435371536102e-05 0.0 
9.487742493461e-04 2.608250382963e-03 0.0 
1.435385872890e-03 4.739586672749e-04 0.0 
1.436520556036e-04 5.293469629298e-05 0.0 
1.652543186614e-03 3.179460083825e-04 0.0 
2.880279821995e-03 8.684057164521e-03 0.0 
1.841457726955e-03 7.288213847917e-03 0.0 
3.092241720159e-03 2.523653134483e-03 0.0 
1.783786565427e-03 2.927582588555e-04 0.0 
2.387628898033e-03 1.074453141896e-03 0.0 
1.508056921447e-03 5.429148697864e-03 0.0 
2.686643422398e-03 8.383546146356e-03 0.0 
2.468444072350e-03 1.847347671130e-03 0.0 
2.288695550641e-04 7.032162179387e-03 0.0 
1.125614115511e-03 -2.378640435663e-04 0.0 
2.655572438505e-03 1.758388165523e-03 0.0 
1.562435399052e-03 3.452856276946e-04 0.0 
9.411109119817e-04 -7.543542098506e-05 0.0 
-6.336876042845e-04 2.555895021918e-04 0.0 
3.051515170427e-03 6.688711090373e-03 0.0 
1.608680546860e-03 5.693242002429e-04 0.0 
9.845116515377e-04 -2.666479835518e-04 0.0 
3.368016631653e-03 4.800853365730e-03 0.0 
1.744004656790e-03 3.906278479457e-04 0.0 
8.523008838980e-04 6.816102394832e-03 0.0 
1.340644042671e-03 3.158703407873e-04 0.0 
1.329781185005e-04 4.550110016683e-05 0.0 
2.687310046022e-03 5.667195739337e-03 0.0 
8.585528727729e-04 -2.868214547426e-04 0.0 
2.865777150275e-03 5.867730652769e-03 0.0 
8.939701478071e-04 -3.050447478957e-04 0.0 
-4.872535289949e-04 1.107742881939e-04 0.0 
1.771330057940e-03 6.829869114757e-03 0.0 
2.428408102852e-04 -5.777104055123e-04 0.0 
-7.078729029300e-05 -7.144423818261e-04 0.0 
7.191591939953e-04 -3.683607097500e-04 0.0 
1.598626479186e-03 3.746196951090e-04 0.0 
2.334550663363e-04 3.088071454946e-03 0.0 
2.513848466884e-03 1.183056060539e-03 0.0 
2.413514118805e-03 1.060380716841e-03 0.0 
1.818735601827e-03 8.705864009442e-03 0.0 
1.218795460721e-03 9.280542814604e-03 0.0 
3.032567218940e-04 1.015891940427e-03 0.0 
3.025314210617e-03 6.008128324449e-03 0.0 
-7.630353345750e-05 -7.386451089201e-04 0.0 
3.112105742327e-04 -4.989309703230e-04 0.0 
-2.720833276243e-04 2.038008113571e-04 0.0 
8.456126027893e-04 -3.326306355479e-04 0.0 
1.713388345982e-03 2.514013520466e-03 0.0 
2.662929118576e-04 3.120016955542e-03 0.0 
1.010815986423e-03 1.534616505900e-04 0.0 
7.721399516356e-04 -4.655801102017e-04 0.0 
8.556760689178e-04 -1.058232820287e-04 0.0 
1.317454087678e-03 4.237321183880e-04 0.0 
9.433028335753e-04 2.731150332815e-03 0.0 
1.719193582682e-04 -5.855189193927e-04 0.0 
1.150353195224e-04 -6.846727822946e-04 0.0 
2.402314600273e-04 7.330146089521e-05 0.0 
1.227052843973e-04 3.885261519419e-05 0.0 
1.820345569085e-04 -5.140598809270e-04 0.0 
7.699133698445e-04 -3.177533405488e-04 0.0 
1.717926664340e-03 2.612195022260e-04 0.0 
1.228649352133e-03 4.392218601569e-04 0.0 
3.846617906549e-04 -5.226301407139e-04 0.0 
1.381201180489e-03 3.939606310864e-04 0.0 
6.030093500727e-05 -7.927736515089e-04 0.0 
7.488140473031e-04 -3.904004792745e-04 0.0 
1.040392013026e-03 -2.121764716576e-04 0.0 
2.087177813982e-05 -8.265165277474e-04 0.0 
1.440283461372e-04 -5.517225459600e-04 0.0 
7.253962004916e-04 2.548196918047e-03 0.0 
-4.909389065159e-05 -7.873502414016e-04 0.0 
1.349560498394e-03 9.222868464984e-03 0.0 
1.415325643000e-03 9.490520662840e-03 0.0 
2.415044614436e-03 1.201303537503e-03 0.0 
5.700871085612e-05 -6.909577314186e-04 0.0 
1.409752777193e-03 2.587442035221e-04 0.0 
2.069486886843e-03 7.032827917829e-03 0.0 
6.503127103778e-04 1.101893196058e-04 0.0 
7.027694041257e-04 7.253202520568e-04 0.0 
4.803129832653e-04 3.751053986508e-03 0.0 
2.712046687447e-03 8.896779461413e-03 0.0 
1.243344676614e-04 -4.318510895381e-04 0.0 
2.496990361967e-03 8.656584723827e-03 0.0 
8.584350345190e-04 9.294761723934e-03 0.0 
8.037424559365e-04 9.605791222118e-03 0.0 
-4.397643119023e-05 -7.682951560198e-04 0.0 
1.957931321759e-05 -7.936743285032e-04 0.0 
4.106289911720e-05 -8.527872201864e-04 0.0 
5.504134444459e-04 -5.578884951343e-04 0.0 
7.714519783743e-06 -8.399323988444e-04 0.0 
1.502362447206e-04 -4.766941318263e-04 0.0 
-9.226443330604e-04 1.121630563887e-03 0.0 
6.788449181116e-04 -5.146322356461e-04 0.0 
2.024961145738e-04 5.909516206205e-03 0.0 
1.154002754503e-03 9.592207118202e-03 0.0 
1.438842199255e-03 2.191741120412e-03 0.0 
1.547780090299e-03 2.859910534530e-04 0.0 
1.829479168000e-04 6.806435430300e-03 0.0 
3.092257878525e-05 -6.609020365456e-04 0.0 
3.891891304764e-05 -8.469294594450e-04 0.0 
3.865885587068e-05 2.698797282866e-04 0.0 
8.789694827788e-05 5.620151255079e-04 0.0 
9.064914724000e-04 7.382987317734e-03 0.0 
9.744789331423e-04 9.310890366646e-03 0.0 
1.545799488717e-04 -6.507283153352e-04 0.0 
5.787325086748e-05 5.332552513536e-04 0.0 
6.463718562974e-04 -5.138540918295e-04 0.0 
1.281765738622e-03 9.547915858024e-03 0.0 
1.093281634347e-03 9.310852050496e-03 0.0 
2.231270284669e-03 9.371992217062e-03 0.0 
8.105237863618e-05 2.470979822212e-04 0.0 
6.974834605050e-05 5.315849040676e-04 0.0 
4.104999753088e-06 -8.111184817231e-04 0.0 
-2.548315040260e-05 -8.090705022416e-04 0.0 
2.096759235827e-04 -5.329124679205e-04 0.0 
1.134230033948e-03 -1.675284645126e-04 0.0 
6.871800587096e-05 1.384225477768e-05 0.0 
-1.159443800187e-03 1.373442981648e-03 0.0 
6.333343601553e-05 3.900464999706e-03 0.0 
-7.537556026306e-04 7.150459356158e-04 0.0 
2.263572058915e-03 9.572944371642e-04 0.0 
-7.845592300948e-04 5.565910046152e-04 0.0 
-9.569125678777e-04 9.269344914569e-04 0.0 
2.214434031715e-03 8.287991335415e-04 0.0 
2.716647863062e-04 2.379138552650e-05 0.0 
1.702519626760e-04 6.243193712110e-03 0.0 
2.659925372045e-03 8.013409243343e-03 0.0 
1.794357557712e-05 -8.503180405666e-04 0.0 
7.062368924144e-04 -1.136325362520e-04 0.0 
1.403644982355e-05 3.179924040185e-04 0.0 
2.762194339318e-05 5.387870957250e-04 0.0 
1.032260665331e-03 9.609150627514e-03 0.0 
2.274212936962e-03 1.064990524261e-03 0.0 
3.108949017982e-05 2.617051757810e-04 0.0 
2.486822677019e-03 2.466615400300e-03 0.0 
2.389871299549e-05 -8.626854689090e-04 0.0 
7.035121856099e-06 -8.599708099692e-04 0.0 
1.084627320490e-05 -8.664804775701e-04 0.0 
3.487147156328e-05 -5.924761733123e-04 0.0 
5.520988925671e-05 1.426226603068e-05 0.0 
7.557934178769e-06 1.464118555254e-03 0.0 
-7.061178938881e-06 -8.602056624856e-04 0.0 
7.735856238610e-05 -4.770843688311e-04 0.0 
1.873973886817e-05 5.485598291527e-06 0.0 
7.778058633281e-05 1.822444895391e-05 0.0 
2.252060734102e-04 6.379309623807e-05 0.0 
3.568526509716e-05 4.875980097627e-03 0.0 
1.392813278906e-05 3.408981265047e-03 0.0 
3.647015038854e-05 8.776667739156e-06 0.0 
4.131043594427e-05 9.447781214751e-06 0.0 
3.101965207301e-05 3.900990282333e-03 0.0 
-9.273044322161e-06 -8.665672199627e-04 0.0 
5.994449840553e-04 9.620355204035e-03 0.0 
9.172007058697e-04 9.612927825602e-03 0.0 
-1.378218990680e-05 -8.393046948096e-04 0.0 
6.716273252616e-05 1.565175512034e-05 0.0 
2.153793166307e-04 5.662794762189e-05 0.0 
1.076994188505e-04 2.728369708484e-05 0.0 
-1.764943490840e-05 -8.499251890483e-04 0.0 
-3.021308170642e-05 -8.238408442313e-04 0.0 
1.175261756300e-04 3.444884570103e-05 0.0 
1.076798977802e-04 2.934425053705e-05 0.0 
1.859374581321e-05 5.377811430195e-03 0.0 
3.116401618406e-04 9.638433999096e-03 0.0 
1.709151928395e-05 4.383174416350e-03 0.0 
2.288187418278e-05 7.353930003182e-03 0.0 
1.330634945650e-04 9.639350799369e-03 0.0 
-1.134602987911e-04 -6.747760748630e-04 0.0 
-2.231778303918e-04 -4.861125970630e-04 0.0 
-2.988145203376e-04 -3.553817073455e-04 0.0 
-3.929612671341e-04 -1.918983155645e-04 0.0 
3.961881309700e-05 -4.381512733086e-04 0.0 
3.773974928910e-05 -5.175185997649e-04 0.0 
-2.154065872601e-04 -4.335437704728e-04 0.0 
4.148446838054e-05 -2.087563277869e-04 0.0 
-2.904688218528e-04 -2.885474258537e-04 0.0 
6.547508696571e-05 2.572607309007e-04 0.0 
2.678376068765e-05 2.715500755726e-04 0.0 
4.923809240720e-05 2.921353972213e-04 0.0 
1.277011393901e-05 -8.442447703999e-04 0.0 
2.608613207087e-05 -7.212003160103e-04 0.0 
2.549361178509e-05 3.267453318158e-04 0.0 
2.888508188656e-05 -2.943866782757e-05 0.0 
1.358549356963e-05 2.207946917065e-04 0.0 
2.125305885927e-05 2.963751650901e-06 0.0 
1.296502929624e-05 1.650638550201e-05 0.0 
7.261122085238e-05 -5.547910277931e-04 0.0 
5.227737247275e-05 5.982954073884e-04 0.0 
3.907910535472e-05 5.475400235223e-04 0.0 
5.013814074583e-05 -1.125816469205e-05 0.0 
3.421808815551e-05 1.277342904402e-05 0.0 
4.235517112291e-04 -1.056880366216e-04 0.0 
-6.111394084299e-04 3.813276459843e-04 0.0 
6.092762814335e-04 -4.673059101132e-04 0.0 
-4.891377476748e-06 -7.725712636400e-04 0.0 
6.085468517097e-04 9.359163304793e-05 0.0 
8.349854981864e-04 -3.580164032264e-04 0.0 
4.863064533509e-04 8.313446643215e-07 0.0 
5.037476813298e-04 -5.515420438429e-04 0.0 
8.495286477993e-05 -7.251690518648e-04 0.0 
3.392004293897e-04 1.849452413369e-05 0.0 
6.341982825017e-04 -3.942736285633e-04 0.0 
1.314248117686e-04 -6.227643927105e-04 0.0 
4.277380867251e-04 -1.202595033773e-05 0.0 
8.629424113494e-05 2.475497052313e-03 0.0 
6.579405034853e-05 -6.266531647970e-04 0.0 
1.545092807831e-03 3.904832143343e-04 0.0 
1.202436616459e-03 3.753343632191e-05 0.0 
4.983338361954e-04 -9.141198674754e-05 0.0 
3.638059859252e-04 -8.299692579763e-05 0.0 
2.943556558944e-03 3.207073483989e-03 0.0 
2.604005353188e-03 8.908524929436e-03 0.0 
3.381386346477e-03 5.233123644096e-03 0.0 
7.874513252896e-04 -8.969997948342e-05 0.0 
3.056506990349e-04 -9.482934117182e-06 0.0 
2.399061063687e-04 -7.006643260436e-05 0.0 
7.296373732499e-04 -2.872868648599e-04 0.0 
1.629181123750e-04 2.551917733936e-03 0.0 
2.095212228756e-04 3.532216621070e-03 0.0 
4.009996174920e-04 8.139865418059e-03 0.0 
8.732222710589e-04 -2.311528800233e-05 0.0 
6.394107328628e-04 -9.422877863169e-05 0.0 
1.114638943265e-04 2.526785676331e-03 0.0 
1.430649696885e-04 3.032251912415e-03 0.0 
1.280480506443e-03 3.916429019519e-05 0.0 
2.311925724351e-04 1.705512839005e-05 0.0 
4.363948888626e-04 3.720792104135e-03 0.0 
1.707994973157e-04 -7.523961444730e-05 0.0 
4.518433888464e-04 6.918453260901e-05 0.0 
1.896203561524e-04 2.576612358161e-03 0.0 
3.728758675718e-04 5.100007795023e-03 0.0 
1.517580196385e-03 3.136381963941e-04 0.0 
2.639017352398e-04 -7.427839371269e-04 0.0 
7.066233035512e-04 -1.607368062633e-04 0.0 
1.168496768180e-04 -5.011322002047e-04 0.0 
-4.142197666986e-04 3.537034277512e-04 0.0 
1.728338222101e-04 3.031003321279e-03 0.0 
2.457474176844e-04 2.342987903383e-06 0.0 
-3.225688940660e-04 8.660981559227e-05 0.0 
1.131574091701e-03 2.618355406450e-03 0.0 
4.702424891061e-04 7.643352762315e-03 0.0 
5.628786094065e-04 -1.058577658419e-05 0.0 
3.106104804588e-04 -3.344442560157e-05 0.0 
1.364312664033e-03 8.659659664224e-05 0.0 
2.512578197013e-04 -4.180241654263e-05 0.0 
4.531245028031e-04 8.155726462244e-03 0.0 
2.548555250251e-03 1.689788744517e-03 0.0 
3.456526998854e-04 5.867930398521e-05 0.0 
1.382272357632e-04 -7.852828738815e-04 0.0 
5.630732644732e-04 1.087352533977e-04 0.0 
2.872310797171e-04 4.555571148053e-03 0.0 
2.234494830773e-04 -7.460022310884e-04 0.0 
8.656573429975e-04 -2.277053188624e-04 0.0 
3.474423718113e-04 -3.420364704769e-04 0.0 
5.111635094449e-04 6.164392200057e-03 0.0 
7.208776450163e-04 -4.925921782507e-04 0.0 
2.119709401490e-04 4.007662241338e-03 0.0 
3.235871966373e-04 5.555351921714e-03 0.0 
7.290188570339e-04 -2.949817083534e-04 0.0 
2.919306074195e-04 -9.335323862796e-05 0.0 
3.711341456319e-04 -5.135212883297e-05 0.0 
2.473278773345e-04 4.521017225018e-03 0.0 
2.661713947046e-04 -7.306384124661e-04 0.0 
5.983436989829e-04 -3.682278059726e-04 0.0 
1.905256845929e-03 1.400145591171e-03 0.0 
3.253846202608e-04 4.106339561366e-03 0.0 
5.838490006721e-04 -4.426476469152e-04 0.0 
1.114220529001e-03 -4.113697081822e-06 0.0 
7.291724931868e-04 1.459300082791e-04 0.0 
3.275464079325e-04 5.069233455517e-03 0.0 
-1.158834004685e-04 2.239625616312e-03 0.0 
1.072840338202e-04 -6.553735995697e-04 0.0 
1.506491098091e-03 2.665006437641e-03 0.0 
3.586314968691e-04 -6.765502332586e-08 0.0 
4.163061294769e-04 5.615676089136e-03 0.0 
2.528106649562e-04 -2.794053916519e-04 0.0 
5.420364636808e-04 7.171986634736e-03 0.0 
1.268779020837e-03 3.801195747496e-04 0.0 
5.975015090507e-04 -2.930491866650e-04 0.0 
4.352809540640e-04 -3.934893266298e-05 0.0 
2.212116795937e-04 -7.594088873645e-04 0.0 
4.912992450737e-04 8.200093334435e-05 0.0 
6.424100976658e-04 -3.195432549640e-04 0.0 
1.762684603445e-04 -7.594207464717e-04 0.0 
5.157922084471e-04 -3.871250684101e-04 0.0 
6.404015744807e-04 -5.098809099062e-04 0.0 
6.147953562769e-04 -5.574033506832e-04 0.0 
3.331778751920e-04 -2.659103591121e-04 0.0 
-1.022444241591e-04 -6.449814500985e-04 0.0 
-1.499335325126e-04 -5.515988041667e-04 0.0 
5.623915970429e-04 -1.129015544672e-04 0.0 
2.515075562950e-04 -7.507939352545e-04 0.0 
7.944936646448e-04 -4.961216004484e-05 0.0 
9.516147747676e-04 -3.281524639721e-05 0.0 
1.046603611229e-03 -2.962194588639e-04 0.0 
1.169816454447e-03 2.298233295474e-04 0.0 
3.737564221709e-04 3.214283013323e-03 0.0 
1.837322732955e-04 4.415462644612e-03 0.0 
5.525638124447e-04 -5.144564839765e-04 0.0 
1.182720037623e-03 3.963288374325e-04 0.0 
1.995165293638e-04 -7.747635179808e-04 0.0 
5.014389734373e-04 6.651610062643e-03 0.0 
5.245270916200e-04 7.673671689563e-03 0.0 
3.494624129099e-04 -5.768442811921e-04 0.0 
9.153383621884e-04 1.976922643935e-04 0.0 
5.607804115604e-04 4.739648300846e-03 0.0 
2.901376005501e-04 -7.290485988080e-04 0.0 
3.833099421935e-04 2.783798035457e-03 0.0 
3.468087679716e-04 2.751209106279e-03 0.0 
3.527606460337e-04 -6.991918101151e-04 0.0 
2.775534366356e-03 9.184597816612e-03 0.0 
4.980567000862e-04 -6.012923160626e-04 0.0 
5.027349193236e-04 -5.671767975363e-05 0.0 
4.653007926054e-04 -2.828588998267e-04 0.0 
8.905044777190e-04 2.597627283554e-03 0.0 
3.362005017687e-04 3.183424160675e-03 0.0 
6.443822607320e-04 -5.683334983530e-05 0.0 
7.182507596388e-04 -3.614928801708e-05 0.0 
4.080089264823e-04 -5.900699999932e-04 0.0 
5.717642080403e-04 -4.081181867688e-05 0.0 
5.108579880363e-04 4.710344120315e-03 0.0 
3.824400839127e-04 -2.975420104113e-04 0.0 
4.656711048746e-04 5.647284140665e-03 0.0 
4.530478030192e-04 4.199383986307e-03 0.0 
3.214721380438e-03 3.061986513584e-03 0.0 
3.158695461261e-04 3.628285518660e-03 0.0 
4.702154738968e-04 -4.346759270581e-04 0.0 
5.127579566359e-04 -3.122939729917e-04 0.0 
5.040368463877e-04 -5.815318292642e-04 0.0 
1.132305938555e-03 -2.335981624485e-04 0.0 
4.669346033936e-04 5.163012538667e-03 0.0 
1.630341562359e-03 1.487847491958e-04 0.0 
4.745539090169e-04 -6.349072585414e-04 0.0 
1.921364934230e-04 -5.882936870254e-04 0.0 
5.166108300893e-04 5.193415594404e-03 0.0 
5.299655501031e-04 -6.000290277950e-04 0.0 
5.930022240215e-04 1.221801356194e-04 0.0 
3.721520167367e-04 4.618095375110e-03 0.0 
6.269749643044e-04 6.458381989347e-06 0.0 
6.342970711191e-04 2.668255015806e-04 0.0 
5.024176826029e-04 -4.641526829726e-04 0.0 
3.996427053566e-04 -6.712155079176e-04 0.0 
2.584717663279e-04 -6.085263299062e-04 0.0 
8.666193125307e-04 1.265010368887e-05 0.0 
3.629013928490e-04 6.072622465555e-03 0.0 
1.136267380600e-04 -6.122722539733e-04 0.0 
6.458951466440e-04 -5.268162033029e-04 0.0 
1.415694894304e-04 -7.964239219073e-04 0.0 
5.647617444693e-04 6.195071754237e-03 0.0 
5.661223970340e-04 -5.369049077614e-04 0.0 
1.035175935457e-03 6.278303468912e-07 0.0 
4.345480281277e-04 -6.017170545554e-04 0.0 
2.434402232244e-04 3.564590130512e-03 0.0 
6.337682669620e-04 -5.507864812423e-04 0.0 
1.092420462128e-03 1.071505636156e-04 0.0 
6.503428834560e-04 -2.569494180659e-04 0.0 
1.031903067847e-03 3.889936171429e-05 0.0 
3.926601785835e-04 -3.727446906288e-04 0.0 
7.793690083229e-04 1.921892137831e-05 0.0 
2.347130995463e-03 1.804129986514e-03 0.0 
1.773729105282e-04 -7.839684507736e-04 0.0 
4.362441931691e-04 7.111055852431e-03 0.0 
2.182056629264e-03 8.450345582679e-04 0.0 
3.197684221283e-03 7.085079883994e-03 0.0 
4.102908660494e-04 6.102172293470e-03 0.0 
8.576206593200e-04 -9.588828355278e-05 0.0 
7.379459823270e-04 5.791933427845e-03 0.0 
1.680719392430e-04 -7.913130832623e-04 0.0 
7.684968928782e-04 1.239538282053e-04 0.0 
2.203881364217e-03 9.547669041770e-04 0.0 
2.446777002472e-03 1.724749963419e-03 0.0 
2.786120672182e-04 2.233540974082e-03 0.0 
1.616904481293e-03 1.834484803853e-04 0.0 
2.996034317234e-04 -7.028860658981e-04 0.0 
1.380648317463e-03 1.341751715904e-04 0.0 
7.709014046740e-04 1.672560498695e-04 0.0 
1.315227509527e-03 1.273696057836e-04 0.0 
7.097290618451e-04 -3.083598285127e-06 0.0 
4.168457771609e-04 4.649492067225e-03 0.0 
1.152787317937e-03 4.544249245078e-04 0.0 
1.203851139407e-03 7.831666866215e-05 0.0 
7.758852917537e-04 7.283933551727e-03 0.0 
2.719827610688e-04 -7.148965218870e-04 0.0 
7.155652755531e-04 -5.036561657719e-04 0.0 
3.216138537391e-03 5.387616536190e-03 0.0 
9.417389486296e-04 4.122167666139e-05 0.0 
2.965460967116e-03 8.435398276908e-03 0.0 
3.317666530816e-03 5.349950248459e-03 0.0 
6.210592612385e-04 5.251815481682e-03 0.0 
4.499313054395e-04 6.620998207586e-03 0.0 
7.887245173009e-04 6.791882975738e-03 0.0 
4.751150547153e-04 -3.576853037282e-04 0.0 
1.112366247504e-03 2.628854121001e-04 0.0 
1.560476113940e-03 2.101660085932e-04 0.0 
5.988138501489e-04 7.208143306066e-03 0.0 
1.044655838583e-03 2.122396695421e-03 0.0 
2.301621514173e-03 1.713534653760e-03 0.0 
1.112362184340e-03 7.494106662582e-05 0.0 
4.087118188395e-04 4.168934988954e-03 0.0 
1.049995671145e-03 -2.997838094219e-04 0.0 
8.772287956500e-04 -4.086026109786e-04 0.0 
3.700720400474e-04 -6.333991241558e-04 0.0 
1.461293017540e-03 2.268527237908e-04 0.0 
7.971410431706e-04 -4.421318104180e-04 0.0 
6.234715742199e-04 5.737462457328e-03 0.0 
7.360588537532e-04 6.280751025184e-03 0.0 
3.016290800968e-03 2.283892804780e-03 0.0 
8.459197214770e-04 -4.132313225629e-04 0.0 
2.741903926907e-03 3.402421249583e-03 0.0 
7.898873983921e-04 -4.612209097685e-04 0.0 
9.594829920718e-04 -3.574083934407e-04 0.0 
4.134540505351e-04 -6.382749889339e-04 0.0 
1.321810494277e-03 3.467498056646e-04 0.0 
1.519076265033e-03 4.246436189099e-05 0.0 
3.545029842806e-04 3.659484254134e-03 0.0 
1.707180001737e-03 2.020201366970e-04 0.0 
1.471075320580e-03 1.900681978019e-04 0.0 
1.578174403403e-03 1.290767683017e-04 0.0 
3.374454791023e-03 4.515186436397e-03 0.0 
3.704516968917e-04 -6.733199500425e-04 0.0 
9.623026793867e-04 2.258596473337e-04 0.0 
8.322204968108e-04 2.096197979752e-04 0.0 
2.684251823285e-03 4.076504687340e-03 0.0 
1.139578641326e-03 -2.390670982860e-04 0.0 
1.545487922752e-03 1.639055432822e-04 0.0 
5.689455665947e-04 5.708366750582e-03 0.0 
9.580322074710e-04 -3.458189310534e-04 0.0 
3.304681686354e-03 6.669978183408e-03 0.0 
5.676283187625e-04 -5.854163174136e-04 0.0 
1.088165995035e-03 9.447530933523e-05 0.0 
1.230771299162e-03 -1.770996343433e-04 0.0 
4.932437669912e-04 -6.269114176009e-04 0.0 
3.193855175468e-04 -7.125865256913e-04 0.0 
1.477049965829e-03 5.848602132621e-05 0.0 
1.289419370551e-03 1.233689079679e-04 0.0 
1.836271811553e-03 2.431094442802e-03 0.0 
-1.563584492317e-04 -5.934794201216e-04 0.0 
2.173937370825e-03 7.604680347130e-04 0.0 
1.839030290439e-03 3.491924755425e-04 0.0 
1.327668979422e-03 -1.055158680515e-04 0.0 
6.769016628900e-04 6.253546046544e-03 0.0 
1.569123034336e-03 8.774481661445e-05 0.0 
5.744428289813e-04 -5.725100269954e-04 0.0 
1.416512129389e-03 -4.029839169250e-05 0.0 
2.857931428804e-04 4.074589673814e-03 0.0 
5.068637061718e-04 -6.002016551016e-04 0.0 
1.625749385398e-04 -6.758152553595e-04 0.0 
2.883066758316e-04 -6.645936280923e-04 0.0 
1.164468315592e-03 4.914772283671e-05 0.0 
1.029161340957e-03 -2.945843847355e-04 0.0 
2.034202756645e-03 5.443910116424e-04 0.0 
1.601340406170e-03 1.086476823290e-04 0.0 
6.017293048862e-04 -1.164213346926e-04 0.0 
2.608404211510e-04 -6.990356087259e-04 0.0 
1.059792720241e-03 6.898830866460e-03 0.0 
4.351863013828e-04 -6.547675919880e-04 0.0 
1.405760397410e-03 3.447418675245e-04 0.0 
2.099761803264e-03 2.676481022550e-03 0.0 
1.868580300948e-03 6.319488517336e-03 0.0 
5.884726748501e-04 3.358731126713e-03 0.0 
1.556515886195e-03 2.137229920857e-03 0.0 
3.147863088388e-03 2.784380013079e-03 0.0 
2.424632848482e-03 3.368748648721e-03 0.0 
8.232204307640e-04 7.062152434258e-05 0.0 
1.296516413686e-03 -1.185757020748e-04 0.0 
3.367217330222e-03 4.354734113273e-03 0.0 
1.423486610968e-03 1.061941499909e-03 0.0 
5.275773568296e-04 6.044991474667e-05 0.0 
8.791700709654e-04 -4.005774991493e-04 0.0 
1.730331846752e-03 2.363362357809e-04 0.0 
1.923677860027e-03 4.190361700809e-04 0.0 
4.419917303445e-04 -6.409641199069e-04 0.0 
1.734931541336e-03 2.346952179089e-04 0.0 
2.060972207374e-03 6.103360171144e-04 0.0 
2.368362390649e-03 9.941714663659e-04 0.0 
9.459213646552e-04 -3.576779045918e-04 0.0 
2.401049731244e-03 1.301402502466e-03 0.0 
6.763764784825e-04 5.279081473558e-03 0.0 
2.512787913290e-03 1.295395743716e-03 0.0 
1.166120680475e-03 2.995914532922e-04 0.0 
1.072020649942e-03 2.920613916764e-04 0.0 
9.820619091003e-04 3.217783486168e-04 0.0 
1.887352023482e-03 3.711875333177e-04 0.0 
1.241568429584e-03 1.766595688154e-03 0.0 
2.492798355249e-03 5.413073203139e-03 0.0 
9.252700175042e-04 1.887704313528e-05 0.0 
1.953147037457e-03 5.806110758290e-03 0.0 
7.410255957781e-04 2.982336041193e-03 0.0 
2.054322854103e-03 5.469399703790e-04 0.0 
3.241593377045e-03 6.136309778353e-03 0.0 
2.021625522654e-03 5.289615329747e-03 0.0 
3.210523677548e-03 6.334528236409e-03 0.0 
6.506770739147e-04 1.716692251386e-07 0.0 
2.867019344971e-04 1.424404032269e-03 0.0 
4.496038344138e-04 -1.749690792099e-04 0.0 
1.438990884129e-03 8.034674904415e-04 0.0 
2.479823578484e-04 2.657291899729e-03 0.0 
2.185280627160e-03 1.040111093948e-03 0.0 
6.118145949297e-04 6.718446288153e-03 0.0 
6.230015546569e-04 3.834415638800e-03 0.0 
2.256773649033e-03 8.311455020870e-04 0.0 
2.941368377002e-03 2.070190730032e-03 0.0 
4.517203587627e-04 2.395723290869e-03 0.0 
1.168439697561e-03 1.450604473792e-04 0.0 
7.219945787734e-04 4.820132547714e-03 0.0 
2.051996435117e-03 7.512504984174e-04 0.0 
8.883206037904e-04 2.084578526715e-04 0.0 
7.587869679409e-04 4.361969992181e-03 0.0 
8.748738805759e-04 8.768020147742e-04 0.0 
8.667177387601e-04 2.340610114546e-04 0.0 
1.395932029553e-03 -5.099692987749e-05 0.0 
6.694285057252e-04 6.747824873714e-03 0.0 
7.157464710413e-04 7.267080428343e-03 0.0 
1.779552608880e-03 2.670277396955e-04 0.0 
1.355396294789e-03 2.054939793065e-04 0.0 
1.395699146695e-03 2.806236350107e-04 0.0 
2.352529156846e-04 -6.529465526438e-04 0.0 
2.447652242178e-03 3.576772144528e-03 0.0 
2.694105517566e-03 1.565053451806e-03 0.0 
2.400234647594e-03 1.102208669273e-03 0.0 
3.355861066646e-03 5.528274873850e-03 0.0 
3.584331142348e-04 1.910641270979e-03 0.0 
1.068088058986e-03 2.617149974517e-03 0.0 
2.792565096050e-04 2.689500369389e-03 0.0 
2.886546403309e-03 8.364011451681e-03 0.0 
9.039641412092e-04 3.944753505622e-03 0.0 
1.273949650917e-03 1.579031896952e-04 0.0 
3.437434913210e-04 2.314961422466e-03 0.0 
9.026587780814e-04 4.885482284255e-03 0.0 
1.466278793362e-03 1.086295799142e-05 0.0 
2.835540152064e-03 1.965670375004e-03 0.0 
7.024403265414e-04 4.338330652421e-03 0.0 
5.011156381842e-04 2.859304080170e-03 0.0 
5.468883209460e-04 4.258950049212e-03 0.0 
6.660693294316e-04 4.794950255061e-03 0.0 
1.002806944745e-03 1.960970946271e-04 0.0 
1.672288320290e-03 1.038718989392e-03 0.0 
1.199708682970e-03 2.611656838638e-04 0.0 
1.373123976303e-03 9.075378615788e-05 0.0 
2.323627961851e-03 9.682249330811e-03 0.0 
2.125709126964e-03 1.097359534087e-03 0.0 
1.248879127949e-03 4.942158099884e-03 0.0 
3.696143840856e-04 -6.907397351260e-04 0.0 
2.587790066929e-03 1.360774451380e-03 0.0 
2.505963376696e-03 1.151694714476e-03 0.0 
2.804054831774e-03 1.845883749193e-03 0.0 
1.734112712716e-03 1.894674139537e-03 0.0 
2.731639021696e-03 1.727294720754e-03 0.0 
2.604909604638e-03 1.611708852490e-03 0.0 
2.564474263641e-03 8.145724227865e-03 0.0 
1.426372883812e-03 1.312143597276e-06 0.0 
9.931015708356e-04 5.879395155750e-03 0.0 
6.602355441681e-04 8.857708013591e-03 0.0 
-7.118843302889e-04 9.091758586200e-03 0.0 
1.448562788231e-03 1.003863470584e-04 0.0 
2.020005765514e-03 9.099583828545e-04 0.0 
8.504742752687e-04 2.183111684333e-03 0.0 
2.947463979355e-03 2.067669838364e-03 0.0 
1.418854909198e-03 4.933853718603e-05 0.0 
7.985291622980e-04 5.816982694350e-03 0.0 
5.670233999820e-04 1.135124891851e-02 0.0 
2.243193652939e-03 1.145420708647e-03 0.0 
2.770981922428e-03 1.681218355132e-03 0.0 
2.524717832742e-03 7.754586038815e-03 0.0 
1.320002317858e-03 2.316177475854e-04 0.0 
1.329068584396e-03 8.356833513387e-04 0.0 
1.337413019074e-03 2.958637869158e-04 0.0 
1.093822008457e-03 3.203241980407e-04 0.0 
2.456579595150e-03 1.426743893854e-03 0.0 
5.968600215733e-04 4.286986011550e-03 0.0 
2.272780335393e-03 2.344125016068e-03 0.0 
1.050554354307e-03 2.870069020051e-04 0.0 
1.326427499241e-03 1.216258383508e-02 0.0 
8.545843713450e-04 5.351430499424e-03 0.0 
1.681410611333e-03 1.225693440062e-03 0.0 
5.733464990307e-04 3.808253290582e-03 0.0 
2.681900684711e-03 1.650550682162e-03 0.0 
2.894409799767e-03 2.014655902245e-03 0.0 
8.584683417462e-04 -2.169360986798e-04 0.0 
5.885591245424e-04 2.558460972268e-03 0.0 
4.541756907955e-04 3.277133824875e-03 0.0 
3.252287398922e-04 -6.981057667275e-04 0.0 
1.755007703153e-03 1.233571962284e-02 0.0 
2.393799794753e-03 2.787890088075e-03 0.0 
2.486157292538e-04 2.202691089840e-03 0.0 
1.032967134373e-03 5.348042152391e-04 0.0 
3.082540517828e-03 5.350625676048e-03 0.0 
8.400406837227e-04 4.865889354182e-03 0.0 
1.184265600819e-03 -1.127992461784e-04 0.0 
1.624251452798e-03 1.590543396400e-03 0.0 
3.149129456154e-03 6.169668218255e-03 0.0 
5.785120046030e-04 1.972138841291e-04 0.0 
1.113799195229e-03 7.272452853019e-04 0.0 
8.305917573033e-04 4.387547966727e-04 0.0 
2.845607181771e-03 1.864486812882e-03 0.0 
1.509832136256e-04 4.902180508137e-04 0.0 
1.962786096877e-03 1.219858841397e-02 0.0 
8.174277161389e-04 1.462496346570e-04 0.0 
3.064294025843e-03 2.993688720287e-03 0.0 
1.052455070987e-03 5.401668446594e-03 0.0 
1.190195548101e-03 2.497270021414e-03 0.0 
9.418389467753e-04 2.893862528634e-04 0.0 
7.667118947145e-04 2.747719669366e-04 0.0 
3.776461929599e-04 -6.418782645670e-04 0.0 
2.385183996827e-03 1.485314628025e-03 0.0 
2.105068833614e-03 6.103382280933e-04 0.0 
1.901492328499e-03 1.323061588976e-03 0.0 
3.195222730294e-03 7.372035064397e-03 0.0 
1.143523010726e-03 4.457236892416e-03 0.0 
1.432752241360e-03 8.410044760930e-04 0.0 
7.928849077953e-04 5.329313032717e-03 0.0 
9.035508211407e-04 2.189183117479e-03 0.0 
7.849190023708e-04 3.906074528175e-03 0.0 
7.981245063076e-04 3.452480349263e-03 0.0 
1.983564906966e-03 4.604585827259e-03 0.0 
8.337764237727e-04 1.133017774105e-04 0.0 
8.778163308401e-04 4.403935666256e-03 0.0 
3.266431060727e-03 3.314698761865e-03 0.0 
2.028884663704e-03 1.179903850038e-02 0.0 
1.183461415392e-03 6.933799491779e-04 0.0 
2.082064369826e-03 2.993546938396e-03 0.0 
3.822630353927e-04 -6.624555040811e-04 0.0 
2.105702709436e-03 1.472572047258e-03 0.0 
3.005539775732e-05 -8.295769159287e-04 0.0 
3.323333665822e-03 4.655667628426e-03 0.0 
2.170856785713e-03 1.195546524447e-03 0.0 
6.267996187194e-04 2.513503859087e-03 0.0 
5.927094289356e-04 2.068076421143e-03 0.0 
2.343871175594e-03 1.368949090394e-03 0.0 
6.376322126240e-04 3.384377932327e-03 0.0 
3.213589967230e-03 3.354628786203e-03 0.0 
2.242174753941e-03 3.062695346350e-03 0.0 
1.990175938696e-03 1.121159735380e-02 0.0 
1.202566013272e-03 2.204619878840e-03 0.0 
1.874698553521e-03 1.048716882275e-02 0.0 
1.796075532271e-03 1.008482841909e-02 0.0 
3.092786575599e-03 2.528530209136e-03 0.0 
1.703481908078e-03 9.663374262516e-03 0.0 
3.140973975824e-03 3.509285378512e-03 0.0 
3.378204839343e-03 4.301222257502e-03 0.0 
2.744552277459e-03 1.614694881107e-03 0.0 
1.374397401444e-03 1.458988413725e-03 0.0 
2.986376433251e-03 2.259294452506e-03 0.0 
4.595355248939e-04 2.833032468285e-03 0.0 
9.886213620267e-04 2.131147633495e-03 0.0 
9.890680296711e-04 1.009776479804e-04 0.0 
1.676351966338e-03 1.098988782546e-03 0.0 
2.214674562551e-03 7.469607009393e-04 0.0 
7.422117113648e-04 3.431690718939e-03 0.0 
2.840955429292e-03 1.825921677296e-03 0.0 
6.693149168493e-04 8.393712655548e-05 0.0 
7.285077338303e-04 3.883701784173e-03 0.0 
9.670719643599e-04 3.959794902543e-03 0.0 
2.483968382939e-03 1.332405901009e-03 0.0 
3.112153884246e-03 2.766621022087e-03 0.0 
1.891271195554e-03 2.376179762374e-03 0.0 
2.404924195195e-03 5.502745770214e-03 0.0 
1.281844809846e-03 1.188428296339e-03 0.0 
1.962751572959e-03 2.594055116751e-03 0.0 
3.278327869948e-03 6.832870613537e-03 0.0 
3.016643590456e-03 5.536021367089e-03 0.0 
5.177972232091e-04 6.278928961966e-05 0.0 
9.409486747357e-04 4.421825013379e-03 0.0 
3.027163003741e-03 2.486172865870e-03 0.0 
2.757836456748e-03 4.503547012736e-03 0.0 
1.942964855083e-03 9.501910188090e-04 0.0 
4.972375059336e-04 3.306297166611e-03 0.0 
1.618041470728e-03 2.112919341016e-03 0.0 
1.132391917206e-03 5.902281174249e-03 0.0 
1.546842419053e-03 5.531485893746e-04 0.0 
2.864095241162e-03 1.854337261140e-03 0.0 
1.895174519412e-03 8.680994822757e-04 0.0 
3.298508844817e-03 4.909613281401e-03 0.0 
4.933059784276e-04 2.433097299512e-03 0.0 
1.298940906310e-03 1.752929579654e-03 0.0 
2.664018214638e-03 1.508653731350e-03 0.0 
1.691737800763e-03 2.438683159371e-03 0.0 
2.093641519064e-03 2.019524056331e-03 0.0 
3.205249206270e-03 4.093179069924e-03 0.0 
3.138502286153e-03 3.036760925309e-03 0.0 
2.616489326918e-03 1.496589122068e-03 0.0 
1.538373606204e-03 4.529978030915e-04 0.0 
1.580280254789e-03 2.079389142635e-03 0.0 
2.783374379467e-03 1.673589695059e-03 0.0 
1.933283785161e-03 5.332696413190e-03 0.0 
4.732148875688e-04 4.978265609823e-05 0.0 
1.985545738871e-03 4.821779525529e-03 0.0 
2.238170242259e-03 2.434106851336e-03 0.0 
1.863728448486e-03 5.841412314308e-03 0.0 
1.684575225499e-03 6.849103442183e-03 0.0 
2.456213030404e-03 4.950606124146e-03 0.0 
1.885600315105e-03 1.173829222371e-03 0.0 
9.468980232743e-04 1.230787279712e-04 0.0 
1.034160936717e-03 4.917145424173e-03 0.0 
5.488081702233e-04 2.052327068189e-03 0.0 
1.779541742414e-03 6.346779954011e-03 0.0 
2.841733560616e-03 2.851566313522e-03 0.0 
1.872052347826e-03 1.781445012496e-03 0.0 
3.769072588833e-04 2.335032513558e-03 0.0 
3.337524266052e-03 4.126755017057e-03 0.0 
3.279838096128e-03 4.252007361970e-03 0.0 
2.970961030601e-03 2.676508118262e-03 0.0 
1.073507128261e-03 4.449420884691e-03 0.0 
3.056370147262e-03 7.887596410486e-03 0.0 
3.046542665089e-03 3.169687566684e-03 0.0 
3.131666254269e-03 7.614407137197e-03 0.0 
2.268126076950e-03 1.501974372597e-03 0.0 
1.395556700837e-03 1.234237469645e-03 0.0 
2.860522192213e-03 2.163268226462e-03 0.0 
5.240084543390e-04 2.175790498255e-03 0.0 
6.835456760028e-04 2.093504508401e-03 0.0 
2.965195165218e-03 7.830281893795e-03 0.0 
2.373967900354e-03 9.513927659850e-04 0.0 
1.655697662335e-03 1.476378833984e-03 0.0 
1.103611567091e-03 4.929699898563e-03 0.0 
1.129005228253e-03 1.692704543628e-04 0.0 
3.329388841662e-03 4.017205232079e-03 0.0 
1.904515365399e-04 2.031611027360e-03 0.0 
3.387716846443e-04 3.908715548765e-05 0.0 
3.050004992426e-03 4.903225022961e-03 0.0 
2.636482296726e-03 2.107003290896e-03 0.0 
1.706501195650e-03 2.004274467018e-03 0.0 
-4.212706006986e-04 2.122059764201e-03 0.0 
1.199121204677e-03 2.082369649576e-04 0.0 
2.931002544097e-03 5.140117234868e-03 0.0 
1.206171497973e-03 5.909038714773e-03 0.0 
1.165290407813e-03 -5.535585768913e-05 0.0 
2.960178410405e-03 2.439132167067e-03 0.0 
6.180211445761e-04 6.595118386255e-05 0.0 
3.132145958908e-03 3.714880966223e-03 0.0 
2.864373467397e-03 2.604990899757e-03 0.0 
2.943448130069e-03 4.640310608091e-03 0.0 
1.573270409703e-04 1.685248648856e-03 0.0 
2.479827222078e-03 3.266671674277e-03 0.0 
2.241731421211e-03 1.397938033222e-03 0.0 
1.016259137702e-03 1.437623380586e-03 0.0 
2.150961282591e-03 2.601483572314e-03 0.0 
2.317390436539e-03 2.511558851229e-03 0.0 
9.188456326648e-04 7.109046593769e-05 0.0 
3.252001276456e-04 1.876222105552e-03 0.0 
9.079751278111e-04 5.581956538451e-04 0.0 
2.093874342090e-03 1.383609473807e-03 0.0 
3.254099857373e-03 3.362095383487e-03 0.0 
2.743087992801e-03 3.946211950892e-03 0.0 
3.851326371838e-04 2.792808969519e-05 0.0 
2.669918833205e-04 -3.537811399781e-04 0.0 
2.348568606863e-03 2.885620921670e-03 0.0 
9.840852562478e-04 5.387894653800e-03 0.0 
7.763603064119e-04 8.988276231855e-05 0.0 
1.137113697409e-03 2.225447493310e-04 0.0 
2.644762191967e-04 9.350128994597e-03 0.0 
1.764682770753e-04 9.352997673603e-03 0.0 
1.813605292550e-03 4.892403369885e-03 0.0 
2.645869878017e-03 3.543818144126e-03 0.0 
1.009299387278e-03 -8.702771138065e-05 0.0 
2.322068601174e-03 4.582262289913e-03 0.0 
3.221829664045e-03 3.644337800176e-03 0.0 
1.355160948665e-03 5.781358775498e-04 0.0 
3.308096546303e-03 3.671380274596e-03 0.0 
1.354059219551e-04 5.003807994932e-04 0.0 
1.722309550278e-03 7.815100379871e-03 0.0 
3.287590536988e-03 4.008761679934e-03 0.0 
1.258706983190e-03 -8.689636676150e-06 0.0 
2.330799733836e-03 3.144518045805e-03 0.0 
1.326864988463e-03 -6.153111571642e-05 0.0 
2.878936809627e-03 4.216270407933e-03 0.0 
2.848519604188e-03 5.398979323026e-03 0.0 
1.195685282128e-03 5.420980461509e-03 0.0 
2.253325036041e-03 4.137092236793e-03 0.0 
2.092985722242e-03 3.770266433559e-03 0.0 
6.054206726846e-05 -8.443765382931e-04 0.0 
1.267355282146e-03 -1.195590735196e-04 0.0 
3.049837764050e-03 7.602525740213e-03 0.0 
2.199062911918e-03 5.182144750102e-03 0.0 
2.072045732953e-03 4.774616712915e-03 0.0 
1.662993746756e-03 9.280247258579e-04 0.0 
1.728528381831e-05 -8.137508396161e-04 0.0 
1.205914049393e-03 1.619229925308e-03 0.0 
3.190636205294e-03 4.942452267518e-03 0.0 
1.170784462111e-03 -1.746009018968e-04 0.0 
1.876437011045e-03 1.004701398956e-02 0.0 
1.784634312399e-03 9.637422852380e-03 0.0 
1.270936960520e-03 5.425622655105e-03 0.0 
1.769754254738e-03 5.002771838143e-03 0.0 
1.132161864161e-03 -1.057696920178e-04 0.0 
1.961320024499e-03 8.228399244282e-04 0.0 
1.301935642820e-03 1.935499911081e-03 0.0 
7.307843493931e-04 6.845798016604e-04 0.0 
6.400290258233e-04 2.947264937037e-03 0.0 
9.062931240129e-04 -2.351681793268e-04 0.0 
8.192595089073e-04 6.977253083661e-05 0.0 
7.450541568404e-05 -8.079357837687e-04 0.0 
1.985893813951e-03 7.515124885740e-04 0.0 
3.102546612914e-03 4.715310568213e-03 0.0 
5.836865139552e-05 -8.342617967626e-04 0.0 
5.918607956230e-04 2.922324894426e-03 0.0 
1.097097638804e-03 2.127057511589e-03 0.0 
2.286725851127e-03 5.115203819200e-03 0.0 
2.921843881692e-03 5.245604582356e-03 0.0 
2.432289191406e-03 1.056019147707e-03 0.0 
1.941016783025e-03 5.236348623229e-04 0.0 
5.817158437074e-04 2.499222385253e-03 0.0 
1.805751105423e-03 4.942302690433e-04 0.0 
3.181027119301e-03 4.308955169027e-03 0.0 
3.230791188154e-03 4.721729114049e-03 0.0 
-1.305988338356e-03 7.472105980591e-03 0.0 
7.856542540751e-04 1.978267348978e-03 0.0 
2.030727912830e-03 2.177611668414e-03 0.0 
1.607770048044e-03 6.377500443624e-03 0.0 
1.843748834727e-03 1.849550789311e-03 0.0 
2.989546022781e-03 5.651422834056e-03 0.0 
1.318632423761e-03 3.522056530401e-03 0.0 
1.752780661821e-03 1.950349710677e-03 0.0 
1.847939567629e-03 9.157673519858e-03 0.0 
1.988750141052e-03 2.247257555798e-03 0.0 
7.549025206642e-04 4.647255924974e-05 0.0 
2.840654495607e-03 3.663627976382e-03 0.0 
1.280329735299e-03 -6.184372575938e-05 0.0 
1.321642574017e-03 -8.147950585860e-06 0.0 
7.341944288471e-04 2.111772311099e-03 0.0 
2.023517977724e-03 5.406681012408e-04 0.0 
2.881183946707e-03 4.797294476446e-03 0.0 
3.162580835732e-03 2.955282253343e-03 0.0 
1.618315330413e-03 4.515283244796e-04 0.0 
3.326156955182e-03 3.857484314568e-03 0.0 
2.400671630559e-03 2.296741683654e-03 0.0 
2.604415902336e-03 1.340295458381e-03 0.0 
2.692265473248e-03 2.753733976587e-03 0.0 
2.240455581950e-03 4.657187417891e-03 0.0 
2.579045303102e-03 2.413593824887e-03 0.0 
2.537911659739e-03 4.855436117957e-03 0.0 
1.870067098803e-03 1.100671944488e-03 0.0 
2.051946470048e-03 1.206415856548e-03 0.0 
3.348377906873e-03 3.931878950462e-03 0.0 
1.359675907879e-03 5.910332990848e-03 0.0 
6.607095458957e-04 4.859684803876e-05 0.0 
6.024219360138e-04 3.088519044180e-05 0.0 
1.105670729104e-03 5.201193578638e-03 0.0 
2.478771816158e-03 4.408967889542e-03 0.0 
3.748348072644e-04 4.793203468676e-05 0.0 
2.502765809906e-03 1.034747506625e-02 0.0 
8.933460655904e-04 -1.681526927691e-04 0.0 
-6.825744323273e-04 7.936763559323e-03 0.0 
5.151511990539e-04 3.523289274416e-05 0.0 
2.435439383274e-03 2.882932480192e-03 0.0 
2.216223851860e-04 -3.227817124523e-04 0.0 
2.652749374229e-03 2.249017280036e-03 0.0 
1.439568487223e-03 5.908096576093e-03 0.0 
1.523850140290e-03 6.386043031115e-03 0.0 
3.045907825953e-03 4.296082585478e-03 0.0 
2.021042026877e-03 1.079264869238e-02 0.0 
1.956276103376e-03 1.043435932143e-02 0.0 
4.631320712890e-04 2.222320554022e-05 0.0 
1.924486460494e-03 5.534286720734e-04 0.0 
2.405957165623e-03 9.980485088217e-04 0.0 
2.056263313400e-03 8.427690154372e-04 0.0 
2.679921746843e-03 1.459435704612e-03 0.0 
2.631940747441e-03 3.008255464317e-03 0.0 
1.941961105224e-03 1.086462728031e-02 0.0 
1.662305828946e-03 7.351745776974e-03 0.0 
2.220042890472e-04 9.640734717467e-03 0.0 
2.022384655784e-03 1.120389885403e-03 0.0 
3.316098102394e-03 3.639565848751e-03 0.0 
1.190152940199e-03 7.338180420366e-04 0.0 
1.983673576402e-04 -2.364514147353e-05 0.0 
2.695604036981e-03 1.489914934720e-03 0.0 
3.132264539437e-04 5.043343958439e-05 0.0 
2.507184006323e-03 1.911912983977e-03 0.0 
1.444801539781e-03 9.913330174265e-04 0.0 
3.084233349479e-03 4.110450339761e-03 0.0 
2.766989346881e-03 3.146143693504e-03 0.0 
1.416174011515e-03 5.223188299218e-04 0.0 
1.328201887155e-03 -9.285026348629e-05 0.0 
2.689189925452e-03 4.632572838637e-03 0.0 
2.580848522010e-03 1.278454882210e-03 0.0 
2.739213137907e-03 5.079695043016e-03 0.0 
3.122116361392e-03 5.685126277657e-03 0.0 
2.655247642869e-03 2.668793449039e-03 0.0 
2.539163601989e-03 1.229435058278e-03 0.0 
1.098847843609e-03 -4.914906422152e-05 0.0 
2.660850540402e-03 5.202652191564e-03 0.0 
-8.398078147837e-04 5.308217142741e-03 0.0 
2.995673998912e-03 2.590072831277e-03 0.0 
5.279978468037e-04 7.693822580206e-03 0.0 
1.917279047922e-04 -7.242037388822e-04 0.0 
9.829051321213e-04 -1.347072121106e-04 0.0 
1.985897044429e-03 2.811085334611e-03 0.0 
1.604758817505e-03 5.903062892900e-03 0.0 
2.097574000352e-03 1.140456281854e-02 0.0 
6.993083498940e-05 2.431200685925e-04 0.0 
-1.773983488513e-03 6.131770761924e-03 0.0 
2.070029481241e-03 1.111637113187e-02 0.0 
2.322162819144e-03 8.960157254270e-04 0.0 
7.698335776956e-04 -2.458177419002e-04 0.0 
2.323385569534e-03 9.275936077521e-03 0.0 
2.184409721654e-03 1.050256215617e-03 0.0 
2.037700769364e-03 5.838004862378e-04 0.0 
2.928854885023e-03 4.059956840068e-03 0.0 
2.765825332409e-03 2.222095220058e-03 0.0 
1.469808467749e-03 2.622949130247e-03 0.0 
1.399491581508e-03 4.792895876917e-03 0.0 
9.975907605354e-04 -1.989199605857e-04 0.0 
7.187659134917e-04 -2.233970462349e-04 0.0 
8.132965116726e-04 -4.106973993958e-04 0.0 
1.741281043375e-03 8.725361140615e-03 0.0 
1.689775679434e-03 5.891576730713e-03 0.0 
7.165339730841e-05 -1.059556549318e-04 0.0 
5.055057228108e-05 -8.242345067873e-04 0.0 
-7.828338606669e-04 2.341769003369e-03 0.0 
4.932715740439e-04 -4.825226983776e-04 0.0 
6.330426042149e-04 -2.460669443891e-04 0.0 
2.654408929150e-03 1.827303787212e-03 0.0 
2.157715913497e-03 1.163631777621e-03 0.0 
2.283381339364e-03 1.978928534549e-03 0.0 
8.343054776836e-04 -1.508610530829e-04 0.0 
1.728706076095e-03 4.912454746989e-03 0.0 
5.802125146557e-04 -2.204481269952e-04 0.0 
2.764599444705e-03 2.092781689080e-03 0.0 
2.551687484366e-03 4.309061758769e-03 0.0 
1.031845125052e-03 7.903346070367e-03 0.0 
2.306818558878e-03 1.816439852749e-03 0.0 
4.972142554610e-04 -2.379952961061e-04 0.0 
7.483600896355e-04 -1.772237633282e-04 0.0 
2.076789885482e-03 1.184661803595e-02 0.0 
2.533894888520e-03 1.431794693732e-03 0.0 
4.423077323323e-04 -2.102529417145e-04 0.0 
3.930945504033e-05 5.860276433295e-03 0.0 
4.359758340989e-05 6.830980887833e-03 0.0 
2.099372850399e-03 1.165458434592e-02 0.0 
6.885162479945e-04 -1.561185490428e-04 0.0 
1.816076881824e-03 5.902730338249e-04 0.0 
1.492834787195e-03 8.230517095200e-03 0.0 
1.443507412216e-03 9.417123621055e-04 0.0 
5.104733513695e-04 -3.099827082678e-04 0.0 
1.843256418518e-03 5.211701216419e-04 0.0 
3.102878541168e-03 2.879692773540e-03 0.0 
2.022816483801e-03 1.152405422067e-02 0.0 
3.611320607560e-04 -2.234848941360e-04 0.0 
4.737907428708e-05 -7.467194950037e-04 0.0 
1.696143024222e-03 8.287310638618e-03 0.0 
6.060919822915e-04 -1.766730145555e-04 0.0 
2.267942013115e-03 8.053602834965e-04 0.0 
1.039325044800e-03 -1.472423992801e-04 0.0 
-6.233276901829e-04 4.354341623697e-03 0.0 
4.837963736015e-05 3.011708474323e-03 0.0 
2.190871165671e-03 8.482150730313e-04 0.0 
1.582713185263e-03 7.480480748869e-04 0.0 
2.791117363239e-03 3.003559561013e-03 0.0 
5.467934908915e-04 -1.528597776003e-04 0.0 
4.660075001270e-04 -1.688925356484e-04 0.0 
2.532853567696e-03 1.739999820043e-03 0.0 
1.874909245863e-04 -1.758446076382e-04 0.0 
-4.773296499509e-04 4.931388117420e-03 0.0 
4.068234813120e-04 -1.432103623894e-04 0.0 
1.466401757724e-03 5.772814157702e-04 0.0 
1.498441826917e-03 1.651029793681e-04 0.0 
2.467921527282e-03 3.879719100547e-03 0.0 
2.502377790527e-03 1.046601755452e-02 0.0 
2.328329621689e-03 4.058967842611e-03 0.0 
5.490118938656e-04 1.563277789311e-04 0.0 
-1.624819841891e-03 2.587064933770e-03 0.0 
7.045327505497e-06 2.631239996554e-04 0.0 
1.510606695926e-05 6.688061224284e-06 0.0 
2.739222541835e-05 8.372115627560e-03 0.0 
1.852931589071e-03 4.000190873402e-04 0.0 
2.877904858589e-03 3.512329032906e-03 0.0 
2.757668099694e-03 2.297128411180e-03 0.0 
1.465161823280e-04 -7.126304609643e-04 0.0 
-1.273890366243e-03 6.493701582817e-03 0.0 
1.977635101172e-04 2.167044954323e-03 0.0 
1.758965979734e-03 5.388049346312e-03 0.0 
1.689332604857e-03 9.203122061167e-03 0.0 
3.749903739286e-04 3.104593630079e-04 0.0 
3.857822603452e-05 -7.931762850784e-04 0.0 
3.667620029826e-04 2.769998682745e-04 0.0 
1.674051769216e-03 5.410922326042e-03 0.0 
1.530911805642e-03 6.548834159155e-05 0.0 
3.004430771532e-03 3.723025650874e-03 0.0 
1.745098764066e-03 3.237775635483e-04 0.0 
1.855828255394e-03 9.125155653581e-03 0.0 
1.521901949469e-03 1.273166509533e-04 0.0 
1.766461704689e-03 4.421414979012e-03 0.0 
1.978167370472e-04 -3.461228511909e-06 0.0 
2.079924825322e-03 7.672054825504e-04 0.0 
2.235173428642e-03 3.631312137174e-03 0.0 
-1.346484163024e-03 2.216816922177e-03 0.0 
2.426115226517e-03 1.350950693072e-03 0.0 
1.388597330659e-03 3.991096603048e-03 0.0 
1.224031504125e-03 -1.589650939406e-04 0.0 
1.269332372378e-03 -2.261928543731e-05 0.0 
3.028121293992e-03 3.543232376440e-03 0.0 
7.466209700174e-04 7.129216153456e-04 0.0 
1.917844727753e-03 1.208173348374e-02 0.0 
2.005201841158e-03 1.202794949294e-02 0.0 
1.088957557150e-03 -2.078790684870e-04 0.0 
2.223734899083e-03 7.679776640171e-04 0.0 
3.267837146604e-03 3.511448840377e-03 0.0 
2.301849666026e-03 3.551969525883e-03 0.0 
9.036336471762e-04 1.702307840216e-03 0.0 
2.009750149231e-03 1.203174510775e-02 0.0 
7.244843097179e-05 4.853415817064e-03 0.0 
1.121582485861e-03 1.411916787882e-03 0.0 
2.621808022766e-03 2.203563673245e-03 0.0 
5.923655660821e-04 8.655463304206e-03 0.0 
2.586719702212e-03 1.011804716716e-02 0.0 
2.097489928248e-03 6.021801246518e-04 0.0 
2.019627599203e-03 3.829402797290e-03 0.0 
2.201503358324e-03 7.239779649233e-04 0.0 
5.896618726021e-04 4.409483601799e-03 0.0 
2.124931530286e-03 7.191628163110e-04 0.0 
2.101918332387e-03 9.771610735728e-03 0.0 
3.240391056629e-03 3.260976389385e-03 0.0 
2.133904260648e-03 6.893122087426e-04 0.0 
2.925723397407e-03 3.189951625980e-03 0.0 
2.760410501592e-04 6.042801663368e-03 0.0 
1.003574683182e-03 -2.856771931688e-04 0.0 
9.777259022417e-04 7.129921568190e-03 0.0 
2.012197716471e-03 6.434449035567e-04 0.0 
2.262491335245e-03 1.020882494491e-02 0.0 
-8.098586393273e-04 2.668879751845e-03 0.0 
1.794321767124e-05 1.972549962227e-03 0.0 
2.431341628153e-05 2.940250016853e-03 0.0 
-1.507707702239e-04 -2.270339248237e-04 0.0 
1.971640023753e-03 6.592971609367e-04 0.0 
6.611485379822e-04 -4.529692853854e-04 0.0 
7.070436800172e-04 -4.622680432181e-04 0.0 
1.924539163391e-03 2.869693832435e-03 0.0 
2.935316751589e-03 3.022002403935e-03 0.0 
2.183309379107e-03 3.142384977983e-03 0.0 
2.310353304516e-03 1.139272817096e-03 0.0 
5.051203263845e-04 9.671233636063e-03 0.0 
4.018043752244e-04 1.031063792917e-04 0.0 
5.538109511464e-04 -4.982088827055e-04 0.0 
1.796497838882e-03 8.900659696280e-04 0.0 
3.213443584532e-03 3.416295663108e-03 0.0 
1.089865808614e-04 -8.160412162070e-04 0.0 
2.017606983989e-03 4.321642092623e-03 0.0 
2.646430546289e-03 1.659414670343e-03 0.0 
3.447349141450e-05 5.981082597956e-05 0.0 
2.274639792674e-03 1.392964388543e-03 0.0 
3.809169316505e-05 -1.365666353074e-04 0.0 
1.850060413518e-03 4.393872218100e-03 0.0 
4.146283009924e-04 -2.723178409824e-04 0.0 
1.489620330686e-04 -3.379249642203e-04 0.0 
1.988092139933e-03 3.341165989300e-03 0.0 
2.114664271570e-03 1.652561248443e-03 0.0 
1.300564688669e-03 -5.082476769948e-05 0.0 
9.704128784536e-05 -7.400014405887e-04 0.0 
3.126295199993e-03 3.090233732314e-03 0.0 
2.071570922712e-05 6.367788892556e-03 0.0 
-9.582785812037e-06 3.250393921417e-04 0.0 
8.354669823091e-04 9.215514766712e-04 0.0 
4.827221538578e-04 1.018040954156e-03 0.0 
9.520676810054e-05 7.716095365399e-03 0.0 
3.211028680211e-04 1.477086960924e-03 0.0 
5.383132399329e-04 9.127812803581e-04 0.0 
2.305579700824e-03 1.026929743313e-03 0.0 
1.966367432489e-03 6.049302144683e-04 0.0 
8.425946230666e-04 4.048914283584e-04 0.0 
-1.533705654928e-03 2.960308534231e-03 0.0 
2.129294221621e-05 -7.724875824458e-04 0.0 
1.104829551567e-04 -3.092759769690e-04 0.0 
1.206269780494e-03 -1.421531915459e-04 0.0 
1.927952848085e-03 7.637311954540e-04 0.0 
1.582686040146e-03 1.198471601588e-02 0.0 
1.775148670550e-03 1.207210465050e-02 0.0 
8.852268997016e-04 7.843430277514e-03 0.0 
2.417095522831e-03 1.491266702515e-03 0.0 
2.662717613227e-04 -6.972856385797e-04 0.0 
2.319234892263e-03 2.156766421670e-03 0.0 
1.426551120065e-04 3.360753923038e-05 0.0 
1.831917983309e-04 4.523948119489e-05 0.0 
1.964348609387e-03 5.358077873505e-04 0.0 
1.143589136030e-03 8.432028436994e-03 0.0 
-1.011451696033e-03 2.146025412166e-03 0.0 
1.038655273774e-03 1.129545502325e-02 0.0 
6.051699810590e-04 8.417082271030e-04 0.0 
1.372443024624e-03 1.170166374207e-02 0.0 
3.040249968771e-03 2.978678057554e-03 0.0 
1.602039294270e-03 2.924174126819e-04 0.0 
2.068689777612e-03 8.569035513531e-04 0.0 
-2.357079138373e-04 1.325836234773e-03 0.0 
5.532089489757e-05 2.661118901257e-03 0.0 
1.733404770412e-03 3.758061707323e-04 0.0 
1.722393539425e-04 2.118310913351e-03 0.0 
1.463952893157e-04 3.528255145521e-03 0.0 
2.108177732904e-05 5.811164036739e-04 0.0 
3.384580582743e-05 1.217365951581e-05 0.0 
5.027409960112e-05 7.825997152901e-03 0.0 
1.637193410477e-03 2.026024770832e-04 0.0 
1.857462394669e-03 1.236423390801e-02 0.0 
1.636327791793e-03 1.659877611135e-04 0.0 
5.521127401934e-05 1.255017023059e-05 0.0 
-2.820185354912e-05 9.428342049458e-03 0.0 
5.924498999790e-04 1.053739574859e-02 0.0 
1.653258443051e-03 8.754565983772e-04 0.0 
8.568442780180e-04 8.727772540374e-03 0.0 
1.042159550083e-04 2.029618879739e-03 0.0 
2.055275260685e-03 3.280336087097e-03 0.0 
1.681287980556e-03 1.289227675575e-03 0.0 
1.593918811188e-03 3.046939937822e-03 0.0 
3.228950081243e-04 7.482781580259e-03 0.0 
1.051010882940e-03 -1.880069675045e-04 0.0 
1.137090789993e-03 -9.407560830118e-05 0.0 
9.081197956541e-05 5.337684723512e-03 0.0 
1.913313441607e-03 1.566086188755e-03 0.0 
1.480625801662e-03 9.134203173176e-03 0.0 
1.739509855745e-04 8.797233134051e-03 0.0 
2.078702740104e-04 7.937454682527e-03 0.0 
3.708703747192e-04 7.597298198786e-03 0.0 
4.280049965626e-04 1.519107798314e-03 0.0 
9.235291146852e-04 -2.521989378762e-04 0.0 
1.505937392059e-04 1.296048754976e-03 0.0 
3.552946031633e-04 6.561254860327e-03 0.0 
6.461366565423e-04 3.766292240538e-04 0.0 
9.934512112675e-04 1.784900099807e-03 0.0 
2.098353893778e-03 4.271153728502e-03 0.0 
4.746613025032e-04 2.041883251406e-03 0.0 
4.612352307237e-04 -5.071648282010e-04 0.0 
4.300238461334e-04 -5.754440150830e-04 0.0 
6.819107855454e-04 1.707465964982e-04 0.0 
-5.727398276320e-04 1.321199852333e-03 0.0 
1.140973533753e-04 -7.578055319801e-04 0.0 
1.833550594622e-04 1.445976231893e-04 0.0 
1.823117217613e-05 -8.545050482801e-04 0.0 
2.146075797227e-04 8.502858199070e-03 0.0 
1.153058408924e-03 4.950754054812e-04 0.0 
3.533573861866e-05 -5.312051815060e-04 0.0 
-2.313921751371e-05 -7.235551514802e-04 0.0 
9.017013408549e-05 5.018676100990e-04 0.0 
7.496795719301e-04 9.379677027328e-03 0.0 
2.202789242665e-04 1.402134293995e-03 0.0 
1.103998498554e-03 5.359056401422e-04 0.0 
6.487082416825e-04 9.391149510104e-03 0.0 
-1.132680406366e-03 2.973090219345e-03 0.0 
3.671710326565e-05 1.088634272056e-03 0.0 
1.784840691413e-04 -7.492569837580e-04 0.0 
2.472597028893e-04 1.827996732584e-03 0.0 
4.395992116237e-05 1.006958244421e-05 0.0 
8.107228128682e-04 1.738264305181e-03 0.0 
9.381970831706e-04 1.500467204378e-03 0.0 
1.262628614345e-03 7.780076753185e-03 0.0 
2.789158432018e-04 -5.399735957359e-04 0.0 
2.320037057498e-03 2.045185521556e-03 0.0 
3.386490548208e-04 1.981522305756e-04 0.0 
8.616846910110e-05 4.360084853160e-03 0.0 
3.396630733461e-04 1.806670493158e-04 0.0 
-1.698513207803e-04 1.596336768440e-03 0.0 
2.608356830294e-04 5.139800934328e-05 0.0 
1.057346964226e-03 1.054079020865e-03 0.0 
8.220504724025e-05 -8.328926110747e-04 0.0 
6.756040417629e-04 2.496280248584e-04 0.0 
3.825883563103e-04 1.225520419548e-03 0.0 
1.960232324501e-04 9.872240382852e-04 0.0 
4.834332992460e-04 8.669777047108e-03 0.0 
1.580118684806e-03 7.323479028697e-03 0.0 
1.848708270756e-03 8.392699995474e-03 0.0 
6.439894700108e-04 1.052160326533e-03 0.0 
2.138018761570e-04 -6.407269931041e-04 0.0 
3.234319005851e-04 5.316104131044e-03 0.0 
2.122843498026e-03 1.754967610513e-03 0.0 
3.990573918878e-04 9.684120353537e-03 0.0 
5.172896151911e-04 1.682269040272e-03 0.0 
2.971878936210e-06 5.520790093463e-04 0.0 
2.971878936210e-06 2.330479837553e-04 0.0 
-3.153291514269e-06 -8.740116868172e-04 0.0 
-3.090951588933e-07 -8.756887857789e-04 0.0 
2.146218778202e-05 9.339966178718e-03 0.0 
5.108429884055e-05 9.678003349526e-03 0.0 
5.867723794809e-06 4.994827952439e-06 0.0 
5.867723794809e-06 1.033582951251e-05 0.0 
2.720818659285e-06 -8.716471513077e-04 0.0 
-1.141921337594e-03 1.610795494528e-03 0.0 
2.644627339879e-04 3.777925781841e-05 0.0 
1.399126358457e-03 1.306662697810e-03 0.0 
1.861397273956e-04 -7.742209692379e-04 0.0 
4.283929319346e-04 8.209425534649e-05 0.0 
6.589353396505e-05 -2.454876483641e-04 0.0 
6.734564219951e-05 -3.968198640246e-04 0.0 
2.410057221400e-04 6.183815386583e-03 0.0 
4.878800578010e-04 4.253380853283e-04 0.0 
2.662570267336e-03 2.532365114850e-03 0.0 
1.345961737992e-04 -7.695464807698e-04 0.0 
3.957662571751e-04 -4.433632027968e-04 0.0 
8.648099016096e-04 1.450953448162e-03 0.0 
1.038528349247e-05 2.436276870225e-03 0.0 
1.302337856959e-04 -3.852488334193e-04 0.0 
1.569717628728e-04 7.173922813369e-03 0.0 
1.274304956200e-03 1.416311934285e-03 0.0 
1.534422201548e-03 2.617153730067e-03 0.0 
1.848650197472e-03 3.436373834380e-03 0.0 
5.526188815319e-04 9.356882698299e-03 0.0 
2.803251720946e-03 2.542173476702e-03 0.0 
6.461546730761e-04 1.729817104251e-03 0.0 
1.660522377958e-04 -7.444770119738e-04 0.0 
-1.816641609474e-04 -3.045199859946e-04 0.0 
1.498259379047e-03 1.750510824236e-03 0.0 
1.830769980834e-03 9.620778458627e-04 0.0 
3.056713166325e-04 4.670780851089e-04 0.0 
1.258118674848e-04 5.442214623864e-03 0.0 
1.471123752430e-04 2.996524144840e-05 0.0 
1.581973405728e-03 1.648062872946e-03 0.0 
1.327066020655e-03 1.349073441906e-03 0.0 
7.957616154559e-05 -1.741341426009e-04 0.0 
-1.083339029089e-03 4.237920512283e-03 0.0 
1.538820795233e-03 1.236037992926e-02 0.0 
2.321780411657e-03 9.676455799425e-03 0.0 
1.321096408606e-03 7.463504967968e-03 0.0 
2.808033341888e-03 2.699182004779e-03 0.0 
1.943570319726e-04 1.770323049970e-03 0.0 
7.211654709061e-04 3.596817684946e-04 0.0 
-8.804039964699e-05 1.907431349028e-04 0.0 
-2.701792848168e-05 -2.314135460932e-04 0.0 
1.005585352726e-03 1.189005950522e-02 0.0 
2.056792207878e-04 4.993025439414e-03 0.0 
3.149008977133e-04 -6.599176439061e-04 0.0 
4.389315823716e-04 1.652710096392e-03 0.0 
1.083464920099e-04 -8.208376993480e-04 0.0 
1.226094438078e-03 6.503550822663e-04 0.0 
8.181970856524e-04 7.768595930601e-03 0.0 
7.437028449888e-04 5.320474872061e-04 0.0 
2.117903965273e-03 1.943353213938e-03 0.0 
1.449709805134e-03 7.423162834001e-03 0.0 
5.860445564983e-04 1.827394937974e-04 0.0 
3.370100385563e-04 1.207732914993e-03 0.0 
3.023858762088e-05 1.274254592329e-03 0.0 
-2.627068282343e-05 1.044201110797e-02 0.0 
4.344196674237e-04 2.000698208276e-03 0.0 
6.724832121185e-04 7.628674076874e-04 0.0 
1.269971783025e-03 6.462665640781e-04 0.0 
1.909176074090e-03 1.642890892067e-03 0.0 
7.549237948039e-05 1.795578411005e-05 0.0 
1.776211729457e-03 3.470078064981e-03 0.0 
-1.921681083814e-03 4.715437871817e-03 0.0 
8.691269584140e-04 6.337963557724e-03 0.0 
1.272625169649e-03 2.228002038046e-03 0.0 
1.197384241387e-03 6.863683859319e-03 0.0 
1.395305143697e-04 1.824936961168e-05 0.0 
1.668558942390e-03 1.413995555947e-03 0.0 
2.679718740743e-04 5.975618491769e-05 0.0 
1.786138591108e-04 4.002452174653e-03 0.0 
7.210059373897e-04 4.708156055974e-04 0.0 
7.377008055471e-04 2.102991985428e-04 0.0 
7.695543594125e-04 2.323071439160e-04 0.0 
2.327833353245e-04 -6.614461527643e-04 0.0 
1.223740065455e-04 2.820192535093e-05 0.0 
1.090265883841e-03 8.774999149250e-03 0.0 
1.259013205352e-04 2.055999528479e-03 0.0 
4.884729642816e-05 -1.469880184665e-04 0.0 
8.271720096862e-05 2.853430361010e-03 0.0 
1.892726951619e-04 5.392583780352e-03 0.0 
8.639878613828e-06 -8.685570894061e-04 0.0 
7.227752918683e-04 1.667947027540e-03 0.0 
1.730971013002e-03 3.007440307041e-03 0.0 
1.605600230010e-04 1.059520980847e-03 0.0 
6.414797750804e-05 1.963241028378e-03 0.0 
9.372405237993e-04 6.071413933067e-04 0.0 
3.889969640933e-04 7.080862333086e-03 0.0 
-8.097950372788e-05 -5.605289327674e-04 0.0 
-4.984069955443e-04 3.284386140667e-03 0.0 
-1.719949652225e-05 -6.033841418259e-04 0.0 
1.816408854645e-04 -2.736864632586e-04 0.0 
-2.113086334831e-03 5.229251538618e-03 0.0 
3.518670635197e-04 -4.773515501470e-04 0.0 
1.750216829328e-04 2.185335047432e-05 0.0 
7.891383046972e-04 1.797505221099e-03 0.0 
1.518468173604e-03 6.829379281397e-03 0.0 
4.859540798041e-04 -5.328103660069e-04 0.0 
6.675560106069e-04 1.565502313327e-04 0.0 
1.117567670661e-03 4.371257807959e-04 0.0 
8.803195215255e-04 6.641415291576e-04 0.0 
1.096232457937e-03 1.248450704158e-03 0.0 
1.386261084458e-03 2.217964757609e-03 0.0 
5.615671475348e-05 -3.022602465342e-04 0.0 
-4.421140254408e-04 1.825133294833e-03 0.0 
2.432880434438e-04 3.191705341876e-05 0.0 
2.154341184589e-05 -8.640891515632e-04 0.0 
5.461058237120e-06 -8.633301357157e-04 0.0 
-7.321069807619e-04 6.023459857455e-03 0.0 
4.965223002046e-05 -5.869640161697e-04 0.0 
4.479492966734e-04 1.348912811303e-04 0.0 
5.792996339720e-04 7.981024115903e-04 0.0 
1.747789645927e-04 1.766885384112e-03 0.0 
6.889346368418e-04 5.318553062978e-04 0.0 
1.330252365507e-03 5.363775975866e-04 0.0 
3.134823744579e-04 6.532126758425e-03 0.0 
4.093204167829e-05 2.097322128777e-04 0.0 
9.837193761812e-04 8.191541583989e-04 0.0 
7.008202886944e-04 9.705014945983e-03 0.0 
1.729120280346e-04 3.217442704272e-04 0.0 
1.042959303527e-05 -7.520339861944e-04 0.0 
8.527035710664e-05 1.951736365896e-05 0.0 
1.477443489758e-03 8.544867804589e-03 0.0 
8.217561743687e-05 -8.286356302856e-04 0.0 
2.460006019560e-04 -5.101194445833e-04 0.0 
6.605108554552e-04 9.714456964188e-04 0.0 
2.758899527702e-04 1.876828251790e-03 0.0 
3.236729736341e-04 9.549088910302e-04 0.0 
1.337749542955e-04 -7.081973124713e-04 0.0 
-4.262684780676e-04 2.840421527191e-03 0.0 
3.544093250437e-04 7.753880734421e-05 0.0 
1.001720644171e-05 4.961719834108e-04 0.0 
2.097379075407e-05 1.168288917672e-05 0.0 
4.885441320037e-05 8.800170383266e-03 0.0 
9.960407025876e-04 4.043134898530e-04 0.0 
1.124100757603e-04 -8.135206807855e-04 0.0 
4.098684896634e-04 1.656547753442e-03 0.0 
-8.344850463975e-06 -7.005268951139e-04 0.0 
5.147595449227e-04 1.825708087836e-04 0.0 
4.322212110647e-04 1.238823334719e-03 0.0 
-9.467928471005e-04 3.384115648240e-03 0.0 
1.630963806856e-03 1.616909838964e-03 0.0 
1.770549255185e-04 4.474845765550e-03 0.0 
1.076299926384e-04 1.003937308320e-03 0.0 
1.399520724634e-04 7.752075398987e-05 0.0 
7.476452291789e-05 5.842714007175e-03 0.0 
5.258587948982e-04 8.001115030396e-04 0.0 
5.546167229895e-04 1.687607576569e-03 0.0 
1.480422026219e-04 5.137321675884e-03 0.0 
8.687971382566e-04 1.320835398796e-03 0.0 
2.615681910710e-04 -6.049545565992e-04 0.0 
3.494040801331e-04 9.391226374090e-03 0.0 
1.169871171790e-03 9.768040805710e-04 0.0 
1.052981311498e-05 1.055691733638e-03 0.0 
-3.302198072798e-06 -8.714990411838e-04 0.0 
9.509936324912e-05 9.391497795222e-03 0.0 
1.883275309105e-05 1.698434479992e-05 0.0 
2.141645484814e-04 -7.518412001697e-04 0.0 
1.210956838592e-03 5.662367597938e-04 0.0 
7.041647478707e-04 1.790533378076e-03 0.0 
1.267099423338e-04 1.302455988911e-03 0.0 
1.316284292937e-04 -8.085650375370e-04 0.0 
-7.903209603357e-06 4.966622483605e-03 0.0 
2.772682910251e-05 -3.579692336695e-04 0.0 
7.030813781020e-05 3.479914439890e-03 0.0 
-1.412184595450e-03 1.915019913371e-03 0.0 
2.502116172536e-04 9.393197562798e-04 0.0 
1.347982081270e-04 6.031154234237e-03 0.0 
4.559465129976e-04 2.615714755112e-04 0.0 
2.546832085063e-04 6.743219641574e-03 0.0 
8.796489795901e-04 7.275640066024e-04 0.0 
5.213589468702e-05 -3.177492158129e-04 0.0 
-1.721495028261e-03 5.499261338401e-03 0.0 
2.966336896855e-04 -6.425537662019e-04 0.0 
3.588881155936e-04 -4.108717310494e-04 0.0 
2.440906558450e-05 -2.797778898748e-04 0.0 
1.220712463753e-03 8.323844368191e-04 0.0 
1.856393326385e-04 -4.441867150101e-04 0.0 
2.397475393076e-04 -3.899107270077e-04 0.0 
5.182531929897e-05 -6.692188873895e-04 0.0 
4.584010926660e-04 9.223088884203e-05 0.0 
1.464799038127e-03 1.804241017806e-03 0.0 
7.323716900783e-04 4.997934924480e-03 0.0 
1.757514062048e-05 9.997847077023e-04 0.0 
3.393882005031e-05 1.833140446413e-05 0.0 
9.286947760894e-05 8.851549143351e-03 0.0 
1.019202836215e-04 6.247722060967e-03 0.0 
2.555870885389e-04 -4.468631373477e-04 0.0 
2.864259648086e-04 -4.162930979271e-04 0.0 
1.756497938003e-04 -4.062351686809e-04 0.0 
1.473132925371e-03 7.468108447725e-04 0.0 
2.756488703127e-04 2.076278350496e-04 0.0 
1.225915033146e-03 1.487538805875e-03 0.0 
1.681312839531e-04 7.733104822310e-03 0.0 
3.034911978244e-04 1.225711234351e-03 0.0 
1.436859809535e-03 6.914141975169e-04 0.0 
2.992093687930e-04 6.937217612658e-03 0.0 
1.153665975333e-03 1.905623137897e-03 0.0 
1.193661864166e-03 8.501810990870e-04 0.0 
8.970488991782e-04 6.270679750608e-04 0.0 
-1.329102740013e-03 5.145949444579e-03 0.0 
1.202688156343e-03 1.901381257639e-03 0.0 
1.029959979258e-03 1.546185312874e-03 0.0 
4.555290647055e-05 -7.021991340797e-04 0.0 
2.841500456686e-04 -4.754301178202e-04 0.0 
-1.426635914086e-03 4.652699307845e-03 0.0 
9.549655092985e-04 1.548294327047e-03 0.0 
1.224296557235e-04 1.734274661595e-02 0.0 
1.531838315302e-04 1.767666418549e-02 0.0 
1.957425648180e-04 1.733811760670e-02 0.0 
2.222841103334e-04 1.767061855507e-02 0.0 
2.691973994402e-04 1.733593330327e-02 0.0 
2.958233802708e-04 1.766976221856e-02 0.0 
3.442896710157e-04 1.733657853162e-02 0.0 
3.716181103136e-04 1.767131413870e-02 0.0 
4.189531965208e-04 1.733838215881e-02 0.0 
4.463260771310e-04 1.767305554341e-02 0.0 
4.913389444313e-04 1.733977759703e-02 0.0 
5.178116110879e-04 1.767352593896e-02 0.0 
5.600472302616e-04 1.733935655829e-02 0.0 
5.846163120034e-04 1.767138417006e-02 0.0 
6.239636428520e-04 1.733568649935e-02 0.0 
6.455836117689e-04 1.766516957967e-02 0.0 
6.821072997158e-04 1.732717427947e-02 0.0 
6.996564845891e-04 1.765318893243e-02 0.0 
7.335366456569e-04 1.731197261749e-02 0.0 
7.457740095681e-04 1.763344179410e-02 0.0 
7.915447527205e-05 1.268317353442e-02 0.0 
7.772985407994e-04 1.728790393945e-02 0.0 
7.828195358526e-04 1.760355258139e-02 0.0 
8.124069190798e-04 1.725238061817e-02 0.0 
-4.438051613305e-04 1.275868288558e-02 0.0 
8.095999904995e-04 1.756068258864e-02 0.0 
8.378440946788e-04 1.720230317282e-02 0.0 
3.031852158630e-04 1.291103368207e-02 0.0 
8.248536512978e-04 1.750142394132e-02 0.0 
8.525869081198e-04 1.713395082219e-02 0.0 
8.272829579361e-04 1.742168241657e-02 0.0 
8.556492259085e-04 1.704286742966e-02 0.0 
8.156045119597e-04 1.731658108098e-02 0.0 
8.461492968184e-04 1.692374316356e-02 0.0 
7.886096656479e-04 1.718026801502e-02 0.0 
8.233791459205e-04 1.677020265123e-02 0.0 
7.452473510101e-04 1.700578717711e-02 0.0 
1.754177299361e-04 1.194970372258e-02 0.0 
7.869407328320e-04 1.657461480738e-02 0.0 
6.847599038490e-04 1.678459473037e-02 0.0 
7.368727074316e-04 1.632761794020e-02 0.0 
6.068754296134e-04 1.650663152025e-02 0.0 
5.123016941807e-04 1.615877253094e-02 0.0 
6.740037436369e-04 1.601796324244e-02 0.0 
4.031540403523e-04 1.572627581669e-02 0.0 
6.002932246616e-04 1.563127537945e-02 0.0 
2.844863913956e-04 1.518727450602e-02 0.0 
5.193226102473e-04 1.515055595230e-02 0.0 
1.654087334859e-04 1.452255584902e-02 0.0 
6.286335604328e-05 1.370269844333e-02 0.0 
4.370953365346e-04 1.455263444587e-02 0.0 
3.602669543064e-04 1.381658427536e-02 0.0 
-3.475419066665e-04 1.202521307374e-02 0.0 
1.679733136034e-05 1.750975248015e-02 0.0 
8.351738580179e-05 1.750998214511e-02 0.0 
5.524226897898e-05 1.784889863188e-02 0.0 
4.507244818315e-05 1.717083599338e-02 0.0 
-5.746568194230e-04 1.133137362906e-02 0.0 
1.118677036185e-04 1.666834891279e-02 0.0 
1.393075445061e-04 1.633282183509e-02 0.0 
1.924282298989e-04 1.666867295945e-02 0.0 
2.193749521720e-04 1.633273263415e-02 0.0 
2.696025761979e-04 1.666749202960e-02 0.0 
2.976007465237e-04 1.633273083907e-02 0.0 
3.456618605109e-04 1.666798842581e-02 0.0 
3.746164615752e-04 1.633420218579e-02 0.0 
4.205793582872e-04 1.666986031170e-02 0.0 
4.501315008944e-04 1.633651095775e-02 0.0 
4.935182064284e-04 1.667175485846e-02 0.0 
5.235008693028e-04 1.633837501177e-02 0.0 
5.635572264794e-04 1.667222836966e-02 0.0 
5.940046603601e-04 1.633836047671e-02 0.0 
6.298419949909e-04 1.666979099463e-02 0.0 
6.609399640605e-04 1.633491080689e-02 0.0 
6.915852998685e-04 1.666281101142e-02 0.0 
7.236403136234e-04 1.632627352335e-02 0.0 
7.480424745385e-04 1.664942047645e-02 0.0 
9.484478556701e-04 1.314685748598e-02 0.0 
7.814753252737e-04 1.631041643081e-02 0.0 
7.984940276234e-04 1.662743071719e-02 0.0 
8.338527943116e-04 1.628494121493e-02 0.0 
1.058734307043e-03 1.326332112223e-02 0.0 
8.422446907148e-04 1.659424247397e-02 0.0 
8.802319882270e-04 1.624698394221e-02 0.0 
8.786383207714e-04 1.654674267059e-02 0.0 
9.201501958528e-04 1.619310473448e-02 0.0 
9.070892265822e-04 1.648119211758e-02 0.0 
7.127922939061e-04 1.331699075736e-02 0.0 
9.532619360909e-04 1.611916744468e-02 0.0 
9.271258856010e-04 1.639311116237e-02 0.0 
9.794002091748e-04 1.602021554582e-02 0.0 
9.384683343411e-04 1.627713389569e-02 0.0 
9.986567765884e-04 1.589028991245e-02 0.0 
9.411072193384e-04 1.612683381654e-02 0.0 
1.011498387307e-03 1.572225575049e-02 0.0 
9.354636957109e-04 1.593445221545e-02 0.0 
1.018872752489e-03 1.550740305822e-02 0.0 
9.224625931932e-04 1.569058885998e-02 0.0 
1.022422394981e-03 1.523525348406e-02 0.0 
1.071773307123e-03 1.264305084149e-02 0.0 
1.024610543476e-03 1.489238871555e-02 0.0 
9.039608232425e-04 1.538361428647e-02 0.0 
1.029230876457e-03 1.446374483546e-02 0.0 
8.826449943509e-04 1.499924052003e-02 0.0 
1.038727161849e-03 1.392899375083e-02 0.0 
8.630476766631e-04 1.452005983048e-02 0.0 
8.476110405721e-04 1.392484981249e-02 0.0 
8.361177453592e-04 1.281318411287e-02 0.0 
1.382403632733e-05 1.649749259702e-02 0.0 
6.998213866378e-05 1.649920528741e-02 0.0 
4.170702184097e-05 1.616224104559e-02 0.0 
4.209915315014e-05 1.683445683885e-02 0.0 
7.239142655792e-04 1.252111286961e-02 0.0 
1.099505661579e-04 1.532337294917e-02 0.0 
1.383150925275e-04 1.566050876292e-02 0.0 
1.923740254056e-04 1.532555914477e-02 0.0 
2.203131996574e-04 1.566193189164e-02 0.0 
2.733012646315e-04 1.532682014506e-02 0.0 
3.003611874719e-04 1.566285969704e-02 0.0 
3.527653713339e-04 1.532872714000e-02 0.0 
3.789595314500e-04 1.566481204201e-02 0.0 
4.310442120648e-04 1.533149520052e-02 0.0 
4.562532847972e-04 1.566753599035e-02 0.0 
5.081259905372e-04 1.533434398899e-02 0.0 
5.319868695089e-04 1.566993910970e-02 0.0 
5.837652315535e-04 1.533608777343e-02 0.0 
6.057266652280e-04 1.567065578255e-02 0.0 
6.576207698519e-04 1.533532070313e-02 0.0 
6.769967340536e-04 1.566814520956e-02 0.0 
7.293420982359e-04 1.533042397237e-02 0.0 
7.453403419977e-04 1.566065208163e-02 0.0 
1.452856357608e-03 1.321842996591e-02 0.0 
7.986133818237e-04 1.531951793487e-02 0.0 
8.103462041845e-04 1.564613533095e-02 0.0 
8.651780367597e-04 1.530039152958e-02 0.0 
1.297891258911e-03 1.344258022282e-02 0.0 
8.716659245370e-04 1.562218312718e-02 0.0 
1.506492505672e-03 1.324153096785e-02 0.0 
9.288603554615e-04 1.527041614420e-02 0.0 
9.290345227483e-04 1.558591570019e-02 0.0 
9.895900395067e-04 1.522644208417e-02 0.0 
9.822993800668e-04 1.553387239008e-02 0.0 
1.047440588606e-03 1.516469363109e-02 0.0 
1.031464113901e-03 1.546190130258e-02 0.0 
1.102672372900e-03 1.508063694202e-02 0.0 
1.076744518664e-03 1.536500746757e-02 0.0 
1.566720658427e-03 1.279911006384e-02 0.0 
1.155805240278e-03 1.496885830758e-02 0.0 
1.118649373035e-03 1.523722240260e-02 0.0 
1.207666503005e-03 1.482283054559e-02 0.0 
1.158065074527e-03 1.507131998939e-02 0.0 
1.196388954571e-03 1.485872562071e-02 0.0 
1.259546585012e-03 1.463483901685e-02 0.0 
1.235531989216e-03 1.458869952891e-02 0.0 
1.313088389510e-03 1.439535746732e-02 0.0 
1.278238406285e-03 1.424860901477e-02 0.0 
1.326585418846e-03 1.382257470833e-02 0.0 
1.370698280287e-03 1.409328063053e-02 0.0 
1.433627399548e-03 1.371429069213e-02 0.0 
1.411755559730e-03 1.302326032075e-02 0.0 
1.361507092683e-05 1.548972532002e-02 0.0 
6.884848778142e-05 1.549056862737e-02 0.0 
4.149805644048e-05 1.582626727700e-02 0.0 
4.096550226777e-05 1.515402667039e-02 0.0 
1.363714729138e-03 1.284814515850e-02 0.0 
1.105362618210e-04 1.465067315665e-02 0.0 
1.401757043754e-04 1.431486549757e-02 0.0 
1.936489415905e-04 1.465261567194e-02 0.0 
2.243278582369e-04 1.431691441515e-02 0.0 
2.760410070262e-04 1.465474614140e-02 0.0 
3.077216378869e-04 1.431947222156e-02 0.0 
3.573860793543e-04 1.465741366817e-02 0.0 
3.903922689546e-04 1.432262409560e-02 0.0 
4.378562415489e-04 1.466062072594e-02 0.0 
4.725114986779e-04 1.432607061009e-02 0.0 
5.175721749339e-04 1.466375308331e-02 0.0 
5.541670901990e-04 1.432903118294e-02 0.0 
5.964992678470e-04 1.466577075235e-02 0.0 
6.353557223687e-04 1.433036239403e-02 0.0 
6.745157906991e-04 1.466534433570e-02 0.0 
7.160322120700e-04 1.432862599733e-02 0.0 
7.514825554052e-04 1.466088112758e-02 0.0 
1.720160065861e-03 1.296370239248e-02 0.0 
7.961581769413e-04 1.432209276228e-02 0.0 
8.272907595981e-04 1.465050146032e-02 0.0 
1.736670319320e-03 1.292465011346e-02 0.0 
8.757426873820e-04 1.430870759475e-02 0.0 
9.018971421828e-04 1.463198026794e-02 0.0 
9.548737501163e-04 1.428602290951e-02 0.0 
9.753490756177e-04 1.460266718817e-02 0.0 
1.033741744399e-03 1.425111423389e-02 0.0 
1.620911346912e-03 1.321821229234e-02 0.0 
1.047808541002e-03 1.455938957390e-02 0.0 
1.112660129638e-03 1.420046320727e-02 0.0 
1.119582836682e-03 1.449833695855e-02 0.0 
1.192120274361e-03 1.412985916109e-02 0.0 
1.191186285285e-03 1.441495147307e-02 0.0 
1.272811002269e-03 1.403423445565e-02 0.0 
1.263357811498e-03 1.430377076462e-02 0.0 
1.355710460472e-03 1.390760215475e-02 0.0 
1.337175019222e-03 1.415829784070e-02 0.0 
1.442019828804e-03 1.374264536567e-02 0.0 
1.822423510926e-03 1.261983816974e-02 0.0 
1.533394955028e-03 1.353117341137e-02 0.0 
1.413992823073e-03 1.397069709801e-02 0.0 
1.630657900367e-03 1.326283776801e-02 0.0 
1.495648151907e-03 1.373194717682e-02 0.0 
1.583264429041e-03 1.343082916013e-02 0.0 
1.723174791976e-03 1.287434806961e-02 0.0 
1.380859823167e-05 1.448105068448e-02 0.0 
6.962771074932e-05 1.448164328307e-02 0.0 
4.227727940838e-05 1.414489284894e-02 0.0 
4.115902957261e-05 1.481780111861e-02 0.0 
1.715797931439e-03 1.278938272891e-02 0.0 
1.133938684375e-04 1.330344527838e-02 0.0 
1.420815968972e-04 1.364120347783e-02 0.0 
1.986165168761e-04 1.330558294120e-02 0.0 
2.273895410007e-04 1.364354370415e-02 0.0 
2.838298744804e-04 1.330839301588e-02 0.0 
3.124488225774e-04 1.364648980704e-02 0.0 
3.689832676859e-04 1.331170064759e-02 0.0 
3.972622725957e-04 1.364989348953e-02 0.0 
4.542279761552e-04 1.331526160980e-02 0.0 
4.820132296431e-04 1.365344210002e-02 0.0 
5.398013000835e-04 1.331851655581e-02 0.0 
5.668944843835e-04 1.365642316550e-02 0.0 
6.259193367642e-04 1.332055769526e-02 0.0 
6.520483971015e-04 1.365775735439e-02 0.0 
7.127727908404e-04 1.332016540336e-02 0.0 
7.375965374785e-04 1.365605210464e-02 0.0 
1.826120955184e-03 1.249095769891e-02 0.0 
8.005458536302e-04 1.331581665432e-02 0.0 
8.236571497579e-04 1.364960218171e-02 0.0 
1.765513945187e-03 1.277433179339e-02 0.0 
8.894421307643e-04 1.330566306633e-02 0.0 
9.103950857316e-04 1.363635978133e-02 0.0 
1.817603949685e-03 1.240301417909e-02 0.0 
9.797356530315e-04 1.328749599487e-02 0.0 
9.980598626154e-04 1.361388644986e-02 0.0 
1.071785426558e-03 1.325868943651e-02 0.0 
1.086991982840e-03 1.357927294188e-02 0.0 
1.166039506527e-03 1.321612039037e-02 0.0 
1.177640856723e-03 1.352903531575e-02 0.0 
1.920712117077e-03 1.219387233428e-02 0.0 
1.263032885035e-03 1.315599692301e-02 0.0 
1.270589595630e-03 1.345894701707e-02 0.0 
1.363480610065e-03 1.307386502593e-02 0.0 
1.366636005780e-03 1.336406015254e-02 0.0 
1.466720805318e-03 1.323832075407e-02 0.0 
1.468193159855e-03 1.296431506083e-02 0.0 
1.572117634660e-03 1.307487079715e-02 0.0 
1.578283169924e-03 1.282124187151e-02 0.0 
1.683409415989e-03 1.286541680269e-02 0.0 
1.694105089890e-03 1.263716592081e-02 0.0 
1.860105107079e-03 1.247724642877e-02 0.0 
1.398714817297e-05 1.347087762750e-02 0.0 
7.075797478528e-05 1.347133466574e-02 0.0 
4.245582934967e-05 1.380815009014e-02 0.0 
4.228929360857e-05 1.313406220311e-02 0.0 
1.878654952539e-03 1.245957335670e-02 0.0 
1.144111056524e-04 1.262890788018e-02 0.0 
1.451422374524e-04 1.229205839706e-02 0.0 
2.006599202164e-04 1.263097525864e-02 0.0 
2.327741495129e-04 1.229438061679e-02 0.0 
2.871710796523e-04 1.263383761108e-02 0.0 
3.208232996425e-04 1.229748327937e-02 0.0 
3.740165395792e-04 1.263724952471e-02 0.0 
4.094744459989e-04 1.230098569444e-02 0.0 
4.614068776652e-04 1.264080493759e-02 0.0 
4.990503005930e-04 1.230437198924e-02 0.0 
5.496594695234e-04 1.264390311724e-02 0.0 
5.898918418076e-04 1.230694185069e-02 0.0 
6.390585247485e-04 1.264568981902e-02 0.0 
6.823520522830e-04 1.230768086877e-02 0.0 
7.299372580377e-04 1.264495679398e-02 0.0 
1.822519794824e-03 1.184587060282e-02 0.0 
7.768161267363e-04 1.230527032293e-02 0.0 
1.794847484460e-03 1.172334227304e-02 0.0 
8.226009756907e-04 1.264024348199e-02 0.0 
8.736335572112e-04 1.229809025095e-02 0.0 
9.173634161570e-04 1.262972430790e-02 0.0 
9.732121893033e-04 1.228410364097e-02 0.0 
1.014631471210e-03 1.261117861294e-02 0.0 
1.076053017077e-03 1.226089160174e-02 0.0 
1.791876116980e-03 1.214554326782e-02 0.0 
1.114882762840e-03 1.258201197031e-02 0.0 
1.182706745603e-03 1.222561218865e-02 0.0 
1.218656933008e-03 1.253913710334e-02 0.0 
1.293777153385e-03 1.217491625276e-02 0.0 
1.326551755217e-03 1.247886114705e-02 0.0 
1.409847420405e-03 1.210460565724e-02 0.0 
1.439219564658e-03 1.239665944206e-02 0.0 
1.531677850704e-03 1.201001930043e-02 0.0 
1.659517631404e-03 1.188530535570e-02 0.0 
1.557496050185e-03 1.228747979259e-02 0.0 
1.906539434651e-03 1.159006041320e-02 0.0 
1.681777105680e-03 1.214506174138e-02 0.0 
1.875895756807e-03 1.188973307819e-02 0.0 
1.428069627442e-05 1.245914430771e-02 0.0 
7.206876010164e-05 1.245953234969e-02 0.0 
4.376661466604e-05 1.212187937215e-02 0.0 
4.258284171002e-05 1.279679728525e-02 0.0 
1.912319263413e-03 1.191895310759e-02 0.0 
1.162022191733e-04 1.127809220861e-02 0.0 
1.463449933804e-04 1.161657584356e-02 0.0 
2.038501593264e-04 1.127988848311e-02 0.0 
2.347616326949e-04 1.161877639475e-02 0.0 
2.922402052750e-04 1.128252263408e-02 0.0 
3.239049420833e-04 1.162177252440e-02 0.0 
3.816496042223e-04 1.128562081003e-02 0.0 
4.140258682012e-04 1.162506773473e-02 0.0 
4.724123411358e-04 1.128859073535e-02 0.0 
5.055043418613e-04 1.162807574671e-02 0.0 
5.649847399637e-04 1.129091155192e-02 0.0 
5.987630709797e-04 1.163024652790e-02 0.0 
6.597630039063e-04 1.129174854409e-02 0.0 
1.733698222913e-03 1.108215799317e-02 0.0 
6.941853022688e-04 1.163043491663e-02 0.0 
7.572516466263e-04 1.128991864141e-02 0.0 
1.723984129538e-03 1.139722081143e-02 0.0 
7.922972653392e-04 1.162747812250e-02 0.0 
8.579353285678e-04 1.128417800065e-02 0.0 
1.694637515003e-03 1.093478408398e-02 0.0 
8.934867714853e-04 1.161981697004e-02 0.0 
9.622313464007e-04 1.127271752442e-02 0.0 
9.982269052728e-04 1.160537013840e-02 0.0 
1.070679520426e-03 1.125334132794e-02 0.0 
1.107086350322e-03 1.158178781930e-02 0.0 
1.811779674723e-03 1.085107170569e-02 0.0 
1.183889230827e-03 1.122362649908e-02 0.0 
1.220679880344e-03 1.154633049985e-02 0.0 
1.339586407413e-03 1.149576065070e-02 0.0 
1.302439321777e-03 1.118069981248e-02 0.0 
1.464439318951e-03 1.142619503305e-02 0.0 
1.426952907792e-03 1.112129492080e-02 0.0 
1.595172040684e-03 1.133290846722e-02 0.0 
1.557305653185e-03 1.104113798467e-02 0.0 
1.802065581347e-03 1.116613452395e-02 0.0 
1.436386555886e-05 1.144608354519e-02 0.0 
7.274028697903e-05 1.144650054043e-02 0.0 
4.384978395047e-05 1.178418068097e-02 0.0 
4.325436858742e-05 1.110840340466e-02 0.0 
1.850669461993e-03 1.123249959988e-02 0.0 
1.163384118402e-04 1.060212844505e-02 0.0 
1.468742279096e-04 1.026452835990e-02 0.0 
2.042432011887e-04 1.060380476300e-02 0.0 
2.359684798160e-04 1.026636424633e-02 0.0 
2.930540105338e-04 1.060619420576e-02 0.0 
3.262537624089e-04 1.026886968140e-02 0.0 
3.831846192891e-04 1.060904639534e-02 0.0 
4.182243304754e-04 1.027150469249e-02 0.0 
4.750757883432e-04 1.061160210780e-02 0.0 
5.122073126462e-04 1.027350918468e-02 0.0 
5.690242635412e-04 1.061333361745e-02 0.0 
6.087633798030e-04 1.027453057456e-02 0.0 
1.591710655281e-03 1.023007132807e-02 0.0 
6.657237891521e-04 1.061361052523e-02 0.0 
1.542824572109e-03 1.006294424296e-02 0.0 
7.085174404163e-04 1.027330059058e-02 0.0 
7.656229995280e-04 1.061092233422e-02 0.0 
8.119887318125e-04 1.026875088441e-02 0.0 
8.692554421394e-04 1.060444706975e-02 0.0 
9.197748376140e-04 1.025965350913e-02 0.0 
9.771992989577e-04 1.059228499440e-02 0.0 
1.032406899402e-03 1.024381957174e-02 0.0 
1.600369318083e-03 1.055329449650e-02 0.0 
1.089891561998e-03 1.057222329130e-02 0.0 
1.150466448082e-03 1.021890941478e-02 0.0 
1.208057287015e-03 1.054186613119e-02 0.0 
1.274563871337e-03 1.018253687803e-02 0.0 
1.405122268473e-03 1.013169773640e-02 0.0 
1.332155256582e-03 1.049866655855e-02 0.0 
1.462772834047e-03 1.043926526043e-02 0.0 
1.658521318529e-03 1.002106072429e-02 0.0 
1.667179981331e-03 1.034428389272e-02 0.0 
1.440829364238e-05 1.043221074120e-02 0.0 
7.292090772947e-05 1.043252339643e-02 0.0 
4.403040470091e-05 1.009434411342e-02 0.0 
4.329879667094e-05 1.077039002421e-02 0.0 
1.723581790752e-03 1.043400299765e-02 0.0 

VECTORS element_materi_displacement float
0.0 0.0 0.0 
0.0 0.0 0.0 
0.0 0.0 0.0 
0.0 0.0 0.0 
0.0 0.0 0.0 
0.0 0.0 0.0 
0.0 0.0 0.0 
0.0 0.0 0.0 
0.0 0.0 0.0 
0.0 0.0 0.0 
0.0 0.0 0.0 
0.0 0.0 0.0 
0.0 0.0 0.0 
0.0 0.0 0.0 
0.0 0.0 0.0 
0.0 0.0 0.0 
0.0 0.0 0.0 
0.0 0.0 0.0 
0.0 0.0 0.0 
0.0 0.0 0.0 
0.0 0.0 0.0 
0.0 0.0 0.0 
0.0 0.0 0.0 
0.0 0.0 0.0 
0.0 0.0 0.0 
0.0 0.0 0.0 
0.0 0.0 0.0 
0.0 0.0 0.0 
0.0 0.0 0.0 
0.0 0.0 0.0 
0.0 0.0 0.0 
0.0 0.0 0.0 
0.0 0.0 0.0 
0.0 0.0 0.0 
0.0 0.0 0.0 
0.0 0.0 0.0 
0.0 0.0 0.0 
0.0 0.0 0.0 
0.0 0.0 0.0 
0.0 0.0 0.0 
0.0 0.0 0.0 
0.0 0.0 0.0 
0.0 0.0 0.0 
0.0 0.0 0.0 
0.0 0.0 0.0 
0.0 0.0 0.0 
0.0 0.0 0.0 
0.0 0.0 0.0 
0.0 0.0 0.0 
0.0 0.0 0.0 
0.0 0.0 0.0 
0.0 0.0 0.0 
0.0 0.0 0.0 
0.0 0.0 0.0 
0.0 0.0 0.0 
0.0 0.0 0.0 
0.0 0.0 0.0 
0.0 0.0 0.0 
0.0 0.0 0.0 
0.0 0.0 0.0 
0.0 0.0 0.0 
0.0 0.0 0.0 
0.0 0.0 0.0 
0.0 0.0 0.0 
0.0 0.0 0.0 
0.0 0.0 0.0 
0.0 0.0 0.0 
0.0 0.0 0.0 
0.0 0.0 0.0 
0.0 0.0 0.0 
0.0 0.0 0.0 
0.0 0.0 0.0 
0.0 0.0 0.0 
0.0 0.0 0.0 
0.0 0.0 0.0 
0.0 0.0 0.0 
0.0 0.0 0.0 
0.0 0.0 0.0 
0.0 0.0 0.0 
0.0 0.0 0.0 
0.0 0.0 0.0 
0.0 0.0 0.0 
0.0 0.0 0.0 
0.0 0.0 0.0 
0.0 0.0 0.0 
0.0 0.0 0.0 
0.0 0.0 0.0 
0.0 0.0 0.0 
0.0 0.0 0.0 
0.0 0.0 0.0 
0.0 0.0 0.0 
0.0 0.0 0.0 
0.0 0.0 0.0 
0.0 0.0 0.0 
0.0 0.0 0.0 
0.0 0.0 0.0 
0.0 0.0 0.0 
0.0 0.0 0.0 
0.0 0.0 0.0 
0.0 0.0 0.0 
0.0 0.0 0.0 
0.0 0.0 0.0 
0.0 0.0 0.0 
0.0 0.0 0.0 
0.0 0.0 0.0 
0.0 0.0 0.0 
0.0 0.0 0.0 
0.0 0.0 0.0 
0.0 0.0 0.0 
0.0 0.0 0.0 
0.0 0.0 0.0 
0.0 0.0 0.0 
0.0 0.0 0.0 
0.0 0.0 0.0 
0.0 0.0 0.0 
0.0 0.0 0.0 
0.0 0.0 0.0 
0.0 0.0 0.0 
0.0 0.0 0.0 
0.0 0.0 0.0 
0.0 0.0 0.0 
0.0 0.0 0.0 
0.0 0.0 0.0 
0.0 0.0 0.0 
0.0 0.0 0.0 
0.0 0.0 0.0 
0.0 0.0 0.0 
0.0 0.0 0.0 
0.0 0.0 0.0 
0.0 0.0 0.0 
0.0 0.0 0.0 
0.0 0.0 0.0 
0.0 0.0 0.0 
0.0 0.0 0.0 
0.0 0.0 0.0 
0.0 0.0 0.0 
0.0 0.0 0.0 
0.0 0.0 0.0 
0.0 0.0 0.0 
0.0 0.0 0.0 
0.0 0.0 0.0 
0.0 0.0 0.0 
0.0 0.0 0.0 
0.0 0.0 0.0 
0.0 0.0 0.0 
0.0 0.0 0.0 
0.0 0.0 0.0 
0.0 0.0 0.0 
0.0 0.0 0.0 
0.0 0.0 0.0 
0.0 0.0 0.0 
0.0 0.0 0.0 
0.0 0.0 0.0 
0.0 0.0 0.0 
0.0 0.0 0.0 
0.0 0.0 0.0 
0.0 0.0 0.0 
0.0 0.0 0.0 
0.0 0.0 0.0 
0.0 0.0 0.0 
0.0 0.0 0.0 
0.0 0.0 0.0 
0.0 0.0 0.0 
0.0 0.0 0.0 
0.0 0.0 0.0 
0.0 0.0 0.0 
0.0 0.0 0.0 
0.0 0.0 0.0 
0.0 0.0 0.0 
0.0 0.0 0.0 
0.0 0.0 0.0 
0.0 0.0 0.0 
0.0 0.0 0.0 
0.0 0.0 0.0 
0.0 0.0 0.0 
0.0 0.0 0.0 
0.0 0.0 0.0 
0.0 0.0 0.0 
0.0 0.0 0.0 
0.0 0.0 0.0 
0.0 0.0 0.0 
0.0 0.0 0.0 
0.0 0.0 0.0 
0.0 0.0 0.0 
0.0 0.0 0.0 
0.0 0.0 0.0 
0.0 0.0 0.0 
0.0 0.0 0.0 
0.0 0.0 0.0 
0.0 0.0 0.0 
0.0 0.0 0.0 
0.0 0.0 0.0 
0.0 0.0 0.0 
0.0 0.0 0.0 
0.0 0.0 0.0 
0.0 0.0 0.0 
0.0 0.0 0.0 
0.0 0.0 0.0 
0.0 0.0 0.0 
0.0 0.0 0.0 
0.0 0.0 0.0 
0.0 0.0 0.0 
0.0 0.0 0.0 
0.0 0.0 0.0 
0.0 0.0 0.0 
0.0 0.0 0.0 
0.0 0.0 0.0 
0.0 0.0 0.0 
0.0 0.0 0.0 
0.0 0.0 0.0 
0.0 0.0 0.0 
0.0 0.0 0.0 
0.0 0.0 0.0 
0.0 0.0 0.0 
0.0 0.0 0.0 
0.0 0.0 0.0 
0.0 0.0 0.0 
0.0 0.0 0.0 
0.0 0.0 0.0 
0.0 0.0 0.0 
0.0 0.0 0.0 
0.0 0.0 0.0 
0.0 0.0 0.0 
0.0 0.0 0.0 
0.0 0.0 0.0 
0.0 0.0 0.0 
0.0 0.0 0.0 
0.0 0.0 0.0 
0.0 0.0 0.0 
0.0 0.0 0.0 
0.0 0.0 0.0 
0.0 0.0 0.0 
0.0 0.0 0.0 
0.0 0.0 0.0 
0.0 0.0 0.0 
0.0 0.0 0.0 
0.0 0.0 0.0 
0.0 0.0 0.0 
0.0 0.0 0.0 
0.0 0.0 0.0 
0.0 0.0 0.0 
0.0 0.0 0.0 
0.0 0.0 0.0 
0.0 0.0 0.0 
0.0 0.0 0.0 
0.0 0.0 0.0 
0.0 0.0 0.0 
0.0 0.0 0.0 
0.0 0.0 0.0 
0.0 0.0 0.0 
0.0 0.0 0.0 
0.0 0.0 0.0 
0.0 0.0 0.0 
0.0 0.0 0.0 
0.0 0.0 0.0 
0.0 0.0 0.0 
0.0 0.0 0.0 
0.0 0.0 0.0 
0.0 0.0 0.0 
0.0 0.0 0.0 
0.0 0.0 0.0 
0.0 0.0 0.0 
0.0 0.0 0.0 
0.0 0.0 0.0 
0.0 0.0 0.0 
0.0 0.0 0.0 
0.0 0.0 0.0 
0.0 0.0 0.0 
0.0 0.0 0.0 
0.0 0.0 0.0 
0.0 0.0 0.0 
0.0 0.0 0.0 
0.0 0.0 0.0 
0.0 0.0 0.0 
0.0 0.0 0.0 
0.0 0.0 0.0 
0.0 0.0 0.0 
0.0 0.0 0.0 
0.0 0.0 0.0 
0.0 0.0 0.0 
0.0 0.0 0.0 
0.0 0.0 0.0 
0.0 0.0 0.0 
0.0 0.0 0.0 
0.0 0.0 0.0 
0.0 0.0 0.0 
0.0 0.0 0.0 
0.0 0.0 0.0 
0.0 0.0 0.0 
0.0 0.0 0.0 
0.0 0.0 0.0 
0.0 0.0 0.0 
0.0 0.0 0.0 
0.0 0.0 0.0 
0.0 0.0 0.0 
0.0 0.0 0.0 
0.0 0.0 0.0 
0.0 0.0 0.0 
0.0 0.0 0.0 
0.0 0.0 0.0 
0.0 0.0 0.0 
0.0 0.0 0.0 
0.0 0.0 0.0 
0.0 0.0 0.0 
0.0 0.0 0.0 
0.0 0.0 0.0 
0.0 0.0 0.0 
0.0 0.0 0.0 
0.0 0.0 0.0 
0.0 0.0 0.0 
0.0 0.0 0.0 
0.0 0.0 0.0 
0.0 0.0 0.0 
0.0 0.0 0.0 
0.0 0.0 0.0 
0.0 0.0 0.0 
0.0 0.0 0.0 
0.0 0.0 0.0 
0.0 0.0 0.0 
0.0 0.0 0.0 
0.0 0.0 0.0 
0.0 0.0 0.0 
0.0 0.0 0.0 
0.0 0.0 0.0 
0.0 0.0 0.0 
0.0 0.0 0.0 
0.0 0.0 0.0 
0.0 0.0 0.0 
0.0 0.0 0.0 
0.0 0.0 0.0 
0.0 0.0 0.0 
0.0 0.0 0.0 
0.0 0.0 0.0 
0.0 0.0 0.0 
0.0 0.0 0.0 
0.0 0.0 0.0 
0.0 0.0 0.0 
0.0 0.0 0.0 
0.0 0.0 0.0 
0.0 0.0 0.0 
0.0 0.0 0.0 
0.0 0.0 0.0 
0.0 0.0 0.0 
0.0 0.0 0.0 
0.0 0.0 0.0 
0.0 0.0 0.0 
0.0 0.0 0.0 
0.0 0.0 0.0 
0.0 0.0 0.0 
0.0 0.0 0.0 
0.0 0.0 0.0 
0.0 0.0 0.0 
0.0 0.0 0.0 
0.0 0.0 0.0 
0.0 0.0 0.0 
0.0 0.0 0.0 
0.0 0.0 0.0 
0.0 0.0 0.0 
0.0 0.0 0.0 
0.0 0.0 0.0 
0.0 0.0 0.0 
0.0 0.0 0.0 
0.0 0.0 0.0 
0.0 0.0 0.0 
0.0 0.0 0.0 
0.0 0.0 0.0 
0.0 0.0 0.0 
0.0 0.0 0.0 
0.0 0.0 0.0 
0.0 0.0 0.0 
0.0 0.0 0.0 
0.0 0.0 0.0 
0.0 0.0 0.0 
0.0 0.0 0.0 
0.0 0.0 0.0 
0.0 0.0 0.0 
0.0 0.0 0.0 
0.0 0.0 0.0 
0.0 0.0 0.0 
0.0 0.0 0.0 
0.0 0.0 0.0 
0.0 0.0 0.0 
0.0 0.0 0.0 
0.0 0.0 0.0 
0.0 0.0 0.0 
0.0 0.0 0.0 
0.0 0.0 0.0 
0.0 0.0 0.0 
0.0 0.0 0.0 
0.0 0.0 0.0 
0.0 0.0 0.0 
0.0 0.0 0.0 
0.0 0.0 0.0 
0.0 0.0 0.0 
0.0 0.0 0.0 
0.0 0.0 0.0 
0.0 0.0 0.0 
0.0 0.0 0.0 
0.0 0.0 0.0 
0.0 0.0 0.0 
0.0 0.0 0.0 
0.0 0.0 0.0 
0.0 0.0 0.0 
0.0 0.0 0.0 
0.0 0.0 0.0 
0.0 0.0 0.0 
0.0 0.0 0.0 
0.0 0.0 0.0 
0.0 0.0 0.0 
0.0 0.0 0.0 
0.0 0.0 0.0 
0.0 0.0 0.0 
0.0 0.0 0.0 
0.0 0.0 0.0 
0.0 0.0 0.0 
0.0 0.0 0.0 
0.0 0.0 0.0 
0.0 0.0 0.0 
0.0 0.0 0.0 
0.0 0.0 0.0 
0.0 0.0 0.0 
0.0 0.0 0.0 
0.0 0.0 0.0 
0.0 0.0 0.0 
0.0 0.0 0.0 
0.0 0.0 0.0 
0.0 0.0 0.0 
0.0 0.0 0.0 
0.0 0.0 0.0 
0.0 0.0 0.0 
0.0 0.0 0.0 
0.0 0.0 0.0 
0.0 0.0 0.0 
0.0 0.0 0.0 
0.0 0.0 0.0 
0.0 0.0 0.0 
0.0 0.0 0.0 
0.0 0.0 0.0 
0.0 0.0 0.0 
0.0 0.0 0.0 
0.0 0.0 0.0 
0.0 0.0 0.0 
0.0 0.0 0.0 
0.0 0.0 0.0 
0.0 0.0 0.0 
0.0 0.0 0.0 
0.0 0.0 0.0 
0.0 0.0 0.0 
0.0 0.0 0.0 
0.0 0.0 0.0 
0.0 0.0 0.0 
0.0 0.0 0.0 
0.0 0.0 0.0 
0.0 0.0 0.0 
0.0 0.0 0.0 
0.0 0.0 0.0 
0.0 0.0 0.0 
0.0 0.0 0.0 
0.0 0.0 0.0 
0.0 0.0 0.0 
0.0 0.0 0.0 
0.0 0.0 0.0 
0.0 0.0 0.0 
0.0 0.0 0.0 
0.0 0.0 0.0 
0.0 0.0 0.0 
0.0 0.0 0.0 
0.0 0.0 0.0 
0.0 0.0 0.0 
0.0 0.0 0.0 
0.0 0.0 0.0 
0.0 0.0 0.0 
0.0 0.0 0.0 
0.0 0.0 0.0 
0.0 0.0 0.0 
0.0 0.0 0.0 
0.0 0.0 0.0 
0.0 0.0 0.0 
0.0 0.0 0.0 
0.0 0.0 0.0 
0.0 0.0 0.0 
0.0 0.0 0.0 
0.0 0.0 0.0 
0.0 0.0 0.0 
0.0 0.0 0.0 
0.0 0.0 0.0 
0.0 0.0 0.0 
0.0 0.0 0.0 
0.0 0.0 0.0 
0.0 0.0 0.0 
0.0 0.0 0.0 
0.0 0.0 0.0 
0.0 0.0 0.0 
0.0 0.0 0.0 
0.0 0.0 0.0 
0.0 0.0 0.0 
0.0 0.0 0.0 
0.0 0.0 0.0 
0.0 0.0 0.0 
0.0 0.0 0.0 
0.0 0.0 0.0 
0.0 0.0 0.0 
0.0 0.0 0.0 
0.0 0.0 0.0 
0.0 0.0 0.0 
0.0 0.0 0.0 
0.0 0.0 0.0 
0.0 0.0 0.0 
0.0 0.0 0.0 
0.0 0.0 0.0 
0.0 0.0 0.0 
0.0 0.0 0.0 
0.0 0.0 0.0 
0.0 0.0 0.0 
0.0 0.0 0.0 
0.0 0.0 0.0 
0.0 0.0 0.0 
0.0 0.0 0.0 
0.0 0.0 0.0 
0.0 0.0 0.0 
0.0 0.0 0.0 
0.0 0.0 0.0 
0.0 0.0 0.0 
0.0 0.0 0.0 
0.0 0.0 0.0 
0.0 0.0 0.0 
0.0 0.0 0.0 
0.0 0.0 0.0 
0.0 0.0 0.0 
0.0 0.0 0.0 
0.0 0.0 0.0 
0.0 0.0 0.0 
0.0 0.0 0.0 
0.0 0.0 0.0 
0.0 0.0 0.0 
0.0 0.0 0.0 
0.0 0.0 0.0 
0.0 0.0 0.0 
0.0 0.0 0.0 
0.0 0.0 0.0 
0.0 0.0 0.0 
0.0 0.0 0.0 
0.0 0.0 0.0 
0.0 0.0 0.0 
0.0 0.0 0.0 
0.0 0.0 0.0 
0.0 0.0 0.0 
0.0 0.0 0.0 
0.0 0.0 0.0 
0.0 0.0 0.0 
0.0 0.0 0.0 
0.0 0.0 0.0 
0.0 0.0 0.0 
0.0 0.0 0.0 
0.0 0.0 0.0 
0.0 0.0 0.0 
0.0 0.0 0.0 
0.0 0.0 0.0 
0.0 0.0 0.0 
0.0 0.0 0.0 
0.0 0.0 0.0 
0.0 0.0 0.0 
0.0 0.0 0.0 
0.0 0.0 0.0 
0.0 0.0 0.0 
0.0 0.0 0.0 
0.0 0.0 0.0 
0.0 0.0 0.0 
0.0 0.0 0.0 
0.0 0.0 0.0 
0.0 0.0 0.0 
0.0 0.0 0.0 
0.0 0.0 0.0 
0.0 0.0 0.0 
0.0 0.0 0.0 
0.0 0.0 0.0 
0.0 0.0 0.0 
0.0 0.0 0.0 
0.0 0.0 0.0 
0.0 0.0 0.0 
0.0 0.0 0.0 
0.0 0.0 0.0 
0.0 0.0 0.0 
0.0 0.0 0.0 
0.0 0.0 0.0 
0.0 0.0 0.0 
0.0 0.0 0.0 
0.0 0.0 0.0 
0.0 0.0 0.0 
0.0 0.0 0.0 
0.0 0.0 0.0 
0.0 0.0 0.0 
0.0 0.0 0.0 
0.0 0.0 0.0 
0.0 0.0 0.0 
0.0 0.0 0.0 
0.0 0.0 0.0 
0.0 0.0 0.0 
0.0 0.0 0.0 
0.0 0.0 0.0 
0.0 0.0 0.0 
0.0 0.0 0.0 
0.0 0.0 0.0 
0.0 0.0 0.0 
0.0 0.0 0.0 
0.0 0.0 0.0 
0.0 0.0 0.0 
0.0 0.0 0.0 
0.0 0.0 0.0 
0.0 0.0 0.0 
0.0 0.0 0.0 
0.0 0.0 0.0 
0.0 0.0 0.0 
0.0 0.0 0.0 
0.0 0.0 0.0 
0.0 0.0 0.0 
0.0 0.0 0.0 
0.0 0.0 0.0 
0.0 0.0 0.0 
0.0 0.0 0.0 
0.0 0.0 0.0 
0.0 0.0 0.0 
0.0 0.0 0.0 
0.0 0.0 0.0 
0.0 0.0 0.0 
0.0 0.0 0.0 
0.0 0.0 0.0 
0.0 0.0 0.0 
0.0 0.0 0.0 
0.0 0.0 0.0 
0.0 0.0 0.0 
0.0 0.0 0.0 
0.0 0.0 0.0 
0.0 0.0 0.0 
0.0 0.0 0.0 
0.0 0.0 0.0 
0.0 0.0 0.0 
0.0 0.0 0.0 
0.0 0.0 0.0 
0.0 0.0 0.0 
0.0 0.0 0.0 
0.0 0.0 0.0 
0.0 0.0 0.0 
0.0 0.0 0.0 
0.0 0.0 0.0 
0.0 0.0 0.0 
0.0 0.0 0.0 
0.0 0.0 0.0 
0.0 0.0 0.0 
0.0 0.0 0.0 
0.0 0.0 0.0 
0.0 0.0 0.0 
0.0 0.0 0.0 
0.0 0.0 0.0 
0.0 0.0 0.0 
0.0 0.0 0.0 
0.0 0.0 0.0 
0.0 0.0 0.0 
0.0 0.0 0.0 
0.0 0.0 0.0 
0.0 0.0 0.0 
0.0 0.0 0.0 
0.0 0.0 0.0 
0.0 0.0 0.0 
0.0 0.0 0.0 
0.0 0.0 0.0 
0.0 0.0 0.0 
0.0 0.0 0.0 
0.0 0.0 0.0 
0.0 0.0 0.0 
0.0 0.0 0.0 
0.0 0.0 0.0 
0.0 0.0 0.0 
0.0 0.0 0.0 
0.0 0.0 0.0 
0.0 0.0 0.0 
0.0 0.0 0.0 
0.0 0.0 0.0 
0.0 0.0 0.0 
0.0 0.0 0.0 
0.0 0.0 0.0 
0.0 0.0 0.0 
0.0 0.0 0.0 
0.0 0.0 0.0 
0.0 0.0 0.0 
0.0 0.0 0.0 
0.0 0.0 0.0 
0.0 0.0 0.0 
0.0 0.0 0.0 
0.0 0.0 0.0 
0.0 0.0 0.0 
0.0 0.0 0.0 
0.0 0.0 0.0 
0.0 0.0 0.0 
0.0 0.0 0.0 
0.0 0.0 0.0 
0.0 0.0 0.0 
0.0 0.0 0.0 
0.0 0.0 0.0 
0.0 0.0 0.0 
0.0 0.0 0.0 
0.0 0.0 0.0 
0.0 0.0 0.0 
0.0 0.0 0.0 
0.0 0.0 0.0 
0.0 0.0 0.0 
0.0 0.0 0.0 
0.0 0.0 0.0 
0.0 0.0 0.0 
0.0 0.0 0.0 
0.0 0.0 0.0 
0.0 0.0 0.0 
0.0 0.0 0.0 
0.0 0.0 0.0 
0.0 0.0 0.0 
0.0 0.0 0.0 
0.0 0.0 0.0 
0.0 0.0 0.0 
0.0 0.0 0.0 
0.0 0.0 0.0 
0.0 0.0 0.0 
0.0 0.0 0.0 
0.0 0.0 0.0 
0.0 0.0 0.0 
0.0 0.0 0.0 
0.0 0.0 0.0 
0.0 0.0 0.0 
0.0 0.0 0.0 
0.0 0.0 0.0 
0.0 0.0 0.0 
0.0 0.0 0.0 
0.0 0.0 0.0 
0.0 0.0 0.0 
0.0 0.0 0.0 
0.0 0.0 0.0 
0.0 0.0 0.0 
0.0 0.0 0.0 
0.0 0.0 0.0 
0.0 0.0 0.0 
0.0 0.0 0.0 
0.0 0.0 0.0 
0.0 0.0 0.0 
0.0 0.0 0.0 
0.0 0.0 0.0 
0.0 0.0 0.0 
0.0 0.0 0.0 
0.0 0.0 0.0 
0.0 0.0 0.0 
0.0 0.0 0.0 
0.0 0.0 0.0 
0.0 0.0 0.0 
0.0 0.0 0.0 
0.0 0.0 0.0 
0.0 0.0 0.0 
0.0 0.0 0.0 
0.0 0.0 0.0 
0.0 0.0 0.0 
0.0 0.0 0.0 
0.0 0.0 0.0 
0.0 0.0 0.0 
0.0 0.0 0.0 
0.0 0.0 0.0 
0.0 0.0 0.0 
0.0 0.0 0.0 
0.0 0.0 0.0 
0.0 0.0 0.0 
0.0 0.0 0.0 
0.0 0.0 0.0 
0.0 0.0 0.0 
0.0 0.0 0.0 
0.0 0.0 0.0 
0.0 0.0 0.0 
0.0 0.0 0.0 
0.0 0.0 0.0 
0.0 0.0 0.0 
0.0 0.0 0.0 
0.0 0.0 0.0 
0.0 0.0 0.0 
0.0 0.0 0.0 
0.0 0.0 0.0 
0.0 0.0 0.0 
0.0 0.0 0.0 
0.0 0.0 0.0 
0.0 0.0 0.0 
0.0 0.0 0.0 
0.0 0.0 0.0 
0.0 0.0 0.0 
0.0 0.0 0.0 
0.0 0.0 0.0 
0.0 0.0 0.0 
0.0 0.0 0.0 
0.0 0.0 0.0 
0.0 0.0 0.0 
0.0 0.0 0.0 
0.0 0.0 0.0 
0.0 0.0 0.0 
0.0 0.0 0.0 
0.0 0.0 0.0 
0.0 0.0 0.0 
0.0 0.0 0.0 
0.0 0.0 0.0 
0.0 0.0 0.0 
0.0 0.0 0.0 
0.0 0.0 0.0 
0.0 0.0 0.0 
0.0 0.0 0.0 
0.0 0.0 0.0 
0.0 0.0 0.0 
0.0 0.0 0.0 
0.0 0.0 0.0 
0.0 0.0 0.0 
0.0 0.0 0.0 
0.0 0.0 0.0 
0.0 0.0 0.0 
0.0 0.0 0.0 
0.0 0.0 0.0 
0.0 0.0 0.0 
0.0 0.0 0.0 
0.0 0.0 0.0 
0.0 0.0 0.0 
0.0 0.0 0.0 
0.0 0.0 0.0 
0.0 0.0 0.0 
0.0 0.0 0.0 
0.0 0.0 0.0 
0.0 0.0 0.0 
0.0 0.0 0.0 
0.0 0.0 0.0 
0.0 0.0 0.0 
0.0 0.0 0.0 
0.0 0.0 0.0 
0.0 0.0 0.0 
0.0 0.0 0.0 
0.0 0.0 0.0 
0.0 0.0 0.0 
0.0 0.0 0.0 
0.0 0.0 0.0 
0.0 0.0 0.0 
0.0 0.0 0.0 
0.0 0.0 0.0 
0.0 0.0 0.0 
0.0 0.0 0.0 
0.0 0.0 0.0 
0.0 0.0 0.0 
0.0 0.0 0.0 
0.0 0.0 0.0 
0.0 0.0 0.0 
0.0 0.0 0.0 
0.0 0.0 0.0 
0.0 0.0 0.0 
0.0 0.0 0.0 
0.0 0.0 0.0 
0.0 0.0 0.0 
0.0 0.0 0.0 
0.0 0.0 0.0 
0.0 0.0 0.0 
0.0 0.0 0.0 
0.0 0.0 0.0 
0.0 0.0 0.0 
0.0 0.0 0.0 
0.0 0.0 0.0 
0.0 0.0 0.0 
0.0 0.0 0.0 
0.0 0.0 0.0 
0.0 0.0 0.0 
0.0 0.0 0.0 
0.0 0.0 0.0 
0.0 0.0 0.0 
0.0 0.0 0.0 
0.0 0.0 0.0 
0.0 0.0 0.0 
0.0 0.0 0.0 
0.0 0.0 0.0 
0.0 0.0 0.0 
0.0 0.0 0.0 
0.0 0.0 0.0 
0.0 0.0 0.0 
0.0 0.0 0.0 
0.0 0.0 0.0 
0.0 0.0 0.0 
0.0 0.0 0.0 
0.0 0.0 0.0 
0.0 0.0 0.0 
0.0 0.0 0.0 
0.0 0.0 0.0 
0.0 0.0 0.0 
0.0 0.0 0.0 
0.0 0.0 0.0 
0.0 0.0 0.0 
0.0 0.0 0.0 
0.0 0.0 0.0 
0.0 0.0 0.0 
0.0 0.0 0.0 
0.0 0.0 0.0 
0.0 0.0 0.0 
0.0 0.0 0.0 
0.0 0.0 0.0 
0.0 0.0 0.0 
0.0 0.0 0.0 
0.0 0.0 0.0 
0.0 0.0 0.0 
0.0 0.0 0.0 
0.0 0.0 0.0 
0.0 0.0 0.0 
0.0 0.0 0.0 
0.0 0.0 0.0 
0.0 0.0 0.0 
0.0 0.0 0.0 
0.0 0.0 0.0 
0.0 0.0 0.0 
0.0 0.0 0.0 
0.0 0.0 0.0 
0.0 0.0 0.0 
0.0 0.0 0.0 
0.0 0.0 0.0 
0.0 0.0 0.0 
0.0 0.0 0.0 
0.0 0.0 0.0 
0.0 0.0 0.0 
0.0 0.0 0.0 
0.0 0.0 0.0 
0.0 0.0 0.0 
0.0 0.0 0.0 
0.0 0.0 0.0 
0.0 0.0 0.0 
0.0 0.0 0.0 
0.0 0.0 0.0 
0.0 0.0 0.0 
0.0 0.0 0.0 
0.0 0.0 0.0 
0.0 0.0 0.0 
0.0 0.0 0.0 
0.0 0.0 0.0 
0.0 0.0 0.0 
0.0 0.0 0.0 
0.0 0.0 0.0 
0.0 0.0 0.0 
0.0 0.0 0.0 
0.0 0.0 0.0 
0.0 0.0 0.0 
0.0 0.0 0.0 
0.0 0.0 0.0 
0.0 0.0 0.0 
0.0 0.0 0.0 
0.0 0.0 0.0 
0.0 0.0 0.0 
0.0 0.0 0.0 
0.0 0.0 0.0 
0.0 0.0 0.0 
0.0 0.0 0.0 
0.0 0.0 0.0 
0.0 0.0 0.0 
0.0 0.0 0.0 
0.0 0.0 0.0 
0.0 0.0 0.0 
0.0 0.0 0.0 
0.0 0.0 0.0 
0.0 0.0 0.0 
0.0 0.0 0.0 
0.0 0.0 0.0 
0.0 0.0 0.0 
0.0 0.0 0.0 
0.0 0.0 0.0 
0.0 0.0 0.0 
0.0 0.0 0.0 
0.0 0.0 0.0 
0.0 0.0 0.0 
0.0 0.0 0.0 
0.0 0.0 0.0 
0.0 0.0 0.0 
0.0 0.0 0.0 
0.0 0.0 0.0 
0.0 0.0 0.0 
0.0 0.0 0.0 
0.0 0.0 0.0 
0.0 0.0 0.0 
0.0 0.0 0.0 
0.0 0.0 0.0 
0.0 0.0 0.0 
0.0 0.0 0.0 
0.0 0.0 0.0 
0.0 0.0 0.0 
0.0 0.0 0.0 
0.0 0.0 0.0 
0.0 0.0 0.0 
0.0 0.0 0.0 
0.0 0.0 0.0 
0.0 0.0 0.0 
0.0 0.0 0.0 
0.0 0.0 0.0 
0.0 0.0 0.0 
0.0 0.0 0.0 
0.0 0.0 0.0 
0.0 0.0 0.0 
0.0 0.0 0.0 
0.0 0.0 0.0 
0.0 0.0 0.0 
0.0 0.0 0.0 
0.0 0.0 0.0 
0.0 0.0 0.0 
0.0 0.0 0.0 
0.0 0.0 0.0 
0.0 0.0 0.0 
0.0 0.0 0.0 
0.0 0.0 0.0 
0.0 0.0 0.0 
0.0 0.0 0.0 
0.0 0.0 0.0 
0.0 0.0 0.0 
0.0 0.0 0.0 
0.0 0.0 0.0 
0.0 0.0 0.0 
0.0 0.0 0.0 
0.0 0.0 0.0 
0.0 0.0 0.0 
0.0 0.0 0.0 
0.0 0.0 0.0 
0.0 0.0 0.0 
0.0 0.0 0.0 
0.0 0.0 0.0 
0.0 0.0 0.0 
0.0 0.0 0.0 
0.0 0.0 0.0 
0.0 0.0 0.0 
0.0 0.0 0.0 
0.0 0.0 0.0 
0.0 0.0 0.0 
0.0 0.0 0.0 
0.0 0.0 0.0 
0.0 0.0 0.0 
0.0 0.0 0.0 
0.0 0.0 0.0 
0.0 0.0 0.0 
0.0 0.0 0.0 
0.0 0.0 0.0 
0.0 0.0 0.0 
0.0 0.0 0.0 
0.0 0.0 0.0 
0.0 0.0 0.0 
0.0 0.0 0.0 
0.0 0.0 0.0 
0.0 0.0 0.0 
0.0 0.0 0.0 
0.0 0.0 0.0 
0.0 0.0 0.0 
0.0 0.0 0.0 
0.0 0.0 0.0 
0.0 0.0 0.0 
0.0 0.0 0.0 
0.0 0.0 0.0 
0.0 0.0 0.0 
0.0 0.0 0.0 
0.0 0.0 0.0 
0.0 0.0 0.0 
0.0 0.0 0.0 
0.0 0.0 0.0 
0.0 0.0 0.0 
0.0 0.0 0.0 
0.0 0.0 0.0 
0.0 0.0 0.0 
0.0 0.0 0.0 
0.0 0.0 0.0 
0.0 0.0 0.0 
0.0 0.0 0.0 
0.0 0.0 0.0 
0.0 0.0 0.0 
0.0 0.0 0.0 
0.0 0.0 0.0 
0.0 0.0 0.0 
0.0 0.0 0.0 
0.0 0.0 0.0 
0.0 0.0 0.0 
0.0 0.0 0.0 
0.0 0.0 0.0 
0.0 0.0 0.0 
0.0 0.0 0.0 
0.0 0.0 0.0 
0.0 0.0 0.0 
0.0 0.0 0.0 
0.0 0.0 0.0 
0.0 0.0 0.0 
0.0 0.0 0.0 
0.0 0.0 0.0 
0.0 0.0 0.0 
0.0 0.0 0.0 
0.0 0.0 0.0 
0.0 0.0 0.0 
0.0 0.0 0.0 
0.0 0.0 0.0 
0.0 0.0 0.0 
0.0 0.0 0.0 
0.0 0.0 0.0 
0.0 0.0 0.0 
0.0 0.0 0.0 
0.0 0.0 0.0 
0.0 0.0 0.0 
0.0 0.0 0.0 
0.0 0.0 0.0 
0.0 0.0 0.0 
0.0 0.0 0.0 
0.0 0.0 0.0 
0.0 0.0 0.0 
0.0 0.0 0.0 
0.0 0.0 0.0 
0.0 0.0 0.0 
0.0 0.0 0.0 
0.0 0.0 0.0 
0.0 0.0 0.0 
0.0 0.0 0.0 
0.0 0.0 0.0 
0.0 0.0 0.0 
0.0 0.0 0.0 
0.0 0.0 0.0 
0.0 0.0 0.0 
0.0 0.0 0.0 
0.0 0.0 0.0 
0.0 0.0 0.0 
0.0 0.0 0.0 
0.0 0.0 0.0 
0.0 0.0 0.0 
0.0 0.0 0.0 
0.0 0.0 0.0 
0.0 0.0 0.0 
0.0 0.0 0.0 
0.0 0.0 0.0 
0.0 0.0 0.0 
0.0 0.0 0.0 
0.0 0.0 0.0 
0.0 0.0 0.0 
0.0 0.0 0.0 
0.0 0.0 0.0 
0.0 0.0 0.0 
0.0 0.0 0.0 
0.0 0.0 0.0 
0.0 0.0 0.0 
0.0 0.0 0.0 
0.0 0.0 0.0 
0.0 0.0 0.0 
0.0 0.0 0.0 
0.0 0.0 0.0 
0.0 0.0 0.0 
0.0 0.0 0.0 
0.0 0.0 0.0 
0.0 0.0 0.0 
0.0 0.0 0.0 
0.0 0.0 0.0 
0.0 0.0 0.0 
0.0 0.0 0.0 
0.0 0.0 0.0 
0.0 0.0 0.0 
0.0 0.0 0.0 
0.0 0.0 0.0 
0.0 0.0 0.0 
0.0 0.0 0.0 
0.0 0.0 0.0 
0.0 0.0 0.0 
0.0 0.0 0.0 
0.0 0.0 0.0 
0.0 0.0 0.0 
0.0 0.0 0.0 
0.0 0.0 0.0 
0.0 0.0 0.0 
0.0 0.0 0.0 
0.0 0.0 0.0 
0.0 0.0 0.0 
0.0 0.0 0.0 
0.0 0.0 0.0 
0.0 0.0 0.0 
0.0 0.0 0.0 
0.0 0.0 0.0 
0.0 0.0 0.0 
0.0 0.0 0.0 
0.0 0.0 0.0 
0.0 0.0 0.0 
0.0 0.0 0.0 
0.0 0.0 0.0 
0.0 0.0 0.0 
0.0 0.0 0.0 
0.0 0.0 0.0 
0.0 0.0 0.0 
0.0 0.0 0.0 
0.0 0.0 0.0 
0.0 0.0 0.0 
0.0 0.0 0.0 
0.0 0.0 0.0 
0.0 0.0 0.0 
0.0 0.0 0.0 
0.0 0.0 0.0 
0.0 0.0 0.0 
0.0 0.0 0.0 
0.0 0.0 0.0 
0.0 0.0 0.0 
0.0 0.0 0.0 
0.0 0.0 0.0 
0.0 0.0 0.0 
0.0 0.0 0.0 
0.0 0.0 0.0 
0.0 0.0 0.0 
0.0 0.0 0.0 
0.0 0.0 0.0 
0.0 0.0 0.0 
0.0 0.0 0.0 
0.0 0.0 0.0 
0.0 0.0 0.0 
0.0 0.0 0.0 
0.0 0.0 0.0 
0.0 0.0 0.0 
0.0 0.0 0.0 
0.0 0.0 0.0 
0.0 0.0 0.0 
0.0 0.0 0.0 
0.0 0.0 0.0 
0.0 0.0 0.0 
0.0 0.0 0.0 
0.0 0.0 0.0 
0.0 0.0 0.0 
0.0 0.0 0.0 
0.0 0.0 0.0 
0.0 0.0 0.0 
0.0 0.0 0.0 
0.0 0.0 0.0 
0.0 0.0 0.0 
0.0 0.0 0.0 
0.0 0.0 0.0 
0.0 0.0 0.0 
0.0 0.0 0.0 
0.0 0.0 0.0 
0.0 0.0 0.0 
0.0 0.0 0.0 
0.0 0.0 0.0 
0.0 0.0 0.0 
0.0 0.0 0.0 
0.0 0.0 0.0 
0.0 0.0 0.0 
0.0 0.0 0.0 
0.0 0.0 0.0 
0.0 0.0 0.0 
0.0 0.0 0.0 
0.0 0.0 0.0 
0.0 0.0 0.0 
0.0 0.0 0.0 
0.0 0.0 0.0 
0.0 0.0 0.0 
0.0 0.0 0.0 
0.0 0.0 0.0 
0.0 0.0 0.0 
0.0 0.0 0.0 
0.0 0.0 0.0 
0.0 0.0 0.0 
0.0 0.0 0.0 
0.0 0.0 0.0 
0.0 0.0 0.0 
0.0 0.0 0.0 
0.0 0.0 0.0 
0.0 0.0 0.0 
0.0 0.0 0.0 
0.0 0.0 0.0 
0.0 0.0 0.0 
0.0 0.0 0.0 
0.0 0.0 0.0 
0.0 0.0 0.0 
0.0 0.0 0.0 
0.0 0.0 0.0 
0.0 0.0 0.0 
0.0 0.0 0.0 
0.0 0.0 0.0 
0.0 0.0 0.0 
0.0 0.0 0.0 
0.0 0.0 0.0 
0.0 0.0 0.0 
0.0 0.0 0.0 
0.0 0.0 0.0 
0.0 0.0 0.0 
0.0 0.0 0.0 
0.0 0.0 0.0 
0.0 0.0 0.0 
0.0 0.0 0.0 
0.0 0.0 0.0 
0.0 0.0 0.0 
0.0 0.0 0.0 
0.0 0.0 0.0 
0.0 0.0 0.0 
0.0 0.0 0.0 
0.0 0.0 0.0 
0.0 0.0 0.0 
0.0 0.0 0.0 
0.0 0.0 0.0 
0.0 0.0 0.0 
0.0 0.0 0.0 
0.0 0.0 0.0 
0.0 0.0 0.0 
0.0 0.0 0.0 
0.0 0.0 0.0 
0.0 0.0 0.0 
0.0 0.0 0.0 
0.0 0.0 0.0 
0.0 0.0 0.0 
0.0 0.0 0.0 
0.0 0.0 0.0 
0.0 0.0 0.0 
0.0 0.0 0.0 
0.0 0.0 0.0 
0.0 0.0 0.0 
0.0 0.0 0.0 
0.0 0.0 0.0 
0.0 0.0 0.0 
0.0 0.0 0.0 
0.0 0.0 0.0 
0.0 0.0 0.0 
0.0 0.0 0.0 
0.0 0.0 0.0 
0.0 0.0 0.0 
0.0 0.0 0.0 
0.0 0.0 0.0 
0.0 0.0 0.0 
0.0 0.0 0.0 
0.0 0.0 0.0 
0.0 0.0 0.0 
0.0 0.0 0.0 
0.0 0.0 0.0 
0.0 0.0 0.0 
0.0 0.0 0.0 
0.0 0.0 0.0 
0.0 0.0 0.0 
0.0 0.0 0.0 
0.0 0.0 0.0 
0.0 0.0 0.0 
0.0 0.0 0.0 
0.0 0.0 0.0 
0.0 0.0 0.0 
0.0 0.0 0.0 
0.0 0.0 0.0 
0.0 0.0 0.0 
0.0 0.0 0.0 
0.0 0.0 0.0 
0.0 0.0 0.0 
0.0 0.0 0.0 
0.0 0.0 0.0 
0.0 0.0 0.0 
0.0 0.0 0.0 
0.0 0.0 0.0 
0.0 0.0 0.0 
0.0 0.0 0.0 
0.0 0.0 0.0 
0.0 0.0 0.0 
0.0 0.0 0.0 
0.0 0.0 0.0 
0.0 0.0 0.0 
0.0 0.0 0.0 
0.0 0.0 0.0 
0.0 0.0 0.0 
0.0 0.0 0.0 
0.0 0.0 0.0 
0.0 0.0 0.0 
0.0 0.0 0.0 
0.0 0.0 0.0 
0.0 0.0 0.0 
0.0 0.0 0.0 
0.0 0.0 0.0 
0.0 0.0 0.0 
0.0 0.0 0.0 
0.0 0.0 0.0 
0.0 0.0 0.0 
0.0 0.0 0.0 
0.0 0.0 0.0 
0.0 0.0 0.0 
0.0 0.0 0.0 
0.0 0.0 0.0 
0.0 0.0 0.0 
0.0 0.0 0.0 
0.0 0.0 0.0 
0.0 0.0 0.0 
0.0 0.0 0.0 
0.0 0.0 0.0 
0.0 0.0 0.0 
0.0 0.0 0.0 
0.0 0.0 0.0 
0.0 0.0 0.0 
0.0 0.0 0.0 
0.0 0.0 0.0 
0.0 0.0 0.0 
0.0 0.0 0.0 
0.0 0.0 0.0 
0.0 0.0 0.0 
0.0 0.0 0.0 
0.0 0.0 0.0 
0.0 0.0 0.0 
0.0 0.0 0.0 
0.0 0.0 0.0 
0.0 0.0 0.0 
0.0 0.0 0.0 
0.0 0.0 0.0 
0.0 0.0 0.0 
0.0 0.0 0.0 
0.0 0.0 0.0 
0.0 0.0 0.0 
0.0 0.0 0.0 
0.0 0.0 0.0 
0.0 0.0 0.0 
0.0 0.0 0.0 
0.0 0.0 0.0 
0.0 0.0 0.0 
0.0 0.0 0.0 
0.0 0.0 0.0 
0.0 0.0 0.0 
0.0 0.0 0.0 
0.0 0.0 0.0 
0.0 0.0 0.0 
0.0 0.0 0.0 
0.0 0.0 0.0 
0.0 0.0 0.0 
0.0 0.0 0.0 
0.0 0.0 0.0 
0.0 0.0 0.0 
0.0 0.0 0.0 
0.0 0.0 0.0 
0.0 0.0 0.0 
0.0 0.0 0.0 
0.0 0.0 0.0 
0.0 0.0 0.0 
0.0 0.0 0.0 
0.0 0.0 0.0 
0.0 0.0 0.0 
0.0 0.0 0.0 
0.0 0.0 0.0 
0.0 0.0 0.0 
0.0 0.0 0.0 
0.0 0.0 0.0 
0.0 0.0 0.0 
0.0 0.0 0.0 
0.0 0.0 0.0 
0.0 0.0 0.0 
0.0 0.0 0.0 
0.0 0.0 0.0 
0.0 0.0 0.0 
0.0 0.0 0.0 
0.0 0.0 0.0 
0.0 0.0 0.0 
0.0 0.0 0.0 
0.0 0.0 0.0 
0.0 0.0 0.0 
0.0 0.0 0.0 
0.0 0.0 0.0 
0.0 0.0 0.0 
0.0 0.0 0.0 
0.0 0.0 0.0 
0.0 0.0 0.0 
0.0 0.0 0.0 
0.0 0.0 0.0 
0.0 0.0 0.0 
0.0 0.0 0.0 
0.0 0.0 0.0 
0.0 0.0 0.0 
0.0 0.0 0.0 
0.0 0.0 0.0 
0.0 0.0 0.0 
0.0 0.0 0.0 
0.0 0.0 0.0 
0.0 0.0 0.0 
0.0 0.0 0.0 
0.0 0.0 0.0 
0.0 0.0 0.0 
0.0 0.0 0.0 
0.0 0.0 0.0 
0.0 0.0 0.0 
0.0 0.0 0.0 
0.0 0.0 0.0 
0.0 0.0 0.0 
0.0 0.0 0.0 
0.0 0.0 0.0 
0.0 0.0 0.0 
0.0 0.0 0.0 
0.0 0.0 0.0 
0.0 0.0 0.0 
0.0 0.0 0.0 
0.0 0.0 0.0 
0.0 0.0 0.0 
0.0 0.0 0.0 
0.0 0.0 0.0 
0.0 0.0 0.0 
0.0 0.0 0.0 
0.0 0.0 0.0 
0.0 0.0 0.0 
0.0 0.0 0.0 
0.0 0.0 0.0 
0.0 0.0 0.0 
0.0 0.0 0.0 
0.0 0.0 0.0 
0.0 0.0 0.0 
0.0 0.0 0.0 
0.0 0.0 0.0 
0.0 0.0 0.0 
0.0 0.0 0.0 
0.0 0.0 0.0 
0.0 0.0 0.0 
0.0 0.0 0.0 
0.0 0.0 0.0 
0.0 0.0 0.0 
0.0 0.0 0.0 
0.0 0.0 0.0 
0.0 0.0 0.0 
0.0 0.0 0.0 
0.0 0.0 0.0 
0.0 0.0 0.0 
0.0 0.0 0.0 
0.0 0.0 0.0 
0.0 0.0 0.0 
0.0 0.0 0.0 
0.0 0.0 0.0 
0.0 0.0 0.0 
0.0 0.0 0.0 
0.0 0.0 0.0 
0.0 0.0 0.0 
0.0 0.0 0.0 
0.0 0.0 0.0 
0.0 0.0 0.0 
0.0 0.0 0.0 
0.0 0.0 0.0 
0.0 0.0 0.0 
0.0 0.0 0.0 
0.0 0.0 0.0 
0.0 0.0 0.0 
0.0 0.0 0.0 
0.0 0.0 0.0 
0.0 0.0 0.0 
0.0 0.0 0.0 
0.0 0.0 0.0 
0.0 0.0 0.0 
0.0 0.0 0.0 
0.0 0.0 0.0 
0.0 0.0 0.0 
0.0 0.0 0.0 
0.0 0.0 0.0 
0.0 0.0 0.0 
0.0 0.0 0.0 
0.0 0.0 0.0 
0.0 0.0 0.0 
0.0 0.0 0.0 
0.0 0.0 0.0 
0.0 0.0 0.0 
0.0 0.0 0.0 
0.0 0.0 0.0 
0.0 0.0 0.0 
0.0 0.0 0.0 
0.0 0.0 0.0 
0.0 0.0 0.0 
0.0 0.0 0.0 
0.0 0.0 0.0 
0.0 0.0 0.0 
0.0 0.0 0.0 
0.0 0.0 0.0 
0.0 0.0 0.0 
0.0 0.0 0.0 
0.0 0.0 0.0 
0.0 0.0 0.0 
0.0 0.0 0.0 
0.0 0.0 0.0 
0.0 0.0 0.0 
0.0 0.0 0.0 
0.0 0.0 0.0 
0.0 0.0 0.0 
0.0 0.0 0.0 
0.0 0.0 0.0 
0.0 0.0 0.0 
0.0 0.0 0.0 
0.0 0.0 0.0 
0.0 0.0 0.0 
0.0 0.0 0.0 
0.0 0.0 0.0 
0.0 0.0 0.0 
0.0 0.0 0.0 
0.0 0.0 0.0 
0.0 0.0 0.0 
0.0 0.0 0.0 
0.0 0.0 0.0 
0.0 0.0 0.0 
0.0 0.0 0.0 
0.0 0.0 0.0 
0.0 0.0 0.0 
0.0 0.0 0.0 
0.0 0.0 0.0 
0.0 0.0 0.0 
0.0 0.0 0.0 
0.0 0.0 0.0 
0.0 0.0 0.0 
0.0 0.0 0.0 
0.0 0.0 0.0 
0.0 0.0 0.0 
0.0 0.0 0.0 
0.0 0.0 0.0 
0.0 0.0 0.0 
0.0 0.0 0.0 
0.0 0.0 0.0 
0.0 0.0 0.0 
0.0 0.0 0.0 
0.0 0.0 0.0 
0.0 0.0 0.0 
0.0 0.0 0.0 
0.0 0.0 0.0 
0.0 0.0 0.0 
0.0 0.0 0.0 
0.0 0.0 0.0 
0.0 0.0 0.0 
0.0 0.0 0.0 
0.0 0.0 0.0 
0.0 0.0 0.0 
0.0 0.0 0.0 
0.0 0.0 0.0 
0.0 0.0 0.0 
0.0 0.0 0.0 
0.0 0.0 0.0 
0.0 0.0 0.0 
0.0 0.0 0.0 
0.0 0.0 0.0 
0.0 0.0 0.0 
0.0 0.0 0.0 
0.0 0.0 0.0 
0.0 0.0 0.0 
0.0 0.0 0.0 
0.0 0.0 0.0 
0.0 0.0 0.0 
0.0 0.0 0.0 
0.0 0.0 0.0 
0.0 0.0 0.0 
0.0 0.0 0.0 
0.0 0.0 0.0 
0.0 0.0 0.0 
0.0 0.0 0.0 
0.0 0.0 0.0 
0.0 0.0 0.0 
0.0 0.0 0.0 
0.0 0.0 0.0 
0.0 0.0 0.0 
0.0 0.0 0.0 
0.0 0.0 0.0 
0.0 0.0 0.0 
0.0 0.0 0.0 
0.0 0.0 0.0 
0.0 0.0 0.0 
0.0 0.0 0.0 
0.0 0.0 0.0 
0.0 0.0 0.0 
0.0 0.0 0.0 
0.0 0.0 0.0 
0.0 0.0 0.0 
0.0 0.0 0.0 
0.0 0.0 0.0 
0.0 0.0 0.0 
0.0 0.0 0.0 
0.0 0.0 0.0 
0.0 0.0 0.0 
0.0 0.0 0.0 
0.0 0.0 0.0 
0.0 0.0 0.0 
0.0 0.0 0.0 
0.0 0.0 0.0 
0.0 0.0 0.0 
0.0 0.0 0.0 
0.0 0.0 0.0 
0.0 0.0 0.0 
0.0 0.0 0.0 
0.0 0.0 0.0 
0.0 0.0 0.0 
0.0 0.0 0.0 
0.0 0.0 0.0 
0.0 0.0 0.0 
0.0 0.0 0.0 
0.0 0.0 0.0 
0.0 0.0 0.0 
0.0 0.0 0.0 
0.0 0.0 0.0 
0.0 0.0 0.0 
0.0 0.0 0.0 
0.0 0.0 0.0 
0.0 0.0 0.0 
0.0 0.0 0.0 
0.0 0.0 0.0 
0.0 0.0 0.0 
0.0 0.0 0.0 
0.0 0.0 0.0 
0.0 0.0 0.0 
0.0 0.0 0.0 
0.0 0.0 0.0 
0.0 0.0 0.0 
0.0 0.0 0.0 
0.0 0.0 0.0 
0.0 0.0 0.0 
0.0 0.0 0.0 
0.0 0.0 0.0 
0.0 0.0 0.0 
0.0 0.0 0.0 
0.0 0.0 0.0 
0.0 0.0 0.0 
0.0 0.0 0.0 
0.0 0.0 0.0 
0.0 0.0 0.0 
0.0 0.0 0.0 
0.0 0.0 0.0 
0.0 0.0 0.0 
0.0 0.0 0.0 
0.0 0.0 0.0 
0.0 0.0 0.0 
0.0 0.0 0.0 
0.0 0.0 0.0 
0.0 0.0 0.0 
0.0 0.0 0.0 
0.0 0.0 0.0 
0.0 0.0 0.0 
0.0 0.0 0.0 
0.0 0.0 0.0 
0.0 0.0 0.0 
0.0 0.0 0.0 
0.0 0.0 0.0 
0.0 0.0 0.0 
0.0 0.0 0.0 
0.0 0.0 0.0 
0.0 0.0 0.0 
0.0 0.0 0.0 
0.0 0.0 0.0 
0.0 0.0 0.0 
0.0 0.0 0.0 
0.0 0.0 0.0 
0.0 0.0 0.0 
0.0 0.0 0.0 
0.0 0.0 0.0 
0.0 0.0 0.0 
0.0 0.0 0.0 
0.0 0.0 0.0 
0.0 0.0 0.0 
0.0 0.0 0.0 
0.0 0.0 0.0 
0.0 0.0 0.0 
0.0 0.0 0.0 
0.0 0.0 0.0 
0.0 0.0 0.0 
0.0 0.0 0.0 
0.0 0.0 0.0 
0.0 0.0 0.0 
0.0 0.0 0.0 
0.0 0.0 0.0 
0.0 0.0 0.0 
0.0 0.0 0.0 
0.0 0.0 0.0 
0.0 0.0 0.0 
0.0 0.0 0.0 
0.0 0.0 0.0 
0.0 0.0 0.0 
0.0 0.0 0.0 
0.0 0.0 0.0 
0.0 0.0 0.0 
0.0 0.0 0.0 
0.0 0.0 0.0 
0.0 0.0 0.0 
0.0 0.0 0.0 
0.0 0.0 0.0 
0.0 0.0 0.0 
0.0 0.0 0.0 
0.0 0.0 0.0 
0.0 0.0 0.0 
0.0 0.0 0.0 
0.0 0.0 0.0 
0.0 0.0 0.0 
0.0 0.0 0.0 
0.0 0.0 0.0 
0.0 0.0 0.0 
0.0 0.0 0.0 
0.0 0.0 0.0 
0.0 0.0 0.0 
0.0 0.0 0.0 
0.0 0.0 0.0 
0.0 0.0 0.0 
0.0 0.0 0.0 
0.0 0.0 0.0 
0.0 0.0 0.0 
0.0 0.0 0.0 
0.0 0.0 0.0 
0.0 0.0 0.0 
0.0 0.0 0.0 
0.0 0.0 0.0 
0.0 0.0 0.0 
0.0 0.0 0.0 
0.0 0.0 0.0 
0.0 0.0 0.0 
0.0 0.0 0.0 
0.0 0.0 0.0 
0.0 0.0 0.0 
0.0 0.0 0.0 
0.0 0.0 0.0 
0.0 0.0 0.0 
0.0 0.0 0.0 
0.0 0.0 0.0 
0.0 0.0 0.0 
0.0 0.0 0.0 
0.0 0.0 0.0 
0.0 0.0 0.0 
0.0 0.0 0.0 
0.0 0.0 0.0 
0.0 0.0 0.0 
0.0 0.0 0.0 
0.0 0.0 0.0 
0.0 0.0 0.0 
0.0 0.0 0.0 
0.0 0.0 0.0 
0.0 0.0 0.0 
0.0 0.0 0.0 
0.0 0.0 0.0 
0.0 0.0 0.0 
0.0 0.0 0.0 
0.0 0.0 0.0 
0.0 0.0 0.0 
0.0 0.0 0.0 
0.0 0.0 0.0 
0.0 0.0 0.0 
0.0 0.0 0.0 
0.0 0.0 0.0 
0.0 0.0 0.0 
0.0 0.0 0.0 
0.0 0.0 0.0 
0.0 0.0 0.0 
0.0 0.0 0.0 
0.0 0.0 0.0 
0.0 0.0 0.0 
0.0 0.0 0.0 
0.0 0.0 0.0 
0.0 0.0 0.0 
0.0 0.0 0.0 
0.0 0.0 0.0 
0.0 0.0 0.0 
0.0 0.0 0.0 
0.0 0.0 0.0 
0.0 0.0 0.0 
0.0 0.0 0.0 
0.0 0.0 0.0 
0.0 0.0 0.0 
0.0 0.0 0.0 
0.0 0.0 0.0 
0.0 0.0 0.0 
0.0 0.0 0.0 
0.0 0.0 0.0 
0.0 0.0 0.0 
0.0 0.0 0.0 
0.0 0.0 0.0 
0.0 0.0 0.0 
0.0 0.0 0.0 
0.0 0.0 0.0 
0.0 0.0 0.0 
0.0 0.0 0.0 
0.0 0.0 0.0 
0.0 0.0 0.0 
0.0 0.0 0.0 
0.0 0.0 0.0 
0.0 0.0 0.0 
0.0 0.0 0.0 
0.0 0.0 0.0 
0.0 0.0 0.0 
0.0 0.0 0.0 
0.0 0.0 0.0 
0.0 0.0 0.0 
0.0 0.0 0.0 
0.0 0.0 0.0 
0.0 0.0 0.0 
0.0 0.0 0.0 
0.0 0.0 0.0 
0.0 0.0 0.0 
0.0 0.0 0.0 
0.0 0.0 0.0 
0.0 0.0 0.0 
0.0 0.0 0.0 
0.0 0.0 0.0 
0.0 0.0 0.0 
0.0 0.0 0.0 
0.0 0.0 0.0 
0.0 0.0 0.0 
0.0 0.0 0.0 
0.0 0.0 0.0 
0.0 0.0 0.0 
0.0 0.0 0.0 
0.0 0.0 0.0 
0.0 0.0 0.0 
0.0 0.0 0.0 
0.0 0.0 0.0 
0.0 0.0 0.0 
0.0 0.0 0.0 
0.0 0.0 0.0 
0.0 0.0 0.0 
0.0 0.0 0.0 
0.0 0.0 0.0 
0.0 0.0 0.0 
0.0 0.0 0.0 
0.0 0.0 0.0 
0.0 0.0 0.0 
0.0 0.0 0.0 
0.0 0.0 0.0 
0.0 0.0 0.0 
0.0 0.0 0.0 
0.0 0.0 0.0 
0.0 0.0 0.0 
0.0 0.0 0.0 
0.0 0.0 0.0 
0.0 0.0 0.0 
0.0 0.0 0.0 
0.0 0.0 0.0 
0.0 0.0 0.0 
0.0 0.0 0.0 
0.0 0.0 0.0 
0.0 0.0 0.0 
0.0 0.0 0.0 
0.0 0.0 0.0 
0.0 0.0 0.0 
0.0 0.0 0.0 
0.0 0.0 0.0 
0.0 0.0 0.0 
0.0 0.0 0.0 
0.0 0.0 0.0 
0.0 0.0 0.0 
0.0 0.0 0.0 
0.0 0.0 0.0 
0.0 0.0 0.0 
0.0 0.0 0.0 
0.0 0.0 0.0 
0.0 0.0 0.0 
0.0 0.0 0.0 
0.0 0.0 0.0 
0.0 0.0 0.0 
0.0 0.0 0.0 
0.0 0.0 0.0 
0.0 0.0 0.0 
0.0 0.0 0.0 
0.0 0.0 0.0 
0.0 0.0 0.0 
0.0 0.0 0.0 
0.0 0.0 0.0 
0.0 0.0 0.0 
0.0 0.0 0.0 
0.0 0.0 0.0 
0.0 0.0 0.0 
0.0 0.0 0.0 
0.0 0.0 0.0 
0.0 0.0 0.0 
0.0 0.0 0.0 
0.0 0.0 0.0 
0.0 0.0 0.0 
0.0 0.0 0.0 
0.0 0.0 0.0 
0.0 0.0 0.0 
0.0 0.0 0.0 
0.0 0.0 0.0 
0.0 0.0 0.0 
0.0 0.0 0.0 
0.0 0.0 0.0 
0.0 0.0 0.0 
0.0 0.0 0.0 
0.0 0.0 0.0 
0.0 0.0 0.0 
0.0 0.0 0.0 
0.0 0.0 0.0 
0.0 0.0 0.0 
0.0 0.0 0.0 
0.0 0.0 0.0 
0.0 0.0 0.0 
0.0 0.0 0.0 
0.0 0.0 0.0 
0.0 0.0 0.0 
0.0 0.0 0.0 
0.0 0.0 0.0 
0.0 0.0 0.0 
0.0 0.0 0.0 
0.0 0.0 0.0 
0.0 0.0 0.0 
0.0 0.0 0.0 
0.0 0.0 0.0 
0.0 0.0 0.0 
0.0 0.0 0.0 
0.0 0.0 0.0 
0.0 0.0 0.0 
0.0 0.0 0.0 
0.0 0.0 0.0 
0.0 0.0 0.0 
0.0 0.0 0.0 
0.0 0.0 0.0 
0.0 0.0 0.0 
0.0 0.0 0.0 
0.0 0.0 0.0 
0.0 0.0 0.0 
0.0 0.0 0.0 
0.0 0.0 0.0 
0.0 0.0 0.0 
0.0 0.0 0.0 
0.0 0.0 0.0 
0.0 0.0 0.0 
0.0 0.0 0.0 
0.0 0.0 0.0 
0.0 0.0 0.0 
0.0 0.0 0.0 
0.0 0.0 0.0 
0.0 0.0 0.0 
0.0 0.0 0.0 
0.0 0.0 0.0 
0.0 0.0 0.0 
0.0 0.0 0.0 
0.0 0.0 0.0 
0.0 0.0 0.0 
0.0 0.0 0.0 
0.0 0.0 0.0 
0.0 0.0 0.0 
0.0 0.0 0.0 
0.0 0.0 0.0 
0.0 0.0 0.0 
0.0 0.0 0.0 
0.0 0.0 0.0 
0.0 0.0 0.0 
0.0 0.0 0.0 
0.0 0.0 0.0 
0.0 0.0 0.0 
0.0 0.0 0.0 
0.0 0.0 0.0 
0.0 0.0 0.0 
0.0 0.0 0.0 
0.0 0.0 0.0 
0.0 0.0 0.0 
0.0 0.0 0.0 
0.0 0.0 0.0 
0.0 0.0 0.0 
0.0 0.0 0.0 
0.0 0.0 0.0 
0.0 0.0 0.0 
0.0 0.0 0.0 
0.0 0.0 0.0 
0.0 0.0 0.0 
0.0 0.0 0.0 
0.0 0.0 0.0 
0.0 0.0 0.0 
0.0 0.0 0.0 
0.0 0.0 0.0 
0.0 0.0 0.0 
0.0 0.0 0.0 
0.0 0.0 0.0 
0.0 0.0 0.0 
0.0 0.0 0.0 
0.0 0.0 0.0 
0.0 0.0 0.0 
0.0 0.0 0.0 
0.0 0.0 0.0 
0.0 0.0 0.0 
0.0 0.0 0.0 
0.0 0.0 0.0 
0.0 0.0 0.0 
0.0 0.0 0.0 
0.0 0.0 0.0 
0.0 0.0 0.0 
0.0 0.0 0.0 
0.0 0.0 0.0 
0.0 0.0 0.0 
0.0 0.0 0.0 
0.0 0.0 0.0 
0.0 0.0 0.0 
0.0 0.0 0.0 
0.0 0.0 0.0 
0.0 0.0 0.0 
0.0 0.0 0.0 
0.0 0.0 0.0 
0.0 0.0 0.0 
0.0 0.0 0.0 
0.0 0.0 0.0 
0.0 0.0 0.0 
0.0 0.0 0.0 
0.0 0.0 0.0 
0.0 0.0 0.0 
0.0 0.0 0.0 
0.0 0.0 0.0 
0.0 0.0 0.0 
0.0 0.0 0.0 
0.0 0.0 0.0 
0.0 0.0 0.0 
0.0 0.0 0.0 
0.0 0.0 0.0 
0.0 0.0 0.0 
0.0 0.0 0.0 
0.0 0.0 0.0 
0.0 0.0 0.0 
0.0 0.0 0.0 
0.0 0.0 0.0 
0.0 0.0 0.0 
0.0 0.0 0.0 
0.0 0.0 0.0 
0.0 0.0 0.0 
0.0 0.0 0.0 
0.0 0.0 0.0 
0.0 0.0 0.0 
0.0 0.0 0.0 
0.0 0.0 0.0 
0.0 0.0 0.0 
0.0 0.0 0.0 
0.0 0.0 0.0 
0.0 0.0 0.0 
0.0 0.0 0.0 
0.0 0.0 0.0 
0.0 0.0 0.0 
0.0 0.0 0.0 
0.0 0.0 0.0 
0.0 0.0 0.0 
0.0 0.0 0.0 
0.0 0.0 0.0 
0.0 0.0 0.0 
0.0 0.0 0.0 
0.0 0.0 0.0 
0.0 0.0 0.0 
0.0 0.0 0.0 
0.0 0.0 0.0 
0.0 0.0 0.0 
0.0 0.0 0.0 
0.0 0.0 0.0 
0.0 0.0 0.0 
0.0 0.0 0.0 
0.0 0.0 0.0 
0.0 0.0 0.0 
0.0 0.0 0.0 
0.0 0.0 0.0 
0.0 0.0 0.0 
0.0 0.0 0.0 
0.0 0.0 0.0 
0.0 0.0 0.0 
0.0 0.0 0.0 
0.0 0.0 0.0 
0.0 0.0 0.0 
0.0 0.0 0.0 
0.0 0.0 0.0 
0.0 0.0 0.0 
0.0 0.0 0.0 
0.0 0.0 0.0 
0.0 0.0 0.0 
0.0 0.0 0.0 
0.0 0.0 0.0 
0.0 0.0 0.0 
0.0 0.0 0.0 
0.0 0.0 0.0 
0.0 0.0 0.0 
0.0 0.0 0.0 
0.0 0.0 0.0 
0.0 0.0 0.0 
0.0 0.0 0.0 
0.0 0.0 0.0 
0.0 0.0 0.0 
0.0 0.0 0.0 
0.0 0.0 0.0 
0.0 0.0 0.0 
0.0 0.0 0.0 
0.0 0.0 0.0 
0.0 0.0 0.0 
0.0 0.0 0.0 
0.0 0.0 0.0 
0.0 0.0 0.0 
0.0 0.0 0.0 
0.0 0.0 0.0 
0.0 0.0 0.0 
0.0 0.0 0.0 
0.0 0.0 0.0 
0.0 0.0 0.0 
0.0 0.0 0.0 
0.0 0.0 0.0 
0.0 0.0 0.0 
0.0 0.0 0.0 
0.0 0.0 0.0 
0.0 0.0 0.0 
0.0 0.0 0.0 
0.0 0.0 0.0 
0.0 0.0 0.0 
0.0 0.0 0.0 
0.0 0.0 0.0 
0.0 0.0 0.0 
0.0 0.0 0.0 
0.0 0.0 0.0 
0.0 0.0 0.0 
0.0 0.0 0.0 
0.0 0.0 0.0 
0.0 0.0 0.0 
0.0 0.0 0.0 
0.0 0.0 0.0 
0.0 0.0 0.0 
0.0 0.0 0.0 
0.0 0.0 0.0 
0.0 0.0 0.0 
0.0 0.0 0.0 
0.0 0.0 0.0 
0.0 0.0 0.0 
0.0 0.0 0.0 
0.0 0.0 0.0 
0.0 0.0 0.0 
0.0 0.0 0.0 
0.0 0.0 0.0 
0.0 0.0 0.0 
0.0 0.0 0.0 
0.0 0.0 0.0 
0.0 0.0 0.0 
0.0 0.0 0.0 
0.0 0.0 0.0 
0.0 0.0 0.0 
0.0 0.0 0.0 
0.0 0.0 0.0 
0.0 0.0 0.0 
0.0 0.0 0.0 
0.0 0.0 0.0 
0.0 0.0 0.0 
0.0 0.0 0.0 
0.0 0.0 0.0 
0.0 0.0 0.0 
0.0 0.0 0.0 
0.0 0.0 0.0 
0.0 0.0 0.0 
0.0 0.0 0.0 
0.0 0.0 0.0 
0.0 0.0 0.0 
0.0 0.0 0.0 
0.0 0.0 0.0 
0.0 0.0 0.0 
0.0 0.0 0.0 
0.0 0.0 0.0 
0.0 0.0 0.0 
0.0 0.0 0.0 
0.0 0.0 0.0 
0.0 0.0 0.0 
0.0 0.0 0.0 
0.0 0.0 0.0 
0.0 0.0 0.0 
0.0 0.0 0.0 
0.0 0.0 0.0 
0.0 0.0 0.0 
0.0 0.0 0.0 
0.0 0.0 0.0 
0.0 0.0 0.0 
0.0 0.0 0.0 
0.0 0.0 0.0 
0.0 0.0 0.0 
0.0 0.0 0.0 
0.0 0.0 0.0 
0.0 0.0 0.0 
0.0 0.0 0.0 
0.0 0.0 0.0 
0.0 0.0 0.0 
0.0 0.0 0.0 
0.0 0.0 0.0 
0.0 0.0 0.0 
0.0 0.0 0.0 
0.0 0.0 0.0 
0.0 0.0 0.0 
0.0 0.0 0.0 
0.0 0.0 0.0 
0.0 0.0 0.0 
0.0 0.0 0.0 
0.0 0.0 0.0 
0.0 0.0 0.0 
0.0 0.0 0.0 
0.0 0.0 0.0 
0.0 0.0 0.0 
0.0 0.0 0.0 
0.0 0.0 0.0 
0.0 0.0 0.0 
0.0 0.0 0.0 
0.0 0.0 0.0 
0.0 0.0 0.0 
0.0 0.0 0.0 
0.0 0.0 0.0 
0.0 0.0 0.0 
0.0 0.0 0.0 
0.0 0.0 0.0 
0.0 0.0 0.0 
0.0 0.0 0.0 
0.0 0.0 0.0 
0.0 0.0 0.0 
0.0 0.0 0.0 
0.0 0.0 0.0 
0.0 0.0 0.0 
0.0 0.0 0.0 
0.0 0.0 0.0 
0.0 0.0 0.0 
0.0 0.0 0.0 
0.0 0.0 0.0 
0.0 0.0 0.0 
0.0 0.0 0.0 
0.0 0.0 0.0 
0.0 0.0 0.0 
0.0 0.0 0.0 
0.0 0.0 0.0 
0.0 0.0 0.0 
0.0 0.0 0.0 
0.0 0.0 0.0 
0.0 0.0 0.0 
0.0 0.0 0.0 
0.0 0.0 0.0 
0.0 0.0 0.0 
0.0 0.0 0.0 
0.0 0.0 0.0 
0.0 0.0 0.0 
0.0 0.0 0.0 
0.0 0.0 0.0 
0.0 0.0 0.0 
0.0 0.0 0.0 
0.0 0.0 0.0 
0.0 0.0 0.0 

TENSORS element_materi_stress float
-3.867447923733e+01 1.503336808756e+00 0.0 
1.503336808756e+00 -8.227438911944e+01 0.0 
0.0 0.0 -3.588466050703e+01 
-4.022024142208e+01 4.269363298701e+00 0.0 
4.269363298701e+00 -7.996574872881e+01 0.0 
0.0 0.0 -3.565579704527e+01 
-1.428146836678e+02 4.869303656906e+00 0.0 
4.869303656906e+00 -3.313934479328e+02 0.0 
0.0 0.0 -1.418624394802e+02 
-1.388824522111e+02 1.160220985446e+00 0.0 
1.160220985446e+00 -3.235261779753e+02 0.0 
0.0 0.0 -1.383225890559e+02 
-8.298874615506e+01 -6.307626689003e-01 0.0 
-6.307626689003e-01 -1.872717281742e+02 0.0 
0.0 0.0 -8.067814229877e+01 
-1.433082524326e+01 3.574888854816e+00 0.0 
3.574888854816e+00 -4.108392052226e+01 0.0 
0.0 0.0 -1.622442372966e+01 
-8.302511524032e+01 -8.783171064299e-01 0.0 
-8.783171064299e-01 -1.875689867240e+02 0.0 
0.0 0.0 -8.077823058929e+01 
-3.830265943285e+01 3.699868151488e+00 0.0 
3.699868151488e+00 -7.867785499020e+01 0.0 
0.0 0.0 -3.469415432692e+01 
-8.323781155204e+01 1.389508484933e+00 0.0 
1.389508484933e+00 -1.880056944720e+02 0.0 
0.0 0.0 -8.097305180721e+01 
-1.383037608346e+02 -1.657030557595e-01 0.0 
-1.657030557595e-01 -3.219366170557e+02 0.0 
0.0 0.0 -1.376721133671e+02 
-1.018871764620e+02 -3.915454574715e-01 0.0 
-3.915454574715e-01 -2.506566196441e+02 0.0 
0.0 0.0 -1.053631388318e+02 
-3.151063162653e+01 2.789511303998e+00 0.0 
2.789511303998e+00 -6.288173208302e+01 0.0 
0.0 0.0 -2.791770911287e+01 
-1.527529037690e+02 -2.232870017204e-01 0.0 
-2.232870017204e-01 -3.617072120863e+02 0.0 
0.0 0.0 -1.539380347566e+02 
-9.088648063647e+01 8.815884043630e-02 0.0 
8.815884043630e-02 -2.041740012836e+02 0.0 
0.0 0.0 -8.811814457601e+01 
-1.568364105797e+02 1.659797744621e+00 0.0 
1.659797744621e+00 -3.696555466087e+02 0.0 
0.0 0.0 -1.575475871565e+02 
-1.418542890443e+02 -2.249279299801e-01 0.0 
-2.249279299801e-01 -3.315325691759e+02 0.0 
0.0 0.0 -1.416160574661e+02 
-8.146003738920e+01 3.732613149212e-01 0.0 
3.732613149212e-01 -1.830396757387e+02 0.0 
0.0 0.0 -7.894991393838e+01 
-1.601766514351e+01 2.872411753891e+00 0.0 
2.872411753891e+00 -4.203608544639e+01 0.0 
0.0 0.0 -1.701612517697e+01 
-3.017051947450e+01 2.471709462756e-01 0.0 
2.471709462756e-01 -7.663889106484e+01 0.0 
0.0 0.0 -3.164282316180e+01 
-3.117964807863e+01 -5.246134012497e-01 0.0 
-5.246134012497e-01 -7.943430022670e+01 0.0 
0.0 0.0 -3.278418449160e+01 
-1.388854459769e+02 1.706689295331e+00 0.0 
1.706689295331e+00 -3.226340369137e+02 0.0 
0.0 0.0 -1.380558448672e+02 
-4.531479256698e+01 1.386675649017e+00 0.0 
1.386675649017e+00 -9.462228020821e+01 0.0 
0.0 0.0 -4.158112183256e+01 
-5.087453510996e+01 2.794314370891e+00 0.0 
2.794314370891e+00 -1.067752730163e+02 0.0 
0.0 0.0 -4.689494243789e+01 
-1.428562688203e+02 6.352839282549e+00 0.0 
6.352839282549e+00 -3.396059053763e+02 0.0 
0.0 0.0 -1.443386522590e+02 
-9.870435034470e+01 5.120319732217e-01 0.0 
5.120319732217e-01 -2.217897469783e+02 0.0 
0.0 0.0 -9.574822919689e+01 
-1.074941808987e+02 8.758118894252e-01 0.0 
8.758118894252e-01 -2.636850272396e+02 0.0 
0.0 0.0 -1.109537624415e+02 
-7.550965041673e+01 7.978883416850e-01 0.0 
7.978883416850e-01 -1.665285197403e+02 0.0 
0.0 0.0 -7.221145104711e+01 
-1.470335139103e+02 7.583947817459e+00 0.0 
7.583947817459e+00 -3.427212369593e+02 0.0 
0.0 0.0 -1.465264252609e+02 
-9.933179032387e+01 2.579636784061e+00 0.0 
2.579636784061e+00 -2.223119052819e+02 0.0 
0.0 0.0 -9.609310868174e+01 
-1.464245937430e+02 5.062841386073e+00 0.0 
5.062841386073e+00 -3.483781903584e+02 0.0 
0.0 0.0 -1.480408352304e+02 
-2.342205674936e+01 -8.625496642632e-02 0.0 
-8.625496642632e-02 -5.829750112951e+01 0.0 
0.0 0.0 -2.411586736366e+01 
-1.197090555393e+01 -7.055295732460e-01 0.0 
-7.055295732460e-01 -2.584278961053e+01 0.0 
0.0 0.0 -1.094410854934e+01 
-1.432060134866e+02 4.530130275136e+00 0.0 
4.530130275136e+00 -3.320256683024e+02 0.0 
0.0 0.0 -1.421695045367e+02 
-1.296261747601e+02 9.446653919828e-01 0.0 
9.446653919828e-01 -3.123690970880e+02 0.0 
0.0 0.0 -1.321985815545e+02 
-1.513414810361e+02 4.560815065842e+00 0.0 
4.560815065842e+00 -3.582135598196e+02 0.0 
0.0 0.0 -1.524665122567e+02 
-1.598435836065e+02 1.059045429415e+00 0.0 
1.059045429415e+00 -3.773442147001e+02 0.0 
0.0 0.0 -1.607563394920e+02 
-1.602949828119e+02 4.014890555012e+00 0.0 
4.014890555012e+00 -3.772768137254e+02 0.0 
0.0 0.0 -1.608715389612e+02 
-1.478681760015e+02 6.603628351595e+00 0.0 
6.603628351595e+00 -3.484301305307e+02 0.0 
0.0 0.0 -1.484894919596e+02 
-7.497879325417e+01 1.330697881496e+00 0.0 
1.330697881496e+00 -1.687085243115e+02 0.0 
0.0 0.0 -7.270619526971e+01 
-7.507148811156e+01 -1.378300239185e+00 0.0 
-1.378300239185e+00 -1.693837142043e+02 0.0 
0.0 0.0 -7.293656069475e+01 
-5.944138990262e+01 2.415645331534e+00 0.0 
2.415645331534e+00 -1.262937944732e+02 0.0 
0.0 0.0 -5.532055531276e+01 
-1.534956775726e+02 4.467811926807e+00 0.0 
4.467811926807e+00 -3.618271396169e+02 0.0 
0.0 0.0 -1.541968451568e+02 
-2.549575554794e+01 3.012892019220e+00 0.0 
3.012892019220e+00 -5.140696603713e+01 0.0 
0.0 0.0 -2.267081647552e+01 
-7.611571599537e+01 5.054900038340e-01 0.0 
5.054900038340e-01 -1.672253665648e+02 0.0 
0.0 0.0 -7.260232476804e+01 
-1.343329691047e+02 5.588750017912e-01 0.0 
5.588750017912e-01 -3.123675721534e+02 0.0 
0.0 0.0 -1.336101623774e+02 
-2.721738288414e+01 6.606415076932e+00 0.0 
6.606415076932e+00 -5.167384688553e+01 0.0 
0.0 0.0 -2.326736893090e+01 
-1.719954861063e+01 -5.755456248023e-01 0.0 
-5.755456248023e-01 -4.343029965804e+01 0.0 
0.0 0.0 -1.778895448060e+01 
-1.350096679952e+02 -3.144897774991e-05 0.0 
-3.144897774991e-05 -3.140790966593e+02 0.0 
0.0 0.0 -1.343266293963e+02 
-1.247966078642e+01 -6.479053870096e-01 0.0 
-6.479053870096e-01 -2.580177457248e+01 0.0 
0.0 0.0 -1.147430403897e+01 
-8.769233480800e+01 1.434749093740e+00 0.0 
1.434749093740e+00 -1.956670185969e+02 0.0 
0.0 0.0 -8.460780602147e+01 
-5.523171417042e+01 2.569566541342e+00 0.0 
2.569566541342e+00 -1.167851811187e+02 0.0 
0.0 0.0 -5.120506858675e+01 
-3.839463807378e+01 4.289571980699e-02 0.0 
4.289571980699e-02 -9.629693496491e+01 0.0 
0.0 0.0 -4.000747191161e+01 
-3.007425229508e+01 1.037182217735e+00 0.0 
1.037182217735e+00 -8.030170057490e+01 0.0 
0.0 0.0 -3.271278586099e+01 
-5.399542508401e+01 8.363194365417e-01 0.0 
8.363194365417e-01 -1.145562498890e+02 0.0 
0.0 0.0 -5.016550249190e+01 
-1.424647337698e+02 3.569925496646e+00 0.0 
3.569925496646e+00 -3.309433426470e+02 0.0 
0.0 0.0 -1.416224229250e+02 
-5.030800867294e+01 3.207336866532e-01 0.0 
3.207336866532e-01 -1.270062176182e+02 0.0 
0.0 0.0 -5.279426788735e+01 
-3.922572299024e+01 -6.545675139731e-01 0.0 
-6.545675139731e-01 -9.940086866369e+01 0.0 
0.0 0.0 -4.118797749618e+01 
-1.294443539413e+02 -4.279907445718e-01 0.0 
-4.279907445718e-01 -3.123451870407e+02 0.0 
0.0 0.0 -1.321368622946e+02 
-2.355974555529e+01 -4.903242436518e-01 0.0 
-4.903242436518e-01 -5.880413279276e+01 0.0 
0.0 0.0 -2.430916350442e+01 
-1.421048090424e+02 1.468766996461e+00 0.0 
1.468766996461e+00 -3.316743719912e+02 0.0 
0.0 0.0 -1.417337543101e+02 
-1.387043049060e+01 -1.240696914556e-01 0.0 
-1.240696914556e-01 -2.250450538820e+01 0.0 
0.0 0.0 -1.051248076364e+01 
-1.396006518707e+02 6.363295039667e+00 0.0 
6.363295039667e+00 -3.270443827811e+02 0.0 
0.0 0.0 -1.395935103955e+02 
-5.632742791325e+01 4.083054218052e+00 0.0 
4.083054218052e+00 -1.215075351021e+02 0.0 
0.0 0.0 -5.295048890461e+01 
-2.717743943138e+01 1.870599732919e-01 0.0 
1.870599732919e-01 -7.275218668086e+01 0.0 
0.0 0.0 -2.957888783367e+01 
-1.525008928583e+02 1.990266409236e+00 0.0 
1.990266409236e+00 -3.611063302558e+02 0.0 
0.0 0.0 -1.536821669342e+02 
-4.936717936867e+01 1.092244630774e+00 0.0 
1.092244630774e+00 -1.040829948251e+02 0.0 
0.0 0.0 -4.563505225813e+01 
-1.146545056756e+01 -5.360828687919e-01 0.0 
-5.360828687919e-01 -2.116154081071e+01 0.0 
0.0 0.0 -1.009005136823e+01 
-1.439233880377e+02 5.432358765092e+00 0.0 
5.432358765092e+00 -3.324954714749e+02 0.0 
0.0 0.0 -1.425256578538e+02 
-2.536334669787e+01 -1.940295038378e-01 0.0 
-1.940295038378e-01 -6.344901763481e+01 0.0 
0.0 0.0 -2.624370929980e+01 
-1.448192406749e+02 6.274320911384e+00 0.0 
6.274320911384e+00 -3.368461241411e+02 0.0 
0.0 0.0 -1.440996094448e+02 
-1.121928706451e+02 1.192845541521e+00 0.0 
1.192845541521e+00 -2.741296857569e+02 0.0 
0.0 0.0 -1.154967669206e+02 
-1.476119133712e+02 2.302493185021e+00 0.0 
2.302493185021e+00 -3.457611311996e+02 0.0 
0.0 0.0 -1.476119133712e+02 
-1.407155233870e+02 6.904999516824e+00 0.0 
6.904999516824e+00 -3.275169380662e+02 0.0 
0.0 0.0 -1.400697384360e+02 
-1.181482592858e+01 -9.322249907193e-01 0.0 
-9.322249907193e-01 -2.973289222332e+01 0.0 
0.0 0.0 -1.206431544557e+01 
-5.218146458955e+01 -7.209419985868e-01 0.0 
-7.209419985868e-01 -1.323040660128e+02 0.0 
0.0 0.0 -5.494565918070e+01 
-1.402905339155e+02 2.402056853614e+00 0.0 
2.402056853614e+00 -3.257106101204e+02 0.0 
0.0 0.0 -1.394003432108e+02 
-1.431508180452e+02 3.854755145513e+00 0.0 
3.854755145513e+00 -3.316050234626e+02 0.0 
0.0 0.0 -1.420267524523e+02 
-1.860601928642e+01 9.408099176084e+00 0.0 
9.408099176084e+00 -3.598895846966e+01 0.0 
0.0 0.0 -1.597849332682e+01 
-2.337345285000e+01 -4.484113601763e-01 0.0 
-4.484113601763e-01 -5.894067245229e+01 0.0 
0.0 0.0 -2.429423759069e+01 
-1.748187835192e+01 5.589332413419e+00 0.0 
5.589332413419e+00 -3.573882752336e+01 0.0 
0.0 0.0 -1.556621176258e+01 
-2.450123188512e+01 -1.499004304001e+00 0.0 
-1.499004304001e+00 -6.279589812009e+01 0.0 
0.0 0.0 -2.578913900156e+01 
-8.159000591717e+01 2.217642928889e-01 0.0 
2.217642928889e-01 -1.827900875502e+02 0.0 
0.0 0.0 -7.891402804020e+01 
-4.673413214975e+01 3.122916601853e+00 0.0 
3.122916601853e+00 -9.759783017204e+01 0.0 
0.0 0.0 -4.289958869654e+01 
-4.017994501169e+01 1.798361282521e+00 0.0 
1.798361282521e+00 -8.301107917146e+01 0.0 
0.0 0.0 -3.655730725494e+01 
-8.756775318810e+01 1.351873129261e+00 0.0 
1.351873129261e+00 -1.982170563947e+02 0.0 
0.0 0.0 -8.533544287483e+01 
-8.735119709540e+01 -5.706479117865e-01 0.0 
-5.706479117865e-01 -1.980963195215e+02 0.0 
0.0 0.0 -8.523425498508e+01 
-1.159722079704e+02 1.088923060503e+00 0.0 
1.088923060503e+00 -2.826287024313e+02 0.0 
0.0 0.0 -1.191802731205e+02 
-1.256896235622e+02 -7.257617175889e-01 0.0 
-7.257617175889e-01 -3.040518362881e+02 0.0 
0.0 0.0 -1.285224379551e+02 
-1.227815278378e+02 5.108558900110e+00 0.0 
5.108558900110e+00 -2.782136398155e+02 0.0 
0.0 0.0 -1.198985502960e+02 
-8.305128196592e+01 1.514213572541e+00 0.0 
1.514213572541e+00 -1.866124617559e+02 0.0 
0.0 0.0 -8.049912311654e+01 
-1.172013432823e+01 -7.077190519099e-01 0.0 
-7.077190519099e-01 -2.573546363268e+01 0.0 
0.0 0.0 -1.119279460760e+01 
-8.341468302557e+01 8.959200909535e-01 0.0 
8.959200909535e-01 -1.846720557883e+02 0.0 
0.0 0.0 -8.002602164415e+01 
-1.152057211613e+02 6.443320950257e-01 0.0 
6.443320950257e-01 -2.660913400280e+02 0.0 
0.0 0.0 -1.139891183568e+02 
-1.140617266163e+02 -1.792036152441e-01 0.0 
-1.792036152441e-01 -2.625627960125e+02 0.0 
0.0 0.0 -1.125873567886e+02 
-1.485834936628e+02 2.587259962230e+00 0.0 
2.587259962230e+00 -3.464170854512e+02 0.0 
0.0 0.0 -1.481001737342e+02 
-1.521991306094e+02 8.284363774965e+00 0.0 
8.284363774965e+00 -3.568543523486e+02 0.0 
0.0 0.0 -1.523160448874e+02 
-8.174874622400e+01 8.671758961280e-01 0.0 
8.671758961280e-01 -1.824053935202e+02 0.0 
0.0 0.0 -7.884624192325e+01 
-1.521581412278e+02 4.494328897169e+00 0.0 
4.494328897169e+00 -3.618270723113e+02 0.0 
0.0 0.0 -1.537955640617e+02 
-9.532819621165e+01 6.768011509863e-01 0.0 
6.768011509863e-01 -2.176538688675e+02 0.0 
0.0 0.0 -9.349461952374e+01 
-5.360675729676e+01 5.576083935152e+00 0.0 
5.576083935152e+00 -1.128551878158e+02 0.0 
0.0 0.0 -4.953858353377e+01 
-7.932538594340e+01 9.422130275052e-01 0.0 
9.422130275052e-01 -1.780484474986e+02 0.0 
0.0 0.0 -7.681215003260e+01 
-1.563894354362e+02 2.643127087428e-01 0.0 
2.643127087428e-01 -3.693396496434e+02 0.0 
0.0 0.0 -1.573187255239e+02 
-1.193359769691e+02 7.732862728122e+00 0.0 
7.732862728122e+00 -2.800023291697e+02 0.0 
0.0 0.0 -1.194014918417e+02 
-1.402601187901e+02 8.231022563990e+00 0.0 
8.231022563990e+00 -3.277491120012e+02 0.0 
0.0 0.0 -1.400027692374e+02 
-4.752401982444e+01 8.491029293456e+00 0.0 
8.491029293456e+00 -1.042805967263e+02 0.0 
0.0 0.0 -4.514138496522e+01 
-1.916981376348e+01 -8.018920378942e-01 0.0 
-8.018920378942e-01 -4.263236546297e+01 0.0 
0.0 0.0 -1.814065376794e+01 
-1.432310010041e+02 1.336867729276e+00 0.0 
1.336867729276e+00 -3.415532342836e+02 0.0 
0.0 0.0 -1.450352705863e+02 
-1.217194210450e+02 2.542340817734e-02 0.0 
2.542340817734e-02 -2.814324038565e+02 0.0 
0.0 0.0 -1.205455474704e+02 
-1.441846332384e+01 -4.830276285434e-01 0.0 
-4.830276285434e-01 -2.556848752481e+01 0.0 
0.0 0.0 -1.159608525460e+01 
-1.559126504341e+02 2.315086746048e+00 0.0 
2.315086746048e+00 -3.667390632718e+02 0.0 
0.0 0.0 -1.563955141118e+02 
-1.173910711177e+02 3.331928210940e+00 0.0 
3.331928210940e+00 -2.663727923698e+02 0.0 
0.0 0.0 -1.147291590463e+02 
-8.830842969052e+00 4.398730865165e-01 0.0 
4.398730865165e-01 -2.203158912931e+01 0.0 
0.0 0.0 -8.858729629510e+00 
-6.694970438907e+01 6.235607913362e+00 0.0 
6.235607913362e+00 -1.535169022771e+02 0.0 
0.0 0.0 -6.573998199986e+01 
-7.584096842791e+01 1.933298054155e+00 0.0 
1.933298054155e+00 -1.652227392711e+02 0.0 
0.0 0.0 -7.191911230969e+01 
-6.350827147739e+01 1.517186074024e-01 0.0 
1.517186074024e-01 -1.605877670798e+02 0.0 
0.0 0.0 -6.682881156714e+01 
-4.794394971917e+01 3.836121415046e+00 0.0 
3.836121415046e+00 -1.008372397079e+02 0.0 
0.0 0.0 -4.423435682812e+01 
-5.687909470411e+01 6.879652373987e+00 0.0 
6.879652373987e+00 -1.220428693003e+02 0.0 
0.0 0.0 -5.327658920131e+01 
-1.544242154604e+02 3.025879602249e+00 0.0 
3.025879602249e+00 -3.652362269615e+02 0.0 
0.0 0.0 -1.554981327266e+02 
-9.273213909267e+01 -6.621864229216e-01 0.0 
-6.621864229216e-01 -2.110976182533e+02 0.0 
0.0 0.0 -9.074892720379e+01 
-5.194352361622e+01 4.835646814324e+00 0.0 
4.835646814324e+00 -1.123181266527e+02 0.0 
0.0 0.0 -4.887849508068e+01 
-2.443161750781e+01 -7.851828772427e-02 0.0 
-7.851828772427e-02 -6.069943147018e+01 0.0 
0.0 0.0 -2.513931469340e+01 
-8.310527686773e+01 5.648955485186e-01 0.0 
5.648955485186e-01 -1.836886271558e+02 0.0 
0.0 0.0 -7.963817120705e+01 
-1.225880026190e+02 6.196166978550e-01 0.0 
6.196166978550e-01 -2.831336035816e+02 0.0 
0.0 0.0 -1.213164818602e+02 
-5.220101164546e+01 7.775591141664e+00 0.0 
7.775591141664e+00 -1.126301687692e+02 0.0 
0.0 0.0 -4.904935412440e+01 
-1.338775922508e+01 7.520939133734e+00 0.0 
7.520939133734e+00 -3.005872615201e+01 0.0 
0.0 0.0 -1.263394561313e+01 
-6.768217150157e+01 2.134079958776e+00 0.0 
2.134079958776e+00 -1.457964954163e+02 0.0 
0.0 0.0 -6.364360007537e+01 
-6.308317758879e+01 -3.818308790572e-01 0.0 
-3.818308790572e-01 -1.591681258215e+02 0.0 
0.0 0.0 -6.627539102309e+01 
-6.256014391551e+01 4.979965894996e-01 0.0 
4.979965894996e-01 -1.347923975058e+02 0.0 
0.0 0.0 -5.880576242641e+01 
-1.430276095466e+02 1.249150463884e+00 0.0 
1.249150463884e+00 -3.335529705755e+02 0.0 
0.0 0.0 -1.425741740366e+02 
-1.471953235636e+01 7.007980884902e+00 0.0 
7.007980884902e+00 -4.193700670115e+01 0.0 
0.0 0.0 -1.659696171725e+01 
-1.071095578610e+02 -2.937427967501e-01 0.0 
-2.937427967501e-01 -2.627032590363e+02 0.0 
0.0 0.0 -1.105438450692e+02 
-1.386818120866e+02 -5.068347283376e-01 0.0 
-5.068347283376e-01 -3.235110918744e+02 0.0 
0.0 0.0 -1.382578711883e+02 
-6.973256008041e+01 2.748560957860e+00 0.0 
2.748560957860e+00 -1.511100281555e+02 0.0 
0.0 0.0 -6.585277647078e+01 
-6.367848899425e+01 2.273050944598e+00 0.0 
2.273050944598e+00 -1.363241253320e+02 0.0 
0.0 0.0 -5.960078429787e+01 
-1.507350979659e+02 2.873153884371e+00 0.0 
2.873153884371e+00 -3.580021847306e+02 0.0 
0.0 0.0 -1.522211848090e+02 
-1.531104170699e+02 1.610689683589e+00 0.0 
1.610689683589e+00 -3.623597062848e+02 0.0 
0.0 0.0 -1.542410370064e+02 
-1.158747325737e+02 -2.641708365458e-01 0.0 
-2.641708365458e-01 -2.826392915975e+02 0.0 
0.0 0.0 -1.191542072514e+02 
-7.473800676037e+01 4.459452624548e+00 0.0 
4.459452624548e+00 -1.616828004740e+02 0.0 
0.0 0.0 -7.052624217031e+01 
-1.520344230400e+02 5.471533488081e+00 0.0 
5.471533488081e+00 -3.606411711902e+02 0.0 
0.0 0.0 -1.534026782691e+02 
-6.595651189419e+01 1.952608773712e+00 0.0 
1.952608773712e+00 -1.420885552741e+02 0.0 
0.0 0.0 -6.201352015048e+01 
-1.414223806190e+02 1.325185965476e+00 0.0 
1.325185965476e+00 -3.291030756902e+02 0.0 
0.0 0.0 -1.407576368928e+02 
-1.453764620813e+02 6.096950196308e+00 0.0 
6.096950196308e+00 -3.372435319256e+02 0.0 
0.0 0.0 -1.443859982021e+02 
-9.097375786704e+01 2.014772821554e+00 0.0 
2.014772821554e+00 -2.036609947318e+02 0.0 
0.0 0.0 -8.799042577966e+01 
-1.055941661692e+02 -4.121454865337e-01 0.0 
-4.121454865337e-01 -2.418695968093e+02 0.0 
0.0 0.0 -1.038391288935e+02 
-6.666656597076e+01 4.114965384235e+00 0.0 
4.114965384235e+00 -1.425224532583e+02 0.0 
0.0 0.0 -6.235670576872e+01 
-5.826500880166e+01 5.429466201528e-01 0.0 
5.429466201528e-01 -1.249948716605e+02 0.0 
0.0 0.0 -5.457796413864e+01 
-7.770092632501e+01 3.119624068567e+00 0.0 
3.119624068567e+00 -1.702100720799e+02 0.0 
0.0 0.0 -7.397329952147e+01 
-5.564290934475e+01 8.254796872470e+00 0.0 
8.254796872470e+00 -1.243791219916e+02 0.0 
0.0 0.0 -5.360660940090e+01 
-8.014877004041e+01 9.397969469220e-01 0.0 
9.397969469220e-01 -1.808374105406e+02 0.0 
0.0 0.0 -7.789585417431e+01 
-6.651856702090e+01 8.405872386498e+00 0.0 
8.405872386498e+00 -1.537141536112e+02 0.0 
0.0 0.0 -6.566981618964e+01 
-1.125839658989e+01 -3.783948943656e-01 0.0 
-3.783948943656e-01 -2.512803332548e+01 0.0 
0.0 0.0 -1.093410656671e+01 
-8.602888377372e+01 1.128543068984e-01 0.0 
1.128543068984e-01 -1.957771125134e+02 0.0 
0.0 0.0 -8.414179888613e+01 
-2.302087204326e+01 -1.632456652629e-01 0.0 
-1.632456652629e-01 -5.992107349204e+01 0.0 
0.0 0.0 -2.448258366059e+01 
-7.176512549615e+01 2.043405513597e+00 0.0 
2.043405513597e+00 -1.556228419957e+02 0.0 
0.0 0.0 -6.781639024756e+01 
-1.532869694717e+02 5.318511511574e+00 0.0 
5.318511511574e+00 -3.610963772754e+02 0.0 
0.0 0.0 -1.539150040241e+02 
-4.750435389329e+01 5.757049689037e+00 0.0 
5.757049689037e+00 -1.039834226937e+02 0.0 
0.0 0.0 -4.504633297609e+01 
-1.205629108004e+02 -5.463878311147e-01 0.0 
-5.463878311147e-01 -2.928980910604e+02 0.0 
0.0 0.0 -1.236383005582e+02 
-3.142102591313e+01 5.571409712445e+00 0.0 
5.571409712445e+00 -6.087224473372e+01 0.0 
0.0 0.0 -2.728798119405e+01 
-1.190925524700e+02 5.839152030661e+00 0.0 
5.839152030661e+00 -2.796536101517e+02 0.0 
0.0 0.0 -1.192238487865e+02 
-8.030598458516e+01 4.694622328415e-02 0.0 
4.694622328415e-02 -1.824077574541e+02 0.0 
0.0 0.0 -7.841412261176e+01 
-6.217245130868e+01 6.703835256909e+00 0.0 
6.703835256909e+00 -1.451901720625e+02 0.0 
0.0 0.0 -6.180878701135e+01 
-1.338839520491e+02 1.350210529202e+00 0.0 
1.350210529202e+00 -3.217726575756e+02 0.0 
0.0 0.0 -1.362969828874e+02 
-2.413903379124e+01 -1.439621855759e+00 0.0 
-1.439621855759e+00 -6.020737097652e+01 0.0 
0.0 0.0 -2.490392143033e+01 
-1.430704156301e+02 -2.374200079095e-01 0.0 
-2.374200079095e-01 -3.412468341927e+02 0.0 
0.0 0.0 -1.448951749468e+02 
-8.250543091041e+01 1.229784340487e+00 0.0 
1.229784340487e+00 -1.815440416858e+02 0.0 
0.0 0.0 -7.881484177886e+01 
-1.540081018354e+02 1.788342498197e+00 0.0 
1.788342498197e+00 -3.655252043135e+02 0.0 
0.0 0.0 -1.554599918447e+02 
-7.983772091656e+01 -6.812069769625e-02 0.0 
-6.812069769625e-02 -1.813295278325e+02 0.0 
0.0 0.0 -7.795017462472e+01 
-5.089435543621e+01 6.679529713661e+00 0.0 
6.679529713661e+00 -1.147213252579e+02 0.0 
0.0 0.0 -4.928470420824e+01 
-7.095495778823e+01 4.152401397048e-01 0.0 
4.152401397048e-01 -1.543867218518e+02 0.0 
0.0 0.0 -6.720250389200e+01 
-1.018737057027e+02 6.305836953562e-01 0.0 
6.305836953562e-01 -2.516324135203e+02 0.0 
0.0 0.0 -1.056518357669e+02 
-2.986373951249e+01 2.217418061955e+00 0.0 
2.217418061955e+00 -6.158036646401e+01 0.0 
0.0 0.0 -2.703323179295e+01 
-6.162429179603e+01 8.612692499647e+00 0.0 
8.612692499647e+00 -1.453276875759e+02 0.0 
0.0 0.0 -6.168559381158e+01 
-1.098942941509e+02 1.282825096393e+00 0.0 
1.282825096393e+00 -2.524718762731e+02 0.0 
0.0 0.0 -1.083098511272e+02 
-7.979905418577e+01 -5.432739709542e-01 0.0 
-5.432739709542e-01 -1.811468718816e+02 0.0 
0.0 0.0 -7.788377782020e+01 
-5.880532453828e+01 6.521230711109e+00 0.0 
6.521230711109e+00 -1.338109589193e+02 0.0 
0.0 0.0 -5.738488503728e+01 
-6.654799084334e+01 4.731879822795e-01 0.0 
4.731879822795e-01 -1.443980932769e+02 0.0 
0.0 0.0 -6.288382523607e+01 
-1.287689956226e+02 4.658626901836e+00 0.0 
4.658626901836e+00 -2.953894088884e+02 0.0 
0.0 0.0 -1.268475213533e+02 
-7.072645713046e+01 2.182059513663e-01 0.0 
2.182059513663e-01 -1.774428592515e+02 0.0 
0.0 0.0 -7.405079491458e+01 
-1.472524429730e+02 7.132792218323e+00 0.0 
7.132792218323e+00 -3.437419349773e+02 0.0 
0.0 0.0 -1.468983133851e+02 
-1.458620216151e+02 6.878273728708e+00 0.0 
6.878273728708e+00 -3.380751127477e+02 0.0 
0.0 0.0 -1.447811403088e+02 
-4.558679574322e+01 5.130611346228e+00 0.0 
5.130611346228e+00 -9.391824971708e+01 0.0 
0.0 0.0 -4.145151363809e+01 
-7.122165371219e+01 -2.997717819115e-01 0.0 
-2.997717819115e-01 -1.785851980449e+02 0.0 
0.0 0.0 -7.454205552713e+01 
-1.345178116110e+02 6.815554157388e+00 0.0 
6.815554157388e+00 -3.209196504245e+02 0.0 
0.0 0.0 -1.362312386106e+02 
-6.297688430450e+01 3.227461854602e+00 0.0 
3.227461854602e+00 -1.340409655427e+02 0.0 
0.0 0.0 -5.870535495417e+01 
-3.914757669736e+01 3.111272818607e+00 0.0 
3.111272818607e+00 -8.073743439398e+01 0.0 
0.0 0.0 -3.556550332740e+01 
-7.874441248821e+01 7.513501484928e-01 0.0 
7.513501484928e-01 -1.730323832555e+02 0.0 
0.0 0.0 -7.513303872310e+01 
-6.361412970346e+01 8.086933686915e+00 0.0 
8.086933686915e+00 -1.437562837458e+02 0.0 
0.0 0.0 -6.181112403477e+01 
-1.404912141019e+02 4.290930905407e-01 0.0 
4.290930905407e-01 -3.281358654759e+02 0.0 
0.0 0.0 -1.401881238733e+02 
-1.179364110463e+02 2.711937153477e+00 0.0 
2.711937153477e+00 -2.677493543086e+02 0.0 
0.0 0.0 -1.153057296065e+02 
-1.386023589791e+02 -5.768199985927e-01 0.0 
-5.768199985927e-01 -3.318723189995e+02 0.0 
0.0 0.0 -1.407424033936e+02 
-2.311001833750e+01 8.078422256875e+00 0.0 
8.078422256875e+00 -4.340818949746e+01 0.0 
0.0 0.0 -1.955546235049e+01 
-5.689257717987e+01 8.532785337824e+00 0.0 
8.532785337824e+00 -1.376368973118e+02 0.0 
0.0 0.0 -5.795884234750e+01 
-1.217126354178e+02 3.210508835168e+00 0.0 
3.210508835168e+00 -2.770699609406e+02 0.0 
0.0 0.0 -1.192347789075e+02 
-9.828423897631e+00 1.686951220119e+00 0.0 
1.686951220119e+00 -5.057383434272e+00 0.0 
0.0 0.0 -4.065742199571e+00 
-6.220647404480e+01 1.313464235595e+00 0.0 
1.313464235595e+00 -1.336586817511e+02 0.0 
0.0 0.0 -5.835954673877e+01 
-1.255296913580e+02 5.984229068117e+00 0.0 
5.984229068117e+00 -3.026469592694e+02 0.0 
0.0 0.0 -1.280529951882e+02 
-1.700029733602e+01 -1.322587792692e-01 0.0 
-1.322587792692e-01 -4.240987106173e+01 0.0 
0.0 0.0 -1.742305051933e+01 
-1.413705736987e+02 3.123517847568e+00 0.0 
3.123517847568e+00 -3.270568742702e+02 0.0 
0.0 0.0 -1.401282343906e+02 
-1.067737010896e+02 1.378691676307e+00 0.0 
1.378691676307e+00 -2.407810680317e+02 0.0 
0.0 0.0 -1.038664307364e+02 
-6.480380335718e+01 1.091237676743e-01 0.0 
1.091237676743e-01 -1.670192105641e+02 0.0 
0.0 0.0 -6.914690417640e+01 
-1.249679040188e+02 4.289481426705e+00 0.0 
4.289481426705e+00 -3.022420229013e+02 0.0 
0.0 0.0 -1.277629780760e+02 
-8.979407747554e+01 1.371850304270e+00 0.0 
1.371850304270e+00 -1.994774655684e+02 0.0 
0.0 0.0 -8.638146291318e+01 
-9.633549578628e+01 1.911379116807e+00 0.0 
1.911379116807e+00 -2.150389339641e+02 0.0 
0.0 0.0 -9.301232892511e+01 
-1.469563003917e+02 6.073557298812e+00 0.0 
6.073557298812e+00 -3.482185503484e+02 0.0 
0.0 0.0 -1.481524552220e+02 
-4.889945388893e+01 -1.018797764585e+00 0.0 
-1.018797764585e+00 -1.262216588365e+02 0.0 
0.0 0.0 -5.213633381762e+01 
-8.140262197201e+01 3.815221377163e+00 0.0 
3.815221377163e+00 -1.797919096542e+02 0.0 
0.0 0.0 -7.795835948787e+01 
-8.635012998820e+01 1.777970185155e+00 0.0 
1.777970185155e+00 -1.903713677751e+02 0.0 
0.0 0.0 -8.261644932900e+01 
-1.117477320946e+02 3.082429903922e+00 0.0 
3.082429903922e+00 -2.519789364361e+02 0.0 
0.0 0.0 -1.087180005592e+02 
-8.741282771954e+01 2.933377465856e+00 0.0 
2.933377465856e+00 -1.921689478140e+02 0.0 
0.0 0.0 -8.347453266005e+01 
-7.947331350338e+01 2.455214898983e+00 0.0 
2.455214898983e+00 -1.733309431067e+02 0.0 
0.0 0.0 -7.544127698302e+01 
-1.061291645093e+02 7.496928868836e+00 0.0 
7.496928868836e+00 -2.513138359951e+02 0.0 
0.0 0.0 -1.068329001513e+02 
-1.255219643075e+02 6.098099787482e+00 0.0 
6.098099787482e+00 -2.857904968995e+02 0.0 
0.0 0.0 -1.229937383621e+02 
-1.286829246626e+01 1.720030980770e+00 0.0 
1.720030980770e+00 -2.225950225538e+01 0.0 
0.0 0.0 -1.013833841649e+01 
-4.520630072576e+01 3.065802004906e+00 0.0 
3.065802004906e+00 -9.411802074906e+01 0.0 
0.0 0.0 -4.139729644245e+01 
-5.263241407159e+01 3.196088964108e+00 0.0 
3.196088964108e+00 -1.118872856088e+02 0.0 
0.0 0.0 -4.895590990411e+01 
-7.833331028558e+01 5.220947413792e+00 0.0 
5.220947413792e+00 -1.708877921056e+02 0.0 
0.0 0.0 -7.436633071736e+01 
-1.231639141129e+02 4.487731829741e+00 0.0 
4.487731829741e+00 -2.794165668977e+02 0.0 
0.0 0.0 -1.203741443032e+02 
-2.071154798522e+01 4.448184271516e+00 0.0 
4.448184271516e+00 -6.098735449959e+01 0.0 
0.0 0.0 -2.410967074545e+01 
-1.208031372785e+02 5.429778482045e+00 0.0 
5.429778482045e+00 -2.929850921956e+02 0.0 
0.0 0.0 -1.237364688422e+02 
-7.958354671124e+01 1.026518505951e+00 0.0 
1.026518505951e+00 -1.798569565643e+02 0.0 
0.0 0.0 -7.743215098267e+01 
-5.753669665013e+01 6.991892813668e+00 0.0 
6.991892813668e+00 -1.375997063236e+02 0.0 
0.0 0.0 -5.814092089213e+01 
-1.161594801407e+02 4.866248039538e+00 0.0 
4.866248039538e+00 -2.833484011678e+02 0.0 
0.0 0.0 -1.194523643925e+02 
-1.220194142412e+01 1.947956576868e-01 0.0 
1.947956576868e-01 -2.870255600516e+01 0.0 
0.0 0.0 -1.187134922878e+01 
-1.146677554786e+02 1.726083772477e+00 0.0 
1.726083772477e+00 -2.602211036154e+02 0.0 
0.0 0.0 -1.120666577282e+02 
-1.087637080957e+01 -6.024817041572e-01 0.0 
-6.024817041572e-01 -2.397709561738e+01 0.0 
0.0 0.0 -1.005603992809e+01 
-1.700544952312e+01 -4.560966624250e-01 0.0 
-4.560966624250e-01 -4.292145978809e+01 0.0 
0.0 0.0 -1.757807279336e+01 
-2.141232717183e+01 4.084586566089e+00 0.0 
4.084586566089e+00 -4.297022739492e+01 0.0 
0.0 0.0 -1.891476637003e+01 
-4.139147317826e+01 -1.142934319824e+00 0.0 
-1.142934319824e+00 -1.069628659879e+02 0.0 
0.0 0.0 -4.410630174985e+01 
-1.195887036914e+02 3.400575073042e+00 0.0 
3.400575073042e+00 -2.713981666281e+02 0.0 
0.0 0.0 -1.168960610958e+02 
-3.933169275613e+01 2.735237226099e-02 0.0 
2.735237226099e-02 -1.003839133960e+02 0.0 
0.0 0.0 -4.151468184562e+01 
-3.043886325057e+01 7.677698018681e+00 0.0 
7.677698018681e+00 -6.959010957451e+01 0.0 
0.0 0.0 -2.960869184753e+01 
-3.026082570083e+01 2.588178482010e-01 0.0 
2.588178482010e-01 -7.836903577554e+01 0.0 
0.0 0.0 -3.218895844291e+01 
-2.696716868555e+01 -1.462331011417e+00 0.0 
-1.462331011417e+00 -6.832573116923e+01 0.0 
0.0 0.0 -2.818786995643e+01 
-1.294549146313e+02 4.861342191740e+00 0.0 
4.861342191740e+00 -3.111910791065e+02 0.0 
0.0 0.0 -1.317937981213e+02 
-8.328822883046e+01 3.091567361769e+00 0.0 
3.091567361769e+00 -1.819825852802e+02 0.0 
0.0 0.0 -7.918124423319e+01 
-1.523035493796e+02 3.867131905641e-01 0.0 
3.867131905641e-01 -3.611481735702e+02 0.0 
0.0 0.0 -1.536355168849e+02 
-8.049836280597e+00 6.863583612576e-01 0.0 
6.863583612576e-01 -8.547472003966e+00 0.0 
0.0 0.0 -5.520892010222e+00 
-3.828295873558e+01 7.520255430654e+00 0.0 
7.520255430654e+00 -8.826716922044e+01 0.0 
0.0 0.0 -3.756503838681e+01 
-6.574270535203e+01 6.651376483783e+00 0.0 
6.651376483783e+00 -1.567199682577e+02 0.0 
0.0 0.0 -6.633880208292e+01 
-5.762019726596e+01 1.417455094393e+00 0.0 
1.417455094393e+00 -1.229221851226e+02 0.0 
0.0 0.0 -5.376271471658e+01 
-1.202695495394e+02 3.847594496477e+00 0.0 
3.847594496477e+00 -2.926017874292e+02 0.0 
0.0 0.0 -1.234614010906e+02 
-1.548788243590e+02 1.339831456396e+00 0.0 
1.339831456396e+00 -3.671234864717e+02 0.0 
0.0 0.0 -1.562006932492e+02 
-1.152712261877e+02 4.088672383877e+00 0.0 
4.088672383877e+00 -2.596723609180e+02 0.0 
0.0 0.0 -1.120830761317e+02 
-4.425689623676e+01 8.279756549145e+00 0.0 
8.279756549145e+00 -1.118334295445e+02 0.0 
0.0 0.0 -4.642709773437e+01 
-1.298154454084e+02 6.307463005958e+00 0.0 
6.307463005958e+00 -3.113598028271e+02 0.0 
0.0 0.0 -1.319525744707e+02 
-1.112634616165e+02 -7.932796394300e-01 0.0 
-7.932796394300e-01 -2.723288706317e+02 0.0 
0.0 0.0 -1.146776996745e+02 
-8.262898128483e+01 4.816096323119e+00 0.0 
4.816096323119e+00 -1.806690292626e+02 0.0 
0.0 0.0 -7.858940316424e+01 
-1.104527633784e+02 1.745539031412e+00 0.0 
1.745539031412e+00 -2.494858351107e+02 0.0 
0.0 0.0 -1.075815795467e+02 
-1.433321147594e+02 8.002449689454e+00 0.0 
8.002449689454e+00 -3.342505350595e+02 0.0 
0.0 0.0 -1.428747949457e+02 
-6.520223472063e+01 8.315040415867e+00 0.0 
8.315040415867e+00 -1.568408321872e+02 0.0 
0.0 0.0 -6.621292007236e+01 
-3.440312064566e+01 9.331613829090e+00 0.0 
9.331613829090e+00 -7.618922460527e+01 0.0 
0.0 0.0 -3.277770357528e+01 
-9.532115186697e+01 3.361316722472e+00 0.0 
3.361316722472e+00 -2.109602584574e+02 0.0 
0.0 0.0 -9.148442309731e+01 
-1.485292891831e+02 1.827544106238e+00 0.0 
1.827544106238e+00 -3.466644191560e+02 0.0 
0.0 0.0 -1.481581125017e+02 
-8.185747280018e+01 5.929189563416e+00 0.0 
5.929189563416e+00 -1.803665941565e+02 0.0 
0.0 0.0 -7.826722008700e+01 
-8.500728373211e+01 7.500274568995e+00 0.0 
7.500274568995e+00 -2.049773770293e+02 0.0 
0.0 0.0 -8.659539822841e+01 
-8.765957034703e+01 3.487765551776e-01 0.0 
3.487765551776e-01 -1.995382725753e+02 0.0 
0.0 0.0 -8.575935287669e+01 
-2.368208448572e+01 -5.224528178033e-01 0.0 
-5.224528178033e-01 -5.738361218872e+01 0.0 
0.0 0.0 -2.391970900233e+01 
-8.641001877414e+01 1.125058145652e+00 0.0 
1.125058145652e+00 -1.913354578259e+02 0.0 
0.0 0.0 -8.292364298002e+01 
-4.478050456727e+01 7.184571054912e+00 0.0 
7.184571054912e+00 -1.118188187607e+02 0.0 
0.0 0.0 -4.657979699839e+01 
-2.800084556229e+01 5.200959587846e+00 0.0 
5.200959587846e+00 -7.932699893457e+01 0.0 
0.0 0.0 -3.179835334906e+01 
-2.350504945171e+01 4.941019003635e-01 0.0 
4.941019003635e-01 -6.191704021081e+01 0.0 
0.0 0.0 -2.522662689876e+01 
-1.187385718316e+02 1.713022811653e+00 0.0 
1.713022811653e+00 -2.707256628001e+02 0.0 
0.0 0.0 -1.164392703895e+02 
-9.126319578804e+01 3.462006796482e+00 0.0 
3.462006796482e+00 -2.010171544692e+02 0.0 
0.0 0.0 -8.728410507717e+01 
-5.595941319571e+01 5.920972418092e+00 0.0 
5.920972418092e+00 -1.239755425757e+02 0.0 
0.0 0.0 -5.358048673142e+01 
-1.235999180843e+02 3.347555198921e+00 0.0 
3.347555198921e+00 -2.818432727512e+02 0.0 
0.0 0.0 -1.212329572507e+02 
-1.190289418519e+02 4.584884283127e+00 0.0 
4.584884283127e+00 -2.687552864955e+02 0.0 
0.0 0.0 -1.159352685042e+02 
-8.680887599839e+01 4.486692729117e+00 0.0 
4.486692729117e+00 -1.903793410070e+02 0.0 
0.0 0.0 -8.275646510163e+01 
-1.557776106009e+02 2.479967430312e+00 0.0 
2.479967430312e+00 -3.666848682106e+02 0.0 
0.0 0.0 -1.563387436434e+02 
-8.891011768755e+01 5.756392103330e+00 0.0 
5.756392103330e+00 -2.152066214440e+02 0.0 
0.0 0.0 -9.083502173946e+01 
-9.095406384216e+01 4.236634700925e+00 0.0 
4.236634700925e+00 -2.001205366421e+02 0.0 
0.0 0.0 -8.692238014529e+01 
-7.163577863857e+01 7.895215118617e+00 0.0 
7.895215118617e+00 -1.631351157899e+02 0.0 
0.0 0.0 -7.003126832855e+01 
-9.327480909878e+01 7.420364200230e+00 0.0 
7.420364200230e+00 -2.238143083705e+02 0.0 
0.0 0.0 -9.472673524078e+01 
-3.555806893030e+01 5.503844344143e+00 0.0 
5.503844344143e+00 -9.696944632606e+01 0.0 
0.0 0.0 -3.935825457691e+01 
-8.218030779899e+01 5.867305695342e-01 0.0 
5.867305695342e-01 -1.830530718122e+02 0.0 
0.0 0.0 -7.917001388336e+01 
-6.863162065177e+01 7.819522968854e+00 0.0 
7.819522968854e+00 -1.675615674695e+02 0.0 
0.0 0.0 -7.045795643638e+01 
-4.770139310143e+01 3.643900516121e+00 0.0 
3.643900516121e+00 -1.261783779845e+02 0.0 
0.0 0.0 -5.176393132579e+01 
-1.142595253000e+02 2.242030478956e+00 0.0 
2.242030478956e+00 -2.587444697050e+02 0.0 
0.0 0.0 -1.115011985015e+02 
-1.182777222031e+01 2.377159323773e-01 0.0 
2.377159323773e-01 -6.765913006624e+00 0.0 
0.0 0.0 -5.178105568081e+00 
-9.148159430201e+01 2.913934310680e+00 0.0 
2.913934310680e+00 -2.021385362236e+02 0.0 
0.0 0.0 -8.768603915770e+01 
-4.812936645724e+01 6.501951827764e+00 0.0 
6.501951827764e+00 -1.227227793560e+02 0.0 
0.0 0.0 -5.085564374397e+01 
-3.747815215321e+01 9.479309129733e+00 0.0 
9.479309129733e+00 -8.831508221575e+01 0.0 
0.0 0.0 -3.733797031069e+01 
-3.620367870668e+01 5.961876801961e+00 0.0 
5.961876801961e+00 -9.735371191114e+01 0.0 
0.0 0.0 -3.966721718535e+01 
-9.825354769826e+01 2.045928388157e+00 0.0 
2.045928388157e+00 -2.191704678479e+02 0.0 
0.0 0.0 -9.482720466384e+01 
-1.783411953857e+01 -5.036282798124e-01 0.0 
-5.036282798124e-01 -4.134717501136e+01 0.0 
0.0 0.0 -1.735438836498e+01 
-5.720638975884e+01 2.690547857537e+00 0.0 
2.690547857537e+00 -1.219926842176e+02 0.0 
0.0 0.0 -5.335972219294e+01 
-9.718536000386e+01 5.687631333561e+00 0.0 
5.687631333561e+00 -2.340580098543e+02 0.0 
0.0 0.0 -9.897301095745e+01 
-9.031050768111e+01 1.634450399891e+00 0.0 
1.634450399891e+00 -2.001611805600e+02 0.0 
0.0 0.0 -8.674150647232e+01 
-8.954380467154e+01 1.216572068594e+00 0.0 
1.216572068594e+00 -2.001585872461e+02 0.0 
0.0 0.0 -8.651071757530e+01 
-1.794650289834e+01 2.826080718695e+00 0.0 
2.826080718695e+00 -5.317110917531e+01 0.0 
0.0 0.0 -2.093528362210e+01 
-4.667314286434e+01 2.948875986572e+00 0.0 
2.948875986572e+00 -1.255893112669e+02 0.0 
0.0 0.0 -5.127873623938e+01 
-4.400604091215e+01 2.631513907297e+00 0.0 
2.631513907297e+00 -1.168392639922e+02 0.0 
0.0 0.0 -4.785359147132e+01 
-4.979885746880e+01 4.645243122017e+00 0.0 
4.645243122017e+00 -1.036558856052e+02 0.0 
0.0 0.0 -4.563642292221e+01 
-1.113930113366e+02 3.646384406807e+00 0.0 
3.646384406807e+00 -2.503928446716e+02 0.0 
0.0 0.0 -1.081357568024e+02 
-5.803659640311e+01 5.085296362612e+00 0.0 
5.085296362612e+00 -1.228579316031e+02 0.0 
0.0 0.0 -5.386835840186e+01 
-6.434449287095e+01 6.189734175759e+00 0.0 
6.189734175759e+00 -1.593160045744e+02 0.0 
0.0 0.0 -6.669814923360e+01 
-6.094919111634e+01 6.665397263938e+00 0.0 
6.665397263938e+00 -1.487292921066e+02 0.0 
0.0 0.0 -6.250354496689e+01 
-2.241622308640e+01 4.555592600668e+00 0.0 
4.555592600668e+00 -6.172965543335e+01 0.0 
0.0 0.0 -2.484376355592e+01 
-7.521645316704e+01 6.152994915002e+00 0.0 
6.152994915002e+00 -1.733239906307e+02 0.0 
0.0 0.0 -7.416213313932e+01 
-2.215073461131e+01 9.876495473905e+00 0.0 
9.876495473905e+00 -5.098267685429e+01 0.0 
0.0 0.0 -2.154002343968e+01 
-1.498873749526e+02 3.999201478102e+00 0.0 
3.999201478102e+00 -3.483796814844e+02 0.0 
0.0 0.0 -1.490801169311e+02 
-1.496203187276e+02 4.900856568566e+00 0.0 
4.900856568566e+00 -3.485384941456e+02 0.0 
0.0 0.0 -1.490476438619e+02 
-8.508102149380e+01 4.450852617623e+00 0.0 
4.450852617623e+00 -1.897434210369e+02 0.0 
0.0 0.0 -8.204733275919e+01 
-4.008691650735e+01 6.575578861768e+00 0.0 
6.575578861768e+00 -1.046575814048e+02 0.0 
0.0 0.0 -4.302334937364e+01 
-3.293414137051e+01 9.210036391934e+00 0.0 
9.210036391934e+00 -8.195982511954e+01 0.0 
0.0 0.0 -3.406818994701e+01 
-9.391015204252e+01 2.897414366938e+00 0.0 
2.897414366938e+00 -2.086457652521e+02 0.0 
0.0 0.0 -9.036677518838e+01 
-3.642650404853e+01 8.334973067512e+00 0.0 
8.334973067512e+00 -9.378360926822e+01 0.0 
0.0 0.0 -3.866303399502e+01 
-4.277767822340e+01 1.852093806236e+00 0.0 
1.852093806236e+00 -1.161455854160e+02 0.0 
0.0 0.0 -4.727697909182e+01 
-8.188745048077e+01 2.806517491672e+00 0.0 
2.806517491672e+00 -1.798438229570e+02 0.0 
0.0 0.0 -7.811938203132e+01 
-1.415437293074e+02 1.577993672098e+00 0.0 
1.577993672098e+00 -3.296241907859e+02 0.0 
0.0 0.0 -1.409503760280e+02 
-5.282346161830e+01 6.919356161571e+00 0.0 
6.919356161571e+00 -1.301576004422e+02 0.0 
0.0 0.0 -5.449431861814e+01 
-1.061918318162e+02 5.908692730528e+00 0.0 
5.908692730528e+00 -2.510673638453e+02 0.0 
0.0 0.0 -1.067777586985e+02 
-2.581480140314e+01 8.014911918120e+00 0.0 
8.014911918120e+00 -6.401826693285e+01 0.0 
0.0 0.0 -2.654992050080e+01 
-1.589345671865e+02 6.800559025836e+00 0.0 
6.800559025836e+00 -3.741604602294e+02 0.0 
0.0 0.0 -1.595285082248e+02 
-3.680268289134e+01 7.379882327342e+00 0.0 
7.379882327342e+00 -9.372184046276e+01 0.0 
0.0 0.0 -3.875735700623e+01 
-8.563021292912e+01 3.444634949658e+00 0.0 
3.444634949658e+00 -1.893325199093e+02 0.0 
0.0 0.0 -8.208881985154e+01 
-2.432951018942e+01 3.449416556067e+00 0.0 
3.449416556067e+00 -7.103690290943e+01 0.0 
0.0 0.0 -2.820992392966e+01 
-1.035583779064e+02 4.338967616050e+00 0.0 
4.338967616050e+00 -2.541910233161e+02 0.0 
0.0 0.0 -1.069248203668e+02 
-6.911698758479e+01 6.406030547872e+00 0.0 
6.406030547872e+00 -1.674444173800e+02 0.0 
0.0 0.0 -7.056842148945e+01 
-4.660421628873e+01 1.407863588265e+00 0.0 
1.407863588265e+00 -1.251983864735e+02 0.0 
0.0 0.0 -5.114078082867e+01 
-8.717381171936e+01 3.652381065122e+00 0.0 
3.652381065122e+00 -1.910656048663e+02 0.0 
0.0 0.0 -8.307182497570e+01 
-1.514899542756e+02 6.203834647606e+00 0.0 
6.203834647606e+00 -3.526427850560e+02 0.0 
0.0 0.0 -1.508398217995e+02 
-5.621849279267e+01 6.362135719166e+00 0.0 
6.362135719166e+00 -1.409420719154e+02 0.0 
0.0 0.0 -5.874816941243e+01 
-9.704922786187e+01 7.126154018616e+00 0.0 
7.126154018616e+00 -2.342901156286e+02 0.0 
0.0 0.0 -9.900180304714e+01 
-2.536449272616e+01 9.192112928480e+00 0.0 
9.192112928480e+00 -6.405716276392e+01 0.0 
0.0 0.0 -2.642649664703e+01 
-1.033217030127e+02 2.939152304412e-01 0.0 
2.939152304412e-01 -2.345316744536e+02 0.0 
0.0 0.0 -1.009560132399e+02 
-1.156095078460e+02 3.389690557788e+00 0.0 
3.389690557788e+00 -2.828476215945e+02 0.0 
0.0 0.0 -1.191371388322e+02 
-3.934228008283e+01 8.443230765870e+00 0.0 
8.443230765870e+00 -8.420349359672e+01 0.0 
0.0 0.0 -3.666373210387e+01 
-1.000426583557e+02 1.723576026607e+00 0.0 
1.723576026607e+00 -2.262215654409e+02 0.0 
0.0 0.0 -9.747926713896e+01 
-1.527027154334e+02 7.285216374194e+00 0.0 
7.285216374194e+00 -3.558643472723e+02 0.0 
0.0 0.0 -1.521701188117e+02 
-1.245779759829e+02 3.713973048005e+00 0.0 
3.713973048005e+00 -3.022103229663e+02 0.0 
0.0 0.0 -1.276364896848e+02 
-1.510728638679e+02 5.745630894432e+00 0.0 
5.745630894432e+00 -3.513578288073e+02 0.0 
0.0 0.0 -1.503292078025e+02 
-9.992180579850e+01 2.083295058293e+00 0.0 
2.083295058293e+00 -2.245182871482e+02 0.0 
0.0 0.0 -9.693202788402e+01 
-1.183621000066e+02 5.112192499994e+00 0.0 
5.112192499994e+00 -2.672968391576e+02 0.0 
0.0 0.0 -1.152976817492e+02 
-3.129798587473e+01 8.389468653198e+00 0.0 
8.389468653198e+00 -6.397457864452e+01 0.0 
0.0 0.0 -2.818176935577e+01 
-7.927012210735e+01 3.236756715525e+00 0.0 
3.236756715525e+00 -1.722968019823e+02 0.0 
0.0 0.0 -7.507007722689e+01 
-9.014587442293e+01 2.319434711380e+00 0.0 
2.319434711380e+00 -1.993860049673e+02 0.0 
0.0 0.0 -8.645956381707e+01 
-9.505790104959e+01 4.031830373759e+00 0.0 
4.031830373759e+00 -2.099836256434e+02 0.0 
0.0 0.0 -9.111245800790e+01 
-7.751381891620e+01 6.406379304757e+00 0.0 
6.406379304757e+00 -1.710567909578e+02 0.0 
0.0 0.0 -7.417118296219e+01 
-1.537149953593e+02 7.994170279819e+00 0.0 
7.994170279819e+00 -3.587874053476e+02 0.0 
0.0 0.0 -1.533507202120e+02 
-9.566365956512e+01 8.958564775141e-01 0.0 
8.958564775141e-01 -2.138379337186e+02 0.0 
0.0 0.0 -9.245047798513e+01 
-8.361994276886e+01 2.418071636283e+00 0.0 
2.418071636283e+00 -1.836216944296e+02 0.0 
0.0 0.0 -7.977249115954e+01 
-6.042826601146e+01 8.000007066882e+00 0.0 
8.000007066882e+00 -1.487980173585e+02 0.0 
0.0 0.0 -6.236788501098e+01 
-3.414900972477e+01 -1.368923778298e+00 0.0 
-1.368923778298e+00 -8.783541929304e+01 0.0 
0.0 0.0 -3.619532870534e+01 
-7.537352593826e+01 2.662069983968e+00 0.0 
2.662069983968e+00 -1.634240338810e+02 0.0 
0.0 0.0 -7.123926794579e+01 
-4.284450814823e+01 6.706667945709e+00 0.0 
6.706667945709e+00 -9.534874631981e+01 0.0 
0.0 0.0 -4.105797634041e+01 
-8.028710740066e+01 2.258266799463e-01 0.0 
2.258266799463e-01 -1.820557110772e+02 0.0 
0.0 0.0 -7.830284554337e+01 
-4.781234225262e+01 2.176553154916e+00 0.0 
2.176553154916e+00 -1.258740930945e+02 0.0 
0.0 0.0 -5.170593060412e+01 
-5.228463921084e+01 8.162626472074e+00 0.0 
8.162626472074e+00 -1.301829096844e+02 0.0 
0.0 0.0 -5.434026466857e+01 
-1.184195201062e+02 2.137598652611e+00 0.0 
2.137598652611e+00 -2.693200879922e+02 0.0 
0.0 0.0 -1.159218824295e+02 
-4.236221365676e+01 9.139221450196e+00 0.0 
9.139221450196e+00 -9.559707055992e+01 0.0 
0.0 0.0 -4.098778526500e+01 
-8.222186633780e+01 1.911900794719e+00 0.0 
1.911900794719e+00 -1.804834657472e+02 0.0 
0.0 0.0 -7.841159962549e+01 
-1.008138426238e+02 5.405785162793e+00 0.0 
5.405785162793e+00 -2.440571639880e+02 0.0 
0.0 0.0 -1.030613019835e+02 
-8.946201524342e+01 1.808994686556e+00 0.0 
1.808994686556e+00 -2.252334929096e+02 0.0 
0.0 0.0 -9.400865244590e+01 
-1.557470033529e+02 8.394377803577e+00 0.0 
8.394377803577e+00 -3.640715029520e+02 0.0 
0.0 0.0 -1.555455518915e+02 
-6.724466669684e+01 2.992611801554e+00 0.0 
2.992611801554e+00 -1.442356490493e+02 0.0 
0.0 0.0 -6.304409472385e+01 
-4.286252082598e+01 3.670750880217e+00 0.0 
3.670750880217e+00 -1.162412652921e+02 0.0 
0.0 0.0 -4.733113583543e+01 
-6.219564532415e+01 1.348640072879e+00 0.0 
1.348640072879e+00 -1.595610069145e+02 0.0 
0.0 0.0 -6.612699567159e+01 
-4.003489443811e+01 5.997902534418e+00 0.0 
5.997902534418e+00 -8.170734383293e+01 0.0 
0.0 0.0 -3.612267148131e+01 
-3.920910463275e+01 5.583179603194e+00 0.0 
5.583179603194e+00 -8.369662718090e+01 0.0 
0.0 0.0 -3.647171954410e+01 
-1.268193524509e+02 4.928385165945e+00 0.0 
4.928385165945e+00 -2.885891316263e+02 0.0 
0.0 0.0 -1.242225452232e+02 
-9.044993620269e+01 5.141259770508e+00 0.0 
5.141259770508e+00 -1.996146987903e+02 0.0 
0.0 0.0 -8.661939049791e+01 
-5.849394394218e+01 3.684084639838e+00 0.0 
3.684084639838e+00 -1.235645492305e+02 0.0 
0.0 0.0 -5.421754795180e+01 
-7.429501019284e+01 1.468798564196e+00 0.0 
1.468798564196e+00 -1.617670056485e+02 0.0 
0.0 0.0 -7.041860475241e+01 
-1.571397208078e+02 7.798207473454e+00 0.0 
7.798207473454e+00 -3.695513321892e+02 0.0 
0.0 0.0 -1.576073158991e+02 
-1.482608923282e+02 8.019944384362e+00 0.0 
8.019944384362e+00 -3.493241346119e+02 0.0 
0.0 0.0 -1.488755080820e+02 
-1.258647741956e+02 3.084723282588e+00 0.0 
3.084723282588e+00 -2.876132822450e+02 0.0 
0.0 0.0 -1.236434169322e+02 
-1.156112075359e+02 3.511593831482e+00 0.0 
3.511593831482e+00 -2.610648752097e+02 0.0 
0.0 0.0 -1.126028248237e+02 
-8.620075460447e+01 3.286596632780e+00 0.0 
3.286596632780e+00 -2.167719479989e+02 0.0 
0.0 0.0 -9.049181078102e+01 
-6.164224801590e+01 6.041903483572e+00 0.0 
6.041903483572e+00 -1.323313216867e+02 0.0 
0.0 0.0 -5.779207091078e+01 
-4.005669097535e+01 7.324341283246e+00 0.0 
7.324341283246e+00 -1.048145803702e+02 0.0 
0.0 0.0 -4.306138140365e+01 
-4.789745736600e+01 7.427566810022e+00 0.0 
7.427566810022e+00 -1.228273392102e+02 0.0 
0.0 0.0 -5.081743897286e+01 
-8.621095934819e+01 5.487470638391e+00 0.0 
5.487470638391e+00 -1.900101543976e+02 0.0 
0.0 0.0 -8.246633412374e+01 
-9.996031100098e+01 5.997130864227e+00 0.0 
5.997130864227e+00 -2.450634960332e+02 0.0 
0.0 0.0 -1.031071421102e+02 
-7.675206473038e+01 1.228990477397e+00 0.0 
1.228990477397e+00 -1.931749473834e+02 0.0 
0.0 0.0 -8.057810363414e+01 
-1.262083606638e+02 2.537374430480e+00 0.0 
2.537374430480e+00 -2.890480264419e+02 0.0 
0.0 0.0 -1.241769161317e+02 
-4.384582008273e+01 4.250890366748e+00 0.0 
4.250890366748e+00 -1.167870414875e+02 0.0 
0.0 0.0 -4.778985847105e+01 
-7.306417731839e+01 6.931088231747e+00 0.0 
6.931088231747e+00 -1.618828595787e+02 0.0 
0.0 0.0 -7.008411106912e+01 
-8.600415357806e+01 2.527471291996e+00 0.0 
2.527471291996e+00 -1.895004669516e+02 0.0 
0.0 0.0 -8.225138615890e+01 
-6.514400503121e+01 6.904705768570e+00 0.0 
6.904705768570e+00 -1.424322925141e+02 0.0 
0.0 0.0 -6.187288926361e+01 
-1.508879306335e+02 5.336882200307e+00 0.0 
5.336882200307e+00 -3.502150071651e+02 0.0 
0.0 0.0 -1.499308813396e+02 
-1.493282454571e+02 4.160486102756e+00 0.0 
4.160486102756e+00 -3.480181313222e+02 0.0 
0.0 0.0 -1.488039130338e+02 
-1.421191048398e+02 5.146451064029e+00 0.0 
5.146451064029e+00 -3.278030003894e+02 0.0 
0.0 0.0 -1.405766315687e+02 
-9.446772301946e+01 3.638803956480e+00 0.0 
3.638803956480e+00 -2.355337736138e+02 0.0 
0.0 0.0 -9.860044898997e+01 
-1.228045138648e+02 1.667817090053e+00 0.0 
1.667817090053e+00 -2.811977098313e+02 0.0 
0.0 0.0 -1.208006671088e+02 
-3.484871847594e+01 6.698560040316e+00 0.0 
6.698560040316e+00 -7.594168151715e+01 0.0 
0.0 0.0 -3.283711999793e+01 
-5.589494193561e+01 7.425683537270e+00 0.0 
7.425683537270e+00 -1.410387969968e+02 0.0 
0.0 0.0 -5.868012167974e+01 
-2.912685102856e+01 5.313168183523e+00 0.0 
5.313168183523e+00 -7.983026119213e+01 0.0 
0.0 0.0 -3.228713366621e+01 
-6.239288242396e+01 4.534301959065e+00 0.0 
4.534301959065e+00 -1.326667527860e+02 0.0 
0.0 0.0 -5.811789056300e+01 
-8.246964588085e+01 7.057185215305e-01 0.0 
7.057185215305e-01 -1.832182062729e+02 0.0 
0.0 0.0 -7.930635564612e+01 
-9.910137753262e+01 2.586066517923e-01 0.0 
2.586066517923e-01 -2.239218854292e+02 0.0 
0.0 0.0 -9.650697888855e+01 
-1.506207643457e+02 6.601449970353e+00 0.0 
6.601449970353e+00 -3.569164342323e+02 0.0 
0.0 0.0 -1.518611595734e+02 
-1.251563020017e+02 3.599291922793e+00 0.0 
3.599291922793e+00 -2.860007074504e+02 0.0 
0.0 0.0 -1.229471028356e+02 
-9.447074077539e+01 1.558737702694e+00 0.0 
1.558737702694e+00 -2.102059167495e+02 0.0 
0.0 0.0 -9.100299725747e+01 
-9.798312448819e+01 2.707900811816e+00 0.0 
2.707900811816e+00 -2.184266270854e+02 0.0 
0.0 0.0 -9.452292547207e+01 
-3.152908587472e+01 4.118799949276e+00 0.0 
4.118799949276e+00 -8.886422811806e+01 0.0 
0.0 0.0 -3.571799419783e+01 
-1.831272190525e+01 -1.011836750777e+00 0.0 
-1.011836750777e+00 -4.194599859184e+01 0.0 
0.0 0.0 -1.767761614913e+01 
-7.049613674640e+01 6.467246399803e+00 0.0 
6.467246399803e+00 -1.648650008516e+02 0.0 
0.0 0.0 -7.020834127939e+01 
-8.091640667627e+01 6.961427450116e+00 0.0 
6.961427450116e+00 -1.810952760905e+02 0.0 
0.0 0.0 -7.820350483004e+01 
-7.482070140922e+01 8.088816623953e+00 0.0 
8.088816623953e+00 -1.735518594311e+02 0.0 
0.0 0.0 -7.411176825210e+01 
-1.167398602330e+01 7.380777151224e+00 0.0 
7.380777151224e+00 -2.932842550297e+01 0.0 
0.0 0.0 -1.190072345788e+01 
-8.716441133613e+01 -2.019954438907e-01 0.0 
-2.019954438907e-01 -1.986977264557e+02 0.0 
0.0 0.0 -8.535864133755e+01 
-3.191470517720e+01 -1.421143731979e-01 0.0 
-1.421143731979e-01 -8.074707698775e+01 0.0 
0.0 0.0 -3.339853464949e+01 
-4.151597145009e+01 7.578346026328e+00 0.0 
7.578346026328e+00 -1.003228360668e+02 0.0 
0.0 0.0 -4.215164225506e+01 
-1.597349902388e+02 6.705310412143e+00 0.0 
6.705310412143e+00 -3.740483105573e+02 0.0 
0.0 0.0 -1.597349902388e+02 
-1.101193508177e+02 7.393578904410e+00 0.0 
7.393578904410e+00 -2.622010499127e+02 0.0 
0.0 0.0 -1.112961202191e+02 
-8.253986899637e+01 6.840045730776e-01 0.0 
6.840045730776e-01 -1.828588279123e+02 0.0 
0.0 0.0 -7.921960907260e+01 
-2.342876891375e+01 -6.694045625348e-01 0.0 
-6.694045625348e-01 -5.886870265770e+01 0.0 
0.0 0.0 -2.428924147143e+01 
-7.717480052103e+01 4.250473577603e+00 0.0 
4.250473577603e+00 -1.704893573534e+02 0.0 
0.0 0.0 -7.389924736233e+01 
-6.999533361316e+01 8.300821373355e+00 0.0 
8.300821373355e+00 -1.650217867694e+02 0.0 
0.0 0.0 -7.010513611476e+01 
-9.910486308045e+01 3.888171228722e+00 0.0 
3.888171228722e+00 -2.198673005140e+02 0.0 
0.0 0.0 -9.529164907832e+01 
-1.517647879727e+02 6.386504020427e+00 0.0 
6.386504020427e+00 -3.535886110311e+02 0.0 
0.0 0.0 -1.512060197011e+02 
-7.841143425460e+01 1.326700711182e+00 0.0 
1.326700711182e+00 -1.716227503248e+02 0.0 
0.0 0.0 -7.461025537384e+01 
-9.462336840396e+01 4.849444949588e+00 0.0 
4.849444949588e+00 -2.093079746501e+02 0.0 
0.0 0.0 -9.077940291622e+01 
-7.602192113071e+01 -1.569929372538e-01 0.0 
-1.569929372538e-01 -1.925683532289e+02 0.0 
0.0 0.0 -8.017708230788e+01 
-1.225266652635e+02 2.118539739569e+00 0.0 
2.118539739569e+00 -2.798733994894e+02 0.0 
0.0 0.0 -1.203200194259e+02 
-9.789413326166e+01 2.113743471276e+00 0.0 
2.113743471276e+00 -2.442214959349e+02 0.0 
0.0 0.0 -1.022346887590e+02 
-1.524981113778e+02 7.012518918538e+00 0.0 
7.012518918538e+00 -3.547092775595e+02 0.0 
0.0 0.0 -1.517622166812e+02 
-1.495233293008e+02 5.240750208190e+00 0.0 
5.240750208190e+00 -3.502211017018e+02 0.0 
0.0 0.0 -1.495233293008e+02 
-1.483959908609e+02 3.664388919605e+00 0.0 
3.664388919605e+00 -3.475906453421e+02 0.0 
0.0 0.0 -1.483959908609e+02 
-1.483319512151e+02 4.395256230304e+00 0.0 
4.395256230304e+00 -3.474412195018e+02 0.0 
0.0 0.0 -1.483319512151e+02 
-1.020518686551e+02 2.559649150927e+00 0.0 
2.559649150927e+00 -2.283000265826e+02 0.0 
0.0 0.0 -9.870556857131e+01 
-1.233666906192e+02 3.820397488793e+00 0.0 
3.820397488793e+00 -2.805480783524e+02 0.0 
0.0 0.0 -1.207744306915e+02 
-1.296297792307e+02 3.571970873440e+00 0.0 
3.571970873440e+00 -2.972565747540e+02 0.0 
0.0 0.0 -1.276659061954e+02 
-6.482668107829e+01 4.496822604213e+00 0.0 
4.496822604213e+00 -1.418772849294e+02 0.0 
0.0 0.0 -6.161118980232e+01 
-6.100170529378e+01 3.609648470582e+00 0.0 
3.609648470582e+00 -1.316202716452e+02 0.0 
0.0 0.0 -5.738659308170e+01 
-7.244894736076e+01 9.701572394296e-01 0.0 
9.701572394296e-01 -1.824901047036e+02 0.0 
0.0 0.0 -7.608171561930e+01 
-1.271434869863e+02 4.350142578475e+00 0.0 
4.350142578475e+00 -2.898287242994e+02 0.0 
0.0 0.0 -1.246916633857e+02 
-1.531511464124e+02 7.700855723172e+00 0.0 
7.700855723172e+00 -3.571650877005e+02 0.0 
0.0 0.0 -1.526948702339e+02 
-1.265242040773e+02 2.050137962921e+00 0.0 
2.050137962921e+00 -2.902032054271e+02 0.0 
0.0 0.0 -1.246182228513e+02 
-1.016618202329e+02 7.388174389139e+00 0.0 
7.388174389139e+00 -2.429421504542e+02 0.0 
0.0 0.0 -1.029811912062e+02 
-1.272975549847e+02 3.719450739978e+00 0.0 
3.719450739978e+00 -2.908578072705e+02 0.0 
0.0 0.0 -1.250466086765e+02 
-1.124203982519e+02 7.144871526844e+00 0.0 
7.144871526844e+00 -2.577053837725e+02 0.0 
0.0 0.0 -1.106377346073e+02 
-7.644206144275e+01 5.373257895062e+00 0.0 
5.373257895062e+00 -1.717068484186e+02 0.0 
0.0 0.0 -7.404467295840e+01 
-6.155222850418e+01 2.305075972243e+00 0.0 
2.305075972243e+00 -1.319744590590e+02 0.0 
0.0 0.0 -5.765800626896e+01 
-2.893640099011e+01 7.459011081720e+00 0.0 
7.459011081720e+00 -7.588586149128e+01 0.0 
0.0 0.0 -3.104667874442e+01 
-1.414811123265e+02 1.983183124656e+00 0.0 
1.983183124656e+00 -3.298610087320e+02 0.0 
0.0 0.0 -1.410026363175e+02 
-6.051769778164e+01 5.159108560159e+00 0.0 
5.159108560159e+00 -1.329941398422e+02 0.0 
0.0 0.0 -5.765355128716e+01 
-1.403761225060e+02 6.740088897925e+00 0.0 
6.740088897925e+00 -3.254329839013e+02 0.0 
0.0 0.0 -1.393427319222e+02 
-7.175367321515e+01 -4.430694884806e-01 0.0 
-4.430694884806e-01 -1.818919178867e+02 0.0 
0.0 0.0 -7.569367733056e+01 
-4.417117130385e+01 1.344582543831e+00 0.0 
1.344582543831e+00 -1.158522921982e+02 0.0 
0.0 0.0 -4.760703905061e+01 
-1.521680231773e+02 5.929242411257e+00 0.0 
5.929242411257e+00 -3.584985558619e+02 0.0 
0.0 0.0 -1.527999737117e+02 
-4.618535375496e+01 7.277213664956e+00 0.0 
7.277213664956e+00 -1.071215887477e+02 0.0 
0.0 0.0 -4.559208275078e+01 
-1.500472178135e+02 5.674321204379e+00 0.0 
5.674321204379e+00 -3.514435082316e+02 0.0 
0.0 0.0 -1.500472178135e+02 
-1.424002010381e+02 3.891827019735e+00 0.0 
3.891827019735e+00 -3.313631344606e+02 0.0 
0.0 0.0 -1.417290006496e+02 
-9.348205696382e+01 3.750782312025e+00 0.0 
3.750782312025e+00 -2.084793087250e+02 0.0 
0.0 0.0 -9.018840970663e+01 
-1.179421041028e+01 -7.055603337566e-01 0.0 
-7.055603337566e-01 -2.488081493680e+01 0.0 
0.0 0.0 -1.102955643295e+01 
-1.508912415535e+02 6.432230336476e+00 0.0 
6.432230336476e+00 -3.534128969581e+02 0.0 
0.0 0.0 -1.508912415535e+02 
-1.511483495455e+02 6.873463609372e+00 0.0 
6.873463609372e+00 -3.556102167279e+02 0.0 
0.0 0.0 -1.516275698820e+02 
-4.284696289306e+01 4.826973022622e-01 0.0 
4.826973022622e-01 -1.151049349124e+02 0.0 
0.0 0.0 -4.698556934163e+01 
-1.054638082230e+02 7.133326497697e+00 0.0 
7.133326497697e+00 -2.533010360708e+02 0.0 
0.0 0.0 -1.072294532881e+02 
-1.557694672138e+02 8.352039112372e+00 0.0 
8.352039112372e+00 -3.653555170739e+02 0.0 
0.0 0.0 -1.559374952863e+02 
-7.145670960257e+00 -2.989728778095e-01 0.0 
-2.989728778095e-01 -8.958277953025e+00 0.0 
0.0 0.0 -5.401097816773e+00 
-6.856447741731e+01 5.316968145037e+00 0.0 
5.316968145037e+00 -1.525228128195e+02 0.0 
0.0 0.0 -6.592618707105e+01 
-9.762670918707e+01 3.475200081737e+00 0.0 
3.475200081737e+00 -2.180681113481e+02 0.0 
0.0 0.0 -9.430844616055e+01 
-8.930579895107e+01 4.065837633112e+00 0.0 
4.065837633112e+00 -1.990355711538e+02 0.0 
0.0 0.0 -8.610241103145e+01 
-8.976807851538e+01 3.133357094502e+00 0.0 
3.133357094502e+00 -1.989223476336e+02 0.0 
0.0 0.0 -8.620712784468e+01 
-3.356959904735e+01 7.832727879993e+00 0.0 
7.832727879993e+00 -8.193233613908e+01 0.0 
0.0 0.0 -3.425058055593e+01 
-1.520068757248e+02 7.178758563013e+00 0.0 
7.178758563013e+00 -3.560160433579e+02 0.0 
0.0 0.0 -1.520068757248e+02 
-6.399747721504e+01 7.370664590659e+00 0.0 
7.370664590659e+00 -1.594350210054e+02 0.0 
0.0 0.0 -6.662974946612e+01 
-2.047144471395e+01 2.356467588491e+00 0.0 
2.356467588491e+00 -5.412619277374e+01 0.0 
0.0 0.0 -2.197929124631e+01 
-1.542144232352e+02 2.815055049444e+00 0.0 
2.815055049444e+00 -3.658832135143e+02 0.0 
0.0 0.0 -1.556292910249e+02 
-1.267068017252e+01 -6.829986749864e-01 0.0 
-6.829986749864e-01 -2.507222053251e+01 0.0 
0.0 0.0 -1.092287021151e+01 
-7.013691885534e+01 1.661463416731e+00 0.0 
1.661463416731e+00 -1.519374010568e+02 0.0 
0.0 0.0 -6.622229597363e+01 
-2.227896927792e+01 -3.432980003408e-01 0.0 
-3.432980003408e-01 -5.870309798145e+01 0.0 
0.0 0.0 -2.389462017781e+01 
-7.454427655465e+01 7.754514286477e-01 0.0 
7.754514286477e-01 -1.627297691598e+02 0.0 
0.0 0.0 -7.078221371433e+01 
-1.577385049530e+02 7.588968713533e+00 0.0 
7.588968713533e+00 -3.710486065590e+02 0.0 
0.0 0.0 -1.582361334536e+02 
-1.535004775838e+02 7.673695662632e+00 0.0 
7.673695662632e+00 -3.595011143621e+02 0.0 
0.0 0.0 -1.535004775838e+02 
-9.417875742399e+01 2.156100828897e+00 0.0 
2.156100828897e+00 -2.092375298223e+02 0.0 
0.0 0.0 -9.062488617388e+01 
-1.677536358749e+01 -7.003291127248e-01 0.0 
-7.003291127248e-01 -4.209025379205e+01 0.0 
0.0 0.0 -1.725968521386e+01 
-1.615226709993e+01 1.022104023156e+00 0.0 
1.022104023156e+00 -4.389310891868e+01 0.0 
0.0 0.0 -1.761361280558e+01 
-2.360457404291e+01 -6.331018992568e-01 0.0 
-6.331018992568e-01 -5.820228190596e+01 0.0 
0.0 0.0 -2.414205678466e+01 
-1.327889811624e+02 3.944659026839e+00 0.0 
3.944659026839e+00 -3.199490565371e+02 0.0 
0.0 0.0 -1.354214113098e+02 
-8.229255368861e+01 6.146540848974e-01 0.0 
6.146540848974e-01 -1.830189884082e+02 0.0 
0.0 0.0 -7.919346262904e+01 
-8.751613761480e+01 2.513342989649e+00 0.0 
2.513342989649e+00 -1.931373041896e+02 0.0 
0.0 0.0 -8.379603254132e+01 
-1.550341458539e+02 7.950534289958e+00 0.0 
7.950534289958e+00 -3.630796736590e+02 0.0 
0.0 0.0 -1.550341458539e+02 
-8.185032236322e+01 7.692450326109e-01 0.0 
7.692450326109e-01 -1.830399898799e+02 0.0 
0.0 0.0 -7.906709367295e+01 
-1.492834379509e+02 3.502619133652e+00 0.0 
3.502619133652e+00 -3.480107170680e+02 0.0 
0.0 0.0 -1.487882465056e+02 
-1.156990460638e+02 5.603238113464e+00 0.0 
5.603238113464e+00 -2.671788035331e+02 0.0 
0.0 0.0 -1.144633548791e+02 
-9.503600751294e+01 4.134362765500e-02 0.0 
4.134362765500e-02 -2.147888336679e+02 0.0 
0.0 0.0 -9.254745235425e+01 
-4.312467104510e+01 4.703045747620e+00 0.0 
4.703045747620e+00 -9.172899374516e+01 0.0 
0.0 0.0 -4.005609943708e+01 
-1.054966008241e+02 5.653018800116e+00 0.0 
5.653018800116e+00 -2.530190958046e+02 0.0 
0.0 0.0 -1.071547089886e+02 
-2.575845738531e+01 6.441822868424e+00 0.0 
6.441822868424e+00 -7.000124767639e+01 0.0 
0.0 0.0 -2.832791151851e+01 
-1.563535144482e+02 7.968672615036e+00 0.0 
7.968672615036e+00 -3.661582003792e+02 0.0 
0.0 0.0 -1.563535144482e+02 
-1.489245415885e+02 4.719273345898e+00 0.0 
4.719273345898e+00 -3.488239303732e+02 0.0 
0.0 0.0 -1.489245415885e+02 
-1.485294892348e+02 4.088872203158e+00 0.0 
4.088872203158e+00 -3.479021415479e+02 0.0 
0.0 0.0 -1.485294892348e+02 
-9.853301977138e+01 3.415897102952e+00 0.0 
3.415897102952e+00 -2.447690471554e+02 0.0 
0.0 0.0 -1.025906200780e+02 
-6.812206799561e+01 7.783296390296e-01 0.0 
7.783296390296e-01 -1.716585511072e+02 0.0 
0.0 0.0 -7.153418573086e+01 
-7.637504599762e+01 7.423471586063e+00 0.0 
7.423471586063e+00 -1.721284867493e+02 0.0 
0.0 0.0 -7.415105982407e+01 
-1.018993504596e+02 1.880952040893e+00 0.0 
1.880952040893e+00 -2.531904979620e+02 0.0 
0.0 0.0 -1.061269545265e+02 
-1.576129982931e+02 7.628643915382e+00 0.0 
7.628643915382e+00 -3.690969960172e+02 0.0 
0.0 0.0 -1.576129982931e+02 
-4.077169699671e+01 9.034984152303e+00 0.0 
9.034984152303e+00 -1.003182242838e+02 0.0 
0.0 0.0 -4.192697638416e+01 
-5.047974242936e+01 2.351137828845e+00 0.0 
2.351137828845e+00 -1.347047771612e+02 0.0 
0.0 0.0 -5.515535587715e+01 
-5.424595705696e+01 1.883527001983e+00 0.0 
1.883527001983e+00 -1.436161900193e+02 0.0 
0.0 0.0 -5.895864412286e+01 
-9.948279809207e+01 1.146455004184e-01 0.0 
1.146455004184e-01 -2.257217316527e+02 0.0 
0.0 0.0 -9.716135892342e+01 
-1.591876941858e+02 6.462278293086e+00 0.0 
6.462278293086e+00 -3.753397998271e+02 0.0 
0.0 0.0 -1.599582482039e+02 
-1.895704562607e+01 -8.337188953852e-01 0.0 
-8.337188953852e-01 -4.169098879438e+01 0.0 
0.0 0.0 -1.779441032613e+01 
-1.589600881182e+02 7.039822457004e+00 0.0 
7.039822457004e+00 -3.722402056091e+02 0.0 
0.0 0.0 -1.589600881182e+02 
-5.030893129603e+01 9.838761574760e-01 0.0 
9.838761574760e-01 -1.337897359502e+02 0.0 
0.0 0.0 -5.482960017386e+01 
-1.506718439712e+02 6.087027923294e+00 0.0 
6.087027923294e+00 -3.529009692661e+02 0.0 
0.0 0.0 -1.506718439712e+02 
-1.305463866009e+02 5.387873627251e+00 0.0 
5.387873627251e+00 -2.980880597452e+02 0.0 
0.0 0.0 -1.281903339038e+02 
-7.077979718402e+00 -2.892566759855e-01 0.0 
-2.892566759855e-01 -7.819116127573e+00 0.0 
0.0 0.0 -4.069128753793e+00 
-7.189348881723e+01 5.849523439006e+00 0.0 
5.849523439006e+00 -1.628005770169e+02 0.0 
0.0 0.0 -7.000821975024e+01 
-1.276569906404e+02 3.294665053217e+00 0.0 
3.294665053217e+00 -2.923898701884e+02 0.0 
0.0 0.0 -1.256140582486e+02 
-1.515345722252e+02 6.862121719204e+00 0.0 
6.862121719204e+00 -3.549140018587e+02 0.0 
0.0 0.0 -1.515345722252e+02 
-1.028598081144e+02 4.412639508058e+00 0.0 
4.412639508058e+00 -2.289923591391e+02 0.0 
0.0 0.0 -9.915565017605e+01 
-1.192573545312e+02 5.807950895777e+00 0.0 
5.807950895777e+00 -2.772504406305e+02 0.0 
0.0 0.0 -1.185523385485e+02 
-2.127073304024e+01 7.275795779346e+00 0.0 
7.275795779346e+00 -5.848173842217e+01 0.0 
0.0 0.0 -2.352574143872e+01 
-1.441094253699e+02 6.277249287734e+00 0.0 
6.277249287734e+00 -3.406919851563e+02 0.0 
0.0 0.0 -1.450404231579e+02 
-5.404873785479e+01 6.956750683943e-01 0.0 
6.956750683943e-01 -1.424070657408e+02 0.0 
0.0 0.0 -5.853674107868e+01 
-5.521972364408e+01 2.685118813483e+00 0.0 
2.685118813483e+00 -1.441831830339e+02 0.0 
0.0 0.0 -5.942087200338e+01 
-1.420724848917e+01 -7.739519373386e-01 0.0 
-7.739519373386e-01 -2.583178631398e+01 0.0 
0.0 0.0 -1.161171044095e+01 
-1.526969751401e+02 7.450835914609e+00 0.0 
7.450835914609e+00 -3.576262753269e+02 0.0 
0.0 0.0 -1.526969751401e+02 
-3.252819026633e+01 7.046790278539e+00 0.0 
7.046790278539e+00 -8.711790107353e+01 0.0 
0.0 0.0 -3.549382740196e+01 
-1.298681473636e+02 5.687693253771e+00 0.0 
5.687693253771e+00 -3.126100608015e+02 0.0 
0.0 0.0 -1.323434624495e+02 
-9.134738402606e+01 1.634509959113e+00 0.0 
1.634509959113e+00 -2.052990501096e+02 0.0 
0.0 0.0 -8.859393024070e+01 
-4.739638618793e+01 5.886849014952e-01 0.0 
5.886849014952e-01 -1.223726413069e+02 0.0 
0.0 0.0 -5.053070824844e+01 
-5.146503684385e+01 3.145625761200e+00 0.0 
3.145625761200e+00 -1.352869157551e+02 0.0 
0.0 0.0 -5.562558577968e+01 
-9.876884551401e+01 4.594988819001e+00 0.0 
4.594988819001e+00 -2.191256943890e+02 0.0 
0.0 0.0 -9.496836197091e+01 
-1.557286307750e+02 8.073191612727e+00 0.0 
8.073191612727e+00 -3.647001384750e+02 0.0 
0.0 0.0 -1.557286307750e+02 
-7.115583336011e+01 -6.227377317740e-01 0.0 
-6.227377317740e-01 -1.797626041365e+02 0.0 
0.0 0.0 -7.487553124898e+01 
-1.115599608671e+02 4.298597463384e+00 0.0 
4.298597463384e+00 -2.735794254271e+02 0.0 
0.0 0.0 -1.151418158883e+02 
-8.864992783454e+01 4.992507670644e+00 0.0 
4.992507670644e+00 -1.997839370566e+02 0.0 
0.0 0.0 -8.613015946735e+01 
-9.924190782639e+01 5.075392624033e+00 0.0 
5.075392624033e+00 -2.452006406476e+02 0.0 
0.0 0.0 -1.029327645422e+02 
-5.524339831673e+01 4.105486056562e+00 0.0 
4.105486056562e+00 -1.442723683977e+02 0.0 
0.0 0.0 -5.945473001432e+01 
-1.029152365200e+02 3.970702870275e+00 0.0 
3.970702870275e+00 -2.544586772349e+02 0.0 
0.0 0.0 -1.068121741265e+02 
-8.536667810618e+01 6.509760055407e+00 0.0 
6.509760055407e+00 -1.902582494300e+02 0.0 
0.0 0.0 -8.228747826085e+01 
-1.132104426966e+02 6.612856682514e+00 0.0 
6.612856682514e+00 -2.571716336122e+02 0.0 
0.0 0.0 -1.107146228926e+02 
-1.138642637643e+02 5.670290470764e+00 0.0 
5.670290470764e+00 -2.720375015008e+02 0.0 
0.0 0.0 -1.153705295795e+02 
-8.429363429497e+01 5.393008639073e+00 0.0 
5.393008639073e+00 -1.908330580499e+02 0.0 
0.0 0.0 -8.213800770346e+01 
-7.221630095193e+01 -1.041377697616e-01 0.0 
-1.041377697616e-01 -1.839152760049e+02 0.0 
0.0 0.0 -7.643947308705e+01 
-4.541202627338e+01 9.151820651824e+00 0.0 
9.151820651824e+00 -1.071796280395e+02 0.0 
0.0 0.0 -4.537749629388e+01 
-6.747154763032e+01 -6.566569604785e-01 0.0 
-6.566569604785e-01 -1.710743861073e+02 0.0 
0.0 0.0 -7.116378012129e+01 
-1.159406939399e+02 7.391344956864e+00 0.0 
7.391344956864e+00 -2.677311017626e+02 0.0 
0.0 0.0 -1.147015387107e+02 
-9.248275596626e+01 5.426900777096e+00 0.0 
5.426900777096e+00 -2.252358326240e+02 0.0 
0.0 0.0 -9.491557657706e+01 
-1.583430455197e+02 7.315758438330e+00 0.0 
7.315758438330e+00 -3.727074420684e+02 0.0 
0.0 0.0 -1.589151462764e+02 
-1.313430066943e+02 3.647201736328e+00 0.0 
3.647201736328e+00 -3.012071087953e+02 0.0 
0.0 0.0 -1.293650346469e+02 
-4.255388545614e+01 -9.098641553030e-01 0.0 
-9.098641553030e-01 -1.110391697247e+02 0.0 
0.0 0.0 -4.567791655425e+01 
-1.582370053639e+02 7.335415453278e+00 0.0 
7.335415453278e+00 -3.705530125158e+02 0.0 
0.0 0.0 -1.582370053639e+02 
-1.505884444177e+02 7.012762138809e+00 0.0 
7.012762138809e+00 -3.558184927169e+02 0.0 
0.0 0.0 -1.515220811404e+02 
-7.861678990056e+01 6.319678474395e+00 0.0 
6.319678474395e+00 -1.840312344892e+02 0.0 
0.0 0.0 -7.839440731692e+01 
-1.238942348299e+01 -6.913249389316e-01 0.0 
-6.913249389316e-01 -2.549097671909e+01 0.0 
0.0 0.0 -1.134190358232e+01 
-1.599434845903e+02 5.909973391814e+00 0.0 
5.909973391814e+00 -3.766633051912e+02 0.0 
0.0 0.0 -1.605820369345e+02 
-1.308933525807e+02 4.087286691874e+00 0.0 
4.087286691874e+00 -2.997849624654e+02 0.0 
0.0 0.0 -1.288034945138e+02 
-4.654991632136e+01 2.048478706530e-01 0.0 
2.048478706530e-01 -1.236884608498e+02 0.0 
0.0 0.0 -5.067151315135e+01 
-1.602198122463e+02 6.350191497594e+00 0.0 
6.350191497594e+00 -3.751795619080e+02 0.0 
0.0 0.0 -1.602198122463e+02 
-1.070588245349e+02 3.745848075535e+00 0.0 
3.745848075535e+00 -2.638051142876e+02 0.0 
0.0 0.0 -1.108591816468e+02 
-6.535885737870e+01 3.163241347515e+00 0.0 
3.163241347515e+00 -1.412307689192e+02 0.0 
0.0 0.0 -6.157688788938e+01 
-9.073796842565e+01 1.130718253357e+00 0.0 
1.130718253357e+00 -2.014663256200e+02 0.0 
0.0 0.0 -8.726128821370e+01 
-8.868548307457e+01 7.159287160609e+00 0.0 
7.159287160609e+00 -2.153643814670e+02 0.0 
0.0 0.0 -9.081495936248e+01 
-9.015560850712e+01 3.081770910945e+00 0.0 
3.081770910945e+00 -2.257915097100e+02 0.0 
0.0 0.0 -9.438413546513e+01 
-1.038209521463e+02 5.632881280654e+00 0.0 
5.632881280654e+00 -2.546037950273e+02 0.0 
0.0 0.0 -1.071274241521e+02 
-1.076617123269e+02 3.152523609556e+00 0.0 
3.152523609556e+00 -2.415203894214e+02 0.0 
0.0 0.0 -1.043546305245e+02 
-7.396096684658e+01 2.379246527930e+00 0.0 
2.379246527930e+00 -1.609472789628e+02 0.0 
0.0 0.0 -7.007247374281e+01 
-1.184839090433e+02 5.842201044931e+00 0.0 
5.842201044931e+00 -2.811068666537e+02 0.0 
0.0 0.0 -1.194772327091e+02 
-9.422212964624e+01 2.501644483646e-01 0.0 
2.501644483646e-01 -2.152612016847e+02 0.0 
0.0 0.0 -9.244499939929e+01 
-7.301661731489e+01 1.228879697933e+00 0.0 
1.228879697933e+00 -1.845412196122e+02 0.0 
0.0 0.0 -7.686735107812e+01 
-1.091799035062e+02 5.434386320761e+00 0.0 
5.434386320761e+00 -2.629576998695e+02 0.0 
0.0 0.0 -1.112412810127e+02 
-5.510084039526e+01 1.631129375462e+00 0.0 
1.631129375462e+00 -1.430247155343e+02 0.0 
0.0 0.0 -5.903766677886e+01 
-1.046916807551e+02 5.320564972883e-01 0.0 
5.320564972883e-01 -2.585788065571e+02 0.0 
0.0 0.0 -1.085811461936e+02 
-7.761958193377e+00 -2.734664267340e-01 0.0 
-2.734664267340e-01 -7.940046492111e+00 0.0 
0.0 0.0 -4.310601405646e+00 
-5.029687915640e+01 8.828405278084e+00 0.0 
8.828405278084e+00 -1.149468683566e+02 0.0 
0.0 0.0 -4.917312425390e+01 
-5.144967975280e+01 1.865635269007e+00 0.0 
1.865635269007e+00 -1.344530158424e+02 0.0 
0.0 0.0 -5.537080867858e+01 
-7.983927050669e+01 -1.852944796260e-01 0.0 
-1.852944796260e-01 -2.012488890547e+02 0.0 
0.0 0.0 -8.392644786843e+01 
-8.322145530569e+01 6.057816461471e+00 0.0 
6.057816461471e+00 -1.924802827369e+02 0.0 
0.0 0.0 -8.231052141277e+01 
-1.064541822875e+02 2.392475356439e+00 0.0 
2.392475356439e+00 -2.632631213210e+02 0.0 
0.0 0.0 -1.105151910825e+02 
-9.633744570363e+01 1.483755723615e+00 0.0 
1.483755723615e+00 -2.174419165543e+02 0.0 
0.0 0.0 -9.373380867738e+01 
-4.773161903846e+01 1.189140031692e+00 0.0 
1.189140031692e+00 -1.244081639787e+02 0.0 
0.0 0.0 -5.124193490516e+01 
-1.608551853783e+02 5.879278908544e+00 0.0 
5.879278908544e+00 -3.766620992161e+02 0.0 
0.0 0.0 -1.608551853783e+02 
-9.825756367376e+01 5.422743794714e+00 0.0 
5.422743794714e+00 -2.187179201187e+02 0.0 
0.0 0.0 -9.469264513772e+01 
-8.363224311007e+01 -2.269702227308e-01 0.0 
-2.269702227308e-01 -2.098075348848e+02 0.0 
0.0 0.0 -8.763193339846e+01 
-9.403000707600e+01 5.727988610778e+00 0.0 
5.727988610778e+00 -2.091074580416e+02 0.0 
0.0 0.0 -9.054123953529e+01 
-8.048700785301e+01 1.206619601951e+00 0.0 
1.206619601951e+00 -2.018202295089e+02 0.0 
0.0 0.0 -8.429217120856e+01 
-7.643789940423e+00 -3.068011959526e-01 0.0 
-3.068011959526e-01 -9.013108019163e+00 0.0 
0.0 0.0 -5.571315367125e+00 
-9.555707563258e+01 2.786078695262e+00 0.0 
2.786078695262e+00 -2.121790696017e+02 0.0 
0.0 0.0 -9.192084357029e+01 
-6.667732929993e+01 -8.546421827452e-01 0.0 
-8.546421827452e-01 -1.679121442277e+02 0.0 
0.0 0.0 -6.997684205829e+01 
-5.176119938995e+00 -2.202703066413e-01 0.0 
-2.202703066413e-01 -8.809851763416e+00 0.0 
0.0 0.0 -4.750466299370e+00 
-7.922143621310e+01 -4.934370857574e-01 0.0 
-4.934370857574e-01 -1.990012964363e+02 0.0 
0.0 0.0 -8.306681979481e+01 
-1.151528164766e+02 2.675782172511e+00 0.0 
2.675782172511e+00 -2.823500558560e+02 0.0 
0.0 0.0 -1.188508616998e+02 
-1.253784355116e+02 -4.541777641425e-02 0.0 
-4.541777641425e-02 -2.901426235766e+02 0.0 
0.0 0.0 -1.242563177265e+02 
-9.538798735081e+01 5.446029852433e+00 0.0 
5.446029852433e+00 -2.358581841911e+02 0.0 
0.0 0.0 -9.897385146256e+01 
-9.888795769391e+01 3.833318299411e+00 0.0 
3.833318299411e+00 -2.447450927214e+02 0.0 
0.0 0.0 -1.026899151246e+02 
-7.992201211194e+01 1.889815309162e+00 0.0 
1.889815309162e+00 -1.752146802165e+02 0.0 
0.0 0.0 -7.614100769854e+01 
-7.419492369816e+01 3.488745839965e-01 0.0 
3.488745839965e-01 -1.652249599427e+02 0.0 
0.0 0.0 -7.142596509225e+01 
-1.425580455116e+02 3.024711315313e+00 0.0 
3.024711315313e+00 -3.312026342302e+02 0.0 
0.0 0.0 -1.417282039225e+02 
-8.972815826229e+01 6.101410307293e+00 0.0 
6.101410307293e+00 -1.995944848421e+02 0.0 
0.0 0.0 -8.639679293133e+01 
-3.765642174620e+00 -1.495040843131e-01 0.0 
-1.495040843131e-01 -7.283594309553e+00 0.0 
0.0 0.0 -2.914770945252e+00 
-2.740194160225e+01 -1.484721532621e-01 0.0 
-1.484721532621e-01 -6.883936768529e+01 0.0 
0.0 0.0 -2.847239278626e+01 
-1.222161127078e+01 -6.752476419049e-01 0.0 
-6.752476419049e-01 -2.521674553343e+01 0.0 
0.0 0.0 -1.122502029866e+01 
-4.665027871519e+01 1.414039281221e-01 0.0 
1.414039281221e-01 -1.193513285004e+02 0.0 
0.0 0.0 -4.940048216468e+01 
-1.292863187414e+02 6.538712381749e+00 0.0 
6.538712381749e+00 -2.957287430465e+02 0.0 
0.0 0.0 -1.271045185364e+02 
-1.257342753011e+02 1.577941806692e+00 0.0 
1.577941806692e+00 -2.905720953568e+02 0.0 
0.0 0.0 -1.244919111974e+02 
-1.274720952017e+02 2.017978773014e+00 0.0 
2.017978773014e+00 -3.091222814714e+02 0.0 
0.0 0.0 -1.305783130019e+02 
-5.314869903446e+01 3.835519108309e-01 0.0 
3.835519108309e-01 -1.351788061045e+02 0.0 
0.0 0.0 -5.609825154169e+01 
-1.052274855462e+02 1.945716094404e+00 0.0 
1.945716094404e+00 -2.591316375478e+02 0.0 
0.0 0.0 -1.089077369282e+02 
-1.335847031296e+02 3.991895840433e+00 0.0 
3.991895840433e+00 -3.213321791503e+02 0.0 
0.0 0.0 -1.360750646840e+02 
-2.635423128652e+01 3.446611467491e+00 0.0 
3.446611467491e+00 -7.189269309507e+01 0.0 
0.0 0.0 -2.907407731448e+01 
-6.689167156007e+01 8.107964328271e-01 0.0 
8.107964328271e-01 -1.680467834519e+02 0.0 
0.0 0.0 -7.008153650358e+01 
-5.501521103682e+01 -8.209392537722e-01 0.0 
-8.209392537722e-01 -1.384970341794e+02 0.0 
0.0 0.0 -5.765367356487e+01 
-1.598999513102e+02 5.367716607960e+00 0.0 
5.367716607960e+00 -3.772646684655e+02 0.0 
0.0 0.0 -1.607493859327e+02 
-1.612663364256e+02 5.490652519928e+00 0.0 
5.490652519928e+00 -3.776214516598e+02 0.0 
0.0 0.0 -1.612663364256e+02 
-7.439785133795e+01 6.512651093423e-01 0.0 
6.512651093423e-01 -1.865181073266e+02 0.0 
0.0 0.0 -7.787478759936e+01 
-8.429282211121e+01 1.192176462126e+00 0.0 
1.192176462126e+00 -2.103976907056e+02 0.0 
0.0 0.0 -8.800715384505e+01 
-9.341392978573e+01 1.585529949692e+00 0.0 
1.585529949692e+00 -2.341392768246e+02 0.0 
0.0 0.0 -9.786596198310e+01 
-1.383420129251e+02 4.603328413375e+00 0.0 
4.603328413375e+00 -3.309901917749e+02 0.0 
0.0 0.0 -1.403996614100e+02 
-2.990415010325e+01 -1.468851634390e+00 0.0 
-1.468851634390e+00 -7.617969645734e+01 0.0 
0.0 0.0 -3.142515396818e+01 
-1.287711003708e+02 3.459653562019e+00 0.0 
3.459653562019e+00 -3.114425746611e+02 0.0 
0.0 0.0 -1.316641025096e+02 
-1.736049572470e+01 -5.442121728802e-01 0.0 
-5.442121728802e-01 -4.275166827140e+01 0.0 
0.0 0.0 -1.763364919883e+01 
-7.605114088976e+01 9.717645386869e-01 0.0 
9.717645386869e-01 -1.910703327152e+02 0.0 
0.0 0.0 -7.973644208149e+01 
-8.486648374149e+01 1.512190931361e+00 0.0 
1.512190931361e+00 -2.124418555933e+02 0.0 
0.0 0.0 -8.879250180044e+01 
-1.041189456574e+01 -2.850997563243e-01 0.0 
-2.850997563243e-01 -2.554449283176e+01 0.0 
0.0 0.0 -1.076751138902e+01 
-7.081170261938e+01 -7.664897428652e-01 0.0 
-7.664897428652e-01 -1.772176312874e+02 0.0 
0.0 0.0 -7.400880017204e+01 
-1.303791950030e+02 2.075094692480e+00 0.0 
2.075094692480e+00 -3.004079780844e+02 0.0 
0.0 0.0 -1.288361519262e+02 
-3.411074631918e+00 -1.425664587178e-01 0.0 
-1.425664587178e-01 -7.766230734687e+00 0.0 
0.0 0.0 -2.953191609981e+00 
-7.477438324801e+01 3.760017861253e-01 0.0 
3.760017861253e-01 -1.654955015894e+02 0.0 
0.0 0.0 -7.168096545122e+01 
-7.502215008428e+01 5.331639756856e-01 0.0 
5.331639756856e-01 -1.658043284789e+02 0.0 
0.0 0.0 -7.184794356894e+01 
-1.084591505122e+02 6.148305877306e+00 0.0 
6.148305877306e+00 -2.639123641062e+02 0.0 
0.0 0.0 -1.113114543855e+02 
-5.497359188220e+01 6.663174504929e-01 0.0 
6.663174504929e-01 -1.384008599986e+02 0.0 
0.0 0.0 -5.761233556423e+01 
-5.022235651027e+01 4.751340533366e-03 0.0 
4.751340533366e-03 -1.322348413334e+02 0.0 
0.0 0.0 -5.433715935310e+01 
-2.965373035408e+01 9.752059948092e+00 0.0 
9.752059948092e+00 -6.964113205985e+01 0.0 
0.0 0.0 -2.938845872418e+01 
-1.405208033925e+02 2.094006084636e+00 0.0 
2.094006084636e+00 -3.365567583467e+02 0.0 
0.0 0.0 -1.427232685218e+02 
-1.460998616974e+02 6.938602926521e+00 0.0 
6.938602926521e+00 -3.406433575952e+02 0.0 
0.0 0.0 -1.456229657878e+02 
-1.209364597518e+02 1.914257603860e+00 0.0 
1.914257603860e+00 -2.778833322367e+02 0.0 
0.0 0.0 -1.192459375965e+02 
-4.382395465640e+01 7.361736649872e+00 0.0 
7.361736649872e+00 -9.250409540722e+01 0.0 
0.0 0.0 -4.049841501909e+01 
-1.910236754364e+01 -1.655687105537e+00 0.0 
-1.655687105537e+00 -4.747774719125e+01 0.0 
0.0 0.0 -1.957403442047e+01 
-7.516664252136e+01 3.454104256024e+00 0.0 
3.454104256024e+00 -1.625051267771e+02 0.0 
0.0 0.0 -7.090153078955e+01 
-7.429130787500e+01 1.365133757120e-01 0.0 
1.365133757120e-01 -1.659740670208e+02 0.0 
0.0 0.0 -7.167961246874e+01 
-7.380603386402e+01 2.536784720163e-01 0.0 
2.536784720163e-01 -1.656959165778e+02 0.0 
0.0 0.0 -7.145058513254e+01 
-4.928627641806e+00 -1.917906728872e-01 0.0 
-1.917906728872e-01 -9.015614891355e+00 0.0 
0.0 0.0 -4.752160210588e+00 
-1.051378679356e+01 -3.184003266899e-01 0.0 
-3.184003266899e-01 -2.540949467794e+01 0.0 
0.0 0.0 -1.079831381140e+01 
-1.622179876345e+01 -4.491783918560e-03 0.0 
-4.491783918560e-03 -4.202901615397e+01 0.0 
0.0 0.0 -1.707524447523e+01 
-4.067272502356e+01 -1.322964854603e+00 0.0 
-1.322964854603e+00 -1.041582937793e+02 0.0 
0.0 0.0 -4.304930564086e+01 
-1.022422450289e+01 -2.018889078995e-01 0.0 
-2.018889078995e-01 -2.574330203606e+01 0.0 
0.0 0.0 -1.039025796168e+01 
-7.843673120800e+01 -6.941572431627e-01 0.0 
-6.941572431627e-01 -1.967119082990e+02 0.0 
0.0 0.0 -8.214459185209e+01 
-8.749630836500e+00 -3.642511951256e-01 0.0 
-3.642511951256e-01 -8.929177220755e+00 0.0 
0.0 0.0 -5.871977782329e+00 
-4.825769732639e+01 -1.169837201694e+00 0.0 
-1.169837201694e+00 -1.236355169800e+02 0.0 
0.0 0.0 -5.116796429191e+01 
-1.014753263509e+02 -3.036142047979e-02 0.0 
-3.036142047979e-02 -2.323130204627e+02 0.0 
0.0 0.0 -9.973650404407e+01 
-7.433249036305e+01 2.535059303064e-01 0.0 
2.535059303064e-01 -1.654279224090e+02 0.0 
0.0 0.0 -7.152812383162e+01 
-1.333401053365e+02 6.387356046800e+00 0.0 
6.387356046800e+00 -3.050672469925e+02 0.0 
0.0 0.0 -1.311222056987e+02 
-1.105193456494e+02 2.164004087254e+00 0.0 
2.164004087254e+00 -2.722677138703e+02 0.0 
0.0 0.0 -1.144361178559e+02 
-9.392701349747e+01 -1.802285028528e-01 0.0 
-1.802285028528e-01 -2.147079192207e+02 0.0 
0.0 0.0 -9.219047981545e+01 
-5.868774915164e+01 -7.830409712062e-01 0.0 
-7.830409712062e-01 -1.478139576327e+02 0.0 
0.0 0.0 -6.155051203529e+01 
-1.707478421994e+01 -2.064982772169e-01 0.0 
-2.064982772169e-01 -4.251307178649e+01 0.0 
0.0 0.0 -1.747635680193e+01 
-1.475302557438e+02 1.590754753679e+00 0.0 
1.590754753679e+00 -3.455705967355e+02 0.0 
0.0 0.0 -1.475302557438e+02 
-1.480914610723e+02 1.671595233382e+00 0.0 
1.671595233382e+00 -3.457831995159e+02 0.0 
0.0 0.0 -1.477623981765e+02 
-9.087326707750e+01 -3.096931223368e-01 0.0 
-3.096931223368e-01 -2.048886076298e+02 0.0 
0.0 0.0 -8.832856241219e+01 
-7.396027941947e+01 2.025559936939e-01 0.0 
2.025559936939e-01 -1.654550671260e+02 0.0 
0.0 0.0 -7.142460396365e+01 
-5.960663365120e+01 3.341336078860e-01 0.0 
3.341336078860e-01 -1.498279427205e+02 0.0 
0.0 0.0 -6.243037291150e+01 
-1.480922488281e+02 1.264792100953e+00 0.0 
1.264792100953e+00 -3.457094633216e+02 0.0 
0.0 0.0 -1.477405136449e+02 
-4.547599614933e+01 1.498705617912e-01 0.0 
1.498705617912e-01 -1.157412104413e+02 0.0 
0.0 0.0 -4.796516197720e+01 
-7.460296652354e+01 4.157019005023e-01 0.0 
4.157019005023e-01 -1.654003976761e+02 0.0 
0.0 0.0 -7.160100925989e+01 
-7.448526868280e+01 2.137186333363e-01 0.0 
2.137186333363e-01 -1.653618872587e+02 0.0 
0.0 0.0 -7.155414678246e+01 
-7.046554011277e+01 8.995844626788e-01 0.0 
8.995844626788e-01 -1.530310406054e+02 0.0 
0.0 0.0 -6.664897421544e+01 
-1.484406568940e+02 3.372029346041e+00 0.0 
3.372029346041e+00 -3.476948660860e+02 0.0 
0.0 0.0 -1.484406568940e+02 
-1.487243417952e+02 1.347696563621e+00 0.0 
1.347696563621e+00 -3.461714853021e+02 0.0 
0.0 0.0 -1.480687481292e+02 
-1.037326193791e+01 -2.756851482359e-01 0.0 
-2.756851482359e-01 -2.555340752888e+01 0.0 
0.0 0.0 -1.037800084004e+01 
-4.873010123286e+00 -1.192582753080e-01 0.0 
-1.192582753080e-01 -9.111479842424e+00 0.0 
0.0 0.0 -4.772601797010e+00 
-2.267129888200e+01 -1.426195308341e+00 0.0 
-1.426195308341e+00 -5.698810917188e+01 0.0 
0.0 0.0 -2.349782241616e+01 
-8.418531668400e+01 1.207178625951e-01 0.0 
1.207178625951e-01 -2.118565811305e+02 0.0 
0.0 0.0 -8.841256934436e+01 
-1.480049994183e+02 -5.827737364719e-01 0.0 
-5.827737364719e-01 -3.518378176558e+02 0.0 
0.0 0.0 -1.495528451222e+02 
-1.008656323547e+01 -1.719606479655e-01 0.0 
-1.719606479655e-01 -7.213397492709e+00 0.0 
0.0 0.0 -4.789988218454e+00 
-1.188284499782e+02 9.817825816573e-01 0.0 
9.817825816573e-01 -2.744784340152e+02 0.0 
0.0 0.0 -1.175920651980e+02 
-8.514541567067e+00 -3.507258663179e-01 0.0 
-3.507258663179e-01 -9.078765918792e+00 0.0 
0.0 0.0 -5.858942286493e+00 
-1.073892597494e+02 3.993796712632e+00 0.0 
3.993796712632e+00 -2.635786564054e+02 0.0 
0.0 0.0 -1.108903748464e+02 
-8.533104170041e+00 -3.725716621996e-01 0.0 
-3.725716621996e-01 -8.142656471828e+00 0.0 
0.0 0.0 -4.602728192561e+00 
-9.320708106503e+00 -3.043882461510e-01 0.0 
-3.043882461510e-01 -8.098941969110e+00 0.0 
0.0 0.0 -4.825895022684e+00 
-1.027323799655e+02 3.472589425390e+00 0.0 
3.472589425390e+00 -2.540071824196e+02 0.0 
0.0 0.0 -1.066218687155e+02 
-1.432288624951e+02 4.657321274662e-01 0.0 
4.657321274662e-01 -3.418635773739e+02 0.0 
0.0 0.0 -1.451277319607e+02 
-1.009758674188e+02 5.516685638299e-01 0.0 
5.516685638299e-01 -2.310102698592e+02 0.0 
0.0 0.0 -9.919584118341e+01 
-7.895047661713e+01 4.114579676946e+00 0.0 
4.114579676946e+00 -1.714810616830e+02 0.0 
0.0 0.0 -7.472946149004e+01 
-1.027078947107e+01 -1.263160153845e-01 0.0 
-1.263160153845e-01 -2.553408210069e+01 0.0 
0.0 0.0 -1.072395559603e+01 
-1.090882261989e+02 1.836763658055e+00 0.0 
1.836763658055e+00 -2.676674534662e+02 0.0 
0.0 0.0 -1.126267038995e+02 
-1.470422431871e+02 5.712358911302e-01 0.0 
5.712358911302e-01 -3.444319007698e+02 0.0 
0.0 0.0 -1.470422431871e+02 
-1.478674158489e+02 1.136943796060e+00 0.0 
1.136943796060e+00 -3.453984430897e+02 0.0 
0.0 0.0 -1.475797576816e+02 
-7.411501804908e+01 1.687740148477e-01 0.0 
1.687740148477e-01 -1.654071674386e+02 0.0 
0.0 0.0 -7.145665564630e+01 
-1.120845313922e+02 4.483877313028e+00 0.0 
4.483877313028e+00 -2.730487955904e+02 0.0 
0.0 0.0 -1.151399980948e+02 
-1.476269931920e+02 1.200208092969e+00 0.0 
1.200208092969e+00 -3.457963174479e+02 0.0 
0.0 0.0 -1.476269931920e+02 
-1.195425106334e+02 7.630319060175e+00 0.0 
7.630319060175e+00 -2.777503596007e+02 0.0 
0.0 0.0 -1.187878610702e+02 
-1.643271429918e+01 -3.354661823994e-01 0.0 
-3.354661823994e-01 -4.140545880372e+01 0.0 
0.0 0.0 -1.695145193087e+01 
-1.004601449032e+01 -1.312579214887e-01 0.0 
-1.312579214887e-01 -2.553770308709e+01 0.0 
0.0 0.0 -1.027511527322e+01 
-9.943161966533e+00 2.896590544482e-02 0.0 
2.896590544482e-02 -2.512580025919e+01 0.0 
0.0 0.0 -1.036195618175e+01 
-6.670717620898e+01 -7.486719577833e-01 0.0 
-7.486719577833e-01 -1.674077671817e+02 0.0 
0.0 0.0 -6.983448301721e+01 
-1.621044672163e+02 1.766547957299e+00 0.0 
1.766547957299e+00 -3.819449707058e+02 0.0 
0.0 0.0 -1.628148313766e+02 
-1.392672626774e+02 9.643228231704e-01 0.0 
9.643228231704e-01 -3.242099431104e+02 0.0 
0.0 0.0 -1.386431617363e+02 
-4.427850227336e+00 -7.685148394454e-04 0.0 
-7.685148394454e-04 -9.081716227814e+00 0.0 
0.0 0.0 -4.621548048216e+00 
-7.876787440066e+01 7.290099029833e-01 0.0 
7.290099029833e-01 -1.968567588266e+02 0.0 
0.0 0.0 -8.228738996817e+01 
-1.638705735472e+02 1.016659483707e+00 0.0 
1.016659483707e+00 -3.836980049436e+02 0.0 
0.0 0.0 -1.638705735472e+02 
-1.616058621994e+02 1.518763786035e+00 0.0 
1.518763786035e+00 -3.813020055423e+02 0.0 
0.0 0.0 -1.624723603225e+02 
-1.603895420904e+02 4.952382066264e+00 0.0 
4.952382066264e+00 -3.779752262984e+02 0.0 
0.0 0.0 -1.611094305166e+02 
-1.107326332085e+02 -7.866217360339e-01 0.0 
-7.866217360339e-01 -2.550675765700e+02 0.0 
0.0 0.0 -1.093400629335e+02 
-1.231275915195e+02 8.868289120157e-01 0.0 
8.868289120157e-01 -2.846614693600e+02 0.0 
0.0 0.0 -1.219367182638e+02 
-1.630011086017e+02 1.424851822645e+00 0.0 
1.424851822645e+00 -3.816692534040e+02 0.0 
0.0 0.0 -1.630011086017e+02 
-1.632485789083e+02 1.914790880250e+00 0.0 
1.914790880250e+00 -3.822466841193e+02 0.0 
0.0 0.0 -1.632485789083e+02 
-1.189895792803e+02 -6.098471940918e-01 0.0 
-6.098471940918e-01 -2.746276581307e+02 0.0 
0.0 0.0 -1.176851712233e+02 
-2.703443756443e+00 -2.895958136423e-01 0.0 
-2.895958136423e-01 -6.780526597920e+00 0.0 
0.0 0.0 -2.445191106309e+00 
-7.331419416434e+01 6.292850308478e-02 0.0 
6.292850308478e-02 -1.649264596088e+02 0.0 
0.0 0.0 -7.107219613194e+01 
-7.399195612495e+01 3.616875315633e-02 0.0 
3.616875315633e-02 -1.657476431632e+02 0.0 
0.0 0.0 -7.152187978643e+01 
-4.659975348087e+00 -5.657252730842e-02 0.0 
-5.657252730842e-02 -9.080524036189e+00 0.0 
0.0 0.0 -4.698301557634e+00 
-1.630581871729e+02 3.116629554664e+00 0.0 
3.116629554664e+00 -3.818024367368e+02 0.0 
0.0 0.0 -1.630581871729e+02 
-1.601239958708e+02 4.347708350752e+00 0.0 
4.347708350752e+00 -3.782081469284e+02 0.0 
0.0 0.0 -1.610996428398e+02 
-1.618734593141e+02 4.028364406499e+00 0.0 
4.028364406499e+00 -3.790380717329e+02 0.0 
0.0 0.0 -1.618734593141e+02 
-2.940109191265e+00 -3.078477656916e-02 0.0 
-3.078477656916e-02 -7.889921193790e+00 0.0 
0.0 0.0 -2.849009115516e+00 
-3.111193088341e+00 -1.397448442874e-01 0.0 
-1.397448442874e-01 -7.991703696506e+00 0.0 
0.0 0.0 -2.930869035454e+00 
-1.615015841190e+02 4.989574265322e+00 0.0 
4.989574265322e+00 -3.781703629442e+02 0.0 
0.0 0.0 -1.615015841190e+02 
-1.617852968492e+02 4.590559908326e+00 0.0 
4.590559908326e+00 -3.788323593149e+02 0.0 
0.0 0.0 -1.617852968492e+02 
-1.064412746960e+02 9.406000001553e-01 0.0 
9.406000001553e-01 -2.451614676763e+02 0.0 
0.0 0.0 -1.050808227117e+02 
-7.285358524741e+01 -1.118661092558e-01 0.0 
-1.118661092558e-01 -1.645736149150e+02 0.0 
0.0 0.0 -7.082816004872e+01 
-1.150004453920e+02 9.272140345737e-01 0.0 
9.272140345737e-01 -2.649189962721e+02 0.0 
0.0 0.0 -1.135758324992e+02 
-8.999098713653e+01 9.050168329929e-01 0.0 
9.050168329929e-01 -2.058570048588e+02 0.0 
0.0 0.0 -8.835439759859e+01 
-7.300628068069e+01 -4.857084727279e-02 0.0 
-4.857084727279e-02 -1.646644821566e+02 0.0 
0.0 0.0 -7.090122885119e+01 
-4.284456310023e+00 -2.924751032757e-01 0.0 
-2.924751032757e-01 -7.535261112569e+00 0.0 
0.0 0.0 -3.145915226778e+00 
-5.465858880379e+00 -5.667829252418e-02 0.0 
-5.667829252418e-02 -8.249684314559e+00 0.0 
0.0 0.0 -3.714662958481e+00 
-5.863148624533e+00 -1.874759957705e-01 0.0 
-1.874759957705e-01 -7.808397706967e+00 0.0 
0.0 0.0 -3.701463899450e+00 
-6.429221013264e+00 -2.151453331358e-01 0.0 
-2.151453331358e-01 -7.939030244497e+00 0.0 
0.0 0.0 -3.910475377328e+00 
-8.284540398989e+01 -8.893155109278e-01 0.0 
-8.893155109278e-01 -2.068574984590e+02 0.0 
0.0 0.0 -8.651087073466e+01 
-7.475768410047e+01 -7.759522925040e-01 0.0 
-7.759522925040e-01 -1.870363467377e+02 0.0 
0.0 0.0 -7.813820925145e+01 
-6.238051756564e+00 -2.225408442695e-01 0.0 
-2.225408442695e-01 -9.041937035044e+00 0.0 
0.0 0.0 -5.161024108418e+00 
-1.079228004533e+02 -8.289976462990e-01 0.0 
-8.289976462990e-01 -2.646222984232e+02 0.0 
0.0 0.0 -1.113635296630e+02 
-6.825137481539e+00 -2.935394636185e-01 0.0 
-2.935394636185e-01 -9.006424036286e+00 0.0 
0.0 0.0 -5.321307628120e+00 
-1.478752997436e+02 2.593858513305e+00 0.0 
2.593858513305e+00 -3.463756994017e+02 0.0 
0.0 0.0 -1.478752997436e+02 
-1.473311318709e+02 9.948337133398e-01 0.0 
9.948337133398e-01 -3.451059743654e+02 0.0 
0.0 0.0 -1.473311318709e+02 
-1.474998917334e+02 1.792464307814e+00 0.0 
1.792464307814e+00 -3.454997473778e+02 0.0 
0.0 0.0 -1.474998917334e+02 
-2.723656513139e+01 -9.374003584988e-01 0.0 
-9.374003584988e-01 -6.864132166334e+01 0.0 
0.0 0.0 -2.836336603842e+01 
-5.087478493726e+01 -8.011800308881e-01 0.0 
-8.011800308881e-01 -1.281424034213e+02 0.0 
0.0 0.0 -5.330515650757e+01 
-1.470602898694e+02 8.472832535853e-01 0.0 
8.472832535853e-01 -3.444740096954e+02 0.0 
0.0 0.0 -1.470602898695e+02 
-1.346033758210e+02 -7.037587317366e-01 0.0 
-7.037587317366e-01 -3.233412471928e+02 0.0 
0.0 0.0 -1.369833869042e+02 
-1.479191950216e+02 7.378913140980e-01 0.0 
7.378913140980e-01 -3.464781217172e+02 0.0 
0.0 0.0 -1.479191950216e+02 
-1.436732537292e+02 -7.518189565566e-01 0.0 
-7.518189565566e-01 -3.427951606732e+02 0.0 
0.0 0.0 -1.455405243207e+02 
-1.529541768082e+02 -8.507579232055e-01 0.0 
-8.507579232055e-01 -3.622263573262e+02 0.0 
0.0 0.0 -1.541541602403e+02 
-7.071351206759e+01 7.686899636992e-01 0.0 
7.686899636992e-01 -1.771763659766e+02 0.0 
0.0 0.0 -7.396696341324e+01 
-1.476446283089e+02 1.076824992032e+00 0.0 
1.076824992032e+00 -3.449707585089e+02 0.0 
0.0 0.0 -1.473846160453e+02 
-1.477227574174e+02 3.015100649677e-01 0.0 
3.015100649677e-01 -3.453774156146e+02 0.0 
0.0 0.0 -1.475300519096e+02 
-1.387465552542e+02 1.064604665964e+00 0.0 
1.064604665964e+00 -3.320765942445e+02 0.0 
0.0 0.0 -1.408469448496e+02 
-1.481138292381e+02 1.094297559905e+00 0.0 
1.094297559905e+00 -3.520200464461e+02 0.0 
0.0 0.0 -1.496401627052e+02 
-1.168995404848e+02 1.531784364709e+00 0.0 
1.531784364709e+00 -2.847193258839e+02 0.0 
0.0 0.0 -1.200856599106e+02 
-8.085610826330e+00 -3.441282361858e-01 0.0 
-3.441282361858e-01 -9.001826036419e+00 0.0 
0.0 0.0 -5.702707241704e+00 
-7.150346525453e+01 8.201372827326e-01 0.0 
8.201372827326e-01 -1.802017683904e+02 0.0 
0.0 0.0 -7.511157009348e+01 
-1.045119681184e+01 -2.008904277203e-01 0.0 
-2.008904277203e-01 -2.527524313275e+01 0.0 
0.0 0.0 -1.031793198338e+01 
-1.408528463769e+02 3.424041953748e+00 0.0 
3.424041953748e+00 -3.368908271234e+02 0.0 
0.0 0.0 -1.429231020501e+02 
-7.550091233054e+01 -4.435893022101e-01 0.0 
-4.435893022101e-01 -1.905301858975e+02 0.0 
0.0 0.0 -7.940932946841e+01 
-1.301961113633e+02 5.886215334984e-01 0.0 
5.886215334984e-01 -3.141752877740e+02 0.0 
0.0 0.0 -1.329114197412e+02 
-3.788328207259e+01 -1.625481729078e-02 0.0 
-1.625481729078e-02 -9.625600252070e+01 0.0 
0.0 0.0 -3.984178537799e+01 
-1.681245560257e+01 -9.031274389506e-01 0.0 
-9.031274389506e-01 -4.141454368678e+01 0.0 
0.0 0.0 -1.706809978680e+01 
-1.393313884294e+02 2.151085942587e+00 0.0 
2.151085942587e+00 -3.335654659737e+02 0.0 
0.0 0.0 -1.414690563209e+02 
-7.993339899184e+01 9.915149933670e-01 0.0 
9.915149933670e-01 -1.996442290591e+02 0.0 
0.0 0.0 -8.347328841528e+01 
-6.245507428872e+01 -8.182534112916e-01 0.0 
-8.182534112916e-01 -1.576916320644e+02 0.0 
0.0 0.0 -6.564401190593e+01 
-1.304984830427e+02 2.012730028204e+00 0.0 
2.012730028204e+00 -3.146271463792e+02 0.0 
0.0 0.0 -1.331376888266e+02 
-1.303100641522e+02 -4.225032687036e-01 0.0 
-4.225032687036e-01 -3.023042586362e+02 0.0 
0.0 0.0 -1.293842968365e+02 
-6.277390878757e+01 7.399794435570e-01 0.0 
7.399794435570e-01 -1.577861319653e+02 0.0 
0.0 0.0 -6.576801222586e+01 
-1.203585356216e+02 4.610551763815e+00 0.0 
4.610551763815e+00 -2.927923218760e+02 0.0 
0.0 0.0 -1.235452572493e+02 
-1.053277335126e+02 1.053266405252e+00 0.0 
1.053266405252e+00 -2.604837633525e+02 0.0 
0.0 0.0 -1.093434490595e+02 
-1.165337262245e+02 7.866055916876e-02 0.0 
7.866055916876e-02 -2.842434830763e+02 0.0 
0.0 0.0 -1.198331627903e+02 
-1.205451446733e+02 -3.061061417532e-02 0.0 
-3.061061417532e-02 -2.930160462447e+02 0.0 
0.0 0.0 -1.236683572754e+02 
-5.961488846607e+01 5.693695207309e+00 0.0 
5.693695207309e+00 -1.511220267514e+02 0.0 
0.0 0.0 -6.282107456523e+01 
-7.101521187894e+01 3.703730600144e+00 0.0 
3.703730600144e+00 -1.527261214305e+02 0.0 
0.0 0.0 -6.672239999285e+01 
-7.960177141743e+01 7.738142836196e+00 0.0 
7.738142836196e+00 -1.823528828825e+02 0.0 
0.0 0.0 -7.818639628999e+01 
-1.086213330825e+02 3.936446655279e-01 0.0 
3.936446655279e-01 -2.671511089444e+02 0.0 
0.0 0.0 -1.123317326081e+02 
-1.345259851852e+02 1.847084924138e+00 0.0 
1.847084924138e+00 -3.232956992864e+02 0.0 
0.0 0.0 -1.369465053415e+02 
-1.246264524976e+02 -2.547955769762e-01 0.0 
-2.547955769762e-01 -3.019298671403e+02 0.0 
0.0 0.0 -1.275668958914e+02 
-3.849635581972e+01 -1.251821688763e+00 0.0 
-1.251821688763e+00 -9.971613074455e+01 0.0 
0.0 0.0 -4.106374596928e+01 
-1.300437244837e+02 -2.366896607072e-01 0.0 
-2.366896607072e-01 -3.011684378559e+02 0.0 
0.0 0.0 -1.289636487019e+02 
-1.216562716749e+02 -2.825339448194e-01 0.0 
-2.825339448194e-01 -2.812562541298e+02 0.0 
0.0 0.0 -1.204737577414e+02 
-8.425764104120e+01 -7.781409911203e-01 0.0 
-7.781409911203e-01 -1.913055502025e+02 0.0 
0.0 0.0 -8.226895737312e+01 
-1.133074919888e+02 7.458106862664e-01 0.0 
7.458106862664e-01 -2.777955958583e+02 0.0 
0.0 0.0 -1.169309263541e+02 
-1.125759186841e+02 2.468776812532e-01 0.0 
2.468776812532e-01 -2.757221699047e+02 0.0 
0.0 0.0 -1.160894265767e+02 
-1.305627232655e+02 1.256326808883e+00 0.0 
1.256326808883e+00 -3.030902133573e+02 0.0 
0.0 0.0 -1.296958809868e+02 
-1.260536627096e+02 -2.646763889978e-01 0.0 
-2.646763889978e-01 -2.919580505593e+02 0.0 
0.0 0.0 -1.250035139807e+02 
-1.019923008305e+02 2.578971359701e+00 0.0 
2.578971359701e+00 -2.523347788245e+02 0.0 
0.0 0.0 -1.058981238965e+02 
-1.434796074239e+02 1.911966919506e+00 0.0 
1.911966919506e+00 -3.421565368689e+02 0.0 
0.0 0.0 -1.452908432878e+02 
-1.204097900723e+02 2.966051376763e-01 0.0 
2.966051376763e-01 -2.773865028694e+02 0.0 
0.0 0.0 -1.189388878825e+02 
-1.248049542924e+02 1.148835154783e+00 0.0 
1.148835154783e+00 -3.020044810927e+02 0.0 
0.0 0.0 -1.276428306155e+02 
-1.454827584681e+02 3.357364881734e+00 0.0 
3.357364881734e+00 -3.465358859390e+02 0.0 
0.0 0.0 -1.472055933221e+02 
-1.301658482763e+02 1.524924628539e+00 0.0 
1.524924628539e+00 -3.016380911274e+02 0.0 
0.0 0.0 -1.291411818211e+02 
-1.095816421772e+02 1.367650250748e+00 0.0 
1.367650250748e+00 -2.511626117592e+02 0.0 
0.0 0.0 -1.078232761809e+02 
-1.157272170747e+02 4.051961300766e+00 0.0 
4.051961300766e+00 -2.828916840078e+02 0.0 
0.0 0.0 -1.191856703248e+02 
-3.909800169125e+01 -1.122617364970e+00 0.0 
-1.122617364970e+00 -9.914994926531e+01 0.0 
0.0 0.0 -4.107438528697e+01 
-3.538729830940e+01 -1.192917300552e+00 0.0 
-1.192917300552e+00 -9.191245200849e+01 0.0 
0.0 0.0 -3.778992509537e+01 
-1.950948792568e+01 6.766275742420e-03 0.0 
6.766275742420e-03 -4.797474707669e+01 0.0 
0.0 0.0 -1.984527050071e+01 
-1.375515365114e+01 -7.463168327628e-01 0.0 
-7.463168327628e-01 -2.556067380309e+01 0.0 
0.0 0.0 -1.139474823627e+01 
-1.263749173093e+02 1.331863682564e+00 0.0 
1.331863682564e+00 -2.923171943371e+02 0.0 
0.0 0.0 -1.252076334939e+02 
-1.383615988698e+02 1.099223632368e-01 0.0 
1.099223632368e-01 -3.313626044330e+02 0.0 
0.0 0.0 -1.405172609908e+02 
-1.319716049582e+01 -7.512647949595e-01 0.0 
-7.512647949595e-01 -2.518313968346e+01 0.0 
0.0 0.0 -1.111409005378e+01 
-1.308464165292e+02 4.774075198356e+00 0.0 
4.774075198356e+00 -2.987266684106e+02 0.0 
0.0 0.0 -1.284719254819e+02 
-8.842712091260e+01 -6.118457112787e-01 0.0 
-6.118457112787e-01 -2.003609354904e+02 0.0 
0.0 0.0 -8.623641692091e+01 
-1.265623223969e+02 2.235584716140e+00 0.0 
2.235584716140e+00 -3.061367876648e+02 0.0 
0.0 0.0 -1.294097330185e+02 
-1.293193346273e+02 3.502395534411e-02 0.0 
3.502395534411e-02 -3.121116283608e+02 0.0 
0.0 0.0 -1.320292888964e+02 
-5.375052079406e+01 -1.079368099139e-01 0.0 
-1.079368099139e-01 -1.404286586688e+02 0.0 
0.0 0.0 -5.785375383887e+01 
-1.295493007008e+02 1.510599950984e+00 0.0 
1.510599950984e+00 -3.125130025540e+02 0.0 
0.0 0.0 -1.322186909764e+02 
-8.452888193145e+01 1.264257601466e+00 0.0 
1.264257601466e+00 -1.913569848622e+02 0.0 
0.0 0.0 -8.236576003808e+01 
-1.139168241815e+02 7.189490986281e+00 0.0 
7.189490986281e+00 -2.723798460850e+02 0.0 
0.0 0.0 -1.154890010800e+02 
-1.497055770505e+02 1.430529055976e+00 0.0 
1.430529055976e+00 -3.553327439373e+02 0.0 
0.0 0.0 -1.511114962964e+02 
-3.782215273184e+01 -7.610211848352e-01 0.0 
-7.610211848352e-01 -9.583546125660e+01 0.0 
0.0 0.0 -3.969728419653e+01 
-1.457333036721e+02 3.873189448142e+00 0.0 
3.873189448142e+00 -3.474018431580e+02 0.0 
0.0 0.0 -1.475405440490e+02 
-1.139828498358e+02 1.248680181195e+00 0.0 
1.248680181195e+00 -2.620163822324e+02 0.0 
0.0 0.0 -1.123997696204e+02 
-4.249498179303e+01 -1.067584220484e+00 0.0 
-1.067584220484e+00 -1.076281285374e+02 0.0 
0.0 0.0 -4.463693309914e+01 
-4.350180854907e+01 1.963519479179e-01 0.0 
1.963519479179e-01 -1.116605295167e+02 0.0 
0.0 0.0 -4.614870141973e+01 
-9.051754504652e+01 -5.514700770738e-01 0.0 
-5.514700770738e-01 -2.248558331684e+02 0.0 
0.0 0.0 -9.421201346448e+01 
-1.003573919274e+02 -2.846680481815e-01 0.0 
-2.846680481815e-01 -2.292456260957e+02 0.0 
0.0 0.0 -9.848090540692e+01 
-5.957206257270e+01 -8.774586128812e-01 0.0 
-8.774586128812e-01 -1.516059331180e+02 0.0 
0.0 0.0 -6.295339870722e+01 
-1.183296837362e+02 1.245966055406e+00 0.0 
1.245966055406e+00 -2.727694720706e+02 0.0 
0.0 0.0 -1.169297467421e+02 
-1.056675667852e+02 1.292103517687e+00 0.0 
1.292103517687e+00 -2.418124409884e+02 0.0 
0.0 0.0 -1.038440023321e+02 
-8.744652065941e+01 -2.410932810793e-01 0.0 
-2.410932810793e-01 -2.184193523611e+02 0.0 
0.0 0.0 -9.135976190614e+01 
-1.206769472335e+02 1.355406664028e+00 0.0 
1.355406664028e+00 -2.932134952112e+02 0.0 
0.0 0.0 -1.237671327334e+02 
-1.256189811436e+02 1.712231764457e+00 0.0 
1.712231764457e+00 -3.040173680026e+02 0.0 
0.0 0.0 -1.284909047439e+02 
-1.134584549821e+02 -4.154526403589e-01 0.0 
-4.154526403589e-01 -2.614551615238e+02 0.0 
0.0 0.0 -1.120740849518e+02 
-3.292317061458e+01 8.715974851781e-02 0.0 
8.715974851781e-02 -8.301525232626e+01 0.0 
0.0 0.0 -3.438152688225e+01 
-8.301914371945e+01 -4.405573948012e-01 0.0 
-4.405573948012e-01 -2.076967742195e+02 0.0 
0.0 0.0 -8.681477538169e+01 
-1.313563434311e+02 6.142451103054e+00 0.0 
6.142451103054e+00 -3.094124385312e+02 0.0 
0.0 0.0 -1.318306345887e+02 
-1.177276227292e+02 1.458230894533e+00 0.0 
1.458230894533e+00 -2.709060103725e+02 0.0 
0.0 0.0 -1.161900899305e+02 
-7.476254402230e+01 -7.202467860627e-01 0.0 
-7.202467860627e-01 -1.879762478198e+02 0.0 
0.0 0.0 -7.842163755265e+01 
-1.059374740491e+02 2.445106241586e+00 0.0 
2.445106241586e+00 -2.610616464827e+02 0.0 
0.0 0.0 -1.096997361595e+02 
-1.418083244708e+02 4.231706719010e+00 0.0 
4.231706719010e+00 -3.389269111345e+02 0.0 
0.0 0.0 -1.438205706816e+02 
-1.093097414922e+02 -2.589084359677e-01 0.0 
-2.589084359677e-01 -2.507754805317e+02 0.0 
0.0 0.0 -1.076255666072e+02 
-1.806364756404e+01 1.177549228268e+00 0.0 
1.177549228268e+00 -4.473153275443e+01 0.0 
0.0 0.0 -1.843855409554e+01 
-1.885875305461e+01 9.736745009547e-02 0.0 
9.736745009547e-02 -4.665147604078e+01 0.0 
0.0 0.0 -1.925306872862e+01 
-3.283009484616e+01 4.371222250491e+00 0.0 
4.371222250491e+00 -8.947424133759e+01 0.0 
0.0 0.0 -3.629130085513e+01 
-1.342452627045e+02 3.317369277781e-01 0.0 
3.317369277781e-01 -3.228490176758e+02 0.0 
0.0 0.0 -1.367282841141e+02 
-1.047718320268e+02 -2.494897324280e-01 0.0 
-2.494897324280e-01 -2.400018037308e+02 0.0 
0.0 0.0 -1.030320907273e+02 
-9.924656383083e+01 1.092222848209e+00 0.0 
1.092222848209e+00 -2.444956054303e+02 0.0 
0.0 0.0 -1.027226507783e+02 
-9.226628120181e+01 -3.908799519315e-01 0.0 
-3.908799519315e-01 -2.097155814600e+02 0.0 
0.0 0.0 -9.019455879855e+01 
-1.340293606213e+02 5.420777499588e+00 0.0 
5.420777499588e+00 -3.218172101416e+02 0.0 
0.0 0.0 -1.363539712289e+02 
-9.123066198436e+01 -2.900977321975e-01 0.0 
-2.900977321975e-01 -2.269875856145e+02 0.0 
0.0 0.0 -9.506547427966e+01 
-1.253580042182e+02 2.308935100653e-01 0.0 
2.308935100653e-01 -3.035818391831e+02 0.0 
0.0 0.0 -1.282819530204e+02 
-3.953704658899e+01 3.025700571609e-01 0.0 
3.025700571609e-01 -9.966622073931e+01 0.0 
0.0 0.0 -4.136098019849e+01 
-1.451484639038e+02 1.661227775145e+00 0.0 
1.661227775145e+00 -3.464934080306e+02 0.0 
0.0 0.0 -1.470925615803e+02 
-8.797672754478e+01 1.187937513947e+00 0.0 
1.187937513947e+00 -2.189663320025e+02 0.0 
0.0 0.0 -9.168291786418e+01 
-4.280461553668e+01 4.658283349153e-01 0.0 
4.658283349153e-01 -1.081007889152e+02 0.0 
0.0 0.0 -4.487162133556e+01 
-8.349169477215e+01 1.060337231983e+00 0.0 
1.060337231983e+00 -2.082480828410e+02 0.0 
0.0 0.0 -8.712193328393e+01 
-6.319199062018e+01 -7.990003279228e-01 0.0 
-7.990003279228e-01 -1.601453297953e+02 0.0 
0.0 0.0 -6.660119612465e+01 
-4.892139709715e+01 2.467119165962e-01 0.0 
2.467119165962e-01 -1.242335656842e+02 0.0 
0.0 0.0 -5.154648883440e+01 
-9.874964764822e+01 -4.269276039373e-01 0.0 
-4.269276039373e-01 -2.438650099177e+02 0.0 
0.0 0.0 -1.023843972698e+02 
-5.863340951916e+00 -2.006671429694e-01 0.0 
-2.006671429694e-01 -9.332370729168e+00 0.0 
0.0 0.0 -5.154382731048e+00 
-6.476475605719e+00 -2.441930071694e-01 0.0 
-2.441930071694e-01 -9.541587309215e+00 0.0 
0.0 0.0 -5.415426608486e+00 
-1.129705005443e+02 1.700338676985e+00 0.0 
1.700338676985e+00 -2.762090740247e+02 0.0 
0.0 0.0 -1.163538723707e+02 
-3.634013628568e+01 1.466503607354e-01 0.0 
1.466503607354e-01 -9.149935070704e+01 0.0 
0.0 0.0 -3.795184609781e+01 
-1.138095067215e+02 2.185685745466e+00 0.0 
2.185685745466e+00 -2.783250905599e+02 0.0 
0.0 0.0 -1.172403791844e+02 
-1.098787357227e+02 2.311691213464e+00 0.0 
2.311691213464e+00 -2.697323636083e+02 0.0 
0.0 0.0 -1.134833297993e+02 
-6.799932114704e+01 -4.366915361115e-01 0.0 
-4.366915361115e-01 -1.732422988371e+02 0.0 
0.0 0.0 -7.197248599524e+01 
-4.283490550411e+01 -4.122119434435e-01 0.0 
-4.122119434435e-01 -1.132789664304e+02 0.0 
0.0 0.0 -4.643416158034e+01 
-1.252183619351e+02 1.886750886600e+00 0.0 
1.886750886600e+00 -2.887026871451e+02 0.0 
0.0 0.0 -1.237763147241e+02 
-1.555423857867e+01 4.418585258730e+00 0.0 
4.418585258730e+00 -4.425994975799e+01 0.0 
0.0 0.0 -1.754425650100e+01 
-6.680973432380e+01 -7.011003375961e-01 0.0 
-7.011003375961e-01 -1.688681313883e+02 0.0 
0.0 0.0 -7.030335971363e+01 
-1.385356725816e+02 5.861935892245e+00 0.0 
5.861935892245e+00 -3.309078329149e+02 0.0 
0.0 0.0 -1.404330516489e+02 
-3.131966217566e+01 -1.160698473961e+00 0.0 
-1.160698473961e+00 -7.904020902357e+01 0.0 
0.0 0.0 -3.270796135977e+01 
-9.699526054446e+01 1.188515816279e+00 0.0 
1.188515816279e+00 -2.208160545511e+02 0.0 
0.0 0.0 -9.494339452868e+01 
-8.872187543031e+01 1.163340356237e+00 0.0 
1.163340356237e+00 -2.008259584979e+02 0.0 
0.0 0.0 -8.646435017846e+01 
-3.047745351961e+01 -1.201293467261e-01 0.0 
-1.201293467261e-01 -7.674809400271e+01 0.0 
0.0 0.0 -3.176766425670e+01 
-1.375373849381e+02 4.395788340775e+00 0.0 
4.395788340775e+00 -3.299212786980e+02 0.0 
0.0 0.0 -1.398375990908e+02 
-1.128877410735e+02 1.740888052839e+00 0.0 
1.740888052839e+00 -2.582444847069e+02 0.0 
0.0 0.0 -1.109396677341e+02 
-3.580408914040e+01 -1.164505525056e+00 0.0 
-1.164505525056e+00 -9.089590480067e+01 0.0 
0.0 0.0 -3.760999818232e+01 
-1.288231835255e+02 2.041717238319e+00 0.0 
2.041717238319e+00 -2.973160205452e+02 0.0 
0.0 0.0 -1.274417612212e+02 
-1.281987323737e+02 5.690603670614e-01 0.0 
5.690603670614e-01 -2.967223197319e+02 0.0 
0.0 0.0 -1.270763156317e+02 
-4.041408002198e+01 2.342878921755e-01 0.0 
2.342878921755e-01 -1.021372640269e+02 0.0 
0.0 0.0 -4.236540321465e+01 
-4.825590048698e+01 6.688386801732e+00 0.0 
6.688386801732e+00 -1.013620761277e+02 0.0 
0.0 0.0 -4.448539298440e+01 
-4.127535588723e+01 7.972716494985e-02 0.0 
7.972716494985e-02 -1.047270549153e+02 0.0 
0.0 0.0 -4.340072324077e+01 
-1.217385998021e+02 1.875230650522e+00 0.0 
1.875230650522e+00 -2.954676863320e+02 0.0 
0.0 0.0 -1.247618858402e+02 
-9.500318566294e+01 -3.579291195032e-01 0.0 
-3.579291195032e-01 -2.355259165631e+02 0.0 
0.0 0.0 -9.875873066780e+01 
-1.299875440373e+02 2.537802966590e+00 0.0 
2.537802966590e+00 -2.990190753017e+02 0.0 
0.0 0.0 -1.283019858017e+02 
-1.247069176218e+02 2.422559319684e-01 0.0 
2.422559319684e-01 -2.882087407213e+02 0.0 
0.0 0.0 -1.234746975029e+02 
-1.177645789745e+02 2.037238270884e+00 0.0 
2.037238270884e+00 -2.869142206415e+02 0.0 
0.0 0.0 -1.210036398848e+02 
-1.173187042115e+02 5.877407564178e-01 0.0 
5.877407564178e-01 -2.864074583591e+02 0.0 
0.0 0.0 -1.207178487712e+02 
-3.321579490648e+01 -1.419916845512e+00 0.0 
-1.419916845512e+00 -8.468717356165e+01 0.0 
0.0 0.0 -3.497089054044e+01 
-1.213366477158e+02 4.136865674257e-01 0.0 
4.136865674257e-01 -2.949769585884e+02 0.0 
0.0 0.0 -1.244940818913e+02 
-1.123484269403e+02 9.743072740940e-02 0.0 
9.743072740940e-02 -2.577403014292e+02 0.0 
0.0 0.0 -1.106266185109e+02 
-9.543193355773e+01 1.070635780430e+00 0.0 
1.070635780430e+00 -2.360245201092e+02 0.0 
0.0 0.0 -9.903693610008e+01 
-1.052256144119e+02 1.364306233703e+00 0.0 
1.364306233703e+00 -2.404636801877e+02 0.0 
0.0 0.0 -1.033067883799e+02 
-1.171851410613e+02 1.716047118928e+00 0.0 
1.716047118928e+00 -2.690098488543e+02 0.0 
0.0 0.0 -1.154584969747e+02 
-8.068086517448e+01 5.876682958504e+00 0.0 
5.876682958504e+00 -1.964479022711e+02 0.0 
0.0 0.0 -8.273863023369e+01 
-1.209992593113e+02 2.114769674925e-02 0.0 
2.114769674925e-02 -2.793277914959e+02 0.0 
0.0 0.0 -1.196981152422e+02 
-7.884023699468e+01 -6.763993412169e-01 0.0 
-6.763993412169e-01 -1.977816767644e+02 0.0 
0.0 0.0 -8.258657412771e+01 
-9.165083711975e+01 1.161073762256e+00 0.0 
1.161073762256e+00 -2.274923497209e+02 0.0 
0.0 0.0 -9.534295605219e+01 
-5.899395608309e+01 -1.053120191538e+00 0.0 
-1.053120191538e+00 -1.495297132925e+02 0.0 
0.0 0.0 -6.215710081269e+01 
-6.153979528286e+01 8.651989977492e-01 0.0 
8.651989977492e-01 -1.569631432134e+02 0.0 
0.0 0.0 -6.515088154889e+01 
-1.085573942308e+02 -9.710418232168e-02 0.0 
-9.710418232168e-02 -2.488649594421e+02 0.0 
0.0 0.0 -1.068267061019e+02 
-8.583031654054e+01 2.527110939044e+00 0.0 
2.527110939044e+00 -2.157280937994e+02 0.0 
0.0 0.0 -9.006752310199e+01 
-4.469914280911e+01 2.008997188081e-01 0.0 
2.008997188081e-01 -1.132300414898e+02 0.0 
0.0 0.0 -4.697875528967e+01 
-2.311631474023e+01 -2.305798886780e-01 0.0 
-2.305798886780e-01 -5.739191965472e+01 0.0 
0.0 0.0 -2.375247031848e+01 
-1.090842812396e+02 1.529968428140e+00 0.0 
1.529968428140e+00 -2.493609735806e+02 0.0 
0.0 0.0 -1.071335764460e+02 
-4.410245989147e+01 -1.241264014663e+00 0.0 
-1.241264014663e+00 -1.126572503855e+02 0.0 
0.0 0.0 -4.662791308309e+01 
-1.457748559934e+02 2.483223748940e+00 0.0 
2.483223748940e+00 -3.472203931574e+02 0.0 
0.0 0.0 -1.474985747452e+02 
-1.129613767828e+02 -1.165936744893e-01 0.0 
-1.165936744893e-01 -2.596443567075e+02 0.0 
0.0 0.0 -1.113817200471e+02 
-1.261583261955e+02 7.763587467487e-01 0.0 
7.763587467487e-01 -3.056484060301e+02 0.0 
0.0 0.0 -1.291420196677e+02 
-1.515209157151e+02 6.542793798725e+00 0.0 
6.542793798725e+00 -3.568679791549e+02 0.0 
0.0 0.0 -1.521166684610e+02 
-7.534622810575e+01 9.217022784244e-01 0.0 
9.217022784244e-01 -1.887151405650e+02 0.0 
0.0 0.0 -7.881841060124e+01 
-3.990165480456e+01 -1.263422282145e+00 0.0 
-1.263422282145e+00 -1.015890791370e+02 0.0 
0.0 0.0 -4.204722018247e+01 
-2.579812309647e+01 -1.489941138373e+00 0.0 
-1.489941138373e+00 -6.500544900696e+01 0.0 
0.0 0.0 -2.684107163103e+01 
-1.185297360345e+02 2.573941435577e+00 0.0 
2.573941435577e+00 -2.888823203399e+02 0.0 
0.0 0.0 -1.218236169123e+02 
-1.010398753586e+02 -4.176730323027e-01 0.0 
-4.176730323027e-01 -2.311921706615e+02 0.0 
0.0 0.0 -9.926961380604e+01 
-1.891381682566e+01 -1.276844523822e+00 0.0 
-1.276844523822e+00 -4.619201103128e+01 0.0 
0.0 0.0 -1.913174835708e+01 
-6.029864466822e+01 5.447189269078e-01 0.0 
5.447189269078e-01 -1.522266398870e+02 0.0 
0.0 0.0 -6.335758536657e+01 
-3.546650279262e+01 3.485485369781e-01 0.0 
3.485485369781e-01 -8.890397935865e+01 0.0 
0.0 0.0 -3.691114464538e+01 
-1.009205789185e+02 1.317537684156e+00 0.0 
1.317537684156e+00 -2.297507752099e+02 0.0 
0.0 0.0 -9.880140623853e+01 
-6.401776469522e+01 6.695612164414e-01 0.0 
6.695612164414e-01 -1.608171091145e+02 0.0 
0.0 0.0 -6.705046214293e+01 
-1.093195130795e+02 9.040613733265e-01 0.0 
9.040613733265e-01 -2.691761661978e+02 0.0 
0.0 0.0 -1.131487037832e+02 
-5.928409407739e+01 5.789255041238e-01 0.0 
5.789255041238e-01 -1.498969544915e+02 0.0 
0.0 0.0 -6.235431457067e+01 
-1.220503974139e+02 1.431055956317e+00 0.0 
1.431055956317e+00 -2.817436578211e+02 0.0 
0.0 0.0 -1.207382165705e+02 
-5.179666908529e+01 -1.093513391056e+00 0.0 
-1.093513391056e+00 -1.321872793314e+02 0.0 
0.0 0.0 -5.479518452500e+01 
-1.191994867454e+02 3.174090275567e+00 0.0 
3.174090275567e+00 -2.905643666280e+02 0.0 
0.0 0.0 -1.225291560120e+02 
-3.626800150830e+01 -3.388538860813e-02 0.0 
-3.388538860813e-02 -9.254551368639e+01 0.0 
0.0 0.0 -3.824405455841e+01 
-1.145216499974e+02 2.730076232077e+00 0.0 
2.730076232077e+00 -2.801835327291e+02 0.0 
0.0 0.0 -1.180115548180e+02 
-8.731309542129e+01 8.610353332552e-01 0.0 
8.610353332552e-01 -2.172348591651e+02 0.0 
0.0 0.0 -9.096438637592e+01 
-1.220814844548e+02 9.602249803721e-01 0.0 
9.602249803721e-01 -2.970220701970e+02 0.0 
0.0 0.0 -1.253310663955e+02 
-5.449738106330e+01 3.351501795419e+00 0.0 
3.351501795419e+00 -1.438051711357e+02 0.0 
0.0 0.0 -5.909076565971e+01 
-3.475497319358e+01 -1.131908997580e+00 0.0 
-1.131908997580e+00 -8.807087623672e+01 0.0 
0.0 0.0 -3.644775482909e+01 
-9.326980776858e+01 1.066020211753e+00 0.0 
1.066020211753e+00 -2.118655340064e+02 0.0 
0.0 0.0 -9.114060253248e+01 
-1.077404002241e+02 5.319978436517e+00 0.0 
5.319978436517e+00 -2.640098433302e+02 0.0 
0.0 0.0 -1.111250730663e+02 
-7.288142274327e+01 4.738776452223e+00 0.0 
4.738776452223e+00 -1.613673750174e+02 0.0 
0.0 0.0 -6.987463932822e+01 
-1.013487511830e+02 1.252270839157e+00 0.0 
1.252270839157e+00 -2.314024960726e+02 0.0 
0.0 0.0 -9.942537417670e+01 
-4.009138531964e+01 2.461982081723e-01 0.0 
2.461982081723e-01 -1.033000287442e+02 0.0 
0.0 0.0 -4.261742421914e+01 
-1.037602348182e+02 1.260085833811e-01 0.0 
1.260085833811e-01 -2.363732246467e+02 0.0 
0.0 0.0 -1.016400378395e+02 
-3.159639696814e+01 3.125755092723e-01 0.0 
3.125755092723e-01 -7.995747933801e+01 0.0 
0.0 0.0 -3.306616289185e+01 
-1.369331974206e+02 3.746793352439e+00 0.0 
3.746793352439e+00 -3.287770792435e+02 0.0 
0.0 0.0 -1.393130829992e+02 
-1.123736859765e+02 5.839306956775e+00 0.0 
5.839306956775e+00 -2.734624246979e+02 0.0 
0.0 0.0 -1.153508332023e+02 
-1.185912641277e+02 7.424247799791e+00 0.0 
7.424247799791e+00 -2.814668696764e+02 0.0 
0.0 0.0 -1.196174401412e+02 
-1.332251821484e+02 2.048034426898e+00 0.0 
2.048034426898e+00 -3.087098933411e+02 0.0 
0.0 0.0 -1.321805226468e+02 
-9.410250741039e+01 2.883592178960e+00 0.0 
2.883592178960e+00 -2.347109032320e+02 0.0 
0.0 0.0 -9.824402319271e+01 
-3.241322766980e+01 -1.316134286178e+00 0.0 
-1.316134286178e+00 -8.236224781398e+01 0.0 
0.0 0.0 -3.403264264514e+01 
-1.065257852541e+02 3.039884208190e+00 0.0 
3.039884208190e+00 -2.626264916877e+02 0.0 
0.0 0.0 -1.103456830826e+02 
-1.413093807361e+02 2.726124289184e+00 0.0 
2.726124289184e+00 -3.383815724044e+02 0.0 
0.0 0.0 -1.435072859422e+02 
-5.129418826781e+01 1.056211158083e+00 0.0 
1.056211158083e+00 -1.329092201318e+02 0.0 
0.0 0.0 -5.486102251987e+01 
-1.225461260489e+02 2.415305403269e+00 0.0 
2.415305403269e+00 -2.975366211394e+02 0.0 
0.0 0.0 -1.256248241565e+02 
-1.133879285829e+02 1.523337895102e+00 0.0 
1.523337895102e+00 -2.601002245304e+02 0.0 
0.0 0.0 -1.116464459340e+02 
-3.928886521822e+01 -2.461391150300e-01 0.0 
-2.461391150300e-01 -1.047860392768e+02 0.0 
0.0 0.0 -4.282247134849e+01 
-1.105230808126e+02 2.882202470363e+00 0.0 
2.882202470363e+00 -2.714375107960e+02 0.0 
0.0 0.0 -1.141881774826e+02 
-9.227076915639e+01 1.320152373284e+00 0.0 
1.320152373284e+00 -2.082674709316e+02 0.0 
0.0 0.0 -8.976147202641e+01 
-4.726305384677e+01 3.823259899890e-01 0.0 
3.823259899890e-01 -1.192559402355e+02 0.0 
0.0 0.0 -4.955569822468e+01 
-5.669629969499e+01 4.596809852139e-01 0.0 
4.596809852139e-01 -1.436915427858e+02 0.0 
0.0 0.0 -5.971635274423e+01 
-8.876200806295e+01 6.978650287824e+00 0.0 
6.978650287824e+00 -2.002378622288e+02 0.0 
0.0 0.0 -8.629996108754e+01 
-1.180111520865e+02 1.140299164934e+00 0.0 
1.140299164934e+00 -2.883466284201e+02 0.0 
0.0 0.0 -1.215073341520e+02 
-6.603689489051e+01 5.439080706114e+00 0.0 
5.439080706114e+00 -1.419767048778e+02 0.0 
0.0 0.0 -6.200407993050e+01 
-8.423937520962e+01 7.360245077693e+00 0.0 
7.360245077693e+00 -1.912309947050e+02 0.0 
0.0 0.0 -8.224111097439e+01 
-1.080497797314e+02 1.128841700613e-01 0.0 
1.128841700613e-01 -2.470325895452e+02 0.0 
0.0 0.0 -1.061247107830e+02 
-9.656124288866e+01 -4.581843922508e-01 0.0 
-4.581843922508e-01 -2.203578764340e+02 0.0 
0.0 0.0 -9.467573579681e+01 
-9.562153544882e+01 -1.064676680233e-01 0.0 
-1.064676680233e-01 -2.168376074182e+02 0.0 
0.0 0.0 -9.333774286010e+01 
-8.690518358200e+01 -3.888844222804e-01 0.0 
-3.888844222804e-01 -2.166717296215e+02 0.0 
0.0 0.0 -9.067307396104e+01 
-1.334132583563e+02 4.644238055074e+00 0.0 
4.644238055074e+00 -3.210217858798e+02 0.0 
0.0 0.0 -1.359305132708e+02 
-1.025306013366e+02 3.217449682274e+00 0.0 
3.217449682274e+00 -2.537441189162e+02 0.0 
0.0 0.0 -1.064824160758e+02 
-9.255876619102e+01 1.130615432614e+00 0.0 
1.130615432614e+00 -2.100890628583e+02 0.0 
0.0 0.0 -9.039434871481e+01 
-1.352121772073e+02 5.556326019828e+00 0.0 
5.556326019828e+00 -3.095338039375e+02 0.0 
0.0 0.0 -1.330237943434e+02 
-1.232102988582e+02 7.644459491135e+00 0.0 
7.644459491135e+00 -2.904831000818e+02 0.0 
0.0 0.0 -1.237080196820e+02 
-1.139600345776e+02 1.311490433398e+00 0.0 
1.311490433398e+00 -2.796327185995e+02 0.0 
0.0 0.0 -1.176778259531e+02 
-1.166798701609e+02 7.742871401106e-02 0.0 
7.742871401106e-02 -2.685205334951e+02 0.0 
0.0 0.0 -1.151601210968e+02 
-6.510982432941e+01 9.123528118016e-01 0.0 
9.123528118016e-01 -1.653103454624e+02 0.0 
0.0 0.0 -6.872605093753e+01 
-6.090484294029e+01 6.502273711369e-01 0.0 
6.502273711369e-01 -1.545434160837e+02 0.0 
0.0 0.0 -6.423447770721e+01 
-3.360510267136e+01 -4.347061097299e-03 0.0 
-4.347061097299e-03 -8.516395922301e+01 0.0 
0.0 0.0 -3.523071856831e+01 
-1.111023000331e+02 3.532249275369e+00 0.0 
3.532249275369e+00 -2.728117387455e+02 0.0 
0.0 0.0 -1.147742116336e+02 
-6.451867584411e+01 7.125514471209e-01 0.0 
7.125514471209e-01 -1.630961371422e+02 0.0 
0.0 0.0 -6.788444389590e+01 
-1.047762915050e+02 1.547808647571e+00 0.0 
1.547808647571e+00 -2.385951863692e+02 0.0 
0.0 0.0 -1.026114433622e+02 
-1.004796063150e+02 1.561589567318e+00 0.0 
1.561589567318e+00 -2.278955998370e+02 0.0 
0.0 0.0 -9.811256184558e+01 
-8.405462098795e+01 6.750958493338e+00 0.0 
6.750958493338e+00 -2.067244433577e+02 0.0 
0.0 0.0 -8.683371930371e+01 
-5.239444942829e+01 -9.727039125711e-01 0.0 
-9.727039125711e-01 -1.345794880766e+02 0.0 
0.0 0.0 -5.569218125148e+01 
-5.152580793933e+01 5.725269261093e+00 0.0 
5.725269261093e+00 -1.329549384812e+02 0.0 
0.0 0.0 -5.494422392615e+01 
-5.596442044488e+01 -9.341657121257e-01 0.0 
-9.341657121257e-01 -1.430721788674e+02 0.0 
0.0 0.0 -5.931097979367e+01 
-6.012669700606e+01 -7.116578625828e-01 0.0 
-7.116578625828e-01 -1.539128666231e+02 0.0 
0.0 0.0 -6.381186908874e+01 
-3.653894560027e+01 -1.355804693214e+00 0.0 
-1.355804693214e+00 -9.317228780930e+01 0.0 
0.0 0.0 -3.851337002287e+01 
-1.292532523612e+02 4.908133876109e+00 0.0 
4.908133876109e+00 -3.119482428554e+02 0.0 
0.0 0.0 -1.319604485650e+02 
-7.267985513588e+01 4.389604883887e-01 0.0 
4.389604883887e-01 -1.859010695636e+02 0.0 
0.0 0.0 -7.717427740985e+01 
-1.214736168219e+02 1.666706397098e+00 0.0 
1.666706397098e+00 -2.798064638772e+02 0.0 
0.0 0.0 -1.199840242097e+02 
-7.691340428099e+01 9.525625394756e-01 0.0 
9.525625394756e-01 -1.962311833977e+02 0.0 
0.0 0.0 -8.154337630361e+01 
-1.059083250204e+02 1.671181191100e+00 0.0 
1.671181191100e+00 -2.620657822272e+02 0.0 
0.0 0.0 -1.099922321743e+02 
-8.898190298615e+01 1.078028855846e+00 0.0 
1.078028855846e+00 -2.239037905581e+02 0.0 
0.0 0.0 -9.346570806328e+01 
-8.287167740202e+01 7.859107251420e+00 0.0 
7.859107251420e+00 -1.927213351141e+02 0.0 
0.0 0.0 -8.227790375483e+01 
-3.707354454074e+01 5.696315206037e-02 0.0 
5.696315206037e-02 -9.373273636555e+01 0.0 
0.0 0.0 -3.884188427189e+01 
-1.369743718365e+02 3.021936185089e+00 0.0 
3.021936185089e+00 -3.293199972132e+02 0.0 
0.0 0.0 -1.394883107149e+02 
-1.427844499922e+02 5.068493199890e+00 0.0 
5.068493199890e+00 -3.411042532853e+02 0.0 
0.0 0.0 -1.447666109832e+02 
-1.085734710312e+02 4.971251100387e+00 0.0 
4.971251100387e+00 -2.472696029741e+02 0.0 
0.0 0.0 -1.063529222016e+02 
-6.427347696333e+01 -4.259154207095e-01 0.0 
-4.259154207095e-01 -1.646601840732e+02 0.0 
0.0 0.0 -6.828009831096e+01 
-9.737297487040e+01 1.382536287217e+00 0.0 
1.382536287217e+00 -2.429746267955e+02 0.0 
0.0 0.0 -1.017042804998e+02 
-1.042010304865e+02 -1.196555580239e-01 0.0 
-1.196555580239e-01 -2.380736537266e+02 0.0 
0.0 0.0 -1.022824052639e+02 
-6.876835181201e+01 9.357336590254e-01 0.0 
9.357336590254e-01 -1.738694105466e+02 0.0 
0.0 0.0 -7.239132870759e+01 
-6.853031174825e+01 7.489992011759e+00 0.0 
7.489992011759e+00 -1.529882977480e+02 0.0 
0.0 0.0 -6.605558284889e+01 
-5.236612012093e+01 3.502751283364e-01 0.0 
3.502751283364e-01 -1.327477780167e+02 0.0 
0.0 0.0 -5.513416944127e+01 
-4.395162710677e+01 6.295476055029e-01 0.0 
6.295476055029e-01 -1.139822637283e+02 0.0 
0.0 0.0 -4.698016725053e+01 
-6.930682220859e+01 1.248444786339e+00 0.0 
1.248444786339e+00 -1.759711261505e+02 0.0 
0.0 0.0 -7.318338450773e+01 
-4.755848776310e+01 -1.132349938721e+00 0.0 
-1.132349938721e+00 -1.211753277863e+02 0.0 
0.0 0.0 -5.022014466481e+01 
-4.382930851062e+01 3.171069599202e-01 0.0 
3.171069599202e-01 -1.106869294708e+02 0.0 
0.0 0.0 -4.595487139444e+01 
-8.971479147274e+01 2.385002661636e+00 0.0 
2.385002661636e+00 -2.245012900512e+02 0.0 
0.0 0.0 -9.386482445717e+01 
-1.099287546968e+02 1.482857344972e+00 0.0 
1.482857344972e+00 -2.708784265532e+02 0.0 
0.0 0.0 -1.138421543750e+02 
-1.281532116797e+02 5.330112029282e+00 0.0 
5.330112029282e+00 -2.950943304194e+02 0.0 
0.0 0.0 -1.265742626297e+02 
-5.094546855758e+00 -4.007447703424e-01 0.0 
-4.007447703424e-01 -8.986420626020e+00 0.0 
0.0 0.0 -3.824290244533e+00 
-7.351526719477e+01 2.149397292784e+00 0.0 
2.149397292784e+00 -1.886368545988e+02 0.0 
0.0 0.0 -7.824563653808e+01 
-7.309436924973e+01 1.189264960492e+00 0.0 
1.189264960492e+00 -1.875416712032e+02 0.0 
0.0 0.0 -7.779081213588e+01 
-6.844931744971e+01 -3.420077477904e-02 0.0 
-3.420077477904e-02 -1.753421877119e+02 0.0 
0.0 0.0 -7.273745154848e+01 
-9.989831030575e+01 -1.092796272928e-01 0.0 
-1.092796272928e-01 -2.273739542709e+02 0.0 
0.0 0.0 -9.778167937299e+01 
-8.074238598877e+01 7.574162120309e-01 0.0 
7.574162120309e-01 -2.048631909702e+02 0.0 
0.0 0.0 -8.528167308770e+01 
-5.536127930012e+01 -1.040435682097e+00 0.0 
-1.040435682097e+00 -1.407675888604e+02 0.0 
0.0 0.0 -5.843866044817e+01 
-7.352535937224e+01 1.658747137755e+00 0.0 
1.658747137755e+00 -1.865271161629e+02 0.0 
0.0 0.0 -7.761574266053e+01 
-1.172270365765e+02 -1.689983523453e-01 0.0 
-1.689983523453e-01 -2.704228336880e+02 0.0 
0.0 0.0 -1.158949610793e+02 
-5.575408592245e+01 4.491144627805e-01 0.0 
4.491144627805e-01 -1.412650180670e+02 0.0 
0.0 0.0 -5.870573119683e+01 
-2.178069666952e+01 -1.259053628552e+00 0.0 
-1.259053628552e+00 -5.419151324963e+01 0.0 
0.0 0.0 -2.239166297574e+01 
-2.913181647151e+01 -1.348512336891e+00 0.0 
-1.348512336891e+00 -7.386877903130e+01 0.0 
0.0 0.0 -3.050017865084e+01 
-4.638451362728e+01 -5.281037386323e-01 0.0 
-5.281037386323e-01 -1.217127626714e+02 0.0 
0.0 0.0 -5.002918288960e+01 
-5.652688634011e+01 -7.039465960341e-01 0.0 
-7.039465960341e-01 -1.455006325145e+02 0.0 
0.0 0.0 -6.020825565637e+01 
-7.733568517515e+01 1.791342129022e+00 0.0 
1.791342129022e+00 -1.975132954299e+02 0.0 
0.0 0.0 -8.205469418152e+01 
-7.774020523389e+01 2.146134960136e+00 0.0 
2.146134960136e+00 -1.968613096276e+02 0.0 
0.0 0.0 -8.198045445844e+01 
-3.279154933606e+01 4.314416093952e-02 0.0 
4.314416093952e-02 -8.374564712204e+01 0.0 
0.0 0.0 -3.456115893743e+01 
-2.922378907968e+01 7.916180334793e-02 0.0 
7.916180334793e-02 -7.420808286635e+01 0.0 
0.0 0.0 -3.062956158381e+01 
-9.544174889378e+01 1.872967774809e+00 0.0 
1.872967774809e+00 -2.149445859175e+02 0.0 
0.0 0.0 -9.271590044340e+01 
-4.811406646760e+01 3.454177314926e-01 0.0 
3.454177314926e-01 -1.217332589452e+02 0.0 
0.0 0.0 -5.055419762384e+01 
-1.239824477611e+02 2.957667320309e+00 0.0 
2.957667320309e+00 -3.014278617360e+02 0.0 
0.0 0.0 -1.272230928491e+02 
-1.241732310998e+02 5.390449013725e+00 0.0 
5.390449013725e+00 -2.858463909140e+02 0.0 
0.0 0.0 -1.226058866041e+02 
-9.939329279455e+01 3.255960768887e+00 0.0 
3.255960768887e+00 -2.209995753550e+02 0.0 
0.0 0.0 -9.571786044486e+01 
-1.236185810212e+02 8.838836863041e-01 0.0 
8.838836863041e-01 -2.845273716289e+02 0.0 
0.0 0.0 -1.220437857950e+02 
-1.321855393938e+02 5.220174562339e+00 0.0 
5.220174562339e+00 -3.044281219735e+02 0.0 
0.0 0.0 -1.305840984102e+02 
-8.039446702309e+01 7.214306755865e+00 0.0 
7.214306755865e+00 -1.966133438231e+02 0.0 
0.0 0.0 -8.270234325386e+01 
-1.163689508089e+02 5.158769859589e+00 0.0 
5.158769859589e+00 -2.665207032694e+02 0.0 
0.0 0.0 -1.144668962235e+02 
-3.680874977094e+01 2.149600805757e-01 0.0 
2.149600805757e-01 -9.491653501078e+01 0.0 
0.0 0.0 -3.911758543452e+01 
-7.726723539864e+01 1.597521773782e+00 0.0 
1.597521773782e+00 -1.950839682839e+02 0.0 
0.0 0.0 -8.130536110476e+01 
-7.393666953936e+01 6.465576680115e+00 0.0 
6.465576680115e+00 -1.757747361681e+02 0.0 
0.0 0.0 -7.451342171225e+01 
-3.928320962206e+01 9.615256522380e-01 0.0 
9.615256522380e-01 -1.068225035634e+02 0.0 
0.0 0.0 -4.343171395564e+01 
-2.991854329231e+01 -8.254419969609e-02 0.0 
-8.254419969609e-02 -7.584064203682e+01 0.0 
0.0 0.0 -3.132775559874e+01 
-6.379295959199e+01 -6.922742826651e-01 0.0 
-6.922742826651e-01 -1.624811712151e+02 0.0 
0.0 0.0 -6.748223924213e+01 
-7.393421323828e+01 2.312855791822e+00 0.0 
2.312855791822e+00 -1.881741105594e+02 0.0 
0.0 0.0 -7.823249713930e+01 
-7.809484228081e+01 2.923370629842e+00 0.0 
2.923370629842e+00 -1.980942148163e+02 0.0 
0.0 0.0 -8.245671712912e+01 
-5.101305312109e+01 -1.001603686777e+00 0.0 
-1.001603686777e+00 -1.297074269796e+02 0.0 
0.0 0.0 -5.381614403021e+01 
-8.507029449479e+01 1.274017003427e+00 0.0 
1.274017003427e+00 -2.151316189161e+02 0.0 
0.0 0.0 -8.966057402327e+01 
-7.424586222087e+01 3.199499387673e+00 0.0 
3.199499387673e+00 -1.892057790274e+02 0.0 
0.0 0.0 -7.863549237447e+01 
-7.782509404487e+01 2.830594495756e+00 0.0 
2.830594495756e+00 -1.982234665304e+02 0.0 
0.0 0.0 -8.241456817257e+01 
-5.736357720341e+01 5.849767869767e-01 0.0 
5.849767869767e-01 -1.461298049584e+02 0.0 
0.0 0.0 -6.064801464855e+01 
-1.131220137562e+02 6.602577891407e+00 0.0 
6.602577891407e+00 -2.731413664633e+02 0.0 
0.0 0.0 -1.154790140659e+02 
-1.086082808716e+02 1.771925909324e+00 0.0 
1.771925909324e+00 -2.475445155793e+02 0.0 
0.0 0.0 -1.064458389353e+02 
-7.406695177413e+01 3.285894469189e+00 0.0 
3.285894469189e+00 -1.891312808104e+02 0.0 
0.0 0.0 -7.855946977535e+01 
-1.329304422769e+02 3.236149719130e+00 0.0 
3.236149719130e+00 -3.205117209262e+02 0.0 
0.0 0.0 -1.356326489609e+02 
-4.050173890339e+01 7.063454104051e-01 0.0 
7.063454104051e-01 -1.055047834441e+02 0.0 
0.0 0.0 -4.340195670424e+01 
-1.428059761602e+02 4.316091365718e+00 0.0 
4.316091365718e+00 -3.410242919336e+02 0.0 
0.0 0.0 -1.447490804282e+02 
-8.117507901586e+01 1.501743494896e+00 0.0 
1.501743494896e+00 -2.062955331620e+02 0.0 
0.0 0.0 -8.584118365336e+01 
-1.369136198242e+02 4.969097868596e+00 0.0 
4.969097868596e+00 -3.155881769080e+02 0.0 
0.0 0.0 -1.353505390197e+02 
-1.024367533187e+02 5.156211257514e+00 0.0 
5.156211257514e+00 -2.284295133168e+02 0.0 
0.0 0.0 -9.885987999067e+01 
-3.911797276613e+01 -8.967931771400e-01 0.0 
-8.967931771400e-01 -1.026364005011e+02 0.0 
0.0 0.0 -4.212631198018e+01 
-1.031643901323e+02 3.751144198690e+00 0.0 
3.751144198690e+00 -2.298791953324e+02 0.0 
0.0 0.0 -9.951307563942e+01 
-1.268970820393e+02 1.602495562958e+00 0.0 
1.602495562958e+00 -2.917607895127e+02 0.0 
0.0 0.0 -1.251973614656e+02 
-8.551877341150e+01 2.099199994505e+00 0.0 
2.099199994505e+00 -2.162216816787e+02 0.0 
0.0 0.0 -9.012213652706e+01 
-5.822637850554e+01 8.578566545568e+00 0.0 
8.578566545568e+00 -1.339924339155e+02 0.0 
0.0 0.0 -5.726564372632e+01 
-1.069205994778e+02 4.260781927002e+00 0.0 
4.260781927002e+00 -2.388945523604e+02 0.0 
0.0 0.0 -1.033445455514e+02 
-8.078577032190e+01 4.878458790680e+00 0.0 
4.878458790680e+00 -1.805898671651e+02 0.0 
0.0 0.0 -7.801269124611e+01 
-3.199491085582e+01 -1.227490948430e+00 0.0 
-1.227490948430e+00 -8.311158194819e+01 0.0 
0.0 0.0 -3.413194784120e+01 
-1.396401713169e+02 1.257247340966e+00 0.0 
1.257247340966e+00 -3.242638636483e+02 0.0 
0.0 0.0 -1.387712104895e+02 
-2.825246892912e+01 -1.423517231906e+00 0.0 
-1.423517231906e+00 -7.251005776358e+01 0.0 
0.0 0.0 -2.982875800781e+01 
-1.397561523108e+02 7.796292645708e+00 0.0 
7.796292645708e+00 -3.297781833370e+02 0.0 
0.0 0.0 -1.404603006943e+02 
-1.288998157534e+02 1.746943531589e-01 0.0 
1.746943531589e-01 -2.988425125779e+02 0.0 
0.0 0.0 -1.279226984994e+02 
-1.170599715729e+02 6.334731868525e+00 0.0 
6.334731868525e+00 -2.828589410845e+02 0.0 
0.0 0.0 -1.195756737972e+02 
-9.594228345407e+01 -3.741399558605e-01 0.0 
-3.741399558605e-01 -2.182957414296e+02 0.0 
0.0 0.0 -9.387140746511e+01 
-1.204989372120e+02 2.261754894828e+00 0.0 
2.261754894828e+00 -2.761626246170e+02 0.0 
0.0 0.0 -1.185984685487e+02 
-7.842122326732e+01 3.893899497707e+00 0.0 
3.893899497707e+00 -1.987232332386e+02 0.0 
0.0 0.0 -8.274333695177e+01 
-9.238426580596e+01 6.767247010620e+00 0.0 
6.767247010620e+00 -2.254651539742e+02 0.0 
0.0 0.0 -9.495482593405e+01 
-1.316336848948e+02 1.096094369729e+00 0.0 
1.096094369729e+00 -3.040936125104e+02 0.0 
0.0 0.0 -1.303181892216e+02 
-1.186441292754e+02 1.752175242591e+00 0.0 
1.752175242591e+00 -2.900119765501e+02 0.0 
0.0 0.0 -1.221968317476e+02 
-1.124828900429e+02 2.012939128769e+00 0.0 
2.012939128769e+00 -2.565186379146e+02 0.0 
0.0 0.0 -1.103004583872e+02 
-1.113669708400e+02 3.665267452014e+00 0.0 
3.665267452014e+00 -2.730724960783e+02 0.0 
0.0 0.0 -1.149318400755e+02 
-3.569189121022e+01 -8.020461737355e-01 0.0 
-8.020461737355e-01 -9.421432450504e+01 0.0 
0.0 0.0 -3.857186471458e+01 
-1.163472791969e+02 2.301305196555e+00 0.0 
2.301305196555e+00 -2.654645331728e+02 0.0 
0.0 0.0 -1.141435437109e+02 
-1.473061824562e+02 7.409317639580e+00 0.0 
7.409317639580e+00 -3.417174189601e+02 0.0 
0.0 0.0 -1.463070804249e+02 
-1.423503942819e+02 3.445728884158e+00 0.0 
3.445728884158e+00 -3.404053162156e+02 0.0 
0.0 0.0 -1.444267131492e+02 
-7.646345168367e+01 2.997931477214e-01 0.0 
2.997931477214e-01 -1.944599945619e+02 0.0 
0.0 0.0 -8.087703387368e+01 
-9.649808707321e+01 1.378353712691e+00 0.0 
1.378353712691e+00 -2.187661394278e+02 0.0 
0.0 0.0 -9.417926795030e+01 
-9.159693667701e+01 -3.826207853400e-01 0.0 
-3.826207853400e-01 -2.077013571502e+02 0.0 
0.0 0.0 -8.938948814816e+01 
-8.193402351548e+01 2.713276425373e+00 0.0 
2.713276425373e+00 -2.068835221723e+02 0.0 
0.0 0.0 -8.624526370632e+01 
-1.145757174996e+02 1.946258321545e+00 0.0 
1.946258321545e+00 -2.811723483837e+02 0.0 
0.0 0.0 -1.183244197650e+02 
-1.192652408508e+02 2.437717883316e+00 0.0 
2.437717883316e+00 -2.913528213973e+02 0.0 
0.0 0.0 -1.227854186744e+02 
-2.622371037800e+01 1.963654433565e-02 0.0 
1.963654433565e-02 -6.552547387166e+01 0.0 
0.0 0.0 -2.712475527490e+01 
-4.349423737657e+01 5.677020361951e+00 0.0 
5.677020361951e+00 -1.149279147653e+02 0.0 
0.0 0.0 -4.712664564255e+01 
-7.854587940398e+01 3.960275852649e+00 0.0 
3.960275852649e+00 -1.983854197313e+02 0.0 
0.0 0.0 -8.267938974059e+01 
-7.457986434718e+01 4.310557513682e+00 0.0 
4.310557513682e+00 -1.895944326380e+02 0.0 
0.0 0.0 -7.885228909554e+01 
-7.983735609131e+01 5.792824571195e+00 0.0 
5.792824571195e+00 -1.820411907067e+02 0.0 
0.0 0.0 -7.816356403940e+01 
-1.363352933723e+02 2.613283898199e+00 0.0 
2.613283898199e+00 -3.150721313021e+02 0.0 
0.0 0.0 -1.350222274023e+02 
-1.298112285067e+02 3.143120678634e+00 0.0 
3.143120678634e+00 -2.980155685712e+02 0.0 
0.0 0.0 -1.279480391234e+02 
-1.293425603423e+02 1.766190806384e+00 0.0 
1.766190806384e+00 -2.992097200477e+02 0.0 
0.0 0.0 -1.281656841170e+02 
-7.036928006057e+01 4.926130287562e+00 0.0 
4.926130287562e+00 -1.516621328424e+02 0.0 
0.0 0.0 -6.620942387091e+01 
-1.190524572526e+02 1.307809349101e+00 0.0 
1.307809349101e+00 -2.721748974161e+02 0.0 
0.0 0.0 -1.169682064006e+02 
-1.151450263211e+02 3.345584769608e+00 0.0 
3.345584769608e+00 -2.817182800709e+02 0.0 
0.0 0.0 -1.186589919176e+02 
-1.320233715070e+02 6.851069748272e-01 0.0 
6.851069748272e-01 -3.059928286291e+02 0.0 
0.0 0.0 -1.310048600408e+02 
-1.121806041626e+02 2.334117516146e+00 0.0 
2.334117516146e+00 -2.547807593592e+02 0.0 
0.0 0.0 -1.096884090565e+02 
-8.153321484381e+01 2.033959196105e+00 0.0 
2.033959196105e+00 -2.054816859143e+02 0.0 
0.0 0.0 -8.570447022744e+01 
-7.487259159686e+01 4.486824405841e+00 0.0 
4.486824405841e+00 -1.889359735346e+02 0.0 
0.0 0.0 -7.874256953944e+01 
-1.156365129480e+02 6.295207062208e-01 0.0 
6.295207062208e-01 -2.648831266516e+02 0.0 
0.0 0.0 -1.137558918799e+02 
-1.284725347666e+02 2.500875293926e+00 0.0 
2.500875293926e+00 -2.958450322372e+02 0.0 
0.0 0.0 -1.268952701011e+02 
-1.161276109195e+02 3.159612718368e-01 0.0 
3.159612718368e-01 -2.666686964696e+02 0.0 
0.0 0.0 -1.144388922167e+02 
-1.118481855579e+02 3.520762391290e-01 0.0 
3.520762391290e-01 -2.559718989852e+02 0.0 
0.0 0.0 -1.099460253629e+02 
-1.322702085689e+02 2.466335788269e+00 0.0 
2.466335788269e+00 -3.193846455315e+02 0.0 
0.0 0.0 -1.350964562301e+02 
-1.358030105444e+02 7.813850965839e+00 0.0 
7.813850965839e+00 -3.199660927529e+02 0.0 
0.0 0.0 -1.363307309892e+02 
-1.281378396850e+02 2.704063350198e+00 0.0 
2.704063350198e+00 -3.104435419600e+02 0.0 
0.0 0.0 -1.311744144935e+02 
-1.013444407784e+02 1.207812802968e+00 0.0 
1.207812802968e+00 -2.517499223904e+02 0.0 
0.0 0.0 -1.055283089506e+02 
-6.634616720800e+01 1.073222277805e+00 0.0 
1.073222277805e+00 -1.432047796074e+02 0.0 
0.0 0.0 -6.246528404463e+01 
-1.216514359724e+02 6.746133054381e+00 0.0 
6.746133054381e+00 -2.920167001600e+02 0.0 
0.0 0.0 -1.237004408397e+02 
-1.108752590243e+02 1.366909152535e+00 0.0 
1.366909152535e+00 -2.512561208408e+02 0.0 
0.0 0.0 -1.082394139595e+02 
-4.333082468441e+01 -1.122875517671e+00 0.0 
-1.122875517671e+00 -1.101639645161e+02 0.0 
0.0 0.0 -4.564843676014e+01 
-7.887775882104e+01 5.035749601473e+00 0.0 
5.035749601473e+00 -1.987740686345e+02 0.0 
0.0 0.0 -8.289554823666e+01 
-9.052405681590e+01 3.674642037365e+00 0.0 
3.674642037365e+00 -2.261205871663e+02 0.0 
0.0 0.0 -9.459339319465e+01 
-1.007859979506e+02 6.801358536044e+00 0.0 
6.801358536044e+00 -2.443334321282e+02 0.0 
0.0 0.0 -1.031358290236e+02 
-3.900414833674e+01 2.445438857130e+00 0.0 
2.445438857130e+00 -1.072113419598e+02 0.0 
0.0 0.0 -4.346464708895e+01 
-7.507920488850e+01 5.543579026659e+00 0.0 
5.543579026659e+00 -1.892784584815e+02 0.0 
0.0 0.0 -7.890729901099e+01 
-1.092523108909e+02 6.872403898862e+00 0.0 
6.872403898862e+00 -2.632937309935e+02 0.0 
0.0 0.0 -1.113638125653e+02 
-7.811898060920e+01 2.118558532196e+00 0.0 
2.118558532196e+00 -1.707216029593e+02 0.0 
0.0 0.0 -7.425217507056e+01 
-8.460933909243e+01 6.158918400012e-01 0.0 
6.158918400012e-01 -2.135465662172e+02 0.0 
0.0 0.0 -8.904677159288e+01 
-1.040887747359e+02 2.057027769715e+00 0.0 
2.057027769715e+00 -2.350818257956e+02 0.0 
0.0 0.0 -1.013511801595e+02 
-7.894011388748e+01 -5.193286365429e-01 0.0 
-5.193286365429e-01 -1.779356466825e+02 0.0 
0.0 0.0 -7.666272817100e+01 
-8.632745936591e+00 6.390040904824e+00 0.0 
6.390040904824e+00 -1.358907754748e+01 0.0 
0.0 0.0 -6.266547045223e+00 
-9.804752675791e+01 2.721263282369e+00 0.0 
2.721263282369e+00 -2.435534387161e+02 0.0 
0.0 0.0 -1.020802896422e+02 
-1.207029314392e+02 4.661603231568e+00 0.0 
4.661603231568e+00 -2.919930674784e+02 0.0 
0.0 0.0 -1.234087996753e+02 
-1.337914935654e+02 2.872052006564e+00 0.0 
2.872052006564e+00 -3.081183953098e+02 0.0 
0.0 0.0 -1.321729666626e+02 
-8.776853496332e+01 5.045358234471e+00 0.0 
5.045358234471e+00 -2.163578476724e+02 0.0 
0.0 0.0 -9.083791479072e+01 
-9.290486385033e+01 9.158853376703e-01 0.0 
9.158853376703e-01 -2.326442698872e+02 0.0 
0.0 0.0 -9.726474012126e+01 
-1.043412366133e+02 1.767739831845e+00 0.0 
1.767739831845e+00 -2.368859291371e+02 0.0 
0.0 0.0 -1.019681497251e+02 
-1.093747931306e+01 2.232452430683e+00 0.0 
2.232452430683e+00 -2.155941290085e+01 0.0 
0.0 0.0 -9.349067664175e+00 
-1.167830424408e+02 4.926517914581e+00 0.0 
4.926517914581e+00 -2.824377535754e+02 0.0 
0.0 0.0 -1.193662388048e+02 
-9.614473620189e+01 6.374926482472e+00 0.0 
6.374926482472e+00 -2.353593191785e+02 0.0 
0.0 0.0 -9.905121661410e+01 
-8.309146493232e+01 3.878274643600e+00 0.0 
3.878274643600e+00 -1.812623097630e+02 0.0 
0.0 0.0 -7.890613240861e+01 
-1.198042737450e+02 3.835135461203e+00 0.0 
3.835135461203e+00 -2.918834077229e+02 0.0 
0.0 0.0 -1.231063044404e+02 
-4.069051571267e+01 1.529352443766e+00 0.0 
1.529352443766e+00 -1.075252354851e+02 0.0 
0.0 0.0 -4.406472535933e+01 
-1.245140120670e+02 4.356217478281e+00 0.0 
4.356217478281e+00 -3.019576964213e+02 0.0 
0.0 0.0 -1.275415125465e+02 
-1.377437443970e+02 3.730338998568e+00 0.0 
3.730338998568e+00 -3.305956184501e+02 0.0 
0.0 0.0 -1.401018088541e+02 
-1.129349870281e+02 5.188939486572e+00 0.0 
5.188939486572e+00 -2.727584688404e+02 0.0 
0.0 0.0 -1.153080367606e+02 
-1.166879156748e+02 1.979448118925e+00 0.0 
1.979448118925e+00 -2.671915760872e+02 0.0 
0.0 0.0 -1.147638475286e+02 
-1.240337797241e+02 7.559016193544e+00 0.0 
7.559016193544e+00 -2.870443321023e+02 0.0 
0.0 0.0 -1.229234335479e+02 
-1.383287029521e+02 5.254353053810e+00 0.0 
5.254353053810e+00 -3.311209063004e+02 0.0 
0.0 0.0 -1.404348827758e+02 
-1.969000161644e+01 1.005663856636e+00 0.0 
1.005663856636e+00 -4.041515093606e+01 0.0 
0.0 0.0 -1.763154576575e+01 
-1.082985071675e+02 2.015730754589e+00 0.0 
2.015730754589e+00 -2.458420148146e+02 0.0 
0.0 0.0 -1.058421565946e+02 
-1.360288430842e+02 7.964065462089e+00 0.0 
7.964065462089e+00 -3.186160763998e+02 0.0 
0.0 0.0 -1.359934758452e+02 
-1.198674814219e+02 5.810899025526e-01 0.0 
5.810899025526e-01 -2.756096103115e+02 0.0 
0.0 0.0 -1.182431275200e+02 
-1.044944951381e+02 5.104689124200e+00 0.0 
5.104689124200e+00 -2.538686489674e+02 0.0 
0.0 0.0 -1.071089432317e+02 
-7.949741930982e+01 6.211390168197e+00 0.0 
6.211390168197e+00 -1.980210119337e+02 0.0 
0.0 0.0 -8.285552937307e+01 
-9.185096884288e+01 1.657454383888e-02 0.0 
1.657454383888e-02 -2.290047006451e+02 0.0 
0.0 0.0 -9.585670084640e+01 
-2.151507162992e+01 1.724116802650e+00 0.0 
1.724116802650e+00 -6.189216644700e+01 0.0 
0.0 0.0 -2.462217142308e+01 
-1.241214763940e+02 5.063949028233e-01 0.0 
5.063949028233e-01 -2.863130148166e+02 0.0 
0.0 0.0 -1.227303473632e+02 
-4.686088603538e+01 -1.079163531602e+00 0.0 
-1.079163531602e+00 -1.188151383574e+02 0.0 
0.0 0.0 -4.930280731784e+01 
-2.870498443941e+01 6.957672675787e-01 0.0 
6.957672675787e-01 -5.949023614443e+01 0.0 
0.0 0.0 -2.605856617515e+01 
-1.203746984391e+02 7.264398359542e+00 0.0 
7.264398359542e+00 -2.769669212999e+02 0.0 
0.0 0.0 -1.188024859217e+02 
-1.328441919573e+02 3.832275276746e-01 0.0 
3.832275276746e-01 -3.082429638816e+02 0.0 
0.0 0.0 -1.319261467517e+02 
-3.712244183760e+01 8.068558119035e-01 0.0 
8.068558119035e-01 -9.722036420418e+01 0.0 
0.0 0.0 -3.990284181254e+01 
-9.320383045142e+01 6.604587061161e+00 0.0 
6.604587061161e+00 -2.094305603666e+02 0.0 
0.0 0.0 -9.039031724540e+01 
-1.114393901584e+02 6.390629734295e-01 0.0 
6.390629734295e-01 -2.541869439935e+02 0.0 
0.0 0.0 -1.092879002456e+02 
-8.921839041287e+01 1.858455130122e+00 0.0 
1.858455130122e+00 -2.228715290533e+02 0.0 
0.0 0.0 -9.322697583984e+01 
-4.037493468057e+01 3.042550056282e+00 0.0 
3.042550056282e+00 -1.079267936278e+02 0.0 
0.0 0.0 -4.409051849250e+01 
-5.409305434198e+01 7.029265680799e+00 0.0 
7.029265680799e+00 -1.259484439488e+02 0.0 
0.0 0.0 -5.361244948723e+01 
-2.910504332081e+01 -1.019364193199e+00 0.0 
-1.019364193199e+00 -7.527268689279e+01 0.0 
0.0 0.0 -3.091331906408e+01 
-3.586687251103e+01 1.081201550183e-03 0.0 
1.081201550183e-03 -9.654332173208e+01 0.0 
0.0 0.0 -3.932305827293e+01 
-3.238196308746e+01 -6.583116126816e-01 0.0 
-6.583116126816e-01 -8.620832126381e+01 0.0 
0.0 0.0 -3.517708530538e+01 
-9.610696789414e+01 5.063004789992e+00 0.0 
5.063004789992e+00 -2.350634157370e+02 0.0 
0.0 0.0 -9.895111508936e+01 
-1.498154568449e+02 3.191793758718e+00 0.0 
3.191793758718e+00 -3.481786058468e+02 0.0 
0.0 0.0 -1.489982188075e+02 
-3.740303660387e+01 4.098524155705e-01 0.0 
4.098524155705e-01 -7.863979545267e+01 0.0 
0.0 0.0 -3.441284961696e+01 
-1.364786414453e+02 2.271280190897e+00 0.0 
2.271280190897e+00 -3.282420735015e+02 0.0 
0.0 0.0 -1.390162144841e+02 
-6.776476303489e+01 5.626615456339e+00 0.0 
5.626615456339e+00 -1.694566356125e+02 0.0 
0.0 0.0 -7.076641959422e+01 
-1.080429241963e+02 2.376666170685e+00 0.0 
2.376666170685e+00 -2.442415072233e+02 0.0 
0.0 0.0 -1.052853294259e+02 
-2.802634344283e+01 2.573470099371e+00 0.0 
2.573470099371e+00 -8.010777132228e+01 0.0 
0.0 0.0 -3.204023442953e+01 
-1.430940460396e+02 5.755820423420e+00 0.0 
5.755820423420e+00 -3.410300840096e+02 0.0 
0.0 0.0 -1.448372390148e+02 
-3.373351660594e+01 1.880803113293e-01 0.0 
1.880803113293e-01 -8.689959534100e+01 0.0 
0.0 0.0 -3.578993358408e+01 
-5.497072493449e+01 -9.805597520167e-01 0.0 
-9.805597520167e-01 -1.389981288173e+02 0.0 
0.0 0.0 -5.779065612554e+01 
-1.175918048399e+02 5.510732739858e+00 0.0 
5.510732739858e+00 -2.819221276811e+02 0.0 
0.0 0.0 -1.194541797563e+02 
-8.226792193141e+01 3.566333426263e+00 0.0 
3.566333426263e+00 -2.077039524849e+02 0.0 
0.0 0.0 -8.659156232490e+01 
-1.317655753208e+02 7.794940646579e+00 0.0 
7.794940646579e+00 -3.098942056727e+02 0.0 
0.0 0.0 -1.320979342980e+02 
-6.061179820665e+01 7.588153044435e+00 0.0 
7.588153044435e+00 -1.334706721886e+02 0.0 
0.0 0.0 -5.782474111857e+01 
-1.157424243287e+02 3.023726028199e+00 0.0 
3.023726028199e+00 -2.623282089789e+02 0.0 
0.0 0.0 -1.130211899923e+02 
-1.393584491741e+02 6.186874218259e+00 0.0 
6.186874218259e+00 -3.292571055487e+02 0.0 
0.0 0.0 -1.401846664168e+02 
-1.075861400617e+02 3.471860985429e-01 0.0 
3.471860985429e-01 -2.452748797492e+02 0.0 
0.0 0.0 -1.054583059433e+02 
-1.343834713509e+02 4.614077081440e+00 0.0 
4.614077081440e+00 -3.087436775594e+02 0.0 
0.0 0.0 -1.325381446731e+02 
-1.201337457797e+02 2.607199223275e+00 0.0 
2.607199223275e+00 -2.743562324965e+02 0.0 
0.0 0.0 -1.179469934829e+02 
-1.239011389186e+02 2.937861330691e+00 0.0 
2.937861330691e+00 -2.833538216946e+02 0.0 
0.0 0.0 -1.217764881840e+02 
-3.221985371777e+01 6.567443208289e+00 0.0 
6.567443208289e+00 -8.687030884811e+01 0.0 
0.0 0.0 -3.532704876976e+01 
-1.315892512698e+02 1.834990352085e+00 0.0 
1.834990352085e+00 -3.178018000053e+02 0.0 
0.0 0.0 -1.344173153825e+02 
-1.152847989238e+02 9.712610004829e-01 0.0 
9.712610004829e-01 -2.631970820507e+02 0.0 
0.0 0.0 -1.131445642924e+02 
-8.535366057145e+01 6.052367027091e+00 0.0 
6.052367027091e+00 -2.048361371021e+02 0.0 
0.0 0.0 -8.665693930208e+01 
-4.587173940374e+01 9.963067261453e-02 0.0 
9.963067261453e-02 -9.791378473483e+01 0.0 
0.0 0.0 -4.273565724157e+01 
-1.444039047697e+02 8.114889386828e+00 0.0 
8.114889386828e+00 -3.389236639246e+02 0.0 
0.0 0.0 -1.445982706083e+02 
-3.915751496351e+01 4.529988029870e+00 0.0 
4.529988029870e+00 -1.067854340129e+02 0.0 
0.0 0.0 -4.338288469292e+01 
-5.164299878610e+01 4.958105251173e-01 0.0 
4.958105251173e-01 -1.302849065739e+02 0.0 
0.0 0.0 -5.417837160799e+01 
-1.268441975812e+02 5.946293946000e+00 0.0 
5.946293946000e+00 -3.002643408007e+02 0.0 
0.0 0.0 -1.277325615146e+02 
-3.157243780618e+01 5.078170994315e-01 0.0 
5.078170994315e-01 -7.981710751259e+01 0.0 
0.0 0.0 -3.301686359563e+01 
-8.754766331583e+01 7.607080081340e+00 0.0 
7.607080081340e+00 -2.014395650830e+02 0.0 
0.0 0.0 -8.629616851966e+01 
-1.213998864993e+02 5.335077211422e+00 0.0 
5.335077211422e+00 -2.916401156142e+02 0.0 
0.0 0.0 -1.235120006341e+02 
-1.314324845859e+02 3.103671235487e+00 0.0 
3.103671235487e+00 -3.023918787160e+02 0.0 
0.0 0.0 -1.297473089906e+02 
-1.352126779093e+02 3.484045667934e+00 0.0 
3.484045667934e+00 -3.118084848235e+02 0.0 
0.0 0.0 -1.337063488198e+02 
-1.177579732217e+02 6.985969851359e+00 0.0 
6.985969851359e+00 -2.823001232802e+02 0.0 
0.0 0.0 -1.196174289506e+02 
-1.242691203270e+02 2.564801291724e+00 0.0 
2.564801291724e+00 -2.850909161992e+02 0.0 
0.0 0.0 -1.224080109579e+02 
-7.249627262214e+01 6.019131467864e+00 0.0 
6.019131467864e+00 -1.778333724723e+02 0.0 
0.0 0.0 -7.469889352834e+01 
-1.210620482462e+02 6.826208475943e+00 0.0 
6.826208475943e+00 -2.765184512305e+02 0.0 
0.0 0.0 -1.188741498430e+02 
-5.436075453960e+01 -7.286962528349e-02 0.0 
-7.286962528349e-02 -1.173606019181e+02 0.0 
0.0 0.0 -5.111640693731e+01 
-1.326674610146e+02 4.130439161258e+00 0.0 
4.130439161258e+00 -3.055036605762e+02 0.0 
0.0 0.0 -1.310513364772e+02 
-6.267378129378e+01 -9.685633136325e-02 0.0 
-9.685633136325e-02 -1.368291311509e+02 0.0 
0.0 0.0 -5.945087373340e+01 
-6.735044847899e+01 4.979489279656e-02 0.0 
4.979489279656e-02 -1.466287029426e+02 0.0 
0.0 0.0 -6.379374542648e+01 
-8.418753792586e+01 5.470865117818e+00 0.0 
5.470865117818e+00 -2.065120418627e+02 0.0 
0.0 0.0 -8.680987393657e+01 
-7.106310571445e+01 -1.455483143678e-01 0.0 
-1.455483143678e-01 -1.565454728117e+02 0.0 
0.0 0.0 -6.788257355784e+01 
-9.888742157885e+01 7.600094156322e+00 0.0 
7.600094156322e+00 -2.306433024422e+02 0.0 
0.0 0.0 -9.845921720631e+01 
-7.813936450385e+01 8.011588367549e+00 0.0 
8.011588367549e+00 -1.841948708532e+02 0.0 
0.0 0.0 -7.830027060713e+01 
-8.326359225986e+01 5.711922749658e+00 0.0 
5.711922749658e+00 -2.077248995261e+02 0.0 
0.0 0.0 -8.689654753578e+01 
-3.538371705938e+01 1.274368352085e+00 0.0 
1.274368352085e+00 -9.753794471444e+01 0.0 
0.0 0.0 -3.947649853214e+01 
-7.948821055835e+01 5.041921516903e+00 0.0 
5.041921516903e+00 -1.977628947746e+02 0.0 
0.0 0.0 -8.277533159987e+01 
-1.278356553799e+02 8.099149109241e-01 0.0 
8.099149109241e-01 -2.952860125635e+02 0.0 
0.0 0.0 -1.265365003830e+02 
-1.342698704074e+02 3.357121904490e+00 0.0 
3.357121904490e+00 -3.089722021636e+02 0.0 
0.0 0.0 -1.325726217713e+02 
-1.227201569056e+02 1.571584826221e+00 0.0 
1.571584826221e+00 -2.987611482284e+02 0.0 
0.0 0.0 -1.260443915402e+02 
-1.352740014378e+02 6.194368501242e+00 0.0 
6.194368501242e+00 -3.193965538435e+02 0.0 
0.0 0.0 -1.360011665844e+02 
-8.161667819302e+01 2.432632471964e+00 0.0 
2.432632471964e+00 -2.071745967310e+02 0.0 
0.0 0.0 -8.623738247721e+01 
-1.232065205785e+02 1.246180525839e+00 0.0 
1.246180525839e+00 -2.827663492838e+02 0.0 
0.0 0.0 -1.213918609587e+02 
-8.310702065775e+01 4.550632245843e+00 0.0 
4.550632245843e+00 -2.074099634948e+02 0.0 
0.0 0.0 -8.675509524576e+01 
-1.357915486120e+02 1.602430443330e+00 0.0 
1.602430443330e+00 -3.264975884358e+02 0.0 
0.0 0.0 -1.382867411143e+02 
-1.194126418179e+02 9.490910887007e-01 0.0 
9.490910887007e-01 -2.737701300317e+02 0.0 
0.0 0.0 -1.175548315549e+02 
-1.198094747308e+02 2.989679510327e+00 0.0 
2.989679510327e+00 -2.727961703467e+02 0.0 
0.0 0.0 -1.173816935232e+02 
-1.082550686024e+02 4.791968352459e+00 0.0 
4.791968352459e+00 -2.635298751387e+02 0.0 
0.0 0.0 -1.111354831223e+02 
-7.594750969525e+01 5.544136914095e+00 0.0 
5.544136914095e+00 -1.879195066645e+02 0.0 
0.0 0.0 -7.876010490792e+01 
-1.286690448956e+02 6.979851996123e+00 0.0 
6.979851996123e+00 -2.954734694606e+02 0.0 
0.0 0.0 -1.268427543068e+02 
-1.017154247079e+02 3.252304361504e+00 0.0 
3.252304361504e+00 -2.277542097636e+02 0.0 
0.0 0.0 -9.844089034148e+01 
-3.681001078077e+01 1.984742603491e+00 0.0 
1.984742603491e+00 -9.830414387500e+01 0.0 
0.0 0.0 -4.013424639673e+01 
-4.001675206955e+01 5.017167463633e+00 0.0 
5.017167463633e+00 -1.072609236164e+02 0.0 
0.0 0.0 -4.378330270577e+01 
-6.392254066275e+01 5.901826611105e+00 0.0 
5.901826611105e+00 -1.434119514843e+02 0.0 
0.0 0.0 -6.180034764413e+01 
-9.293215417938e+01 4.628397166992e+00 0.0 
4.628397166992e+00 -2.089199952130e+02 0.0 
0.0 0.0 -9.015564481771e+01 
-1.400190601354e+02 1.331211279084e+00 0.0 
1.331211279084e+00 -3.353350750526e+02 0.0 
0.0 0.0 -1.422062405564e+02 
-1.160014924705e+02 2.660827151454e+00 0.0 
2.660827151454e+00 -2.637893146342e+02 0.0 
0.0 0.0 -1.135372421314e+02 
-7.579788391367e+01 6.743253148192e+00 0.0 
6.743253148192e+00 -1.881188874310e+02 0.0 
0.0 0.0 -7.877503140340e+01 
-1.053563253797e+02 6.423610481222e+00 0.0 
6.423610481222e+00 -2.378742601556e+02 0.0 
0.0 0.0 -1.025691756606e+02 
-1.254168310370e+02 5.092812664932e+00 0.0 
5.092812664932e+00 -3.014909921468e+02 0.0 
0.0 0.0 -1.276723469552e+02 
-1.246852439544e+02 2.191832345704e+00 0.0 
2.191832345704e+00 -2.868482706463e+02 0.0 
0.0 0.0 -1.230600543802e+02 
-1.325114998476e+02 6.731938349835e+00 0.0 
6.731938349835e+00 -3.047997349672e+02 0.0 
0.0 0.0 -1.307933704444e+02 
-1.031525799910e+02 6.697363922143e-01 0.0 
6.697363922143e-01 -2.332242665834e+02 0.0 
0.0 0.0 -1.005130539723e+02 
-1.293540303393e+02 4.203916830082e+00 0.0 
4.203916830082e+00 -3.120680450338e+02 0.0 
0.0 0.0 -1.320266226119e+02 
-8.778536254099e+01 6.294114242261e+00 0.0 
6.294114242261e+00 -2.166342728283e+02 0.0 
0.0 0.0 -9.092589061078e+01 
-1.256923100851e+02 6.527963897409e+00 0.0 
6.527963897409e+00 -3.017979725357e+02 0.0 
0.0 0.0 -1.278470847862e+02 
-8.772754122574e+01 5.747819703269e+00 0.0 
5.747819703269e+00 -2.011180093105e+02 0.0 
0.0 0.0 -8.625366516087e+01 
-1.320178660737e+02 2.714942856464e+00 0.0 
2.714942856464e+00 -3.044946135711e+02 0.0 
0.0 0.0 -1.305537438934e+02 
-1.376203377702e+02 6.957739066359e+00 0.0 
6.957739066359e+00 -3.160644756877e+02 0.0 
0.0 0.0 -1.357054440374e+02 
-9.979653793710e+01 4.693460352355e+00 0.0 
4.693460352355e+00 -2.447017380854e+02 0.0 
0.0 0.0 -1.029494828067e+02 
-3.523608284298e+01 3.195429177410e+00 0.0 
3.195429177410e+00 -9.813416840235e+01 0.0 
0.0 0.0 -3.961107537360e+01 
-1.272106925544e+02 6.034472810763e+00 0.0 
6.034472810763e+00 -2.964682735097e+02 0.0 
0.0 0.0 -1.267036898192e+02 
-9.547806877267e+01 7.513761270760e+00 0.0 
7.513761270760e+00 -2.204449119279e+02 0.0 
0.0 0.0 -9.437689421016e+01 
-7.217042119457e+01 7.290165697886e+00 0.0 
7.290165697886e+00 -1.779792280713e+02 0.0 
0.0 0.0 -7.464489477976e+01 
-1.045915991702e+02 6.470723623517e+00 0.0 
6.470723623517e+00 -2.542022841500e+02 0.0 
0.0 0.0 -1.072381649961e+02 
-1.250763211465e+02 5.144131765632e+00 0.0 
5.144131765632e+00 -3.026877810312e+02 0.0 
0.0 0.0 -1.279292306533e+02 
-3.659619769817e+01 3.620022727754e+00 0.0 
3.620022727754e+00 -9.880829416453e+01 0.0 
0.0 0.0 -4.022134755881e+01 
-9.141682764539e+01 4.622638033752e+00 0.0 
4.622638033752e+00 -2.259958172483e+02 0.0 
0.0 0.0 -9.482379346810e+01 
-1.060520610611e+02 2.456460507325e+00 0.0 
2.456460507325e+00 -2.381789590300e+02 0.0 
0.0 0.0 -1.028693060273e+02 
-1.403970479267e+02 2.853913023673e+00 0.0 
2.853913023673e+00 -3.358006261953e+02 0.0 
0.0 0.0 -1.424593022366e+02 
-1.097813254878e+02 2.977361202688e+00 0.0 
2.977361202688e+00 -2.472871008036e+02 0.0 
0.0 0.0 -1.067205278874e+02 
-1.236039484431e+02 5.773602160546e+00 0.0 
5.773602160546e+00 -2.864901175015e+02 0.0 
0.0 0.0 -1.226282197834e+02 
-1.022739301155e+02 1.966792387092e+00 0.0 
1.966792387092e+00 -2.291642588673e+02 0.0 
0.0 0.0 -9.903145669482e+01 
-9.440524542683e+01 9.840117984345e-01 0.0 
9.840117984345e-01 -2.112860006827e+02 0.0 
0.0 0.0 -9.130737383285e+01 
-1.054055228806e+02 3.789756343024e+00 0.0 
3.789756343024e+00 -2.372110332576e+02 0.0 
0.0 0.0 -1.023849668415e+02 
-1.307273007689e+02 5.884416162452e+00 0.0 
5.884416162452e+00 -3.102070127979e+02 0.0 
0.0 0.0 -1.318802940700e+02 
-1.280105129564e+02 3.465212587949e+00 0.0 
3.465212587949e+00 -3.096797502835e+02 0.0 
0.0 0.0 -1.309070789720e+02 
-1.111535500468e+02 1.014424010184e+00 0.0 
1.014424010184e+00 -2.527054555809e+02 0.0 
0.0 0.0 -1.087577016883e+02 
-1.346765353967e+02 1.951546036607e+00 0.0 
1.951546036607e+00 -3.113054645132e+02 0.0 
0.0 0.0 -1.333945999730e+02 
-9.846852420317e+01 1.488170331105e+00 0.0 
1.488170331105e+00 -2.202614135681e+02 0.0 
0.0 0.0 -9.521898133138e+01 
-5.953681287479e+01 6.688753172714e+00 0.0 
6.688753172714e+00 -1.513178524038e+02 0.0 
0.0 0.0 -6.285639958358e+01 
-1.319742108609e+02 7.761417319187e+00 0.0 
7.761417319187e+00 -3.062415765703e+02 0.0 
0.0 0.0 -1.310647362294e+02 
-1.327156053983e+02 2.469352578690e+00 0.0 
2.469352578690e+00 -3.065823016648e+02 0.0 
0.0 0.0 -1.313893721189e+02 
-8.655794012353e+01 6.149634717934e+00 0.0 
6.149634717934e+00 -2.028306830103e+02 0.0 
0.0 0.0 -8.641658694016e+01 
-9.112555780440e+01 5.952165479832e+00 0.0 
5.952165479832e+00 -2.114048990423e+02 0.0 
0.0 0.0 -9.035913705400e+01 
-6.762705774141e+01 6.734935011696e+00 0.0 
6.734935011696e+00 -1.696467757386e+02 0.0 
0.0 0.0 -7.078215004399e+01 
-1.149415690180e+02 1.337975917930e+00 0.0 
1.337975917930e+00 -2.616680682269e+02 0.0 
0.0 0.0 -1.125828911735e+02 
-6.917919503875e+01 3.985771485292e+00 0.0 
3.985771485292e+00 -1.511932196157e+02 0.0 
0.0 0.0 -6.571172439633e+01 
-1.025102180092e+02 5.922035175836e+00 0.0 
5.922035175836e+00 -2.405483955313e+02 0.0 
0.0 0.0 -1.025175840621e+02 
-6.963454600556e+01 6.243781220741e+00 0.0 
6.243781220741e+00 -1.518261723421e+02 0.0 
0.0 0.0 -6.603821550429e+01 
-1.222462233246e+02 5.749305525760e+00 0.0 
5.749305525760e+00 -2.910957421205e+02 0.0 
0.0 0.0 -1.236025896335e+02 
-1.396176287230e+02 7.795784715551e+00 0.0 
7.795784715551e+00 -3.246687859967e+02 0.0 
0.0 0.0 -1.388859244159e+02 
-7.132080322554e+01 6.119509988661e+00 0.0 
6.119509988661e+00 -1.795744283136e+02 0.0 
0.0 0.0 -7.486856946175e+01 
-2.376993351464e+01 2.004090734322e+00 0.0 
2.004090734322e+00 -6.291132972053e+01 0.0 
0.0 0.0 -2.560437897055e+01 
-1.343220971003e+02 2.394347636078e+00 0.0 
2.394347636078e+00 -3.099613723345e+02 0.0 
0.0 0.0 -1.328850408304e+02 
-7.343836785025e+01 3.536537746722e+00 0.0 
3.536537746722e+00 -1.605307089571e+02 0.0 
0.0 0.0 -6.979072304222e+01 
-8.601821168285e+01 3.068889114964e+00 0.0 
3.068889114964e+00 -2.167134978628e+02 0.0 
0.0 0.0 -9.041951286368e+01 
-1.354808223183e+02 6.240291477033e+00 0.0 
6.240291477033e+00 -3.158857854227e+02 0.0 
0.0 0.0 -1.350099823223e+02 
-1.118999328361e+02 2.684202981238e+00 0.0 
2.684202981238e+00 -2.533071481775e+02 0.0 
0.0 0.0 -1.091621243041e+02 
-1.238965781056e+02 3.641740958125e+00 0.0 
3.641740958125e+00 -3.008190732942e+02 0.0 
0.0 0.0 -1.270146954199e+02 
-7.340558417770e+01 7.999151375007e+00 0.0 
7.999151375007e+00 -1.758797720273e+02 0.0 
0.0 0.0 -7.438560686151e+01 
-1.909971890799e+01 4.585002780222e-01 0.0 
4.585002780222e-01 -5.222562038474e+01 0.0 
0.0 0.0 -2.099760178782e+01 
-1.447685587117e+02 2.698540766579e+00 0.0 
2.698540766579e+00 -3.456323853809e+02 0.0 
0.0 0.0 -1.467202832278e+02 
-9.647897808459e+01 5.090698178231e+00 0.0 
5.090698178231e+00 -2.188966144694e+02 0.0 
0.0 0.0 -9.421267776619e+01 
-1.146065666663e+02 7.579036304505e+00 0.0 
7.579036304505e+00 -2.707502739603e+02 0.0 
0.0 0.0 -1.152070521880e+02 
-1.320631157812e+02 5.699728117703e+00 0.0 
5.699728117703e+00 -3.054607949019e+02 0.0 
0.0 0.0 -1.308571732049e+02 
-1.430932022318e+01 1.457528118151e-01 0.0 
1.457528118151e-01 -3.483852124074e+01 0.0 
0.0 0.0 -1.434435243918e+01 
-1.233684141356e+02 2.210739732739e+00 0.0 
2.210739732739e+00 -3.002782481037e+02 0.0 
0.0 0.0 -1.266939986718e+02 
-4.876754274221e+01 8.789031102398e+00 0.0 
8.789031102398e+00 -1.188764487690e+02 0.0 
0.0 0.0 -4.989319745335e+01 
-1.039864593095e+02 2.356250604586e+00 0.0 
2.356250604586e+00 -2.338520603585e+02 0.0 
0.0 0.0 -1.009515559004e+02 
-9.751214576917e+01 2.156721242038e+00 0.0 
2.156721242038e+00 -2.419733236597e+02 0.0 
0.0 0.0 -1.014456408287e+02 
-7.127198134029e+01 5.044982030334e+00 0.0 
5.044982030334e+00 -1.792985984353e+02 0.0 
0.0 0.0 -7.477117393267e+01 
-1.361980306951e+02 3.039403624105e+00 0.0 
3.039403624105e+00 -3.269871776499e+02 0.0 
0.0 0.0 -1.385555625035e+02 
-9.904180997479e+01 5.882142496722e+00 0.0 
5.882142496722e+00 -2.303342543084e+02 0.0 
0.0 0.0 -9.841281928494e+01 
-6.312062222633e+01 5.022182503118e+00 0.0 
5.022182503118e+00 -1.609953925566e+02 0.0 
0.0 0.0 -6.683480443487e+01 
-1.010437225907e+02 6.705375391179e+00 0.0 
6.705375391179e+00 -2.285701508001e+02 0.0 
0.0 0.0 -9.848416201726e+01 
-2.125565637506e+01 6.961746955470e-01 0.0 
6.961746955470e-01 -5.319651552711e+01 0.0 
0.0 0.0 -2.193565157065e+01 
-1.167968349730e+02 6.974338456426e+00 0.0 
6.974338456426e+00 -2.670574216906e+02 0.0 
0.0 0.0 -1.147562769991e+02 
-1.224232355628e+02 7.305866648761e+00 0.0 
7.305866648761e+00 -2.915044860840e+02 0.0 
0.0 0.0 -1.237783164940e+02 
-1.398961991757e+02 6.387148994354e+00 0.0 
6.387148994354e+00 -3.228250019195e+02 0.0 
0.0 0.0 -1.384163603286e+02 
-1.246829974966e+02 7.178339817249e+00 0.0 
7.178339817249e+00 -2.864165269559e+02 0.0 
0.0 0.0 -1.229298573358e+02 
-4.754906347787e+01 5.465833008552e+00 0.0 
5.465833008552e+00 -1.251391393717e+02 0.0 
0.0 0.0 -5.140646085486e+01 
-1.232508400391e+02 2.999215360785e+00 0.0 
2.999215360785e+00 -2.993076801854e+02 0.0 
0.0 0.0 -1.263675560673e+02 
-1.359095951819e+02 1.057391265939e+00 0.0 
1.057391265939e+00 -3.148024272835e+02 0.0 
0.0 0.0 -1.348136067396e+02 
-1.482539501947e+02 8.350236456197e+00 0.0 
8.350236456197e+00 -3.472871811528e+02 0.0 
0.0 0.0 -1.482623394042e+02 
-1.270976346730e+02 7.553721276642e+00 0.0 
7.553721276642e+00 -3.007154494569e+02 0.0 
0.0 0.0 -1.279439252390e+02 
-7.681855580707e+01 7.643686487810e+00 0.0 
7.643686487810e+00 -1.862729930123e+02 0.0 
0.0 0.0 -7.852746464582e+01 
-1.089034814989e+02 6.828234269094e+00 0.0 
6.828234269094e+00 -2.477645472491e+02 0.0 
0.0 0.0 -1.066004086244e+02 
-1.389355127924e+02 7.674642736326e-01 0.0 
7.674642736326e-01 -3.330556352850e+02 0.0 
0.0 0.0 -1.411973444232e+02 
-9.080407381092e+01 9.252608011430e-01 0.0 
9.252608011430e-01 -2.253628863556e+02 0.0 
0.0 0.0 -9.445008804994e+01 
-1.199719510122e+02 5.513115257861e+00 0.0 
5.513115257861e+00 -2.764368520125e+02 0.0 
0.0 0.0 -1.185226409074e+02 
-1.072976572767e+02 6.569657190357e-01 0.0 
6.569657190357e-01 -2.436446960331e+02 0.0 
0.0 0.0 -1.048827059929e+02 
-1.320951732821e+02 3.259224999585e+00 0.0 
3.259224999585e+00 -3.183292476458e+02 0.0 
0.0 0.0 -1.347273262784e+02 
-1.286355681447e+02 4.125101186356e+00 0.0 
4.125101186356e+00 -3.109694002789e+02 0.0 
0.0 0.0 -1.314814905271e+02 
-7.291511790303e+01 5.424164242561e-02 0.0 
5.424164242561e-02 -1.648638346600e+02 0.0 
0.0 0.0 -7.093368576889e+01 
-7.288961113511e+01 -1.286399945558e-01 0.0 
-1.286399945558e-01 -1.648095922996e+02 0.0 
0.0 0.0 -7.090976103040e+01 
-1.110575650245e+02 4.187720639479e+00 0.0 
4.187720639479e+00 -2.491472670254e+02 0.0 
0.0 0.0 -1.076614496150e+02 
-1.121436146398e+02 5.333505604461e+00 0.0 
5.333505604461e+00 -2.571926300200e+02 0.0 
0.0 0.0 -1.104008733979e+02 
-1.014003165841e+02 2.043630474227e+00 0.0 
2.043630474227e+00 -2.506338732937e+02 0.0 
0.0 0.0 -1.052102569633e+02 
-1.101718523389e+02 5.458316769301e+00 0.0 
5.458316769301e+00 -2.475170627031e+02 0.0 
0.0 0.0 -1.069066745126e+02 
-9.450137664981e+01 6.019040976920e+00 0.0 
6.019040976920e+00 -2.216137712234e+02 0.0 
0.0 0.0 -9.443454436196e+01 
-1.376324600000e+02 5.363123654280e+00 0.0 
5.363123654280e+00 -3.287833030617e+02 0.0 
0.0 0.0 -1.395247289185e+02 
-7.724712265684e+01 6.219032222191e+00 0.0 
6.219032222191e+00 -1.861497552822e+02 0.0 
0.0 0.0 -7.861906338170e+01 
-1.489039951487e+02 2.977728812342e+00 0.0 
2.977728812342e+00 -3.472256554304e+02 0.0 
0.0 0.0 -1.484388951737e+02 
-8.699509891575e+01 7.994496139309e-01 0.0 
7.994496139309e-01 -1.928081291939e+02 0.0 
0.0 0.0 -8.354096843288e+01 
-9.087957375786e+01 7.714913599855e+00 0.0 
7.714913599855e+00 -2.116860614345e+02 0.0 
0.0 0.0 -9.036969055772e+01 
-9.684998165593e+01 7.833281617152e-01 0.0 
7.833281617152e-01 -2.413757802046e+02 0.0 
0.0 0.0 -1.010677285582e+02 
-4.376413579243e+01 6.342089144992e+00 0.0 
6.342089144992e+00 -1.151910807092e+02 0.0 
0.0 0.0 -4.728656495050e+01 
-8.536103794094e+01 1.935843641439e+00 0.0 
1.935843641439e+00 -2.141578898653e+02 0.0 
0.0 0.0 -8.945567834188e+01 
-1.043000190055e+02 5.198424214387e+00 0.0 
5.198424214387e+00 -2.380109036856e+02 0.0 
0.0 0.0 -1.022932768073e+02 
-9.713898959617e+01 4.302173873992e+00 0.0 
4.302173873992e+00 -2.182029110120e+02 0.0 
0.0 0.0 -9.420257018244e+01 
-1.070451730910e+02 1.026221193804e+00 0.0 
1.026221193804e+00 -2.422871953658e+02 0.0 
0.0 0.0 -1.043997105371e+02 
-1.131477409489e+02 4.095473344818e+00 0.0 
4.095473344818e+00 -2.564054508107e+02 0.0 
0.0 0.0 -1.104659575279e+02 
-1.178263279443e+02 5.750709846543e+00 0.0 
5.750709846543e+00 -2.665801872388e+02 0.0 
0.0 0.0 -1.149219545549e+02 
-2.345053020469e+01 1.767672102906e-01 0.0 
1.767672102906e-01 -5.890729049833e+01 0.0 
0.0 0.0 -2.430734621091e+01 
-8.030142911545e+01 1.999347421383e-01 0.0 
1.999347421383e-01 -2.031165929668e+02 0.0 
0.0 0.0 -8.462540662466e+01 
-7.395032293494e+01 5.723918635550e+00 0.0 
5.723918635550e+00 -1.611136039920e+02 0.0 
0.0 0.0 -7.011917807808e+01 
-1.057296052855e+02 3.100778460520e+00 0.0 
3.100778460520e+00 -2.374315535970e+02 0.0 
0.0 0.0 -1.025483476647e+02 
-1.106523545750e+02 4.774083657872e+00 0.0 
4.774083657872e+00 -2.481655312480e+02 0.0 
0.0 0.0 -1.072453657469e+02 
-1.343960490786e+02 5.872553372728e+00 0.0 
5.872553372728e+00 -3.192941901462e+02 0.0 
0.0 0.0 -1.357070717674e+02 
-3.488746294648e+01 -8.150991694426e-01 0.0 
-8.150991694426e-01 -8.876995600434e+01 0.0 
0.0 0.0 -3.669722568524e+01 
-3.337431059633e+01 2.280193831231e+00 0.0 
2.280193831231e+00 -8.974327111941e+01 0.0 
0.0 0.0 -3.653527451472e+01 
-9.214516358499e+01 5.413704759957e+00 0.0 
5.413704759957e+00 -2.099230634830e+02 0.0 
0.0 0.0 -9.022046812039e+01 
-8.105114971081e+01 1.549358138253e+00 0.0 
1.549358138253e+00 -2.037257772871e+02 0.0 
0.0 0.0 -8.503307809936e+01 
-6.789618214362e+01 1.817157186178e+00 0.0 
1.817157186178e+00 -1.473798682876e+02 0.0 
0.0 0.0 -6.418281512935e+01 
-7.212057423777e+01 1.617597700095e+00 0.0 
1.617597700095e+00 -1.573449967289e+02 0.0 
0.0 0.0 -6.843967129001e+01 
-1.078463029503e+02 2.683733998361e+00 0.0 
2.683733998361e+00 -2.429063828325e+02 0.0 
0.0 0.0 -1.048258057349e+02 
-2.894197250409e+01 8.186972583917e+00 0.0 
8.186972583917e+00 -7.606473620596e+01 0.0 
0.0 0.0 -3.110201261301e+01 
-9.243467448301e+01 4.065639768066e-01 0.0 
4.065639768066e-01 -2.309926110773e+02 0.0 
0.0 0.0 -9.662818566809e+01 
-1.210699684470e+02 6.076293589482e+00 0.0 
6.076293589482e+00 -2.924560946492e+02 0.0 
0.0 0.0 -1.236578189289e+02 
-3.169382951688e+01 1.839891045344e+00 0.0 
1.839891045344e+00 -8.890329351013e+01 0.0 
0.0 0.0 -3.577913690810e+01 
-1.465112926263e+02 7.270966006450e+00 0.0 
7.270966006450e+00 -3.420136912698e+02 0.0 
0.0 0.0 -1.461574951688e+02 
-1.278161598830e+02 2.766477934585e+00 0.0 
2.766477934585e+00 -2.936088779457e+02 0.0 
0.0 0.0 -1.260275113486e+02 
-8.866260862968e+01 1.453321269077e+00 0.0 
1.453321269077e+00 -2.210160305528e+02 0.0 
0.0 0.0 -9.250359175476e+01 
-1.268365323488e+02 1.376935264966e+00 0.0 
1.376935264966e+00 -3.074690592433e+02 0.0 
0.0 0.0 -1.298916774776e+02 
-1.650105530883e+01 -3.826804361676e-01 0.0 
-3.826804361676e-01 -4.231893256211e+01 0.0 
0.0 0.0 -1.724599636128e+01 
-1.164289651735e+02 5.593799053331e+00 0.0 
5.593799053331e+00 -2.830351221180e+02 0.0 
0.0 0.0 -1.194392261875e+02 
-9.661857591488e+01 7.002302242970e+00 0.0 
7.002302242970e+00 -2.193559216628e+02 0.0 
0.0 0.0 -9.439234927332e+01 
-1.673998461283e+01 -3.356395586290e-01 0.0 
-3.356395586290e-01 -4.222016057220e+01 0.0 
0.0 0.0 -1.728804355551e+01 
-1.272471251757e+02 1.238400758878e+00 0.0 
1.238400758878e+00 -2.931713944479e+02 0.0 
0.0 0.0 -1.257255558871e+02 
-2.979257284126e+01 2.871167880711e+00 0.0 
2.871167880711e+00 -8.092494247953e+01 0.0 
0.0 0.0 -3.281525459624e+01 
-1.065233228807e+02 4.928984503852e+00 0.0 
4.928984503852e+00 -2.381679419447e+02 0.0 
0.0 0.0 -1.030073794476e+02 
-9.755459881971e+01 6.258539496452e+00 0.0 
6.258539496452e+00 -2.187566836361e+02 0.0 
0.0 0.0 -9.449338473675e+01 
-8.267887738508e+01 4.598180669758e+00 0.0 
4.598180669758e+00 -2.080285093509e+02 0.0 
0.0 0.0 -8.681221602079e+01 
-1.023024171656e+02 2.641611858019e+00 0.0 
2.641611858019e+00 -2.539226675072e+02 0.0 
0.0 0.0 -1.064675254018e+02 
-1.308166869875e+02 1.568414981661e+00 0.0 
1.568414981661e+00 -3.019934369088e+02 0.0 
0.0 0.0 -1.294430371689e+02 
-1.109718481971e+02 2.892208921998e+00 0.0 
2.892208921998e+00 -2.730316297712e+02 0.0 
0.0 0.0 -1.148010433905e+02 
-9.559121111673e+01 5.712461363170e+00 0.0 
5.712461363170e+00 -2.201020913541e+02 0.0 
0.0 0.0 -9.430799074124e+01 
-9.212167861242e+01 7.315429425135e+00 0.0 
7.315429425135e+00 -2.103143065977e+02 0.0 
0.0 0.0 -9.033079556303e+01 
-9.617566507567e+00 7.238971168030e+00 0.0 
7.238971168030e+00 -1.280768238338e+01 0.0 
0.0 0.0 -6.327574667284e+00 
-2.508372668292e+01 1.206620692632e+00 0.0 
1.206620692632e+00 -7.089559053768e+01 0.0 
0.0 0.0 -2.839379516618e+01 
-1.281807837197e+02 7.408456263335e+00 0.0 
7.408456263335e+00 -2.960719501801e+02 0.0 
0.0 0.0 -1.268758201699e+02 
-9.960783605053e+01 2.859453513239e+00 0.0 
2.859453513239e+00 -2.222643138633e+02 0.0 
0.0 0.0 -9.616164497416e+01 
-1.312958388479e+02 6.074727536012e+00 0.0 
6.074727536012e+00 -3.055165665000e+02 0.0 
0.0 0.0 -1.306437216044e+02 
-4.949649605632e+01 7.289275344717e+00 0.0 
7.289275344717e+00 -1.188601472446e+02 0.0 
0.0 0.0 -5.010699299029e+01 
-1.221044849789e+02 2.637930597143e+00 0.0 
2.637930597143e+00 -2.784487312088e+02 0.0 
0.0 0.0 -1.197659648563e+02 
-1.325052405634e+02 7.405542317850e+00 0.0 
7.405542317850e+00 -3.058274144855e+02 0.0 
0.0 0.0 -1.310997965147e+02 
-7.515944044417e+01 3.093862202131e-01 0.0 
3.093862202131e-01 -1.645809988004e+02 0.0 
0.0 0.0 -7.152213177337e+01 
-1.276599645721e+02 5.801583095297e+00 0.0 
5.801583095297e+00 -2.954506383292e+02 0.0 
0.0 0.0 -1.265331808704e+02 
-1.273100131762e+02 2.815032551602e+00 0.0 
2.815032551602e+00 -3.079953921898e+02 0.0 
0.0 0.0 -1.301916216098e+02 
-1.078141035296e+02 5.510396964822e+00 0.0 
5.510396964822e+00 -2.480113075726e+02 0.0 
0.0 0.0 -1.063476233306e+02 
-8.851304662900e+01 4.952666368102e-01 0.0 
4.952666368102e-01 -2.222740845073e+02 0.0 
0.0 0.0 -9.283613934088e+01 
-9.360464982472e+01 2.268565568211e+00 0.0 
2.268565568211e+00 -2.332368819537e+02 0.0 
0.0 0.0 -9.765245953352e+01 
-1.352791826237e+02 4.167240430178e+00 0.0 
4.167240430178e+00 -3.111300845974e+02 0.0 
0.0 0.0 -1.335227801663e+02 
-9.383102816274e+01 2.381811730458e+00 0.0 
2.381811730458e+00 -2.350032724111e+02 0.0 
0.0 0.0 -9.825029017216e+01 
-1.007542427147e+02 4.792744346391e+00 0.0 
4.792744346391e+00 -2.280732604013e+02 0.0 
0.0 0.0 -9.824825093480e+01 
-9.350935057353e+01 5.905827221485e+00 0.0 
5.905827221485e+00 -2.236420594702e+02 0.0 
0.0 0.0 -9.474542301313e+01 
-1.198169458108e+02 3.174113337626e+00 0.0 
3.174113337626e+00 -2.922613954209e+02 0.0 
0.0 0.0 -1.232235023695e+02 
-8.618439945724e+01 7.815871977675e+00 0.0 
7.815871977675e+00 -2.030202362021e+02 0.0 
0.0 0.0 -8.636139069779e+01 
-5.071736431643e+01 4.016680439474e+00 0.0 
4.016680439474e+00 -1.343565289375e+02 0.0 
0.0 0.0 -5.512216797617e+01 
-9.512533805481e+01 4.213225856893e+00 0.0 
4.213225856893e+00 -2.354535172666e+02 0.0 
0.0 0.0 -9.877365659642e+01 
-5.503775567205e+01 4.959381624273e+00 0.0 
4.959381624273e+00 -1.428206994523e+02 0.0 
0.0 0.0 -5.895753653730e+01 
-1.094413821950e+02 3.599170718097e+00 0.0 
3.599170718097e+00 -2.468275068563e+02 0.0 
0.0 0.0 -1.064806667154e+02 
-5.531986823161e+01 5.778706088883e+00 0.0 
5.778706088883e+00 -1.431224970785e+02 0.0 
0.0 0.0 -5.913270959305e+01 
-1.060489664235e+02 5.699296175572e+00 0.0 
5.699296175572e+00 -2.378555354705e+02 0.0 
0.0 0.0 -1.027713505682e+02 
-1.309870971858e+02 7.480606722824e+00 0.0 
7.480606722824e+00 -3.106688222805e+02 0.0 
0.0 0.0 -1.320967758399e+02 
-1.260347455731e+02 5.647104511365e+00 0.0 
5.647104511365e+00 -3.008607867857e+02 0.0 
0.0 0.0 -1.276686597077e+02 
-8.193387933231e+01 6.250433540287e+00 0.0 
6.250433540287e+00 -1.944487041663e+02 0.0 
0.0 0.0 -8.251477504958e+01 
-1.029771944680e+02 1.001841418540e+00 0.0 
1.001841418540e+00 -2.319457890237e+02 0.0 
0.0 0.0 -1.000768950475e+02 
-1.309698325565e+02 1.171402624777e+00 0.0 
1.171402624777e+00 -3.161474938884e+02 0.0 
0.0 0.0 -1.337351979335e+02 
-1.313753491380e+02 2.618724093006e+00 0.0 
2.618724093006e+00 -3.166521667415e+02 0.0 
0.0 0.0 -1.340082547638e+02 
-2.190622856462e+01 7.695610392177e+00 0.0 
7.695610392177e+00 -5.885315848683e+01 0.0 
0.0 0.0 -2.382781611543e+01 
-1.090382618343e+02 4.291077661644e+00 0.0 
4.291077661644e+00 -2.467765698054e+02 0.0 
0.0 0.0 -1.063444494919e+02 
-1.446746883286e+02 9.035377288559e-01 0.0 
9.035377288559e-01 -3.450069175515e+02 0.0 
0.0 0.0 -1.465044817640e+02 
-5.330711171531e+01 1.767861537886e+00 0.0 
1.767861537886e+00 -1.131264376933e+02 0.0 
0.0 0.0 -4.953006482260e+01 
-9.686519469984e+01 1.697265079450e+00 0.0 
1.697265079450e+00 -2.400773696864e+02 0.0 
0.0 0.0 -1.006827693159e+02 
-1.099668221455e+01 7.880533591298e+00 0.0 
7.880533591298e+00 -1.450932603850e+01 0.0 
0.0 0.0 -7.251802475918e+00 
-1.350866748832e+02 9.591776667594e-01 0.0 
9.591776667594e-01 -3.247584477523e+02 0.0 
0.0 0.0 -1.375535367906e+02 
-4.704581589211e+01 4.807201398084e+00 0.0 
4.807201398084e+00 -1.247803183214e+02 0.0 
0.0 0.0 -5.114784026404e+01 
-9.356334482148e+01 -3.969357751958e-01 0.0 
-3.969357751958e-01 -2.316186301021e+02 0.0 
0.0 0.0 -9.715459247707e+01 
-1.144953268153e+02 5.825728592438e+00 0.0 
5.825728592438e+00 -2.704033807845e+02 0.0 
0.0 0.0 -1.150696122799e+02 
-1.038410072237e+02 2.706463345879e+00 0.0 
2.706463345879e+00 -2.326298129455e+02 0.0 
0.0 0.0 -1.005412460507e+02 
-9.908147008195e+01 1.093982331572e+00 0.0 
1.093982331572e+00 -2.217115212460e+02 0.0 
0.0 0.0 -9.583789739839e+01 
-9.997939346533e+01 5.450464003078e+00 0.0 
5.450464003078e+00 -2.289685733362e+02 0.0 
0.0 0.0 -9.828439004045e+01 
-5.959093408879e+01 1.850656374334e+00 0.0 
1.850656374334e+00 -1.278167008131e+02 0.0 
0.0 0.0 -5.582229047055e+01 
-6.387843741833e+01 1.633319722728e+00 0.0 
1.633319722728e+00 -1.377307870956e+02 0.0 
0.0 0.0 -6.008276735419e+01 
-1.353775123061e+02 2.375413422014e+00 0.0 
2.375413422014e+00 -3.252145477716e+02 0.0 
0.0 0.0 -1.377776180233e+02 
-1.073475317528e+02 4.555354389428e+00 0.0 
4.555354389428e+00 -2.640397973701e+02 0.0 
0.0 0.0 -1.110161987369e+02 
-9.090554768666e+01 4.844738068624e+00 0.0 
4.844738068624e+00 -2.265586079195e+02 0.0 
0.0 0.0 -9.483924668185e+01 
-1.160360502404e+02 4.161007543868e+00 0.0 
4.161007543868e+00 -2.826125001415e+02 0.0 
0.0 0.0 -1.191945651146e+02 
-8.679843046552e+01 4.095856669259e+00 0.0 
4.095856669259e+00 -2.168749529311e+02 0.0 
0.0 0.0 -9.070201501898e+01 
-5.156715527438e+01 6.566322666584e+00 0.0 
6.566322666584e+00 -1.331613014317e+02 0.0 
0.0 0.0 -5.501853701184e+01 
-5.897741836611e+01 3.166381899342e-02 0.0 
3.166381899342e-02 -1.269632420802e+02 0.0 
0.0 0.0 -5.538219813389e+01 
-9.155058168179e+01 2.321055532799e+00 0.0 
2.321055532799e+00 -2.032984151749e+02 0.0 
0.0 0.0 -8.805469905702e+01 
-7.298317920438e+01 -2.124722408674e-02 0.0 
-2.124722408674e-02 -1.650242481430e+02 0.0 
0.0 0.0 -7.100222820421e+01 
-1.262666174163e+02 7.140329410880e+00 0.0 
7.140329410880e+00 -3.012620160691e+02 0.0 
0.0 0.0 -1.278585900456e+02 
-8.149565255014e+01 7.801362856822e+00 0.0 
7.801362856822e+00 -1.945845901083e+02 0.0 
0.0 0.0 -8.242407279753e+01 
-1.436808843076e+02 6.587870545597e+00 0.0 
6.587870545597e+00 -3.381870331995e+02 0.0 
0.0 0.0 -1.441603752521e+02 
-1.336843642534e+02 -3.032154402497e-01 0.0 
-3.032154402497e-01 -3.213758395088e+02 0.0 
0.0 0.0 -1.361180611287e+02 
-9.156483193731e+01 5.855691113261e+00 0.0 
5.855691113261e+00 -2.263367795356e+02 0.0 
0.0 0.0 -9.497048344186e+01 
-1.499158651390e+02 3.046372359575e+00 0.0 
3.046372359575e+00 -3.556688961799e+02 0.0 
0.0 0.0 -1.512754283957e+02 
-5.913829210937e+01 5.101793976028e+00 0.0 
5.101793976028e+00 -1.528661025231e+02 0.0 
0.0 0.0 -6.320131838974e+01 
-1.392727925725e+02 6.474282464031e+00 0.0 
6.474282464031e+00 -3.279738984842e+02 0.0 
0.0 0.0 -1.397740073170e+02 
-1.000251689463e+02 7.292422635564e+00 0.0 
7.292422635564e+00 -2.293848704757e+02 0.0 
0.0 0.0 -9.842301182660e+01 
-1.112900932691e+02 5.747454877637e+00 0.0 
5.747454877637e+00 -2.579910019348e+02 0.0 
0.0 0.0 -1.103843285612e+02 
-1.343355272534e+02 6.101294146516e+00 0.0 
6.101294146516e+00 -3.216326632321e+02 0.0 
0.0 0.0 -1.363904571456e+02 
-6.569487530494e+01 1.270385642898e+00 0.0 
1.270385642898e+00 -1.676469962274e+02 0.0 
0.0 0.0 -6.960256145970e+01 
-1.049348580717e+02 4.519492022273e+00 0.0 
4.519492022273e+00 -2.373841064010e+02 0.0 
0.0 0.0 -1.022956893418e+02 
-8.707450133379e+01 5.246198555660e+00 0.0 
5.246198555660e+00 -2.172429044882e+02 0.0 
0.0 0.0 -9.089522174659e+01 
-1.018051052280e+02 5.950811475992e+00 0.0 
5.950811475992e+00 -2.281865498907e+02 0.0 
0.0 0.0 -9.859749653559e+01 
-5.337944014611e+01 8.822844203809e+00 0.0 
8.822844203809e+00 -1.260211980039e+02 0.0 
0.0 0.0 -5.342019144501e+01 
-1.148917183206e+02 5.832586362812e+00 0.0 
5.832586362812e+00 -2.682676338836e+02 0.0 
0.0 0.0 -1.145478056613e+02 
-8.225028724800e+01 3.483007541964e+00 0.0 
3.483007541964e+00 -2.075917345380e+02 0.0 
0.0 0.0 -8.655260653580e+01 
-1.007928634448e+02 6.621955691705e-01 0.0 
6.621955691705e-01 -2.500485244740e+02 0.0 
0.0 0.0 -1.048524163756e+02 
-1.012747355493e+02 4.029487225797e+00 0.0 
4.029487225797e+00 -2.275937788914e+02 0.0 
0.0 0.0 -9.826055433221e+01 
-1.166462798365e+01 5.440461374445e+00 0.0 
5.440461374445e+00 -2.559648898665e+01 0.0 
0.0 0.0 -1.077833509109e+01 
-1.017645081274e+02 5.796280033044e+00 0.0 
5.796280033044e+00 -2.426778990202e+02 0.0 
0.0 0.0 -1.029327221443e+02 
-1.553390731993e+01 9.330845870402e+00 0.0 
9.330845870402e+00 -3.281435594746e+01 0.0 
0.0 0.0 -1.410447898022e+01 
-2.497414656337e+01 -1.369378727502e+00 0.0 
-1.369378727502e+00 -6.312634074784e+01 0.0 
0.0 0.0 -2.603014619336e+01 
-9.627426555180e+01 3.210624470200e-01 0.0 
3.210624470200e-01 -2.394823795100e+02 0.0 
0.0 0.0 -1.003269935185e+02 
-1.251540710657e+02 6.668499976767e+00 0.0 
6.668499976767e+00 -2.859538379722e+02 0.0 
0.0 0.0 -1.229323727114e+02 
-1.026216289522e+02 1.467717730009e+00 0.0 
1.467717730009e+00 -2.302387731080e+02 0.0 
0.0 0.0 -9.945812061803e+01 
-5.128400648014e+01 2.093277776451e+00 0.0 
2.093277776451e+00 -1.085823635298e+02 0.0 
0.0 0.0 -4.755991100298e+01 
-1.483264730336e+02 2.872027968825e+00 0.0 
2.872027968825e+00 -3.474284370784e+02 0.0 
0.0 0.0 -1.483264730336e+02 
-1.026665450910e+01 6.901223610607e+00 0.0 
6.901223610607e+00 -1.059841931180e+01 0.0 
0.0 0.0 -5.967100162690e+00 
-5.550802834635e+01 1.706218818674e+00 0.0 
1.706218818674e+00 -1.182681833148e+02 0.0 
0.0 0.0 -5.173286349833e+01 
-9.430117308599e+01 3.291945602776e+00 0.0 
3.291945602776e+00 -2.352406762271e+02 0.0 
0.0 0.0 -9.846255479392e+01 
-9.241810803059e+01 1.414412077076e+00 0.0 
1.414412077076e+00 -2.295719518229e+02 0.0 
0.0 0.0 -9.619701795605e+01 
-7.140462449539e+01 2.765594026791e+00 0.0 
2.765594026791e+00 -1.539836937435e+02 0.0 
0.0 0.0 -6.721649547167e+01 
-6.196823355820e+01 2.273575366940e+00 0.0 
2.273575366940e+00 -1.617657790877e+02 0.0 
0.0 0.0 -6.672020379378e+01 
-9.875347042827e+01 4.223925265675e+00 0.0 
4.223925265675e+00 -2.449703012810e+02 0.0 
0.0 0.0 -1.027171315128e+02 
-1.045066732029e+02 7.061801560934e+00 0.0 
7.061801560934e+00 -2.384982607168e+02 0.0 
0.0 0.0 -1.025014801759e+02 
-1.101164633447e+02 5.797329588273e+00 0.0 
5.797329588273e+00 -2.618922246220e+02 0.0 
0.0 0.0 -1.112026063900e+02 
-1.285606040565e+02 4.119322142298e+00 0.0 
4.119322142298e+00 -2.951118261271e+02 0.0 
0.0 0.0 -1.267017290551e+02 
-2.464952647342e+01 6.298136860230e+00 0.0 
6.298136860230e+00 -6.949341710415e+01 0.0 
0.0 0.0 -2.784288307327e+01 
-8.801505437195e+01 7.143076232486e-02 0.0 
7.143076232486e-02 -2.204356389230e+02 0.0 
0.0 0.0 -9.213520798850e+01 
-9.569550476553e+01 -5.280038268596e-02 0.0 
-5.280038268596e-02 -2.375958518948e+02 0.0 
0.0 0.0 -9.958740699810e+01 
-4.965689633194e+01 3.566740622420e-01 0.0 
3.566740622420e-01 -1.267261300099e+02 0.0 
0.0 0.0 -5.251490790254e+01 
-7.906364170184e+01 1.529247730256e-01 0.0 
1.529247730256e-01 -1.743659462246e+02 0.0 
0.0 0.0 -7.562887637795e+01 
-1.033969480572e+02 3.219342969460e+00 0.0 
3.219342969460e+00 -2.309194985404e+02 0.0 
0.0 0.0 -9.989493397931e+01 
-1.207533002690e+02 9.473489074683e-01 0.0 
9.473489074683e-01 -2.930329565435e+02 0.0 
0.0 0.0 -1.237358770437e+02 
-1.719827713780e+01 -3.700547851743e-01 0.0 
-3.700547851743e-01 -4.234936790893e+01 0.0 
0.0 0.0 -1.746429351402e+01 
-1.326036561256e+01 5.247439301533e-01 0.0 
5.247439301533e-01 -2.636149999348e+01 0.0 
0.0 0.0 -1.148655968181e+01 
-3.490015816525e+01 -1.249986256549e-01 0.0 
-1.249986256549e-01 -8.846187053627e+01 0.0 
0.0 0.0 -3.660860861046e+01 
-9.618325731730e+01 1.354660272183e+00 0.0 
1.354660272183e+00 -2.381317102688e+02 0.0 
0.0 0.0 -9.989449027583e+01 
-6.704531390966e+01 5.348586302930e+00 0.0 
5.348586302930e+00 -1.710178863490e+02 0.0 
0.0 0.0 -7.101896007761e+01 
-5.902454464017e+01 3.587639448830e+00 0.0 
3.587639448830e+00 -1.534156829029e+02 0.0 
0.0 0.0 -6.333206826292e+01 
-5.137698673706e+01 4.725778122819e+00 0.0 
4.725778122819e+00 -1.347880329984e+02 0.0 
0.0 0.0 -5.544950592065e+01 
-1.001362400588e+02 2.257825141700e-01 0.0 
2.257825141700e-01 -2.480255648757e+02 0.0 
0.0 0.0 -1.040485414804e+02 
-1.101130291000e+02 2.335446348981e+00 0.0 
2.335446348981e+00 -2.482321028301e+02 0.0 
0.0 0.0 -1.071035395790e+02 
-9.952730479653e+01 -1.370218033951e-01 0.0 
-1.370218033951e-01 -2.461438094776e+02 0.0 
0.0 0.0 -1.033013342822e+02 
-6.675010582824e+01 4.401742207840e+00 0.0 
4.401742207840e+00 -1.706713237031e+02 0.0 
0.0 0.0 -7.082642885941e+01 
-1.096151628537e+02 6.205685984486e+00 0.0 
6.205685984486e+00 -2.473784039431e+02 0.0 
0.0 0.0 -1.066980700390e+02 
-8.711299866667e+01 -4.509019008857e-02 0.0 
-4.509019008857e-02 -1.954466164876e+02 0.0 
0.0 0.0 -8.436788454629e+01 
-1.230278006445e+02 5.917187134669e+00 0.0 
5.917187134669e+00 -2.901019876802e+02 0.0 
0.0 0.0 -1.235389364974e+02 
-9.995474429274e+01 1.286939300658e+00 0.0 
1.286939300658e+00 -2.466657249546e+02 0.0 
0.0 0.0 -1.035861407742e+02 
-1.006604552102e+02 1.615020357758e+00 0.0 
1.615020357758e+00 -2.485958634037e+02 0.0 
0.0 0.0 -1.043768955842e+02 
-4.279436614172e+01 2.485716207461e+00 0.0 
2.485716207461e+00 -8.892728447547e+01 0.0 
0.0 0.0 -3.911649518516e+01 
-7.081481123084e+01 4.789914823793e+00 0.0 
4.789914823793e+00 -1.804482281369e+02 0.0 
0.0 0.0 -7.497891181033e+01 
-1.033524280912e+02 -2.243473099078e-01 0.0 
-2.243473099078e-01 -2.545941627465e+02 0.0 
0.0 0.0 -1.069839772513e+02 
-1.027688889008e+02 -6.193241289122e-01 0.0 
-6.193241289122e-01 -2.358519938476e+02 0.0 
0.0 0.0 -1.011862648245e+02 
-9.514290010540e+01 -6.808415575935e-01 0.0 
-6.808415575935e-01 -2.176972967960e+02 0.0 
0.0 0.0 -9.345205907043e+01 
-4.711829928518e+01 2.119493090252e+00 0.0 
2.119493090252e+00 -9.898427639441e+01 0.0 
0.0 0.0 -4.343077270388e+01 
-1.040238363362e+02 1.132155940528e-01 0.0 
1.132155940528e-01 -2.565923202904e+02 0.0 
0.0 0.0 -1.077848469880e+02 
-5.888006785913e+01 2.348465091694e+00 0.0 
2.348465091694e+00 -1.527661211259e+02 0.0 
0.0 0.0 -6.309385669550e+01 
-2.250381813863e+01 7.738475578691e+00 0.0 
7.738475578691e+00 -5.117591950655e+01 0.0 
0.0 0.0 -2.170392129355e+01 
-1.401489651068e+02 8.036167167115e+00 0.0 
8.036167167115e+00 -3.288471078862e+02 0.0 
0.0 0.0 -1.402988218979e+02 
-3.117661756623e+01 -1.425528554214e+00 0.0 
-1.425528554214e+00 -8.012877840268e+01 0.0 
0.0 0.0 -3.299161879067e+01 
-6.165096453257e+01 1.127400406988e+00 0.0 
1.127400406988e+00 -1.607766143729e+02 0.0 
0.0 0.0 -6.632827367164e+01 
-9.786631387109e+01 7.567084411322e+00 0.0 
7.567084411322e+00 -2.323234890815e+02 0.0 
0.0 0.0 -9.865694088579e+01 
-5.056609295141e+01 1.521009859510e-01 0.0 
1.521009859510e-01 -1.074345995501e+02 0.0 
0.0 0.0 -4.700020775046e+01 
-1.037908372468e+02 1.209585208846e+00 0.0 
1.209585208846e+00 -2.552893022022e+02 0.0 
0.0 0.0 -1.073240418347e+02 
-4.716201390300e+01 7.674204907655e-01 0.0 
7.674204907655e-01 -1.189978927779e+02 0.0 
0.0 0.0 -4.944797200426e+01 
-8.323406824609e+01 1.871628669928e+00 0.0 
1.871628669928e+00 -1.827026728953e+02 0.0 
0.0 0.0 -7.938102234242e+01 
-1.044662330457e+02 1.514574448999e+00 0.0 
1.514574448999e+00 -2.571300065556e+02 0.0 
0.0 0.0 -1.080788718804e+02 
-8.653156255679e+01 4.205964198795e+00 0.0 
4.205964198795e+00 -2.172042823495e+02 0.0 
0.0 0.0 -9.072075347190e+01 
-9.308974639439e+01 1.776695512439e+00 0.0 
1.776695512439e+00 -2.315865387090e+02 0.0 
0.0 0.0 -9.700288553102e+01 
-1.394404076694e+01 3.639357304789e+00 0.0 
3.639357304789e+00 -3.231274119492e+01 0.0 
0.0 0.0 -1.347703458856e+01 
-1.262088725465e+02 9.360095587868e-01 0.0 
9.360095587868e-01 -2.932058665427e+02 0.0 
0.0 0.0 -1.254244217268e+02 
-7.049091406141e+01 3.538834213356e+00 0.0 
3.538834213356e+00 -1.804280393845e+02 0.0 
0.0 0.0 -7.487568603376e+01 
-1.341650743393e+02 5.354744595682e+00 0.0 
5.354744595682e+00 -3.208776331842e+02 0.0 
0.0 0.0 -1.361128122570e+02 
-1.114451254747e+02 7.527649987530e+00 0.0 
7.527649987530e+00 -2.585291152628e+02 0.0 
0.0 0.0 -1.105922722212e+02 
-1.079084415479e+02 -1.798995788811e-02 0.0 
-1.798995788811e-02 -2.651119416300e+02 0.0 
0.0 0.0 -1.115061149534e+02 
-1.082777681881e+02 1.362019124389e+00 0.0 
1.362019124389e+00 -2.656081557739e+02 0.0 
0.0 0.0 -1.117657771886e+02 
-6.239511011399e+01 3.620345785011e+00 0.0 
3.620345785011e+00 -1.618733050840e+02 0.0 
0.0 0.0 -6.688052455940e+01 
-2.244206639070e+01 -1.314891707484e+00 0.0 
-1.314891707484e+00 -5.433358055994e+01 0.0 
0.0 0.0 -2.263269408519e+01 
-1.089127600823e+01 4.301895137410e+00 0.0 
4.301895137410e+00 -3.121704812042e+01 0.0 
0.0 0.0 -1.223249723859e+01 
-1.118450007631e+02 -1.543787938507e-01 0.0 
-1.543787938507e-01 -2.736428754745e+02 0.0 
0.0 0.0 -1.152463628713e+02 
-1.338198759777e+02 4.785962769468e+00 0.0 
4.785962769468e+00 -3.214793658400e+02 0.0 
0.0 0.0 -1.361897725453e+02 
-5.869070495423e+01 1.456019598352e+00 0.0 
1.456019598352e+00 -1.514118074264e+02 0.0 
0.0 0.0 -6.263075371419e+01 
-1.127271093082e+02 4.733806102375e+00 0.0 
4.733806102375e+00 -2.565973609435e+02 0.0 
0.0 0.0 -1.103973410755e+02 
-4.877298135414e+01 2.030428804874e+00 0.0 
2.030428804874e+00 -1.024201218575e+02 0.0 
0.0 0.0 -4.495793096351e+01 
-1.138121498747e+02 5.980082731633e+00 0.0 
5.980082731633e+00 -2.570649943942e+02 0.0 
0.0 0.0 -1.108631432807e+02 
-1.521509688879e+02 4.421301978183e+00 0.0 
4.421301978183e+00 -3.614981740914e+02 0.0 
0.0 0.0 -1.536947428938e+02 
-1.182966040469e+01 -3.563090179811e-01 0.0 
-3.563090179811e-01 -7.196722337213e+00 0.0 
0.0 0.0 -5.307914822570e+00 
-1.476124121983e+02 4.221366028777e-01 0.0 
4.221366028777e-01 -3.457622951294e+02 0.0 
0.0 0.0 -1.476124121983e+02 
-1.636323495500e+02 6.251193634581e-01 0.0 
6.251193634581e-01 -3.831421489499e+02 0.0 
0.0 0.0 -1.636323495500e+02 
-8.185256944659e+01 7.902101436261e-01 0.0 
7.902101436261e-01 -1.860825860055e+02 0.0 
0.0 0.0 -7.998054663562e+01 
-7.022080672074e+01 2.509518061423e+00 0.0 
2.509518061423e+00 -1.796539717383e+02 0.0 
0.0 0.0 -7.456243353771e+01 
-1.079712363837e+02 7.321767286899e+00 0.0 
7.321767286899e+00 -2.485066176988e+02 0.0 
0.0 0.0 -1.065433562247e+02 
-6.325978131721e+01 5.983882742238e+00 0.0 
5.983882742238e+00 -1.612742102197e+02 0.0 
0.0 0.0 -6.696019746106e+01 
-2.218665912003e+01 -7.727975523311e-03 0.0 
-7.727975523311e-03 -5.497186192347e+01 0.0 
0.0 0.0 -2.274755631305e+01 
-1.028711912625e+01 6.800529473339e+00 0.0 
6.800529473339e+00 -1.309811214935e+01 0.0 
0.0 0.0 -6.615569382679e+00 
-1.334276889565e+02 1.522475896356e+00 0.0 
1.522475896356e+00 -3.099199092359e+02 0.0 
0.0 0.0 -1.326042794577e+02 
-1.073048158394e+02 3.724670880955e+00 0.0 
3.724670880955e+00 -2.401258179864e+02 0.0 
0.0 0.0 -1.038291901478e+02 
-7.632045332347e+01 1.681451135780e+00 0.0 
1.681451135780e+00 -1.681134778569e+02 0.0 
0.0 0.0 -7.293017935412e+01 
-1.546212572042e+02 8.218244125808e+00 0.0 
8.218244125808e+00 -3.606381320845e+02 0.0 
0.0 0.0 -1.541778167866e+02 
-3.929680379488e+01 7.203080661917e-01 0.0 
7.203080661917e-01 -9.958627976080e+01 0.0 
0.0 0.0 -4.126492506671e+01 
-1.546848971658e+02 8.355192437908e+00 0.0 
8.355192437908e+00 -3.621767051613e+02 0.0 
0.0 0.0 -1.546584806981e+02 
-1.064114821557e+02 1.878621250674e+00 0.0 
1.878621250674e+00 -2.392967662708e+02 0.0 
0.0 0.0 -1.033124745280e+02 
-6.987527948445e+01 1.739363954389e+00 0.0 
1.739363954389e+00 -1.781776860595e+02 0.0 
0.0 0.0 -7.401588966319e+01 
-1.034364691745e+02 5.712708334106e+00 0.0 
5.712708334106e+00 -2.390236736360e+02 0.0 
0.0 0.0 -1.023380428432e+02 
-6.529203439695e+01 8.641261592146e-01 0.0 
8.641261592146e-01 -1.691108412711e+02 0.0 
0.0 0.0 -6.992086270041e+01 
-2.644133116623e+01 6.309928410547e+00 0.0 
6.309928410547e+00 -5.636624897708e+01 0.0 
0.0 0.0 -2.444227404299e+01 
-6.127209439833e+01 2.614346531993e-01 0.0 
2.614346531993e-01 -1.589403410397e+02 0.0 
0.0 0.0 -6.566373063141e+01 
-1.138193108137e+02 2.792163429733e+00 0.0 
2.792163429733e+00 -2.573019329115e+02 0.0 
0.0 0.0 -1.109363731176e+02 
-1.386161482405e+02 1.608928478814e+00 0.0 
1.608928478814e+00 -3.318192308292e+02 0.0 
0.0 0.0 -1.407306137209e+02 
-6.562911409480e+01 1.846475580411e+00 0.0 
1.846475580411e+00 -1.703525574700e+02 0.0 
0.0 0.0 -7.039450146943e+01 
-1.168168467493e+02 4.561445464391e+00 0.0 
4.561445464391e+00 -2.660752089806e+02 0.0 
0.0 0.0 -1.144676167190e+02 
-9.516933769815e+00 -3.933889150193e-01 0.0 
-3.933889150193e-01 -8.324346793947e+00 0.0 
0.0 0.0 -5.853639692370e+00 
-6.607122330515e+01 3.077056441182e+00 0.0 
3.077056441182e+00 -1.709261670843e+02 0.0 
0.0 0.0 -7.069921711684e+01 
-1.193824423190e+02 4.005729746379e+00 0.0 
4.005729746379e+00 -2.702078788838e+02 0.0 
0.0 0.0 -1.164770963609e+02 
-6.063213223973e+01 -3.422231036312e-01 0.0 
-3.422231036312e-01 -1.562897171826e+02 0.0 
0.0 0.0 -6.467655482669e+01 
-5.474256739514e+01 9.391188111681e-01 0.0 
9.391188111681e-01 -1.410580640286e+02 0.0 
0.0 0.0 -5.834018942713e+01 
-1.034346934515e+02 7.470420220269e+00 0.0 
7.470420220269e+00 -2.394356900498e+02 0.0 
0.0 0.0 -1.024611150504e+02 
-2.909156530372e+01 -5.867038929799e-01 0.0 
-5.867038929799e-01 -7.771868191183e+01 0.0 
0.0 0.0 -3.164307416466e+01 
-3.341888344369e+01 2.574454333349e+00 0.0 
2.574454333349e+00 -6.810738618956e+01 0.0 
0.0 0.0 -3.005788088997e+01 
-3.884393409337e+01 2.678141163797e+00 0.0 
2.678141163797e+00 -7.967113618497e+01 0.0 
0.0 0.0 -3.515452108350e+01 
-5.309505503197e+01 -6.347789318236e-01 0.0 
-6.347789318236e-01 -1.375121084297e+02 0.0 
0.0 0.0 -5.678214903850e+01 
-9.477249623250e+01 4.501971776813e+00 0.0 
4.501971776813e+00 -2.357647033681e+02 0.0 
0.0 0.0 -9.876115988019e+01 
-8.995788248558e+01 6.081417451076e+00 0.0 
6.081417451076e+00 -2.131896606248e+02 0.0 
0.0 0.0 -9.054426293311e+01 
-1.174166952609e+02 6.428303605913e+00 0.0 
6.428303605913e+00 -2.666354892412e+02 0.0 
0.0 0.0 -1.148156553506e+02 
-1.370747029193e+02 4.241582128995e+00 0.0 
4.241582128995e+00 -3.168268130058e+02 0.0 
0.0 0.0 -1.357704547775e+02 
-4.189618678215e+01 3.815500159938e-01 0.0 
3.815500159938e-01 -8.791970972565e+01 0.0 
0.0 0.0 -3.854476895234e+01 
-1.110005921408e+02 1.095006226419e+00 0.0 
1.095006226419e+00 -2.553882122483e+02 0.0 
0.0 0.0 -1.095166413167e+02 
-1.390077374676e+02 5.717268468725e+00 0.0 
5.717268468725e+00 -3.225557130632e+02 0.0 
0.0 0.0 -1.380690351593e+02 
-5.869197396275e+01 4.244459651848e+00 0.0 
4.244459651848e+00 -1.524842513485e+02 0.0 
0.0 0.0 -6.295286759337e+01 
-1.405507215783e+01 7.267049337028e+00 0.0 
7.267049337028e+00 -3.228794673675e+01 0.0 
0.0 0.0 -1.350290566838e+01 
-5.451490043665e+01 3.981486188014e+00 0.0 
3.981486188014e+00 -1.141997304695e+02 0.0 
0.0 0.0 -5.021438927185e+01 
-9.041781948972e+01 3.883175350109e+00 0.0 
3.883175350109e+00 -2.262530216442e+02 0.0 
0.0 0.0 -9.460125234018e+01 
-1.170704802308e+02 3.903120965943e+00 0.0 
3.903120965943e+00 -2.659239793029e+02 0.0 
0.0 0.0 -1.144983378601e+02 
-8.983061154254e+01 2.703980606475e+00 0.0 
2.703980606475e+00 -2.257478954858e+02 0.0 
0.0 0.0 -9.427355210851e+01 
-1.972633964033e+01 6.041964054525e+00 0.0 
6.041964054525e+00 -5.417865672553e+01 0.0 
0.0 0.0 -2.177149890976e+01 
-1.032073127113e+02 4.799654073005e+00 0.0 
4.799654073005e+00 -2.544958643351e+02 0.0 
0.0 0.0 -1.069109531139e+02 
-3.078550680412e+01 5.143976683930e+00 0.0 
5.143976683930e+00 -6.399461890355e+01 0.0 
0.0 0.0 -2.803403771230e+01 
-8.963714112929e+01 7.656588267502e+00 0.0 
7.656588267502e+00 -2.133755668083e+02 0.0 
0.0 0.0 -9.050381238127e+01 
-9.818127619141e+01 2.904796342265e+00 0.0 
2.904796342265e+00 -2.444366281064e+02 0.0 
0.0 0.0 -1.023853712893e+02 
-1.069262667796e+02 5.874006913567e+00 0.0 
5.874006913567e+00 -2.491970388925e+02 0.0 
0.0 0.0 -1.064369917016e+02 
-1.012673876529e+02 9.511930326059e-01 0.0 
9.511930326059e-01 -2.310737843964e+02 0.0 
0.0 0.0 -9.930235161480e+01 
-5.399789948925e+01 5.012625280236e-01 0.0 
5.012625280236e-01 -1.381177789903e+02 0.0 
0.0 0.0 -5.723470354386e+01 
-1.796218917041e+01 7.851857205030e+00 0.0 
7.851857205030e+00 -4.643109093286e+01 0.0 
0.0 0.0 -1.891798403098e+01 
-1.067863591008e+02 3.129267710626e+00 0.0 
3.129267710626e+00 -2.634961182775e+02 0.0 
0.0 0.0 -1.106847432135e+02 
-3.497722463834e+01 4.037588670047e+00 0.0 
4.037588670047e+00 -7.208006006368e+01 0.0 
0.0 0.0 -3.171718541060e+01 
-1.164631168074e+01 3.762589051867e-02 0.0 
3.762589051867e-02 -2.560059203243e+01 0.0 
0.0 0.0 -1.077407111395e+01 
-1.341461733149e+02 -5.597207171736e-01 0.0 
-5.597207171736e-01 -3.119277897945e+02 0.0 
0.0 0.0 -1.334221889328e+02 
-1.266636986641e+02 -6.642068271923e-01 0.0 
-6.642068271923e-01 -2.934911369983e+02 0.0 
0.0 0.0 -1.256464506987e+02 
-1.163072618833e+01 -5.592501338265e-01 0.0 
-5.592501338265e-01 -2.470759116803e+01 0.0 
0.0 0.0 -1.088354304048e+01 
-1.118565235553e+02 5.087956600400e+00 0.0 
5.087956600400e+00 -2.735210229899e+02 0.0 
0.0 0.0 -1.152132639636e+02 
-4.222552572848e+01 1.178128677048e-02 0.0 
1.178128677048e-02 -1.076608687316e+02 0.0 
0.0 0.0 -4.456591833802e+01 
-4.473343160545e+01 -1.258954638264e+00 0.0 
-1.258954638264e+00 -1.150778630969e+02 0.0 
0.0 0.0 -4.754338841071e+01 
-1.246211943145e+02 4.842154127314e+00 0.0 
4.842154127314e+00 -2.855590591487e+02 0.0 
0.0 0.0 -1.226540760390e+02 
-1.069189155627e+02 7.553210531930e+00 0.0 
7.553210531930e+00 -2.495201980051e+02 0.0 
0.0 0.0 -1.065317340704e+02 
-1.205191468730e+02 4.997739006022e+00 0.0 
4.997739006022e+00 -2.759533364037e+02 0.0 
0.0 0.0 -1.185417449830e+02 
-6.670050793374e+01 3.965162741834e+00 0.0 
3.965162741834e+00 -1.714257506052e+02 0.0 
0.0 0.0 -7.103787756169e+01 
-7.322536894479e+01 -4.139563745901e-02 0.0 
-4.139563745901e-02 -1.649021697957e+02 0.0 
0.0 0.0 -7.103826162215e+01 
-1.535484507045e+02 4.263599297871e+00 0.0 
4.263599297871e+00 -3.624963196627e+02 0.0 
0.0 0.0 -1.544134311102e+02 
-3.729755563859e+01 -1.395299988631e+00 0.0 
-1.395299988631e+00 -9.572680427098e+01 0.0 
0.0 0.0 -3.950730797287e+01 
-1.300397128696e+02 6.888257180674e+00 0.0 
6.888257180674e+00 -3.104071723018e+02 0.0 
0.0 0.0 -1.317340655514e+02 
-9.426742980629e+01 7.682220166475e+00 0.0 
7.682220166475e+00 -2.219050292560e+02 0.0 
0.0 0.0 -9.445173771868e+01 
-3.029058008312e+01 -8.827074010493e-01 0.0 
-8.827074010493e-01 -7.591956668416e+01 0.0 
0.0 0.0 -3.146304403018e+01 
-1.133919427020e+02 3.431770775782e+00 0.0 
3.431770775782e+00 -2.563886960463e+02 0.0 
0.0 0.0 -1.105341916245e+02 
-7.040716808569e+01 3.816349030758e+00 0.0 
3.816349030758e+00 -1.800352941609e+02 0.0 
0.0 0.0 -7.473273867398e+01 
-1.726344180131e+01 -8.854207739402e-01 0.0 
-8.854207739402e-01 -4.202217135828e+01 0.0 
0.0 0.0 -1.738568394788e+01 
-5.825709807272e+01 2.779668427537e+00 0.0 
2.779668427537e+00 -1.529217451646e+02 0.0 
0.0 0.0 -6.295365297120e+01 
-1.168537889221e+02 -7.240063031298e-01 0.0 
-7.240063031298e-01 -2.845896509560e+02 0.0 
0.0 0.0 -1.200330319634e+02 
-1.147825206177e+02 4.661361042297e+00 0.0 
4.661361042297e+00 -2.583321914977e+02 0.0 
0.0 0.0 -1.115344136346e+02 
-2.918595391207e+01 -2.420810537930e-01 0.0 
-2.420810537930e-01 -7.317178175444e+01 0.0 
0.0 0.0 -3.030732069995e+01 
-9.411136601045e+01 5.741672266737e-01 0.0 
5.741672266737e-01 -2.321489387971e+02 0.0 
0.0 0.0 -9.747809144228e+01 
-1.209196118698e+02 4.374173364831e+00 0.0 
4.374173364831e+00 -2.758199566436e+02 0.0 
0.0 0.0 -1.186218705540e+02 
-1.277557874759e+02 7.703241642832e+00 0.0 
7.703241642832e+00 -2.994683637492e+02 0.0 
0.0 0.0 -1.277672453675e+02 
-5.715583066879e+01 -2.134112038721e-01 0.0 
-2.134112038721e-01 -1.482904015786e+02 0.0 
0.0 0.0 -6.123386967421e+01 
-4.702397250181e+01 -8.368695805638e-01 0.0 
-8.368695805638e-01 -1.189894677777e+02 0.0 
0.0 0.0 -4.940403208386e+01 
-9.804300661216e+01 5.942305759939e+00 0.0 
5.942305759939e+00 -2.320773160683e+02 0.0 
0.0 0.0 -9.863609680412e+01 
-9.855240101534e+01 8.708740943011e-01 0.0 
8.708740943011e-01 -2.253790409912e+02 0.0 
0.0 0.0 -9.677943260197e+01 
-1.713286777324e+01 -7.573229118058e-01 0.0 
-7.573229118058e-01 -4.142764241676e+01 0.0 
0.0 0.0 -1.716815305700e+01 
-1.465425268475e+02 7.083401429038e+00 0.0 
7.083401429038e+00 -3.403359579634e+02 0.0 
0.0 0.0 -1.456635454433e+02 
-1.422894429946e+02 4.329005049985e+00 0.0 
4.329005049985e+00 -3.315284352830e+02 0.0 
0.0 0.0 -1.417453634833e+02 
-8.703325280230e+01 8.062875772784e-01 0.0 
8.062875772784e-01 -1.979406579414e+02 0.0 
0.0 0.0 -8.509217322311e+01 
-1.402877789455e+02 3.102922657180e+00 0.0 
3.102922657180e+00 -3.249144131146e+02 0.0 
0.0 0.0 -1.391606576180e+02 
-1.437154056207e+02 4.826361552660e+00 0.0 
4.826361552660e+00 -3.344802797683e+02 0.0 
0.0 0.0 -1.430587056167e+02 
-6.979573195609e+01 2.578790398645e+00 0.0 
2.578790398645e+00 -1.798859733313e+02 0.0 
0.0 0.0 -7.450451158622e+01 
-6.646231757639e+01 2.792916599093e+00 0.0 
2.792916599093e+00 -1.709520459749e+02 0.0 
0.0 0.0 -7.082430906540e+01 
-1.498546372165e+02 7.448510889167e+00 0.0 
7.448510889167e+00 -3.542759086131e+02 0.0 
0.0 0.0 -1.508391637489e+02 
-9.221092503409e+00 1.217793286328e-01 0.0 
1.217793286328e-01 -8.708340763560e+00 0.0 
0.0 0.0 -5.929442162877e+00 
-4.283897934466e+01 -8.116319984050e-01 0.0 
-8.116319984050e-01 -1.084881933519e+02 0.0 
0.0 0.0 -4.499815180897e+01 
-9.549440897775e+01 -7.527127958523e-01 0.0 
-7.527127958523e-01 -2.365949926282e+02 0.0 
0.0 0.0 -9.922682048180e+01 
-5.811142597772e+01 8.647497403511e-01 0.0 
8.647497403511e-01 -1.489712070683e+02 0.0 
0.0 0.0 -6.172478991382e+01 
-5.792641614686e+01 1.468435652314e+00 0.0 
1.468435652314e+00 -1.521970974788e+02 0.0 
0.0 0.0 -6.263705408769e+01 
-2.500687673275e+01 3.314870181297e+00 0.0 
3.314870181297e+00 -4.829481173967e+01 0.0 
0.0 0.0 -2.159050654173e+01 
-3.012859442554e+01 3.508341232796e+00 0.0 
3.508341232796e+00 -6.073320272070e+01 0.0 
0.0 0.0 -2.685853914387e+01 
-8.826447531641e+01 1.187390100037e+00 0.0 
1.187390100037e+00 -1.983152873828e+02 0.0 
0.0 0.0 -8.557392880976e+01 
-6.294197078857e+01 4.493941095061e+00 0.0 
4.493941095061e+00 -1.623129431904e+02 0.0 
0.0 0.0 -6.717647419368e+01 
-4.988011424897e+01 -8.670572382588e-01 0.0 
-8.670572382588e-01 -1.266527988188e+02 0.0 
0.0 0.0 -5.255987392033e+01 
-1.229421794962e+02 5.973155659539e+00 0.0 
5.973155659539e+00 -2.875167088279e+02 0.0 
0.0 0.0 -1.227376664972e+02 
-1.617578629937e+02 3.520228685073e+00 0.0 
3.520228685073e+00 -3.808786783448e+02 0.0 
0.0 0.0 -1.623909624015e+02 
-1.606473552909e+02 4.297509869941e+00 0.0 
4.297509869941e+00 -3.791306401380e+02 0.0 
0.0 0.0 -1.615333986287e+02 
-6.937530946973e+01 1.491457380155e+00 0.0 
1.491457380155e+00 -1.790286987755e+02 0.0 
0.0 0.0 -7.412120247356e+01 
-8.167433713801e+01 7.951644968537e-02 0.0 
7.951644968537e-02 -1.821129660372e+02 0.0 
0.0 0.0 -7.873619095257e+01 
-1.356455874856e+01 -7.378619187591e-02 0.0 
-7.378619187591e-02 -2.106593713834e+01 0.0 
0.0 0.0 -9.989148766069e+00 
-1.848088731815e+01 5.583829626351e+00 0.0 
5.583829626351e+00 -3.128873899944e+01 0.0 
0.0 0.0 -1.453088789528e+01 
-2.865634229924e+01 3.587754460742e-01 0.0 
3.587754460742e-01 -7.342544357542e+01 0.0 
0.0 0.0 -3.022453576240e+01 
-2.226321990303e+01 4.409696826243e+00 0.0 
4.409696826243e+00 -4.098089035995e+01 0.0 
0.0 0.0 -1.857323307889e+01 
-1.023632485158e+02 7.593812195770e+00 0.0 
7.593812195770e+00 -2.407652915043e+02 0.0 
0.0 0.0 -1.025385620060e+02 
-5.771062057640e+01 4.844481220983e-01 0.0 
4.844481220983e-01 -1.508210205906e+02 0.0 
0.0 0.0 -6.215949235011e+01 
-6.276669720796e+01 3.157194508272e+00 0.0 
3.157194508272e+00 -1.623052984659e+02 0.0 
0.0 0.0 -6.712159870217e+01 
-1.835159203742e+01 9.584517165998e-02 0.0 
9.584517165998e-02 -4.176617029792e+01 0.0 
0.0 0.0 -1.763532870060e+01 
-1.275925358240e+02 1.142665067033e-01 0.0 
1.142665067033e-01 -2.965993425587e+02 0.0 
0.0 0.0 -1.268575635148e+02 
-6.256459006078e+01 2.104438637305e+00 0.0 
2.104438637305e+00 -1.613664918426e+02 0.0 
0.0 0.0 -6.677932457100e+01 
-1.332682547073e+02 4.730241599913e-02 0.0 
4.730241599913e-02 -3.095243822370e+02 0.0 
0.0 0.0 -1.324377910833e+02 
-1.217959196382e+02 9.163727944970e-01 0.0 
9.163727944970e-01 -2.811221588444e+02 0.0 
0.0 0.0 -1.204754235448e+02 
-1.477692315124e+02 1.727698536775e-01 0.0 
1.727698536775e-01 -3.452781851621e+02 0.0 
0.0 0.0 -1.475142250023e+02 
-1.626055642238e+02 6.417657595863e-01 0.0 
6.417657595863e-01 -3.828712196156e+02 0.0 
0.0 0.0 -1.632430351518e+02 
-8.700545245455e+01 -5.906085268736e-01 0.0 
-5.906085268736e-01 -1.983904464517e+02 0.0 
0.0 0.0 -8.521876967187e+01 
-6.620573801043e+01 1.882347148587e+00 0.0 
1.882347148587e+00 -1.697446719520e+02 0.0 
0.0 0.0 -7.038512298873e+01 
-3.292862633770e+01 5.603787811300e-01 0.0 
5.603787811300e-01 -6.818202222322e+01 0.0 
0.0 0.0 -2.993319456827e+01 
-6.898869861557e+01 6.268072238187e-01 0.0 
6.268072238187e-01 -1.775357014286e+02 0.0 
0.0 0.0 -7.355732001324e+01 
-1.633009428897e+02 2.853159443922e+00 0.0 
2.853159443922e+00 -3.823688667427e+02 0.0 
0.0 0.0 -1.633009428897e+02 
-1.233096365445e+01 8.261857742469e+00 0.0 
8.261857742469e+00 -1.567715997724e+01 0.0 
0.0 0.0 -8.002437089507e+00 
-1.496091107331e+01 6.625003072488e+00 0.0 
6.625003072488e+00 -2.269112912394e+01 0.0 
0.0 0.0 -1.089561205918e+01 
-1.344471141446e+02 7.214159711720e+00 0.0 
7.214159711720e+00 -3.194699223670e+02 0.0 
0.0 0.0 -1.357751109535e+02 
-8.139030233260e+01 2.820883657484e-01 0.0 
2.820883657484e-01 -1.826520337457e+02 0.0 
0.0 0.0 -7.881270082350e+01 
-1.339819209812e+02 -2.795874299713e-01 0.0 
-2.795874299713e-01 -3.115530582375e+02 0.0 
0.0 0.0 -1.332604937656e+02 
-1.215245169732e+02 6.257498812353e+00 0.0 
6.257498812353e+00 -2.762479312801e+02 0.0 
0.0 0.0 -1.189317344760e+02 
-1.352712327289e+02 6.318651993493e+00 0.0 
6.318651993493e+00 -3.177053099433e+02 0.0 
0.0 0.0 -1.354929628017e+02 
-1.262642297359e+02 5.625495006611e+00 0.0 
5.625495006611e+00 -2.871534915115e+02 0.0 
0.0 0.0 -1.236253163742e+02 
-8.888018096181e+01 -5.592418905510e-01 0.0 
-5.592418905510e-01 -2.019735138073e+02 0.0 
0.0 0.0 -8.685610843072e+01 
-5.073024620668e+01 4.970952674118e-01 0.0 
4.970952674118e-01 -1.303716162076e+02 0.0 
0.0 0.0 -5.393055872429e+01 
-4.980143447273e+01 -5.681997004659e-01 0.0 
-5.681997004659e-01 -1.297769642416e+02 0.0 
0.0 0.0 -5.347351961431e+01 
-1.068402539702e+02 -6.066370059667e-01 0.0 
-6.066370059667e-01 -2.449874289879e+02 0.0 
0.0 0.0 -1.051483048874e+02 
-1.317780103024e+02 7.994428147800e+00 0.0 
7.994428147800e+00 -3.075851869548e+02 0.0 
0.0 0.0 -1.314089591772e+02 
-7.532365189367e+01 4.080040488076e-01 0.0 
4.080040488076e-01 -1.660834852394e+02 0.0 
0.0 0.0 -7.202214113993e+01 
-8.003595778842e+01 8.396771229645e-05 0.0 
8.396771229645e-05 -1.814840814236e+02 0.0 
0.0 0.0 -7.805601176360e+01 
-8.690857357501e+01 3.510219849096e-01 0.0 
3.510219849096e-01 -1.973792411827e+02 0.0 
0.0 0.0 -8.488634442733e+01 
-8.913035520974e+01 1.155161559460e+00 0.0 
1.155161559460e+00 -2.029585802554e+02 0.0 
0.0 0.0 -8.722668063955e+01 
-2.264047163473e+01 2.328320863168e-01 0.0 
2.328320863168e-01 -6.161341353485e+01 0.0 
0.0 0.0 -2.487616555087e+01 
-4.577613561564e+01 -8.940590813383e-01 0.0 
-8.940590813383e-01 -1.187687389088e+02 0.0 
0.0 0.0 -4.896346235732e+01 
-1.415719000866e+02 8.819884420005e-01 0.0 
8.819884420005e-01 -3.298091789820e+02 0.0 
0.0 0.0 -1.410143237206e+02 
-9.749821977428e+01 1.163238846545e+00 0.0 
1.163238846545e+00 -2.221930440474e+02 0.0 
0.0 0.0 -9.550737914649e+01 
-1.513782497977e+02 7.061347343647e+00 0.0 
7.061347343647e+00 -3.560747083926e+02 0.0 
0.0 0.0 -1.518358874571e+02 
-1.385590044012e+02 5.756644932299e+00 0.0 
5.756644932299e+00 -3.184750200974e+02 0.0 
0.0 0.0 -1.367102073496e+02 
-1.142042322427e+02 5.269955885891e+00 0.0 
5.269955885891e+00 -2.572210254159e+02 0.0 
0.0 0.0 -1.110275772976e+02 
-1.350609092906e+02 2.850600558811e+00 0.0 
2.850600558811e+00 -3.122491189997e+02 0.0 
0.0 0.0 -1.337930084871e+02 
-7.027052942416e+01 -5.780170321002e-01 0.0 
-5.780170321002e-01 -1.765552749610e+02 0.0 
0.0 0.0 -7.364774131555e+01 
-6.354862839264e+01 -6.824840200304e-01 0.0 
-6.824840200304e-01 -1.610988333365e+02 0.0 
0.0 0.0 -6.699423851875e+01 
-1.457628506351e+02 3.406244111466e+00 0.0 
3.406244111466e+00 -3.473411464560e+02 0.0 
0.0 0.0 -1.475311991273e+02 
-1.196392081764e+01 -6.859203131547e-01 0.0 
-6.859203131547e-01 -2.434412348240e+01 0.0 
0.0 0.0 -1.094509796104e+01 
-4.563389457789e+01 3.033260818511e-02 0.0 
3.033260818511e-02 -1.145907405820e+02 0.0 
0.0 0.0 -4.766739054796e+01 
-1.542473583494e+02 7.933762936586e+00 0.0 
7.933762936586e+00 -3.612438361485e+02 0.0 
0.0 0.0 -1.542473583494e+02 
-2.262806704943e+01 6.411589419255e-01 0.0 
6.411589419255e-01 -5.751517115519e+01 0.0 
0.0 0.0 -2.364297146138e+01 
-8.012830715646e+01 -3.966477738479e-02 0.0 
-3.966477738479e-02 -1.815736578235e+02 0.0 
0.0 0.0 -7.811058949398e+01 
-1.432937769644e+02 6.683062284742e+00 0.0 
6.683062284742e+00 -3.411884762675e+02 0.0 
0.0 0.0 -1.449446759696e+02 
-1.672781773123e+01 -1.142896609689e+00 0.0 
-1.142896609689e+00 -3.899540650456e+01 0.0 
0.0 0.0 -1.631696727074e+01 
-1.031967767068e+01 -1.744813184550e-01 0.0 
-1.744813184550e-01 -2.392873433074e+01 0.0 
0.0 0.0 -9.874523600427e+00 
-1.486469142324e+02 2.353455634147e+00 0.0 
2.353455634147e+00 -3.465630604710e+02 0.0 
0.0 0.0 -1.481629924110e+02 
-7.358211745505e+01 -2.753549444689e-01 0.0 
-2.753549444689e-01 -1.648745285703e+02 0.0 
0.0 0.0 -7.113699380760e+01 
-1.403257540612e+02 7.579946050253e-01 0.0 
7.579946050253e-01 -3.260507477843e+02 0.0 
0.0 0.0 -1.395129505537e+02 
-1.435169683528e+02 6.495231626218e+00 0.0 
6.495231626218e+00 -3.397658661029e+02 0.0 
0.0 0.0 -1.445848503367e+02 
-7.335560889812e+01 2.857234321248e-01 0.0 
2.857234321248e-01 -1.645619936436e+02 0.0 
0.0 0.0 -7.097528076251e+01 
-1.413323371349e+01 3.332939085595e-01 0.0 
3.332939085595e-01 -2.261551129216e+01 0.0 
0.0 0.0 -1.062462350170e+01 
-1.408313593178e+02 7.013727188759e-01 0.0 
7.013727188759e-01 -3.288404889603e+02 0.0 
0.0 0.0 -1.405015544834e+02 
-2.502241146933e+01 2.920525390722e-01 0.0 
2.920525390722e-01 -6.326700297232e+01 0.0 
0.0 0.0 -2.608682433250e+01 
-1.353757923850e+02 8.867959528955e-01 0.0 
8.867959528955e-01 -3.149805538921e+02 0.0 
0.0 0.0 -1.347069038831e+02 
-1.634236197783e+02 2.180986278592e+00 0.0 
2.180986278592e+00 -3.826551128161e+02 0.0 
0.0 0.0 -1.634236197783e+02 
-1.372155509018e+02 4.820681533533e+00 0.0 
4.820681533533e+00 -3.167121692961e+02 0.0 
0.0 0.0 -1.357783160594e+02 
-2.855010082089e+01 6.498123757080e-01 0.0 
6.498123757080e-01 -7.948256817405e+01 0.0 
0.0 0.0 -3.200980069848e+01 
-8.926418563578e+01 8.571220977478e-01 0.0 
8.571220977478e-01 -1.995455697635e+02 0.0 
0.0 0.0 -8.624292661980e+01 
-7.115971920141e+01 4.741385885942e-01 0.0 
4.741385885942e-01 -1.792477579866e+02 0.0 
0.0 0.0 -7.472224315642e+01 
-1.233132609364e+02 7.639163079686e+00 0.0 
7.639163079686e+00 -2.878534654697e+02 0.0 
0.0 0.0 -1.229500179218e+02 
-1.568456603229e+02 8.646419463804e+00 0.0 
8.646419463804e+00 -3.675172076727e+02 0.0 
0.0 0.0 -1.569088603987e+02 
-1.152855348491e+02 -3.141306521872e-01 0.0 
-3.141306521872e-01 -2.660131582333e+02 0.0 
0.0 0.0 -1.139896079247e+02 
-1.568186588148e+02 7.635394791792e+00 0.0 
7.635394791792e+00 -3.688581661270e+02 0.0 
0.0 0.0 -1.573030474826e+02 
-1.629928203789e+01 -5.007520498398e-01 0.0 
-5.007520498398e-01 -4.049096597379e+01 0.0 
0.0 0.0 -1.663707440350e+01 
-1.553599600397e+02 3.268188515198e+00 0.0 
3.268188515198e+00 -3.671882459255e+02 0.0 
0.0 0.0 -1.563644617896e+02 
-3.298323362490e+01 6.932890514679e-01 0.0 
6.932890514679e-01 -8.962719203485e+01 0.0 
0.0 0.0 -3.638312769793e+01 
-2.257015198781e+01 -6.302451707714e-01 0.0 
-6.302451707714e-01 -5.748972681454e+01 0.0 
0.0 0.0 -2.361796364070e+01 
-1.516763066910e+02 6.644263183139e+00 0.0 
6.644263183139e+00 -3.592756081510e+02 0.0 
0.0 0.0 -1.528855744526e+02 
-1.433203936980e+02 3.393763469861e+00 0.0 
3.393763469861e+00 -3.319965492552e+02 0.0 
0.0 0.0 -1.421950828860e+02 
-1.432874085257e+02 2.641617317668e+00 0.0 
2.641617317668e+00 -3.336510979036e+02 0.0 
0.0 0.0 -1.426815519288e+02 
-7.975209391446e+01 -6.913968900154e-01 0.0 
-6.913968900154e-01 -1.803517073396e+02 0.0 
0.0 0.0 -7.763114037622e+01 
-9.061569755639e+01 5.765900079436e-01 0.0 
5.765900079436e-01 -2.020393396365e+02 0.0 
0.0 0.0 -8.739651115787e+01 
-2.653637630460e+01 9.544642941737e+00 0.0 
9.544642941737e+00 -5.618353329265e+01 0.0 
0.0 0.0 -2.441597287918e+01 
-1.455919414132e+02 5.896175652821e+00 0.0 
5.896175652821e+00 -3.364851724361e+02 0.0 
0.0 0.0 -1.442231341548e+02 
-5.962275392701e+01 -7.550798056696e-01 0.0 
-7.550798056696e-01 -1.498988228757e+02 0.0 
0.0 0.0 -6.245647304081e+01 
-1.605723605672e+01 6.242103406402e+00 0.0 
6.242103406402e+00 -4.277088814182e+01 0.0 
0.0 0.0 -1.724843725956e+01 
-1.274457321821e+02 6.202197697878e+00 0.0 
6.202197697878e+00 -2.990529259656e+02 0.0 
0.0 0.0 -1.275495974443e+02 
-7.289518253591e+01 1.083132679784e-01 0.0 
1.083132679784e-01 -1.641675923436e+02 0.0 
0.0 0.0 -7.071883246385e+01 
-1.374477093232e+02 2.406982528032e+00 0.0 
2.406982528032e+00 -3.184893859628e+02 0.0 
0.0 0.0 -1.363811285858e+02 
-1.472800534260e+02 7.693821163523e-01 0.0 
7.693821163523e-01 -3.438628241168e+02 0.0 
0.0 0.0 -1.469428632628e+02 
-1.478440438150e+02 1.685950815799e-01 0.0 
1.685950815799e-01 -3.463027689016e+02 0.0 
0.0 0.0 -1.478440438150e+02 
-2.771628744777e+00 3.467890690334e-01 0.0 
3.467890690334e-01 -6.610214311183e+00 0.0 
0.0 0.0 -2.414552916788e+00 
-5.075157137198e+00 -2.839877256951e-01 0.0 
-2.839877256951e-01 -1.041765129057e+01 0.0 
0.0 0.0 -4.884349078492e+00 
-7.368232679490e+01 6.759897041353e-01 0.0 
6.759897041353e-01 -1.666091724125e+02 0.0 
0.0 0.0 -7.168744976221e+01 
-7.228126751827e+01 -1.068167239314e-01 0.0 
-1.068167239314e-01 -1.640961995488e+02 0.0 
0.0 0.0 -7.051324012011e+01 
-1.638321434224e+02 2.570781237735e-01 0.0 
2.570781237735e-01 -3.836083346522e+02 0.0 
0.0 0.0 -1.638321434224e+02 
-1.619160446297e+02 -6.775502396279e-01 0.0 
-6.775502396279e-01 -3.808512916279e+02 0.0 
0.0 0.0 -1.624302008773e+02 
-9.478140052561e+00 -6.554753308232e-01 0.0 
-6.554753308232e-01 -2.295782588954e+01 0.0 
0.0 0.0 -9.330789782629e+00 
-9.150135063356e+00 -3.228358535957e-01 0.0 
-3.228358535957e-01 -8.218473039879e+00 0.0 
0.0 0.0 -5.711008778176e+00 
-1.477709430255e+02 1.062131078981e+00 0.0 
1.062131078981e+00 -3.511348250829e+02 0.0 
0.0 0.0 -1.492717304325e+02 
-1.395236633094e+02 6.209084354842e+00 0.0 
6.209084354842e+00 -3.250718313669e+02 0.0 
0.0 0.0 -1.389786484029e+02 
-2.972378439896e+01 4.616416141726e-02 0.0 
4.616416141726e-02 -7.391059879034e+01 0.0 
0.0 0.0 -3.069031495679e+01 
-1.491223226302e+02 3.436380763906e+00 0.0 
3.436380763906e+00 -3.537801833497e+02 0.0 
0.0 0.0 -1.504707517940e+02 
-1.026722733701e+02 2.918684138727e-01 0.0 
2.918684138727e-01 -2.523297920635e+02 0.0 
0.0 0.0 -1.061006196301e+02 
-8.748119612252e+01 8.015685673763e-01 0.0 
8.015685673763e-01 -2.179393767095e+02 0.0 
0.0 0.0 -9.122617184960e+01 
-1.012551021324e+02 -1.540006835701e-01 0.0 
-1.540006835701e-01 -2.320508703448e+02 0.0 
0.0 0.0 -9.959179174317e+01 
-2.691629429458e+01 -7.986311145915e-01 0.0 
-7.986311145915e-01 -6.905317907964e+01 0.0 
0.0 0.0 -2.839084201227e+01 
-1.151118027977e+02 7.609026909269e+00 0.0 
7.609026909269e+00 -2.686887297138e+02 0.0 
0.0 0.0 -1.147401597534e+02 
-2.399090212957e+01 -5.902829187597e-01 0.0 
-5.902829187597e-01 -5.928607666141e+01 0.0 
0.0 0.0 -2.458309363730e+01 
-7.955135846140e+01 8.296800712692e-01 0.0 
8.296800712692e-01 -1.982896939918e+02 0.0 
0.0 0.0 -8.295231573596e+01 
-1.394484635726e+02 4.761486067729e+00 0.0 
4.761486067729e+00 -3.225777641035e+02 0.0 
0.0 0.0 -1.382078683028e+02 
-1.311503529201e+02 8.758648414173e-01 0.0 
8.758648414173e-01 -3.044266220122e+02 0.0 
0.0 0.0 -1.302730924797e+02 
-8.765884063864e+01 -3.696404126558e-01 0.0 
-3.696404126558e-01 -2.170782269420e+02 0.0 
0.0 0.0 -9.102112027419e+01 
-9.276021373453e+01 8.349426785582e-01 0.0 
8.349426785582e-01 -2.116816700840e+02 0.0 
0.0 0.0 -9.093256514557e+01 
-1.404048553578e+02 6.615840073725e+00 0.0 
6.615840073725e+00 -3.256546521066e+02 0.0 
0.0 0.0 -1.394178522393e+02 
-1.297385373189e+02 6.040259965763e+00 0.0 
6.040259965763e+00 -2.960126715181e+02 0.0 
0.0 0.0 -1.273253626511e+02 
-1.219519805613e+02 5.676964974741e+00 0.0 
5.676964974741e+00 -2.765259876510e+02 0.0 
0.0 0.0 -1.191433904637e+02 
-7.320542373162e+01 1.114662607723e-02 0.0 
1.114662607723e-02 -1.648162679980e+02 0.0 
0.0 0.0 -7.100650751888e+01 
-1.106813304960e+02 7.642246743926e+00 0.0 
7.642246743926e+00 -2.600518102960e+02 0.0 
0.0 0.0 -1.108199422376e+02 
-1.366691796051e+02 3.075412004109e+00 0.0 
3.075412004109e+00 -3.165475274975e+02 0.0 
0.0 0.0 -1.355650121308e+02 
-4.487689980061e+01 -6.188505360355e-01 0.0 
-6.188505360355e-01 -1.141126561656e+02 0.0 
0.0 0.0 -4.729686678986e+01 
-1.233387907154e+01 -4.278733289902e-01 0.0 
-4.278733289902e-01 -2.504679956018e+01 0.0 
0.0 0.0 -1.081420358952e+01 
-1.354312126456e+02 7.026173673883e+00 0.0 
7.026173673883e+00 -3.127491206744e+02 0.0 
0.0 0.0 -1.340540999960e+02 
-1.297749830765e+02 5.533276219785e+00 0.0 
5.533276219785e+00 -3.101646902324e+02 0.0 
0.0 0.0 -1.315819019927e+02 
-2.266515966668e+01 -3.644257085585e-01 0.0 
-3.644257085585e-01 -5.758858238627e+01 0.0 
0.0 0.0 -2.367612261589e+01 
-1.072032027264e+02 8.056868280174e-01 0.0 
8.056868280174e-01 -2.461153188158e+02 0.0 
0.0 0.0 -1.055955564627e+02 
-1.550349855721e+02 1.781607308307e+00 0.0 
1.781607308307e+00 -3.657683221019e+02 0.0 
0.0 0.0 -1.558409923022e+02 
-1.347884066597e+02 6.220750094936e+00 0.0 
6.220750094936e+00 -3.132744326961e+02 0.0 
0.0 0.0 -1.340188518068e+02 
-1.406818224736e+02 7.289898227020e+00 0.0 
7.289898227020e+00 -3.265989373101e+02 0.0 
0.0 0.0 -1.397842279351e+02 
-1.115286050743e+02 9.713451870851e-01 0.0 
9.713451870851e-01 -2.724926023652e+02 0.0 
0.0 0.0 -1.148063622319e+02 
-9.396555222201e+00 2.590934451788e+00 0.0 
2.590934451788e+00 -2.216687505496e+01 0.0 
0.0 0.0 -9.345820132377e+00 
-2.349033528563e+01 1.136948878348e+00 0.0 
1.136948878348e+00 -4.792454236065e+01 0.0 
0.0 0.0 -2.102446329388e+01 
-3.571820902132e+01 7.259199898202e+00 0.0 
7.259199898202e+00 -7.221763634114e+01 0.0 
0.0 0.0 -3.198075360874e+01 
-8.965550549624e+01 8.576246949406e-01 0.0 
8.576246949406e-01 -1.996072705173e+02 0.0 
0.0 0.0 -8.637883280406e+01 
-1.106451746001e+02 5.843311452900e+00 0.0 
5.843311452900e+00 -2.597263262184e+02 0.0 
0.0 0.0 -1.107114502455e+02 
-1.364468708254e+02 1.726286815033e+00 0.0 
1.726286815033e+00 -3.172694144634e+02 0.0 
0.0 0.0 -1.357148855866e+02 
-1.501085225247e+02 6.742113652723e+00 0.0 
6.742113652723e+00 -3.534484947566e+02 0.0 
0.0 0.0 -1.506671051844e+02 
-1.875711443137e+01 -7.026194024400e-01 0.0 
-7.026194024400e-01 -4.160055094058e+01 0.0 
0.0 0.0 -1.770729961159e+01 
-1.780029333767e+01 -1.118028352954e+00 0.0 
-1.118028352954e+00 -4.026311748553e+01 0.0 
0.0 0.0 -1.701902324696e+01 
-1.506205456731e+01 1.280652598615e+00 0.0 
1.280652598615e+00 -3.036430243563e+01 0.0 
0.0 0.0 -1.322790710088e+01 
-1.096828558921e+02 -8.077524794477e-01 0.0 
-8.077524794477e-01 -2.517978357149e+02 0.0 
0.0 0.0 -1.080442074821e+02 
-5.527851765065e+01 4.621296844601e-01 0.0 
4.621296844601e-01 -1.396730775737e+02 0.0 
0.0 0.0 -5.808547856731e+01 
-1.381567326762e+02 3.174649078453e+00 0.0 
3.174649078453e+00 -3.198552930038e+02 0.0 
0.0 0.0 -1.370036077040e+02 
-2.838747041836e+01 3.474013126691e-01 0.0 
3.474013126691e-01 -7.085119562080e+01 0.0 
0.0 0.0 -2.937159981175e+01 
-1.421467854608e+02 6.371028684326e+00 0.0 
6.371028684326e+00 -3.363014048777e+02 0.0 
0.0 0.0 -1.431344571015e+02 
-8.776384971204e+01 -2.600825052816e-01 0.0 
-2.600825052816e-01 -1.976477714195e+02 0.0 
0.0 0.0 -8.522348633947e+01 
-1.488288415174e+02 7.543049340551e+00 0.0 
7.543049340551e+00 -3.478609212881e+02 0.0 
0.0 0.0 -1.486069288416e+02 
-1.278276423945e+02 7.898081135824e+00 0.0 
7.898081135824e+00 -2.972279569041e+02 0.0 
0.0 0.0 -1.271166797896e+02 
-9.004360419699e+01 1.531648628541e+00 0.0 
1.531648628541e+00 -1.998321413118e+02 0.0 
0.0 0.0 -8.656272365265e+01 
-1.524188211412e+02 5.588973148364e+00 0.0 
5.588973148364e+00 -3.614295083660e+02 0.0 
0.0 0.0 -1.537544988522e+02 
-1.429530112915e+02 2.569163718488e+00 0.0 
2.569163718488e+00 -3.320322966757e+02 0.0 
0.0 0.0 -1.420955923902e+02 
-1.418738996369e+02 -6.581710436208e-07 0.0 
-6.581710436208e-07 -3.301009181401e+02 0.0 
0.0 0.0 -1.411924453331e+02 
-6.352795260315e+00 2.667874283890e+00 0.0 
2.667874283890e+00 -1.353053616899e+01 0.0 
0.0 0.0 -5.564999428793e+00 
-1.346352156671e+02 1.482650890326e+00 0.0 
1.482650890326e+00 -3.119190739472e+02 0.0 
0.0 0.0 -1.335662868843e+02 
-1.454803303146e+02 6.492073123034e+00 0.0 
6.492073123034e+00 -3.390442418370e+02 0.0 
0.0 0.0 -1.449573716455e+02 
-1.422679519450e+02 7.388631919464e+00 0.0 
7.388631919464e+00 -3.369565612762e+02 0.0 
0.0 0.0 -1.433673539664e+02 
-1.311080509751e+02 6.050328087815e+00 0.0 
6.050328087815e+00 -3.066604323066e+02 0.0 
0.0 0.0 -1.309305449845e+02 
-1.627029664721e+02 3.509449175930e+00 0.0 
3.509449175930e+00 -3.809735884350e+02 0.0 
0.0 0.0 -1.627029664721e+02 
-1.210695788484e+02 3.725821238158e+00 0.0 
3.725821238158e+00 -2.757692293249e+02 0.0 
0.0 0.0 -1.186516424520e+02 
-8.427546526512e+00 1.917845063139e+00 0.0 
1.917845063139e+00 -8.633228567537e+00 0.0 
0.0 0.0 -5.669975428740e+00 
-1.867294200747e+01 8.833493520093e+00 0.0 
8.833493520093e+00 -4.668542896777e+01 0.0 
0.0 0.0 -1.920751129257e+01 
-1.335813591480e+02 5.803346642898e+00 0.0 
5.803346642898e+00 -3.063414081192e+02 0.0 
0.0 0.0 -1.315768301802e+02 
-9.545413010592e+01 4.834779473326e-01 0.0 
4.834779473326e-01 -2.142505784562e+02 0.0 
0.0 0.0 -9.251141256863e+01 
-1.476887178211e+02 1.666248148396e+00 0.0 
1.666248148396e+00 -3.506956253665e+02 0.0 
0.0 0.0 -1.491153029563e+02 
-1.360032458488e+02 8.043102815891e+00 0.0 
8.043102815891e+00 -3.164942046307e+02 0.0 
0.0 0.0 -1.353492351439e+02 
-1.558227687410e+02 3.303691310019e+00 0.0 
3.303691310019e+00 -3.669998759347e+02 0.0 
0.0 0.0 -1.564467934027e+02 
-1.183703038109e+02 -5.444687806109e-01 0.0 
-5.444687806109e-01 -2.724793976761e+02 0.0 
0.0 0.0 -1.168549104461e+02 
-1.492899529045e+02 7.589276026133e+00 0.0 
7.589276026133e+00 -3.497744346582e+02 0.0 
0.0 0.0 -1.493193162688e+02 
-1.470961088563e+02 5.381907852478e+00 0.0 
5.381907852478e+00 -3.493487816488e+02 0.0 
0.0 0.0 -1.485334671515e+02 
-1.466718025777e+02 4.144097839289e+00 0.0 
4.144097839289e+00 -3.490069493703e+02 0.0 
0.0 0.0 -1.483036255844e+02 
-5.752479172407e+01 2.643083179129e-01 0.0 
2.643083179129e-01 -1.450231483676e+02 0.0 
0.0 0.0 -6.036438202752e+01 
-1.622949806813e+02 3.124343248724e+00 0.0 
3.124343248724e+00 -3.817396145271e+02 0.0 
0.0 0.0 -1.628103785625e+02 
-8.129431112153e+01 4.141064503323e-01 0.0 
4.141064503323e-01 -1.813003106579e+02 0.0 
0.0 0.0 -7.837838653382e+01 
-1.345127341554e+02 1.320594126733e+00 0.0 
1.320594126733e+00 -3.120607054368e+02 0.0 
0.0 0.0 -1.335720318777e+02 
-1.720873655403e+01 -6.600225582142e-01 0.0 
-6.600225582142e-01 -4.116966833815e+01 0.0 
0.0 0.0 -1.711352146765e+01 
-1.286811703312e+02 7.694468298452e-01 0.0 
7.694468298452e-01 -2.973972985282e+02 0.0 
0.0 0.0 -1.274235406578e+02 
-1.081420818441e+02 3.670857432965e-01 0.0 
3.670857432965e-01 -2.478953409495e+02 0.0 
0.0 0.0 -1.064112268381e+02 
-1.673078259761e+01 2.245686061848e-01 0.0 
2.245686061848e-01 -4.191243692959e+01 0.0 
0.0 0.0 -1.719296585816e+01 
-2.670615166456e+01 1.683898238626e+00 0.0 
1.683898238626e+00 -7.168722995758e+01 0.0 
0.0 0.0 -2.911801448664e+01 
-1.248114429419e+02 4.155044558638e+00 0.0 
4.155044558638e+00 -2.854148954009e+02 0.0 
0.0 0.0 -1.226679015029e+02 
-1.412311941538e+02 1.579203768253e+00 0.0 
1.579203768253e+00 -3.295916124308e+02 0.0 
0.0 0.0 -1.408468419754e+02 
-1.352709731998e+02 9.616633747361e-01 0.0 
9.616633747361e-01 -3.146955425537e+02 0.0 
0.0 0.0 -1.345899547260e+02 
-1.477259150761e+02 6.765068968827e+00 0.0 
6.765068968827e+00 -3.471007035422e+02 0.0 
0.0 0.0 -1.480479855855e+02 
-9.271737093830e+01 -7.227936303728e-01 0.0 
-7.227936303728e-01 -2.112494440377e+02 0.0 
0.0 0.0 -9.079004449281e+01 
-1.152657835625e+01 -6.052006419503e-01 0.0 
-6.052006419503e-01 -2.456757105998e+01 0.0 
0.0 0.0 -1.042824482487e+01 
-1.470969356730e+01 1.749615346585e+00 0.0 
1.749615346585e+00 -3.596344568436e+01 0.0 
0.0 0.0 -1.480194177550e+01 
-1.188002905982e+01 -1.278894774503e+00 0.0 
-1.278894774503e+00 -2.802657480911e+01 0.0 
0.0 0.0 -1.156339601781e+01 
-2.265945262310e+01 -3.366156028686e-01 0.0 
-3.366156028686e-01 -5.444912258848e+01 0.0 
0.0 0.0 -2.273257256348e+01 
-9.219388933450e+00 5.058820295103e+00 0.0 
5.058820295103e+00 -6.923524781361e+00 0.0 
0.0 0.0 -4.638495913764e+00 
-7.753989503363e+01 -4.173400466512e-01 0.0 
-4.173400466512e-01 -1.933815665770e+02 0.0 
0.0 0.0 -8.087643848319e+01 
-1.475683137902e+02 1.866599392236e-01 0.0 
1.866599392236e-01 -3.505990966476e+02 0.0 
0.0 0.0 -1.490502231313e+02 
-1.372265379242e+02 3.479133566756e+00 0.0 
3.479133566756e+00 -3.169891369755e+02 0.0 
0.0 0.0 -1.358647024699e+02 
-9.619380071651e+01 2.351434862995e+00 0.0 
2.351434862995e+00 -2.139218969936e+02 0.0 
0.0 0.0 -9.263470931303e+01 
-6.727652076400e+01 9.995387111221e-01 0.0 
9.995387111221e-01 -1.694157346840e+02 0.0 
0.0 0.0 -7.060767663439e+01 
-1.462739347126e+02 4.601618399686e+00 0.0 
4.601618399686e+00 -3.481393153990e+02 0.0 
0.0 0.0 -1.479239750335e+02 
-1.425621292236e+02 5.054069716155e+00 0.0 
5.054069716155e+00 -3.399486661629e+02 0.0 
0.0 0.0 -1.443532386160e+02 
-1.485440481104e+02 7.562886583629e+00 0.0 
7.562886583629e+00 -3.477592520118e+02 0.0 
0.0 0.0 -1.484909900367e+02 
-1.403050301805e+02 6.647805668909e+00 0.0 
6.647805668909e+00 -3.257345560771e+02 0.0 
0.0 0.0 -1.394118758773e+02 
-1.323150031788e+02 4.586762290682e+00 0.0 
4.586762290682e+00 -3.044586446643e+02 0.0 
0.0 0.0 -1.306320943529e+02 
-1.669783866014e+01 -1.112280573684e+00 0.0 
-1.112280573684e+00 -4.047485013463e+01 0.0 
0.0 0.0 -1.675180663843e+01 
-1.741445455643e+01 3.297516183194e-01 0.0 
3.297516183194e-01 -3.616870520541e+01 0.0 
0.0 0.0 -1.567494792855e+01 
-1.478405483828e+02 2.155003483790e+00 0.0 
2.155003483790e+00 -3.516730813840e+02 0.0 
0.0 0.0 -1.494540889300e+02 
-1.592384720050e+01 -2.596831504637e-01 0.0 
-2.596831504637e-01 -4.120961660654e+01 0.0 
0.0 0.0 -1.674003914211e+01 
-1.921334512579e+01 -1.089934494981e+00 0.0 
-1.089934494981e+00 -4.901826647068e+01 0.0 
0.0 0.0 -2.006948347894e+01 
-1.018481572113e+01 6.085536757438e+00 0.0 
6.085536757438e+00 -2.515348033974e+01 0.0 
0.0 0.0 -1.020148881826e+01 
-1.615192032292e+01 -7.766011741298e-02 0.0 
-7.766011741298e-02 -3.870182317836e+01 0.0 
0.0 0.0 -1.605612305038e+01 
-1.537685104255e+02 4.988891266472e+00 0.0 
4.988891266472e+00 -3.628127992332e+02 0.0 
0.0 0.0 -1.545743928976e+02 
-1.451271927266e+02 6.275930027870e+00 0.0 
6.275930027870e+00 -3.378125681109e+02 0.0 
0.0 0.0 -1.444819282513e+02 
-1.361392326636e+02 2.631511972572e-01 0.0 
2.631511972572e-01 -3.172582710752e+02 0.0 
0.0 0.0 -1.356192511216e+02 
-1.484622250903e+02 7.529622173007e+00 0.0 
7.529622173007e+00 -3.476805712312e+02 0.0 
0.0 0.0 -1.484428388964e+02 
-1.379715234025e+02 6.473569353185e+00 0.0 
6.473569353185e+00 -3.291278626706e+02 0.0 
0.0 0.0 -1.397298158219e+02 
-9.757657009796e+01 -7.871589163396e-01 0.0 
-7.871589163396e-01 -2.224842700222e+02 0.0 
0.0 0.0 -9.561825203605e+01 
-1.483114953881e+02 2.080543782900e+00 0.0 
2.080543782900e+00 -3.473934892390e+02 0.0 
0.0 0.0 -1.483114953881e+02 
-3.448548362560e+01 7.040702343223e-01 0.0 
7.040702343223e-01 -9.027012832886e+01 0.0 
0.0 0.0 -3.702668358634e+01 
-7.330073531876e+01 6.377531163908e-02 0.0 
6.377531163908e-02 -1.639655147847e+02 0.0 
0.0 0.0 -7.077987503103e+01 
-2.326080630961e+01 -9.624528247210e-01 0.0 
-9.624528247210e-01 -5.571260246485e+01 0.0 
0.0 0.0 -2.329202263234e+01 
-1.037550624284e+01 -5.375155859336e-01 0.0 
-5.375155859336e-01 -2.438076763959e+01 0.0 
0.0 0.0 -1.057374204521e+01 
-1.624136612558e+02 1.951976181064e+00 0.0 
1.951976181064e+00 -3.820823523464e+02 0.0 
0.0 0.0 -1.629488040807e+02 
-8.316578526907e+01 1.149790609604e+00 0.0 
1.149790609604e+00 -1.842197295985e+02 0.0 
0.0 0.0 -7.981565446026e+01 
-2.309660186486e+01 -4.497531798608e-01 0.0 
-4.497531798608e-01 -5.704764448316e+01 0.0 
0.0 0.0 -2.364327390440e+01 
-7.397844082467e+01 -8.978626794347e-01 0.0 
-8.978626794347e-01 -1.860256362202e+02 0.0 
0.0 0.0 -7.760122311345e+01 
-1.461784378726e+02 5.943257352363e+00 0.0 
5.943257352363e+00 -3.385746611338e+02 0.0 
0.0 0.0 -1.450259297019e+02 
-1.360564243572e+02 2.102395596780e+00 0.0 
2.102395596780e+00 -3.158046276747e+02 0.0 
0.0 0.0 -1.351583156096e+02 
-1.425970395740e+02 3.283613661221e+00 0.0 
3.283613661221e+00 -3.323166101172e+02 0.0 
0.0 0.0 -1.420740949074e+02 
-5.263786315253e+01 3.867853671974e-01 0.0 
3.867853671974e-01 -1.324882715553e+02 0.0 
0.0 0.0 -5.513784041234e+01 
-1.580750655230e+01 1.119822277773e+00 0.0 
1.119822277773e+00 -3.667836776910e+01 0.0 
0.0 0.0 -1.534576229642e+01 
-1.541657249414e+02 3.927383417993e+00 0.0 
3.927383417993e+00 -3.655105313589e+02 0.0 
0.0 0.0 -1.555028768901e+02 
-1.486617853954e+02 1.058151284796e-01 0.0 
1.058151284796e-01 -3.464886939140e+02 0.0 
0.0 0.0 -1.481451437928e+02 
-1.625003680307e+02 5.191809526230e-01 0.0 
5.191809526230e-01 -3.829012977208e+02 0.0 
0.0 0.0 -1.632204997255e+02 
-7.871799825776e+01 -5.101890173505e-01 0.0 
-5.101890173505e-01 -1.785103347963e+02 0.0 
0.0 0.0 -7.676849991623e+01 
-1.446708883566e+02 6.024226531142e+00 0.0 
6.024226531142e+00 -3.427442319058e+02 0.0 
0.0 0.0 -1.458245360787e+02 
-2.330891655010e+01 -6.555410529981e-02 0.0 
-6.555410529981e-02 -5.828435649925e+01 0.0 
0.0 0.0 -2.407798191480e+01 
-1.376737463343e+02 1.829728535595e+00 0.0 
1.829728535595e+00 -3.198041952714e+02 0.0 
0.0 0.0 -1.368433824817e+02 
-1.028259299426e+01 -3.965814150161e-01 0.0 
-3.965814150161e-01 -2.342099942952e+01 0.0 
0.0 0.0 -1.021883547467e+01 
-1.531995098728e+02 5.811053942684e+00 0.0 
5.811053942684e+00 -3.613897121063e+02 0.0 
0.0 0.0 -1.539767665937e+02 
-1.428836479060e+02 3.081271352801e+00 0.0 
3.081271352801e+00 -3.315747489641e+02 0.0 
0.0 0.0 -1.419375190610e+02 
-1.050192611402e+01 1.131564672613e+00 0.0 
1.131564672613e+00 -2.308056479067e+01 0.0 
0.0 0.0 -1.018401880603e+01 
-1.353682862325e+02 7.512243383486e+00 0.0 
7.512243383486e+00 -3.141863966102e+02 0.0 
0.0 0.0 -1.344664048528e+02 
-1.143198981548e+02 1.045309729207e+00 0.0 
1.045309729207e+00 -2.625086555779e+02 0.0 
0.0 0.0 -1.126485661198e+02 
-1.417051225366e+02 1.235241059412e+00 0.0 
1.235241059412e+00 -3.307876031974e+02 0.0 
0.0 0.0 -1.413478177202e+02 
-1.577775667349e+02 7.925568516257e+00 0.0 
7.925568516257e+00 -3.694809890482e+02 0.0 
0.0 0.0 -1.577775667349e+02 
-1.028667821690e+02 1.284914702523e+00 0.0 
1.284914702523e+00 -2.358612916860e+02 0.0 
0.0 0.0 -1.012184221565e+02 
-1.450338915505e+02 5.564063335389e+00 0.0 
5.564063335389e+00 -3.377036947588e+02 0.0 
0.0 0.0 -1.444212758928e+02 
-1.381580623776e+02 3.757895286508e+00 0.0 
3.757895286508e+00 -3.194570583891e+02 0.0 
0.0 0.0 -1.368845362300e+02 
-1.076339084045e+02 1.645387490692e-01 0.0 
1.645387490692e-01 -2.474668543813e+02 0.0 
0.0 0.0 -1.061302288357e+02 
-1.405774829297e+02 5.566129860122e+00 0.0 
5.566129860122e+00 -3.252499738561e+02 0.0 
0.0 0.0 -1.393482370357e+02 
-6.338929670796e+01 3.714806330528e-01 0.0 
3.714806330528e-01 -1.588647104089e+02 0.0 
0.0 0.0 -6.627620213505e+01 
-7.252266468078e+01 1.160184922948e-01 0.0 
1.160184922948e-01 -1.640604528853e+02 0.0 
0.0 0.0 -7.057493526982e+01 
-1.428263476487e+02 6.823494512303e+00 0.0 
6.823494512303e+00 -3.342856087975e+02 0.0 
0.0 0.0 -1.427335869339e+02 
-1.423875210618e+02 -3.250588578472e-01 0.0 
-3.250588578472e-01 -3.320939858025e+02 0.0 
0.0 0.0 -1.419444520593e+02 
-4.270353894157e+00 1.296544023712e-01 0.0 
1.296544023712e-01 -8.564668308826e+00 0.0 
0.0 0.0 -4.375755484061e+00 
-7.250795058157e+01 -2.150754622489e-01 0.0 
-2.150754622489e-01 -1.642871597188e+02 0.0 
0.0 0.0 -7.063853309010e+01 
-1.569224005695e+02 7.861363633928e-01 0.0 
7.861363633928e-01 -3.700697216785e+02 0.0 
0.0 0.0 -1.576976366744e+02 
-2.898744786065e+01 -9.971648639552e-01 0.0 
-9.971648639552e-01 -7.296261362351e+01 0.0 
0.0 0.0 -3.018501844525e+01 
-1.427548891797e+02 6.649145001254e+00 0.0 
6.649145001254e+00 -3.398268269608e+02 0.0 
0.0 0.0 -1.443745148421e+02 
-1.381988650598e+02 4.287260390005e+00 0.0 
4.287260390005e+00 -3.179665925533e+02 0.0 
0.0 0.0 -1.364496372839e+02 
-1.415451253632e+02 1.630191146954e+00 0.0 
1.630191146954e+00 -3.296149223411e+02 0.0 
0.0 0.0 -1.409480143113e+02 
-2.801403731951e+01 -8.355389733839e-01 0.0 
-8.355389733839e-01 -7.017344062788e+01 0.0 
0.0 0.0 -2.905624338422e+01 
-1.574720326492e+01 6.102268245136e+00 0.0 
6.102268245136e+00 -4.241686516091e+01 0.0 
0.0 0.0 -1.704922052775e+01 
-9.096595420243e+01 -1.318476715249e+00 0.0 
-1.318476715249e+00 -2.264949096798e+02 0.0 
0.0 0.0 -9.483825916468e+01 
-1.223395689563e+02 -9.608805712223e-02 0.0 
-9.608805712223e-02 -2.835195531207e+02 0.0 
0.0 0.0 -1.213577366231e+02 
-1.121026800885e+01 -4.145587584743e-01 0.0 
-4.145587584743e-01 -5.967261613857e+00 0.0 
0.0 0.0 -4.753258886812e+00 
-1.426794676753e+02 2.782745259286e+00 0.0 
2.782745259286e+00 -3.327101260153e+02 0.0 
0.0 0.0 -1.422168781072e+02 
-1.003110882438e+02 -1.519864113660e-02 0.0 
-1.519864113660e-02 -2.299304323074e+02 0.0 
0.0 0.0 -9.867245616537e+01 
-2.775000883771e+01 -1.416210774591e-01 0.0 
-1.416210774591e-01 -6.929807136225e+01 0.0 
0.0 0.0 -2.871442405999e+01 
-9.446564618333e+01 -7.618503885830e-02 0.0 
-7.618503885830e-02 -2.161692373154e+02 0.0 
0.0 0.0 -9.279046504962e+01 
-1.480598173802e+02 8.300942316963e+00 0.0 
8.300942316963e+00 -3.454318448751e+02 0.0 
0.0 0.0 -1.476474986766e+02 
-9.584067142945e+01 1.196859299784e+00 0.0 
1.196859299784e+00 -2.371410451008e+02 0.0 
0.0 0.0 -9.949451495908e+01 
-9.355549668251e+00 5.015269271801e+00 0.0 
5.015269271801e+00 -1.044214907158e+01 0.0 
0.0 0.0 -5.513306946575e+00 
-5.669456376832e+01 -7.245447698172e-01 0.0 
-7.245447698172e-01 -1.442580954924e+02 0.0 
0.0 0.0 -5.988579777822e+01 
-8.347246463939e+01 -2.564984829673e-01 0.0 
-2.564984829673e-01 -2.081836211259e+02 0.0 
0.0 0.0 -8.709682572958e+01 
-1.001071926837e+02 -1.356517425384e+00 0.0 
-1.356517425384e+00 -2.462235071500e+02 0.0 
0.0 0.0 -1.034992099501e+02 
-1.435054068826e+02 8.072003401107e+00 0.0 
8.072003401107e+00 -3.363298857926e+02 0.0 
0.0 0.0 -1.435505878025e+02 
-8.108531472753e+01 7.227082255538e-01 0.0 
7.227082255538e-01 -2.029033322139e+02 0.0 
0.0 0.0 -8.479659408242e+01 
-8.675213258609e+01 -2.143124837178e-01 0.0 
-2.143124837178e-01 -2.154186818115e+02 0.0 
0.0 0.0 -9.025124431927e+01 
-1.517282915308e+01 -8.917277423225e-01 0.0 
-8.917277423225e-01 -3.700418381000e+01 0.0 
0.0 0.0 -1.525310388892e+01 
-1.487258144706e+02 2.452543167296e+00 0.0 
2.452543167296e+00 -3.539249511750e+02 0.0 
0.0 0.0 -1.503952296937e+02 
-1.349425526662e+02 5.688844880600e+00 0.0 
5.688844880600e+00 -3.127429053606e+02 0.0 
0.0 0.0 -1.339056374080e+02 
-1.873926222431e+01 6.304474646583e+00 0.0 
6.304474646583e+00 -5.403707386899e+01 0.0 
0.0 0.0 -2.143290082799e+01 
-1.422938809588e+02 4.992775113697e-01 0.0 
4.992775113697e-01 -3.315241061866e+02 0.0 
0.0 0.0 -1.417453961436e+02 
-1.567685261462e+02 -2.458704334103e-01 0.0 
-2.458704334103e-01 -3.695643285588e+02 0.0 
0.0 0.0 -1.574998564115e+02 
-7.912617363082e+01 6.324905898088e-01 0.0 
6.324905898088e-01 -1.795372155024e+02 0.0 
0.0 0.0 -7.719901673996e+01 
-1.003932392353e+02 -5.518674707751e-03 0.0 
-5.518674707751e-03 -2.299425250569e+02 0.0 
0.0 0.0 -9.870072928766e+01 
-8.130936806311e+01 -5.552633715354e-01 0.0 
-5.552633715354e-01 -2.027948684451e+02 0.0 
0.0 0.0 -8.483127095246e+01 
-8.418987521846e+01 5.249611617307e-01 0.0 
5.249611617307e-01 -2.090138166405e+02 0.0 
0.0 0.0 -8.756110755769e+01 
-8.648103595707e+01 2.323126154369e-01 0.0 
2.323126154369e-01 -2.157903194112e+02 0.0 
0.0 0.0 -9.028140661049e+01 
-1.374357790013e+02 5.883648549572e+00 0.0 
5.883648549572e+00 -3.270595751569e+02 0.0 
0.0 0.0 -1.389486062475e+02 
-2.223830245380e+01 -1.145786273509e+00 0.0 
-1.145786273509e+00 -5.637337292215e+01 0.0 
0.0 0.0 -2.318350261279e+01 
-1.401901042274e+02 7.161909195668e+00 0.0 
7.161909195668e+00 -3.240116987493e+02 0.0 
0.0 0.0 -1.388605408930e+02 
-8.623959605565e+01 -2.121987825965e-01 0.0 
-2.121987825965e-01 -1.963817545030e+02 0.0 
0.0 0.0 -8.438640516759e+01 
-1.428147910644e+02 3.114252571993e+00 0.0 
3.114252571993e+00 -3.314977140601e+02 0.0 
0.0 0.0 -1.418937515374e+02 
-1.376374855813e+02 6.892753358182e+00 0.0 
6.892753358182e+00 -3.269656554286e+02 0.0 
0.0 0.0 -1.389809423030e+02 
-9.524071383133e+01 4.484525067044e-01 0.0 
4.484525067044e-01 -2.168306790388e+02 0.0 
0.0 0.0 -9.322141786105e+01 
-1.353238931186e+02 4.800774916955e+00 0.0 
4.800774916955e+00 -3.123249601293e+02 0.0 
0.0 0.0 -1.338946559744e+02 
-1.426493177466e+02 6.827867915569e+00 0.0 
6.827867915569e+00 -3.353458543054e+02 0.0 
0.0 0.0 -1.429985516156e+02 
-1.487559758018e+02 8.060206295185e+00 0.0 
8.060206295185e+00 -3.489675002941e+02 0.0 
0.0 0.0 -1.489170428288e+02 
-8.960106994365e+00 4.630839963663e+00 0.0 
4.630839963663e+00 -1.805201728024e+01 0.0 
0.0 0.0 -7.917670143442e+00 
-1.359362050461e+02 5.974425504766e+00 0.0 
5.974425504766e+00 -3.127720763955e+02 0.0 
0.0 0.0 -1.342124844325e+02 
-1.399936662377e+02 5.073166867684e+00 0.0 
5.073166867684e+00 -3.235466737661e+02 0.0 
0.0 0.0 -1.386621020011e+02 
-1.614577671202e+01 6.425580229453e-02 0.0 
6.425580229453e-02 -3.813080324758e+01 0.0 
0.0 0.0 -1.588297398788e+01 
-7.720033444018e+01 4.871367150791e-01 0.0 
4.871367150791e-01 -1.929626128190e+02 0.0 
0.0 0.0 -8.064888417777e+01 
-1.133616269481e+01 3.873511352596e+00 0.0 
3.873511352596e+00 -1.842302135302e+01 0.0 
0.0 0.0 -8.527755214347e+00 
-1.406262969906e+02 5.964480544562e+00 0.0 
5.964480544562e+00 -3.241936652450e+02 0.0 
0.0 0.0 -1.390459886707e+02 
-6.887618368008e+00 4.591060378472e-01 0.0 
4.591060378472e-01 -1.150151483687e+01 0.0 
0.0 0.0 -5.116739961463e+00 
-5.770767280418e+00 -1.229540138671e-01 0.0 
-1.229540138671e-01 -9.770492376320e+00 0.0 
0.0 0.0 -4.262377897022e+00 
-6.069619280070e+00 1.127608348938e-01 0.0 
1.127608348938e-01 -9.872291524132e+00 0.0 
0.0 0.0 -4.382573241261e+00 
-5.764236137351e+00 1.909289144500e-02 0.0 
1.909289144500e-02 -9.691650844202e+00 0.0 
0.0 0.0 -4.236766094466e+00 
-5.960390384790e+00 2.848418575720e-02 0.0 
2.848418575720e-02 -9.773632998555e+00 0.0 
0.0 0.0 -4.320207015003e+00 
-5.809431305006e+00 -9.524109103550e-03 0.0 
-9.524109103550e-03 -9.716435420672e+00 0.0 
0.0 0.0 -4.257760017703e+00 
-5.889313588571e+00 -1.403812647422e-02 0.0 
-1.403812647422e-02 -9.751278459909e+00 0.0 
0.0 0.0 -4.292177614544e+00 
-5.783461522960e+00 -3.546539587086e-02 0.0 
-3.546539587086e-02 -9.729390288728e+00 0.0 
0.0 0.0 -4.253855543506e+00 
-5.812321055509e+00 -3.998116474206e-02 0.0 
-3.998116474206e-02 -9.742785510074e+00 0.0 
0.0 0.0 -4.266531969675e+00 
-5.705588044128e+00 -5.725131524388e-02 0.0 
-5.725131524388e-02 -9.733954601995e+00 0.0 
0.0 0.0 -4.231862793837e+00 
-5.721767700592e+00 -5.757934804382e-02 0.0 
-5.757934804382e-02 -9.740820650052e+00 0.0 
0.0 0.0 -4.238776505193e+00 
-5.588119199723e+00 -7.689609396337e-02 0.0 
-7.689609396337e-02 -9.733529523622e+00 0.0 
0.0 0.0 -4.196494617003e+00 
-5.615038665144e+00 -7.114500397954e-02 0.0 
-7.114500397954e-02 -9.742435832753e+00 0.0 
0.0 0.0 -4.207242349369e+00 
-5.437046595294e+00 -9.588199989556e-02 0.0 
-9.588199989556e-02 -9.729959607694e+00 0.0 
0.0 0.0 -4.150101860897e+00 
-5.490859902623e+00 -8.305118615198e-02 0.0 
-8.305118615198e-02 -9.746274339606e+00 0.0 
0.0 0.0 -4.171140272669e+00 
-5.254524417794e+00 -1.151927489869e-01 0.0 
-1.151927489869e-01 -9.724180776921e+00 0.0 
0.0 0.0 -4.093611558415e+00 
-5.348395992288e+00 -9.460594972409e-02 0.0 
-9.460594972409e-02 -9.751773422817e+00 0.0 
0.0 0.0 -4.130050824532e+00 
-5.040430974989e+00 -1.354667383560e-01 0.0 
-1.354667383560e-01 -9.716553458491e+00 0.0 
0.0 0.0 -4.027095330044e+00 
-5.187187829221e+00 -1.065517583338e-01 0.0 
-1.065517583338e-01 -9.758804156987e+00 0.0 
0.0 0.0 -4.083797595862e+00 
-4.793269858393e+00 -1.571486706578e-01 0.0 
-1.571486706578e-01 -9.707116569142e+00 0.0 
0.0 0.0 -3.950115928260e+00 
-2.053469258305e+00 1.852934260941e+00 0.0 
1.852934260941e+00 -1.161424141690e+01 0.0 
0.0 0.0 -3.700313202561e+00 
-5.007080492994e+00 -1.193439915417e-01 0.0 
-1.193439915417e-01 -9.767490861181e+00 0.0 
0.0 0.0 -4.032371406253e+00 
-4.510649748491e+00 -1.805505541137e-01 0.0 
-1.805505541137e-01 -9.695774067381e+00 0.0 
0.0 0.0 -3.861927144762e+00 
-4.808375052286e+00 -1.332113457840e-01 0.0 
-1.332113457840e-01 -9.778183628300e+00 0.0 
0.0 0.0 -3.975967604176e+00 
9.814904270620e-01 -3.299045239279e-01 0.0 
-3.299045239279e-01 -4.880038144199e+00 0.0 
0.0 0.0 -1.081636109706e-01 
-4.189706851532e+00 -2.056330648046e-01 0.0 
-2.056330648046e-01 -9.682875516008e+00 0.0 
0.0 0.0 -3.761774710262e+00 
-4.591436871821e+00 -1.475862453515e-01 0.0 
-1.475862453515e-01 -9.791381802988e+00 0.0 
0.0 0.0 -3.914845602443e+00 
-6.180094621403e+00 7.915056093415e-01 0.0 
7.915056093415e-01 -1.074128064696e+01 0.0 
0.0 0.0 -4.676412580510e+00 
-3.828351857057e+00 -2.317051194703e-01 0.0 
-2.317051194703e-01 -9.667974005367e+00 0.0 
0.0 0.0 -3.648897758727e+00 
-4.358468914176e+00 -1.621064754405e-01 0.0 
-1.621064754405e-01 -9.807539583822e+00 0.0 
0.0 0.0 -3.849802549399e+00 
-3.425664010842e+00 -2.578362143883e-01 0.0 
-2.578362143883e-01 -9.651576805310e+00 0.0 
0.0 0.0 -3.523172244846e+00 
-4.113214095383e+00 -1.752116568110e-01 0.0 
-1.752116568110e-01 -9.827195706611e+00 0.0 
0.0 0.0 -3.782122940598e+00 
-2.983278461128e+00 -2.830196347166e-01 0.0 
-2.830196347166e-01 -9.630946206455e+00 0.0 
0.0 0.0 -3.384267400275e+00 
-3.864779815451e+00 -1.882779073604e-01 0.0 
-1.882779073604e-01 -9.850912407841e+00 0.0 
0.0 0.0 -3.714707666988e+00 
-2.502592936338e+00 -3.061627743536e-01 0.0 
-3.061627743536e-01 -9.610938852991e+00 0.0 
0.0 0.0 -3.234059536799e+00 
-3.618590022477e+00 -1.960360835162e-01 0.0 
-1.960360835162e-01 -9.879377276360e+00 0.0 
0.0 0.0 -3.649390189651e+00 
-1.991505217303e+00 -3.257235570985e-01 0.0 
-3.257235570985e-01 -9.580652130125e+00 0.0 
0.0 0.0 -3.071647204228e+00 
-8.539065203187e+00 3.328243680061e+00 0.0 
3.328243680061e+00 -1.238358257929e+01 0.0 
0.0 0.0 -5.876794334742e+00 
-3.397785678069e+00 -2.061254719111e-01 0.0 
-2.061254719111e-01 -9.913656521908e+00 0.0 
0.0 0.0 -3.593432659993e+00 
-1.452574749502e+00 -3.388097008897e-01 0.0 
-3.388097008897e-01 -9.562150814633e+00 0.0 
0.0 0.0 -2.904417669240e+00 
-3.200137011300e+00 -1.984005978737e-01 0.0 
-1.984005978737e-01 -9.953613485264e+00 0.0 
0.0 0.0 -3.546125148969e+00 
-9.102408897837e-01 -3.451105042233e-01 0.0 
-3.451105042233e-01 -9.509354679701e+00 0.0 
0.0 0.0 -2.725878670845e+00 
-3.607501944584e-01 -3.303723299504e-01 0.0 
-3.303723299504e-01 -9.521323122913e+00 0.0 
0.0 0.0 -2.564621995212e+00 
-3.100137621803e+00 -2.076894331922e-01 0.0 
-2.076894331922e-01 -1.000429901430e+01 0.0 
0.0 0.0 -3.531330990831e+00 
1.104938603974e-01 -3.030713988769e-01 0.0 
-3.030713988769e-01 -9.410637876644e+00 0.0 
0.0 0.0 -2.390043204874e+00 
-3.027278246713e+00 -1.489328989937e-01 0.0 
-1.489328989937e-01 -1.005734506506e+01 0.0 
0.0 0.0 -3.525386993531e+00 
5.303429280954e-01 -1.956605386193e-01 0.0 
-1.956605386193e-01 -9.560763923463e+00 0.0 
0.0 0.0 -2.309126298610e+00 
-3.267903989413e+00 -1.615650424673e-01 0.0 
-1.615650424673e-01 -1.013860114105e+01 0.0 
0.0 0.0 -3.621951539138e+00 
6.039924765652e-01 -8.516557549285e-02 0.0 
-8.516557549285e-02 -9.269660177668e+00 0.0 
0.0 0.0 -2.199700310331e+00 
4.607765511034e-01 3.435343286533e-01 0.0 
3.435343286533e-01 -9.969001149260e+00 0.0 
0.0 0.0 -2.452467379447e+00 
-3.421321549726e+00 7.624221395542e-02 0.0 
7.624221395542e-02 -1.019042627523e+01 0.0 
0.0 0.0 -3.683524347487e+00 
-4.568223651341e+00 2.438247101333e-02 0.0 
2.438247101333e-02 -1.033758590801e+01 0.0 
0.0 0.0 -4.071742867804e+00 
-2.922867194124e+00 3.393803247066e-01 0.0 
3.393803247066e-01 -1.698700941434e+00 0.0 
0.0 0.0 -9.864704406672e-01 
-7.040346126132e+00 1.496252291421e+00 0.0 
1.496252291421e+00 -9.462189029532e+00 0.0 
0.0 0.0 -4.550760546699e+00 
-6.695297743709e+00 -1.302439200882e+00 0.0 
-1.302439200882e+00 -1.151595332497e+01 0.0 
0.0 0.0 -5.063375320605e+00 
-5.001066149176e+00 2.360053759475e-01 0.0 
2.360053759475e-01 -5.304259588651e+00 0.0 
0.0 0.0 -2.691597721348e+00 
-8.656990157192e+00 -8.564308110326e-02 0.0 
-8.564308110326e-02 -1.553712917032e+01 0.0 
0.0 0.0 -6.858235798253e+00 
-4.642561289917e+00 3.448994666816e+00 0.0 
3.448994666816e+00 -7.018022707968e+00 0.0 
0.0 0.0 -3.098175199366e+00 
-1.381803371786e+01 2.315519703679e-01 0.0 
2.315519703679e-01 -2.767248398652e+01 0.0 
0.0 0.0 -1.204715531131e+01 
-1.454379747390e+01 -2.630411324333e-01 0.0 
-2.630411324333e-01 -2.932678668204e+01 0.0 
0.0 0.0 -1.276117524678e+01 
-1.439224496260e+01 7.355046868873e-03 0.0 
7.355046868873e-03 -2.929175145003e+01 0.0 
0.0 0.0 -1.270519892379e+01 
-1.455528366540e+01 -5.885262961273e-02 0.0 
-5.885262961273e-02 -2.945860191252e+01 0.0 
0.0 0.0 -1.280416567338e+01 
-1.436375976142e+01 -3.187319643345e-02 0.0 
-3.187319643345e-02 -2.938149487735e+01 0.0 
0.0 0.0 -1.272357639163e+01 
-1.451300075950e+01 -8.020720120065e-02 0.0 
-8.020720120065e-02 -2.948273636181e+01 0.0 
0.0 0.0 -1.279872113639e+01 
-1.430963942676e+01 -7.049893221501e-02 0.0 
-7.049893221501e-02 -2.939870541568e+01 0.0 
0.0 0.0 -1.271250345273e+01 
-1.446522290378e+01 -1.188598032179e-01 0.0 
-1.188598032179e-01 -2.949789940275e+01 0.0 
0.0 0.0 -1.278893669196e+01 
-1.423944106945e+01 -1.071892928773e-01 0.0 
-1.071892928773e-01 -2.940606554261e+01 0.0 
0.0 0.0 -1.269365198362e+01 
-1.441181072281e+01 -1.587353533392e-01 0.0 
-1.587353533392e-01 -2.951028548338e+01 0.0 
0.0 0.0 -1.277662886186e+01 
-1.415011858787e+01 -1.406978564007e-01 0.0 
-1.406978564007e-01 -2.940697272036e+01 0.0 
0.0 0.0 -1.266712739247e+01 
-1.435102764800e+01 -1.980098383630e-01 0.0 
-1.980098383630e-01 -2.952088302334e+01 0.0 
0.0 0.0 -1.276157320140e+01 
-1.404086009966e+01 -1.719342192325e-01 0.0 
-1.719342192325e-01 -2.940268584662e+01 0.0 
0.0 0.0 -1.263306378388e+01 
-1.428212442242e+01 -2.372719945737e-01 0.0 
-2.372719945737e-01 -2.953053483166e+01 0.0 
0.0 0.0 -1.274379777622e+01 
-1.391152934790e+01 -2.022300352755e-01 0.0 
-2.022300352755e-01 -2.939450304526e+01 0.0 
0.0 0.0 -1.259180971795e+01 
-1.420420311247e+01 -2.773311920604e-01 0.0 
-2.773311920604e-01 -2.953982976034e+01 0.0 
0.0 0.0 -1.272320986184e+01 
-1.376209211001e+01 -2.325638038825e-01 0.0 
-2.325638038825e-01 -2.938373103085e+01 0.0 
0.0 0.0 -1.254374694226e+01 
-1.411710166924e+01 -3.186273642281e-01 0.0 
-3.186273642281e-01 -2.954913406859e+01 0.0 
0.0 0.0 -1.269987072135e+01 
-1.359247173515e+01 -2.635544592953e-01 0.0 
-2.635544592953e-01 -2.937113327082e+01 0.0 
0.0 0.0 -1.248908150179e+01 
-1.386491028775e+01 2.041375003220e+00 0.0 
2.041375003220e+00 -3.164120235255e+01 0.0 
0.0 0.0 -1.325183379209e+01 
-1.402127323951e+01 -3.613907306081e-01 0.0 
-3.613907306081e-01 -2.955870756753e+01 0.0 
0.0 0.0 -1.267399424211e+01 
-1.340272115112e+01 -2.953939346829e-01 0.0 
-2.953939346829e-01 -2.935731906348e+01 0.0 
0.0 0.0 -1.242801206438e+01 
-1.391851407450e+01 -4.055448344030e-01 0.0 
-4.055448344030e-01 -2.956892076792e+01 0.0 
0.0 0.0 -1.264623045272e+01 
-1.585387337949e+01 8.408467845992e-01 0.0 
8.408467845992e-01 -3.037084101989e+01 0.0 
0.0 0.0 -1.346741431981e+01 
-1.319317887080e+01 -3.278941546017e-01 0.0 
-3.278941546017e-01 -2.934272587149e+01 0.0 
0.0 0.0 -1.236077142269e+01 
-1.381193575139e+01 -4.509447285788e-01 0.0 
-4.509447285788e-01 -2.958097039549e+01 0.0 
0.0 0.0 -1.261787184406e+01 
-1.296478930993e+01 -3.598136750194e-01 0.0 
-3.598136750194e-01 -2.932920415857e+01 0.0 
0.0 0.0 -1.228819804055e+01 
-1.370091661320e+01 -4.949203832203e-01 0.0 
-4.949203832203e-01 -2.959435262457e+01 0.0 
0.0 0.0 -1.258858077133e+01 
-1.272014971911e+01 -3.888481570501e-01 0.0 
-3.888481570501e-01 -2.931812812868e+01 0.0 
0.0 0.0 -1.221148335434e+01 
-1.090852618706e+01 7.807077988945e-01 0.0 
7.807077988945e-01 -2.513162515802e+01 0.0 
0.0 0.0 -1.041204540352e+01 
-1.359315716186e+01 -5.348816717260e-01 0.0 
-5.348816717260e-01 -2.961063036843e+01 0.0 
0.0 0.0 -1.256113625909e+01 
-1.246354421051e+01 -4.117669262798e-01 0.0 
-4.117669262798e-01 -2.931129930857e+01 0.0 
0.0 0.0 -1.213245305572e+01 
-1.348799204101e+01 -5.644103600688e-01 0.0 
-5.644103600688e-01 -2.962589373960e+01 0.0 
0.0 0.0 -1.253416573418e+01 
-1.220244041043e+01 -4.258588616631e-01 0.0 
-4.258588616631e-01 -2.930545379614e+01 0.0 
0.0 0.0 -1.205236826197e+01 
-1.341733079061e+01 -5.855296329566e-01 0.0 
-5.855296329566e-01 -2.964961703144e+01 0.0 
0.0 0.0 -1.252008434661e+01 
-1.194608416478e+01 -4.255661450712e-01 0.0 
-4.255661450712e-01 -2.931019694173e+01 0.0 
0.0 0.0 -1.197688433195e+01 
-1.335453424841e+01 -5.797100225345e-01 0.0 
-5.797100225345e-01 -2.966457575854e+01 0.0 
0.0 0.0 -1.250573300208e+01 
-1.170984734722e+01 -4.078476892849e-01 0.0 
-4.078476892849e-01 -2.930846708327e+01 0.0 
0.0 0.0 -1.190549432915e+01 
-1.339658953711e+01 -5.660684855611e-01 0.0 
-5.660684855611e-01 -2.970786397097e+01 0.0 
0.0 0.0 -1.253133605242e+01 
-1.151255995276e+01 -3.574074250106e-01 0.0 
-3.574074250106e-01 -2.934926701535e+01 0.0 
0.0 0.0 -1.185854809043e+01 
-1.341089094663e+01 -4.745823831980e-01 0.0 
-4.745823831980e-01 -2.970822306138e+01 0.0 
0.0 0.0 -1.253573420240e+01 
-1.741684637890e+01 2.034866483745e+00 0.0 
2.034866483745e+00 -3.284175279727e+01 0.0 
0.0 0.0 -1.467757975285e+01 
-1.373121351755e+01 -4.149027065938e-01 0.0 
-4.149027065938e-01 -2.981825044449e+01 0.0 
0.0 0.0 -1.266483918861e+01 
-1.138473311557e+01 -2.752151224103e-01 0.0 
-2.752151224103e-01 -2.933502183309e+01 0.0 
0.0 0.0 -1.181592648460e+01 
-1.379511621914e+01 -8.270640996118e-02 0.0 
-8.270640996118e-02 -2.975406355929e+01 0.0 
0.0 0.0 -1.266475393353e+01 
-1.137190194107e+01 -1.059267392837e-01 0.0 
-1.059267392837e-01 -2.952813368523e+01 0.0 
0.0 0.0 -1.187001068789e+01 
-1.481620713818e+01 9.820100025585e-03 0.0 
9.820100025585e-03 -3.008508763555e+01 0.0 
0.0 0.0 -1.307038843212e+01 
-1.153126058546e+01 1.293687282530e-01 0.0 
1.293687282530e-01 -2.941976653183e+01 0.0 
0.0 0.0 -1.188530813519e+01 
-1.198874532458e+01 6.005773355640e-01 0.0 
6.005773355640e-01 -3.018108174990e+01 0.0 
0.0 0.0 -1.225094812234e+01 
-1.321710529096e+01 1.085773895461e+00 0.0 
1.085773895461e+00 -2.360076523355e+01 0.0 
0.0 0.0 -1.064536115735e+01 
-1.416765743057e+01 1.436212809419e+00 0.0 
1.436212809419e+00 -2.994980252552e+01 0.0 
0.0 0.0 -1.283523798683e+01 
-1.451909755280e+01 -1.460378956143e+00 0.0 
-1.460378956143e+00 -2.787975025967e+01 0.0 
0.0 0.0 -1.231965434374e+01 
-1.650861660042e+01 1.313873848665e-01 0.0 
1.313873848665e-01 -3.404651782432e+01 0.0 
0.0 0.0 -1.476654032742e+01 
-1.224647218011e+01 -1.957326154340e-01 0.0 
-1.957326154340e-01 -2.391258722378e+01 0.0 
0.0 0.0 -1.044771782117e+01 
-1.245069113071e+01 2.432078975283e+00 0.0 
2.432078975283e+00 -2.537267250202e+01 0.0 
0.0 0.0 -1.094700908982e+01 
-2.376062209104e+01 2.270163081649e-01 0.0 
2.270163081649e-01 -5.081157265980e+01 0.0 
0.0 0.0 -2.197165842525e+01 
-2.298501202013e+01 -3.088586363678e-01 0.0 
-3.088586363678e-01 -4.902295395657e+01 0.0 
0.0 0.0 -2.120238979301e+01 
-2.300739479985e+01 -4.646087848381e-02 0.0 
-4.646087848381e-02 -4.899988958450e+01 0.0 
0.0 0.0 -2.120218531531e+01 
-2.287533235561e+01 -9.841730331437e-02 0.0 
-9.841730331437e-02 -4.887204885633e+01 0.0 
0.0 0.0 -2.112421436358e+01 
-2.294883068549e+01 -9.064373387373e-02 0.0 
-9.064373387373e-02 -4.890184134546e+01 0.0 
0.0 0.0 -2.115520160928e+01 
-2.281939714174e+01 -1.199845482967e-01 0.0 
-1.199845482967e-01 -4.886432792037e+01 0.0 
0.0 0.0 -2.110511751863e+01 
-2.292227476246e+01 -1.304896674084e-01 0.0 
-1.304896674084e-01 -4.891039969503e+01 0.0 
0.0 0.0 -2.114980233725e+01 
-2.276678064908e+01 -1.637575232768e-01 0.0 
-1.637575232768e-01 -4.886820080846e+01 0.0 
0.0 0.0 -2.109049443726e+01 
-2.289491096339e+01 -1.721660666020e-01 0.0 
-1.721660666020e-01 -4.892449637265e+01 0.0 
0.0 0.0 -2.114582220081e+01 
-2.270912520537e+01 -2.113014612409e-01 0.0 
-2.113014612409e-01 -4.887068594269e+01 0.0 
0.0 0.0 -2.107394334442e+01 
-2.286613225265e+01 -2.132658729724e-01 0.0 
-2.132658729724e-01 -4.893651554776e+01 0.0 
0.0 0.0 -2.114079434012e+01 
-2.264315988985e+01 -2.592124018080e-01 0.0 
-2.592124018080e-01 -4.886919158767e+01 0.0 
0.0 0.0 -2.105370544326e+01 
-2.283645962955e+01 -2.533750073500e-01 0.0 
-2.533750073500e-01 -4.894578020796e+01 0.0 
0.0 0.0 -2.113467195125e+01 
-2.256750866679e+01 -3.070868048612e-01 0.0 
-3.070868048612e-01 -4.886309806854e+01 0.0 
0.0 0.0 -2.102918202060e+01 
-2.280751110252e+01 -2.937024542325e-01 0.0 
-2.937024542325e-01 -4.895321472725e+01 0.0 
0.0 0.0 -2.112821774893e+01 
-2.248195578480e+01 -3.556587416312e-01 0.0 
-3.556587416312e-01 -4.885458599579e+01 0.0 
0.0 0.0 -2.100096253418e+01 
-2.277789277381e+01 -3.344403745232e-01 0.0 
-3.344403745232e-01 -4.895995518062e+01 0.0 
0.0 0.0 -2.112135438633e+01 
-2.238652851985e+01 -4.047214308254e-01 0.0 
-4.047214308254e-01 -4.884446338669e+01 0.0 
0.0 0.0 -2.096929757196e+01 
-2.378113257943e+01 1.700225449747e+00 0.0 
1.700225449747e+00 -5.139448293913e+01 0.0 
0.0 0.0 -2.215268465557e+01 
-2.274832177851e+01 -3.755057267224e-01 0.0 
-3.755057267224e-01 -4.896675003547e+01 0.0 
0.0 0.0 -2.111452154419e+01 
-2.228206890559e+01 -4.537021346777e-01 0.0 
-4.537021346777e-01 -4.883389745505e+01 0.0 
0.0 0.0 -2.093478990819e+01 
-2.272099974971e+01 -4.157916391813e-01 0.0 
-4.157916391813e-01 -4.897445419663e+01 0.0 
0.0 0.0 -2.110863618390e+01 
-2.115084060938e+01 6.386534230086e-01 0.0 
6.386534230086e-01 -4.486589906835e+01 0.0 
0.0 0.0 -1.940502190332e+01 
-2.217031708399e+01 -5.013746738730e-01 0.0 
-5.013746738730e-01 -4.882312779006e+01 0.0 
0.0 0.0 -2.089803346221e+01 
-2.520045089473e+01 6.675622274288e-01 0.0 
6.675622274288e-01 -5.002608544648e+01 0.0 
0.0 0.0 -2.216796090236e+01 
-2.270103466774e+01 -4.541037725208e-01 0.0 
-4.541037725208e-01 -4.898391785587e+01 0.0 
0.0 0.0 -2.110548575708e+01 
-2.205389773722e+01 -5.465744155227e-01 0.0 
-5.465744155227e-01 -4.881221502909e+01 0.0 
0.0 0.0 -2.085983382989e+01 
-2.269456032390e+01 -4.920188604267e-01 0.0 
-4.920188604267e-01 -4.899792197221e+01 0.0 
0.0 0.0 -2.110774468883e+01 
-2.193712820540e+01 -5.871856039581e-01 0.0 
-5.871856039581e-01 -4.881217967303e+01 0.0 
0.0 0.0 -2.082479236353e+01 
-2.269497548959e+01 -5.203708483660e-01 0.0 
-5.203708483660e-01 -4.901679680141e+01 0.0 
0.0 0.0 -2.111353168730e+01 
-2.182375061109e+01 -6.162078753932e-01 0.0 
-6.162078753932e-01 -4.881534841664e+01 0.0 
0.0 0.0 -2.079172970832e+01 
-2.271738587359e+01 -5.410975683181e-01 0.0 
-5.410975683181e-01 -4.904374191387e+01 0.0 
0.0 0.0 -2.112833833624e+01 
-2.172431320321e+01 -6.270356767664e-01 0.0 
-6.270356767664e-01 -4.884397645141e+01 0.0 
0.0 0.0 -2.077048689639e+01 
-2.686023210775e+01 1.537238509758e+00 0.0 
1.537238509758e+00 -5.259605599776e+01 0.0 
0.0 0.0 -2.343688643165e+01 
-2.275409837716e+01 -5.262355479894e-01 0.0 
-5.262355479894e-01 -4.907239594421e+01 0.0 
0.0 0.0 -2.114794829641e+01 
-2.164566278738e+01 -6.099539437608e-01 0.0 
-6.099539437608e-01 -4.884905835725e+01 0.0 
0.0 0.0 -2.074841634339e+01 
-2.287287539535e+01 -5.133878987404e-01 0.0 
-5.133878987404e-01 -4.912137112780e+01 0.0 
0.0 0.0 -2.119827395695e+01 
-2.161478375441e+01 -5.598445829473e-01 0.0 
-5.598445829473e-01 -4.893849127255e+01 0.0 
0.0 0.0 -2.076598250809e+01 
-2.163102721527e+01 -4.582295264387e-01 0.0 
-4.582295264387e-01 -4.892155188666e+01 0.0 
0.0 0.0 -2.076577373058e+01 
-2.297641865664e+01 -4.063700499328e-01 0.0 
-4.063700499328e-01 -4.915626093544e+01 0.0 
0.0 0.0 -2.123980387762e+01 
-2.176211757171e+01 -2.910112139127e-01 0.0 
-2.910112139127e-01 -4.919441851991e+01 0.0 
0.0 0.0 -2.088696082749e+01 
-2.330766355903e+01 -3.592318593712e-01 0.0 
-3.592318593712e-01 -4.926214102273e+01 0.0 
0.0 0.0 -2.137094137453e+01 
-2.196553158149e+01 -3.405219713247e-02 0.0 
-3.405219713247e-02 -4.903165926036e+01 0.0 
0.0 0.0 -2.089915725255e+01 
-2.242112504166e+01 3.565918483345e-01 0.0 
3.565918483345e-01 -4.988141747850e+01 0.0 
0.0 0.0 -2.129076275605e+01 
-2.340540156870e+01 -2.633585398774e-02 0.0 
-2.633585398774e-02 -4.926496987156e+01 0.0 
0.0 0.0 -2.140111143208e+01 
-2.437913913851e+01 -1.918490433137e-02 0.0 
-1.918490433137e-02 -4.959386091701e+01 0.0 
0.0 0.0 -2.179190001665e+01 
-2.294759058039e+01 9.664376781463e-01 0.0 
9.664376781463e-01 -4.366708702130e+01 0.0 
0.0 0.0 -1.958440328051e+01 
-2.339513697134e+01 1.450251385072e+00 0.0 
1.450251385072e+00 -4.867408552241e+01 0.0 
0.0 0.0 -2.122076674812e+01 
-2.306341793714e+01 -1.468530951142e+00 0.0 
-1.468530951142e+00 -5.061837473548e+01 0.0 
0.0 0.0 -2.170453780178e+01 
-2.099811636140e+01 1.208286636966e-01 0.0 
1.208286636966e-01 -4.452201726661e+01 0.0 
0.0 0.0 -1.925604008840e+01 
-2.538732594704e+01 -1.829428020448e-01 0.0 
-1.829428020448e-01 -5.462823182361e+01 0.0 
0.0 0.0 -2.360466733120e+01 
-2.203334507325e+01 1.782294169070e+00 0.0 
1.782294169070e+00 -4.478960830535e+01 0.0 
0.0 0.0 -1.964688601358e+01 
-3.062938573120e+01 2.263272525838e-01 0.0 
2.263272525838e-01 -6.683868782018e+01 0.0 
0.0 0.0 -2.884042206541e+01 
-3.143651593694e+01 -2.918749533603e-01 0.0 
-2.918749533603e-01 -6.852263487646e+01 0.0 
0.0 0.0 -2.958774524402e+01 
-3.137460853192e+01 -7.317638835068e-02 0.0 
-7.317638835068e-02 -6.852338829265e+01 0.0 
0.0 0.0 -2.956939904737e+01 
-3.150259890520e+01 -1.203919322710e-01 0.0 
-1.203919322710e-01 -6.863388482861e+01 0.0 
0.0 0.0 -2.964094512014e+01 
-3.138388037273e+01 -1.192908917585e-01 0.0 
-1.192908917585e-01 -6.858362394902e+01 0.0 
0.0 0.0 -2.959025129653e+01 
-3.151113880796e+01 -1.543272657488e-01 0.0 
-1.543272657488e-01 -6.864562551200e+01 0.0 
0.0 0.0 -2.964702929599e+01 
-3.135100470545e+01 -1.565420254066e-01 0.0 
-1.565420254066e-01 -6.857743622869e+01 0.0 
0.0 0.0 -2.957853228024e+01 
-3.151294696733e+01 -2.006252732326e-01 0.0 
-2.006252732326e-01 -6.865781855961e+01 0.0 
0.0 0.0 -2.965122965808e+01 
-3.131738890101e+01 -1.972894623817e-01 0.0 
-1.972894623817e-01 -6.857694489377e+01 0.0 
0.0 0.0 -2.956830013843e+01 
-3.151448003655e+01 -2.486095425902e-01 0.0 
-2.486095425902e-01 -6.867006242892e+01 0.0 
0.0 0.0 -2.965536273964e+01 
-3.128384603489e+01 -2.395480220662e-01 0.0 
-2.395480220662e-01 -6.857784770634e+01 0.0 
0.0 0.0 -2.955850812237e+01 
-3.151563034528e+01 -2.963449747835e-01 0.0 
-2.963449747835e-01 -6.867946092841e+01 0.0 
0.0 0.0 -2.965852738211e+01 
-3.124998724894e+01 -2.811816800948e-01 0.0 
-2.811816800948e-01 -6.857734465320e+01 0.0 
0.0 0.0 -2.954819957064e+01 
-3.152382423847e+01 -3.430025890787e-01 0.0 
-3.430025890787e-01 -6.868532479606e+01 0.0 
0.0 0.0 -2.966274471036e+01 
-3.121495238702e+01 -3.233365923001e-01 0.0 
-3.233365923001e-01 -6.857057772441e+01 0.0 
0.0 0.0 -2.953565903343e+01 
-3.154075975884e+01 -3.920357554923e-01 0.0 
-3.920357554923e-01 -6.869057143453e+01 0.0 
0.0 0.0 -2.966939935801e+01 
-3.117880280663e+01 -3.654100433091e-01 0.0 
-3.654100433091e-01 -6.856207859053e+01 0.0 
0.0 0.0 -2.952226441915e+01 
-3.317876029699e+01 1.465453273364e+00 0.0 
1.465453273364e+00 -7.102318600522e+01 0.0 
0.0 0.0 -3.086058389066e+01 
-3.156187412734e+01 -4.408635285732e-01 0.0 
-4.408635285732e-01 -6.869532036587e+01 0.0 
0.0 0.0 -2.967715834796e+01 
-3.114308176334e+01 -4.058534484309e-01 0.0 
-4.058534484309e-01 -6.855452333340e+01 0.0 
0.0 0.0 -2.950928152902e+01 
-3.436674267620e+01 4.094229997265e-01 0.0 
4.094229997265e-01 -6.979785467243e+01 0.0 
0.0 0.0 -3.084937920459e+01 
-3.158772813651e+01 -4.872511023661e-01 0.0 
-4.872511023661e-01 -6.870095208288e+01 0.0 
0.0 0.0 -2.968660406582e+01 
-3.111113235963e+01 -4.416668204791e-01 0.0 
-4.416668204791e-01 -6.855143028645e+01 0.0 
0.0 0.0 -2.949876879383e+01 
-3.162656202728e+01 -5.272246504014e-01 0.0 
-5.272246504014e-01 -6.870810690658e+01 0.0 
0.0 0.0 -2.970040068016e+01 
-3.108677780114e+01 -4.712243042373e-01 0.0 
-4.712243042373e-01 -6.855065183379e+01 0.0 
0.0 0.0 -2.949122889048e+01 
-3.168638606545e+01 -5.594402424693e-01 0.0 
-5.594402424693e-01 -6.871641496474e+01 0.0 
0.0 0.0 -2.972084030906e+01 
-3.079651545710e+01 4.569807222373e-01 0.0 
4.569807222373e-01 -6.456773899372e+01 0.0 
0.0 0.0 -2.820927633525e+01 
-3.107324562103e+01 -4.958634129698e-01 0.0 
-4.958634129698e-01 -6.854818766551e+01 0.0 
0.0 0.0 -2.948642998596e+01 
-3.178108156229e+01 -5.923831208381e-01 0.0 
-5.923831208381e-01 -6.874078687564e+01 0.0 
0.0 0.0 -2.975656053138e+01 
-3.107524512916e+01 -5.074631078637e-01 0.0 
-5.074631078637e-01 -6.857075929374e+01 0.0 
0.0 0.0 -2.949380132687e+01 
-3.186167119127e+01 -5.992932498069e-01 0.0 
-5.992932498069e-01 -6.876532213806e+01 0.0 
0.0 0.0 -2.978809799880e+01 
-3.110239562263e+01 -4.970635943293e-01 0.0 
-4.970635943293e-01 -6.860876466163e+01 0.0 
0.0 0.0 -2.951334808528e+01 
-3.201676690713e+01 -5.908218217567e-01 0.0 
-5.908218217567e-01 -6.882603818358e+01 0.0 
0.0 0.0 -2.985284152721e+01 
-3.116678798696e+01 -4.460811692782e-01 0.0 
-4.460811692782e-01 -6.870200503373e+01 0.0 
0.0 0.0 -2.956063790621e+01 
-3.210992468810e+01 -4.966395657801e-01 0.0 
-4.966395657801e-01 -6.884714980038e+01 0.0 
0.0 0.0 -2.988712234654e+01 
-3.128146957872e+01 -3.618105911908e-01 0.0 
-3.618105911908e-01 -6.874142422233e+01 0.0 
0.0 0.0 -2.960686814031e+01 
-3.248900120161e+01 -4.421607051094e-01 0.0 
-4.421607051094e-01 -6.899088619101e+01 0.0 
0.0 0.0 -3.004396621779e+01 
-3.594927577842e+01 1.080253122836e+00 0.0 
1.080253122836e+00 -7.233351267900e+01 0.0 
0.0 0.0 -3.208483653723e+01 
-3.253787621681e+01 -1.448341051272e-01 0.0 
-1.448341051272e-01 -6.896822434396e+01 0.0 
0.0 0.0 -3.005183016823e+01 
-3.147108923193e+01 -2.028433292542e-01 0.0 
-2.028433292542e-01 -6.897715894446e+01 0.0 
0.0 0.0 -2.973447445292e+01 
-3.351608807995e+01 -1.306835846732e-01 0.0 
-1.306835846732e-01 -6.935993797868e+01 0.0 
0.0 0.0 -3.046280781759e+01 
-3.172909291520e+01 -1.208706752564e-02 0.0 
-1.208706752564e-02 -6.891214285381e+01 0.0 
0.0 0.0 -2.979237073070e+01 
-3.212475638550e+01 3.226899895520e-01 0.0 
3.226899895520e-01 -6.961013111075e+01 0.0 
0.0 0.0 -3.012046624887e+01 
-3.216951161914e+01 6.638078567239e-01 0.0 
6.638078567239e-01 -6.355164636786e+01 0.0 
0.0 0.0 -2.831634739610e+01 
-3.098347200392e+01 1.458791350364e+00 0.0 
1.458791350364e+00 -6.902156449572e+01 0.0 
0.0 0.0 -2.960151094989e+01 
-3.132309856501e+01 -1.460001712273e+00 0.0 
-1.460001712273e+00 -6.703096349258e+01 0.0 
0.0 0.0 -2.910621861728e+01 
-3.338582047146e+01 1.332213625742e-01 0.0 
1.332213625742e-01 -7.315060375851e+01 0.0 
0.0 0.0 -3.156092726899e+01 
-2.899447697769e+01 -1.785474982351e-01 0.0 
-1.785474982351e-01 -6.304491756179e+01 0.0 
0.0 0.0 -2.721181836184e+01 
-3.129015439714e+01 1.289617927568e+00 0.0 
1.289617927568e+00 -6.423539361878e+01 0.0 
0.0 0.0 -2.825766440478e+01 
-4.066527965943e+01 2.481053065975e-01 0.0 
2.481053065975e-01 -8.992799171897e+01 0.0 
0.0 0.0 -3.877798141352e+01 
-3.985617201152e+01 -2.906755829427e-01 0.0 
-2.906755829427e-01 -8.816849905048e+01 0.0 
0.0 0.0 -3.800740131860e+01 
-3.995132630512e+01 -5.607009466110e-02 0.0 
-5.607009466110e-02 -8.817553404405e+01 0.0 
0.0 0.0 -3.803805810475e+01 
-3.980909977207e+01 -1.173481085911e-01 0.0 
-1.173481085911e-01 -8.801572018464e+01 0.0 
0.0 0.0 -3.794744598701e+01 
-3.994166981888e+01 -1.153479688563e-01 0.0 
-1.153479688563e-01 -8.807149607083e+01 0.0 
0.0 0.0 -3.800394976691e+01 
-3.980691959529e+01 -1.528666219357e-01 0.0 
-1.528666219357e-01 -8.800244734908e+01 0.0 
0.0 0.0 -3.794281008331e+01 
-3.995767441748e+01 -1.596084358140e-01 0.0 
-1.596084358140e-01 -8.806775513341e+01 0.0 
0.0 0.0 -3.800762886527e+01 
-3.980297320759e+01 -1.983486399837e-01 0.0 
-1.983486399837e-01 -8.800121312021e+01 0.0 
0.0 0.0 -3.794125589834e+01 
-3.998676594184e+01 -2.006485868948e-01 0.0 
-2.006485868948e-01 -8.807844828278e+01 0.0 
0.0 0.0 -3.801956426739e+01 
-3.979976348723e+01 -2.449019327709e-01 0.0 
-2.449019327709e-01 -8.800239048051e+01 0.0 
0.0 0.0 -3.794064619032e+01 
-4.001891327502e+01 -2.421269436003e-01 0.0 
-2.421269436003e-01 -8.809104656480e+01 0.0 
0.0 0.0 -3.803298795195e+01 
-3.979911794063e+01 -2.907055242858e-01 0.0 
-2.907055242858e-01 -8.800759865091e+01 0.0 
0.0 0.0 -3.794201497746e+01 
-4.005477946217e+01 -2.756698821461e-01 0.0 
-2.756698821461e-01 -8.810307352702e+01 0.0 
0.0 0.0 -3.804735589676e+01 
-3.980199613839e+01 -3.314418791649e-01 0.0 
-3.314418791649e-01 -8.800105922920e+01 0.0 
0.0 0.0 -3.794091661028e+01 
-4.010731481594e+01 -3.088009835075e-01 0.0 
-3.088009835075e-01 -8.810860330193e+01 0.0 
0.0 0.0 -3.806477543536e+01 
-3.981150857131e+01 -3.719010360870e-01 0.0 
-3.719010360870e-01 -8.798898533028e+01 0.0 
0.0 0.0 -3.794014817048e+01 
-4.193529328811e+01 1.211453364577e+00 0.0 
1.211453364577e+00 -9.053907320476e+01 0.0 
0.0 0.0 -3.934230994786e+01 
-4.018171233076e+01 -3.461588502556e-01 0.0 
-3.461588502556e-01 -8.811508999179e+01 0.0 
0.0 0.0 -3.808904069677e+01 
-3.982997843127e+01 -4.133077658975e-01 0.0 
-4.133077658975e-01 -8.798756374170e+01 0.0 
0.0 0.0 -3.794526265189e+01 
-3.979822381158e+01 3.863057461221e-01 0.0 
3.863057461221e-01 -8.401825468582e+01 0.0 
0.0 0.0 -3.674494354922e+01 
-4.024684045467e+01 -3.822054145874e-01 0.0 
-3.822054145874e-01 -8.812153763949e+01 0.0 
0.0 0.0 -3.811051342825e+01 
-3.985701941162e+01 -4.474351026316e-01 0.0 
-4.474351026316e-01 -8.799596505815e+01 0.0 
0.0 0.0 -3.795589534093e+01 
-4.304547841557e+01 2.891919440574e-01 0.0 
2.891919440574e-01 -8.928549195739e+01 0.0 
0.0 0.0 -3.929929111189e+01 
-4.032897335998e+01 -4.057525191738e-01 0.0 
-4.057525191738e-01 -8.813427152895e+01 0.0 
0.0 0.0 -3.813897346668e+01 
-3.989782969995e+01 -4.689781096228e-01 0.0 
-4.689781096228e-01 -8.800773147612e+01 0.0 
0.0 0.0 -3.797166835282e+01 
-4.044165759135e+01 -4.149161408055e-01 0.0 
-4.149161408055e-01 -8.815104504079e+01 0.0 
0.0 0.0 -3.817781078964e+01 
-3.995902636970e+01 -4.766835015082e-01 0.0 
-4.766835015082e-01 -8.801924234131e+01 0.0 
0.0 0.0 -3.799348061330e+01 
-4.057697188106e+01 -4.111299796486e-01 0.0 
-4.111299796486e-01 -8.816451048757e+01 0.0 
0.0 0.0 -3.822244471059e+01 
-4.004241543253e+01 -4.743262871428e-01 0.0 
-4.743262871428e-01 -8.801723257286e+01 0.0 
0.0 0.0 -3.801789440162e+01 
-4.439054388575e+01 7.801781613441e-01 0.0 
7.801781613441e-01 -9.178905750478e+01 0.0 
0.0 0.0 -4.045388041716e+01 
-4.077892823921e+01 -4.335950897480e-01 0.0 
-4.335950897480e-01 -8.821216062517e+01 0.0 
0.0 0.0 -3.829732665931e+01 
-4.016389785575e+01 -4.554833800275e-01 0.0 
-4.554833800275e-01 -8.813718435516e+01 0.0 
0.0 0.0 -3.809032466327e+01 
-4.090244251640e+01 -3.663845581868e-01 0.0 
-3.663845581868e-01 -8.826189890806e+01 0.0 
0.0 0.0 -3.834930242734e+01 
-4.030763822997e+01 -3.872362436553e-01 0.0 
-3.872362436553e-01 -8.817140460355e+01 0.0 
0.0 0.0 -3.814371285005e+01 
-4.053117076255e+01 -2.592987528436e-01 0.0 
-2.592987528436e-01 -8.849672397410e+01 0.0 
0.0 0.0 -3.830836842100e+01 
-4.120622709148e+01 -3.548810372767e-01 0.0 
-3.548810372767e-01 -8.839080727363e+01 0.0 
0.0 0.0 -3.847911030953e+01 
-4.076557274148e+01 -6.935529799720e-02 0.0 
-6.935529799720e-02 -8.830288645072e+01 0.0 
0.0 0.0 -3.832053775766e+01 
-4.126193651484e+01 -4.746486890450e-02 0.0 
-4.746486890450e-02 -8.841430799357e+01 0.0 
0.0 0.0 -3.850287335252e+01 
-4.114920059005e+01 1.548342697853e-01 0.0 
1.548342697853e-01 -8.906131454819e+01 0.0 
0.0 0.0 -3.866315454147e+01 
-4.225939855931e+01 -1.336366907336e-01 0.0 
-1.336366907336e-01 -8.876319335593e+01 0.0 
0.0 0.0 -3.890677757457e+01 
-4.075477758233e+01 6.687484449810e-01 0.0 
6.687484449810e-01 -8.308026042627e+01 0.0 
0.0 0.0 -3.675051140258e+01 
-4.029479228093e+01 1.465026242312e+00 0.0 
1.465026242312e+00 -8.777501701698e+01 0.0 
0.0 0.0 -3.802094278937e+01 
-3.995703538766e+01 -1.458213895655e+00 0.0 
-1.458213895655e+00 -8.974673250367e+01 0.0 
0.0 0.0 -3.851113036740e+01 
-3.787820709513e+01 1.310067659892e-01 0.0 
1.310067659892e-01 -8.363283921375e+01 0.0 
0.0 0.0 -3.605331389267e+01 
-4.228973523960e+01 -1.746613127322e-01 0.0 
-1.746613127322e-01 -9.372557001354e+01 0.0 
0.0 0.0 -4.040459157594e+01 
-4.031058455554e+01 1.090871717870e+00 0.0 
1.090871717870e+00 -8.366681905755e+01 0.0 
0.0 0.0 -3.679322108393e+01 
-4.755295771945e+01 2.642272244699e-01 0.0 
2.642272244699e-01 -1.059992405257e+02 0.0 
0.0 0.0 -4.566565947354e+01 
-4.833300629395e+01 -2.515923972430e-01 0.0 
-2.515923972430e-01 -1.076795577456e+02 0.0 
0.0 0.0 -4.640376921188e+01 
-4.832093347337e+01 -4.035532065030e-02 0.0 
-4.035532065030e-02 -1.077046174366e+02 0.0 
0.0 0.0 -4.640766527300e+01 
-4.845220486564e+01 -8.177828479143e-02 0.0 
-8.177828479143e-02 -1.077889609682e+02 0.0 
0.0 0.0 -4.647234975015e+01 
-4.837600169378e+01 -1.052855558810e-01 0.0 
-1.052855558810e-01 -1.077516037789e+02 0.0 
0.0 0.0 -4.643828164181e+01 
-4.847543748711e+01 -1.320943736240e-01 0.0 
-1.320943736240e-01 -1.077991016238e+02 0.0 
0.0 0.0 -4.648236173328e+01 
-4.839939360877e+01 -1.391860537474e-01 0.0 
-1.391860537474e-01 -1.077650999131e+02 0.0 
0.0 0.0 -4.644934805656e+01 
-4.853836419153e+01 -1.701333929234e-01 0.0 
-1.701333929234e-01 -1.078105366635e+02 0.0 
0.0 0.0 -4.650467025652e+01 
-4.842173037300e+01 -1.757417594664e-01 0.0 
-1.757417594664e-01 -1.077600319555e+02 0.0 
0.0 0.0 -4.645452869855e+01 
-4.858900945341e+01 -2.133025136526e-01 0.0 
-2.133025136526e-01 -1.078209437223e+02 0.0 
0.0 0.0 -4.652298595272e+01 
-4.845098179893e+01 -2.097802932255e-01 0.0 
-2.097802932255e-01 -1.077658731206e+02 0.0 
0.0 0.0 -4.646505647586e+01 
-4.865690010321e+01 -2.540890266540e-01 0.0 
-2.540890266540e-01 -1.078400497485e+02 0.0 
0.0 0.0 -4.654908495552e+01 
-4.848824419531e+01 -2.360947717177e-01 0.0 
-2.360947717177e-01 -1.077811579043e+02 0.0 
0.0 0.0 -4.648082062990e+01 
-4.870177972269e+01 -2.745170177215e-01 0.0 
-2.745170177215e-01 -1.078399617145e+02 0.0 
0.0 0.0 -4.656252243115e+01 
-4.854129575482e+01 -2.549475544577e-01 0.0 
-2.549475544577e-01 -1.077878921593e+02 0.0 
0.0 0.0 -4.649875637424e+01 
-5.059964655886e+01 1.154766518787e+00 0.0 
1.154766518787e+00 -1.100549581559e+02 0.0 
0.0 0.0 -4.779638141443e+01 
-4.882898208465e+01 -2.944761543602e-01 0.0 
-2.944761543602e-01 -1.078391050630e+02 0.0 
0.0 0.0 -4.660042614430e+01 
-5.158761355716e+01 2.154267551639e-01 0.0 
2.154267551639e-01 -1.089770387039e+02 0.0 
0.0 0.0 -4.776939567831e+01 
-4.859837960459e+01 -2.884444542018e-01 0.0 
-2.884444542018e-01 -1.077539802974e+02 0.0 
0.0 0.0 -4.650570797059e+01 
-4.892213286584e+01 -3.419005343053e-01 0.0 
-3.419005343053e-01 -1.078477821833e+02 0.0 
0.0 0.0 -4.663097451475e+01 
-4.867083249075e+01 -3.088426016700e-01 0.0 
-3.088426016700e-01 -1.077775190570e+02 0.0 
0.0 0.0 -4.653450546433e+01 
-4.901553424199e+01 -3.586647441796e-01 0.0 
-3.586647441796e-01 -1.078675482033e+02 0.0 
0.0 0.0 -4.666492473360e+01 
-4.876481880887e+01 -3.071694309906e-01 0.0 
-3.071694309906e-01 -1.078179109097e+02 0.0 
0.0 0.0 -4.657481891557e+01 
-4.916995056943e+01 -3.496559629876e-01 0.0 
-3.496559629876e-01 -1.078939696422e+02 0.0 
0.0 0.0 -4.671917606350e+01 
-4.861296917395e+01 3.126731539824e-01 0.0 
3.126731539824e-01 -1.035881914567e+02 0.0 
0.0 0.0 -4.526034818921e+01 
-4.888109873442e+01 -2.926470133309e-01 0.0 
-2.926470133309e-01 -1.078430743746e+02 0.0 
0.0 0.0 -4.661725193271e+01 
-4.933965531810e+01 -3.305013373087e-01 0.0 
-3.305013373087e-01 -1.079183779087e+02 0.0 
0.0 0.0 -4.677740996805e+01 
-4.902724681943e+01 -2.594384838417e-01 0.0 
-2.594384838417e-01 -1.078818186771e+02 0.0 
0.0 0.0 -4.667271964896e+01 
-4.950045545617e+01 -2.735118938378e-01 0.0 
-2.735118938378e-01 -1.079172422614e+02 0.0 
0.0 0.0 -4.682530931527e+01 
-4.920094279302e+01 -2.327339660837e-01 0.0 
-2.327339660837e-01 -1.078635279174e+02 0.0 
0.0 0.0 -4.671934121312e+01 
-4.989408357096e+01 -3.184260107103e-01 0.0 
-3.184260107103e-01 -1.080789086920e+02 0.0 
0.0 0.0 -4.699189767888e+01 
-4.941763333976e+01 -1.449744559652e-01 0.0 
-1.449744559652e-01 -1.081306774959e+02 0.0 
0.0 0.0 -4.686449325069e+01 
-4.983989566352e+01 -1.057608526860e-01 0.0 
-1.057608526860e-01 -1.080854279479e+02 0.0 
0.0 0.0 -4.697759708343e+01 
-5.082612173884e+01 -1.566111394490e-01 0.0 
-1.566111394490e-01 -1.085227566207e+02 0.0 
0.0 0.0 -4.740466350787e+01 
-4.966869455484e+01 -2.385214884585e-02 0.0 
-2.385214884585e-02 -1.081365646881e+02 0.0 
0.0 0.0 -4.694157777290e+01 
-5.292751131881e+01 5.859470856785e-01 0.0 
5.859470856785e-01 -1.113980008631e+02 0.0 
0.0 0.0 -4.889765365456e+01 
-4.998536022790e+01 2.021277268656e-01 0.0 
2.021277268656e-01 -1.087689633240e+02 0.0 
0.0 0.0 -4.722629706558e+01 
-4.934566402436e+01 5.213680437480e-01 0.0 
5.213680437480e-01 -1.027160182273e+02 0.0 
0.0 0.0 -4.521850467550e+01 
-4.788754971513e+01 1.469646158757e+00 0.0 
1.469646158757e+00 -1.081372327849e+02 0.0 
0.0 0.0 -4.640743475000e+01 
-4.822511001596e+01 -1.446712574748e+00 0.0 
-1.446712574748e+00 -1.061647200396e+02 0.0 
0.0 0.0 -4.591694901668e+01 
-5.028301295402e+01 1.388561709863e-01 0.0 
1.388561709863e-01 -1.122828368320e+02 0.0 
0.0 0.0 -4.836975493581e+01 
-4.591441515226e+01 -1.667039133023e-01 0.0 
-1.667039133023e-01 -1.021831564764e+02 0.0 
0.0 0.0 -4.402927148861e+01 
-4.896982796959e+01 8.665604807263e-01 0.0 
8.665604807263e-01 -1.031089742501e+02 0.0 
0.0 0.0 -4.522364066591e+01 
-5.742506161965e+01 3.128714495037e-01 0.0 
3.128714495037e-01 -1.291060622406e+02 0.0 
0.0 0.0 -5.555933715808e+01 
-5.674610676759e+01 -2.168957978383e-01 0.0 
-2.168957978383e-01 -1.273101255175e+02 0.0 
0.0 0.0 -5.481686968552e+01 
-5.689244878765e+01 3.541194382545e-02 0.0 
3.541194382545e-02 -1.273299619062e+02 0.0 
0.0 0.0 -5.486672320815e+01 
-5.673813673151e+01 -3.963544714864e-02 0.0 
-3.963544714864e-02 -1.271228019886e+02 0.0 
0.0 0.0 -5.475828161602e+01 
-5.687997703666e+01 -7.913504569635e-02 0.0 
-7.913504569635e-02 -1.271926774281e+02 0.0 
0.0 0.0 -5.482179633943e+01 
-5.678221440051e+01 -9.563971478089e-02 0.0 
-9.563971478089e-02 -1.271815810884e+02 0.0 
0.0 0.0 -5.478913864668e+01 
-5.689871727682e+01 -7.639315541204e-02 0.0 
-7.639315541204e-02 -1.272236786781e+02 0.0 
0.0 0.0 -5.483671878648e+01 
-5.682027960446e+01 -1.110563955020e-01 0.0 
-1.110563955020e-01 -1.271350059604e+02 0.0 
0.0 0.0 -5.478658566945e+01 
-5.704244315085e+01 -1.212682598949e-01 0.0 
-1.212682598949e-01 -1.272305909544e+02 0.0 
0.0 0.0 -5.488191023157e+01 
-5.688183397387e+01 -1.563125126428e-01 0.0 
-1.563125126428e-01 -1.271708676034e+02 0.0 
0.0 0.0 -5.481581047318e+01 
-5.707796559853e+01 -1.431664794298e-01 0.0 
-1.431664794298e-01 -1.272431526096e+02 0.0 
0.0 0.0 -5.489633546244e+01 
-5.693944314129e+01 -1.803215875995e-01 0.0 
-1.803215875995e-01 -1.271659835040e+02 0.0 
0.0 0.0 -5.483162799360e+01 
-5.722048634682e+01 -1.825304305435e-01 0.0 
-1.825304305435e-01 -1.272778493454e+02 0.0 
0.0 0.0 -5.494950070768e+01 
-5.905762984298e+01 1.070590282306e+00 0.0 
1.070590282306e+00 -1.295411244698e+02 0.0 
0.0 0.0 -5.617962629382e+01 
-5.702036068244e+01 -2.063955082712e-01 0.0 
-2.063955082712e-01 -1.272499839539e+02 0.0 
0.0 0.0 -5.488110339091e+01 
-5.727228823773e+01 -1.248394375046e-01 0.0 
-1.248394375046e-01 -1.272901303074e+02 0.0 
0.0 0.0 -5.496872556354e+01 
-5.705020643581e+01 3.068731974872e-01 0.0 
3.068731974872e-01 -1.230456209136e+02 0.0 
0.0 0.0 -5.362874820484e+01 
-5.709791022805e+01 -1.915074870015e-01 0.0 
-1.915074870015e-01 -1.271332707310e+02 0.0 
0.0 0.0 -5.486935428770e+01 
-5.743667737648e+01 -1.887729613653e-01 0.0 
-1.887729613653e-01 -1.272563473268e+02 0.0 
0.0 0.0 -5.500790741099e+01 
-5.986204400219e+01 2.319587466817e-01 0.0 
2.319587466817e-01 -1.283601968446e+02 0.0 
0.0 0.0 -5.606667225404e+01 
-5.720968706828e+01 -2.242800837407e-01 0.0 
-2.242800837407e-01 -1.271854086557e+02 0.0 
0.0 0.0 -5.491852871719e+01 
-5.753508765708e+01 -2.129057469804e-01 0.0 
-2.129057469804e-01 -1.272910764355e+02 0.0 
0.0 0.0 -5.504784922776e+01 
-5.733663358887e+01 -2.190610071855e-01 0.0 
-2.190610071855e-01 -1.272834466794e+02 0.0 
0.0 0.0 -5.498602408047e+01 
-5.769515397528e+01 -1.561718465682e-01 0.0 
-1.561718465682e-01 -1.273441622974e+02 0.0 
0.0 0.0 -5.511179488181e+01 
-5.748431295691e+01 -1.772429712807e-01 0.0 
-1.772429712807e-01 -1.272941485463e+02 0.0 
0.0 0.0 -5.503353845098e+01 
-6.131109042569e+01 5.323103997892e-01 0.0 
5.323103997892e-01 -1.308263576851e+02 0.0 
0.0 0.0 -5.724123443324e+01 
-5.793179367584e+01 -1.242485035039e-01 0.0 
-1.242485035039e-01 -1.273814028168e+02 0.0 
0.0 0.0 -5.519395894780e+01 
-5.766550964163e+01 -1.342234975877e-01 0.0 
-1.342234975877e-01 -1.273453713303e+02 0.0 
0.0 0.0 -5.510326429158e+01 
-5.788830494204e+01 -4.652148456376e-02 0.0 
-4.652148456376e-02 -1.274888910617e+02 0.0 
0.0 0.0 -5.521315880114e+01 
-5.811415009974e+01 -8.872557047156e-02 0.0 
-8.872557047156e-02 -1.274274994478e+02 0.0 
0.0 0.0 -5.526249486427e+01 
-5.810261694507e+01 2.767714601245e-02 0.0 
2.767714601245e-02 -1.272321532316e+02 0.0 
0.0 0.0 -5.520043105300e+01 
-5.816317754156e+01 1.019866982160e-01 0.0 
1.019866982160e-01 -1.273772619398e+02 0.0 
0.0 0.0 -5.526213184441e+01 
-5.845178294329e+01 1.361313120520e-01 0.0 
1.361313120520e-01 -1.281798316007e+02 0.0 
0.0 0.0 -5.558948436320e+01 
-5.906736390129e+01 -1.722883400106e-01 0.0 
-1.722883400106e-01 -1.277533766299e+02 0.0 
0.0 0.0 -5.564622215937e+01 
-5.778740130835e+01 5.441548778375e-01 0.0 
5.441548778375e-01 -1.222682689143e+02 0.0 
0.0 0.0 -5.361670106679e+01 
-5.722375258553e+01 1.429695343839e+00 0.0 
1.429695343839e+00 -1.268172740138e+02 0.0 
0.0 0.0 -5.481230797981e+01 
-5.684638561523e+01 -1.492166247576e+00 0.0 
-1.492166247576e+00 -1.290102071265e+02 0.0 
0.0 0.0 -5.535697782252e+01 
-5.478003618217e+01 1.082463889510e-01 0.0 
1.082463889510e-01 -1.227758910310e+02 0.0 
0.0 0.0 -5.286677816395e+01 
-5.918739404626e+01 -2.320585914911e-01 0.0 
-2.320585914911e-01 -1.328547513279e+02 0.0 
0.0 0.0 -5.721264361226e+01 
-5.738704842161e+01 7.446892845107e-01 0.0 
7.446892845107e-01 -1.225090533876e+02 0.0 
0.0 0.0 -5.356883054276e+01 
-6.448915402247e+01 4.437725290745e-01 0.0 
4.437725290745e-01 -1.455889445139e+02 0.0 
0.0 0.0 -6.262342956090e+01 
-6.537173939947e+01 2.649459804823e-03 0.0 
2.649459804823e-03 -1.468505525004e+02 0.0 
0.0 0.0 -6.326668756997e+01 
-6.523503509652e+01 2.430485963999e-02 0.0 
2.430485963999e-02 -1.467959966269e+02 0.0 
0.0 0.0 -6.320930951701e+01 
-6.520264709517e+01 1.110614593099e-02 0.0 
1.110614593099e-02 -1.468696732215e+02 0.0 
0.0 0.0 -6.322169609500e+01 
-6.533031195711e+01 -4.205592135318e-02 0.0 
-4.205592135318e-02 -1.469101255758e+02 0.0 
0.0 0.0 -6.327213125989e+01 
-6.533300449372e+01 -7.294937517268e-02 0.0 
-7.294937517268e-02 -1.470255931564e+02 0.0 
0.0 0.0 -6.330757929503e+01 
-6.541127775654e+01 1.006534203111e-02 0.0 
1.006534203111e-02 -1.470863197974e+02 0.0 
0.0 0.0 -6.334927926620e+01 
-6.551888988038e+01 3.359906377458e-02 0.0 
3.359906377458e-02 -1.469562428140e+02 0.0 
0.0 0.0 -6.334253980832e+01 
-6.547008215207e+01 -6.334291846068e-02 0.0 
-6.334291846068e-02 -1.468950819573e+02 0.0 
0.0 0.0 -6.330954923280e+01 
-6.555949087415e+01 -1.090167377062e-01 0.0 
-1.090167377062e-01 -1.470151209642e+02 0.0 
0.0 0.0 -6.337238355151e+01 
-6.556630417534e+01 -4.755059212815e-02 0.0 
-4.755059212815e-02 -1.470492759555e+02 0.0 
0.0 0.0 -6.338467403925e+01 
-6.563241403416e+01 -3.833119479548e-02 0.0 
-3.833119479548e-02 -1.470023059717e+02 0.0 
0.0 0.0 -6.339041600175e+01 
-6.736243781691e+01 1.159755426963e+00 0.0 
1.159755426963e+00 -1.490859782607e+02 0.0 
0.0 0.0 -6.453452482330e+01 
-6.567497485934e+01 -6.179427599059e-02 0.0 
-6.179427599059e-02 -1.470049892080e+02 0.0 
0.0 0.0 -6.340398922020e+01 
-6.747543605112e+01 1.906017615368e-01 0.0 
1.906017615368e-01 -1.477820195539e+02 0.0 
0.0 0.0 -6.417723668150e+01 
-6.609900599712e+01 -1.457837390710e-01 0.0 
-1.457837390710e-01 -1.471614797008e+02 0.0 
0.0 0.0 -6.357814570939e+01 
-6.575961879061e+01 -5.551124872855e-02 0.0 
-5.551124872855e-02 -1.470939015975e+02 0.0 
0.0 0.0 -6.345605611642e+01 
-6.577724518281e+01 -8.242389796247e-03 0.0 
-8.242389796247e-03 -1.469620763216e+02 0.0 
0.0 0.0 -6.342179645133e+01 
-6.587530018187e+01 -7.474132781325e-02 0.0 
-7.474132781325e-02 -1.469464672061e+02 0.0 
0.0 0.0 -6.344653021638e+01 
-6.597395468691e+01 -1.142234914981e-01 0.0 
-1.142234914981e-01 -1.470389731411e+02 0.0 
0.0 0.0 -6.350387834840e+01 
-6.603847721443e+01 -3.352488573679e-02 0.0 
-3.352488573679e-02 -1.471323187359e+02 0.0 
0.0 0.0 -6.355123878511e+01 
-6.630098389692e+01 -5.498043826765e-02 0.0 
-5.498043826765e-02 -1.471744210835e+02 0.0 
0.0 0.0 -6.364262149413e+01 
-6.544698093983e+01 3.326777207171e-01 0.0 
3.326777207171e-01 -1.426391497199e+02 0.0 
0.0 0.0 -6.202583919790e+01 
-6.622028249290e+01 3.705935032229e-02 0.0 
3.705935032229e-02 -1.472361288385e+02 0.0 
0.0 0.0 -6.363692339942e+01 
-6.651294953419e+01 6.250431220211e-02 0.0 
6.250431220211e-02 -1.471823271417e+02 0.0 
0.0 0.0 -6.370858300276e+01 
-6.641162229425e+01 7.929208036932e-02 0.0 
7.929208036932e-02 -1.471676695931e+02 0.0 
0.0 0.0 -6.367378756621e+01 
-6.682133477536e+01 5.439360483998e-02 0.0 
5.439360483998e-02 -1.472432569303e+02 0.0 
0.0 0.0 -6.381937751171e+01 
-6.714280558405e+01 5.395973658178e-02 0.0 
5.395973658178e-02 -1.474191913117e+02 0.0 
0.0 0.0 -6.396859906872e+01 
-6.660901118522e+01 1.140680403644e-01 0.0 
1.140680403644e-01 -1.472488419806e+02 0.0 
0.0 0.0 -6.375735594975e+01 
-6.682188856795e+01 2.520964653312e-01 0.0 
2.520964653312e-01 -1.475809210014e+02 0.0 
0.0 0.0 -6.392084287080e+01 
-6.959621034413e+01 5.285966164379e-01 0.0 
5.285966164379e-01 -1.504597450014e+02 0.0 
0.0 0.0 -6.561678660365e+01 
-6.607180198325e+01 5.151808730974e-01 0.0 
5.151808730974e-01 -1.418504930511e+02 0.0 
0.0 0.0 -6.197668851029e+01 
-6.465508234339e+01 1.296759152700e+00 0.0 
1.296759152700e+00 -1.468814115320e+02 0.0 
0.0 0.0 -6.306094816263e+01 
-6.487533599854e+01 -1.577182299612e+00 0.0 
-1.577182299612e+00 -1.455842871442e+02 0.0 
0.0 0.0 -6.273788694282e+01 
-6.683770363383e+01 -7.778126216893e-02 0.0 
-7.778126216893e-02 -1.513945504851e+02 0.0 
0.0 0.0 -6.506967623567e+01 
-6.278684398007e+01 -2.592728754590e-01 0.0 
-2.592728754590e-01 -1.412534678402e+02 0.0 
0.0 0.0 -6.081209354607e+01 
-6.575629071999e+01 7.649391383425e-01 0.0 
7.649391383425e-01 -1.421134391861e+02 0.0 
0.0 0.0 -6.196091897183e+01 

TENSORS element_materi_strain_total float
-2.939009634414e-04 2.474321054395e-04 0.0 
2.474321054395e-04 4.355904770486e-03 0.0 
0.0 0.0 0.0 
-3.550224993131e-04 2.381649369199e-04 0.0 
2.381649369199e-04 4.356647374284e-03 0.0 
0.0 0.0 0.0 
-6.363264183462e-05 4.065537810045e-04 0.0 
4.065537810045e-04 9.534058094367e-03 0.0 
0.0 0.0 0.0 
-5.438790645873e-05 1.315672247942e-05 0.0 
1.315672247942e-05 9.661229427452e-03 0.0 
0.0 0.0 0.0 
-2.023943543877e-04 6.048840343427e-05 0.0 
6.048840343427e-05 6.816318178487e-03 0.0 
0.0 0.0 0.0 
1.375231594523e-04 4.202040510516e-04 0.0 
4.202040510516e-04 1.018788843209e-03 0.0 
0.0 0.0 0.0 
-1.815243606448e-04 5.864162728880e-05 0.0 
5.864162728880e-05 6.818130745493e-03 0.0 
0.0 0.0 0.0 
-3.209955883853e-04 3.410598568017e-04 0.0 
3.410598568017e-04 4.192758371562e-03 0.0 
0.0 0.0 0.0 
-2.014373555456e-04 -2.346425711646e-05 0.0 
-2.346425711646e-05 6.826946667895e-03 0.0 
0.0 0.0 0.0 
-5.027211729769e-05 9.774378887163e-05 0.0 
9.774378887163e-05 9.626131610097e-03 0.0 
0.0 0.0 0.0 
3.094973414941e-04 4.008788269048e-05 0.0 
4.008788269048e-05 5.128646594904e-03 0.0 
0.0 0.0 0.0 
-3.192039024847e-04 2.418671950752e-04 0.0 
2.418671950752e-04 4.006028882549e-03 0.0 
0.0 0.0 0.0 
1.100160679148e-04 9.360113778094e-05 0.0 
9.360113778094e-05 7.743095754615e-03 0.0 
0.0 0.0 0.0 
-2.352204019666e-04 1.006481301780e-04 0.0 
1.006481301780e-04 7.170475246482e-03 0.0 
0.0 0.0 0.0 
6.298474351674e-05 5.220670992999e-05 0.0 
5.220670992999e-05 7.950750638590e-03 0.0 
0.0 0.0 0.0 
-3.584319891337e-05 8.248853688398e-05 0.0 
8.248853688398e-05 9.823753672221e-03 0.0 
0.0 0.0 0.0 
-2.323861002931e-04 3.469399048709e-05 0.0 
3.469399048709e-05 6.725253757253e-03 0.0 
0.0 0.0 0.0 
9.505376936758e-05 1.497129748421e-04 0.0 
1.497129748421e-04 9.523543238950e-04 0.0 
0.0 0.0 0.0 
9.480787534621e-05 -3.802100481284e-05 0.0 
-3.802100481284e-05 1.448834830984e-03 0.0 
0.0 0.0 0.0 
1.404443176984e-04 9.595631874664e-06 0.0 
9.595631874664e-06 1.498377352109e-03 0.0 
0.0 0.0 0.0 
-5.848867748892e-05 3.424596174140e-05 0.0 
3.424596174140e-05 9.636875318215e-03 0.0 
0.0 0.0 0.0 
-3.213538435127e-04 1.663574122942e-04 0.0 
1.663574122942e-04 4.730585605544e-03 0.0 
0.0 0.0 0.0 
-3.510903535905e-04 1.921583820760e-04 0.0 
1.921583820760e-04 4.914000031731e-03 0.0 
0.0 0.0 0.0 
1.309317947535e-04 4.745277457859e-04 0.0 
4.745277457859e-04 7.794541158793e-03 0.0 
0.0 0.0 0.0 
-2.435876440900e-04 1.542249707586e-04 0.0 
1.542249707586e-04 7.524198941743e-03 0.0 
0.0 0.0 0.0 
3.003310459642e-04 3.363128466908e-06 0.0 
3.363128466908e-06 5.430494266215e-03 0.0 
0.0 0.0 0.0 
-2.841412182348e-04 6.000119673875e-05 0.0 
6.000119673875e-05 6.351579570449e-03 0.0 
0.0 0.0 0.0 
-5.291395223972e-05 6.638765943305e-04 0.0 
6.638765943305e-04 9.080806461242e-03 0.0 
0.0 0.0 0.0 
-2.777727740491e-04 9.693721609398e-05 0.0 
9.693721609398e-05 7.529188532744e-03 0.0 
0.0 0.0 0.0 
1.293169430081e-04 5.138168161490e-04 0.0 
5.138168161490e-04 7.941004709943e-03 0.0 
0.0 0.0 0.0 
6.247749829758e-05 9.300473294468e-06 0.0 
9.300473294468e-06 1.142058711289e-03 0.0 
0.0 0.0 0.0 
-9.329125810520e-05 -4.568358384645e-05 0.0 
-4.568358384645e-05 4.465839086814e-04 0.0 
0.0 0.0 0.0 
-1.198152342161e-04 4.204263652531e-04 0.0 
4.204263652531e-04 9.562981651950e-03 0.0 
0.0 0.0 0.0 
2.269729598599e-04 -1.028677709014e-05 0.0 
-1.028677709014e-05 6.552275609004e-03 0.0 
0.0 0.0 0.0 
1.228653416196e-04 2.911798312059e-04 0.0 
2.911798312059e-04 7.853282648890e-03 0.0 
0.0 0.0 0.0 
6.006372988199e-05 2.853319022345e-04 0.0 
2.853319022345e-04 8.209559463741e-03 0.0 
0.0 0.0 0.0 
4.507225128081e-05 1.438244986009e-04 0.0 
1.438244986009e-04 8.200847250011e-03 0.0 
0.0 0.0 0.0 
6.754245777607e-05 6.600696821161e-04 0.0 
6.600696821161e-04 8.470130993697e-03 0.0 
0.0 0.0 0.0 
-1.850517050100e-04 -4.337521834019e-05 0.0 
-4.337521834019e-05 6.406152011401e-03 0.0 
0.0 0.0 0.0 
-1.772658737301e-04 5.894698368757e-05 0.0 
5.894698368757e-05 6.422866411314e-03 0.0 
0.0 0.0 0.0 
-3.560589583983e-04 1.410635264519e-04 0.0 
1.410635264519e-04 5.399123225743e-03 0.0 
0.0 0.0 0.0 
7.864662848389e-05 3.923088179624e-04 0.0 
3.923088179624e-04 8.039849537043e-03 0.0 
0.0 0.0 0.0 
-2.466527064356e-04 3.700910152030e-04 0.0 
3.700910152030e-04 3.577235678140e-03 0.0 
0.0 0.0 0.0 
-2.923145230788e-04 7.147328784729e-05 0.0 
7.147328784729e-05 6.371897018587e-03 0.0 
0.0 0.0 0.0 
-7.484063384156e-05 -6.470396225013e-07 0.0 
-6.470396225013e-07 9.434438479317e-03 0.0 
0.0 0.0 0.0 
-3.431470890896e-04 4.773421897380e-04 0.0 
4.773421897380e-04 3.587205466740e-03 0.0 
0.0 0.0 0.0 
5.588686064018e-05 -5.206965261761e-05 0.0 
-5.206965261761e-05 7.744240899825e-04 0.0 
0.0 0.0 0.0 
-4.495478608746e-05 3.158200966435e-05 0.0 
3.158200966435e-05 9.467816074828e-03 0.0 
0.0 0.0 0.0 
-8.711858633159e-05 -5.385982599026e-05 0.0 
-5.385982599026e-05 4.534839922541e-04 0.0 
0.0 0.0 0.0 
-2.465869624387e-04 3.374506817167e-05 0.0 
3.374506817167e-05 6.988710914262e-03 0.0 
0.0 0.0 0.0 
-3.538830788993e-04 1.660427895500e-04 0.0 
1.660427895500e-04 5.159821004806e-03 0.0 
0.0 0.0 0.0 
1.453140750003e-04 -3.149676075950e-05 0.0 
-3.149676075950e-05 1.844283587131e-03 0.0 
0.0 0.0 0.0 
2.260467493844e-04 1.649931805109e-05 0.0 
1.649931805109e-05 1.610389463061e-03 0.0 
0.0 0.0 0.0 
-3.251399315247e-04 1.371584514393e-04 0.0 
1.371584514393e-04 5.176521162970e-03 0.0 
0.0 0.0 0.0 
-5.739083058698e-05 3.054469254591e-04 0.0 
3.054469254591e-04 9.664840938057e-03 0.0 
0.0 0.0 0.0 
2.069781469649e-04 -4.481244264414e-05 0.0 
-4.481244264414e-05 2.476260461242e-03 0.0 
0.0 0.0 0.0 
1.782954328138e-04 1.547958908609e-05 0.0 
1.547958908609e-05 1.907381073963e-03 0.0 
0.0 0.0 0.0 
2.330002584530e-04 5.426201635252e-05 0.0 
5.426201635252e-05 6.554051365459e-03 0.0 
0.0 0.0 0.0 
6.234565433139e-05 -3.159636377708e-05 0.0 
-3.159636377708e-05 1.085232752503e-03 0.0 
0.0 0.0 0.0 
-3.840316071391e-05 2.438302084675e-05 0.0 
2.438302084675e-05 9.824581035312e-03 0.0 
0.0 0.0 0.0 
-2.897588490751e-04 -7.392298709023e-05 0.0 
-7.392298709023e-05 4.664849361868e-04 0.0 
0.0 0.0 0.0 
3.097619769132e-06 6.655719395323e-04 0.0 
6.655719395323e-04 8.458298455190e-03 0.0 
0.0 0.0 0.0 
-2.936848712540e-04 4.670493700334e-04 0.0 
4.670493700334e-04 4.874963243928e-03 0.0 
0.0 0.0 0.0 
2.217604175818e-04 7.679398028631e-05 0.0 
7.679398028631e-05 1.383756290966e-03 0.0 
0.0 0.0 0.0 
1.061327403538e-04 8.125569161531e-05 0.0 
8.125569161531e-05 7.746717154588e-03 0.0 
0.0 0.0 0.0 
-3.315925261022e-04 1.469594847051e-04 0.0 
1.469594847051e-04 4.949597069429e-03 0.0 
0.0 0.0 0.0 
-1.172765339447e-04 -2.376608840164e-05 0.0 
-2.376608840164e-05 3.782954402485e-04 0.0 
0.0 0.0 0.0 
-1.244501745320e-04 4.311303091789e-04 0.0 
4.311303091789e-04 9.524489158469e-03 0.0 
0.0 0.0 0.0 
7.203179236948e-05 -1.219845041864e-04 0.0 
-1.219845041864e-04 1.193550504816e-03 0.0 
0.0 0.0 0.0 
-5.351960098243e-05 5.418811393734e-04 0.0 
5.418811393734e-04 9.350524090456e-03 0.0 
0.0 0.0 0.0 
2.928197892291e-04 1.863265898831e-05 0.0 
1.863265898831e-05 5.672152655469e-03 0.0 
0.0 0.0 0.0 
0.0 1.971582038353e-04 0.0 
1.971582038353e-04 1.005605208908e-02 0.0 
0.0 0.0 0.0 
-6.055041838893e-05 5.992731540261e-04 0.0 
5.992731540261e-04 8.788028116739e-03 0.0 
0.0 0.0 0.0 
2.052433876609e-05 2.929012981698e-05 0.0 
2.929012981698e-05 4.967515151142e-04 0.0 
0.0 0.0 0.0 
2.310103195129e-04 1.347391234374e-05 0.0 
1.347391234374e-05 2.586577540642e-03 0.0 
0.0 0.0 0.0 
-6.865683748070e-05 1.215950454169e-04 0.0 
1.215950454169e-04 9.678288154547e-03 0.0 
0.0 0.0 0.0 
-1.110334897726e-04 3.313472463039e-04 0.0 
3.313472463039e-04 9.654451258622e-03 0.0 
0.0 0.0 0.0 
-2.266902724049e-04 7.201643982388e-04 0.0 
7.201643982388e-04 2.881088401116e-03 0.0 
0.0 0.0 0.0 
1.030737803807e-04 -4.487672138821e-05 0.0 
-4.487672138821e-05 1.083021111472e-03 0.0 
0.0 0.0 0.0 
-1.753570657013e-04 5.844566598402e-04 0.0 
5.844566598402e-04 2.875314355797e-03 0.0 
0.0 0.0 0.0 
9.950267619496e-05 -2.125114764986e-05 0.0 
-2.125114764986e-05 1.177874739175e-03 0.0 
0.0 0.0 0.0 
-2.157250541148e-04 3.521921137339e-05 0.0 
3.521921137339e-05 6.719759993158e-03 0.0 
0.0 0.0 0.0 
-3.499080996300e-04 2.209800731093e-04 0.0 
2.209800731093e-04 4.684399104415e-03 0.0 
0.0 0.0 0.0 
-3.247083779817e-04 1.666214526175e-04 0.0 
1.666214526175e-04 4.458960542735e-03 0.0 
0.0 0.0 0.0 
-2.137605824194e-04 -6.169810197944e-06 0.0 
-6.169810197944e-06 7.048414700531e-03 0.0 
0.0 0.0 0.0 
-1.911911721092e-04 6.195644934583e-05 0.0 
6.195644934583e-05 7.047721275463e-03 0.0 
0.0 0.0 0.0 
2.751280975160e-04 2.009469513461e-06 0.0 
2.009469513461e-06 5.862832442064e-03 0.0 
0.0 0.0 0.0 
2.485057126904e-04 3.422441398947e-05 0.0 
3.422441398947e-05 6.357075902510e-03 0.0 
0.0 0.0 0.0 
-2.514728808819e-04 3.377479438362e-04 0.0 
3.377479438362e-04 8.461637871528e-03 0.0 
0.0 0.0 0.0 
-2.167348627866e-04 -1.555320444375e-05 0.0 
-1.555320444375e-05 6.799576393157e-03 0.0 
0.0 0.0 0.0 
-4.490668765156e-05 -4.280572242043e-05 0.0 
-4.280572242043e-05 4.292175033800e-04 0.0 
0.0 0.0 0.0 
-2.892929559484e-04 8.806445907571e-05 0.0 
8.806445907571e-05 6.746035664051e-03 0.0 
0.0 0.0 0.0 
-1.164156856235e-04 7.405707897216e-07 0.0 
7.405707897216e-07 8.476395916194e-03 0.0 
0.0 0.0 0.0 
-1.272173776569e-04 4.069309694767e-05 0.0 
4.069309694767e-05 8.401491691018e-03 0.0 
0.0 0.0 0.0 
-5.035444751700e-05 2.135803138014e-04 0.0 
2.135803138014e-04 1.005383340834e-02 0.0 
0.0 0.0 0.0 
3.903460287003e-06 6.435275504530e-04 0.0 
6.435275504530e-04 8.768850503189e-03 0.0 
0.0 0.0 0.0 
-2.337872567817e-04 2.022007738543e-05 0.0 
2.022007738543e-05 6.712374313815e-03 0.0 
0.0 0.0 0.0 
1.202997089982e-04 3.886723825670e-04 0.0 
3.886723825670e-04 8.028038534795e-03 0.0 
0.0 0.0 0.0 
-1.497437447583e-04 -1.865699672495e-05 0.0 
-1.865699672495e-05 7.451860985881e-03 0.0 
0.0 0.0 0.0 
-3.479685714909e-04 4.144027726759e-04 0.0 
4.144027726759e-04 4.831325083990e-03 0.0 
0.0 0.0 0.0 
-2.072313956231e-04 -8.914250935830e-06 0.0 
-8.914250935830e-06 6.612979918386e-03 0.0 
0.0 0.0 0.0 
6.800430804077e-05 1.195978648532e-04 0.0 
1.195978648532e-04 7.946532304954e-03 0.0 
0.0 0.0 0.0 
7.290981560937e-06 5.592413580392e-04 0.0 
5.592413580392e-04 7.342418675604e-03 0.0 
0.0 0.0 0.0 
-2.568305983242e-05 6.058663555236e-04 0.0 
6.058663555236e-04 8.467976331416e-03 0.0 
0.0 0.0 0.0 
-2.089416853938e-04 6.337891997683e-04 0.0 
6.337891997683e-04 4.221984762625e-03 0.0 
0.0 0.0 0.0 
-8.679480156615e-05 -4.062421871753e-05 0.0 
-4.062421871753e-05 8.309018164632e-04 0.0 
0.0 0.0 0.0 
1.602859906829e-04 1.612817862631e-05 0.0 
1.612817862631e-05 7.254330516440e-03 0.0 
0.0 0.0 0.0 
-1.127091635296e-04 3.866317712627e-05 0.0 
3.866317712627e-05 8.794749981265e-03 0.0 
0.0 0.0 0.0 
-2.468745101699e-04 -6.406856373144e-05 0.0 
-6.406856373144e-05 5.025580810565e-04 0.0 
0.0 0.0 0.0 
7.238302378809e-05 1.576391734515e-04 0.0 
1.576391734515e-04 7.907303581557e-03 0.0 
0.0 0.0 0.0 
-2.338179452015e-04 3.803010807266e-04 0.0 
3.803010807266e-04 8.193706303365e-03 0.0 
0.0 0.0 0.0 
2.275642812188e-06 -4.671224496862e-05 0.0 
-4.671224496862e-05 3.132344203387e-04 0.0 
0.0 0.0 0.0 
-1.040203209024e-04 6.449350746572e-04 0.0 
6.449350746572e-04 4.904255398069e-03 0.0 
0.0 0.0 0.0 
-3.351464379410e-04 9.403237904231e-05 0.0 
9.403237904231e-05 6.292056249063e-03 0.0 
0.0 0.0 0.0 
2.823588771457e-04 -2.252948563549e-05 0.0 
-2.252948563549e-05 3.174508836168e-03 0.0 
0.0 0.0 0.0 
-3.062710540269e-04 4.162134360337e-04 0.0 
4.162134360337e-04 4.527474141964e-03 0.0 
0.0 0.0 0.0 
-3.115246891340e-04 4.840758308854e-04 0.0 
4.840758308854e-04 4.873712483364e-03 0.0 
0.0 0.0 0.0 
8.122140283540e-05 3.175366543274e-04 0.0 
3.175366543274e-04 7.996974072285e-03 0.0 
0.0 0.0 0.0 
-1.521855524401e-04 3.569090458597e-05 0.0 
3.569090458597e-05 7.312141309864e-03 0.0 
0.0 0.0 0.0 
-2.623940844098e-04 5.370634991465e-04 0.0 
5.370634991465e-04 4.559873543823e-03 0.0 
0.0 0.0 0.0 
5.070418743980e-05 -1.231640474508e-04 0.0 
-1.231640474508e-04 1.136986669255e-03 0.0 
0.0 0.0 0.0 
-2.883446779520e-04 1.131094160752e-04 0.0 
1.131094160752e-04 6.704327446812e-03 0.0 
0.0 0.0 0.0 
-8.478056453021e-05 7.804215784015e-06 0.0 
7.804215784015e-06 8.826899892686e-03 0.0 
0.0 0.0 0.0 
-2.731905155418e-04 5.484152301833e-04 0.0 
5.484152301833e-04 4.559334442843e-03 0.0 
0.0 0.0 0.0 
-5.510030448841e-05 5.750786166201e-04 0.0 
5.750786166201e-04 1.651909610719e-03 0.0 
0.0 0.0 0.0 
-3.499780444297e-04 1.087990586607e-04 0.0 
1.087990586607e-04 5.846307007036e-03 0.0 
0.0 0.0 0.0 
2.532861524465e-04 2.960074400528e-06 0.0 
2.960074400528e-06 3.152665435218e-03 0.0 
0.0 0.0 0.0 
-3.211944433870e-04 1.210654681611e-04 0.0 
1.210654681611e-04 5.625862417462e-03 0.0 
0.0 0.0 0.0 
-4.027920983851e-05 1.910928082039e-04 0.0 
1.910928082039e-04 9.826179124505e-03 0.0 
0.0 0.0 0.0 
1.482079975621e-04 6.959735732199e-04 0.0 
6.959735732199e-04 1.538086323248e-03 0.0 
0.0 0.0 0.0 
3.051582141227e-04 5.875232514843e-05 0.0 
5.875232514843e-05 5.403196085968e-03 0.0 
0.0 0.0 0.0 
-5.199369016051e-05 7.085386031688e-05 0.0 
7.085386031688e-05 9.662945621922e-03 0.0 
0.0 0.0 0.0 
-3.383002826882e-04 3.263745029510e-04 0.0 
3.263745029510e-04 5.728317690356e-03 0.0 
0.0 0.0 0.0 
-3.542367157615e-04 1.194749285337e-04 0.0 
1.194749285337e-04 5.628014884483e-03 0.0 
0.0 0.0 0.0 
1.420145006594e-04 3.750432309747e-04 0.0 
3.750432309747e-04 7.854966067408e-03 0.0 
0.0 0.0 0.0 
1.029934315442e-04 8.437276843796e-06 0.0 
8.437276843796e-06 7.759411998799e-03 0.0 
0.0 0.0 0.0 
2.812715336495e-04 6.583860716765e-05 0.0 
6.583860716765e-05 5.864559816405e-03 0.0 
0.0 0.0 0.0 
-3.676411100814e-04 2.989758844974e-04 0.0 
2.989758844974e-04 5.988841712006e-03 0.0 
0.0 0.0 0.0 
1.168877602633e-04 5.107136830223e-04 0.0 
5.107136830223e-04 8.196981058052e-03 0.0 
0.0 0.0 0.0 
-3.437133844099e-04 2.588135279173e-04 0.0 
2.588135279173e-04 5.629452269879e-03 0.0 
0.0 0.0 0.0 
-2.852333183445e-05 1.108539994550e-04 0.0 
1.108539994550e-04 9.757559304758e-03 0.0 
0.0 0.0 0.0 
-9.468312916117e-05 5.665692144338e-04 0.0 
5.665692144338e-04 9.387064333149e-03 0.0 
0.0 0.0 0.0 
-2.607000896092e-04 3.984856707606e-05 0.0 
3.984856707606e-05 7.158635475669e-03 0.0 
0.0 0.0 0.0 
-1.416427903017e-04 6.159785343797e-05 0.0 
6.159785343797e-05 7.968142386939e-03 0.0 
0.0 0.0 0.0 
-3.757306370008e-04 2.652804258504e-04 0.0 
2.652804258504e-04 5.629194631390e-03 0.0 
0.0 0.0 0.0 
-3.267648307319e-04 1.282069560531e-04 0.0 
1.282069560531e-04 5.402341088380e-03 0.0 
0.0 0.0 0.0 
-3.268460199587e-04 3.608318454705e-04 0.0 
3.608318454705e-04 6.082609503290e-03 0.0 
0.0 0.0 0.0 
-1.785639585904e-04 6.309385764008e-04 0.0 
6.309385764008e-04 4.569088436924e-03 0.0 
0.0 0.0 0.0 
-1.919644160792e-04 -1.697576809207e-05 0.0 
-1.697576809207e-05 6.669976233884e-03 0.0 
0.0 0.0 0.0 
-7.547274571462e-05 6.203210665836e-04 0.0 
6.203210665836e-04 4.907165659654e-03 0.0 
0.0 0.0 0.0 
-2.477641384124e-05 -6.942463114745e-05 0.0 
-6.942463114745e-05 4.079746170689e-04 0.0 
0.0 0.0 0.0 
-1.683282767956e-04 2.969381346311e-06 0.0 
2.969381346311e-06 6.986302288510e-03 0.0 
0.0 0.0 0.0 
9.313238309105e-05 -1.258024447053e-05 0.0 
-1.258024447053e-05 1.102835197156e-03 0.0 
0.0 0.0 0.0 
-3.438022801215e-04 1.001478996277e-04 0.0 
1.001478996277e-04 6.070576116359e-03 0.0 
0.0 0.0 0.0 
7.247556871759e-05 4.630377385433e-04 0.0 
4.630377385433e-04 8.157833487332e-03 0.0 
0.0 0.0 0.0 
-2.204217297651e-04 6.131629014660e-04 0.0 
6.131629014660e-04 4.223524550784e-03 0.0 
0.0 0.0 0.0 
2.667534496839e-04 5.484608070924e-05 0.0 
5.484608070924e-05 6.097639580170e-03 0.0 
0.0 0.0 0.0 
-3.531636879737e-04 3.718116613785e-04 0.0 
3.718116613785e-04 3.847942897923e-03 0.0 
0.0 0.0 0.0 
1.300227076872e-05 6.244678400565e-04 0.0 
6.244678400565e-04 7.336509878302e-03 0.0 
0.0 0.0 0.0 
-1.753588628701e-04 7.263584725511e-06 0.0 
7.263584725511e-06 6.702756001056e-03 0.0 
0.0 0.0 0.0 
-3.313960271623e-05 6.850618864066e-04 0.0 
6.850618864066e-04 4.518150820268e-03 0.0 
0.0 0.0 0.0 
2.082986822280e-04 9.033986656935e-06 0.0 
9.033986656935e-06 6.781171163952e-03 0.0 
0.0 0.0 0.0 
8.283648044349e-05 -3.694161728885e-05 0.0 
-3.694161728885e-05 1.120408330042e-03 0.0 
0.0 0.0 0.0 
1.686054708336e-04 8.946243396054e-05 0.0 
8.946243396054e-05 7.246557749034e-03 0.0 
0.0 0.0 0.0 
-3.257843950956e-04 1.965334701841e-04 0.0 
1.965334701841e-04 6.582764570376e-03 0.0 
0.0 0.0 0.0 
1.117535909827e-04 1.614478893436e-04 0.0 
1.614478893436e-04 7.886626258977e-03 0.0 
0.0 0.0 0.0 
-1.679915971919e-04 6.229398263956e-06 0.0 
6.229398263956e-06 6.676005965444e-03 0.0 
0.0 0.0 0.0 
-1.437269750849e-04 6.601285426485e-04 0.0 
6.601285426485e-04 4.174299085624e-03 0.0 
0.0 0.0 0.0 
-3.091449371153e-04 1.131581807133e-04 0.0 
1.131581807133e-04 6.064249897855e-03 0.0 
0.0 0.0 0.0 
2.989270048990e-04 -7.724745114447e-06 0.0 
-7.724745114447e-06 5.160420240844e-03 0.0 
0.0 0.0 0.0 
-2.595163502054e-04 3.156847914302e-04 0.0 
3.156847914302e-04 3.830426659213e-03 0.0 
0.0 0.0 0.0 
3.998963449270e-06 6.407689807023e-04 0.0 
6.407689807023e-04 4.523984367749e-03 0.0 
0.0 0.0 0.0 
-1.418976713854e-04 -4.798004183986e-06 0.0 
-4.798004183986e-06 8.190432625482e-03 0.0 
0.0 0.0 0.0 
-1.812832674588e-04 3.004156866515e-05 0.0 
3.004156866515e-05 6.677115560919e-03 0.0 
0.0 0.0 0.0 
-1.241490781410e-04 6.507681420823e-04 0.0 
6.507681420823e-04 4.526546926949e-03 0.0 
0.0 0.0 0.0 
-3.213886315196e-04 1.138808364986e-04 0.0 
1.138808364986e-04 5.843203584221e-03 0.0 
0.0 0.0 0.0 
-1.620732306411e-04 5.072104609741e-04 0.0 
5.072104609741e-04 8.548522885604e-03 0.0 
0.0 0.0 0.0 
2.826579535085e-04 -9.375747951132e-06 0.0 
-9.375747951132e-06 3.537470307158e-03 0.0 
0.0 0.0 0.0 
-1.507135514833e-05 6.449678732584e-04 0.0 
6.449678732584e-04 9.040419646827e-03 0.0 
0.0 0.0 0.0 
-1.017742258637e-04 5.788786947933e-04 0.0 
5.788786947933e-04 9.324623635363e-03 0.0 
0.0 0.0 0.0 
-3.562720659150e-04 3.763070098764e-04 0.0 
3.763070098764e-04 4.508920944243e-03 0.0 
0.0 0.0 0.0 
3.069677769552e-04 9.972048078590e-06 0.0 
9.972048078590e-06 3.552199870664e-03 0.0 
0.0 0.0 0.0 
1.436578688327e-04 4.930909943378e-04 0.0 
4.930909943378e-04 7.530483255430e-03 0.0 
0.0 0.0 0.0 
-3.723377215458e-04 2.012822360864e-04 0.0 
2.012822360864e-04 5.519889496360e-03 0.0 
0.0 0.0 0.0 
-3.262828917732e-04 3.519908954631e-04 0.0 
3.519908954631e-04 4.219502582460e-03 0.0 
0.0 0.0 0.0 
-3.178528098831e-04 1.537742162407e-04 0.0 
1.537742162407e-04 6.439314023156e-03 0.0 
0.0 0.0 0.0 
-1.567264466031e-04 6.162223840581e-04 0.0 
6.162223840581e-04 4.918913902249e-03 0.0 
0.0 0.0 0.0 
-3.597170852121e-05 9.877973847145e-05 0.0 
9.877973847145e-05 9.749913377221e-03 0.0 
0.0 0.0 0.0 
-2.278451654906e-04 3.319516783061e-04 0.0 
3.319516783061e-04 8.318284359816e-03 0.0 
0.0 0.0 0.0 
1.891939532712e-04 6.426368728199e-05 0.0 
6.426368728199e-05 7.017694698517e-03 0.0 
0.0 0.0 0.0 
-3.110655247132e-04 5.914544243888e-04 0.0 
5.914544243888e-04 3.273873006592e-03 0.0 
0.0 0.0 0.0 
9.147223593198e-05 6.411752412120e-04 0.0 
6.411752412120e-04 4.128953347896e-03 0.0 
0.0 0.0 0.0 
-2.112348552458e-04 3.752747770546e-04 0.0 
3.752747770546e-04 8.451356849971e-03 0.0 
0.0 0.0 0.0 
-4.833401352640e-04 1.372579468390e-04 0.0 
1.372579468390e-04 3.761375245022e-04 0.0 
0.0 0.0 0.0 
-3.395424850010e-04 1.916014919957e-04 0.0 
1.916014919957e-04 5.520071196399e-03 0.0 
0.0 0.0 0.0 
2.184939995828e-04 4.028104583149e-04 0.0 
4.028104583149e-04 6.900647320788e-03 0.0 
0.0 0.0 0.0 
2.071633320511e-05 -5.255032212173e-05 0.0 
-5.255032212173e-05 7.552112832960e-04 0.0 
0.0 0.0 0.0 
-8.874777705403e-05 3.884307372870e-04 0.0 
3.884307372870e-04 9.529217744394e-03 0.0 
0.0 0.0 0.0 
-2.483217580145e-04 2.168028001662e-04 0.0 
2.168028001662e-04 7.879009738088e-03 0.0 
0.0 0.0 0.0 
3.777270552450e-04 1.034109656440e-04 0.0 
1.034109656440e-04 3.377708662496e-03 0.0 
0.0 0.0 0.0 
2.400271795022e-04 4.913658006091e-04 0.0 
4.913658006091e-04 6.894601164027e-03 0.0 
0.0 0.0 0.0 
-2.916705185728e-04 1.137794143088e-04 0.0 
1.137794143088e-04 7.041729180353e-03 0.0 
0.0 0.0 0.0 
-2.642400197603e-04 8.490873256780e-05 0.0 
8.490873256780e-05 7.384518145803e-03 0.0 
0.0 0.0 0.0 
1.063474275627e-04 4.552206769346e-04 0.0 
4.552206769346e-04 7.926086173536e-03 0.0 
0.0 0.0 0.0 
2.832669934500e-04 1.352523344654e-05 0.0 
1.352523344654e-05 2.472974134949e-03 0.0 
0.0 0.0 0.0 
-3.012821281208e-04 4.233468373006e-04 0.0 
4.233468373006e-04 6.161284355770e-03 0.0 
0.0 0.0 0.0 
-3.275363609524e-04 2.423345199206e-04 0.0 
2.423345199206e-04 6.720253836805e-03 0.0 
0.0 0.0 0.0 
-2.615582384596e-04 1.710271239006e-04 0.0 
1.710271239006e-04 8.116108849601e-03 0.0 
0.0 0.0 0.0 
-3.489586378167e-04 1.631846530034e-04 0.0 
1.631846530034e-04 6.818339270811e-03 0.0 
0.0 0.0 0.0 
-3.503744662152e-04 1.321877316689e-04 0.0 
1.321877316689e-04 6.439191711241e-03 0.0 
0.0 0.0 0.0 
6.041674017498e-05 5.507245068049e-04 0.0 
5.507245068049e-04 6.587576117948e-03 0.0 
0.0 0.0 0.0 
-2.207677132111e-04 4.248563678557e-04 0.0 
4.248563678557e-04 8.433681884599e-03 0.0 
0.0 0.0 0.0 
-2.227243805238e-04 1.465051781827e-04 0.0 
1.465051781827e-04 5.873268318337e-04 0.0 
0.0 0.0 0.0 
-3.103791014045e-04 3.196288934058e-04 0.0 
3.196288934058e-04 4.501810697263e-03 0.0 
0.0 0.0 0.0 
-3.238058187474e-04 3.697588782625e-04 0.0 
3.697588782625e-04 4.838439562080e-03 0.0 
0.0 0.0 0.0 
-3.471408014470e-04 3.627678136109e-04 0.0 
3.627678136109e-04 6.082440050527e-03 0.0 
0.0 0.0 0.0 
-2.420135418792e-04 2.839705574483e-04 0.0 
2.839705574483e-04 8.573838501685e-03 0.0 
0.0 0.0 0.0 
3.109273296549e-04 4.767228704556e-04 0.0 
4.767228704556e-04 1.455602270178e-03 0.0 
0.0 0.0 0.0 
2.549105639043e-04 3.599977143595e-04 0.0 
3.599977143595e-04 6.583144676371e-03 0.0 
0.0 0.0 0.0 
-1.811174365240e-04 -2.826136319465e-05 0.0 
-2.826136319465e-05 6.646570997601e-03 0.0 
0.0 0.0 0.0 
5.019600867140e-05 7.041748632230e-04 0.0 
7.041748632230e-04 4.120286735641e-03 0.0 
0.0 0.0 0.0 
2.857176991600e-04 3.165850422414e-04 0.0 
3.165850422414e-04 6.276272788204e-03 0.0 
0.0 0.0 0.0 
-3.640151580053e-05 -7.943820069853e-05 0.0 
-7.943820069853e-05 4.979995222480e-04 0.0 
0.0 0.0 0.0 
-2.231660501046e-04 2.508852477629e-04 0.0 
2.508852477629e-04 8.267688585640e-03 0.0 
0.0 0.0 0.0 
-6.624205614714e-05 -1.790034510793e-05 0.0 
-1.790034510793e-05 3.882802049266e-04 0.0 
0.0 0.0 0.0 
6.019677818014e-05 -4.219207691109e-05 0.0 
-4.219207691109e-05 7.558096388900e-04 0.0 
0.0 0.0 0.0 
-2.087009399903e-04 4.698257732844e-04 0.0 
4.698257732844e-04 3.267654025269e-03 0.0 
0.0 0.0 0.0 
2.362201730473e-04 -1.238289336583e-05 0.0 
-1.238289336583e-05 2.068655173516e-03 0.0 
0.0 0.0 0.0 
-2.330697262491e-04 2.018317834327e-04 0.0 
2.018317834327e-04 8.504250472134e-03 0.0 
0.0 0.0 0.0 
1.878382810367e-04 -9.407142170881e-05 0.0 
-9.407142170881e-05 1.937576398183e-03 0.0 
0.0 0.0 0.0 
-7.288600964539e-05 7.536503937321e-04 0.0 
7.536503937321e-04 3.027089792357e-03 0.0 
0.0 0.0 0.0 
1.683029326227e-04 -6.803453283225e-05 0.0 
-6.803453283225e-05 1.505930929206e-03 0.0 
0.0 0.0 0.0 
1.049900737278e-04 -3.210501993116e-05 0.0 
-3.210501993116e-05 1.283079773247e-03 0.0 
0.0 0.0 0.0 
1.998301905572e-04 5.211592791509e-04 0.0 
5.211592791509e-04 7.198239202465e-03 0.0 
0.0 0.0 0.0 
-3.589360969732e-04 1.738838592468e-04 0.0 
1.738838592468e-04 6.583656614659e-03 0.0 
0.0 0.0 0.0 
1.159780941278e-04 1.574414889071e-04 0.0 
1.574414889071e-04 7.750908615076e-03 0.0 
0.0 0.0 0.0 
-2.191751700992e-04 5.948439130899e-05 0.0 
5.948439130899e-05 2.071693220813e-04 0.0 
0.0 0.0 0.0 
-6.268693863443e-05 7.444080855592e-04 0.0 
7.444080855592e-04 3.382232522141e-03 0.0 
0.0 0.0 0.0 
5.080788559519e-05 6.787706875250e-04 0.0 
6.787706875250e-04 4.536564637311e-03 0.0 
0.0 0.0 0.0 
-3.374622711616e-04 2.153619072444e-04 0.0 
2.153619072444e-04 5.266143429838e-03 0.0 
0.0 0.0 0.0 
2.747940923729e-04 4.449817226944e-04 0.0 
4.449817226944e-04 6.577291198793e-03 0.0 
0.0 0.0 0.0 
1.050928505975e-04 2.139926408252e-04 0.0 
2.139926408252e-04 7.935010693188e-03 0.0 
0.0 0.0 0.0 
-2.765203848067e-04 2.515444447468e-04 0.0 
2.515444447468e-04 8.189101367607e-03 0.0 
0.0 0.0 0.0 
1.866116635689e-04 6.233680322131e-04 0.0 
6.233680322131e-04 3.287774852211e-03 0.0 
0.0 0.0 0.0 
1.805531719823e-04 4.510293798587e-04 0.0 
4.510293798587e-04 7.198721946025e-03 0.0 
0.0 0.0 0.0 
2.898775908013e-04 5.981229562365e-05 0.0 
5.981229562365e-05 5.624022492770e-03 0.0 
0.0 0.0 0.0 
-3.534102841050e-04 3.280135437340e-04 0.0 
3.280135437340e-04 6.345647631907e-03 0.0 
0.0 0.0 0.0 
-2.451352635569e-04 2.535324662542e-04 0.0 
2.535324662542e-04 8.029282213025e-03 0.0 
0.0 0.0 0.0 
-4.240857061655e-05 6.139839992782e-04 0.0 
6.139839992782e-04 8.717987194512e-03 0.0 
0.0 0.0 0.0 
8.598070467780e-05 6.177192711097e-04 0.0 
6.177192711097e-04 4.545347375837e-03 0.0 
0.0 0.0 0.0 
-1.417582867502e-04 7.231789716822e-04 0.0 
7.231789716822e-04 3.490811281773e-03 0.0 
0.0 0.0 0.0 
-3.380816504693e-04 1.961606096877e-04 0.0 
1.961606096877e-04 7.193887632658e-03 0.0 
0.0 0.0 0.0 
-3.840749440009e-05 2.080190289470e-04 0.0 
2.080190289470e-04 1.007404731802e-02 0.0 
0.0 0.0 0.0 
-3.132045345574e-04 4.199485496302e-04 0.0 
4.199485496302e-04 6.161759945504e-03 0.0 
0.0 0.0 0.0 
1.364098804086e-04 5.542777501607e-04 0.0 
5.542777501607e-04 5.411823548868e-03 0.0 
0.0 0.0 0.0 
-1.757095057637e-04 4.107158294201e-06 0.0 
4.107158294201e-06 7.069227430736e-03 0.0 
0.0 0.0 0.0 
2.471256726189e-05 -1.040473229837e-04 0.0 
-1.040473229837e-04 1.086250811341e-03 0.0 
0.0 0.0 0.0 
-3.169761059854e-04 1.896617307494e-04 0.0 
1.896617307494e-04 6.813961095085e-03 0.0 
0.0 0.0 0.0 
1.546307902625e-04 7.165615454887e-04 0.0 
7.165615454887e-04 3.273899255741e-03 0.0 
0.0 0.0 0.0 
3.255422759876e-04 5.384849804289e-04 0.0 
5.384849804289e-04 1.947693031541e-03 0.0 
0.0 0.0 0.0 
1.546108343164e-04 -5.318272739858e-05 0.0 
-5.318272739858e-05 1.168303197986e-03 0.0 
0.0 0.0 0.0 
-1.998536201780e-04 2.458633553255e-04 0.0 
2.458633553255e-04 8.498441787683e-03 0.0 
0.0 0.0 0.0 
-3.502947240985e-04 2.089849791354e-04 0.0 
2.089849791354e-04 6.959815075117e-03 0.0 
0.0 0.0 0.0 
-2.040713878181e-04 6.025327728088e-04 0.0 
6.025327728088e-04 4.573820496788e-03 0.0 
0.0 0.0 0.0 
-2.059318679803e-04 1.941073560327e-04 0.0 
1.941073560327e-04 8.732187649789e-03 0.0 
0.0 0.0 0.0 
-2.650433675663e-04 2.930053697424e-04 0.0 
2.930053697424e-04 8.326596030297e-03 0.0 
0.0 0.0 0.0 
-3.549236761714e-04 2.995477334768e-04 0.0 
2.995477334768e-04 6.599371652295e-03 0.0 
0.0 0.0 0.0 
7.914040180435e-05 2.527673534868e-04 0.0 
2.527673534868e-04 7.959321370321e-03 0.0 
0.0 0.0 0.0 
1.656028076633e-04 5.954861338792e-04 0.0 
5.954861338792e-04 5.469764387562e-03 0.0 
0.0 0.0 0.0 
-3.519138210485e-04 2.755707995529e-04 0.0 
2.755707995529e-04 6.848075324494e-03 0.0 
0.0 0.0 0.0 
-1.384206063354e-04 5.947014694307e-04 0.0 
5.947014694307e-04 5.281661705890e-03 0.0 
0.0 0.0 0.0 
1.247509783928e-04 5.437573131170e-04 0.0 
5.437573131170e-04 5.831307076366e-03 0.0 
0.0 0.0 0.0 
3.259826954440e-04 5.727650841221e-04 0.0 
5.727650841221e-04 2.409966460685e-03 0.0 
0.0 0.0 0.0 
-2.800739674726e-04 7.330143281579e-05 0.0 
7.330143281579e-05 6.722018483578e-03 0.0 
0.0 0.0 0.0 
1.567156667173e-04 5.817669901449e-04 0.0 
5.817669901449e-04 4.573665401330e-03 0.0 
0.0 0.0 0.0 
3.525587274495e-04 2.204062611590e-04 0.0 
2.204062611590e-04 2.751689556912e-03 0.0 
0.0 0.0 0.0 
-2.390299715681e-04 2.916591482154e-04 0.0 
2.916591482154e-04 8.181164661716e-03 0.0 
0.0 0.0 0.0 
-5.807232946965e-04 5.695393198265e-06 0.0 
5.695393198265e-06 3.677721655648e-04 0.0 
0.0 0.0 0.0 
-3.363487263687e-04 1.527934116162e-04 0.0 
1.527934116162e-04 7.046907236895e-03 0.0 
0.0 0.0 0.0 
2.348436681898e-04 6.587483192958e-04 0.0 
6.587483192958e-04 3.287122855717e-03 0.0 
0.0 0.0 0.0 
-1.173069997207e-05 7.320431891683e-04 0.0 
7.320431891683e-04 3.383704590469e-03 0.0 
0.0 0.0 0.0 
2.955088728036e-04 4.242095757077e-04 0.0 
4.242095757077e-04 2.435395223267e-03 0.0 
0.0 0.0 0.0 
-3.015326209895e-04 2.683453561936e-04 0.0 
2.683453561936e-04 7.328187617218e-03 0.0 
0.0 0.0 0.0 
-3.414792624989e-05 -1.022046625423e-04 0.0 
-1.022046625423e-04 7.569393932889e-04 0.0 
0.0 0.0 0.0 
-3.362275237795e-04 3.246313286480e-04 0.0 
3.246313286480e-04 5.118662546038e-03 0.0 
0.0 0.0 0.0 
1.537299257686e-04 5.883779038526e-04 0.0 
5.883779038526e-04 5.899986009473e-03 0.0 
0.0 0.0 0.0 
-3.180463959147e-04 2.321213597391e-04 0.0 
2.321213597391e-04 6.955567191768e-03 0.0 
0.0 0.0 0.0 
-2.810792107706e-04 9.258624424331e-05 0.0 
9.258624424331e-05 7.071704726455e-03 0.0 
0.0 0.0 0.0 
2.476342261277e-04 3.397538511277e-04 0.0 
3.397538511277e-04 1.127446852095e-03 0.0 
0.0 0.0 0.0 
3.989662828685e-04 3.535426659401e-04 0.0 
3.535426659401e-04 2.730899339017e-03 0.0 
0.0 0.0 0.0 
3.306687259819e-04 1.266279048779e-04 0.0 
1.266279048779e-04 2.447475916308e-03 0.0 
0.0 0.0 0.0 
-3.629908176679e-04 3.183214963519e-04 0.0 
3.183214963519e-04 4.771080297009e-03 0.0 
0.0 0.0 0.0 
-2.831716465892e-04 2.098148716696e-04 0.0 
2.098148716696e-04 8.037808925710e-03 0.0 
0.0 0.0 0.0 
-3.642089186418e-04 3.553282345949e-04 0.0 
3.553282345949e-04 5.114224963726e-03 0.0 
0.0 0.0 0.0 
2.028303408410e-04 6.311646046825e-04 0.0 
6.311646046825e-04 4.172114609683e-03 0.0 
0.0 0.0 0.0 
1.331508114413e-04 6.742798219990e-04 0.0 
6.742798219990e-04 4.136186405621e-03 0.0 
0.0 0.0 0.0 
1.942396966987e-04 2.929835872812e-04 0.0 
2.929835872812e-04 1.522351698211e-03 0.0 
0.0 0.0 0.0 
-9.130760210296e-05 6.322496500295e-04 0.0 
6.322496500295e-04 5.293291722894e-03 0.0 
0.0 0.0 0.0 
-6.020775776738e-05 7.612421840210e-04 0.0 
7.612421840210e-04 2.668615876452e-03 0.0 
0.0 0.0 0.0 
-5.527165547581e-05 3.452921617834e-04 0.0 
3.452921617834e-04 9.981117368234e-03 0.0 
0.0 0.0 0.0 
-7.077695663338e-05 4.099383162735e-04 0.0 
4.099383162735e-04 9.907779922756e-03 0.0 
0.0 0.0 0.0 
-2.649021771856e-04 4.792580673730e-04 0.0 
4.792580673730e-04 6.231505427983e-03 0.0 
0.0 0.0 0.0 
2.526073615789e-04 6.646563701023e-04 0.0 
6.646563701023e-04 2.834012539734e-03 0.0 
0.0 0.0 0.0 
9.942221070292e-05 7.063352046876e-04 0.0 
7.063352046876e-04 2.906517474383e-03 0.0 
0.0 0.0 0.0 
-3.105485786061e-04 3.440206566825e-04 0.0 
3.440206566825e-04 6.960240184798e-03 0.0 
0.0 0.0 0.0 
1.919328181803e-04 6.280279033757e-04 0.0 
6.280279033757e-04 2.854250823777e-03 0.0 
0.0 0.0 0.0 
3.906775266154e-04 2.595297419017e-04 0.0 
2.595297419017e-04 2.426483496634e-03 0.0 
0.0 0.0 0.0 
-3.298169390563e-04 3.319959141165e-04 0.0 
3.319959141165e-04 6.344753017996e-03 0.0 
0.0 0.0 0.0 
-7.276849067617e-05 1.174591089166e-04 0.0 
1.174591089166e-04 9.765514682633e-03 0.0 
0.0 0.0 0.0 
1.433827178490e-04 6.969257184189e-04 0.0 
6.969257184189e-04 3.706250389611e-03 0.0 
0.0 0.0 0.0 
4.879204301300e-05 6.101331866046e-04 0.0 
6.101331866046e-04 6.580477213090e-03 0.0 
0.0 0.0 0.0 
6.061648183886e-05 7.858550652071e-04 0.0 
7.858550652071e-04 2.493909400700e-03 0.0 
0.0 0.0 0.0 
6.234333311994e-05 5.931283887090e-04 0.0 
5.931283887090e-04 8.673952841064e-03 0.0 
0.0 0.0 0.0 
1.686020169420e-04 7.330106900569e-04 0.0 
7.330106900569e-04 2.837447516349e-03 0.0 
0.0 0.0 0.0 
-3.095932678516e-04 3.914570305854e-04 0.0 
3.914570305854e-04 6.437454245376e-03 0.0 
0.0 0.0 0.0 
3.278700243674e-04 4.024239130963e-04 0.0 
4.024239130963e-04 1.566964013190e-03 0.0 
0.0 0.0 0.0 
2.919536989667e-04 4.705801542007e-04 0.0 
4.705801542007e-04 5.847920817590e-03 0.0 
0.0 0.0 0.0 
1.247103143089e-04 6.511810002882e-04 0.0 
6.511810002882e-04 4.562807674139e-03 0.0 
0.0 0.0 0.0 
3.913318880944e-04 2.175897352704e-04 0.0 
2.175897352704e-04 2.583804450789e-03 0.0 
0.0 0.0 0.0 
-3.596284447708e-04 2.240710569901e-04 0.0 
2.240710569901e-04 6.722727899449e-03 0.0 
0.0 0.0 0.0 
-5.709756007177e-05 5.277997039439e-04 0.0 
5.277997039439e-04 9.803622141461e-03 0.0 
0.0 0.0 0.0 
2.175010296559e-04 6.457877304776e-04 0.0 
6.457877304776e-04 3.733027730831e-03 0.0 
0.0 0.0 0.0 
1.683742138143e-04 5.190737427208e-04 0.0 
5.190737427208e-04 5.909669210159e-03 0.0 
0.0 0.0 0.0 
9.098208409108e-05 7.121471852465e-04 0.0 
7.121471852465e-04 2.503835596669e-03 0.0 
0.0 0.0 0.0 
-2.058655035153e-04 1.304514202859e-04 0.0 
1.304514202859e-04 7.811347476021e-03 0.0 
0.0 0.0 0.0 
3.062116967856e-04 3.973510515693e-04 0.0 
3.973510515693e-04 6.265990259155e-03 0.0 
0.0 0.0 0.0 
-2.343025444332e-04 6.424433939332e-04 0.0 
6.424433939332e-04 3.889115214898e-03 0.0 
0.0 0.0 0.0 
-2.292475445209e-04 5.566101838098e-05 0.0 
5.566101838098e-05 7.637318474998e-03 0.0 
0.0 0.0 0.0 
-4.714782801118e-05 6.380011727914e-04 0.0 
6.380011727914e-04 9.615697858717e-03 0.0 
0.0 0.0 0.0 
2.643139028164e-04 4.167785740811e-04 0.0 
4.167785740811e-04 6.729992089037e-03 0.0 
0.0 0.0 0.0 
-6.397400944513e-05 4.893883124908e-04 0.0 
4.893883124908e-04 9.845187469427e-03 0.0 
0.0 0.0 0.0 
-2.474083008207e-04 7.565986537906e-05 0.0 
7.565986537906e-05 7.590669654250e-03 0.0 
0.0 0.0 0.0 
-2.683100386286e-04 3.487409649569e-04 0.0 
3.487409649569e-04 8.200433636286e-03 0.0 
0.0 0.0 0.0 
-2.720056238501e-04 6.293927003848e-04 0.0 
6.293927003848e-04 3.584413154084e-03 0.0 
0.0 0.0 0.0 
-3.671197663524e-04 1.903368684986e-04 0.0 
1.903368684986e-04 6.352742375400e-03 0.0 
0.0 0.0 0.0 
-3.224121629954e-04 2.928952071769e-04 0.0 
2.928952071769e-04 6.845454081890e-03 0.0 
0.0 0.0 0.0 
-3.449959262680e-04 2.560633490186e-04 0.0 
2.560633490186e-04 7.092282647169e-03 0.0 
0.0 0.0 0.0 
-2.905621299497e-04 4.624488544484e-04 0.0 
4.624488544484e-04 5.877451096371e-03 0.0 
0.0 0.0 0.0 
-3.592188687029e-05 6.869694297031e-04 0.0 
6.869694297031e-04 9.470719352155e-03 0.0 
0.0 0.0 0.0 
-2.629467350465e-04 1.495764926734e-04 0.0 
1.495764926734e-04 7.345273206942e-03 0.0 
0.0 0.0 0.0 
-3.412925549741e-04 1.230641508859e-04 0.0 
1.230641508859e-04 6.671033512804e-03 0.0 
0.0 0.0 0.0 
1.669044583308e-04 5.965519815117e-04 0.0 
5.965519815117e-04 4.147767453763e-03 0.0 
0.0 0.0 0.0 
1.758856775800e-04 -2.416176322175e-05 0.0 
-2.416176322175e-05 1.677165053826e-03 0.0 
0.0 0.0 0.0 
-3.599753427683e-04 1.401098752534e-04 0.0 
1.401098752534e-04 6.208836897402e-03 0.0 
0.0 0.0 0.0 
-1.565738519737e-04 6.747766430972e-04 0.0 
6.747766430972e-04 3.823675935708e-03 0.0 
0.0 0.0 0.0 
-1.747271441197e-04 -1.128665158902e-06 0.0 
-1.128665158902e-06 6.692726234473e-03 0.0 
0.0 0.0 0.0 
3.363163961356e-04 9.601681209955e-05 0.0 
9.601681209955e-05 2.602152830542e-03 0.0 
0.0 0.0 0.0 
1.769443398938e-04 6.108758547697e-04 0.0 
6.108758547697e-04 3.718358172827e-03 0.0 
0.0 0.0 0.0 
-2.156658415242e-04 2.885942940819e-04 0.0 
2.885942940819e-04 8.419923092707e-03 0.0 
0.0 0.0 0.0 
-1.196480980967e-04 7.003842000972e-04 0.0 
7.003842000972e-04 3.820184766592e-03 0.0 
0.0 0.0 0.0 
-3.347180605192e-04 2.573363245019e-04 0.0 
2.573363245019e-04 6.480774880625e-03 0.0 
0.0 0.0 0.0 
1.939035986631e-04 5.624895656743e-04 0.0 
5.624895656743e-04 5.982179093966e-03 0.0 
0.0 0.0 0.0 
3.942120230083e-04 2.557245728352e-04 0.0 
2.557245728352e-04 4.778649802197e-03 0.0 
0.0 0.0 0.0 
1.343366405004e-06 7.264647966472e-04 0.0 
7.264647966472e-04 9.230258563524e-03 0.0 
0.0 0.0 0.0 
-3.696091711356e-04 1.754495507712e-04 0.0 
1.754495507712e-04 5.757310979983e-03 0.0 
0.0 0.0 0.0 
3.860009449412e-04 4.163343385180e-04 0.0 
4.163343385180e-04 2.599393060276e-03 0.0 
0.0 0.0 0.0 
3.417793100504e-04 2.738330721483e-05 0.0 
2.738330721483e-05 3.233096507912e-03 0.0 
0.0 0.0 0.0 
-3.488221210463e-04 4.456958723969e-04 0.0 
4.456958723969e-04 4.206165211329e-03 0.0 
0.0 0.0 0.0 
-2.386697555599e-04 5.815683615814e-04 0.0 
5.815683615814e-04 3.895826178630e-03 0.0 
0.0 0.0 0.0 
-2.251899038361e-04 3.267601360147e-04 0.0 
3.267601360147e-04 8.708285547225e-03 0.0 
0.0 0.0 0.0 
-3.345228446713e-04 3.522082179834e-04 0.0 
3.522082179834e-04 6.704010539715e-03 0.0 
0.0 0.0 0.0 
-3.751619190150e-04 2.253391760822e-04 0.0 
2.253391760822e-04 5.265379788107e-03 0.0 
0.0 0.0 0.0 
-3.395015804057e-04 2.197659011393e-04 0.0 
2.197659011393e-04 6.116812187831e-03 0.0 
0.0 0.0 0.0 
3.853001696874e-05 6.874107606604e-04 0.0 
6.874107606604e-04 8.880099423415e-03 0.0 
0.0 0.0 0.0 
5.008470189249e-05 6.227248277418e-04 0.0 
6.227248277418e-04 8.484093035311e-03 0.0 
0.0 0.0 0.0 
-1.880277598993e-04 3.666659146428e-04 0.0 
3.666659146428e-04 8.699162519814e-03 0.0 
0.0 0.0 0.0 
-2.594062916945e-04 2.067493375338e-04 0.0 
2.067493375338e-04 8.275642765775e-03 0.0 
0.0 0.0 0.0 
3.721291503631e-04 1.904133096363e-04 0.0 
1.904133096363e-04 4.633502524586e-03 0.0 
0.0 0.0 0.0 
-3.356267796268e-04 4.338981543476e-04 0.0 
4.338981543476e-04 5.179969785214e-03 0.0 
0.0 0.0 0.0 
2.571581538109e-04 5.405821668043e-04 0.0 
5.405821668043e-04 2.853626654699e-03 0.0 
0.0 0.0 0.0 
2.513411523457e-04 5.494598146348e-04 0.0 
5.494598146348e-04 3.303748819558e-03 0.0 
0.0 0.0 0.0 
-3.268967730891e-04 3.844618861759e-04 0.0 
3.844618861759e-04 6.438579766104e-03 0.0 
0.0 0.0 0.0 
2.726801483768e-04 4.226086924154e-04 0.0 
4.226086924154e-04 5.748928764253e-03 0.0 
0.0 0.0 0.0 
3.334535422488e-04 7.212300506108e-06 0.0 
7.212300506108e-06 3.906362227488e-03 0.0 
0.0 0.0 0.0 
-1.798062095278e-04 3.212439802585e-04 0.0 
3.212439802585e-04 8.804313344896e-03 0.0 
0.0 0.0 0.0 
3.423763097548e-04 2.747583612897e-04 0.0 
2.747583612897e-04 2.621675323961e-03 0.0 
0.0 0.0 0.0 
-2.584497819514e-04 5.076645262800e-04 0.0 
5.076645262800e-04 5.579473557126e-03 0.0 
0.0 0.0 0.0 
-3.277306982769e-04 3.099169812128e-04 0.0 
3.099169812128e-04 6.597127549865e-03 0.0 
0.0 0.0 0.0 
-2.832998222778e-04 5.003251335574e-04 0.0 
5.003251335574e-04 5.229991328786e-03 0.0 
0.0 0.0 0.0 
-6.414484280581e-05 4.523034135411e-04 0.0 
4.523034135411e-04 9.880125255670e-03 0.0 
0.0 0.0 0.0 
-6.353935068526e-05 3.870988033600e-04 0.0 
3.870988033600e-04 9.938898637571e-03 0.0 
0.0 0.0 0.0 
-1.188857065708e-04 3.333130623095e-04 0.0 
3.333130623095e-04 9.537539575276e-03 0.0 
0.0 0.0 0.0 
3.586646154403e-04 2.182596529344e-04 0.0 
2.182596529344e-04 5.075603633956e-03 0.0 
0.0 0.0 0.0 
-1.739435109311e-04 2.409511111726e-04 0.0 
2.409511111726e-04 8.726067896542e-03 0.0 
0.0 0.0 0.0 
-1.764244501143e-04 6.694892020081e-04 0.0 
6.694892020081e-04 3.497160655916e-03 0.0 
0.0 0.0 0.0 
2.402223630780e-04 5.491384346655e-04 0.0 
5.491384346655e-04 3.747730709977e-03 0.0 
0.0 0.0 0.0 
2.695900144045e-04 3.736738285309e-04 0.0 
3.736738285309e-04 1.976145669900e-03 0.0 
0.0 0.0 0.0 
-3.732419190129e-04 3.042762486144e-04 0.0 
3.042762486144e-04 5.373814576750e-03 0.0 
0.0 0.0 0.0 
-2.580956397664e-04 5.222235237800e-05 0.0 
5.222235237800e-05 6.727423294842e-03 0.0 
0.0 0.0 0.0 
-2.225641258987e-04 1.294248435669e-04 0.0 
1.294248435669e-04 7.585539409203e-03 0.0 
0.0 0.0 0.0 
1.005977660864e-04 5.710337676442e-04 0.0 
5.710337676442e-04 8.299066313625e-03 0.0 
0.0 0.0 0.0 
-1.897047494749e-04 4.191787437847e-04 0.0 
4.191787437847e-04 8.568523355746e-03 0.0 
0.0 0.0 0.0 
-3.037524712272e-04 2.249279386709e-04 0.0 
2.249279386709e-04 7.189298053740e-03 0.0 
0.0 0.0 0.0 
-3.040891847866e-04 3.268162063214e-04 0.0 
3.268162063214e-04 7.212356418060e-03 0.0 
0.0 0.0 0.0 
3.588722269630e-04 4.554037948657e-04 0.0 
4.554037948657e-04 2.025858498057e-03 0.0 
0.0 0.0 0.0 
-6.703600848335e-05 -6.869494190321e-05 0.0 
-6.869494190321e-05 7.859150529830e-04 0.0 
0.0 0.0 0.0 
-2.612736758612e-05 6.608992602596e-04 0.0 
6.608992602596e-04 4.923170862993e-03 0.0 
0.0 0.0 0.0 
-2.357538933665e-04 5.102706405297e-04 0.0 
5.102706405297e-04 5.932952383747e-03 0.0 
0.0 0.0 0.0 
-6.183297940399e-05 6.022826015811e-04 0.0 
6.022826015811e-04 5.297421291041e-03 0.0 
0.0 0.0 0.0 
1.092945541004e-05 7.350377464168e-04 0.0 
7.350377464168e-04 1.655123654367e-03 0.0 
0.0 0.0 0.0 
-1.656612758172e-04 2.225603132366e-05 0.0 
2.225603132366e-05 7.052478666259e-03 0.0 
0.0 0.0 0.0 
1.245451883314e-04 -1.108206353987e-04 0.0 
-1.108206353987e-04 1.537163286117e-03 0.0 
0.0 0.0 0.0 
5.446724383384e-05 7.530219702460e-04 0.0 
7.530219702460e-04 3.304117800162e-03 0.0 
0.0 0.0 0.0 
0.0 5.810702732937e-04 0.0 
5.810702732937e-04 8.709826960694e-03 0.0 
0.0 0.0 0.0 
1.001722185989e-04 5.391713830467e-04 0.0 
5.391713830467e-04 6.680994902388e-03 0.0 
0.0 0.0 0.0 
-3.126209823262e-04 1.513379956143e-04 0.0 
1.513379956143e-04 6.667470537718e-03 0.0 
0.0 0.0 0.0 
6.586567501787e-05 1.258835015680e-05 0.0 
1.258835015680e-05 1.082104874806e-03 0.0 
0.0 0.0 0.0 
-2.860486799994e-04 4.626432718893e-04 0.0 
4.626432718893e-04 5.877403176693e-03 0.0 
0.0 0.0 0.0 
8.166962440992e-06 6.171716164379e-04 0.0 
6.171716164379e-04 4.929154488357e-03 0.0 
0.0 0.0 0.0 
-3.344963865000e-04 2.401488324370e-04 0.0 
2.401488324370e-04 7.331901216779e-03 0.0 
0.0 0.0 0.0 
-5.246802181647e-05 5.735592287171e-04 0.0 
5.735592287171e-04 9.745267085377e-03 0.0 
0.0 0.0 0.0 
-3.331409281173e-04 2.071867322100e-04 0.0 
2.071867322100e-04 6.350733185368e-03 0.0 
0.0 0.0 0.0 
-3.363531663615e-04 3.259044585713e-04 0.0 
3.259044585713e-04 6.962674501995e-03 0.0 
0.0 0.0 0.0 
3.620167842784e-04 8.433227122297e-05 0.0 
8.433227122297e-05 3.894661124431e-03 0.0 
0.0 0.0 0.0 
-1.911719193741e-04 2.833071039625e-04 0.0 
2.833071039625e-04 8.655405312191e-03 0.0 
0.0 0.0 0.0 
3.766715125353e-04 2.812422697026e-04 0.0 
2.812422697026e-04 5.224245029173e-03 0.0 
0.0 0.0 0.0 
-5.504579252524e-05 6.034107109458e-04 0.0 
6.034107109458e-04 9.682625735624e-03 0.0 
0.0 0.0 0.0 
0.0 4.554192679897e-04 0.0 
4.554192679897e-04 9.863195363688e-03 0.0 
0.0 0.0 0.0 
0.0 3.142309821923e-04 0.0 
3.142309821923e-04 9.998387821492e-03 0.0 
0.0 0.0 0.0 
0.0 3.804227216434e-04 0.0 
3.804227216434e-04 9.918902196193e-03 0.0 
0.0 0.0 0.0 
-2.934400131761e-04 3.133609205067e-04 0.0 
3.133609205067e-04 7.459060606495e-03 0.0 
0.0 0.0 0.0 
-2.260423618520e-04 2.388834729973e-04 0.0 
2.388834729973e-04 8.661345960637e-03 0.0 
0.0 0.0 0.0 
-1.651535636908e-04 4.137668881231e-04 0.0 
4.137668881231e-04 8.834374821251e-03 0.0 
0.0 0.0 0.0 
-2.804057791327e-04 4.912837890967e-04 0.0 
4.912837890967e-04 5.231082694748e-03 0.0 
0.0 0.0 0.0 
-3.171864820224e-04 4.126910240230e-04 0.0 
4.126910240230e-04 5.182569034505e-03 0.0 
0.0 0.0 0.0 
3.170525533598e-04 -1.623872846855e-05 0.0 
-1.623872846855e-05 3.661763818219e-03 0.0 
0.0 0.0 0.0 
-2.152804156552e-04 2.766775750023e-04 0.0 
2.766775750023e-04 8.811102447304e-03 0.0 
0.0 0.0 0.0 
-4.160464545166e-05 6.649240689976e-04 0.0 
6.649240689976e-04 9.542513368339e-03 0.0 
0.0 0.0 0.0 
-1.642314911425e-04 2.752398616898e-04 0.0 
2.752398616898e-04 8.882175794558e-03 0.0 
0.0 0.0 0.0 
1.126626366919e-04 5.384230842202e-04 0.0 
5.384230842202e-04 6.255039350223e-03 0.0 
0.0 0.0 0.0 
-1.968296369321e-04 2.310566664465e-04 0.0 
2.310566664465e-04 8.888357564719e-03 0.0 
0.0 0.0 0.0 
-1.537016521883e-04 5.237223635097e-04 0.0 
5.237223635097e-04 7.403758256779e-03 0.0 
0.0 0.0 0.0 
-2.083941311780e-04 5.577648761722e-04 0.0 
5.577648761722e-04 5.618365897995e-03 0.0 
0.0 0.0 0.0 
-3.412606537125e-04 2.875194918987e-04 0.0 
2.875194918987e-04 5.375481725483e-03 0.0 
0.0 0.0 0.0 
1.826952837995e-04 7.410939461519e-04 0.0 
7.410939461519e-04 2.395640341194e-03 0.0 
0.0 0.0 0.0 
-4.673682222101e-05 2.188783031721e-04 0.0 
2.188783031721e-04 9.731247242911e-03 0.0 
0.0 0.0 0.0 
-2.471869783129e-04 5.462814704480e-04 0.0 
5.462814704480e-04 4.918476858197e-03 0.0 
0.0 0.0 0.0 
-6.628349022342e-05 5.793851910119e-04 0.0 
5.793851910119e-04 8.863063385294e-03 0.0 
0.0 0.0 0.0 
3.437634663697e-04 5.881095236818e-05 0.0 
5.881095236818e-05 3.650362063262e-03 0.0 
0.0 0.0 0.0 
3.002092737392e-04 2.528235525912e-05 0.0 
2.528235525912e-05 2.331086488373e-03 0.0 
0.0 0.0 0.0 
6.547971735449e-05 5.355493884016e-04 0.0 
5.355493884016e-04 8.266580326039e-03 0.0 
0.0 0.0 0.0 
-5.322101099092e-05 7.240356062064e-04 0.0 
7.240356062064e-04 3.752051143216e-03 0.0 
0.0 0.0 0.0 
0.0 4.927177938772e-04 0.0 
4.927177938772e-04 9.825175440222e-03 0.0 
0.0 0.0 0.0 
-7.192796514699e-05 3.301969274665e-04 0.0 
3.301969274665e-04 9.645776394670e-03 0.0 
0.0 0.0 0.0 
-2.887030469935e-04 4.172231831261e-04 0.0 
4.172231831261e-04 6.796086309427e-03 0.0 
0.0 0.0 0.0 
-6.626699999102e-05 -6.224753886156e-05 0.0 
-6.224753886156e-05 4.272575813022e-04 0.0 
0.0 0.0 0.0 
0.0 5.613778649758e-04 0.0 
5.613778649758e-04 9.712854951850e-03 0.0 
0.0 0.0 0.0 
4.537782630476e-05 5.845499018594e-04 0.0 
5.845499018594e-04 8.420408212597e-03 0.0 
0.0 0.0 0.0 
3.579508137854e-04 1.418203932012e-04 0.0 
1.418203932012e-04 2.313197663166e-03 0.0 
0.0 0.0 0.0 
1.518334841268e-04 5.193711938146e-04 0.0 
5.193711938146e-04 6.338864125526e-03 0.0 
0.0 0.0 0.0 
4.572295793981e-06 7.260157803074e-04 0.0 
7.260157803074e-04 9.140652079430e-03 0.0 
0.0 0.0 0.0 
-1.511963391020e-04 -2.591098274349e-05 0.0 
-2.591098274349e-05 1.856357786076e-04 0.0 
0.0 0.0 0.0 
-2.289293316505e-04 5.529720161140e-04 0.0 
5.529720161140e-04 5.267264449071e-03 0.0 
0.0 0.0 0.0 
-2.911206065250e-04 3.937774727321e-04 0.0 
3.937774727321e-04 7.064505986994e-03 0.0 
0.0 0.0 0.0 
-2.801525463360e-04 4.461202468846e-04 0.0 
4.461202468846e-04 6.518714202688e-03 0.0 
0.0 0.0 0.0 
-3.124746143001e-04 3.656335640668e-04 0.0 
3.656335640668e-04 6.702020673439e-03 0.0 
0.0 0.0 0.0 
5.875343589556e-05 7.746771695321e-04 0.0 
7.746771695321e-04 2.896460950450e-03 0.0 
0.0 0.0 0.0 
0.0 6.215643536011e-04 0.0 
6.215643536011e-04 9.579477866622e-03 0.0 
0.0 0.0 0.0 
2.270751298481e-04 5.436729647758e-04 0.0 
5.436729647758e-04 4.185722259041e-03 0.0 
0.0 0.0 0.0 
1.278026366345e-04 1.164583707021e-04 0.0 
1.164583707021e-04 1.165640789377e-03 0.0 
0.0 0.0 0.0 
1.158344080896e-04 2.737931841213e-04 0.0 
2.737931841213e-04 7.971326609321e-03 0.0 
0.0 0.0 0.0 
-1.517602887836e-04 -5.673180837964e-05 0.0 
-5.673180837964e-05 4.508561296048e-04 0.0 
0.0 0.0 0.0 
-3.424434779967e-04 2.367483549966e-04 0.0 
2.367483549966e-04 5.878730193164e-03 0.0 
0.0 0.0 0.0 
1.464911523477e-04 -2.369148715981e-05 0.0 
-2.369148715981e-05 1.073610875283e-03 0.0 
0.0 0.0 0.0 
-3.252008750761e-04 1.598784333818e-04 0.0 
1.598784333818e-04 6.206196559387e-03 0.0 
0.0 0.0 0.0 
4.698251891400e-05 6.538163505124e-04 0.0 
6.538163505124e-04 8.801725410433e-03 0.0 
0.0 0.0 0.0 
0.0 6.683498284385e-04 0.0 
6.683498284385e-04 9.431831509387e-03 0.0 
0.0 0.0 0.0 
-3.140148438502e-04 2.792156662480e-04 0.0 
2.792156662480e-04 7.088919086331e-03 0.0 
0.0 0.0 0.0 
2.440789666247e-05 -7.391316829744e-05 0.0 
-7.391316829744e-05 7.615844663331e-04 0.0 
0.0 0.0 0.0 
1.278269836757e-04 1.863659498990e-04 0.0 
1.863659498990e-04 8.690885363840e-04 0.0 
0.0 0.0 0.0 
2.832848392087e-05 -3.284567194009e-05 0.0 
-3.284567194009e-05 1.128190807133e-03 0.0 
0.0 0.0 0.0 
2.248150950104e-04 2.428920965899e-04 0.0 
2.428920965899e-04 6.926831388800e-03 0.0 
0.0 0.0 0.0 
-2.685415297895e-04 6.779007903922e-05 0.0 
6.779007903922e-05 6.712474358807e-03 0.0 
0.0 0.0 0.0 
-3.282915576359e-04 1.121238730180e-04 0.0 
1.121238730180e-04 6.885920981132e-03 0.0 
0.0 0.0 0.0 
0.0 6.919043388105e-04 0.0 
6.919043388105e-04 9.274464968613e-03 0.0 
0.0 0.0 0.0 
-2.597838350291e-04 4.530526220976e-05 0.0 
4.530526220976e-05 6.719714228004e-03 0.0 
0.0 0.0 0.0 
-5.304124718275e-05 3.119723379407e-04 0.0 
3.119723379407e-04 1.001202973360e-02 0.0 
0.0 0.0 0.0 
-1.057080521940e-04 5.815799826436e-04 0.0 
5.815799826436e-04 7.470501338624e-03 0.0 
0.0 0.0 0.0 
-2.191583635003e-04 1.043164140573e-04 0.0 
1.043164140573e-04 7.399129070703e-03 0.0 
0.0 0.0 0.0 
-2.892711417335e-04 4.983979702837e-04 0.0 
4.983979702837e-04 4.225746986166e-03 0.0 
0.0 0.0 0.0 
1.418047136728e-04 5.852050441216e-04 0.0 
5.852050441216e-04 6.329721657399e-03 0.0 
0.0 0.0 0.0 
2.299319116670e-04 4.733762628327e-04 0.0 
4.733762628327e-04 1.952180264076e-03 0.0 
0.0 0.0 0.0 
0.0 6.882422875221e-04 0.0 
6.882422875221e-04 9.098559105573e-03 0.0 
0.0 0.0 0.0 
0.0 4.204680365615e-04 0.0 
4.204680365615e-04 9.895871926691e-03 0.0 
0.0 0.0 0.0 
0.0 3.432946683716e-04 0.0 
3.432946683716e-04 9.969085551697e-03 0.0 
0.0 0.0 0.0 
3.522463587300e-04 1.988800680746e-04 0.0 
1.988800680746e-04 5.236597992485e-03 0.0 
0.0 0.0 0.0 
2.984550707010e-04 -3.419532777737e-05 0.0 
-3.419532777737e-05 3.420957708199e-03 0.0 
0.0 0.0 0.0 
-1.933239033935e-04 5.526111900668e-04 0.0 
5.526111900668e-04 5.619067291039e-03 0.0 
0.0 0.0 0.0 
3.669019323358e-04 2.606012829530e-04 0.0 
2.606012829530e-04 5.386502027274e-03 0.0 
0.0 0.0 0.0 
0.0 6.629551935641e-04 0.0 
6.629551935641e-04 8.932544585688e-03 0.0 
0.0 0.0 0.0 
9.932333356799e-05 6.892343242136e-04 0.0 
6.892343242136e-04 3.313378494148e-03 0.0 
0.0 0.0 0.0 
4.053608087715e-04 3.004895746166e-04 0.0 
3.004895746166e-04 2.873044855769e-03 0.0 
0.0 0.0 0.0 
4.070988007407e-04 2.558582206035e-04 0.0 
2.558582206035e-04 3.020722174491e-03 0.0 
0.0 0.0 0.0 
-2.030472291260e-04 1.061189335248e-04 0.0 
1.061189335248e-04 7.631504152749e-03 0.0 
0.0 0.0 0.0 
5.124376901988e-05 5.477523614088e-04 0.0 
5.477523614088e-04 8.613251833280e-03 0.0 
0.0 0.0 0.0 
-9.099809939206e-05 -6.255867816824e-05 0.0 
-6.255867816824e-05 7.990259000625e-04 0.0 
0.0 0.0 0.0 
0.0 6.108852808878e-04 0.0 
6.108852808878e-04 8.767848687734e-03 0.0 
0.0 0.0 0.0 
3.905110147513e-04 1.830782566717e-04 0.0 
1.830782566717e-04 2.740745729465e-03 0.0 
0.0 0.0 0.0 
0.0 5.289635553827e-04 0.0 
5.289635553827e-04 9.781035932438e-03 0.0 
0.0 0.0 0.0 
-2.076100014986e-04 3.726630901682e-04 0.0 
3.726630901682e-04 8.841699002135e-03 0.0 
0.0 0.0 0.0 
-2.599469755462e-04 -2.456867762543e-05 0.0 
-2.456867762543e-05 2.241494030637e-04 0.0 
0.0 0.0 0.0 
-1.643070853282e-04 6.005767750259e-04 0.0 
6.005767750259e-04 5.280920216964e-03 0.0 
0.0 0.0 0.0 
-1.768744564987e-04 1.861924990171e-04 0.0 
1.861924990171e-04 8.957911536827e-03 0.0 
0.0 0.0 0.0 
0.0 5.935342481796e-04 0.0 
5.935342481796e-04 9.651901710188e-03 0.0 
0.0 0.0 0.0 
-3.246252492267e-04 2.862714032777e-04 0.0 
2.862714032777e-04 7.462759760645e-03 0.0 
0.0 0.0 0.0 
-6.245182837383e-05 6.018772177387e-04 0.0 
6.018772177387e-04 7.543844147890e-03 0.0 
0.0 0.0 0.0 
1.923027753272e-04 7.271542523509e-04 0.0 
7.271542523509e-04 1.953171834928e-03 0.0 
0.0 0.0 0.0 
1.006849139684e-04 5.471434636017e-04 0.0 
5.471434636017e-04 8.000924199488e-03 0.0 
0.0 0.0 0.0 
3.881301173103e-04 1.557725887011e-04 0.0 
1.557725887011e-04 2.902770161566e-03 0.0 
0.0 0.0 0.0 
3.635815223497e-04 1.425398817068e-04 0.0 
1.425398817068e-04 3.036048885592e-03 0.0 
0.0 0.0 0.0 
-2.307856788978e-04 -5.895390276381e-05 0.0 
-5.895390276381e-05 5.063972543085e-04 0.0 
0.0 0.0 0.0 
0.0 6.463731914982e-04 0.0 
6.463731914982e-04 9.505706582638e-03 0.0 
0.0 0.0 0.0 
2.532003458722e-04 5.182055899890e-04 0.0 
5.182055899890e-04 2.400399112795e-03 0.0 
0.0 0.0 0.0 
2.150428199215e-04 3.903161440067e-04 0.0 
3.903161440067e-04 7.054132160246e-03 0.0 
0.0 0.0 0.0 
-2.355876766775e-04 2.589259261384e-05 0.0 
2.589259261384e-05 7.196518908996e-03 0.0 
0.0 0.0 0.0 
2.725805183470e-04 -4.252473743209e-05 0.0 
-4.252473743209e-05 2.414612697750e-03 0.0 
0.0 0.0 0.0 
3.594702884520e-04 1.768927920953e-04 0.0 
1.768927920953e-04 2.891109596488e-03 0.0 
0.0 0.0 0.0 
-3.328055112656e-04 3.045543138621e-04 0.0 
3.045543138621e-04 7.215498121641e-03 0.0 
0.0 0.0 0.0 
0.0 6.910864061653e-04 0.0 
6.910864061653e-04 9.189260428915e-03 0.0 
0.0 0.0 0.0 
3.205830551598e-04 4.033334865413e-05 0.0 
4.033334865413e-05 3.591776951366e-03 0.0 
0.0 0.0 0.0 
3.105871645976e-04 2.715579934905e-04 0.0 
2.715579934905e-04 5.976061912212e-03 0.0 
0.0 0.0 0.0 
-2.194747394314e-04 5.258340097828e-04 0.0 
5.258340097828e-04 6.290704799714e-03 0.0 
0.0 0.0 0.0 
3.191747589453e-04 3.455346980527e-04 0.0 
3.455346980527e-04 5.536962957904e-03 0.0 
0.0 0.0 0.0 
3.656271618273e-04 2.626211821950e-04 0.0 
2.626211821950e-04 3.199260784772e-03 0.0 
0.0 0.0 0.0 
3.382077945246e-04 2.452330266455e-04 0.0 
2.452330266455e-04 5.522875032501e-03 0.0 
0.0 0.0 0.0 
-2.675059449817e-04 4.707549300275e-04 0.0 
4.707549300275e-04 6.232652288922e-03 0.0 
0.0 0.0 0.0 
-2.162026378334e-04 4.749239864408e-04 0.0 
4.749239864408e-04 7.619554574438e-03 0.0 
0.0 0.0 0.0 
1.292643417921e-04 5.870315663960e-04 0.0 
5.870315663960e-04 6.758800331263e-03 0.0 
0.0 0.0 0.0 
-1.877702891970e-04 5.605596395133e-04 0.0 
5.605596395133e-04 5.977216501740e-03 0.0 
0.0 0.0 0.0 
3.679805676695e-04 8.885264119747e-05 0.0 
8.885264119747e-05 3.717501448238e-03 0.0 
0.0 0.0 0.0 
-3.520926743161e-06 7.017123905874e-04 0.0 
7.017123905874e-04 3.755005944285e-03 0.0 
0.0 0.0 0.0 
3.226632010302e-04 3.860400064427e-05 0.0 
3.860400064427e-05 3.409897044794e-03 0.0 
0.0 0.0 0.0 
-1.085508874265e-04 5.454312433819e-04 0.0 
5.454312433819e-04 7.476874016728e-03 0.0 
0.0 0.0 0.0 
2.099891208125e-04 5.640401103620e-04 0.0 
5.640401103620e-04 5.546869731380e-03 0.0 
0.0 0.0 0.0 
5.099125328911e-05 6.209133954132e-04 0.0 
6.209133954132e-04 8.739086213619e-03 0.0 
0.0 0.0 0.0 
-1.666142011152e-04 2.213874257346e-04 0.0 
2.213874257346e-04 9.113457168761e-03 0.0 
0.0 0.0 0.0 
2.722700609736e-04 1.625765100290e-05 0.0 
1.625765100290e-05 2.163690570708e-03 0.0 
0.0 0.0 0.0 
0.0 6.387930545033e-04 0.0 
6.387930545033e-04 8.837690002240e-03 0.0 
0.0 0.0 0.0 
1.008864933989e-04 6.042486360185e-04 0.0 
6.042486360185e-04 8.378973092737e-03 0.0 
0.0 0.0 0.0 
-1.981752750690e-05 6.404663383780e-04 0.0 
6.404663383780e-04 5.319416248016e-03 0.0 
0.0 0.0 0.0 
-9.073145740002e-05 -6.467866058058e-05 0.0 
-6.467866058058e-05 4.482223073008e-04 0.0 
0.0 0.0 0.0 
7.330209558765e-05 5.141243961038e-04 0.0 
5.141243961038e-04 8.560048995178e-03 0.0 
0.0 0.0 0.0 
-1.854725591199e-04 2.703237707427e-04 0.0 
2.703237707427e-04 9.036951522344e-03 0.0 
0.0 0.0 0.0 
3.585594766811e-04 1.183992750492e-04 0.0 
1.183992750492e-04 2.478540770201e-03 0.0 
0.0 0.0 0.0 
0.0 5.437950298581e-04 0.0 
5.437950298581e-04 8.637046742651e-03 0.0 
0.0 0.0 0.0 
3.298829738148e-04 2.265320340593e-04 0.0 
2.265320340593e-04 5.685317874777e-03 0.0 
0.0 0.0 0.0 
-3.316261081235e-04 3.645648568203e-04 0.0 
3.645648568203e-04 5.461131607019e-03 0.0 
0.0 0.0 0.0 
-3.002603036373e-04 1.843393685739e-04 0.0 
1.843393685739e-04 7.042326121648e-03 0.0 
0.0 0.0 0.0 
1.839852921606e-04 5.218497571404e-04 0.0 
5.218497571404e-04 5.478982187621e-03 0.0 
0.0 0.0 0.0 
3.668986749146e-04 1.694636153654e-04 0.0 
1.694636153654e-04 4.791276727276e-03 0.0 
0.0 0.0 0.0 
2.864645837091e-04 3.933583834792e-04 0.0 
3.933583834792e-04 5.860523839866e-03 0.0 
0.0 0.0 0.0 
-2.845452463116e-04 1.742711234054e-04 0.0 
1.742711234054e-04 7.885264221045e-03 0.0 
0.0 0.0 0.0 
-3.401544999215e-04 2.973060258905e-04 0.0 
2.973060258905e-04 5.988941681605e-03 0.0 
0.0 0.0 0.0 
8.549155035875e-05 6.058251869418e-04 0.0 
6.058251869418e-04 7.098032846778e-03 0.0 
0.0 0.0 0.0 
-1.676182834517e-04 9.147999366259e-06 0.0 
9.147999366259e-06 7.404816669129e-03 0.0 
0.0 0.0 0.0 
3.364009231492e-04 9.267935040099e-06 0.0 
9.267935040099e-06 3.729629849041e-03 0.0 
0.0 0.0 0.0 
1.769174685207e-04 5.642604846142e-04 0.0 
5.642604846142e-04 6.416675451117e-03 0.0 
0.0 0.0 0.0 
3.423604346908e-04 5.244979166462e-05 0.0 
5.244979166462e-05 2.916093686123e-03 0.0 
0.0 0.0 0.0 
3.375700349562e-04 1.420512723533e-04 0.0 
1.420512723533e-04 5.363723676020e-03 0.0 
0.0 0.0 0.0 
-3.051121166139e-04 -2.621221323212e-05 0.0 
-2.621221323212e-05 2.422892308775e-04 0.0 
0.0 0.0 0.0 
-9.956818310231e-05 6.786089129024e-04 0.0 
6.786089129024e-04 4.171158088330e-03 0.0 
0.0 0.0 0.0 
3.400743131055e-04 7.110769364826e-05 0.0 
7.110769364826e-05 2.756883811710e-03 0.0 
0.0 0.0 0.0 
3.553746542229e-04 8.038352936162e-05 0.0 
8.038352936162e-05 4.074191559481e-03 0.0 
0.0 0.0 0.0 
-7.908558067138e-05 6.192399189857e-04 0.0 
6.192399189857e-04 5.675836208958e-03 0.0 
0.0 0.0 0.0 
3.523183767673e-04 3.060355775897e-04 0.0 
3.060355775897e-04 5.673481384945e-03 0.0 
0.0 0.0 0.0 
-2.196147359249e-04 3.520807204524e-05 0.0 
3.520807204524e-05 7.453244379166e-03 0.0 
0.0 0.0 0.0 
3.056389058160e-04 9.570795350254e-06 0.0 
9.570795350254e-06 2.495773762438e-03 0.0 
0.0 0.0 0.0 
0.0 5.124781651399e-04 0.0 
5.124781651399e-04 8.589256081079e-03 0.0 
0.0 0.0 0.0 
-3.118703878761e-04 3.752376656187e-04 0.0 
3.752376656187e-04 7.067142824764e-03 0.0 
0.0 0.0 0.0 
3.484546129926e-04 7.731580824777e-05 0.0 
7.731580824777e-05 4.252659949299e-03 0.0 
0.0 0.0 0.0 
-3.043280939248e-04 4.031177073587e-04 0.0 
4.031177073587e-04 6.798133510933e-03 0.0 
0.0 0.0 0.0 
3.297812213523e-04 6.768404569933e-06 0.0 
6.768404569933e-06 4.085290538340e-03 0.0 
0.0 0.0 0.0 
-1.796144630192e-04 -2.658943698255e-05 0.0 
-2.658943698255e-05 1.993911521725e-04 0.0 
0.0 0.0 0.0 
-3.205709887352e-04 1.479428621283e-04 0.0 
1.479428621283e-04 7.273207124029e-03 0.0 
0.0 0.0 0.0 
2.801258367520e-04 3.033235696758e-05 0.0 
3.033235696758e-05 3.330935097933e-03 0.0 
0.0 0.0 0.0 
-3.688998210083e-05 -1.909009324225e-05 0.0 
-1.909009324225e-05 1.289047432762e-04 0.0 
0.0 0.0 0.0 
3.359579032944e-04 5.883395374562e-05 0.0 
5.883395374562e-05 4.007744187569e-03 0.0 
0.0 0.0 0.0 
3.201735717240e-04 3.293685257302e-04 0.0 
3.293685257302e-04 6.126269252882e-03 0.0 
0.0 0.0 0.0 
-9.615355970782e-05 9.368745262341e-05 0.0 
9.368745262341e-05 8.974362851825e-03 0.0 
0.0 0.0 0.0 
3.105119898537e-04 3.769517209186e-04 0.0 
3.769517209186e-04 5.417496894027e-03 0.0 
0.0 0.0 0.0 
3.293584540773e-04 4.268078454544e-04 0.0 
4.268078454544e-04 5.522916427724e-03 0.0 
0.0 0.0 0.0 
-3.280307604678e-04 8.876283346824e-05 0.0 
8.876283346824e-05 6.516273023633e-03 0.0 
0.0 0.0 0.0 
-2.586701028987e-04 2.641126471177e-05 0.0 
2.641126471177e-05 6.347683216207e-03 0.0 
0.0 0.0 0.0 
-4.562278532905e-05 2.508819333012e-04 0.0 
2.508819333012e-04 9.720698168759e-03 0.0 
0.0 0.0 0.0 
-2.900905953485e-04 4.343076497097e-04 0.0 
4.343076497097e-04 6.520294582190e-03 0.0 
0.0 0.0 0.0 
-5.439752608527e-05 -1.717873562008e-05 0.0 
-1.717873562008e-05 1.339704303813e-04 0.0 
0.0 0.0 0.0 
8.175621612727e-05 -1.118301900881e-04 0.0 
-1.118301900881e-04 1.297230854686e-03 0.0 
0.0 0.0 0.0 
-8.620058403019e-05 -6.693192728522e-05 0.0 
-6.693192728522e-05 4.404687521040e-04 0.0 
0.0 0.0 0.0 
2.401883514851e-04 -6.714808042720e-05 0.0 
-6.714808042720e-05 2.332291191025e-03 0.0 
0.0 0.0 0.0 
-1.913772708276e-04 4.641617867847e-04 0.0 
4.641617867847e-04 8.550425131331e-03 0.0 
0.0 0.0 0.0 
-1.102545095805e-04 3.733136439271e-05 0.0 
3.733136439271e-05 8.981158933943e-03 0.0 
0.0 0.0 0.0 
2.659122091457e-04 2.712474626241e-04 0.0 
2.712474626241e-04 6.628825624564e-03 0.0 
0.0 0.0 0.0 
2.589896718863e-04 -6.422487192806e-05 0.0 
-6.422487192806e-05 2.654815480988e-03 0.0 
0.0 0.0 0.0 
3.188253201467e-04 7.104401306838e-05 0.0 
7.104401306838e-05 5.375277150135e-03 0.0 
0.0 0.0 0.0 
2.224327968681e-04 4.413539470618e-04 0.0 
4.413539470618e-04 7.187567368844e-03 0.0 
0.0 0.0 0.0 
2.389700120635e-04 2.129528385189e-04 0.0 
2.129528385189e-04 1.598834303489e-03 0.0 
0.0 0.0 0.0 
2.744116101374e-04 -4.187817514367e-05 0.0 
-4.187817514367e-05 3.332234298216e-03 0.0 
0.0 0.0 0.0 
2.445629793952e-04 2.579255453602e-05 0.0 
2.579255453602e-05 2.712453889513e-03 0.0 
0.0 0.0 0.0 
6.105828757130e-05 4.731697959825e-04 0.0 
4.731697959825e-04 8.502345327251e-03 0.0 
0.0 0.0 0.0 
0.0 4.678661157940e-04 0.0 
4.678661157940e-04 8.530895930234e-03 0.0 
0.0 0.0 0.0 
2.914138203680e-04 -2.834482394497e-05 0.0 
-2.834482394497e-05 3.727002765233e-03 0.0 
0.0 0.0 0.0 
3.279706274748e-04 5.741285400130e-06 0.0 
5.741285400130e-06 4.263703297406e-03 0.0 
0.0 0.0 0.0 
3.861794122857e-04 2.346977088114e-04 0.0 
2.346977088114e-04 4.941077690221e-03 0.0 
0.0 0.0 0.0 
1.925665315432e-04 4.878937529898e-04 0.0 
4.878937529898e-04 7.499105595078e-03 0.0 
0.0 0.0 0.0 
1.299333815092e-04 -2.749044978424e-05 0.0 
-2.749044978424e-05 1.437159380320e-03 0.0 
0.0 0.0 0.0 
2.539032064071e-04 3.967143830373e-04 0.0 
3.967143830373e-04 6.881416928894e-03 0.0 
0.0 0.0 0.0 
2.469122403315e-05 -3.066517753976e-05 0.0 
-3.066517753976e-05 7.552025582336e-04 0.0 
0.0 0.0 0.0 
3.146591387275e-04 -1.387862682166e-05 0.0 
-1.387862682166e-05 3.841290951797e-03 0.0 
0.0 0.0 0.0 
3.409531204943e-04 3.231900625564e-05 0.0 
3.231900625564e-05 4.334395383265e-03 0.0 
0.0 0.0 0.0 
3.094144881022e-05 -1.755187213054e-05 0.0 
-1.755187213054e-05 3.915547184963e-04 0.0 
0.0 0.0 0.0 
2.930516319790e-04 3.166867172060e-05 0.0 
3.166867172060e-05 3.524698293210e-03 0.0 
0.0 0.0 0.0 
-1.360191495374e-04 2.659798788535e-04 0.0 
2.659798788535e-04 9.105466713032e-03 0.0 
0.0 0.0 0.0 
-4.758426684148e-05 -1.473149319012e-05 0.0 
-1.473149319012e-05 1.321350906187e-04 0.0 
0.0 0.0 0.0 
-2.670740798670e-04 3.939875452293e-05 0.0 
3.939875452293e-05 6.348429589886e-03 0.0 
0.0 0.0 0.0 
-2.668428563017e-04 4.676950557276e-05 0.0 
4.676950557276e-05 6.340685518037e-03 0.0 
0.0 0.0 0.0 
2.476616134905e-04 4.355848751532e-04 0.0 
4.355848751532e-04 6.190727358974e-03 0.0 
0.0 0.0 0.0 
2.352764828488e-04 -3.771445864900e-05 0.0 
-3.771445864900e-05 2.710115494204e-03 0.0 
0.0 0.0 0.0 
3.580487043422e-04 9.949513019766e-05 0.0 
9.949513019766e-05 2.646534857786e-03 0.0 
0.0 0.0 0.0 
-2.454240556748e-05 7.603659438120e-04 0.0 
7.603659438120e-04 3.026016244491e-03 0.0 
0.0 0.0 0.0 
1.939330560152e-04 2.687563714389e-04 0.0 
2.687563714389e-04 7.253014068308e-03 0.0 
0.0 0.0 0.0 
-4.324985204962e-05 5.973905370319e-04 0.0 
5.973905370319e-04 9.226330947785e-03 0.0 
0.0 0.0 0.0 
-1.464569121138e-04 6.785490592288e-05 0.0 
6.785490592288e-05 8.714729436023e-03 0.0 
0.0 0.0 0.0 
-2.928613650346e-04 5.561655187013e-04 0.0 
5.561655187013e-04 4.218508416904e-03 0.0 
0.0 0.0 0.0 
1.731856675025e-05 -2.414188243613e-05 0.0 
-2.414188243613e-05 8.684442578473e-04 0.0 
0.0 0.0 0.0 
-3.726253859723e-04 2.094931515024e-04 0.0 
2.094931515024e-04 6.118279657550e-03 0.0 
0.0 0.0 0.0 
-2.132282266020e-04 1.155299975782e-05 0.0 
1.155299975782e-05 6.357403752105e-03 0.0 
0.0 0.0 0.0 
-2.118389676281e-04 4.689884955052e-06 0.0 
4.689884955052e-06 6.348837034301e-03 0.0 
0.0 0.0 0.0 
-1.529384403887e-05 -1.662185831689e-05 0.0 
-1.662185831689e-05 1.235363848882e-04 0.0 
0.0 0.0 0.0 
2.471275681382e-05 -2.289903718551e-05 0.0 
-2.289903718551e-05 3.932579429959e-04 0.0 
0.0 0.0 0.0 
6.452225288633e-05 -2.599343367490e-05 0.0 
-2.599343367490e-05 7.355245314182e-04 0.0 
0.0 0.0 0.0 
2.067351519657e-04 -1.496829801468e-05 0.0 
-1.496829801468e-05 2.007982565498e-03 0.0 
0.0 0.0 0.0 
3.230270116061e-06 -1.638029901937e-05 0.0 
-1.638029901937e-05 3.994418534985e-04 0.0 
0.0 0.0 0.0 
2.953929219252e-04 3.363851445220e-05 0.0 
3.363851445220e-05 3.947495916158e-03 0.0 
0.0 0.0 0.0 
-2.493965980281e-04 -3.156843691089e-05 0.0 
-3.156843691089e-05 2.276000318020e-04 0.0 
0.0 0.0 0.0 
2.537813808396e-04 -9.551026839810e-08 0.0 
-9.551026839810e-08 2.411192025987e-03 0.0 
0.0 0.0 0.0 
-1.409021179387e-04 2.705738399551e-05 0.0 
2.705738399551e-05 7.765261136039e-03 0.0 
0.0 0.0 0.0 
-2.424147487743e-04 2.701100232971e-05 0.0 
2.701100232971e-05 6.342660357404e-03 0.0 
0.0 0.0 0.0 
-1.775544606879e-04 4.526378125566e-04 0.0 
4.526378125566e-04 8.804935869334e-03 0.0 
0.0 0.0 0.0 
3.399634071661e-04 2.852226451407e-04 0.0 
2.852226451407e-04 5.835671738585e-03 0.0 
0.0 0.0 0.0 
-1.541178457485e-04 2.353298649873e-05 0.0 
2.353298649873e-05 7.392980242074e-03 0.0 
0.0 0.0 0.0 
2.501770331402e-04 3.363780355232e-05 0.0 
3.363780355232e-05 2.907112688140e-03 0.0 
0.0 0.0 0.0 
3.931159822912e-05 -2.502950904822e-05 0.0 
-2.502950904822e-05 7.449585774391e-04 0.0 
0.0 0.0 0.0 
0.0 1.274815947121e-04 0.0 
1.274815947121e-04 1.008882646415e-02 0.0 
0.0 0.0 0.0 
-3.996408032791e-05 1.443379276736e-04 0.0 
1.443379276736e-04 1.008287036594e-02 0.0 
0.0 0.0 0.0 
-2.100015687796e-04 8.866924288602e-05 0.0 
8.866924288602e-05 7.191789393282e-03 0.0 
0.0 0.0 0.0 
-2.334086496637e-04 1.380144797929e-05 0.0 
1.380144797929e-05 6.351166025919e-03 0.0 
0.0 0.0 0.0 
2.510208964193e-04 -3.134069128435e-05 0.0 
-3.134069128435e-05 2.948000067703e-03 0.0 
0.0 0.0 0.0 
-3.139840914990e-05 9.819659539690e-05 0.0 
9.819659539690e-05 1.009784823935e-02 0.0 
0.0 0.0 0.0 
2.166408792956e-04 -8.293889620979e-05 0.0 
-8.293889620979e-05 2.249350983997e-03 0.0 
0.0 0.0 0.0 
-2.533754542924e-04 3.394544634192e-05 0.0 
3.394544634192e-05 6.337359908977e-03 0.0 
0.0 0.0 0.0 
-2.358846963617e-04 2.213576750209e-05 0.0 
2.213576750209e-05 6.346148677697e-03 0.0 
0.0 0.0 0.0 
-3.321174563221e-04 1.679759938263e-04 0.0 
1.679759938263e-04 5.984190666470e-03 0.0 
0.0 0.0 0.0 
0.0 2.829155857779e-04 0.0 
2.829155857779e-04 1.002759539125e-02 0.0 
0.0 0.0 0.0 
-2.800128904301e-05 1.248372716433e-04 0.0 
1.248372716433e-04 1.009508003589e-02 0.0 
0.0 0.0 0.0 
-8.692686673029e-06 -2.039346847848e-05 0.0 
-2.039346847848e-05 4.015653369938e-04 0.0 
0.0 0.0 0.0 
-8.702054943965e-06 -1.033571719336e-05 0.0 
-1.033571719336e-05 1.242514023878e-04 0.0 
0.0 0.0 0.0 
5.470950785758e-05 -2.677901139193e-05 0.0 
-2.677901139193e-05 1.052881044330e-03 0.0 
0.0 0.0 0.0 
3.676569418392e-04 1.083932875042e-04 0.0 
1.083932875042e-04 4.322930095096e-03 0.0 
0.0 0.0 0.0 
1.349667108475e-04 6.687985307564e-05 0.0 
6.687985307564e-05 7.498877992110e-03 0.0 
0.0 0.0 0.0 
-4.524792002706e-04 -4.869463403502e-05 0.0 
-4.869463403502e-05 2.892610124789e-04 0.0 
0.0 0.0 0.0 
-1.096702571557e-04 -2.167371064622e-05 0.0 
-2.167371064622e-05 8.649272039661e-03 0.0 
0.0 0.0 0.0 
-2.301519376497e-04 -3.039624174755e-05 0.0 
-3.039624174755e-05 2.244386538379e-04 0.0 
0.0 0.0 0.0 
3.029686577327e-04 4.432373791884e-04 0.0 
4.432373791884e-04 5.971136160164e-03 0.0 
0.0 0.0 0.0 
-3.576032510600e-04 -2.893900335163e-05 0.0 
-2.893900335163e-05 2.651707002481e-04 0.0 
0.0 0.0 0.0 
-4.058166171284e-04 -3.893842131735e-05 0.0 
-3.893842131735e-05 2.794039057139e-04 0.0 
0.0 0.0 0.0 
3.357688071577e-04 3.981070217696e-04 0.0 
3.981070217696e-04 5.655309387021e-03 0.0 
0.0 0.0 0.0 
1.664878855900e-04 1.380937887070e-04 0.0 
1.380937887070e-04 7.280016569385e-03 0.0 
0.0 0.0 0.0 
-1.534848178233e-04 6.229825161204e-07 0.0 
6.229825161204e-07 7.736572564266e-03 0.0 
0.0 0.0 0.0 
-3.682463898866e-04 2.682036448748e-04 0.0 
2.682036448748e-04 6.239753338064e-03 0.0 
0.0 0.0 0.0 
3.938399040959e-05 -1.774124484393e-05 0.0 
-1.774124484393e-05 3.862651120636e-04 0.0 
0.0 0.0 0.0 
3.062064115733e-04 6.104905466349e-05 0.0 
6.104905466349e-05 5.555501416900e-03 0.0 
0.0 0.0 0.0 
0.0 3.685297280836e-05 0.0 
3.685297280836e-05 1.008943357419e-02 0.0 
0.0 0.0 0.0 
-2.861190672399e-05 2.576937705026e-05 0.0 
2.576937705026e-05 1.010402969987e-02 0.0 
0.0 0.0 0.0 
-2.301586974277e-04 2.049639179482e-05 0.0 
2.049639179482e-05 6.342348149429e-03 0.0 
0.0 0.0 0.0 
2.651624512056e-04 4.835984524597e-04 0.0 
4.835984524597e-04 6.293790255371e-03 0.0 
0.0 0.0 0.0 
0.0 1.108008204782e-04 0.0 
1.108008204782e-04 1.010175363501e-02 0.0 
0.0 0.0 0.0 
-6.700678455129e-05 5.571767194869e-04 0.0 
5.571767194869e-04 7.550359911173e-03 0.0 
0.0 0.0 0.0 
3.641784333097e-05 -8.526591350967e-06 0.0 
-8.526591350967e-06 7.247103981802e-04 0.0 
0.0 0.0 0.0 
1.606068014093e-05 -1.616731565053e-05 0.0 
-1.616731565053e-05 3.922025176200e-04 0.0 
0.0 0.0 0.0 
3.733154278018e-05 -1.906459323936e-05 0.0 
-1.906459323936e-05 3.831480526573e-04 0.0 
0.0 0.0 0.0 
2.772068228916e-04 3.279840644085e-05 0.0 
3.279840644085e-05 3.317895855522e-03 0.0 
0.0 0.0 0.0 
5.072070158096e-05 9.299019776325e-05 0.0 
9.299019776325e-05 8.267926399871e-03 0.0 
0.0 0.0 0.0 
-4.485755909167e-05 -3.269451719375e-05 0.0 
-3.269451719375e-05 9.674626747660e-03 0.0 
0.0 0.0 0.0 
1.678714447628e-05 -6.660461941861e-08 0.0 
-6.660461941861e-08 1.063064545497e-04 0.0 
0.0 0.0 0.0 
2.999307690548e-04 -2.969360747523e-05 0.0 
-2.969360747523e-05 3.947587252176e-03 0.0 
0.0 0.0 0.0 
0.0 9.085768233024e-05 0.0 
9.085768233024e-05 8.289214165111e-03 0.0 
0.0 0.0 0.0 
5.655881300237e-05 1.500133506765e-04 0.0 
1.500133506765e-04 8.269716036786e-03 0.0 
0.0 0.0 0.0 
7.978644212980e-05 4.299217909686e-04 0.0 
4.299217909686e-04 8.450612651579e-03 0.0 
0.0 0.0 0.0 
-1.279906002599e-04 3.894810087560e-05 0.0 
3.894810087560e-05 8.244575300578e-03 0.0 
0.0 0.0 0.0 
-9.537920735547e-05 -3.127838270289e-05 0.0 
-3.127838270289e-05 8.859576005778e-03 0.0 
0.0 0.0 0.0 
0.0 1.200030178750e-04 0.0 
1.200030178750e-04 8.253822079039e-03 0.0 
0.0 0.0 0.0 
0.0 1.519827427043e-04 0.0 
1.519827427043e-04 8.286294916419e-03 0.0 
0.0 0.0 0.0 
-1.049172267445e-04 3.495801386790e-05 0.0 
3.495801386790e-05 8.651268049990e-03 0.0 
0.0 0.0 0.0 
-8.405926599231e-08 1.252543414190e-05 0.0 
1.252543414190e-05 9.758019833139e-05 0.0 
0.0 0.0 0.0 
-1.933456047412e-04 4.690941203217e-06 0.0 
4.690941203217e-06 6.329344483940e-03 0.0 
0.0 0.0 0.0 
-2.220987641549e-04 1.821592677249e-05 0.0 
1.821592677249e-05 6.352664459860e-03 0.0 
0.0 0.0 0.0 
3.321604827411e-06 -4.902952366729e-06 0.0 
-4.902952366729e-06 1.195388952298e-04 0.0 
0.0 0.0 0.0 
0.0 2.753845406657e-04 0.0 
2.753845406657e-04 8.361840292761e-03 0.0 
0.0 0.0 0.0 
6.625023200924e-05 3.895034459752e-04 0.0 
3.895034459752e-04 8.401887234103e-03 0.0 
0.0 0.0 0.0 
0.0 3.494493675449e-04 0.0 
3.494493675449e-04 8.377867831040e-03 0.0 
0.0 0.0 0.0 
-3.094510034862e-05 9.953363011313e-07 0.0 
9.953363011313e-07 1.240138294045e-04 0.0 
0.0 0.0 0.0 
-3.993228977861e-05 -7.309895074055e-06 0.0 
-7.309895074055e-06 1.311693662398e-04 0.0 
0.0 0.0 0.0 
0.0 4.318480640758e-04 0.0 
4.318480640758e-04 8.474983863695e-03 0.0 
0.0 0.0 0.0 
0.0 3.876246334109e-04 0.0 
3.876246334109e-04 8.428189765333e-03 0.0 
0.0 0.0 0.0 
-1.409962492771e-04 -3.414496550082e-05 0.0 
-3.414496550082e-05 8.037713990837e-03 0.0 
0.0 0.0 0.0 
-1.787278183651e-04 6.178089373127e-06 0.0 
6.178089373127e-06 6.316626328954e-03 0.0 
0.0 0.0 0.0 
-1.150155934246e-04 -3.307793784729e-05 0.0 
-3.307793784729e-05 8.448373605029e-03 0.0 
0.0 0.0 0.0 
-1.648131690689e-04 -3.390493543533e-05 0.0 
-3.390493543533e-05 7.203956991548e-03 0.0 
0.0 0.0 0.0 
-1.676927146714e-04 2.369409089038e-06 0.0 
2.369409089038e-06 6.313548443727e-03 0.0 
0.0 0.0 0.0 
-8.448180496923e-05 -7.196814717920e-06 0.0 
-7.196814717920e-06 1.515626208555e-04 0.0 
0.0 0.0 0.0 
-1.544496176997e-04 -2.359816959370e-05 0.0 
-2.359816959370e-05 1.890920179803e-04 0.0 
0.0 0.0 0.0 
-1.733074595338e-04 -2.195910553508e-05 0.0 
-2.195910553508e-05 1.868224759316e-04 0.0 
0.0 0.0 0.0 
-2.200397118801e-04 -2.477641672780e-05 0.0 
-2.477641672780e-05 2.080579669381e-04 0.0 
0.0 0.0 0.0 
3.037096429004e-04 3.879667572316e-05 0.0 
3.879667572316e-05 4.164636675692e-03 0.0 
0.0 0.0 0.0 
2.963321187415e-04 3.432126261668e-05 0.0 
3.432126261668e-05 3.735275942893e-03 0.0 
0.0 0.0 0.0 
-9.334239617265e-05 -1.928687317002e-05 0.0 
-1.928687317002e-05 1.637446878364e-04 0.0 
0.0 0.0 0.0 
3.004981706067e-04 3.852949249523e-05 0.0 
3.852949249523e-05 5.445831581882e-03 0.0 
0.0 0.0 0.0 
-1.303319206296e-04 -2.544008684694e-05 0.0 
-2.544008684694e-05 1.762171943622e-04 0.0 
0.0 0.0 0.0 
0.0 2.275139563358e-04 0.0 
2.275139563358e-04 1.005140576375e-02 0.0 
0.0 0.0 0.0 
0.0 9.246762804176e-05 0.0 
9.246762804176e-05 1.009406499823e-02 0.0 
0.0 0.0 0.0 
0.0 1.519788471408e-04 0.0 
1.519788471408e-04 1.007648567624e-02 0.0 
0.0 0.0 0.0 
1.059482990560e-04 3.764072410552e-05 0.0 
3.764072410552e-05 1.279317981068e-03 0.0 
0.0 0.0 0.0 
2.214166926722e-04 3.379766849762e-05 0.0 
3.379766849762e-05 2.497750455940e-03 0.0 
0.0 0.0 0.0 
0.0 7.103445109223e-05 0.0 
7.103445109223e-05 1.008409263563e-02 0.0 
0.0 0.0 0.0 
2.110640181934e-04 3.328275879153e-05 0.0 
3.328275879153e-05 6.812438087479e-03 0.0 
0.0 0.0 0.0 
0.0 5.342934698594e-05 0.0 
5.342934698594e-05 1.012921374209e-02 0.0 
0.0 0.0 0.0 
1.587103587293e-04 3.527358471982e-05 0.0 
3.527358471982e-05 7.281478285091e-03 0.0 
0.0 0.0 0.0 
9.936331059701e-05 4.205956742700e-05 0.0 
4.205956742700e-05 7.757820600918e-03 0.0 
0.0 0.0 0.0 
2.867343775388e-04 -3.514671761568e-05 0.0 
-3.514671761568e-05 3.524723164383e-03 0.0 
0.0 0.0 0.0 
-3.776937641642e-05 7.687469080002e-05 0.0 
7.687469080002e-05 1.008885406772e-02 0.0 
0.0 0.0 0.0 
-3.101325876798e-05 8.423950882524e-05 0.0 
8.423950882524e-05 1.010117818773e-02 0.0 
0.0 0.0 0.0 
1.825131071851e-04 -1.095242303886e-05 0.0 
-1.095242303886e-05 7.022272716297e-03 0.0 
0.0 0.0 0.0 
1.283881628877e-04 -7.717338156030e-06 0.0 
-7.717338156030e-06 7.503105738430e-03 0.0 
0.0 0.0 0.0 
2.815087016981e-04 3.942723570785e-05 0.0 
3.942723570785e-05 5.924703396694e-03 0.0 
0.0 0.0 0.0 
-2.065183106675e-04 -2.982444713610e-05 0.0 
-2.982444713610e-05 2.136890629536e-04 0.0 
0.0 0.0 0.0 
2.952193804104e-04 -3.003578891674e-05 0.0 
-3.003578891674e-05 3.601836864203e-03 0.0 
0.0 0.0 0.0 
-1.478756807127e-05 -2.991064627817e-05 0.0 
-2.991064627817e-05 3.971312563738e-04 0.0 
0.0 0.0 0.0 
1.797085262760e-04 2.100695024246e-04 0.0 
2.100695024246e-04 7.258988437685e-03 0.0 
0.0 0.0 0.0 
3.396216207874e-04 5.796909082816e-05 0.0 
5.796909082816e-05 3.830268673341e-03 0.0 
0.0 0.0 0.0 
2.385621815271e-04 1.442019711199e-04 0.0 
1.442019711199e-04 6.627124881808e-03 0.0 
0.0 0.0 0.0 
1.673414629413e-04 -9.872680919980e-05 0.0 
-9.872680919980e-05 1.847543957469e-03 0.0 
0.0 0.0 0.0 
4.067503372829e-05 -1.794109712831e-05 0.0 
-1.794109712831e-05 7.244858385955e-04 0.0 
0.0 0.0 0.0 
1.863312709309e-04 9.169190403631e-05 0.0 
9.169190403631e-05 7.089167958104e-03 0.0 
0.0 0.0 0.0 
3.190216199955e-04 -1.282179201324e-05 0.0 
-1.282179201324e-05 4.019358834820e-03 0.0 
0.0 0.0 0.0 
2.613100103281e-04 2.938412880061e-05 0.0 
2.938412880061e-05 3.116679112344e-03 0.0 
0.0 0.0 0.0 
2.313436686725e-04 7.896204985697e-05 0.0 
7.896204985697e-05 6.637526816912e-03 0.0 
0.0 0.0 0.0 
-6.996072079302e-05 6.086296250933e-05 0.0 
6.086296250933e-05 9.224558441316e-03 0.0 
0.0 0.0 0.0 
2.635967613884e-04 -3.744969951102e-05 0.0 
-3.744969951102e-05 3.115414359498e-03 0.0 
0.0 0.0 0.0 
2.764256101393e-04 2.980008564954e-04 0.0 
2.980008564954e-04 6.433878755401e-03 0.0 
0.0 0.0 0.0 
3.481780346672e-04 1.878569239628e-04 0.0 
1.878569239628e-04 5.451287100549e-03 0.0 
0.0 0.0 0.0 
2.894542806411e-04 1.079793755956e-04 0.0 
1.079793755956e-04 5.914087934126e-03 0.0 
0.0 0.0 0.0 
2.705259806612e-04 9.044571927117e-05 0.0 
9.044571927117e-05 6.110256873508e-03 0.0 
0.0 0.0 0.0 
2.764861670081e-04 5.880221107794e-04 0.0 
5.880221107794e-04 3.784046057009e-03 0.0 
0.0 0.0 0.0 
-3.749247233850e-04 2.346245996709e-04 0.0 
2.346245996709e-04 5.879196649807e-03 0.0 
0.0 0.0 0.0 
-1.226146954839e-04 5.782977263786e-04 0.0 
5.782977263786e-04 5.649273150414e-03 0.0 
0.0 0.0 0.0 
3.220056771915e-04 1.313537669715e-04 0.0 
1.313537669715e-04 5.544573202895e-03 0.0 
0.0 0.0 0.0 
2.101358750355e-04 5.783593101985e-05 0.0 
5.783593101985e-05 6.833355518670e-03 0.0 
0.0 0.0 0.0 
2.513189194888e-04 7.552967800781e-05 0.0 
7.552967800781e-05 6.313520311677e-03 0.0 
0.0 0.0 0.0 
2.257844390059e-04 -8.689942827317e-06 0.0 
-8.689942827317e-06 1.922633475291e-03 0.0 
0.0 0.0 0.0 
-7.467369636793e-05 8.892943666253e-05 0.0 
8.892943666253e-05 9.198890001823e-03 0.0 
0.0 0.0 0.0 
-1.050287114817e-04 7.988113628026e-05 0.0 
7.988113628026e-05 8.791570263846e-03 0.0 
0.0 0.0 0.0 
-1.757000815561e-04 4.962335124550e-05 0.0 
4.962335124550e-05 6.895911166592e-03 0.0 
0.0 0.0 0.0 
3.144279723915e-04 1.616013726658e-04 0.0 
1.616013726658e-04 5.807622928358e-03 0.0 
0.0 0.0 0.0 
3.058397875626e-04 1.199336914513e-04 0.0 
1.199336914513e-04 5.728331332705e-03 0.0 
0.0 0.0 0.0 
-8.465307004157e-05 3.268596807508e-06 0.0 
3.268596807508e-06 9.241083981748e-03 0.0 
0.0 0.0 0.0 
-9.128136407899e-05 6.971830862492e-05 0.0 
6.971830862492e-05 9.012553716383e-03 0.0 
0.0 0.0 0.0 
3.388957751629e-04 1.259307509892e-04 0.0 
1.259307509892e-04 5.289837159202e-03 0.0 
0.0 0.0 0.0 
1.640769790412e-04 6.849545343626e-05 0.0 
6.849545343626e-05 7.286278752602e-03 0.0 
0.0 0.0 0.0 
-1.272656191753e-04 1.223374460985e-04 0.0 
1.223374460985e-04 8.708245434489e-03 0.0 
0.0 0.0 0.0 
2.463504352221e-04 9.162330250410e-06 0.0 
9.162330250410e-06 6.313457864289e-03 0.0 
0.0 0.0 0.0 
1.520280685334e-04 1.815029184759e-04 0.0 
1.815029184759e-04 7.466755523027e-03 0.0 
0.0 0.0 0.0 
-9.051841955665e-05 2.895082105035e-05 0.0 
2.895082105035e-05 9.208931677600e-03 0.0 
0.0 0.0 0.0 
-1.529846714411e-04 1.531786373022e-05 0.0 
1.531786373022e-05 8.163167696339e-03 0.0 
0.0 0.0 0.0 
3.004156196393e-04 2.538217643239e-04 0.0 
2.538217643239e-04 6.137811121028e-03 0.0 
0.0 0.0 0.0 
1.738772495419e-04 -2.158327947136e-06 0.0 
-2.158327947136e-06 1.904524062167e-03 0.0 
0.0 0.0 0.0 
2.100346009828e-04 -7.266997318648e-06 0.0 
-7.266997318648e-06 1.764325966760e-03 0.0 
0.0 0.0 0.0 
1.193588329595e-05 -1.163121516937e-04 0.0 
-1.163121516937e-04 8.810210107835e-04 0.0 
0.0 0.0 0.0 
-2.066913659174e-04 -6.388580877670e-05 0.0 
-6.388580877670e-05 4.864700712603e-04 0.0 
0.0 0.0 0.0 
-9.682115165421e-05 1.360147517171e-05 0.0 
1.360147517171e-05 9.018025512755e-03 0.0 
0.0 0.0 0.0 
1.902923348118e-04 1.060049378827e-04 0.0 
1.060049378827e-04 7.015634498673e-03 0.0 
0.0 0.0 0.0 
-1.799142852456e-04 -6.194273188421e-05 0.0 
-6.194273188421e-05 4.672684684113e-04 0.0 
0.0 0.0 0.0 
-1.983934051173e-04 3.164559792059e-04 0.0 
3.164559792059e-04 8.948692928128e-03 0.0 
0.0 0.0 0.0 
-1.702405341100e-04 5.364270222445e-05 0.0 
5.364270222445e-05 7.090014492125e-03 0.0 
0.0 0.0 0.0 
2.510936985736e-04 9.373301279687e-05 0.0 
9.373301279687e-05 6.452604765353e-03 0.0 
0.0 0.0 0.0 
2.342076079536e-04 9.936496752492e-05 0.0 
9.936496752492e-05 6.557894626785e-03 0.0 
0.0 0.0 0.0 
3.563078380673e-04 8.337188211939e-05 0.0 
8.337188211939e-05 2.808712494693e-03 0.0 
0.0 0.0 0.0 
2.308839699046e-04 3.163815988759e-05 0.0 
3.163815988759e-05 6.567650646032e-03 0.0 
0.0 0.0 0.0 
-1.827266247255e-04 -2.581114691718e-05 0.0 
-2.581114691718e-05 6.894237192435e-03 0.0 
0.0 0.0 0.0 
1.337670506902e-04 5.242451905662e-04 0.0 
5.242451905662e-04 6.768013575970e-03 0.0 
0.0 0.0 0.0 
1.336416332065e-04 2.357155618728e-04 0.0 
2.357155618728e-04 7.660949526492e-03 0.0 
0.0 0.0 0.0 
1.648196472750e-04 7.665487370885e-06 0.0 
7.665487370885e-06 1.836618849919e-03 0.0 
0.0 0.0 0.0 
1.503707124033e-04 2.519585232416e-04 0.0 
2.519585232416e-04 7.552031920327e-03 0.0 
0.0 0.0 0.0 
-1.367623620755e-04 1.413984137287e-05 0.0 
1.413984137287e-05 8.389371828075e-03 0.0 
0.0 0.0 0.0 
1.897364558727e-04 9.334516892187e-06 0.0 
9.334516892187e-06 2.077106620660e-03 0.0 
0.0 0.0 0.0 
2.322918217721e-04 -7.275923455442e-05 0.0 
-7.275923455442e-05 2.176181378410e-03 0.0 
0.0 0.0 0.0 
3.215878921645e-04 5.185849352382e-05 0.0 
5.185849352382e-05 4.559276734880e-03 0.0 
0.0 0.0 0.0 
-1.694850958134e-04 7.672988285340e-05 0.0 
7.672988285340e-05 7.707671262514e-03 0.0 
0.0 0.0 0.0 
2.971092039199e-04 2.053572743888e-05 0.0 
2.053572743888e-05 2.995048663421e-03 0.0 
0.0 0.0 0.0 
-1.211142326920e-04 7.422106638787e-06 0.0 
7.422106638787e-06 8.613851274289e-03 0.0 
0.0 0.0 0.0 
-1.521829547791e-04 3.489022014759e-08 0.0 
3.489022014759e-08 7.965905997680e-03 0.0 
0.0 0.0 0.0 
3.410664566170e-04 7.311403936445e-05 0.0 
7.311403936445e-05 4.434188183799e-03 0.0 
0.0 0.0 0.0 
2.630931022596e-04 2.522354607829e-05 0.0 
2.522354607829e-05 6.114911575261e-03 0.0 
0.0 0.0 0.0 
2.496365588529e-04 4.849103992187e-05 0.0 
4.849103992187e-05 6.376266720336e-03 0.0 
0.0 0.0 0.0 
-1.272399159410e-04 7.278159494061e-05 0.0 
7.278159494061e-05 8.380988396371e-03 0.0 
0.0 0.0 0.0 
1.288910372235e-04 -8.435830209910e-05 0.0 
-8.435830209910e-05 1.578066336150e-03 0.0 
0.0 0.0 0.0 
3.312710994987e-04 5.529968543402e-05 0.0 
5.529968543402e-05 4.191724406830e-03 0.0 
0.0 0.0 0.0 
4.605007584169e-05 6.364895927855e-04 0.0 
6.364895927855e-04 7.849587257981e-03 0.0 
0.0 0.0 0.0 
-1.334889113930e-04 2.717254575046e-05 0.0 
2.717254575046e-05 8.574395056404e-03 0.0 
0.0 0.0 0.0 
3.216196975671e-04 4.581427992381e-05 0.0 
4.581427992381e-05 3.763705591081e-03 0.0 
0.0 0.0 0.0 
3.264579328000e-04 1.142711764445e-04 0.0 
1.142711764445e-04 5.463228593800e-03 0.0 
0.0 0.0 0.0 
1.742927947346e-04 2.654537451424e-04 0.0 
2.654537451424e-04 7.387202570835e-03 0.0 
0.0 0.0 0.0 
-1.373196079111e-04 7.266500637291e-05 0.0 
7.266500637291e-05 8.156427162335e-03 0.0 
0.0 0.0 0.0 
2.223646840216e-05 -4.662904329053e-06 0.0 
-4.662904329053e-06 8.897492419793e-04 0.0 
0.0 0.0 0.0 
2.071290824124e-05 -9.455464476664e-05 0.0 
-9.455464476664e-05 8.511475892488e-04 0.0 
0.0 0.0 0.0 
2.951094640886e-04 2.882413940670e-04 0.0 
2.882413940670e-04 2.053883068757e-03 0.0 
0.0 0.0 0.0 
2.141767703463e-04 1.288288655760e-04 0.0 
1.288288655760e-04 6.822612593514e-03 0.0 
0.0 0.0 0.0 
-1.549339936079e-04 7.506815260336e-05 0.0 
7.506815260336e-05 7.932827849064e-03 0.0 
0.0 0.0 0.0 
3.154087928419e-04 -1.274887298323e-05 0.0 
-1.274887298323e-05 4.994954259084e-03 0.0 
0.0 0.0 0.0 
-1.780582305509e-04 6.093681662264e-05 0.0 
6.093681662264e-05 7.293213764660e-03 0.0 
0.0 0.0 0.0 
2.033332036573e-04 3.727275496153e-04 0.0 
3.727275496153e-04 7.197609093405e-03 0.0 
0.0 0.0 0.0 
3.330687413452e-04 6.948646385106e-05 0.0 
6.948646385106e-05 4.616522928029e-03 0.0 
0.0 0.0 0.0 
2.567620686478e-04 1.177211181590e-04 0.0 
1.177211181590e-04 6.365621633692e-03 0.0 
0.0 0.0 0.0 
1.639503974380e-04 -6.503590550279e-05 0.0 
-6.503590550279e-05 1.914766184025e-03 0.0 
0.0 0.0 0.0 
1.666290388536e-04 2.638706151031e-04 0.0 
2.638706151031e-04 7.470170819251e-03 0.0 
0.0 0.0 0.0 
3.225112531677e-04 3.627704745242e-06 0.0 
3.627704745242e-06 4.445249129175e-03 0.0 
0.0 0.0 0.0 
1.752803941344e-04 -5.667862307942e-05 0.0 
-5.667862307942e-05 2.087458152476e-03 0.0 
0.0 0.0 0.0 
3.143039912905e-04 -1.513220656309e-05 0.0 
-1.513220656309e-05 4.203346642867e-03 0.0 
0.0 0.0 0.0 
3.001415366113e-04 2.375229326164e-05 0.0 
2.375229326164e-05 3.172368742620e-03 0.0 
0.0 0.0 0.0 
2.285933452064e-04 -7.596477499569e-05 0.0 
-7.596477499569e-05 2.423196366806e-03 0.0 
0.0 0.0 0.0 
3.173713750635e-04 5.690969402772e-05 0.0 
5.690969402772e-05 4.981462921096e-03 0.0 
0.0 0.0 0.0 
-6.144304580857e-05 -1.739115239069e-05 0.0 
-1.739115239069e-05 1.541543699897e-04 0.0 
0.0 0.0 0.0 
-9.195757976022e-05 -2.116339395468e-05 0.0 
-2.116339395468e-05 1.710727754083e-04 0.0 
0.0 0.0 0.0 
2.934334810758e-04 5.090640280211e-05 0.0 
5.090640280211e-05 5.739005853215e-03 0.0 
0.0 0.0 0.0 
1.471648796960e-04 -7.503871000877e-05 0.0 
-7.503871000877e-05 1.747822492714e-03 0.0 
0.0 0.0 0.0 
2.981186319071e-04 9.067696112276e-05 0.0 
9.067696112276e-05 5.818613764615e-03 0.0 
0.0 0.0 0.0 
3.127901456967e-04 1.029577691989e-04 0.0 
1.029577691989e-04 5.639765196245e-03 0.0 
0.0 0.0 0.0 
3.471596651405e-04 6.007225226716e-05 0.0 
6.007225226716e-05 3.471479675649e-03 0.0 
0.0 0.0 0.0 
3.146836999832e-04 6.336877965313e-05 0.0 
6.336877965313e-05 2.230553369946e-03 0.0 
0.0 0.0 0.0 
-1.239731057689e-04 6.157220060629e-05 0.0 
6.157220060629e-05 8.938226926463e-03 0.0 
0.0 0.0 0.0 
1.616332784393e-04 3.387972747724e-04 0.0 
3.387972747724e-04 1.161859565842e-03 0.0 
0.0 0.0 0.0 
3.010906125644e-04 2.601932492385e-05 0.0 
2.601932492385e-05 3.354807084103e-03 0.0 
0.0 0.0 0.0 
1.678388616053e-04 4.248068107981e-04 0.0 
4.248068107981e-04 7.493372609723e-03 0.0 
0.0 0.0 0.0 
1.357939264208e-04 -6.159745522717e-06 0.0 
-6.159745522717e-06 1.490672021328e-03 0.0 
0.0 0.0 0.0 
-1.825470694246e-04 6.932102324248e-06 0.0 
6.932102324248e-06 7.525423791045e-03 0.0 
0.0 0.0 0.0 
-1.880354995225e-04 -1.058285776206e-05 0.0 
-1.058285776206e-05 7.098682672878e-03 0.0 
0.0 0.0 0.0 
1.131246837367e-04 -1.066100142561e-04 0.0 
-1.066100142561e-04 1.450626436288e-03 0.0 
0.0 0.0 0.0 
1.981475297275e-04 2.912736707343e-04 0.0 
2.912736707343e-04 7.210347638484e-03 0.0 
0.0 0.0 0.0 
-1.695244021603e-04 5.157753543694e-05 0.0 
5.157753543694e-05 8.309488357579e-03 0.0 
0.0 0.0 0.0 
1.570282567211e-04 -1.160332993270e-05 0.0 
-1.160332993270e-05 1.734971504872e-03 0.0 
0.0 0.0 0.0 
-1.183549905648e-04 8.446948839772e-05 0.0 
8.446948839772e-05 9.111765426676e-03 0.0 
0.0 0.0 0.0 
-1.000929192247e-04 1.343721012841e-04 0.0 
1.343721012841e-04 9.103866100989e-03 0.0 
0.0 0.0 0.0 
1.722567066444e-04 -8.279631610141e-05 0.0 
-8.279631610141e-05 1.966126952482e-03 0.0 
0.0 0.0 0.0 
-3.344457816736e-04 4.731605968674e-04 0.0 
4.731605968674e-04 4.522069726594e-03 0.0 
0.0 0.0 0.0 
1.848238669298e-04 -9.068610376184e-05 0.0 
-9.068610376184e-05 2.019930760371e-03 0.0 
0.0 0.0 0.0 
2.685070627222e-04 6.475209808985e-05 0.0 
6.475209808985e-05 6.185712134272e-03 0.0 
0.0 0.0 0.0 
3.247636568207e-04 6.435713001193e-05 0.0 
6.435713001193e-05 4.800636985154e-03 0.0 
0.0 0.0 0.0 
-1.516175416243e-04 3.118433238223e-04 0.0 
3.118433238223e-04 9.029534612203e-03 0.0 
0.0 0.0 0.0 
-1.079951876923e-04 1.164634627921e-04 0.0 
1.164634627921e-04 8.931728030891e-03 0.0 
0.0 0.0 0.0 
2.832510274966e-04 7.815762196449e-05 0.0 
7.815762196449e-05 6.001109449243e-03 0.0 
0.0 0.0 0.0 
2.960442540498e-04 1.478925230694e-04 0.0 
1.478925230694e-04 5.990358503081e-03 0.0 
0.0 0.0 0.0 
1.509134348801e-04 -2.433526542410e-05 0.0 
-2.433526542410e-05 1.609619553826e-03 0.0 
0.0 0.0 0.0 
2.771295635327e-04 1.332221708089e-04 0.0 
1.332221708089e-04 6.175181340361e-03 0.0 
0.0 0.0 0.0 
-1.504027284746e-04 1.068992171968e-04 0.0 
1.068992171968e-04 8.302963302973e-03 0.0 
0.0 0.0 0.0 
3.152758324367e-04 -2.284382462817e-06 0.0 
-2.284382462817e-06 4.811017449935e-03 0.0 
0.0 0.0 0.0 
-1.694653697178e-04 1.844152265843e-05 0.0 
1.844152265843e-05 7.939466243490e-03 0.0 
0.0 0.0 0.0 
-1.492700523208e-04 4.801377032669e-05 0.0 
4.801377032669e-05 8.533360137810e-03 0.0 
0.0 0.0 0.0 
1.768775900497e-04 6.043212754867e-04 0.0 
6.043212754867e-04 5.038646961536e-03 0.0 
0.0 0.0 0.0 
-1.148088752272e-04 9.949871634184e-05 0.0 
9.949871634184e-05 8.751080630850e-03 0.0 
0.0 0.0 0.0 
3.163828569834e-04 4.655582523594e-05 0.0 
4.655582523594e-05 3.972178347306e-03 0.0 
0.0 0.0 0.0 
3.182165603310e-04 7.950449689324e-07 0.0 
7.950449689324e-07 4.627414902687e-03 0.0 
0.0 0.0 0.0 
2.748567898958e-04 2.069114828784e-05 0.0 
2.069114828784e-05 2.946702477566e-03 0.0 
0.0 0.0 0.0 
3.157615373952e-04 -1.582948857106e-05 0.0 
-1.582948857106e-05 3.138835746492e-03 0.0 
0.0 0.0 0.0 
-1.529632427387e-04 8.994573919140e-05 0.0 
8.994573919140e-05 8.118818785109e-03 0.0 
0.0 0.0 0.0 
3.681501039976e-04 1.234359873696e-04 0.0 
1.234359873696e-04 4.512883942738e-03 0.0 
0.0 0.0 0.0 
1.996623202341e-04 -8.231876820736e-05 0.0 
-8.231876820736e-05 2.193857399433e-03 0.0 
0.0 0.0 0.0 
5.015035556699e-05 -1.032527295927e-04 0.0 
-1.032527295927e-04 1.062487526762e-03 0.0 
0.0 0.0 0.0 
-1.693156477942e-04 3.413312152781e-05 0.0 
3.413312152781e-05 8.125388268313e-03 0.0 
0.0 0.0 0.0 
2.199513111774e-04 -9.353604241284e-06 0.0 
-9.353604241284e-06 2.182431694403e-03 0.0 
0.0 0.0 0.0 
1.713099702543e-04 3.157449271236e-04 0.0 
3.157449271236e-04 7.545588127979e-03 0.0 
0.0 0.0 0.0 
-1.358272804797e-04 8.750127173758e-05 0.0 
8.750127173758e-05 8.342920432664e-03 0.0 
0.0 0.0 0.0 
2.610909543028e-04 1.632526273361e-04 0.0 
1.632526273361e-04 6.441996866125e-03 0.0 
0.0 0.0 0.0 
5.335474324974e-05 5.547721005035e-04 0.0 
5.547721005035e-04 8.335738493624e-03 0.0 
0.0 0.0 0.0 
3.035060165197e-04 -2.838799984910e-05 0.0 
-2.838799984910e-05 3.779458271481e-03 0.0 
0.0 0.0 0.0 
1.871876380943e-04 -1.219180397716e-05 0.0 
-1.219180397716e-05 1.955140837402e-03 0.0 
0.0 0.0 0.0 
8.902943776934e-05 -2.405628803169e-05 0.0 
-2.405628803169e-05 1.210628907125e-03 0.0 
0.0 0.0 0.0 
2.861058080368e-04 1.242296269920e-04 0.0 
1.242296269920e-04 6.086870997036e-03 0.0 
0.0 0.0 0.0 
-1.563628788479e-04 6.420243191885e-05 0.0 
6.420243191885e-05 7.746221858027e-03 0.0 
0.0 0.0 0.0 
2.598554282440e-05 -2.459563337665e-05 0.0 
-2.459563337665e-05 8.339884081825e-04 0.0 
0.0 0.0 0.0 
2.745068198668e-04 -5.180295746976e-05 0.0 
-5.180295746976e-05 3.006291885383e-03 0.0 
0.0 0.0 0.0 
1.433210234769e-04 -5.727712220510e-05 0.0 
-5.727712220510e-05 1.693049428323e-03 0.0 
0.0 0.0 0.0 
-1.841719075185e-04 2.105137440213e-05 0.0 
2.105137440213e-05 7.714165451803e-03 0.0 
0.0 0.0 0.0 
2.836056565638e-04 -4.698935781357e-05 0.0 
-4.698935781357e-05 3.183290327886e-03 0.0 
0.0 0.0 0.0 
3.319417335343e-04 1.745552824306e-04 0.0 
1.745552824306e-04 5.628303406718e-03 0.0 
0.0 0.0 0.0 
2.569957880159e-04 -5.408271142210e-05 0.0 
-5.408271142210e-05 2.954552655173e-03 0.0 
0.0 0.0 0.0 
-1.162597768692e-04 2.046934504454e-05 0.0 
2.046934504454e-05 8.799366855645e-03 0.0 
0.0 0.0 0.0 
2.622328879456e-04 4.838637691285e-06 0.0 
4.838637691285e-06 2.587361770823e-03 0.0 
0.0 0.0 0.0 
2.880780479801e-04 1.765260936932e-04 0.0 
1.765260936932e-04 6.185386506548e-03 0.0 
0.0 0.0 0.0 
1.716095729372e-04 -9.855420422459e-05 0.0 
-9.855420422459e-05 1.778860733069e-03 0.0 
0.0 0.0 0.0 
3.025941401726e-04 1.379628164551e-04 0.0 
1.379628164551e-04 5.908910689172e-03 0.0 
0.0 0.0 0.0 
3.138413705470e-04 -7.838973315838e-06 0.0 
-7.838973315838e-06 4.396356693316e-03 0.0 
0.0 0.0 0.0 
2.825817242174e-04 1.798869433285e-04 0.0 
1.798869433285e-04 6.257478471712e-03 0.0 
0.0 0.0 0.0 
3.970538644089e-04 3.842876334091e-04 0.0 
3.842876334091e-04 3.182150609103e-03 0.0 
0.0 0.0 0.0 
1.487704453800e-04 7.144186671502e-06 0.0 
7.144186671502e-06 1.676702798589e-03 0.0 
0.0 0.0 0.0 
-1.767352847020e-04 -4.154454588837e-06 0.0 
-4.154454588837e-06 7.333187903972e-03 0.0 
0.0 0.0 0.0 
2.918744380482e-04 3.649639214513e-04 0.0 
3.649639214513e-04 5.982832498791e-03 0.0 
0.0 0.0 0.0 
-2.618586927217e-04 5.064999665817e-04 0.0 
5.064999665817e-04 5.579652633141e-03 0.0 
0.0 0.0 0.0 
-1.682142327336e-04 4.265105740370e-06 0.0 
4.265105740370e-06 7.748184933707e-03 0.0 
0.0 0.0 0.0 
2.192067420375e-04 -7.536479979407e-05 0.0 
-7.536479979407e-05 2.009068442306e-03 0.0 
0.0 0.0 0.0 
-1.859173396438e-04 1.077029374688e-04 0.0 
1.077029374688e-04 7.855793530428e-03 0.0 
0.0 0.0 0.0 
1.194895018726e-04 -6.932500307792e-05 0.0 
-6.932500307792e-05 1.515098020231e-03 0.0 
0.0 0.0 0.0 
2.034801017563e-04 2.221446053292e-04 0.0 
2.221446053292e-04 7.099952055687e-03 0.0 
0.0 0.0 0.0 
2.576301163919e-04 4.107132420876e-04 0.0 
4.107132420876e-04 6.304761057754e-03 0.0 
0.0 0.0 0.0 
8.653804408265e-05 5.464354048493e-04 0.0 
5.464354048493e-04 7.106272952995e-03 0.0 
0.0 0.0 0.0 
-9.568388398606e-05 7.429356425357e-05 0.0 
7.429356425357e-05 9.346857756933e-03 0.0 
0.0 0.0 0.0 
3.594804637912e-04 1.530176248624e-04 0.0 
1.530176248624e-04 4.953519439335e-03 0.0 
0.0 0.0 0.0 
1.375161120005e-04 -1.871875355937e-05 0.0 
-1.871875355937e-05 1.563648880386e-03 0.0 
0.0 0.0 0.0 
3.312314436517e-04 1.661841484844e-04 0.0 
1.661841484844e-04 5.564717985521e-03 0.0 
0.0 0.0 0.0 
1.894059609564e-04 3.396490513877e-04 0.0 
3.396490513877e-04 7.375621439535e-03 0.0 
0.0 0.0 0.0 
3.102292336634e-04 -7.563536490473e-07 0.0 
-7.563536490473e-07 2.661418468191e-03 0.0 
0.0 0.0 0.0 
2.687874984819e-04 1.095476804557e-04 0.0 
1.095476804557e-04 6.268279812914e-03 0.0 
0.0 0.0 0.0 
-1.515371048521e-04 3.061467421148e-05 0.0 
3.061467421148e-05 8.349623678950e-03 0.0 
0.0 0.0 0.0 
3.105147881226e-04 7.837399576456e-05 0.0 
7.837399576456e-05 2.060943373643e-03 0.0 
0.0 0.0 0.0 
3.177321202423e-04 1.517054985570e-04 0.0 
1.517054985570e-04 5.734990987309e-03 0.0 
0.0 0.0 0.0 
-2.098030405557e-04 1.785927476749e-05 0.0 
1.785927476749e-05 7.259539620903e-03 0.0 
0.0 0.0 0.0 
2.017708934032e-04 -6.053901818338e-05 0.0 
-6.053901818338e-05 2.316361395899e-03 0.0 
0.0 0.0 0.0 
2.667890224928e-04 -5.804075292883e-05 0.0 
-5.804075292883e-05 2.830184602680e-03 0.0 
0.0 0.0 0.0 
-2.140856901115e-04 5.113516362779e-04 0.0 
5.113516362779e-04 6.292746883684e-03 0.0 
0.0 0.0 0.0 
3.029053924861e-04 1.952169943111e-04 0.0 
1.952169943111e-04 6.075848120357e-03 0.0 
0.0 0.0 0.0 
-3.530907071108e-04 3.819559525712e-04 0.0 
3.819559525712e-04 5.458792494684e-03 0.0 
0.0 0.0 0.0 
-1.736781887821e-04 5.456698327811e-04 0.0 
5.456698327811e-04 5.979362754424e-03 0.0 
0.0 0.0 0.0 
-1.683015760225e-04 1.080909148579e-04 0.0 
1.080909148579e-04 8.079402833924e-03 0.0 
0.0 0.0 0.0 
-1.684143540288e-04 6.554422605551e-05 0.0 
6.554422605551e-05 7.518574998905e-03 0.0 
0.0 0.0 0.0 
-1.980280098636e-04 8.696637822848e-05 0.0 
8.696637822848e-05 7.446327501207e-03 0.0 
0.0 0.0 0.0 
3.257359294442e-04 5.130842383750e-05 0.0 
5.130842383750e-05 4.383286067341e-03 0.0 
0.0 0.0 0.0 
2.184345017313e-04 3.075838840719e-04 0.0 
3.075838840719e-04 7.050488032361e-03 0.0 
0.0 0.0 0.0 
3.428505861363e-04 1.816355474221e-04 0.0 
1.816355474221e-04 5.398435287199e-03 0.0 
0.0 0.0 0.0 
-1.974251504414e-04 7.548344037935e-06 0.0 
7.548344037935e-06 7.299382460041e-03 0.0 
0.0 0.0 0.0 
-1.763977873167e-04 3.543472702452e-04 0.0 
3.543472702452e-04 9.110661489822e-03 0.0 
0.0 0.0 0.0 
4.225210593378e-05 5.610704613161e-04 0.0 
5.610704613161e-04 7.437174738173e-03 0.0 
0.0 0.0 0.0 
3.218290701925e-04 2.103287488851e-04 0.0 
2.103287488851e-04 5.897653652025e-03 0.0 
0.0 0.0 0.0 
-1.322544380279e-04 1.035627270480e-04 0.0 
1.035627270480e-04 8.526805140363e-03 0.0 
0.0 0.0 0.0 
3.169627357211e-04 -1.800654801689e-05 0.0 
-1.800654801689e-05 3.308122192931e-03 0.0 
0.0 0.0 0.0 
2.926386723812e-04 -4.141036515129e-05 0.0 
-4.141036515129e-05 3.066488598612e-03 0.0 
0.0 0.0 0.0 
1.339253059605e-04 -1.007772630548e-04 0.0 
-1.007772630548e-04 1.621477275082e-03 0.0 
0.0 0.0 0.0 
3.184560044187e-04 2.092312813080e-04 0.0 
2.092312813080e-04 5.847310542662e-03 0.0 
0.0 0.0 0.0 
2.961086560520e-04 -3.790975945256e-05 0.0 
-3.790975945256e-05 3.242979730395e-03 0.0 
0.0 0.0 0.0 
-1.865900458659e-04 3.522188863451e-05 0.0 
3.522188863451e-05 7.899934926384e-03 0.0 
0.0 0.0 0.0 
-2.036750911611e-04 3.485938995588e-05 0.0 
3.485938995588e-05 7.674980413998e-03 0.0 
0.0 0.0 0.0 
2.404284489319e-04 4.880992735511e-04 0.0 
4.880992735511e-04 5.121084223827e-03 0.0 
0.0 0.0 0.0 
2.892065410047e-04 1.403277757048e-05 0.0 
1.403277757048e-05 2.643404727894e-03 0.0 
0.0 0.0 0.0 
2.945062772006e-04 5.909587907182e-04 0.0 
5.909587907182e-04 3.333199910937e-03 0.0 
0.0 0.0 0.0 
2.934960237648e-04 1.705781495966e-05 0.0 
1.705781495966e-05 2.818389226893e-03 0.0 
0.0 0.0 0.0 
3.229962787257e-04 3.645416803570e-05 0.0 
3.645416803570e-05 3.054298328307e-03 0.0 
0.0 0.0 0.0 
1.704821372457e-04 -1.901929653784e-05 0.0 
-1.901929653784e-05 1.782829763949e-03 0.0 
0.0 0.0 0.0 
2.354207484245e-04 3.256186897803e-04 0.0 
3.256186897803e-04 6.891836538378e-03 0.0 
0.0 0.0 0.0 
3.905553726873e-04 1.342221741556e-04 0.0 
1.342221741556e-04 3.800563624452e-03 0.0 
0.0 0.0 0.0 
-1.294272864942e-04 4.285867027291e-05 0.0 
4.285867027291e-05 8.757788428262e-03 0.0 
0.0 0.0 0.0 
4.014591791541e-04 1.789529135382e-04 0.0 
1.789529135382e-04 4.064566961755e-03 0.0 
0.0 0.0 0.0 
3.542125548579e-04 2.426999147778e-04 0.0 
2.426999147778e-04 5.552911869105e-03 0.0 
0.0 0.0 0.0 
3.891146490405e-04 1.912165377004e-04 0.0 
1.912165377004e-04 4.666536382913e-03 0.0 
0.0 0.0 0.0 
-5.199249148113e-05 5.874883781042e-04 0.0 
5.874883781042e-04 5.680474093405e-03 0.0 
0.0 0.0 0.0 
1.545640684104e-04 -9.096039951283e-05 0.0 
-9.096039951283e-05 1.794820474150e-03 0.0 
0.0 0.0 0.0 
2.112000077523e-04 3.529838119922e-04 0.0 
3.529838119922e-04 7.198835419687e-03 0.0 
0.0 0.0 0.0 
1.622201496130e-04 3.323383038245e-04 0.0 
3.323383038245e-04 7.537947927316e-03 0.0 
0.0 0.0 0.0 
-1.922001583962e-04 5.228729384246e-04 0.0 
5.228729384246e-04 7.325096259461e-03 0.0 
0.0 0.0 0.0 
3.498677483784e-04 6.294039577357e-05 0.0 
6.294039577357e-05 3.295433821915e-03 0.0 
0.0 0.0 0.0 
3.756459576403e-04 2.174499988045e-04 0.0 
2.174499988045e-04 5.107566626123e-03 0.0 
0.0 0.0 0.0 
-1.685909262810e-04 9.174189404415e-05 0.0 
9.174189404415e-05 7.893321643496e-03 0.0 
0.0 0.0 0.0 
3.174199484937e-04 -1.742565785064e-05 0.0 
-1.742565785064e-05 3.483530898785e-03 0.0 
0.0 0.0 0.0 
-2.152683641163e-04 5.591674406297e-04 0.0 
5.591674406297e-04 5.266227786853e-03 0.0 
0.0 0.0 0.0 
2.381283288244e-04 -6.815662966216e-05 0.0 
-6.815662966216e-05 2.598774133675e-03 0.0 
0.0 0.0 0.0 
2.641389266964e-04 -3.949112065869e-05 0.0 
-3.949112065869e-05 2.246719626953e-03 0.0 
0.0 0.0 0.0 
3.385477237010e-04 1.210587250155e-05 0.0 
1.210587250155e-05 3.556145627621e-03 0.0 
0.0 0.0 0.0 
2.311300073476e-04 -3.173476776367e-06 0.0 
-3.173476776367e-06 2.357822624582e-03 0.0 
0.0 0.0 0.0 
1.873992162871e-04 -7.276934202521e-05 0.0 
-7.276934202521e-05 2.140293785672e-03 0.0 
0.0 0.0 0.0 
3.606567826955e-04 1.101483847347e-04 0.0 
1.101483847347e-04 4.679130352542e-03 0.0 
0.0 0.0 0.0 
3.391268946609e-04 2.262114026437e-04 0.0 
2.262114026437e-04 5.723443513133e-03 0.0 
0.0 0.0 0.0 
-1.401668366173e-04 5.494115322524e-04 0.0 
5.494115322524e-04 8.365287093877e-03 0.0 
0.0 0.0 0.0 
-1.387759395092e-04 -9.068066316302e-06 0.0 
-9.068066316302e-06 1.742196911891e-04 0.0 
0.0 0.0 0.0 
4.097247702830e-04 2.805387634560e-04 0.0 
2.805387634560e-04 4.027135768748e-03 0.0 
0.0 0.0 0.0 
4.069883287039e-04 1.978906239050e-04 0.0 
1.978906239050e-04 3.901332992682e-03 0.0 
0.0 0.0 0.0 
3.731119393224e-04 9.537803218253e-05 0.0 
9.537803218253e-05 3.543945268176e-03 0.0 
0.0 0.0 0.0 
-1.832602031456e-04 9.016698730088e-05 0.0 
9.016698730088e-05 7.668571600997e-03 0.0 
0.0 0.0 0.0 
3.942991526815e-04 1.636852994910e-04 0.0 
1.636852994910e-04 4.230316196498e-03 0.0 
0.0 0.0 0.0 
2.693146753276e-04 1.146345335143e-05 0.0 
1.146345335143e-05 2.764696723080e-03 0.0 
0.0 0.0 0.0 
3.562538063495e-04 4.988913355468e-05 0.0 
4.988913355468e-05 3.813690620011e-03 0.0 
0.0 0.0 0.0 
-1.218460336883e-04 8.397315626455e-05 0.0 
8.397315626455e-05 8.567767716382e-03 0.0 
0.0 0.0 0.0 
2.448850086620e-04 -5.984712281895e-05 0.0 
-5.984712281895e-05 2.775908138560e-03 0.0 
0.0 0.0 0.0 
5.932900459915e-05 -2.007741617141e-05 0.0 
-2.007741617141e-05 9.860768991441e-04 0.0 
0.0 0.0 0.0 
1.149042668973e-04 -2.432367795492e-05 0.0 
-2.432367795492e-05 1.388506163104e-03 0.0 
0.0 0.0 0.0 
3.179791042522e-04 5.256186173786e-05 0.0 
5.256186173786e-05 2.400668365513e-03 0.0 
0.0 0.0 0.0 
3.219058159059e-04 3.627893996299e-05 0.0 
3.627893996299e-05 2.881868033032e-03 0.0 
0.0 0.0 0.0 
4.085788667849e-04 2.521300790206e-04 0.0 
2.521300790206e-04 4.179828681517e-03 0.0 
0.0 0.0 0.0 
3.684768375654e-04 9.302224846156e-05 0.0 
9.302224846156e-05 4.078875465458e-03 0.0 
0.0 0.0 0.0 
1.515331319419e-04 -1.045984121659e-04 0.0 
-1.045984121659e-04 1.604935039562e-03 0.0 
0.0 0.0 0.0 
1.035104886136e-04 -9.848738113391e-05 0.0 
-9.848738113391e-05 1.399461951502e-03 0.0 
0.0 0.0 0.0 
-2.506797078741e-04 4.642192694104e-05 0.0 
4.642192694104e-05 7.398728245558e-03 0.0 
0.0 0.0 0.0 
2.125428207866e-04 -7.380026346320e-05 0.0 
-7.380026346320e-05 2.368691738839e-03 0.0 
0.0 0.0 0.0 
2.821411584191e-04 3.524973268916e-04 0.0 
3.524973268916e-04 6.581260486910e-03 0.0 
0.0 0.0 0.0 
-1.358862983191e-04 5.601487291069e-04 0.0 
5.601487291069e-04 8.078802436936e-03 0.0 
0.0 0.0 0.0 
-3.227299442179e-04 1.866908268136e-04 0.0 
1.866908268136e-04 7.425398169708e-03 0.0 
0.0 0.0 0.0 
-1.377916169313e-04 1.714476212757e-04 0.0 
1.714476212757e-04 8.840036385372e-03 0.0 
0.0 0.0 0.0 
-1.299438110574e-04 5.396167933404e-04 0.0 
5.396167933404e-04 8.638877139884e-03 0.0 
0.0 0.0 0.0 
1.988322063633e-04 5.284235023254e-04 0.0 
5.284235023254e-04 5.049890510097e-03 0.0 
0.0 0.0 0.0 
-1.647486171525e-04 5.400552625793e-04 0.0 
5.400552625793e-04 7.699675370810e-03 0.0 
0.0 0.0 0.0 
2.030958777615e-04 -7.582158202411e-05 0.0 
-7.582158202411e-05 1.839372768655e-03 0.0 
0.0 0.0 0.0 
3.519526215421e-04 4.214391572290e-05 0.0 
4.214391572290e-05 3.982643898194e-03 0.0 
0.0 0.0 0.0 
4.814713920798e-05 6.532255328070e-04 0.0 
6.532255328070e-04 4.949295173783e-03 0.0 
0.0 0.0 0.0 
3.550495420717e-04 1.722686403261e-04 0.0 
1.722686403261e-04 2.156734379698e-03 0.0 
0.0 0.0 0.0 
1.226078112975e-04 -1.048821395109e-04 0.0 
-1.048821395109e-04 1.446356401958e-03 0.0 
0.0 0.0 0.0 
3.231586602366e-04 3.730130197718e-05 0.0 
3.730130197718e-05 3.231330025707e-03 0.0 
0.0 0.0 0.0 
3.730143191649e-04 1.080399346569e-04 0.0 
1.080399346569e-04 3.917076186507e-03 0.0 
0.0 0.0 0.0 
3.781405071601e-04 1.601310313804e-04 0.0 
1.601310313804e-04 4.194748258729e-03 0.0 
0.0 0.0 0.0 
2.403877781667e-04 3.073559875354e-06 0.0 
3.073559875354e-06 2.533909928392e-03 0.0 
0.0 0.0 0.0 
3.979738639872e-04 2.076435291641e-04 0.0 
2.076435291641e-04 4.499834914344e-03 0.0 
0.0 0.0 0.0 
3.801391421285e-04 1.851421815997e-04 0.0 
1.851421815997e-04 4.043855986557e-03 0.0 
0.0 0.0 0.0 
3.968530100684e-04 3.396269136139e-04 0.0 
3.396269136139e-04 4.325167657852e-03 0.0 
0.0 0.0 0.0 
2.884439359525e-04 -4.379590608224e-05 0.0 
-4.379590608224e-05 2.893956515563e-03 0.0 
0.0 0.0 0.0 
2.046994585014e-04 4.735716963768e-04 0.0 
4.735716963768e-04 6.524456466455e-03 0.0 
0.0 0.0 0.0 
-1.896702032599e-04 5.347283622558e-05 0.0 
5.347283622558e-05 8.085781476629e-03 0.0 
0.0 0.0 0.0 
3.887154422824e-04 3.782421092546e-04 0.0 
3.782421092546e-04 4.190905008721e-03 0.0 
0.0 0.0 0.0 
2.366115360977e-04 3.769840149367e-04 0.0 
3.769840149367e-04 7.039872834142e-03 0.0 
0.0 0.0 0.0 
2.545034031898e-04 -3.284863080159e-05 0.0 
-3.284863080159e-05 2.077935319727e-03 0.0 
0.0 0.0 0.0 
1.719881982565e-04 4.768566983651e-04 0.0 
4.768566983651e-04 7.669693244703e-03 0.0 
0.0 0.0 0.0 
4.043456201843e-04 2.277152635057e-04 0.0 
2.277152635057e-04 4.336505140025e-03 0.0 
0.0 0.0 0.0 
-1.119017987521e-04 5.469649441565e-04 0.0 
5.469649441565e-04 8.938358029967e-03 0.0 
0.0 0.0 0.0 
-3.130769599949e-04 3.518598149062e-04 0.0 
3.518598149062e-04 7.328990005912e-03 0.0 
0.0 0.0 0.0 
2.635958239527e-04 2.132669625284e-05 0.0 
2.132669625284e-05 1.993973161371e-03 0.0 
0.0 0.0 0.0 
-3.201055566956e-04 2.283513205493e-04 0.0 
2.283513205493e-04 7.568769992136e-03 0.0 
0.0 0.0 0.0 
-1.472558875373e-04 2.344532557511e-04 0.0 
2.344532557511e-04 8.951697138737e-03 0.0 
0.0 0.0 0.0 
3.985359044687e-04 2.787076497043e-04 0.0 
2.787076497043e-04 4.619780878462e-03 0.0 
0.0 0.0 0.0 
-8.473625404826e-05 6.506727538076e-04 0.0 
6.506727538076e-04 4.526353612707e-03 0.0 
0.0 0.0 0.0 
-3.119244440790e-04 2.715882890022e-04 0.0 
2.715882890022e-04 7.704556648149e-03 0.0 
0.0 0.0 0.0 
-2.411093885744e-04 5.172471493434e-04 0.0 
5.172471493434e-04 5.931930327387e-03 0.0 
0.0 0.0 0.0 
1.925936314957e-04 -5.066195501670e-06 0.0 
-5.066195501670e-06 1.588423536910e-03 0.0 
0.0 0.0 0.0 
-6.353624490829e-05 2.116760253087e-04 0.0 
2.116760253087e-04 9.633127949767e-03 0.0 
0.0 0.0 0.0 
1.281550259062e-04 -2.169945789487e-05 0.0 
-2.169945789487e-05 1.369555397934e-03 0.0 
0.0 0.0 0.0 
7.472702436129e-05 5.777144689787e-04 0.0 
5.777144689787e-04 8.053819657636e-03 0.0 
0.0 0.0 0.0 
-8.974608964452e-05 1.094253111295e-04 0.0 
1.094253111295e-04 9.152053744879e-03 0.0 
0.0 0.0 0.0 
2.187701006491e-04 4.506096126682e-04 0.0 
4.506096126682e-04 6.633547944144e-03 0.0 
0.0 0.0 0.0 
-1.816926069521e-04 7.840965490981e-05 0.0 
7.840965490981e-05 7.476708483250e-03 0.0 
0.0 0.0 0.0 
-1.666384479100e-04 9.395106317619e-05 0.0 
9.395106317619e-05 8.671486231555e-03 0.0 
0.0 0.0 0.0 
3.742613105968e-04 2.449801791938e-04 0.0 
2.449801791938e-04 4.340694656883e-03 0.0 
0.0 0.0 0.0 
2.222658240016e-04 4.884770042532e-04 0.0 
4.884770042532e-04 5.557485163442e-03 0.0 
0.0 0.0 0.0 
-1.014760850938e-04 1.907505235446e-04 0.0 
1.907505235446e-04 9.231185707921e-03 0.0 
0.0 0.0 0.0 
3.070092416151e-04 2.492503582731e-04 0.0 
2.492503582731e-04 6.173947263885e-03 0.0 
0.0 0.0 0.0 
-1.907224278301e-04 7.468744212695e-05 0.0 
7.468744212695e-05 8.268636717474e-03 0.0 
0.0 0.0 0.0 
3.069626743704e-04 4.193370163976e-04 0.0 
4.193370163976e-04 6.110112880891e-03 0.0 
0.0 0.0 0.0 
2.541601767820e-04 2.794458242584e-05 0.0 
2.794458242584e-05 1.822729191890e-03 0.0 
0.0 0.0 0.0 
-1.901272060653e-04 9.824287665637e-05 0.0 
9.824287665637e-05 8.447479267077e-03 0.0 
0.0 0.0 0.0 
-6.371946989758e-05 6.406664173941e-04 0.0 
6.406664173941e-04 9.179026425772e-03 0.0 
0.0 0.0 0.0 
1.821749512272e-04 4.078522140700e-04 0.0 
4.078522140700e-04 7.520940595018e-03 0.0 
0.0 0.0 0.0 
3.840230477725e-04 1.236144471401e-04 0.0 
1.236144471401e-04 3.970038088732e-03 0.0 
0.0 0.0 0.0 
-1.979036695762e-04 1.793293602164e-05 0.0 
1.793293602164e-05 7.482371096219e-03 0.0 
0.0 0.0 0.0 
-1.942438368142e-04 7.499149705466e-05 0.0 
7.499149705466e-05 7.252941762727e-03 0.0 
0.0 0.0 0.0 
3.738758513034e-04 1.390579909883e-04 0.0 
1.390579909883e-04 4.350295743948e-03 0.0 
0.0 0.0 0.0 
3.251419262096e-04 2.671081498890e-04 0.0 
2.671081498890e-04 6.002501716333e-03 0.0 
0.0 0.0 0.0 
3.061667112623e-04 3.093144690724e-04 0.0 
3.093144690724e-04 6.288038995723e-03 0.0 
0.0 0.0 0.0 
8.459740776479e-05 -1.032294213303e-04 0.0 
-1.032294213303e-04 1.223097649504e-03 0.0 
0.0 0.0 0.0 
3.122152806865e-04 5.878076238648e-04 0.0 
5.878076238648e-04 2.875442486714e-03 0.0 
0.0 0.0 0.0 
3.575517891956e-04 4.375937295691e-04 0.0 
4.375937295691e-04 4.515185557773e-03 0.0 
0.0 0.0 0.0 
3.693228164279e-04 2.795086394033e-04 0.0 
2.795086394033e-04 4.207603341476e-03 0.0 
0.0 0.0 0.0 
-1.457215547320e-04 5.966963473595e-04 0.0 
5.966963473595e-04 5.646680615181e-03 0.0 
0.0 0.0 0.0 
-9.578667776478e-05 1.304032313104e-04 0.0 
1.304032313104e-04 9.456099313268e-03 0.0 
0.0 0.0 0.0 
-1.647014953187e-04 3.588171397206e-04 0.0 
3.588171397206e-04 8.943672812201e-03 0.0 
0.0 0.0 0.0 
-1.024890211723e-04 5.474614932948e-05 0.0 
5.474614932948e-05 9.156351653198e-03 0.0 
0.0 0.0 0.0 
-3.637449293452e-04 3.363294353365e-04 0.0 
3.363294353365e-04 5.727473096083e-03 0.0 
0.0 0.0 0.0 
-1.806689830873e-04 2.078952335699e-04 0.0 
2.078952335699e-04 8.561484639987e-03 0.0 
0.0 0.0 0.0 
3.042757076535e-04 1.926805608081e-04 0.0 
1.926805608081e-04 6.013936210004e-03 0.0 
0.0 0.0 0.0 
-9.375662959699e-05 1.594581224234e-04 0.0 
1.594581224234e-04 9.285827497013e-03 0.0 
0.0 0.0 0.0 
-2.132762772212e-04 1.008221784057e-04 0.0 
1.008221784057e-04 8.222733748580e-03 0.0 
0.0 0.0 0.0 
3.628575635148e-04 8.039788951135e-05 0.0 
8.039788951135e-05 4.243417622472e-03 0.0 
0.0 0.0 0.0 
3.347252578692e-04 4.825655821859e-04 0.0 
4.825655821859e-04 4.404110265774e-03 0.0 
0.0 0.0 0.0 
-1.655773202780e-04 1.505531334474e-04 0.0 
1.505531334474e-04 8.441298957133e-03 0.0 
0.0 0.0 0.0 
-1.356484141474e-04 1.117219931400e-04 0.0 
1.117219931400e-04 9.070644211039e-03 0.0 
0.0 0.0 0.0 
-1.475582096548e-04 1.261346651032e-04 0.0 
1.261346651032e-04 8.485255410839e-03 0.0 
0.0 0.0 0.0 
-1.677483236981e-04 1.281405820454e-04 0.0 
1.281405820454e-04 8.262339258271e-03 0.0 
0.0 0.0 0.0 
2.417398452179e-04 3.154570683491e-04 0.0 
3.154570683491e-04 6.914902173642e-03 0.0 
0.0 0.0 0.0 
5.758837066083e-05 5.780071095494e-04 0.0 
5.780071095494e-04 7.952659146349e-03 0.0 
0.0 0.0 0.0 
2.648022581824e-04 3.331781231872e-04 0.0 
3.331781231872e-04 6.743721975767e-03 0.0 
0.0 0.0 0.0 
3.628083270470e-04 2.020672743233e-04 0.0 
2.020672743233e-04 5.277650617221e-03 0.0 
0.0 0.0 0.0 
-3.362907242848e-04 1.760053373929e-04 0.0 
1.760053373929e-04 5.756707429972e-03 0.0 
0.0 0.0 0.0 
1.767826022823e-04 4.888957178719e-04 0.0 
4.888957178719e-04 6.960014698061e-03 0.0 
0.0 0.0 0.0 
-2.280412792346e-04 2.147043337924e-04 0.0 
2.147043337924e-04 8.109666450724e-03 0.0 
0.0 0.0 0.0 
2.016267073970e-04 -5.233162487938e-06 0.0 
-5.233162487938e-06 2.130005688209e-03 0.0 
0.0 0.0 0.0 
3.477243988903e-04 3.424009838953e-04 0.0 
3.424009838953e-04 4.530583289343e-03 0.0 
0.0 0.0 0.0 
3.522388297328e-04 4.116655383685e-04 0.0 
4.116655383685e-04 5.079555782691e-03 0.0 
0.0 0.0 0.0 
2.031089443182e-04 4.910993120164e-04 0.0 
4.910993120164e-04 5.992424064344e-03 0.0 
0.0 0.0 0.0 
3.872779496989e-04 3.116687080829e-04 0.0 
3.116687080829e-04 2.278417214087e-03 0.0 
0.0 0.0 0.0 
3.312018401322e-04 3.860294383227e-04 0.0 
3.860294383227e-04 4.420400660724e-03 0.0 
0.0 0.0 0.0 
1.823725576036e-04 4.965731305013e-04 0.0 
4.965731305013e-04 6.426681904359e-03 0.0 
0.0 0.0 0.0 
-3.390876252125e-04 2.748696621781e-04 0.0 
2.748696621781e-04 6.238657455997e-03 0.0 
0.0 0.0 0.0 
3.855270679223e-04 1.507756855132e-04 0.0 
1.507756855132e-04 4.400895967762e-03 0.0 
0.0 0.0 0.0 
-2.303603730810e-04 7.611721417687e-05 0.0 
7.611721417687e-05 7.816193773443e-03 0.0 
0.0 0.0 0.0 
-1.946135085782e-04 4.225076209625e-05 0.0 
4.225076209625e-05 6.614258662205e-03 0.0 
0.0 0.0 0.0 
-2.310155107278e-04 6.579383346393e-04 0.0 
6.579383346393e-04 2.001281731442e-03 0.0 
0.0 0.0 0.0 
3.499637481168e-04 1.386783954764e-04 0.0 
1.386783954764e-04 5.119752089278e-03 0.0 
0.0 0.0 0.0 
2.351495373414e-04 4.992754156329e-04 0.0 
4.992754156329e-04 6.740865795698e-03 0.0 
0.0 0.0 0.0 
-1.376241510302e-04 3.500535558749e-04 0.0 
3.500535558749e-04 9.169328715779e-03 0.0 
0.0 0.0 0.0 
2.651891589454e-04 5.315666293888e-04 0.0 
5.315666293888e-04 5.195331085651e-03 0.0 
0.0 0.0 0.0 
3.784030571918e-04 1.771102630499e-04 0.0 
1.771102630499e-04 4.836968349800e-03 0.0 
0.0 0.0 0.0 
-2.095015161101e-04 5.447611869601e-05 0.0 
5.447611869601e-05 7.861879567493e-03 0.0 
0.0 0.0 0.0 
-1.690948148749e-04 3.034134076452e-04 0.0 
3.034134076452e-04 2.992509616029e-03 0.0 
0.0 0.0 0.0 
2.241062418229e-04 5.213312579450e-04 0.0 
5.213312579450e-04 6.622864058206e-03 0.0 
0.0 0.0 0.0 
2.516243687822e-04 4.549366898038e-04 0.0 
4.549366898038e-04 5.647496376159e-03 0.0 
0.0 0.0 0.0 
-3.659438727379e-04 2.429965757853e-04 0.0 
2.429965757853e-04 6.483028196916e-03 0.0 
0.0 0.0 0.0 
2.863188979978e-04 2.362776932253e-04 0.0 
2.362776932253e-04 6.299177124028e-03 0.0 
0.0 0.0 0.0 
2.935215811146e-04 4.680300485230e-05 0.0 
4.680300485230e-05 2.173098493238e-03 0.0 
0.0 0.0 0.0 
2.635283168271e-04 2.804940944229e-04 0.0 
2.804940944229e-04 6.592316017227e-03 0.0 
0.0 0.0 0.0 
2.044746527590e-04 4.232455713882e-04 0.0 
4.232455713882e-04 7.343339573536e-03 0.0 
0.0 0.0 0.0 
2.047688280440e-04 5.427490858742e-04 0.0 
5.427490858742e-04 6.514081190252e-03 0.0 
0.0 0.0 0.0 
-1.689804639069e-04 7.181638395595e-05 0.0 
7.181638395595e-05 8.491822177253e-03 0.0 
0.0 0.0 0.0 
-9.443714380475e-05 5.546423223349e-04 0.0 
5.546423223349e-04 7.865474300440e-03 0.0 
0.0 0.0 0.0 
1.862321612005e-04 3.539004741718e-04 0.0 
3.539004741718e-04 7.352204989651e-03 0.0 
0.0 0.0 0.0 
-2.165728778689e-04 2.030067036760e-04 0.0 
2.030067036760e-04 3.494664269949e-03 0.0 
0.0 0.0 0.0 
-2.113674897075e-04 7.674054182821e-05 0.0 
7.674054182821e-05 8.043990168058e-03 0.0 
0.0 0.0 0.0 
2.110854961268e-06 5.947246916503e-04 0.0 
5.947246916503e-04 8.160896105301e-03 0.0 
0.0 0.0 0.0 
-1.440098857510e-04 1.478060909483e-04 0.0 
1.478060909483e-04 8.665042090730e-03 0.0 
0.0 0.0 0.0 
2.259335758397e-04 5.360614871068e-04 0.0 
5.360614871068e-04 6.075302505739e-03 0.0 
0.0 0.0 0.0 
2.904864770448e-04 4.421672369256e-04 0.0 
4.421672369256e-04 4.766069480400e-03 0.0 
0.0 0.0 0.0 
3.480390428883e-04 9.497964902492e-05 0.0 
9.497964902492e-05 4.679222110533e-03 0.0 
0.0 0.0 0.0 
2.756742059049e-04 2.548744697913e-04 0.0 
2.548744697913e-04 1.258014775667e-03 0.0 
0.0 0.0 0.0 
-1.219264512957e-04 1.433228337032e-04 0.0 
1.433228337032e-04 8.886935219542e-03 0.0 
0.0 0.0 0.0 
2.151494364251e-04 4.689241342532e-06 0.0 
4.689241342532e-06 2.307891299065e-03 0.0 
0.0 0.0 0.0 
-2.592694840201e-04 1.519576138344e-04 0.0 
1.519576138344e-04 3.931167034117e-03 0.0 
0.0 0.0 0.0 
-1.337781126122e-04 5.354079805636e-04 0.0 
5.354079805636e-04 7.783419901336e-03 0.0 
0.0 0.0 0.0 
-7.986226932055e-05 1.289751910589e-04 0.0 
1.289751910589e-04 9.339794480154e-03 0.0 
0.0 0.0 0.0 
2.435057834274e-04 -2.046592458509e-05 0.0 
-2.046592458509e-05 1.915187482165e-03 0.0 
0.0 0.0 0.0 
-2.446216479441e-04 4.781231325194e-04 0.0 
4.781231325194e-04 6.593121762555e-03 0.0 
0.0 0.0 0.0 
-1.864503201057e-04 1.524325308752e-04 0.0 
1.524325308752e-04 8.216725670856e-03 0.0 
0.0 0.0 0.0 
3.485096494467e-04 6.335144623505e-05 0.0 
6.335144623505e-05 4.587726236583e-03 0.0 
0.0 0.0 0.0 
3.236864823934e-04 1.679127227419e-04 0.0 
1.679127227419e-04 2.301495946342e-03 0.0 
0.0 0.0 0.0 
-4.455713199336e-05 7.033841020488e-04 0.0 
7.033841020488e-04 4.127495848417e-03 0.0 
0.0 0.0 0.0 
1.789564426808e-04 -6.039766011770e-06 0.0 
-6.039766011770e-06 1.429473805393e-03 0.0 
0.0 0.0 0.0 
3.049859393480e-04 9.729011677872e-05 0.0 
9.729011677872e-05 1.900358856116e-03 0.0 
0.0 0.0 0.0 
2.411889752294e-04 3.971991294645e-05 0.0 
3.971991294645e-05 1.665014284221e-03 0.0 
0.0 0.0 0.0 
2.459458466424e-04 5.325738736072e-04 0.0 
5.325738736072e-04 5.635961148266e-03 0.0 
0.0 0.0 0.0 
-4.450849102811e-05 2.790146819392e-04 0.0 
2.790146819392e-04 1.003863510879e-02 0.0 
0.0 0.0 0.0 
-2.814301741983e-04 1.218492426910e-04 0.0 
1.218492426910e-04 4.379546832480e-03 0.0 
0.0 0.0 0.0 
2.173285053146e-04 2.925821091943e-04 0.0 
2.925821091943e-04 7.088443536123e-03 0.0 
0.0 0.0 0.0 
2.590024719236e-04 5.820656475911e-04 0.0 
5.820656475911e-04 4.229754743035e-03 0.0 
0.0 0.0 0.0 
-2.360749328658e-04 1.022739490760e-04 0.0 
1.022739490760e-04 7.999333892396e-03 0.0 
0.0 0.0 0.0 
3.441001325470e-04 3.222086903792e-04 0.0 
3.222086903792e-04 1.694701693266e-03 0.0 
0.0 0.0 0.0 
1.467555966654e-04 4.028941584352e-04 0.0 
4.028941584352e-04 7.665490802500e-03 0.0 
0.0 0.0 0.0 
1.881248179347e-04 -7.070992026451e-05 0.0 
-7.070992026451e-05 1.675581033174e-03 0.0 
0.0 0.0 0.0 
2.535024858585e-04 1.363799104050e-05 0.0 
1.363799104050e-05 2.724830192251e-03 0.0 
0.0 0.0 0.0 
1.589706978811e-04 5.708220503289e-04 0.0 
5.708220503289e-04 6.850552128249e-03 0.0 
0.0 0.0 0.0 
3.745379931634e-04 2.144446930572e-04 0.0 
2.144446930572e-04 4.481644602238e-03 0.0 
0.0 0.0 0.0 
3.500671832768e-05 5.788635163643e-04 0.0 
5.788635163643e-04 7.857133950030e-03 0.0 
0.0 0.0 0.0 
-2.402005957375e-04 5.605437041062e-04 0.0 
5.605437041062e-04 4.916658267464e-03 0.0 
0.0 0.0 0.0 
-2.375053285188e-04 1.660187920610e-04 0.0 
1.660187920610e-04 8.342474220236e-03 0.0 
0.0 0.0 0.0 
9.103688685630e-05 6.340282310866e-04 0.0 
6.340282310866e-04 8.045111193193e-03 0.0 
0.0 0.0 0.0 
-1.872425581231e-04 1.292627044499e-04 0.0 
1.292627044499e-04 8.038115663635e-03 0.0 
0.0 0.0 0.0 
-1.698855141938e-04 3.078222312738e-04 0.0 
3.078222312738e-04 9.175846857733e-03 0.0 
0.0 0.0 0.0 
-1.881841317900e-04 1.247312734403e-04 0.0 
1.247312734403e-04 8.621610189537e-03 0.0 
0.0 0.0 0.0 
-1.842605720600e-04 1.538018853892e-04 0.0 
1.538018853892e-04 8.792700443484e-03 0.0 
0.0 0.0 0.0 
2.675954781857e-04 6.585388139378e-04 0.0 
6.585388139378e-04 2.376333235150e-03 0.0 
0.0 0.0 0.0 
2.434885984712e-04 2.503763761433e-04 0.0 
2.503763761433e-04 6.801870247760e-03 0.0 
0.0 0.0 0.0 
-1.844956911420e-04 1.784105296191e-04 0.0 
1.784105296191e-04 8.392177429616e-03 0.0 
0.0 0.0 0.0 
1.110807612297e-04 6.196380882120e-04 0.0 
6.196380882120e-04 5.402854480274e-03 0.0 
0.0 0.0 0.0 
-3.018046996905e-04 1.008487113071e-04 0.0 
1.008487113071e-04 4.824725391639e-03 0.0 
0.0 0.0 0.0 
4.187447448412e-05 6.063507506372e-04 0.0 
6.063507506372e-04 8.365895167809e-03 0.0 
0.0 0.0 0.0 
3.632306868897e-04 4.917131198373e-04 0.0 
4.917131198373e-04 2.489228974653e-03 0.0 
0.0 0.0 0.0 
2.267358235408e-04 -6.647865489815e-05 0.0 
-6.647865489815e-05 2.544044524208e-03 0.0 
0.0 0.0 0.0 
7.768198164038e-05 6.159568183159e-04 0.0 
6.159568183159e-04 7.521870244896e-03 0.0 
0.0 0.0 0.0 
1.223209740189e-04 -3.809207203871e-05 0.0 
-3.809207203871e-05 1.505448174993e-03 0.0 
0.0 0.0 0.0 
-1.084630145674e-04 5.668672123566e-04 0.0 
5.668672123566e-04 6.021088879740e-03 0.0 
0.0 0.0 0.0 
1.809718282588e-04 5.529785912743e-04 0.0 
5.529785912743e-04 6.951438701185e-03 0.0 
0.0 0.0 0.0 
-1.463749196602e-04 1.785147887072e-04 0.0 
1.785147887072e-04 9.172573518152e-03 0.0 
0.0 0.0 0.0 
-1.361243711369e-04 2.136822454866e-04 0.0 
2.136822454866e-04 9.341485472858e-03 0.0 
0.0 0.0 0.0 
1.592492527545e-04 5.060203615623e-04 0.0 
5.060203615623e-04 6.859984344002e-03 0.0 
0.0 0.0 0.0 
-1.622730693432e-04 1.190422687351e-04 0.0 
1.190422687351e-04 8.846369128632e-03 0.0 
0.0 0.0 0.0 
1.889859401851e-04 6.167270405868e-04 0.0 
6.167270405868e-04 4.607107048578e-03 0.0 
0.0 0.0 0.0 
-1.895169261410e-04 4.923179345019e-04 0.0 
4.923179345019e-04 7.995432912606e-03 0.0 
0.0 0.0 0.0 
-3.093439476082e-04 8.743826823343e-05 0.0 
8.743826823343e-05 5.264601322263e-03 0.0 
0.0 0.0 0.0 
-1.497750402530e-04 4.475385555071e-04 0.0 
4.475385555071e-04 8.938625730852e-03 0.0 
0.0 0.0 0.0 
-3.086390596198e-04 8.360675869553e-05 0.0 
8.360675869553e-05 5.701018472483e-03 0.0 
0.0 0.0 0.0 
-2.902629874044e-04 7.779191281394e-05 0.0 
7.779191281394e-05 5.914269524407e-03 0.0 
0.0 0.0 0.0 
2.263026739306e-04 5.688291996876e-04 0.0 
5.688291996876e-04 5.109321893710e-03 0.0 
0.0 0.0 0.0 
-2.964917283198e-04 8.904716339860e-05 0.0 
8.904716339860e-05 6.137129619175e-03 0.0 
0.0 0.0 0.0 
-3.856206327513e-05 5.656385087002e-04 0.0 
5.656385087002e-04 6.450601629923e-03 0.0 
0.0 0.0 0.0 
1.260581906193e-05 5.998306033355e-04 0.0 
5.998306033355e-04 5.325369860242e-03 0.0 
0.0 0.0 0.0 
3.143545727635e-04 3.987819365562e-04 0.0 
3.987819365562e-04 4.863725315438e-03 0.0 
0.0 0.0 0.0 
3.555611467470e-04 2.087286870878e-04 0.0 
2.087286870878e-04 1.988184359748e-03 0.0 
0.0 0.0 0.0 
2.841430327865e-04 5.316533774591e-04 0.0 
5.316533774591e-04 4.752523157162e-03 0.0 
0.0 0.0 0.0 
-1.145509037903e-04 1.662138558380e-04 0.0 
1.662138558380e-04 9.064084647734e-03 0.0 
0.0 0.0 0.0 
-1.409663924310e-04 4.121659687569e-04 0.0 
4.121659687569e-04 9.107727579491e-03 0.0 
0.0 0.0 0.0 
2.867670424349e-04 2.312463330231e-04 0.0 
2.312463330231e-04 6.348454826376e-03 0.0 
0.0 0.0 0.0 
6.947217136721e-05 6.338132325633e-04 0.0 
6.338132325633e-04 7.944285898461e-03 0.0 
0.0 0.0 0.0 
3.996369615700e-04 3.065608559570e-04 0.0 
3.065608559570e-04 4.467111113952e-03 0.0 
0.0 0.0 0.0 
-1.551254428195e-04 2.042599504934e-04 0.0 
2.042599504934e-04 8.786510647496e-03 0.0 
0.0 0.0 0.0 
3.154169501629e-04 4.891451539498e-04 0.0 
4.891451539498e-04 4.850213563712e-03 0.0 
0.0 0.0 0.0 
2.204957467824e-04 2.336128198245e-04 0.0 
2.336128198245e-04 6.982565214996e-03 0.0 
0.0 0.0 0.0 
-1.612496853206e-04 1.755635883158e-04 0.0 
1.755635883158e-04 8.615536488146e-03 0.0 
0.0 0.0 0.0 
-2.115348087565e-04 1.601726196809e-04 0.0 
1.601726196809e-04 8.567537466269e-03 0.0 
0.0 0.0 0.0 
2.497430561281e-04 5.096516844563e-04 0.0 
5.096516844563e-04 6.179428856910e-03 0.0 
0.0 0.0 0.0 
2.421339331653e-04 5.751782795889e-04 0.0 
5.751782795889e-04 4.670833181813e-03 0.0 
0.0 0.0 0.0 
-1.599046667917e-04 5.134593863547e-04 0.0 
5.134593863547e-04 8.367726790677e-03 0.0 
0.0 0.0 0.0 
-2.881001617716e-04 3.748685363507e-04 0.0 
3.748685363507e-04 7.325761321277e-03 0.0 
0.0 0.0 0.0 
2.834354953360e-04 6.961939876841e-05 0.0 
6.961939876841e-05 2.010838737607e-03 0.0 
0.0 0.0 0.0 
3.258647050228e-04 3.429389331889e-04 0.0 
3.429389331889e-04 2.513291973528e-03 0.0 
0.0 0.0 0.0 
-1.836215092276e-04 6.015013656940e-04 0.0 
6.015013656940e-04 4.921303625529e-03 0.0 
0.0 0.0 0.0 
-2.420728465040e-04 4.936905301402e-04 0.0 
4.936905301402e-04 6.590934565115e-03 0.0 
0.0 0.0 0.0 
1.938735450782e-04 2.147265623985e-04 0.0 
2.147265623985e-04 7.171316061515e-03 0.0 
0.0 0.0 0.0 
-2.138789931959e-04 1.287573301574e-04 0.0 
1.287573301574e-04 8.398179213136e-03 0.0 
0.0 0.0 0.0 
2.572228143143e-04 4.885443852127e-04 0.0 
4.885443852127e-04 4.684001732208e-03 0.0 
0.0 0.0 0.0 
-2.414137139153e-04 4.602622680174e-04 0.0 
4.602622680174e-04 7.247896649885e-03 0.0 
0.0 0.0 0.0 
1.958746306461e-04 5.395517936597e-04 0.0 
5.395517936597e-04 7.069889802834e-03 0.0 
0.0 0.0 0.0 
-1.424847803972e-04 8.896905820545e-05 0.0 
8.896905820545e-05 8.893669378977e-03 0.0 
0.0 0.0 0.0 
-1.633006142721e-04 5.118289234275e-04 0.0 
5.118289234275e-04 8.641963917898e-03 0.0 
0.0 0.0 0.0 
-2.262662957636e-04 1.508623134192e-04 0.0 
1.508623134192e-04 7.770847675477e-03 0.0 
0.0 0.0 0.0 
2.301664006341e-04 4.606753323582e-04 0.0 
4.606753323582e-04 7.043312165792e-03 0.0 
0.0 0.0 0.0 
2.718950807030e-04 4.482797040382e-04 0.0 
4.482797040382e-04 5.207834968720e-03 0.0 
0.0 0.0 0.0 
1.853544444832e-04 4.698352459833e-04 0.0 
4.698352459833e-04 7.076346686100e-03 0.0 
0.0 0.0 0.0 
-1.283853068549e-04 5.919195068925e-04 0.0 
5.919195068925e-04 6.017456757706e-03 0.0 
0.0 0.0 0.0 
-1.282132283466e-04 1.408402981532e-04 0.0 
1.408402981532e-04 9.236368702772e-03 0.0 
0.0 0.0 0.0 
-1.482551194075e-04 4.982131119689e-04 0.0 
4.982131119689e-04 8.941376144368e-03 0.0 
0.0 0.0 0.0 
2.730886506956e-04 5.011100884600e-04 0.0 
5.011100884600e-04 5.736634066552e-03 0.0 
0.0 0.0 0.0 
3.777517800612e-04 3.780634276522e-04 0.0 
3.780634276522e-04 2.140501861460e-03 0.0 
0.0 0.0 0.0 
-4.687627155886e-05 6.146630963618e-04 0.0 
6.146630963618e-04 7.939705150595e-03 0.0 
0.0 0.0 0.0 
-9.590149817706e-05 5.586603675984e-04 0.0 
5.586603675984e-04 6.396825439907e-03 0.0 
0.0 0.0 0.0 
2.130975080370e-04 5.363942172221e-04 0.0 
5.363942172221e-04 4.619487360072e-03 0.0 
0.0 0.0 0.0 
2.293693974837e-04 4.629418553467e-04 0.0 
4.629418553467e-04 6.086215321149e-03 0.0 
0.0 0.0 0.0 
2.477266531720e-04 3.437530445365e-04 0.0 
3.437530445365e-04 6.739537974986e-03 0.0 
0.0 0.0 0.0 
3.168827722961e-04 2.219378420182e-04 0.0 
2.219378420182e-04 2.166188760760e-03 0.0 
0.0 0.0 0.0 
2.948078480176e-04 4.944813447333e-04 0.0 
4.944813447333e-04 5.293995343402e-03 0.0 
0.0 0.0 0.0 
-2.795289708798e-04 3.025986193614e-04 0.0 
3.025986193614e-04 7.700249490338e-03 0.0 
0.0 0.0 0.0 
1.837458644420e-04 1.439551844433e-04 0.0 
1.439551844433e-04 7.181270061396e-03 0.0 
0.0 0.0 0.0 
-2.671300191621e-04 3.460108724340e-04 0.0 
3.460108724340e-04 7.827061343447e-03 0.0 
0.0 0.0 0.0 
-8.478508625254e-05 5.972403996853e-04 0.0 
5.972403996853e-04 7.859226767349e-03 0.0 
0.0 0.0 0.0 
-2.866103876004e-04 2.600973704975e-04 0.0 
2.600973704975e-04 7.564442032688e-03 0.0 
0.0 0.0 0.0 
-2.904197143110e-04 1.846325688524e-04 0.0 
1.846325688524e-04 7.267261213702e-03 0.0 
0.0 0.0 0.0 
-2.652739164174e-04 4.210444872786e-04 0.0 
4.210444872786e-04 7.429073612312e-03 0.0 
0.0 0.0 0.0 
1.025322954051e-04 6.124443154745e-04 0.0 
6.124443154745e-04 7.617505957979e-03 0.0 
0.0 0.0 0.0 
2.501838542248e-04 1.998877555026e-04 0.0 
1.998877555026e-04 6.640267048794e-03 0.0 
0.0 0.0 0.0 
-2.073268203707e-04 1.796971216795e-04 0.0 
1.796971216795e-04 8.168537371318e-03 0.0 
0.0 0.0 0.0 
-1.099975692148e-04 2.570258639310e-04 0.0 
2.570258639310e-04 9.335948117868e-03 0.0 
0.0 0.0 0.0 
-2.897523957591e-04 2.201213638884e-04 0.0 
2.201213638884e-04 7.420682047186e-03 0.0 
0.0 0.0 0.0 
2.865883787502e-04 4.844210394210e-04 0.0 
4.844210394210e-04 3.800615472642e-03 0.0 
0.0 0.0 0.0 
-7.894542104714e-05 5.720549270107e-04 0.0 
5.720549270107e-04 8.251966475364e-03 0.0 
0.0 0.0 0.0 
-1.085570994303e-04 1.024313275509e-04 0.0 
1.024313275509e-04 9.292460400500e-03 0.0 
0.0 0.0 0.0 
-1.303892991611e-05 6.264548593176e-04 0.0 
6.264548593176e-04 5.711111971331e-03 0.0 
0.0 0.0 0.0 
-6.667773165803e-05 6.103455082961e-04 0.0 
6.103455082961e-04 6.058706523043e-03 0.0 
0.0 0.0 0.0 
2.726827474424e-04 4.877706656193e-04 0.0 
4.877706656193e-04 4.244429654426e-03 0.0 
0.0 0.0 0.0 
-2.051321786792e-04 2.115931679178e-04 0.0 
2.115931679178e-04 8.336291479384e-03 0.0 
0.0 0.0 0.0 
-3.040869833628e-04 4.418351780091e-04 0.0 
4.418351780091e-04 5.528867707402e-03 0.0 
0.0 0.0 0.0 
-9.583673384883e-07 6.114370660376e-04 0.0 
6.114370660376e-04 6.504104701130e-03 0.0 
0.0 0.0 0.0 
-3.129489278174e-04 4.512365293657e-04 0.0 
4.512365293657e-04 5.527630225871e-03 0.0 
0.0 0.0 0.0 
1.159324920019e-04 5.958025923244e-04 0.0 
5.958025923244e-04 7.187910737283e-03 0.0 
0.0 0.0 0.0 
-6.177643469896e-05 5.981303804411e-04 0.0 
5.981303804411e-04 8.628323586535e-03 0.0 
0.0 0.0 0.0 
3.065548984427e-04 4.346029453203e-04 0.0 
4.346029453203e-04 4.324001000404e-03 0.0 
0.0 0.0 0.0 
1.690264806806e-04 7.211316135387e-05 0.0 
7.211316135387e-05 1.288267572110e-03 0.0 
0.0 0.0 0.0 
-1.217813321149e-04 3.055735480821e-04 0.0 
3.055735480821e-04 9.267073396277e-03 0.0 
0.0 0.0 0.0 
-3.195768714427e-04 3.964877037387e-04 0.0 
3.964877037387e-04 5.808663065499e-03 0.0 
0.0 0.0 0.0 
3.807323555240e-04 3.599434373199e-04 0.0 
3.599434373199e-04 4.766925225643e-03 0.0 
0.0 0.0 0.0 
-2.328871255841e-05 6.411022238068e-04 0.0 
6.411022238068e-04 8.332834865738e-03 0.0 
0.0 0.0 0.0 
-2.385271437888e-04 1.327653150927e-04 0.0 
1.327653150927e-04 8.174226114635e-03 0.0 
0.0 0.0 0.0 
2.689372920146e-04 2.185075946909e-04 0.0 
2.185075946909e-04 6.467538119466e-03 0.0 
0.0 0.0 0.0 
8.416218561469e-05 6.002087783482e-04 0.0 
6.002087783482e-04 4.957062671783e-03 0.0 
0.0 0.0 0.0 
1.724408114809e-04 1.390236824955e-04 0.0 
1.390236824955e-04 9.991362471378e-04 0.0 
0.0 0.0 0.0 
1.532685572581e-04 1.176320839243e-04 0.0 
1.176320839243e-04 7.402078189859e-03 0.0 
0.0 0.0 0.0 
-1.969415801275e-04 5.341159311812e-04 0.0 
5.341159311812e-04 6.654645343347e-03 0.0 
0.0 0.0 0.0 
5.062518676247e-05 5.498121075916e-04 0.0 
5.498121075916e-04 7.008455770180e-03 0.0 
0.0 0.0 0.0 
-1.071517042458e-04 5.868225864797e-04 0.0 
5.868225864797e-04 8.465843326000e-03 0.0 
0.0 0.0 0.0 
-8.387555259670e-06 8.381237925575e-05 0.0 
8.381237925575e-05 6.536731571023e-04 0.0 
0.0 0.0 0.0 
2.881213964858e-04 2.912123789445e-04 0.0 
2.912123789445e-04 6.456176233719e-03 0.0 
0.0 0.0 0.0 
9.630466328736e-05 6.669755610438e-04 0.0 
6.669755610438e-04 3.720002270164e-03 0.0 
0.0 0.0 0.0 
-2.583526329162e-04 1.035733614704e-04 0.0 
1.035733614704e-04 7.776293102135e-03 0.0 
0.0 0.0 0.0 
3.417635797387e-04 8.939266987965e-05 0.0 
8.939266987965e-05 5.023227498042e-03 0.0 
0.0 0.0 0.0 
3.024895469843e-04 5.313008186530e-04 0.0 
5.313008186530e-04 4.308001453202e-03 0.0 
0.0 0.0 0.0 
2.075557908867e-04 1.649184123296e-04 0.0 
1.649184123296e-04 6.993235051081e-03 0.0 
0.0 0.0 0.0 
-5.493514524468e-05 6.051233639548e-04 0.0 
6.051233639548e-04 6.444686520135e-03 0.0 
0.0 0.0 0.0 
3.207607947520e-04 5.300608405028e-04 0.0 
5.300608405028e-04 3.861057523748e-03 0.0 
0.0 0.0 0.0 
-2.217208773927e-04 4.858516659651e-04 0.0 
4.858516659651e-04 6.958064386069e-03 0.0 
0.0 0.0 0.0 
7.175172655582e-05 -3.492000602740e-05 0.0 
-3.492000602740e-05 1.031160166766e-03 0.0 
0.0 0.0 0.0 
-1.754192779757e-04 5.076830833498e-04 0.0 
5.076830833498e-04 7.704146767862e-03 0.0 
0.0 0.0 0.0 
1.133323035916e-04 5.343474591314e-04 0.0 
5.343474591314e-04 7.197125419726e-03 0.0 
0.0 0.0 0.0 
-1.243959590848e-04 4.803376449643e-04 0.0 
4.803376449643e-04 9.151449152705e-03 0.0 
0.0 0.0 0.0 
-1.513724853923e-04 5.235600846335e-04 0.0 
5.235600846335e-04 8.083932208609e-03 0.0 
0.0 0.0 0.0 
3.334242172592e-04 3.811591086521e-04 0.0 
3.811591086521e-04 2.973018778991e-03 0.0 
0.0 0.0 0.0 
2.703721635879e-04 1.610585237932e-04 0.0 
1.610585237932e-04 6.359601080404e-03 0.0 
0.0 0.0 0.0 
-7.391386021682e-05 1.820619286055e-04 0.0 
1.820619286055e-04 9.454059989531e-03 0.0 
0.0 0.0 0.0 
7.204045338050e-06 6.320608388634e-04 0.0 
6.320608388634e-04 8.667266549473e-03 0.0 
0.0 0.0 0.0 
7.084743727748e-05 5.594912687781e-04 0.0 
5.594912687781e-04 7.530338300043e-03 0.0 
0.0 0.0 0.0 
1.467567279758e-04 5.670103180608e-04 0.0 
5.670103180608e-04 4.994086789905e-03 0.0 
0.0 0.0 0.0 
-1.988504941427e-04 4.951647048741e-04 0.0 
4.951647048741e-04 7.328823697212e-03 0.0 
0.0 0.0 0.0 
1.874784190146e-04 1.523320889806e-04 0.0 
1.523320889806e-04 7.078682724274e-03 0.0 
0.0 0.0 0.0 
3.117654399218e-04 -1.589624659008e-05 0.0 
-1.589624659008e-05 4.571718104989e-03 0.0 
0.0 0.0 0.0 
-1.247321012791e-04 5.702579611622e-04 0.0 
5.702579611622e-04 7.778381570944e-03 0.0 
0.0 0.0 0.0 
-2.066802560221e-04 1.522524278823e-04 0.0 
1.522524278823e-04 7.993563470239e-03 0.0 
0.0 0.0 0.0 
2.303575547111e-04 1.834345300468e-04 0.0 
1.834345300468e-04 6.812221760118e-03 0.0 
0.0 0.0 0.0 
2.460533624773e-04 2.636873129745e-04 0.0 
2.636873129745e-04 6.754588839078e-03 0.0 
0.0 0.0 0.0 
-1.746904539413e-04 -3.163617874239e-08 0.0 
-3.163617874239e-08 6.321993745771e-03 0.0 
0.0 0.0 0.0 
-1.710885746614e-04 5.864595455664e-06 0.0 
5.864595455664e-06 6.318801744177e-03 0.0 
0.0 0.0 0.0 
-2.967728082015e-04 2.598852427112e-04 0.0 
2.598852427112e-04 7.946314693035e-03 0.0 
0.0 0.0 0.0 
-1.498265844203e-04 5.550911520900e-04 0.0 
5.550911520900e-04 7.398953889102e-03 0.0 
0.0 0.0 0.0 
3.308820320960e-04 8.077094148372e-05 0.0 
8.077094148372e-05 5.199334649423e-03 0.0 
0.0 0.0 0.0 
-2.859641049565e-04 3.768259319585e-04 0.0 
3.768259319585e-04 7.695191741027e-03 0.0 
0.0 0.0 0.0 
-6.757597056817e-06 6.159159438210e-04 0.0 
6.159159438210e-04 6.105093240858e-03 0.0 
0.0 0.0 0.0 
1.507439085120e-04 5.304694493883e-04 0.0 
5.304694493883e-04 7.623698658518e-03 0.0 
0.0 0.0 0.0 
1.174700713182e-04 6.338446503715e-04 0.0 
6.338446503715e-04 4.984260132956e-03 0.0 
0.0 0.0 0.0 
-4.710115766260e-05 2.413598010462e-04 0.0 
2.413598010462e-04 1.005090931306e-02 0.0 
0.0 0.0 0.0 
-2.916514564598e-04 1.461995606425e-04 0.0 
1.461995606425e-04 6.884427840457e-03 0.0 
0.0 0.0 0.0 
-4.484056488097e-05 5.741456948257e-04 0.0 
5.741456948257e-04 6.064105811249e-03 0.0 
0.0 0.0 0.0 
3.660737221625e-04 1.645413279289e-04 0.0 
1.645413279289e-04 5.010950649621e-03 0.0 
0.0 0.0 0.0 
3.032225450048e-04 4.568848911110e-04 0.0 
4.568848911110e-04 2.895954231037e-03 0.0 
0.0 0.0 0.0 
3.561380385717e-04 7.105241733360e-05 0.0 
7.105241733360e-05 4.413422191266e-03 0.0 
0.0 0.0 0.0 
-1.737865946186e-04 5.435632090292e-04 0.0 
5.435632090292e-04 7.024118666370e-03 0.0 
0.0 0.0 0.0 
-2.566274653774e-04 4.659587659594e-04 0.0 
4.659587659594e-04 6.879646252211e-03 0.0 
0.0 0.0 0.0 
-2.292525312165e-04 1.808901504901e-04 0.0 
1.808901504901e-04 7.944854749821e-03 0.0 
0.0 0.0 0.0 
-2.352662952144e-04 4.484825010358e-04 0.0 
4.484825010358e-04 7.796219841842e-03 0.0 
0.0 0.0 0.0 
-2.552990047604e-04 4.020631522708e-04 0.0 
4.020631522708e-04 8.061182229766e-03 0.0 
0.0 0.0 0.0 
6.473176074762e-05 -3.618553966244e-05 0.0 
-3.618553966244e-05 1.083438316187e-03 0.0 
0.0 0.0 0.0 
3.762439137918e-04 1.151110949232e-04 0.0 
1.151110949232e-04 4.144388457326e-03 0.0 
0.0 0.0 0.0 
-3.347519609818e-04 4.031044163651e-04 0.0 
4.031044163651e-04 5.807943095545e-03 0.0 
0.0 0.0 0.0 
-2.801116581570e-04 3.582764648421e-04 0.0 
3.582764648421e-04 7.578444252555e-03 0.0 
0.0 0.0 0.0 
-2.990500111913e-04 3.176218156255e-04 0.0 
3.176218156255e-04 7.833017328723e-03 0.0 
0.0 0.0 0.0 
1.179824715642e-04 5.988354813216e-04 0.0 
5.988354813216e-04 7.705303009208e-03 0.0 
0.0 0.0 0.0 
1.411530726798e-04 3.433137087500e-05 0.0 
3.433137087500e-05 1.691276636194e-03 0.0 
0.0 0.0 0.0 
2.784574257693e-04 1.092776970208e-04 0.0 
1.092776970208e-04 1.861770358617e-03 0.0 
0.0 0.0 0.0 
-1.674369047896e-04 5.627567731530e-04 0.0 
5.627567731530e-04 6.343055719124e-03 0.0 
0.0 0.0 0.0 
3.467916490587e-04 3.657712195731e-05 0.0 
3.657712195731e-05 4.156396649433e-03 0.0 
0.0 0.0 0.0 
-3.276052111441e-04 5.018771291140e-05 0.0 
5.018771291140e-05 5.920346425653e-03 0.0 
0.0 0.0 0.0 
-3.193199760037e-04 5.458690196018e-05 0.0 
5.458690196018e-05 6.142024977450e-03 0.0 
0.0 0.0 0.0 
-2.609422715704e-04 1.374058631151e-04 0.0 
1.374058631151e-04 7.950063245897e-03 0.0 
0.0 0.0 0.0 
1.895293381491e-04 6.167169091748e-04 0.0 
6.167169091748e-04 2.416638323447e-03 0.0 
0.0 0.0 0.0 
3.642443532119e-04 1.307738829621e-04 0.0 
1.307738829621e-04 4.753271101130e-03 0.0 
0.0 0.0 0.0 
2.235977239484e-04 4.304530604415e-04 0.0 
4.304530604415e-04 6.751376492957e-03 0.0 
0.0 0.0 0.0 
3.546582142733e-04 2.622316714399e-04 0.0 
2.622316714399e-04 1.828072297902e-03 0.0 
0.0 0.0 0.0 
-3.481670871575e-05 6.158219362856e-04 0.0 
6.158219362856e-04 9.135037394393e-03 0.0 
0.0 0.0 0.0 
-1.557226800333e-04 1.492158646816e-04 0.0 
1.492158646816e-04 9.009850094676e-03 0.0 
0.0 0.0 0.0 
3.354100736734e-04 2.913884373892e-05 0.0 
2.913884373892e-05 4.511381437504e-03 0.0 
0.0 0.0 0.0 
2.655578737021e-04 2.146418724696e-04 0.0 
2.146418724696e-04 6.527571114002e-03 0.0 
0.0 0.0 0.0 
6.248769615147e-05 -3.582611249923e-05 0.0 
-3.582611249923e-05 7.410896410232e-04 0.0 
0.0 0.0 0.0 
2.589008331695e-04 3.847668837222e-04 0.0 
3.847668837222e-04 6.434269633475e-03 0.0 
0.0 0.0 0.0 
-1.933962316801e-04 5.130063829667e-04 0.0 
5.130063829667e-04 6.657712015723e-03 0.0 
0.0 0.0 0.0 
6.904146526199e-05 -2.605835492972e-05 0.0 
-2.605835492972e-05 7.344453383471e-04 0.0 
0.0 0.0 0.0 
-1.293695348271e-04 1.966861081294e-04 0.0 
1.966861081294e-04 9.005571194760e-03 0.0 
0.0 0.0 0.0 
2.546726686519e-04 1.544446074183e-04 0.0 
1.544446074183e-04 1.722811010142e-03 0.0 
0.0 0.0 0.0 
-3.084727744028e-04 3.329173124761e-04 0.0 
3.329173124761e-04 7.582484066447e-03 0.0 
0.0 0.0 0.0 
-2.661101171634e-04 4.475598707992e-04 0.0 
4.475598707992e-04 6.882167613447e-03 0.0 
0.0 0.0 0.0 
3.574946978826e-04 3.033017190535e-04 0.0 
3.033017190535e-04 4.650583214330e-03 0.0 
0.0 0.0 0.0 
3.601443079000e-04 3.282519910110e-04 0.0 
3.282519910110e-04 5.510718594980e-03 0.0 
0.0 0.0 0.0 
-1.225105361883e-04 2.254493956064e-04 0.0 
2.254493956064e-04 9.169663028170e-03 0.0 
0.0 0.0 0.0 
3.317468266457e-04 3.515446683485e-04 0.0 
3.515446683485e-04 5.964094378144e-03 0.0 
0.0 0.0 0.0 
-1.117041648241e-04 5.886092619923e-04 0.0 
5.886092619923e-04 6.392379245941e-03 0.0 
0.0 0.0 0.0 
-1.557985462516e-04 5.405142822784e-04 0.0 
5.405142822784e-04 6.346269643793e-03 0.0 
0.0 0.0 0.0 
-2.767723489459e-04 7.058571474972e-04 0.0 
7.058571474972e-04 1.360372289574e-03 0.0 
0.0 0.0 0.0 
2.858040712508e-04 1.984866575678e-04 0.0 
1.984866575678e-04 1.412311346690e-03 0.0 
0.0 0.0 0.0 
-1.136445979448e-04 5.532973990233e-04 0.0 
5.532973990233e-04 8.162283778875e-03 0.0 
0.0 0.0 0.0 
-3.036021063657e-04 1.402657596582e-04 0.0 
1.402657596582e-04 7.498392736695e-03 0.0 
0.0 0.0 0.0 
-6.525376025834e-05 6.170209528310e-04 0.0 
6.170209528310e-04 8.243692918412e-03 0.0 
0.0 0.0 0.0 
5.192843261081e-05 7.280479584584e-04 0.0 
7.280479584584e-04 3.711007133772e-03 0.0 
0.0 0.0 0.0 
-2.046564029144e-04 3.268634815192e-04 0.0 
3.268634815192e-04 8.565035858420e-03 0.0 
0.0 0.0 0.0 
-1.263748083129e-04 5.468342467951e-04 0.0 
5.468342467951e-04 8.468781799429e-03 0.0 
0.0 0.0 0.0 
-3.019351707735e-04 1.154025165277e-04 0.0 
1.154025165277e-04 6.288622588287e-03 0.0 
0.0 0.0 0.0 
-9.975140360319e-05 5.862229182642e-04 0.0 
5.862229182642e-04 8.156440458908e-03 0.0 
0.0 0.0 0.0 
2.508856661412e-04 1.450054262436e-04 0.0 
1.450054262436e-04 6.538677791085e-03 0.0 
0.0 0.0 0.0 
-1.266739274020e-04 5.718330094217e-04 0.0 
5.718330094217e-04 7.089611758885e-03 0.0 
0.0 0.0 0.0 
3.754934137064e-04 1.404490869608e-04 0.0 
1.404490869608e-04 4.575779429188e-03 0.0 
0.0 0.0 0.0 
3.516684005449e-04 9.880981444992e-05 0.0 
9.880981444992e-05 4.849090196932e-03 0.0 
0.0 0.0 0.0 
-1.556906611522e-04 2.595874950493e-04 0.0 
2.595874950493e-04 9.281818557887e-03 0.0 
0.0 0.0 0.0 
3.825207427310e-04 3.041955949376e-04 0.0 
3.041955949376e-04 5.063046983920e-03 0.0 
0.0 0.0 0.0 
-2.177379582070e-04 5.079799932057e-04 0.0 
5.079799932057e-04 6.955023501372e-03 0.0 
0.0 0.0 0.0 
1.055584831104e-04 6.099797019948e-04 0.0 
6.099797019948e-04 5.823071212976e-03 0.0 
0.0 0.0 0.0 
2.949041936915e-04 3.737673405644e-04 0.0 
3.737673405644e-04 6.422684547605e-03 0.0 
0.0 0.0 0.0 
1.422697448894e-05 5.829301379989e-04 0.0 
5.829301379989e-04 5.717315929431e-03 0.0 
0.0 0.0 0.0 
3.805685684786e-04 4.443814834677e-04 0.0 
4.443814834677e-04 3.056853499049e-03 0.0 
0.0 0.0 0.0 
3.160000023210e-04 4.594914709383e-04 0.0 
4.594914709383e-04 5.403740124171e-03 0.0 
0.0 0.0 0.0 
3.381206859128e-04 5.248095386687e-04 0.0 
5.248095386687e-04 3.409409149430e-03 0.0 
0.0 0.0 0.0 
-2.607069927607e-04 4.049372982191e-04 0.0 
4.049372982191e-04 7.691054960165e-03 0.0 
0.0 0.0 0.0 
3.302027772749e-04 4.067273190168e-04 0.0 
4.067273190168e-04 3.427799197593e-03 0.0 
0.0 0.0 0.0 
-2.864580294709e-04 3.969010211763e-04 0.0 
3.969010211763e-04 7.432449801940e-03 0.0 
0.0 0.0 0.0 
9.063171745671e-05 5.518708816887e-04 0.0 
5.518708816887e-04 7.626895992088e-03 0.0 
0.0 0.0 0.0 
1.393908017000e-04 5.828536656966e-04 0.0 
5.828536656966e-04 7.283357825939e-03 0.0 
0.0 0.0 0.0 
4.901326968532e-05 6.359277608338e-04 0.0 
6.359277608338e-04 5.353156609063e-03 0.0 
0.0 0.0 0.0 
-2.474029723454e-04 1.820474228852e-04 0.0 
1.820474228852e-04 7.719083085428e-03 0.0 
0.0 0.0 0.0 
2.420425826191e-04 1.966345514100e-04 0.0 
1.966345514100e-04 6.710781924783e-03 0.0 
0.0 0.0 0.0 
2.303396444394e-04 1.277498002036e-04 0.0 
1.277498002036e-04 6.721921750395e-03 0.0 
0.0 0.0 0.0 
1.600528245373e-04 5.758203137313e-04 0.0 
5.758203137313e-04 1.979283519513e-03 0.0 
0.0 0.0 0.0 
-2.362279536049e-04 4.649596928525e-04 0.0 
4.649596928525e-04 7.524130359624e-03 0.0 
0.0 0.0 0.0 
1.655198895616e-04 2.004455853721e-04 0.0 
2.004455853721e-04 7.383092376049e-03 0.0 
0.0 0.0 0.0 
-3.352851786449e-04 2.418439111791e-04 0.0 
2.418439111791e-04 5.030938233299e-03 0.0 
0.0 0.0 0.0 
3.310991052226e-04 5.072037535713e-05 0.0 
5.072037535713e-05 4.940902667042e-03 0.0 
0.0 0.0 0.0 
-3.335336917891e-04 5.963658796070e-04 0.0 
5.963658796070e-04 1.998670631100e-03 0.0 
0.0 0.0 0.0 
2.175496261405e-04 1.771071976911e-04 0.0 
1.771071976911e-04 6.896636338107e-03 0.0 
0.0 0.0 0.0 
3.534189713346e-04 5.129401527186e-04 0.0 
5.129401527186e-04 2.952559773283e-03 0.0 
0.0 0.0 0.0 
3.179394043398e-04 3.657977002039e-05 0.0 
3.657977002039e-05 4.705015417046e-03 0.0 
0.0 0.0 0.0 
5.025931534974e-05 6.135951554960e-04 0.0 
6.135951554960e-04 7.000840835156e-03 0.0 
0.0 0.0 0.0 
-2.824720393869e-04 1.395846409279e-04 0.0 
1.395846409279e-04 7.724745011764e-03 0.0 
0.0 0.0 0.0 
-2.666594947089e-04 1.818800332071e-04 0.0 
1.818800332071e-04 7.492817005534e-03 0.0 
0.0 0.0 0.0 
-1.472992662608e-04 5.660872298326e-04 0.0 
5.660872298326e-04 6.714093826099e-03 0.0 
0.0 0.0 0.0 
-3.345279421972e-04 6.192671180098e-05 0.0 
6.192671180098e-05 5.481250943474e-03 0.0 
0.0 0.0 0.0 
-3.292941381760e-04 6.257446516038e-05 0.0 
6.257446516038e-05 5.704470067817e-03 0.0 
0.0 0.0 0.0 
2.088640423765e-04 1.097797294568e-04 0.0 
1.097797294568e-04 6.907746331365e-03 0.0 
0.0 0.0 0.0 
3.173763533808e-04 2.909883748584e-04 0.0 
2.909883748584e-04 5.817726556209e-03 0.0 
0.0 0.0 0.0 
3.408072058535e-04 3.250463800366e-04 0.0 
3.250463800366e-04 5.093927609199e-03 0.0 
0.0 0.0 0.0 
2.729161114401e-04 4.627766528582e-04 0.0 
4.627766528582e-04 6.424494637171e-03 0.0 
0.0 0.0 0.0 
3.376259375292e-04 4.488027167917e-04 0.0 
4.488027167917e-04 4.960566323233e-03 0.0 
0.0 0.0 0.0 
2.979005282457e-04 4.754989386706e-04 0.0 
4.754989386706e-04 3.351279065315e-03 0.0 
0.0 0.0 0.0 
-2.953207914290e-04 7.701181978985e-05 0.0 
7.701181978985e-05 5.477292328349e-03 0.0 
0.0 0.0 0.0 
-3.150105179143e-04 1.134325408033e-04 0.0 
1.134325408033e-04 7.112100493471e-03 0.0 
0.0 0.0 0.0 
-1.755477455905e-04 1.951426157987e-06 0.0 
1.951426157987e-06 6.324718713147e-03 0.0 
0.0 0.0 0.0 
1.326619322883e-04 5.220483563328e-04 0.0 
5.220483563328e-04 7.292004405515e-03 0.0 
0.0 0.0 0.0 
7.901974796498e-05 5.816961945068e-04 0.0 
5.816961945068e-04 5.360858394449e-03 0.0 
0.0 0.0 0.0 
6.494541991708e-05 6.592446646626e-04 0.0 
6.592446646626e-04 8.355226234741e-03 0.0 
0.0 0.0 0.0 
2.138135205485e-04 8.567800529711e-05 0.0 
8.567800529711e-05 6.771042525219e-03 0.0 
0.0 0.0 0.0 
2.949285319118e-04 4.110291185947e-04 0.0 
4.110291185947e-04 5.307143369612e-03 0.0 
0.0 0.0 0.0 
1.163372080353e-04 1.570600479862e-04 0.0 
1.570600479862e-04 7.669388441630e-03 0.0 
0.0 0.0 0.0 
3.516618754551e-04 3.463994707808e-04 0.0 
3.463994707808e-04 3.528847409105e-03 0.0 
0.0 0.0 0.0 
3.988045432290e-05 6.535745339225e-04 0.0 
6.535745339225e-04 8.252350923139e-03 0.0 
0.0 0.0 0.0 
-1.391422309333e-04 5.381052579280e-04 0.0 
5.381052579280e-04 6.718257958514e-03 0.0 
0.0 0.0 0.0 
-7.895046138151e-05 5.916913763953e-04 0.0 
5.916913763953e-04 7.153327452628e-03 0.0 
0.0 0.0 0.0 
1.797713706591e-04 4.366539802578e-04 0.0 
4.366539802578e-04 7.357100571047e-03 0.0 
0.0 0.0 0.0 
3.401234085672e-04 1.849012312170e-05 0.0 
1.849012312170e-05 3.390688499558e-03 0.0 
0.0 0.0 0.0 
-2.307632195639e-04 4.854952724031e-04 0.0 
4.854952724031e-04 7.244984410868e-03 0.0 
0.0 0.0 0.0 
3.310164162567e-04 3.602717993221e-04 0.0 
3.602717993221e-04 4.974090109879e-03 0.0 
0.0 0.0 0.0 
-2.798031807311e-04 4.206019482745e-04 0.0 
4.206019482745e-04 7.160377347516e-03 0.0 
0.0 0.0 0.0 
2.352389416371e-06 6.716775206624e-04 0.0 
6.716775206624e-04 4.131880761514e-03 0.0 
0.0 0.0 0.0 
-3.118262220259e-05 6.106866033684e-04 0.0 
6.106866033684e-04 7.230133536348e-03 0.0 
0.0 0.0 0.0 
3.724132960683e-04 3.963324668621e-04 0.0 
3.963324668621e-04 4.635618287474e-03 0.0 
0.0 0.0 0.0 
3.524021175076e-04 1.529666861276e-04 0.0 
1.529666861276e-04 5.187206817923e-03 0.0 
0.0 0.0 0.0 
-2.642877158032e-04 4.409878474555e-04 0.0 
4.409878474555e-04 7.157584524028e-03 0.0 
0.0 0.0 0.0 
-1.154878373448e-04 4.199642383068e-04 0.0 
4.199642383068e-04 1.092922507573e-03 0.0 
0.0 0.0 0.0 
1.002463420743e-04 6.047981183663e-04 0.0 
6.047981183663e-04 6.246127604969e-03 0.0 
0.0 0.0 0.0 
-1.205282039928e-04 7.035829471824e-04 0.0 
7.035829471824e-04 2.283382460007e-03 0.0 
0.0 0.0 0.0 
8.050115244873e-05 -1.568417295236e-05 0.0 
-1.568417295236e-05 1.173276843502e-03 0.0 
0.0 0.0 0.0 
3.520221763846e-04 1.213339717435e-04 0.0 
1.213339717435e-04 4.928375512917e-03 0.0 
0.0 0.0 0.0 
-1.948104107602e-04 4.781766796387e-04 0.0 
4.781766796387e-04 8.274707560992e-03 0.0 
0.0 0.0 0.0 
-2.690941417892e-04 2.158331333089e-04 0.0 
2.158331333089e-04 7.645653086831e-03 0.0 
0.0 0.0 0.0 
-3.329060656775e-04 8.386135438453e-05 0.0 
8.386135438453e-05 5.040361756650e-03 0.0 
0.0 0.0 0.0 
0.0 2.556844660882e-04 0.0 
2.556844660882e-04 1.005036285820e-02 0.0 
0.0 0.0 0.0 
-3.595072194982e-04 6.651833057746e-04 0.0 
6.651833057746e-04 7.562186751919e-04 0.0 
0.0 0.0 0.0 
-3.311214578479e-04 8.140139193391e-05 0.0 
8.140139193391e-05 5.265750996297e-03 0.0 
0.0 0.0 0.0 
3.601575173460e-04 3.781017813529e-04 0.0 
3.781017813529e-04 5.208116617314e-03 0.0 
0.0 0.0 0.0 
3.282144284877e-04 2.491941983214e-05 0.0 
2.491941983214e-05 4.690804432026e-03 0.0 
0.0 0.0 0.0 
-3.653823909400e-04 1.569848929742e-04 0.0 
1.569848929742e-04 5.986844683561e-03 0.0 
0.0 0.0 0.0 
4.112482926435e-04 2.881967888739e-04 0.0 
2.881967888739e-04 3.453525834336e-03 0.0 
0.0 0.0 0.0 
3.428699059853e-04 2.668496131046e-04 0.0 
2.668496131046e-04 5.365345422140e-03 0.0 
0.0 0.0 0.0 
-1.735182535243e-04 5.166118239111e-04 0.0 
5.166118239111e-04 7.028154638091e-03 0.0 
0.0 0.0 0.0 
9.372566740562e-05 6.038694067907e-04 0.0 
6.038694067907e-04 6.672313908604e-03 0.0 
0.0 0.0 0.0 
-1.719749569190e-04 4.585775889646e-04 0.0 
4.585775889646e-04 8.686122375257e-03 0.0 
0.0 0.0 0.0 
2.745599718768e-04 6.367270913288e-04 0.0 
6.367270913288e-04 1.918431668453e-03 0.0 
0.0 0.0 0.0 
3.580860818408e-04 1.013062253947e-04 0.0 
1.013062253947e-04 4.500086923744e-03 0.0 
0.0 0.0 0.0 
3.374207709934e-04 8.884533057031e-05 0.0 
8.884533057031e-05 4.861182660152e-03 0.0 
0.0 0.0 0.0 
2.504055583510e-04 -7.069591015598e-05 0.0 
-7.069591015598e-05 2.480801823329e-03 0.0 
0.0 0.0 0.0 
-2.973499076574e-04 1.226157380306e-04 0.0 
1.226157380306e-04 6.509354072963e-03 0.0 
0.0 0.0 0.0 
-3.048894502412e-04 1.786590919124e-04 0.0 
1.786590919124e-04 7.651040731583e-03 0.0 
0.0 0.0 0.0 
2.615393986285e-04 -1.523970346744e-05 0.0 
-1.523970346744e-05 6.099390663288e-03 0.0 
0.0 0.0 0.0 
3.100571900649e-05 -2.777150790411e-05 0.0 
-2.777150790411e-05 7.440000721053e-04 0.0 
0.0 0.0 0.0 
-1.621516763268e-04 -8.107228389452e-05 0.0 
-8.107228389452e-05 5.142516531720e-04 0.0 
0.0 0.0 0.0 
1.473007074053e-04 -1.029829635561e-04 0.0 
-1.029829635561e-04 1.691048486378e-03 0.0 
0.0 0.0 0.0 
3.211499688758e-04 2.045391000737e-05 0.0 
2.045391000737e-05 4.872466522847e-03 0.0 
0.0 0.0 0.0 
3.440624427034e-04 3.694780545883e-04 0.0 
3.694780545883e-04 3.976544548777e-03 0.0 
0.0 0.0 0.0 
3.731684653214e-04 2.191094432135e-04 0.0 
2.191094432135e-04 3.331825010978e-03 0.0 
0.0 0.0 0.0 
3.528129002226e-04 3.158214267926e-04 0.0 
3.158214267926e-04 3.076230733536e-03 0.0 
0.0 0.0 0.0 
3.390664032146e-04 1.127497100753e-04 0.0 
1.127497100753e-04 5.107660540584e-03 0.0 
0.0 0.0 0.0 
-2.603047074999e-04 2.956042301359e-04 0.0 
2.956042301359e-04 7.939008528611e-03 0.0 
0.0 0.0 0.0 
3.263317660405e-04 8.189657424422e-05 0.0 
8.189657424422e-05 5.044760299635e-03 0.0 
0.0 0.0 0.0 
3.523147034870e-04 4.745830843264e-04 0.0 
4.745830843264e-04 3.959315026778e-03 0.0 
0.0 0.0 0.0 
-2.540557707460e-04 4.372202327280e-04 0.0 
4.372202327280e-04 7.527815733951e-03 0.0 
0.0 0.0 0.0 
-2.244849889379e-04 7.815802738584e-05 0.0 
7.815802738584e-05 6.989295327493e-03 0.0 
0.0 0.0 0.0 
4.851234819325e-05 6.193710710956e-04 0.0 
6.193710710956e-04 7.429992816833e-03 0.0 
0.0 0.0 0.0 
3.138138338137e-04 1.441446434306e-05 0.0 
1.441446434306e-05 5.056131744282e-03 0.0 
0.0 0.0 0.0 
3.213038531236e-04 4.388077665978e-05 0.0 
4.388077665978e-05 5.119865400771e-03 0.0 
0.0 0.0 0.0 
-3.284562554792e-04 1.163324552332e-04 0.0 
1.163324552332e-04 4.594215371414e-03 0.0 
0.0 0.0 0.0 
3.599285151275e-04 3.219213611623e-04 0.0 
3.219213611623e-04 4.087733762778e-03 0.0 
0.0 0.0 0.0 
3.152008426235e-04 7.270874335183e-05 0.0 
7.270874335183e-05 5.227759848308e-03 0.0 
0.0 0.0 0.0 
-1.435521740583e-04 3.117267005255e-05 0.0 
3.117267005255e-05 7.839909084170e-03 0.0 
0.0 0.0 0.0 
-1.572266385488e-04 3.129551522590e-05 0.0 
3.129551522590e-05 7.455027034934e-03 0.0 
0.0 0.0 0.0 
-3.282542460656e-04 1.062038751019e-04 0.0 
1.062038751019e-04 4.823951579276e-03 0.0 
0.0 0.0 0.0 
3.256647450671e-04 1.041516904119e-04 0.0 
1.041516904119e-04 5.290277102126e-03 0.0 
0.0 0.0 0.0 
3.651381898302e-04 1.143650807655e-04 0.0 
1.143650807655e-04 3.183912964777e-03 0.0 
0.0 0.0 0.0 
-7.274317764960e-05 7.695482646376e-04 0.0 
7.695482646376e-04 2.668730504610e-03 0.0 
0.0 0.0 0.0 
2.697738597024e-05 6.005190738078e-04 0.0 
6.005190738078e-04 8.264502469273e-03 0.0 
0.0 0.0 0.0 
1.573086204529e-04 -2.600708525172e-05 0.0 
-2.600708525172e-05 1.522815494902e-03 0.0 
0.0 0.0 0.0 
4.047250819916e-04 1.907336822222e-04 0.0 
1.907336822222e-04 3.324553970043e-03 0.0 
0.0 0.0 0.0 
6.699627727058e-05 5.564736537002e-04 0.0 
5.564736537002e-04 6.175922077805e-03 0.0 
0.0 0.0 0.0 
-2.911194374673e-04 8.344460310258e-05 0.0 
8.344460310258e-05 5.039518055695e-03 0.0 
0.0 0.0 0.0 
3.069634643493e-04 5.933539482418e-06 0.0 
5.933539482418e-06 5.244493097117e-03 0.0 
0.0 0.0 0.0 
2.005297559908e-04 -4.243501082974e-05 0.0 
-4.243501082974e-05 2.309720013706e-03 0.0 
0.0 0.0 0.0 
-3.094567424611e-04 7.949279795647e-05 0.0 
7.949279795647e-05 6.687811878090e-03 0.0 
0.0 0.0 0.0 
3.108349848253e-04 3.664736177417e-05 0.0 
3.664736177417e-05 5.302182073493e-03 0.0 
0.0 0.0 0.0 
3.620140438314e-04 2.711374012718e-04 0.0 
2.711374012718e-04 4.781977678186e-03 0.0 
0.0 0.0 0.0 
3.404128951627e-04 5.723870318126e-05 0.0 
5.723870318126e-05 4.765290091151e-03 0.0 
0.0 0.0 0.0 
-3.716520263264e-05 2.577467563966e-04 0.0 
2.577467563966e-04 9.393424962405e-04 0.0 
0.0 0.0 0.0 
-9.903794637289e-05 -1.867451167831e-05 0.0 
-1.867451167831e-05 9.041232827544e-03 0.0 
0.0 0.0 0.0 
3.796089025589e-04 2.166057289458e-04 0.0 
2.166057289458e-04 3.904176374923e-03 0.0 
0.0 0.0 0.0 
1.608859190181e-04 5.673677131114e-04 0.0 
5.673677131114e-04 7.534348524632e-03 0.0 
0.0 0.0 0.0 
-7.576708540302e-05 5.544624665361e-04 0.0 
5.544624665361e-04 7.160195443110e-03 0.0 
0.0 0.0 0.0 
3.117848028160e-04 9.494396210584e-05 0.0 
9.494396210584e-05 5.474583444522e-03 0.0 
0.0 0.0 0.0 
3.006534907311e-04 2.931676552503e-05 0.0 
2.931676552503e-05 5.485953718720e-03 0.0 
0.0 0.0 0.0 
3.880753153707e-04 4.063660958568e-04 0.0 
4.063660958568e-04 3.626639028339e-03 0.0 
0.0 0.0 0.0 
3.237976477366e-05 -3.475179616818e-05 0.0 
-3.475179616818e-05 1.014344358825e-03 0.0 
0.0 0.0 0.0 
1.216465767311e-04 4.325003498607e-04 0.0 
4.325003498607e-04 9.031984987642e-04 0.0 
0.0 0.0 0.0 
2.982857797424e-04 8.304978977486e-05 0.0 
8.304978977486e-05 5.660770510804e-03 0.0 
0.0 0.0 0.0 
1.932738765738e-04 5.089840814035e-04 0.0 
5.089840814035e-04 7.359696436188e-03 0.0 
0.0 0.0 0.0 
3.428555886131e-04 3.914355260030e-05 0.0 
3.914355260030e-05 3.075497613483e-03 0.0 
0.0 0.0 0.0 
-2.018402282533e-04 5.052706083384e-04 0.0 
5.052706083384e-04 7.615323990245e-03 0.0 
0.0 0.0 0.0 
-3.318356997463e-04 2.708573519242e-04 0.0 
2.708573519242e-04 4.780909666925e-03 0.0 
0.0 0.0 0.0 
-2.582244186934e-04 4.185215417988e-04 0.0 
4.185215417988e-04 7.800523858013e-03 0.0 
0.0 0.0 0.0 
1.245418958462e-04 4.376150995450e-04 0.0 
4.376150995450e-04 8.068829210474e-03 0.0 
0.0 0.0 0.0 
-5.741403218392e-04 -2.305761515980e-05 0.0 
-2.305761515980e-05 3.524290347383e-04 0.0 
0.0 0.0 0.0 
0.0 1.946732502128e-05 0.0 
1.946732502128e-05 1.011720731267e-02 0.0 
0.0 0.0 0.0 
0.0 5.588668737381e-05 0.0 
5.588668737381e-05 8.271365336842e-03 0.0 
0.0 0.0 0.0 
-1.670722534688e-04 -3.018743748991e-05 0.0 
-3.018743748991e-05 6.777832902308e-03 0.0 
0.0 0.0 0.0 
3.763799267842e-04 1.289103710156e-04 0.0 
1.289103710156e-04 3.764529098263e-03 0.0 
0.0 0.0 0.0 
-1.233860044068e-04 5.393813437832e-04 0.0 
5.393813437832e-04 7.094951680214e-03 0.0 
0.0 0.0 0.0 
3.201692928356e-04 4.233689435628e-04 0.0 
4.233689435628e-04 3.878092088642e-03 0.0 
0.0 0.0 0.0 
5.666686247641e-05 -9.006263818253e-05 0.0 
-9.006263818253e-05 1.009974406295e-03 0.0 
0.0 0.0 0.0 
-3.339300289150e-04 5.067573733895e-04 0.0 
5.067573733895e-04 1.359265616679e-03 0.0 
0.0 0.0 0.0 
-8.597947400679e-05 5.186690285021e-05 0.0 
5.186690285021e-05 9.378888234181e-03 0.0 
0.0 0.0 0.0 
-3.034339826132e-04 2.176999585948e-04 0.0 
2.176999585948e-04 7.805167816340e-03 0.0 
0.0 0.0 0.0 
-3.219241901862e-04 5.412236627806e-05 0.0 
5.412236627806e-05 6.381702397289e-03 0.0 
0.0 0.0 0.0 
-2.287647478683e-05 7.074656510489e-04 0.0 
7.074656510489e-04 9.396180553096e-03 0.0 
0.0 0.0 0.0 
1.597527984112e-04 -4.236098953154e-05 0.0 
-4.236098953154e-05 1.911972561660e-03 0.0 
0.0 0.0 0.0 
-1.596831063666e-05 7.183626788904e-04 0.0 
7.183626788904e-04 9.314743602550e-03 0.0 
0.0 0.0 0.0 
-2.672168473841e-04 2.559183481508e-04 0.0 
2.559183481508e-04 7.798381044072e-03 0.0 
0.0 0.0 0.0 
3.602071913962e-04 6.161137088962e-05 0.0 
6.161137088962e-05 3.653018427764e-03 0.0 
0.0 0.0 0.0 
-9.541930217416e-05 5.880144902039e-04 0.0 
5.880144902039e-04 6.770566401636e-03 0.0 
0.0 0.0 0.0 
4.011240230724e-04 1.657526068915e-04 0.0 
1.657526068915e-04 3.477955222382e-03 0.0 
0.0 0.0 0.0 
-1.734176419695e-04 6.528102642311e-04 0.0 
6.528102642311e-04 3.173519779683e-03 0.0 
0.0 0.0 0.0 
3.819930537747e-04 1.169329733222e-04 0.0 
1.169329733222e-04 3.219709471494e-03 0.0 
0.0 0.0 0.0 
-2.486011634152e-04 3.384589239916e-04 0.0 
3.384589239916e-04 8.071724152061e-03 0.0 
0.0 0.0 0.0 
1.876680263098e-04 3.781922615016e-05 0.0 
3.781922615016e-05 7.026730041059e-03 0.0 
0.0 0.0 0.0 
4.124852996099e-04 2.509386473291e-04 0.0 
2.509386473291e-04 3.595222360295e-03 0.0 
0.0 0.0 0.0 
-2.048089893756e-04 4.897931212749e-04 0.0 
4.897931212749e-04 7.894820356273e-03 0.0 
0.0 0.0 0.0 
-3.174854867118e-04 -3.409370596834e-05 0.0 
-3.409370596834e-05 2.202935046729e-04 0.0 
0.0 0.0 0.0 
4.000548902323e-04 3.563129713997e-04 0.0 
3.563129713997e-04 3.750726212879e-03 0.0 
0.0 0.0 0.0 
-2.530299293629e-04 2.441642617013e-04 0.0 
2.441642617013e-04 8.428213122185e-03 0.0 
0.0 0.0 0.0 
3.518760020043e-04 6.600312749156e-05 0.0 
6.600312749156e-05 3.124883041902e-03 0.0 
0.0 0.0 0.0 
3.136502756571e-04 -6.925522812913e-06 0.0 
-6.925522812913e-06 2.821458016566e-03 0.0 
0.0 0.0 0.0 
-8.461146010497e-05 5.544042084316e-04 0.0 
5.544042084316e-04 6.776002853978e-03 0.0 
0.0 0.0 0.0 
2.392432493907e-04 5.038045997584e-05 0.0 
5.038045997584e-05 1.490666878210e-03 0.0 
0.0 0.0 0.0 
-3.283367196512e-04 1.634341435036e-04 0.0 
1.634341435036e-04 4.151127145822e-03 0.0 
0.0 0.0 0.0 
-2.977333925944e-04 1.421751365172e-04 0.0 
1.421751365172e-04 4.376992886642e-03 0.0 
0.0 0.0 0.0 
3.205799399177e-04 3.744042111364e-05 0.0 
3.744042111364e-05 2.719203764772e-03 0.0 
0.0 0.0 0.0 
3.441635846215e-04 2.948135964133e-04 0.0 
2.948135964133e-04 5.223877997529e-03 0.0 
0.0 0.0 0.0 
4.929463448011e-05 6.229171734972e-04 0.0 
6.229171734972e-04 5.759087195949e-03 0.0 
0.0 0.0 0.0 
-2.253313198011e-04 4.564096375934e-04 0.0 
4.564096375934e-04 7.898697188503e-03 0.0 
0.0 0.0 0.0 
-1.104078547521e-04 4.339800554706e-04 0.0 
4.339800554706e-04 9.206736432503e-03 0.0 
0.0 0.0 0.0 
-2.771071502495e-04 9.751938040705e-05 0.0 
9.751938040705e-05 4.597584237805e-03 0.0 
0.0 0.0 0.0 
-1.262703942002e-04 -2.858172224555e-05 0.0 
-2.858172224555e-05 8.249747668019e-03 0.0 
0.0 0.0 0.0 
-8.528029744903e-05 5.571098857336e-04 0.0 
5.571098857336e-04 8.993647967150e-03 0.0 
0.0 0.0 0.0 
3.685861815588e-04 4.630474278622e-04 0.0 
4.630474278622e-04 3.510426837707e-03 0.0 
0.0 0.0 0.0 
-4.219092200841e-05 7.349207020577e-04 0.0 
7.349207020577e-04 2.284493628943e-03 0.0 
0.0 0.0 0.0 
-3.721753276016e-04 2.668366613664e-04 0.0 
2.668366613664e-04 5.026790853490e-03 0.0 
0.0 0.0 0.0 
3.623230850980e-04 2.422829699331e-04 0.0 
2.422829699331e-04 4.921628148723e-03 0.0 
0.0 0.0 0.0 
-2.278194112592e-04 4.360903769979e-04 0.0 
4.360903769979e-04 8.056763928777e-03 0.0 
0.0 0.0 0.0 
3.832343348769e-04 3.295581344495e-04 0.0 
3.295581344495e-04 4.908265510016e-03 0.0 
0.0 0.0 0.0 
1.657432109947e-04 4.667270396524e-04 0.0 
4.667270396524e-04 1.577595245194e-03 0.0 
0.0 0.0 0.0 
3.203859207705e-04 3.152822622613e-04 0.0 
3.152822622613e-04 5.667920891218e-03 0.0 
0.0 0.0 0.0 
-2.436261611828e-04 5.533805047167e-04 0.0 
5.533805047167e-04 3.580470578889e-03 0.0 
0.0 0.0 0.0 
7.345034752837e-05 5.672245453895e-04 0.0 
5.672245453895e-04 5.766916736156e-03 0.0 
0.0 0.0 0.0 
3.631869702190e-04 3.529731880087e-04 0.0 
3.529731880087e-04 5.351948944327e-03 0.0 
0.0 0.0 0.0 
-4.422124007297e-05 6.039293107366e-04 0.0 
6.039293107366e-04 6.834129649813e-03 0.0 
0.0 0.0 0.0 
-1.483157167426e-04 -2.949783810927e-06 0.0 
-2.949783810927e-06 7.737629917918e-03 0.0 
0.0 0.0 0.0 
2.832453148003e-04 -4.403550596583e-05 0.0 
-4.403550596583e-05 2.730510073287e-03 0.0 
0.0 0.0 0.0 
8.033348375269e-05 7.731460588056e-04 0.0 
7.731460588056e-04 2.085040050603e-03 0.0 
0.0 0.0 0.0 
3.374707297465e-04 3.751121328333e-04 0.0 
3.751121328333e-04 5.805019107396e-03 0.0 
0.0 0.0 0.0 
-2.764901800243e-04 4.492769378973e-04 0.0 
4.492769378973e-04 3.904922003796e-03 0.0 
0.0 0.0 0.0 
-6.306749049056e-05 1.079957419287e-04 0.0 
1.079957419287e-04 4.942337410931e-04 0.0 
0.0 0.0 0.0 
-5.635932755366e-05 3.728964222999e-05 0.0 
3.728964222999e-05 9.425664888199e-03 0.0 
0.0 0.0 0.0 
-8.354822918666e-05 3.817281594739e-05 0.0 
3.817281594739e-05 9.043476639857e-03 0.0 
0.0 0.0 0.0 
-6.459486116772e-05 -5.656976351183e-05 0.0 
-5.656976351183e-05 4.173554903730e-04 0.0 
0.0 0.0 0.0 
2.909711766617e-04 3.367327399744e-04 0.0 
3.367327399744e-04 6.119912901970e-03 0.0 
0.0 0.0 0.0 
2.018869877571e-04 -8.715278387212e-05 0.0 
-8.715278387212e-05 2.084737062718e-03 0.0 
0.0 0.0 0.0 
2.443441604820e-04 -3.455801425259e-06 0.0 
-3.455801425259e-06 2.235378466330e-03 0.0 
0.0 0.0 0.0 
-1.701916085372e-04 5.163448038167e-04 0.0 
5.163448038167e-04 8.272242661483e-03 0.0 
0.0 0.0 0.0 
-3.380819584520e-05 5.607120505812e-04 0.0 
5.607120505812e-04 6.839948281306e-03 0.0 
0.0 0.0 0.0 
-1.712709421371e-04 5.275391069933e-04 0.0 
5.275391069933e-04 7.990859328360e-03 0.0 
0.0 0.0 0.0 
3.751139053754e-04 2.529626328649e-04 0.0 
2.529626328649e-04 3.769950263032e-03 0.0 
0.0 0.0 0.0 
-1.856308456373e-04 6.809367862444e-06 0.0 
6.809367862444e-06 6.326311788473e-03 0.0 
0.0 0.0 0.0 
6.235717297431e-05 3.501884496868e-04 0.0 
3.501884496868e-04 8.005151623109e-03 0.0 
0.0 0.0 0.0 
1.914771776470e-04 -1.951960677863e-05 0.0 
-1.951960677863e-05 1.836165177833e-03 0.0 
0.0 0.0 0.0 
1.428591099473e-04 5.092736853444e-04 0.0 
5.092736853444e-04 7.386922714063e-03 0.0 
0.0 0.0 0.0 
1.450710174877e-05 5.698538131648e-04 0.0 
5.698538131648e-04 6.112494302589e-03 0.0 
0.0 0.0 0.0 
1.360319736874e-04 6.837228933274e-06 0.0 
6.837228933274e-06 1.425840640257e-03 0.0 
0.0 0.0 0.0 
-2.499494029335e-04 3.909513066369e-04 0.0 
3.909513066369e-04 7.942290978541e-03 0.0 
0.0 0.0 0.0 
3.745025576314e-04 4.236081957666e-04 0.0 
4.236081957666e-04 4.070082014530e-03 0.0 
0.0 0.0 0.0 
2.121794016352e-05 -6.651760572023e-05 0.0 
-6.651760572023e-05 7.568278665697e-04 0.0 
0.0 0.0 0.0 
4.065594787701e-04 3.318809846896e-04 0.0 
3.318809846896e-04 3.315236830905e-03 0.0 
0.0 0.0 0.0 
2.786550876339e-04 3.404840248419e-05 0.0 
3.404840248419e-05 5.903711745864e-03 0.0 
0.0 0.0 0.0 
-2.848148969467e-04 3.040669203116e-04 0.0 
3.040669203116e-04 8.080263901835e-03 0.0 
0.0 0.0 0.0 
1.016323896506e-04 -1.153375578631e-04 0.0 
-1.153375578631e-04 1.384460053523e-03 0.0 
0.0 0.0 0.0 
3.207604605657e-04 -9.243327826888e-06 0.0 
-9.243327826888e-06 4.714864452272e-03 0.0 
0.0 0.0 0.0 
-2.014652013735e-04 4.783874408943e-04 0.0 
4.783874408943e-04 8.168936140474e-03 0.0 
0.0 0.0 0.0 
7.990163017668e-06 5.775338391760e-04 0.0 
5.775338391760e-04 7.758271164546e-03 0.0 
0.0 0.0 0.0 
3.544122115329e-04 7.179367517770e-05 0.0 
7.179367517770e-05 2.963895166413e-03 0.0 
0.0 0.0 0.0 
2.091607283101e-04 2.405416527576e-05 0.0 
2.405416527576e-05 2.311190381461e-03 0.0 
0.0 0.0 0.0 
5.005135759251e-05 6.148279565171e-04 0.0 
6.148279565171e-04 6.167943960092e-03 0.0 
0.0 0.0 0.0 
-1.457419441763e-04 -3.223333613159e-05 0.0 
-3.223333613159e-05 7.615999022971e-03 0.0 
0.0 0.0 0.0 
1.192465640698e-05 -7.314136636248e-05 0.0 
-7.314136636248e-05 7.466569506858e-04 0.0 
0.0 0.0 0.0 
-8.111512357645e-05 6.147326281548e-04 0.0 
6.147326281548e-04 9.263825744126e-03 0.0 
0.0 0.0 0.0 
-6.446385593251e-05 3.845279520889e-04 0.0 
3.845279520889e-04 9.585659065645e-03 0.0 
0.0 0.0 0.0 
-1.587461985780e-04 -2.598050145307e-05 0.0 
-2.598050145307e-05 7.030925314904e-03 0.0 
0.0 0.0 0.0 
-8.759921920010e-05 1.548194458420e-04 0.0 
1.548194458420e-04 9.641333071960e-03 0.0 
0.0 0.0 0.0 
-5.700954828836e-05 4.620759809563e-04 0.0 
4.620759809563e-04 9.530687935637e-03 0.0 
0.0 0.0 0.0 
4.073062811669e-04 3.157997365938e-04 0.0 
3.157997365938e-04 3.886019736165e-03 0.0 
0.0 0.0 0.0 
3.773209380646e-04 1.524246803015e-04 0.0 
1.524246803015e-04 3.613529110337e-03 0.0 
0.0 0.0 0.0 
6.782795449500e-05 6.271459252289e-04 0.0 
6.271459252289e-04 8.467662696924e-03 0.0 
0.0 0.0 0.0 
-2.852763628461e-04 1.055420848151e-05 0.0 
1.055420848151e-05 2.363593463557e-04 0.0 
0.0 0.0 0.0 
1.821923835241e-04 3.414103834403e-05 0.0 
3.414103834403e-05 2.094317090334e-03 0.0 
0.0 0.0 0.0 
3.049622905023e-04 4.093538451822e-05 0.0 
4.093538451822e-05 4.818477905000e-03 0.0 
0.0 0.0 0.0 
3.142328512007e-04 -1.169397991244e-05 0.0 
-1.169397991244e-05 2.979213112102e-03 0.0 
0.0 0.0 0.0 
4.066432577825e-04 2.195102402281e-04 0.0 
2.195102402281e-04 3.170079369949e-03 0.0 
0.0 0.0 0.0 
-3.179903987980e-04 2.218860019491e-04 0.0 
2.218860019491e-04 3.703401402581e-03 0.0 
0.0 0.0 0.0 
-2.881663129398e-04 2.132983447636e-04 0.0 
2.132983447636e-04 3.921602137002e-03 0.0 
0.0 0.0 0.0 
-2.239776816986e-04 2.043318927450e-05 0.0 
2.043318927450e-05 7.047666428424e-03 0.0 
0.0 0.0 0.0 
3.663454550762e-04 2.957782564231e-04 0.0 
2.957782564231e-04 3.645199051304e-03 0.0 
0.0 0.0 0.0 
2.249183541934e-04 9.783267089328e-06 0.0 
9.783267089328e-06 2.470721675985e-03 0.0 
0.0 0.0 0.0 
-2.188329556274e-05 6.186893147958e-04 0.0 
6.186893147958e-04 7.634067726608e-03 0.0 
0.0 0.0 0.0 
6.620917578259e-05 3.035480357239e-04 0.0 
3.035480357239e-04 8.369788512596e-03 0.0 
0.0 0.0 0.0 
5.631985550481e-05 3.371248704670e-04 0.0 
3.371248704670e-04 8.377338564013e-03 0.0 
0.0 0.0 0.0 
4.108364565381e-04 2.220410885457e-04 0.0 
2.220410885457e-04 3.747087617294e-03 0.0 
0.0 0.0 0.0 
-2.377598834262e-04 5.898061821439e-05 0.0 
5.898061821439e-05 6.704662348814e-03 0.0 
0.0 0.0 0.0 
-3.054130069021e-04 2.449597997311e-05 0.0 
2.449597997311e-05 4.617755872309e-04 0.0 
0.0 0.0 0.0 
-3.491269980254e-04 3.737768146776e-04 0.0 
3.737768146776e-04 3.281276710815e-03 0.0 
0.0 0.0 0.0 
1.400888245209e-04 -1.970448389630e-05 0.0 
-1.970448389630e-05 1.449657834609e-03 0.0 
0.0 0.0 0.0 
-3.232535640819e-04 2.874986517288e-04 0.0 
2.874986517288e-04 3.504192369759e-03 0.0 
0.0 0.0 0.0 
1.353755922540e-05 5.601756913939e-04 0.0 
5.601756913939e-04 6.510045039211e-03 0.0 
0.0 0.0 0.0 
3.850530803446e-04 1.333850117575e-04 0.0 
1.333850117575e-04 3.063545728583e-03 0.0 
0.0 0.0 0.0 
3.764917334539e-04 1.821948900143e-04 0.0 
1.821948900143e-04 3.470617499354e-03 0.0 
0.0 0.0 0.0 
-8.535641237772e-05 -6.429190572653e-05 0.0 
-6.429190572653e-05 8.227727504864e-04 0.0 
0.0 0.0 0.0 
-7.667032501135e-05 2.540990491399e-05 0.0 
2.540990491399e-05 9.113147812637e-03 0.0 
0.0 0.0 0.0 
3.646924720893e-04 9.195160713209e-05 0.0 
9.195160713209e-05 3.339043333049e-03 0.0 
0.0 0.0 0.0 
-6.692417787679e-05 1.027136163651e-04 0.0 
1.027136163651e-04 9.370880332526e-03 0.0 
0.0 0.0 0.0 
-9.986711061705e-05 7.749802323188e-06 0.0 
7.749802323188e-06 8.786280692834e-03 0.0 
0.0 0.0 0.0 
-2.973490631231e-05 4.016846969158e-05 0.0 
4.016846969158e-05 1.010310817990e-02 0.0 
0.0 0.0 0.0 
5.693667508067e-05 7.618574575123e-05 0.0 
7.618574575123e-05 8.278017798489e-03 0.0 
0.0 0.0 0.0 
-1.662533788717e-04 2.641086375092e-05 0.0 
2.641086375092e-05 7.043069493888e-03 0.0 
0.0 0.0 0.0 
3.631444581815e-04 7.505697505269e-05 0.0 
7.505697505269e-05 3.493621053932e-03 0.0 
0.0 0.0 0.0 
-2.484348511347e-04 1.255753851718e-04 0.0 
1.255753851718e-04 4.147203239268e-03 0.0 
0.0 0.0 0.0 
3.964848374030e-04 1.483644421645e-04 0.0 
1.483644421645e-04 3.638227511870e-03 0.0 
0.0 0.0 0.0 
0.0 2.360626583267e-04 0.0 
2.360626583267e-04 8.345834952665e-03 0.0 
0.0 0.0 0.0 
-3.799260107789e-04 6.120191715018e-04 0.0 
6.120191715018e-04 2.654416011703e-03 0.0 
0.0 0.0 0.0 
-3.539921319109e-04 4.895177004422e-04 0.0 
4.895177004422e-04 3.010258805080e-03 0.0 
0.0 0.0 0.0 
1.040056388362e-04 5.504713327239e-04 0.0 
5.504713327239e-04 7.709206800568e-03 0.0 
0.0 0.0 0.0 
-2.122888595572e-04 2.991773838045e-05 0.0 
2.991773838045e-05 6.712724521576e-03 0.0 
0.0 0.0 0.0 
-6.209487904074e-05 7.870132322291e-05 0.0 
7.870132322291e-05 9.415753205401e-03 0.0 
0.0 0.0 0.0 
-2.265756731707e-04 4.405004054952e-04 0.0 
4.405004054952e-04 8.171342861824e-03 0.0 
0.0 0.0 0.0 
2.093678161819e-05 6.459826319615e-04 0.0 
6.459826319615e-04 8.147690500841e-03 0.0 
0.0 0.0 0.0 
-2.335873210260e-04 3.771790022195e-04 0.0 
3.771790022195e-04 8.579102932842e-03 0.0 
0.0 0.0 0.0 
-1.623517798567e-04 4.266212505139e-05 0.0 
4.266212505139e-05 7.121153742003e-03 0.0 
0.0 0.0 0.0 
2.791881624260e-04 -4.258017168098e-05 0.0 
-4.258017168098e-05 2.574356199182e-03 0.0 
0.0 0.0 0.0 
3.201153447976e-04 4.315856070029e-05 0.0 
4.315856070029e-05 2.562941722147e-03 0.0 
0.0 0.0 0.0 
-1.280287036690e-04 4.052281753733e-05 0.0 
4.052281753733e-05 8.031333159727e-03 0.0 
0.0 0.0 0.0 
-2.682723432812e-05 5.769271977163e-04 0.0 
5.769271977163e-04 8.047856396087e-03 0.0 
0.0 0.0 0.0 
-2.749427766956e-04 5.512257370016e-05 0.0 
5.512257370016e-05 6.353788455355e-03 0.0 
0.0 0.0 0.0 
-1.710877586673e-04 4.716804714780e-06 0.0 
4.716804714780e-06 6.678972072560e-03 0.0 
0.0 0.0 0.0 
-1.665070349509e-04 -1.722879156312e-06 0.0 
-1.722879156312e-06 7.020459321993e-03 0.0 
0.0 0.0 0.0 
-1.813980612320e-04 -1.989817849359e-05 0.0 
-1.989817849359e-05 7.144042043371e-03 0.0 
0.0 0.0 0.0 
1.813943241011e-04 1.037662094023e-04 0.0 
1.037662094023e-04 1.194132566683e-03 0.0 
0.0 0.0 0.0 
2.791740816226e-04 1.115369491599e-05 0.0 
1.115369491599e-05 2.320916270342e-03 0.0 
0.0 0.0 0.0 
-6.160424000445e-05 1.204722905507e-04 0.0 
1.204722905507e-04 9.774376343328e-03 0.0 
0.0 0.0 0.0 
-1.654685147346e-04 -7.428158051963e-06 0.0 
-7.428158051963e-06 7.551882866591e-03 0.0 
0.0 0.0 0.0 
3.858192004458e-05 6.855037762969e-04 0.0 
6.855037762969e-04 8.757851614915e-03 0.0 
0.0 0.0 0.0 
-1.627020861660e-04 4.160030226636e-04 0.0 
4.160030226636e-04 9.218656526763e-03 0.0 
0.0 0.0 0.0 
-2.802391705694e-04 3.606456530993e-04 0.0 
3.606456530993e-04 7.948186133685e-03 0.0 
0.0 0.0 0.0 
-1.203479204869e-04 1.730231323335e-04 0.0 
1.730231323335e-04 9.382039051845e-03 0.0 
0.0 0.0 0.0 
3.105319149599e-04 2.490173215090e-05 0.0 
2.490173215090e-05 3.513762067705e-03 0.0 
0.0 0.0 0.0 
2.703926571508e-04 1.853315080008e-05 0.0 
1.853315080008e-05 3.191764412007e-03 0.0 
0.0 0.0 0.0 
1.398566664816e-04 3.652711513406e-04 0.0 
3.652711513406e-04 7.640467142966e-03 0.0 
0.0 0.0 0.0 
-8.566956619771e-05 -2.763659244565e-05 0.0 
-2.763659244565e-05 4.321836777077e-04 0.0 
0.0 0.0 0.0 
1.839535188763e-04 -2.954000911643e-05 0.0 
-2.954000911643e-05 2.217407038982e-03 0.0 
0.0 0.0 0.0 
0.0 6.817663376237e-04 0.0 
6.817663376237e-04 9.354597783650e-03 0.0 
0.0 0.0 0.0 
8.632028087963e-05 -4.102855404576e-05 0.0 
-4.102855404576e-05 1.051156022038e-03 0.0 
0.0 0.0 0.0 
-1.658485097593e-04 7.816588319500e-06 0.0 
7.816588319500e-06 6.680799467390e-03 0.0 
0.0 0.0 0.0 
1.212386088694e-04 5.562123929046e-04 0.0 
5.562123929046e-04 7.986553855898e-03 0.0 
0.0 0.0 0.0 
-2.534195962867e-05 -2.880881891182e-05 0.0 
-2.880881891182e-05 6.981377149577e-04 0.0 
0.0 0.0 0.0 
-3.628444439985e-05 -3.745595974527e-05 0.0 
-3.745595974527e-05 3.785641961207e-04 0.0 
0.0 0.0 0.0 
-3.731410562335e-05 1.490345866578e-04 0.0 
1.490345866578e-04 1.008631328831e-02 0.0 
0.0 0.0 0.0 
-2.005302796595e-04 2.106491456171e-05 0.0 
2.106491456171e-05 6.331299200984e-03 0.0 
0.0 0.0 0.0 
-6.106787658466e-05 1.758010701899e-04 0.0 
1.758010701899e-04 9.685741609884e-03 0.0 
0.0 0.0 0.0 
7.602501860626e-05 5.684847005072e-04 0.0 
5.684847005072e-04 8.081734203013e-03 0.0 
0.0 0.0 0.0 
-1.982899033935e-04 -2.790576934693e-06 0.0 
-2.790576934693e-06 6.322926695531e-03 0.0 
0.0 0.0 0.0 
-2.855509410518e-04 2.379632057303e-05 0.0 
2.379632057303e-05 5.302942575367e-04 0.0 
0.0 0.0 0.0 
-3.008355368361e-05 1.244019969816e-05 0.0 
1.244019969816e-05 9.772805826715e-03 0.0 
0.0 0.0 0.0 
9.131513561922e-05 -9.049520980421e-05 0.0 
-9.049520980421e-05 1.177051335320e-03 0.0 
0.0 0.0 0.0 
-6.918080668472e-05 1.392636159348e-04 0.0 
1.392636159348e-04 9.472629839623e-03 0.0 
0.0 0.0 0.0 
0.0 1.887415152514e-04 0.0 
1.887415152514e-04 8.317700156860e-03 0.0 
0.0 0.0 0.0 
-1.413434864547e-04 3.439584834125e-04 0.0 
3.439584834125e-04 9.296686233139e-03 0.0 
0.0 0.0 0.0 
2.989997208507e-04 1.560968538001e-04 0.0 
1.560968538001e-04 1.555637882341e-03 0.0 
0.0 0.0 0.0 
-2.548459882539e-04 8.529198759366e-05 0.0 
8.529198759366e-05 7.061263764768e-03 0.0 
0.0 0.0 0.0 
2.761296846259e-04 -2.497608468650e-05 0.0 
-2.497608468650e-05 3.575747697145e-03 0.0 
0.0 0.0 0.0 
-2.689119801647e-05 5.612541063699e-04 0.0 
5.612541063699e-04 7.638371228252e-03 0.0 
0.0 0.0 0.0 
9.670859765221e-06 7.032273210000e-04 0.0 
7.032273210000e-04 9.078032259426e-03 0.0 
0.0 0.0 0.0 
-1.194329420962e-04 3.589611193057e-05 0.0 
3.589611193057e-05 8.473520271035e-03 0.0 
0.0 0.0 0.0 
3.049212296791e-05 7.169416806202e-04 0.0 
7.169416806202e-04 8.970634950006e-03 0.0 
0.0 0.0 0.0 
5.700158371913e-05 4.576876515847e-05 0.0 
4.576876515847e-05 7.358904719876e-04 0.0 
0.0 0.0 0.0 
9.348010292864e-05 2.207906224626e-04 0.0 
2.207906224626e-04 7.976149926331e-03 0.0 
0.0 0.0 0.0 
2.871691334567e-04 1.233256148974e-04 0.0 
1.233256148974e-04 1.777711822342e-03 0.0 
0.0 0.0 0.0 
9.388949701750e-05 -1.086531392720e-05 0.0 
-1.086531392720e-05 1.052552729519e-03 0.0 
0.0 0.0 0.0 
9.423680060583e-05 5.253513449078e-04 0.0 
5.253513449078e-04 8.270094624097e-03 0.0 
0.0 0.0 0.0 
-9.613620603910e-05 2.656090067619e-04 0.0 
2.656090067619e-04 9.720485768419e-03 0.0 
0.0 0.0 0.0 
-5.286558182160e-05 1.459880247612e-04 0.0 
1.459880247612e-04 9.825879673526e-03 0.0 
0.0 0.0 0.0 
-1.793098774023e-04 4.260950295555e-05 0.0 
4.260950295555e-05 6.661823168041e-03 0.0 
0.0 0.0 0.0 
-2.822568225560e-04 1.501031262154e-04 0.0 
1.501031262154e-04 7.098292739477e-03 0.0 
0.0 0.0 0.0 
-1.868254602123e-04 7.216147169649e-04 0.0 
7.216147169649e-04 3.176853139881e-03 0.0 
0.0 0.0 0.0 
-1.080437376826e-04 4.705403723425e-04 0.0 
4.705403723425e-04 9.533840849260e-03 0.0 
0.0 0.0 0.0 
2.641077087107e-04 2.055877253859e-05 0.0 
2.055877253859e-05 2.950128042246e-03 0.0 
0.0 0.0 0.0 
1.364726121680e-04 4.563835933341e-04 0.0 
4.563835933341e-04 1.477791042382e-03 0.0 
0.0 0.0 0.0 
1.519774910830e-05 6.304255750684e-04 0.0 
6.304255750684e-04 7.751256110508e-03 0.0 
0.0 0.0 0.0 
-1.796325076744e-04 -6.991307949245e-07 0.0 
-6.991307949245e-07 6.306550295975e-03 0.0 
0.0 0.0 0.0 
-9.145777311992e-05 2.847405432494e-04 0.0 
2.847405432494e-04 9.453482209767e-03 0.0 
0.0 0.0 0.0 
-2.103356129757e-05 -2.641241130612e-05 0.0 
-2.641241130612e-05 1.007785143295e-02 0.0 
0.0 0.0 0.0 
0.0 1.051678064878e-05 0.0 
1.051678064878e-05 1.013067625556e-02 0.0 
0.0 0.0 0.0 
-9.151880401403e-06 -5.277693770374e-07 0.0 
-5.277693770374e-07 1.032386866804e-04 0.0 
0.0 0.0 0.0 
-7.509529690530e-06 3.802147368802e-06 0.0 
3.802147368802e-06 1.102561694613e-04 0.0 
0.0 0.0 0.0 
-1.680097005461e-04 -2.623671034364e-05 0.0 
-2.623671034364e-05 6.356011972219e-03 0.0 
0.0 0.0 0.0 
-1.788218978099e-04 4.398871390355e-06 0.0 
4.398871390355e-06 6.305553006015e-03 0.0 
0.0 0.0 0.0 
0.0 2.817958599601e-05 0.0 
2.817958599601e-05 8.275377371108e-03 0.0 
0.0 0.0 0.0 
5.635917199198e-05 3.281059214671e-05 0.0 
3.281059214671e-05 8.209756186815e-03 0.0 
0.0 0.0 0.0 
6.718024701646e-06 1.973009635235e-05 0.0 
1.973009635235e-05 3.410592975892e-04 0.0 
0.0 0.0 0.0 
-2.980576113822e-04 -2.797910731162e-05 0.0 
-2.797910731162e-05 2.163892648974e-04 0.0 
0.0 0.0 0.0 
1.198212375719e-04 1.551354299321e-04 0.0 
1.551354299321e-04 7.518442489229e-03 0.0 
0.0 0.0 0.0 
-4.494606612782e-05 6.611383717127e-04 0.0 
6.611383717127e-04 8.640417269103e-03 0.0 
0.0 0.0 0.0 
1.033364655343e-04 -6.907051142849e-05 0.0 
-6.907051142849e-05 1.392422749835e-03 0.0 
0.0 0.0 0.0 
1.117935699304e-04 2.322227564400e-04 0.0 
2.322227564400e-04 7.678837429658e-03 0.0 
0.0 0.0 0.0 
3.044449701881e-04 -7.780047235193e-07 0.0 
-7.780047235193e-07 5.165919343032e-03 0.0 
0.0 0.0 0.0 
3.026350456816e-04 -2.793405726076e-05 0.0 
-2.793405726076e-05 4.409164586340e-03 0.0 
0.0 0.0 0.0 
-1.601801483091e-04 3.564728922264e-05 0.0 
3.564728922264e-05 7.761763388862e-03 0.0 
0.0 0.0 0.0 
1.423049174698e-04 5.603392276574e-06 0.0 
5.603392276574e-06 1.321744153522e-03 0.0 
0.0 0.0 0.0 
-3.145949412386e-05 5.579270426672e-04 0.0 
5.579270426672e-04 7.236931638821e-03 0.0 
0.0 0.0 0.0 
5.979396172262e-05 -3.491706755860e-05 0.0 
-3.491706755860e-05 1.093453075944e-03 0.0 
0.0 0.0 0.0 
3.152273092182e-04 -2.272611949601e-05 0.0 
-2.272611949601e-05 3.978761684472e-03 0.0 
0.0 0.0 0.0 
-9.513129667293e-05 4.689570649254e-04 0.0 
4.689570649254e-04 9.256933726799e-03 0.0 
0.0 0.0 0.0 
-7.400935757496e-05 -3.064928717268e-05 0.0 
-3.064928717268e-05 9.269193409955e-03 0.0 
0.0 0.0 0.0 
3.228201020056e-04 2.315555768525e-05 0.0 
2.315555768525e-05 4.380293370521e-03 0.0 
0.0 0.0 0.0 
-1.633271194992e-04 -1.961924131630e-05 0.0 
-1.961924131630e-05 7.327029406879e-03 0.0 
0.0 0.0 0.0 
-1.017223564448e-04 6.141729974552e-04 0.0 
6.141729974552e-04 8.910546814027e-03 0.0 
0.0 0.0 0.0 
-2.097713818617e-04 4.151882285260e-04 0.0 
4.151882285260e-04 8.692651491453e-03 0.0 
0.0 0.0 0.0 
-2.481779137214e-04 3.876680650768e-04 0.0 
3.876680650768e-04 8.318886203117e-03 0.0 
0.0 0.0 0.0 
-1.900212906888e-04 6.126409214560e-06 0.0 
6.126409214560e-06 6.326692137404e-03 0.0 
0.0 0.0 0.0 
1.052610878771e-05 5.563951051155e-04 0.0 
5.563951051155e-04 6.918497076302e-03 0.0 
0.0 0.0 0.0 
-1.017680210568e-04 3.277444395638e-04 0.0 
3.277444395638e-04 9.367271584487e-03 0.0 
0.0 0.0 0.0 
1.997727373284e-04 5.624860562320e-06 0.0 
5.624860562320e-06 2.211315204391e-03 0.0 
0.0 0.0 0.0 
-1.294060598289e-04 -5.928773329099e-05 0.0 
-5.928773329099e-05 4.443529762945e-04 0.0 
0.0 0.0 0.0 
-1.298953394026e-04 5.363634310162e-04 0.0 
5.363634310162e-04 8.709740255460e-03 0.0 
0.0 0.0 0.0 
1.536349335678e-04 5.684286718100e-04 0.0 
5.684286718100e-04 7.382962163285e-03 0.0 
0.0 0.0 0.0 
1.104870302833e-04 -8.559621120540e-05 0.0 
-8.559621120540e-05 1.060844901735e-03 0.0 
0.0 0.0 0.0 
-1.434685427499e-04 -1.013912290038e-05 0.0 
-1.013912290038e-05 8.056459281213e-03 0.0 
0.0 0.0 0.0 
5.810801523576e-05 1.333485345525e-04 0.0 
1.333485345525e-04 7.872048618669e-03 0.0 
0.0 0.0 0.0 
-7.304843415668e-05 5.995122909981e-04 0.0 
5.995122909981e-04 8.512136329281e-03 0.0 
0.0 0.0 0.0 
-9.217866179290e-05 6.171791224459e-04 0.0 
6.171791224459e-04 8.826480685286e-03 0.0 
0.0 0.0 0.0 
2.868844025075e-04 -2.136359161871e-05 0.0 
-2.136359161871e-05 5.625636653539e-03 0.0 
0.0 0.0 0.0 
2.825369775028e-06 2.497069657685e-04 0.0 
2.497069657685e-04 4.797275094832e-04 0.0 
0.0 0.0 0.0 
-2.136115792506e-04 1.491682330241e-04 0.0 
1.491682330241e-04 3.696720851073e-03 0.0 
0.0 0.0 0.0 
-3.273124164849e-04 5.212266986468e-04 0.0 
5.212266986468e-04 3.907751152125e-03 0.0 
0.0 0.0 0.0 
-2.520427842947e-04 9.073796990677e-05 0.0 
9.073796990677e-05 7.066304743435e-03 0.0 
0.0 0.0 0.0 
6.259543305909e-06 6.145170287987e-04 0.0 
6.145170287987e-04 6.911510226581e-03 0.0 
0.0 0.0 0.0 
-7.025086272128e-05 6.766762665587e-05 0.0 
6.766762665587e-05 9.524060027926e-03 0.0 
0.0 0.0 0.0 
4.775531852985e-05 6.184891936022e-04 0.0 
6.184891936022e-04 8.478221915812e-03 0.0 
0.0 0.0 0.0 
-8.631851735696e-05 -7.634427832327e-05 0.0 
-7.634427832327e-05 7.901497166236e-04 0.0 
0.0 0.0 0.0 
-6.547947814295e-05 -7.015783187332e-05 0.0 
-7.015783187332e-05 7.424040214714e-04 0.0 
0.0 0.0 0.0 
-1.434401990469e-04 2.128121325503e-04 0.0 
2.128121325503e-04 3.266877228417e-03 0.0 
0.0 0.0 0.0 
-1.264457529796e-04 6.994242263321e-05 0.0 
6.994242263321e-05 8.175703385399e-03 0.0 
0.0 0.0 0.0 
2.303340880314e-04 -5.098859561678e-05 0.0 
-5.098859561678e-05 2.742270980814e-03 0.0 
0.0 0.0 0.0 
-1.009887424471e-04 1.997332858867e-04 0.0 
1.997332858867e-04 9.516387703213e-03 0.0 
0.0 0.0 0.0 
1.006992377803e-04 -5.659257567389e-05 0.0 
-5.659257567389e-05 1.328324688689e-03 0.0 
0.0 0.0 0.0 
8.134854803932e-05 6.005777134818e-04 0.0 
6.005777134818e-04 8.099326481672e-03 0.0 
0.0 0.0 0.0 
-1.994293216102e-04 6.692388777704e-05 0.0 
6.692388777704e-05 7.037126081699e-03 0.0 
0.0 0.0 0.0 
-2.447842666342e-07 6.544206655397e-04 0.0 
6.544206655397e-04 8.895805885473e-03 0.0 
0.0 0.0 0.0 
-6.031246115690e-05 5.673318485994e-04 0.0 
5.673318485994e-04 7.948673075342e-03 0.0 
0.0 0.0 0.0 
-2.754040253579e-04 8.858955685453e-05 0.0 
8.858955685453e-05 7.066905162282e-03 0.0 
0.0 0.0 0.0 
1.140217848379e-04 4.601170582179e-04 0.0 
4.601170582179e-04 8.149016531525e-03 0.0 
0.0 0.0 0.0 
-8.426142474038e-05 2.616090212344e-04 0.0 
2.616090212344e-04 9.742020972610e-03 0.0 
0.0 0.0 0.0 
-4.502318030997e-05 3.112045701933e-05 0.0 
3.112045701933e-05 9.793090611510e-03 0.0 
0.0 0.0 0.0 
-5.021194148414e-05 3.306312749236e-04 0.0 
3.306312749236e-04 2.639686743222e-03 0.0 
0.0 0.0 0.0 
-9.255943757103e-05 2.157579335437e-04 0.0 
2.157579335437e-04 9.378762456021e-03 0.0 
0.0 0.0 0.0 
-4.636840035466e-05 5.773219748542e-04 0.0 
5.773219748542e-04 9.296389645279e-03 0.0 
0.0 0.0 0.0 
9.172520773193e-05 5.879321052004e-04 0.0 
5.879321052004e-04 8.104078606765e-03 0.0 
0.0 0.0 0.0 
-3.589974459262e-06 6.368582249677e-04 0.0 
6.368582249677e-04 8.033708573314e-03 0.0 
0.0 0.0 0.0 
0.0 3.164653931056e-04 0.0 
3.164653931056e-04 8.376514768114e-03 0.0 
0.0 0.0 0.0 
-2.130016682218e-04 4.277531144831e-04 0.0 
4.277531144831e-04 8.313239726378e-03 0.0 
0.0 0.0 0.0 
-2.389894951402e-04 1.662132388053e-04 0.0 
1.662132388053e-04 2.213619084264e-04 0.0 
0.0 0.0 0.0 
2.859930375942e-05 6.619848826751e-04 0.0 
6.619848826751e-04 2.081086899151e-03 0.0 
0.0 0.0 0.0 
-1.892977915550e-04 4.139962048180e-04 0.0 
4.139962048180e-04 8.945307769544e-03 0.0 
0.0 0.0 0.0 
-2.351367933091e-04 1.210152053913e-04 0.0 
1.210152053913e-04 7.376846667411e-03 0.0 
0.0 0.0 0.0 
1.357422699568e-04 4.664190745349e-05 0.0 
4.664190745349e-05 7.479726204618e-03 0.0 
0.0 0.0 0.0 
-5.017511270267e-05 5.865697381679e-04 0.0 
5.865697381679e-04 8.341158863582e-03 0.0 
0.0 0.0 0.0 
6.495933191886e-05 2.619066260925e-04 0.0 
2.619066260925e-04 8.000503027396e-03 0.0 
0.0 0.0 0.0 
-1.064038336795e-04 7.065766036387e-05 0.0 
7.065766036387e-05 8.606211110789e-03 0.0 
0.0 0.0 0.0 
-3.905846889141e-06 6.510129873776e-04 0.0 
6.510129873776e-04 8.823920453718e-03 0.0 
0.0 0.0 0.0 
1.176202253221e-04 3.842340184411e-04 0.0 
3.842340184411e-04 7.804143809352e-03 0.0 
0.0 0.0 0.0 
1.401392572269e-04 4.432059320062e-04 0.0 
4.432059320062e-04 7.798742823107e-03 0.0 
0.0 0.0 0.0 
2.365535462361e-04 -3.543116233128e-05 0.0 
-3.543116233128e-05 2.848405355400e-03 0.0 
0.0 0.0 0.0 
7.692111559154e-05 2.607386657441e-04 0.0 
2.607386657441e-04 8.352692917280e-03 0.0 
0.0 0.0 0.0 
-2.350633991279e-04 4.305808887006e-05 0.0 
4.305808887006e-05 6.681199431687e-03 0.0 
0.0 0.0 0.0 
-6.747475238733e-05 2.212877856707e-05 0.0 
2.212877856707e-05 9.422736140428e-03 0.0 
0.0 0.0 0.0 
2.056085826618e-05 -9.524321707902e-05 0.0 
-9.524321707902e-05 7.410548776061e-04 0.0 
0.0 0.0 0.0 
-8.555460624216e-05 4.536337206666e-06 0.0 
4.536337206666e-06 9.121476809761e-03 0.0 
0.0 0.0 0.0 
-1.421079657054e-04 1.717500100471e-05 0.0 
1.717500100471e-05 8.090963932987e-03 0.0 
0.0 0.0 0.0 
3.382852269129e-05 -3.446753222673e-05 0.0 
-3.446753222673e-05 7.312556009822e-04 0.0 
0.0 0.0 0.0 
1.841673545413e-04 3.392700917449e-05 0.0 
3.392700917449e-05 1.437937563435e-03 0.0 
0.0 0.0 0.0 
-1.899074974205e-04 4.690792091466e-04 0.0 
4.690792091466e-04 8.432542756505e-03 0.0 
0.0 0.0 0.0 
-4.083840561342e-05 1.271377467216e-04 0.0 
1.271377467216e-04 9.765848308503e-03 0.0 
0.0 0.0 0.0 
-6.766396052527e-05 -3.846489358019e-07 0.0 
-3.846489358019e-07 9.480316659416e-03 0.0 
0.0 0.0 0.0 
3.823049014162e-05 7.034010030595e-04 0.0 
7.034010030595e-04 8.668517628805e-03 0.0 
0.0 0.0 0.0 
-1.662461944266e-04 6.043339665613e-05 0.0 
6.043339665613e-05 7.323501706194e-03 0.0 
0.0 0.0 0.0 
-8.753203423395e-05 -5.706273480673e-05 0.0 
-5.706273480673e-05 4.187901820021e-04 0.0 
0.0 0.0 0.0 
4.233525483710e-05 2.482530187469e-04 0.0 
2.482530187469e-04 7.940960332939e-04 0.0 
0.0 0.0 0.0 
-4.980767699569e-05 -7.963941394036e-06 0.0 
-7.963941394036e-06 4.803475117197e-04 0.0 
0.0 0.0 0.0 
2.534692131517e-05 -1.152098344496e-04 0.0 
-1.152098344496e-04 1.015633674208e-03 0.0 
0.0 0.0 0.0 
-3.774834036437e-04 4.959873695848e-04 0.0 
4.959873695848e-04 3.620008350240e-04 0.0 
0.0 0.0 0.0 
3.080636641961e-04 2.875090686038e-05 0.0 
2.875090686038e-05 3.873820960881e-03 0.0 
0.0 0.0 0.0 
1.446556131055e-04 1.128665970188e-04 0.0 
1.128665970188e-04 7.478317300891e-03 0.0 
0.0 0.0 0.0 
-1.178559437952e-04 3.891933119152e-04 0.0 
3.891933119152e-04 9.302981518178e-03 0.0 
0.0 0.0 0.0 
-2.927490909570e-04 1.128937753267e-04 0.0 
1.128937753267e-04 7.342791630181e-03 0.0 
0.0 0.0 0.0 
2.835483025097e-04 -5.028668170368e-05 0.0 
-5.028668170368e-05 3.365851028243e-03 0.0 
0.0 0.0 0.0 
1.417174400915e-04 3.182770451851e-04 0.0 
3.182770451851e-04 7.656486085896e-03 0.0 
0.0 0.0 0.0 
1.601852213138e-04 5.519297109127e-04 0.0 
5.519297109127e-04 7.813360563258e-03 0.0 
0.0 0.0 0.0 
-1.137181622446e-05 6.992802655513e-04 0.0 
6.992802655513e-04 8.936544298403e-03 0.0 
0.0 0.0 0.0 
-8.268965593372e-05 5.576612519391e-04 0.0 
5.576612519391e-04 8.978150736574e-03 0.0 
0.0 0.0 0.0 
-1.486297142907e-04 4.969477466461e-04 0.0 
4.969477466461e-04 8.801973963622e-03 0.0 
0.0 0.0 0.0 
1.077607353128e-05 -5.024178377484e-05 0.0 
-5.024178377484e-05 7.283131461080e-04 0.0 
0.0 0.0 0.0 
-1.194857112145e-04 -4.849834942683e-05 0.0 
-4.849834942683e-05 7.136729324573e-04 0.0 
0.0 0.0 0.0 
1.306351659034e-04 1.075964999529e-04 0.0 
1.075964999529e-04 7.533513828885e-03 0.0 
0.0 0.0 0.0 
6.594180777308e-05 -8.843307898496e-06 0.0 
-8.843307898496e-06 7.138025581439e-04 0.0 
0.0 0.0 0.0 
5.847076614662e-05 3.952764541328e-05 0.0 
3.952764541328e-05 8.852941092365e-04 0.0 
0.0 0.0 0.0 
1.157811105368e-05 6.221737876738e-04 0.0 
6.221737876738e-04 1.052440610934e-03 0.0 
0.0 0.0 0.0 
-1.194543387151e-05 -9.867976159912e-05 0.0 
-9.867976159912e-05 6.959822127766e-04 0.0 
0.0 0.0 0.0 
5.797989836176e-05 4.272462089696e-04 0.0 
4.272462089696e-04 8.130073959433e-03 0.0 
0.0 0.0 0.0 
-6.200539104495e-05 5.060078042865e-04 0.0 
5.060078042865e-04 9.460377956000e-03 0.0 
0.0 0.0 0.0 
-6.595466591930e-05 1.171818603535e-04 0.0 
1.171818603535e-04 9.526909782640e-03 0.0 
0.0 0.0 0.0 
-1.539006331885e-05 6.526122955300e-04 0.0 
6.526122955300e-04 9.006297107160e-03 0.0 
0.0 0.0 0.0 
1.377499085218e-04 4.848802459186e-04 0.0 
4.848802459186e-04 7.629498189879e-03 0.0 
0.0 0.0 0.0 
-1.536785775372e-04 6.415831588392e-05 0.0 
6.415831588392e-05 7.558474727301e-03 0.0 
0.0 0.0 0.0 
0.0 1.741919970472e-04 0.0 
1.741919970472e-04 1.010305865119e-02 0.0 
0.0 0.0 0.0 
2.364612828023e-04 3.899830244981e-06 0.0 
3.899830244981e-06 1.773643278799e-03 0.0 
0.0 0.0 0.0 
-1.934468289237e-04 6.924401177127e-06 0.0 
6.924401177127e-06 6.306074618373e-03 0.0 
0.0 0.0 0.0 
1.296520842931e-05 -5.305837158470e-05 0.0 
-5.305837158470e-05 1.068244409200e-03 0.0 
0.0 0.0 0.0 
1.872852574292e-05 -2.294118403864e-05 0.0 
-2.294118403864e-05 3.797138536050e-04 0.0 
0.0 0.0 0.0 
7.389757111720e-05 1.890989240117e-04 0.0 
1.890989240117e-04 8.304520467252e-03 0.0 
0.0 0.0 0.0 
-2.808935690941e-04 6.993112113686e-05 0.0 
6.993112113686e-05 6.726019129889e-03 0.0 
0.0 0.0 0.0 
6.902278361309e-05 -2.563420345623e-05 0.0 
-2.563420345623e-05 1.043927187440e-03 0.0 
0.0 0.0 0.0 
2.943845962622e-04 3.898319891095e-05 0.0 
3.898319891095e-05 3.717441883791e-03 0.0 
0.0 0.0 0.0 
-9.346873198857e-05 5.240392766824e-04 0.0 
5.240392766824e-04 9.498597315785e-03 0.0 
0.0 0.0 0.0 
-8.757041557361e-05 9.983084685187e-05 0.0 
9.983084685187e-05 9.485343586220e-03 0.0 
0.0 0.0 0.0 
-5.490083656745e-05 2.811081100656e-04 0.0 
2.811081100656e-04 9.722186681352e-03 0.0 
0.0 0.0 0.0 
2.187290806415e-04 -3.856447179963e-05 0.0 
-3.856447179963e-05 2.586203181586e-03 0.0 
0.0 0.0 0.0 
-3.046458667211e-05 1.827140002011e-05 0.0 
1.827140002011e-05 7.288883444871e-04 0.0 
0.0 0.0 0.0 
1.031177440842e-04 2.821170479857e-04 0.0 
2.821170479857e-04 8.006874190940e-03 0.0 
0.0 0.0 0.0 
-1.823852584215e-05 2.071607936507e-05 0.0 
2.071607936507e-05 1.012565334984e-02 0.0 
0.0 0.0 0.0 
5.421338622003e-05 3.613877721112e-05 0.0 
3.613877721112e-05 8.273940686936e-03 0.0 
0.0 0.0 0.0 
-1.676634355110e-04 2.146074401853e-05 0.0 
2.146074401853e-05 6.614051152229e-03 0.0 
0.0 0.0 0.0 
9.607014372204e-05 5.198363388925e-04 0.0 
5.198363388925e-04 7.948130134605e-03 0.0 
0.0 0.0 0.0 
1.037545612801e-04 -5.313678161740e-05 0.0 
-5.313678161740e-05 1.065625859743e-03 0.0 
0.0 0.0 0.0 
-8.797358427548e-05 2.416107892344e-04 0.0 
2.416107892344e-04 9.519748064923e-03 0.0 
0.0 0.0 0.0 
-5.443311345221e-06 -3.977186442360e-05 0.0 
-3.977186442360e-05 3.667829534639e-04 0.0 
0.0 0.0 0.0 
5.177992106087e-05 4.983125623629e-04 0.0 
4.983125623629e-04 8.253582168617e-03 0.0 
0.0 0.0 0.0 
-9.454912019280e-05 3.227944628903e-04 0.0 
3.227944628903e-04 9.680670845497e-03 0.0 
0.0 0.0 0.0 
-2.465243495386e-05 6.575003396482e-05 0.0 
6.575003396482e-05 4.266382305944e-04 0.0 
0.0 0.0 0.0 
-9.561617104570e-05 5.809178946682e-04 0.0 
5.809178946682e-04 8.519628774186e-03 0.0 
0.0 0.0 0.0 
-1.192220995861e-04 -2.390673493360e-06 0.0 
-2.390673493360e-06 8.397430832906e-03 0.0 
0.0 0.0 0.0 
-3.076689894976e-05 9.175702080532e-05 0.0 
9.175702080532e-05 9.800129674772e-03 0.0 
0.0 0.0 0.0 
0.0 6.816465091237e-04 0.0 
6.816465091237e-04 9.050062223239e-03 0.0 
0.0 0.0 0.0 
-1.426179458930e-04 -3.852186910603e-05 0.0 
-3.852186910603e-05 7.839072486942e-03 0.0 
0.0 0.0 0.0 
-5.355391543216e-05 4.889443307205e-04 0.0 
4.889443307205e-04 9.528278024113e-03 0.0 
0.0 0.0 0.0 
-1.199802933438e-04 2.489868335153e-04 0.0 
2.489868335153e-04 9.466800826453e-03 0.0 
0.0 0.0 0.0 
-1.282338457897e-04 1.867289566459e-05 0.0 
1.867289566459e-05 8.085829501943e-03 0.0 
0.0 0.0 0.0 
-9.861086909180e-05 4.752295850819e-04 0.0 
4.752295850819e-04 9.255840140134e-03 0.0 
0.0 0.0 0.0 
2.730848224552e-04 -3.246518928890e-05 0.0 
-3.246518928890e-05 3.138153490973e-03 0.0 
0.0 0.0 0.0 
-1.822442048295e-04 -1.867111091124e-06 0.0 
-1.867111091124e-06 6.307766534979e-03 0.0 
0.0 0.0 0.0 
-1.928401754736e-05 6.635924647401e-04 0.0 
6.635924647401e-04 8.725194675789e-03 0.0 
0.0 0.0 0.0 
-2.982534407403e-05 2.984164054536e-05 0.0 
2.984164054536e-05 9.836096337393e-03 0.0 
0.0 0.0 0.0 
9.134804458411e-06 1.123671487217e-05 0.0 
1.123671487217e-05 9.217653526483e-05 0.0 
0.0 0.0 0.0 
-1.727268109680e-04 8.660352607250e-06 0.0 
8.660352607250e-06 6.307856039983e-03 0.0 
0.0 0.0 0.0 
7.272993510199e-05 7.470330469618e-06 0.0 
7.470330469618e-06 7.949101382686e-03 0.0 
0.0 0.0 0.0 
1.135540533068e-04 -1.952216931158e-05 0.0 
-1.952216931158e-05 1.370397846526e-03 0.0 
0.0 0.0 0.0 
1.093052552599e-04 5.925274130332e-04 0.0 
5.925274130332e-04 8.051328120612e-03 0.0 
0.0 0.0 0.0 
-1.384628238766e-04 3.026142834377e-04 0.0 
3.026142834377e-04 9.381124977619e-03 0.0 
0.0 0.0 0.0 
-5.945260525964e-05 6.384274450381e-05 0.0 
6.384274450381e-05 9.773935133415e-03 0.0 
0.0 0.0 0.0 
1.083458378301e-04 -4.548368857309e-06 0.0 
-4.548368857309e-06 1.312139552148e-03 0.0 
0.0 0.0 0.0 
1.188800014433e-04 5.546876806101e-04 0.0 
5.546876806101e-04 1.328419931867e-03 0.0 
0.0 0.0 0.0 
3.009141377035e-04 5.487959558575e-05 0.0 
5.487959558575e-05 4.598129867249e-03 0.0 
0.0 0.0 0.0 
-1.039028129314e-04 3.188412109070e-05 0.0 
3.188412109070e-05 8.838993533340e-03 0.0 
0.0 0.0 0.0 
-5.112196408537e-04 -3.346716488970e-05 0.0 
-3.346716488970e-05 3.260508875318e-04 0.0 
0.0 0.0 0.0 
-4.548916974889e-05 2.263211941376e-04 0.0 
2.263211941376e-04 9.773306598201e-03 0.0 
0.0 0.0 0.0 
-1.414640450009e-04 1.789747908522e-05 0.0 
1.789747908522e-05 7.715110883793e-03 0.0 
0.0 0.0 0.0 
1.118468983716e-04 -9.559044800647e-05 0.0 
-9.559044800647e-05 1.309998029450e-03 0.0 
0.0 0.0 0.0 
-1.603365469358e-04 2.628017377828e-05 0.0 
2.628017377828e-05 7.426869952525e-03 0.0 
0.0 0.0 0.0 
-4.542930314866e-05 6.586570787862e-04 0.0 
6.586570787862e-04 9.034305993715e-03 0.0 
0.0 0.0 0.0 
3.077869657606e-04 -4.159731120721e-05 0.0 
-4.159731120721e-05 4.830264405254e-03 0.0 
0.0 0.0 0.0 
-3.354392089180e-04 3.408868690078e-04 0.0 
3.408868690078e-04 7.575083853977e-04 0.0 
0.0 0.0 0.0 
2.546871988132e-04 7.391097777669e-06 0.0 
7.391097777669e-06 2.835261314091e-03 0.0 
0.0 0.0 0.0 
3.197007137714e-04 3.107919461480e-05 0.0 
3.107919461480e-05 4.190746109201e-03 0.0 
0.0 0.0 0.0 
3.160240576192e-04 5.777969762122e-05 0.0 
5.777969762122e-05 5.030047526190e-03 0.0 
0.0 0.0 0.0 
-4.081245527310e-06 6.275912763801e-04 0.0 
6.275912763801e-04 8.534243935641e-03 0.0 
0.0 0.0 0.0 
3.015286479000e-04 -2.372733826738e-05 0.0 
-2.372733826738e-05 4.081040743597e-03 0.0 
0.0 0.0 0.0 
3.209964633784e-04 2.495912228627e-05 0.0 
2.495912228627e-05 4.346430276345e-03 0.0 
0.0 0.0 0.0 
-1.048054518471e-05 -1.355804529617e-05 0.0 
-1.355804529617e-05 6.475448158574e-04 0.0 
0.0 0.0 0.0 
1.228159934941e-04 2.826603698600e-04 0.0 
2.826603698600e-04 7.689798484481e-03 0.0 
0.0 0.0 0.0 
-1.126774362757e-04 5.740993269271e-04 0.0 
5.740993269271e-04 8.713679255886e-03 0.0 
0.0 0.0 0.0 
2.518387750343e-04 5.895774569941e-04 0.0 
5.895774569941e-04 1.502324388611e-03 0.0 
0.0 0.0 0.0 
-1.837930397042e-05 1.637241211626e-06 0.0 
1.637241211626e-06 9.823023148514e-03 0.0 
0.0 0.0 0.0 
5.993001251636e-05 5.405586560395e-05 0.0 
5.405586560395e-05 7.935541781689e-03 0.0 
0.0 0.0 0.0 
-1.710313726567e-04 -2.180196414753e-05 0.0 
-2.180196414753e-05 6.636800806023e-03 0.0 
0.0 0.0 0.0 
-1.505014310881e-04 1.497788511509e-05 0.0 
1.497788511509e-05 7.714217160716e-03 0.0 
0.0 0.0 0.0 
3.112688020228e-04 3.380847189311e-05 0.0 
3.380847189311e-05 4.074592603930e-03 0.0 
0.0 0.0 0.0 
3.185496646485e-04 -9.619541050497e-06 0.0 
-9.619541050497e-06 4.210654648375e-03 0.0 
0.0 0.0 0.0 
3.011305938343e-04 2.752284600821e-06 0.0 
2.752284600821e-06 4.363982775407e-03 0.0 
0.0 0.0 0.0 
1.165949880237e-04 5.865812787873e-04 0.0 
5.865812787873e-04 7.789304304063e-03 0.0 
0.0 0.0 0.0 
9.920878484571e-05 -3.606113525586e-05 0.0 
-3.606113525586e-05 1.046311630614e-03 0.0 
0.0 0.0 0.0 
-1.276224337934e-04 5.511306532831e-04 0.0 
5.511306532831e-04 8.998880291255e-03 0.0 
0.0 0.0 0.0 
-1.616663569706e-04 1.801933562267e-05 0.0 
1.801933562267e-05 7.000583419839e-03 0.0 
0.0 0.0 0.0 
-8.486319542644e-05 1.968529322346e-04 0.0 
1.968529322346e-04 9.751628282589e-03 0.0 
0.0 0.0 0.0 
9.539118058943e-05 5.313694520135e-04 0.0 
5.313694520135e-04 7.782514399288e-03 0.0 
0.0 0.0 0.0 
-1.643261013854e-04 9.137773160164e-06 0.0 
9.137773160164e-06 7.435266079193e-03 0.0 
0.0 0.0 0.0 
-1.340589006972e-04 4.757829727051e-04 0.0 
4.757829727051e-04 9.012070936986e-03 0.0 
0.0 0.0 0.0 
1.666936219125e-05 6.548390778179e-04 0.0 
6.548390778179e-04 8.523919615163e-03 0.0 
0.0 0.0 0.0 
-8.472473325249e-06 6.871628250742e-04 0.0 
6.871628250742e-04 8.858076901668e-03 0.0 
0.0 0.0 0.0 
-8.910712799048e-05 4.237710182065e-04 0.0 
4.237710182065e-04 5.907863246970e-04 0.0 
0.0 0.0 0.0 
-1.639961930120e-04 4.495266788718e-04 0.0 
4.495266788718e-04 9.015075662316e-03 0.0 
0.0 0.0 0.0 
-1.218125160510e-04 5.318760395004e-04 0.0 
5.318760395004e-04 9.169846600525e-03 0.0 
0.0 0.0 0.0 
-3.570921663254e-06 -6.535622594359e-05 0.0 
-6.535622594359e-05 6.753320032573e-04 0.0 
0.0 0.0 0.0 
3.048878948373e-04 -1.635133767082e-05 0.0 
-1.635133767082e-05 3.864249385390e-03 0.0 
0.0 0.0 0.0 
-2.227725760537e-04 3.051938205146e-04 0.0 
3.051938205146e-04 6.815257655339e-04 0.0 
0.0 0.0 0.0 
-1.455832969030e-04 4.650160362113e-04 0.0 
4.650160362113e-04 9.265426789573e-03 0.0 
0.0 0.0 0.0 
-1.567150090820e-04 8.479973896871e-06 0.0 
8.479973896871e-06 2.976039639285e-03 0.0 
0.0 0.0 0.0 
-1.273087525645e-04 2.345273422623e-05 0.0 
2.345273422623e-05 2.920058132254e-03 0.0 
0.0 0.0 0.0 
-1.453873649943e-04 5.374945968674e-06 0.0 
5.374945968674e-06 2.918694276667e-03 0.0 
0.0 0.0 0.0 
-1.322541442069e-04 5.571913133640e-07 0.0 
5.571913133640e-07 2.916112329409e-03 0.0 
0.0 0.0 0.0 
-1.422534565574e-04 -1.435128916401e-06 0.0 
-1.435128916401e-06 2.915915728040e-03 0.0 
0.0 0.0 0.0 
-1.364293260686e-04 -4.594296573840e-06 0.0 
-4.594296573840e-06 2.916785464837e-03 0.0 
0.0 0.0 0.0 
-1.398334295167e-04 -4.991739082544e-06 0.0 
-4.991739082544e-06 2.916744462460e-03 0.0 
0.0 0.0 0.0 
-1.356784624124e-04 -6.748754732780e-06 0.0 
-6.748754732780e-06 2.916526256160e-03 0.0 
0.0 0.0 0.0 
-1.363632595126e-04 -6.813600916488e-06 0.0 
-6.813600916488e-06 2.916520117074e-03 0.0 
0.0 0.0 0.0 
-1.313845299422e-04 -8.184676681747e-06 0.0 
-8.184676681747e-06 2.915049789666e-03 0.0 
0.0 0.0 0.0 
-1.315339471122e-04 -7.899981677298e-06 0.0 
-7.899981677298e-06 2.915117477795e-03 0.0 
0.0 0.0 0.0 
-1.244401109960e-04 -9.457076190180e-06 0.0 
-9.457076190180e-06 2.912499942360e-03 0.0 
0.0 0.0 0.0 
-1.253282433968e-04 -8.712681006769e-06 0.0 
-8.712681006769e-06 2.912716450563e-03 0.0 
0.0 0.0 0.0 
-1.153174249796e-04 -1.075304521902e-05 0.0 
-1.075304521902e-05 2.909001865569e-03 0.0 
0.0 0.0 0.0 
-1.177890026298e-04 -9.438018565261e-06 0.0 
-9.438018565261e-06 2.909464988034e-03 0.0 
0.0 0.0 0.0 
-1.042223102620e-04 -1.212235839085e-05 0.0 
-1.212235839085e-05 2.904627544804e-03 0.0 
0.0 0.0 0.0 
-1.089593793863e-04 -1.013443753148e-05 0.0 
-1.013443753148e-05 2.905457573104e-03 0.0 
0.0 0.0 0.0 
-9.120164583154e-05 -1.356045800695e-05 0.0 
-1.356045800695e-05 2.899407356921e-03 0.0 
0.0 0.0 0.0 
-9.886895483557e-05 -1.080553517330e-05 0.0 
-1.080553517330e-05 2.900750496952e-03 0.0 
0.0 0.0 0.0 
-7.620901965477e-05 -1.504548581715e-05 0.0 
-1.504548581715e-05 2.893349534859e-03 0.0 
0.0 0.0 0.0 
8.982760372089e-05 8.982207519223e-05 0.0 
8.982207519223e-05 2.828010668402e-03 0.0 
0.0 0.0 0.0 
-8.754716436843e-05 -1.143418753921e-05 0.0 
-1.143418753921e-05 2.895384757025e-03 0.0 
0.0 0.0 0.0 
-5.914622289072e-05 -1.655752208886e-05 0.0 
-1.655752208886e-05 2.886461519359e-03 0.0 
0.0 0.0 0.0 
-7.504769714139e-05 -1.199759346488e-05 0.0 
-1.199759346488e-05 2.889412925871e-03 0.0 
0.0 0.0 0.0 
3.203176632660e-04 -2.924848466632e-05 0.0 
-2.924848466632e-05 2.602078238420e-03 0.0 
0.0 0.0 0.0 
-3.989338600030e-05 -1.808154131483e-05 0.0 
-1.808154131483e-05 2.878764547624e-03 0.0 
0.0 0.0 0.0 
-6.148745742485e-05 -1.251201461325e-05 0.0 
-1.251201461325e-05 2.882898940436e-03 0.0 
0.0 0.0 0.0 
-7.644622029301e-05 8.381797964823e-05 0.0 
8.381797964823e-05 2.875583219949e-03 0.0 
0.0 0.0 0.0 
-1.836721168791e-05 -1.962060915297e-05 0.0 
-1.962060915297e-05 2.870261192937e-03 0.0 
0.0 0.0 0.0 
-4.702898880027e-05 -1.299082322222e-05 0.0 
-1.299082322222e-05 2.875908632516e-03 0.0 
0.0 0.0 0.0 
5.462941642165e-06 -2.117743073526e-05 0.0 
-2.117743073526e-05 2.860982823685e-03 0.0 
0.0 0.0 0.0 
-3.193121399758e-05 -1.351715346768e-05 0.0 
-1.351715346768e-05 2.868513784316e-03 0.0 
0.0 0.0 0.0 
3.151103388266e-05 -2.277097736465e-05 0.0 
-2.277097736465e-05 2.850919540013e-03 0.0 
0.0 0.0 0.0 
-1.650710442824e-05 -1.399330129654e-05 0.0 
-1.399330129654e-05 2.860867282755e-03 0.0 
0.0 0.0 0.0 
5.968394931077e-05 -2.432683014311e-05 0.0 
-2.432683014311e-05 2.840260775418e-03 0.0 
0.0 0.0 0.0 
-1.405290639633e-06 -1.465586470624e-05 0.0 
-1.465586470624e-05 2.853113237411e-03 0.0 
0.0 0.0 0.0 
8.958987949326e-05 -2.585552935847e-05 0.0 
-2.585552935847e-05 2.828857171408e-03 0.0 
0.0 0.0 0.0 
-1.669755777348e-04 3.057553269245e-04 0.0 
3.057553269245e-04 2.994767090301e-03 0.0 
0.0 0.0 0.0 
1.285408363083e-05 -1.490937341149e-05 0.0 
-1.490937341149e-05 2.845629953133e-03 0.0 
0.0 0.0 0.0 
1.209905113437e-04 -2.696952037730e-05 0.0 
-2.696952037730e-05 2.817386556165e-03 0.0 
0.0 0.0 0.0 
2.464852201856e-05 -1.563581981592e-05 0.0 
-1.563581981592e-05 2.838531101449e-03 0.0 
0.0 0.0 0.0 
1.526537275980e-04 -2.782186284163e-05 0.0 
-2.782186284163e-05 2.805053964122e-03 0.0 
0.0 0.0 0.0 
1.841959614712e-04 -2.686429389388e-05 0.0 
-2.686429389388e-05 2.794834968998e-03 0.0 
0.0 0.0 0.0 
3.347488683758e-05 -1.412909212015e-05 0.0 
-1.412909212015e-05 2.833216870704e-03 0.0 
0.0 0.0 0.0 
2.121728392335e-04 -2.538826127769e-05 0.0 
-2.538826127769e-05 2.781456147797e-03 0.0 
0.0 0.0 0.0 
3.403922080181e-05 -1.507507383253e-05 0.0 
-1.507507383253e-05 2.828846351853e-03 0.0 
0.0 0.0 0.0 
2.360908313164e-04 -1.644569910977e-05 0.0 
-1.644569910977e-05 2.775872368546e-03 0.0 
0.0 0.0 0.0 
2.985492323804e-05 -7.086082587888e-06 0.0 
-7.086082587888e-06 2.829576434844e-03 0.0 
0.0 0.0 0.0 
2.449956053723e-04 -5.418532665179e-06 0.0 
-5.418532665179e-06 2.757029285797e-03 0.0 
0.0 0.0 0.0 
2.360092340237e-04 4.160836607302e-05 0.0 
4.160836607302e-05 2.762776395157e-03 0.0 
0.0 0.0 0.0 
3.989240148217e-06 -7.522874533222e-06 0.0 
-7.522874533222e-06 2.829173085302e-03 0.0 
0.0 0.0 0.0 
-3.200600152464e-06 2.833234782244e-05 0.0 
2.833234782244e-05 2.841054142333e-03 0.0 
0.0 0.0 0.0 
-8.358052050794e-05 1.635898593522e-05 0.0 
1.635898593522e-05 2.892424578891e-03 0.0 
0.0 0.0 0.0 
-1.698269289639e-04 -5.118683506312e-05 0.0 
-5.118683506312e-05 2.930434812328e-03 0.0 
0.0 0.0 0.0 
-1.967762731725e-04 6.929118291846e-05 0.0 
6.929118291846e-05 2.978393347495e-03 0.0 
0.0 0.0 0.0 
-2.058545438960e-04 4.527099847756e-06 0.0 
4.527099847756e-06 2.855805047413e-03 0.0 
0.0 0.0 0.0 
-1.605706529323e-04 1.466912668052e-05 0.0 
1.466912668052e-05 3.050710125617e-03 0.0 
0.0 0.0 0.0 
-8.418437564672e-05 2.961759083235e-04 0.0 
2.961759083235e-04 2.612758620288e-03 0.0 
0.0 0.0 0.0 
-1.567150090820e-04 -1.216358274152e-05 0.0 
-1.216358274152e-05 3.317975466240e-03 0.0 
0.0 0.0 0.0 
-1.562156141584e-04 6.302510466379e-06 0.0 
6.302510466379e-06 3.353025465268e-03 0.0 
0.0 0.0 0.0 
-1.453873649943e-04 -7.514635676652e-07 0.0 
-7.514635676652e-07 3.353552060535e-03 0.0 
0.0 0.0 0.0 
-1.521993516643e-04 -4.463089854920e-06 0.0 
-4.463089854920e-06 3.352605733773e-03 0.0 
0.0 0.0 0.0 
-1.422534565574e-04 -4.581723803870e-06 0.0 
-4.581723803870e-06 3.352586318365e-03 0.0 
0.0 0.0 0.0 
-1.491058273583e-04 -8.691629293886e-06 0.0 
-8.691629293886e-06 3.350837507019e-03 0.0 
0.0 0.0 0.0 
-1.398334295167e-04 -8.838610052148e-06 0.0 
-8.838610052148e-06 3.350805253184e-03 0.0 
0.0 0.0 0.0 
-1.464726607613e-04 -1.255157576955e-05 0.0 
-1.255157576955e-05 3.349517193048e-03 0.0 
0.0 0.0 0.0 
-1.363632595126e-04 -1.223627414871e-05 0.0 
-1.223627414871e-05 3.349363091024e-03 0.0 
0.0 0.0 0.0 
-1.436704516703e-04 -1.613572270098e-05 0.0 
-1.613572270098e-05 3.348182268809e-03 0.0 
0.0 0.0 0.0 
-1.315339471122e-04 -1.504411455680e-05 0.0 
-1.504411455680e-05 3.347768778556e-03 0.0 
0.0 0.0 0.0 
-1.403356235600e-04 -1.955541511497e-05 0.0 
-1.955541511497e-05 3.346552250522e-03 0.0 
0.0 0.0 0.0 
-1.253282433968e-04 -1.754611724409e-05 0.0 
-1.754611724409e-05 3.345739332446e-03 0.0 
0.0 0.0 0.0 
-1.362984436166e-04 -2.291178327753e-05 0.0 
-2.291178327753e-05 3.344513378251e-03 0.0 
0.0 0.0 0.0 
-1.177890026298e-04 -1.991102889820e-05 0.0 
-1.991102889820e-05 3.343151975935e-03 0.0 
0.0 0.0 0.0 
-1.315276487367e-04 -2.626070939311e-05 0.0 
-2.626070939311e-05 3.342045091867e-03 0.0 
0.0 0.0 0.0 
-1.089593793863e-04 -2.222162875613e-05 0.0 
-2.222162875613e-05 3.339970902041e-03 0.0 
0.0 0.0 0.0 
-1.260532804663e-04 -2.962228376567e-05 0.0 
-2.962228376567e-05 3.339167492436e-03 0.0 
0.0 0.0 0.0 
-9.886895483557e-05 -2.450127641946e-05 0.0 
-2.450127641946e-05 3.336192536741e-03 0.0 
0.0 0.0 0.0 
-1.030717448469e-04 1.031683870420e-04 0.0 
1.031683870420e-04 3.308785608937e-03 0.0 
0.0 0.0 0.0 
-1.199476923547e-04 -3.297817027533e-05 0.0 
-3.297817027533e-05 3.335929179631e-03 0.0 
0.0 0.0 0.0 
-8.754716436843e-05 -2.673432409062e-05 0.0 
-2.673432409062e-05 3.331837676704e-03 0.0 
0.0 0.0 0.0 
-1.133116230982e-04 -3.627389581865e-05 0.0 
-3.627389581865e-05 3.332406654361e-03 0.0 
0.0 0.0 0.0 
-1.559611235399e-04 7.982211837391e-05 0.0 
7.982211837391e-05 3.341602387310e-03 0.0 
0.0 0.0 0.0 
-7.504769714139e-05 -2.886398107788e-05 0.0 
-2.886398107788e-05 3.326948969848e-03 0.0 
0.0 0.0 0.0 
-1.062933314471e-04 -3.939951259792e-05 0.0 
-3.939951259792e-05 3.328721341868e-03 0.0 
0.0 0.0 0.0 
-6.148745742485e-05 -3.081412373600e-05 0.0 
-3.081412373600e-05 3.321628280315e-03 0.0 
0.0 0.0 0.0 
-9.922512493432e-05 -4.228250124196e-05 0.0 
-4.228250124196e-05 3.325019613152e-03 0.0 
0.0 0.0 0.0 
-4.702898880027e-05 -3.249430785937e-05 0.0 
-3.249430785937e-05 3.315965599752e-03 0.0 
0.0 0.0 0.0 
-3.200600152464e-06 8.175858922017e-05 0.0 
8.175858922017e-05 3.130004461949e-03 0.0 
0.0 0.0 0.0 
-9.235305339494e-05 -4.477144079313e-05 0.0 
-4.477144079313e-05 3.321441279083e-03 0.0 
0.0 0.0 0.0 
-3.193121399758e-05 -3.379183252655e-05 0.0 
-3.379183252655e-05 3.310079184872e-03 0.0 
0.0 0.0 0.0 
-8.629330147869e-05 -4.679029764288e-05 0.0 
-4.679029764288e-05 3.318136511791e-03 0.0 
0.0 0.0 0.0 
-1.650710442824e-05 -3.447378002224e-05 0.0 
-3.447378002224e-05 3.303950139102e-03 0.0 
0.0 0.0 0.0 
-8.109332571848e-05 -4.776357125904e-05 0.0 
-4.776357125904e-05 3.315319695680e-03 0.0 
0.0 0.0 0.0 
-1.405290639633e-06 -3.427105863762e-05 0.0 
-3.427105863762e-05 3.297980714748e-03 0.0 
0.0 0.0 0.0 
-7.852068471459e-05 -4.782958807872e-05 0.0 
-4.782958807872e-05 3.313218301824e-03 0.0 
0.0 0.0 0.0 
1.285408363083e-05 -3.252061656089e-05 0.0 
-3.252061656089e-05 3.291671031256e-03 0.0 
0.0 0.0 0.0 
-7.752917285064e-05 -4.501919840631e-05 0.0 
-4.501919840631e-05 3.312208099829e-03 0.0 
0.0 0.0 0.0 
2.464852201856e-05 -2.867998368324e-05 0.0 
-2.867998368324e-05 3.286626577591e-03 0.0 
0.0 0.0 0.0 
-8.336831337019e-05 -4.087183524195e-05 0.0 
-4.087183524195e-05 3.312527005645e-03 0.0 
0.0 0.0 0.0 
-1.721009592117e-04 1.975568719883e-04 0.0 
1.975568719883e-04 3.378252957908e-03 0.0 
0.0 0.0 0.0 
-8.991534133540e-05 -2.725540728140e-05 0.0 
-2.725540728140e-05 3.315514969798e-03 0.0 
0.0 0.0 0.0 
3.347488683758e-05 -2.057382659154e-05 0.0 
-2.057382659154e-05 3.279628655768e-03 0.0 
0.0 0.0 0.0 
-1.154302278400e-04 -1.665506610112e-05 0.0 
-1.665506610112e-05 3.319670808530e-03 0.0 
0.0 0.0 0.0 
3.403922080181e-05 -8.082289174565e-06 0.0 
-8.082289174565e-06 3.279813027549e-03 0.0 
0.0 0.0 0.0 
-1.156501128291e-04 2.589696415073e-05 0.0 
2.589696415073e-05 3.322310632890e-03 0.0 
0.0 0.0 0.0 
2.985492323804e-05 1.600906670354e-05 0.0 
1.600906670354e-05 3.266026744562e-03 0.0 
0.0 0.0 0.0 
3.989240148217e-06 5.737830136095e-05 0.0 
5.737830136095e-05 3.271055981882e-03 0.0 
0.0 0.0 0.0 
-1.362931134566e-04 8.968316889583e-05 0.0 
8.968316889583e-05 3.224832532057e-03 0.0 
0.0 0.0 0.0 
-1.736947683058e-04 -5.845043454690e-05 0.0 
-5.845043454690e-05 3.369453127408e-03 0.0 
0.0 0.0 0.0 
-1.435538527117e-04 5.309377893474e-05 0.0 
5.309377893474e-05 3.315460700423e-03 0.0 
0.0 0.0 0.0 
-1.564255812512e-04 -7.608161697780e-06 0.0 
-7.608161697780e-06 3.452570826988e-03 0.0 
0.0 0.0 0.0 
-1.605706529323e-04 3.694127049041e-06 0.0 
3.694127049041e-06 3.234929984362e-03 0.0 
0.0 0.0 0.0 
-7.644622029301e-05 2.082967483163e-04 0.0 
2.082967483163e-04 3.102594623518e-03 0.0 
0.0 0.0 0.0 
-1.582683338900e-04 -1.587092463523e-05 0.0 
-1.587092463523e-05 3.822120480163e-03 0.0 
0.0 0.0 0.0 
-1.562156141584e-04 2.179046873120e-06 0.0 
2.179046873120e-06 3.785711997145e-03 0.0 
0.0 0.0 0.0 
-1.577396848923e-04 -7.117437069056e-06 0.0 
-7.117437069056e-06 3.784906488278e-03 0.0 
0.0 0.0 0.0 
-1.521993516643e-04 -7.791459714180e-06 0.0 
-7.791459714180e-06 3.781325371759e-03 0.0 
0.0 0.0 0.0 
-1.559626367484e-04 -9.501601743967e-06 0.0 
-9.501601743967e-06 3.781118316166e-03 0.0 
0.0 0.0 0.0 
-1.491058273583e-04 -1.182346402109e-05 0.0 
-1.182346402109e-05 3.779642070454e-03 0.0 
0.0 0.0 0.0 
-1.543321819349e-04 -1.305961180404e-05 0.0 
-1.305961180404e-05 3.779466606981e-03 0.0 
0.0 0.0 0.0 
-1.464726607613e-04 -1.605620350279e-05 0.0 
-1.605620350279e-05 3.778564569549e-03 0.0 
0.0 0.0 0.0 
-1.529589291519e-04 -1.674679333868e-05 0.0 
-1.674679333868e-05 3.778491074929e-03 0.0 
0.0 0.0 0.0 
-1.436704516703e-04 -2.031327728431e-05 0.0 
-2.031327728431e-05 3.777670232278e-03 0.0 
0.0 0.0 0.0 
-1.516294353644e-04 -2.040283806447e-05 0.0 
-2.040283806447e-05 3.777782276636e-03 0.0 
0.0 0.0 0.0 
-1.403356235600e-04 -2.453102733780e-05 0.0 
-2.453102733780e-05 3.776664155350e-03 0.0 
0.0 0.0 0.0 
-1.501721912666e-04 -2.400858367164e-05 0.0 
-2.400858367164e-05 3.777050944357e-03 0.0 
0.0 0.0 0.0 
-1.362984436166e-04 -2.871494030481e-05 0.0 
-2.871494030481e-05 3.775358945861e-03 0.0 
0.0 0.0 0.0 
-1.484901978834e-04 -2.752681116768e-05 0.0 
-2.752681116768e-05 3.776140956881e-03 0.0 
0.0 0.0 0.0 
-1.315276487367e-04 -3.284170882236e-05 0.0 
-3.284170882236e-05 3.773716657181e-03 0.0 
0.0 0.0 0.0 
-1.466633635077e-04 -3.094728668535e-05 0.0 
-3.094728668535e-05 3.775037344528e-03 0.0 
0.0 0.0 0.0 
-1.260532804663e-04 -3.689243653294e-05 0.0 
-3.689243653294e-05 3.771719607606e-03 0.0 
0.0 0.0 0.0 
-1.852659924086e-04 7.319547993099e-05 0.0 
7.319547993099e-05 3.768517359910e-03 0.0 
0.0 0.0 0.0 
-1.447872370625e-04 -3.423535994549e-05 0.0 
-3.423535994549e-05 3.773760205961e-03 0.0 
0.0 0.0 0.0 
-1.199476923547e-04 -4.081068509272e-05 0.0 
-4.081068509272e-05 3.769385964330e-03 0.0 
0.0 0.0 0.0 
-1.429874279264e-04 -3.733759808486e-05 0.0 
-3.733759808486e-05 3.772364495547e-03 0.0 
0.0 0.0 0.0 
-1.156501128291e-04 6.716869917344e-05 0.0 
6.716869917344e-05 3.602485147195e-03 0.0 
0.0 0.0 0.0 
-1.133116230982e-04 -4.449192076576e-05 0.0 
-4.449192076576e-05 3.766728149122e-03 0.0 
0.0 0.0 0.0 
-2.141065975091e-04 6.377728992477e-05 0.0 
6.377728992477e-05 3.785145701191e-03 0.0 
0.0 0.0 0.0 
-1.413813979069e-04 -4.013253874637e-05 0.0 
-4.013253874637e-05 3.770912839728e-03 0.0 
0.0 0.0 0.0 
-1.062933314471e-04 -4.773256815840e-05 0.0 
-4.773256815840e-05 3.763759146401e-03 0.0 
0.0 0.0 0.0 
-1.401531753917e-04 -4.228769733770e-05 0.0 
-4.228769733770e-05 3.769540989089e-03 0.0 
0.0 0.0 0.0 
-9.922512493432e-05 -5.024644622541e-05 0.0 
-5.024644622541e-05 3.760807639872e-03 0.0 
0.0 0.0 0.0 
-1.399299556094e-04 -4.380695788187e-05 0.0 
-4.380695788187e-05 3.768497719172e-03 0.0 
0.0 0.0 0.0 
-9.235305339494e-05 -5.180963608893e-05 0.0 
-5.180963608893e-05 3.757676469275e-03 0.0 
0.0 0.0 0.0 
-1.408765871197e-04 -4.407704244552e-05 0.0 
-4.407704244552e-05 3.767879103640e-03 0.0 
0.0 0.0 0.0 
-8.629330147869e-05 -5.200650210590e-05 0.0 
-5.200650210590e-05 3.755005923860e-03 0.0 
0.0 0.0 0.0 
-2.179871365270e-04 1.454411894897e-04 0.0 
1.454411894897e-04 3.818732479223e-03 0.0 
0.0 0.0 0.0 
-1.438969389862e-04 -4.359533304941e-05 0.0 
-4.359533304941e-05 3.767826232014e-03 0.0 
0.0 0.0 0.0 
-8.109332571848e-05 -5.032250521849e-05 0.0 
-5.032250521849e-05 3.751347147226e-03 0.0 
0.0 0.0 0.0 
-1.481147877823e-04 -3.978279435921e-05 0.0 
-3.978279435921e-05 3.768291055695e-03 0.0 
0.0 0.0 0.0 
-7.852068471459e-05 -4.571700589469e-05 0.0 
-4.571700589469e-05 3.749729974462e-03 0.0 
0.0 0.0 0.0 
-7.752917285064e-05 -3.718286790766e-05 0.0 
-3.718286790766e-05 3.744026068764e-03 0.0 
0.0 0.0 0.0 
-1.571897432329e-04 -3.564137421537e-05 0.0 
-3.564137421537e-05 3.769660986286e-03 0.0 
0.0 0.0 0.0 
-8.336831337019e-05 -2.257238820592e-05 0.0 
-2.257238820592e-05 3.745554339141e-03 0.0 
0.0 0.0 0.0 
-1.656244957031e-04 -2.221068064418e-05 0.0 
-2.221068064418e-05 3.771423892434e-03 0.0 
0.0 0.0 0.0 
-8.991534133540e-05 1.420497246990e-06 0.0 
1.420497246990e-06 3.730314069844e-03 0.0 
0.0 0.0 0.0 
-1.154302278400e-04 4.096939468602e-05 0.0 
4.096939468602e-05 3.740758866181e-03 0.0 
0.0 0.0 0.0 
-1.869240284457e-04 -1.239283020521e-05 0.0 
-1.239283020521e-05 3.773981878248e-03 0.0 
0.0 0.0 0.0 
-1.836592008934e-04 2.735866174170e-05 0.0 
2.735866174170e-05 3.773534096247e-03 0.0 
0.0 0.0 0.0 
-1.951887626875e-04 7.559917846887e-05 0.0 
7.559917846887e-05 3.658844338746e-03 0.0 
0.0 0.0 0.0 
-1.406569249933e-04 -5.819314937952e-05 0.0 
-5.819314937952e-05 3.766152674913e-03 0.0 
0.0 0.0 0.0 
-1.735437248219e-04 5.205255424274e-05 0.0 
5.205255424274e-05 3.825080893890e-03 0.0 
0.0 0.0 0.0 
-1.564255812512e-04 -8.363775658283e-06 0.0 
-8.363775658283e-06 3.683750936594e-03 0.0 
0.0 0.0 0.0 
-1.581554717546e-04 3.946168820891e-06 0.0 
3.946168820891e-06 3.904475611842e-03 0.0 
0.0 0.0 0.0 
-1.559611235399e-04 1.512834951941e-04 0.0 
1.512834951941e-04 3.573353112234e-03 0.0 
0.0 0.0 0.0 
-1.582683338900e-04 -1.697945082563e-05 0.0 
-1.697945082563e-05 4.173530410333e-03 0.0 
0.0 0.0 0.0 
-1.625084359260e-04 9.878103852151e-07 0.0 
9.878103852151e-07 4.211781975042e-03 0.0 
0.0 0.0 0.0 
-1.577396848923e-04 -9.342639150619e-06 0.0 
-9.342639150619e-06 4.212671260349e-03 0.0 
0.0 0.0 0.0 
-1.623228179392e-04 -1.062710088363e-05 0.0 
-1.062710088363e-05 4.214274701931e-03 0.0 
0.0 0.0 0.0 
-1.559626367484e-04 -1.136409817912e-05 0.0 
-1.136409817912e-05 4.214343780203e-03 0.0 
0.0 0.0 0.0 
-1.620590990977e-04 -1.438771526064e-05 0.0 
-1.438771526064e-05 4.213904698530e-03 0.0 
0.0 0.0 0.0 
-1.543321819349e-04 -1.468371339814e-05 0.0 
-1.468371339814e-05 4.213897749873e-03 0.0 
0.0 0.0 0.0 
-1.620363901677e-04 -1.826538575972e-05 0.0 
-1.826538575972e-05 4.213633433186e-03 0.0 
0.0 0.0 0.0 
-1.529589291519e-04 -1.844250506901e-05 0.0 
-1.844250506901e-05 4.213564689499e-03 0.0 
0.0 0.0 0.0 
-1.623391341188e-04 -2.249276732412e-05 0.0 
-2.249276732412e-05 4.213613537726e-03 0.0 
0.0 0.0 0.0 
-1.516294353644e-04 -2.231782577039e-05 0.0 
-2.231782577039e-05 4.213385694205e-03 0.0 
0.0 0.0 0.0 
-1.629936859328e-04 -2.692047357603e-05 0.0 
-2.692047357603e-05 4.213749930873e-03 0.0 
0.0 0.0 0.0 
-1.501721912666e-04 -2.618054529594e-05 0.0 
-2.618054529594e-05 4.213227829242e-03 0.0 
0.0 0.0 0.0 
-1.638070913530e-04 -3.142701193902e-05 0.0 
-3.142701193902e-05 4.213864477798e-03 0.0 
0.0 0.0 0.0 
-1.484901978834e-04 -2.987186959842e-05 0.0 
-2.987186959842e-05 4.212860287844e-03 0.0 
0.0 0.0 0.0 
-1.647996614670e-04 -3.574181267395e-05 0.0 
-3.574181267395e-05 4.213969158080e-03 0.0 
0.0 0.0 0.0 
-1.466633635077e-04 -3.332322645128e-05 0.0 
-3.332322645128e-05 4.212328501405e-03 0.0 
0.0 0.0 0.0 
-2.380721292951e-04 5.009059106693e-05 0.0 
5.009059106693e-05 4.220062681846e-03 0.0 
0.0 0.0 0.0 
-1.661770949002e-04 -3.982082467369e-05 0.0 
-3.982082467369e-05 4.214110047047e-03 0.0 
0.0 0.0 0.0 
-1.447872370625e-04 -3.647097746174e-05 0.0 
-3.647097746174e-05 4.211642728893e-03 0.0 
0.0 0.0 0.0 
-2.468718491846e-04 4.415445593047e-05 0.0 
4.415445593047e-05 4.227316599405e-03 0.0 
0.0 0.0 0.0 
-1.681082316021e-04 -4.356703195466e-05 0.0 
-4.356703195466e-05 4.214345433453e-03 0.0 
0.0 0.0 0.0 
-1.429874279264e-04 -3.924432965816e-05 0.0 
-3.924432965816e-05 4.210841562015e-03 0.0 
0.0 0.0 0.0 
-1.705979833636e-04 -4.687301689204e-05 0.0 
-4.687301689204e-05 4.214648399645e-03 0.0 
0.0 0.0 0.0 
-1.413813979069e-04 -4.142560997723e-05 0.0 
-4.142560997723e-05 4.209818000055e-03 0.0 
0.0 0.0 0.0 
-1.736884384191e-04 -4.942499620426e-05 0.0 
-4.942499620426e-05 4.214967447381e-03 0.0 
0.0 0.0 0.0 
-1.836592008934e-04 5.892499823194e-05 0.0 
5.892499823194e-05 4.059888770479e-03 0.0 
0.0 0.0 0.0 
-1.401531753917e-04 -4.253736195801e-05 0.0 
-4.253736195801e-05 4.208396053239e-03 0.0 
0.0 0.0 0.0 
-1.774693664504e-04 -5.032795201410e-05 0.0 
-5.032795201410e-05 4.215615468422e-03 0.0 
0.0 0.0 0.0 
-1.399299556094e-04 -4.231862925862e-05 0.0 
-4.231862925862e-05 4.207263042984e-03 0.0 
0.0 0.0 0.0 
-1.836079125274e-04 -4.996162164035e-05 0.0 
-4.996162164035e-05 4.216798346544e-03 0.0 
0.0 0.0 0.0 
-1.408765871197e-04 -4.033055698632e-05 0.0 
-4.033055698632e-05 4.205973480083e-03 0.0 
0.0 0.0 0.0 
-1.904845082659e-04 -4.688236693431e-05 0.0 
-4.688236693431e-05 4.218527418448e-03 0.0 
0.0 0.0 0.0 
-1.438969389862e-04 -3.631060817235e-05 0.0 
-3.631060817235e-05 4.205536848208e-03 0.0 
0.0 0.0 0.0 
-2.018884684403e-04 -4.288911511643e-05 0.0 
-4.288911511643e-05 4.220290827296e-03 0.0 
0.0 0.0 0.0 
-1.481147877823e-04 -2.853325736870e-05 0.0 
-2.853325736870e-05 4.202335649969e-03 0.0 
0.0 0.0 0.0 
-2.102054625971e-04 -3.091089209496e-05 0.0 
-3.091089209496e-05 4.222446378704e-03 0.0 
0.0 0.0 0.0 
-2.463618522800e-04 1.079906591471e-04 0.0 
1.079906591471e-04 4.259067357533e-03 0.0 
0.0 0.0 0.0 
-2.306756815912e-04 -2.173949974359e-05 0.0 
-2.173949974359e-05 4.223369574885e-03 0.0 
0.0 0.0 0.0 
-1.571897432329e-04 -1.708905357487e-05 0.0 
-1.708905357487e-05 4.203511568845e-03 0.0 
0.0 0.0 0.0 
-2.274973976281e-04 1.193613334143e-05 0.0 
1.193613334143e-05 4.221873300973e-03 0.0 
0.0 0.0 0.0 
-1.656244957031e-04 2.912875506739e-06 0.0 
2.912875506739e-06 4.191906517210e-03 0.0 
0.0 0.0 0.0 
-1.869240284457e-04 3.218303255940e-05 0.0 
3.218303255940e-05 4.196597477611e-03 0.0 
0.0 0.0 0.0 
-2.285444979354e-04 6.169598733693e-05 0.0 
6.169598733693e-05 4.092479850936e-03 0.0 
0.0 0.0 0.0 
-1.763757768550e-04 -5.814976953052e-05 0.0 
-5.814976953052e-05 4.228065413454e-03 0.0 
0.0 0.0 0.0 
-1.442831101768e-04 5.163201586549e-05 0.0 
5.163201586549e-05 4.170540693813e-03 0.0 
0.0 0.0 0.0 
-1.621073216882e-04 -8.381168606124e-06 0.0 
-8.381168606124e-06 4.311783932412e-03 0.0 
0.0 0.0 0.0 
-1.581554717546e-04 3.593134850684e-06 0.0 
3.593134850684e-06 4.089827350143e-03 0.0 
0.0 0.0 0.0 
-2.141065975091e-04 1.156550971399e-04 0.0 
1.156550971399e-04 4.040203804514e-03 0.0 
0.0 0.0 0.0 
-1.667590027753e-04 -1.679764199690e-05 0.0 
-1.679764199690e-05 4.681741810740e-03 0.0 
0.0 0.0 0.0 
-1.625084359260e-04 7.745200949772e-07 0.0 
7.745200949772e-07 4.644518566183e-03 0.0 
0.0 0.0 0.0 
-1.671688348784e-04 -9.583033078136e-06 0.0 
-9.583033078136e-06 4.643494461864e-03 0.0 
0.0 0.0 0.0 
-1.623228179392e-04 -1.095239894855e-05 0.0 
-1.095239894855e-05 4.641881415480e-03 0.0 
0.0 0.0 0.0 
-1.678093455831e-04 -1.178400139692e-05 0.0 
-1.178400139692e-05 4.641787536831e-03 0.0 
0.0 0.0 0.0 
-1.620590990977e-04 -1.451580422361e-05 0.0 
-1.451580422361e-05 4.642047082266e-03 0.0 
0.0 0.0 0.0 
-1.691217959494e-04 -1.473913504473e-05 0.0 
-1.473913504473e-05 4.642073043070e-03 0.0 
0.0 0.0 0.0 
-1.620363901677e-04 -1.807712452751e-05 0.0 
-1.807712452751e-05 4.642489760863e-03 0.0 
0.0 0.0 0.0 
-1.708166549111e-04 -1.800292160899e-05 0.0 
-1.800292160899e-05 4.642645503229e-03 0.0 
0.0 0.0 0.0 
-1.623391341188e-04 -2.188452871696e-05 0.0 
-2.188452871696e-05 4.643119226540e-03 0.0 
0.0 0.0 0.0 
-1.731733368365e-04 -2.134528706609e-05 0.0 
-2.134528706609e-05 4.643524768596e-03 0.0 
0.0 0.0 0.0 
-1.629936859328e-04 -2.580799351076e-05 0.0 
-2.580799351076e-05 4.643959709332e-03 0.0 
0.0 0.0 0.0 
-1.761768084035e-04 -2.494226356864e-05 0.0 
-2.494226356864e-05 4.644666447937e-03 0.0 
0.0 0.0 0.0 
-1.638070913530e-04 -2.980858684545e-05 0.0 
-2.980858684545e-05 4.644535946266e-03 0.0 
0.0 0.0 0.0 
-1.795513214069e-04 -2.836185700634e-05 0.0 
-2.836185700634e-05 4.645744407403e-03 0.0 
0.0 0.0 0.0 
-1.647996614670e-04 -3.352293424340e-05 0.0 
-3.352293424340e-05 4.644883861367e-03 0.0 
0.0 0.0 0.0 
-2.759075533569e-04 3.070017369605e-05 0.0 
3.070017369605e-05 4.668691479882e-03 0.0 
0.0 0.0 0.0 
-1.832454921931e-04 -3.126425948365e-05 0.0 
-3.126425948365e-05 4.646834085188e-03 0.0 
0.0 0.0 0.0 
-1.661770949002e-04 -3.666774018708e-05 0.0 
-3.666774018708e-05 4.645338332764e-03 0.0 
0.0 0.0 0.0 
-2.274973976281e-04 3.991104563159e-05 0.0 
3.991104563159e-05 4.509455093885e-03 0.0 
0.0 0.0 0.0 
-1.882169857048e-04 -3.361364415634e-05 0.0 
-3.361364415634e-05 4.648242873952e-03 0.0 
0.0 0.0 0.0 
-1.681082316021e-04 -3.926125514510e-05 0.0 
-3.926125514510e-05 4.645862246007e-03 0.0 
0.0 0.0 0.0 
-2.680358648171e-04 3.515185661002e-05 0.0 
3.515185661002e-05 4.662271874833e-03 0.0 
0.0 0.0 0.0 
-1.940884290116e-04 -3.557653927703e-05 0.0 
-3.557653927703e-05 4.649853592160e-03 0.0 
0.0 0.0 0.0 
-1.705979833636e-04 -4.115369792775e-05 0.0 
-4.115369792775e-05 4.646151295901e-03 0.0 
0.0 0.0 0.0 
-2.006258426474e-04 -3.688287257691e-05 0.0 
-3.688287257691e-05 4.651416298443e-03 0.0 
0.0 0.0 0.0 
-1.736884384191e-04 -4.190197612022e-05 0.0 
-4.190197612022e-05 4.645918733421e-03 0.0 
0.0 0.0 0.0 
-2.081481139169e-04 -3.700602985561e-05 0.0 
-3.700602985561e-05 4.652740901714e-03 0.0 
0.0 0.0 0.0 
-1.774693664504e-04 -4.065699893733e-05 0.0 
-4.065699893733e-05 4.644525390711e-03 0.0 
0.0 0.0 0.0 
-2.743349371542e-04 8.003390313201e-05 0.0 
8.003390313201e-05 4.700474001407e-03 0.0 
0.0 0.0 0.0 
-2.159851708482e-04 -3.352975079015e-05 0.0 
-3.352975079015e-05 4.654232650449e-03 0.0 
0.0 0.0 0.0 
-1.836079125274e-04 -3.671873607715e-05 0.0 
-3.671873607715e-05 4.645571515523e-03 0.0 
0.0 0.0 0.0 
-2.283108896228e-04 -3.035026399226e-05 0.0 
-3.035026399226e-05 4.656634225736e-03 0.0 
0.0 0.0 0.0 
-1.904845082659e-04 -3.022564403205e-05 0.0 
-3.022564403205e-05 4.642867184492e-03 0.0 
0.0 0.0 0.0 
-2.018884684403e-04 -2.006952523150e-05 0.0 
-2.006952523150e-05 4.646637208171e-03 0.0 
0.0 0.0 0.0 
-2.386853209059e-04 -2.001877755445e-05 0.0 
-2.001877755445e-05 4.658744807692e-03 0.0 
0.0 0.0 0.0 
-2.102054625971e-04 -4.385354736225e-06 0.0 
-4.385354736225e-06 4.632822377867e-03 0.0 
0.0 0.0 0.0 
-2.581240147190e-04 -1.608205153025e-05 0.0 
-1.608205153025e-05 4.660184106362e-03 0.0 
0.0 0.0 0.0 
-2.306756815912e-04 2.175519028813e-05 0.0 
2.175519028813e-05 4.641115650488e-03 0.0 
0.0 0.0 0.0 
-2.519356081281e-04 1.261477740791e-05 0.0 
1.261477740791e-05 4.656572851265e-03 0.0 
0.0 0.0 0.0 
-2.597776266666e-04 4.038858979653e-05 0.0 
4.038858979653e-05 4.527956835295e-03 0.0 
0.0 0.0 0.0 
-1.476649608817e-04 -5.810296049170e-05 0.0 
-5.810296049170e-05 4.626408660355e-03 0.0 
0.0 0.0 0.0 
-1.804660197040e-04 5.159319120915e-05 0.0 
5.159319120915e-05 4.685169919284e-03 0.0 
0.0 0.0 0.0 
-1.621073216882e-04 -8.319653392286e-06 0.0 
-8.319653392286e-06 4.543060480753e-03 0.0 
0.0 0.0 0.0 
-1.664943947437e-04 3.816846739662e-06 0.0 
3.816846739662e-06 4.765052015022e-03 0.0 
0.0 0.0 0.0 
-2.468718491846e-04 8.203057788303e-05 0.0 
8.203057788303e-05 4.483088402837e-03 0.0 
0.0 0.0 0.0 
-1.667590027753e-04 -1.649909693367e-05 0.0 
-1.649909693367e-05 5.034318516802e-03 0.0 
0.0 0.0 0.0 
-1.707200109242e-04 1.435338929205e-06 0.0 
1.435338929205e-06 5.071968754796e-03 0.0 
0.0 0.0 0.0 
-1.671688348784e-04 -9.119217059591e-06 0.0 
-9.119217059591e-06 5.073015332454e-03 0.0 
0.0 0.0 0.0 
-1.708495499766e-04 -9.857321297171e-06 0.0 
-9.857321297171e-06 5.074799151471e-03 0.0 
0.0 0.0 0.0 
-1.678093455831e-04 -1.068949615501e-05 0.0 
-1.068949615501e-05 5.074906876549e-03 0.0 
0.0 0.0 0.0 
-1.730647742390e-04 -1.243651062622e-05 0.0 
-1.243651062622e-05 5.076019147713e-03 0.0 
0.0 0.0 0.0 
-1.691217959494e-04 -1.326597585153e-05 0.0 
-1.326597585153e-05 5.076145610975e-03 0.0 
0.0 0.0 0.0 
-1.750848068984e-04 -1.534843694259e-05 0.0 
-1.534843694259e-05 5.077066734323e-03 0.0 
0.0 0.0 0.0 
-1.708166549111e-04 -1.575670762930e-05 0.0 
-1.575670762930e-05 5.077102112120e-03 0.0 
0.0 0.0 0.0 
-1.785375583802e-04 -1.813956714192e-05 0.0 
-1.813956714192e-05 5.078629603705e-03 0.0 
0.0 0.0 0.0 
-1.731733368365e-04 -1.836726213609e-05 0.0 
-1.836726213609e-05 5.078577217219e-03 0.0 
0.0 0.0 0.0 
-1.824821196148e-04 -2.103996127886e-05 0.0 
-2.103996127886e-05 5.080503053912e-03 0.0 
0.0 0.0 0.0 
-1.761768084035e-04 -2.100319705191e-05 0.0 
-2.100319705191e-05 5.080297086276e-03 0.0 
0.0 0.0 0.0 
-1.881966651524e-04 -2.439715568701e-05 0.0 
-2.439715568701e-05 5.082559460780e-03 0.0 
0.0 0.0 0.0 
-1.795513214069e-04 -2.357295773836e-05 0.0 
-2.357295773836e-05 5.081883967850e-03 0.0 
0.0 0.0 0.0 
-2.974643961097e-04 2.011638059118e-05 0.0 
2.011638059118e-05 5.112234619626e-03 0.0 
0.0 0.0 0.0 
-1.929079395575e-04 -2.743180288329e-05 0.0 
-2.743180288329e-05 5.083925076653e-03 0.0 
0.0 0.0 0.0 
-2.786492915453e-04 2.852594048652e-05 0.0 
2.852594048652e-05 5.100855957047e-03 0.0 
0.0 0.0 0.0 
-1.832454921931e-04 -2.494665089445e-05 0.0 
-2.494665089445e-05 5.082317596860e-03 0.0 
0.0 0.0 0.0 
-1.998198274502e-04 -2.863868369664e-05 0.0 
-2.863868369664e-05 5.086102611239e-03 0.0 
0.0 0.0 0.0 
-1.882169857048e-04 -2.580613117189e-05 0.0 
-2.580613117189e-05 5.083961157368e-03 0.0 
0.0 0.0 0.0 
-2.084199480484e-04 -2.978298393092e-05 0.0 
-2.978298393092e-05 5.088813902949e-03 0.0 
0.0 0.0 0.0 
-1.940884290116e-04 -2.620148350421e-05 0.0 
-2.620148350421e-05 5.085760256588e-03 0.0 
0.0 0.0 0.0 
-2.171623283529e-04 -3.043709609721e-05 0.0 
-3.043709609721e-05 5.091136609635e-03 0.0 
0.0 0.0 0.0 
-2.519356081281e-04 3.607734116167e-05 0.0 
3.607734116167e-05 4.953351441313e-03 0.0 
0.0 0.0 0.0 
-2.006258426474e-04 -2.533831956030e-05 0.0 
-2.533831956030e-05 5.086589060000e-03 0.0 
0.0 0.0 0.0 
-2.272148648493e-04 -2.944136890249e-05 0.0 
-2.944136890249e-05 5.093164566629e-03 0.0 
0.0 0.0 0.0 
-2.081481139169e-04 -2.284254766357e-05 0.0 
-2.284254766357e-05 5.086861407257e-03 0.0 
0.0 0.0 0.0 
-2.390168366424e-04 -2.726819389862e-05 0.0 
-2.726819389862e-05 5.094150102503e-03 0.0 
0.0 0.0 0.0 
-2.159851708482e-04 -1.671828630187e-05 0.0 
-1.671828630187e-05 5.083943788127e-03 0.0 
0.0 0.0 0.0 
-2.478441676226e-04 -1.683853963905e-05 0.0 
-1.683853963905e-05 5.096238392071e-03 0.0 
0.0 0.0 0.0 
-2.283108896228e-04 -8.657524190634e-06 0.0 
-8.657524190634e-06 5.087355763266e-03 0.0 
0.0 0.0 0.0 
-2.692493767708e-04 -1.208577203184e-05 0.0 
-1.208577203184e-05 5.097979721231e-03 0.0 
0.0 0.0 0.0 
-2.653892969319e-04 1.130095408608e-05 0.0 
1.130095408608e-05 5.096923974306e-03 0.0 
0.0 0.0 0.0 
-2.386853209059e-04 4.267681864810e-06 0.0 
4.267681864810e-06 5.080006709177e-03 0.0 
0.0 0.0 0.0 
-2.857038218651e-04 6.348843723077e-05 0.0 
6.348843723077e-05 5.139561546333e-03 0.0 
0.0 0.0 0.0 
-2.581240147190e-04 2.151229097908e-05 0.0 
2.151229097908e-05 5.086932046348e-03 0.0 
0.0 0.0 0.0 
-2.718738069067e-04 3.204112933089e-05 0.0 
3.204112933089e-05 4.959664211654e-03 0.0 
0.0 0.0 0.0 
-1.846829931594e-04 -5.771177099043e-05 0.0 
-5.771177099043e-05 5.088413530824e-03 0.0 
0.0 0.0 0.0 
-1.525637246187e-04 5.212329142374e-05 0.0 
5.212329142374e-05 5.030878525335e-03 0.0 
0.0 0.0 0.0 
-1.702976080742e-04 -7.728360874827e-06 0.0 
-7.728360874827e-06 5.172206073852e-03 0.0 
0.0 0.0 0.0 
-1.664943947437e-04 4.129254019692e-06 0.0 
4.129254019692e-06 4.950532995684e-03 0.0 
0.0 0.0 0.0 
-2.680358648171e-04 6.422508637355e-05 0.0 
6.422508637355e-05 4.929921467044e-03 0.0 
0.0 0.0 0.0 
-1.761808178158e-04 -1.640180837635e-05 0.0 
-1.640180837635e-05 5.542499706573e-03 0.0 
0.0 0.0 0.0 
-1.707200109242e-04 1.963619842967e-06 0.0 
1.963619842967e-06 5.503092234199e-03 0.0 
0.0 0.0 0.0 
-1.725860515395e-04 -8.761925338954e-06 0.0 
-8.761925338954e-06 5.501836862243e-03 0.0 
0.0 0.0 0.0 
-1.708495499766e-04 -8.384454215295e-06 0.0 
-8.384454215295e-06 5.499704952960e-03 0.0 
0.0 0.0 0.0 
-1.751369489092e-04 -7.330737273593e-06 0.0 
-7.330737273593e-06 5.499924282412e-03 0.0 
0.0 0.0 0.0 
-1.730647742390e-04 -9.588037644770e-06 0.0 
-9.588037644770e-06 5.502294468878e-03 0.0 
0.0 0.0 0.0 
-1.796374675991e-04 -9.969550010675e-06 0.0 
-9.969550010675e-06 5.502295672797e-03 0.0 
0.0 0.0 0.0 
-1.750848068984e-04 -1.202220266465e-05 0.0 
-1.202220266465e-05 5.502485156693e-03 0.0 
0.0 0.0 0.0 
-1.817332602247e-04 -1.043488319024e-05 0.0 
-1.043488319024e-05 5.503095796791e-03 0.0 
0.0 0.0 0.0 
-1.785375583802e-04 -1.306992348265e-05 0.0 
-1.306992348265e-05 5.505268535952e-03 0.0 
0.0 0.0 0.0 
-1.882425339341e-04 -1.214076404335e-05 0.0 
-1.214076404335e-05 5.505898705650e-03 0.0 
0.0 0.0 0.0 
-1.824821196148e-04 -1.487167281269e-05 0.0 
-1.487167281269e-05 5.506603382520e-03 0.0 
0.0 0.0 0.0 
-1.930893256820e-04 -1.222602104409e-05 0.0 
-1.222602104409e-05 5.508142381947e-03 0.0 
0.0 0.0 0.0 
-3.052167996422e-04 1.759570707350e-05 0.0 
1.759570707350e-05 5.549722360160e-03 0.0 
0.0 0.0 0.0 
-1.881966651524e-04 -1.583185120523e-05 0.0 
-1.583185120523e-05 5.510796075032e-03 0.0 
0.0 0.0 0.0 
-2.020700957844e-04 -1.586388837438e-05 0.0 
-1.586388837438e-05 5.511549077921e-03 0.0 
0.0 0.0 0.0 
-2.653892969319e-04 3.311757211871e-05 0.0 
3.311757211871e-05 5.392766674337e-03 0.0 
0.0 0.0 0.0 
-1.929079395575e-04 -1.782688259219e-05 0.0 
-1.782688259219e-05 5.509482246196e-03 0.0 
0.0 0.0 0.0 
-2.085782904423e-04 -1.426992107752e-05 0.0 
-1.426992107752e-05 5.512463352481e-03 0.0 
0.0 0.0 0.0 
-2.796798380488e-04 3.142908207911e-05 0.0 
3.142908207911e-05 5.529504744756e-03 0.0 
0.0 0.0 0.0 
-1.998198274502e-04 -1.689660161628e-05 0.0 
-1.689660161628e-05 5.511807528913e-03 0.0 
0.0 0.0 0.0 
-2.190756764537e-04 -1.266709241231e-05 0.0 
-1.266709241231e-05 5.515961206383e-03 0.0 
0.0 0.0 0.0 
-2.084199480484e-04 -1.570285871374e-05 0.0 
-1.570285871374e-05 5.515192225559e-03 0.0 
0.0 0.0 0.0 
-2.298687157386e-04 -1.264615262207e-05 0.0 
-1.264615262207e-05 5.519415164179e-03 0.0 
0.0 0.0 0.0 
-2.171623283529e-04 -1.389106587575e-05 0.0 
-1.389106587575e-05 5.515706253047e-03 0.0 
0.0 0.0 0.0 
-2.882763670288e-04 5.618446685169e-05 0.0 
5.618446685169e-05 5.572935538622e-03 0.0 
0.0 0.0 0.0 
-2.403349586387e-04 -9.852576935381e-06 0.0 
-9.852576935381e-06 5.521443507141e-03 0.0 
0.0 0.0 0.0 
-2.272148648493e-04 -9.582152199033e-06 0.0 
-9.582152199033e-06 5.516104296167e-03 0.0 
0.0 0.0 0.0 
-2.390168366424e-04 -3.646712982618e-06 0.0 
-3.646712982618e-06 5.517309702716e-03 0.0 
0.0 0.0 0.0 
-2.536721933191e-04 -4.744139067089e-06 0.0 
-4.744139067089e-06 5.523671849902e-03 0.0 
0.0 0.0 0.0 
-2.478441676226e-04 7.452038195920e-06 0.0 
7.452038195920e-06 5.504703439780e-03 0.0 
0.0 0.0 0.0 
-2.715411155086e-04 -2.779250370195e-06 0.0 
-2.779250370195e-06 5.523538580798e-03 0.0 
0.0 0.0 0.0 
-2.692493767708e-04 2.453642138508e-05 0.0 
2.453642138508e-05 5.520707674755e-03 0.0 
0.0 0.0 0.0 
-2.669635111819e-04 2.276830731591e-05 0.0 
2.276830731591e-05 5.521939120404e-03 0.0 
0.0 0.0 0.0 
-2.771337861699e-04 2.917754480555e-05 0.0 
2.917754480555e-05 5.393389819883e-03 0.0 
0.0 0.0 0.0 
-1.527576440915e-04 -5.598125490081e-05 0.0 
-5.598125490081e-05 5.482714282616e-03 0.0 
0.0 0.0 0.0 
-1.885120662697e-04 5.434429570893e-05 0.0 
5.434429570893e-05 5.546671909275e-03 0.0 
0.0 0.0 0.0 
-1.702976080742e-04 -6.229194759221e-06 0.0 
-6.229194759221e-06 5.402660128479e-03 0.0 
0.0 0.0 0.0 
-1.715240555653e-04 6.979749161435e-06 0.0 
6.979749161435e-06 5.622611441106e-03 0.0 
0.0 0.0 0.0 
-2.786492915453e-04 5.355006169804e-05 0.0 
5.355006169804e-05 5.369396179335e-03 0.0 
0.0 0.0 0.0 
-1.761808178158e-04 -1.930054215761e-05 0.0 
-1.930054215761e-05 5.902181840706e-03 0.0 
0.0 0.0 0.0 
-1.676927146714e-04 -2.244994644113e-06 0.0 
-2.244994644113e-06 5.926767527358e-03 0.0 
0.0 0.0 0.0 
-1.725860515395e-04 -4.897660941908e-06 0.0 
-4.897660941908e-06 5.927096537708e-03 0.0 
0.0 0.0 0.0 
-1.755477455905e-04 -4.147776601959e-06 0.0 
-4.147776601959e-06 5.930926074189e-03 0.0 
0.0 0.0 0.0 
-1.751369489092e-04 -3.853989941082e-06 0.0 
-3.853989941082e-06 5.930871031240e-03 0.0 
0.0 0.0 0.0 
-1.787278183651e-04 -2.833735829430e-06 0.0 
-2.833735829430e-06 5.935467139284e-03 0.0 
0.0 0.0 0.0 
-1.796374675991e-04 -6.722677284316e-06 0.0 
-6.722677284316e-06 5.936394774632e-03 0.0 
0.0 0.0 0.0 
-1.796325076744e-04 -8.048299961463e-06 0.0 
-8.048299961463e-06 5.934129809912e-03 0.0 
0.0 0.0 0.0 
-1.817332602247e-04 -4.600995353548e-06 0.0 
-4.600995353548e-06 5.933161328293e-03 0.0 
0.0 0.0 0.0 
-1.856308456373e-04 -3.079705378363e-06 0.0 
-3.079705378363e-06 5.938310327495e-03 0.0 
0.0 0.0 0.0 
-1.882425339341e-04 -5.509122630948e-06 0.0 
-5.509122630948e-06 5.939249101731e-03 0.0 
0.0 0.0 0.0 
-1.933456047412e-04 -6.852960411263e-06 0.0 
-6.852960411263e-06 5.940332884131e-03 0.0 
0.0 0.0 0.0 
-3.047746335921e-04 1.868694122122e-05 0.0 
1.868694122122e-05 5.982828143356e-03 0.0 
0.0 0.0 0.0 
-1.930893256820e-04 -4.267838986926e-06 0.0 
-4.267838986926e-06 5.939257559329e-03 0.0 
0.0 0.0 0.0 
-2.841412182348e-04 3.740676117289e-05 0.0 
3.740676117289e-05 5.962294635740e-03 0.0 
0.0 0.0 0.0 
-1.934468289237e-04 -1.727908347182e-06 0.0 
-1.727908347182e-06 5.943351218121e-03 0.0 
0.0 0.0 0.0 
-2.020700957844e-04 -3.525005297822e-06 0.0 
-3.525005297822e-06 5.944674323501e-03 0.0 
0.0 0.0 0.0 
-2.118389676281e-04 -6.491912774427e-06 0.0 
-6.491912774427e-06 5.945592837509e-03 0.0 
0.0 0.0 0.0 
-2.085782904423e-04 -5.116384009686e-07 0.0 
-5.116384009686e-07 5.942198336846e-03 0.0 
0.0 0.0 0.0 
-2.220987641549e-04 -3.244662319132e-07 0.0 
-3.244662319132e-07 5.949199424945e-03 0.0 
0.0 0.0 0.0 
-2.190756764537e-04 1.797651376475e-06 0.0 
1.797651376475e-06 5.947689607693e-03 0.0 
0.0 0.0 0.0 
-2.301586974277e-04 1.705496392765e-06 0.0 
1.705496392765e-06 5.952636655879e-03 0.0 
0.0 0.0 0.0 
-2.669635111819e-04 4.036771548737e-05 0.0 
4.036771548737e-05 5.827120042406e-03 0.0 
0.0 0.0 0.0 
-2.298687157386e-04 5.096810532045e-06 0.0 
5.096810532045e-06 5.950411923388e-03 0.0 
0.0 0.0 0.0 
-2.424147487743e-04 3.826440023653e-06 0.0 
3.826440023653e-06 5.954020751857e-03 0.0 
0.0 0.0 0.0 
-2.403349586387e-04 1.166453147512e-05 0.0 
1.166453147512e-05 5.948228907219e-03 0.0 
0.0 0.0 0.0 
-2.533754542924e-04 1.270517789419e-05 0.0 
1.270517789419e-05 5.954489202782e-03 0.0 
0.0 0.0 0.0 
-2.668428563017e-04 2.577966168704e-05 0.0 
2.577966168704e-05 5.956599005184e-03 0.0 
0.0 0.0 0.0 
-2.536721933191e-04 2.191229931736e-05 0.0 
2.191229931736e-05 5.947491844270e-03 0.0 
0.0 0.0 0.0 
-2.715411155086e-04 3.197732634993e-05 0.0 
3.197732634993e-05 5.952291636712e-03 0.0 
0.0 0.0 0.0 
-2.821277077880e-04 5.572626725010e-05 0.0 
5.572626725010e-05 6.004847884533e-03 0.0 
0.0 0.0 0.0 
-2.713908161524e-04 3.536474478683e-05 0.0 
3.536474478683e-05 5.821916767061e-03 0.0 
0.0 0.0 0.0 
-1.856898118668e-04 -5.000331575077e-05 0.0 
-5.000331575077e-05 5.934499246939e-03 0.0 
0.0 0.0 0.0 
-1.650727813994e-04 5.939544179187e-05 0.0 
5.939544179187e-05 5.897543056155e-03 0.0 
0.0 0.0 0.0 
-1.788218978099e-04 2.325731050780e-06 0.0 
2.325731050780e-06 6.029609301105e-03 0.0 
0.0 0.0 0.0 
-1.715240555653e-04 9.212420053928e-06 0.0 
9.212420053928e-06 5.806206323269e-03 0.0 
0.0 0.0 0.0 
-2.796798380488e-04 5.091051854531e-05 0.0 
5.091051854531e-05 5.809813255551e-03 0.0 
0.0 0.0 0.0 

TENSORS element_materi_strain_plasti float
-4.741889373871e-04 2.342858306946e-04 0.0 
2.342858306946e-04 2.814002888893e-03 0.0 
0.0 0.0 -4.220722639049e-04 
-3.897703972720e-04 -2.636930979350e-04 0.0 
-2.636930979350e-04 2.518846771568e-03 0.0 
0.0 0.0 -4.303330772826e-04 
-1.259341393326e-03 -3.090507185477e-05 0.0 
-3.090507185477e-05 8.411433358411e-03 0.0 
0.0 0.0 -1.278236581085e-03 
-1.261464826866e-03 -1.747915258518e-04 0.0 
-1.747915258518e-04 8.480496286503e-03 0.0 
0.0 0.0 -1.255598393855e-03 
-7.983281552709e-04 2.303090028113e-04 0.0 
2.303090028113e-04 5.254489729699e-03 0.0 
0.0 0.0 -7.961861350945e-04 
-2.059346616286e-04 2.207607006017e-04 0.0 
2.207607006017e-04 1.009101900264e-03 0.0 
0.0 0.0 -1.793459522598e-04 
-7.878967474187e-04 2.695248863588e-04 0.0 
2.695248863588e-04 5.204562819075e-03 0.0 
0.0 0.0 -8.011023898636e-04 
-4.128254064944e-04 4.080923401224e-05 0.0 
4.080923401224e-05 2.687408780313e-03 0.0 
0.0 0.0 -4.045669272905e-04 
-8.029485881417e-04 -2.877766516214e-04 0.0 
-2.877766516214e-04 5.280709952101e-03 0.0 
0.0 0.0 -7.977904104816e-04 
-1.248589478216e-03 2.242094407416e-04 0.0 
2.242094407416e-04 8.399546616313e-03 0.0 
0.0 0.0 -1.253060141438e-03 
-8.734037686266e-04 1.480436446760e-04 0.0 
1.480436446760e-04 5.724300399011e-03 0.0 
0.0 0.0 -8.816510380685e-04 
-3.813204680076e-04 2.190974573021e-07 0.0 
2.190974573021e-07 2.153866306060e-03 0.0 
0.0 0.0 -3.735031833740e-04 
-1.251882997596e-03 2.259053558601e-04 0.0 
2.259053558601e-04 8.467796470942e-03 0.0 
0.0 0.0 -1.259187713256e-03 
-8.479147549375e-04 1.860153946805e-04 0.0 
1.860153946805e-04 5.638680799524e-03 0.0 
0.0 0.0 -8.526168115438e-04 
-1.288189434839e-03 -1.832848558744e-04 0.0 
-1.832848558744e-04 8.626562874010e-03 0.0 
0.0 0.0 -1.289538875031e-03 
-1.301181403367e-03 2.039645816312e-04 0.0 
2.039645816312e-04 8.626062176419e-03 0.0 
0.0 0.0 -1.285984941237e-03 
-7.889097476292e-04 4.689353054498e-06 0.0 
4.689353054498e-06 5.256085596916e-03 0.0 
0.0 0.0 -7.740676797406e-04 
-1.741032192830e-04 -1.984587543237e-04 0.0 
-1.984587543237e-04 9.106845467383e-04 0.0 
0.0 0.0 -1.826237857505e-04 
-3.103934600629e-04 -1.188849736468e-04 0.0 
-1.188849736468e-04 1.808737160777e-03 0.0 
0.0 0.0 -2.776016825098e-04 
-3.017260514233e-04 1.101242532993e-04 0.0 
1.101242532993e-04 1.644506395847e-03 0.0 
0.0 0.0 -3.031105466646e-04 
-1.236978180346e-03 -2.273342210413e-04 0.0 
-2.273342210413e-04 8.474882909105e-03 0.0 
0.0 0.0 -1.250388265701e-03 
-4.788832533263e-04 9.235771209212e-05 0.0 
9.235771209212e-05 2.938553769608e-03 0.0 
0.0 0.0 -4.811142067971e-04 
-5.153479436011e-04 -1.000310601358e-04 0.0 
-1.000310601358e-04 3.322116646267e-03 0.0 
0.0 0.0 -5.091556215902e-04 
-1.207914407075e-03 -1.521033174033e-04 0.0 
-1.521033174033e-04 8.119148175608e-03 0.0 
0.0 0.0 -1.210372970477e-03 
-9.004893154001e-04 2.196977328254e-04 0.0 
2.196977328254e-04 6.011080091783e-03 0.0 
0.0 0.0 -9.130988374533e-04 
-9.174590915307e-04 -1.450811372332e-04 0.0 
-1.450811372332e-04 6.162434229051e-03 0.0 
0.0 0.0 -9.179597371190e-04 
-7.131055436639e-04 -1.829825241457e-05 0.0 
-1.829825241457e-05 4.865076399380e-03 0.0 
0.0 0.0 -7.148082707961e-04 
-1.275014108034e-03 1.320223363471e-05 0.0 
1.320223363471e-05 8.706353732723e-03 0.0 
0.0 0.0 -1.266047838742e-03 
-9.084778585211e-04 -2.532626103826e-04 0.0 
-2.532626103826e-04 6.055345996359e-03 0.0 
0.0 0.0 -9.113908267906e-04 
-1.248671644074e-03 1.500744587119e-04 0.0 
1.500744587119e-04 8.319441606585e-03 0.0 
0.0 0.0 -1.237914324842e-03 
-2.162503473685e-04 3.355180743616e-05 0.0 
3.355180743616e-05 1.390767343688e-03 0.0 
0.0 0.0 -2.185975924268e-04 
-1.102777646679e-04 3.092462500308e-05 0.0 
3.092462500308e-05 6.008114765358e-04 0.0 
0.0 0.0 -1.059755802940e-04 
-1.291285801941e-03 5.563014948252e-05 0.0 
5.563014948252e-05 8.705630370944e-03 0.0 
0.0 0.0 -1.261301343383e-03 
-1.086169392383e-03 -1.843155554573e-04 0.0 
-1.843155554573e-04 7.250914267633e-03 0.0 
0.0 0.0 -1.090200430068e-03 
-1.229627234356e-03 -2.081816156675e-04 0.0 
-2.081816156675e-04 8.461501921680e-03 0.0 
0.0 0.0 -1.254989870190e-03 
-1.333928130876e-03 3.870959300371e-04 0.0 
3.870959300371e-04 8.918766405510e-03 0.0 
0.0 0.0 -1.314886350686e-03 
-1.319549054242e-03 -4.082653656671e-04 0.0 
-4.082653656671e-04 8.897494246722e-03 0.0 
0.0 0.0 -1.314653105918e-03 
-1.251043943053e-03 1.755104499557e-04 0.0 
1.755104499557e-04 8.438640087517e-03 0.0 
0.0 0.0 -1.264739017786e-03 
-7.261695585194e-04 -3.174047361397e-04 0.0 
-3.174047361397e-04 4.739951691414e-03 0.0 
0.0 0.0 -7.380763454960e-04 
-7.293562810949e-04 3.567993421673e-04 0.0 
3.567993421673e-04 4.808642079977e-03 0.0 
0.0 0.0 -7.371174501546e-04 
-5.783756129442e-04 -1.365848045621e-04 0.0 
-1.365848045621e-04 3.784424820314e-03 0.0 
0.0 0.0 -5.794556523337e-04 
-1.262877717034e-03 1.019690194500e-05 0.0 
1.019690194500e-05 8.450550888573e-03 0.0 
0.0 0.0 -1.280756488215e-03 
-3.226099019571e-04 2.179474137412e-04 0.0 
2.179474137412e-04 1.923375161646e-03 0.0 
0.0 0.0 -3.207852484642e-04 
-7.228265239816e-04 5.532830836335e-05 0.0 
5.532830836335e-05 4.629144605835e-03 0.0 
0.0 0.0 -7.350059072715e-04 
-1.225055898073e-03 -9.816574622214e-05 0.0 
-9.816574622214e-05 8.293394798268e-03 0.0 
0.0 0.0 -1.212858513926e-03 
-3.206551623609e-04 -1.904275671922e-04 0.0 
-1.904275671922e-04 1.917970267075e-03 0.0 
0.0 0.0 -3.198426158856e-04 
-1.782809379457e-04 -4.378063602815e-06 0.0 
-4.378063602815e-06 7.801372807209e-04 0.0 
0.0 0.0 -1.830859565219e-04 
-1.220501464306e-03 6.316947048485e-05 0.0 
6.316947048485e-05 8.106622909265e-03 0.0 
0.0 0.0 -1.234743356787e-03 
-9.829459878545e-05 4.583948434493e-06 0.0 
4.583948434493e-06 3.276774367732e-04 0.0 
0.0 0.0 -9.830693056618e-05 
-8.022047642295e-04 -1.811997065716e-04 0.0 
-1.811997065716e-04 5.439298518069e-03 0.0 
0.0 0.0 -8.229436299569e-04 
-5.489987759976e-04 -1.133059547326e-04 0.0 
-1.133059547326e-04 3.572814356686e-03 0.0 
0.0 0.0 -5.440916476828e-04 
-3.388458973027e-04 -7.042877961888e-05 0.0 
-7.042877961888e-05 2.248035829402e-03 0.0 
0.0 0.0 -3.443810396916e-04 
-3.074157494333e-04 -1.467796149718e-04 0.0 
-1.467796149718e-04 1.814374481458e-03 0.0 
0.0 0.0 -3.047895897720e-04 
-5.421593945536e-04 1.293548672114e-04 0.0 
1.293548672114e-04 3.418474043213e-03 0.0 
0.0 0.0 -5.489460876789e-04 
-1.266579725590e-03 -7.893235167104e-06 0.0 
-7.893235167104e-06 8.468672292321e-03 0.0 
0.0 0.0 -1.282189168212e-03 
-4.597210026087e-04 -1.452187243082e-04 0.0 
-1.452187243082e-04 2.937502524048e-03 0.0 
0.0 0.0 -4.512233509908e-04 
-3.611878323951e-04 1.444175472609e-04 0.0 
1.444175472609e-04 2.127268062759e-03 0.0 
0.0 0.0 -3.694212080277e-04 
-1.088084509005e-03 1.827090950975e-04 0.0 
1.827090950975e-04 7.290496234404e-03 0.0 
0.0 0.0 -1.087734043503e-03 
-2.215722591698e-04 2.179680801215e-05 0.0 
2.179680801215e-05 1.355906413413e-03 0.0 
0.0 0.0 -2.189683579105e-04 
-1.291565119731e-03 -2.058202376930e-04 0.0 
-2.058202376930e-04 8.638287399565e-03 0.0 
0.0 0.0 -1.285320035817e-03 
-9.406322495114e-05 -1.263405609948e-04 0.0 
-1.263405609948e-04 5.178868060056e-04 0.0 
0.0 0.0 -9.532668554595e-05 
-1.207108165930e-03 2.281727388557e-04 0.0 
2.281727388557e-04 8.099161405669e-03 0.0 
0.0 0.0 -1.210824713543e-03 
-5.507253245742e-04 2.263693422712e-04 0.0 
2.263693422712e-04 3.467321570737e-03 0.0 
0.0 0.0 -5.497085007362e-04 
-2.633068753573e-04 1.211642318687e-04 0.0 
1.211642318687e-04 1.594924151360e-03 0.0 
0.0 0.0 -2.769417647402e-04 
-1.253722868311e-03 -1.824681277037e-04 0.0 
-1.824681277037e-04 8.465445333241e-03 0.0 
0.0 0.0 -1.257478522087e-03 
-5.218987792326e-04 1.045965667427e-04 0.0 
1.045965667427e-04 3.169150320614e-03 0.0 
0.0 0.0 -5.137572693775e-04 
-6.027079853021e-05 4.538885378733e-05 0.0 
4.538885378733e-05 2.053936984274e-04 0.0 
0.0 0.0 -6.219552852736e-05 
-1.264974411680e-03 -7.934823425824e-05 0.0 
-7.934823425824e-05 8.671954395754e-03 0.0 
0.0 0.0 -1.261660853087e-03 
-2.446973118895e-04 -2.103372277075e-04 0.0 
-2.103372277075e-04 1.398643057908e-03 0.0 
0.0 0.0 -2.404310120911e-04 
-1.273528016320e-03 -3.786679226440e-06 0.0 
-3.786679226440e-06 8.448618323595e-03 0.0 
0.0 0.0 -1.282376455277e-03 
-9.491469453000e-04 -1.694945758870e-04 0.0 
-1.694945758870e-04 6.388198818832e-03 0.0 
0.0 0.0 -9.556290573178e-04 
-1.338499280800e-03 -4.782411066386e-06 0.0 
-4.782411066386e-06 8.836661036334e-03 0.0 
0.0 0.0 -1.338499280800e-03 
-1.237491500558e-03 1.679725136132e-06 0.0 
1.679725136132e-06 8.119391193773e-03 0.0 
0.0 0.0 -1.232909111256e-03 
-1.306267830690e-04 2.201659246920e-04 0.0 
2.201659246920e-04 5.612930774450e-04 0.0 
0.0 0.0 -1.295286970291e-04 
-4.862904107144e-04 1.519111044425e-04 0.0 
1.519111044425e-04 2.949318680170e-03 0.0 
0.0 0.0 -4.777371989943e-04 
-1.254133957623e-03 -1.731664304593e-04 0.0 
-1.731664304593e-04 8.495066883004e-03 0.0 
0.0 0.0 -1.262626981217e-03 
-1.278966520388e-03 -5.463065947738e-06 0.0 
-5.463065947738e-06 8.716306064884e-03 0.0 
0.0 0.0 -1.265352048664e-03 
-2.500278062254e-04 -1.904083940436e-04 0.0 
-1.904083940436e-04 1.447205075698e-03 0.0 
0.0 0.0 -2.510564503189e-04 
-2.134033531635e-04 -1.202880701253e-05 0.0 
-1.202880701253e-05 1.118917748560e-03 0.0 
0.0 0.0 -2.366757893512e-04 
-2.618885880878e-04 2.000957013545e-04 0.0 
2.000957013545e-04 1.434490946595e-03 0.0 
0.0 0.0 -2.525559601288e-04 
-2.561151872773e-04 2.173251173938e-04 0.0 
2.173251173938e-04 1.315804408785e-03 0.0 
0.0 0.0 -2.439992467140e-04 
-7.756433689863e-04 3.199927864604e-05 0.0 
3.199927864604e-05 4.983308918424e-03 0.0 
0.0 0.0 -7.918363975426e-04 
-4.925212314280e-04 -9.934539810259e-05 0.0 
-9.934539810259e-05 3.122416797223e-03 0.0 
0.0 0.0 -4.749402310763e-04 
-4.545793902690e-04 2.152694959795e-05 0.0 
2.152694959795e-05 2.617959458630e-03 0.0 
0.0 0.0 -4.438329512050e-04 
-8.539707940100e-04 -2.466642961344e-04 0.0 
-2.466642961344e-04 5.506675063211e-03 0.0 
0.0 0.0 -8.336771054075e-04 
-8.435305426983e-04 2.228252034013e-04 0.0 
2.228252034013e-04 5.474459253188e-03 0.0 
0.0 0.0 -8.358076868167e-04 
-9.896151407778e-04 -1.847277247936e-04 0.0 
-1.847277247936e-04 6.561076695027e-03 0.0 
0.0 0.0 -9.867109252839e-04 
-1.055581697673e-03 1.942475256944e-04 0.0 
1.942475256944e-04 7.096214809641e-03 0.0 
0.0 0.0 -1.058576829647e-03 
-1.087556198862e-03 -2.099876550133e-04 0.0 
-2.099876550133e-04 7.325766427452e-03 0.0 
0.0 0.0 -1.085941371602e-03 
-7.938707313230e-04 -2.935700947946e-04 0.0 
-2.935700947946e-04 5.166210845136e-03 0.0 
0.0 0.0 -7.983229688164e-04 
-9.891997245645e-05 3.705985749018e-05 0.0 
3.705985749018e-05 3.315907805062e-04 0.0 
0.0 0.0 -9.971606059273e-05 
-7.885073175136e-04 2.083610238614e-05 0.0 
2.083610238614e-05 5.061448418496e-03 0.0 
0.0 0.0 -7.928983479555e-04 
-1.080416093341e-03 -1.102030882250e-04 0.0 
-1.102030882250e-04 7.033104683541e-03 0.0 
0.0 0.0 -1.069439317440e-03 
-1.045886068578e-03 1.124481538710e-04 0.0 
1.124481538710e-04 7.095766026653e-03 0.0 
0.0 0.0 -1.046447409317e-03 
-1.328437641777e-03 -2.129776585030e-05 0.0 
-2.129776585030e-05 9.108372857470e-03 0.0 
0.0 0.0 -1.319970921405e-03 
-1.300424073257e-03 -1.489012867547e-04 0.0 
-1.489012867547e-04 8.723441004214e-03 0.0 
0.0 0.0 -1.294194962782e-03 
-7.712114504191e-04 -1.098703338913e-04 0.0 
-1.098703338913e-04 4.988523523052e-03 0.0 
0.0 0.0 -7.889745663688e-04 
-1.284794183645e-03 -1.672243708716e-06 0.0 
-1.672243708716e-06 8.719527791253e-03 0.0 
0.0 0.0 -1.263183913703e-03 
-8.948346215206e-04 -1.546261929542e-04 0.0 
-1.546261929542e-04 5.902983939671e-03 0.0 
0.0 0.0 -9.040008563810e-04 
-5.152734121650e-04 -1.377156700746e-04 0.0 
-1.377156700746e-04 3.387112186572e-03 0.0 
0.0 0.0 -5.198799001330e-04 
-7.537468891923e-04 -1.811454266392e-04 0.0 
-1.811454266392e-04 5.032849217033e-03 0.0 
0.0 0.0 -7.643292725053e-04 
-1.300051982580e-03 1.933815268577e-04 0.0 
1.933815268577e-04 8.643096299671e-03 0.0 
0.0 0.0 -1.287517816355e-03 
-1.042138929644e-03 -2.218801567962e-04 0.0 
-2.218801567962e-04 6.995297199161e-03 0.0 
0.0 0.0 -1.043751955586e-03 
-1.212978672895e-03 -2.149778667110e-04 0.0 
-2.149778667110e-04 8.151603330808e-03 0.0 
0.0 0.0 -1.209599240962e-03 
-4.772009659135e-04 -2.042000113292e-04 0.0 
-2.042000113292e-04 3.047489558792e-03 0.0 
0.0 0.0 -4.747543016519e-04 
-1.600906628411e-04 5.774618246661e-05 0.0 
5.774618246661e-05 1.025327310925e-03 0.0 
0.0 0.0 -1.624897275554e-04 
-1.185986913304e-03 -1.994673824885e-04 0.0 
-1.994673824885e-04 7.973913807476e-03 0.0 
0.0 0.0 -1.189902873528e-03 
-1.119764034804e-03 7.291963016848e-05 0.0 
7.291963016848e-05 7.561876066393e-03 0.0 
0.0 0.0 -1.108790581071e-03 
-1.060815689674e-04 -4.441233851537e-05 0.0 
-4.441233851537e-05 6.067820639570e-04 0.0 
0.0 0.0 -1.038131581323e-04 
-1.254593141611e-03 -8.600335574532e-05 0.0 
-8.600335574532e-05 8.491952788715e-03 0.0 
0.0 0.0 -1.285127980003e-03 
-1.054610615232e-03 1.830679382236e-04 0.0 
1.830679382236e-04 6.961937164299e-03 0.0 
0.0 0.0 -1.051491716222e-03 
-1.014932494026e-04 -1.696691582668e-04 0.0 
-1.696691582668e-04 3.826202340035e-04 0.0 
0.0 0.0 -1.013520483084e-04 
-6.301709070232e-04 2.090314443316e-04 0.0 
2.090314443316e-04 4.024350450833e-03 0.0 
0.0 0.0 -6.309931931857e-04 
-7.106440805021e-04 -1.470402379689e-04 0.0 
-1.470402379689e-04 4.709551499753e-03 0.0 
0.0 0.0 -7.153918394734e-04 
-5.826588176687e-04 -7.135686322073e-05 0.0 
-7.135686322073e-05 3.565625895428e-03 0.0 
0.0 0.0 -5.772375537024e-04 
-4.700128970004e-04 1.674991601262e-04 0.0 
1.674991601262e-04 2.986365482111e-03 0.0 
0.0 0.0 -4.852398935310e-04 
-5.464898507642e-04 -2.243214163868e-04 0.0 
-2.243214163868e-04 3.519571152392e-03 0.0 
0.0 0.0 -5.471823052058e-04 
-1.295684493703e-03 1.105875109316e-04 0.0 
1.105875109316e-04 8.547279304038e-03 0.0 
0.0 0.0 -1.283833066805e-03 
-8.570047827625e-04 1.861607891450e-04 0.0 
1.861607891450e-04 5.815261551137e-03 0.0 
0.0 0.0 -8.766975940251e-04 
-5.090056138741e-04 2.359482171436e-04 0.0 
2.359482171436e-04 3.233178911117e-03 0.0 
0.0 0.0 -5.122473358773e-04 
-2.401563577846e-04 -2.327182583627e-04 0.0 
-2.327182583627e-04 1.352155075276e-03 0.0 
0.0 0.0 -2.295267891405e-04 
-7.623542819022e-04 1.283036037405e-04 0.0 
1.283036037405e-04 5.225810972112e-03 0.0 
0.0 0.0 -7.744920945421e-04 
-1.103870852233e-03 -9.179179606017e-05 0.0 
-9.179179606017e-05 7.387674560017e-03 0.0 
0.0 0.0 -1.129288753466e-03 
-5.110192863145e-04 -2.509386708552e-04 0.0 
-2.509386708552e-04 3.262724462356e-03 0.0 
0.0 0.0 -5.109724225979e-04 
-1.701414425471e-04 -1.534722166071e-04 0.0 
-1.534722166071e-04 9.835208087659e-04 0.0 
0.0 0.0 -1.803716510945e-04 
-6.470086521654e-04 -1.523090755331e-04 0.0 
-1.523090755331e-04 4.254329431162e-03 0.0 
0.0 0.0 -6.470401313397e-04 
-5.812575166428e-04 7.210416783764e-05 0.0 
7.210416783764e-05 3.739643384108e-03 0.0 
0.0 0.0 -5.578851714504e-04 
-6.125337073477e-04 1.558115274756e-04 0.0 
1.558115274756e-04 3.923971555451e-03 0.0 
0.0 0.0 -6.167189930164e-04 
-1.291653437089e-03 1.656662026679e-04 0.0 
1.656662026679e-04 8.654933890924e-03 0.0 
0.0 0.0 -1.290671971449e-03 
-2.237296866694e-04 1.772304597235e-04 0.0 
1.772304597235e-04 1.151710267161e-03 0.0 
0.0 0.0 -2.092271396208e-04 
-9.141643905242e-04 1.684200684002e-04 0.0 
1.684200684002e-04 6.033430644026e-03 0.0 
0.0 0.0 -9.216843799351e-04 
-1.271942419784e-03 2.295590735456e-04 0.0 
2.295590735456e-04 8.471227576744e-03 0.0 
0.0 0.0 -1.256690274141e-03 
-6.609256603744e-04 1.763317732061e-04 0.0 
1.763317732061e-04 4.239720102404e-03 0.0 
0.0 0.0 -6.588732905211e-04 
-6.147586220519e-04 -1.550456399962e-04 0.0 
-1.550456399962e-04 4.029116054442e-03 0.0 
0.0 0.0 -6.139229799761e-04 
-1.241743830704e-03 2.520731219918e-04 0.0 
2.520731219918e-04 8.466488124430e-03 0.0 
0.0 0.0 -1.254964138299e-03 
-1.256064603940e-03 -2.623116581345e-04 0.0 
-2.623116581345e-04 8.488036362470e-03 0.0 
0.0 0.0 -1.261070974318e-03 
-9.903209289541e-04 1.774668260032e-04 0.0 
1.774668260032e-04 6.556735258886e-03 0.0 
0.0 0.0 -9.873713238705e-04 
-6.942353831373e-04 -1.750200192602e-04 0.0 
-1.750200192602e-04 4.553149239605e-03 0.0 
0.0 0.0 -6.916138708610e-04 
-1.272024970549e-03 7.302822811060e-05 0.0 
7.302822811060e-05 8.719688557752e-03 0.0 
0.0 0.0 -1.270330610962e-03 
-6.345922402826e-04 1.791748683913e-04 0.0 
1.791748683913e-04 4.059488016012e-03 0.0 
0.0 0.0 -6.326048069937e-04 
-1.254086704545e-03 -7.990901772481e-06 0.0 
-7.990901772481e-06 8.463054394802e-03 0.0 
0.0 0.0 -1.283174495648e-03 
-1.276280299661e-03 7.633372817429e-05 0.0 
7.633372817429e-05 8.703927362015e-03 0.0 
0.0 0.0 -1.267437373369e-03 
-8.565153591279e-04 -2.695301549172e-04 0.0 
-2.695301549172e-04 5.568894745570e-03 0.0 
0.0 0.0 -8.543707170918e-04 
-9.713226980400e-04 1.946342578751e-04 0.0 
1.946342578751e-04 6.532485670191e-03 0.0 
0.0 0.0 -9.817831382938e-04 
-6.315283379598e-04 -1.826998149000e-04 0.0 
-1.826998149000e-04 4.113094555245e-03 0.0 
0.0 0.0 -6.293189184696e-04 
-5.902450977428e-04 1.623031646130e-04 0.0 
1.623031646130e-04 3.689468477665e-03 0.0 
0.0 0.0 -5.830241378053e-04 
-7.249782629771e-04 1.809288523893e-04 0.0 
1.809288523893e-04 4.673091201127e-03 0.0 
0.0 0.0 -7.211932326589e-04 
-5.403888112139e-04 -1.689543050932e-04 0.0 
-1.689543050932e-04 3.513114326182e-03 0.0 
0.0 0.0 -5.383041810906e-04 
-7.661110268238e-04 -1.968496736506e-04 0.0 
-1.968496736506e-04 5.166653984338e-03 0.0 
0.0 0.0 -7.693993191400e-04 
-6.294182824657e-04 -2.163757471590e-04 0.0 
-2.163757471590e-04 4.099286379753e-03 0.0 
0.0 0.0 -6.275039421266e-04 
-9.046107145180e-05 -7.326081393818e-05 0.0 
-7.326081393818e-05 3.093039216746e-04 0.0 
0.0 0.0 -9.378979295261e-05 
-8.218888591145e-04 -1.362265050310e-05 0.0 
-1.362265050310e-05 5.568518320124e-03 0.0 
0.0 0.0 -8.171079392438e-04 
-2.708662158631e-04 3.135426371183e-06 0.0 
3.135426371183e-06 1.198400692882e-03 0.0 
0.0 0.0 -2.373169254524e-04 
-6.825469564227e-04 -1.538944897681e-04 0.0 
-1.538944897681e-04 4.493577698030e-03 0.0 
0.0 0.0 -6.809683978454e-04 
-1.266750237588e-03 4.200148413706e-06 0.0 
4.200148413706e-06 8.473073137795e-03 0.0 
0.0 0.0 -1.284796145094e-03 
-4.841925383156e-04 2.284371901656e-04 0.0 
2.284371901656e-04 3.002882293729e-03 0.0 
0.0 0.0 -4.767992880414e-04 
-1.020870051268e-03 2.043993854784e-04 0.0 
2.043993854784e-04 6.818231983257e-03 0.0 
0.0 0.0 -1.021089721936e-03 
-3.490407114895e-04 -2.220876940667e-04 0.0 
-2.220876940667e-04 2.148206482994e-03 0.0 
0.0 0.0 -3.540742325023e-04 
-1.043282338519e-03 2.368159947985e-04 0.0 
2.368159947985e-04 6.958410863996e-03 0.0 
0.0 0.0 -1.044905595188e-03 
-8.013630412541e-04 6.389824081770e-06 0.0 
6.389824081770e-06 5.002686662292e-03 0.0 
0.0 0.0 -7.899655494116e-04 
-5.947683694498e-04 2.081256616157e-04 0.0 
2.081256616157e-04 3.787155443009e-03 0.0 
0.0 0.0 -5.931463391684e-04 
-1.121794229525e-03 -2.159685184145e-04 0.0 
-2.159685184145e-04 7.508906289541e-03 0.0 
0.0 0.0 -1.120963572432e-03 
-2.180914166738e-04 1.756512204205e-04 0.0 
1.756512204205e-04 1.241780399830e-03 0.0 
0.0 0.0 -2.346376350630e-04 
-1.178651579784e-03 2.200776692921e-04 0.0 
2.200776692921e-04 7.962810812677e-03 0.0 
0.0 0.0 -1.189111243166e-03 
-7.770557330009e-04 1.799043213504e-04 0.0 
1.799043213504e-04 5.036915018676e-03 0.0 
0.0 0.0 -7.711223959738e-04 
-1.280064085681e-03 1.291641233302e-05 0.0 
1.291641233302e-05 8.715123744244e-03 0.0 
0.0 0.0 -1.265987209193e-03 
-7.886647595986e-04 2.426638412859e-05 0.0 
2.426638412859e-05 5.002569468986e-03 0.0 
0.0 0.0 -7.842605076999e-04 
-5.085061027867e-04 1.624719349291e-04 0.0 
1.624719349291e-04 3.132188298831e-03 0.0 
0.0 0.0 -5.042822341261e-04 
-6.680122214844e-04 1.543414038777e-04 0.0 
1.543414038777e-04 4.389762745766e-03 0.0 
0.0 0.0 -6.840799553763e-04 
-9.007934225225e-04 -1.247506640906e-04 0.0 
-1.247506640906e-04 5.946782140169e-03 0.0 
0.0 0.0 -8.722824885218e-04 
-3.656654935952e-04 2.470171187882e-04 0.0 
2.470171187882e-04 2.250740956869e-03 0.0 
0.0 0.0 -3.514598124168e-04 
-5.924594186081e-04 -2.113287385342e-04 0.0 
-2.113287385342e-04 3.843594924053e-03 0.0 
0.0 0.0 -5.911455407098e-04 
-1.021044424836e-03 -2.319523584095e-04 0.0 
-2.319523584095e-04 6.800629387681e-03 0.0 
0.0 0.0 -1.016465148841e-03 
-7.832948860766e-04 1.542506256290e-04 0.0 
1.542506256290e-04 5.221219062028e-03 0.0 
0.0 0.0 -7.680022369673e-04 
-5.676669992827e-04 1.711896275724e-04 0.0 
1.711896275724e-04 3.564089172862e-03 0.0 
0.0 0.0 -5.666226778950e-04 
-6.536822883720e-04 1.457424227354e-04 0.0 
1.457424227354e-04 4.156474681675e-03 0.0 
0.0 0.0 -6.498546761489e-04 
-1.132270982308e-03 2.069255922965e-04 0.0 
2.069255922965e-04 7.587995835191e-03 0.0 
0.0 0.0 -1.136725521675e-03 
-6.243703934397e-04 -5.657386080576e-05 0.0 
-5.657386080576e-05 4.179915537147e-03 0.0 
0.0 0.0 -6.189190723244e-04 
-1.269582323065e-03 5.358509534076e-05 0.0 
5.358509534076e-05 8.454036067307e-03 0.0 
0.0 0.0 -1.285202198870e-03 
-1.273584082277e-03 -3.447672338956e-05 0.0 
-3.447672338956e-05 8.706627272042e-03 0.0 
0.0 0.0 -1.265486236287e-03 
-4.574522532321e-04 -1.366919469267e-04 0.0 
-1.366919469267e-04 2.968706494426e-03 0.0 
0.0 0.0 -4.595713030950e-04 
-6.193411254741e-04 7.190453835518e-05 0.0 
7.190453835518e-05 3.976368456989e-03 0.0 
0.0 0.0 -6.385407451345e-04 
-1.157661612575e-03 -1.951807319382e-04 0.0 
-1.951807319382e-04 7.743964299132e-03 0.0 
0.0 0.0 -1.152822474774e-03 
-6.058642039219e-04 -1.568622492917e-04 0.0 
-1.568622492917e-04 3.943482715706e-03 0.0 
0.0 0.0 -6.037256927378e-04 
-4.410111678775e-04 1.646945023676e-04 0.0 
1.646945023676e-04 2.528625053889e-03 0.0 
0.0 0.0 -4.251746348339e-04 
-7.492101616992e-04 1.773144067427e-04 0.0 
1.773144067427e-04 4.849787455535e-03 0.0 
0.0 0.0 -7.443430781256e-04 
-6.015846242072e-04 -1.692904042825e-04 0.0 
-1.692904042825e-04 3.951833046067e-03 0.0 
0.0 0.0 -6.011186688906e-04 
-1.288763796550e-03 1.231833412492e-04 0.0 
1.231833412492e-04 8.478545606423e-03 0.0 
0.0 0.0 -1.279059907835e-03 
-1.060544670799e-03 1.938342500095e-04 0.0 
1.938342500095e-04 7.027045279308e-03 0.0 
0.0 0.0 -1.060691896764e-03 
-1.152244772895e-03 2.285095076534e-04 0.0 
2.285095076534e-04 7.745399107629e-03 0.0 
0.0 0.0 -1.155968210243e-03 
-2.882194771885e-04 -2.173510090808e-04 0.0 
-2.173510090808e-04 1.694759427097e-03 0.0 
0.0 0.0 -2.852154713500e-04 
-5.567709701176e-04 -1.966656427987e-04 0.0 
-1.966656427987e-04 3.599381630168e-03 0.0 
0.0 0.0 -5.558335581882e-04 
-1.085941057106e-03 1.940613560134e-04 0.0 
1.940613560134e-04 7.224719901000e-03 0.0 
0.0 0.0 -1.089453766084e-03 
-2.843827826583e-05 -1.788898447607e-05 0.0 
-1.788898447607e-05 1.853186358372e-04 0.0 
0.0 0.0 -4.453055683374e-05 
-6.135292459430e-04 1.555358498215e-04 0.0 
1.555358498215e-04 3.889243112960e-03 0.0 
0.0 0.0 -6.073871274648e-04 
-1.080867878280e-03 -2.316454551772e-04 0.0 
-2.316454551772e-04 7.249333231753e-03 0.0 
0.0 0.0 -1.080675545910e-03 
-1.764831160191e-04 -8.217578917013e-05 0.0 
-8.217578917013e-05 1.019550636912e-03 0.0 
0.0 0.0 -1.605608400042e-04 
-1.238595889810e-03 2.354517143287e-04 0.0 
2.354517143287e-04 8.471121261651e-03 0.0 
0.0 0.0 -1.257517519450e-03 
-9.713207705101e-04 1.946323764391e-04 0.0 
1.946323764391e-04 6.442137433534e-03 0.0 
0.0 0.0 -9.749624431058e-04 
-5.981973631964e-04 1.879071448910e-04 0.0 
1.879071448910e-04 3.813329018576e-03 0.0 
0.0 0.0 -5.995223474422e-04 
-1.084348145166e-03 2.392214872559e-04 0.0 
2.392214872559e-04 7.212887026288e-03 0.0 
0.0 0.0 -1.082135573042e-03 
-8.219004318722e-04 -1.022855745583e-05 0.0 
-1.022855745583e-05 5.626191621955e-03 0.0 
0.0 0.0 -8.259898420369e-04 
-8.600931526374e-04 -1.614882484442e-04 0.0 
-1.614882484442e-04 5.932770930688e-03 0.0 
0.0 0.0 -8.838609275114e-04 
-1.235110349403e-03 -1.423085779250e-04 0.0 
-1.423085779250e-04 8.282740067778e-03 0.0 
0.0 0.0 -1.237791025003e-03 
-4.556209105529e-04 2.036420794211e-04 0.0 
2.036420794211e-04 2.823352627341e-03 0.0 
0.0 0.0 -4.583583101839e-04 
-7.508195319224e-04 1.853886358928e-04 0.0 
1.853886358928e-04 4.860963236206e-03 0.0 
0.0 0.0 -7.480401524272e-04 
-8.027906713221e-04 1.764875410810e-04 0.0 
1.764875410810e-04 5.221920557136e-03 0.0 
0.0 0.0 -7.988399675000e-04 
-1.007530328557e-03 -1.922336022121e-04 0.0 
-1.922336022121e-04 6.759039767950e-03 0.0 
0.0 0.0 -1.008548823165e-03 
-8.112396533279e-04 -1.820827880749e-04 0.0 
-1.820827880749e-04 5.334789694812e-03 0.0 
0.0 0.0 -8.035999206669e-04 
-7.424823838501e-04 -1.611951191526e-04 0.0 
-1.611951191526e-04 4.887914283700e-03 0.0 
0.0 0.0 -7.415510827328e-04 
-9.420049562242e-04 -1.980186569885e-04 0.0 
-1.980186569885e-04 6.275886053793e-03 0.0 
0.0 0.0 -9.414312740916e-04 
-1.106765657790e-03 -2.072912274522e-04 0.0 
-2.072912274522e-04 7.417848919971e-03 0.0 
0.0 0.0 -1.105110859848e-03 
-8.771550322174e-05 -5.128346968203e-06 0.0 
-5.128346968203e-06 5.622743997178e-04 0.0 
0.0 0.0 -1.015871403443e-04 
-4.452411510456e-04 1.078521059613e-04 0.0 
1.078521059613e-04 2.907946245102e-03 0.0 
0.0 0.0 -4.649757541953e-04 
-5.301149448615e-04 1.855290027464e-04 0.0 
1.855290027464e-04 3.290005967673e-03 0.0 
0.0 0.0 -5.249394872960e-04 
-7.215069587740e-04 -1.794285911688e-04 0.0 
-1.794285911688e-04 4.739905292165e-03 0.0 
0.0 0.0 -7.181710532390e-04 
-1.095309768585e-03 -2.099324022586e-04 0.0 
-2.099324022586e-04 7.373113916822e-03 0.0 
0.0 0.0 -1.095076276885e-03 
-2.412241836648e-04 1.824271338485e-04 0.0 
1.824271338485e-04 1.391269291466e-03 0.0 
0.0 0.0 -2.576475407671e-04 
-1.042666947128e-03 -2.211661748355e-04 0.0 
-2.211661748355e-04 6.991049176526e-03 0.0 
0.0 0.0 -1.043355442177e-03 
-7.709980970025e-04 -2.344526007542e-04 0.0 
-2.344526007542e-04 5.001364750652e-03 0.0 
0.0 0.0 -7.763349569542e-04 
-5.598484848317e-04 1.964216387435e-04 0.0 
1.964216387435e-04 3.545883977612e-03 0.0 
0.0 0.0 -5.576783925304e-04 
-1.005904581142e-03 -2.103129090372e-04 0.0 
-2.103129090372e-04 6.739916943409e-03 0.0 
0.0 0.0 -1.006238978475e-03 
-1.328137378895e-04 -1.926409820628e-04 0.0 
-1.926409820628e-04 5.524811366159e-04 0.0 
0.0 0.0 -1.250635456846e-04 
-1.037748486931e-03 2.025826416299e-04 0.0 
2.025826416299e-04 6.894254509779e-03 0.0 
0.0 0.0 -1.040010908530e-03 
-9.586550230840e-05 6.862947183806e-05 0.0 
6.862947183806e-05 5.313753155377e-04 0.0 
0.0 0.0 -1.007187892234e-04 
-1.713724236673e-04 -5.327399001851e-06 0.0 
-5.327399001851e-06 7.517172537926e-04 0.0 
0.0 0.0 -1.819418517600e-04 
-2.796122854916e-04 2.316565417802e-04 0.0 
2.316565417802e-04 1.675994704222e-03 0.0 
0.0 0.0 -2.873666149908e-04 
-3.926605428350e-04 1.733428287045e-04 0.0 
1.733428287045e-04 2.352552718651e-03 0.0 
0.0 0.0 -3.935955730116e-04 
-1.073504857728e-03 -1.857694457952e-04 0.0 
-1.857694457952e-04 7.207934761623e-03 0.0 
0.0 0.0 -1.073797489760e-03 
-3.651136453237e-04 -1.928839212762e-04 0.0 
-1.928839212762e-04 2.293609592088e-03 0.0 
0.0 0.0 -3.637595386041e-04 
-3.442210319020e-04 1.764997975594e-04 0.0 
1.764997975594e-04 2.032847714738e-03 0.0 
0.0 0.0 -3.432832105208e-04 
-2.910729329916e-04 -1.809308260194e-04 0.0 
-1.809308260194e-04 1.763076573158e-03 0.0 
0.0 0.0 -2.922710279673e-04 
-2.622356291375e-04 1.892606687833e-04 0.0 
1.892606687833e-04 1.448318780245e-03 0.0 
0.0 0.0 -2.614315927221e-04 
-1.120397219207e-03 1.996859117335e-04 0.0 
1.996859117335e-04 7.447331785752e-03 0.0 
0.0 0.0 -1.117524173959e-03 
-7.717946648580e-04 -1.881039575464e-04 0.0 
-1.881039575464e-04 5.076611576995e-03 0.0 
0.0 0.0 -7.687972329812e-04 
-1.256202704630e-03 2.478526914498e-04 0.0 
2.478526914498e-04 8.487594918351e-03 0.0 
0.0 0.0 -1.256743614961e-03 
0.0 0.0 0.0 
0.0 0.0 0.0 
0.0 0.0 0.0 
-4.048716956913e-04 1.853052298050e-04 0.0 
1.853052298050e-04 2.461420572415e-03 0.0 
0.0 0.0 -4.044045206172e-04 
-6.239445424560e-04 2.046361178611e-04 0.0 
2.046361178611e-04 3.992995746549e-03 0.0 
0.0 0.0 -6.230907113744e-04 
-5.740868944919e-04 1.850315981272e-04 0.0 
1.850315981272e-04 3.613473978480e-03 0.0 
0.0 0.0 -5.709397776106e-04 
-1.047068133195e-03 2.230470659995e-04 0.0 
2.230470659995e-04 6.949500072304e-03 0.0 
0.0 0.0 -1.045235091131e-03 
-1.285400109254e-03 1.957478292084e-04 0.0 
1.957478292084e-04 8.698618921316e-03 0.0 
0.0 0.0 -1.275930989368e-03 
-1.029713153133e-03 -2.056143237118e-04 0.0 
-2.056143237118e-04 6.913851891301e-03 0.0 
0.0 0.0 -1.029499106509e-03 
-4.579566149125e-04 -1.884217374258e-04 0.0 
-1.884217374258e-04 2.912212194121e-03 0.0 
0.0 0.0 -4.564841486881e-04 
-1.120831572504e-03 -1.912348279819e-04 0.0 
-1.912348279819e-04 7.467678576310e-03 0.0 
0.0 0.0 -1.116166892424e-03 
-9.572670568062e-04 2.571263954152e-04 0.0 
2.571263954152e-04 6.316374419588e-03 0.0 
0.0 0.0 -9.512440159151e-04 
-7.570218913511e-04 -1.787629418727e-04 0.0 
-1.787629418727e-04 4.987297939344e-03 0.0 
0.0 0.0 -7.537083776970e-04 
-9.994998658216e-04 2.045048337303e-04 0.0 
2.045048337303e-04 6.629510214408e-03 0.0 
0.0 0.0 -1.003200534345e-03 
-1.242505065463e-03 -1.591232809489e-04 0.0 
-1.591232809489e-04 8.294319035880e-03 0.0 
0.0 0.0 -1.239730878702e-03 
-6.222328359965e-04 -2.058351298643e-04 0.0 
-2.058351298643e-04 4.057741749781e-03 0.0 
0.0 0.0 -6.206208101913e-04 
-3.761575650769e-04 -1.711217870111e-04 0.0 
-1.711217870111e-04 2.346047162404e-03 0.0 
0.0 0.0 -3.752687577596e-04 
-8.718273414275e-04 -1.903070125198e-04 0.0 
-1.903070125198e-04 5.767456116596e-03 0.0 
0.0 0.0 -8.662621843288e-04 
-1.329807574370e-03 9.926374614617e-05 0.0 
9.926374614617e-05 9.094631735092e-03 0.0 
0.0 0.0 -1.323568725688e-03 
-7.473763321356e-04 -1.878290917318e-04 0.0 
-1.878290917318e-04 4.922460573441e-03 0.0 
0.0 0.0 -7.453270327204e-04 
-7.780710127091e-04 -1.914920916377e-04 0.0 
-1.914920916377e-04 5.142441463468e-03 0.0 
0.0 0.0 -7.768443034385e-04 
-8.403853568470e-04 -5.224028630905e-05 0.0 
-5.224028630905e-05 5.665674692091e-03 0.0 
0.0 0.0 -8.293613651800e-04 
-2.119957057011e-04 -1.175361575482e-04 0.0 
-1.175361575482e-04 1.307524346166e-03 0.0 
0.0 0.0 -2.161141481901e-04 
-8.208799096496e-04 1.843133829192e-04 0.0 
1.843133829192e-04 5.271529166893e-03 0.0 
0.0 0.0 -8.060563724883e-04 
-4.603670611931e-04 1.877974414593e-04 0.0 
1.877974414593e-04 2.847786037855e-03 0.0 
0.0 0.0 -4.590591740919e-04 
-3.265147701176e-04 1.754702989645e-04 0.0 
1.754702989645e-04 1.892353118097e-03 0.0 
0.0 0.0 -3.229397045850e-04 
-2.372523115321e-04 -1.920097841935e-04 0.0 
-1.920097841935e-04 1.297568945568e-03 0.0 
0.0 0.0 -2.426597671045e-04 
-1.076566808285e-03 1.948027566312e-04 0.0 
1.948027566312e-04 7.152792080089e-03 0.0 
0.0 0.0 -1.075985979751e-03 
-8.366892688468e-04 -1.821112197861e-04 0.0 
-1.821112197861e-04 5.525859000099e-03 0.0 
0.0 0.0 -8.312490730234e-04 
-5.408471440859e-04 1.787636598150e-04 0.0 
1.787636598150e-04 3.420100638870e-03 0.0 
0.0 0.0 -5.429493831729e-04 
-1.110558394075e-03 -1.920281890810e-04 0.0 
-1.920281890810e-04 7.461731149687e-03 0.0 
0.0 0.0 -1.109763131677e-03 
-1.054698518121e-03 -2.087025362573e-04 0.0 
-2.087025362573e-04 7.108835153234e-03 0.0 
0.0 0.0 -1.057773507355e-03 
-7.924197653506e-04 -1.785979394266e-04 0.0 
-1.785979394266e-04 5.231483760846e-03 0.0 
0.0 0.0 -7.887050335656e-04 
-1.257903229921e-03 7.567368571961e-05 0.0 
7.567368571961e-05 8.498216080292e-03 0.0 
0.0 0.0 -1.288412101370e-03 
-8.091181034430e-04 1.931976365145e-04 0.0 
1.931976365145e-04 5.284760522789e-03 0.0 
0.0 0.0 -8.078958932737e-04 
-8.263277637735e-04 -1.832084157212e-04 0.0 
-1.832084157212e-04 5.471677470531e-03 0.0 
0.0 0.0 -8.238265297874e-04 
-6.650106902351e-04 -1.791010150323e-04 0.0 
-1.791010150323e-04 4.378261468460e-03 0.0 
0.0 0.0 -6.656476441012e-04 
-8.423857986256e-04 -1.986818351392e-04 0.0 
-1.986818351392e-04 5.587318921638e-03 0.0 
0.0 0.0 -8.413031780454e-04 
-3.899474951329e-04 1.915304819261e-04 0.0 
1.915304819261e-04 2.337472328750e-03 0.0 
0.0 0.0 -3.865807678710e-04 
-8.089876515704e-04 4.490290024565e-05 0.0 
4.490290024565e-05 5.014601975749e-03 0.0 
0.0 0.0 -7.898058234521e-04 
-6.502027287347e-04 -1.918500009783e-04 0.0 
-1.918500009783e-04 4.255074906530e-03 0.0 
0.0 0.0 -6.486359607860e-04 
-4.676332506753e-04 -1.907969004763e-04 0.0 
-1.907969004763e-04 2.994133619140e-03 0.0 
0.0 0.0 -4.681053320140e-04 
-1.032293230965e-03 1.946996800783e-04 0.0 
1.946996800783e-04 6.836459352288e-03 0.0 
0.0 0.0 -1.032318248600e-03 
-4.933492965949e-05 -2.981330854887e-05 0.0 
-2.981330854887e-05 2.232237160482e-04 0.0 
0.0 0.0 -4.491607815645e-05 
-8.460396934351e-04 -1.994951239522e-04 0.0 
-1.994951239522e-04 5.571843201912e-03 0.0 
0.0 0.0 -8.386390795737e-04 
-4.884576987713e-04 1.904916551125e-04 0.0 
1.904916551125e-04 3.043938579203e-03 0.0 
0.0 0.0 -4.870240021111e-04 
-4.011070509712e-04 -1.789938708171e-04 0.0 
-1.789938708171e-04 2.527031405991e-03 0.0 
0.0 0.0 -4.015254440178e-04 
-3.881231226590e-04 -1.849728275913e-04 0.0 
-1.849728275913e-04 2.413136850469e-03 0.0 
0.0 0.0 -3.834586606452e-04 
-9.010939454830e-04 1.820631251066e-04 0.0 
1.820631251066e-04 5.900115668490e-03 0.0 
0.0 0.0 -8.965110541436e-04 
-1.535639171873e-04 -1.171137565838e-04 0.0 
-1.171137565838e-04 9.290832055630e-04 0.0 
0.0 0.0 -1.609926926485e-04 
-5.642000446768e-04 1.829010286562e-04 0.0 
1.829010286562e-04 3.554613982315e-03 0.0 
0.0 0.0 -5.613503766092e-04 
-8.738800955345e-04 1.908997098880e-04 0.0 
1.908997098880e-04 5.736495439307e-03 0.0 
0.0 0.0 -8.726802719924e-04 
-8.424168210171e-04 1.809379834970e-04 0.0 
1.809379834970e-04 5.460364861261e-03 0.0 
0.0 0.0 -8.336838631977e-04 
-8.483140592107e-04 -2.570000340293e-05 0.0 
-2.570000340293e-05 5.646419876325e-03 0.0 
0.0 0.0 -8.301023967811e-04 
-2.301022018194e-04 1.896537110149e-04 0.0 
1.896537110149e-04 1.205962353600e-03 0.0 
0.0 0.0 -2.187087652219e-04 
-4.708793642351e-04 1.959468275411e-04 0.0 
1.959468275411e-04 2.928096743676e-03 0.0 
0.0 0.0 -4.706942212664e-04 
-4.339228685621e-04 -2.028732675089e-04 0.0 
-2.028732675089e-04 2.736979889631e-03 0.0 
0.0 0.0 -4.311372127493e-04 
-4.979504220913e-04 -1.685324817792e-04 0.0 
-1.685324817792e-04 3.206245351086e-03 0.0 
0.0 0.0 -4.957039317942e-04 
-1.001539925556e-03 -2.124102205074e-04 0.0 
-2.124102205074e-04 6.704131800771e-03 0.0 
0.0 0.0 -1.000663671924e-03 
-5.607402459632e-04 -1.707949003296e-04 0.0 
-1.707949003296e-04 3.631087283813e-03 0.0 
0.0 0.0 -5.577786207633e-04 
-6.163072057109e-04 1.894419522334e-04 0.0 
1.894419522334e-04 3.933506140839e-03 0.0 
0.0 0.0 -6.151539951222e-04 
-5.883906607910e-04 1.932241182488e-04 0.0 
1.932241182488e-04 3.740119885148e-03 0.0 
0.0 0.0 -5.868308051845e-04 
-2.691521273047e-04 -2.036688762200e-04 0.0 
-2.036688762200e-04 1.523725894567e-03 0.0 
0.0 0.0 -2.530049833111e-04 
-6.958714508919e-04 1.979801814587e-04 0.0 
1.979801814587e-04 4.490850522134e-03 0.0 
0.0 0.0 -6.959382511914e-04 
-2.861043400587e-04 -1.894415141015e-04 0.0 
-1.894415141015e-04 1.663430798726e-03 0.0 
0.0 0.0 -2.788248838327e-04 
-1.306755613337e-03 -2.610599304152e-06 0.0 
-2.610599304152e-06 9.100164486650e-03 0.0 
0.0 0.0 -1.321446319728e-03 
-1.339174511630e-03 -2.960517267117e-05 0.0 
-2.960517267117e-05 9.091242340448e-03 0.0 
0.0 0.0 -1.318029376683e-03 
-7.775136936643e-04 1.870350143580e-04 0.0 
1.870350143580e-04 5.054396183358e-03 0.0 
0.0 0.0 -7.755312068111e-04 
-4.251819947504e-04 1.895457374981e-04 0.0 
1.895457374981e-04 2.596133538266e-03 0.0 
0.0 0.0 -4.232985079168e-04 
-3.648329347482e-04 -1.837358985601e-04 0.0 
-1.837358985601e-04 2.280199425849e-03 0.0 
0.0 0.0 -3.659709354871e-04 
-8.573750887322e-04 1.858228230958e-04 0.0 
1.858228230958e-04 5.602884265534e-03 0.0 
0.0 0.0 -8.539191708179e-04 
-3.949528212466e-04 -1.886728582839e-04 0.0 
-1.886728582839e-04 2.475291397225e-03 0.0 
0.0 0.0 -3.930530440640e-04 
-4.332493895502e-04 1.980298907225e-04 0.0 
1.980298907225e-04 2.665937605433e-03 0.0 
0.0 0.0 -4.339875075689e-04 
-7.596321613464e-04 1.775287963430e-04 0.0 
1.775287963430e-04 4.918201734153e-03 0.0 
0.0 0.0 -7.563811545761e-04 
-1.287984799363e-03 -3.860068533034e-05 0.0 
-3.860068533034e-05 8.730948327736e-03 0.0 
0.0 0.0 -1.266640259566e-03 
-5.240495846065e-04 1.944963688322e-04 0.0 
1.944963688322e-04 3.293655739786e-03 0.0 
0.0 0.0 -5.226246958029e-04 
-9.447998235248e-04 1.960929665843e-04 0.0 
1.960929665843e-04 6.232881478096e-03 0.0 
0.0 0.0 -9.428115367422e-04 
-3.107562741713e-04 1.824587312734e-04 0.0 
1.824587312734e-04 1.780558679157e-03 0.0 
0.0 0.0 -3.076624342134e-04 
-1.311994729519e-03 7.493212939778e-06 0.0 
7.493212939778e-06 9.101970930917e-03 0.0 
0.0 0.0 -1.322863172658e-03 
-3.967767638387e-04 1.868417767078e-04 0.0 
1.868417767078e-04 2.404071077719e-03 0.0 
0.0 0.0 -3.959736908235e-04 
-7.861913752228e-04 1.858440032301e-04 0.0 
1.858440032301e-04 5.109311146391e-03 0.0 
0.0 0.0 -7.835188407615e-04 
-2.939612478105e-04 2.069489564744e-04 0.0 
2.069489564744e-04 1.627899719100e-03 0.0 
0.0 0.0 -2.855287480241e-04 
-9.209672284179e-04 1.890725882862e-04 0.0 
1.890725882862e-04 6.061382275032e-03 0.0 
0.0 0.0 -9.211625808215e-04 
-6.527425537756e-04 1.919833722786e-04 0.0 
1.919833722786e-04 4.182126969127e-03 0.0 
0.0 0.0 -6.516619296807e-04 
-4.643737788932e-04 1.911497819082e-04 0.0 
1.911497819082e-04 2.873282577301e-03 0.0 
0.0 0.0 -4.625367401933e-04 
-8.005133107045e-04 -1.849372706410e-04 0.0 
-1.849372706410e-04 5.279390117932e-03 0.0 
0.0 0.0 -7.963903837170e-04 
-1.325618080026e-03 -1.973193103059e-05 0.0 
-1.973193103059e-05 9.091764273344e-03 0.0 
0.0 0.0 -1.324865334549e-03 
-5.527714494018e-04 1.888052696331e-04 0.0 
1.888052696331e-04 3.488692206257e-03 0.0 
0.0 0.0 -5.510338386786e-04 
-8.711724193670e-04 -1.970525444519e-04 0.0 
-1.970525444519e-04 5.796794660819e-03 0.0 
0.0 0.0 -8.703234504572e-04 
-3.052115937337e-04 -1.690052037767e-04 0.0 
-1.690052037767e-04 1.853679927902e-03 0.0 
0.0 0.0 -3.041533380165e-04 
-9.585285003453e-04 2.099575339621e-04 0.0 
2.099575339621e-04 6.326919234623e-03 0.0 
0.0 0.0 -9.576894438039e-04 
-1.007861502229e-03 2.071557397888e-04 0.0 
2.071557397888e-04 6.684066242240e-03 0.0 
0.0 0.0 -1.008345180213e-03 
-4.131133098155e-04 -1.786065448845e-04 0.0 
-1.786065448845e-04 2.602572281114e-03 0.0 
0.0 0.0 -4.109515902261e-04 
-9.327998617517e-04 -1.874311411833e-04 0.0 
-1.874311411833e-04 6.181670543660e-03 0.0 
0.0 0.0 -9.257128893455e-04 
-1.323570257858e-03 1.323150738928e-05 0.0 
1.323150738928e-05 9.099733073090e-03 0.0 
0.0 0.0 -1.322580803729e-03 
-1.076618962997e-03 1.898018198415e-04 0.0 
1.898018198415e-04 7.144327477010e-03 0.0 
0.0 0.0 -1.075861678316e-03 
-1.321614991336e-03 -1.713273005325e-05 0.0 
-1.713273005325e-05 9.105058184061e-03 0.0 
0.0 0.0 -1.322091174222e-03 
-9.079440508188e-04 -2.097847460127e-04 0.0 
-2.097847460127e-04 6.119714420928e-03 0.0 
0.0 0.0 -9.196498359204e-04 
-1.050990778737e-03 -1.886314367517e-04 0.0 
-1.886314367517e-04 7.044669431277e-03 0.0 
0.0 0.0 -1.048263655743e-03 
-3.511245847016e-04 -1.953891657846e-04 0.0 
-1.953891657846e-04 2.144448464187e-03 0.0 
0.0 0.0 -3.491910591611e-04 
-7.374872672360e-04 -1.803640936936e-04 0.0 
-1.803640936936e-04 4.844525720206e-03 0.0 
0.0 0.0 -7.343713905235e-04 
-8.293244045423e-04 1.837550643812e-04 0.0 
1.837550643812e-04 5.409584064822e-03 0.0 
0.0 0.0 -8.263924940540e-04 
-8.620298851759e-04 -1.867239000810e-04 0.0 
-1.867239000810e-04 5.715504193618e-03 0.0 
0.0 0.0 -8.589723558544e-04 
-7.110415388043e-04 -1.855413705945e-04 0.0 
-1.855413705945e-04 4.678427107823e-03 0.0 
0.0 0.0 -7.101745248689e-04 
-1.326686360804e-03 -1.171732242914e-05 0.0 
-1.171732242914e-05 9.109208916885e-03 0.0 
0.0 0.0 -1.322334986692e-03 
-8.655458594576e-04 1.438711959111e-04 0.0 
1.438711959111e-04 5.877137978370e-03 0.0 
0.0 0.0 -8.810748613436e-04 
-7.842175920213e-04 -1.730041151839e-04 0.0 
-1.730041151839e-04 5.148772658244e-03 0.0 
0.0 0.0 -7.763708431881e-04 
-5.855858139709e-04 -1.935639285695e-04 0.0 
-1.935639285695e-04 3.803586164403e-03 0.0 
0.0 0.0 -5.843899590101e-04 
-3.295388154563e-04 1.889565951281e-04 0.0 
1.889565951281e-04 1.906230365352e-03 0.0 
0.0 0.0 -3.280768480529e-04 
-7.085854070096e-04 -1.812057133810e-04 0.0 
-1.812057133810e-04 4.648076014877e-03 0.0 
0.0 0.0 -7.069124235890e-04 
-4.422183154957e-04 1.870641756047e-04 0.0 
1.870641756047e-04 2.708861584455e-03 0.0 
0.0 0.0 -4.404772202000e-04 
-7.723719974628e-04 -4.140062150849e-05 0.0 
-4.140062150849e-05 5.256708913763e-03 0.0 
0.0 0.0 -7.696142143080e-04 
-4.606920221105e-04 -1.852355893197e-04 0.0 
-1.852355893197e-04 2.942829590752e-03 0.0 
0.0 0.0 -4.595640944490e-04 
-5.214756889107e-04 -1.931035456201e-04 0.0 
-1.931035456201e-04 3.354332559651e-03 0.0 
0.0 0.0 -5.202658224677e-04 
-1.068256360121e-03 2.066714883780e-04 0.0 
2.066714883780e-04 7.094366600133e-03 0.0 
0.0 0.0 -1.069052450572e-03 
-4.377877323945e-04 -1.833633178396e-04 0.0 
-1.833633178396e-04 2.778061496653e-03 0.0 
0.0 0.0 -4.372567615832e-04 
-7.685639283948e-04 1.832765112524e-04 0.0 
1.832765112524e-04 4.976704183313e-03 0.0 
0.0 0.0 -7.640689829422e-04 
-9.023009032283e-04 1.879763697979e-04 0.0 
1.879763697979e-04 5.928541464361e-03 0.0 
0.0 0.0 -9.014246907137e-04 
-8.033627654917e-04 1.978900666673e-04 0.0 
1.978900666673e-04 5.248675409053e-03 0.0 
0.0 0.0 -8.035328976187e-04 
-1.305960172853e-03 -2.095892658928e-06 0.0 
-2.095892658928e-06 9.102496999303e-03 0.0 
0.0 0.0 -1.324762665914e-03 
-6.445820078638e-04 -1.678202773937e-04 0.0 
-1.678202773937e-04 4.194265313441e-03 0.0 
0.0 0.0 -6.390224077203e-04 
-4.435428954874e-04 1.964051911317e-04 0.0 
1.964051911317e-04 2.726576725320e-03 0.0 
0.0 0.0 -4.422638729430e-04 
-5.680634224624e-04 -1.789976648694e-04 0.0 
-1.789976648694e-04 3.709617648682e-03 0.0 
0.0 0.0 -5.691257024010e-04 
-4.282333792406e-04 -1.482446945054e-04 0.0 
-1.482446945054e-04 2.644915346169e-03 0.0 
0.0 0.0 -4.184705811166e-04 
-4.155606553471e-04 1.953855919425e-04 0.0 
1.953855919425e-04 2.537485002560e-03 0.0 
0.0 0.0 -4.141309408042e-04 
-1.124019592153e-03 -2.007331567345e-04 0.0 
-2.007331567345e-04 7.565647962713e-03 0.0 
0.0 0.0 -1.123886314723e-03 
-8.186901870458e-04 -1.867352575880e-04 0.0 
-1.867352575880e-04 5.417532343352e-03 0.0 
0.0 0.0 -8.161479701220e-04 
-5.717796681142e-04 -1.878963187409e-04 0.0 
-1.878963187409e-04 3.680777609877e-03 0.0 
0.0 0.0 -5.672387349321e-04 
-7.059258560286e-04 1.849400511514e-04 0.0 
1.849400511514e-04 4.547028472385e-03 0.0 
0.0 0.0 -7.023794137935e-04 
-1.322670125945e-03 2.313222592219e-05 0.0 
2.313222592219e-05 9.105794211902e-03 0.0 
0.0 0.0 -1.320675234999e-03 
-1.261246667212e-03 -1.446740378058e-04 0.0 
-1.446740378058e-04 8.590068615086e-03 0.0 
0.0 0.0 -1.258064670439e-03 
-1.122100566517e-03 1.986464603035e-04 0.0 
1.986464603035e-04 7.484284741315e-03 0.0 
0.0 0.0 -1.126590436115e-03 
-1.036201990782e-03 -1.951775890560e-04 0.0 
-1.951775890560e-04 6.963709654535e-03 0.0 
0.0 0.0 -1.037522200811e-03 
-7.719052834795e-04 -1.888501304093e-04 0.0 
-1.888501304093e-04 5.114447170549e-03 0.0 
0.0 0.0 -7.721428985420e-04 
-5.862259843954e-04 -1.794669617907e-04 0.0 
-1.794669617907e-04 3.806767764826e-03 0.0 
0.0 0.0 -5.842812205453e-04 
-4.235649518208e-04 -1.883881554874e-04 0.0 
-1.883881554874e-04 2.667804805964e-03 0.0 
0.0 0.0 -4.203166018451e-04 
-4.860729007888e-04 -1.885252844674e-04 0.0 
-1.885252844674e-04 3.110387779236e-03 0.0 
0.0 0.0 -4.843489805398e-04 
-7.832353818819e-04 -1.822378049694e-04 0.0 
-1.822378049694e-04 5.173491727743e-03 0.0 
0.0 0.0 -7.808727949117e-04 
-8.901416230108e-04 -1.942852983019e-04 0.0 
-1.942852983019e-04 5.937129717394e-03 0.0 
0.0 0.0 -8.900964085843e-04 
-6.791455967192e-04 -1.986004150700e-04 0.0 
-1.986004150700e-04 4.477294610112e-03 0.0 
0.0 0.0 -6.810091006415e-04 
-1.137984490542e-03 2.026763925672e-04 0.0 
2.026763925672e-04 7.560494271962e-03 0.0 
0.0 0.0 -1.134236807130e-03 
-4.390058928460e-04 -1.873042743236e-04 0.0 
-1.873042743236e-04 2.794180260139e-03 0.0 
0.0 0.0 -4.395655422792e-04 
-6.752152374307e-04 -1.860595742761e-04 0.0 
-1.860595742761e-04 4.431501668800e-03 0.0 
0.0 0.0 -6.750378637491e-04 
-7.938192706807e-04 1.817389384797e-04 0.0 
1.817389384797e-04 5.160116736331e-03 0.0 
0.0 0.0 -7.913284153978e-04 
-6.120290380758e-04 -1.961653994373e-04 0.0 
-1.961653994373e-04 3.987310124629e-03 0.0 
0.0 0.0 -6.122259156574e-04 
-1.301288756895e-03 -2.045275430422e-05 0.0 
-2.045275430422e-05 9.103514886723e-03 0.0 
0.0 0.0 -1.320088186226e-03 
-1.336559860406e-03 5.304668224230e-05 0.0 
5.304668224230e-05 9.092320412842e-03 0.0 
0.0 0.0 -1.318462653075e-03 
-1.241699233934e-03 -2.254253931459e-04 0.0 
-2.254253931459e-04 8.519567921102e-03 0.0 
0.0 0.0 -1.256494544188e-03 
-8.370305663979e-04 -1.942067132543e-04 0.0 
-1.942067132543e-04 5.564466733165e-03 0.0 
0.0 0.0 -8.375255977276e-04 
-1.112341827327e-03 1.928139267360e-04 0.0 
1.928139267360e-04 7.404901105712e-03 0.0 
0.0 0.0 -1.112065035246e-03 
-3.806812841049e-04 1.778946636947e-04 0.0 
1.778946636947e-04 2.279220825059e-03 0.0 
0.0 0.0 -3.785953687517e-04 
-5.494616984378e-04 -1.888416104626e-04 0.0 
-1.888416104626e-04 3.555923799118e-03 0.0 
0.0 0.0 -5.483018170244e-04 
-3.235962926905e-04 -1.736014947489e-04 0.0 
-1.736014947489e-04 1.973084689826e-03 0.0 
0.0 0.0 -3.192951451658e-04 
-5.963652417522e-04 -1.773931756758e-04 0.0 
-1.773931756758e-04 3.870665993091e-03 0.0 
0.0 0.0 -5.936226173563e-04 
-7.754418230907e-04 -1.787983897596e-05 0.0 
-1.787983897596e-05 4.998811631156e-03 0.0 
0.0 0.0 -7.914980036671e-04 
-9.191665137011e-04 2.140245341565e-04 0.0 
2.140245341565e-04 6.074527525348e-03 0.0 
0.0 0.0 -9.214502702889e-04 
-1.272306740568e-03 -2.183792906096e-06 0.0 
-2.183792906096e-06 8.701539900471e-03 0.0 
0.0 0.0 -1.265403586923e-03 
-1.115465796477e-03 2.144802209519e-04 0.0 
2.144802209519e-04 7.405352776166e-03 0.0 
0.0 0.0 -1.117224974728e-03 
-8.719756485575e-04 1.796746755414e-04 0.0 
1.796746755414e-04 5.704231125349e-03 0.0 
0.0 0.0 -8.687609488834e-04 
-8.934000445298e-04 1.842629385947e-04 0.0 
1.842629385947e-04 5.848617048582e-03 0.0 
0.0 0.0 -8.891947744737e-04 
-3.538517022685e-04 1.968822651903e-04 0.0 
1.968822651903e-04 2.082939193951e-03 0.0 
0.0 0.0 -3.496852078947e-04 
-1.730179310379e-04 3.799515299487e-05 0.0 
3.799515299487e-05 9.814996314958e-04 0.0 
0.0 0.0 -1.610244214183e-04 
-6.605957920443e-04 2.008091445533e-04 0.0 
2.008091445533e-04 4.241664916870e-03 0.0 
0.0 0.0 -6.594106982652e-04 
-7.382500259092e-04 -1.861061436274e-04 0.0 
-1.861061436274e-04 4.870305797290e-03 0.0 
0.0 0.0 -7.376142925499e-04 
-6.935826622016e-04 -1.974963449897e-04 0.0 
-1.974963449897e-04 4.557561403421e-03 0.0 
0.0 0.0 -6.931905564144e-04 
-1.927200046455e-04 1.907407866214e-04 0.0 
1.907407866214e-04 9.362068114562e-04 0.0 
0.0 0.0 -1.839988823918e-04 
-8.553897316391e-04 7.952460625503e-05 0.0 
7.952460625503e-05 5.374666730048e-03 0.0 
0.0 0.0 -8.462285223656e-04 
-3.012637912477e-04 -1.970081127765e-04 0.0 
-1.970081127765e-04 1.826424334369e-03 0.0 
0.0 0.0 -2.972104253142e-04 
-4.320291499202e-04 1.924639625952e-04 0.0 
1.924639625952e-04 2.652618994648e-03 0.0 
0.0 0.0 -4.314049239902e-04 
-1.341153861134e-03 -1.132581839755e-07 0.0 
-1.132581839755e-07 8.854160665758e-03 0.0 
0.0 0.0 -1.341153861134e-03 
-9.735832254612e-04 -2.032109106710e-04 0.0 
-2.032109106710e-04 6.501326132665e-03 0.0 
0.0 0.0 -9.717687626070e-04 
-8.038658590279e-04 1.841151985618e-04 0.0 
1.841151985618e-04 5.090192522503e-03 0.0 
0.0 0.0 -7.790007367612e-04 
-2.263569738137e-04 1.412068244863e-04 0.0 
1.412068244863e-04 1.378581130634e-03 0.0 
0.0 0.0 -2.176483604987e-04 
-7.148393686400e-04 1.885377903274e-04 0.0 
1.885377903274e-04 4.617805235716e-03 0.0 
0.0 0.0 -7.126719623954e-04 
-6.583475203356e-04 -2.044658051723e-04 0.0 
-2.044658051723e-04 4.303955154821e-03 0.0 
0.0 0.0 -6.569982659716e-04 
-8.980808506786e-04 -1.936520147713e-04 0.0 
-1.936520147713e-04 5.958242186783e-03 0.0 
0.0 0.0 -8.940630110299e-04 
-1.327874025612e-03 4.012442722688e-05 0.0 
4.012442722688e-05 9.098102111315e-03 0.0 
0.0 0.0 -1.323832587333e-03 
-7.403554818969e-04 1.844120078152e-04 0.0 
1.844120078152e-04 4.792048619543e-03 0.0 
0.0 0.0 -7.366500567795e-04 
-8.545868996671e-04 -1.887615407860e-04 0.0 
-1.887615407860e-04 5.662533660862e-03 0.0 
0.0 0.0 -8.513774089097e-04 
-6.818667097911e-04 1.958766515699e-04 0.0 
1.958766515699e-04 4.409131248910e-03 0.0 
0.0 0.0 -6.837695253815e-04 
-1.105187862003e-03 1.994006530664e-04 0.0 
1.994006530664e-04 7.356411437885e-03 0.0 
0.0 0.0 -1.105258581891e-03 
-8.686753316721e-04 1.961023377174e-04 0.0 
1.961023377174e-04 5.708119835605e-03 0.0 
0.0 0.0 -8.691653677727e-04 
-1.313443091824e-03 -8.681857321596e-06 0.0 
-8.681857321596e-06 9.107589922997e-03 0.0 
0.0 0.0 -1.322174839672e-03 
-1.340103718614e-03 2.441833226495e-06 0.0 
2.441833226495e-06 8.842216911178e-03 0.0 
0.0 0.0 -1.340103718614e-03 
-1.341028575724e-03 -6.698781680325e-06 0.0 
-6.698781680325e-06 8.834191149721e-03 0.0 
0.0 0.0 -1.341028575724e-03 
-1.338044909071e-03 -9.989699658854e-07 0.0 
-9.989699658854e-07 8.789076720715e-03 0.0 
0.0 0.0 -1.338044909071e-03 
-9.278953530001e-04 1.830493215193e-04 0.0 
1.830493215193e-04 6.094694774967e-03 0.0 
0.0 0.0 -9.244680137507e-04 
-1.104382085207e-03 -1.844352853961e-04 0.0 
-1.844352853961e-04 7.413030585340e-03 0.0 
0.0 0.0 -1.103002250422e-03 
-1.150866030357e-03 2.083921581833e-04 0.0 
2.083921581833e-04 7.696092280171e-03 0.0 
0.0 0.0 -1.155914796392e-03 
-6.164628833105e-04 2.031183267964e-04 0.0 
2.031183267964e-04 3.927882065765e-03 0.0 
0.0 0.0 -6.147330147620e-04 
-5.911685103851e-04 1.997096464783e-04 0.0 
1.997096464783e-04 3.740736628945e-03 0.0 
0.0 0.0 -5.872917534094e-04 
-6.414807696811e-04 -2.006380451049e-04 0.0 
-2.006380451049e-04 4.218783169970e-03 0.0 
0.0 0.0 -6.436934073013e-04 
-1.134641282245e-03 -2.006695635977e-04 0.0 
-2.006695635977e-04 7.623716292157e-03 0.0 
0.0 0.0 -1.131852245309e-03 
-1.324500994006e-03 -4.966854021266e-06 0.0 
-4.966854021266e-06 9.095768239117e-03 0.0 
0.0 0.0 -1.322440284024e-03 
-1.140227253108e-03 1.951224764734e-04 0.0 
1.951224764734e-04 7.603009729401e-03 0.0 
0.0 0.0 -1.141180801552e-03 
-9.080174246261e-04 -2.037707256770e-04 0.0 
-2.037707256770e-04 6.042971740774e-03 0.0 
0.0 0.0 -9.063345769726e-04 
-1.140612365318e-03 -1.825914620366e-04 0.0 
-1.825914620366e-04 7.661221724928e-03 0.0 
0.0 0.0 -1.138864741757e-03 
-9.895587303989e-04 -1.909996709670e-04 0.0 
-1.909996709670e-04 6.631323534056e-03 0.0 
0.0 0.0 -9.903545940741e-04 
-7.055944550106e-04 1.841650505336e-04 0.0 
1.841650505336e-04 4.559451876543e-03 0.0 
0.0 0.0 -7.049739924763e-04 
-6.005001548621e-04 1.754924819421e-04 0.0 
1.754924819421e-04 3.808564972462e-03 0.0 
0.0 0.0 -5.967387615352e-04 
-3.335508235582e-04 1.892926381389e-04 0.0 
1.892926381389e-04 1.961394351476e-03 0.0 
0.0 0.0 -3.333553686509e-04 
-1.287482303742e-03 9.400486473720e-05 0.0 
9.400486473720e-05 8.494651886702e-03 0.0 
0.0 0.0 -1.282213402295e-03 
-5.782088747012e-04 1.983174571351e-04 0.0 
1.983174571351e-04 3.685190236892e-03 0.0 
0.0 0.0 -5.792479259103e-04 
-1.207490032650e-03 -9.511693616597e-06 0.0 
-9.511693616597e-06 8.106813054446e-03 0.0 
0.0 0.0 -1.230767059693e-03 
-6.442432414831e-04 1.944206160730e-04 0.0 
1.944206160730e-04 4.149320661563e-03 0.0 
0.0 0.0 -6.465396845166e-04 
-4.198574354174e-04 -1.824962637457e-04 0.0 
-1.824962637457e-04 2.680260699037e-03 0.0 
0.0 0.0 -4.222915044375e-04 
-1.273602229187e-03 4.336342551849e-05 0.0 
4.336342551849e-05 8.460076842639e-03 0.0 
0.0 0.0 -1.284312900220e-03 
-4.687866799151e-04 1.866875104872e-04 0.0 
1.866875104872e-04 2.893520146277e-03 0.0 
0.0 0.0 -4.669824892858e-04 
-1.341987455608e-03 1.886578995447e-06 0.0 
1.886578995447e-06 8.838362897947e-03 0.0 
0.0 0.0 -1.341987455608e-03 
-1.296411374061e-03 -1.418949515450e-05 0.0 
-1.418949515450e-05 8.470243795444e-03 0.0 
0.0 0.0 -1.282654109251e-03 
-8.495078228820e-04 1.843107655011e-04 0.0 
1.843107655011e-04 5.547072023185e-03 0.0 
0.0 0.0 -8.462542048450e-04 
-9.255048927816e-05 -2.197953205318e-06 0.0 
-2.197953205318e-06 3.085086574748e-04 0.0 
0.0 0.0 -9.255350065570e-05 
-1.340954708391e-03 7.835804962290e-06 0.0 
7.835804962290e-06 8.838032502772e-03 0.0 
0.0 0.0 -1.340954708391e-03 
-1.280816053348e-03 -2.230055523915e-05 0.0 
-2.230055523915e-05 8.460310632468e-03 0.0 
0.0 0.0 -1.284661450484e-03 
-4.260944399250e-04 1.999732540104e-04 0.0 
1.999732540104e-04 2.608418284960e-03 0.0 
0.0 0.0 -4.253660281670e-04 
-9.365021749047e-04 -1.977008719716e-04 0.0 
-1.977008719716e-04 6.250684752616e-03 0.0 
0.0 0.0 -9.353130867196e-04 
-1.333005063589e-03 4.344781136883e-06 0.0 
4.344781136883e-06 9.114671664273e-03 0.0 
0.0 0.0 -1.323014926434e-03 
0.0 0.0 0.0 
0.0 0.0 0.0 
0.0 0.0 0.0 
-6.428281947913e-04 1.843362204216e-04 0.0 
1.843362204216e-04 4.123262309836e-03 0.0 
0.0 0.0 -6.425506931502e-04 
-8.851411761515e-04 1.851869312966e-04 0.0 
1.851869312966e-04 5.794563189636e-03 0.0 
0.0 0.0 -8.816033652580e-04 
-8.134395165507e-04 1.874953040298e-04 0.0 
1.874953040298e-04 5.300126487808e-03 0.0 
0.0 0.0 -8.109139232486e-04 
-8.225202755535e-04 1.881518984198e-04 0.0 
1.881518984198e-04 5.356080317152e-03 0.0 
0.0 0.0 -8.186613860469e-04 
-3.691769062860e-04 1.916815065322e-04 0.0 
1.916815065322e-04 2.210779207524e-03 0.0 
0.0 0.0 -3.689119447714e-04 
-1.341360672448e-03 -1.189443720147e-06 0.0 
-1.189443720147e-06 8.827889647213e-03 0.0 
0.0 0.0 -1.341360672448e-03 
-6.134329689946e-04 -1.902359328294e-04 0.0 
-1.902359328294e-04 4.002222739953e-03 0.0 
0.0 0.0 -6.123778370825e-04 
-2.202070906780e-04 -1.755376406009e-04 0.0 
-1.755376406009e-04 1.255756531969e-03 0.0 
0.0 0.0 -2.173296945085e-04 
-1.279142293538e-03 5.964349300566e-05 0.0 
5.964349300566e-05 8.727032320364e-03 0.0 
0.0 0.0 -1.272354826527e-03 
-1.022272037246e-04 4.922820238373e-06 0.0 
4.922820238373e-06 5.965869288915e-04 0.0 
0.0 0.0 -1.019437782286e-04 
-6.710661406479e-04 1.855097177597e-04 0.0 
1.855097177597e-04 4.303579593448e-03 0.0 
0.0 0.0 -6.678899790657e-04 
-2.300720776572e-04 1.212201240613e-05 0.0 
1.212201240613e-05 1.125450156733e-03 0.0 
0.0 0.0 -2.365401520142e-04 
-7.086437154644e-04 1.853452857981e-04 0.0 
1.853452857981e-04 4.588815352963e-03 0.0 
0.0 0.0 -7.094882865497e-04 
-1.317968381893e-03 -7.788542654244e-06 0.0 
-7.788542654244e-06 9.086616382280e-03 0.0 
0.0 0.0 -1.321823097425e-03 
-1.341255375116e-03 6.592408687467e-06 0.0 
6.592408687467e-06 8.854311445215e-03 0.0 
0.0 0.0 -1.341255375116e-03 
-8.673920198819e-04 1.847071888204e-04 0.0 
1.847071888204e-04 5.656037287956e-03 0.0 
0.0 0.0 -8.613793510407e-04 
-1.969643249742e-04 -2.643595705593e-05 0.0 
-2.643595705593e-05 7.486662135306e-04 0.0 
0.0 0.0 -1.793976806842e-04 
-1.826266447966e-04 1.955672024510e-04 0.0 
1.955672024510e-04 9.200601904336e-04 0.0 
0.0 0.0 -1.838036673156e-04 
-2.361898229358e-04 4.404631865767e-05 0.0 
4.404631865767e-05 1.375633081646e-03 0.0 
0.0 0.0 -2.179364692381e-04 
-1.125162068454e-03 -1.979567048057e-04 0.0 
-1.979567048057e-04 7.560228932207e-03 0.0 
0.0 0.0 -1.121833217354e-03 
-7.703836607526e-04 2.904011669623e-05 0.0 
2.904011669623e-05 5.271332940567e-03 0.0 
0.0 0.0 -7.704300227928e-04 
-8.168157235620e-04 -2.113983721697e-04 0.0 
-2.113983721697e-04 5.355765378531e-03 0.0 
0.0 0.0 -8.109332722942e-04 
-1.342502730507e-03 5.716067361720e-06 0.0 
5.716067361720e-06 8.856705817959e-03 0.0 
0.0 0.0 -1.342502730507e-03 
-7.906151483404e-04 -4.272528123303e-05 0.0 
-4.272528123303e-05 5.268742702063e-03 0.0 
0.0 0.0 -7.720444664677e-04 
-1.332977220355e-03 1.682402604833e-05 0.0 
1.682402604833e-05 9.104707937730e-03 0.0 
0.0 0.0 -1.322852565091e-03 
-1.019613459442e-03 1.919320256201e-04 0.0 
1.919320256201e-04 6.758525883042e-03 0.0 
0.0 0.0 -1.020998643257e-03 
-8.942284646778e-04 2.014665993211e-04 0.0 
2.014665993211e-04 5.869620442183e-03 0.0 
0.0 0.0 -8.907448815977e-04 
-4.710891496910e-04 1.816013443133e-04 0.0 
1.816013443133e-04 2.782078830397e-03 0.0 
0.0 0.0 -4.477608806526e-04 
-9.397641453592e-04 1.905534962230e-04 0.0 
1.905534962230e-04 6.187842394577e-03 0.0 
0.0 0.0 -9.378661514434e-04 
-2.865699781098e-04 -1.698301048615e-04 0.0 
-1.698301048615e-04 1.797113955836e-03 0.0 
0.0 0.0 -2.938158648993e-04 
-1.340754991027e-03 -4.752011562161e-06 0.0 
-4.752011562161e-06 8.857728678543e-03 0.0 
0.0 0.0 -1.340754991027e-03 
-1.339984467612e-03 2.292869316744e-05 0.0 
2.292869316744e-05 8.807369741469e-03 0.0 
0.0 0.0 -1.339984467612e-03 
-1.340417744004e-03 -2.214851180424e-05 0.0 
-2.214851180424e-05 8.828867002772e-03 0.0 
0.0 0.0 -1.340417744004e-03 
-8.660623943402e-04 -1.943286950292e-04 0.0 
-1.943286950292e-04 5.772294168294e-03 0.0 
0.0 0.0 -8.666500598261e-04 
-6.034856013852e-04 -2.033011263199e-04 0.0 
-2.033011263199e-04 3.957936150372e-03 0.0 
0.0 0.0 -6.062238016986e-04 
-7.026976706331e-04 -1.815126947840e-04 0.0 
-1.815126947840e-04 4.627441659305e-03 0.0 
0.0 0.0 -7.021192356133e-04 
-8.976477462119e-04 1.951708788180e-04 0.0 
1.951708788180e-04 5.904473226514e-03 0.0 
0.0 0.0 -8.981573260837e-04 
-1.339627896631e-03 3.612108461993e-06 0.0 
3.612108461993e-06 8.853033835610e-03 0.0 
0.0 0.0 -1.339627896631e-03 
-4.295950600907e-04 -1.875952713054e-04 0.0 
-1.875952713054e-04 2.717501457664e-03 0.0 
0.0 0.0 -4.287941800800e-04 
-4.990450639494e-04 1.934485922333e-04 0.0 
1.934485922333e-04 3.125390132284e-03 0.0 
0.0 0.0 -4.991860405784e-04 
-5.285799076226e-04 1.852384275300e-04 0.0 
1.852384275300e-04 3.322934541718e-03 0.0 
0.0 0.0 -5.272458293186e-04 
-9.298142287186e-04 1.923659803104e-04 0.0 
1.923659803104e-04 6.128652270364e-03 0.0 
0.0 0.0 -9.279583942086e-04 
-1.339074735525e-03 -2.462351465060e-05 0.0 
-2.462351465060e-05 9.096799452257e-03 0.0 
0.0 0.0 -1.323537156312e-03 
-1.500618556416e-04 1.939391886362e-05 0.0 
1.939391886362e-05 9.791726158994e-04 0.0 
0.0 0.0 -1.598254822437e-04 
-1.340775759057e-03 1.534669228292e-06 0.0 
1.534669228292e-06 8.827931576809e-03 0.0 
0.0 0.0 -1.340775759057e-03 
-4.918224965486e-04 1.956179793808e-04 0.0 
1.956179793808e-04 3.063033243647e-03 0.0 
0.0 0.0 -4.905422085546e-04 
-1.342877878941e-03 2.842270727753e-06 0.0 
2.842270727753e-06 8.853936486152e-03 0.0 
0.0 0.0 -1.342877878941e-03 
-1.156184618631e-03 -1.885719150538e-04 0.0 
-1.885719150538e-04 7.774113329411e-03 0.0 
0.0 0.0 -1.152765850879e-03 
-4.494164570379e-05 1.000468586625e-06 0.0 
1.000468586625e-06 2.551504228595e-04 0.0 
0.0 0.0 -4.576175375704e-05 
-6.699730055747e-04 1.872361539573e-04 0.0 
1.872361539573e-04 4.302808495342e-03 0.0 
0.0 0.0 -6.690559060524e-04 
-1.145839910847e-03 -1.986902778568e-04 0.0 
-1.986902778568e-04 7.714207575352e-03 0.0 
0.0 0.0 -1.146019594970e-03 
-1.341220131281e-03 -2.365934969511e-06 0.0 
-2.365934969511e-06 8.847703773833e-03 0.0 
0.0 0.0 -1.341220131281e-03 
-9.256050002818e-04 -1.923147081747e-04 0.0 
-1.923147081747e-04 6.153846390776e-03 0.0 
0.0 0.0 -9.220067723808e-04 
-1.050351148173e-03 1.970429468760e-04 0.0 
1.970429468760e-04 6.958336458839e-03 0.0 
0.0 0.0 -1.049000704964e-03 
-2.748725954192e-04 1.931705696151e-04 0.0 
1.931705696151e-04 1.524979906539e-03 0.0 
0.0 0.0 -2.717413095444e-04 
-1.208683908170e-03 6.230383996261e-06 0.0 
6.230383996261e-06 8.102506712124e-03 0.0 
0.0 0.0 -1.228682347183e-03 
-5.192327213786e-04 1.909614988805e-04 0.0 
1.909614988805e-04 3.260562468968e-03 0.0 
0.0 0.0 -5.184025592846e-04 
-5.248109421633e-04 -1.803408309235e-04 0.0 
-1.803408309235e-04 3.388681347671e-03 0.0 
0.0 0.0 -5.242929400402e-04 
-1.101238409147e-04 1.624386361107e-05 0.0 
1.624386361107e-05 6.254833965552e-04 0.0 
0.0 0.0 -1.042847928631e-04 
-1.341079611575e-03 1.268157797451e-06 0.0 
1.268157797451e-06 8.837798036775e-03 0.0 
0.0 0.0 -1.341079611575e-03 
-3.602734137551e-04 -1.850324683020e-04 0.0 
-1.850324683020e-04 2.230825920775e-03 0.0 
0.0 0.0 -3.564518745397e-04 
-1.109985979917e-03 -2.052345426402e-04 0.0 
-2.052345426402e-04 7.476883123942e-03 0.0 
0.0 0.0 -1.110501492391e-03 
-8.524872272040e-04 -2.315298743519e-04 0.0 
-2.315298743519e-04 5.680178330686e-03 0.0 
0.0 0.0 -8.555322119248e-04 
-4.402194268269e-04 -1.870881911234e-04 0.0 
-1.870881911234e-04 2.811358430465e-03 0.0 
0.0 0.0 -4.411586999297e-04 
-4.975783628974e-04 -1.914562144175e-04 0.0 
-1.914562144175e-04 3.191209784275e-03 0.0 
0.0 0.0 -4.964677435772e-04 
-8.901378245668e-04 -1.873561009026e-04 0.0 
-1.873561009026e-04 5.908561179355e-03 0.0 
0.0 0.0 -8.867075537039e-04 
-1.342259935407e-03 -1.718040054209e-05 0.0 
-1.718040054209e-05 8.855152000548e-03 0.0 
0.0 0.0 -1.342259935407e-03 
-6.396775884645e-04 1.886079041491e-04 0.0 
1.886079041491e-04 4.098241029371e-03 0.0 
0.0 0.0 -6.378868265889e-04 
-9.691742763952e-04 -2.019742400056e-04 0.0 
-2.019742400056e-04 6.483311990656e-03 0.0 
0.0 0.0 -9.693340058278e-04 
-8.041747505047e-04 1.863000233207e-04 0.0 
1.863000233207e-04 5.244246416891e-03 0.0 
0.0 0.0 -8.030799362305e-04 
-8.818155169255e-04 -1.886653253936e-04 0.0 
-1.886653253936e-04 5.877887840043e-03 0.0 
0.0 0.0 -8.811160271665e-04 
-5.320000478192e-04 -1.863752187474e-04 0.0 
-1.863752187474e-04 3.439757636019e-03 0.0 
0.0 0.0 -5.326451291888e-04 
-9.026994633867e-04 -1.977891108898e-04 0.0 
-1.977891108898e-04 6.021154653626e-03 0.0 
0.0 0.0 -9.031726653527e-04 
-7.735880944809e-04 -1.868485495488e-04 0.0 
-1.868485495488e-04 5.115539884919e-03 0.0 
0.0 0.0 -7.729461360948e-04 
-9.981479559481e-04 -1.963805187542e-04 0.0 
-1.963805187542e-04 6.683666354433e-03 0.0 
0.0 0.0 -9.982497011217e-04 
-1.004413229733e-03 1.912127845263e-04 0.0 
1.912127845263e-04 6.639387752267e-03 0.0 
0.0 0.0 -1.003134534203e-03 
-7.686187780919e-04 1.863311149205e-04 0.0 
1.863311149205e-04 4.996748422869e-03 0.0 
0.0 0.0 -7.676694601592e-04 
-6.531466934909e-04 1.957558291536e-04 0.0 
1.957558291536e-04 4.207071568820e-03 0.0 
0.0 0.0 -6.551190094499e-04 
-4.645380568116e-04 -1.828907984747e-04 0.0 
-1.828907984747e-04 2.961721166152e-03 0.0 
0.0 0.0 -4.640097282922e-04 
-6.064572421459e-04 1.910285411048e-04 0.0 
1.910285411048e-04 3.887705448155e-03 0.0 
0.0 0.0 -6.091269606258e-04 
-1.019361563877e-03 -1.903039724259e-04 0.0 
-1.903039724259e-04 6.831244999586e-03 0.0 
0.0 0.0 -1.018204129641e-03 
-8.373723247002e-04 1.874174193606e-04 0.0 
1.874174193606e-04 5.476720692713e-03 0.0 
0.0 0.0 -8.365169925761e-04 
-1.320520432489e-03 -2.623800515080e-05 0.0 
-2.623800515080e-05 9.107403832922e-03 0.0 
0.0 0.0 -1.321929620191e-03 
-1.169515206127e-03 -1.894067828277e-04 0.0 
-1.894067828277e-04 7.912550107300e-03 0.0 
0.0 0.0 -1.174325249119e-03 
-4.054788487746e-04 1.902250889250e-04 0.0 
1.902250889250e-04 2.477005508033e-03 0.0 
0.0 0.0 -4.069995479128e-04 
-1.341047338368e-03 6.114097105083e-06 0.0 
6.114097105083e-06 8.810414551587e-03 0.0 
0.0 0.0 -1.341047338368e-03 
-1.246442799579e-03 -7.048165356663e-06 0.0 
-7.048165356663e-06 8.701531217890e-03 0.0 
0.0 0.0 -1.266414110344e-03 
-7.243231333996e-04 1.855217411942e-04 0.0 
1.855217411942e-04 4.688371918965e-03 0.0 
0.0 0.0 -7.237787631415e-04 
-9.766466055391e-05 -9.527665079689e-06 0.0 
-9.527665079689e-06 3.256739367154e-04 0.0 
0.0 0.0 -9.771826121206e-05 
-1.305508824941e-03 3.853404293039e-06 0.0 
3.853404293039e-06 9.105182867572e-03 0.0 
0.0 0.0 -1.323469717371e-03 
-1.171509388478e-03 -1.678154851061e-04 0.0 
-1.678154851061e-04 7.861802012676e-03 0.0 
0.0 0.0 -1.167157861819e-03 
-4.521694521813e-04 2.012915858519e-04 0.0 
2.012915858519e-04 2.804008720375e-03 0.0 
0.0 0.0 -4.535238702637e-04 
-1.341709311524e-03 -1.310979986686e-05 0.0 
-1.310979986686e-05 8.829628018658e-03 0.0 
0.0 0.0 -1.341709311524e-03 
-9.320413057689e-04 -1.962162649741e-04 0.0 
-1.962162649741e-04 6.231458751848e-03 0.0 
0.0 0.0 -9.325599965574e-04 
-6.268046795760e-04 1.808345467380e-04 0.0 
1.808345467380e-04 3.989844982223e-03 0.0 
0.0 0.0 -6.229492605273e-04 
-8.398341044081e-04 1.726875732325e-04 0.0 
1.726875732325e-04 5.514357495571e-03 0.0 
0.0 0.0 -8.408860858065e-04 
-8.060358487983e-04 -1.972435935582e-04 0.0 
-1.972435935582e-04 5.343400692596e-03 0.0 
0.0 0.0 -8.054665293395e-04 
-8.004419744920e-04 -1.952463938329e-04 0.0 
-1.952463938329e-04 5.314426112526e-03 0.0 
0.0 0.0 -8.008683130455e-04 
-9.182717976000e-04 -1.896493216883e-04 0.0 
-1.896493216883e-04 6.134019344383e-03 0.0 
0.0 0.0 -9.181754741429e-04 
-9.700343521080e-04 -1.978951788456e-04 0.0 
-1.978951788456e-04 6.510189924062e-03 0.0 
0.0 0.0 -9.721028620036e-04 
-6.977402691425e-04 1.822093202730e-04 0.0 
1.822093202730e-04 4.487185732323e-03 0.0 
0.0 0.0 -6.945885048819e-04 
-1.040005538332e-03 1.990021927621e-04 0.0 
1.990021927621e-04 6.900874594821e-03 0.0 
0.0 0.0 -1.039409037654e-03 
-8.975501320031e-04 -2.506583898402e-05 0.0 
-2.506583898402e-05 6.020256954513e-03 0.0 
0.0 0.0 -8.839498032872e-04 
-6.495260709226e-04 -1.944699442282e-04 0.0 
-1.944699442282e-04 4.277277504375e-03 0.0 
0.0 0.0 -6.521967345917e-04 
-9.682052284533e-04 1.865606736299e-04 0.0 
1.865606736299e-04 6.381518702333e-03 0.0 
0.0 0.0 -9.664699797409e-04 
-5.143750252182e-04 -1.778295084176e-04 0.0 
-1.778295084176e-04 3.324024151635e-03 0.0 
0.0 0.0 -5.155438399970e-04 
-9.088890292892e-04 1.918794185100e-04 0.0 
1.918794185100e-04 5.978978740211e-03 0.0 
0.0 0.0 -9.093720595694e-04 
-5.184917320349e-05 -5.023579163672e-06 0.0 
-5.023579163672e-06 2.615427770040e-04 0.0 
0.0 0.0 -4.585464485956e-05 
-5.019069719293e-04 -1.730390890632e-04 0.0 
-1.730390890632e-04 3.221983585288e-03 0.0 
0.0 0.0 -4.997308803768e-04 
-4.873333685603e-04 -1.811613926647e-04 0.0 
-1.811613926647e-04 3.131270652529e-03 0.0 
0.0 0.0 -4.875765080988e-04 
-7.115036268068e-04 1.928847685251e-04 0.0 
1.928847685251e-04 4.611615726792e-03 0.0 
0.0 0.0 -7.126562430122e-04 
-7.596608402965e-04 1.884583179831e-04 0.0 
1.884583179831e-04 4.937228765552e-03 0.0 
0.0 0.0 -7.595228636782e-04 
-9.346957466832e-04 1.973754267299e-04 0.0 
1.973754267299e-04 6.167461615292e-03 0.0 
0.0 0.0 -9.350600278798e-04 
-8.902631525082e-04 -1.867681813360e-04 0.0 
-1.867681813360e-04 5.973122971149e-03 0.0 
0.0 0.0 -8.962969588583e-04 
-4.491438895743e-04 -1.869760147927e-04 0.0 
-1.869760147927e-04 2.875737731611e-03 0.0 
0.0 0.0 -4.505554202764e-04 
-1.341827844788e-03 5.881319465524e-06 0.0 
5.881319465524e-06 8.853598786661e-03 0.0 
0.0 0.0 -1.341827844788e-03 
-8.819043585379e-04 -1.894669265130e-04 0.0 
-1.894669265130e-04 5.856756576790e-03 0.0 
0.0 0.0 -8.789935771182e-04 
-7.395748600620e-04 1.939731217689e-04 0.0 
1.939731217689e-04 4.808423671935e-03 0.0 
0.0 0.0 -7.413896480605e-04 
-8.456344442179e-04 -1.866159444842e-04 0.0 
-1.866159444842e-04 5.609212261315e-03 0.0 
0.0 0.0 -8.436662038215e-04 
-7.098621749807e-04 -1.956105885316e-04 0.0 
-1.956105885316e-04 4.679646247114e-03 0.0 
0.0 0.0 -7.098625721847e-04 
0.0 0.0 0.0 
0.0 0.0 0.0 
0.0 0.0 0.0 
-8.787853985481e-04 -1.870345829221e-04 0.0 
-1.870345829221e-04 5.815290073788e-03 0.0 
0.0 0.0 -8.733545218784e-04 
-6.014622352257e-04 2.088026922776e-04 0.0 
2.088026922776e-04 3.826503758406e-03 0.0 
0.0 0.0 -5.956302995864e-04 
0.0 0.0 0.0 
0.0 0.0 0.0 
0.0 0.0 0.0 
-7.014361857610e-04 2.031970023559e-04 0.0 
2.031970023559e-04 4.544280328863e-03 0.0 
0.0 0.0 -7.041275119738e-04 
-1.001578329479e-03 1.949348082252e-04 0.0 
1.949348082252e-04 6.625301000395e-03 0.0 
0.0 0.0 -1.001254648526e-03 
-1.145850176714e-03 1.952473198253e-04 0.0 
1.952473198253e-04 7.640587141445e-03 0.0 
0.0 0.0 -1.146946825052e-03 
-8.534899184108e-04 -1.900750659178e-04 0.0 
-1.900750659178e-04 5.682294137052e-03 0.0 
0.0 0.0 -8.532270185794e-04 
-8.843005196867e-04 1.891738523443e-04 0.0 
1.891738523443e-04 5.802847869315e-03 0.0 
0.0 0.0 -8.841559964380e-04 
-7.498668879057e-04 -1.500423199850e-04 0.0 
-1.500423199850e-04 4.956000169468e-03 0.0 
0.0 0.0 -7.495231765994e-04 
-7.499562203702e-04 -7.649065135862e-06 0.0 
-7.649065135862e-06 4.585920683461e-03 0.0 
0.0 0.0 -7.312625299844e-04 
-1.259814766287e-03 -2.251942805186e-05 0.0 
-2.251942805186e-05 8.482919934012e-03 0.0 
0.0 0.0 -1.286111585339e-03 
-8.096577215198e-04 -1.889624871780e-04 0.0 
-1.889624871780e-04 5.361431513159e-03 0.0 
0.0 0.0 -8.082854548548e-04 
-2.601123029567e-05 -8.443429959233e-06 0.0 
-8.443429959233e-06 2.242861713756e-04 0.0 
0.0 0.0 -4.535587742227e-05 
-2.679801948708e-04 -1.979252069441e-04 0.0 
-1.979252069441e-04 1.544873028567e-03 0.0 
0.0 0.0 -2.569639750501e-04 
-9.553383276932e-05 -1.682092997359e-05 0.0 
-1.682092997359e-05 3.188442541893e-04 0.0 
0.0 0.0 -9.570446632286e-05 
-4.265759374031e-04 -1.588061750622e-04 0.0 
-1.588061750622e-04 2.743578014403e-03 0.0 
0.0 0.0 -4.284133232656e-04 
-1.136810990824e-03 -2.050532392672e-04 0.0 
-2.050532392672e-04 7.627868260152e-03 0.0 
0.0 0.0 -1.134523071099e-03 
-1.147232605264e-03 -1.988471843745e-04 0.0 
-1.988471843745e-04 7.696346442353e-03 0.0 
0.0 0.0 -1.144649651339e-03 
-1.090721102207e-03 1.927119379256e-04 0.0 
1.927119379256e-04 7.225314130525e-03 0.0 
0.0 0.0 -1.087427768671e-03 
-4.794185500659e-04 -1.949320750668e-04 0.0 
-1.949320750668e-04 3.096205477872e-03 0.0 
0.0 0.0 -4.827803379924e-04 
-9.064466102036e-04 -1.951694302266e-04 0.0 
-1.951694302266e-04 6.052913189119e-03 0.0 
0.0 0.0 -9.063168105749e-04 
-1.135504702689e-03 1.907792817819e-04 0.0 
1.907792817819e-04 7.600364314815e-03 0.0 
0.0 0.0 -1.142106164841e-03 
-2.788698608247e-04 -1.715069773272e-04 0.0 
-1.715069773272e-04 1.706769297964e-03 0.0 
0.0 0.0 -2.821198837983e-04 
-5.962549057610e-04 -2.242943986440e-04 0.0 
-2.242943986440e-04 3.850260609285e-03 0.0 
0.0 0.0 -5.942115541274e-04 
-4.821057558984e-04 1.938812463926e-04 0.0 
1.938812463926e-04 3.093517382698e-03 0.0 
0.0 0.0 -4.980019828625e-04 
-1.334956243324e-03 1.593537991859e-05 0.0 
1.593537991859e-05 9.100113722888e-03 0.0 
0.0 0.0 -1.322396863610e-03 
-1.341641872583e-03 -1.598087186621e-05 0.0 
-1.598087186621e-05 8.845353034364e-03 0.0 
0.0 0.0 -1.341641872583e-03 
-6.679494605950e-04 -1.695756001759e-04 0.0 
-1.695756001759e-04 4.277020538631e-03 0.0 
0.0 0.0 -6.580288049735e-04 
-7.324961324261e-04 -1.951613493015e-04 0.0 
-1.951613493015e-04 4.877737690436e-03 0.0 
0.0 0.0 -7.385580096348e-04 
-8.320090833607e-04 1.945702263429e-04 0.0 
1.945702263429e-04 5.445258436908e-03 0.0 
0.0 0.0 -8.323457052078e-04 
-1.163041303964e-03 1.778772476613e-04 0.0 
1.778772476613e-04 7.881722024609e-03 0.0 
0.0 0.0 -1.177278300149e-03 
-2.899237030429e-04 1.996200503925e-04 0.0 
1.996200503925e-04 1.630038568431e-03 0.0 
0.0 0.0 -2.880367495917e-04 
-1.101530990218e-03 1.937554819912e-04 0.0 
1.937554819912e-04 7.342981690998e-03 0.0 
0.0 0.0 -1.104707344597e-03 
-1.602377275387e-04 3.299975488637e-05 0.0 
3.299975488637e-05 1.021185104458e-03 0.0 
0.0 0.0 -1.612556504808e-04 
-6.771993620365e-04 -1.961964403491e-04 0.0 
-1.961964403491e-04 4.422374575330e-03 0.0 
0.0 0.0 -6.724657308136e-04 
-7.463531003114e-04 -1.974750822580e-04 0.0 
-1.974750822580e-04 4.938620865557e-03 0.0 
0.0 0.0 -7.470513223636e-04 
-9.733051936627e-05 1.431354683513e-05 0.0 
1.431354683513e-05 3.247181541802e-04 0.0 
0.0 0.0 -9.745184349170e-05 
-6.107893375516e-04 1.961955655378e-04 0.0 
1.961955655378e-04 4.041501780348e-03 0.0 
0.0 0.0 -6.267591816330e-04 
-1.179150888516e-03 1.722766776771e-04 0.0 
1.722766776771e-04 7.845621701176e-03 0.0 
0.0 0.0 -1.176862138969e-03 
-5.380435756070e-05 -4.751466869154e-06 0.0 
-4.751466869154e-06 2.532858114077e-04 0.0 
0.0 0.0 -4.590328595372e-05 
-7.312532489837e-04 1.362386611749e-05 0.0 
1.362386611749e-05 4.573834094121e-03 0.0 
0.0 0.0 -7.322753781719e-04 
-7.047922472484e-04 1.123922026685e-06 0.0 
1.123922026685e-06 4.847576831705e-03 0.0 
0.0 0.0 -7.130472889423e-04 
-9.547380700051e-04 -1.945366017599e-04 0.0 
-1.945366017599e-04 6.390005998802e-03 0.0 
0.0 0.0 -9.552000144736e-04 
-4.877659469443e-04 -1.909239420501e-04 0.0 
-1.909239420501e-04 3.137535928941e-03 0.0 
0.0 0.0 -4.943513106837e-04 
-4.803168808599e-04 1.981666947029e-04 0.0 
1.981666947029e-04 2.999843219209e-03 0.0 
0.0 0.0 -4.817493388239e-04 
-3.413576717745e-04 -1.696251700452e-04 0.0 
-1.696251700452e-04 2.103971295735e-03 0.0 
0.0 0.0 -3.398054741319e-04 
-1.177842708252e-03 1.745516882076e-04 0.0 
1.745516882076e-04 7.866046843566e-03 0.0 
0.0 0.0 -1.180895453064e-03 
-1.288113258455e-03 -7.910099866535e-06 0.0 
-7.910099866535e-06 8.468043511099e-03 0.0 
0.0 0.0 -1.286194385238e-03 
-1.101033919243e-03 -1.960948394900e-04 0.0 
-1.960948394900e-04 7.394725323298e-03 0.0 
0.0 0.0 -1.101088927253e-03 
-4.503494869687e-04 -1.637033152419e-04 0.0 
-1.637033152419e-04 2.832512250195e-03 0.0 
0.0 0.0 -4.457015571677e-04 
-2.141424004700e-04 2.387020000876e-04 0.0 
2.387020000876e-04 9.652683007768e-04 0.0 
0.0 0.0 -1.905831712289e-04 
-7.028954825784e-04 -1.797251013726e-04 0.0 
-1.797251013726e-04 4.605141056062e-03 0.0 
0.0 0.0 -6.999131133628e-04 
-7.213924053117e-04 -5.563189410969e-07 0.0 
-5.563189410969e-07 4.593100885078e-03 0.0 
0.0 0.0 -7.345111139194e-04 
-7.221802994753e-04 -3.459116523938e-05 0.0 
-3.459116523938e-05 4.860709319501e-03 0.0 
0.0 0.0 -7.144802219086e-04 
0.0 0.0 0.0 
0.0 0.0 0.0 
0.0 0.0 0.0 
-9.462674636507e-05 9.391315588563e-06 0.0 
9.391315588563e-06 3.155479012844e-04 0.0 
0.0 0.0 -9.468049496542e-05 
-1.889846684321e-04 -5.120829147058e-05 0.0 
-5.120829147058e-05 7.312686420689e-04 0.0 
0.0 0.0 -1.795416262981e-04 
-3.813293178289e-04 1.993773121019e-04 0.0 
1.993773121019e-04 2.301443442693e-03 0.0 
0.0 0.0 -3.820941496288e-04 
-1.147287239146e-04 2.233479330491e-06 0.0 
2.233479330491e-06 6.267336868549e-04 0.0 
0.0 0.0 -1.035694276016e-04 
-7.177698882455e-04 1.875976177193e-04 0.0 
1.875976177193e-04 4.537921580666e-03 0.0 
0.0 0.0 -6.918148876825e-04 
0.0 0.0 0.0 
0.0 0.0 0.0 
0.0 0.0 0.0 
-4.466789787724e-04 2.025807610901e-04 0.0 
2.025807610901e-04 2.763058809203e-03 0.0 
0.0 0.0 -4.482372226011e-04 
-9.484602570363e-04 5.937741420751e-05 0.0 
5.937741420751e-05 6.186307546056e-03 0.0 
0.0 0.0 -9.582560723523e-04 
-7.114040901391e-04 1.008097673964e-05 0.0 
1.008097673964e-05 4.858827396879e-03 0.0 
0.0 0.0 -7.120344407548e-04 
-1.154819602250e-03 -2.018660896655e-04 0.0 
-2.018660896655e-04 7.854075905782e-03 0.0 
0.0 0.0 -1.169483110168e-03 
-9.636351090390e-04 1.953512484906e-04 0.0 
1.953512484906e-04 6.363047776900e-03 0.0 
0.0 0.0 -9.641449249716e-04 
-9.024629704431e-04 7.830558015861e-05 0.0 
7.830558015861e-05 5.773999043953e-03 0.0 
0.0 0.0 -8.988447104697e-04 
-5.248669465082e-04 2.030027087804e-04 0.0 
2.030027087804e-04 3.352814556998e-03 0.0 
0.0 0.0 -5.269378630653e-04 
-1.557908844091e-04 -1.426598337885e-05 0.0 
-1.426598337885e-05 1.017280518651e-03 0.0 
0.0 0.0 -1.602995255322e-04 
-1.340974968048e-03 -2.076763454680e-05 0.0 
-2.076763454680e-05 8.825339797415e-03 0.0 
0.0 0.0 -1.340974968048e-03 
-1.331740677566e-03 -1.067318438911e-06 0.0 
-1.067318438911e-06 9.107204473734e-03 0.0 
0.0 0.0 -1.320295381545e-03 
-8.482992821085e-04 2.310186269771e-04 0.0 
2.310186269771e-04 5.616583664962e-03 0.0 
0.0 0.0 -8.588387843224e-04 
-7.462574470129e-04 -7.506809615043e-06 0.0 
-7.506809615043e-06 4.590636784032e-03 0.0 
0.0 0.0 -7.326073368542e-04 
-5.251543525857e-04 -1.205978746023e-04 0.0 
-1.205978746023e-04 3.428806267578e-03 0.0 
0.0 0.0 -5.314511797787e-04 
-1.323491096028e-03 -2.283744003803e-05 0.0 
-2.283744003803e-05 9.085754239402e-03 0.0 
0.0 0.0 -1.322576402756e-03 
-4.157468964118e-04 -1.918553564634e-04 0.0 
-1.918553564634e-04 2.636700862140e-03 0.0 
0.0 0.0 -4.166600706249e-04 
-7.057672473389e-04 -4.164103403237e-06 0.0 
-4.164103403237e-06 4.837446989167e-03 0.0 
0.0 0.0 -7.125614225629e-04 
-7.131316839303e-04 7.226971892557e-06 0.0 
7.226971892557e-06 4.584933787265e-03 0.0 
0.0 0.0 -7.312775522649e-04 
-6.769264019625e-04 1.800240141216e-04 0.0 
1.800240141216e-04 4.359211225872e-03 0.0 
0.0 0.0 -6.755779900756e-04 
-1.341823989366e-03 -1.865391509118e-05 0.0 
-1.865391509118e-05 8.857424336763e-03 0.0 
0.0 0.0 -1.341823989366e-03 
-1.293765856573e-03 1.607380559243e-05 0.0 
1.607380559243e-05 9.094492997413e-03 0.0 
0.0 0.0 -1.322582685247e-03 
-1.126722208426e-04 6.998488737266e-06 0.0 
6.998488737266e-06 6.134703062313e-04 0.0 
0.0 0.0 -1.035688293187e-04 
0.0 0.0 0.0 
0.0 0.0 0.0 
0.0 0.0 0.0 
-2.390355384623e-04 1.936491639953e-04 0.0 
1.936491639953e-04 1.192457136132e-03 0.0 
0.0 0.0 -2.221130066924e-04 
-7.484754656573e-04 1.958621454920e-04 0.0 
1.958621454920e-04 4.871290639516e-03 0.0 
0.0 0.0 -7.497705102653e-04 
-1.223848934685e-03 2.347738204731e-04 0.0 
2.347738204731e-04 8.231542695031e-03 0.0 
0.0 0.0 -1.224669017856e-03 
-3.851215442265e-05 -6.758275575601e-05 0.0 
-6.758275575601e-05 2.149841041377e-04 0.0 
0.0 0.0 -4.506945562690e-05 
-1.095035538177e-03 -2.135230687797e-04 0.0 
-2.135230687797e-04 7.297496536284e-03 0.0 
0.0 0.0 -1.092518628633e-03 
0.0 0.0 0.0 
0.0 0.0 0.0 
0.0 0.0 0.0 
-9.497696422961e-04 1.942166615206e-04 0.0 
1.942166615206e-04 6.260470679264e-03 0.0 
0.0 0.0 -9.493083249531e-04 
-6.288110034417e-05 6.701081411341e-06 0.0 
6.701081411341e-06 2.758850751309e-04 0.0 
0.0 0.0 -4.591043399907e-05 
-6.241905191399e-05 -2.511621330185e-05 0.0 
-2.511621330185e-05 2.635940123717e-04 0.0 
0.0 0.0 -4.615290204994e-05 
-9.135771074388e-04 1.942985431381e-04 0.0 
1.942985431381e-04 6.003773453710e-03 0.0 
0.0 0.0 -9.122568895951e-04 
-1.191044637578e-03 1.954606753198e-04 0.0 
1.954606753198e-04 7.975629465802e-03 0.0 
0.0 0.0 -1.192963836147e-03 
-9.353430265023e-04 -9.437658603161e-05 0.0 
-9.437658603161e-05 6.401376295666e-03 0.0 
0.0 0.0 -9.361271490834e-04 
-7.292657224304e-04 -1.767865209210e-04 0.0 
-1.767865209210e-04 4.795789678295e-03 0.0 
0.0 0.0 -7.268406435589e-04 
-9.710718174905e-05 -1.358771368788e-05 0.0 
-1.358771368788e-05 3.239463226279e-04 0.0 
0.0 0.0 -9.721677466238e-05 
-9.353638871597e-04 -1.962742580692e-04 0.0 
-1.962742580692e-04 6.250401807132e-03 0.0 
0.0 0.0 -9.349022313484e-04 
-1.337797817327e-03 -2.530827551252e-05 0.0 
-2.530827551252e-05 8.814034455446e-03 0.0 
0.0 0.0 -1.337797817327e-03 
-1.326036287352e-03 -1.455315038832e-04 0.0 
-1.455315038832e-04 9.082015863419e-03 0.0 
0.0 0.0 -1.322354755130e-03 
-7.123437340294e-04 1.173862101604e-05 0.0 
1.173862101604e-05 4.855322276952e-03 0.0 
0.0 0.0 -7.125764448434e-04 
-9.860203699540e-04 1.899915039947e-04 0.0 
1.899915039947e-04 6.516626141221e-03 0.0 
0.0 0.0 -9.863757069361e-04 
-1.341607717199e-03 1.356557150840e-05 0.0 
1.356557150840e-05 8.840587029738e-03 0.0 
0.0 0.0 -1.341607717199e-03 
-1.048314093038e-03 -2.082351981232e-04 0.0 
-2.082351981232e-04 7.019832661667e-03 0.0 
0.0 0.0 -1.046710270629e-03 
-1.675301838823e-04 4.109428891396e-05 0.0 
4.109428891396e-05 9.648536059596e-04 0.0 
0.0 0.0 -1.589907658001e-04 
-1.067672517152e-04 -9.583258243014e-06 0.0 
-9.583258243014e-06 6.200113654204e-04 0.0 
0.0 0.0 -1.029725306715e-04 
-1.028842676796e-04 -4.314994342249e-05 0.0 
-4.314994342249e-05 3.453649952318e-04 0.0 
0.0 0.0 -1.039203118081e-04 
-5.871622493136e-04 1.953666188975e-04 0.0 
1.953666188975e-04 3.814212399553e-03 0.0 
0.0 0.0 -5.933358154923e-04 
-1.333672766825e-03 -1.202212504053e-04 0.0 
-1.202212504053e-04 9.086271765214e-03 0.0 
0.0 0.0 -1.322828574513e-03 
-1.249098589656e-03 -2.325383237370e-04 0.0 
-2.325383237370e-04 8.487130897030e-03 0.0 
0.0 0.0 -1.258329778789e-03 
0.0 0.0 0.0 
0.0 0.0 0.0 
0.0 0.0 0.0 
-6.989700289776e-04 -1.857489314676e-04 0.0 
-1.857489314676e-04 4.509333602690e-03 0.0 
0.0 0.0 -6.938761155152e-04 
-1.344798314369e-03 5.494387484636e-06 0.0 
5.494387484636e-06 8.860415151620e-03 0.0 
0.0 0.0 -1.344798314369e-03 
-1.337322942170e-03 3.677431177348e-05 0.0 
3.677431177348e-05 9.118625106116e-03 0.0 
0.0 0.0 -1.318785251170e-03 
-1.303755075695e-03 1.430690451396e-06 0.0 
1.430690451396e-06 9.096198326928e-03 0.0 
0.0 0.0 -1.321151187552e-03 
-1.034449558172e-03 2.142439693304e-04 0.0 
2.142439693304e-04 6.840882471351e-03 0.0 
0.0 0.0 -1.027148381742e-03 
-1.117879717661e-03 -2.162737768218e-04 0.0 
-2.162737768218e-04 7.549121072968e-03 0.0 
0.0 0.0 -1.125709525796e-03 
-1.338030260144e-03 -6.968280175093e-06 0.0 
-6.968280175093e-06 8.819304319896e-03 0.0 
0.0 0.0 -1.338030260144e-03 
-1.340754991027e-03 -2.793160050155e-05 0.0 
-2.793160050155e-05 8.842227493663e-03 0.0 
0.0 0.0 -1.340754991027e-03 
-1.084387157107e-03 1.756228747117e-04 0.0 
1.756228747117e-04 7.304356114432e-03 0.0 
0.0 0.0 -1.092518628634e-03 
-2.311762207506e-05 7.524747598181e-05 0.0 
7.524747598181e-05 1.841595127813e-04 0.0 
0.0 0.0 -4.541545915403e-05 
-7.129930244863e-04 -1.525724794926e-06 0.0 
-1.525724794926e-06 4.814692496190e-03 0.0 
0.0 0.0 -7.139539158865e-04 
-7.213897068280e-04 3.016260299788e-05 0.0 
3.016260299788e-05 4.878464797693e-03 0.0 
0.0 0.0 -7.133642253441e-04 
0.0 0.0 0.0 
0.0 0.0 0.0 
0.0 0.0 0.0 
-1.342313591240e-03 1.055329185635e-05 0.0 
1.055329185635e-05 8.873951644271e-03 0.0 
0.0 0.0 -1.342313591240e-03 
-1.336661786255e-03 2.540411115345e-05 0.0 
2.540411115345e-05 9.107640988403e-03 0.0 
0.0 0.0 -1.318355947622e-03 
-1.337959751097e-03 6.489046299374e-07 0.0 
6.489046299374e-07 8.814031058647e-03 0.0 
0.0 0.0 -1.337959751097e-03 
-6.887950874113e-05 7.326700540917e-06 0.0 
7.326700540917e-06 2.659430667850e-04 0.0 
0.0 0.0 -4.582974829071e-05 
-7.021790639444e-05 9.602649528375e-06 0.0 
9.602649528375e-06 2.736498867396e-04 0.0 
0.0 0.0 -4.591370119938e-05 
-1.340754991027e-03 -1.163411170894e-06 0.0 
-1.163411170894e-06 8.829041487509e-03 0.0 
0.0 0.0 -1.340754991027e-03 
-1.340396196526e-03 -2.044778395464e-05 0.0 
-2.044778395464e-05 8.820055094331e-03 0.0 
0.0 0.0 -1.340396196526e-03 
-1.016763022878e-03 -2.313272643619e-04 0.0 
-2.313272643619e-04 6.613286649783e-03 0.0 
0.0 0.0 -9.936726122374e-04 
-7.156761650400e-04 3.174630435060e-05 0.0 
3.174630435060e-05 4.813106322843e-03 0.0 
0.0 0.0 -7.124851972278e-04 
-1.051691578887e-03 -2.268729750207e-04 0.0 
-2.268729750207e-04 7.069453692283e-03 0.0 
0.0 0.0 -1.060142436171e-03 
-8.856361613045e-04 -2.246794552561e-04 0.0 
-2.246794552561e-04 5.656932423438e-03 0.0 
0.0 0.0 -8.626607521899e-04 
-6.974461573381e-04 1.315776503869e-05 0.0 
1.315776503869e-05 4.815685979733e-03 0.0 
0.0 0.0 -7.121912678902e-04 
-3.076401957545e-05 3.630205513196e-05 0.0 
3.630205513196e-05 2.492584121326e-04 0.0 
0.0 0.0 -4.495577515415e-05 
-4.859098010828e-05 -3.737210181655e-05 0.0 
-3.737210181655e-05 2.860304098853e-04 0.0 
0.0 0.0 -4.591167563965e-05 
-3.185160578265e-05 -1.142237180327e-05 0.0 
-1.142237180327e-05 2.469612253318e-04 0.0 
0.0 0.0 -4.589015575604e-05 
-4.731421252786e-05 -1.226097571205e-05 0.0 
-1.226097571205e-05 2.659450080892e-04 0.0 
0.0 0.0 -4.556578909549e-05 
-7.410966517880e-04 2.317413733405e-04 0.0 
2.317413733405e-04 4.761489269815e-03 0.0 
0.0 0.0 -7.271325101417e-04 
-6.567236663823e-04 2.031409226007e-04 0.0 
2.031409226007e-04 4.278704049819e-03 0.0 
0.0 0.0 -6.600769387058e-04 
0.0 0.0 0.0 
0.0 0.0 0.0 
0.0 0.0 0.0 
-9.198692932468e-04 2.207519103490e-04 0.0 
2.207519103490e-04 6.164531821473e-03 0.0 
0.0 0.0 -9.221709323543e-04 
0.0 0.0 0.0 
0.0 0.0 0.0 
0.0 0.0 0.0 
-1.341471640605e-03 5.425770365485e-06 0.0 
5.425770365485e-06 8.820837432317e-03 0.0 
0.0 0.0 -1.341471640605e-03 
-1.340968685557e-03 1.249741243797e-05 0.0 
1.249741243797e-05 8.807656416615e-03 0.0 
0.0 0.0 -1.340968685557e-03 
-1.339320413496e-03 -6.736119072726e-06 0.0 
-6.736119072726e-06 8.832654043149e-03 0.0 
0.0 0.0 -1.339320413496e-03 
-2.516213945074e-04 2.377641770175e-04 0.0 
2.377641770175e-04 1.477950192533e-03 0.0 
0.0 0.0 -2.599136149544e-04 
-4.499622910387e-04 2.064665423492e-04 0.0 
2.064665423492e-04 2.879856921820e-03 0.0 
0.0 0.0 -4.607467809507e-04 
-1.337132911908e-03 -4.793528436985e-06 0.0 
-4.793528436985e-06 8.820087587172e-03 0.0 
0.0 0.0 -1.337132911908e-03 
-1.120160542764e-03 1.885503644174e-04 0.0 
1.885503644174e-04 7.560722239950e-03 0.0 
0.0 0.0 -1.124956933753e-03 
-1.344556937803e-03 -2.104246713843e-05 0.0 
-2.104246713843e-05 8.860523593132e-03 0.0 
0.0 0.0 -1.344556937803e-03 
-1.195658010449e-03 2.008624552428e-04 0.0 
2.008624552428e-04 8.028011251528e-03 0.0 
0.0 0.0 -1.192538251246e-03 
-1.264541089761e-03 2.315838415429e-04 0.0 
2.315838415429e-04 8.498729307699e-03 0.0 
0.0 0.0 -1.259905836238e-03 
-6.219774932840e-04 -2.035330289392e-04 0.0 
-2.035330289392e-04 4.041759494414e-03 0.0 
0.0 0.0 -6.267460875326e-04 
-1.333336577702e-03 -3.290028368550e-05 0.0 
-3.290028368550e-05 9.106230716714e-03 0.0 
0.0 0.0 -1.318101597465e-03 
-1.336001964470e-03 1.162172730561e-04 0.0 
1.162172730561e-04 9.090958479552e-03 0.0 
0.0 0.0 -1.321689849711e-03 
-1.157015842751e-03 -2.064363215115e-04 0.0 
-2.064363215115e-04 7.737243073859e-03 0.0 
0.0 0.0 -1.157495185000e-03 
-1.229671491752e-03 -2.051129200289e-04 0.0 
-2.051129200289e-04 8.228478437854e-03 0.0 
0.0 0.0 -1.225777420818e-03 
-9.871372975694e-04 -1.866548184672e-04 0.0 
-1.866548184672e-04 6.644402027939e-03 0.0 
0.0 0.0 -9.925156490314e-04 
0.0 0.0 0.0 
0.0 0.0 0.0 
0.0 0.0 0.0 
-6.525071487266e-04 -2.022287068405e-04 0.0 
-2.022287068405e-04 4.165983179946e-03 0.0 
0.0 0.0 -6.350241097613e-04 
-1.062777711570e-04 -2.500028508481e-05 0.0 
-2.500028508481e-05 5.975407209184e-04 0.0 
0.0 0.0 -1.030398215525e-04 
-1.177532662352e-03 -1.733616004669e-04 0.0 
-1.733616004669e-04 7.926724853394e-03 0.0 
0.0 0.0 -1.177819030284e-03 
-6.744770170929e-04 1.928269940394e-04 0.0 
1.928269940394e-04 4.352241427477e-03 0.0 
0.0 0.0 -6.753691525988e-04 
-1.095781442937e-03 1.863762097668e-04 0.0 
1.863762097668e-04 7.297090200674e-03 0.0 
0.0 0.0 -1.099016898379e-03 
-3.528730048210e-04 -1.946361167359e-04 0.0 
-1.946361167359e-04 2.176757571714e-03 0.0 
0.0 0.0 -3.504775146279e-04 
-1.550760112037e-04 1.206598951615e-04 0.0 
1.206598951615e-04 7.508446244136e-04 0.0 
0.0 0.0 -1.735952156319e-04 
-1.160601579575e-03 -1.894710886425e-04 0.0 
-1.894710886425e-04 7.820833929290e-03 0.0 
0.0 0.0 -1.161668299909e-03 
-6.889768412053e-04 -1.975061828768e-04 0.0 
-1.975061828768e-04 4.617261067584e-03 0.0 
0.0 0.0 -7.012080445024e-04 
-5.762009062567e-04 2.005988488918e-04 0.0 
2.005988488918e-04 3.584897669436e-03 0.0 
0.0 0.0 -5.611363230934e-04 
-1.093490207039e-03 -1.909491051748e-04 0.0 
-1.909491051748e-04 7.367841895943e-03 0.0 
0.0 0.0 -1.096102707776e-03 
-1.178635420303e-03 1.949598249273e-04 0.0 
1.949598249273e-04 7.912911661083e-03 0.0 
0.0 0.0 -1.188907866872e-03 
-5.561658818215e-04 -2.031625025719e-04 0.0 
-2.031625025719e-04 3.593153237093e-03 0.0 
0.0 0.0 -5.602736785587e-04 
-1.035403721303e-03 -2.031605927371e-04 0.0 
-2.031605927371e-04 6.949569291118e-03 0.0 
0.0 0.0 -1.035646790376e-03 
-9.180249208977e-04 1.931476710153e-04 0.0 
1.931476710153e-04 6.042341158293e-03 0.0 
0.0 0.0 -9.181742748318e-04 
-9.917755747799e-04 2.023242542686e-04 0.0 
2.023242542686e-04 6.575747416083e-03 0.0 
0.0 0.0 -9.952786863929e-04 
-1.024377024952e-03 1.861972783327e-04 0.0 
1.861972783327e-04 6.794579129447e-03 0.0 
0.0 0.0 -1.024224580100e-03 
-5.802650742356e-04 1.891370522918e-04 0.0 
1.891370522918e-04 3.679117002713e-03 0.0 
0.0 0.0 -5.788817793163e-04 
-6.680148396562e-04 -1.727307713497e-04 0.0 
-1.727307713497e-04 4.367645791481e-03 0.0 
0.0 0.0 -6.651338130661e-04 
-7.292546132971e-04 -1.846826388501e-04 0.0 
-1.846826388501e-04 4.813421317749e-03 0.0 
0.0 0.0 -7.293057621918e-04 
-9.374184943370e-04 1.944757919182e-04 0.0 
1.944757919182e-04 6.178932175003e-03 0.0 
0.0 0.0 -9.378562126457e-04 
-1.124743441142e-03 -2.044895248108e-04 0.0 
-2.044895248108e-04 7.578873023721e-03 0.0 
0.0 0.0 -1.125100902632e-03 
-1.057275381377e-03 1.952239226915e-04 0.0 
1.952239226915e-04 7.019062258927e-03 0.0 
0.0 0.0 -1.053755873404e-03 
-3.652721065736e-04 1.996025403975e-04 0.0 
1.996025403975e-04 2.192815232503e-03 0.0 
0.0 0.0 -3.685493992842e-04 
-1.164581229115e-03 2.188850811810e-04 0.0 
2.188850811810e-04 7.900774321480e-03 0.0 
0.0 0.0 -1.183514100502e-03 
-1.119628239997e-03 2.087348229959e-04 0.0 
2.087348229959e-04 7.433542979005e-03 0.0 
0.0 0.0 -1.117084069417e-03 
-8.143956589139e-04 2.341244742852e-04 0.0 
2.341244742852e-04 5.337741611520e-03 0.0 
0.0 0.0 -8.110481619253e-04 
-9.749777922597e-04 1.939288930454e-04 0.0 
1.939288930454e-04 6.440647276838e-03 0.0 
0.0 0.0 -9.753747863247e-04 
-9.652234430735e-04 1.970752514855e-04 0.0 
1.970752514855e-04 6.378006768513e-03 0.0 
0.0 0.0 -9.665592132828e-04 
-1.194888926874e-03 -2.112261199247e-04 0.0 
-2.112261199247e-04 8.020188826812e-03 0.0 
0.0 0.0 -1.185362187646e-03 
-1.151241251503e-03 1.853138580095e-04 0.0 
1.853138580095e-04 7.714994671460e-03 0.0 
0.0 0.0 -1.150972777267e-03 
-8.863019395197e-04 -1.951602003697e-04 0.0 
-1.951602003697e-04 5.913977900844e-03 0.0 
0.0 0.0 -8.866930489607e-04 
-1.183768845123e-03 -1.944166925086e-04 0.0 
-1.944166925086e-04 8.022430172969e-03 0.0 
0.0 0.0 -1.190872049285e-03 
-1.103203670140e-03 1.932633349998e-04 0.0 
1.932633349998e-04 7.339211362922e-03 0.0 
0.0 0.0 -1.103416240745e-03 
-1.053347130920e-03 -1.808067663282e-04 0.0 
-1.808067663282e-04 7.018991585010e-03 0.0 
0.0 0.0 -1.053748284807e-03 
-1.207301516059e-03 -2.189374092153e-04 0.0 
-2.189374092153e-04 8.148472988394e-03 0.0 
0.0 0.0 -1.210017230578e-03 
-1.183451424094e-03 -2.064186268461e-04 0.0 
-2.064186268461e-04 7.961006455012e-03 0.0 
0.0 0.0 -1.181737430652e-03 
-1.012410866899e-03 -2.064236493359e-04 0.0 
-2.064236493359e-04 6.767125967856e-03 0.0 
0.0 0.0 -1.011817915138e-03 
-9.978825943573e-04 -1.946964301517e-04 0.0 
-1.946964301517e-04 6.692413921007e-03 0.0 
0.0 0.0 -9.985655989919e-04 
-3.618458064176e-04 1.902703540338e-04 0.0 
1.902703540338e-04 2.182295586331e-03 0.0 
0.0 0.0 -3.644364776638e-04 
-3.396688960244e-04 1.922383374584e-04 0.0 
1.922383374584e-04 2.020949841441e-03 0.0 
0.0 0.0 -3.414758422231e-04 
-2.048022796594e-04 -2.337971245160e-04 0.0 
-2.337971245160e-04 1.038657557028e-03 0.0 
0.0 0.0 -1.876370064529e-04 
-1.053265806660e-04 1.589966792158e-06 0.0 
1.589966792158e-06 6.159987105294e-04 0.0 
0.0 0.0 -1.032036840373e-04 
-1.146654591444e-03 -2.036534213010e-04 0.0 
-2.036534213010e-04 7.733548266154e-03 0.0 
0.0 0.0 -1.150998037120e-03 
-1.153371435519e-03 1.929566661377e-04 0.0 
1.929566661377e-04 7.706474852566e-03 0.0 
0.0 0.0 -1.156839719840e-03 
-1.023100123297e-04 6.333767357888e-06 0.0 
6.333767357888e-06 5.922537874641e-04 0.0 
0.0 0.0 -1.029284987275e-04 
-1.152902847458e-03 -1.945944093031e-04 0.0 
-1.945944093031e-04 7.806589318492e-03 0.0 
0.0 0.0 -1.160298666437e-03 
-8.240593874314e-04 2.133386610705e-04 0.0 
2.133386610705e-04 5.515954645069e-03 0.0 
0.0 0.0 -8.436798659344e-04 
-1.063159338098e-03 -2.000353252039e-04 0.0 
-2.000353252039e-04 7.170931875512e-03 0.0 
0.0 0.0 -1.067477449466e-03 
-1.091085119062e-03 1.926591161235e-04 0.0 
1.926591161235e-04 7.245677048731e-03 0.0 
0.0 0.0 -1.090430023688e-03 
-5.083685843408e-04 1.854528112905e-04 0.0 
1.854528112905e-04 3.184990427277e-03 0.0 
0.0 0.0 -5.090628918580e-04 
-1.088419020765e-03 -1.985610050621e-04 0.0 
-1.985610050621e-04 7.308442647816e-03 0.0 
0.0 0.0 -1.087955833448e-03 
-8.052736907314e-04 -2.707602780884e-04 0.0 
-2.707602780884e-04 5.346563189152e-03 0.0 
0.0 0.0 -8.100176300978e-04 
-1.002877096566e-03 -1.976880564896e-04 0.0 
-1.976880564896e-04 6.706443384887e-03 0.0 
0.0 0.0 -1.000388816061e-03 
-1.231169607282e-03 2.234727540430e-04 0.0 
2.234727540430e-04 8.305282306820e-03 0.0 
0.0 0.0 -1.242964905849e-03 
-3.519355017218e-04 1.472413134465e-04 0.0 
1.472413134465e-04 2.089181619658e-03 0.0 
0.0 0.0 -3.542437553904e-04 
-1.221302329282e-03 -1.674357911947e-04 0.0 
-1.674357911947e-04 8.209373583472e-03 0.0 
0.0 0.0 -1.215045542354e-03 
-1.047850802636e-03 -1.881582153281e-04 0.0 
-1.881582153281e-04 7.026769425363e-03 0.0 
0.0 0.0 -1.048288725887e-03 
-3.889604497647e-04 2.037169653349e-04 0.0 
2.037169653349e-04 2.380154464468e-03 0.0 
0.0 0.0 -3.930611257745e-04 
-4.005955795872e-04 -1.795528067479e-04 0.0 
-1.795528067479e-04 2.551679544192e-03 0.0 
0.0 0.0 -4.034900192350e-04 
-7.895600060851e-04 1.993051337404e-04 0.0 
1.993051337404e-04 5.154958880860e-03 0.0 
0.0 0.0 -7.909606353592e-04 
-9.478370252283e-04 2.028022273916e-04 0.0 
2.028022273916e-04 6.213549732246e-03 0.0 
0.0 0.0 -9.409807611877e-04 
-5.389171118930e-04 1.931642811105e-04 0.0 
1.931642811105e-04 3.423254400861e-03 0.0 
0.0 0.0 -5.429771841545e-04 
-1.084906178257e-03 -2.011232363262e-04 0.0 
-2.011232363262e-04 7.274950011924e-03 0.0 
0.0 0.0 -1.085119818393e-03 
-9.758201311387e-04 -2.238948292921e-04 0.0 
-2.238948292921e-04 6.526325342415e-03 0.0 
0.0 0.0 -9.816794289629e-04 
-7.681741524081e-04 1.880175807826e-04 0.0 
1.880175807826e-04 5.011383542904e-03 0.0 
0.0 0.0 -7.700930343086e-04 
-1.026480683520e-03 -1.844900629417e-04 0.0 
-1.844900629417e-04 6.842321728991e-03 0.0 
0.0 0.0 -1.021757709120e-03 
-1.057960421125e-03 -1.998047593287e-04 0.0 
-1.998047593287e-04 7.113469784678e-03 0.0 
0.0 0.0 -1.058696934625e-03 
-1.057942238941e-03 2.175749808768e-04 0.0 
2.175749808768e-04 6.964480207197e-03 0.0 
0.0 0.0 -1.050681058959e-03 
-3.033747618520e-04 -1.838242939413e-04 0.0 
-1.838242939413e-04 1.857406959021e-03 0.0 
0.0 0.0 -3.058749225436e-04 
-7.305418871957e-04 1.869626526336e-04 0.0 
1.869626526336e-04 4.754815575901e-03 0.0 
0.0 0.0 -7.328582426338e-04 
-1.136183616218e-03 2.082876610418e-04 0.0 
2.082876610418e-04 7.610878515336e-03 0.0 
0.0 0.0 -1.141128458404e-03 
-1.078434925953e-03 -1.984149302182e-04 0.0 
-1.984149302182e-04 7.234990828440e-03 0.0 
0.0 0.0 -1.078198857115e-03 
-6.621852882438e-04 2.164713360985e-04 0.0 
2.164713360985e-04 4.271535496369e-03 0.0 
0.0 0.0 -6.666835465145e-04 
-9.149083998473e-04 -1.952760623192e-04 0.0 
-1.952760623192e-04 6.113676858772e-03 0.0 
0.0 0.0 -9.153036164073e-04 
-1.187688204395e-03 -2.025883410103e-04 0.0 
-2.025883410103e-04 8.016876824675e-03 0.0 
0.0 0.0 -1.187586327529e-03 
-1.005326890981e-03 1.902074749802e-04 0.0 
1.902074749802e-04 6.713852212323e-03 0.0 
0.0 0.0 -1.013969106439e-03 
-1.909283182059e-04 -2.134343415579e-04 0.0 
-2.134343415579e-04 9.857203047885e-04 0.0 
0.0 0.0 -1.806728872115e-04 
-1.970147197368e-04 -2.059863142165e-04 0.0 
-2.059863142165e-04 1.002592449070e-03 0.0 
0.0 0.0 -1.835536028976e-04 
-3.515992897123e-04 -1.811957352846e-04 0.0 
-1.811957352846e-04 2.155411981566e-03 0.0 
0.0 0.0 -3.467375663575e-04 
-1.128856114321e-03 2.001566636704e-04 0.0 
2.001566636704e-04 7.510015093798e-03 0.0 
0.0 0.0 -1.127837695838e-03 
-9.816567297486e-04 1.933811921609e-04 0.0 
1.933811921609e-04 6.465198559992e-03 0.0 
0.0 0.0 -9.775003154318e-04 
-8.371572204409e-04 -2.148163729894e-04 0.0 
-2.148163729894e-04 5.710338305934e-03 0.0 
0.0 0.0 -8.513051444990e-04 
-8.730704368828e-04 1.896261582467e-04 0.0 
1.896261582467e-04 5.754508324044e-03 0.0 
0.0 0.0 -8.745614812816e-04 
-1.137329719499e-03 -1.941463340313e-04 0.0 
-1.941463340313e-04 7.669003078820e-03 0.0 
0.0 0.0 -1.139196670502e-03 
-7.981531024245e-04 1.892565346163e-04 0.0 
1.892565346163e-04 5.212239015909e-03 0.0 
0.0 0.0 -7.988714448434e-04 
-1.058279653052e-03 1.954206945734e-04 0.0 
1.954206945734e-04 7.042085544045e-03 0.0 
0.0 0.0 -1.061632825506e-03 
-3.556360797851e-04 -1.825172875801e-04 0.0 
-1.825172875801e-04 2.253382462632e-03 0.0 
0.0 0.0 -3.615122310665e-04 
-1.213390557451e-03 2.397950825144e-04 0.0 
2.397950825144e-04 8.136808344214e-03 0.0 
0.0 0.0 -1.211531131004e-03 
-7.660046426258e-04 -1.986537595937e-04 0.0 
-1.986537595937e-04 5.080766734255e-03 0.0 
0.0 0.0 -7.673127347790e-04 
-3.927767409547e-04 -1.941008242108e-04 0.0 
-1.941008242108e-04 2.469153154105e-03 0.0 
0.0 0.0 -3.889166325194e-04 
-7.314298842455e-04 -2.140562000032e-04 0.0 
-2.140562000032e-04 4.812028074598e-03 0.0 
0.0 0.0 -7.311132045151e-04 
-5.669903072896e-04 1.859979766966e-04 0.0 
1.859979766966e-04 3.622850524897e-03 0.0 
0.0 0.0 -5.716673668464e-04 
-4.441913073698e-04 -1.946929488681e-04 0.0 
-1.946929488681e-04 2.835535865590e-03 0.0 
0.0 0.0 -4.452767020142e-04 
-8.541353571324e-04 1.878201727379e-04 0.0 
1.878201727379e-04 5.598851307335e-03 0.0 
0.0 0.0 -8.564950983273e-04 
0.0 0.0 0.0 
0.0 0.0 0.0 
0.0 0.0 0.0 
0.0 0.0 0.0 
0.0 0.0 0.0 
0.0 0.0 0.0 
-9.633926432213e-04 -1.929125650732e-04 0.0 
-1.929125650732e-04 6.449382072422e-03 0.0 
0.0 0.0 -9.636005660098e-04 
-3.261615758852e-04 -1.754968158783e-04 0.0 
-1.754968158783e-04 2.064243752771e-03 0.0 
0.0 0.0 -3.336449385292e-04 
-9.716625480636e-04 -1.974982736352e-04 0.0 
-1.974982736352e-04 6.511810819199e-03 0.0 
0.0 0.0 -9.724388998541e-04 
-9.434553557208e-04 -1.947776052692e-04 0.0 
-1.947776052692e-04 6.314151919472e-03 0.0 
0.0 0.0 -9.438473481109e-04 
-6.149570530548e-04 1.958377041270e-04 0.0 
1.958377041270e-04 3.946002749694e-03 0.0 
0.0 0.0 -6.177757646845e-04 
-4.134741271649e-04 1.981876295031e-04 0.0 
1.981876295031e-04 2.543324249367e-03 0.0 
0.0 0.0 -4.162223005415e-04 
-1.136715502842e-03 -2.038924191314e-04 0.0 
-2.038924191314e-04 7.650435027918e-03 0.0 
0.0 0.0 -1.137719822027e-03 
-2.155883669570e-04 -8.829356196837e-05 0.0 
-8.829356196837e-05 9.573383583193e-04 0.0 
0.0 0.0 -2.047534254615e-04 
-6.021718484836e-04 1.735627083644e-04 0.0 
1.735627083644e-04 3.837011647565e-03 0.0 
0.0 0.0 -6.004815939294e-04 
-1.172134314024e-03 -1.664552663930e-04 0.0 
-1.664552663930e-04 7.890382462293e-03 0.0 
0.0 0.0 -1.175533656463e-03 
-2.822824235296e-04 1.888682444412e-04 0.0 
1.888682444412e-04 1.684200929602e-03 0.0 
0.0 0.0 -2.977570873278e-04 
-9.136045934539e-04 -1.921452035066e-04 0.0 
-1.921452035066e-04 6.056651557430e-03 0.0 
0.0 0.0 -9.088859120638e-04 
-8.340119380579e-04 -2.228113772719e-04 0.0 
-2.228113772719e-04 5.573887948833e-03 0.0 
0.0 0.0 -8.416286270284e-04 
-2.829330432203e-04 -1.923976084130e-04 0.0 
-1.923976084130e-04 1.716244531209e-03 0.0 
0.0 0.0 -2.842394630762e-04 
-1.159926400282e-03 -1.793893042658e-04 0.0 
-1.793893042658e-04 7.808824689671e-03 0.0 
0.0 0.0 -1.158722036769e-03 
-1.035589941137e-03 -1.985988582849e-04 0.0 
-1.985988582849e-04 6.933992631060e-03 0.0 
0.0 0.0 -1.034898561726e-03 
-3.359494272763e-04 1.786409644777e-04 0.0 
1.786409644777e-04 1.989232140030e-03 0.0 
0.0 0.0 -3.364655670308e-04 
-1.165152170532e-03 -1.849586778466e-04 0.0 
-1.849586778466e-04 7.849581652679e-03 0.0 
0.0 0.0 -1.166520446339e-03 
-1.171818434168e-03 1.701070722775e-04 0.0 
1.701070722775e-04 7.787163600185e-03 0.0 
0.0 0.0 -1.169001632583e-03 
-3.670484435220e-04 -2.062025335132e-04 0.0 
-2.062025335132e-04 2.310354927649e-03 0.0 
0.0 0.0 -3.701904734684e-04 
-4.878019895888e-04 -2.129991852320e-04 0.0 
-2.129991852320e-04 3.076179585064e-03 0.0 
0.0 0.0 -4.801335248058e-04 
-3.784853096696e-04 -1.951915827816e-04 0.0 
-1.951915827816e-04 2.373996755404e-03 0.0 
0.0 0.0 -3.791106726259e-04 
-1.023434568927e-03 -1.955357832441e-04 0.0 
-1.955357832441e-04 6.907952393425e-03 0.0 
0.0 0.0 -1.029923508343e-03 
-8.283537341300e-04 1.907553074044e-04 0.0 
1.907553074044e-04 5.413544228672e-03 0.0 
0.0 0.0 -8.276368238623e-04 
-1.175065292852e-03 1.838008001023e-04 0.0 
1.838008001023e-04 7.798269859187e-03 0.0 
0.0 0.0 -1.169529464977e-03 
-1.141233486497e-03 1.909358973763e-04 0.0 
1.909358973763e-04 7.594915182305e-03 0.0 
0.0 0.0 -1.140030709108e-03 
-9.986353517479e-04 -1.968060563576e-04 0.0 
-1.968060563576e-04 6.710344376514e-03 0.0 
0.0 0.0 -1.001167767022e-03 
-1.002641746751e-03 1.939099816930e-04 0.0 
1.939099816930e-04 6.639482721891e-03 0.0 
0.0 0.0 -1.004093472296e-03 
-3.170641866385e-04 1.974483890405e-04 0.0 
1.974483890405e-04 1.842860083610e-03 0.0 
0.0 0.0 -3.158693332420e-04 
-1.029368673375e-03 1.947386699308e-04 0.0 
1.947386699308e-04 6.837075470330e-03 0.0 
0.0 0.0 -1.032853941699e-03 
-1.038324079738e-03 1.969104416427e-04 0.0 
1.969104416427e-04 6.879456010501e-03 0.0 
0.0 0.0 -1.037144748481e-03 
-8.220289990508e-04 -1.901456335334e-04 0.0 
-1.901456335334e-04 5.481743507948e-03 0.0 
0.0 0.0 -8.248712778174e-04 
-9.784412971014e-04 -1.995967018582e-04 0.0 
-1.995967018582e-04 6.519224964638e-03 0.0 
0.0 0.0 -9.752741834902e-04 
-1.071043316413e-03 -2.014206266275e-04 0.0 
-2.014206266275e-04 7.187990111684e-03 0.0 
0.0 0.0 -1.071415751597e-03 
-7.449992410114e-04 1.900175048328e-04 0.0 
1.900175048328e-04 4.830596508428e-03 0.0 
0.0 0.0 -7.435371925968e-04 
-1.112301323396e-03 1.953318319138e-04 0.0 
1.953318319138e-04 7.388703494557e-03 0.0 
0.0 0.0 -1.110258267496e-03 
-7.048168666413e-04 2.103542029495e-04 0.0 
2.103542029495e-04 4.551180166485e-03 0.0 
0.0 0.0 -6.965171720951e-04 
-7.978310569570e-04 -1.996626955199e-04 0.0 
-1.996626955199e-04 5.282133349968e-03 0.0 
0.0 0.0 -7.960639764766e-04 
-5.335116196934e-04 2.239231297756e-04 0.0 
2.239231297756e-04 3.386453430155e-03 0.0 
0.0 0.0 -5.342291996904e-04 
-5.553576446558e-04 -1.816268034186e-04 0.0 
-1.816268034186e-04 3.628347878161e-03 0.0 
0.0 0.0 -5.581583723280e-04 
-1.010310088917e-03 1.967228699852e-04 0.0 
1.967228699852e-04 6.672709965049e-03 0.0 
0.0 0.0 -1.007339817349e-03 
-7.628577911211e-04 -1.911605880285e-04 0.0 
-1.911605880285e-04 5.057166832743e-03 0.0 
0.0 0.0 -7.637833264599e-04 
-4.056535220845e-04 -1.994601543415e-04 0.0 
-1.994601543415e-04 2.573810220736e-03 0.0 
0.0 0.0 -4.077494273363e-04 
-2.235505229119e-04 -1.665382784812e-04 0.0 
-1.665382784812e-04 1.264629605483e-03 0.0 
0.0 0.0 -2.185673950299e-04 
-1.005369566171e-03 -1.969282844887e-04 0.0 
-1.969282844887e-04 6.726819346583e-03 0.0 
0.0 0.0 -1.005115000480e-03 
-4.096373717980e-04 1.964452207256e-04 0.0 
1.964452207256e-04 2.501615904785e-03 0.0 
0.0 0.0 -4.107160730352e-04 
-1.196795855234e-03 2.010644044309e-04 0.0 
2.010644044309e-04 8.139442919111e-03 0.0 
0.0 0.0 -1.218716866995e-03 
-1.042807145316e-03 1.952121137200e-04 0.0 
1.952121137200e-04 6.924647329534e-03 0.0 
0.0 0.0 -1.043883448597e-03 
-1.067869276877e-03 1.919364052357e-04 0.0 
1.919364052357e-04 7.100655193935e-03 0.0 
0.0 0.0 -1.070373463590e-03 
-1.283006779812e-03 -2.454005743877e-05 0.0 
-2.454005743877e-05 8.441304095904e-03 0.0 
0.0 0.0 -1.284729618418e-03 
-6.611541786482e-04 -2.165377279584e-04 0.0 
-2.165377279584e-04 4.358180230514e-03 0.0 
0.0 0.0 -6.637377122259e-04 
-3.719232158052e-04 1.946095876176e-04 0.0 
1.946095876176e-04 2.237835984063e-03 0.0 
0.0 0.0 -3.731618544809e-04 
-2.509805120976e-04 2.101438879213e-04 0.0 
2.101438879213e-04 1.370179870162e-03 0.0 
0.0 0.0 -2.496210768721e-04 
-1.009272610852e-03 -1.976905948495e-04 0.0 
-1.976905948495e-04 6.773236228030e-03 0.0 
0.0 0.0 -1.009908742814e-03 
-9.502891484141e-04 2.008015227702e-04 0.0 
2.008015227702e-04 6.263291661127e-03 0.0 
0.0 0.0 -9.473489374553e-04 
-1.787867007396e-04 1.721284507091e-04 0.0 
1.721284507091e-04 9.234900215078e-04 0.0 
0.0 0.0 -1.858848441742e-04 
-5.306487836806e-04 -1.980238622702e-04 0.0 
-1.980238622702e-04 3.494279541485e-03 0.0 
0.0 0.0 -5.400474096907e-04 
-3.064883048416e-04 -1.749693241531e-04 0.0 
-1.749693241531e-04 2.001263288358e-03 0.0 
0.0 0.0 -3.246070344129e-04 
-9.392936976825e-04 -1.862704497827e-04 0.0 
-1.862704497827e-04 6.266809515345e-03 0.0 
0.0 0.0 -9.387834224271e-04 
-5.480159981423e-04 -2.100359931436e-04 0.0 
-2.100359931436e-04 3.693369469425e-03 0.0 
0.0 0.0 -5.687878759048e-04 
-9.467150260524e-04 1.924065934846e-04 0.0 
1.924065934846e-04 6.242240235616e-03 0.0 
0.0 0.0 -9.467935652645e-04 
-5.428455294621e-04 -2.085125102257e-04 0.0 
-2.085125102257e-04 3.415670535466e-03 0.0 
0.0 0.0 -5.337555413937e-04 
-1.117346964304e-03 -2.071110090059e-04 0.0 
-2.071110090059e-04 7.492505049919e-03 0.0 
0.0 0.0 -1.114809527198e-03 
-4.745048492879e-04 1.992195964989e-04 0.0 
1.992195964989e-04 2.965213732964e-03 0.0 
0.0 0.0 -4.768663991247e-04 
-1.019084130149e-03 -1.971234603786e-04 0.0 
-1.971234603786e-04 6.834832976306e-03 0.0 
0.0 0.0 -1.018590841688e-03 
-3.372917149944e-04 -1.912349410904e-04 0.0 
-1.912349410904e-04 2.104646860584e-03 0.0 
0.0 0.0 -3.376433569222e-04 
-9.810862783946e-04 -1.972875806497e-04 0.0 
-1.972875806497e-04 6.573374097127e-03 0.0 
0.0 0.0 -9.812220007866e-04 
-7.630262787413e-04 -1.649240710626e-04 0.0 
-1.649240710626e-04 5.040550269951e-03 0.0 
0.0 0.0 -7.604224332210e-04 
-1.040603755793e-03 1.933348900592e-04 0.0 
1.933348900592e-04 6.902261502476e-03 0.0 
0.0 0.0 -1.041555045145e-03 
-5.360677599798e-04 1.876482889455e-04 0.0 
1.876482889455e-04 3.380336319222e-03 0.0 
0.0 0.0 -5.350282927002e-04 
-3.256683131977e-04 2.104859329235e-04 0.0 
2.104859329235e-04 1.909139084910e-03 0.0 
0.0 0.0 -3.277310168338e-04 
-8.709310065231e-04 -1.930857458815e-04 0.0 
-1.930857458815e-04 5.840506173078e-03 0.0 
0.0 0.0 -8.787268422831e-04 
-9.478935846187e-04 -1.922017527602e-04 0.0 
-1.922017527602e-04 6.329496652854e-03 0.0 
0.0 0.0 -9.464297096767e-04 
-6.788789609642e-04 1.916120147782e-04 0.0 
1.916120147782e-04 4.369175427210e-03 0.0 
0.0 0.0 -6.776081642141e-04 
-9.468425740779e-04 -2.085300673065e-04 0.0 
-2.085300673065e-04 6.298374618209e-03 0.0 
0.0 0.0 -9.453210152248e-04 
-3.756080425156e-04 -1.934039556713e-04 0.0 
-1.934039556713e-04 2.352414382127e-03 0.0 
0.0 0.0 -3.758914132629e-04 
-9.664473934007e-04 1.935643871515e-04 0.0 
1.935643871515e-04 6.379409966944e-03 0.0 
0.0 0.0 -9.642804585795e-04 
-3.026576237448e-04 -1.928297610964e-04 0.0 
-1.928297610964e-04 1.798935007683e-03 0.0 
0.0 0.0 -2.947674122297e-04 
-1.153179427147e-03 -2.051549704311e-04 0.0 
-2.051549704311e-04 7.761192827607e-03 0.0 
0.0 0.0 -1.150402778756e-03 
-9.838604339423e-04 -1.907200549992e-04 0.0 
-1.907200549992e-04 6.585836583388e-03 0.0 
0.0 0.0 -9.834711240942e-04 
-1.039448222436e-03 -1.939988089318e-04 0.0 
-1.939988089318e-04 6.961176011231e-03 0.0 
0.0 0.0 -1.037051012011e-03 
-1.209610339595e-03 -2.064055054885e-04 0.0 
-2.064055054885e-04 8.130245976668e-03 0.0 
0.0 0.0 -1.204463612412e-03 
-8.289278457567e-04 -1.937873946282e-04 0.0 
-1.937873946282e-04 5.514638524943e-03 0.0 
0.0 0.0 -8.294769417472e-04 
-3.109821114722e-04 1.906924358187e-04 0.0 
1.906924358187e-04 1.784796369805e-03 0.0 
0.0 0.0 -3.081489256106e-04 
-9.237752216618e-04 -1.945449657842e-04 0.0 
-1.945449657842e-04 6.173770782065e-03 0.0 
0.0 0.0 -9.239488535170e-04 
-1.191042257491e-03 2.067698926501e-04 0.0 
2.067698926501e-04 7.951909524646e-03 0.0 
0.0 0.0 -1.189963100592e-03 
-4.775062598439e-04 -1.845893080325e-04 0.0 
-1.845893080325e-04 3.071724244623e-03 0.0 
0.0 0.0 -4.786098583285e-04 
-1.036708665275e-03 -1.995575756552e-04 0.0 
-1.995575756552e-04 6.972509629402e-03 0.0 
0.0 0.0 -1.038675661098e-03 
-1.042240091366e-03 -2.028158867280e-04 0.0 
-2.028158867280e-04 6.979443732142e-03 0.0 
0.0 0.0 -1.041631482750e-03 
-3.838009065761e-04 1.994121048010e-04 0.0 
1.994121048010e-04 2.344808306372e-03 0.0 
0.0 0.0 -3.880698300753e-04 
-9.524861751472e-04 -1.961707644156e-04 0.0 
-1.961707644156e-04 6.373861031903e-03 0.0 
0.0 0.0 -9.525765839929e-04 
-8.586433483391e-04 -1.931078618343e-04 0.0 
-1.931078618343e-04 5.748348032680e-03 0.0 
0.0 0.0 -8.663127257150e-04 
-4.249902311886e-04 -1.873478746315e-04 0.0 
-1.873478746315e-04 2.710801804411e-03 0.0 
0.0 0.0 -4.280652785065e-04 
-5.063403877371e-04 -1.957595432947e-04 0.0 
-1.957595432947e-04 3.295220362808e-03 0.0 
0.0 0.0 -5.113914792957e-04 
-8.011417777980e-04 -1.869294440003e-04 0.0 
-1.869294440003e-04 5.307962758149e-03 0.0 
0.0 0.0 -8.004334922225e-04 
-1.012906793309e-03 1.927821333669e-04 0.0 
1.927821333669e-04 6.702583928550e-03 0.0 
0.0 0.0 -1.012809740122e-03 
-6.237702296699e-04 -1.788620839172e-04 0.0 
-1.788620839172e-04 4.053757856152e-03 0.0 
0.0 0.0 -6.201901524263e-04 
-7.654836975307e-04 -1.844361479045e-04 0.0 
-1.844361479045e-04 5.061981616524e-03 0.0 
0.0 0.0 -7.649884091348e-04 
-1.002132587578e-03 1.966152402384e-04 0.0 
1.966152402384e-04 6.628701174112e-03 0.0 
0.0 0.0 -1.000670320419e-03 
-9.160037735611e-04 2.105070801011e-04 0.0 
2.105070801011e-04 6.003693375901e-03 0.0 
0.0 0.0 -9.110000341593e-04 
-8.984996443820e-04 1.923871522477e-04 0.0 
1.923871522477e-04 5.918711205323e-03 0.0 
0.0 0.0 -8.984003255416e-04 
-7.635747983665e-04 1.700234808703e-04 0.0 
1.700234808703e-04 4.971193028469e-03 0.0 
0.0 0.0 -7.627602282935e-04 
-1.130358647028e-03 -1.898334947356e-04 0.0 
-1.898334947356e-04 7.609563538777e-03 0.0 
0.0 0.0 -1.130631056169e-03 
-8.949695730274e-04 -1.944201834166e-04 0.0 
-1.944201834166e-04 5.973169188704e-03 0.0 
0.0 0.0 -8.953295484280e-04 
-8.818948229552e-04 -1.808766535772e-04 0.0 
-1.808766535772e-04 5.810855732820e-03 0.0 
0.0 0.0 -8.720525204519e-04 
-1.180322083838e-03 -2.544019696132e-04 0.0 
-2.544019696132e-04 8.044684295215e-03 0.0 
0.0 0.0 -1.193584144721e-03 
-1.074317409630e-03 -2.028987224978e-04 0.0 
-2.028987224978e-04 7.209609754448e-03 0.0 
0.0 0.0 -1.073433710836e-03 
-9.845138767756e-04 1.933324893146e-04 0.0 
1.933324893146e-04 6.502529959442e-03 0.0 
0.0 0.0 -9.841343610905e-04 
-1.074220521467e-03 1.937044770007e-04 0.0 
1.937044770007e-04 7.133220182241e-03 0.0 
0.0 0.0 -1.073677668998e-03 
-5.827062234071e-04 -1.941542500794e-04 0.0 
-1.941542500794e-04 3.817750575136e-03 0.0 
0.0 0.0 -5.862626530914e-04 
-5.447661780291e-04 -1.955268079663e-04 0.0 
-1.955268079663e-04 3.556218869368e-03 0.0 
0.0 0.0 -5.488365039436e-04 
-3.200298242822e-04 -2.008010355195e-04 0.0 
-2.008010355195e-04 1.912733596730e-03 0.0 
0.0 0.0 -3.130684191733e-04 
-9.610361432964e-04 -1.937939784480e-04 0.0 
-1.937939784480e-04 6.432925566233e-03 0.0 
0.0 0.0 -9.612598090090e-04 
-5.730915420071e-04 -1.993284364061e-04 0.0 
-1.993284364061e-04 3.756322275087e-03 0.0 
0.0 0.0 -5.775003002374e-04 
-9.676234080517e-04 -1.978430549766e-04 0.0 
-1.978430549766e-04 6.470709836540e-03 0.0 
0.0 0.0 -9.686535345556e-04 
-9.307775843259e-04 -2.009567450900e-04 0.0 
-2.009567450900e-04 6.218061512745e-03 0.0 
0.0 0.0 -9.322463471790e-04 
-7.694630900906e-04 -1.939675917432e-04 0.0 
-1.939675917432e-04 5.091771385308e-03 0.0 
0.0 0.0 -7.690363516573e-04 
-4.826168522865e-04 1.966675666533e-04 0.0 
1.966675666533e-04 3.022691758794e-03 0.0 
0.0 0.0 -4.860199686152e-04 
-5.166152208989e-04 1.895375761803e-04 0.0 
1.895375761803e-04 3.232772262981e-03 0.0 
0.0 0.0 -5.148587792422e-04 
-5.108840173734e-04 1.960376866878e-04 0.0 
1.960376866878e-04 3.223531247209e-03 0.0 
0.0 0.0 -5.143448975765e-04 
-5.481816317278e-04 1.962623655857e-04 0.0 
1.962623655857e-04 3.484569495256e-03 0.0 
0.0 0.0 -5.517963299543e-04 
-3.453277696027e-04 1.969675537481e-04 0.0 
1.969675537481e-04 2.040898908983e-03 0.0 
0.0 0.0 -3.446931235564e-04 
-1.101052151537e-03 -1.995058256316e-04 0.0 
-1.995058256316e-04 7.411556171306e-03 0.0 
0.0 0.0 -1.101849228969e-03 
-6.632570071378e-04 1.923578636572e-04 0.0 
1.923578636572e-04 4.270077985980e-03 0.0 
0.0 0.0 -6.642957827475e-04 
-1.108318305334e-03 -2.031784349512e-04 0.0 
-2.031784349512e-04 7.443886566257e-03 0.0 
0.0 0.0 -1.107989045227e-03 
-7.011090036509e-04 1.927949869006e-04 0.0 
1.927949869006e-04 4.532588404756e-03 0.0 
0.0 0.0 -7.013039408444e-04 
-9.265731680826e-04 1.957284230982e-04 0.0 
1.957284230982e-04 6.103426765876e-03 0.0 
0.0 0.0 -9.268471029391e-04 
-7.946469523286e-04 1.955747403876e-04 0.0 
1.955747403876e-04 5.185524606882e-03 0.0 
0.0 0.0 -7.951651613512e-04 
-7.572756681298e-04 -1.872685007043e-04 0.0 
-1.872685007043e-04 5.004494979539e-03 0.0 
0.0 0.0 -7.567435594049e-04 
-3.404029927324e-04 -1.917944120495e-04 0.0 
-1.917944120495e-04 2.114741006724e-03 0.0 
0.0 0.0 -3.417109511102e-04 
-1.168366620594e-03 1.821653519024e-04 0.0 
1.821653519024e-04 7.733894625141e-03 0.0 
0.0 0.0 -1.161691925552e-03 
-1.208283455631e-03 -2.138622136652e-04 0.0 
-2.138622136652e-04 8.118515122607e-03 0.0 
0.0 0.0 -1.198716319349e-03 
-9.647894746907e-04 1.840623527821e-04 0.0 
1.840623527821e-04 6.374025584992e-03 0.0 
0.0 0.0 -9.650368815299e-04 
-5.866113351029e-04 1.997061311368e-04 0.0 
1.997061311368e-04 3.745701321029e-03 0.0 
0.0 0.0 -5.892385666867e-04 
-8.606873822814e-04 1.952603744915e-04 0.0 
1.952603744915e-04 5.644314043148e-03 0.0 
0.0 0.0 -8.609535187098e-04 
-9.731621015164e-04 2.042240848124e-04 0.0 
2.042240848124e-04 6.416634786867e-03 0.0 
0.0 0.0 -9.708520278613e-04 
-6.114505218062e-04 -1.970451499323e-04 0.0 
-1.970451499323e-04 4.016656707276e-03 0.0 
0.0 0.0 -6.148791393494e-04 
-6.402153518211e-04 -1.799304007788e-04 0.0 
-1.799304007788e-04 4.195134185683e-03 0.0 
0.0 0.0 -6.394234923164e-04 
-4.756790629450e-04 -1.970276149026e-04 0.0 
-1.970276149026e-04 3.037216567460e-03 0.0 
0.0 0.0 -4.739097840058e-04 
-4.115649622256e-04 -1.881038262712e-04 0.0 
-1.881038262712e-04 2.615008917890e-03 0.0 
0.0 0.0 -4.132304097957e-04 
-6.210949620284e-04 -1.921853512956e-04 0.0 
-1.921853512956e-04 4.079647892730e-03 0.0 
0.0 0.0 -6.236739531379e-04 
-4.389003653302e-04 1.899270358255e-04 0.0 
1.899270358255e-04 2.702990318359e-03 0.0 
0.0 0.0 -4.393534411964e-04 
-3.957050609939e-04 -2.005038904366e-04 0.0 
-2.005038904366e-04 2.512628569390e-03 0.0 
0.0 0.0 -3.988888273503e-04 
-7.912937221892e-04 -1.931036918808e-04 0.0 
-1.931036918808e-04 5.255690323409e-03 0.0 
0.0 0.0 -7.922809795675e-04 
-9.555190717992e-04 1.953941988256e-04 0.0 
1.953941988256e-04 6.303135181036e-03 0.0 
0.0 0.0 -9.554846610150e-04 
-1.131935364223e-03 1.749369794293e-04 0.0 
1.749369794293e-04 7.516475401832e-03 0.0 
0.0 0.0 -1.128610778606e-03 
-7.677587316374e-05 5.132629422675e-05 0.0 
5.132629422675e-05 2.950272314679e-04 0.0 
0.0 0.0 -4.808883996072e-05 
-6.821273879062e-04 1.885153294960e-04 0.0 
1.885153294960e-04 4.394625922574e-03 0.0 
0.0 0.0 -6.818868151028e-04 
-6.732798359077e-04 1.896419879915e-04 0.0 
1.896419879915e-04 4.334337175818e-03 0.0 
0.0 0.0 -6.732431144785e-04 
-6.253359345237e-04 1.966841986601e-04 0.0 
1.966841986601e-04 4.007688208335e-03 0.0 
0.0 0.0 -6.268095852860e-04 
-9.342352764228e-04 1.992757766658e-04 0.0 
1.992757766658e-04 6.164738867849e-03 0.0 
0.0 0.0 -9.344164207832e-04 
-7.286499736730e-04 1.960851222301e-04 0.0 
1.960851222301e-04 4.727094990714e-03 0.0 
0.0 0.0 -7.295442444478e-04 
-5.028967805497e-04 2.032690915997e-04 0.0 
2.032690915997e-04 3.169465929495e-03 0.0 
0.0 0.0 -5.055050897130e-04 
-6.594115462037e-04 -1.877379034349e-04 0.0 
-1.877379034349e-04 4.343026444268e-03 0.0 
0.0 0.0 -6.611654675676e-04 
-1.086852433707e-03 1.972393602690e-04 0.0 
1.972393602690e-04 7.180508805687e-03 0.0 
0.0 0.0 -1.080452943103e-03 
-5.134906191046e-04 -1.975407525199e-04 0.0 
-1.975407525199e-04 3.241783811479e-03 0.0 
0.0 0.0 -5.025663706543e-04 
-2.068765507079e-04 1.780811299395e-04 0.0 
1.780811299395e-04 1.103158600140e-03 0.0 
0.0 0.0 -2.132551421006e-04 
-2.821446593327e-04 1.850947824845e-04 0.0 
1.850947824845e-04 1.595379339776e-03 0.0 
0.0 0.0 -2.784575373548e-04 
-4.423162808512e-04 1.966617048386e-04 0.0 
1.966617048386e-04 2.737975260110e-03 0.0 
0.0 0.0 -4.444240490352e-04 
-5.210766744925e-04 1.945752899052e-04 0.0 
1.945752899052e-04 3.285513932228e-03 0.0 
0.0 0.0 -5.239304829885e-04 
-7.103179674583e-04 1.937608556774e-04 0.0 
1.937608556774e-04 4.594082704701e-03 0.0 
0.0 0.0 -7.099160536912e-04 
-6.974191009827e-04 -1.859522295004e-04 0.0 
-1.859522295004e-04 4.604175499566e-03 0.0 
0.0 0.0 -6.984076724203e-04 
-3.111089899344e-04 -2.166751455614e-04 0.0 
-2.166751455614e-04 1.884393958953e-03 0.0 
0.0 0.0 -3.092759564244e-04 
-2.948433446490e-04 -2.106961415148e-04 0.0 
-2.106961415148e-04 1.651650768654e-03 0.0 
0.0 0.0 -2.765202162382e-04 
-9.029473964606e-04 -2.318038937515e-04 0.0 
-2.318038937515e-04 5.899437226641e-03 0.0 
0.0 0.0 -8.885078876198e-04 
-4.353328022797e-04 -2.074729337185e-04 0.0 
-2.074729337185e-04 2.774644133328e-03 0.0 
0.0 0.0 -4.363975895258e-04 
-1.066115861838e-03 1.923323182630e-04 0.0 
1.923323182630e-04 7.082058213666e-03 0.0 
0.0 0.0 -1.067401112627e-03 
-1.093430528172e-03 1.859529625014e-04 0.0 
1.859529625014e-04 7.265648937776e-03 0.0 
0.0 0.0 -1.093380752811e-03 
-9.055761456836e-04 -1.909848796465e-04 0.0 
-1.909848796465e-04 6.010442057108e-03 0.0 
0.0 0.0 -9.013836717722e-04 
-1.127393681638e-03 1.896887369254e-04 0.0 
1.896887369254e-04 7.503433377312e-03 0.0 
0.0 0.0 -1.126084317643e-03 
-1.155463123535e-03 1.744033292086e-04 0.0 
1.744033292086e-04 7.751673747269e-03 0.0 
0.0 0.0 -1.164310864388e-03 
-7.420687839785e-04 -1.936328330324e-04 0.0 
-1.936328330324e-04 4.896453187980e-03 0.0 
0.0 0.0 -7.408850503417e-04 
-1.028946225618e-03 1.859237494966e-04 0.0 
1.859237494966e-04 6.817745899264e-03 0.0 
0.0 0.0 -1.029042339204e-03 
-3.444765648254e-04 -1.889029113480e-04 0.0 
-1.889029113480e-04 2.157321474185e-03 0.0 
0.0 0.0 -3.474733517438e-04 
-6.874756161390e-04 -1.926159426764e-04 0.0 
-1.926159426764e-04 4.537720382930e-03 0.0 
0.0 0.0 -6.894573431515e-04 
-6.898061862194e-04 1.857511077275e-04 0.0 
1.857511077275e-04 4.440388507088e-03 0.0 
0.0 0.0 -6.879681371099e-04 
-4.019279772504e-04 1.778728342644e-04 0.0 
1.778728342644e-04 2.433102799940e-03 0.0 
0.0 0.0 -3.974404770784e-04 
-2.808996377464e-04 -1.954566177411e-04 0.0 
-1.954566177411e-04 1.711546538442e-03 0.0 
0.0 0.0 -2.813757158202e-04 
-5.769851111882e-04 1.945968129496e-04 0.0 
1.945968129496e-04 3.685550638925e-03 0.0 
0.0 0.0 -5.804062017457e-04 
-6.698465200997e-04 -1.848151346019e-04 0.0 
-1.848151346019e-04 4.407215399786e-03 0.0 
0.0 0.0 -6.703429011759e-04 
-7.069533997817e-04 -1.864555130785e-04 0.0 
-1.864555130785e-04 4.664424843705e-03 0.0 
0.0 0.0 -7.070647534220e-04 
-4.705619805672e-04 1.797584254587e-04 0.0 
1.797584254587e-04 2.905608131468e-03 0.0 
0.0 0.0 -4.680152132766e-04 
-7.664680765081e-04 1.944574444010e-04 0.0 
1.944574444010e-04 4.988010799345e-03 0.0 
0.0 0.0 -7.666177146937e-04 
-6.793079833930e-04 -1.842955306638e-04 0.0 
-1.842955306638e-04 4.467105658874e-03 0.0 
0.0 0.0 -6.790125122095e-04 
-7.192535587873e-04 1.886174479633e-04 0.0 
1.886174479633e-04 4.651675493154e-03 0.0 
0.0 0.0 -7.183521444552e-04 
-5.167516635029e-04 -1.889877885738e-04 0.0 
-1.889877885738e-04 3.361424050145e-03 0.0 
0.0 0.0 -5.205443542100e-04 
-9.916854113120e-04 -1.973034417571e-04 0.0 
-1.973034417571e-04 6.645632539252e-03 0.0 
0.0 0.0 -9.921115096417e-04 
-1.000725886826e-03 -2.001881518317e-04 0.0 
-2.001881518317e-04 6.682457666445e-03 0.0 
0.0 0.0 -9.984673180476e-04 
-6.910740697018e-04 1.869291771832e-04 0.0 
1.869291771832e-04 4.454330638785e-03 0.0 
0.0 0.0 -6.904379518788e-04 
-1.131075422052e-03 1.930354118908e-04 0.0 
1.930354118908e-04 7.540452433703e-03 0.0 
0.0 0.0 -1.133495712197e-03 
-3.818178823842e-04 -1.881304660734e-04 0.0 
-1.881304660734e-04 2.417279904182e-03 0.0 
0.0 0.0 -3.849690761666e-04 
-1.204919198583e-03 2.055908933390e-04 0.0 
2.055908933390e-04 8.107807864514e-03 0.0 
0.0 0.0 -1.208505026952e-03 
-7.381856154466e-04 1.951283212295e-04 0.0 
1.951283212295e-04 4.788651758778e-03 0.0 
0.0 0.0 -7.381355003807e-04 
-1.179893914325e-03 2.326195910896e-04 0.0 
2.326195910896e-04 8.057192319457e-03 0.0 
0.0 0.0 -1.203459118631e-03 
-9.174882615910e-04 -1.900236548234e-04 0.0 
-1.900236548234e-04 6.103327033778e-03 0.0 
0.0 0.0 -9.144069900286e-04 
-3.759838339719e-04 1.980975432100e-04 0.0 
1.980975432100e-04 2.280850535288e-03 0.0 
0.0 0.0 -3.788569260404e-04 
-9.329446838714e-04 -1.934956866743e-04 0.0 
-1.934956866743e-04 6.203824333692e-03 0.0 
0.0 0.0 -9.292863832265e-04 
-1.148316362968e-03 1.911406139228e-04 0.0 
1.911406139228e-04 7.656686617329e-03 0.0 
0.0 0.0 -1.148369591821e-03 
-7.751955477395e-04 1.935539670278e-04 0.0 
1.935539670278e-04 5.048248374235e-03 0.0 
0.0 0.0 -7.747733155264e-04 
-5.636121724150e-04 -1.856060269500e-04 0.0 
-1.856060269500e-04 3.652721039859e-03 0.0 
0.0 0.0 -5.621395992319e-04 
-9.592421645063e-04 -1.953589560094e-04 0.0 
-1.953589560094e-04 6.397497054977e-03 0.0 
0.0 0.0 -9.572423940436e-04 
-7.410203931500e-04 1.888947749690e-04 0.0 
1.888947749690e-04 4.805195564350e-03 0.0 
0.0 0.0 -7.402445244775e-04 
-3.049241937385e-04 2.026327067246e-04 0.0 
2.026327067246e-04 1.807680481835e-03 0.0 
0.0 0.0 -3.123079531677e-04 
-1.247303547099e-03 2.054291781832e-04 0.0 
2.054291781832e-04 8.428743189038e-03 0.0 
0.0 0.0 -1.259077240559e-03 
-2.832321787005e-04 2.033440710739e-04 0.0 
2.033440710739e-04 1.568411261078e-03 0.0 
0.0 0.0 -2.747754844540e-04 
-1.180725818141e-03 -1.959284539653e-04 0.0 
-1.959284539653e-04 8.086063063664e-03 0.0 
0.0 0.0 -1.194426649262e-03 
-1.181044415914e-03 1.885702677114e-04 0.0 
1.885702677114e-04 7.848025462359e-03 0.0 
0.0 0.0 -1.175981821618e-03 
-1.019774229423e-03 -1.968009652078e-04 0.0 
-1.968009652078e-04 6.844195853493e-03 0.0 
0.0 0.0 -1.020516803968e-03 
-9.063963003822e-04 2.216702355021e-04 0.0 
2.216702355021e-04 5.948302852210e-03 0.0 
0.0 0.0 -9.041796124736e-04 
-1.096159842107e-03 -2.041353887512e-04 0.0 
-2.041353887512e-04 7.354511593932e-03 0.0 
0.0 0.0 -1.094228678348e-03 
-7.158215028595e-04 -1.849822212151e-04 0.0 
-1.849822212151e-04 4.721957550486e-03 0.0 
0.0 0.0 -7.154996274706e-04 
-8.342688439829e-04 -1.960354733344e-04 0.0 
-1.960354733344e-04 5.542507863884e-03 0.0 
0.0 0.0 -8.337527902170e-04 
-1.179248762261e-03 1.915113563363e-04 0.0 
1.915113563363e-04 7.953436829066e-03 0.0 
0.0 0.0 -1.191782302182e-03 
-1.022355738208e-03 1.947903411638e-04 0.0 
1.947903411638e-04 6.764095762216e-03 0.0 
0.0 0.0 -1.021464098896e-03 
-1.029803380413e-03 -1.995345647328e-04 0.0 
-1.995345647328e-04 6.892395198165e-03 0.0 
0.0 0.0 -1.028225029406e-03 
-9.800703698298e-04 2.033610077795e-04 0.0 
2.033610077795e-04 6.469215121367e-03 0.0 
0.0 0.0 -9.780777104595e-04 
-3.460311380533e-04 1.949105016325e-04 0.0 
1.949105016325e-04 2.083431817991e-03 0.0 
0.0 0.0 -3.505936111242e-04 
-1.056998258985e-03 -2.024071474235e-04 0.0 
-2.024071474235e-04 7.098571223248e-03 0.0 
0.0 0.0 -1.057861461704e-03 
-1.245215734681e-03 -2.948889405553e-06 0.0 
-2.948889405553e-06 8.708064260567e-03 0.0 
0.0 0.0 -1.268085107495e-03 
-1.199968332554e-03 2.184447548860e-04 0.0 
2.184447548860e-04 8.021680446852e-03 0.0 
0.0 0.0 -1.202195648613e-03 
-6.908555778157e-04 1.952647486752e-04 0.0 
1.952647486752e-04 4.467406980685e-03 0.0 
0.0 0.0 -6.923681691211e-04 
-8.989504497264e-04 -2.030487714899e-04 0.0 
-2.030487714899e-04 5.998411166372e-03 0.0 
0.0 0.0 -9.020111041354e-04 
-8.706850616849e-04 2.163039302349e-04 0.0 
2.163039302349e-04 5.704755713039e-03 0.0 
0.0 0.0 -8.677534307045e-04 
-7.350398663415e-04 -1.921852650881e-04 0.0 
-1.921852650881e-04 4.858429528850e-03 0.0 
0.0 0.0 -7.352749011056e-04 
-9.925381973484e-04 1.968648573770e-04 0.0 
1.968648573770e-04 6.563559215451e-03 0.0 
0.0 0.0 -9.927925938929e-04 
-1.029028532084e-03 1.960911717032e-04 0.0 
1.960911717032e-04 6.822296250893e-03 0.0 
0.0 0.0 -1.030113165296e-03 
-2.401332151859e-04 -2.098625103455e-04 0.0 
-2.098625103455e-04 1.444865681486e-03 0.0 
0.0 0.0 -2.466400652194e-04 
-4.534206567438e-04 1.915983849915e-04 0.0 
1.915983849915e-04 2.786638049384e-03 0.0 
0.0 0.0 -4.508272210452e-04 
-7.276651503282e-04 1.887396446790e-04 0.0 
1.887396446790e-04 4.711996878728e-03 0.0 
0.0 0.0 -7.269793770173e-04 
-6.885109501689e-04 -1.881460235649e-04 0.0 
-1.881460235649e-04 4.526125077483e-03 0.0 
0.0 0.0 -6.875569550716e-04 
-7.327380615621e-04 1.893031023786e-04 0.0 
1.893031023786e-04 4.746976141071e-03 0.0 
0.0 0.0 -7.320784846625e-04 
-1.207414471784e-03 -1.921627464004e-04 0.0 
-1.921627464004e-04 8.251115158096e-03 0.0 
0.0 0.0 -1.225426844749e-03 
-1.165911235799e-03 1.728266951446e-04 0.0 
1.728266951446e-04 7.751919212480e-03 0.0 
0.0 0.0 -1.162686153705e-03 
-1.174125183305e-03 -1.966474411142e-04 0.0 
-1.966474411142e-04 7.895985343999e-03 0.0 
0.0 0.0 -1.173632101657e-03 
-6.588438363322e-04 -1.812037125043e-04 0.0 
-1.812037125043e-04 4.301364332342e-03 0.0 
0.0 0.0 -6.556197767577e-04 
-1.082747471146e-03 1.891035132956e-04 0.0 
1.891035132956e-04 7.201407994731e-03 0.0 
0.0 0.0 -1.082713561900e-03 
-9.901836726999e-04 -1.945402384493e-04 0.0 
-1.945402384493e-04 6.633588115461e-03 0.0 
0.0 0.0 -9.899156953211e-04 
-1.203900706285e-03 2.001643692101e-04 0.0 
2.001643692101e-04 8.020307122063e-03 0.0 
0.0 0.0 -1.198415070424e-03 
-1.018917370980e-03 -2.029360126540e-04 0.0 
-2.029360126540e-04 6.841232066874e-03 0.0 
0.0 0.0 -1.021631336281e-03 
-7.252862927281e-04 -1.917571483022e-04 0.0 
-1.917571483022e-04 4.797885526737e-03 0.0 
0.0 0.0 -7.266350563285e-04 
-6.996186826149e-04 1.874149340260e-04 0.0 
1.874149340260e-04 4.515630015583e-03 0.0 
0.0 0.0 -6.989458521267e-04 
-1.062701287971e-03 1.919893444833e-04 0.0 
1.919893444833e-04 7.044103527011e-03 0.0 
0.0 0.0 -1.060111126929e-03 
-1.159236038185e-03 -2.100410646672e-04 0.0 
-2.100410646672e-04 7.815649065545e-03 0.0 
0.0 0.0 -1.160283895044e-03 
-1.068044840095e-03 1.975027097548e-04 0.0 
1.975027097548e-04 7.089380260529e-03 0.0 
0.0 0.0 -1.066842251349e-03 
-1.033322736071e-03 1.952546159751e-04 0.0 
1.952546159751e-04 6.838585495745e-03 0.0 
0.0 0.0 -1.030428295937e-03 
-1.127957771235e-03 2.034159333983e-04 0.0 
2.034159333983e-04 7.486625778373e-03 0.0 
0.0 0.0 -1.124756152480e-03 
-1.155677614868e-03 -1.983866149799e-04 0.0 
-1.983866149799e-04 7.868967508162e-03 0.0 
0.0 0.0 -1.167530213646e-03 
-1.094507555949e-03 1.976519323401e-04 0.0 
1.976519323401e-04 7.281086392671e-03 0.0 
0.0 0.0 -1.096139997395e-03 
-8.893531318376e-04 1.947803294654e-04 0.0 
1.947803294654e-04 5.843023406601e-03 0.0 
0.0 0.0 -8.895595506239e-04 
-6.419372915529e-04 1.659854799663e-04 0.0 
1.659854799663e-04 4.112940198776e-03 0.0 
0.0 0.0 -6.419897747600e-04 
-1.057958817333e-03 -1.915382936823e-04 0.0 
-1.915382936823e-04 7.093836536897e-03 0.0 
0.0 0.0 -1.057160997780e-03 
-1.010397126926e-03 1.924777478121e-04 0.0 
1.924777478121e-04 6.699973834187e-03 0.0 
0.0 0.0 -1.010795753303e-03 
-4.010552004861e-04 1.841654314205e-04 0.0 
1.841654314205e-04 2.442507368575e-03 0.0 
0.0 0.0 -4.018221946533e-04 
-7.246063133898e-04 -1.880612964647e-04 0.0 
-1.880612964647e-04 4.782342909510e-03 0.0 
0.0 0.0 -7.241222962603e-04 
-8.198364604857e-04 1.863931235936e-04 0.0 
1.863931235936e-04 5.353653336719e-03 0.0 
0.0 0.0 -8.193994707270e-04 
-8.991995514688e-04 -1.967035222148e-04 0.0 
-1.967035222148e-04 5.995025760983e-03 0.0 
0.0 0.0 -8.986564694586e-04 
-4.050243053020e-04 1.994613475966e-04 0.0 
1.994613475966e-04 2.469637685563e-03 0.0 
0.0 0.0 -4.057256964758e-04 
-6.967689891126e-04 -1.888281546421e-04 0.0 
-1.888281546421e-04 4.585730407348e-03 0.0 
0.0 0.0 -6.962026719631e-04 
-9.643194553962e-04 -1.980704148002e-04 0.0 
-1.980704148002e-04 6.448875351116e-03 0.0 
0.0 0.0 -9.636952012155e-04 
-7.333735645702e-04 1.825225121088e-04 0.0 
1.825225121088e-04 4.734280668460e-03 0.0 
0.0 0.0 -7.294090860402e-04 
-7.570403720069e-04 1.947967854262e-04 0.0 
1.947967854262e-04 4.925685443404e-03 0.0 
0.0 0.0 -7.579899565570e-04 
-9.487659951765e-04 -2.043170517301e-04 0.0 
-2.043170517301e-04 6.373556266418e-03 0.0 
0.0 0.0 -9.556638187253e-04 
-7.610430462996e-04 1.745184878599e-04 0.0 
1.745184878599e-04 5.044670069107e-03 0.0 
0.0 0.0 -7.638029664831e-04 
-1.838096952562e-04 2.082695791091e-04 0.0 
2.082695791091e-04 7.724611367138e-04 0.0 
0.0 0.0 -1.578647551136e-04 
-8.576241388509e-04 -1.943288446579e-04 0.0 
-1.943288446579e-04 5.714280224429e-03 0.0 
0.0 0.0 -8.580817703278e-04 
-1.051194806149e-03 1.905396044606e-04 0.0 
1.905396044606e-04 6.972468322912e-03 0.0 
0.0 0.0 -1.051835763028e-03 
-1.194223105728e-03 2.022847639454e-04 0.0 
2.022847639454e-04 8.008401190618e-03 0.0 
0.0 0.0 -1.196871286280e-03 
-8.007996408172e-04 1.886044981360e-04 0.0 
1.886044981360e-04 5.220729595959e-03 0.0 
0.0 0.0 -7.999758813884e-04 
-8.231738978703e-04 1.954670675703e-04 0.0 
1.954670675703e-04 5.384433434041e-03 0.0 
0.0 0.0 -8.237210115815e-04 
-9.659298580920e-04 -1.974560001278e-04 0.0 
-1.974560001278e-04 6.432078237772e-03 0.0 
0.0 0.0 -9.620958722924e-04 
-2.561485936918e-04 2.198683939719e-04 0.0 
2.198683939719e-04 1.251380499118e-03 0.0 
0.0 0.0 -2.247161217206e-04 
-1.023132414130e-03 1.887327440293e-04 0.0 
1.887327440293e-04 6.775332410064e-03 0.0 
0.0 0.0 -1.023361637732e-03 
-8.622181034216e-04 -1.951138773542e-04 0.0 
-1.951138773542e-04 5.740266887697e-03 0.0 
0.0 0.0 -8.619475031456e-04 
-7.647880329061e-04 -1.862411199868e-04 0.0 
-1.862411199868e-04 5.038541863179e-03 0.0 
0.0 0.0 -7.615729788896e-04 
-1.027082371763e-03 -1.922014268245e-04 0.0 
-1.922014268245e-04 6.892038875610e-03 0.0 
0.0 0.0 -1.027225276160e-03 
-3.935518598362e-04 -1.714817472149e-04 0.0 
-1.714817472149e-04 2.494688902106e-03 0.0 
0.0 0.0 -3.946419382404e-04 
-1.063411595146e-03 -1.940895073896e-04 0.0 
-1.940895073896e-04 7.151260433919e-03 0.0 
0.0 0.0 -1.064556537081e-03 
-1.170769687049e-03 1.998990496914e-04 0.0 
1.998990496914e-04 7.807167189230e-03 0.0 
0.0 0.0 -1.170878753521e-03 
-9.957874322238e-04 1.860819940759e-04 0.0 
1.860819940759e-04 6.577964668805e-03 0.0 
0.0 0.0 -9.948919501216e-04 
-1.066802879167e-03 -1.994715727017e-04 0.0 
-1.994715727017e-04 7.144842154603e-03 0.0 
0.0 0.0 -1.064574987933e-03 
-1.080893362265e-03 -2.009448288779e-04 0.0 
-2.009448288779e-04 7.278345089593e-03 0.0 
0.0 0.0 -1.082686220397e-03 
-1.164339334361e-03 -2.029535809835e-04 0.0 
-2.029535809835e-04 7.872490943299e-03 0.0 
0.0 0.0 -1.168035910845e-03 
-3.299141803929e-04 2.316983388685e-04 0.0 
2.316983388685e-04 1.731538717207e-03 0.0 
0.0 0.0 -2.917408095836e-04 
-9.904023149971e-04 -1.959122471391e-04 0.0 
-1.959122471391e-04 6.637118298013e-03 0.0 
0.0 0.0 -9.919185416031e-04 
-1.168730602385e-03 -1.909886301281e-04 0.0 
-1.909886301281e-04 7.900162167174e-03 0.0 
0.0 0.0 -1.173906618061e-03 
-1.099721820410e-03 1.948899321208e-04 0.0 
1.948899321208e-04 7.299287446510e-03 0.0 
0.0 0.0 -1.096489272820e-03 
-9.304220125415e-04 1.873101926856e-04 0.0 
1.873101926856e-04 6.124362452359e-03 0.0 
0.0 0.0 -9.297700869391e-04 
-7.330744366569e-04 -1.923064886364e-04 0.0 
-1.923064886364e-04 4.838398720579e-03 0.0 
0.0 0.0 -7.325247082200e-04 
-8.060696050279e-04 1.870863771178e-04 0.0 
1.870863771178e-04 5.268149186535e-03 0.0 
0.0 0.0 -8.069452076110e-04 
-2.418248245405e-04 2.109020271233e-04 0.0 
2.109020271233e-04 1.359709000534e-03 0.0 
0.0 0.0 -2.482170483719e-04 
-1.134273257583e-03 1.988705509170e-04 0.0 
1.988705509170e-04 7.550007886780e-03 0.0 
0.0 0.0 -1.132911322290e-03 
-4.274524748729e-04 1.964334948294e-04 0.0 
1.964334948294e-04 2.645397720372e-03 0.0 
0.0 0.0 -4.309687334850e-04 
-3.881418594362e-04 1.833155679551e-04 0.0 
1.833155679551e-04 2.160044348329e-03 0.0 
0.0 0.0 -3.582286249851e-04 
-1.052002855886e-03 -1.883464211934e-04 0.0 
-1.883464211934e-04 7.074906707182e-03 0.0 
0.0 0.0 -1.054483161448e-03 
-1.207081545900e-03 1.915242773209e-04 0.0 
1.915242773209e-04 8.072287243083e-03 0.0 
0.0 0.0 -1.206783194404e-03 
-3.547804392101e-04 -1.807868565668e-04 0.0 
-1.807868565668e-04 2.226917608772e-03 0.0 
0.0 0.0 -3.573182248098e-04 
-8.366419951608e-04 -1.885488255625e-04 0.0 
-1.885488255625e-04 5.554595282055e-03 0.0 
0.0 0.0 -8.358581584049e-04 
-1.023802301552e-03 1.940941463559e-04 0.0 
1.940941463559e-04 6.787907294573e-03 0.0 
0.0 0.0 -1.023814440555e-03 
-7.829083596588e-04 -1.954293300844e-04 0.0 
-1.954293300844e-04 5.194152372337e-03 0.0 
0.0 0.0 -7.840072721007e-04 
-4.010673323253e-04 -1.915498976051e-04 0.0 
-1.915498976051e-04 2.542328077149e-03 0.0 
0.0 0.0 -4.027365510179e-04 
-5.321744599270e-04 1.883621527590e-04 0.0 
1.883621527590e-04 3.333505553591e-03 0.0 
0.0 0.0 -5.292697486782e-04 
-2.639771075776e-04 1.646102614642e-04 0.0 
1.646102614642e-04 1.613590548762e-03 0.0 
0.0 0.0 -2.862163191752e-04 
-3.553659692625e-04 1.943928252887e-04 0.0 
1.943928252887e-04 2.154693693141e-03 0.0 
0.0 0.0 -3.608158092454e-04 
-3.249476260035e-04 1.935471720910e-04 0.0 
1.935471720910e-04 1.899890607766e-03 0.0 
0.0 0.0 -3.238926756799e-04 
-8.653379371192e-04 1.875602502825e-04 0.0 
1.875602502825e-04 5.671952828596e-03 0.0 
0.0 0.0 -8.647910268431e-04 
-1.297827382279e-03 4.785112367276e-06 0.0 
4.785112367276e-06 9.109555355960e-03 0.0 
0.0 0.0 -1.324146187826e-03 
-4.467143920627e-04 1.726574000164e-04 0.0 
1.726574000164e-04 2.617142877359e-03 0.0 
0.0 0.0 -4.244337567297e-04 
-1.156016819955e-03 1.914756519666e-04 0.0 
1.914756519666e-04 7.686772050836e-03 0.0 
0.0 0.0 -1.153422328581e-03 
-6.441918423609e-04 1.888512827499e-04 0.0 
1.888512827499e-04 4.126863023303e-03 0.0 
0.0 0.0 -6.430507458085e-04 
-9.827241532880e-04 -2.074075714334e-04 0.0 
-2.074075714334e-04 6.589898560790e-03 0.0 
0.0 0.0 -9.856407671940e-04 
-3.167090590366e-04 1.983492302007e-04 0.0 
1.983492302007e-04 1.826080605665e-03 0.0 
0.0 0.0 -3.129386394028e-04 
-1.211080746195e-03 -1.918872231890e-04 0.0 
-1.918872231890e-04 8.120902711811e-03 0.0 
0.0 0.0 -1.206759618350e-03 
-3.103668027408e-04 -1.740204278261e-04 0.0 
-1.740204278261e-04 1.967988296131e-03 0.0 
0.0 0.0 -3.202688159031e-04 
-4.904887743195e-04 1.972396724306e-04 0.0 
1.972396724306e-04 3.115116694861e-03 0.0 
0.0 0.0 -4.995972236199e-04 
-1.033982221523e-03 1.864504257492e-04 0.0 
1.864504257492e-04 6.836114975340e-03 0.0 
0.0 0.0 -1.031547093314e-03 
-7.437947252400e-04 -1.892750744378e-04 0.0 
-1.892750744378e-04 4.914077369227e-03 0.0 
0.0 0.0 -7.436172176343e-04 
-1.132860593058e-03 -1.933960126786e-04 0.0 
-1.933960126786e-04 7.665930668868e-03 0.0 
0.0 0.0 -1.139062866688e-03 
-5.749455652610e-04 -1.941924528230e-04 0.0 
-1.941924528230e-04 3.751246786669e-03 0.0 
0.0 0.0 -5.762899171568e-04 
-1.046111348023e-03 -1.920749274325e-04 0.0 
-1.920749274325e-04 7.006833931181e-03 0.0 
0.0 0.0 -1.044446328659e-03 
-1.179461128015e-03 1.956649310083e-04 0.0 
1.956649310083e-04 7.993560630903e-03 0.0 
0.0 0.0 -1.198892520503e-03 
-9.969097330870e-04 1.983464851524e-04 0.0 
1.983464851524e-04 6.585106213615e-03 0.0 
0.0 0.0 -9.940794652285e-04 
-1.204741342101e-03 -1.841288982354e-04 0.0 
-1.841288982354e-04 8.066681748081e-03 0.0 
0.0 0.0 -1.194784139986e-03 
-1.085983696521e-03 -2.024519851537e-04 0.0 
-2.024519851537e-04 7.301290877674e-03 0.0 
0.0 0.0 -1.087318097122e-03 
-1.116801267184e-03 -2.016255265415e-04 0.0 
-2.016255265415e-04 7.509256724676e-03 0.0 
0.0 0.0 -1.116677092124e-03 
-3.616370043148e-04 1.787208051054e-04 0.0 
1.787208051054e-04 2.150891016686e-03 0.0 
0.0 0.0 -3.599422446610e-04 
-1.117518330453e-03 1.826877579253e-04 0.0 
1.826877579253e-04 7.419146366892e-03 0.0 
0.0 0.0 -1.115908039155e-03 
-1.052373239860e-03 1.884691524878e-04 0.0 
1.884691524878e-04 6.996291933739e-03 0.0 
0.0 0.0 -1.053364550114e-03 
-7.811189844041e-04 1.901992250615e-04 0.0 
1.901992250615e-04 5.082233377235e-03 0.0 
0.0 0.0 -7.792489223127e-04 
-5.208782508076e-04 1.844281060277e-04 0.0 
1.844281060277e-04 3.081353701983e-03 0.0 
0.0 0.0 -4.908673385051e-04 
-1.207263385308e-03 -1.938793257757e-04 0.0 
-1.938793257757e-04 8.301996435605e-03 0.0 
0.0 0.0 -1.232292820449e-03 
-4.172393042970e-04 1.982283144972e-04 0.0 
1.982283144972e-04 2.530985310794e-03 0.0 
0.0 0.0 -4.142712813041e-04 
-4.585162122278e-04 -2.188978008166e-04 0.0 
-2.188978008166e-04 2.969334744373e-03 0.0 
0.0 0.0 -4.655197245388e-04 
-1.104373486365e-03 2.012226859916e-04 0.0 
2.012226859916e-04 7.350396136819e-03 0.0 
0.0 0.0 -1.105063927110e-03 
-2.968425273524e-04 -1.642057746455e-04 0.0 
-1.642057746455e-04 1.792416919804e-03 0.0 
0.0 0.0 -2.939799329518e-04 
-7.924236500379e-04 -1.848261227191e-04 0.0 
-1.848261227191e-04 5.252920665959e-03 0.0 
0.0 0.0 -7.924235178053e-04 
-1.061921988885e-03 1.812104659022e-04 0.0 
1.812104659022e-04 7.031393709581e-03 0.0 
0.0 0.0 -1.059843925468e-03 
-1.181481514864e-03 -1.809401034034e-04 0.0 
-1.809401034034e-04 7.945597505832e-03 0.0 
0.0 0.0 -1.181155146799e-03 
-1.216519596998e-03 -1.765367581353e-04 0.0 
-1.765367581353e-04 8.170458135963e-03 0.0 
0.0 0.0 -1.210943746944e-03 
-1.030728582983e-03 -1.988607177778e-04 0.0 
-1.988607177778e-04 6.902267769970e-03 0.0 
0.0 0.0 -1.028825005900e-03 
-1.124714132978e-03 -2.064810197621e-04 0.0 
-2.064810197621e-04 7.559899990810e-03 0.0 
0.0 0.0 -1.123737208958e-03 
-6.812903531147e-04 1.901379600772e-04 0.0 
1.901379600772e-04 4.380740483724e-03 0.0 
0.0 0.0 -6.793824814286e-04 
-1.062351922354e-03 -1.985736001597e-04 0.0 
-1.985736001597e-04 7.130265690032e-03 0.0 
0.0 0.0 -1.062452857821e-03 
-5.858181118698e-04 1.875072715160e-04 0.0 
1.875072715160e-04 3.545318163494e-03 0.0 
0.0 0.0 -5.576509564599e-04 
-1.191462796189e-03 1.791343230628e-04 0.0 
1.791343230628e-04 7.859967464318e-03 0.0 
0.0 0.0 -1.181751882508e-03 
-6.536967362184e-04 1.840019481607e-04 0.0 
1.840019481607e-04 4.012532136349e-03 0.0 
0.0 0.0 -6.243763318321e-04 
-6.397657085006e-04 1.469527108765e-04 0.0 
1.469527108765e-04 4.231461376740e-03 0.0 
0.0 0.0 -6.577503189808e-04 
-7.727292442473e-04 1.893751122867e-04 0.0 
1.893751122867e-04 5.025497285819e-03 0.0 
0.0 0.0 -7.717627972493e-04 
-7.120157842107e-04 2.033227012876e-04 0.0 
2.033227012876e-04 4.491531755345e-03 0.0 
0.0 0.0 -6.911701761307e-04 
-8.847543506959e-04 -1.860726363621e-04 0.0 
-1.860726363621e-04 5.886975687793e-03 0.0 
0.0 0.0 -8.833033330409e-04 
-7.223081526863e-04 -1.890141103709e-04 0.0 
-1.890141103709e-04 4.756005682412e-03 0.0 
0.0 0.0 -7.209687761305e-04 
-7.611226546141e-04 -1.925027368284e-04 0.0 
-1.925027368284e-04 5.033487039423e-03 0.0 
0.0 0.0 -7.606211034647e-04 
-3.677272213406e-04 1.965668598143e-04 0.0 
1.965668598143e-04 2.206714062611e-03 0.0 
0.0 0.0 -3.685806404478e-04 
-7.360898597851e-04 1.893736919884e-04 0.0 
1.893736919884e-04 4.769891666687e-03 0.0 
0.0 0.0 -7.353490689725e-04 
-1.164475384932e-03 1.920424604491e-04 0.0 
1.920424604491e-04 7.760458237861e-03 0.0 
0.0 0.0 -1.162517914204e-03 
-1.189135404011e-03 2.424308074022e-04 0.0 
2.424308074022e-04 8.008663372928e-03 0.0 
0.0 0.0 -1.195263893373e-03 
-1.051433761328e-03 1.900846295012e-04 0.0 
1.900846295012e-04 6.962500509983e-03 0.0 
0.0 0.0 -1.050100468764e-03 
-1.163815806160e-03 1.939359249112e-04 0.0 
1.939359249112e-04 7.801481486737e-03 0.0 
0.0 0.0 -1.170266998156e-03 
-7.471505649134e-04 1.914654167736e-04 0.0 
1.914654167736e-04 4.846432176661e-03 0.0 
0.0 0.0 -7.463264885205e-04 
-1.116874559966e-03 1.925152765080e-04 0.0 
1.925152765080e-04 7.452691656896e-03 0.0 
0.0 0.0 -1.119019617531e-03 
-7.641727686352e-04 1.895140519536e-04 0.0 
1.895140519536e-04 4.965709915575e-03 0.0 
0.0 0.0 -7.634232545038e-04 
-1.140149646673e-03 1.894710294717e-04 0.0 
1.894710294717e-04 7.619303377370e-03 0.0 
0.0 0.0 -1.144395376583e-03 
-1.089871366962e-03 1.866180545902e-04 0.0 
1.866180545902e-04 7.246015693997e-03 0.0 
0.0 0.0 -1.089631904438e-03 
-1.081578605974e-03 -1.978658757614e-04 0.0 
-1.978658757614e-04 7.257137764756e-03 0.0 
0.0 0.0 -1.080451501872e-03 
-9.579838523443e-04 1.886955211530e-04 0.0 
1.886955211530e-04 6.320335730528e-03 0.0 
0.0 0.0 -9.580909834143e-04 
-7.089543903964e-04 1.893728274013e-04 0.0 
1.893728274013e-04 4.575360328887e-03 0.0 
0.0 0.0 -7.073300717972e-04 
-1.127664739308e-03 -1.829222399519e-04 0.0 
-1.829222399519e-04 7.564515174457e-03 0.0 
0.0 0.0 -1.126038590206e-03 
-9.212765999104e-04 1.860043167073e-04 0.0 
1.860043167073e-04 6.042010505937e-03 0.0 
0.0 0.0 -9.169694165663e-04 
-3.707997860418e-04 -2.047832537350e-04 0.0 
-2.047832537350e-04 2.273008460466e-03 0.0 
0.0 0.0 -3.661348613279e-04 
-4.119491099640e-04 -1.837644939853e-04 0.0 
-1.837644939853e-04 2.602040481245e-03 0.0 
0.0 0.0 -4.113794265144e-04 
-6.058388203502e-04 1.800194521297e-04 0.0 
1.800194521297e-04 3.855006073365e-03 0.0 
0.0 0.0 -6.061407060701e-04 
-8.399206414718e-04 1.851255513351e-04 0.0 
1.851255513351e-04 5.491811110990e-03 0.0 
0.0 0.0 -8.384786063130e-04 
-1.169227413895e-03 1.987098364224e-04 0.0 
1.987098364224e-04 7.826180536376e-03 0.0 
0.0 0.0 -1.173545322487e-03 
-1.051413170775e-03 -2.036953792706e-04 0.0 
-2.036953792706e-04 7.051256599190e-03 0.0 
0.0 0.0 -1.051102540299e-03 
-7.053171708153e-04 -1.917417752613e-04 0.0 
-1.917417752613e-04 4.643848416984e-03 0.0 
0.0 0.0 -7.045205360201e-04 
-9.343548124899e-04 -1.929012807103e-04 0.0 
-1.929012807103e-04 6.238086933522e-03 0.0 
0.0 0.0 -9.344940742331e-04 
-1.088202517562e-03 1.963493920645e-04 0.0 
1.963493920645e-04 7.240451625201e-03 0.0 
0.0 0.0 -1.088599101970e-03 
-1.132213948578e-03 -2.019794901778e-04 0.0 
-2.019794901778e-04 7.607209750872e-03 0.0 
0.0 0.0 -1.130578931274e-03 
-1.175177652279e-03 -1.432114671164e-04 0.0 
-1.432114671164e-04 7.818239968608e-03 0.0 
0.0 0.0 -1.160781586281e-03 
-9.493017134459e-04 1.856369855212e-04 0.0 
1.856369855212e-04 6.294032018234e-03 0.0 
0.0 0.0 -9.517943393003e-04 
-1.114893974024e-03 1.926717475023e-04 0.0 
1.926717475023e-04 7.405468821271e-03 0.0 
0.0 0.0 -1.113435711030e-03 
-7.974711636665e-04 -1.944203939156e-04 0.0 
-1.944203939156e-04 5.288608064412e-03 0.0 
0.0 0.0 -7.971871449874e-04 
-1.087511397267e-03 -1.918432502510e-04 0.0 
-1.918432502510e-04 7.293095143965e-03 0.0 
0.0 0.0 -1.086118700983e-03 
-7.957657220236e-04 1.875502652183e-04 0.0 
1.875502652183e-04 5.187404479596e-03 0.0 
0.0 0.0 -7.951163407912e-04 
-1.190027282138e-03 -1.889094988141e-04 0.0 
-1.889094988141e-04 8.016045742998e-03 0.0 
0.0 0.0 -1.188704642750e-03 
-1.182786985987e-03 -2.095818808978e-04 0.0 
-2.095818808978e-04 8.112308359412e-03 0.0 
0.0 0.0 -1.200489323427e-03 
-8.931557397796e-04 1.886870491784e-04 0.0 
1.886870491784e-04 5.866647832542e-03 0.0 
0.0 0.0 -8.929891684399e-04 
-3.790334035775e-04 2.022524645534e-04 0.0 
2.022524645534e-04 2.272501623496e-03 0.0 
0.0 0.0 -3.776191643183e-04 
-1.116621675417e-03 1.833509055246e-04 0.0 
1.833509055246e-04 7.407703431036e-03 0.0 
0.0 0.0 -1.113685640909e-03 
-8.560269120279e-04 -1.850645517349e-04 0.0 
-1.850645517349e-04 5.691539379015e-03 0.0 
0.0 0.0 -8.555605426019e-04 
-6.779302938367e-04 -1.908402865228e-04 0.0 
-1.908402865228e-04 4.449768302467e-03 0.0 
0.0 0.0 -6.765734244908e-04 
-9.269459503729e-04 -1.957083840496e-04 0.0 
-1.957083840496e-04 6.192523979842e-03 0.0 
0.0 0.0 -9.269463096178e-04 
-1.072502528949e-03 -2.041434169698e-04 0.0 
-2.041434169698e-04 7.210267326329e-03 0.0 
0.0 0.0 -1.072977024862e-03 
-3.719606472363e-04 -1.835949221075e-04 0.0 
-1.835949221075e-04 2.345098090713e-03 0.0 
0.0 0.0 -3.746637649435e-04 
-8.285830534024e-04 1.877054302829e-04 0.0 
1.877054302829e-04 5.415216649357e-03 0.0 
0.0 0.0 -8.281205301186e-04 
-9.633029216945e-04 1.794107507866e-04 0.0 
1.794107507866e-04 6.339174664891e-03 0.0 
0.0 0.0 -9.596127204057e-04 
-1.165821597608e-03 -2.067678885502e-04 0.0 
-2.067678885502e-04 7.892442231831e-03 0.0 
0.0 0.0 -1.170838755190e-03 
-9.895100639472e-04 1.759458030688e-04 0.0 
1.759458030688e-04 6.529075947432e-03 0.0 
0.0 0.0 -9.876491701490e-04 
-1.085596099012e-03 1.937230915425e-04 0.0 
1.937230915425e-04 7.212019617214e-03 0.0 
0.0 0.0 -1.085374163265e-03 
-9.372562607785e-04 1.792840605658e-04 0.0 
1.792840605658e-04 6.146041579427e-03 0.0 
0.0 0.0 -9.316602363005e-04 
-8.975747507543e-04 1.987030926428e-04 0.0 
1.987030926428e-04 5.753154163109e-03 0.0 
0.0 0.0 -8.756372412555e-04 
-9.482059618595e-04 1.851978750998e-04 0.0 
1.851978750998e-04 6.234676071384e-03 0.0 
0.0 0.0 -9.447135688329e-04 
-1.130898821175e-03 2.049231627906e-04 0.0 
2.049231627906e-04 7.550084487667e-03 0.0 
0.0 0.0 -1.133505030480e-03 
-1.085374007423e-03 -2.008613375727e-04 0.0 
-2.008613375727e-04 7.297255264970e-03 0.0 
0.0 0.0 -1.084522140297e-03 
-1.016986910713e-03 1.835607482604e-04 0.0 
1.835607482604e-04 6.748472102274e-03 0.0 
0.0 0.0 -1.017300281410e-03 
-1.211783257084e-03 1.757837481836e-04 0.0 
1.757837481836e-04 8.121141767087e-03 0.0 
0.0 0.0 -1.212886757924e-03 
-9.118555854047e-04 1.822932037185e-04 0.0 
1.822932037185e-04 5.952136168219e-03 0.0 
0.0 0.0 -9.037302385344e-04 
-5.771676927997e-04 -1.905418044285e-04 0.0 
-1.905418044285e-04 3.749121588691e-03 0.0 
0.0 0.0 -5.760585567884e-04 
-1.146857850750e-03 -2.012024813042e-04 0.0 
-2.012024813042e-04 7.726356069459e-03 0.0 
0.0 0.0 -1.146733564437e-03 
-1.190361811188e-03 -2.231584585378e-04 0.0 
-2.231584585378e-04 8.068085284209e-03 0.0 
0.0 0.0 -1.196744929305e-03 
-7.877111731868e-04 1.869730341934e-04 0.0 
1.869730341934e-04 5.130080362463e-03 0.0 
0.0 0.0 -7.869228524964e-04 
-8.229073892259e-04 1.889823334213e-04 0.0 
1.889823334213e-04 5.378866845597e-03 0.0 
0.0 0.0 -8.226527892688e-04 
-6.410005540226e-04 -1.918474041219e-04 0.0 
-1.918474041219e-04 4.195976321249e-03 0.0 
0.0 0.0 -6.402419685743e-04 
-1.047323379365e-03 1.912705100611e-04 0.0 
1.912705100611e-04 6.951134229714e-03 0.0 
0.0 0.0 -1.046609947212e-03 
-6.536475585395e-04 1.928032985675e-04 0.0 
1.928032985675e-04 4.182884861133e-03 0.0 
0.0 0.0 -6.500746975200e-04 
-9.153598550125e-04 1.963880349302e-04 0.0 
1.963880349302e-04 6.020758345298e-03 0.0 
0.0 0.0 -9.137630964162e-04 
-6.488950437602e-04 -1.797823528638e-04 0.0 
-1.797823528638e-04 4.242459853736e-03 0.0 
0.0 0.0 -6.476280927198e-04 
-1.069873888271e-03 1.950588935170e-04 0.0 
1.950588935170e-04 7.095085750561e-03 0.0 
0.0 0.0 -1.068254633495e-03 
-1.209590731991e-03 -1.550085898134e-04 0.0 
-1.550085898134e-04 8.118970202182e-03 0.0 
0.0 0.0 -1.211228670573e-03 
-6.691229637013e-04 -1.915091740608e-04 0.0 
-1.915091740608e-04 4.390308397494e-03 0.0 
0.0 0.0 -6.682047883386e-04 
-2.351166358341e-04 -2.031494045747e-04 0.0 
-2.031494045747e-04 1.435993492405e-03 0.0 
0.0 0.0 -2.451578436693e-04 
-1.204420763458e-03 1.961268392442e-04 0.0 
1.961268392442e-04 8.059775147050e-03 0.0 
0.0 0.0 -1.207184308065e-03 
-6.887858324241e-04 1.799755313790e-04 0.0 
1.799755313790e-04 4.424727357305e-03 0.0 
0.0 0.0 -6.853381776776e-04 
-7.835288517237e-04 1.879460947127e-04 0.0 
1.879460947127e-04 5.099659123499e-03 0.0 
0.0 0.0 -7.828151049093e-04 
-1.160407951921e-03 2.005539249279e-04 0.0 
2.005539249279e-04 7.864449254895e-03 0.0 
0.0 0.0 -1.177925372349e-03 
-1.016320152694e-03 -1.997312198958e-04 0.0 
-1.997312198958e-04 6.802485040097e-03 0.0 
0.0 0.0 -1.015069748350e-03 
-1.057178896244e-03 -1.942199100265e-04 0.0 
-1.942199100265e-04 7.094939907720e-03 0.0 
0.0 0.0 -1.055879354346e-03 
-6.858748156510e-04 -1.861020149715e-04 0.0 
-1.861020149715e-04 4.508466491458e-03 0.0 
0.0 0.0 -6.851017020021e-04 
-2.031820811394e-04 1.985739834672e-04 0.0 
1.985739834672e-04 1.096275256380e-03 0.0 
0.0 0.0 -2.111397097017e-04 
-1.218012060933e-03 -2.324828983585e-04 0.0 
-2.324828983585e-04 8.157957467951e-03 0.0 
0.0 0.0 -1.202131160132e-03 
-8.665795831995e-04 1.858441781355e-04 0.0 
1.858441781355e-04 5.682543428283e-03 0.0 
0.0 0.0 -8.660506973337e-04 
-1.008559534197e-03 -2.140754109309e-04 0.0 
-2.140754109309e-04 6.735537996686e-03 0.0 
0.0 0.0 -1.007142642412e-03 
-1.160459194418e-03 1.856922992242e-04 0.0 
1.856922992242e-04 7.735308684736e-03 0.0 
0.0 0.0 -1.157822513452e-03 
-1.616552956257e-04 1.423609377969e-04 0.0 
1.423609377969e-04 6.732585101887e-04 0.0 
0.0 0.0 -1.502316149797e-04 
-1.058859563023e-03 1.992298708810e-04 0.0 
1.992298708810e-04 7.024120321951e-03 0.0 
0.0 0.0 -1.058763633038e-03 
-4.932099791950e-04 -1.894809356614e-04 0.0 
-1.894809356614e-04 3.157806772283e-03 0.0 
0.0 0.0 -4.919579008500e-04 
-9.451714429142e-04 -2.012700485207e-04 0.0 
-2.012700485207e-04 6.343190678808e-03 0.0 
0.0 0.0 -9.498437721210e-04 
-8.487405687036e-04 -1.950463421940e-04 0.0 
-1.950463421940e-04 5.654542604036e-03 0.0 
0.0 0.0 -8.496012432876e-04 
-6.717289225013e-04 1.881380853814e-04 0.0 
1.881380853814e-04 4.320340016049e-03 0.0 
0.0 0.0 -6.709551114794e-04 
-1.138399201716e-03 -1.969931368524e-04 0.0 
-1.969931368524e-04 7.687743728139e-03 0.0 
0.0 0.0 -1.141635569211e-03 
-8.863371368954e-04 1.906753618111e-04 0.0 
1.906753618111e-04 5.821740968712e-03 0.0 
0.0 0.0 -8.859145181037e-04 
-6.078808339746e-04 1.896100471318e-04 0.0 
1.896100471318e-04 3.873866771809e-03 0.0 
0.0 0.0 -6.067458373204e-04 
-8.988471733596e-04 -1.905617358742e-04 0.0 
-1.905617358742e-04 5.993481774552e-03 0.0 
0.0 0.0 -8.989548790023e-04 
-1.952954180545e-04 -1.905102926163e-04 0.0 
-1.905102926163e-04 1.173502522438e-03 0.0 
0.0 0.0 -2.081142276587e-04 
-1.024988576596e-03 -1.935191657477e-04 0.0 
-1.935191657477e-04 6.880398785368e-03 0.0 
0.0 0.0 -1.026417656363e-03 
-1.069604476726e-03 -1.976553008557e-04 0.0 
-1.976553008557e-04 7.163110056360e-03 0.0 
0.0 0.0 -1.065496432940e-03 
-1.229744167387e-03 -1.464305357593e-04 0.0 
-1.464305357593e-04 8.209785373221e-03 0.0 
0.0 0.0 -1.233600908384e-03 
-1.090183204667e-03 -1.971253990561e-04 0.0 
-1.971253990561e-04 7.328950110722e-03 0.0 
0.0 0.0 -1.090749533212e-03 
-4.766984691118e-04 -1.850928375114e-04 0.0 
-1.850928375114e-04 3.048442125330e-03 0.0 
0.0 0.0 -4.758149136988e-04 
-1.046974953030e-03 -1.977469482829e-04 0.0 
-1.977469482829e-04 7.033167652259e-03 0.0 
0.0 0.0 -1.047231727503e-03 
-1.207083647933e-03 1.808427044483e-04 0.0 
1.808427044483e-04 8.205581432035e-03 0.0 
0.0 0.0 -1.228155452712e-03 
-1.260668266969e-03 -1.832526413473e-04 0.0 
-1.832526413473e-04 8.522719369677e-03 0.0 
0.0 0.0 -1.267145247477e-03 
-1.104740620517e-03 -1.903291503950e-04 0.0 
-1.903291503950e-04 7.419136809817e-03 0.0 
0.0 0.0 -1.102242875413e-03 
-7.141399757063e-04 -1.908850217655e-04 0.0 
-1.908850217655e-04 4.699621454475e-03 0.0 
0.0 0.0 -7.127912709901e-04 
-9.617225215176e-04 -1.932311968947e-04 0.0 
-1.932311968947e-04 6.435112240426e-03 0.0 
0.0 0.0 -9.624716764950e-04 
-1.172863749534e-03 1.716370371983e-04 0.0 
1.716370371983e-04 7.752633284680e-03 0.0 
0.0 0.0 -1.164316760544e-03 
-7.921196063416e-04 -1.921710320450e-04 0.0 
-1.921710320450e-04 5.233600587143e-03 0.0 
0.0 0.0 -7.878971455476e-04 
-1.056322180914e-03 1.849092776284e-04 0.0 
1.849092776284e-04 7.010189158039e-03 0.0 
0.0 0.0 -1.057196955382e-03 
-9.850942903468e-04 1.906307977985e-04 0.0 
1.906307977985e-04 6.538331902211e-03 0.0 
0.0 0.0 -9.877098122506e-04 
-1.110739431392e-03 -1.980632731678e-04 0.0 
-1.980632731678e-04 7.489376108620e-03 0.0 
0.0 0.0 -1.112977059762e-03 
-1.093828226484e-03 -1.876429130193e-04 0.0 
-1.876429130193e-04 7.351584596061e-03 0.0 
0.0 0.0 -1.093234982489e-03 
-7.343177045735e-04 -9.465157044590e-06 0.0 
-9.465157044590e-06 4.570354151395e-03 0.0 
0.0 0.0 -7.313513689239e-04 
-7.305590051733e-04 3.402678996767e-05 0.0 
3.402678996767e-05 4.568649633296e-03 0.0 
0.0 0.0 -7.310574395863e-04 
-9.952316992060e-04 -2.061010920873e-04 0.0 
-2.061010920873e-04 6.656041030992e-03 0.0 
0.0 0.0 -9.927888931629e-04 
-9.918488233690e-04 1.857079994066e-04 0.0 
1.857079994066e-04 6.564735410895e-03 0.0 
0.0 0.0 -9.930598132463e-04 
-8.773556303313e-04 -1.926873992318e-04 0.0 
-1.926873992318e-04 5.856781784187e-03 0.0 
0.0 0.0 -8.780428295617e-04 
-9.805249871409e-04 -1.924563760952e-04 0.0 
-1.924563760952e-04 6.542490604406e-03 0.0 
0.0 0.0 -9.775429604617e-04 
-8.511934619470e-04 1.885314516425e-04 0.0 
1.885314516425e-04 5.570767617800e-03 0.0 
0.0 0.0 -8.502279965035e-04 
-1.193540881150e-03 1.313307987014e-04 0.0 
1.313307987014e-04 7.848740983510e-03 0.0 
0.0 0.0 -1.180288150054e-03 
-7.169159808387e-04 1.897237155631e-04 0.0 
1.897237155631e-04 4.633470113633e-03 0.0 
0.0 0.0 -7.154845226688e-04 
-1.330586332229e-03 -3.342005871353e-05 0.0 
-3.342005871353e-05 9.092648121720e-03 0.0 
0.0 0.0 -1.323793839065e-03 
-8.042874267729e-04 1.538278548702e-04 0.0 
1.538278548702e-04 5.332999869485e-03 0.0 
0.0 0.0 -8.119939454945e-04 
-8.205821157683e-04 -1.889603009902e-04 0.0 
-1.889603009902e-04 5.445817958641e-03 0.0 
0.0 0.0 -8.199314282332e-04 
-8.518598072760e-04 1.933057744939e-04 0.0 
1.933057744939e-04 5.584111954891e-03 0.0 
0.0 0.0 -8.523954645778e-04 
-4.499586564247e-04 -1.855256695766e-04 0.0 
-1.855256695766e-04 2.857022821909e-03 0.0 
0.0 0.0 -4.479040077299e-04 
-7.538979209402e-04 -1.934413965155e-04 0.0 
-1.934413965155e-04 4.995274109938e-03 0.0 
0.0 0.0 -7.551671247638e-04 
-9.291971374277e-04 1.860662208979e-04 0.0 
1.860662208979e-04 6.122384862718e-03 0.0 
0.0 0.0 -9.293281999836e-04 
-8.759687264254e-04 1.862073937602e-04 0.0 
1.862073937602e-04 5.739375914108e-03 0.0 
0.0 0.0 -8.738309435711e-04 
-9.814387768267e-04 1.839019607207e-04 0.0 
1.839019607207e-04 6.501334764277e-03 0.0 
0.0 0.0 -9.814596669550e-04 
-1.010867161751e-03 1.870829556364e-04 0.0 
1.870829556364e-04 6.678666577386e-03 0.0 
0.0 0.0 -1.008022096355e-03 
-1.044436862417e-03 -1.926634021926e-04 0.0 
-1.926634021926e-04 6.979659342720e-03 0.0 
0.0 0.0 -1.040850218070e-03 
-2.258973833718e-04 -1.030107291086e-04 0.0 
-1.030107291086e-04 1.399562224303e-03 0.0 
0.0 0.0 -2.163717569139e-04 
-7.194022022389e-04 1.955668345424e-04 0.0 
1.955668345424e-04 4.667671693721e-03 0.0 
0.0 0.0 -7.209013985657e-04 
-6.852716132608e-04 -1.859370640984e-04 0.0 
-1.859370640984e-04 4.485062449844e-03 0.0 
0.0 0.0 -6.825522065409e-04 
-9.565981315295e-04 1.790846631941e-04 0.0 
1.790846631941e-04 6.284252226282e-03 0.0 
0.0 0.0 -9.521954671713e-04 
-9.888411307371e-04 -1.922642027801e-04 0.0 
-1.922642027801e-04 6.601876220435e-03 0.0 
0.0 0.0 -9.850634846466e-04 
-1.155748252282e-03 1.797617113703e-04 0.0 
1.797617113703e-04 7.721330663973e-03 0.0 
0.0 0.0 -1.160108757481e-03 
-3.430926826770e-04 2.099465977867e-04 0.0 
2.099465977867e-04 1.967318145224e-03 0.0 
0.0 0.0 -3.273996513303e-04 
-3.332214715971e-04 -1.766782033718e-04 0.0 
-1.766782033718e-04 2.091595055548e-03 0.0 
0.0 0.0 -3.377286911054e-04 
-8.312276761858e-04 1.871380545801e-04 0.0 
1.871380545801e-04 5.435579353952e-03 0.0 
0.0 0.0 -8.305977116616e-04 
-7.164446669360e-04 -1.954011667160e-04 0.0 
-1.954011667160e-04 4.735861933211e-03 0.0 
0.0 0.0 -7.181358556540e-04 
-6.612400540538e-04 -2.145984864481e-04 0.0 
-2.145984864481e-04 4.300984587983e-03 0.0 
0.0 0.0 -6.554599841463e-04 
-6.892288823092e-04 -1.712097974294e-04 0.0 
-1.712097974294e-04 4.548932917262e-03 0.0 
0.0 0.0 -6.889204951115e-04 
-9.785151366904e-04 -1.903688334857e-04 0.0 
-1.903688334857e-04 6.552823194572e-03 0.0 
0.0 0.0 -9.793492904611e-04 
-3.279214625417e-04 -1.856414295293e-04 0.0 
-1.856414295293e-04 2.036611823989e-03 0.0 
0.0 0.0 -3.302473245842e-04 
-8.146691974455e-04 1.910766766110e-04 0.0 
1.910766766110e-04 5.328191831945e-03 0.0 
0.0 0.0 -8.154759146177e-04 
-1.049892567768e-03 -1.923181012939e-04 0.0 
-1.923181012939e-04 7.038288222671e-03 0.0 
0.0 0.0 -1.049209916622e-03 
-3.402244297759e-04 2.055488950203e-04 0.0 
2.055488950203e-04 2.007315154740e-03 0.0 
0.0 0.0 -3.408226701431e-04 
-1.289740643797e-03 -2.865690188005e-05 0.0 
-2.865690188005e-05 8.457698383589e-03 0.0 
0.0 0.0 -1.285586381397e-03 
-1.153161816539e-03 -1.810911126316e-04 0.0 
-1.810911126316e-04 7.745860400322e-03 0.0 
0.0 0.0 -1.152455342817e-03 
-7.730865248008e-04 -1.936313324955e-04 0.0 
-1.936313324955e-04 5.137233279798e-03 0.0 
0.0 0.0 -7.756113943005e-04 
-1.077943790440e-03 1.906149656784e-04 0.0 
1.906149656784e-04 7.162163658694e-03 0.0 
0.0 0.0 -1.078722419643e-03 
-1.818286327115e-04 -5.320949396074e-06 0.0 
-5.320949396074e-06 7.441773179852e-04 0.0 
0.0 0.0 -1.797547709840e-04 
-1.014460031072e-03 -2.000580684662e-04 0.0 
-2.000580684662e-04 6.784645211728e-03 0.0 
0.0 0.0 -1.012471576362e-03 
-8.638932840094e-04 -1.877196228479e-04 0.0 
-1.877196228479e-04 5.746441231772e-03 0.0 
0.0 0.0 -8.634366945984e-04 
-1.573089574218e-04 6.060813636257e-06 0.0 
6.060813636257e-06 7.379677460024e-04 0.0 
0.0 0.0 -1.788519809851e-04 
-1.152359323407e-03 1.787160847201e-04 0.0 
1.787160847201e-04 7.696182759720e-03 0.0 
0.0 0.0 -1.154859126927e-03 
-3.172722260096e-04 -1.887798844868e-04 0.0 
-1.887798844868e-04 1.899275964143e-03 0.0 
0.0 0.0 -3.099791425632e-04 
-9.534030089958e-04 -1.885226890488e-04 0.0 
-1.885226890488e-04 6.348031499756e-03 0.0 
0.0 0.0 -9.496453321265e-04 
-8.720767110959e-04 -1.896937711200e-04 0.0 
-1.896937711200e-04 5.800514782336e-03 0.0 
0.0 0.0 -8.712718144564e-04 
-7.527095169076e-04 -1.904145446511e-04 0.0 
-1.904145446511e-04 4.974920507200e-03 0.0 
0.0 0.0 -7.519815330289e-04 
-9.060865555047e-04 1.986245932987e-04 0.0 
1.986245932987e-04 5.963263483029e-03 0.0 
0.0 0.0 -9.052548162676e-04 
-1.186359257630e-03 1.790401943917e-04 0.0 
1.790401943917e-04 7.910120458871e-03 0.0 
0.0 0.0 -1.182898372388e-03 
-9.717172959483e-04 2.017731235506e-04 0.0 
2.017731235506e-04 6.421670982773e-03 0.0 
0.0 0.0 -9.716005391689e-04 
-8.586682738839e-04 1.870585543685e-04 0.0 
1.870585543685e-04 5.626729716629e-03 0.0 
0.0 0.0 -8.581765416018e-04 
-8.285502932263e-04 -1.869792024667e-04 0.0 
-1.869792024667e-04 5.500044709232e-03 0.0 
0.0 0.0 -8.279616112547e-04 
-1.157597014143e-04 1.569592925357e-04 0.0 
1.569592925357e-04 5.309685908670e-04 0.0 
0.0 0.0 -1.241199786263e-04 
-2.771697128881e-04 1.878257284126e-04 0.0 
1.878257284126e-04 1.577050393967e-03 0.0 
0.0 0.0 -2.761011822561e-04 
-1.118878802421e-03 -1.775376209316e-04 0.0 
-1.775376209316e-04 7.515980410063e-03 0.0 
0.0 0.0 -1.118331045454e-03 
-9.134689604251e-04 -2.151070896450e-04 0.0 
-2.151070896450e-04 6.054442910930e-03 0.0 
0.0 0.0 -9.085367473448e-04 
-1.157427958602e-03 1.810891327533e-04 0.0 
1.810891327533e-04 7.664331777096e-03 0.0 
0.0 0.0 -1.148691026115e-03 
-4.952790128067e-04 1.926215238326e-04 0.0 
1.926215238326e-04 3.096112546519e-03 0.0 
0.0 0.0 -4.942977111402e-04 
-1.099935257767e-03 1.964856595336e-04 0.0 
1.964856595336e-04 7.292900558944e-03 0.0 
0.0 0.0 -1.097950598811e-03 
-1.159977421736e-03 -1.899588415039e-04 0.0 
-1.899588415039e-04 7.782799989863e-03 0.0 
0.0 0.0 -1.155407764312e-03 
-7.046437970110e-04 1.771780882184e-04 0.0 
1.771780882184e-04 4.649202442725e-03 0.0 
0.0 0.0 -7.179420443741e-04 
-1.123089437587e-03 1.668381000104e-04 0.0 
1.668381000104e-04 7.448723404798e-03 0.0 
0.0 0.0 -1.120992621467e-03 
-1.074800466033e-03 -1.979281231238e-04 0.0 
-1.979281231238e-04 7.231750290380e-03 0.0 
0.0 0.0 -1.075946734593e-03 
-9.566951811484e-04 1.885305449409e-04 0.0 
1.885305449409e-04 6.314170866049e-03 0.0 
0.0 0.0 -9.571162043194e-04 
-7.858129650109e-04 1.950519568745e-04 0.0 
1.950519568745e-04 5.127464531984e-03 0.0 
0.0 0.0 -7.866383436874e-04 
-8.200429817129e-04 -1.955984029235e-04 0.0 
-1.955984029235e-04 5.453789901756e-03 0.0 
0.0 0.0 -8.209012074946e-04 
-1.208173698565e-03 -2.031466844656e-04 0.0 
-2.031466844656e-04 8.155254103189e-03 0.0 
0.0 0.0 -1.204704583718e-03 
-8.401419513637e-04 1.955438232624e-04 0.0 
1.955438232624e-04 5.506398965405e-03 0.0 
0.0 0.0 -8.396599866114e-04 
-9.021075521636e-04 1.852176330369e-04 0.0 
1.852176330369e-04 5.931413313431e-03 0.0 
0.0 0.0 -9.015555482168e-04 
-8.449278259679e-04 1.962826855989e-04 0.0 
1.962826855989e-04 5.533739272216e-03 0.0 
0.0 0.0 -8.433600309793e-04 
-1.038695295048e-03 1.973550359402e-04 0.0 
1.973550359402e-04 6.882197727615e-03 0.0 
0.0 0.0 -1.038364586984e-03 
-7.853544279650e-04 -1.888908667992e-04 0.0 
-1.888908667992e-04 5.195025610649e-03 0.0 
0.0 0.0 -7.842421616061e-04 
-5.077615371431e-04 1.925383574265e-04 0.0 
1.925383574265e-04 3.178371744144e-03 0.0 
0.0 0.0 -5.065804551108e-04 
-8.563679286656e-04 1.886904600152e-04 0.0 
1.886904600152e-04 5.609470178926e-03 0.0 
0.0 0.0 -8.561803240471e-04 
-5.442096767108e-04 1.899929291301e-04 0.0 
1.899929291301e-04 3.427592308512e-03 0.0 
0.0 0.0 -5.426160209679e-04 
-9.840239484115e-04 1.860183386348e-04 0.0 
1.860183386348e-04 6.482342277994e-03 0.0 
0.0 0.0 -9.799122972177e-04 
-5.401920244120e-04 -1.881877507061e-04 0.0 
-1.881877507061e-04 3.494301074598e-03 0.0 
0.0 0.0 -5.399485503622e-04 
-9.444560097486e-04 -1.940759614132e-04 0.0 
-1.940759614132e-04 6.297600198433e-03 0.0 
0.0 0.0 -9.420580210740e-04 
-1.136089878121e-03 -1.928967352453e-04 0.0 
-1.928967352453e-04 7.622114445815e-03 0.0 
0.0 0.0 -1.130549445556e-03 
-1.098744179893e-03 1.868758827566e-04 0.0 
1.868758827566e-04 7.288601580292e-03 0.0 
0.0 0.0 -1.096529089934e-03 
-7.525839073148e-04 1.884470413512e-04 0.0 
1.884470413512e-04 4.883223458127e-03 0.0 
0.0 0.0 -7.512528815036e-04 
-9.420690742012e-04 1.904423332235e-04 0.0 
1.904423332235e-04 6.250031840530e-03 0.0 
0.0 0.0 -9.460253849645e-04 
-1.105063984059e-03 1.902259811921e-04 0.0 
1.902259811921e-04 7.362332298091e-03 0.0 
0.0 0.0 -1.107441567342e-03 
-1.102593190183e-03 -1.984125757140e-04 0.0 
-1.984125757140e-04 7.431259929710e-03 0.0 
0.0 0.0 -1.104747680386e-03 
-2.748138935716e-04 -1.822651738482e-04 0.0 
-1.822651738482e-04 1.604872033163e-03 0.0 
0.0 0.0 -2.683291303717e-04 
-9.752435611011e-04 1.861325910200e-04 0.0 
1.861325910200e-04 6.426869973039e-03 0.0 
0.0 0.0 -9.724793438395e-04 
-1.198880595075e-03 2.442779644092e-04 0.0 
2.442779644092e-04 8.051846061103e-03 0.0 
0.0 0.0 -1.205818386895e-03 
-5.437300718267e-04 1.772584891247e-04 0.0 
1.772584891247e-04 3.388245147726e-03 0.0 
0.0 0.0 -5.357889572170e-04 
-8.407105615714e-04 -1.927518630570e-04 0.0 
-1.927518630570e-04 5.595089898141e-03 0.0 
0.0 0.0 -8.409532000723e-04 
-1.642955148473e-04 -1.732273966109e-04 0.0 
-1.732273966109e-04 7.998697341648e-04 0.0 
0.0 0.0 -1.553180670733e-04 
-1.132480187466e-03 1.879569331440e-04 0.0 
1.879569331440e-04 7.560437012022e-03 0.0 
0.0 0.0 -1.136235114959e-03 
-4.806530012621e-04 1.926320631025e-04 0.0 
1.926320631025e-04 2.980823159841e-03 0.0 
0.0 0.0 -4.785631936959e-04 
-8.099198933223e-04 1.419617410747e-04 0.0 
1.419617410747e-04 5.272582332729e-03 0.0 
0.0 0.0 -8.166178341775e-04 
-1.008233793579e-03 2.173973549694e-04 0.0 
2.173973549694e-04 6.687663611020e-03 0.0 
0.0 0.0 -1.008721701990e-03 
-9.403782054792e-04 -1.899510314299e-04 0.0 
-1.899510314299e-04 6.304690927512e-03 0.0 
0.0 0.0 -9.438854677472e-04 
-8.963572268651e-04 1.741364622751e-04 0.0 
1.741364622751e-04 5.997227966099e-03 0.0 
0.0 0.0 -9.108073647308e-04 
-8.940895927013e-04 1.874273657985e-04 0.0 
1.874273657985e-04 5.875054319372e-03 0.0 
0.0 0.0 -8.936906232635e-04 
-5.964027012772e-04 -1.969270146159e-04 0.0 
-1.969270146159e-04 3.828565622584e-03 0.0 
0.0 0.0 -5.884905393267e-04 
-6.222186473161e-04 -1.579598216188e-04 0.0 
-1.579598216188e-04 4.074275639624e-03 0.0 
0.0 0.0 -6.218825813656e-04 
-1.132545466856e-03 -1.921788675688e-04 0.0 
-1.921788675688e-04 7.631342050474e-03 0.0 
0.0 0.0 -1.133400347077e-03 
-9.399834973732e-04 -2.076180111174e-04 0.0 
-2.076180111174e-04 6.274716467853e-03 0.0 
0.0 0.0 -9.394087121358e-04 
-8.165998643397e-04 -1.896618384882e-04 0.0 
-1.896618384882e-04 5.425461381261e-03 0.0 
0.0 0.0 -8.164864906097e-04 
-1.015808219044e-03 2.043119981127e-04 0.0 
2.043119981127e-04 6.724239760090e-03 0.0 
0.0 0.0 -1.014986374720e-03 
-7.921952984756e-04 1.876569442452e-04 0.0 
1.876569442452e-04 5.161072896404e-03 0.0 
0.0 0.0 -7.915105747055e-04 
-5.132154280476e-04 -1.871647182001e-04 0.0 
-1.871647182001e-04 3.302371768383e-03 0.0 
0.0 0.0 -5.119962057136e-04 
-5.745746208367e-04 1.485352442875e-04 0.0 
1.485352442875e-04 3.755895310226e-03 0.0 
0.0 0.0 -5.908395828668e-04 
-8.562635021512e-04 -1.754512107452e-04 0.0 
-1.754512107452e-04 5.627343192984e-03 0.0 
0.0 0.0 -8.442294783838e-04 
-7.160648306052e-04 7.585704491009e-06 0.0 
7.585704491009e-06 4.849167370763e-03 0.0 
0.0 0.0 -7.121995050294e-04 
-1.098907698795e-03 -1.935603852202e-04 0.0 
-1.935603852202e-04 7.356586615962e-03 0.0 
0.0 0.0 -1.093598669875e-03 
-7.500784032912e-04 -1.888438395023e-04 0.0 
-1.888438395023e-04 4.947212343952e-03 0.0 
0.0 0.0 -7.486350631497e-04 
-1.210182417684e-03 1.765917680884e-04 0.0 
1.765917680884e-04 8.247529209770e-03 0.0 
0.0 0.0 -1.233571955743e-03 
-1.118284649088e-03 2.239133535709e-04 0.0 
2.239133535709e-04 7.476894485255e-03 0.0 
0.0 0.0 -1.121177773779e-03 
-8.254740426919e-04 -1.929282224425e-04 0.0 
-1.929282224425e-04 5.485443478807e-03 0.0 
0.0 0.0 -8.252461108756e-04 
-1.242964237003e-03 -2.139177796874e-04 0.0 
-2.139177796874e-04 8.349538837109e-03 0.0 
0.0 0.0 -1.241472629463e-03 
-5.687293433059e-04 -1.915120142833e-04 0.0 
-1.915120142833e-04 3.690790191525e-03 0.0 
0.0 0.0 -5.682622744621e-04 
-1.208040625364e-03 1.849401074130e-04 0.0 
1.849401074130e-04 8.046920265334e-03 0.0 
0.0 0.0 -1.204482468497e-03 
-8.913551845653e-04 -1.878094076417e-04 0.0 
-1.878094076417e-04 5.940020385334e-03 0.0 
0.0 0.0 -8.910665706739e-04 
-9.852542746410e-04 1.871572406668e-04 0.0 
1.871572406668e-04 6.505324580404e-03 0.0 
0.0 0.0 -9.848034212814e-04 
-1.145107580505e-03 -1.842496915473e-04 0.0 
-1.842496915473e-04 7.703101384869e-03 0.0 
0.0 0.0 -1.146785027167e-03 
-5.943655314034e-04 -1.832199318589e-04 0.0 
-1.832199318589e-04 3.893020220943e-03 0.0 
0.0 0.0 -5.958228065582e-04 
-9.389816814797e-04 1.876119276122e-04 0.0 
1.876119276122e-04 6.182064030220e-03 0.0 
0.0 0.0 -9.369464185080e-04 
-7.887299262109e-04 -1.887974843369e-04 0.0 
-1.887974843369e-04 5.230247920474e-03 0.0 
0.0 0.0 -7.886172400246e-04 
-9.083774489983e-04 -1.902700926230e-04 0.0 
-1.902700926230e-04 6.046157002466e-03 0.0 
0.0 0.0 -9.065670216064e-04 
-5.279887302567e-04 -1.859379540021e-04 0.0 
-1.859379540021e-04 3.395303897193e-03 0.0 
0.0 0.0 -5.268093404353e-04 
-1.014606245907e-03 2.103915705160e-04 0.0 
2.103915705160e-04 6.713973890446e-03 0.0 
0.0 0.0 -1.013229387512e-03 
-7.553250635679e-04 1.889436264505e-04 0.0 
1.889436264505e-04 4.904153081957e-03 0.0 
0.0 0.0 -7.548706880268e-04 
-8.804539724126e-04 1.911528069323e-04 0.0 
1.911528069323e-04 5.783141817002e-03 0.0 
0.0 0.0 -8.810281692460e-04 
-9.122003311205e-04 1.835312424394e-04 0.0 
1.835312424394e-04 5.985147494673e-03 0.0 
0.0 0.0 -9.091416541300e-04 
-1.779440610295e-04 -1.030848282903e-04 0.0 
-1.030848282903e-04 7.740733373014e-04 0.0 
0.0 0.0 -1.392682743729e-04 
-9.092484897749e-04 2.049076976716e-04 0.0 
2.049076976716e-04 5.988548295435e-03 0.0 
0.0 0.0 -9.082496170556e-04 
-2.130732635602e-04 -2.101807231715e-04 0.0 
-2.101807231715e-04 1.221567911034e-03 0.0 
0.0 0.0 -2.164288490095e-04 
-2.520548988868e-04 2.059906335289e-04 0.0 
2.059906335289e-04 1.360441870585e-03 0.0 
0.0 0.0 -2.410360834028e-04 
-8.430214645806e-04 1.870171193368e-04 0.0 
1.870171193368e-04 5.521874591652e-03 0.0 
0.0 0.0 -8.438072171805e-04 
-1.100618043992e-03 -1.995199700289e-04 0.0 
-1.995199700289e-04 7.372933681793e-03 0.0 
0.0 0.0 -1.098354823938e-03 
-9.336786887582e-04 1.772618600829e-04 0.0 
1.772618600829e-04 6.184069199665e-03 0.0 
0.0 0.0 -9.387552692591e-04 
-5.316814076804e-04 -1.951121058158e-04 0.0 
-1.951121058158e-04 3.374217008638e-03 0.0 
0.0 0.0 -5.215302833573e-04 
-1.342322198460e-03 1.355075091338e-05 0.0 
1.355075091338e-05 8.860022296973e-03 0.0 
0.0 0.0 -1.342322198460e-03 
-6.904184216633e-05 1.341545190439e-04 0.0 
1.341545190439e-04 2.607547295547e-04 0.0 
0.0 0.0 -8.216266602360e-05 
-5.589210723321e-04 -1.329418113690e-04 0.0 
-1.329418113690e-04 3.609084095352e-03 0.0 
0.0 0.0 -5.549805679787e-04 
-8.477696331988e-04 1.855996582246e-04 0.0 
1.855996582246e-04 5.547050172852e-03 0.0 
0.0 0.0 -8.472740691906e-04 
-8.035495844310e-04 -1.953259203623e-04 0.0 
-1.953259203623e-04 5.337013229194e-03 0.0 
0.0 0.0 -8.042584860449e-04 
-6.757348554203e-04 -1.653998453620e-04 0.0 
-1.653998453620e-04 4.426804148949e-03 0.0 
0.0 0.0 -6.733236465360e-04 
-5.914609098287e-04 1.823071808114e-04 0.0 
1.823071808114e-04 3.765270744377e-03 0.0 
0.0 0.0 -5.908717820549e-04 
-8.740292955769e-04 -1.984478198410e-04 0.0 
-1.984478198410e-04 5.813273429386e-03 0.0 
0.0 0.0 -8.733819075714e-04 
-9.264128048314e-04 -1.908219560731e-04 0.0 
-1.908219560731e-04 6.187717693911e-03 0.0 
0.0 0.0 -9.266779469803e-04 
-9.738255750276e-04 2.028683516140e-04 0.0 
2.028683516140e-04 6.450883656299e-03 0.0 
0.0 0.0 -9.734188451722e-04 
-1.155174733819e-03 2.031393399309e-04 0.0 
2.031393399309e-04 7.608098909853e-03 0.0 
0.0 0.0 -1.144302277022e-03 
-2.998307148874e-04 1.817771268844e-04 0.0 
1.817771268844e-04 1.707947677580e-03 0.0 
0.0 0.0 -2.976331147772e-04 
-7.774732960360e-04 1.902311186531e-04 0.0 
1.902311186531e-04 5.067412702539e-03 0.0 
0.0 0.0 -7.784793977761e-04 
-8.354929195800e-04 1.868427274729e-04 0.0 
1.868427274729e-04 5.469964258699e-03 0.0 
0.0 0.0 -8.356154970834e-04 
-4.516910884492e-04 -2.032153244339e-04 0.0 
-2.032153244339e-04 2.897475389763e-03 0.0 
0.0 0.0 -4.544023106810e-04 
-7.514806211766e-04 2.187245154034e-04 0.0 
2.187245154034e-04 4.887888210751e-03 0.0 
0.0 0.0 -7.518103749233e-04 
-9.376130433125e-04 -2.007012642149e-04 0.0 
-2.007012642149e-04 6.245928942655e-03 0.0 
0.0 0.0 -9.362314798257e-04 
-1.020402468730e-03 -1.946865508960e-04 0.0 
-1.946865508960e-04 6.790144563629e-03 0.0 
0.0 0.0 -1.023451880212e-03 
-1.525732992224e-04 8.599813621991e-06 0.0 
8.599813621991e-06 1.000033467602e-03 0.0 
0.0 0.0 -1.605242656235e-04 
-1.269812495822e-04 -2.531001823489e-04 0.0 
-2.531001823489e-04 4.902479252968e-04 0.0 
0.0 0.0 -1.185594205871e-04 
-3.241357878482e-04 -1.842994986653e-04 0.0 
-1.842994986653e-04 2.004473459914e-03 0.0 
0.0 0.0 -3.233707900025e-04 
-8.334989762747e-04 -1.938999604970e-04 0.0 
-1.938999604970e-04 5.537569679809e-03 0.0 
0.0 0.0 -8.330087554115e-04 
-6.325222328162e-04 -1.881321833313e-04 0.0 
-1.881321833313e-04 4.138956718805e-03 0.0 
0.0 0.0 -6.322020076307e-04 
-5.606822046863e-04 -1.836386180369e-04 0.0 
-1.836386180369e-04 3.638290895272e-03 0.0 
0.0 0.0 -5.605319560360e-04 
-5.042968556974e-04 -1.874920210369e-04 0.0 
-1.874920210369e-04 3.240689773487e-03 0.0 
0.0 0.0 -5.041580933422e-04 
-8.721332834429e-04 1.863637843611e-04 0.0 
1.863637843611e-04 5.722466013089e-03 0.0 
0.0 0.0 -8.721335634590e-04 
-9.951021354220e-04 1.863977597818e-04 0.0 
1.863977597818e-04 6.578139400737e-03 0.0 
0.0 0.0 -9.956198530692e-04 
-8.650795473337e-04 1.875435944103e-04 0.0 
1.875435944103e-04 5.670505538654e-03 0.0 
0.0 0.0 -8.643287579461e-04 
-6.358273554876e-04 1.861975192937e-04 0.0 
1.861975192937e-04 4.071155698746e-03 0.0 
0.0 0.0 -6.348607296063e-04 
-9.711834339353e-04 -2.012117718550e-04 0.0 
-2.012117718550e-04 6.487584772475e-03 0.0 
0.0 0.0 -9.699423737970e-04 
-8.101971348646e-04 1.641316877204e-04 0.0 
1.641316877204e-04 5.432076920036e-03 0.0 
0.0 0.0 -8.236220363599e-04 
-1.071983661584e-03 2.130963721819e-04 0.0 
2.130963721819e-04 7.145357950686e-03 0.0 
0.0 0.0 -1.076197569190e-03 
-8.626714893425e-04 -1.942405500946e-04 0.0 
-1.942405500946e-04 5.738328913224e-03 0.0 
0.0 0.0 -8.617642947636e-04 
-8.702702279884e-04 -1.921753086919e-04 0.0 
-1.921753086919e-04 5.792753129953e-03 0.0 
0.0 0.0 -8.694825820363e-04 
-4.645559553229e-04 -1.981925654935e-04 0.0 
-1.981925654935e-04 2.889937884798e-03 0.0 
0.0 0.0 -4.548485160793e-04 
-6.608554486331e-04 -1.864091804662e-04 0.0 
-1.864091804662e-04 4.336541054874e-03 0.0 
0.0 0.0 -6.598952468721e-04 
-8.926027030231e-04 1.843043537544e-04 0.0 
1.843043537544e-04 5.864339266433e-03 0.0 
0.0 0.0 -8.930692851043e-04 
-9.679615503639e-04 1.696948557832e-04 0.0 
1.696948557832e-04 6.395623785343e-03 0.0 
0.0 0.0 -9.615701295831e-04 
-9.079120183865e-04 1.806035671013e-04 0.0 
1.806035671013e-04 6.008465197653e-03 0.0 
0.0 0.0 -8.972249362023e-04 
-4.966173735405e-04 -1.549710521065e-04 0.0 
-1.549710521065e-04 3.153972529156e-03 0.0 
0.0 0.0 -4.879487645214e-04 
-9.010013592765e-04 1.886793445213e-04 0.0 
1.886793445213e-04 5.923625585035e-03 0.0 
0.0 0.0 -9.007118478549e-04 
-5.518253028037e-04 -1.783371210293e-04 0.0 
-1.783371210293e-04 3.577417440001e-03 0.0 
0.0 0.0 -5.517684601482e-04 
-2.845535083016e-04 1.977607623022e-04 0.0 
1.977607623022e-04 1.633750881917e-03 0.0 
0.0 0.0 -2.811347238918e-04 
-1.188918642902e-03 -1.918974946843e-04 0.0 
-1.918974946843e-04 8.111302423947e-03 0.0 
0.0 0.0 -1.202908440308e-03 
-3.019785591690e-04 1.950774455603e-04 0.0 
1.950774455603e-04 1.726883632229e-03 0.0 
0.0 0.0 -3.019870735033e-04 
-5.828626320579e-04 1.860512938998e-04 0.0 
1.860512938998e-04 3.705650589538e-03 0.0 
0.0 0.0 -5.822209219963e-04 
-8.781768956791e-04 -1.986806572288e-04 0.0 
-1.986806572288e-04 5.833892611307e-03 0.0 
0.0 0.0 -8.766521650092e-04 
-5.060723315699e-04 1.405250353070e-04 0.0 
1.405250353070e-04 3.287884117067e-03 0.0 
0.0 0.0 -5.239962781855e-04 
-8.898132346488e-04 -1.977943572352e-04 0.0 
-1.977943572352e-04 5.946896776319e-03 0.0 
0.0 0.0 -8.905656347129e-04 
-4.258375091185e-04 -2.178895733922e-04 0.0 
-2.178895733922e-04 2.688533932087e-03 0.0 
0.0 0.0 -4.282508963332e-04 
-7.578747057613e-04 -1.654300402080e-04 0.0 
-1.654300402080e-04 5.036141076678e-03 0.0 
0.0 0.0 -7.823486082854e-04 
-9.004251462807e-04 -1.892315142781e-04 0.0 
-1.892315142781e-04 5.992307029229e-03 0.0 
0.0 0.0 -8.981647654366e-04 
-7.810617461966e-04 -1.867589919143e-04 0.0 
-1.867589919143e-04 5.170374097518e-03 0.0 
0.0 0.0 -7.800125773855e-04 
-8.113930582064e-04 -1.934831491269e-04 0.0 
-1.934831491269e-04 5.398532171848e-03 0.0 
0.0 0.0 -8.126672281948e-04 
-1.456223754453e-04 -1.153284200368e-04 0.0 
-1.153284200368e-04 8.334024863152e-04 0.0 
0.0 0.0 -1.489310416055e-04 
-1.183619524390e-03 -1.995906802130e-04 0.0 
-1.995906802130e-04 7.793015624773e-03 0.0 
0.0 0.0 -1.152567315725e-03 
-6.518619288048e-04 -1.801864724235e-04 0.0 
-1.801864724235e-04 4.278312019353e-03 0.0 
0.0 0.0 -6.514572604261e-04 
-1.161957516655e-03 2.065796963047e-04 0.0 
2.065796963047e-04 7.737413579119e-03 0.0 
0.0 0.0 -1.154039482800e-03 
-9.839722502603e-04 -1.958677314331e-04 0.0 
-1.958677314331e-04 6.578387584555e-03 0.0 
0.0 0.0 -9.821191134873e-04 
-9.294100606496e-04 1.930061835790e-04 0.0 
1.930061835790e-04 6.122204066633e-03 0.0 
0.0 0.0 -9.293965016571e-04 
-9.285061071557e-04 -1.774497838441e-04 0.0 
-1.774497838441e-04 6.189509746344e-03 0.0 
0.0 0.0 -9.268654845074e-04 
-5.996189068560e-04 1.852055889782e-04 0.0 
1.852055889782e-04 3.820597089734e-03 0.0 
0.0 0.0 -5.989583036242e-04 
-1.944838745679e-04 1.584109702943e-04 0.0 
1.584109702943e-04 1.163625171840e-03 0.0 
0.0 0.0 -2.103425724855e-04 
-1.545095455242e-04 1.193388759037e-04 0.0 
1.193388759037e-04 6.563556231282e-04 0.0 
0.0 0.0 -1.599169489567e-04 
-9.548054477989e-04 1.928585704838e-04 0.0 
1.928585704838e-04 6.318843775437e-03 0.0 
0.0 0.0 -9.583065114986e-04 
-1.160173340718e-03 1.884012827660e-04 0.0 
1.884012827660e-04 7.692007981726e-03 0.0 
0.0 0.0 -1.148056181429e-03 
-5.412400896945e-04 -1.740896251805e-04 0.0 
-1.740896251805e-04 3.519775267643e-03 0.0 
0.0 0.0 -5.426247857783e-04 
-1.000629830532e-03 1.900148255986e-04 0.0 
1.900148255986e-04 6.622819157878e-03 0.0 
0.0 0.0 -1.000702849114e-03 
-5.014074309498e-04 1.897737110036e-04 0.0 
1.897737110036e-04 3.104700833587e-03 0.0 
0.0 0.0 -5.002094317253e-04 
-1.008257874699e-03 -1.995045898854e-04 0.0 
-1.995045898854e-04 6.739421236299e-03 0.0 
0.0 0.0 -1.005614027492e-03 
-1.275786431467e-03 1.088711895384e-04 0.0 
1.088711895384e-04 8.693642459064e-03 0.0 
0.0 0.0 -1.266534580134e-03 
-5.404710541836e-05 1.564499946379e-05 0.0 
1.564499946379e-05 2.310460762638e-04 0.0 
0.0 0.0 -4.512473402930e-05 
-1.341620833825e-03 -3.423569445624e-05 0.0 
-3.423569445624e-05 8.854172159817e-03 0.0 
0.0 0.0 -1.341620833825e-03 
-1.340051318819e-03 3.419351748214e-06 0.0 
3.419351748214e-06 8.881496154702e-03 0.0 
0.0 0.0 -1.340051318819e-03 
-8.003500561082e-04 -1.973446332083e-04 0.0 
-1.973446332083e-04 5.182732733425e-03 0.0 
0.0 0.0 -7.955197795907e-04 
-6.427190039752e-04 -1.771623886154e-04 0.0 
-1.771623886154e-04 4.219584582941e-03 0.0 
0.0 0.0 -6.428246066218e-04 
-9.539959357727e-04 -1.903436421629e-04 0.0 
-1.903436421629e-04 6.384067375959e-03 0.0 
0.0 0.0 -9.543595451431e-04 
-6.046483611248e-04 -1.904684548622e-04 0.0 
-1.904684548622e-04 3.941030960147e-03 0.0 
0.0 0.0 -6.041149214933e-04 
-2.015327089857e-04 -1.787857606077e-04 0.0 
-1.787857606077e-04 1.215175486256e-03 0.0 
0.0 0.0 -2.095884814006e-04 
-1.358502302165e-04 -1.652436952664e-04 0.0 
-1.652436952664e-04 5.860561493667e-04 0.0 
0.0 0.0 -1.201211790779e-04 
-1.224116731780e-03 -1.601620163346e-04 0.0 
-1.601620163346e-04 8.159917680932e-03 0.0 
0.0 0.0 -1.209499414335e-03 
-9.670306227229e-04 -2.102097021759e-04 0.0 
-2.102097021759e-04 6.456763428288e-03 0.0 
0.0 0.0 -9.648175333861e-04 
-7.505793698933e-04 -1.832067976458e-04 0.0 
-1.832067976458e-04 4.862883335491e-03 0.0 
0.0 0.0 -7.224789237172e-04 
-1.308106101880e-03 -9.564346375639e-06 0.0 
-9.564346375639e-06 9.104818726286e-03 0.0 
0.0 0.0 -1.323661129950e-03 
-3.723881451928e-04 -2.095753772030e-04 0.0 
-2.095753772030e-04 2.251170567838e-03 0.0 
0.0 0.0 -3.615704333793e-04 
-1.338587368780e-03 -1.150799812337e-05 0.0 
-1.150799812337e-05 9.097604261257e-03 0.0 
0.0 0.0 -1.324908485340e-03 
-9.656783964584e-04 1.862090128514e-04 0.0 
1.862090128514e-04 6.391762053029e-03 0.0 
0.0 0.0 -9.670422101491e-04 
-6.322851321105e-04 -1.782670103148e-04 0.0 
-1.782670103148e-04 4.156088603212e-03 0.0 
0.0 0.0 -6.336394413500e-04 
-9.215195886709e-04 1.858262024962e-04 0.0 
1.858262024962e-04 6.065159777351e-03 0.0 
0.0 0.0 -9.212972352143e-04 
-6.095245585205e-04 1.817233461859e-04 0.0 
1.817233461859e-04 3.888318231073e-03 0.0 
0.0 0.0 -6.094834619596e-04 
-3.161972729321e-04 2.118996039674e-04 0.0 
2.118996039674e-04 1.862493464303e-03 0.0 
0.0 0.0 -3.160312483096e-04 
-5.714172847083e-04 1.885506067566e-04 0.0 
1.885506067566e-04 3.631122930928e-03 0.0 
0.0 0.0 -5.728018649490e-04 
-1.022496320278e-03 1.929428534962e-04 0.0 
1.929428534962e-04 6.770909400157e-03 0.0 
0.0 0.0 -1.023749757194e-03 
-1.150976429886e-03 -2.032424840275e-04 0.0 
-2.032424840275e-04 7.758939253249e-03 0.0 
0.0 0.0 -1.155390781228e-03 
-6.187002398341e-04 1.818215273869e-04 0.0 
1.818215273869e-04 3.950326342677e-03 0.0 
0.0 0.0 -6.181853003094e-04 
-1.037480631671e-03 1.889356953886e-04 0.0 
1.889356953886e-04 6.873009589990e-03 0.0 
0.0 0.0 -1.036271578259e-03 
0.0 0.0 0.0 
0.0 0.0 0.0 
0.0 0.0 0.0 
-6.276661230388e-04 1.792694929945e-04 0.0 
1.792694929945e-04 4.010933515786e-03 0.0 
0.0 0.0 -6.266282162577e-04 
-1.067618640436e-03 -2.059979659696e-04 0.0 
-2.059979659696e-04 7.168819223232e-03 0.0 
0.0 0.0 -1.066385360782e-03 
-5.602476022505e-04 1.913249262792e-04 0.0 
1.913249262792e-04 3.548859392025e-03 0.0 
0.0 0.0 -5.616069800515e-04 
-5.034317169211e-04 -1.766316395616e-04 0.0 
-1.766316395616e-04 3.262973984744e-03 0.0 
0.0 0.0 -5.052880831394e-04 
-9.189958469858e-04 -1.860644213167e-04 0.0 
-1.860644213167e-04 6.131142810909e-03 0.0 
0.0 0.0 -9.187611816440e-04 
-2.798438621563e-04 2.024562614015e-04 0.0 
2.024562614015e-04 1.659164072585e-03 0.0 
0.0 0.0 -2.979563435985e-04 
-4.237702008277e-04 -1.193704641066e-04 0.0 
-1.193704641066e-04 2.381332436810e-03 0.0 
0.0 0.0 -3.867203691650e-04 
-3.975764326489e-04 -1.798608620237e-04 0.0 
-1.798608620237e-04 2.707475849368e-03 0.0 
0.0 0.0 -4.195921675762e-04 
-4.963058465455e-04 1.849091904100e-04 0.0 
1.849091904100e-04 3.099739962777e-03 0.0 
0.0 0.0 -4.973376392308e-04 
-8.459383987434e-04 -1.907145818210e-04 0.0 
-1.907145818210e-04 5.622335891913e-03 0.0 
0.0 0.0 -8.444178005646e-04 
-8.162577903273e-04 1.917219888079e-04 0.0 
1.917219888079e-04 5.328762658263e-03 0.0 
0.0 0.0 -8.147327860212e-04 
-1.033805230839e-03 -2.014200165048e-04 0.0 
-2.014200165048e-04 6.928519613423e-03 0.0 
0.0 0.0 -1.033897369924e-03 
-1.221633880436e-03 1.327525419154e-04 0.0 
1.327525419154e-04 8.105302040654e-03 0.0 
0.0 0.0 -1.224260864640e-03 
-4.437323643489e-04 1.289034247085e-04 0.0 
1.289034247085e-04 2.824272473931e-03 0.0 
0.0 0.0 -4.570814260163e-04 
-1.026282183515e-03 -2.469645237371e-04 0.0 
-2.469645237371e-04 6.837925098464e-03 0.0 
0.0 0.0 -1.028620860735e-03 
-1.232340650598e-03 1.232265702215e-04 0.0 
1.232265702215e-04 8.131356307241e-03 0.0 
0.0 0.0 -1.228414553209e-03 
-5.714514367838e-04 1.903885160707e-04 0.0 
1.903885160707e-04 3.625837711505e-03 0.0 
0.0 0.0 -5.707601703556e-04 
-2.135565257302e-04 2.102195190307e-04 0.0 
2.102195190307e-04 1.190116728888e-03 0.0 
0.0 0.0 -2.192200328082e-04 
-5.324811030586e-04 -1.564509498563e-04 0.0 
-1.564509498563e-04 3.456619354267e-03 0.0 
0.0 0.0 -5.330167430730e-04 
-8.085387987626e-04 -1.885177874860e-04 0.0 
-1.885177874860e-04 5.361946972923e-03 0.0 
0.0 0.0 -8.082977034869e-04 
-1.047924752938e-03 1.956397865657e-04 0.0 
1.956397865657e-04 6.924645327261e-03 0.0 
0.0 0.0 -1.043024347135e-03 
-8.126482086337e-04 1.904262971100e-04 0.0 
1.904262971100e-04 5.297787546946e-03 0.0 
0.0 0.0 -8.108276944599e-04 
-2.458088517301e-04 -1.138196901462e-04 0.0 
-1.138196901462e-04 1.452613291321e-03 0.0 
0.0 0.0 -2.343049260409e-04 
-9.102031090638e-04 -2.013755147983e-04 0.0 
-2.013755147983e-04 6.070783801232e-03 0.0 
0.0 0.0 -9.096068616062e-04 
-3.560167896549e-04 2.151383842189e-04 0.0 
2.151383842189e-04 2.131802985450e-03 0.0 
0.0 0.0 -3.508512830963e-04 
-8.140185260576e-04 -1.926928755880e-04 0.0 
-1.926928755880e-04 5.389465675351e-03 0.0 
0.0 0.0 -8.123573650817e-04 
-8.767776688194e-04 2.024483433581e-04 0.0 
2.024483433581e-04 5.751188307413e-03 0.0 
0.0 0.0 -8.756097305517e-04 
-9.509565837624e-04 1.896974231217e-04 0.0 
1.896974231217e-04 6.265385166788e-03 0.0 
0.0 0.0 -9.491391837787e-04 
-9.274205801970e-04 -1.707730266069e-04 0.0 
-1.707730266069e-04 6.212775611049e-03 0.0 
0.0 0.0 -9.494079867578e-04 
-4.906398001625e-04 -1.749565167891e-04 0.0 
-1.749565167891e-04 3.179973922092e-03 0.0 
0.0 0.0 -4.933620968966e-04 
-2.484574972914e-04 1.853035354059e-04 0.0 
1.853035354059e-04 1.372800011643e-03 0.0 
0.0 0.0 -2.459554264611e-04 
-9.419221611826e-04 2.078178624915e-04 0.0 
2.078178624915e-04 6.213877196692e-03 0.0 
0.0 0.0 -9.415329344942e-04 
-3.796687070467e-04 1.987051729866e-04 0.0 
1.987051729866e-04 2.349690832434e-03 0.0 
0.0 0.0 -3.857152600925e-04 
-1.079925297708e-04 2.094696628342e-04 0.0 
2.094696628342e-04 4.385964497386e-04 0.0 
0.0 0.0 -1.205192217350e-04 
-1.217003238982e-03 1.715975421034e-04 0.0 
1.715975421034e-04 8.115367819263e-03 0.0 
0.0 0.0 -1.223389224544e-03 
-1.152822377069e-03 1.914748152748e-04 0.0 
1.914748152748e-04 7.732583850779e-03 0.0 
0.0 0.0 -1.157435638217e-03 
-9.394432781398e-05 -1.620283716039e-05 0.0 
-1.620283716039e-05 3.135234532214e-04 0.0 
0.0 0.0 -9.410533946034e-05 
-9.757772886518e-04 -2.084469974537e-04 0.0 
-2.084469974537e-04 6.524951865197e-03 0.0 
0.0 0.0 -9.758309632659e-04 
-3.896708157340e-04 -1.763476574511e-04 0.0 
-1.763476574511e-04 2.457499880861e-03 0.0 
0.0 0.0 -3.887237773309e-04 
-4.187709573894e-04 2.113072011152e-04 0.0 
2.113072011152e-04 2.560835545987e-03 0.0 
0.0 0.0 -4.195855280820e-04 
-1.100445862982e-03 1.933828922323e-04 0.0 
1.933828922323e-04 7.327011461120e-03 0.0 
0.0 0.0 -1.100737838324e-03 
-9.470047501208e-04 -1.877990577056e-04 0.0 
-1.877990577056e-04 6.324416518396e-03 0.0 
0.0 0.0 -9.467522836136e-04 
-1.064750852218e-03 1.888034529427e-04 0.0 
1.888034529427e-04 7.071897550473e-03 0.0 
0.0 0.0 -1.064854740548e-03 
-6.246803119835e-04 -1.813696095215e-04 0.0 
-1.813696095215e-04 4.082455365693e-03 0.0 
0.0 0.0 -6.238888496032e-04 
-7.066733059565e-04 2.079397955112e-05 0.0 
2.079397955112e-05 4.859565834242e-03 0.0 
0.0 0.0 -7.105917616147e-04 
-1.294146159652e-03 -3.864697892398e-05 0.0 
-3.864697892398e-05 8.444131533072e-03 0.0 
0.0 0.0 -1.281538364137e-03 
-3.542163761970e-04 2.028127844720e-04 0.0 
2.028127844720e-04 2.096644602115e-03 0.0 
0.0 0.0 -3.541816848729e-04 
-1.125206372116e-03 -1.754172072947e-04 0.0 
-1.754172072947e-04 7.521489804146e-03 0.0 
0.0 0.0 -1.121221582973e-03 
-8.491762958406e-04 -1.918772025260e-04 0.0 
-1.918772025260e-04 5.637172269943e-03 0.0 
0.0 0.0 -8.477100451819e-04 
-2.548170229509e-04 1.666770740484e-04 0.0 
1.666770740484e-04 1.576109573106e-03 0.0 
0.0 0.0 -2.892354545592e-04 
-1.017444257442e-03 1.870623454717e-04 0.0 
1.870623454717e-04 6.717348757917e-03 0.0 
0.0 0.0 -1.015166614560e-03 
-6.631831128869e-04 1.857158928685e-04 0.0 
1.857158928685e-04 4.263729749942e-03 0.0 
0.0 0.0 -6.628028861993e-04 
-1.684732311542e-04 2.043772270918e-05 0.0 
2.043772270918e-05 7.313008481942e-04 0.0 
0.0 0.0 -1.790968519484e-04 
-5.636882380034e-04 1.819527752727e-04 0.0 
1.819527752727e-04 3.574156729662e-03 0.0 
0.0 0.0 -5.632129589051e-04 
-9.884210265131e-04 1.935912308442e-04 0.0 
1.935912308442e-04 6.630368017320e-03 0.0 
0.0 0.0 -9.915417172310e-04 
-1.024292652289e-03 -1.998354067082e-04 0.0 
-1.998354067082e-04 6.855679602380e-03 0.0 
0.0 0.0 -1.020980360542e-03 
-2.668718187998e-04 -1.887143997354e-04 0.0 
-1.887143997354e-04 1.647579462571e-03 0.0 
0.0 0.0 -2.713190868338e-04 
-7.786512140660e-04 -1.180089749439e-04 0.0 
-1.180089749439e-04 5.426201302135e-03 0.0 
0.0 0.0 -8.076288038732e-04 
-1.074110154891e-03 1.985848318847e-04 0.0 
1.985848318847e-04 7.134481455861e-03 0.0 
0.0 0.0 -1.071782534217e-03 
-1.102896231441e-03 -1.801608730721e-04 0.0 
-1.801608730721e-04 7.447194143767e-03 0.0 
0.0 0.0 -1.109893377180e-03 
-5.341916501155e-04 1.805786256932e-04 0.0 
1.805786256932e-04 3.363027861628e-03 0.0 
0.0 0.0 -5.351738145117e-04 
-4.305045173780e-04 1.931657245159e-04 0.0 
1.931657245159e-04 2.621086994850e-03 0.0 
0.0 0.0 -4.333934152438e-04 
-8.799765506504e-04 1.996562479781e-04 0.0 
1.996562479781e-04 5.778741680504e-03 0.0 
0.0 0.0 -8.786267582723e-04 
-9.199821990293e-04 -2.154181819420e-04 0.0 
-2.154181819420e-04 6.117399840533e-03 0.0 
0.0 0.0 -9.278975173457e-04 
-1.674260928547e-04 -1.501342801196e-05 0.0 
-1.501342801196e-05 7.277150164985e-04 0.0 
0.0 0.0 -1.762926913357e-04 
-1.274115998275e-03 1.675675276383e-06 0.0 
1.675675276383e-06 8.713591812970e-03 0.0 
0.0 0.0 -1.269179263065e-03 
-1.298508155882e-03 1.869502884704e-05 0.0 
1.869502884704e-05 8.443421948614e-03 0.0 
0.0 0.0 -1.281197857596e-03 
-8.292940884850e-04 -1.917175163011e-04 0.0 
-1.917175163011e-04 5.414946975704e-03 0.0 
0.0 0.0 -8.387747867703e-04 
-1.244952979202e-03 -2.282010355606e-04 0.0 
-2.282010355606e-04 8.516132030964e-03 0.0 
0.0 0.0 -1.255037608383e-03 
-1.285595461777e-03 8.758262611811e-05 0.0 
8.758262611811e-05 8.470225568410e-03 0.0 
0.0 0.0 -1.285499913836e-03 
-6.550628368552e-04 1.846091374224e-04 0.0 
1.846091374224e-04 4.205898052995e-03 0.0 
0.0 0.0 -6.542748834104e-04 
-6.160633711768e-04 -1.792561832397e-04 0.0 
-1.792561832397e-04 4.023102319788e-03 0.0 
0.0 0.0 -6.153450468602e-04 
-1.283033344166e-03 -3.678337033124e-05 0.0 
-3.678337033124e-05 8.728014596535e-03 0.0 
0.0 0.0 -1.265535665854e-03 
0.0 0.0 0.0 
0.0 0.0 0.0 
0.0 0.0 0.0 
-3.991066787644e-04 2.089649564116e-04 0.0 
2.089649564116e-04 2.425063075378e-03 0.0 
0.0 0.0 -3.941707820484e-04 
-8.514609378297e-04 2.123409869842e-04 0.0 
2.123409869842e-04 5.409120252618e-03 0.0 
0.0 0.0 -8.329475646481e-04 
-5.302799896406e-04 -1.732779148191e-04 0.0 
-1.732779148191e-04 3.448271069514e-03 0.0 
0.0 0.0 -5.313546330462e-04 
-5.563051708704e-04 1.844916340551e-04 0.0 
1.844916340551e-04 3.512912497570e-03 0.0 
0.0 0.0 -5.546931404481e-04 
-3.415568276898e-04 -1.308054941934e-04 0.0 
-1.308054941934e-04 1.889315350148e-03 0.0 
0.0 0.0 -3.196518454468e-04 
-3.575678493770e-04 -1.815157908242e-04 0.0 
-1.815157908242e-04 2.264784395116e-03 0.0 
0.0 0.0 -3.528063275151e-04 
-8.197996438863e-04 -1.649479054574e-04 0.0 
-1.649479054574e-04 5.559213606059e-03 0.0 
0.0 0.0 -8.290026594306e-04 
-5.969369916122e-04 -1.873932769643e-04 0.0 
-1.873932769643e-04 3.888936242251e-03 0.0 
0.0 0.0 -5.962921515785e-04 
-4.656748358331e-04 1.698564554769e-04 0.0 
1.698564554769e-04 2.821912241395e-03 0.0 
0.0 0.0 -4.583473518421e-04 
-1.081990949278e-03 2.020316486048e-04 0.0 
2.020316486048e-04 7.171935137813e-03 0.0 
0.0 0.0 -1.077832113627e-03 
-1.313638198111e-03 -3.076900631441e-06 0.0 
-3.076900631441e-06 9.102354608081e-03 0.0 
0.0 0.0 -1.324978758543e-03 
-1.341095485501e-03 -7.065196985574e-05 0.0 
-7.065196985574e-05 9.093683970561e-03 0.0 
0.0 0.0 -1.320624918399e-03 
-6.462169745443e-04 1.855628978644e-04 0.0 
1.855628978644e-04 4.145339439620e-03 0.0 
0.0 0.0 -6.457427040837e-04 
-7.708747032324e-04 1.041783851500e-04 0.0 
1.041783851500e-04 4.982091340538e-03 0.0 
0.0 0.0 -7.877541558771e-04 
-8.769640556113e-05 6.178156653804e-05 0.0 
6.178156653804e-05 4.782988861832e-04 0.0 
0.0 0.0 -9.215226380795e-05 
-2.633621526955e-04 -2.203101725457e-04 0.0 
-2.203101725457e-04 1.488332341374e-03 0.0 
0.0 0.0 -2.565684379859e-04 
-2.684503074307e-04 -1.015967117788e-04 0.0 
-1.015967117788e-04 1.723596733048e-03 0.0 
0.0 0.0 -2.726290318112e-04 
-2.937144985059e-04 -1.893501464246e-04 0.0 
-1.893501464246e-04 1.729218905568e-03 0.0 
0.0 0.0 -2.902597925154e-04 
-9.132607495649e-04 -1.959093978123e-04 0.0 
-1.959093978123e-04 6.073898974161e-03 0.0 
0.0 0.0 -9.116044729693e-04 
-5.464820601322e-04 1.827990156846e-04 0.0 
1.827990156846e-04 3.450683961523e-03 0.0 
0.0 0.0 -5.459662534218e-04 
-5.889189184564e-04 -1.828572680718e-04 0.0 
-1.828572680718e-04 3.834736165113e-03 0.0 
0.0 0.0 -5.879858557453e-04 
-1.839870051548e-04 -1.451969745408e-04 0.0 
-1.451969745408e-04 1.010884541365e-03 0.0 
0.0 0.0 -1.607067486349e-04 
-1.189299804196e-03 3.101361533276e-05 0.0 
3.101361533276e-05 7.702189552740e-03 0.0 
0.0 0.0 -1.176327079312e-03 
-5.798619533544e-04 -1.808661495353e-04 0.0 
-1.808661495353e-04 3.773380412779e-03 0.0 
0.0 0.0 -5.792774345575e-04 
-1.207908513450e-03 1.972281472903e-04 0.0 
1.972281472903e-04 8.083641670665e-03 0.0 
0.0 0.0 -1.212957849656e-03 
-1.102884565855e-03 -1.433383463998e-04 0.0 
-1.433383463998e-04 7.411218118786e-03 0.0 
0.0 0.0 -1.117460450001e-03 
-1.327052993259e-03 5.039016474574e-05 0.0 
5.039016474574e-05 9.117456944274e-03 0.0 
0.0 0.0 -1.319418651152e-03 
-1.323160438534e-03 4.113209317417e-05 0.0 
4.113209317417e-05 9.111232254039e-03 0.0 
0.0 0.0 -1.324849633189e-03 
-8.429214028197e-04 1.551938721599e-04 0.0 
1.551938721599e-04 5.556754036543e-03 0.0 
0.0 0.0 -8.315138651140e-04 
-6.054182665991e-04 -1.761595556497e-04 0.0 
-1.761595556497e-04 3.962557590825e-03 0.0 
0.0 0.0 -6.063493599946e-04 
-3.773225086312e-04 1.540184482811e-04 0.0 
1.540184482811e-04 2.369883884178e-03 0.0 
0.0 0.0 -3.884917441798e-04 
-6.362526417499e-04 1.880822988670e-04 0.0 
1.880822988670e-04 4.081289822239e-03 0.0 
0.0 0.0 -6.367902913543e-04 
-1.343328350294e-03 -2.242232029301e-05 0.0 
-2.242232029301e-05 8.871791449146e-03 0.0 
0.0 0.0 -1.343328350294e-03 
-1.941237960476e-04 -2.080169990243e-04 0.0 
-2.080169990243e-04 1.015510769409e-03 0.0 
0.0 0.0 -1.893367542308e-04 
-2.245210048569e-04 -1.692984650136e-04 0.0 
-1.692984650136e-04 1.259236592297e-03 0.0 
0.0 0.0 -2.228547875044e-04 
-1.167115373107e-03 -1.495116845835e-04 0.0 
-1.495116845835e-04 7.791699083978e-03 0.0 
0.0 0.0 -1.156027955174e-03 
-7.604196719999e-04 1.094016003118e-05 0.0 
1.094016003118e-05 5.257478836262e-03 0.0 
0.0 0.0 -7.715229432315e-04 
-1.218850929264e-03 2.058644676408e-04 0.0 
2.058644676408e-04 8.144525734943e-03 0.0 
0.0 0.0 -1.219279742240e-03 
-1.071479820018e-03 -2.036323164842e-04 0.0 
-2.036323164842e-04 7.177512432405e-03 0.0 
0.0 0.0 -1.069611963270e-03 
-1.173316210076e-03 1.967322517175e-04 0.0 
1.967322517175e-04 7.835584524311e-03 0.0 
0.0 0.0 -1.175036385391e-03 
-1.118458415257e-03 -2.207277967068e-04 0.0 
-2.207277967068e-04 7.508134580034e-03 0.0 
0.0 0.0 -1.113576918908e-03 
-8.412072480000e-04 1.822595111316e-04 0.0 
1.822595111316e-04 5.484810982914e-03 0.0 
0.0 0.0 -8.542750875041e-04 
-4.656106938285e-04 -1.713235230467e-04 0.0 
-1.713235230467e-04 3.001776381545e-03 0.0 
0.0 0.0 -4.674384380614e-04 
-4.697017346435e-04 1.848050694814e-04 0.0 
1.848050694814e-04 2.920597782787e-03 0.0 
0.0 0.0 -4.715697005044e-04 
-9.776991098989e-04 1.861960494422e-04 0.0 
1.861960494422e-04 6.549106674112e-03 0.0 
0.0 0.0 -9.963059934037e-04 
-1.137349181097e-03 -2.318464835195e-04 0.0 
-2.318464835195e-04 7.668040183404e-03 0.0 
0.0 0.0 -1.142506377625e-03 
-7.233340711098e-04 3.952444560700e-05 0.0 
3.952444560700e-05 4.569127107640e-03 0.0 
0.0 0.0 -7.345222264051e-04 
-7.670993363219e-04 9.419055026096e-06 0.0 
9.419055026096e-06 5.242908179151e-03 0.0 
0.0 0.0 -7.676068998053e-04 
-8.154774784067e-04 -6.428956903028e-05 0.0 
-6.428956903028e-05 5.577286133226e-03 0.0 
0.0 0.0 -8.242303029217e-04 
-8.631530775677e-04 -2.400243606270e-04 0.0 
-2.400243606270e-04 5.666444636218e-03 0.0 
0.0 0.0 -8.467401457521e-04 
-2.520894261651e-04 1.671748571763e-04 0.0 
1.671748571763e-04 1.368563506489e-03 0.0 
0.0 0.0 -2.397236108670e-04 
-4.305788114654e-04 1.772776305973e-04 0.0 
1.772776305973e-04 2.648122848143e-03 0.0 
0.0 0.0 -4.335179088089e-04 
-1.282591321733e-03 8.806658448807e-05 0.0 
8.806658448807e-05 8.712918664304e-03 0.0 
0.0 0.0 -1.269310366786e-03 
-9.079866980401e-04 -2.164843828384e-04 0.0 
-2.164843828384e-04 6.067165963346e-03 0.0 
0.0 0.0 -9.150577043801e-04 
-1.296402067617e-03 1.470406796951e-04 0.0 
1.470406796951e-04 8.670707295504e-03 0.0 
0.0 0.0 -1.295322057178e-03 
-1.218050556302e-03 -1.658124096046e-04 0.0 
-1.658124096046e-04 8.300187960416e-03 0.0 
0.0 0.0 -1.215577547940e-03 
-1.017494637499e-03 -1.921677140224e-04 0.0 
-1.921677140224e-04 6.789033766802e-03 0.0 
0.0 0.0 -1.012565562176e-03 
-1.225370251071e-03 -1.480578321934e-04 0.0 
-1.480578321934e-04 8.186203026488e-03 0.0 
0.0 0.0 -1.214907066889e-03 
-6.126094482220e-04 1.499930831992e-04 0.0 
1.499930831992e-04 3.952786327319e-03 0.0 
0.0 0.0 -6.304496659280e-04 
-5.949124951754e-04 1.553635317388e-04 0.0 
1.553635317388e-04 3.760564116659e-03 0.0 
0.0 0.0 -5.666856080635e-04 
-1.240251440986e-03 1.401266566938e-04 0.0 
1.401266566938e-04 8.128078577480e-03 0.0 
0.0 0.0 -1.226851238141e-03 
-8.681779237155e-05 6.361966938885e-05 0.0 
6.361966938885e-05 2.955256088907e-04 0.0 
0.0 0.0 -8.944620707962e-05 
-3.994468741372e-04 -6.433767031829e-05 0.0 
-6.433767031829e-05 2.663800316761e-03 0.0 
0.0 0.0 -4.071640756073e-04 
-1.342405754833e-03 -1.165290042756e-05 0.0 
-1.165290042756e-05 8.847278625245e-03 0.0 
0.0 0.0 -1.342405754833e-03 
-2.282183831112e-04 -1.931913246920e-04 0.0 
-1.931913246920e-04 1.161289386138e-03 0.0 
0.0 0.0 -2.265802816212e-04 
-7.779914563104e-04 2.250840471903e-05 0.0 
2.250840471903e-05 4.976100040424e-03 0.0 
0.0 0.0 -7.870118106326e-04 
-1.235301241696e-03 -4.597267687938e-05 0.0 
-4.597267687938e-05 8.352549433381e-03 0.0 
0.0 0.0 -1.213461936786e-03 
-1.459711515859e-04 1.404844411891e-04 0.0 
1.404844411891e-04 8.229618690863e-04 0.0 
0.0 0.0 -1.562362318669e-04 
-9.769154927044e-05 -4.466849095833e-05 0.0 
-4.466849095833e-05 5.434427193163e-04 0.0 
0.0 0.0 -9.998712429274e-05 
-1.319764072821e-03 -1.098631366031e-04 0.0 
-1.098631366031e-04 9.086194502793e-03 0.0 
0.0 0.0 -1.324389858384e-03 
-7.180738404627e-04 8.985801949801e-05 0.0 
8.985801949801e-05 4.589525670273e-03 0.0 
0.0 0.0 -7.294542769151e-04 
-1.252043255197e-03 2.202164088421e-04 0.0 
2.202164088421e-04 8.539160480101e-03 0.0 
0.0 0.0 -1.261418349269e-03 
-1.248383097869e-03 1.112925246997e-05 0.0 
1.112925246997e-05 8.098072079257e-03 0.0 
0.0 0.0 -1.231858344535e-03 
-7.209227692000e-04 -5.510654877102e-05 0.0 
-5.510654877102e-05 4.575450219389e-03 0.0 
0.0 0.0 -7.289279708929e-04 
-7.887389828812e-05 -1.017830300424e-05 0.0 
-1.017830300424e-05 5.525360744204e-04 0.0 
0.0 0.0 -9.740250892546e-05 
-1.285641185581e-03 -9.669087187551e-05 0.0 
-9.669087187551e-05 8.464210102403e-03 0.0 
0.0 0.0 -1.284140717545e-03 
-2.442885352264e-04 -2.316128597143e-04 0.0 
-2.316128597143e-04 1.339036366238e-03 0.0 
0.0 0.0 -2.433545560381e-04 
-1.243394787484e-03 1.248159333678e-04 0.0 
1.248159333678e-04 8.192432393622e-03 0.0 
0.0 0.0 -1.232184317627e-03 
-1.343095105526e-03 -5.545911197481e-07 0.0 
-5.545911197481e-07 8.861098076103e-03 0.0 
0.0 0.0 -1.343095105526e-03 
-1.242483488035e-03 -1.476678323207e-04 0.0 
-1.476678323207e-04 8.164481882699e-03 0.0 
0.0 0.0 -1.225700354592e-03 
-3.053173479734e-04 1.995595624776e-04 0.0 
1.995595624776e-04 1.753941284829e-03 0.0 
0.0 0.0 -3.044764127662e-04 
-8.209179416884e-04 2.201614491102e-05 0.0 
2.201614491102e-05 5.636691216409e-03 0.0 
0.0 0.0 -8.279144014868e-04 
-6.598213782971e-04 -1.321361913960e-04 0.0 
-1.321361913960e-04 4.200506500251e-03 0.0 
0.0 0.0 -6.271989868224e-04 
-1.073009497438e-03 -2.016133877390e-04 0.0 
-2.016133877390e-04 7.190278966189e-03 0.0 
0.0 0.0 -1.077599360682e-03 
-1.322804215539e-03 -9.225806505937e-05 0.0 
-9.225806505937e-05 9.099454060859e-03 0.0 
0.0 0.0 -1.326997735404e-03 
-1.068734190482e-03 1.262415369069e-04 0.0 
1.262415369069e-04 7.132952485478e-03 0.0 
0.0 0.0 -1.061614915164e-03 
-1.337358869243e-03 1.104149306633e-04 0.0 
1.104149306633e-04 9.089889591753e-03 0.0 
0.0 0.0 -1.325870641008e-03 
-1.438532979018e-04 1.783345522892e-04 0.0 
1.783345522892e-04 7.477808023261e-04 0.0 
0.0 0.0 -1.715795432680e-04 
-1.271233225915e-03 -1.249047643759e-04 0.0 
-1.249047643759e-04 8.707020070809e-03 0.0 
0.0 0.0 -1.277656510522e-03 
-3.430844418630e-04 1.264811275403e-04 0.0 
1.264811275403e-04 2.040518818998e-03 0.0 
0.0 0.0 -3.355960889912e-04 
-2.267326677211e-04 8.751186841265e-05 0.0 
8.751186841265e-05 1.117406703756e-03 0.0 
0.0 0.0 -2.298118214877e-04 
-1.280901782935e-03 -1.009695952617e-04 0.0 
-1.009695952617e-04 8.719202259105e-03 0.0 
0.0 0.0 -1.270335377537e-03 
-1.269212628500e-03 -5.703432125204e-05 0.0 
-5.703432125204e-05 8.728165820739e-03 0.0 
0.0 0.0 -1.270603359501e-03 
-1.290208848841e-03 -1.659042855401e-04 0.0 
-1.659042855401e-04 8.665328582140e-03 0.0 
0.0 0.0 -1.289850838753e-03 
-7.717572245572e-04 2.050611335138e-04 0.0 
2.050611335138e-04 5.043252484980e-03 0.0 
0.0 0.0 -7.762633204683e-04 
-8.522136042615e-04 2.002639843872e-04 0.0 
2.002639843872e-04 5.495330100218e-03 0.0 
0.0 0.0 -8.489529362435e-04 
-3.165071740037e-04 -2.111753426379e-04 0.0 
-2.111753426379e-04 1.888408226457e-03 0.0 
0.0 0.0 -3.134500106614e-04 
-1.262455248765e-03 -8.092303513725e-05 0.0 
-8.092303513725e-05 8.720636871640e-03 0.0 
0.0 0.0 -1.273041473476e-03 
-5.172296523503e-04 1.719980447266e-04 0.0 
1.719980447266e-04 3.374654497821e-03 0.0 
0.0 0.0 -5.357483711987e-04 
-1.781924616035e-04 -1.691974037748e-04 0.0 
-1.691974037748e-04 1.076416545497e-03 0.0 
0.0 0.0 -2.114276361914e-04 
-1.103945436021e-03 1.858035491712e-04 0.0 
1.858035491712e-04 7.419563175353e-03 0.0 
0.0 0.0 -1.110141529071e-03 
-7.006483677025e-04 -2.017256137277e-05 0.0 
-2.017256137277e-05 4.817249357728e-03 0.0 
0.0 0.0 -7.096328662732e-04 
-1.236750495474e-03 1.522707816399e-04 0.0 
1.522707816399e-04 8.254648441428e-03 0.0 
0.0 0.0 -1.237729719596e-03 
-1.313320395878e-03 -1.861843894466e-04 0.0 
-1.861843894466e-04 8.989774958204e-03 0.0 
0.0 0.0 -1.321509982054e-03 
-1.343732204276e-03 -8.189586176291e-06 0.0 
-8.189586176291e-06 8.864848236539e-03 0.0 
0.0 0.0 -1.343732204276e-03 
-2.113977103276e-05 -6.116564405319e-05 0.0 
-6.116564405319e-05 2.124468673954e-04 0.0 
0.0 0.0 -4.293446239042e-05 
-1.369574587126e-05 5.682883385809e-05 0.0 
5.682883385809e-05 6.671587994240e-05 0.0 
0.0 0.0 -2.272291460191e-05 
-7.269437089926e-04 -1.696449694041e-04 0.0 
-1.696449694041e-04 4.683701017331e-03 0.0 
0.0 0.0 -7.318233512793e-04 
-7.351939856936e-04 2.731264159549e-05 0.0 
2.731264159549e-05 4.828327016366e-03 0.0 
0.0 0.0 -7.096011290571e-04 
-1.343732204276e-03 1.179896387127e-05 0.0 
1.179896387127e-05 8.857063084495e-03 0.0 
0.0 0.0 -1.343732204276e-03 
-1.309711018183e-03 1.830632258289e-04 0.0 
1.830632258289e-04 8.985110969777e-03 0.0 
0.0 0.0 -1.321509982054e-03 
-7.839023714454e-05 1.530759167140e-04 0.0 
1.530759167140e-04 4.984351001574e-04 0.0 
0.0 0.0 -9.787861857360e-05 
0.0 0.0 0.0 
0.0 0.0 0.0 
0.0 0.0 0.0 
-1.240428741391e-03 1.261681395074e-04 0.0 
1.261681395074e-04 8.137366373926e-03 0.0 
0.0 0.0 -1.230181737024e-03 
-1.207075559038e-03 2.460354552528e-04 0.0 
2.460354552528e-04 8.184062138694e-03 0.0 
0.0 0.0 -1.209364118140e-03 
-2.516969952369e-04 -1.461428108360e-04 0.0 
-1.461428108360e-04 1.687102641450e-03 0.0 
0.0 0.0 -2.712674790923e-04 
-1.245262172265e-03 -1.311938195304e-04 0.0 
-1.311938195304e-04 8.282968492479e-03 0.0 
0.0 0.0 -1.240191881334e-03 
-8.815159713630e-04 -5.214653451830e-05 0.0 
-5.214653451830e-05 5.742054567636e-03 0.0 
0.0 0.0 -8.888375990210e-04 
-7.830091470663e-04 -1.948066662001e-04 0.0 
-1.948066662001e-04 5.082527524584e-03 0.0 
0.0 0.0 -7.610796297342e-04 
-9.561048422874e-04 9.798803026410e-05 0.0 
9.798803026410e-05 6.427121213030e-03 0.0 
0.0 0.0 -9.400782610458e-04 
-2.481095332731e-04 1.496361777490e-04 0.0 
1.496361777490e-04 1.515795619755e-03 0.0 
0.0 0.0 -2.626203152100e-04 
-1.010907895305e-03 -2.030439122721e-04 0.0 
-2.030439122721e-04 6.762603191826e-03 0.0 
0.0 0.0 -1.011657465016e-03 
-2.096777059838e-04 3.248157080114e-05 0.0 
3.248157080114e-05 1.393633952846e-03 0.0 
0.0 0.0 -2.181484037039e-04 
-6.792638343957e-04 -1.892634513453e-04 0.0 
-1.892634513453e-04 4.524953282507e-03 0.0 
0.0 0.0 -6.997415131527e-04 
-1.228132135990e-03 1.125898781112e-04 0.0 
1.125898781112e-04 8.215057351811e-03 0.0 
0.0 0.0 -1.240519096027e-03 
-1.189706231828e-03 -2.131151468577e-04 0.0 
-2.131151468577e-04 8.025000395541e-03 0.0 
0.0 0.0 -1.191726112421e-03 
-7.376716687014e-04 1.103821202308e-04 0.0 
1.103821202308e-04 4.884590449632e-03 0.0 
0.0 0.0 -7.690942022927e-04 
-8.794968587204e-04 -1.839618802493e-04 0.0 
-1.839618802493e-04 5.894695197839e-03 0.0 
0.0 0.0 -8.745659502648e-04 
-1.233301431487e-03 8.160038213142e-05 0.0 
8.160038213142e-05 8.358065301524e-03 0.0 
0.0 0.0 -1.217119345309e-03 
-1.141574387304e-03 -2.166019370136e-04 0.0 
-2.166019370136e-04 7.685657586840e-03 0.0 
0.0 0.0 -1.140944809982e-03 
-1.081193771009e-03 -2.086711321348e-04 0.0 
-2.086711321348e-04 7.235399972245e-03 0.0 
0.0 0.0 -1.076426999079e-03 
-7.306608964195e-04 1.032073657573e-05 0.0 
1.032073657573e-05 4.566565227243e-03 0.0 
0.0 0.0 -7.312123441678e-04 
-9.778650762194e-04 -2.118658920496e-04 0.0 
-2.118658920496e-04 6.529297964408e-03 0.0 
0.0 0.0 -9.763781674015e-04 
-1.237478436388e-03 1.224174650820e-04 0.0 
1.224174650820e-04 8.159420566097e-03 0.0 
0.0 0.0 -1.231404929774e-03 
-4.267545194732e-04 1.185171473708e-04 0.0 
1.185171473708e-04 2.513528635352e-03 0.0 
0.0 0.0 -4.167967844001e-04 
-9.921663346532e-05 -4.441075622368e-05 0.0 
-4.441075622368e-05 6.032903446550e-04 0.0 
0.0 0.0 -1.015157820784e-04 
-1.196520802042e-03 -1.451432414406e-04 0.0 
-1.451432414406e-04 7.939655555732e-03 0.0 
0.0 0.0 -1.185975225609e-03 
-1.126502929027e-03 1.777561321906e-04 0.0 
1.777561321906e-04 7.477268686063e-03 0.0 
0.0 0.0 -1.123538223191e-03 
-2.078344596569e-04 -1.080252995940e-04 0.0 
-1.080252995940e-04 1.116725601039e-03 0.0 
0.0 0.0 -2.307047010092e-04 
-9.934730169899e-04 -1.599306293238e-04 0.0 
-1.599306293238e-04 6.730831912440e-03 0.0 
0.0 0.0 -9.893338170986e-04 
-1.294485487258e-03 -4.211486433476e-05 0.0 
-4.211486433476e-05 8.454062998903e-03 0.0 
0.0 0.0 -1.282739585886e-03 
-1.188427124013e-03 1.207612322075e-04 0.0 
1.207612322075e-04 7.845258460139e-03 0.0 
0.0 0.0 -1.182073443778e-03 
-1.229516741237e-03 -2.922411445840e-05 0.0 
-2.922411445840e-05 8.351941012254e-03 0.0 
0.0 0.0 -1.215129606110e-03 
-9.509005340635e-04 -2.110936823322e-04 0.0 
-2.110936823322e-04 6.286467037558e-03 0.0 
0.0 0.0 -9.537126495859e-04 
-9.113657589557e-05 5.031862656050e-05 0.0 
5.031862656050e-05 3.206408784025e-04 0.0 
0.0 0.0 -9.835898678870e-05 
-3.211470424961e-04 1.012653271346e-04 0.0 
1.012653271346e-04 1.877306534774e-03 0.0 
0.0 0.0 -3.212443691966e-04 
-3.868345573261e-04 -2.158079183948e-04 0.0 
-2.158079183948e-04 2.373525116556e-03 0.0 
0.0 0.0 -3.834349432650e-04 
-8.152074782471e-04 3.282099269051e-05 0.0 
3.282099269051e-05 5.366100763401e-03 0.0 
0.0 0.0 -8.471429939415e-04 
-9.776446367943e-04 2.161934057613e-04 0.0 
2.161934057613e-04 6.478555405996e-03 0.0 
0.0 0.0 -9.781602908260e-04 
-1.243353399719e-03 -1.638877946273e-04 0.0 
-1.638877946273e-04 8.293874922919e-03 0.0 
0.0 0.0 -1.236541257690e-03 
-1.282980388071e-03 6.834535406588e-05 0.0 
6.834535406588e-05 8.446722746771e-03 0.0 
0.0 0.0 -1.282325209426e-03 
-1.534406041715e-04 -3.090119355694e-05 0.0 
-3.090119355694e-05 9.940803017300e-04 0.0 
0.0 0.0 -1.581060378624e-04 
-1.515974677088e-04 5.347591743209e-05 0.0 
5.347591743209e-05 9.499659581657e-04 0.0 
0.0 0.0 -1.538280640939e-04 
-2.429997348883e-04 2.036444813407e-04 0.0 
2.036444813407e-04 1.479432396381e-03 0.0 
0.0 0.0 -2.585189829319e-04 
-1.003671688667e-03 2.798952750374e-04 0.0 
2.798952750374e-04 6.711627995117e-03 0.0 
0.0 0.0 -1.019242131223e-03 
-5.082641639813e-04 -1.820796698733e-04 0.0 
-1.820796698733e-04 3.225266612081e-03 0.0 
0.0 0.0 -4.953283059016e-04 
-1.242349672414e-03 -1.508059351584e-04 0.0 
-1.508059351584e-04 8.332022443394e-03 0.0 
0.0 0.0 -1.241298427557e-03 
-2.469827383889e-04 -1.734013788771e-04 0.0 
-1.734013788771e-04 1.596418989747e-03 0.0 
0.0 0.0 -2.623907620756e-04 
-1.225402262687e-03 9.684378834706e-05 0.0 
9.684378834706e-05 8.090992196229e-03 0.0 
0.0 0.0 -1.221152601860e-03 
-8.136377301276e-04 1.789287431362e-04 0.0 
1.789287431362e-04 5.446005510680e-03 0.0 
0.0 0.0 -8.343732341398e-04 
-1.267827958096e-03 1.379445383964e-06 0.0 
1.379445383964e-06 8.495733417342e-03 0.0 
0.0 0.0 -1.286815605725e-03 
-1.109817670536e-03 -2.343370330106e-04 0.0 
-2.343370330106e-04 7.482609533300e-03 0.0 
0.0 0.0 -1.111121968474e-03 
-8.202418952196e-04 -8.830664857145e-05 0.0 
-8.830664857145e-05 5.379056120884e-03 0.0 
0.0 0.0 -8.465141837044e-04 
-1.270879538861e-03 -4.852122928063e-05 0.0 
-4.852122928063e-05 8.726187780208e-03 0.0 
0.0 0.0 -1.269142588751e-03 
-1.282679052200e-03 7.789633126417e-05 0.0 
7.789633126417e-05 8.731686959293e-03 0.0 
0.0 0.0 -1.272727265576e-03 
-1.257303152988e-03 6.224102812164e-05 0.0 
6.224102812164e-05 8.713074082016e-03 0.0 
0.0 0.0 -1.271339345674e-03 
-1.734083018693e-04 1.988310073063e-04 0.0 
1.988310073063e-04 9.960919397328e-04 0.0 
0.0 0.0 -1.914719991171e-04 
-1.218228496203e-03 1.745230460975e-04 0.0 
1.745230460975e-04 8.126336924162e-03 0.0 
0.0 0.0 -1.218309553141e-03 
-1.287690608828e-03 2.935127504917e-05 0.0 
2.935127504917e-05 8.450884291377e-03 0.0 
0.0 0.0 -1.286645293131e-03 
-1.215292120313e-03 -1.048319889730e-04 0.0 
-1.048319889730e-04 8.264175100215e-03 0.0 
0.0 0.0 -1.211735819529e-03 
-1.131460186021e-03 2.249929147143e-04 0.0 
2.249929147143e-04 7.604741910755e-03 0.0 
0.0 0.0 -1.143254064081e-03 
-1.342665167303e-03 2.462626238338e-05 0.0 
2.462626238338e-05 8.842656329326e-03 0.0 
0.0 0.0 -1.342665167303e-03 
-1.082512435834e-03 2.096972143521e-04 0.0 
2.096972143521e-04 7.169850347795e-03 0.0 
0.0 0.0 -1.079065255302e-03 
0.0 0.0 0.0 
0.0 0.0 0.0 
0.0 0.0 0.0 
-2.601109826526e-04 -2.071691114659e-04 0.0 
-2.071691114659e-04 1.415839820494e-03 0.0 
0.0 0.0 -2.423809483696e-04 
-1.192508312149e-03 -1.779210084662e-04 0.0 
-1.779210084662e-04 7.961128754995e-03 0.0 
0.0 0.0 -1.176936364471e-03 
-8.685626322098e-04 1.582275665783e-04 0.0 
1.582275665783e-04 5.835782021141e-03 0.0 
0.0 0.0 -8.884613587993e-04 
-1.209889234857e-03 -1.955325308150e-04 0.0 
-1.955325308150e-04 8.188769710119e-03 0.0 
0.0 0.0 -1.221994126432e-03 
-1.170503729369e-03 -2.209983450852e-04 0.0 
-2.209983450852e-04 7.908922597115e-03 0.0 
0.0 0.0 -1.177009544428e-03 
-1.281372639421e-03 -4.882657488488e-05 0.0 
-4.882657488488e-05 8.503605837596e-03 0.0 
0.0 0.0 -1.292249833993e-03 
-1.060591200895e-03 2.356899093670e-04 0.0 
2.356899093670e-04 7.243032913762e-03 0.0 
0.0 0.0 -1.085521458831e-03 
-1.295424128128e-03 -1.344853644126e-05 0.0 
-1.344853644126e-05 8.497735658802e-03 0.0 
0.0 0.0 -1.288973456333e-03 
-1.240273266268e-03 -1.643959908807e-04 0.0 
-1.643959908807e-04 8.288290248441e-03 0.0 
0.0 0.0 -1.233322439334e-03 
-1.236328969747e-03 1.681015718690e-04 0.0 
1.681015718690e-04 8.249087621686e-03 0.0 
0.0 0.0 -1.235043566395e-03 
-5.200406812990e-04 -1.166757664341e-04 0.0 
-1.166757664341e-04 3.385215487565e-03 0.0 
0.0 0.0 -5.104964012366e-04 
-1.293388642315e-03 -2.007549829058e-05 0.0 
-2.007549829058e-05 9.114239519402e-03 0.0 
0.0 0.0 -1.325641941534e-03 
-7.485652657637e-04 1.433772634919e-05 0.0 
1.433772634919e-05 5.220751556451e-03 0.0 
0.0 0.0 -7.662153309038e-04 
-1.203353616891e-03 -1.846454248329e-04 0.0 
-1.846454248329e-04 8.194731648824e-03 0.0 
0.0 0.0 -1.217406395242e-03 
-1.473848137133e-04 -7.608252406758e-05 0.0 
-7.608252406758e-05 7.058205605385e-04 0.0 
0.0 0.0 -1.761976461317e-04 
-1.139762521842e-03 -1.242981094265e-04 0.0 
-1.242981094265e-04 7.914367669760e-03 0.0 
0.0 0.0 -1.163202487293e-03 
-9.847139031094e-04 -2.927819349531e-05 0.0 
-2.927819349531e-05 6.802999958382e-03 0.0 
0.0 0.0 -9.926133712568e-04 
-1.690893902523e-04 -1.078602895255e-04 0.0 
-1.078602895255e-04 9.402080020993e-04 0.0 
0.0 0.0 -1.628620303624e-04 
-2.985531882030e-04 -2.240216763461e-04 0.0 
-2.240216763461e-04 1.642242196626e-03 0.0 
0.0 0.0 -2.736924314970e-04 
-1.111715101682e-03 2.179506947960e-04 0.0 
2.179506947960e-04 7.377812155317e-03 0.0 
0.0 0.0 -1.107581195644e-03 
-1.292896746142e-03 -1.945315972067e-05 0.0 
-1.945315972067e-05 8.475231004044e-03 0.0 
0.0 0.0 -1.285368862661e-03 
-1.232559661219e-03 -1.674576161592e-04 0.0 
-1.674576161592e-04 8.301292046622e-03 0.0 
0.0 0.0 -1.223917301752e-03 
-1.254461742942e-03 2.341900515223e-04 0.0 
2.341900515223e-04 8.559507473306e-03 0.0 
0.0 0.0 -1.264779455601e-03 
-8.799678260909e-04 2.461510225769e-04 0.0 
2.461510225769e-04 5.779390736262e-03 0.0 
0.0 0.0 -8.807565902733e-04 
-9.459318500233e-05 -9.224025008730e-06 0.0 
-9.224025008730e-06 5.593643268762e-04 0.0 
0.0 0.0 -1.022500568216e-04 
-1.184228338263e-04 1.932393774192e-04 0.0 
1.932393774192e-04 8.360742900508e-04 0.0 
0.0 0.0 -1.527632439532e-04 
-1.485774023437e-04 2.057472114591e-04 0.0 
2.057472114591e-04 4.943058849460e-04 0.0 
0.0 0.0 -1.262112556552e-04 
-1.889957332613e-04 -1.720729644020e-04 0.0 
-1.720729644020e-04 1.198989706623e-03 0.0 
0.0 0.0 -2.080055930776e-04 
-2.412796962869e-05 1.151125546851e-04 0.0 
1.151125546851e-04 1.259903231300e-04 0.0 
0.0 0.0 -4.365529435769e-05 
-6.564338874859e-04 1.298407551403e-04 0.0 
1.298407551403e-04 4.516305724261e-03 0.0 
0.0 0.0 -6.753304527203e-04 
-1.206082523732e-03 1.933788045722e-04 0.0 
1.933788045722e-04 8.180269090487e-03 0.0 
0.0 0.0 -1.222305993939e-03 
-1.222663318362e-03 1.753368055927e-04 0.0 
1.753368055927e-04 8.227435580213e-03 0.0 
0.0 0.0 -1.222833113937e-03 
-8.669258191564e-04 -1.817944922656e-04 0.0 
-1.817944922656e-04 5.844176131481e-03 0.0 
0.0 0.0 -8.826313165011e-04 
-6.040048573085e-04 -2.738267400019e-04 0.0 
-2.738267400019e-04 3.891940944486e-03 0.0 
0.0 0.0 -5.988529843847e-04 
-1.222353962553e-03 -1.610597655754e-04 0.0 
-1.610597655754e-04 8.260198203253e-03 0.0 
0.0 0.0 -1.221067908166e-03 
-1.203746913663e-03 2.278206710251e-04 0.0 
2.278206710251e-04 8.189793790316e-03 0.0 
0.0 0.0 -1.208702654310e-03 
-1.279025858978e-03 8.766018994021e-05 0.0 
8.766018994021e-05 8.741593274881e-03 0.0 
0.0 0.0 -1.272252409145e-03 
-1.242705220595e-03 -3.696381206599e-05 0.0 
-3.696381206599e-05 8.148871227430e-03 0.0 
0.0 0.0 -1.237422270938e-03 
-1.174009678725e-03 1.988566962408e-04 0.0 
1.988566962408e-04 7.816359446438e-03 0.0 
0.0 0.0 -1.171232062679e-03 
-1.672054198288e-04 9.231173188879e-05 0.0 
9.231173188879e-05 7.047171557342e-04 0.0 
0.0 0.0 -1.733042685746e-04 
-1.128922232108e-04 -1.541536460290e-04 0.0 
-1.541536460290e-04 8.181726866748e-04 0.0 
0.0 0.0 -1.441637530793e-04 
-1.232867888531e-03 -1.583409372845e-04 0.0 
-1.583409372845e-04 8.274546276780e-03 0.0 
0.0 0.0 -1.223662873675e-03 
-1.809471586290e-04 2.732513028338e-05 0.0 
2.732513028338e-05 7.150332979246e-04 0.0 
0.0 0.0 -1.761523314621e-04 
-2.090612244597e-04 2.679772699566e-04 0.0 
2.679772699566e-04 1.034188635190e-03 0.0 
0.0 0.0 -1.933333333332e-04 
-1.375589269253e-04 1.895212040583e-04 0.0 
1.895212040583e-04 6.272580356086e-04 0.0 
0.0 0.0 -1.476920362276e-04 
-1.616726848356e-04 -1.838984361800e-04 0.0 
-1.838984361800e-04 7.928606863594e-04 0.0 
0.0 0.0 -1.580296812506e-04 
-1.300434401275e-03 -1.024873491582e-05 0.0 
-1.024873491582e-05 8.484073046421e-03 0.0 
0.0 0.0 -1.288571152055e-03 
-1.296196106557e-03 -7.581226292436e-05 0.0 
-7.581226292436e-05 8.500775829958e-03 0.0 
0.0 0.0 -1.290113636706e-03 
-1.257797356609e-03 1.887508465158e-04 0.0 
1.887508465158e-04 8.298916238051e-03 0.0 
0.0 0.0 -1.236907757659e-03 
-1.306315150684e-03 9.008107202588e-08 0.0 
9.008107202588e-08 8.523760771155e-03 0.0 
0.0 0.0 -1.292605224168e-03 
-1.191514572737e-03 -1.523248627148e-04 0.0 
-1.523248627148e-04 7.914354314681e-03 0.0 
0.0 0.0 -1.176879138244e-03 
-9.009707231897e-04 2.647575106000e-04 0.0 
2.647575106000e-04 6.062013665177e-03 0.0 
0.0 0.0 -9.170130443517e-04 
-1.345069444888e-03 -1.224359494155e-05 0.0 
-1.224359494155e-05 8.872525889838e-03 0.0 
0.0 0.0 -1.345069444888e-03 
-3.168516228751e-04 -1.142391801259e-04 0.0 
-1.142391801259e-04 2.071683762697e-03 0.0 
0.0 0.0 -3.330755757467e-04 
-6.832796589934e-04 2.794415003479e-06 0.0 
2.794415003479e-06 4.812526626932e-03 0.0 
0.0 0.0 -7.083073883397e-04 
-1.983733277546e-04 6.070841311558e-05 0.0 
6.070841311558e-05 1.303830959688e-03 0.0 
0.0 0.0 -2.086331215474e-04 
-8.213992574581e-05 4.728700015121e-05 0.0 
4.728700015121e-05 2.774119614064e-04 0.0 
0.0 0.0 -8.368801528309e-05 
-1.296331570259e-03 3.985530997241e-05 0.0 
3.985530997241e-05 9.108859965209e-03 0.0 
0.0 0.0 -1.323850096553e-03 
-7.636750152913e-04 -5.943479672422e-05 0.0 
-5.943479672422e-05 5.297273347084e-03 0.0 
0.0 0.0 -7.731261162940e-04 
-1.898896061389e-04 2.668881093009e-05 0.0 
2.668881093009e-05 1.324161255717e-03 0.0 
0.0 0.0 -2.115341463249e-04 
-6.766397334691e-04 2.335959289239e-04 0.0 
2.335959289239e-04 4.262192913851e-03 0.0 
0.0 0.0 -6.570498647039e-04 
-1.270388897102e-03 1.791394562199e-05 0.0 
1.791394562199e-05 8.744228481245e-03 0.0 
0.0 0.0 -1.276804206569e-03 
-1.238351285998e-03 -1.647535430714e-04 0.0 
-1.647535430714e-04 8.287386498838e-03 0.0 
0.0 0.0 -1.228616961883e-03 
-1.299245503170e-03 -6.943481147167e-06 0.0 
-6.943481147167e-06 8.501206471558e-03 0.0 
0.0 0.0 -1.289666537713e-03 
-4.674755872492e-04 -1.441717405802e-04 0.0 
-1.441717405802e-04 3.063014272079e-03 0.0 
0.0 0.0 -4.695399720401e-04 
-1.457689473944e-04 -1.575597281071e-04 0.0 
-1.575597281071e-04 7.498700715420e-04 0.0 
0.0 0.0 -1.553221962317e-04 
-1.285913149297e-03 -1.165123631474e-04 0.0 
-1.165123631474e-04 8.730182768681e-03 0.0 
0.0 0.0 -1.273144391159e-03 
-1.298815958390e-03 2.309086979367e-05 0.0 
2.309086979367e-05 9.107151826923e-03 0.0 
0.0 0.0 -1.325353038101e-03 
-1.331981550421e-03 -1.771381069907e-05 0.0 
-1.771381069907e-05 9.126640523196e-03 0.0 
0.0 0.0 -1.323783523096e-03 
-7.660500434480e-04 1.313542510445e-04 0.0 
1.313542510445e-04 5.035539676325e-03 0.0 
0.0 0.0 -7.673431308700e-04 
-1.235780327313e-03 -4.526587612995e-06 0.0 
-4.526587612995e-06 8.115023081303e-03 0.0 
0.0 0.0 -1.231867668451e-03 
-1.953177882174e-04 -9.491085164949e-05 0.0 
-9.491085164949e-05 1.122964739939e-03 0.0 
0.0 0.0 -2.324200178898e-04 
-1.257584227981e-03 1.660686322992e-04 0.0 
1.660686322992e-04 8.340961353616e-03 0.0 
0.0 0.0 -1.241575510934e-03 
-8.170589745739e-05 -1.080295024441e-05 0.0 
-1.080295024441e-05 2.725451190137e-04 0.0 
0.0 0.0 -8.178823780987e-05 
-1.306295822847e-03 -1.062422533943e-05 0.0 
-1.062422533943e-05 8.506048519693e-03 0.0 
0.0 0.0 -1.290713494763e-03 
-1.281136683790e-03 1.115018912951e-04 0.0 
1.115018912951e-04 8.702368548138e-03 0.0 
0.0 0.0 -1.268585396830e-03 
-8.090064620301e-05 -6.463780865666e-05 0.0 
-6.463780865666e-05 2.764343947345e-04 0.0 
0.0 0.0 -8.380017794208e-05 
-1.195471399734e-03 -1.402863971345e-04 0.0 
-1.402863971345e-04 7.949772117529e-03 0.0 
0.0 0.0 -1.178018281593e-03 
-1.028233004996e-03 -1.859683667160e-04 0.0 
-1.859683667160e-04 6.977936374390e-03 0.0 
0.0 0.0 -1.053859681778e-03 
-1.289487723471e-03 -3.059440868742e-05 0.0 
-3.059440868742e-05 8.509289695588e-03 0.0 
0.0 0.0 -1.289687241943e-03 
-1.346242744377e-03 -1.047219123713e-05 0.0 
-1.047219123713e-05 8.896960402449e-03 0.0 
0.0 0.0 -1.346242744377e-03 
-9.624911099011e-04 -2.997622866494e-04 0.0 
-2.997622866494e-04 6.376553401582e-03 0.0 
0.0 0.0 -9.627310317561e-04 
-1.292971171235e-03 1.345101664033e-05 0.0 
1.345101664033e-05 8.530939079912e-03 0.0 
0.0 0.0 -1.292510612804e-03 
-1.246115197789e-03 -1.533948492975e-04 0.0 
-1.533948492975e-04 8.325319025632e-03 0.0 
0.0 0.0 -1.236507170568e-03 
-1.007540401079e-03 8.825741490512e-06 0.0 
8.825741490512e-06 6.546914065101e-03 0.0 
0.0 0.0 -1.009625451247e-03 
-1.239682124839e-03 -1.433667225738e-05 0.0 
-1.433667225738e-05 8.247508066060e-03 0.0 
0.0 0.0 -1.247605899893e-03 
-5.439659078653e-04 -1.293203549736e-04 0.0 
-1.293203549736e-04 3.573225901759e-03 0.0 
0.0 0.0 -5.668522599723e-04 
-7.422257193807e-04 -2.384409418001e-05 0.0 
-2.384409418001e-05 4.553525172640e-03 0.0 
0.0 0.0 -7.287847301676e-04 
-1.250463763405e-03 1.444458806810e-04 0.0 
1.444458806810e-04 8.323970461278e-03 0.0 
0.0 0.0 -1.239219007812e-03 
-1.277932458032e-03 1.160268164509e-04 0.0 
1.160268164509e-04 8.651299276670e-03 0.0 
0.0 0.0 -1.286506427510e-03 
0.0 0.0 0.0 
0.0 0.0 0.0 
0.0 0.0 0.0 
-7.391696919878e-04 5.460045200431e-05 0.0 
5.460045200431e-05 4.572310123870e-03 0.0 
0.0 0.0 -7.284590636140e-04 
-1.282539678950e-03 -1.213229753822e-04 0.0 
-1.213229753822e-04 8.668193960288e-03 0.0 
0.0 0.0 -1.288082484959e-03 
-2.668000831652e-04 1.337975711291e-04 0.0 
1.337975711291e-04 1.552550494018e-03 0.0 
0.0 0.0 -2.765646858065e-04 
-1.244314668154e-03 3.253635918239e-05 0.0 
3.253635918239e-05 8.351662046828e-03 0.0 
0.0 0.0 -1.213252366005e-03 
-1.212806318798e-03 -1.378965673921e-04 0.0 
-1.378965673921e-04 8.296055804055e-03 0.0 
0.0 0.0 -1.225943235494e-03 
-1.276740815873e-03 -1.548809764645e-04 0.0 
-1.548809764645e-04 8.705204137735e-03 0.0 
0.0 0.0 -1.269037835114e-03 
-2.467774251027e-04 1.357300176719e-04 0.0 
1.357300176719e-04 1.515114324046e-03 0.0 
0.0 0.0 -2.647987373252e-04 
-1.846190942981e-04 5.164886539666e-05 0.0 
5.164886539666e-05 1.204409405256e-03 0.0 
0.0 0.0 -1.906575996298e-04 
-8.286327452832e-04 3.382951551479e-04 0.0 
3.382951551479e-04 5.239779904281e-03 0.0 
0.0 0.0 -7.939471195916e-04 
-1.139651880695e-03 8.042350541592e-05 0.0 
8.042350541592e-05 7.547907450212e-03 0.0 
0.0 0.0 -1.120841203304e-03 
6.762182202679e-06 4.922521689476e-06 0.0 
4.922521689476e-06 1.951722452603e-04 0.0 
0.0 0.0 -4.162563418682e-05 
-1.297631582513e-03 -2.970012333432e-05 0.0 
-2.970012333432e-05 8.538118962210e-03 0.0 
0.0 0.0 -1.292233508669e-03 
-9.496420787081e-04 3.842938930079e-05 0.0 
3.842938930079e-05 6.134769422350e-03 0.0 
0.0 0.0 -9.501928138396e-04 
-2.319252204205e-04 -1.666332425867e-04 0.0 
-1.666332425867e-04 1.531261602253e-03 0.0 
0.0 0.0 -2.601894661948e-04 
-9.182086126088e-04 6.576575429200e-05 0.0 
6.576575429200e-05 5.823601520571e-03 0.0 
0.0 0.0 -9.030544305944e-04 
-1.281338578084e-03 -1.215158440346e-04 0.0 
-1.215158440346e-04 8.719272788120e-03 0.0 
0.0 0.0 -1.271643562581e-03 
-8.361599263990e-04 -2.906502343770e-04 0.0 
-2.906502343770e-04 5.524370676589e-03 0.0 
0.0 0.0 -8.272804529249e-04 
-9.020963282834e-05 -1.875396024300e-04 0.0 
-1.875396024300e-04 3.251699178446e-04 0.0 
0.0 0.0 -8.776479312228e-05 
-5.428499226707e-04 1.403699556570e-04 0.0 
1.403699556570e-04 3.200704680557e-03 0.0 
0.0 0.0 -5.209635072927e-04 
-7.264103312116e-04 1.066181262773e-04 0.0 
1.066181262773e-04 4.783605203211e-03 0.0 
0.0 0.0 -7.319997505002e-04 
-8.379507721355e-04 3.506890823091e-04 0.0 
3.506890823091e-04 5.706153283525e-03 0.0 
0.0 0.0 -8.599999999992e-04 
-1.240777117315e-03 -1.439647034316e-04 0.0 
-1.439647034316e-04 8.329527072644e-03 0.0 
0.0 0.0 -1.232780192057e-03 
-7.376665261259e-04 -1.727241022974e-04 0.0 
-1.727241022974e-04 4.617911229220e-03 0.0 
0.0 0.0 -7.175509632692e-04 
-7.419227856638e-04 8.706574175029e-05 0.0 
8.706574175029e-05 4.905660942002e-03 0.0 
0.0 0.0 -7.596628988333e-04 
-1.725607618193e-04 1.274500514102e-04 0.0 
1.274500514102e-04 7.075820556251e-04 0.0 
0.0 0.0 -1.551230728613e-04 
-1.262496529076e-03 1.402132573888e-04 0.0 
1.402132573888e-04 8.306889500876e-03 0.0 
0.0 0.0 -1.240629869904e-03 
-1.209173557273e-03 1.621322078836e-04 0.0 
1.621322078836e-04 7.950506271258e-03 0.0 
0.0 0.0 -1.186362110037e-03 
-2.227791697187e-04 8.637930858051e-05 0.0 
8.637930858051e-05 1.298316331417e-03 0.0 
0.0 0.0 -2.411692657676e-04 
-1.261193436875e-03 -8.326695288083e-05 0.0 
-8.326695288083e-05 8.552285249105e-03 0.0 
0.0 0.0 -1.290349483557e-03 
-1.293807969811e-03 1.507292729990e-04 0.0 
1.507292729990e-04 8.596145003785e-03 0.0 
0.0 0.0 -1.290356026000e-03 
-7.679899519873e-04 -1.532356305286e-04 0.0 
-1.532356305286e-04 5.157074227234e-03 0.0 
0.0 0.0 -7.639788432047e-04 
-9.396515753232e-04 3.091234051286e-05 0.0 
3.091234051286e-05 6.333492038285e-03 0.0 
0.0 0.0 -9.358343396975e-04 
-7.048143922743e-04 1.638625948524e-04 0.0 
1.638625948524e-04 4.692848505541e-03 0.0 
0.0 0.0 -7.108516105536e-04 
-7.079275106751e-04 -1.102323501343e-04 0.0 
-1.102323501343e-04 4.802970885948e-03 0.0 
0.0 0.0 -7.343037059241e-04 
-7.780838486787e-04 -3.476295080742e-05 0.0 
-3.476295080742e-05 5.090202749114e-03 0.0 
0.0 0.0 -7.498489858827e-04 
-1.195445771267e-03 1.533301423155e-04 0.0 
1.533301423155e-04 7.905914704818e-03 0.0 
0.0 0.0 -1.180929064624e-03 
-2.101723265820e-04 1.264806835631e-04 0.0 
1.264806835631e-04 1.084941023670e-03 0.0 
0.0 0.0 -2.274637643159e-04 
-1.230210229403e-03 -1.391362873496e-04 0.0 
-1.391362873496e-04 8.342547987840e-03 0.0 
0.0 0.0 -1.217816617926e-03 
-8.387293036437e-04 7.281979356206e-05 0.0 
7.281979356206e-05 5.326094164637e-03 0.0 
0.0 0.0 -8.376728236383e-04 
-1.277193560845e-03 -1.460979146763e-04 0.0 
-1.460979146763e-04 8.720485292524e-03 0.0 
0.0 0.0 -1.272153791098e-03 
-1.202298967755e-03 -1.320050113913e-04 0.0 
-1.320050113913e-04 7.883588282291e-03 0.0 
0.0 0.0 -1.181257232468e-03 
-8.795673226242e-04 -5.945622150844e-05 0.0 
-5.945622150844e-05 6.031279173311e-03 0.0 
0.0 0.0 -8.902468719968e-04 
-1.211224544084e-03 1.194316264715e-04 0.0 
1.194316264715e-04 8.008237221313e-03 0.0 
0.0 0.0 -1.201032862555e-03 
-1.250364770317e-03 1.261810502704e-04 0.0 
1.261810502704e-04 8.225945087578e-03 0.0 
0.0 0.0 -1.236767197193e-03 
-1.292703020779e-03 -2.277677435045e-05 0.0 
-2.277677435045e-05 8.758650210356e-03 0.0 
0.0 0.0 -1.270271405117e-03 
-9.288790837536e-05 4.486310937796e-05 0.0 
4.486310937796e-05 3.125136257933e-04 0.0 
0.0 0.0 -9.412530746485e-05 
-1.213293100967e-03 -1.365137297491e-04 0.0 
-1.365137297491e-04 8.055302576551e-03 0.0 
0.0 0.0 -1.198686027802e-03 
-1.233489147260e-03 1.844031552690e-04 0.0 
1.844031552690e-04 8.360738709544e-03 0.0 
0.0 0.0 -1.227078865044e-03 
-1.296260318671e-04 -1.418501242849e-04 0.0 
-1.418501242849e-04 8.665050242929e-04 0.0 
0.0 0.0 -1.488313462956e-04 
-6.781230104505e-04 -1.171397059554e-04 0.0 
-1.171397059554e-04 4.366860208538e-03 0.0 
0.0 0.0 -6.841365946973e-04 
-7.630078233159e-05 -6.102099342081e-05 0.0 
-6.102099342081e-05 5.288528667040e-04 0.0 
0.0 0.0 -9.692352125104e-05 
-1.239413171189e-03 -1.038112219683e-04 0.0 
-1.038112219683e-04 8.427166424518e-03 0.0 
0.0 0.0 -1.230789928679e-03 
-2.076833249592e-04 -6.261843209978e-05 0.0 
-6.261843209978e-05 1.013831239598e-03 0.0 
0.0 0.0 -2.044444444444e-04 
-1.788038948924e-04 6.821749752275e-05 0.0 
6.821749752275e-05 1.192983609349e-03 0.0 
0.0 0.0 -1.822222222222e-04 
-2.036211527419e-04 -8.795319444250e-06 0.0 
-8.795319444250e-06 8.789143056274e-04 0.0 
0.0 0.0 -2.044444444444e-04 
-1.820956293791e-04 -2.195051890405e-06 0.0 
-2.195051890405e-06 1.184424563275e-03 0.0 
0.0 0.0 -1.822222222222e-04 
-2.045486756204e-04 -7.807516697383e-06 0.0 
-7.807516697383e-06 8.729904243923e-04 0.0 
0.0 0.0 -2.044444444444e-04 
-1.841733700580e-04 -7.537747569731e-06 0.0 
-7.537747569731e-06 1.185426221983e-03 0.0 
0.0 0.0 -1.822222222222e-04 
-2.058594228789e-04 -7.550202909558e-06 0.0 
-7.550202909558e-06 8.743109801693e-04 0.0 
0.0 0.0 -2.044444444444e-04 
-1.853348330819e-04 -7.350174181277e-06 0.0 
-7.350174181277e-06 1.186628156301e-03 0.0 
0.0 0.0 -1.822222222222e-04 
-2.068393165181e-04 -6.697133277686e-06 0.0 
-6.697133277686e-06 8.755732016861e-04 0.0 
0.0 0.0 -2.044444444444e-04 
-1.858838971392e-04 -6.445792054554e-06 0.0 
-6.445792054554e-06 1.187453301928e-03 0.0 
0.0 0.0 -1.822222222222e-04 
-2.074524879554e-04 -5.819543027001e-06 0.0 
-5.819543027001e-06 8.764057481272e-04 0.0 
0.0 0.0 -2.044444444444e-04 
-1.860548693825e-04 -5.585496093374e-06 0.0 
-5.585496093374e-06 1.187931856489e-03 0.0 
0.0 0.0 -1.822222222222e-04 
-2.077636738075e-04 -5.093561323751e-06 0.0 
-5.093561323751e-06 8.768776635671e-04 0.0 
0.0 0.0 -2.044444444444e-04 
-1.860044368873e-04 -4.886543789484e-06 0.0 
-4.886543789484e-06 1.188145092514e-03 0.0 
0.0 0.0 -1.822222222222e-04 
-2.078577458116e-04 -4.480498197513e-06 0.0 
-4.480498197513e-06 8.770877182794e-04 0.0 
0.0 0.0 -2.044444444444e-04 
-1.858320846713e-04 -4.277973623967e-06 0.0 
-4.277973623967e-06 1.188165765964e-03 0.0 
0.0 0.0 -1.822222222222e-04 
-2.078139092918e-04 -3.870510444127e-06 0.0 
-3.870510444127e-06 8.771179760665e-04 0.0 
0.0 0.0 -2.044444444444e-04 
-1.856014454919e-04 -3.640014698863e-06 0.0 
-3.640014698863e-06 1.188049283609e-03 0.0 
0.0 0.0 -1.822222222222e-04 
-2.076862457223e-04 -3.142098902064e-06 0.0 
-3.142098902064e-06 8.770288433611e-04 0.0 
0.0 0.0 -2.044444444444e-04 
-1.853579012655e-04 -2.851868720268e-06 0.0 
-2.851868720268e-06 1.187845145957e-03 0.0 
0.0 0.0 -1.822222222222e-04 
-2.444748351668e-04 -1.415311215119e-04 0.0 
-1.415311215119e-04 1.178487621581e-03 0.0 
0.0 0.0 -1.915759637188e-04 
-2.075168212953e-04 -2.182083211198e-06 0.0 
-2.182083211198e-06 8.768728875628e-04 0.0 
0.0 0.0 -2.044444444444e-04 
-1.851458194564e-04 -1.819614798008e-06 0.0 
-1.819614798008e-06 1.187617141541e-03 0.0 
0.0 0.0 -1.822222222222e-04 
-2.073501627496e-04 -9.052203271890e-07 0.0 
-9.052203271890e-07 8.767160924066e-04 0.0 
0.0 0.0 -2.044444444444e-04 
1.243385819523e-05 -1.313518518473e-06 0.0 
-1.313518518473e-06 9.472616034026e-04 0.0 
0.0 0.0 -2.134471217746e-04 
-1.850281559791e-04 -5.200180635388e-07 0.0 
-5.200180635388e-07 1.187482173011e-03 0.0 
0.0 0.0 -1.822222222222e-04 
-2.072939918565e-04 5.575866344384e-07 0.0 
5.575866344384e-07 8.766431889280e-04 0.0 
0.0 0.0 -2.044444444444e-04 
-1.505715545267e-04 3.044165367726e-05 0.0 
3.044165367726e-05 8.856495634862e-04 0.0 
0.0 0.0 -2.044444444444e-04 
-1.850367453882e-04 9.210024022432e-07 0.0 
9.210024022432e-07 1.187470023202e-03 0.0 
0.0 0.0 -1.822222222222e-04 
-2.073890149641e-04 2.116809298567e-06 0.0 
2.116809298567e-06 8.766902866105e-04 0.0 
0.0 0.0 -2.044444444444e-04 
-1.852099941937e-04 2.336749023450e-06 0.0 
2.336749023450e-06 1.187666774481e-03 0.0 
0.0 0.0 -1.822222222222e-04 
-2.076810916940e-04 3.335713578553e-06 0.0 
3.335713578553e-06 8.768645351485e-04 0.0 
0.0 0.0 -2.044444444444e-04 
-1.854635630656e-04 3.514781954913e-06 0.0 
3.514781954913e-06 1.187853925438e-03 0.0 
0.0 0.0 -1.822222222222e-04 
-2.079452960059e-04 4.648234682736e-06 0.0 
4.648234682736e-06 8.771161380739e-04 0.0 
0.0 0.0 -2.044444444444e-04 
-1.859320449513e-04 4.414553935070e-06 0.0 
4.414553935070e-06 1.188479205043e-03 0.0 
0.0 0.0 -1.822222222222e-04 
-2.085190829059e-04 4.667858396986e-06 0.0 
4.667858396986e-06 8.774898960369e-04 0.0 
0.0 0.0 -2.044444444444e-04 
-1.862446482625e-04 4.747691180131e-06 0.0 
4.747691180131e-06 1.188526487208e-03 0.0 
0.0 0.0 -1.822222222222e-04 
-1.389325106329e-04 3.461508263850e-05 0.0 
3.461508263850e-05 1.067736357210e-03 0.0 
0.0 0.0 -2.026870748299e-04 
-2.085464325804e-04 5.909668308269e-06 0.0 
5.909668308269e-06 8.778271322765e-04 0.0 
0.0 0.0 -2.044444444444e-04 
-1.870580972559e-04 4.787974066287e-06 0.0 
4.787974066287e-06 1.189945650988e-03 0.0 
0.0 0.0 -1.822222222222e-04 
-2.097815610239e-04 3.117797332925e-06 0.0 
3.117797332925e-06 8.782912017056e-04 0.0 
0.0 0.0 -2.044444444444e-04 
-1.869237689829e-04 4.175428382111e-06 0.0 
4.175428382111e-06 1.188510773778e-03 0.0 
0.0 0.0 -1.822222222222e-04 
-1.890284834829e-04 3.535949403652e-06 0.0 
3.535949403652e-06 1.193304622287e-03 0.0 
0.0 0.0 -1.822222222222e-04 
-2.083396495893e-04 7.741317513012e-06 0.0 
7.741317513012e-06 8.786518771822e-04 0.0 
0.0 0.0 -2.044444444444e-04 
-1.867625953123e-04 1.755853249943e-06 0.0 
1.755853249943e-06 1.185463241573e-03 0.0 
0.0 0.0 -1.822222222222e-04 
-2.135746483669e-04 -4.335111839485e-06 0.0 
-4.335111839485e-06 8.793938291634e-04 0.0 
0.0 0.0 -2.044444444444e-04 
-1.922187238870e-04 1.023095141136e-06 0.0 
1.023095141136e-06 1.199903184922e-03 0.0 
0.0 0.0 -1.822222222222e-04 
-2.052736421826e-04 1.383244218521e-05 0.0 
1.383244218521e-05 8.787971781211e-04 0.0 
0.0 0.0 -2.044444444444e-04 
-1.802133250476e-04 3.924967755068e-06 0.0 
3.924967755068e-06 1.165314696522e-03 0.0 
0.0 0.0 -1.822222222222e-04 
-1.986941288462e-04 2.367078184614e-05 0.0 
2.367078184614e-05 1.209764877429e-03 0.0 
0.0 0.0 -1.822222222222e-04 
-2.231794467689e-04 -2.826106615205e-05 0.0 
-2.826106615205e-05 8.775490301510e-04 0.0 
0.0 0.0 -2.044444444444e-04 
-1.646167100238e-04 5.243840066924e-05 0.0 
5.243840066924e-05 8.685383169283e-04 0.0 
0.0 0.0 -2.044444444444e-04 
-9.622432114943e-05 -2.610795107871e-05 0.0 
-2.610795107871e-05 7.743099524495e-04 0.0 
0.0 0.0 -1.804648526077e-04 
-1.473961787464e-04 -3.617240673058e-04 0.0 
-3.617240673058e-04 9.960919475066e-04 0.0 
0.0 0.0 -1.933333333333e-04 
-2.486763298368e-04 3.643384939898e-04 0.0 
3.643384939898e-04 1.177616774540e-03 0.0 
0.0 0.0 -1.933333333333e-04 
-1.768117245954e-04 -3.185339880205e-05 0.0 
-3.185339880205e-05 1.033346853690e-03 0.0 
0.0 0.0 -1.711111111111e-04 
-2.202341640464e-04 4.418305408560e-05 0.0 
4.418305408560e-05 1.131769773418e-03 0.0 
0.0 0.0 -2.155555555556e-04 
-1.214486922434e-04 -5.473925601128e-06 0.0 
-5.473925601128e-06 9.035898488109e-04 0.0 
0.0 0.0 -1.711111111111e-04 
-2.521277694037e-04 -6.446284034681e-05 0.0 
-6.446284034681e-05 1.534392840313e-03 0.0 
0.0 0.0 -2.488888888889e-04 
-2.728327989193e-04 5.819881722120e-05 0.0 
5.819881722120e-05 1.339822900769e-03 0.0 
0.0 0.0 -2.711111111111e-04 
-2.480655971863e-04 -2.777801925935e-06 0.0 
-2.777801925935e-06 1.653275501699e-03 0.0 
0.0 0.0 -2.488888888889e-04 
-2.715469034664e-04 1.274942756366e-06 0.0 
1.274942756366e-06 1.347101318943e-03 0.0 
0.0 0.0 -2.711111111111e-04 
-2.489931200648e-04 -3.638760225942e-06 0.0 
-3.638760225942e-06 1.658494809350e-03 0.0 
0.0 0.0 -2.488888888889e-04 
-2.716460378004e-04 -3.480677046326e-06 0.0 
-3.480677046326e-06 1.347896604333e-03 0.0 
0.0 0.0 -2.711111111111e-04 
-2.503038673233e-04 -5.457405187027e-06 0.0 
-5.457405187027e-06 1.659164978861e-03 0.0 
0.0 0.0 -2.488888888889e-04 
-2.723056335148e-04 -4.500785647999e-06 0.0 
-4.500785647999e-06 1.348738405761e-03 0.0 
0.0 0.0 -2.711111111111e-04 
-2.512837609625e-04 -5.893070865359e-06 0.0 
-5.893070865359e-06 1.659994488358e-03 0.0 
0.0 0.0 -2.488888888889e-04 
-2.730658014986e-04 -4.757317489838e-06 0.0 
-4.757317489838e-06 1.349543620452e-03 0.0 
0.0 0.0 -2.711111111111e-04 
-2.518969323998e-04 -5.700600670801e-06 0.0 
-5.700600670801e-06 1.660777595862e-03 0.0 
0.0 0.0 -2.488888888889e-04 
-2.736940159659e-04 -4.789124913685e-06 0.0 
-4.789124913685e-06 1.350136879534e-03 0.0 
0.0 0.0 -2.711111111111e-04 
-2.522081182519e-04 -5.290303154548e-06 0.0 
-5.290303154548e-06 1.661328800105e-03 0.0 
0.0 0.0 -2.488888888889e-04 
-2.740879120576e-04 -4.696420828955e-06 0.0 
-4.696420828955e-06 1.350475034167e-03 0.0 
0.0 0.0 -2.711111111111e-04 
-2.523021902560e-04 -4.768851681991e-06 0.0 
-4.768851681991e-06 1.661607619857e-03 0.0 
0.0 0.0 -2.488888888889e-04 
-2.742860114603e-04 -4.450678829089e-06 0.0 
-4.450678829089e-06 1.350596594181e-03 0.0 
0.0 0.0 -2.711111111111e-04 
-2.522583537362e-04 -4.132198172624e-06 0.0 
-4.132198172624e-06 1.661658411941e-03 0.0 
0.0 0.0 -2.488888888889e-04 
-2.743377094270e-04 -4.015824398474e-06 0.0 
-4.015824398474e-06 1.350548093641e-03 0.0 
0.0 0.0 -2.711111111111e-04 
-2.521306901668e-04 -3.319779894401e-06 0.0 
-3.319779894401e-06 1.661525912279e-03 0.0 
0.0 0.0 -2.488888888889e-04 
-3.080779607716e-04 -1.475015598074e-04 0.0 
-1.475015598074e-04 1.635244379832e-03 0.0 
0.0 0.0 -2.581395122151e-04 
-2.742946236910e-04 -3.315280578594e-06 0.0 
-3.315280578594e-06 1.350382112278e-03 0.0 
0.0 0.0 -2.711111111111e-04 
-2.519612657397e-04 -2.267032836206e-06 0.0 
-2.267032836206e-06 1.661266505515e-03 0.0 
0.0 0.0 -2.488888888889e-04 
-2.741581536558e-04 -2.253353674118e-06 0.0 
-2.253353674118e-06 1.350150926122e-03 0.0 
0.0 0.0 -2.711111111111e-04 
-2.202457828127e-04 1.389746075063e-05 0.0 
1.389746075063e-05 1.357677145761e-03 0.0 
0.0 0.0 -2.711111111111e-04 
-2.517946071941e-04 -8.929753581346e-07 0.0 
-8.929753581346e-07 1.660940577633e-03 0.0 
0.0 0.0 -2.488888888889e-04 
-2.739189039235e-04 -6.352722421785e-07 0.0 
-6.352722421785e-07 1.349967660769e-03 0.0 
0.0 0.0 -2.711111111111e-04 
-2.517384363009e-04 7.394561980352e-07 0.0 
7.394561980352e-07 1.660737699433e-03 0.0 
0.0 0.0 -2.488888888889e-04 
-2.739337964168e-04 1.221197274256e-06 0.0 
1.221197274256e-06 1.349964284877e-03 0.0 
0.0 0.0 -2.711111111111e-04 
-2.518334594085e-04 2.411731503284e-06 0.0 
2.411731503284e-06 1.660763702417e-03 0.0 
0.0 0.0 -2.488888888889e-04 
-1.960895555722e-04 2.819449329863e-05 0.0 
2.819449329863e-05 1.449525980771e-03 0.0 
0.0 0.0 -2.359172899929e-04 
-2.740223529324e-04 3.169941512925e-06 0.0 
3.169941512925e-06 1.350175213004e-03 0.0 
0.0 0.0 -2.711111111111e-04 
-2.521255361384e-04 3.789268835404e-06 0.0 
3.789268835404e-06 1.661134749008e-03 0.0 
0.0 0.0 -2.488888888889e-04 
-2.747394659981e-04 4.250533792831e-06 0.0 
4.250533792831e-06 1.350530716705e-03 0.0 
0.0 0.0 -2.711111111111e-04 
-2.523897404503e-04 4.867975977124e-06 0.0 
4.867975977124e-06 1.661439774285e-03 0.0 
0.0 0.0 -2.488888888889e-04 
-2.744430783501e-04 5.964660527727e-06 0.0 
5.964660527727e-06 1.350990306142e-03 0.0 
0.0 0.0 -2.711111111111e-04 
-2.529635273503e-04 5.222681203760e-06 0.0 
5.222681203760e-06 1.662423363150e-03 0.0 
0.0 0.0 -2.488888888889e-04 
-2.760690211444e-04 4.823894415198e-06 0.0 
4.823894415198e-06 1.351429118495e-03 0.0 
0.0 0.0 -2.711111111111e-04 
-2.529908770248e-04 5.652366354269e-06 0.0 
5.652366354269e-06 1.662150892169e-03 0.0 
0.0 0.0 -2.488888888889e-04 
-2.736516486220e-04 8.080140684627e-06 0.0 
8.080140684627e-06 1.351951630547e-03 0.0 
0.0 0.0 -2.711111111111e-04 
-2.542260054684e-04 4.590652968686e-06 0.0 
4.590652968686e-06 1.664711106639e-03 0.0 
0.0 0.0 -2.488888888889e-04 
-2.786325066482e-04 5.172759370814e-07 0.0 
5.172759370814e-07 1.351920484534e-03 0.0 
0.0 0.0 -2.711111111111e-04 
-2.039484749468e-04 4.240355346079e-05 0.0 
4.240355346079e-05 1.529639228523e-03 0.0 
0.0 0.0 -2.692506233262e-04 
-2.686073439389e-04 1.740565458012e-05 0.0 
1.740565458012e-05 1.353255056419e-03 0.0 
0.0 0.0 -2.711111111111e-04 
-2.527840940338e-04 6.556301368039e-06 0.0 
6.556301368039e-06 1.660172474859e-03 0.0 
0.0 0.0 -2.488888888889e-04 
-2.885766075313e-04 -1.897435447563e-05 0.0 
-1.897435447563e-05 1.351855420541e-03 0.0 
0.0 0.0 -2.711111111111e-04 
-2.580190928113e-04 2.196056460052e-06 0.0 
2.196056460052e-06 1.672405909541e-03 0.0 
0.0 0.0 -2.488888888889e-04 
-2.354569360816e-04 5.009177763036e-05 0.0 
5.009177763036e-05 1.348029008298e-03 0.0 
0.0 0.0 -2.711111111111e-04 
-2.497180866270e-04 9.594220509891e-06 0.0 
9.594220509891e-06 1.647902027827e-03 0.0 
0.0 0.0 -2.488888888889e-04 
-2.676238912133e-04 1.065653122414e-05 0.0 
1.065653122414e-05 1.687223118492e-03 0.0 
0.0 0.0 -2.488888888889e-04 
-1.604370229811e-04 -8.834470754963e-06 0.0 
-8.834470754963e-06 1.235903269871e-03 0.0 
0.0 0.0 -2.470284011040e-04 
-3.182184165145e-04 -3.658444227264e-04 0.0 
-3.658444227264e-04 1.559382054094e-03 0.0 
0.0 0.0 -2.600000000000e-04 
-2.129354412602e-04 3.593199102675e-04 0.0 
3.593199102675e-04 1.370669013137e-03 0.0 
0.0 0.0 -2.600000000000e-04 
-2.876678598137e-04 -3.799013677243e-05 0.0 
-3.799013677243e-05 1.519057765608e-03 0.0 
0.0 0.0 -2.822222222222e-04 
-2.424563862686e-04 4.131524077331e-05 0.0 
4.131524077331e-05 1.419663110366e-03 0.0 
0.0 0.0 -2.377777777778e-04 
-1.839048878600e-04 -4.966859083122e-06 0.0 
-4.966859083122e-06 1.370596563687e-03 0.0 
0.0 0.0 -2.377777777778e-04 
-3.410025939663e-04 -7.109134268571e-05 0.0 
-7.109134268571e-05 1.939357491602e-03 0.0 
0.0 0.0 -3.377777777778e-04 
-3.172772433638e-04 5.789359071666e-05 0.0 
5.789359071666e-05 2.125716446876e-03 0.0 
0.0 0.0 -3.155555555556e-04 
-3.390659740094e-04 -6.181655200917e-06 0.0 
-6.181655200917e-06 1.811818636053e-03 0.0 
0.0 0.0 -3.377777777778e-04 
-3.159913479109e-04 1.476079812796e-06 0.0 
1.476079812796e-06 2.115026583353e-03 0.0 
0.0 0.0 -3.155555555556e-04 
-3.382925612548e-04 -3.291622949820e-06 0.0 
-3.291622949820e-06 1.803604871078e-03 0.0 
0.0 0.0 -3.377777777778e-04 
-3.160904822448e-04 -2.849606337414e-06 0.0 
-2.849606337414e-06 2.114329194161e-03 0.0 
0.0 0.0 -3.155555555556e-04 
-3.384956828612e-04 -3.501014590628e-06 0.0 
-3.501014590628e-06 1.803162822433e-03 0.0 
0.0 0.0 -3.377777777778e-04 
-3.167500779592e-04 -3.727769637596e-06 0.0 
-3.727769637596e-06 2.114854677275e-03 0.0 
0.0 0.0 -3.155555555556e-04 
-3.391490141729e-04 -3.651468466337e-06 0.0 
-3.651468466337e-06 1.803753947600e-03 0.0 
0.0 0.0 -3.377777777778e-04 
-3.175102459430e-04 -4.000967953540e-06 0.0 
-4.000967953540e-06 2.115610146350e-03 0.0 
0.0 0.0 -3.155555555556e-04 
-3.398779273900e-04 -3.839591480390e-06 0.0 
-3.839591480390e-06 1.804522559076e-03 0.0 
0.0 0.0 -3.377777777778e-04 
-3.181384604103e-04 -4.131905028872e-06 0.0 
-4.131905028872e-06 2.116228510088e-03 0.0 
0.0 0.0 -3.155555555556e-04 
-3.404617035917e-04 -4.098832735945e-06 0.0 
-4.098832735945e-06 1.805124771049e-03 0.0 
0.0 0.0 -3.377777777778e-04 
-3.185323565021e-04 -4.201501100340e-06 0.0 
-4.201501100340e-06 2.116520558905e-03 0.0 
0.0 0.0 -3.155555555556e-04 
-3.407292183498e-04 -4.145196935056e-06 0.0 
-4.145196935056e-06 1.805418472779e-03 0.0 
0.0 0.0 -3.377777777778e-04 
-3.187304559047e-04 -4.035902428633e-06 0.0 
-4.035902428633e-06 2.116586246076e-03 0.0 
0.0 0.0 -3.155555555556e-04 
-3.408744810369e-04 -3.924908453343e-06 0.0 
-3.924908453343e-06 1.805493857811e-03 0.0 
0.0 0.0 -3.377777777778e-04 
-3.187821538714e-04 -3.633158389484e-06 0.0 
-3.633158389484e-06 2.116456200438e-03 0.0 
0.0 0.0 -3.155555555556e-04 
-3.690431360596e-04 -1.483147847608e-04 0.0 
-1.483147847608e-04 2.100743052422e-03 0.0 
0.0 0.0 -3.249092970522e-04 
-3.409689945328e-04 -3.383060592438e-06 0.0 
-3.383060592438e-06 1.805397786316e-03 0.0 
0.0 0.0 -3.377777777778e-04 
-3.187390681354e-04 -2.979666841293e-06 0.0 
-2.979666841293e-06 2.116197507279e-03 0.0 
0.0 0.0 -3.155555555556e-04 
-3.410270300007e-04 -2.604645378297e-06 0.0 
-2.604645378297e-06 1.805179834428e-03 0.0 
0.0 0.0 -3.377777777778e-04 
-2.670328998004e-04 2.363747169207e-05 0.0 
2.363747169207e-05 1.918142120546e-03 0.0 
0.0 0.0 -3.026870748299e-04 
-3.186025981003e-04 -2.078898060211e-06 0.0 
-2.078898060211e-06 2.115791879757e-03 0.0 
0.0 0.0 -3.155555555556e-04 
-2.890685759485e-04 1.184379376187e-05 0.0 
1.184379376187e-05 1.817294272793e-03 0.0 
0.0 0.0 -3.377777777778e-04 
-3.408782700942e-04 -1.553756922472e-06 0.0 
-1.553756922472e-06 1.804821399400e-03 0.0 
0.0 0.0 -3.377777777778e-04 
-3.183633483679e-04 -7.255709595321e-07 0.0 
-7.255709595321e-07 2.115187739220e-03 0.0 
0.0 0.0 -3.155555555556e-04 
-3.404069314639e-04 7.078744652276e-07 0.0 
7.078744652276e-07 1.804467464759e-03 0.0 
0.0 0.0 -3.377777777778e-04 
-3.183782408613e-04 1.285945568596e-06 0.0 
1.285945568596e-06 2.115270095584e-03 0.0 
0.0 0.0 -3.155555555556e-04 
-3.406492705220e-04 2.583697953022e-06 0.0 
2.583697953022e-06 1.804558473506e-03 0.0 
0.0 0.0 -3.377777777778e-04 
-3.184667973768e-04 3.190092890288e-06 0.0 
3.190092890288e-06 2.115278979552e-03 0.0 
0.0 0.0 -3.155555555556e-04 
-3.409369116603e-04 5.636160284098e-06 0.0 
5.636160284098e-06 1.804991858146e-03 0.0 
0.0 0.0 -3.377777777778e-04 
-3.191839104425e-04 4.673179761038e-06 0.0 
4.673179761038e-06 2.116930574184e-03 0.0 
0.0 0.0 -3.155555555556e-04 
-2.573175860954e-04 2.442770395467e-05 0.0 
2.442770395467e-05 1.988241460667e-03 0.0 
0.0 0.0 -3.360204081633e-04 
-3.424750430990e-04 4.023495552667e-06 0.0 
4.023495552667e-06 1.805722805934e-03 0.0 
0.0 0.0 -3.377777777778e-04 
-3.188875227946e-04 5.080339814892e-06 0.0 
5.080339814892e-06 2.115625010649e-03 0.0 
0.0 0.0 -3.155555555556e-04 
-3.407604408985e-04 9.421647063264e-06 0.0 
9.421647063264e-06 1.806070588280e-03 0.0 
0.0 0.0 -3.377777777778e-04 
-3.205134655889e-04 5.605715921484e-06 0.0 
5.605715921484e-06 2.120236289604e-03 0.0 
0.0 0.0 -3.155555555556e-04 
-3.180960930665e-04 5.060715434049e-06 0.0 
5.060715434049e-06 2.113082397847e-03 0.0 
0.0 0.0 -3.155555555556e-04 
-3.444609068295e-04 -8.452731090518e-07 0.0 
-8.452731090518e-07 1.806865042408e-03 0.0 
0.0 0.0 -3.377777777778e-04 
-3.230769510926e-04 5.297167333025e-06 0.0 
5.297167333025e-06 2.127756228039e-03 0.0 
0.0 0.0 -3.155555555556e-04 
-3.355530174909e-04 1.784549433597e-05 0.0 
1.784549433597e-05 1.806438973056e-03 0.0 
0.0 0.0 -3.377777777778e-04 
-3.130517883833e-04 8.743375330276e-06 0.0 
8.743375330276e-06 2.097353132742e-03 0.0 
0.0 0.0 -3.155555555556e-04 
-3.330210519758e-04 2.012953566074e-05 0.0 
2.012953566074e-05 2.147504497682e-03 0.0 
0.0 0.0 -3.155555555556e-04 
-3.509966610493e-04 -2.022077905254e-05 0.0 
-2.022077905254e-05 1.806627387448e-03 0.0 
0.0 0.0 -3.377777777778e-04 
-2.972095881106e-04 5.804270690083e-05 0.0 
5.804270690083e-05 1.800815152055e-03 0.0 
0.0 0.0 -3.377777777778e-04 
-2.175107159718e-04 -1.631750727429e-05 0.0 
-1.631750727429e-05 1.699502326440e-03 0.0 
0.0 0.0 -3.137981859410e-04 
-2.788781723147e-04 -3.677632055048e-04 0.0 
-3.677632055048e-04 1.918773635351e-03 0.0 
0.0 0.0 -3.266666666667e-04 
-3.824407797580e-04 3.586504733501e-04 0.0 
3.586504733501e-04 2.104280094810e-03 0.0 
0.0 0.0 -3.266666666667e-04 
-3.098900820360e-04 -3.767118635730e-05 0.0 
-3.767118635730e-05 1.957913403149e-03 0.0 
0.0 0.0 -3.044444444444e-04 
-3.525472806035e-04 3.960242332954e-05 0.0 
3.960242332954e-05 2.055406756740e-03 0.0 
0.0 0.0 -3.488888888889e-04 
-2.535791161460e-04 -6.363998917273e-06 0.0 
-6.363998917273e-06 1.836833488631e-03 0.0 
0.0 0.0 -3.044444444444e-04 
-3.854470384108e-04 -7.318895876579e-05 0.0 
-7.318895876579e-05 2.462268997968e-03 0.0 
0.0 0.0 -3.822222222222e-04 
-4.067260869842e-04 5.256727935288e-05 0.0 
5.256727935288e-05 2.270583520964e-03 0.0 
0.0 0.0 -4.044444444444e-04 
-3.835104184538e-04 -6.001370987119e-06 0.0 
-6.001370987119e-06 2.584239217162e-03 0.0 
0.0 0.0 -3.822222222222e-04 
-4.054239343453e-04 -3.862668402766e-07 0.0 
-3.862668402766e-07 2.278107254443e-03 0.0 
0.0 0.0 -4.044444444444e-04 
-3.827370056993e-04 -2.051108453439e-06 0.0 
-2.051108453439e-06 2.589324965641e-03 0.0 
0.0 0.0 -3.822222222222e-04 
-4.049473858376e-04 -2.025371124830e-06 0.0 
-2.025371124830e-06 2.278227481696e-03 0.0 
0.0 0.0 -4.044444444444e-04 
-3.829401273056e-04 -2.233475725811e-06 0.0 
-2.233475725811e-06 2.589358314293e-03 0.0 
0.0 0.0 -3.822222222222e-04 
-4.051320011440e-04 -1.755724159139e-06 0.0 
-1.755724159139e-06 2.278648915763e-03 0.0 
0.0 0.0 -4.044444444444e-04 
-3.835934586173e-04 -2.688169991867e-06 0.0 
-2.688169991867e-06 2.589869457183e-03 0.0 
0.0 0.0 -3.822222222222e-04 
-4.056600794980e-04 -1.893213932616e-06 0.0 
-1.893213932616e-06 2.279331955242e-03 0.0 
0.0 0.0 -4.044444444444e-04 
-3.843223718344e-04 -3.113994382631e-06 0.0 
-3.113994382631e-06 2.590617347037e-03 0.0 
0.0 0.0 -3.822222222222e-04 
-4.064892069025e-04 -2.474484856258e-06 0.0 
-2.474484856258e-06 2.280008615997e-03 0.0 
0.0 0.0 -4.044444444444e-04 
-3.849061480361e-04 -3.622932708783e-06 0.0 
-3.622932708783e-06 2.591309291953e-03 0.0 
0.0 0.0 -3.822222222222e-04 
-4.069579766942e-04 -3.400241771074e-06 0.0 
-3.400241771074e-06 2.280265863003e-03 0.0 
0.0 0.0 -4.044444444444e-04 
-3.851736627943e-04 -3.698729864826e-06 0.0 
-3.698729864826e-06 2.591442129951e-03 0.0 
0.0 0.0 -3.822222222222e-04 
-4.070595378395e-04 -3.530761062565e-06 0.0 
-3.530761062565e-06 2.280248515823e-03 0.0 
0.0 0.0 -4.044444444444e-04 
-3.853189254814e-04 -3.308712062330e-06 0.0 
-3.308712062330e-06 2.591334618481e-03 0.0 
0.0 0.0 -3.822222222222e-04 
-4.286221488409e-04 -1.538307185825e-04 0.0 
-1.538307185825e-04 2.567067218455e-03 0.0 
0.0 0.0 -3.914586414276e-04 
-4.072795051318e-04 -3.225304394693e-06 0.0 
-3.225304394693e-06 2.280128533043e-03 0.0 
0.0 0.0 -4.044444444444e-04 
-3.854134389773e-04 -2.594023862129e-06 0.0 
-2.594023862129e-06 2.591119240828e-03 0.0 
0.0 0.0 -3.822222222222e-04 
-3.464781260891e-04 1.734225857501e-05 0.0 
1.734225857501e-05 2.287295584395e-03 0.0 
0.0 0.0 -4.044444444444e-04 
-4.077885899199e-04 -2.677206165872e-06 0.0 
-2.677206165872e-06 2.280033372710e-03 0.0 
0.0 0.0 -4.044444444444e-04 
-3.854714744452e-04 -1.933077099942e-06 0.0 
-1.933077099942e-06 2.590961113598e-03 0.0 
0.0 0.0 -3.822222222222e-04 
-4.081084443904e-04 -2.360427714506e-06 0.0 
-2.360427714506e-06 2.279760717046e-03 0.0 
0.0 0.0 -4.044444444444e-04 
-3.853227145387e-04 -1.172340553314e-06 0.0 
-1.172340553314e-06 2.590523544031e-03 0.0 
0.0 0.0 -3.822222222222e-04 
-4.077855839762e-04 -1.880350380502e-06 0.0 
-1.880350380502e-06 2.279028361984e-03 0.0 
0.0 0.0 -4.044444444444e-04 
-3.286682295382e-04 3.864000460943e-05 0.0 
3.864000460943e-05 2.388312332005e-03 0.0 
0.0 0.0 -3.692364192054e-04 
-3.848513759083e-04 8.749343320702e-07 0.0 
8.749343320702e-07 2.589303941023e-03 0.0 
0.0 0.0 -3.822222222222e-04 
-4.064553215493e-04 2.023836917076e-06 0.0 
2.023836917076e-06 2.278692862703e-03 0.0 
0.0 0.0 -4.044444444444e-04 
-3.850937149665e-04 3.323013512476e-06 0.0 
3.323013512476e-06 2.589488289002e-03 0.0 
0.0 0.0 -3.822222222222e-04 
-4.083426802907e-04 3.954253352499e-06 0.0 
3.954253352499e-06 2.279268883058e-03 0.0 
0.0 0.0 -4.044444444444e-04 
-3.853813561047e-04 5.496575711093e-06 0.0 
5.496575711093e-06 2.589798472255e-03 0.0 
0.0 0.0 -3.822222222222e-04 
-4.073887531178e-04 8.644381902543e-06 0.0 
8.644381902543e-06 2.280648906445e-03 0.0 
0.0 0.0 -4.044444444444e-04 
-3.869194875435e-04 4.699519663534e-06 0.0 
4.699519663534e-06 2.593344221483e-03 0.0 
0.0 0.0 -3.822222222222e-04 
-4.136900432831e-04 3.059611690252e-07 0.0 
3.059611690252e-07 2.281270984406e-03 0.0 
0.0 0.0 -4.044444444444e-04 
-3.852048853429e-04 5.647321069003e-06 0.0 
5.647321069003e-06 2.589552732633e-03 0.0 
0.0 0.0 -3.822222222222e-04 
-4.027468751105e-04 1.481940469571e-05 0.0 
1.481940469571e-05 2.282290554162e-03 0.0 
0.0 0.0 -4.044444444444e-04 
-3.140135372488e-04 2.873744366936e-05 0.0 
2.873744366936e-05 2.457976087612e-03 0.0 
0.0 0.0 -4.025697525387e-04 
-4.196628018256e-04 -1.837442126513e-05 0.0 
-1.837442126513e-05 2.280568181227e-03 0.0 
0.0 0.0 -4.044444444444e-04 
-3.889053512739e-04 9.814032543116e-07 0.0 
9.814032543116e-07 2.600099780335e-03 0.0 
0.0 0.0 -3.822222222222e-04 
-3.673242193347e-04 4.652408802621e-05 0.0 
4.652408802621e-05 2.277402359379e-03 0.0 
0.0 0.0 -4.044444444444e-04 
-3.799974619353e-04 7.920842717923e-06 0.0 
7.920842717923e-06 2.577842323435e-03 0.0 
0.0 0.0 -3.822222222222e-04 
-3.954411054938e-04 8.433133596448e-06 0.0 
8.433133596448e-06 2.614590654529e-03 0.0 
0.0 0.0 -3.822222222222e-04 
-2.749511289216e-04 8.331946175052e-06 0.0 
8.331946175052e-06 2.168007004057e-03 0.0 
0.0 0.0 -3.803475303165e-04 
-4.499391521728e-04 -3.691567064575e-04 0.0 
-3.691567064575e-04 2.484470054093e-03 0.0 
0.0 0.0 -3.933333333333e-04 
-3.454868480400e-04 3.563309951917e-04 0.0 
3.563309951917e-04 2.297351916339e-03 0.0 
0.0 0.0 -3.933333333333e-04 
-4.195054663634e-04 -3.985404005844e-05 0.0 
-3.985404005844e-05 2.445111450393e-03 0.0 
0.0 0.0 -4.155555555556e-04 
-3.747695028257e-04 3.813450272878e-05 0.0 
3.813450272878e-05 2.346473725249e-03 0.0 
0.0 0.0 -3.711111111111e-04 
-3.224019092818e-04 7.776420168150e-06 0.0 
7.776420168150e-06 2.309384780839e-03 0.0 
0.0 0.0 -3.711111111111e-04 
-4.743042659076e-04 -7.660020380403e-05 0.0 
-7.660020380403e-05 2.865853814990e-03 0.0 
0.0 0.0 -4.711111111111e-04 
-4.511705314287e-04 5.193280790002e-05 0.0 
5.193280790002e-05 3.054035925169e-03 0.0 
0.0 0.0 -4.488888888889e-04 
-4.724633686243e-04 -9.447249748348e-06 0.0 
-9.447249748348e-06 2.739853487714e-03 0.0 
0.0 0.0 -4.711111111111e-04 
-4.498683787897e-04 -1.564459074637e-06 0.0 
-1.564459074637e-06 3.043354068164e-03 0.0 
0.0 0.0 -4.488888888889e-04 
-4.709847188569e-04 -3.574354858744e-06 0.0 
-3.574354858744e-06 2.732085994282e-03 0.0 
0.0 0.0 -4.711111111111e-04 
-4.493918302821e-04 -2.534727311695e-06 0.0 
-2.534727311695e-06 3.042771200855e-03 0.0 
0.0 0.0 -4.488888888889e-04 
-4.712289592021e-04 -1.812807881703e-06 0.0 
-1.812807881703e-06 2.731728430754e-03 0.0 
0.0 0.0 -4.711111111111e-04 
-4.495764455885e-04 -1.773818124506e-06 0.0 
-1.773818124506e-06 3.043241608981e-03 0.0 
0.0 0.0 -4.488888888889e-04 
-4.714369542364e-04 -1.226754822871e-06 0.0 
-1.226754822871e-06 2.732193229008e-03 0.0 
0.0 0.0 -4.711111111111e-04 
-4.501045239424e-04 -1.319389086964e-06 0.0 
-1.319389086964e-06 3.044025953912e-03 0.0 
0.0 0.0 -4.488888888889e-04 
-4.721709199478e-04 -7.219039081363e-07 0.0 
-7.219039081363e-07 2.733000959488e-03 0.0 
0.0 0.0 -4.711111111111e-04 
-4.509336513469e-04 -1.227029478650e-06 0.0 
-1.227029478650e-06 3.045199183253e-03 0.0 
0.0 0.0 -4.488888888889e-04 
-4.733112105120e-04 -2.101747565281e-06 0.0 
-2.101747565281e-06 2.733939753671e-03 0.0 
0.0 0.0 -4.711111111111e-04 
-4.514024211387e-04 -2.167247968994e-06 0.0 
-2.167247968994e-06 3.045303862128e-03 0.0 
0.0 0.0 -4.488888888889e-04 
-4.736423528678e-04 -3.198210204722e-06 0.0 
-3.198210204722e-06 2.733987266950e-03 0.0 
0.0 0.0 -4.711111111111e-04 
-4.515039822839e-04 -2.583022231729e-06 0.0 
-2.583022231729e-06 3.044671970773e-03 0.0 
0.0 0.0 -4.488888888889e-04 
-5.094249609211e-04 -1.485849024678e-04 0.0 
-1.485849024678e-04 3.037014136749e-03 0.0 
0.0 0.0 -4.582426303855e-04 
-4.729917283577e-04 -2.527651589676e-06 0.0 
-2.527651589676e-06 2.733536135201e-03 0.0 
0.0 0.0 -4.711111111111e-04 
-4.517239495762e-04 -1.695467618579e-06 0.0 
-1.695467618579e-06 3.044559982769e-03 0.0 
0.0 0.0 -4.488888888889e-04 
-3.989001830536e-04 1.286242860201e-05 0.0 
1.286242860201e-05 2.848856344771e-03 0.0 
0.0 0.0 -4.360204081633e-04 
-4.741797545259e-04 -9.783497841845e-07 0.0 
-9.783497841845e-07 2.733642750037e-03 0.0 
0.0 0.0 -4.711111111111e-04 
-4.522330343643e-04 -9.670925007113e-07 0.0 
-9.670925007113e-07 3.044890510388e-03 0.0 
0.0 0.0 -4.488888888889e-04 
-4.144774096089e-04 2.017710958343e-05 0.0 
2.017710958343e-05 2.745520392554e-03 0.0 
0.0 0.0 -4.711111111111e-04 
-4.753995493702e-04 -8.226418972765e-07 0.0 
-8.226418972765e-07 2.733890535335e-03 0.0 
0.0 0.0 -4.711111111111e-04 
-4.525528888349e-04 -1.017856854227e-06 0.0 
-1.017856854227e-06 3.044832322142e-03 0.0 
0.0 0.0 -4.488888888889e-04 
-4.755368976101e-04 -1.846947414200e-06 0.0 
-1.846947414200e-06 2.733541044653e-03 0.0 
0.0 0.0 -4.711111111111e-04 
-4.522300284206e-04 -1.178811979009e-06 0.0 
-1.178811979009e-06 3.043706972071e-03 0.0 
0.0 0.0 -4.488888888889e-04 
-4.752002035872e-04 -2.749529905470e-06 0.0 
-2.749529905470e-06 2.732164380164e-03 0.0 
0.0 0.0 -4.711111111111e-04 
-4.508997659937e-04 9.025585634261e-07 0.0 
9.025585634261e-07 3.040023587775e-03 0.0 
0.0 0.0 -4.488888888889e-04 
-4.025111780395e-04 2.483692496437e-05 0.0 
2.483692496437e-05 2.925236968048e-03 0.0 
0.0 0.0 -4.693537414966e-04 
-4.720241450351e-04 8.096980642689e-06 0.0 
8.096980642689e-06 2.731296038601e-03 0.0 
0.0 0.0 -4.711111111111e-04 
-4.527871247351e-04 5.512980383803e-06 0.0 
5.512980383803e-06 3.045188244375e-03 0.0 
0.0 0.0 -4.488888888889e-04 
-4.781498596819e-04 2.806128767860e-06 0.0 
2.806128767860e-06 2.733503698510e-03 0.0 
0.0 0.0 -4.711111111111e-04 
-4.518331975622e-04 6.669660836139e-06 0.0 
6.669660836139e-06 3.040822692017e-03 0.0 
0.0 0.0 -4.488888888889e-04 
-4.581344877275e-04 4.806066696545e-06 0.0 
4.806066696545e-06 3.058516911663e-03 0.0 
0.0 0.0 -4.488888888889e-04 
-4.734463109153e-04 2.147515801907e-05 0.0 
2.147515801907e-05 2.735536322359e-03 0.0 
0.0 0.0 -4.711111111111e-04 
-4.471913195549e-04 3.250875513730e-06 0.0 
3.250875513730e-06 3.026848153488e-03 0.0 
0.0 0.0 -4.488888888889e-04 
-4.901163184293e-04 -2.393685911706e-05 0.0 
-2.393685911706e-05 2.736952886364e-03 0.0 
0.0 0.0 -4.711111111111e-04 
-4.641072462701e-04 1.667244048014e-05 0.0 
1.667244048014e-05 3.071178406626e-03 0.0 
0.0 0.0 -4.488888888889e-04 
-4.324862338949e-04 4.839324787632e-05 0.0 
4.839324787632e-05 2.728573330093e-03 0.0 
0.0 0.0 -4.711111111111e-04 
-3.598727436964e-04 -3.513921753698e-05 0.0 
-3.513921753698e-05 2.630027147507e-03 0.0 
0.0 0.0 -4.471315192744e-04 
-4.105980049468e-04 -3.701438029842e-04 0.0 
-3.701438029842e-04 2.845095093414e-03 0.0 
0.0 0.0 -4.600000000000e-04 
-5.151542512817e-04 3.559434576652e-04 0.0 
3.559434576652e-04 3.032255437761e-03 0.0 
0.0 0.0 -4.600000000000e-04 
-4.417276885857e-04 -3.934714622270e-05 0.0 
-3.934714622270e-05 2.884397119692e-03 0.0 
0.0 0.0 -4.377777777778e-04 
-4.853374994491e-04 3.790832101958e-05 0.0 
3.790832101958e-05 2.981759035169e-03 0.0 
0.0 0.0 -4.822222222222e-04 
-3.798114594225e-04 -2.502327533143e-05 0.0 
-2.502327533143e-05 2.763244671662e-03 0.0 
0.0 0.0 -4.377777777778e-04 
-5.187487103520e-04 -7.879757944213e-05 0.0 
-7.879757944213e-05 3.392117763543e-03 0.0 
0.0 0.0 -5.155555555556e-04 
-5.412972415894e-04 4.648002671386e-05 0.0 
4.648002671386e-05 3.200314872167e-03 0.0 
0.0 0.0 -5.377777777778e-04 
-5.169078130687e-04 -1.124351187313e-05 0.0 
-1.124351187313e-05 3.514306742191e-03 0.0 
0.0 0.0 -5.155555555556e-04 
-5.370398844120e-04 -5.539739897160e-06 0.0 
-5.539739897160e-06 3.206683234812e-03 0.0 
0.0 0.0 -5.377777777778e-04 
-5.154291633013e-04 -3.129495957313e-06 0.0 
-3.129495957313e-06 3.517617017321e-03 0.0 
0.0 0.0 -5.155555555556e-04 
-5.381093200183e-04 -1.976663157598e-06 0.0 
-1.976663157598e-06 3.207914382671e-03 0.0 
0.0 0.0 -5.377777777778e-04 
-5.156734036465e-04 -2.406369053526e-06 0.0 
-2.406369053526e-06 3.519066327430e-03 0.0 
0.0 0.0 -5.155555555556e-04 
-5.366091103083e-04 -1.207085778447e-06 0.0 
-1.207085778447e-06 3.208019600709e-03 0.0 
0.0 0.0 -5.377777777778e-04 
-5.158813986808e-04 -1.051510284434e-06 0.0 
-1.051510284434e-06 3.519134616611e-03 0.0 
0.0 0.0 -5.155555555556e-04 
-5.372599660982e-04 6.933014159414e-07 0.0 
6.933014159414e-07 3.208897054849e-03 0.0 
0.0 0.0 -5.377777777778e-04 
-5.166153643922e-04 -3.726067797575e-07 0.0 
-3.726067797575e-07 3.520203548651e-03 0.0 
0.0 0.0 -5.155555555556e-04 
-5.375825845931e-04 1.962175395656e-06 0.0 
1.962175395656e-06 3.210164447084e-03 0.0 
0.0 0.0 -5.377777777778e-04 
-5.177556549564e-04 -1.083300339423e-06 0.0 
-1.083300339423e-06 3.521881872284e-03 0.0 
0.0 0.0 -5.155555555556e-04 
-5.405721443305e-04 -1.211361635616e-06 0.0 
-1.211361635616e-06 3.211048643113e-03 0.0 
0.0 0.0 -5.377777777778e-04 
-5.180867973122e-04 -2.955006037389e-06 0.0 
-2.955006037389e-06 3.522497958112e-03 0.0 
0.0 0.0 -5.155555555556e-04 
-5.792879928889e-04 -1.599267687407e-04 0.0 
-1.599267687407e-04 3.507819207063e-03 0.0 
0.0 0.0 -5.247732426303e-04 
-5.375442025049e-04 -3.821072344149e-06 0.0 
-3.821072344149e-06 3.209055027385e-03 0.0 
0.0 0.0 -5.377777777778e-04 
-4.855148531560e-04 1.971124341130e-05 0.0 
1.971124341130e-05 3.223296130373e-03 0.0 
0.0 0.0 -5.377777777778e-04 
-5.174361728022e-04 1.037369393987e-07 0.0 
1.037369393987e-07 3.519390087404e-03 0.0 
0.0 0.0 -5.155555555556e-04 
-5.390305481335e-04 1.985391886319e-06 0.0 
1.985391886319e-06 3.209337053627e-03 0.0 
0.0 0.0 -5.377777777778e-04 
-5.186241989704e-04 1.920455279018e-06 0.0 
1.920455279018e-06 3.520577890956e-03 0.0 
0.0 0.0 -5.155555555556e-04 
-5.424782350988e-04 2.602587795957e-06 0.0 
2.602587795957e-06 3.210819048104e-03 0.0 
0.0 0.0 -5.377777777778e-04 
-5.198439938146e-04 8.397343632878e-07 0.0 
8.397343632878e-07 3.522383784968e-03 0.0 
0.0 0.0 -5.155555555556e-04 
-5.425396489500e-04 -2.671586099047e-07 0.0 
-2.671586099047e-07 3.210729830903e-03 0.0 
0.0 0.0 -5.377777777778e-04 
-4.639261431919e-04 1.795800229973e-05 0.0 
1.795800229973e-05 3.319383572120e-03 0.0 
0.0 0.0 -5.025510204081e-04 
-5.199813420545e-04 4.884319010424e-08 0.0 
4.884319010424e-08 3.521715893853e-03 0.0 
0.0 0.0 -5.155555555556e-04 
-5.429313789558e-04 -1.595839338139e-06 0.0 
-1.595839338139e-06 3.209826232599e-03 0.0 
0.0 0.0 -5.377777777778e-04 
-5.196446480316e-04 -7.157581279137e-07 0.0 
-7.157581279137e-07 3.520538878585e-03 0.0 
0.0 0.0 -5.155555555556e-04 
-5.449486155419e-04 -7.127659532018e-06 0.0 
-7.127659532018e-06 3.206562068945e-03 0.0 
0.0 0.0 -5.377777777778e-04 
-5.164685894796e-04 6.903981517424e-06 0.0 
6.903981517424e-06 3.511995524719e-03 0.0 
0.0 0.0 -5.155555555556e-04 
-5.340991680871e-04 2.151676257836e-05 0.0 
2.151676257836e-05 3.208223790984e-03 0.0 
0.0 0.0 -5.377777777778e-04 
-5.225943041263e-04 7.813857319362e-06 0.0 
7.813857319362e-06 3.525980620072e-03 0.0 
0.0 0.0 -5.155555555556e-04 
-5.589612776076e-04 -5.839662931428e-06 0.0 
-5.839662931428e-06 3.211769507264e-03 0.0 
0.0 0.0 -5.377777777778e-04 
-5.066406946919e-04 4.974783900998e-05 0.0 
4.974783900998e-05 3.211603155197e-03 0.0 
0.0 0.0 -5.377777777778e-04 
-5.178907553597e-04 1.266973619623e-05 0.0 
1.266973619623e-05 3.512461130721e-03 0.0 
0.0 0.0 -5.155555555556e-04 
-4.723338447053e-04 2.541271294392e-05 0.0 
2.541271294392e-05 3.400544018691e-03 0.0 
0.0 0.0 -5.358843537414e-04 
-5.345607628738e-04 7.989109301456e-06 0.0 
7.989109301456e-06 3.549518677637e-03 0.0 
0.0 0.0 -5.155555555556e-04 
-4.278487948575e-04 -2.628820225453e-05 0.0 
-2.628820225453e-05 3.098178878207e-03 0.0 
0.0 0.0 -5.136621315192e-04 
-5.830730295149e-04 -3.701622094988e-04 0.0 
-3.701622094988e-04 3.411662693846e-03 0.0 
0.0 0.0 -5.266666666667e-04 
-4.791897713482e-04 3.550100958038e-04 0.0 
3.550100958038e-04 3.225685347325e-03 0.0 
0.0 0.0 -5.266666666667e-04 
-5.533708020514e-04 -3.952512472061e-05 0.0 
-3.952512472061e-05 3.373562060412e-03 0.0 
0.0 0.0 -5.488888888889e-04 
-5.075597216713e-04 3.715385301179e-05 0.0 
3.715385301179e-05 3.274980805740e-03 0.0 
0.0 0.0 -5.044444444444e-04 
-4.478107429422e-04 -2.175364391212e-05 0.0 
-2.175364391212e-05 3.231094822119e-03 0.0 
0.0 0.0 -5.044444444444e-04 
-6.189291422575e-04 -8.703466800000e-05 0.0 
-8.703466800000e-05 3.800993658171e-03 0.0 
0.0 0.0 -6.044444444444e-04 
-5.857416860338e-04 4.152251131124e-05 0.0 
4.152251131124e-05 3.981396628525e-03 0.0 
0.0 0.0 -5.822222222222e-04 
-6.014676124271e-04 -2.366192094099e-05 0.0 
-2.366192094099e-05 3.666428660517e-03 0.0 
0.0 0.0 -6.044444444444e-04 
-5.814843288565e-04 -9.898764258159e-06 0.0 
-9.898764258159e-06 3.966852274136e-03 0.0 
0.0 0.0 -5.822222222222e-04 
-6.012057329273e-04 -9.447332931531e-07 0.0 
-9.447332931531e-07 3.656511754543e-03 0.0 
0.0 0.0 -6.044444444444e-04 
-5.825537644628e-04 -2.598524727520e-06 0.0 
-2.598524727520e-06 3.971861702718e-03 0.0 
0.0 0.0 -5.822222222222e-04 
-6.053753762140e-04 -6.697619749929e-06 0.0 
-6.697619749929e-06 3.660276641182e-03 0.0 
0.0 0.0 -6.044444444444e-04 
-5.810535547528e-04 -4.794630108956e-06 0.0 
-4.794630108956e-06 3.968237137461e-03 0.0 
0.0 0.0 -5.822222222222e-04 
-5.989315183322e-04 1.500653346346e-07 0.0 
1.500653346346e-07 3.657759237214e-03 0.0 
0.0 0.0 -6.044444444444e-04 
-5.817044105427e-04 9.543218927897e-07 0.0 
9.543218927897e-07 3.971595709461e-03 0.0 
0.0 0.0 -5.822222222222e-04 
-6.036123665841e-04 5.339950144766e-07 0.0 
5.339950144766e-07 3.660400636182e-03 0.0 
0.0 0.0 -6.044444444444e-04 
-5.820270290375e-04 1.512396225205e-06 0.0 
1.512396225205e-06 3.971136415647e-03 0.0 
0.0 0.0 -5.822222222222e-04 
-6.007150147338e-04 7.186565872699e-06 0.0 
7.186565872699e-06 3.661043708330e-03 0.0 
0.0 0.0 -6.044444444444e-04 
-6.473657891011e-04 -1.503775681194e-04 0.0 
-1.503775681194e-04 3.972322043345e-03 0.0 
0.0 0.0 -5.915759637188e-04 
-5.850165887749e-04 4.111519023205e-06 0.0 
4.111519023205e-06 3.978321279382e-03 0.0 
0.0 0.0 -5.822222222222e-04 
-6.068724417991e-04 -1.008894091463e-05 0.0 
-1.008894091463e-05 3.663848600166e-03 0.0 
0.0 0.0 -6.044444444444e-04 
-5.382166584107e-04 1.304379000631e-05 0.0 
1.304379000631e-05 3.784609928148e-03 0.0 
0.0 0.0 -5.693537414966e-04 
-5.819886469493e-04 -2.459134104127e-06 0.0 
-2.459134104127e-06 3.967910560167e-03 0.0 
0.0 0.0 -5.822222222222e-04 
-6.025293378773e-04 4.180804481603e-06 0.0 
4.180804481603e-06 3.658439256297e-03 0.0 
0.0 0.0 -6.044444444444e-04 
-5.551920643197e-04 2.265198140005e-05 0.0 
2.265198140005e-05 3.679387987049e-03 0.0 
0.0 0.0 -6.044444444444e-04 
-5.834749925779e-04 5.082011282481e-06 0.0 
5.082011282481e-06 3.970492679137e-03 0.0 
0.0 0.0 -5.822222222222e-04 
-6.079594570241e-04 1.156947798532e-05 0.0 
1.156947798532e-05 3.661485342161e-03 0.0 
0.0 0.0 -6.044444444444e-04 
-5.869226795433e-04 6.564857151341e-06 0.0 
6.564857151341e-06 3.976524406353e-03 0.0 
0.0 0.0 -5.822222222222e-04 
-6.104220387485e-04 1.777481494349e-06 0.0 
1.777481494349e-06 3.663998117975e-03 0.0 
0.0 0.0 -6.044444444444e-04 
-5.869840933945e-04 2.939983270480e-06 0.0 
2.939983270480e-06 3.973848016868e-03 0.0 
0.0 0.0 -5.822222222222e-04 
-5.382425891796e-04 2.010179773991e-05 0.0 
2.010179773991e-05 3.859360506165e-03 0.0 
0.0 0.0 -6.026870748299e-04 
-6.075003933196e-04 1.831253403250e-06 0.0 
1.831253403250e-06 3.662133086902e-03 0.0 
0.0 0.0 -6.044444444444e-04 
-5.873758234003e-04 4.101101850468e-06 0.0 
4.101101850468e-06 3.972642461745e-03 0.0 
0.0 0.0 -5.822222222222e-04 
-5.893930599864e-04 7.702980258157e-07 0.0 
7.702980258157e-07 3.976762054191e-03 0.0 
0.0 0.0 -5.822222222222e-04 
-6.109731840224e-04 5.890820747558e-06 0.0 
5.890820747558e-06 3.662416691587e-03 0.0 
0.0 0.0 -6.044444444444e-04 
-5.785436125316e-04 1.010670441635e-05 0.0 
1.010670441635e-05 3.943008250813e-03 0.0 
0.0 0.0 -5.822222222222e-04 
-6.245615995330e-04 -2.323619509783e-05 0.0 
-2.323619509783e-05 3.657960966842e-03 0.0 
0.0 0.0 -6.044444444444e-04 
-6.034057220520e-04 2.547674868114e-05 0.0 
2.547674868114e-05 4.007426657562e-03 0.0 
0.0 0.0 -5.822222222222e-04 
-5.749090046599e-04 7.539992690033e-05 0.0 
7.539992690033e-05 3.655670285631e-03 0.0 
0.0 0.0 -6.044444444444e-04 
-4.961379511751e-04 -3.596508921407e-05 0.0 
-3.596508921407e-05 3.563351096824e-03 0.0 
0.0 0.0 -5.804648526077e-04 
-5.370991115959e-04 -3.597763694004e-04 0.0 
-3.597763694004e-04 3.763144672232e-03 0.0 
0.0 0.0 -5.933333333333e-04 
-6.527633909014e-04 3.673307409976e-04 0.0 
3.673307409976e-04 3.969951782286e-03 0.0 
0.0 0.0 -5.933333333333e-04 
-5.755930242736e-04 -3.122109693662e-05 0.0 
-3.122109693662e-05 3.812561021402e-03 0.0 
0.0 0.0 -5.711111111111e-04 
-6.159345735075e-04 5.418298751467e-05 0.0 
5.418298751467e-05 3.907149665354e-03 0.0 
0.0 0.0 -6.155555555556e-04 
-5.188481864893e-04 -2.197935258578e-05 0.0 
-2.197935258578e-05 3.695326603665e-03 0.0 
0.0 0.0 -5.711111111111e-04 
-6.633735867020e-04 -1.155216560215e-04 0.0 
-1.155216560215e-04 4.354748692185e-03 0.0 
0.0 0.0 -6.488888888889e-04 
-6.563660005590e-04 -4.949228987729e-06 0.0 
-4.949228987729e-06 4.121813599109e-03 0.0 
0.0 0.0 -6.711111111111e-04 
-6.459120568716e-04 -1.400816422142e-05 0.0 
-1.400816422142e-05 4.433498309450e-03 0.0 
0.0 0.0 -6.488888888889e-04 
-6.749764366868e-04 -1.022061849862e-05 0.0 
-1.022061849862e-05 4.131528536263e-03 0.0 
0.0 0.0 -6.711111111111e-04 
-6.456501773717e-04 -4.182868476140e-07 0.0 
-4.182868476140e-07 4.441719427511e-03 0.0 
0.0 0.0 -6.488888888889e-04 
-6.743020789233e-04 6.977086704405e-06 0.0 
6.977086704405e-06 4.142139451712e-03 0.0 
0.0 0.0 -6.711111111111e-04 
-6.498198206585e-04 -1.519001385402e-05 0.0 
-1.519001385402e-05 4.455827176230e-03 0.0 
0.0 0.0 -6.488888888889e-04 
-6.621266125404e-04 -2.192043764385e-05 0.0 
-2.192043764385e-05 4.131761848184e-03 0.0 
0.0 0.0 -6.711111111111e-04 
-6.433759627766e-04 1.777448492757e-06 0.0 
1.777448492757e-06 4.439463053302e-03 0.0 
0.0 0.0 -6.488888888889e-04 
-6.671926554529e-04 1.273682377901e-05 0.0 
1.273682377901e-05 4.138458681040e-03 0.0 
0.0 0.0 -6.711111111111e-04 
-6.480568110285e-04 -2.776142626350e-06 0.0 
-2.776142626350e-06 4.452403490028e-03 0.0 
0.0 0.0 -6.488888888889e-04 
-6.701502197109e-04 -7.061847057976e-06 0.0 
-7.061847057976e-06 4.137807792637e-03 0.0 
0.0 0.0 -6.711111111111e-04 
-7.177695882629e-04 -1.636503915645e-04 0.0 
-1.636503915645e-04 4.444156976963e-03 0.0 
0.0 0.0 -6.580807474504e-04 
-6.451594591783e-04 2.175329864517e-06 0.0 
2.175329864517e-06 4.446899780493e-03 0.0 
0.0 0.0 -6.488888888889e-04 
-6.694083839789e-04 4.177588367940e-05 0.0 
4.177588367940e-05 4.159153595791e-03 0.0 
0.0 0.0 -6.711111111111e-04 
-6.460833817648e-04 2.181336474461e-05 0.0 
2.181336474461e-05 4.138351275158e-03 0.0 
0.0 0.0 -6.711111111111e-04 
-6.513168862435e-04 2.571939183972e-06 0.0 
2.571939183972e-06 4.455509820746e-03 0.0 
0.0 0.0 -6.488888888889e-04 
-6.788111886778e-04 -1.155514465084e-05 0.0 
-1.155514465084e-05 4.136861537379e-03 0.0 
0.0 0.0 -6.711111111111e-04 
-6.469737823218e-04 1.193188668569e-05 0.0 
1.193188668569e-05 4.441081764841e-03 0.0 
0.0 0.0 -6.488888888889e-04 
-6.791365925950e-04 1.914980606251e-05 0.0 
1.914980606251e-05 4.140018751422e-03 0.0 
0.0 0.0 -6.711111111111e-04 
-6.524039014686e-04 9.406282947327e-06 0.0 
9.406282947327e-06 4.453605425654e-03 0.0 
0.0 0.0 -6.488888888889e-04 
-6.708784002972e-04 1.294093541859e-05 0.0 
1.294093541859e-05 4.143170398070e-03 0.0 
0.0 0.0 -6.711111111111e-04 
-6.063230854436e-04 2.307129271710e-05 0.0 
2.307129271710e-05 4.258254267781e-03 0.0 
0.0 0.0 -6.358585252281e-04 
-6.548664831930e-04 3.770000341560e-06 0.0 
3.770000341560e-06 4.457898616998e-03 0.0 
0.0 0.0 -6.488888888889e-04 
-6.704807604954e-04 -3.181200734393e-06 0.0 
-3.181200734393e-06 4.139523021675e-03 0.0 
0.0 0.0 -6.711111111111e-04 
-6.519448377641e-04 9.585102352892e-06 0.0 
9.585102352892e-06 4.446587571773e-03 0.0 
0.0 0.0 -6.488888888889e-04 
-6.643169358871e-04 1.598213094946e-05 0.0 
1.598213094946e-05 4.135669863508e-03 0.0 
0.0 0.0 -6.711111111111e-04 
-6.628560694171e-04 4.220630236658e-05 0.0 
4.220630236658e-05 4.140094777351e-03 0.0 
0.0 0.0 -6.711111111111e-04 
-6.554176284668e-04 2.405280497155e-05 0.0 
2.405280497155e-05 4.445642855833e-03 0.0 
0.0 0.0 -6.488888888889e-04 
-6.690060439774e-04 2.025793204246e-05 0.0 
2.025793204246e-05 4.465053963584e-03 0.0 
0.0 0.0 -6.488888888889e-04 
-6.064361755080e-04 1.982912098429e-05 0.0 
1.982912098429e-05 4.335884925808e-03 0.0 
0.0 0.0 -6.691918585615e-04 
-5.634506181685e-04 -1.856852842989e-05 0.0 
-1.856852842989e-05 4.033404918511e-03 0.0 
0.0 0.0 -6.469696363393e-04 
-7.075315162010e-04 -3.247782179694e-04 0.0 
-3.247782179694e-04 4.305606072287e-03 0.0 
0.0 0.0 -6.600000000000e-04 
-6.398271965703e-04 3.921691488498e-04 0.0 
3.921691488498e-04 4.184231073606e-03 0.0 
0.0 0.0 -6.600000000000e-04 
-7.078150788587e-04 1.813354754417e-05 0.0 
1.813354754417e-05 4.306653958276e-03 0.0 
0.0 0.0 -6.822222222222e-04 
-6.381567957297e-04 6.336547185409e-05 0.0 
6.336547185409e-05 4.195569873202e-03 0.0 
0.0 0.0 -6.377777777778e-04 
-5.885253976530e-04 -3.076841355540e-05 0.0 
-3.076841355540e-05 4.174142785234e-03 0.0 
0.0 0.0 -6.377777777778e-04 

SCALARS element_materi_plasti_kappa_shear float
LOOKUP_TABLE default
1.898088649643e-03
1.711557051641e-03
5.588972410085e-03
5.625547274701e-03
3.501560146999e-03
7.282216725179e-04
3.474037579751e-03
1.788007566792e-03
3.522688057585e-03
5.576154387884e-03
3.814443258077e-03
1.461439354055e-03
5.618312958953e-03
3.751010953381e-03
5.727607835366e-03
5.730745783213e-03
3.485806207147e-03
6.593526459412e-04
1.219931793149e-03
1.129439279567e-03
5.615624188563e-03
1.975862239362e-03
2.216034645177e-03
5.387839390641e-03
4.000079313324e-03
4.090296639934e-03
3.221108468051e-03
5.760173945043e-03
4.029373913921e-03
5.523089313000e-03
9.290964436138e-04
4.104778426902e-04
5.763354464700e-03
4.818108341585e-03
5.606378478043e-03
5.926561905728e-03
5.911514681661e-03
5.601049808397e-03
3.175213616511e-03
3.219440155070e-03
2.522875806809e-03
5.613228156909e-03
1.314389251867e-03
3.093978597461e-03
5.492839635271e-03
1.306192107028e-03
5.547525844142e-04
5.389503964808e-03
2.459813448032e-04
3.614080566478e-03
2.381012112028e-03
1.496795143349e-03
1.233026261794e-03
2.292287135613e-03
5.625167383412e-03
1.964314716114e-03
1.446321564822e-03
4.840724010361e-03
9.102679910466e-04
5.734895616735e-03
3.755633206834e-04
5.378892164199e-03
2.330546822697e-03
1.083603178692e-03
5.615414212048e-03
2.131250052149e-03
1.604920622130e-04
5.736681007187e-03
9.706183660792e-04
5.615641150241e-03
4.241478972054e-03
5.874633494774e-03
5.400876667698e-03
4.558558305771e-04
1.986901141796e-03
5.633818988721e-03
5.766849763577e-03
9.985176399268e-04
7.761145875021e-04
9.970078257236e-04
9.298249562962e-04
3.329770783062e-03
2.084397622031e-03
1.770967893659e-03
3.674764228873e-03
3.652269385491e-03
4.362468712188e-03
4.711312884167e-03
4.861505206044e-03
3.454836133152e-03
2.515307574216e-04
3.378806059228e-03
4.682474906469e-03
4.702091845048e-03
6.023290360785e-03
5.787399672559e-03
3.332335907633e-03
5.769769997493e-03
3.930413862469e-03
2.258576815211e-03
3.348854702644e-03
5.740322727268e-03
4.646182631344e-03
5.409941681963e-03
2.044498184613e-03
6.875243722321e-04
5.293361504948e-03
5.009713215505e-03
4.133118292856e-04
5.636662395566e-03
4.631075715070e-03
3.269354662114e-04
2.695643369684e-03
3.134173944672e-03
2.394513305480e-03
2.006953041182e-03
2.358433690428e-03
5.680496234391e-03
3.862421047183e-03
2.174327584433e-03
9.453599785676e-04
3.463155550842e-03
4.910807945138e-03
2.193161772477e-03
6.864169327036e-04
2.833893873667e-03
2.488998346477e-03
2.624989890949e-03
5.744770783808e-03
8.095945313104e-04
4.016900758618e-03
5.625509815893e-03
2.834287320742e-03
2.685380764041e-03
5.614532063030e-03
5.633315586868e-03
4.360056895282e-03
3.033874980370e-03
5.768691703590e-03
2.715472649556e-03
5.618615457511e-03
5.760030365689e-03
3.718873437018e-03
4.339715431150e-03
2.744759010980e-03
2.474141180373e-03
3.120734003300e-03
2.345781934128e-03
3.431883328348e-03
2.738129196427e-03
2.430742527300e-04
3.688149105754e-03
8.387704164436e-04
2.991941880911e-03
5.628507851818e-03
2.024064835673e-03
4.530584219247e-03
1.460229167458e-03
4.626313542846e-03
3.347690434935e-03
2.537984777281e-03
4.987375735797e-03
8.656817948043e-04
5.285431651825e-03
3.359806122999e-03
5.766679500674e-03
3.342388058740e-03
2.107011085319e-03
2.928826646772e-03
3.947216798782e-03
1.526615979923e-03
2.569483147169e-03
4.520478967461e-03
3.465735922799e-03
2.391304591019e-03
2.779864257648e-03
5.040184275248e-03
2.772760665208e-03
5.618703717082e-03
5.759844672988e-03
1.983421498389e-03
2.659866027685e-03
5.141665672041e-03
2.630630496975e-03
1.717879912429e-03
3.236040194099e-03
2.634227826825e-03
5.637705462983e-03
4.673436176070e-03
5.143211062278e-03
1.164471534235e-03
2.407331954242e-03
4.803098661724e-03
1.296887470610e-04
2.602557350130e-03
4.814963733127e-03
6.908847608837e-04
5.616315559470e-03
4.285635638515e-03
2.554299594861e-03
4.795742518615e-03
3.724002802597e-03
3.932058578281e-03
5.497749636997e-03
1.904823798155e-03
3.244463136207e-03
3.481704692684e-03
4.488443812894e-03
3.550879868320e-03
3.254436741122e-03
4.171787960097e-03
4.925574717127e-03
3.793743182903e-04
1.944678655638e-03
2.211850110251e-03
3.157287865959e-03
4.893684273428e-03
9.647028340036e-04
4.643736636012e-03
3.342449784473e-03
2.377945774862e-03
4.477091166639e-03
4.380675775184e-04
4.584675247436e-03
3.699679224087e-04
5.360497299544e-04
1.154789664667e-03
1.594668909351e-03
4.784983334352e-03
1.546697935713e-03
1.383435816543e-03
1.200027858935e-03
1.005332530085e-03
4.949781021208e-03
3.380950736680e-03
5.631197498489e-03
0.0
1.665063222897e-03
2.673189362063e-03
2.423854183086e-03
4.621677125615e-03
5.764868817004e-03
4.590764537563e-03
1.954446704586e-03
4.960919873089e-03
4.205568891908e-03
3.320344157998e-03
4.410423547979e-03
5.507586445396e-03
2.709349539675e-03
1.580698985764e-03
3.836309747163e-03
6.017571415290e-03
3.278275707600e-03
3.423215564413e-03
3.753460771055e-03
8.863145511107e-04
3.518014179913e-03
1.918797851399e-03
1.292004175147e-03
9.082232253616e-04
4.755046881876e-03
3.676362788182e-03
2.294435875197e-03
4.952708212390e-03
4.718723855838e-03
3.481414558201e-03
5.642033395162e-03
3.523250685796e-03
3.640046674313e-03
2.917421140027e-03
3.717192777981e-03
1.585318004735e-03
3.357027743210e-03
2.838102944494e-03
2.007874057392e-03
4.547203828395e-03
1.589585432750e-04
3.708601455527e-03
2.047895045112e-03
1.700131027140e-03
1.626515464048e-03
3.929577795643e-03
6.380620704985e-04
2.384202047897e-03
3.820927590901e-03
3.640893065081e-03
3.744578397567e-03
8.473399745818e-04
1.972105034185e-03
1.841129336947e-03
2.144602490372e-03
4.453686851147e-03
2.425319558498e-03
2.633326203696e-03
2.506076668662e-03
1.050423010888e-03
3.001112002867e-03
1.139329181863e-03
6.012684016247e-03
6.015982038197e-03
3.371674230462e-03
1.754085065341e-03
1.538449888003e-03
3.733462517399e-03
1.667297713938e-03
1.800453244169e-03
3.281965826456e-03
5.778410886410e-03
2.212308197419e-03
4.148099921920e-03
1.220247403596e-03
6.015650448016e-03
1.627598388192e-03
3.408069598847e-03
1.126335977517e-03
4.035749165321e-03
2.797696233239e-03
1.935926706622e-03
3.513914298156e-03
6.014293587579e-03
2.340466570169e-03
3.854547700326e-03
1.257539573865e-03
4.211250131042e-03
4.445904991403e-03
1.749623395989e-03
4.109773335894e-03
6.017625920184e-03
4.749940685194e-03
6.020004411071e-03
4.066219120171e-03
4.677049970116e-03
1.453454976364e-03
3.226922138058e-03
3.605874528002e-03
3.801247617448e-03
3.116888250637e-03
6.023922603081e-03
3.900035487012e-03
3.427519582657e-03
2.541127325687e-03
1.304161433012e-03
3.097491959287e-03
1.828369059598e-03
3.480341907346e-03
1.973411461228e-03
2.245667589757e-03
4.717451703464e-03
1.865551334307e-03
3.320796694163e-03
3.948013352555e-03
3.499794145216e-03
6.014761074790e-03
2.797145162977e-03
1.840410315571e-03
2.476504328130e-03
1.777663760712e-03
1.715690849975e-03
5.020957594454e-03
3.604591250536e-03
2.461088412607e-03
3.037406839291e-03
6.020345341033e-03
5.688581187916e-03
4.974163615528e-03
4.623253995230e-03
3.403798714710e-03
2.542077870463e-03
1.793786123597e-03
2.084462978973e-03
3.443262116423e-03
3.946499106711e-03
2.984226002412e-03
5.025076478443e-03
1.876215262827e-03
2.954178187483e-03
3.441589599408e-03
2.662722220519e-03
6.012685245852e-03
6.016133295997e-03
5.644449372993e-03
3.701147822208e-03
4.921131353075e-03
1.545366707812e-03
2.377422492958e-03
1.336075859690e-03
2.584345771663e-03
3.338459339121e-03
4.044137853151e-03
5.756411723275e-03
4.924677558882e-03
3.800097117390e-03
3.895652219981e-03
1.419401544672e-03
6.642135258918e-04
2.837095037860e-03
3.243261720869e-03
3.038062407003e-03
6.767206337307e-04
3.595162726105e-03
1.242964933884e-03
1.791112892290e-03
5.886267587663e-03
4.319899469577e-03
3.400768600181e-03
9.348339381145e-04
3.083946857624e-03
2.871885156030e-03
3.962075947404e-03
6.018407561000e-03
3.198386693765e-03
3.766468143188e-03
2.946356736400e-03
4.889394747190e-03
3.802316230935e-03
6.019114699465e-03
5.878766063712e-03
5.874669666802e-03
5.846896484413e-03
4.057636266581e-03
4.920589971590e-03
5.113499940864e-03
2.631031740165e-03
2.507872621076e-03
2.813875816799e-03
5.059815959048e-03
6.015552509770e-03
5.051955043481e-03
4.017840351881e-03
5.084516464713e-03
4.404291654299e-03
3.045170865042e-03
2.550534457101e-03
1.338384591573e-03
5.646979922164e-03
2.469749811605e-03
5.384355873580e-03
2.775047533559e-03
1.799833226776e-03
5.623003894310e-03
1.949666713895e-03
5.877628319843e-03
5.634831675280e-03
3.696725743160e-03
2.315629071755e-04
5.876846230322e-03
5.625196717779e-03
1.763143550620e-03
4.153888461443e-03
6.029088701749e-03
0.0
2.757791127203e-03
3.859953108443e-03
3.533917503000e-03
3.571063382657e-03
1.501745143730e-03
5.871219529997e-03
2.671327868410e-03
8.692276940893e-04
5.775417212412e-03
4.034087724253e-04
2.877183319107e-03
7.845786155791e-04
3.064343649170e-03
6.008207932275e-03
5.886416939798e-03
3.769097730369e-03
5.416058611577e-04
6.663225248162e-04
9.264097944293e-04
5.017458723071e-03
3.488320970718e-03
3.568311924561e-03
5.888518575312e-03
3.493284622980e-03
6.023303222970e-03
4.495210095570e-03
3.909299515792e-03
1.880309591682e-03
4.118987834466e-03
1.217020428602e-03
5.888099209517e-03
5.858622551973e-03
5.871281062107e-03
3.837749785842e-03
2.642161995129e-03
3.082539161524e-03
3.932200029967e-03
5.884737103442e-03
1.826405636236e-03
2.101531865548e-03
2.230991329468e-03
4.079210194315e-03
6.020724823755e-03
6.550876827097e-04
5.870906118256e-03
2.061330388785e-03
5.887134204678e-03
5.158371209842e-03
1.735033884423e-04
2.876871465872e-03
5.119259939334e-03
5.882578435152e-03
4.090807838191e-03
4.627625074893e-03
1.056059908013e-03
5.381604359168e-03
2.190366286690e-03
2.266492401597e-03
4.233392830062e-04
5.876777887152e-03
1.506277909376e-03
4.962026184372e-03
3.779613678589e-03
1.886868617371e-03
2.137991957806e-03
3.928710791902e-03
5.887503593490e-03
2.741417539434e-03
4.307478873942e-03
3.496708023987e-03
3.907072451988e-03
2.300842511533e-03
4.002515627125e-03
3.405034769092e-03
4.439472514518e-03
4.416922306321e-03
3.333573885478e-03
2.813436354788e-03
1.986436464636e-03
2.602497471918e-03
4.536209320527e-03
3.650011259562e-03
6.021028889714e-03
5.248340798342e-03
1.675475904991e-03
5.860952443922e-03
5.749243689854e-03
3.130366137552e-03
2.446157471383e-04
6.015808451350e-03
5.216828897001e-03
1.891089920309e-03
5.872438978963e-03
4.140650168509e-03
2.670441489397e-03
3.672959727573e-03
3.555689535213e-03
3.535938459604e-03
4.076028772190e-03
4.323837798527e-03
2.998150908977e-03
4.588814172264e-03
3.990156233101e-03
2.851900776380e-03
4.246963853771e-03
2.223560657060e-03
3.981478068334e-03
1.793397212350e-04
2.156315504880e-03
2.097111767555e-03
3.079683430517e-03
3.294455684710e-03
4.105285117446e-03
3.968717882502e-03
1.929111457824e-03
5.886335248325e-03
3.894339398565e-03
3.209529361218e-03
3.730809639925e-03
3.117776647955e-03
0.0
3.867784336933e-03
2.563323944442e-03
0.0
3.036200146822e-03
4.407600196631e-03
5.076924335597e-03
3.778145075046e-03
3.865417070565e-03
3.297599931106e-03
3.075297279978e-03
5.632622103086e-03
3.567491943935e-03
1.510039486835e-04
1.062090790194e-03
2.398810579769e-04
1.837694429977e-03
5.063783013299e-03
5.108968424711e-03
4.804181478442e-03
2.074537259418e-03
4.022688107491e-03
5.049168604237e-03
1.160096365863e-03
2.576389109967e-03
2.078055360937e-03
6.021089235366e-03
5.881485963002e-03
2.857156921414e-03
3.246692301346e-03
3.629498285744e-03
5.229137518708e-03
1.125785695799e-03
4.880206649917e-03
6.831862832839e-04
2.949407645451e-03
3.288357648769e-03
2.441249237017e-04
2.697767110358e-03
5.212641935745e-03
1.752329176366e-04
3.063219008196e-03
3.208047659791e-03
4.245083115866e-03
2.103654506232e-03
2.019431576275e-03
1.421520152248e-03
5.225289819944e-03
5.632171442564e-03
4.908962959162e-03
1.901082200919e-03
7.152422822502e-04
3.069002747989e-03
3.072118229683e-03
3.221248037221e-03
0.0
2.370160903131e-04
5.310782124113e-04
1.561897998935e-03
4.249046179326e-04
3.032717901044e-03
0.0
1.864630217503e-03
4.122518464148e-03
3.216172429738e-03
5.209439031162e-03
4.234717777356e-03
3.854408568460e-03
2.248560931312e-03
6.787283102328e-04
5.869561306561e-03
6.023626633703e-03
3.742684779077e-03
3.077333598062e-03
2.287820883481e-03
6.009559958077e-03
1.773006016400e-03
3.202342050267e-03
3.064099742472e-03
2.912794716067e-03
5.888568312805e-03
6.006021539653e-03
4.166942996851e-04
0.0
8.441431879688e-04
3.250853044043e-03
5.464355466467e-03
1.629622625435e-04
4.849407318231e-03
0.0
4.167229288684e-03
1.911385708274e-04
1.855469029488e-04
3.998077199970e-03
5.296543687334e-03
4.237134437895e-03
3.194088539209e-03
2.435063913800e-04
4.153210895562e-03
5.861217735276e-03
6.009791560538e-03
3.214582083037e-03
4.335922088801e-03
5.878708529905e-03
4.662336340161e-03
6.526260522665e-04
4.186243951470e-04
2.626649538589e-04
2.550412609600e-03
6.014031515604e-03
5.628686910939e-03
0.0
3.011280459441e-03
5.891985303537e-03
6.031512279974e-03
6.009444186578e-03
4.549765932770e-03
5.010826545378e-03
5.864343994050e-03
5.879214029285e-03
4.848773824588e-03
1.474383398766e-04
3.191688509645e-03
3.230904037540e-03
0.0
5.898372924748e-03
6.024797090299e-03
5.861254662737e-03
1.875139568358e-04
1.924224746449e-04
5.871534849748e-03
5.866174925494e-03
4.404639489746e-03
3.191281210692e-03
4.696669621923e-03
3.777426634559e-03
3.187300555971e-03
1.702406008909e-04
1.962141474448e-04
1.658004844312e-04
1.808088655351e-04
3.181347729344e-03
2.857668427393e-03
0.0
4.096797302130e-03
0.0
5.867214387610e-03
5.859324762587e-03
5.872796053912e-03
1.028821985916e-03
1.936630062470e-03
5.864275948506e-03
5.016839626708e-03
5.891943567254e-03
5.328174982673e-03
5.640245512770e-03
2.701665040976e-03
6.022983703665e-03
6.017003585591e-03
5.139388847066e-03
5.463393282501e-03
4.411575174769e-03
0.0
2.784277416710e-03
4.061884078683e-04
5.259286228377e-03
2.908833121132e-03
4.850143225763e-03
1.472710261241e-03
5.420604269260e-04
5.189202363176e-03
3.073447472489e-03
2.406449859391e-03
4.889636581614e-03
5.255592395656e-03
2.405392247394e-03
4.614670723085e-03
4.023251322217e-03
4.374804059547e-03
4.518070815714e-03
2.466020010935e-03
2.911636777842e-03
3.205404967252e-03
4.113353234630e-03
5.029297459228e-03
4.665945937406e-03
1.491277829959e-03
5.243929663885e-03
4.941851688277e-03
3.558682000750e-03
4.285917425276e-03
4.244579152953e-03
5.321773155122e-03
5.122199489663e-03
3.931103671375e-03
5.320806263415e-03
4.878121851522e-03
4.664188533065e-03
5.406777608810e-03
5.283094587084e-03
4.496087669439e-03
4.444458481023e-03
1.481875117849e-03
1.376911560334e-03
7.503612397896e-04
4.158489178225e-04
5.132283977735e-03
5.119873486994e-03
4.012352521065e-04
5.178558947058e-03
3.672287986049e-03
4.759407346754e-03
4.816897172186e-03
2.140610803278e-03
4.851861367702e-03
3.563436395175e-03
4.454648778840e-03
5.513811741196e-03
1.417713283077e-03
5.445572691693e-03
4.665806061983e-03
1.612851643597e-03
1.714759419245e-03
3.438255392646e-03
4.137623841864e-03
2.296870595819e-03
4.830815432738e-03
4.338838747335e-03
3.342675223842e-03
4.545437980776e-03
4.722218982109e-03
4.634762812797e-03
1.261713162161e-03
3.173154214210e-03
5.055839016286e-03
4.803789849080e-03
2.857994266569e-03
4.062765352512e-03
5.318088809597e-03
4.463221862301e-03
7.092725784376e-04
7.188837629253e-04
1.457330486298e-03
4.991375457445e-03
4.302592537165e-03
3.790381226361e-03
3.831560113468e-03
5.088582652342e-03
3.475465703060e-03
4.681796565250e-03
1.519021719428e-03
5.403126934034e-03
3.381852318330e-03
1.662591917742e-03
3.207575975263e-03
2.427493216678e-03
1.903845874229e-03
3.731045389275e-03
0.0
0.0
4.284173046855e-03
1.393362755241e-03
4.325320826384e-03
4.194819161297e-03
2.641355429632e-03
1.719362769164e-03
5.077648961166e-03
6.798414436796e-04
2.568347176664e-03
5.235874665598e-03
1.155384575714e-03
4.027503858662e-03
3.708502873321e-03
1.170523382264e-03
5.180869859233e-03
4.605325228012e-03
1.354425768675e-03
5.208339196432e-03
5.174454579939e-03
1.560392004205e-03
2.066462287853e-03
1.601268088310e-03
4.585233918786e-03
3.608599847271e-03
5.182420533551e-03
5.047083544607e-03
4.455861124158e-03
4.416860348408e-03
1.262227011679e-03
4.546872248422e-03
4.575231375888e-03
3.645268122884e-03
4.332465809534e-03
4.772714813264e-03
3.224253829144e-03
4.911353602778e-03
3.039446067918e-03
3.515433690721e-03
2.274449684327e-03
2.423089078890e-03
4.439297428605e-03
3.365892711140e-03
1.732320824868e-03
8.737837506730e-04
4.468449371054e-03
1.692563081125e-03
5.400363428095e-03
4.604462714681e-03
4.720726376404e-03
5.614884535387e-03
2.906736885669e-03
1.519615723243e-03
9.588952552173e-04
4.497763875840e-03
4.168753252709e-03
6.612546370243e-04
2.334923660638e-03
1.349036943465e-03
4.164466221195e-03
2.463752493733e-03
4.155025201166e-03
2.292333716335e-03
4.974481416777e-03
1.996568548932e-03
4.538601579327e-03
1.422865093935e-03
4.366068561899e-03
3.354002373652e-03
4.590163414602e-03
2.268610930299e-03
1.307910686375e-03
3.881907493683e-03
4.205574957263e-03
2.920421497113e-03
4.187784013099e-03
1.586935699350e-03
4.244922793799e-03
1.226338966711e-03
5.150001748039e-03
4.374413810112e-03
4.622543358684e-03
5.394833408084e-03
3.667741289077e-03
1.224125341458e-03
4.102435654437e-03
5.282422523208e-03
2.057763750215e-03
4.628995763583e-03
4.635584555752e-03
1.589158083945e-03
4.234441115403e-03
3.821646127754e-03
1.821001696294e-03
2.204998645608e-03
3.531838972984e-03
4.458682283978e-03
2.705458114869e-03
3.369397376081e-03
4.409627360569e-03
3.999189459908e-03
3.940589006345e-03
3.315097548747e-03
5.049644574621e-03
3.970188919273e-03
3.865457449799e-03
5.335960465199e-03
4.786774600188e-03
4.326858616178e-03
4.742369029763e-03
2.549037087326e-03
2.376936366428e-03
1.302651264701e-03
4.273366818875e-03
2.508792953611e-03
4.299375558000e-03
4.132696996014e-03
3.389416804487e-03
2.034302780513e-03
2.172486861284e-03
2.165955219120e-03
2.337607654919e-03
1.391516248166e-03
4.919034255652e-03
2.855049591197e-03
4.941701353565e-03
3.027877065094e-03
4.063567962409e-03
3.458337729904e-03
3.331673446639e-03
1.430769057123e-03
5.141025598269e-03
5.386317345378e-03
4.241134245443e-03
2.509978051558e-03
3.760813505748e-03
4.270720268813e-03
2.680282115890e-03
2.797254708148e-03
2.037210772217e-03
1.757966815576e-03
2.721514213298e-03
1.824017326780e-03
1.691969220267e-03
3.496848774705e-03
4.195328690588e-03
4.995266969494e-03
2.135838877742e-04
2.937051639141e-03
2.897351463058e-03
2.682523461315e-03
4.103488450026e-03
3.156230924954e-03
2.130711016344e-03
2.894759596741e-03
4.775391991284e-03
2.173955602432e-03
7.788298120350e-04
1.098630592693e-03
1.847249263452e-03
2.207153680070e-03
3.068504768790e-03
3.066805177260e-03
1.285438509384e-03
1.138227833186e-03
3.930039062681e-03
1.865163626252e-03
4.708651258612e-03
4.829683528524e-03
3.996321467094e-03
4.986241804288e-03
5.148048922335e-03
3.260814721480e-03
4.534131096749e-03
1.457572490377e-03
3.023482251318e-03
2.967208668201e-03
1.645155887212e-03
1.166961927379e-03
2.469642956954e-03
2.937206611966e-03
3.106798960592e-03
1.956772177710e-03
3.328078992345e-03
2.976908204584e-03
3.106378807451e-03
2.248119148986e-03
4.413942525391e-03
4.439751776255e-03
2.976392922480e-03
5.010927287276e-03
1.627877766205e-03
5.381669347488e-03
3.196867194148e-03
5.344914307263e-03
4.057033022443e-03
1.547485956853e-03
4.123901821043e-03
5.087178339347e-03
3.367611906554e-03
2.440942977478e-03
4.251329185006e-03
3.207452396218e-03
1.238538391459e-03
5.593643574323e-03
1.085824202323e-03
5.357726211726e-03
5.214885560155e-03
4.544742657186e-03
3.963126868919e-03
4.882709138368e-03
3.144855381723e-03
3.686700440280e-03
5.279854728997e-03
4.499470890681e-03
4.577778607108e-03
4.305077680676e-03
1.417434976899e-03
4.713217591497e-03
5.753142823153e-03
5.329243380658e-03
2.984954618286e-03
3.988249552619e-03
3.801645055376e-03
3.235172335353e-03
4.367027888534e-03
4.537516687745e-03
9.970547420202e-04
1.879690939538e-03
3.146058965649e-03
3.016269873665e-03
3.169182906176e-03
5.469468509572e-03
5.150681403781e-03
5.240179499594e-03
2.868576175316e-03
4.786586511308e-03
4.405806436379e-03
5.327777423767e-03
4.543377517499e-03
3.194953866718e-03
3.016658390278e-03
4.683655011930e-03
5.186209915555e-03
4.713484120123e-03
4.548206090170e-03
4.976866936040e-03
5.217579174467e-03
4.840160058745e-03
3.891876227783e-03
2.750258353967e-03
4.710107048531e-03
4.455858956637e-03
1.652249011372e-03
3.184856128294e-03
3.569010409292e-03
3.985083673358e-03
1.671830613806e-03
3.055529241679e-03
4.284410717116e-03
3.160882025297e-03
3.286974656951e-03
4.234469480443e-03
3.357266040902e-03
5.832224582001e-04
3.799395819487e-03
4.636565872287e-03
5.317751045333e-03
3.481406310990e-03
3.589447844127e-03
4.274698478407e-03
8.890581030902e-04
4.506465777264e-03
3.816858646073e-03
3.354799917759e-03
4.576186082816e-03
1.676633756965e-03
4.747043128416e-03
5.187298868340e-03
4.376407166304e-03
4.744547438801e-03
4.830907234008e-03
5.222428902797e-03
1.201860364892e-03
4.408544086062e-03
5.240903661220e-03
4.852152895878e-03
4.077198400922e-03
3.222276421180e-03
3.512191017662e-03
9.501978410136e-04
5.017421712005e-03
1.785962296740e-03
1.474080171039e-03
4.696567737555e-03
5.360782323002e-03
1.502195583134e-03
3.694570648950e-03
4.514270677664e-03
3.456703744762e-03
1.710610669055e-03
2.238950842234e-03
1.102844825229e-03
1.463725195595e-03
1.298709706981e-03
3.778806340878e-03
6.016319104850e-03
1.770958764898e-03
5.108227611126e-03
2.760707398476e-03
4.377813891094e-03
1.251866579467e-03
5.389992930062e-03
1.329712956055e-03
2.093643212440e-03
4.546924323321e-03
3.272001809033e-03
5.085454575005e-03
2.505652950449e-03
4.652855770583e-03
5.305274251484e-03
4.381154287587e-03
5.353154153797e-03
4.847010383273e-03
4.984300817298e-03
1.461091507052e-03
4.931565832531e-03
4.651005362573e-03
3.390008201393e-03
2.079335679828e-03
5.500831082514e-03
1.712811546916e-03
1.993152190864e-03
4.885708378640e-03
1.216541976104e-03
3.495171392387e-03
4.675591106622e-03
5.272532937545e-03
5.420840566733e-03
4.583883740699e-03
5.018032232522e-03
2.928193951873e-03
4.734205484299e-03
2.384407325899e-03
5.226115629599e-03
2.691920380854e-03
2.821439891355e-03
3.352681362175e-03
3.005156168196e-03
3.913667205993e-03
3.168162756046e-03
3.350908701417e-03
1.499540076307e-03
3.184302201097e-03
5.155825657334e-03
5.317650690563e-03
4.630365567379e-03
5.181610671434e-03
3.234889799458e-03
4.952004252636e-03
3.313357221722e-03
5.062045811440e-03
4.816274352400e-03
4.818099421099e-03
4.206405183177e-03
3.056304276052e-03
5.021296019776e-03
4.023314824600e-03
1.538746154334e-03
1.749640413363e-03
2.581840747201e-03
3.659895849796e-03
5.198547264467e-03
4.682421595145e-03
3.094059173860e-03
4.145541869622e-03
4.812672239436e-03
5.049278077315e-03
5.190177469339e-03
4.186777916003e-03
4.922584909275e-03
3.519092201106e-03
4.841945469779e-03
3.459285380478e-03
5.318103245047e-03
5.375730321285e-03
3.907284938938e-03
1.543762532817e-03
4.924088818987e-03
3.784631978290e-03
2.966232018542e-03
4.115084444643e-03
4.786551662215e-03
1.580177343230e-03
3.609609721518e-03
4.218839080460e-03
5.235324707913e-03
4.343885302361e-03
4.794481932196e-03
4.091858975395e-03
3.838629298260e-03
4.150165290363e-03
5.016907512540e-03
4.843633938430e-03
4.487236376390e-03
5.391551705940e-03
3.964776956212e-03
2.504722224904e-03
5.126866157334e-03
5.351865102208e-03
3.421523486689e-03
3.585506366848e-03
2.798993443276e-03
4.621665338398e-03
2.797993190934e-03
4.008922037687e-03
2.829376981743e-03
4.717608549950e-03
5.388550033297e-03
2.927070685157e-03
9.888206599125e-04
5.353078015974e-03
2.956776001860e-03
3.401650254318e-03
5.219422455657e-03
4.518245132016e-03
4.710258760874e-03
3.004500417497e-03
7.783076031665e-04
5.413634110948e-03
3.785549847173e-03
4.475770357229e-03
5.138569278830e-03
4.994909691428e-04
4.670933741567e-03
2.116054709690e-03
4.214096454066e-03
3.759983120660e-03
2.888083435173e-03
5.100516085727e-03
3.877479781614e-03
2.594149316670e-03
3.983879265493e-03
8.165376085929e-04
4.568690469439e-03
4.756083401336e-03
5.452995028681e-03
4.864947734128e-03
2.043386112127e-03
4.669335817464e-03
5.443502610785e-03
5.653283028556e-03
4.924221690428e-03
3.131071400812e-03
4.275149951314e-03
5.153531541623e-03
3.483038301481e-03
4.661124208018e-03
4.348587759454e-03
4.969873350217e-03
4.879399467596e-03
3.061812406022e-03
3.059832632554e-03
4.421565437881e-03
4.367095910945e-03
3.892926071110e-03
4.346817112173e-03
3.712232804534e-03
5.218395199065e-03
3.094455246611e-03
6.015990180958e-03
3.548926640244e-03
3.622651461457e-03
3.720989189851e-03
1.917689178557e-03
3.325283759535e-03
4.075520205487e-03
3.823291195348e-03
4.324099751295e-03
4.442674123027e-03
4.635684442584e-03
9.413748427401e-04
3.116803001466e-03
2.990095831993e-03
4.183071766205e-03
4.385629020003e-03
5.129593891229e-03
1.345885066556e-03
1.412365657132e-03
3.622797484364e-03
3.154436867303e-03
2.871305297426e-03
3.029007655749e-03
4.352626062824e-03
1.378394098464e-03
3.551958554456e-03
4.673475020981e-03
1.371021261255e-03
5.626560674904e-03
5.140839489265e-03
3.418542020247e-03
4.761469995819e-03
5.340586268801e-04
4.506684223349e-03
3.820960628806e-03
5.232531716934e-04
5.112554520633e-03
1.291496177795e-03
4.218615333140e-03
3.856857888662e-03
3.312116629244e-03
3.970751915482e-03
5.253907736522e-03
4.273307236225e-03
3.748874096129e-03
3.658427402968e-03
4.072848571604e-04
1.086582957134e-03
4.988340503471e-03
4.027251590836e-03
5.093944963423e-03
2.082136659873e-03
4.849015704641e-03
5.165290452317e-03
3.099958031898e-03
4.951145023831e-03
4.800202598035e-03
4.202189340322e-03
3.419837614494e-03
3.627723820665e-03
5.408792691943e-03
3.669252203194e-03
3.949521165470e-03
3.687500356751e-03
4.577290825851e-03
3.457616430748e-03
2.136542330794e-03
3.737765005846e-03
2.300519927022e-03
4.313534934977e-03
2.336835197399e-03
4.185013498204e-03
5.058632123647e-03
4.845402042790e-03
3.258903797757e-03
4.157867652743e-03
4.893039108893e-03
4.931637404463e-03
1.098595117713e-03
4.276866742040e-03
5.348494697504e-03
2.274754905370e-03
3.720777205156e-03
5.805350037142e-04
5.023459904507e-03
2.007146323956e-03
3.516536072154e-03
4.448684330717e-03
4.188265097601e-03
3.987994876210e-03
3.912543751932e-03
2.560060998670e-03
2.716022476841e-03
5.063727723485e-03
4.170414237267e-03
3.608810319198e-03
4.473149988466e-03
3.442042596625e-03
2.210516303654e-03
2.509306508329e-03
3.743956289805e-03
3.211982025181e-03
4.884087041847e-03
3.294332851053e-03
5.470028085312e-03
4.968312631613e-03
3.648648400585e-03
5.541933827682e-03
2.466546029825e-03
5.345527466215e-03
3.948482313971e-03
4.328605554235e-03
5.112321421619e-03
2.597683647667e-03
4.115029269880e-03
3.480150837066e-03
4.019186076767e-03
2.272393606485e-03
4.466658165346e-03
3.272828574776e-03
3.852140252587e-03
3.985530946530e-03
5.486019707335e-04
3.987424940170e-03
8.554820142323e-04
9.504026979452e-04
3.679756779392e-03
4.895621551102e-03
4.114719913355e-03
2.260582699587e-03
5.890341927598e-03
2.361196323926e-04
2.408933314321e-03
3.696570178526e-03
3.550836608979e-03
2.949897068498e-03
2.521788525811e-03
3.865826064652e-03
4.111851899734e-03
4.291338337804e-03
5.060421643315e-03
1.172731196860e-03
3.380194152908e-03
3.645284340248e-03
1.945070109137e-03
3.263324571413e-03
4.151874911649e-03
4.514501832048e-03
6.678202814271e-04
4.351335771458e-04
1.356777941614e-03
3.683303970356e-03
2.761138937455e-03
2.431180347952e-03
2.170243072616e-03
3.811952085602e-03
4.376533666742e-03
3.777763179950e-03
2.723670872440e-03
4.310662224790e-03
3.611591761329e-03
4.750283438547e-03
3.815774579288e-03
3.851468414051e-03
1.944050795949e-03
2.890987107893e-03
3.905608017060e-03
4.252910968047e-03
3.994175970999e-03
2.110867462038e-03
3.944631663858e-03
2.390664015243e-03
1.124080825948e-03
5.376953591042e-03
1.187499430943e-03
2.482769913719e-03
3.879865431681e-03
2.200126612380e-03
3.952345974418e-03
1.811928905985e-03
3.356343314340e-03
3.983365723056e-03
3.440832380153e-03
3.590886272855e-03
5.778240294564e-04
5.177570466669e-03
2.852018100216e-03
5.139923105349e-03
4.369987342579e-03
4.075819768185e-03
4.112944593259e-03
2.558534294897e-03
8.044732495801e-04
4.846447285547e-04
4.204879470093e-03
5.110788681143e-03
2.351481271792e-03
4.405521083047e-03
2.090274329685e-03
4.476809174747e-03
5.754213561495e-03
1.628784469015e-04
5.886643384746e-03
5.901414175980e-03
3.458575707159e-03
2.812867409509e-03
4.241011420016e-03
2.631198119222e-03
8.395301720451e-04
4.442063176974e-04
5.416028733597e-03
4.290643224770e-03
3.238039868260e-03
6.016407931761e-03
1.526058316679e-03
6.021404174662e-03
4.252293004767e-03
2.770700704573e-03
4.037975120995e-03
2.603169544956e-03
1.275543801189e-03
2.434051418874e-03
4.504021302162e-03
5.149429450184e-03
2.644039120232e-03
4.570681309338e-03
0.0
2.683791218028e-03
4.759413754436e-03
2.380487600569e-03
2.182231533104e-03
4.074582213105e-03
1.142827734401e-03
1.613360141681e-03
1.808060117334e-03
2.084692713343e-03
3.738888209100e-03
3.552566181395e-03
4.601487464017e-03
5.387303345294e-03
1.895037985309e-03
4.547788030597e-03
5.406404464741e-03
2.430574595185e-03
8.388200309560e-04
2.308570276636e-03
3.567446514914e-03
4.605708546548e-03
3.532472732913e-03
9.838862332244e-04
4.035330324993e-03
1.450893591273e-03
3.586284318698e-03
3.831672797715e-03
4.170149154859e-03
4.132286282917e-03
2.127223100425e-03
9.534914560383e-04
4.136513997941e-03
1.590009906794e-03
3.818359164413e-04
5.392622240487e-03
5.134895118372e-03
2.358553379801e-04
4.335577273877e-03
1.652975194542e-03
1.733439247888e-03
4.869520458032e-03
4.202282593856e-03
4.701518647351e-03
2.723483443401e-03
3.214868672807e-03
5.618894135867e-03
1.429456025818e-03
4.994104156300e-03
3.749384831161e-03
1.080098481845e-03
4.468944246879e-03
2.850501028317e-03
5.229780796343e-04
2.395768144624e-03
4.403868178899e-03
4.552935884602e-03
1.122570998337e-03
3.592706244326e-03
4.742720139637e-03
4.941703297220e-03
2.257577943858e-03
1.773224354185e-03
3.849204691396e-03
4.071024716265e-03
5.196053913260e-04
5.764981452673e-03
5.619546678147e-03
3.612944456398e-03
5.643094491975e-03
5.633179208426e-03
2.812315344072e-03
2.684208433063e-03
5.774953852408e-03
0.0
1.642459376677e-03
3.615456688328e-03
2.303853360214e-03
2.356132906425e-03
1.288375400597e-03
1.523495052579e-03
3.689273836909e-03
2.596505031526e-03
1.903570888892e-03
4.768488117706e-03
6.016953446853e-03
6.019036760985e-03
2.772486331110e-03
3.327990862488e-03
3.338379874677e-04
1.033148740315e-03
1.155791037094e-03
1.182207438934e-03
4.038315348238e-03
2.314844929729e-03
2.560267431529e-03
6.984958962329e-04
5.129856721972e-03
2.519676737210e-03
5.369560606069e-03
4.921920194395e-03
6.028148600870e-03
6.024927523322e-03
3.694826416134e-03
2.643467046654e-03
1.596779775992e-03
2.730315514544e-03
5.897744789275e-03
7.273837460651e-04
8.727452914998e-04
5.171338012505e-03
3.477662201300e-03
5.409990092851e-03
4.766370635138e-03
5.205506796534e-03
4.984047288898e-03
3.660646591583e-03
2.009740382611e-03
1.966632147612e-03
4.354966851432e-03
5.090565716970e-03
3.059094088471e-03
3.470038770667e-03
3.693952598066e-03
3.772778857696e-03
9.470076460965e-04
1.787152598033e-03
5.767752696873e-03
4.034960654971e-03
5.756079931259e-03
5.497145112359e-03
4.509775173530e-03
5.432774287522e-03
2.645253503307e-03
2.511337306943e-03
5.406759837386e-03
2.304638287393e-04
1.771966949554e-03
5.883028560639e-03
8.247074295860e-04
3.324809475671e-03
5.529445601793e-03
5.796810560745e-04
3.735041338849e-04
6.010222977965e-03
3.068950323843e-03
5.659948107382e-03
5.391425944959e-03
3.060672020253e-03
3.701494320501e-04
5.629476601577e-03
9.427571928059e-04
5.445974576444e-03
5.891393706380e-03
5.428284510192e-03
1.205305933195e-03
3.730388698424e-03
2.799861645862e-03
4.776394335281e-03
6.019211625132e-03
4.734875419906e-03
6.017874104347e-03
5.525430350756e-04
5.764155817737e-03
1.379826528368e-03
7.818426790371e-04
5.771398210854e-03
5.772672408195e-03
5.750122728571e-03
3.364853212441e-03
3.669284283972e-03
1.289535518306e-03
5.767367083341e-03
2.258902969130e-03
7.533765705700e-04
4.926344783199e-03
3.188420317882e-03
5.482259513434e-03
5.953772275136e-03
5.893932355244e-03
1.556562156404e-04
7.519299109275e-05
3.129847729158e-03
3.204854259840e-03
5.889443725007e-03
5.949944079457e-03
3.717729449494e-04
0.0
5.412787547920e-03
5.428215329942e-03
1.134510679474e-03
5.501228040530e-03
3.826590884489e-03
3.385765392231e-03
4.259215926484e-03
1.033495775153e-03
4.492845514927e-03
9.286955643622e-04
3.016528213224e-03
5.456768976603e-03
5.324962882905e-03
3.256994374191e-03
3.913984556786e-03
5.533514411026e-03
5.100824001865e-03
4.804745634301e-03
3.058531543379e-03
4.339009031687e-03
5.424931143324e-03
1.698845153725e-03
4.086781350246e-04
5.273729960381e-03
4.969714239598e-03
7.789488230220e-04
4.461302677928e-03
5.625097067298e-03
5.215165969830e-03
5.527785936845e-03
4.184635835076e-03
2.450732908034e-04
1.273338932172e-03
1.607268086115e-03
3.578185125380e-03
4.310413086534e-03
5.506795170732e-03
5.617673364480e-03
6.645911850498e-04
6.388748237894e-04
1.019502716968e-03
4.467708076661e-03
2.159520161712e-03
5.529519713859e-03
1.082739524012e-03
5.378468444182e-03
3.624426704377e-03
5.642484205688e-03
4.966747949266e-03
3.587861483021e-03
5.771512121934e-03
5.779451194585e-03
5.760792399076e-03
7.089390944598e-04
5.397932790268e-03
5.622343722044e-03
5.472950722519e-03
5.052268972403e-03
5.880549672383e-03
4.768122438881e-03
0.0
9.845756963829e-04
5.283361989644e-03
3.879740068610e-03
5.433335536349e-03
5.248543119057e-03
5.652713428879e-03
4.807093912347e-03
5.652238210163e-03
5.501769948461e-03
5.478616351915e-03
2.254971077609e-03
6.018212737185e-03
3.451522871175e-03
5.433186761320e-03
5.068656971482e-04
5.235659828438e-03
4.498616084438e-03
6.477069853907e-04
1.135724772342e-03
4.905082491478e-03
5.637492893173e-03
5.504426529729e-03
5.673913725339e-03
3.852881204388e-03
3.799041860716e-04
5.935897059171e-04
4.188938165998e-04
8.250409444332e-04
1.478748655910e-04
2.994768496768e-03
5.427348189453e-03
5.458882754827e-03
3.883455718842e-03
2.608660953034e-03
5.476751558409e-03
5.429576111220e-03
5.784117117048e-03
5.420830804507e-03
5.193598780718e-03
5.135394386581e-04
5.681154926279e-04
5.488737210922e-03
5.166391021769e-04
7.619709822300e-04
4.832364846617e-04
5.799786674799e-04
5.645675802182e-03
5.655037542831e-03
5.514781828190e-03
5.671443408193e-03
5.255264111174e-03
4.033418773149e-03
5.899144122698e-03
1.388436502105e-03
3.180255969687e-03
8.723897877041e-04
2.133422569491e-04
6.015531814482e-03
3.502525969212e-03
8.808568387309e-04
2.855369314806e-03
5.783822611068e-03
5.499347830224e-03
5.655534667043e-03
2.044016280955e-03
5.432286145459e-04
5.780287558168e-03
6.015607847563e-03
6.035949087319e-03
3.352497016113e-03
5.397561630392e-03
7.778562056283e-04
5.539597143374e-03
2.048357633213e-04
5.660676748681e-03
5.761438663708e-03
2.169999861618e-04
5.276842850465e-03
4.633513032721e-03
5.657467102238e-03
5.913925366103e-03
4.247858577439e-03
5.671720231098e-03
5.525428271373e-03
4.362177274661e-03
5.479739394229e-03
2.387201356291e-03
3.053723610195e-03
5.526446984933e-03
5.736294853841e-03
0.0
3.063983621229e-03
5.747940021174e-03
1.061697143843e-03
5.531390322422e-03
5.495470709881e-03
5.762937850711e-03
1.031440225739e-03
8.053626735849e-04
3.509970528096e-03
5.010988788466e-03
1.260771232344e-04
5.677193264911e-03
4.090526400836e-03
1.039673297651e-03
3.888574816327e-03
5.772338171833e-03
3.681185629208e-03
3.038880930972e-04
2.159618659613e-03
3.184608949978e-03
3.800834338169e-03
5.524986598456e-03
3.091083311451e-03
3.266927546245e-03
5.190819916672e-04
5.520367014093e-03
5.284258696945e-03
8.877738012255e-04
5.674860832192e-03
5.710960226183e-03
3.423111596940e-03
4.198163726001e-03
3.122389092001e-03
3.191264477013e-03
3.380114392671e-03
5.252725700940e-03
7.633269386086e-04
5.525012493520e-03
3.559702453178e-03
5.772557366742e-03
5.241338347213e-03
3.993508198578e-03
5.321259532480e-03
5.468684898978e-03
5.796731642521e-03
2.386710946758e-04
5.348756869277e-03
5.540450075665e-03
5.978130445140e-04
2.916813067191e-03
3.606876982127e-04
5.579480516134e-03
7.070867900915e-04
7.959193303711e-04
6.253017969559e-04
7.890004012232e-04
6.221363949338e-04
7.902119992199e-04
6.232743378458e-04
7.912403387225e-04
6.242768910902e-04
7.918679183924e-04
6.249264044027e-04
7.921872251414e-04
6.252827381142e-04
7.922910956479e-04
6.254265982603e-04
7.922495576071e-04
6.254272811085e-04
7.921122860893e-04
6.253347160669e-04
7.919206435061e-04
8.190320528747e-04
6.251914668855e-04
7.917245357460e-04
6.250494796087e-04
7.719268158376e-04
7.916106186424e-04
6.249907023649e-04
6.151587336455e-04
7.916064560977e-04
6.250487707079e-04
7.917731340070e-04
6.252393626774e-04
7.919589849500e-04
6.254696238108e-04
7.924602386790e-04
6.258520532772e-04
7.925800824591e-04
7.166216251072e-04
6.260651802570e-04
7.936356142050e-04
6.266718473029e-04
7.927647651836e-04
7.961407180996e-04
6.265012585513e-04
7.909494704050e-04
6.284215167126e-04
8.008724680464e-04
6.258022401422e-04
7.774314409330e-04
8.088075602537e-04
6.308005741967e-04
6.105716282765e-04
5.292464875777e-04
7.647955740985e-04
8.863158103772e-04
6.977730176135e-04
7.804843509000e-04
6.066756825686e-04
1.032528680127e-03
9.323887220942e-04
1.097981050082e-03
9.344020797174e-04
1.101264593357e-03
9.348954780417e-04
1.102037623267e-03
9.355764002204e-04
1.102802067415e-03
9.362623126360e-04
1.103430556904e-03
9.367867162143e-04
1.103836800920e-03
9.370954764910e-04
1.104022627597e-03
9.372218071483e-04
1.104036697632e-03
9.372068093879e-04
1.103920508877e-03
1.117619374062e-03
9.370957662870e-04
1.103719047252e-03
9.369196274770e-04
9.261513620317e-04
1.103480682968e-03
9.367420727141e-04
1.103347186011e-03
9.367450145226e-04
1.103392079913e-03
9.622131899568e-04
9.368969922442e-04
1.103694692331e-03
9.373141550632e-04
1.103951497419e-03
9.375030009139e-04
1.104687114539e-03
9.382209398496e-04
1.104539841040e-03
9.378447695806e-04
1.106370907704e-03
9.392366398970e-04
1.021141825227e-03
9.372679358670e-04
1.103342739752e-03
9.422935496188e-04
1.111907271972e-03
9.260461471262e-04
1.095394210812e-03
1.123312727808e-03
8.323479749310e-04
1.128566703083e-03
9.953026640652e-04
1.042237675871e-03
9.591676168155e-04
9.134543494837e-04
1.317555908262e-03
1.411154381567e-03
1.241457495901e-03
1.403423847767e-03
1.236480862040e-03
1.403051953662e-03
1.236284882551e-03
1.403547908576e-03
1.236815340164e-03
1.404204483020e-03
1.237470339378e-03
1.404743475763e-03
1.237987658795e-03
1.405026198117e-03
1.238234757460e-03
1.405120931524e-03
1.238319585092e-03
1.405059704162e-03
1.421124237200e-03
1.238289863139e-03
1.404896347905e-03
1.238178938020e-03
1.272248389348e-03
1.404621066361e-03
1.230468354784e-03
1.237927192510e-03
1.404201724790e-03
1.237585739367e-03
1.404253981136e-03
1.237710869377e-03
1.404287754182e-03
1.238054426352e-03
1.405452877794e-03
1.320006507428e-03
1.238915382257e-03
1.404614785989e-03
1.238649182603e-03
1.407749646635e-03
1.402917868988e-03
1.240144152721e-03
1.412832891455e-03
1.237451068507e-03
1.392398719858e-03
1.427258914911e-03
1.242071057120e-03
1.224550736858e-03
1.135722002448e-03
1.334507275476e-03
1.464477983734e-03
1.308290235552e-03
1.389742403768e-03
1.221865126859e-03
1.644828616560e-03
1.545981159414e-03
1.713069814165e-03
1.549054825424e-03
1.715773419310e-03
1.548987889924e-03
1.715851555196e-03
1.549284187277e-03
1.716336015095e-03
1.549831225943e-03
1.716979131492e-03
1.550462280830e-03
1.717548348098e-03
1.550748049988e-03
1.717702537870e-03
1.550767686370e-03
1.717681668252e-03
1.725803895536e-03
1.550761344641e-03
1.717583419006e-03
1.537714373053e-03
1.550852574204e-03
1.717508033845e-03
1.550787156715e-03
1.717211703352e-03
1.550270291517e-03
1.580962922022e-03
1.716371127971e-03
1.549692184463e-03
1.716550609062e-03
1.550574202923e-03
1.716818436997e-03
1.551114104077e-03
1.719308097921e-03
1.553274409557e-03
1.716626027886e-03
1.550768170919e-03
1.626829546040e-03
1.554713128758e-03
1.723777182374e-03
1.538464917325e-03
1.708370553989e-03
1.734059786548e-03
1.441855297972e-03
1.718205167646e-03
1.580532811126e-03
1.653228733294e-03
1.570518538296e-03
1.533736984822e-03
1.929041500633e-03
2.023740013828e-03
1.854265828309e-03
2.016530832047e-03
1.849333680069e-03
2.016057688508e-03
1.849195180988e-03
2.016381773036e-03
1.849523099890e-03
2.016986771475e-03
1.850201123651e-03
2.017903593159e-03
1.851073613590e-03
2.018100274694e-03
1.851198313231e-03
2.017765292166e-03
2.038346331878e-03
1.850748802689e-03
2.017763268230e-03
1.885943985980e-03
1.851152239863e-03
2.018100772715e-03
1.841102677324e-03
1.851647953070e-03
2.018159675524e-03
1.851486642937e-03
2.017416700478e-03
1.850595558474e-03
2.014905500803e-03
1.941018760619e-03
1.849191983526e-03
2.018440167145e-03
1.852222603884e-03
2.015647441730e-03
2.027681622993e-03
1.852157743951e-03
2.006230484387e-03
1.857841458147e-03
2.036787414556e-03
1.836927752623e-03
1.752304649195e-03
1.929925313480e-03
2.063297522828e-03
1.919603130811e-03
2.001189499676e-03
1.831777990773e-03
2.258393672976e-03
2.159705713490e-03
2.327059706199e-03
2.161659692035e-03
2.328518888195e-03
2.162672994817e-03
2.329425293706e-03
2.162300175437e-03
2.329523762820e-03
2.162994370433e-03
2.330352635693e-03
2.163819996874e-03
2.331651210941e-03
2.165193397044e-03
2.332104205239e-03
2.349563023748e-03
2.163170879264e-03
2.156618435812e-03
2.330120032603e-03
2.163760401777e-03
2.331149868869e-03
2.165613130817e-03
2.332544467419e-03
2.165577836067e-03
2.195603305539e-03
2.332198422978e-03
2.165170022173e-03
2.331421633703e-03
2.163880370449e-03
2.325581563359e-03
2.161800956061e-03
2.335429634205e-03
2.170950976162e-03
2.156347734429e-03
2.326285427350e-03
2.254719671384e-03
2.352490791724e-03
2.061139530170e-03
2.319973192991e-03
2.181921643346e-03
2.266267734125e-03
2.183268200846e-03
2.140663700466e-03
2.549158764665e-03
2.636150175904e-03
2.465044416633e-03
2.626215054828e-03
2.459129987657e-03
2.629398577210e-03
2.462515755855e-03
2.626876011636e-03
2.459194547671e-03
2.628998715299e-03
2.462069348223e-03
2.628826924734e-03
2.461615336322e-03
2.655480925391e-03
2.633841262143e-03
2.465021985990e-03
2.504855940460e-03
2.626954113001e-03
2.460627946581e-03
2.459281500191e-03
2.628877804265e-03
2.463978196257e-03
2.633359730070e-03
2.466114496976e-03
2.631825731881e-03
2.557842814581e-03
2.464193016864e-03
2.631244525693e-03
2.634203394462e-03
2.465367309286e-03
2.611601312478e-03
2.466838180282e-03
2.656093472301e-03
2.452256167998e-03
2.368738549867e-03
2.524902431016e-03
2.677255740190e-03
2.532401558563e-03
2.611856570448e-03
2.448380073333e-03
2.895347462543e-03
2.762954093961e-03
2.933492103758e-03
2.773940618943e-03
2.938129622360e-03
2.779861874844e-03
2.947517109028e-03
2.770436758339e-03
2.936171750745e-03
2.775705167697e-03
2.944993665868e-03
2.776162261490e-03
2.967674935110e-03
2.940979762039e-03
2.788576165275e-03
2.769633692862e-03
2.947728243539e-03
2.778133822446e-03
2.938167467260e-03
2.780092728751e-03
2.946956698666e-03
2.779489675693e-03
2.817224370005e-03
2.950134646900e-03
2.777240784832e-03
2.942772889533e-03
2.773283112852e-03
2.775691965232e-03
2.943314050847e-03
2.958430064026e-03
2.871806310958e-03
2.678495565508e-03
2.898963514100e-03
2.818430404747e-03
2.887802313650e-03
2.791363294968e-03
2.764226645725e-03

SCALARS element_materi_plasti_phimob float
LOOKUP_TABLE default
8.143049000983e+00
7.432607238643e+00
1.994198256010e+01
1.987242391883e+01
1.689959959620e+01
-2.360677351272e+00
1.691904823560e+01
7.360380799552e+00
1.693424298232e+01
1.984767075418e+01
2.000065071611e+01
3.312165327102e+00
2.058351873983e+01
1.740454647085e+01
2.054315776794e+01
1.998674994384e+01
1.671669411213e+01
-3.264811825279e+00
9.074868511982e+00
9.731786957914e+00
1.984184663315e+01
9.945654445445e+00
1.148307045608e+01
2.051265422952e+01
1.788000560917e+01
2.017938229359e+01
1.591679464880e+01
2.011018728469e+01
1.786968845030e+01
2.060421147272e+01
3.459024434814e+00
-2.084359895410e+01
1.994113786246e+01
2.048047917015e+01
2.056421004423e+01
2.064937139211e+01
2.058935000365e+01
2.038515316369e+01
1.616272138533e+01
1.621217270667e+01
1.332180330353e+01
2.049429516223e+01
-7.051028925891e-01
1.591798866876e+01
1.972481827549e+01
5.757098467266e-02
-3.487763016528e+00
1.974908129296e+01
-2.134997665405e+01
1.709707601181e+01
1.250559519003e+01
1.225314836073e+01
1.086648696588e+01
1.229915806044e+01
1.994027138609e+01
1.564321483616e+01
1.289917283612e+01
2.051203524353e+01
3.703874997243e+00
1.997919984270e+01
-2.666183421287e+01
2.001103746246e+01
1.309777636642e+01
9.191042521530e+00
2.058211513967e+01
1.118231687110e+01
-2.896192238563e+01
1.992320855594e+01
5.308198279693e+00
2.002559266727e+01
2.026559526977e+01
2.016040193872e+01
1.993330536414e+01
-1.525055639595e+01
1.615144876005e+01
1.987423402487e+01
1.992726015842e+01
-4.507402545449e+00
3.935331772138e+00
-8.607423030444e+00
5.624784302077e+00
1.668539556868e+01
1.039360649978e+01
8.085195330959e+00
1.728446436930e+01
1.729253421210e+01
2.033866018267e+01
2.046628976857e+01
1.907030754457e+01
1.684772378190e+01
-2.123077843319e+01
1.666566978465e+01
1.899941438880e+01
1.891250778011e+01
2.012784057841e+01
2.037109531627e+01
1.664224569138e+01
2.071430082386e+01
1.789609814271e+01
1.223244863229e+01
1.652279428374e+01
2.058759055681e+01
1.947309044374e+01
1.999345708548e+01
1.188346932482e+01
-5.061334020414e+00
2.056008628897e+01
1.925555252846e+01
-2.186498289108e+01
2.046897816047e+01
1.887810078430e+01
-2.628644475503e+01
1.566932421706e+01
1.577356492645e+01
1.780308125108e+01
1.087332105225e+01
1.322748242549e+01
2.059745771376e+01
1.770001967830e+01
1.233455762158e+01
4.278913073636e+00
1.661730886713e+01
1.927351578830e+01
1.252613551608e+01
-9.456715143030e+00
1.470918108830e+01
1.768201433666e+01
1.401419264356e+01
1.999322841008e+01
6.230822733795e-01
2.015649992248e+01
1.988226886955e+01
1.505509464898e+01
1.408453927388e+01
2.063322331520e+01
2.057917418364e+01
2.035835824220e+01
1.559544635070e+01
2.065264611553e+01
1.448946673048e+01
1.992814482502e+01
2.000868899522e+01
1.736872123678e+01
1.847959433908e+01
1.449715651829e+01
1.327073691512e+01
1.604274163939e+01
1.377498147938e+01
1.666728681065e+01
1.580793247178e+01
-2.212599180156e+01
1.724494567291e+01
4.847521743348e+00
1.528531332120e+01
2.048060569940e+01
1.161928626595e+01
2.041507991304e+01
2.984833247703e+00
1.943764765098e+01
1.677343676117e+01
1.543109770788e+01
2.053216012905e+01
4.260345387336e+00
2.056018097789e+01
1.650703863663e+01
2.068096654860e+01
1.673297785394e+01
1.294341806865e+01
1.523810103154e+01
2.011877292504e+01
3.063690920875e+00
1.587261495246e+01
1.871418962520e+01
1.672280481284e+01
1.447809220937e+01
1.466998655831e+01
1.941201241346e+01
1.837886147049e+01
2.012889169213e+01
2.001528661870e+01
9.938053432287e+00
1.841199667013e+01
2.040390091098e+01
1.390705973096e+01
7.730792082054e+00
1.616484813240e+01
1.510813308065e+01
1.994420796723e+01
1.890260375912e+01
2.055455810253e+01
-2.864132191678e+00
1.602263784393e+01
1.907696138019e+01
-5.340507485521e+01
1.392168304824e+01
2.042232895818e+01
-4.346677452425e+00
1.986454088624e+01
1.834054955483e+01
1.855651512032e+01
2.046608822278e+01
1.718242512390e+01
1.766180651901e+01
2.051446419865e+01
1.608639537098e+01
1.649272704120e+01
1.683509791228e+01
1.857006867147e+01
1.688159711080e+01
1.613091442169e+01
1.921302427224e+01
1.922823447416e+01
-2.627118825314e+01
9.912002920469e+00
1.210683071689e+01
1.607424688148e+01
1.909407322316e+01
8.125761254050e+00
2.042590448441e+01
1.664288843788e+01
1.556946205659e+01
2.041514651296e+01
-1.699072931255e+01
1.876544835507e+01
-2.347531720145e+01
-3.828184381396e+00
-4.667897585683e+00
1.425688378164e+01
1.896340402210e+01
1.317369900472e+01
7.052721421966e+00
9.833123240117e+00
7.045487598376e+00
2.043996140859e+01
1.648377783152e+01
2.061347790464e+01
-5.808809565088e+01
1.032600558073e+01
1.649923974426e+01
1.307162166835e+01
2.047155544169e+01
2.066205278835e+01
1.871035903160e+01
1.507974518143e+01
2.041169934380e+01
2.027617257174e+01
1.646439162777e+01
1.852965968383e+01
2.002859912101e+01
1.686696796471e+01
8.362210067912e+00
1.749707364355e+01
2.013707444758e+01
1.653187843350e+01
1.859522653129e+01
1.736449723473e+01
2.651261974488e+00
1.689734434315e+01
1.462221224488e+01
1.241301215911e+01
5.762140208091e+00
1.898155495179e+01
1.717819787571e+01
1.355742591479e+01
1.916419300543e+01
1.888776373006e+01
1.682180798575e+01
2.048746019828e+01
1.888534373463e+01
1.715135003659e+01
1.612880019690e+01
1.895669059048e+01
1.457755341674e+01
1.665235040758e+01
1.763846107560e+01
1.674129251219e+01
1.872436109531e+01
-4.930162787627e+01
1.723092956787e+01
1.592189963326e+01
1.139263665998e+01
1.441402527731e+01
1.776358979902e+01
-5.715678241881e+00
1.301486549718e+01
1.921481666830e+01
1.718682570374e+01
1.724941933818e+01
4.657138242508e+00
1.703028738927e+01
1.594140847325e+01
1.116489196746e+01
1.851903953620e+01
1.310750244603e+01
1.747403818044e+01
1.663997578055e+01
7.232849416795e+00
1.659570808971e+01
3.936112944377e+00
2.012793038909e+01
2.014976417124e+01
1.692631940750e+01
1.476415893738e+01
1.153654925645e+01
1.745931118249e+01
1.357781437301e+01
1.632494136922e+01
1.644050163567e+01
1.993976184205e+01
1.575697973965e+01
1.911864044454e+01
7.473940774014e+00
2.060098582963e+01
1.309946553560e+01
1.683557039538e+01
1.071910768990e+01
2.005875337229e+01
1.734447893874e+01
1.689881896987e+01
1.682955236890e+01
2.019029485211e+01
1.678997645046e+01
1.932885823216e+01
8.466078507609e+00
1.825417624641e+01
2.045777948644e+01
9.146723871677e+00
1.803796018511e+01
2.023522496128e+01
2.053282934418e+01
2.016890990015e+01
1.795073262681e+01
1.886847361956e+01
4.828189819040e+00
1.607158147370e+01
1.715142135999e+01
1.746234893994e+01
1.619376652645e+01
2.027858635349e+01
1.763728864650e+01
1.657477559407e+01
1.698369262709e+01
1.151950331178e+01
1.566388934738e+01
1.077660167277e+01
1.674802807213e+01
1.653221321256e+01
1.615705233139e+01
1.894030377576e+01
1.122670709879e+01
1.645310253307e+01
1.954568879387e+01
1.999933625761e+01
2.036241895207e+01
1.459948878908e+01
1.641751778115e+01
1.809791777580e+01
8.104274338998e+00
8.689505060796e+00
1.925668272444e+01
1.717087625577e+01
1.309792550920e+01
1.560856775440e+01
2.055129398819e+01
2.041751088520e+01
1.926500923804e+01
1.875001571213e+01
1.977536165760e+01
1.394327835983e+01
1.496567981828e+01
1.618111714619e+01
1.686255146373e+01
1.989095096937e+01
1.904754234786e+01
1.930101805300e+01
1.612582226918e+01
1.584344659293e+01
1.680647509449e+01
1.474630453056e+01
2.014053448484e+01
2.014531277407e+01
1.985805253386e+01
2.003740443288e+01
1.918042888160e+01
7.548125603324e+00
1.705182983206e+01
1.188989505578e+01
1.384117019047e+01
1.663902317227e+01
1.797394427603e+01
2.060779782830e+01
1.924370033147e+01
1.750634636601e+01
1.774345312516e+01
1.383760318175e+01
-5.344823477018e+00
1.640515056556e+01
1.669712670274e+01
1.670145080973e+01
-9.258088227559e+00
1.734922374524e+01
9.851325847146e+00
1.282177061496e+01
2.046459264770e+01
1.953975769585e+01
1.660475022447e+01
3.855066450968e+00
1.613383108076e+01
1.675200015452e+01
1.775196748862e+01
2.020683535779e+01
1.607960656771e+01
1.746327540968e+01
1.917301754439e+01
1.914256970702e+01
2.021875790068e+01
2.020832636719e+01
2.023193967187e+01
2.018883975222e+01
2.019481703824e+01
1.800917453402e+01
1.912600781741e+01
1.942962073154e+01
1.464147624143e+01
1.385040834110e+01
1.867657175158e+01
1.928436297964e+01
2.025526808155e+01
1.932758201434e+01
1.927099377067e+01
1.931368059865e+01
1.883400552572e+01
1.632794472495e+01
1.380198289113e+01
1.088962063649e+01
1.995182051856e+01
1.412452774043e+01
1.987896027075e+01
1.880026326396e+01
1.552282154547e+01
2.046713877034e+01
1.257192664240e+01
2.024944580821e+01
1.995898876709e+01
1.749039370800e+01
-2.259020254965e+01
2.027920199489e+01
2.042012527324e+01
1.595575943010e+01
1.958498512776e+01
2.045786122854e+01
-5.812847602570e+01
1.537448576189e+01
1.775496112858e+01
1.721372830256e+01
1.715763869589e+01
1.065401862457e+01
2.031547014597e+01
1.771648072038e+01
3.094408248208e+00
2.068060686334e+01
-2.216754278215e+01
1.508426397349e+01
4.623822075705e+00
1.566915410004e+01
2.056668484251e+01
2.035555592621e+01
1.747084070077e+01
-4.439316704301e+00
-2.065778230766e+00
3.272398428682e+00
2.059339983674e+01
1.663954129499e+01
1.693893147084e+01
2.039202418494e+01
1.668184159101e+01
2.014525899770e+01
1.903898051398e+01
1.774467703662e+01
9.824590457250e+00
1.950015048351e+01
9.940706150642e+00
2.041885352148e+01
2.021199854283e+01
2.019604540803e+01
2.014473321060e+01
1.824123485529e+01
1.641848314581e+01
2.030140560914e+01
2.043780631254e+01
1.355283388793e+01
1.752004554660e+01
1.792800692165e+01
1.804856576078e+01
2.064531917816e+01
-5.712386185607e+00
2.045458992504e+01
1.733944642258e+01
2.026914057339e+01
1.941804357116e+01
-6.137531541643e+01
1.601465952321e+01
1.935207880920e+01
2.030002864879e+01
1.800155841804e+01
1.925407379393e+01
7.349109537622e+00
2.038404378546e+01
1.771943269588e+01
1.767480783442e+01
-2.137415178326e+01
2.033480470863e+01
1.312215827432e+01
2.050515175704e+01
1.744397715079e+01
1.576094673297e+01
1.725923968718e+01
1.774035693765e+01
2.040828030525e+01
1.863718013036e+01
2.038040569529e+01
1.733134369220e+01
2.005745550811e+01
1.775307310866e+01
2.023455805950e+01
1.697314672939e+01
1.875027595332e+01
1.974047803199e+01
1.708841838414e+01
1.898652233283e+01
1.334997253344e+01
1.835987440073e+01
1.906481417082e+01
1.927459867841e+01
2.059242707303e+01
1.948365458011e+01
1.490992023270e+01
2.044516659502e+01
2.053226103215e+01
1.716307401118e+01
-2.177103916202e+01
2.061858671782e+01
1.945672669482e+01
1.650915876020e+01
2.046891968702e+01
2.032082499393e+01
1.447852215737e+01
1.723772346665e+01
1.902703712186e+01
1.990505090161e+01
2.007439167540e+01
1.832366375440e+01
1.557374022161e+01
1.971532379392e+01
1.783802794636e+01
1.883674643838e+01
1.977941932772e+01
1.743485621705e+01
2.025189918333e+01
-6.069450719232e+01
1.322859701350e+01
1.701536820645e+01
1.934319076640e+01
1.731046091960e+01
2.038130760644e+01
1.780636329672e+01
1.615588348519e+01
2.047493622746e+01
1.776485203624e+01
1.948810553369e+01
1.750982309572e+01
1.924117983012e+01
-5.794178676400e+01
1.755069249707e+01
1.806041282530e+01
-5.855059615806e+01
1.918968175092e+01
2.049592357463e+01
1.939133806771e+01
1.988740673808e+01
2.006200887346e+01
1.624078761656e+01
1.593004435996e+01
1.994243654104e+01
1.724489314775e+01
-6.327774815717e+01
6.958370415167e+00
-2.215806933535e+01
1.528551783220e+01
1.940737108945e+01
1.938880719388e+01
2.060016486043e+01
1.642715858881e+01
2.019758119872e+01
2.056918920775e+01
9.657909149760e+00
1.800974849820e+01
1.642652753950e+01
2.066414711824e+01
2.047808909408e+01
1.871410441983e+01
1.938845430232e+01
2.010412588423e+01
2.055399235746e+01
9.081821600905e+00
2.057648265765e+01
-4.294408076402e+00
1.893012552570e+01
1.951874549034e+01
-2.097214940044e+01
1.831390665247e+01
1.950360295330e+01
-6.163202117615e+01
1.589654712706e+01
1.589984091637e+01
2.006571458588e+01
1.641970055292e+01
1.699240087109e+01
8.587586078076e+00
2.061881142033e+01
2.008712538291e+01
1.915595237764e+01
1.012004453609e+01
-1.226540702023e+00
1.561076772306e+01
1.598712448732e+01
1.601083755842e+01
-5.789812822637e+01
-2.128998762197e+01
-4.053601337767e+00
1.373976006491e+01
-2.047373664423e+01
1.907739793245e+01
-5.759013316017e+01
1.570691411711e+01
1.826866363676e+01
1.593437529968e+01
1.953152498990e+01
2.044259939868e+01
1.782760347463e+01
1.702294627240e+01
-4.305660326102e+00
2.015495608151e+01
2.013104433491e+01
1.745280027430e+01
1.597390521144e+01
1.709035378720e+01
2.012814757245e+01
1.483050656732e+01
1.590516613569e+01
1.591318357724e+01
1.515540300951e+01
2.018726618174e+01
2.011079450619e+01
-2.092532959539e+01
-5.761228042031e+01
3.225919942656e+00
1.962175226318e+01
2.058607467037e+01
-5.449077851242e+01
1.913965383316e+01
-5.748482613651e+01
2.022445527002e+01
-5.872318099057e+01
-5.673577158530e+01
2.021727788465e+01
2.058441993045e+01
1.823426639616e+01
1.604542807123e+01
-2.088415769923e+01
2.026243613852e+01
2.014067465666e+01
2.012954868549e+01
1.595414630054e+01
2.021195380790e+01
2.015582408572e+01
1.927371589718e+01
-4.869767690626e+00
-2.068885036320e+01
-2.133832028378e+01
1.795557842626e+01
2.064226920418e+01
1.987515974333e+01
-5.762539085563e+01
1.899948026463e+01
2.049704749569e+01
2.067114492487e+01
2.063601296309e+01
1.878203510556e+01
1.930420393852e+01
2.048153602992e+01
2.048797373739e+01
1.913554224348e+01
8.999999999681e+01
1.599119270967e+01
1.599676233568e+01
-5.768993258330e+01
2.049067710732e+01
2.068921974409e+01
2.047490101304e+01
-6.120135222832e+01
-6.085982457902e+01
2.047699036023e+01
2.047835999415e+01
1.858914095772e+01
1.600582921521e+01
1.895978218633e+01
1.758968639798e+01
1.599861111490e+01
-6.239019282803e+01
-6.018171733085e+01
-6.160630416875e+01
-6.117110043411e+01
1.929126837032e+01
1.868522039745e+01
-5.789475596426e+01
2.018553246784e+01
-5.798289199467e+01
2.016834302150e+01
2.014832034197e+01
2.015511894881e+01
6.991372459067e+00
1.568651523164e+01
2.014160375039e+01
2.053661522104e+01
2.016149737822e+01
2.058530995088e+01
2.059214633703e+01
1.833947551175e+01
2.012718582654e+01
2.013575745061e+01
2.054736996540e+01
2.058350460397e+01
2.035870319743e+01
-5.785551232814e+01
1.859847338541e+01
-2.137858812173e+01
2.059811658716e+01
1.901324431727e+01
2.053681159991e+01
1.252338443896e+01
-5.134826838994e+00
2.057548809515e+01
1.907657266996e+01
1.762544757253e+01
2.052625390669e+01
1.957809034821e+01
1.752520460830e+01
2.048349167595e+01
2.032077384927e+01
2.038299972980e+01
2.042986652255e+01
1.756915669521e+01
1.509890740779e+01
1.693179030548e+01
2.030439004249e+01
2.055112015741e+01
2.047361235876e+01
1.342571571418e+01
1.954995579180e+01
1.925209936020e+01
1.708296148269e+01
2.040785221868e+01
2.034792895083e+01
1.959422426544e+01
1.942387475244e+01
2.018713176928e+01
2.056966953918e+01
1.916517851379e+01
2.044738347653e+01
2.059628067205e+01
1.956216428932e+01
1.867164603134e+01
2.044653802158e+01
1.289427269344e+01
1.237062890644e+01
-1.296618887845e+00
-2.167421235756e+01
1.942007710620e+01
2.055338609676e+01
-2.210810395395e+01
1.942184828724e+01
1.735567953823e+01
2.049935154829e+01
2.051418503865e+01
1.739470383244e+01
2.051064814805e+01
1.706430373068e+01
1.980556389727e+01
2.058410468996e+01
1.241481751305e+01
2.062921854132e+01
1.889355735115e+01
1.389291024870e+01
1.460679346311e+01
1.965762092483e+01
1.818208015164e+01
1.748113269840e+01
1.909703656497e+01
1.847276701776e+01
1.962242105938e+01
2.042561570004e+01
2.048088903903e+01
1.890111285372e+01
1.021874544026e+01
1.936087658391e+01
1.993431412954e+01
1.905365734371e+01
1.883636225276e+01
2.025529134733e+01
2.060987433070e+01
1.866976236584e+01
-2.911517795780e+00
-1.915599435788e+00
1.329150876123e+01
2.055858844785e+01
1.844087661449e+01
1.990988845120e+01
1.765018723491e+01
2.054947399397e+01
1.974834014413e+01
2.048628974020e+01
1.281662821159e+01
2.063956860532e+01
1.955584864339e+01
1.387104905282e+01
1.930781160936e+01
1.783645838622e+01
1.554734216150e+01
1.995331468700e+01
-5.698318278687e+01
-5.636923977696e+01
2.031891502359e+01
1.163222857296e+01
2.036278498504e+01
2.031379019833e+01
1.856529602685e+01
1.542775007783e+01
1.934480984333e+01
3.372608193581e-02
1.818890035546e+01
2.053021688183e+01
9.485538790299e+00
1.795547942838e+01
1.736356390952e+01
8.924643172484e+00
2.060422067044e+01
1.879057248114e+01
1.173457634446e+01
1.947423624707e+01
1.948545877215e+01
1.318517999891e+01
1.111193977555e+01
1.358375143836e+01
2.043382584102e+01
1.986389553757e+01
1.947382505272e+01
1.935342081552e+01
2.040318919862e+01
2.043842523658e+01
1.079388001275e+01
2.046165476272e+01
1.880037648039e+01
1.982005597540e+01
1.843423150854e+01
1.900457121839e+01
1.849506554415e+01
1.921125388324e+01
1.911936542859e+01
1.970702283708e+01
1.727220328779e+01
1.782300205748e+01
1.862695500754e+01
1.972051836253e+01
1.447845995259e+01
3.077319658129e+00
1.861718220624e+01
1.462151933752e+01
2.059602321007e+01
1.884936751818e+01
2.052541412946e+01
2.045348475925e+01
1.877294138531e+01
1.329732028039e+01
5.995522933014e+00
2.044620181949e+01
1.823943002195e+01
-2.270207256136e+00
1.732715997219e+01
1.112917336728e+01
1.816994234006e+01
1.766411063713e+01
2.036928494037e+01
1.723162531246e+01
1.924951345646e+01
1.629592038482e+01
2.048157310090e+01
1.207240072397e+01
2.040799907553e+01
1.949870444452e+01
2.051166833349e+01
1.791965016105e+01
1.123912744826e+01
1.770571271568e+01
2.021891804238e+01
1.575934472423e+01
1.822953362252e+01
1.374487671056e+01
1.832150203591e+01
9.699112639913e+00
2.060702065038e+01
2.022088703991e+01
1.977024062160e+01
1.965459907652e+01
2.001439195543e+01
1.028917154039e+01
2.030175811416e+01
2.063797386798e+01
1.669143152073e+01
2.047620153796e+01
1.884417190910e+01
1.466557878064e+01
2.036017693811e+01
1.755954398019e+01
1.497039208496e+01
1.691330869144e+01
1.738469383104e+01
2.049087975490e+01
1.454396304369e+01
1.715889314215e+01
1.857041294928e+01
1.796071162474e+01
1.782340830133e+01
1.953186824556e+01
2.058168113882e+01
2.023087342819e+01
1.765153966198e+01
1.958722135873e+01
1.974106555245e+01
2.046068408866e+01
1.901309538389e+01
1.813157498836e+01
1.757280372367e+01
1.071496421948e+01
2.038745745809e+01
1.792238443808e+01
1.836868048260e+01
1.809956253199e+01
1.908141759420e+01
1.661414058598e+01
1.686480333631e+01
1.707764670029e+01
1.774178240408e+01
1.218313444026e+01
2.054927844489e+01
1.916447485946e+01
1.920392127188e+01
1.947134109450e+01
2.036732948026e+01
1.994652850426e+01
1.739376590122e+01
1.205590222294e+01
2.063995792132e+01
2.063169864933e+01
1.856722329880e+01
1.830664478735e+01
2.019104602931e+01
1.838025852783e+01
1.841636814908e+01
1.549151333722e+01
1.617658553828e+01
1.507437195477e+01
1.860688586098e+01
1.537056390732e+01
1.414904232850e+01
1.984166288627e+01
2.041981224903e+01
1.944062467874e+01
-5.763719943792e+01
1.935857413404e+01
1.930340379801e+01
1.878128667580e+01
1.811121632217e+01
1.961360297022e+01
1.680786779731e+01
1.900487311979e+01
1.906281715357e+01
1.675265398146e+01
1.904672498305e+00
8.454877380015e+00
1.606127222049e+01
1.738229790706e+01
1.954723212009e+01
1.932865183624e+01
1.061520678530e+01
8.515160369321e+00
1.772629111986e+01
1.525134658896e+01
2.056824641666e+01
1.930721418905e+01
1.779202382023e+01
1.926861134807e+01
1.956587678547e+01
1.867336846246e+01
1.896245686181e+01
1.264550959072e+01
1.919108858668e+01
1.723885876596e+01
1.533299377254e+01
8.854992530405e+00
1.806781740332e+01
1.915264507359e+01
1.942419157985e+01
1.602379324048e+01
1.983579497899e+01
1.923984307418e+01
1.952410397492e+01
1.718176628299e+01
2.004267387544e+01
1.856001513506e+01
1.928727128388e+01
2.060986792972e+01
1.425063218509e+01
2.061201601494e+01
1.970162769316e+01
1.971047075338e+01
1.800863035965e+01
1.406219417929e+01
1.802322850418e+01
1.936710024218e+01
1.986971199982e+01
1.466506633890e+01
1.824573897589e+01
1.662815925241e+01
1.087369989872e+01
1.985715287179e+01
8.370665309498e+00
2.025014831824e+01
1.952680995252e+01
2.020569262768e+01
1.788619719214e+01
1.911023700248e+01
1.944570138627e+01
1.937893924038e+01
1.957046554909e+01
2.052911127050e+01
1.873629774980e+01
2.035878526997e+01
1.304341013198e+01
1.890012564704e+01
2.006271145854e+01
2.063108779425e+01
1.933262655052e+01
1.787299362509e+01
1.757611145252e+01
1.958278270790e+01
2.049173461837e+01
2.053905828449e+01
5.919213134698e+00
1.593058575538e+01
1.935861804270e+01
1.923056658579e+01
1.684362791215e+01
1.971474279207e+01
1.944701630590e+01
1.951694524333e+01
1.508642671717e+01
1.902496660253e+01
2.044021090235e+01
1.961947171712e+01
1.867413104999e+01
1.948425945028e+01
1.903887831040e+01
1.891622681419e+01
1.943833973854e+01
1.896538955405e+01
1.874967536759e+01
2.062594824799e+01
2.010310854748e+01
2.059898564532e+01
2.026199174866e+01
1.456299277906e+01
2.018560256236e+01
1.858759040523e+01
1.425433020209e+01
1.935378362136e+01
1.986165487591e+01
1.962872222502e+01
1.567218228461e+01
1.907258790492e+01
1.983898001946e+01
1.603599227329e+01
1.974067250028e+01
1.823212075364e+01
1.654875291354e+01
-3.193099135681e+01
2.010744660794e+01
2.033469561343e+01
1.960264889201e+01
1.933152410610e+01
2.004191898140e+01
1.830982631158e+01
-2.676992468944e+01
2.019095176025e+01
1.966294109825e+01
1.645468137009e+01
2.049599303139e+01
1.481642835007e+01
2.053001549762e+01
2.061781956473e+01
2.000884314084e+01
1.895552855815e+01
1.938213920966e+01
2.057658092361e+01
-6.872915586221e+00
1.849633732715e+01
1.994397144152e+01
1.912274099376e+01
1.981840382173e+01
1.910349142329e+01
1.984740738421e+01
7.422854407976e+00
1.931142166685e+01
1.504844917911e+01
2.325626406242e+00
1.918481562642e+01
1.965668900748e+01
1.330864767208e+01
1.761007141705e+01
1.869142696955e+01
1.975184474082e+01
1.519651617454e+01
1.418933610898e+01
9.147819372080e+00
1.378025988812e+01
1.191740869174e+01
1.959460318915e+01
2.012279100929e+01
7.357492466461e+00
2.063069173338e+01
1.812599198310e+01
1.843387055865e+01
1.229302350697e+01
2.058106132194e+01
1.135677915736e+01
1.656315689235e+01
1.997912006119e+01
1.962295808473e+01
1.993804614756e+01
1.427257762894e+01
1.879793834878e+01
2.024463284805e+01
1.851386647898e+01
1.959946556922e+01
1.905584147092e+01
1.920745633749e+01
1.309764858206e+01
2.060732609635e+01
1.886206426243e+01
1.840639253425e+01
1.052127231392e+01
2.021922605946e+01
1.563903954689e+01
1.588457079019e+01
1.993510688864e+01
9.654222905536e+00
1.757799338797e+01
2.016925503833e+01
1.952189184667e+01
1.966118672396e+01
2.001811198750e+01
1.925597047908e+01
1.803379606275e+01
1.911850329492e+01
1.267791786700e+01
1.957331742271e+01
1.424575619676e+01
1.482305083654e+01
1.895781932947e+01
1.543903937340e+01
1.842786368672e+01
1.744350727032e+01
1.940709172460e+01
1.444379845002e+01
1.901681928364e+01
1.945058406251e+01
1.960900593057e+01
2.055413706395e+01
2.011569072435e+01
1.971266467148e+01
1.922089287550e+01
1.936540873690e+01
2.059981122787e+01
1.907170704217e+01
1.900938258962e+01
2.003744419240e+01
1.858184523808e+01
1.943711383268e+01
1.800756473585e+01
1.391960691688e+01
1.538092340620e+01
1.495317707597e+01
1.757216297574e+01
2.060039459341e+01
1.884709588031e+01
1.872296236696e+01
1.832531312042e+01
2.031797154610e+01
1.930203914562e+01
1.957122031427e+01
1.819564313741e+01
2.053099007035e+01
1.941019555222e+01
2.032064042227e+01
1.750901205525e+01
1.956702745934e+01
1.970068737932e+01
1.985254408976e+01
1.487011106336e+01
1.955461135405e+01
1.811087959602e+01
1.824494506250e+01
1.987104014086e+01
2.050042233025e+01
1.435403168807e+01
1.963131056763e+01
1.825839095583e+01
2.058143314396e+01
1.847060255669e+01
1.937083254528e+01
1.803861615644e+01
1.757817181836e+01
1.826110323808e+01
2.012284427839e+01
2.056009116569e+01
1.863916627967e+01
1.966841760073e+01
1.780989605857e+01
1.771918416762e+01
1.966401505113e+01
1.960515551077e+01
1.777694586137e+01
1.789017234490e+01
1.827880538542e+01
1.881425236493e+01
1.514416192002e+01
1.872544367393e+01
1.521800527391e+01
1.995130271707e+01
1.990079661701e+01
1.872178978278e+01
6.310612356333e+00
1.963979820687e+01
1.560319463173e+01
1.981380923164e+01
1.980780759269e+01
1.862293812157e+01
2.053456625779e+01
1.753568581940e+01
2.545860078867e+00
2.063974484711e+01
1.790917530807e+01
1.949411807588e+01
1.961467263946e+01
-1.051053806791e+01
2.057428684833e+01
1.496719535329e+01
1.817399630234e+01
2.004155918837e+01
1.863568705586e+01
2.057783321191e+01
1.837472442506e+01
1.816915148501e+01
1.813887882272e+01
1.525321057859e+00
1.897507625012e+01
1.999229030971e+01
1.981210371014e+01
1.931378757552e+01
1.669924224316e+01
2.051126035685e+01
1.972571309570e+01
2.025903535845e+01
1.996525376306e+01
1.816309436532e+01
1.858793187150e+01
2.059711186134e+01
1.965000443783e+01
1.917226670534e+01
1.845093720238e+01
2.057049060952e+01
2.056674590264e+01
1.602563834460e+01
1.602337278624e+01
1.848357037826e+01
1.881053498565e+01
2.012446184362e+01
1.847339422641e+01
1.828829627320e+01
2.050122883562e+01
1.792516293704e+01
2.013818646789e+01
1.695193902040e+01
1.795543657990e+01
2.012366143255e+01
1.595743143968e+01
1.962510509334e+01
1.839502405054e+01
1.780826101280e+01
1.839912940415e+01
1.869642744632e+01
1.887563858392e+01
3.847384257165e+00
1.948433510252e+01
1.565066695680e+01
1.824505657901e+01
1.846677175228e+01
2.026312636427e+01
1.142843856239e+01
1.281118423493e+01
1.770868952856e+01
1.936129513479e+01
1.485252155137e+01
1.541270450499e+01
1.838024006738e+01
1.123651066918e+01
1.995140776711e+01
2.033231395910e+01
1.350194812141e+01
2.011224830320e+01
1.938940053298e+01
1.964911909405e+01
2.056599250321e+01
-3.994934401017e+00
2.034033141250e+01
1.795121897120e+01
-4.305425485766e+00
1.940208951420e+01
1.149024054229e+01
1.824133734235e+01
1.783249924311e+01
1.957970600311e+01
2.029795023071e+01
1.953817584420e+01
2.043142455880e+01
1.805633219876e+01
1.776428817314e+01
-2.990492037352e+01
9.784986033117e+00
1.949283875264e+01
1.784749424732e+01
1.966303067915e+01
1.438270815902e+01
1.910957662278e+01
1.961538084863e+01
1.577564337768e+01
1.948679694246e+01
2.053256451966e+01
1.866175737973e+01
1.985337844699e+01
1.994766205952e+01
1.963526746624e+01
2.011394942371e+01
1.811015000563e+01
1.881206093494e+01
2.052261919263e+01
1.799483916967e+01
1.741784936467e+01
1.987141952151e+01
1.757427197407e+01
1.847451106387e+01
1.758768573515e+01
1.826643251598e+01
2.014978441355e+01
2.014560926175e+01
1.783483687089e+01
1.813875985720e+01
2.057138123797e+01
2.054875902651e+01
7.304555367738e+00
1.850469029100e+01
2.059593267483e+01
1.217813065217e+01
1.996643012248e+01
-2.541895978604e+01
2.057366985782e+01
1.677941484665e+01
1.973796924513e+01
1.943209385021e+01
1.811936383453e+01
1.784752609725e+01
1.822479998841e+01
1.349736054439e+01
1.422074645123e+01
2.056720278529e+01
2.029537715175e+01
1.984669424674e+01
2.035394326230e+01
1.964251448412e+01
1.698147941646e+01
1.344694145917e+01
1.729865004861e+01
1.603314724299e+01
2.017031538418e+01
1.807127840654e+01
2.025304205443e+01
2.053126737786e+01
1.967475977857e+01
2.058460386302e+01
1.807059046037e+01
2.015325289428e+01
1.826796541198e+01
1.890894595199e+01
2.048770878274e+01
1.836306656674e+01
1.830995674653e+01
1.965078172810e+01
1.805102796248e+01
1.477318377130e+01
1.914171027471e+01
1.960984496901e+01
2.019314537821e+01
1.803729267382e+01
-1.715169407843e+01
1.916050078004e+01
-5.268589179390e+00
5.462464743937e+00
2.003439931356e+01
1.926185732086e+01
1.807131751489e+01
1.171676711039e+01
2.018069759827e+01
-3.298264237782e+01
1.267531304459e+01
2.003683760534e+01
1.977776152872e+01
1.516899071517e+01
1.862999484942e+01
2.013004441437e+01
1.842701699738e+01
1.945958945269e+01
1.941053670493e+01
1.045104662079e+01
1.974074350388e+01
1.994653292842e+01
1.586399131301e+01
1.624503923870e+01
1.806036340965e+01
2.039047969124e+01
-4.568205812842e+00
-2.042798426410e+01
1.128583379734e+01
1.989466586862e+01
1.864134540168e+01
1.814398143745e+01
1.728004824518e+01
2.011230618340e+01
1.849232878124e+01
2.003634264882e+01
1.863527035217e+01
1.851245315537e+01
1.712840634821e+01
1.969766877597e+01
1.999847353688e+01
2.005897844609e+01
9.123351458036e+00
1.897041731445e+01
2.011015647988e+01
1.836596362277e+01
1.791322490758e+01
1.057384172885e+01
2.018144608210e+01
1.802074111864e+01
2.023274058381e+00
2.010446392931e+01
1.008943181435e+01
1.853535762137e+01
1.889421464171e+01
1.159764478144e+01
2.009011168713e+01
1.495092360974e+01
1.653456852179e+01
2.014437093057e+01
1.976464931527e+01
1.986516232110e+01
-1.196532043977e+01
1.946485239677e+01
1.902718981095e+01
2.043936735986e+01
1.894202171755e+01
2.024140323437e+01
2.021632868476e+01
1.853673586571e+01
1.500214910955e+00
-1.019678316867e+01
2.028727545892e+01
2.054878813493e+01
1.779267179181e+01
1.873832382684e+01
1.098121302746e+01
1.869870053910e+01
2.068884357597e+01
-4.930122554173e+01
2.015387138728e+01
2.049185991897e+01
1.691322469618e+01
1.895735050616e+01
1.869505566876e+01
1.823186555669e+01
2.083402152151e+00
-3.064807475725e+01
1.968695136649e+01
1.827944538337e+01
1.598131382458e+01
2.029144338529e+01
1.292590996756e+01
2.038569346722e+01
1.828966644648e+01
1.880504440449e+01
1.851536013101e+01
1.877130757244e+01
2.250399847589e+00
1.831200713133e+01
1.868719265686e+01
2.055059669106e+01
1.889125398952e+01
1.890895022003e+01
-5.626263666761e+01
1.886935110936e+01
1.892671862772e+01
1.802786108340e+01
1.712855364144e+01
1.855796662358e+01
1.031540564304e+01
4.868763255973e+00
7.467535979513e+00
1.700307617395e+01
2.000729848672e+01
1.833329278324e+01
1.891067674522e+01
1.974271638000e+01
8.982631679338e+00
1.877976484677e+01
1.984694300480e+01
1.811577706387e+01
-7.932969611083e+00
1.224693243087e+01
1.991197948749e+01
1.888148753475e+01
1.997995702803e+01
5.147724556937e+00
2.018656923834e+01
4.214361600850e+00
1.851759384356e+01
2.018353251189e+01
1.878529407779e+01
1.821675985240e+01
1.676035731368e+01
2.257170093431e+00
2.033977495196e+01
6.037821525112e+00
-2.118602558081e+01
1.971922541105e+01
1.944885706627e+01
-2.280850866295e+01
2.032392456180e+01
1.402723554344e+01
1.501934697851e+01
1.926461733743e+01
1.882301098217e+01
1.911345597625e+01
1.876964332700e+01
1.599792198280e+01
2.053622748730e+01
1.269298267959e+01
2.029280427673e+01
1.845783582560e+01
8.667421178533e+00
1.867523267050e+01
1.899794700822e+01
-4.904078027739e+00
1.831092097062e+01
2.035171952866e+01
1.868321871745e+01
8.020639809253e+00
1.966479085533e+01
1.907857333007e+01
1.972089626860e+01
1.772864501552e+01
1.501492310291e+01
1.875729441024e+01
1.810023428426e+01
-5.413014177169e+00
2.005518708356e+01
1.997208397621e+01
1.730941245166e+01
1.984863454743e+01
1.999779699051e+01
1.914110590982e+01
1.872781468255e+01
2.053884252632e+01
-5.749811632705e+01
1.397990807657e+01
1.987411549819e+01
1.749810999637e+01
1.825673861118e+01
-2.288523522221e+00
2.806149179501e+00
1.723138951853e+01
1.845859079790e+01
1.575015458098e+01
1.945657695232e+01
2.062649405454e+01
2.067577988121e+01
1.911611360772e+01
1.662505914664e+01
-2.914409099596e+01
-1.257359048045e+01
8.509335386631e+00
-6.102078677564e+00
1.884633605707e+01
1.804362655375e+01
1.846420435608e+01
-5.534401886147e+00
1.951616201630e+01
1.832709463556e+01
1.968012068593e+01
1.923830598348e+01
2.013018461183e+01
2.063050040231e+01
1.734219143065e+01
1.857744378194e+01
4.891522641232e+00
1.898157823065e+01
2.049364461826e+01
-2.271303147383e+01
-1.974942122788e+01
2.029556534113e+01
1.669302850144e+01
1.971460993898e+01
1.907289468090e+01
1.996598669260e+01
1.923594758581e+01
1.742585114045e+01
1.630836684233e+01
1.657563912940e+01
1.855180043408e+01
1.972694543974e+01
1.589460348637e+01
1.672670048766e+01
1.728068779554e+01
1.747179796003e+01
6.236885687126e+00
1.555058533396e+01
1.994375655685e+01
1.799738594761e+01
2.042225782942e+01
1.972763643167e+01
1.867359889607e+01
1.968374340885e+01
1.837818490303e+01
1.789020742869e+01
2.061487302133e+01
-2.348480710921e+01
1.442060825502e+01
2.037569712228e+01
3.554249616265e+00
1.672515419193e+01
2.057448807635e+01
-7.284594649023e+00
-2.346725155822e+01
2.012878297980e+01
1.595982400491e+01
1.988161966967e+01
2.041308116635e+01
1.595447440468e+01
-2.650870757358e+01
1.995019171467e+01
5.449459723559e+00
1.976170076613e+01
2.049244234893e+01
1.973348559040e+01
1.150748868263e+01
1.723015957453e+01
1.854702001236e+01
1.945917744744e+01
2.045759135068e+01
1.899043315879e+01
2.054669064573e+01
-5.698910055126e+00
2.059917393678e+01
1.292300790391e+01
3.581284789701e+00
2.062060822984e+01
1.992997676490e+01
1.998526634511e+01
1.666521490393e+01
1.728524988564e+01
3.689808456331e+00
1.997133773635e+01
1.710212983379e+01
-4.986781462540e-01
1.970587509185e+01
1.596511083688e+01
1.977547122087e+01
2.011004252907e+01
2.015908962825e+01
8.999999999681e+01
-5.347173487801e+01
1.610487085396e+01
1.602059173771e+01
2.049531512735e+01
2.058727484545e+01
-2.482408528874e+01
-5.743132709447e+01
2.056954660420e+01
1.990915887148e+01
8.032449396143e+00
2.056880239951e+01
2.000886427551e+01
1.954893774477e+01
1.827058066915e+01
7.435501404468e+00
1.916402453020e+01
3.702392160292e+00
1.898373085019e+01
1.981890377036e+01
1.961062132683e+01
1.937997356517e+01
1.773460852124e+01
1.988426455069e+01
1.938831266422e+01
1.905346759072e+01
1.599222090307e+01
1.918272185485e+01
1.975077953523e+01
1.465450947103e+01
-2.216649794978e+01
1.970277942274e+01
2.029450406965e+01
3.564146605928e+00
1.858379747500e+01
2.053291013131e+01
1.975220163819e+01
1.990628739823e+01
2.023586767909e+01
-2.509481652395e+01
-2.507146803263e+00
6.425208540898e+00
1.720138832839e+01
1.909963979752e+01
1.978568475590e+01
2.041765683222e+01
-5.740867078710e+00
-6.515893057836e+00
-1.548642551981e+01
1.869488087847e+01
1.658538914101e+01
1.978723701260e+01
7.362295124798e+00
2.035816697655e+01
1.722610401350e+01
2.019272575031e+01
1.956279054917e+01
1.718633252917e+01
2.065291075283e+01
1.994836215001e+01
1.993722037155e+01
-4.207573954380e+01
1.969242542013e+01
2.006454425273e+01
2.041121732247e+01
1.972211080085e+01
2.048664433047e+01
1.906336595297e+01
-5.367798357553e+01
2.765326617476e+00
1.956185694285e+01
1.767873316909e+01
2.054975918607e+01
1.981360084816e+01
2.051003584757e+01
1.908082629060e+01
2.027225306486e+01
2.057314542307e+01
2.060285754245e+01
1.687350815392e+01
2.060433915078e+01
1.659673061155e+01
1.970425205581e+01
-5.687671883948e+00
1.948367421061e+01
1.860743638097e+01
-4.613728996223e+00
9.052179684060e+00
1.924317168536e+01
1.995532943331e+01
1.975730774705e+01
2.030299240730e+01
1.771082362832e+01
-2.269070292313e+01
-9.171277499358e+00
-1.763739898048e+01
1.341347509032e+00
-4.398504083585e+01
1.883169504083e+01
2.055893509490e+01
1.973717344387e+01
1.760621815315e+01
1.812885552919e+01
2.060482768686e+01
2.057350558613e+01
2.023286272525e+01
1.989258775119e+01
1.955618504146e+01
-5.979594519583e+00
-1.004185985969e+01
2.060584357364e+01
-4.629169473916e+00
-9.692657946750e-02
-1.573509364843e+01
-7.450770467555e+00
2.053286928920e+01
2.004135317007e+01
1.980083472505e+01
2.023961215546e+01
2.048825700344e+01
1.800755416553e+01
2.017539468198e+01
1.225750042102e+01
1.590599700812e+01
1.831610003422e+00
-2.298470064988e+01
2.060519076404e+01
1.665436099754e+01
2.861072919130e+00
1.876891951558e+01
2.000999271641e+01
1.975544763460e+01
1.997868458675e+01
1.599615961723e+01
-9.092233077142e+00
2.066806396080e+01
2.012334511041e+01
2.064889295251e+01
1.661549211853e+01
2.045413858465e+01
3.536344308579e+00
1.980856283298e+01
-2.467227902099e+01
2.052445678019e+01
1.993791619783e+01
-2.512118680513e+01
1.976194964047e+01
1.889378542539e+01
1.997019169888e+01
2.044619702374e+01
1.836053927399e+01
2.003891878690e+01
1.977504668753e+01
1.862123047146e+01
1.985489155466e+01
1.750952217363e+01
1.599301090993e+01
2.007487680087e+01
1.997741320840e+01
-5.926090440378e+01
1.601497132224e+01
2.055888770214e+01
8.073203014364e+00
2.055403030168e+01
1.972180965286e+01
1.993944982305e+01
7.275219028713e+00
-6.585195502768e-01
1.975873269256e+01
1.930462655328e+01
-5.092913667542e+01
1.998616158716e+01
1.822359065108e+01
6.966281616717e+00
1.787388081195e+01
2.014917235641e+01
1.985684708069e+01
-4.027654845536e+01
1.704171587197e+01
1.930035605469e+01
1.990889476863e+01
2.015547787997e+01
1.922238291197e+01
1.940024657531e+01
-8.555346022222e+00
2.064017871325e+01
1.972101611976e+01
6.032625558082e+00
1.996322442724e+01
2.054401035915e+01
1.665908056663e+01
1.821813990578e+01
1.913946306525e+01
1.921548223536e+01
1.952722583047e+01
2.039460702970e+01
3.103411583315e+00
1.984262688154e+01
1.726892133649e+01
1.993905479985e+01
2.036808859997e+01
1.785310336847e+01
1.967959379128e+01
2.019661843316e+01
2.030562076751e+01
-2.924652147467e+01
1.966831645657e+01
1.982470303613e+01
-7.943088291085e+00
1.887048717387e+01
-3.007281382039e+01
1.981781835897e+01
-5.015069245521e+01
-5.534622972417e+01
-5.506051460774e+01
-5.560251351226e+01
-5.536555873867e+01
-5.552978674318e+01
-5.542883036799e+01
-5.548615476590e+01
-5.544691996652e+01
-5.546315603635e+01
-5.544327660327e+01
-5.545160415888e+01
-5.542704521681e+01
-5.544637381032e+01
-5.540227475802e+01
-5.544472992526e+01
-5.537054238761e+01
-5.544549460842e+01
-5.533211593920e+01
-5.544836125820e+01
-4.738472787859e+01
-5.528651057665e+01
-5.545337228648e+01
-5.523259611384e+01
8.616069906838e+01
-5.545921044939e+01
-5.516891515277e+01
-5.202943567787e+01
-5.546730235053e+01
-5.509429949308e+01
-5.544232278779e+01
-5.500770454445e+01
-5.536467878490e+01
-5.490795007703e+01
-5.527212632086e+01
-5.478247574126e+01
-5.520345489513e+01
-4.259099852084e+01
-5.459823562777e+01
-5.508663585210e+01
-5.440579400706e+01
-5.508491957876e+01
-5.486354645409e+01
-5.420635737148e+01
8.954055623149e+01
-5.402061581131e+01
8.794825828925e+01
-5.383809322818e+01
8.767586139882e+01
8.818740006864e+01
-5.373462255500e+01
-5.349231686800e+01
8.999999999681e+01
-5.416332087770e+01
-4.923537139793e+01
8.999999999681e+01
-3.985093873451e+01
-5.565877309644e+01
-1.876212721041e+01
-1.678032139013e+01
-1.679363871520e+01
-1.662447201976e+01
-1.667346760818e+01
-1.658341274803e+01
-1.663790157844e+01
-1.655173599923e+01
-1.661041272173e+01
-1.652178804173e+01
-1.658603406541e+01
-1.649193955711e+01
-1.656300378406e+01
-1.646093552014e+01
-1.653963762928e+01
-1.642777204419e+01
-1.651424700503e+01
-1.639190666595e+01
-1.648580648599e+01
-1.351826717250e+01
-1.635308594793e+01
-1.645352247463e+01
-1.631127381438e+01
-1.576027759676e+01
-1.641690424093e+01
-1.626574728631e+01
-1.637390205293e+01
-1.621720571660e+01
-1.632357968648e+01
-2.163993663850e+01
-1.616594679597e+01
-1.626499454360e+01
-1.611743143849e+01
-1.620441585647e+01
-1.606788953083e+01
-1.609694532222e+01
-1.603407975241e+01
-1.589685149066e+01
-1.599249008251e+01
-1.566679296748e+01
-1.600437713012e+01
-1.305814768167e+01
-1.595434981363e+01
-1.558279579226e+01
-1.606515515948e+01
-1.528407774461e+01
-1.591692812182e+01
-1.559030020506e+01
-1.480077082824e+01
-2.447758015448e+01
-1.572761166920e+01
-1.841165978653e+01
-1.190918382015e+01
-2.394910516169e+01
-2.095517263379e+01
-9.087766562413e-01
-1.763769680131e+00
-1.785742950789e+00
-1.830979986731e+00
-1.830423464062e+00
-1.822327948071e+00
-1.818793305961e+00
-1.807256103294e+00
-1.803540644949e+00
-1.791654703893e+00
-1.789099126324e+00
-1.776327904592e+00
-1.776005300673e+00
-1.761324516402e+00
-1.764070062681e+00
-1.745268234658e+00
-1.752281645091e+00
-1.727676693966e+00
-5.077859106481e-01
-1.740360430273e+00
-1.708056948586e+00
-1.728340296225e+00
-3.969149704784e+00
-1.686711198095e+00
-1.675278669090e+00
-1.716954620207e+00
-1.664270802302e+00
-1.705952345130e+00
-1.635251706109e+00
-1.693898000698e+00
-1.605440548628e+00
-1.682420126835e+00
-1.564343584630e+00
-5.629128035835e-01
-1.674484527953e+00
-1.543308428610e+00
-1.673633936993e+00
-1.484385627618e+00
-1.501501869840e+00
-1.680266790256e+00
-1.374248957303e+00
-1.696040597907e+00
-1.521556301430e+00
-1.126173082460e+00
-1.721236582468e+00
-1.753184535050e+00
-5.210582205711e+00
-2.002653951859e+00
-7.955302441637e-01
-4.184153476104e+00
7.523756258862e-01
-4.121340912098e+00
4.860839269269e+00
5.301641847745e+00
5.312975281064e+00
5.326425239673e+00
5.332336496885e+00
5.328973902265e+00
5.336829719715e+00
5.333113829520e+00
5.343522471422e+00
5.337399663247e+00
5.350748579618e+00
5.340832803761e+00
5.357594509165e+00
5.341697804886e+00
5.362542390498e+00
5.340712976758e+00
5.367158711652e+00
5.841423158269e+00
5.338798515879e+00
5.372053816568e+00
5.173167813883e+00
5.336292706207e+00
5.377749323206e+00
5.331722434367e+00
5.382699472173e+00
5.323338038513e+00
3.978147909356e+00
5.384869651854e+00
5.313732080144e+00
5.392524452991e+00
5.306534573268e+00
5.400252204606e+00
5.297020899036e+00
5.419286197504e+00
5.284551565253e+00
5.409321837445e+00
5.259434968320e+00
5.731256037925e+00
5.239405655926e+00
5.452373020823e+00
5.184498797496e+00
5.378391284569e+00
5.542524818379e+00
3.306353257132e+00
5.593817354009e+00
4.824563377246e+00
6.459719327013e+00
3.746835205340e+00
3.775190128475e+00
9.650318130852e+00
9.379684460505e+00
9.364755667864e+00
9.351191858614e+00
9.342094195300e+00
9.348523693727e+00
9.338644038892e+00
9.349027784150e+00
9.336412567753e+00
9.350013119093e+00
9.334147999878e+00
9.351547160752e+00
9.331121395646e+00
9.349743130578e+00
9.323808148958e+00
9.345556542030e+00
9.591561514442e+00
9.313117809985e+00
9.342404010048e+00
8.378379928489e+00
9.303985893063e+00
9.340096648301e+00
9.113402288071e+00
9.293434200687e+00
9.336196735731e+00
9.278657241229e+00
9.328727490787e+00
9.259265175817e+00
9.314303708258e+00
9.468476196446e+00
9.237023122534e+00
9.321999327587e+00
9.227719159924e+00
9.305567129225e+00
9.343670885364e+00
9.207486906139e+00
9.258950074488e+00
9.202718698963e+00
9.371944932084e+00
9.119973467906e+00
7.976773495692e+00
9.231437263378e+00
9.742427672539e+00
8.609986014325e+00
1.021953441805e+01
8.211333062887e+00
1.178133682835e+01
1.195895388351e+01
1.196463789409e+01
1.196021556732e+01
1.196479975898e+01
1.195866999114e+01
1.196378901252e+01
1.195165957287e+01
1.195978122424e+01
1.194626399498e+01
1.195665120963e+01
1.193989744452e+01
1.195397663479e+01
1.193351294302e+01
1.194756865892e+01
1.204360845414e+01
1.191521986265e+01
1.171765467226e+01
1.193369691932e+01
1.190353585246e+01
1.192739804489e+01
1.189361831264e+01
1.192082705971e+01
1.187603401964e+01
1.119555415635e+01
1.190843520762e+01
1.185591052569e+01
1.189405305739e+01
1.183260178563e+01
1.186604571654e+01
1.180433005066e+01
1.188052420720e+01
1.181266161391e+01
1.174755048987e+01
1.184567602519e+01
1.193655031400e+01
1.190824417223e+01
1.092837942331e+01
1.211154485915e+01
1.172391778727e+01
1.244393992733e+01
1.133587429625e+01
1.105921083295e+01
1.392146804530e+01
1.377176371964e+01
1.375587274624e+01
1.374787350056e+01
1.373933411898e+01
1.375013730589e+01
1.374107841642e+01
1.373922094532e+01
1.372401671494e+01
1.373628616139e+01
1.372124913054e+01
1.372844864309e+01
1.370804150296e+01
1.377990281999e+01
1.372944670921e+01
1.370311867817e+01
1.315381965013e+01
1.370428010344e+01
1.367816794486e+01
1.352308654059e+01
1.369723204853e+01
1.367049942951e+01
1.369430659469e+01
1.365745594643e+01
1.367719912746e+01
1.366743707437e+01
1.363283012803e+01
1.366129297739e+01
1.365241883494e+01
1.361618033560e+01
1.359169419040e+01
1.360342910935e+01
1.367343029781e+01
1.354100662865e+01
1.295076916283e+01
1.365403344305e+01
1.398841156877e+01
1.340739287541e+01
1.417874285986e+01
1.303713549513e+01
1.502969849691e+01
1.506569334700e+01
1.507507367244e+01
1.508650110473e+01
1.507662853858e+01
1.508859841525e+01
1.508634512107e+01
1.506060581032e+01
1.505952567639e+01
1.506238851432e+01
1.506523481225e+01
1.505291681347e+01
1.508566241318e+01
1.504849193329e+01
1.493260533331e+01
1.501823951308e+01
1.504856091433e+01
1.503258802748e+01
1.502008074766e+01
1.501902321557e+01
1.502177914118e+01
1.499724648708e+01
1.459799546440e+01
1.501271624471e+01
1.497468552735e+01
1.498431793946e+01
1.494715808283e+01
1.493049372595e+01
1.497118982455e+01
1.498315091053e+01
1.498375564197e+01
1.443896825415e+01
1.515306552875e+01
1.499221650420e+01
1.537678550038e+01
1.474522438819e+01
1.450533454741e+01


