# vtk DataFile Version 2.0
Calculation C:\Users\johan\Documents\GitHub\TOCHNOG\standsicherheit_phiC at time 9.000000000000e+00 
ASCII
DATASET UNSTRUCTURED_GRID
Field FieldData 1
Time 1 1 double
9.000000000000e+00

POINTS 1067 float
0.0 0.0 0.0 
5.000000000000e+01 -1.000000000000e+01 0.0 
0.0 -2.000000000000e+01 0.0 
5.000000000000e+01 -2.000000000000e+01 0.0 
0.0 -9.999999999991e-01 0.0 
0.0 -1.999999999998e+00 0.0 
0.0 -2.999999999997e+00 0.0 
0.0 -3.999999999994e+00 0.0 
0.0 -4.999999999991e+00 0.0 
0.0 -5.999999999988e+00 0.0 
0.0 -6.999999999985e+00 0.0 
0.0 -7.999999999982e+00 0.0 
0.0 -8.999999999983e+00 0.0 
0.0 -9.999999999985e+00 0.0 
0.0 -1.099999999999e+01 0.0 
0.0 -1.199999999999e+01 0.0 
0.0 -1.299999999999e+01 0.0 
0.0 -1.399999999999e+01 0.0 
0.0 -1.499999999999e+01 0.0 
0.0 -1.599999999999e+01 0.0 
0.0 -1.700000000000e+01 0.0 
0.0 -1.800000000000e+01 0.0 
0.0 -1.900000000000e+01 0.0 
4.900000000001e+01 -2.000000000000e+01 0.0 
4.800000000001e+01 -2.000000000000e+01 0.0 
4.700000000002e+01 -2.000000000000e+01 0.0 
4.600000000003e+01 -2.000000000000e+01 0.0 
4.500000000004e+01 -2.000000000000e+01 0.0 
4.400000000004e+01 -2.000000000000e+01 0.0 
4.300000000005e+01 -2.000000000000e+01 0.0 
4.200000000006e+01 -2.000000000000e+01 0.0 
4.100000000006e+01 -2.000000000000e+01 0.0 
4.000000000007e+01 -2.000000000000e+01 0.0 
3.900000000008e+01 -2.000000000000e+01 0.0 
3.800000000009e+01 -2.000000000000e+01 0.0 
3.700000000009e+01 -2.000000000000e+01 0.0 
3.600000000010e+01 -2.000000000000e+01 0.0 
3.500000000011e+01 -2.000000000000e+01 0.0 
3.400000000011e+01 -2.000000000000e+01 0.0 
3.300000000012e+01 -2.000000000000e+01 0.0 
3.200000000013e+01 -2.000000000000e+01 0.0 
3.100000000013e+01 -2.000000000000e+01 0.0 
3.000000000013e+01 -2.000000000000e+01 0.0 
2.900000000013e+01 -2.000000000000e+01 0.0 
2.800000000013e+01 -2.000000000000e+01 0.0 
2.700000000013e+01 -2.000000000000e+01 0.0 
2.600000000013e+01 -2.000000000000e+01 0.0 
2.500000000013e+01 -2.000000000000e+01 0.0 
2.400000000013e+01 -2.000000000000e+01 0.0 
2.300000000013e+01 -2.000000000000e+01 0.0 
2.200000000013e+01 -2.000000000000e+01 0.0 
2.100000000013e+01 -2.000000000000e+01 0.0 
2.000000000013e+01 -2.000000000000e+01 0.0 
1.900000000013e+01 -2.000000000000e+01 0.0 
1.800000000013e+01 -2.000000000000e+01 0.0 
1.700000000012e+01 -2.000000000000e+01 0.0 
1.600000000011e+01 -2.000000000000e+01 0.0 
1.500000000011e+01 -2.000000000000e+01 0.0 
1.400000000010e+01 -2.000000000000e+01 0.0 
1.300000000009e+01 -2.000000000000e+01 0.0 
1.200000000009e+01 -2.000000000000e+01 0.0 
1.100000000008e+01 -2.000000000000e+01 0.0 
1.000000000007e+01 -2.000000000000e+01 0.0 
9.000000000064e+00 -2.000000000000e+01 0.0 
8.000000000057e+00 -2.000000000000e+01 0.0 
7.000000000050e+00 -2.000000000000e+01 0.0 
6.000000000043e+00 -2.000000000000e+01 0.0 
5.000000000036e+00 -2.000000000000e+01 0.0 
4.000000000028e+00 -2.000000000000e+01 0.0 
3.000000000021e+00 -2.000000000000e+01 0.0 
2.000000000014e+00 -2.000000000000e+01 0.0 
1.000000000007e+00 -2.000000000000e+01 0.0 
5.000000000000e+01 -1.100000000000e+01 0.0 
5.000000000000e+01 -1.200000000000e+01 0.0 
5.000000000000e+01 -1.300000000000e+01 0.0 
5.000000000000e+01 -1.400000000000e+01 0.0 
5.000000000000e+01 -1.500000000000e+01 0.0 
5.000000000000e+01 -1.600000000000e+01 0.0 
5.000000000000e+01 -1.700000000000e+01 0.0 
5.000000000000e+01 -1.800000000000e+01 0.0 
5.000000000000e+01 -1.900000000000e+01 0.0 
2.000000000000e+01 0.0 0.0 
3.500000000000e+01 -1.000000000000e+01 0.0 
2.150000000000e+01 -1.000000000000e+00 0.0 
2.300000000000e+01 -2.000000000000e+00 0.0 
2.450000000000e+01 -3.000000000000e+00 0.0 
2.600000000000e+01 -4.000000000000e+00 0.0 
2.750000000000e+01 -5.000000000000e+00 0.0 
2.900000000000e+01 -6.000000000000e+00 0.0 
3.050000000000e+01 -7.000000000000e+00 0.0 
3.200000000000e+01 -8.000000000000e+00 0.0 
3.350000000000e+01 -9.000000000000e+00 0.0 
5.000000000000e+01 -8.000000000000e+00 0.0 
5.000000000000e+01 -9.000000000000e+00 0.0 
4.900000000000e+01 -1.000000000000e+01 0.0 
4.800000000000e+01 -1.000000000000e+01 0.0 
4.700000000000e+01 -1.000000000000e+01 0.0 
4.600000000000e+01 -1.000000000000e+01 0.0 
4.500000000000e+01 -1.000000000000e+01 0.0 
4.400000000000e+01 -1.000000000000e+01 0.0 
4.300000000000e+01 -1.000000000000e+01 0.0 
4.200000000000e+01 -1.000000000000e+01 0.0 
4.100000000000e+01 -1.000000000000e+01 0.0 
4.000000000000e+01 -1.000000000000e+01 0.0 
3.900000000000e+01 -1.000000000000e+01 0.0 
3.800000000000e+01 -1.000000000000e+01 0.0 
3.700000000000e+01 -1.000000000000e+01 0.0 
3.600000000000e+01 -1.000000000000e+01 0.0 
1.900000000000e+01 0.0 0.0 
1.800000000000e+01 0.0 0.0 
1.700000000000e+01 0.0 0.0 
1.600000000000e+01 0.0 0.0 
1.500000000000e+01 0.0 0.0 
1.400000000000e+01 0.0 0.0 
1.300000000000e+01 0.0 0.0 
1.200000000000e+01 0.0 0.0 
1.100000000000e+01 0.0 0.0 
1.000000000000e+01 0.0 0.0 
9.000000000000e+00 0.0 0.0 
8.000000000000e+00 0.0 0.0 
7.000000000000e+00 0.0 0.0 
6.000000000000e+00 0.0 0.0 
5.000000000000e+00 0.0 0.0 
4.000000000000e+00 0.0 0.0 
3.000000000000e+00 0.0 0.0 
2.000000000000e+00 0.0 0.0 
1.000000000000e+00 0.0 0.0 
4.900000000000e+01 -8.000000000000e+00 0.0 
4.800000000000e+01 -8.000000000000e+00 0.0 
4.700000000000e+01 -8.000000000000e+00 0.0 
4.600000000000e+01 -8.000000000000e+00 0.0 
4.500000000000e+01 -8.000000000000e+00 0.0 
4.400000000000e+01 -8.000000000000e+00 0.0 
4.300000000000e+01 -8.000000000000e+00 0.0 
4.200000000000e+01 -8.000000000000e+00 0.0 
4.100000000000e+01 -8.000000000000e+00 0.0 
4.000000000000e+01 -8.000000000000e+00 0.0 
3.900000000000e+01 -8.000000000000e+00 0.0 
3.800000000000e+01 -8.000000000000e+00 0.0 
3.700000000000e+01 -8.000000000000e+00 0.0 
3.600000000000e+01 -8.000000000000e+00 0.0 
3.500000000000e+01 -8.000000000000e+00 0.0 
3.400000000000e+01 -8.000000000000e+00 0.0 
3.300000000000e+01 -8.000000000000e+00 0.0 
3.447058823527e+01 -9.000000000000e+00 0.0 
3.544117647055e+01 -9.000000000000e+00 0.0 
3.641176470582e+01 -9.000000000000e+00 0.0 
3.738235294109e+01 -9.000000000000e+00 0.0 
3.835294117637e+01 -9.000000000000e+00 0.0 
3.932352941164e+01 -9.000000000000e+00 0.0 
4.029411764691e+01 -9.000000000000e+00 0.0 
4.126470588219e+01 -9.000000000000e+00 0.0 
4.223529411748e+01 -9.000000000000e+00 0.0 
4.320588235279e+01 -9.000000000000e+00 0.0 
4.417647058811e+01 -9.000000000000e+00 0.0 
4.514705882342e+01 -9.000000000000e+00 0.0 
4.611764705874e+01 -9.000000000000e+00 0.0 
4.708823529405e+01 -9.000000000000e+00 0.0 
4.805882352937e+01 -9.000000000000e+00 0.0 
4.902941176468e+01 -9.000000000000e+00 0.0 
2.075000000000e+01 -5.000000000006e-01 0.0 
2.225000000000e+01 -1.500000000000e+00 0.0 
2.375000000000e+01 -2.500000000000e+00 0.0 
2.525000000000e+01 -3.500000000000e+00 0.0 
2.675000000000e+01 -4.500000000000e+00 0.0 
2.825000000000e+01 -5.500000000000e+00 0.0 
2.975000000000e+01 -6.500000000000e+00 0.0 
3.125000000000e+01 -7.500000000000e+00 0.0 
3.275000000000e+01 -8.500000000000e+00 0.0 
3.425000000000e+01 -9.500000000000e+00 0.0 
2.226951693683e+01 -2.403913980114e+00 0.0 
1.650149491944e+01 -1.913490915758e+01 0.0 
1.050042386896e+01 -8.504605092970e-01 0.0 
1.553146524712e+01 -8.281255032105e-01 0.0 
1.150000000008e+01 -1.913397459621e+01 0.0 
2.530060260647e+01 -4.428336431260e+00 0.0 
8.651114563942e-01 -1.052096295641e+01 0.0 
2.050000000013e+01 -1.913397459622e+01 0.0 
2.819198729811e+01 -6.399519052838e+00 0.0 
2.445670302931e+01 -1.915649188023e+01 0.0 
3.117591465718e+01 -8.394293040695e+00 0.0 
7.465053044742e+00 -1.920411160581e+01 0.0 
6.398295709691e+00 -8.230098819370e-01 0.0 
2.849659607461e+01 -1.914296187762e+01 0.0 
3.418732642882e+01 -1.040265792588e+01 0.0 
8.386450935063e-01 -6.533605142809e+00 0.0 
9.178661865596e-01 -1.329769195597e+01 0.0 
3.149448624493e+01 -1.910466733764e+01 0.0 
3.552916747426e+01 -1.914628590759e+01 0.0 
4.449210346537e+01 -1.914359085008e+01 0.0 
4.140975975145e+01 -1.906941860733e+01 0.0 
3.847475958753e+01 -1.916622382724e+01 0.0 
3.653774794640e+01 -1.088712800241e+01 0.0 
4.047886341787e+01 -1.090139014048e+01 0.0 
4.348006339825e+01 -1.092792621489e+01 0.0 
4.919519968029e+01 -1.451526755068e+01 0.0 
4.500000000032e+00 -1.913397459621e+01 0.0 
1.856136921614e+01 -8.212235170404e-01 0.0 
3.499895312306e+00 -8.661165539723e-01 0.0 
9.076088696565e-01 -1.642306201891e+01 0.0 
4.655174095477e+01 -1.086183387525e+01 0.0 
9.430688970604e-01 -3.496112672958e+00 0.0 
3.353992337063e+01 -1.901202090820e+01 0.0 
2.249746016977e+01 -1.921262287282e+01 0.0 
2.650122741777e+01 -1.916123026018e+01 0.0 
1.863571384842e+01 -1.908325534840e+01 0.0 
1.450089971693e+01 -1.917691901860e+01 0.0 
1.350044695317e+01 -8.659695299584e-01 0.0 
3.849987469880e+01 -1.084154983397e+01 0.0 
9.454419857884e+00 -1.900818879936e+01 0.0 
4.917398660523e+01 -1.645692866081e+01 0.0 
8.500000000000e+00 -8.660254037844e-01 0.0 
8.660319230785e-01 -8.500111697188e+00 0.0 
4.649022621545e+01 -1.930506220113e+01 0.0 
2.667688107845e+01 -5.420288124331e+00 0.0 
2.379251615665e+01 -3.412225477429e+00 0.0 
2.966631491830e+01 -7.389030232731e+00 0.0 
3.267915035995e+01 -9.396934932445e+00 0.0 
2.074836922338e+01 -1.320054020319e+00 0.0 
4.915985743621e+01 -1.261973384855e+01 0.0 
2.527129768623e+00 -1.931592414663e+01 0.0 
1.538676247410e+00 -8.436956619311e-01 0.0 
4.908096641539e+01 -1.842484004551e+01 0.0 
3.478612492673e+01 -1.090889364140e+01 0.0 
3.409757055860e+01 -1.131991530427e+01 0.0 
3.501895309466e+01 -1.177687842717e+01 0.0 
3.407758073088e+01 -1.224293381580e+01 0.0 
3.484541875390e+01 -1.277051428430e+01 0.0 
3.400322025842e+01 -1.319022775640e+01 0.0 
3.321672625034e+01 -1.266779191233e+01 0.0 
3.315244139236e+01 -1.360984106532e+01 0.0 
3.236335186892e+01 -1.308463225210e+01 0.0 
3.478337442841e+01 -1.372341158982e+01 0.0 
3.230105923633e+01 -1.403023731610e+01 0.0 
3.150954055289e+01 -1.350301767700e+01 0.0 
3.144604792090e+01 -1.444931742516e+01 0.0 
3.065653897123e+01 -1.392357262981e+01 0.0 
3.071897610812e+01 -1.297447031198e+01 0.0 
2.986790411740e+01 -1.339226181535e+01 0.0 
2.993181466745e+01 -1.244703272398e+01 0.0 
2.908023061869e+01 -1.286254537734e+01 0.0 
2.901619051372e+01 -1.380881655279e+01 0.0 
2.822986160390e+01 -1.327695262116e+01 0.0 
2.829453476870e+01 -1.233265343811e+01 0.0 
2.744542905518e+01 -1.274510491105e+01 0.0 
2.751120089246e+01 -1.180368086886e+01 0.0 
2.666218649885e+01 -1.221619339205e+01 0.0 
2.672371209234e+01 -1.127125228527e+01 0.0 
2.587763216302e+01 -1.168539979114e+01 0.0 
2.581165585299e+01 -1.262994410089e+01 0.0 
2.502890882577e+01 -1.209827323619e+01 0.0 
2.509631327757e+01 -1.115492410304e+01 0.0 
2.424662989877e+01 -1.156630981079e+01 0.0 
2.431704046904e+01 -1.062389179334e+01 0.0 
2.346445438728e+01 -1.103427680694e+01 0.0 
2.339382552877e+01 -1.197964871788e+01 0.0 
2.260936050780e+01 -1.144513277642e+01 0.0 
2.268075012022e+01 -1.049911928216e+01 0.0 
2.182525737661e+01 -1.090920811464e+01 0.0 
2.189682319817e+01 -9.961716944568e+00 0.0 
2.104174127792e+01 -1.037266986667e+01 0.0 
2.111304367575e+01 -9.424179358711e+00 0.0 
2.025306185381e+01 -9.832727364719e+00 0.0 
2.018141124247e+01 -1.079140628871e+01 0.0 
1.938594498257e+01 -1.025147354112e+01 0.0 
1.946106490453e+01 -9.288010758448e+00 0.0 
1.858929958352e+01 -9.706319802516e+00 0.0 
1.851540991219e+01 -1.067205988724e+01 0.0 
1.771485303178e+01 -1.012504443115e+01 0.0 
1.764134552256e+01 -1.109360378538e+01 0.0 
1.683745148095e+01 -1.054496365337e+01 0.0 
1.691852964353e+01 -9.582555261178e+00 0.0 
1.603603813062e+01 -1.000160132379e+01 0.0 
1.595824239350e+01 -1.096750698862e+01 0.0 
1.515080624291e+01 -1.041639501931e+01 0.0 
1.523171602559e+01 -9.451711491453e+00 0.0 
1.434621060709e+01 -9.871956467464e+00 0.0 
1.426777178765e+01 -1.083749501371e+01 0.0 
1.345775282374e+01 -1.028803175500e+01 0.0 
1.354103873368e+01 -9.324918457162e+00 0.0 
1.265072018622e+01 -9.742612837270e+00 0.0 
1.257285762070e+01 -1.071557782384e+01 0.0 
1.175874815690e+01 -1.015972324288e+01 0.0 
1.184203019714e+01 -9.193604071377e+00 0.0 
1.094927709905e+01 -9.612103238656e+00 0.0 
1.086938022910e+01 -1.058685085646e+01 0.0 
1.005424098961e+01 -1.002939116380e+01 0.0 
9.977974613295e+00 -1.101324897989e+01 0.0 
1.012915646404e+01 -9.051815821181e+00 0.0 
9.237127782494e+00 -9.471239055559e+00 0.0 
9.308426593771e+00 -8.483376461131e+00 0.0 
8.418806073345e+00 -8.910712374517e+00 0.0 
2.253688464062e+01 -1.239459402279e+01 0.0 
8.495126726666e+00 -7.921646665254e+00 0.0 
9.389727383206e+00 -7.512103628377e+00 0.0 
7.601560812974e+00 -8.349460349344e+00 0.0 
7.525680547759e+00 -9.339736686940e+00 0.0 
7.677888324502e+00 -7.359727833346e+00 0.0 
6.782001206724e+00 -7.788454494773e+00 0.0 
6.858778622885e+00 -6.797338062822e+00 0.0 
2.196596590865e+01 -8.979025665442e+00 0.0 
2.816540108272e+01 -1.422634142353e+01 0.0 
5.961601194403e+00 -7.226824010712e+00 0.0 
6.038171749656e+00 -6.234825887079e+00 0.0 
6.936257279557e+00 -5.805287640737e+00 0.0 
6.115068918323e+00 -5.242109758768e+00 0.0 
3.564391741903e+01 -1.329240553876e+01 0.0 
3.558115605778e+01 -1.425902892003e+01 0.0 
3.645445282201e+01 -1.381970786460e+01 0.0 
3.639744204358e+01 -1.479198128612e+01 0.0 
3.727266909778e+01 -1.435399586226e+01 0.0 
5.216667013081e+00 -5.671788584287e+00 0.0 
3.220697293295e+01 -1.499594545107e+01 0.0 
3.551112158269e+01 -1.523479869250e+01 0.0 
2.836056961467e+01 -1.139032434851e+01 0.0 
2.516730388602e+01 -1.021382726837e+01 0.0 
1.844436907403e+01 -1.164097215196e+01 0.0 
5.885434318740e+00 -8.218694781467e+00 0.0 
5.064071066867e+00 -7.656614643901e+00 0.0 
4.988089103470e+00 -8.649722082718e+00 0.0 
1.079421050408e+01 -1.157014985435e+01 0.0 
9.902420005256e+00 -1.199903342656e+01 0.0 
1.071994252214e+01 -1.255727909771e+01 0.0 
9.826974788171e+00 -1.298659581767e+01 0.0 
1.064607883789e+01 -1.354595476388e+01 0.0 
9.751541265343e+00 -1.397556905071e+01 0.0 
8.932296185869e+00 -1.341553353988e+01 0.0 
8.856399248106e+00 -1.440570715508e+01 0.0 
8.036186803543e+00 -1.384470558472e+01 0.0 
1.057112875118e+01 -1.453516759081e+01 0.0 
1.146582585687e+01 -1.410539926903e+01 0.0 
7.959894480382e+00 -1.483563350928e+01 0.0 
7.138792279156e+00 -1.427465094140e+01 0.0 
7.062506792418e+00 -1.526615385482e+01 0.0 
6.240693558277e+00 -1.470508863040e+01 0.0 
6.316957575451e+00 -1.371212581281e+01 0.0 
5.418183007107e+00 -1.414253605022e+01 0.0 
5.494748364428e+00 -1.314886770603e+01 0.0 
1.756825565873e+01 -1.206433872514e+01 0.0 
1.837565773345e+01 -1.261356468266e+01 0.0 
1.749574831391e+01 -1.303769280014e+01 0.0 
1.830539187332e+01 -1.358828364284e+01 0.0 
1.742278925170e+01 -1.401367746928e+01 0.0 
1.823303007798e+01 -1.456432294258e+01 0.0 
1.734941694138e+01 -1.499213734361e+01 0.0 
1.653760041637e+01 -1.443920312098e+01 0.0 
3.056237977307e+01 -1.487132260174e+01 0.0 
1.866469084762e+01 -8.742953000418e+00 0.0 
1.953669694916e+01 -8.326038909849e+00 0.0 
1.874194303780e+01 -7.780688158966e+00 0.0 
1.961032016741e+01 -7.366854697285e+00 0.0 
1.881715755159e+01 -6.821102209649e+00 0.0 
1.968369797150e+01 -6.407747217358e+00 0.0 
1.889237123259e+01 -5.858375520026e+00 0.0 
1.802038875366e+01 -6.276202618170e+00 0.0 
1.809793837984e+01 -5.307629520489e+00 0.0 
1.721985207997e+01 -5.728242054488e+00 0.0 
1.729850893523e+01 -4.756990819347e+00 0.0 
1.641745664240e+01 -5.174636548624e+00 0.0 
2.495978509456e+01 -1.304406404294e+01 0.0 
1.911567814831e+01 -1.413854250293e+01 0.0 
1.904387332608e+01 -1.511463127723e+01 0.0 
1.992115934240e+01 -1.468788025898e+01 0.0 
7.013706899628e+00 -4.812582868662e+00 0.0 
5.342091874585e+00 -1.513658157269e+01 0.0 
1.139098043784e+01 -1.509488509480e+01 0.0 
1.228151810610e+01 -1.465617481983e+01 0.0 
1.646373110164e+01 -1.541993323337e+01 0.0 
5.293328636712e+00 -4.678385108584e+00 0.0 
1.975965862987e+01 -5.448124345648e+00 0.0 
2.054318374236e+01 -5.992561293251e+00 0.0 
3.721453439063e+01 -1.533216152738e+01 0.0 
3.809302733893e+01 -1.489235527381e+01 0.0 
1.220852788900e+01 -1.565304565230e+01 0.0 
4.394120899730e+00 -5.108397613210e+00 0.0 
8.779354620288e+00 -1.539524721159e+01 0.0 
1.817791047702e+01 -4.338570146253e+00 0.0 
4.518860013839e+00 -1.457343189307e+01 0.0 
4.442712140414e+00 -1.556841391069e+01 0.0 
8.115343466391e+00 -1.285760324283e+01 0.0 
1.985334703171e+01 -1.566478400426e+01 0.0 
2.071953850276e+01 -1.522074243119e+01 0.0 
1.634012953883e+01 -6.154777738301e+00 0.0 
1.553479994708e+01 -5.593730508879e+00 0.0 
1.561265946942e+01 -4.617761762647e+00 0.0 
1.470674212978e+01 -5.064576488228e+00 0.0 
1.464498299883e+01 -6.026514471420e+00 0.0 
1.383271561817e+01 -5.467796261169e+00 0.0 
1.389241253067e+01 -4.504338666645e+00 0.0 
1.301868735463e+01 -4.907185188626e+00 0.0 
1.294514184846e+01 -5.888160903592e+00 0.0 
1.212955968622e+01 -5.328262335277e+00 0.0 
1.220721122383e+01 -4.341264976687e+00 0.0 
1.131324345897e+01 -4.766773516508e+00 0.0 
5.266597955397e+00 -1.613148974258e+01 0.0 
1.737805990867e+01 -3.786677807525e+00 0.0 
3.078438094513e+01 -1.203225297748e+01 0.0 
1.131569882285e+01 -1.608511932110e+01 0.0 
1.728478341782e+01 -1.596017432313e+01 0.0 
3.803465906019e+01 -1.587509751228e+01 0.0 
3.891681276677e+01 -1.543395196905e+01 0.0 
3.897340985302e+01 -1.444710288980e+01 0.0 
3.980095968193e+01 -1.499059496613e+01 0.0 
3.974334598189e+01 -1.597921884150e+01 0.0 
4.062964983717e+01 -1.553518690417e+01 0.0 
4.068729602479e+01 -1.454434445295e+01 0.0 
4.151772679790e+01 -1.508974196007e+01 0.0 
4.157505195739e+01 -1.409694289912e+01 0.0 
4.240699932656e+01 -1.464347955968e+01 0.0 
4.234898051011e+01 -1.563721375790e+01 0.0 
4.323934606035e+01 -1.519082036405e+01 0.0 
4.329740528208e+01 -1.419587509788e+01 0.0 
4.413056841369e+01 -1.474359631875e+01 0.0 
4.418850110108e+01 -1.374786684042e+01 0.0 
4.502219770667e+01 -1.429605103525e+01 0.0 
4.496411937907e+01 -1.529215882720e+01 0.0 
4.490027319897e+00 -4.154167794594e+00 0.0 
1.565080385988e+01 -1.486411982419e+01 0.0 
1.557610691279e+01 -1.584855627870e+01 0.0 
4.195350646612e+00 -8.089117689096e+00 0.0 
4.124027797830e+00 -9.082831955007e+00 0.0 
4.917944318925e+00 -9.643530901533e+00 0.0 
4.020105689502e+00 -1.007439673661e+01 0.0 
4.587185899277e+01 -1.484039992728e+01 0.0 
4.580078661551e+01 -1.584043391042e+01 0.0 
2.061956522375e+01 -5.046701343981e+00 0.0 
2.139572955529e+01 -5.579553449826e+00 0.0 
3.715344357292e+01 -1.631485124583e+01 0.0 
3.618886196443e+00 -1.500471207167e+01 0.0 
3.695606940204e+00 -1.400939692294e+01 0.0 
2.438890661143e+01 -9.686110599723e+00 0.0 
2.523267572778e+01 -9.276766000622e+00 0.0 
2.446094171539e+01 -8.751904591412e+00 0.0 
2.529089822738e+01 -8.321495612547e+00 0.0 
2.606882688827e+01 -8.864724051119e+00 0.0 
2.452116646430e+01 -7.792756462004e+00 0.0 
1.235543269617e+01 -1.365845617339e+01 0.0 
4.318116874181e+01 -1.618567469992e+01 0.0 
7.835066111909e+00 -5.376366223896e+00 0.0 
7.905687335704e+00 -4.382539065697e+00 0.0 
3.542640009567e+00 -1.600035116542e+01 0.0 
1.572431503071e+01 -1.388358386695e+01 0.0 
2.574684696680e+01 -1.357896141127e+01 0.0 
2.488842657651e+01 -1.399674354505e+01 0.0 
2.568301775611e+01 -1.453552048595e+01 0.0 
2.481535572009e+01 -1.495542756508e+01 0.0 
2.561729699688e+01 -1.549784648532e+01 0.0 
2.474623061296e+01 -1.592058894178e+01 0.0 
2.394234041695e+01 -1.537572575827e+01 0.0 
2.065825452567e+01 -1.621899055217e+01 0.0 
2.387180528935e+01 -1.634552264687e+01 0.0 
4.585364400844e+01 -1.383912334080e+01 0.0 
1.998744432052e+01 -1.370317155541e+01 0.0 
1.205356951443e+01 -6.313580285498e+00 0.0 
5.396543905849e+00 -3.731818611283e+00 0.0 
1.139652573295e+01 -3.745819399350e+00 0.0 
3.574124306703e+00 -4.551456826011e+00 0.0 
3.494140761930e+00 -5.539787055649e+00 0.0 
1.213651452413e+01 -1.664505033022e+01 0.0 
2.555045568519e+01 -1.646529356744e+01 0.0 
2.641671114986e+01 -1.603899382371e+01 0.0 
2.612920721894e+01 -7.906435260873e+00 0.0 
2.690339829698e+01 -8.456969591431e+00 0.0 
1.978024383368e+01 -1.664410216353e+01 0.0 
3.732829979082e+01 -1.336926601859e+01 0.0 
4.074336584605e+01 -1.355133328401e+01 0.0 
4.163204691081e+01 -1.310280943992e+01 0.0 
3.773826114429e+00 -3.493444309145e+00 0.0 
1.228783001032e+01 -3.374822835872e+00 0.0 
4.057110462520e+01 -1.652588478000e+01 0.0 
2.132535497898e+01 -6.523623360525e+00 0.0 
2.216932532211e+01 -6.110044769206e+00 0.0 
1.825781152128e+01 -3.370146817147e+00 0.0 
1.745679445888e+01 -2.812942552063e+00 0.0 
4.666517057280e+01 -1.539981381543e+01 0.0 
4.660575894464e+01 -1.639014410186e+01 0.0 
4.838230979954e+00 -1.063643436446e+01 0.0 
3.938942630206e+00 -1.106778981745e+01 0.0 
1.302967218620e+01 -1.621373452436e+01 0.0 
1.049548003190e+01 -4.204825123240e+00 0.0 
4.573571907195e+01 -1.683820511148e+01 0.0 
1.483686335807e+01 -1.430849689310e+01 0.0 
1.490982658890e+01 -1.332679386284e+01 0.0 
3.190805600162e+00 -9.510968358545e+00 0.0 
2.146625721848e+01 -4.642437303115e+00 0.0 
2.069866208266e+01 -4.111852942193e+00 0.0 
1.286859345584e+01 -6.873252723348e+00 0.0 
1.041794493184e+01 -5.194814260291e+00 0.0 
2.671081808965e+00 -4.976806516331e+00 0.0 
1.295786792925e+01 -1.720506531799e+01 0.0 
3.968438206511e+01 -1.696869067241e+01 0.0 
2.308550456051e+01 -1.579963151273e+01 0.0 
2.315593682844e+01 -1.482967445235e+01 0.0 
2.299471449450e+01 -1.677069968132e+01 0.0 
1.057344714696e+01 -3.214252277840e+00 0.0 
1.124057603753e+01 -1.707713739755e+01 0.0 
2.718402535754e+00 -1.543629882103e+01 0.0 
2.638549692805e+01 -1.696744916809e+01 0.0 
2.723416349007e+01 -1.658104204545e+01 0.0 
2.210193351704e+01 -7.046769643417e+00 0.0 
2.295180925161e+01 -6.657397605239e+00 0.0 
2.301355235833e+01 -5.709111896800e+00 0.0 
2.379052718281e+01 -6.254965406962e+00 0.0 
3.243528601237e+01 -1.214181853533e+01 0.0 
2.287977995457e+01 -7.583722368300e+00 0.0 
2.999876029544e+01 -1.150837653096e+01 0.0 
3.084435366963e+01 -1.109693775882e+01 0.0 
3.006650579669e+01 -1.057778994262e+01 0.0 
2.683802665066e+01 -9.386863216633e+00 0.0 
2.768641973621e+01 -8.988883915666e+00 0.0 
2.040296980397e+01 -7.903629133404e+00 0.0 
1.925235024054e+01 -1.218872783130e+01 0.0 
5.735667000424e+00 -1.020577277283e+01 0.0 
6.396559909872e+00 -1.272326295703e+01 0.0 
1.161199420714e+01 -1.212812778229e+01 0.0 
4.229046132615e+01 -1.663084237572e+01 0.0 
4.312275399692e+01 -1.718087491556e+01 0.0 
4.335502068163e+01 -1.320039231514e+01 0.0 
4.424630298089e+01 -1.275160688731e+01 0.0 
7.090116643816e+00 -3.818998061530e+00 0.0 
7.989472176569e+00 -3.389238711200e+00 0.0 
9.085824861778e+00 -1.144036167408e+01 0.0 
1.041972423731e+01 -1.651614080893e+01 0.0 
3.797525112640e+01 -1.686052038746e+01 0.0 
3.709114253394e+01 -1.730125999865e+01 0.0 
3.626966748340e+01 -1.675477052919e+01 0.0 
1.385164591440e+01 -1.677597757552e+01 0.0 
1.787152588784e+01 -8.198993896093e+00 0.0 
1.668849729812e+01 -1.248560611628e+01 0.0 
1.659546177905e+01 -3.232482605530e+00 0.0 
2.332214717345e+01 -1.292598167641e+01 0.0 
7.168238450786e+00 -2.824711686516e+00 0.0 
2.894878403906e+01 -1.475427524446e+01 0.0 
2.646763248247e+00 -1.643270107952e+01 0.0 
3.467431944285e+00 -1.699648837348e+01 0.0 
2.059475877282e+01 -1.719473628526e+01 0.0 
3.333868355437e+01 -1.080596971682e+01 0.0 
2.246451062637e+01 -1.334557761546e+01 0.0 
2.167821896388e+01 -1.280847834858e+01 0.0 
3.089653185767e+01 -1.017198487212e+01 0.0 
3.012604365669e+01 -9.657298805968e+00 0.0 
2.929627299435e+01 -1.006100135274e+01 0.0 
2.936201435219e+01 -9.136748899251e+00 0.0 
1.198219052702e+01 -7.291887238230e+00 0.0 
1.116702076035e+01 -6.731976101053e+00 0.0 
2.551388807505e+01 -1.746927036981e+01 0.0 
2.378639090370e+01 -1.728678807149e+01 0.0 
2.718543627188e+01 -1.748668016909e+01 0.0 
2.804681050301e+01 -1.712626668293e+01 0.0 
1.970737034667e+01 -1.762317646822e+01 0.0 
1.889535776135e+01 -1.707158098231e+01 0.0 
2.593777711283e+00 -5.971157087874e+00 0.0 
2.773468281110e+01 -8.067164273938e+00 0.0 
4.051205884347e+01 -1.751819982458e+01 0.0 
3.166903145421e+01 -1.068032992414e+01 0.0 
1.033042452886e+01 -1.748285844336e+01 0.0 
9.519274604626e+00 -1.694349240233e+01 0.0 
1.668308673328e+01 -2.255861778986e+00 0.0 
1.570531902832e+01 -2.676795860126e+00 0.0 
4.655826903379e+01 -1.736656245706e+01 0.0 
2.384148070773e+01 -5.328744256413e+00 0.0 
2.460255123641e+01 -5.852182672816e+00 0.0 
2.306638135119e+01 -4.798935440613e+00 0.0 
8.467720450578e-01 -1.849576263072e+01 0.0 
4.849657322345e+01 -1.084860705506e+01 0.0 
2.565860899507e+00 -1.742859793981e+01 0.0 
2.764418872564e+01 -9.927142821799e+00 0.0 
4.565165880064e+01 -1.785336695404e+01 0.0 
2.162231831329e+01 -1.376528337468e+01 0.0 
2.360646352969e+01 -9.136041963102e+00 0.0 
1.392738739903e+01 -1.578285505772e+01 0.0 
4.756405947478e+01 -1.683706841809e+01 0.0 
4.740895034054e+01 -1.793766756892e+01 0.0 
4.080779328826e+01 -1.257387192544e+01 0.0 
4.168907939671e+01 -1.210739129181e+01 0.0 
3.991197722154e+01 -1.300815793917e+01 0.0 
1.905536506762e+01 -3.940076697685e+00 0.0 
1.923879596617e+01 -2.875000734166e+00 0.0 
4.401386745746e+01 -1.673483229438e+01 0.0 
4.247233362525e+00 -7.094581653070e+00 0.0 
3.286051630211e+00 -7.635300020553e+00 0.0 
9.609533347623e+00 -4.594311677967e+00 0.0 
9.523554636369e+00 -5.595597029530e+00 0.0 
5.660336628893e+00 -1.119290329628e+01 0.0 
6.558070063295e+00 -1.076385809362e+01 0.0 
2.809866407414e+01 -1.518037766799e+01 0.0 
2.888868674504e+01 -1.570360690070e+01 0.0 
2.654431550819e+01 -1.411217777162e+01 0.0 
1.402158265969e+01 -1.375404617952e+01 0.0 
1.409592494026e+01 -1.277071998942e+01 0.0 
1.499355196178e+01 -1.235270737023e+01 0.0 
4.221535326155e+01 -1.759335617494e+01 0.0 
4.305583287033e+01 -1.822663146802e+01 0.0 
1.280748808359e+01 -7.834332838285e+00 0.0 
1.368988389326e+01 -7.420529606172e+00 0.0 
1.110091796060e+01 -7.683966794328e+00 0.0 
3.963446145980e+01 -1.794331310122e+01 0.0 
3.423932362213e+00 -1.796415590455e+01 0.0 
4.280814572302e+00 -1.752272834860e+01 0.0 
8.050136380041e+00 -2.421582378631e+00 0.0 
8.888674091650e+00 -2.984264211327e+00 0.0 
2.152839430898e+01 -3.732609965436e+00 0.0 
2.077799585292e+01 -3.183896021866e+00 0.0 
3.618719395821e+01 -1.770276572576e+01 0.0 
3.538165138340e+01 -1.718709995539e+01 0.0 
3.702925326420e+01 -1.828844288807e+01 0.0 
1.756739438711e+00 -5.353284859169e+00 0.0 
2.233710191104e+01 -1.527265621324e+01 0.0 
1.389483555057e+01 -1.771797164730e+01 0.0 
1.475634224300e+01 -1.728357428390e+01 0.0 
1.298797563052e+01 -1.825968924755e+01 0.0 
2.145331271866e+01 -1.673705379077e+01 0.0 
2.133282821169e+01 -1.769400773673e+01 0.0 
2.292139194136e+01 -1.774915400288e+01 0.0 
1.750750053243e+01 -1.861475593469e+00 0.0 
4.830478841772e+01 -1.752611802221e+01 0.0 
4.341203507805e+01 -1.220326745522e+01 0.0 
1.685254151866e+01 -1.443085301632e+00 0.0 
4.431538535165e+01 -1.171841387375e+01 0.0 
4.511308610496e+01 -1.229557320599e+01 0.0 
4.510133242889e+01 -1.123680627466e+01 0.0 
1.846818030617e+00 -4.410877617069e+00 0.0 
3.995468694584e+01 -1.186571542989e+01 0.0 
3.901387459804e+01 -1.242507616755e+01 0.0 
8.966735877533e+00 -1.837818700423e+00 0.0 
4.049310011091e+01 -1.848269508791e+01 0.0 
7.278862053803e+00 -1.918523922691e+00 0.0 
6.429715522129e+00 -2.316676521184e+00 0.0 
9.443505505022e+00 -1.792198868094e+01 0.0 
8.620386951051e+00 -1.737590365556e+01 0.0 
8.571868171503e+00 -1.834436667826e+01 0.0 
7.758629848526e+00 -1.775677907213e+01 0.0 
7.806648388584e+00 -1.680761266021e+01 0.0 
6.908555145436e+00 -1.723746463044e+01 0.0 
4.251709122090e+01 -1.156937480156e+01 0.0 
6.931136405615e+00 -1.832465719263e+01 0.0 
6.015545461353e+00 -1.768865355295e+01 0.0 
5.960535926343e+00 -1.872011001764e+01 0.0 
3.023253444786e+01 -8.761960642196e+00 0.0 
2.454622702599e+01 -6.749421992767e+00 0.0 
2.537499741604e+01 -6.347634963783e+00 0.0 
2.544077378460e+01 -5.431358513649e+00 0.0 
2.801367161747e+01 -1.820907270221e+01 0.0 
2.884507806914e+01 -1.762032095326e+01 0.0 
1.821474531936e+00 -1.588901260460e+01 0.0 
1.821006262604e+00 -1.489370287756e+01 0.0 
4.599962488908e+01 -1.176478780598e+01 0.0 
4.705457470007e+01 -1.172182804229e+01 0.0 
4.667668314802e+01 -1.263464558483e+01 0.0 
4.759648056504e+01 -1.252380987933e+01 0.0 
4.728041618103e+01 -1.341928568376e+01 0.0 
4.825209352360e+01 -1.330491640804e+01 0.0 
4.778118233428e+01 -1.420151961695e+01 0.0 
2.388192727579e+01 -1.826934810142e+01 0.0 
2.381714684947e+01 -4.385917965223e+00 0.0 
3.172733219247e+01 -9.758744265248e+00 0.0 
1.882012070658e+01 -1.805540597212e+01 0.0 
1.805667505243e+01 -1.742221226236e+01 0.0 
2.852599958080e+01 -8.597196079481e+00 0.0 
2.856486123437e+01 -7.661382718527e+00 0.0 
1.111792842875e+01 -1.818223852980e+01 0.0 
2.203322722466e+01 -7.986646678802e+00 0.0 
3.955703676900e+01 -1.903246763601e+01 0.0 
1.944842206513e+01 -8.038750575182e-01 0.0 
1.909882767783e+01 -1.746322740933e+00 0.0 
2.281147422941e+01 -8.525912918334e+00 0.0 
2.850633001468e+01 -9.533271335986e+00 0.0 
2.532883344309e+01 -7.308951659710e+00 0.0 
2.620475466461e+01 -6.979208585400e+00 0.0 
1.396278270396e+01 -1.475095389807e+01 0.0 
9.791001166724e+00 -2.554159793552e+00 0.0 
2.229293380421e+01 -4.269762271052e+00 0.0 
4.677238984118e+01 -1.430071795514e+01 0.0 
2.228658385918e+01 -3.344747535984e+00 0.0 
8.940223674553e-01 -1.543595733415e+01 0.0 
2.118566862474e+01 -8.435876987696e+00 0.0 
2.678325936437e+01 -1.032621195706e+01 0.0 
2.223400220487e+01 -5.179046761770e+00 0.0 
2.375370625384e+01 -7.251580562134e+00 0.0 
3.156971327386e+01 -1.255534750737e+01 0.0 
3.328226391312e+01 -1.172914813316e+01 0.0 
3.250948774219e+01 -1.120157009348e+01 0.0 
2.032993445717e+01 -8.867880112202e+00 0.0 
2.697226974856e+01 -7.536633082045e+00 0.0 
2.707377810386e+01 -6.590835263295e+00 0.0 
2.914099246827e+01 -1.191678458549e+01 0.0 
3.544824072239e+01 -1.621126558525e+01 0.0 
3.456511855436e+01 -1.665054783843e+01 0.0 
3.448395810225e+01 -1.759117813016e+01 0.0 
3.368378673938e+01 -1.708037781328e+01 0.0 
3.375560452567e+01 -1.610973066913e+01 0.0 
3.288001547988e+01 -1.654324255651e+01 0.0 
3.282475929147e+01 -1.749725654692e+01 0.0 
3.199880906313e+01 -1.697294088625e+01 0.0 
3.197001272932e+01 -1.811667776864e+01 0.0 
3.111884713021e+01 -1.742166785755e+01 0.0 
3.120418962865e+01 -1.642155709385e+01 0.0 
3.034666704371e+01 -1.683123833816e+01 0.0 
3.026224379976e+01 -1.772592851714e+01 0.0 
3.046632362943e+01 -1.582232843075e+01 0.0 
1.961344017324e+01 -1.857459447985e+01 0.0 
2.274975894774e+01 -9.532738811922e+00 0.0 
1.833923246887e+01 -2.396746883672e+00 0.0 
1.988859500848e+01 -2.249244376594e+00 0.0 
2.758045562861e+01 -1.086434261689e+01 0.0 
3.247300178163e+01 -1.909930104252e+01 0.0 
3.461947482503e+01 -1.911879848019e+01 0.0 
2.047161538662e+01 -6.941478180358e+00 0.0 
2.750230940214e+01 -1.915490590764e+01 0.0 
3.165081350803e+01 -1.161860780120e+01 0.0 
1.897456727641e+01 -4.889634688522e+00 0.0 
2.549338539756e+01 -1.914858252089e+01 0.0 
3.462873135081e+01 -1.567482276144e+01 0.0 
3.384432415243e+01 -1.512280684518e+01 0.0 
3.471433767690e+01 -1.469086942990e+01 0.0 
3.651470373046e+01 -1.918207952149e+01 0.0 
3.901742690249e+01 -1.345028556517e+01 0.0 
2.153224102692e+01 -1.920169709333e+01 0.0 
1.918382939341e+01 -1.316226275662e+01 0.0 
2.005389162382e+01 -1.271962165174e+01 0.0 
2.011472087878e+01 -1.175029352900e+01 0.0 
3.210679478412e+01 -1.598038618242e+01 0.0 
1.752175226543e+01 -1.914713022656e+01 0.0 
1.696897240059e+01 -1.832772588765e+01 0.0 
1.599682523337e+01 -1.832599992024e+01 0.0 
1.644507199462e+01 -1.743697981535e+01 0.0 
1.549987712903e+01 -1.915192375101e+01 0.0 
3.050250861901e+01 -1.918943550234e+01 0.0 
2.949944061527e+01 -1.922950455235e+01 0.0 
1.375892575273e+01 -6.447160534926e+00 0.0 
1.457223670180e+01 -7.006709243857e+00 0.0 
1.450818793236e+01 -7.965943451779e+00 0.0 
1.538804712402e+01 -7.553409623699e+00 0.0 
1.545817644768e+01 -6.580929593419e+00 0.0 
1.626506893751e+01 -7.129032608911e+00 0.0 
1.619833811522e+01 -8.086588580887e+00 0.0 
1.714448609609e+01 -6.697429609777e+00 0.0 
2.887616543568e+01 -1.668015232137e+01 0.0 
1.349814589130e+01 -1.918225301544e+01 0.0 
1.153887772210e+01 -1.311384581217e+01 0.0 
1.242708159886e+01 -1.267046795531e+01 0.0 
1.249799674267e+01 -1.169005616014e+01 0.0 
6.631723893693e+00 -9.774184881867e+00 0.0 
7.451471631867e+00 -1.033148796006e+01 0.0 
7.377795355458e+00 -1.132196345268e+01 0.0 
5.810931797536e+00 -9.211654212252e+00 0.0 
2.402683899133e+01 -1.441378562320e+01 0.0 
1.249768692036e+01 -1.917388426624e+01 0.0 
1.580373499437e+01 -1.290751860664e+01 0.0 
8.344650507834e+00 -9.898403995170e+00 0.0 
3.750622115305e+01 -1.086526401533e+01 0.0 
3.699391251667e+01 -1.171695900794e+01 0.0 
3.606517829518e+01 -1.173717504500e+01 0.0 
3.650257641795e+01 -1.270047380221e+01 0.0 
3.808951488918e+01 -1.183518714175e+01 0.0 
4.760380962420e+00 -1.162484888315e+01 0.0 
3.861210370848e+00 -1.205657631736e+01 0.0 
3.038284309476e+00 -1.149851280664e+01 0.0 
2.961598794889e+00 -1.248856794980e+01 0.0 
2.138953225512e+00 -1.193212674534e+01 0.0 
2.227383593457e+00 -1.096258903918e+01 0.0 
2.043265419276e+00 -1.292158472959e+01 0.0 
1.252449446028e+00 -1.225502002753e+01 0.0 
3.949985210740e+01 -1.086594001795e+01 0.0 
1.453499444792e+01 -8.768805922472e-01 0.0 
1.403518950933e+01 -1.749965556633e+00 0.0 
1.300715031023e+01 -1.714737233040e+00 0.0 
1.350929389899e+01 -2.527443911291e+00 0.0 
1.449600910711e+01 -2.595486162864e+00 0.0 
1.395693872901e+01 -3.484211041558e+00 0.0 
1.495105865208e+01 -3.364609636216e+00 0.0 
1.508822528740e+01 -1.766586020494e+00 0.0 
1.250223858430e+01 -8.634590186802e-01 0.0 
1.200279523409e+01 -1.709044504992e+00 0.0 
1.150086239419e+01 -8.592789190668e-01 0.0 
1.101482754194e+01 -1.677730591922e+00 0.0 
1.148018564526e+01 -2.659323866909e+00 0.0 
8.800552119754e+00 -3.989875954728e+00 0.0 
3.452790439430e+00 -1.901136170646e+01 0.0 
8.658451825200e-01 -9.503462241795e+00 0.0 
1.694787786797e+00 -9.000589234502e+00 0.0 
1.703436717094e+00 -8.038819004041e+00 0.0 
2.594197971110e+00 -8.563955242845e+00 0.0 
1.630513735412e+00 -9.907244747511e+00 0.0 
8.566859292791e-01 -7.512203837972e+00 0.0 
1.685461277022e+00 -7.164280248030e+00 0.0 
2.506394468801e+00 -8.623386730818e-01 0.0 
2.007475081581e+00 -1.727729545205e+00 0.0 
9.211534699767e-01 -1.628791366312e+00 0.0 
1.500000000020e+00 -2.598063549486e+00 0.0 
2.482078929963e+00 -2.553580088725e+00 0.0 
2.999795253092e+00 -1.732169015019e+00 0.0 
3.999712607169e+00 -1.728832897453e+00 0.0 
4.499752199340e+00 -8.656478679175e-01 0.0 
4.964377774841e+00 -1.730129617941e+00 0.0 
4.425017908337e+00 -2.597541756243e+00 0.0 
5.446573195014e+00 -8.410144840023e-01 0.0 
4.915722346614e+01 -1.550640962770e+01 0.0 
4.826794919243e+01 -1.600000000000e+01 0.0 
1.053139533193e+01 -1.911782884365e+01 0.0 
4.156049861949e+01 -1.095160998589e+01 0.0 
9.494526624416e+00 -8.650570090219e-01 0.0 
4.555762166964e+01 -1.897098103585e+01 0.0 
4.250656411371e+01 -1.914387356218e+01 0.0 
4.350906466345e+01 -1.917234727395e+01 0.0 
8.759665722424e-01 -1.746422130609e+01 0.0 
1.698936011838e+00 -1.795012186674e+01 0.0 
4.742476811029e+01 -1.900090177972e+01 0.0 
7.749196752349e+00 -6.368049313489e+00 0.0 
3.361572113416e+01 -1.798765193915e+01 0.0 
4.484660149212e+01 -1.728661231383e+01 0.0 
1.984038172228e+01 -4.502575320116e+00 0.0 
1.035080352627e+01 -6.166639575753e+00 0.0 
2.753558010652e+00 -1.444909521181e+01 0.0 
7.217069543032e+00 -1.328635391078e+01 0.0 
4.364336727739e+00 -1.655585677381e+01 0.0 
4.595208426108e+00 -1.357919665443e+01 0.0 
6.164967006980e+00 -1.569873454630e+01 0.0 
1.487855768353e+01 -1.826523774028e+01 0.0 
2.791876456372e+00 -4.019632415181e+00 0.0 
4.246464893515e+01 -1.364898659620e+01 0.0 
4.503855590351e+01 -1.329552780944e+01 0.0 
4.407239109604e+01 -1.573900004093e+01 0.0 
5.141054449252e+00 -6.664290382472e+00 0.0 
3.141083947149e+00 -1.055790764912e+01 0.0 
6.196463198741e+00 -4.256497932609e+00 0.0 
2.599618716181e+01 -1.836893455464e+01 0.0 
2.923057372337e+01 -1.098461757645e+01 0.0 
1.168343877486e+01 -1.114079645041e+01 0.0 
6.706222096238e+00 -8.780364234441e+00 0.0 
8.567858614669e+00 -6.943121440850e+00 0.0 
1.123755132901e+01 -5.753525820030e+00 0.0 
2.353456234423e+01 -1.008536320953e+01 0.0 
9.162073319168e+00 -1.045593739109e+01 0.0 
9.676343469685e+00 -1.496493008366e+01 0.0 
4.490637882905e+01 -1.628778970202e+01 0.0 
7.398129387772e+00 -9.639977982323e-01 0.0 
1.049641705805e+01 -1.552503975272e+01 0.0 
9.010356286268e+00 -1.242805042052e+01 0.0 
3.985573925497e+01 -1.399863651620e+01 0.0 
1.816196318262e+01 -1.554066497931e+01 0.0 
1.306332244168e+01 -3.963646550326e+00 0.0 
4.145850903932e+01 -1.608094559275e+01 0.0 
3.794664933633e+01 -1.779020121986e+01 0.0 
3.819614412903e+01 -1.290749321016e+01 0.0 
6.270014188119e+00 -3.255093186826e+00 0.0 
4.251165370388e+01 -1.263870364997e+01 0.0 
1.207347709171e+01 -1.763942826023e+01 0.0 
3.633240829927e+01 -1.577330481104e+01 0.0 
4.319052668832e+00 -6.101812561904e+00 0.0 
1.676492415806e+01 -1.151547901392e+01 0.0 
2.594059220037e+01 -1.074225223009e+01 0.0 
3.340750911501e+01 -9.898764354137e+00 0.0 
4.397619591281e+01 -1.769773736461e+01 0.0 
2.175611595028e+01 -1.185718747128e+01 0.0 
1.641818733106e+01 -1.640685203215e+01 0.0 
1.661211421753e+01 -1.346121366338e+01 0.0 
3.428853504935e+00 -6.551993389271e+00 0.0 
8.700728832502e+00 -1.638460872825e+01 0.0 
1.931369795309e+01 -1.121629383702e+01 0.0 
4.139798872363e+01 -1.706922153459e+01 0.0 
2.647837478700e+01 -1.507353829290e+01 0.0 
1.779469616424e+01 -9.161615782908e+00 0.0 
3.885879219319e+01 -1.642026488918e+01 0.0 
1.338194936770e+01 -1.125916521471e+01 0.0 
1.897071181111e+01 -1.609204322578e+01 0.0 
2.844308548793e+01 -1.046221003096e+01 0.0 
2.659854702194e+01 -1.316109415760e+01 0.0 
2.979604503271e+01 -1.433296157755e+01 0.0 
2.417694041347e+01 -1.251231397779e+01 0.0 
1.807401327411e+00 -1.388891148480e+01 0.0 
9.599810618782e+00 -1.595439365034e+01 0.0 
1.652144692160e+01 -4.205392788472e+00 0.0 
2.367839450246e+01 -8.188385218643e+00 0.0 
3.814894930468e+01 -1.390748338767e+01 0.0 
2.466448215774e+01 -1.685878545680e+01 0.0 
4.134044524611e+01 -1.806610045954e+01 0.0 
2.600511411958e+01 -9.801774120648e+00 0.0 
7.882158050716e+00 -1.582364037353e+01 0.0 
3.881607873422e+01 -1.737970515013e+01 0.0 
8.270182347708e+00 -1.088622154920e+01 0.0 
8.672520392520e-01 -4.532984309881e+00 0.0 
1.993447205337e+01 -3.579061902667e+00 0.0 
1.794616079549e+01 -7.238038888498e+00 0.0 
2.097277068165e+01 -1.132450168636e+01 0.0 
8.194803300681e+00 -1.187214224265e+01 0.0 
3.522279404911e+01 -1.823342818178e+01 0.0 
6.984481050295e+00 -1.625271465557e+01 0.0 
1.309433007797e+01 -1.521718594215e+01 0.0 
2.150246167611e+01 -1.885399038185e+00 0.0 
3.250689370209e+01 -1.028789870535e+01 0.0 
6.085886272238e+00 -1.668342132851e+01 0.0 
1.588455661727e+01 -1.193498985921e+01 0.0 
1.809323400821e+01 -1.651110084195e+01 0.0 
1.348885082381e+00 -1.136065576512e+01 0.0 
2.497670221995e+01 -1.834631276173e+01 0.0 
2.937062818424e+01 -8.233711194470e+00 0.0 
5.185823744469e+00 -1.711566910207e+01 0.0 
1.477497877209e+01 -1.530177014512e+01 0.0 
2.125346158933e+01 -7.473003997367e+00 0.0 
4.751561118290e+01 -1.084897772632e+01 0.0 
5.056026576843e+00 -1.825750475525e+01 0.0 
1.473948554523e+01 -1.634577436309e+01 0.0 
2.410566630936e+01 -1.345970002612e+01 0.0 
1.507337507513e+01 -1.138527895328e+01 0.0 
3.189857338687e+01 -8.887781229006e+00 0.0 
7.298712468334e+00 -1.230231046246e+01 0.0 
2.738235495295e+01 -1.368931690364e+01 0.0 
3.750141041969e+01 -1.920449893070e+01 0.0 
1.557271965640e+01 -1.683317951731e+01 0.0 
3.393731848929e+01 -1.413034777044e+01 0.0 
6.482156824153e+00 -1.174575135362e+01 0.0 
2.077971718439e+01 -1.421279621836e+01 0.0 
3.455084320178e+00 -2.562590040585e+00 0.0 
3.099056096250e+01 -9.270280416035e+00 0.0 
5.580176125418e+00 -1.217387969259e+01 0.0 
1.707247630389e+01 -7.660651981710e+00 0.0 
1.418658814174e+01 -1.180390575393e+01 0.0 
2.049103025389e+01 -1.811296706038e+01 0.0 
4.680386172316e+00 -1.260396879301e+01 0.0 
1.699679896554e+01 -8.624561788199e+00 0.0 
3.779470168555e+00 -1.303424899720e+01 0.0 
3.036589870126e+01 -7.879832518349e+00 0.0 
3.306993001774e+01 -1.457671062095e+01 0.0 
2.840150110165e+00 -1.346530088269e+01 0.0 
2.732011135052e+01 -1.464591214560e+01 0.0 
5.423639259568e+00 -2.659711955016e+00 0.0 
2.324455961696e+01 -1.387269388211e+01 0.0 
1.752768355571e+00 -1.693128613594e+01 0.0 
1.020244783051e+01 -8.076834012808e+00 0.0 
1.330873875224e+01 -1.222417528206e+01 0.0 
3.297727364880e+01 -1.555480372087e+01 0.0 
2.890929955439e+01 -6.868664170731e+00 0.0 
1.323294664622e+01 -1.320754260334e+01 0.0 
2.726532861246e+01 -1.560593120806e+01 0.0 
2.240020643398e+01 -1.429299177247e+01 0.0 
2.090445823633e+01 -1.228128621332e+01 0.0 
1.315809881502e+01 -1.420739326938e+01 0.0 
2.781328038068e+01 -7.181956082300e+00 0.0 
8.614200829057e+00 -5.936933226306e+00 0.0 
8.714765730069e+00 -4.979270529687e+00 0.0 
1.611881701099e+01 -9.041973294003e+00 0.0 
2.806830314340e+01 -1.614622947108e+01 0.0 
2.084435391396e+00 -3.385085422913e+00 0.0 
3.133211811152e+01 -1.542347619750e+01 0.0 
9.693114650768e+00 -3.590281506442e+00 0.0 
1.531883592202e+01 -8.504584946143e+00 0.0 
2.151589117094e+01 -1.578915763018e+01 0.0 
4.918943882696e+01 -1.355538828056e+01 0.0 
1.443236615188e+01 -8.918701794549e+00 0.0 
8.276250966452e-01 -5.537685192197e+00 0.0 
1.362790867918e+01 -8.374718262212e+00 0.0 
2.083767477370e+01 -1.324843956035e+01 0.0 
1.273834678703e+01 -8.790890389337e+00 0.0 
1.192275845670e+01 -8.242261327467e+00 0.0 
4.477236023583e+01 -1.824312396664e+01 0.0 
1.102989384254e+01 -8.649855800911e+00 0.0 
4.849096516045e+01 -1.917293752213e+01 0.0 
1.588996752238e+00 -1.910230934687e+01 0.0 
4.904245197583e+01 -1.159839008158e+01 0.0 
2.753852929608e+01 -5.782128488093e+00 0.0 
1.756133602833e+01 -8.306130313187e-01 0.0 
2.615423700951e+01 -6.153865090092e+00 0.0 
1.028818761294e+01 -7.122020845892e+00 0.0 
2.970818901196e+01 -1.527821347593e+01 0.0 
4.801461623449e+01 -1.164472570985e+01 0.0 
9.455722100419e+00 -6.546069291118e+00 0.0 
3.089099236677e+01 -1.835339328261e+01 0.0 
2.350000000013e+01 -1.920825896750e+01 0.0 
4.830620531887e+01 -1.506626155470e+01 0.0 
1.725381944701e+01 -1.688794487850e+01 0.0 
2.156246225273e+01 -1.475893794002e+01 0.0 
4.919319648787e+01 -1.742767505896e+01 0.0 
4.437935623576e+01 -1.077662927266e+01 0.0 
1.001520521978e+01 -1.652692675208e+00 0.0 
9.067160240050e-01 -1.441937727541e+01 0.0 
2.603365149390e+01 -4.755996613848e+00 0.0 
2.458344439002e+01 -4.873645517696e+00 0.0 
2.304312390142e+01 -3.836552768096e+00 0.0 
2.546923202198e+00 -6.902480355749e+00 0.0 
1.251534969393e+01 -2.490989965776e+00 0.0 
2.454061833377e+01 -3.933354231935e+00 0.0 
1.788186558740e+01 -1.827424884923e+01 0.0 
4.090785243552e+01 -1.166553231904e+01 0.0 
2.230128851568e+01 -1.623015738726e+01 0.0 
2.302362347568e+01 -2.916239960270e+00 0.0 
3.878119254461e+01 -1.830091164002e+01 0.0 
2.210081359958e+01 -1.829238229150e+01 0.0 
8.443704882233e+00 -1.921993252862e+01 0.0 
2.218405824691e+01 -1.724557581508e+01 0.0 
2.151157503963e+01 -2.790636689331e+00 0.0 
3.741658958955e+01 -1.250400191722e+01 0.0 
2.697247663737e+01 -1.838290202309e+01 0.0 
4.743362342862e+01 -1.585850773010e+01 0.0 
6.671345075358e+00 -1.924977576322e+01 0.0 
3.900825404537e+01 -1.157220003875e+01 0.0 
4.649692961375e+01 -1.836335837481e+01 0.0 
1.578831424832e+01 -3.678284023361e+00 0.0 
4.814208768888e+01 -1.841249298770e+01 0.0 
2.964123298315e+01 -1.625739458193e+01 0.0 
4.580760351902e+01 -1.284294554687e+01 0.0 
3.561520879615e+01 -1.245548941949e+01 0.0 
2.555418095658e+00 -1.841101588290e+01 0.0 
3.288468366144e+01 -1.834258164109e+01 0.0 
2.065894391445e+01 -2.240688571739e+00 0.0 
4.739171429915e+01 -1.496536413446e+01 0.0 
3.478086729185e+00 -8.576434653209e+00 0.0 
1.606010630246e+01 -1.588421807951e+00 0.0 
1.018329200594e+01 -1.834320874317e+01 0.0 
2.957213339430e+01 -1.720496954591e+01 0.0 
4.142712790164e+00 -1.837794506222e+01 0.0 
6.698721532573e-01 -2.499999999997e+00 0.0 
8.037039123140e+00 -1.571229354954e+00 0.0 
1.203541361428e+01 -1.847784298001e+01 0.0 
2.899968332038e+01 -1.848264722179e+01 0.0 
1.469229460948e+01 -4.219485753730e+00 0.0 
4.049590781957e+01 -1.932812501995e+01 0.0 
1.996211678340e+01 -1.506329754720e+00 0.0 
4.250588298353e+01 -1.067383247529e+01 0.0 
5.831497011152e+00 -1.635396227234e+00 0.0 
5.317606125670e+00 -1.923927974868e+01 0.0 
4.208546426993e+01 -1.842830665025e+01 0.0 
2.327553405011e+00 -9.459409929662e+00 0.0 
3.568351902251e+01 -1.096637218582e+01 0.0 
1.682104374890e+00 -6.231413350963e+00 0.0 
2.451812238018e+01 -1.766524914339e+01 0.0 
1.058003429638e+01 -2.391839617098e+00 0.0 
4.399988753123e+01 -1.851998776342e+01 0.0 
1.400000000010e+01 -1.852293523028e+01 0.0 
3.604719565984e+01 -1.850662876800e+01 0.0 
1.951297136734e+01 -1.938092349694e+01 0.0 
1.821365318472e+01 -1.531276353287e+00 0.0 
2.298031859732e+01 -1.854635324722e+01 0.0 
1.552168066204e+01 -1.764280741977e+01 0.0 
4.572957713638e+01 -1.073347898229e+01 0.0 
3.429637429624e+01 -1.838861552790e+01 0.0 
2.427434426052e+00 -7.705577451869e+00 0.0 
4.662792031485e+00 -3.359424455416e+00 0.0 
4.926794919243e+01 -1.926794919243e+01 0.0 
7.320508075690e-01 -7.320508075688e-01 0.0 
4.926794919243e+01 -1.073205080757e+01 0.0 
7.320508075705e-01 -1.926794919243e+01 0.0 
2.917460242467e+00 -3.202866455310e+00 0.0 
4.838200575963e+01 -1.232674147454e+01 0.0 
2.998445708009e+01 -1.854403752148e+01 0.0 
5.949940090766e-01 -1.152762038165e+01 0.0 
4.844763495759e+01 -1.678092548787e+01 0.0 
1.301685480160e+01 -3.170056592566e+00 0.0 
1.650046335855e+01 -6.731535384067e-01 0.0 
4.854881540991e+01 -1.405224059779e+01 0.0 
2.119545114693e+01 -1.846813384545e+01 0.0 
3.797852849897e+01 -1.857978513215e+01 0.0 
4.649823708745e+01 -1.338351810816e+01 0.0 
2.012685900976e+01 -2.889659035009e+00 0.0 
2.953271913273e+01 -1.791558075192e+01 0.0 
2.408509097292e+00 -1.021949208421e+01 0.0 
2.642589566221e+01 -1.773216561448e+01 0.0 
1.730010270775e+01 -1.763165076721e+01 0.0 
2.017406551304e+01 -8.513536440582e-01 0.0 
5.254761581934e-01 -1.249999999999e+01 0.0 
6.640448215642e+00 -1.545337834885e+00 0.0 
7.843361506349e+00 -1.852719839527e+01 0.0 
1.588442191088e+00 -1.066158564320e+01 0.0 
3.331250000000e+01 -8.420918367347e+00 0.0 
4.951470588234e+01 -8.500000000000e+00 0.0 
3.480610198624e+01 -9.413633635267e+00 0.0 
4.951470588234e+01 -9.500000000000e+00 0.0 

CELLS 1996 7984 
3 214 684 960 
3 684 214 962 
3 694 187 705 
3 807 572 996 
3 574 634 800 
3 664 577 703 
3 194 616 618 
3 214 641 962 
3 616 194 634 
3 567 802 996 
3 186 761 762 
3 641 214 976 
3 806 958 1002 
3 623 754 844 
3 958 220 1002 
3 213 807 996 
3 622 193 763 
3 577 664 702 
3 201 621 943 
3 621 201 881 
3 802 567 955 
3 932 178 938 
3 659 932 938 
3 609 608 818 
3 308 464 753 
3 761 186 870 
3 107 82 1023 
3 653 179 895 
3 306 308 753 
3 818 608 1028 
3 558 768 770 
3 211 624 801 
3 694 705 1003 
3 19 199 674 
3 209 628 630 
3 637 66 994 
3 66 637 1020 
3 656 205 700 
3 620 98 973 
3 98 620 1034 
3 896 638 922 
3 174 660 799 
3 977 175 981 
3 82 223 1023 
3 615 222 972 
3 654 977 981 
3 768 558 771 
3 222 615 998 
3 764 765 771 
3 754 623 995 
3 216 659 896 
3 606 621 881 
3 384 997 1015 
3 216 896 922 
3 706 188 886 
3 979 551 1024 
3 606 881 950 
3 199 644 674 
3 467 795 913 
3 802 213 996 
3 173 1007 1048 
3 987 613 989 
3 433 461 667 
3 997 770 1015 
3 778 597 1002 
3 659 216 932 
3 1007 617 1048 
3 187 694 967 
3 494 455 776 
3 183 642 708 
3 870 813 924 
3 33 32 662 
3 653 895 1025 
3 4 5 788 
3 785 979 1024 
3 625 190 876 
3 706 886 1035 
3 673 978 985 
3 795 467 1037 
3 978 215 985 
3 455 468 776 
3 193 622 983 
3 178 684 938 
3 684 178 960 
3 634 574 846 
3 616 634 846 
3 645 870 975 
3 18 19 674 
3 699 696 944 
3 574 800 983 
3 801 624 974 
3 225 752 1023 
3 798 969 993 
3 993 969 1005 
3 191 33 662 
3 700 205 1030 
3 622 763 995 
3 799 660 1008 
3 219 651 948 
3 667 461 668 
3 800 634 1018 
3 220 778 1002 
3 381 947 971 
3 612 987 989 
3 502 500 678 
3 765 768 771 
3 805 806 928 
3 571 798 993 
3 173 764 771 
3 901 196 1020 
3 346 699 944 
3 4 788 1039 
3 569 665 701 
3 536 852 890 
3 580 782 1006 
3 640 667 668 
3 435 433 667 
3 209 630 988 
3 651 219 1043 
3 639 435 667 
3 670 600 945 
3 223 225 1023 
3 798 571 1046 
3 435 639 678 
3 990 889 1004 
3 655 905 914 
3 782 580 1036 
3 905 180 914 
3 190 625 1016 
3 602 990 1004 
3 761 870 924 
3 572 807 998 
3 509 566 666 
3 180 638 914 
3 628 209 1008 
3 806 563 958 
3 645 813 870 
3 666 566 866 
3 610 738 1028 
3 542 658 666 
3 592 803 804 
3 642 183 1014 
3 844 754 991 
3 451 423 672 
3 658 509 666 
3 638 180 922 
3 566 704 866 
3 678 504 873 
3 194 618 973 
3 665 300 701 
3 624 211 1012 
3 959 965 1043 
3 789 201 943 
3 217 655 890 
3 738 610 747 
3 639 502 678 
3 674 645 975 
3 641 175 977 
3 947 607 971 
3 200 646 647 
3 661 300 665 
3 644 199 928 
3 494 670 945 
3 806 565 928 
3 681 554 709 
3 196 901 1010 
3 959 564 965 
3 500 504 678 
3 852 217 890 
3 186 762 1059 
3 175 641 976 
3 300 661 675 
3 423 474 672 
3 646 200 1034 
3 504 665 873 
3 655 217 905 
3 548 737 942 
3 782 483 1006 
3 179 653 968 
3 708 642 992 
3 640 668 962 
3 483 782 1022 
3 725 855 909 
3 658 542 896 
3 641 640 962 
3 681 536 890 
3 665 569 873 
3 189 802 955 
3 312 721 931 
3 199 805 928 
3 654 215 978 
3 510 675 899 
3 696 721 944 
3 81 108 663 
3 542 638 896 
3 898 570 902 
3 794 926 1019 
3 809 202 1035 
3 307 232 714 
3 929 288 956 
3 418 898 902 
3 752 225 1001 
3 753 464 991 
3 608 610 1028 
3 939 830 966 
3 676 247 704 
3 506 396 709 
3 313 307 714 
3 503 681 709 
3 554 681 890 
3 452 912 952 
3 737 586 942 
3 663 197 664 
3 668 684 962 
3 668 461 683 
3 566 676 704 
3 721 691 931 
3 577 576 882 
3 570 669 888 
3 620 646 1034 
3 675 661 899 
3 366 888 937 
3 626 836 1060 
3 712 313 714 
3 836 182 1060 
3 794 795 926 
3 215 654 981 
3 939 582 940 
3 686 313 712 
3 582 581 940 
3 562 671 677 
3 388 769 841 
3 600 777 945 
3 855 418 909 
3 554 506 709 
3 597 778 1010 
3 108 197 663 
3 471 501 677 
3 261 300 675 
3 659 658 896 
3 669 570 898 
3 637 901 1020 
3 923 312 931 
3 370 352 707 
3 418 902 909 
3 870 186 975 
3 704 314 866 
3 713 714 910 
3 613 987 1032 
3 261 675 682 
3 501 562 677 
3 231 503 679 
3 662 32 1016 
3 247 676 851 
3 720 263 859 
3 647 646 648 
3 776 468 980 
3 503 680 681 
3 470 370 707 
3 576 710 811 
3 558 770 997 
3 313 686 848 
3 396 679 709 
3 435 678 873 
3 686 525 848 
3 721 312 944 
3 314 685 827 
3 181 635 994 
3 511 720 859 
3 239 505 685 
3 569 701 832 
3 511 719 720 
3 353 369 710 
3 751 192 752 
3 265 262 682 
3 382 733 734 
3 713 923 931 
3 108 109 197 
3 503 229 680 
3 352 350 707 
3 426 471 677 
3 355 353 710 
3 234 231 679 
3 624 670 974 
3 462 552 683 
3 511 718 719 
3 679 503 709 
3 751 752 753 
3 472 577 702 
3 382 734 736 
3 383 386 733 
3 668 683 684 
3 713 910 923 
3 461 462 683 
3 348 265 682 
3 675 510 682 
3 472 576 577 
3 701 257 832 
3 601 671 673 
3 37 188 706 
3 39 202 705 
3 248 247 851 
3 369 352 370 
3 425 426 484 
3 240 239 685 
3 369 370 425 
3 382 383 733 
3 314 827 866 
3 803 592 1021 
3 707 510 899 
3 912 568 952 
3 601 484 671 
3 206 57 726 
3 425 370 426 
3 245 314 704 
3 472 376 576 
3 748 441 856 
3 262 261 682 
3 386 730 733 
3 505 396 506 
3 42 727 728 
3 350 348 510 
3 511 339 718 
3 485 484 601 
3 716 401 839 
3 888 669 937 
3 501 502 560 
3 575 716 839 
3 204 45 708 
3 478 570 888 
3 41 187 727 
3 844 464 874 
3 699 346 964 
3 562 560 654 
3 507 506 539 
3 239 396 505 
3 239 237 396 
3 315 851 877 
3 179 47 711 
3 306 753 1001 
3 680 536 681 
3 510 348 682 
3 581 777 940 
3 539 554 655 
3 501 500 502 
3 200 647 900 
3 386 729 730 
3 350 510 707 
3 690 712 713 
3 471 500 501 
3 505 506 507 
3 339 341 718 
3 514 741 828 
3 50 203 717 
3 542 540 638 
3 354 356 736 
3 595 929 956 
3 561 640 641 
3 560 502 561 
3 696 693 721 
3 245 243 314 
3 552 658 659 
3 507 539 540 
3 54 205 722 
3 205 656 982 
3 693 691 721 
3 713 712 714 
3 741 281 828 
3 433 434 461 
3 353 352 369 
3 351 350 352 
3 247 245 704 
3 528 748 856 
3 296 742 743 
3 689 687 690 
3 356 382 736 
3 430 315 431 
3 685 505 827 
3 432 431 433 
3 187 40 705 
3 202 38 706 
3 202 809 1003 
3 514 740 741 
3 525 427 848 
3 501 560 562 
3 349 348 350 
3 576 376 710 
3 462 509 552 
3 750 751 754 
3 716 844 874 
3 726 724 818 
3 697 696 699 
3 231 229 503 
3 238 237 239 
3 376 355 710 
3 773 775 776 
3 300 259 701 
3 253 251 315 
3 259 257 701 
3 170 889 990 
3 647 648 649 
3 777 581 945 
3 426 470 471 
3 57 56 726 
3 360 362 452 
3 224 536 680 
3 201 789 1011 
3 851 676 877 
3 261 259 300 
3 237 234 679 
3 183 43 728 
3 539 506 554 
3 243 240 685 
3 296 743 749 
3 687 686 712 
3 514 739 740 
3 44 183 708 
3 41 40 187 
3 37 36 188 
3 39 38 202 
3 236 234 237 
3 690 687 712 
3 695 693 696 
3 433 431 434 
3 461 434 462 
3 745 742 829 
3 689 690 691 
3 46 204 711 
3 604 525 686 
3 718 452 719 
3 604 686 687 
3 445 443 746 
3 253 315 430 
3 552 509 658 
3 425 484 485 
3 191 662 986 
3 432 433 435 
3 826 545 895 
3 742 296 829 
3 387 390 729 
3 206 726 818 
3 471 499 500 
3 42 41 727 
3 202 706 1035 
3 244 243 245 
3 773 774 775 
3 44 43 183 
3 171 722 723 
3 386 387 729 
3 341 360 718 
3 177 51 717 
3 116 172 774 
3 430 431 432 
3 242 240 243 
3 246 245 247 
3 314 243 685 
3 484 426 677 
3 46 45 204 
3 347 265 348 
3 473 472 702 
3 635 181 1061 
3 774 172 775 
3 541 540 542 
3 768 769 770 
3 655 554 890 
3 171 55 722 
3 48 47 179 
3 396 237 679 
3 765 767 768 
3 614 473 702 
3 768 767 769 
3 858 556 871 
3 750 192 751 
3 226 224 680 
3 50 49 203 
3 208 750 754 
3 188 36 715 
3 448 445 746 
3 575 623 716 
3 561 639 640 
3 360 452 718 
3 576 811 882 
3 52 51 177 
3 40 39 705 
3 38 37 706 
3 514 322 739 
3 317 319 745 
3 253 430 832 
3 322 324 739 
3 54 53 205 
3 426 370 470 
3 733 732 734 
3 730 731 732 
3 465 575 839 
3 58 206 738 
3 765 766 767 
3 56 55 171 
3 729 594 730 
3 43 42 728 
3 695 696 697 
3 115 116 774 
3 430 569 832 
3 524 427 525 
3 45 44 708 
3 236 237 238 
3 491 448 492 
3 485 601 602 
3 724 723 725 
3 486 593 594 
3 730 594 731 
3 764 207 765 
3 47 46 711 
3 710 369 811 
3 478 526 570 
3 575 622 623 
3 812 544 831 
3 730 732 733 
3 238 239 240 
3 51 50 717 
3 319 421 745 
3 330 366 436 
3 250 248 251 
3 589 482 590 
3 734 732 735 
3 739 436 740 
3 251 248 851 
3 587 444 861 
3 360 361 362 
3 252 251 253 
3 289 291 749 
3 471 470 499 
3 317 745 829 
3 492 448 746 
3 316 339 511 
3 56 171 726 
3 603 525 604 
3 487 812 831 
3 55 54 722 
3 171 723 724 
3 258 257 259 
3 765 207 766 
3 59 738 747 
3 688 687 689 
3 390 486 729 
3 58 57 206 
3 324 330 739 
3 462 508 509 
3 229 226 680 
3 316 511 859 
3 320 514 828 
3 482 441 748 
3 714 232 910 
3 541 666 866 
3 362 380 381 
3 649 648 650 
3 291 296 749 
3 341 343 360 
3 486 543 593 
3 513 335 814 
3 114 115 772 
3 500 499 504 
3 486 594 729 
3 742 584 743 
3 256 254 257 
3 330 436 739 
3 465 573 575 
3 390 453 486 
3 59 58 738 
3 242 243 244 
3 512 583 584 
3 244 245 246 
3 512 584 742 
3 772 115 774 
3 228 226 229 
3 781 780 782 
3 182 121 796 
3 421 476 512 
3 330 365 366 
3 810 480 835 
3 590 748 892 
3 590 482 748 
3 224 184 536 
3 208 105 750 
3 605 715 908 
3 246 247 248 
3 121 122 796 
3 600 520 777 
3 766 772 773 
3 582 939 966 
3 498 548 942 
3 578 810 835 
3 375 858 871 
3 299 297 808 
3 337 335 513 
3 478 489 526 
3 395 376 472 
3 212 780 781 
3 185 784 785 
3 174 60 747 
3 60 59 747 
3 780 779 783 
3 512 476 583 
3 320 322 514 
3 526 608 609 
3 520 439 777 
3 373 458 478 
3 794 792 795 
3 421 512 745 
3 743 584 744 
3 198 791 792 
3 212 779 780 
3 524 525 603 
3 122 123 793 
3 106 192 750 
3 106 107 192 
3 441 345 856 
3 185 10 784 
3 486 453 543 
3 671 484 677 
3 631 629 632 
3 711 204 826 
3 515 409 842 
3 561 502 639 
3 624 600 670 
3 507 540 541 
3 102 193 800 
3 101 102 800 
3 122 793 796 
3 793 792 794 
3 787 789 790 
3 363 304 438 
3 198 786 791 
3 779 176 783 
3 173 112 764 
3 304 299 808 
3 652 650 672 
3 104 105 208 
3 548 643 737 
3 324 329 330 
3 649 650 651 
3 10 11 784 
3 787 790 791 
3 30 29 803 
3 190 30 803 
3 575 573 622 
3 193 103 763 
3 784 781 785 
3 28 189 804 
3 438 304 808 
3 105 106 750 
3 104 208 763 
3 539 655 914 
3 36 35 715 
3 803 29 804 
3 198 792 793 
3 123 198 793 
3 599 520 600 
3 743 744 880 
3 805 563 806 
3 111 112 173 
3 210 797 798 
3 113 207 764 
3 481 441 482 
3 113 114 207 
3 112 113 764 
3 588 482 589 
3 534 597 598 
3 651 650 652 
3 827 541 866 
3 786 787 791 
3 336 337 816 
3 25 24 807 
3 213 25 807 
3 103 104 763 
3 417 345 441 
3 29 28 804 
3 491 492 607 
3 787 788 789 
3 786 221 787 
3 787 221 788 
3 11 12 212 
3 220 69 778 
3 80 79 222 
3 125 221 786 
3 13 176 779 
3 70 69 220 
3 68 196 778 
3 61 174 799 
3 76 195 797 
3 78 77 210 
3 69 68 778 
3 68 67 196 
3 210 77 797 
3 125 126 221 
3 99 100 194 
3 102 103 193 
3 198 124 786 
3 65 64 181 
3 209 62 799 
3 63 62 209 
3 124 125 786 
3 123 124 198 
3 61 60 174 
3 62 61 799 
3 76 75 195 
3 96 97 200 
3 77 76 797 
3 74 73 219 
3 94 95 564 
3 120 121 182 
3 118 119 211 
3 117 118 801 
3 116 117 172 
3 13 14 176 
3 12 13 779 
3 118 211 801 
3 16 17 186 
3 172 117 801 
3 34 33 191 
3 28 27 189 
3 31 30 190 
3 6 7 201 
3 9 10 185 
3 27 26 802 
3 19 20 199 
3 26 25 213 
3 20 21 805 
3 21 22 563 
3 212 12 779 
3 189 27 802 
3 26 213 802 
3 199 20 805 
3 21 563 805 
3 428 429 813 
3 207 114 772 
3 319 420 421 
3 793 794 796 
3 631 632 633 
3 512 742 745 
3 394 378 815 
3 363 438 439 
3 926 627 1019 
3 534 598 815 
3 421 422 476 
3 212 781 784 
3 378 440 815 
3 571 572 615 
3 11 212 784 
3 366 365 373 
3 328 326 379 
3 428 377 429 
3 496 428 813 
3 347 348 349 
3 541 542 666 
3 257 254 832 
3 336 335 337 
3 440 533 534 
3 644 496 645 
3 487 581 582 
3 559 480 567 
3 475 424 480 
3 620 619 646 
3 334 332 335 
3 377 336 816 
3 571 559 572 
3 475 559 571 
3 379 326 838 
3 534 565 597 
3 437 409 515 
3 644 645 674 
3 635 633 636 
3 567 480 810 
3 414 412 415 
3 330 329 365 
3 374 456 457 
3 393 479 487 
3 599 600 624 
3 766 207 772 
3 475 480 559 
3 534 533 565 
3 773 772 774 
3 692 691 693 
3 618 518 619 
3 364 378 394 
3 440 496 533 
3 543 544 595 
3 533 496 644 
3 618 619 620 
3 360 343 361 
3 635 636 637 
3 606 488 621 
3 630 629 631 
3 423 415 424 
3 457 488 551 
3 487 582 812 
3 759 757 760 
3 411 413 517 
3 298 302 317 
3 474 424 475 
3 414 423 451 
3 583 476 755 
3 645 496 813 
3 440 428 496 
3 423 424 474 
3 416 368 454 
3 476 422 477 
3 449 535 611 
3 415 822 835 
3 421 420 422 
3 328 379 814 
3 628 556 629 
3 414 415 423 
3 557 473 614 
3 531 626 627 
3 357 355 376 
3 440 534 815 
3 413 412 414 
3 761 759 762 
3 517 518 616 
3 478 458 489 
3 755 477 756 
3 378 428 440 
3 457 456 488 
3 631 633 635 
3 476 477 755 
3 551 488 606 
3 477 422 824 
3 317 318 319 
3 303 299 304 
3 758 759 761 
3 120 182 836 
3 211 119 836 
3 429 377 816 
3 374 416 456 
3 334 335 336 
3 335 332 814 
3 291 295 296 
3 390 391 453 
3 437 515 516 
3 703 577 1053 
3 319 419 420 
3 526 489 608 
3 456 416 467 
3 517 413 518 
3 616 518 618 
3 519 439 520 
3 555 522 556 
3 408 406 409 
3 374 368 416 
3 591 515 860 
3 516 515 591 
3 311 368 374 
3 640 639 667 
3 305 304 363 
3 378 377 428 
3 756 757 758 
3 604 687 688 
3 437 516 578 
3 364 336 377 
3 334 336 364 
3 363 439 519 
3 364 377 378 
3 408 409 410 
3 758 757 759 
3 411 412 413 
3 410 409 437 
3 263 264 859 
3 822 578 835 
3 422 483 824 
3 756 477 757 
3 419 318 579 
3 293 290 294 
3 411 410 412 
3 285 287 320 
3 303 305 311 
3 531 520 599 
3 408 410 411 
3 303 304 305 
3 628 629 630 
3 415 412 822 
3 364 394 817 
3 171 724 726 
3 422 420 483 
3 311 305 368 
3 519 520 531 
3 333 332 334 
3 414 451 821 
3 531 599 626 
3 317 302 318 
3 621 488 819 
3 411 517 820 
3 319 318 419 
3 332 328 814 
3 419 579 580 
3 480 424 835 
3 302 299 303 
3 327 331 375 
3 487 479 581 
3 331 328 332 
3 760 757 824 
3 333 334 817 
3 734 735 916 
3 488 456 819 
3 619 518 821 
3 481 482 588 
3 431 315 877 
3 413 414 821 
3 393 487 831 
3 405 407 465 
3 456 467 819 
3 632 629 858 
3 417 441 481 
3 362 361 380 
3 516 591 592 
3 320 321 322 
3 454 368 825 
3 325 323 326 
3 555 556 628 
3 543 453 544 
3 334 364 817 
3 412 410 822 
3 387 389 390 
3 327 326 328 
3 573 466 574 
3 457 551 857 
3 298 299 302 
3 250 251 252 
3 331 332 333 
3 462 434 508 
3 252 253 254 
3 407 406 408 
3 518 413 821 
3 465 466 573 
3 757 477 824 
3 495 397 522 
3 322 323 324 
3 517 616 846 
3 694 693 695 
3 381 380 449 
3 327 328 331 
3 410 437 822 
3 291 293 295 
3 295 297 298 
3 363 519 825 
3 324 325 329 
3 298 317 829 
3 407 408 820 
3 465 407 466 
3 267 269 316 
3 808 297 830 
3 349 350 351 
3 298 297 299 
3 295 293 297 
3 305 363 825 
3 373 397 458 
3 286 284 288 
3 437 578 822 
3 282 284 285 
3 324 323 325 
3 320 287 321 
3 256 257 258 
3 368 305 825 
3 495 522 555 
3 495 555 660 
3 442 444 587 
3 291 290 293 
3 322 321 323 
3 408 411 820 
3 296 295 829 
3 430 432 569 
3 302 303 823 
3 453 391 831 
3 289 290 291 
3 303 311 823 
3 374 457 849 
3 321 287 521 
3 325 326 327 
3 460 497 498 
3 119 120 836 
3 278 276 279 
3 282 280 283 
3 289 288 290 
3 466 407 820 
3 285 286 287 
3 318 302 823 
3 286 288 289 
3 424 415 835 
3 579 318 823 
3 531 627 845 
3 825 519 845 
3 544 453 831 
3 293 294 830 
3 278 280 281 
3 285 284 286 
3 393 455 479 
3 454 825 845 
3 716 623 844 
3 823 311 849 
3 373 365 397 
3 446 459 460 
3 230 229 231 
3 469 403 490 
3 498 547 548 
3 264 267 859 
3 444 446 861 
3 391 392 393 
3 289 749 833 
3 260 259 261 
3 383 385 386 
3 455 392 468 
3 295 298 829 
3 282 283 284 
3 281 280 282 
3 579 823 849 
3 285 320 828 
3 278 279 280 
3 274 276 277 
3 297 293 830 
3 344 342 345 
3 405 406 407 
3 274 272 275 
3 458 397 495 
3 390 389 391 
3 608 489 610 
3 281 282 828 
3 548 642 643 
3 241 240 242 
3 391 393 831 
3 233 231 234 
3 523 427 524 
3 281 741 864 
3 504 661 665 
3 235 234 236 
3 315 251 851 
3 393 392 455 
3 625 596 662 
3 479 455 494 
3 656 550 657 
3 810 578 853 
3 367 345 417 
3 820 517 846 
3 404 403 469 
3 277 276 278 
3 316 338 339 
3 553 490 596 
3 327 375 834 
3 402 404 405 
3 481 588 669 
3 391 389 392 
3 402 400 403 
3 711 826 895 
3 495 660 847 
3 286 289 833 
3 466 820 846 
3 574 466 846 
3 282 285 828 
3 329 325 834 
3 365 329 837 
3 519 531 845 
3 351 352 353 
3 270 272 273 
3 274 275 276 
3 254 253 832 
3 553 596 625 
3 689 691 692 
3 578 516 853 
3 509 508 566 
3 399 371 427 
3 325 327 834 
3 591 860 876 
3 372 400 401 
3 287 286 833 
3 270 268 271 
3 402 403 404 
3 469 490 553 
3 409 406 842 
3 405 404 406 
3 556 522 871 
3 549 463 550 
3 522 397 837 
3 326 323 838 
3 638 540 914 
3 344 367 398 
3 309 307 313 
3 311 374 849 
3 273 272 274 
3 590 892 904 
3 339 340 341 
3 356 358 382 
3 270 271 272 
3 341 342 343 
3 507 541 827 
3 521 287 833 
3 401 716 874 
3 634 194 1018 
3 84 161 170 
3 323 321 838 
3 367 417 418 
3 688 689 809 
3 316 269 338 
3 321 521 838 
3 405 465 839 
3 85 162 215 
3 344 345 367 
3 340 338 528 
3 505 507 827 
3 329 834 837 
3 386 385 387 
3 397 365 837 
3 489 458 847 
3 343 342 344 
3 406 404 842 
3 450 448 491 
3 458 495 847 
3 86 163 175 
3 401 402 839 
3 611 535 612 
3 404 469 842 
3 341 340 342 
3 269 268 270 
3 911 583 915 
3 395 472 473 
3 515 842 860 
3 849 457 857 
3 87 164 214 
3 447 445 448 
3 516 592 853 
3 387 388 389 
3 249 248 250 
3 401 400 402 
3 880 744 885 
3 382 358 383 
3 504 499 661 
3 468 392 841 
3 387 385 388 
3 389 388 841 
3 339 338 340 
3 715 35 908 
3 88 165 178 
3 629 556 858 
3 266 265 347 
3 310 372 874 
3 357 376 395 
3 610 489 847 
3 392 389 841 
3 580 579 857 
3 361 343 840 
3 278 281 864 
3 449 463 535 
3 432 435 873 
3 309 313 848 
3 549 550 656 
3 402 405 839 
3 689 692 809 
3 400 399 863 
3 399 427 523 
3 369 425 811 
3 632 858 878 
3 372 399 400 
3 263 720 884 
3 89 166 216 
3 549 656 700 
3 354 353 355 
3 579 849 857 
3 449 380 463 
3 201 7 881 
3 255 254 256 
3 344 398 840 
3 523 524 843 
3 524 603 605 
3 343 344 840 
3 490 403 863 
3 264 262 265 
3 446 460 861 
3 90 167 180 
3 695 697 698 
3 91 168 217 
3 169 91 852 
3 267 316 859 
3 82 169 184 
3 537 292 538 
3 258 259 260 
3 270 273 850 
3 383 358 384 
3 267 268 269 
3 469 553 860 
3 692 693 694 
3 375 331 878 
3 535 463 549 
3 277 278 864 
3 399 523 863 
3 269 270 850 
3 633 632 887 
3 403 400 863 
3 427 371 848 
3 345 342 856 
3 264 266 267 
3 460 459 497 
3 238 240 241 
3 383 384 385 
3 354 355 356 
3 569 432 873 
3 246 248 249 
3 636 633 891 
3 372 371 399 
3 267 266 268 
3 442 587 867 
3 398 367 855 
3 842 469 860 
3 498 497 547 
3 464 310 874 
3 570 526 902 
3 338 269 850 
3 367 418 855 
3 252 254 255 
3 596 490 879 
3 548 547 642 
3 340 528 856 
3 356 355 357 
3 450 491 493 
3 255 292 530 
3 264 265 266 
3 342 340 856 
3 373 478 888 
3 356 357 358 
3 528 338 850 
3 233 234 235 
3 636 891 897 
3 235 236 346 
3 447 448 450 
3 230 231 233 
3 227 226 228 
3 241 242 301 
3 550 463 865 
3 858 375 878 
3 310 371 372 
3 524 605 843 
3 228 229 230 
3 347 349 527 
3 450 493 546 
3 860 553 876 
3 256 258 854 
3 255 256 292 
3 266 347 862 
3 371 309 848 
3 508 434 877 
3 537 538 568 
3 434 431 877 
3 380 361 865 
3 546 613 653 
3 271 268 862 
3 395 473 529 
3 603 604 886 
3 566 508 676 
3 904 277 917 
3 546 493 613 
3 310 309 371 
3 834 375 871 
3 260 261 262 
3 529 473 557 
3 897 598 901 
3 249 250 359 
3 362 381 912 
3 497 459 545 
3 557 614 617 
3 837 834 871 
3 470 707 899 
3 308 310 464 
3 379 885 906 
3 268 266 862 
3 633 887 891 
3 530 292 537 
3 347 527 862 
3 249 359 442 
3 529 557 558 
3 444 445 446 
3 361 840 865 
3 643 642 1014 
3 446 447 459 
3 354 736 883 
3 331 333 878 
3 553 625 876 
3 700 177 918 
3 463 380 865 
3 263 262 264 
3 442 443 444 
3 815 598 897 
3 759 760 894 
3 446 445 447 
3 372 401 874 
3 632 878 887 
3 522 837 871 
3 96 200 900 
3 564 95 900 
3 233 235 312 
3 444 443 445 
3 513 814 906 
3 241 301 532 
3 538 292 854 
3 725 909 1033 
3 260 262 263 
3 34 191 908 
3 225 224 226 
3 292 256 854 
3 379 838 885 
3 351 353 354 
3 521 833 880 
3 442 359 443 
3 244 246 867 
3 308 309 310 
3 532 301 585 
3 532 585 586 
3 790 789 943 
3 833 749 880 
3 676 508 877 
3 236 238 868 
3 346 236 868 
3 657 550 893 
3 7 8 881 
3 384 358 872 
3 250 252 869 
3 749 743 880 
3 91 217 852 
3 184 169 852 
3 308 307 309 
3 425 485 811 
3 885 744 906 
3 418 417 898 
3 358 357 872 
3 179 711 895 
3 863 523 879 
3 584 583 911 
3 878 333 887 
3 795 792 913 
3 481 669 898 
3 359 250 869 
3 791 790 913 
3 490 863 879 
3 357 395 872 
3 238 241 868 
3 246 249 867 
3 274 277 904 
3 740 436 933 
3 523 843 879 
3 436 366 937 
3 255 530 869 
3 252 255 869 
3 161 83 889 
3 395 529 872 
3 447 450 875 
3 227 228 232 
3 450 546 875 
3 499 470 899 
3 691 690 931 
3 545 459 875 
3 536 184 852 
3 459 447 875 
3 333 817 887 
3 746 443 903 
3 521 880 885 
3 838 521 885 
3 604 688 886 
3 741 740 930 
3 249 442 867 
3 720 719 936 
3 366 373 888 
3 854 258 884 
3 883 736 916 
3 748 528 892 
3 527 349 883 
3 241 532 868 
3 527 883 916 
3 301 242 907 
3 550 865 893 
3 865 840 893 
3 258 260 884 
3 306 307 308 
3 887 817 891 
3 817 394 891 
3 485 602 882 
3 301 907 925 
3 636 897 901 
3 552 659 938 
3 513 911 915 
3 170 161 889 
3 891 394 897 
3 351 354 883 
3 762 759 894 
3 912 381 971 
3 306 232 307 
3 227 232 306 
3 359 869 903 
3 90 180 905 
3 217 168 905 
3 394 815 897 
3 933 436 937 
3 590 904 917 
3 417 481 898 
3 850 273 892 
3 349 351 883 
3 168 90 905 
3 225 226 227 
3 95 96 900 
3 840 398 893 
3 260 263 884 
3 549 700 918 
3 533 644 928 
3 528 850 892 
3 637 636 901 
3 916 735 920 
3 612 535 918 
3 869 530 903 
3 492 746 927 
3 526 609 902 
3 290 288 929 
3 867 587 907 
3 892 273 904 
3 244 867 907 
3 661 499 899 
3 607 492 935 
3 273 274 904 
3 814 379 906 
3 242 244 907 
3 1004 218 1017 
3 719 452 952 
3 673 170 990 
3 454 845 926 
3 513 906 911 
3 460 498 934 
3 232 228 910 
3 89 216 922 
3 35 34 908 
3 83 160 218 
3 180 167 922 
3 589 590 917 
3 583 755 915 
3 540 539 914 
3 946 731 949 
3 930 740 933 
3 443 359 903 
3 452 362 912 
3 697 999 1009 
3 811 485 882 
3 744 584 911 
3 915 755 919 
3 808 830 939 
3 223 184 224 
3 228 230 910 
3 18 674 975 
3 792 791 913 
3 617 614 961 
3 777 439 940 
3 755 756 919 
3 271 920 941 
3 732 731 946 
3 736 734 916 
3 337 513 915 
3 233 312 923 
3 919 756 921 
3 271 862 920 
3 907 587 925 
3 623 622 995 
3 381 449 947 
3 756 758 921 
3 337 915 919 
3 88 178 932 
3 275 272 941 
3 921 758 924 
3 195 75 948 
3 74 219 948 
3 216 166 932 
3 816 337 919 
3 594 593 951 
3 673 671 978 
3 535 549 918 
3 581 479 945 
3 951 593 953 
3 936 719 952 
3 167 89 922 
3 758 761 924 
3 9 185 950 
3 223 224 225 
3 816 919 921 
3 277 864 917 
3 906 744 911 
3 664 703 1017 
3 972 210 1046 
3 279 276 949 
3 855 725 970 
3 492 927 935 
3 429 816 921 
3 429 921 924 
3 920 735 941 
3 494 776 1026 
3 703 1004 1017 
3 813 429 924 
3 902 609 909 
3 543 595 954 
3 587 861 925 
3 684 683 938 
3 585 301 925 
3 660 174 1013 
3 109 110 961 
3 24 23 957 
3 71 70 958 
3 73 72 959 
3 283 280 953 
3 746 903 927 
3 862 527 920 
3 845 627 926 
3 83 218 889 
3 810 853 955 
3 230 233 923 
3 82 184 223 
3 48 179 968 
3 881 8 950 
3 203 49 968 
3 910 230 923 
3 288 284 956 
3 903 530 927 
3 283 953 954 
3 562 654 978 
3 954 595 956 
3 312 235 944 
3 565 533 928 
3 279 949 951 
3 585 925 934 
3 961 110 1048 
3 275 941 946 
3 690 713 931 
3 294 290 929 
3 595 544 963 
3 530 537 927 
3 769 388 1015 
3 87 214 960 
3 178 165 960 
3 294 963 966 
3 589 917 930 
3 854 884 936 
3 925 861 934 
3 694 695 967 
3 166 88 932 
3 797 195 969 
3 642 547 992 
3 527 916 920 
3 170 673 985 
3 683 552 938 
3 864 741 930 
3 532 586 964 
3 917 864 930 
3 577 882 1053 
3 588 589 933 
3 654 560 977 
3 884 720 936 
3 589 930 933 
3 927 537 935 
3 451 672 1052 
3 830 294 966 
3 601 673 990 
3 588 933 937 
3 561 641 977 
3 961 614 1031 
3 222 79 972 
3 78 210 972 
3 775 172 974 
3 669 588 937 
3 438 939 940 
3 438 808 939 
3 934 498 942 
3 537 568 935 
3 861 460 934 
3 275 946 949 
3 98 99 973 
3 209 799 1008 
3 439 438 940 
3 398 855 970 
3 538 854 936 
3 621 819 943 
3 346 868 964 
3 272 271 941 
3 773 776 980 
3 735 732 946 
3 17 18 975 
3 235 346 944 
3 479 494 945 
3 762 894 1045 
3 586 585 942 
3 449 611 947 
3 929 595 963 
3 950 185 1024 
3 538 936 952 
3 75 74 948 
3 767 766 980 
3 826 204 992 
3 705 202 1003 
3 219 959 1043 
3 662 596 986 
3 727 187 967 
3 276 275 949 
3 279 951 953 
3 723 722 982 
3 197 109 961 
3 8 9 950 
3 762 1045 1059 
3 294 929 963 
3 731 594 951 
3 86 175 976 
3 214 164 976 
3 622 573 983 
3 941 735 946 
3 857 551 979 
3 491 607 984 
3 181 64 988 
3 63 209 988 
3 280 279 953 
3 208 754 995 
3 617 961 1048 
3 85 215 981 
3 770 769 1015 
3 175 163 981 
3 568 538 952 
3 593 543 954 
3 949 731 951 
3 771 558 1007 
3 615 972 1046 
3 953 593 954 
3 567 810 955 
3 475 571 993 
3 807 24 957 
3 70 220 958 
3 219 73 959 
3 283 954 956 
3 165 87 960 
3 284 283 956 
3 66 65 994 
3 84 170 985 
3 215 162 985 
3 657 893 970 
3 800 193 983 
3 572 559 996 
3 585 934 942 
3 611 612 989 
3 697 699 999 
3 648 646 1000 
3 963 812 966 
3 544 812 963 
3 969 195 1049 
3 984 611 989 
3 192 107 1023 
3 564 900 965 
3 647 649 965 
3 646 619 1000 
3 529 558 997 
3 812 582 966 
3 592 804 1027 
3 821 451 1000 
3 177 700 1030 
3 695 698 967 
3 868 532 964 
3 879 843 986 
3 483 420 1006 
3 419 580 1006 
3 660 555 1008 
3 173 771 1007 
3 606 950 1024 
3 49 48 968 
3 6 201 1011 
3 900 647 965 
3 724 725 1033 
3 599 624 1012 
3 182 796 1019 
3 31 190 1016 
3 101 800 1018 
3 876 190 1021 
3 723 982 1057 
3 194 100 1018 
3 197 961 1031 
3 807 957 998 
3 454 926 1037 
3 592 591 1021 
3 67 66 1020 
3 692 694 1003 
3 384 872 997 
3 754 751 991 
3 782 780 1022 
3 607 947 984 
3 52 177 1030 
3 798 797 969 
3 205 53 1030 
3 558 557 1007 
3 635 637 994 
3 385 384 1015 
3 790 943 1042 
3 206 818 1028 
3 715 605 1029 
3 625 662 1016 
3 618 620 973 
3 225 227 1001 
3 671 562 978 
3 727 967 1044 
3 785 781 1036 
3 602 1004 1053 
3 947 611 984 
3 97 98 1034 
3 605 603 1029 
3 3 80 1038 
3 23 3 1038 
3 126 0 1039 
3 0 4 1039 
3 72 1 1040 
3 1 94 1040 
3 2 71 1041 
3 22 2 1041 
3 788 221 1039 
3 111 173 1048 
3 901 598 1010 
3 546 653 1025 
3 467 416 1037 
3 631 635 1061 
3 16 186 1059 
3 176 14 1045 
3 672 650 1052 
3 841 769 1047 
3 607 935 971 
3 926 795 1037 
3 824 483 1055 
3 967 698 1044 
3 79 78 972 
3 894 176 1045 
3 649 651 1043 
3 545 826 1056 
3 999 737 1009 
3 964 586 999 
3 99 194 973 
3 568 912 971 
3 886 688 1035 
3 551 606 1024 
3 172 801 974 
3 497 545 1056 
3 893 398 970 
3 769 767 1047 
3 652 969 1049 
3 778 196 1010 
3 545 875 1025 
3 895 545 1025 
3 186 17 975 
3 663 664 1017 
3 164 86 976 
3 560 561 977 
3 751 753 991 
3 935 568 971 
3 853 592 1027 
3 722 205 982 
3 766 773 980 
3 775 974 1026 
3 163 85 981 
3 672 474 1005 
3 580 857 979 
3 843 605 1051 
3 943 819 1042 
3 656 657 982 
3 573 574 983 
3 717 203 987 
3 493 491 984 
3 753 752 1001 
3 747 610 1013 
3 605 908 1051 
3 957 222 998 
3 162 84 985 
3 596 879 986 
3 204 708 992 
3 982 657 1057 
3 493 984 989 
3 64 63 988 
3 699 964 999 
3 81 663 1058 
3 602 601 990 
3 698 697 1009 
3 464 844 991 
3 565 806 1002 
3 613 493 989 
3 181 988 1061 
3 474 475 993 
3 177 717 1050 
3 847 660 1013 
3 610 847 1013 
3 979 785 1036 
3 65 181 994 
3 763 208 995 
3 559 567 996 
3 776 775 1026 
3 571 615 1046 
3 652 672 1005 
3 788 5 1011 
3 872 529 997 
3 586 737 999 
3 190 803 1021 
3 615 572 998 
3 918 177 1050 
3 619 821 1000 
3 211 836 1012 
3 702 664 1031 
3 836 626 1012 
3 670 494 1026 
3 160 81 1058 
3 483 1022 1055 
3 597 565 1002 
3 809 692 1003 
3 227 306 1001 
3 420 419 1006 
3 555 628 1008 
3 609 818 1033 
3 987 203 1032 
3 826 992 1056 
3 737 643 1009 
3 974 670 1026 
3 557 617 1007 
3 598 597 1010 
3 789 788 1011 
3 5 6 1011 
3 889 218 1004 
3 626 599 1012 
3 174 747 1013 
3 183 728 1014 
3 955 853 1027 
3 203 968 1032 
3 909 609 1033 
3 1000 451 1052 
3 32 31 1016 
3 388 385 1015 
3 100 101 1018 
3 767 980 1047 
3 796 794 1019 
3 196 67 1020 
3 752 192 1023 
3 913 790 1042 
3 780 783 1022 
3 1014 728 1044 
3 591 876 1021 
3 188 715 1029 
3 185 785 1024 
3 614 702 1031 
3 988 630 1061 
3 957 23 1038 
3 71 958 1041 
3 959 72 1040 
3 818 724 1033 
3 467 913 1042 
3 986 843 1051 
3 182 1019 1060 
3 738 206 1028 
3 886 188 1029 
3 664 197 1031 
3 875 546 1025 
3 474 993 1005 
3 804 189 1027 
3 53 52 1030 
3 195 948 1049 
3 728 727 1044 
3 603 886 1029 
3 969 652 1005 
3 1014 1044 1054 
3 781 782 1036 
3 200 97 1034 
3 653 613 1032 
3 80 222 1038 
3 221 126 1039 
3 94 564 1040 
3 563 22 1041 
3 416 454 1037 
3 725 723 1057 
3 688 809 1035 
3 189 955 1027 
3 819 467 1042 
3 1004 703 1053 
3 14 15 1045 
3 210 798 1046 
3 110 111 1048 
3 908 191 1051 
3 651 652 1049 
3 468 841 1047 
3 650 648 1052 
3 968 653 1032 
3 1045 15 1059 
3 218 160 1058 
3 580 979 1036 
3 760 824 1055 
3 15 16 1059 
3 612 918 1050 
3 783 176 1062 
3 894 760 1062 
3 627 626 1060 
3 630 631 1061 
3 547 497 1056 
3 882 602 1053 
3 222 957 1038 
3 958 563 1041 
3 564 959 1040 
3 948 651 1049 
3 1055 783 1062 
3 760 1055 1062 
3 176 894 1062 
3 657 970 1057 
3 980 468 1047 
3 992 547 1056 
3 965 649 1043 
3 191 986 1051 
3 970 725 1057 
3 648 1000 1052 
3 698 1009 1054 
3 987 612 1050 
3 717 987 1050 
3 1017 218 1058 
3 1009 643 1054 
3 643 1014 1054 
3 1019 627 1060 
3 1022 783 1055 
3 663 1017 1058 
3 1044 698 1054 
3 158 159 127 
3 128 158 127 
3 157 158 128 
3 129 157 128 
3 156 157 129 
3 130 156 129 
3 155 156 130 
3 131 155 130 
3 154 155 131 
3 132 154 131 
3 153 154 132 
3 133 153 132 
3 152 153 133 
3 91 142 1063 
3 152 133 134 
3 151 152 134 
3 142 143 1063 
3 135 151 134 
3 151 135 150 
3 142 91 144 
3 135 136 150 
3 136 149 150 
3 136 137 149 
3 137 148 149 
3 137 138 148 
3 168 91 1063 
3 138 147 148 
3 138 139 147 
3 139 140 146 
3 139 146 147 
3 140 141 145 
3 140 145 146 
3 141 142 144 
3 141 144 145 
3 143 168 1063 
3 93 92 1064 
3 127 159 1064 
3 92 127 1064 
3 159 93 1064 
3 90 168 143 
3 158 159 94 
3 158 94 95 
3 157 158 95 
3 157 95 96 
3 156 157 96 
3 156 96 97 
3 155 156 97 
3 155 97 98 
3 154 155 98 
3 154 98 99 
3 153 154 99 
3 153 99 100 
3 145 82 1065 
3 152 153 100 
3 107 82 145 
3 152 100 101 
3 151 152 101 
3 102 151 101 
3 150 151 102 
3 103 150 102 
3 149 150 103 
3 149 103 104 
3 144 145 1065 
3 149 104 148 
3 104 105 148 
3 105 147 148 
3 105 106 147 
3 106 107 146 
3 147 106 146 
3 146 107 145 
3 82 169 1065 
3 169 144 1065 
3 93 1 1066 
3 94 159 1066 
3 1 94 1066 
3 159 93 1066 
3 169 91 144 

CELL_TYPES 1996
5
5
5
5
5
5
5
5
5
5
5
5
5
5
5
5
5
5
5
5
5
5
5
5
5
5
5
5
5
5
5
5
5
5
5
5
5
5
5
5
5
5
5
5
5
5
5
5
5
5
5
5
5
5
5
5
5
5
5
5
5
5
5
5
5
5
5
5
5
5
5
5
5
5
5
5
5
5
5
5
5
5
5
5
5
5
5
5
5
5
5
5
5
5
5
5
5
5
5
5
5
5
5
5
5
5
5
5
5
5
5
5
5
5
5
5
5
5
5
5
5
5
5
5
5
5
5
5
5
5
5
5
5
5
5
5
5
5
5
5
5
5
5
5
5
5
5
5
5
5
5
5
5
5
5
5
5
5
5
5
5
5
5
5
5
5
5
5
5
5
5
5
5
5
5
5
5
5
5
5
5
5
5
5
5
5
5
5
5
5
5
5
5
5
5
5
5
5
5
5
5
5
5
5
5
5
5
5
5
5
5
5
5
5
5
5
5
5
5
5
5
5
5
5
5
5
5
5
5
5
5
5
5
5
5
5
5
5
5
5
5
5
5
5
5
5
5
5
5
5
5
5
5
5
5
5
5
5
5
5
5
5
5
5
5
5
5
5
5
5
5
5
5
5
5
5
5
5
5
5
5
5
5
5
5
5
5
5
5
5
5
5
5
5
5
5
5
5
5
5
5
5
5
5
5
5
5
5
5
5
5
5
5
5
5
5
5
5
5
5
5
5
5
5
5
5
5
5
5
5
5
5
5
5
5
5
5
5
5
5
5
5
5
5
5
5
5
5
5
5
5
5
5
5
5
5
5
5
5
5
5
5
5
5
5
5
5
5
5
5
5
5
5
5
5
5
5
5
5
5
5
5
5
5
5
5
5
5
5
5
5
5
5
5
5
5
5
5
5
5
5
5
5
5
5
5
5
5
5
5
5
5
5
5
5
5
5
5
5
5
5
5
5
5
5
5
5
5
5
5
5
5
5
5
5
5
5
5
5
5
5
5
5
5
5
5
5
5
5
5
5
5
5
5
5
5
5
5
5
5
5
5
5
5
5
5
5
5
5
5
5
5
5
5
5
5
5
5
5
5
5
5
5
5
5
5
5
5
5
5
5
5
5
5
5
5
5
5
5
5
5
5
5
5
5
5
5
5
5
5
5
5
5
5
5
5
5
5
5
5
5
5
5
5
5
5
5
5
5
5
5
5
5
5
5
5
5
5
5
5
5
5
5
5
5
5
5
5
5
5
5
5
5
5
5
5
5
5
5
5
5
5
5
5
5
5
5
5
5
5
5
5
5
5
5
5
5
5
5
5
5
5
5
5
5
5
5
5
5
5
5
5
5
5
5
5
5
5
5
5
5
5
5
5
5
5
5
5
5
5
5
5
5
5
5
5
5
5
5
5
5
5
5
5
5
5
5
5
5
5
5
5
5
5
5
5
5
5
5
5
5
5
5
5
5
5
5
5
5
5
5
5
5
5
5
5
5
5
5
5
5
5
5
5
5
5
5
5
5
5
5
5
5
5
5
5
5
5
5
5
5
5
5
5
5
5
5
5
5
5
5
5
5
5
5
5
5
5
5
5
5
5
5
5
5
5
5
5
5
5
5
5
5
5
5
5
5
5
5
5
5
5
5
5
5
5
5
5
5
5
5
5
5
5
5
5
5
5
5
5
5
5
5
5
5
5
5
5
5
5
5
5
5
5
5
5
5
5
5
5
5
5
5
5
5
5
5
5
5
5
5
5
5
5
5
5
5
5
5
5
5
5
5
5
5
5
5
5
5
5
5
5
5
5
5
5
5
5
5
5
5
5
5
5
5
5
5
5
5
5
5
5
5
5
5
5
5
5
5
5
5
5
5
5
5
5
5
5
5
5
5
5
5
5
5
5
5
5
5
5
5
5
5
5
5
5
5
5
5
5
5
5
5
5
5
5
5
5
5
5
5
5
5
5
5
5
5
5
5
5
5
5
5
5
5
5
5
5
5
5
5
5
5
5
5
5
5
5
5
5
5
5
5
5
5
5
5
5
5
5
5
5
5
5
5
5
5
5
5
5
5
5
5
5
5
5
5
5
5
5
5
5
5
5
5
5
5
5
5
5
5
5
5
5
5
5
5
5
5
5
5
5
5
5
5
5
5
5
5
5
5
5
5
5
5
5
5
5
5
5
5
5
5
5
5
5
5
5
5
5
5
5
5
5
5
5
5
5
5
5
5
5
5
5
5
5
5
5
5
5
5
5
5
5
5
5
5
5
5
5
5
5
5
5
5
5
5
5
5
5
5
5
5
5
5
5
5
5
5
5
5
5
5
5
5
5
5
5
5
5
5
5
5
5
5
5
5
5
5
5
5
5
5
5
5
5
5
5
5
5
5
5
5
5
5
5
5
5
5
5
5
5
5
5
5
5
5
5
5
5
5
5
5
5
5
5
5
5
5
5
5
5
5
5
5
5
5
5
5
5
5
5
5
5
5
5
5
5
5
5
5
5
5
5
5
5
5
5
5
5
5
5
5
5
5
5
5
5
5
5
5
5
5
5
5
5
5
5
5
5
5
5
5
5
5
5
5
5
5
5
5
5
5
5
5
5
5
5
5
5
5
5
5
5
5
5
5
5
5
5
5
5
5
5
5
5
5
5
5
5
5
5
5
5
5
5
5
5
5
5
5
5
5
5
5
5
5
5
5
5
5
5
5
5
5
5
5
5
5
5
5
5
5
5
5
5
5
5
5
5
5
5
5
5
5
5
5
5
5
5
5
5
5
5
5
5
5
5
5
5
5
5
5
5
5
5
5
5
5
5
5
5
5
5
5
5
5
5
5
5
5
5
5
5
5
5
5
5
5
5
5
5
5
5
5
5
5
5
5
5
5
5
5
5
5
5
5
5
5
5
5
5
5
5
5
5
5
5
5
5
5
5
5
5
5
5
5
5
5
5
5
5
5
5
5
5
5
5
5
5
5
5
5
5
5
5
5
5
5
5
5
5
5
5
5
5
5
5
5
5
5
5
5
5
5
5
5
5
5
5
5
5
5
5
5
5
5
5
5
5
5
5
5
5
5
5
5
5
5
5
5
5
5
5
5
5
5
5
5
5
5
5
5
5
5
5
5
5
5
5
5
5
5
5
5
5
5
5
5
5
5
5
5
5
5
5
5
5
5
5
5
5
5
5
5
5
5
5
5
5
5
5
5
5
5
5
5
5
5
5
5
5
5
5
5
5
5
5
5
5
5
5
5
5
5
5
5
5
5
5
5
5
5
5
5
5
5
5
5
5
5
5
5
5
5
5
5
5
5
5
5
5
5
5
5
5
5
5
5
5
5
5
5
5
5
5
5
5
5
5
5
5
5
5
5
5
5
5
5
5
5
5
5
5
5
5
5
5
5
5
5
5
5
5
5
5
5
5
5
5
5
5
5
5
5
5
5
5
5
5
5
5
5
5
5
5
5
5
5
5
5
5
5
5
5
5
5
5
5
5
5
5
5
5
5
5
5
5
5
5
5
5
5
5
5
5
5
5
5
5
5
5
5
5
5
5
5
5
5
5
5
5
5
5
5
5
5
5
5
5
5
5
5
5
5
5
5
5
5
5
5
5
5
5
5
5
5
5
5
5
5
5
5
5
5
5
5
5
5
5
5
5
5
5
5
5
5
5
5
5
5
5
5
5
5
5
5
5
5
5
5
5
5
5
5
5
5
5
5
5
5
5
5
5
5
5
5
5
5
5
5
5
5
5
5
5
5
5
5
5
5
5
5
5
5
5
5
5
5
5
5
5
5
5
5
5
5
5
5
5
5
5
5
5
5
5
5
5
5
5
5
5
5
5
5
5
5
5
5
5
5
5
5
5
5
5
5
5
5
5
5
5
5
5
5
5
5
5
5
5
5
5
5
5
5
5
5
5
5
5
5
5
5
5
5
5
5
5
5
5
5
5
5
5
5
5
5
5
5
5
5
5
5
5
5
5
5
5
5
5
5
5
5
5
5
5
5
5
5
5
5
5
5
5
5
5
5
5
5
5
5
5
5
5
5
5
5
5
5
5
5
5
5
5
5
5
5
5
5
5
5
5
5
5
5
5
5
5
5
5
5
5
5
5
5
5
5
5
5
5
5
5
5
5
5
5
5
5
5
5
5
5
5
5
5
5
5
5
5
5
5
5
5
5
5
5
5
5
5
5
5
5
5
5
5
5
5
5
5
5
5
5
5
5
5
5
5
5
5
5
5
5
5
5
5
5
5
5
5
5
5
5
5
5
5
5
5
5
5
5
5
5
5
5
5
5
5
5
5
5
5
5
5
5
5
5
5
5
5
5
5
5
5
5
5
5
5
5
5
5
5
5
5
5
5
5
5
5
5
5
5
5
5
5
5
5
5
5
5
5
5
5
5
5
5
5
5
5
5
5
5
5
5
5
5
5
5
5
5
5
5
5
5
5
5
5
5
5
5
5
5
5
5
5
5
5
5
5
5
5
5
5
5
5
5
5
5
5
5
5
5
5
5
5
5
5

POINT_DATA 1067

VECTORS coord float
0.0 0.0 0.0 
5.000000000000e+01 -1.000000000000e+01 0.0 
0.0 -2.000000000000e+01 0.0 
5.000000000000e+01 -2.000000000000e+01 0.0 
0.0 -9.999999999991e-01 0.0 
0.0 -1.999999999998e+00 0.0 
0.0 -2.999999999997e+00 0.0 
0.0 -3.999999999994e+00 0.0 
0.0 -4.999999999991e+00 0.0 
0.0 -5.999999999988e+00 0.0 
0.0 -6.999999999985e+00 0.0 
0.0 -7.999999999982e+00 0.0 
0.0 -8.999999999983e+00 0.0 
0.0 -9.999999999985e+00 0.0 
0.0 -1.099999999999e+01 0.0 
0.0 -1.199999999999e+01 0.0 
0.0 -1.299999999999e+01 0.0 
0.0 -1.399999999999e+01 0.0 
0.0 -1.499999999999e+01 0.0 
0.0 -1.599999999999e+01 0.0 
0.0 -1.700000000000e+01 0.0 
0.0 -1.800000000000e+01 0.0 
0.0 -1.900000000000e+01 0.0 
4.900000000001e+01 -2.000000000000e+01 0.0 
4.800000000001e+01 -2.000000000000e+01 0.0 
4.700000000002e+01 -2.000000000000e+01 0.0 
4.600000000003e+01 -2.000000000000e+01 0.0 
4.500000000004e+01 -2.000000000000e+01 0.0 
4.400000000004e+01 -2.000000000000e+01 0.0 
4.300000000005e+01 -2.000000000000e+01 0.0 
4.200000000006e+01 -2.000000000000e+01 0.0 
4.100000000006e+01 -2.000000000000e+01 0.0 
4.000000000007e+01 -2.000000000000e+01 0.0 
3.900000000008e+01 -2.000000000000e+01 0.0 
3.800000000009e+01 -2.000000000000e+01 0.0 
3.700000000009e+01 -2.000000000000e+01 0.0 
3.600000000010e+01 -2.000000000000e+01 0.0 
3.500000000011e+01 -2.000000000000e+01 0.0 
3.400000000011e+01 -2.000000000000e+01 0.0 
3.300000000012e+01 -2.000000000000e+01 0.0 
3.200000000013e+01 -2.000000000000e+01 0.0 
3.100000000013e+01 -2.000000000000e+01 0.0 
3.000000000013e+01 -2.000000000000e+01 0.0 
2.900000000013e+01 -2.000000000000e+01 0.0 
2.800000000013e+01 -2.000000000000e+01 0.0 
2.700000000013e+01 -2.000000000000e+01 0.0 
2.600000000013e+01 -2.000000000000e+01 0.0 
2.500000000013e+01 -2.000000000000e+01 0.0 
2.400000000013e+01 -2.000000000000e+01 0.0 
2.300000000013e+01 -2.000000000000e+01 0.0 
2.200000000013e+01 -2.000000000000e+01 0.0 
2.100000000013e+01 -2.000000000000e+01 0.0 
2.000000000013e+01 -2.000000000000e+01 0.0 
1.900000000013e+01 -2.000000000000e+01 0.0 
1.800000000013e+01 -2.000000000000e+01 0.0 
1.700000000012e+01 -2.000000000000e+01 0.0 
1.600000000011e+01 -2.000000000000e+01 0.0 
1.500000000011e+01 -2.000000000000e+01 0.0 
1.400000000010e+01 -2.000000000000e+01 0.0 
1.300000000009e+01 -2.000000000000e+01 0.0 
1.200000000009e+01 -2.000000000000e+01 0.0 
1.100000000008e+01 -2.000000000000e+01 0.0 
1.000000000007e+01 -2.000000000000e+01 0.0 
9.000000000064e+00 -2.000000000000e+01 0.0 
8.000000000057e+00 -2.000000000000e+01 0.0 
7.000000000050e+00 -2.000000000000e+01 0.0 
6.000000000043e+00 -2.000000000000e+01 0.0 
5.000000000036e+00 -2.000000000000e+01 0.0 
4.000000000028e+00 -2.000000000000e+01 0.0 
3.000000000021e+00 -2.000000000000e+01 0.0 
2.000000000014e+00 -2.000000000000e+01 0.0 
1.000000000007e+00 -2.000000000000e+01 0.0 
5.000000000000e+01 -1.100000000000e+01 0.0 
5.000000000000e+01 -1.200000000000e+01 0.0 
5.000000000000e+01 -1.300000000000e+01 0.0 
5.000000000000e+01 -1.400000000000e+01 0.0 
5.000000000000e+01 -1.500000000000e+01 0.0 
5.000000000000e+01 -1.600000000000e+01 0.0 
5.000000000000e+01 -1.700000000000e+01 0.0 
5.000000000000e+01 -1.800000000000e+01 0.0 
5.000000000000e+01 -1.900000000000e+01 0.0 
2.000000000000e+01 0.0 0.0 
3.500000000000e+01 -1.000000000000e+01 0.0 
2.150000000000e+01 -1.000000000000e+00 0.0 
2.300000000000e+01 -2.000000000000e+00 0.0 
2.450000000000e+01 -3.000000000000e+00 0.0 
2.600000000000e+01 -4.000000000000e+00 0.0 
2.750000000000e+01 -5.000000000000e+00 0.0 
2.900000000000e+01 -6.000000000000e+00 0.0 
3.050000000000e+01 -7.000000000000e+00 0.0 
3.200000000000e+01 -8.000000000000e+00 0.0 
3.350000000000e+01 -9.000000000000e+00 0.0 
5.000000000000e+01 -8.000000000000e+00 0.0 
5.000000000000e+01 -9.000000000000e+00 0.0 
4.900000000000e+01 -1.000000000000e+01 0.0 
4.800000000000e+01 -1.000000000000e+01 0.0 
4.700000000000e+01 -1.000000000000e+01 0.0 
4.600000000000e+01 -1.000000000000e+01 0.0 
4.500000000000e+01 -1.000000000000e+01 0.0 
4.400000000000e+01 -1.000000000000e+01 0.0 
4.300000000000e+01 -1.000000000000e+01 0.0 
4.200000000000e+01 -1.000000000000e+01 0.0 
4.100000000000e+01 -1.000000000000e+01 0.0 
4.000000000000e+01 -1.000000000000e+01 0.0 
3.900000000000e+01 -1.000000000000e+01 0.0 
3.800000000000e+01 -1.000000000000e+01 0.0 
3.700000000000e+01 -1.000000000000e+01 0.0 
3.600000000000e+01 -1.000000000000e+01 0.0 
1.900000000000e+01 0.0 0.0 
1.800000000000e+01 0.0 0.0 
1.700000000000e+01 0.0 0.0 
1.600000000000e+01 0.0 0.0 
1.500000000000e+01 0.0 0.0 
1.400000000000e+01 0.0 0.0 
1.300000000000e+01 0.0 0.0 
1.200000000000e+01 0.0 0.0 
1.100000000000e+01 0.0 0.0 
1.000000000000e+01 0.0 0.0 
9.000000000000e+00 0.0 0.0 
8.000000000000e+00 0.0 0.0 
7.000000000000e+00 0.0 0.0 
6.000000000000e+00 0.0 0.0 
5.000000000000e+00 0.0 0.0 
4.000000000000e+00 0.0 0.0 
3.000000000000e+00 0.0 0.0 
2.000000000000e+00 0.0 0.0 
1.000000000000e+00 0.0 0.0 
4.900000000000e+01 -8.000000000000e+00 0.0 
4.800000000000e+01 -8.000000000000e+00 0.0 
4.700000000000e+01 -8.000000000000e+00 0.0 
4.600000000000e+01 -8.000000000000e+00 0.0 
4.500000000000e+01 -8.000000000000e+00 0.0 
4.400000000000e+01 -8.000000000000e+00 0.0 
4.300000000000e+01 -8.000000000000e+00 0.0 
4.200000000000e+01 -8.000000000000e+00 0.0 
4.100000000000e+01 -8.000000000000e+00 0.0 
4.000000000000e+01 -8.000000000000e+00 0.0 
3.900000000000e+01 -8.000000000000e+00 0.0 
3.800000000000e+01 -8.000000000000e+00 0.0 
3.700000000000e+01 -8.000000000000e+00 0.0 
3.600000000000e+01 -8.000000000000e+00 0.0 
3.500000000000e+01 -8.000000000000e+00 0.0 
3.400000000000e+01 -8.000000000000e+00 0.0 
3.300000000000e+01 -8.000000000000e+00 0.0 
3.447058823527e+01 -9.000000000000e+00 0.0 
3.544117647055e+01 -9.000000000000e+00 0.0 
3.641176470582e+01 -9.000000000000e+00 0.0 
3.738235294109e+01 -9.000000000000e+00 0.0 
3.835294117637e+01 -9.000000000000e+00 0.0 
3.932352941164e+01 -9.000000000000e+00 0.0 
4.029411764691e+01 -9.000000000000e+00 0.0 
4.126470588219e+01 -9.000000000000e+00 0.0 
4.223529411748e+01 -9.000000000000e+00 0.0 
4.320588235279e+01 -9.000000000000e+00 0.0 
4.417647058811e+01 -9.000000000000e+00 0.0 
4.514705882342e+01 -9.000000000000e+00 0.0 
4.611764705874e+01 -9.000000000000e+00 0.0 
4.708823529405e+01 -9.000000000000e+00 0.0 
4.805882352937e+01 -9.000000000000e+00 0.0 
4.902941176468e+01 -9.000000000000e+00 0.0 
2.075000000000e+01 -5.000000000006e-01 0.0 
2.225000000000e+01 -1.500000000000e+00 0.0 
2.375000000000e+01 -2.500000000000e+00 0.0 
2.525000000000e+01 -3.500000000000e+00 0.0 
2.675000000000e+01 -4.500000000000e+00 0.0 
2.825000000000e+01 -5.500000000000e+00 0.0 
2.975000000000e+01 -6.500000000000e+00 0.0 
3.125000000000e+01 -7.500000000000e+00 0.0 
3.275000000000e+01 -8.500000000000e+00 0.0 
3.425000000000e+01 -9.500000000000e+00 0.0 
2.226951693683e+01 -2.403913980114e+00 0.0 
1.650149491944e+01 -1.913490915758e+01 0.0 
1.050042386896e+01 -8.504605092970e-01 0.0 
1.553146524712e+01 -8.281255032105e-01 0.0 
1.150000000008e+01 -1.913397459621e+01 0.0 
2.530060260647e+01 -4.428336431260e+00 0.0 
8.651114563942e-01 -1.052096295641e+01 0.0 
2.050000000013e+01 -1.913397459622e+01 0.0 
2.819198729811e+01 -6.399519052838e+00 0.0 
2.445670302931e+01 -1.915649188023e+01 0.0 
3.117591465718e+01 -8.394293040695e+00 0.0 
7.465053044742e+00 -1.920411160581e+01 0.0 
6.398295709691e+00 -8.230098819370e-01 0.0 
2.849659607461e+01 -1.914296187762e+01 0.0 
3.418732642882e+01 -1.040265792588e+01 0.0 
8.386450935063e-01 -6.533605142809e+00 0.0 
9.178661865596e-01 -1.329769195597e+01 0.0 
3.149448624493e+01 -1.910466733764e+01 0.0 
3.552916747426e+01 -1.914628590759e+01 0.0 
4.449210346537e+01 -1.914359085008e+01 0.0 
4.140975975145e+01 -1.906941860733e+01 0.0 
3.847475958753e+01 -1.916622382724e+01 0.0 
3.653774794640e+01 -1.088712800241e+01 0.0 
4.047886341787e+01 -1.090139014048e+01 0.0 
4.348006339825e+01 -1.092792621489e+01 0.0 
4.919519968029e+01 -1.451526755068e+01 0.0 
4.500000000032e+00 -1.913397459621e+01 0.0 
1.856136921614e+01 -8.212235170404e-01 0.0 
3.499895312306e+00 -8.661165539723e-01 0.0 
9.076088696565e-01 -1.642306201891e+01 0.0 
4.655174095477e+01 -1.086183387525e+01 0.0 
9.430688970604e-01 -3.496112672958e+00 0.0 
3.353992337063e+01 -1.901202090820e+01 0.0 
2.249746016977e+01 -1.921262287282e+01 0.0 
2.650122741777e+01 -1.916123026018e+01 0.0 
1.863571384842e+01 -1.908325534840e+01 0.0 
1.450089971693e+01 -1.917691901860e+01 0.0 
1.350044695317e+01 -8.659695299584e-01 0.0 
3.849987469880e+01 -1.084154983397e+01 0.0 
9.454419857884e+00 -1.900818879936e+01 0.0 
4.917398660523e+01 -1.645692866081e+01 0.0 
8.500000000000e+00 -8.660254037844e-01 0.0 
8.660319230785e-01 -8.500111697188e+00 0.0 
4.649022621545e+01 -1.930506220113e+01 0.0 
2.667688107845e+01 -5.420288124331e+00 0.0 
2.379251615665e+01 -3.412225477429e+00 0.0 
2.966631491830e+01 -7.389030232731e+00 0.0 
3.267915035995e+01 -9.396934932445e+00 0.0 
2.074836922338e+01 -1.320054020319e+00 0.0 
4.915985743621e+01 -1.261973384855e+01 0.0 
2.527129768623e+00 -1.931592414663e+01 0.0 
1.538676247410e+00 -8.436956619311e-01 0.0 
4.908096641539e+01 -1.842484004551e+01 0.0 
3.478612492673e+01 -1.090889364140e+01 0.0 
3.409757055860e+01 -1.131991530427e+01 0.0 
3.501895309466e+01 -1.177687842717e+01 0.0 
3.407758073088e+01 -1.224293381580e+01 0.0 
3.484541875390e+01 -1.277051428430e+01 0.0 
3.400322025842e+01 -1.319022775640e+01 0.0 
3.321672625034e+01 -1.266779191233e+01 0.0 
3.315244139236e+01 -1.360984106532e+01 0.0 
3.236335186892e+01 -1.308463225210e+01 0.0 
3.478337442841e+01 -1.372341158982e+01 0.0 
3.230105923633e+01 -1.403023731610e+01 0.0 
3.150954055289e+01 -1.350301767700e+01 0.0 
3.144604792090e+01 -1.444931742516e+01 0.0 
3.065653897123e+01 -1.392357262981e+01 0.0 
3.071897610812e+01 -1.297447031198e+01 0.0 
2.986790411740e+01 -1.339226181535e+01 0.0 
2.993181466745e+01 -1.244703272398e+01 0.0 
2.908023061869e+01 -1.286254537734e+01 0.0 
2.901619051372e+01 -1.380881655279e+01 0.0 
2.822986160390e+01 -1.327695262116e+01 0.0 
2.829453476870e+01 -1.233265343811e+01 0.0 
2.744542905518e+01 -1.274510491105e+01 0.0 
2.751120089246e+01 -1.180368086886e+01 0.0 
2.666218649885e+01 -1.221619339205e+01 0.0 
2.672371209234e+01 -1.127125228527e+01 0.0 
2.587763216302e+01 -1.168539979114e+01 0.0 
2.581165585299e+01 -1.262994410089e+01 0.0 
2.502890882577e+01 -1.209827323619e+01 0.0 
2.509631327757e+01 -1.115492410304e+01 0.0 
2.424662989877e+01 -1.156630981079e+01 0.0 
2.431704046904e+01 -1.062389179334e+01 0.0 
2.346445438728e+01 -1.103427680694e+01 0.0 
2.339382552877e+01 -1.197964871788e+01 0.0 
2.260936050780e+01 -1.144513277642e+01 0.0 
2.268075012022e+01 -1.049911928216e+01 0.0 
2.182525737661e+01 -1.090920811464e+01 0.0 
2.189682319817e+01 -9.961716944568e+00 0.0 
2.104174127792e+01 -1.037266986667e+01 0.0 
2.111304367575e+01 -9.424179358711e+00 0.0 
2.025306185381e+01 -9.832727364719e+00 0.0 
2.018141124247e+01 -1.079140628871e+01 0.0 
1.938594498257e+01 -1.025147354112e+01 0.0 
1.946106490453e+01 -9.288010758448e+00 0.0 
1.858929958352e+01 -9.706319802516e+00 0.0 
1.851540991219e+01 -1.067205988724e+01 0.0 
1.771485303178e+01 -1.012504443115e+01 0.0 
1.764134552256e+01 -1.109360378538e+01 0.0 
1.683745148095e+01 -1.054496365337e+01 0.0 
1.691852964353e+01 -9.582555261178e+00 0.0 
1.603603813062e+01 -1.000160132379e+01 0.0 
1.595824239350e+01 -1.096750698862e+01 0.0 
1.515080624291e+01 -1.041639501931e+01 0.0 
1.523171602559e+01 -9.451711491453e+00 0.0 
1.434621060709e+01 -9.871956467464e+00 0.0 
1.426777178765e+01 -1.083749501371e+01 0.0 
1.345775282374e+01 -1.028803175500e+01 0.0 
1.354103873368e+01 -9.324918457162e+00 0.0 
1.265072018622e+01 -9.742612837270e+00 0.0 
1.257285762070e+01 -1.071557782384e+01 0.0 
1.175874815690e+01 -1.015972324288e+01 0.0 
1.184203019714e+01 -9.193604071377e+00 0.0 
1.094927709905e+01 -9.612103238656e+00 0.0 
1.086938022910e+01 -1.058685085646e+01 0.0 
1.005424098961e+01 -1.002939116380e+01 0.0 
9.977974613295e+00 -1.101324897989e+01 0.0 
1.012915646404e+01 -9.051815821181e+00 0.0 
9.237127782494e+00 -9.471239055559e+00 0.0 
9.308426593771e+00 -8.483376461131e+00 0.0 
8.418806073345e+00 -8.910712374517e+00 0.0 
2.253688464062e+01 -1.239459402279e+01 0.0 
8.495126726666e+00 -7.921646665254e+00 0.0 
9.389727383206e+00 -7.512103628377e+00 0.0 
7.601560812974e+00 -8.349460349344e+00 0.0 
7.525680547759e+00 -9.339736686940e+00 0.0 
7.677888324502e+00 -7.359727833346e+00 0.0 
6.782001206724e+00 -7.788454494773e+00 0.0 
6.858778622885e+00 -6.797338062822e+00 0.0 
2.196596590865e+01 -8.979025665442e+00 0.0 
2.816540108272e+01 -1.422634142353e+01 0.0 
5.961601194403e+00 -7.226824010712e+00 0.0 
6.038171749656e+00 -6.234825887079e+00 0.0 
6.936257279557e+00 -5.805287640737e+00 0.0 
6.115068918323e+00 -5.242109758768e+00 0.0 
3.564391741903e+01 -1.329240553876e+01 0.0 
3.558115605778e+01 -1.425902892003e+01 0.0 
3.645445282201e+01 -1.381970786460e+01 0.0 
3.639744204358e+01 -1.479198128612e+01 0.0 
3.727266909778e+01 -1.435399586226e+01 0.0 
5.216667013081e+00 -5.671788584287e+00 0.0 
3.220697293295e+01 -1.499594545107e+01 0.0 
3.551112158269e+01 -1.523479869250e+01 0.0 
2.836056961467e+01 -1.139032434851e+01 0.0 
2.516730388602e+01 -1.021382726837e+01 0.0 
1.844436907403e+01 -1.164097215196e+01 0.0 
5.885434318740e+00 -8.218694781467e+00 0.0 
5.064071066867e+00 -7.656614643901e+00 0.0 
4.988089103470e+00 -8.649722082718e+00 0.0 
1.079421050408e+01 -1.157014985435e+01 0.0 
9.902420005256e+00 -1.199903342656e+01 0.0 
1.071994252214e+01 -1.255727909771e+01 0.0 
9.826974788171e+00 -1.298659581767e+01 0.0 
1.064607883789e+01 -1.354595476388e+01 0.0 
9.751541265343e+00 -1.397556905071e+01 0.0 
8.932296185869e+00 -1.341553353988e+01 0.0 
8.856399248106e+00 -1.440570715508e+01 0.0 
8.036186803543e+00 -1.384470558472e+01 0.0 
1.057112875118e+01 -1.453516759081e+01 0.0 
1.146582585687e+01 -1.410539926903e+01 0.0 
7.959894480382e+00 -1.483563350928e+01 0.0 
7.138792279156e+00 -1.427465094140e+01 0.0 
7.062506792418e+00 -1.526615385482e+01 0.0 
6.240693558277e+00 -1.470508863040e+01 0.0 
6.316957575451e+00 -1.371212581281e+01 0.0 
5.418183007107e+00 -1.414253605022e+01 0.0 
5.494748364428e+00 -1.314886770603e+01 0.0 
1.756825565873e+01 -1.206433872514e+01 0.0 
1.837565773345e+01 -1.261356468266e+01 0.0 
1.749574831391e+01 -1.303769280014e+01 0.0 
1.830539187332e+01 -1.358828364284e+01 0.0 
1.742278925170e+01 -1.401367746928e+01 0.0 
1.823303007798e+01 -1.456432294258e+01 0.0 
1.734941694138e+01 -1.499213734361e+01 0.0 
1.653760041637e+01 -1.443920312098e+01 0.0 
3.056237977307e+01 -1.487132260174e+01 0.0 
1.866469084762e+01 -8.742953000418e+00 0.0 
1.953669694916e+01 -8.326038909849e+00 0.0 
1.874194303780e+01 -7.780688158966e+00 0.0 
1.961032016741e+01 -7.366854697285e+00 0.0 
1.881715755159e+01 -6.821102209649e+00 0.0 
1.968369797150e+01 -6.407747217358e+00 0.0 
1.889237123259e+01 -5.858375520026e+00 0.0 
1.802038875366e+01 -6.276202618170e+00 0.0 
1.809793837984e+01 -5.307629520489e+00 0.0 
1.721985207997e+01 -5.728242054488e+00 0.0 
1.729850893523e+01 -4.756990819347e+00 0.0 
1.641745664240e+01 -5.174636548624e+00 0.0 
2.495978509456e+01 -1.304406404294e+01 0.0 
1.911567814831e+01 -1.413854250293e+01 0.0 
1.904387332608e+01 -1.511463127723e+01 0.0 
1.992115934240e+01 -1.468788025898e+01 0.0 
7.013706899628e+00 -4.812582868662e+00 0.0 
5.342091874585e+00 -1.513658157269e+01 0.0 
1.139098043784e+01 -1.509488509480e+01 0.0 
1.228151810610e+01 -1.465617481983e+01 0.0 
1.646373110164e+01 -1.541993323337e+01 0.0 
5.293328636712e+00 -4.678385108584e+00 0.0 
1.975965862987e+01 -5.448124345648e+00 0.0 
2.054318374236e+01 -5.992561293251e+00 0.0 
3.721453439063e+01 -1.533216152738e+01 0.0 
3.809302733893e+01 -1.489235527381e+01 0.0 
1.220852788900e+01 -1.565304565230e+01 0.0 
4.394120899730e+00 -5.108397613210e+00 0.0 
8.779354620288e+00 -1.539524721159e+01 0.0 
1.817791047702e+01 -4.338570146253e+00 0.0 
4.518860013839e+00 -1.457343189307e+01 0.0 
4.442712140414e+00 -1.556841391069e+01 0.0 
8.115343466391e+00 -1.285760324283e+01 0.0 
1.985334703171e+01 -1.566478400426e+01 0.0 
2.071953850276e+01 -1.522074243119e+01 0.0 
1.634012953883e+01 -6.154777738301e+00 0.0 
1.553479994708e+01 -5.593730508879e+00 0.0 
1.561265946942e+01 -4.617761762647e+00 0.0 
1.470674212978e+01 -5.064576488228e+00 0.0 
1.464498299883e+01 -6.026514471420e+00 0.0 
1.383271561817e+01 -5.467796261169e+00 0.0 
1.389241253067e+01 -4.504338666645e+00 0.0 
1.301868735463e+01 -4.907185188626e+00 0.0 
1.294514184846e+01 -5.888160903592e+00 0.0 
1.212955968622e+01 -5.328262335277e+00 0.0 
1.220721122383e+01 -4.341264976687e+00 0.0 
1.131324345897e+01 -4.766773516508e+00 0.0 
5.266597955397e+00 -1.613148974258e+01 0.0 
1.737805990867e+01 -3.786677807525e+00 0.0 
3.078438094513e+01 -1.203225297748e+01 0.0 
1.131569882285e+01 -1.608511932110e+01 0.0 
1.728478341782e+01 -1.596017432313e+01 0.0 
3.803465906019e+01 -1.587509751228e+01 0.0 
3.891681276677e+01 -1.543395196905e+01 0.0 
3.897340985302e+01 -1.444710288980e+01 0.0 
3.980095968193e+01 -1.499059496613e+01 0.0 
3.974334598189e+01 -1.597921884150e+01 0.0 
4.062964983717e+01 -1.553518690417e+01 0.0 
4.068729602479e+01 -1.454434445295e+01 0.0 
4.151772679790e+01 -1.508974196007e+01 0.0 
4.157505195739e+01 -1.409694289912e+01 0.0 
4.240699932656e+01 -1.464347955968e+01 0.0 
4.234898051011e+01 -1.563721375790e+01 0.0 
4.323934606035e+01 -1.519082036405e+01 0.0 
4.329740528208e+01 -1.419587509788e+01 0.0 
4.413056841369e+01 -1.474359631875e+01 0.0 
4.418850110108e+01 -1.374786684042e+01 0.0 
4.502219770667e+01 -1.429605103525e+01 0.0 
4.496411937907e+01 -1.529215882720e+01 0.0 
4.490027319897e+00 -4.154167794594e+00 0.0 
1.565080385988e+01 -1.486411982419e+01 0.0 
1.557610691279e+01 -1.584855627870e+01 0.0 
4.195350646612e+00 -8.089117689096e+00 0.0 
4.124027797830e+00 -9.082831955007e+00 0.0 
4.917944318925e+00 -9.643530901533e+00 0.0 
4.020105689502e+00 -1.007439673661e+01 0.0 
4.587185899277e+01 -1.484039992728e+01 0.0 
4.580078661551e+01 -1.584043391042e+01 0.0 
2.061956522375e+01 -5.046701343981e+00 0.0 
2.139572955529e+01 -5.579553449826e+00 0.0 
3.715344357292e+01 -1.631485124583e+01 0.0 
3.618886196443e+00 -1.500471207167e+01 0.0 
3.695606940204e+00 -1.400939692294e+01 0.0 
2.438890661143e+01 -9.686110599723e+00 0.0 
2.523267572778e+01 -9.276766000622e+00 0.0 
2.446094171539e+01 -8.751904591412e+00 0.0 
2.529089822738e+01 -8.321495612547e+00 0.0 
2.606882688827e+01 -8.864724051119e+00 0.0 
2.452116646430e+01 -7.792756462004e+00 0.0 
1.235543269617e+01 -1.365845617339e+01 0.0 
4.318116874181e+01 -1.618567469992e+01 0.0 
7.835066111909e+00 -5.376366223896e+00 0.0 
7.905687335704e+00 -4.382539065697e+00 0.0 
3.542640009567e+00 -1.600035116542e+01 0.0 
1.572431503071e+01 -1.388358386695e+01 0.0 
2.574684696680e+01 -1.357896141127e+01 0.0 
2.488842657651e+01 -1.399674354505e+01 0.0 
2.568301775611e+01 -1.453552048595e+01 0.0 
2.481535572009e+01 -1.495542756508e+01 0.0 
2.561729699688e+01 -1.549784648532e+01 0.0 
2.474623061296e+01 -1.592058894178e+01 0.0 
2.394234041695e+01 -1.537572575827e+01 0.0 
2.065825452567e+01 -1.621899055217e+01 0.0 
2.387180528935e+01 -1.634552264687e+01 0.0 
4.585364400844e+01 -1.383912334080e+01 0.0 
1.998744432052e+01 -1.370317155541e+01 0.0 
1.205356951443e+01 -6.313580285498e+00 0.0 
5.396543905849e+00 -3.731818611283e+00 0.0 
1.139652573295e+01 -3.745819399350e+00 0.0 
3.574124306703e+00 -4.551456826011e+00 0.0 
3.494140761930e+00 -5.539787055649e+00 0.0 
1.213651452413e+01 -1.664505033022e+01 0.0 
2.555045568519e+01 -1.646529356744e+01 0.0 
2.641671114986e+01 -1.603899382371e+01 0.0 
2.612920721894e+01 -7.906435260873e+00 0.0 
2.690339829698e+01 -8.456969591431e+00 0.0 
1.978024383368e+01 -1.664410216353e+01 0.0 
3.732829979082e+01 -1.336926601859e+01 0.0 
4.074336584605e+01 -1.355133328401e+01 0.0 
4.163204691081e+01 -1.310280943992e+01 0.0 
3.773826114429e+00 -3.493444309145e+00 0.0 
1.228783001032e+01 -3.374822835872e+00 0.0 
4.057110462520e+01 -1.652588478000e+01 0.0 
2.132535497898e+01 -6.523623360525e+00 0.0 
2.216932532211e+01 -6.110044769206e+00 0.0 
1.825781152128e+01 -3.370146817147e+00 0.0 
1.745679445888e+01 -2.812942552063e+00 0.0 
4.666517057280e+01 -1.539981381543e+01 0.0 
4.660575894464e+01 -1.639014410186e+01 0.0 
4.838230979954e+00 -1.063643436446e+01 0.0 
3.938942630206e+00 -1.106778981745e+01 0.0 
1.302967218620e+01 -1.621373452436e+01 0.0 
1.049548003190e+01 -4.204825123240e+00 0.0 
4.573571907195e+01 -1.683820511148e+01 0.0 
1.483686335807e+01 -1.430849689310e+01 0.0 
1.490982658890e+01 -1.332679386284e+01 0.0 
3.190805600162e+00 -9.510968358545e+00 0.0 
2.146625721848e+01 -4.642437303115e+00 0.0 
2.069866208266e+01 -4.111852942193e+00 0.0 
1.286859345584e+01 -6.873252723348e+00 0.0 
1.041794493184e+01 -5.194814260291e+00 0.0 
2.671081808965e+00 -4.976806516331e+00 0.0 
1.295786792925e+01 -1.720506531799e+01 0.0 
3.968438206511e+01 -1.696869067241e+01 0.0 
2.308550456051e+01 -1.579963151273e+01 0.0 
2.315593682844e+01 -1.482967445235e+01 0.0 
2.299471449450e+01 -1.677069968132e+01 0.0 
1.057344714696e+01 -3.214252277840e+00 0.0 
1.124057603753e+01 -1.707713739755e+01 0.0 
2.718402535754e+00 -1.543629882103e+01 0.0 
2.638549692805e+01 -1.696744916809e+01 0.0 
2.723416349007e+01 -1.658104204545e+01 0.0 
2.210193351704e+01 -7.046769643417e+00 0.0 
2.295180925161e+01 -6.657397605239e+00 0.0 
2.301355235833e+01 -5.709111896800e+00 0.0 
2.379052718281e+01 -6.254965406962e+00 0.0 
3.243528601237e+01 -1.214181853533e+01 0.0 
2.287977995457e+01 -7.583722368300e+00 0.0 
2.999876029544e+01 -1.150837653096e+01 0.0 
3.084435366963e+01 -1.109693775882e+01 0.0 
3.006650579669e+01 -1.057778994262e+01 0.0 
2.683802665066e+01 -9.386863216633e+00 0.0 
2.768641973621e+01 -8.988883915666e+00 0.0 
2.040296980397e+01 -7.903629133404e+00 0.0 
1.925235024054e+01 -1.218872783130e+01 0.0 
5.735667000424e+00 -1.020577277283e+01 0.0 
6.396559909872e+00 -1.272326295703e+01 0.0 
1.161199420714e+01 -1.212812778229e+01 0.0 
4.229046132615e+01 -1.663084237572e+01 0.0 
4.312275399692e+01 -1.718087491556e+01 0.0 
4.335502068163e+01 -1.320039231514e+01 0.0 
4.424630298089e+01 -1.275160688731e+01 0.0 
7.090116643816e+00 -3.818998061530e+00 0.0 
7.989472176569e+00 -3.389238711200e+00 0.0 
9.085824861778e+00 -1.144036167408e+01 0.0 
1.041972423731e+01 -1.651614080893e+01 0.0 
3.797525112640e+01 -1.686052038746e+01 0.0 
3.709114253394e+01 -1.730125999865e+01 0.0 
3.626966748340e+01 -1.675477052919e+01 0.0 
1.385164591440e+01 -1.677597757552e+01 0.0 
1.787152588784e+01 -8.198993896093e+00 0.0 
1.668849729812e+01 -1.248560611628e+01 0.0 
1.659546177905e+01 -3.232482605530e+00 0.0 
2.332214717345e+01 -1.292598167641e+01 0.0 
7.168238450786e+00 -2.824711686516e+00 0.0 
2.894878403906e+01 -1.475427524446e+01 0.0 
2.646763248247e+00 -1.643270107952e+01 0.0 
3.467431944285e+00 -1.699648837348e+01 0.0 
2.059475877282e+01 -1.719473628526e+01 0.0 
3.333868355437e+01 -1.080596971682e+01 0.0 
2.246451062637e+01 -1.334557761546e+01 0.0 
2.167821896388e+01 -1.280847834858e+01 0.0 
3.089653185767e+01 -1.017198487212e+01 0.0 
3.012604365669e+01 -9.657298805968e+00 0.0 
2.929627299435e+01 -1.006100135274e+01 0.0 
2.936201435219e+01 -9.136748899251e+00 0.0 
1.198219052702e+01 -7.291887238230e+00 0.0 
1.116702076035e+01 -6.731976101053e+00 0.0 
2.551388807505e+01 -1.746927036981e+01 0.0 
2.378639090370e+01 -1.728678807149e+01 0.0 
2.718543627188e+01 -1.748668016909e+01 0.0 
2.804681050301e+01 -1.712626668293e+01 0.0 
1.970737034667e+01 -1.762317646822e+01 0.0 
1.889535776135e+01 -1.707158098231e+01 0.0 
2.593777711283e+00 -5.971157087874e+00 0.0 
2.773468281110e+01 -8.067164273938e+00 0.0 
4.051205884347e+01 -1.751819982458e+01 0.0 
3.166903145421e+01 -1.068032992414e+01 0.0 
1.033042452886e+01 -1.748285844336e+01 0.0 
9.519274604626e+00 -1.694349240233e+01 0.0 
1.668308673328e+01 -2.255861778986e+00 0.0 
1.570531902832e+01 -2.676795860126e+00 0.0 
4.655826903379e+01 -1.736656245706e+01 0.0 
2.384148070773e+01 -5.328744256413e+00 0.0 
2.460255123641e+01 -5.852182672816e+00 0.0 
2.306638135119e+01 -4.798935440613e+00 0.0 
8.467720450578e-01 -1.849576263072e+01 0.0 
4.849657322345e+01 -1.084860705506e+01 0.0 
2.565860899507e+00 -1.742859793981e+01 0.0 
2.764418872564e+01 -9.927142821799e+00 0.0 
4.565165880064e+01 -1.785336695404e+01 0.0 
2.162231831329e+01 -1.376528337468e+01 0.0 
2.360646352969e+01 -9.136041963102e+00 0.0 
1.392738739903e+01 -1.578285505772e+01 0.0 
4.756405947478e+01 -1.683706841809e+01 0.0 
4.740895034054e+01 -1.793766756892e+01 0.0 
4.080779328826e+01 -1.257387192544e+01 0.0 
4.168907939671e+01 -1.210739129181e+01 0.0 
3.991197722154e+01 -1.300815793917e+01 0.0 
1.905536506762e+01 -3.940076697685e+00 0.0 
1.923879596617e+01 -2.875000734166e+00 0.0 
4.401386745746e+01 -1.673483229438e+01 0.0 
4.247233362525e+00 -7.094581653070e+00 0.0 
3.286051630211e+00 -7.635300020553e+00 0.0 
9.609533347623e+00 -4.594311677967e+00 0.0 
9.523554636369e+00 -5.595597029530e+00 0.0 
5.660336628893e+00 -1.119290329628e+01 0.0 
6.558070063295e+00 -1.076385809362e+01 0.0 
2.809866407414e+01 -1.518037766799e+01 0.0 
2.888868674504e+01 -1.570360690070e+01 0.0 
2.654431550819e+01 -1.411217777162e+01 0.0 
1.402158265969e+01 -1.375404617952e+01 0.0 
1.409592494026e+01 -1.277071998942e+01 0.0 
1.499355196178e+01 -1.235270737023e+01 0.0 
4.221535326155e+01 -1.759335617494e+01 0.0 
4.305583287033e+01 -1.822663146802e+01 0.0 
1.280748808359e+01 -7.834332838285e+00 0.0 
1.368988389326e+01 -7.420529606172e+00 0.0 
1.110091796060e+01 -7.683966794328e+00 0.0 
3.963446145980e+01 -1.794331310122e+01 0.0 
3.423932362213e+00 -1.796415590455e+01 0.0 
4.280814572302e+00 -1.752272834860e+01 0.0 
8.050136380041e+00 -2.421582378631e+00 0.0 
8.888674091650e+00 -2.984264211327e+00 0.0 
2.152839430898e+01 -3.732609965436e+00 0.0 
2.077799585292e+01 -3.183896021866e+00 0.0 
3.618719395821e+01 -1.770276572576e+01 0.0 
3.538165138340e+01 -1.718709995539e+01 0.0 
3.702925326420e+01 -1.828844288807e+01 0.0 
1.756739438711e+00 -5.353284859169e+00 0.0 
2.233710191104e+01 -1.527265621324e+01 0.0 
1.389483555057e+01 -1.771797164730e+01 0.0 
1.475634224300e+01 -1.728357428390e+01 0.0 
1.298797563052e+01 -1.825968924755e+01 0.0 
2.145331271866e+01 -1.673705379077e+01 0.0 
2.133282821169e+01 -1.769400773673e+01 0.0 
2.292139194136e+01 -1.774915400288e+01 0.0 
1.750750053243e+01 -1.861475593469e+00 0.0 
4.830478841772e+01 -1.752611802221e+01 0.0 
4.341203507805e+01 -1.220326745522e+01 0.0 
1.685254151866e+01 -1.443085301632e+00 0.0 
4.431538535165e+01 -1.171841387375e+01 0.0 
4.511308610496e+01 -1.229557320599e+01 0.0 
4.510133242889e+01 -1.123680627466e+01 0.0 
1.846818030617e+00 -4.410877617069e+00 0.0 
3.995468694584e+01 -1.186571542989e+01 0.0 
3.901387459804e+01 -1.242507616755e+01 0.0 
8.966735877533e+00 -1.837818700423e+00 0.0 
4.049310011091e+01 -1.848269508791e+01 0.0 
7.278862053803e+00 -1.918523922691e+00 0.0 
6.429715522129e+00 -2.316676521184e+00 0.0 
9.443505505022e+00 -1.792198868094e+01 0.0 
8.620386951051e+00 -1.737590365556e+01 0.0 
8.571868171503e+00 -1.834436667826e+01 0.0 
7.758629848526e+00 -1.775677907213e+01 0.0 
7.806648388584e+00 -1.680761266021e+01 0.0 
6.908555145436e+00 -1.723746463044e+01 0.0 
4.251709122090e+01 -1.156937480156e+01 0.0 
6.931136405615e+00 -1.832465719263e+01 0.0 
6.015545461353e+00 -1.768865355295e+01 0.0 
5.960535926343e+00 -1.872011001764e+01 0.0 
3.023253444786e+01 -8.761960642196e+00 0.0 
2.454622702599e+01 -6.749421992767e+00 0.0 
2.537499741604e+01 -6.347634963783e+00 0.0 
2.544077378460e+01 -5.431358513649e+00 0.0 
2.801367161747e+01 -1.820907270221e+01 0.0 
2.884507806914e+01 -1.762032095326e+01 0.0 
1.821474531936e+00 -1.588901260460e+01 0.0 
1.821006262604e+00 -1.489370287756e+01 0.0 
4.599962488908e+01 -1.176478780598e+01 0.0 
4.705457470007e+01 -1.172182804229e+01 0.0 
4.667668314802e+01 -1.263464558483e+01 0.0 
4.759648056504e+01 -1.252380987933e+01 0.0 
4.728041618103e+01 -1.341928568376e+01 0.0 
4.825209352360e+01 -1.330491640804e+01 0.0 
4.778118233428e+01 -1.420151961695e+01 0.0 
2.388192727579e+01 -1.826934810142e+01 0.0 
2.381714684947e+01 -4.385917965223e+00 0.0 
3.172733219247e+01 -9.758744265248e+00 0.0 
1.882012070658e+01 -1.805540597212e+01 0.0 
1.805667505243e+01 -1.742221226236e+01 0.0 
2.852599958080e+01 -8.597196079481e+00 0.0 
2.856486123437e+01 -7.661382718527e+00 0.0 
1.111792842875e+01 -1.818223852980e+01 0.0 
2.203322722466e+01 -7.986646678802e+00 0.0 
3.955703676900e+01 -1.903246763601e+01 0.0 
1.944842206513e+01 -8.038750575182e-01 0.0 
1.909882767783e+01 -1.746322740933e+00 0.0 
2.281147422941e+01 -8.525912918334e+00 0.0 
2.850633001468e+01 -9.533271335986e+00 0.0 
2.532883344309e+01 -7.308951659710e+00 0.0 
2.620475466461e+01 -6.979208585400e+00 0.0 
1.396278270396e+01 -1.475095389807e+01 0.0 
9.791001166724e+00 -2.554159793552e+00 0.0 
2.229293380421e+01 -4.269762271052e+00 0.0 
4.677238984118e+01 -1.430071795514e+01 0.0 
2.228658385918e+01 -3.344747535984e+00 0.0 
8.940223674553e-01 -1.543595733415e+01 0.0 
2.118566862474e+01 -8.435876987696e+00 0.0 
2.678325936437e+01 -1.032621195706e+01 0.0 
2.223400220487e+01 -5.179046761770e+00 0.0 
2.375370625384e+01 -7.251580562134e+00 0.0 
3.156971327386e+01 -1.255534750737e+01 0.0 
3.328226391312e+01 -1.172914813316e+01 0.0 
3.250948774219e+01 -1.120157009348e+01 0.0 
2.032993445717e+01 -8.867880112202e+00 0.0 
2.697226974856e+01 -7.536633082045e+00 0.0 
2.707377810386e+01 -6.590835263295e+00 0.0 
2.914099246827e+01 -1.191678458549e+01 0.0 
3.544824072239e+01 -1.621126558525e+01 0.0 
3.456511855436e+01 -1.665054783843e+01 0.0 
3.448395810225e+01 -1.759117813016e+01 0.0 
3.368378673938e+01 -1.708037781328e+01 0.0 
3.375560452567e+01 -1.610973066913e+01 0.0 
3.288001547988e+01 -1.654324255651e+01 0.0 
3.282475929147e+01 -1.749725654692e+01 0.0 
3.199880906313e+01 -1.697294088625e+01 0.0 
3.197001272932e+01 -1.811667776864e+01 0.0 
3.111884713021e+01 -1.742166785755e+01 0.0 
3.120418962865e+01 -1.642155709385e+01 0.0 
3.034666704371e+01 -1.683123833816e+01 0.0 
3.026224379976e+01 -1.772592851714e+01 0.0 
3.046632362943e+01 -1.582232843075e+01 0.0 
1.961344017324e+01 -1.857459447985e+01 0.0 
2.274975894774e+01 -9.532738811922e+00 0.0 
1.833923246887e+01 -2.396746883672e+00 0.0 
1.988859500848e+01 -2.249244376594e+00 0.0 
2.758045562861e+01 -1.086434261689e+01 0.0 
3.247300178163e+01 -1.909930104252e+01 0.0 
3.461947482503e+01 -1.911879848019e+01 0.0 
2.047161538662e+01 -6.941478180358e+00 0.0 
2.750230940214e+01 -1.915490590764e+01 0.0 
3.165081350803e+01 -1.161860780120e+01 0.0 
1.897456727641e+01 -4.889634688522e+00 0.0 
2.549338539756e+01 -1.914858252089e+01 0.0 
3.462873135081e+01 -1.567482276144e+01 0.0 
3.384432415243e+01 -1.512280684518e+01 0.0 
3.471433767690e+01 -1.469086942990e+01 0.0 
3.651470373046e+01 -1.918207952149e+01 0.0 
3.901742690249e+01 -1.345028556517e+01 0.0 
2.153224102692e+01 -1.920169709333e+01 0.0 
1.918382939341e+01 -1.316226275662e+01 0.0 
2.005389162382e+01 -1.271962165174e+01 0.0 
2.011472087878e+01 -1.175029352900e+01 0.0 
3.210679478412e+01 -1.598038618242e+01 0.0 
1.752175226543e+01 -1.914713022656e+01 0.0 
1.696897240059e+01 -1.832772588765e+01 0.0 
1.599682523337e+01 -1.832599992024e+01 0.0 
1.644507199462e+01 -1.743697981535e+01 0.0 
1.549987712903e+01 -1.915192375101e+01 0.0 
3.050250861901e+01 -1.918943550234e+01 0.0 
2.949944061527e+01 -1.922950455235e+01 0.0 
1.375892575273e+01 -6.447160534926e+00 0.0 
1.457223670180e+01 -7.006709243857e+00 0.0 
1.450818793236e+01 -7.965943451779e+00 0.0 
1.538804712402e+01 -7.553409623699e+00 0.0 
1.545817644768e+01 -6.580929593419e+00 0.0 
1.626506893751e+01 -7.129032608911e+00 0.0 
1.619833811522e+01 -8.086588580887e+00 0.0 
1.714448609609e+01 -6.697429609777e+00 0.0 
2.887616543568e+01 -1.668015232137e+01 0.0 
1.349814589130e+01 -1.918225301544e+01 0.0 
1.153887772210e+01 -1.311384581217e+01 0.0 
1.242708159886e+01 -1.267046795531e+01 0.0 
1.249799674267e+01 -1.169005616014e+01 0.0 
6.631723893693e+00 -9.774184881867e+00 0.0 
7.451471631867e+00 -1.033148796006e+01 0.0 
7.377795355458e+00 -1.132196345268e+01 0.0 
5.810931797536e+00 -9.211654212252e+00 0.0 
2.402683899133e+01 -1.441378562320e+01 0.0 
1.249768692036e+01 -1.917388426624e+01 0.0 
1.580373499437e+01 -1.290751860664e+01 0.0 
8.344650507834e+00 -9.898403995170e+00 0.0 
3.750622115305e+01 -1.086526401533e+01 0.0 
3.699391251667e+01 -1.171695900794e+01 0.0 
3.606517829518e+01 -1.173717504500e+01 0.0 
3.650257641795e+01 -1.270047380221e+01 0.0 
3.808951488918e+01 -1.183518714175e+01 0.0 
4.760380962420e+00 -1.162484888315e+01 0.0 
3.861210370848e+00 -1.205657631736e+01 0.0 
3.038284309476e+00 -1.149851280664e+01 0.0 
2.961598794889e+00 -1.248856794980e+01 0.0 
2.138953225512e+00 -1.193212674534e+01 0.0 
2.227383593457e+00 -1.096258903918e+01 0.0 
2.043265419276e+00 -1.292158472959e+01 0.0 
1.252449446028e+00 -1.225502002753e+01 0.0 
3.949985210740e+01 -1.086594001795e+01 0.0 
1.453499444792e+01 -8.768805922472e-01 0.0 
1.403518950933e+01 -1.749965556633e+00 0.0 
1.300715031023e+01 -1.714737233040e+00 0.0 
1.350929389899e+01 -2.527443911291e+00 0.0 
1.449600910711e+01 -2.595486162864e+00 0.0 
1.395693872901e+01 -3.484211041558e+00 0.0 
1.495105865208e+01 -3.364609636216e+00 0.0 
1.508822528740e+01 -1.766586020494e+00 0.0 
1.250223858430e+01 -8.634590186802e-01 0.0 
1.200279523409e+01 -1.709044504992e+00 0.0 
1.150086239419e+01 -8.592789190668e-01 0.0 
1.101482754194e+01 -1.677730591922e+00 0.0 
1.148018564526e+01 -2.659323866909e+00 0.0 
8.800552119754e+00 -3.989875954728e+00 0.0 
3.452790439430e+00 -1.901136170646e+01 0.0 
8.658451825200e-01 -9.503462241795e+00 0.0 
1.694787786797e+00 -9.000589234502e+00 0.0 
1.703436717094e+00 -8.038819004041e+00 0.0 
2.594197971110e+00 -8.563955242845e+00 0.0 
1.630513735412e+00 -9.907244747511e+00 0.0 
8.566859292791e-01 -7.512203837972e+00 0.0 
1.685461277022e+00 -7.164280248030e+00 0.0 
2.506394468801e+00 -8.623386730818e-01 0.0 
2.007475081581e+00 -1.727729545205e+00 0.0 
9.211534699767e-01 -1.628791366312e+00 0.0 
1.500000000020e+00 -2.598063549486e+00 0.0 
2.482078929963e+00 -2.553580088725e+00 0.0 
2.999795253092e+00 -1.732169015019e+00 0.0 
3.999712607169e+00 -1.728832897453e+00 0.0 
4.499752199340e+00 -8.656478679175e-01 0.0 
4.964377774841e+00 -1.730129617941e+00 0.0 
4.425017908337e+00 -2.597541756243e+00 0.0 
5.446573195014e+00 -8.410144840023e-01 0.0 
4.915722346614e+01 -1.550640962770e+01 0.0 
4.826794919243e+01 -1.600000000000e+01 0.0 
1.053139533193e+01 -1.911782884365e+01 0.0 
4.156049861949e+01 -1.095160998589e+01 0.0 
9.494526624416e+00 -8.650570090219e-01 0.0 
4.555762166964e+01 -1.897098103585e+01 0.0 
4.250656411371e+01 -1.914387356218e+01 0.0 
4.350906466345e+01 -1.917234727395e+01 0.0 
8.759665722424e-01 -1.746422130609e+01 0.0 
1.698936011838e+00 -1.795012186674e+01 0.0 
4.742476811029e+01 -1.900090177972e+01 0.0 
7.749196752349e+00 -6.368049313489e+00 0.0 
3.361572113416e+01 -1.798765193915e+01 0.0 
4.484660149212e+01 -1.728661231383e+01 0.0 
1.984038172228e+01 -4.502575320116e+00 0.0 
1.035080352627e+01 -6.166639575753e+00 0.0 
2.753558010652e+00 -1.444909521181e+01 0.0 
7.217069543032e+00 -1.328635391078e+01 0.0 
4.364336727739e+00 -1.655585677381e+01 0.0 
4.595208426108e+00 -1.357919665443e+01 0.0 
6.164967006980e+00 -1.569873454630e+01 0.0 
1.487855768353e+01 -1.826523774028e+01 0.0 
2.791876456372e+00 -4.019632415181e+00 0.0 
4.246464893515e+01 -1.364898659620e+01 0.0 
4.503855590351e+01 -1.329552780944e+01 0.0 
4.407239109604e+01 -1.573900004093e+01 0.0 
5.141054449252e+00 -6.664290382472e+00 0.0 
3.141083947149e+00 -1.055790764912e+01 0.0 
6.196463198741e+00 -4.256497932609e+00 0.0 
2.599618716181e+01 -1.836893455464e+01 0.0 
2.923057372337e+01 -1.098461757645e+01 0.0 
1.168343877486e+01 -1.114079645041e+01 0.0 
6.706222096238e+00 -8.780364234441e+00 0.0 
8.567858614669e+00 -6.943121440850e+00 0.0 
1.123755132901e+01 -5.753525820030e+00 0.0 
2.353456234423e+01 -1.008536320953e+01 0.0 
9.162073319168e+00 -1.045593739109e+01 0.0 
9.676343469685e+00 -1.496493008366e+01 0.0 
4.490637882905e+01 -1.628778970202e+01 0.0 
7.398129387772e+00 -9.639977982323e-01 0.0 
1.049641705805e+01 -1.552503975272e+01 0.0 
9.010356286268e+00 -1.242805042052e+01 0.0 
3.985573925497e+01 -1.399863651620e+01 0.0 
1.816196318262e+01 -1.554066497931e+01 0.0 
1.306332244168e+01 -3.963646550326e+00 0.0 
4.145850903932e+01 -1.608094559275e+01 0.0 
3.794664933633e+01 -1.779020121986e+01 0.0 
3.819614412903e+01 -1.290749321016e+01 0.0 
6.270014188119e+00 -3.255093186826e+00 0.0 
4.251165370388e+01 -1.263870364997e+01 0.0 
1.207347709171e+01 -1.763942826023e+01 0.0 
3.633240829927e+01 -1.577330481104e+01 0.0 
4.319052668832e+00 -6.101812561904e+00 0.0 
1.676492415806e+01 -1.151547901392e+01 0.0 
2.594059220037e+01 -1.074225223009e+01 0.0 
3.340750911501e+01 -9.898764354137e+00 0.0 
4.397619591281e+01 -1.769773736461e+01 0.0 
2.175611595028e+01 -1.185718747128e+01 0.0 
1.641818733106e+01 -1.640685203215e+01 0.0 
1.661211421753e+01 -1.346121366338e+01 0.0 
3.428853504935e+00 -6.551993389271e+00 0.0 
8.700728832502e+00 -1.638460872825e+01 0.0 
1.931369795309e+01 -1.121629383702e+01 0.0 
4.139798872363e+01 -1.706922153459e+01 0.0 
2.647837478700e+01 -1.507353829290e+01 0.0 
1.779469616424e+01 -9.161615782908e+00 0.0 
3.885879219319e+01 -1.642026488918e+01 0.0 
1.338194936770e+01 -1.125916521471e+01 0.0 
1.897071181111e+01 -1.609204322578e+01 0.0 
2.844308548793e+01 -1.046221003096e+01 0.0 
2.659854702194e+01 -1.316109415760e+01 0.0 
2.979604503271e+01 -1.433296157755e+01 0.0 
2.417694041347e+01 -1.251231397779e+01 0.0 
1.807401327411e+00 -1.388891148480e+01 0.0 
9.599810618782e+00 -1.595439365034e+01 0.0 
1.652144692160e+01 -4.205392788472e+00 0.0 
2.367839450246e+01 -8.188385218643e+00 0.0 
3.814894930468e+01 -1.390748338767e+01 0.0 
2.466448215774e+01 -1.685878545680e+01 0.0 
4.134044524611e+01 -1.806610045954e+01 0.0 
2.600511411958e+01 -9.801774120648e+00 0.0 
7.882158050716e+00 -1.582364037353e+01 0.0 
3.881607873422e+01 -1.737970515013e+01 0.0 
8.270182347708e+00 -1.088622154920e+01 0.0 
8.672520392520e-01 -4.532984309881e+00 0.0 
1.993447205337e+01 -3.579061902667e+00 0.0 
1.794616079549e+01 -7.238038888498e+00 0.0 
2.097277068165e+01 -1.132450168636e+01 0.0 
8.194803300681e+00 -1.187214224265e+01 0.0 
3.522279404911e+01 -1.823342818178e+01 0.0 
6.984481050295e+00 -1.625271465557e+01 0.0 
1.309433007797e+01 -1.521718594215e+01 0.0 
2.150246167611e+01 -1.885399038185e+00 0.0 
3.250689370209e+01 -1.028789870535e+01 0.0 
6.085886272238e+00 -1.668342132851e+01 0.0 
1.588455661727e+01 -1.193498985921e+01 0.0 
1.809323400821e+01 -1.651110084195e+01 0.0 
1.348885082381e+00 -1.136065576512e+01 0.0 
2.497670221995e+01 -1.834631276173e+01 0.0 
2.937062818424e+01 -8.233711194470e+00 0.0 
5.185823744469e+00 -1.711566910207e+01 0.0 
1.477497877209e+01 -1.530177014512e+01 0.0 
2.125346158933e+01 -7.473003997367e+00 0.0 
4.751561118290e+01 -1.084897772632e+01 0.0 
5.056026576843e+00 -1.825750475525e+01 0.0 
1.473948554523e+01 -1.634577436309e+01 0.0 
2.410566630936e+01 -1.345970002612e+01 0.0 
1.507337507513e+01 -1.138527895328e+01 0.0 
3.189857338687e+01 -8.887781229006e+00 0.0 
7.298712468334e+00 -1.230231046246e+01 0.0 
2.738235495295e+01 -1.368931690364e+01 0.0 
3.750141041969e+01 -1.920449893070e+01 0.0 
1.557271965640e+01 -1.683317951731e+01 0.0 
3.393731848929e+01 -1.413034777044e+01 0.0 
6.482156824153e+00 -1.174575135362e+01 0.0 
2.077971718439e+01 -1.421279621836e+01 0.0 
3.455084320178e+00 -2.562590040585e+00 0.0 
3.099056096250e+01 -9.270280416035e+00 0.0 
5.580176125418e+00 -1.217387969259e+01 0.0 
1.707247630389e+01 -7.660651981710e+00 0.0 
1.418658814174e+01 -1.180390575393e+01 0.0 
2.049103025389e+01 -1.811296706038e+01 0.0 
4.680386172316e+00 -1.260396879301e+01 0.0 
1.699679896554e+01 -8.624561788199e+00 0.0 
3.779470168555e+00 -1.303424899720e+01 0.0 
3.036589870126e+01 -7.879832518349e+00 0.0 
3.306993001774e+01 -1.457671062095e+01 0.0 
2.840150110165e+00 -1.346530088269e+01 0.0 
2.732011135052e+01 -1.464591214560e+01 0.0 
5.423639259568e+00 -2.659711955016e+00 0.0 
2.324455961696e+01 -1.387269388211e+01 0.0 
1.752768355571e+00 -1.693128613594e+01 0.0 
1.020244783051e+01 -8.076834012808e+00 0.0 
1.330873875224e+01 -1.222417528206e+01 0.0 
3.297727364880e+01 -1.555480372087e+01 0.0 
2.890929955439e+01 -6.868664170731e+00 0.0 
1.323294664622e+01 -1.320754260334e+01 0.0 
2.726532861246e+01 -1.560593120806e+01 0.0 
2.240020643398e+01 -1.429299177247e+01 0.0 
2.090445823633e+01 -1.228128621332e+01 0.0 
1.315809881502e+01 -1.420739326938e+01 0.0 
2.781328038068e+01 -7.181956082300e+00 0.0 
8.614200829057e+00 -5.936933226306e+00 0.0 
8.714765730069e+00 -4.979270529687e+00 0.0 
1.611881701099e+01 -9.041973294003e+00 0.0 
2.806830314340e+01 -1.614622947108e+01 0.0 
2.084435391396e+00 -3.385085422913e+00 0.0 
3.133211811152e+01 -1.542347619750e+01 0.0 
9.693114650768e+00 -3.590281506442e+00 0.0 
1.531883592202e+01 -8.504584946143e+00 0.0 
2.151589117094e+01 -1.578915763018e+01 0.0 
4.918943882696e+01 -1.355538828056e+01 0.0 
1.443236615188e+01 -8.918701794549e+00 0.0 
8.276250966452e-01 -5.537685192197e+00 0.0 
1.362790867918e+01 -8.374718262212e+00 0.0 
2.083767477370e+01 -1.324843956035e+01 0.0 
1.273834678703e+01 -8.790890389337e+00 0.0 
1.192275845670e+01 -8.242261327467e+00 0.0 
4.477236023583e+01 -1.824312396664e+01 0.0 
1.102989384254e+01 -8.649855800911e+00 0.0 
4.849096516045e+01 -1.917293752213e+01 0.0 
1.588996752238e+00 -1.910230934687e+01 0.0 
4.904245197583e+01 -1.159839008158e+01 0.0 
2.753852929608e+01 -5.782128488093e+00 0.0 
1.756133602833e+01 -8.306130313187e-01 0.0 
2.615423700951e+01 -6.153865090092e+00 0.0 
1.028818761294e+01 -7.122020845892e+00 0.0 
2.970818901196e+01 -1.527821347593e+01 0.0 
4.801461623449e+01 -1.164472570985e+01 0.0 
9.455722100419e+00 -6.546069291118e+00 0.0 
3.089099236677e+01 -1.835339328261e+01 0.0 
2.350000000013e+01 -1.920825896750e+01 0.0 
4.830620531887e+01 -1.506626155470e+01 0.0 
1.725381944701e+01 -1.688794487850e+01 0.0 
2.156246225273e+01 -1.475893794002e+01 0.0 
4.919319648787e+01 -1.742767505896e+01 0.0 
4.437935623576e+01 -1.077662927266e+01 0.0 
1.001520521978e+01 -1.652692675208e+00 0.0 
9.067160240050e-01 -1.441937727541e+01 0.0 
2.603365149390e+01 -4.755996613848e+00 0.0 
2.458344439002e+01 -4.873645517696e+00 0.0 
2.304312390142e+01 -3.836552768096e+00 0.0 
2.546923202198e+00 -6.902480355749e+00 0.0 
1.251534969393e+01 -2.490989965776e+00 0.0 
2.454061833377e+01 -3.933354231935e+00 0.0 
1.788186558740e+01 -1.827424884923e+01 0.0 
4.090785243552e+01 -1.166553231904e+01 0.0 
2.230128851568e+01 -1.623015738726e+01 0.0 
2.302362347568e+01 -2.916239960270e+00 0.0 
3.878119254461e+01 -1.830091164002e+01 0.0 
2.210081359958e+01 -1.829238229150e+01 0.0 
8.443704882233e+00 -1.921993252862e+01 0.0 
2.218405824691e+01 -1.724557581508e+01 0.0 
2.151157503963e+01 -2.790636689331e+00 0.0 
3.741658958955e+01 -1.250400191722e+01 0.0 
2.697247663737e+01 -1.838290202309e+01 0.0 
4.743362342862e+01 -1.585850773010e+01 0.0 
6.671345075358e+00 -1.924977576322e+01 0.0 
3.900825404537e+01 -1.157220003875e+01 0.0 
4.649692961375e+01 -1.836335837481e+01 0.0 
1.578831424832e+01 -3.678284023361e+00 0.0 
4.814208768888e+01 -1.841249298770e+01 0.0 
2.964123298315e+01 -1.625739458193e+01 0.0 
4.580760351902e+01 -1.284294554687e+01 0.0 
3.561520879615e+01 -1.245548941949e+01 0.0 
2.555418095658e+00 -1.841101588290e+01 0.0 
3.288468366144e+01 -1.834258164109e+01 0.0 
2.065894391445e+01 -2.240688571739e+00 0.0 
4.739171429915e+01 -1.496536413446e+01 0.0 
3.478086729185e+00 -8.576434653209e+00 0.0 
1.606010630246e+01 -1.588421807951e+00 0.0 
1.018329200594e+01 -1.834320874317e+01 0.0 
2.957213339430e+01 -1.720496954591e+01 0.0 
4.142712790164e+00 -1.837794506222e+01 0.0 
6.698721532573e-01 -2.499999999997e+00 0.0 
8.037039123140e+00 -1.571229354954e+00 0.0 
1.203541361428e+01 -1.847784298001e+01 0.0 
2.899968332038e+01 -1.848264722179e+01 0.0 
1.469229460948e+01 -4.219485753730e+00 0.0 
4.049590781957e+01 -1.932812501995e+01 0.0 
1.996211678340e+01 -1.506329754720e+00 0.0 
4.250588298353e+01 -1.067383247529e+01 0.0 
5.831497011152e+00 -1.635396227234e+00 0.0 
5.317606125670e+00 -1.923927974868e+01 0.0 
4.208546426993e+01 -1.842830665025e+01 0.0 
2.327553405011e+00 -9.459409929662e+00 0.0 
3.568351902251e+01 -1.096637218582e+01 0.0 
1.682104374890e+00 -6.231413350963e+00 0.0 
2.451812238018e+01 -1.766524914339e+01 0.0 
1.058003429638e+01 -2.391839617098e+00 0.0 
4.399988753123e+01 -1.851998776342e+01 0.0 
1.400000000010e+01 -1.852293523028e+01 0.0 
3.604719565984e+01 -1.850662876800e+01 0.0 
1.951297136734e+01 -1.938092349694e+01 0.0 
1.821365318472e+01 -1.531276353287e+00 0.0 
2.298031859732e+01 -1.854635324722e+01 0.0 
1.552168066204e+01 -1.764280741977e+01 0.0 
4.572957713638e+01 -1.073347898229e+01 0.0 
3.429637429624e+01 -1.838861552790e+01 0.0 
2.427434426052e+00 -7.705577451869e+00 0.0 
4.662792031485e+00 -3.359424455416e+00 0.0 
4.926794919243e+01 -1.926794919243e+01 0.0 
7.320508075690e-01 -7.320508075688e-01 0.0 
4.926794919243e+01 -1.073205080757e+01 0.0 
7.320508075705e-01 -1.926794919243e+01 0.0 
2.917460242467e+00 -3.202866455310e+00 0.0 
4.838200575963e+01 -1.232674147454e+01 0.0 
2.998445708009e+01 -1.854403752148e+01 0.0 
5.949940090766e-01 -1.152762038165e+01 0.0 
4.844763495759e+01 -1.678092548787e+01 0.0 
1.301685480160e+01 -3.170056592566e+00 0.0 
1.650046335855e+01 -6.731535384067e-01 0.0 
4.854881540991e+01 -1.405224059779e+01 0.0 
2.119545114693e+01 -1.846813384545e+01 0.0 
3.797852849897e+01 -1.857978513215e+01 0.0 
4.649823708745e+01 -1.338351810816e+01 0.0 
2.012685900976e+01 -2.889659035009e+00 0.0 
2.953271913273e+01 -1.791558075192e+01 0.0 
2.408509097292e+00 -1.021949208421e+01 0.0 
2.642589566221e+01 -1.773216561448e+01 0.0 
1.730010270775e+01 -1.763165076721e+01 0.0 
2.017406551304e+01 -8.513536440582e-01 0.0 
5.254761581934e-01 -1.249999999999e+01 0.0 
6.640448215642e+00 -1.545337834885e+00 0.0 
7.843361506349e+00 -1.852719839527e+01 0.0 
1.588442191088e+00 -1.066158564320e+01 0.0 
3.331250000000e+01 -8.420918367347e+00 0.0 
4.951470588234e+01 -8.500000000000e+00 0.0 
3.480610198624e+01 -9.413633635267e+00 0.0 
4.951470588234e+01 -9.500000000000e+00 0.0 

SCALARS node_number int
LOOKUP_TABLE default
1
2
3
4
5
6
7
8
9
10
11
12
13
14
15
16
17
18
19
20
21
22
23
24
25
26
27
28
29
30
31
32
33
34
35
36
37
38
39
40
41
42
43
44
45
46
47
48
49
50
51
52
53
54
55
56
57
58
59
60
61
62
63
64
65
66
67
68
69
70
71
72
73
74
75
76
77
78
79
80
81
82
84
85
86
87
88
89
90
91
92
93
101
102
104
105
106
107
108
109
110
111
112
113
114
115
116
117
118
119
120
121
122
123
124
125
126
127
128
129
130
131
132
133
134
135
136
329
330
331
332
333
334
335
336
337
338
339
340
341
342
343
344
345
346
347
348
349
350
351
352
353
354
355
356
357
358
359
360
361
362
363
364
365
366
367
368
369
370
371
372
373
374
375
376
377
378
379
380
381
382
383
384
385
386
387
388
389
390
391
392
393
394
395
396
397
398
399
400
401
402
403
404
405
406
407
408
409
410
411
412
413
414
415
416
417
418
419
420
421
422
423
424
425
426
427
428
429
430
431
432
433
434
435
436
437
438
439
440
441
442
443
444
445
446
447
448
449
450
451
452
453
454
455
456
457
458
459
460
461
462
463
464
465
466
467
468
469
470
471
472
473
474
475
476
477
478
479
480
481
482
483
484
485
486
487
488
489
490
491
492
493
494
495
496
497
498
499
500
501
502
503
504
505
506
507
508
509
510
511
512
513
514
515
516
517
518
519
520
521
522
523
524
525
526
527
528
529
530
531
532
533
534
535
536
537
538
539
540
541
542
543
544
545
546
547
548
549
550
551
552
553
554
555
556
557
558
559
560
561
562
563
564
565
566
567
568
569
570
571
572
573
574
575
576
577
578
579
580
581
582
583
584
585
586
587
588
589
590
591
592
593
594
595
596
597
598
599
600
601
602
603
604
605
606
607
608
609
610
611
612
613
614
615
616
617
618
619
620
621
622
623
624
625
626
627
628
629
630
631
632
633
634
635
636
637
638
639
640
641
642
643
644
645
646
647
648
649
650
651
652
653
654
655
656
657
658
659
660
661
662
663
664
665
666
667
668
669
670
671
672
673
674
675
676
677
678
679
680
681
682
683
684
685
686
687
688
689
690
691
692
693
694
695
696
697
698
699
700
701
702
703
704
705
706
707
708
709
710
711
712
713
714
715
716
717
718
719
720
721
722
723
724
725
726
727
728
729
730
731
732
733
734
735
736
737
738
739
740
741
742
743
744
745
746
747
748
749
750
751
752
753
754
755
756
757
758
759
760
761
762
763
764
765
766
767
768
769
770
771
772
773
774
775
776
777
778
779
780
781
782
783
784
785
786
787
788
789
790
791
792
793
794
795
796
797
798
799
800
801
802
803
804
805
806
807
808
809
810
811
812
813
814
815
816
817
818
819
820
821
822
823
824
825
826
827
828
829
830
831
832
833
834
835
836
837
838
839
840
841
842
843
844
845
846
847
848
849
850
851
852
853
854
855
856
857
858
859
860
861
862
863
864
865
866
867
868
869
870
871
872
873
874
875
876
877
878
879
880
881
882
883
884
885
886
887
888
889
890
891
892
893
894
895
896
897
898
899
900
901
902
903
904
905
906
907
908
909
910
911
912
913
914
915
916
917
918
919
920
921
922
923
924
925
926
927
928
929
930
931
932
933
934
935
936
937
938
939
940
941
942
943
944
945
946
947
948
949
950
951
952
953
954
955
956
957
958
959
960
961
962
963
964
965
966
967
968
969
970
971
972
973
974
975
976
977
978
979
980
981
982
983
984
985
986
987
988
989
990
991
992
993
994
995
996
997
998
999
1000
1001
1002
1003
1004
1005
1006
1007
1008
1009
1010
1011
1012
1013
1014
1015
1016
1017
1018
1019
1020
1021
1022
1023
1024
1025
1026
1027
1028
1029
1030
1031
1032
1033
1034
1035
1036
1037
1038
1039
1040
1041
1042
1043
1044
1045
1046
1047
1048
1049
1050
1051
1052
1053
1054
1055
1056
1057
1058
1059
1060
1061
1062
1063
1064
1065
1066
1067
1068
1069
1070
1071
1072
1073
1074
1075
1076
1077
1078
1079
1080
1081
1082
1083
1084
1085
1086
1087
1088
1089
1090
1091
1092
1093
1094
1095
1096
1097
1098
1099
1100
1101
1102
1103
1104
1105
1106
1107
1108
1109
1110
1111
1112
1113
1114
1115
1116
1117
1118
1119
1120
1121
1122
1123
1124
1125
1126
1127
1128
1129
1130
1131
1132
1133
1134
1135
1136
1137
1138
1139
1140
1141
1142
1143
1144
1145
1146
1147
1148
1149
1150
1151
1152
1153
1154
1155
1156
1157
1158
1159
1160
1161
1162
1163
1164
1165
1166
1167
1168
1169
1170
1171
1172
1173
1174
1175
1176
1177
1178
1179
1180
1181
1182
1183
1184
1185
1186
1187
1188
1189
1190
1191
1192
1193
1194
1195
1196
1197
1198
1199
1200
1201
1202
1203
1204
1205
1206
1207
1208
1209
1210
1211
1212
1213
1214
1215
1216
1217
1218
1219
1220
1221
1222
1223
1224
1225
1226
1227
1228
1229
1230
1231
1232
1233
1234
1235
1236
1237
1238
1239
1240
1241
1242
1243
1244
1245
1246
1247
1248
1249
1250
1251
1252
1253
1254
1255
1256
1257
1258
1259
1260
1261
1262
1263
1264
1281
1282
1283
1284

VECTORS node_mesh_deformation float
0.0 7.746046372685e-02 0.0 
0.000000000000e+00 1.418834037142e-01 0.0 
0.0 0.000000000000e+00 0.0 
0.000000000000e+00 0.000000000000e+00 0.0 
0.0 7.737826372044e-02 0.0 
0.0 7.692239399327e-02 0.0 
0.0 7.609700932703e-02 0.0 
0.0 7.490132729563e-02 0.0 
0.0 7.332490572809e-02 0.0 
0.0 7.137496237670e-02 0.0 
0.0 6.905034713711e-02 0.0 
0.0 6.634411500091e-02 0.0 
0.0 6.325078886790e-02 0.0 
0.0 5.975919552040e-02 0.0 
0.0 5.585105712835e-02 0.0 
0.0 5.151349396031e-02 0.0 
0.0 4.674071070125e-02 0.0 
0.0 4.154402221198e-02 0.0 
0.0 3.586889621049e-02 0.0 
0.0 2.971163224814e-02 0.0 
0.0 2.306260595297e-02 0.0 
0.0 1.589760230252e-02 0.0 
0.0 8.199920764500e-03 0.0 
0.000000000000e+00 0.000000000000e+00 0.0 
0.000000000000e+00 0.000000000000e+00 0.0 
0.000000000000e+00 0.000000000000e+00 0.0 
0.000000000000e+00 0.000000000000e+00 0.0 
0.000000000000e+00 0.000000000000e+00 0.0 
0.000000000000e+00 0.000000000000e+00 0.0 
0.000000000000e+00 0.000000000000e+00 0.0 
0.000000000000e+00 0.000000000000e+00 0.0 
0.000000000000e+00 0.000000000000e+00 0.0 
0.000000000000e+00 0.000000000000e+00 0.0 
0.000000000000e+00 0.000000000000e+00 0.0 
0.000000000000e+00 0.000000000000e+00 0.0 
0.000000000000e+00 0.000000000000e+00 0.0 
0.000000000000e+00 0.000000000000e+00 0.0 
0.000000000000e+00 0.000000000000e+00 0.0 
0.000000000000e+00 0.000000000000e+00 0.0 
0.000000000000e+00 0.000000000000e+00 0.0 
0.000000000000e+00 0.000000000000e+00 0.0 
0.000000000000e+00 0.000000000000e+00 0.0 
0.000000000000e+00 0.000000000000e+00 0.0 
0.000000000000e+00 0.000000000000e+00 0.0 
0.000000000000e+00 0.000000000000e+00 0.0 
0.000000000000e+00 0.000000000000e+00 0.0 
0.000000000000e+00 0.000000000000e+00 0.0 
0.000000000000e+00 0.000000000000e+00 0.0 
0.000000000000e+00 0.000000000000e+00 0.0 
0.000000000000e+00 0.000000000000e+00 0.0 
0.000000000000e+00 0.000000000000e+00 0.0 
0.000000000000e+00 0.000000000000e+00 0.0 
0.000000000000e+00 0.000000000000e+00 0.0 
0.000000000000e+00 0.000000000000e+00 0.0 
0.000000000000e+00 0.000000000000e+00 0.0 
0.000000000000e+00 0.000000000000e+00 0.0 
0.000000000000e+00 0.000000000000e+00 0.0 
0.000000000000e+00 0.000000000000e+00 0.0 
0.000000000000e+00 0.000000000000e+00 0.0 
0.000000000000e+00 0.000000000000e+00 0.0 
0.000000000000e+00 0.000000000000e+00 0.0 
0.000000000000e+00 0.000000000000e+00 0.0 
0.000000000000e+00 0.000000000000e+00 0.0 
0.000000000000e+00 0.000000000000e+00 0.0 
0.000000000000e+00 0.000000000000e+00 0.0 
0.000000000000e+00 0.000000000000e+00 0.0 
0.000000000000e+00 0.000000000000e+00 0.0 
0.000000000000e+00 0.000000000000e+00 0.0 
0.000000000000e+00 0.000000000000e+00 0.0 
0.000000000000e+00 0.000000000000e+00 0.0 
0.000000000000e+00 0.000000000000e+00 0.0 
0.000000000000e+00 0.000000000000e+00 0.0 
0.000000000000e+00 1.294374613309e-01 0.0 
0.000000000000e+00 1.165739751877e-01 0.0 
0.000000000000e+00 1.032970851577e-01 0.0 
0.000000000000e+00 8.962731907426e-02 0.0 
0.000000000000e+00 7.556836909755e-02 0.0 
0.000000000000e+00 6.114051985306e-02 0.0 
0.000000000000e+00 4.635595761903e-02 0.0 
0.000000000000e+00 3.122868517066e-02 0.0 
0.000000000000e+00 1.577544888845e-02 0.0 
-1.047019142708e-02 1.021187661254e-01 0.0 
1.384184420468e-02 1.371184905454e-01 0.0 
-7.555648712870e-03 1.105152883235e-01 0.0 
-4.608851555716e-03 1.197356039238e-01 0.0 
-1.293825083305e-03 1.288245319378e-01 0.0 
2.249550882549e-03 1.370489342760e-01 0.0 
5.829586295867e-03 1.438769007090e-01 0.0 
9.230393846057e-03 1.488406107267e-01 0.0 
1.208940380123e-02 1.513583964190e-01 0.0 
1.354279504064e-02 1.507412711980e-01 0.0 
1.420397569772e-02 1.454626764836e-01 0.0 
0.000000000000e+00 1.655051495614e-01 0.0 
0.000000000000e+00 1.539096487379e-01 0.0 
8.227384563142e-04 1.418952690892e-01 0.0 
1.639482589702e-03 1.419266750156e-01 0.0 
2.463424392630e-03 1.419623996191e-01 0.0 
3.291564314189e-03 1.419963729034e-01 0.0 
4.123076395530e-03 1.420375013823e-01 0.0 
4.962850952715e-03 1.420537781585e-01 0.0 
5.818116322750e-03 1.420520531457e-01 0.0 
6.677659121898e-03 1.419957245203e-01 0.0 
7.569361770194e-03 1.418843429603e-01 0.0 
8.487883948035e-03 1.416613493006e-01 0.0 
9.435586603935e-03 1.412947133320e-01 0.0 
1.042884730924e-02 1.407379262759e-01 0.0 
1.147898996995e-02 1.399168555575e-01 0.0 
1.260475613037e-02 1.387413528474e-01 0.0 
-9.517740779124e-03 9.748369095507e-02 0.0 
-8.302328908641e-03 9.361898286029e-02 0.0 
-7.046683933471e-03 9.041861718751e-02 0.0 
-5.850451361518e-03 8.779967387156e-02 0.0 
-4.781386379006e-03 8.567147677238e-02 0.0 
-3.824462951979e-03 8.392628250067e-02 0.0 
-2.982964337662e-03 8.250243603245e-02 0.0 
-2.265039690531e-03 8.134841791125e-02 0.0 
-1.660279888345e-03 8.042244819803e-02 0.0 
-1.161546514570e-03 7.969349336242e-02 0.0 
-7.716211350957e-04 7.910547874057e-02 0.0 
-4.532417003569e-04 7.866689422184e-02 0.0 
-2.042316264825e-04 7.830689612634e-02 0.0 
-4.797924118094e-05 7.802698994577e-02 0.0 
4.063223949391e-05 7.782605733606e-02 0.0 
9.096738648529e-05 7.768135755275e-02 0.0 
1.083925114842e-04 7.757653863430e-02 0.0 
9.882112211312e-05 7.750800298630e-02 0.0 
4.796459337575e-05 7.746263714665e-02 0.0 
8.857613762387e-04 1.655463157391e-01 0.0 
1.698502716110e-03 1.655537510378e-01 0.0 
2.512836248442e-03 1.655862018663e-01 0.0 
3.324772125850e-03 1.656242522222e-01 0.0 
4.127662595124e-03 1.656581244251e-01 0.0 
4.916466882499e-03 1.656783659713e-01 0.0 
5.685264430589e-03 1.656717134518e-01 0.0 
6.429231016128e-03 1.656167069187e-01 0.0 
7.145183491104e-03 1.654923489721e-01 0.0 
7.826312998937e-03 1.652689084362e-01 0.0 
8.467849825067e-03 1.649033984927e-01 0.0 
9.070354251620e-03 1.643447380029e-01 0.0 
9.637723456265e-03 1.635291727443e-01 0.0 
1.018146246553e-02 1.623744993753e-01 0.0 
1.072572650547e-02 1.607658683190e-01 0.0 
1.132559268955e-02 1.585542406944e-01 0.0 
1.197621243662e-02 1.554663318256e-01 0.0 
1.304455274887e-02 1.481000315922e-01 0.0 
1.207568819866e-02 1.499977087499e-01 0.0 
1.115801021664e-02 1.513487330979e-01 0.0 
1.031070676514e-02 1.523301287887e-01 0.0 
9.500920944795e-03 1.530170506639e-01 0.0 
8.709389212981e-03 1.534822006835e-01 0.0 
7.926755947111e-03 1.537838466935e-01 0.0 
7.146768869880e-03 1.539623765020e-01 0.0 
6.363336780112e-03 1.540526421863e-01 0.0 
5.579586039033e-03 1.540909306658e-01 0.0 
4.791273617961e-03 1.540859740965e-01 0.0 
4.001759799173e-03 1.540617211859e-01 0.0 
3.207731543995e-03 1.540244565506e-01 0.0 
2.412955185115e-03 1.539883113194e-01 0.0 
1.615440005629e-03 1.539520555964e-01 0.0 
8.065467781009e-04 1.538952437597e-01 0.0 
-8.945286192436e-03 1.061319873477e-01 0.0 
-6.111082980908e-03 1.150871665365e-01 0.0 
-2.964637014571e-03 1.243532263078e-01 0.0 
4.890131720003e-04 1.330840846882e-01 0.0 
4.090159897398e-03 1.407103696999e-01 0.0 
7.611334175571e-03 1.466754653274e-01 0.0 
1.078575436419e-02 1.504390250347e-01 0.0 
1.312242356491e-02 1.515034084087e-01 0.0 
1.404115797295e-02 1.485432021827e-01 0.0 
1.416616092826e-02 1.415653239859e-01 0.0 
-1.921509978455e-03 1.133019069436e-01 0.0 
2.934793197817e-03 8.092431540483e-03 0.0 
-6.839109121017e-04 7.978404880048e-02 0.0 
-3.457351025066e-03 8.634124752303e-02 0.0 
1.843457491089e-03 7.523534626536e-03 0.0 
5.298169492786e-03 1.289878251644e-01 0.0 
5.923732018789e-04 5.778929137315e-02 0.0 
3.824181684230e-03 8.882234220572e-03 0.0 
1.200748101661e-02 1.393672402503e-01 0.0 
4.315206842591e-03 9.659978078659e-03 0.0 
1.601096131691e-02 1.416410632590e-01 0.0 
1.015783356813e-03 6.718555950268e-03 0.0 
1.708135313025e-04 7.799356075590e-02 0.0 
4.427178962295e-03 1.103341198620e-02 0.0 
1.541815600169e-02 1.303606696869e-01 0.0 
4.082938650533e-04 7.018693304513e-02 0.0 
6.211434377147e-04 4.526947877897e-02 0.0 
4.173205051842e-03 1.243462511407e-02 0.0 
2.963962305778e-03 1.275206362503e-02 0.0 
8.228379273518e-04 1.348020785665e-02 0.0 
1.544217312272e-03 1.453605039656e-02 0.0 
2.094575993731e-03 1.283070234630e-02 0.0 
1.260068782267e-02 1.283365406812e-01 0.0 
8.203957712922e-03 1.305261940812e-01 0.0 
5.412444226046e-03 1.305120416331e-01 0.0 
5.358483894042e-04 8.243374879077e-02 0.0 
6.056084640580e-04 7.197870083079e-03 0.0 
-5.913794995703e-03 9.523752315349e-02 0.0 
2.257004294486e-04 7.752633832246e-02 0.0 
4.306553969470e-04 2.696666079178e-02 0.0 
2.798314406100e-03 1.312754711715e-01 0.0 
2.341078655620e-04 7.556844125214e-02 0.0 
4.034093046293e-03 1.429472275763e-02 0.0 
3.809904106145e-03 8.523607113133e-03 0.0 
4.394172774965e-03 1.018964709916e-02 0.0 
3.619738401515e-03 8.968975892763e-03 0.0 
2.355509461154e-03 7.436307316272e-03 0.0 
-2.047680250252e-03 8.281015271410e-02 0.0 
1.025908285289e-02 1.305299957279e-01 0.0 
1.652059819367e-03 8.435159407323e-03 0.0 
4.045482103976e-04 5.442675022825e-02 0.0 
-1.379278615428e-04 7.866459744906e-02 0.0 
5.311405109280e-04 6.485104894488e-02 0.0 
4.058647582852e-04 1.097610226037e-02 0.0 
8.914527671280e-03 1.343617885888e-01 0.0 
1.606289526972e-03 1.215179945953e-01 0.0 
1.458421753127e-02 1.418374084891e-01 0.0 
1.621138448107e-02 1.377757695970e-01 0.0 
-5.494209056000e-03 1.053802450040e-01 0.0 
6.437889933153e-04 1.084040419231e-01 0.0 
2.775939887103e-04 5.676272935975e-03 0.0 
1.024736294593e-04 7.742422682278e-02 0.0 
2.217764589361e-04 2.470315144714e-02 0.0 
1.495779402351e-02 1.253317672133e-01 0.0 
1.620584271731e-02 1.187026435642e-01 0.0 
1.502124738349e-02 1.147436898055e-01 0.0 
1.638417066123e-02 1.069461212195e-01 0.0 
1.519873762170e-02 1.015247449097e-01 0.0 
1.615707201753e-02 9.456981498232e-02 0.0 
1.746876087982e-02 9.964369962547e-02 0.0 
1.693260811064e-02 8.749434640722e-02 0.0 
1.831563293650e-02 9.237217344393e-02 0.0 
1.474268432680e-02 8.881431456700e-02 0.0 
1.746281725132e-02 8.038428390565e-02 0.0 
1.888976019918e-02 8.509577641931e-02 0.0 
1.772423947963e-02 7.334045990493e-02 0.0 
1.916815749540e-02 7.790560815013e-02 0.0 
2.012371057970e-02 8.919590736642e-02 0.0 
2.040365464764e-02 8.192483404584e-02 0.0 
2.111451892168e-02 9.263102133417e-02 0.0 
2.138227785814e-02 8.529892630802e-02 0.0 
2.038595859263e-02 7.489472417818e-02 0.0 
2.135140374116e-02 7.827079802598e-02 0.0 
2.207456797470e-02 8.805725490420e-02 0.0 
2.202462736624e-02 8.106602389103e-02 0.0 
2.245751475966e-02 9.020877580442e-02 0.0 
2.239068083068e-02 8.327559412967e-02 0.0 
2.252675053384e-02 9.180142946684e-02 0.0 
2.245101496100e-02 8.497839435159e-02 0.0 
2.205590489821e-02 7.672183358582e-02 0.0 
2.211505842224e-02 7.857367748388e-02 0.0 
2.221164740944e-02 8.620857870446e-02 0.0 
2.188247393806e-02 7.998483577820e-02 0.0 
2.168712522698e-02 8.701637021548e-02 0.0 
2.137372310568e-02 8.099868716167e-02 0.0 
2.132650880514e-02 7.415656083852e-02 0.0 
2.084175648564e-02 7.540187151285e-02 0.0 
2.060794158579e-02 8.167847333691e-02 0.0 
2.011176566394e-02 7.633816972378e-02 0.0 
1.961097033697e-02 8.207287931003e-02 0.0 
1.916330298705e-02 7.700683480171e-02 0.0 
1.841462916705e-02 8.221897126988e-02 0.0 
1.801882276183e-02 7.745248178895e-02 0.0 
1.854322546266e-02 7.227885887100e-02 0.0 
1.745885579843e-02 7.300532759872e-02 0.0 
1.670949941266e-02 7.772961575284e-02 0.0 
1.622118891096e-02 7.358698645171e-02 0.0 
1.675470569988e-02 6.888795324217e-02 0.0 
1.559403992508e-02 6.976884743841e-02 0.0 
1.592950669463e-02 6.506015059257e-02 0.0 
1.485199997045e-02 6.622390022883e-02 0.0 
1.433374001076e-02 7.051532770660e-02 0.0 
1.367792094085e-02 6.724812673303e-02 0.0 
1.401897616430e-02 6.290293944794e-02 0.0 
1.292948945075e-02 6.421591305365e-02 0.0 
1.242804561130e-02 6.820399997678e-02 0.0 
1.177965105632e-02 6.541032570806e-02 0.0 
1.211779399051e-02 6.133938367276e-02 0.0 
1.105660784909e-02 6.278857923411e-02 0.0 
1.059283413452e-02 6.654235745245e-02 0.0 
9.964425728310e-03 6.414580400860e-02 0.0 
1.028840848479e-02 6.024581298127e-02 0.0 
9.278556699634e-03 6.185494719846e-02 0.0 
8.859005504979e-03 6.545028747014e-02 0.0 
8.262957706821e-03 6.335989807027e-02 0.0 
8.555740873156e-03 5.960082182850e-02 0.0 
7.617629188408e-03 6.133082383803e-02 0.0 
7.798463364814e-03 5.739414751979e-02 0.0 
7.240764831543e-03 6.483571181091e-02 0.0 
6.680598837910e-03 6.298274486646e-02 0.0 
6.242322650808e-03 6.627110544622e-02 0.0 
5.763382430636e-03 6.456643827770e-02 0.0 
2.056989970812e-02 6.869891056626e-02 0.0 
5.300640010573e-03 6.762286773461e-02 0.0 
5.665078612875e-03 6.912901292204e-02 0.0 
4.885541108591e-03 6.607771924207e-02 0.0 
5.233728903077e-03 6.285896927261e-02 0.0 
4.416111261948e-03 6.890782834088e-02 0.0 
4.057847530527e-03 6.751146418150e-02 0.0 
3.601510929550e-03 7.012465939662e-02 0.0 
1.856127483887e-02 8.758221805993e-02 0.0 
2.007826933053e-02 6.813432666998e-02 0.0 
3.291565330974e-03 6.886818680820e-02 0.0 
2.867361351774e-03 7.126910889904e-02 0.0 
3.064942359944e-03 7.237006007402e-02 0.0 
2.383281381722e-03 7.330409370624e-02 0.0 
1.387185885099e-02 9.575390419457e-02 0.0 
1.324250099174e-02 8.260036190067e-02 0.0 
1.249472033656e-02 8.951942949230e-02 0.0 
1.168362683479e-02 7.604378323501e-02 0.0 
1.106303709441e-02 8.283041708596e-02 0.0 
2.216904016113e-03 7.233603976148e-02 0.0 
1.610107928423e-02 6.788279108788e-02 0.0 
1.215033081004e-02 6.907507096680e-02 0.0 
2.223417663747e-02 9.753417011280e-02 0.0 
2.175422601862e-02 9.348009432308e-02 0.0 
1.686959525764e-02 6.374655287486e-02 0.0 
3.641559509488e-03 6.609342941189e-02 0.0 
2.918592448684e-03 6.758426473569e-02 0.0 
3.175859947959e-03 6.464273732617e-02 0.0 
8.632877143210e-03 5.539350187513e-02 0.0 
7.773908894048e-03 5.302496184203e-02 0.0 
8.479347885354e-03 5.073353499535e-02 0.0 
7.537361225145e-03 4.820696952251e-02 0.0 
8.089353350501e-03 4.561371423618e-02 0.0 
7.086196504812e-03 4.292527177059e-02 0.0 
6.608917895820e-03 4.568690329007e-02 0.0 
6.115261056880e-03 4.023017841556e-02 0.0 
5.704385273683e-03 4.315384411619e-02 0.0 
7.461907084357e-03 4.002239743103e-02 0.0 
8.541816779944e-03 4.287915598377e-02 0.0 
5.186472520755e-03 3.751681099662e-02 0.0 
4.833239870700e-03 4.058955677213e-02 0.0 
4.308652177157e-03 3.476546453949e-02 0.0 
4.004670692252e-03 3.798312989701e-02 0.0 
4.394252934270e-03 4.352913053475e-02 0.0 
3.611380931670e-03 4.106447906354e-02 0.0 
3.888886632088e-03 4.633830881651e-02 0.0 
1.586368107075e-02 5.990266909670e-02 0.0 
1.655995703046e-02 5.814342016020e-02 0.0 
1.539044750955e-02 5.428264739128e-02 0.0 
1.581559945012e-02 5.206912805770e-02 0.0 
1.450392147145e-02 4.818598123573e-02 0.0 
1.463378955379e-02 4.551773749151e-02 0.0 
1.319950551193e-02 4.160160254947e-02 0.0 
1.315137039574e-02 4.447974650036e-02 0.0 
1.771128889089e-02 6.633251234266e-02 0.0 
1.527393292857e-02 7.785822309200e-02 0.0 
1.552365222494e-02 8.203371608122e-02 0.0 
1.391979967417e-02 8.171993297932e-02 0.0 
1.390864322083e-02 8.591565426682e-02 0.0 
1.216911604124e-02 8.516726253054e-02 0.0 
1.187196524618e-02 8.940273627930e-02 0.0 
1.002640252619e-02 8.823598992978e-02 0.0 
1.041281639793e-02 8.438066317376e-02 0.0 
8.198605793623e-03 8.707150377337e-02 0.0 
8.673260836954e-03 8.360882103785e-02 0.0 
6.435640850075e-03 8.594558295982e-02 0.0 
6.986938302529e-03 8.289411423298e-02 0.0 
2.147704291726e-02 7.054723740865e-02 0.0 
1.602221948201e-02 4.961228052822e-02 0.0 
1.452133624643e-02 4.258188874602e-02 0.0 
1.597889418980e-02 4.687379166876e-02 0.0 
2.467462470689e-03 7.425350919154e-02 0.0 
3.225800743404e-03 3.532193877785e-02 0.0 
7.710856017672e-03 3.695970794272e-02 0.0 
8.871835576622e-03 4.003790327515e-02 0.0 
1.174616309761e-02 3.783517626043e-02 0.0 
1.797661108818e-03 7.416258765290e-02 0.0 
9.426526597448e-03 9.251926182883e-02 0.0 
1.132941205148e-02 9.410934104163e-02 0.0 
1.011137378114e-02 6.904044005824e-02 0.0 
9.623671877733e-03 7.578065520678e-02 0.0 
7.806425035795e-03 3.372936391285e-02 0.0 
1.652488786474e-03 7.331811679766e-02 0.0 
5.431999934329e-03 3.429994171370e-02 0.0 
5.656239534638e-03 8.939890868066e-02 0.0 
2.868776562750e-03 3.854449323326e-02 0.0 
2.503220622962e-03 3.260230270294e-02 0.0 
6.054016724377e-03 4.830615422127e-02 0.0 
1.413977440420e-02 3.934442995866e-02 0.0 
1.569353510840e-02 4.393958753064e-02 0.0 
8.966654889491e-03 8.049554460118e-02 0.0 
7.358883139901e-03 8.016252858455e-02 0.0 
5.398896465817e-03 8.225136768360e-02 0.0 
5.903443057274e-03 7.976951538801e-02 0.0 
7.579746365815e-03 7.765458995643e-02 0.0 
6.163328727018e-03 7.767293060409e-02 0.0 
4.532443830655e-03 7.953755028996e-02 0.0 
4.866644264476e-03 7.772391727119e-02 0.0 
6.300188921017e-03 7.570611399113e-02 0.0 
5.078247492969e-03 7.602043271598e-02 0.0 
3.706414728205e-03 7.782077786693e-02 0.0 
3.984641406893e-03 7.634654756159e-02 0.0 
2.737195617469e-03 2.909199898798e-02 0.0 
3.915881378514e-03 8.792450557034e-02 0.0 
2.053527563051e-02 1.001936362745e-01 0.0 
6.624161048354e-03 3.054143425338e-02 0.0 
1.150409718927e-02 3.461909163539e-02 0.0 
8.555313412550e-03 6.170510432883e-02 0.0 
8.199776636616e-03 6.842563192522e-02 0.0 
9.024174471172e-03 8.247562614905e-02 0.0 
7.727400144582e-03 7.507255916780e-02 0.0 
6.817096245044e-03 6.079904967661e-02 0.0 
6.469886456649e-03 6.745774167863e-02 0.0 
7.171384952542e-03 8.163779432213e-02 0.0 
6.028617685338e-03 7.403006740402e-02 0.0 
6.557621394506e-03 8.808842504150e-02 0.0 
5.517883089070e-03 8.049959552794e-02 0.0 
4.939110092764e-03 6.623824085483e-02 0.0 
4.524868857459e-03 7.275998935293e-02 0.0 
4.957576389771e-03 8.687354096604e-02 0.0 
4.047618425361e-03 7.919034086762e-02 0.0 
4.361058423214e-03 9.313948102874e-02 0.0 
3.520704073395e-03 8.552381202089e-02 0.0 
3.195798421039e-03 7.137659456230e-02 0.0 
1.326881505038e-03 7.487964236724e-02 0.0 
1.178346099178e-02 4.092155365542e-02 0.0 
1.029593500906e-02 3.418452110333e-02 0.0 
2.508732120574e-03 6.625721889419e-02 0.0 
2.695515433099e-03 6.314465003411e-02 0.0 
3.357274755848e-03 6.130584576389e-02 0.0 
2.773321931885e-03 5.964530222188e-02 0.0 
2.724316713959e-03 7.785049163316e-02 0.0 
2.413711272979e-03 6.345558845938e-02 0.0 
8.588679145639e-03 9.728601136243e-02 0.0 
1.051396773706e-02 9.933664650060e-02 0.0 
8.757914134890e-03 5.492395786824e-02 0.0 
2.172438710155e-03 3.596129492103e-02 0.0 
2.438070833364e-03 4.162875595174e-02 0.0 
2.094700023528e-02 9.365601536696e-02 0.0 
2.072004540106e-02 1.003471484725e-01 0.0 
1.964728300016e-02 9.992047159540e-02 0.0 
1.904121046022e-02 1.069563275738e-01 0.0 
2.018008709400e-02 1.075440522692e-01 0.0 
1.770065572411e-02 1.059287270019e-01 0.0 
9.655496386609e-03 4.585307696429e-02 0.0 
3.922589734110e-03 5.829750847981e-02 0.0 
3.180744520487e-03 7.346151647169e-02 0.0 
2.456298486502e-03 7.519827299658e-02 0.0 
1.845086787144e-03 2.981252230514e-02 0.0 
1.289247708434e-02 4.714331896643e-02 0.0 
2.111336971207e-02 6.807409381079e-02 0.0 
2.029831991225e-02 6.208459983087e-02 0.0 
1.961955993511e-02 5.899575721837e-02 0.0 
1.857257308425e-02 5.318855960446e-02 0.0 
1.756503576324e-02 4.949008670592e-02 0.0 
1.628555144001e-02 4.385846566357e-02 0.0 
1.733186362347e-02 4.768297876865e-02 0.0 
1.345699914705e-02 3.573229146678e-02 0.0 
1.482587129088e-02 3.847466718394e-02 0.0 
3.003449649654e-03 9.188734482541e-02 0.0 
1.734554912978e-02 5.398399030571e-02 0.0 
6.311200784760e-03 7.387189095713e-02 0.0 
1.388061358045e-03 7.557203519359e-02 0.0 
2.668804517263e-03 7.797784529621e-02 0.0 
1.177644018354e-03 7.419944456936e-02 0.0 
1.435189245712e-03 7.243366692080e-02 0.0 
6.467794025101e-03 2.694447191779e-02 0.0 
1.493258483789e-02 3.955616197450e-02 0.0 
1.625798843975e-02 4.530861945803e-02 0.0 
1.810693221546e-02 1.145193572335e-01 0.0 
1.930413149989e-02 1.152304939171e-01 0.0 
1.180349044131e-02 3.131219910775e-02 0.0 
1.162017246768e-02 9.643031212839e-02 0.0 
7.623719842613e-03 9.550537081189e-02 0.0 
6.877043770260e-03 1.018013299041e-01 0.0 
9.147531303442e-04 7.570258667387e-02 0.0 
2.268204421616e-03 7.925959753053e-02 0.0 
5.504845663062e-03 5.296326181240e-02 0.0 
1.316932715726e-02 9.569863090795e-02 0.0 
1.239871937431e-02 1.013257100087e-01 0.0 
2.823116401981e-03 9.135908809612e-02 0.0 
1.145625538889e-03 8.955082925763e-02 0.0 
2.022681254665e-03 6.985025070006e-02 0.0 
1.734645916926e-03 5.540600984718e-02 0.0 
3.440755857485e-03 5.757184570800e-02 0.0 
2.802512413121e-03 5.573071050383e-02 0.0 
7.720801388270e-03 3.028688566539e-02 0.0 
3.032176672651e-03 7.666884372735e-02 0.0 
1.998742425634e-03 4.874207223122e-02 0.0 
1.160964894459e-02 4.377563028103e-02 0.0 
1.244974059220e-02 4.960832833662e-02 0.0 
2.123860699390e-03 6.162197109739e-02 0.0 
7.439629208896e-03 1.026050971987e-01 0.0 
5.490748260591e-03 1.000979936740e-01 0.0 
7.560139223781e-03 7.331347869164e-02 0.0 
4.129066389908e-03 7.495945520847e-02 0.0 
9.723613757369e-04 7.343016939696e-02 0.0 
6.099943725550e-03 2.312924276129e-02 0.0 
5.605548752278e-03 4.622102970560e-02 0.0 
1.593230855425e-02 4.246590600747e-02 0.0 
1.808057144749e-02 5.110672232420e-02 0.0 
1.322585410777e-02 3.335959579348e-02 0.0 
1.884746592065e-03 7.803696559083e-02 0.0 
5.285836159867e-03 2.360082758574e-02 0.0 
1.533366701726e-03 3.330876119064e-02 0.0 
1.341744555623e-02 3.527074925830e-02 0.0 
1.466060605713e-02 4.063991876788e-02 0.0 
1.491941791281e-02 9.720397106554e-02 0.0 
1.426182515996e-02 1.031666971355e-01 0.0 
1.133600782364e-02 1.075339039125e-01 0.0 
1.323425354916e-02 1.097383505598e-01 0.0 
1.864076254113e-02 1.041661188124e-01 0.0 
1.659599869937e-02 9.850503962027e-02 0.0 
2.127134114751e-02 1.030349734076e-01 0.0 
2.039772926857e-02 1.108927806817e-01 0.0 
2.084065427599e-02 1.131316123425e-01 0.0 
2.101610210796e-02 1.077717539309e-01 0.0 
2.018009965525e-02 1.155977190998e-01 0.0 
1.557391888007e-02 8.663026049643e-02 0.0 
1.764590992834e-02 6.224936966450e-02 0.0 
4.065664800900e-03 5.936229055108e-02 0.0 
4.656343639160e-03 4.859380553495e-02 0.0 
9.423566206987e-03 5.328399235512e-02 0.0 
4.157627548054e-03 5.164419268906e-02 0.0 
3.143695213900e-03 4.350236135576e-02 0.0 
5.237030754330e-03 1.006221001107e-01 0.0 
4.553343030494e-03 1.067114915914e-01 0.0 
1.834632790554e-03 7.578123088478e-02 0.0 
1.710176867318e-03 7.658441197586e-02 0.0 
7.020207947315e-03 5.520731467019e-02 0.0 
5.506909085840e-03 2.736097728509e-02 0.0 
7.112847054813e-03 4.732329798263e-02 0.0 
6.990403624712e-03 4.051021332882e-02 0.0 
8.768788374987e-03 4.808649361001e-02 0.0 
7.422216350628e-03 2.661519797724e-02 0.0 
1.375896287924e-02 7.789523333346e-02 0.0 
1.477879950121e-02 5.629589164297e-02 0.0 
2.320325174828e-03 8.662231526267e-02 0.0 
2.076361994334e-02 6.691422667834e-02 0.0 
1.203739958839e-03 7.695420882049e-02 0.0 
1.885648900695e-02 6.421646737317e-02 0.0 
1.261404408260e-03 2.695038540112e-02 0.0 
1.459579807371e-03 2.316650723788e-02 0.0 
1.075014117698e-02 2.722716293391e-02 0.0 
1.701955853729e-02 1.231319022631e-01 0.0 
1.979654888596e-02 6.158044936927e-02 0.0 
1.964355422653e-02 6.361043519016e-02 0.0 
1.966603017326e-02 1.212402623762e-01 0.0 
1.978431358968e-02 1.228677343320e-01 0.0 
2.095770344509e-02 1.146442112864e-01 0.0 
1.955216897181e-02 1.238162295926e-01 0.0 
7.371021289154e-03 7.138006120492e-02 0.0 
6.203131049874e-03 7.216861560604e-02 0.0 
1.159153067786e-02 2.888387688332e-02 0.0 
1.184618911821e-02 2.912228337605e-02 0.0 
1.157432166067e-02 3.030493636048e-02 0.0 
1.278414961611e-02 3.539872659187e-02 0.0 
8.979483292244e-03 2.279562537300e-02 0.0 
1.011263732888e-02 2.703645082683e-02 0.0 
1.150364550341e-03 7.149800962887e-02 0.0 
1.810435261638e-02 1.232781214464e-01 0.0 
4.268140465378e-03 3.815223572536e-02 0.0 
1.922204366843e-02 1.188790071188e-01 0.0 
4.224720772317e-03 2.044047016139e-02 0.0 
4.472281580494e-03 2.417716156027e-02 0.0 
-3.334103929511e-04 8.797819534912e-02 0.0 
9.307141176684e-04 8.521731638596e-02 0.0 
1.368872477293e-03 4.083201544006e-02 0.0 
9.958638072771e-03 1.142390967179e-01 0.0 
1.180404625462e-02 1.168128092222e-01 0.0 
8.024703771301e-03 1.113862989022e-01 0.0 
1.901140023838e-04 1.216605917787e-02 0.0 
1.210487111280e-03 1.313787157337e-01 0.0 
9.459142838630e-04 2.009683404320e-02 0.0 
2.157248906710e-02 1.075172743590e-01 0.0 
1.475970479774e-03 3.343246074824e-02 0.0 
1.868984069146e-02 5.660828033751e-02 0.0 
1.986171460991e-02 9.358554985433e-02 0.0 
9.033659865009e-03 3.366065741600e-02 0.0 
1.109663588103e-03 4.879415383543e-02 0.0 
8.225966965512e-04 3.217525469685e-02 0.0 
7.831818022346e-03 1.087965034617e-01 0.0 
7.018937099211e-03 1.151387253768e-01 0.0 
8.695166327527e-03 1.027080436830e-01 0.0 
4.688304843835e-03 9.329109754003e-02 0.0 
1.169318975577e-03 9.585856331483e-02 0.0 
2.996733572679e-03 5.022139446177e-02 0.0 
2.266617320138e-03 6.898800632598e-02 0.0 
1.861998922502e-03 6.748790896535e-02 0.0 
3.184281607234e-03 7.555473894524e-02 0.0 
4.128497857403e-03 7.369676562742e-02 0.0 
4.119095107173e-03 5.541447631667e-02 0.0 
4.793683483483e-03 5.733382977614e-02 0.0 
1.825373573579e-02 5.764104807875e-02 0.0 
1.677839758418e-02 5.323620207846e-02 0.0 
2.045233398114e-02 6.515548564690e-02 0.0 
1.125325095420e-02 4.642652120266e-02 0.0 
1.185389128826e-02 5.189599239780e-02 0.0 
1.295203356252e-02 5.494290688537e-02 0.0 
3.209015157559e-03 3.720857088245e-02 0.0 
2.139908207482e-03 2.762835991859e-02 0.0 
8.600033291287e-03 7.062876583803e-02 0.0 
8.878964909766e-03 7.279089799422e-02 0.0 
7.068200561331e-03 6.962663707228e-02 0.0 
4.112411290315e-03 3.160204500086e-02 0.0 
1.046482724020e-03 1.622535921380e-02 0.0 
1.556522605606e-03 1.949970545020e-02 0.0 
9.899055004787e-04 7.759480463190e-02 0.0 
1.488407232369e-03 7.738852950150e-02 0.0 
4.064355821509e-03 1.054264020564e-01 0.0 
2.062389521356e-03 1.025636158255e-01 0.0 
6.737528938395e-03 3.424541345581e-02 0.0 
8.571544794783e-03 4.134913801920e-02 0.0 
4.811120018573e-03 2.586144173578e-02 0.0 
6.921045847468e-04 7.271030136993e-02 0.0 
1.671123421174e-02 4.592493892524e-02 0.0 
5.642806400873e-03 1.948394396944e-02 0.0 
7.046470806820e-03 2.314913168903e-02 0.0 
4.101324624703e-03 1.495624326014e-02 0.0 
1.256084000677e-02 3.207271672491e-02 0.0 
9.513014849883e-03 2.320430568793e-02 0.0 
9.919501397103e-03 2.378522670839e-02 0.0 
-1.763878987152e-03 9.074193465951e-02 0.0 
6.187126847834e-04 3.843328814274e-02 0.0 
5.379085787084e-03 1.140001118168e-01 0.0 
-2.700660268243e-03 8.915958263752e-02 0.0 
4.630244692784e-03 1.203589815086e-01 0.0 
3.887355555875e-03 1.127840065024e-01 0.0 
3.995621616568e-03 1.265491680008e-01 0.0 
5.865412076436e-04 7.433242869930e-02 0.0 
8.815985710584e-03 1.179665424710e-01 0.0 
9.820664104872e-03 1.102025799588e-01 0.0 
5.008167736946e-04 7.841684095907e-02 0.0 
2.785084196056e-03 2.350129018343e-02 0.0 
6.464220474189e-04 7.773046371723e-02 0.0 
8.482878468019e-04 7.722572109589e-02 0.0 
3.229080365916e-03 1.699062689004e-02 0.0 
3.522720778921e-03 2.093648920825e-02 0.0 
2.340024471660e-03 1.366061440010e-02 0.0 
2.728243149992e-03 1.805029426528e-02 0.0 
3.670385829336e-03 2.485381811087e-02 0.0 
2.849832585170e-03 2.172761207536e-02 0.0 
6.258305901568e-03 1.222509936946e-01 0.0 
1.866424096378e-03 1.368818727661e-02 0.0 
2.106804315431e-03 1.839308269568e-02 0.0 
1.226089951736e-03 1.053425434782e-02 0.0 
1.801665017825e-02 1.324236658488e-01 0.0 
1.485430871349e-02 1.118347713468e-01 0.0 
1.344059720796e-02 1.193540252454e-01 0.0 
9.836049381359e-03 1.248559479309e-01 0.0 
8.690508612744e-03 2.242577590177e-02 0.0 
1.085928491910e-02 3.027409511041e-02 0.0 
9.551007244479e-04 3.044680863623e-02 0.0 
1.093710054773e-03 3.652858524180e-02 0.0 
3.202078172379e-03 1.197304001234e-01 0.0 
2.339873789424e-03 1.202528495950e-01 0.0 
2.563735519672e-03 1.082551813967e-01 0.0 
1.849146842950e-03 1.097138079794e-01 0.0 
1.994424474255e-03 9.765381963362e-02 0.0 
1.282605437510e-03 9.919649705203e-02 0.0 
1.526718989361e-03 8.684836171637e-02 0.0 
8.168370141203e-03 1.908393381484e-02 0.0 
6.099056447713e-03 1.180014162767e-01 0.0 
1.814206631175e-02 1.295935895665e-01 0.0 
7.184717445519e-03 1.847682719070e-02 0.0 
8.652617310243e-03 2.359012785558e-02 0.0 
1.900360442450e-02 1.238009683448e-01 0.0 
1.645652974051e-02 1.319666719896e-01 0.0 
3.504112177170e-03 1.524683300940e-02 0.0 
1.695230290523e-02 9.270869933390e-02 0.0 
2.106878819063e-03 1.497926907928e-02 0.0 
-6.654013390708e-03 9.906708421025e-02 0.0 
-2.825281718277e-03 9.671345041965e-02 0.0 
1.844145576478e-02 9.344219857512e-02 0.0 
2.074083829262e-02 1.154607786670e-01 0.0 
1.653466391617e-02 1.134548304041e-01 0.0 
1.540838476491e-02 1.210857709583e-01 0.0 
1.032784146153e-02 4.040748277837e-02 0.0 
1.117929643824e-03 7.825810550413e-02 0.0 
6.057167514555e-03 1.083996189936e-01 0.0 
2.224447067547e-03 8.546676131867e-02 0.0 
2.256579725252e-03 1.110538619629e-01 0.0 
5.009059747666e-04 3.325234424734e-02 0.0 
1.712722220040e-02 8.721882384342e-02 0.0 
2.207831726001e-02 9.998414116176e-02 0.0 
9.416087421631e-03 1.050727834398e-01 0.0 
1.613575622657e-02 1.046580580600e-01 0.0 
1.954046991190e-02 9.665186510006e-02 0.0 
1.750020364907e-02 1.115789384178e-01 0.0 
1.842130193458e-02 1.157728064012e-01 0.0 
1.702976799704e-02 8.225457366640e-02 0.0 
1.691597189502e-02 1.223635402613e-01 0.0 
1.367921099574e-02 1.296731365777e-01 0.0 
2.183245494836e-02 9.541357101692e-02 0.0 
1.059061953867e-02 5.531823256458e-02 0.0 
1.049474176740e-02 4.842160763980e-02 0.0 
8.184786033993e-03 3.503220151140e-02 0.0 
1.015098959873e-02 4.170691461041e-02 0.0 
1.242634295735e-02 5.519012262113e-02 0.0 
1.217513128153e-02 4.835413865902e-02 0.0 
9.544769824359e-03 3.526331396769e-02 0.0 
1.164997343502e-02 4.167602004164e-02 0.0 
7.954432247825e-03 2.620319023113e-02 0.0 
1.074448849596e-02 3.489415985485e-02 0.0 
1.370873398456e-02 4.800605661025e-02 0.0 
1.300375347058e-02 4.170916943312e-02 0.0 
1.004228581973e-02 3.017669600453e-02 0.0 
1.571721350497e-02 5.450926924249e-02 0.0 
5.742495604647e-03 1.404543864902e-02 0.0 
1.983570466143e-02 8.767052273201e-02 0.0 
-3.003112976749e-04 9.299178749392e-02 0.0 
-1.295425588797e-03 9.967887389525e-02 0.0 
2.231826594014e-02 9.903476843219e-02 0.0 
3.957315438292e-03 1.278185764186e-02 0.0 
3.326684974091e-03 1.298069319459e-02 0.0 
1.365813479665e-02 9.057970606024e-02 0.0 
4.423804461865e-03 1.057406879903e-02 0.0 
1.962504760220e-02 1.079535788193e-01 0.0 
7.501659730284e-03 9.096727643248e-02 0.0 
4.424177568517e-03 1.004228091762e-02 0.0 
1.241057848059e-02 6.209215455429e-02 0.0 
1.419404010819e-02 6.871122392107e-02 0.0 
1.382129685908e-02 7.568440243454e-02 0.0 
2.586008985219e-03 1.235962851126e-02 0.0 
9.550081714828e-03 9.633695535896e-02 0.0 
3.697880921813e-03 8.409366225891e-03 0.0 
1.706247359241e-02 5.616926591974e-02 0.0 
1.822431545546e-02 6.061728605541e-02 0.0 
1.861314815595e-02 6.669189780722e-02 0.0 
1.416629178210e-02 5.493670767691e-02 0.0 
3.123161594829e-03 8.131033552093e-03 0.0 
5.571059930944e-03 1.537873899409e-02 0.0 
5.154824774479e-03 1.509708890192e-02 0.0 
7.709765026373e-03 2.266963376237e-02 0.0 
2.658684971065e-03 7.803246669795e-03 0.0 
3.964965099396e-03 1.100178853238e-02 0.0 
3.906273217815e-03 1.019822788874e-02 0.0 
7.631862426145e-03 7.540626588590e-02 0.0 
9.052674535212e-03 7.511497520430e-02 0.0 
1.024924506922e-02 7.226546519962e-02 0.0 
1.051726310502e-02 7.486907303198e-02 0.0 
9.086553289219e-03 7.768296711745e-02 0.0 
1.064170228850e-02 7.773434933250e-02 0.0 
1.198822971106e-02 7.465111160295e-02 0.0 
1.060582702324e-02 8.090670619357e-02 0.0 
1.404928149987e-02 4.170947947907e-02 0.0 
2.149350906000e-03 7.296376208750e-03 0.0 
9.113876755132e-03 4.832878856364e-02 0.0 
1.014527973420e-02 5.113471360978e-02 0.0 
1.035156125220e-02 5.592097155816e-02 0.0 
4.665954134071e-03 6.111948982046e-02 0.0 
5.449426073087e-03 5.923529624077e-02 0.0 
5.521787772189e-03 5.520305482671e-02 0.0 
3.903660752612e-03 6.292923682432e-02 0.0 
1.927853887738e-02 5.643775708140e-02 0.0 
1.945615250339e-03 7.266146080795e-03 0.0 
1.363484613197e-02 5.287161633047e-02 0.0 
6.080865724773e-03 6.112115277735e-02 0.0 
1.140708544084e-02 1.295597314562e-01 0.0 
1.228914402048e-02 1.181412135222e-01 0.0 
1.353102276369e-02 1.168468467816e-01 0.0 
1.293927827915e-02 1.046899850679e-01 0.0 
1.094354089087e-02 1.174914856758e-01 0.0 
3.437283220082e-03 5.344143367483e-02 0.0 
2.756708007921e-03 5.141936462824e-02 0.0 
2.154993558471e-03 5.383907157013e-02 0.0 
2.083771299815e-03 4.933920863414e-02 0.0 
1.506741871629e-03 5.187308569783e-02 0.0 
1.559161196228e-03 5.604699747373e-02 0.0 
1.411335105153e-03 4.719300281400e-02 0.0 
8.716957246004e-04 5.037489695463e-02 0.0 
9.200914371334e-03 1.306904381045e-01 0.0 
-2.667572541625e-03 8.440950965960e-02 0.0 
-7.136844901083e-04 8.304511821504e-02 0.0 
-4.320870187264e-04 8.166633556337e-02 0.0 
8.609411903358e-04 8.161827359564e-02 0.0 
8.814941485884e-04 8.302677009453e-02 0.0 
2.657051881005e-03 8.114580442459e-02 0.0 
2.514666935713e-03 8.293555035966e-02 0.0 
-1.064409471633e-03 8.484304670613e-02 0.0 
-1.511008718337e-03 8.157109619916e-02 0.0 
-1.478362444853e-04 8.057972417923e-02 0.0 
-1.055436943334e-03 8.057073738710e-02 0.0 
3.620464130627e-05 7.974330468556e-02 0.0 
1.216623122584e-03 7.931965330669e-02 0.0 
2.375676810367e-03 7.610528576132e-02 0.0 
5.373485734528e-04 8.172446038103e-03 0.0 
5.707792541799e-04 6.155045133110e-02 0.0 
1.086332790149e-03 6.326793484145e-02 0.0 
9.974779751223e-04 6.625432533200e-02 0.0 
1.605691771788e-03 6.471585486067e-02 0.0 
1.092083186238e-03 6.011290196813e-02 0.0 
4.742558640961e-04 6.771807224567e-02 0.0 
8.980377339853e-04 6.865421185551e-02 0.0 
1.761076547759e-04 7.745325695991e-02 0.0 
2.322635451577e-04 7.712419770730e-02 0.0 
9.465754302818e-05 7.714186379297e-02 0.0 
2.648335979500e-04 7.651190915507e-02 0.0 
4.256142455978e-04 7.657120119691e-02 0.0 
3.450325887751e-04 7.716792052191e-02 0.0 
4.370261569746e-04 7.725461242480e-02 0.0 
2.454447237588e-04 7.764053593207e-02 0.0 
5.068759086821e-04 7.737704560877e-02 0.0 
7.451604499309e-04 7.668575809448e-02 0.0 
2.311415536322e-04 7.779346593110e-02 0.0 
4.907616319656e-04 6.830980224678e-02 0.0 
9.375556319000e-04 6.114323041693e-02 0.0 
1.663110778251e-03 7.581058088466e-03 0.0 
7.168883951387e-03 1.300896809334e-01 0.0 
-3.594495102419e-04 7.915907416150e-02 0.0 
7.716941712417e-04 1.620098543811e-02 0.0 
1.198114633723e-03 1.342161198302e-02 0.0 
9.627639435621e-04 1.301256694261e-02 0.0 
3.140551732840e-04 1.980677164962e-02 0.0 
5.098807245614e-04 1.628851804047e-02 0.0 
4.132022821750e-04 1.575467791460e-02 0.0 
3.836174190229e-03 7.136568617949e-02 0.0 
7.547114800808e-03 2.892579182669e-02 0.0 
2.175002546437e-03 4.199339235443e-02 0.0 
6.638329273500e-03 9.525310954183e-02 0.0 
5.119034187324e-03 7.294422267525e-02 0.0 
1.736080752704e-03 3.912981030094e-02 0.0 
5.211184125818e-03 4.592627565325e-02 0.0 
2.059875907632e-03 2.622379530934e-02 0.0 
3.147666556059e-03 4.401152972891e-02 0.0 
3.489618747189e-03 3.195625887013e-02 0.0 
4.867739628672e-03 1.532766876890e-02 0.0 
8.024512454425e-04 7.494207894121e-02 0.0 
5.907533795238e-03 9.441381215810e-02 0.0 
3.773736760238e-03 9.935606129738e-02 0.0 
3.596718860926e-03 6.488128559242e-02 0.0 
2.597691040922e-03 7.014614121617e-02 0.0 
2.190732676740e-03 5.772613060400e-02 0.0 
1.867034001917e-03 7.496833787318e-02 0.0 
8.023436007697e-03 1.923660625190e-02 0.0 
2.169035202307e-02 1.052417416853e-01 0.0 
9.474382139105e-03 5.779772203090e-02 0.0 
4.416835402036e-03 6.451519666937e-02 0.0 
4.710741950467e-03 7.026975408716e-02 0.0 
5.162111133648e-03 7.442398009451e-02 0.0 
2.089081088268e-02 8.747687568393e-02 0.0 
6.941594370209e-03 5.930186114484e-02 0.0 
6.422065539633e-03 3.716938456242e-02 0.0 
2.748851917396e-03 5.687783431729e-02 0.0 
1.130987666871e-04 7.824243820170e-02 0.0 
6.600274355369e-03 3.394465347595e-02 0.0 
6.911593172607e-03 5.066949146572e-02 0.0 
8.350000207486e-03 8.907327992288e-02 0.0 
1.301522173946e-02 3.849124288636e-02 0.0 
3.348534966836e-03 7.930557985244e-02 0.0 
5.275211052769e-03 5.965680428503e-02 0.0 
5.388925820093e-03 3.353712682948e-02 0.0 
1.071272578037e-02 1.032930552073e-01 0.0 
1.324971888496e-03 7.629800278190e-02 0.0 
6.142753790883e-03 1.081563219538e-01 0.0 
4.854782404076e-03 1.962232827522e-02 0.0 
1.044634273148e-02 6.218479691347e-02 0.0 
1.977672882820e-03 7.133673114952e-02 0.0 
1.500854271248e-02 6.148266902872e-02 0.0 
2.228694721929e-02 9.285986850516e-02 0.0 
1.595858218794e-02 1.343764377705e-01 0.0 
2.264068105433e-03 3.573818867072e-02 0.0 
2.012467584196e-02 7.020277901169e-02 0.0 
9.956694091901e-03 3.067010548634e-02 0.0 
1.416062498449e-02 5.062682722432e-02 0.0 
1.680824786490e-03 7.025177286322e-02 0.0 
4.565807033700e-03 2.787859371816e-02 0.0 
1.776975205259e-02 6.785569068876e-02 0.0 
4.290109107984e-03 4.501501255169e-02 0.0 
1.864135757263e-02 5.542633835818e-02 0.0 
1.487185500525e-02 7.404322211389e-02 0.0 
7.042297402130e-03 5.409028765217e-02 0.0 
1.125178336259e-02 5.859700947447e-02 0.0 
1.255493573587e-02 3.506281115729e-02 0.0 
2.180018211330e-02 1.066721902358e-01 0.0 
2.169690940169e-02 7.440312748697e-02 0.0 
1.917085248867e-02 7.100147446121e-02 0.0 
2.154353141366e-02 7.255333088569e-02 0.0 
1.183669647085e-03 4.218744496220e-02 0.0 
5.548010086322e-03 3.092484430802e-02 0.0 
4.787286258782e-03 8.496083104697e-02 0.0 
1.827334259384e-02 9.931585612084e-02 0.0 
1.033134812935e-02 8.959734141024e-02 0.0 
1.351774213928e-02 3.439666717178e-02 0.0 
3.055307388017e-03 2.995503565417e-02 0.0 
2.154094881127e-02 1.003830088099e-01 0.0 
4.504453128448e-03 3.141704916941e-02 0.0 
5.584011098904e-03 3.989156956378e-02 0.0 
6.240160127780e-03 5.726826357216e-02 0.0 
2.830482806400e-04 7.411622239042e-02 0.0 
3.581091187357e-03 9.765210615459e-02 0.0 
1.226863178526e-02 8.133336378497e-02 0.0 
1.944139565060e-02 7.137374526055e-02 0.0 
6.233354221031e-03 5.300304296446e-02 0.0 
5.929643518158e-03 2.610693108940e-02 0.0 
3.644227725075e-03 2.848768719825e-02 0.0 
9.038551003465e-03 3.695953433526e-02 0.0 
-3.639860581767e-03 1.092024073050e-01 0.0 
1.775009033457e-02 1.266430273490e-01 0.0 
2.859211592136e-03 2.549732990113e-02 0.0 
1.401149868708e-02 5.812597173787e-02 0.0 
1.096793121853e-02 3.102813943731e-02 0.0 
9.451333618380e-04 5.435467878276e-02 0.0 
8.014583531047e-03 1.888481072800e-02 0.0 
1.751469450976e-02 1.322400305728e-01 0.0 
2.154915826647e-03 2.243939446003e-02 0.0 
1.041644718488e-02 3.739037005028e-02 0.0 
1.537396672073e-02 9.167043501772e-02 0.0 
2.007924478406e-03 1.313956789699e-01 0.0 
1.361353660680e-03 1.409891359303e-02 0.0 
8.800843820936e-03 3.014386905508e-02 0.0 
2.067840489531e-02 6.472477829389e-02 0.0 
1.310905906796e-02 5.979394726183e-02 0.0 
1.629556768501e-02 1.401988967219e-01 0.0 
5.441930963786e-03 5.079036316165e-02 0.0 
2.104018966712e-02 7.158852487710e-02 0.0 
2.243987477897e-03 1.214969679240e-02 0.0 
8.490368607681e-03 2.697668063238e-02 0.0 
1.543610665226e-02 8.210781704338e-02 0.0 
4.792557533059e-03 5.316590564220e-02 0.0 
1.741744519061e-02 5.172477469263e-02 0.0 
5.870138421895e-04 7.662381347975e-02 0.0 
1.824856570289e-02 1.313648141245e-01 0.0 
4.060542182167e-03 5.107507280491e-02 0.0 
1.220156259609e-02 7.784283156203e-02 0.0 
1.214682239960e-02 5.683974255507e-02 0.0 
7.723534474486e-03 1.875221058438e-02 0.0 
3.339646046242e-03 4.893143662282e-02 0.0 
1.345076282087e-02 7.437244478744e-02 0.0 
2.634671118128e-03 4.673364955373e-02 0.0 
1.551819645492e-02 1.419119929240e-01 0.0 
1.588485306011e-02 7.479953321853e-02 0.0 
1.925818558317e-03 4.447033519683e-02 0.0 
1.949409698084e-02 6.166317999073e-02 0.0 
9.044943969920e-04 7.676711771167e-02 0.0 
1.968803604332e-02 5.926179363101e-02 0.0 
7.406738431481e-04 2.355511657364e-02 0.0 
6.680016971606e-03 6.794021490141e-02 0.0 
1.116134873326e-02 5.400846670692e-02 0.0 
1.431076596315e-02 6.174828453585e-02 0.0 
1.332605972986e-02 1.409668531509e-01 0.0 
1.076897181703e-02 4.888355601005e-02 0.0 
1.738531888491e-02 5.138819156386e-02 0.0 
1.853649602260e-02 5.409497019108e-02 0.0 
1.924650493779e-02 6.529144271084e-02 0.0 
1.006173844534e-02 4.319738862400e-02 0.0 
1.537584539015e-02 1.306343723577e-01 0.0 
3.975873030003e-03 7.260254308229e-02 0.0 
3.221363933323e-03 7.449856880388e-02 0.0 
1.300023991143e-02 7.116020483293e-02 0.0 
1.583489896145e-02 4.677196168690e-02 0.0 
4.892540071437e-04 7.572270373820e-02 0.0 
1.602822466440e-02 6.093615834180e-02 0.0 
2.177291559255e-03 7.706205828285e-02 0.0 
1.163230647687e-02 7.173570131475e-02 0.0 
1.505099029790e-02 4.037427693175e-02 0.0 
5.816052900229e-04 9.575637882268e-02 0.0 
1.116118584322e-02 6.903884141845e-02 0.0 
3.378456170453e-04 7.232873488094e-02 0.0 
9.874040863483e-03 6.986302864514e-02 0.0 
1.856897347842e-02 5.871257239573e-02 0.0 
9.410753420285e-03 6.757735976812e-02 0.0 
8.224211688900e-03 6.860858856835e-02 0.0 
1.512724481451e-03 2.743912724980e-02 0.0 
7.767966787982e-03 6.667971522560e-02 0.0 
2.019949344998e-04 1.306216449704e-02 0.0 
2.233698406340e-04 7.430562918294e-03 0.0 
7.577541228443e-04 1.218026951751e-01 0.0 
9.794905613980e-03 1.388241526139e-01 0.0 
-5.057357469088e-03 9.166377424123e-02 0.0 
1.241596186310e-02 1.259168636704e-01 0.0 
5.978106959528e-03 7.062330666205e-02 0.0 
1.741317048430e-02 5.975105506574e-02 0.0 
1.574741742544e-03 1.212200890214e-01 0.0 
4.943754397425e-03 7.160307510721e-02 0.0 
7.443439467849e-03 2.236945979397e-02 0.0 
3.953930752314e-03 8.810872160829e-03 0.0 
1.056545919795e-03 7.464096264248e-02 0.0 
9.507344205748e-03 2.748545367628e-02 0.0 
1.717588235147e-02 4.887246151162e-02 0.0 
3.055125035445e-04 3.992436870878e-02 0.0 
4.630818096508e-03 1.323926991532e-01 0.0 
2.056589802031e-04 7.907324668847e-02 0.0 
5.696674056610e-04 3.923101948476e-02 0.0 
6.252312543758e-03 1.331836413797e-01 0.0 
7.857573194332e-03 1.213989802903e-01 0.0 
4.050249669564e-03 1.146118757592e-01 0.0 
1.308507076699e-03 6.935277792020e-02 0.0 
9.114298105342e-04 8.045272623692e-02 0.0 
3.527262455570e-03 1.252737691509e-01 0.0 
6.096205183479e-03 1.615826764648e-02 0.0 
7.819674571998e-03 1.207959954383e-01 0.0 
1.442633233214e-02 3.753550613551e-02 0.0 
-1.302338091911e-04 1.173651938997e-01 0.0 
3.882063940530e-03 2.604097505358e-02 0.0 
7.629227780608e-03 1.786524580371e-02 0.0 
1.153354154672e-03 6.611756115376e-03 0.0 
1.137792605451e-02 2.807992886960e-02 0.0 
2.361372823820e-04 1.075306113967e-01 0.0 
1.175669235831e-02 1.081446673472e-01 0.0 
7.979931758179e-03 1.965162135908e-02 0.0 
1.436775184260e-03 6.321303492683e-02 0.0 
8.233156858024e-04 6.306781925698e-03 0.0 
9.838643339535e-03 1.214087301362e-01 0.0 
9.140296911596e-04 2.562790117594e-02 0.0 
3.346212892840e-03 8.412829570996e-02 0.0 
4.586186202218e-04 2.488007744027e-02 0.0 
1.500909294743e-02 4.788669105024e-02 0.0 
3.232618540387e-03 1.054734636722e-01 0.0 
1.417607850188e-02 1.068207895383e-01 0.0 
6.165667965368e-04 1.284114031223e-02 0.0 
6.701624016017e-03 2.355216494065e-02 0.0 
-1.640354735166e-03 1.036218899420e-01 0.0 
1.658126849790e-03 7.607221101418e-02 0.0 
2.166546955308e-03 6.471954162904e-02 0.0 
-1.893336865525e-03 8.703246088516e-02 0.0 
2.894408701346e-03 1.382901522241e-02 0.0 
1.211884226323e-02 3.613423996514e-02 0.0 
1.034230891520e-03 1.312665065933e-02 0.0 
1.120155193106e-04 7.655931267599e-02 0.0 
3.854136755592e-04 7.818858060043e-02 0.0 
3.287613731422e-03 1.299844676779e-02 0.0 
7.357893662995e-03 1.962865116583e-02 0.0 
4.255416543298e-03 8.122999207924e-02 0.0 
1.294414591840e-03 1.047135964705e-02 0.0 
-4.205353768683e-03 1.009443649875e-01 0.0 
6.281530160550e-03 1.336594838808e-01 0.0 
5.146907557423e-04 7.756995998264e-02 0.0 
6.548379439595e-04 6.358128701446e-03 0.0 
2.254650622341e-03 2.446393895406e-02 0.0 
1.531758350860e-03 6.173161803611e-02 0.0 
1.375828893917e-02 1.262001114548e-01 0.0 
7.789952311763e-04 7.089783516637e-02 0.0 
1.065452100779e-02 2.589184543960e-02 0.0 
9.236417750653e-04 7.888286097583e-02 0.0 
1.517469204678e-03 2.314608300281e-02 0.0 
3.884752646618e-03 1.296395256417e-02 0.0 
4.706952717555e-03 2.235031514230e-02 0.0 
2.604910908591e-03 6.219499163329e-03 0.0 
-3.174488271167e-03 9.341735760983e-02 0.0 
6.793767468697e-03 1.567940165705e-02 0.0 
6.680192420500e-03 2.060810160380e-02 0.0 
3.490410763661e-03 1.329071714577e-01 0.0 
5.893227888137e-03 2.349876660096e-02 0.0 
1.382274424317e-03 6.722617046686e-02 0.0 
1.067060057617e-03 7.593199913281e-02 0.0 
8.696961628374e-05 1.157511809517e-02 0.0 
4.135165467234e-05 7.740609674952e-02 0.0 
5.888244026337e-04 1.328155814656e-01 0.0 
8.896844578299e-05 6.059362469582e-03 0.0 
6.401714813835e-04 7.596209995056e-02 0.0 
1.251221730250e-03 1.122967071079e-01 0.0 
6.900881264528e-03 1.935636486624e-02 0.0 
4.099201061705e-04 5.362800659588e-02 0.0 
7.112699105960e-04 4.961675521050e-02 0.0 
2.003195945665e-03 8.029907412963e-02 0.0 
-4.618391481408e-03 8.868356478042e-02 0.0 
1.007480504356e-03 8.891158536613e-02 0.0 
6.643395633752e-03 1.567801825059e-02 0.0 
3.638650435889e-03 2.168043682095e-02 0.0 
2.596931900470e-03 9.814125811286e-02 0.0 
1.051570864149e-03 9.983145477317e-02 0.0 
9.545502977261e-03 2.715930181408e-02 0.0 
1.644686700989e-03 5.898425329300e-02 0.0 
1.062656005321e-02 2.678578289110e-02 0.0 
7.655736861047e-03 2.143329082393e-02 0.0 
-6.995913537203e-03 1.026517054370e-01 0.0 
3.689757585895e-04 4.919021726459e-02 0.0 
4.724133176586e-04 7.777762533731e-02 0.0 
1.901918429284e-03 1.215626282571e-02 0.0 
1.091953876073e-03 5.722867132790e-02 0.0 
1.301107703671e-02 1.516441696534e-01 0.0 
4.086964694210e-04 1.597610586672e-01 0.0 
1.332564813832e-02 1.438418490603e-01 0.0 
4.053120844887e-04 1.479495182596e-01 0.0 

VECTORS node_bounda_dof_materi_velocity_x float
1.000000000000e+00 0.0 0.0 
1.000000000000e+00 0.0 0.0 
1.000000000000e+00 0.0 0.0 
1.000000000000e+00 0.0 0.0 
1.000000000000e+00 0.0 0.0 
1.000000000000e+00 0.0 0.0 
1.000000000000e+00 0.0 0.0 
1.000000000000e+00 0.0 0.0 
1.000000000000e+00 0.0 0.0 
1.000000000000e+00 0.0 0.0 
1.000000000000e+00 0.0 0.0 
1.000000000000e+00 0.0 0.0 
1.000000000000e+00 0.0 0.0 
1.000000000000e+00 0.0 0.0 
1.000000000000e+00 0.0 0.0 
1.000000000000e+00 0.0 0.0 
1.000000000000e+00 0.0 0.0 
1.000000000000e+00 0.0 0.0 
1.000000000000e+00 0.0 0.0 
1.000000000000e+00 0.0 0.0 
1.000000000000e+00 0.0 0.0 
1.000000000000e+00 0.0 0.0 
1.000000000000e+00 0.0 0.0 
1.000000000000e+00 0.0 0.0 
1.000000000000e+00 0.0 0.0 
1.000000000000e+00 0.0 0.0 
1.000000000000e+00 0.0 0.0 
1.000000000000e+00 0.0 0.0 
1.000000000000e+00 0.0 0.0 
1.000000000000e+00 0.0 0.0 
1.000000000000e+00 0.0 0.0 
1.000000000000e+00 0.0 0.0 
1.000000000000e+00 0.0 0.0 
1.000000000000e+00 0.0 0.0 
1.000000000000e+00 0.0 0.0 
1.000000000000e+00 0.0 0.0 
1.000000000000e+00 0.0 0.0 
1.000000000000e+00 0.0 0.0 
1.000000000000e+00 0.0 0.0 
1.000000000000e+00 0.0 0.0 
1.000000000000e+00 0.0 0.0 
1.000000000000e+00 0.0 0.0 
1.000000000000e+00 0.0 0.0 
1.000000000000e+00 0.0 0.0 
1.000000000000e+00 0.0 0.0 
1.000000000000e+00 0.0 0.0 
1.000000000000e+00 0.0 0.0 
1.000000000000e+00 0.0 0.0 
1.000000000000e+00 0.0 0.0 
1.000000000000e+00 0.0 0.0 
1.000000000000e+00 0.0 0.0 
1.000000000000e+00 0.0 0.0 
1.000000000000e+00 0.0 0.0 
1.000000000000e+00 0.0 0.0 
1.000000000000e+00 0.0 0.0 
1.000000000000e+00 0.0 0.0 
1.000000000000e+00 0.0 0.0 
1.000000000000e+00 0.0 0.0 
1.000000000000e+00 0.0 0.0 
1.000000000000e+00 0.0 0.0 
1.000000000000e+00 0.0 0.0 
1.000000000000e+00 0.0 0.0 
1.000000000000e+00 0.0 0.0 
1.000000000000e+00 0.0 0.0 
1.000000000000e+00 0.0 0.0 
1.000000000000e+00 0.0 0.0 
1.000000000000e+00 0.0 0.0 
1.000000000000e+00 0.0 0.0 
1.000000000000e+00 0.0 0.0 
1.000000000000e+00 0.0 0.0 
1.000000000000e+00 0.0 0.0 
1.000000000000e+00 0.0 0.0 
1.000000000000e+00 0.0 0.0 
1.000000000000e+00 0.0 0.0 
1.000000000000e+00 0.0 0.0 
1.000000000000e+00 0.0 0.0 
1.000000000000e+00 0.0 0.0 
1.000000000000e+00 0.0 0.0 
1.000000000000e+00 0.0 0.0 
1.000000000000e+00 0.0 0.0 
1.000000000000e+00 0.0 0.0 
0.0 0.0 0.0 
0.0 0.0 0.0 
0.0 0.0 0.0 
0.0 0.0 0.0 
0.0 0.0 0.0 
0.0 0.0 0.0 
0.0 0.0 0.0 
0.0 0.0 0.0 
0.0 0.0 0.0 
0.0 0.0 0.0 
0.0 0.0 0.0 
1.000000000000e+00 0.0 0.0 
1.000000000000e+00 0.0 0.0 
0.0 0.0 0.0 
0.0 0.0 0.0 
0.0 0.0 0.0 
0.0 0.0 0.0 
0.0 0.0 0.0 
0.0 0.0 0.0 
0.0 0.0 0.0 
0.0 0.0 0.0 
0.0 0.0 0.0 
0.0 0.0 0.0 
0.0 0.0 0.0 
0.0 0.0 0.0 
0.0 0.0 0.0 
0.0 0.0 0.0 
0.0 0.0 0.0 
0.0 0.0 0.0 
0.0 0.0 0.0 
0.0 0.0 0.0 
0.0 0.0 0.0 
0.0 0.0 0.0 
0.0 0.0 0.0 
0.0 0.0 0.0 
0.0 0.0 0.0 
0.0 0.0 0.0 
0.0 0.0 0.0 
0.0 0.0 0.0 
0.0 0.0 0.0 
0.0 0.0 0.0 
0.0 0.0 0.0 
0.0 0.0 0.0 
0.0 0.0 0.0 
0.0 0.0 0.0 
0.0 0.0 0.0 
0.0 0.0 0.0 
0.0 0.0 0.0 
0.0 0.0 0.0 
0.0 0.0 0.0 
0.0 0.0 0.0 
0.0 0.0 0.0 
0.0 0.0 0.0 
0.0 0.0 0.0 
0.0 0.0 0.0 
0.0 0.0 0.0 
0.0 0.0 0.0 
0.0 0.0 0.0 
0.0 0.0 0.0 
0.0 0.0 0.0 
0.0 0.0 0.0 
0.0 0.0 0.0 
0.0 0.0 0.0 
0.0 0.0 0.0 
0.0 0.0 0.0 
0.0 0.0 0.0 
0.0 0.0 0.0 
0.0 0.0 0.0 
0.0 0.0 0.0 
0.0 0.0 0.0 
0.0 0.0 0.0 
0.0 0.0 0.0 
0.0 0.0 0.0 
0.0 0.0 0.0 
0.0 0.0 0.0 
0.0 0.0 0.0 
0.0 0.0 0.0 
0.0 0.0 0.0 
0.0 0.0 0.0 
0.0 0.0 0.0 
0.0 0.0 0.0 
0.0 0.0 0.0 
0.0 0.0 0.0 
0.0 0.0 0.0 
0.0 0.0 0.0 
0.0 0.0 0.0 
0.0 0.0 0.0 
0.0 0.0 0.0 
0.0 0.0 0.0 
0.0 0.0 0.0 
0.0 0.0 0.0 
0.0 0.0 0.0 
0.0 0.0 0.0 
0.0 0.0 0.0 
0.0 0.0 0.0 
0.0 0.0 0.0 
0.0 0.0 0.0 
0.0 0.0 0.0 
0.0 0.0 0.0 
0.0 0.0 0.0 
0.0 0.0 0.0 
0.0 0.0 0.0 
0.0 0.0 0.0 
0.0 0.0 0.0 
0.0 0.0 0.0 
0.0 0.0 0.0 
0.0 0.0 0.0 
0.0 0.0 0.0 
0.0 0.0 0.0 
0.0 0.0 0.0 
0.0 0.0 0.0 
0.0 0.0 0.0 
0.0 0.0 0.0 
0.0 0.0 0.0 
0.0 0.0 0.0 
0.0 0.0 0.0 
0.0 0.0 0.0 
0.0 0.0 0.0 
0.0 0.0 0.0 
0.0 0.0 0.0 
0.0 0.0 0.0 
0.0 0.0 0.0 
0.0 0.0 0.0 
0.0 0.0 0.0 
0.0 0.0 0.0 
0.0 0.0 0.0 
0.0 0.0 0.0 
0.0 0.0 0.0 
0.0 0.0 0.0 
0.0 0.0 0.0 
0.0 0.0 0.0 
0.0 0.0 0.0 
0.0 0.0 0.0 
0.0 0.0 0.0 
0.0 0.0 0.0 
0.0 0.0 0.0 
0.0 0.0 0.0 
0.0 0.0 0.0 
0.0 0.0 0.0 
0.0 0.0 0.0 
0.0 0.0 0.0 
0.0 0.0 0.0 
0.0 0.0 0.0 
0.0 0.0 0.0 
0.0 0.0 0.0 
0.0 0.0 0.0 
0.0 0.0 0.0 
0.0 0.0 0.0 
0.0 0.0 0.0 
0.0 0.0 0.0 
0.0 0.0 0.0 
0.0 0.0 0.0 
0.0 0.0 0.0 
0.0 0.0 0.0 
0.0 0.0 0.0 
0.0 0.0 0.0 
0.0 0.0 0.0 
0.0 0.0 0.0 
0.0 0.0 0.0 
0.0 0.0 0.0 
0.0 0.0 0.0 
0.0 0.0 0.0 
0.0 0.0 0.0 
0.0 0.0 0.0 
0.0 0.0 0.0 
0.0 0.0 0.0 
0.0 0.0 0.0 
0.0 0.0 0.0 
0.0 0.0 0.0 
0.0 0.0 0.0 
0.0 0.0 0.0 
0.0 0.0 0.0 
0.0 0.0 0.0 
0.0 0.0 0.0 
0.0 0.0 0.0 
0.0 0.0 0.0 
0.0 0.0 0.0 
0.0 0.0 0.0 
0.0 0.0 0.0 
0.0 0.0 0.0 
0.0 0.0 0.0 
0.0 0.0 0.0 
0.0 0.0 0.0 
0.0 0.0 0.0 
0.0 0.0 0.0 
0.0 0.0 0.0 
0.0 0.0 0.0 
0.0 0.0 0.0 
0.0 0.0 0.0 
0.0 0.0 0.0 
0.0 0.0 0.0 
0.0 0.0 0.0 
0.0 0.0 0.0 
0.0 0.0 0.0 
0.0 0.0 0.0 
0.0 0.0 0.0 
0.0 0.0 0.0 
0.0 0.0 0.0 
0.0 0.0 0.0 
0.0 0.0 0.0 
0.0 0.0 0.0 
0.0 0.0 0.0 
0.0 0.0 0.0 
0.0 0.0 0.0 
0.0 0.0 0.0 
0.0 0.0 0.0 
0.0 0.0 0.0 
0.0 0.0 0.0 
0.0 0.0 0.0 
0.0 0.0 0.0 
0.0 0.0 0.0 
0.0 0.0 0.0 
0.0 0.0 0.0 
0.0 0.0 0.0 
0.0 0.0 0.0 
0.0 0.0 0.0 
0.0 0.0 0.0 
0.0 0.0 0.0 
0.0 0.0 0.0 
0.0 0.0 0.0 
0.0 0.0 0.0 
0.0 0.0 0.0 
0.0 0.0 0.0 
0.0 0.0 0.0 
0.0 0.0 0.0 
0.0 0.0 0.0 
0.0 0.0 0.0 
0.0 0.0 0.0 
0.0 0.0 0.0 
0.0 0.0 0.0 
0.0 0.0 0.0 
0.0 0.0 0.0 
0.0 0.0 0.0 
0.0 0.0 0.0 
0.0 0.0 0.0 
0.0 0.0 0.0 
0.0 0.0 0.0 
0.0 0.0 0.0 
0.0 0.0 0.0 
0.0 0.0 0.0 
0.0 0.0 0.0 
0.0 0.0 0.0 
0.0 0.0 0.0 
0.0 0.0 0.0 
0.0 0.0 0.0 
0.0 0.0 0.0 
0.0 0.0 0.0 
0.0 0.0 0.0 
0.0 0.0 0.0 
0.0 0.0 0.0 
0.0 0.0 0.0 
0.0 0.0 0.0 
0.0 0.0 0.0 
0.0 0.0 0.0 
0.0 0.0 0.0 
0.0 0.0 0.0 
0.0 0.0 0.0 
0.0 0.0 0.0 
0.0 0.0 0.0 
0.0 0.0 0.0 
0.0 0.0 0.0 
0.0 0.0 0.0 
0.0 0.0 0.0 
0.0 0.0 0.0 
0.0 0.0 0.0 
0.0 0.0 0.0 
0.0 0.0 0.0 
0.0 0.0 0.0 
0.0 0.0 0.0 
0.0 0.0 0.0 
0.0 0.0 0.0 
0.0 0.0 0.0 
0.0 0.0 0.0 
0.0 0.0 0.0 
0.0 0.0 0.0 
0.0 0.0 0.0 
0.0 0.0 0.0 
0.0 0.0 0.0 
0.0 0.0 0.0 
0.0 0.0 0.0 
0.0 0.0 0.0 
0.0 0.0 0.0 
0.0 0.0 0.0 
0.0 0.0 0.0 
0.0 0.0 0.0 
0.0 0.0 0.0 
0.0 0.0 0.0 
0.0 0.0 0.0 
0.0 0.0 0.0 
0.0 0.0 0.0 
0.0 0.0 0.0 
0.0 0.0 0.0 
0.0 0.0 0.0 
0.0 0.0 0.0 
0.0 0.0 0.0 
0.0 0.0 0.0 
0.0 0.0 0.0 
0.0 0.0 0.0 
0.0 0.0 0.0 
0.0 0.0 0.0 
0.0 0.0 0.0 
0.0 0.0 0.0 
0.0 0.0 0.0 
0.0 0.0 0.0 
0.0 0.0 0.0 
0.0 0.0 0.0 
0.0 0.0 0.0 
0.0 0.0 0.0 
0.0 0.0 0.0 
0.0 0.0 0.0 
0.0 0.0 0.0 
0.0 0.0 0.0 
0.0 0.0 0.0 
0.0 0.0 0.0 
0.0 0.0 0.0 
0.0 0.0 0.0 
0.0 0.0 0.0 
0.0 0.0 0.0 
0.0 0.0 0.0 
0.0 0.0 0.0 
0.0 0.0 0.0 
0.0 0.0 0.0 
0.0 0.0 0.0 
0.0 0.0 0.0 
0.0 0.0 0.0 
0.0 0.0 0.0 
0.0 0.0 0.0 
0.0 0.0 0.0 
0.0 0.0 0.0 
0.0 0.0 0.0 
0.0 0.0 0.0 
0.0 0.0 0.0 
0.0 0.0 0.0 
0.0 0.0 0.0 
0.0 0.0 0.0 
0.0 0.0 0.0 
0.0 0.0 0.0 
0.0 0.0 0.0 
0.0 0.0 0.0 
0.0 0.0 0.0 
0.0 0.0 0.0 
0.0 0.0 0.0 
0.0 0.0 0.0 
0.0 0.0 0.0 
0.0 0.0 0.0 
0.0 0.0 0.0 
0.0 0.0 0.0 
0.0 0.0 0.0 
0.0 0.0 0.0 
0.0 0.0 0.0 
0.0 0.0 0.0 
0.0 0.0 0.0 
0.0 0.0 0.0 
0.0 0.0 0.0 
0.0 0.0 0.0 
0.0 0.0 0.0 
0.0 0.0 0.0 
0.0 0.0 0.0 
0.0 0.0 0.0 
0.0 0.0 0.0 
0.0 0.0 0.0 
0.0 0.0 0.0 
0.0 0.0 0.0 
0.0 0.0 0.0 
0.0 0.0 0.0 
0.0 0.0 0.0 
0.0 0.0 0.0 
0.0 0.0 0.0 
0.0 0.0 0.0 
0.0 0.0 0.0 
0.0 0.0 0.0 
0.0 0.0 0.0 
0.0 0.0 0.0 
0.0 0.0 0.0 
0.0 0.0 0.0 
0.0 0.0 0.0 
0.0 0.0 0.0 
0.0 0.0 0.0 
0.0 0.0 0.0 
0.0 0.0 0.0 
0.0 0.0 0.0 
0.0 0.0 0.0 
0.0 0.0 0.0 
0.0 0.0 0.0 
0.0 0.0 0.0 
0.0 0.0 0.0 
0.0 0.0 0.0 
0.0 0.0 0.0 
0.0 0.0 0.0 
0.0 0.0 0.0 
0.0 0.0 0.0 
0.0 0.0 0.0 
0.0 0.0 0.0 
0.0 0.0 0.0 
0.0 0.0 0.0 
0.0 0.0 0.0 
0.0 0.0 0.0 
0.0 0.0 0.0 
0.0 0.0 0.0 
0.0 0.0 0.0 
0.0 0.0 0.0 
0.0 0.0 0.0 
0.0 0.0 0.0 
0.0 0.0 0.0 
0.0 0.0 0.0 
0.0 0.0 0.0 
0.0 0.0 0.0 
0.0 0.0 0.0 
0.0 0.0 0.0 
0.0 0.0 0.0 
0.0 0.0 0.0 
0.0 0.0 0.0 
0.0 0.0 0.0 
0.0 0.0 0.0 
0.0 0.0 0.0 
0.0 0.0 0.0 
0.0 0.0 0.0 
0.0 0.0 0.0 
0.0 0.0 0.0 
0.0 0.0 0.0 
0.0 0.0 0.0 
0.0 0.0 0.0 
0.0 0.0 0.0 
0.0 0.0 0.0 
0.0 0.0 0.0 
0.0 0.0 0.0 
0.0 0.0 0.0 
0.0 0.0 0.0 
0.0 0.0 0.0 
0.0 0.0 0.0 
0.0 0.0 0.0 
0.0 0.0 0.0 
0.0 0.0 0.0 
0.0 0.0 0.0 
0.0 0.0 0.0 
0.0 0.0 0.0 
0.0 0.0 0.0 
0.0 0.0 0.0 
0.0 0.0 0.0 
0.0 0.0 0.0 
0.0 0.0 0.0 
0.0 0.0 0.0 
0.0 0.0 0.0 
0.0 0.0 0.0 
0.0 0.0 0.0 
0.0 0.0 0.0 
0.0 0.0 0.0 
0.0 0.0 0.0 
0.0 0.0 0.0 
0.0 0.0 0.0 
0.0 0.0 0.0 
0.0 0.0 0.0 
0.0 0.0 0.0 
0.0 0.0 0.0 
0.0 0.0 0.0 
0.0 0.0 0.0 
0.0 0.0 0.0 
0.0 0.0 0.0 
0.0 0.0 0.0 
0.0 0.0 0.0 
0.0 0.0 0.0 
0.0 0.0 0.0 
0.0 0.0 0.0 
0.0 0.0 0.0 
0.0 0.0 0.0 
0.0 0.0 0.0 
0.0 0.0 0.0 
0.0 0.0 0.0 
0.0 0.0 0.0 
0.0 0.0 0.0 
0.0 0.0 0.0 
0.0 0.0 0.0 
0.0 0.0 0.0 
0.0 0.0 0.0 
0.0 0.0 0.0 
0.0 0.0 0.0 
0.0 0.0 0.0 
0.0 0.0 0.0 
0.0 0.0 0.0 
0.0 0.0 0.0 
0.0 0.0 0.0 
0.0 0.0 0.0 
0.0 0.0 0.0 
0.0 0.0 0.0 
0.0 0.0 0.0 
0.0 0.0 0.0 
0.0 0.0 0.0 
0.0 0.0 0.0 
0.0 0.0 0.0 
0.0 0.0 0.0 
0.0 0.0 0.0 
0.0 0.0 0.0 
0.0 0.0 0.0 
0.0 0.0 0.0 
0.0 0.0 0.0 
0.0 0.0 0.0 
0.0 0.0 0.0 
0.0 0.0 0.0 
0.0 0.0 0.0 
0.0 0.0 0.0 
0.0 0.0 0.0 
0.0 0.0 0.0 
0.0 0.0 0.0 
0.0 0.0 0.0 
0.0 0.0 0.0 
0.0 0.0 0.0 
0.0 0.0 0.0 
0.0 0.0 0.0 
0.0 0.0 0.0 
0.0 0.0 0.0 
0.0 0.0 0.0 
0.0 0.0 0.0 
0.0 0.0 0.0 
0.0 0.0 0.0 
0.0 0.0 0.0 
0.0 0.0 0.0 
0.0 0.0 0.0 
0.0 0.0 0.0 
0.0 0.0 0.0 
0.0 0.0 0.0 
0.0 0.0 0.0 
0.0 0.0 0.0 
0.0 0.0 0.0 
0.0 0.0 0.0 
0.0 0.0 0.0 
0.0 0.0 0.0 
0.0 0.0 0.0 
0.0 0.0 0.0 
0.0 0.0 0.0 
0.0 0.0 0.0 
0.0 0.0 0.0 
0.0 0.0 0.0 
0.0 0.0 0.0 
0.0 0.0 0.0 
0.0 0.0 0.0 
0.0 0.0 0.0 
0.0 0.0 0.0 
0.0 0.0 0.0 
0.0 0.0 0.0 
0.0 0.0 0.0 
0.0 0.0 0.0 
0.0 0.0 0.0 
0.0 0.0 0.0 
0.0 0.0 0.0 
0.0 0.0 0.0 
0.0 0.0 0.0 
0.0 0.0 0.0 
0.0 0.0 0.0 
0.0 0.0 0.0 
0.0 0.0 0.0 
0.0 0.0 0.0 
0.0 0.0 0.0 
0.0 0.0 0.0 
0.0 0.0 0.0 
0.0 0.0 0.0 
0.0 0.0 0.0 
0.0 0.0 0.0 
0.0 0.0 0.0 
0.0 0.0 0.0 
0.0 0.0 0.0 
0.0 0.0 0.0 
0.0 0.0 0.0 
0.0 0.0 0.0 
0.0 0.0 0.0 
0.0 0.0 0.0 
0.0 0.0 0.0 
0.0 0.0 0.0 
0.0 0.0 0.0 
0.0 0.0 0.0 
0.0 0.0 0.0 
0.0 0.0 0.0 
0.0 0.0 0.0 
0.0 0.0 0.0 
0.0 0.0 0.0 
0.0 0.0 0.0 
0.0 0.0 0.0 
0.0 0.0 0.0 
0.0 0.0 0.0 
0.0 0.0 0.0 
0.0 0.0 0.0 
0.0 0.0 0.0 
0.0 0.0 0.0 
0.0 0.0 0.0 
0.0 0.0 0.0 
0.0 0.0 0.0 
0.0 0.0 0.0 
0.0 0.0 0.0 
0.0 0.0 0.0 
0.0 0.0 0.0 
0.0 0.0 0.0 
0.0 0.0 0.0 
0.0 0.0 0.0 
0.0 0.0 0.0 
0.0 0.0 0.0 
0.0 0.0 0.0 
0.0 0.0 0.0 
0.0 0.0 0.0 
0.0 0.0 0.0 
0.0 0.0 0.0 
0.0 0.0 0.0 
0.0 0.0 0.0 
0.0 0.0 0.0 
0.0 0.0 0.0 
0.0 0.0 0.0 
0.0 0.0 0.0 
0.0 0.0 0.0 
0.0 0.0 0.0 
0.0 0.0 0.0 
0.0 0.0 0.0 
0.0 0.0 0.0 
0.0 0.0 0.0 
0.0 0.0 0.0 
0.0 0.0 0.0 
0.0 0.0 0.0 
0.0 0.0 0.0 
0.0 0.0 0.0 
0.0 0.0 0.0 
0.0 0.0 0.0 
0.0 0.0 0.0 
0.0 0.0 0.0 
0.0 0.0 0.0 
0.0 0.0 0.0 
0.0 0.0 0.0 
0.0 0.0 0.0 
0.0 0.0 0.0 
0.0 0.0 0.0 
0.0 0.0 0.0 
0.0 0.0 0.0 
0.0 0.0 0.0 
0.0 0.0 0.0 
0.0 0.0 0.0 
0.0 0.0 0.0 
0.0 0.0 0.0 
0.0 0.0 0.0 
0.0 0.0 0.0 
0.0 0.0 0.0 
0.0 0.0 0.0 
0.0 0.0 0.0 
0.0 0.0 0.0 
0.0 0.0 0.0 
0.0 0.0 0.0 
0.0 0.0 0.0 
0.0 0.0 0.0 
0.0 0.0 0.0 
0.0 0.0 0.0 
0.0 0.0 0.0 
0.0 0.0 0.0 
0.0 0.0 0.0 
0.0 0.0 0.0 
0.0 0.0 0.0 
0.0 0.0 0.0 
0.0 0.0 0.0 
0.0 0.0 0.0 
0.0 0.0 0.0 
0.0 0.0 0.0 
0.0 0.0 0.0 
0.0 0.0 0.0 
0.0 0.0 0.0 
0.0 0.0 0.0 
0.0 0.0 0.0 
0.0 0.0 0.0 
0.0 0.0 0.0 
0.0 0.0 0.0 
0.0 0.0 0.0 
0.0 0.0 0.0 
0.0 0.0 0.0 
0.0 0.0 0.0 
0.0 0.0 0.0 
0.0 0.0 0.0 
0.0 0.0 0.0 
0.0 0.0 0.0 
0.0 0.0 0.0 
0.0 0.0 0.0 
0.0 0.0 0.0 
0.0 0.0 0.0 
0.0 0.0 0.0 
0.0 0.0 0.0 
0.0 0.0 0.0 
0.0 0.0 0.0 
0.0 0.0 0.0 
0.0 0.0 0.0 
0.0 0.0 0.0 
0.0 0.0 0.0 
0.0 0.0 0.0 
0.0 0.0 0.0 
0.0 0.0 0.0 
0.0 0.0 0.0 
0.0 0.0 0.0 
0.0 0.0 0.0 
0.0 0.0 0.0 
0.0 0.0 0.0 
0.0 0.0 0.0 
0.0 0.0 0.0 
0.0 0.0 0.0 
0.0 0.0 0.0 
0.0 0.0 0.0 
0.0 0.0 0.0 
0.0 0.0 0.0 
0.0 0.0 0.0 
0.0 0.0 0.0 
0.0 0.0 0.0 
0.0 0.0 0.0 
0.0 0.0 0.0 
0.0 0.0 0.0 
0.0 0.0 0.0 
0.0 0.0 0.0 
0.0 0.0 0.0 
0.0 0.0 0.0 
0.0 0.0 0.0 
0.0 0.0 0.0 
0.0 0.0 0.0 
0.0 0.0 0.0 
0.0 0.0 0.0 
0.0 0.0 0.0 
0.0 0.0 0.0 
0.0 0.0 0.0 
0.0 0.0 0.0 
0.0 0.0 0.0 
0.0 0.0 0.0 
0.0 0.0 0.0 
0.0 0.0 0.0 
0.0 0.0 0.0 
0.0 0.0 0.0 
0.0 0.0 0.0 
0.0 0.0 0.0 
0.0 0.0 0.0 
0.0 0.0 0.0 
0.0 0.0 0.0 
0.0 0.0 0.0 
0.0 0.0 0.0 
0.0 0.0 0.0 
0.0 0.0 0.0 
0.0 0.0 0.0 
0.0 0.0 0.0 
0.0 0.0 0.0 
0.0 0.0 0.0 
0.0 0.0 0.0 
0.0 0.0 0.0 
0.0 0.0 0.0 
0.0 0.0 0.0 
0.0 0.0 0.0 
0.0 0.0 0.0 
0.0 0.0 0.0 
0.0 0.0 0.0 
0.0 0.0 0.0 
0.0 0.0 0.0 
0.0 0.0 0.0 
0.0 0.0 0.0 
0.0 0.0 0.0 
0.0 0.0 0.0 
0.0 0.0 0.0 
0.0 0.0 0.0 
0.0 0.0 0.0 
0.0 0.0 0.0 
0.0 0.0 0.0 
0.0 0.0 0.0 
0.0 0.0 0.0 
0.0 0.0 0.0 
0.0 0.0 0.0 
0.0 0.0 0.0 
0.0 0.0 0.0 
0.0 0.0 0.0 
0.0 0.0 0.0 
0.0 0.0 0.0 
0.0 0.0 0.0 
0.0 0.0 0.0 
0.0 0.0 0.0 
0.0 0.0 0.0 
0.0 0.0 0.0 
0.0 0.0 0.0 
0.0 0.0 0.0 
0.0 0.0 0.0 
0.0 0.0 0.0 
0.0 0.0 0.0 
0.0 0.0 0.0 
0.0 0.0 0.0 
0.0 0.0 0.0 
0.0 0.0 0.0 
0.0 0.0 0.0 
0.0 0.0 0.0 
0.0 0.0 0.0 
0.0 0.0 0.0 
0.0 0.0 0.0 
0.0 0.0 0.0 
0.0 0.0 0.0 
0.0 0.0 0.0 
0.0 0.0 0.0 
0.0 0.0 0.0 
0.0 0.0 0.0 
0.0 0.0 0.0 
0.0 0.0 0.0 
0.0 0.0 0.0 
0.0 0.0 0.0 
0.0 0.0 0.0 
0.0 0.0 0.0 
0.0 0.0 0.0 
0.0 0.0 0.0 
0.0 0.0 0.0 
0.0 0.0 0.0 
0.0 0.0 0.0 
0.0 0.0 0.0 
0.0 0.0 0.0 
0.0 0.0 0.0 
0.0 0.0 0.0 
0.0 0.0 0.0 
0.0 0.0 0.0 
0.0 0.0 0.0 
0.0 0.0 0.0 
0.0 0.0 0.0 
0.0 0.0 0.0 
0.0 0.0 0.0 
0.0 0.0 0.0 
0.0 0.0 0.0 
0.0 0.0 0.0 
0.0 0.0 0.0 
0.0 0.0 0.0 
0.0 0.0 0.0 
0.0 0.0 0.0 
0.0 0.0 0.0 
0.0 0.0 0.0 
0.0 0.0 0.0 
0.0 0.0 0.0 
0.0 0.0 0.0 
0.0 0.0 0.0 
0.0 0.0 0.0 
0.0 0.0 0.0 
0.0 0.0 0.0 
0.0 0.0 0.0 
0.0 0.0 0.0 
0.0 0.0 0.0 
0.0 0.0 0.0 
0.0 0.0 0.0 
0.0 0.0 0.0 
0.0 0.0 0.0 
0.0 0.0 0.0 
0.0 0.0 0.0 
0.0 0.0 0.0 
0.0 0.0 0.0 
0.0 0.0 0.0 
0.0 0.0 0.0 
0.0 0.0 0.0 
0.0 0.0 0.0 
0.0 0.0 0.0 
0.0 0.0 0.0 
0.0 0.0 0.0 
0.0 0.0 0.0 
0.0 0.0 0.0 
0.0 0.0 0.0 
0.0 0.0 0.0 
0.0 0.0 0.0 
0.0 0.0 0.0 
0.0 0.0 0.0 
0.0 0.0 0.0 
0.0 0.0 0.0 
0.0 0.0 0.0 
0.0 0.0 0.0 
0.0 0.0 0.0 
0.0 0.0 0.0 
0.0 0.0 0.0 
0.0 0.0 0.0 
0.0 0.0 0.0 
0.0 0.0 0.0 
0.0 0.0 0.0 
0.0 0.0 0.0 
0.0 0.0 0.0 
0.0 0.0 0.0 
0.0 0.0 0.0 
0.0 0.0 0.0 
0.0 0.0 0.0 
0.0 0.0 0.0 
0.0 0.0 0.0 
0.0 0.0 0.0 
0.0 0.0 0.0 
0.0 0.0 0.0 
0.0 0.0 0.0 
0.0 0.0 0.0 
0.0 0.0 0.0 
0.0 0.0 0.0 
0.0 0.0 0.0 
0.0 0.0 0.0 
0.0 0.0 0.0 
0.0 0.0 0.0 
0.0 0.0 0.0 
0.0 0.0 0.0 
0.0 0.0 0.0 
0.0 0.0 0.0 
0.0 0.0 0.0 
0.0 0.0 0.0 
0.0 0.0 0.0 
0.0 0.0 0.0 
0.0 0.0 0.0 
0.0 0.0 0.0 
0.0 0.0 0.0 
0.0 0.0 0.0 
0.0 0.0 0.0 
0.0 0.0 0.0 
0.0 0.0 0.0 
0.0 0.0 0.0 
0.0 0.0 0.0 
0.0 0.0 0.0 
0.0 0.0 0.0 
0.0 0.0 0.0 
0.0 0.0 0.0 
0.0 0.0 0.0 
0.0 0.0 0.0 
0.0 0.0 0.0 
0.0 0.0 0.0 
0.0 0.0 0.0 
0.0 0.0 0.0 
0.0 0.0 0.0 
0.0 0.0 0.0 
0.0 0.0 0.0 
0.0 0.0 0.0 
0.0 0.0 0.0 
0.0 0.0 0.0 
0.0 0.0 0.0 
0.0 0.0 0.0 
0.0 0.0 0.0 
0.0 0.0 0.0 
0.0 0.0 0.0 
0.0 0.0 0.0 
0.0 0.0 0.0 
0.0 0.0 0.0 
0.0 0.0 0.0 
0.0 0.0 0.0 
0.0 0.0 0.0 
0.0 0.0 0.0 
0.0 0.0 0.0 
0.0 0.0 0.0 
0.0 0.0 0.0 
0.0 0.0 0.0 
0.0 0.0 0.0 
0.0 0.0 0.0 
0.0 0.0 0.0 
0.0 0.0 0.0 
0.0 0.0 0.0 
0.0 0.0 0.0 
0.0 0.0 0.0 
0.0 0.0 0.0 
0.0 0.0 0.0 
0.0 0.0 0.0 
0.0 0.0 0.0 
0.0 0.0 0.0 
0.0 0.0 0.0 
0.0 0.0 0.0 
0.0 0.0 0.0 
0.0 0.0 0.0 
0.0 0.0 0.0 
0.0 0.0 0.0 
0.0 0.0 0.0 
0.0 0.0 0.0 
0.0 0.0 0.0 
0.0 0.0 0.0 
0.0 0.0 0.0 
0.0 0.0 0.0 
0.0 0.0 0.0 
0.0 0.0 0.0 
0.0 0.0 0.0 
0.0 0.0 0.0 
0.0 0.0 0.0 
0.0 0.0 0.0 
0.0 0.0 0.0 
0.0 0.0 0.0 
0.0 0.0 0.0 
0.0 0.0 0.0 
0.0 0.0 0.0 
0.0 0.0 0.0 
0.0 0.0 0.0 
0.0 0.0 0.0 
0.0 0.0 0.0 
0.0 0.0 0.0 
0.0 0.0 0.0 
0.0 0.0 0.0 
0.0 0.0 0.0 
0.0 0.0 0.0 
0.0 0.0 0.0 
0.0 0.0 0.0 
0.0 0.0 0.0 
0.0 0.0 0.0 
0.0 0.0 0.0 
0.0 0.0 0.0 
0.0 0.0 0.0 
0.0 0.0 0.0 
0.0 0.0 0.0 
0.0 0.0 0.0 
0.0 0.0 0.0 

VECTORS node_bounda_dof_materi_velocity_y float
0.0 0.0 0.0 
0.0 0.0 0.0 
0.0 1.000000000000e+00 0.0 
0.0 1.000000000000e+00 0.0 
0.0 0.0 0.0 
0.0 0.0 0.0 
0.0 0.0 0.0 
0.0 0.0 0.0 
0.0 0.0 0.0 
0.0 0.0 0.0 
0.0 0.0 0.0 
0.0 0.0 0.0 
0.0 0.0 0.0 
0.0 0.0 0.0 
0.0 0.0 0.0 
0.0 0.0 0.0 
0.0 0.0 0.0 
0.0 0.0 0.0 
0.0 0.0 0.0 
0.0 0.0 0.0 
0.0 0.0 0.0 
0.0 0.0 0.0 
0.0 0.0 0.0 
0.0 1.000000000000e+00 0.0 
0.0 1.000000000000e+00 0.0 
0.0 1.000000000000e+00 0.0 
0.0 1.000000000000e+00 0.0 
0.0 1.000000000000e+00 0.0 
0.0 1.000000000000e+00 0.0 
0.0 1.000000000000e+00 0.0 
0.0 1.000000000000e+00 0.0 
0.0 1.000000000000e+00 0.0 
0.0 1.000000000000e+00 0.0 
0.0 1.000000000000e+00 0.0 
0.0 1.000000000000e+00 0.0 
0.0 1.000000000000e+00 0.0 
0.0 1.000000000000e+00 0.0 
0.0 1.000000000000e+00 0.0 
0.0 1.000000000000e+00 0.0 
0.0 1.000000000000e+00 0.0 
0.0 1.000000000000e+00 0.0 
0.0 1.000000000000e+00 0.0 
0.0 1.000000000000e+00 0.0 
0.0 1.000000000000e+00 0.0 
0.0 1.000000000000e+00 0.0 
0.0 1.000000000000e+00 0.0 
0.0 1.000000000000e+00 0.0 
0.0 1.000000000000e+00 0.0 
0.0 1.000000000000e+00 0.0 
0.0 1.000000000000e+00 0.0 
0.0 1.000000000000e+00 0.0 
0.0 1.000000000000e+00 0.0 
0.0 1.000000000000e+00 0.0 
0.0 1.000000000000e+00 0.0 
0.0 1.000000000000e+00 0.0 
0.0 1.000000000000e+00 0.0 
0.0 1.000000000000e+00 0.0 
0.0 1.000000000000e+00 0.0 
0.0 1.000000000000e+00 0.0 
0.0 1.000000000000e+00 0.0 
0.0 1.000000000000e+00 0.0 
0.0 1.000000000000e+00 0.0 
0.0 1.000000000000e+00 0.0 
0.0 1.000000000000e+00 0.0 
0.0 1.000000000000e+00 0.0 
0.0 1.000000000000e+00 0.0 
0.0 1.000000000000e+00 0.0 
0.0 1.000000000000e+00 0.0 
0.0 1.000000000000e+00 0.0 
0.0 1.000000000000e+00 0.0 
0.0 1.000000000000e+00 0.0 
0.0 1.000000000000e+00 0.0 
0.0 0.0 0.0 
0.0 0.0 0.0 
0.0 0.0 0.0 
0.0 0.0 0.0 
0.0 0.0 0.0 
0.0 0.0 0.0 
0.0 0.0 0.0 
0.0 0.0 0.0 
0.0 0.0 0.0 
0.0 0.0 0.0 
0.0 0.0 0.0 
0.0 0.0 0.0 
0.0 0.0 0.0 
0.0 0.0 0.0 
0.0 0.0 0.0 
0.0 0.0 0.0 
0.0 0.0 0.0 
0.0 0.0 0.0 
0.0 0.0 0.0 
0.0 0.0 0.0 
0.0 0.0 0.0 
0.0 0.0 0.0 
0.0 0.0 0.0 
0.0 0.0 0.0 
0.0 0.0 0.0 
0.0 0.0 0.0 
0.0 0.0 0.0 
0.0 0.0 0.0 
0.0 0.0 0.0 
0.0 0.0 0.0 
0.0 0.0 0.0 
0.0 0.0 0.0 
0.0 0.0 0.0 
0.0 0.0 0.0 
0.0 0.0 0.0 
0.0 0.0 0.0 
0.0 0.0 0.0 
0.0 0.0 0.0 
0.0 0.0 0.0 
0.0 0.0 0.0 
0.0 0.0 0.0 
0.0 0.0 0.0 
0.0 0.0 0.0 
0.0 0.0 0.0 
0.0 0.0 0.0 
0.0 0.0 0.0 
0.0 0.0 0.0 
0.0 0.0 0.0 
0.0 0.0 0.0 
0.0 0.0 0.0 
0.0 0.0 0.0 
0.0 0.0 0.0 
0.0 0.0 0.0 
0.0 0.0 0.0 
0.0 0.0 0.0 
0.0 0.0 0.0 
0.0 0.0 0.0 
0.0 0.0 0.0 
0.0 0.0 0.0 
0.0 0.0 0.0 
0.0 0.0 0.0 
0.0 0.0 0.0 
0.0 0.0 0.0 
0.0 0.0 0.0 
0.0 0.0 0.0 
0.0 0.0 0.0 
0.0 0.0 0.0 
0.0 0.0 0.0 
0.0 0.0 0.0 
0.0 0.0 0.0 
0.0 0.0 0.0 
0.0 0.0 0.0 
0.0 0.0 0.0 
0.0 0.0 0.0 
0.0 0.0 0.0 
0.0 0.0 0.0 
0.0 0.0 0.0 
0.0 0.0 0.0 
0.0 0.0 0.0 
0.0 0.0 0.0 
0.0 0.0 0.0 
0.0 0.0 0.0 
0.0 0.0 0.0 
0.0 0.0 0.0 
0.0 0.0 0.0 
0.0 0.0 0.0 
0.0 0.0 0.0 
0.0 0.0 0.0 
0.0 0.0 0.0 
0.0 0.0 0.0 
0.0 0.0 0.0 
0.0 0.0 0.0 
0.0 0.0 0.0 
0.0 0.0 0.0 
0.0 0.0 0.0 
0.0 0.0 0.0 
0.0 0.0 0.0 
0.0 0.0 0.0 
0.0 0.0 0.0 
0.0 0.0 0.0 
0.0 0.0 0.0 
0.0 0.0 0.0 
0.0 0.0 0.0 
0.0 0.0 0.0 
0.0 0.0 0.0 
0.0 0.0 0.0 
0.0 0.0 0.0 
0.0 0.0 0.0 
0.0 0.0 0.0 
0.0 0.0 0.0 
0.0 0.0 0.0 
0.0 0.0 0.0 
0.0 0.0 0.0 
0.0 0.0 0.0 
0.0 0.0 0.0 
0.0 0.0 0.0 
0.0 0.0 0.0 
0.0 0.0 0.0 
0.0 0.0 0.0 
0.0 0.0 0.0 
0.0 0.0 0.0 
0.0 0.0 0.0 
0.0 0.0 0.0 
0.0 0.0 0.0 
0.0 0.0 0.0 
0.0 0.0 0.0 
0.0 0.0 0.0 
0.0 0.0 0.0 
0.0 0.0 0.0 
0.0 0.0 0.0 
0.0 0.0 0.0 
0.0 0.0 0.0 
0.0 0.0 0.0 
0.0 0.0 0.0 
0.0 0.0 0.0 
0.0 0.0 0.0 
0.0 0.0 0.0 
0.0 0.0 0.0 
0.0 0.0 0.0 
0.0 0.0 0.0 
0.0 0.0 0.0 
0.0 0.0 0.0 
0.0 0.0 0.0 
0.0 0.0 0.0 
0.0 0.0 0.0 
0.0 0.0 0.0 
0.0 0.0 0.0 
0.0 0.0 0.0 
0.0 0.0 0.0 
0.0 0.0 0.0 
0.0 0.0 0.0 
0.0 0.0 0.0 
0.0 0.0 0.0 
0.0 0.0 0.0 
0.0 0.0 0.0 
0.0 0.0 0.0 
0.0 0.0 0.0 
0.0 0.0 0.0 
0.0 0.0 0.0 
0.0 0.0 0.0 
0.0 0.0 0.0 
0.0 0.0 0.0 
0.0 0.0 0.0 
0.0 0.0 0.0 
0.0 0.0 0.0 
0.0 0.0 0.0 
0.0 0.0 0.0 
0.0 0.0 0.0 
0.0 0.0 0.0 
0.0 0.0 0.0 
0.0 0.0 0.0 
0.0 0.0 0.0 
0.0 0.0 0.0 
0.0 0.0 0.0 
0.0 0.0 0.0 
0.0 0.0 0.0 
0.0 0.0 0.0 
0.0 0.0 0.0 
0.0 0.0 0.0 
0.0 0.0 0.0 
0.0 0.0 0.0 
0.0 0.0 0.0 
0.0 0.0 0.0 
0.0 0.0 0.0 
0.0 0.0 0.0 
0.0 0.0 0.0 
0.0 0.0 0.0 
0.0 0.0 0.0 
0.0 0.0 0.0 
0.0 0.0 0.0 
0.0 0.0 0.0 
0.0 0.0 0.0 
0.0 0.0 0.0 
0.0 0.0 0.0 
0.0 0.0 0.0 
0.0 0.0 0.0 
0.0 0.0 0.0 
0.0 0.0 0.0 
0.0 0.0 0.0 
0.0 0.0 0.0 
0.0 0.0 0.0 
0.0 0.0 0.0 
0.0 0.0 0.0 
0.0 0.0 0.0 
0.0 0.0 0.0 
0.0 0.0 0.0 
0.0 0.0 0.0 
0.0 0.0 0.0 
0.0 0.0 0.0 
0.0 0.0 0.0 
0.0 0.0 0.0 
0.0 0.0 0.0 
0.0 0.0 0.0 
0.0 0.0 0.0 
0.0 0.0 0.0 
0.0 0.0 0.0 
0.0 0.0 0.0 
0.0 0.0 0.0 
0.0 0.0 0.0 
0.0 0.0 0.0 
0.0 0.0 0.0 
0.0 0.0 0.0 
0.0 0.0 0.0 
0.0 0.0 0.0 
0.0 0.0 0.0 
0.0 0.0 0.0 
0.0 0.0 0.0 
0.0 0.0 0.0 
0.0 0.0 0.0 
0.0 0.0 0.0 
0.0 0.0 0.0 
0.0 0.0 0.0 
0.0 0.0 0.0 
0.0 0.0 0.0 
0.0 0.0 0.0 
0.0 0.0 0.0 
0.0 0.0 0.0 
0.0 0.0 0.0 
0.0 0.0 0.0 
0.0 0.0 0.0 
0.0 0.0 0.0 
0.0 0.0 0.0 
0.0 0.0 0.0 
0.0 0.0 0.0 
0.0 0.0 0.0 
0.0 0.0 0.0 
0.0 0.0 0.0 
0.0 0.0 0.0 
0.0 0.0 0.0 
0.0 0.0 0.0 
0.0 0.0 0.0 
0.0 0.0 0.0 
0.0 0.0 0.0 
0.0 0.0 0.0 
0.0 0.0 0.0 
0.0 0.0 0.0 
0.0 0.0 0.0 
0.0 0.0 0.0 
0.0 0.0 0.0 
0.0 0.0 0.0 
0.0 0.0 0.0 
0.0 0.0 0.0 
0.0 0.0 0.0 
0.0 0.0 0.0 
0.0 0.0 0.0 
0.0 0.0 0.0 
0.0 0.0 0.0 
0.0 0.0 0.0 
0.0 0.0 0.0 
0.0 0.0 0.0 
0.0 0.0 0.0 
0.0 0.0 0.0 
0.0 0.0 0.0 
0.0 0.0 0.0 
0.0 0.0 0.0 
0.0 0.0 0.0 
0.0 0.0 0.0 
0.0 0.0 0.0 
0.0 0.0 0.0 
0.0 0.0 0.0 
0.0 0.0 0.0 
0.0 0.0 0.0 
0.0 0.0 0.0 
0.0 0.0 0.0 
0.0 0.0 0.0 
0.0 0.0 0.0 
0.0 0.0 0.0 
0.0 0.0 0.0 
0.0 0.0 0.0 
0.0 0.0 0.0 
0.0 0.0 0.0 
0.0 0.0 0.0 
0.0 0.0 0.0 
0.0 0.0 0.0 
0.0 0.0 0.0 
0.0 0.0 0.0 
0.0 0.0 0.0 
0.0 0.0 0.0 
0.0 0.0 0.0 
0.0 0.0 0.0 
0.0 0.0 0.0 
0.0 0.0 0.0 
0.0 0.0 0.0 
0.0 0.0 0.0 
0.0 0.0 0.0 
0.0 0.0 0.0 
0.0 0.0 0.0 
0.0 0.0 0.0 
0.0 0.0 0.0 
0.0 0.0 0.0 
0.0 0.0 0.0 
0.0 0.0 0.0 
0.0 0.0 0.0 
0.0 0.0 0.0 
0.0 0.0 0.0 
0.0 0.0 0.0 
0.0 0.0 0.0 
0.0 0.0 0.0 
0.0 0.0 0.0 
0.0 0.0 0.0 
0.0 0.0 0.0 
0.0 0.0 0.0 
0.0 0.0 0.0 
0.0 0.0 0.0 
0.0 0.0 0.0 
0.0 0.0 0.0 
0.0 0.0 0.0 
0.0 0.0 0.0 
0.0 0.0 0.0 
0.0 0.0 0.0 
0.0 0.0 0.0 
0.0 0.0 0.0 
0.0 0.0 0.0 
0.0 0.0 0.0 
0.0 0.0 0.0 
0.0 0.0 0.0 
0.0 0.0 0.0 
0.0 0.0 0.0 
0.0 0.0 0.0 
0.0 0.0 0.0 
0.0 0.0 0.0 
0.0 0.0 0.0 
0.0 0.0 0.0 
0.0 0.0 0.0 
0.0 0.0 0.0 
0.0 0.0 0.0 
0.0 0.0 0.0 
0.0 0.0 0.0 
0.0 0.0 0.0 
0.0 0.0 0.0 
0.0 0.0 0.0 
0.0 0.0 0.0 
0.0 0.0 0.0 
0.0 0.0 0.0 
0.0 0.0 0.0 
0.0 0.0 0.0 
0.0 0.0 0.0 
0.0 0.0 0.0 
0.0 0.0 0.0 
0.0 0.0 0.0 
0.0 0.0 0.0 
0.0 0.0 0.0 
0.0 0.0 0.0 
0.0 0.0 0.0 
0.0 0.0 0.0 
0.0 0.0 0.0 
0.0 0.0 0.0 
0.0 0.0 0.0 
0.0 0.0 0.0 
0.0 0.0 0.0 
0.0 0.0 0.0 
0.0 0.0 0.0 
0.0 0.0 0.0 
0.0 0.0 0.0 
0.0 0.0 0.0 
0.0 0.0 0.0 
0.0 0.0 0.0 
0.0 0.0 0.0 
0.0 0.0 0.0 
0.0 0.0 0.0 
0.0 0.0 0.0 
0.0 0.0 0.0 
0.0 0.0 0.0 
0.0 0.0 0.0 
0.0 0.0 0.0 
0.0 0.0 0.0 
0.0 0.0 0.0 
0.0 0.0 0.0 
0.0 0.0 0.0 
0.0 0.0 0.0 
0.0 0.0 0.0 
0.0 0.0 0.0 
0.0 0.0 0.0 
0.0 0.0 0.0 
0.0 0.0 0.0 
0.0 0.0 0.0 
0.0 0.0 0.0 
0.0 0.0 0.0 
0.0 0.0 0.0 
0.0 0.0 0.0 
0.0 0.0 0.0 
0.0 0.0 0.0 
0.0 0.0 0.0 
0.0 0.0 0.0 
0.0 0.0 0.0 
0.0 0.0 0.0 
0.0 0.0 0.0 
0.0 0.0 0.0 
0.0 0.0 0.0 
0.0 0.0 0.0 
0.0 0.0 0.0 
0.0 0.0 0.0 
0.0 0.0 0.0 
0.0 0.0 0.0 
0.0 0.0 0.0 
0.0 0.0 0.0 
0.0 0.0 0.0 
0.0 0.0 0.0 
0.0 0.0 0.0 
0.0 0.0 0.0 
0.0 0.0 0.0 
0.0 0.0 0.0 
0.0 0.0 0.0 
0.0 0.0 0.0 
0.0 0.0 0.0 
0.0 0.0 0.0 
0.0 0.0 0.0 
0.0 0.0 0.0 
0.0 0.0 0.0 
0.0 0.0 0.0 
0.0 0.0 0.0 
0.0 0.0 0.0 
0.0 0.0 0.0 
0.0 0.0 0.0 
0.0 0.0 0.0 
0.0 0.0 0.0 
0.0 0.0 0.0 
0.0 0.0 0.0 
0.0 0.0 0.0 
0.0 0.0 0.0 
0.0 0.0 0.0 
0.0 0.0 0.0 
0.0 0.0 0.0 
0.0 0.0 0.0 
0.0 0.0 0.0 
0.0 0.0 0.0 
0.0 0.0 0.0 
0.0 0.0 0.0 
0.0 0.0 0.0 
0.0 0.0 0.0 
0.0 0.0 0.0 
0.0 0.0 0.0 
0.0 0.0 0.0 
0.0 0.0 0.0 
0.0 0.0 0.0 
0.0 0.0 0.0 
0.0 0.0 0.0 
0.0 0.0 0.0 
0.0 0.0 0.0 
0.0 0.0 0.0 
0.0 0.0 0.0 
0.0 0.0 0.0 
0.0 0.0 0.0 
0.0 0.0 0.0 
0.0 0.0 0.0 
0.0 0.0 0.0 
0.0 0.0 0.0 
0.0 0.0 0.0 
0.0 0.0 0.0 
0.0 0.0 0.0 
0.0 0.0 0.0 
0.0 0.0 0.0 
0.0 0.0 0.0 
0.0 0.0 0.0 
0.0 0.0 0.0 
0.0 0.0 0.0 
0.0 0.0 0.0 
0.0 0.0 0.0 
0.0 0.0 0.0 
0.0 0.0 0.0 
0.0 0.0 0.0 
0.0 0.0 0.0 
0.0 0.0 0.0 
0.0 0.0 0.0 
0.0 0.0 0.0 
0.0 0.0 0.0 
0.0 0.0 0.0 
0.0 0.0 0.0 
0.0 0.0 0.0 
0.0 0.0 0.0 
0.0 0.0 0.0 
0.0 0.0 0.0 
0.0 0.0 0.0 
0.0 0.0 0.0 
0.0 0.0 0.0 
0.0 0.0 0.0 
0.0 0.0 0.0 
0.0 0.0 0.0 
0.0 0.0 0.0 
0.0 0.0 0.0 
0.0 0.0 0.0 
0.0 0.0 0.0 
0.0 0.0 0.0 
0.0 0.0 0.0 
0.0 0.0 0.0 
0.0 0.0 0.0 
0.0 0.0 0.0 
0.0 0.0 0.0 
0.0 0.0 0.0 
0.0 0.0 0.0 
0.0 0.0 0.0 
0.0 0.0 0.0 
0.0 0.0 0.0 
0.0 0.0 0.0 
0.0 0.0 0.0 
0.0 0.0 0.0 
0.0 0.0 0.0 
0.0 0.0 0.0 
0.0 0.0 0.0 
0.0 0.0 0.0 
0.0 0.0 0.0 
0.0 0.0 0.0 
0.0 0.0 0.0 
0.0 0.0 0.0 
0.0 0.0 0.0 
0.0 0.0 0.0 
0.0 0.0 0.0 
0.0 0.0 0.0 
0.0 0.0 0.0 
0.0 0.0 0.0 
0.0 0.0 0.0 
0.0 0.0 0.0 
0.0 0.0 0.0 
0.0 0.0 0.0 
0.0 0.0 0.0 
0.0 0.0 0.0 
0.0 0.0 0.0 
0.0 0.0 0.0 
0.0 0.0 0.0 
0.0 0.0 0.0 
0.0 0.0 0.0 
0.0 0.0 0.0 
0.0 0.0 0.0 
0.0 0.0 0.0 
0.0 0.0 0.0 
0.0 0.0 0.0 
0.0 0.0 0.0 
0.0 0.0 0.0 
0.0 0.0 0.0 
0.0 0.0 0.0 
0.0 0.0 0.0 
0.0 0.0 0.0 
0.0 0.0 0.0 
0.0 0.0 0.0 
0.0 0.0 0.0 
0.0 0.0 0.0 
0.0 0.0 0.0 
0.0 0.0 0.0 
0.0 0.0 0.0 
0.0 0.0 0.0 
0.0 0.0 0.0 
0.0 0.0 0.0 
0.0 0.0 0.0 
0.0 0.0 0.0 
0.0 0.0 0.0 
0.0 0.0 0.0 
0.0 0.0 0.0 
0.0 0.0 0.0 
0.0 0.0 0.0 
0.0 0.0 0.0 
0.0 0.0 0.0 
0.0 0.0 0.0 
0.0 0.0 0.0 
0.0 0.0 0.0 
0.0 0.0 0.0 
0.0 0.0 0.0 
0.0 0.0 0.0 
0.0 0.0 0.0 
0.0 0.0 0.0 
0.0 0.0 0.0 
0.0 0.0 0.0 
0.0 0.0 0.0 
0.0 0.0 0.0 
0.0 0.0 0.0 
0.0 0.0 0.0 
0.0 0.0 0.0 
0.0 0.0 0.0 
0.0 0.0 0.0 
0.0 0.0 0.0 
0.0 0.0 0.0 
0.0 0.0 0.0 
0.0 0.0 0.0 
0.0 0.0 0.0 
0.0 0.0 0.0 
0.0 0.0 0.0 
0.0 0.0 0.0 
0.0 0.0 0.0 
0.0 0.0 0.0 
0.0 0.0 0.0 
0.0 0.0 0.0 
0.0 0.0 0.0 
0.0 0.0 0.0 
0.0 0.0 0.0 
0.0 0.0 0.0 
0.0 0.0 0.0 
0.0 0.0 0.0 
0.0 0.0 0.0 
0.0 0.0 0.0 
0.0 0.0 0.0 
0.0 0.0 0.0 
0.0 0.0 0.0 
0.0 0.0 0.0 
0.0 0.0 0.0 
0.0 0.0 0.0 
0.0 0.0 0.0 
0.0 0.0 0.0 
0.0 0.0 0.0 
0.0 0.0 0.0 
0.0 0.0 0.0 
0.0 0.0 0.0 
0.0 0.0 0.0 
0.0 0.0 0.0 
0.0 0.0 0.0 
0.0 0.0 0.0 
0.0 0.0 0.0 
0.0 0.0 0.0 
0.0 0.0 0.0 
0.0 0.0 0.0 
0.0 0.0 0.0 
0.0 0.0 0.0 
0.0 0.0 0.0 
0.0 0.0 0.0 
0.0 0.0 0.0 
0.0 0.0 0.0 
0.0 0.0 0.0 
0.0 0.0 0.0 
0.0 0.0 0.0 
0.0 0.0 0.0 
0.0 0.0 0.0 
0.0 0.0 0.0 
0.0 0.0 0.0 
0.0 0.0 0.0 
0.0 0.0 0.0 
0.0 0.0 0.0 
0.0 0.0 0.0 
0.0 0.0 0.0 
0.0 0.0 0.0 
0.0 0.0 0.0 
0.0 0.0 0.0 
0.0 0.0 0.0 
0.0 0.0 0.0 
0.0 0.0 0.0 
0.0 0.0 0.0 
0.0 0.0 0.0 
0.0 0.0 0.0 
0.0 0.0 0.0 
0.0 0.0 0.0 
0.0 0.0 0.0 
0.0 0.0 0.0 
0.0 0.0 0.0 
0.0 0.0 0.0 
0.0 0.0 0.0 
0.0 0.0 0.0 
0.0 0.0 0.0 
0.0 0.0 0.0 
0.0 0.0 0.0 
0.0 0.0 0.0 
0.0 0.0 0.0 
0.0 0.0 0.0 
0.0 0.0 0.0 
0.0 0.0 0.0 
0.0 0.0 0.0 
0.0 0.0 0.0 
0.0 0.0 0.0 
0.0 0.0 0.0 
0.0 0.0 0.0 
0.0 0.0 0.0 
0.0 0.0 0.0 
0.0 0.0 0.0 
0.0 0.0 0.0 
0.0 0.0 0.0 
0.0 0.0 0.0 
0.0 0.0 0.0 
0.0 0.0 0.0 
0.0 0.0 0.0 
0.0 0.0 0.0 
0.0 0.0 0.0 
0.0 0.0 0.0 
0.0 0.0 0.0 
0.0 0.0 0.0 
0.0 0.0 0.0 
0.0 0.0 0.0 
0.0 0.0 0.0 
0.0 0.0 0.0 
0.0 0.0 0.0 
0.0 0.0 0.0 
0.0 0.0 0.0 
0.0 0.0 0.0 
0.0 0.0 0.0 
0.0 0.0 0.0 
0.0 0.0 0.0 
0.0 0.0 0.0 
0.0 0.0 0.0 
0.0 0.0 0.0 
0.0 0.0 0.0 
0.0 0.0 0.0 
0.0 0.0 0.0 
0.0 0.0 0.0 
0.0 0.0 0.0 
0.0 0.0 0.0 
0.0 0.0 0.0 
0.0 0.0 0.0 
0.0 0.0 0.0 
0.0 0.0 0.0 
0.0 0.0 0.0 
0.0 0.0 0.0 
0.0 0.0 0.0 
0.0 0.0 0.0 
0.0 0.0 0.0 
0.0 0.0 0.0 
0.0 0.0 0.0 
0.0 0.0 0.0 
0.0 0.0 0.0 
0.0 0.0 0.0 
0.0 0.0 0.0 
0.0 0.0 0.0 
0.0 0.0 0.0 
0.0 0.0 0.0 
0.0 0.0 0.0 
0.0 0.0 0.0 
0.0 0.0 0.0 
0.0 0.0 0.0 
0.0 0.0 0.0 
0.0 0.0 0.0 
0.0 0.0 0.0 
0.0 0.0 0.0 
0.0 0.0 0.0 
0.0 0.0 0.0 
0.0 0.0 0.0 
0.0 0.0 0.0 
0.0 0.0 0.0 
0.0 0.0 0.0 
0.0 0.0 0.0 
0.0 0.0 0.0 
0.0 0.0 0.0 
0.0 0.0 0.0 
0.0 0.0 0.0 
0.0 0.0 0.0 
0.0 0.0 0.0 
0.0 0.0 0.0 
0.0 0.0 0.0 
0.0 0.0 0.0 
0.0 0.0 0.0 
0.0 0.0 0.0 
0.0 0.0 0.0 
0.0 0.0 0.0 
0.0 0.0 0.0 
0.0 0.0 0.0 
0.0 0.0 0.0 
0.0 0.0 0.0 
0.0 0.0 0.0 
0.0 0.0 0.0 
0.0 0.0 0.0 
0.0 0.0 0.0 
0.0 0.0 0.0 
0.0 0.0 0.0 
0.0 0.0 0.0 
0.0 0.0 0.0 
0.0 0.0 0.0 
0.0 0.0 0.0 
0.0 0.0 0.0 
0.0 0.0 0.0 
0.0 0.0 0.0 
0.0 0.0 0.0 
0.0 0.0 0.0 
0.0 0.0 0.0 
0.0 0.0 0.0 
0.0 0.0 0.0 
0.0 0.0 0.0 
0.0 0.0 0.0 
0.0 0.0 0.0 
0.0 0.0 0.0 
0.0 0.0 0.0 
0.0 0.0 0.0 
0.0 0.0 0.0 
0.0 0.0 0.0 
0.0 0.0 0.0 
0.0 0.0 0.0 
0.0 0.0 0.0 
0.0 0.0 0.0 
0.0 0.0 0.0 
0.0 0.0 0.0 
0.0 0.0 0.0 
0.0 0.0 0.0 
0.0 0.0 0.0 
0.0 0.0 0.0 
0.0 0.0 0.0 
0.0 0.0 0.0 
0.0 0.0 0.0 
0.0 0.0 0.0 
0.0 0.0 0.0 
0.0 0.0 0.0 
0.0 0.0 0.0 
0.0 0.0 0.0 
0.0 0.0 0.0 
0.0 0.0 0.0 
0.0 0.0 0.0 
0.0 0.0 0.0 
0.0 0.0 0.0 
0.0 0.0 0.0 
0.0 0.0 0.0 
0.0 0.0 0.0 
0.0 0.0 0.0 
0.0 0.0 0.0 
0.0 0.0 0.0 
0.0 0.0 0.0 
0.0 0.0 0.0 
0.0 0.0 0.0 
0.0 0.0 0.0 
0.0 0.0 0.0 
0.0 0.0 0.0 
0.0 0.0 0.0 
0.0 0.0 0.0 
0.0 0.0 0.0 
0.0 0.0 0.0 
0.0 0.0 0.0 
0.0 0.0 0.0 
0.0 0.0 0.0 
0.0 0.0 0.0 
0.0 0.0 0.0 
0.0 0.0 0.0 
0.0 0.0 0.0 
0.0 0.0 0.0 
0.0 0.0 0.0 
0.0 0.0 0.0 
0.0 0.0 0.0 
0.0 0.0 0.0 
0.0 0.0 0.0 
0.0 0.0 0.0 
0.0 0.0 0.0 
0.0 0.0 0.0 
0.0 0.0 0.0 
0.0 0.0 0.0 
0.0 0.0 0.0 
0.0 0.0 0.0 
0.0 0.0 0.0 
0.0 0.0 0.0 
0.0 0.0 0.0 
0.0 0.0 0.0 
0.0 0.0 0.0 
0.0 0.0 0.0 
0.0 0.0 0.0 
0.0 0.0 0.0 
0.0 0.0 0.0 
0.0 0.0 0.0 
0.0 0.0 0.0 
0.0 0.0 0.0 
0.0 0.0 0.0 
0.0 0.0 0.0 
0.0 0.0 0.0 
0.0 0.0 0.0 
0.0 0.0 0.0 
0.0 0.0 0.0 
0.0 0.0 0.0 
0.0 0.0 0.0 
0.0 0.0 0.0 
0.0 0.0 0.0 
0.0 0.0 0.0 
0.0 0.0 0.0 
0.0 0.0 0.0 
0.0 0.0 0.0 
0.0 0.0 0.0 
0.0 0.0 0.0 
0.0 0.0 0.0 
0.0 0.0 0.0 
0.0 0.0 0.0 
0.0 0.0 0.0 
0.0 0.0 0.0 
0.0 0.0 0.0 
0.0 0.0 0.0 
0.0 0.0 0.0 
0.0 0.0 0.0 
0.0 0.0 0.0 
0.0 0.0 0.0 
0.0 0.0 0.0 
0.0 0.0 0.0 
0.0 0.0 0.0 
0.0 0.0 0.0 
0.0 0.0 0.0 
0.0 0.0 0.0 
0.0 0.0 0.0 
0.0 0.0 0.0 
0.0 0.0 0.0 
0.0 0.0 0.0 
0.0 0.0 0.0 
0.0 0.0 0.0 
0.0 0.0 0.0 
0.0 0.0 0.0 
0.0 0.0 0.0 
0.0 0.0 0.0 
0.0 0.0 0.0 
0.0 0.0 0.0 
0.0 0.0 0.0 
0.0 0.0 0.0 
0.0 0.0 0.0 
0.0 0.0 0.0 
0.0 0.0 0.0 
0.0 0.0 0.0 
0.0 0.0 0.0 
0.0 0.0 0.0 
0.0 0.0 0.0 
0.0 0.0 0.0 
0.0 0.0 0.0 
0.0 0.0 0.0 
0.0 0.0 0.0 
0.0 0.0 0.0 
0.0 0.0 0.0 
0.0 0.0 0.0 
0.0 0.0 0.0 
0.0 0.0 0.0 
0.0 0.0 0.0 
0.0 0.0 0.0 
0.0 0.0 0.0 
0.0 0.0 0.0 
0.0 0.0 0.0 
0.0 0.0 0.0 
0.0 0.0 0.0 
0.0 0.0 0.0 
0.0 0.0 0.0 
0.0 0.0 0.0 
0.0 0.0 0.0 
0.0 0.0 0.0 
0.0 0.0 0.0 
0.0 0.0 0.0 
0.0 0.0 0.0 
0.0 0.0 0.0 
0.0 0.0 0.0 
0.0 0.0 0.0 
0.0 0.0 0.0 
0.0 0.0 0.0 
0.0 0.0 0.0 
0.0 0.0 0.0 
0.0 0.0 0.0 
0.0 0.0 0.0 
0.0 0.0 0.0 
0.0 0.0 0.0 
0.0 0.0 0.0 
0.0 0.0 0.0 
0.0 0.0 0.0 
0.0 0.0 0.0 
0.0 0.0 0.0 
0.0 0.0 0.0 
0.0 0.0 0.0 
0.0 0.0 0.0 
0.0 0.0 0.0 
0.0 0.0 0.0 
0.0 0.0 0.0 
0.0 0.0 0.0 
0.0 0.0 0.0 
0.0 0.0 0.0 
0.0 0.0 0.0 
0.0 0.0 0.0 
0.0 0.0 0.0 
0.0 0.0 0.0 
0.0 0.0 0.0 
0.0 0.0 0.0 
0.0 0.0 0.0 
0.0 0.0 0.0 
0.0 0.0 0.0 
0.0 0.0 0.0 
0.0 0.0 0.0 
0.0 0.0 0.0 
0.0 0.0 0.0 
0.0 0.0 0.0 
0.0 0.0 0.0 
0.0 0.0 0.0 
0.0 0.0 0.0 
0.0 0.0 0.0 
0.0 0.0 0.0 
0.0 0.0 0.0 
0.0 0.0 0.0 
0.0 0.0 0.0 
0.0 0.0 0.0 
0.0 0.0 0.0 
0.0 0.0 0.0 
0.0 0.0 0.0 
0.0 0.0 0.0 
0.0 0.0 0.0 
0.0 0.0 0.0 
0.0 0.0 0.0 
0.0 0.0 0.0 
0.0 0.0 0.0 
0.0 0.0 0.0 
0.0 0.0 0.0 
0.0 0.0 0.0 

SCALARS node_boundary float
LOOKUP_TABLE default
1.000000000000e+00 
1.000000000000e+00 
1.000000000000e+00 
1.000000000000e+00 
1.000000000000e+00 
1.000000000000e+00 
1.000000000000e+00 
1.000000000000e+00 
1.000000000000e+00 
1.000000000000e+00 
1.000000000000e+00 
1.000000000000e+00 
1.000000000000e+00 
1.000000000000e+00 
1.000000000000e+00 
1.000000000000e+00 
1.000000000000e+00 
1.000000000000e+00 
1.000000000000e+00 
1.000000000000e+00 
1.000000000000e+00 
1.000000000000e+00 
1.000000000000e+00 
1.000000000000e+00 
1.000000000000e+00 
1.000000000000e+00 
1.000000000000e+00 
1.000000000000e+00 
1.000000000000e+00 
1.000000000000e+00 
1.000000000000e+00 
1.000000000000e+00 
1.000000000000e+00 
1.000000000000e+00 
1.000000000000e+00 
1.000000000000e+00 
1.000000000000e+00 
1.000000000000e+00 
1.000000000000e+00 
1.000000000000e+00 
1.000000000000e+00 
1.000000000000e+00 
1.000000000000e+00 
1.000000000000e+00 
1.000000000000e+00 
1.000000000000e+00 
1.000000000000e+00 
1.000000000000e+00 
1.000000000000e+00 
1.000000000000e+00 
1.000000000000e+00 
1.000000000000e+00 
1.000000000000e+00 
1.000000000000e+00 
1.000000000000e+00 
1.000000000000e+00 
1.000000000000e+00 
1.000000000000e+00 
1.000000000000e+00 
1.000000000000e+00 
1.000000000000e+00 
1.000000000000e+00 
1.000000000000e+00 
1.000000000000e+00 
1.000000000000e+00 
1.000000000000e+00 
1.000000000000e+00 
1.000000000000e+00 
1.000000000000e+00 
1.000000000000e+00 
1.000000000000e+00 
1.000000000000e+00 
1.000000000000e+00 
1.000000000000e+00 
1.000000000000e+00 
1.000000000000e+00 
1.000000000000e+00 
1.000000000000e+00 
1.000000000000e+00 
1.000000000000e+00 
1.000000000000e+00 
1.000000000000e+00 
0.0
1.000000000000e+00 
1.000000000000e+00 
1.000000000000e+00 
1.000000000000e+00 
1.000000000000e+00 
1.000000000000e+00 
1.000000000000e+00 
1.000000000000e+00 
0.0
1.000000000000e+00 
1.000000000000e+00 
0.0
0.0
0.0
0.0
0.0
0.0
0.0
0.0
0.0
0.0
0.0
0.0
0.0
0.0
1.000000000000e+00 
1.000000000000e+00 
1.000000000000e+00 
1.000000000000e+00 
1.000000000000e+00 
1.000000000000e+00 
1.000000000000e+00 
1.000000000000e+00 
1.000000000000e+00 
1.000000000000e+00 
1.000000000000e+00 
1.000000000000e+00 
1.000000000000e+00 
1.000000000000e+00 
1.000000000000e+00 
1.000000000000e+00 
1.000000000000e+00 
1.000000000000e+00 
1.000000000000e+00 
1.000000000000e+00 
1.000000000000e+00 
1.000000000000e+00 
1.000000000000e+00 
1.000000000000e+00 
1.000000000000e+00 
1.000000000000e+00 
1.000000000000e+00 
1.000000000000e+00 
1.000000000000e+00 
1.000000000000e+00 
1.000000000000e+00 
1.000000000000e+00 
1.000000000000e+00 
1.000000000000e+00 
1.000000000000e+00 
1.000000000000e+00 
0.0
0.0
0.0
0.0
0.0
0.0
0.0
0.0
0.0
0.0
0.0
0.0
0.0
0.0
0.0
0.0
1.000000000000e+00 
1.000000000000e+00 
1.000000000000e+00 
1.000000000000e+00 
1.000000000000e+00 
1.000000000000e+00 
1.000000000000e+00 
1.000000000000e+00 
0.0
0.0
0.0
0.0
0.0
0.0
0.0
0.0
0.0
0.0
0.0
0.0
0.0
0.0
0.0
0.0
0.0
0.0
0.0
0.0
0.0
0.0
0.0
0.0
0.0
0.0
0.0
0.0
0.0
0.0
0.0
0.0
0.0
0.0
0.0
0.0
0.0
0.0
0.0
0.0
0.0
0.0
0.0
0.0
0.0
0.0
0.0
0.0
0.0
0.0
0.0
0.0
0.0
0.0
0.0
0.0
0.0
0.0
0.0
0.0
0.0
0.0
0.0
0.0
0.0
0.0
0.0
0.0
0.0
0.0
0.0
0.0
0.0
0.0
0.0
0.0
0.0
0.0
0.0
0.0
0.0
0.0
0.0
0.0
0.0
0.0
0.0
0.0
0.0
0.0
0.0
0.0
0.0
0.0
0.0
0.0
0.0
0.0
0.0
0.0
0.0
0.0
0.0
0.0
0.0
0.0
0.0
0.0
0.0
0.0
0.0
0.0
0.0
0.0
0.0
0.0
0.0
0.0
0.0
0.0
0.0
0.0
0.0
0.0
0.0
0.0
0.0
0.0
0.0
0.0
0.0
0.0
0.0
0.0
0.0
0.0
0.0
0.0
0.0
0.0
0.0
0.0
0.0
0.0
0.0
0.0
0.0
0.0
0.0
0.0
0.0
0.0
0.0
0.0
0.0
0.0
0.0
0.0
0.0
0.0
0.0
0.0
0.0
0.0
0.0
0.0
0.0
0.0
0.0
0.0
0.0
0.0
0.0
0.0
0.0
0.0
0.0
0.0
0.0
0.0
0.0
0.0
0.0
0.0
0.0
0.0
0.0
0.0
0.0
0.0
0.0
0.0
0.0
0.0
0.0
0.0
0.0
0.0
0.0
0.0
0.0
0.0
0.0
0.0
0.0
0.0
0.0
0.0
0.0
0.0
0.0
0.0
0.0
0.0
0.0
0.0
0.0
0.0
0.0
0.0
0.0
0.0
0.0
0.0
0.0
0.0
0.0
0.0
0.0
0.0
0.0
0.0
0.0
0.0
0.0
0.0
0.0
0.0
0.0
0.0
0.0
0.0
0.0
0.0
0.0
0.0
0.0
0.0
0.0
0.0
0.0
0.0
0.0
0.0
0.0
0.0
0.0
0.0
0.0
0.0
0.0
0.0
0.0
0.0
0.0
0.0
0.0
0.0
0.0
0.0
0.0
0.0
0.0
0.0
0.0
0.0
0.0
0.0
0.0
0.0
0.0
0.0
0.0
0.0
0.0
0.0
0.0
0.0
0.0
0.0
0.0
0.0
0.0
0.0
0.0
0.0
0.0
0.0
0.0
0.0
0.0
0.0
0.0
0.0
0.0
0.0
0.0
0.0
0.0
0.0
0.0
0.0
0.0
0.0
0.0
0.0
0.0
0.0
0.0
0.0
0.0
0.0
0.0
0.0
0.0
0.0
0.0
0.0
0.0
0.0
0.0
0.0
0.0
0.0
0.0
0.0
0.0
0.0
0.0
0.0
0.0
0.0
0.0
0.0
0.0
0.0
0.0
0.0
0.0
0.0
0.0
0.0
0.0
0.0
0.0
0.0
0.0
0.0
0.0
0.0
0.0
0.0
0.0
0.0
0.0
0.0
0.0
0.0
0.0
0.0
0.0
0.0
0.0
0.0
0.0
0.0
0.0
0.0
0.0
0.0
0.0
0.0
0.0
0.0
0.0
0.0
0.0
0.0
0.0
0.0
0.0
0.0
0.0
0.0
0.0
0.0
0.0
0.0
0.0
0.0
0.0
0.0
0.0
0.0
0.0
0.0
0.0
0.0
0.0
0.0
0.0
0.0
0.0
0.0
0.0
0.0
0.0
0.0
0.0
0.0
0.0
0.0
0.0
0.0
0.0
0.0
0.0
0.0
0.0
0.0
0.0
0.0
0.0
0.0
0.0
0.0
0.0
0.0
0.0
0.0
0.0
0.0
0.0
0.0
0.0
0.0
0.0
0.0
0.0
0.0
0.0
0.0
0.0
0.0
0.0
0.0
0.0
0.0
0.0
0.0
0.0
0.0
0.0
0.0
0.0
0.0
0.0
0.0
0.0
0.0
0.0
0.0
0.0
0.0
0.0
0.0
0.0
0.0
0.0
0.0
0.0
0.0
0.0
0.0
0.0
0.0
0.0
0.0
0.0
0.0
0.0
0.0
0.0
0.0
0.0
0.0
0.0
0.0
0.0
0.0
0.0
0.0
0.0
0.0
0.0
0.0
0.0
0.0
0.0
0.0
0.0
0.0
0.0
0.0
0.0
0.0
0.0
0.0
0.0
0.0
0.0
0.0
0.0
0.0
0.0
0.0
0.0
0.0
0.0
0.0
0.0
0.0
0.0
0.0
0.0
0.0
0.0
0.0
0.0
0.0
0.0
0.0
0.0
0.0
0.0
0.0
0.0
0.0
0.0
0.0
0.0
0.0
0.0
0.0
0.0
0.0
0.0
0.0
0.0
0.0
0.0
0.0
0.0
0.0
0.0
0.0
0.0
0.0
0.0
0.0
0.0
0.0
0.0
0.0
0.0
0.0
0.0
0.0
0.0
0.0
0.0
0.0
0.0
0.0
0.0
0.0
0.0
0.0
0.0
0.0
0.0
0.0
0.0
0.0
0.0
0.0
0.0
0.0
0.0
0.0
0.0
0.0
0.0
0.0
0.0
0.0
0.0
0.0
0.0
0.0
0.0
0.0
0.0
0.0
0.0
0.0
0.0
0.0
0.0
0.0
0.0
0.0
0.0
0.0
0.0
0.0
0.0
0.0
0.0
0.0
0.0
0.0
0.0
0.0
0.0
0.0
0.0
0.0
0.0
0.0
0.0
0.0
0.0
0.0
0.0
0.0
0.0
0.0
0.0
0.0
0.0
0.0
0.0
0.0
0.0
0.0
0.0
0.0
0.0
0.0
0.0
0.0
0.0
0.0
0.0
0.0
0.0
0.0
0.0
0.0
0.0
0.0
0.0
0.0
0.0
0.0
0.0
0.0
0.0
0.0
0.0
0.0
0.0
0.0
0.0
0.0
0.0
0.0
0.0
0.0
0.0
0.0
0.0
0.0
0.0
0.0
0.0
0.0
0.0
0.0
0.0
0.0
0.0
0.0
0.0
0.0
0.0
0.0
0.0
0.0
0.0
0.0
0.0
0.0
0.0
0.0
0.0
0.0
0.0
0.0
0.0
0.0
0.0
0.0
0.0
0.0
0.0
0.0
0.0
0.0
0.0
0.0
0.0
0.0
0.0
0.0
0.0
0.0
0.0
0.0
0.0
0.0
0.0
0.0
0.0
0.0
0.0
0.0
0.0
0.0
0.0
0.0
0.0
0.0
0.0
0.0
0.0
0.0
0.0
0.0
0.0
0.0
0.0
0.0
0.0
0.0
0.0
0.0
0.0
0.0
0.0
0.0
0.0
0.0
0.0
0.0
0.0
0.0
0.0
0.0
0.0
0.0
0.0
0.0
0.0
0.0
0.0
0.0
0.0
0.0
0.0
0.0
0.0
0.0
0.0
0.0
0.0
0.0
0.0
0.0
0.0
0.0
0.0
0.0
0.0
0.0
0.0
0.0
0.0
0.0
0.0
0.0
0.0
0.0
0.0
0.0
0.0
0.0
0.0
0.0
0.0
0.0
0.0
0.0
0.0
0.0
0.0
0.0
0.0
0.0
0.0
0.0
0.0
0.0
0.0
0.0
0.0
0.0
0.0
0.0
0.0
0.0
0.0
0.0
0.0
0.0
0.0
0.0
0.0
0.0
0.0
0.0
0.0
0.0
0.0
0.0
0.0
0.0
0.0
0.0
0.0
0.0
0.0
0.0
0.0
0.0
0.0
0.0
0.0
0.0
0.0
0.0
0.0
0.0
0.0
0.0
0.0
0.0
0.0
0.0
0.0
0.0
0.0
0.0
0.0
0.0
0.0
0.0
0.0
0.0
0.0
0.0
0.0
0.0
0.0
0.0
0.0
0.0
0.0

VECTORS node_force_gravity float
0.0 -1.962000000000e+01 0.0 
0.0 -1.962000000000e+01 0.0 
0.0 -1.962000000000e+01 0.0 
0.0 -1.962000000000e+01 0.0 
0.0 -1.962000000000e+01 0.0 
0.0 -1.962000000000e+01 0.0 
0.0 -1.962000000000e+01 0.0 
0.0 -1.962000000000e+01 0.0 
0.0 -1.962000000000e+01 0.0 
0.0 -1.962000000000e+01 0.0 
0.0 -1.962000000000e+01 0.0 
0.0 -1.962000000000e+01 0.0 
0.0 -1.962000000000e+01 0.0 
0.0 -1.962000000000e+01 0.0 
0.0 -1.962000000000e+01 0.0 
0.0 -1.962000000000e+01 0.0 
0.0 -1.962000000000e+01 0.0 
0.0 -1.962000000000e+01 0.0 
0.0 -1.962000000000e+01 0.0 
0.0 -1.962000000000e+01 0.0 
0.0 -1.962000000000e+01 0.0 
0.0 -1.962000000000e+01 0.0 
0.0 -1.962000000000e+01 0.0 
0.0 -1.962000000000e+01 0.0 
0.0 -1.962000000000e+01 0.0 
0.0 -1.962000000000e+01 0.0 
0.0 -1.962000000000e+01 0.0 
0.0 -1.962000000000e+01 0.0 
0.0 -1.962000000000e+01 0.0 
0.0 -1.962000000000e+01 0.0 
0.0 -1.962000000000e+01 0.0 
0.0 -1.962000000000e+01 0.0 
0.0 -1.962000000000e+01 0.0 
0.0 -1.962000000000e+01 0.0 
0.0 -1.962000000000e+01 0.0 
0.0 -1.962000000000e+01 0.0 
0.0 -1.962000000000e+01 0.0 
0.0 -1.962000000000e+01 0.0 
0.0 -1.962000000000e+01 0.0 
0.0 -1.962000000000e+01 0.0 
0.0 -1.962000000000e+01 0.0 
0.0 -1.962000000000e+01 0.0 
0.0 -1.962000000000e+01 0.0 
0.0 -1.962000000000e+01 0.0 
0.0 -1.962000000000e+01 0.0 
0.0 -1.962000000000e+01 0.0 
0.0 -1.962000000000e+01 0.0 
0.0 -1.962000000000e+01 0.0 
0.0 -1.962000000000e+01 0.0 
0.0 -1.962000000000e+01 0.0 
0.0 -1.962000000000e+01 0.0 
0.0 -1.962000000000e+01 0.0 
0.0 -1.962000000000e+01 0.0 
0.0 -1.962000000000e+01 0.0 
0.0 -1.962000000000e+01 0.0 
0.0 -1.962000000000e+01 0.0 
0.0 -1.962000000000e+01 0.0 
0.0 -1.962000000000e+01 0.0 
0.0 -1.962000000000e+01 0.0 
0.0 -1.962000000000e+01 0.0 
0.0 -1.962000000000e+01 0.0 
0.0 -1.962000000000e+01 0.0 
0.0 -1.962000000000e+01 0.0 
0.0 -1.962000000000e+01 0.0 
0.0 -1.962000000000e+01 0.0 
0.0 -1.962000000000e+01 0.0 
0.0 -1.962000000000e+01 0.0 
0.0 -1.962000000000e+01 0.0 
0.0 -1.962000000000e+01 0.0 
0.0 -1.962000000000e+01 0.0 
0.0 -1.962000000000e+01 0.0 
0.0 -1.962000000000e+01 0.0 
0.0 -1.962000000000e+01 0.0 
0.0 -1.962000000000e+01 0.0 
0.0 -1.962000000000e+01 0.0 
0.0 -1.962000000000e+01 0.0 
0.0 -1.962000000000e+01 0.0 
0.0 -1.962000000000e+01 0.0 
0.0 -1.962000000000e+01 0.0 
0.0 -1.962000000000e+01 0.0 
0.0 -1.962000000000e+01 0.0 
0.0 -1.962000000000e+01 0.0 
0.0 -1.962000000000e+01 0.0 
0.0 -1.962000000000e+01 0.0 
0.0 -1.962000000000e+01 0.0 
0.0 -1.962000000000e+01 0.0 
0.0 -1.962000000000e+01 0.0 
0.0 -1.962000000000e+01 0.0 
0.0 -1.962000000000e+01 0.0 
0.0 -1.962000000000e+01 0.0 
0.0 -1.962000000000e+01 0.0 
0.0 -1.962000000000e+01 0.0 
0.0 -1.962000000000e+01 0.0 
0.0 -1.962000000000e+01 0.0 
0.0 -1.962000000000e+01 0.0 
0.0 -1.962000000000e+01 0.0 
0.0 -1.962000000000e+01 0.0 
0.0 -1.962000000000e+01 0.0 
0.0 -1.962000000000e+01 0.0 
0.0 -1.962000000000e+01 0.0 
0.0 -1.962000000000e+01 0.0 
0.0 -1.962000000000e+01 0.0 
0.0 -1.962000000000e+01 0.0 
0.0 -1.962000000000e+01 0.0 
0.0 -1.962000000000e+01 0.0 
0.0 -1.962000000000e+01 0.0 
0.0 -1.962000000000e+01 0.0 
0.0 -1.962000000000e+01 0.0 
0.0 -1.962000000000e+01 0.0 
0.0 -1.962000000000e+01 0.0 
0.0 -1.962000000000e+01 0.0 
0.0 -1.962000000000e+01 0.0 
0.0 -1.962000000000e+01 0.0 
0.0 -1.962000000000e+01 0.0 
0.0 -1.962000000000e+01 0.0 
0.0 -1.962000000000e+01 0.0 
0.0 -1.962000000000e+01 0.0 
0.0 -1.962000000000e+01 0.0 
0.0 -1.962000000000e+01 0.0 
0.0 -1.962000000000e+01 0.0 
0.0 -1.962000000000e+01 0.0 
0.0 -1.962000000000e+01 0.0 
0.0 -1.962000000000e+01 0.0 
0.0 -1.962000000000e+01 0.0 
0.0 -1.962000000000e+01 0.0 
0.0 -1.962000000000e+01 0.0 
0.0 -1.962000000000e+01 0.0 
0.0 -1.962000000000e+01 0.0 
0.0 -1.962000000000e+01 0.0 
0.0 -1.962000000000e+01 0.0 
0.0 -1.962000000000e+01 0.0 
0.0 -1.962000000000e+01 0.0 
0.0 -1.962000000000e+01 0.0 
0.0 -1.962000000000e+01 0.0 
0.0 -1.962000000000e+01 0.0 
0.0 -1.962000000000e+01 0.0 
0.0 -1.962000000000e+01 0.0 
0.0 -1.962000000000e+01 0.0 
0.0 -1.962000000000e+01 0.0 
0.0 -1.962000000000e+01 0.0 
0.0 -1.962000000000e+01 0.0 
0.0 -1.962000000000e+01 0.0 
0.0 -1.962000000000e+01 0.0 
0.0 -1.962000000000e+01 0.0 
0.0 -1.962000000000e+01 0.0 
0.0 -1.962000000000e+01 0.0 
0.0 -1.962000000000e+01 0.0 
0.0 -1.962000000000e+01 0.0 
0.0 -1.962000000000e+01 0.0 
0.0 -1.962000000000e+01 0.0 
0.0 -1.962000000000e+01 0.0 
0.0 -1.962000000000e+01 0.0 
0.0 -1.962000000000e+01 0.0 
0.0 -1.962000000000e+01 0.0 
0.0 -1.962000000000e+01 0.0 
0.0 -1.962000000000e+01 0.0 
0.0 -1.962000000000e+01 0.0 
0.0 -1.962000000000e+01 0.0 
0.0 -1.962000000000e+01 0.0 
0.0 -1.962000000000e+01 0.0 
0.0 -1.962000000000e+01 0.0 
0.0 -1.962000000000e+01 0.0 
0.0 -1.962000000000e+01 0.0 
0.0 -1.962000000000e+01 0.0 
0.0 -1.962000000000e+01 0.0 
0.0 -1.962000000000e+01 0.0 
0.0 -1.962000000000e+01 0.0 
0.0 -1.962000000000e+01 0.0 
0.0 -1.962000000000e+01 0.0 
0.0 -1.962000000000e+01 0.0 
0.0 -1.962000000000e+01 0.0 
0.0 -1.962000000000e+01 0.0 
0.0 -1.962000000000e+01 0.0 
0.0 -1.962000000000e+01 0.0 
0.0 -1.962000000000e+01 0.0 
0.0 -1.962000000000e+01 0.0 
0.0 -1.962000000000e+01 0.0 
0.0 -1.962000000000e+01 0.0 
0.0 -1.962000000000e+01 0.0 
0.0 -1.962000000000e+01 0.0 
0.0 -1.962000000000e+01 0.0 
0.0 -1.962000000000e+01 0.0 
0.0 -1.962000000000e+01 0.0 
0.0 -1.962000000000e+01 0.0 
0.0 -1.962000000000e+01 0.0 
0.0 -1.962000000000e+01 0.0 
0.0 -1.962000000000e+01 0.0 
0.0 -1.962000000000e+01 0.0 
0.0 -1.962000000000e+01 0.0 
0.0 -1.962000000000e+01 0.0 
0.0 -1.962000000000e+01 0.0 
0.0 -1.962000000000e+01 0.0 
0.0 -1.962000000000e+01 0.0 
0.0 -1.962000000000e+01 0.0 
0.0 -1.962000000000e+01 0.0 
0.0 -1.962000000000e+01 0.0 
0.0 -1.962000000000e+01 0.0 
0.0 -1.962000000000e+01 0.0 
0.0 -1.962000000000e+01 0.0 
0.0 -1.962000000000e+01 0.0 
0.0 -1.962000000000e+01 0.0 
0.0 -1.962000000000e+01 0.0 
0.0 -1.962000000000e+01 0.0 
0.0 -1.962000000000e+01 0.0 
0.0 -1.962000000000e+01 0.0 
0.0 -1.962000000000e+01 0.0 
0.0 -1.962000000000e+01 0.0 
0.0 -1.962000000000e+01 0.0 
0.0 -1.962000000000e+01 0.0 
0.0 -1.962000000000e+01 0.0 
0.0 -1.962000000000e+01 0.0 
0.0 -1.962000000000e+01 0.0 
0.0 -1.962000000000e+01 0.0 
0.0 -1.962000000000e+01 0.0 
0.0 -1.962000000000e+01 0.0 
0.0 -1.962000000000e+01 0.0 
0.0 -1.962000000000e+01 0.0 
0.0 -1.962000000000e+01 0.0 
0.0 -1.962000000000e+01 0.0 
0.0 -1.962000000000e+01 0.0 
0.0 -1.962000000000e+01 0.0 
0.0 -1.962000000000e+01 0.0 
0.0 -1.962000000000e+01 0.0 
0.0 -1.962000000000e+01 0.0 
0.0 -1.962000000000e+01 0.0 
0.0 -1.962000000000e+01 0.0 
0.0 -1.962000000000e+01 0.0 
0.0 -1.962000000000e+01 0.0 
0.0 -1.962000000000e+01 0.0 
0.0 -1.962000000000e+01 0.0 
0.0 -1.962000000000e+01 0.0 
0.0 -1.962000000000e+01 0.0 
0.0 -1.962000000000e+01 0.0 
0.0 -1.962000000000e+01 0.0 
0.0 -1.962000000000e+01 0.0 
0.0 -1.962000000000e+01 0.0 
0.0 -1.962000000000e+01 0.0 
0.0 -1.962000000000e+01 0.0 
0.0 -1.962000000000e+01 0.0 
0.0 -1.962000000000e+01 0.0 
0.0 -1.962000000000e+01 0.0 
0.0 -1.962000000000e+01 0.0 
0.0 -1.962000000000e+01 0.0 
0.0 -1.962000000000e+01 0.0 
0.0 -1.962000000000e+01 0.0 
0.0 -1.962000000000e+01 0.0 
0.0 -1.962000000000e+01 0.0 
0.0 -1.962000000000e+01 0.0 
0.0 -1.962000000000e+01 0.0 
0.0 -1.962000000000e+01 0.0 
0.0 -1.962000000000e+01 0.0 
0.0 -1.962000000000e+01 0.0 
0.0 -1.962000000000e+01 0.0 
0.0 -1.962000000000e+01 0.0 
0.0 -1.962000000000e+01 0.0 
0.0 -1.962000000000e+01 0.0 
0.0 -1.962000000000e+01 0.0 
0.0 -1.962000000000e+01 0.0 
0.0 -1.962000000000e+01 0.0 
0.0 -1.962000000000e+01 0.0 
0.0 -1.962000000000e+01 0.0 
0.0 -1.962000000000e+01 0.0 
0.0 -1.962000000000e+01 0.0 
0.0 -1.962000000000e+01 0.0 
0.0 -1.962000000000e+01 0.0 
0.0 -1.962000000000e+01 0.0 
0.0 -1.962000000000e+01 0.0 
0.0 -1.962000000000e+01 0.0 
0.0 -1.962000000000e+01 0.0 
0.0 -1.962000000000e+01 0.0 
0.0 -1.962000000000e+01 0.0 
0.0 -1.962000000000e+01 0.0 
0.0 -1.962000000000e+01 0.0 
0.0 -1.962000000000e+01 0.0 
0.0 -1.962000000000e+01 0.0 
0.0 -1.962000000000e+01 0.0 
0.0 -1.962000000000e+01 0.0 
0.0 -1.962000000000e+01 0.0 
0.0 -1.962000000000e+01 0.0 
0.0 -1.962000000000e+01 0.0 
0.0 -1.962000000000e+01 0.0 
0.0 -1.962000000000e+01 0.0 
0.0 -1.962000000000e+01 0.0 
0.0 -1.962000000000e+01 0.0 
0.0 -1.962000000000e+01 0.0 
0.0 -1.962000000000e+01 0.0 
0.0 -1.962000000000e+01 0.0 
0.0 -1.962000000000e+01 0.0 
0.0 -1.962000000000e+01 0.0 
0.0 -1.962000000000e+01 0.0 
0.0 -1.962000000000e+01 0.0 
0.0 -1.962000000000e+01 0.0 
0.0 -1.962000000000e+01 0.0 
0.0 -1.962000000000e+01 0.0 
0.0 -1.962000000000e+01 0.0 
0.0 -1.962000000000e+01 0.0 
0.0 -1.962000000000e+01 0.0 
0.0 -1.962000000000e+01 0.0 
0.0 -1.962000000000e+01 0.0 
0.0 -1.962000000000e+01 0.0 
0.0 -1.962000000000e+01 0.0 
0.0 -1.962000000000e+01 0.0 
0.0 -1.962000000000e+01 0.0 
0.0 -1.962000000000e+01 0.0 
0.0 -1.962000000000e+01 0.0 
0.0 -1.962000000000e+01 0.0 
0.0 -1.962000000000e+01 0.0 
0.0 -1.962000000000e+01 0.0 
0.0 -1.962000000000e+01 0.0 
0.0 -1.962000000000e+01 0.0 
0.0 -1.962000000000e+01 0.0 
0.0 -1.962000000000e+01 0.0 
0.0 -1.962000000000e+01 0.0 
0.0 -1.962000000000e+01 0.0 
0.0 -1.962000000000e+01 0.0 
0.0 -1.962000000000e+01 0.0 
0.0 -1.962000000000e+01 0.0 
0.0 -1.962000000000e+01 0.0 
0.0 -1.962000000000e+01 0.0 
0.0 -1.962000000000e+01 0.0 
0.0 -1.962000000000e+01 0.0 
0.0 -1.962000000000e+01 0.0 
0.0 -1.962000000000e+01 0.0 
0.0 -1.962000000000e+01 0.0 
0.0 -1.962000000000e+01 0.0 
0.0 -1.962000000000e+01 0.0 
0.0 -1.962000000000e+01 0.0 
0.0 -1.962000000000e+01 0.0 
0.0 -1.962000000000e+01 0.0 
0.0 -1.962000000000e+01 0.0 
0.0 -1.962000000000e+01 0.0 
0.0 -1.962000000000e+01 0.0 
0.0 -1.962000000000e+01 0.0 
0.0 -1.962000000000e+01 0.0 
0.0 -1.962000000000e+01 0.0 
0.0 -1.962000000000e+01 0.0 
0.0 -1.962000000000e+01 0.0 
0.0 -1.962000000000e+01 0.0 
0.0 -1.962000000000e+01 0.0 
0.0 -1.962000000000e+01 0.0 
0.0 -1.962000000000e+01 0.0 
0.0 -1.962000000000e+01 0.0 
0.0 -1.962000000000e+01 0.0 
0.0 -1.962000000000e+01 0.0 
0.0 -1.962000000000e+01 0.0 
0.0 -1.962000000000e+01 0.0 
0.0 -1.962000000000e+01 0.0 
0.0 -1.962000000000e+01 0.0 
0.0 -1.962000000000e+01 0.0 
0.0 -1.962000000000e+01 0.0 
0.0 -1.962000000000e+01 0.0 
0.0 -1.962000000000e+01 0.0 
0.0 -1.962000000000e+01 0.0 
0.0 -1.962000000000e+01 0.0 
0.0 -1.962000000000e+01 0.0 
0.0 -1.962000000000e+01 0.0 
0.0 -1.962000000000e+01 0.0 
0.0 -1.962000000000e+01 0.0 
0.0 -1.962000000000e+01 0.0 
0.0 -1.962000000000e+01 0.0 
0.0 -1.962000000000e+01 0.0 
0.0 -1.962000000000e+01 0.0 
0.0 -1.962000000000e+01 0.0 
0.0 -1.962000000000e+01 0.0 
0.0 -1.962000000000e+01 0.0 
0.0 -1.962000000000e+01 0.0 
0.0 -1.962000000000e+01 0.0 
0.0 -1.962000000000e+01 0.0 
0.0 -1.962000000000e+01 0.0 
0.0 -1.962000000000e+01 0.0 
0.0 -1.962000000000e+01 0.0 
0.0 -1.962000000000e+01 0.0 
0.0 -1.962000000000e+01 0.0 
0.0 -1.962000000000e+01 0.0 
0.0 -1.962000000000e+01 0.0 
0.0 -1.962000000000e+01 0.0 
0.0 -1.962000000000e+01 0.0 
0.0 -1.962000000000e+01 0.0 
0.0 -1.962000000000e+01 0.0 
0.0 -1.962000000000e+01 0.0 
0.0 -1.962000000000e+01 0.0 
0.0 -1.962000000000e+01 0.0 
0.0 -1.962000000000e+01 0.0 
0.0 -1.962000000000e+01 0.0 
0.0 -1.962000000000e+01 0.0 
0.0 -1.962000000000e+01 0.0 
0.0 -1.962000000000e+01 0.0 
0.0 -1.962000000000e+01 0.0 
0.0 -1.962000000000e+01 0.0 
0.0 -1.962000000000e+01 0.0 
0.0 -1.962000000000e+01 0.0 
0.0 -1.962000000000e+01 0.0 
0.0 -1.962000000000e+01 0.0 
0.0 -1.962000000000e+01 0.0 
0.0 -1.962000000000e+01 0.0 
0.0 -1.962000000000e+01 0.0 
0.0 -1.962000000000e+01 0.0 
0.0 -1.962000000000e+01 0.0 
0.0 -1.962000000000e+01 0.0 
0.0 -1.962000000000e+01 0.0 
0.0 -1.962000000000e+01 0.0 
0.0 -1.962000000000e+01 0.0 
0.0 -1.962000000000e+01 0.0 
0.0 -1.962000000000e+01 0.0 
0.0 -1.962000000000e+01 0.0 
0.0 -1.962000000000e+01 0.0 
0.0 -1.962000000000e+01 0.0 
0.0 -1.962000000000e+01 0.0 
0.0 -1.962000000000e+01 0.0 
0.0 -1.962000000000e+01 0.0 
0.0 -1.962000000000e+01 0.0 
0.0 -1.962000000000e+01 0.0 
0.0 -1.962000000000e+01 0.0 
0.0 -1.962000000000e+01 0.0 
0.0 -1.962000000000e+01 0.0 
0.0 -1.962000000000e+01 0.0 
0.0 -1.962000000000e+01 0.0 
0.0 -1.962000000000e+01 0.0 
0.0 -1.962000000000e+01 0.0 
0.0 -1.962000000000e+01 0.0 
0.0 -1.962000000000e+01 0.0 
0.0 -1.962000000000e+01 0.0 
0.0 -1.962000000000e+01 0.0 
0.0 -1.962000000000e+01 0.0 
0.0 -1.962000000000e+01 0.0 
0.0 -1.962000000000e+01 0.0 
0.0 -1.962000000000e+01 0.0 
0.0 -1.962000000000e+01 0.0 
0.0 -1.962000000000e+01 0.0 
0.0 -1.962000000000e+01 0.0 
0.0 -1.962000000000e+01 0.0 
0.0 -1.962000000000e+01 0.0 
0.0 -1.962000000000e+01 0.0 
0.0 -1.962000000000e+01 0.0 
0.0 -1.962000000000e+01 0.0 
0.0 -1.962000000000e+01 0.0 
0.0 -1.962000000000e+01 0.0 
0.0 -1.962000000000e+01 0.0 
0.0 -1.962000000000e+01 0.0 
0.0 -1.962000000000e+01 0.0 
0.0 -1.962000000000e+01 0.0 
0.0 -1.962000000000e+01 0.0 
0.0 -1.962000000000e+01 0.0 
0.0 -1.962000000000e+01 0.0 
0.0 -1.962000000000e+01 0.0 
0.0 -1.962000000000e+01 0.0 
0.0 -1.962000000000e+01 0.0 
0.0 -1.962000000000e+01 0.0 
0.0 -1.962000000000e+01 0.0 
0.0 -1.962000000000e+01 0.0 
0.0 -1.962000000000e+01 0.0 
0.0 -1.962000000000e+01 0.0 
0.0 -1.962000000000e+01 0.0 
0.0 -1.962000000000e+01 0.0 
0.0 -1.962000000000e+01 0.0 
0.0 -1.962000000000e+01 0.0 
0.0 -1.962000000000e+01 0.0 
0.0 -1.962000000000e+01 0.0 
0.0 -1.962000000000e+01 0.0 
0.0 -1.962000000000e+01 0.0 
0.0 -1.962000000000e+01 0.0 
0.0 -1.962000000000e+01 0.0 
0.0 -1.962000000000e+01 0.0 
0.0 -1.962000000000e+01 0.0 
0.0 -1.962000000000e+01 0.0 
0.0 -1.962000000000e+01 0.0 
0.0 -1.962000000000e+01 0.0 
0.0 -1.962000000000e+01 0.0 
0.0 -1.962000000000e+01 0.0 
0.0 -1.962000000000e+01 0.0 
0.0 -1.962000000000e+01 0.0 
0.0 -1.962000000000e+01 0.0 
0.0 -1.962000000000e+01 0.0 
0.0 -1.962000000000e+01 0.0 
0.0 -1.962000000000e+01 0.0 
0.0 -1.962000000000e+01 0.0 
0.0 -1.962000000000e+01 0.0 
0.0 -1.962000000000e+01 0.0 
0.0 -1.962000000000e+01 0.0 
0.0 -1.962000000000e+01 0.0 
0.0 -1.962000000000e+01 0.0 
0.0 -1.962000000000e+01 0.0 
0.0 -1.962000000000e+01 0.0 
0.0 -1.962000000000e+01 0.0 
0.0 -1.962000000000e+01 0.0 
0.0 -1.962000000000e+01 0.0 
0.0 -1.962000000000e+01 0.0 
0.0 -1.962000000000e+01 0.0 
0.0 -1.962000000000e+01 0.0 
0.0 -1.962000000000e+01 0.0 
0.0 -1.962000000000e+01 0.0 
0.0 -1.962000000000e+01 0.0 
0.0 -1.962000000000e+01 0.0 
0.0 -1.962000000000e+01 0.0 
0.0 -1.962000000000e+01 0.0 
0.0 -1.962000000000e+01 0.0 
0.0 -1.962000000000e+01 0.0 
0.0 -1.962000000000e+01 0.0 
0.0 -1.962000000000e+01 0.0 
0.0 -1.962000000000e+01 0.0 
0.0 -1.962000000000e+01 0.0 
0.0 -1.962000000000e+01 0.0 
0.0 -1.962000000000e+01 0.0 
0.0 -1.962000000000e+01 0.0 
0.0 -1.962000000000e+01 0.0 
0.0 -1.962000000000e+01 0.0 
0.0 -1.962000000000e+01 0.0 
0.0 -1.962000000000e+01 0.0 
0.0 -1.962000000000e+01 0.0 
0.0 -1.962000000000e+01 0.0 
0.0 -1.962000000000e+01 0.0 
0.0 -1.962000000000e+01 0.0 
0.0 -1.962000000000e+01 0.0 
0.0 -1.962000000000e+01 0.0 
0.0 -1.962000000000e+01 0.0 
0.0 -1.962000000000e+01 0.0 
0.0 -1.962000000000e+01 0.0 
0.0 -1.962000000000e+01 0.0 
0.0 -1.962000000000e+01 0.0 
0.0 -1.962000000000e+01 0.0 
0.0 -1.962000000000e+01 0.0 
0.0 -1.962000000000e+01 0.0 
0.0 -1.962000000000e+01 0.0 
0.0 -1.962000000000e+01 0.0 
0.0 -1.962000000000e+01 0.0 
0.0 -1.962000000000e+01 0.0 
0.0 -1.962000000000e+01 0.0 
0.0 -1.962000000000e+01 0.0 
0.0 -1.962000000000e+01 0.0 
0.0 -1.962000000000e+01 0.0 
0.0 -1.962000000000e+01 0.0 
0.0 -1.962000000000e+01 0.0 
0.0 -1.962000000000e+01 0.0 
0.0 -1.962000000000e+01 0.0 
0.0 -1.962000000000e+01 0.0 
0.0 -1.962000000000e+01 0.0 
0.0 -1.962000000000e+01 0.0 
0.0 -1.962000000000e+01 0.0 
0.0 -1.962000000000e+01 0.0 
0.0 -1.962000000000e+01 0.0 
0.0 -1.962000000000e+01 0.0 
0.0 -1.962000000000e+01 0.0 
0.0 -1.962000000000e+01 0.0 
0.0 -1.962000000000e+01 0.0 
0.0 -1.962000000000e+01 0.0 
0.0 -1.962000000000e+01 0.0 
0.0 -1.962000000000e+01 0.0 
0.0 -1.962000000000e+01 0.0 
0.0 -1.962000000000e+01 0.0 
0.0 -1.962000000000e+01 0.0 
0.0 -1.962000000000e+01 0.0 
0.0 -1.962000000000e+01 0.0 
0.0 -1.962000000000e+01 0.0 
0.0 -1.962000000000e+01 0.0 
0.0 -1.962000000000e+01 0.0 
0.0 -1.962000000000e+01 0.0 
0.0 -1.962000000000e+01 0.0 
0.0 -1.962000000000e+01 0.0 
0.0 -1.962000000000e+01 0.0 
0.0 -1.962000000000e+01 0.0 
0.0 -1.962000000000e+01 0.0 
0.0 -1.962000000000e+01 0.0 
0.0 -1.962000000000e+01 0.0 
0.0 -1.962000000000e+01 0.0 
0.0 -1.962000000000e+01 0.0 
0.0 -1.962000000000e+01 0.0 
0.0 -1.962000000000e+01 0.0 
0.0 -1.962000000000e+01 0.0 
0.0 -1.962000000000e+01 0.0 
0.0 -1.962000000000e+01 0.0 
0.0 -1.962000000000e+01 0.0 
0.0 -1.962000000000e+01 0.0 
0.0 -1.962000000000e+01 0.0 
0.0 -1.962000000000e+01 0.0 
0.0 -1.962000000000e+01 0.0 
0.0 -1.962000000000e+01 0.0 
0.0 -1.962000000000e+01 0.0 
0.0 -1.962000000000e+01 0.0 
0.0 -1.962000000000e+01 0.0 
0.0 -1.962000000000e+01 0.0 
0.0 -1.962000000000e+01 0.0 
0.0 -1.962000000000e+01 0.0 
0.0 -1.962000000000e+01 0.0 
0.0 -1.962000000000e+01 0.0 
0.0 -1.962000000000e+01 0.0 
0.0 -1.962000000000e+01 0.0 
0.0 -1.962000000000e+01 0.0 
0.0 -1.962000000000e+01 0.0 
0.0 -1.962000000000e+01 0.0 
0.0 -1.962000000000e+01 0.0 
0.0 -1.962000000000e+01 0.0 
0.0 -1.962000000000e+01 0.0 
0.0 -1.962000000000e+01 0.0 
0.0 -1.962000000000e+01 0.0 
0.0 -1.962000000000e+01 0.0 
0.0 -1.962000000000e+01 0.0 
0.0 -1.962000000000e+01 0.0 
0.0 -1.962000000000e+01 0.0 
0.0 -1.962000000000e+01 0.0 
0.0 -1.962000000000e+01 0.0 
0.0 -1.962000000000e+01 0.0 
0.0 -1.962000000000e+01 0.0 
0.0 -1.962000000000e+01 0.0 
0.0 -1.962000000000e+01 0.0 
0.0 -1.962000000000e+01 0.0 
0.0 -1.962000000000e+01 0.0 
0.0 -1.962000000000e+01 0.0 
0.0 -1.962000000000e+01 0.0 
0.0 -1.962000000000e+01 0.0 
0.0 -1.962000000000e+01 0.0 
0.0 -1.962000000000e+01 0.0 
0.0 -1.962000000000e+01 0.0 
0.0 -1.962000000000e+01 0.0 
0.0 -1.962000000000e+01 0.0 
0.0 -1.962000000000e+01 0.0 
0.0 -1.962000000000e+01 0.0 
0.0 -1.962000000000e+01 0.0 
0.0 -1.962000000000e+01 0.0 
0.0 -1.962000000000e+01 0.0 
0.0 -1.962000000000e+01 0.0 
0.0 -1.962000000000e+01 0.0 
0.0 -1.962000000000e+01 0.0 
0.0 -1.962000000000e+01 0.0 
0.0 -1.962000000000e+01 0.0 
0.0 -1.962000000000e+01 0.0 
0.0 -1.962000000000e+01 0.0 
0.0 -1.962000000000e+01 0.0 
0.0 -1.962000000000e+01 0.0 
0.0 -1.962000000000e+01 0.0 
0.0 -1.962000000000e+01 0.0 
0.0 -1.962000000000e+01 0.0 
0.0 -1.962000000000e+01 0.0 
0.0 -1.962000000000e+01 0.0 
0.0 -1.962000000000e+01 0.0 
0.0 -1.962000000000e+01 0.0 
0.0 -1.962000000000e+01 0.0 
0.0 -1.962000000000e+01 0.0 
0.0 -1.962000000000e+01 0.0 
0.0 -1.962000000000e+01 0.0 
0.0 -1.962000000000e+01 0.0 
0.0 -1.962000000000e+01 0.0 
0.0 -1.962000000000e+01 0.0 
0.0 -1.962000000000e+01 0.0 
0.0 -1.962000000000e+01 0.0 
0.0 -1.962000000000e+01 0.0 
0.0 -1.962000000000e+01 0.0 
0.0 -1.962000000000e+01 0.0 
0.0 -1.962000000000e+01 0.0 
0.0 -1.962000000000e+01 0.0 
0.0 -1.962000000000e+01 0.0 
0.0 -1.962000000000e+01 0.0 
0.0 -1.962000000000e+01 0.0 
0.0 -1.962000000000e+01 0.0 
0.0 -1.962000000000e+01 0.0 
0.0 -1.962000000000e+01 0.0 
0.0 -1.962000000000e+01 0.0 
0.0 -1.962000000000e+01 0.0 
0.0 -1.962000000000e+01 0.0 
0.0 -1.962000000000e+01 0.0 
0.0 -1.962000000000e+01 0.0 
0.0 -1.962000000000e+01 0.0 
0.0 -1.962000000000e+01 0.0 
0.0 -1.962000000000e+01 0.0 
0.0 -1.962000000000e+01 0.0 
0.0 -1.962000000000e+01 0.0 
0.0 -1.962000000000e+01 0.0 
0.0 -1.962000000000e+01 0.0 
0.0 -1.962000000000e+01 0.0 
0.0 -1.962000000000e+01 0.0 
0.0 -1.962000000000e+01 0.0 
0.0 -1.962000000000e+01 0.0 
0.0 -1.962000000000e+01 0.0 
0.0 -1.962000000000e+01 0.0 
0.0 -1.962000000000e+01 0.0 
0.0 -1.962000000000e+01 0.0 
0.0 -1.962000000000e+01 0.0 
0.0 -1.962000000000e+01 0.0 
0.0 -1.962000000000e+01 0.0 
0.0 -1.962000000000e+01 0.0 
0.0 -1.962000000000e+01 0.0 
0.0 -1.962000000000e+01 0.0 
0.0 -1.962000000000e+01 0.0 
0.0 -1.962000000000e+01 0.0 
0.0 -1.962000000000e+01 0.0 
0.0 -1.962000000000e+01 0.0 
0.0 -1.962000000000e+01 0.0 
0.0 -1.962000000000e+01 0.0 
0.0 -1.962000000000e+01 0.0 
0.0 -1.962000000000e+01 0.0 
0.0 -1.962000000000e+01 0.0 
0.0 -1.962000000000e+01 0.0 
0.0 -1.962000000000e+01 0.0 
0.0 -1.962000000000e+01 0.0 
0.0 -1.962000000000e+01 0.0 
0.0 -1.962000000000e+01 0.0 
0.0 -1.962000000000e+01 0.0 
0.0 -1.962000000000e+01 0.0 
0.0 -1.962000000000e+01 0.0 
0.0 -1.962000000000e+01 0.0 
0.0 -1.962000000000e+01 0.0 
0.0 -1.962000000000e+01 0.0 
0.0 -1.962000000000e+01 0.0 
0.0 -1.962000000000e+01 0.0 
0.0 -1.962000000000e+01 0.0 
0.0 -1.962000000000e+01 0.0 
0.0 -1.962000000000e+01 0.0 
0.0 -1.962000000000e+01 0.0 
0.0 -1.962000000000e+01 0.0 
0.0 -1.962000000000e+01 0.0 
0.0 -1.962000000000e+01 0.0 
0.0 -1.962000000000e+01 0.0 
0.0 -1.962000000000e+01 0.0 
0.0 -1.962000000000e+01 0.0 
0.0 -1.962000000000e+01 0.0 
0.0 -1.962000000000e+01 0.0 
0.0 -1.962000000000e+01 0.0 
0.0 -1.962000000000e+01 0.0 
0.0 -1.962000000000e+01 0.0 
0.0 -1.962000000000e+01 0.0 
0.0 -1.962000000000e+01 0.0 
0.0 -1.962000000000e+01 0.0 
0.0 -1.962000000000e+01 0.0 
0.0 -1.962000000000e+01 0.0 
0.0 -1.962000000000e+01 0.0 
0.0 -1.962000000000e+01 0.0 
0.0 -1.962000000000e+01 0.0 
0.0 -1.962000000000e+01 0.0 
0.0 -1.962000000000e+01 0.0 
0.0 -1.962000000000e+01 0.0 
0.0 -1.962000000000e+01 0.0 
0.0 -1.962000000000e+01 0.0 
0.0 -1.962000000000e+01 0.0 
0.0 -1.962000000000e+01 0.0 
0.0 -1.962000000000e+01 0.0 
0.0 -1.962000000000e+01 0.0 
0.0 -1.962000000000e+01 0.0 
0.0 -1.962000000000e+01 0.0 
0.0 -1.962000000000e+01 0.0 
0.0 -1.962000000000e+01 0.0 
0.0 -1.962000000000e+01 0.0 
0.0 -1.962000000000e+01 0.0 
0.0 -1.962000000000e+01 0.0 
0.0 -1.962000000000e+01 0.0 
0.0 -1.962000000000e+01 0.0 
0.0 -1.962000000000e+01 0.0 
0.0 -1.962000000000e+01 0.0 
0.0 -1.962000000000e+01 0.0 
0.0 -1.962000000000e+01 0.0 
0.0 -1.962000000000e+01 0.0 
0.0 -1.962000000000e+01 0.0 
0.0 -1.962000000000e+01 0.0 
0.0 -1.962000000000e+01 0.0 
0.0 -1.962000000000e+01 0.0 
0.0 -1.962000000000e+01 0.0 
0.0 -1.962000000000e+01 0.0 
0.0 -1.962000000000e+01 0.0 
0.0 -1.962000000000e+01 0.0 
0.0 -1.962000000000e+01 0.0 
0.0 -1.962000000000e+01 0.0 
0.0 -1.962000000000e+01 0.0 
0.0 -1.962000000000e+01 0.0 
0.0 -1.962000000000e+01 0.0 
0.0 -1.962000000000e+01 0.0 
0.0 -1.962000000000e+01 0.0 
0.0 -1.962000000000e+01 0.0 
0.0 -1.962000000000e+01 0.0 
0.0 -1.962000000000e+01 0.0 
0.0 -1.962000000000e+01 0.0 
0.0 -1.962000000000e+01 0.0 
0.0 -1.962000000000e+01 0.0 
0.0 -1.962000000000e+01 0.0 
0.0 -1.962000000000e+01 0.0 
0.0 -1.962000000000e+01 0.0 
0.0 -1.962000000000e+01 0.0 
0.0 -1.962000000000e+01 0.0 
0.0 -1.962000000000e+01 0.0 
0.0 -1.962000000000e+01 0.0 
0.0 -1.962000000000e+01 0.0 
0.0 -1.962000000000e+01 0.0 
0.0 -1.962000000000e+01 0.0 
0.0 -1.962000000000e+01 0.0 
0.0 -1.962000000000e+01 0.0 
0.0 -1.962000000000e+01 0.0 
0.0 -1.962000000000e+01 0.0 
0.0 -1.962000000000e+01 0.0 
0.0 -1.962000000000e+01 0.0 
0.0 -1.962000000000e+01 0.0 
0.0 -1.962000000000e+01 0.0 
0.0 -1.962000000000e+01 0.0 
0.0 -1.962000000000e+01 0.0 
0.0 -1.962000000000e+01 0.0 
0.0 -1.962000000000e+01 0.0 
0.0 -1.962000000000e+01 0.0 
0.0 -1.962000000000e+01 0.0 
0.0 -1.962000000000e+01 0.0 
0.0 -1.962000000000e+01 0.0 
0.0 -1.962000000000e+01 0.0 
0.0 -1.962000000000e+01 0.0 
0.0 -1.962000000000e+01 0.0 
0.0 -1.962000000000e+01 0.0 
0.0 -1.962000000000e+01 0.0 
0.0 -1.962000000000e+01 0.0 
0.0 -1.962000000000e+01 0.0 
0.0 -1.962000000000e+01 0.0 
0.0 -1.962000000000e+01 0.0 
0.0 -1.962000000000e+01 0.0 
0.0 -1.962000000000e+01 0.0 
0.0 -1.962000000000e+01 0.0 
0.0 -1.962000000000e+01 0.0 
0.0 -1.962000000000e+01 0.0 
0.0 -1.962000000000e+01 0.0 
0.0 -1.962000000000e+01 0.0 
0.0 -1.962000000000e+01 0.0 
0.0 -1.962000000000e+01 0.0 
0.0 -1.962000000000e+01 0.0 
0.0 -1.962000000000e+01 0.0 
0.0 -1.962000000000e+01 0.0 
0.0 -1.962000000000e+01 0.0 
0.0 -1.962000000000e+01 0.0 
0.0 -1.962000000000e+01 0.0 
0.0 -1.962000000000e+01 0.0 
0.0 -1.962000000000e+01 0.0 
0.0 -1.962000000000e+01 0.0 
0.0 -1.962000000000e+01 0.0 
0.0 -1.962000000000e+01 0.0 
0.0 -1.962000000000e+01 0.0 
0.0 -1.962000000000e+01 0.0 
0.0 -1.962000000000e+01 0.0 
0.0 -1.962000000000e+01 0.0 
0.0 -1.962000000000e+01 0.0 
0.0 -1.962000000000e+01 0.0 
0.0 -1.962000000000e+01 0.0 
0.0 -1.962000000000e+01 0.0 
0.0 -1.962000000000e+01 0.0 
0.0 -1.962000000000e+01 0.0 
0.0 -1.962000000000e+01 0.0 
0.0 -1.962000000000e+01 0.0 
0.0 -1.962000000000e+01 0.0 
0.0 -1.962000000000e+01 0.0 
0.0 -1.962000000000e+01 0.0 
0.0 -1.962000000000e+01 0.0 
0.0 -1.962000000000e+01 0.0 
0.0 -1.962000000000e+01 0.0 
0.0 -1.962000000000e+01 0.0 
0.0 -1.962000000000e+01 0.0 
0.0 -1.962000000000e+01 0.0 
0.0 -1.962000000000e+01 0.0 
0.0 -1.962000000000e+01 0.0 
0.0 -1.962000000000e+01 0.0 
0.0 -1.962000000000e+01 0.0 
0.0 -1.962000000000e+01 0.0 
0.0 -1.962000000000e+01 0.0 
0.0 -1.962000000000e+01 0.0 
0.0 -1.962000000000e+01 0.0 
0.0 -1.962000000000e+01 0.0 
0.0 -1.962000000000e+01 0.0 
0.0 -1.962000000000e+01 0.0 
0.0 -1.962000000000e+01 0.0 
0.0 -1.962000000000e+01 0.0 
0.0 -1.962000000000e+01 0.0 
0.0 -1.962000000000e+01 0.0 
0.0 -1.962000000000e+01 0.0 
0.0 -1.962000000000e+01 0.0 
0.0 -1.962000000000e+01 0.0 
0.0 -1.962000000000e+01 0.0 
0.0 -1.962000000000e+01 0.0 
0.0 -1.962000000000e+01 0.0 
0.0 -1.962000000000e+01 0.0 
0.0 -1.962000000000e+01 0.0 
0.0 -1.962000000000e+01 0.0 
0.0 -1.962000000000e+01 0.0 
0.0 -1.962000000000e+01 0.0 
0.0 -1.962000000000e+01 0.0 
0.0 -1.962000000000e+01 0.0 
0.0 -1.962000000000e+01 0.0 
0.0 -1.962000000000e+01 0.0 
0.0 -1.962000000000e+01 0.0 
0.0 -1.962000000000e+01 0.0 
0.0 -1.962000000000e+01 0.0 
0.0 -1.962000000000e+01 0.0 
0.0 -1.962000000000e+01 0.0 
0.0 -1.962000000000e+01 0.0 
0.0 -1.962000000000e+01 0.0 
0.0 -1.962000000000e+01 0.0 
0.0 -1.962000000000e+01 0.0 
0.0 -1.962000000000e+01 0.0 
0.0 -1.962000000000e+01 0.0 
0.0 -1.962000000000e+01 0.0 
0.0 -1.962000000000e+01 0.0 
0.0 -1.962000000000e+01 0.0 
0.0 -1.962000000000e+01 0.0 
0.0 -1.962000000000e+01 0.0 
0.0 -1.962000000000e+01 0.0 
0.0 -1.962000000000e+01 0.0 
0.0 -1.962000000000e+01 0.0 
0.0 -1.962000000000e+01 0.0 
0.0 -1.962000000000e+01 0.0 
0.0 -1.962000000000e+01 0.0 
0.0 -1.962000000000e+01 0.0 
0.0 -1.962000000000e+01 0.0 
0.0 -1.962000000000e+01 0.0 
0.0 -1.962000000000e+01 0.0 
0.0 -1.962000000000e+01 0.0 
0.0 -1.962000000000e+01 0.0 
0.0 -1.962000000000e+01 0.0 
0.0 -1.962000000000e+01 0.0 
0.0 -1.962000000000e+01 0.0 
0.0 -1.962000000000e+01 0.0 
0.0 -1.962000000000e+01 0.0 
0.0 -1.962000000000e+01 0.0 
0.0 -1.962000000000e+01 0.0 
0.0 -1.962000000000e+01 0.0 
0.0 -1.962000000000e+01 0.0 
0.0 -1.962000000000e+01 0.0 
0.0 -1.962000000000e+01 0.0 
0.0 -1.962000000000e+01 0.0 
0.0 -1.962000000000e+01 0.0 
0.0 -1.962000000000e+01 0.0 
0.0 -1.962000000000e+01 0.0 
0.0 -1.962000000000e+01 0.0 
0.0 -1.962000000000e+01 0.0 
0.0 -1.962000000000e+01 0.0 
0.0 -1.962000000000e+01 0.0 
0.0 -1.962000000000e+01 0.0 
0.0 -1.962000000000e+01 0.0 
0.0 -1.962000000000e+01 0.0 
0.0 -1.962000000000e+01 0.0 
0.0 -1.962000000000e+01 0.0 
0.0 -1.962000000000e+01 0.0 
0.0 -1.962000000000e+01 0.0 
0.0 -1.962000000000e+01 0.0 
0.0 -1.962000000000e+01 0.0 
0.0 -1.962000000000e+01 0.0 
0.0 -1.962000000000e+01 0.0 
0.0 -1.962000000000e+01 0.0 
0.0 -1.962000000000e+01 0.0 
0.0 -1.962000000000e+01 0.0 
0.0 -1.962000000000e+01 0.0 
0.0 -1.962000000000e+01 0.0 
0.0 -1.962000000000e+01 0.0 
0.0 -1.962000000000e+01 0.0 
0.0 -1.962000000000e+01 0.0 
0.0 -1.962000000000e+01 0.0 
0.0 -1.962000000000e+01 0.0 
0.0 -1.962000000000e+01 0.0 
0.0 -1.962000000000e+01 0.0 
0.0 -1.962000000000e+01 0.0 
0.0 -1.962000000000e+01 0.0 
0.0 -1.962000000000e+01 0.0 
0.0 -1.962000000000e+01 0.0 
0.0 -1.962000000000e+01 0.0 
0.0 -1.962000000000e+01 0.0 
0.0 -1.962000000000e+01 0.0 
0.0 -1.962000000000e+01 0.0 
0.0 -1.962000000000e+01 0.0 
0.0 -1.962000000000e+01 0.0 
0.0 -1.962000000000e+01 0.0 
0.0 -1.962000000000e+01 0.0 
0.0 -1.962000000000e+01 0.0 
0.0 -1.962000000000e+01 0.0 
0.0 -1.962000000000e+01 0.0 
0.0 -1.962000000000e+01 0.0 
0.0 -1.962000000000e+01 0.0 
0.0 -1.962000000000e+01 0.0 
0.0 -1.962000000000e+01 0.0 
0.0 -1.962000000000e+01 0.0 
0.0 -1.962000000000e+01 0.0 
0.0 -1.962000000000e+01 0.0 
0.0 -1.962000000000e+01 0.0 
0.0 -1.962000000000e+01 0.0 
0.0 -1.962000000000e+01 0.0 
0.0 -1.962000000000e+01 0.0 
0.0 -1.962000000000e+01 0.0 
0.0 -1.962000000000e+01 0.0 
0.0 -1.962000000000e+01 0.0 
0.0 -1.962000000000e+01 0.0 
0.0 -1.962000000000e+01 0.0 
0.0 -1.962000000000e+01 0.0 
0.0 -1.962000000000e+01 0.0 
0.0 -1.962000000000e+01 0.0 
0.0 -1.962000000000e+01 0.0 
0.0 -1.962000000000e+01 0.0 
0.0 -1.962000000000e+01 0.0 
0.0 -1.962000000000e+01 0.0 
0.0 -1.962000000000e+01 0.0 
0.0 -1.962000000000e+01 0.0 
0.0 -1.962000000000e+01 0.0 
0.0 -1.962000000000e+01 0.0 
0.0 -1.962000000000e+01 0.0 
0.0 -1.962000000000e+01 0.0 
0.0 -1.962000000000e+01 0.0 
0.0 -1.962000000000e+01 0.0 
0.0 -1.962000000000e+01 0.0 
0.0 -1.962000000000e+01 0.0 
0.0 -1.962000000000e+01 0.0 
0.0 -1.962000000000e+01 0.0 
0.0 -1.962000000000e+01 0.0 
0.0 -1.962000000000e+01 0.0 
0.0 -1.962000000000e+01 0.0 
0.0 -1.962000000000e+01 0.0 
0.0 -1.962000000000e+01 0.0 
0.0 -1.962000000000e+01 0.0 
0.0 -1.962000000000e+01 0.0 
0.0 -1.962000000000e+01 0.0 
0.0 -1.962000000000e+01 0.0 
0.0 -1.962000000000e+01 0.0 
0.0 -1.962000000000e+01 0.0 
0.0 -1.962000000000e+01 0.0 
0.0 -1.962000000000e+01 0.0 
0.0 -1.962000000000e+01 0.0 
0.0 -1.962000000000e+01 0.0 
0.0 -1.962000000000e+01 0.0 
0.0 -1.962000000000e+01 0.0 
0.0 -1.962000000000e+01 0.0 
0.0 -1.962000000000e+01 0.0 
0.0 -1.962000000000e+01 0.0 
0.0 -1.962000000000e+01 0.0 
0.0 -1.962000000000e+01 0.0 
0.0 -1.962000000000e+01 0.0 
0.0 -1.962000000000e+01 0.0 
0.0 -1.962000000000e+01 0.0 
0.0 -1.962000000000e+01 0.0 
0.0 -1.962000000000e+01 0.0 
0.0 -1.962000000000e+01 0.0 
0.0 -1.962000000000e+01 0.0 
0.0 -1.962000000000e+01 0.0 
0.0 -1.962000000000e+01 0.0 
0.0 -1.962000000000e+01 0.0 
0.0 -1.962000000000e+01 0.0 
0.0 -1.962000000000e+01 0.0 
0.0 -1.962000000000e+01 0.0 
0.0 -1.962000000000e+01 0.0 
0.0 -1.962000000000e+01 0.0 
0.0 -1.962000000000e+01 0.0 
0.0 -1.962000000000e+01 0.0 
0.0 -1.962000000000e+01 0.0 
0.0 -1.962000000000e+01 0.0 
0.0 -1.962000000000e+01 0.0 
0.0 -1.962000000000e+01 0.0 
0.0 -1.962000000000e+01 0.0 
0.0 -1.962000000000e+01 0.0 
0.0 -1.962000000000e+01 0.0 
0.0 -1.962000000000e+01 0.0 
0.0 -1.962000000000e+01 0.0 
0.0 -1.962000000000e+01 0.0 
0.0 -1.962000000000e+01 0.0 
0.0 -1.962000000000e+01 0.0 
0.0 -1.962000000000e+01 0.0 
0.0 -1.962000000000e+01 0.0 
0.0 -1.962000000000e+01 0.0 
0.0 -1.962000000000e+01 0.0 
0.0 -1.962000000000e+01 0.0 
0.0 -1.962000000000e+01 0.0 
0.0 -1.962000000000e+01 0.0 
0.0 -1.962000000000e+01 0.0 
0.0 -1.962000000000e+01 0.0 
0.0 -1.962000000000e+01 0.0 
0.0 -1.962000000000e+01 0.0 
0.0 -1.962000000000e+01 0.0 
0.0 -1.962000000000e+01 0.0 
0.0 -1.962000000000e+01 0.0 
0.0 -1.962000000000e+01 0.0 
0.0 -1.962000000000e+01 0.0 
0.0 -1.962000000000e+01 0.0 
0.0 -1.962000000000e+01 0.0 
0.0 -1.962000000000e+01 0.0 
0.0 -1.962000000000e+01 0.0 

VECTORS node_rhside_materi_fixed float
-1.155689250776e+00 0.0 0.0 
2.955102880524e+01 0.0 0.0 
-8.162701896827e+01 -1.952938431720e+02 0.0 
4.992406774958e+01 -1.202599584712e+02 0.0 
-6.501478337563e+00 0.0 0.0 
-1.444541707761e+01 0.0 0.0 
-2.082403896215e+01 0.0 0.0 
-2.896035458512e+01 0.0 0.0 
-3.597471582485e+01 0.0 0.0 
-4.330073546800e+01 0.0 0.0 
-5.067622649307e+01 0.0 0.0 
-5.811280364782e+01 0.0 0.0 
-6.568119346300e+01 0.0 0.0 
-7.335077390331e+01 0.0 0.0 
-8.168700653812e+01 0.0 0.0 
-9.013819944048e+01 0.0 0.0 
-9.831836829271e+01 0.0 0.0 
-1.074117316387e+02 0.0 0.0 
-1.165779683167e+02 0.0 0.0 
-1.260430482763e+02 0.0 0.0 
-1.358082961941e+02 0.0 0.0 
-1.458353817298e+02 0.0 0.0 
-1.564193718051e+02 0.0 0.0 
8.014391362483e-01 -2.393263491325e+02 0.0 
1.360842701793e+00 -2.406872807045e+02 0.0 
4.044514189345e+00 -2.399475818751e+02 0.0 
2.979556643150e+00 -2.402637559925e+02 0.0 
5.514918938144e+00 -2.414061915317e+02 0.0 
6.462016799558e+00 -2.411355658461e+02 0.0 
7.494223119538e+00 -2.424294509927e+02 0.0 
8.972850250329e+00 -2.437332743598e+02 0.0 
1.172703607544e+01 -2.441453048483e+02 0.0 
1.123730935773e+01 -2.457130453556e+02 0.0 
1.465233281083e+01 -2.486006255080e+02 0.0 
1.637396272730e+01 -2.499295440385e+02 0.0 
1.811397015675e+01 -2.535857175598e+02 0.0 
2.000356360849e+01 -2.564786240622e+02 0.0 
2.224854763859e+01 -2.603469780575e+02 0.0 
2.388626918366e+01 -2.653246659957e+02 0.0 
2.679896513130e+01 -2.702833243175e+02 0.0 
2.822916193592e+01 -2.760197505291e+02 0.0 
2.976686259053e+01 -2.820957155080e+02 0.0 
3.085240735132e+01 -2.882188620749e+02 0.0 
3.130479911825e+01 -2.948920256999e+02 0.0 
3.229368107983e+01 -3.021831398898e+02 0.0 
3.232405268705e+01 -3.089419546479e+02 0.0 
3.229702657750e+01 -3.157954411062e+02 0.0 
3.194035121323e+01 -3.227629240236e+02 0.0 
3.110582958900e+01 -3.292115217235e+02 0.0 
3.016419990208e+01 -3.353547557973e+02 0.0 
2.898871283593e+01 -3.413813936229e+02 0.0 
2.780501247626e+01 -3.471471540095e+02 0.0 
2.629104337344e+01 -3.522055225028e+02 0.0 
2.468923969274e+01 -3.567282211594e+02 0.0 
2.311580452605e+01 -3.616970596908e+02 0.0 
2.152959649141e+01 -3.653370610280e+02 0.0 
1.993179155359e+01 -3.690901557580e+02 0.0 
1.818816163635e+01 -3.722647054740e+02 0.0 
1.666410238201e+01 -3.751013403251e+02 0.0 
1.511164128490e+01 -3.776749872624e+02 0.0 
1.354346144655e+01 -3.799005976347e+02 0.0 
1.215336641225e+01 -3.817854812541e+02 0.0 
1.084752273628e+01 -3.837818792027e+02 0.0 
9.477706936837e+00 -3.850283547019e+02 0.0 
8.261264816220e+00 -3.861271519047e+02 0.0 
7.026793534414e+00 -3.869685636347e+02 0.0 
6.071972056178e+00 -3.885720446526e+02 0.0 
4.757034628934e+00 -3.884674035905e+02 0.0 
3.778413230608e+00 -3.896356182211e+02 0.0 
2.992886790380e+00 -3.895801979510e+02 0.0 
1.917172690516e+00 -3.900267454445e+02 0.0 
8.569724127740e-01 -3.900911881534e+02 0.0 
3.739066423510e+01 0.0 0.0 
4.586136110889e+01 0.0 0.0 
5.375413805875e+01 0.0 0.0 
6.129709346124e+01 0.0 0.0 
6.872805525355e+01 0.0 0.0 
7.628199834025e+01 0.0 0.0 
8.311847190579e+01 0.0 0.0 
8.933249748725e+01 0.0 0.0 
9.676602061150e+01 0.0 0.0 
0.0 0.0 0.0 
0.0 0.0 0.0 
0.0 0.0 0.0 
0.0 0.0 0.0 
0.0 0.0 0.0 
0.0 0.0 0.0 
0.0 0.0 0.0 
0.0 0.0 0.0 
0.0 0.0 0.0 
0.0 0.0 0.0 
0.0 0.0 0.0 
8.218896949312e+00 0.0 0.0 
2.167515978959e+01 0.0 0.0 
0.0 0.0 0.0 
0.0 0.0 0.0 
0.0 0.0 0.0 
0.0 0.0 0.0 
0.0 0.0 0.0 
0.0 0.0 0.0 
0.0 0.0 0.0 
0.0 0.0 0.0 
0.0 0.0 0.0 
0.0 0.0 0.0 
0.0 0.0 0.0 
0.0 0.0 0.0 
0.0 0.0 0.0 
0.0 0.0 0.0 
0.0 0.0 0.0 
0.0 0.0 0.0 
0.0 0.0 0.0 
0.0 0.0 0.0 
0.0 0.0 0.0 
0.0 0.0 0.0 
0.0 0.0 0.0 
0.0 0.0 0.0 
0.0 0.0 0.0 
0.0 0.0 0.0 
0.0 0.0 0.0 
0.0 0.0 0.0 
0.0 0.0 0.0 
0.0 0.0 0.0 
0.0 0.0 0.0 
0.0 0.0 0.0 
0.0 0.0 0.0 
0.0 0.0 0.0 
0.0 0.0 0.0 
0.0 0.0 0.0 
0.0 0.0 0.0 
0.0 0.0 0.0 
0.0 0.0 0.0 
0.0 0.0 0.0 
0.0 0.0 0.0 
0.0 0.0 0.0 
0.0 0.0 0.0 
0.0 0.0 0.0 
0.0 0.0 0.0 
0.0 0.0 0.0 
0.0 0.0 0.0 
0.0 0.0 0.0 
0.0 0.0 0.0 
0.0 0.0 0.0 
0.0 0.0 0.0 
0.0 0.0 0.0 
0.0 0.0 0.0 
0.0 0.0 0.0 
0.0 0.0 0.0 
0.0 0.0 0.0 
0.0 0.0 0.0 
0.0 0.0 0.0 
0.0 0.0 0.0 
0.0 0.0 0.0 
0.0 0.0 0.0 
0.0 0.0 0.0 
0.0 0.0 0.0 
0.0 0.0 0.0 
0.0 0.0 0.0 
0.0 0.0 0.0 
0.0 0.0 0.0 
0.0 0.0 0.0 
0.0 0.0 0.0 
0.0 0.0 0.0 
0.0 0.0 0.0 
0.0 0.0 0.0 
0.0 0.0 0.0 
0.0 0.0 0.0 
0.0 0.0 0.0 
0.0 0.0 0.0 
0.0 0.0 0.0 
0.0 0.0 0.0 
0.0 0.0 0.0 
0.0 0.0 0.0 
0.0 0.0 0.0 
0.0 0.0 0.0 
0.0 0.0 0.0 
0.0 0.0 0.0 
0.0 0.0 0.0 
0.0 0.0 0.0 
0.0 0.0 0.0 
0.0 0.0 0.0 
0.0 0.0 0.0 
0.0 0.0 0.0 
0.0 0.0 0.0 
0.0 0.0 0.0 
0.0 0.0 0.0 
0.0 0.0 0.0 
0.0 0.0 0.0 
0.0 0.0 0.0 
0.0 0.0 0.0 
0.0 0.0 0.0 
0.0 0.0 0.0 
0.0 0.0 0.0 
0.0 0.0 0.0 
0.0 0.0 0.0 
0.0 0.0 0.0 
0.0 0.0 0.0 
0.0 0.0 0.0 
0.0 0.0 0.0 
0.0 0.0 0.0 
0.0 0.0 0.0 
0.0 0.0 0.0 
0.0 0.0 0.0 
0.0 0.0 0.0 
0.0 0.0 0.0 
0.0 0.0 0.0 
0.0 0.0 0.0 
0.0 0.0 0.0 
0.0 0.0 0.0 
0.0 0.0 0.0 
0.0 0.0 0.0 
0.0 0.0 0.0 
0.0 0.0 0.0 
0.0 0.0 0.0 
0.0 0.0 0.0 
0.0 0.0 0.0 
0.0 0.0 0.0 
0.0 0.0 0.0 
0.0 0.0 0.0 
0.0 0.0 0.0 
0.0 0.0 0.0 
0.0 0.0 0.0 
0.0 0.0 0.0 
0.0 0.0 0.0 
0.0 0.0 0.0 
0.0 0.0 0.0 
0.0 0.0 0.0 
0.0 0.0 0.0 
0.0 0.0 0.0 
0.0 0.0 0.0 
0.0 0.0 0.0 
0.0 0.0 0.0 
0.0 0.0 0.0 
0.0 0.0 0.0 
0.0 0.0 0.0 
0.0 0.0 0.0 
0.0 0.0 0.0 
0.0 0.0 0.0 
0.0 0.0 0.0 
0.0 0.0 0.0 
0.0 0.0 0.0 
0.0 0.0 0.0 
0.0 0.0 0.0 
0.0 0.0 0.0 
0.0 0.0 0.0 
0.0 0.0 0.0 
0.0 0.0 0.0 
0.0 0.0 0.0 
0.0 0.0 0.0 
0.0 0.0 0.0 
0.0 0.0 0.0 
0.0 0.0 0.0 
0.0 0.0 0.0 
0.0 0.0 0.0 
0.0 0.0 0.0 
0.0 0.0 0.0 
0.0 0.0 0.0 
0.0 0.0 0.0 
0.0 0.0 0.0 
0.0 0.0 0.0 
0.0 0.0 0.0 
0.0 0.0 0.0 
0.0 0.0 0.0 
0.0 0.0 0.0 
0.0 0.0 0.0 
0.0 0.0 0.0 
0.0 0.0 0.0 
0.0 0.0 0.0 
0.0 0.0 0.0 
0.0 0.0 0.0 
0.0 0.0 0.0 
0.0 0.0 0.0 
0.0 0.0 0.0 
0.0 0.0 0.0 
0.0 0.0 0.0 
0.0 0.0 0.0 
0.0 0.0 0.0 
0.0 0.0 0.0 
0.0 0.0 0.0 
0.0 0.0 0.0 
0.0 0.0 0.0 
0.0 0.0 0.0 
0.0 0.0 0.0 
0.0 0.0 0.0 
0.0 0.0 0.0 
0.0 0.0 0.0 
0.0 0.0 0.0 
0.0 0.0 0.0 
0.0 0.0 0.0 
0.0 0.0 0.0 
0.0 0.0 0.0 
0.0 0.0 0.0 
0.0 0.0 0.0 
0.0 0.0 0.0 
0.0 0.0 0.0 
0.0 0.0 0.0 
0.0 0.0 0.0 
0.0 0.0 0.0 
0.0 0.0 0.0 
0.0 0.0 0.0 
0.0 0.0 0.0 
0.0 0.0 0.0 
0.0 0.0 0.0 
0.0 0.0 0.0 
0.0 0.0 0.0 
0.0 0.0 0.0 
0.0 0.0 0.0 
0.0 0.0 0.0 
0.0 0.0 0.0 
0.0 0.0 0.0 
0.0 0.0 0.0 
0.0 0.0 0.0 
0.0 0.0 0.0 
0.0 0.0 0.0 
0.0 0.0 0.0 
0.0 0.0 0.0 
0.0 0.0 0.0 
0.0 0.0 0.0 
0.0 0.0 0.0 
0.0 0.0 0.0 
0.0 0.0 0.0 
0.0 0.0 0.0 
0.0 0.0 0.0 
0.0 0.0 0.0 
0.0 0.0 0.0 
0.0 0.0 0.0 
0.0 0.0 0.0 
0.0 0.0 0.0 
0.0 0.0 0.0 
0.0 0.0 0.0 
0.0 0.0 0.0 
0.0 0.0 0.0 
0.0 0.0 0.0 
0.0 0.0 0.0 
0.0 0.0 0.0 
0.0 0.0 0.0 
0.0 0.0 0.0 
0.0 0.0 0.0 
0.0 0.0 0.0 
0.0 0.0 0.0 
0.0 0.0 0.0 
0.0 0.0 0.0 
0.0 0.0 0.0 
0.0 0.0 0.0 
0.0 0.0 0.0 
0.0 0.0 0.0 
0.0 0.0 0.0 
0.0 0.0 0.0 
0.0 0.0 0.0 
0.0 0.0 0.0 
0.0 0.0 0.0 
0.0 0.0 0.0 
0.0 0.0 0.0 
0.0 0.0 0.0 
0.0 0.0 0.0 
0.0 0.0 0.0 
0.0 0.0 0.0 
0.0 0.0 0.0 
0.0 0.0 0.0 
0.0 0.0 0.0 
0.0 0.0 0.0 
0.0 0.0 0.0 
0.0 0.0 0.0 
0.0 0.0 0.0 
0.0 0.0 0.0 
0.0 0.0 0.0 
0.0 0.0 0.0 
0.0 0.0 0.0 
0.0 0.0 0.0 
0.0 0.0 0.0 
0.0 0.0 0.0 
0.0 0.0 0.0 
0.0 0.0 0.0 
0.0 0.0 0.0 
0.0 0.0 0.0 
0.0 0.0 0.0 
0.0 0.0 0.0 
0.0 0.0 0.0 
0.0 0.0 0.0 
0.0 0.0 0.0 
0.0 0.0 0.0 
0.0 0.0 0.0 
0.0 0.0 0.0 
0.0 0.0 0.0 
0.0 0.0 0.0 
0.0 0.0 0.0 
0.0 0.0 0.0 
0.0 0.0 0.0 
0.0 0.0 0.0 
0.0 0.0 0.0 
0.0 0.0 0.0 
0.0 0.0 0.0 
0.0 0.0 0.0 
0.0 0.0 0.0 
0.0 0.0 0.0 
0.0 0.0 0.0 
0.0 0.0 0.0 
0.0 0.0 0.0 
0.0 0.0 0.0 
0.0 0.0 0.0 
0.0 0.0 0.0 
0.0 0.0 0.0 
0.0 0.0 0.0 
0.0 0.0 0.0 
0.0 0.0 0.0 
0.0 0.0 0.0 
0.0 0.0 0.0 
0.0 0.0 0.0 
0.0 0.0 0.0 
0.0 0.0 0.0 
0.0 0.0 0.0 
0.0 0.0 0.0 
0.0 0.0 0.0 
0.0 0.0 0.0 
0.0 0.0 0.0 
0.0 0.0 0.0 
0.0 0.0 0.0 
0.0 0.0 0.0 
0.0 0.0 0.0 
0.0 0.0 0.0 
0.0 0.0 0.0 
0.0 0.0 0.0 
0.0 0.0 0.0 
0.0 0.0 0.0 
0.0 0.0 0.0 
0.0 0.0 0.0 
0.0 0.0 0.0 
0.0 0.0 0.0 
0.0 0.0 0.0 
0.0 0.0 0.0 
0.0 0.0 0.0 
0.0 0.0 0.0 
0.0 0.0 0.0 
0.0 0.0 0.0 
0.0 0.0 0.0 
0.0 0.0 0.0 
0.0 0.0 0.0 
0.0 0.0 0.0 
0.0 0.0 0.0 
0.0 0.0 0.0 
0.0 0.0 0.0 
0.0 0.0 0.0 
0.0 0.0 0.0 
0.0 0.0 0.0 
0.0 0.0 0.0 
0.0 0.0 0.0 
0.0 0.0 0.0 
0.0 0.0 0.0 
0.0 0.0 0.0 
0.0 0.0 0.0 
0.0 0.0 0.0 
0.0 0.0 0.0 
0.0 0.0 0.0 
0.0 0.0 0.0 
0.0 0.0 0.0 
0.0 0.0 0.0 
0.0 0.0 0.0 
0.0 0.0 0.0 
0.0 0.0 0.0 
0.0 0.0 0.0 
0.0 0.0 0.0 
0.0 0.0 0.0 
0.0 0.0 0.0 
0.0 0.0 0.0 
0.0 0.0 0.0 
0.0 0.0 0.0 
0.0 0.0 0.0 
0.0 0.0 0.0 
0.0 0.0 0.0 
0.0 0.0 0.0 
0.0 0.0 0.0 
0.0 0.0 0.0 
0.0 0.0 0.0 
0.0 0.0 0.0 
0.0 0.0 0.0 
0.0 0.0 0.0 
0.0 0.0 0.0 
0.0 0.0 0.0 
0.0 0.0 0.0 
0.0 0.0 0.0 
0.0 0.0 0.0 
0.0 0.0 0.0 
0.0 0.0 0.0 
0.0 0.0 0.0 
0.0 0.0 0.0 
0.0 0.0 0.0 
0.0 0.0 0.0 
0.0 0.0 0.0 
0.0 0.0 0.0 
0.0 0.0 0.0 
0.0 0.0 0.0 
0.0 0.0 0.0 
0.0 0.0 0.0 
0.0 0.0 0.0 
0.0 0.0 0.0 
0.0 0.0 0.0 
0.0 0.0 0.0 
0.0 0.0 0.0 
0.0 0.0 0.0 
0.0 0.0 0.0 
0.0 0.0 0.0 
0.0 0.0 0.0 
0.0 0.0 0.0 
0.0 0.0 0.0 
0.0 0.0 0.0 
0.0 0.0 0.0 
0.0 0.0 0.0 
0.0 0.0 0.0 
0.0 0.0 0.0 
0.0 0.0 0.0 
0.0 0.0 0.0 
0.0 0.0 0.0 
0.0 0.0 0.0 
0.0 0.0 0.0 
0.0 0.0 0.0 
0.0 0.0 0.0 
0.0 0.0 0.0 
0.0 0.0 0.0 
0.0 0.0 0.0 
0.0 0.0 0.0 
0.0 0.0 0.0 
0.0 0.0 0.0 
0.0 0.0 0.0 
0.0 0.0 0.0 
0.0 0.0 0.0 
0.0 0.0 0.0 
0.0 0.0 0.0 
0.0 0.0 0.0 
0.0 0.0 0.0 
0.0 0.0 0.0 
0.0 0.0 0.0 
0.0 0.0 0.0 
0.0 0.0 0.0 
0.0 0.0 0.0 
0.0 0.0 0.0 
0.0 0.0 0.0 
0.0 0.0 0.0 
0.0 0.0 0.0 
0.0 0.0 0.0 
0.0 0.0 0.0 
0.0 0.0 0.0 
0.0 0.0 0.0 
0.0 0.0 0.0 
0.0 0.0 0.0 
0.0 0.0 0.0 
0.0 0.0 0.0 
0.0 0.0 0.0 
0.0 0.0 0.0 
0.0 0.0 0.0 
0.0 0.0 0.0 
0.0 0.0 0.0 
0.0 0.0 0.0 
0.0 0.0 0.0 
0.0 0.0 0.0 
0.0 0.0 0.0 
0.0 0.0 0.0 
0.0 0.0 0.0 
0.0 0.0 0.0 
0.0 0.0 0.0 
0.0 0.0 0.0 
0.0 0.0 0.0 
0.0 0.0 0.0 
0.0 0.0 0.0 
0.0 0.0 0.0 
0.0 0.0 0.0 
0.0 0.0 0.0 
0.0 0.0 0.0 
0.0 0.0 0.0 
0.0 0.0 0.0 
0.0 0.0 0.0 
0.0 0.0 0.0 
0.0 0.0 0.0 
0.0 0.0 0.0 
0.0 0.0 0.0 
0.0 0.0 0.0 
0.0 0.0 0.0 
0.0 0.0 0.0 
0.0 0.0 0.0 
0.0 0.0 0.0 
0.0 0.0 0.0 
0.0 0.0 0.0 
0.0 0.0 0.0 
0.0 0.0 0.0 
0.0 0.0 0.0 
0.0 0.0 0.0 
0.0 0.0 0.0 
0.0 0.0 0.0 
0.0 0.0 0.0 
0.0 0.0 0.0 
0.0 0.0 0.0 
0.0 0.0 0.0 
0.0 0.0 0.0 
0.0 0.0 0.0 
0.0 0.0 0.0 
0.0 0.0 0.0 
0.0 0.0 0.0 
0.0 0.0 0.0 
0.0 0.0 0.0 
0.0 0.0 0.0 
0.0 0.0 0.0 
0.0 0.0 0.0 
0.0 0.0 0.0 
0.0 0.0 0.0 
0.0 0.0 0.0 
0.0 0.0 0.0 
0.0 0.0 0.0 
0.0 0.0 0.0 
0.0 0.0 0.0 
0.0 0.0 0.0 
0.0 0.0 0.0 
0.0 0.0 0.0 
0.0 0.0 0.0 
0.0 0.0 0.0 
0.0 0.0 0.0 
0.0 0.0 0.0 
0.0 0.0 0.0 
0.0 0.0 0.0 
0.0 0.0 0.0 
0.0 0.0 0.0 
0.0 0.0 0.0 
0.0 0.0 0.0 
0.0 0.0 0.0 
0.0 0.0 0.0 
0.0 0.0 0.0 
0.0 0.0 0.0 
0.0 0.0 0.0 
0.0 0.0 0.0 
0.0 0.0 0.0 
0.0 0.0 0.0 
0.0 0.0 0.0 
0.0 0.0 0.0 
0.0 0.0 0.0 
0.0 0.0 0.0 
0.0 0.0 0.0 
0.0 0.0 0.0 
0.0 0.0 0.0 
0.0 0.0 0.0 
0.0 0.0 0.0 
0.0 0.0 0.0 
0.0 0.0 0.0 
0.0 0.0 0.0 
0.0 0.0 0.0 
0.0 0.0 0.0 
0.0 0.0 0.0 
0.0 0.0 0.0 
0.0 0.0 0.0 
0.0 0.0 0.0 
0.0 0.0 0.0 
0.0 0.0 0.0 
0.0 0.0 0.0 
0.0 0.0 0.0 
0.0 0.0 0.0 
0.0 0.0 0.0 
0.0 0.0 0.0 
0.0 0.0 0.0 
0.0 0.0 0.0 
0.0 0.0 0.0 
0.0 0.0 0.0 
0.0 0.0 0.0 
0.0 0.0 0.0 
0.0 0.0 0.0 
0.0 0.0 0.0 
0.0 0.0 0.0 
0.0 0.0 0.0 
0.0 0.0 0.0 
0.0 0.0 0.0 
0.0 0.0 0.0 
0.0 0.0 0.0 
0.0 0.0 0.0 
0.0 0.0 0.0 
0.0 0.0 0.0 
0.0 0.0 0.0 
0.0 0.0 0.0 
0.0 0.0 0.0 
0.0 0.0 0.0 
0.0 0.0 0.0 
0.0 0.0 0.0 
0.0 0.0 0.0 
0.0 0.0 0.0 
0.0 0.0 0.0 
0.0 0.0 0.0 
0.0 0.0 0.0 
0.0 0.0 0.0 
0.0 0.0 0.0 
0.0 0.0 0.0 
0.0 0.0 0.0 
0.0 0.0 0.0 
0.0 0.0 0.0 
0.0 0.0 0.0 
0.0 0.0 0.0 
0.0 0.0 0.0 
0.0 0.0 0.0 
0.0 0.0 0.0 
0.0 0.0 0.0 
0.0 0.0 0.0 
0.0 0.0 0.0 
0.0 0.0 0.0 
0.0 0.0 0.0 
0.0 0.0 0.0 
0.0 0.0 0.0 
0.0 0.0 0.0 
0.0 0.0 0.0 
0.0 0.0 0.0 
0.0 0.0 0.0 
0.0 0.0 0.0 
0.0 0.0 0.0 
0.0 0.0 0.0 
0.0 0.0 0.0 
0.0 0.0 0.0 
0.0 0.0 0.0 
0.0 0.0 0.0 
0.0 0.0 0.0 
0.0 0.0 0.0 
0.0 0.0 0.0 
0.0 0.0 0.0 
0.0 0.0 0.0 
0.0 0.0 0.0 
0.0 0.0 0.0 
0.0 0.0 0.0 
0.0 0.0 0.0 
0.0 0.0 0.0 
0.0 0.0 0.0 
0.0 0.0 0.0 
0.0 0.0 0.0 
0.0 0.0 0.0 
0.0 0.0 0.0 
0.0 0.0 0.0 
0.0 0.0 0.0 
0.0 0.0 0.0 
0.0 0.0 0.0 
0.0 0.0 0.0 
0.0 0.0 0.0 
0.0 0.0 0.0 
0.0 0.0 0.0 
0.0 0.0 0.0 
0.0 0.0 0.0 
0.0 0.0 0.0 
0.0 0.0 0.0 
0.0 0.0 0.0 
0.0 0.0 0.0 
0.0 0.0 0.0 
0.0 0.0 0.0 
0.0 0.0 0.0 
0.0 0.0 0.0 
0.0 0.0 0.0 
0.0 0.0 0.0 
0.0 0.0 0.0 
0.0 0.0 0.0 
0.0 0.0 0.0 
0.0 0.0 0.0 
0.0 0.0 0.0 
0.0 0.0 0.0 
0.0 0.0 0.0 
0.0 0.0 0.0 
0.0 0.0 0.0 
0.0 0.0 0.0 
0.0 0.0 0.0 
0.0 0.0 0.0 
0.0 0.0 0.0 
0.0 0.0 0.0 
0.0 0.0 0.0 
0.0 0.0 0.0 
0.0 0.0 0.0 
0.0 0.0 0.0 
0.0 0.0 0.0 
0.0 0.0 0.0 
0.0 0.0 0.0 
0.0 0.0 0.0 
0.0 0.0 0.0 
0.0 0.0 0.0 
0.0 0.0 0.0 
0.0 0.0 0.0 
0.0 0.0 0.0 
0.0 0.0 0.0 
0.0 0.0 0.0 
0.0 0.0 0.0 
0.0 0.0 0.0 
0.0 0.0 0.0 
0.0 0.0 0.0 
0.0 0.0 0.0 
0.0 0.0 0.0 
0.0 0.0 0.0 
0.0 0.0 0.0 
0.0 0.0 0.0 
0.0 0.0 0.0 
0.0 0.0 0.0 
0.0 0.0 0.0 
0.0 0.0 0.0 
0.0 0.0 0.0 
0.0 0.0 0.0 
0.0 0.0 0.0 
0.0 0.0 0.0 
0.0 0.0 0.0 
0.0 0.0 0.0 
0.0 0.0 0.0 
0.0 0.0 0.0 
0.0 0.0 0.0 
0.0 0.0 0.0 
0.0 0.0 0.0 
0.0 0.0 0.0 
0.0 0.0 0.0 
0.0 0.0 0.0 
0.0 0.0 0.0 
0.0 0.0 0.0 
0.0 0.0 0.0 
0.0 0.0 0.0 
0.0 0.0 0.0 
0.0 0.0 0.0 
0.0 0.0 0.0 
0.0 0.0 0.0 
0.0 0.0 0.0 
0.0 0.0 0.0 
0.0 0.0 0.0 
0.0 0.0 0.0 
0.0 0.0 0.0 
0.0 0.0 0.0 
0.0 0.0 0.0 
0.0 0.0 0.0 
0.0 0.0 0.0 
0.0 0.0 0.0 
0.0 0.0 0.0 
0.0 0.0 0.0 
0.0 0.0 0.0 
0.0 0.0 0.0 
0.0 0.0 0.0 
0.0 0.0 0.0 
0.0 0.0 0.0 
0.0 0.0 0.0 
0.0 0.0 0.0 
0.0 0.0 0.0 
0.0 0.0 0.0 
0.0 0.0 0.0 
0.0 0.0 0.0 
0.0 0.0 0.0 
0.0 0.0 0.0 
0.0 0.0 0.0 
0.0 0.0 0.0 
0.0 0.0 0.0 
0.0 0.0 0.0 
0.0 0.0 0.0 
0.0 0.0 0.0 
0.0 0.0 0.0 
0.0 0.0 0.0 
0.0 0.0 0.0 
0.0 0.0 0.0 
0.0 0.0 0.0 
0.0 0.0 0.0 
0.0 0.0 0.0 
0.0 0.0 0.0 
0.0 0.0 0.0 
0.0 0.0 0.0 
0.0 0.0 0.0 
0.0 0.0 0.0 
0.0 0.0 0.0 
0.0 0.0 0.0 
0.0 0.0 0.0 
0.0 0.0 0.0 
0.0 0.0 0.0 
0.0 0.0 0.0 
0.0 0.0 0.0 
0.0 0.0 0.0 
0.0 0.0 0.0 
0.0 0.0 0.0 
0.0 0.0 0.0 
0.0 0.0 0.0 
0.0 0.0 0.0 
0.0 0.0 0.0 
0.0 0.0 0.0 
0.0 0.0 0.0 
0.0 0.0 0.0 
0.0 0.0 0.0 
0.0 0.0 0.0 
0.0 0.0 0.0 
0.0 0.0 0.0 
0.0 0.0 0.0 
0.0 0.0 0.0 
0.0 0.0 0.0 
0.0 0.0 0.0 
0.0 0.0 0.0 
0.0 0.0 0.0 
0.0 0.0 0.0 
0.0 0.0 0.0 
0.0 0.0 0.0 
0.0 0.0 0.0 
0.0 0.0 0.0 
0.0 0.0 0.0 
0.0 0.0 0.0 
0.0 0.0 0.0 
0.0 0.0 0.0 
0.0 0.0 0.0 
0.0 0.0 0.0 
0.0 0.0 0.0 
0.0 0.0 0.0 
0.0 0.0 0.0 
0.0 0.0 0.0 
0.0 0.0 0.0 
0.0 0.0 0.0 
0.0 0.0 0.0 
0.0 0.0 0.0 
0.0 0.0 0.0 
0.0 0.0 0.0 
0.0 0.0 0.0 
0.0 0.0 0.0 
0.0 0.0 0.0 
0.0 0.0 0.0 
0.0 0.0 0.0 
0.0 0.0 0.0 
0.0 0.0 0.0 
0.0 0.0 0.0 
0.0 0.0 0.0 
0.0 0.0 0.0 
0.0 0.0 0.0 
0.0 0.0 0.0 
0.0 0.0 0.0 
0.0 0.0 0.0 
0.0 0.0 0.0 
0.0 0.0 0.0 
0.0 0.0 0.0 
0.0 0.0 0.0 
0.0 0.0 0.0 
0.0 0.0 0.0 
0.0 0.0 0.0 
0.0 0.0 0.0 
0.0 0.0 0.0 
0.0 0.0 0.0 
0.0 0.0 0.0 
0.0 0.0 0.0 
0.0 0.0 0.0 
0.0 0.0 0.0 
0.0 0.0 0.0 
0.0 0.0 0.0 
0.0 0.0 0.0 
0.0 0.0 0.0 
0.0 0.0 0.0 
0.0 0.0 0.0 
0.0 0.0 0.0 
0.0 0.0 0.0 
0.0 0.0 0.0 
0.0 0.0 0.0 
0.0 0.0 0.0 
0.0 0.0 0.0 
0.0 0.0 0.0 
0.0 0.0 0.0 
0.0 0.0 0.0 
0.0 0.0 0.0 
0.0 0.0 0.0 
0.0 0.0 0.0 
0.0 0.0 0.0 
0.0 0.0 0.0 
0.0 0.0 0.0 
0.0 0.0 0.0 
0.0 0.0 0.0 
0.0 0.0 0.0 
0.0 0.0 0.0 
0.0 0.0 0.0 
0.0 0.0 0.0 
0.0 0.0 0.0 
0.0 0.0 0.0 
0.0 0.0 0.0 
0.0 0.0 0.0 
0.0 0.0 0.0 
0.0 0.0 0.0 
0.0 0.0 0.0 
0.0 0.0 0.0 
0.0 0.0 0.0 
0.0 0.0 0.0 
0.0 0.0 0.0 
0.0 0.0 0.0 
0.0 0.0 0.0 
0.0 0.0 0.0 
0.0 0.0 0.0 
0.0 0.0 0.0 
0.0 0.0 0.0 
0.0 0.0 0.0 
0.0 0.0 0.0 
0.0 0.0 0.0 
0.0 0.0 0.0 
0.0 0.0 0.0 
0.0 0.0 0.0 
0.0 0.0 0.0 
0.0 0.0 0.0 
0.0 0.0 0.0 
0.0 0.0 0.0 
0.0 0.0 0.0 
0.0 0.0 0.0 
0.0 0.0 0.0 
0.0 0.0 0.0 
0.0 0.0 0.0 
0.0 0.0 0.0 
0.0 0.0 0.0 
0.0 0.0 0.0 
0.0 0.0 0.0 
0.0 0.0 0.0 
0.0 0.0 0.0 
0.0 0.0 0.0 
0.0 0.0 0.0 
0.0 0.0 0.0 
0.0 0.0 0.0 
0.0 0.0 0.0 
0.0 0.0 0.0 
0.0 0.0 0.0 
0.0 0.0 0.0 
0.0 0.0 0.0 
0.0 0.0 0.0 
0.0 0.0 0.0 
0.0 0.0 0.0 
0.0 0.0 0.0 
0.0 0.0 0.0 
0.0 0.0 0.0 
0.0 0.0 0.0 
0.0 0.0 0.0 
0.0 0.0 0.0 
0.0 0.0 0.0 
0.0 0.0 0.0 
0.0 0.0 0.0 
0.0 0.0 0.0 
0.0 0.0 0.0 
0.0 0.0 0.0 
0.0 0.0 0.0 
0.0 0.0 0.0 
0.0 0.0 0.0 
0.0 0.0 0.0 
0.0 0.0 0.0 
0.0 0.0 0.0 
0.0 0.0 0.0 
0.0 0.0 0.0 
0.0 0.0 0.0 
0.0 0.0 0.0 
0.0 0.0 0.0 
0.0 0.0 0.0 
0.0 0.0 0.0 
0.0 0.0 0.0 
0.0 0.0 0.0 
0.0 0.0 0.0 
0.0 0.0 0.0 
0.0 0.0 0.0 
0.0 0.0 0.0 
0.0 0.0 0.0 
0.0 0.0 0.0 
0.0 0.0 0.0 
0.0 0.0 0.0 
0.0 0.0 0.0 
0.0 0.0 0.0 
0.0 0.0 0.0 
0.0 0.0 0.0 
0.0 0.0 0.0 
0.0 0.0 0.0 
0.0 0.0 0.0 
0.0 0.0 0.0 
0.0 0.0 0.0 
0.0 0.0 0.0 
0.0 0.0 0.0 
0.0 0.0 0.0 
0.0 0.0 0.0 
0.0 0.0 0.0 
0.0 0.0 0.0 
0.0 0.0 0.0 
0.0 0.0 0.0 
0.0 0.0 0.0 
0.0 0.0 0.0 
0.0 0.0 0.0 
0.0 0.0 0.0 
0.0 0.0 0.0 
0.0 0.0 0.0 
0.0 0.0 0.0 
0.0 0.0 0.0 
0.0 0.0 0.0 
0.0 0.0 0.0 

VECTORS node_materi_velocity float
0.0 -2.848088520479e-04 0.0 
0.0 9.981576616276e-03 0.0 
0.0 0.0 0.0 
0.0 0.0 0.0 
0.0 -2.754592802896e-04 0.0 
0.0 -2.658317025727e-04 0.0 
0.0 -2.554575991504e-04 0.0 
0.0 -2.440292197336e-04 0.0 
0.0 -2.310825635015e-04 0.0 
0.0 -2.165701312946e-04 0.0 
0.0 -2.004683941227e-04 0.0 
0.0 -1.828059839947e-04 0.0 
0.0 -1.638070890656e-04 0.0 
0.0 -1.437630981531e-04 0.0 
0.0 -1.231096774987e-04 0.0 
0.0 -1.024273025216e-04 0.0 
0.0 -8.219764079903e-05 0.0 
0.0 -6.269324969225e-05 0.0 
0.0 -4.489763491424e-05 0.0 
0.0 -2.934129233775e-05 0.0 
0.0 -1.652227964056e-05 0.0 
0.0 -7.153101298726e-06 0.0 
0.0 -1.817535830707e-06 0.0 
0.0 0.0 0.0 
0.0 0.0 0.0 
0.0 0.0 0.0 
0.0 0.0 0.0 
0.0 0.0 0.0 
0.0 0.0 0.0 
0.0 0.0 0.0 
0.0 0.0 0.0 
0.0 0.0 0.0 
0.0 0.0 0.0 
0.0 0.0 0.0 
0.0 0.0 0.0 
0.0 0.0 0.0 
0.0 0.0 0.0 
0.0 0.0 0.0 
0.0 0.0 0.0 
0.0 0.0 0.0 
0.0 0.0 0.0 
0.0 0.0 0.0 
0.0 0.0 0.0 
0.0 0.0 0.0 
0.0 0.0 0.0 
0.0 0.0 0.0 
0.0 0.0 0.0 
0.0 0.0 0.0 
0.0 0.0 0.0 
0.0 0.0 0.0 
0.0 0.0 0.0 
0.0 0.0 0.0 
0.0 0.0 0.0 
0.0 0.0 0.0 
0.0 0.0 0.0 
0.0 0.0 0.0 
0.0 0.0 0.0 
0.0 0.0 0.0 
0.0 0.0 0.0 
0.0 0.0 0.0 
0.0 0.0 0.0 
0.0 0.0 0.0 
0.0 0.0 0.0 
0.0 0.0 0.0 
0.0 0.0 0.0 
0.0 0.0 0.0 
0.0 0.0 0.0 
0.0 0.0 0.0 
0.0 0.0 0.0 
0.0 0.0 0.0 
0.0 0.0 0.0 
0.0 0.0 0.0 
0.0 8.961447045894e-03 0.0 
0.0 7.941394632746e-03 0.0 
0.0 6.922511067659e-03 0.0 
0.0 5.905993375770e-03 0.0 
0.0 4.894440509573e-03 0.0 
0.0 3.889974928763e-03 0.0 
0.0 2.895470254797e-03 0.0 
0.0 1.913994375244e-03 0.0 
0.0 9.486001889847e-04 0.0 
-4.646206596757e-05 6.902390677476e-06 0.0 
1.721010047942e-03 8.446469802238e-03 0.0 
-2.708303523445e-05 1.274788948546e-04 0.0 
-3.037457411668e-05 3.015633033624e-04 0.0 
-3.918870569703e-05 5.578002112605e-04 0.0 
-3.802383497020e-05 9.420548325340e-04 0.0 
-3.321837919598e-06 1.519186998763e-03 0.0 
1.520702784441e-04 2.413853852042e-03 0.0 
8.566052381214e-04 3.916425084516e-03 0.0 
9.751776455874e-04 6.883748806729e-03 0.0 
1.445139874475e-03 8.246623870498e-03 0.0 
0.0 1.204098273851e-02 0.0 
0.0 1.100248513719e-02 0.0 
1.199520945753e-04 9.983900766398e-03 0.0 
2.401699692095e-04 9.988101695757e-03 0.0 
3.569425250373e-04 9.988779561966e-03 0.0 
4.715059126836e-04 9.990600497054e-03 0.0 
5.840367765087e-04 9.992436511887e-03 0.0 
6.944221610262e-04 9.991353928864e-03 0.0 
8.028141260941e-04 9.982996513919e-03 0.0 
9.069449601511e-04 9.961442975329e-03 0.0 
1.009246563999e-03 9.920485585633e-03 0.0 
1.109622765566e-03 9.851773403784e-03 0.0 
1.209810843428e-03 9.740932135078e-03 0.0 
1.313641758338e-03 9.571668083893e-03 0.0 
1.427024479684e-03 9.321424655039e-03 0.0 
1.557602881755e-03 8.960130319420e-03 0.0 
-2.473485832871e-05 -6.692817131598e-05 0.0 
5.203429140085e-06 -1.342602343235e-04 0.0 
3.704025553267e-05 -1.897440981347e-04 0.0 
6.813784797660e-05 -2.333112580660e-04 0.0 
9.471160360601e-05 -2.666087640884e-04 0.0 
1.165834712244e-04 -2.905010291131e-04 0.0 
1.333772897868e-04 -3.063192582796e-04 0.0 
1.448827072646e-04 -3.159165972106e-04 0.0 
1.513385429694e-04 -3.204674723165e-04 0.0 
1.529521188734e-04 -3.210901234870e-04 0.0 
1.500338776191e-04 -3.192400778842e-04 0.0 
1.432927160585e-04 -3.152136877293e-04 0.0 
1.328160669830e-04 -3.102750673765e-04 0.0 
1.194276779783e-04 -3.048445966600e-04 0.0 
1.034386423338e-04 -2.996509822260e-04 0.0 
8.530021830477e-05 -2.948012036259e-04 0.0 
6.541266765263e-05 -2.906652142967e-04 0.0 
4.427426699961e-05 -2.875984139574e-04 0.0 
2.236842734268e-05 -2.856564778658e-04 0.0 
1.645218758746e-04 1.203799385983e-02 0.0 
2.612981228444e-04 1.202438916841e-02 0.0 
3.712716408979e-04 1.202028644570e-02 0.0 
4.854087549323e-04 1.202203388783e-02 0.0 
5.966585694266e-04 1.202123189571e-02 0.0 
6.995174776959e-04 1.201566604155e-02 0.0 
7.897235956000e-04 1.200173968809e-02 0.0 
8.624449434308e-04 1.197165109239e-02 0.0 
9.177991809833e-04 1.192018585984e-02 0.0 
9.482958344936e-04 1.184253651617e-02 0.0 
9.473839204300e-04 1.172369382938e-02 0.0 
9.137809609591e-04 1.154737595562e-02 0.0 
8.457157778795e-04 1.129501643744e-02 0.0 
7.442128000459e-04 1.093789896927e-02 0.0 
6.215535394312e-04 1.044955923828e-02 0.0 
4.932813757633e-04 9.757832019206e-03 0.0 
3.634827770465e-04 8.756426567958e-03 0.0 
1.285264299074e-03 9.131532503718e-03 0.0 
1.213706335281e-03 9.719459796608e-03 0.0 
1.164752413279e-03 1.013600446638e-02 0.0 
1.128809151673e-03 1.043465578303e-02 0.0 
1.092746071194e-03 1.064330667135e-02 0.0 
1.049179508981e-03 1.078599450953e-02 0.0 
9.950332490059e-04 1.087990581729e-02 0.0 
9.292319966309e-04 1.093995932830e-02 0.0 
8.519519367403e-04 1.097731143150e-02 0.0 
7.648057411529e-04 1.099716260503e-02 0.0 
6.694219301487e-04 1.100499974165e-02 0.0 
5.675135908499e-04 1.100679130948e-02 0.0 
4.610873877475e-04 1.100626725937e-02 0.0 
3.524486398519e-04 1.100635167122e-02 0.0 
2.412123947078e-04 1.100998331560e-02 0.0 
1.220956704008e-04 1.100749089756e-02 0.0 
-3.173469348311e-05 6.230069837131e-05 0.0 
-2.720849923683e-05 2.062428491131e-04 0.0 
-3.453483025043e-05 4.173953804815e-04 0.0 
-4.132302932025e-05 7.289982509009e-04 0.0 
-3.148274142501e-05 1.198415756114e-03 0.0 
4.808079669142e-05 1.920492096090e-03 0.0 
3.660773192342e-04 3.048690216301e-03 0.0 
1.032446343825e-03 5.400661657946e-03 0.0 
1.220400170981e-03 7.731503009475e-03 0.0 
1.628640202847e-03 8.427587106319e-03 0.0 
2.375951749722e-05 2.026512202788e-04 0.0 
1.651962884245e-04 2.170632408756e-05 0.0 
1.574344360335e-04 -3.211473739369e-04 0.0 
1.118795423432e-04 -2.586054381535e-04 0.0 
8.423197376840e-05 5.320379710882e-06 0.0 
7.608134299953e-05 7.332867344570e-04 0.0 
2.701728820219e-05 -1.335054705233e-04 0.0 
2.730921214398e-04 5.633403019079e-05 0.0 
3.987511923716e-04 1.876964688479e-03 0.0 
4.094535850066e-04 1.264829735319e-04 0.0 
1.516932179616e-03 4.985029220320e-03 0.0 
4.162724206544e-05 1.093887400947e-06 0.0 
1.231496097009e-04 -3.019863070864e-04 0.0 
5.645684188103e-04 2.722284388349e-04 0.0 
2.055111057946e-03 7.462278599459e-03 0.0 
2.286308891539e-05 -2.087748778840e-04 0.0 
2.635748497050e-05 -7.633176333727e-05 0.0 
6.345291765547e-04 4.444898395089e-04 0.0 
5.172646350802e-04 6.250527404039e-04 0.0 
1.424913213962e-04 8.012103102714e-04 0.0 
2.755038179499e-04 8.441904096254e-04 0.0 
3.761598366981e-04 7.060900618044e-04 0.0 
1.720614988941e-03 8.258696069402e-03 0.0 
1.133857888876e-03 8.970237359372e-03 0.0 
7.682307119055e-04 9.044397043571e-03 0.0 
8.308588157718e-05 5.384121740521e-03 0.0 
2.401071887182e-05 -4.133816055405e-07 0.0 
3.920905884649e-05 -1.084066523053e-04 0.0 
7.333279245633e-05 -2.852252247624e-04 0.0 
1.728611891869e-05 -2.356410030372e-05 0.0 
4.070240248445e-04 9.111804544892e-03 0.0 
2.147820995629e-05 -2.507665238589e-04 0.0 
6.670889450669e-04 6.173086738086e-04 0.0 
3.132283044867e-04 7.880073439449e-05 0.0 
4.852917694565e-04 1.855936300984e-04 0.0 
2.291201327496e-04 3.874100525215e-05 0.0 
1.205084951590e-04 1.199611638198e-05 0.0 
1.441146438024e-04 -3.044327920111e-04 0.0 
1.395070468415e-03 8.803723828725e-03 0.0 
7.110776616155e-05 2.593170579481e-06 0.0 
6.621794859781e-05 3.433619641158e-03 0.0 
1.471045036010e-04 -3.146059766907e-04 0.0 
2.599054899439e-05 -1.740187267651e-04 0.0 
7.039793820892e-05 6.539398134840e-04 0.0 
1.758067731361e-04 1.154906126512e-03 0.0 
3.822503772521e-05 4.179232472314e-04 0.0 
9.530253094029e-04 3.045863141264e-03 0.0 
1.927628758382e-03 6.808661079097e-03 0.0 
9.237963512338e-06 5.661113166708e-05 0.0 
9.612838040122e-05 7.310380701672e-03 0.0 
1.062623591084e-05 -6.215763741470e-07 0.0 
3.309367100353e-05 -2.787144795024e-04 0.0 
3.763827303168e-05 1.499598281686e-03 0.0 
2.075853591296e-03 7.381381590729e-03 0.0 
2.324413458201e-03 6.530998075182e-03 0.0 
2.208594516374e-03 6.678442273218e-03 0.0 
2.442390358220e-03 5.702993066945e-03 0.0 
2.324898269572e-03 5.666039697253e-03 0.0 
2.468508460304e-03 4.876073046366e-03 0.0 
2.588865061923e-03 4.813721908687e-03 0.0 
2.550402608339e-03 4.102208001881e-03 0.0 
2.655635486871e-03 3.979194439090e-03 0.0 
2.308126646473e-03 4.801495194419e-03 0.0 
2.564240855902e-03 3.378331686381e-03 0.0 
2.647760987293e-03 3.223186062183e-03 0.0 
2.514157415463e-03 2.728394132404e-03 0.0 
2.576656071903e-03 2.568602299328e-03 0.0 
2.662345629104e-03 2.968047454811e-03 0.0 
2.572164112298e-03 2.334689832330e-03 0.0 
2.601119592153e-03 2.634784815966e-03 0.0 
2.499327976666e-03 2.047340889297e-03 0.0 
2.442760840319e-03 1.816765178734e-03 0.0 
2.368112968515e-03 1.578622434717e-03 0.0 
2.365763946889e-03 1.734812187300e-03 0.0 
2.242456210591e-03 1.324959032587e-03 0.0 
2.185452221109e-03 1.421867396069e-03 0.0 
2.079041014006e-03 1.073772545604e-03 0.0 
1.975039806558e-03 1.126112243582e-03 0.0 
1.891963781017e-03 8.388501133253e-04 0.0 
1.958298978927e-03 8.030592124939e-04 0.0 
1.794128449484e-03 6.161227709542e-04 0.0 
1.696031899518e-03 6.298532922379e-04 0.0 
1.621669822803e-03 4.488584154701e-04 0.0 
1.502410088067e-03 4.500850980486e-04 0.0 
1.450170245652e-03 3.042527092508e-04 0.0 
1.534468405917e-03 3.110034981159e-04 0.0 
1.383740015476e-03 1.942570614113e-04 0.0 
1.285768095634e-03 1.823522345314e-04 0.0 
1.238116022059e-03 9.520554107306e-05 0.0 
1.132945313998e-03 8.148869445982e-05 0.0 
1.101345308653e-03 1.276061376526e-05 0.0 
9.941653165960e-04 -7.258771411862e-07 0.0 
9.748122297374e-04 -5.523642706840e-05 0.0 
1.057201334467e-03 -3.589497121401e-05 0.0 
9.427874929711e-04 -9.272632042533e-05 0.0 
8.596221871599e-04 -1.107142416451e-04 0.0 
8.374129976530e-04 -1.393539467659e-04 0.0 
8.997612485183e-04 -1.163146526092e-04 0.0 
8.042156538494e-04 -1.559522426233e-04 0.0 
8.479642194978e-04 -1.289083304052e-04 0.0 
7.622654074597e-04 -1.630286129479e-04 0.0 
7.169565696141e-04 -1.882585525080e-04 0.0 
6.828596448987e-04 -1.910440318038e-04 0.0 
7.137844636314e-04 -1.627172193464e-04 0.0 
6.419512325094e-04 -1.875398223399e-04 0.0 
6.090652851917e-04 -2.142147998481e-04 0.0 
5.751287600184e-04 -2.078262728650e-04 0.0 
5.967109379560e-04 -1.791378333855e-04 0.0 
5.361947958671e-04 -1.974015362587e-04 0.0 
5.129995462068e-04 -2.243788065814e-04 0.0 
4.795808919615e-04 -2.122810677684e-04 0.0 
4.944225071609e-04 -1.838537603718e-04 0.0 
4.427832600207e-04 -1.977788649678e-04 0.0 
4.265488772259e-04 -2.243745337119e-04 0.0 
3.943524778095e-04 -2.089597607810e-04 0.0 
4.040737003024e-04 -1.815953757545e-04 0.0 
3.597884704071e-04 -1.924058926593e-04 0.0 
3.639922121029e-04 -1.647877337330e-04 0.0 
3.482366062181e-04 -2.181613457143e-04 0.0 
3.176451997399e-04 -2.013012829137e-04 0.0 
3.050553170041e-04 -2.255990313284e-04 0.0 
2.778139808742e-04 -2.085994876985e-04 0.0 
1.436919776871e-03 2.075807369256e-04 0.0 
2.654289019150e-04 -2.312601711721e-04 0.0 
2.883808687410e-04 -2.472540385912e-04 0.0 
2.405287982891e-04 -2.145514808140e-04 0.0 
2.487499275192e-04 -1.915208341583e-04 0.0 
2.287194952486e-04 -2.355909328270e-04 0.0 
2.056823745012e-04 -2.194129140912e-04 0.0 
1.949094881058e-04 -2.389093722584e-04 0.0 
9.917429637053e-04 7.387894850318e-05 0.0 
2.285226521082e-03 1.401110852054e-03 0.0 
1.732848948694e-04 -2.235052557612e-04 0.0 
1.639059240952e-04 -2.415139863486e-04 0.0 
1.824469717160e-04 -2.561504646882e-04 0.0 
1.536031411771e-04 -2.573392907263e-04 0.0 
2.165474482729e-03 5.530435035729e-03 0.0 
2.118079545061e-03 4.628558684050e-03 0.0 
1.987082739865e-03 5.303349880402e-03 0.0 
1.904465735746e-03 4.377821026822e-03 0.0 
1.789264949010e-03 4.993138989722e-03 0.0 
1.355481591572e-04 -2.437332699024e-04 0.0 
2.386780883132e-03 2.775148611307e-03 0.0 
1.980696880954e-03 3.754861836379e-03 0.0 
2.273938173705e-03 1.867574249700e-03 0.0 
1.537706726522e-03 6.404127698806e-04 0.0 
9.387308838402e-04 -8.809661831279e-05 0.0 
1.808636485323e-04 -2.035093728694e-04 0.0 
1.498907437635e-04 -2.085604507344e-04 0.0 
1.547071508285e-04 -1.882493331478e-04 0.0 
4.051451645570e-04 -1.525062255322e-04 0.0 
3.598322948175e-04 -1.362158359726e-04 0.0 
3.961806572324e-04 -1.227414674075e-04 0.0 
3.465105555764e-04 -1.076318394704e-04 0.0 
3.763799977357e-04 -9.346568085442e-05 0.0 
3.235813263228e-04 -8.011629500662e-05 0.0 
2.987891845540e-04 -9.323281410353e-05 0.0 
2.739948506777e-04 -6.764691131065e-05 0.0 
2.535537901133e-04 -7.979060372507e-05 0.0 
3.454294329336e-04 -6.592004656042e-05 0.0 
4.038910319297e-04 -7.784112430226e-05 0.0 
2.280075898490e-04 -5.624339561110e-05 0.0 
2.112118535597e-04 -6.748346702455e-05 0.0 
1.858961857119e-04 -4.605009599842e-05 0.0 
1.721002947585e-04 -5.640159914724e-05 0.0 
1.914565111601e-04 -7.829254781827e-05 0.0 
1.549966829373e-04 -6.659534451675e-05 0.0 
1.694368388389e-04 -8.867262071403e-05 0.0 
8.687648758330e-04 -9.796103302988e-05 0.0 
9.502000025467e-04 -5.678754121463e-05 0.0 
8.633838693881e-04 -6.513102317913e-05 0.0 
9.304888517216e-04 -2.501206062071e-05 0.0 
8.293787223905e-04 -3.279714119421e-05 0.0 
8.775794745954e-04 4.488166127742e-06 0.0 
7.652836191594e-04 -3.430265498623e-06 0.0 
7.303025671688e-04 -3.508372706559e-05 0.0 
2.407296559521e-03 2.153653806852e-03 0.0 
7.564196487041e-04 -1.556621388278e-04 0.0 
7.584710687940e-04 -1.208917713836e-04 0.0 
6.620298201539e-04 -1.642117231432e-04 0.0 
6.457673011748e-04 -1.226014681808e-04 0.0 
5.598646199043e-04 -1.647992786072e-04 0.0 
5.278907312992e-04 -1.157458174218e-04 0.0 
4.549842693588e-04 -1.576826246637e-04 0.0 
4.862783254189e-04 -1.995652377895e-04 0.0 
3.933302685272e-04 -1.929417439289e-04 0.0 
4.227623520381e-04 -2.284924422270e-04 0.0 
3.410087246697e-04 -2.229669599527e-04 0.0 
3.676063901634e-04 -2.525615906520e-04 0.0 
1.826397006596e-03 5.942937910382e-04 0.0 
9.933389733175e-04 1.964859926806e-05 0.0 
9.169317811844e-04 4.409153286210e-05 0.0 
1.047842730222e-03 6.787743880444e-05 0.0 
1.693288217889e-04 -2.709842950459e-04 0.0 
1.364088408741e-04 -4.652348105817e-05 0.0 
3.631643274524e-04 -5.080232185386e-05 0.0 
4.279860768012e-04 -6.108128244825e-05 0.0 
6.581054920655e-04 -6.934571185840e-06 0.0 
1.275191003825e-04 -2.582601136398e-04 0.0 
4.112081734042e-04 -1.010392624533e-04 0.0 
4.806895997690e-04 -5.019935716333e-05 0.0 
1.676270185450e-03 4.049192152338e-03 0.0 
1.580188875075e-03 4.618817703284e-03 0.0 
3.753644555965e-04 -3.503466706564e-05 0.0 
1.096037990477e-04 -2.458676888330e-04 0.0 
2.409442349639e-04 -4.468294753189e-05 0.0 
3.038871196279e-04 -1.805382318012e-04 0.0 
1.213728343378e-04 -5.610910332047e-05 0.0 
1.042665161411e-04 -3.778358387636e-05 0.0 
2.720014284233e-04 -1.052004298994e-04 0.0 
9.433164373425e-04 8.488549667341e-05 0.0 
1.091492918078e-03 1.178732950358e-04 0.0 
4.415335072179e-04 -2.518240068348e-04 0.0 
3.847258625856e-04 -2.712733156858e-04 0.0 
3.198219990424e-04 -2.725040608783e-04 0.0 
3.369560588412e-04 -2.875193607167e-04 0.0 
3.933115132560e-04 -2.807302064629e-04 0.0 
3.434571834752e-04 -2.928390640211e-04 0.0 
2.939879099868e-04 -2.993496678808e-04 0.0 
2.998550246061e-04 -3.019893007916e-04 0.0 
3.435686204096e-04 -2.916643001503e-04 0.0 
2.999525620826e-04 -2.984291015609e-04 0.0 
2.620061911352e-04 -3.080897647352e-04 0.0 
2.617992792384e-04 -3.027466144745e-04 0.0 
1.139616705538e-04 -2.919883840988e-05 0.0 
2.632490922246e-04 -2.126398987683e-04 0.0 
2.660111937729e-03 3.361616779214e-03 0.0 
3.099924695327e-04 -2.766345178522e-05 0.0 
6.726799300172e-04 2.025210538669e-05 0.0 
1.439572175608e-03 3.662485683440e-03 0.0 
1.364565658592e-03 4.195165411902e-03 0.0 
1.459569283290e-03 5.183143129575e-03 0.0 
1.266651991848e-03 4.722877304118e-03 0.0 
1.147852623655e-03 3.734430481896e-03 0.0 
1.072967210513e-03 4.235739481279e-03 0.0 
1.154800587665e-03 5.240956006494e-03 0.0 
9.828400257406e-04 4.730338673881e-03 0.0 
1.036206551954e-03 5.745503066119e-03 0.0 
8.836685151130e-04 5.215871563443e-03 0.0 
8.137161654741e-04 4.205135767701e-03 0.0 
7.329816453254e-04 4.677670056679e-03 0.0 
7.801694607795e-04 5.693064010154e-03 0.0 
6.450893728188e-04 5.144773871598e-03 0.0 
6.754401652940e-04 6.162009142975e-03 0.0 
5.528266815385e-04 5.606837605079e-03 0.0 
5.147511352350e-04 4.594263882227e-03 0.0 
1.045715937043e-04 -2.589176605408e-04 0.0 
6.350343195454e-04 -3.375219570030e-05 0.0 
5.572800968392e-04 -7.441335678732e-06 0.0 
1.260638424730e-04 -1.945122884480e-04 0.0 
1.286382022951e-04 -1.739579162765e-04 0.0 
1.572717426340e-04 -1.665181552552e-04 0.0 
1.281245801292e-04 -1.522969164696e-04 0.0 
4.323188341940e-04 5.055801578623e-03 0.0 
3.927140386466e-04 4.045147987062e-03 0.0 
3.551669059927e-04 -2.825529681530e-05 0.0 
4.183689509966e-04 3.405740945096e-05 0.0 
1.482539791389e-03 3.131970475739e-03 0.0 
9.073945191053e-05 -4.683760949723e-05 0.0 
1.034021010425e-04 -6.584541521560e-05 0.0 
1.334180216661e-03 4.528709673257e-04 0.0 
1.326900782344e-03 6.500053464760e-04 0.0 
1.127006731664e-03 4.609467893966e-04 0.0 
1.070432578464e-03 6.625815369067e-04 0.0 
1.292752343883e-03 8.991284802614e-04 0.0 
8.871891236131e-04 4.754220629818e-04 0.0 
4.660974470650e-04 -9.072542250971e-05 0.0 
6.518353070713e-04 3.672435233466e-03 0.0 
1.984632091405e-04 -2.705757937090e-04 0.0 
1.822044961326e-04 -2.841512640137e-04 0.0 
7.575159733365e-05 -3.025145360032e-05 0.0 
6.886022659043e-04 -6.464175054776e-05 0.0 
1.951605397751e-03 7.546661431101e-04 0.0 
1.790186850379e-03 5.614939309164e-04 0.0 
1.870701788281e-03 6.916459208711e-04 0.0 
1.684001426296e-03 5.159108519532e-04 0.0 
1.714364208864e-03 6.124607407060e-04 0.0 
1.507688225888e-03 4.567216721134e-04 0.0 
1.494400830967e-03 3.821956073546e-04 0.0 
9.512157764455e-04 1.244318712404e-04 0.0 
1.301495624371e-03 3.374768741236e-04 0.0 
4.653316841474e-04 6.074389942081e-03 0.0 
1.110361047701e-03 4.388839776902e-05 0.0 
3.374654121168e-04 -2.850193399613e-04 0.0 
1.209535420086e-04 -2.703799526516e-04 0.0 
2.287800865774e-04 -3.119884772536e-04 0.0 
8.595018921104e-05 -2.480194037258e-04 0.0 
8.988451075223e-05 -2.339603521861e-04 0.0 
3.090725331075e-04 -1.407604990650e-05 0.0 
1.482871544011e-03 5.161564054782e-04 0.0 
1.703971583586e-03 6.939105586540e-04 0.0 
9.879595665082e-04 9.189419931224e-04 0.0 
1.230721633947e-03 1.214977673102e-03 0.0 
7.957825887290e-04 9.200985473669e-05 0.0 
1.819955745162e-03 5.973296584395e-03 0.0 
1.186079584768e-03 6.260857304234e-03 0.0 
1.048497326839e-03 6.769667804056e-03 0.0 
8.476072480260e-05 -2.618609143944e-04 0.0 
2.263143406646e-04 -3.140490697154e-04 0.0 
9.362369195502e-04 3.248617002898e-03 0.0 
5.628943097987e-04 1.201522226920e-05 0.0 
4.964246216583e-04 1.098378120555e-04 0.0 
2.215065146977e-04 -1.642304236319e-04 0.0 
1.916362591088e-04 -1.992080652762e-04 0.0 
3.250140897612e-04 4.491071636430e-03 0.0 
2.846300788766e-04 3.496499839560e-03 0.0 
1.567273017559e-04 -1.438473402692e-04 0.0 
1.259220072262e-04 -1.300378238351e-04 0.0 
3.803544357664e-04 -1.901588166198e-05 0.0 
2.287362146482e-04 -3.050419871809e-04 0.0 
3.318786472812e-04 3.047425944130e-03 0.0 
6.042471042835e-04 -5.929818376561e-05 0.0 
6.425754678745e-04 -9.155504564848e-05 0.0 
9.975650392703e-05 -1.606443275249e-04 0.0 
2.864172600543e-04 6.169601219713e-05 0.0 
2.423314572956e-04 -1.747740758803e-06 0.0 
3.858476922225e-04 -2.772326032284e-04 0.0 
2.564223391686e-04 -2.935323051472e-04 0.0 
6.622857172057e-05 -2.376792912059e-04 0.0 
2.985629510697e-04 -1.585327451867e-06 0.0 
9.660242690741e-04 2.768361523592e-03 0.0 
1.308252954946e-03 2.837454955951e-04 0.0 
1.453132494126e-03 3.033356941870e-04 0.0 
1.100559619490e-03 2.485230445924e-04 0.0 
2.027942333198e-04 -3.133923118624e-04 0.0 
2.450770383889e-04 -9.786816482297e-06 0.0 
6.323029373834e-05 -3.864359829643e-05 0.0 
1.428396464778e-03 5.643587769617e-04 0.0 
1.647616149536e-03 7.528708075496e-04 0.0 
6.610407100813e-04 8.834086476120e-05 0.0 
5.966166876599e-04 2.046193428638e-04 0.0 
4.140901922547e-04 2.334072969432e-04 0.0 
5.085130648499e-04 3.508761386407e-04 0.0 
2.657867099131e-03 4.613929372422e-03 0.0 
7.826659270053e-04 1.838401322220e-04 0.0 
2.539094553675e-03 2.915761594232e-03 0.0 
2.561625361764e-03 3.742121362478e-03 0.0 
2.372467382574e-03 3.169763434717e-03 0.0 
1.538559111479e-03 1.189333848337e-03 0.0 
1.506252580454e-03 1.590110810424e-03 0.0 
7.447906300152e-04 -7.044098068880e-05 0.0 
1.033956250676e-03 -3.951116960293e-05 0.0 
1.877284606462e-04 -1.587845201765e-04 0.0 
2.057608788150e-04 -1.018350272066e-04 0.0 
4.471043086886e-04 -1.381176925662e-04 0.0 
7.020470713134e-04 3.208052078128e-03 0.0 
5.341373538249e-04 2.681826788392e-03 0.0 
7.982825530776e-04 6.714305613118e-03 0.0 
6.840403263333e-04 7.182886405207e-03 0.0 
1.567644263525e-04 -2.834213485909e-04 0.0 
1.673959072166e-04 -2.952444792312e-04 0.0 
3.234799109053e-04 -1.479929997770e-04 0.0 
2.508608824402e-04 -2.088665162589e-05 0.0 
1.222500683493e-03 2.732467740907e-03 0.0 
1.205797828291e-03 2.244094093503e-03 0.0 
1.484767476540e-03 2.611282676315e-03 0.0 
3.758760207657e-04 -3.296596805759e-06 0.0 
6.650579546650e-04 -1.918724352418e-04 0.0 
7.948614417345e-04 -1.005096887839e-04 0.0 
2.286198457813e-04 -2.396992830035e-04 0.0 
1.565709180548e-03 3.155387589314e-04 0.0 
1.460618448623e-04 -2.935153049042e-04 0.0 
2.302260150625e-03 1.568196529321e-03 0.0 
5.104775760245e-05 -2.370325809639e-05 0.0 
5.877696979927e-05 -1.673694013085e-05 0.0 
7.662657887431e-04 1.180856590151e-04 0.0 
2.355980737112e-03 6.368629119782e-03 0.0 
1.440483399965e-03 2.190867607342e-04 0.0 
1.331747528828e-03 1.316973670776e-04 0.0 
2.347476283929e-03 4.093687050999e-03 0.0 
2.088435495958e-03 3.378554510821e-03 0.0 
2.112380525445e-03 2.601647732091e-03 0.0 
1.775324108296e-03 2.722508183375e-03 0.0 
3.725058158791e-04 -2.679101790368e-04 0.0 
3.257987571660e-04 -2.745439375174e-04 0.0 
1.168475731533e-03 4.012892776079e-04 0.0 
1.050986229963e-03 2.769265344142e-04 0.0 
1.316161142616e-03 5.772721558994e-04 0.0 
1.535114678079e-03 7.726769807710e-04 0.0 
6.081143305048e-04 8.609146912867e-05 0.0 
6.503795991177e-04 6.809841667454e-05 0.0 
6.859581448404e-05 -2.228983020376e-04 0.0 
1.143732155047e-03 1.615100747526e-03 0.0 
7.418865254040e-04 2.282584025292e-03 0.0 
2.504740261131e-03 4.745236342302e-03 0.0 
1.900160638327e-04 -6.146127081553e-06 0.0 
1.983388585921e-04 -1.545176736983e-05 0.0 
1.659683584329e-04 -2.288729430941e-04 0.0 
2.002433992852e-04 -2.662071730339e-04 0.0 
2.278997419106e-04 2.527830468485e-03 0.0 
3.190345739305e-04 3.831081255175e-04 0.0 
3.993003327865e-04 5.258191360440e-04 0.0 
2.575762738250e-04 2.645295247076e-04 0.0 
7.404081262981e-06 -3.628838310930e-06 0.0 
1.776997309528e-04 9.118919550870e-03 0.0 
3.753183772669e-05 -1.199011668469e-05 0.0 
1.815559919812e-03 1.558042428039e-03 0.0 
2.500958200577e-04 2.047074239977e-03 0.0 
1.313691765170e-03 1.500096672642e-04 0.0 
1.145217574577e-03 2.988352606928e-04 0.0 
4.589837293286e-04 -2.374895258501e-05 0.0 
1.827600532291e-04 3.053241125886e-03 0.0 
1.378430868580e-04 1.970784049801e-03 0.0 
1.171257485564e-03 7.272256972663e-03 0.0 
1.028473206260e-03 7.796642559909e-03 0.0 
1.328671585977e-03 6.753645800973e-03 0.0 
2.582991390584e-04 -1.242505350739e-04 0.0 
1.619649168477e-04 -9.342943977377e-05 0.0 
5.014876746159e-04 3.136111519655e-03 0.0 
1.210005077668e-04 -2.133757572789e-04 0.0 
9.595457286607e-05 -1.981519391270e-04 0.0 
2.222670533844e-04 -2.953472123553e-04 0.0 
2.458272102086e-04 -2.817460790792e-04 0.0 
1.858456082040e-04 -1.351997227475e-04 0.0 
2.191875869156e-04 -1.505653939288e-04 0.0 
2.119035868261e-03 1.204471999611e-03 0.0 
2.080370467345e-03 1.308535071857e-03 0.0 
2.050765897915e-03 9.204977358945e-04 0.0 
5.680752138639e-04 -8.279505557292e-05 0.0 
5.942592344237e-04 -1.154749594978e-04 0.0 
6.611188610406e-04 -1.247552288571e-04 0.0 
5.528327848298e-04 2.259467083290e-03 0.0 
3.710265843808e-04 1.661873394088e-03 0.0 
4.240152829630e-04 -2.591434333122e-04 0.0 
4.396748541962e-04 -2.667790997971e-04 0.0 
3.536545660384e-04 -2.558691470108e-04 0.0 
7.240039471050e-04 1.843882659680e-03 0.0 
4.124061094296e-05 -7.145820161717e-06 0.0 
6.248447485041e-05 -1.071983709729e-05 0.0 
1.551796343649e-04 -3.034989678876e-04 0.0 
1.751360951882e-04 -3.053443457796e-04 0.0 
1.750554541194e-04 8.995668176720e-05 0.0 
1.451396445618e-04 2.635809008938e-05 0.0 
1.159237388337e-03 1.804644227812e-03 0.0 
1.442529728335e-03 2.118609241065e-03 0.0 
8.451085119564e-04 1.389395981007e-03 0.0 
4.463602664199e-05 -2.289566356074e-04 0.0 
1.287776916298e-03 2.254151347750e-04 0.0 
2.850235652567e-04 9.872499596230e-06 0.0 
3.693338518168e-04 1.070263945587e-05 0.0 
1.993328462512e-04 8.958677681004e-06 0.0 
9.410017254830e-04 1.598429147868e-04 0.0 
7.146125631623e-04 1.352567205310e-04 0.0 
8.317295307659e-04 1.990670312092e-04 0.0 
1.275185254519e-04 -1.854478336206e-04 0.0 
1.022620200717e-04 2.374503436844e-03 0.0 
7.936029025590e-04 7.738331658130e-03 0.0 
1.160016548192e-04 -2.130852329403e-04 0.0 
6.750995494442e-04 8.241289699378e-03 0.0 
5.765553762026e-04 7.651837057093e-03 0.0 
5.780855700064e-04 8.733039792423e-03 0.0 
4.428128095756e-05 -2.419131439741e-04 0.0 
1.277724870183e-03 7.936902404482e-03 0.0 
1.466324268369e-03 7.251009150332e-03 0.0 
1.590307048299e-04 -3.130451062886e-04 0.0 
4.932490577077e-04 1.370060429656e-03 0.0 
1.393841026545e-04 -3.011118921094e-04 0.0 
1.291980242520e-04 -2.920135624027e-04 0.0 
1.411977268114e-04 -3.793915265154e-06 0.0 
1.522331024360e-04 -1.069009244724e-05 0.0 
9.988141407106e-05 -1.329454986735e-06 0.0 
1.151748095851e-04 -6.859192938002e-06 0.0 
1.571925062151e-04 -1.883684580404e-05 0.0 
1.193709776163e-04 -1.355389449162e-05 0.0 
9.010694088635e-04 8.374508874308e-03 0.0 
7.681246688569e-05 -2.926908153855e-06 0.0 
8.635784770288e-05 -8.972571460876e-06 0.0 
4.947804174926e-05 -1.760669257147e-06 0.0 
1.694943927965e-03 3.595364321673e-03 0.0 
6.181983293811e-04 4.937409566790e-04 0.0 
5.013797604866e-04 7.086811265089e-04 0.0 
2.644693251030e-04 7.452487575654e-04 0.0 
1.058277203403e-03 5.025221626939e-04 0.0 
1.385891339290e-03 7.629028664435e-04 0.0 
3.888418865467e-05 -3.120966944406e-05 0.0 
4.528774090008e-05 -4.718773679550e-05 0.0 
4.707256237885e-04 8.192604192987e-03 0.0 
3.456572777441e-04 8.232654563039e-03 0.0 
3.846834555984e-04 7.302507407480e-03 0.0 
2.773981341549e-04 7.411921232722e-03 0.0 
3.054551756528e-04 6.500060729995e-03 0.0 
1.961409046772e-04 6.613922378525e-03 0.0 
2.374017957446e-04 5.703431760563e-03 0.0 
7.383581695697e-04 2.056768957923e-04 0.0 
1.601900267265e-04 4.029681027346e-04 0.0 
2.219076465123e-03 5.283297178066e-03 0.0 
4.618987990777e-04 6.224840831524e-05 0.0 
5.319909662498e-04 5.272180527589e-05 0.0 
1.444328870138e-03 2.100006056063e-03 0.0 
1.016284418312e-03 2.123973046574e-03 0.0 
1.598839787777e-04 2.364157642508e-06 0.0 
8.270941710725e-04 7.592897886011e-05 0.0 
3.787350544683e-04 8.446663488592e-04 0.0 
1.453781282636e-05 -4.277572697991e-05 0.0 
8.351232473997e-05 -8.362102898676e-05 0.0 
9.669676435354e-04 1.734865666539e-04 0.0 
1.814058232393e-03 2.067098754054e-03 0.0 
7.759197238816e-04 6.792184891949e-04 0.0 
6.793346852114e-04 9.535137895404e-04 0.0 
5.237794957676e-04 -5.176715850144e-05 0.0 
1.789552669562e-04 -3.136155982652e-04 0.0 
2.116409904236e-04 1.681612871502e-04 0.0 
3.475713646453e-04 5.604454376975e-03 0.0 
1.043323299775e-04 1.888900263223e-04 0.0 
2.048581336016e-05 -3.788390014142e-05 0.0 
8.587302934717e-04 -6.244158769109e-06 0.0 
1.792563777523e-03 1.163661235211e-03 0.0 
3.430829454423e-04 1.380141129444e-04 0.0 
7.330034749819e-04 3.268970773591e-04 0.0 
2.697378323021e-03 3.727170013208e-03 0.0 
2.531104895856e-03 5.571810284032e-03 0.0 
2.554791249143e-03 5.289613386572e-03 0.0 
8.682285268095e-04 -6.715864416307e-05 0.0 
8.887665795659e-04 1.243658264831e-03 0.0 
5.276443232291e-04 1.292783093385e-03 0.0 
2.466511060022e-03 2.254175034778e-03 0.0 
1.755138991093e-03 2.919662035728e-03 0.0 
1.720903473268e-03 2.387070106026e-03 0.0 
1.359328879720e-03 1.676740490763e-03 0.0 
1.635217515891e-03 1.902129960266e-03 0.0 
1.977964343376e-03 2.588661836376e-03 0.0 
1.893187285939e-03 2.071797785714e-03 0.0 
1.501215250227e-03 1.475747218621e-03 0.0 
1.757114789829e-03 1.614656633103e-03 0.0 
1.218783293873e-03 9.957570980480e-04 0.0 
1.563870618597e-03 1.213132817736e-03 0.0 
1.975502455304e-03 1.698913806593e-03 0.0 
1.799271317005e-03 1.310313160174e-03 0.0 
1.400415678901e-03 9.364026913011e-04 0.0 
2.156617008817e-03 1.743161392903e-03 0.0 
3.871457850217e-04 6.610647152871e-05 0.0 
1.145743040177e-03 1.746069010574e-04 0.0 
1.468590269272e-04 -1.447511727766e-04 0.0 
9.684391913448e-05 -3.146432121408e-05 0.0 
2.043659873954e-03 1.500136229782e-03 0.0 
6.297450343546e-04 5.040521590869e-04 0.0 
5.687469463120e-04 6.023604380762e-04 0.0 
6.123619234289e-04 -6.472407519887e-05 0.0 
5.251852778161e-04 2.253421888331e-04 0.0 
2.654073141829e-03 4.255265859587e-03 0.0 
3.522492731522e-04 -1.433815775392e-04 0.0 
4.534861777914e-04 1.560736003249e-04 0.0 
2.006921710974e-03 3.151995794861e-03 0.0 
2.232922625128e-03 3.324170965438e-03 0.0 
2.202620650939e-03 3.965857392785e-03 0.0 
4.589983636065e-04 6.334905021188e-04 0.0 
1.490830856086e-03 6.199079814063e-03 0.0 
2.827486919064e-04 6.432266075076e-05 0.0 
1.031736391038e-03 -9.347776667005e-06 0.0 
1.130289371364e-03 1.646735465987e-05 0.0 
1.110475857431e-03 -1.125892938574e-05 0.0 
2.118451829913e-03 2.185851527332e-03 0.0 
1.856406354287e-04 2.667121504033e-05 0.0 
3.232007591824e-04 3.530326679229e-05 0.0 
2.847728066644e-04 2.586215226266e-05 0.0 
4.359373546804e-04 2.953980917223e-05 0.0 
1.423513237265e-04 1.682950505478e-05 0.0 
5.722314335744e-04 3.515572656652e-04 0.0 
5.316515211567e-04 2.879826377361e-04 0.0 
3.930223546507e-04 -2.820339032042e-04 0.0 
4.489529184279e-04 -2.692291153190e-04 0.0 
4.994808014593e-04 -2.531232319893e-04 0.0 
5.112023269114e-04 -2.528801695569e-04 0.0 
4.499161169430e-04 -2.647999368451e-04 0.0 
5.135588669903e-04 -2.452770352928e-04 0.0 
5.798963396774e-04 -2.327491331485e-04 0.0 
5.052814454687e-04 -2.281616813070e-04 0.0 
1.770681082589e-03 1.039868964476e-03 0.0 
1.055083121753e-04 9.748947052125e-06 0.0 
4.318614447132e-04 -1.074982220384e-04 0.0 
4.891327357014e-04 -1.219800395407e-04 0.0 
4.980797326529e-04 -1.534371042248e-04 0.0 
2.185833951267e-04 -1.747460265544e-04 0.0 
2.525571271763e-04 -1.669508304333e-04 0.0 
2.511656134170e-04 -1.415008947163e-04 0.0 
1.859178035963e-04 -1.818102628643e-04 0.0 
1.623229049306e-03 4.144347053538e-04 0.0 
9.196923298546e-05 6.917859846152e-06 0.0 
7.189625723037e-04 -9.776094469806e-05 0.0 
2.855545155880e-04 -1.840435418349e-04 0.0 
1.550908152862e-03 8.572079423441e-03 0.0 
1.781857381493e-03 7.554847954235e-03 0.0 
1.973449314669e-03 7.213882249880e-03 0.0 
1.979359228947e-03 6.407166926875e-03 0.0 
1.590765549505e-03 7.704991965521e-03 0.0 
1.530225584906e-04 -1.208856433991e-04 0.0 
1.211323708911e-04 -1.077760518806e-04 0.0 
9.555252942720e-05 -1.174232591333e-04 0.0 
9.041082415469e-05 -9.587837292225e-05 0.0 
6.601143455016e-05 -1.059281405875e-04 0.0 
6.995131139167e-05 -1.267723820672e-04 0.0 
6.050213747415e-05 -8.506018802037e-05 0.0 
3.800018035851e-05 -9.778506053557e-05 0.0 
1.260001900592e-03 8.919219605026e-03 0.0 
1.309738814086e-04 -2.859658891783e-04 0.0 
1.676307471150e-04 -2.998995939047e-04 0.0 
1.717841910492e-04 -3.126603828710e-04 0.0 
1.994505207373e-04 -3.083306759403e-04 0.0 
2.015599493786e-04 -2.939165985997e-04 0.0 
2.433740005936e-04 -3.026450630310e-04 0.0 
2.405765740805e-04 -2.858782210921e-04 0.0 
1.591919653993e-04 -2.781512406420e-04 0.0 
1.527770181473e-04 -3.150901088067e-04 0.0 
1.732885673828e-04 -3.189106463399e-04 0.0 
1.571350114454e-04 -3.203431378975e-04 0.0 
1.705577338146e-04 -3.204543901034e-04 0.0 
1.963175394731e-04 -3.181682866661e-04 0.0 
1.927019357725e-04 -2.958329182398e-04 0.0 
2.093303816994e-05 -9.142642015286e-07 0.0 
2.675276126532e-05 -1.543446007102e-04 0.0 
5.180866560525e-05 -1.658934961222e-04 0.0 
5.033650991235e-05 -1.843982136226e-04 0.0 
7.851222563376e-05 -1.773794574414e-04 0.0 
5.086029073665e-05 -1.474670354615e-04 0.0 
2.464907431043e-05 -1.922032493354e-04 0.0 
4.765178907270e-05 -2.000351129190e-04 0.0 
5.337016898691e-05 -2.812247124592e-04 0.0 
4.287111315253e-05 -2.716194490655e-04 0.0 
1.977681873510e-05 -2.701212984652e-04 0.0 
3.286744431168e-05 -2.617738435884e-04 0.0 
5.394108927220e-05 -2.651374557980e-04 0.0 
6.336812319347e-05 -2.752466740042e-04 0.0 
8.312837780346e-05 -2.803734907749e-04 0.0 
9.217353580538e-05 -2.903954754996e-04 0.0 
1.011413431400e-04 -2.862620165069e-04 0.0 
9.403253860208e-05 -2.749769224520e-04 0.0 
1.085446466301e-04 -2.960703285797e-04 0.0 
7.875107269049e-05 4.384362293886e-03 0.0 
1.517280208481e-04 3.888431911999e-03 0.0 
7.381309129545e-05 3.585517205168e-06 0.0 
1.002455107654e-03 8.978491518231e-03 0.0 
1.541598403453e-04 -3.188028495970e-04 0.0 
1.331370831171e-04 9.667094357084e-04 0.0 
2.128499614417e-04 7.873435264622e-04 0.0 
1.682543217932e-04 7.686545516996e-04 0.0 
1.243985680996e-05 -1.169201441782e-05 0.0 
2.003481710166e-05 -7.434033496617e-06 0.0 
7.159636754138e-05 9.436014726056e-04 0.0 
2.141146105438e-04 -2.543042673173e-04 0.0 
1.228707496297e-03 1.286132326962e-03 0.0 
3.661754993955e-04 2.597361144826e-03 0.0 
3.027278039007e-04 -8.011658199573e-05 0.0 
2.837305241401e-04 -2.791046145015e-04 0.0 
7.280649790517e-05 -5.597643586575e-05 0.0 
2.305567984074e-04 -9.112247171562e-05 0.0 
8.436593076191e-05 -2.243737375355e-05 0.0 
1.352571630382e-04 -7.664320094722e-05 0.0 
1.478374814971e-04 -3.704291798625e-05 0.0 
2.556678671658e-04 1.847994247847e-05 0.0 
6.511038752714e-05 -2.504958579071e-04 0.0 
9.161202649629e-04 6.236041574276e-03 0.0 
5.762701846129e-04 6.628702918006e-03 0.0 
5.882628011688e-04 4.134900149520e-03 0.0 
1.432733887677e-04 -2.271417753986e-04 0.0 
9.958121990210e-05 -1.381447521724e-04 0.0 
1.434968695140e-04 -2.708471558857e-04 0.0 
8.482029212085e-04 3.091530278287e-04 0.0 
2.342875920176e-03 2.450727107076e-03 0.0 
4.502852983122e-04 -1.686582963497e-04 0.0 
2.138415675969e-04 -1.979082988490e-04 0.0 
2.494875659020e-04 -2.513295361803e-04 0.0 
2.944497724808e-04 -2.903372596818e-04 0.0 
1.317543874949e-03 2.988316147006e-04 0.0 
3.240424111051e-04 -1.752252979382e-04 0.0 
2.910136200933e-04 -5.480891337694e-05 0.0 
4.533105185538e-04 3.591000096002e-03 0.0 
1.360961553962e-04 -3.075675370802e-04 0.0 
3.034692826323e-04 -4.132858834500e-05 0.0 
3.152746609687e-04 -1.203277049259e-04 0.0 
1.325435794230e-03 5.732700827535e-03 0.0 
7.909192028670e-04 2.901925507969e-05 0.0 
2.580427349424e-04 -3.084464445173e-04 0.0 
8.835965487326e-04 3.729780452801e-03 0.0 
9.433662554935e-04 1.886363958027e-03 0.0 
1.640523031062e-03 6.623559284097e-03 0.0 
1.342826086685e-04 -2.823742495699e-04 0.0 
9.189905237784e-04 7.275709877005e-03 0.0 
2.296496872873e-04 5.516906559356e-07 0.0 
1.737554079643e-03 3.477129813933e-03 0.0 
1.155424754246e-04 -2.305561765760e-04 0.0 
7.897255556625e-04 -1.330609629122e-04 0.0 
1.754084100772e-03 8.633960468863e-04 0.0 
2.028873212441e-03 7.240456437664e-03 0.0 
3.860060642739e-04 2.185853542582e-03 0.0 
1.306592962431e-03 1.132744414432e-04 0.0 
5.607853462327e-04 1.525420683436e-05 0.0 
7.755895319379e-04 -6.708251960917e-05 0.0 
9.422863997353e-05 -2.177971576115e-04 0.0 
2.001097870675e-04 -2.537787997397e-05 0.0 
1.002214880460e-03 -6.845922842755e-05 0.0 
7.354393453083e-04 2.750374322671e-03 0.0 
1.916655816965e-03 8.153850498993e-04 0.0 
7.420559839604e-04 -1.772014924168e-04 0.0 
1.200293840313e-03 3.231694995772e-03 0.0 
5.481939699255e-04 -1.674359596338e-04 0.0 
8.023494747463e-04 6.125188080855e-05 0.0 
2.092507018032e-03 1.984636212845e-03 0.0 
2.103508421791e-03 1.004511306585e-03 0.0 
2.457927920283e-03 2.018307303290e-03 0.0 
1.684492616800e-03 4.450560699439e-04 0.0 
4.993208603433e-05 -6.551603221550e-05 0.0 
2.490357647825e-04 -3.286000966462e-05 0.0 
2.964259097112e-04 -2.477302258693e-04 0.0 
9.450778297468e-04 3.074271264975e-04 0.0 
1.646024689818e-03 5.603499217392e-03 0.0 
1.268047371239e-03 3.827101090997e-04 0.0 
5.336009702844e-04 1.785661079402e-03 0.0 
1.550834247650e-03 8.820024285913e-04 0.0 
1.956295596023e-04 -3.563919194563e-05 0.0 
9.718108449977e-04 2.322124395423e-03 0.0 
2.876403043320e-04 -1.581280275918e-04 0.0 
2.100738964779e-05 -2.379782251239e-04 0.0 
2.073033100609e-04 -5.497244729284e-05 0.0 
5.782311117149e-04 -1.993353874958e-04 0.0 
1.179181181777e-03 3.244524461194e-05 0.0 
2.833341423150e-04 -1.315954034363e-04 0.0 
1.012465432625e-03 1.286884904509e-03 0.0 
1.550580097300e-04 -2.783581684961e-05 0.0 
4.465023161136e-04 -4.291246374424e-05 0.0 
1.837544514247e-05 1.219778851991e-04 0.0 
2.340234120790e-03 5.918471795103e-03 0.0 
1.192848842812e-04 -2.114854308830e-05 0.0 
7.269527439619e-04 -1.310663970172e-04 0.0 
6.714891385729e-04 4.577932921848e-05 0.0 
4.187566740589e-05 -1.166041134028e-04 0.0 
7.843113229132e-04 2.518399243152e-04 0.0 
1.357863784856e-03 2.768849480415e-03 0.0 
8.825377185478e-05 -1.546769753084e-05 0.0 
5.448845027848e-04 -2.994576135963e-05 0.0 
7.121497575358e-04 -2.073054875010e-06 0.0 
2.940759420257e-04 9.122043206690e-03 0.0 
5.452793782030e-05 -4.364010521765e-06 0.0 
4.612173237801e-04 -4.801966282428e-06 0.0 
1.686162077698e-03 4.347902806412e-04 0.0 
6.602523083501e-04 -1.572050925750e-04 0.0 
1.767609200731e-03 6.027763337807e-03 0.0 
2.439008564010e-04 -1.160731728706e-04 0.0 
2.216490944793e-03 1.208896536732e-03 0.0 
4.013800976971e-04 6.474854701698e-04 0.0 
4.608315493983e-04 1.258710913041e-05 0.0 
2.396793050521e-03 4.104885396659e-03 0.0 
2.150973518579e-04 -1.260705312692e-04 0.0 
1.183038208459e-03 1.013476950426e-04 0.0 
7.423341677590e-05 -2.696108513926e-04 0.0 
2.006259660107e-03 4.468618095527e-03 0.0 
1.797898793036e-04 -1.116077134812e-04 0.0 
5.844786276609e-04 -2.212927447275e-04 0.0 
6.038535275159e-04 -1.478995876752e-04 0.0 
5.509800105284e-04 9.602654486311e-05 0.0 
1.459012642211e-04 -9.830974776395e-05 0.0 
6.565950544898e-04 -2.078647135053e-04 0.0 
1.135973561677e-04 -8.622817388376e-05 0.0 
1.252931781406e-03 3.813661101956e-03 0.0 
2.421293425666e-03 3.401318973672e-03 0.0 
8.198530189229e-05 -7.527290307786e-05 0.0 
2.108293017226e-03 1.072692592521e-03 0.0 
1.135086631662e-04 -2.813933950051e-04 0.0 
1.539745090500e-03 3.140374690761e-04 0.0 
2.957627981841e-05 -1.740464756139e-05 0.0 
3.305480641651e-04 -2.415509746732e-04 0.0 
5.467891535251e-04 -1.360205780216e-04 0.0 
2.203597091067e-03 2.724652484416e-03 0.0 
6.016654265354e-04 2.359570944064e-03 0.0 
5.301343268712e-04 -1.036969241496e-04 0.0 
1.919371117018e-03 9.205407866698e-04 0.0 
1.392874567697e-03 2.262308311356e-04 0.0 
1.221646502144e-03 5.561916344541e-05 0.0 
4.968212161077e-04 -7.202777265789e-05 0.0 
7.609507580002e-04 1.653132726954e-03 0.0 
2.298753571173e-04 -2.690262673269e-04 0.0 
2.116962457562e-04 -2.836916159391e-04 0.0 
6.373112283490e-04 -2.146098213762e-04 0.0 
1.871800106782e-03 9.989201482478e-04 0.0 
4.718806354653e-05 -2.548748439273e-04 0.0 
2.292402111646e-03 2.212416123602e-03 0.0 
1.994808551916e-04 -3.058148241567e-04 0.0 
5.651799185702e-04 -2.359335753911e-04 0.0 
1.113715744190e-03 1.679681542533e-04 0.0 
8.958074086372e-05 6.357957906483e-03 0.0 
5.423499214630e-04 -2.325718597502e-04 0.0 
2.129334472348e-05 -2.240712539325e-04 0.0 
4.806423667022e-04 -2.475259789901e-04 0.0 
1.223837597638e-03 7.956232115683e-05 0.0 
4.561296553098e-04 -2.373547961755e-04 0.0 
4.028341805224e-04 -2.478164055763e-04 0.0 
2.599539697297e-04 1.662093994953e-03 0.0 
3.772925329510e-04 -2.337840788093e-04 0.0 
3.572604149807e-05 7.807396185424e-04 0.0 
8.504520730941e-06 -7.627878494928e-07 0.0 
1.119780471884e-04 8.352074623662e-03 0.0 
2.162267537034e-04 1.533790672394e-03 0.0 
6.563601108296e-05 -1.708379738182e-04 0.0 
4.224221242454e-04 9.552019574841e-04 0.0 
3.091077354879e-04 -2.618749408181e-04 0.0 
2.260807247903e-03 1.687284268477e-03 0.0 
2.325951346998e-04 8.307697147454e-03 0.0 
2.678572604442e-04 -2.660519917042e-04 0.0 
1.084076219408e-03 7.505907910690e-04 0.0 
3.486673074890e-04 9.647575216774e-05 0.0 
1.673840826142e-04 4.826822896719e-03 0.0 
5.584684014522e-04 3.566892504267e-05 0.0 
1.242431787940e-03 1.631191389331e-04 0.0 
5.065061223374e-05 2.473360482764e-03 0.0 
6.602041171579e-04 9.202091417209e-03 0.0 
1.653280728602e-04 -3.184680502185e-04 0.0 
2.371663105852e-05 -5.515436925997e-05 0.0 
8.100477679444e-05 9.473883655280e-04 0.0 
1.995261643558e-04 5.473550401053e-04 0.0 
1.249614676888e-04 2.847162025271e-04 0.0 
7.116496617065e-05 -2.075900293851e-04 0.0 
1.966081097583e-04 -3.159836127562e-04 0.0 
5.512778393933e-05 5.584129503806e-04 0.0 
3.712935539840e-04 4.637504700213e-05 0.0 
1.123456882136e-03 8.213383394097e-03 0.0 
1.133862061633e-03 2.149688212423e-04 0.0 
3.080516448833e-05 2.986852531783e-04 0.0 
6.886807485574e-04 1.476729547814e-03 0.0 
6.067490326244e-04 1.356512452321e-04 0.0 
4.814656686543e-05 1.422400248359e-06 0.0 
9.014820479656e-04 1.843521345427e-04 0.0 
8.405055752466e-05 1.085489157617e-04 0.0 
1.773083453372e-03 6.865651594728e-03 0.0 
9.048102888313e-04 3.720149785406e-04 0.0 
2.317405634922e-04 4.030016509910e-03 0.0 
3.352175522262e-05 5.120784333865e-07 0.0 
1.404190385830e-03 8.129164006499e-03 0.0 
1.550897336321e-04 1.554217115141e-03 0.0 
2.598989368638e-04 -2.677180229324e-04 0.0 
7.818216042398e-05 1.510989480125e-03 0.0 
1.973214484634e-03 1.348210292820e-03 0.0 
4.872869049707e-04 7.091702396884e-03 0.0 
2.148753347796e-03 6.310409616971e-03 0.0 
2.400549067113e-05 -3.951825739937e-06 0.0 
1.068767858281e-03 9.765202233881e-04 0.0 
7.128852838862e-05 3.442294838444e-05 0.0 
2.626824045920e-04 4.930435392368e-03 0.0 
1.059691543781e-04 -1.809492162582e-04 0.0 
1.378495910737e-04 -2.468667100269e-04 0.0 
1.283178474304e-04 9.463110538421e-07 0.0 
1.610065495644e-03 1.014021742577e-03 0.0 
4.085995607438e-05 -3.975304848468e-06 0.0 
1.466049991963e-05 -2.611671604570e-04 0.0 
1.467024441580e-04 -3.083414360349e-04 0.0 
1.544015687620e-04 5.803999587562e-06 0.0 
9.598681262357e-04 5.137075241525e-04 0.0 
2.874508279326e-04 -2.908970854273e-04 0.0 
2.328419250624e-04 5.979558711151e-04 0.0 
4.422562175374e-05 -1.272901727974e-05 0.0 
8.773203205721e-04 9.288846886648e-03 0.0 
1.159026408393e-04 -2.928006059068e-04 0.0 
2.596997295185e-05 1.006583333134e-07 0.0 
3.940929094103e-04 1.455337667809e-03 0.0 
7.229924670440e-05 -1.585097026655e-04 0.0 
1.903735722241e-03 7.822066379812e-03 0.0 
4.510779587246e-05 -2.155102556039e-04 0.0 
1.001327422122e-03 2.992048923464e-04 0.0 
1.831111543424e-04 -3.173192344604e-04 0.0 
2.626143088147e-04 1.391421310192e-03 0.0 
1.962960145438e-04 1.339660285246e-05 0.0 
8.187362956195e-04 1.145530804677e-03 0.0 
1.744364159984e-04 3.298359735895e-05 0.0 
9.160847556566e-05 -1.403379257921e-04 0.0 
5.763946368431e-04 1.456354137638e-04 0.0 
3.617754679096e-04 2.101086851180e-05 0.0 
5.030022349593e-04 9.245040373595e-03 0.0 
9.848905117303e-04 1.088611982143e-03 0.0 
7.076392033099e-05 -1.928156276839e-04 0.0 
1.029271136305e-04 -2.689897416617e-04 0.0 
1.505700244720e-05 6.918814632006e-04 0.0 
1.583244486260e-05 -2.783902219340e-04 0.0 
8.657595274151e-05 9.235754660114e-03 0.0 
3.291207475976e-06 -7.674690373633e-07 0.0 
6.504886985281e-05 -2.603100941701e-04 0.0 
1.870293252673e-04 7.610752841384e-03 0.0 
9.570470640962e-04 5.790585893182e-04 0.0 
1.837616815042e-05 -1.123578375850e-04 0.0 
1.158084172567e-04 3.111104634278e-03 0.0 
2.241000154670e-04 -3.114655478843e-04 0.0 
8.380491877485e-05 -2.210459308900e-04 0.0 
1.560575330896e-04 5.853933010244e-03 0.0 
4.972565237979e-04 1.007922359894e-04 0.0 
6.459432902101e-04 1.195330936839e-03 0.0 
3.968374416716e-04 6.538915501449e-03 0.0 
1.397528272513e-04 -2.426018400193e-05 0.0 
1.277361828622e-03 7.618034902811e-04 0.0 
7.563300400783e-05 -1.430532774389e-04 0.0 
1.148600091272e-03 4.487776986301e-04 0.0 
4.524302224843e-04 4.067869548278e-05 0.0 
-6.550550714285e-07 1.376471028302e-05 0.0 
1.576873098899e-05 -9.225865221566e-05 0.0 
1.281705578951e-04 -2.991159048214e-04 0.0 
7.960480103576e-05 -1.250295355217e-06 0.0 
4.972404284568e-05 -1.317348404503e-04 0.0 
9.252527465945e-04 8.662372852304e-03 0.0 
7.167109684996e-05 1.151692826115e-02 0.0 
1.477597948664e-03 8.922769162535e-03 0.0 
5.922735128331e-05 1.049304324151e-02 0.0 

VECTORS node_materi_displacement float
0.0 7.746046372685e-02 0.0 
0.0 1.418834037142e-01 0.0 
0.0 0.0 0.0 
0.0 0.0 0.0 
0.0 7.737826372044e-02 0.0 
0.0 7.692239399327e-02 0.0 
0.0 7.609700932703e-02 0.0 
0.0 7.490132729563e-02 0.0 
0.0 7.332490572809e-02 0.0 
0.0 7.137496237670e-02 0.0 
0.0 6.905034713711e-02 0.0 
0.0 6.634411500091e-02 0.0 
0.0 6.325078886790e-02 0.0 
0.0 5.975919552040e-02 0.0 
0.0 5.585105712835e-02 0.0 
0.0 5.151349396031e-02 0.0 
0.0 4.674071070125e-02 0.0 
0.0 4.154402221198e-02 0.0 
0.0 3.586889621049e-02 0.0 
0.0 2.971163224814e-02 0.0 
0.0 2.306260595296e-02 0.0 
0.0 1.589760230252e-02 0.0 
0.0 8.199920764501e-03 0.0 
0.0 0.0 0.0 
0.0 0.0 0.0 
0.0 0.0 0.0 
0.0 0.0 0.0 
0.0 0.0 0.0 
0.0 0.0 0.0 
0.0 0.0 0.0 
0.0 0.0 0.0 
0.0 0.0 0.0 
0.0 0.0 0.0 
0.0 0.0 0.0 
0.0 0.0 0.0 
0.0 0.0 0.0 
0.0 0.0 0.0 
0.0 0.0 0.0 
0.0 0.0 0.0 
0.0 0.0 0.0 
0.0 0.0 0.0 
0.0 0.0 0.0 
0.0 0.0 0.0 
0.0 0.0 0.0 
0.0 0.0 0.0 
0.0 0.0 0.0 
0.0 0.0 0.0 
0.0 0.0 0.0 
0.0 0.0 0.0 
0.0 0.0 0.0 
0.0 0.0 0.0 
0.0 0.0 0.0 
0.0 0.0 0.0 
0.0 0.0 0.0 
0.0 0.0 0.0 
0.0 0.0 0.0 
0.0 0.0 0.0 
0.0 0.0 0.0 
0.0 0.0 0.0 
0.0 0.0 0.0 
0.0 0.0 0.0 
0.0 0.0 0.0 
0.0 0.0 0.0 
0.0 0.0 0.0 
0.0 0.0 0.0 
0.0 0.0 0.0 
0.0 0.0 0.0 
0.0 0.0 0.0 
0.0 0.0 0.0 
0.0 0.0 0.0 
0.0 0.0 0.0 
0.0 0.0 0.0 
0.0 1.294374613309e-01 0.0 
0.0 1.165739751877e-01 0.0 
0.0 1.032970851577e-01 0.0 
0.0 8.962731907425e-02 0.0 
0.0 7.556836909756e-02 0.0 
0.0 6.114051985306e-02 0.0 
0.0 4.635595761903e-02 0.0 
0.0 3.122868517066e-02 0.0 
0.0 1.577544888845e-02 0.0 
-1.047019142708e-02 1.021187661254e-01 0.0 
1.384184420469e-02 1.371184905454e-01 0.0 
-7.555648712870e-03 1.105152883235e-01 0.0 
-4.608851555715e-03 1.197356039238e-01 0.0 
-1.293825083306e-03 1.288245319378e-01 0.0 
2.249550882550e-03 1.370489342760e-01 0.0 
5.829586295867e-03 1.438769007090e-01 0.0 
9.230393846055e-03 1.488406107267e-01 0.0 
1.208940380123e-02 1.513583964190e-01 0.0 
1.354279504063e-02 1.507412711980e-01 0.0 
1.420397569772e-02 1.454626764836e-01 0.0 
0.0 1.655051495614e-01 0.0 
0.0 1.539096487379e-01 0.0 
8.227384563107e-04 1.418952690892e-01 0.0 
1.639482589700e-03 1.419266750156e-01 0.0 
2.463424392630e-03 1.419623996191e-01 0.0 
3.291564314190e-03 1.419963729034e-01 0.0 
4.123076395533e-03 1.420375013823e-01 0.0 
4.962850952718e-03 1.420537781585e-01 0.0 
5.818116322748e-03 1.420520531457e-01 0.0 
6.677659121897e-03 1.419957245203e-01 0.0 
7.569361770191e-03 1.418843429603e-01 0.0 
8.487883948038e-03 1.416613493006e-01 0.0 
9.435586603937e-03 1.412947133320e-01 0.0 
1.042884730924e-02 1.407379262759e-01 0.0 
1.147898996995e-02 1.399168555575e-01 0.0 
1.260475613037e-02 1.387413528474e-01 0.0 
-9.517740779123e-03 9.748369095507e-02 0.0 
-8.302328908642e-03 9.361898286029e-02 0.0 
-7.046683933470e-03 9.041861718751e-02 0.0 
-5.850451361517e-03 8.779967387156e-02 0.0 
-4.781386379006e-03 8.567147677238e-02 0.0 
-3.824462951979e-03 8.392628250067e-02 0.0 
-2.982964337662e-03 8.250243603245e-02 0.0 
-2.265039690532e-03 8.134841791125e-02 0.0 
-1.660279888344e-03 8.042244819803e-02 0.0 
-1.161546514570e-03 7.969349336242e-02 0.0 
-7.716211350955e-04 7.910547874057e-02 0.0 
-4.532417003565e-04 7.866689422184e-02 0.0 
-2.042316264828e-04 7.830689612634e-02 0.0 
-4.797924118056e-05 7.802698994577e-02 0.0 
4.063223949362e-05 7.782605733606e-02 0.0 
9.096738648534e-05 7.768135755275e-02 0.0 
1.083925114841e-04 7.757653863430e-02 0.0 
9.882112211306e-05 7.750800298630e-02 0.0 
4.796459337574e-05 7.746263714665e-02 0.0 
8.857613762397e-04 1.655463157391e-01 0.0 
1.698502716107e-03 1.655537510378e-01 0.0 
2.512836248441e-03 1.655862018663e-01 0.0 
3.324772125851e-03 1.656242522222e-01 0.0 
4.127662595122e-03 1.656581244251e-01 0.0 
4.916466882502e-03 1.656783659713e-01 0.0 
5.685264430588e-03 1.656717134518e-01 0.0 
6.429231016124e-03 1.656167069187e-01 0.0 
7.145183491102e-03 1.654923489721e-01 0.0 
7.826312998937e-03 1.652689084362e-01 0.0 
8.467849825067e-03 1.649033984927e-01 0.0 
9.070354251623e-03 1.643447380029e-01 0.0 
9.637723456263e-03 1.635291727443e-01 0.0 
1.018146246553e-02 1.623744993753e-01 0.0 
1.072572650547e-02 1.607658683190e-01 0.0 
1.132559268955e-02 1.585542406944e-01 0.0 
1.197621243662e-02 1.554663318256e-01 0.0 
1.304455274888e-02 1.481000315922e-01 0.0 
1.207568819867e-02 1.499977087499e-01 0.0 
1.115801021664e-02 1.513487330979e-01 0.0 
1.031070676514e-02 1.523301287887e-01 0.0 
9.500920944798e-03 1.530170506639e-01 0.0 
8.709389212985e-03 1.534822006835e-01 0.0 
7.926755947109e-03 1.537838466935e-01 0.0 
7.146768869879e-03 1.539623765020e-01 0.0 
6.363336780109e-03 1.540526421863e-01 0.0 
5.579586039036e-03 1.540909306658e-01 0.0 
4.791273617959e-03 1.540859740965e-01 0.0 
4.001759799175e-03 1.540617211859e-01 0.0 
3.207731543993e-03 1.540244565506e-01 0.0 
2.412955185113e-03 1.539883113194e-01 0.0 
1.615440005627e-03 1.539520555964e-01 0.0 
8.065467780986e-04 1.538952437597e-01 0.0 
-8.945286192436e-03 1.061319873477e-01 0.0 
-6.111082980907e-03 1.150871665365e-01 0.0 
-2.964637014571e-03 1.243532263078e-01 0.0 
4.890131720006e-04 1.330840846882e-01 0.0 
4.090159897398e-03 1.407103696999e-01 0.0 
7.611334175570e-03 1.466754653274e-01 0.0 
1.078575436419e-02 1.504390250347e-01 0.0 
1.312242356491e-02 1.515034084087e-01 0.0 
1.404115797296e-02 1.485432021827e-01 0.0 
1.416616092826e-02 1.415653239859e-01 0.0 
-1.921509978454e-03 1.133019069436e-01 0.0 
2.934793197815e-03 8.092431540483e-03 0.0 
-6.839109121025e-04 7.978404880048e-02 0.0 
-3.457351025065e-03 8.634124752303e-02 0.0 
1.843457491089e-03 7.523534626535e-03 0.0 
5.298169492786e-03 1.289878251644e-01 0.0 
5.923732018789e-04 5.778929137315e-02 0.0 
3.824181684229e-03 8.882234220573e-03 0.0 
1.200748101661e-02 1.393672402503e-01 0.0 
4.315206842592e-03 9.659978078659e-03 0.0 
1.601096131691e-02 1.416410632590e-01 0.0 
1.015783356813e-03 6.718555950268e-03 0.0 
1.708135313029e-04 7.799356075590e-02 0.0 
4.427178962295e-03 1.103341198620e-02 0.0 
1.541815600169e-02 1.303606696869e-01 0.0 
4.082938650533e-04 7.018693304513e-02 0.0 
6.211434377147e-04 4.526947877898e-02 0.0 
4.173205051844e-03 1.243462511407e-02 0.0 
2.963962305781e-03 1.275206362503e-02 0.0 
8.228379273521e-04 1.348020785665e-02 0.0 
1.544217312270e-03 1.453605039656e-02 0.0 
2.094575993733e-03 1.283070234630e-02 0.0 
1.260068782267e-02 1.283365406812e-01 0.0 
8.203957712921e-03 1.305261940812e-01 0.0 
5.412444226045e-03 1.305120416331e-01 0.0 
5.358483894073e-04 8.243374879077e-02 0.0 
6.056084640582e-04 7.197870083080e-03 0.0 
-5.913794995701e-03 9.523752315349e-02 0.0 
2.257004294488e-04 7.752633832246e-02 0.0 
4.306553969469e-04 2.696666079178e-02 0.0 
2.798314406099e-03 1.312754711715e-01 0.0 
2.341078655620e-04 7.556844125214e-02 0.0 
4.034093046295e-03 1.429472275763e-02 0.0 
3.809904106144e-03 8.523607113132e-03 0.0 
4.394172774965e-03 1.018964709916e-02 0.0 
3.619738401515e-03 8.968975892762e-03 0.0 
2.355509461154e-03 7.436307316273e-03 0.0 
-2.047680250252e-03 8.281015271410e-02 0.0 
1.025908285289e-02 1.305299957279e-01 0.0 
1.652059819367e-03 8.435159407324e-03 0.0 
4.045482103954e-04 5.442675022825e-02 0.0 
-1.379278615427e-04 7.866459744906e-02 0.0 
5.311405109280e-04 6.485104894488e-02 0.0 
4.058647582873e-04 1.097610226037e-02 0.0 
8.914527671280e-03 1.343617885888e-01 0.0 
1.606289526972e-03 1.215179945953e-01 0.0 
1.458421753127e-02 1.418374084891e-01 0.0 
1.621138448107e-02 1.377757695970e-01 0.0 
-5.494209055999e-03 1.053802450040e-01 0.0 
6.437889933157e-04 1.084040419231e-01 0.0 
2.775939887101e-04 5.676272935974e-03 0.0 
1.024736294594e-04 7.742422682278e-02 0.0 
2.217764589364e-04 2.470315144714e-02 0.0 
1.495779402351e-02 1.253317672133e-01 0.0 
1.620584271731e-02 1.187026435642e-01 0.0 
1.502124738348e-02 1.147436898055e-01 0.0 
1.638417066122e-02 1.069461212195e-01 0.0 
1.519873762170e-02 1.015247449097e-01 0.0 
1.615707201753e-02 9.456981498232e-02 0.0 
1.746876087982e-02 9.964369962547e-02 0.0 
1.693260811063e-02 8.749434640722e-02 0.0 
1.831563293650e-02 9.237217344392e-02 0.0 
1.474268432680e-02 8.881431456699e-02 0.0 
1.746281725132e-02 8.038428390565e-02 0.0 
1.888976019918e-02 8.509577641931e-02 0.0 
1.772423947963e-02 7.334045990493e-02 0.0 
1.916815749540e-02 7.790560815013e-02 0.0 
2.012371057970e-02 8.919590736642e-02 0.0 
2.040365464765e-02 8.192483404584e-02 0.0 
2.111451892168e-02 9.263102133417e-02 0.0 
2.138227785814e-02 8.529892630802e-02 0.0 
2.038595859263e-02 7.489472417818e-02 0.0 
2.135140374116e-02 7.827079802598e-02 0.0 
2.207456797470e-02 8.805725490420e-02 0.0 
2.202462736624e-02 8.106602389103e-02 0.0 
2.245751475966e-02 9.020877580442e-02 0.0 
2.239068083068e-02 8.327559412966e-02 0.0 
2.252675053384e-02 9.180142946684e-02 0.0 
2.245101496099e-02 8.497839435159e-02 0.0 
2.205590489821e-02 7.672183358582e-02 0.0 
2.211505842224e-02 7.857367748388e-02 0.0 
2.221164740944e-02 8.620857870446e-02 0.0 
2.188247393807e-02 7.998483577820e-02 0.0 
2.168712522698e-02 8.701637021548e-02 0.0 
2.137372310568e-02 8.099868716167e-02 0.0 
2.132650880514e-02 7.415656083852e-02 0.0 
2.084175648565e-02 7.540187151285e-02 0.0 
2.060794158579e-02 8.167847333691e-02 0.0 
2.011176566394e-02 7.633816972378e-02 0.0 
1.961097033697e-02 8.207287931003e-02 0.0 
1.916330298705e-02 7.700683480171e-02 0.0 
1.841462916705e-02 8.221897126988e-02 0.0 
1.801882276183e-02 7.745248178895e-02 0.0 
1.854322546266e-02 7.227885887100e-02 0.0 
1.745885579843e-02 7.300532759872e-02 0.0 
1.670949941266e-02 7.772961575284e-02 0.0 
1.622118891097e-02 7.358698645171e-02 0.0 
1.675470569988e-02 6.888795324217e-02 0.0 
1.559403992509e-02 6.976884743841e-02 0.0 
1.592950669463e-02 6.506015059257e-02 0.0 
1.485199997044e-02 6.622390022883e-02 0.0 
1.433374001076e-02 7.051532770660e-02 0.0 
1.367792094085e-02 6.724812673303e-02 0.0 
1.401897616430e-02 6.290293944794e-02 0.0 
1.292948945075e-02 6.421591305365e-02 0.0 
1.242804561130e-02 6.820399997678e-02 0.0 
1.177965105632e-02 6.541032570806e-02 0.0 
1.211779399051e-02 6.133938367277e-02 0.0 
1.105660784909e-02 6.278857923411e-02 0.0 
1.059283413452e-02 6.654235745245e-02 0.0 
9.964425728310e-03 6.414580400860e-02 0.0 
1.028840848479e-02 6.024581298127e-02 0.0 
9.278556699635e-03 6.185494719846e-02 0.0 
8.859005504979e-03 6.545028747014e-02 0.0 
8.262957706821e-03 6.335989807027e-02 0.0 
8.555740873156e-03 5.960082182850e-02 0.0 
7.617629188409e-03 6.133082383803e-02 0.0 
7.798463364815e-03 5.739414751979e-02 0.0 
7.240764831543e-03 6.483571181091e-02 0.0 
6.680598837910e-03 6.298274486646e-02 0.0 
6.242322650807e-03 6.627110544623e-02 0.0 
5.763382430636e-03 6.456643827770e-02 0.0 
2.056989970812e-02 6.869891056626e-02 0.0 
5.300640010573e-03 6.762286773461e-02 0.0 
5.665078612876e-03 6.912901292204e-02 0.0 
4.885541108591e-03 6.607771924207e-02 0.0 
5.233728903077e-03 6.285896927262e-02 0.0 
4.416111261948e-03 6.890782834088e-02 0.0 
4.057847530527e-03 6.751146418150e-02 0.0 
3.601510929550e-03 7.012465939662e-02 0.0 
1.856127483887e-02 8.758221805993e-02 0.0 
2.007826933053e-02 6.813432666998e-02 0.0 
3.291565330974e-03 6.886818680820e-02 0.0 
2.867361351774e-03 7.126910889904e-02 0.0 
3.064942359944e-03 7.237006007402e-02 0.0 
2.383281381722e-03 7.330409370624e-02 0.0 
1.387185885099e-02 9.575390419457e-02 0.0 
1.324250099175e-02 8.260036190067e-02 0.0 
1.249472033656e-02 8.951942949230e-02 0.0 
1.168362683479e-02 7.604378323501e-02 0.0 
1.106303709441e-02 8.283041708596e-02 0.0 
2.216904016113e-03 7.233603976148e-02 0.0 
1.610107928424e-02 6.788279108788e-02 0.0 
1.215033081004e-02 6.907507096680e-02 0.0 
2.223417663747e-02 9.753417011280e-02 0.0 
2.175422601862e-02 9.348009432308e-02 0.0 
1.686959525764e-02 6.374655287486e-02 0.0 
3.641559509488e-03 6.609342941189e-02 0.0 
2.918592448684e-03 6.758426473569e-02 0.0 
3.175859947959e-03 6.464273732617e-02 0.0 
8.632877143210e-03 5.539350187513e-02 0.0 
7.773908894048e-03 5.302496184203e-02 0.0 
8.479347885353e-03 5.073353499535e-02 0.0 
7.537361225144e-03 4.820696952251e-02 0.0 
8.089353350501e-03 4.561371423618e-02 0.0 
7.086196504812e-03 4.292527177059e-02 0.0 
6.608917895820e-03 4.568690329007e-02 0.0 
6.115261056881e-03 4.023017841556e-02 0.0 
5.704385273683e-03 4.315384411618e-02 0.0 
7.461907084357e-03 4.002239743104e-02 0.0 
8.541816779945e-03 4.287915598377e-02 0.0 
5.186472520755e-03 3.751681099662e-02 0.0 
4.833239870700e-03 4.058955677213e-02 0.0 
4.308652177157e-03 3.476546453949e-02 0.0 
4.004670692252e-03 3.798312989701e-02 0.0 
4.394252934269e-03 4.352913053475e-02 0.0 
3.611380931670e-03 4.106447906354e-02 0.0 
3.888886632087e-03 4.633830881651e-02 0.0 
1.586368107075e-02 5.990266909670e-02 0.0 
1.655995703046e-02 5.814342016020e-02 0.0 
1.539044750955e-02 5.428264739128e-02 0.0 
1.581559945012e-02 5.206912805770e-02 0.0 
1.450392147145e-02 4.818598123572e-02 0.0 
1.463378955379e-02 4.551773749151e-02 0.0 
1.319950551193e-02 4.160160254947e-02 0.0 
1.315137039574e-02 4.447974650036e-02 0.0 
1.771128889089e-02 6.633251234266e-02 0.0 
1.527393292857e-02 7.785822309200e-02 0.0 
1.552365222494e-02 8.203371608122e-02 0.0 
1.391979967417e-02 8.171993297932e-02 0.0 
1.390864322083e-02 8.591565426682e-02 0.0 
1.216911604124e-02 8.516726253054e-02 0.0 
1.187196524618e-02 8.940273627930e-02 0.0 
1.002640252619e-02 8.823598992978e-02 0.0 
1.041281639793e-02 8.438066317376e-02 0.0 
8.198605793624e-03 8.707150377337e-02 0.0 
8.673260836953e-03 8.360882103785e-02 0.0 
6.435640850075e-03 8.594558295982e-02 0.0 
6.986938302527e-03 8.289411423298e-02 0.0 
2.147704291726e-02 7.054723740865e-02 0.0 
1.602221948201e-02 4.961228052822e-02 0.0 
1.452133624643e-02 4.258188874602e-02 0.0 
1.597889418980e-02 4.687379166876e-02 0.0 
2.467462470689e-03 7.425350919154e-02 0.0 
3.225800743404e-03 3.532193877785e-02 0.0 
7.710856017672e-03 3.695970794272e-02 0.0 
8.871835576623e-03 4.003790327515e-02 0.0 
1.174616309761e-02 3.783517626043e-02 0.0 
1.797661108818e-03 7.416258765290e-02 0.0 
9.426526597448e-03 9.251926182883e-02 0.0 
1.132941205148e-02 9.410934104163e-02 0.0 
1.011137378115e-02 6.904044005824e-02 0.0 
9.623671877730e-03 7.578065520678e-02 0.0 
7.806425035795e-03 3.372936391285e-02 0.0 
1.652488786475e-03 7.331811679766e-02 0.0 
5.431999934328e-03 3.429994171370e-02 0.0 
5.656239534638e-03 8.939890868066e-02 0.0 
2.868776562750e-03 3.854449323325e-02 0.0 
2.503220622962e-03 3.260230270294e-02 0.0 
6.054016724377e-03 4.830615422127e-02 0.0 
1.413977440420e-02 3.934442995866e-02 0.0 
1.569353510840e-02 4.393958753064e-02 0.0 
8.966654889493e-03 8.049554460118e-02 0.0 
7.358883139901e-03 8.016252858455e-02 0.0 
5.398896465817e-03 8.225136768360e-02 0.0 
5.903443057275e-03 7.976951538801e-02 0.0 
7.579746365816e-03 7.765458995643e-02 0.0 
6.163328727018e-03 7.767293060409e-02 0.0 
4.532443830655e-03 7.953755028996e-02 0.0 
4.866644264476e-03 7.772391727119e-02 0.0 
6.300188921017e-03 7.570611399113e-02 0.0 
5.078247492969e-03 7.602043271598e-02 0.0 
3.706414728205e-03 7.782077786693e-02 0.0 
3.984641406893e-03 7.634654756159e-02 0.0 
2.737195617469e-03 2.909199898798e-02 0.0 
3.915881378515e-03 8.792450557034e-02 0.0 
2.053527563051e-02 1.001936362745e-01 0.0 
6.624161048354e-03 3.054143425338e-02 0.0 
1.150409718927e-02 3.461909163539e-02 0.0 
8.555313412551e-03 6.170510432883e-02 0.0 
8.199776636619e-03 6.842563192523e-02 0.0 
9.024174471175e-03 8.247562614905e-02 0.0 
7.727400144582e-03 7.507255916780e-02 0.0 
6.817096245044e-03 6.079904967661e-02 0.0 
6.469886456650e-03 6.745774167863e-02 0.0 
7.171384952540e-03 8.163779432213e-02 0.0 
6.028617685337e-03 7.403006740402e-02 0.0 
6.557621394506e-03 8.808842504150e-02 0.0 
5.517883089071e-03 8.049959552794e-02 0.0 
4.939110092765e-03 6.623824085483e-02 0.0 
4.524868857459e-03 7.275998935293e-02 0.0 
4.957576389771e-03 8.687354096604e-02 0.0 
4.047618425359e-03 7.919034086762e-02 0.0 
4.361058423215e-03 9.313948102874e-02 0.0 
3.520704073396e-03 8.552381202089e-02 0.0 
3.195798421041e-03 7.137659456230e-02 0.0 
1.326881505038e-03 7.487964236724e-02 0.0 
1.178346099178e-02 4.092155365542e-02 0.0 
1.029593500906e-02 3.418452110333e-02 0.0 
2.508732120574e-03 6.625721889419e-02 0.0 
2.695515433099e-03 6.314465003411e-02 0.0 
3.357274755847e-03 6.130584576389e-02 0.0 
2.773321931885e-03 5.964530222188e-02 0.0 
2.724316713962e-03 7.785049163316e-02 0.0 
2.413711272977e-03 6.345558845938e-02 0.0 
8.588679145640e-03 9.728601136243e-02 0.0 
1.051396773706e-02 9.933664650060e-02 0.0 
8.757914134893e-03 5.492395786824e-02 0.0 
2.172438710155e-03 3.596129492103e-02 0.0 
2.438070833364e-03 4.162875595174e-02 0.0 
2.094700023528e-02 9.365601536696e-02 0.0 
2.072004540106e-02 1.003471484725e-01 0.0 
1.964728300016e-02 9.992047159540e-02 0.0 
1.904121046022e-02 1.069563275738e-01 0.0 
2.018008709400e-02 1.075440522692e-01 0.0 
1.770065572411e-02 1.059287270019e-01 0.0 
9.655496386609e-03 4.585307696429e-02 0.0 
3.922589734113e-03 5.829750847981e-02 0.0 
3.180744520487e-03 7.346151647170e-02 0.0 
2.456298486501e-03 7.519827299659e-02 0.0 
1.845086787145e-03 2.981252230514e-02 0.0 
1.289247708435e-02 4.714331896643e-02 0.0 
2.111336971207e-02 6.807409381079e-02 0.0 
2.029831991225e-02 6.208459983087e-02 0.0 
1.961955993511e-02 5.899575721837e-02 0.0 
1.857257308425e-02 5.318855960446e-02 0.0 
1.756503576324e-02 4.949008670592e-02 0.0 
1.628555144001e-02 4.385846566357e-02 0.0 
1.733186362347e-02 4.768297876865e-02 0.0 
1.345699914705e-02 3.573229146678e-02 0.0 
1.482587129089e-02 3.847466718394e-02 0.0 
3.003449649653e-03 9.188734482541e-02 0.0 
1.734554912977e-02 5.398399030571e-02 0.0 
6.311200784760e-03 7.387189095713e-02 0.0 
1.388061358046e-03 7.557203519359e-02 0.0 
2.668804517264e-03 7.797784529621e-02 0.0 
1.177644018354e-03 7.419944456936e-02 0.0 
1.435189245712e-03 7.243366692080e-02 0.0 
6.467794025101e-03 2.694447191779e-02 0.0 
1.493258483790e-02 3.955616197449e-02 0.0 
1.625798843976e-02 4.530861945803e-02 0.0 
1.810693221546e-02 1.145193572335e-01 0.0 
1.930413149989e-02 1.152304939171e-01 0.0 
1.180349044131e-02 3.131219910775e-02 0.0 
1.162017246768e-02 9.643031212839e-02 0.0 
7.623719842610e-03 9.550537081189e-02 0.0 
6.877043770259e-03 1.018013299041e-01 0.0 
9.147531303440e-04 7.570258667387e-02 0.0 
2.268204421616e-03 7.925959753053e-02 0.0 
5.504845663062e-03 5.296326181240e-02 0.0 
1.316932715727e-02 9.569863090795e-02 0.0 
1.239871937431e-02 1.013257100087e-01 0.0 
2.823116401982e-03 9.135908809612e-02 0.0 
1.145625538888e-03 8.955082925763e-02 0.0 
2.022681254667e-03 6.985025070005e-02 0.0 
1.734645916928e-03 5.540600984718e-02 0.0 
3.440755857485e-03 5.757184570800e-02 0.0 
2.802512413121e-03 5.573071050383e-02 0.0 
7.720801388271e-03 3.028688566539e-02 0.0 
3.032176672651e-03 7.666884372735e-02 0.0 
1.998742425631e-03 4.874207223122e-02 0.0 
1.160964894459e-02 4.377563028103e-02 0.0 
1.244974059220e-02 4.960832833662e-02 0.0 
2.123860699390e-03 6.162197109739e-02 0.0 
7.439629208896e-03 1.026050971987e-01 0.0 
5.490748260592e-03 1.000979936740e-01 0.0 
7.560139223780e-03 7.331347869164e-02 0.0 
4.129066389907e-03 7.495945520847e-02 0.0 
9.723613757369e-04 7.343016939696e-02 0.0 
6.099943725549e-03 2.312924276129e-02 0.0 
5.605548752277e-03 4.622102970560e-02 0.0 
1.593230855425e-02 4.246590600747e-02 0.0 
1.808057144749e-02 5.110672232421e-02 0.0 
1.322585410777e-02 3.335959579348e-02 0.0 
1.884746592065e-03 7.803696559082e-02 0.0 
5.285836159867e-03 2.360082758574e-02 0.0 
1.533366701726e-03 3.330876119064e-02 0.0 
1.341744555623e-02 3.527074925830e-02 0.0 
1.466060605713e-02 4.063991876788e-02 0.0 
1.491941791281e-02 9.720397106554e-02 0.0 
1.426182515996e-02 1.031666971355e-01 0.0 
1.133600782365e-02 1.075339039125e-01 0.0 
1.323425354917e-02 1.097383505598e-01 0.0 
1.864076254113e-02 1.041661188124e-01 0.0 
1.659599869937e-02 9.850503962027e-02 0.0 
2.127134114751e-02 1.030349734076e-01 0.0 
2.039772926857e-02 1.108927806817e-01 0.0 
2.084065427599e-02 1.131316123425e-01 0.0 
2.101610210796e-02 1.077717539309e-01 0.0 
2.018009965525e-02 1.155977190998e-01 0.0 
1.557391888006e-02 8.663026049643e-02 0.0 
1.764590992834e-02 6.224936966450e-02 0.0 
4.065664800901e-03 5.936229055108e-02 0.0 
4.656343639160e-03 4.859380553495e-02 0.0 
9.423566206987e-03 5.328399235512e-02 0.0 
4.157627548050e-03 5.164419268906e-02 0.0 
3.143695213902e-03 4.350236135576e-02 0.0 
5.237030754330e-03 1.006221001107e-01 0.0 
4.553343030492e-03 1.067114915914e-01 0.0 
1.834632790554e-03 7.578123088478e-02 0.0 
1.710176867318e-03 7.658441197586e-02 0.0 
7.020207947315e-03 5.520731467019e-02 0.0 
5.506909085840e-03 2.736097728509e-02 0.0 
7.112847054812e-03 4.732329798263e-02 0.0 
6.990403624710e-03 4.051021332882e-02 0.0 
8.768788374988e-03 4.808649361001e-02 0.0 
7.422216350629e-03 2.661519797724e-02 0.0 
1.375896287925e-02 7.789523333346e-02 0.0 
1.477879950121e-02 5.629589164297e-02 0.0 
2.320325174828e-03 8.662231526267e-02 0.0 
2.076361994334e-02 6.691422667834e-02 0.0 
1.203739958839e-03 7.695420882048e-02 0.0 
1.885648900696e-02 6.421646737317e-02 0.0 
1.261404408260e-03 2.695038540112e-02 0.0 
1.459579807371e-03 2.316650723788e-02 0.0 
1.075014117698e-02 2.722716293391e-02 0.0 
1.701955853729e-02 1.231319022631e-01 0.0 
1.979654888596e-02 6.158044936927e-02 0.0 
1.964355422652e-02 6.361043519016e-02 0.0 
1.966603017326e-02 1.212402623762e-01 0.0 
1.978431358968e-02 1.228677343320e-01 0.0 
2.095770344509e-02 1.146442112864e-01 0.0 
1.955216897181e-02 1.238162295926e-01 0.0 
7.371021289154e-03 7.138006120492e-02 0.0 
6.203131049875e-03 7.216861560604e-02 0.0 
1.159153067786e-02 2.888387688332e-02 0.0 
1.184618911821e-02 2.912228337605e-02 0.0 
1.157432166068e-02 3.030493636048e-02 0.0 
1.278414961611e-02 3.539872659187e-02 0.0 
8.979483292242e-03 2.279562537300e-02 0.0 
1.011263732889e-02 2.703645082683e-02 0.0 
1.150364550341e-03 7.149800962887e-02 0.0 
1.810435261638e-02 1.232781214464e-01 0.0 
4.268140465375e-03 3.815223572536e-02 0.0 
1.922204366843e-02 1.188790071188e-01 0.0 
4.224720772318e-03 2.044047016139e-02 0.0 
4.472281580494e-03 2.417716156028e-02 0.0 
-3.334103929521e-04 8.797819534912e-02 0.0 
9.307141176678e-04 8.521731638596e-02 0.0 
1.368872477292e-03 4.083201544006e-02 0.0 
9.958638072770e-03 1.142390967179e-01 0.0 
1.180404625462e-02 1.168128092222e-01 0.0 
8.024703771301e-03 1.113862989022e-01 0.0 
1.901140023838e-04 1.216605917787e-02 0.0 
1.210487111282e-03 1.313787157337e-01 0.0 
9.459142838631e-04 2.009683404320e-02 0.0 
2.157248906710e-02 1.075172743590e-01 0.0 
1.475970479776e-03 3.343246074824e-02 0.0 
1.868984069146e-02 5.660828033751e-02 0.0 
1.986171460991e-02 9.358554985433e-02 0.0 
9.033659865009e-03 3.366065741600e-02 0.0 
1.109663588103e-03 4.879415383544e-02 0.0 
8.225966965481e-04 3.217525469685e-02 0.0 
7.831818022347e-03 1.087965034617e-01 0.0 
7.018937099214e-03 1.151387253768e-01 0.0 
8.695166327530e-03 1.027080436830e-01 0.0 
4.688304843835e-03 9.329109754003e-02 0.0 
1.169318975579e-03 9.585856331483e-02 0.0 
2.996733572679e-03 5.022139446177e-02 0.0 
2.266617320138e-03 6.898800632598e-02 0.0 
1.861998922502e-03 6.748790896535e-02 0.0 
3.184281607234e-03 7.555473894524e-02 0.0 
4.128497857403e-03 7.369676562742e-02 0.0 
4.119095107173e-03 5.541447631667e-02 0.0 
4.793683483483e-03 5.733382977614e-02 0.0 
1.825373573579e-02 5.764104807875e-02 0.0 
1.677839758417e-02 5.323620207846e-02 0.0 
2.045233398114e-02 6.515548564690e-02 0.0 
1.125325095420e-02 4.642652120266e-02 0.0 
1.185389128826e-02 5.189599239780e-02 0.0 
1.295203356252e-02 5.494290688537e-02 0.0 
3.209015157560e-03 3.720857088245e-02 0.0 
2.139908207481e-03 2.762835991859e-02 0.0 
8.600033291288e-03 7.062876583803e-02 0.0 
8.878964909766e-03 7.279089799422e-02 0.0 
7.068200561332e-03 6.962663707228e-02 0.0 
4.112411290316e-03 3.160204500085e-02 0.0 
1.046482724020e-03 1.622535921380e-02 0.0 
1.556522605606e-03 1.949970545020e-02 0.0 
9.899055004789e-04 7.759480463190e-02 0.0 
1.488407232368e-03 7.738852950150e-02 0.0 
4.064355821508e-03 1.054264020564e-01 0.0 
2.062389521354e-03 1.025636158255e-01 0.0 
6.737528938398e-03 3.424541345581e-02 0.0 
8.571544794781e-03 4.134913801920e-02 0.0 
4.811120018574e-03 2.586144173578e-02 0.0 
6.921045847469e-04 7.271030136993e-02 0.0 
1.671123421174e-02 4.592493892523e-02 0.0 
5.642806400874e-03 1.948394396944e-02 0.0 
7.046470806820e-03 2.314913168903e-02 0.0 
4.101324624703e-03 1.495624326014e-02 0.0 
1.256084000678e-02 3.207271672491e-02 0.0 
9.513014849883e-03 2.320430568793e-02 0.0 
9.919501397104e-03 2.378522670839e-02 0.0 
-1.763878987152e-03 9.074193465951e-02 0.0 
6.187126847807e-04 3.843328814274e-02 0.0 
5.379085787081e-03 1.140001118168e-01 0.0 
-2.700660268242e-03 8.915958263752e-02 0.0 
4.630244692785e-03 1.203589815086e-01 0.0 
3.887355555873e-03 1.127840065024e-01 0.0 
3.995621616567e-03 1.265491680008e-01 0.0 
5.865412076435e-04 7.433242869930e-02 0.0 
8.815985710584e-03 1.179665424710e-01 0.0 
9.820664104872e-03 1.102025799588e-01 0.0 
5.008167736954e-04 7.841684095907e-02 0.0 
2.785084196058e-03 2.350129018342e-02 0.0 
6.464220474187e-04 7.773046371723e-02 0.0 
8.482878468015e-04 7.722572109590e-02 0.0 
3.229080365915e-03 1.699062689004e-02 0.0 
3.522720778921e-03 2.093648920825e-02 0.0 
2.340024471661e-03 1.366061440010e-02 0.0 
2.728243149992e-03 1.805029426528e-02 0.0 
3.670385829336e-03 2.485381811087e-02 0.0 
2.849832585170e-03 2.172761207536e-02 0.0 
6.258305901568e-03 1.222509936946e-01 0.0 
1.866424096378e-03 1.368818727661e-02 0.0 
2.106804315431e-03 1.839308269568e-02 0.0 
1.226089951735e-03 1.053425434782e-02 0.0 
1.801665017825e-02 1.324236658488e-01 0.0 
1.485430871349e-02 1.118347713468e-01 0.0 
1.344059720796e-02 1.193540252454e-01 0.0 
9.836049381360e-03 1.248559479309e-01 0.0 
8.690508612745e-03 2.242577590177e-02 0.0 
1.085928491910e-02 3.027409511041e-02 0.0 
9.551007244479e-04 3.044680863623e-02 0.0 
1.093710054773e-03 3.652858524180e-02 0.0 
3.202078172381e-03 1.197304001234e-01 0.0 
2.339873789422e-03 1.202528495950e-01 0.0 
2.563735519671e-03 1.082551813967e-01 0.0 
1.849146842952e-03 1.097138079794e-01 0.0 
1.994424474251e-03 9.765381963362e-02 0.0 
1.282605437507e-03 9.919649705203e-02 0.0 
1.526718989357e-03 8.684836171636e-02 0.0 
8.168370141201e-03 1.908393381485e-02 0.0 
6.099056447713e-03 1.180014162767e-01 0.0 
1.814206631175e-02 1.295935895665e-01 0.0 
7.184717445517e-03 1.847682719070e-02 0.0 
8.652617310243e-03 2.359012785558e-02 0.0 
1.900360442450e-02 1.238009683448e-01 0.0 
1.645652974051e-02 1.319666719896e-01 0.0 
3.504112177170e-03 1.524683300940e-02 0.0 
1.695230290523e-02 9.270869933390e-02 0.0 
2.106878819067e-03 1.497926907928e-02 0.0 
-6.654013390709e-03 9.906708421025e-02 0.0 
-2.825281718278e-03 9.671345041965e-02 0.0 
1.844145576478e-02 9.344219857512e-02 0.0 
2.074083829262e-02 1.154607786670e-01 0.0 
1.653466391617e-02 1.134548304041e-01 0.0 
1.540838476491e-02 1.210857709583e-01 0.0 
1.032784146153e-02 4.040748277837e-02 0.0 
1.117929643824e-03 7.825810550413e-02 0.0 
6.057167514554e-03 1.083996189936e-01 0.0 
2.224447067550e-03 8.546676131867e-02 0.0 
2.256579725254e-03 1.110538619629e-01 0.0 
5.009059747666e-04 3.325234424734e-02 0.0 
1.712722220040e-02 8.721882384342e-02 0.0 
2.207831726002e-02 9.998414116176e-02 0.0 
9.416087421631e-03 1.050727834398e-01 0.0 
1.613575622658e-02 1.046580580600e-01 0.0 
1.954046991190e-02 9.665186510006e-02 0.0 
1.750020364907e-02 1.115789384178e-01 0.0 
1.842130193458e-02 1.157728064012e-01 0.0 
1.702976799704e-02 8.225457366640e-02 0.0 
1.691597189503e-02 1.223635402613e-01 0.0 
1.367921099574e-02 1.296731365777e-01 0.0 
2.183245494836e-02 9.541357101692e-02 0.0 
1.059061953867e-02 5.531823256458e-02 0.0 
1.049474176740e-02 4.842160763980e-02 0.0 
8.184786033994e-03 3.503220151140e-02 0.0 
1.015098959873e-02 4.170691461041e-02 0.0 
1.242634295735e-02 5.519012262113e-02 0.0 
1.217513128153e-02 4.835413865902e-02 0.0 
9.544769824356e-03 3.526331396769e-02 0.0 
1.164997343502e-02 4.167602004164e-02 0.0 
7.954432247826e-03 2.620319023113e-02 0.0 
1.074448849596e-02 3.489415985485e-02 0.0 
1.370873398457e-02 4.800605661025e-02 0.0 
1.300375347058e-02 4.170916943312e-02 0.0 
1.004228581973e-02 3.017669600454e-02 0.0 
1.571721350497e-02 5.450926924249e-02 0.0 
5.742495604647e-03 1.404543864902e-02 0.0 
1.983570466143e-02 8.767052273201e-02 0.0 
-3.003112976754e-04 9.299178749392e-02 0.0 
-1.295425588797e-03 9.967887389525e-02 0.0 
2.231826594014e-02 9.903476843219e-02 0.0 
3.957315438296e-03 1.278185764186e-02 0.0 
3.326684974091e-03 1.298069319459e-02 0.0 
1.365813479665e-02 9.057970606024e-02 0.0 
4.423804461864e-03 1.057406879903e-02 0.0 
1.962504760221e-02 1.079535788193e-01 0.0 
7.501659730284e-03 9.096727643248e-02 0.0 
4.424177568517e-03 1.004228091762e-02 0.0 
1.241057848059e-02 6.209215455429e-02 0.0 
1.419404010819e-02 6.871122392107e-02 0.0 
1.382129685908e-02 7.568440243454e-02 0.0 
2.586008985220e-03 1.235962851126e-02 0.0 
9.550081714826e-03 9.633695535896e-02 0.0 
3.697880921813e-03 8.409366225892e-03 0.0 
1.706247359241e-02 5.616926591974e-02 0.0 
1.822431545546e-02 6.061728605541e-02 0.0 
1.861314815595e-02 6.669189780722e-02 0.0 
1.416629178210e-02 5.493670767690e-02 0.0 
3.123161594829e-03 8.131033552094e-03 0.0 
5.571059930942e-03 1.537873899409e-02 0.0 
5.154824774478e-03 1.509708890192e-02 0.0 
7.709765026372e-03 2.266963376236e-02 0.0 
2.658684971065e-03 7.803246669794e-03 0.0 
3.964965099394e-03 1.100178853238e-02 0.0 
3.906273217814e-03 1.019822788874e-02 0.0 
7.631862426145e-03 7.540626588590e-02 0.0 
9.052674535213e-03 7.511497520430e-02 0.0 
1.024924506922e-02 7.226546519962e-02 0.0 
1.051726310502e-02 7.486907303198e-02 0.0 
9.086553289219e-03 7.768296711745e-02 0.0 
1.064170228849e-02 7.773434933250e-02 0.0 
1.198822971106e-02 7.465111160295e-02 0.0 
1.060582702324e-02 8.090670619357e-02 0.0 
1.404928149987e-02 4.170947947907e-02 0.0 
2.149350906001e-03 7.296376208749e-03 0.0 
9.113876755131e-03 4.832878856364e-02 0.0 
1.014527973420e-02 5.113471360977e-02 0.0 
1.035156125220e-02 5.592097155816e-02 0.0 
4.665954134071e-03 6.111948982046e-02 0.0 
5.449426073087e-03 5.923529624077e-02 0.0 
5.521787772189e-03 5.520305482671e-02 0.0 
3.903660752612e-03 6.292923682431e-02 0.0 
1.927853887738e-02 5.643775708140e-02 0.0 
1.945615250339e-03 7.266146080796e-03 0.0 
1.363484613197e-02 5.287161633047e-02 0.0 
6.080865724772e-03 6.112115277735e-02 0.0 
1.140708544084e-02 1.295597314562e-01 0.0 
1.228914402048e-02 1.181412135222e-01 0.0 
1.353102276369e-02 1.168468467816e-01 0.0 
1.293927827915e-02 1.046899850679e-01 0.0 
1.094354089087e-02 1.174914856758e-01 0.0 
3.437283220082e-03 5.344143367482e-02 0.0 
2.756708007921e-03 5.141936462824e-02 0.0 
2.154993558472e-03 5.383907157013e-02 0.0 
2.083771299815e-03 4.933920863414e-02 0.0 
1.506741871629e-03 5.187308569783e-02 0.0 
1.559161196228e-03 5.604699747373e-02 0.0 
1.411335105153e-03 4.719300281400e-02 0.0 
8.716957246005e-04 5.037489695463e-02 0.0 
9.200914371335e-03 1.306904381045e-01 0.0 
-2.667572541625e-03 8.440950965960e-02 0.0 
-7.136844901076e-04 8.304511821504e-02 0.0 
-4.320870187271e-04 8.166633556337e-02 0.0 
8.609411903356e-04 8.161827359564e-02 0.0 
8.814941485880e-04 8.302677009453e-02 0.0 
2.657051881005e-03 8.114580442459e-02 0.0 
2.514666935714e-03 8.293555035966e-02 0.0 
-1.064409471633e-03 8.484304670613e-02 0.0 
-1.511008718337e-03 8.157109619916e-02 0.0 
-1.478362444854e-04 8.057972417923e-02 0.0 
-1.055436943335e-03 8.057073738710e-02 0.0 
3.620464130635e-05 7.974330468556e-02 0.0 
1.216623122585e-03 7.931965330669e-02 0.0 
2.375676810367e-03 7.610528576132e-02 0.0 
5.373485734530e-04 8.172446038104e-03 0.0 
5.707792541800e-04 6.155045133110e-02 0.0 
1.086332790149e-03 6.326793484145e-02 0.0 
9.974779751222e-04 6.625432533200e-02 0.0 
1.605691771789e-03 6.471585486067e-02 0.0 
1.092083186238e-03 6.011290196813e-02 0.0 
4.742558640961e-04 6.771807224567e-02 0.0 
8.980377339853e-04 6.865421185551e-02 0.0 
1.761076547759e-04 7.745325695991e-02 0.0 
2.322635451579e-04 7.712419770730e-02 0.0 
9.465754302813e-05 7.714186379297e-02 0.0 
2.648335979499e-04 7.651190915507e-02 0.0 
4.256142455977e-04 7.657120119691e-02 0.0 
3.450325887750e-04 7.716792052191e-02 0.0 
4.370261569742e-04 7.725461242480e-02 0.0 
2.454447237591e-04 7.764053593207e-02 0.0 
5.068759086823e-04 7.737704560877e-02 0.0 
7.451604499310e-04 7.668575809448e-02 0.0 
2.311415536322e-04 7.779346593110e-02 0.0 
4.907616319678e-04 6.830980224678e-02 0.0 
9.375556318983e-04 6.114323041693e-02 0.0 
1.663110778252e-03 7.581058088464e-03 0.0 
7.168883951385e-03 1.300896809334e-01 0.0 
-3.594495102424e-04 7.915907416150e-02 0.0 
7.716941712385e-04 1.620098543811e-02 0.0 
1.198114633722e-03 1.342161198302e-02 0.0 
9.627639435640e-04 1.301256694261e-02 0.0 
3.140551732840e-04 1.980677164962e-02 0.0 
5.098807245613e-04 1.628851804047e-02 0.0 
4.132022821766e-04 1.575467791460e-02 0.0 
3.836174190229e-03 7.136568617949e-02 0.0 
7.547114800809e-03 2.892579182669e-02 0.0 
2.175002546435e-03 4.199339235443e-02 0.0 
6.638329273501e-03 9.525310954183e-02 0.0 
5.119034187323e-03 7.294422267525e-02 0.0 
1.736080752704e-03 3.912981030094e-02 0.0 
5.211184125818e-03 4.592627565325e-02 0.0 
2.059875907631e-03 2.622379530934e-02 0.0 
3.147666556059e-03 4.401152972891e-02 0.0 
3.489618747189e-03 3.195625887013e-02 0.0 
4.867739628673e-03 1.532766876890e-02 0.0 
8.024512454423e-04 7.494207894121e-02 0.0 
5.907533795238e-03 9.441381215810e-02 0.0 
3.773736760238e-03 9.935606129738e-02 0.0 
3.596718860927e-03 6.488128559242e-02 0.0 
2.597691040922e-03 7.014614121617e-02 0.0 
2.190732676740e-03 5.772613060400e-02 0.0 
1.867034001916e-03 7.496833787318e-02 0.0 
8.023436007695e-03 1.923660625190e-02 0.0 
2.169035202307e-02 1.052417416853e-01 0.0 
9.474382139106e-03 5.779772203090e-02 0.0 
4.416835402036e-03 6.451519666937e-02 0.0 
4.710741950466e-03 7.026975408716e-02 0.0 
5.162111133649e-03 7.442398009451e-02 0.0 
2.089081088268e-02 8.747687568393e-02 0.0 
6.941594370209e-03 5.930186114484e-02 0.0 
6.422065539634e-03 3.716938456242e-02 0.0 
2.748851917398e-03 5.687783431729e-02 0.0 
1.130987666870e-04 7.824243820170e-02 0.0 
6.600274355370e-03 3.394465347595e-02 0.0 
6.911593172607e-03 5.066949146572e-02 0.0 
8.350000207483e-03 8.907327992288e-02 0.0 
1.301522173946e-02 3.849124288636e-02 0.0 
3.348534966836e-03 7.930557985244e-02 0.0 
5.275211052771e-03 5.965680428503e-02 0.0 
5.388925820091e-03 3.353712682948e-02 0.0 
1.071272578037e-02 1.032930552073e-01 0.0 
1.324971888496e-03 7.629800278190e-02 0.0 
6.142753790880e-03 1.081563219538e-01 0.0 
4.854782404075e-03 1.962232827522e-02 0.0 
1.044634273149e-02 6.218479691347e-02 0.0 
1.977672882820e-03 7.133673114952e-02 0.0 
1.500854271248e-02 6.148266902872e-02 0.0 
2.228694721929e-02 9.285986850516e-02 0.0 
1.595858218794e-02 1.343764377705e-01 0.0 
2.264068105435e-03 3.573818867072e-02 0.0 
2.012467584196e-02 7.020277901169e-02 0.0 
9.956694091902e-03 3.067010548634e-02 0.0 
1.416062498449e-02 5.062682722432e-02 0.0 
1.680824786490e-03 7.025177286322e-02 0.0 
4.565807033699e-03 2.787859371816e-02 0.0 
1.776975205260e-02 6.785569068876e-02 0.0 
4.290109107988e-03 4.501501255169e-02 0.0 
1.864135757263e-02 5.542633835818e-02 0.0 
1.487185500525e-02 7.404322211389e-02 0.0 
7.042297402128e-03 5.409028765217e-02 0.0 
1.125178336259e-02 5.859700947447e-02 0.0 
1.255493573587e-02 3.506281115729e-02 0.0 
2.180018211330e-02 1.066721902358e-01 0.0 
2.169690940169e-02 7.440312748697e-02 0.0 
1.917085248868e-02 7.100147446121e-02 0.0 
2.154353141366e-02 7.255333088569e-02 0.0 
1.183669647085e-03 4.218744496220e-02 0.0 
5.548010086322e-03 3.092484430802e-02 0.0 
4.787286258781e-03 8.496083104697e-02 0.0 
1.827334259384e-02 9.931585612084e-02 0.0 
1.033134812935e-02 8.959734141024e-02 0.0 
1.351774213928e-02 3.439666717178e-02 0.0 
3.055307388019e-03 2.995503565417e-02 0.0 
2.154094881127e-02 1.003830088099e-01 0.0 
4.504453128449e-03 3.141704916941e-02 0.0 
5.584011098901e-03 3.989156956378e-02 0.0 
6.240160127779e-03 5.726826357216e-02 0.0 
2.830482806399e-04 7.411622239042e-02 0.0 
3.581091187357e-03 9.765210615459e-02 0.0 
1.226863178526e-02 8.133336378497e-02 0.0 
1.944139565060e-02 7.137374526055e-02 0.0 
6.233354221031e-03 5.300304296446e-02 0.0 
5.929643518157e-03 2.610693108940e-02 0.0 
3.644227725075e-03 2.848768719825e-02 0.0 
9.038551003466e-03 3.695953433526e-02 0.0 
-3.639860581768e-03 1.092024073050e-01 0.0 
1.775009033456e-02 1.266430273490e-01 0.0 
2.859211592136e-03 2.549732990113e-02 0.0 
1.401149868708e-02 5.812597173787e-02 0.0 
1.096793121853e-02 3.102813943731e-02 0.0 
9.451333618379e-04 5.435467878276e-02 0.0 
8.014583531048e-03 1.888481072801e-02 0.0 
1.751469450976e-02 1.322400305728e-01 0.0 
2.154915826647e-03 2.243939446003e-02 0.0 
1.041644718488e-02 3.739037005028e-02 0.0 
1.537396672073e-02 9.167043501772e-02 0.0 
2.007924478406e-03 1.313956789699e-01 0.0 
1.361353660681e-03 1.409891359303e-02 0.0 
8.800843820935e-03 3.014386905508e-02 0.0 
2.067840489531e-02 6.472477829389e-02 0.0 
1.310905906796e-02 5.979394726183e-02 0.0 
1.629556768501e-02 1.401988967219e-01 0.0 
5.441930963787e-03 5.079036316165e-02 0.0 
2.104018966712e-02 7.158852487710e-02 0.0 
2.243987477896e-03 1.214969679240e-02 0.0 
8.490368607681e-03 2.697668063238e-02 0.0 
1.543610665226e-02 8.210781704338e-02 0.0 
4.792557533059e-03 5.316590564220e-02 0.0 
1.741744519061e-02 5.172477469263e-02 0.0 
5.870138421894e-04 7.662381347975e-02 0.0 
1.824856570289e-02 1.313648141245e-01 0.0 
4.060542182167e-03 5.107507280491e-02 0.0 
1.220156259609e-02 7.784283156203e-02 0.0 
1.214682239960e-02 5.683974255507e-02 0.0 
7.723534474485e-03 1.875221058438e-02 0.0 
3.339646046242e-03 4.893143662282e-02 0.0 
1.345076282087e-02 7.437244478744e-02 0.0 
2.634671118128e-03 4.673364955374e-02 0.0 
1.551819645492e-02 1.419119929240e-01 0.0 
1.588485306011e-02 7.479953321853e-02 0.0 
1.925818558317e-03 4.447033519683e-02 0.0 
1.949409698084e-02 6.166317999073e-02 0.0 
9.044943969920e-04 7.676711771167e-02 0.0 
1.968803604332e-02 5.926179363101e-02 0.0 
7.406738431481e-04 2.355511657364e-02 0.0 
6.680016971606e-03 6.794021490141e-02 0.0 
1.116134873326e-02 5.400846670692e-02 0.0 
1.431076596314e-02 6.174828453585e-02 0.0 
1.332605972986e-02 1.409668531509e-01 0.0 
1.076897181703e-02 4.888355601005e-02 0.0 
1.738531888491e-02 5.138819156386e-02 0.0 
1.853649602260e-02 5.409497019108e-02 0.0 
1.924650493779e-02 6.529144271084e-02 0.0 
1.006173844534e-02 4.319738862400e-02 0.0 
1.537584539015e-02 1.306343723577e-01 0.0 
3.975873030003e-03 7.260254308229e-02 0.0 
3.221363933322e-03 7.449856880388e-02 0.0 
1.300023991143e-02 7.116020483293e-02 0.0 
1.583489896146e-02 4.677196168690e-02 0.0 
4.892540071437e-04 7.572270373820e-02 0.0 
1.602822466440e-02 6.093615834180e-02 0.0 
2.177291559255e-03 7.706205828285e-02 0.0 
1.163230647687e-02 7.173570131475e-02 0.0 
1.505099029791e-02 4.037427693175e-02 0.0 
5.816052900226e-04 9.575637882268e-02 0.0 
1.116118584322e-02 6.903884141845e-02 0.0 
3.378456170453e-04 7.232873488094e-02 0.0 
9.874040863484e-03 6.986302864514e-02 0.0 
1.856897347842e-02 5.871257239573e-02 0.0 
9.410753420286e-03 6.757735976812e-02 0.0 
8.224211688899e-03 6.860858856835e-02 0.0 
1.512724481451e-03 2.743912724980e-02 0.0 
7.767966787982e-03 6.667971522560e-02 0.0 
2.019949344995e-04 1.306216449704e-02 0.0 
2.233698406339e-04 7.430562918294e-03 0.0 
7.577541228477e-04 1.218026951751e-01 0.0 
9.794905613979e-03 1.388241526139e-01 0.0 
-5.057357469087e-03 9.166377424123e-02 0.0 
1.241596186310e-02 1.259168636704e-01 0.0 
5.978106959528e-03 7.062330666205e-02 0.0 
1.741317048430e-02 5.975105506574e-02 0.0 
1.574741742543e-03 1.212200890214e-01 0.0 
4.943754397425e-03 7.160307510721e-02 0.0 
7.443439467850e-03 2.236945979397e-02 0.0 
3.953930752313e-03 8.810872160830e-03 0.0 
1.056545919795e-03 7.464096264248e-02 0.0 
9.507344205749e-03 2.748545367628e-02 0.0 
1.717588235147e-02 4.887246151162e-02 0.0 
3.055125035477e-04 3.992436870878e-02 0.0 
4.630818096510e-03 1.323926991532e-01 0.0 
2.056589802034e-04 7.907324668847e-02 0.0 
5.696674056610e-04 3.923101948476e-02 0.0 
6.252312543758e-03 1.331836413797e-01 0.0 
7.857573194334e-03 1.213989802903e-01 0.0 
4.050249669565e-03 1.146118757592e-01 0.0 
1.308507076699e-03 6.935277792020e-02 0.0 
9.114298105349e-04 8.045272623692e-02 0.0 
3.527262455570e-03 1.252737691509e-01 0.0 
6.096205183477e-03 1.615826764648e-02 0.0 
7.819674571995e-03 1.207959954383e-01 0.0 
1.442633233214e-02 3.753550613551e-02 0.0 
-1.302338091895e-04 1.173651938997e-01 0.0 
3.882063940531e-03 2.604097505358e-02 0.0 
7.629227780607e-03 1.786524580371e-02 0.0 
1.153354154672e-03 6.611756115376e-03 0.0 
1.137792605452e-02 2.807992886960e-02 0.0 
2.361372823817e-04 1.075306113967e-01 0.0 
1.175669235831e-02 1.081446673472e-01 0.0 
7.979931758179e-03 1.965162135908e-02 0.0 
1.436775184262e-03 6.321303492683e-02 0.0 
8.233156858026e-04 6.306781925699e-03 0.0 
9.838643339538e-03 1.214087301362e-01 0.0 
9.140296911619e-04 2.562790117594e-02 0.0 
3.346212892841e-03 8.412829570996e-02 0.0 
4.586186202247e-04 2.488007744027e-02 0.0 
1.500909294743e-02 4.788669105024e-02 0.0 
3.232618540391e-03 1.054734636722e-01 0.0 
1.417607850188e-02 1.068207895383e-01 0.0 
6.165667965365e-04 1.284114031222e-02 0.0 
6.701624016020e-03 2.355216494065e-02 0.0 
-1.640354735167e-03 1.036218899420e-01 0.0 
1.658126849794e-03 7.607221101418e-02 0.0 
2.166546955309e-03 6.471954162904e-02 0.0 
-1.893336865523e-03 8.703246088516e-02 0.0 
2.894408701346e-03 1.382901522241e-02 0.0 
1.211884226323e-02 3.613423996514e-02 0.0 
1.034230891520e-03 1.312665065933e-02 0.0 
1.120155193106e-04 7.655931267599e-02 0.0 
3.854136755588e-04 7.818858060043e-02 0.0 
3.287613731422e-03 1.299844676778e-02 0.0 
7.357893662994e-03 1.962865116583e-02 0.0 
4.255416543297e-03 8.122999207924e-02 0.0 
1.294414591839e-03 1.047135964705e-02 0.0 
-4.205353768682e-03 1.009443649875e-01 0.0 
6.281530160551e-03 1.336594838808e-01 0.0 
5.146907557424e-04 7.756995998264e-02 0.0 
6.548379439594e-04 6.358128701445e-03 0.0 
2.254650622342e-03 2.446393895406e-02 0.0 
1.531758350860e-03 6.173161803611e-02 0.0 
1.375828893917e-02 1.262001114548e-01 0.0 
7.789952311764e-04 7.089783516637e-02 0.0 
1.065452100779e-02 2.589184543960e-02 0.0 
9.236417750660e-04 7.888286097583e-02 0.0 
1.517469204675e-03 2.314608300281e-02 0.0 
3.884752646619e-03 1.296395256417e-02 0.0 
4.706952717553e-03 2.235031514230e-02 0.0 
2.604910908592e-03 6.219499163328e-03 0.0 
-3.174488271168e-03 9.341735760983e-02 0.0 
6.793767468697e-03 1.567940165705e-02 0.0 
6.680192420500e-03 2.060810160380e-02 0.0 
3.490410763663e-03 1.329071714577e-01 0.0 
5.893227888138e-03 2.349876660096e-02 0.0 
1.382274424317e-03 6.722617046686e-02 0.0 
1.067060057618e-03 7.593199913281e-02 0.0 
8.696961628243e-05 1.157511809517e-02 0.0 
4.135165467232e-05 7.740609674952e-02 0.0 
5.888244026360e-04 1.328155814656e-01 0.0 
8.896844578295e-05 6.059362469582e-03 0.0 
6.401714813836e-04 7.596209995056e-02 0.0 
1.251221730253e-03 1.122967071079e-01 0.0 
6.900881264530e-03 1.935636486624e-02 0.0 
4.099201061705e-04 5.362800659588e-02 0.0 
7.112699105948e-04 4.961675521050e-02 0.0 
2.003195945665e-03 8.029907412963e-02 0.0 
-4.618391481409e-03 8.868356478042e-02 0.0 
1.007480504353e-03 8.891158536613e-02 0.0 
6.643395633752e-03 1.567801825059e-02 0.0 
3.638650435891e-03 2.168043682096e-02 0.0 
2.596931900471e-03 9.814125811285e-02 0.0 
1.051570864150e-03 9.983145477317e-02 0.0 
9.545502977260e-03 2.715930181408e-02 0.0 
1.644686700989e-03 5.898425329300e-02 0.0 
1.062656005321e-02 2.678578289110e-02 0.0 
7.655736861046e-03 2.143329082393e-02 0.0 
-6.995913537204e-03 1.026517054370e-01 0.0 
3.689757585896e-04 4.919021726459e-02 0.0 
4.724133176588e-04 7.777762533731e-02 0.0 
1.901918429284e-03 1.215626282570e-02 0.0 
1.091953876073e-03 5.722867132790e-02 0.0 
1.301107703671e-02 1.516441696534e-01 0.0 
4.086964694200e-04 1.597610586672e-01 0.0 
1.332564813832e-02 1.438418490603e-01 0.0 
4.053120844915e-04 1.479495182596e-01 0.0 

TENSORS node_materi_stress float
-2.937965595315e+00 1.707907747074e-02 0.0 
1.707907747074e-02 -8.543706447615e+00 0.0 
0.0 0.0 -3.362754887959e+00 
-2.964135190269e+01 4.146014056488e-01 0.0 
4.146014056488e-01 -3.981209396981e+01 0.0 
0.0 0.0 -2.043603376175e+01 
-1.622505718513e+02 1.151903962873e-02 0.0 
1.151903962873e-02 -3.820282739326e+02 0.0 
0.0 0.0 -1.628836537352e+02 
-9.931383366592e+01 7.982313446686e-01 0.0 
7.982313446686e-01 -2.306234524376e+02 0.0 
0.0 0.0 -9.858118583106e+01 
-7.407631264592e+00 -2.957668835469e-01 0.0 
-2.957668835469e-01 -2.078362846598e+01 0.0 
0.0 0.0 -8.269546769226e+00 
-1.446000823158e+01 -6.597441017613e-01 0.0 
-6.597441017613e-01 -4.043735186850e+01 0.0 
0.0 0.0 -1.606920803003e+01 
-2.108309241264e+01 -5.328607494797e-01 0.0 
-5.328607494797e-01 -5.872309272709e+01 0.0 
0.0 0.0 -2.354185554192e+01 
-2.880172198091e+01 -5.039718705604e-01 0.0 
-5.039718705604e-01 -7.968421648598e+01 0.0 
0.0 0.0 -3.214578154007e+01 
-3.599435046909e+01 -3.809777264644e-01 0.0 
-3.809777264644e-01 -9.980085715226e+01 0.0 
0.0 0.0 -4.033856228641e+01 
-4.338195779316e+01 -3.582721170811e-01 0.0 
-3.582721170811e-01 -1.196319117785e+02 0.0 
0.0 0.0 -4.850416087150e+01 
-5.072839704793e+01 -3.813588680771e-01 0.0 
-3.813588680771e-01 -1.394433895080e+02 0.0 
0.0 0.0 -5.665153596679e+01 
-5.811095826291e+01 -3.278854614658e-01 0.0 
-3.278854614658e-01 -1.592048429679e+02 0.0 
0.0 0.0 -6.479474036923e+01 
-6.569844586527e+01 -3.016249685388e-01 0.0 
-3.016249685388e-01 -1.789168889564e+02 0.0 
0.0 0.0 -7.298460044651e+01 
-7.344827685223e+01 -3.442824501511e-01 0.0 
-3.442824501511e-01 -1.987552349498e+02 0.0 
0.0 0.0 -8.126105354060e+01 
-8.158024335242e+01 -4.781192191024e-01 0.0 
-4.781192191024e-01 -2.190028658227e+02 0.0 
0.0 0.0 -8.977493275254e+01 
-9.006815001874e+01 -4.795034635009e-01 0.0 
-4.795034635009e-01 -2.385128937960e+02 0.0 
0.0 0.0 -9.817431314443e+01 
-9.808585488666e+01 -5.905873054575e-01 0.0 
-5.905873054575e-01 -2.562313771442e+02 0.0 
0.0 0.0 -1.058951696093e+02 
-1.068706714035e+02 -1.308865287487e-01 0.0 
-1.308865287487e-01 -2.756122757954e+02 0.0 
0.0 0.0 -1.143448841597e+02 
-1.163017220825e+02 -8.014680657156e-02 0.0 
-8.014680657156e-02 -2.953844073699e+02 0.0 
0.0 0.0 -1.231058388357e+02 
-1.257722585140e+02 -5.028964320180e-02 0.0 
-5.028964320180e-02 -3.144673411764e+02 0.0 
0.0 0.0 -1.316718799071e+02 
-1.355707828883e+02 7.494683553197e-04 0.0 
7.494683553197e-04 -3.335896865653e+02 0.0 
0.0 0.0 -1.403481408361e+02 
-1.457524841735e+02 -7.904638246352e-03 0.0 
-7.904638246352e-03 -3.527653453335e+02 0.0 
0.0 0.0 -1.491553488521e+02 
-1.556983487663e+02 -7.074600517520e-02 0.0 
-7.074600517520e-02 -3.709638316451e+02 0.0 
0.0 0.0 -1.575986541234e+02 
-9.963209364388e+01 1.089917557535e+00 0.0 
1.089917557535e+00 -2.318296224073e+02 0.0 
0.0 0.0 -9.903851481534e+01 
-9.911389379281e+01 1.957978427155e+00 0.0 
1.957978427155e+00 -2.308403566013e+02 0.0 
0.0 0.0 -9.858627511823e+01 
-9.931441040737e+01 3.160819736069e+00 0.0 
3.160819736069e+00 -2.312281524923e+02 0.0 
0.0 0.0 -9.876276886990e+01 
-9.934088386005e+01 3.798001285710e+00 0.0 
3.798001285710e+00 -2.314387994316e+02 0.0 
0.0 0.0 -9.883390498749e+01 
-9.941915341833e+01 4.980430695355e+00 0.0 
4.980430695355e+00 -2.311246903866e+02 0.0 
0.0 0.0 -9.876315314146e+01 
-9.988771964275e+01 6.147614012261e+00 0.0 
6.147614012261e+00 -2.321938399303e+02 0.0 
0.0 0.0 -9.922446787191e+01 
-1.006083479780e+02 7.455563578212e+00 0.0 
7.455563578212e+00 -2.331748938562e+02 0.0 
0.0 0.0 -9.973497255027e+01 
-1.006949032663e+02 8.958936066167e+00 0.0 
8.958936066167e+00 -2.337164003814e+02 0.0 
0.0 0.0 -9.992339109430e+01 
-1.016795418018e+02 1.058179955316e+01 0.0 
1.058179955316e+01 -2.356495000201e+02 0.0 
0.0 0.0 -1.007987125466e+02 
-1.021256249884e+02 1.190349595674e+01 0.0 
1.190349595674e+01 -2.370155809416e+02 0.0 
0.0 0.0 -1.013423617790e+02 
-1.029754113350e+02 1.370209543043e+01 0.0 
1.370209543043e+01 -2.381601540546e+02 0.0 
0.0 0.0 -1.019406696169e+02 
-1.040887141326e+02 1.558314617261e+01 0.0 
1.558314617261e+01 -2.409855372180e+02 0.0 
0.0 0.0 -1.031222754052e+02 
-1.058485160550e+02 1.752238553915e+01 0.0 
1.752238553915e+01 -2.444046759179e+02 0.0 
0.0 0.0 -1.046759575919e+02 
-1.067660306081e+02 1.945441740204e+01 0.0 
1.945441740204e+01 -2.472163382549e+02 0.0 
0.0 0.0 -1.057947106589e+02 
-1.085798783688e+02 2.139506267847e+01 0.0 
2.139506267847e+01 -2.508003067598e+02 0.0 
0.0 0.0 -1.074140555386e+02 
-1.098487641259e+02 2.310211979812e+01 0.0 
2.310211979812e+01 -2.545002201177e+02 0.0 
0.0 0.0 -1.089046952731e+02 
-1.120451924217e+02 2.492860727715e+01 0.0 
2.492860727715e+01 -2.595261688034e+02 0.0 
0.0 0.0 -1.110714083675e+02 
-1.149836146153e+02 2.663476584591e+01 0.0 
2.663476584591e+01 -2.662408566243e+02 0.0 
0.0 0.0 -1.139673413719e+02 
-1.174608188884e+02 2.808869760818e+01 0.0 
2.808869760818e+01 -2.728676967766e+02 0.0 
0.0 0.0 -1.166985546995e+02 
-1.201213015112e+02 2.927028126205e+01 0.0 
2.927028126205e+01 -2.798264511071e+02 0.0 
0.0 0.0 -1.195843257855e+02 
-1.226725370068e+02 2.999579815057e+01 0.0 
2.999579815057e+01 -2.866264844391e+02 0.0 
0.0 0.0 -1.223897064338e+02 
-1.256106237463e+02 3.060185002118e+01 0.0 
3.060185002118e+01 -2.935555257924e+02 0.0 
0.0 0.0 -1.253498448616e+02 
-1.282954851560e+02 3.078213779450e+01 0.0 
3.078213779450e+01 -3.006574884204e+02 0.0 
0.0 0.0 -1.282858920729e+02 
-1.310790013658e+02 3.068060131218e+01 0.0 
3.068060131218e+01 -3.076685087091e+02 0.0 
0.0 0.0 -1.312242530225e+02 
-1.339528943229e+02 3.029626719330e+01 0.0 
3.029626719330e+01 -3.147889616058e+02 0.0 
0.0 0.0 -1.342225567786e+02 
-1.368255519195e+02 2.973053749455e+01 0.0 
2.973053749455e+01 -3.217249951602e+02 0.0 
0.0 0.0 -1.371651641239e+02 
-1.393375228333e+02 2.885703127415e+01 0.0 
2.885703127415e+01 -3.281970242285e+02 0.0 
0.0 0.0 -1.398603641186e+02 
-1.418525902287e+02 2.779848967745e+01 0.0 
2.779848967745e+01 -3.342562516093e+02 0.0 
0.0 0.0 -1.424326525514e+02 
-1.440015739060e+02 2.654808816550e+01 0.0 
2.654808816550e+01 -3.396950868029e+02 0.0 
0.0 0.0 -1.447089982127e+02 
-1.466743343695e+02 2.540887281418e+01 0.0 
2.540887281418e+01 -3.454750941690e+02 0.0 
0.0 0.0 -1.472448285615e+02 
-1.482654826431e+02 2.365308641110e+01 0.0 
2.365308641110e+01 -3.501446672509e+02 0.0 
0.0 0.0 -1.491230449682e+02 
-1.497147846323e+02 2.224375577640e+01 0.0 
2.224375577640e+01 -3.536222907951e+02 0.0 
0.0 0.0 -1.506011226282e+02 
-1.515562510528e+02 2.063203701790e+01 0.0 
2.063203701790e+01 -3.578232486701e+02 0.0 
0.0 0.0 -1.524138499169e+02 
-1.532087549349e+02 1.913108682282e+01 0.0 
1.913108682282e+01 -3.616254701518e+02 0.0 
0.0 0.0 -1.540502675260e+02 
-1.546636136756e+02 1.758073681761e+01 0.0 
1.758073681761e+01 -3.650041586096e+02 0.0 
0.0 0.0 -1.555003316855e+02 
-1.559838095933e+02 1.607582566093e+01 0.0 
1.607582566093e+01 -3.679433148656e+02 0.0 
0.0 0.0 -1.567781373377e+02 
-1.570836226232e+02 1.458791766433e+01 0.0 
1.458791766433e+01 -3.705095243018e+02 0.0 
0.0 0.0 -1.578779440775e+02 
-1.579453031228e+02 1.310791275603e+01 0.0 
1.310791275603e+01 -3.724946575731e+02 0.0 
0.0 0.0 -1.587319882088e+02 
-1.586523910902e+02 1.177029947708e+01 0.0 
1.177029947708e+01 -3.741141129376e+02 0.0 
0.0 0.0 -1.594299512083e+02 
-1.591619998979e+02 1.037099287023e+01 0.0 
1.037099287023e+01 -3.753883795293e+02 0.0 
0.0 0.0 -1.599651138282e+02 
-1.600569654541e+02 9.243827525656e+00 0.0 
9.243827525656e+00 -3.771106755913e+02 0.0 
0.0 0.0 -1.607502923136e+02 
-1.610777093851e+02 7.954202842964e+00 0.0 
7.954202842964e+00 -3.791253549038e+02 0.0 
0.0 0.0 -1.616609192867e+02 
-1.616212100926e+02 6.950015456038e+00 0.0 
6.950015456038e+00 -3.802788667252e+02 0.0 
0.0 0.0 -1.621700230453e+02 
-1.605885056025e+02 5.725020679584e+00 0.0 
5.725020679584e+00 -3.787970777369e+02 0.0 
0.0 0.0 -1.614156750018e+02 
-1.621466240793e+02 4.593586806687e+00 0.0 
4.593586806687e+00 -3.814040849808e+02 0.0 
0.0 0.0 -1.626652127180e+02 
-1.619095929876e+02 3.654851357802e+00 0.0 
3.654851357802e+00 -3.811260504865e+02 0.0 
0.0 0.0 -1.625106930422e+02 
-1.624345200082e+02 2.946853112675e+00 0.0 
2.946853112675e+00 -3.820226949348e+02 0.0 
0.0 0.0 -1.629371644829e+02 
-1.628305450320e+02 1.785451389457e+00 0.0 
1.785451389457e+00 -3.828878187371e+02 0.0 
0.0 0.0 -1.633155091307e+02 
-1.628157402326e+02 1.038741677227e+00 0.0 
1.038741677227e+00 -3.829384402544e+02 0.0 
0.0 0.0 -1.633262541461e+02 
-3.813648377330e+01 3.062931587324e-01 0.0 
3.062931587324e-01 -5.959298769561e+01 0.0 
0.0 0.0 -2.891884144067e+01 
-4.606638925494e+01 3.799141475593e-01 0.0 
3.799141475593e-01 -7.932562381400e+01 0.0 
0.0 0.0 -3.721760392068e+01 
-5.395567876339e+01 4.036980720677e-01 0.0 
4.036980720677e-01 -9.896114140403e+01 0.0 
0.0 0.0 -4.547504605023e+01 
-6.141678244176e+01 4.736926530603e-01 0.0 
4.736926530603e-01 -1.182871996772e+02 0.0 
0.0 0.0 -5.351119463568e+01 
-6.880551819348e+01 4.710914617766e-01 0.0 
4.710914617766e-01 -1.381589539341e+02 0.0 
0.0 0.0 -6.168934163827e+01 
-7.621321087558e+01 5.566561437808e-01 0.0 
5.566561437808e-01 -1.582512839492e+02 0.0 
0.0 0.0 -6.993934844743e+01 
-8.300570553587e+01 5.497449781503e-01 0.0 
5.497449781503e-01 -1.782036913649e+02 0.0 
0.0 0.0 -7.796281907022e+01 
-8.944213722817e+01 6.686179046597e-01 0.0 
6.686179046597e-01 -1.980684449206e+02 0.0 
0.0 0.0 -8.585317464464e+01 
-9.619175642010e+01 7.349045114761e-01 0.0 
7.349045114761e-01 -2.187278708896e+02 0.0 
0.0 0.0 -9.407588819290e+01 
-1.686453788640e+01 5.085208713093e+00 0.0 
5.085208713093e+00 -6.945958542036e+00 0.0 
0.0 0.0 -7.125603828479e+00 
-3.918664405715e+01 4.799650987890e+00 0.0 
4.799650987890e+00 -4.278277377821e+01 0.0 
0.0 0.0 -2.419082535061e+01 
-2.136029024080e+01 1.260546571904e+01 0.0 
1.260546571904e+01 -1.464636123267e+01 0.0 
0.0 0.0 -1.043785478085e+01 
-2.466831358988e+01 1.582754227921e+01 0.0 
1.582754227921e+01 -1.866737937282e+01 0.0 
0.0 0.0 -1.260070788881e+01 
-2.608548482774e+01 1.725111711383e+01 0.0 
1.725111711383e+01 -2.006329491946e+01 0.0 
0.0 0.0 -1.344463392416e+01 
-2.590792114427e+01 1.754218090674e+01 0.0 
1.754218090674e+01 -1.969369564384e+01 0.0 
0.0 0.0 -1.328048503643e+01 
-2.587225149499e+01 1.755544026818e+01 0.0 
1.755544026818e+01 -2.029493078932e+01 0.0 
0.0 0.0 -1.345015468529e+01 
-2.590057338922e+01 1.752603951407e+01 0.0 
1.752603951407e+01 -2.072757786828e+01 0.0 
0.0 0.0 -1.358844537725e+01 
-2.707746221907e+01 1.742326340465e+01 0.0 
1.742326340465e+01 -2.099643631059e+01 0.0 
0.0 0.0 -1.402216955890e+01 
-3.186221337917e+01 1.239646143680e+01 0.0 
1.239646143680e+01 -1.788296117828e+01 0.0 
0.0 0.0 -1.452355236723e+01 
-3.046183247743e+01 6.178197966688e+00 0.0 
6.178197966688e+00 -2.230919092404e+01 0.0 
0.0 0.0 -1.543130702044e+01 
-1.723163812687e+01 8.122407517927e-01 0.0 
8.122407517927e-01 -7.315948450551e+00 0.0 
0.0 0.0 -6.964275973226e+00 
-2.159434604782e+01 5.534005543451e-01 0.0 
5.534005543451e-01 -1.953484454509e+01 0.0 
0.0 0.0 -1.193875717787e+01 
-2.880403540112e+01 -2.560808225723e-01 0.0 
-2.560808225723e-01 -3.714856148430e+01 0.0 
0.0 0.0 -1.938577906563e+01 
-2.941087091069e+01 -5.299013967755e-02 0.0 
-5.299013967755e-02 -3.828425089449e+01 0.0 
0.0 0.0 -1.990853654156e+01 
-2.939846353251e+01 -6.704187761707e-02 0.0 
-6.704187761707e-02 -3.832904222541e+01 0.0 
0.0 0.0 -1.991825172738e+01 
-2.941919899321e+01 -4.979926410776e-02 0.0 
-4.979926410776e-02 -3.811523289915e+01 0.0 
0.0 0.0 -1.986032956771e+01 
-3.078085892093e+01 -9.250295623216e-02 0.0 
-9.250295623216e-02 -4.074831036423e+01 0.0 
0.0 0.0 -2.105875078555e+01 
-2.985287559107e+01 -1.610209866844e-01 0.0 
-1.610209866844e-01 -3.840643947250e+01 0.0 
0.0 0.0 -2.007779451907e+01 
-3.010198573202e+01 -1.253048898567e-01 0.0 
-1.253048898567e-01 -3.823608678269e+01 0.0 
0.0 0.0 -2.010142175441e+01 
-3.036080171086e+01 -1.994841313078e-01 0.0 
-1.994841313078e-01 -3.843307365327e+01 0.0 
0.0 0.0 -2.023816260924e+01 
-3.085618405653e+01 -9.296391643650e-02 0.0 
-9.296391643650e-02 -3.889888566431e+01 0.0 
0.0 0.0 -2.052652091625e+01 
-3.130068226388e+01 -1.422864416662e-02 0.0 
-1.422864416662e-02 -3.890208858464e+01 0.0 
0.0 0.0 -2.066083125456e+01 
-3.200370900508e+01 2.701123032206e-01 0.0 
2.701123032206e-01 -3.897059039475e+01 0.0 
0.0 0.0 -2.089228981995e+01 
-3.284057711300e+01 7.166204808401e-01 0.0 
7.166204808401e-01 -3.912696356168e+01 0.0 
0.0 0.0 -2.119026220240e+01 
-3.418275129467e+01 1.411649932064e+00 0.0 
1.411649932064e+00 -3.963390525385e+01 0.0 
0.0 0.0 -2.174499696456e+01 
-3.595222458753e+01 2.595315131883e+00 0.0 
2.595315131883e+00 -4.057070362578e+01 0.0 
0.0 0.0 -2.255687846399e+01 
-1.872857883286e+01 1.997525418460e+00 0.0 
1.997525418460e+00 -6.344963215205e+00 0.0 
0.0 0.0 -7.435962456037e+00 
-2.099976439586e+01 3.728909166723e-01 0.0 
3.728909166723e-01 -7.205666545940e+00 0.0 
0.0 0.0 -8.378500010134e+00 
-2.123647304149e+01 -5.042735717039e-01 0.0 
-5.042735717039e-01 -6.981611263066e+00 0.0 
0.0 0.0 -8.365843799113e+00 
-2.006587736728e+01 -5.358055414985e-01 0.0 
-5.358055414985e-01 -7.031559030952e+00 0.0 
0.0 0.0 -8.029373035205e+00 
-1.821895372076e+01 -6.680515747314e-01 0.0 
-6.680515747314e-01 -8.039067089872e+00 0.0 
0.0 0.0 -7.800184698239e+00 
-1.660961343958e+01 -8.225883204170e-01 0.0 
-8.225883204170e-01 -8.457331143944e+00 0.0 
0.0 0.0 -7.447066721968e+00 
-1.490823388445e+01 -8.299841105296e-01 0.0 
-8.299841105296e-01 -8.398396838208e+00 0.0 
0.0 0.0 -6.917481277758e+00 
-1.321388271643e+01 -7.760977160931e-01 0.0 
-7.760977160931e-01 -8.298394467534e+00 0.0 
0.0 0.0 -6.378431814938e+00 
-1.158211284676e+01 -7.337225291804e-01 0.0 
-7.337225291804e-01 -8.279524622724e+00 0.0 
0.0 0.0 -5.881795621775e+00 
-1.011260066690e+01 -6.563076564736e-01 0.0 
-6.563076564736e-01 -8.302187894736e+00 0.0 
0.0 0.0 -5.448382959416e+00 
-8.670915509968e+00 -5.353382855942e-01 0.0 
-5.353382855942e-01 -8.405303404154e+00 0.0 
0.0 0.0 -5.048541497882e+00 
-7.724065781544e+00 -5.817873825691e-01 0.0 
-5.817873825691e-01 -8.978469818225e+00 0.0 
0.0 0.0 -4.947429924599e+00 
-6.371620095318e+00 -6.187271228745e-01 0.0 
-6.187271228745e-01 -8.666584130971e+00 0.0 
0.0 0.0 -4.443351010128e+00 
-5.124107318845e+00 -4.775257228819e-01 0.0 
-4.775257228819e-01 -7.918194976181e+00 0.0 
0.0 0.0 -3.830915618056e+00 
-4.215256542467e+00 -3.755477591287e-01 0.0 
-3.755477591287e-01 -8.047803918518e+00 0.0 
0.0 0.0 -3.601880621842e+00 
-3.546530834030e+00 -3.099798004209e-01 0.0 
-3.099798004209e-01 -8.321071866236e+00 0.0 
0.0 0.0 -3.486032412512e+00 
-2.985034547379e+00 -2.038461864246e-01 0.0 
-2.038461864246e-01 -8.354968325847e+00 0.0 
0.0 0.0 -3.327384776085e+00 
-2.543433408756e+00 -1.897889823782e-01 0.0 
-1.897889823782e-01 -7.940349680763e+00 0.0 
0.0 0.0 -3.068027630746e+00 
-2.309547700410e+00 1.262438226647e-02 0.0 
1.262438226647e-02 -7.335759260456e+00 0.0 
0.0 0.0 -2.802008362648e+00 
-1.721574292816e+01 -1.895466739851e-01 0.0 
-1.895466739851e-01 -9.533141100841e+00 0.0 
0.0 0.0 -7.624665208701e+00 
-1.705065653744e+01 2.463196865834e-02 0.0 
2.463196865834e-02 -9.721372434889e+00 0.0 
0.0 0.0 -7.631608691698e+00 
-1.702459829532e+01 -3.293118774164e-02 0.0 
-3.293118774164e-02 -9.662845210411e+00 0.0 
0.0 0.0 -7.606233051719e+00 
-1.694053439035e+01 -8.861833818555e-02 0.0 
-8.861833818555e-02 -9.671217967439e+00 0.0 
0.0 0.0 -7.583525707336e+00 
-1.682069884688e+01 -1.448243983076e-01 0.0 
-1.448243983076e-01 -9.654289080496e+00 0.0 
0.0 0.0 -7.542496378214e+00 
-1.659113072901e+01 -2.046994673652e-01 0.0 
-2.046994673652e-01 -9.644079464694e+00 0.0 
0.0 0.0 -7.470563058111e+00 
-1.631770217169e+01 -2.577589215080e-01 0.0 
-2.577589215080e-01 -9.646495407306e+00 0.0 
0.0 0.0 -7.389259273698e+00 
-1.598149729995e+01 -2.759338200850e-01 0.0 
-2.759338200850e-01 -9.622176674166e+00 0.0 
0.0 0.0 -7.281102192235e+00 
-1.563275892230e+01 -3.485613268474e-01 0.0 
-3.485613268474e-01 -9.584117695854e+00 0.0 
0.0 0.0 -7.165062985447e+00 
-1.518805063188e+01 -4.056811319132e-01 0.0 
-4.056811319132e-01 -9.598431997808e+00 0.0 
0.0 0.0 -7.035944788907e+00 
-1.477268812102e+01 -3.953085506185e-01 0.0 
-3.953085506185e-01 -9.596286746806e+00 0.0 
0.0 0.0 -6.910692460347e+00 
-1.447898420760e+01 -3.559174459166e-01 0.0 
-3.559174459166e-01 -9.589078605166e+00 0.0 
0.0 0.0 -6.820418843830e+00 
-1.435786636249e+01 -2.433019867130e-01 0.0 
-2.433019867130e-01 -9.639709344831e+00 0.0 
0.0 0.0 -6.799272712195e+00 
-1.461701347184e+01 2.162297935842e-02 0.0 
2.162297935842e-02 -9.672004872859e+00 0.0 
0.0 0.0 -6.886705503410e+00 
-1.559773871883e+01 5.437979746447e-01 0.0 
5.437979746447e-01 -1.010773834748e+01 0.0 
0.0 0.0 -7.311643119892e+00 
-1.788482394726e+01 2.068683377639e+00 0.0 
2.068683377639e+00 -9.969231873615e+00 0.0 
0.0 0.0 -7.956216746264e+00 
-2.211957497671e+01 3.746507939470e+00 0.0 
3.746507939470e+00 -5.123560993083e+00 0.0 
0.0 0.0 -7.772940790938e+00 
-2.503350166863e+01 2.600479881831e+00 0.0 
2.600479881831e+00 -1.837342332180e+01 0.0 
0.0 0.0 -1.262207749713e+01 
-2.470505004029e+01 1.648026533624e+00 0.0 
1.648026533624e+00 -2.172041562699e+01 0.0 
0.0 0.0 -1.352763970018e+01 
-2.250639265647e+01 5.944590185096e-01 0.0 
5.944590185096e-01 -2.016729425516e+01 0.0 
0.0 0.0 -1.240210607349e+01 
-2.172566980403e+01 1.504825154177e-01 0.0 
1.504825154177e-01 -1.988174711273e+01 0.0 
0.0 0.0 -1.208222507503e+01 
-2.128644906859e+01 -7.126697968609e-02 0.0 
-7.126697968609e-02 -1.976292489122e+01 0.0 
0.0 0.0 -1.191481218794e+01 
-2.108797819848e+01 -2.228936858626e-01 0.0 
-2.228936858626e-01 -1.970835646020e+01 0.0 
0.0 0.0 -1.183890039760e+01 
-2.103626562807e+01 -2.912804575930e-01 0.0 
-2.912804575930e-01 -1.960309049551e+01 0.0 
0.0 0.0 -1.179180683707e+01 
-2.105526131083e+01 -2.454065788171e-01 0.0 
-2.454065788171e-01 -1.956000812125e+01 0.0 
0.0 0.0 -1.178458082962e+01 
-2.117876234911e+01 -2.442777218200e-01 0.0 
-2.442777218200e-01 -1.961139386927e+01 0.0 
0.0 0.0 -1.183704686551e+01 
-2.120698125811e+01 -2.103793121114e-01 0.0 
-2.103793121114e-01 -1.957433513204e+01 0.0 
0.0 0.0 -1.183439491705e+01 
-2.126530261428e+01 -1.819915894641e-01 0.0 
-1.819915894641e-01 -1.956145332936e+01 0.0 
0.0 0.0 -1.184802678309e+01 
-2.132059157199e+01 -1.043265872154e-01 0.0 
-1.043265872154e-01 -1.956358482112e+01 0.0 
0.0 0.0 -1.186525291793e+01 
-2.132367770667e+01 -8.335242984636e-02 0.0 
-8.335242984636e-02 -1.958172705149e+01 0.0 
0.0 0.0 -1.187162142745e+01 
-2.132950040358e+01 4.604208027587e-04 0.0 
4.604208027587e-04 -1.950816386308e+01 0.0 
0.0 0.0 -1.185129928000e+01 
-2.137110791509e+01 1.483989956737e-01 0.0 
1.483989956737e-01 -1.961033970165e+01 0.0 
0.0 0.0 -1.189443428502e+01 
-2.150890331357e+01 -4.246483396461e-01 0.0 
-4.246483396461e-01 -1.976835733857e+01 0.0 
0.0 0.0 -1.198317819564e+01 
-1.829198509421e+01 9.482634846226e+00 0.0 
9.482634846226e+00 -1.042599997592e+01 0.0 
0.0 0.0 -8.307794567829e+00 
-2.333897943499e+01 1.455706126615e+01 0.0 
1.455706126615e+01 -1.724388815713e+01 0.0 
0.0 0.0 -1.177486027764e+01 
-2.548084860683e+01 1.665200228283e+01 0.0 
1.665200228283e+01 -1.947562901729e+01 0.0 
0.0 0.0 -1.308694328724e+01 
-2.632175866228e+01 1.750872437892e+01 0.0 
1.750872437892e+01 -2.041246785088e+01 0.0 
0.0 0.0 -1.362026795395e+01 
-2.671437220822e+01 1.817096591830e+01 0.0 
1.817096591830e+01 -2.047729915236e+01 0.0 
0.0 0.0 -1.375750140817e+01 
-2.622445780225e+01 1.806030498625e+01 0.0 
1.806030498625e+01 -2.067564572019e+01 0.0 
0.0 0.0 -1.367003105673e+01 
-2.605866914724e+01 1.747780344261e+01 0.0 
1.747780344261e+01 -2.089806417359e+01 0.0 
0.0 0.0 -1.368701999625e+01 
-3.025525168394e+01 1.705582650645e+01 0.0 
1.705582650645e+01 -2.097591770738e+01 0.0 
0.0 0.0 -1.496935081739e+01 
-3.025837638199e+01 7.874111531901e+00 0.0 
7.874111531901e+00 -1.548128918476e+01 0.0 
0.0 0.0 -1.332189967002e+01 
-3.602294328969e+01 5.465999989166e+00 0.0 
5.465999989166e+00 -3.393638964860e+01 0.0 
0.0 0.0 -2.058779988149e+01 
-2.327566728309e+01 1.376310387325e+01 0.0 
1.376310387325e+01 -2.477255036615e+01 0.0 
0.0 0.0 -1.401446529477e+01 
-1.466718659864e+02 1.940147092341e+01 0.0 
1.940147092341e+01 -3.518919877179e+02 0.0 
0.0 0.0 -1.491691561113e+02 
-1.289567692447e+01 -1.207119674247e+00 0.0 
-1.207119674247e+00 -1.683043606992e+01 0.0 
0.0 0.0 -8.905133923171e+00 
-1.911404445882e+01 -9.742326042252e-01 0.0 
-9.742326042252e-01 -1.600890656109e+01 0.0 
0.0 0.0 -1.052379303654e+01 
-1.527533172856e+02 1.205483608107e+01 0.0 
1.205483608107e+01 -3.653587568138e+02 0.0 
0.0 0.0 -1.550336222298e+02 
-2.655237696179e+01 1.744366712494e+01 0.0 
1.744366712494e+01 -2.867608306843e+01 0.0 
0.0 0.0 -1.616853800907e+01 
-7.777703040138e+01 1.832443475935e-02 0.0 
1.832443475935e-02 -2.096159080936e+02 0.0 
0.0 0.0 -8.581788154848e+01 
-1.391350388046e+02 2.504982516878e+01 0.0 
2.504982516878e+01 -3.335634977576e+02 0.0 
0.0 0.0 -1.414095609686e+02 
-2.790826326253e+01 1.868660118929e+01 0.0 
1.868660118929e+01 -3.016663407350e+01 0.0 
0.0 0.0 -1.702246920081e+01 
-1.309335955092e+02 2.928073957473e+01 0.0 
2.928073957473e+01 -3.102877050833e+02 0.0 
0.0 0.0 -1.319663901778e+02 
-3.504699366823e+01 1.772563392881e+01 0.0 
1.772563392881e+01 -3.225234792351e+01 0.0 
0.0 0.0 -1.978980247752e+01 
-1.565134962373e+02 7.153671858640e+00 0.0 
7.153671858640e+00 -3.722605714572e+02 0.0 
0.0 0.0 -1.582322203084e+02 
-8.416636600541e+00 -8.037932641488e-01 0.0 
-8.037932641488e-01 -1.620803251527e+01 0.0 
0.0 0.0 -7.397084361894e+00 
-1.213713813230e+02 2.967913466289e+01 0.0 
2.967913466289e+01 -2.818825612073e+02 0.0 
0.0 0.0 -1.205761827591e+02 
-4.631930963795e+01 8.250174835302e+00 0.0 
8.250174835302e+00 -5.427221179138e+01 0.0 
0.0 0.0 -2.977745642880e+01 
-4.739711398937e+01 -3.110186530817e-01 0.0 
-3.110186530817e-01 -1.304733771366e+02 0.0 
0.0 0.0 -5.296114733780e+01 
-1.009464688220e+02 2.255830729682e-01 0.0 
2.255830729682e-01 -2.629093905745e+02 0.0 
0.0 0.0 -1.087567578190e+02 
-1.146985036359e+02 2.681394428857e+01 0.0 
2.681394428857e+01 -2.607512856448e+02 0.0 
0.0 0.0 -1.122349367842e+02 
-1.068832190511e+02 1.975278914759e+01 0.0 
1.975278914759e+01 -2.405572753350e+02 0.0 
0.0 0.0 -1.038321483158e+02 
-9.806243225852e+01 5.509694558465e+00 0.0 
5.509694558465e+00 -2.237738127212e+02 0.0 
0.0 0.0 -9.615087349391e+01 
-9.951446754338e+01 9.305005009664e+00 0.0 
9.305005009664e+00 -2.244627690899e+02 0.0 
0.0 0.0 -9.679317099000e+01 
-1.028673274470e+02 1.440156561371e+01 0.0 
1.440156561371e+01 -2.318632123212e+02 0.0 
0.0 0.0 -1.000191619305e+02 
-4.542138938895e+01 3.588041605271e+00 0.0 
3.588041605271e+00 -5.914267050302e+01 0.0 
0.0 0.0 -3.096921796759e+01 
-4.008838406910e+01 6.045434400749e-01 0.0 
6.045434400749e-01 -5.691030359731e+01 0.0 
0.0 0.0 -2.869960629992e+01 
-3.889968919820e+01 3.076895247435e-01 0.0 
3.076895247435e-01 -5.796640831251e+01 0.0 
0.0 0.0 -2.865982925321e+01 
-6.526762075208e+01 4.664375943131e-01 0.0 
4.664375943131e-01 -1.283184835897e+02 0.0 
0.0 0.0 -5.767583130254e+01 
-1.570715759731e+02 4.188783912754e+00 0.0 
4.188783912754e+00 -3.732874552189e+02 0.0 
0.0 0.0 -1.587077093576e+02 
-1.972218860574e+01 1.491915971213e+00 0.0 
1.491915971213e+00 -1.463170035160e+01 0.0 
0.0 0.0 -1.030643056091e+01 
-6.661723651982e+00 -4.577801677917e-01 0.0 
-4.577801677917e-01 -1.723541587928e+01 0.0 
0.0 0.0 -7.158142145949e+00 
-1.302832030686e+02 5.854138555911e-01 0.0 
5.854138555911e-01 -3.233471869263e+02 0.0 
0.0 0.0 -1.356891169985e+02 
-3.674824712750e+01 -1.456764148666e-02 0.0 
-1.456764148666e-02 -5.561764194134e+01 0.0 
0.0 0.0 -2.730976672065e+01 
-2.486817999951e+01 -3.493157091900e-01 0.0 
-3.493157091900e-01 -6.916034228411e+01 0.0 
0.0 0.0 -2.780855668509e+01 
-1.094368851841e+02 2.315910200668e+01 0.0 
2.315910200668e+01 -2.458173419415e+02 0.0 
0.0 0.0 -1.061762681377e+02 
-1.358427181115e+02 2.764425882076e+01 0.0 
2.764425882076e+01 -3.238159854226e+02 0.0 
0.0 0.0 -1.374976110602e+02 
-1.261180773727e+02 3.005667981579e+01 0.0 
3.005667981579e+01 -2.962035423000e+02 0.0 
0.0 0.0 -1.262964859018e+02 
-1.421009161530e+02 2.241470641733e+01 0.0 
2.241470641733e+01 -3.418810731292e+02 0.0 
0.0 0.0 -1.447945967847e+02 
-1.498881362757e+02 1.645039723072e+01 0.0 
1.645039723072e+01 -3.589083965322e+02 0.0 
0.0 0.0 -1.522389598424e+02 
-1.686811123224e+01 -1.423082799064e+00 0.0 
-1.423082799064e+00 -1.716387947331e+01 0.0 
0.0 0.0 -1.019879883588e+01 
-4.185838949396e+01 1.468087616734e+00 0.0 
1.468087616734e+00 -5.687156420290e+01 0.0 
0.0 0.0 -2.921898610906e+01 
-1.528087027764e+02 9.338451620568e+00 0.0 
9.338451620568e+00 -3.659239302518e+02 0.0 
0.0 0.0 -1.552197899085e+02 
-7.937329035157e+01 6.734885751648e-01 0.0 
6.734885751648e-01 -1.677413713719e+02 0.0 
0.0 0.0 -7.373439851705e+01 
-1.062027429715e+01 -1.068309331672e+00 0.0 
-1.068309331672e+00 -1.709233035643e+01 0.0 
0.0 0.0 -8.314650195583e+00 
-6.187771819071e+01 -1.552169525898e-01 0.0 
-1.552169525898e-01 -1.691835218130e+02 0.0 
0.0 0.0 -6.891837200112e+01 
-9.834202769469e+01 3.374209762863e+00 0.0 
3.374209762863e+00 -2.260255979178e+02 0.0 
0.0 0.0 -9.691028768376e+01 
-2.750922867497e+01 1.830300649560e+01 0.0 
1.830300649560e+01 -3.141750620866e+01 0.0 
0.0 0.0 -1.727802046509e+01 
-2.538871515875e+01 1.616763273691e+01 0.0 
1.616763273691e+01 -2.756735326647e+01 0.0 
0.0 0.0 -1.548682052756e+01 
-2.960957796459e+01 1.891160496273e+01 0.0 
1.891160496273e+01 -3.154171377655e+01 0.0 
0.0 0.0 -1.794538752234e+01 
-3.963081228108e+01 1.208747351031e+01 0.0 
1.208747351031e+01 -3.839940008200e+01 0.0 
0.0 0.0 -2.300906370892e+01 
-1.968956857523e+01 9.524565772975e+00 0.0 
9.524565772975e+00 -1.779152740653e+01 0.0 
0.0 0.0 -1.089359682821e+01 
-5.080310462539e+01 1.695200540336e-01 0.0 
1.695200540336e-01 -9.069079465911e+01 0.0 
0.0 0.0 -4.204816978535e+01 
-1.591716093294e+02 2.330924283010e+00 0.0 
2.330924283010e+00 -3.771110528041e+02 0.0 
0.0 0.0 -1.604847986400e+02 
-5.798762926973e+00 -2.702150854860e-01 0.0 
-2.702150854860e-01 -1.638910552620e+01 0.0 
0.0 0.0 -6.612226277430e+00 
-9.238621944377e+01 8.169591291651e-01 0.0 
8.169591291651e-01 -2.071904045274e+02 0.0 
0.0 0.0 -8.947298719136e+01 
-5.003443146090e+01 7.394528508445e+00 0.0 
7.394528508445e+00 -6.275360287354e+01 0.0 
0.0 0.0 -3.343641030033e+01 
-5.531399814880e+01 1.056446506855e+01 0.0 
1.056446506855e+01 -7.463117642931e+01 0.0 
0.0 0.0 -3.858355237343e+01 
-5.803087406430e+01 8.847223379432e+00 0.0 
8.847223379432e+00 -8.197399154416e+01 0.0 
0.0 0.0 -4.160145968254e+01 
-6.384290384363e+01 1.257083591259e+01 0.0 
1.257083591259e+01 -9.652060262423e+01 0.0 
0.0 0.0 -4.770905194036e+01 
-6.706013761485e+01 1.124285789396e+01 0.0 
1.124285789396e+01 -1.045389343776e+02 0.0 
0.0 0.0 -5.107972159773e+01 
-7.176594850173e+01 1.418118951450e+01 0.0 
1.418118951450e+01 -1.179676537944e+02 0.0 
0.0 0.0 -5.652008068885e+01 
-6.863200265397e+01 1.565128909427e+01 0.0 
1.565128909427e+01 -1.108777860335e+02 0.0 
0.0 0.0 -5.345293660625e+01 
-7.619572942486e+01 1.691264974562e+01 0.0 
1.691264974562e+01 -1.323221245633e+02 0.0 
0.0 0.0 -6.215535619645e+01 
-7.278313044403e+01 1.832801871966e+01 0.0 
1.832801871966e+01 -1.260342372809e+02 0.0 
0.0 0.0 -5.924521031746e+01 
-7.507882629909e+01 1.304838180539e+01 0.0 
1.304838180539e+01 -1.261291415106e+02 0.0 
0.0 0.0 -5.996239034292e+01 
-8.019105994442e+01 1.926716769848e+01 0.0 
1.926716769848e+01 -1.473137426220e+02 0.0 
0.0 0.0 -6.785144076993e+01 
-7.661927616974e+01 2.047475312660e+01 0.0 
2.047475312660e+01 -1.417485901891e+02 0.0 
0.0 0.0 -6.511035990766e+01 
-8.394420795849e+01 2.117824732808e+01 0.0 
2.117824732808e+01 -1.627466808983e+02 0.0 
0.0 0.0 -7.360726665702e+01 
-8.028208611355e+01 2.211362766039e+01 0.0 
2.211362766039e+01 -1.577357416749e+02 0.0 
0.0 0.0 -7.100534833652e+01 
-7.281460617839e+01 2.163700436806e+01 0.0 
2.163700436806e+01 -1.371866144950e+02 0.0 
0.0 0.0 -6.260036620202e+01 
-7.638698117733e+01 2.288560225969e+01 0.0 
2.288560225969e+01 -1.535489990991e+02 0.0 
0.0 0.0 -6.858079408294e+01 
-6.881056321706e+01 2.257536603998e+01 0.0 
2.257536603998e+01 -1.334162353480e+02 0.0 
0.0 0.0 -6.026803956953e+01 
-7.234976899436e+01 2.340345691635e+01 0.0 
2.340345691635e+01 -1.500374643065e+02 0.0 
0.0 0.0 -6.631616999026e+01 
-7.995453141194e+01 2.368679277211e+01 0.0 
2.368679277211e+01 -1.697494331608e+02 0.0 
0.0 0.0 -7.451118937181e+01 
-7.592341879946e+01 2.382905511323e+01 0.0 
2.382905511323e+01 -1.663499602788e+02 0.0 
0.0 0.0 -7.228201372349e+01 
-6.821581306054e+01 2.358276356109e+01 0.0 
2.358276356109e+01 -1.470400075976e+02 0.0 
0.0 0.0 -6.417674619745e+01 
-7.180934756129e+01 2.365508157388e+01 0.0 
2.365508157388e+01 -1.632737925170e+02 0.0 
0.0 0.0 -7.012494202347e+01 
-6.414631206013e+01 2.337752009129e+01 0.0 
2.337752009129e+01 -1.444027861249e+02 0.0 
0.0 0.0 -6.216472945551e+01 
-6.777900334795e+01 2.313388169897e+01 0.0 
2.313388169897e+01 -1.604513797840e+02 0.0 
0.0 0.0 -6.806911493958e+01 
-6.022492453695e+01 2.278988282042e+01 0.0 
2.278988282042e+01 -1.419277192668e+02 0.0 
0.0 0.0 -6.024579314114e+01 
-6.387556020351e+01 2.229170022640e+01 0.0 
2.229170022640e+01 -1.576970407171e+02 0.0 
0.0 0.0 -6.607178027619e+01 
-7.153123237467e+01 2.269627544916e+01 0.0 
2.269627544916e+01 -1.759979917355e+02 0.0 
0.0 0.0 -7.385876723305e+01 
-6.762851016401e+01 2.164822360731e+01 0.0 
2.164822360731e+01 -1.728963807043e+02 0.0 
0.0 0.0 -7.175746726051e+01 
-6.013632545568e+01 2.117320691793e+01 0.0 
2.117320691793e+01 -1.548811288401e+02 0.0 
0.0 0.0 -6.410523628875e+01 
-6.388762914243e+01 2.035100526310e+01 0.0 
2.035100526310e+01 -1.696818275886e+02 0.0 
0.0 0.0 -6.967083701930e+01 
-5.661399453610e+01 1.979453734487e+01 0.0 
1.979453734487e+01 -1.519135846478e+02 0.0 
0.0 0.0 -6.215827375516e+01 
-6.033990246653e+01 1.881951183546e+01 0.0 
1.881951183546e+01 -1.662395228482e+02 0.0 
0.0 0.0 -6.757382759441e+01 
-6.779482751627e+01 1.946598045242e+01 0.0 
1.946598045242e+01 -1.839367886447e+02 0.0 
0.0 0.0 -7.511948484830e+01 
-6.423017769013e+01 1.782933054724e+01 0.0 
1.782933054724e+01 -1.800239205988e+02 0.0 
0.0 0.0 -7.287622948668e+01 
-5.697468674049e+01 1.709309007960e+01 0.0 
1.709309007960e+01 -1.624372641789e+02 0.0 
0.0 0.0 -6.542358527583e+01 
-6.084238355411e+01 1.603049651199e+01 0.0 
1.603049651199e+01 -1.757646183775e+02 0.0 
0.0 0.0 -7.058210057947e+01 
-5.380665904219e+01 1.521656574448e+01 0.0 
1.521656574448e+01 -1.582437509876e+02 0.0 
0.0 0.0 -6.321512300894e+01 
-5.766410227141e+01 1.410234433240e+01 0.0 
1.410234433240e+01 -1.711349505399e+02 0.0 
0.0 0.0 -6.823971584339e+01 
-5.087297731653e+01 1.322275944049e+01 0.0 
1.322275944049e+01 -1.536212552387e+02 0.0 
0.0 0.0 -6.094826976658e+01 
-5.467071613937e+01 1.207772403266e+01 0.0 
1.207772403266e+01 -1.659962221318e+02 0.0 
0.0 0.0 -6.580008148134e+01 
-6.170879772448e+01 1.305620196151e+01 0.0 
1.305620196151e+01 -1.835107446604e+02 0.0 
0.0 0.0 -7.316586271545e+01 
-5.867269160646e+01 1.105198981143e+01 0.0 
1.105198981143e+01 -1.779208957736e+02 0.0 
0.0 0.0 -7.057807621402e+01 
-5.187919605710e+01 1.002866814280e+01 0.0 
1.002866814280e+01 -1.603528817618e+02 0.0 
0.0 0.0 -6.326962334567e+01 
-5.579729764194e+01 9.033567696894e+00 0.0 
9.033567696894e+00 -1.717640637043e+02 0.0 
0.0 0.0 -6.786840840386e+01 
-6.285229581744e+01 1.013845733088e+01 0.0 
1.013845733088e+01 -1.894500351824e+02 0.0 
0.0 0.0 -7.529069929997e+01 
-5.988253642299e+01 8.180005056915e+00 0.0 
8.180005056915e+00 -1.828002675328e+02 0.0 
0.0 0.0 -7.240484118675e+01 
-6.719316455867e+01 9.347349567992e+00 0.0 
9.347349567992e+00 -2.006114282488e+02 0.0 
0.0 0.0 -7.994137784224e+01 
-6.412507695799e+01 7.459026502188e+00 0.0 
7.459026502188e+00 -1.935195107671e+02 0.0 
0.0 0.0 -7.689337631754e+01 
-5.708764119885e+01 6.290343295782e+00 0.0 
6.290343295782e+00 -1.757127319928e+02 0.0 
0.0 0.0 -6.944011195749e+01 
-6.121027892299e+01 5.654609534994e+00 0.0 
5.654609534994e+00 -1.859938881834e+02 0.0 
0.0 0.0 -7.376125013192e+01 
-6.849701381752e+01 6.857329852756e+00 0.0 
6.857329852756e+00 -2.039328397150e+02 0.0 
0.0 0.0 -8.132895605976e+01 
-6.544161307733e+01 5.143124202164e+00 0.0 
5.143124202164e+00 -1.959847440481e+02 0.0 
0.0 0.0 -7.802790713764e+01 
-5.841475780864e+01 3.967621200295e+00 0.0 
3.967621200295e+00 -1.780243560062e+02 0.0 
0.0 0.0 -7.053173414446e+01 
-6.251779187873e+01 3.558558758378e+00 0.0 
3.558558758378e+00 -1.876759781816e+02 0.0 
0.0 0.0 -7.465813101810e+01 
-6.979169296506e+01 4.743352118174e+00 0.0 
4.743352118174e+00 -2.057907460281e+02 0.0 
0.0 0.0 -8.227473169796e+01 
-6.671966823598e+01 3.257953782667e+00 0.0 
3.257953782667e+00 -1.971489045473e+02 0.0 
0.0 0.0 -7.876057183498e+01 
-5.966869049512e+01 2.126239149259e+00 0.0 
2.126239149259e+00 -1.789721522876e+02 0.0 
0.0 0.0 -7.119225283481e+01 
-6.371874372312e+01 1.933085122480e+00 0.0 
1.933085122480e+00 -1.881751555471e+02 0.0 
0.0 0.0 -7.516816978107e+01 
-7.104702569788e+01 3.054716617993e+00 0.0 
3.054716617993e+00 -2.065780488927e+02 0.0 
0.0 0.0 -8.288752237718e+01 
-6.785127191283e+01 1.825262204768e+00 0.0 
1.825262204768e+00 -1.972755877624e+02 0.0 
0.0 0.0 -7.913805790257e+01 
-6.073169670018e+01 7.782279895504e-01 0.0 
7.782279895504e-01 -1.788074042668e+02 0.0 
0.0 0.0 -7.146173029009e+01 
-6.468554131228e+01 7.599080311742e-01 0.0 
7.599080311742e-01 -1.876594087374e+02 0.0 
0.0 0.0 -7.530348501490e+01 
-7.208151535286e+01 1.780162986016e+00 0.0 
1.780162986016e+00 -2.063674275257e+02 0.0 
0.0 0.0 -8.313468286356e+01 
-6.871373051815e+01 7.979897470728e-01 0.0 
7.979897470728e-01 -1.964791661536e+02 0.0 
0.0 0.0 -7.915786900154e+01 
-7.636812171991e+01 1.778249445042e+00 0.0 
1.778249445042e+00 -2.153798340605e+02 0.0 
0.0 0.0 -8.712438673412e+01 
-6.145674547232e+01 -1.321780870442e-01 0.0 
-1.321780870442e-01 -1.775948763367e+02 0.0 
0.0 0.0 -7.131548654272e+01 
-6.531523457556e+01 -9.660589976973e-03 0.0 
-9.660589976973e-03 -1.862757233168e+02 0.0 
0.0 0.0 -7.507728736770e+01 
-5.816579184739e+01 -8.389010638602e-01 0.0 
-8.389010638602e-01 -1.671736243090e+02 0.0 
0.0 0.0 -6.720182484690e+01 
-6.189103324640e+01 -6.376095256744e-01 0.0 
-6.376095256744e-01 -1.758274894121e+02 0.0 
0.0 0.0 -7.091555679755e+01 
-7.188644427592e+01 1.857289176149e+01 0.0 
1.857289176149e+01 -1.976833094755e+02 0.0 
0.0 0.0 -8.047092612541e+01 
-5.482822031098e+01 -1.346444828989e+00 0.0 
-1.346444828989e+00 -1.565455673171e+02 0.0 
0.0 0.0 -6.301213628842e+01 
-5.140746447261e+01 -1.570062684279e+00 0.0 
-1.570062684279e+00 -1.481749282169e+02 0.0 
0.0 0.0 -5.947471780685e+01 
-5.841892852971e+01 -1.085072821217e+00 0.0 
-1.085072821217e+00 -1.651933517201e+02 0.0 
0.0 0.0 -6.668368407495e+01 
-6.571971350374e+01 -4.211092483132e-01 0.0 
-4.211092483132e-01 -1.846027753598e+02 0.0 
0.0 0.0 -7.469674665906e+01 
-5.139930879501e+01 -1.670166242327e+00 0.0 
-1.670166242327e+00 -1.457378970215e+02 0.0 
0.0 0.0 -5.874116174495e+01 
-5.487722647561e+01 -1.374709711718e+00 0.0 
-1.374709711718e+00 -1.543973059160e+02 0.0 
0.0 0.0 -6.238235971749e+01 
-4.788282610002e+01 -1.842960629340e+00 0.0 
-1.842960629340e+00 -1.348121922015e+02 0.0 
0.0 0.0 -5.440850549044e+01 
-4.715703275245e+01 1.441488578234e+01 0.0 
1.441488578234e+01 -1.404306991202e+02 0.0 
0.0 0.0 -5.587631956179e+01 
-8.362628844132e+01 2.415763563265e+01 0.0 
2.415763563265e+01 -1.857344648579e+02 0.0 
0.0 0.0 -8.040822598977e+01 
-5.125375033809e+01 -1.525902210309e+00 0.0 
-1.525902210309e+00 -1.434836626440e+02 0.0 
0.0 0.0 -5.802122389462e+01 
-4.424785923367e+01 -1.851846403449e+00 0.0 
-1.851846403449e+00 -1.237815911900e+02 0.0 
0.0 0.0 -5.000883512710e+01 
-4.108522198234e+01 -2.177056978829e+00 0.0 
-2.177056978829e+00 -1.151372492386e+02 0.0 
0.0 0.0 -4.646674136629e+01 
-3.745074381222e+01 -2.070568897435e+00 0.0 
-2.070568897435e+00 -1.040390467370e+02 0.0 
0.0 0.0 -4.204693716476e+01 
-7.040355100205e+01 1.046161621468e+01 0.0 
1.046161621468e+01 -1.135521480146e+02 0.0 
0.0 0.0 -5.478670970501e+01 
-7.780809580467e+01 1.207348458387e+01 0.0 
1.207348458387e+01 -1.347053086539e+02 0.0 
0.0 0.0 -6.335402133757e+01 
-7.281463342012e+01 9.549231342367e+00 0.0 
9.549231342367e+00 -1.219417428959e+02 0.0 
0.0 0.0 -5.802691289481e+01 
-8.038181858772e+01 1.137258349816e+01 0.0 
1.137258349816e+01 -1.435533669701e+02 0.0 
0.0 0.0 -6.678055566733e+01 
-7.567459733052e+01 9.046097683871e+00 0.0 
9.046097683871e+00 -1.317456204705e+02 0.0 
0.0 0.0 -6.182606534032e+01 
-4.052449296665e+01 -1.720279167490e+00 0.0 
-1.720279167490e+00 -1.126469701928e+02 0.0 
0.0 0.0 -4.555143894784e+01 
-8.736235213341e+01 2.020486948818e+01 0.0 
2.020486948818e+01 -1.687224634782e+02 0.0 
0.0 0.0 -7.642544468347e+01 
-8.488584577938e+01 1.375881459677e+01 0.0 
1.375881459677e+01 -1.560415618829e+02 0.0 
0.0 0.0 -7.187822229867e+01 
-6.057814624683e+01 2.333364141909e+01 0.0 
2.333364141909e+01 -1.277958593262e+02 0.0 
0.0 0.0 -5.611220167191e+01 
-5.302449382135e+01 2.067925271607e+01 0.0 
2.067925271607e+01 -1.369834095369e+02 0.0 
0.0 0.0 -5.660237100747e+01 
-7.042017298430e+01 1.128305718618e+01 0.0 
1.128305718618e+01 -2.072506631153e+02 0.0 
0.0 0.0 -8.290125082988e+01 
-5.843190202798e+01 -1.069447996195e+00 0.0 
-1.069447996195e+00 -1.630816167379e+02 0.0 
0.0 0.0 -6.605405562976e+01 
-5.471056592363e+01 -1.213605362300e+00 0.0 
-1.213605362300e+00 -1.521953512461e+02 0.0 
0.0 0.0 -6.167177515091e+01 
-6.200213354091e+01 -7.643114117700e-01 0.0 
-7.643114117700e-01 -1.718104069658e+02 0.0 
0.0 0.0 -6.974376215203e+01 
-7.992318662515e+01 2.848984979374e+00 0.0 
2.848984979374e+00 -2.251576615570e+02 0.0 
0.0 0.0 -9.112425445464e+01 
-8.442448973046e+01 2.791081599387e+00 0.0 
2.791081599387e+00 -2.342683928730e+02 0.0 
0.0 0.0 -9.520786478104e+01 
-8.819102658761e+01 3.938715530694e+00 0.0 
3.938715530694e+00 -2.439470698953e+02 0.0 
0.0 0.0 -9.924142894487e+01 
-9.288388885331e+01 3.815409187842e+00 0.0 
3.815409187842e+00 -2.531129137742e+02 0.0 
0.0 0.0 -1.033990407883e+02 
-9.688232395677e+01 5.030728759700e+00 0.0 
5.030728759700e+00 -2.627043517229e+02 0.0 
0.0 0.0 -1.074760027039e+02 
-1.017456159797e+02 4.829505923395e+00 0.0 
4.829505923395e+00 -2.719045893921e+02 0.0 
0.0 0.0 -1.116950616116e+02 
-9.757921869873e+01 3.690112960247e+00 0.0 
3.690112960247e+00 -2.621513945466e+02 0.0 
0.0 0.0 -1.075191839736e+02 
-1.066011961522e+02 4.620143805910e+00 0.0 
4.620143805910e+00 -2.809706180815e+02 0.0 
0.0 0.0 -1.158715442701e+02 
-1.022692786003e+02 3.548850643164e+00 0.0 
3.548850643164e+00 -2.710812925353e+02 0.0 
0.0 0.0 -1.116051713407e+02 
-1.059875106205e+02 6.102201554322e+00 0.0 
6.102201554322e+00 -2.814101450806e+02 0.0 
0.0 0.0 -1.158192967103e+02 
-1.009331145092e+02 6.379822102038e+00 0.0 
6.379822102038e+00 -2.719891796373e+02 0.0 
0.0 0.0 -1.114766882439e+02 
-1.114408811263e+02 4.387178310230e+00 0.0 
4.387178310230e+00 -2.899120141731e+02 0.0 
0.0 0.0 -1.200058685898e+02 
-1.069450309374e+02 3.374293163345e+00 0.0 
3.374293163345e+00 -2.799058875923e+02 0.0 
0.0 0.0 -1.156552755589e+02 
-1.162624399524e+02 4.114719217982e+00 0.0 
4.114719217982e+00 -2.987410408265e+02 0.0 
0.0 0.0 -1.241010442337e+02 
-1.116021278283e+02 3.157859717829e+00 0.0 
3.157859717829e+00 -2.886361577436e+02 0.0 
0.0 0.0 -1.196714856716e+02 
-1.024848953134e+02 2.488620564763e+00 0.0 
2.488620564763e+00 -2.696815126627e+02 0.0 
0.0 0.0 -1.112499223928e+02 
-1.069682288051e+02 2.322439247821e+00 0.0 
2.322439247821e+00 -2.783233236420e+02 0.0 
0.0 0.0 -1.151874657341e+02 
-9.807924236560e+01 1.745333216094e+00 0.0 
1.745333216094e+00 -2.593469208953e+02 0.0 
0.0 0.0 -1.068278489783e+02 
-7.499605498781e+01 1.054932733127e+01 0.0 
1.054932733127e+01 -2.185221577754e+02 0.0 
0.0 0.0 -8.765546382895e+01 
-7.846806741962e+01 1.245948606769e+01 0.0 
1.245948606769e+01 -2.251723387903e+02 0.0 
0.0 0.0 -9.069212186297e+01 
-8.326961476573e+01 1.177552224571e+01 0.0 
1.177552224571e+01 -2.365310181430e+02 0.0 
0.0 0.0 -9.554018987263e+01 
-8.697813626723e+01 1.366451454144e+01 0.0 
1.366451454144e+01 -2.432039148710e+02 0.0 
0.0 0.0 -9.865461534148e+01 
-9.200947737783e+01 1.303159840861e+01 0.0 
1.303159840861e+01 -2.546319811971e+02 0.0 
0.0 0.0 -1.035924375725e+02 
-9.592935697445e+01 1.490442359812e+01 0.0 
1.490442359812e+01 -2.613139289629e+02 0.0 
0.0 0.0 -1.067729857812e+02 
-1.011886478886e+02 1.431722108103e+01 0.0 
1.431722108103e+01 -2.727664344922e+02 0.0 
0.0 0.0 -1.117865247143e+02 
-9.717131311145e+01 1.245901412779e+01 0.0 
1.245901412779e+01 -2.657099628320e+02 0.0 
0.0 0.0 -1.084643827830e+02 
-8.756112714327e+01 2.270070848313e+01 0.0 
2.270070848313e+01 -1.783682250753e+02 0.0 
0.0 0.0 -7.937880566556e+01 
-4.925903282589e+01 7.973677866097e+00 0.0 
7.973677866097e+00 -1.541748351862e+02 0.0 
0.0 0.0 -6.063016040363e+01 
-4.561607355032e+01 9.056129003588e+00 0.0 
9.056129003588e+00 -1.428693090368e+02 0.0 
0.0 0.0 -5.614561477613e+01 
-4.327021667485e+01 6.967227937219e+00 0.0 
6.967227937219e+00 -1.366915081655e+02 0.0 
0.0 0.0 -5.358851745212e+01 
-3.994495143122e+01 8.140863198136e+00 0.0 
8.140863198136e+00 -1.255159540190e+02 0.0 
0.0 0.0 -4.923827163507e+01 
-3.786628095990e+01 6.034551076688e+00 0.0 
6.034551076688e+00 -1.193028137996e+02 0.0 
0.0 0.0 -4.675072842785e+01 
-3.491653957736e+01 7.318712304674e+00 0.0 
7.318712304674e+00 -1.082832247415e+02 0.0 
0.0 0.0 -4.255992929565e+01 
-3.308040981179e+01 5.216361777920e+00 0.0 
5.216361777920e+00 -1.019530183984e+02 0.0 
0.0 0.0 -4.011002846304e+01 
-3.592498892362e+01 4.020005923157e+00 0.0 
4.020005923157e+00 -1.124324494120e+02 0.0 
0.0 0.0 -4.410723150068e+01 
-3.137862084244e+01 3.232476822346e+00 0.0 
3.232476822346e+00 -9.491681777990e+01 0.0 
0.0 0.0 -3.748863158670e+01 
-3.409013136343e+01 2.154438966020e+00 0.0 
2.154438966020e+00 -1.048737239166e+02 0.0 
0.0 0.0 -4.128915658401e+01 
-2.973804175588e+01 1.419772301843e+00 0.0 
1.419772301843e+00 -8.714402273920e+01 0.0 
0.0 0.0 -3.466461934852e+01 
-3.228383967895e+01 4.990876495822e-01 0.0 
4.990876495822e-01 -9.657469505478e+01 0.0 
0.0 0.0 -3.825756042012e+01 
-7.542973523842e+01 2.214496475264e+01 0.0 
2.214496475264e+01 -1.910528781673e+02 0.0 
0.0 0.0 -7.954478402171e+01 
-9.080916115640e+01 1.554865467380e+01 0.0 
1.554865467380e+01 -2.494685717251e+02 0.0 
0.0 0.0 -1.016833198644e+02 
-9.997927585504e+01 1.676982912241e+01 0.0 
1.676982912241e+01 -2.676398891300e+02 0.0 
0.0 0.0 -1.098857494955e+02 
-9.472996894570e+01 1.738924532527e+01 0.0 
1.738924532527e+01 -2.552964473752e+02 0.0 
0.0 0.0 -1.046079248963e+02 
-3.444864651096e+01 -2.350666333818e+00 0.0 
-2.350666333818e+00 -9.542774748361e+01 0.0 
0.0 0.0 -3.856291819837e+01 
-1.162365945283e+02 2.888087823874e+00 0.0 
2.888087823874e+00 -2.972928965977e+02 0.0 
0.0 0.0 -1.236588473378e+02 
-1.103076775277e+02 7.506379298182e+00 0.0 
7.506379298182e+00 -2.906323361607e+02 0.0 
0.0 0.0 -1.198820041065e+02 
-1.050505447580e+02 7.845601127982e+00 0.0 
7.845601127982e+00 -2.809269762506e+02 0.0 
0.0 0.0 -1.153932563026e+02 
-1.065940282306e+02 1.376567969153e+01 0.0 
1.376567969153e+01 -2.839003543258e+02 0.0 
0.0 0.0 -1.167483147669e+02 
-3.373240883302e+01 -1.846868777324e+00 0.0 
-1.846868777324e+00 -9.302951275532e+01 0.0 
0.0 0.0 -3.762857647650e+01 
-3.058947406684e+01 6.657322060570e+00 0.0 
6.657322060570e+00 -9.118893561817e+01 0.0 
0.0 0.0 -3.613352290550e+01 
-3.226218228928e+01 8.801107000589e+00 0.0 
8.801107000589e+00 -9.673682893957e+01 0.0 
0.0 0.0 -3.829970336866e+01 
-8.285055117375e+01 1.080940078695e+01 0.0 
1.080940078695e+01 -1.527857058251e+02 0.0 
0.0 0.0 -7.029087709966e+01 
-7.826956616443e+01 8.662386314362e+00 0.0 
8.662386314362e+00 -1.413934095293e+02 0.0 
0.0 0.0 -6.549889270811e+01 
-1.147424368508e+02 9.018559364218e+00 0.0 
9.018559364218e+00 -2.995803385708e+02 0.0 
0.0 0.0 -1.238968326265e+02 
-3.677175498514e+01 -1.536678786863e+00 0.0 
-1.536678786863e+00 -1.016170863719e+02 0.0 
0.0 0.0 -4.111665240710e+01 
-1.160053153633e+02 5.522291274956e+00 0.0 
5.522291274956e+00 -2.997111286607e+02 0.0 
0.0 0.0 -1.243149332072e+02 
-2.749497040708e+01 2.594793213231e+00 0.0 
2.594793213231e+00 -7.749089343464e+01 0.0 
0.0 0.0 -3.109575915252e+01 
-1.114399155965e+02 2.097910372626e+00 0.0 
2.097910372626e+00 -2.869111468430e+02 0.0 
0.0 0.0 -1.191053187318e+02 
-1.208214124369e+02 2.561337797497e+00 0.0 
2.561337797497e+00 -3.058707482179e+02 0.0 
0.0 0.0 -1.276076481964e+02 
-9.348132908798e+01 2.691307782501e+00 0.0 
2.691307782501e+00 -2.521966749041e+02 0.0 
0.0 0.0 -1.033034011976e+02 
-1.041238529143e+02 1.861091020085e+01 0.0 
1.861091020085e+01 -2.736310652317e+02 0.0 
0.0 0.0 -1.129264754438e+02 
-9.874365378991e+01 1.914600184900e+01 0.0 
1.914600184900e+01 -2.607676139616e+02 0.0 
0.0 0.0 -1.074533803254e+02 
-3.708511705559e+01 1.347248443892e+00 0.0 
1.347248443892e+00 -1.146459337642e+02 0.0 
0.0 0.0 -4.511931524594e+01 
-3.507190455264e+01 -8.023690166256e-02 0.0 
-8.023690166256e-02 -1.059516871710e+02 0.0 
0.0 0.0 -4.190707751710e+01 
-3.050881196793e+01 -8.026933904618e-01 0.0 
-8.026933904618e-01 -8.799402629666e+01 0.0 
0.0 0.0 -3.515085147938e+01 
-3.342208514310e+01 -1.272891431376e+00 0.0 
-1.272891431376e+00 -9.746738113150e+01 0.0 
0.0 0.0 -3.886683988238e+01 
-3.811539571380e+01 -5.555801231244e-01 0.0 
-5.555801231244e-01 -1.154073383707e+02 0.0 
0.0 0.0 -4.565682022536e+01 
-3.590282597677e+01 -1.670644860213e+00 0.0 
-1.670644860213e+00 -1.057861901415e+02 0.0 
0.0 0.0 -4.210670483548e+01 
-3.107495965493e+01 -2.306977054795e+00 0.0 
-2.306977054795e+00 -8.739175260536e+01 0.0 
0.0 0.0 -3.514001367808e+01 
-3.355236883329e+01 -2.416821425485e+00 0.0 
-2.416821425485e+00 -9.575392357034e+01 0.0 
0.0 0.0 -3.839188772109e+01 
-3.879532449456e+01 -1.823546135561e+00 0.0 
-1.823546135561e+00 -1.145297498397e+02 0.0 
0.0 0.0 -4.559752230027e+01 
-3.622053442359e+01 -2.478690587051e+00 0.0 
-2.478690587051e+00 -1.042772767669e+02 0.0 
0.0 0.0 -4.174934335714e+01 
-3.102000248368e+01 -2.869631052743e+00 0.0 
-2.869631052743e+00 -8.517995330722e+01 0.0 
0.0 0.0 -3.445998673727e+01 
-3.341686638912e+01 -2.830111713178e+00 0.0 
-2.830111713178e+00 -9.359803104464e+01 0.0 
0.0 0.0 -3.770446923013e+01 
-1.257923140561e+02 3.408419691042e+00 0.0 
3.408419691042e+00 -3.161123044383e+02 0.0 
0.0 0.0 -1.321713855483e+02 
-2.609049501592e+01 8.591049286881e-01 0.0 
8.591049286881e-01 -6.945440031884e+01 0.0 
0.0 0.0 -2.826346860043e+01 
-6.519945317783e+01 2.122216322597e+01 0.0 
2.122216322597e+01 -1.165235628526e+02 0.0 
0.0 0.0 -5.411690480914e+01 
-1.200976655745e+02 8.589987145372e+00 0.0 
8.589987145372e+00 -3.091943795748e+02 0.0 
0.0 0.0 -1.283876135448e+02 
-1.107485658883e+02 1.562443641432e+01 0.0 
1.562443641432e+01 -2.907386887225e+02 0.0 
0.0 0.0 -1.200461763833e+02 
-8.522059098538e+01 1.034542027953e+01 0.0 
1.034542027953e+01 -1.623369101355e+02 0.0 
0.0 0.0 -7.386725033628e+01 
-8.079996055324e+01 8.350975381035e+00 0.0 
8.350975381035e+00 -1.513401276514e+02 0.0 
0.0 0.0 -6.924202646138e+01 
-7.345634756336e+01 6.670150805635e+00 0.0 
6.670150805635e+00 -1.305415694667e+02 0.0 
0.0 0.0 -6.079937510902e+01 
-7.623818002228e+01 6.528120259704e+00 0.0 
6.528120259704e+00 -1.408914677859e+02 0.0 
0.0 0.0 -6.473889434245e+01 
-8.326792275700e+01 8.082739073664e+00 0.0 
8.082739073664e+00 -1.615925918957e+02 0.0 
0.0 0.0 -7.305815439580e+01 
-7.895551082990e+01 6.383500628511e+00 0.0 
6.383500628511e+00 -1.513501781809e+02 0.0 
0.0 0.0 -6.869170670325e+01 
-7.160567574556e+01 4.964282162102e+00 0.0 
4.964282162102e+00 -1.308437399205e+02 0.0 
0.0 0.0 -6.033482469981e+01 
-7.459906382645e+01 4.913196800563e+00 0.0 
4.913196800563e+00 -1.414247028596e+02 0.0 
0.0 0.0 -6.440713000580e+01 
-6.700628460834e+01 3.652590930533e+00 0.0 
3.652590930533e+00 -1.210947160108e+02 0.0 
0.0 0.0 -5.603030018575e+01 
-7.023949860115e+01 3.675610175099e+00 0.0 
3.675610175099e+00 -1.317938269016e+02 0.0 
0.0 0.0 -6.020999765083e+01 
-7.755666088223e+01 4.819607381114e+00 0.0 
4.819607381114e+00 -1.520981243905e+02 0.0 
0.0 0.0 -6.849643558183e+01 
-7.343521771673e+01 3.663085243509e+00 0.0 
3.663085243509e+00 -1.426051420308e+02 0.0 
0.0 0.0 -6.441210792425e+01 
-6.590266846811e+01 2.658295334625e+00 0.0 
2.658295334625e+00 -1.224536817140e+02 0.0 
0.0 0.0 -5.610690505463e+01 
-6.932778286647e+01 2.703973706945e+00 0.0 
2.703973706945e+00 -1.332875161359e+02 0.0 
0.0 0.0 -6.038458970072e+01 
-6.162803260894e+01 1.870177100775e+00 0.0 
1.870177100775e+00 -1.132380630543e+02 0.0 
0.0 0.0 -5.205982869897e+01 
-6.528383620716e+01 1.946979733051e+00 0.0 
1.946979733051e+00 -1.240167822093e+02 0.0 
0.0 0.0 -5.639018552495e+01 
-7.273955697420e+01 2.620468500917e+00 0.0 
2.620468500917e+00 -1.441998437117e+02 0.0 
0.0 0.0 -6.468182020576e+01 
-3.022726786616e+01 -1.572602432324e+00 0.0 
-1.572602432324e+00 -8.251656983429e+01 0.0 
0.0 0.0 -3.342315131014e+01 
-1.024559290528e+02 1.193318567362e+01 0.0 
1.193318567362e+01 -2.764944587237e+02 0.0 
0.0 0.0 -1.132851163329e+02 
-1.121714524599e+02 1.323456133492e+01 0.0 
1.323456133492e+01 -2.948472127561e+02 0.0 
0.0 0.0 -1.217055995648e+02 
-5.831981137577e+01 -8.021552507441e-01 0.0 
-8.021552507441e-01 -1.614710147425e+02 0.0 
0.0 0.0 -6.553724783549e+01 
-6.549336440193e+01 -4.539158233442e-01 0.0 
-4.539158233442e-01 -1.802748113171e+02 0.0 
0.0 0.0 -7.333045271570e+01 
-6.952157542530e+01 -3.720548212381e-01 0.0 
-3.720548212381e-01 -1.912854629980e+02 0.0 
0.0 0.0 -7.784211152699e+01 
-7.339735606281e+01 -1.576469143332e-01 0.0 
-1.576469143332e-01 -2.001070954176e+02 0.0 
0.0 0.0 -8.165133544412e+01 
-6.885352906197e+01 1.872191226568e+00 0.0 
1.872191226568e+00 -1.348350364616e+02 0.0 
0.0 0.0 -6.070656965706e+01 
-7.606026579675e+01 2.420242556702e+00 0.0 
2.420242556702e+00 -1.551593497359e+02 0.0 
0.0 0.0 -6.896588465981e+01 
-2.843966115135e+01 8.333765275942e+00 0.0 
8.333765275942e+00 -7.992765025862e+01 0.0 
0.0 0.0 -3.211019342299e+01 
-2.997647443151e+01 1.043626898987e+01 0.0 
1.043626898987e+01 -8.463435001192e+01 0.0 
0.0 0.0 -3.398324733303e+01 
-8.945767723626e+01 1.248356269579e+01 0.0 
1.248356269579e+01 -1.738972397017e+02 0.0 
0.0 0.0 -7.860647508139e+01 
-1.158851026708e+02 1.826993307037e+00 0.0 
1.826993307037e+00 -2.954872844101e+02 0.0 
0.0 0.0 -1.230117161243e+02 
-1.067123446797e+02 1.431572986910e+00 0.0 
1.431572986910e+00 -2.764677249944e+02 0.0 
0.0 0.0 -1.145540209022e+02 
-4.979475711882e+01 1.921885532500e+01 0.0 
1.921885532500e+01 -1.342525977387e+02 0.0 
0.0 0.0 -5.481420645726e+01 
-4.640513934840e+01 2.011321642369e+01 0.0 
2.011321642369e+01 -1.191440330089e+02 0.0 
0.0 0.0 -4.926475170720e+01 
-4.354452421668e+01 1.862158343360e+01 0.0 
1.862158343360e+01 -1.165902451001e+02 0.0 
0.0 0.0 -4.764043079504e+01 
-4.036016994525e+01 1.944540919240e+01 0.0 
1.944540919240e+01 -1.010113147342e+02 0.0 
0.0 0.0 -4.201144540384e+01 
-4.308873116849e+01 2.078363111344e+01 0.0 
2.078363111344e+01 -1.032803021526e+02 0.0 
0.0 0.0 -4.351070999633e+01 
-3.792635193093e+01 1.798319654933e+01 0.0 
1.798319654933e+01 -9.854641076588e+01 0.0 
0.0 0.0 -4.054182880904e+01 
-9.580054931817e+01 6.636868921245e+00 0.0 
6.636868921245e+00 -2.622144236565e+02 0.0 
0.0 0.0 -1.070044918924e+02 
-8.050500068623e+01 4.675478020992e+00 0.0 
4.675478020992e+00 -1.629354838985e+02 0.0 
0.0 0.0 -7.263214537541e+01 
-3.804655996411e+01 -2.480232971540e+00 0.0 
-2.480232971540e+00 -1.065822370803e+02 0.0 
0.0 0.0 -4.298863911331e+01 
-3.168476271903e+01 -2.595948755655e+00 0.0 
-2.595948755655e+00 -8.695832651637e+01 0.0 
0.0 0.0 -3.519292677062e+01 
-1.253430934405e+02 2.183616468604e+00 0.0 
2.183616468604e+00 -3.144266043816e+02 0.0 
0.0 0.0 -1.315309093466e+02 
-9.323119903703e+01 1.063058277710e+01 0.0 
1.063058277710e+01 -2.582263739260e+02 0.0 
0.0 0.0 -1.050372718889e+02 
-7.942346787788e+01 2.314544538379e+01 0.0 
2.314544538379e+01 -1.944371145672e+02 0.0 
0.0 0.0 -8.175817473353e+01 
-8.350045333295e+01 2.270824304683e+01 0.0 
2.270824304683e+01 -2.093981960644e+02 0.0 
0.0 0.0 -8.746959481921e+01 
-8.753380781041e+01 2.369776593731e+01 0.0 
2.369776593731e+01 -2.130982065606e+02 0.0 
0.0 0.0 -8.978960431129e+01 
-9.182808482136e+01 2.338845803694e+01 0.0 
2.338845803694e+01 -2.279783729072e+02 0.0 
0.0 0.0 -9.554193731857e+01 
-9.581782830658e+01 2.440543132924e+01 0.0 
2.440543132924e+01 -2.319423397797e+02 0.0 
0.0 0.0 -9.792805042590e+01 
-1.003386916663e+02 2.425004644777e+01 0.0 
2.425004644777e+01 -2.466504268895e+02 0.0 
0.0 0.0 -1.036967355668e+02 
-9.636852476834e+01 2.303808013734e+01 0.0 
2.303808013734e+01 -2.424485781504e+02 0.0 
0.0 0.0 -1.012451308756e+02 
-1.083214053520e+02 2.041275371578e+01 0.0 
2.041275371578e+01 -2.792726551207e+02 0.0 
0.0 0.0 -1.158782181418e+02 
-1.051574474096e+02 2.408758687201e+01 0.0 
2.408758687201e+01 -2.609940615323e+02 0.0 
0.0 0.0 -1.094454526826e+02 
-6.129014798428e+01 1.261863971013e+00 0.0 
1.261863971013e+00 -1.145290818581e+02 0.0 
0.0 0.0 -5.234576895271e+01 
-8.573959542981e+01 1.621715466985e+01 0.0 
1.621715466985e+01 -2.370411191588e+02 0.0 
0.0 0.0 -9.643421437659e+01 
-4.186280762652e+01 -1.867274262342e+00 0.0 
-1.867274262342e+00 -1.233202144476e+02 0.0 
0.0 0.0 -4.915490662224e+01 
-2.699253609885e+01 -1.757351486290e+00 0.0 
-1.757351486290e+00 -7.365995081863e+01 0.0 
0.0 0.0 -2.979574607524e+01 
-2.786701959898e+01 -3.004976934319e+00 0.0 
-3.004976934319e+00 -7.381646523697e+01 0.0 
0.0 0.0 -3.010504545079e+01 
-3.277634462406e+01 -1.321575535625e+00 0.0 
-1.321575535625e+00 -9.028213512371e+01 0.0 
0.0 0.0 -3.651754392433e+01 
-3.985147665356e+01 -1.244357150613e+00 0.0 
-1.244357150613e+00 -1.101643493516e+02 0.0 
0.0 0.0 -4.460474780153e+01 
-1.248436664237e+02 1.015816436076e+01 0.0 
1.015816436076e+01 -3.181242705266e+02 0.0 
0.0 0.0 -1.324903810851e+02 
-1.042031064569e+02 2.533464262376e+01 0.0 
2.533464262376e+01 -2.508089625382e+02 0.0 
0.0 0.0 -1.061036206985e+02 
-9.962990141761e+01 2.521332329556e+01 0.0 
2.521332329556e+01 -2.357837593017e+02 0.0 
0.0 0.0 -1.002240982158e+02 
-3.731712290443e+01 2.005350183333e+01 0.0 
2.005350183333e+01 -8.497999741875e+01 0.0 
0.0 0.0 -3.628913609696e+01 
-3.985274459665e+01 2.116002745315e+01 0.0 
2.116002745315e+01 -8.682728680062e+01 0.0 
0.0 0.0 -3.760400941918e+01 
-1.139777502096e+02 1.994754613384e+01 0.0 
1.994754613384e+01 -2.919488795687e+02 0.0 
0.0 0.0 -1.213779889335e+02 
-6.783351447208e+01 7.192307038545e+00 0.0 
7.192307038545e+00 -1.107109142817e+02 0.0 
0.0 0.0 -5.316332862614e+01 
-6.373729010606e+01 3.574927515202e+00 0.0 
3.574927515202e+00 -1.105426068926e+02 0.0 
0.0 0.0 -5.188396909960e+01 
-5.885114881084e+01 2.441592567386e+00 0.0 
2.441592567386e+00 -1.008955960451e+02 0.0 
0.0 0.0 -4.752402345678e+01 
-2.532282246829e+01 -1.215233455714e+00 0.0 
-1.215233455714e+00 -6.888342678261e+01 0.0 
0.0 0.0 -2.786187477527e+01 
-2.613343944680e+01 -3.011021170680e+00 0.0 
-3.011021170680e+00 -6.622358269151e+01 0.0 
0.0 0.0 -2.730710664149e+01 
-8.573849776787e+01 7.780659414084e+00 0.0 
7.780659414084e+00 -1.720208270922e+02 0.0 
0.0 0.0 -7.692779745803e+01 
-3.405879696040e+01 1.092433544684e+01 0.0 
1.092433544684e+01 -1.014724736932e+02 0.0 
0.0 0.0 -4.025938119608e+01 
-3.166176257353e+01 1.249923406547e+01 0.0 
1.249923406547e+01 -8.863938881830e+01 0.0 
0.0 0.0 -3.569034541755e+01 
-2.428294227575e+01 2.204941246470e+00 0.0 
2.204941246470e+00 -5.992894640396e+01 0.0 
0.0 0.0 -2.486356660391e+01 
-2.302154314701e+01 4.985942992063e-01 0.0 
4.985942992063e-01 -5.162847152630e+01 0.0 
0.0 0.0 -2.199500440199e+01 
-7.240102860033e+01 1.605293294287e+00 0.0 
1.605293294287e+00 -1.454980967065e+02 0.0 
0.0 0.0 -6.496973759206e+01 
-7.943770601399e+01 2.097118214186e+00 0.0 
2.097118214186e+00 -1.657244209955e+02 0.0 
0.0 0.0 -7.314863810286e+01 
-7.743820511992e+01 1.309973828022e-01 0.0 
1.309973828022e-01 -2.107573557102e+02 0.0 
0.0 0.0 -8.605866824905e+01 
-8.133572326397e+01 2.871990736020e-01 0.0 
2.871990736020e-01 -2.194852665893e+02 0.0 
0.0 0.0 -8.984629695598e+01 
-1.193192842764e+02 1.063816219847e+01 0.0 
1.063816219847e+01 -3.082733950210e+02 0.0 
0.0 0.0 -1.278778037892e+02 
-3.044063428325e+01 -2.958226249754e+00 0.0 
-2.958226249754e+00 -8.274302308753e+01 0.0 
0.0 0.0 -3.355509721123e+01 
-8.305571157495e+01 3.032041346776e+00 0.0 
3.032041346776e+00 -1.755211460687e+02 0.0 
0.0 0.0 -7.717305729310e+01 
-9.839353144217e+01 1.015572987984e+01 0.0 
1.015572987984e+01 -2.686992156672e+02 0.0 
0.0 0.0 -1.097278241328e+02 
-8.941098315931e+01 8.867947906727e+00 0.0 
8.867947906727e+00 -2.503588762724e+02 0.0 
0.0 0.0 -1.015309578295e+02 
-6.932493712745e+01 -3.790337185119e-01 0.0 
-3.790337185119e-01 -1.889952788002e+02 0.0 
0.0 0.0 -7.709606477830e+01 
-2.672993766944e+01 1.019364286312e+01 0.0 
1.019364286312e+01 -6.814356801338e+01 0.0 
0.0 0.0 -2.806205170485e+01 
-2.533160502627e+01 8.099173758849e+00 0.0 
8.099173758849e+00 -6.347558063749e+01 0.0 
0.0 0.0 -2.624215569913e+01 
-4.446790350440e+01 -1.054021332620e+00 0.0 
-1.054021332620e+00 -1.332981006750e+02 0.0 
0.0 0.0 -5.292980125382e+01 
-3.616077018494e+01 -2.756079592891e+00 0.0 
-2.756079592891e+00 -1.022240624623e+02 0.0 
0.0 0.0 -4.111544979417e+01 
-3.585804624404e+01 -9.690821676675e-01 0.0 
-9.690821676675e-01 -9.886143504861e+01 0.0 
0.0 0.0 -4.001584438779e+01 
-1.296388452858e+02 1.182039657894e+01 0.0 
1.182039657894e+01 -3.266681390970e+02 0.0 
0.0 0.0 -1.364920953149e+02 
-8.970311085137e+01 9.525737550347e+00 0.0 
9.525737550347e+00 -1.823314211507e+02 0.0 
0.0 0.0 -8.121035960061e+01 
-1.012393716237e+02 2.272805172319e+01 0.0 
2.272805172319e+01 -2.565104647787e+02 0.0 
0.0 0.0 -1.069249509207e+02 
-9.229497478632e+01 2.170705818079e+01 0.0 
2.170705818079e+01 -2.380186215028e+02 0.0 
0.0 0.0 -9.869407888675e+01 
-1.105105198915e+02 2.389827493009e+01 0.0 
2.389827493009e+01 -2.751349538830e+02 0.0 
0.0 0.0 -1.152936421323e+02 
-2.521792588073e+01 -2.891086927749e+00 0.0 
-2.891086927749e+00 -6.329045811012e+01 0.0 
0.0 0.0 -2.615251519725e+01 
-1.304283406624e+02 9.650797873135e+00 0.0 
9.650797873135e+00 -3.279537403360e+02 0.0 
0.0 0.0 -1.371146242995e+02 
-1.202842814492e+02 1.489469748597e+00 0.0 
1.489469748597e+00 -3.040721732212e+02 0.0 
0.0 0.0 -1.269069364011e+02 
-1.074710912300e+02 2.615605469407e+01 0.0 
2.615605469407e+01 -2.540729333041e+02 0.0 
0.0 0.0 -1.080632073602e+02 
-1.032608526628e+02 2.582591646179e+01 0.0 
2.582591646179e+01 -2.397699581285e+02 0.0 
0.0 0.0 -1.025092432374e+02 
-3.598195502808e+01 1.297879814216e+01 0.0 
1.297879814216e+01 -1.055327237693e+02 0.0 
0.0 0.0 -4.205440363923e+01 
-3.351844996452e+01 1.446061507897e+01 0.0 
1.446061507897e+01 -9.222275413737e+01 0.0 
0.0 0.0 -3.732236123057e+01 
-2.969176887253e+01 1.409781522130e+01 0.0 
1.409781522130e+01 -7.518897434761e+01 0.0 
0.0 0.0 -3.106422296604e+01 
-3.133129721607e+01 1.580557815849e+01 0.0 
1.580557815849e+01 -7.807310021930e+01 0.0 
0.0 0.0 -3.242131923061e+01 
-6.502666156011e+01 1.735303754417e+01 0.0 
1.735303754417e+01 -1.045339174844e+02 0.0 
0.0 0.0 -5.046817371335e+01 
-3.819551580224e+01 1.497720169504e+01 0.0 
1.497720169504e+01 -1.093632460961e+02 0.0 
0.0 0.0 -4.386762856950e+01 
-6.108218968399e+01 2.228324013446e+01 0.0 
2.228324013446e+01 -1.131681575613e+02 0.0 
0.0 0.0 -5.187510417359e+01 
-5.734059989218e+01 2.076742877375e+01 0.0 
2.076742877375e+01 -9.568339885166e+01 0.0 
0.0 0.0 -4.550719962315e+01 
-5.334773797211e+01 2.186271523780e+01 0.0 
2.186271523780e+01 -9.303719484960e+01 0.0 
0.0 0.0 -4.351547984651e+01 
-4.609978141580e+01 2.186388152662e+01 0.0 
2.186388152662e+01 -1.050929398710e+02 0.0 
0.0 0.0 -4.495781638605e+01 
-4.269719076765e+01 2.199942565417e+01 0.0 
2.199942565417e+01 -8.818156955171e+01 0.0 
0.0 0.0 -3.886362809581e+01 
-4.214307644661e+01 1.027470840466e+01 0.0 
1.027470840466e+01 -1.310070445353e+02 0.0 
0.0 0.0 -5.154503629458e+01 
-7.378542722997e+01 1.322634461060e+01 0.0 
1.322634461060e+01 -2.133910909281e+02 0.0 
0.0 0.0 -8.575295544742e+01 
-7.348365485857e+01 -3.626680887046e-02 0.0 
-3.626680887046e-02 -2.020831470340e+02 0.0 
0.0 0.0 -8.227004056778e+01 
-9.376156511919e+01 1.811701749239e+00 0.0 
1.811701749239e+00 -2.507298658522e+02 0.0 
0.0 0.0 -1.029474292914e+02 
-8.350342152123e+01 4.070998259891e+00 0.0 
4.070998259891e+00 -2.346046262138e+02 0.0 
0.0 0.0 -9.503241432051e+01 
-8.431771296922e+01 5.956996488719e+00 0.0 
5.956996488719e+00 -1.724494738189e+02 0.0 
0.0 0.0 -7.663015603643e+01 
-8.708092978604e+01 5.663232647979e+00 0.0 
5.663232647979e+00 -1.834237640158e+02 0.0 
0.0 0.0 -8.075140814056e+01 
-5.795404372923e+01 1.726701774660e+00 0.0 
1.726701774660e+00 -1.024446025531e+02 0.0 
0.0 0.0 -4.771959388470e+01 
-5.367812377742e+01 1.130253398091e+00 0.0 
1.130253398091e+00 -9.325028310494e+01 0.0 
0.0 0.0 -4.367852206471e+01 
-2.798900423545e+01 -2.329318837982e+00 0.0 
-2.329318837982e+00 -7.568999872988e+01 0.0 
0.0 0.0 -3.070370088960e+01 
-2.542316607219e+01 -2.513464376433e+00 0.0 
-2.513464376433e+00 -6.727859553255e+01 0.0 
0.0 0.0 -2.741052848142e+01 
-8.070087400536e+01 1.800493335047e+00 0.0 
1.800493335047e+00 -2.243425494839e+02 0.0 
0.0 0.0 -9.111302704678e+01 
-1.253943722048e+02 8.129449752745e+00 0.0 
8.129449752745e+00 -3.185703006683e+02 0.0 
0.0 0.0 -1.327894018619e+02 
-9.141042009651e+01 1.189615408326e+01 0.0 
1.189615408326e+01 -1.831086231956e+02 0.0 
0.0 0.0 -8.195571298763e+01 
-9.533120663049e+01 1.408824994741e+01 0.0 
1.408824994741e+01 -1.948419130635e+02 0.0 
0.0 0.0 -8.665193590820e+01 
-9.348783908445e+01 1.472717961092e+01 0.0 
1.472717961092e+01 -1.858880348163e+02 0.0 
0.0 0.0 -8.341276217021e+01 
-1.238669499421e+02 1.234848220682e+01 0.0 
1.234848220682e+01 -3.163985308800e+02 0.0 
0.0 0.0 -1.316796442466e+02 
-4.681523863971e+01 5.972657120575e+00 0.0 
5.972657120575e+00 -1.474865883756e+02 0.0 
0.0 0.0 -5.789054810460e+01 
-7.969451264060e+01 9.910657024396e+00 0.0 
9.910657024396e+00 -2.294381384269e+02 0.0 
0.0 0.0 -9.233979532024e+01 
-2.469703990357e+01 -4.850347301082e-01 0.0 
-4.850347301082e-01 -6.078360963509e+01 0.0 
0.0 0.0 -2.524419486160e+01 
-7.562334522419e+01 2.013497116068e+01 0.0 
2.013497116068e+01 -2.017609956808e+02 0.0 
0.0 0.0 -8.281530227149e+01 
-2.167423717273e+01 -2.101390099088e+00 0.0 
-2.101390099088e+00 -5.613811793339e+01 0.0 
0.0 0.0 -2.294370653184e+01 
-8.747066823226e+01 2.409189430201e+01 0.0 
2.409189430201e+01 -1.894840645038e+02 0.0 
0.0 0.0 -8.268641982083e+01 
-1.299524376511e+02 1.730238995781e+00 0.0 
1.730238995781e+00 -3.230321675933e+02 0.0 
0.0 0.0 -1.354953815733e+02 
-1.350919418476e+02 2.492358238408e+00 0.0 
2.492358238408e+00 -3.331578105181e+02 0.0 
0.0 0.0 -1.400749257097e+02 
-1.181888595854e+02 2.179665396915e+01 0.0 
2.179665396915e+01 -2.975220867639e+02 0.0 
0.0 0.0 -1.243132839048e+02 
-5.215387693769e+01 1.239119892388e+01 0.0 
1.239119892388e+01 -6.765290856285e+01 0.0 
0.0 0.0 -3.554203565016e+01 
-7.991616668205e+01 1.936657331694e+01 0.0 
1.936657331694e+01 -2.154622161601e+02 0.0 
0.0 0.0 -8.821351485263e+01 
-7.618792509277e+01 1.769624384804e+01 0.0 
1.769624384804e+01 -2.109744799778e+02 0.0 
0.0 0.0 -8.574872152116e+01 
-4.945603753723e+01 2.010166313208e+01 0.0 
2.010166313208e+01 -7.501797739329e+01 0.0 
0.0 0.0 -3.694220447916e+01 
-4.573807358997e+01 2.118313932133e+01 0.0 
2.118313932133e+01 -7.294254501274e+01 0.0 
0.0 0.0 -3.520418558081e+01 
-4.950624249896e+01 2.239017783700e+01 0.0 
2.239017783700e+01 -9.104002586199e+01 0.0 
0.0 0.0 -4.176388050828e+01 
-4.241213313983e+01 2.173829533972e+01 0.0 
2.173829533972e+01 -7.162347617518e+01 0.0 
0.0 0.0 -3.381068279450e+01 
-4.781692129684e+01 -1.092035999637e+00 0.0 
-1.092035999637e+00 -1.420585300098e+02 0.0 
0.0 0.0 -5.656263539200e+01 
-4.500350974025e+01 -1.811539663475e+00 0.0 
-1.811539663475e+00 -1.318743909507e+02 0.0 
0.0 0.0 -5.266337020729e+01 
-1.133611954712e+02 2.672354599009e+01 0.0 
2.672354599009e+01 -2.709855012431e+02 0.0 
0.0 0.0 -1.149040090143e+02 
-1.140588265833e+02 2.532415966153e+01 0.0 
2.532415966153e+01 -2.793481232270e+02 0.0 
0.0 0.0 -1.176220849431e+02 
-1.109042507518e+02 2.707158368908e+01 0.0 
2.707158368908e+01 -2.586008467698e+02 0.0 
0.0 0.0 -1.104515292565e+02 
-1.069812870044e+02 2.640153375794e+01 0.0 
2.640153375794e+01 -2.444703690706e+02 0.0 
0.0 0.0 -1.050354968225e+02 
-1.242054913895e+02 2.140095249233e+01 0.0 
2.140095249233e+01 -3.101297674319e+02 0.0 
0.0 0.0 -1.299005776464e+02 
-1.196370697176e+02 1.945525033129e+01 0.0 
1.945525033129e+01 -3.039709436095e+02 0.0 
0.0 0.0 -1.266824039981e+02 
-4.269895923828e+01 -8.647055321388e-01 0.0 
-8.647055321388e-01 -1.181941246323e+02 0.0 
0.0 0.0 -4.786792516118e+01 
-3.672858747288e+01 2.114883028772e+01 0.0 
2.114883028772e+01 -6.978976610481e+01 0.0 
0.0 0.0 -3.155550607331e+01 
-9.205070329347e+01 9.098011078202e+00 0.0 
9.098011078202e+00 -1.926851734523e+02 0.0 
0.0 0.0 -8.502076302372e+01 
-5.323587907910e+01 1.829511592648e+01 0.0 
1.829511592648e+01 -7.802028411715e+01 0.0 
0.0 0.0 -3.897684895887e+01 
-1.356942017948e+02 9.059789139549e+00 0.0 
9.059789139549e+00 -3.368460246810e+02 0.0 
0.0 0.0 -1.413620679427e+02 
-1.306938190131e+02 7.660221570468e+00 0.0 
7.660221570468e+00 -3.278016188239e+02 0.0 
0.0 0.0 -1.371486313511e+02 
-2.209008542664e+01 -6.621333110743e-01 0.0 
-6.621333110743e-01 -4.264785547813e+01 0.0 
0.0 0.0 -1.902138227143e+01 
-2.314145644679e+01 -1.598706749307e+00 0.0 
-1.598706749307e+00 -5.083342180971e+01 0.0 
0.0 0.0 -2.179246347695e+01 
-8.630349480841e+01 2.603223915287e+00 0.0 
2.603223915287e+00 -1.864145507379e+02 0.0 
0.0 0.0 -8.141541366390e+01 
-2.827714032416e+01 1.555500767828e+01 0.0 
1.555500767828e+01 -6.089580037284e+01 0.0 
0.0 0.0 -2.635188220910e+01 
-2.949068621286e+01 1.687280369457e+01 0.0 
1.687280369457e+01 -6.265695310692e+01 0.0 
0.0 0.0 -2.724429179593e+01 
-2.689575908379e+01 1.398630581532e+01 0.0 
1.398630581532e+01 -5.856649663443e+01 0.0 
0.0 0.0 -2.523867671547e+01 
-1.506916248706e+02 6.949173453893e-01 0.0 
6.949173453893e-01 -3.615703137661e+02 0.0 
0.0 0.0 -1.532785815910e+02 
-3.640507429392e+01 1.668806194420e-02 0.0 
1.668806194420e-02 -5.517051769661e+01 0.0 
0.0 0.0 -2.707267759716e+01 
-1.399443244358e+02 1.940573134040e+00 0.0 
1.940573134040e+00 -3.418800661658e+02 0.0 
0.0 0.0 -1.441473171805e+02 
-4.948040304175e+01 2.262294526854e+01 0.0 
2.262294526854e+01 -1.068153686312e+02 0.0 
0.0 0.0 -4.648873150189e+01 
-8.986687020601e+01 3.591756817447e+00 0.0 
3.591756817447e+00 -1.963674826518e+02 0.0 
0.0 0.0 -8.547030585733e+01 
-8.450905549258e+01 1.863583850635e+01 0.0 
1.863583850635e+01 -2.288763139012e+02 0.0 
0.0 0.0 -9.361561081815e+01 
-4.669117894464e+01 1.751686462035e+01 0.0 
1.751686462035e+01 -1.309046437951e+02 0.0 
0.0 0.0 -5.287874682191e+01 
-1.137248361901e+02 1.110239563770e+01 0.0 
1.110239563770e+01 -2.980709383825e+02 0.0 
0.0 0.0 -1.231387323718e+02 
-8.247194885973e+01 1.735399709123e+00 0.0 
1.735399709123e+00 -1.754804720810e+02 0.0 
0.0 0.0 -7.698572628221e+01 
-8.958319378769e+01 2.016212895355e+00 0.0 
2.016212895355e+00 -1.978045991837e+02 0.0 
0.0 0.0 -8.581633789140e+01 
-5.528751550941e+01 2.250532231387e+00 0.0 
2.250532231387e+00 -9.034739276859e+01 0.0 
0.0 0.0 -4.329047248340e+01 
-5.004765930020e+01 1.457879773192e+00 0.0 
1.457879773192e+00 -8.035606838120e+01 0.0 
0.0 0.0 -3.872111830442e+01 
-6.011404767614e+01 3.443593542617e+00 0.0 
3.443593542617e+00 -9.950010439167e+01 0.0 
0.0 0.0 -4.748424562034e+01 
-2.549589630367e+01 4.101404753598e+00 0.0 
4.101404753598e+00 -6.739261485349e+01 0.0 
0.0 0.0 -2.746655334715e+01 
-2.238377980548e+01 4.115806006202e+00 0.0 
4.115806006202e+00 -4.846025352830e+01 0.0 
0.0 0.0 -2.085321000013e+01 
-8.339103404719e+01 4.402951790427e+00 0.0 
4.402951790427e+00 -1.737531272545e+02 0.0 
0.0 0.0 -7.674324839051e+01 
-5.084770700724e+01 -1.182718453008e+00 0.0 
-1.182718453008e+00 -1.412596837558e+02 0.0 
0.0 0.0 -5.723221722893e+01 
-5.484018724186e+01 -8.962501344142e-01 0.0 
-8.962501344142e-01 -1.519671246251e+02 0.0 
0.0 0.0 -6.164219356008e+01 
-3.282434398314e+01 -2.858581413635e+00 0.0 
-2.858581413635e+00 -9.075812747632e+01 0.0 
0.0 0.0 -3.667474143784e+01 
-3.883413048535e+01 -2.607117037107e+00 0.0 
-2.607117037107e+00 -1.101662961191e+02 0.0 
0.0 0.0 -4.430012798134e+01 
-8.143615979880e+01 5.597472988714e-01 0.0 
5.597472988714e-01 -2.213603114862e+02 0.0 
0.0 0.0 -9.043894138550e+01 
-7.737086885588e+01 4.438165428305e-01 0.0 
4.438165428305e-01 -2.126817545661e+02 0.0 
0.0 0.0 -8.661578702660e+01 
-9.133539434869e+01 2.463779163050e+01 0.0 
2.463779163050e+01 -2.052203274282e+02 0.0 
0.0 0.0 -8.856671653307e+01 
-9.497441077195e+01 2.469261947360e+01 0.0 
2.469261947360e+01 -2.092968779128e+02 0.0 
0.0 0.0 -9.088138660543e+01 
-8.344941022744e+01 2.390498353778e+01 0.0 
2.390498353778e+01 -1.978312829460e+02 0.0 
0.0 0.0 -8.398420795202e+01 
-9.447420175635e+01 8.464880105986e+00 0.0 
8.464880105986e+00 -2.605714726185e+02 0.0 
0.0 0.0 -1.061137023124e+02 
-8.573574527016e+01 7.203410771319e+00 0.0 
7.203410771319e+00 -2.421653003069e+02 0.0 
0.0 0.0 -9.797031367313e+01 
-8.094745070881e+01 7.610375848794e+00 0.0 
7.610375848794e+00 -2.321528440249e+02 0.0 
0.0 0.0 -9.353008842012e+01 
-9.032943978033e+01 7.018116287507e+00 0.0 
7.018116287507e+00 -1.925694714482e+02 0.0 
0.0 0.0 -8.446967336856e+01 
-9.374559516737e+01 6.558959229025e+00 0.0 
6.558959229025e+00 -2.059159429652e+02 0.0 
0.0 0.0 -8.949846143978e+01 
-5.049363989965e+01 -1.273640567923e-01 0.0 
-1.273640567923e-01 -1.517432073905e+02 0.0 
0.0 0.0 -6.027105418705e+01 
-4.696028177371e+01 2.525763761328e-02 0.0 
2.525763761328e-02 -1.427832382351e+02 0.0 
0.0 0.0 -5.652305600265e+01 
-5.118476735689e+01 -1.060940623205e+00 0.0 
-1.060940623205e+00 -1.504947728992e+02 0.0 
0.0 0.0 -6.010386207684e+01 
-9.563908126410e+01 1.088895977188e+01 0.0 
1.088895977188e+01 -2.031902782760e+02 0.0 
0.0 0.0 -8.924880786202e+01 
-1.449647639022e+02 2.720485457962e+00 0.0 
2.720485457962e+00 -3.516096031319e+02 0.0 
0.0 0.0 -1.485723101102e+02 
-1.402735550830e+02 3.377435681266e+00 0.0 
3.377435681266e+00 -3.431153139482e+02 0.0 
0.0 0.0 -1.446166607094e+02 
-1.948767706818e+01 -2.125706135781e+00 0.0 
-2.125706135781e+00 -4.792827667594e+01 0.0 
0.0 0.0 -1.982478612324e+01 
-2.292355086169e+01 -2.536366737871e+00 0.0 
-2.536366737871e+00 -5.869441540723e+01 0.0 
0.0 0.0 -2.408538988068e+01 
-2.429337955004e+01 1.028528634087e+01 0.0 
1.028528634087e+01 -5.216553394822e+01 0.0 
0.0 0.0 -2.253767404948e+01 
-2.302780992897e+01 8.222821599353e+00 0.0 
8.222821599353e+00 -4.794116985720e+01 0.0 
0.0 0.0 -2.089069393585e+01 
-9.881970782994e+01 1.627986212510e+01 0.0 
1.627986212510e+01 -2.065636669316e+02 0.0 
0.0 0.0 -9.121501242846e+01 
-9.747450179549e+01 1.705001965348e+01 0.0 
1.705001965348e+01 -1.987640289406e+02 0.0 
0.0 0.0 -8.847155922083e+01 
-1.010708773711e+02 1.573502433450e+01 0.0 
1.573502433450e+01 -2.173687405227e+02 0.0 
0.0 0.0 -9.513188536814e+01 
-3.831319910771e+01 -6.896036107436e-01 0.0 
-6.896036107436e-01 -1.056476405622e+02 0.0 
0.0 0.0 -4.278825190097e+01 
-9.719825540713e+01 2.120615575386e+01 0.0 
2.120615575386e+01 -2.518077813963e+02 0.0 
0.0 0.0 -1.043018110410e+02 
-1.340467627212e+02 1.359754792781e+01 0.0 
1.359754792781e+01 -3.337990054139e+02 0.0 
0.0 0.0 -1.399537304405e+02 
-1.279850265077e+02 1.416951827715e+01 0.0 
1.416951827715e+01 -3.234759733282e+02 0.0 
0.0 0.0 -1.350382999507e+02 
-1.412821091216e+02 1.314299088783e+01 0.0 
1.314299088783e+01 -3.462891459141e+02 0.0 
0.0 0.0 -1.458713765107e+02 
-1.123369276950e+02 2.217595047728e+01 0.0 
2.217595047728e+01 -2.843769810448e+02 0.0 
0.0 0.0 -1.186141726220e+02 
-1.220452473103e+02 2.348356182230e+01 0.0 
2.348356182230e+01 -3.023506302008e+02 0.0 
0.0 0.0 -1.269187632533e+02 
-1.199530265780e+02 2.520821499434e+01 0.0 
2.520821499434e+01 -2.933739995608e+02 0.0 
0.0 0.0 -1.235981078416e+02 
-2.064817204151e+01 2.782545666867e-01 0.0 
2.782545666867e-01 -3.427355527089e+01 0.0 
0.0 0.0 -1.607651819372e+01 
-8.708658266529e+01 1.364982545481e+00 0.0 
1.364982545481e+00 -1.905663628384e+02 0.0 
0.0 0.0 -8.289588365111e+01 
-4.925485608955e+01 9.456540678972e-01 0.0 
9.456540678972e-01 -8.160131914220e+01 0.0 
0.0 0.0 -3.885685256953e+01 
-2.072212580994e+01 -4.588859626076e-01 0.0 
-4.588859626076e-01 -2.728412813791e+01 0.0 
0.0 0.0 -1.414226697531e+01 
-4.498631403058e+01 5.277258592942e-01 0.0 
5.277258592942e-01 -7.267642227561e+01 0.0 
0.0 0.0 -3.489882089186e+01 
-4.933036292624e+01 6.930523449085e-01 0.0 
6.930523449085e-01 -8.402025925545e+01 0.0 
0.0 0.0 -3.960518665451e+01 
-4.029188913165e+01 2.617575594781e-01 0.0 
2.617575594781e-01 -6.260600242108e+01 0.0 
0.0 0.0 -3.046936746582e+01 
-3.131498854602e+01 -7.021893039939e-01 0.0 
-7.021893039939e-01 -8.617897934325e+01 0.0 
0.0 0.0 -3.484819036678e+01 
-4.990855482048e+01 1.988681984741e+00 0.0 
1.988681984741e+00 -7.625570646162e+01 0.0 
0.0 0.0 -3.744927838463e+01 
-5.664910986665e+01 3.517521168348e+00 0.0 
3.517521168348e+00 -8.901601463441e+01 0.0 
0.0 0.0 -4.329953735032e+01 
-1.648329960138e+01 -2.036359377883e+00 0.0 
-2.036359377883e+00 -3.621731315277e+01 0.0 
0.0 0.0 -1.552079708502e+01 
-9.729479474516e+01 1.013756555798e+01 0.0 
1.013756555798e+01 -2.130439524262e+02 0.0 
0.0 0.0 -9.270162415140e+01 
-1.562554382970e+01 -1.651294262841e+00 0.0 
-1.651294262841e+00 -3.766358397045e+01 0.0 
0.0 0.0 -1.558530748290e+01 
-1.801400586117e+01 -1.593485127805e+00 0.0 
-1.593485127805e+00 -4.562249960472e+01 0.0 
0.0 0.0 -1.869095163977e+01 
-1.410961435516e+02 8.459760183059e+00 0.0 
8.459760183059e+00 -3.461846283219e+02 0.0 
0.0 0.0 -1.457842315620e+02 
-1.358706780343e+02 7.134060093236e+00 0.0 
7.134060093236e+00 -3.367585104370e+02 0.0 
0.0 0.0 -1.413887565414e+02 
-1.459923900073e+02 7.855160631887e+00 0.0 
7.855160631887e+00 -3.545504701564e+02 0.0 
0.0 0.0 -1.497628580491e+02 
-1.407055481305e+02 6.540939472848e+00 0.0 
6.540939472848e+00 -3.449562832530e+02 0.0 
0.0 0.0 -1.452985494150e+02 
-1.308065473164e+02 5.933646631018e+00 0.0 
5.933646631018e+00 -3.271067796104e+02 0.0 
0.0 0.0 -1.369739980780e+02 
-1.359576253190e+02 5.441038358542e+00 0.0 
5.441038358542e+00 -3.361728295720e+02 0.0 
0.0 0.0 -1.412391364673e+02 
-4.492673768535e+01 8.029223102694e-01 0.0 
8.029223102694e-01 -7.047053065177e+01 0.0 
0.0 0.0 -3.421918050113e+01 
-1.473737722011e+02 6.132415375603e+00 0.0 
6.132415375603e+00 -3.564742967980e+02 0.0 
0.0 0.0 -1.507544206997e+02 
-1.412931157122e+02 4.881461988911e+00 0.0 
4.881461988911e+00 -3.453740240709e+02 0.0 
0.0 0.0 -1.456001419349e+02 
-1.524458149456e+02 5.427213384340e+00 0.0 
5.427213384340e+00 -3.657388925929e+02 0.0 
0.0 0.0 -1.550554122615e+02 
-3.871172403273e+01 2.019362837822e+01 0.0 
2.019362837822e+01 -5.283227678270e+01 0.0 
0.0 0.0 -2.706320024463e+01 
-3.303802607469e+01 1.741033992798e+01 0.0 
1.741033992798e+01 -8.030668911710e+01 0.0 
0.0 0.0 -3.360341455754e+01 
-3.084274735727e+01 1.806339652674e+01 0.0 
1.806339652674e+01 -6.444465474991e+01 0.0 
0.0 0.0 -2.818622063215e+01 
-2.798424837503e+01 1.766587208390e+01 0.0 
1.766587208390e+01 -4.529445741534e+01 0.0 
0.0 0.0 -2.158361173711e+01 
-1.152511745238e+02 2.798938266068e+01 0.0 
2.798938266068e+01 -2.662192595001e+02 0.0 
0.0 0.0 -1.140411302072e+02 
-1.094521697208e+02 2.660005730979e+01 0.0 
2.660005730979e+01 -2.479488606821e+02 0.0 
0.0 0.0 -1.068203091209e+02 
-1.250054752424e+02 1.069550637710e+00 0.0 
1.069550637710e+00 -3.131764939745e+02 0.0 
0.0 0.0 -1.310545907651e+02 
-1.155033409601e+02 8.659594456076e-01 0.0 
8.659594456076e-01 -2.940278646555e+02 0.0 
0.0 0.0 -1.224593616847e+02 
-4.460633355237e+01 3.184175044131e-01 0.0 
3.184175044131e-01 -7.379152804316e+01 0.0 
0.0 0.0 -3.511935847866e+01 
-4.388672937362e+01 2.589076453406e-01 0.0 
2.589076453406e-01 -7.274634390306e+01 0.0 
0.0 0.0 -3.458992198300e+01 
-5.129081107835e+01 3.958058302181e-01 0.0 
3.958058302181e-01 -9.063114026187e+01 0.0 
0.0 0.0 -4.217658540207e+01 
-5.002343655221e+01 3.745773033784e-01 0.0 
3.745773033784e-01 -8.821232383679e+01 0.0 
0.0 0.0 -4.107072811670e+01 
-5.726120169379e+01 5.379771367895e-01 0.0 
5.379771367895e-01 -1.062480452391e+02 0.0 
0.0 0.0 -4.865277407986e+01 
-5.603742583067e+01 4.664256337300e-01 0.0 
4.664256337300e-01 -1.035132182437e+02 0.0 
0.0 0.0 -4.746519322231e+01 
-6.328526256788e+01 8.716763773657e-01 0.0 
8.716763773657e-01 -1.219815676198e+02 0.0 
0.0 0.0 -5.518004905631e+01 
-1.235064754876e+02 2.698480322592e+01 0.0 
2.698480322592e+01 -2.976599245627e+02 0.0 
0.0 0.0 -1.259499200151e+02 
-2.618554338420e+01 1.558198923070e+01 0.0 
1.558198923070e+01 -4.408071617106e+01 0.0 
0.0 0.0 -2.067987786658e+01 
-4.508257351705e+01 1.702186099200e+01 0.0 
1.702186099200e+01 -5.644429908698e+01 0.0 
0.0 0.0 -3.005806178121e+01 
-1.300650568521e+02 2.091369476132e+01 0.0 
2.091369476132e+01 -3.220113775898e+02 0.0 
0.0 0.0 -1.352229303326e+02 
-1.246404588499e+02 1.882809748523e+01 0.0 
1.882809748523e+01 -3.142519875655e+02 0.0 
0.0 0.0 -1.312677339246e+02 
-3.920889619926e+01 2.163281041813e+01 0.0 
2.163281041813e+01 -7.049901496012e+01 0.0 
0.0 0.0 -3.251237334781e+01 
-3.335177258953e+01 2.042604431859e+01 0.0 
2.042604431859e+01 -5.149860915517e+01 0.0 
0.0 0.0 -2.505511452341e+01 
-1.423052734547e+02 1.063954973427e+01 0.0 
1.063954973427e+01 -3.484545010816e+02 0.0 
0.0 0.0 -1.468279323609e+02 
-4.113191919035e+01 1.365185740513e+01 0.0 
1.365185740513e+01 -1.227094984928e+02 0.0 
0.0 0.0 -4.875242530495e+01 
-1.011413975572e+02 1.225731174947e+01 0.0 
1.225731174947e+01 -2.266480619920e+02 0.0 
0.0 0.0 -9.793683786476e+01 
-1.817636188329e+01 3.801407806414e+00 0.0 
3.801407806414e+00 -1.348079042697e+01 0.0 
0.0 0.0 -9.458851272179e+00 
-2.021263619530e+01 3.380561570638e+00 0.0 
3.380561570638e+00 -2.958870274565e+01 0.0 
0.0 0.0 -1.465269633712e+01 
-4.371058066717e+01 1.562582396484e+01 0.0 
1.562582396484e+01 -1.267845758423e+02 0.0 
0.0 0.0 -5.074854695285e+01 
-4.599977098501e+01 2.244496835459e+01 0.0 
2.244496835459e+01 -8.953367477683e+01 0.0 
0.0 0.0 -4.026003372855e+01 
-3.500832801243e+01 1.875295865673e+01 0.0 
1.875295865673e+01 -8.244849937633e+01 0.0 
0.0 0.0 -3.483704821663e+01 
-3.276827274490e+01 1.939981438204e+01 0.0 
1.939981438204e+01 -6.691149625232e+01 0.0 
0.0 0.0 -2.950393069917e+01 
-1.037740552748e+02 9.769585445980e+00 0.0 
9.769585445980e+00 -2.792237727042e+02 0.0 
0.0 0.0 -1.144993483937e+02 
-2.121621481272e+01 -2.625038760446e+00 0.0 
-2.625038760446e+00 -5.097149802989e+01 0.0 
0.0 0.0 -2.125631385278e+01 
-2.566286917054e+01 1.226152795075e+01 0.0 
1.226152795075e+01 -5.582071050439e+01 0.0 
0.0 0.0 -2.404507390248e+01 
-6.457911541156e+01 1.048746890727e+00 0.0 
1.048746890727e+00 -1.242629440227e+02 0.0 
0.0 0.0 -5.625261783027e+01 
-2.397103073957e+01 1.267053843766e+01 0.0 
1.267053843766e+01 -3.997294631112e+01 0.0 
0.0 0.0 -1.878319311521e+01 
-1.206029650007e+02 4.774673250453e-01 0.0 
4.774673250453e-01 -3.041557921740e+02 0.0 
0.0 0.0 -1.270276271524e+02 
-4.455318806128e+01 1.239569382088e+01 0.0 
1.239569382088e+01 -1.359577481687e+02 0.0 
0.0 0.0 -5.375328086898e+01 
-5.295964563738e+01 2.238908248429e+01 0.0 
2.238908248429e+01 -1.234542947997e+02 0.0 
0.0 0.0 -5.252418213112e+01 
-2.816766980735e+01 1.221662266864e+01 0.0 
1.221662266864e+01 -7.198916728650e+01 0.0 
0.0 0.0 -2.964705112816e+01 
-3.567203243142e+01 1.634199405397e+01 0.0 
1.634199405397e+01 -9.570932386510e+01 0.0 
0.0 0.0 -3.901440688896e+01 
-6.907836148479e+01 1.982951789388e+01 0.0 
1.982951789388e+01 -1.207447078608e+02 0.0 
0.0 0.0 -5.654692080367e+01 
-6.047131774041e+01 1.424662685782e+01 0.0 
1.424662685782e+01 -8.912560568863e+01 0.0 
0.0 0.0 -4.447907702871e+01 
-5.702803609657e+01 1.619518529614e+01 0.0 
1.619518529614e+01 -8.299446089475e+01 0.0 
0.0 0.0 -4.160674909739e+01 
-4.813926150657e+01 1.116120708505e+01 0.0 
1.116120708505e+01 -1.484737690954e+02 0.0 
0.0 0.0 -5.858390918058e+01 
-3.448625746658e+01 2.030688124681e+01 0.0 
2.030688124681e+01 -6.841849088840e+01 0.0 
0.0 0.0 -3.047142450649e+01 
-2.994978970878e+01 1.924464835200e+01 0.0 
1.924464835200e+01 -4.775709022317e+01 0.0 
0.0 0.0 -2.291206397959e+01 
-6.465245301349e+01 2.316373145524e+01 0.0 
2.316373145524e+01 -1.303087836815e+02 0.0 
0.0 0.0 -5.808837100851e+01 
-9.143049941388e+01 1.536720603202e+01 0.0 
1.536720603202e+01 -1.773831742332e+02 0.0 
0.0 0.0 -8.024410209413e+01 
-9.532614540343e+01 1.765194710372e+01 0.0 
1.765194710372e+01 -1.904956948929e+02 0.0 
0.0 0.0 -8.534655208890e+01 
-1.009410609134e+02 1.922512185240e+01 0.0 
1.922512185240e+01 -2.112031170531e+02 0.0 
0.0 0.0 -9.324325338995e+01 
-9.921518260922e+01 1.987907680055e+01 0.0 
1.987907680055e+01 -2.041799334770e+02 0.0 
0.0 0.0 -9.061853482586e+01 
-9.312695399201e+01 1.844268490484e+01 0.0 
1.844268490484e+01 -1.829980201219e+02 0.0 
0.0 0.0 -8.243749223417e+01 
-9.700937760428e+01 2.060660501300e+01 0.0 
2.060660501300e+01 -1.971380617781e+02 0.0 
0.0 0.0 -8.784423181472e+01 
-1.028084477506e+02 2.189479900445e+01 0.0 
2.189479900445e+01 -2.180359224964e+02 0.0 
0.0 0.0 -9.585331107408e+01 
-1.010858355444e+02 2.257135410088e+01 0.0 
2.257135410088e+01 -2.123485429812e+02 0.0 
0.0 0.0 -9.363031355769e+01 
-1.079791224728e+02 2.432749939118e+01 0.0 
2.432749939118e+01 -2.365468107807e+02 0.0 
0.0 0.0 -1.029577799760e+02 
-1.048456473850e+02 2.442248396283e+01 0.0 
2.442248396283e+01 -2.272221955168e+02 0.0 
0.0 0.0 -9.922035287053e+01 
-9.803064196759e+01 2.303061130343e+01 0.0 
2.303061130343e+01 -2.055869887741e+02 0.0 
0.0 0.0 -9.068528922250e+01 
-1.016021904678e+02 2.446483185306e+01 0.0 
2.446483185306e+01 -2.201343134666e+02 0.0 
0.0 0.0 -9.612095118032e+01 
-1.081763102546e+02 2.587432784992e+01 0.0 
2.587432784992e+01 -2.401022761439e+02 0.0 
0.0 0.0 -1.040835759196e+02 
-9.474068921485e+01 2.349536140521e+01 0.0 
2.349536140521e+01 -1.993081874339e+02 0.0 
0.0 0.0 -8.781466299464e+01 
-1.347566910754e+02 2.286428036946e+01 0.0 
2.286428036946e+01 -3.279111355633e+02 0.0 
0.0 0.0 -1.384003479916e+02 
-5.007800791546e+01 1.633506485088e+01 0.0 
1.633506485088e+01 -1.446577546327e+02 0.0 
0.0 0.0 -5.802072876444e+01 
-2.186644400373e+01 1.791247856294e+00 0.0 
1.791247856294e+00 -4.242303579311e+01 0.0 
0.0 0.0 -1.888684393905e+01 
-2.105066927327e+01 5.528160497702e+00 0.0 
5.528160497702e+00 -3.622367142308e+01 0.0 
0.0 0.0 -1.678230220890e+01 
-5.665067143360e+01 2.306017213606e+01 0.0 
2.306017213606e+01 -1.255727826717e+02 0.0 
0.0 0.0 -5.426703623160e+01 
-1.122190195999e+02 2.528531576985e+01 0.0 
2.528531576985e+01 -2.543039777858e+02 0.0 
0.0 0.0 -1.095568992157e+02 
-1.085640796718e+02 2.153691012091e+01 0.0 
2.153691012091e+01 -2.439205206497e+02 0.0 
0.0 0.0 -1.053453800965e+02 
-3.684235551462e+01 9.466825385510e+00 0.0 
9.466825385510e+00 -1.137682470592e+02 0.0 
0.0 0.0 -4.478318077214e+01 
-1.237194555697e+02 3.004154595984e+01 0.0 
3.004154595984e+01 -2.887408459354e+02 0.0 
0.0 0.0 -1.233380904515e+02 
-6.133460710008e+01 1.914494490368e+01 0.0 
1.914494490368e+01 -9.950003877375e+01 0.0 
0.0 0.0 -4.785039376215e+01 
-2.898358849089e+01 4.570332463259e+00 0.0 
4.570332463259e+00 -8.469988577629e+01 0.0 
0.0 0.0 -3.370504228015e+01 
-1.285825589239e+02 2.984787003216e+01 0.0 
2.984787003216e+01 -3.032772218843e+02 0.0 
0.0 0.0 -1.291579342425e+02 
-8.913462765251e+01 1.612910247594e+01 0.0 
1.612910247594e+01 -1.691983341846e+02 0.0 
0.0 0.0 -7.709988855113e+01 
-8.648125082167e+01 1.703539496408e+01 0.0 
1.703539496408e+01 -1.612795056771e+02 0.0 
0.0 0.0 -7.392822694963e+01 
-8.230678721325e+01 1.459365133847e+01 0.0 
1.459365133847e+01 -1.476096299925e+02 0.0 
0.0 0.0 -6.857492516173e+01 
-1.057899201513e+02 1.803746116711e+01 0.0 
1.803746116711e+01 -2.375934840922e+02 0.0 
0.0 0.0 -1.026150212730e+02 
-6.530540640362e+01 4.990320244121e+00 0.0 
4.990320244121e+00 -1.097264269619e+02 0.0 
0.0 0.0 -5.210955000965e+01 
-1.378934404239e+02 2.665910435038e+01 0.0 
2.665910435038e+01 -3.290977208606e+02 0.0 
0.0 0.0 -1.396973483853e+02 
-8.206659577701e+01 1.436878200631e+01 0.0 
1.436878200631e+01 -2.313680729290e+02 0.0 
0.0 0.0 -9.363040061180e+01 
-7.724975439094e+01 1.511559319513e+01 0.0 
1.511559319513e+01 -2.189804818361e+02 0.0 
0.0 0.0 -8.846907086812e+01 
-6.922843798525e+01 1.406478965380e+01 0.0 
1.406478965380e+01 -2.011335932803e+02 0.0 
0.0 0.0 -8.070860937966e+01 
-9.427885589843e+01 2.127708181465e+01 0.0 
2.127708181465e+01 -1.903795268553e+02 0.0 
0.0 0.0 -8.499751482611e+01 
-1.448870006024e+02 2.084374215482e+01 0.0 
2.084374215482e+01 -3.479383734282e+02 0.0 
0.0 0.0 -1.474476122092e+02 
-1.363928253117e+02 1.876372345097e+01 0.0 
1.876372345097e+01 -3.353806889434e+02 0.0 
0.0 0.0 -1.411320542765e+02 
-1.379848424359e+02 1.745611170618e+01 0.0 
1.745611170618e+01 -3.388040443259e+02 0.0 
0.0 0.0 -1.426366660285e+02 
-1.273798085320e+02 1.671420534965e+01 0.0 
1.671420534965e+01 -3.210640182224e+02 0.0 
0.0 0.0 -1.341331480263e+02 
-1.481691428407e+02 1.783682762554e+01 0.0 
1.783682762554e+01 -3.554078541682e+02 0.0 
0.0 0.0 -1.506730991027e+02 
-1.171129457746e+02 2.813702632515e+01 0.0 
2.813702632515e+01 -2.686655940896e+02 0.0 
0.0 0.0 -1.153335619593e+02 
-1.194440592613e+02 2.915059436806e+01 0.0 
2.915059436806e+01 -2.759077521555e+02 0.0 
0.0 0.0 -1.182055434250e+02 
-4.120268160036e+01 -8.995813720540e-01 0.0 
-8.995813720540e-01 -1.243583086255e+02 0.0 
0.0 0.0 -4.926829706775e+01 
-4.355217206182e+01 3.315681063478e-01 0.0 
3.315681063478e-01 -1.337045125793e+02 0.0 
0.0 0.0 -5.277700539234e+01 
-4.944432252255e+01 1.347880538767e+00 0.0 
1.347880538767e+00 -1.517950851311e+02 0.0 
0.0 0.0 -5.997182229610e+01 
-4.586061311407e+01 1.771005602405e+00 0.0 
1.771005602405e+00 -1.423731928697e+02 0.0 
0.0 0.0 -5.607014179513e+01 
-4.022414925999e+01 7.802311943539e-01 0.0 
7.802311943539e-01 -1.242619152956e+02 0.0 
0.0 0.0 -4.894581936669e+01 
-4.238711015299e+01 2.322037709178e+00 0.0 
2.322037709178e+00 -1.326444215861e+02 0.0 
0.0 0.0 -5.210945952173e+01 
-4.817677062558e+01 3.390897705561e+00 0.0 
3.390897705561e+00 -1.504533220026e+02 0.0 
0.0 0.0 -5.918902778844e+01 
-3.904325341696e+01 3.056025569694e+00 0.0 
3.056025569694e+00 -1.226303711387e+02 0.0 
0.0 0.0 -4.810208736669e+01 
-1.024647555625e+02 2.553878267939e+01 0.0 
2.553878267939e+01 -2.290285665040e+02 0.0 
0.0 0.0 -9.904799661996e+01 
-1.510829928918e+02 1.488949180259e+01 0.0 
1.488949180259e+01 -3.616801548168e+02 0.0 
0.0 0.0 -1.534289443126e+02 
-9.199259635403e+01 5.227616929126e+00 0.0 
5.227616929126e+00 -2.532967501526e+02 0.0 
0.0 0.0 -1.031868039520e+02 
-8.706628272650e+01 5.426258490099e+00 0.0 
5.426258490099e+00 -2.435785452560e+02 0.0 
0.0 0.0 -9.879344839476e+01 
-7.882746410141e+01 4.223241805483e+00 0.0 
4.223241805483e+00 -2.250549922387e+02 0.0 
0.0 0.0 -9.076473690202e+01 
-6.959514558495e+01 -2.090468291863e-01 0.0 
-2.090468291863e-01 -1.933894258182e+02 0.0 
0.0 0.0 -7.849537142095e+01 
-7.332205291805e+01 3.033698952004e-01 0.0 
3.033698952004e-01 -2.039229043651e+02 0.0 
0.0 0.0 -8.277348718496e+01 
-8.122972066843e+01 1.062415056097e+00 0.0 
1.062415056097e+00 -2.230876717146e+02 0.0 
0.0 0.0 -9.089521771492e+01 
-6.581280371793e+01 -5.667883381654e-01 0.0 
-5.667883381654e-01 -1.826724339734e+02 0.0 
0.0 0.0 -7.414557130741e+01 
-8.777173213290e+01 2.220622139749e+01 0.0 
2.220622139749e+01 -2.239193041679e+02 0.0 
0.0 0.0 -9.310731089023e+01 
-1.521298109874e+02 1.356598886977e+01 0.0 
1.356598886977e+01 -3.638131548124e+02 0.0 
0.0 0.0 -1.543828897400e+02 
-8.450301006458e+01 9.354057739885e+00 0.0 
9.354057739885e+00 -2.400360340330e+02 0.0 
0.0 0.0 -9.696171322927e+01 
-6.928692308259e+01 1.430464103537e-01 0.0 
1.430464103537e-01 -1.950811226559e+02 0.0 
0.0 0.0 -7.891041372156e+01 
-4.355441460030e+01 2.426493616710e+00 0.0 
2.426493616710e+00 -5.787570388352e+01 0.0 
0.0 0.0 -3.002903554515e+01 
-5.332292193582e+01 4.570554669509e+00 0.0 
4.570554669509e+00 -7.649097831849e+01 0.0 
0.0 0.0 -3.854417007629e+01 
-5.565142640113e+01 6.530517039830e+00 0.0 
6.530517039830e+00 -7.844142184745e+01 0.0 
0.0 0.0 -3.982785447457e+01 
-6.348053406298e+01 7.499910860620e+00 0.0 
7.499910860620e+00 -9.769775934439e+01 0.0 
0.0 0.0 -4.795348802221e+01 
-5.246877979384e+01 3.583729485258e+00 0.0 
3.583729485258e+00 -7.721752335178e+01 0.0 
0.0 0.0 -3.850589094369e+01 
-8.547483922677e+01 6.431092304293e-01 0.0 
6.431092304293e-01 -2.300146974352e+02 0.0 
0.0 0.0 -9.424686099859e+01 
-8.949273897282e+01 6.685143470565e-01 0.0 
6.685143470565e-01 -2.386127203600e+02 0.0 
0.0 0.0 -9.803163779983e+01 
-8.524802273037e+01 3.074805364469e-01 0.0 
3.074805364469e-01 -2.281574541927e+02 0.0 
0.0 0.0 -9.362164307693e+01 
-9.352376739872e+01 6.315665290756e-01 0.0 
6.315665290756e-01 -2.471445623980e+02 0.0 
0.0 0.0 -1.018004989390e+02 
-8.897757007339e+01 3.431983174419e-01 0.0 
3.431983174419e-01 -2.362549798861e+02 0.0 
0.0 0.0 -9.716976498785e+01 
-8.147548861884e+01 1.376798300494e-01 0.0 
1.376798300494e-01 -2.185690799043e+02 0.0 
0.0 0.0 -8.961337055694e+01 
-9.741612448623e+01 5.364171888343e-01 0.0 
5.364171888343e-01 -2.552756764950e+02 0.0 
0.0 0.0 -1.054075402944e+02 
-9.208652421885e+01 1.850785020208e-01 0.0 
1.850785020208e-01 -2.430826100813e+02 0.0 
0.0 0.0 -1.001507402900e+02 
-4.094239220437e+01 1.067390082922e+00 0.0 
1.067390082922e+00 -5.668169858359e+01 0.0 
0.0 0.0 -2.888722723639e+01 
-1.807388346159e+01 -1.293961418172e+00 0.0 
-1.293961418172e+00 -1.714212806755e+01 0.0 
0.0 0.0 -1.055466326494e+01 
-1.992228514889e+01 -2.219395318057e+00 0.0 
-2.219395318057e+00 -3.379892914573e+01 0.0 
0.0 0.0 -1.584430711388e+01 
-1.925059354199e+01 -2.252658368688e+00 0.0 
-2.252658368688e+00 -3.347846033456e+01 0.0 
0.0 0.0 -1.554726562615e+01 
-2.254602471341e+01 -2.687948488461e+00 0.0 
-2.687948488461e+00 -4.931935496236e+01 0.0 
0.0 0.0 -2.115961390273e+01 
-2.286315507466e+01 -2.353726399691e+00 0.0 
-2.353726399691e+00 -5.028802024381e+01 0.0 
0.0 0.0 -2.154535259554e+01 
-2.637528032781e+01 -2.524402541064e+00 0.0 
-2.524402541064e+00 -6.725421393657e+01 0.0 
0.0 0.0 -2.768884827931e+01 
-2.582230145878e+01 -1.926248431062e+00 0.0 
-1.926248431062e+00 -6.444175167940e+01 0.0 
0.0 0.0 -2.667921594145e+01 
-2.047122699228e+01 -1.852879396395e+00 0.0 
-1.852879396395e+00 -3.366999306645e+01 0.0 
0.0 0.0 -1.598279236801e+01 
-1.552701520084e+01 -1.397611023165e+00 0.0 
-1.397611023165e+00 -1.699919520472e+01 0.0 
0.0 0.0 -9.748569024920e+00 
-1.829238211237e+01 -2.285206646409e+00 0.0 
-2.285206646409e+00 -3.351416267124e+01 0.0 
0.0 0.0 -1.527872378279e+01 
-1.411136255620e+01 -1.355988192486e+00 0.0 
-1.355988192486e+00 -1.684544374394e+01 0.0 
0.0 0.0 -9.282243215186e+00 
-1.731960802117e+01 -2.251127236651e+00 0.0 
-2.251127236651e+00 -3.308292083448e+01 0.0 
0.0 0.0 -1.485560810043e+01 
-2.226563482308e+01 -2.833750752012e+00 0.0 
-2.833750752012e+00 -5.198632101495e+01 0.0 
0.0 0.0 -2.187558675141e+01 
-2.918106507371e+01 -2.743270073515e+00 0.0 
-2.743270073515e+00 -7.888494001878e+01 0.0 
0.0 0.0 -3.201980152775e+01 
-1.559820449320e+02 3.020488830482e+00 0.0 
3.020488830482e+00 -3.714108782399e+02 0.0 
0.0 0.0 -1.578178769516e+02 
-6.943626397517e+01 -1.266220012689e-01 0.0 
-1.266220012689e-01 -1.886980918673e+02 0.0 
0.0 0.0 -7.704030675274e+01 
-6.556395780742e+01 -3.597442995164e-01 0.0 
-3.597442995164e-01 -1.792073712397e+02 0.0 
0.0 0.0 -7.303139871413e+01 
-5.841320398751e+01 -4.864768465104e-01 0.0 
-4.864768465104e-01 -1.602403297701e+02 0.0 
0.0 0.0 -6.519606012729e+01 
-6.213435478089e+01 -4.949524852406e-01 0.0 
-4.949524852406e-01 -1.704648680355e+02 0.0 
0.0 0.0 -6.937976684492e+01 
-7.233249325427e+01 -2.249170943404e-01 0.0 
-2.249170943404e-01 -1.964596592973e+02 0.0 
0.0 0.0 -8.023764576549e+01 
-5.452014741271e+01 -3.010369449973e-01 0.0 
-3.010369449973e-01 -1.497731578915e+02 0.0 
0.0 0.0 -6.088799159128e+01 
-5.188371678173e+01 -6.023148161017e-01 0.0 
-6.023148161017e-01 -1.427224136917e+02 0.0 
0.0 0.0 -5.798183914202e+01 
-6.236175432423e+00 -2.836682442465e-01 0.0 
-2.836682442465e-01 -1.721038808204e+01 0.0 
0.0 0.0 -7.021856384091e+00 
-1.209501761419e+01 -4.059778596793e-01 0.0 
-4.059778596793e-01 -3.383722207183e+01 0.0 
0.0 0.0 -1.348363217889e+01 
-1.142757385253e+01 -3.497828462451e-01 0.0 
-3.497828462451e-01 -3.218200268915e+01 0.0 
0.0 0.0 -1.271733975022e+01 
-1.807251886460e+01 -4.878529655275e-01 0.0 
-4.878529655275e-01 -5.066779818010e+01 0.0 
0.0 0.0 -2.022209511341e+01 
-1.832793031786e+01 -7.056562306087e-01 0.0 
-7.056562306087e-01 -5.032116620676e+01 0.0 
0.0 0.0 -2.019472895738e+01 
-1.259227826367e+01 -6.770365422920e-01 0.0 
-6.770365422920e-01 -3.414785171000e+01 0.0 
0.0 0.0 -1.374922054115e+01 
-1.286664435633e+01 -9.297931495830e-01 0.0 
-9.297931495830e-01 -3.414288263920e+01 0.0 
0.0 0.0 -1.383651218861e+01 
-7.129816620502e+00 -5.632530131282e-01 0.0 
-5.632530131282e-01 -1.707330339085e+01 0.0 
0.0 0.0 -7.255514608055e+00 
-1.319104313895e+01 -1.062378187556e+00 0.0 
-1.062378187556e+00 -3.400077684152e+01 0.0 
0.0 0.0 -1.391891086921e+01 
-1.903950605701e+01 -1.310152767296e+00 0.0 
-1.310152767296e+00 -5.111802214476e+01 0.0 
0.0 0.0 -2.064725846053e+01 
-7.613685618023e+00 -6.631768646113e-01 0.0 
-6.631768646113e-01 -1.648804088797e+01 0.0 
0.0 0.0 -7.242254971758e+00 
-7.265094043236e+01 5.644759433199e-01 0.0 
5.644759433199e-01 -1.483792407650e+02 0.0 
0.0 0.0 -6.590905435920e+01 
-7.648051808239e+01 1.099702831240e+00 0.0 
1.099702831240e+00 -1.592839958638e+02 0.0 
0.0 0.0 -7.032935418385e+01 
-1.532789950497e+02 1.088212471222e+01 0.0 
1.088212471222e+01 -3.665212340862e+02 0.0 
0.0 0.0 -1.555400687408e+02 
-4.015639887483e+01 6.050632578436e-01 0.0 
6.050632578436e-01 -5.844405547138e+01 0.0 
0.0 0.0 -2.918013630386e+01 
-1.173311750592e+01 -1.152324632767e+00 0.0 
-1.152324632767e+00 -1.713208919914e+01 0.0 
0.0 0.0 -8.643725655358e+00 
-9.677101333727e+01 4.186707122902e+00 0.0 
4.186707122902e+00 -2.200531062248e+02 0.0 
0.0 0.0 -9.464723586862e+01 
-9.931791283748e+01 7.907292679597e+00 0.0 
7.907292679597e+00 -2.251705237722e+02 0.0 
0.0 0.0 -9.694653098290e+01 
-9.879837774482e+01 6.578059620411e+00 0.0 
6.578059620411e+00 -2.247545457585e+02 0.0 
0.0 0.0 -9.666587705101e+01 
-1.403943455746e+02 6.229332322619e-01 0.0 
6.229332322619e-01 -3.426928228827e+02 0.0 
0.0 0.0 -1.445261505372e+02 
-1.453796982258e+02 1.338368672750e+00 0.0 
1.338368672750e+00 -3.519785810726e+02 0.0 
0.0 0.0 -1.488074837895e+02 
-9.634527636648e+01 2.307682977879e+00 0.0 
2.307682977879e+00 -2.201300781665e+02 0.0 
0.0 0.0 -9.454260635990e+01 
-4.460251835435e+01 -2.142665213440e+00 0.0 
-2.142665213440e+00 -1.261578100243e+02 0.0 
0.0 0.0 -5.082809851359e+01 
-1.050460009366e+02 2.144716096512e+01 0.0 
2.144716096512e+01 -2.247924335098e+02 0.0 
0.0 0.0 -9.855153033391e+01 
-8.634085237826e+01 4.030262455024e+00 0.0 
4.030262455024e+00 -1.846959997317e+02 0.0 
0.0 0.0 -8.091105563300e+01 
-2.702769882075e+01 6.193629016924e+00 0.0 
6.193629016924e+00 -7.437079999198e+01 0.0 
0.0 0.0 -3.001954964382e+01 
-4.205277593974e+01 -2.309884565140e+00 0.0 
-2.309884565140e+00 -1.213061659271e+02 0.0 
0.0 0.0 -4.860768256007e+01 
-1.110369576114e+02 1.191323847724e+00 0.0 
1.191323847724e+00 -2.850859230604e+02 0.0 
0.0 0.0 -1.184368642015e+02 
-9.799842805169e+01 2.608745909696e+00 0.0 
2.608745909696e+00 -2.609992228318e+02 0.0 
0.0 0.0 -1.072992952651e+02 
-1.304084855314e+02 2.971011430737e+00 0.0 
2.971011430737e+00 -3.246171486976e+02 0.0 
0.0 0.0 -1.361076902687e+02 
-1.023965284560e+02 1.623229445227e+00 0.0 
1.623229445227e+00 -2.679369849810e+02 0.0 
0.0 0.0 -1.107000540311e+02 
-1.210594833998e+02 3.792031947162e+00 0.0 
3.792031947162e+00 -3.074791238741e+02 0.0 
0.0 0.0 -1.281615821822e+02 
-1.387132171688e+02 1.566592742171e+01 0.0 
1.566592742171e+01 -3.411725477564e+02 0.0 
0.0 0.0 -1.435657294776e+02 
-2.909500618161e+01 -9.618003669343e-01 0.0 
-9.618003669343e-01 -7.956554085516e+01 0.0 
0.0 0.0 -3.219816411103e+01 
-6.241354325977e+01 2.559942933977e+00 0.0 
2.559942933977e+00 -1.115823391071e+02 0.0 
0.0 0.0 -5.179876471007e+01 
-5.750475423015e+01 1.229239498229e+00 0.0 
1.229239498229e+00 -1.040342590070e+02 0.0 
0.0 0.0 -4.806170397114e+01 
-7.660868487588e+01 3.557974291313e+00 0.0 
3.557974291313e+00 -1.534898830337e+02 0.0 
0.0 0.0 -6.862957037288e+01 
-4.746684263610e+01 -1.507352321885e+00 0.0 
-1.507352321885e+00 -1.324330734525e+02 0.0 
0.0 0.0 -5.356997482658e+01 
-7.748939973932e+01 4.903295848508e-02 0.0 
4.903295848508e-02 -2.095767036758e+02 0.0 
0.0 0.0 -8.571983102454e+01 
-3.071912406131e+01 -2.112979852492e+00 0.0 
-2.112979852492e+00 -8.438151062889e+01 0.0 
0.0 0.0 -3.413019040706e+01 
-1.204293940392e+02 2.829600814655e+01 0.0 
2.829600814655e+01 -2.845994633410e+02 0.0 
0.0 0.0 -1.211086572141e+02 
-5.700874826118e+01 2.286733207968e+01 0.0 
2.286733207968e+01 -1.106100177506e+02 0.0 
0.0 0.0 -4.988562980354e+01 
-7.545211198543e+01 2.927798805603e+00 0.0 
2.927798805603e+00 -2.159158189296e+02 0.0 
0.0 0.0 -8.701037927450e+01 
-6.210359835312e+01 -8.205227943467e-01 0.0 
-8.205227943467e-01 -1.739308436873e+02 0.0 
0.0 0.0 -7.041033261212e+01 
-4.805867411844e+01 -1.946354857013e+00 0.0 
-1.946354857013e+00 -1.372195426921e+02 0.0 
0.0 0.0 -5.518346504317e+01 
-3.909126659686e+01 -2.421141657162e+00 0.0 
-2.421141657162e+00 -1.129290627274e+02 0.0 
0.0 0.0 -4.520609879729e+01 
-5.328461654657e+01 1.816736019198e+01 0.0 
1.816736019198e+01 -1.485870775271e+02 0.0 
0.0 0.0 -6.016150822210e+01 
-7.282790429663e+01 8.773660723258e-01 0.0 
8.773660723258e-01 -2.053428679725e+02 0.0 
0.0 0.0 -8.305123168074e+01 
-1.110043692878e+02 5.820175847714e+00 0.0 
5.820175847714e+00 -2.906310118820e+02 0.0 
0.0 0.0 -1.200906143509e+02 
-7.975129000634e+01 3.358004893568e+00 0.0 
3.358004893568e+00 -1.644402355757e+02 0.0 
0.0 0.0 -7.285745767460e+01 
-1.022128533552e+01 -1.103255566177e+00 0.0 
-1.103255566177e+00 -1.908087920312e+01 0.0 
0.0 0.0 -8.675948192712e+00 
-1.155015617809e+02 7.141444607795e+00 0.0 
7.141444607795e+00 -3.000490339567e+02 0.0 
0.0 0.0 -1.242651787213e+02 
-8.894805321791e+01 2.745342229783e+00 0.0 
2.745342229783e+00 -2.432767798730e+02 0.0 
0.0 0.0 -9.926744992727e+01 
-6.854737767859e+01 4.965629980875e+00 0.0 
4.965629980875e+00 -1.203299546739e+02 0.0 
0.0 0.0 -5.626319970573e+01 
-1.053055395777e+02 1.618603126683e+01 0.0 
1.618603126683e+01 -2.794457278896e+02 0.0 
0.0 0.0 -1.150253802402e+02 
-2.905207227163e+01 -2.738240258607e+00 0.0 
-2.738240258607e+00 -7.745503446548e+01 0.0 
0.0 0.0 -3.155213202113e+01 
-8.166838210633e+01 6.176793992648e+00 0.0 
6.176793992648e+00 -1.619049975083e+02 0.0 
0.0 0.0 -7.267201388438e+01 
-9.664502524895e+01 1.327272458679e+01 0.0 
1.327272458679e+01 -2.031221245429e+02 0.0 
0.0 0.0 -8.953014493754e+01 
-6.209075337180e+01 5.228666677177e+00 0.0 
5.228666677177e+00 -9.932452774940e+01 0.0 
0.0 0.0 -4.802458433636e+01 
-2.421824872654e+01 -1.985039729265e+00 0.0 
-1.985039729265e+00 -6.474351450448e+01 0.0 
0.0 0.0 -2.628852896931e+01 
-5.395798735183e+01 1.553321567406e+00 0.0 
1.553321567406e+00 -9.127815304988e+01 0.0 
0.0 0.0 -4.317084212052e+01 
-1.354208841028e+02 1.120735642936e+01 0.0 
1.120735642936e+01 -3.364472165198e+02 0.0 
0.0 0.0 -1.411604301868e+02 
-8.723519403748e+01 1.306510185222e+01 0.0 
1.306510185222e+01 -1.647618133591e+02 0.0 
0.0 0.0 -7.519910221896e+01 
-4.371545253230e+01 -1.377828067894e+00 0.0 
-1.377828067894e+00 -1.213255399653e+02 0.0 
0.0 0.0 -4.911229774928e+01 
-7.167161571940e+01 8.672588977199e+00 0.0 
8.672588977199e+00 -2.114363552260e+02 0.0 
0.0 0.0 -8.453239128364e+01 
-5.650761693326e+01 2.187710792382e+01 0.0 
2.187710792382e+01 -1.394924939905e+02 0.0 
0.0 0.0 -5.840003327712e+01 
-4.270397519970e+01 9.886720309845e+00 0.0 
9.886720309845e+00 -4.531078680847e+01 0.0 
0.0 0.0 -2.600442860245e+01 
-8.947356153336e+01 5.085916993074e+00 0.0 
5.085916993074e+00 -1.936562348919e+02 0.0 
0.0 0.0 -8.453893892758e+01 
-6.830695891195e+01 1.685179530130e+01 0.0 
1.685179530130e+01 -1.932892498614e+02 0.0 
0.0 0.0 -7.807886263200e+01 
-1.164533158141e+02 1.511813640209e+01 0.0 
1.511813640209e+01 -3.020469019029e+02 0.0 
0.0 0.0 -1.251500653151e+02 
-8.819550290161e+01 1.117027876251e+01 0.0 
1.117027876251e+01 -2.475362874922e+02 0.0 
0.0 0.0 -1.003195371182e+02 
-4.700237420308e+01 -1.064879679262e+00 0.0 
-1.064879679262e+00 -1.301465559431e+02 0.0 
0.0 0.0 -5.274467904387e+01 
-1.257869746501e+02 6.376817786821e+00 0.0 
6.376817786821e+00 -3.183570746012e+02 0.0 
0.0 0.0 -1.328432147754e+02 
-6.598002027066e+01 1.211807800389e+01 0.0 
1.211807800389e+01 -1.955839268471e+02 0.0 
0.0 0.0 -7.806918413532e+01 
-8.823247603187e+01 7.416610344512e+00 0.0 
7.416610344512e+00 -1.825181471725e+02 0.0 
0.0 0.0 -8.082518696130e+01 
-9.151219181904e+01 2.446294541859e+01 0.0 
2.446294541859e+01 -2.168129704445e+02 0.0 
0.0 0.0 -9.209754867906e+01 
-5.308889126633e+01 7.055431722454e+00 0.0 
7.055431722454e+00 -1.651013217564e+02 0.0 
0.0 0.0 -6.505706390683e+01 
-8.741462324770e+01 9.928522019799e+00 0.0 
9.928522019799e+00 -1.720906462365e+02 0.0 
0.0 0.0 -7.745158084526e+01 
-7.424049940110e+01 4.440253031279e+00 0.0 
4.440253031279e+00 -2.154255453987e+02 0.0 
0.0 0.0 -8.649981343996e+01 
-1.095781791593e+02 1.805790223384e+01 0.0 
1.805790223384e+01 -2.858516556999e+02 0.0 
0.0 0.0 -1.182289504578e+02 
-5.311910481586e+01 2.296999782221e+01 0.0 
2.296999782221e+01 -1.085979799542e+02 0.0 
0.0 0.0 -4.811512543102e+01 
-7.552380851924e+01 2.348097409693e+01 0.0 
2.348097409693e+01 -1.790566331100e+02 0.0 
0.0 0.0 -7.597413248876e+01 
-8.384102135593e+01 2.328999798427e+01 0.0 
2.328999798427e+01 -1.736705345284e+02 0.0 
0.0 0.0 -7.685346676530e+01 
-7.153401841637e+01 2.091246673350e+01 0.0 
2.091246673350e+01 -1.875761314153e+02 0.0 
0.0 0.0 -7.733304494949e+01 
-1.062928730776e+02 6.191112899016e-01 0.0 
6.191112899016e-01 -2.747050283788e+02 0.0 
0.0 0.0 -1.138993704369e+02 
-1.206576382856e+02 6.773553891565e+00 0.0 
6.773553891565e+00 -3.092863346839e+02 0.0 
0.0 0.0 -1.285831918908e+02 
-2.808016347064e+01 -9.598037759322e-02 0.0 
-9.598037759322e-02 -7.874242063173e+01 0.0 
0.0 0.0 -3.164677523071e+01 
-4.081012444454e+01 1.691577829872e+01 0.0 
1.691577829872e+01 -1.133375861014e+02 0.0 
0.0 0.0 -4.584431316378e+01 
-7.057526534846e+01 6.884356440072e+00 0.0 
6.884356440072e+00 -1.204185532141e+02 0.0 
0.0 0.0 -5.689814556875e+01 
-1.088007456879e+02 2.531679379253e+01 0.0 
2.531679379253e+01 -2.649669593198e+02 0.0 
0.0 0.0 -1.117303115023e+02 
-9.426280971272e+01 8.472254811415e+00 0.0 
8.472254811415e+00 -2.030323009061e+02 0.0 
0.0 0.0 -8.878853318565e+01 
-4.952908896107e+01 2.140044521581e+01 0.0 
2.140044521581e+01 -1.213870007894e+02 0.0 
0.0 0.0 -5.087482692513e+01 
-1.209739686286e+02 5.191815756439e+00 0.0 
5.191815756439e+00 -3.086274240299e+02 0.0 
0.0 0.0 -1.284804177976e+02 
-9.319619689366e+01 1.134548553553e+01 0.0 
1.134548553553e+01 -1.924891157575e+02 0.0 
0.0 0.0 -8.530559379535e+01 
-7.701204626886e+01 9.699640233804e-01 0.0 
9.699640233804e-01 -2.142320314913e+02 0.0 
0.0 0.0 -8.697322332805e+01 
-3.297506285895e+01 -3.423058148647e-01 0.0 
-3.423058148647e-01 -9.128888824780e+01 0.0 
0.0 0.0 -3.687918533202e+01 
-2.432224963352e+01 6.136320212576e+00 0.0 
6.136320212576e+00 -5.812913404268e+01 0.0 
0.0 0.0 -2.433541510286e+01 
-4.108740083027e+01 4.951340751695e+00 0.0 
4.951340751695e+00 -1.299445428776e+02 0.0 
0.0 0.0 -5.090958311236e+01 
-6.491014729648e+01 1.500475721391e+01 0.0 
1.500475721391e+01 -1.885947687322e+02 0.0 
0.0 0.0 -7.565147480859e+01 
-8.507202986357e+01 1.828139808802e+00 0.0 
1.828139808802e+00 -2.332635701295e+02 0.0 
0.0 0.0 -9.510067999792e+01 
-1.033190076593e+02 1.891450819321e+01 0.0 
1.891450819321e+01 -2.222131827390e+02 0.0 
0.0 0.0 -9.725965711951e+01 
-1.259178042761e+02 4.811854154406e+00 0.0 
4.811854154406e+00 -3.174210262278e+02 0.0 
0.0 0.0 -1.326016491512e+02 
-1.093174335022e+02 9.423301356447e+00 0.0 
9.423301356447e+00 -2.896282211187e+02 0.0 
0.0 0.0 -1.192836963863e+02 
-2.165875568302e+01 1.185481064685e+01 0.0 
1.185481064685e+01 -2.212374502237e+01 0.0 
0.0 0.0 -1.273475021162e+01 
-4.862280240193e+01 1.462403106645e+01 0.0 
1.462403106645e+01 -6.107265898177e+01 0.0 
0.0 0.0 -3.250863841511e+01 
-1.308414720430e+02 4.379344818656e+00 0.0 
4.379344818656e+00 -3.261924393512e+02 0.0 
0.0 0.0 -1.367101734183e+02 
-7.626202362717e+01 8.097822923010e+00 0.0 
8.097822923010e+00 -2.219428430979e+02 0.0 
0.0 0.0 -8.906146001753e+01 
-1.149757796925e+02 1.748536686285e+01 0.0 
1.748536686285e+01 -2.972887103216e+02 0.0 
0.0 0.0 -1.232793470042e+02 
-8.427385506111e+01 1.060638325848e-01 0.0 
1.060638325848e-01 -2.248121792527e+02 0.0 
0.0 0.0 -9.232581029415e+01 
-1.222322754683e+02 2.792729137024e+01 0.0 
2.792729137024e+01 -2.912379487346e+02 0.0 
0.0 0.0 -1.236410672609e+02 
-3.557630642836e+01 2.063328491494e+01 0.0 
2.063328491494e+01 -5.200900497760e+01 0.0 
0.0 0.0 -2.587559342179e+01 
-1.357721219555e+02 3.878532558241e+00 0.0 
3.878532558241e+00 -3.351782733993e+02 0.0 
0.0 0.0 -1.408851186064e+02 
-1.079645888144e+02 1.148462387121e+01 0.0 
1.148462387121e+01 -2.873145569995e+02 0.0 
0.0 0.0 -1.181837437442e+02 
-3.889767122663e+01 1.158902430272e+01 0.0 
1.158902430272e+01 -1.185285657980e+02 0.0 
0.0 0.0 -4.682787110739e+01 
-3.675855276489e+01 2.548620945915e-02 0.0 
2.548620945915e-02 -5.574514217354e+01 0.0 
0.0 0.0 -2.735110848153e+01 
-1.474323188919e+02 4.270908993400e+00 0.0 
4.270908993400e+00 -3.564059552702e+02 0.0 
0.0 0.0 -1.507514822486e+02 
-1.180480501862e+02 1.282357720339e+01 0.0 
1.282357720339e+01 -3.058609419034e+02 0.0 
0.0 0.0 -1.267726976269e+02 
-7.950531610023e+01 2.151993485663e+01 0.0 
2.151993485663e+01 -2.056337136420e+02 0.0 
0.0 0.0 -8.514170892266e+01 
-7.296510668524e+01 6.363731241913e+00 0.0 
6.363731241913e+00 -2.140484805663e+02 0.0 
0.0 0.0 -8.570407617546e+01 
-3.668020573156e+01 1.465058640501e+01 0.0 
1.465058640501e+01 -3.315915157442e+01 0.0 
0.0 0.0 -2.055180719179e+01 
-8.944111210222e+01 1.836998152975e+00 0.0 
1.836998152975e+00 -2.420805060446e+02 0.0 
0.0 0.0 -9.905648544404e+01 
-7.958816283700e+01 2.397264477751e+01 0.0 
2.397264477751e+01 -1.822550491952e+02 0.0 
0.0 0.0 -7.815296360966e+01 
-1.043348021218e+02 1.615539828724e+01 0.0 
1.615539828724e+01 -2.348602069484e+02 0.0 
0.0 0.0 -1.013585027211e+02 
-1.221658248082e+02 1.459646988204e+01 0.0 
1.459646988204e+01 -3.126531181735e+02 0.0 
0.0 0.0 -1.300456828945e+02 
-7.938539820031e+01 1.565116889111e+01 0.0 
1.565116889111e+01 -1.394855599577e+02 0.0 
0.0 0.0 -6.526128744740e+01 
-8.542096558695e+01 1.126330604327e+00 0.0 
1.126330604327e+00 -2.317813851906e+02 0.0 
0.0 0.0 -9.476070523327e+01 
-8.947820803551e+01 1.798811626567e+01 0.0 
1.798811626567e+01 -2.422127575492e+02 0.0 
0.0 0.0 -9.910728967540e+01 
-1.865715873822e+01 -1.004401040221e+00 0.0 
-1.004401040221e+00 -5.044303208280e+01 0.0 
0.0 0.0 -2.033005724631e+01 
-4.170591495746e+01 1.901155385074e+01 0.0 
1.901155385074e+01 -5.402417923152e+01 0.0 
0.0 0.0 -2.831902825669e+01 
-8.959770786907e+01 1.157229182814e+00 0.0 
1.157229182814e+00 -2.404183781081e+02 0.0 
0.0 0.0 -9.860482579314e+01 
-4.454291277130e+01 4.077481177526e+00 0.0 
4.077481177526e+00 -1.403301627785e+02 0.0 
0.0 0.0 -5.506192266493e+01 
-7.753002147836e+01 5.967224013809e+00 0.0 
5.967224013809e+00 -2.239451026555e+02 0.0 
0.0 0.0 -9.004253724014e+01 
-1.281207967487e+02 2.327071710587e+01 0.0 
2.327071710587e+01 -3.152916385557e+02 0.0 
0.0 0.0 -1.326237305913e+02 
-9.377257540346e+01 1.137067283627e+00 0.0 
1.137067283627e+00 -2.490334308412e+02 0.0 
0.0 0.0 -1.024418018734e+02 
-5.056188646906e+01 5.160972535065e+00 0.0 
5.160972535065e+00 -1.580046617235e+02 0.0 
0.0 0.0 -6.216996445775e+01 
-9.793345783540e+01 1.056245855393e+00 0.0 
1.056245855393e+00 -2.575781185621e+02 0.0 
0.0 0.0 -1.062534729192e+02 
-3.156294294078e+01 1.878253916035e+01 0.0 
1.878253916035e+01 -3.157282658482e+01 0.0 
0.0 0.0 -1.854073085768e+01 
-8.351230585546e+01 1.810824611508e+01 0.0 
1.810824611508e+01 -1.538931726129e+02 0.0 
0.0 0.0 -7.082164354050e+01 
-1.021039972329e+02 9.136502929641e-01 0.0 
9.136502929641e-01 -2.660412992652e+02 0.0 
0.0 0.0 -1.100435889494e+02 
-8.745347063435e+01 2.439181620533e+01 0.0 
2.439181620533e+01 -2.014015224239e+02 0.0 
0.0 0.0 -8.625649791746e+01 
-1.993193363282e+01 -1.482608214793e+00 0.0 
-1.482608214793e+00 -5.278917121456e+01 0.0 
0.0 0.0 -2.141633145421e+01 
-8.378751292880e+01 2.088171052202e+01 0.0 
2.088171052202e+01 -2.197485238158e+02 0.0 
0.0 0.0 -9.066081102339e+01 
-1.349693280107e+02 1.196702598341e+00 0.0 
1.196702598341e+00 -3.324377310937e+02 0.0 
0.0 0.0 -1.398221177313e+02 
-5.460319368406e+01 -9.758566188565e-01 0.0 
-9.758566188565e-01 -1.587676042979e+02 0.0 
0.0 0.0 -6.361123939458e+01 
-8.220411822964e+01 5.652471537238e+00 0.0 
5.652471537238e+00 -2.337238043877e+02 0.0 
0.0 0.0 -9.437837678520e+01 
-9.044682275398e+01 1.931316579905e+01 0.0 
1.931316579905e+01 -1.756351589984e+02 0.0 
0.0 0.0 -7.942459452572e+01 
-2.850672895465e+01 1.868987907011e+01 0.0 
1.868987907011e+01 -3.101943936183e+01 0.0 
0.0 0.0 -1.745785049494e+01 
-9.068633484941e+01 6.888512141856e+00 0.0 
6.888512141856e+00 -2.521775931535e+02 0.0 
0.0 0.0 -1.024591784009e+02 
-9.537943105678e+01 2.499687280741e+01 0.0 
2.499687280741e+01 -2.206703975056e+02 0.0 
0.0 0.0 -9.441494856871e+01 
-8.833486746694e+01 2.024513412739e+01 0.0 
2.024513412739e+01 -2.334692575232e+02 0.0 
0.0 0.0 -9.614123749705e+01 
-7.262929287891e+01 1.593813719733e+01 0.0 
1.593813719733e+01 -2.062339320671e+02 0.0 
0.0 0.0 -8.325896748382e+01 
-9.971996234467e+01 8.148612440518e+00 0.0 
8.148612440518e+00 -2.708464072622e+02 0.0 
0.0 0.0 -1.107699108821e+02 
-3.178631040992e+01 2.003776550908e+01 0.0 
2.003776550908e+01 -5.085936078544e+01 0.0 
0.0 0.0 -2.439370135861e+01 
-4.155189956412e+01 -2.421672656808e+00 0.0 
-2.421672656808e+00 -1.178514769194e+02 0.0 
0.0 0.0 -4.742101294504e+01 
-3.530468151041e+01 -2.680304599184e+00 0.0 
-2.680304599184e+00 -9.851292154319e+01 0.0 
0.0 0.0 -3.974528091608e+01 
-5.443796536211e+01 4.499852358597e+00 0.0 
4.499852358597e+00 -1.681813575370e+02 0.0 
0.0 0.0 -6.638579686973e+01 
-9.909604626117e+01 2.533470808187e+01 0.0 
2.533470808187e+01 -2.247382150187e+02 0.0 
0.0 0.0 -9.675027838396e+01 
-2.428013261941e+01 -6.050924723895e-01 0.0 
-6.050924723895e-01 -6.706348637280e+01 0.0 
0.0 0.0 -2.700308569766e+01 
-9.112271816453e+01 2.203186125543e+01 0.0 
2.203186125543e+01 -1.840467486021e+02 0.0 
0.0 0.0 -8.215084003000e+01 
-2.694269815121e+01 -2.843688049287e+00 0.0 
-2.843688049287e+00 -7.090856178666e+01 0.0 
0.0 0.0 -2.895537798136e+01 
-5.190963993956e+01 2.845761962745e+00 0.0 
2.845761962745e+00 -1.602163610459e+02 0.0 
0.0 0.0 -6.323780029563e+01 
-1.027501386803e+02 2.084043533410e+01 0.0 
2.084043533410e+01 -2.659127768989e+02 0.0 
0.0 0.0 -1.101988746738e+02 
-5.834533388951e+01 4.232433622470e-01 0.0 
4.232433622470e-01 -1.098063444038e+02 0.0 
0.0 0.0 -5.004550348799e+01 
-5.574428264115e+01 2.426145939082e+00 0.0 
2.426145939082e+00 -1.697061271655e+02 0.0 
0.0 0.0 -6.723512294198e+01 
-4.019141550373e+01 -3.458479441138e-01 0.0 
-3.458479441138e-01 -1.109925862203e+02 0.0 
0.0 0.0 -4.495520051720e+01 
-5.310385625214e+01 1.050510676238e+00 0.0 
1.050510676238e+00 -1.609230436560e+02 0.0 
0.0 0.0 -6.380806997245e+01 
-8.080043152426e+01 1.690808665012e+01 0.0 
1.690808665012e+01 -2.240672230091e+02 0.0 
0.0 0.0 -9.106029636001e+01 
-5.688202369141e+01 8.733518628298e-01 0.0 
8.733518628298e-01 -1.699468463357e+02 0.0 
0.0 0.0 -6.764866100815e+01 
-5.408043993897e+01 -1.950237658795e-01 0.0 
-1.950237658795e-01 -1.604703935146e+02 0.0 
0.0 0.0 -6.396525003607e+01 
-9.258568936017e+01 4.704930506918e+00 0.0 
4.704930506918e+00 -2.049860057444e+02 0.0 
0.0 0.0 -8.887150853138e+01 
-5.772880341479e+01 -1.969504615169e-01 0.0 
-1.969504615169e-01 -1.690477919703e+02 0.0 
0.0 0.0 -6.763297861551e+01 
-9.762570781030e+01 1.408669511986e+00 0.0 
1.408669511986e+00 -2.235514821383e+02 0.0 
0.0 0.0 -9.595315698459e+01 
-1.569274884241e+02 1.432518274545e+00 0.0 
1.432518274545e+00 -3.730026485382e+02 0.0 
0.0 0.0 -1.585790410887e+02 
-4.276733587560e+01 2.006069196713e-01 0.0 
2.006069196713e-01 -7.075064465241e+01 0.0 
0.0 0.0 -3.365539415840e+01 
-2.696520987430e+01 1.842690023830e+01 0.0 
1.842690023830e+01 -2.724000359833e+01 0.0 
0.0 0.0 -1.586156404179e+01 
-2.042145295986e+01 8.120010902347e-02 0.0 
8.120010902347e-02 -1.664930981367e+01 0.0 
0.0 0.0 -1.098578136149e+01 
-2.979890907847e+01 1.855019395373e+01 0.0 
1.855019395373e+01 -5.145377865875e+01 0.0 
0.0 0.0 -2.397580632117e+01 
-4.816158160685e+01 -1.716949171216e+00 0.0 
-1.716949171216e+00 -1.400694184950e+02 0.0 
0.0 0.0 -5.606930003055e+01 
-9.116671719258e+01 2.384894638567e+01 0.0 
2.384894638567e+01 -1.938849899495e+02 0.0 
0.0 0.0 -8.511551214264e+01 
-4.322404002348e+01 1.052410479151e-01 0.0 
1.052410479151e-01 -7.147039543690e+01 0.0 
0.0 0.0 -3.400833063811e+01 
-4.500231552685e+01 -2.183469302299e+00 0.0 
-2.183469302299e+00 -1.292252573760e+02 0.0 
0.0 0.0 -5.186827187086e+01 
-1.112520172089e+02 2.609323217972e+01 0.0 
2.609323217972e+01 -2.486557345155e+02 0.0 
0.0 0.0 -1.075723255173e+02 
-1.336381106572e+02 2.869584875196e+01 0.0 
2.869584875196e+01 -3.173908122180e+02 0.0 
0.0 0.0 -1.349086768626e+02 
-6.922269528368e+01 8.314531160861e-01 0.0 
8.314531160861e-01 -1.385890902741e+02 0.0 
0.0 0.0 -6.194353566735e+01 
-1.203563977361e+02 1.688652534662e+01 0.0 
1.688652534662e+01 -3.078253562735e+02 0.0 
0.0 0.0 -1.280545262029e+02 
-9.339768887794e+01 1.967981276237e+01 0.0 
1.967981276237e+01 -2.472960428529e+02 0.0 
0.0 0.0 -1.018081195192e+02 
-8.543391715602e+01 7.251838611625e-01 0.0 
7.251838611625e-01 -1.861689289243e+02 0.0 
0.0 0.0 -8.108085382410e+01 
-3.695260965202e+01 3.489478722442e-01 0.0 
3.489478722442e-01 -5.436555885351e+01 0.0 
0.0 0.0 -2.699545055166e+01 
-1.652766439704e+01 -2.097525429876e+00 0.0 
-2.097525429876e+00 -3.303602065427e+01 0.0 
0.0 0.0 -1.459213269087e+01 
-1.111018995479e+02 3.463191498974e-01 0.0 
3.463191498974e-01 -2.846165075353e+02 0.0 
0.0 0.0 -1.183155221249e+02 
-2.647695626643e+01 1.789521845771e+01 0.0 
1.789521845771e+01 -2.621197649378e+01 0.0 
0.0 0.0 -1.540667982806e+01 
-2.719902725926e+01 1.666529252150e+01 0.0 
1.666529252150e+01 -4.535290159383e+01 0.0 
0.0 0.0 -2.136557865593e+01 
-2.514344440867e+01 1.428561562124e+01 0.0 
1.428561562124e+01 -4.224755953270e+01 0.0 
0.0 0.0 -1.981730118241e+01 
-4.950744101654e+01 -7.948119508720e-01 0.0 
-7.948119508720e-01 -1.371242659279e+02 0.0 
0.0 0.0 -5.558951208332e+01 
-2.215242893948e+01 -2.795432595373e+00 0.0 
-2.795432595373e+00 -4.908841315862e+01 0.0 
0.0 0.0 -2.097225262943e+01 
-2.605869487817e+01 1.686446976047e+01 0.0 
1.686446976047e+01 -2.844075880994e+01 0.0 
0.0 0.0 -1.594983610643e+01 
-1.343386727574e+02 2.001030962198e+01 0.0 
2.001030962198e+01 -3.305906435631e+02 0.0 
0.0 0.0 -1.390787948961e+02 
-4.728396698972e+01 1.490900969557e+00 0.0 
1.490900969557e+00 -7.239801866744e+01 0.0 
0.0 0.0 -3.550459569715e+01 
-1.065070353550e+02 2.242767269751e+01 0.0 
2.242767269751e+01 -2.703146685627e+02 0.0 
0.0 0.0 -1.126465111753e+02 
-2.441633454381e+01 1.510383386010e+01 0.0 
1.510383386010e+01 -2.637413730826e+01 0.0 
0.0 0.0 -1.483714155562e+01 
-9.845943758900e+01 1.280070708484e+01 0.0 
1.280070708484e+01 -2.127974704755e+02 0.0 
0.0 0.0 -9.297707241936e+01 
-1.271576652157e+02 2.545190025358e+01 0.0 
2.545190025358e+01 -3.095078316184e+02 0.0 
0.0 0.0 -1.305996490502e+02 
-1.556624138856e+02 8.326741519691e+00 0.0 
8.326741519691e+00 -3.709125163965e+02 0.0 
0.0 0.0 -1.575724790846e+02 
-1.162407272534e+02 2.373787327931e+01 0.0 
2.373787327931e+01 -2.891848957744e+02 0.0 
0.0 0.0 -1.212276869083e+02 
-2.271156356136e+01 1.075943114206e+01 0.0 
1.075943114206e+01 -3.676295039816e+01 0.0 
0.0 0.0 -1.744235418786e+01 
-6.009138039497e+01 5.706756998263e+00 0.0 
5.706756998263e+00 -9.198220881152e+01 0.0 
0.0 0.0 -4.522207676195e+01 
-1.183831067139e+02 2.846643833233e+01 0.0 
2.846643833233e+01 -2.772684207905e+02 0.0 
0.0 0.0 -1.182954582513e+02 
-7.534206836569e+01 1.404187561943e+00 0.0 
1.404187561943e+00 -1.544754499094e+02 0.0 
0.0 0.0 -6.854525548253e+01 
-1.573275888432e+02 6.188204879204e+00 0.0 
6.188204879204e+00 -3.736788289068e+02 0.0 
0.0 0.0 -1.589019253250e+02 
-4.847855281415e+01 2.168929739225e+00 0.0 
2.168929739225e+00 -7.067704623051e+01 0.0 
0.0 0.0 -3.534667971340e+01 
-9.261247700814e+01 2.972795532172e+00 0.0 
2.972795532172e+00 -2.071392951211e+02 0.0 
0.0 0.0 -8.952553163877e+01 
-2.644598117838e+01 -1.260582940483e+00 0.0 
-1.260582940483e+00 -7.033037308071e+01 0.0 
0.0 0.0 -2.863290627773e+01 
-9.230365094655e+01 1.463676782510e+00 0.0 
1.463676782510e+00 -2.071294678297e+02 0.0 
0.0 0.0 -8.942993563288e+01 
-9.847128922768e+01 2.466021899430e+01 0.0 
2.466021899430e+01 -2.142947701734e+02 0.0 
0.0 0.0 -9.342981782033e+01 
-5.374925632194e+01 6.873123493940e-01 0.0 
6.873123493940e-01 -9.552933956668e+01 0.0 
0.0 0.0 -4.438357876658e+01 
-6.311346385853e+01 8.779595504284e+00 0.0 
8.779595504284e+00 -9.477685809683e+01 0.0 
0.0 0.0 -4.696709658661e+01 
-1.501756828980e+02 2.106033056471e+00 0.0 
2.106033056471e+00 -3.606380779087e+02 0.0 
0.0 0.0 -1.528441282420e+02 
-1.075572082714e+02 2.334532342259e+01 0.0 
2.334532342259e+01 -2.358346680048e+02 0.0 
0.0 0.0 -1.026175628828e+02 
-2.119664175697e+01 8.151386447017e+00 0.0 
8.151386447017e+00 -3.278121827107e+01 0.0 
0.0 0.0 -1.579335800841e+01 
-6.931166873642e+01 9.996444866624e-01 0.0 
9.996444866624e-01 -1.375354459858e+02 0.0 
0.0 0.0 -6.165413441666e+01 
-6.192048669259e+01 -5.485513896321e-01 0.0 
-5.485513896321e-01 -1.706391900349e+02 0.0 
0.0 0.0 -6.936790301824e+01 
-2.071045237714e+01 -1.224291939444e+00 0.0 
-1.224291939444e+00 -3.059409060564e+01 0.0 
0.0 0.0 -1.518380266580e+01 
-1.449298474503e+02 9.568914427172e+00 0.0 
9.568914427172e+00 -3.528230990278e+02 0.0 
0.0 0.0 -1.489258839434e+02 
-1.050967377089e+02 2.559992689959e+01 0.0 
2.559992689959e+01 -2.335237115620e+02 0.0 
0.0 0.0 -1.011861347812e+02 
-1.489480667394e+02 3.411374461895e+00 0.0 
3.411374461895e+00 -3.589374206984e+02 0.0 
0.0 0.0 -1.519656462313e+02 
-1.789506217454e+01 -3.708790655092e-01 0.0 
-3.708790655092e-01 -4.997662026729e+01 0.0 
0.0 0.0 -1.996150473255e+01 
-1.434127035754e+01 -1.787836272701e+00 0.0 
-1.787836272701e+00 -3.118491419264e+01 0.0 
0.0 0.0 -1.333977385490e+01 
-1.446461760590e+02 1.212809347842e+01 0.0 
1.212809347842e+01 -3.522256428032e+02 0.0 
0.0 0.0 -1.486615456587e+02 
-1.153065146700e+02 2.791249150343e+01 0.0 
2.791249150343e+01 -2.637371449996e+02 0.0 
0.0 0.0 -1.133130979009e+02 
-2.930314343385e+01 -1.814435147971e+00 0.0 
-1.814435147971e+00 -8.001565510478e+01 0.0 
0.0 0.0 -3.239563956159e+01 
-1.017871468640e+02 1.103842821789e+01 0.0 
1.103842821789e+01 -2.313954767060e+02 0.0 
0.0 0.0 -9.955478707100e+01 
-1.925040029773e+01 6.130496123561e+00 0.0 
6.130496123561e+00 -2.334728776005e+01 0.0 
0.0 0.0 -1.246111040238e+01 
-3.688550012556e+01 1.482794107911e-01 0.0 
1.482794107911e-01 -5.233573509863e+01 0.0 
0.0 0.0 -2.636637056726e+01 
-1.328946120192e+01 -1.140825735069e+00 0.0 
-1.140825735069e+00 -3.238827606041e+01 0.0 
0.0 0.0 -1.347909078337e+01 
-1.577237337078e+02 5.096565040591e+00 0.0 
5.096565040591e+00 -3.742948592595e+02 0.0 
0.0 0.0 -1.592055778902e+02 
-9.533843468658e+01 7.730407627867e+00 0.0 
7.730407627867e+00 -2.101960602049e+02 0.0 
0.0 0.0 -9.126034846743e+01 
-6.889735759400e+01 -4.319159195050e-01 0.0 
-4.319159195050e-01 -1.877957535973e+02 0.0 
0.0 0.0 -7.660793335740e+01 
-4.780756131088e+01 5.305961738007e+00 0.0 
5.305961738007e+00 -6.120818203700e+01 0.0 
0.0 0.0 -3.230472300436e+01 
-4.507505553359e+01 -6.585389546846e-01 0.0 
-6.585389546846e-01 -1.244144780116e+02 0.0 
0.0 0.0 -5.044686006357e+01 
-1.163476414698e+02 2.632015569718e+01 0.0 
2.632015569718e+01 -2.812816467618e+02 0.0 
0.0 0.0 -1.188887864695e+02 
-2.049673554004e+01 -2.682655179283e+00 0.0 
-2.682655179283e+00 -4.627904958253e+01 0.0 
0.0 0.0 -1.963273553677e+01 
-9.470645537023e+01 5.733779192619e+00 0.0 
5.733779192619e+00 -2.110267578342e+02 0.0 
0.0 0.0 -9.131996396133e+01 
-1.428542680298e+02 1.485099308703e+01 0.0 
1.485099308703e+01 -3.485205769541e+02 0.0 
0.0 0.0 -1.470124534952e+02 
-1.033856939046e+02 1.773693122780e+01 0.0 
1.773693122780e+01 -2.248638861270e+02 0.0 
0.0 0.0 -9.807487400946e+01 
-1.438096847141e+02 2.433509923204e+01 0.0 
2.433509923204e+01 -3.430866604683e+02 0.0 
0.0 0.0 -1.456689035547e+02 
-2.049314506148e+01 1.204763768200e+00 0.0 
1.204763768200e+00 -2.768081299448e+01 0.0 
0.0 0.0 -1.415404172371e+01 
-1.280713354071e+02 2.692038317021e+01 0.0 
2.692038317021e+01 -3.087674628280e+02 0.0 
0.0 0.0 -1.306516394705e+02 
-1.308043909741e+02 1.564110727259e+01 0.0 
1.564110727259e+01 -3.277282481876e+02 0.0 
0.0 0.0 -1.371597917485e+02 
-3.640441897022e+01 -1.133490574737e-01 0.0 
-1.133490574737e-01 -5.416157905144e+01 0.0 
0.0 0.0 -2.676979940650e+01 
-1.053748234313e+02 2.057299190743e+01 0.0 
2.057299190743e+01 -2.292701800905e+02 0.0 
0.0 0.0 -9.999350105654e+01 
-5.552848239451e+01 -7.456451894282e-01 0.0 
-7.456451894282e-01 -1.529153428972e+02 0.0 
0.0 0.0 -6.213314758750e+01 
-2.452720155080e+01 -1.354530612211e+00 0.0 
-1.354530612211e+00 -6.609273241678e+01 0.0 
0.0 0.0 -2.678598019027e+01 
-9.812408574271e+01 7.901518806488e-01 0.0 
7.901518806488e-01 -2.255577132566e+02 0.0 
0.0 0.0 -9.670453969979e+01 
-5.052055750241e+00 -6.032640515341e-02 0.0 
-6.032640515341e-02 -1.415576193562e+01 0.0 
0.0 0.0 -5.674696380425e+00 
-3.542080857283e+01 8.372451938197e-02 0.0 
8.372451938197e-02 -5.313450405298e+01 0.0 
0.0 0.0 -2.616659378774e+01 
-1.593179035601e+02 4.883997691212e-01 0.0 
4.883997691212e-01 -3.772021950108e+02 0.0 
0.0 0.0 -1.605560295713e+02 
-2.322825901918e+01 -9.546840871294e-01 0.0 
-9.546840871294e-01 -6.315056909218e+01 0.0 
0.0 0.0 -2.551364843341e+01 
-4.875658482431e+01 3.176120271324e-01 0.0 
3.176120271324e-01 -8.511931403932e+01 0.0 
0.0 0.0 -3.976276965909e+01 
-1.139373895107e+02 2.733979728872e+01 0.0 
2.733979728872e+01 -2.580721506456e+02 0.0 
0.0 0.0 -1.112028620469e+02 
-8.635896003586e+01 2.208162668531e-02 0.0 
2.208162668531e-02 -2.298165294242e+02 0.0 
0.0 0.0 -9.445264683802e+01 
-8.168619563268e+01 1.319668829119e+00 0.0 
1.319668829119e+00 -1.746180371070e+02 0.0 
0.0 0.0 -7.649126982190e+01 
-2.516672117810e+01 -2.902343956901e+00 0.0 
-2.902343956901e+00 -6.151847317409e+01 0.0 
0.0 0.0 -2.560555830566e+01 
-2.006853695775e+01 -6.435949601118e-01 0.0 
-6.435949601118e-01 -1.434756959740e+01 0.0 
0.0 0.0 -1.034210460408e+01 
-6.241875589659e+01 6.751826224460e-01 0.0 
6.751826224460e-01 -1.201852575150e+02 0.0 
0.0 0.0 -5.438120402349e+01 
-1.306673549104e+02 2.465169407473e+01 0.0 
2.465169407473e+01 -3.181793026100e+02 0.0 
0.0 0.0 -1.342539972561e+02 
-1.009493049461e+02 1.453464742398e+01 0.0 
1.453464742398e+01 -2.203307958615e+02 0.0 
0.0 0.0 -9.598403024227e+01 
-5.780208606105e+01 7.050726071320e-01 0.0 
7.050726071320e-01 -1.064013107675e+02 0.0 
0.0 0.0 -4.886101904856e+01 
-2.251839631113e+01 6.405394211396e+00 0.0 
6.405394211396e+00 -4.498388813053e+01 0.0 
0.0 0.0 -1.985068533250e+01 
-1.106406262015e+02 2.668723289543e+01 0.0 
2.668723289543e+01 -2.493412734265e+02 0.0 
0.0 0.0 -1.075945698884e+02 
-7.501457931453e+01 -1.020130402538e-01 0.0 
-1.020130402538e-01 -2.026190727749e+02 0.0 
0.0 0.0 -8.289009562682e+01 
-1.141459388290e+02 2.748957899293e+01 0.0 
2.748957899293e+01 -2.691374310109e+02 0.0 
0.0 0.0 -1.145850109520e+02 
-1.284091277796e+02 1.824460623428e+01 0.0 
1.824460623428e+01 -3.217334697585e+02 0.0 
0.0 0.0 -1.346427792614e+02 
-1.778783838012e+01 6.871705813042e+00 0.0 
6.871705813042e+00 -1.257966045732e+01 0.0 
0.0 0.0 -8.977328628337e+00 
-9.365294198146e+01 4.268266756029e-02 0.0 
4.268266756029e-02 -2.466683759403e+02 0.0 
0.0 0.0 -1.016963953765e+02 
-1.318858396528e+01 -1.188054902101e+00 0.0 
-1.188054902101e+00 -3.033878909826e+01 0.0 
0.0 0.0 -1.275976346857e+01 
-1.490942813117e+02 7.279992535341e+00 0.0 
7.279992535341e+00 -3.597395509293e+02 0.0 
0.0 0.0 -1.522501496723e+02 
-7.840954996152e+01 3.879794065929e-02 0.0 
3.879794065929e-02 -2.110690868503e+02 0.0 
0.0 0.0 -8.644359104355e+01 
-2.165591471910e+01 3.649406048293e+00 0.0 
3.649406048293e+00 -7.749254467314e+00 0.0 
0.0 0.0 -8.421550755926e+00 
-1.802108009017e+01 2.854377701337e-02 0.0 
2.854377701337e-02 -1.044242563205e+01 0.0 
0.0 0.0 -8.139051716666e+00 
-3.195238947442e+01 3.730984994997e+00 0.0 
3.730984994997e+00 -2.956035027014e+01 0.0 
0.0 0.0 -1.805382192337e+01 
-2.519743428209e+01 -1.884991842038e-01 0.0 
-1.884991842038e-01 -2.883652875785e+01 0.0 
0.0 0.0 -1.581018891198e+01 

TENSORS node_materi_strain_total float
5.222600207333e-05 3.959841653539e-07 0.0 
3.959841653539e-07 7.932004918132e-05 0.0 
0.0 0.0 0.0 
-8.212536356781e-04 -2.019000295633e-05 0.0 
-2.019000295633e-05 1.224791025699e-02 0.0 
0.0 0.0 0.0 
6.076657853726e-05 4.971386419287e-05 0.0 
4.971386419287e-05 8.238581914337e-03 0.0 
0.0 0.0 0.0 
-5.940135259963e-05 2.058655596555e-05 0.0 
2.058655596555e-05 1.579367712912e-02 0.0 
0.0 0.0 0.0 
7.729530426714e-05 -7.745529860179e-06 0.0 
-7.745529860179e-06 2.730193998420e-04 0.0 
0.0 0.0 0.0 
1.317795368464e-04 6.202662034532e-06 0.0 
6.202662034532e-06 6.533697222915e-04 0.0 
0.0 0.0 0.0 
2.100682138144e-04 5.910422092110e-06 0.0 
5.910422092110e-06 1.001295921479e-03 0.0 
0.0 0.0 0.0 
2.863973600270e-04 3.573271244547e-06 0.0 
3.573271244547e-06 1.391932320312e-03 0.0 
0.0 0.0 0.0 
3.660161442084e-04 1.871293205642e-06 0.0 
1.871293205642e-06 1.769109085977e-03 0.0 
0.0 0.0 0.0 
4.466782602592e-04 1.873404081068e-06 0.0 
1.873404081068e-06 2.141532374706e-03 0.0 
0.0 0.0 0.0 
5.198189630369e-04 3.373116279889e-06 0.0 
3.373116279889e-06 2.517609617611e-03 0.0 
0.0 0.0 0.0 
5.833785423725e-04 4.117730857283e-06 0.0 
4.117730857283e-06 2.900405505876e-03 0.0 
0.0 0.0 0.0 
6.362318746243e-04 6.354921486466e-06 0.0 
6.354921486466e-06 3.291501571813e-03 0.0 
0.0 0.0 0.0 
6.718723853971e-04 1.168441506584e-05 0.0 
1.168441506584e-05 3.698745885673e-03 0.0 
0.0 0.0 0.0 
6.866799864540e-04 2.110131139252e-05 0.0 
2.110131139252e-05 4.131587910993e-03 0.0 
0.0 0.0 0.0 
6.953621804597e-04 2.483203367659e-05 0.0 
2.483203367659e-05 4.559819636732e-03 0.0 
0.0 0.0 0.0 
6.873647741682e-04 3.536484321697e-05 0.0 
3.536484321697e-05 4.959815050931e-03 0.0 
0.0 0.0 0.0 
6.505099206527e-04 2.253141065195e-05 0.0 
2.253141065195e-05 5.418599746483e-03 0.0 
0.0 0.0 0.0 
5.927451966718e-04 2.524597770422e-05 0.0 
2.524597770422e-05 5.904761850322e-03 0.0 
0.0 0.0 0.0 
5.152413742906e-04 2.872195336492e-05 0.0 
2.872195336492e-05 6.391103365252e-03 0.0 
0.0 0.0 0.0 
4.147563468212e-04 3.056103694890e-05 0.0 
3.056103694890e-05 6.897679951908e-03 0.0 
0.0 0.0 0.0 
2.910319109245e-04 3.720382747812e-05 0.0 
3.720382747812e-05 7.423907009380e-03 0.0 
0.0 0.0 0.0 
1.689286364008e-04 4.275602821643e-05 0.0 
4.275602821643e-05 7.936688109216e-03 0.0 
0.0 0.0 0.0 
-4.259780523619e-05 9.123711984657e-05 0.0 
9.123711984657e-05 1.580345643874e-02 0.0 
0.0 0.0 0.0 
-4.827173249877e-05 1.681658294830e-04 0.0 
1.681658294830e-04 1.578110820207e-02 0.0 
0.0 0.0 0.0 
-4.903611065495e-05 2.419573360369e-04 0.0 
2.419573360369e-04 1.578050243794e-02 0.0 
0.0 0.0 0.0 
-4.870887387524e-05 3.442236576750e-04 0.0 
3.442236576750e-04 1.576720429876e-02 0.0 
0.0 0.0 0.0 
-6.193168407402e-05 4.274379269833e-04 0.0 
4.274379269833e-04 1.574227325527e-02 0.0 
0.0 0.0 0.0 
-5.778671789643e-05 5.333308050474e-04 0.0 
5.333308050474e-04 1.573136674258e-02 0.0 
0.0 0.0 0.0 
-6.608692751527e-05 6.476274672041e-04 0.0 
6.476274672041e-04 1.569945182398e-02 0.0 
0.0 0.0 0.0 
-7.067948690931e-05 7.716792803914e-04 0.0 
7.716792803914e-04 1.564909552763e-02 0.0 
0.0 0.0 0.0 
-7.479660693029e-05 8.956154861710e-04 0.0 
8.956154861710e-04 1.560436190914e-02 0.0 
0.0 0.0 0.0 
-6.996242770851e-05 1.045342606273e-03 0.0 
1.045342606273e-03 1.552956866608e-02 0.0 
0.0 0.0 0.0 
-9.249985569252e-05 1.184072536212e-03 0.0 
1.184072536212e-03 1.543599705722e-02 0.0 
0.0 0.0 0.0 
-8.602218742911e-05 1.348132078721e-03 0.0 
1.348132078721e-03 1.533176242450e-02 0.0 
0.0 0.0 0.0 
-9.284879828964e-05 1.518553738091e-03 0.0 
1.518553738091e-03 1.519120949469e-02 0.0 
0.0 0.0 0.0 
-8.755594735480e-05 1.684628063056e-03 0.0 
1.684628063056e-03 1.502219069060e-02 0.0 
0.0 0.0 0.0 
-9.614107648970e-05 1.848995783336e-03 0.0 
1.848995783336e-03 1.482776475801e-02 0.0 
0.0 0.0 0.0 
-8.785170302369e-05 2.007166915916e-03 0.0 
2.007166915916e-03 1.459079398762e-02 0.0 
0.0 0.0 0.0 
-9.144299634608e-05 2.159200055775e-03 0.0 
2.159200055775e-03 1.433142454547e-02 0.0 
0.0 0.0 0.0 
-8.181053798784e-05 2.309166001994e-03 0.0 
2.309166001994e-03 1.404148559602e-02 0.0 
0.0 0.0 0.0 
-6.590416874034e-05 2.432219739737e-03 0.0 
2.432219739737e-03 1.373340464378e-02 0.0 
0.0 0.0 0.0 
-4.678881138857e-05 2.534257195826e-03 0.0 
2.534257195826e-03 1.340578014706e-02 0.0 
0.0 0.0 0.0 
-2.585912909148e-05 2.608102923535e-03 0.0 
2.608102923535e-03 1.305194042139e-02 0.0 
0.0 0.0 0.0 
-1.969025405439e-05 2.651625003947e-03 0.0 
2.651625003947e-03 1.269358155614e-02 0.0 
0.0 0.0 0.0 
-1.161218575370e-06 2.669397963640e-03 0.0 
2.669397963640e-03 1.233032464940e-02 0.0 
0.0 0.0 0.0 
1.190157358747e-05 2.658170757065e-03 0.0 
2.658170757065e-03 1.197142579908e-02 0.0 
0.0 0.0 0.0 
2.192028812176e-05 2.625033697428e-03 0.0 
2.625033697428e-03 1.162647759039e-02 0.0 
0.0 0.0 0.0 
3.461806707035e-05 2.574209109841e-03 0.0 
2.574209109841e-03 1.129445478863e-02 0.0 
0.0 0.0 0.0 
4.075328357237e-05 2.498035238562e-03 0.0 
2.498035238562e-03 1.097716488847e-02 0.0 
0.0 0.0 0.0 
5.653956565606e-05 2.406942401073e-03 0.0 
2.406942401073e-03 1.067785790279e-02 0.0 
0.0 0.0 0.0 
5.798006085911e-05 2.297903035849e-03 0.0 
2.297903035849e-03 1.039186241669e-02 0.0 
0.0 0.0 0.0 
5.084066993510e-05 2.184188599253e-03 0.0 
2.184188599253e-03 1.015673689174e-02 0.0 
0.0 0.0 0.0 
7.049265876180e-05 2.067193296943e-03 0.0 
2.067193296943e-03 9.899546661511e-03 0.0 
0.0 0.0 0.0 
7.615099599826e-05 1.933268572536e-03 0.0 
1.933268572536e-03 9.654215151894e-03 0.0 
0.0 0.0 0.0 
7.561014006060e-05 1.788086578831e-03 0.0 
1.788086578831e-03 9.443188520916e-03 0.0 
0.0 0.0 0.0 
7.340082046695e-05 1.653891425626e-03 0.0 
1.653891425626e-03 9.277990919372e-03 0.0 
0.0 0.0 0.0 
7.613837524538e-05 1.522708883341e-03 0.0 
1.522708883341e-03 9.118311149835e-03 0.0 
0.0 0.0 0.0 
6.366254477156e-05 1.387929558105e-03 0.0 
1.387929558105e-03 8.978706825688e-03 0.0 
0.0 0.0 0.0 
7.482815684871e-05 1.263245172891e-03 0.0 
1.263245172891e-03 8.859025305555e-03 0.0 
0.0 0.0 0.0 
6.399291421418e-05 1.135817621669e-03 0.0 
1.135817621669e-03 8.741108797038e-03 0.0 
0.0 0.0 0.0 
7.318724752251e-05 1.016729203901e-03 0.0 
1.016729203901e-03 8.639882036880e-03 0.0 
0.0 0.0 0.0 
6.350126107835e-05 8.997535873914e-04 0.0 
8.997535873914e-04 8.548548197505e-03 0.0 
0.0 0.0 0.0 
5.326480546016e-05 7.935689184165e-04 0.0 
7.935689184165e-04 8.491389807171e-03 0.0 
0.0 0.0 0.0 
5.432504494881e-05 6.947146886583e-04 0.0 
6.947146886583e-04 8.459204853471e-03 0.0 
0.0 0.0 0.0 
5.831488897864e-05 5.970105850688e-04 0.0 
5.970105850688e-04 8.423219206332e-03 0.0 
0.0 0.0 0.0 
6.570358247959e-05 4.906501655170e-04 0.0 
4.906501655170e-04 8.306769500812e-03 0.0 
0.0 0.0 0.0 
5.411719078818e-05 4.000057096380e-04 0.0 
4.000057096380e-04 8.335960483380e-03 0.0 
0.0 0.0 0.0 
4.591610773626e-05 3.170661895256e-04 0.0 
3.170661895256e-04 8.288717005646e-03 0.0 
0.0 0.0 0.0 
3.994779036979e-05 2.351114125825e-04 0.0 
2.351114125825e-04 8.280984468534e-03 0.0 
0.0 0.0 0.0 
4.259328677425e-05 1.630800924874e-04 0.0 
1.630800924874e-04 8.286710930665e-03 0.0 
0.0 0.0 0.0 
4.151186339770e-05 8.960836284639e-05 0.0 
8.960836284639e-05 8.277323340300e-03 0.0 
0.0 0.0 0.0 
-7.984148510973e-04 -1.272715150451e-05 0.0 
-1.272715150451e-05 1.267076768839e-02 0.0 
0.0 0.0 0.0 
-7.799658034149e-04 -1.154580992894e-05 0.0 
-1.154580992894e-05 1.308801852589e-02 0.0 
0.0 0.0 0.0 
-7.435705594681e-04 -8.261845436930e-06 0.0 
-8.261845436930e-06 1.348845918332e-02 0.0 
0.0 0.0 0.0 
-6.923397808960e-04 -5.121735154897e-06 0.0 
-5.121735154897e-06 1.386950419773e-02 0.0 
0.0 0.0 0.0 
-6.240488780464e-04 1.685483452710e-07 0.0 
1.685483452710e-07 1.424500387954e-02 0.0 
0.0 0.0 0.0 
-5.355973647912e-04 3.656219605869e-06 0.0 
3.656219605869e-06 1.460633863921e-02 0.0 
0.0 0.0 0.0 
-4.322291770641e-04 7.992213372238e-06 0.0 
7.992213372238e-06 1.495075879759e-02 0.0 
0.0 0.0 0.0 
-3.051644054768e-04 1.227089698863e-05 0.0 
1.227089698863e-05 1.527992015355e-02 0.0 
0.0 0.0 0.0 
-1.747103314281e-04 1.324240820580e-05 0.0 
1.324240820580e-05 1.560251208924e-02 0.0 
0.0 0.0 0.0 
-8.321677505873e-04 4.569220168362e-04 0.0 
4.569220168362e-04 5.156671299964e-04 0.0 
0.0 0.0 0.0 
-1.303965389014e-03 4.127626503331e-04 0.0 
4.127626503331e-04 1.230684392558e-02 0.0 
0.0 0.0 0.0 
-9.446937232194e-04 1.113452048369e-03 0.0 
1.113452048369e-03 1.302151868467e-03 0.0 
0.0 0.0 0.0 
-1.050081922330e-03 1.404900928763e-03 0.0 
1.404900928763e-03 2.569386126158e-03 0.0 
0.0 0.0 0.0 
-1.103109391189e-03 1.528963933660e-03 0.0 
1.528963933660e-03 3.938514325011e-03 0.0 
0.0 0.0 0.0 
-1.114371471463e-03 1.554015373886e-03 0.0 
1.554015373886e-03 5.282548061127e-03 0.0 
0.0 0.0 0.0 
-1.095179667029e-03 1.557798748597e-03 0.0 
1.557798748597e-03 6.653263072964e-03 0.0 
0.0 0.0 0.0 
-1.073264098673e-03 1.536151467758e-03 0.0 
1.536151467758e-03 8.048090190658e-03 0.0 
0.0 0.0 0.0 
-1.138871393885e-03 1.531656334323e-03 0.0 
1.531656334323e-03 9.466553357640e-03 0.0 
0.0 0.0 0.0 
-1.494571812045e-03 1.089002009765e-03 0.0 
1.089002009765e-03 1.114678365888e-02 0.0 
0.0 0.0 0.0 
-1.289782174362e-03 5.338698216406e-04 0.0 
5.338698216406e-04 1.183827834213e-02 0.0 
0.0 0.0 0.0 
-8.639618990283e-04 -2.735516809557e-05 0.0 
-2.735516809557e-05 1.156181900989e-02 0.0 
0.0 0.0 0.0 
-8.348315346538e-04 -2.291438462356e-05 0.0 
-2.291438462356e-05 1.181120666561e-02 0.0 
0.0 0.0 0.0 
-8.200657416847e-04 5.299376569204e-06 0.0 
5.299376569204e-06 1.219366390497e-02 0.0 
0.0 0.0 0.0 
-8.193298392615e-04 -2.459791456254e-06 0.0 
-2.459791456254e-06 1.222280041595e-02 0.0 
0.0 0.0 0.0 
-8.239250582628e-04 -3.626543297215e-06 0.0 
-3.626543297215e-06 1.222574412560e-02 0.0 
0.0 0.0 0.0 
-8.288994934544e-04 -7.849579222311e-06 0.0 
-7.849579222311e-06 1.222154237732e-02 0.0 
0.0 0.0 0.0 
-8.352988778370e-04 -5.687647242467e-06 0.0 
-5.687647242467e-06 1.228211998380e-02 0.0 
0.0 0.0 0.0 
-8.453166562855e-04 -1.124783339376e-05 0.0 
-1.124783339376e-05 1.223579433409e-02 0.0 
0.0 0.0 0.0 
-8.560968992432e-04 -1.393567470519e-05 0.0 
-1.393567470519e-05 1.223465129722e-02 0.0 
0.0 0.0 0.0 
-8.700274316974e-04 -1.138100566836e-05 0.0 
-1.138100566836e-05 1.224317874716e-02 0.0 
0.0 0.0 0.0 
-8.979736893118e-04 -6.845067181600e-06 0.0 
-6.845067181600e-06 1.226085679981e-02 0.0 
0.0 0.0 0.0 
-9.275788648211e-04 5.091137407835e-06 0.0 
5.091137407835e-06 1.226516537939e-02 0.0 
0.0 0.0 0.0 
-9.606739298964e-04 2.695775833529e-05 0.0 
2.695775833529e-05 1.226949214743e-02 0.0 
0.0 0.0 0.0 
-1.010844056849e-03 6.382826173685e-05 0.0 
6.382826173685e-05 1.227574398024e-02 0.0 
0.0 0.0 0.0 
-1.073840071369e-03 1.300784043646e-04 0.0 
1.300784043646e-04 1.228066098538e-02 0.0 
0.0 0.0 0.0 
-1.159098907730e-03 2.354764975388e-04 0.0 
2.354764975388e-04 1.229128969215e-02 0.0 
0.0 0.0 0.0 
-9.748022769697e-04 1.651684874290e-04 0.0 
1.651684874290e-04 5.735315441901e-04 0.0 
0.0 0.0 0.0 
-1.098289987727e-03 2.995582793075e-05 0.0 
2.995582793075e-05 6.012139184504e-04 0.0 
0.0 0.0 0.0 
-1.102299386005e-03 -4.027578935546e-05 0.0 
-4.027578935546e-05 5.805706853549e-04 0.0 
0.0 0.0 0.0 
-1.024848669582e-03 -5.687985260762e-05 0.0 
-5.687985260762e-05 5.412295829358e-04 0.0 
0.0 0.0 0.0 
-9.061962648381e-04 -7.334763131970e-05 0.0 
-7.334763131970e-05 4.976018950977e-04 0.0 
0.0 0.0 0.0 
-8.051663209291e-04 -7.436017641789e-05 0.0 
-7.436017641789e-05 4.586179148152e-04 0.0 
0.0 0.0 0.0 
-7.001869574765e-04 -7.165237253795e-05 0.0 
-7.165237253795e-05 4.144600896447e-04 0.0 
0.0 0.0 0.0 
-5.941305515593e-04 -6.793232049091e-05 0.0 
-6.793232049091e-05 3.681596687234e-04 0.0 
0.0 0.0 0.0 
-4.943369312918e-04 -6.546603704987e-05 0.0 
-6.546603704987e-05 3.256209603511e-04 0.0 
0.0 0.0 0.0 
-4.001354924686e-04 -6.082722148027e-05 0.0 
-6.082722148027e-05 2.845202648542e-04 0.0 
0.0 0.0 0.0 
-3.101526658792e-04 -5.452839702147e-05 0.0 
-5.452839702147e-05 2.507387735345e-04 0.0 
0.0 0.0 0.0 
-2.510972201591e-04 -4.809587442096e-05 0.0 
-4.809587442096e-05 2.281115078513e-04 0.0 
0.0 0.0 0.0 
-1.719484132579e-04 -3.901829242267e-05 0.0 
-3.901829242267e-05 1.905943245387e-04 0.0 
0.0 0.0 0.0 
-1.008978131665e-04 -3.674245845431e-05 0.0 
-3.674245845431e-05 1.541999677643e-04 0.0 
0.0 0.0 0.0 
-4.934472128093e-05 -3.474662192922e-05 0.0 
-3.474662192922e-05 1.329875567109e-04 0.0 
0.0 0.0 0.0 
-1.597828879888e-05 -2.605638559328e-05 0.0 
-2.605638559328e-05 1.207391422154e-04 0.0 
0.0 0.0 0.0 
1.388569793936e-05 -1.484511114525e-05 0.0 
-1.484511114525e-05 1.076092333840e-04 0.0 
0.0 0.0 0.0 
4.521419144865e-05 -2.686015718988e-06 0.0 
-2.686015718988e-06 8.675092696768e-05 0.0 
0.0 0.0 0.0 
5.737743353958e-05 3.441085117863e-06 0.0 
3.441085117863e-06 7.220412059339e-05 0.0 
0.0 0.0 0.0 
-8.517057687754e-04 1.989730750949e-05 0.0 
1.989730750949e-05 1.160804675083e-02 0.0 
0.0 0.0 0.0 
-8.162523927735e-04 3.461741635739e-06 0.0 
3.461741635739e-06 1.159859447813e-02 0.0 
0.0 0.0 0.0 
-8.150433002312e-04 -5.094373317414e-06 0.0 
-5.094373317414e-06 1.159498367153e-02 0.0 
0.0 0.0 0.0 
-8.109720213746e-04 -1.002871840715e-05 0.0 
-1.002871840715e-05 1.159400664606e-02 0.0 
0.0 0.0 0.0 
-8.017110788643e-04 -1.316648833358e-05 0.0 
-1.316648833358e-05 1.159099014200e-02 0.0 
0.0 0.0 0.0 
-7.899341705697e-04 -1.724050164957e-05 0.0 
-1.724050164957e-05 1.158748764667e-02 0.0 
0.0 0.0 0.0 
-7.734216323782e-04 -2.020402634384e-05 0.0 
-2.020402634384e-05 1.158268815102e-02 0.0 
0.0 0.0 0.0 
-7.556971722136e-04 -2.532035707329e-05 0.0 
-2.532035707329e-05 1.157528183962e-02 0.0 
0.0 0.0 0.0 
-7.335683440327e-04 -2.907470138345e-05 0.0 
-2.907470138345e-05 1.156411090511e-02 0.0 
0.0 0.0 0.0 
-7.096719198099e-04 -3.128964036262e-05 0.0 
-3.128964036262e-05 1.155556673259e-02 0.0 
0.0 0.0 0.0 
-6.865195981906e-04 -3.237968740091e-05 0.0 
-3.237968740091e-05 1.154685349039e-02 0.0 
0.0 0.0 0.0 
-6.680661386019e-04 -2.936745555874e-05 0.0 
-2.936745555874e-05 1.153773882400e-02 0.0 
0.0 0.0 0.0 
-6.613625091986e-04 -1.929246874449e-05 0.0 
-1.929246874449e-05 1.153258404249e-02 0.0 
0.0 0.0 0.0 
-6.778298183180e-04 -1.858738982156e-07 0.0 
-1.858738982156e-07 1.152599929341e-02 0.0 
0.0 0.0 0.0 
-7.141181020258e-04 6.562638780218e-05 0.0 
6.562638780218e-05 1.153452162643e-02 0.0 
0.0 0.0 0.0 
-8.596252562537e-04 1.681352617247e-04 0.0 
1.681352617247e-04 1.155639597791e-02 0.0 
0.0 0.0 0.0 
-1.187465993053e-03 3.172139127885e-04 0.0 
3.172139127885e-04 1.159504741637e-02 0.0 
0.0 0.0 0.0 
-1.039004901837e-03 2.334801737348e-04 0.0 
2.334801737348e-04 1.178360429655e-02 0.0 
0.0 0.0 0.0 
-9.737761725135e-04 1.416664771826e-04 0.0 
1.416664771826e-04 1.183671613593e-02 0.0 
0.0 0.0 0.0 
-8.844061014256e-04 5.734827852551e-05 0.0 
5.734827852551e-05 1.181167224249e-02 0.0 
0.0 0.0 0.0 
-8.386866769902e-04 1.816208585913e-05 0.0 
1.816208585913e-05 1.180489017862e-02 0.0 
0.0 0.0 0.0 
-8.159082974753e-04 -4.782919895449e-06 0.0 
-4.782919895449e-06 1.180382830441e-02 0.0 
0.0 0.0 0.0 
-8.054955694549e-04 -1.548169982989e-05 0.0 
-1.548169982989e-05 1.180409419244e-02 0.0 
0.0 0.0 0.0 
-8.032661058638e-04 -2.013428387098e-05 0.0 
-2.013428387098e-05 1.180387595285e-02 0.0 
0.0 0.0 0.0 
-8.048743556827e-04 -2.172011927401e-05 0.0 
-2.172011927401e-05 1.180673822466e-02 0.0 
0.0 0.0 0.0 
-8.054759706603e-04 -1.885658774320e-05 0.0 
-1.885658774320e-05 1.181021900372e-02 0.0 
0.0 0.0 0.0 
-8.105776329379e-04 -1.810201560861e-05 0.0 
-1.810201560861e-05 1.181082048525e-02 0.0 
0.0 0.0 0.0 
-8.133095261559e-04 -1.465789509628e-05 0.0 
-1.465789509628e-05 1.181151650053e-02 0.0 
0.0 0.0 0.0 
-8.162431575639e-04 -1.293123651944e-05 0.0 
-1.293123651944e-05 1.181169875065e-02 0.0 
0.0 0.0 0.0 
-8.189960359590e-04 -8.796551567338e-06 0.0 
-8.796551567338e-06 1.181318020490e-02 0.0 
0.0 0.0 0.0 
-8.198934882339e-04 -4.889470868757e-06 0.0 
-4.889470868757e-06 1.181249489654e-02 0.0 
0.0 0.0 0.0 
-8.232767287479e-04 -4.109847613307e-06 0.0 
-4.109847613307e-06 1.181776812189e-02 0.0 
0.0 0.0 0.0 
-8.370602911655e-04 1.940481266356e-05 0.0 
1.940481266356e-05 1.182072526508e-02 0.0 
0.0 0.0 0.0 
-8.552287426599e-04 8.321162652228e-04 0.0 
8.321162652228e-04 7.838592117084e-04 0.0 
0.0 0.0 0.0 
-1.011077697206e-03 1.293612222239e-03 0.0 
1.293612222239e-03 1.921197141488e-03 0.0 
0.0 0.0 0.0 
-1.079150125057e-03 1.484740353889e-03 0.0 
1.484740353889e-03 3.250750486042e-03 0.0 
0.0 0.0 0.0 
-1.109498804308e-03 1.558421558470e-03 0.0 
1.558421558470e-03 4.633830745462e-03 0.0 
0.0 0.0 0.0 
-1.134454612542e-03 1.591994563630e-03 0.0 
1.591994563630e-03 5.988966122829e-03 0.0 
0.0 0.0 0.0 
-1.084415539564e-03 1.589695596521e-03 0.0 
1.589695596521e-03 7.362763385736e-03 0.0 
0.0 0.0 0.0 
-1.080653079638e-03 1.541136378131e-03 0.0 
1.541136378131e-03 8.749097541854e-03 0.0 
0.0 0.0 0.0 
-1.329505979483e-03 1.510686713135e-03 0.0 
1.510686713135e-03 1.025112274042e-02 0.0 
0.0 0.0 0.0 
-1.436554181137e-03 6.938175599956e-04 0.0 
6.938175599956e-04 1.167282003830e-02 0.0 
0.0 0.0 0.0 
-1.305652812619e-03 4.861831485389e-04 0.0 
4.861831485389e-04 1.211316928010e-02 0.0 
0.0 0.0 0.0 
-8.092060822307e-04 1.194286066178e-03 0.0 
1.194286066178e-03 2.328645270555e-03 0.0 
0.0 0.0 0.0 
2.215657191132e-04 1.674262425311e-03 0.0 
1.674262425311e-03 9.102316080952e-03 0.0 
0.0 0.0 0.0 
-3.457756748905e-04 -1.102796841729e-04 0.0 
-1.102796841729e-04 3.993297319791e-04 0.0 
0.0 0.0 0.0 
-7.431249956524e-04 -9.899315785596e-05 0.0 
-9.899315785596e-05 5.643361397568e-04 0.0 
0.0 0.0 0.0 
1.978931622919e-04 1.055170961673e-03 0.0 
1.055170961673e-03 8.447810604002e-03 0.0 
0.0 0.0 0.0 
-9.123543546864e-04 1.524652778888e-03 0.0 
1.524652778888e-03 5.013346086095e-03 0.0 
0.0 0.0 0.0 
6.848922710732e-04 -2.577706569564e-06 0.0 
-2.577706569564e-06 3.928390822613e-03 0.0 
0.0 0.0 0.0 
1.976205961697e-04 2.177546580671e-03 0.0 
2.177546580671e-03 9.974328484003e-03 0.0 
0.0 0.0 0.0 
-9.494469562818e-04 1.603600706079e-03 0.0 
1.603600706079e-03 7.626864419280e-03 0.0 
0.0 0.0 0.0 
9.179270428472e-05 2.539617527059e-03 0.0 
2.539617527059e-03 1.123609571197e-02 0.0 
0.0 0.0 0.0 
-1.329605092871e-03 1.537947231965e-03 0.0 
1.537947231965e-03 1.054533913016e-02 0.0 
0.0 0.0 0.0 
1.619881626015e-04 6.261425191467e-04 0.0 
6.261425191467e-04 8.214662026248e-03 0.0 
0.0 0.0 0.0 
-8.479070103797e-05 -6.554040907896e-05 0.0 
-6.554040907896e-05 2.749303930256e-04 0.0 
0.0 0.0 0.0 
-6.914831680995e-05 2.575192767525e-03 0.0 
2.575192767525e-03 1.271903061168e-02 0.0 
0.0 0.0 0.0 
-1.439622303402e-03 7.229123515469e-04 0.0 
7.229123515469e-04 1.234749978575e-02 0.0 
0.0 0.0 0.0 
4.889883486118e-04 -2.357759516415e-05 0.0 
-2.357759516415e-05 2.346194491780e-03 0.0 
0.0 0.0 0.0 
6.749844734141e-04 2.618267100957e-05 0.0 
2.618267100957e-05 5.118147503473e-03 0.0 
0.0 0.0 0.0 
-2.077155115727e-04 2.319057310749e-03 0.0 
2.319057310749e-03 1.376723797933e-02 0.0 
0.0 0.0 0.0 
-2.647519234988e-04 1.720590044462e-03 0.0 
1.720590044462e-03 1.484916745372e-02 0.0 
0.0 0.0 0.0 
-1.712279303518e-04 4.687124988013e-04 0.0 
4.687124988013e-04 1.562013263395e-02 0.0 
0.0 0.0 0.0 
-2.354829501374e-04 8.118335137338e-04 0.0 
8.118335137338e-04 1.549831064992e-02 0.0 
0.0 0.0 0.0 
-2.520020045264e-04 1.237211917566e-03 0.0 
1.237211917566e-03 1.529698796561e-02 0.0 
0.0 0.0 0.0 
-1.250724696334e-03 3.166953102876e-04 0.0 
3.166953102876e-04 1.267140782721e-02 0.0 
0.0 0.0 0.0 
-9.863778485181e-04 5.820445365428e-05 0.0 
5.820445365428e-05 1.267670816277e-02 0.0 
0.0 0.0 0.0 
-8.840812116907e-04 2.045967633180e-05 0.0 
2.045967633180e-05 1.267628055833e-02 0.0 
0.0 0.0 0.0 
-6.605546731715e-04 2.309799149109e-05 0.0 
2.309799149109e-05 1.406331417062e-02 0.0 
0.0 0.0 0.0 
1.440803759602e-04 3.574859568968e-04 0.0 
3.574859568968e-04 8.085135973773e-03 0.0 
0.0 0.0 0.0 
-8.108855425523e-04 1.201529035736e-04 0.0 
1.201529035736e-04 6.590971853686e-04 0.0 
0.0 0.0 0.0 
3.561534132603e-05 -3.691193417267e-05 0.0 
-3.691193417267e-05 2.413740675665e-04 0.0 
0.0 0.0 0.0 
4.704873882014e-04 5.015658179998e-05 0.0 
5.015658179998e-05 6.625657016756e-03 0.0 
0.0 0.0 0.0 
-8.261760047236e-04 8.543877848514e-06 0.0 
8.543877848514e-06 1.260339188805e-02 0.0 
0.0 0.0 0.0 
2.448506944431e-04 -2.913484183051e-05 0.0 
-2.913484183051e-05 1.196369158145e-03 0.0 
0.0 0.0 0.0 
-2.878143771872e-04 2.009763202089e-03 0.0 
2.009763202089e-03 1.435262236146e-02 0.0 
0.0 0.0 0.0 
1.440287023706e-04 2.402605922214e-03 0.0 
2.402605922214e-03 1.061103326078e-02 0.0 
0.0 0.0 0.0 
1.363689115145e-05 2.607428255711e-03 0.0 
2.607428255711e-03 1.197030851178e-02 0.0 
0.0 0.0 0.0 
2.320445599312e-04 1.948853585538e-03 0.0 
1.948853585538e-03 9.493156377167e-03 0.0 
0.0 0.0 0.0 
2.003868426903e-04 1.417495218607e-03 0.0 
1.417495218607e-03 8.805703121126e-03 0.0 
0.0 0.0 0.0 
-5.821535760786e-04 -1.220832386910e-04 0.0 
-1.220832386910e-04 5.134480071610e-04 0.0 
0.0 0.0 0.0 
-1.092741399279e-03 1.343550695972e-04 0.0 
1.343550695972e-04 1.267502758757e-02 0.0 
0.0 0.0 0.0 
2.054390726789e-04 8.144205512296e-04 0.0 
8.144205512296e-04 8.201805221557e-03 0.0 
0.0 0.0 0.0 
-4.940048347900e-04 4.321348231327e-05 0.0 
4.321348231327e-05 1.477385465487e-02 0.0 
0.0 0.0 0.0 
-1.991534047232e-04 -9.999783505826e-05 0.0 
-9.999783505826e-05 3.444356147787e-04 0.0 
0.0 0.0 0.0 
6.125086413109e-04 -1.668787729345e-05 0.0 
-1.668787729345e-05 3.097064042343e-03 0.0 
0.0 0.0 0.0 
-1.319711728859e-04 2.872102773787e-04 0.0 
2.872102773787e-04 1.569064753728e-02 0.0 
0.0 0.0 0.0 
-9.008981894209e-04 1.578692732756e-03 0.0 
1.578692732756e-03 6.310127915033e-03 0.0 
0.0 0.0 0.0 
-8.655766527579e-04 1.404916586405e-03 0.0 
1.404916586405e-03 3.642033499667e-03 0.0 
0.0 0.0 0.0 
-1.020078603443e-03 1.635254965714e-03 0.0 
1.635254965714e-03 9.019978630637e-03 0.0 
0.0 0.0 0.0 
-1.444680705779e-03 1.044050452305e-03 0.0 
1.044050452305e-03 1.169622325824e-02 0.0 
0.0 0.0 0.0 
-7.677106089500e-04 8.181849258657e-04 0.0 
8.181849258657e-04 1.145162542991e-03 0.0 
0.0 0.0 0.0 
-7.598827335693e-04 1.060299334082e-05 0.0 
1.060299334082e-05 1.332223304322e-02 0.0 
0.0 0.0 0.0 
1.097417955188e-04 1.956636279846e-04 0.0 
1.956636279846e-04 8.139266639043e-03 0.0 
0.0 0.0 0.0 
7.700474730506e-05 -8.786124822928e-06 0.0 
-8.786124822928e-06 2.061854171358e-04 0.0 
0.0 0.0 0.0 
-2.425618582749e-04 7.073625555055e-05 0.0 
7.073625555055e-05 1.542321443030e-02 0.0 
0.0 0.0 0.0 
-1.434291086044e-03 6.462310963639e-04 0.0 
6.462310963639e-04 1.258606416163e-02 0.0 
0.0 0.0 0.0 
-1.449735485506e-03 9.180700423137e-04 0.0 
9.180700423137e-04 1.257212738656e-02 0.0 
0.0 0.0 0.0 
-1.418524867938e-03 7.776251979061e-04 0.0 
7.776251979061e-04 1.285980039958e-02 0.0 
0.0 0.0 0.0 
-1.404354891797e-03 1.085416975334e-03 0.0 
1.085416975334e-03 1.278923124157e-02 0.0 
0.0 0.0 0.0 
-1.386970851343e-03 9.744435796969e-04 0.0 
9.744435796969e-04 1.311400250029e-02 0.0 
0.0 0.0 0.0 
-1.327430365301e-03 1.225321026229e-03 0.0 
1.225321026229e-03 1.301328673614e-02 0.0 
0.0 0.0 0.0 
-1.320071062400e-03 1.352873460334e-03 0.0 
1.352873460334e-03 1.263365701167e-02 0.0 
0.0 0.0 0.0 
-1.220189793861e-03 1.461253847212e-03 0.0 
1.461253847212e-03 1.285074497625e-02 0.0 
0.0 0.0 0.0 
-1.177754668827e-03 1.585614479235e-03 0.0 
1.585614479235e-03 1.240598659348e-02 0.0 
0.0 0.0 0.0 
-1.306122457860e-03 1.126116206374e-03 0.0 
1.126116206374e-03 1.334879165221e-02 0.0 
0.0 0.0 0.0 
-1.072280779147e-03 1.664428374718e-03 0.0 
1.664428374718e-03 1.263543102478e-02 0.0 
0.0 0.0 0.0 
-1.001002133153e-03 1.771313315968e-03 0.0 
1.771313315968e-03 1.213637316831e-02 0.0 
0.0 0.0 0.0 
-8.978770005313e-04 1.831031764479e-03 0.0 
1.831031764479e-03 1.238403473873e-02 0.0 
0.0 0.0 0.0 
-8.071616976525e-04 1.913026223968e-03 0.0 
1.913026223968e-03 1.184703205149e-02 0.0 
0.0 0.0 0.0 
-8.892872771219e-04 1.873484447391e-03 0.0 
1.873484447391e-03 1.157721211163e-02 0.0 
0.0 0.0 0.0 
-6.804864304130e-04 1.981848730871e-03 0.0 
1.981848730871e-03 1.125932044536e-02 0.0 
0.0 0.0 0.0 
-7.436157382238e-04 1.956244424245e-03 0.0 
1.956244424245e-03 1.096432445322e-02 0.0 
0.0 0.0 0.0 
-5.264155712443e-04 2.027538997300e-03 0.0 
2.027538997300e-03 1.062809691077e-02 0.0 
0.0 0.0 0.0 
-4.753783439237e-04 2.051706857789e-03 0.0 
2.051706857789e-03 1.095227652271e-02 0.0 
0.0 0.0 0.0 
-3.186682603451e-04 2.063547235320e-03 0.0 
2.063547235320e-03 1.031159647102e-02 0.0 
0.0 0.0 0.0 
-3.532712627236e-04 2.043229997822e-03 0.0 
2.043229997822e-03 9.961362159179e-03 0.0 
0.0 0.0 0.0 
-1.485050677924e-04 2.049081772910e-03 0.0 
2.049081772910e-03 9.647444914536e-03 0.0 
0.0 0.0 0.0 
-1.742912907489e-04 2.026223496721e-03 0.0 
2.026223496721e-03 9.275365274943e-03 0.0 
0.0 0.0 0.0 
2.343453543811e-05 2.004399417772e-03 0.0 
2.004399417772e-03 8.972325266391e-03 0.0 
0.0 0.0 0.0 
-3.699897541491e-07 1.975197308637e-03 0.0 
1.975197308637e-03 8.580642674331e-03 0.0 
0.0 0.0 0.0 
1.891195066170e-04 1.931455746849e-03 0.0 
1.931455746849e-03 8.295899657335e-03 0.0 
0.0 0.0 0.0 
2.010523622727e-04 1.965959124757e-03 0.0 
1.965959124757e-03 8.705389800425e-03 0.0 
0.0 0.0 0.0 
3.571425522956e-04 1.875853076269e-03 0.0 
1.875853076269e-03 8.048587857771e-03 0.0 
0.0 0.0 0.0 
3.431712758327e-04 1.835148080890e-03 0.0 
1.835148080890e-03 7.627394083670e-03 0.0 
0.0 0.0 0.0 
5.005411960566e-04 1.763976676164e-03 0.0 
1.763976676164e-03 7.403124099573e-03 0.0 
0.0 0.0 0.0 
4.798477299614e-04 1.716171926682e-03 0.0 
1.716171926682e-03 6.973726348966e-03 0.0 
0.0 0.0 0.0 
6.266249766695e-04 1.631971590416e-03 0.0 
1.631971590416e-03 6.773644458364e-03 0.0 
0.0 0.0 0.0 
6.343951525920e-04 1.687611745550e-03 0.0 
1.687611745550e-03 7.216497771403e-03 0.0 
0.0 0.0 0.0 
7.489305180745e-04 1.545488544193e-03 0.0 
1.545488544193e-03 6.614561391977e-03 0.0 
0.0 0.0 0.0 
7.319897710298e-04 1.481610536573e-03 0.0 
1.481610536573e-03 6.163922077009e-03 0.0 
0.0 0.0 0.0 
8.431675641315e-04 1.388957059278e-03 0.0 
1.388957059278e-03 6.036169779527e-03 0.0 
0.0 0.0 0.0 
8.142921688093e-04 1.317194508934e-03 0.0 
1.317194508934e-03 5.580912298855e-03 0.0 
0.0 0.0 0.0 
9.151937823321e-04 1.222200000457e-03 0.0 
1.222200000457e-03 5.485833285065e-03 0.0 
0.0 0.0 0.0 
8.719408626538e-04 1.144803122164e-03 0.0 
1.144803122164e-03 5.028650660321e-03 0.0 
0.0 0.0 0.0 
9.631935729261e-04 1.046986750348e-03 0.0 
1.046986750348e-03 4.963386237754e-03 0.0 
0.0 0.0 0.0 
9.914819120833e-04 1.131430794377e-03 0.0 
1.131430794377e-03 5.424635750338e-03 0.0 
0.0 0.0 0.0 
1.030319408256e-03 9.573532962402e-04 0.0 
9.573532962402e-04 4.930211163002e-03 0.0 
0.0 0.0 0.0 
9.858068736705e-04 8.687766536035e-04 0.0 
8.687766536035e-04 4.472887241082e-03 0.0 
0.0 0.0 0.0 
1.045087713406e-03 7.822369278664e-04 0.0 
7.822369278664e-04 4.467303611186e-03 0.0 
0.0 0.0 0.0 
1.077038524606e-03 8.777312546466e-04 0.0 
8.777312546466e-04 4.927390312885e-03 0.0 
0.0 0.0 0.0 
1.084524417706e-03 7.080478777191e-04 0.0 
7.080478777191e-04 4.489966074268e-03 0.0 
0.0 0.0 0.0 
1.104249392922e-03 8.090034432078e-04 0.0 
8.090034432078e-04 4.951938812220e-03 0.0 
0.0 0.0 0.0 
1.105964992050e-03 6.457849010690e-04 0.0 
6.457849010690e-04 4.537853434263e-03 0.0 
0.0 0.0 0.0 
1.069910065623e-03 5.444013218139e-04 0.0 
5.444013218139e-04 4.088135611945e-03 0.0 
0.0 0.0 0.0 
1.087132062463e-03 4.899066666293e-04 0.0 
4.899066666293e-04 4.156644312514e-03 0.0 
0.0 0.0 0.0 
1.111614473147e-03 5.939668120509e-04 0.0 
5.939668120509e-04 4.607229856458e-03 0.0 
0.0 0.0 0.0 
1.090119167927e-03 4.455597964305e-04 0.0 
4.455597964305e-04 4.243082412789e-03 0.0 
0.0 0.0 0.0 
1.049276676223e-03 3.434340868628e-04 0.0 
3.434340868628e-04 3.806278296803e-03 0.0 
0.0 0.0 0.0 
1.051560978838e-03 3.091106921993e-04 0.0 
3.091106921993e-04 3.909283532357e-03 0.0 
0.0 0.0 0.0 
1.081106979248e-03 4.115799503809e-04 0.0 
4.115799503809e-04 4.347752692934e-03 0.0 
0.0 0.0 0.0 
1.043168075723e-03 2.836217258004e-04 0.0 
2.836217258004e-04 4.027328396155e-03 0.0 
0.0 0.0 0.0 
9.982673616615e-04 1.852875236375e-04 0.0 
1.852875236375e-04 3.602679822222e-03 0.0 
0.0 0.0 0.0 
9.921183549296e-04 1.692884030462e-04 0.0 
1.692884030462e-04 3.731749038403e-03 0.0 
0.0 0.0 0.0 
1.026059245548e-03 2.662306423934e-04 0.0 
2.662306423934e-04 4.160659130311e-03 0.0 
0.0 0.0 0.0 
9.783465974740e-04 1.593651730260e-04 0.0 
1.593651730260e-04 3.871540524046e-03 0.0 
0.0 0.0 0.0 
9.302683959151e-04 6.922230527582e-05 0.0 
6.922230527582e-05 3.456670772163e-03 0.0 
0.0 0.0 0.0 
9.209902249207e-04 6.787542728574e-05 0.0 
6.787542728574e-05 3.602212633056e-03 0.0 
0.0 0.0 0.0 
9.585058488767e-04 1.554507480310e-04 0.0 
1.554507480310e-04 4.022580671879e-03 0.0 
0.0 0.0 0.0 
9.064148175756e-04 7.068081585672e-05 0.0 
7.068081585672e-05 3.756070400952e-03 0.0 
0.0 0.0 0.0 
9.331469046760e-04 1.549845535563e-04 0.0 
1.549845535563e-04 4.181966210023e-03 0.0 
0.0 0.0 0.0 
8.558247121640e-04 -9.145070743859e-06 0.0 
-9.145070743859e-06 3.345920636957e-03 0.0 
0.0 0.0 0.0 
8.479234415705e-04 4.265471254974e-07 0.0 
4.265471254974e-07 3.503280695375e-03 0.0 
0.0 0.0 0.0 
7.851724023053e-04 -7.014782807597e-05 0.0 
-7.014782807597e-05 3.102045481605e-03 0.0 
0.0 0.0 0.0 
7.848294317055e-04 -5.438531565726e-05 0.0 
-5.438531565726e-05 3.263163365869e-03 0.0 
0.0 0.0 0.0 
7.432866338215e-04 1.610324924144e-03 0.0 
1.610324924144e-03 7.068589604010e-03 0.0 
0.0 0.0 0.0 
7.124803157734e-04 -1.145439731328e-04 0.0 
-1.145439731328e-04 2.870825624445e-03 0.0 
0.0 0.0 0.0 
7.011357301004e-04 -1.326597516735e-04 0.0 
-1.326597516735e-04 2.717849934525e-03 0.0 
0.0 0.0 0.0 
7.197637928461e-04 -9.404208828180e-05 0.0 
-9.404208828180e-05 3.033519026490e-03 0.0 
0.0 0.0 0.0 
7.805063326924e-04 -3.682784630886e-05 0.0 
-3.682784630886e-05 3.431821307644e-03 0.0 
0.0 0.0 0.0 
6.399111722120e-04 -1.439543287250e-04 0.0 
-1.439543287250e-04 2.647808674489e-03 0.0 
0.0 0.0 0.0 
6.545235840835e-04 -1.197095089255e-04 0.0 
-1.197095089255e-04 2.811452951395e-03 0.0 
0.0 0.0 0.0 
5.683720385028e-04 -1.586854647888e-04 0.0 
-1.586854647888e-04 2.432234491064e-03 0.0 
0.0 0.0 0.0 
7.542984521854e-04 1.247740153900e-03 0.0 
1.247740153900e-03 5.123085360219e-03 0.0 
0.0 0.0 0.0 
-2.817530021751e-04 2.091359796026e-03 0.0 
2.091359796026e-03 1.066268345038e-02 0.0 
0.0 0.0 0.0 
5.901327698811e-04 -1.318413624983e-04 0.0 
-1.318413624983e-04 2.595657538198e-03 0.0 
0.0 0.0 0.0 
5.001688020807e-04 -1.609590937208e-04 0.0 
-1.609590937208e-04 2.221459171860e-03 0.0 
0.0 0.0 0.0 
4.674026313892e-04 -1.872896543482e-04 0.0 
-1.872896543482e-04 2.062169335603e-03 0.0 
0.0 0.0 0.0 
3.992887439622e-04 -1.793179533678e-04 0.0 
-1.793179533678e-04 1.854498538861e-03 0.0 
0.0 0.0 0.0 
-1.344116049344e-03 8.969602267170e-04 0.0 
8.969602267170e-04 1.339199933807e-02 0.0 
0.0 0.0 0.0 
-1.250460367085e-03 1.046785246464e-03 0.0 
1.046785246464e-03 1.365266131204e-02 0.0 
0.0 0.0 0.0 
-1.277434749829e-03 8.233617608702e-04 0.0 
8.233617608702e-04 1.365574064470e-02 0.0 
0.0 0.0 0.0 
-1.179171984031e-03 9.844135063218e-04 0.0 
9.844135063218e-04 1.393349223430e-02 0.0 
0.0 0.0 0.0 
-1.198678534910e-03 7.793860371565e-04 0.0 
7.793860371565e-04 1.390946075856e-02 0.0 
0.0 0.0 0.0 
4.371288902288e-04 -1.527936584083e-04 0.0 
-1.527936584083e-04 2.012319405762e-03 0.0 
0.0 0.0 0.0 
-9.474758928127e-04 1.747151764912e-03 0.0 
1.747151764912e-03 1.287034909654e-02 0.0 
0.0 0.0 0.0 
-1.127039647208e-03 1.194079362606e-03 0.0 
1.194079362606e-03 1.390434771090e-02 0.0 
0.0 0.0 0.0 
-3.902740120105e-04 2.022867969580e-03 0.0 
2.022867969580e-03 9.617353989963e-03 0.0 
0.0 0.0 0.0 
3.093581479749e-04 1.792782298042e-03 0.0 
1.792782298042e-03 7.212510746570e-03 0.0 
0.0 0.0 0.0 
1.081000471582e-03 9.760441537308e-04 0.0 
9.760441537308e-04 5.398348653641e-03 0.0 
0.0 0.0 0.0 
6.652453846303e-04 -9.522404517728e-05 0.0 
-9.522404517728e-05 2.978936481695e-03 0.0 
0.0 0.0 0.0 
6.078463337038e-04 -1.045466655545e-04 0.0 
-1.045466655545e-04 2.762531585409e-03 0.0 
0.0 0.0 0.0 
6.721449933359e-04 -7.185675877790e-05 0.0 
-7.185675877790e-05 3.150289790767e-03 0.0 
0.0 0.0 0.0 
9.712434517125e-04 2.472793677659e-04 0.0 
2.472793677659e-04 4.460542315867e-03 0.0 
0.0 0.0 0.0 
9.351134117179e-04 2.423172595537e-04 0.0 
2.423172595537e-04 4.623819652504e-03 0.0 
0.0 0.0 0.0 
9.581363834670e-04 3.415607798750e-04 0.0 
3.415607798750e-04 4.914666282387e-03 0.0 
0.0 0.0 0.0 
9.116027891629e-04 3.308750573794e-04 0.0 
3.308750573794e-04 5.081142546960e-03 0.0 
0.0 0.0 0.0 
9.185181018464e-04 4.361481694714e-04 0.0 
4.361481694714e-04 5.384323616338e-03 0.0 
0.0 0.0 0.0 
8.623891615583e-04 4.189828714125e-04 0.0 
4.189828714125e-04 5.554155533324e-03 0.0 
0.0 0.0 0.0 
8.616264091684e-04 3.195969789495e-04 0.0 
3.195969789495e-04 5.255246263993e-03 0.0 
0.0 0.0 0.0 
8.031007664211e-04 4.000526770172e-04 0.0 
4.000526770172e-04 5.731808672079e-03 0.0 
0.0 0.0 0.0 
8.091889917102e-04 3.067464179434e-04 0.0 
3.067464179434e-04 5.435883658861e-03 0.0 
0.0 0.0 0.0 
8.525711978555e-04 5.294920882201e-04 0.0 
5.294920882201e-04 5.869409935011e-03 0.0 
0.0 0.0 0.0 
9.140950305179e-04 5.524824612028e-04 0.0 
5.524824612028e-04 5.704894728353e-03 0.0 
0.0 0.0 0.0 
7.419804713353e-04 3.788922254593e-04 0.0 
3.788922254593e-04 5.915840229951e-03 0.0 
0.0 0.0 0.0 
7.551449216727e-04 2.915522274173e-04 0.0 
2.915522274173e-04 5.622550332697e-03 0.0 
0.0 0.0 0.0 
6.799577111068e-04 3.552228591292e-04 0.0 
3.552228591292e-04 6.106467794929e-03 0.0 
0.0 0.0 0.0 
7.003742611701e-04 2.725501189333e-04 0.0 
2.725501189333e-04 5.814495200972e-03 0.0 
0.0 0.0 0.0 
7.600283947486e-04 2.150836818080e-04 0.0 
2.150836818080e-04 5.340982136440e-03 0.0 
0.0 0.0 0.0 
7.133459214005e-04 2.008516045640e-04 0.0 
2.008516045640e-04 5.532763617741e-03 0.0 
0.0 0.0 0.0 
7.580074706821e-04 1.500872057125e-04 0.0 
1.500872057125e-04 5.071803328893e-03 0.0 
0.0 0.0 0.0 
1.096664788614e-03 9.124667382178e-04 0.0 
9.124667382178e-04 5.424908218595e-03 0.0 
0.0 0.0 0.0 
1.058720291823e-03 1.077585667487e-03 0.0 
1.077585667487e-03 5.879724392145e-03 0.0 
0.0 0.0 0.0 
1.063086720888e-03 1.018547903673e-03 0.0 
1.018547903673e-03 5.907826157271e-03 0.0 
0.0 0.0 0.0 
1.011024884567e-03 1.181705629185e-03 0.0 
1.181705629185e-03 6.369664322571e-03 0.0 
0.0 0.0 0.0 
1.003583537997e-03 1.126988984355e-03 0.0 
1.126988984355e-03 6.401036101731e-03 0.0 
0.0 0.0 0.0 
9.381008347854e-04 1.288756203870e-03 0.0 
1.288756203870e-03 6.868891174487e-03 0.0 
0.0 0.0 0.0 
9.176460548496e-04 1.238186056255e-03 0.0 
1.238186056255e-03 6.903934153840e-03 0.0 
0.0 0.0 0.0 
9.791197563690e-04 1.078012787780e-03 0.0 
1.078012787780e-03 6.457270039039e-03 0.0 
0.0 0.0 0.0 
-7.119802774888e-04 1.964506821915e-03 0.0 
1.964506821915e-03 1.211278317613e-02 0.0 
0.0 0.0 0.0 
9.844006831552e-04 6.906331851279e-04 0.0 
6.906331851279e-04 4.017821784872e-03 0.0 
0.0 0.0 0.0 
9.112794088169e-04 7.844264138357e-04 0.0 
7.844264138357e-04 4.024779367505e-03 0.0 
0.0 0.0 0.0 
8.928824620174e-04 6.040030399349e-04 0.0 
6.040030399349e-04 3.578554631026e-03 0.0 
0.0 0.0 0.0 
8.039175148101e-04 7.054051488697e-04 0.0 
7.054051488697e-04 3.587219617947e-03 0.0 
0.0 0.0 0.0 
7.680792011890e-04 5.240404559821e-04 0.0 
5.240404559821e-04 3.150318146660e-03 0.0 
0.0 0.0 0.0 
6.603678829783e-04 6.348134497568e-04 0.0 
6.348134497568e-04 3.162198964065e-03 0.0 
0.0 0.0 0.0 
6.060843420025e-04 4.539572314830e-04 0.0 
4.539572314830e-04 2.733620827846e-03 0.0 
0.0 0.0 0.0 
7.074868999014e-04 3.511407273118e-04 0.0 
3.511407273118e-04 2.753255175495e-03 0.0 
0.0 0.0 0.0 
5.264268269285e-04 2.841004902183e-04 0.0 
2.841004902183e-04 2.346412819922e-03 0.0 
0.0 0.0 0.0 
6.240323879611e-04 1.903393197939e-04 0.0 
1.903393197939e-04 2.397184066360e-03 0.0 
0.0 0.0 0.0 
4.246303734259e-04 1.274286034844e-04 0.0 
1.274286034844e-04 2.002507820895e-03 0.0 
0.0 0.0 0.0 
5.195612319941e-04 4.740043624269e-05 0.0 
4.740043624269e-05 2.080231719028e-03 0.0 
0.0 0.0 0.0 
3.564908054903e-04 1.918416482732e-03 0.0 
1.918416482732e-03 8.472893488530e-03 0.0 
0.0 0.0 0.0 
9.406931264124e-04 1.345027331333e-03 0.0 
1.345027331333e-03 6.858008463778e-03 0.0 
0.0 0.0 0.0 
8.561732799687e-04 1.452000185402e-03 0.0 
1.452000185402e-03 7.361896771508e-03 0.0 
0.0 0.0 0.0 
8.547711005284e-04 1.505551111388e-03 0.0 
1.505551111388e-03 7.366350355289e-03 0.0 
0.0 0.0 0.0 
3.549375129109e-04 -2.034607056098e-04 0.0 
-2.034607056098e-04 1.698894018462e-03 0.0 
0.0 0.0 0.0 
6.459716939993e-04 2.489831197059e-04 0.0 
2.489831197059e-04 6.011046370804e-03 0.0 
0.0 0.0 0.0 
8.304611732778e-04 6.498371865019e-04 0.0 
6.498371865019e-04 6.203042730565e-03 0.0 
0.0 0.0 0.0 
8.963626755390e-04 6.781700332531e-04 0.0 
6.781700332531e-04 6.043097875664e-03 0.0 
0.0 0.0 0.0 
8.800079704127e-04 1.192645509217e-03 0.0 
1.192645509217e-03 6.967770233062e-03 0.0 
0.0 0.0 0.0 
3.386464860323e-04 -1.615518150006e-04 0.0 
-1.615518150006e-04 1.650603040288e-03 0.0 
0.0 0.0 0.0 
4.778317926639e-04 5.767765404541e-04 0.0 
5.767765404541e-04 2.750767828274e-03 0.0 
0.0 0.0 0.0 
5.218905651514e-04 7.627205307719e-04 0.0 
7.627205307719e-04 3.213161474212e-03 0.0 
0.0 0.0 0.0 
-1.089025438025e-03 9.337015929263e-04 0.0 
9.337015929263e-04 1.419000815469e-02 0.0 
0.0 0.0 0.0 
-1.105251674284e-03 7.464586251771e-04 0.0 
7.464586251771e-04 1.414247074063e-02 0.0 
0.0 0.0 0.0 
7.943218904797e-04 7.796612283035e-04 0.0 
7.796612283035e-04 6.556075427967e-03 0.0 
0.0 0.0 0.0 
3.795049372554e-04 -1.356060356861e-04 0.0 
-1.356060356861e-04 1.806219230803e-03 0.0 
0.0 0.0 0.0 
7.188063859905e-04 4.773804272139e-04 0.0 
4.773804272139e-04 6.224117055527e-03 0.0 
0.0 0.0 0.0 
3.083546476544e-04 2.312050988555e-04 0.0 
2.312050988555e-04 1.952498055062e-03 0.0 
0.0 0.0 0.0 
6.672605096705e-04 1.825592132118e-04 0.0 
1.825592132118e-04 5.728474906328e-03 0.0 
0.0 0.0 0.0 
5.920560071168e-04 2.211505558371e-04 0.0 
2.211505558371e-04 6.210711334190e-03 0.0 
0.0 0.0 0.0 
8.517306176103e-04 2.325903117800e-04 0.0 
2.325903117800e-04 4.972005234807e-03 0.0 
0.0 0.0 0.0 
7.616766243830e-04 1.613616974945e-03 0.0 
1.613616974945e-03 7.874377519873e-03 0.0 
0.0 0.0 0.0 
7.554125915296e-04 1.658540296054e-03 0.0 
1.658540296054e-03 7.892022043900e-03 0.0 
0.0 0.0 0.0 
6.969563957791e-04 1.187437812586e-04 0.0 
1.187437812586e-04 2.475313378384e-03 0.0 
0.0 0.0 0.0 
5.909354361064e-04 -9.181934314735e-06 0.0 
-9.181934314735e-06 2.179185896308e-03 0.0 
0.0 0.0 0.0 
4.006001353526e-04 -7.003622069389e-05 0.0 
-7.003622069389e-05 1.810664873445e-03 0.0 
0.0 0.0 0.0 
4.728992596541e-04 -1.096303735511e-04 0.0 
-1.096303735511e-04 1.923880249438e-03 0.0 
0.0 0.0 0.0 
6.519440483846e-04 -4.736650515916e-05 0.0 
-4.736650515916e-05 2.288107246898e-03 0.0 
0.0 0.0 0.0 
5.401782152132e-04 -1.398714448374e-04 0.0 
-1.398714448374e-04 2.032583637485e-03 0.0 
0.0 0.0 0.0 
3.593825494319e-04 -1.904013950764e-04 0.0 
-1.904013950764e-04 1.673189545767e-03 0.0 
0.0 0.0 0.0 
4.233195434078e-04 -2.057135212038e-04 0.0 
-2.057135212038e-04 1.797271528704e-03 0.0 
0.0 0.0 0.0 
5.920851945721e-04 -1.545999504533e-04 0.0 
-1.545999504533e-04 2.159918219184e-03 0.0 
0.0 0.0 0.0 
4.821629687051e-04 -2.126483116567e-04 0.0 
-2.126483116567e-04 1.930255163602e-03 0.0 
0.0 0.0 0.0 
3.060586890199e-04 -2.483868984956e-04 0.0 
-2.483868984956e-04 1.577079546342e-03 0.0 
0.0 0.0 0.0 
3.738440665291e-04 -2.457774672411e-04 0.0 
-2.457774672411e-04 1.712149788392e-03 0.0 
0.0 0.0 0.0 
5.556565378985e-04 2.933666048620e-04 0.0 
2.933666048620e-04 6.503325298925e-03 0.0 
0.0 0.0 0.0 
1.895829474785e-04 7.725915376529e-05 0.0 
7.725915376529e-05 1.624797770328e-03 0.0 
0.0 0.0 0.0 
-9.647401811673e-04 1.838518929898e-03 0.0 
1.838518929898e-03 1.131699396527e-02 0.0 
0.0 0.0 0.0 
7.197208925721e-04 7.444314554936e-04 0.0 
7.444314554936e-04 6.715581645095e-03 0.0 
0.0 0.0 0.0 
8.033366058170e-04 1.353684497904e-03 0.0 
1.353684497904e-03 7.416065929835e-03 0.0 
0.0 0.0 0.0 
-9.832891806491e-04 8.934626785033e-04 0.0 
8.934626785033e-04 1.442845151976e-02 0.0 
0.0 0.0 0.0 
-1.000741695401e-03 7.205333837066e-04 0.0 
7.205333837066e-04 1.436183358905e-02 0.0 
0.0 0.0 0.0 
-1.094784842739e-03 5.773728337045e-04 0.0 
5.773728337045e-04 1.404951791696e-02 0.0 
0.0 0.0 0.0 
-9.973726275158e-04 5.646517572324e-04 0.0 
5.646517572324e-04 1.425833408000e-02 0.0 
0.0 0.0 0.0 
-8.858772367402e-04 6.967767680561e-04 0.0 
6.967767680561e-04 1.456863227978e-02 0.0 
0.0 0.0 0.0 
-8.919387834374e-04 5.514860850038e-04 0.0 
5.514860850038e-04 1.445802062113e-02 0.0 
0.0 0.0 0.0 
-9.794008486986e-04 4.294033516811e-04 0.0 
4.294033516811e-04 1.412524450280e-02 0.0 
0.0 0.0 0.0 
-8.850904536996e-04 4.250698879779e-04 0.0 
4.250698879779e-04 1.432186096572e-02 0.0 
0.0 0.0 0.0 
-9.517866061311e-04 3.157635016594e-04 0.0 
3.157635016594e-04 1.396881073158e-02 0.0 
0.0 0.0 0.0 
-8.700346641389e-04 3.189178459205e-04 0.0 
3.189178459205e-04 1.416590021410e-02 0.0 
0.0 0.0 0.0 
-7.856250736369e-04 4.169961531962e-04 0.0 
4.169961531962e-04 1.451319470926e-02 0.0 
0.0 0.0 0.0 
-7.828667144179e-04 3.163151370028e-04 0.0 
3.163151370028e-04 1.435796736466e-02 0.0 
0.0 0.0 0.0 
-8.516442564714e-04 2.321317411725e-04 0.0 
2.321317411725e-04 1.399537623783e-02 0.0 
0.0 0.0 0.0 
-7.768132504629e-04 2.323843827639e-04 0.0 
2.323843827639e-04 1.419051484191e-02 0.0 
0.0 0.0 0.0 
-8.334816341330e-04 1.626168926491e-04 0.0 
1.626168926491e-04 1.381491367424e-02 0.0 
0.0 0.0 0.0 
-7.699013295594e-04 1.642000471958e-04 0.0 
1.642000471958e-04 1.401254202453e-02 0.0 
0.0 0.0 0.0 
-6.978491981331e-04 2.262457829201e-04 0.0 
2.262457829201e-04 1.438184604900e-02 0.0 
0.0 0.0 0.0 
2.861948007085e-04 -1.366386391854e-04 0.0 
-1.366386391854e-04 1.454700801492e-03 0.0 
0.0 0.0 0.0 
9.385037414597e-04 1.034626423803e-03 0.0 
1.034626423803e-03 6.537056081959e-03 0.0 
0.0 0.0 0.0 
8.244286344219e-04 1.151499551020e-03 0.0 
1.151499551020e-03 7.059997416542e-03 0.0 
0.0 0.0 0.0 
6.217329023597e-04 -8.114727785552e-05 0.0 
-8.114727785552e-05 2.943091766537e-03 0.0 
0.0 0.0 0.0 
6.793137943789e-04 -5.205320861806e-05 0.0 
-5.205320861806e-05 3.319930988650e-03 0.0 
0.0 0.0 0.0 
7.203486880990e-04 -3.121600846254e-05 0.0 
-3.121600846254e-05 3.548778949117e-03 0.0 
0.0 0.0 0.0 
7.175137090981e-04 -1.485539250529e-05 0.0 
-1.485539250529e-05 3.729609390010e-03 0.0 
0.0 0.0 0.0 
-7.038099116233e-04 1.587908488611e-04 0.0 
1.587908488611e-04 1.420631200169e-02 0.0 
0.0 0.0 0.0 
-6.178614843491e-04 2.120174135376e-04 0.0 
2.120174135376e-04 1.457037677348e-02 0.0 
0.0 0.0 0.0 
3.179245965460e-04 7.219934100465e-04 0.0 
7.219934100465e-04 2.810496342368e-03 0.0 
0.0 0.0 0.0 
3.470975270177e-04 9.061984962180e-04 0.0 
9.061984962180e-04 3.311627307459e-03 0.0 
0.0 0.0 0.0 
-9.406590313411e-04 1.079815131451e-03 0.0 
1.079815131451e-03 1.445342491184e-02 0.0 
0.0 0.0 0.0 
6.208577732310e-04 1.585016587878e-04 0.0 
1.585016587878e-04 5.930458560494e-03 0.0 
0.0 0.0 0.0 
6.814346506042e-04 1.266673122778e-04 0.0 
1.266673122778e-04 5.458075094048e-03 0.0 
0.0 0.0 0.0 
4.344584873475e-04 1.666320357756e-03 0.0 
1.666320357756e-03 6.552648882694e-03 0.0 
0.0 0.0 0.0 
2.470788020820e-04 1.744567026338e-03 0.0 
1.744567026338e-03 6.806889598769e-03 0.0 
0.0 0.0 0.0 
3.552807043343e-04 1.613235970632e-03 0.0 
1.613235970632e-03 6.140924563682e-03 0.0 
0.0 0.0 0.0 
1.426500275768e-04 1.687589742390e-03 0.0 
1.687589742390e-03 6.409569203814e-03 0.0 
0.0 0.0 0.0 
3.390961863283e-05 1.806041352604e-03 0.0 
1.806041352604e-03 7.108847691442e-03 0.0 
0.0 0.0 0.0 
2.280701552567e-04 1.553841767111e-03 0.0 
1.553841767111e-03 5.732346604939e-03 0.0 
0.0 0.0 0.0 
9.709206783231e-04 5.743946216385e-04 0.0 
5.743946216385e-04 5.546007568127e-03 0.0 
0.0 0.0 0.0 
-6.823950544364e-04 4.026591142082e-04 0.0 
4.026591142082e-04 1.469856862153e-02 0.0 
0.0 0.0 0.0 
4.281660857285e-04 -2.107320102802e-04 0.0 
-2.107320102802e-04 1.907554852507e-03 0.0 
0.0 0.0 0.0 
3.032124567456e-04 -2.226032254825e-04 0.0 
-2.226032254825e-04 1.549244740831e-03 0.0 
0.0 0.0 0.0 
5.371750675871e-04 1.886628510335e-04 0.0 
1.886628510335e-04 6.418236038937e-03 0.0 
0.0 0.0 0.0 
1.023203927696e-03 9.211817386279e-04 0.0 
9.211817386279e-04 6.033618853119e-03 0.0 
0.0 0.0 0.0 
2.024783587918e-04 2.004159599365e-03 0.0 
2.004159599365e-03 9.117872271429e-03 0.0 
0.0 0.0 0.0 
3.445878015438e-04 1.966818725835e-03 0.0 
1.966818725835e-03 8.899781675321e-03 0.0 
0.0 0.0 0.0 
1.961414451136e-04 2.051519982924e-03 0.0 
2.051519982924e-03 9.532517342866e-03 0.0 
0.0 0.0 0.0 
3.232299159529e-04 2.026140033597e-03 0.0 
2.026140033597e-03 9.328047417545e-03 0.0 
0.0 0.0 0.0 
1.833888264195e-04 2.112434700589e-03 0.0 
2.112434700589e-03 9.949188240716e-03 0.0 
0.0 0.0 0.0 
2.912062879923e-04 2.100209111140e-03 0.0 
2.100209111140e-03 9.759105773897e-03 0.0 
0.0 0.0 0.0 
4.231272850164e-04 1.996892182031e-03 0.0 
1.996892182031e-03 9.159674082362e-03 0.0 
0.0 0.0 0.0 
6.586179269680e-04 1.772951247948e-03 0.0 
1.772951247948e-03 8.401863112105e-03 0.0 
0.0 0.0 0.0 
3.698314423425e-04 2.085797378799e-03 0.0 
2.085797378799e-03 9.609413840117e-03 0.0 
0.0 0.0 0.0 
-7.654328058726e-04 1.134482985301e-04 0.0 
1.134482985301e-04 1.382346642756e-02 0.0 
0.0 0.0 0.0 
9.256378771988e-04 1.404930842401e-03 0.0 
1.404930842401e-03 6.866472828263e-03 0.0 
0.0 0.0 0.0 
6.337267423429e-04 -1.590515294073e-04 0.0 
-1.590515294073e-04 2.297455471472e-03 0.0 
0.0 0.0 0.0 
2.394708070185e-04 -1.602748500362e-04 0.0 
-1.602748500362e-04 1.296247969453e-03 0.0 
0.0 0.0 0.0 
1.908268853874e-04 -2.603619256258e-04 0.0 
-2.603619256258e-04 1.357809429930e-03 0.0 
0.0 0.0 0.0 
3.285034962053e-04 -1.113048241839e-04 0.0 
-1.113048241839e-04 1.595416281894e-03 0.0 
0.0 0.0 0.0 
4.156739279619e-04 -1.061733062573e-04 0.0 
-1.061733062573e-04 1.965120872574e-03 0.0 
0.0 0.0 0.0 
6.647263233089e-04 8.795479281765e-04 0.0 
8.795479281765e-04 7.081386614433e-03 0.0 
0.0 0.0 0.0 
1.629757758692e-04 2.193042100828e-03 0.0 
2.193042100828e-03 1.037010890036e-02 0.0 
0.0 0.0 0.0 
5.032057145332e-05 2.182544484343e-03 0.0 
2.182544484343e-03 1.056373471445e-02 0.0 
0.0 0.0 0.0 
-9.082034655807e-05 1.748272697163e-03 0.0 
1.748272697163e-03 6.743016045932e-03 0.0 
0.0 0.0 0.0 
-1.982014105356e-04 1.836901967769e-03 0.0 
1.836901967769e-03 7.461526903912e-03 0.0 
0.0 0.0 0.0 
6.455715176300e-04 1.730284831236e-03 0.0 
1.730284831236e-03 8.387756788109e-03 0.0 
0.0 0.0 0.0 
-1.258891646035e-03 6.225848801695e-04 0.0 
6.225848801695e-04 1.360429210269e-02 0.0 
0.0 0.0 0.0 
-1.027363404688e-03 3.092551007472e-04 0.0 
3.092551007472e-04 1.376757358419e-02 0.0 
0.0 0.0 0.0 
-9.801260324891e-04 2.125091459013e-04 0.0 
2.125091459013e-04 1.358929561815e-02 0.0 
0.0 0.0 0.0 
2.347579160755e-04 -1.124286014335e-04 0.0 
-1.124286014335e-04 1.200462179430e-03 0.0 
0.0 0.0 0.0 
1.117634027241e-04 -2.585559977469e-04 0.0 
-2.585559977469e-04 1.243853694635e-03 0.0 
0.0 0.0 0.0 
-7.650969779390e-04 6.710292480455e-04 0.0 
6.710292480455e-04 1.476578936548e-02 0.0 
0.0 0.0 0.0 
5.364681834961e-04 9.478520655969e-04 0.0 
9.478520655969e-04 3.716011589141e-03 0.0 
0.0 0.0 0.0 
3.485544301623e-04 1.084867678654e-03 0.0 
1.084867678654e-03 3.856507560459e-03 0.0 
0.0 0.0 0.0 
4.545273681729e-05 1.958275080661e-04 0.0 
1.958275080661e-04 1.572425504502e-03 0.0 
0.0 0.0 0.0 
-8.689414863759e-05 4.428832479019e-05 0.0 
4.428832479019e-05 1.262100630462e-03 0.0 
0.0 0.0 0.0 
-6.349617938115e-04 1.486351024907e-04 0.0 
1.486351024907e-04 1.439506005381e-02 0.0 
0.0 0.0 0.0 
-5.381774551180e-04 1.885522107583e-04 0.0 
1.885522107583e-04 1.474867873522e-02 0.0 
0.0 0.0 0.0 
7.515280938922e-04 1.025776850953e-05 0.0 
1.025776850953e-05 3.960188924964e-03 0.0 
0.0 0.0 0.0 
7.378237965952e-04 1.937975412912e-05 0.0 
1.937975412912e-05 4.144438201892e-03 0.0 
0.0 0.0 0.0 
7.437179396507e-04 9.195417480320e-04 0.0 
9.195417480320e-04 6.932170804757e-03 0.0 
0.0 0.0 0.0 
2.693075608815e-04 -2.568766610032e-04 0.0 
-2.568766610032e-04 1.500969794372e-03 0.0 
0.0 0.0 0.0 
-5.069004770476e-04 2.632505972914e-04 0.0 
2.632505972914e-04 1.491203631814e-02 0.0 
0.0 0.0 0.0 
9.811191230984e-04 8.817390721850e-04 0.0 
8.817390721850e-04 6.132534649090e-03 0.0 
0.0 0.0 0.0 
1.049700180319e-03 7.691532066798e-04 0.0 
7.691532066798e-04 5.636362026146e-03 0.0 
0.0 0.0 0.0 
6.828186724939e-04 -2.572690754237e-05 0.0 
-2.572690754237e-05 3.496115507912e-03 0.0 
0.0 0.0 0.0 
1.146120982351e-04 8.868712651009e-04 0.0 
8.868712651009e-04 2.924371223501e-03 0.0 
0.0 0.0 0.0 
7.712414202008e-05 7.042057697239e-04 0.0 
7.042057697239e-04 2.420756492655e-03 0.0 
0.0 0.0 0.0 
7.341611714452e-04 -8.764411019701e-05 0.0 
-8.764411019701e-05 2.537808793289e-03 0.0 
0.0 0.0 0.0 
4.310946311944e-04 -2.373707094446e-04 0.0 
-2.373707094446e-04 1.853287814204e-03 0.0 
0.0 0.0 0.0 
3.651102400808e-04 -8.316572321777e-05 0.0 
-8.316572321777e-05 1.753928679079e-03 0.0 
0.0 0.0 0.0 
5.958219229458e-04 1.028082736941e-03 0.0 
1.028082736941e-03 7.470967220594e-03 0.0 
0.0 0.0 0.0 
-7.339597295830e-04 8.217709705916e-04 0.0 
8.217709705916e-04 1.485300277808e-02 0.0 
0.0 0.0 0.0 
4.915915424551e-04 1.964673519426e-03 0.0 
1.964673519426e-03 9.031468662018e-03 0.0 
0.0 0.0 0.0 
5.532902639735e-04 1.881293780342e-03 0.0 
1.881293780342e-03 8.565879400056e-03 0.0 
0.0 0.0 0.0 
4.202141093190e-04 2.067213817755e-03 0.0 
2.067213817755e-03 9.495587141953e-03 0.0 
0.0 0.0 0.0 
8.818758245073e-05 -2.533707279096e-04 0.0 
-2.533707279096e-04 1.163409686872e-03 0.0 
0.0 0.0 0.0 
5.782070419695e-04 8.353188347796e-04 0.0 
8.353188347796e-04 7.251164798258e-03 0.0 
0.0 0.0 0.0 
5.725006464311e-04 1.283560856964e-04 0.0 
1.283560856964e-04 6.138853802258e-03 0.0 
0.0 0.0 0.0 
4.209331372492e-05 2.271148451655e-03 0.0 
2.271148451655e-03 1.095965247074e-02 0.0 
0.0 0.0 0.0 
-6.732816273765e-05 2.237824303727e-03 0.0 
2.237824303727e-03 1.116351604239e-02 0.0 
0.0 0.0 0.0 
5.246832107263e-04 1.126979451116e-03 0.0 
1.126979451116e-03 4.258136500380e-03 0.0 
0.0 0.0 0.0 
3.275184961890e-04 1.251221740410e-03 0.0 
1.251221740410e-03 4.447112463315e-03 0.0 
0.0 0.0 0.0 
1.176334075306e-04 1.223241687460e-03 0.0 
1.223241687460e-03 4.068112045269e-03 0.0 
0.0 0.0 0.0 
9.116517896614e-05 1.375181530924e-03 0.0 
1.375181530924e-03 4.698714238334e-03 0.0 
0.0 0.0 0.0 
-1.269631729765e-03 1.501683346946e-03 0.0 
1.501683346946e-03 1.219234342897e-02 0.0 
0.0 0.0 0.0 
4.892654071370e-04 1.297559504750e-03 0.0 
1.297559504750e-03 4.847461893727e-03 0.0 
0.0 0.0 0.0 
-8.012402319370e-04 1.930746120634e-03 0.0 
1.930746120634e-03 1.067895727692e-02 0.0 
0.0 0.0 0.0 
-1.029292574977e-03 1.799074721914e-03 0.0 
1.799074721914e-03 1.106787156308e-02 0.0 
0.0 0.0 0.0 
-8.556822319123e-04 1.895136050564e-03 0.0 
1.895136050564e-03 1.039982327995e-02 0.0 
0.0 0.0 0.0 
-1.023702156369e-04 1.895503941988e-03 0.0 
1.895503941988e-03 7.820252904518e-03 0.0 
0.0 0.0 0.0 
-3.352163125077e-04 1.905897064929e-03 0.0 
1.905897064929e-03 8.199607022173e-03 0.0 
0.0 0.0 0.0 
8.134922720800e-04 8.899074483814e-04 0.0 
8.899074483814e-04 4.062204235145e-03 0.0 
0.0 0.0 0.0 
1.036222733049e-03 1.144494598970e-03 0.0 
1.144494598970e-03 5.875378149914e-03 0.0 
0.0 0.0 0.0 
7.626079102830e-04 -2.890728436949e-06 0.0 
-2.890728436949e-06 3.781117555405e-03 0.0 
0.0 0.0 0.0 
7.964530784267e-04 1.557351207418e-04 0.0 
1.557351207418e-04 4.884999455105e-03 0.0 
0.0 0.0 0.0 
9.995970135115e-04 3.532182515748e-04 0.0 
3.532182515748e-04 4.756153614636e-03 0.0 
0.0 0.0 0.0 
-6.665113613870e-04 5.143809474995e-04 0.0 
5.143809474995e-04 1.483571618070e-02 0.0 
0.0 0.0 0.0 
-5.500507792940e-04 4.862819862616e-04 0.0 
4.862819862616e-04 1.501737372161e-02 0.0 
0.0 0.0 0.0 
-8.907611809754e-04 1.542146799934e-04 0.0 
1.542146799934e-04 1.361098085749e-02 0.0 
0.0 0.0 0.0 
-8.621652106282e-04 9.840775889779e-05 0.0 
9.840775889779e-05 1.341777416032e-02 0.0 
0.0 0.0 0.0 
2.343754523893e-04 -2.027388071944e-04 0.0 
-2.027388071944e-04 1.339988459193e-03 0.0 
0.0 0.0 0.0 
1.664277674179e-04 -2.139542452517e-04 0.0 
-2.139542452517e-04 1.196768533629e-03 0.0 
0.0 0.0 0.0 
9.032927242430e-04 1.563071155833e-04 0.0 
1.563071155833e-04 4.349461134726e-03 0.0 
0.0 0.0 0.0 
6.392743918309e-04 7.067496040396e-04 0.0 
7.067496040396e-04 6.882996392222e-03 0.0 
0.0 0.0 0.0 
-8.198112187147e-04 1.030919965736e-03 0.0 
1.030919965736e-03 1.469145872408e-02 0.0 
0.0 0.0 0.0 
-7.533458882401e-04 1.219567820474e-03 0.0 
1.219567820474e-03 1.469704047766e-02 0.0 
0.0 0.0 0.0 
-8.727429206451e-04 1.274696218873e-03 0.0 
1.274696218873e-03 1.443631715236e-02 0.0 
0.0 0.0 0.0 
6.812622558762e-04 1.070650855955e-03 0.0 
1.070650855955e-03 7.323844335172e-03 0.0 
0.0 0.0 0.0 
9.589758255375e-04 5.176964073112e-04 0.0 
5.176964073112e-04 3.600871046060e-03 0.0 
0.0 0.0 0.0 
1.095697757942e-03 8.574865705624e-04 0.0 
8.574865705624e-04 5.474526160371e-03 0.0 
0.0 0.0 0.0 
4.617385359020e-05 -4.737857698280e-05 0.0 
-4.737857698280e-05 1.348022960865e-03 0.0 
0.0 0.0 0.0 
6.229485519009e-04 1.745415978757e-03 0.0 
1.745415978757e-03 7.662574120479e-03 0.0 
0.0 0.0 0.0 
1.100506619413e-04 -1.839566114604e-04 0.0 
-1.839566114604e-04 9.888553445256e-04 0.0 
0.0 0.0 0.0 
-4.185273404472e-04 2.087251971885e-03 0.0 
2.087251971885e-03 1.127481790020e-02 0.0 
0.0 0.0 0.0 
4.820576297854e-04 1.502237231287e-04 0.0 
1.502237231287e-04 6.632117177594e-03 0.0 
0.0 0.0 0.0 
4.340080097839e-04 2.160207722592e-04 0.0 
2.160207722592e-04 6.917518581482e-03 0.0 
0.0 0.0 0.0 
5.363177683539e-04 1.889950140316e-03 0.0 
1.889950140316e-03 8.905446657045e-03 0.0 
0.0 0.0 0.0 
-1.443005688193e-03 1.079613991769e-03 0.0 
1.079613991769e-03 1.223030948216e-02 0.0 
0.0 0.0 0.0 
7.181410203044e-04 1.679838412841e-03 0.0 
1.679838412841e-03 7.527994195066e-03 0.0 
0.0 0.0 0.0 
8.271880969054e-04 1.534567508318e-03 0.0 
1.534567508318e-03 6.960703335241e-03 0.0 
0.0 0.0 0.0 
-1.087165589742e-03 1.744011339835e-03 0.0 
1.744011339835e-03 1.082455019744e-02 0.0 
0.0 0.0 0.0 
-9.158741772694e-04 1.837829576578e-03 0.0 
1.837829576578e-03 1.013817809530e-02 0.0 
0.0 0.0 0.0 
-6.741015190335e-04 1.942232008915e-03 0.0 
1.942232008915e-03 9.693813149301e-03 0.0 
0.0 0.0 0.0 
-7.491065051391e-04 1.885886190937e-03 0.0 
1.885886190937e-03 9.405957593963e-03 0.0 
0.0 0.0 0.0 
7.588398996005e-04 -9.215061329793e-05 0.0 
-9.215061329793e-05 2.673828937590e-03 0.0 
0.0 0.0 0.0 
6.652827870379e-04 -1.554492335934e-04 0.0 
-1.554492335934e-04 2.436912550426e-03 0.0 
0.0 0.0 0.0 
1.292251085907e-04 2.317056082656e-03 0.0 
2.317056082656e-03 1.083198088413e-02 0.0 
0.0 0.0 0.0 
3.080039880443e-04 2.205692257722e-03 0.0 
2.205692257722e-03 1.005630935285e-02 0.0 
0.0 0.0 0.0 
-4.373205356265e-05 2.343523292383e-03 0.0 
2.343523292383e-03 1.153390638474e-02 0.0 
0.0 0.0 0.0 
-1.574775807360e-04 2.287920200918e-03 0.0 
2.287920200918e-03 1.175514249828e-02 0.0 
0.0 0.0 0.0 
5.102648012466e-04 1.853251648383e-03 0.0 
1.853251648383e-03 8.900356714992e-03 0.0 
0.0 0.0 0.0 
6.183308216984e-04 1.685549862127e-03 0.0 
1.685549862127e-03 8.393709473215e-03 0.0 
0.0 0.0 0.0 
4.442325040197e-04 -7.782255069935e-05 0.0 
-7.782255069935e-05 2.115529405876e-03 0.0 
0.0 0.0 0.0 
-4.518837368910e-04 1.834057921223e-03 0.0 
1.834057921223e-03 7.871043085579e-03 0.0 
0.0 0.0 0.0 
-5.997462863925e-04 7.834138144132e-04 0.0 
7.834138144132e-04 1.504959855312e-02 0.0 
0.0 0.0 0.0 
-1.238181928332e-03 1.587173115702e-03 0.0 
1.587173115702e-03 1.145518254749e-02 0.0 
0.0 0.0 0.0 
4.856797979953e-04 7.830776102392e-04 0.0 
7.830776102392e-04 7.411323106478e-03 0.0 
0.0 0.0 0.0 
5.574986762106e-04 6.656964634350e-04 0.0 
6.656964634350e-04 7.066608100136e-03 0.0 
0.0 0.0 0.0 
-2.562717564912e-04 -6.062062084727e-05 0.0 
-6.062062084727e-05 1.008594719650e-03 0.0 
0.0 0.0 0.0 
-1.144186237154e-04 -1.494855776579e-04 0.0 
-1.494855776579e-04 1.095271591162e-03 0.0 
0.0 0.0 0.0 
-4.189732500366e-04 2.264909427226e-04 0.0 
2.264909427226e-04 1.508911292524e-02 0.0 
0.0 0.0 0.0 
-1.695517025794e-04 1.347985249684e-03 0.0 
1.347985249684e-03 4.341064970673e-03 0.0 
0.0 0.0 0.0 
-2.007744782208e-04 1.466304335288e-03 0.0 
1.466304335288e-03 4.993103629997e-03 0.0 
0.0 0.0 0.0 
-1.451253481813e-04 1.211197151477e-03 0.0 
1.211197151477e-03 3.700745778598e-03 0.0 
0.0 0.0 0.0 
2.241009143166e-04 6.258778505619e-05 0.0 
6.258778505619e-05 7.669581613125e-03 0.0 
0.0 0.0 0.0 
-8.093701938200e-04 -3.413332843831e-08 0.0 
-3.413332843831e-08 1.258234617763e-02 0.0 
0.0 0.0 0.0 
3.732216820341e-04 1.692847910044e-04 0.0 
1.692847910044e-04 7.138309869033e-03 0.0 
0.0 0.0 0.0 
-2.623559555050e-04 1.960787242777e-03 0.0 
1.960787242777e-03 8.552239640286e-03 0.0 
0.0 0.0 0.0 
-3.720019533722e-04 3.131126238864e-04 0.0 
3.131126238864e-04 1.524249170883e-02 0.0 
0.0 0.0 0.0 
7.881572876712e-04 1.616197675526e-03 0.0 
1.616197675526e-03 7.436136825785e-03 0.0 
0.0 0.0 0.0 
5.361869179307e-04 1.522125369624e-03 0.0 
1.522125369624e-03 5.904540307057e-03 0.0 
0.0 0.0 0.0 
8.153648499804e-04 9.578304936586e-04 0.0 
9.578304936586e-04 6.789787371766e-03 0.0 
0.0 0.0 0.0 
-4.679101190711e-04 1.420112325022e-04 0.0 
1.420112325022e-04 1.490841103434e-02 0.0 
0.0 0.0 0.0 
-3.312252473127e-04 1.811474596123e-04 0.0 
1.811474596123e-04 1.527222116530e-02 0.0 
0.0 0.0 0.0 
-1.030730081145e-03 1.998386745313e-04 0.0 
1.998386745313e-04 1.337958867911e-02 0.0 
0.0 0.0 0.0 
-9.803852564470e-04 1.173661989616e-04 0.0 
1.173661989616e-04 1.317484487547e-02 0.0 
0.0 0.0 0.0 
-1.093384194288e-03 3.000382745049e-04 0.0 
3.000382745049e-04 1.354879322425e-02 0.0 
0.0 0.0 0.0 
1.693258416102e-04 3.569339047666e-04 0.0 
3.569339047666e-04 1.935857083354e-03 0.0 
0.0 0.0 0.0 
-1.400099879263e-04 3.558889488332e-04 0.0 
3.558889488332e-04 1.528743885605e-03 0.0 
0.0 0.0 0.0 
-5.780937107895e-04 3.796028998838e-04 0.0 
3.796028998838e-04 1.487971797213e-02 0.0 
0.0 0.0 0.0 
5.523689755128e-04 -1.045047522521e-04 0.0 
-1.045047522521e-04 2.551875096372e-03 0.0 
0.0 0.0 0.0 
5.763894558885e-04 -7.030870562464e-05 0.0 
-7.030870562464e-05 2.759877309477e-03 0.0 
0.0 0.0 0.0 
3.331624475597e-04 -2.475345886864e-04 0.0 
-2.475345886864e-04 1.634737043441e-03 0.0 
0.0 0.0 0.0 
4.754746394896e-04 -2.243684684982e-04 0.0 
-2.243684684982e-04 1.988418531544e-03 0.0 
0.0 0.0 0.0 
7.825585576485e-04 4.725797236135e-05 0.0 
4.725797236135e-05 4.199468177980e-03 0.0 
0.0 0.0 0.0 
8.024257405789e-04 3.766176751714e-05 0.0 
3.766176751714e-05 4.019892910159e-03 0.0 
0.0 0.0 0.0 
-2.423654253182e-04 2.133508872506e-03 0.0 
2.133508872506e-03 1.101550113608e-02 0.0 
0.0 0.0 0.0 
-3.582904522212e-04 2.140322817001e-03 0.0 
2.140322817001e-03 1.160677630824e-02 0.0 
0.0 0.0 0.0 
4.589665433441e-05 2.069364867831e-03 0.0 
2.069364867831e-03 9.763830002154e-03 0.0 
0.0 0.0 0.0 
1.007805289580e-03 7.339107048852e-04 0.0 
7.339107048852e-04 5.751058083215e-03 0.0 
0.0 0.0 0.0 
1.059362585672e-03 6.244281937400e-04 0.0 
6.244281937400e-04 5.265927619838e-03 0.0 
0.0 0.0 0.0 
1.090136461591e-03 6.589629405923e-04 0.0 
6.589629405923e-04 5.158098140116e-03 0.0 
0.0 0.0 0.0 
-5.133507028193e-04 6.031508822880e-04 0.0 
6.031508822880e-04 1.512734180340e-02 0.0 
0.0 0.0 0.0 
-3.722285508014e-04 5.675518408935e-04 0.0 
5.675518408935e-04 1.533283640794e-02 0.0 
0.0 0.0 0.0 
8.471325339852e-04 -9.139965798439e-06 0.0 
-9.139965798439e-06 2.925118655052e-03 0.0 
0.0 0.0 0.0 
8.280980688825e-04 4.791642568056e-06 0.0 
4.791642568056e-06 2.796740720258e-03 0.0 
0.0 0.0 0.0 
7.742156081281e-04 -8.987626116704e-05 0.0 
-8.987626116704e-05 2.810885748363e-03 0.0 
0.0 0.0 0.0 
-5.452965860003e-04 9.405590385501e-04 0.0 
9.405590385501e-04 1.511649665730e-02 0.0 
0.0 0.0 0.0 
3.160435750637e-04 2.442309408438e-04 0.0 
2.442309408438e-04 7.427149891278e-03 0.0 
0.0 0.0 0.0 
3.695868225998e-04 2.854586696880e-04 0.0 
2.854586696880e-04 7.211435409708e-03 0.0 
0.0 0.0 0.0 
2.499099931647e-05 -1.907255137080e-04 0.0 
-1.907255137080e-04 8.566326841215e-04 0.0 
0.0 0.0 0.0 
8.734323846267e-05 -2.233875136952e-04 0.0 
-2.233875136952e-04 1.056769030372e-03 0.0 
0.0 0.0 0.0 
-1.579603005302e-04 8.910012334545e-04 0.0 
8.910012334545e-04 2.539143127207e-03 0.0 
0.0 0.0 0.0 
-1.835872793654e-04 7.041569260131e-04 0.0 
7.041569260131e-04 2.024290573882e-03 0.0 
0.0 0.0 0.0 
-6.605602373121e-04 1.411032709867e-03 0.0 
1.411032709867e-03 1.465280081376e-02 0.0 
0.0 0.0 0.0 
-7.806259281770e-04 1.477660468842e-03 0.0 
1.477660468842e-03 1.437650741757e-02 0.0 
0.0 0.0 0.0 
-5.128281554723e-04 1.363634567454e-03 0.0 
1.363634567454e-03 1.492708049271e-02 0.0 
0.0 0.0 0.0 
3.895005970251e-04 -5.298991843693e-05 0.0 
-5.298991843693e-05 1.879502408852e-03 0.0 
0.0 0.0 0.0 
6.156120171340e-04 1.840895724983e-03 0.0 
1.840895724983e-03 8.473501470725e-03 0.0 
0.0 0.0 0.0 
5.145378834720e-04 1.184510440243e-03 0.0 
1.184510440243e-03 7.864205578270e-03 0.0 
0.0 0.0 0.0 
6.107130572533e-04 1.236810028169e-03 0.0 
1.236810028169e-03 7.730929553405e-03 0.0 
0.0 0.0 0.0 
3.999185885667e-04 1.143930911089e-03 0.0 
1.143930911089e-03 8.091314444464e-03 0.0 
0.0 0.0 0.0 
5.490598050829e-04 1.920901330965e-03 0.0 
1.920901330965e-03 8.923556794951e-03 0.0 
0.0 0.0 0.0 
4.187653990330e-04 2.031735542027e-03 0.0 
2.031735542027e-03 9.406863510904e-03 0.0 
0.0 0.0 0.0 
3.184668394070e-04 2.187882160228e-03 0.0 
2.187882160228e-03 9.971577314455e-03 0.0 
0.0 0.0 0.0 
-3.973506630275e-04 1.772402503519e-05 0.0 
1.772402503519e-05 9.071367141182e-04 0.0 
0.0 0.0 0.0 
-3.608369418948e-04 1.099002738531e-04 0.0 
1.099002738531e-04 1.516025365725e-02 0.0 
0.0 0.0 0.0 
-9.012286317741e-04 8.116598301245e-05 0.0 
8.116598301245e-05 1.318551083920e-02 0.0 
0.0 0.0 0.0 
-5.666931106408e-04 -5.554236378490e-05 0.0 
-5.554236378490e-05 7.575656195003e-04 0.0 
0.0 0.0 0.0 
-8.654192157708e-04 4.552818713318e-05 0.0 
4.552818713318e-05 1.298596641456e-02 0.0 
0.0 0.0 0.0 
-8.406505120487e-04 5.920985100338e-05 0.0 
5.920985100338e-05 1.321738875775e-02 0.0 
0.0 0.0 0.0 
-8.461339853258e-04 2.046626640343e-05 0.0 
2.046626640343e-05 1.276174595705e-02 0.0 
0.0 0.0 0.0 
3.110397036202e-04 -5.587644273151e-05 0.0 
-5.587644273151e-05 1.516722797431e-03 0.0 
0.0 0.0 0.0 
-1.071900174832e-03 1.670303552988e-04 0.0 
1.670303552988e-04 1.309328260377e-02 0.0 
0.0 0.0 0.0 
-1.152964998644e-03 2.971085185108e-04 0.0 
2.971085185108e-04 1.333037807924e-02 0.0 
0.0 0.0 0.0 
-8.673231638563e-05 -1.748416773642e-04 0.0 
-1.748416773642e-04 6.593150434969e-04 0.0 
0.0 0.0 0.0 
-3.884062149481e-04 8.803144002665e-04 0.0 
8.803144002665e-04 1.530401484075e-02 0.0 
0.0 0.0 0.0 
-1.308048419590e-05 -1.495455043530e-04 0.0 
-1.495455043530e-04 6.632153397958e-04 0.0 
0.0 0.0 0.0 
6.221198028966e-05 -1.464713046263e-04 0.0 
-1.464713046263e-04 7.894515591080e-04 0.0 
0.0 0.0 0.0 
4.159737720797e-04 7.405190239334e-04 0.0 
7.405190239334e-04 7.598374361245e-03 0.0 
0.0 0.0 0.0 
4.804407961181e-04 6.176112615779e-04 0.0 
6.176112615779e-04 7.248733864243e-03 0.0 
0.0 0.0 0.0 
3.258638996983e-04 6.774252049920e-04 0.0 
6.774252049920e-04 7.772357700963e-03 0.0 
0.0 0.0 0.0 
3.927744362063e-04 5.737621557234e-04 0.0 
5.737621557234e-04 7.425395122250e-03 0.0 
0.0 0.0 0.0 
5.354183212350e-04 5.117602606497e-04 0.0 
5.117602606497e-04 6.914385384511e-03 0.0 
0.0 0.0 0.0 
4.598880765171e-04 4.747803078965e-04 0.0 
4.747803078965e-04 7.120820775918e-03 0.0 
0.0 0.0 0.0 
-9.316506957691e-04 6.225879352981e-05 0.0 
6.225879352981e-05 1.295757688018e-02 0.0 
0.0 0.0 0.0 
2.983789629410e-04 5.403009293733e-04 0.0 
5.403009293733e-04 7.711363236810e-03 0.0 
0.0 0.0 0.0 
3.781576498968e-04 4.252964954908e-04 0.0 
4.252964954908e-04 7.339424246229e-03 0.0 
0.0 0.0 0.0 
2.233851219203e-04 4.752942102726e-04 0.0 
4.752942102726e-04 7.931202316880e-03 0.0 
0.0 0.0 0.0 
-1.012643027975e-03 1.752145607150e-03 0.0 
1.752145607150e-03 9.921127883107e-03 0.0 
0.0 0.0 0.0 
4.235982591150e-05 1.510424925449e-03 0.0 
1.510424925449e-03 5.342410614981e-03 0.0 
0.0 0.0 0.0 
-2.367739859424e-04 1.566815963996e-03 0.0 
1.566815963996e-03 5.680232750551e-03 0.0 
0.0 0.0 0.0 
-5.611219422563e-04 1.551121728488e-03 0.0 
1.551121728488e-03 5.419101746196e-03 0.0 
0.0 0.0 0.0 
-1.001411000107e-04 2.428453930845e-03 0.0 
2.428453930845e-03 1.216563511040e-02 0.0 
0.0 0.0 0.0 
-2.250461716963e-04 2.316260724134e-03 0.0 
2.316260724134e-03 1.228936146951e-02 0.0 
0.0 0.0 0.0 
5.239450887454e-04 9.323689539778e-05 0.0 
9.323689539778e-05 6.365683195218e-03 0.0 
0.0 0.0 0.0 
6.006092163966e-04 7.730528362845e-05 0.0 
7.730528362845e-05 5.877145283861e-03 0.0 
0.0 0.0 0.0 
-8.277859152405e-04 3.118955424705e-05 0.0 
3.118955424705e-05 1.299319208290e-02 0.0 
0.0 0.0 0.0 
-8.084845233704e-04 1.831302578018e-05 0.0 
1.831302578018e-05 1.296359141348e-02 0.0 
0.0 0.0 0.0 
-7.940982790768e-04 5.020213235866e-05 0.0 
5.020213235866e-05 1.333725777656e-02 0.0 
0.0 0.0 0.0 
-7.798371247288e-04 2.890775726880e-05 0.0 
2.890775726880e-05 1.328170967184e-02 0.0 
0.0 0.0 0.0 
-7.523669622157e-04 6.179088134731e-05 0.0 
6.179088134731e-05 1.364791125778e-02 0.0 
0.0 0.0 0.0 
-7.403800403753e-04 3.334094348628e-05 0.0 
3.334094348628e-05 1.358501858599e-02 0.0 
0.0 0.0 0.0 
-6.996225057608e-04 6.079921405070e-05 0.0 
6.079921405070e-05 1.394874849921e-02 0.0 
0.0 0.0 0.0 
2.096306129283e-04 2.351713228832e-03 0.0 
2.351713228832e-03 1.057817956240e-02 0.0 
0.0 0.0 0.0 
-4.777122247830e-04 1.355066298987e-03 0.0 
1.355066298987e-03 3.983001582185e-03 0.0 
0.0 0.0 0.0 
-1.303382936414e-03 1.477203156304e-03 0.0 
1.477203156304e-03 1.127957128054e-02 0.0 
0.0 0.0 0.0 
4.577532142852e-04 1.806981658628e-03 0.0 
1.806981658628e-03 8.910880729909e-03 0.0 
0.0 0.0 0.0 
5.718057148320e-04 1.630073741596e-03 0.0 
1.630073741596e-03 8.394949131772e-03 0.0 
0.0 0.0 0.0 
-5.833294483511e-04 1.875863616698e-03 0.0 
1.875863616698e-03 8.632293650216e-03 0.0 
0.0 0.0 0.0 
-7.248553865393e-04 1.775728284310e-03 0.0 
1.775728284310e-03 8.381594828147e-03 0.0 
0.0 0.0 0.0 
3.861531718556e-04 9.290735285044e-04 0.0 
9.290735285044e-04 7.867907042174e-03 0.0 
0.0 0.0 0.0 
6.586667508092e-04 1.183997369581e-03 0.0 
1.183997369581e-03 4.677188704697e-03 0.0 
0.0 0.0 0.0 
-2.775105292393e-04 1.060765515267e-03 0.0 
1.060765515267e-03 1.536972822822e-02 0.0 
0.0 0.0 0.0 
-7.458827420455e-04 3.266453683639e-04 0.0 
3.266453683639e-04 6.810250507569e-04 0.0 
0.0 0.0 0.0 
-4.756365239273e-04 2.987509581169e-04 0.0 
2.987509581169e-04 1.029395406962e-03 0.0 
0.0 0.0 0.0 
6.090075890343e-04 1.355660956546e-03 0.0 
1.355660956546e-03 5.267007066139e-03 0.0 
0.0 0.0 0.0 
-4.999278165195e-04 1.945836037095e-03 0.0 
1.945836037095e-03 8.954642493179e-03 0.0 
0.0 0.0 0.0 
-1.233052024924e-05 1.629821454237e-03 0.0 
1.629821454237e-03 6.025542454833e-03 0.0 
0.0 0.0 0.0 
-2.771987790224e-04 1.682812260615e-03 0.0 
1.682812260615e-03 6.419798569992e-03 0.0 
0.0 0.0 0.0 
9.287606855528e-04 8.470217863860e-04 0.0 
8.470217863860e-04 6.258858423071e-03 0.0 
0.0 0.0 0.0 
5.957734226828e-06 -2.287733614847e-04 0.0 
-2.287733614847e-04 9.364666946615e-04 0.0 
0.0 0.0 0.0 
-1.434321337252e-04 1.061538861094e-03 0.0 
1.061538861094e-03 3.099647814211e-03 0.0 
0.0 0.0 0.0 
-7.151858310075e-04 1.051693542586e-04 0.0 
1.051693542586e-04 1.399964690880e-02 0.0 
0.0 0.0 0.0 
-4.501380232521e-04 1.098384430049e-03 0.0 
1.098384430049e-03 2.721147479090e-03 0.0 
0.0 0.0 0.0 
5.585283765109e-04 4.317609596965e-05 0.0 
4.317609596965e-05 6.127594049133e-03 0.0 
0.0 0.0 0.0 
7.959335275641e-04 1.072664494781e-03 0.0 
1.072664494781e-03 4.574365395329e-03 0.0 
0.0 0.0 0.0 
-4.049001256865e-05 1.940446082855e-03 0.0 
1.940446082855e-03 8.196112291172e-03 0.0 
0.0 0.0 0.0 
1.275976194890e-04 1.061586106784e-03 0.0 
1.061586106784e-03 3.474831313655e-03 0.0 
0.0 0.0 0.0 
2.873236133282e-04 1.411771134480e-03 0.0 
1.411771134480e-03 5.081668016782e-03 0.0 
0.0 0.0 0.0 
-1.091783477458e-03 1.717028054998e-03 0.0 
1.717028054998e-03 1.189488422770e-02 0.0 
0.0 0.0 0.0 
-1.395955277012e-03 1.231142539628e-03 0.0 
1.231142539628e-03 1.243044583034e-02 0.0 
0.0 0.0 0.0 
-1.343518496657e-03 1.405686899715e-03 0.0 
1.405686899715e-03 1.198845164128e-02 0.0 
0.0 0.0 0.0 
9.038414085804e-04 9.659213126496e-04 0.0 
9.659213126496e-04 4.508589516631e-03 0.0 
0.0 0.0 0.0 
-3.502681232640e-04 1.765131825594e-03 0.0 
1.765131825594e-03 7.142129755300e-03 0.0 
0.0 0.0 0.0 
-6.133064183291e-04 1.669431496657e-03 0.0 
1.669431496657e-03 6.863107057364e-03 0.0 
0.0 0.0 0.0 
-5.720922936375e-04 2.007952206460e-03 0.0 
2.007952206460e-03 1.030660214077e-02 0.0 
0.0 0.0 0.0 
-9.697889033996e-04 1.334235921880e-03 0.0 
1.334235921880e-03 1.414644892345e-02 0.0 
0.0 0.0 0.0 
-8.676800499926e-04 1.534088383422e-03 0.0 
1.534088383422e-03 1.405772859097e-02 0.0 
0.0 0.0 0.0 
-6.677507984919e-04 1.666147584889e-03 0.0 
1.666147584889e-03 1.426643891665e-02 0.0 
0.0 0.0 0.0 
-7.486131996686e-04 1.724951148107e-03 0.0 
1.724951148107e-03 1.392788772476e-02 0.0 
0.0 0.0 0.0 
-9.281430862279e-04 1.599593585546e-03 0.0 
1.599593585546e-03 1.370276150209e-02 0.0 
0.0 0.0 0.0 
-7.937037319460e-04 1.782802637778e-03 0.0 
1.782802637778e-03 1.354368229015e-02 0.0 
0.0 0.0 0.0 
-6.054903975840e-04 1.902899511075e-03 0.0 
1.902899511075e-03 1.377879028062e-02 0.0 
0.0 0.0 0.0 
-6.401132842780e-04 1.956162346263e-03 0.0 
1.956162346263e-03 1.336166969921e-02 0.0 
0.0 0.0 0.0 
-4.364927918664e-04 2.102561165623e-03 0.0 
2.102561165623e-03 1.365736907383e-02 0.0 
0.0 0.0 0.0 
-4.866363376965e-04 2.109239670852e-03 0.0 
2.109239670852e-03 1.314556006887e-02 0.0 
0.0 0.0 0.0 
-6.357382744377e-04 1.997456396992e-03 0.0 
1.997456396992e-03 1.288590465863e-02 0.0 
0.0 0.0 0.0 
-4.821568055797e-04 2.121079857575e-03 0.0 
2.121079857575e-03 1.266027719752e-02 0.0 
0.0 0.0 0.0 
-3.604009479934e-04 2.239409345960e-03 0.0 
2.239409345960e-03 1.290242143520e-02 0.0 
0.0 0.0 0.0 
-6.025939970675e-04 2.035256195540e-03 0.0 
2.035256195540e-03 1.238282875228e-02 0.0 
0.0 0.0 0.0 
3.259972506599e-04 1.979330102342e-03 0.0 
1.979330102342e-03 9.416858120802e-03 0.0 
0.0 0.0 0.0 
6.880415569813e-04 1.416942925674e-03 0.0 
1.416942925674e-03 5.713050280664e-03 0.0 
0.0 0.0 0.0 
-2.516786030752e-04 1.591501615333e-04 0.0 
1.591501615333e-04 1.184551193661e-03 0.0 
0.0 0.0 0.0 
-3.744589607660e-04 4.979198891239e-04 0.0 
4.979198891239e-04 1.374630132919e-03 0.0 
0.0 0.0 0.0 
-2.096232092459e-04 1.999525931250e-03 0.0 
1.999525931250e-03 8.910355786307e-03 0.0 
0.0 0.0 0.0 
-2.358413124123e-04 2.192751606109e-03 0.0 
2.192751606109e-03 1.406631019439e-02 0.0 
0.0 0.0 0.0 
-2.814820956722e-04 1.866594025051e-03 0.0 
1.866594025051e-03 1.464746826139e-02 0.0 
0.0 0.0 0.0 
6.868547083891e-04 8.206064706356e-04 0.0 
8.206064706356e-04 3.630219638300e-03 0.0 
0.0 0.0 0.0 
-3.181038174146e-05 2.603039948814e-03 0.0 
2.603039948814e-03 1.234308273943e-02 0.0 
0.0 0.0 0.0 
-1.174414215792e-03 1.657981215029e-03 0.0 
1.657981215029e-03 1.167012327496e-02 0.0 
0.0 0.0 0.0 
4.052100890827e-04 3.977851681024e-04 0.0 
3.977851681024e-04 2.331708755616e-03 0.0 
0.0 0.0 0.0 
5.159655312359e-05 2.582237743637e-03 0.0 
2.582237743637e-03 1.160244039403e-02 0.0 
0.0 0.0 0.0 
-1.042450348917e-03 1.401461586484e-03 0.0 
1.401461586484e-03 1.382658836129e-02 0.0 
0.0 0.0 0.0 
-1.087306660018e-03 1.475758415775e-03 0.0 
1.475758415775e-03 1.347038774093e-02 0.0 
0.0 0.0 0.0 
-1.187759381590e-03 1.266150906141e-03 0.0 
1.266150906141e-03 1.358827729995e-02 0.0 
0.0 0.0 0.0 
-2.694407803015e-04 1.556284800555e-03 0.0 
1.556284800555e-03 1.503467305642e-02 0.0 
0.0 0.0 0.0 
-1.146418810933e-03 4.326524695550e-04 0.0 
4.326524695550e-04 1.370695398384e-02 0.0 
0.0 0.0 0.0 
1.561583093388e-04 2.306307595577e-03 0.0 
2.306307595577e-03 1.032693636542e-02 0.0 
0.0 0.0 0.0 
1.000913929895e-03 1.242869893364e-03 0.0 
1.242869893364e-03 6.362488673949e-03 0.0 
0.0 0.0 0.0 
9.709979796639e-04 1.309264483171e-03 0.0 
1.309264483171e-03 6.376191723012e-03 0.0 
0.0 0.0 0.0 
9.935097611691e-04 1.218682832064e-03 0.0 
1.218682832064e-03 5.895517218036e-03 0.0 
0.0 0.0 0.0 
-8.025732221602e-04 1.841278254860e-03 0.0 
1.841278254860e-03 1.310893524503e-02 0.0 
0.0 0.0 0.0 
2.198450667129e-04 1.809017587490e-03 0.0 
1.809017587490e-03 9.287938206577e-03 0.0 
0.0 0.0 0.0 
4.071882458016e-04 1.624836357811e-03 0.0 
1.624836357811e-03 8.703077873335e-03 0.0 
0.0 0.0 0.0 
4.046642898594e-04 1.506359606519e-03 0.0 
1.506359606519e-03 8.532541246649e-03 0.0 
0.0 0.0 0.0 
5.738673076888e-04 1.448815807777e-03 0.0 
1.448815807777e-03 8.103183801674e-03 0.0 
0.0 0.0 0.0 
2.199775405125e-04 1.545673521278e-03 0.0 
1.545673521278e-03 8.934980378024e-03 0.0 
0.0 0.0 0.0 
-1.525876713713e-04 2.437303325307e-03 0.0 
2.437303325307e-03 1.345071227841e-02 0.0 
0.0 0.0 0.0 
-1.081583562358e-04 2.524617134087e-03 0.0 
2.524617134087e-03 1.310810955312e-02 0.0 
0.0 0.0 0.0 
6.991691737118e-04 -7.396458778527e-05 0.0 
-7.396458778527e-05 2.407852362812e-03 0.0 
0.0 0.0 0.0 
7.982842296285e-04 2.998369873001e-05 0.0 
2.998369873001e-05 2.678126855665e-03 0.0 
0.0 0.0 0.0 
9.115272220439e-04 1.172496904735e-04 0.0 
1.172496904735e-04 3.078905094752e-03 0.0 
0.0 0.0 0.0 
8.844451244623e-04 1.534179641946e-04 0.0 
1.534179641946e-04 2.974034727820e-03 0.0 
0.0 0.0 0.0 
7.551477196055e-04 6.741186038245e-05 0.0 
6.741186038245e-05 2.570408633092e-03 0.0 
0.0 0.0 0.0 
8.425860730792e-04 2.022748988337e-04 0.0 
2.022748988337e-04 2.881277246269e-03 0.0 
0.0 0.0 0.0 
9.539552579281e-04 2.930049797487e-04 0.0 
2.930049797487e-04 3.296454793917e-03 0.0 
0.0 0.0 0.0 
7.845809563298e-04 2.669389863091e-04 0.0 
2.669389863091e-04 2.804788198605e-03 0.0 
0.0 0.0 0.0 
-2.944654167011e-04 2.213192309648e-03 0.0 
2.213192309648e-03 1.195082322497e-02 0.0 
0.0 0.0 0.0 
2.038478786422e-04 1.294732236249e-03 0.0 
1.294732236249e-03 8.678201904929e-03 0.0 
0.0 0.0 0.0 
9.706552343906e-04 4.530863482219e-04 0.0 
4.530863482219e-04 5.222417739247e-03 0.0 
0.0 0.0 0.0 
1.016270554150e-03 4.702613283330e-04 0.0 
4.702613283330e-04 5.067111918433e-03 0.0 
0.0 0.0 0.0 
1.034523223766e-03 3.672987252925e-04 0.0 
3.672987252925e-04 4.606050740577e-03 0.0 
0.0 0.0 0.0 
7.727558613689e-04 -1.934378103524e-05 0.0 
-1.934378103524e-05 3.605302633337e-03 0.0 
0.0 0.0 0.0 
8.205582016477e-04 2.572096604596e-05 0.0 
2.572096604596e-05 3.843268982143e-03 0.0 
0.0 0.0 0.0 
8.387062720295e-04 9.130783646900e-05 0.0 
9.130783646900e-05 4.267074589724e-03 0.0 
0.0 0.0 0.0 
7.225045742255e-04 -5.142767034771e-05 0.0 
-5.142767034771e-05 3.375005921519e-03 0.0 
0.0 0.0 0.0 
4.626430577083e-04 1.924203564922e-03 0.0 
1.924203564922e-03 8.714022043790e-03 0.0 
0.0 0.0 0.0 
1.969080287000e-04 1.171488876760e-03 0.0 
1.171488876760e-03 8.561750417342e-03 0.0 
0.0 0.0 0.0 
1.079664072076e-03 8.100956053515e-04 0.0 
8.100956053515e-04 5.545077656793e-03 0.0 
0.0 0.0 0.0 
8.359888399234e-04 1.279004403444e-05 0.0 
1.279004403444e-05 3.670013970202e-03 0.0 
0.0 0.0 0.0 
-1.174423772319e-03 2.078165879537e-04 0.0 
2.078165879537e-04 1.268613783927e-02 0.0 
0.0 0.0 0.0 
-1.277884989899e-03 4.032147640378e-04 0.0 
4.032147640378e-04 1.301968818456e-02 0.0 
0.0 0.0 0.0 
-1.370241177043e-03 5.561505598251e-04 0.0 
5.561505598251e-04 1.298067504496e-02 0.0 
0.0 0.0 0.0 
-1.332132265129e-03 6.405374467747e-04 0.0 
6.405374467747e-04 1.332109202967e-02 0.0 
0.0 0.0 0.0 
-1.203737363473e-03 2.963666703683e-04 0.0 
2.963666703683e-04 1.307849684253e-02 0.0 
0.0 0.0 0.0 
7.609563160125e-04 5.375590017211e-05 0.0 
5.375590017211e-05 4.382983474721e-03 0.0 
0.0 0.0 0.0 
7.393855894812e-04 5.625059593819e-05 0.0 
5.625059593819e-05 4.569265756870e-03 0.0 
0.0 0.0 0.0 
7.254371803184e-04 2.709427331700e-05 0.0 
2.709427331700e-05 4.330586122679e-03 0.0 
0.0 0.0 0.0 
7.181162163699e-04 5.312737360601e-05 0.0 
5.312737360601e-05 4.757737467579e-03 0.0 
0.0 0.0 0.0 
7.138612348121e-04 2.407335492707e-05 0.0 
2.407335492707e-05 4.506970512508e-03 0.0 
0.0 0.0 0.0 
7.126631097463e-04 5.737380981459e-06 0.0 
5.737380981459e-06 4.116304979981e-03 0.0 
0.0 0.0 0.0 
6.981773649983e-04 4.203882456200e-05 0.0 
4.203882456200e-05 4.940012549103e-03 0.0 
0.0 0.0 0.0 
7.007397956668e-04 1.977100023439e-05 0.0 
1.977100023439e-05 4.659802112364e-03 0.0 
0.0 0.0 0.0 
-1.040564366860e-03 8.589176792042e-05 0.0 
8.589176792042e-05 1.267386552963e-02 0.0 
0.0 0.0 0.0 
-6.557259632044e-04 -1.162017178892e-04 0.0 
-1.162017178892e-04 5.468558625145e-04 0.0 
0.0 0.0 0.0 
-3.552876077980e-04 -1.871805699616e-04 0.0 
-1.871805699616e-04 7.515367330299e-04 0.0 
0.0 0.0 0.0 
-3.173889199804e-04 -1.995036695335e-04 0.0 
-1.995036695335e-04 7.162715863216e-04 0.0 
0.0 0.0 0.0 
-1.174988932185e-04 -2.350660385020e-04 0.0 
-2.350660385020e-04 9.912900303515e-04 0.0 
0.0 0.0 0.0 
-1.175096474040e-04 -1.942685962809e-04 0.0 
-1.942685962809e-04 1.032076718052e-03 0.0 
0.0 0.0 0.0 
1.208547050465e-04 -2.175167012144e-04 0.0 
-2.175167012144e-04 1.314142749206e-03 0.0 
0.0 0.0 0.0 
8.067319958185e-05 -1.796183751182e-04 0.0 
-1.796183751182e-04 1.299672964795e-03 0.0 
0.0 0.0 0.0 
-3.916149736997e-04 -1.662526790517e-04 0.0 
-1.662526790517e-04 7.781815167193e-04 0.0 
0.0 0.0 0.0 
-5.020200527497e-04 -1.222863532566e-04 0.0 
-1.222863532566e-04 4.729437879789e-04 0.0 
0.0 0.0 0.0 
-2.605024425315e-04 -1.968140288283e-04 0.0 
-1.968140288283e-04 6.878343239500e-04 0.0 
0.0 0.0 0.0 
-4.183306461661e-04 -1.166807181006e-04 0.0 
-1.166807181006e-04 4.332179752749e-04 0.0 
0.0 0.0 0.0 
-2.103915736792e-04 -1.949384791571e-04 0.0 
-1.949384791571e-04 6.523430292218e-04 0.0 
0.0 0.0 0.0 
-2.937018854906e-05 -2.434336565504e-04 0.0 
-2.434336565504e-04 9.844650224886e-04 0.0 
0.0 0.0 0.0 
2.426925692048e-04 -2.378663650448e-04 0.0 
-2.378663650448e-04 1.413625308635e-03 0.0 
0.0 0.0 0.0 
1.520532435796e-04 2.707925563177e-04 0.0 
2.707925563177e-04 7.995101530207e-03 0.0 
0.0 0.0 0.0 
6.562040642238e-04 -8.634194670380e-06 0.0 
-8.634194670380e-06 3.491070168599e-03 0.0 
0.0 0.0 0.0 
6.381718187392e-04 -2.179550624780e-05 0.0 
-2.179550624780e-05 3.298463678890e-03 0.0 
0.0 0.0 0.0 
5.919745367330e-04 -3.322908022456e-05 0.0 
-3.322908022456e-05 2.920958053101e-03 0.0 
0.0 0.0 0.0 
6.235623856991e-04 -4.550844433459e-05 0.0 
-4.550844433459e-05 3.123122660623e-03 0.0 
0.0 0.0 0.0 
6.745248367586e-04 -9.024753753932e-06 0.0 
-9.024753753932e-06 3.651894350366e-03 0.0 
0.0 0.0 0.0 
5.551952534802e-04 -1.918999482974e-05 0.0 
-1.918999482974e-05 2.716761883199e-03 0.0 
0.0 0.0 0.0 
5.326170488940e-04 -4.083853290005e-05 0.0 
-4.083853290005e-05 2.578513217941e-03 0.0 
0.0 0.0 0.0 
6.177665166226e-05 -2.571881383965e-05 0.0 
-2.571881383965e-05 2.283084684405e-04 0.0 
0.0 0.0 0.0 
1.176594450915e-04 -4.274315627961e-05 0.0 
-4.274315627961e-05 5.201056020840e-04 0.0 
0.0 0.0 0.0 
1.117402158882e-04 -2.167295124206e-05 0.0 
-2.167295124206e-05 4.873236031681e-04 0.0 
0.0 0.0 0.0 
1.738698053027e-04 -3.740203622275e-05 0.0 
-3.740203622275e-05 8.467064548410e-04 0.0 
0.0 0.0 0.0 
1.670903304336e-04 -6.517549923434e-05 0.0 
-6.517549923434e-05 8.419419544018e-04 0.0 
0.0 0.0 0.0 
1.041140393501e-04 -5.839700396888e-05 0.0 
-5.839700396888e-05 5.292548656166e-04 0.0 
0.0 0.0 0.0 
8.371633026775e-05 -7.500024210776e-05 0.0 
-7.500024210776e-05 5.393538088832e-04 0.0 
0.0 0.0 0.0 
7.529048232073e-06 -4.992875677346e-05 0.0 
-4.992875677346e-05 2.511828936710e-04 0.0 
0.0 0.0 0.0 
6.208669721519e-05 -9.397489314070e-05 0.0 
-9.397489314070e-05 5.486356766989e-04 0.0 
0.0 0.0 0.0 
1.457806619646e-04 -1.081631583082e-04 0.0 
-1.081631583082e-04 8.691947023205e-04 0.0 
0.0 0.0 0.0 
-2.886559566267e-05 -6.004409542057e-05 0.0 
-6.004409542057e-05 2.574828566821e-04 0.0 
0.0 0.0 0.0 
-5.839661855502e-04 3.465023287202e-05 0.0 
3.465023287202e-05 1.443241056373e-02 0.0 
0.0 0.0 0.0 
-5.372640696491e-04 8.397980532633e-05 0.0 
8.397980532633e-05 1.462991761591e-02 0.0 
0.0 0.0 0.0 
1.930848830494e-04 9.411395331394e-04 0.0 
9.411395331394e-04 8.353874668583e-03 0.0 
0.0 0.0 0.0 
-9.454482410044e-04 3.967054258879e-05 0.0 
3.967054258879e-05 1.269965008498e-02 0.0 
0.0 0.0 0.0 
-2.656086933242e-04 -9.885552196764e-05 0.0 
-9.885552196764e-05 3.716203057203e-04 0.0 
0.0 0.0 0.0 
-1.880057595280e-04 3.623309352365e-04 0.0 
3.623309352365e-04 1.558983560529e-02 0.0 
0.0 0.0 0.0 
-2.025886106511e-04 6.793148743803e-04 0.0 
6.793148743803e-04 1.556771798046e-02 0.0 
0.0 0.0 0.0 
-1.774986451255e-04 5.747887680265e-04 0.0 
5.747887680265e-04 1.560418900458e-02 0.0 
0.0 0.0 0.0 
3.584105955654e-04 5.841497674106e-05 0.0 
5.841497674106e-05 7.144472029234e-03 0.0 
0.0 0.0 0.0 
3.036766962540e-04 1.179457244872e-04 0.0 
1.179457244872e-04 7.404500425220e-03 0.0 
0.0 0.0 0.0 
-1.632501695916e-04 2.029700230447e-04 0.0 
2.029700230447e-04 1.561527164971e-02 0.0 
0.0 0.0 0.0 
5.416772996709e-04 -1.839849207570e-04 0.0 
-1.839849207570e-04 2.272185666426e-03 0.0 
0.0 0.0 0.0 
-5.562350137960e-04 1.864222485735e-03 0.0 
1.864222485735e-03 1.413770126749e-02 0.0 
0.0 0.0 0.0 
-4.735541970166e-04 3.505909050414e-04 0.0 
3.505909050414e-04 1.505769596976e-02 0.0 
0.0 0.0 0.0 
2.590075353864e-04 5.364032004885e-04 0.0 
5.364032004885e-04 2.354585854095e-03 0.0 
0.0 0.0 0.0 
5.700901103157e-04 -1.989947233050e-04 0.0 
-1.989947233050e-04 2.210961591102e-03 0.0 
0.0 0.0 0.0 
6.425813216209e-04 1.045716682631e-04 0.0 
1.045716682631e-04 5.660806294342e-03 0.0 
0.0 0.0 0.0 
8.065101875756e-04 2.254827915159e-04 0.0 
2.254827915159e-04 5.154405875796e-03 0.0 
0.0 0.0 0.0 
4.936317687746e-04 2.562852281013e-04 0.0 
2.562852281013e-04 6.704606000861e-03 0.0 
0.0 0.0 0.0 
7.193919808279e-04 1.407084221001e-04 0.0 
1.407084221001e-04 5.263235832213e-03 0.0 
0.0 0.0 0.0 
6.173653634608e-04 3.269426855868e-04 0.0 
3.269426855868e-04 6.303001549059e-03 0.0 
0.0 0.0 0.0 
4.185489864674e-04 1.369247657173e-03 0.0 
1.369247657173e-03 8.320117427450e-03 0.0 
0.0 0.0 0.0 
2.822968520850e-04 -8.571498509120e-05 0.0 
-8.571498509120e-05 1.395895034169e-03 0.0 
0.0 0.0 0.0 
-9.200749928982e-04 2.250290393390e-04 0.0 
2.250290393390e-04 1.379378234167e-02 0.0 
0.0 0.0 0.0 
-8.173660062697e-04 1.098140422983e-04 0.0 
1.098140422983e-04 1.362694160702e-02 0.0 
0.0 0.0 0.0 
-6.919705140343e-04 3.066777028086e-04 0.0 
3.066777028086e-04 1.454607872202e-02 0.0 
0.0 0.0 0.0 
5.270857694406e-04 -1.330610969181e-04 0.0 
-1.330610969181e-04 2.383893740553e-03 0.0 
0.0 0.0 0.0 
7.156427627484e-04 -2.521136290804e-06 0.0 
-2.521136290804e-06 3.925616078574e-03 0.0 
0.0 0.0 0.0 
2.904371617940e-04 -1.856696553020e-04 0.0 
-1.856696553020e-04 1.494316982988e-03 0.0 
0.0 0.0 0.0 
6.184043441841e-05 2.454482502905e-03 0.0 
2.454482502905e-03 1.142182900439e-02 0.0 
0.0 0.0 0.0 
-6.205138005378e-04 1.981849169122e-03 0.0 
1.981849169122e-03 9.996842512863e-03 0.0 
0.0 0.0 0.0 
1.001911272324e-03 2.546754000662e-04 0.0 
2.546754000662e-04 4.305637218978e-03 0.0 
0.0 0.0 0.0 
7.229898466907e-04 -7.252578061970e-05 0.0 
-7.252578061970e-05 3.202285475793e-03 0.0 
0.0 0.0 0.0 
6.205186358315e-04 -1.663736454259e-04 0.0 
-1.663736454259e-04 2.490719438826e-03 0.0 
0.0 0.0 0.0 
5.315170658391e-04 -2.084665799618e-04 0.0 
-2.084665799618e-04 2.071087738985e-03 0.0 
0.0 0.0 0.0 
5.957639104819e-04 1.576939807399e-03 0.0 
1.576939807399e-03 6.336082923141e-03 0.0 
0.0 0.0 0.0 
8.874485510590e-04 7.668954969737e-05 0.0 
7.668954969737e-05 3.919209990754e-03 0.0 
0.0 0.0 0.0 
7.871149408646e-04 5.052421979786e-04 0.0 
5.052421979786e-04 6.042650767572e-03 0.0 
0.0 0.0 0.0 
-5.995825284231e-04 2.896475398100e-04 0.0 
2.896475398100e-04 1.473083704201e-02 0.0 
0.0 0.0 0.0 
-1.405425352375e-04 -8.676991308396e-05 0.0 
-8.676991308396e-05 3.510043067784e-04 0.0 
0.0 0.0 0.0 
7.600660926687e-04 6.205117933165e-04 0.0 
6.205117933165e-04 6.369208738185e-03 0.0 
0.0 0.0 0.0 
8.948470742273e-04 2.378018035461e-04 0.0 
2.378018035461e-04 4.794615666787e-03 0.0 
0.0 0.0 0.0 
-1.067117072732e-03 4.320104825904e-04 0.0 
4.320104825904e-04 1.392153278423e-02 0.0 
0.0 0.0 0.0 
8.393780355168e-04 1.399827740671e-03 0.0 
1.399827740671e-03 7.376876162312e-03 0.0 
0.0 0.0 0.0 
2.291817444775e-04 -2.384633961733e-04 0.0 
-2.384633961733e-04 1.463085776431e-03 0.0 
0.0 0.0 0.0 
-7.812860745951e-04 5.347985868981e-04 0.0 
5.347985868981e-04 1.464985017317e-02 0.0 
0.0 0.0 0.0 
-6.216574434143e-04 1.153726856199e-03 0.0 
1.153726856199e-03 1.492238585257e-02 0.0 
0.0 0.0 0.0 
-1.215400287403e-03 4.404135037499e-04 0.0 
4.404135037499e-04 1.348864375034e-02 0.0 
0.0 0.0 0.0 
1.774096457012e-04 -1.745515987459e-04 0.0 
-1.745515987459e-04 1.135174104772e-03 0.0 
0.0 0.0 0.0 
-9.415436719588e-04 1.371386731700e-04 0.0 
1.371386731700e-04 1.339406642290e-02 0.0 
0.0 0.0 0.0 
4.963399274264e-04 9.735716056607e-04 0.0 
9.735716056607e-04 7.626298897825e-03 0.0 
0.0 0.0 0.0 
-1.043987697376e-03 1.132052010622e-03 0.0 
1.132052010622e-03 1.419207123502e-02 0.0 
0.0 0.0 0.0 
4.698913440391e-04 -1.249548719894e-04 0.0 
-1.249548719894e-04 2.173634445798e-03 0.0 
0.0 0.0 0.0 
1.114115505095e-03 7.503764674652e-04 0.0 
7.503764674652e-04 5.000833142517e-03 0.0 
0.0 0.0 0.0 
1.625954108838e-04 1.896370067380e-03 0.0 
1.896370067380e-03 7.890380066968e-03 0.0 
0.0 0.0 0.0 
-1.439625722828e-03 8.523177336137e-04 0.0 
8.523177336137e-04 1.206403570460e-02 0.0 
0.0 0.0 0.0 
-4.356961401446e-04 4.447918176891e-04 0.0 
4.447918176891e-04 1.518314177550e-02 0.0 
0.0 0.0 0.0 
8.458136565721e-04 1.460280434807e-03 0.0 
1.460280434807e-03 6.495161149846e-03 0.0 
0.0 0.0 0.0 
7.502831037690e-04 1.313586305733e-03 0.0 
1.313586305733e-03 7.500324742674e-03 0.0 
0.0 0.0 0.0 
1.050841799004e-03 9.665845656264e-04 0.0 
9.665845656264e-04 5.959685309090e-03 0.0 
0.0 0.0 0.0 
4.980730737797e-04 -9.435588241810e-05 0.0 
-9.435588241810e-05 2.341404413397e-03 0.0 
0.0 0.0 0.0 
6.091315637219e-04 5.495660694418e-04 0.0 
5.495660694418e-04 6.731988380500e-03 0.0 
0.0 0.0 0.0 
1.046622456945e-03 1.049418571621e-03 0.0 
1.049418571621e-03 5.397494696388e-03 0.0 
0.0 0.0 0.0 
-6.424131636604e-04 6.411879593589e-04 0.0 
6.411879593589e-04 1.495382520306e-02 0.0 
0.0 0.0 0.0 
5.082556790527e-05 2.117485927330e-03 0.0 
2.117485927330e-03 1.016194882596e-02 0.0 
0.0 0.0 0.0 
1.036394023177e-03 6.106474675095e-04 0.0 
6.106474675095e-04 4.040231846512e-03 0.0 
0.0 0.0 0.0 
-8.627876079749e-04 8.577906832385e-04 0.0 
8.577906832385e-04 1.464798759085e-02 0.0 
0.0 0.0 0.0 
1.061718117622e-03 3.857297483003e-04 0.0 
3.857297483003e-04 4.468575979521e-03 0.0 
0.0 0.0 0.0 
7.475044530493e-04 1.565516256314e-03 0.0 
1.565516256314e-03 7.874401919015e-03 0.0 
0.0 0.0 0.0 
-4.367695310447e-04 1.991574601838e-03 0.0 
1.991574601838e-03 9.284032025344e-03 0.0 
0.0 0.0 0.0 
3.782789201504e-05 2.033865405897e-03 0.0 
2.033865405897e-03 9.366672190224e-03 0.0 
0.0 0.0 0.0 
-6.094641239744e-04 2.016734053758e-03 0.0 
2.016734053758e-03 1.155361535383e-02 0.0 
0.0 0.0 0.0 
5.021065409508e-04 1.812340095386e-03 0.0 
1.812340095386e-03 7.837746882806e-03 0.0 
0.0 0.0 0.0 
6.596674187343e-04 6.229879945021e-05 0.0 
6.229879945021e-05 5.401283347966e-03 0.0 
0.0 0.0 0.0 
6.849125592440e-04 5.883361884650e-04 0.0 
5.883361884650e-04 6.547285155290e-03 0.0 
0.0 0.0 0.0 
3.042800448533e-04 -8.030430915939e-06 0.0 
-8.030430915939e-06 1.700148644326e-03 0.0 
0.0 0.0 0.0 
4.363219506465e-04 1.465828750666e-03 0.0 
1.465828750666e-03 5.486474266054e-03 0.0 
0.0 0.0 0.0 
-1.180531693091e-03 5.940428038313e-04 0.0 
5.940428038313e-04 1.383102875498e-02 0.0 
0.0 0.0 0.0 
2.472693770191e-04 2.190864262469e-03 0.0 
2.190864262469e-03 1.018216797541e-02 0.0 
0.0 0.0 0.0 
-4.694201189155e-04 7.376075045253e-04 0.0 
7.376075045253e-04 1.523208615216e-02 0.0 
0.0 0.0 0.0 
1.146532176006e-04 1.856512945047e-03 0.0 
1.856512945047e-03 7.493236600280e-03 0.0 
0.0 0.0 0.0 
6.504718581553e-04 4.471836817315e-04 0.0 
4.471836817315e-04 6.409938715387e-03 0.0 
0.0 0.0 0.0 
-6.860809888657e-04 9.844604865437e-04 0.0 
9.844604865437e-04 1.490586589350e-02 0.0 
0.0 0.0 0.0 
8.645818325624e-04 8.424763565906e-05 0.0 
8.424763565906e-05 4.090303684389e-03 0.0 
0.0 0.0 0.0 
3.359872269499e-04 -2.797663171499e-05 0.0 
-2.797663171499e-05 1.609291628885e-03 0.0 
0.0 0.0 0.0 
4.786515833003e-06 5.305368017947e-04 0.0 
5.305368017947e-04 1.983332754802e-03 0.0 
0.0 0.0 0.0 
8.500539982583e-04 4.303427020837e-04 0.0 
4.303427020837e-04 3.171832309429e-03 0.0 
0.0 0.0 0.0 
9.294245744359e-04 1.300407347983e-03 0.0 
1.300407347983e-03 5.946996466461e-03 0.0 
0.0 0.0 0.0 
8.699806059699e-04 1.578854778276e-04 0.0 
1.578854778276e-04 4.523970428209e-03 0.0 
0.0 0.0 0.0 
-5.289927734709e-04 1.643553688227e-03 0.0 
1.643553688227e-03 1.458547095521e-02 0.0 
0.0 0.0 0.0 
5.816035903116e-04 4.151379803150e-04 0.0 
4.151379803150e-04 6.603709260220e-03 0.0 
0.0 0.0 0.0 
8.638916288729e-04 8.132436254527e-04 0.0 
8.132436254527e-04 6.404112084442e-03 0.0 
0.0 0.0 0.0 
-7.741978118724e-04 1.031190087288e-03 0.0 
1.031190087288e-03 1.710717991920e-03 0.0 
0.0 0.0 0.0 
-1.394180358744e-03 1.271988629887e-03 0.0 
1.271988629887e-03 1.180793921709e-02 0.0 
0.0 0.0 0.0 
5.120971916289e-04 3.774364800870e-04 0.0 
3.774364800870e-04 6.805305597516e-03 0.0 
0.0 0.0 0.0 
1.108965681168e-03 7.010562995906e-04 0.0 
7.010562995906e-04 5.070398848667e-03 0.0 
0.0 0.0 0.0 
7.158498053464e-04 1.516100538219e-03 0.0 
1.516100538219e-03 7.889610354669e-03 0.0 
0.0 0.0 0.0 
7.065662625022e-04 8.731085928982e-06 0.0 
8.731085928982e-06 4.251737448800e-03 0.0 
0.0 0.0 0.0 
1.244380126432e-04 2.415743615372e-03 0.0 
2.415743615372e-03 1.103320578945e-02 0.0 
0.0 0.0 0.0 
-8.421398176265e-04 1.793482134843e-03 0.0 
1.793482134843e-03 9.152697135909e-03 0.0 
0.0 0.0 0.0 
4.418158543026e-04 3.338430117370e-04 0.0 
3.338430117370e-04 7.018764160488e-03 0.0 
0.0 0.0 0.0 
8.843716111264e-04 9.988806460404e-04 0.0 
9.988806460404e-04 6.652811286846e-03 0.0 
0.0 0.0 0.0 
6.859597958548e-04 1.005336689481e-03 0.0 
1.005336689481e-03 4.135434284950e-03 0.0 
0.0 0.0 0.0 
-8.152390199179e-04 4.098319457354e-06 0.0 
4.098319457354e-06 1.260046135082e-02 0.0 
0.0 0.0 0.0 
2.857046986947e-04 3.734816112137e-04 0.0 
3.734816112137e-04 7.615017883387e-03 0.0 
0.0 0.0 0.0 
7.529748514958e-04 1.112473736195e-03 0.0 
1.112473736195e-03 7.191026505409e-03 0.0 
0.0 0.0 0.0 
4.885106842610e-04 1.864461779854e-03 0.0 
1.864461779854e-03 8.274876953710e-03 0.0 
0.0 0.0 0.0 
1.103617496501e-03 5.510574557392e-04 0.0 
5.510574557392e-04 4.694565408407e-03 0.0 
0.0 0.0 0.0 
-1.396393558988e-03 1.264958595328e-03 0.0 
1.264958595328e-03 1.122754403644e-02 0.0 
0.0 0.0 0.0 
8.341638080258e-04 1.582089826185e-04 0.0 
1.582089826185e-04 4.703215086271e-03 0.0 
0.0 0.0 0.0 
-1.266018719409e-04 2.075272375316e-03 0.0 
2.075272375316e-03 1.002203777137e-02 0.0 
0.0 0.0 0.0 
-2.528670695688e-04 1.401017233598e-03 0.0 
1.401017233598e-03 1.518212493684e-02 0.0 
0.0 0.0 0.0 
6.741906694792e-04 1.263417187324e-03 0.0 
1.263417187324e-03 7.593754958069e-03 0.0 
0.0 0.0 0.0 
-1.222430972671e-03 1.352848724154e-03 0.0 
1.352848724154e-03 1.324015246905e-02 0.0 
0.0 0.0 0.0 
8.105622918334e-04 9.632100824404e-05 0.0 
9.632100824404e-05 4.446004880764e-03 0.0 
0.0 0.0 0.0 
8.336229769640e-04 1.558336635791e-03 0.0 
1.558336635791e-03 7.385994302546e-03 0.0 
0.0 0.0 0.0 
1.589117035065e-04 -9.013855305622e-05 0.0 
-9.013855305622e-05 8.492022636219e-04 0.0 
0.0 0.0 0.0 
-1.160251183199e-03 1.650090205453e-03 0.0 
1.650090205453e-03 1.063662055460e-02 0.0 
0.0 0.0 0.0 
7.808106124632e-04 9.862984558060e-05 0.0 
9.862984558060e-05 4.628971336692e-03 0.0 
0.0 0.0 0.0 
9.110206706160e-04 3.536636500869e-04 0.0 
3.536636500869e-04 3.222861944018e-03 0.0 
0.0 0.0 0.0 
1.083465871735e-03 5.168958010154e-04 0.0 
5.168958010154e-04 4.799834419617e-03 0.0 
0.0 0.0 0.0 
3.973574241134e-04 2.023179406472e-03 0.0 
2.023179406472e-03 9.404923718127e-03 0.0 
0.0 0.0 0.0 
7.505902988990e-04 9.752573815911e-05 0.0 
9.752573815911e-05 4.816241506484e-03 0.0 
0.0 0.0 0.0 
1.005426887487e-03 4.465908673611e-04 0.0 
4.465908673611e-04 3.650423915451e-03 0.0 
0.0 0.0 0.0 
7.202169798706e-04 9.186899776126e-05 0.0 
9.186899776126e-05 5.006437679677e-03 0.0 
0.0 0.0 0.0 
-1.127845365449e-03 1.625115422679e-03 0.0 
1.625115422679e-03 9.778987481148e-03 0.0 
0.0 0.0 0.0 
-1.100090207400e-03 1.564304013833e-03 0.0 
1.564304013833e-03 1.307722692328e-02 0.0 
0.0 0.0 0.0 
6.909448695389e-04 7.925338169624e-05 0.0 
7.925338169624e-05 5.198015767706e-03 0.0 
0.0 0.0 0.0 
-1.050198055222e-04 2.110869632275e-03 0.0 
2.110869632275e-03 1.039791953229e-02 0.0 
0.0 0.0 0.0 
1.311821014691e-04 -1.384048340203e-04 0.0 
-1.384048340203e-04 9.094333500398e-04 0.0 
0.0 0.0 0.0 
5.949833682738e-04 1.808948667856e-03 0.0 
1.808948667856e-03 8.111762028596e-03 0.0 
0.0 0.0 0.0 
4.246710891050e-04 1.081994039884e-04 0.0 
1.081994039884e-04 6.873657861446e-03 0.0 
0.0 0.0 0.0 
7.819074157360e-04 -8.254797485789e-05 0.0 
-8.254797485789e-05 2.951883906300e-03 0.0 
0.0 0.0 0.0 
1.054122491706e-03 4.907757227758e-04 0.0 
4.907757227758e-04 4.924006047689e-03 0.0 
0.0 0.0 0.0 
-9.558419853390e-04 1.670763944058e-03 0.0 
1.670763944058e-03 1.330826625550e-02 0.0 
0.0 0.0 0.0 
-9.604244440060e-04 1.609178104893e-03 0.0 
1.609178104893e-03 8.303443112489e-03 0.0 
0.0 0.0 0.0 
1.019611886979e-03 5.971251734101e-04 0.0 
5.971251734101e-04 5.396776081833e-03 0.0 
0.0 0.0 0.0 
-8.439717020919e-05 2.163608121437e-03 0.0 
2.163608121437e-03 1.077837454695e-02 0.0 
0.0 0.0 0.0 
6.758796296235e-04 1.757042599206e-03 0.0 
1.757042599206e-03 7.994593247279e-03 0.0 
0.0 0.0 0.0 
9.197226767621e-04 1.381672739355e-03 0.0 
1.381672739355e-03 6.417156781982e-03 0.0 
0.0 0.0 0.0 
9.576273701117e-04 7.054104788634e-04 0.0 
7.054104788634e-04 5.890137314839e-03 0.0 
0.0 0.0 0.0 
-6.457170915657e-04 1.745236552797e-03 0.0 
1.745236552797e-03 7.661610387905e-03 0.0 
0.0 0.0 0.0 
5.100045880457e-04 -2.057180508989e-04 0.0 
-2.057180508989e-04 2.122426071022e-03 0.0 
0.0 0.0 0.0 
3.842473199050e-04 -2.313279710199e-04 0.0 
-2.313279710199e-04 1.765958743189e-03 0.0 
0.0 0.0 0.0 
1.034811396714e-03 3.890085655850e-04 0.0 
3.890085655850e-04 3.720151032448e-03 0.0 
0.0 0.0 0.0 
-2.038651627549e-04 2.194251078196e-03 0.0 
2.194251078196e-03 1.138297939212e-02 0.0 
0.0 0.0 0.0 
2.321624192216e-04 -6.393907367377e-05 0.0 
-6.393907367377e-05 1.160570772581e-03 0.0 
0.0 0.0 0.0 
-7.775969188072e-04 1.905390187950e-03 0.0 
1.905390187950e-03 1.263224031617e-02 0.0 
0.0 0.0 0.0 
1.753514235737e-04 -2.513239172808e-04 0.0 
-2.513239172808e-04 1.282177090307e-03 0.0 
0.0 0.0 0.0 
9.811590867394e-04 2.458933654843e-04 0.0 
2.458933654843e-04 3.385192450836e-03 0.0 
0.0 0.0 0.0 
6.497626681400e-04 1.808842853834e-03 0.0 
1.808842853834e-03 8.429954093107e-03 0.0 
0.0 0.0 0.0 
-7.199143453916e-04 1.263143321572e-05 0.0 
1.263143321572e-05 1.370475071340e-02 0.0 
0.0 0.0 0.0 
9.952026237033e-04 2.106263560208e-04 0.0 
2.106263560208e-04 3.487561922615e-03 0.0 
0.0 0.0 0.0 
4.137779101100e-04 -2.541135455028e-05 0.0 
-2.541135455028e-05 1.978845622172e-03 0.0 
0.0 0.0 0.0 
9.269523708119e-04 9.203708219070e-05 0.0 
9.203708219070e-05 3.194523532722e-03 0.0 
0.0 0.0 0.0 
8.878396788859e-04 1.466038193027e-03 0.0 
1.466038193027e-03 6.895251462287e-03 0.0 
0.0 0.0 0.0 
9.327161811922e-04 7.702822949188e-05 0.0 
7.702822949188e-05 3.321472945083e-03 0.0 
0.0 0.0 0.0 
8.571100330239e-04 -1.507225652109e-05 0.0 
-1.507225652109e-05 3.059034672532e-03 0.0 
0.0 0.0 0.0 
-3.276380658797e-04 4.049927373674e-04 0.0 
4.049927373674e-04 1.535858068605e-02 0.0 
0.0 0.0 0.0 
8.594610001733e-04 -1.447605502473e-05 0.0 
-1.447605502473e-05 3.198918129145e-03 0.0 
0.0 0.0 0.0 
-1.348553200720e-04 1.155454029928e-04 0.0 
1.155454029928e-04 1.567138837709e-02 0.0 
0.0 0.0 0.0 
1.436630999443e-04 1.211427087278e-04 0.0 
1.211427087278e-04 8.004474383193e-03 0.0 
0.0 0.0 0.0 
-7.923673739289e-04 -1.216329052566e-07 0.0 
-1.216329052566e-07 1.290942867717e-02 0.0 
0.0 0.0 0.0 
-9.756615668975e-04 1.608058010897e-03 0.0 
1.608058010897e-03 7.015319397562e-03 0.0 
0.0 0.0 0.0 
-8.151629251256e-04 8.724324459379e-06 0.0 
8.724324459379e-06 6.522501309515e-04 0.0 
0.0 0.0 0.0 
-4.970046414779e-04 1.598980555738e-03 0.0 
1.598980555738e-03 6.111156483888e-03 0.0 
0.0 0.0 0.0 
6.867757095209e-04 -1.463806108256e-04 0.0 
-1.463806108256e-04 2.575099626733e-03 0.0 
0.0 0.0 0.0 
-5.282791375723e-04 2.067152775381e-03 0.0 
2.067152775381e-03 1.184733220328e-02 0.0 
0.0 0.0 0.0 
-7.973549649740e-04 1.337934231118e-05 0.0 
1.337934231118e-05 1.293061109773e-02 0.0 
0.0 0.0 0.0 
5.972321692287e-04 -1.841721157384e-04 0.0 
-1.841721157384e-04 2.348149887314e-03 0.0 
0.0 0.0 0.0 
-3.156202709253e-04 2.261983569505e-03 0.0 
2.261983569505e-03 1.334130466595e-02 0.0 
0.0 0.0 0.0 
1.091309175364e-04 2.478593065790e-03 0.0 
2.478593065790e-03 1.092367163915e-02 0.0 
0.0 0.0 0.0 
-6.306666857224e-04 6.610307294827e-05 0.0 
6.610307294827e-05 1.426015140753e-02 0.0 
0.0 0.0 0.0 
6.569189023377e-04 1.470226535669e-03 0.0 
1.470226535669e-03 7.932455346813e-03 0.0 
0.0 0.0 0.0 
7.294877399041e-04 1.708385172273e-03 0.0 
1.708385172273e-03 7.928026761172e-03 0.0 
0.0 0.0 0.0 
-3.844660204988e-04 5.311713458560e-05 0.0 
5.311713458560e-05 1.508933456122e-02 0.0 
0.0 0.0 0.0 
-8.581195729760e-04 2.434292912862e-06 0.0 
2.434292912862e-06 1.258797577943e-02 0.0 
0.0 0.0 0.0 
-1.645770030361e-04 -1.813588575190e-04 0.0 
-1.813588575190e-04 6.282602289450e-04 0.0 
0.0 0.0 0.0 
6.252263953456e-04 3.539841413410e-05 0.0 
3.539841413410e-05 5.639110507552e-03 0.0 
0.0 0.0 0.0 
-9.691423866352e-04 1.554536958838e-03 0.0 
1.554536958838e-03 5.616340503823e-03 0.0 
0.0 0.0 0.0 
-5.055859200437e-04 1.444614334471e-03 0.0 
1.444614334471e-03 4.649502180788e-03 0.0 
0.0 0.0 0.0 
-4.645907399553e-04 1.237321797329e-03 0.0 
1.237321797329e-03 3.334931297527e-03 0.0 
0.0 0.0 0.0 
5.156553423135e-04 -6.737008949551e-05 0.0 
-6.737008949551e-05 2.473198975710e-03 0.0 
0.0 0.0 0.0 
-9.297772570727e-05 -2.385894882431e-04 0.0 
-2.385894882431e-04 9.614802722610e-04 0.0 
0.0 0.0 0.0 
-8.743697674047e-04 1.466017425132e-03 0.0 
1.466017425132e-03 4.317637944880e-03 0.0 
0.0 0.0 0.0 
4.031996572477e-04 1.725062583719e-03 0.0 
1.725062583719e-03 8.856882731714e-03 0.0 
0.0 0.0 0.0 
-1.008541433989e-03 1.055464355178e-04 0.0 
1.055464355178e-04 1.300850985474e-02 0.0 
0.0 0.0 0.0 
5.362349866208e-04 1.939150901136e-03 0.0 
1.939150901136e-03 8.957350475869e-03 0.0 
0.0 0.0 0.0 
-8.287017320947e-04 1.312450798676e-03 0.0 
1.312450798676e-03 2.972393006460e-03 0.0 
0.0 0.0 0.0 
-4.795741290859e-04 1.102081260745e-03 0.0 
1.102081260745e-03 1.512948676394e-02 0.0 
0.0 0.0 0.0 
2.945549710771e-04 2.209153891199e-03 0.0 
2.209153891199e-03 9.995766949038e-03 0.0 
0.0 0.0 0.0 
1.617268177262e-04 7.129964287728e-04 0.0 
7.129964287728e-04 8.254648220492e-03 0.0 
0.0 0.0 0.0 
4.364555335370e-04 2.055788618371e-03 0.0 
2.055788618371e-03 9.444254984355e-03 0.0 
0.0 0.0 0.0 
-4.616431424402e-04 9.310217598542e-04 0.0 
9.310217598542e-04 2.142002693077e-03 0.0 
0.0 0.0 0.0 
-1.272582214545e-03 4.727902365980e-04 0.0 
4.727902365980e-04 1.331373760787e-02 0.0 
0.0 0.0 0.0 
-1.354329266208e-05 2.462397713613e-03 0.0 
2.462397713613e-03 1.180290627705e-02 0.0 
0.0 0.0 0.0 
-5.817664615462e-04 1.201585797072e-04 0.0 
1.201585797072e-04 1.455008294328e-02 0.0 
0.0 0.0 0.0 
1.464712301044e-04 5.658477928108e-04 0.0 
5.658477928108e-04 8.201132440277e-03 0.0 
0.0 0.0 0.0 
-1.120804388540e-03 1.871316866085e-04 0.0 
1.871316866085e-04 1.297454382132e-02 0.0 
0.0 0.0 0.0 
-2.689278860961e-04 2.633740545912e-04 0.0 
2.633740545912e-04 1.541293132489e-02 0.0 
0.0 0.0 0.0 
1.859249549572e-04 -1.154932235076e-04 0.0 
-1.154932235076e-04 1.450150317206e-03 0.0 
0.0 0.0 0.0 
-2.484787047809e-04 1.359340962292e-04 0.0 
1.359340962292e-04 1.542231934154e-02 0.0 
0.0 0.0 0.0 
-4.417160867975e-04 2.135951178108e-03 0.0 
2.135951178108e-03 1.215362378527e-02 0.0 
0.0 0.0 0.0 
-8.064859633395e-04 7.433399355871e-05 0.0 
7.433399355871e-05 1.344542696013e-02 0.0 
0.0 0.0 0.0 
-1.387684724261e-03 7.672788252384e-04 0.0 
7.672788252384e-04 1.315265585122e-02 0.0 
0.0 0.0 0.0 
2.359659306760e-04 1.868045459689e-04 0.0 
1.868045459689e-04 7.661901435201e-03 0.0 
0.0 0.0 0.0 
-4.379251572302e-04 2.010918239137e-03 0.0 
2.010918239137e-03 1.401303462849e-02 0.0 
0.0 0.0 0.0 
-4.665894390418e-04 7.144524175327e-04 0.0 
7.144524175327e-04 1.582995257431e-03 0.0 
0.0 0.0 0.0 
-6.533043787013e-04 1.052281165295e-04 0.0 
1.052281165295e-04 1.424500840677e-02 0.0 
0.0 0.0 0.0 
6.401605227414e-04 -5.718120534382e-05 0.0 
-5.718120534382e-05 3.124660699093e-03 0.0 
0.0 0.0 0.0 
-4.720539543143e-04 -1.176343102601e-04 0.0 
-1.176343102601e-04 7.718066249786e-04 0.0 
0.0 0.0 0.0 
3.391863597207e-04 8.483879960693e-04 0.0 
8.483879960693e-04 7.879221780101e-03 0.0 
0.0 0.0 0.0 
-3.480273124820e-04 2.217859580249e-03 0.0 
2.217859580249e-03 1.245052103886e-02 0.0 
0.0 0.0 0.0 
2.525767786199e-04 3.143005975313e-04 0.0 
3.143005975313e-04 7.655600466696e-03 0.0 
0.0 0.0 0.0 
1.716723297632e-04 -1.859709129325e-05 0.0 
-1.859709129325e-05 8.322971550969e-04 0.0 
0.0 0.0 0.0 
-8.774805889673e-05 -1.469609725487e-04 0.0 
-1.469609725487e-04 5.557575183155e-04 0.0 
0.0 0.0 0.0 
3.417810424483e-04 1.056482115429e-03 0.0 
1.056482115429e-03 8.118687926643e-03 0.0 
0.0 0.0 0.0 
-1.732860954637e-04 2.422588543475e-03 0.0 
2.422588543475e-03 1.267723863170e-02 0.0 
0.0 0.0 0.0 
2.750222536615e-04 -1.499605366630e-04 0.0 
-1.499605366630e-04 1.592615243820e-03 0.0 
0.0 0.0 0.0 
-1.940616898273e-04 9.543556720566e-04 0.0 
9.543556720566e-04 1.550780550144e-02 0.0 
0.0 0.0 0.0 
-5.885513189573e-04 5.259001948831e-04 0.0 
5.259001948831e-04 1.072624073344e-03 0.0 
0.0 0.0 0.0 
-9.001067608553e-04 1.594277696368e-05 0.0 
1.594277696368e-05 1.255916068488e-02 0.0 
0.0 0.0 0.0 
2.072260501792e-05 -1.081674353181e-04 0.0 
-1.081674353181e-04 5.349727660032e-04 0.0 
0.0 0.0 0.0 
1.371641551029e-04 4.157802861828e-04 0.0 
4.157802861828e-04 8.143307457570e-03 0.0 
0.0 0.0 0.0 
-3.615225636283e-04 6.821911564905e-04 0.0 
6.821911564905e-04 1.535844389311e-02 0.0 
0.0 0.0 0.0 
6.666294012756e-04 -1.882618051696e-05 0.0 
-1.882618051696e-05 3.471820943402e-03 0.0 
0.0 0.0 0.0 
-1.335070951598e-03 4.737049682071e-04 0.0 
4.737049682071e-04 1.264767060655e-02 0.0 
0.0 0.0 0.0 
4.631667068839e-04 -4.791788931244e-05 0.0 
-4.791788931244e-05 2.231176208689e-03 0.0 
0.0 0.0 0.0 
2.121350138989e-04 2.300976750522e-03 0.0 
2.300976750522e-03 1.051835519626e-02 0.0 
0.0 0.0 0.0 
-6.047783322671e-05 -2.268924690900e-04 0.0 
-2.268924690900e-04 8.693086308319e-04 0.0 
0.0 0.0 0.0 
-3.031931537467e-04 4.896729551494e-04 0.0 
4.896729551494e-04 1.542694174848e-02 0.0 
0.0 0.0 0.0 
3.531921263273e-04 1.284006096372e-03 0.0 
1.284006096372e-03 8.358557701772e-03 0.0 
0.0 0.0 0.0 
-4.661447224780e-04 1.541840708534e-03 0.0 
1.541840708534e-03 1.481595206043e-02 0.0 
0.0 0.0 0.0 
1.582115336645e-04 2.109624340175e-03 0.0 
2.109624340175e-03 9.888043665870e-03 0.0 
0.0 0.0 0.0 
-5.338192572786e-04 1.214461799592e-04 0.0 
1.214461799592e-04 8.474497219030e-04 0.0 
0.0 0.0 0.0 
2.147868853235e-04 2.328255577423e-03 0.0 
2.328255577423e-03 1.042047493936e-02 0.0 
0.0 0.0 0.0 
5.410645227049e-04 1.371195364543e-03 0.0 
1.371195364543e-03 8.052851496548e-03 0.0 
0.0 0.0 0.0 
-8.363305843372e-04 1.343448616788e-05 0.0 
1.343448616788e-05 1.257542145549e-02 0.0 
0.0 0.0 0.0 
-4.666586118412e-04 1.803024637069e-03 0.0 
1.803024637069e-03 1.440802514152e-02 0.0 
0.0 0.0 0.0 
5.697247227908e-04 -5.077497840243e-05 0.0 
-5.077497840243e-05 2.777679854746e-03 0.0 
0.0 0.0 0.0 
2.077896636643e-04 -1.397431866216e-04 0.0 
-1.397431866216e-04 1.153826940170e-03 0.0 
0.0 0.0 0.0 
-1.085359873096e-04 5.462750543031e-05 0.0 
5.462750543031e-05 1.570799338063e-02 0.0 
0.0 0.0 0.0 
6.399599603393e-05 -7.321293621412e-06 0.0 
-7.321293621412e-06 1.627420557408e-04 0.0 
0.0 0.0 0.0 
-8.088603208578e-04 -3.705200515733e-06 0.0 
-3.705200515733e-06 1.253488030638e-02 0.0 
0.0 0.0 0.0 
1.084426140511e-04 6.298344765230e-05 0.0 
6.298344765230e-05 8.112862853958e-03 0.0 
0.0 0.0 0.0 
2.171181344735e-04 -8.457744090240e-05 0.0 
-8.457744090240e-05 1.089355437170e-03 0.0 
0.0 0.0 0.0 
-7.757829407424e-04 1.449422925017e-05 0.0 
1.449422925017e-05 1.321182952531e-02 0.0 
0.0 0.0 0.0 
-2.322876354772e-04 2.364856090940e-03 0.0 
2.364856090940e-03 1.304855054136e-02 0.0 
0.0 0.0 0.0 
6.975182118076e-04 6.709773216228e-06 0.0 
6.709773216228e-06 4.364176664654e-03 0.0 
0.0 0.0 0.0 
-4.530224524527e-04 8.394695202854e-05 0.0 
8.394695202854e-05 1.489627962294e-02 0.0 
0.0 0.0 0.0 
5.667185117282e-05 -2.453198030401e-04 0.0 
-2.453198030401e-04 1.182303503860e-03 0.0 
0.0 0.0 0.0 
-8.336188264469e-04 -5.696553145802e-05 0.0 
-5.696553145802e-05 5.803215205793e-04 0.0 
0.0 0.0 0.0 
-6.942996080068e-04 3.810031360692e-05 0.0 
3.810031360692e-05 1.391158044205e-02 0.0 
0.0 0.0 0.0 
3.028105219971e-04 2.154498261900e-03 0.0 
2.154498261900e-03 9.809414080841e-03 0.0 
0.0 0.0 0.0 
-4.378137260873e-04 1.251405542451e-03 0.0 
1.251405542451e-03 1.510523645928e-02 0.0 
0.0 0.0 0.0 
-7.713867716480e-04 8.093449732219e-05 0.0 
8.093449732219e-05 1.365730795294e-02 0.0 
0.0 0.0 0.0 
-2.241366363912e-04 5.318059167964e-04 0.0 
5.318059167964e-04 1.703417199189e-03 0.0 
0.0 0.0 0.0 
-2.703732480090e-04 2.317810833381e-03 0.0 
2.317810833381e-03 1.268295166142e-02 0.0 
0.0 0.0 0.0 
6.964431905747e-04 -1.020063275242e-05 0.0 
-1.020063275242e-05 3.776261079781e-03 0.0 
0.0 0.0 0.0 
2.460978312750e-05 2.374679104303e-03 0.0 
2.374679104303e-03 1.133186712581e-02 0.0 
0.0 0.0 0.0 
5.229094354553e-04 1.577215082331e-03 0.0 
1.577215082331e-03 8.392781182314e-03 0.0 
0.0 0.0 0.0 
-7.557889872148e-04 5.866893439516e-04 0.0 
5.866893439516e-04 7.340180003567e-04 0.0 
0.0 0.0 0.0 
6.917927092126e-04 1.324742815262e-05 0.0 
1.324742815262e-05 4.742565896236e-03 0.0 
0.0 0.0 0.0 
-3.737383094127e-05 -1.178862115164e-04 0.0 
-1.178862115164e-04 5.161968291330e-04 0.0 
0.0 0.0 0.0 
2.663853951202e-04 6.212650856794e-04 0.0 
6.212650856794e-04 7.873052589888e-03 0.0 
0.0 0.0 0.0 
6.966441806517e-04 -3.316618473178e-06 0.0 
-3.316618473178e-06 3.956586752941e-03 0.0 
0.0 0.0 0.0 
-1.115948548946e-03 2.971322238203e-04 0.0 
2.971322238203e-04 1.171079561959e-02 0.0 
0.0 0.0 0.0 
-8.584566507733e-04 6.288326779728e-06 0.0 
6.288326779728e-06 1.162357604599e-02 0.0 
0.0 0.0 0.0 
-1.175512196042e-03 3.059372196131e-04 0.0 
3.059372196131e-04 1.205937883541e-02 0.0 
0.0 0.0 0.0 
-8.268939122493e-04 2.274647820493e-06 0.0 
2.274647820493e-06 1.201239912437e-02 0.0 
0.0 0.0 0.0 

TENSORS node_materi_strain_plasti float
-1.741775845201e-05 -2.168405097555e-06 0.0 
-2.168405097555e-06 1.395813736689e-04 0.0 
0.0 0.0 -3.282868849617e-05 
-7.193710724365e-04 -1.122442495585e-04 0.0 
-1.122442495585e-04 4.531072016065e-03 0.0 
0.0 0.0 -6.959116756397e-04 
-1.326721611229e-03 9.743109485010e-05 0.0 
9.743109485010e-05 8.921087027136e-03 0.0 
0.0 0.0 -1.332621093165e-03 
-1.328526300077e-03 -9.718698781146e-05 0.0 
-9.718698781146e-05 8.927311597372e-03 0.0 
0.0 0.0 -1.332621093165e-03 
-8.193859278095e-05 3.577520009443e-05 0.0 
3.577520009443e-05 3.368763971303e-04 0.0 
0.0 0.0 -8.453455331315e-05 
-1.695924659270e-04 1.267609683744e-04 0.0 
1.267609683744e-04 8.452299049113e-04 0.0 
0.0 0.0 -1.619080202416e-04 
-2.296336673595e-04 1.041833740940e-04 0.0 
1.041833740940e-04 1.224476071287e-03 0.0 
0.0 0.0 -2.266090766362e-04 
-2.971855348456e-04 9.450166671956e-05 0.0 
9.450166671956e-05 1.745895085854e-03 0.0 
0.0 0.0 -2.937643997455e-04 
-3.715291688780e-04 6.977872566512e-05 0.0 
6.977872566512e-05 2.214517262813e-03 0.0 
0.0 0.0 -3.610469555860e-04 
-4.249688263072e-04 6.584730845620e-05 0.0 
6.584730845620e-05 2.664484643095e-03 0.0 
0.0 0.0 -4.277228197774e-04 
-4.875317281637e-04 7.284843635981e-05 0.0 
7.284843635981e-05 3.123402469253e-03 0.0 
0.0 0.0 -4.940119848999e-04 
-5.560650258811e-04 6.506894170197e-05 0.0 
6.506894170197e-05 3.586726731214e-03 0.0 
0.0 0.0 -5.601824523721e-04 
-6.219544696599e-04 6.499150418632e-05 0.0 
6.499150418632e-05 4.044891981262e-03 0.0 
0.0 0.0 -6.267196139102e-04 
-6.989301157160e-04 8.304445482454e-05 0.0 
8.304445482454e-05 4.516508974108e-03 0.0 
0.0 0.0 -6.936951881209e-04 
-7.842461813792e-04 1.250766207628e-04 0.0 
1.250766207628e-04 5.027932232893e-03 0.0 
0.0 0.0 -7.607197531558e-04 
-8.342478146059e-04 1.327780010267e-04 0.0 
1.327780010267e-04 5.490101288132e-03 0.0 
0.0 0.0 -8.270758575053e-04 
-8.797786789151e-04 1.730981527132e-04 0.0 
1.730981527132e-04 5.870913224211e-03 0.0 
0.0 0.0 -8.903361771249e-04 
-9.530636179411e-04 6.774981962034e-05 0.0 
6.774981962034e-05 6.360455625450e-03 0.0 
0.0 0.0 -9.558084330571e-04 
-1.021468397639e-03 6.438406854751e-05 0.0 
6.438406854751e-05 6.838909130197e-03 0.0 
0.0 0.0 -1.024523475697e-03 
-1.087303877607e-03 6.616077821815e-05 0.0 
6.616077821815e-05 7.302617105742e-03 0.0 
0.0 0.0 -1.091244731156e-03 
-1.157611465321e-03 6.099216604955e-05 0.0 
6.099216604955e-05 7.775325521779e-03 0.0 
0.0 0.0 -1.158330123333e-03 
-1.229956863987e-03 7.577779225227e-05 0.0 
7.577779225227e-05 8.251739665694e-03 0.0 
0.0 0.0 -1.226073836101e-03 
-1.285597262298e-03 9.777469732990e-05 0.0 
9.777469732990e-05 8.717344745921e-03 0.0 
0.0 0.0 -1.289832767750e-03 
-1.328056332164e-03 -6.444803612954e-06 0.0 
-6.444803612954e-06 8.942057407760e-03 0.0 
0.0 0.0 -1.336902025401e-03 
-1.335490548137e-03 -3.051268407675e-06 0.0 
-3.051268407675e-06 8.928554519845e-03 0.0 
0.0 0.0 -1.332945767435e-03 
-1.336130347494e-03 -6.396074884473e-05 0.0 
-6.396074884473e-05 8.918857970665e-03 0.0 
0.0 0.0 -1.334903170087e-03 
-1.339230604727e-03 3.012709249355e-05 0.0 
3.012709249355e-05 8.923856553285e-03 0.0 
0.0 0.0 -1.334459899807e-03 
-1.337146058389e-03 -8.398799894841e-06 0.0 
-8.398799894841e-06 8.911324906834e-03 0.0 
0.0 0.0 -1.332067731643e-03 
-1.335355832928e-03 1.075181302778e-06 0.0 
1.075181302778e-06 8.911332561918e-03 0.0 
0.0 0.0 -1.335050935171e-03 
-1.325449513940e-03 2.957247518009e-06 0.0 
2.957247518009e-06 8.920139941522e-03 0.0 
0.0 0.0 -1.335055123498e-03 
-1.337345353037e-03 -9.523690686145e-06 0.0 
-9.523690686145e-06 8.921732771433e-03 0.0 
0.0 0.0 -1.333530254363e-03 
-1.334717977068e-03 -4.294761687244e-05 0.0 
-4.294761687244e-05 8.930458145260e-03 0.0 
0.0 0.0 -1.336259905589e-03 
-1.337792100019e-03 2.741258004608e-05 0.0 
2.741258004608e-05 8.934606220421e-03 0.0 
0.0 0.0 -1.335712483792e-03 
-1.336136187727e-03 -6.884802183734e-06 0.0 
-6.884802183734e-06 8.921957108707e-03 0.0 
0.0 0.0 -1.333313947604e-03 
-1.338126723765e-03 -4.814512478223e-06 0.0 
-4.814512478223e-06 8.924502617003e-03 0.0 
0.0 0.0 -1.335862559377e-03 
-1.327324523368e-03 -1.060172701736e-07 0.0 
-1.060172701736e-07 8.942333996565e-03 0.0 
0.0 0.0 -1.336097458551e-03 
-1.338609928482e-03 -2.842890241060e-06 0.0 
-2.842890241060e-06 8.932107808072e-03 0.0 
0.0 0.0 -1.335235043394e-03 
-1.329400644355e-03 -1.048596426291e-05 0.0 
-1.048596426291e-05 8.921074213048e-03 0.0 
0.0 0.0 -1.334297546486e-03 
-1.338340837827e-03 9.966400157394e-06 0.0 
9.966400157394e-06 8.903421378777e-03 0.0 
0.0 0.0 -1.332308435384e-03 
-1.339067962771e-03 -2.558483156537e-06 0.0 
-2.558483156537e-06 8.895896267544e-03 0.0 
0.0 0.0 -1.332019584455e-03 
-1.327125647707e-03 1.639257363240e-06 0.0 
1.639257363240e-06 8.917700513123e-03 0.0 
0.0 0.0 -1.333392124151e-03 
-1.334568721853e-03 -4.268105943774e-06 0.0 
-4.268105943774e-06 8.928545997729e-03 0.0 
0.0 0.0 -1.334727449481e-03 
-1.336827804858e-03 -5.001027102469e-06 0.0 
-5.001027102469e-06 8.928021219147e-03 0.0 
0.0 0.0 -1.336576889699e-03 
-1.337235537648e-03 1.693416763897e-05 0.0 
1.693416763897e-05 8.930023700079e-03 0.0 
0.0 0.0 -1.335888391555e-03 
-1.331872643832e-03 -1.070662442937e-06 0.0 
-1.070662442937e-06 8.931108733201e-03 0.0 
0.0 0.0 -1.334783226448e-03 
-1.335383687196e-03 3.225376233204e-06 0.0 
3.225376233204e-06 8.925108831379e-03 0.0 
0.0 0.0 -1.335053869153e-03 
-1.335647092677e-03 -1.629379981325e-06 0.0 
-1.629379981325e-06 8.920485307702e-03 0.0 
0.0 0.0 -1.334960189349e-03 
-1.336340449165e-03 -1.285585314745e-06 0.0 
-1.285585314745e-06 8.933772799625e-03 0.0 
0.0 0.0 -1.334889991128e-03 
-1.330589077276e-03 -4.874946038578e-06 0.0 
-4.874946038578e-06 8.935469598915e-03 0.0 
0.0 0.0 -1.335774086633e-03 
-1.341165284707e-03 -5.814943729735e-06 0.0 
-5.814943729735e-06 8.933862901487e-03 0.0 
0.0 0.0 -1.336605656894e-03 
-1.330240946256e-03 -4.520075279765e-06 0.0 
-4.520075279765e-06 8.938118272604e-03 0.0 
0.0 0.0 -1.336508443943e-03 
-1.338673330008e-03 -5.862543655786e-06 0.0 
-5.862543655786e-06 8.942517447788e-03 0.0 
0.0 0.0 -1.335343284290e-03 
-1.336600650314e-03 -3.582742261955e-05 0.0 
-3.582742261955e-05 8.951381047284e-03 0.0 
0.0 0.0 -1.337998490269e-03 
-1.341076503417e-03 3.451828262938e-05 0.0 
3.451828262938e-05 8.946627943271e-03 0.0 
0.0 0.0 -1.337247094005e-03 
-1.334448453648e-03 1.095281049642e-05 0.0 
1.095281049642e-05 8.923080866366e-03 0.0 
0.0 0.0 -1.333783489999e-03 
-1.333263826440e-03 -4.659210695706e-08 0.0 
-4.659210695706e-08 8.908320836892e-03 0.0 
0.0 0.0 -1.334548731617e-03 
-1.334150017560e-03 -8.272198035498e-06 0.0 
-8.272198035498e-06 8.929832025163e-03 0.0 
0.0 0.0 -1.334619746794e-03 
-1.331619300726e-03 -1.909948370356e-06 0.0 
-1.909948370356e-06 8.928586538444e-03 0.0 
0.0 0.0 -1.335242115105e-03 
-1.340870630612e-03 -1.061733168398e-05 0.0 
-1.061733168398e-05 8.926675419192e-03 0.0 
0.0 0.0 -1.335691437541e-03 
-1.329659514104e-03 -2.082049369218e-06 0.0 
-2.082049369218e-06 8.934711562866e-03 0.0 
0.0 0.0 -1.335646478247e-03 
-1.339117702311e-03 -4.029677061721e-07 0.0 
-4.029677061721e-07 8.924836081587e-03 0.0 
0.0 0.0 -1.334931242407e-03 
-1.328302087749e-03 -6.726834891378e-06 0.0 
-6.726834891378e-06 8.915098302923e-03 0.0 
0.0 0.0 -1.334100791702e-03 
-1.338339244626e-03 1.868410609583e-06 0.0 
1.868410609583e-06 8.913909047127e-03 0.0 
0.0 0.0 -1.332237298415e-03 
-1.340573467967e-03 -1.512560094747e-05 0.0 
-1.512560094747e-05 8.916790452845e-03 0.0 
0.0 0.0 -1.333749945600e-03 
-1.332872318884e-03 1.070088453610e-05 0.0 
1.070088453610e-05 8.939654193892e-03 0.0 
0.0 0.0 -1.336652505695e-03 
-1.326343527950e-03 -1.064817557575e-05 0.0 
-1.064817557575e-05 8.953327537606e-03 0.0 
0.0 0.0 -1.337094627689e-03 
-1.334975160234e-03 -1.103658676067e-05 0.0 
-1.103658676067e-05 8.887287544370e-03 0.0 
0.0 0.0 -1.328990728106e-03 
-1.326727222271e-03 3.789706117036e-06 0.0 
3.789706117036e-06 8.937395178325e-03 0.0 
0.0 0.0 -1.335900064369e-03 
-1.338702731113e-03 6.248103656110e-07 0.0 
6.248103656110e-07 8.926718973225e-03 0.0 
0.0 0.0 -1.332523500780e-03 
-1.338833780446e-03 -4.056504769858e-05 0.0 
-4.056504769858e-05 8.921997078910e-03 0.0 
0.0 0.0 -1.335219049675e-03 
-1.336003357241e-03 1.668194413567e-05 0.0 
1.668194413567e-05 8.951047853454e-03 0.0 
0.0 0.0 -1.336566422126e-03 
-1.338588357839e-03 -8.318316931956e-07 0.0 
-8.318316931956e-07 8.955066587464e-03 0.0 
0.0 0.0 -1.335855682064e-03 
-7.644479361829e-04 -7.854511718931e-05 0.0 
-7.854511718931e-05 4.967324475694e-03 0.0 
0.0 0.0 -7.648954205800e-04 
-8.429692067442e-04 -8.894340543483e-05 0.0 
-8.894340543483e-05 5.465473064469e-03 0.0 
0.0 0.0 -8.298981322982e-04 
-9.045101262401e-04 -8.649802336560e-05 0.0 
-8.649802336560e-05 5.927599153875e-03 0.0 
0.0 0.0 -8.959277352460e-04 
-9.682355907570e-04 -9.235019684024e-05 0.0 
-9.235019684024e-05 6.375436758553e-03 0.0 
0.0 0.0 -9.610467530554e-04 
-1.034301386645e-03 -8.131875668406e-05 0.0 
-8.131875668406e-05 6.841207604472e-03 0.0 
0.0 0.0 -1.026987810050e-03 
-1.084652817885e-03 -8.917462571028e-05 0.0 
-8.917462571028e-05 7.307643626561e-03 0.0 
0.0 0.0 -1.092790196867e-03 
-1.153469442186e-03 -7.930470280158e-05 0.0 
-7.930470280158e-05 7.768901773096e-03 0.0 
0.0 0.0 -1.158290425478e-03 
-1.218602686822e-03 -9.135197616377e-05 0.0 
-9.135197616377e-05 8.209166370611e-03 0.0 
0.0 0.0 -1.224481705251e-03 
-1.280117147855e-03 -1.008986322443e-04 0.0 
-1.008986322443e-04 8.709401710635e-03 0.0 
0.0 0.0 -1.288782062784e-03 
-1.752208263150e-05 3.240785673635e-05 0.0 
3.240785673635e-05 1.037696529891e-04 0.0 
0.0 0.0 -2.939528373048e-05 
-6.988773384999e-04 -6.414203901464e-06 0.0 
-6.414203901464e-06 4.541118799231e-03 0.0 
0.0 0.0 -6.945495707198e-04 
-1.068839245990e-04 4.195670543775e-05 0.0 
4.195670543775e-05 4.592598232628e-04 0.0 
0.0 0.0 -1.088012745759e-04 
-1.837805977244e-04 6.636119579704e-05 0.0 
6.636119579704e-05 9.280212819520e-04 0.0 
0.0 0.0 -1.795578361538e-04 
-2.541701604252e-04 6.773423425563e-05 0.0 
6.773423425563e-05 1.406381745625e-03 0.0 
0.0 0.0 -2.466011808795e-04 
-3.308726835263e-04 6.738605726992e-05 0.0 
6.738605726992e-05 1.832720200709e-03 0.0 
0.0 0.0 -3.108790080757e-04 
-3.964115229650e-04 7.265451737656e-05 0.0 
7.265451737656e-05 2.303753556439e-03 0.0 
0.0 0.0 -3.778135794433e-04 
-4.516675705781e-04 3.445608641046e-05 0.0 
3.445608641046e-05 2.777117745363e-03 0.0 
0.0 0.0 -4.454545662751e-04 
-5.195439966860e-04 4.328034517296e-05 0.0 
4.328034517296e-05 3.247818275896e-03 0.0 
0.0 0.0 -5.121313000160e-04 
-5.689109051182e-04 2.928403715044e-05 0.0 
2.928403715044e-05 3.706276424992e-03 0.0 
0.0 0.0 -5.770230474411e-04 
-6.120040484323e-04 -3.148004277967e-06 0.0 
-3.148004277967e-06 4.032884488981e-03 0.0 
0.0 0.0 -6.248674136757e-04 
-5.563460679348e-04 -1.954987331685e-04 0.0 
-1.954987331685e-04 3.787852846817e-03 0.0 
0.0 0.0 -5.822222222222e-04 
-6.246804992585e-04 -1.417515320003e-04 0.0 
-1.417515320003e-04 4.042867570769e-03 0.0 
0.0 0.0 -6.266666666667e-04 
-6.913130996728e-04 5.498609571761e-05 0.0 
5.498609571761e-05 4.454824349021e-03 0.0 
0.0 0.0 -6.874962403976e-04 
-6.868874145390e-04 4.265374631601e-06 0.0 
4.265374631601e-06 4.486723904769e-03 0.0 
0.0 0.0 -6.910932206029e-04 
-6.934978988667e-04 4.367505525864e-06 0.0 
4.367505525864e-06 4.491335876748e-03 0.0 
0.0 0.0 -6.911911970487e-04 
-6.907997940409e-04 -7.067285999277e-06 0.0 
-7.067285999277e-06 4.485601554890e-03 0.0 
0.0 0.0 -6.903356507966e-04 
-6.907918205776e-04 4.658551261973e-06 0.0 
4.658551261973e-06 4.562156077984e-03 0.0 
0.0 0.0 -6.980756478071e-04 
-6.892878188424e-04 5.414637571102e-06 0.0 
5.414637571102e-06 4.494915586897e-03 0.0 
0.0 0.0 -6.911448554634e-04 
-6.797647522223e-04 -6.151835168552e-06 0.0 
-6.151835168552e-06 4.487621365133e-03 0.0 
0.0 0.0 -6.903833977050e-04 
-6.832908759363e-04 1.181523808998e-05 0.0 
1.181523808998e-05 4.498914041665e-03 0.0 
0.0 0.0 -6.905588330458e-04 
-6.949806625349e-04 2.423611152461e-06 0.0 
2.423611152461e-06 4.508372842652e-03 0.0 
0.0 0.0 -6.922444453805e-04 
-6.970682970385e-04 1.264857313788e-05 0.0 
1.264857313788e-05 4.510203072304e-03 0.0 
0.0 0.0 -6.916098530255e-04 
-6.888508586807e-04 7.096050779000e-06 0.0 
7.096050779000e-06 4.506612582973e-03 0.0 
0.0 0.0 -6.911665914957e-04 
-6.923116819991e-04 3.442306794751e-06 0.0 
3.442306794751e-06 4.500662587744e-03 0.0 
0.0 0.0 -6.911615840689e-04 
-6.874005628903e-04 1.547082050475e-05 0.0 
1.547082050475e-05 4.496710901947e-03 0.0 
0.0 0.0 -6.914992001314e-04 
-6.904170598993e-04 2.109837221793e-05 0.0 
2.109837221793e-05 4.507680445908e-03 0.0 
0.0 0.0 -6.922481495424e-04 
-2.592440264177e-05 -1.590076434164e-05 0.0 
-1.590076434164e-05 1.361807839618e-04 0.0 
0.0 0.0 -2.981554499673e-05 
-3.446067835928e-05 -4.722769695024e-06 0.0 
-4.722769695024e-06 1.514232641040e-04 0.0 
0.0 0.0 -3.001360406192e-05 
-1.576164107189e-05 6.855840384423e-06 0.0 
6.855840384423e-06 1.420727738414e-04 0.0 
0.0 0.0 -2.891678940537e-05 
-1.058332407332e-05 -2.088674468884e-05 0.0 
-2.088674468884e-05 1.367187831327e-04 0.0 
0.0 0.0 -2.889836327124e-05 
-3.364373544555e-05 -3.089965635262e-05 0.0 
-3.089965635262e-05 1.595260388365e-04 0.0 
0.0 0.0 -3.040745255895e-05 
-4.176671741939e-05 -6.138377296836e-06 0.0 
-6.138377296836e-06 1.798263625009e-04 0.0 
0.0 0.0 -3.068777868300e-05 
-3.824342451589e-05 5.591674158896e-07 0.0 
5.591674158896e-07 1.791426173783e-04 0.0 
0.0 0.0 -3.058835961954e-05 
-3.226360630243e-05 -1.341036859016e-06 0.0 
-1.341036859016e-06 1.722310666212e-04 0.0 
0.0 0.0 -3.053879953887e-05 
-3.075195274388e-05 -3.753502375142e-06 0.0 
-3.753502375142e-06 1.736984769829e-04 0.0 
0.0 0.0 -3.044251428418e-05 
-2.638860610350e-05 -7.894449171776e-06 0.0 
-7.894449171776e-06 1.709687444737e-04 0.0 
0.0 0.0 -3.048531495051e-05 
-2.681419529698e-05 -1.626482453994e-05 0.0 
-1.626482453994e-05 1.776638784057e-04 0.0 
0.0 0.0 -3.060061046523e-05 
-4.178895109067e-05 4.651397470064e-06 0.0 
4.651397470064e-06 1.936858804511e-04 0.0 
0.0 0.0 -3.133350520012e-05 
-3.584663091306e-05 2.920944978623e-05 0.0 
2.920944978623e-05 1.814285478668e-04 0.0 
0.0 0.0 -3.101487170496e-05 
-1.892508329037e-05 9.286208390908e-06 0.0 
9.286208390908e-06 1.578481945027e-04 0.0 
0.0 0.0 -3.010388419214e-05 
-2.660519595212e-05 -4.398298942796e-06 0.0 
-4.398298942796e-06 1.591906609278e-04 0.0 
0.0 0.0 -3.041972112533e-05 
-4.134075465171e-05 1.617060886407e-06 0.0 
1.617060886407e-06 1.756452327158e-04 0.0 
0.0 0.0 -3.060566238437e-05 
-4.636580504519e-05 5.643116689764e-06 0.0 
5.643116689764e-06 1.798643178415e-04 0.0 
0.0 0.0 -3.058114983003e-05 
-3.066571027206e-05 2.752472550757e-05 0.0 
2.752472550757e-05 1.500341931888e-04 0.0 
0.0 0.0 -3.041506914824e-05 
-1.475246436927e-05 4.693943976204e-06 0.0 
4.693943976204e-06 1.322021267256e-04 0.0 
0.0 0.0 -2.944997384815e-05 
-6.082568108666e-04 7.264937184306e-05 0.0 
7.264937184306e-05 3.891225772596e-03 0.0 
0.0 0.0 -5.877777777778e-04 
-5.895645424391e-04 2.653942037365e-06 0.0 
2.653942037365e-06 3.871559187726e-03 0.0 
0.0 0.0 -5.896296296296e-04 
-5.884146087488e-04 -4.480674092944e-06 0.0 
-4.480674092944e-06 3.865075243799e-03 0.0 
0.0 0.0 -5.896296296296e-04 
-5.896608984765e-04 -4.696924862135e-06 0.0 
-4.696924862135e-06 3.866791827120e-03 0.0 
0.0 0.0 -5.896296296296e-04 
-5.872298278759e-04 -1.230080960511e-06 0.0 
-1.230080960511e-06 3.865864028045e-03 0.0 
0.0 0.0 -5.896296296296e-04 
-5.891146020547e-04 1.000237710824e-06 0.0 
1.000237710824e-06 3.867710920430e-03 0.0 
0.0 0.0 -5.896296296296e-04 
-5.892528775154e-04 4.270160373703e-06 0.0 
4.270160373703e-06 3.870167134453e-03 0.0 
0.0 0.0 -5.896296296296e-04 
-5.912925591744e-04 -2.812185331850e-06 0.0 
-2.812185331850e-06 3.870026813238e-03 0.0 
0.0 0.0 -5.896296296296e-04 
-5.893309924682e-04 2.267893886652e-06 0.0 
2.267893886652e-06 3.865614165200e-03 0.0 
0.0 0.0 -5.896296296296e-04 
-5.927857097151e-04 7.738782139714e-06 0.0 
7.738782139714e-06 3.869500809217e-03 0.0 
0.0 0.0 -5.896296296296e-04 
-5.947762705621e-04 3.760773972057e-06 0.0 
3.760773972057e-06 3.871456847065e-03 0.0 
0.0 0.0 -5.896296296296e-04 
-5.939534367048e-04 2.957446174733e-06 0.0 
2.957446174733e-06 3.869541188505e-03 0.0 
0.0 0.0 -5.896296296296e-04 
-5.959140224697e-04 3.587406874614e-06 0.0 
3.587406874614e-06 3.870607069174e-03 0.0 
0.0 0.0 -5.896296296296e-04 
-5.974994240170e-04 -4.119730885223e-06 0.0 
-4.119730885223e-06 3.859243757282e-03 0.0 
0.0 0.0 -5.896296296296e-04 
-5.856194464145e-04 3.699445999927e-05 0.0 
3.699445999927e-05 3.868701731335e-03 0.0 
0.0 0.0 -5.896296296296e-04 
-5.860450584709e-04 -2.230126200797e-05 0.0 
-2.230126200797e-05 3.860936654026e-03 0.0 
0.0 0.0 -5.868990929705e-04 
-5.177342653584e-04 -1.496688393118e-05 0.0 
-1.496688393118e-05 3.681095876212e-03 0.0 
0.0 0.0 -5.736432350718e-04 
-5.819676487161e-04 1.621050128555e-05 0.0 
1.621050128555e-05 3.968047816961e-03 0.0 
0.0 0.0 -6.186195084094e-04 
-6.343601883410e-04 -2.324978129531e-06 0.0 
-2.324978129531e-06 4.083322615344e-03 0.0 
0.0 0.0 -6.292929119699e-04 
-6.353679309005e-04 1.165699384269e-05 0.0 
1.165699384269e-05 4.057988551565e-03 0.0 
0.0 0.0 -6.266666666667e-04 
-6.295881338101e-04 1.024053571253e-05 0.0 
1.024053571253e-05 4.054182088558e-03 0.0 
0.0 0.0 -6.266666666667e-04 
-6.303664344858e-04 2.787103354690e-06 0.0 
2.787103354690e-06 4.057331405365e-03 0.0 
0.0 0.0 -6.266666666667e-04 
-6.305754933791e-04 7.671505889748e-06 0.0 
7.671505889748e-06 4.059447051202e-03 0.0 
0.0 0.0 -6.266666666667e-04 
-6.287463439775e-04 1.022004490749e-05 0.0 
1.022004490749e-05 4.054187203252e-03 0.0 
0.0 0.0 -6.266666666667e-04 
-6.280820473115e-04 -9.030982197207e-07 0.0 
-9.030982197207e-07 4.053941923266e-03 0.0 
0.0 0.0 -6.266666666667e-04 
-6.225272954157e-04 4.628296295730e-06 0.0 
4.628296295730e-06 4.057329077379e-03 0.0 
0.0 0.0 -6.266666666667e-04 
-6.249534833788e-04 2.617162154285e-07 0.0 
2.617162154285e-07 4.054948637219e-03 0.0 
0.0 0.0 -6.266666666667e-04 
-6.238122874528e-04 2.229418647887e-06 0.0 
2.229418647887e-06 4.053346801204e-03 0.0 
0.0 0.0 -6.266666666667e-04 
-6.234471408791e-04 -7.779197921562e-06 0.0 
-7.779197921562e-06 4.052220848929e-03 0.0 
0.0 0.0 -6.266666666667e-04 
-6.264844917596e-04 -3.145348627973e-06 0.0 
-3.145348627973e-06 4.054722692316e-03 0.0 
0.0 0.0 -6.266666666667e-04 
-6.251160575235e-04 -9.858748009992e-06 0.0 
-9.858748009992e-06 4.049423160403e-03 0.0 
0.0 0.0 -6.266666666667e-04 
-6.286316808085e-04 -3.394218781006e-05 0.0 
-3.394218781006e-05 4.059813257993e-03 0.0 
0.0 0.0 -6.266666666667e-04 
-6.381641142780e-04 1.124153375324e-04 0.0 
1.124153375324e-04 4.068774124134e-03 0.0 
0.0 0.0 -6.266666666667e-04 
-6.112648154112e-05 2.057582376636e-05 0.0 
2.057582376636e-05 2.373049901764e-04 0.0 
0.0 0.0 -7.119425116786e-05 
-1.546216371726e-04 6.400049167798e-05 0.0 
6.400049167798e-05 7.010998205819e-04 0.0 
0.0 0.0 -1.457676002711e-04 
-2.180259668060e-04 8.313364542154e-05 0.0 
8.313364542154e-05 1.168903010383e-03 0.0 
0.0 0.0 -2.130143027807e-04 
-2.888761379291e-04 8.199755792821e-05 0.0 
8.199755792821e-05 1.646730006385e-03 0.0 
0.0 0.0 -2.801731950103e-04 
-3.556189171031e-04 3.435503475517e-05 0.0 
3.435503475517e-05 2.100711759406e-03 0.0 
0.0 0.0 -3.440931072323e-04 
-4.072044444476e-04 4.893832875794e-05 0.0 
4.893832875794e-05 2.564834203635e-03 0.0 
0.0 0.0 -4.108392228286e-04 
-4.870759962323e-04 5.278682620990e-05 0.0 
5.278682620990e-05 3.019866235023e-03 0.0 
0.0 0.0 -4.786325096809e-04 
-5.502705052573e-04 6.503016515131e-05 0.0 
6.503016515131e-05 3.480762125304e-03 0.0 
0.0 0.0 -5.455426008747e-04 
-5.672864552025e-04 2.278912112824e-05 0.0 
2.278912112824e-05 3.826790215475e-03 0.0 
0.0 0.0 -5.985602557689e-04 
-6.332370943917e-04 2.492629895562e-05 0.0 
2.492629895562e-05 4.302559779817e-03 0.0 
0.0 0.0 -6.652967104836e-04 
-1.935964666812e-04 2.967460992406e-06 0.0 
2.967460992406e-06 9.892888486110e-04 0.0 
0.0 0.0 -1.870278901045e-04 
-1.298255034363e-03 -1.439677610189e-05 0.0 
-1.439677610189e-05 8.770849623045e-03 0.0 
0.0 0.0 -1.303388942653e-03 
-5.711706292197e-05 -1.132529147629e-05 0.0 
-1.132529147629e-05 2.965576224762e-04 0.0 
0.0 0.0 -5.718844814379e-05 
-5.424579011879e-05 -2.911933097956e-05 0.0 
-2.911933097956e-05 2.725297638318e-04 0.0 
0.0 0.0 -5.560925106412e-05 
-1.303094143304e-03 2.083700262778e-05 0.0 
2.083700262778e-05 8.775603321897e-03 0.0 
0.0 0.0 -1.303360877099e-03 
-3.337502689384e-04 2.573658945222e-05 0.0 
2.573658945222e-05 1.945399262405e-03 0.0 
0.0 0.0 -3.213286234882e-04 
-7.420382513691e-04 -8.331648497414e-06 0.0 
-8.331648497414e-06 4.783425200817e-03 0.0 
0.0 0.0 -7.300567563597e-04 
-1.300502925116e-03 1.312346542061e-05 0.0 
1.312346542061e-05 8.760360600138e-03 0.0 
0.0 0.0 -1.300998267065e-03 
-4.558051091763e-04 -3.180946065222e-05 0.0 
-3.180946065222e-05 2.815581106164e-03 0.0 
0.0 0.0 -4.497936382440e-04 
-1.301730818783e-03 3.906861163018e-06 0.0 
3.906861163018e-06 8.781071212001e-03 0.0 
0.0 0.0 -1.304014651794e-03 
-5.931132187702e-04 3.451249603909e-06 0.0 
3.451249603909e-06 3.770920661498e-03 0.0 
0.0 0.0 -5.857980290939e-04 
-1.294626432424e-03 1.231524946245e-05 0.0 
1.231524946245e-05 8.803233335001e-03 0.0 
0.0 0.0 -1.307658508868e-03 
-5.100449476861e-05 8.243347627880e-06 0.0 
8.243347627880e-06 2.661035943334e-04 0.0 
0.0 0.0 -5.457498774670e-05 
-1.304712708061e-03 6.002193481844e-06 0.0 
6.002193481844e-06 8.782841008775e-03 0.0 
0.0 0.0 -1.304481600125e-03 
-7.263025570844e-04 1.579439830822e-05 0.0 
1.579439830822e-05 4.732739805173e-03 0.0 
0.0 0.0 -7.203075318094e-04 
-4.572752679378e-04 6.754709539201e-06 0.0 
6.754709539201e-06 2.913924238746e-03 0.0 
0.0 0.0 -4.640473930190e-04 
-9.144584483085e-04 1.326427603797e-05 0.0 
1.326427603797e-05 6.048992087784e-03 0.0 
0.0 0.0 -9.125512086551e-04 
-1.295486455605e-03 -9.635721854309e-06 0.0 
-9.635721854309e-06 8.767400550756e-03 0.0 
0.0 0.0 -1.301280071178e-03 
-1.304620553661e-03 1.736330334078e-05 0.0 
1.736330334078e-05 8.785218481020e-03 0.0 
0.0 0.0 -1.304294760550e-03 
-1.308798115864e-03 -1.758872586471e-05 0.0 
-1.758872586471e-05 8.782113468746e-03 0.0 
0.0 0.0 -1.303238611778e-03 
-1.297364651419e-03 1.079949245934e-05 0.0 
1.079949245934e-05 8.741492182536e-03 0.0 
0.0 0.0 -1.297727402575e-03 
-1.310467176952e-03 -2.184753791197e-05 0.0 
-2.184753791197e-05 8.795852425490e-03 0.0 
0.0 0.0 -1.305306183856e-03 
-7.504043158260e-04 1.146340899481e-05 0.0 
1.146340899481e-05 4.928957716144e-03 0.0 
0.0 0.0 -7.522011426764e-04 
-7.523353912947e-04 1.162137769558e-05 0.0 
1.162137769558e-05 4.926512636401e-03 0.0 
0.0 0.0 -7.529849494387e-04 
-7.546537283985e-04 -1.241349829193e-05 0.0 
-1.241349829193e-05 4.950472109635e-03 0.0 
0.0 0.0 -7.580270452736e-04 
-9.976077557881e-04 -3.465320003210e-05 0.0 
-3.465320003210e-05 6.602229680106e-03 0.0 
0.0 0.0 -9.950081682429e-04 
-1.300592036334e-03 -1.108396441712e-05 0.0 
-1.108396441712e-05 8.788475349475e-03 0.0 
0.0 0.0 -1.302874185639e-03 
-4.947082956206e-05 -1.829296119633e-05 0.0 
-1.829296119633e-05 2.690780974868e-04 0.0 
0.0 0.0 -5.461765089471e-05 
-6.582489508632e-05 5.524694071877e-06 0.0 
5.524694071877e-06 3.064286723343e-04 0.0 
0.0 0.0 -5.841730026857e-05 
-1.120911548220e-03 -1.158571369170e-06 0.0 
-1.158571369170e-06 7.515613535503e-03 0.0 
0.0 0.0 -1.122886395833e-03 
-7.582082522979e-04 1.961281355472e-05 0.0 
1.961281355472e-05 4.902933380827e-03 0.0 
0.0 0.0 -7.500338828344e-04 
-2.694321437334e-04 2.278372598568e-06 0.0 
2.278372598568e-06 1.494554554088e-03 0.0 
0.0 0.0 -2.594501920933e-04 
-1.298427704971e-03 5.282056354371e-06 0.0 
5.282056354371e-06 8.696713485831e-03 0.0 
0.0 0.0 -1.293200138473e-03 
-1.306703206650e-03 1.354031549594e-05 0.0 
1.354031549594e-05 8.802982423650e-03 0.0 
0.0 0.0 -1.307307853467e-03 
-1.306558631645e-03 5.032010017814e-06 0.0 
5.032010017814e-06 8.775985095811e-03 0.0 
0.0 0.0 -1.304733450272e-03 
-1.299335994773e-03 1.249139207265e-05 0.0 
1.249139207265e-05 8.749655727550e-03 0.0 
0.0 0.0 -1.297928233296e-03 
-1.308929768589e-03 -1.641174944339e-05 0.0 
-1.641174944339e-05 8.785621003878e-03 0.0 
0.0 0.0 -1.305578568836e-03 
-6.266603041313e-05 2.501207789146e-06 0.0 
2.501207789146e-06 3.071735198218e-04 0.0 
0.0 0.0 -5.851952868525e-05 
-7.474245186294e-04 1.424161896041e-05 0.0 
1.424161896041e-05 4.916877911110e-03 0.0 
0.0 0.0 -7.500980793754e-04 
-1.296702677324e-03 1.017615489424e-05 0.0 
1.017615489424e-05 8.704965271547e-03 0.0 
0.0 0.0 -1.293180865222e-03 
-1.128899365850e-03 -3.031105506869e-05 0.0 
-3.031105506869e-05 7.537413441575e-03 0.0 
0.0 0.0 -1.123598490052e-03 
-5.732050020506e-05 -1.482205262673e-05 0.0 
-1.482205262673e-05 2.925850224953e-04 0.0 
0.0 0.0 -5.798785095130e-05 
-5.914251289981e-04 -6.471482804683e-06 0.0 
-6.471482804683e-06 3.820964198355e-03 0.0 
0.0 0.0 -5.937437734062e-04 
-1.319868342544e-03 -1.044247080549e-05 0.0 
-1.044247080549e-05 8.859569502417e-03 0.0 
0.0 0.0 -1.311981303940e-03 
-4.039407312574e-04 -1.513566039236e-05 0.0 
-1.513566039236e-05 2.425755132441e-03 0.0 
0.0 0.0 -3.897472533596e-04 
-2.622920170020e-04 7.443498411069e-06 0.0 
7.443498411069e-06 1.467365751784e-03 0.0 
0.0 0.0 -2.548795656134e-04 
-5.270389969687e-04 -7.501595445509e-06 0.0 
-7.501595445509e-06 3.294996993381e-03 0.0 
0.0 0.0 -5.178568985205e-04 
-6.568994839779e-04 -7.061170510206e-06 0.0 
-7.061170510206e-06 4.237934581571e-03 0.0 
0.0 0.0 -6.527703211191e-04 
-1.172487669236e-04 -1.455488225107e-05 0.0 
-1.455488225107e-05 4.809709659116e-04 0.0 
0.0 0.0 -1.118557093815e-04 
-8.696005125465e-04 -8.177489350844e-06 0.0 
-8.177489350844e-06 5.725890687358e-03 0.0 
0.0 0.0 -8.684787984471e-04 
-1.317974587429e-03 -1.269961975263e-05 0.0 
-1.269961975263e-05 8.865515668911e-03 0.0 
0.0 0.0 -1.313906642692e-03 
-5.185989643575e-05 2.926503183839e-05 0.0 
2.926503183839e-05 2.746618289318e-04 0.0 
0.0 0.0 -5.836448670120e-05 
-1.244012605559e-03 -1.337379541716e-07 0.0 
-1.337379541716e-07 8.417025004517e-03 0.0 
0.0 0.0 -1.253930875827e-03 
-7.490231005430e-04 1.074391793070e-05 0.0 
1.074391793070e-05 4.928373640173e-03 0.0 
0.0 0.0 -7.532271817479e-04 
-7.806985373677e-04 4.966139412135e-06 0.0 
4.966139412135e-06 5.109831204569e-03 0.0 
0.0 0.0 -7.809350190597e-04 
-8.062001814621e-04 2.173167671072e-05 0.0 
2.173167671072e-05 5.343609321704e-03 0.0 
0.0 0.0 -8.115578932774e-04 
-8.489268176994e-04 -8.110940848575e-06 0.0 
-8.110940848575e-06 5.566485028911e-03 0.0 
0.0 0.0 -8.428390908522e-04 
-8.804673106023e-04 1.251244415488e-07 0.0 
1.251244415488e-07 5.795279077470e-03 0.0 
0.0 0.0 -8.784658474099e-04 
-9.121627378672e-04 -7.430796722976e-06 0.0 
-7.430796722976e-06 6.000836909728e-03 0.0 
0.0 0.0 -9.060409163497e-04 
-8.756777626729e-04 -7.143189004738e-06 0.0 
-7.143189004738e-06 5.761383353658e-03 0.0 
0.0 0.0 -8.711257577414e-04 
-9.375016757268e-04 -9.018261483613e-06 0.0 
-9.018261483613e-06 6.200512371454e-03 0.0 
0.0 0.0 -9.341442283280e-04 
-9.034456709669e-04 -5.627619604467e-06 0.0 
-5.627619604467e-06 5.955351813444e-03 0.0 
0.0 0.0 -8.989774131092e-04 
-9.375397006910e-04 -9.487100187208e-06 0.0 
-9.487100187208e-06 6.248793060300e-03 0.0 
0.0 0.0 -9.415083590319e-04 
-9.651447206159e-04 -1.078565163388e-05 0.0 
-1.078565163388e-05 6.396664073005e-03 0.0 
0.0 0.0 -9.622976032585e-04 
-9.304266532056e-04 -6.330576673737e-06 0.0 
-6.330576673737e-06 6.148924780633e-03 0.0 
0.0 0.0 -9.268639294333e-04 
-9.923459703203e-04 -8.832674575542e-06 0.0 
-8.832674575542e-06 6.591396283472e-03 0.0 
0.0 0.0 -9.903372159162e-04 
-9.579486406670e-04 -6.976346530341e-06 0.0 
-6.976346530341e-06 6.343540435811e-03 0.0 
0.0 0.0 -9.547708836903e-04 
-8.957338589247e-04 -3.445195682081e-06 0.0 
-3.445195682081e-06 5.904490313780e-03 0.0 
0.0 0.0 -8.916807130884e-04 
-9.234034349690e-04 -3.140263271668e-06 0.0 
-3.140263271668e-06 6.097553141781e-03 0.0 
0.0 0.0 -9.194532194038e-04 
-8.597658352201e-04 -5.745984388479e-07 0.0 
-5.745984388479e-07 5.659471370407e-03 0.0 
0.0 0.0 -8.565021464485e-04 
-8.876676417698e-04 -1.521204235366e-06 0.0 
-1.521204235366e-06 5.852313305850e-03 0.0 
0.0 0.0 -8.841639842141e-04 
-9.508204613182e-04 -2.297031587579e-06 0.0 
-2.297031587579e-06 6.292146332209e-03 0.0 
0.0 0.0 -9.471984275390e-04 
-9.148993498348e-04 -3.275082318968e-06 0.0 
-3.275082318968e-06 6.045345094116e-03 0.0 
0.0 0.0 -9.118195294070e-04 
-8.520584533063e-04 -1.219021611580e-06 0.0 
-1.219021611580e-06 5.605756351829e-03 0.0 
0.0 0.0 -8.488396520500e-04 
-8.789321886970e-04 -2.050593653237e-06 0.0 
-2.050593653237e-06 5.797286878756e-03 0.0 
0.0 0.0 -8.764089341820e-04 
-8.161164546335e-04 3.435109532422e-07 0.0 
3.435109532422e-07 5.359457664966e-03 0.0 
0.0 0.0 -8.135623229517e-04 
-8.427829602136e-04 -1.073992276176e-06 0.0 
-1.073992276176e-06 5.550412011619e-03 0.0 
0.0 0.0 -8.410744910442e-04 
-7.803403629458e-04 1.482617335656e-07 0.0 
1.482617335656e-07 5.112144953619e-03 0.0 
0.0 0.0 -7.781617608290e-04 
-8.069161494671e-04 -9.832122125663e-07 0.0 
-9.832122125663e-07 5.303670065228e-03 0.0 
0.0 0.0 -8.056965831182e-04 
-8.693622760752e-04 -2.102828341516e-06 0.0 
-2.102828341516e-06 5.742393281941e-03 0.0 
0.0 0.0 -8.686949506212e-04 
-8.339431778097e-04 -6.526060623781e-07 0.0 
-6.526060623781e-07 5.495228078517e-03 0.0 
0.0 0.0 -8.332427817419e-04 
-7.711323033225e-04 2.736293389708e-07 0.0 
2.736293389708e-07 5.056666474078e-03 0.0 
0.0 0.0 -7.703313069557e-04 
-7.984646574761e-04 4.457733912317e-07 0.0 
4.457733912317e-07 5.248286890054e-03 0.0 
0.0 0.0 -7.977945042040e-04 
-7.355637814563e-04 1.290713586137e-06 0.0 
1.290713586137e-06 4.810484252267e-03 0.0 
0.0 0.0 -7.349073124327e-04 
-7.625544307913e-04 1.894462684371e-06 0.0 
1.894462684371e-06 4.999988831075e-03 0.0 
0.0 0.0 -7.622392297106e-04 
-8.257237067376e-04 1.120212681233e-06 0.0 
1.120212681233e-06 5.439584299338e-03 0.0 
0.0 0.0 -8.253152238873e-04 
-7.900934727742e-04 5.597935307133e-07 0.0 
5.597935307133e-07 5.191568262959e-03 0.0 
0.0 0.0 -7.896995018144e-04 
-7.266613947027e-04 4.187926819661e-07 0.0 
4.187926819661e-07 4.748654817893e-03 0.0 
0.0 0.0 -7.264132926704e-04 
-7.549260771137e-04 -7.052768559215e-07 0.0 
-7.052768559215e-07 4.942867002026e-03 0.0 
0.0 0.0 -7.539848323805e-04 
-6.914939078144e-04 -3.149044509647e-06 0.0 
-3.149044509647e-06 4.497991263930e-03 0.0 
0.0 0.0 -6.903858661722e-04 
-7.195945743336e-04 -6.350033788159e-09 0.0 
-6.350033788159e-09 4.694794432778e-03 0.0 
0.0 0.0 -7.182351804274e-04 
-6.554914090724e-04 -2.338725356814e-06 0.0 
-2.338725356814e-06 4.247612436471e-03 0.0 
0.0 0.0 -6.542402593883e-04 
-6.835277346368e-04 5.013350339308e-07 0.0 
5.013350339308e-07 4.443250069824e-03 0.0 
0.0 0.0 -6.821763112594e-04 
-7.475539329935e-04 -2.134179080121e-07 0.0 
-2.134179080121e-07 4.889262543532e-03 0.0 
0.0 0.0 -7.460902125261e-04 
-7.115638396740e-04 -9.716415015813e-07 0.0 
-9.716415015813e-07 4.638756710994e-03 0.0 
0.0 0.0 -7.100832486075e-04 
-6.472258987921e-04 -7.491708783292e-07 0.0 
-7.491708783292e-07 4.191362599469e-03 0.0 
0.0 0.0 -6.458624074531e-04 
-6.748538623222e-04 -1.344545062226e-06 0.0 
-1.344545062226e-06 4.385359401490e-03 0.0 
0.0 0.0 -6.737786430284e-04 
-7.391037565522e-04 -1.870094726741e-06 0.0 
-1.870094726741e-06 4.833803711944e-03 0.0 
0.0 0.0 -7.381473126730e-04 
-7.024920060125e-04 -1.771787760444e-06 0.0 
-1.771787760444e-06 4.579736205562e-03 0.0 
0.0 0.0 -7.017500108595e-04 
-7.668451599419e-04 -2.200372036207e-06 0.0 
-2.200372036207e-06 5.029184891420e-03 0.0 
0.0 0.0 -7.662494016216e-04 
-7.304037803270e-04 -1.328124908049e-06 0.0 
-1.328124908049e-06 4.775158829539e-03 0.0 
0.0 0.0 -7.297828278826e-04 
-6.661738894366e-04 -1.523527641000e-06 0.0 
-1.523527641000e-06 4.327585164653e-03 0.0 
0.0 0.0 -6.655364893108e-04 
-6.940255140087e-04 -3.189861403839e-07 0.0 
-3.189861403839e-07 4.522445273198e-03 0.0 
0.0 0.0 -6.934067383651e-04 
-7.582740677644e-04 -6.702170425331e-07 0.0 
-6.702170425331e-07 4.970550121083e-03 0.0 
0.0 0.0 -7.577868799165e-04 
-7.219132454205e-04 -3.552688472855e-07 0.0 
-3.552688472855e-07 4.715591284681e-03 0.0 
0.0 0.0 -7.212202614536e-04 
-6.579749567302e-04 -8.528343254354e-07 0.0 
-8.528343254354e-07 4.269380617603e-03 0.0 
0.0 0.0 -6.571136838490e-04 
-6.854396942303e-04 1.404532946377e-06 0.0 
1.404532946377e-06 4.463099019341e-03 0.0 
0.0 0.0 -6.848379476561e-04 
-7.499209568980e-04 9.788669448491e-07 0.0 
9.788669448491e-07 4.910836491420e-03 0.0 
0.0 0.0 -7.491645792950e-04 
-7.130866886284e-04 2.531462605044e-06 0.0 
2.531462605044e-06 4.656380230421e-03 0.0 
0.0 0.0 -7.127097857715e-04 
-6.490463142765e-04 2.026928070065e-06 0.0 
2.026928070065e-06 4.209801950481e-03 0.0 
0.0 0.0 -6.486049398320e-04 
-6.764658608434e-04 3.508718195911e-06 0.0 
3.508718195911e-06 4.404145734277e-03 0.0 
0.0 0.0 -6.763006240845e-04 
-7.410587565243e-04 2.977071001507e-06 0.0 
2.977071001507e-06 4.853988703533e-03 0.0 
0.0 0.0 -7.409416231994e-04 
-7.040690402047e-04 2.351563892176e-06 0.0 
2.351563892176e-06 4.597607851949e-03 0.0 
0.0 0.0 -7.042275185679e-04 
-6.395068044753e-04 3.551759029564e-06 0.0 
3.551759029564e-06 4.148883800447e-03 0.0 
0.0 0.0 -6.398389559308e-04 
-6.666949009552e-04 4.033462501281e-06 0.0 
4.033462501281e-06 4.341905952590e-03 0.0 
0.0 0.0 -6.674633383154e-04 
-7.319239687129e-04 2.339911819107e-06 0.0 
2.339911819107e-06 4.794577675996e-03 0.0 
0.0 0.0 -7.324886333286e-04 
-6.941465830902e-04 3.043408887489e-06 0.0 
3.043408887489e-06 4.534944571325e-03 0.0 
0.0 0.0 -6.954027321054e-04 
-7.599625173412e-04 1.739203305398e-06 0.0 
1.739203305398e-06 4.991507953981e-03 0.0 
0.0 0.0 -7.608997874520e-04 
-6.288087524292e-04 4.620726933277e-06 0.0 
4.620726933277e-06 4.080538413552e-03 0.0 
0.0 0.0 -6.302092384919e-04 
-6.562200550336e-04 2.527596513670e-06 0.0 
2.527596513670e-06 4.273760246295e-03 0.0 
0.0 0.0 -6.580989212857e-04 
-5.905021683275e-04 5.113861583814e-06 0.0 
5.113861583814e-06 3.817210818870e-03 0.0 
0.0 0.0 -5.925517106747e-04 
-6.180070563345e-04 1.748353135706e-06 0.0 
1.748353135706e-06 4.012241935297e-03 0.0 
0.0 0.0 -6.207111136070e-04 
-8.536335610934e-04 1.348609631281e-06 0.0 
1.348609631281e-06 5.632618076260e-03 0.0 
0.0 0.0 -8.529317679587e-04 
-5.517808621482e-04 4.295824092658e-06 0.0 
4.295824092658e-06 3.553884541992e-03 0.0 
0.0 0.0 -5.549884598765e-04 
-5.256512596246e-04 6.824695261283e-06 0.0 
6.824695261283e-06 3.365117692799e-03 0.0 
0.0 0.0 -5.276250340903e-04 
-5.798411198689e-04 -4.887552615003e-09 0.0 
-4.887552615003e-09 3.751124839276e-03 0.0 
0.0 0.0 -5.833260987948e-04 
-6.468648656295e-04 -6.634229100997e-07 0.0 
-6.634229100997e-07 4.212613913655e-03 0.0 
0.0 0.0 -6.493616581942e-04 
-5.137698154976e-04 1.586824553316e-06 0.0 
1.586824553316e-06 3.290773483107e-03 0.0 
0.0 0.0 -5.173870653820e-04 
-5.418307247046e-04 -1.136001153201e-06 0.0 
-1.136001153201e-06 3.490016299043e-03 0.0 
0.0 0.0 -5.459094278256e-04 
-4.770030151011e-04 2.075579507861e-06 0.0 
2.075579507861e-06 3.029794249274e-03 0.0 
0.0 0.0 -4.798161731008e-04 
-6.265889875599e-04 -3.099894472577e-06 0.0 
-3.099894472577e-06 4.044775427509e-03 0.0 
0.0 0.0 -6.252159162693e-04 
-9.779259260500e-04 -4.603917606284e-06 0.0 
-4.603917606284e-06 6.486620776824e-03 0.0 
0.0 0.0 -9.750716696758e-04 
-5.048311626822e-04 8.069914569195e-07 0.0 
8.069914569195e-07 3.230775089179e-03 0.0 
0.0 0.0 -5.084495576641e-04 
-4.414277464692e-04 -9.314775103437e-07 0.0 
-9.314775103437e-07 2.769397101649e-03 0.0 
0.0 0.0 -4.423119711188e-04 
-4.126781969751e-04 2.777234300749e-06 0.0 
2.777234300749e-06 2.568725273303e-03 0.0 
0.0 0.0 -4.136824817550e-04 
-3.752383636154e-04 2.627021531192e-07 0.0 
2.627021531192e-07 2.307149796782e-03 0.0 
0.0 0.0 -3.761903503575e-04 
-9.032923406135e-04 -1.942635711141e-05 0.0 
-1.942635711141e-05 6.054768473392e-03 0.0 
0.0 0.0 -9.126358703463e-04 
-9.750351070606e-04 8.331650578498e-07 0.0 
8.331650578498e-07 6.501449499714e-03 0.0 
0.0 0.0 -9.772611937912e-04 
-9.426936007590e-04 -8.476577603227e-06 0.0 
-8.476577603227e-06 6.285634427722e-03 0.0 
0.0 0.0 -9.468612964576e-04 
-1.013350986754e-03 -2.420793703351e-06 0.0 
-2.420793703351e-06 6.752430832338e-03 0.0 
0.0 0.0 -1.012955122490e-03 
-9.819905249802e-04 -9.218190891256e-06 0.0 
-9.218190891256e-06 6.546568860747e-03 0.0 
0.0 0.0 -9.835180958883e-04 
-4.033189249180e-04 -7.405594451594e-06 0.0 
-7.405594451594e-06 2.507023825451e-03 0.0 
0.0 0.0 -4.047791634435e-04 
-1.026297749493e-03 -7.873848128140e-06 0.0 
-7.873848128140e-06 6.842470359288e-03 0.0 
0.0 0.0 -1.026687169009e-03 
-1.041976492742e-03 3.297528438882e-06 0.0 
3.297528438882e-06 6.953471480802e-03 0.0 
0.0 0.0 -1.042264213861e-03 
-7.894126093117e-04 1.238093184259e-06 0.0 
1.238093184259e-06 5.169984540206e-03 0.0 
0.0 0.0 -7.861871271282e-04 
-7.083334352115e-04 1.160791963813e-06 0.0 
1.160791963813e-06 4.619009573669e-03 0.0 
0.0 0.0 -7.076088937226e-04 
-8.034448321061e-04 -3.641604808728e-06 0.0 
-3.641604808728e-06 5.283437919380e-03 0.0 
0.0 0.0 -8.027518904046e-04 
-5.699317647336e-04 -5.077104347375e-06 0.0 
-5.077104347375e-06 3.690391390143e-03 0.0 
0.0 0.0 -5.745905038755e-04 
-5.325923514100e-04 1.264931689698e-06 0.0 
1.264931689698e-06 3.434700451156e-03 0.0 
0.0 0.0 -5.371338854166e-04 
-6.021414154153e-04 -1.123287284899e-05 0.0 
-1.123287284899e-05 3.895898666929e-03 0.0 
0.0 0.0 -6.033452624549e-04 
-7.975586205945e-04 7.346724403241e-07 0.0 
7.346724403241e-07 5.250837552224e-03 0.0 
0.0 0.0 -7.980428604176e-04 
-8.260589898795e-04 8.470418804300e-07 0.0 
8.470418804300e-07 5.449813526142e-03 0.0 
0.0 0.0 -8.266132305475e-04 
-8.633840041631e-04 4.108677630606e-07 0.0 
4.108677630606e-07 5.709024598085e-03 0.0 
0.0 0.0 -8.638188500004e-04 
-8.921637692903e-04 4.125221994131e-07 0.0 
4.125221994131e-07 5.908664068470e-03 0.0 
0.0 0.0 -8.924533907576e-04 
-9.293171742377e-04 3.033539280222e-07 0.0 
3.033539280222e-07 6.168083546013e-03 0.0 
0.0 0.0 -9.297164513315e-04 
-9.582709124814e-04 8.513827699028e-07 0.0 
8.513827699028e-07 6.368400937687e-03 0.0 
0.0 0.0 -9.583747859490e-04 
-9.209100768105e-04 -4.256218772052e-07 0.0 
-4.256218772052e-07 6.108351576790e-03 0.0 
0.0 0.0 -9.210728288235e-04 
-9.873571107966e-04 -7.195723232426e-07 0.0 
-7.195723232426e-07 6.568673837727e-03 0.0 
0.0 0.0 -9.870277070005e-04 
-9.496224461858e-04 -1.641275595005e-06 0.0 
-1.641275595005e-06 6.308003890192e-03 0.0 
0.0 0.0 -9.497007337289e-04 
-9.952004913146e-04 1.269240357772e-06 0.0 
1.269240357772e-06 6.627713601016e-03 0.0 
0.0 0.0 -9.956835613869e-04 
-9.665012269537e-04 -8.709086142765e-07 0.0 
-8.709086142765e-07 6.427165842683e-03 0.0 
0.0 0.0 -9.668198671257e-04 
-1.015999965498e-03 -2.659789521436e-06 0.0 
-2.659789521436e-06 6.768164853944e-03 0.0 
0.0 0.0 -1.015681523326e-03 
-9.780689760981e-04 -1.773026811924e-06 0.0 
-1.773026811924e-06 6.507705614272e-03 0.0 
0.0 0.0 -9.783260305705e-04 
-1.043750394909e-03 -2.772279525269e-06 0.0 
-2.772279525269e-06 6.967527210065e-03 0.0 
0.0 0.0 -1.044362401637e-03 
-1.005977853166e-03 -2.262113223713e-06 0.0 
-2.262113223713e-06 6.706658029639e-03 0.0 
0.0 0.0 -1.007007767922e-03 
-9.404749716457e-04 -1.193534276240e-06 0.0 
-1.193534276240e-06 6.246239019973e-03 0.0 
0.0 0.0 -9.408676861799e-04 
-9.684909118554e-04 -8.529271608851e-07 0.0 
-8.529271608851e-07 6.444829778042e-03 0.0 
0.0 0.0 -9.695029660748e-04 
-9.037723104014e-04 -2.350012697862e-06 0.0 
-2.350012697862e-06 5.986848649888e-03 0.0 
0.0 0.0 -9.035672079865e-04 
-8.314464570683e-04 -3.616594317120e-06 0.0 
-3.616594317120e-06 5.479880314984e-03 0.0 
0.0 0.0 -8.309624794500e-04 
-8.682753299777e-04 -4.472916759998e-06 0.0 
-4.472916759998e-06 5.735257211893e-03 0.0 
0.0 0.0 -8.675775700443e-04 
-8.962132157839e-04 -3.994715245343e-06 0.0 
-3.994715245343e-06 5.931796623670e-03 0.0 
0.0 0.0 -8.958500940740e-04 
-9.334915543321e-04 -5.104595478868e-06 0.0 
-5.104595478868e-06 6.188168080628e-03 0.0 
0.0 0.0 -9.325549191312e-04 
-9.611906856985e-04 -4.832422115399e-06 0.0 
-4.832422115399e-06 6.384949120317e-03 0.0 
0.0 0.0 -9.609176734917e-04 
-9.993166695242e-04 -5.921015935425e-06 0.0 
-5.921015935425e-06 6.642197475408e-03 0.0 
0.0 0.0 -9.976363410588e-04 
-1.026869107811e-03 -5.279541534962e-06 0.0 
-5.279541534962e-06 6.837737939095e-03 0.0 
0.0 0.0 -1.026032504441e-03 
-9.888890578615e-04 -3.536873257987e-06 0.0 
-3.536873257987e-06 6.582021445560e-03 0.0 
0.0 0.0 -9.892761093609e-04 
-1.020948249731e-03 -5.775826579323e-06 0.0 
-5.775826579323e-06 6.785097853957e-03 0.0 
0.0 0.0 -1.018102500310e-03 
-6.106564943980e-04 -8.377932010438e-07 0.0 
-8.377932010438e-07 3.937861241286e-03 0.0 
0.0 0.0 -6.095594541484e-04 
-5.829707017919e-04 -8.761996171905e-07 0.0 
-8.761996171905e-07 3.743841342214e-03 0.0 
0.0 0.0 -5.816898710390e-04 
-5.468224651884e-04 3.532374184940e-07 0.0 
3.532374184940e-07 3.491149788400e-03 0.0 
0.0 0.0 -5.454521931755e-04 
-5.191424428682e-04 -2.726566040458e-07 0.0 
-2.726566040458e-07 3.297674531074e-03 0.0 
0.0 0.0 -5.176388733440e-04 
-4.833226440277e-04 2.092058671685e-06 0.0 
2.092058671685e-06 3.045002640289e-03 0.0 
0.0 0.0 -4.814163979944e-04 
-4.557758029646e-04 1.050100036915e-06 0.0 
1.050100036915e-06 2.852852491029e-03 0.0 
0.0 0.0 -4.537165770244e-04 
-4.203756978464e-04 3.745088126594e-06 0.0 
3.745088126594e-06 2.598843361212e-03 0.0 
0.0 0.0 -4.172264234068e-04 
-4.466735727578e-04 5.480427943032e-06 0.0 
5.480427943032e-06 2.790981770740e-03 0.0 
0.0 0.0 -4.450327826477e-04 
-3.836326554131e-04 7.904997896629e-06 0.0 
7.904997896629e-06 2.342835906920e-03 0.0 
0.0 0.0 -3.805252178390e-04 
-4.084193757355e-04 7.242552144220e-06 0.0 
7.242552144220e-06 2.535005811079e-03 0.0 
0.0 0.0 -4.085362445790e-04 
-3.461331758914e-04 8.763341315909e-06 0.0 
8.763341315909e-06 2.084280570054e-03 0.0 
0.0 0.0 -3.437934912881e-04 
-3.698709012629e-04 8.292346557788e-06 0.0 
8.292346557788e-06 2.277114687721e-03 0.0 
0.0 0.0 -3.717096690223e-04 
-8.965032625882e-04 -1.627591660556e-06 0.0 
-1.627591660556e-06 5.934603885101e-03 0.0 
0.0 0.0 -8.963565068603e-04 
-9.708908500796e-04 -5.045480792170e-06 0.0 
-5.045480792170e-06 6.444533853224e-03 0.0 
0.0 0.0 -9.691568884624e-04 
-1.036699855876e-03 -2.770010414097e-06 0.0 
-2.770010414097e-06 6.900219655108e-03 0.0 
0.0 0.0 -1.034312087004e-03 
-1.006639220865e-03 -3.033633605212e-06 0.0 
-3.033633605212e-06 6.698197690662e-03 0.0 
0.0 0.0 -1.005320805676e-03 
-3.491849021405e-04 5.274199755838e-07 0.0 
5.274199755838e-07 2.108115059856e-03 0.0 
0.0 0.0 -3.475522021424e-04 
-1.033063842021e-03 -2.635650059534e-06 0.0 
-2.635650059534e-06 6.905166544597e-03 0.0 
0.0 0.0 -1.035773625862e-03 
-1.032236772368e-03 -1.431372014474e-06 0.0 
-1.431372014474e-06 6.887149851833e-03 0.0 
0.0 0.0 -1.032922975483e-03 
-1.003745583219e-03 -3.564129010650e-06 0.0 
-3.564129010650e-06 6.683661322661e-03 0.0 
0.0 0.0 -1.003739924893e-03 
-1.054629030311e-03 -7.601280978048e-07 0.0 
-7.601280978048e-07 7.036563315422e-03 0.0 
0.0 0.0 -1.054598834243e-03 
-3.382801587767e-04 -2.979708598332e-06 0.0 
-2.979708598332e-06 2.049061231215e-03 0.0 
0.0 0.0 -3.392587823741e-04 
-3.925929468368e-04 -3.827429239530e-07 0.0 
-3.827429239530e-07 2.409736501278e-03 0.0 
0.0 0.0 -3.899405068163e-04 
-4.274717193387e-04 -8.415189164628e-08 0.0 
-8.415189164628e-08 2.658832617141e-03 0.0 
0.0 0.0 -4.261104576107e-04 
-1.049394948444e-03 -6.226283885141e-06 0.0 
-6.226283885141e-06 7.001982288460e-03 0.0 
0.0 0.0 -1.048874596840e-03 
-1.017918189327e-03 -8.563044135216e-06 0.0 
-8.563044135216e-06 6.794247194180e-03 0.0 
0.0 0.0 -1.019458214591e-03 
-1.069216758149e-03 -3.894499857361e-06 0.0 
-3.894499857361e-06 7.146438403505e-03 0.0 
0.0 0.0 -1.070157681403e-03 
-3.646275857635e-04 -4.854414982703e-06 0.0 
-4.854414982703e-06 2.250210390791e-03 0.0 
0.0 0.0 -3.675747464493e-04 
-1.054357939260e-03 -2.436299897868e-06 0.0 
-2.436299897868e-06 7.029823091953e-03 0.0 
0.0 0.0 -1.052997445444e-03 
-3.197645753905e-04 1.264604075079e-05 0.0 
1.264604075079e-05 1.895364248012e-03 0.0 
0.0 0.0 -3.160508651072e-04 
-9.953050425208e-04 1.480628501678e-06 0.0 
1.480628501678e-06 6.643084749548e-03 0.0 
0.0 0.0 -9.982306137915e-04 
-1.060585647238e-03 -1.664106558620e-06 0.0 
-1.664106558620e-06 7.103829563321e-03 0.0 
0.0 0.0 -1.064501221861e-03 
-8.833816014428e-04 -1.312725406901e-06 0.0 
-1.312725406901e-06 5.848632048973e-03 0.0 
0.0 0.0 -8.838659695519e-04 
-1.072126527592e-03 1.342848407697e-06 0.0 
1.342848407697e-06 7.156046509616e-03 0.0 
0.0 0.0 -1.070909199420e-03 
-1.040873144494e-03 -1.559728385232e-06 0.0 
-1.559728385232e-06 6.945723517804e-03 0.0 
0.0 0.0 -1.041442769611e-03 
-4.361432558223e-04 3.964498909213e-06 0.0 
3.964498909213e-06 2.732385665183e-03 0.0 
0.0 0.0 -4.368024751037e-04 
-4.014490958451e-04 -4.456139007959e-06 0.0 
-4.456139007959e-06 2.476345149205e-03 0.0 
0.0 0.0 -4.000028750317e-04 
-3.379276697082e-04 -9.389203744036e-07 0.0 
-9.389203744036e-07 2.030025360652e-03 0.0 
0.0 0.0 -3.362177140684e-04 
-3.635969428548e-04 1.373767669615e-06 0.0 
1.373767669615e-06 2.244616072891e-03 0.0 
0.0 0.0 -3.646174584383e-04 
-4.300938244296e-04 1.567544356571e-06 0.0 
1.567544356571e-06 2.681550340782e-03 0.0 
0.0 0.0 -4.284477484795e-04 
-3.889085083712e-04 9.835552762117e-06 0.0 
9.835552762117e-06 2.418297915731e-03 0.0 
0.0 0.0 -3.914172224959e-04 
-3.204770754165e-04 1.907323267821e-05 0.0 
1.907323267821e-05 1.962571053020e-03 0.0 
0.0 0.0 -3.275549428413e-04 
-3.502907991613e-04 7.488671343041e-06 0.0 
7.488671343041e-06 2.156719423536e-03 0.0 
0.0 0.0 -3.541853722931e-04 
-4.167106155497e-04 6.881429257356e-06 0.0 
6.881429257356e-06 2.610903268491e-03 0.0 
0.0 0.0 -4.192720002935e-04 
-3.788914181042e-04 4.343078442166e-06 0.0 
4.343078442166e-06 2.349536149817e-03 0.0 
0.0 0.0 -3.818909459020e-04 
-3.084459074470e-04 6.289188176845e-07 0.0 
6.289188176845e-07 1.890259859558e-03 0.0 
0.0 0.0 -3.163726278224e-04 
-3.419617535017e-04 -1.002237531295e-06 0.0 
-1.002237531295e-06 2.083935112305e-03 0.0 
0.0 0.0 -3.442135738104e-04 
-1.099071483736e-03 -4.059536723364e-06 0.0 
-4.059536723364e-06 7.365286043721e-03 0.0 
0.0 0.0 -1.101875158976e-03 
-2.778270531889e-04 5.606786557982e-06 0.0 
5.606786557982e-06 1.634146459113e-03 0.0 
0.0 0.0 -2.790856233436e-04 
-8.331232600789e-04 -1.470432704238e-06 0.0 
-1.470432704238e-06 5.468049203594e-03 0.0 
0.0 0.0 -8.288706041983e-04 
-1.097753538925e-03 -6.819421047797e-08 0.0 
-6.819421047797e-08 7.345996197340e-03 0.0 
0.0 0.0 -1.099012274073e-03 
-1.093116720620e-03 -8.666493400003e-07 0.0 
-8.666493400003e-07 7.286837829642e-03 0.0 
0.0 0.0 -1.090660416876e-03 
-1.084365567575e-03 -6.280824779061e-06 0.0 
-6.280824779061e-06 7.252032631151e-03 0.0 
0.0 0.0 -1.085032576515e-03 
-1.054657705810e-03 -6.435631966226e-06 0.0 
-6.435631966226e-06 7.045218181684e-03 0.0 
0.0 0.0 -1.055603631703e-03 
-9.875851288997e-04 -1.413805567798e-06 0.0 
-1.413805567798e-06 6.584177510452e-03 0.0 
0.0 0.0 -9.897378988699e-04 
-1.026769546168e-03 -2.237330550631e-06 0.0 
-2.237330550631e-06 6.840866959104e-03 0.0 
0.0 0.0 -1.026001677571e-03 
-1.092973095107e-03 -7.454569989655e-06 0.0 
-7.454569989655e-06 7.301089234385e-03 0.0 
0.0 0.0 -1.091942449670e-03 
-1.064751991023e-03 -3.501272267757e-06 0.0 
-3.501272267757e-06 7.095620902661e-03 0.0 
0.0 0.0 -1.062342898562e-03 
-9.988564979816e-04 -1.668871402209e-06 0.0 
-1.668871402209e-06 6.635005463114e-03 0.0 
0.0 0.0 -9.962627399151e-04 
-1.034436478479e-03 -1.481002808329e-06 0.0 
-1.481002808329e-06 6.886326563749e-03 0.0 
0.0 0.0 -1.032646955902e-03 
-9.669903561008e-04 -1.588757973743e-06 0.0 
-1.588757973743e-06 6.424013170772e-03 0.0 
0.0 0.0 -9.664557332607e-04 
-1.003700280699e-03 7.299281572319e-07 0.0 
7.299281572319e-07 6.676052297610e-03 0.0 
0.0 0.0 -1.002889032254e-03 
-1.069539961128e-03 -1.406306334187e-06 0.0 
-1.406306334187e-06 7.137459283332e-03 0.0 
0.0 0.0 -1.069134413525e-03 
-1.040251277345e-03 -2.304501535935e-06 0.0 
-2.304501535935e-06 6.929939891367e-03 0.0 
0.0 0.0 -1.039387411609e-03 
-9.757356294361e-04 3.492291009929e-06 0.0 
3.492291009929e-06 6.469291385121e-03 0.0 
0.0 0.0 -9.730575354659e-04 
-1.011311036558e-03 -3.920010342677e-06 0.0 
-3.920010342677e-06 6.721391753202e-03 0.0 
0.0 0.0 -1.009574527126e-03 
-9.473976655286e-04 1.069754497064e-06 0.0 
1.069754497064e-06 6.259448801403e-03 0.0 
0.0 0.0 -9.431603702596e-04 
-9.787243902099e-04 -9.076392670537e-06 0.0 
-9.076392670537e-06 6.505694726987e-03 0.0 
0.0 0.0 -9.796061197752e-04 
-1.045613844249e-03 -1.722974318839e-06 0.0 
-1.722974318839e-06 6.974649094867e-03 0.0 
0.0 0.0 -1.046101832713e-03 
-2.943775444909e-04 -6.928567679433e-07 0.0 
-6.928567679433e-07 1.805789486149e-03 0.0 
0.0 0.0 -3.035957800550e-04 
-1.017758437713e-03 8.339975111648e-07 0.0 
8.339975111648e-07 6.780275813963e-03 0.0 
0.0 0.0 -1.017732614895e-03 
-1.085695951343e-03 9.008470653870e-06 0.0 
9.008470653870e-06 7.238624846316e-03 0.0 
0.0 0.0 -1.083831836677e-03 
-5.709103913775e-04 -2.325431224873e-05 0.0 
-2.325431224873e-05 3.664168357293e-03 0.0 
0.0 0.0 -5.671321338944e-04 
-6.324387949388e-04 -2.542767452312e-05 0.0 
-2.542767452312e-05 4.079572971033e-03 0.0 
0.0 0.0 -6.325382687906e-04 
-6.703304024063e-04 2.057485422859e-06 0.0 
2.057485422859e-06 4.353279279577e-03 0.0 
0.0 0.0 -6.695659616924e-04 
-6.965174910300e-04 -2.385319859479e-06 0.0 
-2.385319859479e-06 4.560833435242e-03 0.0 
0.0 0.0 -6.986863204145e-04 
-1.013217864429e-03 -6.931448216259e-06 0.0 
-6.931448216259e-06 6.760757040862e-03 0.0 
0.0 0.0 -1.015477767897e-03 
-1.085754476307e-03 4.526117246910e-06 0.0 
4.526117246910e-06 7.228792746516e-03 0.0 
0.0 0.0 -1.082739357160e-03 
-3.632786350414e-04 -5.324944035329e-07 0.0 
-5.324944035329e-07 2.218076515491e-03 0.0 
0.0 0.0 -3.630904347118e-04 
-3.989196443091e-04 3.443700858761e-06 0.0 
3.443700858761e-06 2.465366928233e-03 0.0 
0.0 0.0 -3.987635198617e-04 
-1.114604240908e-03 -4.187271034226e-06 0.0 
-4.187271034226e-06 7.457266297093e-03 0.0 
0.0 0.0 -1.114382729655e-03 
-1.023827423401e-03 3.244776891223e-07 0.0 
3.244776891223e-07 6.846372715936e-03 0.0 
0.0 0.0 -1.027045364000e-03 
-9.591711885291e-04 5.195306824493e-06 0.0 
5.195306824493e-06 6.383348184143e-03 0.0 
0.0 0.0 -9.609938998495e-04 
-6.727539858769e-04 1.372459178945e-06 0.0 
1.372459178945e-06 4.373266699252e-03 0.0 
0.0 0.0 -6.721935305596e-04 
-6.457182263888e-04 2.843205903177e-06 0.0 
2.843205903177e-06 4.180265241662e-03 0.0 
0.0 0.0 -6.449639573754e-04 
-6.090109741668e-04 -1.269187225445e-06 0.0 
-1.269187225445e-06 3.932858286179e-03 0.0 
0.0 0.0 -6.093131083769e-04 
-5.816903259702e-04 4.641891431307e-06 0.0 
4.641891431307e-06 3.732340485873e-03 0.0 
0.0 0.0 -5.812298138028e-04 
-6.200283683434e-04 9.586645545085e-06 0.0 
9.586645545085e-06 3.992414838426e-03 0.0 
0.0 0.0 -6.173664885638e-04 
-5.434193891668e-04 -9.403867661894e-06 0.0 
-9.403867661894e-06 3.478668698049e-03 0.0 
0.0 0.0 -5.448148816535e-04 
-9.373928058819e-04 -1.601369738949e-06 0.0 
-1.601369738949e-06 6.221929865538e-03 0.0 
0.0 0.0 -9.373051277721e-04 
-1.105789133782e-03 -5.097961888882e-06 0.0 
-5.097961888882e-06 7.391609738888e-03 0.0 
0.0 0.0 -1.105708206284e-03 
-3.854345613970e-04 8.443027839789e-06 0.0 
8.443027839789e-06 2.371646984252e-03 0.0 
0.0 0.0 -3.852871208612e-04 
-3.201910169613e-04 4.758000015150e-06 0.0 
4.758000015150e-06 1.911169802832e-03 0.0 
0.0 0.0 -3.193625892355e-04 
-1.092402492623e-03 -1.167819157839e-06 0.0 
-1.167819157839e-06 7.309660398486e-03 0.0 
0.0 0.0 -1.093300181677e-03 
-9.522712570359e-04 -2.708707743088e-07 0.0 
-2.708707743088e-07 6.324723503682e-03 0.0 
0.0 0.0 -9.522822042369e-04 
-9.318364452749e-04 -3.558001127054e-06 0.0 
-3.558001127054e-06 6.182417451607e-03 0.0 
0.0 0.0 -9.319735432435e-04 
-9.592391997822e-04 -2.458009781570e-06 0.0 
-2.458009781570e-06 6.375907434676e-03 0.0 
0.0 0.0 -9.598347391831e-04 
-9.950739296231e-04 -4.572796618562e-06 0.0 
-4.572796618562e-06 6.625947379230e-03 0.0 
0.0 0.0 -9.957130113267e-04 
-1.022389104434e-03 -1.719325875493e-06 0.0 
-1.719325875493e-06 6.820013246431e-03 0.0 
0.0 0.0 -1.023751803962e-03 
-1.059370439720e-03 -5.405362556183e-06 0.0 
-5.405362556183e-06 7.072199763534e-03 0.0 
0.0 0.0 -1.059873349132e-03 
-1.087678763415e-03 -2.923161999976e-06 0.0 
-2.923161999976e-06 7.265128234670e-03 0.0 
0.0 0.0 -1.087854580038e-03 
-1.051303081443e-03 5.171402569018e-07 0.0 
5.171402569018e-07 7.018896459243e-03 0.0 
0.0 0.0 -1.051791170495e-03 
-1.103769166382e-03 7.691851827814e-06 0.0 
7.691851827814e-06 7.404894528321e-03 0.0 
0.0 0.0 -1.107463318235e-03 
-1.117712624745e-03 -3.586966882227e-06 0.0 
-3.586966882227e-06 7.467456065744e-03 0.0 
0.0 0.0 -1.115916943430e-03 
-9.389683298366e-04 8.173508751319e-06 0.0 
8.173508751319e-06 6.277342985551e-03 0.0 
0.0 0.0 -9.487150400336e-04 
-9.410739694122e-04 -1.111791304633e-06 0.0 
-1.111791304633e-06 6.241243045591e-03 0.0 
0.0 0.0 -9.398448712237e-04 
-4.457204000866e-04 5.557813324707e-06 0.0 
5.557813324707e-06 2.807268937135e-03 0.0 
0.0 0.0 -4.474652294669e-04 
-2.787239558753e-04 -1.594210911560e-05 0.0 
-1.594210911560e-05 1.590980471387e-03 0.0 
0.0 0.0 -2.752498982733e-04 
-2.801629165478e-04 1.388173637084e-07 0.0 
1.388173637084e-07 1.614413284500e-03 0.0 
0.0 0.0 -2.770275614452e-04 
-3.257086370933e-04 6.463444473936e-06 0.0 
6.463444473936e-06 1.982032803988e-03 0.0 
0.0 0.0 -3.299748606085e-04 
-3.924316838371e-04 3.341960258316e-06 0.0 
3.341960258316e-06 2.447443434601e-03 0.0 
0.0 0.0 -3.961554456411e-04 
-1.134349550786e-03 -1.652632845499e-06 0.0 
-1.652632845499e-06 7.607275251226e-03 0.0 
0.0 0.0 -1.136360603439e-03 
-1.125800754315e-03 -5.253853129321e-06 0.0 
-5.253853129321e-06 7.520991050392e-03 0.0 
0.0 0.0 -1.124065295910e-03 
-1.096791908378e-03 -5.220402544511e-06 0.0 
-5.220402544511e-06 7.320289406061e-03 0.0 
0.0 0.0 -1.095615423988e-03 
-5.557080703907e-04 2.060507655016e-05 0.0 
2.060507655016e-05 3.553838567094e-03 0.0 
0.0 0.0 -5.539799138139e-04 
-5.938414920039e-04 6.065843658319e-06 0.0 
6.065843658319e-06 3.806784454423e-03 0.0 
0.0 0.0 -5.905304635153e-04 
-1.132061157024e-03 2.994999273337e-06 0.0 
2.994999273337e-06 7.609332849678e-03 0.0 
0.0 0.0 -1.136278651916e-03 
-9.052603845710e-04 -1.496793008781e-06 0.0 
-1.496793008781e-06 6.089428360264e-03 0.0 
0.0 0.0 -9.177848451843e-04 
-9.302886435712e-04 -1.143901140707e-06 0.0 
-1.143901140707e-06 6.175006027383e-03 0.0 
0.0 0.0 -9.302130594432e-04 
-8.986318941469e-04 1.808913455713e-06 0.0 
1.808913455713e-06 5.958837749668e-03 0.0 
0.0 0.0 -9.001900590098e-04 
-2.448154097378e-04 -1.421673720988e-05 0.0 
-1.421673720988e-05 1.469020257813e-03 0.0 
0.0 0.0 -2.595221258752e-04 
-2.425141975508e-04 4.798340757522e-06 0.0 
4.798340757522e-06 1.427444744679e-03 0.0 
0.0 0.0 -2.525597767350e-04 
-1.129866785975e-03 -6.589135683467e-06 0.0 
-6.589135683467e-06 7.556758245339e-03 0.0 
0.0 0.0 -1.128363834889e-03 
-4.625030533362e-04 2.152653740951e-06 0.0 
2.152653740951e-06 2.905591162520e-03 0.0 
0.0 0.0 -4.615872697407e-04 
-4.348533942840e-04 3.201452625993e-06 0.0 
3.201452625993e-06 2.712395630356e-03 0.0 
0.0 0.0 -4.342639779644e-04 
-2.556862254963e-04 9.465200077415e-06 0.0 
9.465200077415e-06 1.446637132956e-03 0.0 
0.0 0.0 -2.508181872060e-04 
-2.123142658658e-04 2.153637717968e-06 0.0 
2.153637717968e-06 1.175585796085e-03 0.0 
0.0 0.0 -2.143868084631e-04 
-1.042731456099e-03 1.901936730490e-05 0.0 
1.901936730490e-05 6.995442815012e-03 0.0 
0.0 0.0 -1.051814883004e-03 
-1.110984337992e-03 1.360393105757e-05 0.0 
1.360393105757e-05 7.468547826848e-03 0.0 
0.0 0.0 -1.117859435171e-03 
-7.312716402703e-04 -2.190675999985e-06 0.0 
-2.190675999985e-06 4.814374156657e-03 0.0 
0.0 0.0 -7.356929296387e-04 
-7.645892286358e-04 -1.102166449944e-05 0.0 
-1.102166449944e-05 5.018862629850e-03 0.0 
0.0 0.0 -7.648299719236e-04 
-1.105578814045e-03 -4.864618337799e-06 0.0 
-4.864618337799e-06 7.407304501986e-03 0.0 
0.0 0.0 -1.107558395918e-03 
-3.066920262704e-04 -9.941053824374e-07 0.0 
-9.941053824374e-07 1.825477502809e-03 0.0 
0.0 0.0 -3.060794667268e-04 
-1.146252104278e-03 9.473611415334e-07 0.0 
9.473611415334e-07 7.693660702169e-03 0.0 
0.0 0.0 -1.149181664990e-03 
-9.819770468004e-04 3.151631864524e-06 0.0 
3.151631864524e-06 6.525650668115e-03 0.0 
0.0 0.0 -9.807908033776e-04 
-9.159380280943e-04 1.195442860158e-06 0.0 
1.195442860158e-06 6.068082639928e-03 0.0 
0.0 0.0 -9.152404036620e-04 
-6.511413906153e-04 1.424536279066e-05 0.0 
1.424536279066e-05 4.294241389317e-03 0.0 
0.0 0.0 -6.604623333687e-04 
-3.374810340453e-04 6.844433927076e-06 0.0 
6.844433927076e-06 2.031763814607e-03 0.0 
0.0 0.0 -3.366432492119e-04 
-3.027001806186e-04 4.554754580680e-06 0.0 
4.554754580680e-06 1.781580953442e-03 0.0 
0.0 0.0 -3.009099309908e-04 
-4.837618896288e-04 7.408810593364e-06 0.0 
7.408810593364e-06 3.065907824055e-03 0.0 
0.0 0.0 -4.845585894574e-04 
-3.706525314116e-04 2.979043878536e-06 0.0 
2.979043878536e-06 2.283251894813e-03 0.0 
0.0 0.0 -3.723415964733e-04 
-3.535775650443e-04 1.642795960159e-06 0.0 
1.642795960159e-06 2.183712345689e-03 0.0 
0.0 0.0 -3.583452993329e-04 
-1.171956394673e-03 7.296733533155e-06 0.0 
7.296733533155e-06 7.865937936914e-03 0.0 
0.0 0.0 -1.173829981771e-03 
-1.155496536768e-03 -7.585900876938e-06 0.0 
-7.585900876938e-06 7.757441294242e-03 0.0 
0.0 0.0 -1.157575248917e-03 
-1.081331483118e-03 -1.018192650105e-05 0.0 
-1.018192650105e-05 7.219793718708e-03 0.0 
0.0 0.0 -1.080172819833e-03 
-1.016976595983e-03 3.080934609104e-08 0.0 
3.080934609104e-08 6.767850029250e-03 0.0 
0.0 0.0 -1.015677837919e-03 
-1.139278177336e-03 -7.940019038878e-06 0.0 
-7.940019038878e-06 7.665797132760e-03 0.0 
0.0 0.0 -1.144955025780e-03 
-2.327287223155e-04 -5.619721676057e-06 0.0 
-5.619721676057e-06 1.369838176642e-03 0.0 
0.0 0.0 -2.399185640008e-04 
-1.167065302037e-03 -2.167295117524e-06 0.0 
-2.167295117524e-06 7.816099518397e-03 0.0 
0.0 0.0 -1.165794428787e-03 
-1.057599608467e-03 -1.462585030789e-06 0.0 
-1.462585030789e-06 7.053925433098e-03 0.0 
0.0 0.0 -1.056136825731e-03 
-1.166821884924e-03 8.580756338021e-06 0.0 
8.580756338021e-06 7.754116842770e-03 0.0 
0.0 0.0 -1.157598467365e-03 
-1.133408506306e-03 -8.435792570646e-07 0.0 
-8.435792570646e-07 7.569033753462e-03 0.0 
0.0 0.0 -1.131219827106e-03 
-4.984456519411e-04 4.300557589802e-06 0.0 
4.300557589802e-06 3.150357815837e-03 0.0 
0.0 0.0 -4.968499830348e-04 
-4.727344614058e-04 -4.063132868484e-06 0.0 
-4.063132868484e-06 2.963684111716e-03 0.0 
0.0 0.0 -4.705806478706e-04 
-4.091383170965e-04 2.862069894870e-06 0.0 
2.862069894870e-06 2.529363987017e-03 0.0 
0.0 0.0 -4.078257031896e-04 
-4.471058786427e-04 1.072951437622e-05 0.0 
1.072951437622e-05 2.788633828474e-03 0.0 
0.0 0.0 -4.438024830152e-04 
-8.440631779025e-04 -4.493147098222e-06 0.0 
-4.493147098222e-06 5.518369027804e-03 0.0 
0.0 0.0 -8.361670615231e-04 
-5.357092529258e-04 -9.292843076385e-07 0.0 
-9.292843076385e-07 3.402933662769e-03 0.0 
0.0 0.0 -5.333915535664e-04 
-7.972227851670e-04 -9.360487059470e-07 0.0 
-9.360487059470e-07 5.222669072684e-03 0.0 
0.0 0.0 -7.939299641313e-04 
-7.702508874020e-04 -1.538210288725e-06 0.0 
-1.538210288725e-06 5.031866795854e-03 0.0 
0.0 0.0 -7.665196690739e-04 
-7.355056886190e-04 7.347932432816e-07 0.0 
7.347932432816e-07 4.791036993934e-03 0.0 
0.0 0.0 -7.319524942586e-04 
-6.561872916337e-04 1.268419360750e-06 0.0 
1.268419360750e-06 4.239606973166e-03 0.0 
0.0 0.0 -6.527873785750e-04 
-6.291613184761e-04 -1.439650198992e-06 0.0 
-1.439650198992e-06 4.053875822961e-03 0.0 
0.0 0.0 -6.261871041946e-04 
-5.548406946331e-04 -1.134560045706e-06 0.0 
-1.134560045706e-06 3.546628030902e-03 0.0 
0.0 0.0 -5.534964465553e-04 
-8.399940984115e-04 -3.577201231008e-06 0.0 
-3.577201231008e-06 5.537581821643e-03 0.0 
0.0 0.0 -8.390310526140e-04 
-7.058409553932e-04 5.047899969827e-07 0.0 
5.047899969827e-07 4.614117323526e-03 0.0 
0.0 0.0 -7.069621042110e-04 
-8.747594299032e-04 -2.558061717916e-06 0.0 
-2.558061717916e-06 5.788017369400e-03 0.0 
0.0 0.0 -8.751042800696e-04 
-8.345970192924e-04 7.968047685427e-07 0.0 
7.968047685427e-07 5.508873449258e-03 0.0 
0.0 0.0 -8.350146568664e-04 
-1.135366159085e-03 -3.784163045625e-06 0.0 
-3.784163045625e-06 7.595187475630e-03 0.0 
0.0 0.0 -1.135109731873e-03 
-1.173430748718e-03 -9.063019793229e-06 0.0 
-9.063019793229e-06 7.855172062360e-03 0.0 
0.0 0.0 -1.171938512032e-03 
-9.103494794308e-04 9.134385712316e-06 0.0 
9.134385712316e-06 6.008446285683e-03 0.0 
0.0 0.0 -9.065739516476e-04 
-8.719468559850e-04 9.049287930878e-07 0.0 
9.049287930878e-07 5.790867004059e-03 0.0 
0.0 0.0 -8.764137937918e-04 
-2.822142401262e-04 -1.729015805274e-06 0.0 
-1.729015805274e-06 1.647043850495e-03 0.0 
0.0 0.0 -2.813159824896e-04 
-2.590672524343e-04 7.758668078462e-06 0.0 
7.758668078462e-06 1.453070456664e-03 0.0 
0.0 0.0 -2.532569443854e-04 
-7.885436432884e-04 5.287197585389e-07 0.0 
5.287197585389e-07 5.190389624089e-03 0.0 
0.0 0.0 -7.894497706086e-04 
-1.129157536929e-03 4.394584270014e-06 0.0 
4.394584270014e-06 7.545263270116e-03 0.0 
0.0 0.0 -1.127529358476e-03 
-1.150499129859e-03 -1.601096256569e-07 0.0 
-1.601096256569e-07 7.703368893988e-03 0.0 
0.0 0.0 -1.150095860580e-03 
-1.180515255213e-03 -2.827683268667e-06 0.0 
-2.827683268667e-06 7.908952217123e-03 0.0 
0.0 0.0 -1.179372829571e-03 
-1.142938913333e-03 -3.318694813182e-06 0.0 
-3.318694813182e-06 7.657003561438e-03 0.0 
0.0 0.0 -1.143369325255e-03 
-1.140111309187e-03 8.981293941595e-07 0.0 
8.981293941595e-07 7.659653688633e-03 0.0 
0.0 0.0 -1.144273392007e-03 
-5.742583376343e-04 1.322470559696e-07 0.0 
1.322470559696e-07 3.685291735877e-03 0.0 
0.0 0.0 -5.733740095480e-04 
-8.593234151620e-04 -2.874076437017e-06 0.0 
-2.874076437017e-06 5.675695790787e-03 0.0 
0.0 0.0 -8.590966742019e-04 
-2.435677437140e-04 -1.068446741351e-05 0.0 
-1.068446741351e-05 1.382271228051e-03 0.0 
0.0 0.0 -2.423215009416e-04 
-8.888171571715e-04 7.702896637573e-07 0.0 
7.702896637573e-07 5.879388839658e-03 0.0 
0.0 0.0 -8.884627649733e-04 
-2.162237035633e-04 -3.672272412215e-06 0.0 
-3.672272412215e-06 1.184819371308e-03 0.0 
0.0 0.0 -2.162536877156e-04 
-1.014212058360e-03 -1.424401912229e-06 0.0 
-1.424401912229e-06 6.732806316095e-03 0.0 
0.0 0.0 -1.010319580236e-03 
-1.121146682577e-03 5.393536552770e-07 0.0 
5.393536552770e-07 7.512550218556e-03 0.0 
0.0 0.0 -1.122815839103e-03 
-1.157064342210e-03 3.278319431591e-08 0.0 
3.278319431591e-08 7.769042756358e-03 0.0 
0.0 0.0 -1.159213750608e-03 
-1.166424981014e-03 1.813592645850e-06 0.0 
1.813592645850e-06 7.856112587899e-03 0.0 
0.0 0.0 -1.171959308352e-03 
-7.504080630279e-04 1.142017006419e-05 0.0 
1.142017006419e-05 4.900584458038e-03 0.0 
0.0 0.0 -7.470952864203e-04 
-9.172347539121e-04 2.804117413080e-06 0.0 
2.804117413080e-06 6.075069916316e-03 0.0 
0.0 0.0 -9.162722660995e-04 
-8.822868772852e-04 1.786082975063e-06 0.0 
1.786082975063e-06 5.828052429250e-03 0.0 
0.0 0.0 -8.808726170640e-04 
-7.075025449256e-04 3.734403441956e-06 0.0 
3.734403441956e-06 4.602949033639e-03 0.0 
0.0 0.0 -7.048691535495e-04 
-6.736902723486e-04 3.915004124878e-06 0.0 
3.915004124878e-06 4.364959797177e-03 0.0 
0.0 0.0 -6.707530558731e-04 
-7.003926698376e-04 3.499859416378e-06 0.0 
3.499859416378e-06 4.548937086678e-03 0.0 
0.0 0.0 -6.972958566626e-04 
-6.396081130526e-04 3.801189656251e-06 0.0 
3.801189656251e-06 4.126284090508e-03 0.0 
0.0 0.0 -6.359606378414e-04 
-5.113814833482e-04 4.985013341250e-06 0.0 
4.985013341250e-06 3.258506878652e-03 0.0 
0.0 0.0 -5.122594947013e-04 
-4.735906672379e-04 3.101741148840e-06 0.0 
3.101741148840e-06 2.998270021668e-03 0.0 
0.0 0.0 -4.750188804659e-04 
-1.196527535369e-03 2.030860363361e-06 0.0 
2.030860363361e-06 8.017120294099e-03 0.0 
0.0 0.0 -1.192042136895e-03 
-1.179471908673e-03 2.186350744697e-05 0.0 
2.186350744697e-05 7.917990259976e-03 0.0 
0.0 0.0 -1.178660172201e-03 
-1.197525366512e-03 -5.361254675000e-06 0.0 
-5.361254675000e-06 8.017772106938e-03 0.0 
0.0 0.0 -1.193029175878e-03 
-1.157007599871e-03 -4.254495392832e-07 0.0 
-4.254495392832e-07 7.831852404544e-03 0.0 
0.0 0.0 -1.168165168231e-03 
-1.184219832489e-03 -2.995135238664e-06 0.0 
-2.995135238664e-06 8.054139615854e-03 0.0 
0.0 0.0 -1.200910491468e-03 
-1.156433585434e-03 -1.143666503542e-06 0.0 
-1.143666503542e-06 7.807020133364e-03 0.0 
0.0 0.0 -1.164168769488e-03 
-4.264796299705e-04 -5.762809161324e-06 0.0 
-5.762809161324e-06 2.638842137297e-03 0.0 
0.0 0.0 -4.227350873389e-04 
-5.681760473818e-04 2.318592575023e-06 0.0 
2.318592575023e-06 3.626581176623e-03 0.0 
0.0 0.0 -5.646260317871e-04 
-1.184636686047e-03 -1.016095806196e-05 0.0 
-1.016095806196e-05 8.009054334469e-03 0.0 
0.0 0.0 -1.194151889699e-03 
-7.414862310133e-04 3.192804147292e-06 0.0 
3.192804147292e-06 4.838396811126e-03 0.0 
0.0 0.0 -7.390869131010e-04 
-1.198370689590e-03 -4.208230376702e-06 0.0 
-4.208230376702e-06 8.000236790466e-03 0.0 
0.0 0.0 -1.192835421428e-03 
-1.157965586969e-03 3.621187988870e-06 0.0 
3.621187988870e-06 7.751872966735e-03 0.0 
0.0 0.0 -1.156047193884e-03 
-1.679677723563e-04 -6.471467775008e-06 0.0 
-6.471467775008e-06 9.157850137993e-04 0.0 
0.0 0.0 -1.776502893165e-04 
-2.010012491603e-04 -2.186198543596e-05 0.0 
-2.186198543596e-05 1.109886420371e-03 0.0 
0.0 0.0 -2.034953494974e-04 
-1.179928424182e-03 1.756406795450e-06 0.0 
1.756406795450e-06 7.951460578279e-03 0.0 
0.0 0.0 -1.184588873336e-03 
-3.838885301584e-04 -2.308315346308e-07 0.0 
-2.308315346308e-07 2.344842445821e-03 0.0 
0.0 0.0 -3.811925308841e-04 
-4.219559892700e-04 7.989363516707e-06 0.0 
7.989363516707e-06 2.586701229719e-03 0.0 
0.0 0.0 -4.158690271831e-04 
-3.474814854535e-04 -1.898705035342e-06 0.0 
-1.898705035342e-06 2.092244309525e-03 0.0 
0.0 0.0 -3.459699425273e-04 
-1.258412294817e-03 4.723230244906e-06 0.0 
4.723230244906e-06 8.451854294521e-03 0.0 
0.0 0.0 -1.258310293365e-03 
-7.484881504012e-04 -2.960864060537e-06 0.0 
-2.960864060537e-06 4.893199602045e-03 0.0 
0.0 0.0 -7.479256703001e-04 
-1.180456674817e-03 2.203572108480e-06 0.0 
2.203572108480e-06 7.969948982011e-03 0.0 
0.0 0.0 -1.189418985649e-03 
-6.915459890032e-04 2.639723401827e-07 0.0 
2.639723401827e-07 4.488659587492e-03 0.0 
0.0 0.0 -6.884682336192e-04 
-1.207477073685e-03 3.654066082089e-06 0.0 
3.654066082089e-06 8.169097270233e-03 0.0 
0.0 0.0 -1.216510697198e-03 
-9.459891485395e-04 2.183343284727e-06 0.0 
2.183343284727e-06 6.276634781059e-03 0.0 
0.0 0.0 -9.449116413281e-04 
-6.354655665352e-04 7.994205054171e-06 0.0 
7.994205054171e-06 4.117898953292e-03 0.0 
0.0 0.0 -6.353966017694e-04 
-1.078683645923e-03 -8.754256551621e-06 0.0 
-8.754256551621e-06 7.202760317134e-03 0.0 
0.0 0.0 -1.078177493492e-03 
-1.141578224774e-03 -1.678015124370e-05 0.0 
-1.678015124370e-05 7.703318796330e-03 0.0 
0.0 0.0 -1.149140729088e-03 
-1.226390364052e-03 1.281801736300e-05 0.0 
1.281801736300e-05 8.221773688785e-03 0.0 
0.0 0.0 -1.221625961084e-03 
-8.548571335586e-04 9.585095622204e-06 0.0 
9.585095622204e-06 5.710330831809e-03 0.0 
0.0 0.0 -8.638707813346e-04 
-8.315226367926e-04 -1.796676276349e-05 0.0 
-1.796676276349e-05 5.471080815741e-03 0.0 
0.0 0.0 -8.327709333130e-04 
-8.913153694948e-04 3.187001622893e-06 0.0 
3.187001622893e-06 5.908304703834e-03 0.0 
0.0 0.0 -8.925140200429e-04 
-2.901697666163e-04 2.957652242807e-06 0.0 
2.957652242807e-06 1.700907778148e-03 0.0 
0.0 0.0 -2.887053311254e-04 
-2.259876589125e-04 -1.628476741887e-06 0.0 
-1.628476741887e-06 1.207242233754e-03 0.0 
0.0 0.0 -2.186270541161e-04 
-1.144042553285e-03 -3.972510573065e-06 0.0 
-3.972510573065e-06 7.644643748638e-03 0.0 
0.0 0.0 -1.142090266074e-03 
-5.015691225624e-04 -4.004972649539e-06 0.0 
-4.004972649539e-06 3.172327891301e-03 0.0 
0.0 0.0 -5.006138788623e-04 
-5.490396028458e-04 1.473261204918e-05 0.0 
1.473261204918e-05 3.431798845594e-03 0.0 
0.0 0.0 -5.359218444892e-04 
-3.334097721275e-04 4.182676571345e-07 0.0 
4.182676571345e-07 2.008435002854e-03 0.0 
0.0 0.0 -3.328711069468e-04 
-3.967994371980e-04 3.163349435490e-06 0.0 
3.163349435490e-06 2.463726324997e-03 0.0 
0.0 0.0 -3.985542937016e-04 
-7.704918098593e-04 -2.506920415004e-06 0.0 
-2.506920415004e-06 5.073323433467e-03 0.0 
0.0 0.0 -7.728092966600e-04 
-7.429755971663e-04 -1.604665723007e-06 0.0 
-1.604665723007e-06 4.873825415622e-03 0.0 
0.0 0.0 -7.441750962829e-04 
-1.041105417575e-03 -3.532804275433e-06 0.0 
-3.532804275433e-06 6.930458439110e-03 0.0 
0.0 0.0 -1.038692069610e-03 
-1.077691050121e-03 5.915919111282e-07 0.0 
5.915919111282e-07 7.178307862229e-03 0.0 
0.0 0.0 -1.074129358999e-03 
-9.680145315127e-04 -4.800744221102e-06 0.0 
-4.800744221102e-06 6.431374472253e-03 0.0 
0.0 0.0 -9.675620497173e-04 
-9.449072701309e-04 5.755247328018e-07 0.0 
5.755247328018e-07 6.268683015175e-03 0.0 
0.0 0.0 -9.439558448496e-04 
-8.793469056983e-04 2.651871179728e-07 0.0 
2.651871179728e-07 5.812169911194e-03 0.0 
0.0 0.0 -8.783802297791e-04 
-8.506353188412e-04 -1.205932606194e-06 0.0 
-1.205932606194e-06 5.614865789540e-03 0.0 
0.0 0.0 -8.502765121186e-04 
-1.205371287344e-03 -1.017172525851e-05 0.0 
-1.017172525851e-05 8.044519540676e-03 0.0 
0.0 0.0 -1.199867006878e-03 
-1.246871842620e-03 -1.782584577396e-06 0.0 
-1.782584577396e-06 8.370823131876e-03 0.0 
0.0 0.0 -1.242728214876e-03 
-5.491066158242e-04 3.796504913795e-06 0.0 
3.796504913795e-06 3.515286504074e-03 0.0 
0.0 0.0 -5.488632449009e-04 
-5.218883337208e-04 5.205294616476e-06 0.0 
5.205294616476e-06 3.322312941731e-03 0.0 
0.0 0.0 -5.212126360957e-04 
-5.377854580404e-04 4.143852354807e-06 0.0 
4.143852354807e-06 3.445251353484e-03 0.0 
0.0 0.0 -5.390128571062e-04 
-1.214529256448e-03 -6.301616693017e-06 0.0 
-6.301616693017e-06 8.215301645721e-03 0.0 
0.0 0.0 -1.223056365294e-03 
-1.220614911318e-03 1.691106897417e-05 0.0 
1.691106897417e-05 8.234319209605e-03 0.0 
0.0 0.0 -1.224004481682e-03 
-1.202636442924e-03 -1.450484537668e-05 0.0 
-1.450484537668e-05 8.019827799738e-03 0.0 
0.0 0.0 -1.195820777905e-03 
-1.923031463658e-04 -1.299529721394e-05 0.0 
-1.299529721394e-05 1.005842812599e-03 0.0 
0.0 0.0 -1.880780275778e-04 
-2.380587333974e-04 -7.138126159431e-06 0.0 
-7.138126159431e-06 1.256954979671e-03 0.0 
0.0 0.0 -2.247092568812e-04 
-2.809188805545e-04 -7.804988416227e-07 0.0 
-7.804988416227e-07 1.601881524077e-03 0.0 
0.0 0.0 -2.751197234063e-04 
-2.390831316058e-04 -1.697522519497e-05 0.0 
-1.697522519497e-05 1.345355817379e-03 0.0 
0.0 0.0 -2.407125716443e-04 
-1.208745358060e-03 2.226513834320e-07 0.0 
2.226513834320e-07 8.094728759758e-03 0.0 
0.0 0.0 -1.207258722210e-03 
-1.173002429905e-03 -1.580225166946e-08 0.0 
-1.580225166946e-08 7.865013445176e-03 0.0 
0.0 0.0 -1.172631524865e-03 
-1.245587066994e-03 -1.350830728556e-07 0.0 
-1.350830728556e-07 8.403006214559e-03 0.0 
0.0 0.0 -1.247471551777e-03 
-3.784912276641e-04 1.355145565503e-05 0.0 
1.355145565503e-05 2.351827936340e-03 0.0 
0.0 0.0 -3.801539159394e-04 
-1.045351836581e-03 6.057785964148e-06 0.0 
6.057785964148e-06 6.969505785323e-03 0.0 
0.0 0.0 -1.045322365442e-03 
-1.205298536187e-03 1.211257299848e-05 0.0 
1.211257299848e-05 8.100207033565e-03 0.0 
0.0 0.0 -1.207899217314e-03 
-1.178583019777e-03 1.757022163116e-05 0.0 
1.757022163116e-05 7.916687945301e-03 0.0 
0.0 0.0 -1.178012378629e-03 
-1.242442001561e-03 9.743401619653e-06 0.0 
9.743401619653e-06 8.382783963078e-03 0.0 
0.0 0.0 -1.244624083072e-03 
-1.137070212873e-03 -2.028754131548e-06 0.0 
-2.028754131548e-06 7.646903784891e-03 0.0 
0.0 0.0 -1.142102124289e-03 
-1.209034666392e-03 -7.012965144969e-06 0.0 
-7.012965144969e-06 8.081623741308e-03 0.0 
0.0 0.0 -1.205428683694e-03 
-1.206763234680e-03 6.340388102844e-06 0.0 
6.340388102844e-06 8.101632159503e-03 0.0 
0.0 0.0 -1.209323031234e-03 
-1.526588308959e-04 -1.278274148865e-05 0.0 
-1.278274148865e-05 7.096255753314e-04 0.0 
0.0 0.0 -1.515181680101e-04 
-1.197635794990e-03 -1.679642684383e-05 0.0 
-1.679642684383e-05 8.038463106290e-03 0.0 
0.0 0.0 -1.199992767657e-03 
-8.372255126924e-04 -1.581405743943e-06 0.0 
-1.581405743943e-06 5.516497338344e-03 0.0 
0.0 0.0 -8.371571859873e-04 
-1.098991945020e-04 -3.154449405114e-05 0.0 
-3.154449405114e-05 5.330743413542e-04 0.0 
0.0 0.0 -1.134605161963e-04 
-7.981850025034e-04 -4.161080113052e-07 0.0 
-4.161080113052e-07 5.308479178574e-03 0.0 
0.0 0.0 -8.070151920887e-04 
-8.429634412097e-04 -1.709371110711e-06 0.0 
-1.709371110711e-06 5.581100165216e-03 0.0 
0.0 0.0 -8.451615393777e-04 
-7.696584184699e-04 -4.438777502690e-06 0.0 
-4.438777502690e-06 5.046252634616e-03 0.0 
0.0 0.0 -7.748096441827e-04 
-3.107010397172e-04 9.959927229254e-06 0.0 
9.959927229254e-06 1.894638977858e-03 0.0 
0.0 0.0 -3.155299188714e-04 
-8.095068364426e-04 -1.064416675752e-05 0.0 
-1.064416675752e-05 5.359424365734e-03 0.0 
0.0 0.0 -8.174106193842e-04 
-8.516632903957e-04 -1.548663215885e-05 0.0 
-1.548663215885e-05 5.659882039523e-03 0.0 
0.0 0.0 -8.556612431672e-04 
-1.454483653541e-04 3.285604104571e-06 0.0 
3.285604104571e-06 7.139538730243e-04 0.0 
0.0 0.0 -1.421329337195e-04 
-1.249632985061e-03 3.450770483263e-06 0.0 
3.450770483263e-06 8.450128189206e-03 0.0 
0.0 0.0 -1.259301554906e-03 
-1.652376678941e-04 -1.286666981347e-05 0.0 
-1.286666981347e-05 7.455520390208e-04 0.0 
0.0 0.0 -1.556443337539e-04 
-1.771144640534e-04 -1.673852043297e-05 0.0 
-1.673852043297e-05 9.409763732996e-04 0.0 
0.0 0.0 -1.806578101979e-04 
-1.211541890789e-03 1.467961613660e-05 0.0 
1.467961613660e-05 8.216069586299e-03 0.0 
0.0 0.0 -1.221214701962e-03 
-1.182137557378e-03 -1.347893005179e-06 0.0 
-1.347893005179e-06 7.946617508211e-03 0.0 
0.0 0.0 -1.184344882880e-03 
-1.248636598491e-03 -6.710766209712e-06 0.0 
-6.710766209712e-06 8.399111666310e-03 0.0 
0.0 0.0 -1.247726601234e-03 
-1.216304493113e-03 1.376146948645e-05 0.0 
1.376146948645e-05 8.121468603000e-03 0.0 
0.0 0.0 -1.211018817991e-03 
-1.146160367712e-03 -4.978228076882e-06 0.0 
-4.978228076882e-06 7.680298396241e-03 0.0 
0.0 0.0 -1.147066289601e-03 
-1.174333499691e-03 6.447300312305e-06 0.0 
6.447300312305e-06 7.890872304648e-03 0.0 
0.0 0.0 -1.176490610025e-03 
-8.022613359354e-04 -1.465561338708e-05 0.0 
-1.465561338708e-05 5.265642214057e-03 0.0 
0.0 0.0 -7.985989294648e-04 
-1.243628943204e-03 1.764986030872e-05 0.0 
1.764986030872e-05 8.400828657624e-03 0.0 
0.0 0.0 -1.249018369598e-03 
-1.202560827820e-03 4.472912903621e-06 0.0 
4.472912903621e-06 8.095627160272e-03 0.0 
0.0 0.0 -1.207442871744e-03 
-1.280707394095e-03 9.871433926358e-06 0.0 
9.871433926358e-06 8.646120131381e-03 0.0 
0.0 0.0 -1.277927415301e-03 
-6.139046463498e-04 4.062295408135e-06 0.0 
4.062295408135e-06 3.949909662933e-03 0.0 
0.0 0.0 -6.108003466767e-04 
-4.855763441254e-04 3.057596715554e-06 0.0 
3.057596715554e-06 3.031592722143e-03 0.0 
0.0 0.0 -4.789358348571e-04 
-4.592668061051e-04 2.643196690479e-06 0.0 
2.643196690479e-06 2.831145132009e-03 0.0 
0.0 0.0 -4.527251363391e-04 
-3.939664762502e-04 4.015896243424e-05 0.0 
4.015896243424e-05 2.394779108390e-03 0.0 
0.0 0.0 -3.875663759467e-04 
-1.235451159508e-03 5.414867173196e-06 0.0 
5.414867173196e-06 8.338545045283e-03 0.0 
0.0 0.0 -1.240180566941e-03 
-1.197541601819e-03 2.184484790423e-05 0.0 
2.184484790423e-05 8.058909055166e-03 0.0 
0.0 0.0 -1.200590015451e-03 
-1.087867486780e-03 1.085013592512e-06 0.0 
1.085013592512e-06 7.270465583492e-03 0.0 
0.0 0.0 -1.087555896896e-03 
-1.022984886136e-03 4.510930018261e-06 0.0 
4.510930018261e-06 6.802736585016e-03 0.0 
0.0 0.0 -1.020738973070e-03 
-8.163996236660e-04 7.186741062483e-06 0.0 
7.186741062483e-06 5.339991771102e-03 0.0 
0.0 0.0 -8.108182148135e-04 
-8.104965103200e-04 -8.251273631999e-06 0.0 
-8.251273631999e-06 5.308853861974e-03 0.0 
0.0 0.0 -8.077352941366e-04 
-8.720514006204e-04 3.179792081286e-05 0.0 
3.179792081286e-05 5.733381675574e-03 0.0 
0.0 0.0 -8.678526801547e-04 
-8.648510791427e-04 -7.111218047989e-06 0.0 
-7.111218047989e-06 5.661166370703e-03 0.0 
0.0 0.0 -8.609153521579e-04 
-9.263549734801e-04 3.033239231777e-05 0.0 
3.033239231777e-05 6.105443762298e-03 0.0 
0.0 0.0 -9.200517378055e-04 
-9.083479877115e-04 -1.416522287398e-05 0.0 
-1.416522287398e-05 6.036653926986e-03 0.0 
0.0 0.0 -9.108947733944e-04 
-9.698621139042e-04 -2.949214397531e-05 0.0 
-2.949214397531e-05 6.467199866666e-03 0.0 
0.0 0.0 -9.726914458129e-04 
-1.247222366311e-03 2.606056517107e-05 0.0 
2.606056517107e-05 8.375150940582e-03 0.0 
0.0 0.0 -1.245087786853e-03 
-3.186375953883e-04 9.254464651470e-06 0.0 
9.254464651470e-06 1.904578218722e-03 0.0 
0.0 0.0 -3.180830487989e-04 
-6.795655702328e-04 3.950407328817e-06 0.0 
3.950407328817e-06 4.416747400763e-03 0.0 
0.0 0.0 -6.783069842581e-04 
-1.217523867403e-03 -1.107710803929e-05 0.0 
-1.107710803929e-05 8.250220171501e-03 0.0 
0.0 0.0 -1.228261380050e-03 
-1.189954932966e-03 -3.389414248166e-06 0.0 
-3.389414248166e-06 7.976695802146e-03 0.0 
0.0 0.0 -1.187396807988e-03 
-6.030585832721e-04 2.040094254680e-06 0.0 
2.040094254680e-06 3.869813641297e-03 0.0 
0.0 0.0 -6.000944487132e-04 
-5.459736888774e-04 1.094222006423e-05 0.0 
1.094222006423e-05 3.457763009941e-03 0.0 
0.0 0.0 -5.401620014017e-04 
-1.244604975369e-03 1.395843640121e-05 0.0 
1.395843640121e-05 8.345755076324e-03 0.0 
0.0 0.0 -1.238794375355e-03 
-5.618086059147e-04 1.672788938663e-06 0.0 
1.672788938663e-06 3.593027472553e-03 0.0 
0.0 0.0 -5.600314934590e-04 
-1.295241739404e-03 -3.069672707253e-06 0.0 
-3.069672707253e-06 8.734931616820e-03 0.0 
0.0 0.0 -1.295459716840e-03 
-4.726518995245e-05 -5.619949717432e-06 0.0 
-5.619949717432e-06 2.661811301103e-04 0.0 
0.0 0.0 -5.690003420296e-05 
-1.291194022148e-04 1.153791065657e-05 0.0 
1.153791065657e-05 6.783732708890e-04 0.0 
0.0 0.0 -1.353443326634e-04 
-5.978702258073e-04 2.845759188033e-06 0.0 
2.845759188033e-06 3.846572588730e-03 0.0 
0.0 0.0 -5.969207367497e-04 
-6.645061217588e-04 1.210892726751e-06 0.0 
1.210892726751e-06 4.303380572845e-03 0.0 
0.0 0.0 -6.620222007989e-04 
-5.132181813278e-04 9.130074641247e-06 0.0 
9.130074641247e-06 3.278288147999e-03 0.0 
0.0 0.0 -5.157319100482e-04 
-4.860075133993e-04 2.990028342235e-06 0.0 
2.990028342235e-06 3.124396954495e-03 0.0 
0.0 0.0 -4.917183783407e-04 
-1.011317378684e-03 6.487621353866e-07 0.0 
6.487621353866e-07 6.733904614894e-03 0.0 
0.0 0.0 -1.010552660601e-03 
-1.970258742010e-04 -2.540004491936e-06 0.0 
-2.540004491936e-06 1.065332307301e-03 0.0 
0.0 0.0 -1.995083582888e-04 
-3.139166667020e-04 -2.253789274913e-06 0.0 
-2.253789274913e-06 1.850494599455e-03 0.0 
0.0 0.0 -3.106934562087e-04 
-9.732483420248e-04 2.855591412463e-05 0.0 
2.855591412463e-05 6.524849625930e-03 0.0 
0.0 0.0 -9.796923013958e-04 
-2.492954901946e-04 5.421975703603e-07 0.0 
5.421975703603e-07 1.421478567984e-03 0.0 
0.0 0.0 -2.487700610537e-04 
-1.054075874997e-03 3.591188931439e-06 0.0 
3.591188931439e-06 7.044165573929e-03 0.0 
0.0 0.0 -1.055800198362e-03 
-5.906078188001e-04 -3.257939390625e-06 0.0 
-3.257939390625e-06 3.796619652219e-03 0.0 
0.0 0.0 -5.891999696964e-04 
-7.180999395262e-04 1.178684333593e-07 0.0 
1.178684333593e-07 4.675154024113e-03 0.0 
0.0 0.0 -7.153500975001e-04 
-3.728153202836e-04 5.624284337180e-06 0.0 
5.624284337180e-06 2.280349559801e-03 0.0 
0.0 0.0 -3.721998919698e-04 
-5.103591414383e-04 -9.070033727982e-06 0.0 
-9.070033727982e-06 3.229749929793e-03 0.0 
0.0 0.0 -5.080103017801e-04 
-8.695833745558e-04 -3.060324942187e-06 0.0 
-3.060324942187e-06 5.711345853531e-03 0.0 
0.0 0.0 -8.638580894607e-04 
-8.186088136840e-04 -7.130242765400e-06 0.0 
-7.130242765400e-06 5.325410070609e-03 0.0 
0.0 0.0 -8.086477316853e-04 
-7.808475722582e-04 4.208348100153e-06 0.0 
4.208348100153e-06 5.088284712977e-03 0.0 
0.0 0.0 -7.738406155293e-04 
-6.192436331633e-04 -2.766602775213e-06 0.0 
-2.766602775213e-06 3.995359302638e-03 0.0 
0.0 0.0 -6.178822433291e-04 
-5.311490319335e-04 1.040423507353e-05 0.0 
1.040423507353e-05 3.373878795457e-03 0.0 
0.0 0.0 -5.288330985435e-04 
-4.650941372061e-04 3.123945634370e-06 0.0 
3.123945634370e-06 2.898874049441e-03 0.0 
0.0 0.0 -4.617239487405e-04 
-8.245081772930e-04 8.576273435810e-07 0.0 
8.576273435810e-07 5.414129368543e-03 0.0 
0.0 0.0 -8.213029907542e-04 
-1.107776256753e-03 4.822798209685e-06 0.0 
4.822798209685e-06 7.407183480602e-03 0.0 
0.0 0.0 -1.107475121065e-03 
-1.139123580733e-03 8.505935532864e-06 0.0 
8.505935532864e-06 7.608538315330e-03 0.0 
0.0 0.0 -1.136341617999e-03 
-1.199876040135e-03 -5.928463900679e-08 0.0 
-5.928463900679e-08 8.046533922637e-03 0.0 
0.0 0.0 -1.199268560344e-03 
-1.168168474149e-03 4.195650786326e-06 0.0 
4.195650786326e-06 7.812169121329e-03 0.0 
0.0 0.0 -1.164598082371e-03 
-1.102136352719e-03 2.455120919213e-06 0.0 
2.455120919213e-06 7.358887921961e-03 0.0 
0.0 0.0 -1.100413285504e-03 
-1.128466826395e-03 -6.206260029604e-06 0.0 
-6.206260029604e-06 7.555420673368e-03 0.0 
0.0 0.0 -1.129075729544e-03 
-1.196306272628e-03 1.070052804672e-05 0.0 
1.070052804672e-05 8.004295185816e-03 0.0 
0.0 0.0 -1.193594387005e-03 
-1.153224420722e-03 -4.335162695453e-08 0.0 
-4.335162695453e-08 7.767660328472e-03 0.0 
0.0 0.0 -1.159256375294e-03 
-1.235596637609e-03 -1.164422989239e-05 0.0 
-1.164422989239e-05 8.301735673801e-03 0.0 
0.0 0.0 -1.234286862126e-03 
-1.186419994292e-03 -1.475121185168e-05 0.0 
-1.475121185168e-05 7.963391228364e-03 0.0 
0.0 0.0 -1.187309181180e-03 
-1.120005548931e-03 2.940168057843e-06 0.0 
2.940168057843e-06 7.498615446152e-03 0.0 
0.0 0.0 -1.120864512401e-03 
-1.154875778754e-03 1.588860619805e-06 0.0 
1.588860619805e-06 7.686132635796e-03 0.0 
0.0 0.0 -1.147759711419e-03 
-1.213465252650e-03 -6.064802065597e-06 0.0 
-6.064802065597e-06 8.128624196229e-03 0.0 
0.0 0.0 -1.207767947030e-03 
-1.084932373400e-03 -2.016919157366e-06 0.0 
-2.016919157366e-06 7.235951787837e-03 0.0 
0.0 0.0 -1.082593982084e-03 
-1.254330692315e-03 -4.481726023087e-06 0.0 
-4.481726023087e-06 8.484172233715e-03 0.0 
0.0 0.0 -1.264544343569e-03 
-6.624416308103e-04 2.474610527098e-06 0.0 
2.474610527098e-06 4.298662523578e-03 0.0 
0.0 0.0 -6.621140475474e-04 
-1.785384896330e-04 7.817361308899e-06 0.0 
7.817361308899e-06 9.797346640556e-04 0.0 
0.0 0.0 -1.850918921636e-04 
-1.812548087706e-04 3.762529197937e-05 0.0 
3.762529197937e-05 9.321215546565e-04 0.0 
0.0 0.0 -1.767209935827e-04 
-7.539589003549e-04 1.955358916879e-06 0.0 
1.955358916879e-06 4.924010090496e-03 0.0 
0.0 0.0 -7.509174086159e-04 
-1.304930514548e-03 2.715145444476e-06 0.0 
2.715145444476e-06 8.760435441101e-03 0.0 
0.0 0.0 -1.299806302097e-03 
-1.304281806298e-03 1.236291440949e-07 0.0 
1.236291440949e-07 8.779429009152e-03 0.0 
0.0 0.0 -1.301753673823e-03 
-4.909194379315e-04 2.965411161254e-07 0.0 
2.965411161254e-07 3.101621980483e-03 0.0 
0.0 0.0 -4.895692906686e-04 
-1.302172698065e-03 -1.121402078109e-06 0.0 
-1.121402078109e-06 8.776859442822e-03 0.0 
0.0 0.0 -1.303413959896e-03 
-8.069978020621e-04 -2.494686579820e-06 0.0 
-2.494686579820e-06 5.276076784830e-03 0.0 
0.0 0.0 -8.012154088905e-04 
-3.570511327706e-04 3.379375906443e-06 0.0 
3.379375906443e-06 2.154968683645e-03 0.0 
0.0 0.0 -3.530685601169e-04 
-1.302556100553e-03 -9.155318300850e-06 0.0 
-9.155318300850e-06 8.779430224672e-03 0.0 
0.0 0.0 -1.304286792737e-03 
-1.070880273795e-03 7.212077137812e-06 0.0 
7.212077137812e-06 7.154951258216e-03 0.0 
0.0 0.0 -1.071440646998e-03 
-1.034235002280e-03 -1.284962224398e-06 0.0 
-1.284962224398e-06 6.899499474228e-03 0.0 
0.0 0.0 -1.034857077839e-03 
-1.003722632452e-03 2.735580280944e-06 0.0 
2.735580280944e-06 6.699806917378e-03 0.0 
0.0 0.0 -1.006057961993e-03 
-1.300150248326e-03 -1.392366785444e-05 0.0 
-1.392366785444e-05 8.797329976127e-03 0.0 
0.0 0.0 -1.305867370806e-03 
-9.260727886855e-04 3.160967958014e-07 0.0 
3.160967958014e-07 6.120955206479e-03 0.0 
0.0 0.0 -9.232948652302e-04 
-1.306196713142e-03 -8.296229578647e-06 0.0 
-8.296229578647e-06 8.804073325104e-03 0.0 
0.0 0.0 -1.306016332489e-03 
-9.052728605033e-04 -4.849094365265e-06 0.0 
-4.849094365265e-06 5.990555075409e-03 0.0 
0.0 0.0 -9.039903713831e-04 
-8.761060883680e-04 -1.507187481080e-06 0.0 
-1.507187481080e-06 5.787161046779e-03 0.0 
0.0 0.0 -8.747633066757e-04 
-8.116067085345e-04 -5.312091983299e-07 0.0 
-5.312091983299e-07 5.336659872116e-03 0.0 
0.0 0.0 -8.101682821885e-04 
-1.090435695547e-03 -5.471004820642e-06 0.0 
-5.471004820642e-06 7.297274492399e-03 0.0 
0.0 0.0 -1.092245366321e-03 
-1.304752605299e-03 5.119868144754e-06 0.0 
5.119868144754e-06 8.772978853590e-03 0.0 
0.0 0.0 -1.302677999426e-03 
-1.251945645214e-03 -2.706015879736e-06 0.0 
-2.706015879736e-06 8.407016214184e-03 0.0 
0.0 0.0 -1.248400714067e-03 
-1.246920299523e-03 -1.300681603294e-05 0.0 
-1.300681603294e-05 8.402409073512e-03 0.0 
0.0 0.0 -1.248426544684e-03 
-1.200536970879e-03 5.026882822613e-07 0.0 
5.026882822613e-07 8.002917905198e-03 0.0 
0.0 0.0 -1.189114855724e-03 
-1.300430795451e-03 -3.697458702307e-07 0.0 
-3.697458702307e-07 8.777742711435e-03 0.0 
0.0 0.0 -1.303398793257e-03 
-1.305040401458e-03 -2.477912411203e-06 0.0 
-2.477912411203e-06 8.792831145886e-03 0.0 
0.0 0.0 -1.306665994082e-03 
-1.309321026579e-03 -3.535422289667e-06 0.0 
-3.535422289667e-06 8.803291043654e-03 0.0 
0.0 0.0 -1.308500709484e-03 
-4.563282024572e-04 7.998262252154e-06 0.0 
7.998262252154e-06 2.871636865217e-03 0.0 
0.0 0.0 -4.564773689951e-04 
-4.946429183726e-04 2.495592359726e-06 0.0 
2.495592359726e-06 3.130328514227e-03 0.0 
0.0 0.0 -4.934415926888e-04 
-5.584596756046e-04 8.667542273929e-07 0.0 
8.667542273929e-07 3.577137698620e-03 0.0 
0.0 0.0 -5.576035839405e-04 
-5.302623041630e-04 -1.383760276119e-07 0.0 
-1.383760276119e-07 3.381956619872e-03 0.0 
0.0 0.0 -5.298816096007e-04 
-4.659671190879e-04 -4.163529231181e-07 0.0 
-4.163529231181e-07 2.931155601344e-03 0.0 
0.0 0.0 -4.652367627802e-04 
-5.016537237260e-04 2.063261409906e-06 0.0 
2.063261409906e-06 3.184734037305e-03 0.0 
0.0 0.0 -5.016361848483e-04 
-5.661735479294e-04 -1.745642799752e-06 0.0 
-1.745642799752e-06 3.632429034736e-03 0.0 
0.0 0.0 -5.657331850765e-04 
-4.736975024201e-04 4.166873871265e-06 0.0 
4.166873871265e-06 2.986059562016e-03 0.0 
0.0 0.0 -4.731795164401e-04 
-1.136859235010e-03 -3.377117996692e-07 0.0 
-3.377117996692e-07 7.623291641590e-03 0.0 
0.0 0.0 -1.138512926666e-03 
-1.305247072706e-03 8.619226715471e-06 0.0 
8.619226715471e-06 8.792398553622e-03 0.0 
0.0 0.0 -1.305779161548e-03 
-9.003036646772e-04 5.242872870069e-08 0.0 
5.242872870069e-08 5.967493708530e-03 0.0 
0.0 0.0 -9.007942405787e-04 
-8.714438606503e-04 -2.881495110636e-08 0.0 
-2.881495110636e-08 5.762779516703e-03 0.0 
0.0 0.0 -8.713600568839e-04 
-8.060291522058e-04 2.568870967989e-06 0.0 
2.568870967989e-06 5.307363937555e-03 0.0 
0.0 0.0 -8.059887332522e-04 
-6.767854044606e-04 -2.452778344841e-06 0.0 
-2.452778344841e-06 4.414816973838e-03 0.0 
0.0 0.0 -6.781883600425e-04 
-7.139648610370e-04 -1.142183076152e-06 0.0 
-1.142183076152e-06 4.673969170683e-03 0.0 
0.0 0.0 -7.153987595530e-04 
-7.802120795526e-04 -1.536270118856e-06 0.0 
-1.536270118856e-06 5.133033430624e-03 0.0 
0.0 0.0 -7.812419408864e-04 
-6.404629301343e-04 -4.612028746758e-06 0.0 
-4.612028746758e-06 4.156213633446e-03 0.0 
0.0 0.0 -6.407943132712e-04 
-9.874131908799e-04 -6.712457213202e-07 0.0 
-6.712457213202e-07 6.570776206516e-03 0.0 
0.0 0.0 -9.876394229526e-04 
-1.303361853095e-03 -8.460317239556e-06 0.0 
-8.460317239556e-06 8.788997264875e-03 0.0 
0.0 0.0 -1.305003056577e-03 
-8.872565026320e-04 -1.178797543715e-06 0.0 
-1.178797543715e-06 5.871190587017e-03 0.0 
0.0 0.0 -8.871663004355e-04 
-6.846436599198e-04 7.853769409057e-07 0.0 
7.853769409057e-07 4.472455721995e-03 0.0 
0.0 0.0 -6.865966444657e-04 
-7.539028914794e-04 -4.959050989062e-06 0.0 
-4.959050989062e-06 4.922681506756e-03 0.0 
0.0 0.0 -7.516786372745e-04 
-8.065421024267e-04 1.420005202742e-05 0.0 
1.420005202742e-05 5.322326400601e-03 0.0 
0.0 0.0 -8.094822736869e-04 
-8.086043951130e-04 -1.965516725377e-05 0.0 
-1.965516725377e-05 5.337498560082e-03 0.0 
0.0 0.0 -8.097394517040e-04 
-8.597670883848e-04 -1.890965562489e-05 0.0 
-1.890965562489e-05 5.752558822544e-03 0.0 
0.0 0.0 -8.733121467894e-04 
-8.092120706638e-04 -2.844643670805e-05 0.0 
-2.844643670805e-05 5.361887279047e-03 0.0 
0.0 0.0 -8.155917408702e-04 
-8.008122296240e-04 -3.960466263523e-06 0.0 
-3.960466263523e-06 5.274822743462e-03 0.0 
0.0 0.0 -8.015266587451e-04 
-8.309313177437e-04 -3.374628280082e-06 0.0 
-3.374628280082e-06 5.475720121039e-03 0.0 
0.0 0.0 -8.302790088839e-04 
-7.940624788884e-04 8.919203165315e-07 0.0 
8.919203165315e-07 5.224020544311e-03 0.0 
0.0 0.0 -7.937858958383e-04 
-8.582675862213e-04 -3.216784494421e-06 0.0 
-3.216784494421e-06 5.673950666655e-03 0.0 
0.0 0.0 -8.590670690980e-04 
-8.174868470622e-04 -1.134099850246e-05 0.0 
-1.134099850246e-05 5.408679153658e-03 0.0 
0.0 0.0 -8.213578559547e-04 
-7.534944197864e-04 -1.238974191231e-05 0.0 
-1.238974191231e-05 4.986891128186e-03 0.0 
0.0 0.0 -7.608744282309e-04 
-8.810221771506e-04 -8.901330273947e-06 0.0 
-8.901330273947e-06 5.862708610279e-03 0.0 
0.0 0.0 -8.866101721103e-04 
-8.418977428013e-04 7.461726785164e-06 0.0 
7.461726785164e-06 5.581554122099e-03 0.0 
0.0 0.0 -8.437388122980e-04 
-7.467365547974e-04 -1.323074519901e-05 0.0 
-1.323074519901e-05 4.916042254111e-03 0.0 
0.0 0.0 -7.509531518293e-04 
-6.281984343026e-05 -8.116789961943e-06 0.0 
-8.116789961943e-06 3.039228182762e-04 0.0 
0.0 0.0 -5.875963060191e-05 
-1.355333239518e-04 1.033404854003e-05 0.0 
1.033404854003e-05 6.720001517331e-04 0.0 
0.0 0.0 -1.336704791874e-04 
-1.282422711095e-04 -8.546555161067e-06 0.0 
-8.546555161067e-06 6.602474725937e-04 0.0 
0.0 0.0 -1.318084371690e-04 
-1.928083139697e-04 -4.221005670837e-06 0.0 
-4.221005670837e-06 1.041957248050e-03 0.0 
0.0 0.0 -1.954650243430e-04 
-2.029746956204e-04 1.944205005130e-05 0.0 
1.944205005130e-05 1.074330231207e-03 0.0 
0.0 0.0 -1.996745964068e-04 
-2.516532851574e-04 2.529704688885e-06 0.0 
2.529704688885e-06 1.468491691138e-03 0.0 
0.0 0.0 -2.586654344069e-04 
-2.430663838691e-04 -2.535368885226e-05 0.0 
-2.535368885226e-05 1.426461466079e-03 0.0 
0.0 0.0 -2.494736616194e-04 
-1.355920943443e-04 -1.133959606150e-05 0.0 
-1.133959606150e-05 6.743890404386e-04 0.0 
0.0 0.0 -1.329747880817e-04 
-5.916993316141e-05 -2.320129164536e-06 0.0 
-2.320129164536e-06 2.981065881978e-04 0.0 
0.0 0.0 -5.794854899121e-05 
-1.308876834568e-04 2.474427721016e-06 0.0 
2.474427721016e-06 6.544145800914e-04 0.0 
0.0 0.0 -1.315689628225e-04 
-5.700489183938e-05 1.676517162928e-06 0.0 
1.676517162928e-06 2.920832994483e-04 0.0 
0.0 0.0 -5.719792189481e-05 
-1.267870388795e-04 3.184293720065e-07 0.0 
3.184293720065e-07 6.426508649646e-04 0.0 
0.0 0.0 -1.299421249981e-04 
-1.994525793345e-04 4.316150581252e-06 0.0 
4.316150581252e-06 1.086316860704e-03 0.0 
0.0 0.0 -2.038865569970e-04 
-2.958463202672e-04 -2.325840136608e-07 0.0 
-2.325840136608e-07 1.726726422813e-03 0.0 
0.0 0.0 -2.925150634556e-04 
-1.301927001702e-03 1.803371535174e-05 0.0 
1.803371535174e-05 8.724914391627e-03 0.0 
0.0 0.0 -1.294874803588e-03 
-6.623633125060e-04 4.679424212514e-06 0.0 
4.679424212514e-06 4.281040174428e-03 0.0 
0.0 0.0 -6.595503360071e-04 
-6.354861751499e-04 1.876466608724e-05 0.0 
1.876466608724e-05 4.076331016795e-03 0.0 
0.0 0.0 -6.264797819744e-04 
-5.600446600075e-04 1.786449294601e-05 0.0 
1.786449294601e-05 3.606391450714e-03 0.0 
0.0 0.0 -5.641716646261e-04 
-6.018396249448e-04 -5.225124560804e-06 0.0 
-5.225124560804e-06 3.865969919155e-03 0.0 
0.0 0.0 -5.974662984275e-04 
-6.971605018600e-04 2.093612217780e-05 0.0 
2.093612217780e-05 4.459125829408e-03 0.0 
0.0 0.0 -6.865721209800e-04 
-5.253766316691e-04 1.379974747340e-05 0.0 
1.379974747340e-05 3.365120840457e-03 0.0 
0.0 0.0 -5.286920563404e-04 
-4.997160733495e-04 2.272416899085e-05 0.0 
2.272416899085e-05 3.215754431319e-03 0.0 
0.0 0.0 -5.038291843518e-04 
-6.458044435334e-05 -2.268465343248e-06 0.0 
-2.268465343248e-06 3.061057402814e-04 0.0 
0.0 0.0 -5.826474687104e-05 
-1.365107396446e-04 -1.511681688148e-05 0.0 
-1.511681688148e-05 6.671209083265e-04 0.0 
0.0 0.0 -1.338235891287e-04 
-1.329944671513e-04 1.728312419837e-05 0.0 
1.728312419837e-05 6.296869018316e-04 0.0 
0.0 0.0 -1.329549719063e-04 
-2.100970973320e-04 9.757108245941e-06 0.0 
9.757108245941e-06 1.064616598962e-03 0.0 
0.0 0.0 -1.976702944042e-04 
-1.907673612491e-04 -8.037251829839e-06 0.0 
-8.037251829839e-06 1.054607848416e-03 0.0 
0.0 0.0 -1.960684762570e-04 
-1.291399276805e-04 5.589927261901e-07 0.0 
5.589927261901e-07 6.717799826530e-04 0.0 
0.0 0.0 -1.329856363161e-04 
-1.332115243411e-04 1.116366171221e-05 0.0 
1.116366171221e-05 6.698553752901e-04 0.0 
0.0 0.0 -1.328726424774e-04 
-6.123018265422e-05 -2.226991271356e-06 0.0 
-2.226991271356e-06 2.966407899736e-04 0.0 
0.0 0.0 -5.786540529839e-05 
-1.318562850822e-04 -3.804233771773e-06 0.0 
-3.804233771773e-06 6.638255964619e-04 0.0 
0.0 0.0 -1.308611123410e-04 
-1.930153503724e-04 1.076682971487e-05 0.0 
1.076682971487e-05 1.064256298509e-03 0.0 
0.0 0.0 -1.994574706984e-04 
-5.202007941149e-05 -5.137534308526e-06 0.0 
-5.137534308526e-06 2.737802621694e-04 0.0 
0.0 0.0 -5.534513975843e-05 
-1.060096701056e-03 -2.854203109808e-05 0.0 
-2.854203109808e-05 7.080511066382e-03 0.0 
0.0 0.0 -1.060427308513e-03 
-1.101245431622e-03 -2.265554676226e-05 0.0 
-2.265554676226e-05 7.326835296988e-03 0.0 
0.0 0.0 -1.097082233180e-03 
-1.303771853134e-03 -3.955883839580e-06 0.0 
-3.955883839580e-06 8.773017437093e-03 0.0 
0.0 0.0 -1.300897016293e-03 
-7.525731418623e-04 -2.553654618198e-05 0.0 
-2.553654618198e-05 4.964909214712e-03 0.0 
0.0 0.0 -7.584009903415e-04 
-5.671099606206e-05 2.025225744384e-06 0.0 
2.025225744384e-06 2.971089711715e-04 0.0 
0.0 0.0 -5.884959645352e-05 
-1.296052575560e-03 -1.034030829996e-06 0.0 
-1.034030829996e-06 8.715505616406e-03 0.0 
0.0 0.0 -1.292107529982e-03 
-1.300241625373e-03 -1.196764903613e-05 0.0 
-1.196764903613e-05 8.782711832524e-03 0.0 
0.0 0.0 -1.303172775453e-03 
-1.297505069925e-03 9.380535181827e-06 0.0 
9.380535181827e-06 8.784349503541e-03 0.0 
0.0 0.0 -1.304823151597e-03 
-1.190737660973e-03 8.854859890049e-06 0.0 
8.854859890049e-06 7.990764728896e-03 0.0 
0.0 0.0 -1.191058493115e-03 
-1.217720710694e-03 3.907545697867e-06 0.0 
3.907545697867e-06 8.218811643119e-03 0.0 
0.0 0.0 -1.224322658093e-03 
-1.301588133362e-03 5.941663257066e-06 0.0 
5.941663257066e-06 8.722214772172e-03 0.0 
0.0 0.0 -1.294569364341e-03 
-4.491538872292e-04 3.425462149076e-06 0.0 
3.425462149076e-06 2.829494640627e-03 0.0 
0.0 0.0 -4.512809064328e-04 
-1.219121534789e-03 1.093707084889e-05 0.0 
1.093707084889e-05 8.264877250953e-03 0.0 
0.0 0.0 -1.225740639889e-03 
-1.181600644536e-03 2.602984545298e-06 0.0 
2.602984545298e-06 7.898254142128e-03 0.0 
0.0 0.0 -1.178628832109e-03 
-3.271245572877e-04 -7.559619564442e-07 0.0 
-7.559619564442e-07 1.969290585494e-03 0.0 
0.0 0.0 -3.268383546744e-04 
-4.353641825210e-04 2.390544680942e-06 0.0 
2.390544680942e-06 2.735090082528e-03 0.0 
0.0 0.0 -4.373623857420e-04 
-9.887113880157e-04 2.647202920658e-06 0.0 
2.647202920658e-06 6.590846789922e-03 0.0 
0.0 0.0 -9.899674718230e-04 
-9.119629022756e-04 -1.217041315548e-06 0.0 
-1.217041315548e-06 6.048161892543e-03 0.0 
0.0 0.0 -9.123979313600e-04 
-1.130689760044e-03 -2.404858458437e-06 0.0 
-2.404858458437e-06 7.563292742476e-03 0.0 
0.0 0.0 -1.130390451587e-03 
-9.324694232769e-04 5.707369421317e-08 0.0 
5.707369421317e-08 6.185987888161e-03 0.0 
0.0 0.0 -9.322225209316e-04 
-1.071273223037e-03 -3.400166334330e-06 0.0 
-3.400166334330e-06 7.166794807332e-03 0.0 
0.0 0.0 -1.073123358692e-03 
-1.246132006402e-03 2.306789458162e-05 0.0 
2.306789458162e-05 8.374889379432e-03 0.0 
0.0 0.0 -1.244129926109e-03 
-2.805652380378e-04 -4.717906580444e-06 0.0 
-4.717906580444e-06 1.732830044642e-03 0.0 
0.0 0.0 -2.939217362394e-04 
-9.366102056303e-04 6.334636788540e-06 0.0 
6.334636788540e-06 6.210934504197e-03 0.0 
0.0 0.0 -9.364826870394e-04 
-9.120035044512e-04 6.559904903640e-06 0.0 
6.559904903640e-06 6.042070421320e-03 0.0 
0.0 0.0 -9.130351872960e-04 
-1.076387052139e-03 -3.360138210492e-06 0.0 
-3.360138210492e-06 7.184148688862e-03 0.0 
0.0 0.0 -1.075939795031e-03 
-4.728102684627e-04 -4.847791376172e-06 0.0 
-4.847791376172e-06 2.971951481931e-03 0.0 
0.0 0.0 -4.709579147287e-04 
-7.280869989337e-04 -1.354131871902e-05 0.0 
-1.354131871902e-05 4.780585004203e-03 0.0 
0.0 0.0 -7.304257169629e-04 
-3.156217836785e-04 -5.089469505394e-06 0.0 
-5.089469505394e-06 1.850033331779e-03 0.0 
0.0 0.0 -3.104331955072e-04 
-1.248490279357e-03 4.323593742192e-06 0.0 
4.323593742192e-06 8.417241528006e-03 0.0 
0.0 0.0 -1.251461238623e-03 
-7.622164195474e-04 2.744443286204e-08 0.0 
2.744443286204e-08 4.979735740211e-03 0.0 
0.0 0.0 -7.590395520047e-04 
-7.692339302932e-04 1.865673827908e-06 0.0 
1.865673827908e-06 5.052106796517e-03 0.0 
0.0 0.0 -7.694287042311e-04 
-6.089514047186e-04 -2.827610219313e-06 0.0 
-2.827610219313e-06 3.952389816829e-03 0.0 
0.0 0.0 -6.120242822960e-04 
-4.863994982411e-04 4.620884363803e-06 0.0 
4.620884363803e-06 3.095071946727e-03 0.0 
0.0 0.0 -4.894362539292e-04 
-4.085285658609e-04 2.731393984612e-06 0.0 
2.731393984612e-06 2.545768838986e-03 0.0 
0.0 0.0 -4.100935076628e-04 
-6.992575820323e-04 4.870514854700e-06 0.0 
4.870514854700e-06 4.559959934010e-03 0.0 
0.0 0.0 -6.990242139688e-04 
-7.223263303115e-04 1.302313524945e-06 0.0 
1.302313524945e-06 4.731940689569e-03 0.0 
0.0 0.0 -7.237531747479e-04 
-1.024699739881e-03 1.653915686907e-06 0.0 
1.653915686907e-06 6.828723699735e-03 0.0 
0.0 0.0 -1.024340108609e-03 
-1.114669738223e-03 -2.759101931756e-06 0.0 
-2.759101931756e-06 7.438940293733e-03 0.0 
0.0 0.0 -1.112552678551e-03 
-7.837510010110e-05 1.769113863605e-05 0.0 
1.769113863605e-05 3.475076993491e-04 0.0 
0.0 0.0 -7.176178390651e-05 
-1.061119640742e-03 3.173187948481e-06 0.0 
3.173187948481e-06 7.087064478518e-03 0.0 
0.0 0.0 -1.061672265243e-03 
-8.547259828445e-04 -2.557127369106e-07 0.0 
-2.557127369106e-07 5.648936137093e-03 0.0 
0.0 0.0 -8.552253422611e-04 
-9.623974161653e-04 3.311768495808e-06 0.0 
3.311768495808e-06 6.381924133008e-03 0.0 
0.0 0.0 -9.599091010803e-04 
-1.065648191468e-03 -5.923271574286e-06 0.0 
-5.923271574286e-06 7.096345784584e-03 0.0 
0.0 0.0 -1.062640036239e-03 
-2.783998705012e-04 -2.298480854646e-06 0.0 
-2.298480854646e-06 1.715267207971e-03 0.0 
0.0 0.0 -2.909097700217e-04 
-1.100348444179e-03 -1.047118262826e-06 0.0 
-1.047118262826e-06 7.347575470432e-03 0.0 
0.0 0.0 -1.098747615487e-03 
-1.217488030174e-03 6.848117353209e-06 0.0 
6.848117353209e-06 8.139341092548e-03 0.0 
0.0 0.0 -1.212453547082e-03 
-8.838417845426e-04 -2.547521654436e-05 0.0 
-2.547521654436e-05 5.856172789859e-03 0.0 
0.0 0.0 -8.875094802107e-04 
-2.462642296247e-04 -5.029644419162e-06 0.0 
-5.029644419162e-06 1.395111957816e-03 0.0 
0.0 0.0 -2.442495876194e-04 
-8.759046619095e-04 5.034941322805e-06 0.0 
5.034941322805e-06 5.740576630140e-03 0.0 
0.0 0.0 -8.692469099983e-04 
-1.203793389362e-03 4.534763565521e-06 0.0 
4.534763565521e-06 8.059936526886e-03 0.0 
0.0 0.0 -1.202705989510e-03 
-1.079080060508e-03 -5.136331411328e-07 0.0 
-5.136331411328e-07 7.205755043523e-03 0.0 
0.0 0.0 -1.078220320736e-03 
-4.314372885713e-04 -1.108621221051e-05 0.0 
-1.108621221051e-05 2.708353444584e-03 0.0 
0.0 0.0 -4.336020471383e-04 
-7.948364969143e-04 -2.495821117465e-06 0.0 
-2.495821117465e-06 5.224923007330e-03 0.0 
0.0 0.0 -7.943514531093e-04 
-7.442299034792e-04 7.080946298810e-07 0.0 
7.080946298810e-07 4.865637424934e-03 0.0 
0.0 0.0 -7.428158978947e-04 
-6.789224573102e-04 -9.062719812299e-06 0.0 
-9.062719812299e-06 4.471649261705e-03 0.0 
0.0 0.0 -6.865907729104e-04 
-1.214586438871e-03 8.024689912005e-06 0.0 
8.024689912005e-06 8.094834481891e-03 0.0 
0.0 0.0 -1.206557591227e-03 
-8.183792108392e-04 -4.169826119302e-07 0.0 
-4.169826119302e-07 5.384604412960e-03 0.0 
0.0 0.0 -8.172945450071e-04 
-1.123489439230e-03 6.695635103125e-06 0.0 
6.695635103125e-06 7.497291039553e-03 0.0 
0.0 0.0 -1.120054252910e-03 
-9.239887439885e-04 -3.012520915635e-06 0.0 
-3.012520915635e-06 6.128004255690e-03 0.0 
0.0 0.0 -9.240809108919e-04 
-4.625644487372e-04 -4.132620430772e-06 0.0 
-4.132620430772e-06 2.914638302916e-03 0.0 
0.0 0.0 -4.629711029823e-04 
-1.121328625940e-03 -6.182944165331e-06 0.0 
-6.182944165331e-06 7.491651595506e-03 0.0 
0.0 0.0 -1.118919378802e-03 
-7.755037056980e-04 -1.629710765716e-06 0.0 
-1.629710765716e-06 5.087191610180e-03 0.0 
0.0 0.0 -7.743986277066e-04 
-1.165062879850e-03 -3.169874331000e-06 0.0 
-3.169874331000e-06 7.809274989077e-03 0.0 
0.0 0.0 -1.164614768973e-03 
-1.031438669585e-03 -5.272017896806e-06 0.0 
-5.272017896806e-06 6.875819044250e-03 0.0 
0.0 0.0 -1.031533309622e-03 
-6.383681651354e-04 -1.646563539662e-06 0.0 
-1.646563539662e-06 4.132113027582e-03 0.0 
0.0 0.0 -6.375205594687e-04 
-1.120494149395e-03 -5.362450288190e-06 0.0 
-5.362450288190e-06 7.500323563236e-03 0.0 
0.0 0.0 -1.121170216299e-03 
-7.780649319143e-04 1.815637845550e-06 0.0 
1.815637845550e-06 5.106477756251e-03 0.0 
0.0 0.0 -7.773091661689e-04 
-1.101658644117e-03 9.961254280383e-07 0.0 
9.961254280383e-07 7.356355521752e-03 0.0 
0.0 0.0 -1.099429584637e-03 
-7.271456150641e-04 1.682914491908e-06 0.0 
1.682914491908e-06 4.735785920808e-03 0.0 
0.0 0.0 -7.240542973723e-04 
-9.053111554421e-04 -2.304698340665e-06 0.0 
-2.304698340665e-06 5.989601996014e-03 0.0 
0.0 0.0 -9.041109700986e-04 
-9.863008524358e-04 -3.464876425147e-06 0.0 
-3.464876425147e-06 6.537147458198e-03 0.0 
0.0 0.0 -9.824247929831e-04 
-8.612973840953e-04 -1.473763681910e-07 0.0 
-1.473763681910e-07 5.687311619382e-03 0.0 
0.0 0.0 -8.608216255090e-04 
-9.529955923155e-04 1.728497531747e-05 0.0 
1.728497531747e-05 6.336375010902e-03 0.0 
0.0 0.0 -9.534332399069e-04 
-1.092284604608e-03 2.589702392236e-06 0.0 
2.589702392236e-06 7.290468944473e-03 0.0 
0.0 0.0 -1.090315851396e-03 
-3.119597294078e-04 5.757369509454e-07 0.0 
5.757369509454e-07 1.828570008309e-03 0.0 
0.0 0.0 -3.071334217218e-04 
-5.718786607335e-04 -4.107371136138e-07 0.0 
-4.107371136138e-07 3.675898340669e-03 0.0 
0.0 0.0 -5.719042557127e-04 
-9.488327861295e-04 -5.202841949995e-06 0.0 
-5.202841949995e-06 6.331676782321e-03 0.0 
0.0 0.0 -9.536514739466e-04 
-1.157212024015e-03 -6.515732433154e-06 0.0 
-6.515732433154e-06 7.701144359915e-03 0.0 
0.0 0.0 -1.150585697120e-03 
-1.224312444037e-03 6.690841738660e-06 0.0 
6.690841738660e-06 8.269264616708e-03 0.0 
0.0 0.0 -1.229329624135e-03 
-6.820956806615e-04 3.615386019402e-06 0.0 
3.615386019402e-06 4.429302489243e-03 0.0 
0.0 0.0 -6.801182747099e-04 
-1.081664045678e-03 -5.547367653092e-06 0.0 
-5.547367653092e-06 7.227268260236e-03 0.0 
0.0 0.0 -1.081576975854e-03 
-1.187584404498e-03 2.370146928360e-06 0.0 
2.370146928360e-06 7.946791552093e-03 0.0 
0.0 0.0 -1.185355684152e-03 
-7.511569300737e-04 3.681739321804e-07 0.0 
3.681739321804e-07 4.931952546785e-03 0.0 
0.0 0.0 -7.524367508395e-04 
-3.356805227239e-04 3.379744479913e-06 0.0 
3.379744479913e-06 2.005119320146e-03 0.0 
0.0 0.0 -3.333104686742e-04 
-2.618377986137e-04 -2.555233257103e-06 0.0 
-2.555233257103e-06 1.542022096797e-03 0.0 
0.0 0.0 -2.654833071040e-04 
-5.104550227812e-04 2.453007206934e-06 0.0 
2.453007206934e-06 3.238650363468e-03 0.0 
0.0 0.0 -5.092532232582e-04 
-7.832353398933e-04 -9.887778138092e-09 0.0 
-9.887778138092e-09 5.137653853930e-03 0.0 
0.0 0.0 -7.817448632792e-04 
-8.173389799679e-04 -1.106611203733e-06 0.0 
-1.106611203733e-06 5.390375532825e-03 0.0 
0.0 0.0 -8.181699076277e-04 
-1.246124432281e-03 8.592622963334e-06 0.0 
8.592622963334e-06 8.369587963902e-03 0.0 
0.0 0.0 -1.242275372262e-03 
-1.107849420052e-03 -3.778759466969e-06 0.0 
-3.778759466969e-06 7.425444910215e-03 0.0 
0.0 0.0 -1.110186454522e-03 
-1.040708302916e-03 -6.884984212010e-06 0.0 
-6.884984212010e-06 6.941970815521e-03 0.0 
0.0 0.0 -1.040857148505e-03 
-1.527209700993e-04 7.546329121840e-06 0.0 
7.546329121840e-06 7.439800217049e-04 0.0 
0.0 0.0 -1.519369657486e-04 
-7.102565865705e-04 9.145208254822e-06 0.0 
9.145208254822e-06 4.653234839291e-03 0.0 
0.0 0.0 -7.126371066839e-04 
-1.135597595821e-03 -4.213475059682e-06 0.0 
-4.213475059682e-06 7.626732622695e-03 0.0 
0.0 0.0 -1.139074001596e-03 
-8.226822624901e-04 -1.510040807202e-06 0.0 
-1.510040807202e-06 5.420363658064e-03 0.0 
0.0 0.0 -8.223634564932e-04 
-1.130518051871e-03 1.404153544733e-06 0.0 
1.404153544733e-06 7.542933512680e-03 0.0 
0.0 0.0 -1.126725356868e-03 
-7.730615027956e-04 -9.222257900681e-07 0.0 
-9.222257900681e-07 5.135473060459e-03 0.0 
0.0 0.0 -7.817916451012e-04 
-1.247411460160e-03 -9.243273431626e-06 0.0 
-9.243273431626e-06 8.408376939558e-03 0.0 
0.0 0.0 -1.249754184115e-03 
-5.771690213087e-04 1.052821776230e-05 0.0 
1.052821776230e-05 3.703652171226e-03 0.0 
0.0 0.0 -5.757576642514e-04 
-1.170100609579e-03 -4.592953287667e-06 0.0 
-4.592953287667e-06 7.841109684677e-03 0.0 
0.0 0.0 -1.168790087466e-03 
-1.048740829087e-03 7.093154405119e-06 0.0 
7.093154405119e-06 6.993148920806e-03 0.0 
0.0 0.0 -1.047452346298e-03 
-5.261911269690e-04 1.909166491034e-06 0.0 
1.909166491034e-06 3.348024093927e-03 0.0 
0.0 0.0 -5.248669331578e-04 
-7.497340550745e-04 3.779029275121e-06 0.0 
3.779029275121e-06 4.910648048132e-03 0.0 
0.0 0.0 -7.498068730476e-04 
-1.245763281564e-03 6.672330238112e-06 0.0 
6.672330238112e-06 8.371772027766e-03 0.0 
0.0 0.0 -1.243807156011e-03 
-1.117703748533e-03 2.194090469623e-06 0.0 
2.194090469623e-06 7.455079503703e-03 0.0 
0.0 0.0 -1.114542488500e-03 
-9.240113812817e-04 -1.198482107009e-06 0.0 
-1.198482107009e-06 6.127698402996e-03 0.0 
0.0 0.0 -9.240346875991e-04 
-7.861216138726e-04 -9.318371198968e-07 0.0 
-9.318371198968e-07 5.164682558518e-03 0.0 
0.0 0.0 -7.856950878877e-04 
-6.177367695525e-04 -9.517786211563e-06 0.0 
-9.517786211563e-06 3.998918706787e-03 0.0 
0.0 0.0 -6.191377506773e-04 
-8.459389819467e-04 -1.995047945433e-06 0.0 
-1.995047945433e-06 5.590510800112e-03 0.0 
0.0 0.0 -8.467704336814e-04 
-9.417404110639e-04 -4.713677469938e-06 0.0 
-4.713677469938e-06 6.237570578551e-03 0.0 
0.0 0.0 -9.395224721591e-04 
-1.301810218994e-03 1.765430740851e-06 0.0 
1.765430740851e-06 8.802491938361e-03 0.0 
0.0 0.0 -1.306889097489e-03 
-1.157353199815e-03 -3.220404905656e-06 0.0 
-3.220404905656e-06 7.685679656852e-03 0.0 
0.0 0.0 -1.148622835147e-03 
-9.680073786691e-04 -7.171826150540e-06 0.0 
-7.171826150540e-06 6.444265355765e-03 0.0 
0.0 0.0 -9.696660045843e-04 
-8.086257517038e-04 -2.588621595282e-06 0.0 
-2.588621595282e-06 5.331381971752e-03 0.0 
0.0 0.0 -8.097439408559e-04 
-9.758814597954e-04 -1.266881133518e-06 0.0 
-1.266881133518e-06 6.485358460050e-03 0.0 
0.0 0.0 -9.749840279683e-04 
-1.830817571470e-04 -6.180925807514e-06 0.0 
-6.180925807514e-06 1.047535156776e-03 0.0 
0.0 0.0 -1.970089232863e-04 
-6.448165884168e-04 4.844410112050e-06 0.0 
4.844410112050e-06 4.184395435775e-03 0.0 
0.0 0.0 -6.447622526173e-04 
-8.380376970069e-04 -3.326700526570e-06 0.0 
-3.326700526570e-06 5.530905952602e-03 0.0 
0.0 0.0 -8.382314227178e-04 
-5.380831595536e-04 5.638960694158e-07 0.0 
5.638960694158e-07 3.435054469080e-03 0.0 
0.0 0.0 -5.374563060555e-04 
-8.145911171393e-04 -5.272270293877e-07 0.0 
-5.272270293877e-07 5.360444702331e-03 0.0 
0.0 0.0 -8.136389561866e-04 
-1.227174802196e-03 1.276784792674e-05 0.0 
1.276784792674e-05 8.302917635780e-03 0.0 
0.0 0.0 -1.234277959947e-03 
-8.676280294557e-04 -2.040186177103e-06 0.0 
-2.040186177103e-06 5.731120870230e-03 0.0 
0.0 0.0 -8.668853676281e-04 
-6.021329393957e-04 -1.386838022365e-06 0.0 
-1.386838022365e-06 3.881394728410e-03 0.0 
0.0 0.0 -6.015264011954e-04 
-8.964491756309e-04 6.553805878038e-07 0.0 
6.553805878038e-07 5.929532426753e-03 0.0 
0.0 0.0 -8.955981815692e-04 
-5.512424861372e-04 -5.409275769266e-06 0.0 
-5.409275769266e-06 3.527258760375e-03 0.0 
0.0 0.0 -5.519888345566e-04 
-9.985595773763e-04 -1.015463228059e-05 0.0 
-1.015463228059e-05 6.646851321069e-03 0.0 
0.0 0.0 -9.983267706061e-04 
-9.215064714085e-04 1.407126120283e-07 0.0 
1.407126120283e-07 6.123536504565e-03 0.0 
0.0 0.0 -9.243533921793e-04 
-1.004433427130e-03 -6.175544373032e-06 0.0 
-6.175544373032e-06 6.679704057184e-03 0.0 
0.0 0.0 -1.003151257071e-03 
-2.014979142818e-04 -1.982424414319e-05 0.0 
-1.982424414319e-05 1.118628598720e-03 0.0 
0.0 0.0 -2.040322045631e-04 
-9.524490800155e-04 -1.599154771325e-06 0.0 
-1.599154771325e-06 6.321577882661e-03 0.0 
0.0 0.0 -9.517466134248e-04 
-1.151323095747e-03 8.970357597644e-06 0.0 
8.970357597644e-06 7.737810625971e-03 0.0 
0.0 0.0 -1.155419075730e-03 
-5.642242598448e-04 4.052530886012e-06 0.0 
4.052530886012e-06 3.629354201895e-03 0.0 
0.0 0.0 -5.654343806685e-04 
-8.430123869833e-04 1.789712430402e-06 0.0 
1.789712430402e-06 5.558821852331e-03 0.0 
0.0 0.0 -8.420324705410e-04 
-1.064235786948e-03 -6.087517053088e-06 0.0 
-6.087517053088e-06 7.102031703649e-03 0.0 
0.0 0.0 -1.063653581392e-03 
-4.868392782287e-04 -2.122282903210e-05 0.0 
-2.122282903210e-05 3.049667270729e-03 0.0 
0.0 0.0 -4.839843007303e-04 
-9.081670479201e-04 2.415755652445e-07 0.0 
2.415755652445e-07 6.014517114267e-03 0.0 
0.0 0.0 -9.074658271045e-04 
-1.068096740287e-03 -5.575043742395e-06 0.0 
-5.575043742395e-06 7.125147388201e-03 0.0 
0.0 0.0 -1.067288052377e-03 
-9.808487270250e-04 4.928616331368e-06 0.0 
4.928616331368e-06 6.520553626334e-03 0.0 
0.0 0.0 -9.801762873724e-04 
-8.470889807538e-04 7.350311736707e-07 0.0 
7.350311736707e-07 5.583629027931e-03 0.0 
0.0 0.0 -8.455731917576e-04 
-9.738610544212e-04 -1.605198629571e-06 0.0 
-1.605198629571e-06 6.476533283027e-03 0.0 
0.0 0.0 -9.738262179589e-04 
-5.107285056984e-04 1.726041735429e-05 0.0 
1.726041735429e-05 3.222108758113e-03 0.0 
0.0 0.0 -5.057041985798e-04 
-4.224983753939e-04 8.320492048914e-06 0.0 
8.320492048914e-06 2.639215696168e-03 0.0 
0.0 0.0 -4.238464704258e-04 
-3.592226638991e-04 1.930188485338e-06 0.0 
1.930188485338e-06 2.185168436497e-03 0.0 
0.0 0.0 -3.586180353125e-04 
-6.301304693072e-04 -1.957277653439e-06 0.0 
-1.957277653439e-06 4.076615728565e-03 0.0 
0.0 0.0 -6.294631353604e-04 
-1.103647244802e-03 -2.847244465013e-06 0.0 
-2.847244465013e-06 7.378786394117e-03 0.0 
0.0 0.0 -1.103081964739e-03 
-2.559482480598e-04 -2.299545213337e-05 0.0 
-2.299545213337e-05 1.449439224095e-03 0.0 
0.0 0.0 -2.521214004998e-04 
-1.054932560315e-03 -8.075575040938e-06 0.0 
-8.075575040938e-06 7.041307941420e-03 0.0 
0.0 0.0 -1.054898413167e-03 
-2.650995954687e-04 -9.741906018429e-06 0.0 
-9.741906018429e-06 1.540523614087e-03 0.0 
0.0 0.0 -2.660187670962e-04 
-5.941857965255e-04 -1.478675907358e-06 0.0 
-1.478675907358e-06 3.826673915507e-03 0.0 
0.0 0.0 -5.935709857392e-04 
-1.072876015775e-03 5.343583090716e-06 0.0 
5.343583090716e-06 7.192683716525e-03 0.0 
0.0 0.0 -1.077081564483e-03 
-9.321388457541e-04 -4.809931635804e-05 0.0 
-4.809931635804e-05 6.189086367178e-03 0.0 
0.0 0.0 -9.315431351609e-04 
-6.217808576271e-04 7.207492673365e-07 0.0 
7.207492673365e-07 4.019499781701e-03 0.0 
0.0 0.0 -6.211106552582e-04 
-3.980785928310e-04 9.124267879156e-06 0.0 
9.124267879156e-06 2.462820491612e-03 0.0 
0.0 0.0 -3.989951351066e-04 
-5.857792725332e-04 1.985647166840e-06 0.0 
1.985647166840e-06 3.767357559114e-03 0.0 
0.0 0.0 -5.850331209179e-04 
-9.112445775697e-04 1.341366700746e-06 0.0 
1.341366700746e-06 6.030641515549e-03 0.0 
0.0 0.0 -9.098959706900e-04 
-6.128747489382e-04 2.675469426610e-06 0.0 
2.675469426610e-06 3.959229262623e-03 0.0 
0.0 0.0 -6.124823626799e-04 
-5.756573688348e-04 3.659606376946e-06 0.0 
3.659606376946e-06 3.704306399129e-03 0.0 
0.0 0.0 -5.760838601101e-04 
-1.248717565768e-03 -5.535813130846e-06 0.0 
-5.535813130846e-06 8.366851373819e-03 0.0 
0.0 0.0 -1.242975171717e-03 
-6.019390184711e-04 5.185969946797e-06 0.0 
5.185969946797e-06 3.892334269077e-03 0.0 
0.0 0.0 -6.030381679152e-04 
-1.295271260153e-03 -1.307857609192e-05 0.0 
-1.307857609192e-05 8.801391727423e-03 0.0 
0.0 0.0 -1.305370344976e-03 
-1.297876901994e-03 -6.017750132352e-06 0.0 
-6.017750132352e-06 8.756844234735e-03 0.0 
0.0 0.0 -1.298405437673e-03 
-8.024513087945e-04 -3.501513188687e-05 0.0 
-3.501513188687e-05 5.274019348334e-03 0.0 
0.0 0.0 -7.997855503562e-04 
-4.254874939528e-04 2.211998048868e-05 0.0 
2.211998048868e-05 2.578130903576e-03 0.0 
0.0 0.0 -4.121418992062e-04 
-6.508445551723e-05 3.373963354691e-06 0.0 
3.373963354691e-06 3.129607731290e-04 0.0 
0.0 0.0 -6.767973558354e-05 
-4.292600751843e-04 -1.740584050413e-05 0.0 
-1.740584050413e-05 2.722306669060e-03 0.0 
0.0 0.0 -4.369243393394e-04 
-4.999202719491e-04 4.843301359547e-06 0.0 
4.843301359547e-06 3.182731173833e-03 0.0 
0.0 0.0 -5.013603847490e-04 
-1.049593438910e-03 4.881772467582e-07 0.0 
4.881772467582e-07 6.980157933883e-03 0.0 
0.0 0.0 -1.045752072333e-03 
-8.016418655660e-04 8.516902983733e-06 0.0 
8.516902983733e-06 5.282246051091e-03 0.0 
0.0 0.0 -8.029817139903e-04 
-4.608886666597e-04 1.012378092174e-05 0.0 
1.012378092174e-05 2.916090626050e-03 0.0 
0.0 0.0 -4.630712860745e-04 
-1.246806949158e-03 1.140227857437e-06 0.0 
1.140227857437e-06 8.413894031447e-03 0.0 
0.0 0.0 -1.250093291501e-03 
-1.307722546221e-03 -1.676098542472e-05 0.0 
-1.676098542472e-05 8.791128539895e-03 0.0 
0.0 0.0 -1.306737725957e-03 
-1.028575866269e-03 -1.191239422504e-05 0.0 
-1.191239422504e-05 6.846657277970e-03 0.0 
0.0 0.0 -1.028769680629e-03 
-1.163087821654e-03 1.345534459018e-05 0.0 
1.345534459018e-05 7.719562356736e-03 0.0 
0.0 0.0 -1.152835590205e-03 
-1.010012111677e-03 5.602799068576e-06 0.0 
5.602799068576e-06 6.735304706068e-03 0.0 
0.0 0.0 -1.010595862668e-03 
-1.192917845756e-03 -1.946426676365e-05 0.0 
-1.946426676365e-05 7.943592006894e-03 0.0 
0.0 0.0 -1.185717314024e-03 
-7.402744024553e-04 -5.561571202994e-05 0.0 
-5.561571202994e-05 4.875197844443e-03 0.0 
0.0 0.0 -7.451086181774e-04 
-1.274079564101e-04 8.533594738717e-07 0.0 
8.533594738717e-07 6.386951496409e-04 0.0 
0.0 0.0 -1.305770345747e-04 
-9.879127130266e-04 1.076817561932e-05 0.0 
1.076817561932e-05 6.567110452730e-03 0.0 
0.0 0.0 -9.879584850274e-04 
-3.534515362331e-04 7.236051672509e-06 0.0 
7.236051672509e-06 2.087202708593e-03 0.0 
0.0 0.0 -3.437331075899e-04 
-3.524709716392e-04 5.779652154939e-07 0.0 
5.779652154939e-07 2.140761807693e-03 0.0 
0.0 0.0 -3.524505972177e-04 
-2.862323044565e-04 -1.529779689703e-06 0.0 
-1.529779689703e-06 1.660184670344e-03 0.0 
0.0 0.0 -2.832406441101e-04 
-4.971401695179e-04 3.027225826791e-06 0.0 
3.027225826791e-06 3.086653370969e-03 0.0 
0.0 0.0 -4.856826860430e-04 
-1.849802147030e-04 7.362673378462e-06 0.0 
7.362673378462e-06 1.024898749324e-03 0.0 
0.0 0.0 -1.942844358666e-04 
-2.871589559832e-04 8.860091783272e-06 0.0 
8.860091783272e-06 1.702387296045e-03 0.0 
0.0 0.0 -2.888902821290e-04 
-1.252722980053e-03 -1.832850037119e-05 0.0 
-1.832850037119e-05 8.369674222349e-03 0.0 
0.0 0.0 -1.245112051941e-03 
-7.926742292646e-04 -4.732996368771e-05 0.0 
-4.732996368771e-05 5.282443543312e-03 0.0 
0.0 0.0 -8.050116406322e-04 
-1.106262153398e-03 -9.161465296484e-06 0.0 
-9.161465296484e-06 7.422861484469e-03 0.0 
0.0 0.0 -1.110409235593e-03 
-2.195876704695e-04 6.903728268319e-06 0.0 
6.903728268319e-06 1.223775342103e-03 0.0 
0.0 0.0 -2.210826640180e-04 
-1.251801969841e-03 -1.462670654941e-05 0.0 
-1.462670654941e-05 8.397461752409e-03 0.0 
0.0 0.0 -1.247366155457e-03 
-1.250359073208e-03 6.645071777125e-06 0.0 
6.645071777125e-06 8.395286537502e-03 0.0 
0.0 0.0 -1.246608778627e-03 
-1.310061522222e-03 -1.730900586740e-05 0.0 
-1.730900586740e-05 8.803293803047e-03 0.0 
0.0 0.0 -1.306249356034e-03 
-1.172119357565e-03 -2.987465004731e-06 0.0 
-2.987465004731e-06 7.878008992010e-03 0.0 
0.0 0.0 -1.176371721005e-03 
-2.180388128944e-04 -2.924544915624e-06 0.0 
-2.924544915624e-06 1.180274271759e-03 0.0 
0.0 0.0 -2.130604828246e-04 
-8.442593127821e-04 -4.359073983633e-05 0.0 
-4.359073983633e-05 5.668047935442e-03 0.0 
0.0 0.0 -8.603500797662e-04 
-1.256774464996e-03 -9.387217043004e-06 0.0 
-9.387217043004e-06 8.415646483150e-03 0.0 
0.0 0.0 -1.250827372426e-03 
-1.072962494745e-03 -3.075351322395e-06 0.0 
-3.075351322395e-06 7.220489030587e-03 0.0 
0.0 0.0 -1.080253149739e-03 
-1.299956315864e-03 5.907340655945e-05 0.0 
5.907340655945e-05 8.822006705032e-03 0.0 
0.0 0.0 -1.309985050881e-03 
-7.806106637019e-04 -1.684448248671e-06 0.0 
-1.684448248671e-06 5.212548371629e-03 0.0 
0.0 0.0 -7.979019438933e-04 
-1.254167562389e-03 1.146355027263e-05 0.0 
1.146355027263e-05 8.413941643761e-03 0.0 
0.0 0.0 -1.252774941638e-03 
-2.773224831107e-04 -1.248540399814e-05 0.0 
-1.248540399814e-05 1.578602427722e-03 0.0 
0.0 0.0 -2.737139294578e-04 
-1.253589576776e-03 1.816421682348e-05 0.0 
1.816421682348e-05 8.411285343410e-03 0.0 
0.0 0.0 -1.254166199180e-03 
-1.115104807484e-03 -2.535602796044e-06 0.0 
-2.535602796044e-06 7.430825592014e-03 0.0 
0.0 0.0 -1.110316242656e-03 
-8.788088159188e-04 2.953384655579e-05 0.0 
2.953384655579e-05 5.848517526204e-03 0.0 
0.0 0.0 -8.840149073763e-04 
-8.453655219935e-04 1.276109640107e-05 0.0 
1.276109640107e-05 5.644378390582e-03 0.0 
0.0 0.0 -8.570326279659e-04 
-1.251636506986e-03 8.563362149488e-06 0.0 
8.563362149488e-06 8.428656629745e-03 0.0 
0.0 0.0 -1.256337174517e-03 
-1.259327999631e-03 -2.468624830886e-05 0.0 
-2.468624830886e-05 8.412107540714e-03 0.0 
0.0 0.0 -1.249505442739e-03 
-1.752421740853e-04 1.599785091571e-05 0.0 
1.599785091571e-05 9.248205746741e-04 0.0 
0.0 0.0 -1.769373265848e-04 
-1.014009013286e-03 3.718452203751e-05 0.0 
3.718452203751e-05 6.827048883928e-03 0.0 
0.0 0.0 -1.024357608964e-03 
-6.037112023629e-04 -1.928016981808e-05 0.0 
-1.928016981808e-05 3.870166564208e-03 0.0 
0.0 0.0 -5.984289768806e-04 
-1.136473903534e-04 -2.305801768321e-05 0.0 
-2.305801768321e-05 5.992740239483e-04 0.0 
0.0 0.0 -1.205697443559e-04 
-1.256657915508e-03 3.816415809549e-05 0.0 
3.816415809549e-05 8.403684845898e-03 0.0 
0.0 0.0 -1.249521112489e-03 
-1.181297459508e-03 -1.601502097637e-06 0.0 
-1.601502097637e-06 7.855797415999e-03 0.0 
0.0 0.0 -1.172189067419e-03 
-1.260809781498e-03 3.729628833418e-05 0.0 
3.729628833418e-05 8.413738862441e-03 0.0 
0.0 0.0 -1.251863004148e-03 
-2.027346260532e-04 2.709152210177e-05 0.0 
2.709152210177e-05 1.045860090397e-03 0.0 
0.0 0.0 -1.953152674555e-04 
-1.282550990439e-04 1.596967550426e-05 0.0 
1.596967550426e-05 5.957593377885e-04 0.0 
0.0 0.0 -1.273034037094e-04 
-1.264740521523e-03 1.076136126604e-05 0.0 
1.076136126604e-05 8.488256231164e-03 0.0 
0.0 0.0 -1.258522865334e-03 
-1.257630123801e-03 7.011893020699e-06 0.0 
7.011893020699e-06 8.461160637007e-03 0.0 
0.0 0.0 -1.257106814994e-03 
-2.964921431859e-04 1.458101898900e-05 0.0 
1.458101898900e-05 1.817377003358e-03 0.0 
0.0 0.0 -3.034980657766e-04 
-1.315300675602e-03 -4.616213654122e-06 0.0 
-4.616213654122e-06 8.874722920157e-03 0.0 
0.0 0.0 -1.314710167832e-03 
-1.230668747669e-04 -1.081893831763e-05 0.0 
-1.081893831763e-05 5.709731362741e-04 0.0 
0.0 0.0 -1.229206800733e-04 
-7.274132408296e-04 6.183789390236e-06 0.0 
6.183789390236e-06 4.811004360547e-03 0.0 
0.0 0.0 -7.389643750272e-04 
-1.204537552606e-04 -1.859174322418e-05 0.0 
-1.859174322418e-05 6.217166808925e-04 0.0 
0.0 0.0 -1.247417965529e-04 
-1.299793796178e-03 -5.184403467026e-05 0.0 
-5.184403467026e-05 8.811604799613e-03 0.0 
0.0 0.0 -1.308531455474e-03 
-1.262934174837e-03 2.444499081750e-05 0.0 
2.444499081750e-05 8.445031740868e-03 0.0 
0.0 0.0 -1.254845750201e-03 
-6.580718270354e-04 3.721306501361e-05 0.0 
3.721306501361e-05 4.264446760778e-03 0.0 
0.0 0.0 -6.564513288157e-04 
-7.456337922437e-04 2.770990182636e-05 0.0 
2.770990182636e-05 4.941313475091e-03 0.0 
0.0 0.0 -7.541421605440e-04 
-4.450321519268e-04 1.831097352044e-05 0.0 
1.831097352044e-05 2.791375237210e-03 0.0 
0.0 0.0 -4.426424662127e-04 
-1.211596464916e-03 3.979318020068e-05 0.0 
3.979318020068e-05 8.090084984478e-03 0.0 
0.0 0.0 -1.203498912175e-03 
-1.699334618160e-04 1.120862622912e-05 0.0 
1.120862622912e-05 9.446237105802e-04 0.0 
0.0 0.0 -1.843356288727e-04 
-1.269994123481e-03 -1.450914975506e-05 0.0 
-1.450914975506e-05 8.504040731719e-03 0.0 
0.0 0.0 -1.260296891839e-03 
-1.268600913962e-03 -6.159942340733e-06 0.0 
-6.159942340733e-06 8.509424202183e-03 0.0 
0.0 0.0 -1.261416966621e-03 
-1.266492101745e-03 9.280004247652e-06 0.0 
9.280004247652e-06 8.502341661499e-03 0.0 
0.0 0.0 -1.260618436842e-03 
-1.320646394007e-03 1.164813461446e-06 0.0 
1.164813461446e-06 8.896090470956e-03 0.0 
0.0 0.0 -1.317725628150e-03 
-1.063917710965e-04 3.406664009707e-05 0.0 
3.406664009707e-05 5.707022560973e-04 0.0 
0.0 0.0 -1.219614697575e-04 
-1.271929683323e-03 -9.688594658042e-06 0.0 
-9.688594658042e-06 8.520583266263e-03 0.0 
0.0 0.0 -1.263090216482e-03 
-1.211976787312e-03 3.126546850388e-05 0.0 
3.126546850388e-05 8.084092320638e-03 0.0 
0.0 0.0 -1.202239909569e-03 
-7.453046702514e-04 4.651614229786e-05 0.0 
4.651614229786e-05 4.880400084605e-03 0.0 
0.0 0.0 -7.439744481034e-04 
-1.252851707889e-03 4.006401018327e-05 0.0 
4.006401018327e-05 8.422629498426e-03 0.0 
0.0 0.0 -1.252574368527e-03 
-5.410687361656e-04 2.769520936269e-05 0.0 
2.769520936269e-05 3.454688790362e-03 0.0 
0.0 0.0 -5.383891422301e-04 
-2.371733345551e-04 -4.470106712651e-05 0.0 
-4.470106712651e-05 1.418248240622e-03 0.0 
0.0 0.0 -2.492021827984e-04 
-1.298998890690e-03 -2.770464845184e-05 0.0 
-2.770464845184e-05 8.833071909488e-03 0.0 
0.0 0.0 -1.313490227100e-03 
-4.294380069023e-05 -4.186010349566e-06 0.0 
-4.186010349566e-06 2.320436162997e-04 0.0 
0.0 0.0 -5.297760877488e-05 
-7.470694764219e-04 -2.192265105768e-05 0.0 
-2.192265105768e-05 4.855390412225e-03 0.0 
0.0 0.0 -7.402411036050e-04 
-1.312354484328e-03 4.131093532360e-05 0.0 
4.131093532360e-05 8.846630708308e-03 0.0 
0.0 0.0 -1.313492844077e-03 
-2.211400451138e-04 -3.676306702383e-06 0.0 
-3.676306702383e-06 1.335213202641e-03 0.0 
0.0 0.0 -2.401910970206e-04 
-8.452827785452e-04 -2.606429286929e-05 0.0 
-2.606429286929e-05 5.603903241888e-03 0.0 
0.0 0.0 -8.489638187885e-04 
-1.255507124853e-03 -9.186014831563e-06 0.0 
-9.186014831563e-06 8.480922712531e-03 0.0 
0.0 0.0 -1.260211869575e-03 
-8.025976065576e-04 9.592064473669e-06 0.0 
9.592064473669e-06 5.261098351640e-03 0.0 
0.0 0.0 -7.986629621775e-04 
-1.151240916671e-03 -6.084869299020e-05 0.0 
-6.084869299020e-05 7.669030971500e-03 0.0 
0.0 0.0 -1.148445367820e-03 
-2.192829735374e-04 1.243334644941e-05 0.0 
1.243334644941e-05 1.310510961281e-03 0.0 
0.0 0.0 -2.379222736554e-04 
-3.921137447330e-05 -2.374603163330e-06 0.0 
-2.374603163330e-06 2.327919393128e-04 0.0 
0.0 0.0 -4.855001867801e-05 
-9.645913781642e-04 -4.083102734347e-05 0.0 
-4.083102734347e-05 6.424950689754e-03 0.0 
0.0 0.0 -9.668795991591e-04 
-1.266746155896e-03 3.603621751388e-05 0.0 
3.603621751388e-05 8.474273100537e-03 0.0 
0.0 0.0 -1.258714341260e-03 
-1.271487619191e-03 -1.652780192113e-05 0.0 
-1.652780192113e-05 8.532655002207e-03 0.0 
0.0 0.0 -1.263997700767e-03 
-9.164544161814e-04 3.965640940816e-05 0.0 
3.965640940816e-05 6.111358236627e-03 0.0 
0.0 0.0 -9.199601189493e-04 
-2.093975888615e-04 -4.665649638245e-05 0.0 
-4.665649638245e-05 1.197818786362e-03 0.0 
0.0 0.0 -2.164625706183e-04 
-1.227420417668e-03 9.834631553130e-06 0.0 
9.834631553130e-06 8.219790599597e-03 0.0 
0.0 0.0 -1.221038716794e-03 
-6.921621610822e-04 -2.719005194183e-06 0.0 
-2.719005194183e-06 4.614590635001e-03 0.0 
0.0 0.0 -7.060606045913e-04 
-1.222382248160e-03 -1.550215016822e-05 0.0 
-1.550215016822e-05 8.147929268757e-03 0.0 
0.0 0.0 -1.208939113964e-03 
-1.221146925072e-03 -7.968249279301e-06 0.0 
-7.968249279301e-06 8.100682442682e-03 0.0 
0.0 0.0 -1.203806565432e-03 
-5.670525863280e-05 -1.771698635754e-05 0.0 
-1.771698635754e-05 2.585053466944e-04 0.0 
0.0 0.0 -6.449378323917e-05 
-8.615762060499e-04 1.909652726146e-05 0.0 
1.909652726146e-05 5.665696184107e-03 0.0 
0.0 0.0 -8.562696210230e-04 
-1.225143862683e-04 -2.984290666876e-05 0.0 
-2.984290666876e-05 5.860977302171e-04 0.0 
0.0 0.0 -1.223049983750e-04 
-1.270837356719e-03 -1.933520143365e-05 0.0 
-1.933520143365e-05 8.510135783999e-03 0.0 
0.0 0.0 -1.263714160583e-03 
-7.340830126836e-04 -1.335821332730e-05 0.0 
-1.335821332730e-05 4.821918862365e-03 0.0 
0.0 0.0 -7.344436328926e-04 
-5.549907469666e-04 -3.829926739680e-05 0.0 
-3.829926739680e-05 3.794910893621e-03 0.0 
0.0 0.0 -5.860204081633e-04 
-5.953475250696e-04 7.629065543805e-06 0.0 
7.629065543805e-06 3.863201785318e-03 0.0 
0.0 0.0 -5.933333333333e-04 
-6.234948668458e-04 -3.482962657325e-05 0.0 
-3.482962657325e-05 4.267925272266e-03 0.0 
0.0 0.0 -6.525251918948e-04 
-6.733326468399e-04 3.722248756964e-05 0.0 
3.722248756964e-05 4.248015244343e-03 0.0 
0.0 0.0 -6.600000000000e-04 

SCALARS node_materi_plasti_kappa_shear float
LOOKUP_TABLE default
1.154246033666e-04
3.030366954187e-03
5.919693902232e-03
5.923852315190e-03
2.859947626271e-04
6.218445993993e-04
8.718334659107e-04
1.197083009525e-03
1.504800919970e-03
1.797006115044e-03
2.096281833338e-03
2.401455262769e-03
2.703248692656e-03
3.016765538726e-03
3.359027883224e-03
3.663996831824e-03
3.908074174929e-03
4.228433772035e-03
4.543227631705e-03
4.848753617487e-03
5.161467818816e-03
5.477271259315e-03
5.779376537800e-03
5.932061195851e-03
5.925336573631e-03
5.920984287690e-03
5.924407700450e-03
5.915528138253e-03
5.915864416857e-03
5.918097125373e-03
5.921994664725e-03
5.927387718192e-03
5.930449677587e-03
5.921712747723e-03
5.924515498722e-03
5.931743115084e-03
5.928847067526e-03
5.919544915052e-03
5.911436947506e-03
5.907167024861e-03
5.916691287179e-03
5.925466264875e-03
5.926352037367e-03
5.927462665333e-03
5.926179788313e-03
5.923807961778e-03
5.921183308973e-03
5.929039143344e-03
5.928617810733e-03
5.930983770204e-03
5.930261081197e-03
5.934897168252e-03
5.940412066917e-03
5.938845524631e-03
5.922011629466e-03
5.913355498151e-03
5.926067531878e-03
5.924785671548e-03
5.926499683681e-03
5.927876554226e-03
5.924703349372e-03
5.915717987273e-03
5.917408892843e-03
5.920280365368e-03
5.931958681328e-03
5.938110150403e-03
5.906803770761e-03
5.928713183382e-03
5.925023434437e-03
5.923453604397e-03
5.939442334280e-03
5.942268996102e-03
3.313640150810e-03
3.643609585951e-03
3.947542440607e-03
4.242858391353e-03
4.550358348147e-03
4.852089997296e-03
5.156894848885e-03
5.448757344777e-03
5.772918013305e-03
9.252120421735e-05
3.026620073330e-03
3.625369357501e-04
6.731817662417e-04
9.805698534578e-04
1.254524899220e-03
1.561406696237e-03
1.870015848719e-03
2.180014997265e-03
2.475538726558e-03
2.688785350789e-03
2.528651994789e-03
2.706771452633e-03
2.974381815992e-03
2.988250338395e-03
2.992834626340e-03
2.988540146830e-03
3.040036634150e-03
2.993658303481e-03
2.986565369329e-03
2.994325014933e-03
3.003444053817e-03
3.004893136958e-03
3.000286560446e-03
2.997851424533e-03
2.994316307864e-03
3.001824735141e-03
9.621576344535e-05
1.072789967255e-04
9.631852337865e-05
9.634646192600e-05
1.161697218308e-04
1.255618245921e-04
1.234927640208e-04
1.176143698925e-04
1.181040846591e-04
1.155364499888e-04
1.206715439587e-04
1.365993450730e-04
1.279414962217e-04
1.070815165248e-04
1.087456221067e-04
1.225517974272e-04
1.266454771602e-04
1.116507655708e-04
1.010315185057e-04
2.598741559830e-03
2.575803215788e-03
2.571581206565e-03
2.572930114900e-03
2.571689758202e-03
2.573298329419e-03
2.574761174399e-03
2.575272453711e-03
2.572153287949e-03
2.575405243531e-03
2.577099986309e-03
2.575754424813e-03
2.576938409814e-03
2.570880962407e-03
2.573316984259e-03
2.568927959586e-03
2.440658187886e-03
2.637929620288e-03
2.723228742168e-03
2.707307494023e-03
2.703362484179e-03
2.705380261164e-03
2.706672240760e-03
2.703116806963e-03
2.702772263136e-03
2.703136713816e-03
2.702441216446e-03
2.701188865917e-03
2.700451988879e-03
2.702758821159e-03
2.699325300696e-03
2.707024502911e-03
2.723902039593e-03
2.292941970270e-04
5.236807730249e-04
8.235808296833e-04
1.134523506932e-03
1.423638051930e-03
1.725266219408e-03
2.028413709058e-03
2.331155750867e-03
2.548701800634e-03
2.861688706248e-03
7.103606478164e-04
5.814911313878e-03
2.047918518275e-04
1.970502068753e-04
5.819197632046e-03
1.328946267278e-03
3.191329080053e-03
5.810273490245e-03
1.892382905539e-03
5.822030968612e-03
2.522985579042e-03
5.833950524206e-03
1.864247367510e-04
5.824179591591e-03
3.155514371104e-03
1.957918245127e-03
4.023649944342e-03
5.811714724389e-03
5.825466270030e-03
5.824996473377e-03
5.797525205524e-03
5.833870913862e-03
3.279705906600e-03
3.278932509466e-03
3.299538154266e-03
4.392988308339e-03
5.825782847880e-03
1.875803799629e-04
2.130243859941e-04
4.990941270632e-03
3.266764248665e-03
1.027578116983e-03
5.770593586357e-03
5.837121425949e-03
5.820649096206e-03
5.802522940311e-03
5.827315517430e-03
2.124904197991e-04
3.271394634805e-03
5.775055632193e-03
5.005410343617e-03
2.049450714894e-04
2.556345996281e-03
5.876876022666e-03
1.638575426776e-03
1.018536859922e-03
2.209222523540e-03
2.829980156742e-03
3.757872655430e-04
3.812034731290e-03
5.879774981020e-03
2.000834389720e-04
5.582228690945e-03
3.282968380463e-03
3.405879163641e-03
3.554924991576e-03
3.706761369563e-03
3.858428676321e-03
3.994172834541e-03
3.835090176788e-03
4.124628089981e-03
3.963011153955e-03
4.154617485841e-03
4.253890367715e-03
4.090560016023e-03
4.382096032079e-03
4.218726563058e-03
3.929419603329e-03
4.056695462337e-03
3.767499058174e-03
3.894823734663e-03
4.184913419616e-03
4.022005877425e-03
3.732190171091e-03
3.858313833382e-03
3.569562641982e-03
3.695377336778e-03
3.406514106271e-03
3.532562577704e-03
3.821712444258e-03
3.658737601044e-03
3.369644961438e-03
3.495886750392e-03
3.207187652528e-03
3.332149617847e-03
3.621982769517e-03
3.458496973122e-03
3.166845774337e-03
3.294707675905e-03
3.002130027116e-03
3.131260622861e-03
2.837304896117e-03
2.965670032421e-03
3.259556182238e-03
3.094478366317e-03
2.799648397582e-03
2.927396624230e-03
3.222929756525e-03
3.055408384458e-03
3.351641860097e-03
3.184131490321e-03
2.889094859221e-03
3.017387565719e-03
3.312807633971e-03
3.144807155985e-03
2.850539984923e-03
2.978148191045e-03
3.273453875391e-03
3.105701933788e-03
2.811118638057e-03
2.939152856274e-03
3.235930558971e-03
3.066878938369e-03
2.770729598448e-03
2.897992444106e-03
3.196676201024e-03
3.025458962526e-03
3.326539777395e-03
2.725836099392e-03
2.853445082624e-03
2.552546008883e-03
2.681203652164e-03
3.749361599789e-03
2.379164116958e-03
2.254416588919e-03
2.509143601858e-03
2.813194765712e-03
2.206243071564e-03
2.337199456257e-03
2.035089294135e-03
2.704627779472e-03
4.313057656759e-03
2.166880539926e-03
1.864421071359e-03
1.732868546084e-03
1.561342170473e-03
4.024498791055e-03
4.321449536869e-03
4.179690524696e-03
4.487558501959e-03
4.351378253477e-03
1.692293086120e-03
4.547507496043e-03
4.620310667296e-03
3.444574795783e-03
3.081228819560e-03
3.519317618785e-03
2.468789982299e-03
2.300880945692e-03
2.604574973058e-03
3.497581244636e-03
3.628764160508e-03
3.799698635942e-03
3.931379681523e-03
4.102448612731e-03
4.234588908537e-03
4.063072780301e-03
4.366751221426e-03
4.194735028229e-03
4.405545622725e-03
4.273365102485e-03
4.498318737704e-03
4.326379418243e-03
4.629602997623e-03
4.457503609016e-03
4.153929470569e-03
4.284864263683e-03
3.982884066866e-03
3.648745610141e-03
3.817193794493e-03
3.946719407469e-03
4.115926409861e-03
4.245574739592e-03
4.415539763342e-03
4.544399560802e-03
4.375426891281e-03
4.509920023172e-03
2.632653377112e-03
2.504948411976e-03
2.338614636793e-03
2.211400256375e-03
2.045332097660e-03
1.919061142858e-03
1.752635209565e-03
1.878513981748e-03
1.584910331352e-03
1.710339413602e-03
1.415942396810e-03
1.540924270131e-03
3.948384266438e-03
4.285218450736e-03
4.585788453075e-03
4.452548000313e-03
1.432045145505e-03
4.588120534622e-03
4.576656745919e-03
4.442906503729e-03
4.675416510747e-03
1.391840176144e-03
1.627976054007e-03
1.791438559949e-03
4.652375729059e-03
4.515073750359e-03
4.747734229222e-03
1.522378979601e-03
4.671085369189e-03
1.291851135584e-03
4.415253925120e-03
4.718848314432e-03
3.891705484867e-03
4.754278458359e-03
4.616084921715e-03
1.839848146906e-03
1.672605894671e-03
1.378135101855e-03
1.515420670763e-03
1.805900116599e-03
1.632448232839e-03
1.332653763525e-03
1.460848178870e-03
1.759405537371e-03
1.587950129179e-03
1.285510927899e-03
1.415480434626e-03
4.891516996896e-03
1.121510096864e-03
3.641366942474e-03
4.879243427220e-03
4.841045972056e-03
4.817221487039e-03
4.680859314151e-03
4.376749942027e-03
4.546436710308e-03
4.850021688501e-03
4.714841530376e-03
4.411085338888e-03
4.576823668989e-03
4.271643822444e-03
4.438121527056e-03
4.742306724662e-03
4.605607762388e-03
4.302170490177e-03
4.468415119196e-03
4.164526586705e-03
4.326213013675e-03
4.634793358128e-03
1.226849014185e-03
4.506378239639e-03
4.809738295993e-03
2.453146888506e-03
2.728545033659e-03
2.907124081246e-03
3.043059147020e-03
4.493803980505e-03
4.803851567309e-03
1.501869364537e-03
1.664240495932e-03
4.952759396910e-03
4.548949919363e-03
4.244032685451e-03
2.918967585879e-03
2.792586959038e-03
2.629168594188e-03
2.499093692646e-03
2.668968419875e-03
2.332626947432e-03
4.138292167915e-03
4.909939925648e-03
1.603914124137e-03
1.302913386403e-03
4.855203702972e-03
4.205737706829e-03
4.111791117138e-03
4.239349827017e-03
4.404279031402e-03
4.532163345971e-03
4.698797086860e-03
4.826101189867e-03
4.663500232458e-03
4.917627217648e-03
4.959771601570e-03
4.174662190372e-03
4.151213148999e-03
1.888480938751e-03
1.096487228567e-03
1.112867725487e-03
1.347315636886e-03
1.652113615696e-03
5.051413102721e-03
4.995155339568e-03
4.862932033424e-03
2.379373966366e-03
2.546273267234e-03
5.051913667086e-03
4.046495241743e-03
4.106805891897e-03
3.964719198022e-03
1.001701890259e-03
9.814910827123e-04
5.018736248123e-03
1.953490702354e-03
1.826326942528e-03
1.000603477325e-03
8.270248169060e-04
4.649062039121e-03
4.959360782526e-03
3.209003612840e-03
3.344763241722e-03
4.919412739713e-03
1.246851632543e-03
5.108760944893e-03
4.338688324758e-03
4.036566623443e-03
2.862194265683e-03
1.379647792169e-03
1.216950747748e-03
2.058445277619e-03
1.544704251302e-03
1.478187698947e-03
5.222097844678e-03
5.150166074507e-03
4.796698922504e-03
4.498570299624e-03
5.089656245451e-03
9.457015925929e-04
5.189931181500e-03
4.686738709316e-03
5.150549732461e-03
5.027069730600e-03
2.114316632001e-03
1.991901980435e-03
1.705778784395e-03
1.877221421128e-03
3.675799238899e-03
2.280051155843e-03
3.479503618634e-03
3.353779208918e-03
3.194968393760e-03
2.831556800728e-03
2.708824037533e-03
2.375496384323e-03
3.686936591630e-03
3.078073203987e-03
3.851596386181e-03
3.667740788258e-03
5.044158210038e-03
5.215830386065e-03
3.998289725651e-03
3.853491964182e-03
1.131663708096e-03
1.005870343686e-03
3.457686078413e-03
5.011327749084e-03
5.115127262102e-03
5.250667570774e-03
5.084339547061e-03
5.085185550635e-03
2.466333230067e-03
3.777777636612e-03
9.588302078742e-04
3.912004250684e-03
8.314503266492e-04
4.475699055473e-03
4.989278594651e-03
5.157849786266e-03
5.214381496867e-03
3.266010047436e-03
4.041180497852e-03
3.878621153168e-03
3.070483235828e-03
2.913482248638e-03
3.035157386404e-03
2.755770959431e-03
2.184615498058e-03
2.013559352505e-03
5.319773126116e-03
5.255640298353e-03
5.321605394694e-03
5.197016645099e-03
5.342046142709e-03
5.180952194182e-03
1.777196002727e-03
2.427249311879e-03
5.314454420742e-03
3.225902650504e-03
5.312357786981e-03
5.147322410379e-03
6.540445478406e-04
7.723794913411e-04
5.277227190096e-03
1.587049601255e-03
1.745337399366e-03
1.421339300996e-03
5.610035015994e-03
3.257775872683e-03
5.289370763037e-03
2.995256057925e-03
5.420258365801e-03
4.174507003320e-03
2.750543209626e-03
4.785821545599e-03
5.111095174845e-03
5.457139877325e-03
3.797889722827e-03
3.646479732755e-03
3.931549897695e-03
1.164427047641e-03
8.448239735481e-04
5.077361997568e-03
2.130717764018e-03
2.299994958429e-03
1.365911109574e-03
1.662041853713e-03
3.380077755549e-03
3.249013876935e-03
4.605823304079e-03
4.769919328613e-03
4.276226867883e-03
4.169358572453e-03
3.867935193715e-03
3.737504250769e-03
5.341787835815e-03
5.553309217008e-03
2.353647089942e-03
2.227016294383e-03
2.307076216506e-03
5.450349556697e-03
5.463341176944e-03
5.325739410321e-03
7.148670898350e-04
8.870883348093e-04
1.101873869960e-03
9.316626042024e-04
5.373764850267e-03
5.221517258001e-03
5.572702457976e-03
1.582372335378e-03
4.632172669378e-03
5.375893312072e-03
5.254154539084e-03
5.559534277686e-03
5.076810545238e-03
5.365925183894e-03
5.378240200423e-03
5.392140300883e-04
5.334646512646e-03
3.675752576569e-03
3.994140177195e-04
3.535833562514e-03
3.716995656290e-03
3.370679194070e-03
1.282169154075e-03
3.567296707678e-03
3.765939256375e-03
5.126327859221e-04
5.605887865963e-03
5.560267422025e-04
6.660332016854e-04
5.449756143397e-03
5.274590684749e-03
5.572244234081e-03
5.392478454778e-03
5.099677131758e-03
5.238383322143e-03
3.509567093749e-03
5.572364392840e-03
5.374148307929e-03
5.737141131835e-03
2.638726436383e-03
2.039901378839e-03
1.905448348708e-03
1.617406521166e-03
5.530794330127e-03
5.348359015461e-03
4.829734702657e-03
4.521447046327e-03
3.557349194756e-03
3.532569652196e-03
3.813584889459e-03
3.767894522616e-03
4.058668074403e-03
4.012436085661e-03
4.295379223318e-03
5.556472121404e-03
1.300890945793e-03
2.946721722792e-03
5.471988497703e-03
5.293800497184e-03
2.587723201717e-03
2.314665718403e-03
5.537328889683e-03
2.406283520918e-03
5.792762283983e-03
1.858040090612e-04
4.857765212983e-04
2.573038789786e-03
2.873030274745e-03
2.199216706967e-03
2.091680435174e-03
4.476442988489e-03
7.504877515353e-04
1.263024816417e-03
4.334362747608e-03
9.849535248275e-04
4.679903303412e-03
2.540562741112e-03
3.118474233540e-03
1.542099058054e-03
2.168158947901e-03
3.802386178974e-03
3.549362578402e-03
3.391116114852e-03
2.670946485909e-03
2.260803135557e-03
1.949223813238e-03
3.605674145861e-03
4.919767447334e-03
5.053137848748e-03
5.341032503506e-03
5.187217989567e-03
4.888560595270e-03
5.017653317247e-03
5.314535410036e-03
5.156798542278e-03
5.508315270460e-03
5.286399283860e-03
4.980351695302e-03
5.106165886697e-03
5.394021959470e-03
4.807746362982e-03
5.628111934766e-03
2.871243858978e-03
6.965101933152e-04
6.551789095587e-04
3.282360146456e-03
5.809860564826e-03
5.821157866103e-03
2.082528349660e-03
5.819524766679e-03
3.515099545658e-03
1.460932159611e-03
5.821354656771e-03
4.753391499877e-03
4.585238946775e-03
4.452711673430e-03
5.831503303158e-03
4.073161563167e-03
5.837134571400e-03
3.985700881929e-03
3.851791908228e-03
3.554575317506e-03
4.847344029507e-03
5.817888275316e-03
5.575635814432e-03
5.571525256645e-03
5.311966086722e-03
5.819541179728e-03
5.830698806893e-03
5.838402623043e-03
1.930986719212e-03
2.101024040918e-03
2.394475490464e-03
2.266384359489e-03
1.970817861414e-03
2.136867911929e-03
2.431134490451e-03
2.006483688020e-03
5.062450549600e-03
5.830124137920e-03
3.970119493304e-03
3.835301643933e-03
3.534841884466e-03
2.946573758729e-03
3.117318954907e-03
3.419825569632e-03
2.776365598311e-03
4.367919564162e-03
5.827346570942e-03
3.906600699280e-03
2.984402664609e-03
3.276820545210e-03
3.539493379070e-03
3.549133742473e-03
3.824596042644e-03
3.567726925698e-03
3.513236360802e-03
3.646056828441e-03
3.479442829320e-03
3.776440321699e-03
3.600754084134e-03
3.319682840169e-03
3.899235541114e-03
3.712790048005e-03
3.270946734921e-03
2.113632266740e-04
4.663590485079e-04
4.566049970039e-04
7.156745567248e-04
7.373279452377e-04
1.003154234088e-03
9.722585000682e-04
4.717549759512e-04
2.060508248568e-04
4.540770013058e-04
2.016183866916e-04
4.467968440684e-04
7.550412036772e-04
1.182852220765e-03
5.788845613533e-03
2.859709310104e-03
2.724978007808e-03
2.413348020450e-03
2.580932184492e-03
2.979254934651e-03
2.254988964791e-03
2.151777952318e-03
2.124248935492e-04
4.645380525494e-04
4.620287622044e-04
7.358870940255e-04
7.228556758076e-04
4.637229493946e-04
4.638167508819e-04
2.058552859172e-04
4.611112548754e-04
7.280621305049e-04
1.906731245643e-04
4.704546691336e-03
4.866377932286e-03
5.817051415440e-03
3.306461396406e-03
2.060812032613e-04
5.781234699132e-03
5.822288119502e-03
5.823020880710e-03
5.305314190989e-03
5.454685450902e-03
5.787205338867e-03
1.904164271810e-03
5.481003932717e-03
5.244910374536e-03
1.337919885917e-03
1.840104844977e-03
4.380249884781e-03
4.023192351168e-03
5.022936148851e-03
4.114296708411e-03
4.760794110997e-03
5.555554324813e-03
1.179594138024e-03
4.131571153262e-03
4.020912679793e-03
4.773210184270e-03
1.997971753623e-03
3.186209854797e-03
1.264320056221e-03
5.581499467917e-03
3.319123411055e-03
3.366608306896e-03
2.641689808122e-03
2.077782102881e-03
1.716997042932e-03
3.042088607286e-03
3.155408692379e-03
4.538280633475e-03
4.941818270038e-03
2.600596271961e-04
4.708539861147e-03
3.760089428882e-03
4.244105085551e-03
4.715328609436e-03
1.167410736667e-03
4.880974533881e-03
5.403313920794e-03
3.898336749169e-03
9.671126416542e-04
3.824252090180e-03
5.351558397039e-03
4.786917829570e-03
1.824211420534e-03
3.480609807162e-03
3.243878701939e-03
2.980785244645e-03
5.375575519212e-03
3.585995865997e-03
4.980015277353e-03
4.076017659109e-03
1.959475074490e-03
4.975844888607e-03
3.389984283037e-03
5.185084528177e-03
4.569389381663e-03
2.760527645323e-03
4.981119205122e-03
3.402542523838e-03
4.886475886782e-03
3.158193069385e-03
3.984904577625e-03
4.346595079122e-03
3.785347613028e-03
4.212795144997e-03
4.843183184598e-03
1.250416126476e-03
2.458873987470e-03
4.209667670053e-03
5.115121627223e-03
5.486043343848e-03
2.956453768341e-03
4.801040750307e-03
5.276018678210e-03
3.287319671934e-03
1.360173557846e-03
1.054118268605e-03
2.172491032492e-03
3.423285296841e-03
3.589532674148e-03
5.552240847616e-03
4.931191158355e-03
4.613419327886e-03
5.464000382780e-04
3.101627176124e-03
5.063754079328e-03
3.609293720743e-03
5.009794558603e-03
3.416052821845e-03
5.575482653537e-03
2.475536180774e-03
5.206362114330e-03
4.647615435026e-03
2.244695150429e-03
3.268136202907e-03
5.555008699614e-03
4.952886856145e-03
4.075675641162e-03
3.440761170649e-03
2.670689667684e-03
3.721275175177e-03
4.148714793035e-03
5.835319629331e-03
5.106135759620e-03
4.284472671237e-03
3.550391241370e-03
4.312448323242e-03
7.156855192344e-04
2.792869111198e-03
3.682084945283e-03
2.301558692687e-03
3.569870679035e-03
5.507448749153e-03
3.814302881920e-03
2.595277141504e-03
3.945212643466e-03
2.359824458181e-03
4.418520852231e-03
4.072359630917e-03
4.440337999663e-03
7.757686492747e-04
4.203718467632e-03
5.137853672774e-03
2.428401079217e-03
3.700926420415e-03
4.718919712422e-03
2.045517196664e-03
4.001751556342e-03
4.734200010830e-03
4.335389309684e-03
3.717467635180e-03
4.306468150559e-03
2.158315669710e-03
1.778111948175e-03
1.480789573342e-03
2.723576269686e-03
4.901358873080e-03
9.907929562044e-04
4.678560104240e-03
1.061568277770e-03
2.558752785224e-03
4.777870338073e-03
4.115757970203e-03
2.685651994210e-03
1.661993244650e-03
2.519680303368e-03
4.012449715584e-03
2.645863061595e-03
2.477781824869e-03
5.552773111686e-03
2.601556434606e-03
5.832588277671e-03
5.807498199142e-03
3.510356051034e-03
1.737451315662e-03
2.405479085723e-04
1.829108936978e-03
2.134121346790e-03
4.639057668376e-03
3.513173410346e-03
1.958554503757e-03
5.579740788869e-03
5.830554327362e-03
4.549382429434e-03
5.128190593651e-03
4.477241356342e-03
5.275457844279e-03
3.249070074697e-03
4.477567605621e-04
4.366937944895e-03
1.414652943865e-03
1.454830351756e-03
1.141526190888e-03
2.071482774289e-03
7.048676555723e-04
1.168371653296e-03
5.554008919411e-03
3.515193931760e-03
4.930134979138e-03
8.572356047719e-04
5.572156000341e-03
5.569776879399e-03
5.838339516943e-03
5.230953075188e-03
8.277135440664e-04
3.767849181542e-03
5.583236268413e-03
4.792801184414e-03
5.849741729017e-03
3.467504393821e-03
5.585086652784e-03
1.085481836247e-03
5.581941862217e-03
4.937207249790e-03
3.891365713394e-03
3.752927955089e-03
5.593723576573e-03
5.582903556172e-03
6.530334131598e-04
4.532821262706e-03
2.586505146794e-03
4.309456059287e-04
5.577341518437e-03
5.218037136217e-03
5.584899765061e-03
7.371716874996e-04
4.403063957912e-04
5.630357557198e-03
5.612012503027e-03
1.230585207076e-03
5.884366405666e-03
4.092504687394e-04
3.203199811466e-03
4.370733977465e-04
5.843994283019e-03
5.604234858727e-03
2.845335710463e-03
3.286444788878e-03
1.873211432721e-03
5.369777350956e-03
6.577588307218e-04
5.641946929749e-03
5.644321122624e-03
5.639466704751e-03
5.898898139880e-03
4.211607310232e-04
5.652386425481e-03
5.366048530729e-03
3.253953958084e-03
5.587679770306e-03
2.309938481824e-03
9.687550335974e-04
5.854893632795e-03
1.859115235788e-04
3.234858844656e-03
5.866847427828e-03
9.109470946294e-04
3.727440323860e-03
5.623149802079e-03
3.507013142730e-03
5.092976750137e-03
8.975669244278e-04
1.659950822664e-04
4.270563646727e-03
5.623311015092e-03
5.659663736694e-03
4.061400799491e-03
8.220481444569e-04
5.453937277557e-03
3.071062049363e-03
5.407469273276e-03
5.377966207611e-03
2.102243503154e-04
3.774256867795e-03
4.259532598859e-04
5.646002650817e-03
3.210355763876e-03
2.521729557575e-03
2.586604075054e-03
2.833800295395e-03
2.849139881866e-03

SCALARS node_materi_plasti_phimob float
LOOKUP_TABLE default
1.842994287243e+01
-1.063991132074e+01
2.062372042250e+01
1.833708524262e+01
-3.077832448110e+01
-5.138921271741e+00
5.240295671375e+00
1.124007124944e+01
1.477229096589e+01
1.691779265907e+01
1.844555748745e+01
1.956414596866e+01
2.034623560727e+01
2.093470411337e+01
2.135852681961e+01
2.152524443194e+01
2.156776432297e+01
2.160975393985e+01
2.154658671767e+01
2.142151140418e+01
2.125554855091e+01
2.104809415037e+01
2.082617596884e+01
1.838222317313e+01
1.837288720501e+01
1.839110456823e+01
1.841282969530e+01
1.841142428862e+01
1.846265848465e+01
1.850261298369e+01
1.857767652483e+01
1.867072225826e+01
1.877491621324e+01
1.886266789152e+01
1.902835430498e+01
1.919210370852e+01
1.938942037188e+01
1.956056737431e+01
1.984078666610e+01
2.007337521783e+01
2.029959420614e+01
2.057586993337e+01
2.080577405259e+01
2.098498011475e+01
2.108031290015e+01
2.119167167606e+01
2.124661917020e+01
2.126800077876e+01
2.126123759638e+01
2.126152359532e+01
2.121984145428e+01
2.118737987259e+01
2.110657105644e+01
2.109426185174e+01
2.104284041887e+01
2.097845885867e+01
2.092869473289e+01
2.088421933563e+01
2.083685980487e+01
2.080384795742e+01
2.077100085164e+01
2.074430641333e+01
2.072604839789e+01
2.069017046273e+01
2.065658795471e+01
2.064172389748e+01
2.067815551583e+01
2.061504130361e+01
2.062337735161e+01
2.060346664872e+01
2.060048982762e+01
2.060433844368e+01
7.885151367098e-02
5.873352900530e+00
9.436806587289e+00
1.184272136997e+01
1.366335293905e+01
1.504954727818e+01
1.617340316636e+01
1.709895993590e+01
1.788253418814e+01
-2.896032406871e+01
-6.969938992401e+00
-6.093127954177e+00
2.945617873976e+00
6.485360155716e+00
7.406381353651e+00
7.202370368230e+00
6.888733380564e+00
6.508386922246e+00
-1.539229726722e+00
-1.332820127668e+01
-3.522297638622e+01
-2.754008454548e+01
-1.290930236382e+01
-1.227000346966e+01
-1.220107797839e+01
-1.231076655423e+01
-1.064621960955e+01
-1.220376077789e+01
-1.234727767235e+01
-1.226730897257e+01
-1.208823791712e+01
-1.212760587323e+01
-1.220963505079e+01
-1.220416326778e+01
-1.163456327396e+01
-1.013316876556e+01
-3.047543308220e+01
-2.713751005711e+01
-2.647241958137e+01
-2.905921950257e+01
-3.366564215930e+01
-3.734874274492e+01
-4.129078673247e+01
-4.552678599570e+01
-4.985211838070e+01
-5.389361276187e+01
-5.731886096294e+01
-5.726195300275e+01
-5.850362003589e+01
-6.106718494704e+01
-6.075106465800e+01
-5.982408047728e+01
-5.964824254741e+01
-9.421731268840e+00
4.031037351567e+01
-3.584673906061e+01
-3.652145288388e+01
-3.656979054323e+01
-3.675881935875e+01
-3.702335434153e+01
-3.753902743812e+01
-3.816636179322e+01
-3.894967660428e+01
-3.977071875805e+01
-4.085230166735e+01
-4.192287489587e+01
-4.276182119792e+01
-4.325605887189e+01
-4.283303968708e+01
-4.040067911781e+01
-3.459763000554e+01
-2.164750674156e+01
-2.331960972364e+01
-2.443267392652e+01
-2.798815414014e+01
-2.898611804051e+01
-2.918137698539e+01
-2.907313100188e+01
-2.887916233654e+01
-2.866989946969e+01
-2.841456967745e+01
-2.821824397455e+01
-2.805601390608e+01
-2.794369343127e+01
-2.785236915739e+01
-2.787365073725e+01
-2.792095943040e+01
-2.803859680702e+01
-1.698724424579e+01
-4.319820126249e-01
5.026694284734e+00
7.053397885839e+00
8.778132730610e+00
8.333595147059e+00
6.652885867816e+00
6.293074687320e+00
-8.589558794933e+00
-9.295415659752e+00
-1.703557958669e+00
2.128085450216e+01
-3.752385369004e+01
-2.966003069387e+01
2.103909671961e+01
6.337391548370e+00
2.118254572551e+01
2.145583801483e+01
8.539276247097e+00
2.136572326918e+01
6.011240415474e+00
2.085086403945e+01
-4.138103797682e+01
2.077675358871e+01
-5.340705579360e-01
1.781610256163e+01
2.162295482976e+01
1.981856495615e+01
1.876907372831e+01
1.807682252352e+01
1.807640257436e+01
1.839752575441e+01
-1.103243215854e+00
-1.643268412167e+00
-1.027251130830e+00
1.281958242839e+01
2.080230679825e+01
-2.909013777487e+01
-3.922838194307e+01
2.134989712218e+01
-1.666957440528e+00
8.641237082597e+00
1.910595590495e+01
2.144255523515e+01
2.115287644066e+01
2.143730450753e+01
2.115916922368e+01
-3.163895336094e+01
-1.932456607429e+00
2.100876434959e+01
1.562605713761e+01
-3.958986364006e+01
2.001313221524e+01
1.816169752690e+01
7.898055165778e+00
3.869053091488e+00
8.425228143793e+00
-1.768619743457e+00
-1.419077338283e+01
8.092641193163e+00
2.074414774831e+01
-1.501678764149e+01
1.746532159824e+01
1.358204598939e+00
5.113538403200e+00
5.934353947649e+00
9.014060930008e+00
9.713616929795e+00
1.160897936995e+01
1.123300766414e+01
1.321859194964e+01
1.305843922304e+01
1.215404786721e+01
1.458483424211e+01
1.454013477522e+01
1.572949040009e+01
1.574321661403e+01
1.461481640744e+01
1.583419122243e+01
1.476552685255e+01
1.622265371634e+01
1.701041285922e+01
1.769360223863e+01
1.707078104497e+01
1.848397422772e+01
1.797609493216e+01
1.925669242454e+01
1.880822426845e+01
1.997542604904e+01
2.027431643063e+01
2.090165863480e+01
2.061614197551e+01
2.145799285915e+01
2.114455164045e+01
2.191441549819e+01
2.210102090547e+01
2.249543561036e+01
2.225592691066e+01
2.279262540781e+01
2.247227896739e+01
2.297459629205e+01
2.253581507523e+01
2.302217931564e+01
2.330759008044e+01
2.334034909433e+01
2.292438008562e+01
2.324066831674e+01
2.352673300906e+01
2.342427318362e+01
2.360708736073e+01
2.350282961164e+01
2.319984288293e+01
2.328944360706e+01
2.349922794517e+01
2.329808488964e+01
2.296201564764e+01
2.299535106899e+01
2.324742689482e+01
2.296898486681e+01
2.258914077127e+01
2.260243081695e+01
2.290138241904e+01
2.257228516316e+01
2.214084849906e+01
2.216032382782e+01
2.251329058759e+01
2.214803805095e+01
2.243221853435e+01
2.165922263781e+01
2.171044004000e+01
2.106312557835e+01
2.119358330443e+01
2.257420959796e+01
2.037004463221e+01
2.009828852310e+01
2.059811260270e+01
2.129449824505e+01
1.957899907181e+01
1.991767356458e+01
1.867463095461e+01
2.182951266063e+01
1.827466516507e+01
1.914521106208e+01
1.763916381089e+01
1.686954306798e+01
1.542234254300e+01
1.064193403739e+01
1.279882716680e+01
1.146389220130e+01
1.347164598776e+01
1.240917708127e+01
1.641494153840e+01
1.581337684236e+01
1.446632744447e+01
1.636295576241e+01
2.014301595932e+01
2.360972428469e+01
2.019357621765e+01
1.953493419499e+01
2.044168933288e+01
2.268856301350e+01
2.255739491304e+01
2.272367113168e+01
2.255673659074e+01
2.264775470413e+01
2.245725628499e+01
2.238882909045e+01
2.226961574967e+01
2.222357085597e+01
2.248494126634e+01
2.269509454408e+01
2.208681922736e+01
2.206274082153e+01
2.190966103668e+01
2.190773967552e+01
2.200937380256e+01
2.188192019457e+01
2.192949612316e+01
2.362012106076e+01
2.355236815257e+01
2.351178334267e+01
2.339347505102e+01
2.331258090624e+01
2.316014949068e+01
2.304479001581e+01
2.317874517041e+01
1.668806340784e+01
2.267221638008e+01
2.216371431109e+01
2.169676025658e+01
2.089504746121e+01
2.012305728210e+01
1.887106976711e+01
1.764510156857e+01
1.906709090171e+01
1.602121183748e+01
1.767359084828e+01
1.392844375279e+01
1.588164884870e+01
2.107771488944e+01
2.321707711806e+01
2.295898810775e+01
2.298978261680e+01
1.420405371427e+01
2.176066871718e+01
2.247344242695e+01
2.269720081750e+01
2.288141422243e+01
1.371802082515e+01
1.572586094817e+01
1.714946986729e+01
1.414896164860e+01
1.326438072610e+01
2.242045931125e+01
1.497723011584e+01
2.207983080884e+01
1.130581122126e+01
2.176011135561e+01
2.162564755373e+01
2.228026912545e+01
2.272255343454e+01
2.272005952802e+01
1.888267828305e+01
1.736528148124e+01
1.373637689961e+01
1.551882267970e+01
1.850698210112e+01
1.685838872448e+01
1.319613688899e+01
1.487365938129e+01
1.790575442008e+01
1.622502315520e+01
1.236262592274e+01
1.418473461058e+01
2.158534334413e+01
8.019746850829e+00
1.321220364392e+01
2.219021681886e+01
2.271835747498e+01
1.481149383387e+01
1.407037447966e+01
1.234238897598e+01
1.330963519018e+01
1.482752321307e+01
1.417545805343e+01
1.250936912051e+01
1.348620157261e+01
1.163557453648e+01
1.274616548832e+01
1.434847370118e+01
1.371497666860e+01
1.194205057459e+01
1.302126574704e+01
1.102799633503e+01
1.223006129896e+01
1.395242759744e+01
1.164794777831e+01
2.300427366125e+01
2.268146244758e+01
1.992699863275e+01
2.065251186513e+01
2.106741425378e+01
2.115658627246e+01
1.325752024464e+01
1.477126123490e+01
1.319003352028e+01
1.484457219960e+01
1.553335717805e+01
2.165053296375e+01
2.173981897646e+01
2.058266609455e+01
1.933156656143e+01
1.959621084272e+01
1.790769162844e+01
1.772895815718e+01
1.787104489950e+01
2.290420313579e+01
1.511983737673e+01
1.593347376234e+01
1.264997245263e+01
2.150969649539e+01
2.326740712652e+01
2.049556393987e+01
2.119200611130e+01
2.067672678535e+01
2.127088320908e+01
2.083545565373e+01
2.132908651168e+01
2.170832780626e+01
2.245969745608e+01
2.167803140436e+01
1.127545621170e+01
2.320749908688e+01
1.872190281417e+01
9.656604091282e+00
9.236858183343e+00
1.321275186155e+01
1.600883638605e+01
2.209105746658e+01
2.097944063164e+01
2.042950607136e+01
1.587223001508e+01
1.575055800046e+01
2.240197251612e+01
1.012421565835e+01
1.035325222501e+01
9.175539533350e+00
8.194973189724e+00
6.443164511052e+00
1.551921589335e+01
1.816553612706e+01
1.605992735295e+01
4.024032940096e+00
-5.453994661014e-01
1.412139981640e+01
1.544426458603e+01
2.144859558959e+01
2.149513640566e+01
2.232730015144e+01
1.170629453459e+01
1.596370463165e+01
2.308780002829e+01
2.330085790606e+01
2.076423389917e+01
9.991827363153e+00
7.426386905994e+00
1.992037196330e+01
1.560015759340e+01
1.453422320864e+01
2.196337644838e+01
1.606157520158e+01
2.199723231396e+01
2.210180895254e+01
2.186349159062e+01
5.331588121767e+00
2.185901050147e+01
2.155851662965e+01
2.066352915930e+01
2.007888932814e+01
1.886889890006e+01
1.695280776564e+01
1.336491787456e+01
1.444164827729e+01
1.106966683897e+01
1.933305025890e+01
1.348760501326e+01
1.142004546418e+01
1.198360832278e+01
1.723676335441e+01
1.523923507047e+01
2.141805490883e+01
2.352007975987e+01
2.142451410171e+01
2.202870509141e+01
2.288303221457e+01
1.563745537190e+01
1.627499288322e+01
9.582831775513e+00
8.256038722330e+00
1.001941279226e+01
7.427711331686e+00
2.233879051936e+01
2.196693107025e+01
1.606345641737e+01
1.667484660997e+01
1.622429499595e+01
2.220399107196e+01
2.225104886525e+01
2.356272466353e+01
4.084724105049e+00
2.216366539452e+01
3.099482575877e+00
1.773422830166e+01
2.138897147907e+01
2.131506873161e+01
2.216167906076e+01
4.565908631766e+00
2.255276862220e+01
2.290003016962e+01
9.168570802785e+00
1.024738021979e+01
1.313776911012e+01
1.173293075503e+01
2.036469611507e+01
1.933021573862e+01
2.111323441076e+01
2.162890886981e+01
2.046458348821e+01
1.979632183794e+01
2.204609035810e+01
2.229215255825e+01
1.686760692599e+01
1.336168081491e+01
1.662002397953e+01
8.589251813626e+00
2.162187356959e+01
2.174681358426e+01
-6.385794541910e+00
-1.122516390149e+00
1.653336243913e+01
1.005284894857e+01
1.120957081153e+01
8.466172501939e+00
2.091781530972e+01
-1.765624286871e+00
2.117280239988e+01
1.646758870637e+01
1.696046461262e+01
2.280585211003e+01
2.083243922046e+01
2.256539926511e+01
1.599820191954e+01
1.707237974282e+01
7.388919116938e+00
5.535461062203e+00
8.753226746112e+00
7.811826768521e+00
-1.727929658365e+00
1.580335264987e+01
1.881662468539e+01
1.941848164563e+01
1.347271812472e+01
1.662369936950e+01
2.171916167844e+01
2.174114970715e+01
1.882162974296e+01
1.841138073958e+01
1.990551119587e+01
2.311783502149e+01
2.327306375488e+01
2.342342176817e+01
1.670679546432e+01
1.732389878788e+01
2.123156130109e+01
2.091674929116e+01
2.067634738927e+01
1.709511557047e+01
2.109850472784e+01
2.122719027708e+01
-1.511518932316e+00
3.907215108842e+00
3.490612977174e+00
-1.073677832243e-01
1.725502322630e+01
1.689833342176e+01
1.770512999264e+01
1.541560773584e+01
2.232975444539e+01
2.180601731500e+01
2.209011036655e+01
2.151673420027e+01
2.220507479530e+01
2.193503760521e+01
2.168906127119e+01
-1.376184537636e+01
1.676847027293e+01
5.980013319913e+00
-2.138413210387e+01
3.988214355034e+00
6.657826447413e+00
9.542899823190e-01
1.244054941717e+01
4.289226263980e+00
6.951775465230e+00
-1.126362370811e+01
1.756998232166e+01
-8.808359738256e+00
-2.530828348877e+00
2.141245344013e+01
2.153978331334e+01
2.122568292660e+01
2.134347958273e+01
2.163159633102e+01
2.144570459568e+01
3.241332145962e+00
2.111586797020e+01
2.125075390511e+01
2.098751060854e+01
8.461185857890e+00
1.519692790132e+01
1.211513613153e+01
7.865835415591e+00
2.037931848883e+01
1.963082763496e+01
2.145634306946e+01
2.158406181956e+01
4.341634913299e+00
4.179906447271e+00
8.001548295708e+00
7.608651088108e+00
1.037178770649e+01
1.002873302433e+01
1.216519875966e+01
2.150970999666e+01
5.251597341733e+00
5.075744222374e+00
2.190611578976e+01
2.216379011500e+01
1.278394761130e+01
1.049725061875e+01
2.143792941983e+01
2.069727499372e+01
1.815774446078e+01
-2.877142623613e+01
-1.689788797469e+01
2.085255105286e+01
1.433173491855e+01
1.558365914433e+01
1.308260398846e+01
2.288382712235e+01
-2.232782310877e-01
6.375667148970e+00
1.232862003745e+01
3.124899940721e-01
2.149793269022e+01
2.171883641815e+01
1.817576874604e+01
1.193012340885e+01
1.758728038345e+01
1.306555664619e+01
8.513039624377e+00
8.385359282721e+00
2.243522841429e+01
1.337891519802e+01
9.696738127710e+00
1.532424824559e+01
1.579526589433e+01
1.655219371419e+01
1.750431935482e+01
1.724757924359e+01
1.625544958235e+01
1.702205695364e+01
1.787823749662e+01
1.772209899337e+01
1.863846035163e+01
1.836398730197e+01
1.759207202085e+01
1.824215440711e+01
1.899597362827e+01
1.750280368804e+01
2.164579667709e+01
2.175818020034e+01
-6.317033167538e+00
-9.052286162273e+00
1.734297639915e+01
1.952214765819e+01
1.893277637519e+01
1.975236705711e+01
2.096416049327e+01
1.115328736774e+01
1.380063493715e+01
2.126778003671e+01
1.539397352493e+01
1.503603766258e+01
1.396506984326e+01
1.862517457789e+01
1.008803269884e+01
2.142693565456e+01
2.341209264021e+01
2.334778132202e+01
2.339555133793e+01
1.684462925969e+01
2.134665640373e+01
2.173084889305e+01
2.166056040404e+01
2.211192412951e+01
2.123247654623e+01
2.024137025254e+01
2.055957632938e+01
1.931547061632e+01
2.046480393588e+01
2.172053357457e+01
2.136836363532e+01
1.980488043615e+01
2.084002484945e+01
2.207919666292e+01
2.009523387445e+01
1.903192610289e+01
2.111847299471e+01
2.283820364287e+01
2.301974355140e+01
2.302838136969e+01
2.137176429240e+01
2.174775108500e+01
2.201221711545e+01
2.094205302696e+01
2.172171737105e+01
2.106632965789e+01
2.345201883463e+01
2.173786164390e+01
-1.654727168946e+00
4.167339766694e+00
4.796197933708e+00
8.296174159026e+00
4.333690825098e+00
2.170342802313e+01
2.168747109382e+01
2.152650112657e+01
2.166118327196e+01
2.153278554774e+01
2.132961496026e+01
2.162492481781e+01
2.154497678602e+01
-1.883750439393e+00
-3.010606511758e+01
-1.397617661909e+01
-1.416073940390e+01
-1.691149791828e+00
-1.189017788288e+00
6.764062281899e+00
5.658061638747e+00
-1.449933807487e+01
-3.360882363776e+01
-1.406414142828e+01
-3.564535422760e+01
-1.429159327071e+01
-1.071553797147e-01
1.077716018030e+01
2.082590255925e+01
2.067953575472e+01
2.044489360664e+01
1.964976552750e+01
2.014524014808e+01
2.094707779255e+01
1.909598764144e+01
1.869095532619e+01
-3.911775617056e+01
-1.140958622264e+01
-1.324429689362e+01
1.471798264426e+00
1.142327590456e+00
-1.142753305926e+01
-1.167434989931e+01
-3.977387670100e+01
-1.226164861039e+01
1.205800627773e+00
-4.103940089640e+01
1.440780178963e+01
1.512811384417e+01
2.101174921593e+01
-9.799409983729e-01
-3.864156230019e+01
1.793447446769e+01
1.810514270615e+01
1.809436371002e+01
2.115608821439e+01
2.105069200585e+01
1.795741465587e+01
1.809767948910e+01
1.805901122091e+01
1.641392186415e+01
1.094998116728e+01
1.810223819319e+01
2.165807728189e+01
2.214261913107e+01
2.145052386475e+01
2.183438980675e+01
2.174065832154e+01
2.164857352917e+01
1.103894625842e+01
1.066393661111e+01
9.940216634873e+00
1.456190878776e+01
1.828324610870e+01
2.126500962536e+01
1.215810389876e+01
2.107536993712e+01
1.431105089682e+01
2.280584311537e+01
2.078341306747e+01
1.916451161575e+01
1.730131655993e+01
2.153011292502e+01
2.211599251509e+01
2.227987442841e+01
1.531011470851e+01
-3.569916177454e+01
2.225299558356e+01
2.241954169872e+01
1.139129381621e+01
2.286888031723e+01
1.021895523915e+01
1.494715914266e+01
1.709116767379e+01
8.591912783747e+00
6.759874305550e+00
7.768738070366e+00
2.169694003328e+01
1.499232394068e+01
1.723049195499e+01
2.360496159782e+01
1.953927696638e+01
-1.865062621696e+00
1.682339301643e+01
2.290849575465e+01
2.253313867331e+01
2.341231877963e+01
1.792480887712e+01
2.183284326738e+01
2.351340357175e+01
1.614239149290e+01
2.017841083308e+01
2.300431711155e+01
1.545025260903e+01
2.315247090182e+01
2.265204044099e+01
1.547964726627e+01
1.960795853493e+01
1.672067019526e+01
2.162144348159e+01
2.164657020844e+01
2.204036619644e+01
1.131611660260e+01
1.961038541021e+01
1.128142601136e+01
2.137798869572e+01
1.713425278884e+01
1.886265810166e+01
2.188502716455e+01
1.658122720316e+01
2.206910414671e+01
1.344557560440e+01
4.185982773502e+00
2.101589537881e+01
2.315987561546e+01
2.223757918339e+01
1.793175008876e+01
2.169674913930e+01
2.265218452066e+01
-6.811496070780e+00
4.456760517161e+00
2.152220410118e+01
2.353901534190e+01
2.253064934257e+01
2.136294404020e+01
2.127595409022e+01
9.986553963747e+00
2.137524485850e+01
2.280422059835e+01
2.034647610230e+01
-1.571608730367e+00
2.107711090588e+01
2.244906079898e+01
2.169618375468e+01
2.343449996365e+01
3.738725672658e-01
2.213261197027e+01
1.892704109906e+01
1.851261715629e+01
2.230075263660e+01
1.352224696725e+01
2.194671608806e+01
2.294699453710e+01
9.745366407384e-01
6.462374307136e+00
2.188330782269e+01
2.164725087072e+01
2.332541162563e+01
2.185562341171e+01
2.182247653143e+01
2.262041952590e+01
2.176140122094e+01
8.002559744395e+00
1.475573050957e+01
2.169335215665e+01
1.933539217236e+01
1.661909160371e+00
2.215463017088e+01
2.126941017538e+01
2.089797038237e+01
2.318537621600e+01
1.600301999617e+01
8.278546786487e+00
2.309856027493e+01
1.972089672807e+01
2.246744106840e+01
2.318699524984e+01
2.291792183814e+01
1.058725895746e+01
1.741257849761e+01
1.482340462324e+01
2.284675199630e+01
1.932149242438e+01
7.991295587288e+00
1.673054506659e+01
8.355355524220e+00
2.235553843579e+01
2.243683518548e+01
1.087069475307e+01
2.251523099269e+01
1.606274421227e+01
2.194358989128e+01
2.310495422422e+01
2.207653036034e+01
2.144115810507e+01
1.733422718551e+01
2.157482186895e+01
1.805847892744e+01
2.078770409782e+01
3.701806832290e+00
8.406252046356e+00
-2.775041728106e+01
9.620897165600e+00
1.976969116044e+01
1.750183699293e+01
3.902883047260e+00
1.868633823236e+01
1.925200879698e+01
2.140279575312e+01
1.366074483157e+01
2.234444223367e+01
2.264920851544e+01
1.658260945676e+01
-2.167929707333e+00
-1.411009375005e+01
2.159412927697e+01
7.560695609850e+00
6.732113330472e+00
3.188454472824e+00
1.845949682638e+01
-1.680390738247e+00
5.327245678389e+00
2.177584467331e+01
3.589075132069e+00
2.215155125896e+01
1.512198956974e+00
1.753811959258e+01
2.170357852086e+01
2.090551737602e+01
2.195107269950e+01
-3.725011831813e+00
7.402448652604e+00
2.083568388943e+01
1.476678332732e+01
2.081429355573e+01
2.858833188722e+00
1.745489557380e+01
8.253793791769e+00
1.747568690547e+01
1.822832302510e+01
8.740658322208e+00
8.057699709649e+00
2.093459106184e+01
1.858982725807e+01
-9.134510761310e+00
1.354319442224e+01
2.026664574622e+01
-1.810615119364e+01
2.130519772922e+01
1.893061161878e+01
2.101240791498e+01
1.271420184056e+00
-1.529140327134e+01
2.137322343697e+01
2.011654248302e+01
1.116314877460e+01
1.835352712706e+01
-1.862264696162e+01
-3.216611260862e+00
-1.432235490164e+01
2.078510480982e+01
1.749923991592e+01
2.072246351455e+01
-1.073486897163e-02
1.737501725432e+01
2.142021492044e+01
-3.093993145215e+00
1.756962293349e+01
2.147778682144e+01
1.803384933197e+01
2.134515539071e+01
-2.047739868220e+01
2.157952839106e+01
2.197822083467e+01
-2.191842299061e+00
1.823499570571e+01
1.934907403030e+01
7.374563544177e+00
1.813623592517e+01
-1.427587574857e+01
-2.510014252637e+00
2.072213947185e+01
6.579107984316e+00
7.067321818187e+00
1.978039060609e+01
2.143118813416e+01
1.601005964277e+01
4.544644474145e+00
-2.968441830888e+01
1.202110320657e+01
2.171194764769e+01
1.785132780909e+01
1.035405195015e+01
-2.796899192714e+00
1.952628073733e+01
2.101974011007e+01
2.084908137764e+01
2.204476740672e+01
-2.386499431310e+01
2.157170483673e+01
-1.615641508148e+01
2.109973762353e+01
2.119978660459e+01
-2.378047674045e+01
-3.422148950040e+01
-1.362124877697e+01
-1.978918537597e+01

SCALARS node_materi_stress_average_a_sig float
LOOKUP_TABLE default
-4.948142310296e+00
-2.996315987808e+01
-2.357208331730e+02
-1.428394906449e+02
-1.215360216660e+01
-2.365552271004e+01
-3.444934689388e+01
-4.687724000232e+01
-5.871125663592e+01
-7.050601014772e+01
-8.227444084092e+01
-9.403684720000e+01
-1.058666450894e+02
-1.178215217809e+02
-1.301193473092e+02
-1.422517856531e+02
-1.534041338800e+02
-1.656092771195e+02
-1.782639894294e+02
-1.906371598658e+02
-2.031695367632e+02
-2.158910594531e+02
-2.280869448449e+02
-1.435000769555e+02
-1.428468418375e+02
-1.431017772565e+02
-1.432045294264e+02
-1.431023323154e+02
-1.437686758150e+02
-1.445060714615e+02
-1.447782315807e+02
-1.460425847895e+02
-1.468278559030e+02
-1.476920783355e+02
-1.493988422519e+02
-1.516430498549e+02
-1.532590265073e+02
-1.555980802224e+02
-1.577512265056e+02
-1.608809231976e+02
-1.650639375372e+02
-1.690090234548e+02
-1.731773594679e+02
-1.772295759599e+02
-1.815053314668e+02
-1.857462885497e+02
-1.899905876991e+02
-1.943214709024e+02
-1.985719037345e+02
-2.024649703935e+02
-2.061804981298e+02
-2.094685529739e+02
-2.131314190333e+02
-2.158443982874e+02
-2.179793993519e+02
-2.205977832133e+02
-2.229614975376e+02
-2.250560346569e+02
-2.269017539322e+02
-2.284903636675e+02
-2.297239829682e+02
-2.307321517454e+02
-2.315051644184e+02
-2.326393111197e+02
-2.339546611919e+02
-2.346900332877e+02
-2.336004194471e+02
-2.354053072594e+02
-2.351821121721e+02
-2.357981264753e+02
-2.363446242999e+02
-2.363601448777e+02
-4.221610430319e+01
-5.420320566321e+01
-6.613062207255e+01
-7.773839225153e+01
-8.955127125528e+01
-1.014679477574e+02
-1.130574053237e+02
-1.244545855978e+02
-1.363318385009e+02
-1.031203341897e+01
-3.538674772866e+01
-1.548150208477e+01
-1.864546695050e+01
-1.986447122379e+01
-1.962736727485e+01
-1.987244565653e+01
-2.007219887825e+01
-2.069868936285e+01
-2.142290897489e+01
-2.273411014064e+01
-1.050395418355e+01
-1.768931592360e+01
-2.844612531702e+01
-2.920121944891e+01
-2.921525249510e+01
-2.913158715336e+01
-3.086264002357e+01
-2.944570319421e+01
-2.947983142304e+01
-2.967734599112e+01
-3.009386354570e+01
-3.028786736769e+01
-3.062219640659e+01
-3.105260095903e+01
-3.185388450436e+01
-3.302660222577e+01
-1.083650150137e+01
-1.219464365064e+01
-1.219464270122e+01
-1.170893647781e+01
-1.135273516962e+01
-1.083800376850e+01
-1.007470400014e+01
-9.296902999633e+00
-8.581144363753e+00
-7.954390507019e+00
-7.374920137334e+00
-7.216655174789e+00
-6.493851745472e+00
-5.624405971027e+00
-5.288313694276e+00
-5.117878370926e+00
-4.889129216437e+00
-4.517270240088e+00
-4.149105107838e+00
-1.145784974590e+01
-1.146787922134e+01
-1.143122551915e+01
-1.139842602171e+01
-1.133916143520e+01
-1.123525775061e+01
-1.111781895090e+01
-1.096159205545e+01
-1.079397986787e+01
-1.060747580620e+01
-1.042655577606e+01
-1.029616055220e+01
-1.026561613984e+01
-1.039190794937e+01
-1.100570672873e+01
-1.193675752238e+01
-1.167202558691e+01
-1.867633416252e+01
-1.998436845582e+01
-1.835859766170e+01
-1.789654733060e+01
-1.765472871592e+01
-1.754507835209e+01
-1.747705432022e+01
-1.746661675390e+01
-1.754240102796e+01
-1.753857043573e+01
-1.755826090891e+01
-1.758314310368e+01
-1.759234206187e+01
-1.756298784889e+01
-1.762529396726e+01
-1.775347961593e+01
-1.234192654599e+01
-1.745257595659e+01
-1.934780697045e+01
-2.011816482237e+01
-2.031639092292e+01
-2.019004485972e+01
-2.021458443903e+01
-2.206684006957e+01
-1.968718841226e+01
-3.018237760659e+01
-2.068756098134e+01
-2.159110032719e+02
-1.287708230585e+01
-1.521558135215e+01
-2.243818987764e+02
-2.379899934643e+01
-1.244036066811e+02
-2.047026991769e+02
-2.503245551228e+01
-1.910625635901e+02
-2.902971468976e+01
-2.290020960010e+02
-1.067391782590e+01
-1.746100417631e+02
-4.345632595271e+01
-7.694387948793e+01
-1.575375390718e+02
-1.625615753549e+02
-1.504242142340e+02
-1.393290394912e+02
-1.402568025411e+02
-1.449165672329e+02
-4.517775928652e+01
-4.189943132211e+01
-4.184197558798e+01
-8.375397854812e+01
-2.296889135165e+02
-1.488677317275e+01
-1.035176055907e+01
-1.964398356645e+02
-3.989188526316e+01
-4.061235965623e+01
-1.538101650877e+02
-1.990521048648e+02
-1.828727018582e+02
-2.095921953556e+02
-2.203451642168e+02
-1.474359651381e+01
-4.264964660197e+01
-2.246508076455e+02
-1.069496867468e+02
-1.200908494972e+01
-9.999320400162e+01
-1.404259710988e+02
-2.540158511624e+01
-2.281429631759e+01
-2.636555975449e+01
-3.367975869067e+01
-1.612489760332e+01
-6.118068968995e+01
-2.322558202578e+02
-9.600031576868e+00
-1.296832037208e+02
-4.874148154492e+01
-5.617624231718e+01
-6.053544176367e+01
-6.935751946941e+01
-7.422626453006e+01
-8.208456099500e+01
-7.765424176459e+01
-9.022440339488e+01
-8.602085934745e+01
-8.705678605089e+01
-9.845208111212e+01
-9.449274208884e+01
-1.067660518379e+02
-1.030077253750e+02
-9.086719562514e+01
-9.950559145313e+01
-8.749827937821e+01
-9.623446776371e+01
-1.080717179815e+02
-1.048517976006e+02
-9.314418895188e+01
-1.017360273672e+02
-9.023794254684e+01
-9.876649935717e+01
-8.746614564831e+01
-9.588146039894e+01
-1.071293304477e+02
-1.040941193763e+02
-9.304089686152e+01
-1.010800979168e+02
-9.022861764634e+01
-9.805108430304e+01
-1.089503670031e+02
-1.057101092585e+02
-9.494517873175e+01
-1.023963675037e+02
-9.175517767958e+01
-9.901292288490e+01
-8.848083410728e+01
-9.548900658415e+01
-1.061284683668e+02
-1.023905545314e+02
-9.183390038818e+01
-9.847658991669e+01
-1.091976767666e+02
-1.050292150475e+02
-1.159153235499e+02
-1.115126546809e+02
-1.007468283830e+02
-1.069884724128e+02
-1.179196031974e+02
-1.131514214210e+02
-1.023236159864e+02
-1.082839670261e+02
-1.192857235637e+02
-1.142097148727e+02
-1.032776985392e+02
-1.090206896838e+02
-1.201708656559e+02
-1.147549725259e+02
-1.036669437524e+02
-1.092161450215e+02
-1.205278752474e+02
-1.147835885578e+02
-1.262907808382e+02
-1.034557027839e+02
-1.088894150867e+02
-9.751374700108e+01
-1.028780264853e+02
-1.166802266256e+02
-9.146197463883e+01
-8.635237016545e+01
-9.676532144159e+01
-1.083397451742e+02
-8.529278918715e+01
-9.055229736971e+01
-7.903450793064e+01
-8.115468381148e+01
-1.165896597630e+02
-8.425287895890e+01
-7.267942851693e+01
-6.756307086242e+01
-6.117890923799e+01
-7.958080290723e+01
-9.195580859871e+01
-8.426109640361e+01
-9.690524707504e+01
-8.974876104713e+01
-6.624096736911e+01
-1.108367534317e+02
-1.042685433203e+02
-8.149540241498e+01
-8.220342478857e+01
-1.201906956432e+02
-9.585585813188e+01
-8.952589744020e+01
-1.011854342196e+02
-1.320683675456e+02
-1.379669157948e+02
-1.437931751426e+02
-1.497986144719e+02
-1.556875594612e+02
-1.617817556611e+02
-1.557499324063e+02
-1.678144528346e+02
-1.616519141588e+02
-1.677389841371e+02
-1.614663274635e+02
-1.737862546297e+02
-1.675020646962e+02
-1.797015083375e+02
-1.733032570812e+02
-1.611387767896e+02
-1.668263393937e+02
-1.547513374130e+02
-1.270578921974e+02
-1.314441760243e+02
-1.384469409271e+02
-1.429455554932e+02
-1.500779653825e+02
-1.546720905728e+02
-1.619138690317e+02
-1.571152195755e+02
-1.151027192947e+02
-8.802134280525e+01
-8.154366578774e+01
-7.785008076417e+01
-7.156639236177e+01
-6.797327439578e+01
-6.191989787150e+01
-5.838115222439e+01
-6.415488994543e+01
-5.459469006968e+01
-6.008433728802e+01
-5.051556128120e+01
-5.570536505128e+01
-1.153424658091e+02
-1.473203509153e+02
-1.591683048268e+02
-1.515447804057e+02
-5.614643739765e+01
-1.790627794879e+02
-1.736073392650e+02
-1.671235924371e+02
-1.690808991078e+02
-5.479683268828e+01
-5.263731086350e+01
-5.576623819917e+01
-1.019757113662e+02
-9.505395613393e+01
-1.794065360160e+02
-5.983516458803e+01
-1.800104590771e+02
-4.536054099808e+01
-1.724854603904e+02
-1.847666029504e+02
-1.496604683966e+02
-1.635604645300e+02
-1.556548826923e+02
-6.561678868859e+01
-6.097688974692e+01
-5.121789658132e+01
-5.658543538566e+01
-6.639318476996e+01
-6.126524031792e+01
-5.120224197946e+01
-5.589939337491e+01
-6.630753221150e+01
-6.074905151587e+01
-5.021998084272e+01
-5.490645555463e+01
-1.913586680142e+02
-4.126945464506e+01
-7.861330694653e+01
-1.858932195647e+02
-1.738444769981e+02
-1.071415838191e+02
-1.004607048887e+02
-8.826576404636e+01
-9.395618071687e+01
-1.059728896828e+02
-9.966579857136e+01
-8.759474678861e+01
-9.347696556394e+01
-8.137710026831e+01
-8.741444105120e+01
-9.938374028487e+01
-9.348415589058e+01
-8.148775174558e+01
-8.766662956771e+01
-7.564197478740e+01
-8.189693464715e+01
-9.387374029721e+01
-4.872232967020e+01
-1.640785013698e+02
-1.762414215936e+02
-9.510935798460e+01
-1.063662094782e+02
-1.128830499834e+02
-1.183852623082e+02
-8.813171172687e+01
-1.000618333975e+02
-4.682583494432e+01
-4.953135725882e+01
-1.139871306731e+02
-1.781280344017e+02
-1.659113635255e+02
-7.962052043826e+01
-7.160464135484e+01
-6.925840003728e+01
-6.112764336110e+01
-6.329324777247e+01
-5.900486383528e+01
-1.550064882890e+02
-1.053575433200e+02
-6.253914538589e+01
-5.127867200201e+01
-1.904335357229e+02
-1.521649482840e+02
-1.185395857262e+02
-1.267894147389e+02
-1.301405395608e+02
-1.384494650157e+02
-1.418960728374e+02
-1.502286180409e+02
-1.466874112648e+02
-1.678240928715e+02
-1.585323205415e+02
-7.605499959836e+01
-1.397383096551e+02
-7.144597623212e+01
-4.348274433091e+01
-4.392951009558e+01
-5.319200789070e+01
-6.487352460221e+01
-1.918194393451e+02
-1.537052298979e+02
-1.452125863117e+02
-5.286208547338e+01
-5.476134693882e+01
-1.757682062373e+02
-7.723591912665e+01
-7.538795536609e+01
-6.909025610424e+01
-4.068937467539e+01
-3.988804292660e+01
-1.115623741060e+02
-5.859688394989e+01
-5.199716560313e+01
-3.635848509454e+01
-3.221500635843e+01
-9.428962096630e+01
-1.061035883708e+02
-1.247514096931e+02
-1.302224289364e+02
-1.851568276955e+02
-4.891291819401e+01
-1.119166383123e+02
-1.589401904140e+02
-1.471002724204e+02
-1.118054269020e+02
-4.097851912922e+01
-3.834978045430e+01
-7.689860181108e+01
-5.983342748046e+01
-5.824510856015e+01
-1.975996932326e+02
-1.177482972009e+02
-1.548915957744e+02
-1.430025583920e+02
-1.669797053023e+02
-3.822029972937e+01
-1.984989017660e+02
-1.837544636905e+02
-1.565357439648e+02
-1.485133513429e+02
-6.118969414555e+01
-5.435452177749e+01
-4.531498872873e+01
-4.727523888866e+01
-7.334291758595e+01
-6.380879682261e+01
-7.537515047297e+01
-6.617706612233e+01
-6.330013755608e+01
-6.538351255762e+01
-5.658079613839e+01
-7.489838575884e+01
-1.243098245352e+02
-1.192789474868e+02
-1.491462867543e+02
-1.377134873519e+02
-1.111324476082e+02
-1.170853673141e+02
-6.937274672235e+01
-6.353564298235e+01
-4.479423461831e+01
-4.003743002872e+01
-1.320521501787e+02
-1.922513582450e+02
-1.188249187599e+02
-1.256083518674e+02
-1.209295453570e+02
-1.906483750229e+02
-8.406412503998e+01
-1.338241487959e+02
-3.690828146675e+01
-1.200665477255e+02
-3.358535387932e+01
-1.198803841856e+02
-1.961599956059e+02
-2.027748926918e+02
-1.800080767513e+02
-5.178294038357e+01
-1.278639658982e+02
-1.243037088639e+02
-5.380540646989e+01
-5.129493472784e+01
-6.077004962308e+01
-4.928209736984e+01
-8.214602889956e+01
-7.651375696609e+01
-1.664169019096e+02
-1.703430115844e+02
-1.599855422593e+02
-1.521623842991e+02
-1.880786121559e+02
-1.834301391084e+02
-6.958700301060e+01
-4.602461988367e+01
-1.232522132565e+02
-5.674433738504e+01
-2.046340981395e+02
-1.985480230627e+02
-2.791977439207e+01
-3.192244724448e+01
-1.180444864034e+02
-3.850827430203e+01
-3.979731037190e+01
-3.690031081123e+01
-2.218468400759e+02
-3.954942319590e+01
-2.086572359274e+02
-6.759483439161e+01
-1.239015529050e+02
-1.356669934040e+02
-7.682485652054e+01
-1.783115023148e+02
-1.116460490743e+02
-1.244013769543e+02
-6.297512692047e+01
-5.637494866194e+01
-6.903279922938e+01
-4.011835483477e+01
-3.056574777797e+01
-1.112958032307e+02
-8.311320266400e+01
-8.948316847567e+01
-5.341907096577e+01
-6.443351819527e+01
-1.310784708902e+02
-1.255561368162e+02
-1.283741461033e+02
-1.317175584301e+02
-1.217549670418e+02
-1.537197922291e+02
-1.419571197501e+02
-1.355434610513e+02
-1.224561948657e+02
-1.297199998575e+02
-8.750263382574e+01
-8.208885867049e+01
-8.726113411099e+01
-1.293593891340e+02
-2.150488923814e+02
-2.093351765802e+02
-2.908024662245e+01
-3.523445204986e+01
-3.299886251591e+01
-3.061989124067e+01
-1.321994623967e+02
-1.282366966523e+02
-1.378571677540e+02
-6.224969719029e+01
-1.511026159482e+02
-2.025998328585e+02
-1.954997665955e+02
-2.111475438488e+02
-1.717760271206e+02
-1.837715469215e+02
-1.789750446601e+02
-2.366608183537e+01
-1.201829430516e+02
-5.657100926709e+01
-2.071617364105e+01
-5.085385239935e+01
-5.765193627873e+01
-4.445575300618e+01
-5.078071941868e+01
-5.453784655558e+01
-6.298822061713e+01
-2.274046994639e+01
-1.343467904409e+02
-2.295814509435e+01
-2.744248570188e+01
-2.110216678118e+02
-2.046726483376e+02
-2.167685727376e+02
-2.103201269328e+02
-1.982957750016e+02
-2.044565304528e+02
-4.987214961275e+01
-2.182008298996e+02
-2.107557605727e+02
-2.244133732667e+02
-3.953573368668e+01
-4.898270991644e+01
-4.115787424645e+01
-3.162077250916e+01
-1.651705214103e+02
-1.547404465079e+02
-1.897455199940e+02
-1.773301891001e+02
-5.117240669140e+01
-5.040766508656e+01
-6.136617891410e+01
-5.976882950190e+01
-7.072067367090e+01
-6.900527909889e+01
-8.014895974801e+01
-1.823721066885e+02
-3.031537914061e+01
-4.386164479508e+01
-1.957664549248e+02
-1.900533934466e+02
-4.740676150240e+01
-3.663516542270e+01
-2.125292356324e+02
-7.086461432937e+01
-1.419087658047e+02
-1.370533452748e+01
-2.148467842602e+01
-7.374790115412e+01
-5.859782649680e+01
-5.076462520179e+01
-4.306123323213e+01
-1.658323921243e+02
-3.114800889846e+01
-3.517621785913e+01
-8.169822575483e+01
-2.757572338863e+01
-1.839287947757e+02
-7.808807236631e+01
-7.631270752273e+01
-4.326796274067e+01
-5.679858772849e+01
-8.212333004975e+01
-6.469200015258e+01
-6.054308202957e+01
-8.506564659417e+01
-4.445872428716e+01
-3.353964797051e+01
-8.434986923451e+01
-1.163525919137e+02
-1.237227974617e+02
-1.351291437855e+02
-1.313378836374e+02
-1.195208221160e+02
-1.273305570657e+02
-1.388992271070e+02
-1.356882306944e+02
-1.491612377432e+02
-1.437627319241e+02
-1.314343066547e+02
-1.392858183716e+02
-1.507873874394e+02
-1.272878465478e+02
-2.003560582101e+02
-8.425216377085e+01
-2.772544124530e+01
-2.468554763508e+01
-7.883016344564e+01
-1.586932988671e+02
-1.526099934727e+02
-6.513126111531e+01
-1.785994639856e+02
-6.956167987866e+01
-4.912950551578e+01
-1.870059050169e+02
-1.118109501294e+02
-1.072296611495e+02
-9.949711412250e+01
-1.486661418388e+02
-7.571379445838e+01
-2.022295032233e+02
-1.356883564393e+02
-1.282331023651e+02
-1.170235468817e+02
-1.232186325266e+02
-2.134243287466e+02
-2.043018561772e+02
-2.064751842635e+02
-1.941923249269e+02
-2.180833653705e+02
-1.670373672745e+02
-1.711857849473e+02
-7.160976243120e+01
-7.667789667783e+01
-8.707040998326e+01
-8.143464925963e+01
-7.114396130743e+01
-7.571366375361e+01
-8.593970680552e+01
-6.992523730744e+01
-1.435137728955e+02
-2.220640306737e+02
-1.494920501529e+02
-1.431460921258e+02
-1.315490644140e+02
-1.138266476080e+02
-1.200061481560e+02
-1.317375366993e+02
-1.075436029996e+02
-1.349327823970e+02
-2.234419518466e+02
-1.405002524423e+02
-1.144261531534e+02
-4.381971800966e+01
-5.611935677687e+01
-5.797356757439e+01
-6.971059380986e+01
-5.606406469644e+01
-1.365787992202e+02
-1.420456990442e+02
-1.356757066667e+02
-1.474896095786e+02
-1.408007716491e+02
-1.298859796934e+02
-1.526997804252e+02
-1.451066248634e+02
-4.217043934145e+01
-1.525689159803e+01
-2.318850713617e+01
-2.275877316756e+01
-3.100833119283e+01
-3.156550930467e+01
-4.043944751456e+01
-3.898108969321e+01
-2.337467080891e+01
-1.409159314349e+01
-2.236175618880e+01
-1.341301650511e+01
-2.175271231869e+01
-3.204251419648e+01
-4.669526887341e+01
-2.284036000411e+02
-1.117248875317e+02
-1.059342425871e+02
-9.461653129498e+01
-1.006596632204e+02
-1.163432661057e+02
-8.839376563185e+01
-8.419598987181e+01
-1.015613996618e+01
-1.980529062164e+01
-1.877563876397e+01
-2.965413738603e+01
-2.961460849400e+01
-2.016311683827e+01
-2.028201306138e+01
-1.048621153980e+01
-2.037024361656e+01
-3.026826222077e+01
-1.044799382592e+01
-9.564641185217e+01
-1.020312893767e+02
-2.251134326256e+02
-4.259353021669e+01
-1.250297745347e+01
-1.371571184769e+02
-1.404783225309e+02
-1.400729335181e+02
-2.092044396648e+02
-2.153885876960e+02
-1.370059869643e+02
-7.386280896407e+01
-1.427966549268e+02
-1.173159692477e+02
-4.380601615218e+01
-7.065554147565e+01
-1.715199149578e+02
-1.554323153829e+02
-1.970444414992e+02
-1.603445224894e+02
-1.855667298187e+02
-2.078171648009e+02
-4.695290371593e+01
-7.526488235899e+01
-6.986690573609e+01
-9.957604609417e+01
-7.782329697173e+01
-1.242619781466e+02
-4.974360836575e+01
-1.753791715314e+02
-7.250146527178e+01
-1.261261033965e+02
-1.021482582175e+02
-8.015389395124e+01
-6.574214270719e+01
-8.734440076525e+01
-1.204073346500e+02
-1.739086651736e+02
-1.056829944189e+02
-1.265937091045e+01
-1.799385914863e+02
-1.438307610061e+02
-8.171351068606e+01
-1.665922159025e+02
-4.601974625275e+01
-1.054151311663e+02
-1.297657649098e+02
-6.981328848585e+01
-3.841676406678e+01
-6.280232750741e+01
-2.043428436031e+02
-1.090653698718e+02
-7.138443008230e+01
-1.225467874097e+02
-8.480004806696e+01
-3.800639687021e+01
-1.225562451176e+02
-1.132250238018e+02
-1.812167610107e+02
-1.453504425040e+02
-7.663120306337e+01
-1.923290880089e+02
-1.132110437510e+02
-1.171919367219e+02
-1.334742369809e+02
-9.441575897653e+01
-1.123189501098e+02
-1.253886194133e+02
-1.712195951056e+02
-6.994407006703e+01
-1.101848580393e+02
-1.114550075499e+02
-1.121477315937e+02
-1.649657572978e+02
-1.861757216201e+02
-4.615645311103e+01
-6.666400790323e+01
-8.263065471042e+01
-1.618326721700e+02
-1.286945479348e+02
-7.393030555852e+01
-1.860272701520e+02
-1.236636354822e+02
-1.260724336961e+02
-5.371437881292e+01
-3.559559959302e+01
-7.398050894008e+01
-1.097187969457e+02
-1.378120933303e+02
-1.409306158393e+02
-1.919801598850e+02
-1.727431170024e+02
-1.883908363900e+01
-4.740136659960e+01
-1.979146949375e+02
-1.290887755809e+02
-1.785146123394e+02
-1.338039482027e+02
-1.790370971546e+02
-3.782030160925e+01
-2.039451713204e+02
-1.711542965194e+02
-6.808470271067e+01
-3.995160113998e+01
-2.181965854703e+02
-1.835605632388e+02
-1.234269128883e+02
-1.242392211423e+02
-3.013038816592e+01
-1.435260345303e+02
-1.133320585473e+02
-1.468511705971e+02
-1.882882086254e+02
-9.471074853513e+01
-1.373210186703e+02
-1.435994184200e+02
-2.981008268911e+01
-4.134970748189e+01
-1.428736372568e+02
-7.997833273823e+01
-1.305058871247e+02
-1.920120552986e+02
-1.484159360393e+02
-9.024550421676e+01
-1.539216831056e+02
-2.722550012776e+01
-1.027423740029e+02
-1.593962951492e+02
-1.250371636586e+02
-3.137914543386e+01
-1.313989492560e+02
-2.024097256119e+02
-9.232734579218e+01
-1.367687664675e+02
-1.151688587594e+02
-2.566133960381e+01
-1.484410354679e+02
-1.368215923770e+02
-1.393151208291e+02
-1.207073974766e+02
-1.604454268296e+02
-3.567979085132e+01
-6.894146314284e+01
-5.785429465656e+01
-9.633503992294e+01
-1.401948465546e+02
-3.944890156329e+01
-1.191067689322e+02
-4.226887930641e+01
-9.178793376035e+01
-1.596205967510e+02
-7.273239392709e+01
-9.756184424953e+01
-6.537973408040e+01
-9.261165662687e+01
-1.319759836311e+02
-9.815917701177e+01
-9.283869449654e+01
-1.288144012120e+02
-9.813652466685e+01
-1.390434489777e+02
-2.295030593503e+02
-4.905779156214e+01
-2.335559250480e+01
-1.601884804500e+01
-3.507616468613e+01
-8.143343337746e+01
-1.233890730949e+02
-4.956758869950e+01
-7.536528159124e+01
-1.558266924139e+02
-1.953125332459e+02
-8.991844040839e+01
-1.854120934042e+02
-1.475006170834e+02
-1.175612333015e+02
-3.943787301906e+01
-2.138527258073e+01
-1.713446430694e+02
-2.269853752942e+01
-3.130583583634e+01
-2.906943504126e+01
-8.074040634258e+01
-3.073769824251e+01
-2.348309659818e+01
-2.013360370722e+02
-5.172886045144e+01
-1.631560716977e+02
-2.187587113590e+01
-1.347446601613e+02
-1.890883819615e+02
-2.280491364556e+02
-1.755511033120e+02
-2.563895604912e+01
-6.576522198948e+01
-1.713156619186e+02
-9.945425791921e+01
-2.299694476917e+02
-5.150075958602e+01
-1.297591012560e+02
-4.180308684560e+01
-1.296210181364e+02
-1.353986257405e+02
-6.455405821840e+01
-6.828580618065e+01
-2.212192963496e+02
-1.486698130530e+02
-2.325707267882e+01
-8.950041637962e+01
-1.006425265819e+02
-2.216278188286e+01
-2.155596101405e+02
-1.466021946840e+02
-2.199503778897e+02
-2.927772905812e+01
-1.962198613502e+01
-2.151777881736e+02
-1.641189191902e+02
-4.723814603341e+01
-1.442458035470e+02
-1.835293282006e+01
-3.852920193048e+01
-1.971894268190e+01
-2.304080569525e+02
-1.322649477863e+02
-1.111003481829e+02
-4.710682211741e+01
-7.331213120293e+01
-1.721726915670e+02
-2.880284021978e+01
-1.323510590553e+02
-2.127957661597e+02
-1.421081513470e+02
-2.108550829124e+02
-2.077599992656e+01
-1.891634792352e+02
-1.985641436368e+02
-3.911193247605e+01
-1.448795015261e+02
-9.019232429306e+01
-3.913530471928e+01
-1.401287795664e+02
-8.294171355430e+00
-3.824063547118e+01
-2.323587093807e+02
-3.729749218159e+01
-5.787955617424e+01
-1.610708007344e+02
-1.368760454327e+02
-1.109318341872e+02
-3.743025088595e+01
-1.491940371974e+01
-7.899507247837e+01
-1.943668849255e+02
-1.390880436833e+02
-7.102147195903e+01
-2.911765659138e+01
-1.558588231722e+02
-1.201745825721e+02
-1.659561269306e+02
-1.949284589332e+02
-1.311494248859e+01
-1.473392377661e+02
-1.876237884404e+01
-2.203613273044e+02
-1.253074092851e+02
-1.260890664745e+01
-1.220085247963e+01
-2.652218722264e+01
-2.328138398398e+01

SCALARS node_materi_stress_size_dev_sd_sig float
LOOKUP_TABLE default
4.413947049943e+00
1.371914661354e+01
1.791898476313e+02
1.075201313942e+02
1.059539693260e+01
2.060606637404e+01
2.978947371778e+01
4.025600453919e+01
5.042082191022e+01
6.027774478663e+01
7.014460559482e+01
7.995531875976e+01
8.961714776248e+01
9.927817328880e+01
1.090158404002e+02
1.180365036708e+02
1.260609107571e+02
1.348293579576e+02
1.435233406010e+02
1.517177594401e+02
1.597671267414e+02
1.676533479293e+02
1.749929220362e+02
1.081929522106e+02
1.078058185374e+02
1.080255559361e+02
1.081984646210e+02
1.080357710603e+02
1.086476909132e+02
1.091090846179e+02
1.096622974903e+02
1.107629711563e+02
1.117337540946e+02
1.124843956736e+02
1.143167526367e+02
1.162834224703e+02
1.183189971660e+02
1.204631598954e+02
1.229162851650e+02
1.258557577952e+02
1.295163748062e+02
1.332598079926e+02
1.370207503372e+02
1.405384687093e+02
1.438952727677e+02
1.473158370440e+02
1.505149453796e+02
1.536371974658e+02
1.565819059764e+02
1.593060489492e+02
1.617120225489e+02
1.638544395638e+02
1.660230613192e+02
1.678515655739e+02
1.690812027939e+02
1.705812773891e+02
1.719706282756e+02
1.731956430152e+02
1.742304872444e+02
1.751573382355e+02
1.758383987673e+02
1.763943377561e+02
1.768304466662e+02
1.774235040071e+02
1.781530359602e+02
1.785802863142e+02
1.780140393227e+02
1.789295984202e+02
1.788193116909e+02
1.791366261936e+02
1.794961142259e+02
1.795273887018e+02
2.226216994667e+01
3.140291405395e+01
4.065773000595e+01
4.998006206678e+01
5.974800466810e+01
6.969089833409e+01
7.987100643213e+01
9.019886281221e+01
1.009305595376e+02
1.077672509250e+01
1.551007384055e+01
1.945485853304e+01
2.395488390934e+01
2.598378216170e+01
2.636643495881e+01
2.634025343700e+01
2.628236390852e+01
2.631527177182e+01
2.182787073344e+01
1.376842193204e+01
8.323094599079e+00
7.234408503738e+00
1.257304751619e+01
1.299634508249e+01
1.302067363981e+01
1.291316338506e+01
1.392359594423e+01
1.297189856851e+01
1.284698620109e+01
1.289603231109e+01
1.302539353107e+01
1.295804114906e+01
1.290043653288e+01
1.291065473722e+01
1.311973558206e+01
1.373168485849e+01
1.009963772498e+01
1.082871605711e+01
1.113995858970e+01
1.028735549572e+01
8.463956167149e+00
7.199363686041e+00
6.125260762601e+00
5.105083620881e+00
4.178512586394e+00
3.452591407286e+00
2.954065912700e+00
3.031137198281e+00
3.115430366114e+00
3.030583445438e+00
3.448531092408e+00
3.947743385206e+00
4.261428102581e+00
4.217327180845e+00
3.918382897903e+00
7.184914532975e+00
6.995418040446e+00
7.003265254985e+00
6.947473185325e+00
6.880600338267e+00
6.743437815383e+00
6.575607581771e+00
6.379009861002e+00
6.187857217937e+00
5.923244323003e+00
5.679088445867e+00
5.507278229027e+00
5.410378884389e+00
5.536890500021e+00
6.010877093435e+00
7.978361866796e+00
1.397530616896e+01
9.522833017553e+00
8.509995507483e+00
7.527425972776e+00
7.242570700934e+00
7.112712812035e+00
7.063408634167e+00
7.048385808619e+00
7.047456150661e+00
7.083379445224e+00
7.087151269614e+00
7.101264234462e+00
7.113839097091e+00
7.114847725940e+00
7.112925789210e+00
7.131502360704e+00
7.198608913652e+00
1.533587035092e+01
2.215278351026e+01
2.512781948963e+01
2.634207116514e+01
2.728272516557e+01
2.704643710622e+01
2.623312399498e+01
2.646539222622e+01
1.714525499982e+01
1.414266761952e+01
2.113673804060e+01
1.687963108997e+02
5.858327535593e+00
6.303849253749e+00
1.735077802127e+02
2.642260433184e+01
1.045180978738e+02
1.617567071987e+02
2.823416491486e+01
1.517801314356e+02
2.757472004046e+01
1.757507133226e+02
6.910249539579e+00
1.379242849570e+02
2.117598411256e+01
6.567939841791e+01
1.291721437316e+02
1.261064574383e+02
1.138900914465e+02
1.037252143189e+02
1.039847881546e+02
1.084363631160e+02
2.055988405720e+01
2.008911408632e+01
2.103836275868e+01
5.484747419880e+01
1.759751177187e+02
6.991242344949e+00
8.462824993807e+00
1.554783299303e+02
2.038362125039e+01
3.502924376343e+01
1.173711408829e+02
1.577302072039e+02
1.451641932805e+02
1.651029583596e+02
1.712998784249e+02
5.922571032258e+00
1.968710826493e+01
1.735351917748e+02
7.456707788035e+01
6.610567048478e+00
8.488688771483e+01
1.049511300088e+02
2.786800789719e+01
2.461088744466e+01
2.869691846800e+01
2.153526913733e+01
1.497617268083e+01
3.666948812106e+01
1.774437551540e+02
8.343511330992e+00
9.495592435873e+01
2.327261423089e+01
2.956427983082e+01
3.131974898608e+01
3.940751260122e+01
4.193778111937e+01
4.949570726896e+01
4.754822356673e+01
5.769721548217e+01
5.625900640356e+01
5.239033589554e+01
6.633078886300e+01
6.522523574100e+01
7.517452189737e+01
7.425488294164e+01
6.485921763217e+01
7.388507782387e+01
6.494974733964e+01
7.386331569337e+01
8.272335894136e+01
8.255491305695e+01
7.401073845169e+01
8.246750383620e+01
7.413316157968e+01
8.232819539620e+01
7.408003939791e+01
8.202438932648e+01
9.026233604965e+01
8.970196240796e+01
8.149114642545e+01
8.890638643008e+01
8.066331052203e+01
8.780095452024e+01
9.601624465885e+01
9.464122249440e+01
8.632966927530e+01
9.292865561884e+01
8.448930650695e+01
9.086283256730e+01
8.225174886404e+01
8.837745973091e+01
9.689471613556e+01
9.419347493944e+01
8.548856940586e+01
9.106397349901e+01
9.971757679392e+01
9.635732421965e+01
1.049578467081e+02
1.013926799859e+02
9.265667089053e+01
9.749613448114e+01
1.061781079160e+02
1.020987260370e+02
9.327806630206e+01
9.774281431924e+01
1.065250687584e+02
1.020396196643e+02
9.311237040663e+01
9.731989783120e+01
1.062452974979e+02
1.014141846180e+02
9.234669077727e+01
9.637190315784e+01
1.054517298082e+02
1.003347631067e+02
1.094050367523e+02
9.106897337997e+01
9.502952212989e+01
8.556272679149e+01
8.957661701822e+01
1.028056439494e+02
7.994326188981e+01
7.596389608150e+01
8.402440627498e+01
9.362009873829e+01
7.424922157558e+01
7.839783696308e+01
6.851868611874e+01
7.565751669058e+01
9.134476881087e+01
7.273228106009e+01
6.277419562707e+01
5.847147340264e+01
5.267470063925e+01
4.551826145961e+01
5.601140800584e+01
4.920833931097e+01
6.012685857394e+01
5.389952678734e+01
5.699850402326e+01
7.682717368048e+01
6.696175975243e+01
6.568476565767e+01
7.323205365077e+01
1.081742128023e+02
8.252448110125e+01
7.693091415933e+01
8.667736102211e+01
1.143564181863e+02
1.182568500886e+02
1.230377446453e+02
1.268667236321e+02
1.314747892845e+02
1.352283319151e+02
1.306083536400e+02
1.388961401003e+02
1.342793781868e+02
1.396585299286e+02
1.358673581572e+02
1.424884634504e+02
1.378863118365e+02
1.460143798735e+02
1.414390978012e+02
1.331280871217e+02
1.367184392123e+02
1.282759352368e+02
1.133634630160e+02
1.164587655906e+02
1.215867536370e+02
1.245761451273e+02
1.296304012647e+02
1.325209355960e+02
1.374720336626e+02
1.344003280196e+02
8.407083832197e+01
8.219633312940e+01
7.655530252134e+01
7.310122135553e+01
6.739111968162e+01
6.375249595044e+01
5.797132843457e+01
5.410073855697e+01
5.968148426530e+01
4.978327935241e+01
5.517544678957e+01
4.504035272216e+01
5.023737701267e+01
9.791509357701e+01
1.272557798689e+02
1.351319738235e+02
1.296154748140e+02
4.831197432614e+01
1.449543649175e+02
1.438777264649e+02
1.400121709220e+02
1.421471195175e+02
4.697891705198e+01
4.830475928556e+01
5.187512657999e+01
6.469190291331e+01
5.875913831098e+01
1.478755711324e+02
5.131038210846e+01
1.469281856022e+02
3.960414201797e+01
1.402784311243e+02
1.484434855491e+02
1.258301764000e+02
1.374946571579e+02
1.316969925780e+02
6.034641602691e+01
5.529440546436e+01
4.517508687352e+01
5.025000909677e+01
6.027134277728e+01
5.475398272944e+01
4.453568947913e+01
4.905066654783e+01
5.931154186143e+01
5.356893939978e+01
4.307767197363e+01
4.765257447954e+01
1.529339256923e+02
3.457490091970e+01
5.583863463096e+01
1.516136585758e+02
1.450098407317e+02
6.962966813249e+01
6.394797878639e+01
5.338489379313e+01
5.878546803589e+01
6.944859925319e+01
6.435125205902e+01
5.402330373826e+01
5.957092437388e+01
4.952930908503e+01
5.506006263768e+01
6.523580695695e+01
6.071944961248e+01
5.078801714838e+01
5.636054680823e+01
4.661511736836e+01
5.204087152790e+01
6.201025962346e+01
4.151058894688e+01
1.389224916667e+02
1.466177266018e+02
8.144407180455e+01
9.069092674809e+01
9.620447006169e+01
1.002586694658e+02
5.754995643494e+01
6.775311601633e+01
4.229934936356e+01
4.554326169409e+01
7.585766088529e+01
1.438466560700e+02
1.355319458183e+02
7.230713686131e+01
6.483179990941e+01
6.373672646188e+01
5.606845901162e+01
5.711789959885e+01
5.473127055359e+01
1.318755941461e+02
7.104604124581e+01
5.416831244688e+01
4.392252413953e+01
1.519542776881e+02
1.310314819892e+02
9.856369026339e+01
1.061862598209e+02
1.069984780305e+02
1.145603522657e+02
1.155680403953e+02
1.229939655728e+02
1.217731437606e+02
1.396176449429e+02
1.300662513012e+02
4.757696993383e+01
1.215933170629e+02
6.379628253966e+01
3.709583869765e+01
3.688372654768e+01
4.554127487386e+01
5.559929722984e+01
1.554508870949e+02
1.242143170088e+02
1.165174061817e+02
4.849901701677e+01
4.939998661353e+01
1.451554829958e+02
4.349630660641e+01
4.415410636448e+01
3.991796720843e+01
3.461984747727e+01
3.254477264302e+01
7.511809600912e+01
5.491247696194e+01
4.831723530521e+01
2.903863053958e+01
2.379806774055e+01
6.297799582078e+01
7.321569177100e+01
1.055117274921e+02
1.094904615830e+02
1.516558566065e+02
4.170211194190e+01
7.812803255280e+01
1.354292296033e+02
1.273743961609e+02
9.469895669810e+01
3.627144599904e+01
3.284153672843e+01
6.934968627798e+01
5.218156068672e+01
4.985028434546e+01
1.590312002261e+02
8.046124913478e+01
1.286035900852e+02
1.204364786516e+02
1.367480563364e+02
3.098262025227e+01
1.592057217483e+02
1.474479354200e+02
1.250548225835e+02
1.175835481841e+02
5.748732149633e+01
5.075882367114e+01
4.167878511045e+01
4.385189927080e+01
4.655693632755e+01
5.981246814642e+01
5.637320170744e+01
4.731302551529e+01
4.827765683812e+01
5.763652140113e+01
4.973138727289e+01
7.055217980076e+01
1.110166261539e+02
1.016041638491e+02
1.246097503820e+02
1.190858684987e+02
7.576402467608e+01
8.176399051910e+01
4.121839943500e+01
3.710782557785e+01
3.803102156814e+01
3.358171314907e+01
1.133003385867e+02
1.552231682475e+02
8.078567132335e+01
8.731867748163e+01
8.254660050690e+01
1.550972007126e+02
7.852572692674e+01
1.182769899518e+02
2.925178882345e+01
1.041521506761e+02
2.779529108755e+01
9.186561777568e+01
1.554547252573e+02
1.597635648532e+02
1.472523560388e+02
2.868525914195e+01
1.108816102463e+02
1.092691738554e+02
3.951469951834e+01
4.069226864994e+01
4.906138404080e+01
4.160294764751e+01
7.365385615635e+01
6.806687723013e+01
1.335341675649e+02
1.382466855895e+02
1.267016621468e+02
1.190677164394e+02
1.525678383382e+02
1.502563150856e+02
5.965595480918e+01
4.189390997543e+01
8.614906606331e+01
3.807993392237e+01
1.624814210658e+02
1.587385533385e+02
1.819230247350e+01
2.329075044019e+01
8.388801323074e+01
3.517913902449e+01
3.682052487306e+01
3.311709337932e+01
1.711382062628e+02
2.023796583494e+01
1.632141169362e+02
5.775331863718e+01
8.895185655283e+01
1.173372053952e+02
7.085025884116e+01
1.476628622550e+02
7.831553411856e+01
8.998485639839e+01
3.472687313628e+01
3.051290295621e+01
3.867631896568e+01
3.393247229204e+01
2.270178504432e+01
7.689112095894e+01
7.137715689427e+01
7.668837811365e+01
4.598981917037e+01
5.626511483817e+01
1.107581499680e+02
1.069085501945e+02
1.003786716270e+02
1.012702007180e+02
9.911835472054e+01
1.316699273945e+02
1.234550110820e+02
1.191430079561e+02
8.654180303964e+01
9.382852223024e+01
7.898169595659e+01
7.464205361239e+01
7.771593097253e+01
9.183712198310e+01
1.673157220888e+02
1.639449089119e+02
2.328017245972e+01
2.896715499500e+01
2.764339743629e+01
2.423949797047e+01
9.409588668942e+01
8.990600495755e+01
9.997976345669e+01
5.325444947043e+01
1.270312082008e+02
1.618859693486e+02
1.580926597412e+02
1.665859718575e+02
1.414980907929e+02
1.490178828785e+02
1.445967940124e+02
1.339337894960e+01
8.627424879501e+01
3.155348444307e+01
9.315334841239e+00
2.767259622955e+01
3.303305700008e+01
2.329217316423e+01
4.343711668287e+01
2.816069344092e+01
3.361577822442e+01
1.676886039041e+01
9.749848222273e+01
1.816120188134e+01
2.238474649755e+01
1.660050089909e+02
1.621327439843e+02
1.691339474979e+02
1.651861298408e+02
1.580438148478e+02
1.615454492003e+02
2.636389976923e+01
1.695884869352e+02
1.650455933391e+02
1.732676193307e+02
3.389109609961e+01
4.558713869424e+01
3.833421936874e+01
3.041553280850e+01
1.299377327467e+02
1.202094095825e+02
1.512395179280e+02
1.430147338694e+02
2.850686063964e+01
2.814026007461e+01
3.642121391964e+01
3.541051631150e+01
4.394226379699e+01
4.270097759678e+01
5.156857089821e+01
1.462746247514e+02
2.801748933274e+01
3.049328226440e+01
1.574634492020e+02
1.544956021022e+02
4.193157446312e+01
3.464457792967e+01
1.671829654601e+02
6.658543758828e+01
1.052460947568e+02
8.183796693976e+00
1.169725070000e+01
6.879267785785e+01
4.959400733931e+01
4.700173836368e+01
4.014082871354e+01
1.397669966071e+02
2.456091494570e+01
3.068047230745e+01
5.248331051770e+01
2.377138242707e+01
1.473190091165e+02
7.330058915617e+01
6.584930310714e+01
3.920392084023e+01
5.301674596640e+01
5.569878184138e+01
3.780621978430e+01
3.741086365388e+01
7.959004597560e+01
4.115706400088e+01
3.269069085253e+01
6.529160146503e+01
7.824300449459e+01
8.579573626641e+01
9.720963354469e+01
9.373501428334e+01
8.234943563467e+01
9.055879780705e+01
1.018669536489e+02
9.930724885829e+01
1.124749703540e+02
1.079674048488e+02
9.662155875235e+01
1.049609295212e+02
1.153822383948e+02
9.438454951292e+01
1.595544903453e+02
7.770756208795e+01
1.829986541688e+01
1.642933493771e+01
6.590669627929e+01
1.224513810235e+02
1.159278895202e+02
6.131153660773e+01
1.414275352035e+02
4.656638095663e+01
4.416786012937e+01
1.485277243763e+02
7.438199472334e+01
7.100195143461e+01
6.318585768582e+01
1.118831904377e+02
4.326847189339e+01
1.598948395077e+02
1.192128214797e+02
1.134571688686e+02
1.052296709174e+02
8.783153566736e+01
1.673715742437e+02
1.627509612263e+02
1.639714676745e+02
1.572455816791e+02
1.700778132894e+02
1.306805736619e+02
1.347231119322e+02
6.486724333698e+01
7.014856400221e+01
7.964278403679e+01
7.502432475940e+01
6.535691883799e+01
7.014066251428e+01
7.954018542281e+01
6.501120302749e+01
1.108127513023e+02
1.722937574534e+02
1.275948067612e+02
1.235219342156e+02
1.149867757230e+02
9.764756999487e+01
1.029945718493e+02
1.120992378166e+02
9.220559566066e+01
1.134828988137e+02
1.729934167044e+02
1.229376433806e+02
9.901607378998e+01
1.998999225027e+01
2.781169069994e+01
2.896355654418e+01
3.752284713606e+01
2.818458064604e+01
1.146067274414e+02
1.184277612224e+02
1.134220361553e+02
1.221953940508e+02
1.170514861254e+02
1.087666716748e+02
1.257586121579e+02
1.201312815950e+02
1.976884193801e+01
6.078583988506e+00
1.367618245031e+01
1.376131526110e+01
2.276733600696e+01
2.318937216519e+01
3.304777593364e+01
3.130744289165e+01
1.326385454471e+01
5.769148799242e+00
1.419681875005e+01
5.745427737427e+00
1.434333409611e+01
2.475418148549e+01
3.966538372927e+01
1.752043214988e+02
9.442591846559e+01
8.989753746672e+01
8.051832883022e+01
8.564979791468e+01
9.828174591739e+01
7.531003025813e+01
7.181457054212e+01
8.666787602365e+00
1.722313593931e+01
1.645212249699e+01
2.579044881364e+01
2.541418242792e+01
1.717396951275e+01
1.704068398240e+01
8.107223722512e+00
1.676929767576e+01
2.562799578147e+01
7.461356460972e+00
6.476488746082e+01
7.027194106779e+01
1.738782533111e+02
2.092439005992e+01
6.290539599472e+00
1.017100261797e+02
1.043408630770e+02
1.041406678190e+02
1.635176891927e+02
1.673161580789e+02
1.018660758954e+02
6.427061269681e+01
1.050048192194e+02
8.280899793689e+01
3.850333340417e+01
6.229272164385e+01
1.391979709204e+02
1.295122469051e+02
1.563524471124e+02
1.319240349355e+02
1.494922294055e+02
1.648578273745e+02
4.002550519633e+01
4.525350676423e+01
4.241131574110e+01
6.646205095060e+01
6.705602034293e+01
1.046507448432e+02
4.259604986742e+01
1.396250946920e+02
5.700519116023e+01
1.103504884734e+02
8.811899226288e+01
7.012624556217e+01
5.805452240577e+01
7.943393454740e+01
1.042826207238e+02
1.433359276321e+02
7.228371143194e+01
8.092096901315e+00
1.475810913998e+02
1.220761433895e+02
4.859640002966e+01
1.402679065906e+02
3.873483040275e+01
7.002449848191e+01
9.192047891934e+01
3.820963661715e+01
3.239861846606e+01
3.576752475909e+01
1.626192758761e+02
7.118264010023e+01
6.131501834003e+01
1.099325260014e+02
7.379635345786e+01
2.037064244943e+01
8.744553260349e+01
1.011490558666e+02
1.496489800986e+02
1.264356228760e+02
6.568557269809e+01
1.546958402133e+02
1.026874255925e+02
8.086233264903e+01
1.077731852615e+02
8.755483990063e+01
7.487166147977e+01
1.107905643351e+02
1.428298202838e+02
5.752346155349e+01
9.065205892307e+01
8.315899631198e+01
9.708574629464e+01
1.345130381217e+02
1.511869830310e+02
3.998933236602e+01
6.206925963520e+01
4.827223259705e+01
1.313057236096e+02
9.191133950800e+01
6.553678737591e+01
1.504269918851e+02
8.598831894739e+01
1.082112111093e+02
4.610445826155e+01
2.893007432342e+01
6.924759075023e+01
9.919728788801e+01
1.171471200533e+02
1.031705317791e+02
1.538563004729e+02
1.439460029360e+02
1.835961623720e+01
2.894674528959e+01
1.572842894818e+02
1.146554797637e+02
1.476715282338e+02
1.116072877052e+02
1.429839368483e+02
3.464817115077e+01
1.608612694804e+02
1.433730027128e+02
6.416330718107e+01
2.045495564977e+01
1.693952024135e+02
1.510066949950e+02
1.052570035186e+02
1.107279975431e+02
2.393955086101e+01
1.209233336039e+02
9.097237632076e+01
1.102034876305e+02
1.538086669799e+02
5.997365283592e+01
1.158891447648e+02
1.236138756026e+02
2.533761706696e+01
3.245683408170e+01
1.196482642876e+02
7.451235853121e+01
1.150905189350e+02
1.545638192719e+02
1.233936140086e+02
8.371140992325e+01
1.270977086868e+02
2.861302901434e+01
6.827114989052e+01
1.307399075508e+02
9.968907012248e+01
2.632644637201e+01
1.122683560464e+02
1.592970881486e+02
8.163295266926e+01
1.193248767936e+02
7.931583512021e+01
2.833241723617e+01
1.276953923303e+02
1.086097859116e+02
1.189441163031e+02
1.074091504684e+02
1.359279778834e+02
3.429254208372e+01
6.014346526666e+01
5.003911907187e+01
8.862681712333e+01
1.095801893936e+02
3.388639036303e+01
8.565544091698e+01
3.533476591612e+01
8.428543659480e+01
1.335793047769e+02
4.578775565756e+01
8.879745722612e+01
5.596770913597e+01
8.401884096926e+01
1.155231308302e+02
8.825922006771e+01
8.312641500731e+01
9.356463176507e+01
8.713056678361e+01
1.035267062923e+02
1.757659414561e+02
2.733978858725e+01
2.762932779650e+01
6.717541159841e+00
3.327931810385e+01
7.207239388491e+01
9.279204959722e+01
2.760590906958e+01
6.621518890670e+01
1.195588983844e+02
1.549269825938e+02
5.984249283293e+01
1.519126408729e+02
1.254936183210e+02
8.408953687269e+01
1.959769742770e+01
1.463838322222e+01
1.388237406520e+02
2.683783854083e+01
2.946962157123e+01
2.613113039761e+01
6.919876211976e+01
2.283524472718e+01
2.562777429559e+01
1.608483425776e+02
2.673281723769e+01
1.350899511809e+02
2.307560750090e+01
9.737097187866e+01
1.518314455669e+02
1.753722082184e+02
1.432074241198e+02
2.076121085410e+01
3.473726879276e+01
1.358663340664e+02
6.758727076999e+01
1.762282792312e+02
2.544064685109e+01
9.488931049549e+01
3.501826022669e+01
9.497238272305e+01
1.027903858746e+02
3.852278334277e+01
3.656745725253e+01
1.707888346113e+02
1.117979257761e+02
1.683900126328e+01
5.909622321287e+01
8.589314969218e+01
1.117587402354e+01
1.686802017805e+02
1.124783715507e+02
1.703053873120e+02
2.539835311429e+01
1.440299179326e+01
1.687465987426e+02
1.282415205353e+02
4.028540389953e+01
1.078831952055e+02
1.164596779935e+01
1.847432147832e+01
1.560092813868e+01
1.763750710807e+02
9.611306478302e+01
9.409238762807e+01
2.178871233189e+01
6.270941128012e+01
1.387295067977e+02
2.174611151817e+01
9.672789141310e+01
1.675756117169e+02
1.044799852661e+02
1.655714577185e+02
9.721609552552e+00
1.513618590712e+02
1.597952843158e+02
1.965137237326e+01
1.074414037982e+02
7.696874930041e+01
3.311004241810e+01
1.046394299614e+02
7.192946921967e+00
1.937976385904e+01
1.773998211411e+02
3.173336925726e+01
3.396546368350e+01
1.249502328077e+02
1.139721685548e+02
7.810810036250e+01
2.978770164690e+01
6.972851891863e+00
5.077558348495e+01
1.556152826765e+02
1.016632485225e+02
4.380142789444e+01
2.152260313763e+01
1.205715919572e+02
1.011270173550e+02
1.322158181389e+02
1.574942115581e+02
1.156213703796e+01
1.217857493737e+02
1.428057435719e+01
1.710275128932e+02
1.051897044715e+02
1.223253255599e+01
7.312111141744e+00
1.175887920280e+01
9.508980065828e+00

SCALARS node_materi_strain_total_average_a_ept float
LOOKUP_TABLE default
4.384868375155e-05
3.808885540437e-03
2.766449497625e-03
5.244758592172e-03
1.167715680364e-04
2.617164197127e-04
4.037880450979e-04
5.594432267796e-04
7.117084100616e-04
8.627368783217e-04
1.012476193549e-03
1.161261349416e-03
1.309244482146e-03
1.456872757023e-03
1.606089299149e-03
1.751727272397e-03
1.882393275033e-03
2.023036555712e-03
2.165835682331e-03
2.302114913181e-03
2.437478766243e-03
2.571646306768e-03
2.701872248539e-03
5.253619544501e-03
5.244278823189e-03
5.243822109095e-03
5.239498474962e-03
5.226780523731e-03
5.224526674896e-03
5.211121632156e-03
5.192805346908e-03
5.176521767403e-03
5.153202079458e-03
5.114499067177e-03
5.081913412358e-03
5.032786898800e-03
4.978211581081e-03
4.910541227173e-03
4.834314094864e-03
4.746660516376e-03
4.653225019344e-03
4.555833491681e-03
4.452997111892e-03
4.342027097434e-03
4.224630434028e-03
4.109721143609e-03
3.994442457555e-03
3.882799292838e-03
3.776357618568e-03
3.672639390680e-03
3.578132489480e-03
3.483280825849e-03
3.402525853891e-03
3.323346440091e-03
3.243455382631e-03
3.172932886992e-03
3.117130579946e-03
3.064816508360e-03
3.014123123486e-03
2.977951154135e-03
2.935033903751e-03
2.904356428134e-03
2.870683152861e-03
2.848218204210e-03
2.837843299473e-03
2.827178031770e-03
2.790824361097e-03
2.796692558056e-03
2.778211037794e-03
2.773644086301e-03
2.776434739146e-03
2.772945067899e-03
3.957450945763e-03
4.102684240825e-03
4.248296207951e-03
4.392388138946e-03
4.540318333830e-03
4.690247091473e-03
4.839509873507e-03
4.991585249356e-03
5.142600585936e-03
-1.055002068636e-04
3.667626178856e-03
1.191527150826e-04
5.064347346094e-04
9.451349779405e-04
1.389392196555e-03
1.852694468645e-03
2.324942030662e-03
2.775893987918e-03
3.217403948944e-03
3.516165389256e-03
3.565952370288e-03
3.658791710319e-03
3.791199387762e-03
3.801156858898e-03
3.800606355779e-03
3.797547627954e-03
3.815607035320e-03
3.796825892600e-03
3.792851465992e-03
3.791050438486e-03
3.787627703501e-03
3.779195504855e-03
3.769606072511e-03
3.754966641130e-03
3.735606971337e-03
3.710730261473e-03
-1.337569109265e-04
-1.656920230921e-04
-1.739095668835e-04
-1.612063622154e-04
-1.361981232468e-04
-1.155161353713e-04
-9.524228927724e-05
-7.532362761197e-05
-5.623865698021e-05
-3.853840920480e-05
-1.980463078157e-05
-7.661904102594e-06
6.215303760252e-06
1.776738486591e-05
2.788094514334e-05
3.492028447217e-05
4.049831044114e-05
4.398837280544e-05
4.319385137766e-05
3.585446994019e-03
3.594114028452e-03
3.593313457099e-03
3.594344874895e-03
3.596426354377e-03
3.599184492035e-03
3.603088839548e-03
3.606528222468e-03
3.610180853694e-03
3.615298270928e-03
3.620111297399e-03
3.623224228467e-03
3.623740511098e-03
3.616056491698e-03
3.606801174800e-03
3.565590240552e-03
3.469193807771e-03
3.581533131573e-03
3.620979987807e-03
3.642422047020e-03
3.655401167211e-03
3.662640002313e-03
3.666199540996e-03
3.666869948997e-03
3.667287956325e-03
3.668247677687e-03
3.666747617438e-03
3.666068991457e-03
3.665151864363e-03
3.664728056313e-03
3.664200469434e-03
3.664830464379e-03
3.661221657972e-03
-2.378984365053e-05
3.033731480941e-04
7.238667869950e-04
1.174777313718e-03
1.618170503429e-03
2.092782615391e-03
2.556148154072e-03
2.973872253645e-03
3.412088619053e-03
3.602505489162e-03
5.064797294414e-04
3.107960600022e-03
1.785135236286e-05
-5.959628529854e-05
2.881901255431e-03
1.366997243803e-03
1.537761031229e-03
3.390649693391e-03
2.225805820999e-03
3.775962805420e-03
3.071911345763e-03
2.792216729616e-03
6.337989732922e-05
4.216627431623e-03
3.635959160782e-03
9.450609467973e-04
1.931043992296e-03
4.519840822587e-03
4.861471843407e-03
5.149634901199e-03
5.087609233260e-03
5.014995320361e-03
3.806894376959e-03
3.896776771417e-03
3.930733115545e-03
4.467586499148e-03
2.743072116578e-03
-5.059611906123e-05
9.232980296416e-05
2.365381468319e-03
3.925738627775e-03
4.804066175293e-04
4.688269328092e-03
3.585020654384e-03
3.994648467645e-03
3.241733645699e-03
3.002029987939e-03
-2.290185630586e-05
3.860762062762e-03
2.802414764745e-03
4.759949940028e-03
4.842740335182e-05
1.236524227884e-03
5.186225454800e-03
1.803076575204e-03
9.254856156364e-04
2.666633342398e-03
3.417180850820e-03
1.258173113470e-04
4.187450103218e-03
2.749669478187e-03
9.439672148027e-05
5.060217524008e-03
3.717257691863e-03
3.707463967019e-03
3.813758510548e-03
3.794958783258e-03
3.909010549648e-03
3.895285456946e-03
3.771195316424e-03
3.876851727464e-03
3.742743974884e-03
4.014223064783e-03
3.854383415210e-03
3.711790345051e-03
3.828719246065e-03
3.679956784612e-03
3.562641611501e-03
3.526278004984e-03
3.406902904997e-03
3.367227113176e-03
3.492299392930e-03
3.330976070224e-03
3.202696965485e-03
3.166313282248e-03
3.033691328065e-03
2.998586600610e-03
2.860090894859e-03
2.828339721317e-03
2.968814054232e-03
2.801910136689e-03
2.656855119834e-03
2.634555098543e-03
2.484524692976e-03
2.466756478344e-03
2.616964307998e-03
2.454497303351e-03
2.298637282680e-03
2.293112447886e-03
2.131734822555e-03
2.133675689132e-03
1.966863840992e-03
1.975526603560e-03
2.138705887474e-03
1.986843523752e-03
1.819564704917e-03
1.837463774864e-03
2.001476279164e-03
1.858163497325e-03
2.018729401714e-03
1.881272808771e-03
1.719348559189e-03
1.747925458326e-03
1.906281443202e-03
1.777733860239e-03
1.618518324342e-03
1.653614837065e-03
1.809619890727e-03
1.690165490626e-03
1.533649061295e-03
1.574622464444e-03
1.728906125286e-03
1.616629040507e-03
1.462313056026e-03
1.507734285992e-03
1.660362173585e-03
1.554161739509e-03
1.705037704900e-03
1.400581783040e-03
1.450401378982e-03
1.295739294637e-03
1.349330932525e-03
2.603958745944e-03
1.194435313406e-03
1.139661888209e-03
1.251094273112e-03
1.404109213445e-03
1.095906615567e-03
1.155325511826e-03
1.000202176522e-03
1.959127937468e-03
3.460310149402e-03
1.061930102693e-03
9.072093246467e-04
8.431906556641e-04
7.512624276078e-04
4.015961096242e-03
4.134066981653e-03
4.126101964957e-03
4.251440083422e-03
4.236927407885e-03
8.164827653304e-04
3.974291067909e-03
4.259102687897e-03
3.075693325984e-03
2.507289631515e-03
2.159783041741e-03
1.214727288775e-03
1.123459306371e-03
1.274144928034e-03
1.810595255860e-03
1.852977688074e-03
1.957600888618e-03
1.997581778708e-03
2.100947239395e-03
2.138848231628e-03
2.038957557721e-03
2.178303146167e-03
2.081690883524e-03
2.240660377622e-03
2.206329919624e-03
2.219273567096e-03
2.125898418123e-03
2.262141835345e-03
2.171623154047e-03
2.033670177063e-03
2.082036513047e-03
1.943270266525e-03
2.173857669070e-03
2.312814894656e-03
2.323637626053e-03
2.460229735713e-03
2.468206546576e-03
2.602330669757e-03
2.607193402897e-03
2.478796598469e-03
3.800267632880e-03
1.667407489342e-03
1.645352925440e-03
1.490479031014e-03
1.463712377586e-03
1.306132449283e-03
1.274188949014e-03
1.113235056616e-03
1.153580691799e-03
9.576132156170e-04
1.007072151440e-03
8.090460647735e-04
8.665976503408e-04
2.943128098007e-03
2.599567196730e-03
2.739356683825e-03
2.740373818606e-03
6.846105104575e-04
2.219006021601e-03
2.344501301281e-03
2.313153517068e-03
2.615926067825e-03
6.630831754401e-04
1.076199873646e-03
1.245017346454e-03
4.366994238887e-03
4.345739688781e-03
2.450132439482e-03
7.285747226860e-04
2.314307813839e-03
7.536175675721e-04
2.131911805333e-03
2.267589113769e-03
1.941245284139e-03
2.878684714752e-03
2.882478211810e-03
1.057423258054e-03
9.233737774715e-04
7.370883362658e-04
7.989265030306e-04
9.800170984274e-04
8.575872842327e-04
6.775240317329e-04
7.401970240373e-04
9.173344712521e-04
8.041393774357e-04
6.277127451205e-04
6.953312849738e-04
2.352993945608e-03
6.047935726022e-04
3.450751261367e-03
2.478434179222e-03
2.739800845217e-03
4.481720779703e-03
4.453697297884e-03
4.318244358075e-03
4.420320484161e-03
4.560918347679e-03
4.522027279232e-03
4.381947884701e-03
4.478923504006e-03
4.339008041817e-03
4.431955183319e-03
4.575856545208e-03
4.525033550082e-03
4.381243993787e-03
4.471233863817e-03
4.327144013370e-03
4.414213564989e-03
4.561332283624e-03
5.802985340670e-04
2.491853274473e-03
2.628142016988e-03
1.188274889632e-03
1.333081594343e-03
1.423042545739e-03
1.482374366369e-03
4.500834030024e-03
4.650838429712e-03
1.042806979638e-03
1.219574944826e-03
4.504255293500e-03
2.183772111242e-03
2.046503248217e-03
2.329035790014e-03
2.351322800284e-03
2.165401756005e-03
2.184073077130e-03
2.380919103358e-03
1.986805586732e-03
2.172309415483e-03
4.672057855697e-03
7.785736460784e-04
6.174857325255e-04
2.318470368841e-03
2.352274260272e-03
3.106783543407e-03
3.081456492288e-03
3.242886262660e-03
3.217092444499e-03
3.377525689045e-03
3.350104020630e-03
3.194267122459e-03
3.020160346358e-03
3.326415094153e-03
4.352677873894e-03
2.597370235154e-03
9.770607379383e-04
5.119062588238e-04
5.162121051059e-04
6.413065926997e-04
7.935982668454e-04
2.582037645914e-03
3.511028225410e-03
3.538018428634e-03
2.217398566458e-03
2.421108497792e-03
3.011109435246e-03
4.115133485553e-03
4.246736726502e-03
4.203056528554e-03
4.784066985020e-04
4.518723657864e-04
4.666897462515e-03
1.417493257546e-03
1.401687330207e-03
5.392927471063e-04
3.917354939415e-04
4.586699420001e-03
4.736833760033e-03
1.570572339619e-03
1.627420666163e-03
2.558629581469e-03
5.900924517513e-04
4.801711947032e-03
2.371217924063e-03
2.228687402155e-03
1.392978060135e-03
1.012994440579e-03
8.326268782250e-04
1.090656654911e-03
7.614608151328e-04
7.063463063867e-04
2.688929714513e-03
4.706347682832e-03
3.174353401491e-03
3.039723221343e-03
3.305267083757e-03
4.171990897742e-04
2.609790613409e-03
2.237118149563e-03
3.667248594823e-03
3.698729293217e-03
1.594273237035e-03
1.591543653168e-03
1.395248484267e-03
1.596626472433e-03
3.640903899735e-03
1.778909100288e-03
3.292572348328e-03
3.346192996036e-03
3.181380349347e-03
2.572627562960e-03
2.621463569889e-03
1.625232169075e-03
2.303866960988e-03
1.514575155229e-03
1.893817511177e-03
1.918583542716e-03
4.723068273105e-03
4.822440980773e-03
4.240073225504e-03
4.185202983232e-03
5.247879705274e-04
4.543987670155e-04
1.750917952990e-03
2.507423594684e-03
4.623882501789e-03
4.647898196473e-03
4.521191410571e-03
2.668368863683e-03
1.519948957199e-03
2.190074639438e-03
4.647322714850e-04
2.761840890793e-03
3.663020021556e-04
3.618763519919e-03
2.371391602460e-03
2.450508863755e-03
3.147254808466e-03
3.595767931321e-03
2.748711738457e-03
2.595963810715e-03
3.245794869232e-03
3.074101306010e-03
3.006570543422e-03
2.885617029608e-03
1.144222945730e-03
1.034065112488e-03
3.653735330907e-03
3.454771113632e-03
3.830058110393e-03
3.865888305849e-03
3.136873838746e-03
3.004013431638e-03
8.532539699652e-04
2.473053116229e-03
4.816617422241e-03
3.405666873052e-03
2.632334301491e-03
2.541368925449e-03
2.507743210528e-04
3.269509891487e-04
4.890046558400e-03
1.390504422698e-03
1.597443050592e-03
1.185206810139e-03
2.631227509147e-03
3.924325327936e-03
2.503843850356e-03
2.763294561594e-03
4.956829918485e-03
2.741431371152e-03
2.146909074996e-03
2.535050740582e-03
4.813500305088e-03
4.980331972663e-03
4.116286199322e-03
4.064819873007e-03
4.151803009988e-03
7.017276416548e-04
4.629112992262e-04
4.767208087114e-03
1.034748023962e-03
1.112088921789e-03
6.559664970003e-04
8.212977236779e-04
1.660675578543e-03
1.607439550246e-03
3.591045236920e-03
3.749495285341e-03
3.269908885496e-03
2.252954457598e-03
2.108430068503e-03
2.082744867236e-03
4.871330366859e-03
4.986869285712e-03
1.257417063012e-03
1.208279596380e-03
1.195033785497e-03
4.857066690432e-03
2.581064488781e-03
2.527007410769e-03
2.938745611460e-04
3.813707562783e-04
7.937276088924e-04
6.135677648387e-04
4.664080192149e-03
4.531960496463e-03
4.804750779078e-03
7.563343352923e-04
3.029704495953e-03
2.792914487247e-03
2.780547536886e-03
2.830411011010e-03
3.157538866678e-03
3.275209636645e-03
3.430014717954e-03
1.699286836969e-04
4.933138905119e-03
4.094760735809e-03
6.362416961983e-05
4.040182399596e-03
4.125579415235e-03
3.971870657242e-03
6.092541670170e-04
4.007127476314e-03
4.059137693533e-03
1.908609090371e-04
4.971869541934e-03
2.167116185333e-04
2.838878464659e-04
2.671449377775e-03
2.576391553454e-03
2.699407200220e-03
2.606056519485e-03
2.483267901915e-03
2.526902950812e-03
4.008642061469e-03
2.669914066584e-03
2.572527298709e-03
2.718195812933e-03
2.969494951711e-03
1.794923480297e-03
1.814486254870e-03
1.619326601313e-03
4.021831336797e-03
4.021438432604e-03
2.296542761321e-03
2.159251500086e-03
4.055135389220e-03
4.051702296704e-03
4.181053165827e-03
4.167290849036e-03
4.298514765187e-03
4.281546181871e-03
4.416375331150e-03
3.595936725110e-03
1.168429785801e-03
3.325396114709e-03
3.122877981398e-03
2.988918282201e-03
2.682988067288e-03
2.552246480536e-03
2.751353404677e-03
1.778618485169e-03
5.030739232994e-03
-2.161923042954e-05
1.845862943450e-04
1.958671551724e-03
2.818238225553e-03
2.004403978195e-03
2.047533263656e-03
2.395873036208e-03
3.141414762961e-04
9.854052268286e-04
4.428153692596e-03
7.570031519461e-04
2.228707475215e-03
1.790099640965e-03
2.718540759534e-03
1.200809644381e-03
1.789663876703e-03
3.601033583413e-03
3.678163517777e-03
3.548311048208e-03
1.804143641737e-03
2.263953877345e-03
2.083266879678e-03
3.244836615712e-03
4.392220006685e-03
4.396682846994e-03
4.532896039384e-03
4.393091508365e-03
4.258206138620e-03
4.249992852735e-03
4.391099961012e-03
4.240518804977e-03
4.406958760653e-03
4.219641243726e-03
4.083388794732e-03
4.059373463980e-03
4.180673495737e-03
3.926744918403e-03
3.247618457154e-03
2.133697279215e-03
3.109575301952e-04
3.333903907176e-04
2.900244192354e-03
4.610156293993e-03
4.788662055238e-03
1.439024782230e-03
4.103757452564e-03
3.498569686389e-03
9.123062815662e-04
3.884678982383e-03
4.261379337456e-03
4.127693693636e-03
4.133505972787e-03
4.921744092040e-03
4.186845057636e-03
3.494364891588e-03
2.454467534615e-03
2.449063234225e-03
2.296342326402e-03
4.102120674289e-03
3.169261091097e-03
3.036755373046e-03
2.979068512169e-03
2.892350369787e-03
3.051652639512e-03
4.432708202346e-03
4.333317065627e-03
1.035673845508e-03
1.158803695098e-03
1.330144105598e-03
1.286159950761e-03
1.108518784232e-03
1.241287773116e-03
1.416803350615e-03
1.196456384978e-03
3.885452602755e-03
2.960683261190e-03
2.064357657879e-03
2.027794157528e-03
1.880191321448e-03
1.459352831568e-03
1.554609061264e-03
1.701926953918e-03
1.365836831915e-03
3.058888367166e-03
2.919552815347e-03
2.208247242956e-03
1.502000936708e-03
3.837238022318e-03
3.913934398221e-03
3.870144622637e-03
3.996319921515e-03
3.958253159685e-03
1.714646596911e-03
1.769550448784e-03
1.685341100999e-03
1.825284561316e-03
1.740277249107e-03
1.609656029909e-03
1.879396638034e-03
1.786847302677e-03
3.877767054257e-03
-3.629003356331e-05
1.320830417439e-04
1.329608887804e-04
2.912637123777e-04
3.048556902160e-04
4.783324847508e-04
4.601153881258e-04
1.288555143399e-04
-9.692088256914e-06
1.424439604728e-04
4.962443036284e-06
1.473171518475e-04
3.183649446465e-04
5.521059592800e-04
2.715718257929e-03
1.382424744274e-03
1.312211832543e-03
1.170977529945e-03
1.248895015441e-03
1.442139729042e-03
1.090652378893e-03
1.037043422278e-03
9.669504003426e-05
2.125883490585e-04
1.996879396854e-04
3.401920867146e-04
3.363440949451e-04
2.111229683223e-04
2.076900463837e-04
8.623731396769e-05
2.035741246380e-04
3.383251214284e-04
7.620575367316e-05
4.616148126061e-03
4.697551182087e-03
2.848986517211e-03
3.918067281324e-03
3.533720413203e-05
5.133943281919e-03
5.121709789935e-03
5.142230119817e-03
2.500960874933e-03
2.569392373825e-03
5.150673826705e-03
9.379543220321e-04
4.527155417897e-03
4.861380590914e-03
8.711977964936e-04
9.270172338060e-04
2.101129205321e-03
1.986972021124e-03
2.399412589879e-03
1.994209271013e-03
2.306788970840e-03
2.912888804639e-03
5.593972954180e-04
4.291235782924e-03
4.269858533585e-03
4.618036069327e-03
9.703265033312e-04
1.547086280441e-03
5.949180482606e-04
3.827889812937e-03
3.125442904108e-03
1.769182830434e-03
1.308425107495e-03
1.037079358219e-03
8.675349349414e-04
2.310615611207e-03
1.602219513938e-03
2.276588569479e-03
4.710418171197e-03
7.015392384695e-05
2.376424943618e-03
1.896487580338e-03
4.284805237165e-03
2.738751399276e-03
5.640891736361e-04
4.622854699526e-03
4.766909469718e-03
4.091081154314e-03
4.375279168244e-04
4.150840916982e-03
2.707546275084e-03
4.382694512549e-03
8.811752632790e-04
2.038316215871e-03
2.684325159284e-03
3.541469993922e-03
4.915815211784e-03
2.446991602139e-03
2.750202615481e-03
2.336842369365e-03
9.464924957257e-04
2.447039981407e-03
2.148039051111e-03
4.770470679799e-03
3.404258131287e-03
1.692208623229e-03
4.595066660958e-03
1.843431365714e-03
2.873968790688e-03
2.949087498100e-03
3.134833360746e-03
3.648050409951e-03
2.779951141252e-03
2.020316922234e-03
2.410732571511e-03
6.681428963932e-04
1.974265405567e-03
4.216832353963e-03
3.476479117476e-03
4.920888677748e-03
2.535963272627e-03
2.353470191181e-03
4.739928301545e-03
1.651628505650e-03
6.484262852782e-04
6.627064235449e-04
1.340628769229e-03
2.292140346966e-03
1.797983678060e-03
4.685492727245e-03
2.395104283510e-03
2.422667904438e-03
3.121733933491e-04
3.471252952781e-03
2.439134263048e-03
2.059788176612e-03
2.868486720005e-03
1.652767903767e-03
3.719214600698e-03
2.770185772761e-03
2.486860004930e-03
2.512394299324e-03
1.607131360268e-03
3.928407443635e-03
2.633574194027e-03
2.648000452302e-03
2.921129212657e-03
1.932727634969e-03
3.277050159151e-03
1.845792964766e-03
3.298478633142e-03
4.976419289090e-03
2.755981875849e-03
4.005907165461e-03
1.752189057532e-03
2.739872426503e-03
3.360379890428e-04
3.158789790467e-03
1.803260649718e-03
1.377960871545e-03
1.961100097117e-03
3.267427047413e-03
1.855610601794e-03
1.551950267646e-03
1.908884886516e-03
2.883714038566e-03
3.992378905294e-03
1.962986879082e-03
3.430966575588e-03
3.468718171696e-04
2.902248465623e-03
2.432776316850e-03
1.244597107345e-03
1.992709513132e-03
4.117474756720e-03
2.447672889494e-03
2.138795989604e-03
3.564659125582e-03
2.890157625634e-03
2.445626486248e-03
2.282588228317e-03
2.338631098780e-03
8.774768863558e-04
7.167353543647e-04
1.584987476387e-03
3.726371409788e-03
4.642443972674e-04
3.951547799120e-03
4.858428379602e-04
1.455450512525e-03
3.026572253749e-03
4.328278789335e-03
1.494254848773e-03
7.975411774273e-04
1.373825301178e-03
2.594363713724e-03
1.418063042092e-03
1.305381568519e-03
5.010314206725e-03
1.352793043106e-03
5.178844352340e-03
2.716045827712e-03
4.039020434415e-03
2.013219276888e-03
-5.430426472469e-05
1.871383947470e-03
1.087291778751e-03
3.773017688568e-03
4.044418710918e-03
9.817940188476e-04
4.341894798342e-03
3.677600852230e-03
4.543161573934e-03
2.863124749717e-03
2.885838167025e-03
4.901622846906e-03
3.909952068819e-03
1.545610753030e-04
2.088112300966e-03
1.549066039063e-03
1.381305420248e-03
9.567801858572e-04
9.962847726746e-04
2.895008488513e-04
1.147756059158e-03
3.086694129654e-03
3.999989473583e-03
3.164528487497e-03
7.145637581219e-04
4.883304211617e-03
3.430107306705e-03
2.805458346073e-03
3.293570172631e-03
5.601198502122e-04
4.013718464443e-03
3.929787661462e-03
4.656105493910e-03
2.782534556794e-03
3.951246477593e-03
5.048001146266e-03
5.453584240544e-04
5.057946878918e-03
3.903969232824e-03
4.212980332264e-03
3.921657042319e-03
2.632622455292e-03
4.525036490422e-03
3.721352727964e-04
4.530568009357e-03
1.254940407278e-03
9.991755688810e-05
2.739469379940e-03
4.034164575461e-03
2.636059081772e-03
3.346564949533e-04
1.560031531396e-04
2.820156323030e-03
4.167984178747e-03
6.225458324940e-04
5.104581270537e-03
1.613575847954e-04
3.886351308007e-03
1.852317903404e-04
2.760157204224e-03
4.998973776493e-03
1.379483448226e-03
3.770866551649e-03
8.981143051910e-04
3.576830070054e-03
2.696102658684e-04
5.041249531577e-03
2.903916609366e-03
4.783269112651e-03
3.348751733178e-03
1.045434882081e-04
3.545087274894e-03
2.864638673084e-03
3.913030290385e-03
4.647122176560e-03
1.115801525846e-03
4.538722012780e-04
5.199819131105e-03
7.557935059156e-05
3.908673328506e-03
2.740435156003e-03
4.354911905478e-04
4.145348861521e-03
4.272087635293e-03
1.687231625487e-03
4.814419056829e-03
4.129917850108e-04
-8.443243528920e-05
4.405760278013e-03
3.370741534279e-03
4.889140911063e-03
4.295307060432e-03
4.930935209325e-04
4.137526137802e-03
1.490901423452e-03
3.785492302979e-03
2.971896872590e-03
-7.256995619372e-06
1.811452868483e-03
1.596076660639e-04
2.713145995003e-03
1.551076977864e-03
3.531615690213e-03
3.588373131737e-03
3.627955546455e-03
3.728501737373e-03

SCALARS node_materi_strain_total_size_dev_sd_ept float
LOOKUP_TABLE default
5.702120571663e-05
1.035199262410e-02
6.702472603761e-03
1.291983495721e-02
1.993171992389e-04
4.887211202002e-04
7.467648136549e-04
1.039516424462e-03
1.320657107854e-03
1.597731089933e-03
1.879699063503e-03
2.169592765633e-03
2.469107333329e-03
2.786569932674e-03
3.131113234973e-03
3.474344777185e-03
3.800595175865e-03
4.184181040675e-03
4.598510790180e-03
5.021367003104e-03
5.470646332243e-03
5.946576235559e-03
6.412711613724e-03
1.292153796779e-02
1.290716408092e-02
1.290932753878e-02
1.290298612721e-02
1.289304871666e-02
1.289034853910e-02
1.287822315899e-02
1.285280055606e-02
1.283420533172e-02
1.279419419149e-02
1.275179653192e-02
1.269754808100e-02
1.262563447181e-02
1.253004592858e-02
1.242453927547e-02
1.228188287129e-02
1.212971652236e-02
1.195311661095e-02
1.175479798986e-02
1.153579211749e-02
1.128709977067e-02
1.102937549634e-02
1.075262082704e-02
1.046805661131e-02
1.018472750930e-02
9.901332328303e-03
9.618488948010e-03
9.337959799758e-03
9.063947647905e-03
8.830158672228e-03
8.568469810277e-03
8.314127462519e-03
8.085265873523e-03
7.899854917567e-03
7.720581537323e-03
7.564331529433e-03
7.421248285966e-03
7.290265385130e-03
7.170392998128e-03
7.069537215328e-03
7.002071153380e-03
6.954587779565e-03
6.905654120472e-03
6.791326072773e-03
6.807841595795e-03
6.763921208452e-03
6.753336197339e-03
6.752689307779e-03
6.742713933077e-03
1.068652843930e-02
1.101856561719e-02
1.132905568976e-02
1.161737116727e-02
1.189395228128e-02
1.215058707961e-02
1.238747637692e-02
1.260244486035e-02
1.281133231003e-02
1.158697687954e-03
1.063696544095e-02
2.241652189511e-03
3.298860701351e-03
4.327166100178e-03
5.309033182372e-03
6.326244661800e-03
7.377473000184e-03
8.513979121499e-03
9.889454842491e-03
1.026100136449e-02
9.812009818047e-03
1.000211609553e-02
1.030720257982e-02
1.033062355800e-02
1.033507969080e-02
1.033388560624e-02
1.038612964807e-02
1.035286509556e-02
1.035677632964e-02
1.036997793343e-02
1.039695575932e-02
1.041382639484e-02
1.043240123707e-02
1.046061760326e-02
1.049463335169e-02
1.054616772651e-02
1.131400210440e-03
1.219480314144e-03
1.210221848727e-03
1.127720008955e-03
1.011884025036e-03
9.108513244368e-04
8.031773062710e-04
6.933551093597e-04
5.911693969212e-04
4.939680842318e-04
4.047649079007e-04
3.457383200269e-04
2.623383648133e-04
1.889734779590e-04
1.421379819857e-04
1.119501578086e-04
8.539891639145e-05
6.147800397524e-05
5.414942892889e-05
9.844117708104e-03
9.820423557851e-03
9.816938882697e-03
9.814322271031e-03
9.807715955882e-03
9.799595573407e-03
9.788304994921e-03
9.774373262020e-03
9.755421919554e-03
9.737842166777e-03
9.720473967807e-03
9.704854094839e-03
9.697636494999e-03
9.699511296450e-03
9.722999707706e-03
9.808439285704e-03
9.997526312930e-03
1.007768568022e-02
1.008770238865e-02
1.002510039154e-02
9.998680618687e-03
9.987558229267e-03
9.983130018153e-03
9.981970199184e-03
9.985030340334e-03
9.988125576022e-03
9.990898744851e-03
9.992679249579e-03
9.994138288800e-03
9.996571444189e-03
9.996410034907e-03
1.000222548929e-02
1.001086093853e-02
1.651965058276e-03
2.789988517601e-03
3.816923129420e-03
4.839465391102e-03
5.862437081544e-03
6.877593233838e-03
7.928621657684e-03
9.213343786926e-03
1.021538716555e-02
1.048676356104e-02
2.856654782490e-03
7.715523408636e-03
5.499020433928e-04
9.378988094349e-04
6.979639867738e-03
5.000911641504e-03
2.967695772786e-03
8.632507445635e-03
7.025022860003e-03
9.817530330636e-03
9.454769828028e-03
6.700865502562e-03
2.816313907927e-04
1.103185913974e-02
1.076651618746e-02
1.750836778469e-03
3.932634774631e-03
1.179191069123e-02
1.247345190391e-02
1.284137946143e-02
1.280312186141e-02
1.271503827358e-02
1.090193313301e-02
1.077608644185e-02
1.072933069218e-02
1.176164178973e-02
6.562959803141e-03
1.055053553884e-03
1.915215320894e-04
5.228827036682e-03
1.064396207008e-02
8.947497687335e-04
1.217453465826e-02
9.252171760529e-03
1.044098591653e-02
8.139005601785e-03
7.386649821687e-03
7.942082796537e-04
1.082451197814e-02
6.713999570486e-03
1.226960417681e-02
4.138374864452e-04
2.319601903369e-03
1.287198557382e-02
5.988373563209e-03
3.923218233766e-03
8.149594610271e-03
1.029744864714e-02
1.786656090939e-03
1.120068412075e-02
6.607134513231e-03
1.478659063040e-04
1.269358037289e-02
1.094748450636e-02
1.098225650797e-02
1.117863225464e-02
1.116636789351e-02
1.139994473093e-02
1.133978747213e-02
1.106104280590e-02
1.121655460645e-02
1.087656005300e-02
1.157974565472e-02
1.103520422765e-02
1.064126392779e-02
1.081196471357e-02
1.037770549266e-02
1.018652611699e-02
9.888725790120e-03
9.674822859570e-03
9.350974856904e-03
9.592126068337e-03
9.036637697994e-03
8.771049580365e-03
8.450804692708e-03
8.164808174908e-03
7.846262748037e-03
7.542537893638e-03
7.233273337769e-03
7.557291414542e-03
6.956498083962e-03
6.622220670318e-03
6.360611106564e-03
6.019552836221e-03
5.774679045903e-03
6.134399525114e-03
5.569265478780e-03
5.202776555699e-03
5.022906178455e-03
4.652609645280e-03
4.501308291353e-03
4.130750125769e-03
4.005894560611e-03
4.387230569667e-03
3.919049540236e-03
3.543393015904e-03
3.484821334595e-03
3.868111903966e-03
3.461262400714e-03
3.850225015756e-03
3.468686565305e-03
3.095452717229e-03
3.126313311621e-03
3.502302101861e-03
3.179330462987e-03
2.822379361695e-03
2.894140801784e-03
3.253670149824e-03
2.983031688445e-03
2.643532528646e-03
2.743949548739e-03
3.088412264215e-03
2.855926162743e-03
2.531497017416e-03
2.648317383536e-03
2.979565564275e-03
2.773695746874e-03
3.112263521261e-03
2.458231095412e-03
2.584754858159e-03
2.283024824188e-03
2.409984650974e-03
5.946589214066e-03
2.120255045074e-03
2.004247774040e-03
2.245501010835e-03
2.544549499155e-03
1.964380017310e-03
2.087342434354e-03
1.813273384072e-03
4.291169295223e-03
9.305833424254e-03
1.933228492032e-03
1.663664349062e-03
1.551854043519e-03
1.403467307452e-03
1.159213263132e-02
1.178468503224e-02
1.176404645512e-02
1.196856566031e-02
1.192770524597e-02
1.512372488290e-03
1.119212698892e-02
1.195963576210e-02
8.511764382953e-03
6.299575111112e-03
4.268731219427e-03
2.215414648101e-03
2.058260308397e-03
2.348636956308e-03
3.335757818540e-03
3.474334705050e-03
3.716005087712e-03
3.859661506798e-03
4.119845731599e-03
4.268423218660e-03
4.011515182015e-03
4.425344279638e-03
4.170311007969e-03
4.547075718751e-03
4.403202491778e-03
4.589040617205e-03
4.335318817172e-03
4.759390814909e-03
4.505508219159e-03
4.097415301837e-03
4.265722712801e-03
3.874779824059e-03
4.256820696172e-03
4.686906347968e-03
4.680765695181e-03
5.121470514422e-03
5.122940636532e-03
5.573787716169e-03
5.583924979979e-03
5.152274960235e-03
1.056498481067e-02
3.118515958953e-03
3.184080709986e-03
2.769178299972e-03
2.842931415496e-03
2.438389008808e-03
2.524062564164e-03
2.129389236905e-03
2.082139802752e-03
1.786934607230e-03
1.779264743633e-03
1.503049573359e-03
1.532588339583e-03
7.300112626595e-03
5.591254945042e-03
6.052680456857e-03
6.082612390418e-03
1.299592008441e-03
4.679955119176e-03
4.849940469772e-03
4.710657023005e-03
5.624929785613e-03
1.253926602443e-03
2.232883946442e-03
2.666469024489e-03
1.212740652888e-02
1.207017400634e-02
5.178741993160e-03
1.360428800541e-03
4.862513538740e-03
1.520008067335e-03
4.437586420083e-03
4.857509604956e-03
3.774808319188e-03
6.552328977427e-03
6.590154021526e-03
1.812923845608e-03
1.593852903308e-03
1.348666100416e-03
1.426231359154e-03
1.668428136757e-03
1.501981670824e-03
1.274404964941e-03
1.360274084937e-03
1.593457336772e-03
1.452199820574e-03
1.233764178497e-03
1.319686562479e-03
5.115112954495e-03
1.261158850318e-03
1.000211612284e-02
5.319537896922e-03
6.065375586333e-03
1.226727999782e-02
1.219818944890e-02
1.197132086785e-02
1.209606574721e-02
1.231238775333e-02
1.221032336738e-02
1.196854757147e-02
1.208628099076e-02
1.182167550796e-02
1.194597949674e-02
1.219763951106e-02
1.206384813320e-02
1.179481782264e-02
1.192083715653e-02
1.163730613293e-02
1.177039341591e-02
1.204199348050e-02
1.106870794326e-03
5.208339172958e-03
5.696819914870e-03
2.196706414055e-03
2.481432743831e-03
2.653211804505e-03
2.798741182025e-03
1.189926708882e-02
1.216045396375e-02
2.404199558586e-03
2.875352918813e-03
1.229851150687e-02
4.615134533519e-03
4.209809912148e-03
5.692625535985e-03
5.991299143729e-03
5.382875177343e-03
5.699852547861e-03
6.328831548302e-03
5.089054209861e-03
4.266609975409e-03
1.230258011295e-02
1.446505065840e-03
1.203052602046e-03
5.042577088541e-03
4.748586289299e-03
7.890094529635e-03
7.653462228322e-03
8.232611548079e-03
8.017379976318e-03
8.586134141678e-03
8.395064763430e-03
7.838609278364e-03
7.067367828997e-03
8.245216729799e-03
1.161302882392e-02
5.631511298883e-03
1.693092717044e-03
1.001417528988e-03
1.102820565846e-03
1.201758191070e-03
1.472289296544e-03
5.668716906773e-03
8.955592075456e-03
9.141624632711e-03
6.069502398941e-03
6.699013818547e-03
7.039791021200e-03
1.168904721721e-02
1.169138644146e-02
1.152054122707e-02
9.137188827691e-04
1.039615109020e-03
1.241670945533e-02
3.140943475054e-03
3.384351400202e-03
1.295675400352e-03
1.069580017701e-03
1.202296471390e-02
1.227075715144e-02
2.974560273220e-03
3.126661004955e-03
5.537099103982e-03
1.188604567996e-03
1.239334757579e-02
4.822600979621e-03
4.376356710720e-03
2.620920659550e-03
2.657007914496e-03
2.185868044327e-03
1.851008714282e-03
1.411998686890e-03
1.314012579889e-03
6.049234180810e-03
1.249207260351e-02
7.700611271894e-03
7.282801713715e-03
8.131121049389e-03
9.836296860117e-04
5.820327163385e-03
4.799181255154e-03
9.491356485602e-03
9.674840752455e-03
3.649940113341e-03
3.926341263091e-03
3.703492768289e-03
4.268586041296e-03
1.072412071672e-02
4.196550491204e-03
9.466497641120e-03
9.820363595699e-03
9.257864486745e-03
6.964012335338e-03
7.348101713619e-03
3.289833528911e-03
4.721244836834e-03
2.827830228766e-03
3.713008179530e-03
3.581456300276e-03
1.241570641447e-02
1.251116296176e-02
1.149631057542e-02
1.132482178267e-02
1.051902908688e-03
9.654383691248e-04
3.253532342335e-03
5.470080606305e-03
1.242963288501e-02
1.243930654146e-02
1.229207544383e-02
5.919022169228e-03
2.737004122600e-03
4.272268240152e-03
1.084370386173e-03
6.504826332023e-03
8.093791695126e-04
9.834814546622e-03
5.233736500160e-03
5.488057502593e-03
7.551344349693e-03
1.073336979425e-02
6.337498611370e-03
5.798994880532e-03
9.634854129874e-03
9.056843776220e-03
8.651621656470e-03
8.435992848569e-03
1.953060214939e-03
1.794881868817e-03
9.382785363538e-03
8.668797528245e-03
1.000045381177e-02
1.019029218693e-02
7.538293621591e-03
7.031824678478e-03
1.581389538274e-03
7.108943658269e-03
1.258881155831e-02
1.014873578983e-02
5.966780079548e-03
5.635458307186e-03
9.495393413258e-04
9.678390918938e-04
1.249887185786e-02
4.087445862340e-03
4.649302975577e-03
3.526532605207e-03
6.173367248689e-03
1.061929977014e-02
5.687211514470e-03
7.615222664686e-03
1.260783603380e-02
6.212501490257e-03
5.094817779021e-03
5.414929743733e-03
1.236974689585e-02
1.260971683333e-02
1.137208127345e-02
1.118020396026e-02
1.154265688916e-02
1.598046452193e-03
1.402538391433e-03
1.240361145612e-02
1.904444816686e-03
2.061263905109e-03
1.270839497063e-03
1.502323851885e-03
3.158934531517e-03
3.009099063286e-03
9.582114005565e-03
1.009115687894e-02
8.474792762536e-03
4.465442761885e-03
4.036784842206e-03
3.955927160113e-03
1.259515789203e-02
1.269929371156e-02
2.128573875428e-03
2.031682120467e-03
2.057261951582e-03
1.264127492229e-02
5.949458367620e-03
5.757349132177e-03
7.403443628772e-04
8.876162606533e-04
2.483939435991e-03
1.998432976962e-03
1.240411246382e-02
1.224925734340e-02
1.255160679247e-02
1.404895370712e-03
7.170751109343e-03
6.443251863592e-03
6.324974820101e-03
6.649269185529e-03
7.576338251763e-03
8.046076665415e-03
8.591416010408e-03
9.459310635599e-04
1.252916884792e-02
1.115266284438e-02
9.429064391375e-04
1.097356816649e-02
1.115131624230e-02
1.078200680653e-02
1.135722754503e-03
1.115650508770e-02
1.139188564383e-02
6.277534434622e-04
1.271830084148e-02
5.863971563111e-04
6.543965561602e-04
6.131487472731e-03
5.798661313090e-03
6.290718848570e-03
5.964442870352e-03
5.488108666469e-03
5.675623549773e-03
1.098029555196e-02
6.225165041610e-03
5.875220471154e-03
6.421831113029e-03
8.896097572963e-03
4.841555694648e-03
5.230090768198e-03
5.160118494543e-03
1.054903317669e-02
1.064393148185e-02
4.999150054909e-03
4.574540327761e-03
1.096256569086e-02
1.092978251342e-02
1.122828842063e-02
1.117652405731e-02
1.146331044735e-02
1.140649826636e-02
1.168551822714e-02
9.176636381410e-03
3.958438509015e-03
1.000584907555e-02
7.542320475622e-03
7.022500695166e-03
7.765257279584e-03
7.585583878765e-03
6.408556316901e-03
3.952617419251e-03
1.275268572375e-02
1.110012794797e-03
1.167121663127e-03
4.503188225453e-03
8.011286143996e-03
5.437558637725e-03
5.863206431124e-03
4.924446584888e-03
8.280249182657e-04
2.994836969381e-03
1.173448295215e-02
2.881146167607e-03
4.791834731982e-03
3.774410816707e-03
7.248252654799e-03
3.165253943837e-03
4.503710668896e-03
1.047255002512e-02
1.090456042176e-02
1.056921908855e-02
3.639438671793e-03
6.479785833415e-03
6.327114951680e-03
9.112090178410e-03
1.211396255938e-02
1.204520634825e-02
1.216091388543e-02
1.194150878744e-02
1.180455687828e-02
1.167179285013e-02
1.181602541951e-02
1.151742615393e-02
1.171716374948e-02
1.133685281507e-02
1.115384122148e-02
1.095798862326e-02
1.114442387648e-02
1.075751486329e-02
8.060887634317e-03
4.844564682690e-03
1.107735275563e-03
1.480617604153e-03
7.886719273695e-03
1.199051290215e-02
1.236131272598e-02
2.963895578528e-03
1.074159493161e-02
1.031255835718e-02
1.849491487701e-03
1.013326188559e-02
1.190425873484e-02
1.165657504509e-02
1.174737050075e-02
1.258122976047e-02
1.170385514752e-02
8.982001535140e-03
5.147747986199e-03
5.199353110071e-03
4.784871614156e-03
1.134842439194e-02
7.920010710576e-03
7.316003248292e-03
7.133141260410e-03
6.715055764135e-03
7.531449146482e-03
1.157061505589e-02
1.132469457691e-02
1.754899174384e-03
1.944978457302e-03
2.242807038929e-03
2.170616877092e-03
1.870800805097e-03
2.114510374235e-03
2.434410293241e-03
2.080959710669e-03
1.036412563848e-02
7.239369397139e-03
3.980160233735e-03
3.849009357107e-03
3.456935090039e-03
2.684580973249e-03
2.862678355578e-03
3.199744042513e-03
2.514246743336e-03
7.448687358768e-03
7.107443241600e-03
4.312424242806e-03
2.720328401276e-03
1.087338737573e-02
1.120329359348e-02
1.122764597750e-02
1.149499573427e-02
1.121019292779e-02
3.312904947514e-03
3.469478706312e-03
3.280332237391e-03
3.628003659995e-03
3.426053911535e-03
3.111100067086e-03
3.781311277147e-03
3.553463651604e-03
1.079875754312e-02
8.672269899280e-04
8.418860297816e-04
8.002176868683e-04
9.232932083861e-04
9.357673154200e-04
1.072286415904e-03
1.060690808266e-03
8.742982537131e-04
7.108628943839e-04
7.467116297677e-04
6.243662755573e-04
6.933332774908e-04
8.857116713821e-04
1.120684630386e-03
6.478120785766e-03
2.623933930928e-03
2.474343613764e-03
2.184278603282e-03
2.338300870373e-03
2.748122631863e-03
2.030075263762e-03
1.925972411104e-03
1.709217186937e-04
3.904178770108e-04
3.623310418873e-04
6.346246031340e-04
6.371020906369e-04
4.050335083103e-04
4.239758974780e-04
2.140669782685e-04
4.451866486465e-04
6.758389646999e-04
2.385776188355e-04
1.202960605748e-02
1.217112509258e-02
6.873559373890e-03
1.077610219412e-02
4.737597535170e-04
1.281673776407e-02
1.283051398598e-02
1.283960251331e-02
5.693359944418e-03
5.928012901367e-03
1.282019619059e-02
1.698431032207e-03
1.206852256652e-02
1.250220883330e-02
1.977285875343e-03
1.647564516399e-03
4.385804066782e-03
3.933938250082e-03
5.296719348503e-03
4.040812061687e-03
4.935476217225e-03
6.906116997952e-03
1.050777128648e-03
1.166070888862e-02
1.147565541948e-02
1.217688631767e-02
1.780892674032e-03
2.956719634173e-03
1.150869662454e-03
9.927373746318e-03
8.881000496645e-03
3.206561010701e-03
2.377380444699e-03
1.848644447808e-03
1.549509875329e-03
5.427478811566e-03
2.908300593807e-03
4.700547951267e-03
1.228660785241e-02
3.784832151203e-04
4.997239602935e-03
3.621076448635e-03
1.184239892345e-02
6.044800668888e-03
1.162877489843e-03
1.231617555758e-02
1.255212934724e-02
1.155845150344e-02
8.981864604748e-04
1.134181171174e-02
6.189511374095e-03
1.214264576568e-02
1.627053313627e-03
3.861543237644e-03
6.918104440630e-03
1.055653075532e-02
1.259434743186e-02
5.404077469638e-03
6.130087329557e-03
4.701934935445e-03
1.749432292374e-03
5.322662917625e-03
4.311462738625e-03
1.251317926646e-02
8.801611228137e-03
3.090737214711e-03
1.238691405374e-02
3.346382214151e-03
6.533571837635e-03
8.259867180886e-03
8.156448690956e-03
1.010282591007e-02
6.713207532680e-03
4.167942392883e-03
5.156882048852e-03
1.282176253149e-03
4.784967386973e-03
1.183434661909e-02
8.779506711351e-03
1.267594167389e-02
6.615262018847e-03
5.029304985915e-03
1.253766761188e-02
3.051008217281e-03
1.201208726657e-03
1.782983710441e-03
2.400342723636e-03
4.883747888915e-03
3.402174954141e-03
1.235138888953e-02
5.204069967680e-03
5.047150819980e-03
2.315229493913e-03
1.041433081814e-02
5.386206136301e-03
3.897887535504e-03
6.532294083074e-03
3.222069901381e-03
9.587548044399e-03
8.239686463895e-03
5.579223588481e-03
5.301052811395e-03
3.441678029338e-03
1.063668742495e-02
6.127149619575e-03
5.806660810635e-03
7.075710502390e-03
3.557799356136e-03
9.949408390495e-03
3.556018358273e-03
8.742476543193e-03
1.265671012182e-02
6.206914297816e-03
1.150280390047e-02
3.351421582249e-03
6.130576033729e-03
6.510627783142e-04
9.486601930187e-03
3.507313734022e-03
2.402212571100e-03
3.634409238986e-03
8.047903724407e-03
3.667249441790e-03
2.740386084927e-03
3.829945957083e-03
8.788356594393e-03
1.137105485839e-02
3.993667796493e-03
9.040171792614e-03
7.222391469805e-04
6.886954371443e-03
5.449378893847e-03
2.166000983501e-03
3.731763362561e-03
1.152153174821e-02
7.554811927482e-03
4.141807886360e-03
9.349999835203e-03
6.744308604371e-03
5.282098385427e-03
4.579885216343e-03
6.985795538111e-03
1.593593386484e-03
1.353570404990e-03
2.770642120209e-03
9.878548718474e-03
8.731733711980e-04
1.098157483624e-02
1.045429981329e-03
2.487593132696e-03
7.109832885170e-03
1.149507703552e-02
2.558095129341e-03
1.476522211173e-03
2.327869213120e-03
5.695534983927e-03
2.425139237614e-03
2.231753114485e-03
1.268903622331e-02
2.341371919987e-03
1.285208211248e-02
6.480037463976e-03
1.087842528342e-02
6.571085702169e-03
1.039820271008e-03
5.674547663288e-03
1.897114464870e-03
1.031879900670e-02
1.089792953669e-02
1.745443899801e-03
1.147898141661e-02
9.542070777551e-03
1.190955274584e-02
6.563998202961e-03
6.651220542384e-03
1.248053503986e-02
1.064567234773e-02
6.449117750570e-04
4.371766520862e-03
5.487884032404e-03
4.508136511953e-03
3.413686687882e-03
1.847685313748e-03
8.919118985462e-04
4.444423717513e-03
7.481683070828e-03
1.105717039747e-02
7.615744631922e-03
3.381584961266e-03
1.264992281504e-02
8.629364574169e-03
6.750578569862e-03
8.080480547776e-03
2.365098353758e-03
1.144518798728e-02
1.025211645530e-02
1.212576953968e-02
6.685274780756e-03
1.108277854172e-02
1.270128179756e-02
1.127800500381e-03
1.269638341443e-02
1.055022899151e-02
1.132225096853e-02
1.139988054995e-02
6.167503743301e-03
1.196731534442e-02
1.824557540812e-03
1.190760587066e-02
2.335641899428e-03
9.034630648355e-04
6.412692896084e-03
1.077733491728e-02
6.166292307230e-03
6.220102394289e-04
5.354906577530e-04
6.663510470664e-03
1.097105289182e-02
1.222434840515e-03
1.281331460103e-02
1.404260758266e-03
1.064105437285e-02
4.550749678815e-04
6.619865064382e-03
1.272690262694e-02
2.605709216327e-03
1.093327377139e-02
1.666563831737e-03
9.104320142748e-03
8.026495889398e-04
1.274046413937e-02
6.927436742442e-03
1.248380077092e-02
8.547341904327e-03
9.999221755057e-04
9.042734546344e-03
6.654551624015e-03
1.062570545611e-02
1.222798106193e-02
2.076104211461e-03
8.919358403623e-04
1.287029321525e-02
1.164085571947e-04
1.058037453042e-02
6.580902885186e-03
8.241265125536e-04
1.111768623371e-02
1.125839771667e-02
3.315480053340e-03
1.235243205059e-02
1.004853343539e-03
1.008363550619e-03
1.165267586124e-02
8.456614504040e-03
1.264044241584e-02
1.147959975908e-02
1.669754111056e-03
1.096893299436e-02
2.842011224966e-03
9.833624152239e-03
7.013623316078e-03
1.340988515499e-03
3.623089142867e-03
4.682162600535e-04
6.383132092057e-03
2.987037742333e-03
1.005722238863e-02
9.859781022236e-03
1.036877319852e-02
1.016249580548e-02


CELL_DATA 1996

SCALARS element_number int
LOOKUP_TABLE default
407
408
409
410
411
412
413
414
415
416
417
418
419
420
421
422
423
424
425
426
427
428
429
430
431
432
433
434
435
436
437
438
439
440
441
442
443
444
445
446
447
448
449
450
451
452
453
454
455
456
457
458
459
460
461
462
463
464
465
466
467
468
469
470
471
472
473
474
475
476
477
478
479
480
481
482
483
484
485
486
487
488
489
490
491
492
493
494
495
496
497
498
499
500
501
502
503
504
505
506
507
508
509
510
511
512
513
514
515
516
517
518
519
520
521
522
523
524
525
526
527
528
529
530
531
532
533
534
535
536
537
538
539
540
541
542
543
544
545
546
547
548
549
550
551
552
553
554
555
556
557
558
559
560
561
562
563
564
565
566
567
568
569
570
571
572
573
574
575
576
577
578
579
580
581
582
583
584
585
586
587
588
589
590
591
592
593
594
595
596
597
598
599
600
601
602
603
604
605
606
607
608
609
610
611
612
613
614
615
616
617
618
619
620
621
622
623
624
625
626
627
628
629
630
631
632
633
634
635
636
637
638
639
640
641
642
643
644
645
646
647
648
649
650
651
652
653
654
655
656
657
658
659
660
661
662
663
664
665
666
667
668
669
670
671
672
673
674
675
676
677
678
679
680
681
682
683
684
685
686
687
688
689
690
691
692
693
694
695
696
697
698
699
700
701
702
703
704
705
706
707
708
709
710
711
712
713
714
715
716
717
718
719
720
721
722
723
724
725
726
727
728
729
730
731
732
733
734
735
736
737
738
739
740
741
742
743
744
745
746
747
748
749
750
751
752
753
754
755
756
757
758
759
760
761
762
763
764
765
766
767
768
769
770
771
772
773
774
775
776
777
778
779
780
781
782
783
784
785
786
787
788
789
790
791
792
793
794
795
796
797
798
799
800
801
802
803
804
805
806
807
808
809
810
811
812
813
814
815
816
817
818
819
820
821
822
823
824
825
826
827
828
829
830
831
832
833
834
835
836
837
838
839
840
841
842
843
844
845
846
847
848
849
850
851
852
853
854
855
856
857
858
859
860
861
862
863
864
865
866
867
868
869
870
871
872
873
874
875
876
877
878
879
880
881
882
883
884
885
886
887
888
889
890
891
892
893
894
895
896
897
898
899
900
901
902
903
904
905
906
907
908
909
910
911
912
913
914
915
916
917
918
919
920
921
922
923
924
925
926
927
928
929
930
931
932
933
934
935
936
937
938
939
940
941
942
943
944
945
946
947
948
949
950
951
952
953
954
955
956
957
958
959
960
961
962
963
964
965
966
967
968
969
970
971
972
973
974
975
976
977
978
979
980
981
982
983
984
985
986
987
988
989
990
991
992
993
994
995
996
997
998
999
1000
1001
1002
1003
1004
1005
1006
1007
1008
1009
1010
1011
1012
1013
1014
1015
1016
1017
1018
1019
1020
1021
1022
1023
1024
1025
1026
1027
1028
1029
1030
1031
1032
1033
1034
1035
1036
1037
1038
1039
1040
1041
1042
1043
1044
1045
1046
1047
1048
1049
1050
1051
1052
1053
1054
1055
1056
1057
1058
1059
1060
1061
1062
1063
1064
1065
1066
1067
1068
1069
1070
1071
1072
1073
1074
1075
1076
1077
1078
1079
1080
1081
1082
1083
1084
1085
1086
1087
1088
1089
1090
1091
1092
1093
1094
1095
1096
1097
1098
1099
1100
1101
1102
1103
1104
1105
1106
1107
1108
1109
1110
1111
1112
1113
1114
1115
1116
1117
1118
1119
1120
1121
1122
1123
1124
1125
1126
1127
1128
1129
1130
1131
1132
1133
1134
1135
1136
1137
1138
1139
1140
1141
1142
1143
1144
1145
1146
1147
1148
1149
1150
1151
1152
1153
1154
1155
1156
1157
1158
1159
1160
1161
1162
1163
1164
1165
1166
1167
1168
1169
1170
1171
1172
1173
1174
1175
1176
1177
1178
1179
1180
1181
1182
1183
1184
1185
1186
1187
1188
1189
1190
1191
1192
1193
1194
1195
1196
1197
1198
1199
1200
1201
1202
1203
1204
1205
1206
1207
1208
1209
1210
1211
1212
1213
1214
1215
1216
1217
1218
1219
1220
1221
1222
1223
1224
1225
1226
1227
1228
1229
1230
1231
1232
1233
1234
1235
1236
1237
1238
1239
1240
1241
1242
1243
1244
1245
1246
1247
1248
1249
1250
1251
1252
1253
1254
1255
1256
1257
1258
1259
1260
1261
1262
1263
1264
1265
1266
1267
1268
1269
1270
1271
1272
1273
1274
1275
1276
1277
1278
1279
1280
1281
1282
1283
1284
1285
1286
1287
1288
1289
1290
1291
1292
1293
1294
1295
1296
1297
1298
1299
1300
1301
1302
1303
1304
1305
1306
1307
1308
1309
1310
1311
1312
1313
1314
1315
1316
1317
1318
1319
1320
1321
1322
1323
1324
1325
1326
1327
1328
1329
1330
1331
1332
1333
1334
1335
1336
1337
1338
1339
1340
1341
1342
1343
1344
1345
1346
1347
1348
1349
1350
1351
1352
1353
1354
1355
1356
1357
1358
1359
1360
1361
1362
1363
1364
1365
1366
1367
1368
1369
1370
1371
1372
1373
1374
1375
1376
1377
1378
1379
1380
1381
1382
1383
1384
1385
1386
1387
1388
1389
1390
1391
1392
1393
1394
1395
1396
1397
1398
1399
1400
1401
1402
1403
1404
1405
1406
1407
1408
1409
1410
1411
1412
1413
1414
1415
1416
1417
1418
1419
1420
1421
1422
1423
1424
1425
1426
1427
1428
1429
1430
1431
1432
1433
1434
1435
1436
1437
1438
1439
1440
1441
1442
1443
1444
1445
1446
1447
1448
1449
1450
1451
1452
1453
1454
1455
1456
1457
1458
1459
1460
1461
1462
1463
1464
1465
1466
1467
1468
1469
1470
1471
1472
1473
1474
1475
1476
1477
1478
1479
1480
1481
1482
1483
1484
1485
1486
1487
1488
1489
1490
1491
1492
1493
1494
1495
1496
1497
1498
1499
1500
1501
1502
1503
1504
1505
1506
1507
1508
1509
1510
1511
1512
1513
1514
1515
1516
1517
1518
1519
1520
1521
1522
1523
1524
1525
1526
1527
1528
1529
1530
1531
1532
1533
1534
1535
1536
1537
1538
1539
1540
1541
1542
1543
1544
1545
1546
1547
1548
1549
1550
1551
1552
1553
1554
1555
1556
1557
1558
1559
1560
1561
1562
1563
1564
1565
1566
1567
1568
1569
1570
1571
1572
1573
1574
1575
1576
1577
1578
1579
1580
1581
1582
1583
1584
1585
1586
1587
1588
1589
1590
1591
1592
1593
1594
1595
1596
1597
1598
1599
1600
1601
1602
1603
1604
1605
1606
1607
1608
1609
1610
1611
1612
1613
1614
1615
1616
1617
1618
1619
1620
1621
1622
1623
1624
1625
1626
1627
1628
1629
1630
1631
1632
1633
1634
1635
1636
1637
1638
1639
1640
1641
1642
1643
1644
1645
1646
1647
1648
1649
1650
1651
1652
1653
1654
1655
1656
1657
1658
1659
1660
1661
1662
1663
1664
1665
1666
1667
1668
1669
1670
1671
1672
1673
1674
1675
1676
1677
1678
1679
1680
1681
1682
1683
1684
1685
1686
1687
1688
1689
1690
1691
1692
1693
1694
1695
1696
1697
1698
1699
1700
1701
1702
1703
1704
1705
1706
1707
1708
1709
1710
1711
1712
1713
1714
1715
1716
1717
1718
1719
1720
1721
1722
1723
1724
1725
1726
1727
1728
1729
1730
1731
1732
1733
1734
1735
1736
1737
1738
1739
1740
1741
1742
1743
1744
1745
1746
1747
1748
1749
1750
1751
1752
1753
1754
1755
1756
1757
1758
1759
1760
1761
1762
1763
1764
1765
1766
1767
1768
1769
1770
1771
1772
1773
1774
1775
1776
1777
1778
1779
1780
1781
1782
1783
1784
1785
1786
1787
1788
1789
1790
1791
1792
1793
1794
1795
1796
1797
1798
1799
1800
1801
1802
1803
1804
1805
1806
1807
1808
1809
1810
1811
1812
1813
1814
1815
1816
1817
1818
1819
1820
1821
1822
1823
1824
1825
1826
1827
1828
1829
1830
1831
1832
1833
1834
1835
1836
1837
1838
1839
1840
1841
1842
1843
1844
1845
1846
1847
1848
1849
1850
1851
1852
1853
1854
1855
1856
1857
1858
1859
1860
1861
1862
1863
1864
1865
1866
1867
1868
1869
1870
1871
1872
1873
1874
1875
1876
1877
1878
1879
1880
1881
1882
1883
1884
1885
1886
1887
1888
1889
1890
1891
1892
1893
1894
1895
1896
1897
1898
1899
1900
1901
1902
1903
1904
1905
1906
1907
1908
1909
1910
1911
1912
1913
1914
1915
1916
1917
1918
1919
1920
1921
1922
1923
1924
1925
1926
1927
1928
1929
1930
1931
1932
1933
1934
1935
1936
1937
1938
1939
1940
1941
1942
1943
1944
1945
1946
1947
1948
1949
1950
1951
1952
1953
1954
1955
1956
1957
1958
1959
1960
1961
1962
1963
1964
1965
1966
1967
1968
1969
1970
1971
1972
1973
1974
1975
1976
1977
1978
1979
1980
1981
1982
1983
1984
1985
1986
1987
1988
1989
1990
1991
1992
1993
1994
1995
1996
1997
1998
1999
2000
2001
2002
2003
2004
2005
2006
2007
2008
2009
2010
2011
2012
2013
2014
2015
2016
2017
2018
2019
2020
2021
2022
2023
2024
2025
2026
2027
2028
2029
2030
2031
2032
2033
2034
2035
2036
2037
2038
2039
2040
2041
2042
2043
2044
2045
2046
2047
2048
2049
2050
2051
2052
2053
2054
2055
2056
2057
2058
2059
2060
2061
2062
2063
2064
2065
2066
2067
2068
2069
2070
2071
2072
2073
2074
2075
2076
2077
2078
2079
2080
2081
2082
2083
2084
2085
2086
2087
2088
2089
2090
2091
2092
2093
2094
2095
2096
2097
2098
2099
2100
2101
2102
2103
2104
2105
2106
2107
2108
2109
2110
2111
2112
2113
2114
2115
2116
2117
2118
2119
2120
2121
2122
2123
2124
2125
2126
2127
2128
2129
2130
2131
2132
2133
2134
2135
2136
2137
2138
2139
2140
2141
2142
2143
2144
2145
2146
2147
2148
2149
2150
2151
2152
2153
2154
2155
2156
2157
2158
2159
2160
2161
2162
2163
2164
2165
2166
2167
2168
2169
2170
2171
2172
2173
2174
2175
2176
2177
2178
2179
2180
2181
2182
2183
2184
2185
2186
2187
2188
2189
2190
2191
2192
2193
2194
2195
2196
2197
2198
2199
2200
2201
2202
2203
2204
2205
2206
2207
2208
2209
2210
2211
2212
2213
2214
2215
2216
2217
2218
2219
2220
2221
2222
2223
2224
2225
2226
2227
2228
2229
2230
2231
2232
2233
2234
2235
2236
2237
2238
2239
2240
2241
2242
2243
2244
2245
2246
2247
2248
2249
2250
2251
2252
2253
2254
2255
2256
2257
2258
2259
2260
2261
2262
2263
2264
2265
2266
2267
2268
2269
2270
2271
2272
2273
2274
2275
2276
2277
2278
2279
2280
2281
2282
2283
2284
2285
2286
2287
2288
2289
2290
2291
2292
2293
2294
2295
2296
2297
2298
2299
2300
2301
2302
2303
2304
2305
2306
2307
2308
2309
2310
2311
2312
2313
2314
2315
2316
2317
2318
2319
2320
2321
2322
2323
2324
2325
2754
2755
2756
2757
2758
2759
2760
2761
2762
2763
2764
2765
2766
2767
2768
2769
2770
2771
2772
2773
2774
2775
2776
2777
2778
2779
2780
2781
2782
2783
2784
2785
2786
2787
2788
2789
2790
2791
2792
2793
2794
2795
2796
2797
2798
2799
2800
2801
2802
2803
2804
2805
2806
2807
2808
2809
2810
2811
2812
2813
2814
2815
2816
2817
2818
2819
2820
2821
2822
2823
2824
2825
2826
2827
2828
2829
2830

SCALARS element_group int
LOOKUP_TABLE default
0
0
0
0
0
0
0
0
0
0
0
0
0
0
0
0
0
0
0
0
0
0
0
0
0
0
0
0
0
0
0
0
0
0
0
0
0
0
0
0
0
0
0
0
0
0
0
0
0
0
0
0
0
0
0
0
0
0
0
0
0
0
0
0
0
0
0
0
0
0
0
0
0
0
0
0
0
0
0
0
0
0
0
0
0
0
0
0
0
0
0
0
0
0
0
0
0
0
0
0
0
0
0
0
0
0
0
0
0
0
0
0
0
0
0
0
0
0
0
0
0
0
0
0
0
0
0
0
0
0
0
0
0
0
0
0
0
0
0
0
0
0
0
0
0
0
0
0
0
0
0
0
0
0
0
0
0
0
0
0
0
0
0
0
0
0
0
0
0
0
0
0
0
0
0
0
0
0
0
0
0
0
0
0
0
0
0
0
0
0
0
0
0
0
0
0
0
0
0
0
0
0
0
0
0
0
0
0
0
0
0
0
0
0
0
0
0
0
0
0
0
0
0
0
0
0
0
0
0
0
0
0
0
0
0
0
0
0
0
0
0
0
0
0
0
0
0
0
0
0
0
0
0
0
0
0
0
0
0
0
0
0
0
0
0
0
0
0
0
0
0
0
0
0
0
0
0
0
0
0
0
0
0
0
0
0
0
0
0
0
0
0
0
0
0
0
0
0
0
0
0
0
0
0
0
0
0
0
0
0
0
0
0
0
0
0
0
0
0
0
0
0
0
0
0
0
0
0
0
0
0
0
0
0
0
0
0
0
0
0
0
0
0
0
0
0
0
0
0
0
0
0
0
0
0
0
0
0
0
0
0
0
0
0
0
0
0
0
0
0
0
0
0
0
0
0
0
0
0
0
0
0
0
0
0
0
0
0
0
0
0
0
0
0
0
0
0
0
0
0
0
0
0
0
0
0
0
0
0
0
0
0
0
0
0
0
0
0
0
0
0
0
0
0
0
0
0
0
0
0
0
0
0
0
0
0
0
0
0
0
0
0
0
0
0
0
0
0
0
0
0
0
0
0
0
0
0
0
0
0
0
0
0
0
0
0
0
0
0
0
0
0
0
0
0
0
0
0
0
0
0
0
0
0
0
0
0
0
0
0
0
0
0
0
0
0
0
0
0
0
0
0
0
0
0
0
0
0
0
0
0
0
0
0
0
0
0
0
0
0
0
0
0
0
0
0
0
0
0
0
0
0
0
0
0
0
0
0
0
0
0
0
0
0
0
0
0
0
0
0
0
0
0
0
0
0
0
0
0
0
0
0
0
0
0
0
0
0
0
0
0
0
0
0
0
0
0
0
0
0
0
0
0
0
0
0
0
0
0
0
0
0
0
0
0
0
0
0
0
0
0
0
0
0
0
0
0
0
0
0
0
0
0
0
0
0
0
0
0
0
0
0
0
0
0
0
0
0
0
0
0
0
0
0
0
0
0
0
0
0
0
0
0
0
0
0
0
0
0
0
0
0
0
0
0
0
0
0
0
0
0
0
0
0
0
0
0
0
0
0
0
0
0
0
0
0
0
0
0
0
0
0
0
0
0
0
0
0
0
0
0
0
0
0
0
0
0
0
0
0
0
0
0
0
0
0
0
0
0
0
0
0
0
0
0
0
0
0
0
0
0
0
0
0
0
0
0
0
0
0
0
0
0
0
0
0
0
0
0
0
0
0
0
0
0
0
0
0
0
0
0
0
0
0
0
0
0
0
0
0
0
0
0
0
0
0
0
0
0
0
0
0
0
0
0
0
0
0
0
0
0
0
0
0
0
0
0
0
0
0
0
0
0
0
0
0
0
0
0
0
0
0
0
0
0
0
0
0
0
0
0
0
0
0
0
0
0
0
0
0
0
0
0
0
0
0
0
0
0
0
0
0
0
0
0
0
0
0
0
0
0
0
0
0
0
0
0
0
0
0
0
0
0
0
0
0
0
0
0
0
0
0
0
0
0
0
0
0
0
0
0
0
0
0
0
0
0
0
0
0
0
0
0
0
0
0
0
0
0
0
0
0
0
0
0
0
0
0
0
0
0
0
0
0
0
0
0
0
0
0
0
0
0
0
0
0
0
0
0
0
0
0
0
0
0
0
0
0
0
0
0
0
0
0
0
0
0
0
0
0
0
0
0
0
0
0
0
0
0
0
0
0
0
0
0
0
0
0
0
0
0
0
0
0
0
0
0
0
0
0
0
0
0
0
0
0
0
0
0
0
0
0
0
0
0
0
0
0
0
0
0
0
0
0
0
0
0
0
0
0
0
0
0
0
0
0
0
0
0
0
0
0
0
0
0
0
0
0
0
0
0
0
0
0
0
0
0
0
0
0
0
0
0
0
0
0
0
0
0
0
0
0
0
0
0
0
0
0
0
0
0
0
0
0
0
0
0
0
0
0
0
0
0
0
0
0
0
0
0
0
0
0
0
0
0
0
0
0
0
0
0
0
0
0
0
0
0
0
0
0
0
0
0
0
0
0
0
0
0
0
0
0
0
0
0
0
0
0
0
0
0
0
0
0
0
0
0
0
0
0
0
0
0
0
0
0
0
0
0
0
0
0
0
0
0
0
0
0
0
0
0
0
0
0
0
0
0
0
0
0
0
0
0
0
0
0
0
0
0
0
0
0
0
0
0
0
0
0
0
0
0
0
0
0
0
0
0
0
0
0
0
0
0
0
0
0
0
0
0
0
0
0
0
0
0
0
0
0
0
0
0
0
0
0
0
0
0
0
0
0
0
0
0
0
0
0
0
0
0
0
0
0
0
0
0
0
0
0
0
0
0
0
0
0
0
0
0
0
0
0
0
0
0
0
0
0
0
0
0
0
0
0
0
0
0
0
0
0
0
0
0
0
0
0
0
0
0
0
0
0
0
0
0
0
0
0
0
0
0
0
0
0
0
0
0
0
0
0
0
0
0
0
0
0
0
0
0
0
0
0
0
0
0
0
0
0
0
0
0
0
0
0
0
0
0
0
0
0
0
0
0
0
0
0
0
0
0
0
0
0
0
0
0
0
0
0
0
0
0
0
0
0
0
0
0
0
0
0
0
0
0
0
0
0
0
0
0
0
0
0
0
0
0
0
0
0
0
0
0
0
0
0
0
0
0
0
0
0
0
0
0
0
0
0
0
0
0
0
0
0
0
0
0
0
0
0
0
0
0
0
0
0
0
0
0
0
0
0
0
0
0
0
0
0
0
0
0
0
0
0
0
0
0
0
0
0
0
0
0
0
0
0
0
0
0
0
0
0
0
0
0
0
0
0
0
0
0
0
0
0
0
0
0
0
0
0
0
0
0
0
0
0
0
0
0
0
0
0
0
0
0
0
0
0
0
0
0
0
0
0
0
0
0
0
0
0
0
0
0
0
0
0
0
0
0
0
0
0
0
0
0
0
0
0
0
0
0
0
0
0
0
0
0
0
0
0
0
0
0
0
0
0
0
0
0
0
0
0
0
0
0
0
0
0
0
0
0
0
0
0
0
0
0
0
0
0
0
0
0
0
0
0
0
0
0
0
0
0
0
0
0
0
0
0
0
0
0
0
0
0
0
0
0
0
0
0
0
0
0
0
0
0
0
0
0
0
0
0
0
0
0
0
0
0
0
0
0
0
0
0
0
0
0
0
0
0
0
0
0
0
0
0
0
0
0
0
0
0
0
0
0
0
0
0
0
0
0
0
0
0
0
0
0
0
0
0
0
0
0
0
0
0
0
0
0
0
0
0
0
0
0
0
0
0
0
0
0
0
0
0
0
0
0
0
0
0
0
0
0
0
0
0
0
0
0
0
0
0
0
0
0
0
0
0
0
0
0
0
0
0
0
0
0
0
0
0
0
0
0
0
0
0
0
0
0
0
0
0
0
0
0
0
0
0
0
0
0
0
0
0
0
0
0
0
0
0
0
0
0
0
0
0
0
0
0
0
0
0
0
0
0
0
0
0
0
0
0
0
0
0
0
0
0
0
0
0
0
0
0
0
0
0
0
0
0
0
0
0
0
0
0
0
0
0
0
0
0
0
0
0
0
0
0
0
0
0
0
0
0
0
0
0
0
0
0
0
0
0
0
0
0
0
0
0
0
0
0
0
0
0
0
0
0
0
0
0
0
0
0
0
0
0
0
0
0
0
0
0
0
0
0
0
0
0
0
0
0
0
0
0
0
0
0
0
0
0
0
0
0
0
0
0
0
0
0
0
0
0
0
0
0
0
0
0
0
0
0
0
0
0
0
0
0
0
0
0
0
0
0
0
0
0
0
0
0
0
0
0
0
0
0
0
0
0
0
0
0
0
0
0
0
0
0
0
0
0
0
0
0
0
0
0
0
0
0
0
0
0
0
0
0
0
0
0
0
0
0
0
0
0
0
0
0
0
0
0
0
0
0
0
0
0
0
0
0
0
0
0
0
0
0
0
0
0
0
0
0
0
0
0
0
0
0
0
0
0
0
0
0
0
0
0
0
0
0
0
0
0
0
0
0
0
0
0
0
0
0
0
0
0
0
0
0
0
0
0


VECTORS element_materi_velocity float
3.065592833562e-04 1.327159964097e-03 0.0 
3.752910735369e-04 1.134297059127e-03 0.0 
8.276858349274e-04 6.480996988813e-04 0.0 
1.215097293438e-04 1.489534212516e-03 0.0 
9.773325742591e-04 8.383214317483e-03 0.0 
1.141070535741e-04 -6.950492999154e-05 0.0 
7.456443879696e-04 8.341339467026e-03 0.0 
2.875660741615e-04 9.517856138537e-04 0.0 
8.209676744427e-04 8.385745858670e-03 0.0 
1.794408789356e-04 1.522666930275e-03 0.0 
4.161993426772e-05 -8.639233729774e-05 0.0 
1.737602916778e-04 9.491810832017e-04 0.0 
1.751494283458e-05 -4.049549028682e-06 0.0 
1.565870949645e-03 7.193186799983e-03 0.0 
1.437874910430e-05 -1.778729987859e-06 0.0 
9.902801312747e-05 1.050586133744e-03 0.0 
1.223861553217e-03 8.608786456293e-03 0.0 
1.307787561716e-04 -1.072672138457e-04 0.0 
3.764918482013e-05 -2.491848372534e-04 0.0 
2.892229352055e-05 -2.435526309856e-04 0.0 
2.143956243015e-04 1.558625890213e-03 0.0 
5.871224589691e-04 1.963222786499e-03 0.0 
7.929668676158e-04 2.045558905864e-03 0.0 
3.033417614131e-04 1.301836051019e-05 0.0 
1.928799237992e-03 5.894604463891e-03 0.0 
4.559723615966e-05 -7.563599452438e-05 0.0 
1.727449550646e-03 8.409555500490e-03 0.0 
6.440410258298e-04 1.946665978798e-04 0.0 
2.043972150514e-03 5.746983947669e-03 0.0 
2.456624823221e-04 1.391634830905e-05 0.0 
2.141266409148e-04 -2.820006642419e-04 0.0 
1.534316829254e-04 -3.154846441921e-04 0.0 
9.724320621694e-04 8.254431601744e-04 0.0 
1.259064409295e-05 -3.026309759430e-05 0.0 
1.040623023480e-04 -8.433998908027e-07 0.0 
2.766659899063e-05 -4.161969412536e-07 0.0 
2.514933823370e-05 -5.533369746113e-07 0.0 
3.593882389497e-04 5.569862836537e-05 0.0 
6.074421545577e-04 9.309189240507e-03 0.0 
5.550415271581e-04 9.323505559302e-03 0.0 
1.435246498076e-03 3.392624968015e-03 0.0 
1.059763479472e-04 3.756684852852e-06 0.0 
1.102450970982e-04 6.130182416476e-04 0.0 
1.900199787160e-03 7.883305924260e-03 0.0 
6.351696844572e-05 2.115820733765e-03 0.0 
1.382813250072e-04 5.029120310735e-04 0.0 
1.869984380211e-04 -2.794250040918e-04 0.0 
7.269415117580e-05 1.795030399552e-03 0.0 
1.525988646410e-04 -2.880055745750e-04 0.0 
1.487093401235e-03 7.695055040784e-03 0.0 
1.109057837524e-03 2.646228556084e-03 0.0 
3.664156574911e-05 -2.362826682351e-04 0.0 
2.890572546129e-04 -2.770397230793e-04 0.0 
1.187940291889e-03 3.209457907878e-03 0.0 
6.994923380058e-04 8.380993609963e-04 0.0 
6.162285884238e-05 -2.153328623422e-04 0.0 
2.897892033776e-05 -2.303353715546e-04 0.0 
2.555204031118e-05 -3.088588996307e-05 0.0 
8.434222672686e-05 -2.688162294130e-04 0.0 
1.195415849860e-04 1.058288788111e-03 0.0 
1.111780173973e-04 -2.421726930235e-04 0.0 
7.799868704520e-04 1.730234703280e-04 0.0 
9.447706229512e-04 7.535806730747e-04 0.0 
2.626421129590e-04 -2.814977764839e-04 0.0 
2.872637992801e-05 -4.003970034394e-06 0.0 
8.569917180833e-04 2.509802377301e-03 0.0 
1.125520548892e-04 -2.269992912858e-04 0.0 
9.791295632785e-04 7.302792428753e-04 0.0 
2.092972864568e-04 -3.145163585941e-04 0.0 
7.160103000099e-04 3.333642634539e-04 0.0 
6.824129527726e-05 -6.558845705303e-05 0.0 
1.262450181561e-04 2.815554496197e-04 0.0 
8.413323048682e-04 2.522405708180e-04 0.0 
6.592272911699e-06 -2.704707604425e-04 0.0 
5.464151703860e-05 -2.077117993027e-04 0.0 
4.341179486473e-04 1.333303972895e-03 0.0 
8.553676302225e-04 9.926191082426e-04 0.0 
8.669965405156e-05 2.574304940092e-04 0.0 
9.390679234507e-05 -2.686091928360e-04 0.0 
6.466388996746e-05 3.337749009789e-04 0.0 
2.171373222384e-04 -3.147352778784e-04 0.0 
1.178346547065e-03 8.373507719317e-03 0.0 
5.624487578670e-04 1.607626836273e-03 0.0 
3.808740897680e-04 1.567846151419e-03 0.0 
9.495110463007e-04 7.815620437074e-03 0.0 
8.712209450670e-04 7.796183469815e-03 0.0 
3.964548599764e-05 -5.595271275699e-05 0.0 
6.828604453388e-06 -3.737427579780e-05 0.0 
2.141507191922e-03 1.884830441033e-03 0.0 
1.051461732017e-03 8.329505824079e-03 0.0 
1.595062060118e-04 -3.167720020347e-04 0.0 
2.028593184428e-03 7.238130300970e-03 0.0 
1.836175556515e-04 4.248423772876e-03 0.0 
2.206023502328e-04 4.595758266332e-03 0.0 
2.516316303888e-04 5.169188035545e-04 0.0 
2.635674445899e-04 4.594369137994e-05 0.0 
1.313972385535e-03 8.328428672002e-03 0.0 
1.206716391679e-04 2.298661967172e-06 0.0 
1.272833419807e-04 6.760753662226e-03 0.0 
8.144046585337e-04 8.505580906193e-04 0.0 
9.269482790297e-04 8.880615759729e-03 0.0 
1.852158825064e-05 -1.829222105204e-06 0.0 
1.149213483403e-03 1.496535294074e-04 0.0 
7.409478812508e-04 1.517533667686e-04 0.0 
6.127110758306e-04 2.941308529545e-04 0.0 
1.761275539643e-04 -2.906558110488e-04 0.0 
2.068365124334e-05 -1.217689849194e-05 0.0 
1.887428791898e-04 3.657229849265e-03 0.0 
1.340151297170e-04 -2.742408559913e-04 0.0 
3.483620988132e-05 -1.558911264664e-06 0.0 
2.285438559995e-03 2.036410441119e-03 0.0 
1.186975453257e-05 -2.746569335629e-04 0.0 
1.085976086096e-03 2.156429094680e-04 0.0 
2.241696023448e-03 6.509185784183e-03 0.0 
9.347865095930e-05 -1.854935376089e-04 0.0 
6.522113898599e-04 7.804711350814e-04 0.0 
9.111804753194e-04 6.057406963611e-04 0.0 
7.304524903268e-05 8.953719470350e-07 0.0 
1.597662034486e-04 7.178351973860e-03 0.0 
7.604357256252e-04 5.494605029519e-04 0.0 
1.845240724453e-04 -3.082582560672e-04 0.0 
2.062727943304e-03 7.293963414586e-03 0.0 
1.500988304446e-04 3.350925890721e-03 0.0 
7.461303093254e-04 4.320200323400e-04 0.0 
5.790484368525e-05 8.831658311506e-05 0.0 
1.997648441987e-03 5.259892870467e-03 0.0 
8.174357294361e-05 -1.894490080841e-04 0.0 
1.763600346818e-03 5.160470217885e-03 0.0 
3.338649335733e-04 9.374022367989e-04 0.0 
1.001595768250e-04 5.644331807850e-05 0.0 
6.413984180026e-05 -7.528304110458e-05 0.0 
9.587387160779e-05 1.475125000844e-03 0.0 
1.711956910886e-03 1.738417330839e-03 0.0 
1.739378589229e-03 4.349670545840e-03 0.0 
1.135411134678e-04 -8.481121061019e-08 0.0 
1.198113969853e-05 -3.941886552347e-06 0.0 
5.600877494652e-05 -5.622673495892e-05 0.0 
1.907375056746e-03 1.869925798313e-03 0.0 
1.670457243234e-04 1.070140919520e-05 0.0 
1.677903736942e-03 2.296537664498e-03 0.0 
2.507102892052e-04 1.072623824083e-03 0.0 
8.609045828164e-04 4.294860418938e-04 0.0 
1.668124011313e-03 7.064734281449e-03 0.0 
4.150739609956e-04 5.578215299226e-03 0.0 
1.588213227662e-03 1.919071873514e-03 0.0 
1.488269296329e-03 4.131351547983e-03 0.0 
1.983908937266e-03 1.680938290222e-03 0.0 
8.202490772447e-04 2.727214453595e-04 0.0 
7.011781261692e-04 8.829259386719e-03 0.0 
1.034817882472e-03 1.406574720715e-04 0.0 
1.509458841963e-04 -3.119975063381e-04 0.0 
1.772008357185e-04 8.090174870833e-03 0.0 
3.384457260483e-05 -2.558050704582e-04 0.0 
2.162313114765e-03 6.003476684088e-03 0.0 
1.322701304707e-04 8.541828193093e-06 0.0 
6.199049564043e-04 3.905047242263e-04 0.0 
2.983006177292e-05 -4.674200206563e-05 0.0 
1.800256108194e-04 6.752968440426e-04 0.0 
1.214641482809e-03 1.855008093205e-04 0.0 
4.078023087924e-04 8.512354433639e-03 0.0 
9.286015927710e-04 1.077648313390e-04 0.0 
2.858219579726e-05 -2.405947243639e-05 0.0 
1.937434518225e-04 -3.109409114281e-04 0.0 
2.904764488225e-05 -1.227626591423e-05 0.0 
2.571201550701e-03 4.763371862820e-03 0.0 
3.979953758883e-05 -2.917565658591e-06 0.0 
1.740909709470e-04 8.592897107329e-03 0.0 
7.040953632157e-04 2.384521841483e-04 0.0 
2.098912030538e-03 6.655863103954e-03 0.0 
2.670879877267e-05 -8.879182536283e-05 0.0 
1.405184816323e-04 8.086412858501e-04 0.0 
8.925224760832e-04 4.785458953139e-05 0.0 
3.683014295335e-04 5.050442530676e-03 0.0 
4.602506278641e-04 8.849816370491e-03 0.0 
8.982371334291e-04 2.215846084578e-04 0.0 
1.971438141412e-03 6.039907198323e-03 0.0 
1.725865289150e-03 9.371553644981e-04 0.0 
9.474596131295e-05 -1.729910004082e-04 0.0 
4.988263540218e-04 1.428785404973e-04 0.0 
8.294242566835e-04 3.666264433559e-04 0.0 
5.343788566478e-04 8.724656245111e-04 0.0 
8.352265875506e-05 -1.655111625439e-04 0.0 
4.858514167705e-04 1.912704171234e-05 0.0 
1.525838921097e-03 2.530454573284e-03 0.0 
3.960904032783e-04 8.030439471861e-04 0.0 
2.417002035682e-03 5.858904767152e-03 0.0 
1.019087682620e-03 2.599163179480e-04 0.0 
1.785274580810e-04 1.143337913644e-03 0.0 
2.236276601371e-03 2.561884207685e-03 0.0 
1.976741851569e-05 -1.755358742765e-05 0.0 
1.077921773802e-04 3.685358508310e-04 0.0 
7.718902270076e-04 -2.625273144431e-05 0.0 
2.128785465621e-03 2.032393819176e-03 0.0 
-1.888637048997e-05 -3.426716920614e-05 0.0 
1.609377273706e-03 3.028907328488e-03 0.0 
4.883618519645e-04 -1.949889340902e-05 0.0 
1.101842157152e-04 -2.868186724729e-04 0.0 
9.602289843646e-04 9.973509943044e-04 0.0 
2.209608947491e-03 4.465303757085e-03 0.0 
3.520257344447e-04 -2.311654663989e-04 0.0 
5.211273078014e-04 -1.406302110693e-05 0.0 
2.110265726280e-03 6.734244713356e-03 0.0 
1.857466142494e-03 6.415371701999e-03 0.0 
2.268841420172e-04 1.074259337656e-05 0.0 
2.490733944878e-04 -2.621359317371e-04 0.0 
1.937087819345e-03 1.263303236192e-03 0.0 
2.625270147107e-03 3.786334667093e-03 0.0 
2.100465692318e-03 4.116425971071e-03 0.0 
2.622243830034e-03 4.719602872860e-03 0.0 
2.466588543688e-03 5.317773841326e-03 0.0 
1.172412284599e-03 7.493280465614e-05 0.0 
1.907617218906e-03 1.115774728193e-03 0.0 
4.575306547094e-05 -7.826780275733e-05 0.0 
5.431337108953e-04 1.067166280137e-03 0.0 
8.520202770952e-04 1.038704682498e-03 0.0 
1.883927857096e-03 1.407279964344e-03 0.0 
2.071745402306e-03 2.327433932487e-03 0.0 
2.091891219890e-04 -9.088414071349e-05 0.0 
4.764218470699e-04 -3.947619161023e-05 0.0 
5.172711429180e-04 8.723561453002e-03 0.0 
7.993247406933e-04 2.253725507200e-05 0.0 
4.571032030075e-04 -5.867383961680e-05 0.0 
1.345502719819e-04 -3.025984446703e-04 0.0 
2.063413080956e-03 3.624238341342e-03 0.0 
1.291387743308e-04 -3.028899163293e-04 0.0 
1.028941816361e-04 -2.808774446547e-04 0.0 
8.451428279700e-05 4.597681001155e-04 0.0 
2.291329376940e-04 -2.781546541151e-04 0.0 
1.914252527674e-03 3.275506555656e-03 0.0 
2.265968364497e-04 -2.869283024579e-04 0.0 
2.707667365636e-04 1.902349749341e-04 0.0 
2.651348818409e-04 -3.034803918097e-04 0.0 
1.891062953841e-04 -3.023306960587e-04 0.0 
5.262989974901e-04 6.799993428682e-06 0.0 
2.573479588241e-03 4.247541188122e-03 0.0 
3.434453506242e-05 -4.011796403905e-06 0.0 
9.670671114716e-06 -7.270351686707e-05 0.0 
4.178659197851e-04 1.604197406477e-04 0.0 
9.482128579243e-04 2.230297086430e-05 0.0 
1.272825691102e-03 2.330942861017e-03 0.0 
5.092159092936e-04 -3.515395748203e-05 0.0 
4.332531750714e-05 -2.008007148533e-06 0.0 
2.337223799955e-03 2.967040023131e-03 0.0 
5.403140848324e-04 -7.688974992801e-05 0.0 
4.931096566726e-04 1.146023897516e-07 0.0 
3.333540068778e-05 -6.566738827091e-05 0.0 
2.136701688564e-03 1.784115564109e-03 0.0 
2.277445442196e-03 3.798304584961e-03 0.0 
6.716244000778e-04 1.601178967350e-04 0.0 
9.070413789591e-04 -2.470956002446e-05 0.0 
3.382498038407e-04 2.119836448651e-04 0.0 
2.670293636341e-03 4.106764608240e-03 0.0 
2.038589931769e-04 4.808740733248e-04 0.0 
1.840562561618e-03 1.051056508560e-03 0.0 
1.056630690786e-03 -3.853770967577e-05 0.0 
4.003554523770e-04 7.909255387835e-03 0.0 
2.064133299653e-04 -3.160669897126e-04 0.0 
2.581254414710e-03 5.158451014342e-03 0.0 
5.519819443322e-04 -3.430273669766e-05 0.0 
3.044254053704e-04 -1.159162315363e-04 0.0 
2.335729700765e-04 -2.732678056861e-04 0.0 
1.824463317230e-03 3.383884562013e-03 0.0 
2.670521134193e-03 3.781350884003e-03 0.0 
8.550901427806e-04 3.699154222795e-04 0.0 
1.659153515759e-03 3.002691508659e-03 0.0 
2.265878274897e-03 2.391138754080e-03 0.0 
2.361108384634e-03 2.190825463852e-03 0.0 
5.065382139125e-05 -4.403141065074e-07 0.0 
1.048882329522e-03 -3.974310913874e-05 0.0 
2.535575068617e-03 2.601573814992e-03 0.0 
1.202834829901e-03 2.574245921503e-04 0.0 
1.091573826490e-03 -1.143424810960e-05 0.0 
4.061472386384e-04 -1.340344882187e-04 0.0 
1.825307228368e-03 7.675808757839e-03 0.0 
9.008876479023e-04 -7.770310429218e-05 0.0 
4.683361637171e-04 -2.539669929909e-04 0.0 
2.285937713954e-03 3.150047474508e-03 0.0 
6.559209885957e-06 -1.031983526483e-04 0.0 
2.592612352303e-03 4.999820521714e-03 0.0 
5.953399853010e-04 -1.010237869338e-04 0.0 
4.192921726991e-04 9.396977815029e-05 0.0 
4.001879370127e-04 -1.646686487106e-04 0.0 
2.666924932395e-03 3.643183504827e-03 0.0 
1.677713482154e-04 -3.150429182574e-04 0.0 
1.087740122853e-03 1.357912228486e-03 0.0 
1.065327337692e-03 -1.079719720335e-05 0.0 
2.669772854660e-03 4.198788415072e-03 0.0 
1.911555308370e-03 7.058632376997e-03 0.0 
1.767768194909e-04 -1.341370120608e-04 0.0 
4.867912732256e-04 -2.417542411449e-04 0.0 
4.093178309282e-04 -2.722678196646e-04 0.0 
6.985818626688e-04 1.163318382586e-03 0.0 
2.350336367105e-03 3.610125111923e-03 0.0 
1.035815926674e-03 1.125859310352e-03 0.0 
8.287739275878e-04 -9.958821906393e-05 0.0 
8.239164834321e-04 -4.794792787366e-05 0.0 
2.139235235346e-04 -1.273034661598e-04 0.0 
1.249685003587e-03 2.185969167631e-04 0.0 
1.636762581735e-04 1.490026650799e-04 0.0 
3.620038604641e-04 4.091377261600e-04 0.0 
4.322779931405e-04 3.737869442985e-04 0.0 
1.873695896116e-03 9.427861345978e-04 0.0 
4.732628348241e-04 -8.899481234614e-05 0.0 
3.533177056812e-04 2.249937494427e-05 0.0 
2.522319542947e-03 2.312100246680e-03 0.0 
4.156882263886e-04 -5.983130547729e-05 0.0 
4.253918289155e-04 -2.626324197886e-04 0.0 
2.236440370638e-03 2.100979189874e-03 0.0 
3.259898184110e-04 1.301518196120e-03 0.0 
6.897674369933e-04 -4.574603692089e-05 0.0 
1.240189190422e-03 1.103065611545e-04 0.0 
2.243712348658e-04 1.066046603715e-04 0.0 
8.761993962850e-05 9.608540478922e-06 0.0 
4.180751522528e-04 -1.479908150922e-05 0.0 
2.167683422923e-03 1.596525958517e-03 0.0 
2.612309244613e-04 -1.563397301690e-04 0.0 
7.277181233820e-04 -7.649507161833e-05 0.0 
9.457353577143e-04 -4.104031612422e-05 0.0 
4.307268495423e-04 -2.715864195423e-04 0.0 
2.586943951056e-03 3.339833245308e-03 0.0 
3.679609849104e-04 2.131799678004e-04 0.0 
7.163429999947e-04 -1.046447400844e-04 0.0 
1.005297548087e-03 -3.521549582819e-05 0.0 
2.346013904898e-04 4.996831773518e-05 0.0 
1.425278644535e-03 5.704974590391e-03 0.0 
4.890343426629e-04 -5.556913163453e-05 0.0 
4.138792770117e-04 3.224638537005e-04 0.0 
1.381646078765e-03 6.228475480857e-03 0.0 
3.368256824242e-04 1.369786063105e-04 0.0 
4.286134937362e-04 -2.855909933041e-05 0.0 
4.022535367097e-04 2.653490350580e-04 0.0 
1.702167822014e-03 6.066785028628e-03 0.0 
2.274906938747e-03 1.861366489411e-03 0.0 
2.456002914940e-04 3.502019176533e-04 0.0 
2.427189676089e-03 3.668523949398e-03 0.0 
2.600108694519e-03 2.970721063138e-03 0.0 
2.641192386329e-03 2.988149683331e-03 0.0 
1.614208358315e-03 7.952704151194e-04 0.0 
2.876465875993e-04 9.418552461895e-05 0.0 
2.097862353158e-03 6.082670526525e-03 0.0 
2.480625627370e-03 5.743350930129e-03 0.0 
7.904967418729e-04 -8.616379874517e-05 0.0 
2.088884116377e-04 -2.916239155114e-04 0.0 
2.357097670061e-03 4.707406857122e-03 0.0 
5.064066482548e-04 2.629675928159e-04 0.0 
3.489190815381e-04 8.822167438207e-03 0.0 
4.117622621115e-04 -2.773310749954e-04 0.0 
6.676399515396e-04 -8.592217468948e-05 0.0 
2.072602893159e-03 3.021609532225e-03 0.0 
5.023771671909e-04 1.826214839542e-04 0.0 
2.491062432671e-03 3.275882130476e-03 0.0 
9.708084151020e-04 -3.038245950078e-05 0.0 
4.651564465512e-04 -1.534043643803e-04 0.0 
1.986589987977e-04 4.770779838175e-05 0.0 
1.852901177406e-03 3.232142338623e-03 0.0 
4.714407076419e-04 -2.187397871078e-04 0.0 
3.538317210515e-04 -2.437347334978e-04 0.0 
3.883831394587e-04 6.599163400394e-04 0.0 
4.089493238556e-04 4.199344667341e-04 0.0 
1.950356358349e-03 1.833140655676e-03 0.0 
2.275051447235e-03 1.674751277690e-03 0.0 
1.201448481165e-03 1.946359950054e-03 0.0 
2.269459720821e-03 3.547334998846e-03 0.0 
1.382535893928e-04 2.180407343083e-05 0.0 
3.541041619371e-04 4.912148685651e-05 0.0 
1.922917968561e-03 1.957435315383e-03 0.0 
2.147488329014e-03 3.480674717695e-03 0.0 
4.809291793753e-04 -1.686497203154e-04 0.0 
1.117048162952e-03 8.268840034302e-04 0.0 
4.646943913541e-04 -1.248225681796e-04 0.0 
5.778408841261e-04 -1.343821880699e-04 0.0 
2.068050633874e-03 1.349371956478e-03 0.0 
7.631378486587e-04 -8.845105103038e-05 0.0 
2.399634832741e-04 -1.777392303820e-04 0.0 
1.778028444178e-03 2.292620634223e-03 0.0 
4.565257682416e-04 -2.361593767896e-04 0.0 
1.399595908509e-03 5.810963612275e-04 0.0 
2.449493844624e-03 2.540221245362e-03 0.0 
1.174780030824e-03 5.911778909264e-04 0.0 
4.214247369698e-04 3.161806661986e-04 0.0 
4.119452971263e-04 4.065563706283e-04 0.0 
9.881880998814e-04 9.599870747195e-04 0.0 
4.781055923476e-04 -1.378449454439e-04 0.0 
1.568287115857e-03 3.073460988662e-03 0.0 
3.302336800034e-04 2.936816490561e-04 0.0 
6.887560633742e-04 -1.359016542359e-04 0.0 
3.048118439462e-04 -1.493901148047e-04 0.0 
1.293568789816e-03 1.473396410351e-03 0.0 
1.641177027954e-03 7.943973114399e-03 0.0 
1.592459525655e-03 6.142046105184e-03 0.0 
2.275973325189e-04 2.039053326531e-05 0.0 
1.977130260375e-03 1.584129453224e-03 0.0 
2.634122549308e-03 4.468948573400e-03 0.0 
2.611876444518e-03 2.645840701036e-03 0.0 
3.498222204357e-04 -1.722871844231e-04 0.0 
1.800546135569e-04 -3.191777743698e-04 0.0 
1.090143772626e-03 1.099915146735e-04 0.0 
1.578716238036e-03 5.734503867224e-04 0.0 
1.188152149936e-03 1.461492766829e-04 0.0 
4.206184005478e-05 1.443926737465e-04 0.0 
3.359129558325e-04 7.649027734413e-03 0.0 
2.048166147828e-04 -2.989983182506e-04 0.0 
4.925626274845e-04 5.197014792522e-05 0.0 
4.745044124216e-05 5.609835018262e-06 0.0 
1.050514250414e-03 4.380481194717e-05 0.0 
2.403833030390e-03 6.157145826332e-03 0.0 
2.300205139587e-05 -2.579025093014e-04 0.0 
1.699160708648e-03 9.696865702297e-04 0.0 
1.039617864766e-03 5.154725527394e-05 0.0 
2.669161646473e-03 3.306134510068e-03 0.0 
3.654066466557e-04 1.867370255237e-04 0.0 
2.471280635608e-03 4.193681585260e-03 0.0 
2.443867661192e-03 2.012109370458e-03 0.0 
2.622871900945e-04 -1.808384021422e-04 0.0 
1.827654725112e-03 2.819575978872e-03 0.0 
4.560328297011e-04 -1.225319847151e-04 0.0 
3.632512322088e-04 1.658568758893e-04 0.0 
2.115097255182e-04 1.481632798363e-04 0.0 
1.724215450268e-04 2.083509134680e-04 0.0 
2.223629816890e-04 2.057695579362e-04 0.0 
2.628920896100e-03 2.919945272107e-03 0.0 
1.901929842539e-03 2.709242579088e-03 0.0 
1.765495954577e-03 1.508901085811e-03 0.0 
1.230028568230e-03 7.372384545480e-04 0.0 
1.170477848113e-03 1.011016048829e-03 0.0 
2.061142554400e-04 -1.848215294226e-04 0.0 
1.835456381735e-03 2.187529860786e-03 0.0 
3.129259824160e-04 1.138890768078e-04 0.0 
1.560812065323e-03 2.549851317703e-03 0.0 
1.090795603368e-03 1.700265858730e-05 0.0 
1.639524064232e-03 2.475113794273e-03 0.0 
1.699139108660e-03 4.972798294078e-04 0.0 
1.458099010417e-03 5.144562784183e-04 0.0 
1.364771201880e-03 1.768405871338e-03 0.0 
2.946385411142e-04 1.056432487435e-05 0.0 
4.811918799079e-04 1.009161986159e-03 0.0 
1.028209477914e-03 5.329834630950e-04 0.0 
9.336633252184e-04 3.207607432506e-04 0.0 
2.270582967476e-04 -1.880583865206e-04 0.0 
3.600160528452e-04 -2.888457557919e-04 0.0 
1.728425620171e-04 1.576852130508e-05 0.0 
5.846940064665e-04 1.342660065601e-04 0.0 
1.907438111915e-04 1.171857552217e-04 0.0 
7.402421343697e-04 7.694270313425e-04 0.0 
2.264557459530e-03 1.493879538652e-03 0.0 
1.669937708810e-04 -3.199027247803e-04 0.0 
1.881894729368e-04 9.074281294496e-05 0.0 
2.246792276785e-04 2.789360197339e-05 0.0 
3.765970171273e-04 -2.852010578961e-04 0.0 
9.851880720256e-04 -4.903746006550e-06 0.0 
1.852802711154e-04 4.021889698052e-05 0.0 
1.553026634828e-04 -3.206526613836e-04 0.0 
1.262695910223e-03 5.212743677328e-04 0.0 
2.411068297357e-03 1.786925170438e-03 0.0 
2.079844347224e-03 1.207250728418e-03 0.0 
2.368737726872e-03 1.952187157260e-03 0.0 
3.492897188311e-04 7.792251153085e-05 0.0 
1.617639231522e-04 6.186454336615e-05 0.0 
7.915043015527e-04 -1.290893839522e-04 0.0 
1.866672669112e-04 -1.693965538949e-04 0.0 
6.601483666230e-05 -1.027772036042e-06 0.0 
1.617090604312e-04 -3.206483006460e-04 0.0 
1.992046709899e-03 2.900903475429e-03 0.0 
2.285035080175e-04 -2.941466275743e-04 0.0 
2.354683615681e-03 5.315668438490e-03 0.0 
1.169456412844e-04 1.612584637596e-05 0.0 
1.364845283355e-04 4.216099117732e-05 0.0 
2.673278629952e-03 3.352278082411e-03 0.0 
1.895470724103e-04 -3.007156228149e-04 0.0 
1.553379371626e-04 -1.764690238911e-04 0.0 
2.147948235698e-04 -3.016307791903e-04 0.0 
2.158281368140e-04 -2.456321900281e-05 0.0 
1.684460174432e-03 8.128541149026e-03 0.0 
2.432636237426e-03 5.935267142053e-03 0.0 
1.044094348289e-04 2.626691146483e-05 0.0 
1.512248056928e-03 8.360265072562e-03 0.0 
3.254209995623e-04 4.195144141742e-04 0.0 
1.600543768856e-03 4.375137215539e-04 0.0 
1.428608903477e-03 6.734578255123e-03 0.0 
5.062928075514e-04 5.760804064106e-04 0.0 
1.045145470686e-03 1.806307345669e-05 0.0 
2.561100843400e-04 -8.644652145414e-05 0.0 
9.103070714659e-05 1.877801006360e-05 0.0 
2.099150114515e-04 1.680173863623e-04 0.0 
1.895823154373e-04 2.007868126921e-04 0.0 
4.250488035448e-04 -1.227857940041e-04 0.0 
1.738295343190e-04 -1.911896562939e-04 0.0 
1.384711393226e-03 4.005958933583e-04 0.0 
4.014740332271e-04 -1.079017901001e-04 0.0 
7.637337758321e-05 1.291366841738e-05 0.0 
4.873176201881e-04 -1.375575147721e-06 0.0 
4.915591036149e-04 -2.543190472316e-04 0.0 
4.865453489329e-04 -2.584108389551e-04 0.0 
1.280062321658e-03 6.249067977581e-03 0.0 
7.533893577810e-05 7.248354478035e-06 0.0 
1.796218196338e-04 -3.069635509053e-04 0.0 
5.506542947482e-05 7.235441362520e-06 0.0 
4.272167090916e-04 -2.726807061068e-04 0.0 
1.772171737189e-04 9.599421257870e-05 0.0 
1.779548130302e-03 1.407453261501e-03 0.0 
1.511187538931e-04 -3.189090691415e-04 0.0 
1.265647222062e-03 3.501792809064e-04 0.0 
1.391035032074e-03 2.662449081853e-03 0.0 
1.750617592720e-04 7.511406294435e-05 0.0 
2.603721937769e-03 2.623779862156e-03 0.0 
1.418595426680e-03 3.230922657122e-04 0.0 
1.875088519923e-04 3.818901036593e-05 0.0 
3.479703068424e-04 3.023507607573e-05 0.0 
4.165126097939e-04 -2.677183787792e-04 0.0 
4.627028580278e-04 -2.630438157018e-04 0.0 
1.475730907753e-04 -2.967660916980e-04 0.0 
1.511620592638e-04 5.202453344164e-05 0.0 
3.553950834857e-04 -1.081791406627e-04 0.0 
4.050713952869e-04 -1.535381035092e-05 0.0 
1.357573574843e-03 7.313852451929e-03 0.0 
3.013263512623e-04 -2.813286039002e-04 0.0 
4.700237874274e-04 -2.623030739070e-04 0.0 
2.557537227039e-03 2.338938512531e-03 0.0 
9.424956396879e-05 2.144088691692e-05 0.0 
1.659655656863e-04 -1.788592504225e-04 0.0 
4.326581852653e-04 -7.654927642007e-05 0.0 
1.794041376673e-03 6.949420588391e-04 0.0 
6.326511877796e-04 -1.105950780011e-04 0.0 
5.348858445264e-04 -2.436354459994e-04 0.0 
4.623638758265e-04 -1.067345613629e-04 0.0 
1.780693260436e-03 7.773664841498e-04 0.0 
1.946041167720e-03 8.091762355550e-04 0.0 
9.860378282414e-04 4.387252364487e-05 0.0 
1.606703936796e-03 5.095989352522e-04 0.0 
2.936712320674e-04 -1.979814374824e-04 0.0 
5.734532138461e-04 7.006463302863e-05 0.0 
1.935410065752e-04 -1.944093115276e-04 0.0 
1.523587458133e-03 3.666553356318e-04 0.0 
9.742957123542e-04 -6.146510971012e-05 0.0 
1.025158707170e-04 1.284527638078e-05 0.0 
1.362178197737e-03 2.178178715064e-03 0.0 
2.782008785965e-04 -2.876580597769e-04 0.0 
6.188021180956e-05 8.890405013444e-06 0.0 
2.577232847571e-04 2.762391438084e-05 0.0 
1.218943143897e-03 1.196821566881e-04 0.0 
1.611765273222e-04 -3.056642562623e-04 0.0 
6.582584838691e-05 5.555602299425e-06 0.0 
1.571816622959e-03 1.988646852352e-03 0.0 
3.741462224276e-04 -2.836436021943e-04 0.0 
4.016949838635e-05 3.998705460660e-06 0.0 
4.040441581262e-04 -9.293500906503e-05 0.0 
1.425177775293e-03 1.331474110621e-03 0.0 
2.520786772000e-03 5.362841753221e-03 0.0 
9.916340049919e-04 -6.535567211442e-05 0.0 
4.341782571859e-04 -1.530940714827e-04 0.0 
6.833801020275e-04 -8.465258029810e-05 0.0 
2.302513449311e-03 4.290745994621e-03 0.0 
2.006315258623e-03 2.217794232997e-03 0.0 
1.027550695214e-03 9.021207683789e-05 0.0 
3.225122551354e-04 7.071496456732e-03 0.0 
2.707061413271e-04 -1.947212878972e-04 0.0 
9.338024332115e-04 -2.917650749673e-07 0.0 
3.941229303549e-04 -2.680954051925e-04 0.0 
2.092580627942e-04 -9.041668224683e-05 0.0 
1.436790050663e-04 -3.124419880990e-04 0.0 
6.801077749155e-04 1.589334466157e-04 0.0 
4.061816336898e-04 -2.753485354099e-04 0.0 
2.301093697396e-04 -1.640874169722e-04 0.0 
1.373226118921e-03 2.269540017312e-04 0.0 
4.339499745693e-04 -9.202158961679e-05 0.0 
1.228669552103e-03 6.762253359290e-03 0.0 
3.556272415830e-04 -2.846387477800e-04 0.0 
3.516943739175e-05 3.249649017375e-06 0.0 
2.325444375332e-03 1.546131218202e-03 0.0 
1.975872185886e-04 -1.481832122843e-04 0.0 
2.168983148569e-03 1.273532991420e-03 0.0 
2.084998142295e-04 -1.613653135532e-04 0.0 
1.515982456191e-04 -3.171166146383e-04 0.0 
2.499921293482e-03 5.130929340666e-03 0.0 
6.021913371712e-05 -1.758903890621e-04 0.0 
1.170406447698e-04 -3.009670774420e-04 0.0 
1.672425016787e-04 -1.563833385670e-04 0.0 
3.983471453945e-04 -6.324157620146e-05 0.0 
3.837882217435e-04 3.078595728319e-03 0.0 
7.023447257687e-04 -1.178608568575e-04 0.0 
6.742189670729e-04 -1.046904064012e-04 0.0 
2.245168417753e-03 6.787301931474e-03 0.0 
1.419873459872e-03 8.982490445353e-03 0.0 
5.684956577533e-04 8.901239844318e-04 0.0 
1.982014867194e-03 1.012911634170e-03 0.0 
1.104703223141e-04 -3.001886358219e-04 0.0 
1.784113127257e-04 -2.988072477502e-04 0.0 
1.659499255264e-04 -3.155537126725e-04 0.0 
2.478532759234e-04 -2.722747793701e-04 0.0 
1.684843644799e-03 8.414893121894e-04 0.0 
4.403245641884e-04 3.108157586828e-03 0.0 
2.300299289379e-04 -3.430694572349e-05 0.0 
2.125811979661e-04 -2.429348574676e-04 0.0 
1.888847429380e-04 -8.960006524630e-05 0.0 
3.515978025339e-04 -7.965935306536e-06 0.0 
2.628809088500e-04 -1.858028514005e-04 0.0 
4.271190817066e-05 -1.747701455033e-04 0.0 
3.172131743284e-05 -2.003377467128e-04 0.0 
5.873373558462e-05 4.079413185678e-06 0.0 
3.065641099515e-05 2.305953282051e-06 0.0 
4.314057253574e-05 -1.559017107646e-04 0.0 
1.767671235354e-04 -1.459438610644e-04 0.0 
4.161433768260e-04 -1.377884618353e-04 0.0 
3.434111459464e-04 5.759514082113e-06 0.0 
1.807674463739e-04 -2.917428871616e-04 0.0 
3.549304748235e-04 -2.270886621138e-05 0.0 
9.276741984853e-05 -2.805374765779e-04 0.0 
1.769726689589e-04 -1.690376460987e-04 0.0 
2.409701091696e-04 -1.530057063595e-04 0.0 
7.327643115109e-05 -2.802817965138e-04 0.0 
3.485065862165e-05 -1.647522745325e-04 0.0 
1.283267564390e-03 2.220006999210e-03 0.0 
9.363746548132e-05 -2.949492204505e-04 0.0 
1.566182540496e-03 8.717400049294e-03 0.0 
1.568414116793e-03 8.846750347954e-03 0.0 
7.314981216704e-04 -5.560266574084e-05 0.0 
1.583738774194e-05 -2.004821737807e-04 0.0 
3.652729734061e-04 -2.767207074088e-04 0.0 
2.803803986401e-04 1.226238040973e-04 0.0 
1.415334727454e-04 -1.212871039643e-05 0.0 
5.956602894855e-04 2.169400860840e-04 0.0 
7.997865951734e-04 3.714322766210e-03 0.0 
5.086705756725e-04 4.568120771212e-04 0.0 
1.710406889914e-04 -3.106683501111e-04 0.0 
2.191094467992e-03 3.049988559210e-03 0.0 
1.048519853509e-03 9.289738154412e-03 0.0 
9.728822106012e-04 9.620140026398e-03 0.0 
1.013856082564e-04 -2.953722621017e-04 0.0 
9.214775224963e-05 -2.856769942605e-04 0.0 
4.322654891214e-05 -2.661769161506e-04 0.0 
1.834130008818e-04 -2.659035178144e-04 0.0 
6.335702821224e-05 -2.805655370753e-04 0.0 
3.487678006805e-05 -1.451057022316e-04 0.0 
1.125216757859e-04 -2.703933638067e-04 0.0 
1.971570234552e-04 -2.497880347547e-04 0.0 
2.968094453476e-04 5.935982289178e-03 0.0 
1.306174356727e-03 9.372108015899e-03 0.0 
1.563895699986e-03 8.584829372300e-04 0.0 
3.752334875330e-04 -7.907561723903e-05 0.0 
2.596647381616e-04 6.841968113747e-03 0.0 
8.216358103478e-06 -1.918258758176e-04 0.0 
5.339344187273e-05 -2.706678596226e-04 0.0 
7.094998714724e-05 2.624478421541e-04 0.0 
1.627845931305e-04 5.438446453625e-04 0.0 
1.259217980575e-03 7.320935059373e-03 0.0 
1.167827518345e-03 9.247076789394e-03 0.0 
4.087912443183e-05 -1.922121919590e-04 0.0 
1.035818810631e-04 5.232882873237e-04 0.0 
1.983415971334e-04 -2.603435085715e-04 0.0 
1.430524796962e-03 9.155057387458e-03 0.0 
1.288294404145e-03 9.154625189610e-03 0.0 
2.190937469720e-03 4.615200774864e-03 0.0 
1.529994545355e-04 2.111635007063e-04 0.0 
1.270347610783e-04 5.186660260540e-04 0.0 
8.287823535506e-05 -2.853313970123e-04 0.0 
8.360218218883e-05 -2.901406346293e-04 0.0 
1.659038789232e-04 -3.013625976328e-04 0.0 
2.637876816418e-04 -1.555265842472e-04 0.0 
1.329291839153e-05 -7.584962075123e-06 0.0 
9.157633130860e-05 -2.528418201026e-04 0.0 
9.889901404546e-05 3.902137949015e-03 0.0 
1.305573321451e-04 -2.936332367675e-04 0.0 
6.451416126874e-04 -7.183165998729e-05 0.0 
1.313584682712e-04 -3.004176931346e-04 0.0 
1.140896520796e-04 -2.810252274599e-04 0.0 
6.016366387207e-04 -9.660835357308e-05 0.0 
5.416735186421e-05 -1.153419912995e-05 0.0 
2.463326253582e-04 6.272471623028e-03 0.0 
2.182587821218e-03 2.345670350671e-03 0.0 
5.320313511097e-05 -2.760302785096e-04 0.0 
1.532302282715e-04 -7.730372205933e-05 0.0 
2.386545584713e-05 3.145338242019e-04 0.0 
4.733143525010e-05 5.325137620299e-04 0.0 
1.193145169862e-03 9.503975047963e-03 0.0 
6.846463842062e-04 -4.449255777122e-05 0.0 
5.608477393106e-05 2.562181838999e-04 0.0 
1.349720788457e-03 2.708321081857e-04 0.0 
3.183845873310e-05 -2.678381970397e-04 0.0 
4.311165104765e-05 -2.771862136757e-04 0.0 
3.191386763038e-05 -2.734850756777e-04 0.0 
8.663516331462e-06 -1.735439332751e-04 0.0 
1.051975802693e-05 -5.119468585585e-07 0.0 
1.254609101056e-05 1.454064281972e-03 0.0 
4.357936899668e-05 -2.825125353063e-04 0.0 
1.792334982250e-05 -1.438710564622e-04 0.0 
3.542078636946e-06 -2.071921247157e-07 0.0 
1.498125234725e-05 -4.425486023564e-07 0.0 
5.268168835462e-05 2.968632305350e-06 0.0 
5.394565142256e-05 4.887641514660e-03 0.0 
2.207264953260e-05 3.406354941573e-03 0.0 
6.977679389979e-06 -3.047547338429e-07 0.0 
8.003572957273e-06 -1.377938685135e-07 0.0 
4.832300709610e-05 3.902652287936e-03 0.0 
3.324545511527e-05 -2.839897904418e-04 0.0 
7.551556663420e-04 9.672915828785e-03 0.0 
1.084242406147e-03 9.580832116263e-03 0.0 
6.403854303196e-05 -2.857050505061e-04 0.0 
1.387574735515e-05 3.646291336489e-07 0.0 
4.830695248567e-05 2.059562594883e-06 0.0 
2.370258872052e-05 8.643901931604e-07 0.0 
5.435236787971e-05 -2.864961135711e-04 0.0 
7.468189280458e-05 -2.902305475617e-04 0.0 
2.807732458947e-05 1.773459903627e-06 0.0 
2.460436376515e-05 1.195172401723e-06 0.0 
2.769529385906e-05 5.394851875288e-03 0.0 
4.118241541885e-04 9.697061534637e-03 0.0 
2.625035756350e-05 4.389592577407e-03 0.0 
3.204279346707e-05 7.391428800692e-03 0.0 
1.792739315792e-04 9.696974004342e-03 0.0 
1.251311182207e-04 -3.057019903743e-04 0.0 
1.468103657595e-04 -3.163532474347e-04 0.0 
1.523819456126e-04 -3.197110169894e-04 0.0 
1.539083659588e-04 -3.209016565801e-04 0.0 
9.005762734062e-06 -1.334594153917e-04 0.0 
8.917587088439e-06 -1.539715959763e-04 0.0 
1.504327405218e-04 -3.175496347240e-04 0.0 
8.785828323499e-06 -7.374088460952e-05 0.0 
1.548487984174e-04 -3.203467823403e-04 0.0 
1.253866122327e-04 2.353633539348e-04 0.0 
4.749710713207e-05 2.670701034238e-04 0.0 
9.183460598329e-05 2.813968032085e-04 0.0 
7.159403318763e-06 -2.500844475809e-04 0.0 
7.621029638464e-06 -2.086044677671e-04 0.0 
4.437902770569e-05 3.222364785695e-04 0.0 
5.762039639564e-06 -2.314255742735e-05 0.0 
2.346597940297e-05 2.179799378280e-04 0.0 
4.146618936653e-06 -1.178913178570e-05 0.0 
2.468027087660e-06 -4.199825146788e-06 0.0 
1.758110341990e-05 -1.640568055136e-04 0.0 
9.187613483776e-05 5.893065819933e-04 0.0 
6.784500710866e-05 5.402164163975e-04 0.0 
9.908658576217e-06 -1.725946478737e-05 0.0 
6.614646024313e-06 -7.491318009159e-06 0.0 
8.898268361939e-05 -5.621982019286e-05 0.0 
1.434229839122e-04 -3.086140530325e-04 0.0 
1.468723652525e-04 -1.762418015598e-04 0.0 
1.006198418585e-04 -2.909092735287e-04 0.0 
1.305794311388e-04 -1.308331107789e-05 0.0 
1.974098864564e-04 -1.717802698651e-04 0.0 
1.008647058190e-04 -2.980659867993e-05 0.0 
1.833321756874e-04 -2.752371175895e-04 0.0 
1.195364427525e-04 -2.887358544382e-04 0.0 
6.854245847053e-05 -1.663138366056e-05 0.0 
1.473745415064e-04 -1.542208039980e-04 0.0 
3.365871107239e-05 -1.835400632410e-04 0.0 
8.812801474556e-05 -3.015747041008e-05 0.0 
1.409550533863e-04 2.466176204177e-03 0.0 
1.687987443494e-05 -1.830093200317e-04 0.0 
3.888382866167e-04 -4.897275712258e-05 0.0 
2.747814676968e-04 -9.274128257598e-05 0.0 
1.051714624303e-04 -5.626404267777e-05 0.0 
7.559208118468e-05 -4.715254788647e-05 0.0 
7.256401792173e-04 -1.469218777849e-04 0.0 
1.900587622045e-03 2.463751556507e-03 0.0 
1.351160738745e-03 2.618121861609e-04 0.0 
1.719633443121e-04 -7.785350434968e-05 0.0 
6.185877491179e-05 -2.356388394252e-05 0.0 
4.913407443103e-05 -3.901366817867e-05 0.0 
2.415055342539e-04 -2.902085321939e-04 0.0 
2.699580697498e-04 2.540776884197e-03 0.0 
3.364075882681e-04 3.529691256918e-03 0.0 
5.417888566658e-04 8.192493680835e-03 0.0 
1.915895531595e-04 -6.739253799669e-05 0.0 
1.372088934378e-04 -6.644921626148e-05 0.0 
1.828342939992e-04 2.517285214724e-03 0.0 
2.317632913388e-04 3.025857144644e-03 0.0 
2.953550913153e-04 -1.062536496429e-04 0.0 
4.584980615631e-05 -1.195762565909e-05 0.0 
7.225328479529e-04 3.695207693098e-03 0.0 
3.488591430497e-05 -3.876043546033e-05 0.0 
9.418043073497e-05 -8.484458035450e-06 0.0 
3.160499889115e-04 2.563953776311e-03 0.0 
5.708890631974e-04 5.115291786301e-03 0.0 
3.708282641052e-04 -6.485449757218e-05 0.0 
9.514616633697e-05 -2.426158149150e-04 0.0 
2.489859443518e-04 -3.004403022676e-04 0.0 
1.631154781277e-04 -3.072961399853e-04 0.0 
1.562252843330e-04 -3.107277612296e-04 0.0 
2.814694893561e-04 3.023918750725e-03 0.0 
4.911885504281e-05 -1.747677163731e-05 0.0 
1.610668656585e-04 -3.181146310147e-04 0.0 
1.717172441999e-03 1.720733879146e-03 0.0 
6.452317506600e-04 7.692004387226e-03 0.0 
1.182123425230e-04 -3.783530111480e-05 0.0 
6.334321622481e-05 -3.086610333105e-05 0.0 
3.506530463612e-04 -2.661077545217e-04 0.0 
5.105407999849e-05 -3.118550861230e-05 0.0 
6.099134985510e-04 8.208722182965e-03 0.0 
9.292834096991e-04 2.274276608597e-05 0.0 
7.088278544594e-05 -4.553382957293e-06 0.0 
5.171529310670e-05 -2.361830235958e-04 0.0 
1.224297753640e-04 -6.292913457326e-06 0.0 
4.465946693585e-04 4.565071149304e-03 0.0 
7.490296565228e-05 -2.315126484765e-04 0.0 
2.619933578391e-04 -2.847943329093e-04 0.0 
7.717175845634e-05 -1.167079272627e-04 0.0 
7.512973930504e-04 6.189792922083e-03 0.0 
1.866103059676e-04 -2.154758475739e-04 0.0 
3.341194024281e-04 4.010906487684e-03 0.0 
4.834923999600e-04 5.579009708594e-03 0.0 
1.651984894835e-04 -1.333109021386e-04 0.0 
6.044151084786e-05 -4.726925698589e-05 0.0 
7.657378099417e-05 -3.857755379800e-05 0.0 
3.833489875339e-04 4.530673734039e-03 0.0 
1.176814120318e-04 -2.625192422774e-04 0.0 
1.369246297038e-04 -1.420606935247e-04 0.0 
8.861610968905e-04 1.341201483474e-04 0.0 
5.187748183192e-04 4.106721375916e-03 0.0 
1.380115083528e-04 -1.642576626671e-04 0.0 
2.520373389813e-04 -9.203783511335e-05 0.0 
1.639232292798e-04 -9.978591694075e-06 0.0 
4.999655503225e-04 5.085634355310e-03 0.0 
1.617077143312e-04 -2.045096139970e-04 0.0 
1.382146572562e-04 -2.955469198054e-04 0.0 
3.460753709416e-04 -1.988156452276e-04 0.0 
7.296483263161e-05 -2.314192249491e-05 0.0 
6.244520732171e-04 5.637873539884e-03 0.0 
5.483791746094e-05 -9.625779638114e-05 0.0 
7.586419273233e-04 7.211841225485e-03 0.0 
3.293299733145e-04 -1.155908634012e-05 0.0 
1.333589788693e-04 -1.195665063716e-04 0.0 
9.025252179510e-05 -3.829088232464e-05 0.0 
8.068775722795e-05 -2.398863490393e-04 0.0 
1.037860846957e-04 -7.779998527826e-06 0.0 
1.452239558242e-04 -1.315902691678e-04 0.0 
5.982013761553e-05 -2.298447429503e-04 0.0 
1.178759357525e-04 -1.401598308257e-04 0.0 
1.618205143748e-04 -2.001063855839e-04 0.0 
1.804207946390e-04 -2.455246077651e-04 0.0 
7.230813205967e-05 -9.562223384337e-05 0.0 
1.306872773600e-04 -3.066096371810e-04 0.0 
1.421644583519e-04 -3.124624005001e-04 0.0 
1.200106994728e-04 -6.619923982776e-05 0.0 
1.000418606543e-04 -2.509349176999e-04 0.0 
1.728511629520e-04 -6.709649716075e-05 0.0 
2.110750543758e-04 -7.896616218615e-05 0.0 
2.556975688942e-04 -2.048906008903e-04 0.0 
3.269955315363e-04 -2.917042472242e-04 0.0 
6.293399107365e-04 3.187438033329e-03 0.0 
1.328538877445e-04 -4.971798166326e-05 0.0 
1.364697318655e-04 -1.855731792908e-04 0.0 
3.198208456974e-04 1.663525112868e-06 0.0 
9.176083590597e-05 -2.562659928870e-04 0.0 
7.192543482350e-04 6.686400387100e-03 0.0 
7.175809261122e-04 7.720835920905e-03 0.0 
1.687882765672e-04 -2.876056972786e-04 0.0 
2.130719349550e-04 -1.416151535909e-05 0.0 
8.934082354426e-04 4.717115335008e-03 0.0 
1.138981643781e-04 -2.543484876712e-04 0.0 
6.634397338171e-04 2.739297828030e-03 0.0 
5.963390699893e-04 2.716448649937e-03 0.0 
1.242236861958e-04 -2.492870241251e-04 0.0 
6.318326045831e-04 6.272135241276e-04 0.0 
1.684596448940e-04 -2.614913501535e-04 0.0 
1.054596007965e-04 -4.691009889802e-05 0.0 
1.023652414910e-04 -1.070258946454e-04 0.0 
1.507587360441e-03 2.060806612618e-03 0.0 
5.624867785040e-04 3.163457847171e-03 0.0 
1.375927860497e-04 -5.640930963180e-05 0.0 
1.545019395233e-04 -5.650680824072e-05 0.0 
1.694325814247e-04 -2.795189692168e-04 0.0 
1.206827304510e-04 -4.680538941833e-05 0.0 
8.101221086375e-04 4.699559129274e-03 0.0 
8.399159604402e-05 -1.064099242143e-04 0.0 
7.002329996308e-04 5.666615674909e-03 0.0 
7.328443726236e-04 4.185080352615e-03 0.0 
1.000734569299e-03 -6.569350668896e-05 0.0 
5.143536647795e-04 3.620670588392e-03 0.0 
1.091541013195e-04 -1.503619987223e-04 0.0 
1.142023025148e-04 -1.184123782830e-04 0.0 
1.323183646678e-04 -2.054828321538e-04 0.0 
2.862883625534e-04 -2.347044136972e-04 0.0 
7.194134929746e-04 5.171835979477e-03 0.0 
3.910703589874e-04 -1.662964450066e-04 0.0 
1.510190748098e-04 -2.475288489924e-04 0.0 
1.562124621479e-04 -2.974195840077e-04 0.0 
7.989398737393e-04 5.195535210092e-03 0.0 
1.666520123294e-04 -2.516679139211e-04 0.0 
1.311040811061e-04 -5.271154233043e-06 0.0 
5.827011030742e-04 4.624645967781e-03 0.0 
1.327359976417e-04 -3.758841248477e-05 0.0 
1.974401396051e-04 2.146599380167e-05 0.0 
1.188397621171e-04 -1.622997200903e-04 0.0 
1.388901335723e-04 -2.531108914228e-04 0.0 
1.567407261438e-04 -2.907270442421e-04 0.0 
1.897361113434e-04 -5.664505405674e-05 0.0 
5.314761834329e-04 6.103310155055e-03 0.0 
1.468751939606e-04 -2.993753883004e-04 0.0 
1.680130957217e-04 -2.118583597883e-04 0.0 
5.854008006842e-05 -2.433627643624e-04 0.0 
8.315240929400e-04 6.214470399183e-03 0.0 
1.435539123550e-04 -1.971073574434e-04 0.0 
2.317741473601e-04 -7.946551415508e-05 0.0 
1.143396410353e-04 -2.020133282847e-04 0.0 
3.926344014939e-04 3.561191342398e-03 0.0 
1.773667690235e-04 -2.346428714561e-04 0.0 
2.476488918302e-04 -5.619108481788e-05 0.0 
2.358085357337e-04 -2.979738348945e-04 0.0 
2.309244111740e-04 -6.783915545357e-05 0.0 
8.836168690699e-05 -1.274467977910e-04 0.0 
1.686113206558e-04 -4.649820437730e-05 0.0 
5.593112781095e-04 -2.331063043896e-04 0.0 
7.242971615292e-05 -2.453981842796e-04 0.0 
6.122886290496e-04 7.154475460102e-03 0.0 
6.049659286740e-04 -7.788276166234e-05 0.0 
1.471813918839e-03 7.241401816493e-04 0.0 
6.015123438151e-04 6.132516555353e-03 0.0 
2.708904636293e-04 -2.955387264345e-04 0.0 
1.125695574795e-03 5.749105458949e-03 0.0 
7.860710051360e-05 -2.534587253424e-04 0.0 
1.698451319062e-04 -1.830160607508e-05 0.0 
6.426278965777e-04 -5.256404333789e-05 0.0 
9.693636495830e-04 6.561815611331e-05 0.0 
4.859989076785e-04 2.201055755257e-03 0.0 
3.870527055356e-04 -1.371545096374e-04 0.0 
1.306565039684e-04 -2.664957407257e-04 0.0 
3.229603554844e-04 -9.366031619353e-05 0.0 
1.765175497454e-04 -8.463936572179e-06 0.0 
3.452566617206e-04 -2.758244855052e-04 0.0 
1.521155390432e-04 -4.665599939722e-05 0.0 
6.554446064377e-04 4.652448025932e-03 0.0 
3.289602761636e-04 -2.954975549876e-04 0.0 
2.754459417816e-04 -8.022344304642e-05 0.0 
1.082742672888e-03 7.279522445543e-03 0.0 
8.423632173660e-05 -2.248852706117e-04 0.0 
1.912922524922e-04 -2.272758473703e-04 0.0 
1.703943390602e-03 5.649448262207e-04 0.0 
2.083718763736e-04 -5.659231954469e-05 0.0 
1.354011029770e-03 1.101146667234e-03 0.0 
1.524750052174e-03 4.010654075899e-04 0.0 
9.675716976024e-04 5.230571101148e-03 0.0 
6.452502254134e-04 6.657866155396e-03 0.0 
1.135278132390e-03 6.767594026985e-03 0.0 
1.070185855185e-04 -1.285352783803e-04 0.0 
2.686434634539e-04 -1.944563996447e-05 0.0 
3.730237368482e-04 -1.079463292441e-04 0.0 
8.369586598050e-04 7.242782382751e-03 0.0 
1.513256234100e-03 1.274515516296e-03 0.0 
9.953417106220e-04 1.090635543165e-04 0.0 
2.518520768800e-04 -6.789363688227e-05 0.0 
6.576932511885e-04 4.161668479888e-03 0.0 
2.612572270261e-04 -2.181370465615e-04 0.0 
2.249768893463e-04 -2.231851092441e-04 0.0 
1.565300392185e-04 -2.750842665075e-04 0.0 
3.484635856641e-04 -7.983400747382e-05 0.0 
2.001291968768e-04 -2.069435286032e-04 0.0 
9.453317773432e-04 5.732472067946e-03 0.0 
1.090261154520e-03 6.258676058136e-03 0.0 
8.954854506188e-04 -1.111065337757e-04 0.0 
2.307738905648e-04 -2.470749121082e-04 0.0 
6.225539137443e-04 -1.505374899771e-04 0.0 
2.097704526185e-04 -2.313044063922e-04 0.0 
2.448923984842e-04 -2.271341949377e-04 0.0 
1.554762774933e-04 -2.663902472193e-04 0.0 
3.314764860789e-04 -2.559138958579e-05 0.0 
3.674591848116e-04 -2.065089997182e-04 0.0 
5.805285942853e-04 3.647815634214e-03 0.0 
4.137364793776e-04 -1.961113338344e-04 0.0 
3.488239598783e-04 -9.373793844382e-05 0.0 
3.763232238258e-04 -1.511699317460e-04 0.0 
1.302541377723e-03 1.572716123386e-04 0.0 
1.415397036912e-04 -2.621488534173e-04 0.0 
2.286513282206e-04 -1.227319839658e-05 0.0 
1.983256936664e-04 -4.522928640447e-06 0.0 
1.957691027982e-03 7.889365999586e-04 0.0 
2.827660665978e-04 -2.218195633996e-04 0.0 
3.675078358755e-04 -1.221963809502e-04 0.0 
8.599860802851e-04 5.714992382625e-03 0.0 
2.343734311350e-04 -2.013268712738e-04 0.0 
1.202134840967e-03 4.042176724717e-04 0.0 
1.601547359108e-04 -2.307203391695e-04 0.0 
3.106225822267e-04 -2.912619004013e-04 0.0 
3.001714992061e-04 -2.118332673135e-04 0.0 
1.475758240067e-04 -2.374630105499e-04 0.0 
1.050102617415e-04 -2.367947391984e-04 0.0 
3.491014726086e-04 -1.496655231609e-04 0.0 
2.987884538515e-04 -8.033200680693e-05 0.0 
1.593328065967e-03 6.703800477218e-04 0.0 
1.374016461459e-04 -3.110187640620e-04 0.0 
5.414410340308e-04 -2.098688719017e-04 0.0 
4.496376764027e-04 -2.114781554827e-04 0.0 
3.236457076540e-04 -2.150205533188e-04 0.0 
1.000274714585e-03 6.250404148150e-03 0.0 
3.759514609375e-04 -1.795963340489e-04 0.0 
1.554830091336e-04 -2.197358272980e-04 0.0 
3.418900921217e-04 -2.039561737624e-04 0.0 
4.535918974785e-04 4.076803988430e-03 0.0 
1.380548800993e-04 -2.163593278040e-04 0.0 
1.365141592609e-04 -2.893010389589e-04 0.0 
1.448479681783e-04 -2.788809180155e-04 0.0 
3.192379805879e-04 -2.833001790535e-04 0.0 
2.677657788527e-04 -2.432812486478e-04 0.0 
5.033993983299e-04 -1.978454547996e-04 0.0 
3.860715495063e-04 -1.943203430649e-04 0.0 
2.397718601547e-04 -3.065923596363e-04 0.0 
1.329110067304e-04 -2.745337860357e-04 0.0 
1.532559385172e-03 6.691216082831e-03 0.0 
1.314546744498e-04 -2.338104072923e-04 0.0 
3.495070841939e-04 -3.783348023491e-05 0.0 
1.633735778820e-03 6.075092349461e-04 0.0 
2.598301052378e-03 4.298374783219e-03 0.0 
1.016704604093e-03 3.250469669462e-03 0.0 
1.499630656744e-03 7.009399814066e-04 0.0 
9.482545406497e-04 -9.250006715403e-05 0.0 
1.833907271370e-03 7.064972371588e-04 0.0 
2.745860108188e-04 -3.030884935902e-04 0.0 
3.090807088110e-04 -1.868567075623e-04 0.0 
1.076151979749e-03 3.117447702797e-05 0.0 
3.716644782276e-04 -2.798409609552e-04 0.0 
2.390335394591e-04 -3.113757705681e-04 0.0 
2.200175801291e-04 -2.106242312514e-04 0.0 
4.212282050187e-04 -2.103710531536e-04 0.0 
4.722622197144e-04 -1.979712310360e-04 0.0 
1.266054573197e-04 -2.236912364178e-04 0.0 
4.198347210572e-04 -1.675866325455e-04 0.0 
5.095917446785e-04 -2.113538035362e-04 0.0 
6.045969768279e-04 -1.915013095301e-04 0.0 
2.478786543552e-04 -2.393935467265e-04 0.0 
7.749883029063e-04 -2.377037791947e-05 0.0 
1.057949055120e-03 5.238932582164e-03 0.0 
6.446253875333e-04 -1.975995513306e-04 0.0 
2.880473470097e-04 -1.717543939134e-05 0.0 
3.144587356994e-04 -2.973609008343e-04 0.0 
2.609731208592e-04 5.748616608455e-06 0.0 
4.624970218313e-04 -1.834303072298e-04 0.0 
1.326427740257e-03 6.793673366361e-04 0.0 
2.436733928500e-03 1.814242834249e-03 0.0 
2.854005379339e-04 -2.971709919057e-04 0.0 
2.622545776689e-03 3.526904062551e-03 0.0 
1.303612767724e-03 2.702844103383e-03 0.0 
5.135654032464e-04 -1.682422747435e-04 0.0 
8.589092472044e-04 1.444185592453e-04 0.0 
2.579524824887e-03 2.840060831305e-03 0.0 
1.662607575604e-03 7.112207030016e-04 0.0 
2.508618523170e-04 -3.076082854878e-04 0.0 
5.319960197603e-04 1.352869812732e-03 0.0 
2.201035115151e-04 -3.101409254323e-04 0.0 
5.480897881484e-04 6.102287675522e-05 0.0 
4.178897460951e-04 2.639775402354e-03 0.0 
6.744807929266e-04 -2.525683131724e-05 0.0 
8.777977806063e-04 6.742019021467e-03 0.0 
1.052352251239e-03 3.739595655358e-03 0.0 
5.693448312805e-04 -1.947885475031e-04 0.0 
9.192319207400e-04 -8.094839751910e-05 0.0 
8.106382471944e-04 2.298276069521e-03 0.0 
2.686509019116e-04 -5.571292407316e-05 0.0 
1.164806596675e-03 4.733190930630e-03 0.0 
5.653672713050e-04 -6.462013261332e-05 0.0 
2.872712592746e-04 -3.028360556959e-04 0.0 
1.259690091365e-03 4.217491065972e-03 0.0 
6.953334739710e-04 2.390221841563e-04 0.0 
2.115369014846e-04 -2.290322727951e-06 0.0 
3.338253604174e-04 -1.896441578371e-04 0.0 
9.612027051935e-04 6.760473085113e-03 0.0 
9.986536856259e-04 7.280673413657e-03 0.0 
4.323807528784e-04 -1.826775123573e-04 0.0 
3.200081264499e-04 -6.694841831466e-05 0.0 
3.373543476728e-04 -5.268365225309e-05 0.0 
1.457029599611e-04 -2.864369676883e-04 0.0 
5.142465401875e-04 -1.460759068976e-04 0.0 
7.196365053300e-04 -1.722632880327e-04 0.0 
6.087150925732e-04 -2.031936316844e-04 0.0 
1.423374736223e-03 3.510564740000e-04 0.0 
6.530465100722e-04 1.832175704876e-03 0.0 
1.676540017352e-03 1.816558321534e-03 0.0 
4.738770309049e-04 2.667930616877e-03 0.0 
1.620123870581e-03 1.445829028934e-03 0.0 
1.532794050815e-03 3.614549437172e-03 0.0 
2.961965990313e-04 -6.752403989807e-05 0.0 
6.072910334742e-04 2.265167495121e-03 0.0 
1.468107938986e-03 4.665708748254e-03 0.0 
3.492743645384e-04 -1.774729747768e-04 0.0 
7.611458769744e-04 -1.690798026931e-04 0.0 
1.162490608672e-03 4.231015755764e-03 0.0 
8.813825713428e-04 2.766520850594e-03 0.0 
8.933842466491e-04 4.221751631461e-03 0.0 
1.070202607973e-03 4.735678053885e-03 0.0 
2.327451686049e-04 -2.306614288678e-05 0.0 
6.847588394505e-04 8.206658017996e-05 0.0 
2.881075448684e-04 -2.995956391870e-05 0.0 
3.201914670330e-04 -1.070641194999e-04 0.0 
1.929879694676e-03 3.814178976007e-03 0.0 
6.986896804140e-04 3.295756234077e-06 0.0 
2.001080720587e-03 4.253747182417e-03 0.0 
1.202314778765e-04 -2.400523784371e-04 0.0 
6.795317803465e-04 -1.804336911634e-04 0.0 
6.827746377842e-04 -1.376755728164e-04 0.0 
9.146909078854e-04 -4.897687500483e-05 0.0 
4.106340831398e-04 -2.442926799046e-04 0.0 
7.206938739908e-04 -1.807770657532e-04 0.0 
8.791490162358e-04 -1.777367856239e-05 0.0 
2.275907942732e-03 2.740712757961e-03 0.0 
3.371715113711e-04 -1.626686771494e-04 0.0 
1.532141609731e-03 5.661907387010e-03 0.0 
8.488734804471e-04 8.902584268176e-03 0.0 
-1.127451861876e-05 2.368191242514e-04 0.0 
3.405391704542e-04 -1.213917934563e-04 0.0 
6.168066361500e-04 -1.604270085496e-05 0.0 
1.407751297302e-03 1.621667592664e-03 0.0 
8.851533263903e-04 -1.049886605826e-04 0.0 
3.328622888972e-04 -1.348455135585e-04 0.0 
1.222105322221e-03 5.744838046088e-03 0.0 
-1.183283274075e-05 4.643729463245e-04 0.0 
7.178972261313e-04 -1.514952125002e-05 0.0 
8.423367289852e-04 -8.786724833097e-05 0.0 
2.418145952142e-03 2.845417378675e-03 0.0 
3.133041118864e-04 -5.401918276078e-05 0.0 
3.579082518575e-04 -2.870295437336e-04 0.0 
3.255420265391e-04 -3.993145399469e-05 0.0 
2.790950571549e-04 -5.036562234144e-06 0.0 
8.240806053818e-04 -1.057974685503e-05 0.0 
9.798012616619e-04 4.231952869320e-03 0.0 
1.368049803428e-03 3.344726590245e-04 0.0 
2.612664195946e-04 -7.770391910954e-06 0.0 
-1.088507096974e-06 8.014466059640e-04 0.0 
1.350552356456e-03 5.212907087076e-03 0.0 
8.072933591295e-04 1.377284314443e-04 0.0 
9.642668929318e-04 3.738045645659e-03 0.0 
8.744171478334e-04 -4.098007499802e-05 0.0 
8.048150936023e-04 -1.492963953255e-04 0.0 
1.935776131218e-04 -1.242926558327e-04 0.0 
2.254639553437e-04 -1.920261292255e-04 0.0 
7.736943217847e-04 3.229402284534e-03 0.0 
9.988520871678e-05 -2.274378954579e-04 0.0 
4.700073126383e-05 1.290836293796e-03 0.0 
1.562030161050e-03 4.516093771404e-04 0.0 
4.303900008265e-04 2.176517908354e-03 0.0 
3.124333726893e-04 -2.980593442311e-04 0.0 
1.881463736476e-03 7.526773655912e-04 0.0 
1.363595644577e-03 4.700395281865e-03 0.0 
2.740466866880e-04 -1.437414419148e-04 0.0 
3.979552533223e-04 -2.585529710576e-04 0.0 
7.569336027197e-04 1.160366586144e-04 0.0 
2.487877555807e-04 -3.101950929893e-04 0.0 
3.248003841011e-04 -2.932360308729e-04 0.0 
2.839618898451e-04 -3.032618043966e-04 0.0 
8.941162492559e-04 -7.329319914121e-05 0.0 
2.867928204345e-04 4.269919907629e-04 0.0 
1.996340891690e-04 2.070436878870e-03 0.0 
1.835605826985e-04 -1.717324659701e-05 0.0 
8.178182778390e-04 -1.352434424129e-04 0.0 
1.671826171301e-03 5.071818636799e-03 0.0 
3.027149788407e-04 -2.053816968407e-04 0.0 
2.425151615361e-04 2.641680295024e-06 0.0 
2.733013168945e-04 -3.061751700147e-04 0.0 
1.037279068688e-04 -2.097749513391e-04 0.0 
8.618101528823e-04 2.586631802318e-05 0.0 
5.262704243178e-04 -1.828970854214e-04 0.0 
8.377547179725e-04 1.115091283307e-04 0.0 
9.864245616747e-04 4.145986596253e-04 0.0 
1.874238898781e-03 3.869937559045e-03 0.0 
5.734642429001e-04 7.214609803948e-05 0.0 
1.248962791247e-03 5.232178046049e-03 0.0 
1.455046754138e-03 1.554669835283e-03 0.0 
1.334810558171e-03 3.696448697038e-03 0.0 
1.381537550163e-03 3.175641300029e-03 0.0 
3.563676277659e-04 -6.980371375476e-05 0.0 
1.843106176283e-04 -2.661797257455e-05 0.0 
1.461442236425e-03 4.158822932876e-03 0.0 
1.115619457892e-03 -4.902885329272e-06 0.0 
7.252359555862e-04 3.336992814027e-03 0.0 
4.857196382014e-04 7.148211632421e-05 0.0 
4.448642877683e-04 -1.833965354607e-04 0.0 
1.102572077216e-04 -2.205763638221e-04 0.0 
8.967716008390e-04 1.004424075502e-04 0.0 
1.416186653469e-05 -2.442579895721e-04 0.0 
1.456126222348e-03 2.698377562593e-04 0.0 
7.429609173479e-04 1.528036498925e-05 0.0 
1.123888255759e-03 2.287641930812e-03 0.0 
1.070047909528e-03 1.812711434107e-03 0.0 
8.112607655406e-04 1.002571856960e-05 0.0 
1.104723577681e-03 3.244829000420e-03 0.0 
9.257406366228e-04 -8.622566304627e-05 0.0 
1.778330536472e-03 7.072521164198e-04 0.0 
1.174852056343e-03 5.756479894998e-03 0.0 
1.587852538167e-03 1.153282889737e-03 0.0 
1.531056267946e-03 7.595595986357e-03 0.0 
1.700884429921e-03 7.971555804827e-03 0.0 
9.469023376061e-04 -9.095683311652e-05 0.0 
1.801587102912e-03 8.112111836005e-03 0.0 
1.403050235221e-03 1.861216215791e-04 0.0 
1.157468881570e-03 6.315161643272e-05 0.0 
7.552584755845e-04 -1.529355984022e-04 0.0 
3.573847505971e-04 -2.654463224054e-04 0.0 
8.506470406218e-04 -1.337250752126e-04 0.0 
8.045209300875e-04 2.760525116954e-03 0.0 
1.492371111310e-03 1.362053649924e-03 0.0 
2.215271281384e-04 -4.552184502954e-05 0.0 
7.233875693256e-04 9.872899429348e-05 0.0 
5.603665679162e-04 -1.813251097593e-04 0.0 
1.287455566471e-03 3.208882806706e-03 0.0 
7.999850608733e-04 -1.416659687551e-04 0.0 
1.438738311871e-04 -2.007551904842e-05 0.0 
1.237570707520e-03 3.720430296524e-03 0.0 
1.632121352160e-03 3.552764147337e-03 0.0 
7.784236071658e-04 -4.498779595632e-05 0.0 
8.933205797141e-04 -1.161316399335e-04 0.0 
1.538413197458e-03 5.914752470313e-04 0.0 
2.504750976428e-03 2.066265300120e-03 0.0 
3.471679734897e-04 -2.770989124270e-04 0.0 
4.341236486614e-04 -2.069998079818e-04 0.0 
1.072434045329e-03 3.557363921956e-04 0.0 
1.976434591317e-03 9.052272904743e-04 0.0 
1.083379032001e-04 -1.455833634693e-05 0.0 
1.565343745377e-03 4.110165179687e-03 0.0 
8.471299666736e-04 -1.372069473328e-04 0.0 
2.035293239152e-03 8.932250618633e-04 0.0 
6.305235894384e-04 9.523913678406e-06 0.0 
8.517576045303e-04 3.242923926124e-03 0.0 
1.464057918977e-03 6.315005801369e-04 0.0 
1.751748461330e-03 5.523311597170e-03 0.0 
4.320256912914e-04 -1.061583855773e-05 0.0 
8.354848836644e-04 -1.199767754491e-04 0.0 
5.920569783791e-04 2.927666565971e-07 0.0 
1.535436158124e-03 3.547048742789e-04 0.0 
8.872796870590e-04 2.311456192898e-03 0.0 
1.303184341366e-03 6.174904331214e-04 0.0 
8.112782810202e-04 -7.757441052407e-05 0.0 
3.857004484117e-04 -2.148003820362e-04 0.0 
1.236769399602e-03 2.899151381037e-04 0.0 
1.512365787779e-03 2.780409979910e-04 0.0 
8.799408925947e-04 -1.142648362788e-04 0.0 
8.227840412388e-04 -5.500356132751e-05 0.0 
4.007404024922e-04 -3.232100415729e-05 0.0 
3.771258222904e-04 -2.346736642772e-04 0.0 
8.177839577433e-04 -1.105105615753e-04 0.0 
2.575386419553e-03 3.109970626989e-03 0.0 
9.796550127961e-05 -1.519627069334e-05 0.0 
2.499370015629e-03 2.483550079528e-03 0.0 
1.434528227075e-03 3.921313845305e-04 0.0 
2.590092983704e-03 3.819911375784e-03 0.0 
2.411932362699e-03 5.415035270188e-03 0.0 
2.365366776639e-03 1.598832821835e-03 0.0 
7.495038875310e-04 7.378671740659e-05 0.0 
2.122278605446e-04 -3.523333981716e-05 0.0 
1.681908003178e-03 4.553716281782e-03 0.0 
9.980908652471e-04 1.839951344179e-03 0.0 
2.535925376855e-03 4.597334318978e-03 0.0 
6.945024745077e-04 -1.705820990710e-04 0.0 
1.151013824608e-03 2.876421510434e-04 0.0 
6.703089469989e-04 2.272873142455e-03 0.0 
1.309482999989e-03 1.342456813092e-04 0.0 
1.451709399421e-03 2.376137654843e-04 0.0 
7.786295434392e-04 -1.574058593368e-04 0.0 
1.772763333613e-03 3.968047664364e-03 0.0 
1.460715234337e-03 9.901549190634e-04 0.0 
1.361974231321e-03 1.669312650253e-04 0.0 
1.390162457959e-03 8.103787517762e-04 0.0 
8.875325644244e-04 6.340963678135e-05 0.0 
8.736913100995e-04 2.272234871386e-04 0.0 
7.544094024746e-04 -1.738040958494e-04 0.0 
2.278350657049e-04 -2.171824156827e-04 0.0 
1.204744183099e-03 1.736712791128e-03 0.0 
1.715560936271e-03 1.303679170529e-03 0.0 
6.202722579407e-04 -1.614141712119e-04 0.0 
9.944251267394e-04 2.415055367386e-04 0.0 
1.790000290069e-03 4.473384056294e-03 0.0 
2.603312066132e-04 -4.411729019115e-05 0.0 
1.023440951662e-03 -1.440056348144e-05 0.0 
1.954081544410e-04 -2.225934304579e-04 0.0 
6.842206150850e-05 -1.018384838330e-05 0.0 
1.859608145002e-03 6.711585914955e-04 0.0 
1.107457952253e-03 9.569947629428e-05 0.0 
1.359914580108e-03 4.939348200160e-04 0.0 
1.364961795680e-04 -2.091353365517e-04 0.0 
2.811728891693e-04 -4.299917046219e-05 0.0 
6.291353302544e-04 -1.826063593489e-05 0.0 
1.865434478013e-03 5.423261818173e-03 0.0 
2.664121423798e-04 -1.176230020687e-04 0.0 
7.945615451543e-04 -1.575025606020e-04 0.0 
1.312379572092e-04 -2.084608480984e-05 0.0 
1.481037452461e-03 2.474020855304e-04 0.0 
7.211778624432e-04 -1.749120221621e-04 0.0 
1.912100461091e-03 7.173397155474e-04 0.0 
1.982772011665e-04 -2.449264663772e-04 0.0 
1.756355807814e-03 6.066725045101e-04 0.0 
8.367334862659e-04 4.478755625011e-05 0.0 
1.134678889643e-03 5.930441844300e-04 0.0 
1.568307992921e-03 5.284462727659e-04 0.0 
5.232636275342e-04 -2.090207688641e-04 0.0 
2.031777783878e-04 -4.597756118505e-05 0.0 
5.895788511320e-04 1.812768511450e-03 0.0 
4.037393056633e-04 7.282234886087e-05 0.0 
8.471495002726e-04 7.938241073955e-05 0.0 
9.916003523920e-04 -6.128590623591e-05 0.0 
1.870831345470e-03 6.692686649659e-04 0.0 
7.836805915570e-05 -1.620830279390e-05 0.0 
5.927947111591e-05 -1.164348786858e-04 0.0 
1.635351287016e-03 5.283644215909e-04 0.0 
1.561927616061e-03 5.135153350084e-03 0.0 
1.692933585158e-04 -2.743728486643e-05 0.0 
2.677886432850e-04 -3.169174987850e-05 0.0 
3.526808306358e-04 9.407542437849e-03 0.0 
2.373152140627e-04 9.409688151106e-03 0.0 
2.488393051499e-03 2.960624810030e-03 0.0 
1.781630021652e-03 5.896835679136e-04 0.0 
2.267395112078e-04 -1.030102239309e-04 0.0 
2.343415837342e-03 1.595357520036e-03 0.0 
1.358420089376e-03 1.508508484822e-04 0.0 
4.195147906628e-04 2.104592893815e-05 0.0 
1.044452957619e-03 -2.612359483905e-05 0.0 
2.591799781317e-04 4.511918439914e-04 0.0 
2.325132777599e-03 6.304144471781e-03 0.0 
1.375750918259e-03 1.717040799267e-04 0.0 
2.902034105690e-04 -1.190411794205e-04 0.0 
5.003757382273e-04 -1.740157136868e-04 0.0 
3.117208754475e-04 -1.604487751023e-04 0.0 
1.856063084909e-03 6.368179550215e-04 0.0 
2.141668548796e-03 1.134414294925e-03 0.0 
1.893604474874e-03 4.891436632316e-03 0.0 
2.235507513323e-03 1.391259793662e-03 0.0 
2.167222162077e-03 1.360401200263e-03 0.0 
4.466553237680e-05 -2.605953811046e-04 0.0 
2.990790770083e-04 -1.724656224550e-04 0.0 
1.627319045551e-03 1.078332504047e-03 0.0 
2.535582701495e-03 2.307199811649e-03 0.0 
2.480626850569e-03 2.246854469823e-03 0.0 
6.179532346468e-04 5.553318372297e-05 0.0 
7.002463215931e-06 -2.376966694530e-04 0.0 
3.279514329723e-04 -2.575986257999e-04 0.0 
1.700096963029e-03 5.033457521227e-04 0.0 
2.752506490321e-04 -1.697074666200e-04 0.0 
1.800547281766e-03 7.431913795753e-03 0.0 
1.904208157745e-03 7.710107381147e-03 0.0 
2.003209340224e-03 4.769909863758e-03 0.0 
3.000753890630e-04 -3.670653985661e-05 0.0 
2.594668707110e-04 -1.297231570077e-04 0.0 
5.790663063898e-04 -2.371309757955e-05 0.0 
3.350136748481e-04 -2.410862588246e-04 0.0 
5.490836952371e-04 1.781321660574e-04 0.0 
1.131535122935e-03 2.762095710701e-03 0.0 
2.067101823259e-04 -1.372785493152e-04 0.0 
1.788612516814e-04 -3.650836826455e-05 0.0 
8.379811106048e-05 -2.749870882065e-04 0.0 
5.576370342786e-04 -4.700370120889e-05 0.0 
1.768339357627e-03 5.518242106454e-04 0.0 
6.384754308052e-05 -2.699983270649e-04 0.0 
1.046042984795e-03 2.774060304929e-03 0.0 
3.002279088685e-04 -2.277790281968e-04 0.0 
2.490950957633e-03 2.056587438118e-03 0.0 
2.046949471575e-03 9.604476882277e-04 0.0 
6.329714929385e-04 -1.746275827668e-04 0.0 
4.951215032125e-04 -1.054674620667e-04 0.0 
1.045892594661e-03 2.313652031453e-03 0.0 
4.636349133247e-04 -7.461149253862e-05 0.0 
1.594890067755e-03 3.571994423304e-04 0.0 
1.613543615173e-03 4.016393278433e-04 0.0 
-1.197202977627e-05 1.518998763889e-04 0.0 
2.627649492390e-04 -2.333564692137e-04 0.0 
1.359077073833e-03 3.923028851122e-04 0.0 
2.367177792116e-03 5.114535979346e-03 0.0 
1.206843075191e-03 3.323711725458e-04 0.0 
6.453615924719e-04 3.276101071846e-05 0.0 
2.024916240127e-03 2.461704035502e-03 0.0 
1.306464882261e-03 4.333852640619e-04 0.0 
2.146655002500e-03 7.023788052302e-03 0.0 
1.419535713713e-03 4.518627288971e-04 0.0 
1.629305589797e-04 -3.697627694476e-05 0.0 
1.699859325794e-03 4.702396389705e-04 0.0 
2.981514525174e-04 -1.459054769350e-04 0.0 
3.073629047297e-04 -1.333053693797e-04 0.0 
1.271441346893e-03 1.694078212112e-03 0.0 
5.113338739598e-04 -1.371459072624e-04 0.0 
2.004470932823e-03 8.540788873965e-04 0.0 
1.154137243646e-03 2.027586290651e-05 0.0 
4.166176161704e-04 -4.634280441938e-05 0.0 
1.241296722089e-03 8.030840904275e-05 0.0 
5.559970616148e-04 -2.162632711768e-04 0.0 
7.469255860000e-04 -1.097790101664e-04 0.0 
6.351062955113e-04 -1.851398486270e-04 0.0 
2.400982970409e-03 1.801089670448e-03 0.0 
6.092558980136e-04 -2.041668558217e-04 0.0 
2.289943478130e-03 1.396209941168e-03 0.0 
7.080727374790e-04 5.837654223386e-05 0.0 
7.549192720621e-04 4.535015503557e-05 0.0 
1.172880837496e-03 4.680379981675e-05 0.0 
2.090212255885e-03 5.154114533394e-03 0.0 
1.407267918361e-04 -2.867575930805e-05 0.0 
1.270280121107e-04 -2.913009982814e-05 0.0 
1.982581373061e-04 -1.012069932076e-05 0.0 
2.203336827700e-03 1.227566660436e-03 0.0 
7.637985245932e-05 -9.601426504494e-06 0.0 
9.736557771197e-04 1.797402173685e-03 0.0 
2.002160366589e-04 -1.131710906523e-04 0.0 
4.975487800953e-06 1.769573181970e-04 0.0 
1.071667755633e-04 -2.193835967634e-05 0.0 
5.414580190127e-04 -1.878999679642e-04 0.0 
4.862909410485e-05 -1.067724381753e-04 0.0 
1.172320971492e-03 1.274467096705e-04 0.0 
2.197226891421e-03 4.986829638066e-03 0.0 
2.266166466258e-03 5.332656642467e-03 0.0 
1.732350567031e-03 4.913800472078e-04 0.0 
1.419906341978e-03 5.965513788285e-03 0.0 
1.638546043364e-03 6.855975808793e-03 0.0 
9.552712439018e-05 -2.236796989809e-05 0.0 
4.976843300147e-04 -8.881670643906e-05 0.0 
6.417415656356e-04 -1.432866363691e-04 0.0 
5.947219755379e-04 -4.099871360851e-05 0.0 
7.434875877519e-04 -1.422815264253e-04 0.0 
6.000418505910e-04 -1.761154630821e-04 0.0 
1.321062339100e-03 6.881005051337e-03 0.0 
2.325294381389e-03 6.015825012472e-03 0.0 
2.970628120908e-04 9.699641488137e-03 0.0 
7.116960904857e-04 3.168356322829e-05 0.0 
1.112575941632e-03 3.103629054395e-06 0.0 
5.154133753516e-04 8.274149517350e-05 0.0 
3.983607535851e-05 -2.410585836728e-05 0.0 
7.705132471196e-04 -1.215456829045e-04 0.0 
6.345460909081e-05 -5.032417079929e-06 0.0 
6.069900072760e-04 -2.206355304604e-04 0.0 
6.772861208113e-04 1.164563081364e-04 0.0 
1.645454625015e-03 3.984617031722e-04 0.0 
1.538702211311e-03 3.439359562056e-04 0.0 
4.021423987875e-04 8.680254558941e-07 0.0 
3.279466624624e-04 -2.284371172386e-04 0.0 
2.123588421500e-03 1.044635193071e-03 0.0 
7.003298386478e-04 -1.503295696462e-04 0.0 
2.187485192392e-03 1.179455625302e-03 0.0 
7.334282128965e-04 5.406559624877e-05 0.0 
1.377927992707e-03 2.516605533659e-04 0.0 
6.719960014970e-04 -1.691540447538e-04 0.0 
2.488196944106e-04 -1.041320248285e-04 0.0 
2.275686707966e-03 1.370826001346e-03 0.0 
4.158403788490e-05 2.610168759060e-05 0.0 
1.154829338901e-03 4.663935786191e-05 0.0 
7.071413499980e-05 1.666967207876e-04 0.0 
1.229149379478e-04 -2.780491990755e-04 0.0 
2.215863623580e-04 -1.146595771154e-04 0.0 
1.756986283380e-03 7.891073842911e-04 0.0 
2.391142719099e-03 4.594151212481e-03 0.0 
1.020854109644e-03 3.591983109245e-03 0.0 
1.337933658990e-04 2.158284900566e-04 0.0 
-1.652658840174e-05 8.213024163100e-05 0.0 
1.267436768282e-03 4.733117326741e-03 0.0 
6.197438743268e-04 -1.293765920101e-04 0.0 
1.728860153327e-04 -1.225643598760e-04 0.0 
2.147390479998e-03 3.980286552449e-03 0.0 
5.356702138308e-04 -2.405428890435e-04 0.0 
5.220187386992e-04 -1.205658472373e-04 0.0 
1.767581978224e-03 5.301926675319e-04 0.0 
1.113747328794e-03 7.103784387201e-05 0.0 
1.794183765761e-03 1.224181731857e-03 0.0 
2.507875237524e-04 -4.561225668246e-05 0.0 
2.284835173968e-04 -1.393789399714e-04 0.0 
1.595712340051e-04 -1.102677015481e-04 0.0 
2.311591778543e-04 -2.582200236082e-04 0.0 
2.151792702481e-03 7.124886088456e-03 0.0 
2.471901373055e-03 4.361055481635e-03 0.0 
1.473414813956e-05 -4.597863477188e-05 0.0 
7.357663925761e-05 -2.750770053906e-04 0.0 
1.030520637847e-04 -1.897903467930e-04 0.0 
1.955342258871e-04 -2.878919327309e-04 0.0 
1.400187312009e-04 -1.089904810145e-04 0.0 
6.702876174843e-04 -2.035776957965e-04 0.0 
5.252876823137e-04 -2.473123256458e-04 0.0 
5.344396467066e-04 -2.315771537758e-04 0.0 
1.849958656525e-04 -1.007051204673e-04 0.0 
2.457438388233e-03 3.184933090453e-03 0.0 
1.268769970933e-04 -9.743799117610e-05 0.0 
7.052025360214e-04 -1.911082528100e-04 0.0 
2.125183286645e-03 1.067362288383e-03 0.0 
1.382746508127e-03 7.772358520437e-03 0.0 
1.052141479571e-03 1.367577735098e-04 0.0 
1.083801837378e-04 -9.662753289554e-05 0.0 
1.650426607879e-04 -9.953002731974e-05 0.0 
3.841622991170e-04 2.216796494862e-03 0.0 
6.430787194798e-04 -2.066228843427e-04 0.0 
9.533116073824e-05 -8.579314996129e-05 0.0 
5.755554081363e-05 5.882691007591e-03 0.0 
6.190304042165e-05 6.863616558605e-03 0.0 
6.402560183908e-04 2.818041433876e-03 0.0 
1.501984220328e-04 -8.787518980840e-05 0.0 
4.481108346205e-04 -2.578161706998e-04 0.0 
1.469782626966e-04 2.139225053332e-04 0.0 
6.417867099254e-04 1.000678910023e-04 0.0 
2.168280410748e-04 -3.020680078976e-04 0.0 
4.535957683250e-04 -2.480080694926e-04 0.0 
1.191924490382e-03 5.054961308737e-05 0.0 
1.047327787784e-03 4.376915948139e-03 0.0 
7.763275450705e-05 -8.540382134016e-05 0.0 
1.471881121296e-05 -2.164720877037e-04 0.0 
2.202953855290e-03 6.863607313043e-03 0.0 
1.315852611424e-04 -8.706037419831e-05 0.0 
5.829194784658e-04 -1.648244602315e-04 0.0 
2.367212738920e-04 -1.278815329520e-04 0.0 
7.486062187606e-05 -4.260478916019e-05 0.0 
7.755899269610e-05 3.006028252733e-03 0.0 
5.434927425627e-04 -2.215923130656e-04 0.0 
5.183970341218e-04 2.682098034976e-05 0.0 
1.461917384108e-03 2.812013314662e-04 0.0 
1.174188734162e-04 -7.623893001553e-05 0.0 
9.966158636750e-05 -7.578216405907e-05 0.0 
6.246008741721e-04 -2.184078893433e-04 0.0 
1.940743090451e-04 -3.162932776630e-04 0.0 
7.078602309228e-05 -3.256796703127e-06 0.0 
8.606463361331e-05 -6.569825138640e-05 0.0 
4.304609083317e-04 6.162594101285e-06 0.0 
3.763315208133e-04 -2.571985772080e-04 0.0 
2.025238244035e-03 9.361917927717e-04 0.0 
7.257872202651e-04 1.396524695057e-03 0.0 
2.170851802190e-03 1.226091814729e-03 0.0 
1.328391737694e-04 4.496178980317e-06 0.0 
3.595989858524e-05 -1.649474354255e-04 0.0 
1.190868049936e-05 2.602465395141e-04 0.0 
2.834840243647e-06 -2.542626164976e-07 0.0 
3.732601572948e-05 8.418305434101e-03 0.0 
4.540864748324e-04 -2.246701325519e-04 0.0 
1.616378739168e-03 3.877541516904e-04 0.0 
6.879029977051e-04 -1.923128803880e-04 0.0 
1.256630986956e-04 -2.852604023259e-04 0.0 
1.767911401200e-07 1.020226372402e-04 0.0 
3.373785111330e-04 2.148436227454e-03 0.0 
2.511978963302e-03 3.627286220644e-03 0.0 
1.950658232395e-03 7.763376664142e-03 0.0 
2.527069641652e-04 7.431957523323e-05 0.0 
1.410024479043e-05 -2.310440141860e-04 0.0 
2.206318706586e-04 5.842549552074e-05 0.0 
2.456163028175e-03 3.869470790737e-03 0.0 
3.732938723262e-04 -2.203017284349e-04 0.0 
1.597205449582e-03 3.547888362163e-04 0.0 
4.285042376860e-04 -2.365152451546e-04 0.0 
1.809092560801e-04 3.174046099898e-04 0.0 
3.779270931706e-04 -2.458232104655e-04 0.0 
2.397780136747e-03 2.571986289104e-03 0.0 
3.938529171585e-05 -1.769934078083e-05 0.0 
5.119972781240e-04 -2.348255484406e-04 0.0 
2.048900000835e-03 1.065901792934e-03 0.0 
6.216039513016e-05 -1.938760009476e-04 0.0 
6.038521440369e-04 -2.215860655385e-04 0.0 
2.138161353190e-03 2.879161762077e-03 0.0 
3.079947499701e-04 -2.381346815309e-04 0.0 
3.295203528974e-04 -2.640960084488e-04 0.0 
1.515312557004e-03 2.828876629139e-04 0.0 
2.749375795043e-04 -2.976306054464e-04 0.0 
1.295705629733e-04 1.402627932556e-03 0.0 
2.210195809221e-04 1.777082485654e-03 0.0 
2.884486215577e-04 -2.583936570378e-04 0.0 
5.816339718216e-04 -1.331317083982e-04 0.0 
1.235806882118e-03 6.711294983353e-05 0.0 
1.981439983737e-03 9.362061430301e-04 0.0 
1.288910043959e-03 9.864935689511e-04 0.0 
3.732710080712e-04 2.607371670802e-03 0.0 
1.097403456273e-04 4.865102310375e-03 0.0 
1.093082878284e-03 4.839364323780e-04 0.0 
6.353772122719e-04 -2.070099644916e-04 0.0 
5.296567065436e-05 2.300754999265e-04 0.0 
9.311498308711e-04 1.503963913104e-03 0.0 
5.310209520345e-04 -1.522978806267e-04 0.0 
2.214479288624e-03 1.521338623219e-03 0.0 
5.662788836555e-04 -1.504520417769e-04 0.0 
1.696736847200e-04 -5.755402368951e-05 0.0 
5.641562583863e-04 -1.006556464068e-04 0.0 
2.262502550043e-04 4.444770894525e-04 0.0 
1.170434513784e-03 2.560182622387e-05 0.0 
5.570609049400e-04 -1.183974872230e-04 0.0 
1.457701019387e-03 2.531183536487e-04 0.0 
4.032468301548e-04 6.072586606835e-03 0.0 
2.685752316957e-04 -2.548785221585e-04 0.0 
1.211461138739e-04 1.291318746171e-04 0.0 
5.316769189476e-04 -8.617325079347e-05 0.0 
2.877652740818e-04 6.061409779049e-04 0.0 
9.492100403350e-05 -1.655412444103e-04 0.0 
2.942962842181e-05 1.962317713231e-03 0.0 
3.895618694385e-05 2.934150126240e-03 0.0 
1.644400809028e-04 -3.200232714196e-04 0.0 
5.295586419131e-04 -6.886332891075e-05 0.0 
2.133449373380e-04 -2.744312256583e-04 0.0 
2.141510589339e-04 -2.646354427844e-04 0.0 
1.812929124446e-03 8.907772474891e-04 0.0 
1.382349910944e-03 1.984424197114e-04 0.0 
1.846666172523e-03 8.099454650744e-04 0.0 
5.721983750750e-04 -2.275734116632e-04 0.0 
6.462210182310e-04 9.728627285987e-03 0.0 
9.107956829581e-05 2.374999612830e-06 0.0 
1.974546503431e-04 -2.794728912206e-04 0.0 
5.973112259007e-04 2.372507908791e-05 0.0 
1.286662331134e-03 1.001969906554e-04 0.0 
5.219324401041e-05 -2.490946152695e-04 0.0 
2.375343909236e-03 1.953081792873e-03 0.0 
6.790424809539e-04 -1.979708018960e-04 0.0 
1.887380722048e-04 -3.176875152541e-04 0.0 
5.520928617197e-04 -2.405209593655e-04 0.0 
7.905543686175e-06 -5.424841795549e-05 0.0 
2.404618695543e-03 2.364821354286e-03 0.0 
2.103371010532e-04 -3.080830410667e-04 0.0 
3.275067197161e-05 -1.089156705078e-04 0.0 
2.023735480796e-03 1.170642406572e-03 0.0 
1.001977748706e-03 1.507476467601e-04 0.0 
3.311034552305e-04 -2.530983541674e-04 0.0 
2.975474317045e-05 -2.161187958068e-04 0.0 
1.259077209537e-03 8.895961722660e-05 0.0 
2.986024695457e-05 6.395487449971e-03 0.0 
1.892809405149e-04 -3.123248905225e-04 0.0 
7.461016598321e-04 2.889205454892e-04 0.0 
7.885339459007e-04 6.992936854279e-04 0.0 
1.317119176190e-04 7.757736055573e-03 0.0 
5.971399167102e-04 1.388426185451e-03 0.0 
7.636122765124e-04 5.155459654144e-04 0.0 
5.755146555577e-04 -2.182043108211e-04 0.0 
4.832571894063e-04 -2.364198605823e-04 0.0 
2.933783161983e-04 3.611650961159e-05 0.0 
3.668283302318e-05 -1.378349534823e-04 0.0 
7.097781574495e-06 -2.239079829096e-04 0.0 
2.404835983264e-05 -1.008005167787e-04 0.0 
3.093455561314e-04 -2.502266513608e-04 0.0 
4.732660074526e-04 -2.558094369255e-04 0.0 
3.968742827459e-05 8.742433108397e-04 0.0 
7.510960283518e-05 1.100236749385e-03 0.0 
1.190813079294e-03 7.807514257081e-03 0.0 
5.941291621988e-04 -2.277641766386e-04 0.0 
7.799647354274e-05 -2.160951630114e-04 0.0 
1.243297310959e-03 2.413764838708e-04 0.0 
2.992460297696e-05 8.387625497686e-07 0.0 
3.975144434233e-05 1.338523609280e-06 0.0 
4.829033644927e-04 -2.246715568418e-04 0.0 
1.463342134583e-03 8.212626600248e-03 0.0 
8.848086155899e-05 -2.016563792162e-04 0.0 
1.805470532250e-05 5.113788029575e-04 0.0 
2.571338008689e-04 -2.931401231835e-04 0.0 
2.996203253954e-05 6.735659785795e-04 0.0 
1.289758963879e-03 1.204231184995e-04 0.0 
3.997850931215e-04 -2.582900059751e-04 0.0 
5.074910298749e-04 -2.444070235765e-04 0.0 
1.657616519194e-04 -2.637417079009e-04 0.0 
8.957368318740e-05 2.652989517962e-03 0.0 
4.276597062651e-04 -2.481048783547e-04 0.0 
2.920750963943e-04 2.102176459919e-03 0.0 
2.330435651993e-04 3.526585825119e-03 0.0 
3.577413634649e-05 5.747803637160e-04 0.0 
6.376918880593e-06 -4.614547412133e-07 0.0 
6.936880919656e-05 7.867949986027e-03 0.0 
4.022251968998e-04 -2.353250060325e-04 0.0 
8.699523749173e-05 1.657823255749e-03 0.0 
3.993979626621e-04 -2.223727911008e-04 0.0 
1.117391840754e-05 1.706928111288e-07 0.0 
8.063369289625e-06 2.676332589398e-04 0.0 
1.149845732104e-05 3.780012936304e-04 0.0 
5.873161687583e-04 4.472335317901e-05 0.0 
1.086589959555e-03 8.720704090567e-03 0.0 
1.736108541336e-04 2.017610544476e-03 0.0 
1.970069030687e-03 1.041310978176e-03 0.0 
8.523654455370e-04 1.598172566201e-04 0.0 
1.976367603485e-03 1.467228281966e-03 0.0 
4.475653281192e-04 7.528937999117e-03 0.0 
2.868985066907e-04 -2.690105156746e-04 0.0 
3.062123389313e-04 -2.718411642790e-04 0.0 
1.355091657603e-04 5.354959215828e-03 0.0 
9.921152783606e-04 1.863879568572e-04 0.0 
1.727317864312e-03 8.346964256212e-03 0.0 
2.347902692261e-04 8.849553301671e-03 0.0 
2.852168488662e-04 7.984090981071e-03 0.0 
5.115226349873e-04 7.645381215655e-03 0.0 
2.295873939767e-04 -2.578748263233e-04 0.0 
2.658049982643e-04 -2.756342284283e-04 0.0 
2.672984049962e-04 1.273983085326e-03 0.0 
5.096295912437e-04 6.598265085657e-03 0.0 
2.782247741533e-04 5.180803302615e-05 0.0 
1.349454172302e-03 9.667087667021e-04 0.0 
2.340331772937e-03 1.757929367030e-03 0.0 
8.679526163495e-04 1.895072633755e-03 0.0 
1.114546202001e-04 -1.718504866865e-04 0.0 
1.093291899057e-04 -1.912044812778e-04 0.0 
1.594059633470e-04 -9.452194617343e-07 0.0 
1.363070329387e-04 -2.612077962741e-04 0.0 
3.701238907931e-05 -2.228460483813e-04 0.0 
1.162224358297e-04 3.215858405591e-05 0.0 
1.204623662531e-05 -2.557970944887e-04 0.0 
2.907761181565e-04 8.554131639061e-03 0.0 
3.608285430848e-04 2.547094331557e-05 0.0 
1.536375944509e-04 -3.082951700704e-04 0.0 
1.158656323901e-04 -2.969524138576e-04 0.0 
1.694485810041e-04 4.807154269135e-04 0.0 
9.289067961256e-04 9.409593793403e-03 0.0 
4.010658992149e-04 1.361729718946e-03 0.0 
3.823081785502e-04 4.078566975907e-05 0.0 
8.161217195239e-04 9.438746814713e-03 0.0 
6.548451516504e-05 -1.398608506385e-04 0.0 
6.183485648781e-05 1.078443523758e-03 0.0 
1.124631062685e-04 -2.735876964395e-04 0.0 
4.393174262070e-04 1.792226048396e-03 0.0 
8.656657650617e-06 3.355277777114e-08 0.0 
1.262922134127e-03 1.149341513353e-03 0.0 
2.920489485391e-04 -2.626507698933e-04 0.0 
1.715235461457e-03 7.375163838161e-03 0.0 
6.754004598114e-05 -1.672608854097e-04 0.0 
1.178451574040e-03 2.027840367569e-04 0.0 
1.491761791460e-04 2.977254251658e-05 0.0 
1.326210587176e-04 4.366539034201e-03 0.0 
1.345188495827e-04 2.390820087037e-05 0.0 
1.680204495973e-04 -2.473156087183e-04 0.0 
5.327075461919e-05 -1.391832992539e-06 0.0 
3.147429619387e-04 -2.836401690074e-04 0.0 
5.539267422385e-05 -2.601074646318e-04 0.0 
1.908241256228e-04 1.462422057097e-05 0.0 
7.076143903941e-04 1.056139095934e-03 0.0 
3.682753457461e-04 9.375608832101e-04 0.0 
6.377964122028e-04 8.725473636337e-03 0.0 
2.227415377914e-03 6.218297195814e-03 0.0 
1.980595773125e-04 2.391356714617e-04 0.0 
8.711182390262e-04 5.604022153508e-04 0.0 
5.625073977201e-05 -1.924163180752e-04 0.0 
1.187270000672e-04 1.217361815730e-05 0.0 
1.062859843769e-03 1.809266300941e-04 0.0 
5.195149747172e-04 9.742692460845e-03 0.0 
9.410273986376e-04 1.446523671165e-03 0.0 
5.019000815733e-06 5.468272173951e-04 0.0 
5.019000815733e-06 2.306271544002e-04 0.0 
1.273362406843e-05 -2.829518506159e-04 0.0 
5.277481620867e-06 -2.795527847572e-04 0.0 
2.885865091384e-05 9.392926107428e-03 0.0 
6.884268243893e-05 9.733744014263e-03 0.0 
1.097069158659e-06 -2.558230124544e-07 0.0 
1.097069158659e-06 -8.616682893567e-07 0.0 
2.290097820041e-05 -2.757419999672e-04 0.0 
8.794076969822e-05 -2.376542090365e-04 0.0 
5.262412291503e-05 -6.353050822508e-06 0.0 
9.302239405514e-04 2.606027741843e-04 0.0 
9.741981071246e-05 -2.632561055323e-04 0.0 
9.053069250218e-05 -3.678798815692e-06 0.0 
1.404207198650e-05 -8.359601878399e-05 0.0 
1.513115211753e-05 -1.229909952023e-04 0.0 
3.499546606566e-04 6.214476869473e-03 0.0 
2.418389170010e-04 -3.075190184775e-04 0.0 
1.307694423978e-03 2.049217016146e-04 0.0 
1.034894384663e-04 -2.751200197063e-04 0.0 
9.165690927899e-05 -1.472807857121e-04 0.0 
1.147179654135e-03 7.553506905628e-04 0.0 
1.688353741125e-05 2.427608370935e-03 0.0 
2.908970791950e-05 -1.208224738370e-04 0.0 
2.201894546998e-04 7.212198817544e-03 0.0 
1.055092914671e-03 3.864066680222e-04 0.0 
1.784653687622e-03 1.134033666624e-03 0.0 
2.104797399961e-03 1.448009877718e-03 0.0 
7.076189966966e-04 9.412614129882e-03 0.0 
1.246387253856e-03 1.381588337466e-04 0.0 
1.118894941358e-03 1.350745792471e-03 0.0 
5.277987899950e-05 -2.224550644163e-04 0.0 
1.589741164130e-04 -3.194727579175e-04 0.0 
1.248490762528e-03 4.714752510666e-04 0.0 
6.342124900141e-04 3.390011988262e-05 0.0 
2.223081789326e-04 -3.074804289519e-04 0.0 
1.869478038161e-04 5.461395889175e-03 0.0 
2.860123770538e-05 -1.767650218513e-06 0.0 
1.145950174965e-03 3.610680930180e-04 0.0 
9.847048255228e-04 3.174446980898e-04 0.0 
1.669137200967e-05 -6.472646076316e-05 0.0 
4.742525310669e-05 -4.637525774880e-05 0.0 
3.832733466410e-06 1.029286318059e-03 0.0 
3.059536903576e-04 4.854274338889e-04 0.0 
1.844766687938e-03 6.942555491946e-03 0.0 
1.316332706936e-03 1.797865457777e-04 0.0 
3.398823191565e-04 1.746382748954e-03 0.0 
2.620181073874e-04 3.726242243154e-05 0.0 
1.805602893968e-04 -3.158515473224e-04 0.0 
1.729989870057e-04 -3.187472249274e-04 0.0 
-8.461317025985e-06 6.150704708473e-04 0.0 
3.117559529995e-04 5.008653801925e-03 0.0 
8.711605967008e-05 -2.078463753746e-04 0.0 
8.114726858866e-04 1.490363625291e-03 0.0 
5.911577364216e-05 -2.552269320015e-04 0.0 
4.550611064372e-04 5.378175353109e-05 0.0 
1.107729191320e-03 7.760760975556e-03 0.0 
4.009086763391e-04 9.292488012580e-05 0.0 
1.180891545356e-03 2.490791204766e-04 0.0 
2.033853963804e-03 6.643819597909e-03 0.0 
1.485678826662e-04 7.226845704906e-06 0.0 
6.308106332878e-04 1.077404129339e-03 0.0 
5.051549165125e-05 1.263775793451e-03 0.0 
-1.136807995959e-05 3.392146456740e-04 0.0 
7.948318468867e-04 1.880912200972e-03 0.0 
6.384291120346e-04 2.609835991574e-04 0.0 
4.519049142393e-04 4.659184925360e-05 0.0 
1.045301243029e-03 2.159480001258e-04 0.0 
1.604885562181e-05 4.741334161197e-07 0.0 
2.130212913785e-03 1.592885318067e-03 0.0 
-1.085976940421e-05 -7.369542006469e-06 0.0 
1.347485520686e-04 7.495456253942e-05 0.0 
1.603250830517e-03 1.086912531351e-03 0.0 
1.744520743199e-03 6.487502487740e-03 0.0 
2.719071516649e-05 -7.791991973749e-06 0.0 
9.445903994070e-04 2.106474034481e-04 0.0 
5.645953665554e-05 4.219974313630e-07 0.0 
2.804615773766e-04 4.005862661967e-03 0.0 
3.510324457147e-04 7.381630897698e-05 0.0 
1.813117449424e-04 2.906615962002e-06 0.0 
1.944613674335e-04 5.104789308167e-06 0.0 
6.319355852478e-05 -2.001469233293e-04 0.0 
2.504966576269e-05 5.353219447777e-07 0.0 
1.353087584946e-03 8.617369146750e-03 0.0 
2.110284318668e-04 2.043040607868e-03 0.0 
1.833288092100e-04 -3.186473037433e-04 0.0 
1.336101635192e-04 2.846283065669e-03 0.0 
2.825518549940e-04 5.412773843302e-03 0.0 
1.147910621824e-05 -2.657067204983e-04 0.0 
2.616482307854e-04 -2.517158439351e-04 0.0 
1.941422011523e-03 1.232204776384e-03 0.0 
2.941488962673e-04 1.028957201299e-03 0.0 
1.060957557846e-04 1.952092322257e-03 0.0 
4.404428852554e-04 8.438427034776e-05 0.0 
5.467041552621e-04 7.124080790661e-03 0.0 
1.433010343851e-04 -3.101716499353e-04 0.0 
1.073266090776e-04 -1.229033758518e-04 0.0 
1.407275674029e-04 -3.056736217415e-04 0.0 
1.882868848728e-04 -3.147757148627e-04 0.0 
-2.628393817404e-05 2.765593311060e-05 0.0 
8.256291821309e-05 -1.540691025431e-04 0.0 
3.425931311360e-05 -7.695920862116e-06 0.0 
1.266230201601e-03 1.246133256324e-03 0.0 
2.213042033366e-03 5.835628116651e-03 0.0 
1.202237330487e-04 -1.831398069943e-04 0.0 
1.531772126915e-04 -2.997910430955e-06 0.0 
3.289257289641e-04 1.673115014872e-05 0.0 
4.987906579847e-04 1.200291311301e-04 0.0 
9.672044337707e-04 3.766485683331e-04 0.0 
1.588879305841e-03 9.389311911654e-04 0.0 
1.757981647196e-04 -3.164676276480e-04 0.0 
1.399398681086e-04 -2.296082953538e-04 0.0 
4.819501395591e-05 -7.280320702492e-06 0.0 
2.243492098880e-05 -2.643541008369e-04 0.0 
4.886833306543e-06 -2.608188207267e-04 0.0 
3.296731234781e-05 7.100398841686e-05 0.0 
1.470887270591e-04 -3.043174320106e-04 0.0 
1.102009251720e-04 6.014079714865e-06 0.0 
6.853626887342e-04 3.579728669078e-04 0.0 
3.028581142728e-04 1.746456282576e-03 0.0 
4.127634162729e-04 1.069706334420e-04 0.0 
3.973136230416e-04 1.476687236603e-05 0.0 
4.498186769299e-04 6.568335946805e-03 0.0 
7.761397502080e-05 1.993186237050e-04 0.0 
3.061315989202e-04 -2.925887046749e-04 0.0 
8.623598022724e-04 9.744428791965e-03 0.0 
2.067195486542e-04 -3.119266121936e-04 0.0 
1.085295435365e-04 -2.917109836645e-04 0.0 
1.666023060789e-05 -1.042410907424e-07 0.0 
1.865933341950e-03 7.764881566365e-03 0.0 
6.440779196697e-05 -2.650194671202e-04 0.0 
5.832273434877e-05 -1.572900780831e-04 0.0 
8.161889038295e-04 4.602495837356e-04 0.0 
4.935088881749e-04 1.833488610167e-03 0.0 
5.983330981021e-04 8.013580157334e-04 0.0 
3.854089128685e-05 -2.081067488023e-04 0.0 
1.219953426482e-04 -1.568456440631e-04 0.0 
7.587759399075e-05 -3.857833645310e-07 0.0 
1.692768131509e-05 4.908736939143e-04 0.0 
3.931909402306e-06 -5.100856289520e-07 0.0 
6.618466664332e-05 8.849758776557e-03 0.0 
3.007387139133e-04 2.178432108431e-05 0.0 
7.468100381044e-05 -2.639272866524e-04 0.0 
7.593300980870e-04 1.519474814227e-03 0.0 
1.224076028118e-04 -2.979676059382e-04 0.0 
1.407709406260e-04 1.171388876219e-05 0.0 
7.828221211083e-04 1.019156149863e-03 0.0 
7.144328638404e-05 -1.107885356947e-04 0.0 
1.106787007775e-03 3.196138452868e-04 0.0 
2.731456859484e-04 4.483841179569e-03 0.0 
1.911199840014e-04 9.870953907210e-04 0.0 
5.814547199946e-05 1.099453245298e-05 0.0 
1.095747185102e-04 5.865337552416e-03 0.0 
6.869766729424e-04 4.061994975732e-04 0.0 
9.968130388605e-04 1.412353312333e-03 0.0 
2.224894276502e-04 5.153563349883e-03 0.0 
1.064759006318e-03 6.181898679173e-04 0.0 
6.653755195903e-05 -1.848644329160e-04 0.0 
4.605107241624e-04 9.449148471847e-03 0.0 
7.154941123929e-04 1.834597802551e-04 0.0 
1.756509182629e-05 1.046693311291e-03 0.0 
2.376484773627e-05 -2.809203931007e-04 0.0 
1.280759260899e-04 9.446191659128e-03 0.0 
3.565096246319e-06 -2.071281059667e-06 0.0 
1.094840831145e-04 -2.660957849514e-04 0.0 
4.038561121157e-04 3.517392381577e-05 0.0 
1.190975629249e-03 1.350494933289e-03 0.0 
2.216865333135e-04 1.284908538472e-03 0.0 
7.163999406085e-05 -2.575556221572e-04 0.0 
1.026284249248e-04 -7.100518943857e-06 0.0 
6.125389383472e-06 -1.126316058684e-04 0.0 
1.112514622342e-04 3.477718729145e-03 0.0 
6.299434076137e-05 -2.147004290302e-04 0.0 
4.744944082018e-04 8.496354896045e-04 0.0 
1.965334111705e-04 6.057095716444e-03 0.0 
2.361523636913e-04 -3.113203540390e-04 0.0 
3.623253576410e-04 6.780494546308e-03 0.0 
5.544733713006e-04 1.492626872413e-04 0.0 
1.138163304647e-05 -1.023479307741e-04 0.0 
-7.717261680734e-06 4.422551344047e-05 0.0 
7.929448645590e-05 -1.995191987320e-04 0.0 
8.172184510053e-05 -1.359901372262e-04 0.0 
5.256243662997e-06 -9.229453184543e-05 0.0 
5.876163658296e-04 1.106918337945e-04 0.0 
4.253387392817e-05 -1.375691154783e-04 0.0 
5.385034054775e-05 -1.250371119734e-04 0.0 
1.322508949339e-04 -2.974137864445e-04 0.0 
9.822034156397e-05 -3.146314426652e-06 0.0 
1.297719232889e-03 5.301362104971e-04 0.0 
1.640652606247e-04 -1.762484706846e-05 0.0 
2.947377232565e-05 9.907397878097e-04 0.0 
6.399936489966e-06 -1.719698399262e-06 0.0 
1.254179102943e-04 8.902249611549e-03 0.0 
1.472597262102e-04 6.275271098417e-03 0.0 
5.873911253005e-05 -1.407517177835e-04 0.0 
6.510278608173e-05 -1.338534999854e-04 0.0 
3.953899948459e-05 -1.272814747921e-04 0.0 
5.142965300621e-04 4.302314193378e-05 0.0 
2.156741552966e-04 -3.138327434520e-04 0.0 
1.123190507573e-03 4.660216110234e-04 0.0 
2.323408647073e-04 7.776790407187e-03 0.0 
5.702612918219e-04 1.126050182153e-03 0.0 
4.822786595389e-04 3.529580989923e-05 0.0 
4.229359340803e-04 6.977708435271e-03 0.0 
1.429281001056e-03 9.040759747197e-04 0.0 
6.062060398615e-04 1.239000672508e-04 0.0 
4.622514161095e-04 1.002553806574e-04 0.0 
1.760284339822e-05 1.921560822346e-05 0.0 
1.424439554519e-03 8.462426997672e-04 0.0 
1.207707098049e-03 6.794712936257e-04 0.0 
1.244237409955e-04 -2.946433577103e-04 0.0 
6.626418048296e-05 -1.496766718553e-04 0.0 
1.936945983623e-05 -1.391334465887e-05 0.0 
1.211608190540e-03 7.590882569668e-04 0.0 
1.759433136611e-04 1.135182269100e-02 0.0 
2.223441311422e-04 1.169078878128e-02 0.0 
2.849863858014e-04 1.134690805175e-02 0.0 
3.283394678647e-04 1.168367576178e-02 0.0 
3.949358894991e-04 1.134430179210e-02 0.0 
4.392559278592e-04 1.168286253097e-02 0.0 
5.046699111766e-04 1.134503081889e-02 0.0 
5.498603050696e-04 1.168335236434e-02 0.0 
6.111980301417e-04 1.134434098228e-02 0.0 
6.551993257571e-04 1.168063255964e-02 0.0 
7.112483829992e-04 1.133927612941e-02 0.0 
7.513489381496e-04 1.167152277823e-02 0.0 
8.021604244978e-04 1.132540457488e-02 0.0 
9.545579989444e-04 8.888942914003e-03 0.0 
8.347068252570e-04 1.165023407066e-02 0.0 
8.812096256007e-04 1.129630728406e-02 0.0 
5.940056331347e-04 9.058877146490e-03 0.0 
9.031587070150e-04 1.161059876018e-02 0.0 
9.473548088734e-04 1.124668366848e-02 0.0 
1.074561849771e-03 9.045329464474e-03 0.0 
9.537094214943e-04 1.154754273110e-02 0.0 
9.975028641600e-04 1.116947894766e-02 0.0 
9.816197546347e-04 1.145074161836e-02 0.0 
1.029769833535e-03 1.105099833675e-02 0.0 
9.846369841945e-04 1.130479215212e-02 0.0 
1.196930930683e-03 8.213499910759e-03 0.0 
1.045112061275e-03 1.087511280333e-02 0.0 
9.627686301705e-04 1.109234939203e-02 0.0 
9.182269970680e-04 1.078963995770e-02 0.0 
1.046425780944e-03 1.062189222895e-02 0.0 
8.598242249194e-04 1.036897266805e-02 0.0 
1.040890516202e-03 1.026445441075e-02 0.0 
8.000330714227e-04 9.779641253733e-03 0.0 
1.040174724595e-03 9.766850512867e-03 0.0 
8.363785648738e-04 8.383434143246e-03 0.0 
2.389036561665e-05 1.152013204562e-02 0.0 
1.194295477085e-04 1.152080433952e-02 0.0 
7.873099090818e-05 1.186530161983e-02 0.0 
6.458892241693e-05 1.117563476530e-02 0.0 
8.530201978715e-04 7.790559461387e-03 0.0 
1.610867198946e-04 1.066712499319e-02 0.0 
2.004448194975e-04 1.032732859259e-02 0.0 
2.779436679231e-04 1.066814556086e-02 0.0 
3.165203780329e-04 1.032774430965e-02 0.0 
3.901595175456e-04 1.066713283085e-02 0.0 
4.298452751561e-04 1.032854910613e-02 0.0 
5.000356304270e-04 1.066788635530e-02 0.0 
5.410187600141e-04 1.032994277281e-02 0.0 
6.069907658358e-04 1.066807585434e-02 0.0 
6.492936225612e-04 1.032959672747e-02 0.0 
7.095499441093e-04 1.066450542518e-02 0.0 
7.540140094244e-04 1.032383768260e-02 0.0 
1.470771443962e-03 9.029566253794e-03 0.0 
8.065239346624e-04 1.065249018348e-02 0.0 
1.497439754993e-03 9.042019972756e-03 0.0 
8.539036743285e-04 1.030725030692e-02 0.0 
8.960429645074e-04 1.062623791171e-02 0.0 
9.484745069270e-04 1.027396262975e-02 0.0 
9.778372698786e-04 1.058011691041e-02 0.0 
1.037967526190e-03 1.021738826890e-02 0.0 
1.051278507851e-03 1.050589124354e-02 0.0 
1.122871039325e-03 1.012623334946e-02 0.0 
1.325522861006e-03 9.257920487620e-03 0.0 
1.117245474534e-03 1.039007777199e-02 0.0 
1.205399557654e-03 9.985302296773e-03 0.0 
1.178398993735e-03 1.021654351276e-02 0.0 
1.289825129898e-03 9.775916173988e-03 0.0 
1.383126591573e-03 9.472519813614e-03 0.0 
1.240195348212e-03 9.964028301485e-03 0.0 
1.312020543438e-03 9.605198194137e-03 0.0 
1.609082733151e-03 8.598942023697e-03 0.0 
1.463834150195e-03 8.827296257524e-03 0.0 
1.974245042777e-05 1.049236833166e-02 0.0 
1.004250387531e-04 1.049481163516e-02 0.0 
5.972648195286e-05 1.015284020806e-02 0.0 
6.044100722805e-05 1.083433975875e-02 0.0 
1.453014792132e-03 8.601914493512e-03 0.0 

VECTORS element_materi_displacement float
0.0 0.0 0.0 
0.0 0.0 0.0 
0.0 0.0 0.0 
0.0 0.0 0.0 
0.0 0.0 0.0 
0.0 0.0 0.0 
0.0 0.0 0.0 
0.0 0.0 0.0 
0.0 0.0 0.0 
0.0 0.0 0.0 
0.0 0.0 0.0 
0.0 0.0 0.0 
0.0 0.0 0.0 
0.0 0.0 0.0 
0.0 0.0 0.0 
0.0 0.0 0.0 
0.0 0.0 0.0 
0.0 0.0 0.0 
0.0 0.0 0.0 
0.0 0.0 0.0 
0.0 0.0 0.0 
0.0 0.0 0.0 
0.0 0.0 0.0 
0.0 0.0 0.0 
0.0 0.0 0.0 
0.0 0.0 0.0 
0.0 0.0 0.0 
0.0 0.0 0.0 
0.0 0.0 0.0 
0.0 0.0 0.0 
0.0 0.0 0.0 
0.0 0.0 0.0 
0.0 0.0 0.0 
0.0 0.0 0.0 
0.0 0.0 0.0 
0.0 0.0 0.0 
0.0 0.0 0.0 
0.0 0.0 0.0 
0.0 0.0 0.0 
0.0 0.0 0.0 
0.0 0.0 0.0 
0.0 0.0 0.0 
0.0 0.0 0.0 
0.0 0.0 0.0 
0.0 0.0 0.0 
0.0 0.0 0.0 
0.0 0.0 0.0 
0.0 0.0 0.0 
0.0 0.0 0.0 
0.0 0.0 0.0 
0.0 0.0 0.0 
0.0 0.0 0.0 
0.0 0.0 0.0 
0.0 0.0 0.0 
0.0 0.0 0.0 
0.0 0.0 0.0 
0.0 0.0 0.0 
0.0 0.0 0.0 
0.0 0.0 0.0 
0.0 0.0 0.0 
0.0 0.0 0.0 
0.0 0.0 0.0 
0.0 0.0 0.0 
0.0 0.0 0.0 
0.0 0.0 0.0 
0.0 0.0 0.0 
0.0 0.0 0.0 
0.0 0.0 0.0 
0.0 0.0 0.0 
0.0 0.0 0.0 
0.0 0.0 0.0 
0.0 0.0 0.0 
0.0 0.0 0.0 
0.0 0.0 0.0 
0.0 0.0 0.0 
0.0 0.0 0.0 
0.0 0.0 0.0 
0.0 0.0 0.0 
0.0 0.0 0.0 
0.0 0.0 0.0 
0.0 0.0 0.0 
0.0 0.0 0.0 
0.0 0.0 0.0 
0.0 0.0 0.0 
0.0 0.0 0.0 
0.0 0.0 0.0 
0.0 0.0 0.0 
0.0 0.0 0.0 
0.0 0.0 0.0 
0.0 0.0 0.0 
0.0 0.0 0.0 
0.0 0.0 0.0 
0.0 0.0 0.0 
0.0 0.0 0.0 
0.0 0.0 0.0 
0.0 0.0 0.0 
0.0 0.0 0.0 
0.0 0.0 0.0 
0.0 0.0 0.0 
0.0 0.0 0.0 
0.0 0.0 0.0 
0.0 0.0 0.0 
0.0 0.0 0.0 
0.0 0.0 0.0 
0.0 0.0 0.0 
0.0 0.0 0.0 
0.0 0.0 0.0 
0.0 0.0 0.0 
0.0 0.0 0.0 
0.0 0.0 0.0 
0.0 0.0 0.0 
0.0 0.0 0.0 
0.0 0.0 0.0 
0.0 0.0 0.0 
0.0 0.0 0.0 
0.0 0.0 0.0 
0.0 0.0 0.0 
0.0 0.0 0.0 
0.0 0.0 0.0 
0.0 0.0 0.0 
0.0 0.0 0.0 
0.0 0.0 0.0 
0.0 0.0 0.0 
0.0 0.0 0.0 
0.0 0.0 0.0 
0.0 0.0 0.0 
0.0 0.0 0.0 
0.0 0.0 0.0 
0.0 0.0 0.0 
0.0 0.0 0.0 
0.0 0.0 0.0 
0.0 0.0 0.0 
0.0 0.0 0.0 
0.0 0.0 0.0 
0.0 0.0 0.0 
0.0 0.0 0.0 
0.0 0.0 0.0 
0.0 0.0 0.0 
0.0 0.0 0.0 
0.0 0.0 0.0 
0.0 0.0 0.0 
0.0 0.0 0.0 
0.0 0.0 0.0 
0.0 0.0 0.0 
0.0 0.0 0.0 
0.0 0.0 0.0 
0.0 0.0 0.0 
0.0 0.0 0.0 
0.0 0.0 0.0 
0.0 0.0 0.0 
0.0 0.0 0.0 
0.0 0.0 0.0 
0.0 0.0 0.0 
0.0 0.0 0.0 
0.0 0.0 0.0 
0.0 0.0 0.0 
0.0 0.0 0.0 
0.0 0.0 0.0 
0.0 0.0 0.0 
0.0 0.0 0.0 
0.0 0.0 0.0 
0.0 0.0 0.0 
0.0 0.0 0.0 
0.0 0.0 0.0 
0.0 0.0 0.0 
0.0 0.0 0.0 
0.0 0.0 0.0 
0.0 0.0 0.0 
0.0 0.0 0.0 
0.0 0.0 0.0 
0.0 0.0 0.0 
0.0 0.0 0.0 
0.0 0.0 0.0 
0.0 0.0 0.0 
0.0 0.0 0.0 
0.0 0.0 0.0 
0.0 0.0 0.0 
0.0 0.0 0.0 
0.0 0.0 0.0 
0.0 0.0 0.0 
0.0 0.0 0.0 
0.0 0.0 0.0 
0.0 0.0 0.0 
0.0 0.0 0.0 
0.0 0.0 0.0 
0.0 0.0 0.0 
0.0 0.0 0.0 
0.0 0.0 0.0 
0.0 0.0 0.0 
0.0 0.0 0.0 
0.0 0.0 0.0 
0.0 0.0 0.0 
0.0 0.0 0.0 
0.0 0.0 0.0 
0.0 0.0 0.0 
0.0 0.0 0.0 
0.0 0.0 0.0 
0.0 0.0 0.0 
0.0 0.0 0.0 
0.0 0.0 0.0 
0.0 0.0 0.0 
0.0 0.0 0.0 
0.0 0.0 0.0 
0.0 0.0 0.0 
0.0 0.0 0.0 
0.0 0.0 0.0 
0.0 0.0 0.0 
0.0 0.0 0.0 
0.0 0.0 0.0 
0.0 0.0 0.0 
0.0 0.0 0.0 
0.0 0.0 0.0 
0.0 0.0 0.0 
0.0 0.0 0.0 
0.0 0.0 0.0 
0.0 0.0 0.0 
0.0 0.0 0.0 
0.0 0.0 0.0 
0.0 0.0 0.0 
0.0 0.0 0.0 
0.0 0.0 0.0 
0.0 0.0 0.0 
0.0 0.0 0.0 
0.0 0.0 0.0 
0.0 0.0 0.0 
0.0 0.0 0.0 
0.0 0.0 0.0 
0.0 0.0 0.0 
0.0 0.0 0.0 
0.0 0.0 0.0 
0.0 0.0 0.0 
0.0 0.0 0.0 
0.0 0.0 0.0 
0.0 0.0 0.0 
0.0 0.0 0.0 
0.0 0.0 0.0 
0.0 0.0 0.0 
0.0 0.0 0.0 
0.0 0.0 0.0 
0.0 0.0 0.0 
0.0 0.0 0.0 
0.0 0.0 0.0 
0.0 0.0 0.0 
0.0 0.0 0.0 
0.0 0.0 0.0 
0.0 0.0 0.0 
0.0 0.0 0.0 
0.0 0.0 0.0 
0.0 0.0 0.0 
0.0 0.0 0.0 
0.0 0.0 0.0 
0.0 0.0 0.0 
0.0 0.0 0.0 
0.0 0.0 0.0 
0.0 0.0 0.0 
0.0 0.0 0.0 
0.0 0.0 0.0 
0.0 0.0 0.0 
0.0 0.0 0.0 
0.0 0.0 0.0 
0.0 0.0 0.0 
0.0 0.0 0.0 
0.0 0.0 0.0 
0.0 0.0 0.0 
0.0 0.0 0.0 
0.0 0.0 0.0 
0.0 0.0 0.0 
0.0 0.0 0.0 
0.0 0.0 0.0 
0.0 0.0 0.0 
0.0 0.0 0.0 
0.0 0.0 0.0 
0.0 0.0 0.0 
0.0 0.0 0.0 
0.0 0.0 0.0 
0.0 0.0 0.0 
0.0 0.0 0.0 
0.0 0.0 0.0 
0.0 0.0 0.0 
0.0 0.0 0.0 
0.0 0.0 0.0 
0.0 0.0 0.0 
0.0 0.0 0.0 
0.0 0.0 0.0 
0.0 0.0 0.0 
0.0 0.0 0.0 
0.0 0.0 0.0 
0.0 0.0 0.0 
0.0 0.0 0.0 
0.0 0.0 0.0 
0.0 0.0 0.0 
0.0 0.0 0.0 
0.0 0.0 0.0 
0.0 0.0 0.0 
0.0 0.0 0.0 
0.0 0.0 0.0 
0.0 0.0 0.0 
0.0 0.0 0.0 
0.0 0.0 0.0 
0.0 0.0 0.0 
0.0 0.0 0.0 
0.0 0.0 0.0 
0.0 0.0 0.0 
0.0 0.0 0.0 
0.0 0.0 0.0 
0.0 0.0 0.0 
0.0 0.0 0.0 
0.0 0.0 0.0 
0.0 0.0 0.0 
0.0 0.0 0.0 
0.0 0.0 0.0 
0.0 0.0 0.0 
0.0 0.0 0.0 
0.0 0.0 0.0 
0.0 0.0 0.0 
0.0 0.0 0.0 
0.0 0.0 0.0 
0.0 0.0 0.0 
0.0 0.0 0.0 
0.0 0.0 0.0 
0.0 0.0 0.0 
0.0 0.0 0.0 
0.0 0.0 0.0 
0.0 0.0 0.0 
0.0 0.0 0.0 
0.0 0.0 0.0 
0.0 0.0 0.0 
0.0 0.0 0.0 
0.0 0.0 0.0 
0.0 0.0 0.0 
0.0 0.0 0.0 
0.0 0.0 0.0 
0.0 0.0 0.0 
0.0 0.0 0.0 
0.0 0.0 0.0 
0.0 0.0 0.0 
0.0 0.0 0.0 
0.0 0.0 0.0 
0.0 0.0 0.0 
0.0 0.0 0.0 
0.0 0.0 0.0 
0.0 0.0 0.0 
0.0 0.0 0.0 
0.0 0.0 0.0 
0.0 0.0 0.0 
0.0 0.0 0.0 
0.0 0.0 0.0 
0.0 0.0 0.0 
0.0 0.0 0.0 
0.0 0.0 0.0 
0.0 0.0 0.0 
0.0 0.0 0.0 
0.0 0.0 0.0 
0.0 0.0 0.0 
0.0 0.0 0.0 
0.0 0.0 0.0 
0.0 0.0 0.0 
0.0 0.0 0.0 
0.0 0.0 0.0 
0.0 0.0 0.0 
0.0 0.0 0.0 
0.0 0.0 0.0 
0.0 0.0 0.0 
0.0 0.0 0.0 
0.0 0.0 0.0 
0.0 0.0 0.0 
0.0 0.0 0.0 
0.0 0.0 0.0 
0.0 0.0 0.0 
0.0 0.0 0.0 
0.0 0.0 0.0 
0.0 0.0 0.0 
0.0 0.0 0.0 
0.0 0.0 0.0 
0.0 0.0 0.0 
0.0 0.0 0.0 
0.0 0.0 0.0 
0.0 0.0 0.0 
0.0 0.0 0.0 
0.0 0.0 0.0 
0.0 0.0 0.0 
0.0 0.0 0.0 
0.0 0.0 0.0 
0.0 0.0 0.0 
0.0 0.0 0.0 
0.0 0.0 0.0 
0.0 0.0 0.0 
0.0 0.0 0.0 
0.0 0.0 0.0 
0.0 0.0 0.0 
0.0 0.0 0.0 
0.0 0.0 0.0 
0.0 0.0 0.0 
0.0 0.0 0.0 
0.0 0.0 0.0 
0.0 0.0 0.0 
0.0 0.0 0.0 
0.0 0.0 0.0 
0.0 0.0 0.0 
0.0 0.0 0.0 
0.0 0.0 0.0 
0.0 0.0 0.0 
0.0 0.0 0.0 
0.0 0.0 0.0 
0.0 0.0 0.0 
0.0 0.0 0.0 
0.0 0.0 0.0 
0.0 0.0 0.0 
0.0 0.0 0.0 
0.0 0.0 0.0 
0.0 0.0 0.0 
0.0 0.0 0.0 
0.0 0.0 0.0 
0.0 0.0 0.0 
0.0 0.0 0.0 
0.0 0.0 0.0 
0.0 0.0 0.0 
0.0 0.0 0.0 
0.0 0.0 0.0 
0.0 0.0 0.0 
0.0 0.0 0.0 
0.0 0.0 0.0 
0.0 0.0 0.0 
0.0 0.0 0.0 
0.0 0.0 0.0 
0.0 0.0 0.0 
0.0 0.0 0.0 
0.0 0.0 0.0 
0.0 0.0 0.0 
0.0 0.0 0.0 
0.0 0.0 0.0 
0.0 0.0 0.0 
0.0 0.0 0.0 
0.0 0.0 0.0 
0.0 0.0 0.0 
0.0 0.0 0.0 
0.0 0.0 0.0 
0.0 0.0 0.0 
0.0 0.0 0.0 
0.0 0.0 0.0 
0.0 0.0 0.0 
0.0 0.0 0.0 
0.0 0.0 0.0 
0.0 0.0 0.0 
0.0 0.0 0.0 
0.0 0.0 0.0 
0.0 0.0 0.0 
0.0 0.0 0.0 
0.0 0.0 0.0 
0.0 0.0 0.0 
0.0 0.0 0.0 
0.0 0.0 0.0 
0.0 0.0 0.0 
0.0 0.0 0.0 
0.0 0.0 0.0 
0.0 0.0 0.0 
0.0 0.0 0.0 
0.0 0.0 0.0 
0.0 0.0 0.0 
0.0 0.0 0.0 
0.0 0.0 0.0 
0.0 0.0 0.0 
0.0 0.0 0.0 
0.0 0.0 0.0 
0.0 0.0 0.0 
0.0 0.0 0.0 
0.0 0.0 0.0 
0.0 0.0 0.0 
0.0 0.0 0.0 
0.0 0.0 0.0 
0.0 0.0 0.0 
0.0 0.0 0.0 
0.0 0.0 0.0 
0.0 0.0 0.0 
0.0 0.0 0.0 
0.0 0.0 0.0 
0.0 0.0 0.0 
0.0 0.0 0.0 
0.0 0.0 0.0 
0.0 0.0 0.0 
0.0 0.0 0.0 
0.0 0.0 0.0 
0.0 0.0 0.0 
0.0 0.0 0.0 
0.0 0.0 0.0 
0.0 0.0 0.0 
0.0 0.0 0.0 
0.0 0.0 0.0 
0.0 0.0 0.0 
0.0 0.0 0.0 
0.0 0.0 0.0 
0.0 0.0 0.0 
0.0 0.0 0.0 
0.0 0.0 0.0 
0.0 0.0 0.0 
0.0 0.0 0.0 
0.0 0.0 0.0 
0.0 0.0 0.0 
0.0 0.0 0.0 
0.0 0.0 0.0 
0.0 0.0 0.0 
0.0 0.0 0.0 
0.0 0.0 0.0 
0.0 0.0 0.0 
0.0 0.0 0.0 
0.0 0.0 0.0 
0.0 0.0 0.0 
0.0 0.0 0.0 
0.0 0.0 0.0 
0.0 0.0 0.0 
0.0 0.0 0.0 
0.0 0.0 0.0 
0.0 0.0 0.0 
0.0 0.0 0.0 
0.0 0.0 0.0 
0.0 0.0 0.0 
0.0 0.0 0.0 
0.0 0.0 0.0 
0.0 0.0 0.0 
0.0 0.0 0.0 
0.0 0.0 0.0 
0.0 0.0 0.0 
0.0 0.0 0.0 
0.0 0.0 0.0 
0.0 0.0 0.0 
0.0 0.0 0.0 
0.0 0.0 0.0 
0.0 0.0 0.0 
0.0 0.0 0.0 
0.0 0.0 0.0 
0.0 0.0 0.0 
0.0 0.0 0.0 
0.0 0.0 0.0 
0.0 0.0 0.0 
0.0 0.0 0.0 
0.0 0.0 0.0 
0.0 0.0 0.0 
0.0 0.0 0.0 
0.0 0.0 0.0 
0.0 0.0 0.0 
0.0 0.0 0.0 
0.0 0.0 0.0 
0.0 0.0 0.0 
0.0 0.0 0.0 
0.0 0.0 0.0 
0.0 0.0 0.0 
0.0 0.0 0.0 
0.0 0.0 0.0 
0.0 0.0 0.0 
0.0 0.0 0.0 
0.0 0.0 0.0 
0.0 0.0 0.0 
0.0 0.0 0.0 
0.0 0.0 0.0 
0.0 0.0 0.0 
0.0 0.0 0.0 
0.0 0.0 0.0 
0.0 0.0 0.0 
0.0 0.0 0.0 
0.0 0.0 0.0 
0.0 0.0 0.0 
0.0 0.0 0.0 
0.0 0.0 0.0 
0.0 0.0 0.0 
0.0 0.0 0.0 
0.0 0.0 0.0 
0.0 0.0 0.0 
0.0 0.0 0.0 
0.0 0.0 0.0 
0.0 0.0 0.0 
0.0 0.0 0.0 
0.0 0.0 0.0 
0.0 0.0 0.0 
0.0 0.0 0.0 
0.0 0.0 0.0 
0.0 0.0 0.0 
0.0 0.0 0.0 
0.0 0.0 0.0 
0.0 0.0 0.0 
0.0 0.0 0.0 
0.0 0.0 0.0 
0.0 0.0 0.0 
0.0 0.0 0.0 
0.0 0.0 0.0 
0.0 0.0 0.0 
0.0 0.0 0.0 
0.0 0.0 0.0 
0.0 0.0 0.0 
0.0 0.0 0.0 
0.0 0.0 0.0 
0.0 0.0 0.0 
0.0 0.0 0.0 
0.0 0.0 0.0 
0.0 0.0 0.0 
0.0 0.0 0.0 
0.0 0.0 0.0 
0.0 0.0 0.0 
0.0 0.0 0.0 
0.0 0.0 0.0 
0.0 0.0 0.0 
0.0 0.0 0.0 
0.0 0.0 0.0 
0.0 0.0 0.0 
0.0 0.0 0.0 
0.0 0.0 0.0 
0.0 0.0 0.0 
0.0 0.0 0.0 
0.0 0.0 0.0 
0.0 0.0 0.0 
0.0 0.0 0.0 
0.0 0.0 0.0 
0.0 0.0 0.0 
0.0 0.0 0.0 
0.0 0.0 0.0 
0.0 0.0 0.0 
0.0 0.0 0.0 
0.0 0.0 0.0 
0.0 0.0 0.0 
0.0 0.0 0.0 
0.0 0.0 0.0 
0.0 0.0 0.0 
0.0 0.0 0.0 
0.0 0.0 0.0 
0.0 0.0 0.0 
0.0 0.0 0.0 
0.0 0.0 0.0 
0.0 0.0 0.0 
0.0 0.0 0.0 
0.0 0.0 0.0 
0.0 0.0 0.0 
0.0 0.0 0.0 
0.0 0.0 0.0 
0.0 0.0 0.0 
0.0 0.0 0.0 
0.0 0.0 0.0 
0.0 0.0 0.0 
0.0 0.0 0.0 
0.0 0.0 0.0 
0.0 0.0 0.0 
0.0 0.0 0.0 
0.0 0.0 0.0 
0.0 0.0 0.0 
0.0 0.0 0.0 
0.0 0.0 0.0 
0.0 0.0 0.0 
0.0 0.0 0.0 
0.0 0.0 0.0 
0.0 0.0 0.0 
0.0 0.0 0.0 
0.0 0.0 0.0 
0.0 0.0 0.0 
0.0 0.0 0.0 
0.0 0.0 0.0 
0.0 0.0 0.0 
0.0 0.0 0.0 
0.0 0.0 0.0 
0.0 0.0 0.0 
0.0 0.0 0.0 
0.0 0.0 0.0 
0.0 0.0 0.0 
0.0 0.0 0.0 
0.0 0.0 0.0 
0.0 0.0 0.0 
0.0 0.0 0.0 
0.0 0.0 0.0 
0.0 0.0 0.0 
0.0 0.0 0.0 
0.0 0.0 0.0 
0.0 0.0 0.0 
0.0 0.0 0.0 
0.0 0.0 0.0 
0.0 0.0 0.0 
0.0 0.0 0.0 
0.0 0.0 0.0 
0.0 0.0 0.0 
0.0 0.0 0.0 
0.0 0.0 0.0 
0.0 0.0 0.0 
0.0 0.0 0.0 
0.0 0.0 0.0 
0.0 0.0 0.0 
0.0 0.0 0.0 
0.0 0.0 0.0 
0.0 0.0 0.0 
0.0 0.0 0.0 
0.0 0.0 0.0 
0.0 0.0 0.0 
0.0 0.0 0.0 
0.0 0.0 0.0 
0.0 0.0 0.0 
0.0 0.0 0.0 
0.0 0.0 0.0 
0.0 0.0 0.0 
0.0 0.0 0.0 
0.0 0.0 0.0 
0.0 0.0 0.0 
0.0 0.0 0.0 
0.0 0.0 0.0 
0.0 0.0 0.0 
0.0 0.0 0.0 
0.0 0.0 0.0 
0.0 0.0 0.0 
0.0 0.0 0.0 
0.0 0.0 0.0 
0.0 0.0 0.0 
0.0 0.0 0.0 
0.0 0.0 0.0 
0.0 0.0 0.0 
0.0 0.0 0.0 
0.0 0.0 0.0 
0.0 0.0 0.0 
0.0 0.0 0.0 
0.0 0.0 0.0 
0.0 0.0 0.0 
0.0 0.0 0.0 
0.0 0.0 0.0 
0.0 0.0 0.0 
0.0 0.0 0.0 
0.0 0.0 0.0 
0.0 0.0 0.0 
0.0 0.0 0.0 
0.0 0.0 0.0 
0.0 0.0 0.0 
0.0 0.0 0.0 
0.0 0.0 0.0 
0.0 0.0 0.0 
0.0 0.0 0.0 
0.0 0.0 0.0 
0.0 0.0 0.0 
0.0 0.0 0.0 
0.0 0.0 0.0 
0.0 0.0 0.0 
0.0 0.0 0.0 
0.0 0.0 0.0 
0.0 0.0 0.0 
0.0 0.0 0.0 
0.0 0.0 0.0 
0.0 0.0 0.0 
0.0 0.0 0.0 
0.0 0.0 0.0 
0.0 0.0 0.0 
0.0 0.0 0.0 
0.0 0.0 0.0 
0.0 0.0 0.0 
0.0 0.0 0.0 
0.0 0.0 0.0 
0.0 0.0 0.0 
0.0 0.0 0.0 
0.0 0.0 0.0 
0.0 0.0 0.0 
0.0 0.0 0.0 
0.0 0.0 0.0 
0.0 0.0 0.0 
0.0 0.0 0.0 
0.0 0.0 0.0 
0.0 0.0 0.0 
0.0 0.0 0.0 
0.0 0.0 0.0 
0.0 0.0 0.0 
0.0 0.0 0.0 
0.0 0.0 0.0 
0.0 0.0 0.0 
0.0 0.0 0.0 
0.0 0.0 0.0 
0.0 0.0 0.0 
0.0 0.0 0.0 
0.0 0.0 0.0 
0.0 0.0 0.0 
0.0 0.0 0.0 
0.0 0.0 0.0 
0.0 0.0 0.0 
0.0 0.0 0.0 
0.0 0.0 0.0 
0.0 0.0 0.0 
0.0 0.0 0.0 
0.0 0.0 0.0 
0.0 0.0 0.0 
0.0 0.0 0.0 
0.0 0.0 0.0 
0.0 0.0 0.0 
0.0 0.0 0.0 
0.0 0.0 0.0 
0.0 0.0 0.0 
0.0 0.0 0.0 
0.0 0.0 0.0 
0.0 0.0 0.0 
0.0 0.0 0.0 
0.0 0.0 0.0 
0.0 0.0 0.0 
0.0 0.0 0.0 
0.0 0.0 0.0 
0.0 0.0 0.0 
0.0 0.0 0.0 
0.0 0.0 0.0 
0.0 0.0 0.0 
0.0 0.0 0.0 
0.0 0.0 0.0 
0.0 0.0 0.0 
0.0 0.0 0.0 
0.0 0.0 0.0 
0.0 0.0 0.0 
0.0 0.0 0.0 
0.0 0.0 0.0 
0.0 0.0 0.0 
0.0 0.0 0.0 
0.0 0.0 0.0 
0.0 0.0 0.0 
0.0 0.0 0.0 
0.0 0.0 0.0 
0.0 0.0 0.0 
0.0 0.0 0.0 
0.0 0.0 0.0 
0.0 0.0 0.0 
0.0 0.0 0.0 
0.0 0.0 0.0 
0.0 0.0 0.0 
0.0 0.0 0.0 
0.0 0.0 0.0 
0.0 0.0 0.0 
0.0 0.0 0.0 
0.0 0.0 0.0 
0.0 0.0 0.0 
0.0 0.0 0.0 
0.0 0.0 0.0 
0.0 0.0 0.0 
0.0 0.0 0.0 
0.0 0.0 0.0 
0.0 0.0 0.0 
0.0 0.0 0.0 
0.0 0.0 0.0 
0.0 0.0 0.0 
0.0 0.0 0.0 
0.0 0.0 0.0 
0.0 0.0 0.0 
0.0 0.0 0.0 
0.0 0.0 0.0 
0.0 0.0 0.0 
0.0 0.0 0.0 
0.0 0.0 0.0 
0.0 0.0 0.0 
0.0 0.0 0.0 
0.0 0.0 0.0 
0.0 0.0 0.0 
0.0 0.0 0.0 
0.0 0.0 0.0 
0.0 0.0 0.0 
0.0 0.0 0.0 
0.0 0.0 0.0 
0.0 0.0 0.0 
0.0 0.0 0.0 
0.0 0.0 0.0 
0.0 0.0 0.0 
0.0 0.0 0.0 
0.0 0.0 0.0 
0.0 0.0 0.0 
0.0 0.0 0.0 
0.0 0.0 0.0 
0.0 0.0 0.0 
0.0 0.0 0.0 
0.0 0.0 0.0 
0.0 0.0 0.0 
0.0 0.0 0.0 
0.0 0.0 0.0 
0.0 0.0 0.0 
0.0 0.0 0.0 
0.0 0.0 0.0 
0.0 0.0 0.0 
0.0 0.0 0.0 
0.0 0.0 0.0 
0.0 0.0 0.0 
0.0 0.0 0.0 
0.0 0.0 0.0 
0.0 0.0 0.0 
0.0 0.0 0.0 
0.0 0.0 0.0 
0.0 0.0 0.0 
0.0 0.0 0.0 
0.0 0.0 0.0 
0.0 0.0 0.0 
0.0 0.0 0.0 
0.0 0.0 0.0 
0.0 0.0 0.0 
0.0 0.0 0.0 
0.0 0.0 0.0 
0.0 0.0 0.0 
0.0 0.0 0.0 
0.0 0.0 0.0 
0.0 0.0 0.0 
0.0 0.0 0.0 
0.0 0.0 0.0 
0.0 0.0 0.0 
0.0 0.0 0.0 
0.0 0.0 0.0 
0.0 0.0 0.0 
0.0 0.0 0.0 
0.0 0.0 0.0 
0.0 0.0 0.0 
0.0 0.0 0.0 
0.0 0.0 0.0 
0.0 0.0 0.0 
0.0 0.0 0.0 
0.0 0.0 0.0 
0.0 0.0 0.0 
0.0 0.0 0.0 
0.0 0.0 0.0 
0.0 0.0 0.0 
0.0 0.0 0.0 
0.0 0.0 0.0 
0.0 0.0 0.0 
0.0 0.0 0.0 
0.0 0.0 0.0 
0.0 0.0 0.0 
0.0 0.0 0.0 
0.0 0.0 0.0 
0.0 0.0 0.0 
0.0 0.0 0.0 
0.0 0.0 0.0 
0.0 0.0 0.0 
0.0 0.0 0.0 
0.0 0.0 0.0 
0.0 0.0 0.0 
0.0 0.0 0.0 
0.0 0.0 0.0 
0.0 0.0 0.0 
0.0 0.0 0.0 
0.0 0.0 0.0 
0.0 0.0 0.0 
0.0 0.0 0.0 
0.0 0.0 0.0 
0.0 0.0 0.0 
0.0 0.0 0.0 
0.0 0.0 0.0 
0.0 0.0 0.0 
0.0 0.0 0.0 
0.0 0.0 0.0 
0.0 0.0 0.0 
0.0 0.0 0.0 
0.0 0.0 0.0 
0.0 0.0 0.0 
0.0 0.0 0.0 
0.0 0.0 0.0 
0.0 0.0 0.0 
0.0 0.0 0.0 
0.0 0.0 0.0 
0.0 0.0 0.0 
0.0 0.0 0.0 
0.0 0.0 0.0 
0.0 0.0 0.0 
0.0 0.0 0.0 
0.0 0.0 0.0 
0.0 0.0 0.0 
0.0 0.0 0.0 
0.0 0.0 0.0 
0.0 0.0 0.0 
0.0 0.0 0.0 
0.0 0.0 0.0 
0.0 0.0 0.0 
0.0 0.0 0.0 
0.0 0.0 0.0 
0.0 0.0 0.0 
0.0 0.0 0.0 
0.0 0.0 0.0 
0.0 0.0 0.0 
0.0 0.0 0.0 
0.0 0.0 0.0 
0.0 0.0 0.0 
0.0 0.0 0.0 
0.0 0.0 0.0 
0.0 0.0 0.0 
0.0 0.0 0.0 
0.0 0.0 0.0 
0.0 0.0 0.0 
0.0 0.0 0.0 
0.0 0.0 0.0 
0.0 0.0 0.0 
0.0 0.0 0.0 
0.0 0.0 0.0 
0.0 0.0 0.0 
0.0 0.0 0.0 
0.0 0.0 0.0 
0.0 0.0 0.0 
0.0 0.0 0.0 
0.0 0.0 0.0 
0.0 0.0 0.0 
0.0 0.0 0.0 
0.0 0.0 0.0 
0.0 0.0 0.0 
0.0 0.0 0.0 
0.0 0.0 0.0 
0.0 0.0 0.0 
0.0 0.0 0.0 
0.0 0.0 0.0 
0.0 0.0 0.0 
0.0 0.0 0.0 
0.0 0.0 0.0 
0.0 0.0 0.0 
0.0 0.0 0.0 
0.0 0.0 0.0 
0.0 0.0 0.0 
0.0 0.0 0.0 
0.0 0.0 0.0 
0.0 0.0 0.0 
0.0 0.0 0.0 
0.0 0.0 0.0 
0.0 0.0 0.0 
0.0 0.0 0.0 
0.0 0.0 0.0 
0.0 0.0 0.0 
0.0 0.0 0.0 
0.0 0.0 0.0 
0.0 0.0 0.0 
0.0 0.0 0.0 
0.0 0.0 0.0 
0.0 0.0 0.0 
0.0 0.0 0.0 
0.0 0.0 0.0 
0.0 0.0 0.0 
0.0 0.0 0.0 
0.0 0.0 0.0 
0.0 0.0 0.0 
0.0 0.0 0.0 
0.0 0.0 0.0 
0.0 0.0 0.0 
0.0 0.0 0.0 
0.0 0.0 0.0 
0.0 0.0 0.0 
0.0 0.0 0.0 
0.0 0.0 0.0 
0.0 0.0 0.0 
0.0 0.0 0.0 
0.0 0.0 0.0 
0.0 0.0 0.0 
0.0 0.0 0.0 
0.0 0.0 0.0 
0.0 0.0 0.0 
0.0 0.0 0.0 
0.0 0.0 0.0 
0.0 0.0 0.0 
0.0 0.0 0.0 
0.0 0.0 0.0 
0.0 0.0 0.0 
0.0 0.0 0.0 
0.0 0.0 0.0 
0.0 0.0 0.0 
0.0 0.0 0.0 
0.0 0.0 0.0 
0.0 0.0 0.0 
0.0 0.0 0.0 
0.0 0.0 0.0 
0.0 0.0 0.0 
0.0 0.0 0.0 
0.0 0.0 0.0 
0.0 0.0 0.0 
0.0 0.0 0.0 
0.0 0.0 0.0 
0.0 0.0 0.0 
0.0 0.0 0.0 
0.0 0.0 0.0 
0.0 0.0 0.0 
0.0 0.0 0.0 
0.0 0.0 0.0 
0.0 0.0 0.0 
0.0 0.0 0.0 
0.0 0.0 0.0 
0.0 0.0 0.0 
0.0 0.0 0.0 
0.0 0.0 0.0 
0.0 0.0 0.0 
0.0 0.0 0.0 
0.0 0.0 0.0 
0.0 0.0 0.0 
0.0 0.0 0.0 
0.0 0.0 0.0 
0.0 0.0 0.0 
0.0 0.0 0.0 
0.0 0.0 0.0 
0.0 0.0 0.0 
0.0 0.0 0.0 
0.0 0.0 0.0 
0.0 0.0 0.0 
0.0 0.0 0.0 
0.0 0.0 0.0 
0.0 0.0 0.0 
0.0 0.0 0.0 
0.0 0.0 0.0 
0.0 0.0 0.0 
0.0 0.0 0.0 
0.0 0.0 0.0 
0.0 0.0 0.0 
0.0 0.0 0.0 
0.0 0.0 0.0 
0.0 0.0 0.0 
0.0 0.0 0.0 
0.0 0.0 0.0 
0.0 0.0 0.0 
0.0 0.0 0.0 
0.0 0.0 0.0 
0.0 0.0 0.0 
0.0 0.0 0.0 
0.0 0.0 0.0 
0.0 0.0 0.0 
0.0 0.0 0.0 
0.0 0.0 0.0 
0.0 0.0 0.0 
0.0 0.0 0.0 
0.0 0.0 0.0 
0.0 0.0 0.0 
0.0 0.0 0.0 
0.0 0.0 0.0 
0.0 0.0 0.0 
0.0 0.0 0.0 
0.0 0.0 0.0 
0.0 0.0 0.0 
0.0 0.0 0.0 
0.0 0.0 0.0 
0.0 0.0 0.0 
0.0 0.0 0.0 
0.0 0.0 0.0 
0.0 0.0 0.0 
0.0 0.0 0.0 
0.0 0.0 0.0 
0.0 0.0 0.0 
0.0 0.0 0.0 
0.0 0.0 0.0 
0.0 0.0 0.0 
0.0 0.0 0.0 
0.0 0.0 0.0 
0.0 0.0 0.0 
0.0 0.0 0.0 
0.0 0.0 0.0 
0.0 0.0 0.0 
0.0 0.0 0.0 
0.0 0.0 0.0 
0.0 0.0 0.0 
0.0 0.0 0.0 
0.0 0.0 0.0 
0.0 0.0 0.0 
0.0 0.0 0.0 
0.0 0.0 0.0 
0.0 0.0 0.0 
0.0 0.0 0.0 
0.0 0.0 0.0 
0.0 0.0 0.0 
0.0 0.0 0.0 
0.0 0.0 0.0 
0.0 0.0 0.0 
0.0 0.0 0.0 
0.0 0.0 0.0 
0.0 0.0 0.0 
0.0 0.0 0.0 
0.0 0.0 0.0 
0.0 0.0 0.0 
0.0 0.0 0.0 
0.0 0.0 0.0 
0.0 0.0 0.0 
0.0 0.0 0.0 
0.0 0.0 0.0 
0.0 0.0 0.0 
0.0 0.0 0.0 
0.0 0.0 0.0 
0.0 0.0 0.0 
0.0 0.0 0.0 
0.0 0.0 0.0 
0.0 0.0 0.0 
0.0 0.0 0.0 
0.0 0.0 0.0 
0.0 0.0 0.0 
0.0 0.0 0.0 
0.0 0.0 0.0 
0.0 0.0 0.0 
0.0 0.0 0.0 
0.0 0.0 0.0 
0.0 0.0 0.0 
0.0 0.0 0.0 
0.0 0.0 0.0 
0.0 0.0 0.0 
0.0 0.0 0.0 
0.0 0.0 0.0 
0.0 0.0 0.0 
0.0 0.0 0.0 
0.0 0.0 0.0 
0.0 0.0 0.0 
0.0 0.0 0.0 
0.0 0.0 0.0 
0.0 0.0 0.0 
0.0 0.0 0.0 
0.0 0.0 0.0 
0.0 0.0 0.0 
0.0 0.0 0.0 
0.0 0.0 0.0 
0.0 0.0 0.0 
0.0 0.0 0.0 
0.0 0.0 0.0 
0.0 0.0 0.0 
0.0 0.0 0.0 
0.0 0.0 0.0 
0.0 0.0 0.0 
0.0 0.0 0.0 
0.0 0.0 0.0 
0.0 0.0 0.0 
0.0 0.0 0.0 
0.0 0.0 0.0 
0.0 0.0 0.0 
0.0 0.0 0.0 
0.0 0.0 0.0 
0.0 0.0 0.0 
0.0 0.0 0.0 
0.0 0.0 0.0 
0.0 0.0 0.0 
0.0 0.0 0.0 
0.0 0.0 0.0 
0.0 0.0 0.0 
0.0 0.0 0.0 
0.0 0.0 0.0 
0.0 0.0 0.0 
0.0 0.0 0.0 
0.0 0.0 0.0 
0.0 0.0 0.0 
0.0 0.0 0.0 
0.0 0.0 0.0 
0.0 0.0 0.0 
0.0 0.0 0.0 
0.0 0.0 0.0 
0.0 0.0 0.0 
0.0 0.0 0.0 
0.0 0.0 0.0 
0.0 0.0 0.0 
0.0 0.0 0.0 
0.0 0.0 0.0 
0.0 0.0 0.0 
0.0 0.0 0.0 
0.0 0.0 0.0 
0.0 0.0 0.0 
0.0 0.0 0.0 
0.0 0.0 0.0 
0.0 0.0 0.0 
0.0 0.0 0.0 
0.0 0.0 0.0 
0.0 0.0 0.0 
0.0 0.0 0.0 
0.0 0.0 0.0 
0.0 0.0 0.0 
0.0 0.0 0.0 
0.0 0.0 0.0 
0.0 0.0 0.0 
0.0 0.0 0.0 
0.0 0.0 0.0 
0.0 0.0 0.0 
0.0 0.0 0.0 
0.0 0.0 0.0 
0.0 0.0 0.0 
0.0 0.0 0.0 
0.0 0.0 0.0 
0.0 0.0 0.0 
0.0 0.0 0.0 
0.0 0.0 0.0 
0.0 0.0 0.0 
0.0 0.0 0.0 
0.0 0.0 0.0 
0.0 0.0 0.0 
0.0 0.0 0.0 
0.0 0.0 0.0 
0.0 0.0 0.0 
0.0 0.0 0.0 
0.0 0.0 0.0 
0.0 0.0 0.0 
0.0 0.0 0.0 
0.0 0.0 0.0 
0.0 0.0 0.0 
0.0 0.0 0.0 
0.0 0.0 0.0 
0.0 0.0 0.0 
0.0 0.0 0.0 
0.0 0.0 0.0 
0.0 0.0 0.0 
0.0 0.0 0.0 
0.0 0.0 0.0 
0.0 0.0 0.0 
0.0 0.0 0.0 
0.0 0.0 0.0 
0.0 0.0 0.0 
0.0 0.0 0.0 
0.0 0.0 0.0 
0.0 0.0 0.0 
0.0 0.0 0.0 
0.0 0.0 0.0 
0.0 0.0 0.0 
0.0 0.0 0.0 
0.0 0.0 0.0 
0.0 0.0 0.0 
0.0 0.0 0.0 
0.0 0.0 0.0 
0.0 0.0 0.0 
0.0 0.0 0.0 
0.0 0.0 0.0 
0.0 0.0 0.0 
0.0 0.0 0.0 
0.0 0.0 0.0 
0.0 0.0 0.0 
0.0 0.0 0.0 
0.0 0.0 0.0 
0.0 0.0 0.0 
0.0 0.0 0.0 
0.0 0.0 0.0 
0.0 0.0 0.0 
0.0 0.0 0.0 
0.0 0.0 0.0 
0.0 0.0 0.0 
0.0 0.0 0.0 
0.0 0.0 0.0 
0.0 0.0 0.0 
0.0 0.0 0.0 
0.0 0.0 0.0 
0.0 0.0 0.0 
0.0 0.0 0.0 
0.0 0.0 0.0 
0.0 0.0 0.0 
0.0 0.0 0.0 
0.0 0.0 0.0 
0.0 0.0 0.0 
0.0 0.0 0.0 
0.0 0.0 0.0 
0.0 0.0 0.0 
0.0 0.0 0.0 
0.0 0.0 0.0 
0.0 0.0 0.0 
0.0 0.0 0.0 
0.0 0.0 0.0 
0.0 0.0 0.0 
0.0 0.0 0.0 
0.0 0.0 0.0 
0.0 0.0 0.0 
0.0 0.0 0.0 
0.0 0.0 0.0 
0.0 0.0 0.0 
0.0 0.0 0.0 
0.0 0.0 0.0 
0.0 0.0 0.0 
0.0 0.0 0.0 
0.0 0.0 0.0 
0.0 0.0 0.0 
0.0 0.0 0.0 
0.0 0.0 0.0 
0.0 0.0 0.0 
0.0 0.0 0.0 
0.0 0.0 0.0 
0.0 0.0 0.0 
0.0 0.0 0.0 
0.0 0.0 0.0 
0.0 0.0 0.0 
0.0 0.0 0.0 
0.0 0.0 0.0 
0.0 0.0 0.0 
0.0 0.0 0.0 
0.0 0.0 0.0 
0.0 0.0 0.0 
0.0 0.0 0.0 
0.0 0.0 0.0 
0.0 0.0 0.0 
0.0 0.0 0.0 
0.0 0.0 0.0 
0.0 0.0 0.0 
0.0 0.0 0.0 
0.0 0.0 0.0 
0.0 0.0 0.0 
0.0 0.0 0.0 
0.0 0.0 0.0 
0.0 0.0 0.0 
0.0 0.0 0.0 
0.0 0.0 0.0 
0.0 0.0 0.0 
0.0 0.0 0.0 
0.0 0.0 0.0 
0.0 0.0 0.0 
0.0 0.0 0.0 
0.0 0.0 0.0 
0.0 0.0 0.0 
0.0 0.0 0.0 
0.0 0.0 0.0 
0.0 0.0 0.0 
0.0 0.0 0.0 
0.0 0.0 0.0 
0.0 0.0 0.0 
0.0 0.0 0.0 
0.0 0.0 0.0 
0.0 0.0 0.0 
0.0 0.0 0.0 
0.0 0.0 0.0 
0.0 0.0 0.0 
0.0 0.0 0.0 
0.0 0.0 0.0 
0.0 0.0 0.0 
0.0 0.0 0.0 
0.0 0.0 0.0 
0.0 0.0 0.0 
0.0 0.0 0.0 
0.0 0.0 0.0 
0.0 0.0 0.0 
0.0 0.0 0.0 
0.0 0.0 0.0 
0.0 0.0 0.0 
0.0 0.0 0.0 
0.0 0.0 0.0 
0.0 0.0 0.0 
0.0 0.0 0.0 
0.0 0.0 0.0 
0.0 0.0 0.0 
0.0 0.0 0.0 
0.0 0.0 0.0 
0.0 0.0 0.0 
0.0 0.0 0.0 
0.0 0.0 0.0 
0.0 0.0 0.0 
0.0 0.0 0.0 
0.0 0.0 0.0 
0.0 0.0 0.0 
0.0 0.0 0.0 
0.0 0.0 0.0 
0.0 0.0 0.0 
0.0 0.0 0.0 
0.0 0.0 0.0 
0.0 0.0 0.0 
0.0 0.0 0.0 
0.0 0.0 0.0 
0.0 0.0 0.0 
0.0 0.0 0.0 
0.0 0.0 0.0 
0.0 0.0 0.0 
0.0 0.0 0.0 
0.0 0.0 0.0 
0.0 0.0 0.0 
0.0 0.0 0.0 
0.0 0.0 0.0 
0.0 0.0 0.0 
0.0 0.0 0.0 
0.0 0.0 0.0 
0.0 0.0 0.0 
0.0 0.0 0.0 
0.0 0.0 0.0 
0.0 0.0 0.0 
0.0 0.0 0.0 
0.0 0.0 0.0 
0.0 0.0 0.0 
0.0 0.0 0.0 
0.0 0.0 0.0 
0.0 0.0 0.0 
0.0 0.0 0.0 
0.0 0.0 0.0 
0.0 0.0 0.0 
0.0 0.0 0.0 
0.0 0.0 0.0 
0.0 0.0 0.0 
0.0 0.0 0.0 
0.0 0.0 0.0 
0.0 0.0 0.0 
0.0 0.0 0.0 
0.0 0.0 0.0 
0.0 0.0 0.0 
0.0 0.0 0.0 
0.0 0.0 0.0 
0.0 0.0 0.0 
0.0 0.0 0.0 
0.0 0.0 0.0 
0.0 0.0 0.0 
0.0 0.0 0.0 
0.0 0.0 0.0 
0.0 0.0 0.0 
0.0 0.0 0.0 
0.0 0.0 0.0 
0.0 0.0 0.0 
0.0 0.0 0.0 
0.0 0.0 0.0 
0.0 0.0 0.0 
0.0 0.0 0.0 
0.0 0.0 0.0 
0.0 0.0 0.0 
0.0 0.0 0.0 
0.0 0.0 0.0 
0.0 0.0 0.0 
0.0 0.0 0.0 
0.0 0.0 0.0 
0.0 0.0 0.0 
0.0 0.0 0.0 
0.0 0.0 0.0 
0.0 0.0 0.0 
0.0 0.0 0.0 
0.0 0.0 0.0 
0.0 0.0 0.0 
0.0 0.0 0.0 
0.0 0.0 0.0 
0.0 0.0 0.0 
0.0 0.0 0.0 
0.0 0.0 0.0 
0.0 0.0 0.0 
0.0 0.0 0.0 
0.0 0.0 0.0 
0.0 0.0 0.0 
0.0 0.0 0.0 
0.0 0.0 0.0 
0.0 0.0 0.0 
0.0 0.0 0.0 
0.0 0.0 0.0 
0.0 0.0 0.0 
0.0 0.0 0.0 
0.0 0.0 0.0 
0.0 0.0 0.0 
0.0 0.0 0.0 
0.0 0.0 0.0 
0.0 0.0 0.0 
0.0 0.0 0.0 
0.0 0.0 0.0 
0.0 0.0 0.0 
0.0 0.0 0.0 
0.0 0.0 0.0 
0.0 0.0 0.0 
0.0 0.0 0.0 
0.0 0.0 0.0 
0.0 0.0 0.0 
0.0 0.0 0.0 
0.0 0.0 0.0 
0.0 0.0 0.0 
0.0 0.0 0.0 
0.0 0.0 0.0 
0.0 0.0 0.0 
0.0 0.0 0.0 
0.0 0.0 0.0 
0.0 0.0 0.0 
0.0 0.0 0.0 
0.0 0.0 0.0 
0.0 0.0 0.0 
0.0 0.0 0.0 
0.0 0.0 0.0 
0.0 0.0 0.0 
0.0 0.0 0.0 
0.0 0.0 0.0 
0.0 0.0 0.0 
0.0 0.0 0.0 
0.0 0.0 0.0 
0.0 0.0 0.0 
0.0 0.0 0.0 
0.0 0.0 0.0 
0.0 0.0 0.0 
0.0 0.0 0.0 
0.0 0.0 0.0 
0.0 0.0 0.0 
0.0 0.0 0.0 
0.0 0.0 0.0 
0.0 0.0 0.0 
0.0 0.0 0.0 
0.0 0.0 0.0 
0.0 0.0 0.0 
0.0 0.0 0.0 
0.0 0.0 0.0 
0.0 0.0 0.0 
0.0 0.0 0.0 
0.0 0.0 0.0 
0.0 0.0 0.0 
0.0 0.0 0.0 
0.0 0.0 0.0 
0.0 0.0 0.0 
0.0 0.0 0.0 
0.0 0.0 0.0 
0.0 0.0 0.0 
0.0 0.0 0.0 
0.0 0.0 0.0 
0.0 0.0 0.0 
0.0 0.0 0.0 
0.0 0.0 0.0 
0.0 0.0 0.0 
0.0 0.0 0.0 
0.0 0.0 0.0 
0.0 0.0 0.0 
0.0 0.0 0.0 
0.0 0.0 0.0 
0.0 0.0 0.0 
0.0 0.0 0.0 
0.0 0.0 0.0 
0.0 0.0 0.0 
0.0 0.0 0.0 
0.0 0.0 0.0 
0.0 0.0 0.0 
0.0 0.0 0.0 
0.0 0.0 0.0 
0.0 0.0 0.0 
0.0 0.0 0.0 
0.0 0.0 0.0 
0.0 0.0 0.0 
0.0 0.0 0.0 
0.0 0.0 0.0 
0.0 0.0 0.0 
0.0 0.0 0.0 
0.0 0.0 0.0 
0.0 0.0 0.0 
0.0 0.0 0.0 
0.0 0.0 0.0 
0.0 0.0 0.0 
0.0 0.0 0.0 
0.0 0.0 0.0 
0.0 0.0 0.0 
0.0 0.0 0.0 
0.0 0.0 0.0 
0.0 0.0 0.0 
0.0 0.0 0.0 
0.0 0.0 0.0 
0.0 0.0 0.0 
0.0 0.0 0.0 
0.0 0.0 0.0 
0.0 0.0 0.0 
0.0 0.0 0.0 
0.0 0.0 0.0 
0.0 0.0 0.0 
0.0 0.0 0.0 
0.0 0.0 0.0 
0.0 0.0 0.0 
0.0 0.0 0.0 
0.0 0.0 0.0 
0.0 0.0 0.0 
0.0 0.0 0.0 
0.0 0.0 0.0 
0.0 0.0 0.0 
0.0 0.0 0.0 
0.0 0.0 0.0 
0.0 0.0 0.0 
0.0 0.0 0.0 
0.0 0.0 0.0 
0.0 0.0 0.0 
0.0 0.0 0.0 
0.0 0.0 0.0 
0.0 0.0 0.0 
0.0 0.0 0.0 
0.0 0.0 0.0 
0.0 0.0 0.0 
0.0 0.0 0.0 
0.0 0.0 0.0 
0.0 0.0 0.0 
0.0 0.0 0.0 
0.0 0.0 0.0 
0.0 0.0 0.0 
0.0 0.0 0.0 
0.0 0.0 0.0 
0.0 0.0 0.0 
0.0 0.0 0.0 
0.0 0.0 0.0 
0.0 0.0 0.0 
0.0 0.0 0.0 
0.0 0.0 0.0 
0.0 0.0 0.0 
0.0 0.0 0.0 
0.0 0.0 0.0 
0.0 0.0 0.0 
0.0 0.0 0.0 
0.0 0.0 0.0 
0.0 0.0 0.0 
0.0 0.0 0.0 
0.0 0.0 0.0 
0.0 0.0 0.0 
0.0 0.0 0.0 
0.0 0.0 0.0 
0.0 0.0 0.0 
0.0 0.0 0.0 
0.0 0.0 0.0 
0.0 0.0 0.0 
0.0 0.0 0.0 
0.0 0.0 0.0 
0.0 0.0 0.0 
0.0 0.0 0.0 
0.0 0.0 0.0 
0.0 0.0 0.0 
0.0 0.0 0.0 
0.0 0.0 0.0 
0.0 0.0 0.0 
0.0 0.0 0.0 
0.0 0.0 0.0 
0.0 0.0 0.0 
0.0 0.0 0.0 
0.0 0.0 0.0 
0.0 0.0 0.0 
0.0 0.0 0.0 
0.0 0.0 0.0 
0.0 0.0 0.0 
0.0 0.0 0.0 
0.0 0.0 0.0 
0.0 0.0 0.0 
0.0 0.0 0.0 
0.0 0.0 0.0 
0.0 0.0 0.0 
0.0 0.0 0.0 
0.0 0.0 0.0 
0.0 0.0 0.0 
0.0 0.0 0.0 
0.0 0.0 0.0 
0.0 0.0 0.0 
0.0 0.0 0.0 
0.0 0.0 0.0 
0.0 0.0 0.0 
0.0 0.0 0.0 
0.0 0.0 0.0 
0.0 0.0 0.0 
0.0 0.0 0.0 
0.0 0.0 0.0 
0.0 0.0 0.0 
0.0 0.0 0.0 
0.0 0.0 0.0 
0.0 0.0 0.0 
0.0 0.0 0.0 
0.0 0.0 0.0 
0.0 0.0 0.0 
0.0 0.0 0.0 
0.0 0.0 0.0 
0.0 0.0 0.0 
0.0 0.0 0.0 
0.0 0.0 0.0 
0.0 0.0 0.0 
0.0 0.0 0.0 
0.0 0.0 0.0 
0.0 0.0 0.0 
0.0 0.0 0.0 
0.0 0.0 0.0 
0.0 0.0 0.0 
0.0 0.0 0.0 
0.0 0.0 0.0 
0.0 0.0 0.0 
0.0 0.0 0.0 
0.0 0.0 0.0 
0.0 0.0 0.0 
0.0 0.0 0.0 
0.0 0.0 0.0 
0.0 0.0 0.0 
0.0 0.0 0.0 
0.0 0.0 0.0 
0.0 0.0 0.0 
0.0 0.0 0.0 
0.0 0.0 0.0 
0.0 0.0 0.0 
0.0 0.0 0.0 
0.0 0.0 0.0 
0.0 0.0 0.0 
0.0 0.0 0.0 
0.0 0.0 0.0 
0.0 0.0 0.0 
0.0 0.0 0.0 
0.0 0.0 0.0 
0.0 0.0 0.0 
0.0 0.0 0.0 
0.0 0.0 0.0 
0.0 0.0 0.0 
0.0 0.0 0.0 
0.0 0.0 0.0 
0.0 0.0 0.0 
0.0 0.0 0.0 
0.0 0.0 0.0 
0.0 0.0 0.0 
0.0 0.0 0.0 
0.0 0.0 0.0 
0.0 0.0 0.0 
0.0 0.0 0.0 
0.0 0.0 0.0 
0.0 0.0 0.0 
0.0 0.0 0.0 
0.0 0.0 0.0 
0.0 0.0 0.0 
0.0 0.0 0.0 
0.0 0.0 0.0 
0.0 0.0 0.0 
0.0 0.0 0.0 
0.0 0.0 0.0 
0.0 0.0 0.0 
0.0 0.0 0.0 
0.0 0.0 0.0 
0.0 0.0 0.0 
0.0 0.0 0.0 
0.0 0.0 0.0 
0.0 0.0 0.0 
0.0 0.0 0.0 
0.0 0.0 0.0 
0.0 0.0 0.0 
0.0 0.0 0.0 
0.0 0.0 0.0 
0.0 0.0 0.0 
0.0 0.0 0.0 
0.0 0.0 0.0 
0.0 0.0 0.0 
0.0 0.0 0.0 
0.0 0.0 0.0 
0.0 0.0 0.0 
0.0 0.0 0.0 
0.0 0.0 0.0 
0.0 0.0 0.0 
0.0 0.0 0.0 
0.0 0.0 0.0 
0.0 0.0 0.0 
0.0 0.0 0.0 
0.0 0.0 0.0 
0.0 0.0 0.0 
0.0 0.0 0.0 
0.0 0.0 0.0 
0.0 0.0 0.0 
0.0 0.0 0.0 
0.0 0.0 0.0 
0.0 0.0 0.0 
0.0 0.0 0.0 
0.0 0.0 0.0 
0.0 0.0 0.0 
0.0 0.0 0.0 
0.0 0.0 0.0 
0.0 0.0 0.0 
0.0 0.0 0.0 
0.0 0.0 0.0 
0.0 0.0 0.0 
0.0 0.0 0.0 
0.0 0.0 0.0 
0.0 0.0 0.0 
0.0 0.0 0.0 
0.0 0.0 0.0 
0.0 0.0 0.0 
0.0 0.0 0.0 
0.0 0.0 0.0 
0.0 0.0 0.0 
0.0 0.0 0.0 
0.0 0.0 0.0 
0.0 0.0 0.0 
0.0 0.0 0.0 
0.0 0.0 0.0 
0.0 0.0 0.0 
0.0 0.0 0.0 
0.0 0.0 0.0 
0.0 0.0 0.0 
0.0 0.0 0.0 
0.0 0.0 0.0 
0.0 0.0 0.0 
0.0 0.0 0.0 
0.0 0.0 0.0 
0.0 0.0 0.0 
0.0 0.0 0.0 
0.0 0.0 0.0 
0.0 0.0 0.0 
0.0 0.0 0.0 
0.0 0.0 0.0 
0.0 0.0 0.0 
0.0 0.0 0.0 
0.0 0.0 0.0 
0.0 0.0 0.0 
0.0 0.0 0.0 
0.0 0.0 0.0 
0.0 0.0 0.0 
0.0 0.0 0.0 
0.0 0.0 0.0 
0.0 0.0 0.0 
0.0 0.0 0.0 
0.0 0.0 0.0 
0.0 0.0 0.0 
0.0 0.0 0.0 
0.0 0.0 0.0 
0.0 0.0 0.0 
0.0 0.0 0.0 
0.0 0.0 0.0 
0.0 0.0 0.0 
0.0 0.0 0.0 
0.0 0.0 0.0 
0.0 0.0 0.0 
0.0 0.0 0.0 
0.0 0.0 0.0 
0.0 0.0 0.0 
0.0 0.0 0.0 
0.0 0.0 0.0 
0.0 0.0 0.0 
0.0 0.0 0.0 
0.0 0.0 0.0 
0.0 0.0 0.0 
0.0 0.0 0.0 
0.0 0.0 0.0 
0.0 0.0 0.0 
0.0 0.0 0.0 
0.0 0.0 0.0 
0.0 0.0 0.0 
0.0 0.0 0.0 
0.0 0.0 0.0 
0.0 0.0 0.0 
0.0 0.0 0.0 
0.0 0.0 0.0 
0.0 0.0 0.0 
0.0 0.0 0.0 
0.0 0.0 0.0 
0.0 0.0 0.0 
0.0 0.0 0.0 
0.0 0.0 0.0 
0.0 0.0 0.0 
0.0 0.0 0.0 
0.0 0.0 0.0 
0.0 0.0 0.0 
0.0 0.0 0.0 
0.0 0.0 0.0 
0.0 0.0 0.0 
0.0 0.0 0.0 
0.0 0.0 0.0 
0.0 0.0 0.0 
0.0 0.0 0.0 
0.0 0.0 0.0 
0.0 0.0 0.0 
0.0 0.0 0.0 
0.0 0.0 0.0 
0.0 0.0 0.0 
0.0 0.0 0.0 
0.0 0.0 0.0 
0.0 0.0 0.0 
0.0 0.0 0.0 
0.0 0.0 0.0 
0.0 0.0 0.0 
0.0 0.0 0.0 
0.0 0.0 0.0 
0.0 0.0 0.0 
0.0 0.0 0.0 
0.0 0.0 0.0 
0.0 0.0 0.0 
0.0 0.0 0.0 
0.0 0.0 0.0 
0.0 0.0 0.0 
0.0 0.0 0.0 
0.0 0.0 0.0 
0.0 0.0 0.0 
0.0 0.0 0.0 
0.0 0.0 0.0 
0.0 0.0 0.0 
0.0 0.0 0.0 
0.0 0.0 0.0 
0.0 0.0 0.0 
0.0 0.0 0.0 
0.0 0.0 0.0 
0.0 0.0 0.0 
0.0 0.0 0.0 
0.0 0.0 0.0 
0.0 0.0 0.0 
0.0 0.0 0.0 
0.0 0.0 0.0 
0.0 0.0 0.0 
0.0 0.0 0.0 
0.0 0.0 0.0 
0.0 0.0 0.0 
0.0 0.0 0.0 
0.0 0.0 0.0 
0.0 0.0 0.0 
0.0 0.0 0.0 
0.0 0.0 0.0 
0.0 0.0 0.0 
0.0 0.0 0.0 
0.0 0.0 0.0 
0.0 0.0 0.0 
0.0 0.0 0.0 
0.0 0.0 0.0 
0.0 0.0 0.0 
0.0 0.0 0.0 
0.0 0.0 0.0 
0.0 0.0 0.0 
0.0 0.0 0.0 
0.0 0.0 0.0 
0.0 0.0 0.0 
0.0 0.0 0.0 
0.0 0.0 0.0 
0.0 0.0 0.0 
0.0 0.0 0.0 
0.0 0.0 0.0 
0.0 0.0 0.0 
0.0 0.0 0.0 
0.0 0.0 0.0 
0.0 0.0 0.0 
0.0 0.0 0.0 
0.0 0.0 0.0 
0.0 0.0 0.0 
0.0 0.0 0.0 
0.0 0.0 0.0 
0.0 0.0 0.0 
0.0 0.0 0.0 
0.0 0.0 0.0 
0.0 0.0 0.0 
0.0 0.0 0.0 
0.0 0.0 0.0 
0.0 0.0 0.0 
0.0 0.0 0.0 
0.0 0.0 0.0 
0.0 0.0 0.0 
0.0 0.0 0.0 
0.0 0.0 0.0 
0.0 0.0 0.0 
0.0 0.0 0.0 
0.0 0.0 0.0 
0.0 0.0 0.0 
0.0 0.0 0.0 
0.0 0.0 0.0 
0.0 0.0 0.0 
0.0 0.0 0.0 
0.0 0.0 0.0 
0.0 0.0 0.0 
0.0 0.0 0.0 
0.0 0.0 0.0 
0.0 0.0 0.0 
0.0 0.0 0.0 

TENSORS element_materi_stress float
-2.848768244339e+01 1.975065573505e+01 0.0 
1.975065573505e+01 -3.897129875758e+01 0.0 
0.0 0.0 -1.983769436029e+01 
-2.863589127330e+01 1.791499873600e+01 0.0 
1.791499873600e+01 -4.089067974737e+01 0.0 
0.0 0.0 -2.045797130620e+01 
-1.094910913179e+02 2.454153434851e+01 0.0 
2.454153434851e+01 -2.467681946516e+02 0.0 
0.0 0.0 -1.064777857909e+02 
-9.335928551684e+01 3.036286551170e+00 0.0 
3.036286551170e+00 -2.087032596086e+02 0.0 
0.0 0.0 -9.021876353763e+01 
-4.466551960453e+01 -1.889962045905e-01 0.0 
-1.889962045905e-01 -6.966174437247e+01 0.0 
0.0 0.0 -3.389817919310e+01 
-2.137453641688e+01 4.602955094047e+00 0.0 
4.602955094047e+00 -3.900698630284e+01 0.0 
0.0 0.0 -1.771445681591e+01 
-4.388747194757e+01 -6.015519599163e-01 0.0 
-6.015519599163e-01 -6.985087316535e+01 0.0 
0.0 0.0 -3.372150353387e+01 
-2.984140225816e+01 1.918706470252e+01 0.0 
1.918706470252e+01 -4.407826215454e+01 0.0 
0.0 0.0 -2.177589932381e+01 
-4.494080074641e+01 1.824717587595e+00 0.0 
1.824717587595e+00 -7.067007398469e+01 0.0 
0.0 0.0 -3.428326241933e+01 
-9.268300650801e+01 2.853717413309e+00 0.0 
2.853717413309e+00 -2.070044159651e+02 0.0 
0.0 0.0 -8.950622674193e+01 
-9.630763200851e+01 -2.868234980596e-01 0.0 
-2.868234980596e-01 -2.525236698097e+02 0.0 
0.0 0.0 -1.042493905455e+02 
-2.526892089682e+01 1.702355241147e+01 0.0 
1.702355241147e+01 -3.353670678832e+01 0.0 
0.0 0.0 -1.724168830554e+01 
-1.505772060828e+02 6.107836974688e-01 0.0 
6.107836974688e-01 -3.618514279123e+02 0.0 
0.0 0.0 -1.533285901985e+02 
-5.631374524016e+01 2.986284604177e+00 0.0 
2.986284604177e+00 -8.830509907806e+01 0.0 
0.0 0.0 -4.298565329546e+01 
-1.555064818781e+02 2.808612759993e+00 0.0 
2.808612759993e+00 -3.695946739959e+02 0.0 
0.0 0.0 -1.571303467622e+02 
-9.489888246310e+01 2.229259241657e+00 0.0 
2.229259241657e+00 -2.168806017938e+02 0.0 
0.0 0.0 -9.313384527707e+01 
-4.427904365027e+01 1.232998995933e+00 0.0 
1.232998995933e+00 -6.594459007216e+01 0.0 
0.0 0.0 -3.266709011673e+01 
-2.085875551956e+01 2.707286142120e+00 0.0 
2.707286142120e+00 -3.946857872719e+01 0.0 
0.0 0.0 -1.769820027402e+01 
-2.809246887609e+01 -1.599562680255e-01 0.0 
-1.599562680255e-01 -7.730273235146e+01 0.0 
0.0 0.0 -3.121856036827e+01 
-2.845784369295e+01 -7.734696860185e-01 0.0 
-7.734696860185e-01 -7.993601185779e+01 0.0 
0.0 0.0 -3.211815666522e+01 
-9.439636644534e+01 5.000128207403e+00 0.0 
5.000128207403e+00 -2.082463543329e+02 0.0 
0.0 0.0 -9.039281623346e+01 
-2.848537622551e+01 1.846360941151e+01 0.0 
1.846360941151e+01 -3.916098774843e+01 0.0 
0.0 0.0 -1.989390919218e+01 
-3.169295097254e+01 2.063898160242e+01 0.0 
2.063898160242e+01 -4.296255148016e+01 0.0 
0.0 0.0 -2.199665073581e+01 
-1.340688175019e+02 1.531278971545e+01 0.0 
1.531278971545e+01 -3.325304245277e+02 0.0 
0.0 0.0 -1.395797726089e+02 
-6.684647568520e+01 6.767792858262e+00 0.0 
6.767792858262e+00 -1.094053550369e+02 0.0 
0.0 0.0 -5.247554921663e+01 
-1.020198668291e+02 1.113297176653e+00 0.0 
1.113297176653e+00 -2.654682095552e+02 0.0 
0.0 0.0 -1.098464229153e+02 
-4.201016424180e+01 4.918995528213e+00 0.0 
4.918995528213e+00 -5.171124984187e+01 0.0 
0.0 0.0 -2.771642422510e+01 
-1.258143160547e+02 2.904188438254e+01 0.0 
2.904188438254e+01 -3.018887368975e+02 0.0 
0.0 0.0 -1.279109158856e+02 
-7.028763134525e+01 1.042061242859e+01 0.0 
1.042061242859e+01 -1.113240370842e+02 0.0 
0.0 0.0 -5.408350052883e+01 
-1.380189784371e+02 1.382971781288e+01 0.0 
1.382971781288e+01 -3.415067766650e+02 0.0 
0.0 0.0 -1.434577265306e+02 
-2.598571844085e+01 -1.875658830354e+00 0.0 
-1.875658830354e+00 -5.778797510451e+01 0.0 
0.0 0.0 -2.473210806361e+01 
-1.416365574208e+01 -1.719882418221e+00 0.0 
-1.719882418221e+00 -2.600898745047e+01 0.0 
0.0 0.0 -1.165179295777e+01 
-1.113715574168e+02 2.505052377980e+01 0.0 
2.505052377980e+01 -2.462824182947e+02 0.0 
0.0 0.0 -1.068961927134e+02 
-1.254952756302e+02 1.188256319948e+00 0.0 
1.188256319948e+00 -3.136523782975e+02 0.0 
0.0 0.0 -1.313442961783e+02 
-1.472624550253e+02 9.616202992267e+00 0.0 
9.616202992267e+00 -3.560819211466e+02 0.0 
0.0 0.0 -1.506033128516e+02 
-1.577815809724e+02 4.416765216891e+00 0.0 
4.416765216891e+00 -3.760171846661e+02 0.0 
0.0 0.0 -1.597396296916e+02 
-1.587221938647e+02 7.053224444279e+00 0.0 
7.053224444279e+00 -3.761872152783e+02 0.0 
0.0 0.0 -1.600728227429e+02 
-1.349646532609e+02 2.099473978147e+01 0.0 
2.099473978147e+01 -3.312795873746e+02 0.0 
0.0 0.0 -1.394732721906e+02 
-3.573768591047e+01 1.338402569493e+00 0.0 
1.338402569493e+00 -5.122577698163e+01 0.0 
0.0 0.0 -2.568903886763e+01 
-3.544775632062e+01 -1.384030266231e+00 0.0 
-1.384030266231e+00 -5.174224166409e+01 0.0 
0.0 0.0 -2.575699939541e+01 
-3.535781825861e+01 2.130080556459e+01 0.0 
2.130080556459e+01 -4.319031796955e+01 0.0 
0.0 0.0 -2.316444086845e+01 
-1.497921276508e+02 1.095039778042e+01 0.0 
1.095039778042e+01 -3.584963427238e+02 0.0 
0.0 0.0 -1.520865411124e+02 
-2.666279965196e+01 1.700622983060e+01 0.0 
1.700622983060e+01 -3.708898592741e+01 0.0 
0.0 0.0 -1.872553567381e+01 
-4.489101198383e+01 4.710589233891e+00 0.0 
4.710589233891e+00 -5.198439691950e+01 0.0 
0.0 0.0 -2.866262267100e+01 
-8.975527298269e+01 1.212439611516e+00 0.0 
1.212439611516e+00 -1.971385247671e+02 0.0 
0.0 0.0 -8.566813932494e+01 
-2.603844272633e+01 1.628366343152e+01 0.0 
1.628366343152e+01 -3.691657387989e+01 0.0 
0.0 0.0 -1.848650498186e+01 
-1.987990582820e+01 -2.275319007840e+00 0.0 
-2.275319007840e+00 -4.323603740081e+01 0.0 
0.0 0.0 -1.853478296870e+01 
-8.876603849415e+01 1.014318533459e+00 0.0 
1.014318533459e+00 -1.983184925915e+02 0.0 
0.0 0.0 -8.572535932568e+01 
-1.699687096799e+01 -1.828668648554e+00 0.0 
-1.828668648554e+00 -2.565095364768e+01 0.0 
0.0 0.0 -1.278422081600e+01 
-5.381841369994e+01 4.015502529323e+00 0.0 
4.015502529323e+00 -7.971266196256e+01 0.0 
0.0 0.0 -3.965932269875e+01 
-3.342807348808e+01 2.135599259609e+01 0.0 
2.135599259609e+01 -4.406725108389e+01 0.0 
0.0 0.0 -2.284859737159e+01 
-3.578180538828e+01 -3.846848896381e-01 0.0 
-3.846848896381e-01 -9.721483476779e+01 0.0 
0.0 0.0 -3.949899204682e+01 
-2.869422316386e+01 -1.517256487994e+00 0.0 
-1.517256487994e+00 -7.895286282262e+01 0.0 
0.0 0.0 -3.189412579595e+01 
-3.136104429824e+01 1.843463787623e+01 0.0 
1.843463787623e+01 -4.031582827118e+01 0.0 
0.0 0.0 -2.110306177083e+01 
-1.039120961274e+02 1.931223743386e+01 0.0 
1.931223743386e+01 -2.315158975839e+02 0.0 
0.0 0.0 -1.002283981134e+02 
-4.664517917936e+01 -2.716117315020e-01 0.0 
-2.716117315020e-01 -1.282860384502e+02 0.0 
0.0 0.0 -5.207936528888e+01 
-3.597554107479e+01 -9.029707752413e-01 0.0 
-9.029707752413e-01 -1.001597882423e+02 0.0 
0.0 0.0 -4.044059879513e+01 
-1.250883815768e+02 -1.041406824902e-01 0.0 
-1.041406824902e-01 -3.135288866005e+02 0.0 
0.0 0.0 -1.311851804532e+02 
-2.227305847088e+01 -1.274888906939e+00 0.0 
-1.274888906939e+00 -5.925933735016e+01 0.0 
0.0 0.0 -2.405971874631e+01 
-9.571163004455e+01 4.142336717107e+00 0.0 
4.142336717107e+00 -2.172677979755e+02 0.0 
0.0 0.0 -9.349382840601e+01 
-2.184192112866e+01 -9.718002233016e-01 0.0 
-9.718002233016e-01 -2.216422002713e+01 0.0 
0.0 0.0 -1.280184234674e+01 
-1.200048840132e+02 2.373536081584e+01 0.0 
2.373536081584e+01 -2.982674717500e+02 0.0 
0.0 0.0 -1.250817067290e+02 
-3.668730602492e+01 1.874113086775e+01 0.0 
1.874113086775e+01 -9.133303662149e+01 0.0 
0.0 0.0 -3.800610279392e+01 
-2.729820986639e+01 -1.553184010750e+00 0.0 
-1.553184010750e+00 -7.246040228363e+01 0.0 
0.0 0.0 -2.952758364501e+01 
-1.502746396006e+02 3.554798790589e+00 0.0 
3.554798790589e+00 -3.611155487080e+02 0.0 
0.0 0.0 -1.530170564926e+02 
-2.954378130951e+01 1.842406298256e+01 0.0 
1.842406298256e+01 -3.941011431346e+01 0.0 
0.0 0.0 -2.028616868689e+01 
-1.797625794076e+01 -1.108082306653e+00 0.0 
-1.108082306653e+00 -2.092243519498e+01 0.0 
0.0 0.0 -1.197156189547e+01 
-1.138065872316e+02 2.687159712786e+01 0.0 
2.687159712786e+01 -2.512690478265e+02 0.0 
0.0 0.0 -1.091226905174e+02 
-2.520036248787e+01 -2.546620747960e+00 0.0 
-2.546620747960e+00 -6.357366346414e+01 0.0 
0.0 0.0 -2.623220778560e+01 
-1.187191773622e+02 2.801525210542e+01 0.0 
2.801525210542e+01 -2.760379638696e+02 0.0 
0.0 0.0 -1.180271423695e+02 
-1.068045839004e+02 1.656959466750e+00 0.0 
1.656959466750e+00 -2.758124076848e+02 0.0 
0.0 0.0 -1.143850974756e+02 
-1.006571939974e+02 1.259055054621e+01 0.0 
1.259055054621e+01 -2.362001193272e+02 0.0 
0.0 0.0 -1.006571939974e+02 
-1.203992078167e+02 2.617005702273e+01 0.0 
2.617005702273e+01 -2.877714811295e+02 0.0 
0.0 0.0 -1.220512066839e+02 
-1.050808696820e+01 -9.554883924905e-01 0.0 
-9.554883924905e-01 -2.984673686580e+01 0.0 
0.0 0.0 -1.170644715020e+01 
-4.802128777461e+01 -1.140909107899e+00 0.0 
-1.140909107899e+00 -1.335080438039e+02 0.0 
0.0 0.0 -5.405879947354e+01 
-9.786385926650e+01 9.864804505426e+00 0.0 
9.864804505426e+00 -2.136744547676e+02 0.0 
0.0 0.0 -9.306149421024e+01 
-1.086962127746e+02 2.116502314862e+01 0.0 
2.116502314862e+01 -2.358057114762e+02 0.0 
0.0 0.0 -1.029505772752e+02 
-2.375206490544e+01 1.370845731608e+01 0.0 
1.370845731608e+01 -3.401650531996e+01 0.0 
0.0 0.0 -1.693057106762e+01 
-2.145205610456e+01 -1.363863099325e+00 0.0 
-1.363863099325e+00 -5.912634182745e+01 0.0 
0.0 0.0 -2.377351937960e+01 
-2.532207464731e+01 1.543540984085e+01 0.0 
1.543540984085e+01 -3.458422172392e+01 0.0 
0.0 0.0 -1.757188891137e+01 
-2.442262561788e+01 -3.506499338920e+00 0.0 
-3.506499338920e+00 -6.303241084799e+01 0.0 
0.0 0.0 -2.583651093976e+01 
-4.470153001215e+01 9.006171600170e-01 0.0 
9.006171600170e-01 -6.541792870127e+01 0.0 
0.0 0.0 -3.263583761403e+01 
-3.118784841307e+01 2.056546182237e+01 0.0 
2.056546182237e+01 -4.297570897282e+01 0.0 
0.0 0.0 -2.184906721577e+01 
-2.650123780519e+01 1.772303827532e+01 0.0 
1.772303827532e+01 -3.486563584750e+01 0.0 
0.0 0.0 -1.801006209581e+01 
-5.021642890307e+01 2.220645567075e+00 0.0 
2.220645567075e+00 -8.112722262959e+01 0.0 
0.0 0.0 -3.900309545980e+01 
-4.864687730393e+01 3.476134374635e-02 0.0 
3.476134374635e-02 -8.042283277944e+01 0.0 
0.0 0.0 -3.832091302501e+01 
-1.109303654021e+02 1.433425641504e+00 0.0 
1.433425641504e+00 -2.842825438464e+02 0.0 
0.0 0.0 -1.181638727746e+02 
-1.211232524826e+02 -6.834445244289e-01 0.0 
-6.834445244289e-01 -3.053884235205e+02 0.0 
0.0 0.0 -1.275535028009e+02 
-9.580000999601e+01 2.409920776220e+01 0.0 
2.409920776220e+01 -1.958514115325e+02 0.0 
0.0 0.0 -8.709542645856e+01 
-4.600115391959e+01 2.251632148194e+00 0.0 
2.251632148194e+00 -6.944068413092e+01 0.0 
0.0 0.0 -3.423255141515e+01 
-1.327572392986e+01 -1.746893354411e+00 0.0 
-1.746893354411e+00 -2.575978290348e+01 0.0 
0.0 0.0 -1.166676726933e+01 
-5.287756082789e+01 6.331497884941e+00 0.0 
6.331497884941e+00 -7.034950115059e+01 0.0 
0.0 0.0 -3.656811859354e+01 
-7.266709028677e+01 1.338457127259e+00 0.0 
1.338457127259e+00 -1.492828379048e+02 0.0 
0.0 0.0 -6.618497845747e+01 
-7.239069290441e+01 7.454568362837e-01 0.0 
7.454568362837e-01 -1.458476480410e+02 0.0 
0.0 0.0 -6.507150228364e+01 
-1.065815620167e+02 1.405382933783e+01 0.0 
1.405382933783e+01 -2.396762275246e+02 0.0 
0.0 0.0 -1.034773368624e+02 
-1.411676217631e+02 2.407619700293e+01 0.0 
2.407619700293e+01 -3.369985098006e+02 0.0 
0.0 0.0 -1.430498394691e+02 
-4.615550203434e+01 1.999747926963e+00 0.0 
1.999747926963e+00 -6.530725253613e+01 0.0 
0.0 0.0 -3.303882637114e+01 
-1.467036215070e+02 1.077554258983e+01 0.0 
1.077554258983e+01 -3.579876616531e+02 0.0 
0.0 0.0 -1.510073849480e+02 
-5.469781396907e+01 8.036606725127e-01 0.0 
8.036606725127e-01 -1.002890817178e+02 0.0 
0.0 0.0 -4.609606870605e+01 
-3.546563120268e+01 2.008049183345e+01 0.0 
2.008049183345e+01 -7.636182251625e+01 0.0 
0.0 0.0 -3.314823611568e+01 
-4.115870905786e+01 1.315950624800e+00 0.0 
1.315950624800e+00 -6.070292817583e+01 0.0 
0.0 0.0 -3.015849117011e+01 
-1.548258014034e+02 1.550247985162e+00 0.0 
1.550247985162e+00 -3.691910564376e+02 0.0 
0.0 0.0 -1.568050573523e+02 
-9.915840239062e+01 2.089618364711e+01 0.0 
2.089618364711e+01 -2.574310902601e+02 0.0 
0.0 0.0 -1.065768477952e+02 
-1.225866130287e+02 2.529047552131e+01 0.0 
2.529047552131e+01 -2.997148564389e+02 0.0 
0.0 0.0 -1.262904408403e+02 
-3.395158989928e+01 1.599869708637e+01 0.0 
1.599869708637e+01 -8.737291209265e+01 0.0 
0.0 0.0 -3.599735059758e+01 
-2.368577124721e+01 -2.430577069447e+00 0.0 
-2.430577069447e+00 -4.243146131336e+01 0.0 
0.0 0.0 -1.943516976817e+01 
-1.402172097807e+02 1.989611920904e+00 0.0 
1.989611920904e+00 -3.422197359281e+02 0.0 
0.0 0.0 -1.443310837127e+02 
-7.920846760388e+01 1.188166980971e+00 0.0 
1.188166980971e+00 -1.652602032268e+02 0.0 
0.0 0.0 -7.294060124922e+01 
-2.155501515945e+01 -1.604377770290e+00 0.0 
-1.604377770290e+00 -2.542275751970e+01 0.0 
0.0 0.0 -1.369333180374e+01 
-1.544023123518e+02 4.822104671041e+00 0.0 
4.822104671041e+00 -3.665206437361e+02 0.0 
0.0 0.0 -1.558768868264e+02 
-9.039291996919e+01 2.167253019701e+01 0.0 
2.167253019701e+01 -1.878954517915e+02 0.0 
0.0 0.0 -8.308651152820e+01 
-7.689101882828e+00 3.502771626279e-01 0.0 
3.502771626279e-01 -2.207379824164e+01 0.0 
0.0 0.0 -8.528870037340e+00 
-4.604454221977e+01 1.579555691409e+01 0.0 
1.579555691409e+01 -1.353239354353e+02 0.0 
0.0 0.0 -5.401054329652e+01 
-4.943431436013e+01 1.404691978019e+01 0.0 
1.404691978019e+01 -5.749047784817e+01 0.0 
0.0 0.0 -3.167743766249e+01 
-5.838790554109e+01 -4.470755802368e-01 0.0 
-4.470755802368e-01 -1.620796252177e+02 0.0 
0.0 0.0 -6.574025922765e+01 
-3.206954664368e+01 1.809916408545e+01 0.0 
1.809916408545e+01 -7.267094665961e+01 0.0 
0.0 0.0 -3.102214799099e+01 
-3.823036698076e+01 1.930868351780e+01 0.0 
1.930868351780e+01 -9.205336874223e+01 0.0 
0.0 0.0 -3.868512071690e+01 
-1.513897107896e+02 7.697812178049e+00 0.0 
7.697812178049e+00 -3.633436667189e+02 0.0 
0.0 0.0 -1.540200132525e+02 
-5.233415260306e+01 -4.598105147128e-01 0.0 
-4.598105147128e-01 -9.364218682024e+01 0.0 
0.0 0.0 -4.339290182699e+01 
-3.446505160712e+01 1.756886273303e+01 0.0 
1.756886273303e+01 -8.906232596622e+01 0.0 
0.0 0.0 -3.665821327200e+01 
-2.403585036244e+01 -2.101959517120e+00 0.0 
-2.101959517120e+00 -6.091784996889e+01 0.0 
0.0 0.0 -2.508611009940e+01 
-5.316488840874e+01 6.992437283734e+00 0.0 
6.992437283734e+00 -7.242619964892e+01 0.0 
0.0 0.0 -3.727732641730e+01 
-7.888496760395e+01 1.548236255683e+00 0.0 
1.548236255683e+00 -1.666307385766e+02 0.0 
0.0 0.0 -7.325471185417e+01 
-3.601779722744e+01 1.773110288618e+01 0.0 
1.773110288618e+01 -8.973819380483e+01 0.0 
0.0 0.0 -3.732679730968e+01 
-2.148213814636e+01 9.688189367046e+00 0.0 
9.688189367046e+00 -2.935052914814e+01 0.0 
0.0 0.0 -1.484980018835e+01 
-4.205812701080e+01 1.913600786205e+01 0.0 
1.913600786205e+01 -4.672340932557e+01 0.0 
0.0 0.0 -2.623446090091e+01 
-5.853523018183e+01 -9.058673392390e-01 0.0 
-9.058673392390e-01 -1.607737954933e+02 0.0 
0.0 0.0 -6.539270770253e+01 
-3.669196151998e+01 1.612674296401e+01 0.0 
1.612674296401e+01 -4.140241757101e+01 0.0 
0.0 0.0 -2.302831372730e+01 
-9.842653416891e+01 9.700805451945e+00 0.0 
9.700805451945e+00 -2.223564121477e+02 0.0 
0.0 0.0 -9.583488389500e+01 
-2.228281951944e+01 9.403772079795e+00 0.0 
9.403772079795e+00 -4.001472650478e+01 0.0 
0.0 0.0 -1.828926380727e+01 
-1.014985738094e+02 -2.218005676842e-02 0.0 
-2.218005676842e-02 -2.644590361029e+02 0.0 
0.0 0.0 -1.093872829737e+02 
-9.263472929870e+01 1.177735265956e+00 0.0 
1.177735265956e+00 -2.084718731521e+02 0.0 
0.0 0.0 -8.993198073523e+01 
-4.595437156315e+01 2.159343707245e+01 0.0 
2.159343707245e+01 -9.738234609899e+01 0.0 
0.0 0.0 -4.260101529864e+01 
-3.896556698065e+01 2.034942614052e+01 0.0 
2.034942614052e+01 -4.489488092424e+01 0.0 
0.0 0.0 -2.475813437147e+01 
-1.457967960288e+02 8.168332467746e+00 0.0 
8.168332467746e+00 -3.554954712920e+02 0.0 
0.0 0.0 -1.499876801962e+02 
-1.510880629446e+02 2.299264477808e+00 0.0 
2.299264477808e+00 -3.625286757912e+02 0.0 
0.0 0.0 -1.536850216208e+02 
-1.105922333272e+02 1.406053711395e-01 0.0 
1.406053711395e-01 -2.841876985339e+02 0.0 
0.0 0.0 -1.180339795583e+02 
-4.948820262828e+01 2.373634156958e+01 0.0 
2.373634156958e+01 -9.929547459824e+01 0.0 
0.0 0.0 -4.423510316796e+01 
-1.444776965343e+02 1.432638577335e+01 0.0 
1.432638577335e+01 -3.536237271868e+02 0.0 
0.0 0.0 -1.490304271163e+02 
-4.245351499324e+01 2.115857063747e+01 0.0 
2.115857063747e+01 -7.991638842261e+01 0.0 
0.0 0.0 -3.631097102475e+01 
-9.549596332832e+01 6.849091991424e+00 0.0 
6.849091991424e+00 -2.152630140466e+02 0.0 
0.0 0.0 -9.282769321248e+01 
-1.182711760361e+02 2.929120081021e+01 0.0 
2.929120081021e+01 -2.738272450000e+02 0.0 
0.0 0.0 -1.172295263109e+02 
-5.863888867746e+01 5.885344265244e+00 0.0 
5.885344265244e+00 -8.845557794767e+01 0.0 
0.0 0.0 -4.372833998754e+01 
-6.478718765026e+01 7.304486712120e-01 0.0 
7.304486712120e-01 -1.246255612949e+02 0.0 
0.0 0.0 -5.642382468355e+01 
-4.264081661286e+01 2.312183457156e+01 0.0 
2.312183457156e+01 -8.011448298929e+01 0.0 
0.0 0.0 -3.642658988064e+01 
-3.502450306758e+01 1.786990111672e+01 0.0 
1.786990111672e+01 -4.155708787639e+01 0.0 
0.0 0.0 -2.257447728319e+01 
-5.301916819171e+01 2.207052853591e+01 0.0 
2.207052853591e+01 -1.160691813436e+02 0.0 
0.0 0.0 -5.032650486061e+01 
-3.863185623956e+01 1.664927768301e+01 0.0 
1.664927768301e+01 -1.050662076877e+02 0.0 
0.0 0.0 -4.270941917817e+01 
-4.113889640815e+01 1.142744951782e+00 0.0 
1.142744951782e+00 -6.337810654203e+01 0.0 
0.0 0.0 -3.095510088505e+01 
-4.743281980695e+01 1.605691723462e+01 0.0 
1.605691723462e+01 -1.359604934524e+02 0.0 
0.0 0.0 -5.461799397780e+01 
-1.205335634913e+01 -1.444305641267e+00 0.0 
-1.444305641267e+00 -2.506577351302e+01 0.0 
0.0 0.0 -1.115391655074e+01 
-4.605865753943e+01 2.091494447431e-01 0.0 
2.091494447431e-01 -7.833762529320e+01 0.0 
0.0 0.0 -3.691888484979e+01 
-2.080978178100e+01 -4.568143264617e-01 0.0 
-4.568143264617e-01 -6.019346150197e+01 0.0 
0.0 0.0 -2.390097298489e+01 
-4.607186133436e+01 1.652850800268e+01 0.0 
1.652850800268e+01 -5.194278057770e+01 0.0 
0.0 0.0 -2.900439257362e+01 
-1.485265252239e+02 1.346950613893e+01 0.0 
1.346950613893e+01 -3.557538216597e+02 0.0 
0.0 0.0 -1.508841040651e+02 
-3.268759716027e+01 1.625116809056e+01 0.0 
1.625116809056e+01 -8.685927662689e+01 0.0 
0.0 0.0 -3.546406213615e+01 
-1.156297306509e+02 -2.861313123655e-01 0.0 
-2.861313123655e-01 -2.943716239054e+02 0.0 
0.0 0.0 -1.226004063669e+02 
-2.712426610271e+01 1.721223207438e+01 0.0 
1.721223207438e+01 -3.754805135753e+01 0.0 
0.0 0.0 -1.900169523807e+01 
-9.703547301056e+01 1.966715181836e+01 0.0 
1.966715181836e+01 -2.563659304824e+02 0.0 
0.0 0.0 -1.056204210479e+02 
-4.053195292478e+01 1.237598012621e-01 0.0 
1.237598012621e-01 -6.482740629904e+01 0.0 
0.0 0.0 -3.120780776715e+01 
-4.319496860417e+01 1.406882935967e+01 0.0 
1.406882935967e+01 -1.312060790923e+02 0.0 
0.0 0.0 -5.192031430895e+01 
-1.299920543449e+02 1.918057771686e+00 0.0 
1.918057771686e+00 -3.228272327107e+02 0.0 
0.0 0.0 -1.354457861167e+02 
-2.384435518353e+01 -3.277901962973e+00 0.0 
-3.277901962973e+00 -6.051854541466e+01 0.0 
0.0 0.0 -2.490887017946e+01 
-1.398649499714e+02 5.312325269416e-01 0.0 
5.312325269416e-01 -3.418491458523e+02 0.0 
0.0 0.0 -1.441142287471e+02 
-5.703624361620e+01 1.671754843642e+01 0.0 
1.671754843642e+01 -8.831456788104e+01 0.0 
0.0 0.0 -4.320524344917e+01 
-1.511468854334e+02 4.088779315815e+00 0.0 
4.088779315815e+00 -3.648116671890e+02 0.0 
0.0 0.0 -1.543875657867e+02 
-3.982091195924e+01 -4.956738451320e-02 0.0 
-4.956738451320e-02 -6.380440056734e+01 0.0 
0.0 0.0 -3.068759375798e+01 
-3.515318696898e+01 1.481182934811e+01 0.0 
1.481182934811e+01 -1.006031447874e+02 0.0 
0.0 0.0 -4.032689952693e+01 
-4.226731434630e+01 1.072729535665e+01 0.0 
1.072729535665e+01 -4.717352228651e+01 0.0 
0.0 0.0 -2.643225098984e+01 
-9.630708799882e+01 7.064892637491e-01 0.0 
7.064892637491e-01 -2.534762275178e+02 0.0 
0.0 0.0 -1.045349946550e+02 
-2.788475606362e+01 1.840673262934e+01 0.0 
1.840673262934e+01 -3.738078034818e+01 0.0 
0.0 0.0 -1.917966092354e+01 
-4.474907978440e+01 1.397689549493e+01 0.0 
1.397689549493e+01 -1.318484490117e+02 0.0 
0.0 0.0 -5.257925863882e+01 
-6.916174792058e+01 2.442334077058e+00 0.0 
2.442334077058e+00 -1.357178037650e+02 0.0 
0.0 0.0 -6.106386550566e+01 
-4.013295988429e+01 -4.736698147325e-01 0.0 
-4.736698147325e-01 -6.355855246983e+01 0.0 
0.0 0.0 -3.070745370624e+01 
-4.017626831481e+01 1.527071230192e+01 0.0 
1.527071230192e+01 -1.176256393003e+02 0.0 
0.0 0.0 -4.694057228454e+01 
-3.922658847631e+01 1.316672879143e+01 0.0 
1.316672879143e+01 -4.219103921166e+01 0.0 
0.0 0.0 -2.402528830639e+01 
-1.023540071461e+02 2.476432376261e+01 0.0 
2.476432376261e+01 -2.341888535175e+02 0.0 
0.0 0.0 -1.005628581991e+02 
-6.572773459135e+01 -2.389292918350e-01 0.0 
-2.389292918350e-01 -1.792319996625e+02 0.0 
0.0 0.0 -7.308792027616e+01 
-1.287782807048e+02 2.700668666812e+01 0.0 
2.700668666812e+01 -3.065144008926e+02 0.0 
0.0 0.0 -1.301878044792e+02 
-1.205766569417e+02 3.009655070496e+01 0.0 
3.009655070496e+01 -2.800027564875e+02 0.0 
0.0 0.0 -1.197738240288e+02 
-3.134401331361e+01 1.931664486922e+01 0.0 
1.931664486922e+01 -5.872856435310e+01 0.0 
0.0 0.0 -2.662177330001e+01 
-6.579669388312e+01 -6.962663034694e-01 0.0 
-6.962663034694e-01 -1.802265422978e+02 0.0 
0.0 0.0 -7.340697085427e+01 
-1.226306895214e+02 1.637947557757e+01 0.0 
1.637947557757e+01 -3.117430091446e+02 0.0 
0.0 0.0 -1.299121095998e+02 
-3.905129815517e+01 2.255691636737e+01 0.0 
2.255691636737e+01 -6.195490103730e+01 0.0 
0.0 0.0 -2.990185975774e+01 
-2.841558055359e+01 1.719749151952e+01 0.0 
1.719749151952e+01 -5.506046422815e+01 0.0 
0.0 0.0 -2.464281343452e+01 
-5.203629233451e+01 1.314712371103e+01 0.0 
1.314712371103e+01 -7.146977102320e+01 0.0 
0.0 0.0 -3.665181900731e+01 
-4.413785017121e+01 1.738259844973e+01 0.0 
1.738259844973e+01 -1.225174083565e+02 0.0 
0.0 0.0 -4.959657755832e+01 
-9.376796968551e+01 4.291438105957e+00 0.0 
4.291438105957e+00 -2.135273518803e+02 0.0 
0.0 0.0 -9.178859646974e+01 
-8.970153404960e+01 1.918479391562e+01 0.0 
1.918479391562e+01 -1.784570987358e+02 0.0 
0.0 0.0 -8.004758983563e+01 
-1.350576638801e+02 -1.876695696037e-01 0.0 
-1.876695696037e-01 -3.327234587536e+02 0.0 
0.0 0.0 -1.399343367901e+02 
-2.527038356258e+01 1.532541280939e+01 0.0 
1.532541280939e+01 -3.581957249833e+01 0.0 
0.0 0.0 -1.792698681827e+01 
-4.234556681769e+01 1.178951143288e+01 0.0 
1.178951143288e+01 -1.275693418873e+02 0.0 
0.0 0.0 -5.057447261149e+01 
-9.361603392642e+01 2.107106044993e+01 0.0 
2.107106044993e+01 -1.938281097002e+02 0.0 
0.0 0.0 -8.583324308799e+01 
-1.722630226306e+01 3.226495607996e+00 0.0 
3.226495607996e+00 -4.276387593688e+00 0.0 
0.0 0.0 -6.050806957023e+00 
-3.895002960461e+01 2.014367917908e+01 0.0 
2.014367917908e+01 -6.184573599911e+01 0.0 
0.0 0.0 -2.983872968112e+01 
-1.142243696465e+02 1.282380690108e+01 0.0 
1.282380690108e+01 -2.973988416711e+02 0.0 
0.0 0.0 -1.230869633953e+02 
-1.659639409712e+01 -1.017468849672e+00 0.0 
-1.017468849672e+00 -4.270482181076e+01 0.0 
0.0 0.0 -1.739036477236e+01 
-1.066358889085e+02 2.103058024224e+01 0.0 
2.103058024224e+01 -2.343264450193e+02 0.0 
0.0 0.0 -1.018887001784e+02 
-7.719011611794e+01 1.214115221630e+01 0.0 
1.214115221630e+01 -1.357538107544e+02 0.0 
0.0 0.0 -6.348317806169e+01 
-5.693621066226e+01 -1.041543332919e+00 0.0 
-1.041543332919e+00 -1.676405973275e+02 0.0 
0.0 0.0 -6.697304239694e+01 
-1.117491213175e+02 1.152261538033e+01 0.0 
1.152261538033e+01 -2.962139038438e+02 0.0 
0.0 0.0 -1.219889075484e+02 
-6.103285671718e+01 8.774678558663e+00 0.0 
8.774678558663e+00 -8.881070453512e+01 0.0 
0.0 0.0 -4.455306837569e+01 
-6.594117845285e+01 7.770032599541e+00 0.0 
7.770032599541e+00 -1.020692529596e+02 0.0 
0.0 0.0 -5.000312942374e+01 
-1.400374449457e+02 1.452316047533e+01 0.0 
1.452316047533e+01 -3.420827532554e+02 0.0 
0.0 0.0 -1.442360594603e+02 
-4.400127375813e+01 -2.809631507504e+00 0.0 
-2.809631507504e+00 -1.270300489995e+02 0.0 
0.0 0.0 -5.090939682730e+01 
-5.651612068160e+01 2.195366100731e+01 0.0 
2.195366100731e+01 -1.325984613201e+02 0.0 
0.0 0.0 -5.633437460051e+01 
-6.132144836230e+01 1.930796504256e+01 0.0 
1.930796504256e+01 -1.056726291526e+02 0.0 
0.0 0.0 -4.969822325446e+01 
-8.310083724080e+01 1.451302889923e+01 0.0 
1.451302889923e+01 -1.463198209852e+02 0.0 
0.0 0.0 -6.842619746779e+01 
-6.180996574898e+01 1.897637863489e+01 0.0 
1.897637863489e+01 -9.431736537797e+01 0.0 
0.0 0.0 -4.643819933808e+01 
-5.356229471714e+01 1.795243228066e+01 0.0 
1.795243228066e+01 -7.208478204213e+01 0.0 
0.0 0.0 -3.729412302778e+01 
-8.586019768306e+01 1.779516660826e+01 0.0 
1.779516660826e+01 -2.334986119861e+02 0.0 
0.0 0.0 -9.540764290075e+01 
-9.934438379052e+01 2.612445968595e+01 0.0 
2.612445968595e+01 -2.193455290127e+02 0.0 
0.0 0.0 -9.520697384096e+01 
-2.100058187920e+01 3.024381224594e+00 0.0 
3.024381224594e+00 -2.054985951854e+01 0.0 
0.0 0.0 -1.206513241932e+01 
-3.075765799370e+01 1.913476994136e+01 0.0 
1.913476994136e+01 -5.851092281059e+01 0.0 
0.0 0.0 -2.638057424129e+01 
-3.406189237462e+01 1.928870788758e+01 0.0 
1.928870788758e+01 -7.558300302549e+01 0.0 
0.0 0.0 -3.249346862003e+01 
-5.296209565298e+01 2.366472515403e+01 0.0 
2.366472515403e+01 -1.163552993755e+02 0.0 
0.0 0.0 -5.039521850854e+01 
-9.516776637696e+01 2.148026416603e+01 0.0 
2.148026416603e+01 -1.874249228042e+02 0.0 
0.0 0.0 -8.437780675436e+01 
-2.297891492531e+01 4.433972345628e+00 0.0 
4.433972345628e+00 -5.834784374490e+01 0.0 
0.0 0.0 -2.399802760106e+01 
-1.097891838214e+02 1.105245316352e+01 0.0 
1.105245316352e+01 -2.892699303764e+02 0.0 
0.0 0.0 -1.193177342594e+02 
-4.025476579226e+01 1.128482825944e+00 0.0 
1.128482825944e+00 -6.236880554796e+01 0.0 
0.0 0.0 -3.038707140207e+01 
-4.083190649892e+01 1.217393157099e+01 0.0 
1.217393157099e+01 -1.270042642626e+02 0.0 
0.0 0.0 -4.995085122845e+01 
-1.055335621068e+02 9.376843270651e+00 0.0 
9.376843270651e+00 -2.809000054357e+02 0.0 
0.0 0.0 -1.155300702628e+02 
-1.239338076702e+01 -7.872109718971e-01 0.0 
-7.872109718971e-01 -2.861220836800e+01 0.0 
0.0 0.0 -1.190167674051e+01 
-8.428901940912e+01 1.381437134927e+01 0.0 
1.381437134927e+01 -1.573169728738e+02 0.0 
0.0 0.0 -7.208179768489e+01 
-1.189684939940e+01 -1.278930823626e+00 0.0 
-1.278930823626e+00 -2.419876746786e+01 0.0 
0.0 0.0 -1.042868506018e+01 
-1.577476606549e+01 -1.318004663809e+00 0.0 
-1.318004663809e+00 -4.300932694793e+01 0.0 
0.0 0.0 -1.723522790403e+01 
-2.582949619730e+01 1.620557062584e+01 0.0 
1.620557062584e+01 -3.599526939767e+01 0.0 
0.0 0.0 -1.814742967849e+01 
-3.762043067833e+01 -3.074222758369e+00 0.0 
-3.074222758369e+00 -1.076397330161e+02 0.0 
0.0 0.0 -4.317804910834e+01 
-8.984006216585e+01 1.599980264741e+01 0.0 
1.599980264741e+01 -1.675766511216e+02 0.0 
0.0 0.0 -7.682501398625e+01 
-3.649130621938e+01 -2.226315378330e+00 0.0 
-2.226315378330e+00 -1.010795586159e+02 0.0 
0.0 0.0 -4.087125945060e+01 
-2.660019423451e+01 1.282466603961e+01 0.0 
1.282466603961e+01 -6.404396952310e+01 0.0 
0.0 0.0 -2.679324912728e+01 
-2.929403976715e+01 -2.395776228282e+00 0.0 
-2.395776228282e+00 -7.810075858046e+01 0.0 
0.0 0.0 -3.181843950428e+01 
-2.591235643987e+01 -3.266806774546e+00 0.0 
-3.266806774546e+00 -6.874169304083e+01 0.0 
0.0 0.0 -2.799621484421e+01 
-1.160756227183e+02 1.332488086644e+01 0.0 
1.332488086644e+01 -3.034818486396e+02 0.0 
0.0 0.0 -1.254672414074e+02 
-5.754023215813e+01 2.089422331629e+01 0.0 
2.089422331629e+01 -8.876214770144e+01 0.0 
0.0 0.0 -4.349071395787e+01 
-1.497523114623e+02 2.096749532419e+00 0.0 
2.096749532419e+00 -3.610068544420e+02 0.0 
0.0 0.0 -1.528277497713e+02 
-1.693936227464e+01 1.870766619277e+00 0.0 
1.870766619277e+00 -8.621655385942e+00 0.0 
0.0 0.0 -8.210004823028e+00 
-2.935510758861e+01 1.280823227866e+01 0.0 
1.280823227866e+01 -8.029398626642e+01 0.0 
0.0 0.0 -3.249472815651e+01 
-4.677359148663e+01 1.281231964903e+01 0.0 
1.281231964903e+01 -1.445728707600e+02 0.0 
0.0 0.0 -5.700393867399e+01 
-3.530957476543e+01 2.000767790626e+01 0.0 
2.000767790626e+01 -6.067999550459e+01 0.0 
0.0 0.0 -2.839687108100e+01 
-1.074277991904e+02 9.819008417253e+00 0.0 
9.819008417253e+00 -2.881392352407e+02 0.0 
0.0 0.0 -1.182701103293e+02 
-1.520857479421e+02 4.022281936758e+00 0.0 
4.022281936758e+00 -3.662942506751e+02 0.0 
0.0 0.0 -1.551139995852e+02 
-8.825108339128e+01 2.033144798715e+01 0.0 
2.033144798715e+01 -1.656374037726e+02 0.0 
0.0 0.0 -7.576654614915e+01 
-3.516562582083e+01 8.707600759530e+00 0.0 
8.707600759530e+00 -1.055654202037e+02 0.0 
0.0 0.0 -4.181931380736e+01 
-1.183151386684e+02 1.443844459810e+01 0.0 
1.443844459810e+01 -3.044525648425e+02 0.0 
0.0 0.0 -1.264303110533e+02 
-1.059116151972e+02 -6.074398598677e-01 0.0 
-6.074398598677e-01 -2.740202745497e+02 0.0 
0.0 0.0 -1.135795669241e+02 
-5.668512280741e+01 2.420094763266e+01 0.0 
2.420094763266e+01 -1.183743763070e+02 0.0 
0.0 0.0 -5.211784973432e+01 
-8.152266234445e+01 1.458287554455e+01 0.0 
1.458287554455e+01 -1.490648327835e+02 0.0 
0.0 0.0 -6.877624853839e+01 
-1.258726614916e+02 2.627563091451e+01 0.0 
2.627563091451e+01 -3.023073352047e+02 0.0 
0.0 0.0 -1.280539990089e+02 
-4.845897023416e+01 1.278812209507e+01 0.0 
1.278812209507e+01 -1.452826371068e+02 0.0 
0.0 0.0 -5.772248220228e+01 
-2.824974305108e+01 1.349768624525e+01 0.0 
1.349768624525e+01 -6.687992659683e+01 0.0 
0.0 0.0 -2.813890089437e+01 
-6.958441072627e+01 1.983313104684e+01 0.0 
1.983313104684e+01 -1.158439497520e+02 0.0 
0.0 0.0 -5.522850814348e+01 
-1.048504851725e+02 1.193447074258e+01 0.0 
1.193447074258e+01 -2.381518333086e+02 0.0 
0.0 0.0 -1.025006955443e+02 
-5.655554402694e+01 2.323793922170e+01 0.0 
2.323793922170e+01 -1.328468309952e+02 0.0 
0.0 0.0 -5.642071250665e+01 
-6.619135001130e+01 1.370436920117e+01 0.0 
1.370436920117e+01 -1.927418388713e+02 0.0 
0.0 0.0 -7.727995666478e+01 
-4.798046619849e+01 6.130272024409e-01 0.0 
6.130272024409e-01 -8.212903810833e+01 0.0 
0.0 0.0 -3.863285129205e+01 
-2.488608204758e+01 -2.839228682249e+00 0.0 
-2.839228682249e+00 -5.742827419346e+01 0.0 
0.0 0.0 -2.429430687231e+01 
-5.998601191793e+01 1.459936795958e+01 0.0 
1.459936795958e+01 -9.255540969286e+01 0.0 
0.0 0.0 -4.536242648324e+01 
-3.369608623541e+01 9.486165138647e+00 0.0 
9.486165138647e+00 -1.051106400266e+02 0.0 
0.0 0.0 -4.124201787862e+01 
-2.633076927776e+01 4.853447186888e+00 0.0 
4.853447186888e+00 -7.599877189129e+01 0.0 
0.0 0.0 -3.029886235071e+01 
-2.410463278488e+01 -1.855141209614e+00 0.0 
-1.855141209614e+00 -6.092482451906e+01 0.0 
0.0 0.0 -2.510883719118e+01 
-8.668807703084e+01 1.315138463994e+01 0.0 
1.315138463994e+01 -1.657114775670e+02 0.0 
0.0 0.0 -7.531986637936e+01 
-6.554436602262e+01 2.137630199009e+01 0.0 
2.137630199009e+01 -1.106023119669e+02 0.0 
0.0 0.0 -5.244400339686e+01 
-3.759016709300e+01 1.660988922957e+01 0.0 
1.660988922957e+01 -1.046162081911e+02 0.0 
0.0 0.0 -4.226191258524e+01 
-9.212946254853e+01 1.523110510233e+01 0.0 
1.523110510233e+01 -1.762232043215e+02 0.0 
0.0 0.0 -8.010580006100e+01 
-9.197195772157e+01 2.227478688541e+01 0.0 
2.227478688541e+01 -1.803132705295e+02 0.0 
0.0 0.0 -8.128556847532e+01 
-6.065535920490e+01 2.428524283868e+01 0.0 
2.428524283868e+01 -1.206982374454e+02 0.0 
0.0 0.0 -5.400607899509e+01 
-1.537085330829e+02 6.126351080691e+00 0.0 
6.126351080691e+00 -3.657569359383e+02 0.0 
0.0 0.0 -1.554396407064e+02 
-6.890184914013e+01 1.245747045961e+01 0.0 
1.245747045961e+01 -2.041466113397e+02 0.0 
0.0 0.0 -8.151453814396e+01 
-6.483305241710e+01 2.387924492916e+01 0.0 
2.387924492916e+01 -1.234953525405e+02 0.0 
0.0 0.0 -5.609852148729e+01 
-5.038829104088e+01 1.800406706414e+01 0.0 
1.800406706414e+01 -1.400995813026e+02 0.0 
0.0 0.0 -5.674636170305e+01 
-7.398701456782e+01 1.483006316262e+01 0.0 
1.483006316262e+01 -2.104692742166e+02 0.0 
0.0 0.0 -8.493688663532e+01 
-2.997101448446e+01 5.251153049524e+00 0.0 
5.251153049524e+00 -9.307859743713e+01 0.0 
0.0 0.0 -3.651488357648e+01 
-4.992495982659e+01 4.111520090539e+00 0.0 
4.111520090539e+00 -6.743043960426e+01 0.0 
0.0 0.0 -3.480661982926e+01 
-5.216315102856e+01 1.158845656950e+01 0.0 
1.158845656950e+01 -1.576807963407e+02 0.0 
0.0 0.0 -6.255318421077e+01 
-4.079446472179e+01 1.764424578718e+00 0.0 
1.764424578718e+00 -1.242589999656e+02 0.0 
0.0 0.0 -4.911603940623e+01 
-8.579368108715e+01 1.706867189395e+01 0.0 
1.706867189395e+01 -1.637157846799e+02 0.0 
0.0 0.0 -7.445283973013e+01 
-2.202007196088e+01 8.953140281077e-01 0.0 
8.953140281077e-01 -6.136846665986e+00 0.0 
0.0 0.0 -8.047075588061e+00 
-6.572505885227e+01 1.718274784108e+01 0.0 
1.718274784108e+01 -1.007094521218e+02 0.0 
0.0 0.0 -4.953035329222e+01 
-3.643995157730e+01 8.004227870757e+00 0.0 
8.004227870757e+00 -1.167101224738e+02 0.0 
0.0 0.0 -4.554502221534e+01 
-3.013795082521e+01 1.181643870387e+01 0.0 
1.181643870387e+01 -8.042913369587e+01 0.0 
0.0 0.0 -3.277012535632e+01 
-3.179881732054e+01 4.439714998321e+00 0.0 
4.439714998321e+00 -9.365384568288e+01 0.0 
0.0 0.0 -3.723579890103e+01 
-7.252565617808e+01 1.845761120961e+01 0.0 
1.845761120961e+01 -1.306862655215e+02 0.0 
0.0 0.0 -6.056357650988e+01 
-1.909156062502e+01 -2.194023587688e+00 0.0 
-2.194023587688e+00 -4.145796461633e+01 0.0 
0.0 0.0 -1.776485757240e+01 
-3.643979683222e+01 2.022859759896e+01 0.0 
2.022859759896e+01 -7.744095875688e+01 0.0 
0.0 0.0 -3.376422667673e+01 
-7.694261460055e+01 1.350009965026e+01 0.0 
1.350009965026e+01 -2.220173754474e+02 0.0 
0.0 0.0 -8.928799701439e+01 
-6.475538669225e+01 1.759725200183e+01 0.0 
1.759725200183e+01 -1.093312105626e+02 0.0 
0.0 0.0 -5.182597917645e+01 
-5.850361607233e+01 6.581496580905e+00 0.0 
6.581496580905e+00 -8.710656131982e+01 0.0 
0.0 0.0 -4.328305321765e+01 
-2.241148360400e+01 2.955543277833e+00 0.0 
2.955543277833e+00 -5.140494901308e+01 0.0 
0.0 0.0 -2.174492978512e+01 
-3.851945882677e+01 1.868793777567e+00 0.0 
1.868793777567e+00 -1.233180821738e+02 0.0 
0.0 0.0 -4.815126230017e+01 
-3.858857739107e+01 3.673069361132e-01 0.0 
3.673069361132e-01 -1.155818017467e+02 0.0 
0.0 0.0 -4.585111374132e+01 
-3.291089494113e+01 2.047910767518e+01 0.0 
2.047910767518e+01 -5.961371814890e+01 0.0 
0.0 0.0 -2.735738392701e+01 
-8.431952692373e+01 1.807193699331e+01 0.0 
1.807193699331e+01 -1.511809764141e+02 0.0 
0.0 0.0 -7.025015100135e+01 
-3.755191953440e+01 2.135920276197e+01 0.0 
2.135920276197e+01 -7.815480089313e+01 0.0 
0.0 0.0 -3.431201612826e+01 
-4.772995960632e+01 9.598303560395e+00 0.0 
9.598303560395e+00 -1.513166351545e+02 0.0 
0.0 0.0 -5.931397842824e+01 
-4.416001354586e+01 1.083338268236e+01 0.0 
1.083338268236e+01 -1.394689259837e+02 0.0 
0.0 0.0 -5.468868185886e+01 
-2.455471873899e+01 3.426465735480e+00 0.0 
3.426465735480e+00 -5.848239863931e+01 0.0 
0.0 0.0 -2.451113521349e+01 
-5.291643266766e+01 1.656881944267e+01 0.0 
1.656881944267e+01 -1.534294341165e+02 0.0 
0.0 0.0 -6.150376003525e+01 
-2.452889138606e+01 1.160967107737e+01 0.0 
1.160967107737e+01 -4.802075454965e+01 0.0 
0.0 0.0 -2.136489378071e+01 
-1.127595884085e+02 2.220906784700e+01 0.0 
2.220906784700e+01 -2.527808113175e+02 0.0 
0.0 0.0 -1.092621199178e+02 
-1.154216435908e+02 2.600783063082e+01 0.0 
2.600783063082e+01 -2.609126611700e+02 0.0 
0.0 0.0 -1.125002914283e+02 
-6.006927911069e+01 2.154823277975e+01 0.0 
2.154823277975e+01 -1.485160076509e+02 0.0 
0.0 0.0 -6.217558602847e+01 
-3.179907525054e+01 7.357793277754e+00 0.0 
7.357793277754e+00 -9.958813763842e+01 0.0 
0.0 0.0 -3.901616386669e+01 
-2.864730950956e+01 9.667859500891e+00 0.0 
9.667859500891e+00 -7.648245448508e+01 0.0 
0.0 0.0 -3.113892919839e+01 
-6.866448838862e+01 2.208390920195e+01 0.0 
2.208390920195e+01 -1.399769360160e+02 0.0 
0.0 0.0 -6.219242732139e+01 
-3.088700558001e+01 8.022503649165e+00 0.0 
8.022503649165e+00 -8.859685870970e+01 0.0 
0.0 0.0 -3.544515928691e+01 
-3.641903128368e+01 2.713582889405e-01 0.0 
2.713582889405e-01 -1.146413605254e+02 0.0 
0.0 0.0 -4.491811754274e+01 
-5.693015201434e+01 2.218319148991e+01 0.0 
2.218319148991e+01 -1.179635096393e+02 0.0 
0.0 0.0 -5.206809849610e+01 
-9.844530902323e+01 7.731781491122e+00 0.0 
7.731781491122e+00 -2.172913463298e+02 0.0 
0.0 0.0 -9.432099660592e+01 
-3.853936696961e+01 1.009133684963e+01 0.0 
1.009133684963e+01 -1.221609608442e+02 0.0 
0.0 0.0 -4.781009834415e+01 
-8.419390345907e+01 1.704879451950e+01 0.0 
1.704879451950e+01 -2.326610457588e+02 0.0 
0.0 0.0 -9.465648476537e+01 
-2.520544924030e+01 1.094701329184e+01 0.0 
1.094701329184e+01 -6.026919305049e+01 0.0 
0.0 0.0 -2.524239268724e+01 
-1.517289801849e+02 1.806911795619e+01 0.0 
1.806911795619e+01 -3.637348005313e+02 0.0 
0.0 0.0 -1.542391342149e+02 
-2.957556503412e+01 9.033251256368e+00 0.0 
9.033251256368e+00 -8.827567114231e+01 0.0 
0.0 0.0 -3.495537085293e+01 
-6.045378568484e+01 2.240273726609e+01 0.0 
2.240273726609e+01 -1.348832947204e+02 0.0 
0.0 0.0 -5.820112412158e+01 
-2.487213766438e+01 2.894145647069e+00 0.0 
2.894145647069e+00 -6.870299948629e+01 0.0 
0.0 0.0 -2.767254114520e+01 
-8.769830130401e+01 9.568198973226e+00 0.0 
9.568198973226e+00 -2.486292426724e+02 0.0 
0.0 0.0 -1.004982631929e+02 
-5.044856444948e+01 1.158250393046e+01 0.0 
1.158250393046e+01 -1.569535238495e+02 0.0 
0.0 0.0 -6.182062648969e+01 
-3.962292510920e+01 -2.180239427355e-01 0.0 
-2.180239427355e-01 -1.241864820508e+02 0.0 
0.0 0.0 -4.874282214800e+01 
-6.127385270446e+01 2.277865382809e+01 0.0 
2.277865382809e+01 -1.062893468784e+02 0.0 
0.0 0.0 -4.986895987486e+01 
-1.219760712067e+02 3.036833940067e+01 0.0 
3.036833940067e+01 -2.805744088916e+02 0.0 
0.0 0.0 -1.203651440295e+02 
-4.175185927311e+01 8.767030819034e+00 0.0 
8.767030819034e+00 -1.339451375320e+02 0.0 
0.0 0.0 -5.230909904154e+01 
-7.876463055950e+01 1.409284139320e+01 0.0 
1.409284139320e+01 -2.229103071222e+02 0.0 
0.0 0.0 -9.010248130450e+01 
-2.557689007079e+01 9.384398670061e+00 0.0 
9.384398670061e+00 -6.012144124380e+01 0.0 
0.0 0.0 -2.530949939438e+01 
-6.790828062184e+01 4.519240453909e+00 0.0 
4.519240453909e+00 -1.192050448178e+02 0.0 
0.0 0.0 -5.573399763190e+01 
-1.032699264117e+02 8.200684480666e+00 0.0 
8.200684480666e+00 -2.797246806217e+02 0.0 
0.0 0.0 -1.144983821100e+02 
-2.988621826280e+01 1.536165745795e+01 0.0 
1.536165745795e+01 -6.961703586713e+01 0.0 
0.0 0.0 -2.945097623898e+01 
-6.597245490398e+01 5.361974466559e+00 0.0 
5.361974466559e+00 -1.109071679718e+02 0.0 
0.0 0.0 -5.266388686274e+01 
-1.283288384306e+02 3.190175066137e+01 0.0 
3.190175066137e+01 -3.006713588407e+02 0.0 
0.0 0.0 -1.283000591814e+02 
-1.132750097920e+02 9.455572693285e+00 0.0 
9.455572693285e+00 -2.985314120818e+02 0.0 
0.0 0.0 -1.231419265622e+02 
-1.200773795947e+02 2.917947157192e+01 0.0 
2.917947157192e+01 -2.738912438323e+02 0.0 
0.0 0.0 -1.177905870281e+02 
-6.821346539445e+01 7.430460394831e+00 0.0 
7.430460394831e+00 -1.107892192435e+02 0.0 
0.0 0.0 -5.330080539138e+01 
-9.174312496768e+01 2.438822731511e+01 0.0 
2.438822731511e+01 -1.892499684037e+02 0.0 
0.0 0.0 -8.389792801140e+01 
-2.706414857753e+01 1.509847264831e+01 0.0 
1.509847264831e+01 -5.269163840596e+01 0.0 
0.0 0.0 -2.352673609505e+01 
-5.353535992392e+01 2.233064414054e+01 0.0 
2.233064414054e+01 -8.569301778454e+01 0.0 
0.0 0.0 -4.136851331254e+01 
-6.509300639437e+01 2.101478129464e+01 0.0 
2.101478129464e+01 -1.230207026886e+02 0.0 
0.0 0.0 -5.603411272490e+01 
-6.908170998352e+01 2.302487222625e+01 0.0 
2.302487222625e+01 -1.271379599400e+02 0.0 
0.0 0.0 -5.846590097706e+01 
-5.309721019697e+01 2.214262588061e+01 0.0 
2.214262588061e+01 -1.306558312460e+02 0.0 
0.0 0.0 -5.472591243290e+01 
-1.329540000708e+02 3.144164033660e+01 0.0 
3.144164033660e+01 -3.142559580553e+02 0.0 
0.0 0.0 -1.337629874378e+02 
-6.547826265028e+01 8.285979012735e+00 0.0 
8.285979012735e+00 -1.032957277544e+02 0.0 
0.0 0.0 -5.023219712141e+01 
-5.773740824464e+01 1.577826075424e+01 0.0 
1.577826075424e+01 -7.922486935128e+01 0.0 
0.0 0.0 -4.068868327878e+01 
-4.587491017502e+01 1.057647367248e+01 0.0 
1.057647367248e+01 -1.401400961371e+02 0.0 
0.0 0.0 -5.540450189365e+01 
-3.169256123659e+01 -3.304149139146e+00 0.0 
-3.304149139146e+00 -8.837514908439e+01 0.0 
0.0 0.0 -3.562031309629e+01 
-4.972838125303e+01 2.020101164735e+01 0.0 
2.020101164735e+01 -6.773435222062e+01 0.0 
0.0 0.0 -3.483882004210e+01 
-3.086995549477e+01 1.452368145459e+01 0.0 
1.452368145459e+01 -8.356409720756e+01 0.0 
0.0 0.0 -3.393021581070e+01 
-4.056419842514e+01 2.810600689532e-01 0.0 
2.810600689532e-01 -6.452279300002e+01 0.0 
0.0 0.0 -3.112609742755e+01 
-4.187092813114e+01 -7.284932512389e-02 0.0 
-7.284932512389e-02 -1.251706367366e+02 0.0 
0.0 0.0 -4.971246946031e+01 
-4.018674189836e+01 9.590514971608e+00 0.0 
9.590514971608e+00 -1.227578048277e+02 0.0 
0.0 0.0 -4.848336401781e+01 
-8.849078716603e+01 1.616297481304e+01 0.0 
1.616297481304e+01 -1.711317698278e+02 0.0 
0.0 0.0 -7.748676709813e+01 
-3.185301171628e+01 1.393575416012e+01 0.0 
1.393575416012e+01 -8.387242802676e+01 0.0 
0.0 0.0 -3.431763192291e+01 
-5.718932079328e+01 2.062951370439e+01 0.0 
2.062951370439e+01 -1.027320168483e+02 0.0 
0.0 0.0 -4.757640129248e+01 
-8.168179549441e+01 1.270482552420e+01 0.0 
1.270482552420e+01 -2.337682515497e+02 0.0 
0.0 0.0 -9.423501411323e+01 
-7.827718407405e+01 2.996115489723e+00 0.0 
2.996115489723e+00 -2.247377003754e+02 0.0 
0.0 0.0 -9.050446533483e+01 
-1.398534700950e+02 2.868948547797e+01 0.0 
2.868948547797e+01 -3.334587201155e+02 0.0 
0.0 0.0 -1.415936570631e+02 
-4.243340494375e+01 2.242125538395e+01 0.0 
2.242125538395e+01 -6.351102659375e+01 0.0 
0.0 0.0 -3.138332946125e+01 
-3.536688611944e+01 2.753573187771e+00 0.0 
2.753573187771e+00 -1.134155150621e+02 0.0 
0.0 0.0 -4.423472035446e+01 
-5.540671930617e+01 -2.390215473214e-01 0.0 
-2.390215473214e-01 -1.603330565622e+02 0.0 
0.0 0.0 -6.432193276050e+01 
-2.947834015767e+01 1.770585490837e+01 0.0 
1.770585490837e+01 -5.561595037201e+01 0.0 
0.0 0.0 -2.512828715890e+01 
-2.928371550102e+01 1.584858278132e+01 0.0 
1.584858278132e+01 -6.943694410353e+01 0.0 
0.0 0.0 -2.921619788137e+01 
-9.877295860929e+01 2.326698339685e+01 0.0 
2.326698339685e+01 -2.020651377035e+02 0.0 
0.0 0.0 -8.985142889385e+01 
-6.424182907770e+01 2.447921053934e+01 0.0 
2.447921053934e+01 -1.375760254782e+02 0.0 
0.0 0.0 -6.014535636676e+01 
-3.673760927029e+01 2.205668216319e+01 0.0 
2.205668216319e+01 -6.153329054369e+01 0.0 
0.0 0.0 -2.908126994420e+01 
-4.930828574326e+01 2.003430714063e+01 0.0 
2.003430714063e+01 -8.259950337475e+01 0.0 
0.0 0.0 -3.917233673541e+01 
-1.466818884707e+02 2.288114600104e+01 0.0 
2.288114600104e+01 -3.524544530575e+02 0.0 
0.0 0.0 -1.493409024584e+02 
-1.357497530421e+02 2.235331235103e+01 0.0 
2.235331235103e+01 -3.323012879157e+02 0.0 
0.0 0.0 -1.400153122873e+02 
-9.644288470675e+01 2.038460207408e+01 0.0 
2.038460207408e+01 -2.001886216584e+02 0.0 
0.0 0.0 -8.858945190954e+01 
-8.741956235400e+01 1.697081163086e+01 0.0 
1.697081163086e+01 -1.594264035497e+02 0.0 
0.0 0.0 -7.365378977110e+01 
-7.600626925680e+01 4.057450858911e+00 0.0 
4.057450858911e+00 -2.164527001878e+02 0.0 
0.0 0.0 -8.733769083339e+01 
-4.065399934891e+01 2.083392266173e+01 0.0 
2.083392266173e+01 -9.454651164457e+01 0.0 
0.0 0.0 -4.016015329804e+01 
-3.348320130791e+01 6.534393586817e+00 0.0 
6.534393586817e+00 -1.001145452286e+02 0.0 
0.0 0.0 -3.967932396095e+01 
-3.822432332291e+01 7.411901673452e+00 0.0 
7.411901673452e+00 -1.173365038786e+02 0.0 
0.0 0.0 -4.626824816045e+01 
-6.026773558307e+01 2.406843322039e+01 0.0 
2.406843322039e+01 -1.351560829637e+02 0.0 
0.0 0.0 -5.822714556404e+01 
-8.492227571209e+01 1.089966648945e+01 0.0 
1.089966648945e+01 -2.390724204521e+02 0.0 
0.0 0.0 -9.679840884925e+01 
-7.026169153683e+01 5.776890497499e-01 0.0 
5.776890497499e-01 -1.947740235315e+02 0.0 
0.0 0.0 -7.911071452049e+01 
-9.489809739861e+01 1.774049778937e+01 0.0 
1.774049778937e+01 -1.928517660386e+02 0.0 
0.0 0.0 -8.592495903116e+01 
-3.756051049868e+01 2.394039447742e+00 0.0 
2.394039447742e+00 -1.142646955841e+02 0.0 
0.0 0.0 -4.514756182484e+01 
-4.987664229727e+01 2.071874399807e+01 0.0 
2.071874399807e+01 -1.283257237151e+02 0.0 
0.0 0.0 -5.306070980372e+01 
-6.091136502067e+01 2.177815945562e+01 0.0 
2.177815945562e+01 -1.201149076585e+02 0.0 
0.0 0.0 -5.390788180375e+01 
-4.369596375062e+01 2.005574102299e+01 0.0 
2.005574102299e+01 -1.104777650850e+02 0.0 
0.0 0.0 -4.585211865068e+01 
-1.185051318203e+02 2.781217674091e+01 0.0 
2.781217674091e+01 -2.676825751464e+02 0.0 
0.0 0.0 -1.154563120900e+02 
-1.132637238265e+02 2.383620531099e+01 0.0 
2.383620531099e+01 -2.561746670667e+02 0.0 
0.0 0.0 -1.104315172680e+02 
-1.095784663863e+02 2.380083404402e+01 0.0 
2.380083404402e+01 -2.361614122265e+02 0.0 
0.0 0.0 -1.033219635838e+02 
-8.399631793654e+01 5.291490451354e+00 0.0 
5.291490451354e+00 -2.349347055003e+02 0.0 
0.0 0.0 -9.527930703107e+01 
-8.883382775446e+01 1.257148634417e+01 0.0 
1.257148634417e+01 -1.743351852238e+02 0.0 
0.0 0.0 -7.855070389348e+01 
-2.793657712166e+01 1.445987973127e+01 0.0 
1.445987973127e+01 -6.690637212094e+01 0.0 
0.0 0.0 -2.805288477278e+01 
-4.360798040603e+01 8.396598115055e+00 0.0 
8.396598115055e+00 -1.346502259518e+02 0.0 
0.0 0.0 -5.307746190736e+01 
-2.794774637404e+01 3.734541674383e+00 0.0 
3.734541674383e+00 -7.640930699065e+01 0.0 
0.0 0.0 -3.090711600941e+01 
-3.994918357945e+01 2.229848716181e+01 0.0 
2.229848716181e+01 -7.938406683131e+01 0.0 
0.0 0.0 -3.539997512323e+01 
-4.903611611804e+01 3.119878503792e+00 0.0 
3.119878503792e+00 -6.673841740153e+01 0.0 
0.0 0.0 -3.433236005587e+01 
-6.474488069230e+01 4.528310155597e+00 0.0 
4.528310155597e+00 -1.089172852896e+02 0.0 
0.0 0.0 -5.169864979458e+01 
-1.411967839938e+02 1.756245415937e+01 0.0 
1.756245415937e+01 -3.467354369266e+02 0.0 
0.0 0.0 -1.459796662761e+02 
-9.698538197783e+01 2.245425526123e+01 0.0 
2.245425526123e+01 -2.086960149127e+02 0.0 
0.0 0.0 -9.130441906717e+01 
-6.829913542297e+01 1.592934778081e+01 0.0 
1.592934778081e+01 -1.144461173991e+02 0.0 
0.0 0.0 -5.442357584663e+01 
-7.262521352320e+01 2.135915274080e+01 0.0 
2.135915274080e+01 -1.431815113866e+02 0.0 
0.0 0.0 -6.434201747295e+01 
-2.839200038983e+01 3.313776723005e+00 0.0 
3.313776723005e+00 -8.599559264003e+01 0.0 
0.0 0.0 -3.391627790896e+01 
-2.104226688250e+01 -2.741222899584e+00 0.0 
-2.741222899584e+00 -4.213090433232e+01 0.0 
0.0 0.0 -1.855195136444e+01 
-4.965743036961e+01 1.472899419940e+01 0.0 
1.472899419940e+01 -1.491729470957e+02 0.0 
0.0 0.0 -5.924911323960e+01 
-5.669347989375e+01 2.133157262226e+01 0.0 
2.133157262226e+01 -1.461487087083e+02 0.0 
0.0 0.0 -6.045265658061e+01 
-5.402853138793e+01 1.685603425040e+01 0.0 
1.685603425040e+01 -1.539601363934e+02 0.0 
0.0 0.0 -6.199660033439e+01 
-2.295768280707e+01 1.245533683717e+01 0.0 
1.245533683717e+01 -2.990318588483e+01 0.0 
0.0 0.0 -1.545826060757e+01 
-4.699863998598e+01 1.721867853071e-02 0.0 
1.721867853071e-02 -8.109591195465e+01 0.0 
0.0 0.0 -3.802836558219e+01 
-3.028355279690e+01 -2.366757239920e+00 0.0 
-2.366757239920e+00 -8.120955587399e+01 0.0 
0.0 0.0 -3.304793260127e+01 
-3.131035003386e+01 1.107151094531e+01 0.0 
1.107151094531e+01 -9.298732150375e+01 0.0 
0.0 0.0 -3.688930146128e+01 
-1.554834634757e+02 1.808696010852e+01 0.0 
1.808696010852e+01 -3.641280814434e+02 0.0 
0.0 0.0 -1.554834634757e+02 
-9.108615334520e+01 1.725776652570e+01 0.0 
1.725776652570e+01 -2.467666377705e+02 0.0 
0.0 0.0 -1.009558373347e+02 
-5.459697590339e+01 1.103440154151e+01 0.0 
1.103440154151e+01 -7.705889255477e+01 0.0 
0.0 0.0 -3.909676053745e+01 
-2.182713091917e+01 -8.842634401568e-01 0.0 
-8.842634401568e-01 -5.934017014702e+01 0.0 
0.0 0.0 -2.395019031986e+01 
-5.279443245626e+01 2.117890597116e+01 0.0 
2.117890597116e+01 -1.303379491291e+02 0.0 
0.0 0.0 -5.453971447562e+01 
-5.113430646298e+01 1.484535875637e+01 0.0 
1.484535875637e+01 -1.498233553090e+02 0.0 
0.0 0.0 -5.988729853159e+01 
-7.317801368980e+01 2.188240614073e+01 0.0 
2.188240614073e+01 -1.315860828725e+02 0.0 
0.0 0.0 -6.102922896869e+01 
-1.237077785166e+02 3.099807583352e+01 0.0 
3.099807583352e+01 -2.871565108082e+02 0.0 
0.0 0.0 -1.228592867974e+02 
-5.318338541096e+01 1.866357261062e+01 0.0 
1.866357261062e+01 -8.495123474471e+01 0.0 
0.0 0.0 -4.104038604670e+01 
-6.834782435787e+01 2.450531355818e+01 0.0 
2.450531355818e+01 -1.402875560619e+02 0.0 
0.0 0.0 -6.219061412593e+01 
-6.862230256034e+01 -7.148966689892e-01 0.0 
-7.148966689892e-01 -1.938019339786e+02 0.0 
0.0 0.0 -7.832727096169e+01 
-9.092967711334e+01 1.552469585429e+01 0.0 
1.552469585429e+01 -1.789916707885e+02 0.0 
0.0 0.0 -8.057640437056e+01 
-8.657921452247e+01 4.127240268472e+00 0.0 
4.127240268472e+00 -2.434484667721e+02 0.0 
0.0 0.0 -9.860830438838e+01 
-1.265145690630e+02 3.183501866496e+01 0.0 
3.183501866496e+01 -2.939262056336e+02 0.0 
0.0 0.0 -1.257322324090e+02 
-1.146909201696e+02 2.687668059573e+01 0.0 
2.687668059573e+01 -2.689454803958e+02 0.0 
0.0 0.0 -1.146909201696e+02 
-1.056566199651e+02 2.006851710458e+01 0.0 
2.006851710458e+01 -2.478654465852e+02 0.0 
0.0 0.0 -1.056566199651e+02 
-1.089591418184e+02 2.356255099954e+01 0.0 
2.356255099954e+01 -2.555713309095e+02 0.0 
0.0 0.0 -1.089591418184e+02 
-7.641105841382e+01 2.036502358309e+01 0.0 
2.036502358309e+01 -1.470524664936e+02 0.0 
0.0 0.0 -6.663905747224e+01 
-9.383865770671e+01 1.830195856079e+01 0.0 
1.830195856079e+01 -1.807465369460e+02 0.0 
0.0 0.0 -8.197555839583e+01 
-1.002633075010e+02 2.230672595869e+01 0.0 
2.230672595869e+01 -2.156884235456e+02 0.0 
0.0 0.0 -9.438551931399e+01 
-4.280155346220e+01 1.952494595934e+01 0.0 
1.952494595934e+01 -1.100045833598e+02 0.0 
0.0 0.0 -4.544184104661e+01 
-3.948198894106e+01 2.001755498748e+01 0.0 
2.001755498748e+01 -9.390080981160e+01 0.0 
0.0 0.0 -3.961483962580e+01 
-6.651772387181e+01 1.509118588336e-01 0.0 
1.509118588336e-01 -1.841465018046e+02 0.0 
0.0 0.0 -7.479926770294e+01 
-9.776731006185e+01 2.063686143434e+01 0.0 
2.063686143434e+01 -1.946823039211e+02 0.0 
0.0 0.0 -8.733488419489e+01 
-1.305728376868e+02 3.183987207133e+01 0.0 
3.183987207133e+01 -3.074558045029e+02 0.0 
0.0 0.0 -1.310085926569e+02 
-9.297028208498e+01 1.481726605956e+01 0.0 
1.481726605956e+01 -1.869891714124e+02 0.0 
0.0 0.0 -8.358783604921e+01 
-8.230255700310e+01 1.601909548486e+01 0.0 
1.601909548486e+01 -2.285204120221e+02 0.0 
0.0 0.0 -9.284689070755e+01 
-9.602543553974e+01 1.747898188861e+01 0.0 
1.747898188861e+01 -1.888068701883e+02 0.0 
0.0 0.0 -8.504969171841e+01 
-8.795033180977e+01 2.369885182958e+01 0.0 
2.369885182958e+01 -2.189909539612e+02 0.0 
0.0 0.0 -9.168238573128e+01 
-5.283207487665e+01 1.925853859859e+01 0.0 
1.925853859859e+01 -1.429852407728e+02 0.0 
0.0 0.0 -5.834519469482e+01 
-3.906056339860e+01 2.089518086290e+01 0.0 
2.089518086290e+01 -7.879503126322e+01 0.0 
0.0 0.0 -3.495667839855e+01 
-2.628695405127e+01 8.809872971475e+00 0.0 
8.809872971475e+00 -7.170033166413e+01 0.0 
0.0 0.0 -2.899618571462e+01 
-9.810286183887e+01 1.249056410403e+01 0.0 
1.249056410403e+01 -2.206313562452e+02 0.0 
0.0 0.0 -9.522026542522e+01 
-4.009183010412e+01 1.820803112479e+01 0.0 
1.820803112479e+01 -1.076526229522e+02 0.0 
0.0 0.0 -4.392333591689e+01 
-1.182273184185e+02 2.664248122087e+01 0.0 
2.664248122087e+01 -2.800653143771e+02 0.0 
0.0 0.0 -1.190877898387e+02 
-6.504580524740e+01 -1.199344957179e+00 0.0 
-1.199344957179e+00 -1.832325576785e+02 0.0 
0.0 0.0 -7.408350887776e+01 
-3.949264123176e+01 -1.149065812874e+00 0.0 
-1.149065812874e+00 -1.155640618530e+02 0.0 
0.0 0.0 -4.611701092542e+01 
-1.458822280980e+02 1.595989481864e+01 0.0 
1.595989481864e+01 -3.504284322293e+02 0.0 
0.0 0.0 -1.484931980982e+02 
-3.313447313166e+01 1.303077843072e+01 0.0 
1.303077843072e+01 -9.697687853184e+01 0.0 
0.0 0.0 -3.863340549905e+01 
-1.176141569007e+02 2.820994065689e+01 0.0 
2.820994065689e+01 -2.757663661017e+02 0.0 
0.0 0.0 -1.176141569007e+02 
-1.054294301609e+02 2.079132390114e+01 0.0 
2.079132390114e+01 -2.354913740771e+02 0.0 
0.0 0.0 -1.018762412714e+02 
-6.806167752579e+01 2.265675427762e+01 0.0 
2.265675427762e+01 -1.537181998137e+02 0.0 
0.0 0.0 -6.613396320183e+01 
-1.436658526532e+01 -1.938194259804e+00 0.0 
-1.938194259804e+00 -2.480349829606e+01 0.0 
0.0 0.0 -1.177807389724e+01 
-1.235361560776e+02 2.975675488960e+01 0.0 
2.975675488960e+01 -2.895843641810e+02 0.0 
0.0 0.0 -1.235361560776e+02 
-1.430563400986e+02 1.906485041817e+01 0.0 
1.906485041817e+01 -3.435300374393e+02 0.0 
0.0 0.0 -1.455759132614e+02 
-3.736146635816e+01 -1.490817489556e+00 0.0 
-1.490817489556e+00 -1.145868529738e+02 0.0 
0.0 0.0 -4.518449579958e+01 
-8.727961359923e+01 1.533300420467e+01 0.0 
1.533300420467e+01 -2.409660186879e+02 0.0 
0.0 0.0 -9.807368968613e+01 
-1.415793065766e+02 2.731794856569e+01 0.0 
2.731794856569e+01 -3.387592917454e+02 0.0 
0.0 0.0 -1.437015794966e+02 
-1.087663919936e+01 -7.859771102062e-01 0.0 
-7.859771102062e-01 -8.882282864377e+00 0.0 
0.0 0.0 -6.497589761910e+00 
-4.622031505483e+01 1.875305579037e+01 0.0 
1.875305579037e+01 -1.254125458769e+02 0.0 
0.0 0.0 -5.108985827952e+01 
-7.220585220506e+01 2.267175134969e+01 0.0 
2.267175134969e+01 -1.565446999363e+02 0.0 
0.0 0.0 -6.822516564240e+01 
-6.399878070301e+01 2.227959020749e+01 0.0 
2.227959020749e+01 -1.511086817571e+02 0.0 
0.0 0.0 -6.413223873802e+01 
-6.450262869182e+01 2.245051874788e+01 0.0 
2.245051874788e+01 -1.372797123668e+02 0.0 
0.0 0.0 -6.013470231760e+01 
-2.773793537153e+01 1.082922561071e+01 0.0 
1.082922561071e+01 -7.634727332782e+01 0.0 
0.0 0.0 -3.082556260980e+01 
-1.297764709390e+02 3.023088621314e+01 0.0 
3.023088621314e+01 -3.041450988577e+02 0.0 
0.0 0.0 -1.297764709390e+02 
-4.958455308810e+01 9.453678496616e+00 0.0 
9.453678496616e+00 -1.520695037214e+02 0.0 
0.0 0.0 -6.009621704286e+01 
-2.359778657556e+01 1.232307045157e+00 0.0 
1.232307045157e+00 -5.149349650404e+01 0.0 
0.0 0.0 -2.212738492388e+01 
-1.505473704307e+02 6.798092125647e+00 0.0 
6.798092125647e+00 -3.641479221702e+02 0.0 
0.0 0.0 -1.540085877803e+02 
-1.652049524197e+01 -1.853467918099e+00 0.0 
-1.853467918099e+00 -2.523340559497e+01 0.0 
0.0 0.0 -1.212617025108e+01 
-4.556074184515e+01 2.081603518447e+01 0.0 
2.081603518447e+01 -8.090178744039e+01 0.0 
0.0 0.0 -3.753875878566e+01 
-2.284868148508e+01 -2.343294416504e+00 0.0 
-2.343294416504e+00 -5.842818243664e+01 0.0 
0.0 0.0 -2.398305917652e+01 
-4.836473731913e+01 1.534190726752e+01 0.0 
1.534190726752e+01 -6.627462011292e+01 0.0 
0.0 0.0 -3.399180722962e+01 
-1.485712998496e+02 2.124170480482e+01 0.0 
2.124170480482e+01 -3.565756882895e+02 0.0 
0.0 0.0 -1.511440964418e+02 
-1.360169874265e+02 2.947611559121e+01 0.0 
2.947611559121e+01 -3.187063039952e+02 0.0 
0.0 0.0 -1.360169874265e+02 
-6.888233559971e+01 1.983040497417e+01 0.0 
1.983040497417e+01 -1.264184264892e+02 0.0 
0.0 0.0 -5.819022862668e+01 
-1.896080791721e+01 -2.522925767986e+00 0.0 
-2.522925767986e+00 -4.188409832563e+01 0.0 
0.0 0.0 -1.785347187285e+01 
-2.105280806105e+01 8.740993122758e-01 0.0 
8.740993122758e-01 -4.266556796406e+01 0.0 
0.0 0.0 -1.871551280753e+01 
-2.581804552940e+01 -2.674583306013e+00 0.0 
-2.674583306013e+00 -5.796036688189e+01 0.0 
0.0 0.0 -2.473352372339e+01 
-1.263070081545e+02 7.880126561338e+00 0.0 
7.880126561338e+00 -3.190710931230e+02 0.0 
0.0 0.0 -1.332134303832e+02 
-4.875624568178e+01 3.727861828270e+00 0.0 
3.727861828270e+00 -6.795296334064e+01 0.0 
0.0 0.0 -3.461276270673e+01 
-6.112613792233e+01 1.396648639154e+01 0.0 
1.396648639154e+01 -8.622637170826e+01 0.0 
0.0 0.0 -4.380575288918e+01 
-1.416133097262e+02 2.788276374590e+01 0.0 
2.788276374590e+01 -3.317643893612e+02 0.0 
0.0 0.0 -1.416133097262e+02 
-4.682029414539e+01 2.877778233196e+00 0.0 
2.877778233196e+00 -6.705524451887e+01 0.0 
0.0 0.0 -3.376266159928e+01 
-1.101921566545e+02 1.994661132501e+01 0.0 
1.994661132501e+01 -2.487351660348e+02 0.0 
0.0 0.0 -1.072781968068e+02 
-9.155832095583e+01 2.192633493675e+01 0.0 
2.192633493675e+01 -2.328637254112e+02 0.0 
0.0 0.0 -9.692661391011e+01 
-5.948220795338e+01 2.858986077883e+00 0.0 
2.858986077883e+00 -9.855599194481e+01 0.0 
0.0 0.0 -4.701145996946e+01 
-3.061693785964e+01 1.734180487500e+01 0.0 
1.734180487500e+01 -7.138250713446e+01 0.0 
0.0 0.0 -3.019983349823e+01 
-8.542836340524e+01 1.456282578065e+01 0.0 
1.456282578065e+01 -2.400260727447e+02 0.0 
0.0 0.0 -9.723633084499e+01 
-2.629109084157e+01 5.265855932140e+00 0.0 
5.265855932140e+00 -6.641436836850e+01 0.0 
0.0 0.0 -2.741163776302e+01 
-1.463344242767e+02 2.550309612231e+01 0.0 
2.550309612231e+01 -3.427803233122e+02 0.0 
0.0 0.0 -1.463344242767e+02 
-1.117547918560e+02 2.521544020109e+01 0.0 
2.521544020109e+01 -2.620945143308e+02 0.0 
0.0 0.0 -1.117547918560e+02 
-1.073234267329e+02 2.190760308383e+01 0.0 
2.190760308383e+01 -2.517546623768e+02 0.0 
0.0 0.0 -1.073234267329e+02 
-8.875371544549e+01 5.167530619605e+00 0.0 
5.167530619605e+00 -2.445915968487e+02 0.0 
0.0 0.0 -9.960359368824e+01 
-6.270735991521e+01 -1.252547774982e-01 0.0 
-1.252547774982e-01 -1.733108692704e+02 0.0 
0.0 0.0 -7.040546875568e+01 
-5.342482652368e+01 1.977341059232e+01 0.0 
1.977341059232e+01 -1.433494465255e+02 0.0 
0.0 0.0 -5.863228191474e+01 
-9.142585594811e+01 3.922729868065e+00 0.0 
3.922729868065e+00 -2.528142893815e+02 0.0 
0.0 0.0 -1.028720435989e+02 
-1.502489176891e+02 2.275879330672e+01 0.0 
2.275879330672e+01 -3.519141412745e+02 0.0 
0.0 0.0 -1.502489176891e+02 
-3.244973581476e+01 1.019932792207e+01 0.0 
1.019932792207e+01 -9.328424591665e+01 0.0 
0.0 0.0 -3.732019451942e+01 
-4.183182831057e+01 1.188358965143e+00 0.0 
1.188358965143e+00 -1.329603944391e+02 0.0 
0.0 0.0 -5.203766682489e+01 
-4.529296495377e+01 7.093649618062e-01 0.0 
7.093649618062e-01 -1.423848491173e+02 0.0 
0.0 0.0 -5.590334422131e+01 
-6.311275873196e+01 3.073112899502e+00 0.0 
3.073112899502e+00 -1.093172969385e+02 0.0 
0.0 0.0 -5.132901670113e+01 
-1.532019917737e+02 1.651153684777e+01 0.0 
1.651153684777e+01 -3.667479249153e+02 0.0 
0.0 0.0 -1.555849750067e+02 
-2.296046821624e+01 -2.570019507926e+00 0.0 
-2.570019507926e+00 -4.162679444797e+01 0.0 
0.0 0.0 -1.897617879926e+01 
-1.538839055717e+02 1.956307822744e+01 0.0 
1.956307822744e+01 -3.603957796673e+02 0.0 
0.0 0.0 -1.538839055717e+02 
-4.286938387760e+01 -6.594386781781e-01 0.0 
-6.594386781781e-01 -1.331500445567e+02 0.0 
0.0 0.0 -5.240582853030e+01 
-1.207736764263e+02 2.923256372858e+01 0.0 
2.923256372858e+01 -2.831385783280e+02 0.0 
0.0 0.0 -1.207736764263e+02 
-1.027461597950e+02 2.498543499166e+01 0.0 
2.498543499166e+01 -2.173928352498e+02 0.0 
0.0 0.0 -9.564169851344e+01 
-1.280294090337e+01 -7.582687080522e-01 0.0 
-7.582687080522e-01 -7.915327098594e+00 0.0 
0.0 0.0 -5.815480400589e+00 
-4.948025241860e+01 1.767890243536e+01 0.0 
1.767890243536e+01 -1.396441459280e+02 0.0 
0.0 0.0 -5.633731950397e+01 
-9.426564523338e+01 1.458217174070e+01 0.0 
1.458217174070e+01 -1.853720540700e+02 0.0 
0.0 0.0 -8.349130979101e+01 
-1.267811460983e+02 3.021377650898e+01 0.0 
3.021377650898e+01 -2.971560075627e+02 0.0 
0.0 0.0 -1.267811460983e+02 
-7.670930586029e+01 2.336016654333e+01 0.0 
2.336016654333e+01 -1.477432397880e+02 0.0 
0.0 0.0 -6.693576369449e+01 
-9.602199521486e+01 2.146944844290e+01 0.0 
2.146944844290e+01 -2.468864636660e+02 0.0 
0.0 0.0 -1.024725376643e+02 
-2.371187670703e+01 8.850974476973e+00 0.0 
8.850974476973e+00 -5.556246133809e+01 0.0 
0.0 0.0 -2.338230141354e+01 
-1.342572144589e+02 1.704210969079e+01 0.0 
1.704210969079e+01 -3.304800536323e+02 0.0 
0.0 0.0 -1.390211804274e+02 
-4.633908392277e+01 -8.745339310712e-01 0.0 
-8.745339310712e-01 -1.421369802993e+02 0.0 
0.0 0.0 -5.614281926663e+01 
-4.756876155555e+01 9.223932823743e-01 0.0 
9.223932823743e-01 -1.433926099685e+02 0.0 
0.0 0.0 -5.688841145720e+01 
-2.059981802468e+01 -2.000302707985e+00 0.0 
-2.000302707985e+00 -2.581427995474e+01 0.0 
0.0 0.0 -1.352422939382e+01 
-1.328876954715e+02 2.997104565208e+01 0.0 
2.997104565208e+01 -3.114046227669e+02 0.0 
0.0 0.0 -1.328876954715e+02 
-2.946118309870e+01 5.829361147435e+00 0.0 
5.829361147435e+00 -8.306320001578e+01 0.0 
0.0 0.0 -3.335731493435e+01 
-1.197763590810e+02 1.234765331895e+01 0.0 
1.234765331895e+01 -3.080845167708e+02 0.0 
0.0 0.0 -1.279582627555e+02 
-5.674164449500e+01 4.033644153768e+00 0.0 
4.033644153768e+00 -8.913394107833e+01 0.0 
0.0 0.0 -4.336267567200e+01 
-4.286120440123e+01 -1.741703731155e+00 0.0 
-1.741703731155e+00 -1.229665834340e+02 0.0 
0.0 0.0 -4.934833635055e+01 
-4.408806874365e+01 1.307962339944e+00 0.0 
1.307962339944e+00 -1.339424530462e+02 0.0 
0.0 0.0 -5.300915653694e+01 
-7.256590859554e+01 2.409023584705e+01 0.0 
2.409023584705e+01 -1.436849495165e+02 0.0 
0.0 0.0 -6.447525743360e+01 
-1.440909908648e+02 2.682321980848e+01 0.0 
2.682321980848e+01 -3.375456453512e+02 0.0 
0.0 0.0 -1.440909908648e+02 
-6.514046221545e+01 -1.277337127881e+00 0.0 
-1.277337127881e+00 -1.812770841986e+02 0.0 
0.0 0.0 -7.352526392422e+01 
-1.014055104955e+02 7.801164884972e+00 0.0 
7.801164884972e+00 -2.721863445797e+02 0.0 
0.0 0.0 -1.116775565226e+02 
-6.369128933791e+01 2.093993782802e+01 0.0 
2.093993782802e+01 -1.637765060186e+02 0.0 
0.0 0.0 -6.784033860696e+01 
-8.618217684421e+01 8.628236086274e+00 0.0 
8.628236086274e+00 -2.418461212047e+02 0.0 
0.0 0.0 -9.800848941467e+01 
-4.632996863687e+01 2.823968299527e+00 0.0 
2.823968299527e+00 -1.421437184283e+02 0.0 
0.0 0.0 -5.614210611956e+01 
-9.245187526376e+01 6.540752777256e+00 0.0 
6.540752777256e+00 -2.535007780437e+02 0.0 
0.0 0.0 -1.033857959923e+02 
-6.021399444839e+01 2.262876854396e+01 0.0 
2.262876854396e+01 -1.487839851801e+02 0.0 
0.0 0.0 -6.229939388856e+01 
-8.768594413572e+01 2.498447938402e+01 0.0 
2.498447938402e+01 -2.075611146050e+02 0.0 
0.0 0.0 -8.817411762222e+01 
-9.442112549942e+01 1.567417862969e+01 0.0 
1.567417862969e+01 -2.581353647111e+02 0.0 
0.0 0.0 -1.053669470631e+02 
-5.993180395636e+01 1.973225583293e+01 0.0 
1.973225583293e+01 -1.606750715835e+02 0.0 
0.0 0.0 -6.578206266194e+01 
-6.461428125319e+01 -8.635547547234e-01 0.0 
-8.635547547234e-01 -1.849710545878e+02 0.0 
0.0 0.0 -7.447560075230e+01 
-3.417968214555e+01 1.233268987414e+01 0.0 
1.233268987414e+01 -9.727658488518e+01 0.0 
0.0 0.0 -3.903688010922e+01 
-6.140618460884e+01 -1.524789334062e+00 0.0 
-1.524789334062e+00 -1.724584679037e+02 0.0 
0.0 0.0 -6.975939575376e+01 
-9.247736000278e+01 2.324616292217e+01 0.0 
2.324616292217e+01 -2.335841361518e+02 0.0 
0.0 0.0 -9.741844884638e+01 
-7.339407335143e+01 1.159842263141e+01 0.0 
1.159842263141e+01 -2.158059225904e+02 0.0 
0.0 0.0 -8.635999878254e+01 
-1.502588957571e+02 1.974322213249e+01 0.0 
1.974322213249e+01 -3.603525493448e+02 0.0 
0.0 0.0 -1.527834335306e+02 
-9.818431720435e+01 1.676922811438e+01 0.0 
1.676922811438e+01 -1.972696201746e+02 0.0 
0.0 0.0 -8.823618121369e+01 
-3.834993413823e+01 -3.001088928215e+00 0.0 
-3.001088928215e+00 -1.115483781646e+02 0.0 
0.0 0.0 -4.456949369086e+01 
-1.522135477372e+02 2.109132802143e+01 0.0 
2.109132802143e+01 -3.564982780534e+02 0.0 
0.0 0.0 -1.522135477372e+02 
-1.397962491070e+02 1.919665337949e+01 0.0 
1.919665337949e+01 -3.434300470327e+02 0.0 
0.0 0.0 -1.445678888419e+02 
-5.667885374558e+01 1.550290329672e+01 0.0 
1.550290329672e+01 -1.668610923240e+02 0.0 
0.0 0.0 -6.666198382088e+01 
-1.632997451998e+01 -1.963878206445e+00 0.0 
-1.963878206445e+00 -2.538598718499e+01 0.0 
0.0 0.0 -1.249257203319e+01 
-1.543038076194e+02 1.495442241803e+01 0.0 
1.495442241803e+01 -3.693187656548e+02 0.0 
0.0 0.0 -1.566867719823e+02 
-9.972142294243e+01 1.963038274579e+01 0.0 
1.963038274579e+01 -2.017561243715e+02 0.0 
0.0 0.0 -9.004326419419e+01 
-4.052323459622e+01 -1.743113555477e+00 0.0 
-1.743113555477e+00 -1.235054624608e+02 0.0 
0.0 0.0 -4.880860911712e+01 
-1.567783973660e+02 1.658613238813e+01 0.0 
1.658613238813e+01 -3.671495938540e+02 0.0 
0.0 0.0 -1.567783973660e+02 
-9.742820621807e+01 6.357270886146e+00 0.0 
6.357270886146e+00 -2.632772513772e+02 0.0 
0.0 0.0 -1.078116372786e+02 
-4.248797319393e+01 2.097132310909e+01 0.0 
2.097132310909e+01 -9.577713207802e+01 0.0 
0.0 0.0 -4.107953158158e+01 
-6.365631360188e+01 1.291849665898e+01 0.0 
1.291849665898e+01 -9.897863870283e+01 0.0 
0.0 0.0 -4.839048569141e+01 
-7.072238116036e+01 1.287917036649e+01 0.0 
1.287917036649e+01 -2.049970548523e+02 0.0 
0.0 0.0 -8.231583080380e+01 
-8.050638927021e+01 3.991962736570e+00 0.0 
3.991962736570e+00 -2.258898750939e+02 0.0 
0.0 0.0 -9.151887930923e+01 
-8.984821736780e+01 1.039498617175e+01 0.0 
1.039498617175e+01 -2.497317398952e+02 0.0 
0.0 0.0 -1.014739871789e+02 
-8.031852581321e+01 1.553966839061e+01 0.0 
1.553966839061e+01 -1.377759390085e+02 0.0 
0.0 0.0 -6.502833944652e+01 
-4.943791081548e+01 2.172631099051e+01 0.0 
2.172631099051e+01 -9.888233899393e+01 0.0 
0.0 0.0 -4.409607494282e+01 
-9.842970809186e+01 1.746830846484e+01 0.0 
1.746830846484e+01 -2.640744842789e+02 0.0 
0.0 0.0 -1.083512577112e+02 
-5.422412165450e+01 5.961086671452e-01 0.0 
5.961086671452e-01 -9.795666437690e+01 0.0 
0.0 0.0 -4.525423580942e+01 
-6.640039451374e+01 3.451674521279e-01 0.0 
3.451674521279e-01 -1.859882077903e+02 0.0 
0.0 0.0 -7.531658069123e+01 
-9.041726616193e+01 1.385314403318e+01 0.0 
1.385314403318e+01 -2.518205908819e+02 0.0 
0.0 0.0 -1.022713571131e+02 
-4.848479562464e+01 -3.638983955468e-01 0.0 
-3.638983955468e-01 -1.431423994827e+02 0.0 
0.0 0.0 -5.708815853219e+01 
-9.735643518486e+01 1.486765979143e+00 0.0 
1.486765979143e+00 -2.597559929024e+02 0.0 
0.0 0.0 -1.067337284262e+02 
-1.461722863338e+01 -7.604616049613e-01 0.0 
-7.604616049613e-01 -8.058272498940e+00 0.0 
0.0 0.0 -6.402650339697e+00 
-3.614848257615e+01 1.446294999390e+01 0.0 
1.446294999390e+01 -1.009470641780e+02 0.0 
0.0 0.0 -4.072866402624e+01 
-4.509843540729e+01 -2.822033711144e-01 0.0 
-2.822033711144e-01 -1.341727931720e+02 0.0 
0.0 0.0 -5.338136857378e+01 
-7.267237824114e+01 -5.536109654295e-01 0.0 
-5.536109654295e-01 -2.026349105130e+02 0.0 
0.0 0.0 -8.219218662624e+01 
-6.007821422039e+01 1.725036041988e+01 0.0 
1.725036041988e+01 -1.710881877919e+02 0.0 
0.0 0.0 -6.894992060367e+01 
-9.531671072631e+01 5.250177155209e+00 0.0 
5.250177155209e+00 -2.621481184923e+02 0.0 
0.0 0.0 -1.068394487656e+02 
-6.110677333765e+01 3.943742938787e+00 0.0 
3.943742938787e+00 -1.012919401103e+02 0.0 
0.0 0.0 -4.831961403438e+01 
-4.257102182416e+01 -1.196261018632e+00 0.0 
-1.196261018632e+00 -1.244946922673e+02 0.0 
0.0 0.0 -4.971971422743e+01 
-1.579710396403e+02 1.512980774688e+01 0.0 
1.512980774688e+01 -3.699324258273e+02 0.0 
0.0 0.0 -1.579710396403e+02 
-7.193506650500e+01 2.473303289386e+01 0.0 
2.473303289386e+01 -1.568338519290e+02 0.0 
0.0 0.0 -6.823067553020e+01 
-7.672672872822e+01 -4.293675044087e-01 0.0 
-4.293675044087e-01 -2.113204806272e+02 0.0 
0.0 0.0 -8.601416280662e+01 
-6.785406378634e+01 2.437839503679e+01 0.0 
2.437839503679e+01 -1.539744320163e+02 0.0 
0.0 0.0 -6.614854874079e+01 
-7.414431242472e+01 7.678114280700e-01 0.0 
7.678114280700e-01 -2.035407181201e+02 0.0 
0.0 0.0 -8.290550916344e+01 
-1.222147861253e+01 -8.095628352657e-01 0.0 
-8.095628352657e-01 -8.921583805067e+00 0.0 
0.0 0.0 -6.917164704527e+00 
-6.935246665884e+01 1.532395324262e+01 0.0 
1.532395324262e+01 -1.082199754191e+02 0.0 
0.0 0.0 -5.287173262339e+01 
-6.167542198394e+01 -1.176510248232e+00 0.0 
-1.176510248232e+00 -1.695063151366e+02 0.0 
0.0 0.0 -6.895452113615e+01 
-5.493621880212e+00 -4.976261135468e-01 0.0 
-4.976261135468e-01 -8.745320725398e+00 0.0 
0.0 0.0 -4.826357570330e+00 
-7.280956186738e+01 -8.698285809276e-01 0.0 
-8.698285809276e-01 -2.005877513783e+02 0.0 
0.0 0.0 -8.161919397369e+01 
-1.045435361947e+02 6.369766964012e+00 0.0 
6.369766964012e+00 -2.808353295966e+02 0.0 
0.0 0.0 -1.152136597374e+02 
-8.234041649674e+01 2.806952581269e+00 0.0 
2.806952581269e+00 -1.740657660730e+02 0.0 
0.0 0.0 -7.652185477094e+01 
-8.139476989617e+01 9.068785807156e+00 0.0 
9.068785807156e+00 -2.315854791694e+02 0.0 
0.0 0.0 -9.349407471967e+01 
-8.397297514880e+01 7.827489941345e+00 0.0 
7.827489941345e+00 -2.407154151218e+02 0.0 
0.0 0.0 -9.700651708117e+01 
-5.322125833204e+01 1.177948193034e+01 0.0 
1.177948193034e+01 -6.587434725284e+01 0.0 
0.0 0.0 -3.532868167546e+01 
-3.854994563361e+01 1.195730491181e+00 0.0 
1.195730491181e+00 -4.800477824511e+01 0.0 
0.0 0.0 -2.556641716362e+01 
-1.014319208185e+02 1.618946160489e+01 0.0 
1.618946160489e+01 -2.259845400088e+02 0.0 
0.0 0.0 -9.782493824819e+01 
-6.394208711639e+01 2.365144048590e+01 0.0 
2.365144048590e+01 -1.513402509140e+02 0.0 
0.0 0.0 -6.418470140912e+01 
-4.357189665219e+00 -3.703805978731e-01 0.0 
-3.703805978731e-01 -7.347950457276e+00 0.0 
0.0 0.0 -3.111542036749e+00 
-2.631920661491e+01 -2.108478571626e+00 0.0 
-2.108478571626e+00 -6.920446917791e+01 0.0 
0.0 0.0 -2.825710273784e+01 
-1.557193605713e+01 -1.952225429118e+00 0.0 
-1.952225429118e+00 -2.515031296251e+01 0.0 
0.0 0.0 -1.221018796329e+01 
-4.269738072318e+01 -2.007882429419e+00 0.0 
-2.007882429419e+00 -1.202469139235e+02 0.0 
0.0 0.0 -4.848328839399e+01 
-1.036278547986e+02 2.676814153719e+01 0.0 
2.676814153719e+01 -2.348598698610e+02 0.0 
0.0 0.0 -1.011463173979e+02 
-8.403854037120e+01 4.627183560166e+00 0.0 
4.627183560166e+00 -1.751002872692e+02 0.0 
0.0 0.0 -7.734164829212e+01 
-1.201039138479e+02 5.312389220376e+00 0.0 
5.312389220376e+00 -3.086309817885e+02 0.0 
0.0 0.0 -1.282204686909e+02 
-4.862218822513e+01 -1.295385739079e+00 0.0 
-1.295385739079e+00 -1.363895933364e+02 0.0 
0.0 0.0 -5.510353446847e+01 
-9.868323219895e+01 2.807827017228e+00 0.0 
2.807827017228e+00 -2.606222679983e+02 0.0 
0.0 0.0 -1.073916500592e+02 
-1.235471072835e+02 1.062522248651e+01 0.0 
1.062522248651e+01 -3.170286022187e+02 0.0 
0.0 0.0 -1.317727128507e+02 
-2.668348333077e+01 1.726024855010e+00 0.0 
1.726024855010e+00 -6.919302588635e+01 0.0 
0.0 0.0 -2.836295276514e+01 
-6.206206162916e+01 5.279578950946e-01 0.0 
5.279578950946e-01 -1.697157875619e+02 0.0 
0.0 0.0 -6.913335475731e+01 
-5.077039789943e+01 -1.047197220358e+00 0.0 
-1.047197220358e+00 -1.397818743776e+02 0.0 
0.0 0.0 -5.676568168309e+01 
-1.551967763511e+02 1.335688023656e+01 0.0 
1.335688023656e+01 -3.713259956792e+02 0.0 
0.0 0.0 -1.575568316091e+02 
-1.589760206099e+02 1.367952282809e+01 0.0 
1.367952282809e+01 -3.722773814231e+02 0.0 
0.0 0.0 -1.589760206099e+02 
-6.919186106205e+01 4.383429993450e-01 0.0 
4.383429993450e-01 -1.883129857236e+02 0.0 
0.0 0.0 -7.685145403570e+01 
-7.811623443484e+01 9.380444524281e-01 0.0 
9.380444524281e-01 -2.122082514153e+02 0.0 
0.0 0.0 -8.669734575506e+01 
-8.290770787864e+01 2.851649993623e+00 0.0 
2.851649993623e+00 -2.340254126924e+02 0.0 
0.0 0.0 -9.467993617132e+01 
-1.280860387248e+02 1.251195029066e+01 0.0 
1.251195029066e+01 -3.250969692816e+02 0.0 
0.0 0.0 -1.355549024019e+02 
-2.817042802487e+01 -3.202448469556e+00 0.0 
-3.202448469556e+00 -7.670287977158e+01 0.0 
0.0 0.0 -3.106199233894e+01 
-1.188256018450e+02 8.967948935287e+00 0.0 
8.967948935287e+00 -3.084147023634e+02 0.0 
0.0 0.0 -1.277720912625e+02 
-1.673247232157e+01 -1.295663491883e+00 0.0 
-1.295663491883e+00 -4.310503544061e+01 0.0 
0.0 0.0 -1.755125232866e+01 
-7.017612950848e+01 3.734767407786e-01 0.0 
3.734767407786e-01 -1.928338374017e+02 0.0 
0.0 0.0 -7.850299007305e+01 
-7.802106304104e+01 1.321711993167e+00 0.0 
1.321711993167e+00 -2.140506624114e+02 0.0 
0.0 0.0 -8.722151763574e+01 
-9.400282198024e+00 -6.929628519560e-01 0.0 
-6.929628519560e-01 -2.555706082872e+01 0.0 
0.0 0.0 -1.046779807780e+01 
-6.572009336731e+01 -9.202959546494e-01 0.0 
-9.202959546494e-01 -1.789113935509e+02 0.0 
0.0 0.0 -7.298944607546e+01 
-9.454349968099e+01 1.439182030436e+01 0.0 
1.439182030436e+01 -1.951389736953e+02 0.0 
0.0 0.0 -8.650474201289e+01 
-3.479085497034e+00 -3.349666462156e-01 0.0 
-3.349666462156e-01 -7.819119670590e+00 0.0 
0.0 0.0 -2.989461550287e+00 
-4.037250293375e+01 1.941835666010e+00 0.0 
1.941835666010e+00 -4.864100935341e+01 0.0 
0.0 0.0 -2.630405368615e+01 
-3.957288548854e+01 2.864781549544e+00 0.0 
2.864781549544e+00 -5.005386605870e+01 0.0 
0.0 0.0 -2.648802546417e+01 
-9.363771289720e+01 1.223636067133e+01 0.0 
1.223636067133e+01 -2.572157738323e+02 0.0 
0.0 0.0 -1.048560460188e+02 
-5.087236220705e+01 4.950291866205e-01 0.0 
4.950291866205e-01 -1.397443003110e+02 0.0 
0.0 0.0 -5.678499875541e+01 
-4.379084965131e+01 -1.864117723876e+00 0.0 
-1.864117723876e+00 -1.323362763680e+02 0.0 
0.0 0.0 -5.243813780578e+01 
-2.692508777318e+01 1.152348713377e+01 0.0 
1.152348713377e+01 -6.394071430895e+01 0.0 
0.0 0.0 -2.685974062464e+01 
-1.352739628936e+02 5.644336676160e+00 0.0 
5.644336676160e+00 -3.358657269640e+02 0.0 
0.0 0.0 -1.409419069573e+02 
-1.240803828811e+02 2.825920160475e+01 0.0 
2.825920160475e+01 -2.920025204927e+02 0.0 
0.0 0.0 -1.244248710122e+02 
-8.233324617232e+01 6.365731053272e+00 0.0 
6.365731053272e+00 -1.629566735884e+02 0.0 
0.0 0.0 -7.318697592820e+01 
-3.130870697826e+01 1.684968208018e+01 0.0 
1.684968208018e+01 -7.158833541802e+01 0.0 
0.0 0.0 -3.046911271888e+01 
-1.953115774761e+01 -3.149979866720e+00 0.0 
-3.149979866720e+00 -4.781349048432e+01 0.0 
0.0 0.0 -1.980339446958e+01 
-4.965192048301e+01 2.312709446208e+01 0.0 
2.312709446208e+01 -8.331817817264e+01 0.0 
0.0 0.0 -3.949102959669e+01 
-3.630215268498e+01 1.757961944088e-01 0.0 
1.757961944088e-01 -4.846573538378e+01 0.0 
0.0 0.0 -2.503036642063e+01 
-3.464870615331e+01 2.400111735078e-01 0.0 
2.400111735078e-01 -4.818021548359e+01 0.0 
0.0 0.0 -2.444867649107e+01 
-4.809494465147e+00 -4.212960332973e-01 0.0 
-4.212960332973e-01 -8.976341627687e+00 0.0 
0.0 0.0 -4.704638278490e+00 
-9.730757605734e+00 -8.403424605361e-01 0.0 
-8.403424605361e-01 -2.540323718289e+01 0.0 
0.0 0.0 -1.056152780654e+01 
-1.451884706672e+01 -3.230537332950e-01 0.0 
-3.230537332950e-01 -4.210832744817e+01 0.0 
0.0 0.0 -1.658815235447e+01 
-3.729566924338e+01 -2.965893434192e+00 0.0 
-2.965893434192e+00 -1.049482357740e+02 0.0 
0.0 0.0 -4.227317150522e+01 
-9.544195624167e+00 -5.394985058067e-01 0.0 
-5.394985058067e-01 -2.592790452371e+01 0.0 
0.0 0.0 -1.024163004436e+01 
-7.303975979781e+01 -7.925647248686e-01 0.0 
-7.925647248686e-01 -1.985375800318e+02 0.0 
0.0 0.0 -8.107320194888e+01 
-1.601587601778e+01 -7.234378199471e-01 0.0 
-7.234378199471e-01 -8.837449812424e+00 0.0 
0.0 0.0 -8.024333114213e+00 
-4.387243308259e+01 -2.720961190866e+00 0.0 
-2.720961190866e+00 -1.245970546133e+02 0.0 
0.0 0.0 -5.014084630878e+01 
-6.048616647445e+01 5.603244848960e-01 0.0 
5.603244848960e-01 -1.149371757839e+02 0.0 
0.0 0.0 -5.222700267752e+01 
-3.654969912280e+01 9.141030771586e-01 0.0 
9.141030771586e-01 -4.838938554598e+01 0.0 
0.0 0.0 -2.508172540063e+01 
-1.071650828735e+02 2.706287454662e+01 0.0 
2.706287454662e+01 -2.390865681456e+02 0.0 
0.0 0.0 -1.034754953057e+02 
-1.003878433296e+02 4.984310386004e+00 0.0 
4.984310386004e+00 -2.715678436675e+02 0.0 
0.0 0.0 -1.111867060991e+02 
-5.328436078740e+01 1.428647976049e-01 0.0 
1.428647976049e-01 -9.717201784542e+01 0.0 
0.0 0.0 -4.473691358985e+01 
-5.429945747898e+01 -8.084057383445e-01 0.0 
-8.084057383445e-01 -1.492444790906e+02 0.0 
0.0 0.0 -6.066318097086e+01 
-1.600661560311e+01 -6.219568126749e-01 0.0 
-6.219568126749e-01 -4.285040908956e+01 0.0 
0.0 0.0 -1.725710740780e+01 
-9.916987076948e+01 8.193620490429e+00 0.0 
8.193620490429e+00 -2.327296984621e+02 0.0 
0.0 0.0 -9.916987076948e+01 
-1.033910992838e+02 9.070798542904e+00 0.0 
9.070798542904e+00 -2.348641099428e+02 0.0 
0.0 0.0 -1.010765627680e+02 
-5.426844663488e+01 1.390100719205e+00 0.0 
1.390100719205e+00 -8.779428830629e+01 0.0 
0.0 0.0 -4.221882048235e+01 
-3.672607888985e+01 3.583055092279e-01 0.0 
3.583055092279e-01 -4.806505641691e+01 0.0 
0.0 0.0 -2.503734059203e+01 
-5.525084351250e+01 -2.304072707843e-02 0.0 
-2.304072707843e-02 -1.513284938330e+02 0.0 
0.0 0.0 -6.157380120364e+01 
-1.022063508136e+02 6.339092221008e+00 0.0 
6.339092221008e+00 -2.331823008567e+02 0.0 
0.0 0.0 -1.002165955011e+02 
-4.183087625554e+01 -1.699211993912e+00 0.0 
-1.699211993912e+00 -1.167262382919e+02 0.0 
0.0 0.0 -4.716713436423e+01 
-3.779138308925e+01 1.695876977811e+00 0.0 
1.695876977811e+00 -4.886181044154e+01 0.0 
0.0 0.0 -2.559595805924e+01 
-3.787689823885e+01 6.564617737304e-01 0.0 
6.564617737304e-01 -4.799179396427e+01 0.0 
0.0 0.0 -2.536060766093e+01 
-4.504574570869e+01 1.775700238097e+01 0.0 
1.775700238097e+01 -6.379959307341e+01 0.0 
0.0 0.0 -3.225360163463e+01 
-1.044493152049e+02 1.834812377651e+01 0.0 
1.834812377651e+01 -2.450484021447e+02 0.0 
0.0 0.0 -1.044493152049e+02 
-1.036671312929e+02 7.540297003675e+00 0.0 
7.540297003675e+00 -2.344895520723e+02 0.0 
0.0 0.0 -1.010470050095e+02 
-9.974477268669e+00 -7.293062614868e-01 0.0 
-7.293062614868e-01 -2.572095756136e+01 0.0 
0.0 0.0 -1.030863044901e+01 
-4.393786932890e+00 -3.048829814316e-01 0.0 
-3.048829814316e-01 -9.090502418853e+00 0.0 
0.0 0.0 -4.622541612819e+00 
-2.224707860660e+01 -2.927290188452e+00 0.0 
-2.927290188452e+00 -5.740085516520e+01 0.0 
0.0 0.0 -2.349438013154e+01 
-7.639228466898e+01 2.836782843151e-02 0.0 
2.836782843151e-02 -2.130844638663e+02 0.0 
0.0 0.0 -8.644302456059e+01 
-1.454136380112e+02 -1.534094363334e-01 0.0 
-1.534094363334e-01 -3.522854134708e+02 0.0 
0.0 0.0 -1.489097154446e+02 
-2.021960788720e+01 -5.143098767939e-01 0.0 
-5.143098767939e-01 -7.142330568267e+00 0.0 
0.0 0.0 -7.808581536641e+00 
-7.612817174574e+01 1.425173782681e+00 0.0 
1.425173782681e+00 -1.580082820733e+02 0.0 
0.0 0.0 -6.984093614570e+01 
-1.485434334233e+01 -8.405745348035e-01 0.0 
-8.405745348035e-01 -8.989906581849e+00 0.0 
0.0 0.0 -7.734225017990e+00 
-9.271111968509e+01 9.039208402106e+00 0.0 
9.039208402106e+00 -2.589848888232e+02 0.0 
0.0 0.0 -1.051088025525e+02 
-1.655311971910e+01 -8.607833989943e-01 0.0 
-8.607833989943e-01 -8.244665961057e+00 0.0 
0.0 0.0 -7.039335704048e+00 
-1.842137725729e+01 -7.664070274532e-01 0.0 
-7.664070274532e-01 -8.137420888926e+00 0.0 
0.0 0.0 -7.567639443864e+00 
-8.886409088942e+01 7.354466962121e+00 0.0 
7.354466962121e+00 -2.507706852697e+02 0.0 
0.0 0.0 -1.014904328477e+02 
-1.398083113242e+02 1.979656500586e+00 0.0 
1.979656500586e+00 -3.422560304503e+02 0.0 
0.0 0.0 -1.442193025323e+02 
-6.056137878252e+01 1.030992050324e+00 0.0 
1.030992050324e+00 -1.138945824842e+02 0.0 
0.0 0.0 -5.193678838002e+01 
-5.315407243795e+01 2.390266671471e+01 0.0 
2.390266671471e+01 -1.010029988432e+02 0.0 
0.0 0.0 -4.584712138433e+01 
-9.062941715830e+00 -4.086939684202e-01 0.0 
-4.086939684202e-01 -2.554945837121e+01 0.0 
0.0 0.0 -1.036621415061e+01 
-1.029766754687e+02 2.710140386337e+00 0.0 
2.710140386337e+00 -2.692000285758e+02 0.0 
0.0 0.0 -1.112530112134e+02 
-9.789303192163e+01 2.532020258374e+00 0.0 
2.532020258374e+00 -2.297504078171e+02 0.0 
0.0 0.0 -9.789303192163e+01 
-1.011563643138e+02 3.459634298798e+00 0.0 
3.459634298798e+00 -2.318484346907e+02 0.0 
0.0 0.0 -9.950143970134e+01 
-3.568339154962e+01 4.549138930557e-01 0.0 
4.549138930557e-01 -4.813552771657e+01 0.0 
0.0 0.0 -2.474567577986e+01 
-9.669044281686e+01 1.079691695114e+01 0.0 
1.079691695114e+01 -2.668487168623e+02 0.0 
0.0 0.0 -1.086617479038e+02 
-9.898804187179e+01 6.632773240533e+00 0.0 
6.632773240533e+00 -2.323054310342e+02 0.0 
0.0 0.0 -9.898804187179e+01 
-9.745878983368e+01 2.283318334257e+01 0.0 
2.283318334257e+01 -2.477796065464e+02 0.0 
0.0 0.0 -1.031715189140e+02 
-1.521716588769e+01 -5.847982680353e-01 0.0 
-5.847982680353e-01 -4.167031691385e+01 0.0 
0.0 0.0 -1.666624484046e+01 
-9.163380382887e+00 -3.523091309300e-01 0.0 
-3.523091309300e-01 -2.570735673691e+01 0.0 
0.0 0.0 -1.006122113594e+01 
-8.601155028929e+00 -1.450552447202e-01 0.0 
-1.450552447202e-01 -2.513746387126e+01 0.0 
0.0 0.0 -9.962853184086e+00 
-6.186399815586e+01 -7.677670590048e-01 0.0 
-7.677670590048e-01 -1.690338181675e+02 0.0 
0.0 0.0 -6.886934489700e+01 
-1.606140783000e+02 3.355220939651e+00 0.0 
3.355220939651e+00 -3.811259607803e+02 0.0 
0.0 0.0 -1.621220117241e+02 
-9.322699100947e+01 1.092853554259e+00 0.0 
1.092853554259e+00 -2.092265925953e+02 0.0 
0.0 0.0 -9.033607508142e+01 
-3.458151301683e+00 -8.005907466349e-02 0.0 
-8.005907466349e-02 -9.066297392108e+00 0.0 
0.0 0.0 -4.326012719808e+00 
-7.343453018394e+01 6.518935191712e-01 0.0 
6.518935191712e-01 -1.987097431957e+02 0.0 
0.0 0.0 -8.124328201390e+01 
-1.637969268285e+02 2.309421784874e+00 0.0 
2.309421784874e+00 -3.835261625998e+02 0.0 
0.0 0.0 -1.637969268285e+02 
-1.598047662090e+02 3.593091190723e+00 0.0 
3.593091190723e+00 -3.802221217009e+02 0.0 
0.0 0.0 -1.616080663730e+02 
-1.559405130333e+02 1.202916859371e+01 0.0 
1.202916859371e+01 -3.729701315922e+02 0.0 
0.0 0.0 -1.582731933876e+02 
-6.879397975534e+01 -5.403623679647e-01 0.0 
-5.403623679647e-01 -1.381328165709e+02 0.0 
0.0 0.0 -6.167803889786e+01 
-7.981712786486e+01 9.563388347386e-01 0.0 
9.563388347386e-01 -1.684352339215e+02 0.0 
0.0 0.0 -7.407570853590e+01 
-1.628925548961e+02 3.175916613500e+00 0.0 
3.175916613500e+00 -3.814159614243e+02 0.0 
0.0 0.0 -1.628925548961e+02 
-1.630314578575e+02 4.195546269182e+00 0.0 
4.195546269182e+00 -3.817400683343e+02 0.0 
0.0 0.0 -1.630314578575e+02 
-7.613166308955e+01 -2.677988230176e-01 0.0 
-2.677988230176e-01 -1.580950942283e+02 0.0 
0.0 0.0 -6.986802719537e+01 
-1.874645170589e+00 -3.577997192661e-01 0.0 
-3.577997192661e-01 -6.805916615672e+00 0.0 
0.0 0.0 -2.204168535878e+00 
-3.382310675099e+01 -1.176978494760e-02 0.0 
-1.176978494760e-02 -4.732213646651e+01 0.0 
0.0 0.0 -2.394357296525e+01 
-3.510047518427e+01 1.145383336887e-01 0.0 
1.145383336887e-01 -4.821533839037e+01 0.0 
0.0 0.0 -2.459474407239e+01 
-3.890879815977e+00 -1.899406324534e-01 0.0 
-1.899406324534e-01 -9.062476433768e+00 0.0 
0.0 0.0 -4.462158617275e+00 
-1.623681276690e+02 7.302319610497e+00 0.0 
7.302319610497e+00 -3.801922978942e+02 0.0 
0.0 0.0 -1.623681276690e+02 
-1.563574746209e+02 1.051252053224e+01 0.0 
1.051252053224e+01 -3.741985800847e+02 0.0 
0.0 0.0 -1.587668164117e+02 
-1.607749772427e+02 9.606063444363e+00 0.0 
9.606063444363e+00 -3.764749468996e+02 0.0 
0.0 0.0 -1.607749772427e+02 
-2.297503753996e+00 -1.315081532050e-01 0.0 
-1.315081532050e-01 -7.948835034509e+00 0.0 
0.0 0.0 -2.673901636551e+00 
-2.766720072165e+00 -2.900897736155e-01 0.0 
-2.900897736155e-01 -8.053593509265e+00 0.0 
0.0 0.0 -2.846094074429e+00 
-1.596631124073e+02 1.228733520344e+01 0.0 
1.228733520344e+01 -3.738805956169e+02 0.0 
0.0 0.0 -1.596631124073e+02 
-1.603535478301e+02 1.099439463409e+01 0.0 
1.099439463409e+01 -3.754916116036e+02 0.0 
0.0 0.0 -1.603535478301e+02 
-6.493173315277e+01 9.722083336728e-01 0.0 
9.722083336728e-01 -1.281205215337e+02 0.0 
0.0 0.0 -5.751567640594e+01 
-3.316732695622e+01 -1.359455998940e-01 0.0 
-1.359455998940e-01 -4.699495698448e+01 0.0 
0.0 0.0 -2.364868518221e+01 
-7.269084167232e+01 9.814284196216e-01 0.0 
9.814284196216e-01 -1.482235236977e+02 0.0 
0.0 0.0 -6.587430961101e+01 
-4.958187158078e+01 8.965365988999e-01 0.0 
8.965365988999e-01 -8.843552063409e+01 0.0 
0.0 0.0 -4.100521766446e+01 
-3.334264147850e+01 -9.786298632097e-02 0.0 
-9.786298632097e-02 -4.715247458031e+01 0.0 
0.0 0.0 -2.374853481764e+01 
-5.521510411102e+00 -5.645704572258e-01 0.0 
-5.645704572258e-01 -7.661313745868e+00 0.0 
0.0 0.0 -3.554847247091e+00 
-8.198102675749e+00 -4.151128341017e-01 0.0 
-4.151128341017e-01 -8.319926874041e+00 0.0 
0.0 0.0 -4.555408864937e+00 
-9.481064352158e+00 -5.765711623779e-01 0.0 
-5.765711623779e-01 -7.918742612186e+00 0.0 
0.0 0.0 -4.819942089303e+00 
-1.106675843754e+01 -6.569217692828e-01 0.0 
-6.569217692828e-01 -8.040963905202e+00 0.0 
0.0 0.0 -5.332316702824e+00 
-7.737129354639e+01 -8.962224491685e-01 0.0 
-8.962224491685e-01 -2.087394448126e+02 0.0 
0.0 0.0 -8.543322150770e+01 
-6.953900682635e+01 -7.885184204561e-01 0.0 
-7.885184204561e-01 -1.888165168410e+02 0.0 
0.0 0.0 -7.710665710021e+01 
-8.333579501997e+00 -6.143308603030e-01 0.0 
-6.143308603030e-01 -8.977240726234e+00 0.0 
0.0 0.0 -5.770273539405e+00 
-1.024819488088e+02 -7.972521817717e-01 0.0 
-7.972521817717e-01 -2.663972591353e+02 0.0 
0.0 0.0 -1.102637623832e+02 
-9.789979211009e+00 -7.354300377600e-01 0.0 
-7.354300377600e-01 -8.946857166821e+00 0.0 
0.0 0.0 -6.192890086122e+00 
-1.016874779908e+02 1.446190640724e+01 0.0 
1.446190640724e+01 -2.386041153119e+02 0.0 
0.0 0.0 -1.016874779908e+02 
-9.846876624286e+01 5.470976575243e+00 0.0 
5.470976575243e+00 -2.310937879000e+02 0.0 
0.0 0.0 -9.846876624286e+01 
-9.952373974546e+01 9.612389165167e+00 0.0 
9.612389165167e+00 -2.335553927394e+02 0.0 
0.0 0.0 -9.952373974546e+01 
-2.508713048948e+01 -9.763729084656e-01 0.0 
-9.763729084656e-01 -6.909874994308e+01 0.0 
0.0 0.0 -2.785576412977e+01 
-4.701337145778e+01 -8.307000525073e-01 0.0 
-8.307000525073e-01 -1.293413891225e+02 0.0 
0.0 0.0 -5.250642817410e+01 
-9.807938992811e+01 4.354185300378e+00 0.0 
4.354185300378e+00 -2.301852431656e+02 0.0 
0.0 0.0 -9.807938992811e+01 
-1.306982474290e+02 -6.556807251243e-01 0.0 
-6.556807251243e-01 -3.243612217114e+02 0.0 
0.0 0.0 -1.361178407421e+02 
-9.889383498672e+01 3.490804651034e+00 0.0 
3.490804651034e+00 -2.320856149690e+02 0.0 
0.0 0.0 -9.889383498672e+01 
-1.406465056852e+02 -6.957308889406e-01 0.0 
-6.957308889406e-01 -3.434178945004e+02 0.0 
0.0 0.0 -1.448193200557e+02 
-1.509474862955e+02 -7.591203742126e-01 0.0 
-7.591203742126e-01 -3.623576503414e+02 0.0 
0.0 0.0 -1.535915409911e+02 
-6.569233261359e+01 6.514105738447e-01 0.0 
6.514105738447e-01 -1.789003318608e+02 0.0 
0.0 0.0 -7.297779934232e+01 
-1.017093040840e+02 5.116130210444e+00 0.0 
5.116130210444e+00 -2.320950400941e+02 0.0 
0.0 0.0 -9.974130325343e+01 
-1.010494266653e+02 3.549013905719e+00 0.0 
3.549013905719e+00 -2.320455401601e+02 0.0 
0.0 0.0 -9.952849004764e+01 
-1.353675955505e+02 1.353660019131e+00 0.0 
1.353660019131e+00 -3.329899434842e+02 0.0 
0.0 0.0 -1.401072617104e+02 
-1.456634605398e+02 1.431137348414e+00 0.0 
1.431137348414e+00 -3.525204911589e+02 0.0 
0.0 0.0 -1.490551855096e+02 
-1.115764695178e+02 2.300057150063e+00 0.0 
2.300057150063e+00 -2.862318961398e+02 0.0 
0.0 0.0 -1.189425096973e+02 
-1.355435330087e+01 -8.687073276332e-01 0.0 
-8.687073276332e-01 -8.892252054628e+00 0.0 
0.0 0.0 -7.310457789528e+00 
-6.605737851808e+01 1.437334696166e-01 0.0 
1.437334696166e-01 -1.819535008508e+02 0.0 
0.0 0.0 -7.400326381068e+01 
-1.039129795354e+01 -7.487236958021e-01 0.0 
-7.487236958021e-01 -2.542966188373e+01 0.0 
0.0 0.0 -1.034628795118e+01 
-1.362167970984e+02 6.892246866230e+00 0.0 
6.892246866230e+00 -3.364484021226e+02 0.0 
0.0 0.0 -1.413995597663e+02 
-6.892896218777e+01 -9.977373891633e-01 0.0 
-9.977373891633e-01 -1.920078432616e+02 0.0 
0.0 0.0 -7.788104163482e+01 
-1.252465911225e+02 2.101645125248e+00 0.0 
2.101645125248e+00 -3.150063338432e+02 0.0 
0.0 0.0 -1.316758774897e+02 
-3.517916854532e+01 -1.932214141746e+00 0.0 
-1.932214141746e+00 -9.700821274380e+01 0.0 
0.0 0.0 -3.925621438673e+01 
-1.614623178483e+01 -1.829041766172e+00 0.0 
-1.829041766172e+00 -4.158381401721e+01 0.0 
0.0 0.0 -1.691901374061e+01 
-1.355329026785e+02 3.833803393837e+00 0.0 
3.833803393837e+00 -3.341459290073e+02 0.0 
0.0 0.0 -1.405036495057e+02 
-7.413935549405e+01 5.902477958602e-01 0.0 
5.902477958602e-01 -2.014864871127e+02 0.0 
0.0 0.0 -8.228775278203e+01 
-5.775840422445e+01 -1.015123583776e+00 0.0 
-1.015123583776e+00 -1.592035680916e+02 0.0 
0.0 0.0 -6.468859169482e+01 
-1.258827971272e+02 3.443926121726e+00 0.0 
3.443926121726e+00 -3.155809359435e+02 0.0 
0.0 0.0 -1.320391199212e+02 
-8.561773076440e+01 9.828812278014e-01 0.0 
9.828812278014e-01 -1.864258205798e+02 0.0 
0.0 0.0 -8.121306540327e+01 
-5.816941915388e+01 5.925164129520e-01 0.0 
5.925164129520e-01 -1.593362316456e+02 0.0 
0.0 0.0 -6.485169523984e+01 
-1.107960989712e+02 9.026311621457e+00 0.0 
9.026311621457e+00 -2.908582004808e+02 0.0 
0.0 0.0 -1.200962898356e+02 
-9.696487386291e+01 2.486416310116e+00 0.0 
2.486416310116e+00 -2.611675516210e+02 0.0 
0.0 0.0 -1.070397276452e+02 
-1.108388287178e+02 9.224425599007e-01 0.0 
9.224425599007e-01 -2.856151793161e+02 0.0 
0.0 0.0 -1.185362024102e+02 
-1.153374532309e+02 6.845529085807e-01 0.0 
6.845529085807e-01 -2.943790057125e+02 0.0 
0.0 0.0 -1.225149376830e+02 
-4.514717875336e+01 7.544689357943e+00 0.0 
7.544689357943e+00 -1.450942557237e+02 0.0 
0.0 0.0 -5.667243034311e+01 
-4.602380929704e+01 2.333331528597e+01 0.0 
2.333331528597e+01 -8.161101755794e+01 0.0 
0.0 0.0 -3.789044805650e+01 
-5.714111389512e+01 1.871352365788e+01 0.0 
1.871352365788e+01 -1.577136526617e+02 0.0 
0.0 0.0 -6.405642996706e+01 
-1.018561409774e+02 1.350438857164e+00 0.0 
1.350438857164e+00 -2.684251394948e+02 0.0 
0.0 0.0 -1.106843841417e+02 
-1.304110278983e+02 3.052591269689e+00 0.0 
3.052591269689e+00 -3.241630597400e+02 0.0 
0.0 0.0 -1.359722262915e+02 
-1.198619269597e+02 2.939528622204e-01 0.0 
2.939528622204e-01 -3.032346405801e+02 0.0 
0.0 0.0 -1.265289702620e+02 
-3.519671504555e+01 -3.328229873107e+00 0.0 
-3.328229873107e+00 -1.002613521583e+02 0.0 
0.0 0.0 -4.023742016117e+01 
-8.602091997801e+01 2.292220956546e+00 0.0 
2.292220956546e+00 -1.854358879293e+02 0.0 
0.0 0.0 -8.103704237220e+01 
-7.885888972906e+01 1.785469412173e+00 0.0 
1.785469412173e+00 -1.648307002132e+02 0.0 
0.0 0.0 -7.270687698269e+01 
-4.460463608881e+01 -5.191526639456e-01 0.0 
-5.191526639456e-01 -7.366666083509e+01 0.0 
0.0 0.0 -3.508138907717e+01 
-1.063369473609e+02 2.155993483231e+00 0.0 
2.155993483231e+00 -2.787688662596e+02 0.0 
0.0 0.0 -1.151317440862e+02 
-1.063610288355e+02 1.166397503008e+00 0.0 
1.166397503008e+00 -2.770632641507e+02 0.0 
0.0 0.0 -1.146272878959e+02 
-8.672472982933e+01 2.864922204176e+00 0.0 
2.864922204176e+00 -1.876464778220e+02 0.0 
0.0 0.0 -8.191136229540e+01 
-8.248937471280e+01 1.569956311207e+00 0.0 
1.569956311207e+00 -1.758618927580e+02 0.0 
0.0 0.0 -7.710538024125e+01 
-9.408026629346e+01 3.822504165710e+00 0.0 
3.822504165710e+00 -2.532638866407e+02 0.0 
0.0 0.0 -1.038032458802e+02 
-1.402238710547e+02 3.292325118311e+00 0.0 
3.292325118311e+00 -3.426021830073e+02 0.0 
0.0 0.0 -1.444478162186e+02 
-7.983091115476e+01 4.418985642897e+00 0.0 
4.418985642897e+00 -1.615632740357e+02 0.0 
0.0 0.0 -7.201825555714e+01 
-1.202715290284e+02 1.616796315021e+00 0.0 
1.616796315021e+00 -3.034084060609e+02 0.0 
0.0 0.0 -1.267039805268e+02 
-1.416826040980e+02 6.514168449330e+00 0.0 
6.514168449330e+00 -3.460962597941e+02 0.0 
0.0 0.0 -1.459336591677e+02 
-8.716104391868e+01 4.297161199873e+00 0.0 
4.297161199873e+00 -1.863938491488e+02 0.0 
0.0 0.0 -8.166646792025e+01 
-6.991391770647e+01 3.182293203933e+00 0.0 
3.182293203933e+00 -1.345874773048e+02 0.0 
0.0 0.0 -6.095041850338e+01 
-1.065168800909e+02 7.516242335886e+00 0.0 
7.516242335886e+00 -2.819201901104e+02 0.0 
0.0 0.0 -1.161311210604e+02 
-3.602518022020e+01 -2.020652166593e+00 0.0 
-2.020652166593e+00 -9.995173927084e+01 0.0 
0.0 0.0 -4.039307584731e+01 
-3.273543600635e+01 -3.336073768918e+00 0.0 
-3.336073768918e+00 -9.236731572156e+01 0.0 
0.0 0.0 -3.713082551837e+01 
-1.949565539870e+01 -1.663685508762e+00 0.0 
-1.663685508762e+00 -4.808813460622e+01 0.0 
0.0 0.0 -1.987513700148e+01 
-1.931705848645e+01 -2.004250618525e+00 0.0 
-2.004250618525e+00 -2.565618510260e+01 0.0 
0.0 0.0 -1.309197307672e+01 
-8.356388681398e+01 3.317070750007e+00 0.0 
3.317070750007e+00 -1.765633505345e+02 0.0 
0.0 0.0 -7.763817120455e+01 
-1.346597221059e+02 1.149736769337e+00 0.0 
1.149736769337e+00 -3.321306806807e+02 0.0 
0.0 0.0 -1.396371208360e+02 
-1.788003611466e+01 -1.990458323487e+00 0.0 
-1.990458323487e+00 -2.531656480455e+01 0.0 
0.0 0.0 -1.255898027576e+01 
-1.015452663171e+02 2.255432877967e+01 0.0 
2.255432877967e+01 -2.083625442710e+02 0.0 
0.0 0.0 -9.257234317644e+01 
-4.897004395032e+01 -1.422552023209e-01 0.0 
-1.422552023209e-01 -8.265191157979e+01 0.0 
0.0 0.0 -3.908658665903e+01 
-1.214003704319e+02 3.833176113677e+00 0.0 
3.833176113677e+00 -3.070917451266e+02 0.0 
0.0 0.0 -1.281476346676e+02 
-1.247774812979e+02 9.280790918027e-01 0.0 
9.280790918027e-01 -3.132168401886e+02 0.0 
0.0 0.0 -1.309982964459e+02 
-4.705801405027e+01 -1.848996925801e+00 0.0 
-1.848996925801e+00 -1.407909070788e+02 0.0 
0.0 0.0 -5.595467633872e+01 
-1.251823045176e+02 2.322043903738e+00 0.0 
2.322043903738e+00 -3.136756116332e+02 0.0 
0.0 0.0 -1.312573748452e+02 
-4.545087157758e+01 1.577163560001e+00 0.0 
1.577163560001e+00 -7.396275365421e+01 0.0 
0.0 0.0 -3.542408756954e+01 
-9.622244492741e+01 1.661100886892e+01 0.0 
1.661100886892e+01 -2.590967455543e+02 0.0 
0.0 0.0 -1.061957571445e+02 
-1.463975858313e+02 4.394947111341e+00 0.0 
4.394947111341e+00 -3.547343935325e+02 0.0 
0.0 0.0 -1.499395938091e+02 
-3.480400469464e+01 -1.226198325220e+00 0.0 
-1.226198325220e+00 -9.657238144391e+01 0.0 
0.0 0.0 -3.901291584156e+01 
-1.412299222008e+02 8.067910430501e+00 0.0 
8.067910430501e+00 -3.461426598644e+02 0.0 
0.0 0.0 -1.458117746196e+02 
-7.334244113556e+01 2.973436214755e+00 0.0 
2.973436214755e+00 -1.455761779366e+02 0.0 
0.0 0.0 -6.527558572164e+01 
-3.912749131638e+01 -1.746838949761e+00 0.0 
-1.746838949761e+00 -1.085372628966e+02 0.0 
0.0 0.0 -4.389942626390e+01 
-3.985232401801e+01 -2.156082434322e+00 0.0 
-2.156082434322e+00 -1.123535347744e+02 0.0 
0.0 0.0 -4.526175763772e+01 
-8.462841947455e+01 -5.543022691600e-01 0.0 
-5.543022691600e-01 -2.266959735409e+02 0.0 
0.0 0.0 -9.299731790463e+01 
-6.102129256899e+01 1.251912891842e+00 0.0 
1.251912891842e+00 -1.118704508161e+02 0.0 
0.0 0.0 -5.146752301551e+01 
-5.416172071376e+01 -2.008956126651e+00 0.0 
-2.008956126651e+00 -1.528578601167e+02 0.0 
0.0 0.0 -6.170587424913e+01 
-7.669944471491e+01 2.833083118198e+00 0.0 
2.833083118198e+00 -1.564602084871e+02 0.0 
0.0 0.0 -6.954789596061e+01 
-6.572086402342e+01 2.530117135843e+00 0.0 
2.530117135843e+00 -1.249319023740e+02 0.0 
0.0 0.0 -5.679582991922e+01 
-8.081210419233e+01 -3.020279614073e-01 0.0 
-3.020279614073e-01 -2.200372080014e+02 0.0 
0.0 0.0 -8.985479365812e+01 
-1.157342603924e+02 1.997107796126e+00 0.0 
1.997107796126e+00 -2.946822750065e+02 0.0 
0.0 0.0 -1.227249606197e+02 
-1.208122622965e+02 2.711081929116e+00 0.0 
2.711081929116e+00 -3.052446662061e+02 0.0 
0.0 0.0 -1.274170785508e+02 
-7.168356194301e+01 1.157925720585e+00 0.0 
1.157925720585e+00 -1.445026325414e+02 0.0 
0.0 0.0 -6.445585834532e+01 
-3.064162411098e+01 -1.188466167501e+00 0.0 
-1.188466167501e+00 -8.363806324775e+01 0.0 
0.0 0.0 -3.388390620762e+01 
-7.678523069029e+01 -6.596313228870e-01 0.0 
-6.596313228870e-01 -2.093843394098e+02 0.0 
0.0 0.0 -8.545087103003e+01 
-1.121838939954e+02 2.051772070704e+01 0.0 
2.051772070704e+01 -2.880132934011e+02 0.0 
0.0 0.0 -1.196591562189e+02 
-7.723450115132e+01 3.888605363932e+00 0.0 
3.888605363932e+00 -1.548356927758e+02 0.0 
0.0 0.0 -6.922105817813e+01 
-6.880656494838e+01 -1.192621224875e+00 0.0 
-1.192621224875e+00 -1.895741170458e+02 0.0 
0.0 0.0 -7.711420459827e+01 
-9.860103157790e+01 3.748041751431e+00 0.0 
3.748041751431e+00 -2.621500080261e+02 0.0 
0.0 0.0 -1.078253118812e+02 
-1.364105727317e+02 8.724407021399e+00 0.0 
8.724407021399e+00 -3.374136391979e+02 0.0 
0.0 0.0 -1.417472635789e+02 
-6.842537169897e+01 1.398885539956e+00 0.0 
1.398885539956e+00 -1.336561408577e+02 0.0 
0.0 0.0 -6.022445376699e+01 
-2.232382374721e+01 -2.340355941948e-02 0.0 
-2.340355941948e-02 -4.307051437420e+01 0.0 
0.0 0.0 -1.921830143642e+01 
-1.836097807656e+01 -1.218029376663e+00 0.0 
-1.218029376663e+00 -4.675942828702e+01 0.0 
0.0 0.0 -1.913612190908e+01 
-3.024022447059e+01 2.449125157194e+00 0.0 
2.449125157194e+00 -8.657291279753e+01 0.0 
0.0 0.0 -3.464394118043e+01 
-1.299158160238e+02 1.646036378687e+00 0.0 
1.646036378687e+00 -3.236489802230e+02 0.0 
0.0 0.0 -1.356694388740e+02 
-6.467668514073e+01 1.384757344748e+00 0.0 
1.384757344748e+00 -1.227327644435e+02 0.0 
0.0 0.0 -5.582283487528e+01 
-9.362248890621e+01 1.205509820407e+00 0.0 
1.205509820407e+00 -2.463993569059e+02 0.0 
0.0 0.0 -1.016065537436e+02 
-5.315893466681e+01 4.675206782282e-01 0.0 
4.675206782282e-01 -9.209486123205e+01 0.0 
0.0 0.0 -4.317613876966e+01 
-1.252720280048e+02 1.181490172288e+01 0.0 
1.181490172288e+01 -3.180072077090e+02 0.0 
0.0 0.0 -1.325837707142e+02 
-8.486754022749e+01 -2.398164415710e-01 0.0 
-2.398164415710e-01 -2.286941128462e+02 0.0 
0.0 0.0 -9.366849592209e+01 
-1.202591759992e+02 1.319984020605e+00 0.0 
1.319984020605e+00 -3.047051439886e+02 0.0 
0.0 0.0 -1.270892959964e+02 
-3.661527603135e+01 -5.583229780730e-01 0.0 
-5.583229780730e-01 -1.005405491934e+02 0.0 
0.0 0.0 -4.074674756743e+01 
-1.407555224294e+02 5.004114748568e+00 0.0 
5.004114748568e+00 -3.457888941722e+02 0.0 
0.0 0.0 -1.455633249805e+02 
-8.196674404066e+01 1.089179913747e+00 0.0 
1.089179913747e+00 -2.208400969438e+02 0.0 
0.0 0.0 -9.044205229533e+01 
-3.965255896438e+01 -1.652809886106e-01 0.0 
-1.652809886106e-01 -1.091119084118e+02 0.0 
0.0 0.0 -4.422934021284e+01 
-7.776907656077e+01 8.254081562438e-01 0.0 
8.254081562438e-01 -2.101482684104e+02 0.0 
0.0 0.0 -8.597520349136e+01 
-5.771927947710e+01 -1.700979665992e+00 0.0 
-1.700979665992e+00 -1.615223342770e+02 0.0 
0.0 0.0 -6.537248412623e+01 
-4.497985198330e+01 -1.362133343653e+00 0.0 
-1.362133343653e+00 -1.253701397299e+02 0.0 
0.0 0.0 -5.070499751395e+01 
-9.289830201863e+01 -2.832910067645e-01 0.0 
-2.832910067645e-01 -2.456815212976e+02 0.0 
0.0 0.0 -1.011739469949e+02 
-6.630533916408e+00 -5.799729672219e-01 0.0 
-5.799729672219e-01 -9.232497846728e+00 0.0 
0.0 0.0 -5.354578755664e+00 
-8.011278710437e+00 -6.186113694300e-01 0.0 
-6.186113694300e-01 -9.509541780314e+00 0.0 
0.0 0.0 -5.866253881231e+00 
-1.072652965659e+02 2.544804256909e+00 0.0 
2.544804256909e+00 -2.777496364866e+02 0.0 
0.0 0.0 -1.151044799158e+02 
-3.374053553501e+01 -9.466445030692e-01 0.0 
-9.466445030692e-01 -9.227831718049e+01 0.0 
0.0 0.0 -3.740565581465e+01 
-1.075735655953e+02 3.493034445797e+00 0.0 
3.493034445797e+00 -2.795870213613e+02 0.0 
0.0 0.0 -1.157481760870e+02 
-1.031030505632e+02 3.637663606014e+00 0.0 
3.637663606014e+00 -2.709297879597e+02 0.0 
0.0 0.0 -1.118098515569e+02 
-6.119099790022e+01 -1.408997210555e+00 0.0 
-1.408997210555e+00 -1.744288935540e+02 0.0 
0.0 0.0 -7.028596743627e+01 
-3.806824729237e+01 -2.542266382607e+00 0.0 
-2.542266382607e+00 -1.134022548656e+02 0.0 
0.0 0.0 -4.504115064739e+01 
-8.505987764957e+01 6.155199603195e+00 0.0 
6.155199603195e+00 -1.738124935276e+02 0.0 
0.0 0.0 -7.726171135315e+01 
-2.037738788315e+01 4.895491566803e+00 0.0 
4.895491566803e+00 -4.182522814221e+01 0.0 
0.0 0.0 -1.826078480761e+01 
-6.130327209170e+01 -1.385121361059e+00 0.0 
-1.385121361059e+00 -1.703775605918e+02 0.0 
0.0 0.0 -6.910424980506e+01 
-1.298429720281e+02 1.350711157031e+01 0.0 
1.350711157031e+01 -3.257164417259e+02 0.0 
0.0 0.0 -1.362678241262e+02 
-2.893788363019e+01 -2.050039316702e+00 0.0 
-2.050039316702e+00 -7.960076345274e+01 0.0 
0.0 0.0 -3.216159412488e+01 
-5.850463531047e+01 2.357366540519e+00 0.0 
2.357366540519e+00 -1.037842522285e+02 0.0 
0.0 0.0 -4.828666626169e+01 
-5.021498119971e+01 1.760574474611e+00 0.0 
1.760574474611e+00 -8.354511286878e+01 0.0 
0.0 0.0 -3.972802822055e+01 
-2.877031587480e+01 -1.975472104378e+00 0.0 
-1.975472104378e+00 -7.725308527567e+01 0.0 
0.0 0.0 -3.140702034514e+01 
-1.311287349821e+02 9.231566576135e+00 0.0 
9.231566576135e+00 -3.282451203324e+02 0.0 
0.0 0.0 -1.374121565943e+02 
-7.524496484749e+01 5.241646073758e+00 0.0 
5.241646073758e+00 -1.425945155135e+02 0.0 
0.0 0.0 -6.495184410831e+01 
-3.308486831706e+01 -2.248076337030e+00 0.0 
-2.248076337030e+00 -9.162740074504e+01 0.0 
0.0 0.0 -3.701368071863e+01 
-8.882065811673e+01 7.415053539617e+00 0.0 
7.415053539617e+00 -1.832305708999e+02 0.0 
0.0 0.0 -8.121536870499e+01 
-8.614110141775e+01 5.655615367869e+00 0.0 
5.655615367869e+00 -1.817022469529e+02 0.0 
0.0 0.0 -7.995300451120e+01 
-3.742058359246e+01 -1.054553329462e+00 0.0 
-1.054553329462e+00 -1.030342122130e+02 0.0 
0.0 0.0 -4.173643874165e+01 
-3.313206561543e+01 1.871941890291e+01 0.0 
1.871941890291e+01 -7.320949575215e+01 0.0 
0.0 0.0 -3.150246841027e+01 
-3.817490455010e+01 -1.627736839188e+00 0.0 
-1.627736839188e+00 -1.056197403806e+02 0.0 
0.0 0.0 -4.273839347920e+01 
-1.164864262627e+02 3.023841273958e+00 0.0 
3.023841273958e+00 -2.967478150974e+02 0.0 
0.0 0.0 -1.235702724080e+02 
-8.889946181093e+01 -2.391415745371e-01 0.0 
-2.391415745371e-01 -2.372948542958e+02 0.0 
0.0 0.0 -9.745829483202e+01 
-9.654358171975e+01 1.723516578344e+01 0.0 
1.723516578344e+01 -1.998212010245e+02 0.0 
0.0 0.0 -8.850943482327e+01 
-8.279998372459e+01 4.194522154728e+00 0.0 
4.194522154728e+00 -1.725210327434e+02 0.0 
0.0 0.0 -7.619630494039e+01 
-1.120347995190e+02 3.284522512214e+00 0.0 
3.284522512214e+00 -2.881984706992e+02 0.0 
0.0 0.0 -1.196699810655e+02 
-1.110071624347e+02 1.930101782404e+00 0.0 
1.930101782404e+00 -2.874660175701e+02 0.0 
0.0 0.0 -1.191419540014e+02 
-3.092938016869e+01 -3.044873679818e+00 0.0 
-3.044873679818e+00 -8.531311324801e+01 0.0 
0.0 0.0 -3.447274802501e+01 
-1.156531136778e+02 1.645454129769e+00 0.0 
1.645454129769e+00 -2.960925153081e+02 0.0 
0.0 0.0 -1.231236886958e+02 
-7.278948993698e+01 3.257385213302e+00 0.0 
3.257385213302e+00 -1.412175265865e+02 0.0 
0.0 0.0 -6.380210495706e+01 
-8.970384467243e+01 1.161421585388e+00 0.0 
1.161421585388e+00 -2.379463870294e+02 0.0 
0.0 0.0 -9.789506951056e+01 
-6.648967971737e+01 3.185797903167e+00 0.0 
3.185797903167e+00 -1.238045702771e+02 0.0 
0.0 0.0 -5.668827499835e+01 
-7.822504700301e+01 5.138182699832e+00 0.0 
5.138182699832e+00 -1.533830105564e+02 0.0 
0.0 0.0 -6.908241726781e+01 
-6.134623784884e+01 1.145024090637e+01 0.0 
1.145024090637e+01 -1.864197239531e+02 0.0 
0.0 0.0 -7.392978854058e+01 
-7.911702476080e+01 3.053746981539e+00 0.0 
3.053746981539e+00 -1.630532880986e+02 0.0 
0.0 0.0 -7.225109385782e+01 
-7.298818802738e+01 -9.700935672787e-01 0.0 
-9.700935672787e-01 -1.995208197880e+02 0.0 
0.0 0.0 -8.135270234462e+01 
-8.577978078251e+01 1.181196534549e+00 0.0 
1.181196534549e+00 -2.294004811487e+02 0.0 
0.0 0.0 -9.415407857937e+01 
-5.406370984948e+01 -1.928570082679e+00 0.0 
-1.928570082679e+00 -1.508702391162e+02 0.0 
0.0 0.0 -6.108018468971e+01 
-5.560251990477e+01 -7.030047138767e-01 0.0 
-7.030047138767e-01 -1.581388492940e+02 0.0 
0.0 0.0 -6.372241075963e+01 
-6.870001587652e+01 2.211478412712e+00 0.0 
2.211478412712e+00 -1.318830599898e+02 0.0 
0.0 0.0 -5.977492275991e+01 
-7.699287852413e+01 2.811780567587e+00 0.0 
2.811780567587e+00 -2.163602857322e+02 0.0 
0.0 0.0 -8.760594927690e+01 
-4.127028007210e+01 -1.274873139575e+00 0.0 
-1.274873139575e+00 -1.142619578072e+02 0.0 
0.0 0.0 -4.625967136380e+01 
-2.239396071977e+01 -1.890526308608e+00 0.0 
-1.890526308608e+00 -5.764935073969e+01 0.0 
0.0 0.0 -2.361299343784e+01 
-7.087702052376e+01 4.103232504343e+00 0.0 
4.103232504343e+00 -1.331258676058e+02 0.0 
0.0 0.0 -6.080086643887e+01 
-4.035759677913e+01 -2.686405071167e+00 0.0 
-2.686405071167e+00 -1.135620866421e+02 0.0 
0.0 0.0 -4.577590502636e+01 
-1.407359246056e+02 6.822050792312e+00 0.0 
6.822050792312e+00 -3.457534363802e+02 0.0 
0.0 0.0 -1.455468082958e+02 
-7.213296540810e+01 2.201422989218e+00 0.0 
2.201422989218e+00 -1.427945166713e+02 0.0 
0.0 0.0 -6.407824462381e+01 
-1.205112981900e+02 2.482219889031e+00 0.0 
2.482219889031e+00 -3.064212904197e+02 0.0 
0.0 0.0 -1.276797765829e+02 
-1.444645055343e+02 1.759931657804e+01 0.0 
1.759931657804e+01 -3.470678245336e+02 0.0 
0.0 0.0 -1.470596990204e+02 
-6.989572065600e+01 4.608086769377e-01 0.0 
4.608086769377e-01 -1.905285407387e+02 0.0 
0.0 0.0 -7.772727841841e+01 
-3.671202728525e+01 -2.549485146980e+00 0.0 
-2.549485146980e+00 -1.024035412301e+02 0.0 
0.0 0.0 -4.133467055460e+01 
-2.463800659219e+01 -2.976570615981e+00 0.0 
-2.976570615981e+00 -6.546093306523e+01 0.0 
0.0 0.0 -2.662968189723e+01 
-1.121831096301e+02 4.405069295099e+00 0.0 
4.405069295099e+00 -2.897855447564e+02 0.0 
0.0 0.0 -1.201905963160e+02 
-6.079323609252e+01 6.985924581637e-01 0.0 
6.985924581637e-01 -1.137589219012e+02 0.0 
0.0 0.0 -5.196564739813e+01 
-1.879051084238e+01 -2.524283973509e+00 0.0 
-2.524283973509e+00 -4.647972025292e+01 0.0 
0.0 0.0 -1.918106932859e+01 
-5.545762101676e+01 -6.177186527702e-01 0.0 
-6.177186527702e-01 -1.537130073389e+02 0.0 
0.0 0.0 -6.235118850671e+01 
-3.289929114720e+01 -3.003714995839e-01 0.0 
-3.003714995839e-01 -8.965514906141e+01 0.0 
0.0 0.0 -3.636633206258e+01 
-6.305295688023e+01 3.087109873502e+00 0.0 
3.087109873502e+00 -1.130395094530e+02 0.0 
0.0 0.0 -5.242773989998e+01 
-5.908504902794e+01 -2.409090078061e-01 0.0 
-2.409090078061e-01 -1.624210926063e+02 0.0 
0.0 0.0 -6.605184249028e+01 
-1.016619474240e+02 2.343466673268e+00 0.0 
2.343466673268e+00 -2.700259089105e+02 0.0 
0.0 0.0 -1.111063569003e+02 
-5.468136787601e+01 -2.793061837031e-01 0.0 
-2.793061837031e-01 -1.513796869538e+02 0.0 
0.0 0.0 -6.141831644895e+01 
-8.038911251320e+01 3.693373180788e+00 0.0 
3.693373180788e+00 -1.658373225134e+02 0.0 
0.0 0.0 -7.346793050797e+01 
-4.716977995248e+01 -2.421927143052e+00 0.0 
-2.421927143052e+00 -1.332778096878e+02 0.0 
0.0 0.0 -5.373427689207e+01 
-1.120035675558e+02 5.706740454547e+00 0.0 
5.706740454547e+00 -2.908563968915e+02 0.0 
0.0 0.0 -1.204579893342e+02 
-3.393865535453e+01 -2.458383191005e+00 0.0 
-2.458383191005e+00 -9.307385803214e+01 0.0 
0.0 0.0 -3.770375401600e+01 
-1.075267572858e+02 4.612177969567e+00 0.0 
4.612177969567e+00 -2.809905154992e+02 0.0 
0.0 0.0 -1.161551818355e+02 
-8.163066235967e+01 7.688513409112e-01 0.0 
7.688513409112e-01 -2.191627283646e+02 0.0 
0.0 0.0 -8.983801721729e+01 
-1.156991590328e+02 2.809906784297e+00 0.0 
2.809906784297e+00 -2.977221560516e+02 0.0 
0.0 0.0 -1.236263945253e+02 
-4.406485917425e+01 2.853638909273e+00 0.0 
2.853638909273e+00 -1.411878760414e+02 0.0 
0.0 0.0 -5.517582056470e+01 
-3.204965531029e+01 -1.817480264756e+00 0.0 
-1.817480264756e+00 -8.875135928455e+01 0.0 
0.0 0.0 -3.584030437845e+01 
-5.431718720194e+01 1.784318688800e+00 0.0 
1.784318688800e+00 -9.462270653472e+01 0.0 
0.0 0.0 -4.428196812100e+01 
-9.488731902055e+01 9.963299876767e+00 0.0 
9.963299876767e+00 -2.601044073199e+02 0.0 
0.0 0.0 -1.060975179021e+02 
-4.933231430317e+01 2.009786005115e+01 0.0 
2.009786005115e+01 -1.279705930376e+02 0.0 
0.0 0.0 -5.279087220224e+01 
-6.217294258084e+01 2.487232715665e+00 0.0 
2.487232715665e+00 -1.144334863748e+02 0.0 
0.0 0.0 -5.258192868669e+01 
-3.689155654698e+01 -2.256619361778e+00 0.0 
-2.256619361778e+00 -1.037399359226e+02 0.0 
0.0 0.0 -4.178944774087e+01 
-6.639166304802e+01 3.175179836448e+00 0.0 
3.175179836448e+00 -1.198726208459e+02 0.0 
0.0 0.0 -5.547928516819e+01 
-2.928953701732e+01 -5.363139845587e-01 0.0 
-5.363139845587e-01 -8.057008236022e+01 0.0 
0.0 0.0 -3.255788581326e+01 
-1.313556250909e+02 7.428387115549e+00 0.0 
7.428387115549e+00 -3.280807378809e+02 0.0 
0.0 0.0 -1.374309088915e+02 
-9.880140015125e+01 1.174782549303e+01 0.0 
1.174782549303e+01 -2.679478814704e+02 0.0 
0.0 0.0 -1.096247844865e+02 
-1.002647176479e+02 1.849625059926e+01 0.0 
1.849625059926e+01 -2.650579778205e+02 0.0 
0.0 0.0 -1.091968086405e+02 
-9.141088903824e+01 7.134967381880e+00 0.0 
7.134967381880e+00 -1.946869536891e+02 0.0 
0.0 0.0 -8.542935281822e+01 
-8.502408503214e+01 3.923498212996e+00 0.0 
3.923498212996e+00 -2.351535941035e+02 0.0 
0.0 0.0 -9.565330374068e+01 
-3.009634718359e+01 -2.586420988054e+00 0.0 
-2.586420988054e+00 -8.297193225616e+01 0.0 
0.0 0.0 -3.352048383192e+01 
-9.816356080017e+01 4.914831228485e+00 0.0 
4.914831228485e+00 -2.630715875861e+02 0.0 
0.0 0.0 -1.079705445159e+02 
-1.352173498300e+02 7.427432970200e+00 0.0 
7.427432970200e+00 -3.366204308828e+02 0.0 
0.0 0.0 -1.411513342138e+02 
-4.577727043941e+01 -1.163947808852e+00 0.0 
-1.163947808852e+00 -1.333252402236e+02 0.0 
0.0 0.0 -5.333075319891e+01 
-1.168128229161e+02 4.153052516147e+00 0.0 
4.153052516147e+00 -2.984873404624e+02 0.0 
0.0 0.0 -1.241900490135e+02 
-7.405343334961e+01 4.058092387891e+00 0.0 
4.058092387891e+00 -1.439227081291e+02 0.0 
0.0 0.0 -6.499284244361e+01 
-3.516728562630e+01 -2.394782040368e+00 0.0 
-2.394782040368e+00 -1.046767804887e+02 0.0 
0.0 0.0 -4.155321983451e+01 
-1.028535813959e+02 4.776719283910e+00 0.0 
4.776719283910e+00 -2.720905879191e+02 0.0 
0.0 0.0 -1.120832507945e+02 
-5.573831647872e+01 2.897362504340e+00 0.0 
2.897362504340e+00 -9.151594102597e+01 0.0 
0.0 0.0 -4.377627725141e+01 
-4.371838221768e+01 -4.469260090042e-01 0.0 
-4.469260090042e-01 -1.203940718811e+02 0.0 
0.0 0.0 -4.883373622962e+01 
-5.198835051530e+01 -9.609362703231e-01 0.0 
-9.609362703231e-01 -1.450479129634e+02 0.0 
0.0 0.0 -5.871087904360e+01 
-6.397214373735e+01 2.188053153465e+01 0.0 
2.188053153465e+01 -1.640881418088e+02 0.0 
0.0 0.0 -6.801808566386e+01 
-1.108583733601e+02 3.091387952894e+00 0.0 
3.091387952894e+00 -2.889347021685e+02 0.0 
0.0 0.0 -1.195379226586e+02 
-4.320560549882e+01 2.208499909961e+01 0.0 
2.208499909961e+01 -9.630595243280e+01 0.0 
0.0 0.0 -4.145346737949e+01 
-6.044499923265e+01 2.040600846363e+01 0.0 
2.040600846363e+01 -1.610368356684e+02 0.0 
0.0 0.0 -6.604455047030e+01 
-6.961851057945e+01 3.232755281619e+00 0.0 
3.232755281619e+00 -1.304927323559e+02 0.0 
0.0 0.0 -5.963337288061e+01 
-5.690296033525e+01 5.539952087109e-01 0.0 
5.539952087109e-01 -1.028028541858e+02 0.0 
0.0 0.0 -4.751174435631e+01 
-5.831542958147e+01 1.814736133590e+00 0.0 
1.814736133590e+00 -9.970387928335e+01 0.0 
0.0 0.0 -4.700579265945e+01 
-8.084596728212e+01 -4.731423984694e-01 0.0 
-4.731423984694e-01 -2.184443007769e+02 0.0 
0.0 0.0 -8.938708041770e+01 
-1.258858577550e+02 9.708817312685e+00 0.0 
9.708817312685e+00 -3.189247917689e+02 0.0 
0.0 0.0 -1.330431948572e+02 
-9.346271271215e+01 5.043544154534e+00 0.0 
5.043544154534e+00 -2.539177436788e+02 0.0 
0.0 0.0 -1.038141369173e+02 
-5.468007067289e+01 2.187902283119e+00 0.0 
2.187902283119e+00 -9.302416082288e+01 0.0 
0.0 0.0 -4.391126944873e+01 
-1.062538014788e+02 2.492413618897e+01 0.0 
2.492413618897e+01 -2.246445003906e+02 0.0 
0.0 0.0 -9.886949056080e+01 
-1.044200776077e+02 2.035474591138e+01 0.0 
2.035474591138e+01 -2.706375674027e+02 0.0 
0.0 0.0 -1.121172935031e+02 
-1.060074800553e+02 3.326281870691e+00 0.0 
3.326281870691e+00 -2.800631832362e+02 0.0 
0.0 0.0 -1.154211989875e+02 
-7.596629961052e+01 3.210140242976e+00 0.0 
3.210140242976e+00 -1.520986793170e+02 0.0 
0.0 0.0 -6.801949367824e+01 
-5.913232745796e+01 -4.015891652938e-01 0.0 
-4.015891652938e-01 -1.666701434343e+02 0.0 
0.0 0.0 -6.734074126768e+01 
-5.559414765652e+01 -7.583046056307e-01 0.0 
-7.583046056307e-01 -1.559309204271e+02 0.0 
0.0 0.0 -6.305752042508e+01 
-3.136210488033e+01 -1.702577415178e+00 0.0 
-1.702577415178e+00 -8.579215523318e+01 0.0 
0.0 0.0 -3.474627803405e+01 
-1.023023477323e+02 6.147968791525e+00 0.0 
6.147968791525e+00 -2.726318795936e+02 0.0 
0.0 0.0 -1.120802681978e+02 
-5.913924643619e+01 -4.389894201989e-01 0.0 
-4.389894201989e-01 -1.646271615207e+02 0.0 
0.0 0.0 -6.672992238708e+01 
-6.763196047744e+01 4.108401555387e+00 0.0 
4.108401555387e+00 -1.223336872058e+02 0.0 
0.0 0.0 -5.658969430499e+01 
-6.432144384679e+01 4.083847040015e+00 0.0 
4.083847040015e+00 -1.116586098165e+02 0.0 
0.0 0.0 -5.239401609899e+01 
-6.754397068131e+01 1.088174431964e+01 0.0 
1.088174431964e+01 -1.988748400180e+02 0.0 
0.0 0.0 -7.952564320978e+01 
-4.726180756546e+01 -2.558589292054e+00 0.0 
-2.558589292054e+00 -1.355522288104e+02 0.0 
0.0 0.0 -5.444421091276e+01 
-3.945885210959e+01 6.674905738908e+00 0.0 
6.674905738908e+00 -1.276959294502e+02 0.0 
0.0 0.0 -4.974643446794e+01 
-5.066435284134e+01 -2.296420089065e+00 0.0 
-2.296420089065e+00 -1.441906428780e+02 0.0 
0.0 0.0 -5.805649871579e+01 
-5.408346820908e+01 -2.030621032350e+00 0.0 
-2.030621032350e+00 -1.550097796891e+02 0.0 
0.0 0.0 -6.232797436945e+01 
-3.375065167795e+01 -2.830702492788e+00 0.0 
-2.830702492788e+00 -9.388502752209e+01 0.0 
0.0 0.0 -3.789070376001e+01 
-1.205835744771e+02 1.020338280639e+01 0.0 
1.020338280639e+01 -3.094173617704e+02 0.0 
0.0 0.0 -1.286002808742e+02 
-6.397660620943e+01 -1.840775670591e-01 0.0 
-1.840775670591e-01 -1.864997065000e+02 0.0 
0.0 0.0 -7.474289381283e+01 
-8.114788497492e+01 4.935837782324e+00 0.0 
4.935837782324e+00 -1.642344132107e+02 0.0 
0.0 0.0 -7.321468945570e+01 
-6.720902181368e+01 7.821247456892e-01 0.0 
7.821247456892e-01 -1.964622826401e+02 0.0 
0.0 0.0 -7.870139133615e+01 
-9.628697780041e+01 3.728548471926e+00 0.0 
3.728548471926e+00 -2.620171026391e+02 0.0 
0.0 0.0 -1.070912241318e+02 
-7.928580925566e+01 1.719790775475e+00 0.0 
1.719790775475e+00 -2.242989955358e+02 0.0 
0.0 0.0 -9.067544143743e+01 
-6.100497452630e+01 1.766689941005e+01 0.0 
1.766689941005e+01 -1.715710817861e+02 0.0 
0.0 0.0 -6.937281689372e+01 
-3.443900250881e+01 -1.454210694916e+00 0.0 
-1.454210694916e+00 -9.450192683985e+01 0.0 
0.0 0.0 -3.828227880460e+01 
-1.297188469618e+02 7.973291313321e+00 0.0 
7.973291313321e+00 -3.273174289028e+02 0.0 
0.0 0.0 -1.367108827594e+02 
-1.364781449356e+02 1.085647104240e+01 0.0 
1.085647104240e+01 -3.382438826343e+02 0.0 
0.0 0.0 -1.420166082710e+02 
-8.327626709232e+01 2.270219728609e+01 0.0 
2.270219728609e+01 -2.035606370011e+02 0.0 
0.0 0.0 -8.565107122804e+01 
-5.741146651410e+01 -1.617298922511e+00 0.0 
-1.617298922511e+00 -1.656723046996e+02 0.0 
0.0 0.0 -6.652513136410e+01 
-8.757208250913e+01 2.723340335339e+00 0.0 
2.723340335339e+00 -2.431797826670e+02 0.0 
0.0 0.0 -9.882555955284e+01 
-6.527504524177e+01 2.110240422184e+00 0.0 
2.110240422184e+00 -1.209986321421e+02 0.0 
0.0 0.0 -5.548210321516e+01 
-6.279708926391e+01 -1.262731550345e-01 0.0 
-1.262731550345e-01 -1.753910356259e+02 0.0 
0.0 0.0 -7.105643746693e+01 
-4.693443154187e+01 1.913048053530e+01 0.0 
1.913048053530e+01 -1.257984836140e+02 0.0 
0.0 0.0 -5.141987454677e+01 
-4.818882920678e+01 -1.006186448158e+00 0.0 
-1.006186448158e+00 -1.340225995815e+02 0.0 
0.0 0.0 -5.426342863648e+01 
-3.984252364264e+01 -1.873113109260e+00 0.0 
-1.873113109260e+00 -1.143018468786e+02 0.0 
0.0 0.0 -4.584331115637e+01 
-6.259673183916e+01 1.206154469080e-01 0.0 
1.206154469080e-01 -1.772343324065e+02 0.0 
0.0 0.0 -7.154931927369e+01 
-4.352081740822e+01 -2.359553275093e+00 0.0 
-2.359553275093e+00 -1.221949536916e+02 0.0 
0.0 0.0 -4.931473132996e+01 
-4.054697734798e+01 -7.520710707150e-01 0.0 
-7.520710707150e-01 -1.117176015984e+02 0.0 
0.0 0.0 -4.527937368390e+01 
-8.132550062040e+01 2.835006019369e+00 0.0 
2.835006019369e+00 -2.254081730860e+02 0.0 
0.0 0.0 -9.162010211192e+01 
-1.011486523845e+02 3.533436499746e+00 0.0 
3.533436499746e+00 -2.710951350203e+02 0.0 
0.0 0.0 -1.112731362214e+02 
-1.030964365966e+02 2.485342836660e+01 0.0 
2.485342836660e+01 -2.448259185323e+02 0.0 
0.0 0.0 -1.039767065387e+02 
-6.962815958444e+00 -7.116379441757e-01 0.0 
-7.116379441757e-01 -9.105940800319e+00 0.0 
0.0 0.0 -4.420627027629e+00 
-6.191573464282e+01 2.362021922602e+00 0.0 
2.362021922602e+00 -1.874739437500e+02 0.0 
0.0 0.0 -7.441690351784e+01 
-6.306143841459e+01 8.748010884075e-01 0.0 
8.748010884075e-01 -1.874333964520e+02 0.0 
0.0 0.0 -7.474845045998e+01 
-6.069079998900e+01 -9.966842004008e-01 0.0 
-9.966842004008e-01 -1.761947092910e+02 0.0 
0.0 0.0 -7.066565278400e+01 
-6.183352800292e+01 1.985387896622e+00 0.0 
1.985387896622e+00 -1.102548248435e+02 0.0 
0.0 0.0 -5.122650585393e+01 
-7.141930467710e+01 7.372468488024e-01 0.0 
7.372468488024e-01 -2.053882652338e+02 0.0 
0.0 0.0 -8.264227097326e+01 
-5.055620062347e+01 -2.139688620902e+00 0.0 
-2.139688620902e+00 -1.419827861757e+02 0.0 
0.0 0.0 -5.736169603974e+01 
-6.601380863977e+01 8.308425561427e-01 0.0 
8.308425561427e-01 -1.875857838013e+02 0.0 
0.0 0.0 -7.567987773231e+01 
-7.538814474477e+01 2.078167693711e+00 0.0 
2.078167693711e+00 -1.537490567240e+02 0.0 
0.0 0.0 -6.834116044063e+01 
-5.138153554703e+01 -6.537661436520e-01 0.0 
-6.537661436520e-01 -1.426626479621e+02 0.0 
0.0 0.0 -5.781325505275e+01 
-2.098508678656e+01 -2.460326769072e+00 0.0 
-2.460326769072e+00 -5.459351246755e+01 0.0 
0.0 0.0 -2.227357977623e+01 
-2.735733787778e+01 -2.737815661849e+00 0.0 
-2.737815661849e+00 -7.443494276924e+01 0.0 
0.0 0.0 -3.013768419411e+01 
-4.112693290921e+01 -2.563939530824e+00 0.0 
-2.563939530824e+00 -1.220609760827e+02 0.0 
0.0 0.0 -4.855637269756e+01 
-5.056965150738e+01 -2.244478444120e+00 0.0 
-2.244478444120e+00 -1.464281097977e+02 0.0 
0.0 0.0 -5.869932839152e+01 
-6.613082810313e+01 2.089148563920e+00 0.0 
2.089148563920e+00 -1.968231761202e+02 0.0 
0.0 0.0 -7.848620126700e+01 
-6.937391588148e+01 1.730150967877e+00 0.0 
1.730150967877e+00 -1.976008466718e+02 0.0 
0.0 0.0 -7.969242876600e+01 
-3.104760260407e+01 -2.464660657253e+00 0.0 
-2.464660657253e+00 -8.401176033215e+01 0.0 
0.0 0.0 -3.411780888087e+01 
-2.730930023939e+01 -1.366151862168e+00 0.0 
-1.366151862168e+00 -7.470307915284e+01 0.0 
0.0 0.0 -3.020371381767e+01 
-6.247329929809e+01 5.545763530236e+00 0.0 
5.545763530236e+00 -9.981126003197e+01 0.0 
0.0 0.0 -4.828536779902e+01 
-4.441086454372e+01 -8.851347995250e-01 0.0 
-8.851347995250e-01 -1.228939089916e+02 0.0 
0.0 0.0 -4.979143206060e+01 
-1.142124269301e+02 7.459458291617e+00 0.0 
7.459458291617e+00 -2.994484686138e+02 0.0 
0.0 0.0 -1.236982686632e+02 
-9.947346083898e+01 2.402732276032e+01 0.0 
2.402732276032e+01 -2.410435654228e+02 0.0 
0.0 0.0 -1.017551078785e+02 
-7.342202502797e+01 1.816010534132e+01 0.0 
1.816010534132e+01 -1.222670448784e+02 0.0 
0.0 0.0 -5.830672097192e+01 
-8.505800813795e+01 7.690583862024e+00 0.0 
7.690583862024e+00 -1.711117151825e+02 0.0 
0.0 0.0 -7.645091699613e+01 
-1.065489013568e+02 2.538182910109e+01 0.0 
2.538182910109e+01 -2.487662049699e+02 0.0 
0.0 0.0 -1.061945318980e+02 
-6.315983936750e+01 1.170125904837e+01 0.0 
1.170125904837e+01 -1.872424941816e+02 0.0 
0.0 0.0 -7.472070006473e+01 
-9.129641842042e+01 2.326250616510e+01 0.0 
2.326250616510e+01 -2.222328366263e+02 0.0 
0.0 0.0 -9.365877651403e+01 
-3.424522385436e+01 -2.413754596569e+00 0.0 
-2.413754596569e+00 -9.512230284386e+01 0.0 
0.0 0.0 -3.841025800947e+01 
-6.995216035658e+01 9.941724337915e-01 0.0 
9.941724337915e-01 -1.963670738179e+02 0.0 
0.0 0.0 -7.949577025235e+01 
-5.348619089539e+01 1.362241095413e+01 0.0 
1.362241095413e+01 -1.622333716869e+02 0.0 
0.0 0.0 -6.431586877469e+01 
-3.460071559245e+01 -8.925176875168e-01 0.0 
-8.925176875168e-01 -1.060362434267e+02 0.0 
0.0 0.0 -4.179108770575e+01 
-2.908355789389e+01 -2.651367168791e+00 0.0 
-2.651367168791e+00 -7.594926319433e+01 0.0 
0.0 0.0 -3.110984632647e+01 
-5.771554069058e+01 -1.784651758440e+00 0.0 
-1.784651758440e+00 -1.637293375903e+02 0.0 
0.0 0.0 -6.603346348426e+01 
-6.529065009192e+01 1.698632184706e+00 0.0 
1.698632184706e+00 -1.885787595300e+02 0.0 
0.0 0.0 -7.576082288658e+01 
-6.844594163541e+01 2.869979051379e+00 0.0 
2.869979051379e+00 -1.979822562160e+02 0.0 
0.0 0.0 -7.952845935543e+01 
-4.674280848739e+01 -1.999784643978e+00 0.0 
-1.999784643978e+00 -1.308415443124e+02 0.0 
0.0 0.0 -5.287530583995e+01 
-7.482224979011e+01 1.795227589992e+00 0.0 
1.795227589992e+00 -2.152178061842e+02 0.0 
0.0 0.0 -8.661201679228e+01 
-6.425173082122e+01 2.991556433680e+00 0.0 
2.991556433680e+00 -1.886168203304e+02 0.0 
0.0 0.0 -7.546056534548e+01 
-6.487581396022e+01 3.845436393120e+00 0.0 
3.845436393120e+00 -1.962063237893e+02 0.0 
0.0 0.0 -7.792464132486e+01 
-5.216988827256e+01 -1.081676695786e+00 0.0 
-1.081676695786e+00 -1.473542169879e+02 0.0 
0.0 0.0 -5.945723157814e+01 
-9.754045397325e+01 1.412921397991e+01 0.0 
1.412921397991e+01 -2.643073105460e+02 0.0 
0.0 0.0 -1.081543293558e+02 
-7.224060169543e+01 5.329973973109e+00 0.0 
5.329973973109e+00 -1.319558209973e+02 0.0 
0.0 0.0 -6.085892680782e+01 
-6.064252097771e+01 4.311310367554e+00 0.0 
4.311310367554e+00 -1.864561263935e+02 0.0 
0.0 0.0 -7.372959421137e+01 
-1.243147978519e+02 8.508869591556e+00 0.0 
8.508869591556e+00 -3.179985885614e+02 0.0 
0.0 0.0 -1.322940159240e+02 
-3.694951639656e+01 -1.915788003406e+00 0.0 
-1.915788003406e+00 -1.055352471027e+02 0.0 
0.0 0.0 -4.234542904976e+01 
-1.342263246895e+02 1.190055770221e+01 0.0 
1.190055770221e+01 -3.358606670281e+02 0.0 
0.0 0.0 -1.406260975153e+02 
-7.042885809072e+01 1.901588962276e+00 0.0 
1.901588962276e+00 -2.060217530443e+02 0.0 
0.0 0.0 -8.253518334049e+01 
-1.099996793183e+02 2.611714313287e+01 0.0 
2.611714313287e+01 -2.543952462898e+02 0.0 
0.0 0.0 -1.089184776824e+02 
-7.610667795462e+01 2.470433364478e+01 0.0 
2.470433364478e+01 -1.600704226167e+02 0.0 
0.0 0.0 -7.045313017140e+01 
-3.547544794284e+01 -3.090385281742e+00 0.0 
-3.090385281742e+00 -1.029566558822e+02 0.0 
0.0 0.0 -4.112963114750e+01 
-7.710375862616e+01 2.052869433946e+01 0.0 
2.052869433946e+01 -1.370928950648e+02 0.0 
0.0 0.0 -6.385899610730e+01 
-9.091135803994e+01 1.203100104521e+01 0.0 
1.203100104521e+01 -1.834842826841e+02 0.0 
0.0 0.0 -8.191869221723e+01 
-7.370831105708e+01 3.204272111015e+00 0.0 
3.204272111015e+00 -2.152912206238e+02 0.0 
0.0 0.0 -8.629985950427e+01 
-4.127703488615e+01 1.518032952898e+01 0.0 
1.518032952898e+01 -1.180738994171e+02 0.0 
0.0 0.0 -4.740528029097e+01 
-8.067543449514e+01 2.235747529942e+01 0.0 
2.235747529942e+01 -1.525160078624e+02 0.0 
0.0 0.0 -6.955743270726e+01 
-5.631524136030e+01 2.052617514575e+01 0.0 
2.052617514575e+01 -1.458143597415e+02 0.0 
0.0 0.0 -6.023888033055e+01 
-3.010593138014e+01 -3.419176612806e+00 0.0 
-3.419176612806e+00 -8.339021556551e+01 0.0 
0.0 0.0 -3.364884408370e+01 
-9.725679417800e+01 1.043563910264e+01 0.0 
1.043563910264e+01 -2.134860271297e+02 0.0 
0.0 0.0 -9.282284639231e+01 
-2.734203761002e+01 -3.441537080182e+00 0.0 
-3.441537080182e+00 -7.294147801772e+01 0.0 
0.0 0.0 -2.968505468832e+01 
-1.256331697473e+02 2.088551084363e+01 0.0 
2.088551084363e+01 -3.136827529390e+02 0.0 
0.0 0.0 -1.313947768059e+02 
-8.565133887037e+01 3.890240047043e+00 0.0 
3.890240047043e+00 -1.832882315174e+02 0.0 
0.0 0.0 -8.028187111632e+01 
-1.028388712503e+02 1.360073931985e+01 0.0 
1.360073931985e+01 -2.754171746303e+02 0.0 
0.0 0.0 -1.130768137642e+02 
-5.730637227596e+01 1.008398380751e+00 0.0 
1.008398380751e+00 -1.008543807661e+02 0.0 
0.0 0.0 -4.704822591263e+01 
-8.396809841139e+01 8.194969702708e+00 0.0 
8.194969702708e+00 -1.624635685652e+02 0.0 
0.0 0.0 -7.352950009298e+01 
-6.724353856013e+01 4.426085406877e+00 0.0 
4.426085406877e+00 -1.973434272002e+02 0.0 
0.0 0.0 -7.897608972810e+01 
-7.533879479543e+01 1.212610813862e+01 0.0 
1.212610813862e+01 -2.167381759812e+02 0.0 
0.0 0.0 -8.722309123298e+01 
-9.144732610041e+01 9.075355786111e+00 0.0 
9.075355786111e+00 -1.919577961494e+02 0.0 
0.0 0.0 -8.462153667496e+01 
-1.104325172620e+02 4.440800669490e+00 0.0 
4.440800669490e+00 -2.899085369876e+02 0.0 
0.0 0.0 -1.197023162749e+02 
-7.690988578896e+01 6.775423523491e+00 0.0 
6.775423523491e+00 -1.418713031703e+02 0.0 
0.0 0.0 -6.523435668777e+01 
-9.786883709610e+01 8.572793191405e+00 0.0 
8.572793191405e+00 -2.692798666358e+02 0.0 
0.0 0.0 -1.097446111196e+02 
-3.274224741278e+01 -3.036836148723e+00 0.0 
-3.036836148723e+00 -9.434535302837e+01 0.0 
0.0 0.0 -3.772628013235e+01 
-8.153064440089e+01 8.477358529347e+00 0.0 
8.477358529347e+00 -1.520774541597e+02 0.0 
0.0 0.0 -6.968242956817e+01 
-1.245256396285e+02 2.969425483746e+01 0.0 
2.969425483746e+01 -2.952271625247e+02 0.0 
0.0 0.0 -1.255258406460e+02 
-1.352628211426e+02 9.454811935590e+00 0.0 
9.454811935590e+00 -3.372884970167e+02 0.0 
0.0 0.0 -1.413653954478e+02 
-6.802362537568e+01 -1.433550215800e-01 0.0 
-1.433550215800e-01 -1.953013859961e+02 0.0 
0.0 0.0 -7.859750341154e+01 
-5.938139668029e+01 3.060119475417e+00 0.0 
3.060119475417e+00 -1.020130002322e+02 0.0 
0.0 0.0 -4.801831907374e+01 
-5.351677827487e+01 8.081023543312e-01 0.0 
8.081023543312e-01 -9.022732106906e+01 0.0 
0.0 0.0 -4.272322980318e+01 
-7.267172143068e+01 2.824447196149e+00 0.0 
2.824447196149e+00 -2.071750786920e+02 0.0 
0.0 0.0 -8.355404003680e+01 
-1.054107789011e+02 4.715366491611e+00 0.0 
4.715366491611e+00 -2.808019630791e+02 0.0 
0.0 0.0 -1.154638225941e+02 
-1.097700543460e+02 6.021108663798e+00 0.0 
6.021108663798e+00 -2.902644784061e+02 0.0 
0.0 0.0 -1.196103598256e+02 
-2.487688001894e+01 -1.538603550692e+00 0.0 
-1.538603550692e+00 -6.588576278793e+01 0.0 
0.0 0.0 -2.682879284206e+01 
-3.438706018469e+01 5.896356659730e+00 0.0 
5.896356659730e+00 -1.103846190257e+02 0.0 
0.0 0.0 -4.303150376312e+01 
-6.361419696591e+01 6.027881223979e+00 0.0 
6.027881223979e+00 -1.944908712324e+02 0.0 
0.0 0.0 -7.703152045948e+01 
-6.298921724397e+01 4.760869219512e+00 0.0 
4.760869219512e+00 -1.875563921315e+02 0.0 
0.0 0.0 -7.476368281263e+01 
-5.635678273350e+01 1.826543795948e+01 0.0 
1.826543795948e+01 -1.572862046282e+02 0.0 
0.0 0.0 -6.369289620851e+01 
-9.636381142866e+01 1.065927656533e+01 0.0 
1.065927656533e+01 -2.034566819989e+02 0.0 
0.0 0.0 -8.954614802826e+01 
-9.870745159875e+01 2.012485570110e+01 0.0 
2.012485570110e+01 -2.067515008239e+02 0.0 
0.0 0.0 -9.123768572678e+01 
-8.759143158125e+01 5.716180216760e+00 0.0 
5.716180216760e+00 -1.843215106878e+02 0.0 
0.0 0.0 -8.117388268070e+01 
-4.609023625791e+01 2.311629114721e+01 0.0 
2.311629114721e+01 -9.763635804946e+01 0.0 
0.0 0.0 -4.271797829221e+01 
-8.458657764762e+01 1.032963894240e+01 0.0 
1.032963894240e+01 -1.622959084038e+02 0.0 
0.0 0.0 -7.366474581543e+01 
-1.071613782600e+02 5.936884057075e+00 0.0 
5.936884057075e+00 -2.818098684347e+02 0.0 
0.0 0.0 -1.162913740084e+02 
-9.010747617400e+01 6.921499276767e+00 0.0 
6.921499276767e+00 -1.921987993530e+02 0.0 
0.0 0.0 -8.429188265809e+01 
-7.897883089790e+01 8.767633091752e+00 0.0 
8.767633091752e+00 -1.418049138420e+02 0.0 
0.0 0.0 -6.583512342196e+01 
-7.347512232545e+01 1.817130698254e+00 0.0 
1.817130698254e+00 -2.064990087189e+02 0.0 
0.0 0.0 -8.359223931330e+01 
-5.938683417226e+01 6.712532999443e+00 0.0 
6.712532999443e+00 -1.841518854125e+02 0.0 
0.0 0.0 -7.266161587542e+01 
-7.828915625381e+01 6.161957978543e+00 0.0 
6.161957978543e+00 -1.503111575593e+02 0.0 
0.0 0.0 -6.818009414392e+01 
-9.045926543260e+01 9.554278430764e+00 0.0 
9.554278430764e+00 -1.831928880201e+02 0.0 
0.0 0.0 -8.169564603580e+01 
-7.691630617881e+01 4.495713603625e+00 0.0 
4.495713603625e+00 -1.508737460627e+02 0.0 
0.0 0.0 -6.793701567247e+01 
-7.395202945008e+01 4.574299152950e+00 0.0 
4.574299152950e+00 -1.402454203890e+02 0.0 
0.0 0.0 -6.385923495173e+01 
-1.248811876971e+02 6.580527770240e+00 0.0 
6.580527770240e+00 -3.181645670727e+02 0.0 
0.0 0.0 -1.325137264310e+02 
-1.200940247475e+02 2.132348629922e+01 0.0 
2.132348629922e+01 -3.017394597850e+02 0.0 
0.0 0.0 -1.261500453597e+02 
-1.195822677994e+02 7.014006957658e+00 0.0 
7.014006957658e+00 -3.089097169775e+02 0.0 
0.0 0.0 -1.281475954331e+02 
-9.226437745549e+01 2.606770273515e+00 0.0 
2.606770273515e+00 -2.522196184925e+02 0.0 
0.0 0.0 -1.029451987844e+02 
-4.153902134115e+01 1.907670288449e+01 0.0 
1.907670288449e+01 -6.199461133316e+01 0.0 
0.0 0.0 -3.066008980229e+01 
-1.069026296866e+02 1.547455388320e+01 0.0 
1.547455388320e+01 -2.823987153629e+02 0.0 
0.0 0.0 -1.163904035148e+02 
-7.984170516026e+01 1.142197483638e+01 0.0 
1.142197483638e+01 -1.443015091816e+02 0.0 
0.0 0.0 -6.684296430257e+01 
-3.981238489815e+01 -2.198075314308e+00 0.0 
-2.198075314308e+00 -1.110932472233e+02 0.0 
0.0 0.0 -4.487168963644e+01 
-6.591723335677e+01 6.458429321468e+00 0.0 
6.458429321468e+00 -1.955650107666e+02 0.0 
0.0 0.0 -7.804467323702e+01 
-7.573028749275e+01 6.641404447740e+00 0.0 
6.641404447740e+00 -2.225833037467e+02 0.0 
0.0 0.0 -8.909407737183e+01 
-8.360581032555e+01 1.339773846718e+01 0.0 
1.339773846718e+01 -2.347276845324e+02 0.0 
0.0 0.0 -9.510004845738e+01 
-3.347472204337e+01 1.002182192987e+00 0.0 
1.002182192987e+00 -1.052408571649e+02 0.0 
0.0 0.0 -4.121467376250e+01 
-6.162653121237e+01 7.001566441127e+00 0.0 
7.001566441127e+00 -1.851685226064e+02 0.0 
0.0 0.0 -7.363851614563e+01 
-9.233852788769e+01 1.469523460234e+01 0.0 
1.469523460234e+01 -2.528141435536e+02 0.0 
0.0 0.0 -1.031458014324e+02 
-5.320900011512e+01 2.143564438427e+01 0.0 
2.143564438427e+01 -1.005238341638e+02 0.0 
0.0 0.0 -4.571985028369e+01 
-7.571011491673e+01 7.485417607625e-01 0.0 
7.485417607625e-01 -2.143242760564e+02 0.0 
0.0 0.0 -8.661031729193e+01 
-7.125131495211e+01 7.127646780542e+00 0.0 
7.127646780542e+00 -1.209618117152e+02 0.0 
0.0 0.0 -5.726393800019e+01 
-3.993209049629e+01 -3.895450570089e-01 0.0 
-3.895450570089e-01 -6.023838196858e+01 0.0 
0.0 0.0 -2.965114173946e+01 
-2.503962428227e+01 1.590776858221e+01 0.0 
1.590776858221e+01 -1.833972719938e+01 0.0 
0.0 0.0 -1.261380544450e+01 
-8.955362184251e+01 3.875420663256e+00 0.0 
3.875420663256e+00 -2.442716475818e+02 0.0 
0.0 0.0 -9.974758082730e+01 
-1.061618488608e+02 1.204731115340e+01 0.0 
1.204731115340e+01 -2.851179612839e+02 0.0 
0.0 0.0 -1.169839430434e+02 
-1.009017556763e+02 1.923447216495e+01 0.0 
1.923447216495e+01 -2.137244525232e+02 0.0 
0.0 0.0 -9.398786245986e+01 
-6.996335382141e+01 9.696939619577e+00 0.0 
9.696939619577e+00 -2.091321473657e+02 0.0 
0.0 0.0 -8.332865035614e+01 
-8.378583912294e+01 1.669433589885e+00 0.0 
1.669433589885e+00 -2.332981642639e+02 0.0 
0.0 0.0 -9.472520101605e+01 
-6.917567209049e+01 5.358946242872e+00 0.0 
5.358946242872e+00 -1.214112943611e+02 0.0 
0.0 0.0 -5.677608993548e+01 
-2.636855300731e+01 1.734955393183e+01 0.0 
1.734955393183e+01 -1.989856322679e+01 0.0 
0.0 0.0 -1.348013487023e+01 
-1.007706058798e+02 1.261739096132e+01 0.0 
1.261739096132e+01 -2.743282426552e+02 0.0 
0.0 0.0 -1.121296545605e+02 
-8.007783849781e+01 1.147129078068e+01 0.0 
1.147129078068e+01 -2.280902038083e+02 0.0 
0.0 0.0 -9.205041269182e+01 
-5.719254077408e+01 2.361908759487e+01 0.0 
2.361908759487e+01 -1.033566187535e+02 0.0 
0.0 0.0 -4.776474785828e+01 
-1.115371593233e+02 7.228212657105e+00 0.0 
7.228212657105e+00 -2.912745156269e+02 0.0 
0.0 0.0 -1.204435024851e+02 
-3.664776170079e+01 -1.026579229927e+00 0.0 
-1.026579229927e+00 -1.068820132898e+02 0.0 
0.0 0.0 -4.265893249718e+01 
-1.160070686335e+02 8.645387912323e+00 0.0 
8.645387912323e+00 -3.004673497566e+02 0.0 
0.0 0.0 -1.245423255170e+02 
-1.291564210358e+02 1.005135706520e+01 0.0 
1.005135706520e+01 -3.269585096236e+02 0.0 
0.0 0.0 -1.364344791978e+02 
-9.551067435411e+01 1.320602538734e+01 0.0 
1.320602538734e+01 -2.632484737176e+02 0.0 
0.0 0.0 -1.072277444215e+02 
-7.962197020744e+01 6.604792718317e+00 0.0 
6.604792718317e+00 -1.523859818388e+02 0.0 
0.0 0.0 -6.920238561388e+01 
-1.014971618916e+02 2.423856045348e+01 0.0 
2.423856045348e+01 -2.522540949223e+02 0.0 
0.0 0.0 -1.057253770442e+02 
-1.309095753273e+02 1.140252604326e+01 0.0 
1.140252604326e+01 -3.279492531319e+02 0.0 
0.0 0.0 -1.372576485378e+02 
-2.652607643007e+01 1.767531060355e+01 0.0 
1.767531060355e+01 -2.054444628031e+01 0.0 
0.0 0.0 -1.372115681311e+01 
-7.415089732287e+01 6.908635578665e+00 0.0 
6.908635578665e+00 -1.314329441948e+02 0.0 
0.0 0.0 -6.127515245531e+01 
-1.184183755109e+02 2.350739165786e+01 0.0 
2.350739165786e+01 -2.943959745433e+02 0.0 
0.0 0.0 -1.234443050162e+02 
-8.099192486772e+01 5.989560695059e+00 0.0 
5.989560695059e+00 -1.608236375630e+02 0.0 
0.0 0.0 -7.214466872922e+01 
-8.654580413458e+01 1.200314041705e+01 0.0 
1.200314041705e+01 -2.451268000207e+02 0.0 
0.0 0.0 -9.910178124660e+01 
-6.451050092585e+01 8.910283599181e+00 0.0 
8.910283599181e+00 -1.922487068778e+02 0.0 
0.0 0.0 -7.662776234109e+01 
-8.479839519129e+01 1.916521141971e-01 0.0 
1.916521141971e-01 -2.305024843283e+02 0.0 
0.0 0.0 -9.419026385587e+01 
-2.357804374079e+01 9.951609182716e-01 0.0 
9.951609182716e-01 -6.029680889471e+01 0.0 
0.0 0.0 -2.476245579065e+01 
-8.372048330420e+01 5.731393725463e+00 0.0 
5.731393725463e+00 -1.714315839088e+02 0.0 
0.0 0.0 -7.614562016391e+01 
-4.307555278776e+01 -1.941331729532e+00 0.0 
-1.941331729532e+00 -1.198448712690e+02 0.0 
0.0 0.0 -4.847612721704e+01 
-2.609484655783e+01 1.754103085376e+01 0.0 
1.754103085376e+01 -2.043133449877e+01 0.0 
0.0 0.0 -1.355785431698e+01 
-9.657119259021e+01 2.451104001451e+01 0.0 
2.451104001451e+01 -2.377399312543e+02 0.0 
0.0 0.0 -9.989333715334e+01 
-8.948229530484e+01 5.122911163443e+00 0.0 
5.122911163443e+00 -1.934983464942e+02 0.0 
0.0 0.0 -8.449419253972e+01 
-3.424597334773e+01 -1.841030679347e+00 0.0 
-1.841030679347e+00 -9.689959926961e+01 0.0 
0.0 0.0 -3.894367178520e+01 
-6.771482145134e+01 2.309290893036e+01 0.0 
2.309290893036e+01 -1.670228689063e+02 0.0 
0.0 0.0 -7.002130710728e+01 
-7.558429396679e+01 6.273475704437e+00 0.0 
6.273475704437e+00 -1.399499678721e+02 0.0 
0.0 0.0 -6.426027855167e+01 
-8.184366802267e+01 2.009709372451e+00 0.0 
2.009709372451e+00 -2.242872218088e+02 0.0 
0.0 0.0 -9.143926694944e+01 
-3.574251495923e+01 7.826923773957e-01 0.0 
7.826923773957e-01 -1.061516071714e+02 0.0 
0.0 0.0 -4.216823663919e+01 
-3.778626582777e+01 1.348811131431e+01 0.0 
1.348811131431e+01 -1.138635212061e+02 0.0 
0.0 0.0 -4.509493611016e+01 
-2.801589355085e+01 -3.199382216366e+00 0.0 
-3.199382216366e+00 -7.536677253103e+01 0.0 
0.0 0.0 -3.061479982456e+01 
-3.250182759587e+01 -2.121593909205e+00 0.0 
-2.121593909205e+00 -9.610783297414e+01 0.0 
0.0 0.0 -3.818289817100e+01 
-3.028202940634e+01 -2.815222107863e+00 0.0 
-2.815222107863e+00 -8.616074885245e+01 0.0 
0.0 0.0 -3.453283347764e+01 
-7.802329999142e+01 1.083698025154e+01 0.0 
1.083698025154e+01 -2.270836909659e+02 0.0 
0.0 0.0 -9.113209728720e+01 
-1.099657557517e+02 1.802308806098e+01 0.0 
1.802308806098e+01 -2.461945121226e+02 0.0 
0.0 0.0 -1.064480803623e+02 
-2.503868421015e+01 1.712927567695e+01 0.0 
1.712927567695e+01 -2.007236060687e+01 0.0 
0.0 0.0 -1.313331344510e+01 
-1.302180606831e+02 6.117268523496e+00 0.0 
6.117268523496e+00 -3.272948623348e+02 0.0 
0.0 0.0 -1.368538769054e+02 
-5.142627923869e+01 8.486033989218e+00 0.0 
8.486033989218e+00 -1.626111056184e+02 0.0 
0.0 0.0 -6.381121545711e+01 
-7.636358944088e+01 9.156444961441e+00 0.0 
9.156444961441e+00 -1.318289929842e+02 0.0 
0.0 0.0 -6.205777472752e+01 
-2.683423021288e+01 1.451145222727e+00 0.0 
1.451145222727e+00 -7.807152280700e+01 0.0 
0.0 0.0 -3.107172590596e+01 
-1.357882186734e+02 1.302322892655e+01 0.0 
1.302322892655e+01 -3.364374062768e+02 0.0 
0.0 0.0 -1.412676874850e+02 
-3.192716081004e+01 -2.497269573203e+00 0.0 
-2.497269573203e+00 -8.690581268024e+01 0.0 
0.0 0.0 -3.524989204709e+01 
-5.051269315473e+01 -1.744312814728e+00 0.0 
-1.744312814728e+00 -1.402419177934e+02 0.0 
0.0 0.0 -5.682638328444e+01 
-9.958362149592e+01 1.504059521907e+01 0.0 
1.504059521907e+01 -2.699424160750e+02 0.0 
0.0 0.0 -1.104578112713e+02 
-7.156194604413e+01 4.205860160456e+00 0.0 
4.205860160456e+00 -2.068971871642e+02 0.0 
0.0 0.0 -8.313773996250e+01 
-1.142484329502e+02 2.175923637957e+01 0.0 
2.175923637957e+01 -2.891221956857e+02 0.0 
0.0 0.0 -1.206111885908e+02 
-4.116289857312e+01 1.847260980463e+01 0.0 
1.847260980463e+01 -1.081557449387e+02 0.0 
0.0 0.0 -4.439559305353e+01 
-8.555537366939e+01 1.365232520838e+01 0.0 
1.365232520838e+01 -1.550229395678e+02 0.0 
0.0 0.0 -7.177349397116e+01 
-1.239401782268e+02 1.954853611348e+01 0.0 
1.954853611348e+01 -3.126724286997e+02 0.0 
0.0 0.0 -1.305837820780e+02 
-7.096420240038e+01 4.571870243742e+00 0.0 
4.571870243742e+00 -1.297059797591e+02 0.0 
0.0 0.0 -5.980105464784e+01 
-1.032950579774e+02 2.190739096776e+01 0.0 
2.190739096776e+01 -2.153134531835e+02 0.0 
0.0 0.0 -9.518255334829e+01 
-8.594425970485e+01 1.036527589816e+01 0.0 
1.036527589816e+01 -1.625917838924e+02 0.0 
0.0 0.0 -7.416081307919e+01 
-9.018790794468e+01 1.240381092914e+01 0.0 
1.240381092914e+01 -1.736925706883e+02 0.0 
0.0 0.0 -7.876414358989e+01 
-2.793536467939e+01 6.948727652727e+00 0.0 
6.948727652727e+00 -8.269227467939e+01 0.0 
0.0 0.0 -3.278829180764e+01 
-1.252210274114e+02 4.921611272070e+00 0.0 
4.921611272070e+00 -3.175424056320e+02 0.0 
0.0 0.0 -1.324290299130e+02 
-8.017952069909e+01 8.229171209361e+00 0.0 
8.229171209361e+00 -1.508555470589e+02 0.0 
0.0 0.0 -6.891052032740e+01 
-6.458497445713e+01 1.339335985657e+01 0.0 
1.339335985657e+01 -1.919978183306e+02 0.0 
0.0 0.0 -7.657483783632e+01 
-2.477895394695e+01 1.652349462290e+01 0.0 
1.652349462290e+01 -2.012669563983e+01 0.0 
0.0 0.0 -1.307169487603e+01 
-1.306537381554e+02 2.287541975811e+01 0.0 
2.287541975811e+01 -3.199933194916e+02 0.0 
0.0 0.0 -1.347941172941e+02 
-3.252207232178e+01 3.893219236653e+00 0.0 
3.893219236653e+00 -1.034202089117e+02 0.0 
0.0 0.0 -4.038268437004e+01 
-4.770412712878e+01 -4.905708493084e-01 0.0 
-4.905708493084e-01 -1.315620663971e+02 0.0 
0.0 0.0 -5.337985805776e+01 
-1.079856697545e+02 1.864002249490e+01 0.0 
1.864002249490e+01 -2.823305829871e+02 0.0 
0.0 0.0 -1.166948758225e+02 
-2.917666686358e+01 3.091249716570e-01 0.0 
3.091249716570e-01 -8.046762567463e+01 0.0 
0.0 0.0 -3.249328776146e+01 
-6.436112961695e+01 1.944479666216e+01 0.0 
1.944479666216e+01 -1.753703989041e+02 0.0 
0.0 0.0 -7.151945855631e+01 
-1.049039164185e+02 1.445560879653e+01 0.0 
1.445560879653e+01 -2.813546606769e+02 0.0 
0.0 0.0 -1.154775731286e+02 
-9.572888016024e+01 1.372180540379e+01 0.0 
1.372180540379e+01 -1.940152894866e+02 0.0 
0.0 0.0 -8.652325089406e+01 
-9.963508337824e+01 1.602986721231e+01 0.0 
1.602986721231e+01 -2.063040271473e+02 0.0 
0.0 0.0 -9.138173315766e+01 
-1.015036070197e+02 1.602053347789e+01 0.0 
1.602053347789e+01 -2.709612039947e+02 0.0 
0.0 0.0 -1.113394433043e+02 
-8.817941568801e+01 9.978626516214e+00 0.0 
9.978626516214e+00 -1.728305568243e+02 0.0 
0.0 0.0 -7.790299175369e+01 
-5.425249528113e+01 1.048878917142e+01 0.0 
1.048878917142e+01 -1.688167692602e+02 0.0 
0.0 0.0 -6.652077936240e+01 
-9.602510707976e+01 2.567981292543e+01 0.0 
2.567981292543e+01 -2.267187551248e+02 0.0 
0.0 0.0 -9.642315866136e+01 
-3.302184851349e+01 1.564525325444e+01 0.0 
1.564525325444e+01 -2.141181145032e+01 0.0 
0.0 0.0 -1.593009798914e+01 
-1.036709440078e+02 2.380746296846e+01 0.0 
2.380746296846e+01 -2.294402349105e+02 0.0 
0.0 0.0 -9.953335367548e+01 
-3.119828783892e+01 6.934743152073e+00 0.0 
6.934743152073e+00 -2.425154694451e+01 0.0 
0.0 0.0 -1.623495043503e+01 
-3.399376655635e+01 4.981831034538e+00 0.0 
4.981831034538e+00 -3.130193353372e+01 0.0 
0.0 0.0 -1.918871002702e+01 
-6.555846409585e+01 1.051595804130e+01 0.0 
1.051595804130e+01 -1.979558378843e+02 0.0 
0.0 0.0 -7.865429059404e+01 
-3.830413561323e+01 4.281476488127e+00 0.0 
4.281476488127e+00 -4.162460086524e+01 0.0 
0.0 0.0 -2.357862094354e+01 
-7.634172380467e+01 1.933445597130e+01 0.0 
1.933445597130e+01 -2.069428942040e+02 0.0 
0.0 0.0 -8.458538540259e+01 
-5.785464139166e+01 1.574369300987e+01 0.0 
1.574369300987e+01 -1.674116031166e+02 0.0 
0.0 0.0 -6.717987335248e+01 
-6.891559129321e+01 8.275263065302e+00 0.0 
8.275263065302e+00 -2.030469331894e+02 0.0 
0.0 0.0 -8.118875734477e+01 
-3.157038239062e+01 -5.111405121019e-01 0.0 
-5.111405121019e-01 -9.623755788446e+01 0.0 
0.0 0.0 -3.794238208253e+01 
-6.238053976264e+01 8.588813444904e+00 0.0 
8.588813444904e+00 -1.912760262905e+02 0.0 
0.0 0.0 -7.569696981595e+01 
-8.752732785007e+01 7.380991633796e+00 0.0 
7.380991633796e+00 -1.815747911347e+02 0.0 
0.0 0.0 -8.033063569544e+01 
-1.032367946535e+02 2.199134820701e+01 0.0 
2.199134820701e+01 -2.231420303183e+02 0.0 
0.0 0.0 -9.751364749154e+01 
-1.154347813703e+02 4.144364935680e+00 0.0 
4.144364935680e+00 -2.988752663022e+02 0.0 
0.0 0.0 -1.238930143018e+02 
-1.180549337524e+02 2.000556972331e+01 0.0 
2.000556972331e+01 -3.005938720492e+02 0.0 
0.0 0.0 -1.251946417405e+02 
-6.921423124446e+01 3.473050208470e+00 0.0 
3.473050208470e+00 -2.057388727187e+02 0.0 
0.0 0.0 -8.208593118895e+01 
-8.686677568259e+01 9.924540271276e+00 0.0 
9.924540271276e+00 -1.718513820134e+02 0.0 
0.0 0.0 -7.721544730878e+01 
-6.669680717834e+01 7.826631684099e+00 0.0 
7.826631684099e+00 -2.020101452845e+02 0.0 
0.0 0.0 -8.021208573884e+01 
-1.303378846828e+02 4.487011066299e+00 0.0 
4.487011066299e+00 -3.263597841327e+02 0.0 
0.0 0.0 -1.366093006446e+02 
-8.258221364992e+01 7.992937853150e+00 0.0 
7.992937853150e+00 -1.607610990831e+02 0.0 
0.0 0.0 -7.260299381991e+01 
-8.796074679746e+01 1.298326717310e+01 0.0 
1.298326717310e+01 -1.642034371402e+02 0.0 
0.0 0.0 -7.524925518130e+01 
-9.154979185129e+01 1.137346288322e+01 0.0 
1.137346288322e+01 -2.561425584657e+02 0.0 
0.0 0.0 -1.039077050951e+02 
-5.822949901157e+01 9.478412206640e+00 0.0 
9.478412206640e+00 -1.802287937866e+02 0.0 
0.0 0.0 -7.113748783946e+01 
-1.041820947850e+02 2.644534795088e+01 0.0 
2.644534795088e+01 -2.454431855874e+02 0.0 
0.0 0.0 -1.044875841117e+02 
-7.620786246444e+01 2.236519789645e+01 0.0 
2.236519789645e+01 -1.596602216916e+02 0.0 
0.0 0.0 -7.036042524681e+01 
-3.351020569879e+01 -4.991208128061e-01 0.0 
-4.991208128061e-01 -9.706155227146e+01 0.0 
0.0 0.0 -3.877152739108e+01 
-3.454422377703e+01 3.279362054511e+00 0.0 
3.279362054511e+00 -1.041354214214e+02 0.0 
0.0 0.0 -4.120389355953e+01 
-4.316170627553e+01 1.710958232348e+01 0.0 
1.710958232348e+01 -1.220443081339e+02 0.0 
0.0 0.0 -4.916180432284e+01 
-6.762188975632e+01 2.188891279042e+01 0.0 
2.188891279042e+01 -1.667426256328e+02 0.0 
0.0 0.0 -6.990935461675e+01 
-1.354360093136e+02 3.958694025600e+00 0.0 
3.958694025600e+00 -3.352812553945e+02 0.0 
0.0 0.0 -1.408151794124e+02 
-8.355850423345e+01 1.082008442686e+01 0.0 
1.082008442686e+01 -1.527342687565e+02 0.0 
0.0 0.0 -7.048783189698e+01 
-6.024146198580e+01 9.664556924445e+00 0.0 
9.664556924445e+00 -1.811222189337e+02 0.0 
0.0 0.0 -7.200910427584e+01 
-7.951504552539e+01 2.443898727386e+01 0.0 
2.443898727386e+01 -1.885692228801e+02 0.0 
0.0 0.0 -8.002528052164e+01 
-1.104569605432e+02 1.391102703302e+01 0.0 
1.391102703302e+01 -2.925801455833e+02 0.0 
0.0 0.0 -1.205111318379e+02 
-8.642636190746e+01 7.873572160153e+00 0.0 
7.873572160153e+00 -1.729583620878e+02 0.0 
0.0 0.0 -7.741541719858e+01 
-1.075804086564e+02 2.720144123371e+01 0.0 
2.720144123371e+01 -2.494859090250e+02 0.0 
0.0 0.0 -1.067198953044e+02 
-7.001387399235e+01 6.639003123519e+00 0.0 
6.639003123519e+00 -1.201192756935e+02 0.0 
0.0 0.0 -5.663994490575e+01 
-1.178562956094e+02 1.111587933213e+01 0.0 
1.111587933213e+01 -3.070016941543e+02 0.0 
0.0 0.0 -1.270573969291e+02 
-7.206381498245e+01 1.017968474054e+01 0.0 
1.017968474054e+01 -2.101267036563e+02 0.0 
0.0 0.0 -8.425715559163e+01 
-1.124332531630e+02 1.494305579840e+01 0.0 
1.494305579840e+01 -2.935598864390e+02 0.0 
0.0 0.0 -1.213979418806e+02 
-6.365717510055e+01 1.883694384975e+01 0.0 
1.883694384975e+01 -1.749418574349e+02 0.0 
0.0 0.0 -7.117970976063e+01 
-9.413420995722e+01 1.125992361004e+01 0.0 
1.125992361004e+01 -1.934236155385e+02 0.0 
0.0 0.0 -8.586734764871e+01 
-1.121921965329e+02 2.831489046726e+01 0.0 
2.831489046726e+01 -2.555254716396e+02 0.0 
0.0 0.0 -1.099153004517e+02 
-8.279332357900e+01 1.016147037601e+01 0.0 
1.016147037601e+01 -2.380051286517e+02 0.0 
0.0 0.0 -9.583953566921e+01 
-3.077438677490e+01 2.019662764391e+00 0.0 
2.019662764391e+00 -9.572292522591e+01 0.0 
0.0 0.0 -3.754919360024e+01 
-1.049025942243e+02 2.252556793925e+01 0.0 
2.252556793925e+01 -2.652816809761e+02 0.0 
0.0 0.0 -1.106552825601e+02 
-7.201263202241e+01 2.017794374372e+01 0.0 
2.017794374372e+01 -1.931326947481e+02 0.0 
0.0 0.0 -7.914359803114e+01 
-5.611873809978e+01 1.055674706965e+01 0.0 
1.055674706965e+01 -1.696224804756e+02 0.0 
0.0 0.0 -6.732236557262e+01 
-8.857161206604e+01 1.278251318182e+01 0.0 
1.278251318182e+01 -2.461526008792e+02 0.0 
0.0 0.0 -1.000172638836e+02 
-1.152195996521e+02 1.061767403393e+01 0.0 
1.061767403393e+01 -2.995739289821e+02 0.0 
0.0 0.0 -1.240380585902e+02 
-3.282005896713e+01 1.477814148719e+00 0.0 
1.477814148719e+00 -9.646292904121e+01 0.0 
0.0 0.0 -3.838489640250e+01 
-7.450922783833e+01 8.984960456634e+00 0.0 
8.984960456634e+00 -2.199620248748e+02 0.0 
0.0 0.0 -8.794137581394e+01 
-7.982173561544e+01 1.925730818729e+01 0.0 
1.925730818729e+01 -1.515578233198e+02 0.0 
0.0 0.0 -6.901386768057e+01 
-1.362568306014e+02 5.355108833916e+00 0.0 
5.355108833916e+00 -3.359095171975e+02 0.0 
0.0 0.0 -1.412499043397e+02 
-8.359364605044e+01 2.099879069513e+01 0.0 
2.099879069513e+01 -1.674075450826e+02 0.0 
0.0 0.0 -7.490035733990e+01 
-1.000851179548e+02 2.283693405424e+01 0.0 
2.283693405424e+01 -2.513631174967e+02 0.0 
0.0 0.0 -1.050344706355e+02 
-7.576379668271e+01 1.705922259992e+01 0.0 
1.705922259992e+01 -1.358691510692e+02 0.0 
0.0 0.0 -6.308988432558e+01 
-6.602704839183e+01 1.131916356159e+01 0.0 
1.131916356159e+01 -1.059109977534e+02 0.0 
0.0 0.0 -5.118141384358e+01 
-7.978062304124e+01 2.294010216482e+01 0.0 
2.294010216482e+01 -1.758276565052e+02 0.0 
0.0 0.0 -7.628248386394e+01 
-1.135997832249e+02 1.811081092537e+01 0.0 
1.811081092537e+01 -2.945139594213e+02 0.0 
0.0 0.0 -1.220341227938e+02 
-1.215162127126e+02 6.601124028098e+00 0.0 
6.601124028098e+00 -3.095223668482e+02 0.0 
0.0 0.0 -1.289115738683e+02 
-7.767248409660e+01 8.576710972253e+00 0.0 
8.576710972253e+00 -1.412420001756e+02 0.0 
0.0 0.0 -6.527434528166e+01 
-9.690277329017e+01 1.377283397808e+01 0.0 
1.377283397808e+01 -2.047368512978e+02 0.0 
0.0 0.0 -9.009188737638e+01 
-7.133701635990e+01 1.439308370081e+01 0.0 
1.439308370081e+01 -1.206454876800e+02 0.0 
0.0 0.0 -5.719475121196e+01 
-4.718131845786e+01 7.360393697563e+00 0.0 
7.360393697563e+00 -1.459129078332e+02 0.0 
0.0 0.0 -5.752826788732e+01 
-1.105226817807e+02 2.539243384497e+01 0.0 
2.539243384497e+01 -2.708783607406e+02 0.0 
0.0 0.0 -1.140203127564e+02 
-9.279254883878e+01 9.177151731279e+00 0.0 
9.177151731279e+00 -1.937147756504e+02 0.0 
0.0 0.0 -8.555219734676e+01 
-6.392385447759e+01 1.622024673793e+01 0.0 
1.622024673793e+01 -1.842852959622e+02 0.0 
0.0 0.0 -7.406274513193e+01 
-6.753458196288e+01 1.789554194006e+01 0.0 
1.789554194006e+01 -1.886484254594e+02 0.0 
0.0 0.0 -7.645490222669e+01 
-5.345434679155e+01 8.492995461440e+00 0.0 
8.492995461440e+00 -1.634716721567e+02 0.0 
0.0 0.0 -6.467780568449e+01 
-8.224367642417e+01 1.080104264539e+01 0.0 
1.080104264539e+01 -1.530746363341e+02 0.0 
0.0 0.0 -7.019549382747e+01 
-4.588519253763e+01 2.071141225228e+01 0.0 
2.071141225228e+01 -1.122509686877e+02 0.0 
0.0 0.0 -4.704084836761e+01 
-7.962152555759e+01 1.774421247265e+01 0.0 
1.774421247265e+01 -2.195572442254e+02 0.0 
0.0 0.0 -8.935363093489e+01 
-4.650404722232e+01 2.152895172022e+01 0.0 
2.152895172022e+01 -1.126729869790e+02 0.0 
0.0 0.0 -4.735311026040e+01 
-1.037592875561e+02 1.685998275410e+01 0.0 
1.685998275410e+01 -2.762925714172e+02 0.0 
0.0 0.0 -1.136155576920e+02 
-1.197095972289e+02 2.649820162763e+01 0.0 
2.649820162763e+01 -2.888774300957e+02 0.0 
0.0 0.0 -1.221761081974e+02 
-5.746242096711e+01 7.681182843545e+00 0.0 
7.681182843545e+00 -1.744746564281e+02 0.0 
0.0 0.0 -6.918112321855e+01 
-2.530108144617e+01 2.817019465022e-01 0.0 
2.817019465022e-01 -6.086074257341e+01 0.0 
0.0 0.0 -2.544854720587e+01 
-9.875637439448e+01 1.662679789978e+01 0.0 
1.662679789978e+01 -2.085077563246e+02 0.0 
0.0 0.0 -9.177923921574e+01 
-4.936834395644e+01 2.155634813208e+01 0.0 
2.155634813208e+01 -1.141535523215e+02 0.0 
0.0 0.0 -4.865656888337e+01 
-7.241044241425e+01 4.996376045889e+00 0.0 
4.996376045889e+00 -2.143436742175e+02 0.0 
0.0 0.0 -8.562623498952e+01 
-1.142182796005e+02 2.379513721687e+01 0.0 
2.379513721687e+01 -2.840422105994e+02 0.0 
0.0 0.0 -1.190781470600e+02 
-8.108131784318e+01 1.134566056169e+01 0.0 
1.134566056169e+01 -1.431639841405e+02 0.0 
0.0 0.0 -6.687359059509e+01 
-1.165408994310e+02 6.928328341546e+00 0.0 
6.928328341546e+00 -3.004732231464e+02 0.0 
0.0 0.0 -1.247042367732e+02 
-5.493624037051e+01 1.368584125787e+01 0.0 
1.368584125787e+01 -1.628617727202e+02 0.0 
0.0 0.0 -6.493940392722e+01 
-2.227571531129e+01 -3.682998675497e-01 0.0 
-3.682998675497e-01 -5.138369884736e+01 0.0 
0.0 0.0 -2.169782424759e+01 
-1.412512520511e+02 4.883753366958e+00 0.0 
4.883753366958e+00 -3.456607983756e+02 0.0 
0.0 0.0 -1.456736151280e+02 
-7.133681961847e+01 2.134543811819e+01 0.0 
2.134543811819e+01 -1.818268131019e+02 0.0 
0.0 0.0 -7.554908981611e+01 
-9.494757756082e+01 1.905326242913e+01 0.0 
1.905326242913e+01 -2.519340180691e+02 0.0 
0.0 0.0 -1.036644786890e+02 
-1.078697675764e+02 2.520508620692e+01 0.0 
2.520508620692e+01 -2.601596219092e+02 0.0 
0.0 0.0 -1.100088168457e+02 
-2.020997110776e+01 -1.405036549152e-01 0.0 
-1.405036549152e-01 -3.432591718886e+01 0.0 
0.0 0.0 -1.596076648898e+01 
-1.149434825496e+02 5.671462869455e+00 0.0 
5.671462869455e+00 -2.995179640174e+02 0.0 
0.0 0.0 -1.239384339701e+02 
-3.702636058620e+01 1.092110672289e+01 0.0 
1.092110672289e+01 -1.103045339790e+02 0.0 
0.0 0.0 -4.379926836956e+01 
-7.382585237926e+01 9.550716142137e+00 0.0 
9.550716142137e+00 -1.222136578512e+02 0.0 
0.0 0.0 -5.841185306915e+01 
-9.005232509820e+01 2.877847641332e+00 0.0 
2.877847641332e+00 -2.432638367891e+02 0.0 
0.0 0.0 -9.959484856617e+01 
-5.531346072424e+01 7.522660529975e+00 0.0 
7.522660529975e+00 -1.735281112545e+02 0.0 
0.0 0.0 -6.825247159363e+01 
-1.313169342920e+02 5.789994995227e+00 0.0 
5.789994995227e+00 -3.270623818158e+02 0.0 
0.0 0.0 -1.371137948324e+02 
-7.537081108787e+01 1.858099553764e+01 0.0 
1.858099553764e+01 -2.063671497794e+02 0.0 
0.0 0.0 -8.412138826019e+01 
-4.876052062576e+01 6.504276193804e+00 0.0 
6.504276193804e+00 -1.558895660639e+02 0.0 
0.0 0.0 -6.099502600691e+01 
-7.553862574327e+01 2.356805583048e+01 0.0 
2.356805583048e+01 -1.854115063057e+02 0.0 
0.0 0.0 -7.788503961468e+01 
-2.399626595095e+01 -1.153057560089e+00 0.0 
-1.153057560089e+00 -5.190786256381e+01 0.0 
0.0 0.0 -2.237123855443e+01 
-9.199089445801e+01 2.477385108270e+01 0.0 
2.477385108270e+01 -2.228233112060e+02 0.0 
0.0 0.0 -9.404426169920e+01 
-1.056244580035e+02 1.793695866342e+01 0.0 
1.793695866342e+01 -2.773142592018e+02 0.0 
0.0 0.0 -1.144816151616e+02 
-1.135667033638e+02 2.759760842913e+01 0.0 
2.759760842913e+01 -2.570695788638e+02 0.0 
0.0 0.0 -1.107908846683e+02 
-1.005423412840e+02 2.562030507918e+01 0.0 
2.562030507918e+01 -2.418125845589e+02 0.0 
0.0 0.0 -1.023064777529e+02 
-3.944933140452e+01 4.243919708013e+00 0.0 
4.243919708013e+00 -1.216772558436e+02 0.0 
0.0 0.0 -4.793797617444e+01 
-1.168143271302e+02 5.442116678006e+00 0.0 
5.442116678006e+00 -2.997520209412e+02 0.0 
0.0 0.0 -1.245699044214e+02 
-9.371394011030e+01 8.741012321930e+00 0.0 
8.741012321930e+00 -2.022141077601e+02 0.0 
0.0 0.0 -8.837841436112e+01 
-1.347342180363e+02 2.470156763681e+01 0.0 
2.470156763681e+01 -3.249754371971e+02 0.0 
0.0 0.0 -1.375128965700e+02 
-1.098836568280e+02 1.984615098065e+01 0.0 
1.984615098065e+01 -2.833932074841e+02 0.0 
0.0 0.0 -1.175830592937e+02 
-5.892934002992e+01 1.263649046616e+01 0.0 
1.263649046616e+01 -1.751951129845e+02 0.0 
0.0 0.0 -6.983733590432e+01 
-8.363430140002e+01 2.411168131051e+01 0.0 
2.411168131051e+01 -2.039820100540e+02 0.0 
0.0 0.0 -8.588489343619e+01 
-1.349178902958e+02 2.513454126305e+00 0.0 
2.513454126305e+00 -3.335591881811e+02 0.0 
0.0 0.0 -1.401431235431e+02 
-8.518110424887e+01 9.039420975200e-01 0.0 
9.039420975200e-01 -2.273104448828e+02 0.0 
0.0 0.0 -9.334746473949e+01 
-9.557874775834e+01 2.306878996267e+01 0.0 
2.306878996267e+01 -2.370229857397e+02 0.0 
0.0 0.0 -9.938052004940e+01 
-7.286446761866e+01 6.424273224505e+00 0.0 
6.424273224505e+00 -1.298947343584e+02 0.0 
0.0 0.0 -6.042776059311e+01 
-1.264339867211e+02 6.228286789797e+00 0.0 
6.228286789797e+00 -3.183436209305e+02 0.0 
0.0 0.0 -1.330332822955e+02 
-1.211693380334e+02 8.268488586432e+00 0.0 
8.268488586432e+00 -3.098601789554e+02 0.0 
0.0 0.0 -1.289088550967e+02 
-3.317162649856e+01 3.862866550826e-02 0.0 
3.862866550826e-02 -4.728917693267e+01 0.0 
0.0 0.0 -2.373824102937e+01 
-3.307803292997e+01 -1.510123137653e-01 0.0 
-1.510123137653e-01 -4.722989896905e+01 0.0 
0.0 0.0 -2.369237956971e+01 
-8.461904421592e+01 2.138232754857e+01 0.0 
2.138232754857e+01 -1.586064610656e+02 0.0 
0.0 0.0 -7.256765158446e+01 
-8.731902135596e+01 2.235188039542e+01 0.0 
2.235188039542e+01 -2.184293298710e+02 0.0 
0.0 0.0 -9.132450536809e+01 
-9.440297619563e+01 2.855763607456e+00 0.0 
2.855763607456e+00 -2.520435891184e+02 0.0 
0.0 0.0 -1.035339695942e+02 
-8.383264193460e+01 2.499577034370e+01 0.0 
2.499577034370e+01 -1.798303467258e+02 0.0 
0.0 0.0 -7.869889659813e+01 
-7.158060544101e+01 1.695027526286e+01 0.0 
1.695027526286e+01 -2.018285589727e+02 0.0 
0.0 0.0 -8.162274932412e+01 
-1.262157264053e+02 1.471774728540e+01 0.0 
1.471774728540e+01 -3.204005378568e+02 0.0 
0.0 0.0 -1.335848792786e+02 
-5.729450567663e+01 1.248426280056e+01 0.0 
1.248426280056e+01 -1.744693576355e+02 0.0 
0.0 0.0 -6.912915899363e+01 
-1.074481871984e+02 1.609158733064e+01 0.0 
1.609158733064e+01 -2.423813828556e+02 0.0 
0.0 0.0 -1.045488710162e+02 
-5.843202930320e+01 9.699993853949e+00 0.0 
9.699993853949e+00 -8.480873379834e+01 0.0 
0.0 0.0 -4.257222893046e+01 
-6.847831133667e+01 1.849813811334e+01 0.0 
1.849813811334e+01 -1.891801336891e+02 0.0 
0.0 0.0 -7.689753350774e+01 
-8.832435033082e+01 1.632262985554e+00 0.0 
1.632262985554e+00 -2.422447162736e+02 0.0 
0.0 0.0 -9.877071998134e+01 
-3.632029325135e+01 5.283333136475e+00 0.0 
5.283333136475e+00 -1.110662941041e+02 0.0 
0.0 0.0 -4.381597620664e+01 
-7.763660045365e+01 1.911274697084e+00 0.0 
1.911274697084e+00 -2.153984293747e+02 0.0 
0.0 0.0 -8.751050894851e+01 
-7.921163893259e+01 2.180036404527e+01 0.0 
2.180036404527e+01 -2.000190013480e+02 0.0 
0.0 0.0 -8.336919208419e+01 
-7.164688962073e+01 2.257400120422e+01 0.0 
2.257400120422e+01 -1.696384617317e+02 0.0 
0.0 0.0 -7.198560540572e+01 
-7.509046623086e+01 9.008050342183e+00 0.0 
9.008050342183e+00 -1.319058119783e+02 0.0 
0.0 0.0 -6.169888346274e+01 
-8.729807585166e+01 2.334213706093e+01 0.0 
2.334213706093e+01 -1.951917629173e+02 0.0 
0.0 0.0 -8.434695163069e+01 
-9.152932688468e+01 2.543013574465e+01 0.0 
2.543013574465e+01 -1.996210478419e+02 0.0 
0.0 0.0 -8.694511241799e+01 
-2.191218268032e+01 -2.352583574794e-01 0.0 
-2.352583574794e-01 -5.940054513271e+01 0.0 
0.0 0.0 -2.399381834391e+01 
-7.216980235170e+01 -6.356813435761e-02 0.0 
-6.356813435761e-02 -2.041670338710e+02 0.0 
0.0 0.0 -8.250105086681e+01 
-4.956133705005e+01 2.274291541946e+01 0.0 
2.274291541946e+01 -1.144336756567e+02 0.0 
0.0 0.0 -4.879850381202e+01 
-8.001257190048e+01 2.177478085413e+01 0.0 
2.177478085413e+01 -1.631888322507e+02 0.0 
0.0 0.0 -7.256042124535e+01 
-8.429049996115e+01 2.382552898721e+01 0.0 
2.382552898721e+01 -1.685063585719e+02 0.0 
0.0 0.0 -7.543905755991e+01 
-1.191246120225e+02 1.754896149209e+01 0.0 
1.754896149209e+01 -3.056621410519e+02 0.0 
0.0 0.0 -1.270360259223e+02 
-3.214136858966e+01 -8.446676748725e-01 0.0 
-8.446676748725e-01 -8.948627384023e+01 0.0 
0.0 0.0 -3.608829272897e+01 
-3.104841706935e+01 -9.284873705996e-02 0.0 
-9.284873705996e-02 -8.803101701168e+01 0.0 
0.0 0.0 -3.532383022431e+01 
-6.742004881546e+01 2.020677787703e+01 0.0 
2.020677787703e+01 -1.784845699572e+02 0.0 
0.0 0.0 -7.337138563180e+01 
-7.396259745998e+01 1.160958134273e+00 0.0 
1.160958134273e+00 -2.051914318900e+02 0.0 
0.0 0.0 -8.334620880498e+01 
-4.086237047922e+01 1.155465669166e+01 0.0 
1.155465669166e+01 -3.612736035038e+01 0.0 
0.0 0.0 -2.269691924888e+01 
-4.376907300474e+01 9.448613170039e+00 0.0 
9.448613170039e+00 -4.497233348525e+01 0.0 
0.0 0.0 -2.622242194700e+01 
-7.847837219847e+01 1.200644739491e+01 0.0 
1.200644739491e+01 -1.338513206181e+02 0.0 
0.0 0.0 -6.329890784497e+01 
-2.730576805377e+01 7.520376625026e+00 0.0 
7.520376625026e+00 -7.181831087113e+01 0.0 
0.0 0.0 -2.933722367747e+01 
-8.446464681129e+01 8.103149102931e-01 0.0 
8.103149102931e-01 -2.321593917830e+02 0.0 
0.0 0.0 -9.458721157829e+01 
-1.082937300318e+02 1.313106021285e+01 0.0 
1.313106021285e+01 -2.862571114879e+02 0.0 
0.0 0.0 -1.179652524559e+02 
-2.904694264398e+01 3.358264275535e-01 0.0 
3.358264275535e-01 -8.732420205494e+01 0.0 
0.0 0.0 -3.451134340968e+01 
-1.264747978049e+02 2.788120569074e+01 0.0 
2.788120569074e+01 -2.993172629633e+02 0.0 
0.0 0.0 -1.273376182305e+02 
-9.197463496881e+01 1.171409448306e+01 0.0 
1.171409448306e+01 -1.830371004166e+02 0.0 
0.0 0.0 -8.210352061561e+01 
-8.207449539420e+01 1.430898204952e+00 0.0 
1.430898204952e+00 -2.227317033632e+02 0.0 
0.0 0.0 -9.104185962723e+01 
-1.204234764258e+02 3.813390834983e+00 0.0 
3.813390834983e+00 -3.077288635255e+02 0.0 
0.0 0.0 -1.280457019854e+02 
-1.504338484503e+01 -1.069967293243e+00 0.0 
-1.069967293243e+00 -4.239762661325e+01 0.0 
0.0 0.0 -1.683230343749e+01 
-1.041432314942e+02 1.133599140428e+01 0.0 
1.133599140428e+01 -2.785003431466e+02 0.0 
0.0 0.0 -1.143930723922e+02 
-7.163593802351e+01 2.242374735560e+01 0.0 
2.242374735560e+01 -1.821793844333e+02 0.0 
0.0 0.0 -7.574459673703e+01 
-1.522114254198e+01 -8.485905765009e-01 0.0 
-8.485905765009e-01 -4.232889923845e+01 0.0 
0.0 0.0 -1.686501253413e+01 
-8.894043979203e+01 9.595657096927e+00 0.0 
9.595657096927e+00 -1.814719551892e+02 0.0 
0.0 0.0 -8.072371849437e+01 
-2.871240746580e+01 7.850600904753e-01 0.0 
7.850600904753e-01 -7.870964450862e+01 0.0 
0.0 0.0 -3.182661559232e+01 
-8.020102472007e+01 2.436407967636e+01 0.0 
2.436407967636e+01 -1.638352399613e+02 0.0 
0.0 0.0 -7.281087940442e+01 
-7.161030910495e+01 2.403095046898e+01 0.0 
2.403095046898e+01 -1.699038266520e+02 0.0 
0.0 0.0 -7.205424072708e+01 
-7.027250579381e+01 6.030487645107e+00 0.0 
6.030487645107e+00 -2.056196110031e+02 0.0 
0.0 0.0 -8.236763503908e+01 
-9.019095172710e+01 5.507107569926e+00 0.0 
5.507107569926e+00 -2.523268842069e+02 0.0 
0.0 0.0 -1.023553507802e+02 
-9.279296378281e+01 1.158167236708e+01 0.0 
1.158167236708e+01 -1.925711138847e+02 0.0 
0.0 0.0 -8.520922330024e+01 
-9.920724155029e+01 6.662939530172e+00 0.0 
6.662939530172e+00 -2.710126081965e+02 0.0 
0.0 0.0 -1.106659549240e+02 
-7.130384238264e+01 1.939714249824e+01 0.0 
1.939714249824e+01 -1.926628662433e+02 0.0 
0.0 0.0 -7.879001258778e+01 
-6.789960401221e+01 2.104351402059e+01 0.0 
2.104351402059e+01 -1.788644890786e+02 0.0 
0.0 0.0 -7.362922792725e+01 
-2.348006330969e+01 1.451020852256e+01 0.0 
1.451020852256e+01 -1.640522848384e+01 0.0 
0.0 0.0 -1.156558753806e+01 
-2.543372389912e+01 -8.446346085793e-02 0.0 
-8.446346085793e-02 -6.959465724293e+01 0.0 
0.0 0.0 -2.810851434262e+01 
-1.052664020731e+02 2.548729589365e+01 0.0 
2.548729589365e+01 -2.564406121892e+02 0.0 
0.0 0.0 -1.081121042787e+02 
-7.259900468361e+01 1.414037046428e+01 0.0 
1.414037046428e+01 -1.162065959721e+02 0.0 
0.0 0.0 -5.624168019670e+01 
-1.086707265330e+02 2.404472904646e+01 0.0 
2.404472904646e+01 -2.697465028687e+02 0.0 
0.0 0.0 -1.131251688205e+02 
-3.569056694664e+01 1.153521207801e+01 0.0 
1.153521207801e+01 -1.098715158479e+02 0.0 
0.0 0.0 -4.326862483835e+01 
-9.242558656424e+01 1.845871792278e+01 0.0 
1.845871792278e+01 -1.854184771902e+02 0.0 
0.0 0.0 -8.295321912633e+01 
-1.091626259195e+02 2.673388006289e+01 0.0 
2.673388006289e+01 -2.608714876528e+02 0.0 
0.0 0.0 -1.106102340717e+02 
-4.589701245143e+01 8.561005825980e+00 0.0 
8.561005825980e+00 -5.479909334681e+01 0.0 
0.0 0.0 -2.980883173947e+01 
-1.039883483377e+02 2.397591368235e+01 0.0 
2.397591368235e+01 -2.555233300983e+02 0.0 
0.0 0.0 -1.074535035308e+02 
-1.215961941352e+02 5.126443762615e+00 0.0 
5.126443762615e+00 -3.085229575160e+02 0.0 
0.0 0.0 -1.286357454954e+02 
-8.323545092949e+01 2.126285585742e+01 0.0 
2.126285585742e+01 -2.144997236338e+02 0.0 
0.0 0.0 -8.892055236897e+01 
-8.006732465617e+01 7.730422424006e-01 0.0 
7.730422424006e-01 -2.232636081370e+02 0.0 
0.0 0.0 -9.059927983796e+01 
-8.567986426226e+01 2.865661700778e+00 0.0 
2.865661700778e+00 -2.343626459854e+02 0.0 
0.0 0.0 -9.561275307429e+01 
-1.023670198296e+02 1.937267817509e+01 0.0 
1.937267817509e+01 -2.111895545193e+02 0.0 
0.0 0.0 -9.366697230469e+01 
-8.171213945556e+01 4.353346897899e+00 0.0 
4.353346897899e+00 -2.337712342847e+02 0.0 
0.0 0.0 -9.424501212208e+01 
-7.536492857367e+01 2.225138655656e+01 0.0 
2.225138655656e+01 -1.850803098144e+02 0.0 
0.0 0.0 -7.773357151643e+01 
-7.230832129440e+01 1.431814726650e+01 0.0 
1.431814726650e+01 -2.096632996593e+02 0.0 
0.0 0.0 -8.419148628612e+01 
-1.088173192294e+02 7.836580496627e+00 0.0 
7.836580496627e+00 -2.897693692146e+02 0.0 
0.0 0.0 -1.191760065332e+02 
-6.508532021233e+01 1.663986718364e+01 0.0 
1.663986718364e+01 -1.848656551829e+02 0.0 
0.0 0.0 -7.458529261857e+01 
-4.058125240462e+01 3.642785572232e+00 0.0 
3.642785572232e+00 -1.311092197000e+02 0.0 
0.0 0.0 -5.110714163138e+01 
-7.918152095864e+01 8.365219056382e+00 0.0 
8.365219056382e+00 -2.304819068870e+02 0.0 
0.0 0.0 -9.249902835370e+01 
-4.276594009901e+01 5.552599677808e+00 0.0 
5.552599677808e+00 -1.383421948244e+02 0.0 
0.0 0.0 -5.393244047702e+01 
-8.359835835665e+01 2.275127290655e+01 0.0 
2.275127290655e+01 -1.792727114638e+02 0.0 
0.0 0.0 -7.846132094614e+01 
-4.492072418262e+01 5.327930300559e+00 0.0 
5.327930300559e+00 -1.392050505587e+02 0.0 
0.0 0.0 -5.483773242239e+01 
-7.977969771447e+01 2.501935568041e+01 0.0 
2.501935568041e+01 -1.762314184622e+02 0.0 
0.0 0.0 -7.640333485299e+01 
-1.154306503368e+02 1.931419631395e+01 0.0 
1.931419631395e+01 -2.955549197600e+02 0.0 
0.0 0.0 -1.228956710291e+02 
-1.091712390067e+02 1.627931376555e+01 0.0 
1.627931376555e+01 -2.880410169147e+02 0.0 
0.0 0.0 -1.187636767764e+02 
-6.050665697119e+01 1.440936943370e+01 0.0 
1.440936943370e+01 -1.795929818929e+02 0.0 
0.0 0.0 -7.162989165924e+01 
-7.235900268168e+01 9.541768888118e+00 0.0 
9.541768888118e+00 -1.229502748068e+02 0.0 
0.0 0.0 -5.819278324654e+01 
-1.253983493996e+02 3.425997477515e+00 0.0 
3.425997477515e+00 -3.165085494462e+02 0.0 
0.0 0.0 -1.321720696537e+02 
-1.263390767251e+02 4.754571253365e+00 0.0 
4.754571253365e+00 -3.172124493487e+02 0.0 
0.0 0.0 -1.326654578222e+02 
-2.426612430144e+01 7.285414252229e+00 0.0 
7.285414252229e+00 -5.541306458200e+01 0.0 
0.0 0.0 -2.350375666503e+01 
-8.336844268289e+01 2.323054054589e+01 0.0 
2.323054054589e+01 -1.915481975026e+02 0.0 
0.0 0.0 -8.207499205564e+01 
-1.409502109176e+02 3.239973257334e+00 0.0 
3.239973257334e+00 -3.449981287499e+02 0.0 
0.0 0.0 -1.453845019003e+02 
-3.339864573131e+01 2.007286866099e+01 0.0 
2.007286866099e+01 -6.033845200520e+01 0.0 
0.0 0.0 -2.772112932095e+01 
-9.020507048663e+01 2.112688288274e+00 0.0 
2.112688288274e+00 -2.417159025873e+02 0.0 
0.0 0.0 -9.917629192219e+01 
-2.149725071301e+01 1.325320669370e+01 0.0 
1.325320669370e+01 -1.698670878816e+01 0.0 
0.0 0.0 -1.114518785035e+01 
-1.303016319264e+02 2.991702326312e+00 0.0 
2.991702326312e+00 -3.251804829044e+02 0.0 
0.0 0.0 -1.362446344492e+02 
-3.734712666762e+01 4.666628215523e+00 0.0 
4.666628215523e+00 -1.208800011290e+02 0.0 
0.0 0.0 -4.706813833897e+01 
-8.783126111965e+01 -3.740903227389e-01 0.0 
-3.740903227389e-01 -2.334961956600e+02 0.0 
0.0 0.0 -9.599823703390e+01 
-9.296908459293e+01 1.798581713373e+01 0.0 
1.798581713373e+01 -2.509094912323e+02 0.0 
0.0 0.0 -1.027635727476e+02 
-7.587854142889e+01 1.281653526826e+01 0.0 
1.281653526826e+01 -1.250551155774e+02 0.0 
0.0 0.0 -5.988009710188e+01 
-7.003906553958e+01 1.049304168629e+01 0.0 
1.049304168629e+01 -1.144385993993e+02 0.0 
0.0 0.0 -5.494329948168e+01 
-7.520341354287e+01 2.070835832351e+01 0.0 
2.070835832351e+01 -1.964124062962e+02 0.0 
0.0 0.0 -8.108474595172e+01 
-3.539722261769e+01 1.701888528363e+01 0.0 
1.701888528363e+01 -2.273677761928e+01 0.0 
0.0 0.0 -1.704020007109e+01 
-3.815845121135e+01 1.361290906737e+01 0.0 
1.361290906737e+01 -2.871015112123e+01 0.0 
0.0 0.0 -1.966058069977e+01 
-1.309549159406e+02 4.287203438620e+00 0.0 
4.287203438620e+00 -3.257615249873e+02 0.0 
0.0 0.0 -1.366149322784e+02 
-9.623100614607e+01 8.059071609937e+00 0.0 
8.059071609937e+00 -2.621118084197e+02 0.0 
0.0 0.0 -1.071028443697e+02 
-7.800370688781e+01 7.319372736359e+00 0.0 
7.319372736359e+00 -2.237052497927e+02 0.0 
0.0 0.0 -9.011268700415e+01 
-1.019492812058e+02 1.027526091144e+01 0.0 
1.027526091144e+01 -2.773779066071e+02 0.0 
0.0 0.0 -1.133981563439e+02 
-7.116136376638e+01 7.187658929400e+00 0.0 
7.187658929400e+00 -2.124551784639e+02 0.0 
0.0 0.0 -8.468496266909e+01 
-4.146003022323e+01 6.274181036038e+00 0.0 
6.274181036038e+00 -1.284535352100e+02 0.0 
0.0 0.0 -5.057406962997e+01 
-2.854888355326e+01 8.842244461553e+00 0.0 
8.842244461553e+00 -1.719111459775e+01 0.0 
0.0 0.0 -1.332199944530e+01 
-6.446342718368e+01 1.219692176688e+01 0.0 
1.219692176688e+01 -9.497889836341e+01 0.0 
0.0 0.0 -4.743269766413e+01 
-3.328737967032e+01 -4.147418015381e-02 0.0 
-4.147418015381e-02 -4.746248292223e+01 0.0 
0.0 0.0 -2.382495877777e+01 
-1.110463955222e+02 1.738317767850e+01 0.0 
1.738317767850e+01 -2.890608104742e+02 0.0 
0.0 0.0 -1.196321617989e+02 
-6.190637832309e+01 1.466848853824e+01 0.0 
1.466848853824e+01 -1.802406161872e+02 0.0 
0.0 0.0 -7.224409835310e+01 
-1.282199351740e+02 2.152662672568e+01 0.0 
2.152662672568e+01 -3.185876495510e+02 0.0 
0.0 0.0 -1.336422754175e+02 
-1.296366550270e+02 3.705936560834e-01 0.0 
3.705936560834e-01 -3.223841862613e+02 0.0 
0.0 0.0 -1.352062523865e+02 
-7.668288925772e+01 9.581334987213e+00 0.0 
9.581334987213e+00 -2.210171458874e+02 0.0 
0.0 0.0 -8.891001054354e+01 
-1.470354535110e+02 5.825880255946e+00 0.0 
5.825880255946e+00 -3.552245897571e+02 0.0 
0.0 0.0 -1.502780129804e+02 
-4.857851409512e+01 4.595130504954e+00 0.0 
4.595130504954e+00 -1.497148911916e+02 0.0 
0.0 0.0 -5.908802158602e+01 
-1.219573830228e+02 2.186392901294e+01 0.0 
2.186392901294e+01 -3.058153098892e+02 0.0 
0.0 0.0 -1.279318078736e+02 
-7.574126372156e+01 2.169526032600e+01 0.0 
2.169526032600e+01 -1.968530724830e+02 0.0 
0.0 0.0 -8.137830086138e+01 
-8.746063237145e+01 2.067580271649e+01 0.0 
2.067580271649e+01 -2.285003514831e+02 0.0 
0.0 0.0 -9.438829515638e+01 
-1.240929269261e+02 1.398307624235e+01 0.0 
1.398307624235e+01 -3.154629611287e+02 0.0 
0.0 0.0 -1.314667664164e+02 
-5.892868085681e+01 -9.536186361842e-02 0.0 
-9.536186361842e-02 -1.686890112867e+02 0.0 
0.0 0.0 -6.788530764304e+01 
-7.937988573714e+01 2.290796799295e+01 0.0 
2.290796799295e+01 -1.882618801941e+02 0.0 
0.0 0.0 -7.989252977936e+01 
-7.342131039135e+01 7.742534310165e+00 0.0 
7.742534310165e+00 -2.135340444331e+02 0.0 
0.0 0.0 -8.568660644735e+01 
-7.562579255355e+01 2.468255108501e+01 0.0 
2.468255108501e+01 -1.728860973875e+02 0.0 
0.0 0.0 -7.415356698233e+01 
-3.895225954072e+01 1.302304716191e+01 0.0 
1.302304716191e+01 -1.142607779671e+02 0.0 
0.0 0.0 -4.556391125234e+01 
-9.181072921250e+01 2.013803759293e+01 0.0 
2.013803759293e+01 -2.420859550754e+02 0.0 
0.0 0.0 -9.976900528636e+01 
-6.795238713148e+01 5.452212266220e+00 0.0 
5.452212266220e+00 -2.045050002047e+02 0.0 
0.0 0.0 -8.133721620085e+01 
-9.286512736461e+01 1.580773840862e+00 0.0 
1.580773840862e+00 -2.510900500739e+02 0.0 
0.0 0.0 -1.027865532316e+02 
-7.573259537634e+01 2.290575494579e+01 0.0 
2.290575494579e+01 -1.725917122236e+02 0.0 
0.0 0.0 -7.409729227998e+01 
-2.010938654151e+01 7.459120157796e+00 0.0 
7.459120157796e+00 -2.425277567502e+01 0.0 
0.0 0.0 -1.290864866496e+01 
-8.052976961323e+01 1.528236831660e+01 0.0 
1.528236831660e+01 -2.276247788283e+02 0.0 
0.0 0.0 -9.204636453247e+01 
-2.280957099924e+01 1.208962803939e+01 0.0 
1.208962803939e+01 -3.228990734391e+01 0.0 
0.0 0.0 -1.612984350295e+01 
-2.359447353514e+01 -2.513269952111e+00 0.0 
-2.513269952111e+00 -6.359461419299e+01 0.0 
0.0 0.0 -2.575672631844e+01 
-8.879117098297e+01 8.183587862980e-01 0.0 
8.183587862980e-01 -2.407939304467e+02 0.0 
0.0 0.0 -9.847553042889e+01 
-9.987500339917e+01 2.631660738747e+01 0.0 
2.631660738747e+01 -2.306490154559e+02 0.0 
0.0 0.0 -9.875720565653e+01 
-7.444770421130e+01 1.315952280661e+01 0.0 
1.315952280661e+01 -1.275447883522e+02 0.0 
0.0 0.0 -6.019774776906e+01 
-2.989038548192e+01 1.956766413967e+01 0.0 
1.956766413967e+01 -2.285778371997e+01 0.0 
0.0 0.0 -1.542445076057e+01 
-1.031304772085e+02 1.619594477995e+01 0.0 
1.619594477995e+01 -2.419711134864e+02 0.0 
0.0 0.0 -1.031304772085e+02 
-2.094167761614e+01 1.215213898616e+01 0.0 
1.215213898616e+01 -1.273948508518e+01 0.0 
0.0 0.0 -9.811926826818e+00 
-3.118085930999e+01 1.934359481351e+01 0.0 
1.934359481351e+01 -2.151111209985e+01 0.0 
0.0 0.0 -1.540759142295e+01 
-8.040078798313e+01 6.176966073886e+00 0.0 
6.176966073886e+00 -2.324814951144e+02 0.0 
0.0 0.0 -9.346468492926e+01 
-8.608900085190e+01 1.529284487467e+00 0.0 
1.529284487467e+00 -2.313617411818e+02 0.0 
0.0 0.0 -9.483522261009e+01 
-4.593506718350e+01 2.162344087238e+01 0.0 
2.162344087238e+01 -6.533016316173e+01 0.0 
0.0 0.0 -3.297956910357e+01 
-5.137267269477e+01 1.708909731910e+00 0.0 
1.708909731910e+00 -1.603171791482e+02 0.0 
0.0 0.0 -6.310695555288e+01 
-8.746719745357e+01 6.737612975688e+00 0.0 
6.737612975688e+00 -2.434892027284e+02 0.0 
0.0 0.0 -9.888692005459e+01 
-7.965197556984e+01 2.302382484279e+01 0.0 
2.302382484279e+01 -2.004681575186e+02 0.0 
0.0 0.0 -8.363603992654e+01 
-8.923053152904e+01 1.638570530301e+01 0.0 
1.638570530301e+01 -2.458102016012e+02 0.0 
0.0 0.0 -1.001122199391e+02 
-1.006103070746e+02 2.382319046166e+01 0.0 
2.382319046166e+01 -2.233829821494e+02 0.0 
0.0 0.0 -9.679798676721e+01 
-2.484201697329e+01 6.744005557328e+00 0.0 
6.744005557328e+00 -6.623787412581e+01 0.0 
0.0 0.0 -2.692396732973e+01 
-8.058623530597e+01 1.254561006329e-01 0.0 
1.254561006329e-01 -2.218120523618e+02 0.0 
0.0 0.0 -9.031948630032e+01 
-8.901494402293e+01 2.124845886283e-01 0.0 
2.124845886283e-01 -2.391893953265e+02 0.0 
0.0 0.0 -9.806130180484e+01 
-4.536966485602e+01 -1.563924878301e+00 0.0 
-1.563924878301e+00 -1.277782048005e+02 0.0 
0.0 0.0 -5.154436089695e+01 
-4.911570894619e+01 7.067282266684e+00 0.0 
7.067282266684e+00 -6.282419126047e+01 0.0 
0.0 0.0 -3.318197006200e+01 
-7.683245070487e+01 1.675104331111e+01 0.0 
1.675104331111e+01 -1.292780775897e+02 0.0 
0.0 0.0 -6.143315848839e+01 
-1.160096206355e+02 1.133467834588e+00 0.0 
1.133467834588e+00 -2.945850346591e+02 0.0 
0.0 0.0 -1.227783965884e+02 
-1.631849189892e+01 -9.505165383935e-01 0.0 
-9.505165383935e-01 -4.267337820836e+01 0.0 
0.0 0.0 -1.729756103218e+01 
-1.993578285172e+01 -1.162788263353e-01 0.0 
-1.162788263353e-01 -2.544728965126e+01 0.0 
0.0 0.0 -1.321492175089e+01 
-3.270828532912e+01 -2.210980246298e+00 0.0 
-2.210980246298e+00 -8.907589316396e+01 0.0 
0.0 0.0 -3.613525354792e+01 
-9.009870202529e+01 1.569550795711e+00 0.0 
1.569550795711e+00 -2.399656303116e+02 0.0 
0.0 0.0 -9.861929970105e+01 
-5.486007602883e+01 5.772520776904e+00 0.0 
5.772520776904e+00 -1.674206954423e+02 0.0 
0.0 0.0 -6.628423144134e+01 
-4.994877045504e+01 2.374347489598e+00 0.0 
2.374347489598e+00 -1.519026716113e+02 0.0 
0.0 0.0 -6.015543261989e+01 
-4.278208124772e+01 3.433041724840e+00 0.0 
3.433041724840e+00 -1.319974584683e+02 0.0 
0.0 0.0 -5.203386191482e+01 
-9.313050566609e+01 7.888068170365e-01 0.0 
7.888068170365e-01 -2.494475120603e+02 0.0 
0.0 0.0 -1.023734053179e+02 
-8.289045595687e+01 1.806497629552e+01 0.0 
1.806497629552e+01 -1.569518846480e+02 0.0 
0.0 0.0 -7.155270218146e+01 
-9.320720542547e+01 1.792497556892e-01 0.0 
1.792497556892e-01 -2.478056562277e+02 0.0 
0.0 0.0 -1.019038584960e+02 
-5.260971553980e+01 5.653092505538e+00 0.0 
5.653092505538e+00 -1.664405943725e+02 0.0 
0.0 0.0 -6.531509297369e+01 
-8.364256295759e+01 2.508969841502e+01 0.0 
2.508969841502e+01 -1.920109894013e+02 0.0 
0.0 0.0 -8.229606570765e+01 
-5.106534851333e+01 1.664946114703e+00 0.0 
1.664946114703e+00 -7.857713371072e+01 0.0 
0.0 0.0 -3.849274466722e+01 
-1.025370724956e+02 1.911769350780e+01 0.0 
1.911769350780e+01 -2.696190325261e+02 0.0 
0.0 0.0 -1.112468315065e+02 
-9.410374356524e+01 1.560047012498e+00 0.0 
1.560047012498e+00 -2.485155873298e+02 0.0 
0.0 0.0 -1.023857992685e+02 
-9.434833099559e+01 2.108458801281e+00 0.0 
2.108458801281e+00 -2.502932331641e+02 0.0 
0.0 0.0 -1.029924692479e+02 
-2.792121172554e+01 1.870270471922e+01 0.0 
1.870270471922e+01 -2.201548574801e+01 0.0 
0.0 0.0 -1.458100924207e+01 
-5.888092175247e+01 5.207305647701e+00 0.0 
5.207305647701e+00 -1.776627604066e+02 0.0 
0.0 0.0 -7.056310464771e+01 
-9.738736897962e+01 9.837246033072e-02 0.0 
9.837246033072e-02 -2.563067591370e+02 0.0 
0.0 0.0 -1.057082384350e+02 
-6.160877859811e+01 -4.286425751096e-01 0.0 
-4.286425751096e-01 -1.186533622523e+02 0.0 
0.0 0.0 -5.367864225512e+01 
-5.457532913496e+01 -5.629545833144e-01 0.0 
-5.629545833144e-01 -1.003601883326e+02 0.0 
0.0 0.0 -4.608065524026e+01 
-2.865522926282e+01 1.916377755891e+01 0.0 
1.916377755891e+01 -2.247260963097e+01 0.0 
0.0 0.0 -1.493835166814e+01 
-9.748056888679e+01 7.063274175143e-01 0.0 
7.063274175143e-01 -2.580933440782e+02 0.0 
0.0 0.0 -1.062721738895e+02 
-5.106993462375e+01 7.191960932505e-01 0.0 
7.191960932505e-01 -1.524391164183e+02 0.0 
0.0 0.0 -6.065271531261e+01 
-2.499225181867e+01 1.320728353362e+01 0.0 
1.320728353362e+01 -4.818798449426e+01 0.0 
0.0 0.0 -2.155407089388e+01 
-1.242701382805e+02 2.312607633420e+01 0.0 
2.312607633420e+01 -3.071918750148e+02 0.0 
0.0 0.0 -1.290386039886e+02 
-2.934327324590e+01 -3.467653660300e+00 0.0 
-3.467653660300e+00 -8.054929109309e+01 0.0 
0.0 0.0 -3.256776930170e+01 
-5.251407187191e+01 7.217287118815e-02 0.0 
7.217287118815e-02 -1.604070833532e+02 0.0 
0.0 0.0 -6.347634656754e+01 
-7.742824926651e+01 1.674378528997e+01 0.0 
1.674378528997e+01 -2.155877508431e+02 0.0 
0.0 0.0 -8.750480003288e+01 
-2.656304722833e+01 1.617863145140e+01 0.0 
1.617863145140e+01 -2.000482957196e+01 0.0 
0.0 0.0 -1.357036304009e+01 
-9.814988334547e+01 1.491990697539e+00 0.0 
1.491990697539e+00 -2.571222652986e+02 0.0 
0.0 0.0 -1.061816445932e+02 
-4.360797064854e+01 5.969823707097e-01 0.0 
5.969823707097e-01 -1.201068437004e+02 0.0 
0.0 0.0 -4.871444430468e+01 
-5.539187848563e+01 9.839144427280e+00 0.0 
9.839144427280e+00 -7.099452200116e+01 0.0 
0.0 0.0 -3.751592014604e+01 
-9.848570106470e+01 2.046332342937e+00 0.0 
2.046332342937e+00 -2.588533259388e+02 0.0 
0.0 0.0 -1.068017081011e+02 
-7.473362581751e+01 5.688677009584e+00 0.0 
5.688677009584e+00 -2.154925672400e+02 0.0 
0.0 0.0 -8.666785791724e+01 
-8.607042616064e+01 2.078930131609e+00 0.0 
2.078930131609e+00 -2.331322380565e+02 0.0 
0.0 0.0 -9.536079926514e+01 
-2.106412974763e+01 4.632238050134e+00 0.0 
4.632238050134e+00 -3.019621034776e+01 0.0 
0.0 0.0 -1.497810202862e+01 
-8.253720801833e+01 1.448349076263e+00 0.0 
1.448349076263e+00 -1.772801863137e+02 0.0 
0.0 0.0 -7.754521829962e+01 
-6.021575930540e+01 3.203712245789e+00 0.0 
3.203712245789e+00 -1.792917726355e+02 0.0 
0.0 0.0 -7.145225958227e+01 
-1.205334203499e+02 1.536928141821e+01 0.0 
1.536928141821e+01 -3.109206948984e+02 0.0 
0.0 0.0 -1.290362345745e+02 
-8.854034208266e+01 2.187971406770e+01 0.0 
2.187971406770e+01 -2.292752160943e+02 0.0 
0.0 0.0 -9.494466745309e+01 
-1.018098999146e+02 5.653747646550e-01 0.0 
5.653747646550e-01 -2.666623106558e+02 0.0 
0.0 0.0 -1.101416631711e+02 
-1.026068280628e+02 1.888098796246e+00 0.0 
1.888098796246e+00 -2.673250720832e+02 0.0 
0.0 0.0 -1.105795700438e+02 
-5.006008467757e+01 3.854348569276e+00 0.0 
3.854348569276e+00 -1.588819783608e+02 0.0 
0.0 0.0 -6.228261891151e+01 
-2.346649916373e+01 -3.103111172427e+00 0.0 
-3.103111172427e+00 -5.464257598648e+01 0.0 
0.0 0.0 -2.303272254506e+01 
-1.896663585306e+01 6.397944410183e+00 0.0 
6.397944410183e+00 -2.981548979380e+01 0.0 
0.0 0.0 -1.423463769406e+01 
-1.061767452995e+02 3.686603936876e-01 0.0 
3.686603936876e-01 -2.752222552849e+02 0.0 
0.0 0.0 -1.140197001753e+02 
-1.220504489490e+02 1.305764076633e+01 0.0 
1.305764076633e+01 -3.146356857800e+02 0.0 
0.0 0.0 -1.306058404187e+02 
-5.194495492270e+01 -3.427183523232e-01 0.0 
-3.427183523232e-01 -1.518806766461e+02 0.0 
0.0 0.0 -6.074768947064e+01 
-8.719675591649e+01 2.330657087476e+01 0.0 
2.330657087476e+01 -2.070238535942e+02 0.0 
0.0 0.0 -8.786618285320e+01 
-3.116731509168e+01 1.914450627872e+01 0.0 
1.914450627872e+01 -5.847166727746e+01 0.0 
0.0 0.0 -2.649169471074e+01 
-8.769824942305e+01 2.541790800013e+01 0.0 
2.541790800013e+01 -1.957774070344e+02 0.0 
0.0 0.0 -8.464269693722e+01 
-1.460468757369e+02 1.139265118952e+01 0.0 
1.139265118952e+01 -3.568756164882e+02 0.0 
0.0 0.0 -1.504767476675e+02 
-2.289664557630e+01 -3.396106262180e-01 0.0 
-3.396106262180e-01 -6.807970301742e+00 0.0 
0.0 0.0 -8.511384763412e+00 
-9.849113769120e+01 1.606543075524e+00 0.0 
1.606543075524e+00 -2.311459879461e+02 0.0 
0.0 0.0 -9.849113769120e+01 
-1.635799500306e+02 1.415814438126e+00 0.0 
1.415814438126e+00 -3.830198834048e+02 0.0 
0.0 0.0 -1.635799500306e+02 
-4.179383913867e+01 7.612628635733e-01 0.0 
7.612628635733e-01 -6.860159322225e+01 0.0 
0.0 0.0 -3.271862970828e+01 
-6.134997070409e+01 1.712308630082e+00 0.0 
1.712308630082e+00 -1.796637683775e+02 0.0 
0.0 0.0 -7.190412172448e+01 
-8.394829672807e+01 2.242732012254e+01 0.0 
2.242732012254e+01 -2.150769343662e+02 0.0 
0.0 0.0 -8.930756932828e+01 
-5.093288294951e+01 6.478382800422e+00 0.0 
6.478382800422e+00 -1.568033302628e+02 0.0 
0.0 0.0 -6.192086396370e+01 
-2.118641390143e+01 -1.294070579697e+00 0.0 
-1.294070579697e+00 -5.524917565635e+01 0.0 
0.0 0.0 -2.253067686734e+01 
-1.965912979657e+01 1.115404964840e+01 0.0 
1.115404964840e+01 -1.479437012898e+01 0.0 
0.0 0.0 -9.936049977665e+00 
-9.017773932781e+01 5.114925013536e+00 0.0 
5.114925013536e+00 -1.951676535061e+02 0.0 
0.0 0.0 -8.520361785018e+01 
-8.094756856942e+01 1.931047722010e+01 0.0 
1.931047722010e+01 -1.438042405646e+02 0.0 
0.0 0.0 -6.702554274020e+01 
-4.760866948009e+01 8.363189330637e+00 0.0 
8.363189330637e+00 -5.553870453768e+01 0.0 
0.0 0.0 -3.054421220533e+01 
-1.355631909937e+02 3.083690477920e+01 0.0 
3.083690477920e+01 -3.210435676959e+02 0.0 
0.0 0.0 -1.365820276069e+02 
-3.631715154445e+01 5.428331649249e-01 0.0 
5.428331649249e-01 -1.004687951040e+02 0.0 
0.0 0.0 -4.063578399454e+01 
-1.375027814354e+02 2.980973796334e+01 0.0 
2.980973796334e+01 -3.274015695349e+02 0.0 
0.0 0.0 -1.390713052911e+02 
-7.887151920430e+01 1.580196630044e+01 0.0 
1.580196630044e+01 -1.420687455980e+02 0.0 
0.0 0.0 -6.588207944068e+01 
-6.219436647666e+01 6.937558855893e-01 0.0 
6.937558855893e-01 -1.789594498140e+02 0.0 
0.0 0.0 -7.194614488720e+01 
-7.925149610955e+01 2.000198966749e+01 0.0 
2.000198966749e+01 -2.104919875540e+02 0.0 
0.0 0.0 -8.652304509906e+01 
-5.621689471312e+01 -7.654751968639e-02 0.0 
-7.654751968639e-02 -1.691097788023e+02 0.0 
0.0 0.0 -6.719800205462e+01 
-2.579855094748e+01 1.458008359920e+01 0.0 
1.458008359920e+01 -5.041542605986e+01 0.0 
0.0 0.0 -2.246419310220e+01 
-5.336429776636e+01 -1.055067328243e+00 0.0 
-1.055067328243e+00 -1.592949256788e+02 0.0 
0.0 0.0 -6.339776703354e+01 
-8.674003746524e+01 1.999088429682e+01 0.0 
1.999088429682e+01 -1.723686621174e+02 0.0 
0.0 0.0 -7.733260987480e+01 
-1.350474350598e+02 2.558389284035e+00 0.0 
2.558389284035e+00 -3.326226270561e+02 0.0 
0.0 0.0 -1.399010186348e+02 
-5.512602360406e+01 1.319382910940e+00 0.0 
1.319382910940e+00 -1.694079140578e+02 0.0 
0.0 0.0 -6.696018129857e+01 
-9.107319327036e+01 2.371929661656e+01 0.0 
2.371929661656e+01 -2.107295399813e+02 0.0 
0.0 0.0 -9.014081997550e+01 
-1.843564965338e+01 -5.639099855613e-01 0.0 
-5.639099855613e-01 -8.460256002521e+00 0.0 
0.0 0.0 -8.570027220011e+00 
-5.389132085589e+01 3.247506557646e+00 0.0 
3.247506557646e+00 -1.686162759002e+02 0.0 
0.0 0.0 -6.635227902683e+01 
-9.134128505466e+01 1.935509890875e+01 0.0 
1.935509890875e+01 -1.731572668076e+02 0.0 
0.0 0.0 -7.894956555869e+01 
-5.376455198049e+01 -1.741672129662e+00 0.0 
-1.741672129662e+00 -1.571125388760e+02 0.0 
0.0 0.0 -6.286312725695e+01 
-4.900345964745e+01 -1.083389218548e+00 0.0 
-1.083389218548e+00 -1.417691998258e+02 0.0 
0.0 0.0 -5.683179784197e+01 
-8.006002602113e+01 2.095649519099e+01 0.0 
2.095649519099e+01 -2.110582032769e+02 0.0 
0.0 0.0 -8.693546878940e+01 
-2.768016258541e+01 -2.714669752193e+00 0.0 
-2.714669752193e+00 -7.735664664241e+01 0.0 
0.0 0.0 -3.111104276835e+01 
-2.620243992631e+01 1.760916789932e+01 0.0 
1.760916789932e+01 -2.040850683284e+01 0.0 
0.0 0.0 -1.358328402774e+01 
-2.831522119575e+01 1.953551723035e+01 0.0 
1.953551723035e+01 -2.190962551737e+01 0.0 
0.0 0.0 -1.466745401394e+01 
-4.727646384167e+01 -2.370302021077e+00 0.0 
-2.370302021077e+00 -1.382650744458e+02 0.0 
0.0 0.0 -5.526246148625e+01 
-8.267124635242e+01 6.989068542982e+00 0.0 
6.989068542982e+00 -2.336565973822e+02 0.0 
0.0 0.0 -9.449835312040e+01 
-6.798043537439e+01 1.523213029499e+01 0.0 
1.523213029499e+01 -1.970888235352e+02 0.0 
0.0 0.0 -7.912077767288e+01 
-9.174161955572e+01 2.558688277959e+01 0.0 
2.558688277959e+01 -2.113191470295e+02 0.0 
0.0 0.0 -9.051822997557e+01 
-1.060200974452e+02 2.380884105182e+01 0.0 
2.380884105182e+01 -2.362703842949e+02 0.0 
0.0 0.0 -1.022871445220e+02 
-2.474182423196e+01 1.674613814603e+01 0.0 
1.674613814603e+01 -2.009488724997e+01 0.0 
0.0 0.0 -1.305101344458e+01 
-6.919940276967e+01 1.434214373822e+00 0.0 
1.434214373822e+00 -1.385223823854e+02 0.0 
0.0 0.0 -6.191653554653e+01 
-1.134326321117e+02 2.649303297489e+01 0.0 
2.649303297489e+01 -2.666765543501e+02 0.0 
0.0 0.0 -1.136327559386e+02 
-4.633004552351e+01 4.612360053295e+00 0.0 
4.612360053295e+00 -1.487664807107e+02 0.0 
0.0 0.0 -5.812895787026e+01 
-2.429899882142e+01 1.405492067634e+01 0.0 
1.405492067634e+01 -3.282595951687e+01 0.0 
0.0 0.0 -1.673748750149e+01 
-3.478572602542e+01 2.134116527847e+01 0.0 
2.134116527847e+01 -6.124679722857e+01 0.0 
0.0 0.0 -2.840975697620e+01 
-7.926456282840e+01 5.436775023998e+00 0.0 
5.436775023998e+00 -2.251423924599e+02 0.0 
0.0 0.0 -9.092208658648e+01 
-9.075315517107e+01 2.324420003791e+01 0.0 
2.324420003791e+01 -1.988948938117e+02 0.0 
0.0 0.0 -8.649441469483e+01 
-7.696031941505e+01 4.632883674153e+00 0.0 
4.632883674153e+00 -2.239910321860e+02 0.0 
0.0 0.0 -8.988540548030e+01 
-2.413066155045e+01 5.788927881503e+00 0.0 
5.788927881503e+00 -5.068579012855e+01 0.0 
0.0 0.0 -2.204493550370e+01 
-9.114692567890e+01 8.306584853943e+00 0.0 
8.306584853943e+00 -2.519445355857e+02 0.0 
0.0 0.0 -1.025274383794e+02 
-2.711223829397e+01 1.599873226995e+01 0.0 
1.599873226995e+01 -5.264581678468e+01 0.0 
0.0 0.0 -2.352741652359e+01 
-6.939711844073e+01 1.568532797634e+01 0.0 
1.568532797634e+01 -1.977827172641e+02 0.0 
0.0 0.0 -7.975395071145e+01 
-8.514924387286e+01 5.765142108708e+00 0.0 
5.765142108708e+00 -2.422923672849e+02 0.0 
0.0 0.0 -9.783248334734e+01 
-8.346428425995e+01 1.934894136689e+01 0.0 
1.934894136689e+01 -2.240884501206e+02 0.0 
0.0 0.0 -9.186582031417e+01 
-6.108546305807e+01 1.711689216487e+00 0.0 
1.711689216487e+00 -1.138805035806e+02 0.0 
0.0 0.0 -5.208978999161e+01 
-4.897975875108e+01 -1.419828324312e+00 0.0 
-1.419828324312e+00 -1.391744467567e+02 0.0 
0.0 0.0 -5.604626165235e+01 
-2.344440650656e+01 1.135326998318e+01 0.0 
1.135326998318e+01 -4.449656664207e+01 0.0 
0.0 0.0 -1.998229194459e+01 
-9.393268421797e+01 6.955553732932e+00 0.0 
6.955553732932e+00 -2.609007606957e+02 0.0 
0.0 0.0 -1.060500334741e+02 
-2.787647259261e+01 1.692817634166e+01 0.0 
1.692817634166e+01 -5.384098665866e+01 0.0 
0.0 0.0 -2.411523777538e+01 
-1.889735517583e+01 4.475028734457e-01 0.0 
4.475028734457e-01 -2.508878455309e+01 0.0 
0.0 0.0 -1.279584191868e+01 
-8.849217563074e+01 -4.500992573663e-02 0.0 
-4.500992573663e-02 -1.962037659213e+02 0.0 
0.0 0.0 -8.500878246561e+01 
-8.259274369846e+01 -2.651139857445e-01 0.0 
-2.651139857445e-01 -1.774008639278e+02 0.0 
0.0 0.0 -7.759808228788e+01 
-1.376548715847e+01 -1.690081246606e+00 0.0 
-1.690081246606e+00 -2.469818255250e+01 0.0 
0.0 0.0 -1.152114874686e+01 
-1.001453536352e+02 9.636582018748e+00 0.0 
9.636582018748e+00 -2.704285802040e+02 0.0 
0.0 0.0 -1.107721801517e+02 
-3.896450722766e+01 -2.056456180824e+00 0.0 
-2.056456180824e+00 -1.085104204835e+02 0.0 
0.0 0.0 -4.384247831334e+01 
-4.065814014138e+01 -3.017918186431e+00 0.0 
-3.017918186431e+00 -1.159035402931e+02 0.0 
0.0 0.0 -4.656850413035e+01 
-9.883651116940e+01 2.443405114470e+01 0.0 
2.443405114470e+01 -2.300328309266e+02 0.0 
0.0 0.0 -9.826080262881e+01 
-8.463862936110e+01 2.023433936215e+01 0.0 
2.023433936215e+01 -2.247593553541e+02 0.0 
0.0 0.0 -9.241939541456e+01 
-9.512730580614e+01 2.395742038265e+01 0.0 
2.395742038265e+01 -2.260221156871e+02 0.0 
0.0 0.0 -9.594482644799e+01 
-5.621787846199e+01 3.525508046987e+00 0.0 
3.525508046987e+00 -1.696705716224e+02 0.0 
0.0 0.0 -6.736653502532e+01 
-3.359803403546e+01 -1.138878168702e-01 0.0 
-1.138878168702e-01 -4.727901481955e+01 0.0 
0.0 0.0 -2.386311465650e+01 
-1.505266856564e+02 1.003072414304e+01 0.0 
1.003072414304e+01 -3.599830768602e+02 0.0 
0.0 0.0 -1.527529287550e+02 
-3.435099837136e+01 -3.209703892134e+00 0.0 
-3.209703892134e+00 -9.639677489521e+01 0.0 
0.0 0.0 -3.882433197997e+01 
-1.165899485887e+02 1.678109771892e+01 0.0 
1.678109771892e+01 -2.999958267128e+02 0.0 
0.0 0.0 -1.245757325905e+02 
-7.279322662970e+01 1.757011421506e+01 0.0 
1.757011421506e+01 -2.024870318261e+02 0.0 
0.0 0.0 -8.218407753673e+01 
-2.785451747694e+01 -1.368455155477e+00 0.0 
-1.368455155477e+00 -7.639276657711e+01 0.0 
0.0 0.0 -3.087418521621e+01 
-8.713122200238e+01 2.223647576307e+01 0.0 
2.223647576307e+01 -1.831264406602e+02 0.0 
0.0 0.0 -8.067729879876e+01 
-5.658026927272e+01 4.921164208136e+00 0.0 
4.921164208136e+00 -1.766200376949e+02 0.0 
0.0 0.0 -6.956009209028e+01 
-1.872044135656e+01 -2.619023588055e+00 0.0 
-2.619023588055e+00 -4.201506632095e+01 0.0 
0.0 0.0 -1.782065230325e+01 
-4.767207758454e+01 2.222031558411e+00 0.0 
2.222031558411e+00 -1.509050705760e+02 0.0 
0.0 0.0 -5.917314444816e+01 
-1.117722931294e+02 -6.904637298735e-01 0.0 
-6.904637298735e-01 -2.861797639302e+02 0.0 
0.0 0.0 -1.189856171179e+02 
-8.821534990877e+01 2.308269794122e+01 0.0 
2.308269794122e+01 -1.740235859418e+02 0.0 
0.0 0.0 -7.827168075516e+01 
-2.823680087864e+01 -2.581049140866e+00 0.0 
-2.581049140866e+00 -7.351443532851e+01 0.0 
0.0 0.0 -3.012537086215e+01 
-8.855130877112e+01 5.859507762857e-01 0.0 
5.859507762857e-01 -2.340951641590e+02 0.0 
0.0 0.0 -9.639394187904e+01 
-9.479056752249e+01 2.395029382729e+01 0.0 
2.395029382729e+01 -2.147324708413e+02 0.0 
0.0 0.0 -9.245691150914e+01 
-1.085532853087e+02 2.208710329398e+01 0.0 
2.208710329398e+01 -2.759132587215e+02 0.0 
0.0 0.0 -1.149399632091e+02 
-5.033115844837e+01 -1.796450366994e+00 0.0 
-1.796450366994e+00 -1.488998716038e+02 0.0 
0.0 0.0 -5.936930901564e+01 
-4.328121965492e+01 -1.077261000357e+00 0.0 
-1.077261000357e+00 -1.200197736912e+02 0.0 
0.0 0.0 -4.859029800384e+01 
-7.586840626774e+01 1.607931814111e+01 0.0 
1.607931814111e+01 -2.147939692751e+02 0.0 
0.0 0.0 -8.679871266285e+01 
-5.770983557442e+01 8.775122006176e-01 0.0 
8.775122006176e-01 -1.080877152454e+02 0.0 
0.0 0.0 -4.933926524596e+01 
-1.915109697408e+01 -2.555461071704e+00 0.0 
-2.555461071704e+00 -4.138285299821e+01 0.0 
0.0 0.0 -1.776018499169e+01 
-1.225535887761e+02 2.992144123078e+01 0.0 
2.992144123078e+01 -2.882956878874e+02 0.0 
0.0 0.0 -1.228547829991e+02 
-1.067699015973e+02 2.308438891799e+01 0.0 
2.308438891799e+01 -2.420835031212e+02 0.0 
0.0 0.0 -1.042560214155e+02 
-4.680600341909e+01 8.577451706113e-01 0.0 
8.577451706113e-01 -8.047803286433e+01 0.0 
0.0 0.0 -3.778521088503e+01 
-1.003970563781e+02 1.287227301240e+01 0.0 
1.287227301240e+01 -2.153148396559e+02 0.0 
0.0 0.0 -9.431356881020e+01 
-1.116199116810e+02 2.560220534649e+01 0.0 
2.560220534649e+01 -2.559511720159e+02 0.0 
0.0 0.0 -1.098713251091e+02 
-5.786668755982e+01 2.753227362368e+00 0.0 
2.753227362368e+00 -1.781840095831e+02 0.0 
0.0 0.0 -7.041520914287e+01 
-5.743034193694e+01 1.820044415133e+00 0.0 
1.820044415133e+00 -1.705109471652e+02 0.0 
0.0 0.0 -6.798238673065e+01 
-1.382975915262e+02 2.080931273063e+01 0.0 
2.080931273063e+01 -3.395097746291e+02 0.0 
0.0 0.0 -1.429422098466e+02 
-1.808257565039e+01 5.629693481270e-01 0.0 
5.629693481270e-01 -8.672182670091e+00 0.0 
0.0 0.0 -8.577039678931e+00 
-3.952453127317e+01 -8.410986694458e-01 0.0 
-8.410986694458e-01 -1.094475025125e+02 0.0 
0.0 0.0 -4.429161013571e+01 
-8.989936650876e+01 -7.265650275182e-01 0.0 
-7.265650275182e-01 -2.385050464354e+02 0.0 
0.0 0.0 -9.812132388324e+01 
-5.225184085026e+01 -9.410904726237e-01 0.0 
-9.410904726237e-01 -1.499305501311e+02 0.0 
0.0 0.0 -6.025471729442e+01 
-4.881609125533e+01 3.261324304185e-01 0.0 
3.261324304185e-01 -1.514078849959e+02 0.0 
0.0 0.0 -5.966719287537e+01 
-2.518283430486e+01 1.707394034661e+01 0.0 
1.707394034661e+01 -1.914183237407e+01 0.0 
0.0 0.0 -1.289740000368e+01 
-2.803341736897e+01 1.909457513107e+01 0.0 
1.909457513107e+01 -2.160575468117e+01 0.0 
0.0 0.0 -1.449175161504e+01 
-5.214836840338e+01 2.698718822599e+00 0.0 
2.698718822599e+00 -8.161481082647e+01 0.0 
0.0 0.0 -3.972895376895e+01 
-5.235511958515e+01 3.996268391921e+00 0.0 
3.996268391921e+00 -1.598863974171e+02 0.0 
0.0 0.0 -6.327245510069e+01 
-4.582693805423e+01 -1.492661583476e+00 0.0 
-1.492661583476e+00 -1.277613497180e+02 0.0 
0.0 0.0 -5.167648633166e+01 
-1.006475053171e+02 2.116647508556e+01 0.0 
2.116647508556e+01 -2.603025263536e+02 0.0 
0.0 0.0 -1.078850095012e+02 
-1.590219014376e+02 8.172375372057e+00 0.0 
8.172375372057e+00 -3.782165357036e+02 0.0 
0.0 0.0 -1.607715311424e+02 
-1.575528200708e+02 9.737505586267e+00 0.0 
9.737505586267e+00 -3.758898487608e+02 0.0 
0.0 0.0 -1.596328006495e+02 
-5.907255266029e+01 1.060716967413e+00 0.0 
1.060716967413e+00 -1.785315157865e+02 0.0 
0.0 0.0 -7.088122053403e+01 
-4.642006095984e+01 1.462539726515e+00 0.0 
1.462539726515e+00 -6.514221214763e+01 0.0 
0.0 0.0 -3.306868193224e+01 
-2.217936880909e+01 -1.246704974533e-01 0.0 
-1.246704974533e-01 -2.058615983518e+01 0.0 
0.0 0.0 -1.242965859328e+01 
-2.538223113666e+01 1.684049214165e+01 0.0 
1.684049214165e+01 -1.995076638235e+01 0.0 
0.0 0.0 -1.319989925570e+01 
-2.887426471670e+01 -2.003963688087e+00 0.0 
-2.003963688087e+00 -7.260737405313e+01 0.0 
0.0 0.0 -3.004449163095e+01 
-2.593352921751e+01 1.728755726519e+01 0.0 
1.728755726519e+01 -2.035240212308e+01 0.0 
0.0 0.0 -1.348577940218e+01 
-8.092206285594e+01 1.849908702528e+01 0.0 
1.849908702528e+01 -2.202371813633e+02 0.0 
0.0 0.0 -8.994777326577e+01 
-4.984564309271e+01 -9.685367914237e-01 0.0 
-9.685367914237e-01 -1.508756802599e+02 0.0 
0.0 0.0 -5.981639700579e+01 
-5.366667422084e+01 2.046135336497e+00 0.0 
2.046135336497e+00 -1.613653159457e+02 0.0 
0.0 0.0 -6.410959704997e+01 
-2.325885251087e+01 -1.430670591591e+00 0.0 
-1.430670591591e+00 -4.106780611779e+01 0.0 
0.0 0.0 -1.889799758860e+01 
-8.261885756161e+01 1.042428305221e+00 0.0 
1.042428305221e+00 -1.802152563705e+02 0.0 
0.0 0.0 -7.845023417964e+01 
-5.470831026209e+01 6.514158128489e-01 0.0 
6.514158128489e-01 -1.614579845298e+02 0.0 
0.0 0.0 -6.444988843756e+01 
-8.867603528474e+01 3.445112328259e+00 0.0 
3.445112328259e+00 -1.941602108758e+02 0.0 
0.0 0.0 -8.445087384816e+01 
-7.902125421672e+01 2.178287041667e+00 0.0 
2.178287041667e+00 -1.648027350963e+02 0.0 
0.0 0.0 -7.274719679390e+01 
-1.009575117656e+02 1.735371947568e+00 0.0 
1.735371947568e+00 -2.316246740407e+02 0.0 
0.0 0.0 -9.937465574188e+01 
-1.611147582369e+02 1.631117945370e+00 0.0 
1.631117945370e+00 -3.821174102067e+02 0.0 
0.0 0.0 -1.625696505331e+02 
-4.682345704537e+01 -5.180570197953e-01 0.0 
-5.180570197953e-01 -8.093975758568e+01 0.0 
0.0 0.0 -3.792896438931e+01 
-5.840253887682e+01 6.213115835499e-01 0.0 
6.213115835499e-01 -1.702033151707e+02 0.0 
0.0 0.0 -6.818175621426e+01 
-2.531946800084e+01 1.751612205147e+01 0.0 
1.751612205147e+01 -2.004495103634e+01 0.0 
0.0 0.0 -1.320932571115e+01 
-6.006868740050e+01 -1.611380297571e-01 0.0 
-1.611380297571e-01 -1.778554072683e+02 0.0 
0.0 0.0 -7.097722840065e+01 
-1.627757045267e+02 6.460664174721e+00 0.0 
6.460664174721e+00 -3.811433105624e+02 0.0 
0.0 0.0 -1.627757045267e+02 
-2.305087607552e+01 1.481776241068e+01 0.0 
1.481776241068e+01 -1.828981346375e+01 0.0 
0.0 0.0 -1.200220686178e+01 
-2.415955240134e+01 1.584935707191e+01 0.0 
1.584935707191e+01 -1.915572636974e+01 0.0 
0.0 0.0 -1.259458363132e+01 
-1.204902366960e+02 1.864539855128e+01 0.0 
1.864539855128e+01 -3.063714002032e+02 0.0 
0.0 0.0 -1.276584910698e+02 
-4.342102399309e+01 8.450044471742e-01 0.0 
8.450044471742e-01 -6.535317261936e+01 0.0 
0.0 0.0 -3.223225898374e+01 
-8.875820841506e+01 1.912972470499e+00 0.0 
1.912972470499e+00 -1.960155177249e+02 0.0 
0.0 0.0 -8.503211784199e+01 
-9.562295313991e+01 2.596697853346e+01 0.0 
2.596697853346e+01 -2.152697359529e+02 0.0 
0.0 0.0 -9.286780672785e+01 
-1.158968900229e+02 2.206587875744e+01 0.0 
2.206587875744e+01 -2.928260928935e+02 0.0 
0.0 0.0 -1.222168948749e+02 
-9.952172471588e+01 2.542437631143e+01 0.0 
2.542437631143e+01 -2.107662685886e+02 0.0 
0.0 0.0 -9.268639799134e+01 
-4.893504356178e+01 -2.069641821328e-01 0.0 
-2.069641821328e-01 -8.436356171086e+01 0.0 
0.0 0.0 -3.958958158179e+01 
-4.591238985939e+01 -1.643202182385e+00 0.0 
-1.643202182385e+00 -1.312183759040e+02 0.0 
0.0 0.0 -5.273922972900e+01 
-4.419417699395e+01 -2.467260765667e+00 0.0 
-2.467260765667e+00 -1.303334390595e+02 0.0 
0.0 0.0 -5.195828481602e+01 
-6.524912292282e+01 -1.595216765049e-01 0.0 
-1.595216765049e-01 -1.277702065761e+02 0.0 
0.0 0.0 -5.750579884967e+01 
-1.124445959730e+02 2.379408907719e+01 0.0 
2.379408907719e+01 -2.802518987901e+02 0.0 
0.0 0.0 -1.174089484289e+02 
-4.215609747502e+01 3.028011438651e+00 0.0 
3.028011438651e+00 -4.990576360341e+01 0.0 
0.0 0.0 -2.721855832353e+01 
-4.025434668338e+01 1.763053732481e-02 0.0 
1.763053732481e-02 -6.397421078594e+01 0.0 
0.0 0.0 -3.086856724080e+01 
-4.704938632541e+01 5.102956419688e-01 0.0 
5.102956419688e-01 -7.991062362497e+01 0.0 
0.0 0.0 -3.768800298511e+01 
-4.980451041616e+01 1.563439362056e+00 0.0 
1.563439362056e+00 -8.562667133103e+01 0.0 
0.0 0.0 -4.022935452416e+01 
-2.433933150952e+01 -1.118459348870e+00 0.0 
-1.118459348870e+00 -6.084914588670e+01 0.0 
0.0 0.0 -2.515654321887e+01 
-4.114662622765e+01 -2.849969349095e+00 0.0 
-2.849969349095e+00 -1.194166842265e+02 0.0 
0.0 0.0 -4.776899313625e+01 
-9.737151001010e+01 6.157120207294e+00 0.0 
6.157120207294e+00 -2.167277264291e+02 0.0 
0.0 0.0 -9.382977093177e+01 
-5.800727084773e+01 1.956497593175e+00 0.0 
1.956497593175e+00 -1.049967334474e+02 0.0 
0.0 0.0 -4.850120128855e+01 
-1.387999800626e+02 2.301113131176e+01 0.0 
2.301113131176e+01 -3.356323099649e+02 0.0 
0.0 0.0 -1.419296870082e+02 
-1.101195740820e+02 2.670230261736e+01 0.0 
2.670230261736e+01 -2.398967947094e+02 0.0 
0.0 0.0 -1.046049106374e+02 
-8.781245119487e+01 2.478784971832e+01 0.0 
2.478784971832e+01 -1.840936242625e+02 0.0 
0.0 0.0 -8.117182263720e+01 
-9.709964331885e+01 1.289027510132e+01 0.0 
1.289027510132e+01 -2.029282003328e+02 0.0 
0.0 0.0 -8.960835309549e+01 
-6.470132392103e+01 -1.077727206871e+00 0.0 
-1.077727206871e+00 -1.781068161073e+02 0.0 
0.0 0.0 -7.244244200848e+01 
-5.858954313310e+01 -1.306457575404e+00 0.0 
-1.306457575404e+00 -1.626691766190e+02 0.0 
0.0 0.0 -6.597761592563e+01 
-1.404683709711e+02 8.869838080815e+00 0.0 
8.869838080815e+00 -3.449064143018e+02 0.0 
0.0 0.0 -1.452124355819e+02 
-1.745094623996e+01 -1.547663290649e+00 0.0 
-1.547663290649e+00 -2.421094239936e+01 0.0 
0.0 0.0 -1.255125126282e+01 
-4.244207882649e+01 -3.935727552731e-01 0.0 
-3.935727552731e-01 -1.157528140711e+02 0.0 
0.0 0.0 -4.705846786928e+01 
-1.388964773383e+02 2.887859211322e+01 0.0 
2.887859211322e+01 -3.254251137895e+02 0.0 
0.0 0.0 -1.388964773383e+02 
-2.062623737429e+01 4.965416931413e-01 0.0 
4.965416931413e-01 -5.778364451281e+01 0.0 
0.0 0.0 -2.312296456613e+01 
-4.019573238194e+01 8.084478887680e-03 0.0 
8.084478887680e-03 -6.399229043133e+01 0.0 
0.0 0.0 -3.085640684398e+01 
-1.319935174002e+02 1.746093291649e+01 0.0 
1.746093291649e+01 -3.307142403638e+02 0.0 
0.0 0.0 -1.384123273292e+02 
-1.777198741725e+01 -2.335745268108e+00 0.0 
-2.335745268108e+00 -3.932705849556e+01 0.0 
0.0 0.0 -1.672971377384e+01 
-1.070993895379e+01 -7.869687835171e-01 0.0 
-7.869687835171e-01 -2.407639285050e+01 0.0 
0.0 0.0 -1.003589954129e+01 
-1.046456898645e+02 1.094754291290e+01 0.0 
1.094754291290e+01 -2.366983171318e+02 0.0 
0.0 0.0 -1.020032020989e+02 
-3.489752671043e+01 -4.039555785891e-01 0.0 
-4.039555785891e-01 -4.730390813368e+01 0.0 
0.0 0.0 -2.426043045323e+01 
-9.701224714721e+01 7.880527931273e+00 0.0 
7.880527931273e+00 -2.137052751208e+02 0.0 
0.0 0.0 -9.281525668041e+01 
-1.328716613566e+02 1.812907630815e+01 0.0 
1.812907630815e+01 -3.278210150512e+02 0.0 
0.0 0.0 -1.378078029223e+02 
-3.454264523218e+01 2.414306104911e-01 0.0 
2.414306104911e-01 -4.703016597962e+01 0.0 
0.0 0.0 -2.407184336354e+01 
-2.252279300231e+01 7.023984771594e-01 0.0 
7.023984771594e-01 -2.148252568178e+01 0.0 
0.0 0.0 -1.280159560523e+01 
-9.351712928575e+01 1.983473281630e+00 0.0 
1.983473281630e+00 -2.136312960627e+02 0.0 
0.0 0.0 -9.174452760453e+01 
-2.326395751118e+01 -8.678725435127e-01 0.0 
-8.678725435127e-01 -6.357198118756e+01 0.0 
0.0 0.0 -2.565078160962e+01 
-9.140972719571e+01 6.733029057094e+00 0.0 
6.733029057094e+00 -2.009118650096e+02 0.0 
0.0 0.0 -8.729647766160e+01 
-1.630745430461e+02 4.969428882448e+00 0.0 
4.969428882448e+00 -3.818406004409e+02 0.0 
0.0 0.0 -1.630745430461e+02 
-1.056739277655e+02 2.310451503430e+01 0.0 
2.310451503430e+01 -2.274510996882e+02 0.0 
0.0 0.0 -9.953750823613e+01 
-2.740336844127e+01 -1.051826495885e+00 0.0 
-1.051826495885e+00 -7.868945227593e+01 0.0 
0.0 0.0 -3.142784621516e+01 
-5.623393971604e+01 4.738778534559e+00 0.0 
4.738778534559e+00 -8.511345040618e+01 0.0 
0.0 0.0 -4.200421703667e+01 
-6.613074386051e+01 1.053069774886e-01 0.0 
1.053069774886e-01 -1.810534796647e+02 0.0 
0.0 0.0 -7.375526705757e+01 
-1.026920735172e+02 2.219096036721e+01 0.0 
2.219096036721e+01 -2.612859814836e+02 0.0 
0.0 0.0 -1.087934165002e+02 
-1.445332915045e+02 2.638770191898e+01 0.0 
2.638770191898e+01 -3.442826220981e+02 0.0 
0.0 0.0 -1.462447740808e+02 
-7.296158356151e+01 3.542002747773e-01 0.0 
3.542002747773e-01 -1.492933456342e+02 0.0 
0.0 0.0 -6.627647875871e+01 
-1.453922429131e+02 2.386464552530e+01 0.0 
2.386464552530e+01 -3.491575233815e+02 0.0 
0.0 0.0 -1.479649298884e+02 
-2.042548810224e+01 -1.482640696791e+00 0.0 
-1.482640696791e+00 -4.006030107530e+01 0.0 
0.0 0.0 -1.774573675326e+01 
-1.526523275520e+02 6.850181340823e+00 0.0 
6.850181340823e+00 -3.659757216482e+02 0.0 
0.0 0.0 -1.551884147601e+02 
-3.082627504366e+01 -1.143967296924e+00 0.0 
-1.143967296924e+00 -8.899171551380e+01 0.0 
0.0 0.0 -3.554539716724e+01 
-2.057738428546e+01 -1.142796212168e+00 0.0 
-1.142796212168e+00 -5.773000652667e+01 0.0 
0.0 0.0 -2.309221724364e+01 
-1.437203236723e+02 1.663040948299e+01 0.0 
1.663040948299e+01 -3.506853640062e+02 0.0 
0.0 0.0 -1.479217063036e+02 
-1.063506440503e+02 1.784289574413e+01 0.0 
1.784289574413e+01 -2.297114758986e+02 0.0 
0.0 0.0 -1.004186359847e+02 
-1.001438293186e+02 1.142385540060e+01 0.0 
1.142385540060e+01 -2.230760307529e+02 0.0 
0.0 0.0 -9.656595802147e+01 
-4.025561910017e+01 -5.703206683926e-01 0.0 
-5.703206683926e-01 -6.266977584352e+01 0.0 
0.0 0.0 -3.047761848311e+01 
-6.085347752381e+01 8.095889880580e+00 0.0 
8.095889880580e+00 -9.144938131156e+01 0.0 
0.0 0.0 -4.529085765061e+01 
-2.572534057051e+01 1.345704662827e+01 0.0 
1.345704662827e+01 -5.046164709987e+01 0.0 
0.0 0.0 -2.245609630111e+01 
-1.165050666873e+02 2.826081667960e+01 0.0 
2.826081667960e+01 -2.609855251733e+02 0.0 
0.0 0.0 -1.128471775582e+02 
-5.504573915065e+01 -1.126818803910e+00 0.0 
-1.126818803910e+00 -1.513054952217e+02 0.0 
0.0 0.0 -6.150537031169e+01 
-2.118858644736e+01 6.930632934702e+00 0.0 
6.930632934702e+00 -4.045811654675e+01 0.0 
0.0 0.0 -1.809401089823e+01 
-1.065245253593e+02 2.108351937014e+01 0.0 
2.108351937014e+01 -2.748613679196e+02 0.0 
0.0 0.0 -1.140157679837e+02 
-3.326519477792e+01 8.371093766870e-02 0.0 
8.371093766870e-02 -4.662532961332e+01 0.0 
0.0 0.0 -2.356715731737e+01 
-9.936668338802e+01 1.589705241883e+01 0.0 
1.589705241883e+01 -2.149412255903e+02 0.0 
0.0 0.0 -9.389237269350e+01 
-9.994810623607e+01 8.638148544799e-01 0.0 
8.638148544799e-01 -2.296612623184e+02 0.0 
0.0 0.0 -9.848281056635e+01 
-9.867956109578e+01 7.326478348574e-01 0.0 
7.326478348574e-01 -2.315856425568e+02 0.0 
0.0 0.0 -9.867956109578e+01 
-1.850226247879e+00 3.162475757196e-01 0.0 
3.162475757196e-01 -6.657062604721e+00 0.0 
0.0 0.0 -2.152186655780e+00 
-4.025704942751e+00 -2.820894207781e-01 0.0 
-2.820894207781e-01 -1.043035029051e+01 0.0 
0.0 0.0 -4.573323120139e+00 
-3.383016672607e+01 6.379507768702e-01 0.0 
6.379507768702e-01 -4.914620692535e+01 0.0 
0.0 0.0 -2.449291209543e+01 
-3.255391797054e+01 -1.199345346540e-01 0.0 
-1.199345346540e-01 -4.663302912327e+01 0.0 
0.0 0.0 -2.335608412814e+01 
-1.638159980015e+02 6.330818838660e-01 0.0 
6.330818838660e-01 -3.835706620036e+02 0.0 
0.0 0.0 -1.638159980015e+02 
-1.606851457011e+02 -6.100438046085e-01 0.0 
-6.100438046085e-01 -3.804858858616e+02 0.0 
0.0 0.0 -1.619513094688e+02 
-8.491473994987e+00 -7.654926336824e-01 0.0 
-7.654926336824e-01 -2.307329998028e+01 0.0 
0.0 0.0 -9.069432192580e+00 
-1.760090031985e+01 -4.838066443691e-01 0.0 
-4.838066443691e-01 -8.275739039655e+00 0.0 
0.0 0.0 -8.263418155058e+00 
-1.451543700365e+02 3.013590149948e+00 0.0 
3.013590149948e+00 -3.513316084086e+02 0.0 
0.0 0.0 -1.485457935335e+02 
-1.176702551814e+02 2.563791232624e+01 0.0 
2.563791232624e+01 -2.882591950543e+02 0.0 
0.0 0.0 -1.213788350707e+02 
-2.790918159090e+01 -9.804608652526e-01 0.0 
-9.804608652526e-01 -7.447483950526e+01 0.0 
0.0 0.0 -3.031520632885e+01 
-1.458724619834e+02 7.239052772820e+00 0.0 
7.239052772820e+00 -3.528199503305e+02 0.0 
0.0 0.0 -1.492077236942e+02 
-9.723935863957e+01 3.557542846758e-01 0.0 
3.557542846758e-01 -2.542202891332e+02 0.0 
0.0 0.0 -1.050378943318e+02 
-8.198388321478e+01 7.781099992589e-01 0.0 
7.781099992589e-01 -2.198707878826e+02 0.0 
0.0 0.0 -9.015640132921e+01 
-6.097150594417e+01 5.143904526509e-01 0.0 
5.143904526509e-01 -1.149035162860e+02 0.0 
0.0 0.0 -5.236250666904e+01 
-2.705539867641e+01 -2.837368889613e+00 0.0 
-2.837368889613e+00 -6.896557336772e+01 0.0 
0.0 0.0 -2.840629161324e+01 
-9.354496155176e+01 2.124112631651e+01 0.0 
2.124112631651e+01 -2.430266884366e+02 0.0 
0.0 0.0 -1.005714949965e+02 
-2.296129853451e+01 -1.538529148576e+00 0.0 
-1.538529148576e+00 -5.981046468915e+01 0.0 
0.0 0.0 -2.443152896710e+01 
-7.400153136970e+01 5.405580252630e-01 0.0 
5.405580252630e-01 -2.001584246840e+02 0.0 
0.0 0.0 -8.184798681611e+01 
-1.094408661260e+02 2.531363025523e+01 0.0 
2.531363025523e+01 -2.475614830730e+02 0.0 
0.0 0.0 -1.067007047597e+02 
-8.660724504430e+01 9.580100854569e-01 0.0 
9.580100854569e-01 -1.887749762453e+02 0.0 
0.0 0.0 -8.221466638689e+01 
-8.205100887585e+01 -3.967596166883e-01 0.0 
-3.967596166883e-01 -2.189660798443e+02 0.0 
0.0 0.0 -8.990512661605e+01 
-5.261890530848e+01 1.045122465941e+00 0.0 
1.045122465941e+00 -9.433550330020e+01 0.0 
0.0 0.0 -4.368632258261e+01 
-1.162924374475e+02 2.811619258837e+01 0.0 
2.811619258837e+01 -2.771794474840e+02 0.0 
0.0 0.0 -1.176415654795e+02 
-1.032656986501e+02 2.637354806263e+01 0.0 
2.637354806263e+01 -2.250420349589e+02 0.0 
0.0 0.0 -9.809232008268e+01 
-9.555937615696e+01 2.550335389530e+01 0.0 
2.550335389530e+01 -2.045550031846e+02 0.0 
0.0 0.0 -8.963431380248e+01 
-3.403281280585e+01 -5.219967479166e-02 0.0 
-5.219967479166e-02 -4.727512008080e+01 0.0 
0.0 0.0 -2.399237986599e+01 
-8.966795338812e+01 1.965995160037e+01 0.0 
1.965995160037e+01 -2.384631766474e+02 0.0 
0.0 0.0 -9.803933901067e+01 
-1.006399368326e+02 1.885469921022e+01 0.0 
1.885469921022e+01 -2.186934384669e+02 0.0 
0.0 0.0 -9.540001258985e+01 
-4.122320569767e+01 -1.064913930479e+00 0.0 
-1.064913930479e+00 -1.150741164363e+02 0.0 
0.0 0.0 -4.648919664020e+01 
-1.535470229844e+01 -1.520839963531e+00 0.0 
-1.520839963531e+00 -2.518092433563e+01 0.0 
0.0 0.0 -1.176068799022e+01 
-1.118688937610e+02 2.715091662165e+01 0.0 
2.715091662165e+01 -2.625301196565e+02 0.0 
0.0 0.0 -1.119197040253e+02 
-1.145915445708e+02 1.574115337572e+01 0.0 
1.574115337572e+01 -2.990419735253e+02 0.0 
0.0 0.0 -1.236900554288e+02 
-2.305636953452e+01 -2.701161506756e+00 0.0 
-2.701161506756e+00 -5.736059559371e+01 0.0 
0.0 0.0 -2.372508953847e+01 
-6.625657988221e+01 1.312555346332e+00 0.0 
1.312555346332e+00 -1.291853132413e+02 0.0 
0.0 0.0 -5.823256793705e+01 
-1.537101626527e+02 3.817396761332e+00 0.0 
3.817396761332e+00 -3.657986441859e+02 0.0 
0.0 0.0 -1.554526420516e+02 
-1.121549520892e+02 2.508240016282e+01 0.0 
2.508240016282e+01 -2.729347831068e+02 0.0 
0.0 0.0 -1.151269205588e+02 
-1.179523730866e+02 2.813386506711e+01 0.0 
2.813386506711e+01 -2.831577345153e+02 0.0 
0.0 0.0 -1.199330322806e+02 
-1.063577722723e+02 1.095056325399e+00 0.0 
1.095056325399e+00 -2.742598043209e+02 0.0 
0.0 0.0 -1.137852729779e+02 
-1.761416398009e+01 4.451264248248e+00 0.0 
4.451264248248e+00 -2.110978747951e+01 0.0 
0.0 0.0 -1.149397648711e+01 
-2.601485269787e+01 1.787729177006e+01 0.0 
1.787729177006e+01 -1.939480827715e+01 0.0 
0.0 0.0 -1.322289829250e+01 
-2.837994418798e+01 1.656272118091e+01 0.0 
1.656272118091e+01 -5.407699495481e+01 0.0 
0.0 0.0 -2.433708174284e+01 
-5.748265420016e+01 5.143792478991e+00 0.0 
5.143792478991e+00 -8.460403783851e+01 0.0 
0.0 0.0 -4.222600761160e+01 
-8.801025833366e+01 1.862864605815e+01 0.0 
1.862864605815e+01 -2.375798800584e+02 0.0 
0.0 0.0 -9.727704151762e+01 
-9.260347227116e+01 6.183813310917e+00 0.0 
6.183813310917e+00 -2.030323487581e+02 0.0 
0.0 0.0 -8.829074630877e+01 
-1.405013359322e+02 1.997411095283e+01 0.0 
1.997411095283e+01 -3.390620091001e+02 0.0 
0.0 0.0 -1.434690035097e+02 
-2.217302699805e+01 -2.470115378408e+00 0.0 
-2.470115378408e+00 -4.166862931106e+01 0.0 
0.0 0.0 -1.875249689273e+01 
-2.010164737330e+01 -2.803248260924e+00 0.0 
-2.803248260924e+00 -4.055018227170e+01 0.0 
0.0 0.0 -1.779554889350e+01 
-2.650567033926e+01 1.756330526801e+01 0.0 
1.756330526801e+01 -2.034055514925e+01 0.0 
0.0 0.0 -1.365386764655e+01 
-6.809651184108e+01 2.236594644026e-01 0.0 
2.236594644026e-01 -1.346486602582e+02 0.0 
0.0 0.0 -6.042355162978e+01 
-5.117655187533e+01 -2.734750895245e-01 0.0 
-2.734750895245e-01 -1.410750586004e+02 0.0 
0.0 0.0 -5.727548314271e+01 
-9.979227852068e+01 1.472108943640e+01 0.0 
1.472108943640e+01 -2.126165686543e+02 0.0 
0.0 0.0 -9.332265415249e+01 
-2.643446061667e+01 -2.672745147251e-01 0.0 
-2.672745147251e-01 -7.136140614685e+01 0.0 
0.0 0.0 -2.893876002906e+01 
-1.294488486803e+02 1.882464972021e+01 0.0 
1.882464972021e+01 -3.221388891180e+02 0.0 
0.0 0.0 -1.350763213395e+02 
-5.014775862040e+01 7.585322698024e-01 0.0 
7.585322698024e-01 -8.016349705918e+01 0.0 
0.0 0.0 -3.869337670387e+01 
-1.337764032953e+02 2.569616135493e+01 0.0 
2.569616135493e+01 -3.190494824582e+02 0.0 
0.0 0.0 -1.354477657260e+02 
-1.069081832610e+02 2.413507507538e+01 0.0 
2.413507507538e+01 -2.665584162080e+02 0.0 
0.0 0.0 -1.116399798407e+02 
-5.982392003477e+01 7.529670065321e+00 0.0 
7.529670065321e+00 -8.607934341725e+01 0.0 
0.0 0.0 -4.337097903561e+01 
-1.458952375858e+02 1.362301811422e+01 0.0 
1.362301811422e+01 -3.555991056752e+02 0.0 
0.0 0.0 -1.500483029783e+02 
-1.040167581516e+02 1.569196994687e+01 0.0 
1.569196994687e+01 -2.272864950619e+02 0.0 
0.0 0.0 -9.899097596407e+01 
-9.619587875233e+01 1.020377178976e+00 0.0 
1.020377178976e+00 -2.156610311278e+02 0.0 
0.0 0.0 -9.315707296404e+01 
-2.591444041184e+01 1.675709584474e+01 0.0 
1.675709584474e+01 -1.937259745534e+01 0.0 
0.0 0.0 -1.318611136015e+01 
-9.423528954222e+01 1.103129055477e+01 0.0 
1.103129055477e+01 -2.015027091834e+02 0.0 
0.0 0.0 -8.832139961768e+01 
-1.213963455224e+02 2.818692711335e+01 0.0 
2.818692711335e+01 -2.846507832184e+02 0.0 
0.0 0.0 -1.214141386223e+02 
-1.291628460069e+02 1.997139566902e+01 0.0 
1.997139566902e+01 -3.227108855643e+02 0.0 
0.0 0.0 -1.351621194714e+02 
-1.098253287026e+02 2.219591720961e+01 0.0 
2.219591720961e+01 -2.786278206212e+02 0.0 
0.0 0.0 -1.161359447971e+02 
-1.618430990487e+02 8.387913546339e+00 0.0 
8.387913546339e+00 -3.789672311137e+02 0.0 
0.0 0.0 -1.618430990487e+02 
-9.400097366254e+01 2.293357158429e+01 0.0 
2.293357158429e+01 -2.033900093746e+02 0.0 
0.0 0.0 -8.881729491115e+01 
-1.725682856999e+01 4.220353637688e+00 0.0 
4.220353637688e+00 -9.650324179774e+00 0.0 
0.0 0.0 -8.623888725454e+00 
-2.329276338948e+01 9.566390545792e+00 0.0 
9.566390545792e+00 -4.452278686521e+01 0.0 
0.0 0.0 -1.994466507641e+01 
-1.060786252355e+02 2.629427112394e+01 0.0 
2.629427112394e+01 -2.311275449888e+02 0.0 
0.0 0.0 -1.007618510673e+02 
-6.216024092834e+01 4.995837112980e+00 0.0 
4.995837112980e+00 -9.966872490562e+01 0.0 
0.0 0.0 -4.814868975019e+01 
-1.451171225641e+02 2.752728849709e+00 0.0 
2.752728849709e+00 -3.511370874808e+02 0.0 
0.0 0.0 -1.484762630135e+02 
-1.166860517798e+02 2.534551829449e+01 0.0 
2.534551829449e+01 -2.854212341527e+02 0.0 
0.0 0.0 -1.202321857798e+02 
-1.537152467217e+02 7.435830380049e+00 0.0 
7.435830380049e+00 -3.657487453180e+02 0.0 
0.0 0.0 -1.554391976119e+02 
-7.599338589647e+01 8.988426518678e-01 0.0 
8.988426518678e-01 -1.558276388841e+02 0.0 
0.0 0.0 -6.914630743417e+01 
-1.360999706114e+02 2.477036713164e+01 0.0 
2.477036713164e+01 -3.247427198684e+02 0.0 
0.0 0.0 -1.378528071439e+02 
-1.413849522389e+02 1.217713552135e+01 0.0 
1.217713552135e+01 -3.453830927530e+02 0.0 
0.0 0.0 -1.456304134975e+02 
-1.400233161988e+02 1.113507908422e+01 0.0 
1.113507908422e+01 -3.446665403170e+02 0.0 
0.0 0.0 -1.450069569548e+02 
-5.337667028472e+01 -2.729578347669e-01 0.0 
-2.729578347669e-01 -1.465644932970e+02 0.0 
0.0 0.0 -5.958234907451e+01 
-1.597197980821e+02 7.087062582897e+00 0.0 
7.087062582897e+00 -3.795009917191e+02 0.0 
0.0 0.0 -1.613662369404e+02 
-4.493343886330e+01 1.701912398624e+00 0.0 
1.701912398624e+00 -6.464597079552e+01 0.0 
0.0 0.0 -3.247382289765e+01 
-9.026384910129e+01 3.662200799290e+00 0.0 
3.662200799290e+00 -1.969641776587e+02 0.0 
0.0 0.0 -8.576840802801e+01 
-1.812116620545e+01 -2.480548834888e+00 0.0 
-2.480548834888e+00 -4.108135195931e+01 0.0 
0.0 0.0 -1.736075544943e+01 
-8.535711728704e+01 1.815347942359e+00 0.0 
1.815347942359e+00 -1.817354365071e+02 0.0 
0.0 0.0 -7.972776613824e+01 
-6.746522499230e+01 1.158381868382e+00 0.0 
1.158381868382e+00 -1.311273871901e+02 0.0 
0.0 0.0 -5.917778365471e+01 
-1.533602835241e+01 9.500712032139e-02 0.0 
9.500712032139e-02 -4.217843501434e+01 0.0 
0.0 0.0 -1.685433901002e+01 
-2.683612130435e+01 -4.676300897848e-01 0.0 
-4.676300897848e-01 -7.010555069630e+01 0.0 
0.0 0.0 -2.868250160019e+01 
-9.786965510600e+01 2.390327365048e+01 0.0 
2.390327365048e+01 -2.186323227845e+02 0.0 
0.0 0.0 -9.455059336715e+01 
-9.573810332721e+01 8.058166558027e+00 0.0 
8.058166558027e+00 -2.163854217794e+02 0.0 
0.0 0.0 -9.323705753200e+01 
-9.040447890183e+01 2.122479652527e+00 0.0 
2.122479652527e+00 -1.995646462145e+02 0.0 
0.0 0.0 -8.659073753490e+01 
-1.318640805638e+02 2.365696349424e+01 0.0 
2.365696349424e+01 -3.237717801171e+02 0.0 
0.0 0.0 -1.362907582043e+02 
-5.283492832262e+01 -1.051996751400e-01 0.0 
-1.051996751400e-01 -9.359085159790e+01 0.0 
0.0 0.0 -4.352773397616e+01 
-1.296167280353e+01 -1.597612866709e+00 0.0 
-1.597612866709e+00 -2.467251179453e+01 0.0 
0.0 0.0 -1.089025537942e+01 
-2.180853895677e+01 2.350140105312e+00 0.0 
2.350140105312e+00 -3.446236465642e+01 0.0 
0.0 0.0 -1.648127108396e+01 
-1.269246579337e+01 -2.148812020177e+00 0.0 
-2.148812020177e+00 -2.823468636405e+01 0.0 
0.0 0.0 -1.186956050436e+01 
-2.321749996059e+01 -2.396301462082e+00 0.0 
-2.396301462082e+00 -5.455205044918e+01 0.0 
0.0 0.0 -2.293086512293e+01 
-1.611048282615e+01 7.808776893594e+00 0.0 
7.808776893594e+00 -6.911163852648e+00 0.0 
0.0 0.0 -6.702115802960e+00 
-7.216336744360e+01 -6.715863623297e-01 0.0 
-6.715863623297e-01 -1.951938083233e+02 0.0 
0.0 0.0 -7.980715273008e+01 
-1.447528458592e+02 1.359026255905e+00 0.0 
1.359026255905e+00 -3.509386729174e+02 0.0 
0.0 0.0 -1.483074556330e+02 
-1.043921881910e+02 2.168635533684e+01 0.0 
2.168635533684e+01 -2.271949066933e+02 0.0 
0.0 0.0 -9.907612846528e+01 
-6.837880236661e+01 1.121176000412e+01 0.0 
1.121176000412e+01 -1.042491334658e+02 0.0 
0.0 0.0 -5.138838074971e+01 
-6.219592627637e+01 3.274327061865e-01 0.0 
3.274327061865e-01 -1.711083325680e+02 0.0 
0.0 0.0 -6.959127765330e+01 
-1.411537630880e+02 1.000013485443e+01 0.0 
1.000013485443e+01 -3.457428710318e+02 0.0 
0.0 0.0 -1.456689902359e+02 
-1.319046043574e+02 1.449102244974e+01 0.0 
1.449102244974e+01 -3.319247364736e+02 0.0 
0.0 0.0 -1.387488022493e+02 
-1.301693967194e+02 2.708367285200e+01 0.0 
2.708367285200e+01 -3.162414419775e+02 0.0 
0.0 0.0 -1.335232516090e+02 
-1.168969970835e+02 2.714247739707e+01 0.0 
2.714247739707e+01 -2.748266472799e+02 0.0 
0.0 0.0 -1.171170933090e+02 
-1.047897058091e+02 2.500421636808e+01 0.0 
2.500421636808e+01 -2.378760906047e+02 0.0 
0.0 0.0 -1.023997389241e+02 
-1.757686499712e+01 -2.630066166095e+00 0.0 
-2.630066166095e+00 -4.056908724596e+01 0.0 
0.0 0.0 -1.704378567293e+01 
-2.330924834039e+01 -8.048945276813e-01 0.0 
-8.048945276813e-01 -3.513883881926e+01 0.0 
0.0 0.0 -1.713442614790e+01 
-1.449766041119e+02 4.040356549962e+00 0.0 
4.040356549962e+00 -3.517383292665e+02 0.0 
0.0 0.0 -1.486144800135e+02 
-1.415000485268e+01 -4.429296677369e-01 0.0 
-4.429296677369e-01 -4.129396793688e+01 0.0 
0.0 0.0 -1.623319183687e+01 
-1.753590937414e+01 -1.118751033115e+00 0.0 
-1.118751033115e+00 -4.928688372538e+01 0.0 
0.0 0.0 -1.964683792986e+01 
-2.087626932541e+01 1.006787281225e+01 0.0 
1.006787281225e+01 -2.530244770025e+01 0.0 
0.0 0.0 -1.345361510770e+01 
-1.622686942442e+01 -1.412705567245e+00 0.0 
-1.412705567245e+00 -3.862454079601e+01 0.0 
0.0 0.0 -1.605542306613e+01 
-1.498804985345e+02 1.231258348278e+01 0.0 
1.231258348278e+01 -3.586038587826e+02 0.0 
0.0 0.0 -1.521453071951e+02 
-1.174794308827e+02 2.817850567363e+01 0.0 
2.817850567363e+01 -2.707630777512e+02 0.0 
0.0 0.0 -1.160727525902e+02 
-9.133509184474e+01 4.487432206745e+00 0.0 
4.487432206745e+00 -2.026293183879e+02 0.0 
0.0 0.0 -8.778932306979e+01 
-1.321409473980e+02 2.670373153040e+01 0.0 
2.670373153040e+01 -3.149803090883e+02 0.0 
0.0 0.0 -1.337363769459e+02 
-1.277073225868e+02 1.566063019840e+01 0.0 
1.566063019840e+01 -3.212050627773e+02 0.0 
0.0 0.0 -1.342737156092e+02 
-5.734686623368e+01 -5.616124880259e-02 0.0 
-5.616124880259e-02 -1.049808685503e+02 0.0 
0.0 0.0 -4.829832043519e+01 
-1.008691957953e+02 1.118546658141e+01 0.0 
1.118546658141e+01 -2.366947901890e+02 0.0 
0.0 0.0 -1.008691957953e+02 
-3.244572522706e+01 -1.953569651878e+00 0.0 
-1.953569651878e+00 -8.972492931307e+01 0.0 
0.0 0.0 -3.625119636204e+01 
-3.389652913104e+01 -2.248354573726e-02 0.0 
-2.248354573726e-02 -4.640329123543e+01 0.0 
0.0 0.0 -2.368994610994e+01 
-2.532936010898e+01 -3.103539770380e+00 0.0 
-3.103539770380e+00 -5.570142152676e+01 0.0 
0.0 0.0 -2.390923449072e+01 
-9.920570790230e+00 -1.154065963631e+00 0.0 
-1.154065963631e+00 -2.435257778322e+01 0.0 
0.0 0.0 -1.042880445251e+01 
-1.603338713342e+02 4.615785268430e+00 0.0 
4.615785268430e+00 -3.806315861672e+02 0.0 
0.0 0.0 -1.618896372504e+02 
-5.174564492799e+01 5.854239058613e+00 0.0 
5.854239058613e+00 -7.087198105770e+01 0.0 
0.0 0.0 -3.638528779571e+01 
-2.173140972956e+01 -1.062281691534e+00 0.0 
-1.062281691534e+00 -5.750880980497e+01 0.0 
0.0 0.0 -2.337206586036e+01 
-6.860356494156e+01 -1.133267466146e+00 0.0 
-1.133267466146e+00 -1.877442658004e+02 0.0 
0.0 0.0 -7.650434922259e+01 
-1.178423099583e+02 2.892469727661e+01 0.0 
2.892469727661e+01 -2.689890886313e+02 0.0 
0.0 0.0 -1.156494195769e+02 
-9.408678673954e+01 8.248533101816e+00 0.0 
8.248533101816e+00 -2.026863927846e+02 0.0 
0.0 0.0 -8.863195385725e+01 
-1.023497284279e+02 1.787458649112e+01 0.0 
1.787458649112e+01 -2.298868083437e+02 0.0 
0.0 0.0 -9.927096103148e+01 
-4.883736206848e+01 -2.965202597878e-03 0.0 
-2.965202597878e-03 -1.338460816170e+02 0.0 
0.0 0.0 -5.440503310565e+01 
-2.146929130548e+01 6.281112550685e-01 0.0 
6.281112550685e-01 -3.504325789387e+01 0.0 
0.0 0.0 -1.655376475980e+01 
-1.504517052452e+02 8.529012055383e+00 0.0 
8.529012055383e+00 -3.633090707639e+02 0.0 
0.0 0.0 -1.537282328027e+02 
-1.017255821447e+02 9.305617622239e-01 0.0 
9.305617622239e-01 -2.327572367188e+02 0.0 
0.0 0.0 -9.994484565904e+01 
-1.610512726656e+02 1.067328709689e+00 0.0 
1.067328709689e+00 -3.822247753549e+02 0.0 
0.0 0.0 -1.625828144061e+02 
-3.878544545515e+01 -4.803341642462e-01 0.0 
-4.803341642462e-01 -6.103116293922e+01 0.0 
0.0 0.0 -2.954498251831e+01 
-1.362007841210e+02 1.587520351292e+01 0.0 
1.587520351292e+01 -3.343966634666e+02 0.0 
0.0 0.0 -1.407792342763e+02 
-2.135546494298e+01 -8.201612347149e-01 0.0 
-8.201612347149e-01 -5.849014128160e+01 0.0 
0.0 0.0 -2.355368186737e+01 
-9.755361242097e+01 1.294867123410e+01 0.0 
1.294867123410e+01 -2.118647236010e+02 0.0 
0.0 0.0 -9.242550080659e+01 
-1.024736504233e+01 -1.114690439755e+00 0.0 
-1.114690439755e+00 -2.333390245526e+01 0.0 
0.0 0.0 -1.018213799681e+01 
-1.480168965594e+02 1.494529189059e+01 0.0 
1.494529189059e+01 -3.547042636570e+02 0.0 
0.0 0.0 -1.504163480649e+02 
-1.064291247230e+02 1.910571468399e+01 0.0 
1.910571468399e+01 -2.325595221449e+02 0.0 
0.0 0.0 -1.012965940604e+02 
-1.776774686700e+01 1.895666130015e+00 0.0 
1.895666130015e+00 -2.232713218727e+01 0.0 
0.0 0.0 -1.213773525090e+01 
-1.135614191751e+02 2.657654390699e+01 0.0 
2.657654390699e+01 -2.742850400031e+02 0.0 
0.0 0.0 -1.159539377534e+02 
-7.277151928590e+01 2.075914733611e+00 0.0 
2.075914733611e+00 -1.458316363034e+02 0.0 
0.0 0.0 -6.518094667680e+01 
-9.506126915227e+01 5.949983058530e+00 0.0 
5.949983058530e+00 -2.165592501123e+02 0.0 
0.0 0.0 -9.308615577937e+01 
-1.491552873271e+02 2.433582040126e+01 0.0 
2.433582040126e+01 -3.493623370967e+02 0.0 
0.0 0.0 -1.491552873271e+02 
-6.182270731375e+01 1.520729477963e+00 0.0 
1.520729477963e+00 -1.187116122200e+02 0.0 
0.0 0.0 -5.376029586012e+01 
-1.148850885771e+02 2.720138429532e+01 0.0 
2.720138429532e+01 -2.648248485228e+02 0.0 
0.0 0.0 -1.135129811300e+02 
-1.024322889336e+02 1.796440680095e+01 0.0 
1.796440680095e+01 -2.172203986574e+02 0.0 
0.0 0.0 -9.549580627728e+01 
-6.583439465839e+01 7.948095306330e-01 0.0 
7.948095306330e-01 -1.302218981361e+02 0.0 
0.0 0.0 -5.841688783836e+01 
-1.122634319709e+02 2.648936296061e+01 0.0 
2.648936296061e+01 -2.548530877621e+02 0.0 
0.0 0.0 -1.097349559199e+02 
-5.868675342437e+01 -1.053256111612e-01 0.0 
-1.053256111612e-01 -1.603823187761e+02 0.0 
0.0 0.0 -6.532072166013e+01 
-3.292141807600e+01 7.876102998298e-02 0.0 
7.876102998298e-02 -4.651296596198e+01 0.0 
0.0 0.0 -2.343031521139e+01 
-1.232266853537e+02 2.559944109671e+01 0.0 
2.559944109671e+01 -3.013283155625e+02 0.0 
0.0 0.0 -1.269665002749e+02 
-9.540017201476e+01 2.480451256894e-01 0.0 
2.480451256894e-01 -2.172957577550e+02 0.0 
0.0 0.0 -9.340877893094e+01 
-3.203771682761e+00 7.942529034591e-02 0.0 
7.942529034591e-02 -8.544298560975e+00 0.0 
0.0 0.0 -4.049669896287e+00 
-3.265147614013e+01 -2.431090083862e-01 0.0 
-2.431090083862e-01 -4.680018118221e+01 0.0 
0.0 0.0 -2.343549719670e+01 
-1.554624143023e+02 1.156926163296e+00 0.0 
1.156926163296e+00 -3.700479587322e+02 0.0 
0.0 0.0 -1.572531119103e+02 
-2.704951401285e+01 -2.021927404390e+00 0.0 
-2.021927404390e+00 -7.348003487446e+01 0.0 
0.0 0.0 -2.975886466619e+01 
-1.300778953231e+02 1.834033817862e+01 0.0 
1.834033817862e+01 -3.275132058755e+02 0.0 
0.0 0.0 -1.368773303596e+02 
-1.054726484798e+02 2.102333303492e+01 0.0 
2.102333303492e+01 -2.220339314130e+02 0.0 
0.0 0.0 -9.785197396785e+01 
-9.716093357286e+01 5.890547179607e+00 0.0 
5.890547179607e+00 -2.161851454836e+02 0.0 
0.0 0.0 -9.360382371695e+01 
-2.604257552122e+01 -1.480906782505e+00 0.0 
-1.480906782505e+00 -7.066248170082e+01 0.0 
0.0 0.0 -2.861151716661e+01 
-2.347065646562e+01 7.112173367345e+00 0.0 
7.112173367345e+00 -4.027444252878e+01 0.0 
0.0 0.0 -1.872352969832e+01 
-8.538555329608e+01 -1.316245207398e+00 0.0 
-1.316245207398e+00 -2.283983647730e+02 0.0 
0.0 0.0 -9.373517542072e+01 
-7.903282769247e+01 7.439825660684e-01 0.0 
7.439825660684e-01 -1.672285677669e+02 0.0 
0.0 0.0 -7.347841863781e+01 
-2.237712389478e+01 -6.093001033325e-01 0.0 
-6.093001033325e-01 -5.676607484934e+00 0.0 
0.0 0.0 -8.016119413916e+00 
-1.000157136021e+02 1.474033800009e+01 0.0 
1.474033800009e+01 -2.253431981553e+02 0.0 
0.0 0.0 -9.720767352721e+01 
-5.910783061742e+01 3.729949836275e-01 0.0 
3.729949836275e-01 -1.125230488833e+02 0.0 
0.0 0.0 -5.108926385021e+01 
-2.773791141900e+01 -2.684422536314e+00 0.0 
-2.684422536314e+00 -6.923054078100e+01 0.0 
0.0 0.0 -2.869053566000e+01 
-5.403967651969e+01 3.831823681163e-01 0.0 
3.831823681163e-01 -9.862431465792e+01 0.0 
0.0 0.0 -4.539919735328e+01 
-1.289469860727e+02 2.893943945745e+01 0.0 
2.893943945745e+01 -3.089799123069e+02 0.0 
0.0 0.0 -1.309780695139e+02 
-9.028263954855e+01 1.207998836171e+00 0.0 
1.207998836171e+00 -2.390637334511e+02 0.0 
0.0 0.0 -9.840391189989e+01 
-1.782379484035e+01 8.486988658923e+00 0.0 
8.486988658923e+00 -1.162735098993e+01 0.0 
0.0 0.0 -8.409341073709e+00 
-5.199801893096e+01 -1.317256358064e+00 0.0 
-1.317256358064e+00 -1.455506116979e+02 0.0 
0.0 0.0 -5.886458918864e+01 
-7.770097283626e+01 -3.973838057595e-01 0.0 
-3.973838057595e-01 -2.100256800309e+02 0.0 
0.0 0.0 -8.591799586014e+01 
-9.453625721158e+01 -1.330264019277e+00 0.0 
-1.330264019277e+00 -2.480765831641e+02 0.0 
0.0 0.0 -1.023838521127e+02 
-1.276790254147e+02 2.474913943133e+01 0.0 
2.474913943133e+01 -3.114077795652e+02 0.0 
0.0 0.0 -1.313260414939e+02 
-7.559011606001e+01 5.965492977944e-01 0.0 
5.965492977944e-01 -2.047643915708e+02 0.0 
0.0 0.0 -8.370635228924e+01 
-8.105982622030e+01 -2.699249566861e-01 0.0 
-2.699249566861e-01 -2.172818616530e+02 0.0 
0.0 0.0 -8.910250636200e+01 
-1.528905807442e+01 -1.816723667557e+00 0.0 
-1.816723667557e+00 -3.727091975468e+01 0.0 
0.0 0.0 -1.536799334873e+01 
-1.448846221773e+02 6.397975342808e+00 0.0 
6.397975342808e+00 -3.526720660642e+02 0.0 
0.0 0.0 -1.488670064724e+02 
-1.102289460048e+02 2.608010778466e+01 0.0 
2.608010778466e+01 -2.619928451143e+02 0.0 
0.0 0.0 -1.112665373357e+02 
-2.342468920907e+01 7.299745306626e+00 0.0 
7.299745306626e+00 -5.167586330634e+01 0.0 
0.0 0.0 -2.213016575462e+01 
-9.486700722227e+01 1.175689825993e+00 0.0 
1.175689825993e+00 -2.164886669339e+02 0.0 
0.0 0.0 -9.300670224686e+01 
-1.555746871300e+02 1.947058933643e-01 0.0 
1.947058933643e-01 -3.696816931019e+02 0.0 
0.0 0.0 -1.571769140696e+02 
-3.928303657226e+01 6.240495273260e-01 0.0 
6.240495273260e-01 -6.206194009483e+01 0.0 
0.0 0.0 -3.000349300013e+01 
-5.965753874674e+01 3.291549808128e-01 0.0 
3.291549808128e-01 -1.127361066546e+02 0.0 
0.0 0.0 -5.131809362041e+01 
-7.577723982300e+01 -6.947962290989e-01 0.0 
-6.947962290989e-01 -2.046380607570e+02 0.0 
0.0 0.0 -8.372459017401e+01 
-7.865194657342e+01 3.748965734707e-01 0.0 
3.748965734707e-01 -2.109377909536e+02 0.0 
0.0 0.0 -8.647692125810e+01 
-8.096862113087e+01 1.872650178164e-01 0.0 
1.872650178164e-01 -2.177233293172e+02 0.0 
0.0 0.0 -8.920758513441e+01 
-1.239830399464e+02 1.709266863515e+01 0.0 
1.709266863515e+01 -3.149458565163e+02 0.0 
0.0 0.0 -1.312786689388e+02 
-2.265456615161e+01 -3.185227081442e+00 0.0 
-3.185227081442e+00 -5.633423460125e+01 0.0 
0.0 0.0 -2.329664022586e+01 
-1.154424198481e+02 2.895820057290e+01 0.0 
2.895820057290e+01 -2.691580955197e+02 0.0 
0.0 0.0 -1.149801546104e+02 
-4.596520525148e+01 -6.414643092050e-02 0.0 
-6.414643092050e-02 -7.880322191863e+01 0.0 
0.0 0.0 -3.703052815103e+01 
-1.033681620350e+02 1.457116850245e+01 0.0 
1.457116850245e+01 -2.245429938349e+02 0.0 
0.0 0.0 -9.797334676096e+01 
-1.259501962649e+02 1.768955238046e+01 0.0 
1.768955238046e+01 -3.156763857853e+02 0.0 
0.0 0.0 -1.320879746150e+02 
-5.556691854963e+01 9.722622472080e-01 0.0 
9.722622472080e-01 -9.961735076259e+01 0.0 
0.0 0.0 -4.615528079367e+01 
-1.070602783317e+02 2.527940786959e+01 0.0 
2.527940786959e+01 -2.413687284704e+02 0.0 
0.0 0.0 -1.041287020406e+02 
-1.257331968616e+02 2.342455655290e+01 0.0 
2.342455655290e+01 -3.099437678748e+02 0.0 
0.0 0.0 -1.303030894209e+02 
-1.319605011002e+02 2.665744376354e+01 0.0 
2.665744376354e+01 -3.210304656248e+02 0.0 
0.0 0.0 -1.354972900175e+02 
-1.872715333137e+01 7.827224374322e+00 0.0 
7.827224374322e+00 -1.803273485984e+01 0.0 
0.0 0.0 -1.084199931842e+01 
-1.087758111521e+02 2.682492751163e+01 0.0 
2.682492751163e+01 -2.423448881996e+02 0.0 
0.0 0.0 -1.049362098055e+02 
-1.124160358081e+02 2.699357387041e+01 0.0 
2.699357387041e+01 -2.569207919891e+02 0.0 
0.0 0.0 -1.104010483392e+02 
-1.611626654320e+01 -9.427186076691e-01 0.0 
-9.427186076691e-01 -3.827814744551e+01 0.0 
0.0 0.0 -1.591832419661e+01 
-7.179241784119e+01 2.362335569314e-01 0.0 
2.362335569314e-01 -1.947606719005e+02 0.0 
0.0 0.0 -7.956592692250e+01 
-1.902093233274e+01 6.015185500685e+00 0.0 
6.015185500685e+00 -1.667672840439e+01 0.0 
0.0 0.0 -1.030929822114e+01 
-1.126875737448e+02 2.784889226493e+01 0.0 
2.784889226493e+01 -2.512188707115e+02 0.0 
0.0 0.0 -1.087719333369e+02 
-1.784819096683e+01 4.800227462604e-01 0.0 
4.800227462604e-01 -1.148217203737e+01 0.0 
0.0 0.0 -8.399108901262e+00 
-1.693741001498e+01 -7.905815550023e-02 0.0 
-7.905815550023e-02 -9.730038391780e+00 0.0 
0.0 0.0 -7.600234522027e+00 
-1.723097761680e+01 1.213615206820e-01 0.0 
1.213615206820e-01 -9.821288613426e+00 0.0 
0.0 0.0 -7.715679869068e+00 
-1.698358198053e+01 3.159254079326e-02 0.0 
3.159254079326e-02 -9.612790299462e+00 0.0 
0.0 0.0 -7.578911683998e+00 
-1.713581489517e+01 -5.000273579544e-02 0.0 
-5.000273579544e-02 -9.697701327172e+00 0.0 
0.0 0.0 -7.650054866702e+00 
-1.695439801026e+01 -8.038336822274e-02 0.0 
-8.038336822274e-02 -9.678044004598e+00 0.0 
0.0 0.0 -7.589732604456e+00 
-1.706280341800e+01 -6.289335056325e-02 0.0 
-6.289335056325e-02 -9.717357244331e+00 0.0 
0.0 0.0 -7.634048198700e+00 
-1.680440174279e+01 -1.225782957707e-01 0.0 
-1.225782957707e-01 -9.618252653386e+00 0.0 
0.0 0.0 -7.526796318852e+00 
-1.709928428835e+01 -1.087985910849e-01 0.0 
-1.087985910849e-01 -9.733532337393e+00 0.0 
0.0 0.0 -7.649844987722e+00 
-1.655841050952e+01 -2.030963080674e-01 0.0 
-2.030963080674e-01 -9.611082250708e+00 0.0 
0.0 0.0 -7.450847828067e+00 
-1.701334369041e+01 -1.371751722443e-01 0.0 
-1.371751722443e-01 -9.760644735169e+00 0.0 
0.0 0.0 -7.632196527675e+00 
-1.620163798710e+01 -2.738269217838e-01 0.0 
-2.738269217838e-01 -9.560511408205e+00 0.0 
0.0 0.0 -7.328644818592e+00 
-1.700489054905e+01 -1.633245859531e-01 0.0 
-1.633245859531e-01 -9.810250003325e+00 0.0 
0.0 0.0 -7.644542165711e+00 
-2.038364128599e+01 4.053611781591e+00 0.0 
4.053611781591e+00 -1.283099796772e+01 0.0 
0.0 0.0 -9.564391776112e+00 
-1.574657797891e+01 -3.361252567872e-01 0.0 
-3.361252567872e-01 -9.568724810387e+00 0.0 
0.0 0.0 -7.194590836790e+00 
-1.692379339649e+01 -1.208004560015e-01 0.0 
-1.208004560015e-01 -9.870474639035e+00 0.0 
0.0 0.0 -7.638280410657e+00 
-1.307628073428e+01 7.687026487445e-01 0.0 
7.687026487445e-01 -5.623238502257e+00 0.0 
0.0 0.0 -5.209855770960e+00 
-1.527412052446e+01 -3.708757474662e-01 0.0 
-3.708757474662e-01 -9.427330573077e+00 0.0 
0.0 0.0 -7.010435329260e+00 
-1.695605078695e+01 -1.993276664138e-01 0.0 
-1.993276664138e-01 -9.915215072659e+00 0.0 
0.0 0.0 -7.661379757884e+00 
-2.465206521207e+01 2.385683421187e+00 0.0 
2.385683421187e+00 -1.101599737629e+01 0.0 
0.0 0.0 -1.030041877651e+01 
-1.466810545550e+01 -4.754805666623e-01 0.0 
-4.754805666623e-01 -9.409807441826e+00 0.0 
0.0 0.0 -6.823373869198e+00 
-1.694679243315e+01 -2.214647513395e-01 0.0 
-2.214647513395e-01 -9.997602361258e+00 0.0 
0.0 0.0 -7.683318438323e+00 
-1.394925400699e+01 -5.200980777377e-01 0.0 
-5.200980777377e-01 -9.387886190340e+00 0.0 
0.0 0.0 -6.601142059200e+00 
-1.710585732729e+01 -1.610498372439e-01 0.0 
-1.610498372439e-01 -1.011084860029e+01 0.0 
0.0 0.0 -7.765011778276e+00 
-1.326295302877e+01 -5.047777368740e-01 0.0 
-5.047777368740e-01 -9.290125449786e+00 0.0 
0.0 0.0 -6.365923543566e+00 
-3.036219149256e+01 7.383951340748e+00 0.0 
7.383951340748e+00 -1.298747796804e+01 0.0 
0.0 0.0 -1.260490083818e+01 
-1.751783589149e+01 -1.103528534232e-01 0.0 
-1.103528534232e-01 -1.023640544934e+01 0.0 
0.0 0.0 -7.926272402250e+00 
-1.265616370254e+01 -4.526217474527e-01 0.0 
-4.526217474527e-01 -9.240704916369e+00 0.0 
0.0 0.0 -6.169060585674e+00 
-1.225750955017e+01 -2.684839228995e-01 0.0 
-2.684839228995e-01 -9.296951584775e+00 0.0 
0.0 0.0 -6.066338340483e+00 
-1.815992583475e+01 -8.800289786850e-03 0.0 
-8.800289786850e-03 -1.038147153335e+01 0.0 
0.0 0.0 -8.162419210429e+00 
-1.239732906876e+01 4.872790673364e-02 0.0 
4.872790673364e-02 -9.185717200410e+00 0.0 
0.0 0.0 -6.074913880750e+00 
-1.919620179660e+01 2.846249542411e-01 0.0 
2.846249542411e-01 -1.053334583339e+01 0.0 
0.0 0.0 -8.518864288996e+00 
-1.342730855673e+01 1.066735659034e+00 0.0 
1.066735659034e+00 -1.040669364820e+01 0.0 
0.0 0.0 -6.750200661478e+00 
-2.096857853099e+01 5.159303581667e-01 0.0 
5.159303581667e-01 -1.073080419383e+01 0.0 
0.0 0.0 -9.109814817448e+00 
-2.280154536360e+01 2.391358422087e+00 0.0 
2.391358422087e+00 4.446965687617e-01 0.0 
0.0 0.0 -6.307054638452e+00 
-1.824531168596e+01 1.437722552807e+00 0.0 
1.437722552807e+00 -9.352010207451e+00 0.0 
0.0 0.0 -7.879196568022e+00 
-1.785940616305e+01 -1.345910237478e+00 0.0 
-1.345910237478e+00 -1.164046728056e+01 0.0 
0.0 0.0 -8.449962033084e+00 
-1.621796456778e+01 1.867589507779e-01 0.0 
1.867589507779e-01 -5.279886693651e+00 0.0 
0.0 0.0 -6.049355378430e+00 
-1.976163794389e+01 -1.643961580534e-01 0.0 
-1.643961580534e-01 -1.549733834654e+01 0.0 
0.0 0.0 -1.017769288713e+01 
-3.048089883225e+01 8.079462747579e+00 0.0 
8.079462747579e+00 -1.019214104576e+01 0.0 
0.0 0.0 -1.180191196340e+01 
-2.497577059345e+01 3.767797285891e-01 0.0 
3.767797285891e-01 -2.811319116613e+01 0.0 
0.0 0.0 -1.552668852787e+01 
-2.568513905829e+01 -1.416639779236e-02 0.0 
-1.416639779236e-02 -2.928496893315e+01 0.0 
0.0 0.0 -1.609103239743e+01 
-2.554915924021e+01 5.454531803360e-03 0.0 
5.454531803360e-03 -2.923037906805e+01 0.0 
0.0 0.0 -1.603386149248e+01 
-2.552287308687e+01 -1.887949183624e-02 0.0 
-1.887949183624e-02 -2.934530089416e+01 0.0 
0.0 0.0 -1.606045219431e+01 
-2.555459560191e+01 -8.676384083039e-02 0.0 
-8.676384083039e-02 -2.934152297623e+01 0.0 
0.0 0.0 -1.606883557344e+01 
-2.568697938117e+01 -1.578168184963e-01 0.0 
-1.578168184963e-01 -2.954081264269e+01 0.0 
0.0 0.0 -1.616833760716e+01 
-2.554747493354e+01 -6.225446517008e-02 0.0 
-6.225446517008e-02 -2.951492411392e+01 0.0 
0.0 0.0 -1.611871971424e+01 
-2.592679983442e+01 -1.052506687379e-01 0.0 
-1.052506687379e-01 -2.950240807850e+01 0.0 
0.0 0.0 -1.622876237387e+01 
-2.548278521484e+01 -1.641841519654e-01 0.0 
-1.641841519654e-01 -2.929503449920e+01 0.0 
0.0 0.0 -1.603334591421e+01 
-2.600775635278e+01 -3.022812969822e-01 0.0 
-3.022812969822e-01 -2.956836689331e+01 0.0 
0.0 0.0 -1.627283697383e+01 
-2.543023562980e+01 -1.764140164404e-01 0.0 
-1.764140164404e-01 -2.940005926041e+01 0.0 
0.0 0.0 -1.604908846706e+01 
-2.622530797151e+01 -3.095733300742e-01 0.0 
-3.095733300742e-01 -2.959393931439e+01 0.0 
0.0 0.0 -1.634577418577e+01 
-3.169155115954e+01 4.237931594983e+00 0.0 
4.237931594983e+00 -3.343523692646e+01 0.0 
0.0 0.0 -1.913803642580e+01 
-2.536647172080e+01 -2.019618461728e-01 0.0 
-2.019618461728e-01 -2.932060607074e+01 0.0 
0.0 0.0 -1.600612333746e+01 
-3.305552241852e+01 2.080987861959e+00 0.0 
2.080987861959e+00 -3.081708558754e+01 0.0 
0.0 0.0 -1.876178240182e+01 
-2.675785358561e+01 -4.474714426996e-01 0.0 
-4.474714426996e-01 -2.974638162943e+01 0.0 
0.0 0.0 -1.655127056451e+01 
-2.527298686378e+01 -1.959827433060e-01 0.0 
-1.959827433060e-01 -2.935192606272e+01 0.0 
0.0 0.0 -1.598747387795e+01 
-2.669120782097e+01 -3.670226510228e-01 0.0 
-3.670226510228e-01 -2.961271937478e+01 0.0 
0.0 0.0 -1.649117815872e+01 
-2.521340847233e+01 -2.184302086926e-01 0.0 
-2.184302086926e-01 -2.918238300520e+01 0.0 
0.0 0.0 -1.591873744326e+01 
-2.718115402332e+01 -5.026763405089e-01 0.0 
-5.026763405089e-01 -2.973692234816e+01 0.0 
0.0 0.0 -1.667542291144e+01 
-2.525208259717e+01 -1.303032119410e-01 0.0 
-1.303032119410e-01 -2.937661274397e+01 0.0 
0.0 0.0 -1.598860860234e+01 
-2.786091133904e+01 -3.801500485221e-01 0.0 
-3.801500485221e-01 -2.988307389189e+01 0.0 
0.0 0.0 -1.692319556928e+01 
-2.782782665121e+01 2.554837487725e+00 0.0 
2.554837487725e+00 -2.673571647433e+01 0.0 
0.0 0.0 -1.596906293766e+01 
-2.541297148722e+01 7.570381160841e-02 0.0 
7.570381160841e-02 -2.949411497344e+01 0.0 
0.0 0.0 -1.607212593820e+01 
-2.863838229296e+01 -1.003586877072e-01 0.0 
-1.003586877072e-01 -2.992964627635e+01 0.0 
0.0 0.0 -1.717040857079e+01 
-2.578069438382e+01 3.732334255234e-01 0.0 
3.732334255234e-01 -2.951640859812e+01 0.0 
0.0 0.0 -1.618913089458e+01 
-2.973335815558e+01 2.211376010734e-01 0.0 
2.211376010734e-01 -3.005975226296e+01 0.0 
0.0 0.0 -1.753793312556e+01 
-3.112033724490e+01 8.659688413743e-01 0.0 
8.659688413743e-01 -3.033125349023e+01 0.0 
0.0 0.0 -1.803547722054e+01 
-2.650604085599e+01 8.802989565720e-01 0.0 
8.802989565720e-01 -2.985573991625e+01 0.0 
0.0 0.0 -1.650853423167e+01 
-2.779834065640e+01 1.813145571556e+00 0.0 
1.813145571556e+00 -3.060500317293e+01 0.0 
0.0 0.0 -1.712100314880e+01 
-3.674545350305e+01 5.004386877423e+00 0.0 
5.004386877423e+00 -3.436814176919e+01 0.0 
0.0 0.0 -2.093407858167e+01 
-3.154472658387e+01 3.126784019855e+00 0.0 
3.126784019855e+00 -2.370230591058e+01 0.0 
0.0 0.0 -1.617410974834e+01 
-2.505292970079e+01 1.243745265094e+00 0.0 
1.243745265094e+00 -2.949566847411e+01 0.0 
0.0 0.0 -1.596457945247e+01 
-2.529090935358e+01 -1.590916674727e+00 0.0 
-1.590916674727e+00 -2.808261404851e+01 0.0 
0.0 0.0 -1.561205702063e+01 
-2.712839321336e+01 -1.033558847148e-01 0.0 
-1.033558847148e-01 -3.397347135652e+01 0.0 
0.0 0.0 -1.793055937096e+01 
-2.331750486064e+01 -3.034694424674e-01 0.0 
-3.034694424674e-01 -2.379436115228e+01 0.0 
0.0 0.0 -1.373355980388e+01 
-3.178050447691e+01 5.952908345017e+00 0.0 
5.952908345017e+00 -2.764902232760e+01 0.0 
0.0 0.0 -1.742885804135e+01 

TENSORS element_materi_strain_total float
-8.017823073508e-04 1.828866412385e-03 0.0 
1.828866412385e-03 6.718102202463e-03 0.0 
0.0 0.0 0.0 
-6.681903838044e-04 1.420786674819e-03 0.0 
1.420786674819e-03 6.426008455290e-03 0.0 
0.0 0.0 0.0 
-2.422579579223e-04 2.111480440943e-03 0.0 
2.111480440943e-03 1.380157672566e-02 0.0 
0.0 0.0 0.0 
-2.780450045426e-04 1.757490715089e-04 0.0 
1.757490715089e-04 1.544355080765e-02 0.0 
0.0 0.0 0.0 
-9.353115225003e-04 9.877483034112e-05 0.0 
9.877483034112e-05 1.295491997214e-02 0.0 
0.0 0.0 0.0 
-3.437956081188e-04 5.093031251182e-04 0.0 
5.093031251182e-04 1.327926009701e-03 0.0 
0.0 0.0 0.0 
-8.678449534085e-04 8.262793998664e-05 0.0 
8.262793998664e-05 1.294211757577e-02 0.0 
0.0 0.0 0.0 
-7.072687335142e-04 1.683283557892e-03 0.0 
1.683283557892e-03 6.071807650383e-03 0.0 
0.0 0.0 0.0 
-9.288114993403e-04 1.425386511424e-05 0.0 
1.425386511424e-05 1.294958536318e-02 0.0 
0.0 0.0 0.0 
-2.708502498381e-04 3.594268961909e-04 0.0 
3.594268961909e-04 1.541254553043e-02 0.0 
0.0 0.0 0.0 
6.965330093112e-04 4.916378583951e-05 0.0 
4.916378583951e-05 4.870310729069e-03 0.0 
0.0 0.0 0.0 
-7.035107758780e-04 1.475484091056e-03 0.0 
1.475484091056e-03 5.624009271455e-03 0.0 
0.0 0.0 0.0 
2.457580056885e-04 1.658872650440e-04 0.0 
1.658872650440e-04 7.677778521329e-03 0.0 
0.0 0.0 0.0 
-1.150399245267e-03 3.518190297022e-04 0.0 
3.518190297022e-04 1.330096419331e-02 0.0 
0.0 0.0 0.0 
1.420843968141e-04 1.517706779289e-04 0.0 
1.517706779289e-04 7.919865430857e-03 0.0 
0.0 0.0 0.0 
-1.681663515857e-04 2.951847584258e-04 0.0 
2.951847584258e-04 1.555846578895e-02 0.0 
0.0 0.0 0.0 
-1.021211374129e-03 1.092045895081e-04 0.0 
1.092045895081e-04 1.286231645048e-02 0.0 
0.0 0.0 0.0 
-2.653942214791e-04 1.354020884885e-04 0.0 
1.354020884885e-04 1.233984747971e-03 0.0 
0.0 0.0 0.0 
2.381361517685e-04 -7.330536338560e-05 0.0 
-7.330536338560e-05 1.354532477371e-03 0.0 
0.0 0.0 0.0 
3.186116195049e-04 -1.197191280530e-05 0.0 
-1.197191280530e-05 1.397173265795e-03 0.0 
0.0 0.0 0.0 
-3.335642663412e-04 3.196773341209e-04 0.0 
3.196773341209e-04 1.541967866030e-02 0.0 
0.0 0.0 0.0 
-7.423628560840e-04 1.646358338377e-03 0.0 
1.646358338377e-03 7.657672523226e-03 0.0 
0.0 0.0 0.0 
-8.465383425276e-04 1.738696208808e-03 0.0 
1.738696208808e-03 8.286583950686e-03 0.0 
0.0 0.0 0.0 
4.800746726772e-04 1.251056783304e-03 0.0 
1.251056783304e-03 7.995313262660e-03 0.0 
0.0 0.0 0.0 
-1.232870771889e-03 6.963909141288e-04 0.0 
6.963909141288e-04 1.351388064504e-02 0.0 
0.0 0.0 0.0 
6.788021730566e-04 2.394518669329e-05 0.0 
2.394518669329e-05 5.179982373261e-03 0.0 
0.0 0.0 0.0 
-1.237088074315e-03 4.171638195712e-04 0.0 
4.171638195712e-04 1.244617397041e-02 0.0 
0.0 0.0 0.0 
1.727390493906e-04 2.523564429971e-03 0.0 
2.523564429971e-03 1.100627898742e-02 0.0 
0.0 0.0 0.0 
-1.401445035821e-03 7.764884386197e-04 0.0 
7.764884386197e-04 1.350730440330e-02 0.0 
0.0 0.0 0.0 
4.606008488708e-04 1.273612773139e-03 0.0 
1.273612773139e-03 8.139324476055e-03 0.0 
0.0 0.0 0.0 
-1.062989876359e-04 -1.457811949126e-04 0.0 
-1.457811949126e-04 1.239625160785e-03 0.0 
0.0 0.0 0.0 
-2.219969590143e-04 -1.335941637442e-04 0.0 
-1.335941637442e-04 4.935127446166e-04 0.0 
0.0 0.0 0.0 
-4.178493995125e-04 2.198860468991e-03 0.0 
2.198860468991e-03 1.393704296127e-02 0.0 
0.0 0.0 0.0 
5.109461518518e-04 1.082443666682e-05 0.0 
1.082443666682e-05 6.367019838255e-03 0.0 
0.0 0.0 0.0 
3.149036474406e-04 7.293134514960e-04 0.0 
7.293134514960e-04 7.876547385441e-03 0.0 
0.0 0.0 0.0 
1.506557754667e-04 5.763342838158e-04 0.0 
5.763342838158e-04 8.236453883982e-03 0.0 
0.0 0.0 0.0 
1.121585544517e-04 4.071467690040e-04 0.0 
4.071467690040e-04 8.226057043176e-03 0.0 
0.0 0.0 0.0 
4.044420486446e-04 1.907299339372e-03 0.0 
1.907299339372e-03 9.175105687246e-03 0.0 
0.0 0.0 0.0 
-8.589759567361e-04 -4.270747871378e-05 0.0 
-4.270747871378e-05 1.251316989181e-02 0.0 
0.0 0.0 0.0 
-8.321044311249e-04 5.845038134358e-05 0.0 
5.845038134358e-05 1.252956538552e-02 0.0 
0.0 0.0 0.0 
-1.055679334425e-03 1.777777413317e-03 0.0 
1.777777413317e-03 9.814561270890e-03 0.0 
0.0 0.0 0.0 
2.167279378524e-04 9.541329252759e-04 0.0 
9.541329252759e-04 8.145625583924e-03 0.0 
0.0 0.0 0.0 
-6.897208649325e-04 1.582846958856e-03 0.0 
1.582846958856e-03 4.476202951500e-03 0.0 
0.0 0.0 0.0 
-1.394281023822e-03 4.359152211189e-04 0.0 
4.359152211189e-04 1.255134020610e-02 0.0 
0.0 0.0 0.0 
-3.664156344847e-04 5.599522655361e-05 0.0 
5.599522655361e-05 1.526598058825e-02 0.0 
0.0 0.0 0.0 
-6.553138176618e-04 1.316037047136e-03 0.0 
1.316037047136e-03 4.451827584979e-03 0.0 
0.0 0.0 0.0 
-1.117722959133e-04 -1.993833458142e-04 0.0 
-1.993833458142e-04 8.558986212441e-04 0.0 
0.0 0.0 0.0 
-2.492836354525e-04 1.194923414755e-04 0.0 
1.194923414755e-04 1.528829168791e-02 0.0 
0.0 0.0 0.0 
-3.650840147253e-04 -1.561926419908e-04 0.0 
-1.561926419908e-04 5.800812597465e-04 0.0 
0.0 0.0 0.0 
-1.206382354376e-03 2.574103659222e-04 0.0 
2.574103659222e-04 1.314255326794e-02 0.0 
0.0 0.0 0.0 
-9.217950584103e-04 1.794199714295e-03 0.0 
1.794199714295e-03 9.004480769179e-03 0.0 
0.0 0.0 0.0 
3.276913194625e-04 -6.855374691141e-05 0.0 
-6.855374691141e-05 1.720664015933e-03 0.0 
0.0 0.0 0.0 
2.746987351194e-04 -2.048853697787e-04 0.0 
-2.048853697787e-04 1.656338195953e-03 0.0 
0.0 0.0 0.0 
-8.822384592507e-04 1.662346049546e-03 0.0 
1.662346049546e-03 9.091946174019e-03 0.0 
0.0 0.0 0.0 
-3.036443852572e-04 1.669780626684e-03 0.0 
1.669780626684e-03 1.469440402651e-02 0.0 
0.0 0.0 0.0 
4.624651445404e-04 -9.614904555093e-05 0.0 
-9.614904555093e-05 2.303384430601e-03 0.0 
0.0 0.0 0.0 
3.952050447291e-04 -6.048693557148e-06 0.0 
-6.048693557148e-06 1.776835223058e-03 0.0 
0.0 0.0 0.0 
5.280387704549e-04 8.232902173292e-05 0.0 
8.232902173292e-05 6.368984977351e-03 0.0 
0.0 0.0 0.0 
1.522399892784e-04 -9.959196792862e-05 0.0 
-9.959196792862e-05 1.024163145160e-03 0.0 
0.0 0.0 0.0 
-1.984545592535e-04 2.560923966361e-04 0.0 
2.560923966361e-04 1.555902387165e-02 0.0 
0.0 0.0 0.0 
-7.822100338383e-04 -1.473929665169e-04 0.0 
-1.473929665169e-04 6.943876713481e-04 0.0 
0.0 0.0 0.0 
4.437078496489e-04 2.171150973467e-03 0.0 
2.171150973467e-03 9.694607760116e-03 0.0 
0.0 0.0 0.0 
1.132788961424e-04 1.737416013007e-03 0.0 
1.737416013007e-03 6.194906315988e-03 0.0 
0.0 0.0 0.0 
2.068472835295e-04 -7.402716499735e-05 0.0 
-7.402716499735e-05 1.404597909042e-03 0.0 
0.0 0.0 0.0 
2.414317844144e-04 2.168484979992e-04 0.0 
2.168484979992e-04 7.688275317120e-03 0.0 
0.0 0.0 0.0 
-8.104679371489e-04 1.649050408526e-03 0.0 
1.649050408526e-03 8.357676804263e-03 0.0 
0.0 0.0 0.0 
-5.184822605940e-04 -7.333937301627e-05 0.0 
-7.333937301627e-05 5.620821726389e-04 0.0 
0.0 0.0 0.0 
-4.092512738199e-04 2.289197633952e-03 0.0 
2.289197633952e-03 1.366918870551e-02 0.0 
0.0 0.0 0.0 
8.516029267192e-05 -3.258757453437e-04 0.0 
-3.258757453437e-04 1.181751068376e-03 0.0 
0.0 0.0 0.0 
-5.112792707151e-05 2.426095176189e-03 0.0 
2.426095176189e-03 1.236095083413e-02 0.0 
0.0 0.0 0.0 
6.634599551965e-04 5.885586584150e-05 0.0 
5.885586584150e-05 5.429972069813e-03 0.0 
0.0 0.0 0.0 
0.0 1.088789841805e-03 0.0 
1.088789841805e-03 1.548193077228e-02 0.0 
0.0 0.0 0.0 
1.385908458533e-04 2.268911471205e-03 0.0 
2.268911471205e-03 1.067102829941e-02 0.0 
0.0 0.0 0.0 
1.027597964003e-04 2.727396833015e-05 0.0 
2.727396833015e-05 4.558697271673e-04 0.0 
0.0 0.0 0.0 
5.146978021870e-04 -2.292323712996e-05 0.0 
-2.292323712996e-05 2.405371624129e-03 0.0 
0.0 0.0 0.0 
-4.077119479480e-04 7.683665085739e-04 0.0 
7.683665085739e-04 1.537205470507e-02 0.0 
0.0 0.0 0.0 
-5.115695483392e-04 1.831570473240e-03 0.0 
1.831570473240e-03 1.457045644876e-02 0.0 
0.0 0.0 0.0 
-5.901674885179e-04 1.092862103705e-03 0.0 
1.092862103705e-03 3.134547744960e-03 0.0 
0.0 0.0 0.0 
2.244659200248e-04 -1.242158721144e-04 0.0 
-1.242158721144e-04 1.021800853997e-03 0.0 
0.0 0.0 0.0 
-6.810153917407e-04 1.437783370218e-03 0.0 
1.437783370218e-03 3.149205544644e-03 0.0 
0.0 0.0 0.0 
1.104207873333e-04 -1.952340506762e-04 0.0 
-1.952340506762e-04 1.161482537401e-03 0.0 
0.0 0.0 0.0 
-1.029500312614e-03 9.405312652449e-05 0.0 
9.405312652449e-05 1.288123725646e-02 0.0 
0.0 0.0 0.0 
-8.269420374514e-04 1.732667325554e-03 0.0 
1.732667325554e-03 7.593937746680e-03 0.0 
0.0 0.0 0.0 
-7.466483338773e-04 1.546760125327e-03 0.0 
1.546760125327e-03 7.024137717020e-03 0.0 
0.0 0.0 0.0 
-9.921159203528e-04 6.912380107927e-05 0.0 
6.912380107927e-05 1.318073018420e-02 0.0 
0.0 0.0 0.0 
-9.026397600543e-04 1.144252514920e-04 0.0 
1.144252514920e-04 1.318026715657e-02 0.0 
0.0 0.0 0.0 
6.239997567834e-04 3.186635986688e-05 0.0 
3.186635986688e-05 5.631411489441e-03 0.0 
0.0 0.0 0.0 
5.602834928977e-04 3.789190406334e-05 0.0 
3.789190406334e-05 6.157263962340e-03 0.0 
0.0 0.0 0.0 
-7.560120671716e-04 1.983604178551e-03 0.0 
1.983604178551e-03 1.275676025681e-02 0.0 
0.0 0.0 0.0 
-1.015493312891e-03 4.835640544620e-05 0.0 
4.835640544620e-05 1.294469423987e-02 0.0 
0.0 0.0 0.0 
-1.386468224431e-04 -1.328674953039e-04 0.0 
-1.328674953039e-04 4.681874639274e-04 0.0 
0.0 0.0 0.0 
-1.409093963201e-03 5.591478678879e-04 0.0 
5.591478678879e-04 1.288763880160e-02 0.0 
0.0 0.0 0.0 
-5.727598011076e-04 6.089807358331e-05 0.0 
6.089807358331e-05 1.445677397560e-02 0.0 
0.0 0.0 0.0 
-6.337685130621e-04 1.208303360801e-04 0.0 
1.208303360801e-04 1.439876379145e-02 0.0 
0.0 0.0 0.0 
-2.774995670776e-04 1.207349659687e-03 0.0 
1.207349659687e-03 1.543739523309e-02 0.0 
0.0 0.0 0.0 
1.568964240450e-04 2.012153096876e-03 0.0 
2.012153096876e-03 9.686619054433e-03 0.0 
0.0 0.0 0.0 
-1.119015441528e-03 1.183763200578e-04 0.0 
1.183763200578e-04 1.289090385125e-02 0.0 
0.0 0.0 0.0 
3.513825616106e-04 9.330442359308e-04 0.0 
9.330442359308e-04 8.119145268654e-03 0.0 
0.0 0.0 0.0 
-7.363183546011e-04 -7.662504859327e-06 0.0 
-7.662504859327e-06 1.351560146799e-02 0.0 
0.0 0.0 0.0 
-1.962344195720e-04 1.671451457195e-03 0.0 
1.671451457195e-03 6.573586633717e-03 0.0 
0.0 0.0 0.0 
-9.427698336254e-04 2.347634082971e-05 0.0 
2.347634082971e-05 1.273960782494e-02 0.0 
0.0 0.0 0.0 
1.590013493480e-04 2.310455888096e-04 0.0 
2.310455888096e-04 7.914892474584e-03 0.0 
0.0 0.0 0.0 
6.445449610084e-04 1.700062504352e-03 0.0 
1.700062504352e-03 8.187123563745e-03 0.0 
0.0 0.0 0.0 
3.176189784024e-04 2.084352278491e-03 0.0 
2.084352278491e-03 9.709210019067e-03 0.0 
0.0 0.0 0.0 
1.748525962575e-04 1.284453741821e-03 0.0 
1.284453741821e-03 4.894834452346e-03 0.0 
0.0 0.0 0.0 
-3.659863968024e-04 -1.817769214521e-04 0.0 
-1.817769214521e-04 9.605048961165e-04 0.0 
0.0 0.0 0.0 
3.604517009919e-04 7.269934190079e-05 0.0 
7.269934190079e-05 7.135537511530e-03 0.0 
0.0 0.0 0.0 
-5.541885378042e-04 1.394342867684e-04 0.0 
1.394342867684e-04 1.473724536333e-02 0.0 
0.0 0.0 0.0 
-6.836143016627e-04 -1.612522426829e-04 0.0 
-1.612522426829e-04 6.969493824256e-04 0.0 
0.0 0.0 0.0 
1.583312928544e-04 3.749140602842e-04 0.0 
3.749140602842e-04 7.881285576584e-03 0.0 
0.0 0.0 0.0 
-6.363409638952e-04 1.969819919519e-03 0.0 
1.969819919519e-03 1.225271303526e-02 0.0 
0.0 0.0 0.0 
7.263870563023e-05 -5.447722503896e-05 0.0 
-5.447722503896e-05 2.809884659492e-04 0.0 
0.0 0.0 0.0 
6.912090461479e-04 1.473463988053e-03 0.0 
1.473463988053e-03 5.464427836739e-03 0.0 
0.0 0.0 0.0 
-1.534181554824e-03 1.143879595299e-03 0.0 
1.143879595299e-03 1.214124043629e-02 0.0 
0.0 0.0 0.0 
6.317827222015e-04 -7.442498189756e-05 0.0 
-7.442498189756e-05 2.950873261454e-03 0.0 
0.0 0.0 0.0 
-7.554755336936e-05 1.652343800802e-03 0.0 
1.652343800802e-03 5.823494773598e-03 0.0 
0.0 0.0 0.0 
4.010444490699e-05 1.561258530016e-03 0.0 
1.561258530016e-03 6.208208596411e-03 0.0 
0.0 0.0 0.0 
2.161081198921e-04 7.224374775634e-04 0.0 
7.224374775634e-04 8.032892272227e-03 0.0 
0.0 0.0 0.0 
-7.552155893302e-04 5.323014996407e-05 0.0 
5.323014996407e-05 1.338742316807e-02 0.0 
0.0 0.0 0.0 
1.933157329597e-04 1.640608878767e-03 0.0 
1.640608878767e-03 5.516285179901e-03 0.0 
0.0 0.0 0.0 
8.039294189244e-05 -2.985289539984e-04 0.0 
-2.985289539984e-04 1.113446001220e-03 0.0 
0.0 0.0 0.0 
-1.364784226618e-03 6.701630331272e-04 0.0 
6.701630331272e-04 1.267579794896e-02 0.0 
0.0 0.0 0.0 
-4.625375970815e-04 8.828457746246e-05 0.0 
8.828457746246e-05 1.475846145926e-02 0.0 
0.0 0.0 0.0 
1.133998100777e-04 1.411226248041e-03 0.0 
1.411226248041e-03 5.527350682480e-03 0.0 
0.0 0.0 0.0 
-5.645724144800e-04 7.629069701738e-04 0.0 
7.629069701738e-04 1.905327414241e-03 0.0 
0.0 0.0 0.0 
-1.371352917016e-03 1.582299476944e-03 0.0 
1.582299476944e-03 1.119051573978e-02 0.0 
0.0 0.0 0.0 
5.709423732678e-04 -4.245641881522e-05 0.0 
-4.245641881522e-05 2.937008175883e-03 0.0 
0.0 0.0 0.0 
-1.179997523030e-03 1.475556820619e-03 0.0 
1.475556820619e-03 1.061894845789e-02 0.0 
0.0 0.0 0.0 
-2.255911560464e-04 9.235695738359e-04 0.0 
9.235695738359e-04 1.541247570930e-02 0.0 
0.0 0.0 0.0 
-3.606107087706e-04 9.036088101107e-04 0.0 
9.036088101107e-04 1.851350121401e-03 0.0 
0.0 0.0 0.0 
6.912081169825e-04 8.228776261350e-05 0.0 
8.228776261350e-05 5.150793358585e-03 0.0 
0.0 0.0 0.0 
-2.494903544774e-04 2.168499264890e-04 0.0 
2.168499264890e-04 1.544476740526e-02 0.0 
0.0 0.0 0.0 
-2.926765794441e-04 1.959597099549e-03 0.0 
1.959597099549e-03 8.369564167003e-03 0.0 
0.0 0.0 0.0 
-1.232146468205e-03 1.686094112180e-03 0.0 
1.686094112180e-03 1.053218640620e-02 0.0 
0.0 0.0 0.0 
3.764302687730e-04 8.339587082006e-04 0.0 
8.339587082006e-04 7.878644165654e-03 0.0 
0.0 0.0 0.0 
2.300761223071e-04 6.811375900943e-05 0.0 
6.811375900943e-05 7.696579974822e-03 0.0 
0.0 0.0 0.0 
6.420017349476e-04 1.009192118337e-04 0.0 
1.009192118337e-04 5.633278148522e-03 0.0 
0.0 0.0 0.0 
-4.578901321715e-04 1.969639593067e-03 0.0 
1.969639593067e-03 9.117177907701e-03 0.0 
0.0 0.0 0.0 
3.928756241884e-04 1.278134214412e-03 0.0 
1.278134214412e-03 8.426231105107e-03 0.0 
0.0 0.0 0.0 
-5.343412438905e-04 1.923330222777e-03 0.0 
1.923330222777e-03 8.790152472777e-03 0.0 
0.0 0.0 0.0 
-2.021622856029e-04 5.895925217039e-04 0.0 
5.895925217039e-04 1.546976952825e-02 0.0 
0.0 0.0 0.0 
-9.911923581640e-05 2.576737600972e-03 0.0 
2.576737600972e-03 1.252958163612e-02 0.0 
0.0 0.0 0.0 
-1.294392195162e-03 3.752980921959e-04 0.0 
3.752980921959e-04 1.330705749498e-02 0.0 
0.0 0.0 0.0 
-7.143643501943e-04 1.606226804426e-04 0.0 
1.606226804426e-04 1.401996576665e-02 0.0 
0.0 0.0 0.0 
-5.407757362823e-04 1.912542422085e-03 0.0 
1.912542422085e-03 8.790608677738e-03 0.0 
0.0 0.0 0.0 
-1.086223194585e-03 1.629876345755e-03 0.0 
1.629876345755e-03 9.859980155529e-03 0.0 
0.0 0.0 0.0 
-2.371491856805e-04 2.003243565973e-03 0.0 
2.003243565973e-03 8.725431163156e-03 0.0 
0.0 0.0 0.0 
3.513041578895e-04 1.358460246648e-03 0.0 
1.358460246648e-03 5.298451190626e-03 0.0 
0.0 0.0 0.0 
-8.793073196857e-04 6.130589958373e-07 0.0 
6.130589958373e-07 1.278158396203e-02 0.0 
0.0 0.0 0.0 
6.208007544679e-04 1.283411620087e-03 0.0 
1.283411620087e-03 5.487991615062e-03 0.0 
0.0 0.0 0.0 
-7.462272769276e-05 -1.618035625456e-04 0.0 
-1.618035625456e-04 4.324206660986e-04 0.0 
0.0 0.0 0.0 
-7.968945529727e-04 1.131495995952e-05 0.0 
1.131495995952e-05 1.307173863111e-02 0.0 
0.0 0.0 0.0 
2.343539472598e-04 -3.802286177443e-05 0.0 
-3.802286177443e-05 1.028821977735e-03 0.0 
0.0 0.0 0.0 
-1.480759184508e-03 1.355523448682e-03 0.0 
1.355523448682e-03 1.169247497418e-02 0.0 
0.0 0.0 0.0 
2.223694070735e-04 1.169457272914e-03 0.0 
1.169457272914e-03 8.358176977580e-03 0.0 
0.0 0.0 0.0 
2.332337143018e-04 1.522653162931e-03 0.0 
1.522653162931e-03 4.877153737110e-03 0.0 
0.0 0.0 0.0 
6.043448993844e-04 7.740164566750e-05 0.0 
7.740164566750e-05 5.879982570359e-03 0.0 
0.0 0.0 0.0 
-6.989226205893e-04 1.380682932746e-03 0.0 
1.380682932746e-03 5.151228207674e-03 0.0 
0.0 0.0 0.0 
7.456520865701e-04 1.822894488324e-03 0.0 
1.822894488324e-03 8.175811712297e-03 0.0 
0.0 0.0 0.0 
-8.194900721706e-04 1.392076148360e-05 0.0 
1.392076148360e-05 1.280183914796e-02 0.0 
0.0 0.0 0.0 
7.545745974666e-04 1.323361375313e-03 0.0 
1.323361375313e-03 4.873104576807e-03 0.0 
0.0 0.0 0.0 
4.718260964613e-04 5.824741433893e-05 0.0 
5.824741433893e-05 6.616004265444e-03 0.0 
0.0 0.0 0.0 
1.088041847030e-04 -1.962592265808e-04 0.0 
-1.962592265808e-04 1.093868770327e-03 0.0 
0.0 0.0 0.0 
3.787304906127e-04 1.560789869810e-04 0.0 
1.560789869810e-04 7.126675401225e-03 0.0 
0.0 0.0 0.0 
-1.204620018169e-03 1.538806358499e-03 0.0 
1.538806358499e-03 1.157648711155e-02 0.0 
0.0 0.0 0.0 
2.667820874658e-04 3.608190802038e-04 0.0 
3.608190802038e-04 7.855522551414e-03 0.0 
0.0 0.0 0.0 
-7.959584960087e-04 7.837352073153e-06 0.0 
7.837352073153e-06 1.276542665331e-02 0.0 
0.0 0.0 0.0 
4.441645530282e-04 1.364927844301e-03 0.0 
1.364927844301e-03 4.621531654018e-03 0.0 
0.0 0.0 0.0 
-1.356304423668e-03 1.006869632849e-03 0.0 
1.006869632849e-03 1.182263860866e-02 0.0 
0.0 0.0 0.0 
6.845743095323e-04 -1.146262520396e-06 0.0 
-1.146262520396e-06 4.903830131367e-03 0.0 
0.0 0.0 0.0 
-7.686472599856e-04 1.718758720604e-03 0.0 
1.718758720604e-03 5.247081313903e-03 0.0 
0.0 0.0 0.0 
6.773016228185e-04 1.105666573627e-03 0.0 
1.105666573627e-03 4.902969328342e-03 0.0 
0.0 0.0 0.0 
-7.063957519545e-04 9.569277414026e-05 0.0 
9.569277414026e-05 1.421446682232e-02 0.0 
0.0 0.0 0.0 
-8.321698512075e-04 3.607392887102e-05 0.0 
3.607392887102e-05 1.277948848673e-02 0.0 
0.0 0.0 0.0 
5.851953559897e-04 1.409056546620e-03 0.0 
1.409056546620e-03 5.024100855357e-03 0.0 
0.0 0.0 0.0 
-1.321273626950e-03 1.213987706625e-03 0.0 
1.213987706625e-03 1.133340840264e-02 0.0 
0.0 0.0 0.0 
-1.507783693727e-04 2.249704188908e-03 0.0 
2.249704188908e-03 1.157456687771e-02 0.0 
0.0 0.0 0.0 
6.324314382347e-04 -4.899413569525e-05 0.0 
-4.899413569525e-05 3.298962336205e-03 0.0 
0.0 0.0 0.0 
1.377786029244e-04 2.367372058907e-03 0.0 
2.367372058907e-03 1.081856182899e-02 0.0 
0.0 0.0 0.0 
-7.767669844450e-05 2.591129366069e-03 0.0 
2.591129366069e-03 1.219026043364e-02 0.0 
0.0 0.0 0.0 
-4.071417513153e-04 1.605763248536e-03 0.0 
1.605763248536e-03 6.273449513154e-03 0.0 
0.0 0.0 0.0 
6.787569571605e-04 -2.439081045643e-05 0.0 
-2.439081045643e-05 3.311576030433e-03 0.0 
0.0 0.0 0.0 
6.262172689966e-04 1.321964184087e-03 0.0 
1.321964184087e-03 7.778134318742e-03 0.0 
0.0 0.0 0.0 
-7.950898389608e-04 1.876501627193e-03 0.0 
1.876501627193e-03 9.271045503140e-03 0.0 
0.0 0.0 0.0 
-3.428096833625e-04 1.572796516209e-03 0.0 
1.572796516209e-03 5.498206872782e-03 0.0 
0.0 0.0 0.0 
-1.338188105264e-03 1.228074591660e-03 0.0 
1.228074591660e-03 1.190636804125e-02 0.0 
0.0 0.0 0.0 
4.726237515662e-04 1.421846663502e-03 0.0 
1.421846663502e-03 5.701022408025e-03 0.0 
0.0 0.0 0.0 
-1.812495674157e-04 4.335163064742e-04 0.0 
4.335163064742e-04 1.548802551386e-02 0.0 
0.0 0.0 0.0 
-8.365279392459e-04 1.759599264359e-03 0.0 
1.759599264359e-03 1.300124106264e-02 0.0 
0.0 0.0 0.0 
4.263684228791e-04 9.799005779437e-05 0.0 
9.799005779437e-05 6.873896814199e-03 0.0 
0.0 0.0 0.0 
-6.394317236781e-04 1.219526938940e-03 0.0 
1.219526938940e-03 3.790418600391e-03 0.0 
0.0 0.0 0.0 
7.122344235331e-04 9.234248361169e-04 0.0 
9.234248361169e-04 4.361496107567e-03 0.0 
0.0 0.0 0.0 
-6.709958303529e-04 1.923189250334e-03 0.0 
1.923189250334e-03 1.277085085311e-02 0.0 
0.0 0.0 0.0 
-9.524506479549e-04 2.706851271216e-04 0.0 
2.706851271216e-04 6.158627763320e-04 0.0 
0.0 0.0 0.0 
-7.957881118476e-04 1.823553453765e-03 0.0 
1.823553453765e-03 9.272055683242e-03 0.0 
0.0 0.0 0.0 
7.678991258595e-04 9.955738705053e-04 0.0 
9.955738705053e-04 6.925094757250e-03 0.0 
0.0 0.0 0.0 
5.288851583951e-05 -1.292685282233e-04 0.0 
-1.292685282233e-04 7.268161203107e-04 0.0 
0.0 0.0 0.0 
-3.925013936426e-04 1.940376144825e-03 0.0 
1.940376144825e-03 1.425176198107e-02 0.0 
0.0 0.0 0.0 
-1.184292958946e-03 1.149549380299e-03 0.0 
1.149549380299e-03 1.348149013698e-02 0.0 
0.0 0.0 0.0 
8.711837345852e-04 3.686483592541e-06 0.0 
3.686483592541e-06 3.135453788782e-03 0.0 
0.0 0.0 0.0 
8.852355678870e-04 1.118237409923e-03 0.0 
1.118237409923e-03 6.916618703283e-03 0.0 
0.0 0.0 0.0 
-1.424158912764e-03 7.553578630229e-04 0.0 
7.553578630229e-04 1.300772094332e-02 0.0 
0.0 0.0 0.0 
-1.357529807649e-03 5.926587010714e-04 0.0 
5.926587010714e-04 1.344775987607e-02 0.0 
0.0 0.0 0.0 
3.665606002010e-04 1.187519618899e-03 0.0 
1.187519618899e-03 8.118434288917e-03 0.0 
0.0 0.0 0.0 
6.014413989586e-04 -1.416803576064e-04 0.0 
-1.416803576064e-04 2.296579114988e-03 0.0 
0.0 0.0 0.0 
-1.853070652291e-05 1.995344938580e-03 0.0 
1.995344938580e-03 8.377304521155e-03 0.0 
0.0 0.0 0.0 
-1.011296879835e-03 1.761600740896e-03 0.0 
1.761600740896e-03 1.120789825763e-02 0.0 
0.0 0.0 0.0 
-1.270783619053e-03 1.161679036827e-03 0.0 
1.161679036827e-03 1.378127592076e-02 0.0 
0.0 0.0 0.0 
-1.339859488272e-03 1.553578087653e-03 0.0 
1.553578087653e-03 1.208899419403e-02 0.0 
0.0 0.0 0.0 
-1.410839514195e-03 1.475279904747e-03 0.0 
1.475279904747e-03 1.190777232738e-02 0.0 
0.0 0.0 0.0 
8.268715700670e-04 1.443238444221e-03 0.0 
1.443238444221e-03 7.141373237012e-03 0.0 
0.0 0.0 0.0 
-3.602303269035e-04 2.160474225723e-03 0.0 
2.160474225723e-03 1.178405950963e-02 0.0 
0.0 0.0 0.0 
-7.605339827339e-04 2.595488659807e-04 0.0 
2.595488659807e-04 9.024846826056e-04 0.0 
0.0 0.0 0.0 
-3.596126553932e-04 1.712272781232e-03 0.0 
1.712272781232e-03 6.286309927830e-03 0.0 
0.0 0.0 0.0 
-1.411055162965e-04 1.764452518297e-03 0.0 
1.764452518297e-03 6.558065808011e-03 0.0 
0.0 0.0 0.0 
-2.257985913867e-04 1.961228551098e-03 0.0 
1.961228551098e-03 8.731093029043e-03 0.0 
0.0 0.0 0.0 
-9.353633256591e-04 1.756656693260e-03 0.0 
1.756656693260e-03 1.342676506888e-02 0.0 
0.0 0.0 0.0 
1.047464556674e-04 4.754911702120e-04 0.0 
4.754911702120e-04 1.674684129739e-03 0.0 
0.0 0.0 0.0 
8.264961996671e-04 8.472961867544e-04 0.0 
8.472961867544e-04 6.522168370185e-03 0.0 
0.0 0.0 0.0 
-8.498633205317e-04 -1.942445546199e-05 0.0 
-1.942445546199e-05 1.275163718870e-02 0.0 
0.0 0.0 0.0 
7.881384509252e-04 1.153284888858e-03 0.0 
1.153284888858e-03 4.328752343412e-03 0.0 
0.0 0.0 0.0 
8.666984375119e-04 7.075032956045e-04 0.0 
7.075032956045e-04 6.148534927069e-03 0.0 
0.0 0.0 0.0 
-5.036454116947e-05 -1.645454419291e-04 0.0 
-1.645454419291e-04 5.084580351511e-04 0.0 
0.0 0.0 0.0 
-1.055696794502e-03 1.298536837752e-03 0.0 
1.298536837752e-03 1.372069204615e-02 0.0 
0.0 0.0 0.0 
-1.223876224840e-04 -7.652593546191e-05 0.0 
-7.652593546191e-05 4.013645559995e-04 0.0 
0.0 0.0 0.0 
1.371427874324e-04 -1.168907703643e-04 0.0 
-1.168907703643e-04 7.184812612946e-04 0.0 
0.0 0.0 0.0 
-6.580247687978e-04 1.520311058463e-03 0.0 
1.520311058463e-03 3.805647871765e-03 0.0 
0.0 0.0 0.0 
4.825952941103e-04 -1.797612247064e-04 0.0 
-1.797612247064e-04 1.929544802139e-03 0.0 
0.0 0.0 0.0 
-1.127678210200e-03 1.293764839878e-03 0.0 
1.293764839878e-03 1.402929106653e-02 0.0 
0.0 0.0 0.0 
3.782418399860e-04 -2.893892934267e-04 0.0 
-2.893892934267e-04 1.821523871548e-03 0.0 
0.0 0.0 0.0 
1.579360265924e-05 1.199720955546e-03 0.0 
1.199720955546e-03 3.263750227725e-03 0.0 
0.0 0.0 0.0 
2.199794055273e-04 -2.980993527941e-04 0.0 
-2.980993527941e-04 1.497069978098e-03 0.0 
0.0 0.0 0.0 
1.797970252941e-04 -1.884929194023e-04 0.0 
-1.884929194023e-04 1.230419634648e-03 0.0 
0.0 0.0 0.0 
8.110672411406e-04 1.254665964292e-03 0.0 
1.254665964292e-03 7.318070927719e-03 0.0 
0.0 0.0 0.0 
-1.220622342566e-03 1.716780708639e-03 0.0 
1.716780708639e-03 1.156958191429e-02 0.0 
0.0 0.0 0.0 
2.670788971093e-04 3.056446385345e-04 0.0 
3.056446385345e-04 7.693149789672e-03 0.0 
0.0 0.0 0.0 
-7.565443124731e-04 1.621331070040e-04 0.0 
1.621331070040e-04 4.337965394199e-04 0.0 
0.0 0.0 0.0 
2.716332741437e-04 1.202699412386e-03 0.0 
1.202699412386e-03 3.633814824864e-03 0.0 
0.0 0.0 0.0 
8.857762584900e-04 1.212719095180e-03 0.0 
1.212719095180e-03 4.780291591670e-03 0.0 
0.0 0.0 0.0 
-6.022481028646e-04 1.826514550940e-03 0.0 
1.826514550940e-03 8.462093414985e-03 0.0 
0.0 0.0 0.0 
9.378339233082e-04 9.625042624949e-04 0.0 
9.625042624949e-04 6.514133855826e-03 0.0 
0.0 0.0 0.0 
2.529793558439e-04 4.464716824566e-04 0.0 
4.464716824566e-04 7.912697678008e-03 0.0 
0.0 0.0 0.0 
-1.082207274276e-03 1.659251663697e-03 0.0 
1.659251663697e-03 1.319136505506e-02 0.0 
0.0 0.0 0.0 
5.751804926086e-04 6.604478637797e-04 0.0 
6.604478637797e-04 3.431661054737e-03 0.0 
0.0 0.0 0.0 
6.986502599413e-04 1.155714451178e-03 0.0 
1.155714451178e-03 7.318753075187e-03 0.0 
0.0 0.0 0.0 
6.585327754394e-04 7.591840985238e-05 0.0 
7.591840985238e-05 5.382262648177e-03 0.0 
0.0 0.0 0.0 
-3.991438466553e-04 2.008033990561e-03 0.0 
2.008033990561e-03 9.450316257471e-03 0.0 
0.0 0.0 0.0 
-1.100988528002e-03 1.366101630726e-03 0.0 
1.366101630726e-03 1.336930706066e-02 0.0 
0.0 0.0 0.0 
1.862750647350e-04 2.197659705450e-03 0.0 
2.197659705450e-03 1.020192886741e-02 0.0 
0.0 0.0 0.0 
8.012256780980e-04 1.005386349974e-03 0.0 
1.005386349974e-03 4.811219667404e-03 0.0 
0.0 0.0 0.0 
-1.049512756524e-05 1.084238581083e-03 0.0 
1.084238581083e-03 3.895587543493e-03 0.0 
0.0 0.0 0.0 
-1.249743380940e-03 1.623717851133e-03 0.0 
1.623717851133e-03 1.229512175779e-02 0.0 
0.0 0.0 0.0 
-2.098872831255e-04 1.083952670764e-03 0.0 
1.083952670764e-03 1.552149528849e-02 0.0 
0.0 0.0 0.0 
-1.373469784094e-05 1.920040186681e-03 0.0 
1.920040186681e-03 8.386775429184e-03 0.0 
0.0 0.0 0.0 
9.597858673640e-04 1.091965951616e-03 0.0 
1.091965951616e-03 5.664898587043e-03 0.0 
0.0 0.0 0.0 
-8.211506168923e-04 2.700888105702e-05 0.0 
2.700888105702e-05 1.316039761387e-02 0.0 
0.0 0.0 0.0 
-4.716873936783e-05 -3.048345645690e-04 0.0 
-3.048345645690e-04 1.114845252995e-03 0.0 
0.0 0.0 0.0 
-1.282200941501e-03 1.357435247956e-03 0.0 
1.357435247956e-03 1.211959317023e-02 0.0 
0.0 0.0 0.0 
6.526728553100e-04 9.160330327457e-04 0.0 
9.160330327457e-04 3.392667222312e-03 0.0 
0.0 0.0 0.0 
3.403263341237e-04 5.083672390125e-04 0.0 
5.083672390125e-04 2.106183488769e-03 0.0 
0.0 0.0 0.0 
9.243850411855e-05 -2.567837969299e-04 0.0 
-2.567837969299e-04 1.244086783281e-03 0.0 
0.0 0.0 0.0 
-9.858257516620e-04 1.237188047110e-03 0.0 
1.237188047110e-03 1.403598949367e-02 0.0 
0.0 0.0 0.0 
-1.140804956722e-03 1.761557229248e-03 0.0 
1.761557229248e-03 1.177629261302e-02 0.0 
0.0 0.0 0.0 
4.069868484147e-04 1.528905563137e-03 0.0 
1.528905563137e-03 5.270686384113e-03 0.0 
0.0 0.0 0.0 
-1.042846011317e-03 1.224015014328e-03 0.0 
1.224015014328e-03 1.432157329060e-02 0.0 
0.0 0.0 0.0 
-9.230787454404e-04 1.826130261940e-03 0.0 
1.826130261940e-03 1.298859674484e-02 0.0 
0.0 0.0 0.0 
-5.799856833018e-04 2.015422076306e-03 0.0 
2.015422076306e-03 1.014670049840e-02 0.0 
0.0 0.0 0.0 
1.805381988165e-04 5.687872698530e-04 0.0 
5.687872698530e-04 7.961819912703e-03 0.0 
0.0 0.0 0.0 
1.091877503496e-03 1.176246258090e-03 0.0 
1.176246258090e-03 5.620523351653e-03 0.0 
0.0 0.0 0.0 
-7.594939145700e-04 1.977930352666e-03 0.0 
1.977930352666e-03 1.081752352961e-02 0.0 
0.0 0.0 0.0 
5.516697445875e-04 1.470801971376e-03 0.0 
1.470801971376e-03 6.126716120581e-03 0.0 
0.0 0.0 0.0 
9.479062919364e-04 1.185931223191e-03 0.0 
1.185931223191e-03 6.139423157231e-03 0.0 
0.0 0.0 0.0 
5.637685940463e-04 5.508651719218e-04 0.0 
5.508651719218e-04 2.500747877688e-03 0.0 
0.0 0.0 0.0 
-1.329437961221e-03 3.787831913028e-04 0.0 
3.787831913028e-04 1.289781912358e-02 0.0 
0.0 0.0 0.0 
8.989027745092e-04 9.084079022011e-04 0.0 
9.084079022011e-04 4.744918639610e-03 0.0 
0.0 0.0 0.0 
7.216752206562e-04 5.751834658405e-05 0.0 
5.751834658405e-05 2.688551685521e-03 0.0 
0.0 0.0 0.0 
-9.828478999738e-04 1.576634737515e-03 0.0 
1.576634737515e-03 1.320612627037e-02 0.0 
0.0 0.0 0.0 
-1.215411870481e-03 6.268722816157e-05 0.0 
6.268722816157e-05 6.709353168184e-04 0.0 
0.0 0.0 0.0 
-1.410941762399e-03 1.389423917584e-03 0.0 
1.389423917584e-03 1.253060175072e-02 0.0 
0.0 0.0 0.0 
7.876724253038e-04 7.889455763552e-04 0.0 
7.889455763552e-04 3.347965919688e-03 0.0 
0.0 0.0 0.0 
2.285401857434e-04 9.345944189269e-04 0.0 
9.345944189269e-04 3.671273566147e-03 0.0 
0.0 0.0 0.0 
4.665406082949e-04 2.922888860588e-04 0.0 
2.922888860588e-04 2.545327378408e-03 0.0 
0.0 0.0 0.0 
-1.041296462583e-03 1.690691200720e-03 0.0 
1.690691200720e-03 1.202730404549e-02 0.0 
0.0 0.0 0.0 
-1.075521557656e-04 -2.487055892249e-04 0.0 
-2.487055892249e-04 7.829116255020e-04 0.0 
0.0 0.0 0.0 
-2.347324148766e-04 1.844595639572e-03 0.0 
1.844595639572e-03 7.281535807897e-03 0.0 
0.0 0.0 0.0 
1.068733318991e-03 1.265458491300e-03 0.0 
1.265458491300e-03 6.104139783003e-03 0.0 
0.0 0.0 0.0 
-1.129281609189e-03 1.615564165241e-03 0.0 
1.615564165241e-03 1.180148555923e-02 0.0 
0.0 0.0 0.0 
-1.337327109836e-03 5.575463686436e-04 0.0 
5.575463686436e-04 1.312314939574e-02 0.0 
0.0 0.0 0.0 
-6.916143423330e-05 3.509739395863e-04 0.0 
3.509739395863e-04 1.350683400284e-03 0.0 
0.0 0.0 0.0 
8.345711580591e-04 2.599355411597e-04 0.0 
2.599355411597e-04 2.656691452358e-03 0.0 
0.0 0.0 0.0 
6.266341612087e-04 -6.960336595799e-05 0.0 
-6.960336595799e-05 2.382907907658e-03 0.0 
0.0 0.0 0.0 
-4.835507781878e-04 1.690589757626e-03 0.0 
1.690589757626e-03 7.003884763641e-03 0.0 
0.0 0.0 0.0 
-1.220222166905e-03 1.460029429166e-03 0.0 
1.460029429166e-03 1.335275167193e-02 0.0 
0.0 0.0 0.0 
-2.837532537323e-04 1.765733455873e-03 0.0 
1.765733455873e-03 7.293613294877e-03 0.0 
0.0 0.0 0.0 
1.002795087312e-03 9.265739513510e-04 0.0 
9.265739513510e-04 4.225431822942e-03 0.0 
0.0 0.0 0.0 
9.109247315198e-04 1.035505224929e-03 0.0 
1.035505224929e-03 4.261463333581e-03 0.0 
0.0 0.0 0.0 
-1.992438287035e-05 1.951259256316e-04 0.0 
1.951259256316e-04 1.774952830684e-03 0.0 
0.0 0.0 0.0 
7.443018388242e-04 1.534954442427e-03 0.0 
1.534954442427e-03 5.920427618438e-03 0.0 
0.0 0.0 0.0 
-2.814925820225e-04 9.114507363216e-04 0.0 
9.114507363216e-04 2.910137905743e-03 0.0 
0.0 0.0 0.0 
-2.884232294691e-04 1.923480580421e-03 0.0 
1.923480580421e-03 1.481545970821e-02 0.0 
0.0 0.0 0.0 
-2.743289890382e-04 2.239209401668e-03 0.0 
2.239209401668e-03 1.433458156972e-02 0.0 
0.0 0.0 0.0 
1.805641126884e-04 1.961031014758e-03 0.0 
1.961031014758e-03 8.082329871437e-03 0.0 
0.0 0.0 0.0 
6.235975265656e-04 7.324482861544e-04 0.0 
7.324482861544e-04 2.926074922218e-03 0.0 
0.0 0.0 0.0 
2.170783737714e-04 7.460132074639e-04 0.0 
7.460132074639e-04 3.127353664489e-03 0.0 
0.0 0.0 0.0 
-5.643678770737e-04 2.006850209050e-03 0.0 
2.006850209050e-03 1.046976190345e-02 0.0 
0.0 0.0 0.0 
3.931402107489e-04 6.009472204524e-04 0.0 
6.009472204524e-04 3.024886730812e-03 0.0 
0.0 0.0 0.0 
7.373255938035e-04 1.225326637361e-04 0.0 
1.225326637361e-04 2.352414986229e-03 0.0 
0.0 0.0 0.0 
-4.246289783517e-04 2.011307660631e-03 0.0 
2.011307660631e-03 9.449935599139e-03 0.0 
0.0 0.0 0.0 
-3.787849492978e-04 6.507873865654e-04 0.0 
6.507873865654e-04 1.545981498558e-02 0.0 
0.0 0.0 0.0 
8.020384969900e-04 9.718307113839e-04 0.0 
9.718307113839e-04 3.819993397687e-03 0.0 
0.0 0.0 0.0 
9.047687597639e-04 1.575608674983e-03 0.0 
1.575608674983e-03 7.125181039719e-03 0.0 
0.0 0.0 0.0 
1.079254432490e-07 1.039970517596e-03 0.0 
1.039970517596e-03 2.705510059996e-03 0.0 
0.0 0.0 0.0 
2.284151257361e-04 1.569736829339e-03 0.0 
1.569736829339e-03 9.119097600703e-03 0.0 
0.0 0.0 0.0 
4.654467646152e-04 8.763026639058e-04 0.0 
8.763026639058e-04 2.979943390834e-03 0.0 
0.0 0.0 0.0 
-1.979032032766e-04 2.034492564676e-03 0.0 
2.034492564676e-03 9.086120131819e-03 0.0 
0.0 0.0 0.0 
2.342691352182e-04 3.543004343165e-04 0.0 
3.543004343165e-04 1.722662468543e-03 0.0 
0.0 0.0 0.0 
1.109525382775e-03 9.237802051561e-04 0.0 
9.237802051561e-04 5.772973518313e-03 0.0 
0.0 0.0 0.0 
9.844980860567e-04 1.099808693446e-03 0.0 
1.099808693446e-03 4.713876213474e-03 0.0 
0.0 0.0 0.0 
7.885540379959e-04 7.667948258367e-05 0.0 
7.667948258367e-05 2.463679748431e-03 0.0 
0.0 0.0 0.0 
-9.925469722191e-04 1.881681363114e-03 0.0 
1.881681363114e-03 1.119242194966e-02 0.0 
0.0 0.0 0.0 
-1.403664341657e-04 2.622056782543e-03 0.0 
2.622056782543e-03 1.340840933564e-02 0.0 
0.0 0.0 0.0 
9.132231692073e-04 8.542119724662e-04 0.0 
8.542119724662e-04 3.781375945249e-03 0.0 
0.0 0.0 0.0 
9.817647623236e-04 1.122853315185e-03 0.0 
1.122853315185e-03 6.124644729688e-03 0.0 
0.0 0.0 0.0 
-2.423211433999e-05 7.288119495169e-04 0.0 
7.288119495169e-04 2.748125033184e-03 0.0 
0.0 0.0 0.0 
-1.055943582337e-03 4.966462729865e-04 0.0 
4.966462729865e-04 1.388708069177e-02 0.0 
0.0 0.0 0.0 
9.736165051744e-04 8.143038582187e-04 0.0 
8.143038582187e-04 6.134619560878e-03 0.0 
0.0 0.0 0.0 
-3.988269498734e-05 1.242040373913e-03 0.0 
1.242040373913e-03 4.528169376506e-03 0.0 
0.0 0.0 0.0 
-1.160496202647e-03 3.709888831768e-04 0.0 
3.709888831768e-04 1.374723329838e-02 0.0 
0.0 0.0 0.0 
-3.483655726111e-06 2.771434144347e-03 0.0 
2.771434144347e-03 1.233035168816e-02 0.0 
0.0 0.0 0.0 
8.543755020638e-04 9.143838766721e-04 0.0 
9.143838766721e-04 6.659302228401e-03 0.0 
0.0 0.0 0.0 
-1.977125062210e-04 2.520321171206e-03 0.0 
2.520321171206e-03 1.373894436681e-02 0.0 
0.0 0.0 0.0 
-1.280724748498e-03 5.390808612124e-04 0.0 
5.390808612124e-04 1.366581625663e-02 0.0 
0.0 0.0 0.0 
-6.826441925384e-04 2.019330648934e-03 0.0 
2.019330648934e-03 1.224318377768e-02 0.0 
0.0 0.0 0.0 
-3.085092740226e-04 1.210839713294e-03 0.0 
1.210839713294e-03 4.158831758829e-03 0.0 
0.0 0.0 0.0 
-1.057575916366e-03 1.845140445333e-03 0.0 
1.845140445333e-03 1.093760146663e-02 0.0 
0.0 0.0 0.0 
-7.880360285093e-04 1.913158577726e-03 0.0 
1.913158577726e-03 1.082690785139e-02 0.0 
0.0 0.0 0.0 
-9.230943098815e-04 1.902126976235e-03 0.0 
1.902126976235e-03 1.144287206546e-02 0.0 
0.0 0.0 0.0 
1.402871798448e-04 1.826256891022e-03 0.0 
1.826256891022e-03 7.693610825517e-03 0.0 
0.0 0.0 0.0 
6.576086436527e-05 2.719083501291e-03 0.0 
2.719083501291e-03 1.163250794372e-02 0.0 
0.0 0.0 0.0 
-1.305796677282e-03 7.900537790592e-04 0.0 
7.900537790592e-04 1.326668004898e-02 0.0 
0.0 0.0 0.0 
-1.485402912542e-03 1.280947207776e-03 0.0 
1.280947207776e-03 1.233149500326e-02 0.0 
0.0 0.0 0.0 
8.247020939871e-04 8.198457539970e-04 0.0 
8.198457539970e-04 4.294627422775e-03 0.0 
0.0 0.0 0.0 
3.389431937713e-04 -1.918812944953e-04 0.0 
-1.918812944953e-04 1.580553785792e-03 0.0 
0.0 0.0 0.0 
-1.292101621701e-03 1.660151486080e-03 0.0 
1.660151486080e-03 1.134723715632e-02 0.0 
0.0 0.0 0.0 
2.634814654181e-04 1.352251147200e-03 0.0 
1.352251147200e-03 4.227272946194e-03 0.0 
0.0 0.0 0.0 
-8.207265362793e-04 3.658228555035e-06 0.0 
3.658228555035e-06 1.279026096446e-02 0.0 
0.0 0.0 0.0 
6.784723208670e-04 -9.893140283724e-05 0.0 
-9.893140283724e-05 2.490352415762e-03 0.0 
0.0 0.0 0.0 
7.178307172429e-04 7.346261913959e-04 0.0 
7.346261913959e-04 3.854269204011e-03 0.0 
0.0 0.0 0.0 
-9.528856487658e-04 1.504126894652e-03 0.0 
1.504126894652e-03 1.359853400491e-02 0.0 
0.0 0.0 0.0 
2.130694470970e-04 1.116083701624e-03 0.0 
1.116083701624e-03 4.258240496484e-03 0.0 
0.0 0.0 0.0 
-8.376146355222e-04 1.879529443340e-03 0.0 
1.879529443340e-03 1.054684992966e-02 0.0 
0.0 0.0 0.0 
1.087069401117e-03 1.195073063663e-03 0.0 
1.195073063663e-03 6.108939889859e-03 0.0 
0.0 0.0 0.0 
1.059867841394e-03 3.586083757763e-04 0.0 
3.586083757763e-04 4.517922272200e-03 0.0 
0.0 0.0 0.0 
1.696186969682e-04 2.485374128428e-03 0.0 
2.485374128428e-03 1.067420219090e-02 0.0 
0.0 0.0 0.0 
-9.632328086271e-04 1.859265327912e-03 0.0 
1.859265327912e-03 1.000951193671e-02 0.0 
0.0 0.0 0.0 
7.672666111571e-04 3.368456051726e-04 0.0 
3.368456051726e-04 2.575935405194e-03 0.0 
0.0 0.0 0.0 
7.737141126474e-04 -1.102140332026e-04 0.0 
-1.102140332026e-04 3.009746752819e-03 0.0 
0.0 0.0 0.0 
-3.867673913505e-04 1.460385078139e-03 0.0 
1.460385078139e-03 5.514572670000e-03 0.0 
0.0 0.0 0.0 
-7.281241579782e-06 1.471236637019e-03 0.0 
1.471236637019e-03 4.502853501232e-03 0.0 
0.0 0.0 0.0 
-7.733325194356e-04 1.916105316026e-03 0.0 
1.916105316026e-03 1.322820160532e-02 0.0 
0.0 0.0 0.0 
-3.575698518720e-04 2.028163951282e-03 0.0 
2.028163951282e-03 9.786279268737e-03 0.0 
0.0 0.0 0.0 
-6.680903414437e-04 1.817630961439e-03 0.0 
1.817630961439e-03 8.462944780303e-03 0.0 
0.0 0.0 0.0 
-8.819953562496e-04 1.828776644430e-03 0.0 
1.828776644430e-03 1.026998582342e-02 0.0 
0.0 0.0 0.0 
2.284529879948e-04 1.994598766384e-03 0.0 
1.994598766384e-03 9.645406449974e-03 0.0 
0.0 0.0 0.0 
3.664998044794e-04 1.864950051519e-03 0.0 
1.864950051519e-03 9.191522780109e-03 0.0 
0.0 0.0 0.0 
-6.761409728271e-04 1.865988743239e-03 0.0 
1.865988743239e-03 1.323795613536e-02 0.0 
0.0 0.0 0.0 
-1.191713413821e-03 1.373214880147e-03 0.0 
1.373214880147e-03 1.370872727175e-02 0.0 
0.0 0.0 0.0 
9.822941517001e-04 2.572206759009e-04 0.0 
2.572206759009e-04 4.387813606086e-03 0.0 
0.0 0.0 0.0 
-4.474475492477e-05 1.715873149788e-03 0.0 
1.715873149788e-03 6.926553795761e-03 0.0 
0.0 0.0 0.0 
5.337489466215e-04 4.721200331138e-04 0.0 
4.721200331138e-04 2.967851388600e-03 0.0 
0.0 0.0 0.0 
6.954162323378e-04 5.481021694655e-04 0.0 
5.481021694655e-04 3.385358011222e-03 0.0 
0.0 0.0 0.0 
-1.792137219533e-04 1.994811976615e-03 0.0 
1.994811976615e-03 9.091869615201e-03 0.0 
0.0 0.0 0.0 
1.029219657460e-03 8.474951132682e-04 0.0 
8.474951132682e-04 5.721398431997e-03 0.0 
0.0 0.0 0.0 
7.687788291730e-04 -4.923382322334e-05 0.0 
-4.923382322334e-05 3.640601904808e-03 0.0 
0.0 0.0 0.0 
-7.814196752574e-04 1.638848004696e-03 0.0 
1.638848004696e-03 1.382615296447e-02 0.0 
0.0 0.0 0.0 
6.581040977012e-04 1.138312816425e-04 0.0 
1.138312816425e-04 2.611279592910e-03 0.0 
0.0 0.0 0.0 
2.757751435438e-04 1.702594692695e-03 0.0 
1.702594692695e-03 7.012397222300e-03 0.0 
0.0 0.0 0.0 
-6.094594007487e-04 1.978309955394e-03 0.0 
1.978309955394e-03 1.015410564449e-02 0.0 
0.0 0.0 0.0 
1.870636355863e-04 1.640081522274e-03 0.0 
1.640081522274e-03 6.610916919527e-03 0.0 
0.0 0.0 0.0 
-2.454316139635e-04 2.400162273727e-03 0.0 
2.400162273727e-03 1.404514002900e-02 0.0 
0.0 0.0 0.0 
-2.635551090711e-04 2.092327801407e-03 0.0 
2.092327801407e-03 1.457305790667e-02 0.0 
0.0 0.0 0.0 
-5.274349326245e-04 1.950026253909e-03 0.0 
1.950026253909e-03 1.425107265737e-02 0.0 
0.0 0.0 0.0 
9.783540861887e-04 3.614924824902e-04 0.0 
3.614924824902e-04 4.839690567347e-03 0.0 
0.0 0.0 0.0 
-8.914808600333e-04 1.185935779862e-03 0.0 
1.185935779862e-03 1.432582321719e-02 0.0 
0.0 0.0 0.0 
7.994081077323e-06 1.342136908557e-03 0.0 
1.342136908557e-03 3.865587084074e-03 0.0 
0.0 0.0 0.0 
8.195285153689e-04 6.332843647402e-04 0.0 
6.332843647402e-04 3.815843020272e-03 0.0 
0.0 0.0 0.0 
2.521775542070e-04 2.368595310721e-04 0.0 
2.368595310721e-04 2.153026837106e-03 0.0 
0.0 0.0 0.0 
-3.970073572683e-04 1.843838966186e-03 0.0 
1.843838966186e-03 8.022761354713e-03 0.0 
0.0 0.0 0.0 
-1.258269344811e-03 2.614495508407e-04 0.0 
2.614495508407e-04 1.292459204587e-02 0.0 
0.0 0.0 0.0 
-1.128389587881e-03 4.994658138966e-04 0.0 
4.994658138966e-04 1.366921623316e-02 0.0 
0.0 0.0 0.0 
4.076133108233e-04 1.520987464026e-03 0.0 
1.520987464026e-03 8.671689994350e-03 0.0 
0.0 0.0 0.0 
-4.905909406722e-04 2.053275566449e-03 0.0 
2.053275566449e-03 1.252589744908e-02 0.0 
0.0 0.0 0.0 
-1.205763196290e-03 1.470380812107e-03 0.0 
1.470380812107e-03 1.231826414183e-02 0.0 
0.0 0.0 0.0 
-7.220822610777e-04 1.943258040167e-03 0.0 
1.943258040167e-03 1.111792108536e-02 0.0 
0.0 0.0 0.0 
4.746042239507e-04 3.856351152556e-04 0.0 
3.856351152556e-04 2.118324827784e-03 0.0 
0.0 0.0 0.0 
-2.278208545178e-04 -2.185750747999e-04 0.0 
-2.185750747999e-04 8.456656074696e-04 0.0 
0.0 0.0 0.0 
8.300940882873e-04 1.376917402891e-03 0.0 
1.376917402891e-03 5.333349091718e-03 0.0 
0.0 0.0 0.0 
3.251595795020e-04 1.755683222115e-03 0.0 
1.755683222115e-03 7.423248041923e-03 0.0 
0.0 0.0 0.0 
6.901738695728e-04 1.362108129206e-03 0.0 
1.362108129206e-03 5.945389401445e-03 0.0 
0.0 0.0 0.0 
-6.586710462101e-04 1.174832919199e-03 0.0 
1.174832919199e-03 1.913630974245e-03 0.0 
0.0 0.0 0.0 
-7.865849909353e-04 4.125458860018e-05 0.0 
4.125458860018e-05 1.314267869089e-02 0.0 
0.0 0.0 0.0 
2.355262171114e-04 -3.036230171814e-04 0.0 
-3.036230171814e-04 1.466696271798e-03 0.0 
0.0 0.0 0.0 
4.828848977798e-04 1.055762929891e-03 0.0 
1.055762929891e-03 3.483792860163e-03 0.0 
0.0 0.0 0.0 
0.0 1.567479913646e-03 0.0 
1.567479913646e-03 9.201114497764e-03 0.0 
0.0 0.0 0.0 
8.535581495690e-04 1.394067643559e-03 0.0 
1.394067643559e-03 7.122486104730e-03 0.0 
0.0 0.0 0.0 
-1.368217120648e-03 1.048372399545e-03 0.0 
1.048372399545e-03 1.235948472899e-02 0.0 
0.0 0.0 0.0 
1.752898680780e-04 -6.032752570435e-06 0.0 
-6.032752570435e-06 1.011859925928e-03 0.0 
0.0 0.0 0.0 
1.490903687666e-04 1.929774079331e-03 0.0 
1.929774079331e-03 7.679365705946e-03 0.0 
0.0 0.0 0.0 
7.572433915821e-04 1.184364856300e-03 0.0 
1.184364856300e-03 5.360805957715e-03 0.0 
0.0 0.0 0.0 
-1.056912515479e-03 1.799649191478e-03 0.0 
1.799649191478e-03 1.201353033621e-02 0.0 
0.0 0.0 0.0 
-7.757738727443e-05 2.706562119185e-03 0.0 
2.706562119185e-03 1.304599891971e-02 0.0 
0.0 0.0 0.0 
-1.056098703353e-03 1.709715630161e-03 0.0 
1.709715630161e-03 1.095287586063e-02 0.0 
0.0 0.0 0.0 
-5.368343775249e-04 2.029413071316e-03 0.0 
2.029413071316e-03 1.046674908448e-02 0.0 
0.0 0.0 0.0 
8.430000770403e-04 3.598061447256e-05 0.0 
3.598061447256e-05 3.627433809451e-03 0.0 
0.0 0.0 0.0 
-8.972129178190e-04 1.445173967239e-03 0.0 
1.445173967239e-03 1.395404182814e-02 0.0 
0.0 0.0 0.0 
1.043011157813e-03 4.557453254596e-04 0.0 
4.557453254596e-04 4.976954244497e-03 0.0 
0.0 0.0 0.0 
-5.907076216316e-05 2.754694022302e-03 0.0 
2.754694022302e-03 1.269455999894e-02 0.0 
0.0 0.0 0.0 
0.0 2.330533234910e-03 0.0 
2.330533234910e-03 1.388827375217e-02 0.0 
0.0 0.0 0.0 
0.0 1.735922091557e-03 0.0 
1.735922091557e-03 1.493715956945e-02 0.0 
0.0 0.0 0.0 
0.0 2.041588268311e-03 0.0 
2.041588268311e-03 1.446864905981e-02 0.0 
0.0 0.0 0.0 
-8.503340875200e-04 1.856493371294e-03 0.0 
1.856493371294e-03 1.172141818562e-02 0.0 
0.0 0.0 0.0 
-1.029515108394e-03 1.493952099237e-03 0.0 
1.493952099237e-03 1.394824395023e-02 0.0 
0.0 0.0 0.0 
-5.043595435092e-04 2.037445662178e-03 0.0 
2.037445662178e-03 1.301931439626e-02 0.0 
0.0 0.0 0.0 
2.270950554339e-04 1.793721146541e-03 0.0 
1.793721146541e-03 6.592039938619e-03 0.0 
0.0 0.0 0.0 
7.636969034719e-06 1.834709588821e-03 0.0 
1.834709588821e-03 6.911370427241e-03 0.0 
0.0 0.0 0.0 
7.199464363177e-04 -8.723999478687e-05 0.0 
-8.723999478687e-05 3.407063916707e-03 0.0 
0.0 0.0 0.0 
-9.069326120712e-04 1.688193209177e-03 0.0 
1.688193209177e-03 1.381953801688e-02 0.0 
0.0 0.0 0.0 
3.570472076242e-05 2.756972152505e-03 0.0 
2.756972152505e-03 1.197117385546e-02 0.0 
0.0 0.0 0.0 
-8.121917746565e-04 1.381724296732e-03 0.0 
1.381724296732e-03 1.427142521965e-02 0.0 
0.0 0.0 0.0 
9.121594067316e-04 1.286436245849e-03 0.0 
1.286436245849e-03 6.626617304467e-03 0.0 
0.0 0.0 0.0 
-9.529787547431e-04 1.423549365995e-03 0.0 
1.423549365995e-03 1.426637264214e-02 0.0 
0.0 0.0 0.0 
3.242405368726e-04 1.958400656414e-03 0.0 
1.958400656414e-03 9.116211937837e-03 0.0 
0.0 0.0 0.0 
4.771832550408e-04 1.761155870478e-03 0.0 
1.761155870478e-03 6.746950444457e-03 0.0 
0.0 0.0 0.0 
-3.594314266649e-04 1.898661915756e-03 0.0 
1.898661915756e-03 8.016917052350e-03 0.0 
0.0 0.0 0.0 
2.346046225830e-04 8.581686432640e-04 0.0 
8.581686432640e-04 2.580676863631e-03 0.0 
0.0 0.0 0.0 
-2.550939239638e-04 1.129517988051e-03 0.0 
1.129517988051e-03 1.523001164777e-02 0.0 
0.0 0.0 0.0 
3.331028883158e-04 1.677188092716e-03 0.0 
1.677188092716e-03 5.924789656577e-03 0.0 
0.0 0.0 0.0 
9.785121679062e-05 2.304259192333e-03 0.0 
2.304259192333e-03 1.103949976348e-02 0.0 
0.0 0.0 0.0 
7.855640909977e-04 -6.732921585668e-06 0.0 
-6.732921585668e-06 3.394625348735e-03 0.0 
0.0 0.0 0.0 
5.765461091372e-04 -1.908338356553e-04 0.0 
-1.908338356553e-04 2.226930680775e-03 0.0 
0.0 0.0 0.0 
2.369947377150e-04 1.404872597042e-03 0.0 
1.404872597042e-03 8.592737154353e-03 0.0 
0.0 0.0 0.0 
4.747699478780e-04 1.222677885906e-03 0.0 
1.222677885906e-03 4.028174000103e-03 0.0 
0.0 0.0 0.0 
0.0 2.445804813095e-03 0.0 
2.445804813095e-03 1.357299581237e-02 0.0 
0.0 0.0 0.0 
-3.217003018966e-04 1.794819990522e-03 0.0 
1.794819990522e-03 1.450075648179e-02 0.0 
0.0 0.0 0.0 
-1.703221927798e-04 2.055740753478e-03 0.0 
2.055740753478e-03 9.457330384657e-03 0.0 
0.0 0.0 0.0 
-2.243346405230e-04 -1.690758124524e-04 0.0 
-1.690758124524e-04 4.988298704047e-04 0.0 
0.0 0.0 0.0 
0.0 2.582836659580e-03 0.0 
2.582836659580e-03 1.287388705129e-02 0.0 
0.0 0.0 0.0 
2.222084045733e-04 1.641136758622e-03 0.0 
1.641136758622e-03 8.942880177159e-03 0.0 
0.0 0.0 0.0 
6.772674731648e-04 -2.921755542304e-05 0.0 
-2.921755542304e-05 2.202005057535e-03 0.0 
0.0 0.0 0.0 
9.342975060129e-04 1.230009928419e-03 0.0 
1.230009928419e-03 6.614399453206e-03 0.0 
0.0 0.0 0.0 
1.739401825773e-04 2.369727932929e-03 0.0 
2.369727932929e-03 1.038521223946e-02 0.0 
0.0 0.0 0.0 
-3.795176179127e-04 -6.811801621787e-05 0.0 
-6.811801621787e-05 2.872513215357e-04 0.0 
0.0 0.0 0.0 
4.217495778323e-04 1.717432945377e-03 0.0 
1.717432945377e-03 6.331005755497e-03 0.0 
0.0 0.0 0.0 
-3.485306463236e-04 2.057478582622e-03 0.0 
2.057478582622e-03 1.013598399778e-02 0.0 
0.0 0.0 0.0 
9.040769732183e-06 2.024645469997e-03 0.0 
2.024645469997e-03 8.768296351638e-03 0.0 
0.0 0.0 0.0 
-3.824125086056e-04 2.039787574026e-03 0.0 
2.039787574026e-03 9.784772184208e-03 0.0 
0.0 0.0 0.0 
2.673293991360e-04 1.034373639527e-03 0.0 
1.034373639527e-03 3.083664838762e-03 0.0 
0.0 0.0 0.0 
0.0 2.619415416612e-03 0.0 
2.619415416612e-03 1.214832464187e-02 0.0 
0.0 0.0 0.0 
9.099557441670e-04 7.242008366254e-04 0.0 
7.242008366254e-04 4.257827613632e-03 0.0 
0.0 0.0 0.0 
-1.303122059817e-04 1.903112361318e-05 0.0 
1.903112361318e-05 1.406642584807e-03 0.0 
0.0 0.0 0.0 
2.931847032870e-04 6.189897307256e-04 0.0 
6.189897307256e-04 7.981257577945e-03 0.0 
0.0 0.0 0.0 
-3.811249247065e-04 -1.581724761160e-04 0.0 
-1.581724761160e-04 5.411727609546e-04 0.0 
0.0 0.0 0.0 
-6.984146934046e-04 1.896811241534e-03 0.0 
1.896811241534e-03 9.549243483626e-03 0.0 
0.0 0.0 0.0 
1.047808076149e-04 -1.970245098939e-04 0.0 
-1.970245098939e-04 1.105101602388e-03 0.0 
0.0 0.0 0.0 
-1.244809370006e-03 1.422304606084e-03 0.0 
1.422304606084e-03 1.137714091477e-02 0.0 
0.0 0.0 0.0 
2.268304201818e-04 1.837053478424e-03 0.0 
1.837053478424e-03 9.441401786091e-03 0.0 
0.0 0.0 0.0 
0.0 2.557892888915e-03 0.0 
2.557892888915e-03 1.145214592756e-02 0.0 
0.0 0.0 0.0 
-9.326619398367e-04 1.810988692172e-03 0.0 
1.810988692172e-03 1.145557105444e-02 0.0 
0.0 0.0 0.0 
-1.135357681346e-04 -2.318715450867e-04 0.0 
-2.318715450867e-04 8.309127838688e-04 0.0 
0.0 0.0 0.0 
-2.013885661192e-04 1.735388749560e-04 0.0 
1.735388749560e-04 1.070973419287e-03 0.0 
0.0 0.0 0.0 
-1.122452435525e-04 -2.097740605256e-04 0.0 
-2.097740605256e-04 1.200417243909e-03 0.0 
0.0 0.0 0.0 
5.952277420556e-04 5.839659495798e-04 0.0 
5.839659495798e-04 6.811563204385e-03 0.0 
0.0 0.0 0.0 
-1.225722162465e-03 3.376014167982e-04 0.0 
3.376014167982e-04 1.282120253806e-02 0.0 
0.0 0.0 0.0 
-1.506982487474e-03 1.104729634515e-03 0.0 
1.104729634515e-03 1.268571089300e-02 0.0 
0.0 0.0 0.0 
0.0 2.419364224992e-03 0.0 
2.419364224992e-03 1.082531714336e-02 0.0 
0.0 0.0 0.0 
-1.150232169203e-03 2.280448062605e-04 0.0 
2.280448062605e-04 1.284534137958e-02 0.0 
0.0 0.0 0.0 
-2.626678420644e-04 1.737118327859e-03 0.0 
1.737118327859e-03 1.501837318257e-02 0.0 
0.0 0.0 0.0 
4.666372398527e-04 1.996248373995e-03 0.0 
1.996248373995e-03 8.924623891878e-03 0.0 
0.0 0.0 0.0 
-1.084281741687e-03 3.485120930771e-04 0.0 
3.485120930771e-04 1.352618934669e-02 0.0 
0.0 0.0 0.0 
-5.947731369360e-05 1.593757094656e-03 0.0 
1.593757094656e-03 5.134899444393e-03 0.0 
0.0 0.0 0.0 
1.021459184195e-03 1.357388315768e-03 0.0 
1.357388315768e-03 6.596190883474e-03 0.0 
0.0 0.0 0.0 
1.043599533155e-04 3.714591283547e-04 0.0 
3.714591283547e-04 2.183632745284e-03 0.0 
0.0 0.0 0.0 
0.0 2.207892324819e-03 0.0 
2.207892324819e-03 1.025632063651e-02 0.0 
0.0 0.0 0.0 
0.0 2.196802497345e-03 0.0 
2.196802497345e-03 1.419104300689e-02 0.0 
0.0 0.0 0.0 
0.0 1.887584678030e-03 0.0 
1.887584678030e-03 1.473067499636e-02 0.0 
0.0 0.0 0.0 
9.409104465243e-04 3.506883061845e-04 0.0 
3.506883061845e-04 4.993101398623e-03 0.0 
0.0 0.0 0.0 
6.699076331540e-04 -1.125059772098e-04 0.0 
-1.125059772098e-04 3.179934662878e-03 0.0 
0.0 0.0 0.0 
4.507343655391e-04 1.622939237276e-03 0.0 
1.622939237276e-03 6.768290024962e-03 0.0 
0.0 0.0 0.0 
9.925125096046e-04 4.375553613080e-04 0.0 
4.375553613080e-04 5.137014490528e-03 0.0 
0.0 0.0 0.0 
0.0 1.974234807480e-03 0.0 
1.974234807480e-03 9.783505011044e-03 0.0 
0.0 0.0 0.0 
4.213055410602e-04 7.901441175934e-04 0.0 
7.901441175934e-04 3.523735524358e-03 0.0 
0.0 0.0 0.0 
8.846469812041e-04 1.997154064291e-04 0.0 
1.997154064291e-04 2.754024973820e-03 0.0 
0.0 0.0 0.0 
9.182321248828e-04 1.540975104549e-04 0.0 
1.540975104549e-04 2.862645727862e-03 0.0 
0.0 0.0 0.0 
-1.023113477182e-03 3.625194414454e-04 0.0 
3.625194414454e-04 1.374775216871e-02 0.0 
0.0 0.0 0.0 
1.909876343147e-04 1.418688102815e-03 0.0 
1.418688102815e-03 8.978863981880e-03 0.0 
0.0 0.0 0.0 
-3.355414562027e-04 -2.130380645885e-04 0.0 
-2.130380645885e-04 9.070093444228e-04 0.0 
0.0 0.0 0.0 
0.0 1.696234114326e-03 0.0 
1.696234114326e-03 9.354429781993e-03 0.0 
0.0 0.0 0.0 
8.252115819067e-04 4.065763758165e-05 0.0 
4.065763758165e-05 2.586125441120e-03 0.0 
0.0 0.0 0.0 
0.0 2.534909991841e-03 0.0 
2.534909991841e-03 1.323593529318e-02 0.0 
0.0 0.0 0.0 
-6.191387454845e-04 2.071118408417e-03 0.0 
2.071118408417e-03 1.301440339123e-02 0.0 
0.0 0.0 0.0 
-6.047598021878e-04 -6.521638707121e-05 0.0 
-6.521638707121e-05 3.671615949643e-04 0.0 
0.0 0.0 0.0 
5.933620478764e-04 1.625789621377e-03 0.0 
1.625789621377e-03 6.102999556662e-03 0.0 
0.0 0.0 0.0 
-9.335960542161e-04 1.164443078599e-03 0.0 
1.164443078599e-03 1.458215073409e-02 0.0 
0.0 0.0 0.0 
0.0 2.617344329960e-03 0.0 
2.617344329960e-03 1.251229761818e-02 0.0 
0.0 0.0 0.0 
-8.506385489366e-04 1.928390413002e-03 0.0 
1.928390413002e-03 1.171195994267e-02 0.0 
0.0 0.0 0.0 
5.576965690719e-04 1.959207005156e-03 0.0 
1.959207005156e-03 8.781806074843e-03 0.0 
0.0 0.0 0.0 
-3.169447797791e-05 8.636697394785e-04 0.0 
8.636697394785e-04 2.193744380032e-03 0.0 
0.0 0.0 0.0 
4.328754896097e-04 1.480098031867e-03 0.0 
1.480098031867e-03 8.364290561594e-03 0.0 
0.0 0.0 0.0 
8.488269010400e-04 1.968780874742e-05 0.0 
1.968780874742e-05 2.718704342785e-03 0.0 
0.0 0.0 0.0 
8.071849893534e-04 -1.022966432263e-05 0.0 
-1.022966432263e-05 2.885085303924e-03 0.0 
0.0 0.0 0.0 
-6.190567293922e-04 -1.652376362199e-04 0.0 
-1.652376362199e-04 6.736661146927e-04 0.0 
0.0 0.0 0.0 
0.0 2.598124702079e-03 0.0 
2.598124702079e-03 1.179477889990e-02 0.0 
0.0 0.0 0.0 
3.338432198738e-04 4.126950652933e-04 0.0 
4.126950652933e-04 2.566642123940e-03 0.0 
0.0 0.0 0.0 
7.096138309375e-04 9.675126829890e-04 0.0 
9.675126829890e-04 7.066295336094e-03 0.0 
0.0 0.0 0.0 
-1.156465646606e-03 2.338175561506e-04 0.0 
2.338175561506e-04 1.334411962908e-02 0.0 
0.0 0.0 0.0 
5.631573753777e-04 -2.444917522618e-04 0.0 
-2.444917522618e-04 2.260665482253e-03 0.0 
0.0 0.0 0.0 
7.720503227648e-04 1.762862891974e-05 0.0 
1.762862891974e-05 2.780872496892e-03 0.0 
0.0 0.0 0.0 
-7.046200382307e-04 1.994142389627e-03 0.0 
1.994142389627e-03 1.111096028403e-02 0.0 
0.0 0.0 0.0 
0.0 2.316088849798e-03 0.0 
2.316088849798e-03 1.053405437409e-02 0.0 
0.0 0.0 0.0 
7.248920528846e-04 -1.639859900850e-05 0.0 
-1.639859900850e-05 3.343498844502e-03 0.0 
0.0 0.0 0.0 
8.904037184470e-04 5.751138366947e-04 0.0 
5.751138366947e-04 5.796559773957e-03 0.0 
0.0 0.0 0.0 
3.584894557098e-04 1.907944623422e-03 0.0 
1.907944623422e-03 7.826231015107e-03 0.0 
0.0 0.0 0.0 
1.024247599681e-03 6.534477981137e-04 0.0 
6.534477981137e-04 5.400917465239e-03 0.0 
0.0 0.0 0.0 
8.510303298694e-04 1.515563099187e-04 0.0 
1.515563099187e-04 3.096649711236e-03 0.0 
0.0 0.0 0.0 
9.480796651020e-04 4.679706852506e-04 0.0 
4.679706852506e-04 5.308940190768e-03 0.0 
0.0 0.0 0.0 
1.800926597617e-04 1.867735665702e-03 0.0 
1.867735665702e-03 8.094787878309e-03 0.0 
0.0 0.0 0.0 
4.241011400308e-05 2.067131287238e-03 0.0 
2.067131287238e-03 9.965622431628e-03 0.0 
0.0 0.0 0.0 
9.473591733262e-04 1.454035206836e-03 0.0 
1.454035206836e-03 7.096675034955e-03 0.0 
0.0 0.0 0.0 
5.060731032183e-04 1.803294396314e-03 0.0 
1.803294396314e-03 7.173393425234e-03 0.0 
0.0 0.0 0.0 
8.566200058819e-04 2.303650250078e-05 0.0 
2.303650250078e-05 3.455798368708e-03 0.0 
0.0 0.0 0.0 
4.204288283318e-04 9.773877231880e-04 0.0 
9.773877231880e-04 4.063749614992e-03 0.0 
0.0 0.0 0.0 
7.266146843727e-04 -3.663413839960e-05 0.0 
-3.663413839960e-05 3.168229977255e-03 0.0 
0.0 0.0 0.0 
4.270702655431e-04 1.919515467042e-03 0.0 
1.919515467042e-03 8.938409914750e-03 0.0 
0.0 0.0 0.0 
1.122858205238e-03 1.098905337736e-03 0.0 
1.098905337736e-03 5.622645192100e-03 0.0 
0.0 0.0 0.0 
2.202024614009e-04 1.697960248907e-03 0.0 
1.697960248907e-03 9.278428478360e-03 0.0 
0.0 0.0 0.0 
-8.573617428653e-04 1.358629711833e-03 0.0 
1.358629711833e-03 1.455687221835e-02 0.0 
0.0 0.0 0.0 
5.405491936992e-04 -1.649818293161e-04 0.0 
-1.649818293161e-04 2.023495857752e-03 0.0 
0.0 0.0 0.0 
0.0 1.830972143743e-03 0.0 
1.830972143743e-03 9.533733994663e-03 0.0 
0.0 0.0 0.0 
4.335134211235e-04 1.660185876877e-03 0.0 
1.660185876877e-03 8.849941719498e-03 0.0 
0.0 0.0 0.0 
8.646602362679e-04 1.436345822980e-03 0.0 
1.436345822980e-03 5.790685199340e-03 0.0 
0.0 0.0 0.0 
-3.325212815309e-04 -1.749666104317e-04 0.0 
-1.749666104317e-04 5.570459993318e-04 0.0 
0.0 0.0 0.0 
2.244844705461e-04 1.297976645042e-03 0.0 
1.297976645042e-03 8.858986125807e-03 0.0 
0.0 0.0 0.0 
-8.431252848390e-04 1.617392095416e-03 0.0 
1.617392095416e-03 1.417356419611e-02 0.0 
0.0 0.0 0.0 
7.194202098937e-04 -5.042404854872e-05 0.0 
-5.042404854872e-05 2.332948947610e-03 0.0 
0.0 0.0 0.0 
0.0 1.430909907038e-03 0.0 
1.430909907038e-03 9.034721351039e-03 0.0 
0.0 0.0 0.0 
9.004160493660e-04 4.528553443123e-04 0.0 
4.528553443123e-04 5.466945481772e-03 0.0 
0.0 0.0 0.0 
-1.259203587849e-04 1.907931942823e-03 0.0 
1.907931942823e-03 7.624009253247e-03 0.0 
0.0 0.0 0.0 
-1.321986437509e-03 1.205946830395e-03 0.0 
1.205946830395e-03 1.255578943587e-02 0.0 
0.0 0.0 0.0 
1.004196316306e-03 1.017572968317e-03 0.0 
1.017572968317e-03 5.640892685812e-03 0.0 
0.0 0.0 0.0 
9.548421419352e-04 2.483469069196e-04 0.0 
2.483469069196e-04 4.534429527159e-03 0.0 
0.0 0.0 0.0 
1.007470393505e-03 8.060741407074e-04 0.0 
8.060741407074e-04 5.792804080303e-03 0.0 
0.0 0.0 0.0 
-1.323080975218e-03 1.247823671096e-03 0.0 
1.247823671096e-03 1.346817136341e-02 0.0 
0.0 0.0 0.0 
-4.661108732243e-04 1.974051612648e-03 0.0 
1.974051612648e-03 9.116615249573e-03 0.0 
0.0 0.0 0.0 
8.592711330020e-04 1.613421163333e-03 0.0 
1.613421163333e-03 7.609921486109e-03 0.0 
0.0 0.0 0.0 
-7.909904352899e-04 3.912983166058e-05 0.0 
3.912983166058e-05 1.348134372469e-02 0.0 
0.0 0.0 0.0 
7.754067990511e-04 -6.732045959633e-05 0.0 
-6.732045959633e-05 3.469824106736e-03 0.0 
0.0 0.0 0.0 
1.025619300393e-03 1.293886153024e-03 0.0 
1.293886153024e-03 6.604498158749e-03 0.0 
0.0 0.0 0.0 
7.467936000993e-04 -1.204526151562e-04 0.0 
-1.204526151562e-04 2.736937029219e-03 0.0 
0.0 0.0 0.0 
8.131817778607e-04 2.247927607808e-04 0.0 
2.247927607808e-04 5.101591319577e-03 0.0 
0.0 0.0 0.0 
-7.179246471301e-04 -6.841846201182e-05 0.0 
-6.841846201182e-05 4.133538845701e-04 0.0 
0.0 0.0 0.0 
3.947729674554e-04 1.166936121607e-03 0.0 
1.166936121607e-03 4.652621230746e-03 0.0 
0.0 0.0 0.0 
7.180973473013e-04 -1.150383218290e-04 0.0 
-1.150383218290e-04 2.608751634068e-03 0.0 
0.0 0.0 0.0 
8.262026762478e-04 4.846276725866e-05 0.0 
4.846276725866e-05 3.803767058776e-03 0.0 
0.0 0.0 0.0 
7.687432432666e-04 1.589260395382e-03 0.0 
1.589260395382e-03 6.371899034070e-03 0.0 
0.0 0.0 0.0 
9.990015779335e-04 5.537030668164e-04 0.0 
5.537030668164e-04 5.451550629293e-03 0.0 
0.0 0.0 0.0 
-1.102186666600e-03 2.484069640268e-04 0.0 
2.484069640268e-04 1.358367880192e-02 0.0 
0.0 0.0 0.0 
6.209648723188e-04 -1.971639623445e-04 0.0 
-1.971639623445e-04 2.356348852028e-03 0.0 
0.0 0.0 0.0 
0.0 1.314190664463e-03 0.0 
1.314190664463e-03 8.922535144144e-03 0.0 
0.0 0.0 0.0 
-3.239579992356e-04 2.048796054211e-03 0.0 
2.048796054211e-03 1.013705803522e-02 0.0 
0.0 0.0 0.0 
8.067257414603e-04 5.977471050235e-05 0.0 
5.977471050235e-05 3.981331200333e-03 0.0 
0.0 0.0 0.0 
-1.497795443437e-04 2.019486264280e-03 0.0 
2.019486264280e-03 9.462295897605e-03 0.0 
0.0 0.0 0.0 
7.593041145597e-04 -3.126163716642e-05 0.0 
-3.126163716642e-05 3.816004148125e-03 0.0 
0.0 0.0 0.0 
-4.597072053599e-04 -7.016211238969e-05 0.0 
-7.016211238969e-05 3.239635266357e-04 0.0 
0.0 0.0 0.0 
-1.433761159743e-03 1.234558656233e-03 0.0 
1.234558656233e-03 1.289873900446e-02 0.0 
0.0 0.0 0.0 
6.250233242193e-04 2.437124625412e-06 0.0 
2.437124625412e-06 3.104172472580e-03 0.0 
0.0 0.0 0.0 
-5.782957352318e-05 -4.312759650739e-05 0.0 
-4.312759650739e-05 1.410746767210e-04 0.0 
0.0 0.0 0.0 
7.661927754266e-04 2.621335749754e-05 0.0 
2.621335749754e-05 3.744790521433e-03 0.0 
0.0 0.0 0.0 
9.244203594114e-04 6.495138743270e-04 0.0 
6.495138743270e-04 5.942321358623e-03 0.0 
0.0 0.0 0.0 
-5.031787012314e-04 3.408928836227e-04 0.0 
3.408928836227e-04 1.489737037932e-02 0.0 
0.0 0.0 0.0 
1.048343518206e-03 6.909239036613e-04 0.0 
6.909239036613e-04 5.312884011520e-03 0.0 
0.0 0.0 0.0 
1.129429110890e-03 7.729693877554e-04 0.0 
7.729693877554e-04 5.379593989261e-03 0.0 
0.0 0.0 0.0 
-1.551033688209e-03 9.458672739707e-04 0.0 
9.458672739707e-04 1.245536695849e-02 0.0 
0.0 0.0 0.0 
-1.143932824452e-03 9.980544333446e-05 0.0 
9.980544333446e-05 1.253227147618e-02 0.0 
0.0 0.0 0.0 
-2.863083370447e-04 1.391826958398e-03 0.0 
1.391826958398e-03 1.503464997618e-02 0.0 
0.0 0.0 0.0 
1.965430537165e-05 1.955310265189e-03 0.0 
1.955310265189e-03 8.777280257369e-03 0.0 
0.0 0.0 0.0 
-8.861148067418e-05 -3.632136679529e-05 0.0 
-3.632136679529e-05 1.454463921751e-04 0.0 
0.0 0.0 0.0 
1.569347775006e-04 -2.816974130130e-04 0.0 
-2.816974130130e-04 1.246930254463e-03 0.0 
0.0 0.0 0.0 
-2.911808679129e-04 -1.776033355103e-04 0.0 
-1.776033355103e-04 5.316074391850e-04 0.0 
0.0 0.0 0.0 
5.032827173330e-04 -2.534195647474e-04 0.0 
-2.534195647474e-04 2.175183660901e-03 0.0 
0.0 0.0 0.0 
-2.173544944541e-04 2.217378980256e-03 0.0 
2.217378980256e-03 1.157601670874e-02 0.0 
0.0 0.0 0.0 
-5.829802674447e-04 3.015989830272e-04 0.0 
3.015989830272e-04 1.490235951641e-02 0.0 
0.0 0.0 0.0 
7.001414195231e-04 5.567630347287e-04 0.0 
5.567630347287e-04 6.467058423460e-03 0.0 
0.0 0.0 0.0 
5.650784623494e-04 -2.097328015869e-04 0.0 
-2.097328015869e-04 2.463671774541e-03 0.0 
0.0 0.0 0.0 
7.545997482565e-04 1.457602930465e-04 0.0 
1.457602930465e-04 5.114694982445e-03 0.0 
0.0 0.0 0.0 
7.194872779730e-04 1.016242256388e-03 0.0 
1.016242256388e-03 7.187673544032e-03 0.0 
0.0 0.0 0.0 
1.488040406183e-04 6.383533210398e-05 0.0 
6.383533210398e-05 1.771174667302e-03 0.0 
0.0 0.0 0.0 
6.108020528055e-04 -6.639084841382e-05 0.0 
-6.639084841382e-05 3.105411524007e-03 0.0 
0.0 0.0 0.0 
5.354874882153e-04 6.183530765245e-06 0.0 
6.183530765245e-06 2.524141775920e-03 0.0 
0.0 0.0 0.0 
1.919787426425e-04 1.165563977128e-03 0.0 
1.165563977128e-03 8.740342260687e-03 0.0 
0.0 0.0 0.0 
0.0 1.177568209168e-03 0.0 
1.177568209168e-03 8.795554646715e-03 0.0 
0.0 0.0 0.0 
6.539107354282e-04 -4.679807347808e-05 0.0 
-4.679807347808e-05 3.482757728641e-03 0.0 
0.0 0.0 0.0 
7.497581916276e-04 -1.628348877366e-05 0.0 
-1.628348877366e-05 3.993271334764e-03 0.0 
0.0 0.0 0.0 
1.020596407213e-03 3.444281126188e-04 0.0 
3.444281126188e-04 4.674823677988e-03 0.0 
0.0 0.0 0.0 
6.615385148714e-04 1.173307649021e-03 0.0 
1.173307649021e-03 7.589972430460e-03 0.0 
0.0 0.0 0.0 
2.487152871011e-04 -1.777355088320e-04 0.0 
-1.777355088320e-04 1.360342818552e-03 0.0 
0.0 0.0 0.0 
7.785387705650e-04 8.740999820538e-04 0.0 
8.740999820538e-04 6.806524886618e-03 0.0 
0.0 0.0 0.0 
7.197885688925e-05 -9.579095852001e-05 0.0 
-9.579095852001e-05 7.174363414864e-04 0.0 
0.0 0.0 0.0 
7.169276177064e-04 -6.573023597372e-05 0.0 
-6.573023597372e-05 3.581554704905e-03 0.0 
0.0 0.0 0.0 
7.980709535926e-04 1.581083161212e-05 0.0 
1.581083161212e-05 4.058813498087e-03 0.0 
0.0 0.0 0.0 
9.263936703907e-05 -5.290000708529e-05 0.0 
-5.290000708529e-05 3.644903384534e-04 0.0 
0.0 0.0 0.0 
6.459804121213e-04 1.833880003264e-05 0.0 
1.833880003264e-05 3.289561542005e-03 0.0 
0.0 0.0 0.0 
-6.989810807824e-04 1.333429431883e-03 0.0 
1.333429431883e-03 1.456005823426e-02 0.0 
0.0 0.0 0.0 
-5.033514699171e-05 -3.140617610659e-05 0.0 
-3.140617610659e-05 1.306947776669e-04 0.0 
0.0 0.0 0.0 
-1.218243472271e-03 1.751043574463e-04 0.0 
1.751043574463e-04 1.254315323070e-02 0.0 
0.0 0.0 0.0 
-1.125766160418e-03 2.488430286405e-04 0.0 
2.488430286405e-04 1.244119935870e-02 0.0 
0.0 0.0 0.0 
9.727174816776e-04 9.632162906350e-04 0.0 
9.632162906350e-04 6.211629790935e-03 0.0 
0.0 0.0 0.0 
5.190138645976e-04 -5.255944151795e-05 0.0 
-5.255944151795e-05 2.521981477029e-03 0.0 
0.0 0.0 0.0 
7.508640980183e-04 -6.247352205112e-05 0.0 
-6.247352205112e-05 2.473161954022e-03 0.0 
0.0 0.0 0.0 
-7.215617182865e-06 9.138896332372e-04 0.0 
9.138896332372e-04 3.300896880942e-03 0.0 
0.0 0.0 0.0 
4.942745636647e-04 5.764516893710e-04 0.0 
5.764516893710e-04 7.158518785886e-03 0.0 
0.0 0.0 0.0 
2.793676480617e-05 2.445175755812e-03 0.0 
2.445175755812e-03 1.160470194945e-02 0.0 
0.0 0.0 0.0 
-7.926217464806e-04 4.536492715386e-04 0.0 
4.536492715386e-04 1.468326317429e-02 0.0 
0.0 0.0 0.0 
-7.741276561346e-05 1.378454122661e-03 0.0 
1.378454122661e-03 5.162001416617e-03 0.0 
0.0 0.0 0.0 
3.461999620313e-08 -1.536472550719e-04 0.0 
-1.536472550719e-04 8.592243767038e-04 0.0 
0.0 0.0 0.0 
-8.835929126964e-04 1.914485636027e-03 0.0 
1.914485636027e-03 1.025890509989e-02 0.0 
0.0 0.0 0.0 
-9.637694343027e-04 1.495751071155e-05 0.0 
1.495751071155e-05 1.249852450314e-02 0.0 
0.0 0.0 0.0 
-8.917026482943e-04 3.505385750983e-06 0.0 
3.505385750983e-06 1.246003238020e-02 0.0 
0.0 0.0 0.0 
-9.087536176899e-06 -3.651232288577e-05 0.0 
-3.651232288577e-05 1.228215002909e-04 0.0 
0.0 0.0 0.0 
7.205383267039e-05 -6.813402211885e-05 0.0 
-6.813402211885e-05 3.732788054789e-04 0.0 
0.0 0.0 0.0 
1.698967494710e-04 -5.360213595419e-05 0.0 
-5.360213595419e-05 6.864362354548e-04 0.0 
0.0 0.0 0.0 
4.321483611596e-04 -1.573554415790e-04 0.0 
-1.573554415790e-04 1.872255967533e-03 0.0 
0.0 0.0 0.0 
4.928502010393e-05 -4.563979750467e-05 0.0 
-4.563979750467e-05 3.705618850678e-04 0.0 
0.0 0.0 0.0 
6.702766525302e-04 2.510986603768e-05 0.0 
2.510986603768e-05 3.696417241035e-03 0.0 
0.0 0.0 0.0 
-6.926003849755e-04 -6.269794439542e-05 0.0 
-6.269794439542e-05 4.220872026206e-04 0.0 
0.0 0.0 0.0 
5.448207234318e-04 -1.345262559967e-04 0.0 
-1.345262559967e-04 2.238841872556e-03 0.0 
0.0 0.0 0.0 
-7.059983804184e-04 7.825016246141e-05 0.0 
7.825016246141e-05 1.382034422310e-02 0.0 
0.0 0.0 0.0 
-9.932607053053e-04 8.426275505690e-05 0.0 
8.426275505690e-05 1.246064568818e-02 0.0 
0.0 0.0 0.0 
-3.051007479542e-04 2.244516082541e-03 0.0 
2.244516082541e-03 1.212721313534e-02 0.0 
0.0 0.0 0.0 
9.364112559600e-04 5.296491910323e-04 0.0 
5.296491910323e-04 5.614711470577e-03 0.0 
0.0 0.0 0.0 
-7.443970170946e-04 5.153440587173e-05 0.0 
5.153440587173e-05 1.346678262171e-02 0.0 
0.0 0.0 0.0 
5.535936191869e-04 3.143952373366e-05 0.0 
3.143952373366e-05 2.706232136205e-03 0.0 
0.0 0.0 0.0 
1.128845975296e-04 -6.103591545458e-05 0.0 
-6.103591545458e-05 6.967210636821e-04 0.0 
0.0 0.0 0.0 
0.0 6.997299585638e-04 0.0 
6.997299585638e-04 1.567713761673e-02 0.0 
0.0 0.0 0.0 
-2.120384607279e-04 7.856022144989e-04 0.0 
7.856022144989e-04 1.564975239355e-02 0.0 
0.0 0.0 0.0 
-1.033761431005e-03 2.359847091529e-04 0.0 
2.359847091529e-04 1.334378610073e-02 0.0 
0.0 0.0 0.0 
-1.026674095970e-03 2.729973932556e-05 0.0 
2.729973932556e-05 1.250473746183e-02 0.0 
0.0 0.0 0.0 
5.542864937587e-04 -6.229580031460e-05 0.0 
-6.229580031460e-05 2.743716089939e-03 0.0 
0.0 0.0 0.0 
-1.733601536893e-04 5.379692724684e-04 0.0 
5.379692724684e-04 1.573146274717e-02 0.0 
0.0 0.0 0.0 
4.633888769665e-04 -2.431927177041e-04 0.0 
-2.431927177041e-04 2.094819510491e-03 0.0 
0.0 0.0 0.0 
-1.050142660711e-03 1.448939530420e-04 0.0 
1.448939530420e-04 1.245026636525e-02 0.0 
0.0 0.0 0.0 
-1.066599315084e-03 6.050683966958e-05 0.0 
6.050683966958e-05 1.251478337268e-02 0.0 
0.0 0.0 0.0 
-1.110000898305e-03 1.628952213412e-03 0.0 
1.628952213412e-03 1.073665049557e-02 0.0 
0.0 0.0 0.0 
0.0 1.580843769752e-03 0.0 
1.580843769752e-03 1.511103931977e-02 0.0 
0.0 0.0 0.0 
-1.982607825458e-04 6.615293097814e-04 0.0 
6.615293097814e-04 1.569896317877e-02 0.0 
0.0 0.0 0.0 
1.985655077230e-05 -5.970729829355e-05 0.0 
-5.970729829355e-05 3.810322336231e-04 0.0 
0.0 0.0 0.0 
1.982540559387e-05 -2.642319172408e-05 0.0 
-2.642319172408e-05 1.130642298008e-04 0.0 
0.0 0.0 0.0 
9.117693372507e-05 -1.568739010015e-04 0.0 
-1.568739010015e-04 1.016811393575e-03 0.0 
0.0 0.0 0.0 
8.723591685471e-04 1.003896178767e-04 0.0 
1.003896178767e-04 4.045819710068e-03 0.0 
0.0 0.0 0.0 
3.038134607334e-04 1.040914257543e-04 0.0 
1.040914257543e-04 7.404348449417e-03 0.0 
0.0 0.0 0.0 
-1.069064982511e-03 -7.836490053348e-05 0.0 
-7.836490053348e-05 5.570315668402e-04 0.0 
0.0 0.0 0.0 
-5.474106615461e-04 1.675352677579e-05 0.0 
1.675352677579e-05 1.460492069010e-02 0.0 
0.0 0.0 0.0 
-6.170769214432e-04 -7.284979301630e-05 0.0 
-7.284979301630e-05 3.946642997694e-04 0.0 
0.0 0.0 0.0 
1.074004531164e-03 8.805063922761e-04 0.0 
8.805063922761e-04 5.868193085146e-03 0.0 
0.0 0.0 0.0 
-8.414986143166e-04 -7.125068720717e-05 0.0 
-7.125068720717e-05 4.675025288439e-04 0.0 
0.0 0.0 0.0 
-9.569234270275e-04 -7.898004903020e-05 0.0 
-7.898004903020e-05 5.136869158322e-04 0.0 
0.0 0.0 0.0 
1.092962751876e-03 7.345364082862e-04 0.0 
7.345364082862e-04 5.491081364805e-03 0.0 
0.0 0.0 0.0 
3.842051032754e-04 2.693005677107e-04 0.0 
2.693005677107e-04 7.167273418977e-03 0.0 
0.0 0.0 0.0 
-7.466803789687e-04 4.216435134560e-05 0.0 
4.216435134560e-05 1.379081422714e-02 0.0 
0.0 0.0 0.0 
-6.356941701847e-04 1.983171188148e-03 0.0 
1.983171188148e-03 9.844715975021e-03 0.0 
0.0 0.0 0.0 
1.130598705945e-04 -4.221400077369e-05 0.0 
-4.221400077369e-05 3.539282433487e-04 0.0 
0.0 0.0 0.0 
7.168207753911e-04 1.367417044480e-04 0.0 
1.367417044480e-04 5.303624874595e-03 0.0 
0.0 0.0 0.0 
0.0 2.067876179695e-04 0.0 
2.067876179695e-04 1.576889798708e-02 0.0 
0.0 0.0 0.0 
-1.471083319649e-04 2.270692206209e-04 0.0 
2.270692206209e-04 1.577824286949e-02 0.0 
0.0 0.0 0.0 
-9.477026558989e-04 4.529518123952e-05 0.0 
4.529518123952e-05 1.245760533691e-02 0.0 
0.0 0.0 0.0 
1.037868444514e-03 1.030728554429e-03 0.0 
1.030728554429e-03 6.269682061916e-03 0.0 
0.0 0.0 0.0 
0.0 5.816231332670e-04 0.0 
5.816231332670e-04 1.572225467645e-02 0.0 
0.0 0.0 0.0 
4.934993645549e-04 1.874758290628e-03 0.0 
1.874758290628e-03 8.794408855672e-03 0.0 
0.0 0.0 0.0 
1.170474244911e-04 -3.013537210608e-05 0.0 
-3.013537210608e-05 6.770380808003e-04 0.0 
0.0 0.0 0.0 
7.401814422070e-05 -3.532508713544e-05 0.0 
-3.532508713544e-05 3.589617094042e-04 0.0 
0.0 0.0 0.0 
1.190498842421e-04 -3.414642625366e-05 0.0 
-3.414642625366e-05 3.475482798139e-04 0.0 
0.0 0.0 0.0 
6.133036170768e-04 3.114349766831e-05 0.0 
3.114349766831e-05 3.093326133005e-03 0.0 
0.0 0.0 0.0 
1.198433711094e-04 2.306751895671e-04 0.0 
2.306751895671e-04 8.278862890191e-03 0.0 
0.0 0.0 0.0 
-2.413148579652e-04 -2.155518716608e-05 0.0 
-2.155518716608e-05 1.545323628221e-02 0.0 
0.0 0.0 0.0 
7.521465623750e-05 -6.938453137503e-06 0.0 
-6.938453137503e-06 8.202969184889e-05 0.0 
0.0 0.0 0.0 
6.716645784668e-04 -3.637702740561e-05 0.0 
-3.637702740561e-05 3.696505917479e-03 0.0 
0.0 0.0 0.0 
0.0 2.028970817647e-04 0.0 
2.028970817647e-04 8.297724452613e-03 0.0 
0.0 0.0 0.0 
1.377483232088e-04 3.297883924161e-04 0.0 
3.297883924161e-04 8.288400494083e-03 0.0 
0.0 0.0 0.0 
2.195617425675e-04 1.043243290014e-03 0.0 
1.043243290014e-03 8.638580308270e-03 0.0 
0.0 0.0 0.0 
-6.240160507450e-04 6.029057944160e-05 0.0 
6.029057944160e-05 1.424821241741e-02 0.0 
0.0 0.0 0.0 
-4.897598670416e-04 -2.525418940025e-05 0.0 
-2.525418940025e-05 1.478456223403e-02 0.0 
0.0 0.0 0.0 
0.0 2.717619664158e-04 0.0 
2.717619664158e-04 8.266366062797e-03 0.0 
0.0 0.0 0.0 
0.0 3.496482097450e-04 0.0 
3.496482097450e-04 8.311384460057e-03 0.0 
0.0 0.0 0.0 
-5.347169726362e-04 6.460220602767e-05 0.0 
6.460220602767e-05 1.460660443911e-02 0.0 
0.0 0.0 0.0 
5.085652873738e-05 6.614428987845e-06 0.0 
6.614428987845e-06 7.449110735558e-05 0.0 
0.0 0.0 0.0 
-8.552653700303e-04 -1.782910426255e-06 0.0 
-1.782910426255e-06 1.243723848182e-02 0.0 
0.0 0.0 0.0 
-9.185221778468e-04 2.500795708529e-05 0.0 
2.500795708529e-05 1.247177911162e-02 0.0 
0.0 0.0 0.0 
4.951082944582e-05 -1.646152147929e-05 0.0 
-1.646152147929e-05 1.006372992751e-04 0.0 
0.0 0.0 0.0 
0.0 6.381443455046e-04 0.0 
6.381443455046e-04 8.441580502108e-03 0.0 
0.0 0.0 0.0 
1.905037832350e-04 9.237871683708e-04 0.0 
9.237871683708e-04 8.547204736788e-03 0.0 
0.0 0.0 0.0 
0.0 8.328499508264e-04 0.0 
8.328499508264e-04 8.504803537071e-03 0.0 
0.0 0.0 0.0 
9.571389371077e-06 -7.734023007308e-06 0.0 
-7.734023007308e-06 1.037319816986e-04 0.0 
0.0 0.0 0.0 
-1.742512499880e-05 -2.033978894916e-05 0.0 
-2.033978894916e-05 1.184584191785e-04 0.0 
0.0 0.0 0.0 
0.0 1.064320678713e-03 0.0 
1.064320678713e-03 8.687429483714e-03 0.0 
0.0 0.0 0.0 
0.0 9.426236429769e-04 0.0 
9.426236429769e-04 8.593636318656e-03 0.0 
0.0 0.0 0.0 
-6.658153286985e-04 -3.140557659597e-05 0.0 
-3.140557659597e-05 1.405894997670e-02 0.0 
0.0 0.0 0.0 
-8.281399215597e-04 4.091200184486e-06 0.0 
4.091200184486e-06 1.241788886117e-02 0.0 
0.0 0.0 0.0 
-5.823152546958e-04 -2.837935780981e-05 0.0 
-2.837935780981e-05 1.442784924450e-02 0.0 
0.0 0.0 0.0 
-7.662854151956e-04 -3.463988905672e-05 0.0 
-3.463988905672e-05 1.327689003006e-02 0.0 
0.0 0.0 0.0 
-8.167441333891e-04 -1.902576295138e-06 0.0 
-1.902576295138e-06 1.241135561743e-02 0.0 
0.0 0.0 0.0 
-1.562523853023e-04 -3.077841206026e-05 0.0 
-3.077841206026e-05 1.760788343967e-04 0.0 
0.0 0.0 0.0 
-3.183794347390e-04 -5.466249653042e-05 0.0 
-5.466249653042e-05 2.558689747181e-04 0.0 
0.0 0.0 0.0 
-3.899253794740e-04 -5.568068664106e-05 0.0 
-5.568068664106e-05 2.741940272666e-04 0.0 
0.0 0.0 0.0 
-4.987333737748e-04 -6.306370786054e-05 0.0 
-6.306370786054e-05 3.224499645533e-04 0.0 
0.0 0.0 0.0 
6.847362816671e-04 3.819807440897e-05 0.0 
3.819807440897e-05 3.908138392041e-03 0.0 
0.0 0.0 0.0 
6.592162960575e-04 3.323219819416e-05 0.0 
3.323219819416e-05 3.491593347498e-03 0.0 
0.0 0.0 0.0 
-2.221531834247e-04 -5.324200789293e-05 0.0 
-5.324200789293e-05 2.221533186189e-04 0.0 
0.0 0.0 0.0 
6.767254822220e-04 4.128076608759e-05 0.0 
4.128076608759e-05 5.196688489256e-03 0.0 
0.0 0.0 0.0 
-3.117477241569e-04 -6.373726993920e-05 0.0 
-6.373726993920e-05 2.569168027426e-04 0.0 
0.0 0.0 0.0 
0.0 1.256078107144e-03 0.0 
1.256078107144e-03 1.538866516630e-02 0.0 
0.0 0.0 0.0 
0.0 4.804000094067e-04 0.0 
4.804000094067e-04 1.574038280413e-02 0.0 
0.0 0.0 0.0 
0.0 8.297056681114e-04 0.0 
8.297056681114e-04 1.562039657262e-02 0.0 
0.0 0.0 0.0 
2.482404692719e-04 3.426310310839e-05 0.0 
3.426310310839e-05 1.195682031407e-03 0.0 
0.0 0.0 0.0 
4.868494053261e-04 3.123926662395e-05 0.0 
3.123926662395e-05 2.324615239598e-03 0.0 
0.0 0.0 0.0 
0.0 3.749659618143e-04 0.0 
3.749659618143e-04 1.574410773997e-02 0.0 
0.0 0.0 0.0 
4.744944781223e-04 3.744951936459e-05 0.0 
3.744951936459e-05 6.649026295162e-03 0.0 
0.0 0.0 0.0 
0.0 2.920151695204e-04 0.0 
2.920151695204e-04 1.579436645724e-02 0.0 
0.0 0.0 0.0 
3.585241529023e-04 4.013455057987e-05 0.0 
4.013455057987e-05 7.165003650436e-03 0.0 
0.0 0.0 0.0 
2.245161534244e-04 5.000148833971e-05 0.0 
5.000148833971e-05 7.697681538005e-03 0.0 
0.0 0.0 0.0 
6.361757107387e-04 -4.531093140307e-05 0.0 
-4.531093140307e-05 3.289585234935e-03 0.0 
0.0 0.0 0.0 
-1.857950522220e-04 4.269478097290e-04 0.0 
4.269478097290e-04 1.574232922170e-02 0.0 
0.0 0.0 0.0 
-1.461266216257e-04 3.656898416903e-04 0.0 
3.656898416903e-04 1.576313869908e-02 0.0 
0.0 0.0 0.0 
4.112504094391e-04 1.409904090225e-05 0.0 
1.409904090225e-05 6.879009910127e-03 0.0 
0.0 0.0 0.0 
2.900554264469e-04 2.147544351476e-05 0.0 
2.147544351476e-05 7.409035839698e-03 0.0 
0.0 0.0 0.0 
6.437685003520e-04 1.060108771051e-04 0.0 
1.060108771051e-04 5.694540956025e-03 0.0 
0.0 0.0 0.0 
-5.411376109827e-04 -7.528796839487e-05 0.0 
-7.528796839487e-05 3.625238555203e-04 0.0 
0.0 0.0 0.0 
6.711603530596e-04 -8.865745272012e-05 0.0 
-8.865745272012e-05 3.353966839790e-03 0.0 
0.0 0.0 0.0 
-7.138816475516e-06 -7.738952951192e-05 0.0 
-7.738952951192e-05 3.862058151654e-04 0.0 
0.0 0.0 0.0 
4.494591324855e-04 5.106472615065e-04 0.0 
5.106472615065e-04 7.165291606490e-03 0.0 
0.0 0.0 0.0 
7.767390209175e-04 9.942923292217e-06 0.0 
9.942923292217e-06 3.569753422869e-03 0.0 
0.0 0.0 0.0 
5.604402739312e-04 2.753306824049e-04 0.0 
2.753306824049e-04 6.448020560686e-03 0.0 
0.0 0.0 0.0 
3.509484827298e-04 -2.647766173192e-04 0.0 
-2.647766173192e-04 1.731602918892e-03 0.0 
0.0 0.0 0.0 
8.549364059585e-05 -9.818700548748e-05 0.0 
-9.818700548748e-05 6.968949526214e-04 0.0 
0.0 0.0 0.0 
4.318647786954e-04 2.375274164780e-04 0.0 
2.375274164780e-04 6.955192571207e-03 0.0 
0.0 0.0 0.0 
7.184256349224e-04 -4.759828246383e-05 0.0 
-4.759828246383e-05 3.756950048625e-03 0.0 
0.0 0.0 0.0 
5.855516642692e-04 1.232204718534e-05 0.0 
1.232204718534e-05 2.902841571687e-03 0.0 
0.0 0.0 0.0 
5.361604762188e-04 2.029990446288e-04 0.0 
2.029990446288e-04 6.459655749541e-03 0.0 
0.0 0.0 0.0 
-3.714652180627e-04 1.826629522064e-04 0.0 
1.826629522064e-04 1.509251634865e-02 0.0 
0.0 0.0 0.0 
5.832383908537e-04 -5.022982883013e-05 0.0 
-5.022982883013e-05 2.901658248417e-03 0.0 
0.0 0.0 0.0 
8.062596106524e-04 6.807000441577e-04 0.0 
6.807000441577e-04 6.302592100470e-03 0.0 
0.0 0.0 0.0 
8.733033483963e-04 3.120632490510e-04 0.0 
3.120632490510e-04 5.192369594701e-03 0.0 
0.0 0.0 0.0 
6.706088316168e-04 1.811071489924e-04 0.0 
1.811071489924e-04 5.682804360402e-03 0.0 
0.0 0.0 0.0 
6.218962076656e-04 1.524265579100e-04 0.0 
1.524265579100e-04 5.892170688291e-03 0.0 
0.0 0.0 0.0 
9.974718428594e-04 7.484416038343e-04 0.0 
7.484416038343e-04 3.773570380158e-03 0.0 
0.0 0.0 0.0 
-7.077723341042e-04 1.935855272442e-03 0.0 
1.935855272442e-03 9.543736484282e-03 0.0 
0.0 0.0 0.0 
5.993785417959e-04 1.529497397591e-03 0.0 
1.529497397591e-03 6.560076021561e-03 0.0 
0.0 0.0 0.0 
7.655521258749e-04 2.142759302466e-04 0.0 
2.142759302466e-04 5.291387021439e-03 0.0 
0.0 0.0 0.0 
4.823279889004e-04 1.623131476343e-04 0.0 
1.623131476343e-04 6.673746761693e-03 0.0 
0.0 0.0 0.0 
5.742909115554e-04 1.230878760715e-04 0.0 
1.230878760715e-04 6.110486392344e-03 0.0 
0.0 0.0 0.0 
4.401384027308e-04 -1.886453188039e-04 0.0 
-1.886453188039e-04 1.803766049393e-03 0.0 
0.0 0.0 0.0 
-4.130031877829e-04 3.081016901578e-04 0.0 
3.081016901578e-04 1.507540511355e-02 0.0 
0.0 0.0 0.0 
-5.357186085981e-04 2.591080938863e-04 0.0 
2.591080938863e-04 1.474198860419e-02 0.0 
0.0 0.0 0.0 
-8.286955713307e-04 7.206900626731e-05 0.0 
7.206900626731e-05 1.300169232612e-02 0.0 
0.0 0.0 0.0 
7.626127102545e-04 2.838172150694e-04 0.0 
2.838172150694e-04 5.567343697016e-03 0.0 
0.0 0.0 0.0 
7.177448887741e-04 1.996254093367e-04 0.0 
1.996254093367e-04 5.485384479052e-03 0.0 
0.0 0.0 0.0 
-4.266852588349e-04 1.426801977329e-04 0.0 
1.426801977329e-04 1.510488277489e-02 0.0 
0.0 0.0 0.0 
-4.668813284371e-04 2.287198093093e-04 0.0 
2.287198093093e-04 1.492304913508e-02 0.0 
0.0 0.0 0.0 
8.430493402956e-04 2.337035941767e-04 0.0 
2.337035941767e-04 5.027758387057e-03 0.0 
0.0 0.0 0.0 
3.731784517005e-04 1.881264973326e-04 0.0 
1.881264973326e-04 7.174593741274e-03 0.0 
0.0 0.0 0.0 
-6.768842478549e-04 4.796104232177e-04 0.0 
4.796104232177e-04 1.467980379855e-02 0.0 
0.0 0.0 0.0 
5.578802837463e-04 4.971896413772e-05 0.0 
4.971896413772e-05 6.110417359353e-03 0.0 
0.0 0.0 0.0 
3.711404872189e-04 4.550925610009e-04 0.0 
4.550925610009e-04 7.394622162193e-03 0.0 
0.0 0.0 0.0 
-4.779105799724e-04 2.692113238993e-04 0.0 
2.692113238993e-04 1.508229077767e-02 0.0 
0.0 0.0 0.0 
-7.774295493613e-04 1.725869196729e-04 0.0 
1.725869196729e-04 1.420403168366e-02 0.0 
0.0 0.0 0.0 
8.339172219896e-04 5.540594540343e-04 0.0 
5.540594540343e-04 5.957279655896e-03 0.0 
0.0 0.0 0.0 
3.811416255961e-04 -7.998801075453e-05 0.0 
-7.998801075453e-05 1.775988776918e-03 0.0 
0.0 0.0 0.0 
3.827407039070e-04 -1.930072245771e-04 0.0 
-1.930072245771e-04 1.667782481622e-03 0.0 
0.0 0.0 0.0 
1.572313236764e-05 -2.610846396840e-04 0.0 
-2.610846396840e-04 8.737825216234e-04 0.0 
0.0 0.0 0.0 
-5.416302988059e-04 -1.729067368761e-04 0.0 
-1.729067368761e-04 6.252852448081e-04 0.0 
0.0 0.0 0.0 
-5.092185738081e-04 1.856527543501e-04 0.0 
1.856527543501e-04 1.492733857724e-02 0.0 
0.0 0.0 0.0 
4.348428409271e-04 1.961221864114e-04 0.0 
1.961221864114e-04 6.872789077120e-03 0.0 
0.0 0.0 0.0 
-4.605396863065e-04 -1.693395043566e-04 0.0 
-1.693395043566e-04 5.809287771545e-04 0.0 
0.0 0.0 0.0 
-7.702575198801e-04 1.857411289587e-03 0.0 
1.857411289587e-03 1.366895322042e-02 0.0 
0.0 0.0 0.0 
-8.369458200755e-04 9.434054633413e-05 0.0 
9.434054633413e-05 1.320514460835e-02 0.0 
0.0 0.0 0.0 
5.890810117870e-04 2.321909339167e-04 0.0 
2.321909339167e-04 6.260459928250e-03 0.0 
0.0 0.0 0.0 
5.384822174568e-04 1.767630793513e-04 0.0 
1.767630793513e-04 6.372756922671e-03 0.0 
0.0 0.0 0.0 
7.717383725165e-04 -6.751999459086e-05 0.0 
-6.751999459086e-05 2.612730915815e-03 0.0 
0.0 0.0 0.0 
5.260429077429e-04 1.019633024596e-04 0.0 
1.019633024596e-04 6.383577127799e-03 0.0 
0.0 0.0 0.0 
-8.642440079973e-04 1.307369489240e-06 0.0 
1.307369489240e-06 1.300012561652e-02 0.0 
0.0 0.0 0.0 
8.618654449777e-04 1.340776740395e-03 0.0 
1.340776740395e-03 7.113801147554e-03 0.0 
0.0 0.0 0.0 
3.187693233118e-04 4.926317933377e-04 0.0 
4.926317933377e-04 7.611241679354e-03 0.0 
0.0 0.0 0.0 
3.670805530691e-04 -3.264986479579e-05 0.0 
-3.264986479579e-05 1.713440509588e-03 0.0 
0.0 0.0 0.0 
3.908370893648e-04 6.155010083793e-04 0.0 
6.155010083793e-04 7.511334455215e-03 0.0 
0.0 0.0 0.0 
-6.986895459556e-04 1.636186976147e-04 0.0 
1.636186976147e-04 1.439676026248e-02 0.0 
0.0 0.0 0.0 
4.176683714614e-04 -4.953422631185e-05 0.0 
-4.953422631185e-05 1.934397717143e-03 0.0 
0.0 0.0 0.0 
4.717120200224e-04 -2.766368810152e-04 0.0 
-2.766368810152e-04 2.039252461638e-03 0.0 
0.0 0.0 0.0 
7.267051598809e-04 5.161303687635e-05 0.0 
5.161303687635e-05 4.294524287413e-03 0.0 
0.0 0.0 0.0 
-8.348496253417e-04 2.099002309888e-04 0.0 
2.099002309888e-04 1.380569331283e-02 0.0 
0.0 0.0 0.0 
6.578867119931e-04 -7.752739042114e-05 0.0 
-7.752739042114e-05 2.778429537171e-03 0.0 
0.0 0.0 0.0 
-6.195872519026e-04 1.449722520807e-04 0.0 
1.449722520807e-04 1.458756038380e-02 0.0 
0.0 0.0 0.0 
-7.676436578725e-04 1.073294037937e-04 0.0 
1.073294037937e-04 1.401804440182e-02 0.0 
0.0 0.0 0.0 
7.856186356026e-04 6.783303373602e-05 0.0 
6.783303373602e-05 4.163543446806e-03 0.0 
0.0 0.0 0.0 
6.011377119624e-04 8.083764419340e-05 0.0 
8.083764419340e-05 5.897295743146e-03 0.0 
0.0 0.0 0.0 
5.731539222034e-04 1.350580541923e-04 0.0 
1.350580541923e-04 6.176835939296e-03 0.0 
0.0 0.0 0.0 
-6.336621584493e-04 2.091410528891e-04 0.0 
2.091410528891e-04 1.438996126896e-02 0.0 
0.0 0.0 0.0 
2.834979424005e-04 -1.949125481540e-04 0.0 
-1.949125481540e-04 1.480962264486e-03 0.0 
0.0 0.0 0.0 
7.533385182164e-04 3.631327833324e-05 0.0 
3.631327833324e-05 3.927263713192e-03 0.0 
0.0 0.0 0.0 
6.528009015616e-04 1.882346291798e-03 0.0 
1.882346291798e-03 8.649318377212e-03 0.0 
0.0 0.0 0.0 
-6.947344598491e-04 2.378049997650e-04 0.0 
2.378049997650e-04 1.456317316291e-02 0.0 
0.0 0.0 0.0 
7.244936945945e-04 4.875161893384e-06 0.0 
4.875161893384e-06 3.511912735449e-03 0.0 
0.0 0.0 0.0 
7.998328428458e-04 2.271922539645e-04 0.0 
2.271922539645e-04 5.206453822582e-03 0.0 
0.0 0.0 0.0 
4.624113298917e-04 6.548211046827e-04 0.0 
6.548211046827e-04 7.338666189774e-03 0.0 
0.0 0.0 0.0 
-7.021040053137e-04 2.163404842863e-04 0.0 
2.163404842863e-04 1.419867348794e-02 0.0 
0.0 0.0 0.0 
-2.794006979294e-04 -1.087454792620e-04 0.0 
-1.087454792620e-04 1.101282271142e-03 0.0 
0.0 0.0 0.0 
5.371801531195e-05 -2.085557030857e-04 0.0 
-2.085557030857e-04 8.316563368809e-04 0.0 
0.0 0.0 0.0 
3.767937248318e-04 1.216596459812e-04 0.0 
1.216596459812e-04 2.162560370423e-03 0.0 
0.0 0.0 0.0 
4.976288952045e-04 2.427348179881e-04 0.0 
2.427348179881e-04 6.661515918620e-03 0.0 
0.0 0.0 0.0 
-7.714901039897e-04 2.167028992920e-04 0.0 
2.167028992920e-04 1.400467574679e-02 0.0 
0.0 0.0 0.0 
7.061002099678e-04 -2.930668726128e-06 0.0 
-2.930668726128e-06 4.733234054857e-03 0.0 
0.0 0.0 0.0 
-8.636846000213e-04 1.353315379031e-04 0.0 
1.353315379031e-04 1.341207978191e-02 0.0 
0.0 0.0 0.0 
6.355513191441e-04 9.268849823002e-04 0.0 
9.268849823002e-04 7.201058592952e-03 0.0 
0.0 0.0 0.0 
7.634678359516e-04 7.384417570535e-05 0.0 
7.384417570535e-05 4.347552443631e-03 0.0 
0.0 0.0 0.0 
5.952969055389e-04 2.121089624058e-04 0.0 
2.121089624058e-04 6.164904941800e-03 0.0 
0.0 0.0 0.0 
3.639370177411e-04 -1.396466352231e-04 0.0 
-1.396466352231e-04 1.785757556644e-03 0.0 
0.0 0.0 0.0 
4.148167946469e-04 5.535874861331e-04 0.0 
5.535874861331e-04 7.398694848324e-03 0.0 
0.0 0.0 0.0 
7.358348075579e-04 -4.931287272112e-06 0.0 
-4.931287272112e-06 4.175314484963e-03 0.0 
0.0 0.0 0.0 
3.927942664317e-04 -1.113747644517e-04 0.0 
-1.113747644517e-04 1.944163432138e-03 0.0 
0.0 0.0 0.0 
7.108809875873e-04 -3.549272646049e-05 0.0 
-3.549272646049e-05 3.939280644823e-03 0.0 
0.0 0.0 0.0 
6.679547958146e-04 -5.441924937100e-05 0.0 
-5.441924937100e-05 2.946539981013e-03 0.0 
0.0 0.0 0.0 
4.972646739678e-04 -2.153980308839e-04 0.0 
-2.153980308839e-04 2.251764035075e-03 0.0 
0.0 0.0 0.0 
7.195823058026e-04 6.935819911603e-05 0.0 
6.935819911603e-05 4.719126244347e-03 0.0 
0.0 0.0 0.0 
-1.105827805978e-04 -5.026432382590e-05 0.0 
-5.026432382590e-05 1.801603419345e-04 0.0 
0.0 0.0 0.0 
-1.859021518645e-04 -5.361298535060e-05 0.0 
-5.361298535060e-05 2.129217515510e-04 0.0 
0.0 0.0 0.0 
6.796038131078e-04 1.240934197289e-04 0.0 
1.240934197289e-04 5.497209760420e-03 0.0 
0.0 0.0 0.0 
3.251271202132e-04 -1.697909315385e-04 0.0 
-1.697909315385e-04 1.632975573807e-03 0.0 
0.0 0.0 0.0 
7.092425944031e-04 2.039805151515e-04 0.0 
2.039805151515e-04 5.579922160049e-03 0.0 
0.0 0.0 0.0 
7.549814118419e-04 2.178753765532e-04 0.0 
2.178753765532e-04 5.390953638113e-03 0.0 
0.0 0.0 0.0 
7.910494047541e-04 -2.419423951791e-05 0.0 
-2.419423951791e-05 3.222476525072e-03 0.0 
0.0 0.0 0.0 
6.070664641451e-04 -1.212359384077e-04 0.0 
-1.212359384077e-04 2.099140758036e-03 0.0 
0.0 0.0 0.0 
-6.748367598385e-04 4.315044227112e-04 0.0 
4.315044227112e-04 1.486411141450e-02 0.0 
0.0 0.0 0.0 
-1.942738747090e-04 3.801291548054e-04 0.0 
3.801291548054e-04 1.434967892449e-03 0.0 
0.0 0.0 0.0 
6.743944806036e-04 -3.326249710963e-05 0.0 
-3.326249710963e-05 3.120067027722e-03 0.0 
0.0 0.0 0.0 
5.602198576069e-04 1.087388702897e-03 0.0 
1.087388702897e-03 7.582306794130e-03 0.0 
0.0 0.0 0.0 
2.948629066715e-04 -8.323595189361e-05 0.0 
-8.323595189361e-05 1.394738810443e-03 0.0 
0.0 0.0 0.0 
-8.902759989510e-04 1.082324984250e-04 0.0 
1.082324984250e-04 1.362459687587e-02 0.0 
0.0 0.0 0.0 
-9.012525692234e-04 4.117743249702e-05 0.0 
4.117743249702e-05 1.321254139105e-02 0.0 
0.0 0.0 0.0 
2.298208072855e-04 -2.674063865859e-04 0.0 
-2.674063865859e-04 1.375604720296e-03 0.0 
0.0 0.0 0.0 
5.433588428823e-04 7.103744511321e-04 0.0 
7.103744511321e-04 7.145409680480e-03 0.0 
0.0 0.0 0.0 
-8.927618434738e-04 3.549765639166e-04 0.0 
3.549765639166e-04 1.434687430676e-02 0.0 
0.0 0.0 0.0 
3.410132145572e-04 -1.055128003038e-04 0.0 
-1.055128003038e-04 1.619894342840e-03 0.0 
0.0 0.0 0.0 
-6.577568065438e-04 5.501586345102e-04 0.0 
5.501586345102e-04 1.499288371120e-02 0.0 
0.0 0.0 0.0 
-5.391185334856e-04 5.752068680207e-04 0.0 
5.752068680207e-04 1.498825211139e-02 0.0 
0.0 0.0 0.0 
3.771828095429e-04 -1.944958886433e-04 0.0 
-1.944958886433e-04 1.833881188686e-03 0.0 
0.0 0.0 0.0 
-1.489002225632e-04 1.515850045636e-03 0.0 
1.515850045636e-03 5.836773229382e-03 0.0 
0.0 0.0 0.0 
3.961277368119e-04 -2.386663174538e-04 0.0 
-2.386663174538e-04 1.885162774049e-03 0.0 
0.0 0.0 0.0 
6.204222720090e-04 1.642983521210e-04 0.0 
1.642983521210e-04 5.971494477149e-03 0.0 
0.0 0.0 0.0 
7.410486182271e-04 7.465205057565e-05 0.0 
7.465205057565e-05 4.534624609215e-03 0.0 
0.0 0.0 0.0 
-7.018285589032e-04 1.585614767949e-03 0.0 
1.585614767949e-03 1.417799596476e-02 0.0 
0.0 0.0 0.0 
-5.735216053531e-04 4.589932020979e-04 0.0 
4.589932020979e-04 1.486053536689e-02 0.0 
0.0 0.0 0.0 
6.642481492996e-04 1.862555895464e-04 0.0 
1.862555895464e-04 5.774224013231e-03 0.0 
0.0 0.0 0.0 
7.064669946604e-04 2.642304786549e-04 0.0 
2.642304786549e-04 5.762039158083e-03 0.0 
0.0 0.0 0.0 
3.058970274847e-04 -1.651648577307e-04 0.0 
-1.651648577307e-04 1.512199096337e-03 0.0 
0.0 0.0 0.0 
6.509351032156e-04 2.399753595453e-04 0.0 
2.399753595453e-04 5.959732347714e-03 0.0 
0.0 0.0 0.0 
-7.800860295170e-04 3.807619393076e-04 0.0 
3.807619393076e-04 1.434347928134e-02 0.0 
0.0 0.0 0.0 
7.127484314042e-04 5.583720633569e-06 0.0 
5.583720633569e-06 4.545493879090e-03 0.0 
0.0 0.0 0.0 
-8.526221892594e-04 1.763041340121e-04 0.0 
1.763041340121e-04 1.400965127601e-02 0.0 
0.0 0.0 0.0 
-7.919888085332e-04 3.445988540050e-04 0.0 
3.445988540050e-04 1.453509254904e-02 0.0 
0.0 0.0 0.0 
1.089112344870e-03 1.087362964302e-03 0.0 
1.087362964302e-03 5.144322802363e-03 0.0 
0.0 0.0 0.0 
-5.970904008249e-04 3.623239876903e-04 0.0 
3.623239876903e-04 1.471612907197e-02 0.0 
0.0 0.0 0.0 
7.166248796149e-04 2.110232564393e-05 0.0 
2.110232564393e-05 3.714517064053e-03 0.0 
0.0 0.0 0.0 
7.240053952471e-04 2.539018567611e-06 0.0 
2.539018567611e-06 4.359007464630e-03 0.0 
0.0 0.0 0.0 
6.088120661505e-04 -5.518117561101e-05 0.0 
-5.518117561101e-05 2.737190842189e-03 0.0 
0.0 0.0 0.0 
7.065246017599e-04 -1.517404769120e-04 0.0 
-1.517404769120e-04 2.913140417775e-03 0.0 
0.0 0.0 0.0 
-7.764783416742e-04 2.900228974276e-04 0.0 
2.900228974276e-04 1.417942884800e-02 0.0 
0.0 0.0 0.0 
9.207250005794e-04 1.481073551767e-04 0.0 
1.481073551767e-04 4.244757577055e-03 0.0 
0.0 0.0 0.0 
4.345098171989e-04 -2.102190826005e-04 0.0 
-2.102190826005e-04 2.042104045013e-03 0.0 
0.0 0.0 0.0 
1.006663743508e-04 -2.471147526533e-04 0.0 
-2.471147526533e-04 1.028088836408e-03 0.0 
0.0 0.0 0.0 
-8.735212530472e-04 2.571493414654e-04 0.0 
2.571493414654e-04 1.418359591884e-02 0.0 
0.0 0.0 0.0 
4.706654159978e-04 -1.345991624716e-04 0.0 
-1.345991624716e-04 2.030171853915e-03 0.0 
0.0 0.0 0.0 
4.388642649045e-04 6.917766042159e-04 0.0 
6.917766042159e-04 7.503571289713e-03 0.0 
0.0 0.0 0.0 
-6.969994980230e-04 2.883960492589e-04 0.0 
2.883960492589e-04 1.437027203245e-02 0.0 
0.0 0.0 0.0 
6.237723140992e-04 3.110939263339e-04 0.0 
3.110939263339e-04 6.248285818346e-03 0.0 
0.0 0.0 0.0 
2.266396073998e-04 1.513004074711e-03 0.0 
1.513004074711e-03 8.746814542614e-03 0.0 
0.0 0.0 0.0 
6.813185396530e-04 -6.833211197795e-05 0.0 
-6.833211197795e-05 3.527732133919e-03 0.0 
0.0 0.0 0.0 
4.018677220194e-04 -1.236505855961e-04 0.0 
-1.236505855961e-04 1.822799821585e-03 0.0 
0.0 0.0 0.0 
1.712524245441e-04 -1.528975094244e-04 0.0 
-1.528975094244e-04 1.152833178478e-03 0.0 
0.0 0.0 0.0 
6.946183113998e-04 2.829273748172e-04 0.0 
2.829273748172e-04 5.867063095920e-03 0.0 
0.0 0.0 0.0 
-7.679978978062e-04 1.609454410926e-04 0.0 
1.609454410926e-04 1.382409299523e-02 0.0 
0.0 0.0 0.0 
4.094654557285e-05 -1.327070523496e-04 0.0 
-1.327070523496e-04 8.133280931710e-04 0.0 
0.0 0.0 0.0 
6.068411418061e-04 -1.525475477085e-04 0.0 
-1.525475477085e-04 2.790252311694e-03 0.0 
0.0 0.0 0.0 
3.185956089045e-04 -1.135168587071e-04 0.0 
-1.135168587071e-04 1.580730963574e-03 0.0 
0.0 0.0 0.0 
-9.213624135442e-04 1.744142974788e-04 0.0 
1.744142974788e-04 1.381009073473e-02 0.0 
0.0 0.0 0.0 
6.245606444992e-04 -1.258967772483e-04 0.0 
-1.258967772483e-04 2.957731388701e-03 0.0 
0.0 0.0 0.0 
8.185940271630e-04 2.993037417589e-04 0.0 
2.993037417589e-04 5.377655641774e-03 0.0 
0.0 0.0 0.0 
5.747788882531e-04 -1.284627910338e-04 0.0 
-1.284627910338e-04 2.744929337890e-03 0.0 
0.0 0.0 0.0 
-6.023732108926e-04 2.165368378320e-04 0.0 
2.165368378320e-04 1.474782445690e-02 0.0 
0.0 0.0 0.0 
5.712846179347e-04 -1.102905541484e-04 0.0 
-1.102905541484e-04 2.400903811751e-03 0.0 
0.0 0.0 0.0 
7.322232656637e-04 3.960224425381e-04 0.0 
3.960224425381e-04 5.980576104967e-03 0.0 
0.0 0.0 0.0 
3.266601925889e-04 -3.086773470990e-04 0.0 
-3.086773470990e-04 1.686244842762e-03 0.0 
0.0 0.0 0.0 
7.479325166977e-04 3.010783003709e-04 0.0 
3.010783003709e-04 5.678086523955e-03 0.0 
0.0 0.0 0.0 
7.087002421402e-04 -1.582825265231e-05 0.0 
-1.582825265231e-05 4.131656035608e-03 0.0 
0.0 0.0 0.0 
6.879783653688e-04 3.401926996687e-04 0.0 
3.401926996687e-04 6.049066135562e-03 0.0 
0.0 0.0 0.0 
9.619105198930e-04 3.411395166098e-04 0.0 
3.411395166098e-04 3.069687609042e-03 0.0 
0.0 0.0 0.0 
3.305856228770e-04 -5.227198981711e-05 0.0 
-5.227198981711e-05 1.565081895388e-03 0.0 
0.0 0.0 0.0 
-8.619231512547e-04 5.809808008859e-05 0.0 
5.809808008859e-05 1.343315130252e-02 0.0 
0.0 0.0 0.0 
9.700866947957e-04 7.673851129397e-04 0.0 
7.673851129397e-04 5.885582172122e-03 0.0 
0.0 0.0 0.0 
2.984708878355e-04 1.837620545156e-03 0.0 
1.837620545156e-03 6.993447253808e-03 0.0 
0.0 0.0 0.0 
-8.327427630128e-04 1.112951350377e-04 0.0 
1.112951350377e-04 1.382573383172e-02 0.0 
0.0 0.0 0.0 
4.247672742179e-04 -2.922756558564e-04 0.0 
-2.922756558564e-04 1.899185192058e-03 0.0 
0.0 0.0 0.0 
-9.479063510730e-04 3.719644460679e-04 0.0 
3.719644460679e-04 1.395191396165e-02 0.0 
0.0 0.0 0.0 
2.753666841331e-04 -1.428954258766e-04 0.0 
-1.428954258766e-04 1.417955078163e-03 0.0 
0.0 0.0 0.0 
5.237479476630e-04 5.412160647987e-04 0.0 
5.412160647987e-04 6.997179884449e-03 0.0 
0.0 0.0 0.0 
9.376373325403e-04 9.227848485633e-04 0.0 
9.227848485633e-04 6.286430582100e-03 0.0 
0.0 0.0 0.0 
7.717173422699e-04 1.506008980804e-03 0.0 
1.506008980804e-03 7.625255517110e-03 0.0 
0.0 0.0 0.0 
-5.235465329184e-04 5.151610870187e-04 0.0 
5.151610870187e-04 1.517707780829e-02 0.0 
0.0 0.0 0.0 
9.217480507306e-04 2.431428144789e-04 0.0 
2.431428144789e-04 4.690623877963e-03 0.0 
0.0 0.0 0.0 
2.939253236609e-04 -1.288102677220e-04 0.0 
-1.288102677220e-04 1.466422464919e-03 0.0 
0.0 0.0 0.0 
8.501122205491e-04 3.286795569099e-04 0.0 
3.286795569099e-04 5.320297665219e-03 0.0 
0.0 0.0 0.0 
5.131994897034e-04 7.470958037424e-04 0.0 
7.470958037424e-04 7.324071221618e-03 0.0 
0.0 0.0 0.0 
6.557387709745e-04 -1.931701307834e-04 0.0 
-1.931701307834e-04 2.492740052414e-03 0.0 
0.0 0.0 0.0 
6.413265909342e-04 2.601524302385e-04 0.0 
2.601524302385e-04 6.061536959203e-03 0.0 
0.0 0.0 0.0 
-7.858598204696e-04 2.502933969199e-04 0.0 
2.502933969199e-04 1.437502946457e-02 0.0 
0.0 0.0 0.0 
5.577165548776e-04 -1.078417244314e-04 0.0 
-1.078417244314e-04 1.960410670726e-03 0.0 
0.0 0.0 0.0 
7.999950900599e-04 3.158969557310e-04 0.0 
3.158969557310e-04 5.495963990339e-03 0.0 
0.0 0.0 0.0 
-1.029040688991e-03 1.545508194590e-04 0.0 
1.545508194590e-04 1.339262199889e-02 0.0 
0.0 0.0 0.0 
4.464057283529e-04 -1.324075247628e-04 0.0 
-1.324075247628e-04 2.155153280378e-03 0.0 
0.0 0.0 0.0 
5.876702306780e-04 -1.811609150754e-04 0.0 
-1.811609150754e-04 2.625491466568e-03 0.0 
0.0 0.0 0.0 
3.499400147220e-04 1.802848011002e-03 0.0 
1.802848011002e-03 7.841293450031e-03 0.0 
0.0 0.0 0.0 
7.521305526794e-04 3.643113559342e-04 0.0 
3.643113559342e-04 5.854199399403e-03 0.0 
0.0 0.0 0.0 
-1.554320475859e-04 1.824602213341e-03 0.0 
1.824602213341e-03 7.635871285499e-03 0.0 
0.0 0.0 0.0 
4.847991522003e-04 1.676302659562e-03 0.0 
1.676302659562e-03 7.192487960580e-03 0.0 
0.0 0.0 0.0 
-8.668408677247e-04 3.784797445262e-04 0.0 
3.784797445262e-04 1.415027450546e-02 0.0 
0.0 0.0 0.0 
-8.189091242436e-04 1.532664581389e-04 0.0 
1.532664581389e-04 1.361913100224e-02 0.0 
0.0 0.0 0.0 
-9.802678520826e-04 2.534707077016e-04 0.0 
2.534707077016e-04 1.358248158883e-02 0.0 
0.0 0.0 0.0 
7.394152350111e-04 4.400606590113e-05 0.0 
4.400606590113e-05 4.118210460115e-03 0.0 
0.0 0.0 0.0 
6.205749579946e-04 7.465140863982e-04 0.0 
7.465140863982e-04 6.981993259453e-03 0.0 
0.0 0.0 0.0 
8.974834065123e-04 3.398970683513e-04 0.0 
3.398970683513e-04 5.152136947365e-03 0.0 
0.0 0.0 0.0 
-9.431384085968e-04 9.917987108168e-05 0.0 
9.917987108168e-05 1.341647376672e-02 0.0 
0.0 0.0 0.0 
-6.267115520079e-04 2.032890818238e-03 0.0 
2.032890818238e-03 1.350769480273e-02 0.0 
0.0 0.0 0.0 
6.662083454769e-04 1.662628617737e-03 0.0 
1.662628617737e-03 8.152591301525e-03 0.0 
0.0 0.0 0.0 
8.154761250985e-04 3.849440067838e-04 0.0 
3.849440067838e-04 5.664772379818e-03 0.0 
0.0 0.0 0.0 
-6.892660332665e-04 3.750643928916e-04 0.0 
3.750643928916e-04 1.453117812619e-02 0.0 
0.0 0.0 0.0 
7.149522931933e-04 -1.318815193652e-04 0.0 
-1.318815193652e-04 3.070212863975e-03 0.0 
0.0 0.0 0.0 
6.508959658569e-04 -1.634831364711e-04 0.0 
-1.634831364711e-04 2.844235257738e-03 0.0 
0.0 0.0 0.0 
2.863336015471e-04 -2.479572270752e-04 0.0 
-2.479572270752e-04 1.525048774565e-03 0.0 
0.0 0.0 0.0 
8.476434393869e-04 4.359269727082e-04 0.0 
4.359269727082e-04 5.629423238055e-03 0.0 
0.0 0.0 0.0 
6.622673406411e-04 -1.377099679536e-04 0.0 
-1.377099679536e-04 3.010232420158e-03 0.0 
0.0 0.0 0.0 
-9.559662751089e-04 2.571399406452e-04 0.0 
2.571399406452e-04 1.398737993558e-02 0.0 
0.0 0.0 0.0 
-1.032241641956e-03 2.534550375897e-04 0.0 
2.534550375897e-04 1.378657891773e-02 0.0 
0.0 0.0 0.0 
1.037984880701e-03 8.461007118310e-04 0.0 
8.461007118310e-04 5.168016585134e-03 0.0 
0.0 0.0 0.0 
6.258780730950e-04 -1.234106219847e-04 0.0 
-1.234106219847e-04 2.450943101611e-03 0.0 
0.0 0.0 0.0 
8.898340293999e-04 6.732606187955e-04 0.0 
6.732606187955e-04 3.338505607243e-03 0.0 
0.0 0.0 0.0 
6.441135226551e-04 -1.010042310417e-04 0.0 
-1.010042310417e-04 2.612733985891e-03 0.0 
0.0 0.0 0.0 
7.181385654578e-04 -7.785597334411e-05 0.0 
-7.785597334411e-05 2.830628320249e-03 0.0 
0.0 0.0 0.0 
3.581698677322e-04 -1.468437725009e-04 0.0 
-1.468437725009e-04 1.667094579393e-03 0.0 
0.0 0.0 0.0 
6.955782985183e-04 7.845402637380e-04 0.0 
7.845402637380e-04 6.819965032547e-03 0.0 
0.0 0.0 0.0 
9.341170345709e-04 8.022554268347e-05 0.0 
8.022554268347e-05 3.537961844891e-03 0.0 
0.0 0.0 0.0 
-6.878728717724e-04 3.261833903258e-04 0.0 
3.261833903258e-04 1.472069047400e-02 0.0 
0.0 0.0 0.0 
9.962002958075e-04 1.641816380767e-04 0.0 
1.641816380767e-04 3.798232996897e-03 0.0 
0.0 0.0 0.0 
9.366419502483e-04 4.210050791160e-04 0.0 
4.210050791160e-04 5.305710069730e-03 0.0 
0.0 0.0 0.0 
9.876196647767e-04 2.468359040683e-04 0.0 
2.468359040683e-04 4.390462177275e-03 0.0 
0.0 0.0 0.0 
7.246808964516e-04 1.437497031852e-03 0.0 
1.437497031852e-03 6.395055187201e-03 0.0 
0.0 0.0 0.0 
3.343919040131e-04 -2.219287995841e-04 0.0 
-2.219287995841e-04 1.679658159212e-03 0.0 
0.0 0.0 0.0 
5.993017407484e-04 7.821012564390e-04 0.0 
7.821012564390e-04 7.131680917106e-03 0.0 
0.0 0.0 0.0 
4.704330194492e-04 8.339630501751e-04 0.0 
8.339630501751e-04 7.547513148675e-03 0.0 
0.0 0.0 0.0 
2.060637652683e-04 2.059554941185e-03 0.0 
2.059554941185e-03 9.319046226075e-03 0.0 
0.0 0.0 0.0 
7.924781852502e-04 -4.031284104920e-05 0.0 
-4.031284104920e-05 3.055619565569e-03 0.0 
0.0 0.0 0.0 
9.755674802172e-04 3.336530163084e-04 0.0 
3.336530163084e-04 4.840297301857e-03 0.0 
0.0 0.0 0.0 
-8.510317159618e-04 2.849995456622e-04 0.0 
2.849995456622e-04 1.398379733659e-02 0.0 
0.0 0.0 0.0 
7.192387951382e-04 -1.094662484025e-04 0.0 
-1.094662484025e-04 3.235966151061e-03 0.0 
0.0 0.0 0.0 
3.879465342524e-04 1.568009779337e-03 0.0 
1.568009779337e-03 6.354250292285e-03 0.0 
0.0 0.0 0.0 
5.246960049681e-04 -1.857166329583e-04 0.0 
-1.857166329583e-04 2.412825394974e-03 0.0 
0.0 0.0 0.0 
5.217336987597e-04 -2.563883826048e-04 0.0 
-2.563883826048e-04 2.120494892438e-03 0.0 
0.0 0.0 0.0 
7.784699021027e-04 -8.563933691577e-05 0.0 
-8.563933691577e-05 3.305048765152e-03 0.0 
0.0 0.0 0.0 
5.025922824167e-04 -1.095310992619e-04 0.0 
-1.095310992619e-04 2.190985890429e-03 0.0 
0.0 0.0 0.0 
4.133247821367e-04 -1.654314380136e-04 0.0 
-1.654314380136e-04 1.992425733040e-03 0.0 
0.0 0.0 0.0 
8.931860533101e-04 1.491486757382e-04 0.0 
1.491486757382e-04 4.405991219601e-03 0.0 
0.0 0.0 0.0 
8.774208550850e-04 4.039282627242e-04 0.0 
4.039282627242e-04 5.482013872677e-03 0.0 
0.0 0.0 0.0 
7.296547602964e-05 2.241432281487e-03 0.0 
2.241432281487e-03 1.076342792953e-02 0.0 
0.0 0.0 0.0 
-2.490100738737e-04 -3.601214138185e-05 0.0 
-3.601214138185e-05 2.155437972848e-04 0.0 
0.0 0.0 0.0 
1.083194063031e-03 2.989662313735e-04 0.0 
2.989662313735e-04 3.796097847227e-03 0.0 
0.0 0.0 0.0 
1.012837655838e-03 1.706370883244e-04 0.0 
1.706370883244e-04 3.647045459207e-03 0.0 
0.0 0.0 0.0 
8.659608929957e-04 1.196280196198e-05 0.0 
1.196280196198e-05 3.290504171732e-03 0.0 
0.0 0.0 0.0 
-9.190941085522e-04 2.717048393735e-04 0.0 
2.717048393735e-04 1.378411444638e-02 0.0 
0.0 0.0 0.0 
9.735513497757e-04 1.619372880112e-04 0.0 
1.619372880112e-04 3.956061577072e-03 0.0 
0.0 0.0 0.0 
5.924179119068e-04 -8.380513467835e-05 0.0 
-8.380513467835e-05 2.566042707030e-03 0.0 
0.0 0.0 0.0 
8.394799093840e-04 -2.186259685175e-05 0.0 
-2.186259685175e-05 3.554164464238e-03 0.0 
0.0 0.0 0.0 
-6.171381302961e-04 2.787275469227e-04 0.0 
2.787275469227e-04 1.455816566457e-02 0.0 
0.0 0.0 0.0 
5.464914420454e-04 -1.554301087098e-04 0.0 
-1.554301087098e-04 2.577432281825e-03 0.0 
0.0 0.0 0.0 
1.180479838307e-04 -1.241877550165e-04 0.0 
-1.241877550165e-04 9.410030896340e-04 0.0 
0.0 0.0 0.0 
2.372762254372e-04 -1.447299661180e-04 0.0 
-1.447299661180e-04 1.308022452898e-03 0.0 
0.0 0.0 0.0 
6.459925498410e-04 -1.238772402521e-04 0.0 
-1.238772402521e-04 2.242846319894e-03 0.0 
0.0 0.0 0.0 
7.074258051216e-04 -9.723382020443e-05 0.0 
-9.723382020443e-05 2.670712972199e-03 0.0 
0.0 0.0 0.0 
1.070397093768e-03 2.779399700450e-04 0.0 
2.779399700450e-04 3.930369635768e-03 0.0 
0.0 0.0 0.0 
8.952596880958e-04 5.697030246577e-05 0.0 
5.697030246577e-05 3.816486694943e-03 0.0 
0.0 0.0 0.0 
2.642515104794e-04 -3.219414964093e-04 0.0 
-3.219414964093e-04 1.543448223116e-03 0.0 
0.0 0.0 0.0 
2.325260483735e-04 -2.237478988120e-04 0.0 
-2.237478988120e-04 1.319655466940e-03 0.0 
0.0 0.0 0.0 
-1.244060238760e-03 3.647308924113e-04 0.0 
3.647308924113e-04 1.352630365980e-02 0.0 
0.0 0.0 0.0 
4.673806387090e-04 -1.804481494847e-04 0.0 
-1.804481494847e-04 2.201995719334e-03 0.0 
0.0 0.0 0.0 
8.233915343223e-04 7.426525444050e-04 0.0 
7.426525444050e-04 6.447323128052e-03 0.0 
0.0 0.0 0.0 
1.976929680660e-04 2.175344453812e-03 0.0 
2.175344453812e-03 1.015464648995e-02 0.0 
0.0 0.0 0.0 
-1.314185492102e-03 1.478383356424e-03 0.0 
1.478383356424e-03 1.273991872335e-02 0.0 
0.0 0.0 0.0 
-7.472572629525e-04 7.613616365048e-04 0.0 
7.613616365048e-04 1.471801131482e-02 0.0 
0.0 0.0 0.0 
-2.186427890638e-05 2.286960186698e-03 0.0 
2.286960186698e-03 1.134914751581e-02 0.0 
0.0 0.0 0.0 
1.000757526790e-03 9.172927010091e-04 0.0 
9.172927010091e-04 5.170288402637e-03 0.0 
0.0 0.0 0.0 
2.048338150318e-04 2.109045742390e-03 0.0 
2.109045742390e-03 9.734586771719e-03 0.0 
0.0 0.0 0.0 
3.639664136941e-04 -3.036435207100e-04 0.0 
-3.036435207100e-04 1.760237846284e-03 0.0 
0.0 0.0 0.0 
8.290945846459e-04 -1.014636040960e-05 0.0 
-1.014636040960e-05 3.714610211369e-03 0.0 
0.0 0.0 0.0 
9.367340337638e-04 1.273484503222e-03 0.0 
1.273484503222e-03 5.239092174233e-03 0.0 
0.0 0.0 0.0 
6.186780829807e-04 1.158488421406e-05 0.0 
1.158488421406e-05 2.082689316554e-03 0.0 
0.0 0.0 0.0 
1.760877422301e-04 -3.275134634991e-04 0.0 
-3.275134634991e-04 1.418057098044e-03 0.0 
0.0 0.0 0.0 
7.243077326766e-04 -5.737141258997e-05 0.0 
-5.737141258997e-05 2.997595040843e-03 0.0 
0.0 0.0 0.0 
9.079113566135e-04 5.480722204028e-05 0.0 
5.480722204028e-05 3.667794840484e-03 0.0 
0.0 0.0 0.0 
9.605962227091e-04 1.555037612469e-04 0.0 
1.555037612469e-04 3.950668997028e-03 0.0 
0.0 0.0 0.0 
5.289363365979e-04 -8.343545641543e-05 0.0 
-8.343545641543e-05 2.354080449724e-03 0.0 
0.0 0.0 0.0 
1.021929445040e-03 2.528151133331e-04 0.0 
2.528151133331e-04 4.228157057761e-03 0.0 
0.0 0.0 0.0 
9.711368542524e-04 1.671204589203e-04 0.0 
1.671204589203e-04 3.819738731116e-03 0.0 
0.0 0.0 0.0 
1.129996957270e-03 4.275798780521e-04 0.0 
4.275798780521e-04 4.110859701941e-03 0.0 
0.0 0.0 0.0 
6.353624438575e-04 -1.882392079216e-04 0.0 
-1.882392079216e-04 2.684639606905e-03 0.0 
0.0 0.0 0.0 
9.202952981475e-04 1.125880157381e-03 0.0 
1.125880157381e-03 6.655268637751e-03 0.0 
0.0 0.0 0.0 
-9.886703923714e-04 3.618370017536e-04 0.0 
3.618370017536e-04 1.415260262269e-02 0.0 
0.0 0.0 0.0 
1.133576895761e-03 4.671114871129e-04 0.0 
4.671114871129e-04 4.004162509301e-03 0.0 
0.0 0.0 0.0 
6.939525230596e-04 8.339530705469e-04 0.0 
8.339530705469e-04 6.968329442559e-03 0.0 
0.0 0.0 0.0 
4.707969570603e-04 -2.601001933319e-04 0.0 
-2.601001933319e-04 1.983729405930e-03 0.0 
0.0 0.0 0.0 
5.582328066049e-04 1.134177114194e-03 0.0 
1.134177114194e-03 7.759882217399e-03 0.0 
0.0 0.0 0.0 
1.049164739915e-03 2.623685373453e-04 0.0 
2.623685373453e-04 4.073712723115e-03 0.0 
0.0 0.0 0.0 
-7.013893746832e-05 2.379795533727e-03 0.0 
2.379795533727e-03 1.195096670099e-02 0.0 
0.0 0.0 0.0 
-4.930554127742e-04 2.046030421803e-03 0.0 
2.046030421803e-03 1.079152621558e-02 0.0 
0.0 0.0 0.0 
4.929023031388e-04 -1.687846194793e-04 0.0 
-1.687846194793e-04 1.879838689516e-03 0.0 
0.0 0.0 0.0 
-1.151537718946e-03 1.682405666083e-03 0.0 
1.682405666083e-03 1.252022912254e-02 0.0 
0.0 0.0 0.0 
-7.793111424496e-04 1.138257064213e-03 0.0 
1.138257064213e-03 1.458484306235e-02 0.0 
0.0 0.0 0.0 
1.090845299876e-03 3.744805664686e-04 0.0 
3.744805664686e-04 4.369156827911e-03 0.0 
0.0 0.0 0.0 
5.296420285676e-04 1.222825545704e-03 0.0 
1.222825545704e-03 5.051395104843e-03 0.0 
0.0 0.0 0.0 
-9.655599254123e-04 1.839968381278e-03 0.0 
1.839968381278e-03 1.226248072481e-02 0.0 
0.0 0.0 0.0 
3.392728420823e-04 1.873382566783e-03 0.0 
1.873382566783e-03 7.405410691417e-03 0.0 
0.0 0.0 0.0 
3.144361937373e-04 -1.950122864142e-04 0.0 
-1.950122864142e-04 1.522406297758e-03 0.0 
0.0 0.0 0.0 
-3.725017813004e-04 1.007136644654e-03 0.0 
1.007136644654e-03 1.525168222628e-02 0.0 
0.0 0.0 0.0 
1.946047858727e-04 -1.965945114122e-04 0.0 
-1.965945114122e-04 1.319711354886e-03 0.0 
0.0 0.0 0.0 
5.130401095339e-04 1.712113379465e-03 0.0 
1.712113379465e-03 8.663078221797e-03 0.0 
0.0 0.0 0.0 
-4.704164663127e-04 4.314392712661e-04 0.0 
4.314392712661e-04 1.503788639692e-02 0.0 
0.0 0.0 0.0 
8.880309257442e-04 1.080330258450e-03 0.0 
1.080330258450e-03 6.715266500644e-03 0.0 
0.0 0.0 0.0 
-8.912560393972e-04 1.982296440828e-04 0.0 
1.982296440828e-04 1.359695067287e-02 0.0 
0.0 0.0 0.0 
-9.066096846876e-04 6.081630131924e-04 0.0 
6.081630131924e-04 1.461942715655e-02 0.0 
0.0 0.0 0.0 
1.016499225836e-03 2.911029579885e-04 0.0 
2.911029579885e-04 4.133783087491e-03 0.0 
0.0 0.0 0.0 
1.029456304156e-03 9.529116353463e-04 0.0 
9.529116353463e-04 5.643739582077e-03 0.0 
0.0 0.0 0.0 
-5.790348769515e-04 8.822865129644e-04 0.0 
8.822865129644e-04 1.498924657183e-02 0.0 
0.0 0.0 0.0 
8.024909418058e-04 4.822645619378e-04 0.0 
4.822645619378e-04 5.966720684994e-03 0.0 
0.0 0.0 0.0 
-1.013457539778e-03 4.874360896695e-04 0.0 
4.874360896695e-04 1.429901024802e-02 0.0 
0.0 0.0 0.0 
1.027241089331e-03 8.446559138115e-04 0.0 
8.446559138115e-04 5.989247589726e-03 0.0 
0.0 0.0 0.0 
4.365119754328e-04 -1.657372154064e-04 0.0 
-1.657372154064e-04 1.738089389408e-03 0.0 
0.0 0.0 0.0 
-1.025982082783e-03 6.335008321650e-04 0.0 
6.335008321650e-04 1.442106288917e-02 0.0 
0.0 0.0 0.0 
1.095534609907e-04 2.572027641210e-03 0.0 
2.572027641210e-03 1.140714120267e-02 0.0 
0.0 0.0 0.0 
5.311170891775e-04 9.286394118608e-04 0.0 
9.286394118608e-04 7.525750724790e-03 0.0 
0.0 0.0 0.0 
9.179153544130e-04 8.520827246735e-05 0.0 
8.520827246735e-05 3.699558191050e-03 0.0 
0.0 0.0 0.0 
-9.817394048248e-04 1.636859687912e-04 0.0 
1.636859687912e-04 1.360036092387e-02 0.0 
0.0 0.0 0.0 
-9.383724985270e-04 1.781875024928e-04 0.0 
1.781875024928e-04 1.338961583319e-02 0.0 
0.0 0.0 0.0 
9.433693139611e-04 1.486927911222e-04 0.0 
1.486927911222e-04 4.091788127546e-03 0.0 
0.0 0.0 0.0 
8.715181832668e-04 5.070975246281e-04 0.0 
5.070975246281e-04 5.786683354583e-03 0.0 
0.0 0.0 0.0 
8.539111081161e-04 6.198750033808e-04 0.0 
6.198750033808e-04 6.107190288065e-03 0.0 
0.0 0.0 0.0 
1.756726280373e-04 -2.382768962327e-04 0.0 
-2.382768962327e-04 1.166222532582e-03 0.0 
0.0 0.0 0.0 
7.465916744323e-04 6.068167696724e-04 0.0 
6.068167696724e-04 2.914282487925e-03 0.0 
0.0 0.0 0.0 
1.162148929466e-03 6.167861950843e-04 0.0 
6.167861950843e-04 4.363231089987e-03 0.0 
0.0 0.0 0.0 
1.019499687521e-03 3.185356539086e-04 0.0 
3.185356539086e-04 4.029887640853e-03 0.0 
0.0 0.0 0.0 
6.351369242681e-04 1.677656174344e-03 0.0 
1.677656174344e-03 6.537988196639e-03 0.0 
0.0 0.0 0.0 
-5.728517884029e-04 8.277225957953e-04 0.0 
8.277225957953e-04 1.518817804046e-02 0.0 
0.0 0.0 0.0 
-6.506047909977e-04 1.830567508334e-03 0.0 
1.830567508334e-03 1.367166138926e-02 0.0 
0.0 0.0 0.0 
-5.566806530294e-04 3.970785648954e-04 0.0 
3.970785648954e-04 1.504070700658e-02 0.0 
0.0 0.0 0.0 
-2.954864166015e-04 1.912810043173e-03 0.0 
1.912810043173e-03 8.373781627988e-03 0.0 
0.0 0.0 0.0 
-9.465926680364e-04 9.897871316557e-04 0.0 
9.897871316557e-04 1.433136377033e-02 0.0 
0.0 0.0 0.0 
7.909983208136e-04 4.172598323885e-04 0.0 
4.172598323885e-04 5.800804999682e-03 0.0 
0.0 0.0 0.0 
-5.095037405733e-04 6.999454552582e-04 0.0 
6.999454552582e-04 1.509951866111e-02 0.0 
0.0 0.0 0.0 
-1.136407349280e-03 6.583935282915e-04 0.0 
6.583935282915e-04 1.421335560508e-02 0.0 
0.0 0.0 0.0 
8.781655692141e-04 6.160608636422e-05 0.0 
6.160608636422e-05 3.972189633518e-03 0.0 
0.0 0.0 0.0 
1.149808250452e-03 6.754603269647e-04 0.0 
6.754603269647e-04 4.291715252145e-03 0.0 
0.0 0.0 0.0 
-8.787088772327e-04 6.300310303821e-04 0.0 
6.300310303821e-04 1.442096714136e-02 0.0 
0.0 0.0 0.0 
-7.584658241968e-04 7.230169316660e-04 0.0 
7.230169316660e-04 1.491652929086e-02 0.0 
0.0 0.0 0.0 
-7.794077659620e-04 4.883798671915e-04 0.0 
4.883798671915e-04 1.449065514560e-02 0.0 
0.0 0.0 0.0 
-8.776032966569e-04 4.940665679098e-04 0.0 
4.940665679098e-04 1.429777890097e-02 0.0 
0.0 0.0 0.0 
6.582850715107e-04 6.720203734533e-04 0.0 
6.720203734533e-04 6.796805724140e-03 0.0 
0.0 0.0 0.0 
5.367077185034e-04 1.748842171776e-03 0.0 
1.748842171776e-03 8.649974582352e-03 0.0 
0.0 0.0 0.0 
7.439608363631e-04 7.067065691671e-04 0.0 
7.067065691671e-04 6.614329155677e-03 0.0 
0.0 0.0 0.0 
9.258776006247e-04 3.233102551040e-04 0.0 
3.233102551040e-04 5.013074073966e-03 0.0 
0.0 0.0 0.0 
-9.427882501608e-04 1.736306989972e-03 0.0 
1.736306989972e-03 1.003847184607e-02 0.0 
0.0 0.0 0.0 
8.214759122323e-04 1.245358856369e-03 0.0 
1.245358856369e-03 7.160036812317e-03 0.0 
0.0 0.0 0.0 
-1.126158914623e-03 1.086143359726e-03 0.0 
1.086143359726e-03 1.379137382425e-02 0.0 
0.0 0.0 0.0 
4.392400714861e-04 -9.841714486308e-05 0.0 
-9.841714486308e-05 1.982149769525e-03 0.0 
0.0 0.0 0.0 
1.050560772492e-03 4.656998929615e-04 0.0 
4.656998929615e-04 4.388292471255e-03 0.0 
0.0 0.0 0.0 
1.157758133095e-03 6.687849472676e-04 0.0 
6.687849472676e-04 4.909512974410e-03 0.0 
0.0 0.0 0.0 
9.956242227478e-04 1.062785572715e-03 0.0 
1.062785572715e-03 6.128487873571e-03 0.0 
0.0 0.0 0.0 
6.714972068314e-04 1.865864638572e-04 0.0 
1.865864638572e-04 2.254194874679e-03 0.0 
0.0 0.0 0.0 
1.040472377067e-03 5.123883475766e-04 0.0 
5.123883475766e-04 4.319967254897e-03 0.0 
0.0 0.0 0.0 
9.360061196926e-04 1.174551791469e-03 0.0 
1.174551791469e-03 6.622685184297e-03 0.0 
0.0 0.0 0.0 
-6.530241305870e-04 1.949017102692e-03 0.0 
1.949017102692e-03 9.849662603410e-03 0.0 
0.0 0.0 0.0 
9.456337904001e-04 1.622720119792e-04 0.0 
1.622720119792e-04 4.122335075617e-03 0.0 
0.0 0.0 0.0 
-1.205341512284e-03 5.155708617819e-04 0.0 
5.155708617819e-04 1.388570067327e-02 0.0 
0.0 0.0 0.0 
-8.882556387414e-04 5.349867232252e-05 0.0 
5.349867232252e-05 1.274035078001e-02 0.0 
0.0 0.0 0.0 
-1.102849239416e-03 1.482808066679e-03 0.0 
1.482808066679e-03 2.139654489548e-03 0.0 
0.0 0.0 0.0 
8.839340768259e-04 2.387053684866e-04 0.0 
2.387053684866e-04 4.855339223625e-03 0.0 
0.0 0.0 0.0 
9.385557860420e-04 1.139370102192e-03 0.0 
1.139370102192e-03 6.779887424457e-03 0.0 
0.0 0.0 0.0 
-5.965558982052e-04 1.768129969601e-03 0.0 
1.768129969601e-03 1.404076139304e-02 0.0 
0.0 0.0 0.0 
1.157501940248e-03 9.347036827647e-04 0.0 
9.347036827647e-04 5.170755527900e-03 0.0 
0.0 0.0 0.0 
9.486251444470e-04 2.424177782419e-04 0.0 
2.424177782419e-04 4.560204114703e-03 0.0 
0.0 0.0 0.0 
-1.078464439234e-03 3.657140076517e-04 0.0 
3.657140076517e-04 1.395303606631e-02 0.0 
0.0 0.0 0.0 
-1.148428710518e-03 1.613562204411e-03 0.0 
1.613562204411e-03 3.494475745639e-03 0.0 
0.0 0.0 0.0 
9.846801092639e-04 1.187873588662e-03 0.0 
1.187873588662e-03 6.698517703446e-03 0.0 
0.0 0.0 0.0 
1.037352496538e-03 8.966215956484e-04 0.0 
8.966215956484e-04 5.670750034978e-03 0.0 
0.0 0.0 0.0 
-8.202904400529e-04 1.953867031562e-03 0.0 
1.953867031562e-03 1.053593475671e-02 0.0 
0.0 0.0 0.0 
7.720259784134e-04 5.303443835368e-04 0.0 
5.303443835368e-04 6.121171602892e-03 0.0 
0.0 0.0 0.0 
5.220582140908e-04 -1.747110735344e-04 0.0 
-1.747110735344e-04 2.107009035445e-03 0.0 
0.0 0.0 0.0 
7.408672051750e-04 6.522221987066e-04 0.0 
6.522221987066e-04 6.461549852284e-03 0.0 
0.0 0.0 0.0 
6.308741071788e-04 9.710671371627e-04 0.0 
9.710671371627e-04 7.340720434956e-03 0.0 
0.0 0.0 0.0 
1.014583923739e-03 1.237563197274e-03 0.0 
1.237563197274e-03 6.637988764846e-03 0.0 
0.0 0.0 0.0 
-9.052585560091e-04 4.726795825700e-04 0.0 
4.726795825700e-04 1.449298031284e-02 0.0 
0.0 0.0 0.0 
3.682381713535e-04 2.000202824862e-03 0.0 
2.000202824862e-03 9.390129959053e-03 0.0 
0.0 0.0 0.0 
5.538629213877e-04 8.867421332577e-04 0.0 
8.867421332577e-04 7.351721296966e-03 0.0 
0.0 0.0 0.0 
-1.147933070946e-03 1.647709421742e-03 0.0 
1.647709421742e-03 4.877891630886e-03 0.0 
0.0 0.0 0.0 
-1.114381661916e-03 5.007922932481e-04 0.0 
5.007922932481e-04 1.409696926303e-02 0.0 
0.0 0.0 0.0 
4.407565728093e-04 1.941812961950e-03 0.0 
1.941812961950e-03 9.172376794357e-03 0.0 
0.0 0.0 0.0 
-7.699947462606e-04 6.165402262988e-04 0.0 
6.165402262988e-04 1.461795996707e-02 0.0 
0.0 0.0 0.0 
1.087532757439e-03 1.133927265820e-03 0.0 
1.133927265820e-03 6.138975375747e-03 0.0 
0.0 0.0 0.0 
1.049612927550e-03 6.760713342775e-04 0.0 
6.760713342775e-04 4.726596109146e-03 0.0 
0.0 0.0 0.0 
8.148375535133e-04 1.101530384560e-04 0.0 
1.101530384560e-04 4.404989652147e-03 0.0 
0.0 0.0 0.0 
1.090412681526e-04 1.916982931452e-04 0.0 
1.916982931452e-04 1.408437075388e-03 0.0 
0.0 0.0 0.0 
-6.578500741183e-04 5.961560649986e-04 0.0 
5.961560649986e-04 1.480598287428e-02 0.0 
0.0 0.0 0.0 
4.715660424830e-04 -7.003200247806e-05 0.0 
-7.003200247806e-05 2.147002171322e-03 0.0 
0.0 0.0 0.0 
-1.116452561992e-03 1.611880457970e-03 0.0 
1.611880457970e-03 6.232876815699e-03 0.0 
0.0 0.0 0.0 
2.903995010328e-04 2.030116923995e-03 0.0 
2.030116923995e-03 9.544299478701e-03 0.0 
0.0 0.0 0.0 
-4.326005911388e-04 5.397477728256e-04 0.0 
5.397477728256e-04 1.517355862202e-02 0.0 
0.0 0.0 0.0 
4.096716501809e-04 -2.499494204935e-04 0.0 
-2.499494204935e-04 1.859859040793e-03 0.0 
0.0 0.0 0.0 
1.991115867586e-04 1.907111027850e-03 0.0 
1.907111027850e-03 8.503140810479e-03 0.0 
0.0 0.0 0.0 
-9.814025303070e-04 6.407483008958e-04 0.0 
6.407483008958e-04 1.421486972124e-02 0.0 
0.0 0.0 0.0 
8.327174860958e-04 7.646014723685e-05 0.0 
7.646014723685e-05 4.310098093935e-03 0.0 
0.0 0.0 0.0 
5.585650976232e-04 -2.794160942824e-05 0.0 
-2.794160942824e-05 2.288747678606e-03 0.0 
0.0 0.0 0.0 
6.305133798914e-04 1.263150723620e-03 0.0 
1.263150723620e-03 4.436671326772e-03 0.0 
0.0 0.0 0.0 
2.474777553194e-04 -1.949746613530e-04 0.0 
-1.949746613530e-04 1.395448049321e-03 0.0 
0.0 0.0 0.0 
4.978092898278e-04 -8.667505948671e-05 0.0 
-8.667505948671e-05 1.839287339637e-03 0.0 
0.0 0.0 0.0 
3.673480691890e-04 -1.472123299693e-04 0.0 
-1.472123299693e-04 1.613302068134e-03 0.0 
0.0 0.0 0.0 
1.135548855358e-03 1.032985080275e-03 0.0 
1.032985080275e-03 5.649889085578e-03 0.0 
0.0 0.0 0.0 
-2.785463948689e-04 1.564393521468e-03 0.0 
1.564393521468e-03 1.518957789964e-02 0.0 
0.0 0.0 0.0 
-1.054079434970e-03 1.570865925344e-03 0.0 
1.570865925344e-03 7.611164717556e-03 0.0 
0.0 0.0 0.0 
5.725095812201e-04 6.259010980196e-04 0.0 
6.259010980196e-04 6.983132580421e-03 0.0 
0.0 0.0 0.0 
1.072220042378e-03 8.298819204405e-04 0.0 
8.298819204405e-04 4.220249650647e-03 0.0 
0.0 0.0 0.0 
-1.236920661252e-03 6.898547776082e-04 0.0 
6.898547776082e-04 1.399536371926e-02 0.0 
0.0 0.0 0.0 
3.634792071001e-04 2.249405344034e-04 0.0 
2.249405344034e-04 1.787239159214e-03 0.0 
0.0 0.0 0.0 
4.705661691669e-04 1.032736228706e-03 0.0 
1.032736228706e-03 7.754161740098e-03 0.0 
0.0 0.0 0.0 
2.978720537059e-04 -3.034402435907e-04 0.0 
-3.034402435907e-04 1.628238597234e-03 0.0 
0.0 0.0 0.0 
5.562949272078e-04 -5.255394106114e-05 0.0 
-5.255394106114e-05 2.533464834763e-03 0.0 
0.0 0.0 0.0 
9.399946523221e-04 1.396743465194e-03 0.0 
1.396743465194e-03 7.109108532076e-03 0.0 
0.0 0.0 0.0 
1.003057965320e-03 2.698703433539e-04 0.0 
2.698703433539e-04 4.252232991959e-03 0.0 
0.0 0.0 0.0 
5.576410958135e-04 1.789102479890e-03 0.0 
1.789102479890e-03 8.661856854271e-03 0.0 
0.0 0.0 0.0 
2.815112068653e-04 1.503863289990e-03 0.0 
1.503863289990e-03 5.946759130154e-03 0.0 
0.0 0.0 0.0 
-1.196094593210e-03 1.087164054344e-03 0.0 
1.087164054344e-03 1.406746391403e-02 0.0 
0.0 0.0 0.0 
5.952103929219e-04 1.792038928673e-03 0.0 
1.792038928673e-03 8.650373210732e-03 0.0 
0.0 0.0 0.0 
-9.703030730789e-04 4.954019970339e-04 0.0 
4.954019970339e-04 1.409712521717e-02 0.0 
0.0 0.0 0.0 
-7.130409366413e-04 1.806576101421e-03 0.0 
1.806576101421e-03 1.403564838882e-02 0.0 
0.0 0.0 0.0 
-1.019897640289e-03 7.970979185973e-04 0.0 
7.970979185973e-04 1.451306010024e-02 0.0 
0.0 0.0 0.0 
-9.901837524761e-04 9.741841839213e-04 0.0 
9.741841839213e-04 1.456893899921e-02 0.0 
0.0 0.0 0.0 
4.188922581274e-04 6.915834657890e-04 0.0 
6.915834657890e-04 2.518403926388e-03 0.0 
0.0 0.0 0.0 
6.230832588416e-04 5.178835225420e-04 0.0 
5.178835225420e-04 6.652033019423e-03 0.0 
0.0 0.0 0.0 
-9.756553886252e-04 8.074294143885e-04 0.0 
8.074294143885e-04 1.429482665194e-02 0.0 
0.0 0.0 0.0 
1.037251430772e-03 1.255857466766e-03 0.0 
1.255857466766e-03 5.641726646775e-03 0.0 
0.0 0.0 0.0 
-1.044640031782e-03 1.524250253665e-03 0.0 
1.524250253665e-03 8.995396374859e-03 0.0 
0.0 0.0 0.0 
3.838622938248e-04 1.885596716148e-03 0.0 
1.885596716148e-03 9.156831731440e-03 0.0 
0.0 0.0 0.0 
6.782850211897e-04 4.365264910918e-04 0.0 
4.365264910918e-04 2.520864455442e-03 0.0 
0.0 0.0 0.0 
4.989001928219e-04 -1.519650406817e-04 0.0 
-1.519650406817e-04 2.364152831842e-03 0.0 
0.0 0.0 0.0 
7.554882999667e-04 1.716079959220e-03 0.0 
1.716079959220e-03 8.119529828767e-03 0.0 
0.0 0.0 0.0 
2.845778834160e-04 -5.531205644583e-05 0.0 
-5.531205644583e-05 1.403693361989e-03 0.0 
0.0 0.0 0.0 
6.203883758451e-04 1.592802649361e-03 0.0 
1.592802649361e-03 6.999768418426e-03 0.0 
0.0 0.0 0.0 
9.143055181271e-04 1.343424661983e-03 0.0 
1.343424661983e-03 7.146527745281e-03 0.0 
0.0 0.0 0.0 
-7.981475711335e-04 1.098753083293e-03 0.0 
1.098753083293e-03 1.481912621633e-02 0.0 
0.0 0.0 0.0 
-7.208662025041e-04 1.300986779333e-03 0.0 
1.300986779333e-03 1.481707178074e-02 0.0 
0.0 0.0 0.0 
8.505355675876e-04 1.289015875861e-03 0.0 
1.289015875861e-03 7.125265259400e-03 0.0 
0.0 0.0 0.0 
-8.916003316610e-04 7.615737881909e-04 0.0 
7.615737881909e-04 1.471849861010e-02 0.0 
0.0 0.0 0.0 
1.061343415357e-03 1.004097374895e-03 0.0 
1.004097374895e-03 4.679776099249e-03 0.0 
0.0 0.0 0.0 
3.459873920564e-05 2.126296986791e-03 0.0 
2.126296986791e-03 1.036565400603e-02 0.0 
0.0 0.0 0.0 
-1.509452200853e-03 1.449675584476e-03 0.0 
1.449675584476e-03 1.053068305396e-02 0.0 
0.0 0.0 0.0 
-3.683020758155e-04 2.152880618798e-03 0.0 
2.152880618798e-03 1.279923077906e-02 0.0 
0.0 0.0 0.0 
-1.326142979390e-03 6.930120472600e-04 0.0 
6.930120472600e-04 1.171236241784e-02 0.0 
0.0 0.0 0.0 
-1.265120288728e-03 5.052350450982e-04 0.0 
5.052350450982e-04 1.204348647189e-02 0.0 
0.0 0.0 0.0 
1.134005182845e-03 1.006070586390e-03 0.0 
1.006070586390e-03 5.144042348822e-03 0.0 
0.0 0.0 0.0 
-1.297056879453e-03 4.727226462815e-04 0.0 
4.727226462815e-04 1.225726262796e-02 0.0 
0.0 0.0 0.0 
7.129996541650e-04 1.582616532665e-03 0.0 
1.582616532665e-03 7.302238254246e-03 0.0 
0.0 0.0 0.0 
8.068473933818e-04 1.269946339003e-03 0.0 
1.269946339003e-03 5.816151968681e-03 0.0 
0.0 0.0 0.0 
1.063172839986e-03 6.209380972453e-04 0.0 
6.209380972453e-04 4.774473914731e-03 0.0 
0.0 0.0 0.0 
5.530933924054e-04 5.398458552500e-05 0.0 
5.398458552500e-05 1.967927792712e-03 0.0 
0.0 0.0 0.0 
1.153349813807e-03 8.390506778858e-04 0.0 
8.390506778858e-04 4.701260404506e-03 0.0 
0.0 0.0 0.0 
-6.256707907962e-04 7.357071718202e-04 0.0 
7.357071718202e-04 1.491454889864e-02 0.0 
0.0 0.0 0.0 
-4.898775980082e-04 2.027132248309e-03 0.0 
2.027132248309e-03 1.350789803517e-02 0.0 
0.0 0.0 0.0 
7.317135614933e-04 4.542206091761e-04 0.0 
4.542206091761e-04 6.152111899314e-03 0.0 
0.0 0.0 0.0 
6.252258842969e-04 1.830784005143e-03 0.0 
1.830784005143e-03 8.637286167493e-03 0.0 
0.0 0.0 0.0 
1.114723252129e-03 3.967303931208e-04 0.0 
3.967303931208e-04 4.231748083370e-03 0.0 
0.0 0.0 0.0 
-8.343034014979e-04 9.563844617646e-04 0.0 
9.563844617646e-04 1.457051862794e-02 0.0 
0.0 0.0 0.0 
1.170574627779e-03 7.730651052653e-04 0.0 
7.730651052653e-04 4.751136984674e-03 0.0 
0.0 0.0 0.0 
5.477684466031e-04 4.836098071484e-04 0.0 
4.836098071484e-04 6.849130080563e-03 0.0 
0.0 0.0 0.0 
-8.651051811245e-04 7.860303079014e-04 0.0 
7.860303079014e-04 1.451382656666e-02 0.0 
0.0 0.0 0.0 
-1.102789710835e-03 1.026283550455e-03 0.0 
1.026283550455e-03 1.432742968786e-02 0.0 
0.0 0.0 0.0 
1.071126278867e-03 1.080047877122e-03 0.0 
1.080047877122e-03 6.193255539542e-03 0.0 
0.0 0.0 0.0 
1.117068046485e-03 9.161488049428e-04 0.0 
9.161488049428e-04 4.676734818626e-03 0.0 
0.0 0.0 0.0 
2.484959254434e-05 2.200469035767e-03 0.0 
2.200469035767e-03 1.076623664278e-02 0.0 
0.0 0.0 0.0 
-5.110850755385e-04 2.031319309380e-03 0.0 
2.031319309380e-03 1.079359997932e-02 0.0 
0.0 0.0 0.0 
4.513162886173e-04 -1.456487639773e-04 0.0 
-1.456487639773e-04 2.000427696090e-03 0.0 
0.0 0.0 0.0 
5.766016977000e-04 1.923291310650e-04 0.0 
1.923291310650e-04 2.560620037751e-03 0.0 
0.0 0.0 0.0 
5.203103831537e-04 1.572840194100e-03 0.0 
1.572840194100e-03 5.677825628051e-03 0.0 
0.0 0.0 0.0 
1.968049194117e-04 1.989601884171e-03 0.0 
1.989601884171e-03 8.491628111310e-03 0.0 
0.0 0.0 0.0 
4.705126504894e-04 4.424417337632e-04 0.0 
4.424417337632e-04 7.055421799409e-03 0.0 
0.0 0.0 0.0 
-1.133102232970e-03 8.358929606924e-04 0.0 
8.358929606924e-04 1.429200096889e-02 0.0 
0.0 0.0 0.0 
1.019065697008e-03 7.417240458212e-04 0.0 
7.417240458212e-04 4.703999317586e-03 0.0 
0.0 0.0 0.0 
4.435962808502e-05 2.021594923379e-03 0.0 
2.021594923379e-03 9.567195635054e-03 0.0 
0.0 0.0 0.0 
8.717580966175e-04 1.303797038894e-03 0.0 
1.303797038894e-03 7.221524528185e-03 0.0 
0.0 0.0 0.0 
-7.825835587402e-04 5.813865087910e-04 0.0 
5.813865087910e-04 1.480825956497e-02 0.0 
0.0 0.0 0.0 
-8.897388983697e-05 2.285852506697e-03 0.0 
2.285852506697e-03 1.134946098742e-02 0.0 
0.0 0.0 0.0 
-1.156581228318e-03 6.681987634656e-04 0.0 
6.681987634656e-04 1.377094410017e-02 0.0 
0.0 0.0 0.0 
7.959705180463e-04 1.059712082536e-03 0.0 
1.059712082536e-03 7.051729682838e-03 0.0 
0.0 0.0 0.0 
1.056472167450e-03 7.850291472227e-04 0.0 
7.850291472227e-04 5.193867261963e-03 0.0 
0.0 0.0 0.0 
7.755469925761e-04 1.199143210736e-03 0.0 
1.199143210736e-03 7.231388429326e-03 0.0 
0.0 0.0 0.0 
6.513036226412e-04 1.726310266254e-03 0.0 
1.726310266254e-03 6.979647118905e-03 0.0 
0.0 0.0 0.0 
-7.177840394588e-04 8.814052967966e-04 0.0 
8.814052967966e-04 1.498970085772e-02 0.0 
0.0 0.0 0.0 
-1.796286562600e-04 2.349166233380e-03 0.0 
2.349166233380e-03 1.195294405111e-02 0.0 
0.0 0.0 0.0 
1.130505143146e-03 9.750042905104e-04 0.0 
9.750042905104e-04 5.700811465550e-03 0.0 
0.0 0.0 0.0 
5.857356856040e-04 2.761636718572e-04 0.0 
2.761636718572e-04 2.170779849727e-03 0.0 
0.0 0.0 0.0 
4.956302879293e-04 2.043891340830e-03 0.0 
2.043891340830e-03 9.251681207718e-03 0.0 
0.0 0.0 0.0 
6.175506846640e-04 1.656222848588e-03 0.0 
1.656222848588e-03 7.443665259974e-03 0.0 
0.0 0.0 0.0 
9.696241783002e-04 8.194979361079e-04 0.0 
8.194979361079e-04 4.709119620413e-03 0.0 
0.0 0.0 0.0 
9.919568500987e-04 1.009963617067e-03 0.0 
1.009963617067e-03 6.158043108200e-03 0.0 
0.0 0.0 0.0 
7.647409372207e-04 8.181267077889e-04 0.0 
8.181267077889e-04 6.672170240445e-03 0.0 
0.0 0.0 0.0 
4.849890287728e-04 3.627976516851e-05 0.0 
3.627976516851e-05 2.210294637901e-03 0.0 
0.0 0.0 0.0 
1.163656967935e-03 8.725492880498e-04 0.0 
8.725492880498e-04 5.220447819076e-03 0.0 
0.0 0.0 0.0 
-9.403720889773e-04 1.758672084958e-03 0.0 
1.758672084958e-03 1.227327659517e-02 0.0 
0.0 0.0 0.0 
4.377502149007e-04 3.607254879977e-04 0.0 
3.607254879977e-04 7.067018356804e-03 0.0 
0.0 0.0 0.0 
-7.552792487119e-04 1.907868095113e-03 0.0 
1.907868095113e-03 1.199220805849e-02 0.0 
0.0 0.0 0.0 
4.287219632444e-04 2.076062497139e-03 0.0 
2.076062497139e-03 9.378775174946e-03 0.0 
0.0 0.0 0.0 
-1.104001762096e-03 1.568107988942e-03 0.0 
1.568107988942e-03 1.253508176985e-02 0.0 
0.0 0.0 0.0 
-1.308559170347e-03 1.080345721659e-03 0.0 
1.080345721659e-03 1.292217826850e-02 0.0 
0.0 0.0 0.0 
-3.066644550588e-04 2.080741125168e-03 0.0 
2.080741125168e-03 1.048675107280e-02 0.0 
0.0 0.0 0.0 
7.335823052836e-04 1.672065194928e-03 0.0 
1.672065194928e-03 8.124235740016e-03 0.0 
0.0 0.0 0.0 
6.400794330277e-04 4.716667469821e-04 0.0 
4.716667469821e-04 6.480963170866e-03 0.0 
0.0 0.0 0.0 
-1.074191993264e-03 8.350953250588e-04 0.0 
8.350953250588e-04 1.406014595120e-02 0.0 
0.0 0.0 0.0 
-5.891732783548e-04 1.281537485526e-03 0.0 
1.281537485526e-03 1.481899283817e-02 0.0 
0.0 0.0 0.0 
-1.233788326358e-03 1.338547189263e-03 0.0 
1.338547189263e-03 1.275862901381e-02 0.0 
0.0 0.0 0.0 
8.956264812088e-04 5.426298849079e-04 0.0 
5.426298849079e-04 3.807272588418e-03 0.0 
0.0 0.0 0.0 
3.030037315821e-04 2.100076359245e-03 0.0 
2.100076359245e-03 9.839595146283e-03 0.0 
0.0 0.0 0.0 
-6.211140111908e-04 6.837739207752e-04 0.0 
6.837739207752e-04 1.510175750816e-02 0.0 
0.0 0.0 0.0 
8.779155360192e-04 1.499241234384e-03 0.0 
1.499241234384e-03 6.247712558790e-03 0.0 
0.0 0.0 0.0 
7.728398229059e-04 1.645438134849e-03 0.0 
1.645438134849e-03 6.825900548524e-03 0.0 
0.0 0.0 0.0 
9.719411852727e-04 6.401359045971e-04 0.0 
6.401359045971e-04 4.250562120361e-03 0.0 
0.0 0.0 0.0 
-1.044889257200e-03 1.031725617631e-03 0.0 
1.031725617631e-03 1.407414780678e-02 0.0 
0.0 0.0 0.0 
9.658397757883e-05 1.891390711148e-03 0.0 
1.891390711148e-03 7.285720198668e-03 0.0 
0.0 0.0 0.0 
8.418523741027e-04 1.636025765095e-03 0.0 
1.636025765095e-03 7.182461876616e-03 0.0 
0.0 0.0 0.0 
7.231851226019e-05 1.775951305988e-03 0.0 
1.775951305988e-03 7.301530502866e-03 0.0 
0.0 0.0 0.0 
8.525908236670e-04 1.558727952114e-03 0.0 
1.558727952114e-03 7.605309429975e-03 0.0 
0.0 0.0 0.0 
2.154022225154e-04 2.219006512822e-03 0.0 
2.219006512822e-03 1.028205702568e-02 0.0 
0.0 0.0 0.0 
1.014702686429e-03 5.699479260768e-04 0.0 
5.699479260768e-04 4.273069222743e-03 0.0 
0.0 0.0 0.0 
2.282157367661e-05 -7.716053359051e-05 0.0 
-7.716053359051e-05 1.452479705255e-03 0.0 
0.0 0.0 0.0 
-6.019215042177e-04 1.539052570936e-03 0.0 
1.539052570936e-03 1.449721731052e-02 0.0 
0.0 0.0 0.0 
-6.513482774584e-05 1.958204603803e-03 0.0 
1.958204603803e-03 7.996389946824e-03 0.0 
0.0 0.0 0.0 
1.144654943043e-03 5.269923046667e-04 0.0 
5.269923046667e-04 4.556892525805e-03 0.0 
0.0 0.0 0.0 
4.387059335818e-04 2.162522187926e-03 0.0 
2.162522187926e-03 9.711852294356e-03 0.0 
0.0 0.0 0.0 
-1.232586765845e-03 8.834249720652e-04 0.0 
8.834249720652e-04 1.405496074306e-02 0.0 
0.0 0.0 0.0 
7.061896944296e-04 5.033451679207e-04 0.0 
5.033451679207e-04 6.297272049562e-03 0.0 
0.0 0.0 0.0 
8.661677279320e-04 1.093055234863e-03 0.0 
1.093055234863e-03 5.266618357428e-03 0.0 
0.0 0.0 0.0 
-4.212626362443e-05 6.736766987927e-05 0.0 
6.736766987927e-05 1.132788726891e-03 0.0 
0.0 0.0 0.0 
3.673905658643e-04 3.070171759571e-04 0.0 
3.070171759571e-04 7.308904495007e-03 0.0 
0.0 0.0 0.0 
3.645345312631e-04 1.942860059311e-03 0.0 
1.942860059311e-03 8.249850506187e-03 0.0 
0.0 0.0 0.0 
7.540478726553e-04 1.544245038393e-03 0.0 
1.544245038393e-03 7.638841577506e-03 0.0 
0.0 0.0 0.0 
1.827475890375e-04 2.277286954212e-03 0.0 
2.277286954212e-03 1.058508743423e-02 0.0 
0.0 0.0 0.0 
-3.796880809397e-04 5.900348547246e-05 0.0 
5.900348547246e-05 8.381880592490e-04 0.0 
0.0 0.0 0.0 
7.794665264584e-04 5.911417174600e-04 0.0 
5.911417174600e-04 6.283251913719e-03 0.0 
0.0 0.0 0.0 
5.857332628796e-04 8.517554481530e-04 0.0 
8.517554481530e-04 3.934761031365e-03 0.0 
0.0 0.0 0.0 
-1.331207611003e-03 7.270937080582e-04 0.0 
7.270937080582e-04 1.376484707406e-02 0.0 
0.0 0.0 0.0 
8.278793751422e-04 1.518902911518e-04 0.0 
1.518902911518e-04 4.750981030747e-03 0.0 
0.0 0.0 0.0 
1.120607130992e-03 7.460329552885e-04 0.0 
7.460329552885e-04 4.243156139482e-03 0.0 
0.0 0.0 0.0 
5.056309476588e-04 4.033029978268e-04 0.0 
4.033029978268e-04 6.861764158530e-03 0.0 
0.0 0.0 0.0 
7.579607361428e-04 1.705690627501e-03 0.0 
1.705690627501e-03 7.283244890496e-03 0.0 
0.0 0.0 0.0 
1.059188803046e-03 6.585089603623e-04 0.0 
6.585089603623e-04 3.797448356018e-03 0.0 
0.0 0.0 0.0 
2.034635744981e-04 1.947283970704e-03 0.0 
1.947283970704e-03 8.913222967366e-03 0.0 
0.0 0.0 0.0 
-1.280168980944e-04 -1.951868015159e-04 0.0 
-1.951868015159e-04 1.180594295513e-03 0.0 
0.0 0.0 0.0 
1.793875740044e-04 2.050307510960e-03 0.0 
2.050307510960e-03 9.742728350534e-03 0.0 
0.0 0.0 0.0 
7.635122432494e-04 1.455708767068e-03 0.0 
1.455708767068e-03 7.621230967375e-03 0.0 
0.0 0.0 0.0 
-2.367142126148e-04 2.318577462645e-03 0.0 
2.318577462645e-03 1.245604459364e-02 0.0 
0.0 0.0 0.0 
1.534581558493e-04 2.121863740668e-03 0.0 
2.121863740668e-03 1.016224765250e-02 0.0 
0.0 0.0 0.0 
7.347989913138e-04 2.752599559388e-04 0.0 
2.752599559388e-04 2.972446679118e-03 0.0 
0.0 0.0 0.0 
6.724068063793e-04 3.727766379523e-04 0.0 
3.727766379523e-04 6.165295072251e-03 0.0 
0.0 0.0 0.0 
-4.413404268168e-04 8.479757534581e-04 0.0 
8.479757534581e-04 1.518733100876e-02 0.0 
0.0 0.0 0.0 
2.472957867639e-04 2.049176207850e-03 0.0 
2.049176207850e-03 9.669332646669e-03 0.0 
0.0 0.0 0.0 
6.647838019156e-04 1.624835176458e-03 0.0 
1.624835176458e-03 8.133657555752e-03 0.0 
0.0 0.0 0.0 
9.440109377319e-04 9.997199961845e-04 0.0 
9.997199961845e-04 5.201025234722e-03 0.0 
0.0 0.0 0.0 
1.958004647789e-04 1.993063448464e-03 0.0 
1.993063448464e-03 9.327965604483e-03 0.0 
0.0 0.0 0.0 
4.443065591067e-04 3.036512095456e-04 0.0 
3.036512095456e-04 6.943675663666e-03 0.0 
0.0 0.0 0.0 
7.035287817270e-04 -1.774386757075e-05 0.0 
-1.774386757075e-05 4.307369012392e-03 0.0 
0.0 0.0 0.0 
3.303617063599e-04 2.091749768912e-03 0.0 
2.091749768912e-03 9.535266173562e-03 0.0 
0.0 0.0 0.0 
-1.075232420311e-03 6.520857450230e-04 0.0 
6.520857450230e-04 1.399913154740e-02 0.0 
0.0 0.0 0.0 
5.741765781524e-04 4.407532185318e-04 0.0 
4.407532185318e-04 6.664158930257e-03 0.0 
0.0 0.0 0.0 
6.701649014864e-04 6.227808876478e-04 0.0 
6.227808876478e-04 6.627759616475e-03 0.0 
0.0 0.0 0.0 
-8.205264096458e-04 -1.384760844912e-06 0.0 
-1.384760844912e-06 1.242152553804e-02 0.0 
0.0 0.0 0.0 
-8.129248568098e-04 3.925661124179e-06 0.0 
3.925661124179e-06 1.241686877289e-02 0.0 
0.0 0.0 0.0 
-1.046896834103e-03 1.750084508165e-03 0.0 
1.750084508165e-03 1.275172204691e-02 0.0 
0.0 0.0 0.0 
3.483529375949e-04 2.030016967306e-03 0.0 
2.030016967306e-03 9.105154672758e-03 0.0 
0.0 0.0 0.0 
7.920399604395e-04 1.511558130303e-04 0.0 
1.511558130303e-04 4.931881039291e-03 0.0 
0.0 0.0 0.0 
-4.479066225073e-04 2.070071908407e-03 0.0 
2.070071908407e-03 1.111669970647e-02 0.0 
0.0 0.0 0.0 
8.693536710933e-04 1.563289581936e-03 0.0 
1.563289581936e-03 6.709456065969e-03 0.0 
0.0 0.0 0.0 
6.254071845937e-04 1.341203497418e-03 0.0 
1.341203497418e-03 7.835418007488e-03 0.0 
0.0 0.0 0.0 
1.024238495969e-03 1.176831300497e-03 0.0 
1.176831300497e-03 5.174102882038e-03 0.0 
0.0 0.0 0.0 
-2.580665622873e-04 1.377894205966e-03 0.0 
1.377894205966e-03 1.533361084255e-02 0.0 
0.0 0.0 0.0 
-1.366809513582e-03 9.175800614440e-04 0.0 
9.175800614440e-04 1.269375135119e-02 0.0 
0.0 0.0 0.0 
7.290152339583e-04 1.508691819328e-03 0.0 
1.508691819328e-03 6.847032604851e-03 0.0 
0.0 0.0 0.0 
9.058876936798e-04 2.381156793283e-04 0.0 
2.381156793283e-04 4.736568780314e-03 0.0 
0.0 0.0 0.0 
6.475712074303e-04 3.651260370395e-04 0.0 
3.651260370395e-04 2.952651379012e-03 0.0 
0.0 0.0 0.0 
8.570079400450e-04 6.892310882289e-05 0.0 
6.892310882289e-05 4.137327419692e-03 0.0 
0.0 0.0 0.0 
3.604523356944e-04 1.982397994372e-03 0.0 
1.982397994372e-03 8.676662859622e-03 0.0 
0.0 0.0 0.0 
2.721758517810e-05 2.049517134579e-03 0.0 
2.049517134579e-03 9.163094909189e-03 0.0 
0.0 0.0 0.0 
-1.160582949776e-03 8.726486766829e-04 0.0 
8.726486766829e-04 1.381050296363e-02 0.0 
0.0 0.0 0.0 
-2.586091645467e-04 2.116526689765e-03 0.0 
2.116526689765e-03 1.083775894818e-02 0.0 
0.0 0.0 0.0 
-4.008852314605e-04 2.107613396774e-03 0.0 
2.107613396774e-03 1.143964799229e-02 0.0 
0.0 0.0 0.0 
1.708827977200e-04 -7.189442220251e-05 0.0 
-7.189442220251e-05 1.013517166068e-03 0.0 
0.0 0.0 0.0 
8.968740676361e-04 9.227417896021e-05 0.0 
9.227417896021e-05 3.869239413279e-03 0.0 
0.0 0.0 0.0 
-6.883162068216e-05 1.878084137637e-03 0.0 
1.878084137637e-03 8.005745114879e-03 0.0 
0.0 0.0 0.0 
-6.502557211359e-04 1.976690005622e-03 0.0 
1.976690005622e-03 1.141385981288e-02 0.0 
0.0 0.0 0.0 
-7.709026541981e-04 1.968747077502e-03 0.0 
1.968747077502e-03 1.198026558445e-02 0.0 
0.0 0.0 0.0 
6.900163765189e-04 1.610790851667e-03 0.0 
1.610790851667e-03 8.135256624137e-03 0.0 
0.0 0.0 0.0 
3.263737273931e-04 3.176876707108e-05 0.0 
3.176876707108e-05 1.576421567539e-03 0.0 
0.0 0.0 0.0 
3.750430262714e-04 -9.638599223111e-05 0.0 
-9.638599223111e-05 1.905173876118e-03 0.0 
0.0 0.0 0.0 
5.151525595590e-04 1.844823109966e-03 0.0 
1.844823109966e-03 7.607471342344e-03 0.0 
0.0 0.0 0.0 
8.149375052851e-04 2.915788279035e-06 0.0 
2.915788279035e-06 3.883177911668e-03 0.0 
0.0 0.0 0.0 
-1.580119176537e-03 8.941043367201e-04 0.0 
8.941043367201e-04 1.196678613723e-02 0.0 
0.0 0.0 0.0 
-1.521018145536e-03 7.332749093553e-04 0.0 
7.332749093553e-04 1.222216084884e-02 0.0 
0.0 0.0 0.0 
-1.314719423532e-03 9.453743574828e-04 0.0 
9.453743574828e-04 1.380250415402e-02 0.0 
0.0 0.0 0.0 
1.783853494299e-04 5.589452594043e-04 0.0 
5.589452594043e-04 2.631713478051e-03 0.0 
0.0 0.0 0.0 
8.780956636458e-04 1.657656305309e-04 0.0 
1.657656305309e-04 4.475265685516e-03 0.0 
0.0 0.0 0.0 
8.375159589447e-04 1.041866167800e-03 0.0 
1.041866167800e-03 6.795265939277e-03 0.0 
0.0 0.0 0.0 
4.741796400607e-04 1.318794045648e-04 0.0 
1.318794045648e-04 1.855051454155e-03 0.0 
0.0 0.0 0.0 
7.062350781695e-05 2.402042708924e-03 0.0 
2.402042708924e-03 1.120433851296e-02 0.0 
0.0 0.0 0.0 
-8.562030509992e-04 9.246759655497e-04 0.0 
9.246759655497e-04 1.478599161701e-02 0.0 
0.0 0.0 0.0 
7.796964363624e-04 2.719551151474e-05 0.0 
2.719551151474e-05 4.236006342885e-03 0.0 
0.0 0.0 0.0 
6.613715110377e-04 4.258013552044e-04 0.0 
4.258013552044e-04 6.345070200212e-03 0.0 
0.0 0.0 0.0 
1.529657496184e-04 -9.539097344574e-05 0.0 
-9.539097344574e-05 6.984161031951e-04 0.0 
0.0 0.0 0.0 
8.863310897862e-04 8.824235541383e-04 0.0 
8.824235541383e-04 6.389950482083e-03 0.0 
0.0 0.0 0.0 
3.556271657610e-04 1.849531626061e-03 0.0 
1.849531626061e-03 8.263540022476e-03 0.0 
0.0 0.0 0.0 
1.640117562165e-04 -7.051410981195e-05 0.0 
-7.051410981195e-05 6.883586320854e-04 0.0 
0.0 0.0 0.0 
-7.096160422774e-04 9.209816574271e-04 0.0 
9.209816574271e-04 1.478603002315e-02 0.0 
0.0 0.0 0.0 
2.626049541858e-04 -2.635140106887e-05 0.0 
-2.635140106887e-05 1.829121453949e-03 0.0 
0.0 0.0 0.0 
-6.442369375588e-04 2.017292227427e-03 0.0 
2.017292227427e-03 1.140762156793e-02 0.0 
0.0 0.0 0.0 
3.766917727877e-05 1.987835488418e-03 0.0 
1.987835488418e-03 9.171356071233e-03 0.0 
0.0 0.0 0.0 
1.047516550712e-03 4.274349902504e-04 0.0 
4.274349902504e-04 4.474157386053e-03 0.0 
0.0 0.0 0.0 
1.053416178698e-03 5.765949527096e-04 0.0 
5.765949527096e-04 5.292631347127e-03 0.0 
0.0 0.0 0.0 
-6.607183937322e-04 1.093265035676e-03 0.0 
1.093265035676e-03 1.481933382165e-02 0.0 
0.0 0.0 0.0 
9.929717356119e-04 6.783413210569e-04 0.0 
6.783413210569e-04 5.780701914192e-03 0.0 
0.0 0.0 0.0 
6.483096854968e-04 1.774614960365e-03 0.0 
1.774614960365e-03 7.425553982243e-03 0.0 
0.0 0.0 0.0 
4.959787239989e-04 1.730281613884e-03 0.0 
1.730281613884e-03 7.624451300344e-03 0.0 
0.0 0.0 0.0 
-1.024227622996e-03 1.336031051556e-03 0.0 
1.336031051556e-03 1.502546076335e-03 0.0 
0.0 0.0 0.0 
2.307466411378e-04 8.659269759862e-05 0.0 
8.659269759862e-05 1.500334560859e-03 0.0 
0.0 0.0 0.0 
2.460797675181e-04 2.120130166984e-03 0.0 
2.120130166984e-03 9.970811027512e-03 0.0 
0.0 0.0 0.0 
-1.422567001946e-03 1.117945228749e-03 0.0 
1.117945228749e-03 1.323033133989e-02 0.0 
0.0 0.0 0.0 
3.773147324275e-04 2.174421083736e-03 0.0 
2.174421083736e-03 9.825490525192e-03 0.0 
0.0 0.0 0.0 
6.557837156151e-04 1.096029142010e-03 0.0 
1.096029142010e-03 3.897363281658e-03 0.0 
0.0 0.0 0.0 
-8.229231702409e-04 1.697998383074e-03 0.0 
1.697998383074e-03 1.343721991010e-02 0.0 
0.0 0.0 0.0 
1.208897157690e-04 2.221956851365e-03 0.0 
2.221956851365e-03 1.058920004654e-02 0.0 
0.0 0.0 0.0 
-1.381010747673e-03 8.305428823608e-04 0.0 
8.305428823608e-04 1.218790172466e-02 0.0 
0.0 0.0 0.0 
2.982166339494e-04 2.161331569142e-03 0.0 
2.161331569142e-03 9.963235136157e-03 0.0 
0.0 0.0 0.0 
6.112407197758e-04 3.453277311981e-04 0.0 
3.453277311981e-04 6.358112866227e-03 0.0 
0.0 0.0 0.0 
4.931298145929e-04 1.937046113447e-03 0.0 
1.937046113447e-03 8.483602883573e-03 0.0 
0.0 0.0 0.0 
9.135948277652e-04 1.645229727787e-04 0.0 
1.645229727787e-04 4.296159557689e-03 0.0 
0.0 0.0 0.0 
8.617085894906e-04 1.505581459390e-04 0.0 
1.505581459390e-04 4.574749421054e-03 0.0 
0.0 0.0 0.0 
-7.574732336764e-04 1.577392099608e-03 0.0 
1.577392099608e-03 1.448916114998e-02 0.0 
0.0 0.0 0.0 
1.085700333013e-03 4.750619761158e-04 0.0 
4.750619761158e-04 4.822699523870e-03 0.0 
0.0 0.0 0.0 
2.047303844259e-04 2.021062318087e-03 0.0 
2.021062318087e-03 8.903140335973e-03 0.0 
0.0 0.0 0.0 
1.028306504294e-03 1.339047439229e-03 0.0 
1.339047439229e-03 6.119889213580e-03 0.0 
0.0 0.0 0.0 
8.974221915996e-04 7.778478276778e-04 0.0 
7.778478276778e-04 6.287877179672e-03 0.0 
0.0 0.0 0.0 
8.222186755154e-04 1.347676389183e-03 0.0 
1.347676389183e-03 6.270117784225e-03 0.0 
0.0 0.0 0.0 
9.110626509541e-04 4.119772616401e-04 0.0 
4.119772616401e-04 2.990318016415e-03 0.0 
0.0 0.0 0.0 
1.153996369621e-03 8.193308815607e-04 0.0 
8.193308815607e-04 5.290811909364e-03 0.0 
0.0 0.0 0.0 
9.661697103511e-04 5.762217699751e-04 0.0 
5.762217699751e-04 3.362037891958e-03 0.0 
0.0 0.0 0.0 
-4.493215601047e-04 2.064786154552e-03 0.0 
2.064786154552e-03 1.111746059418e-02 0.0 
0.0 0.0 0.0 
8.592305733970e-04 3.676600840288e-04 0.0 
3.676600840288e-04 3.395079874525e-03 0.0 
0.0 0.0 0.0 
-2.950161033359e-04 2.071306178262e-03 0.0 
2.071306178262e-03 1.048797858067e-02 0.0 
0.0 0.0 0.0 
6.414280274287e-04 1.577448646253e-03 0.0 
1.577448646253e-03 8.139338460255e-03 0.0 
0.0 0.0 0.0 
8.291295167515e-04 1.504311801060e-03 0.0 
1.504311801060e-03 7.622639360717e-03 0.0 
0.0 0.0 0.0 
9.626826471532e-04 1.343035538263e-03 0.0 
1.343035538263e-03 5.697295978922e-03 0.0 
0.0 0.0 0.0 
-1.223782706950e-03 9.221744702486e-04 0.0 
9.221744702486e-04 1.353540462815e-02 0.0 
0.0 0.0 0.0 
5.894333386416e-04 3.920327719807e-04 0.0 
3.920327719807e-04 6.544019325529e-03 0.0 
0.0 0.0 0.0 
5.504408519452e-04 3.128565541013e-04 0.0 
3.128565541013e-04 6.556988189486e-03 0.0 
0.0 0.0 0.0 
-7.255662502226e-05 5.402699816024e-04 0.0 
5.402699816024e-04 2.249339838897e-03 0.0 
0.0 0.0 0.0 
-1.148632716231e-04 2.106379809487e-03 0.0 
2.106379809487e-03 1.020723631472e-02 0.0 
0.0 0.0 0.0 
3.912430103152e-04 4.029366645069e-04 0.0 
4.029366645069e-04 7.286789150665e-03 0.0 
0.0 0.0 0.0 
-4.999925368407e-04 1.828277861848e-03 0.0 
1.828277861848e-03 7.715789249463e-03 0.0 
0.0 0.0 0.0 
7.777484962492e-04 8.672372012193e-05 0.0 
8.672372012193e-05 4.668335108174e-03 0.0 
0.0 0.0 0.0 
-9.061562292042e-04 1.061997548482e-03 0.0 
1.061997548482e-03 2.121390858581e-03 0.0 
0.0 0.0 0.0 
5.188151461377e-04 3.532593348523e-04 0.0 
3.532593348523e-04 6.746621755337e-03 0.0 
0.0 0.0 0.0 
8.403978706177e-04 5.007571435632e-04 0.0 
5.007571435632e-04 2.937013096452e-03 0.0 
0.0 0.0 0.0 
7.145025200899e-04 3.855970923333e-05 0.0 
3.855970923333e-05 4.442075596952e-03 0.0 
0.0 0.0 0.0 
8.493435484807e-04 1.667469495741e-03 0.0 
1.667469495741e-03 7.623787836875e-03 0.0 
0.0 0.0 0.0 
-1.383024579407e-03 1.015790874201e-03 0.0 
1.015790874201e-03 1.352391920810e-02 0.0 
0.0 0.0 0.0 
-1.293849587153e-03 9.964651772823e-04 0.0 
9.964651772823e-04 1.324560507946e-02 0.0 
0.0 0.0 0.0 
5.093165059964e-04 1.888438070937e-03 0.0 
1.888438070937e-03 8.044992481872e-03 0.0 
0.0 0.0 0.0 
-1.598854115989e-03 1.376506550607e-03 0.0 
1.376506550607e-03 1.122706311898e-02 0.0 
0.0 0.0 0.0 
-1.603484843620e-03 1.100805541696e-03 0.0 
1.100805541696e-03 1.164966900888e-02 0.0 
0.0 0.0 0.0 
4.913896294909e-04 2.754681975627e-04 0.0 
2.754681975627e-04 6.759575541446e-03 0.0 
0.0 0.0 0.0 
9.416511941456e-04 5.946438673025e-04 0.0 
5.946438673025e-04 5.645661553427e-03 0.0 
0.0 0.0 0.0 
1.049331569685e-03 5.395147179070e-04 0.0 
5.395147179070e-04 4.931583474791e-03 0.0 
0.0 0.0 0.0 
9.914140009730e-04 9.926786113808e-04 0.0 
9.926786113808e-04 6.375803983360e-03 0.0 
0.0 0.0 0.0 
1.171360514465e-03 7.167589126707e-04 0.0 
7.167589126707e-04 4.822135573395e-03 0.0 
0.0 0.0 0.0 
7.886641929162e-04 4.501799973565e-04 0.0 
4.501799973565e-04 3.374098298105e-03 0.0 
0.0 0.0 0.0 
-1.303398327326e-03 8.405954754784e-04 0.0 
8.405954754784e-04 1.134565949048e-02 0.0 
0.0 0.0 0.0 
-1.488030582129e-03 9.693409477568e-04 0.0 
9.693409477568e-04 1.297921849642e-02 0.0 
0.0 0.0 0.0 
-8.239418029308e-04 1.984232988407e-07 0.0 
1.984232988407e-07 1.242470834865e-02 0.0 
0.0 0.0 0.0 
7.387907150629e-04 1.409761872860e-03 0.0 
1.409761872860e-03 7.636485109025e-03 0.0 
0.0 0.0 0.0 
8.944923957928e-04 1.176847086897e-03 0.0 
1.176847086897e-03 5.721738349088e-03 0.0 
0.0 0.0 0.0 
4.933256924944e-04 1.953936866937e-03 0.0 
1.953936866937e-03 9.142270831942e-03 0.0 
0.0 0.0 0.0 
4.855915625117e-04 1.440747936460e-04 0.0 
1.440747936460e-04 6.604629049016e-03 0.0 
0.0 0.0 0.0 
1.059455912955e-03 7.339182543372e-04 0.0 
7.339182543372e-04 5.242937301263e-03 0.0 
0.0 0.0 0.0 
2.795302131446e-04 3.979507323383e-04 0.0 
3.979507323383e-04 7.621452328950e-03 0.0 
0.0 0.0 0.0 
9.103569137014e-04 3.024886366210e-04 0.0 
3.024886366210e-04 3.445466668176e-03 0.0 
0.0 0.0 0.0 
5.142253302040e-04 1.987343901495e-03 0.0 
1.987343901495e-03 9.146437982945e-03 0.0 
0.0 0.0 0.0 
4.882546048930e-04 1.786351191100e-03 0.0 
1.786351191100e-03 8.060472167558e-03 0.0 
0.0 0.0 0.0 
5.999465880009e-04 1.885481522429e-03 0.0 
1.885481522429e-03 8.322860930024e-03 0.0 
0.0 0.0 0.0 
6.407435358220e-04 1.119741761897e-03 0.0 
1.119741761897e-03 7.465088223480e-03 0.0 
0.0 0.0 0.0 
7.776982632952e-04 -9.987466077640e-05 0.0 
-9.987466077640e-05 3.151551863644e-03 0.0 
0.0 0.0 0.0 
4.239388735372e-05 2.079163189862e-03 0.0 
2.079163189862e-03 9.560636853391e-03 0.0 
0.0 0.0 0.0 
1.062879638667e-03 5.766208980459e-04 0.0 
5.766208980459e-04 4.844111322049e-03 0.0 
0.0 0.0 0.0 
-1.294033102313e-04 2.044019381056e-03 0.0 
2.044019381056e-03 9.834609336504e-03 0.0 
0.0 0.0 0.0 
5.718304251860e-04 1.035695110364e-03 0.0 
1.035695110364e-03 4.470239548009e-03 0.0 
0.0 0.0 0.0 
6.883404013400e-04 1.850492376645e-03 0.0 
1.850492376645e-03 8.218383000572e-03 0.0 
0.0 0.0 0.0 
1.159564143805e-03 5.669968762977e-04 0.0 
5.669968762977e-04 4.451134767332e-03 0.0 
0.0 0.0 0.0 
8.604311053024e-04 2.325768030075e-04 0.0 
2.325768030075e-04 4.917899793441e-03 0.0 
0.0 0.0 0.0 
-1.447849453424e-04 2.076931049855e-03 0.0 
2.076931049855e-03 9.830280924048e-03 0.0 
0.0 0.0 0.0 
-6.627397359579e-04 5.949146661971e-04 0.0 
5.949146661971e-04 1.394004837650e-03 0.0 
0.0 0.0 0.0 
9.971060202816e-04 1.426925769608e-03 0.0 
1.426925769608e-03 6.607247028571e-03 0.0 
0.0 0.0 0.0 
-5.755541308965e-04 9.426774018277e-04 0.0 
9.426774018277e-04 2.504366264284e-03 0.0 
0.0 0.0 0.0 
1.763764257350e-04 -1.148214124185e-04 0.0 
-1.148214124185e-04 1.108996755762e-03 0.0 
0.0 0.0 0.0 
8.400969045796e-04 1.644329878142e-04 0.0 
1.644329878142e-04 4.654247630639e-03 0.0 
0.0 0.0 0.0 
-9.913902441594e-05 2.181012655233e-03 0.0 
2.181012655233e-03 1.097261103432e-02 0.0 
0.0 0.0 0.0 
-1.229919644493e-03 1.229122906614e-03 0.0 
1.229122906614e-03 1.314323278542e-02 0.0 
0.0 0.0 0.0 
-1.263865466840e-03 1.598308172530e-03 0.0 
1.598308172530e-03 9.684752119158e-03 0.0 
0.0 0.0 0.0 
0.0 1.410423923052e-03 0.0 
1.410423923052e-03 1.527301126466e-02 0.0 
0.0 0.0 0.0 
-9.514575778844e-04 1.120262638323e-03 0.0 
1.120262638323e-03 9.038779523900e-04 0.0 
0.0 0.0 0.0 
-1.370957054563e-03 1.609973978153e-03 0.0 
1.609973978153e-03 1.050317358839e-02 0.0 
0.0 0.0 0.0 
1.131708837989e-03 6.281368888491e-04 0.0 
6.281368888491e-04 5.014096925476e-03 0.0 
0.0 0.0 0.0 
7.587147873245e-04 3.487502873271e-05 0.0 
3.487502873271e-05 4.417667090945e-03 0.0 
0.0 0.0 0.0 
-1.125221042478e-03 1.791331619592e-03 0.0 
1.791331619592e-03 1.070295038208e-02 0.0 
0.0 0.0 0.0 
1.016382053262e-03 2.392591005046e-04 0.0 
2.392591005046e-04 3.265922981554e-03 0.0 
0.0 0.0 0.0 
9.890619040829e-04 4.847025479724e-04 0.0 
4.847025479724e-04 5.161755636989e-03 0.0 
0.0 0.0 0.0 
3.455507197292e-04 1.899987175005e-03 0.0 
1.899987175005e-03 8.689092093655e-03 0.0 
0.0 0.0 0.0 
9.426729323478e-04 1.521528635401e-03 0.0 
1.521528635401e-03 7.104922411325e-03 0.0 
0.0 0.0 0.0 
-3.412735501069e-04 2.166246176643e-03 0.0 
2.166246176643e-03 1.231096452171e-02 0.0 
0.0 0.0 0.0 
1.782380974478e-04 6.753690450773e-04 0.0 
6.753690450773e-04 2.120939362135e-03 0.0 
0.0 0.0 0.0 
8.445545212503e-04 1.059884213814e-04 0.0 
1.059884213814e-04 4.223435212746e-03 0.0 
0.0 0.0 0.0 
7.841402519351e-04 1.118366947509e-04 0.0 
1.118366947509e-04 4.590813112655e-03 0.0 
0.0 0.0 0.0 
5.378515457790e-04 -2.371478183363e-04 0.0 
-2.371478183363e-04 2.305507934325e-03 0.0 
0.0 0.0 0.0 
-1.380594282883e-03 7.218600541477e-04 0.0 
7.218600541477e-04 1.249757428914e-02 0.0 
0.0 0.0 0.0 
-1.335986888916e-03 1.351406454856e-03 0.0 
1.351406454856e-03 1.312661000476e-02 0.0 
0.0 0.0 0.0 
5.896766607305e-04 8.906035495786e-07 0.0 
8.906035495786e-07 5.881895587140e-03 0.0 
0.0 0.0 0.0 
9.280362461705e-05 -7.807819318311e-05 0.0 
-7.807819318311e-05 7.014690310625e-04 0.0 
0.0 0.0 0.0 
-5.908964577331e-04 -1.366275894569e-04 0.0 
-1.366275894569e-04 7.432745954845e-04 0.0 
0.0 0.0 0.0 
2.962389144505e-04 -2.837680373451e-04 0.0 
-2.837680373451e-04 1.596809086559e-03 0.0 
0.0 0.0 0.0 
7.379615777032e-04 3.907775537981e-05 0.0 
3.907775537981e-05 4.603010269327e-03 0.0 
0.0 0.0 0.0 
9.897732438986e-04 4.062190423326e-04 0.0 
4.062190423326e-04 3.877957945551e-03 0.0 
0.0 0.0 0.0 
8.844271389705e-04 1.139574734133e-04 0.0 
1.139574734133e-04 3.187644233856e-03 0.0 
0.0 0.0 0.0 
8.016822287935e-04 2.037842723010e-04 0.0 
2.037842723010e-04 3.022058045638e-03 0.0 
0.0 0.0 0.0 
8.010515831745e-04 1.615451496571e-04 0.0 
1.615451496571e-04 4.839246650508e-03 0.0 
0.0 0.0 0.0 
-9.820876095552e-04 1.658830158836e-03 0.0 
1.658830158836e-03 1.276888819661e-02 0.0 
0.0 0.0 0.0 
7.529591433870e-04 1.093067760315e-04 0.0 
1.093067760315e-04 4.779619013148e-03 0.0 
0.0 0.0 0.0 
1.100166085056e-03 5.830334434601e-04 0.0 
5.830334434601e-04 3.848329125337e-03 0.0 
0.0 0.0 0.0 
-1.179374884663e-04 2.073834643375e-03 0.0 
2.073834643375e-03 1.021148461885e-02 0.0 
0.0 0.0 0.0 
-1.076200765168e-03 2.263611738011e-04 0.0 
2.263611738011e-04 1.314213837864e-02 0.0 
0.0 0.0 0.0 
7.590596885545e-04 1.763414956767e-03 0.0 
1.763414956767e-03 8.139866497642e-03 0.0 
0.0 0.0 0.0 
7.168709663712e-04 3.808379936916e-05 0.0 
3.808379936916e-05 4.791780741270e-03 0.0 
0.0 0.0 0.0 
7.483710025826e-04 8.664544176505e-05 0.0 
8.664544176505e-05 4.852776405722e-03 0.0 
0.0 0.0 0.0 
-1.165858321145e-03 1.521804792919e-03 0.0 
1.521804792919e-03 8.266829146059e-03 0.0 
0.0 0.0 0.0 
1.011495649160e-03 3.580952325676e-04 0.0 
3.580952325676e-04 3.946437678648e-03 0.0 
0.0 0.0 0.0 
7.216086015451e-04 1.006777901058e-04 0.0 
1.006777901058e-04 4.968770797054e-03 0.0 
0.0 0.0 0.0 
-6.936699038391e-04 4.769840471544e-05 0.0 
4.769840471544e-05 1.387979653308e-02 0.0 
0.0 0.0 0.0 
-7.468921530583e-04 4.151238633009e-05 0.0 
4.151238633009e-05 1.351872143648e-02 0.0 
0.0 0.0 0.0 
-1.197464667225e-03 1.583375195719e-03 0.0 
1.583375195719e-03 8.985619542343e-03 0.0 
0.0 0.0 0.0 
7.616495888130e-04 1.555547151119e-04 0.0 
1.555547151119e-04 5.029090038649e-03 0.0 
0.0 0.0 0.0 
8.304508170460e-04 -2.683823243294e-05 0.0 
-2.683823243294e-05 3.000687786251e-03 0.0 
0.0 0.0 0.0 
-3.013944645583e-04 1.243511620732e-03 0.0 
1.243511620732e-03 2.914697837703e-03 0.0 
0.0 0.0 0.0 
4.272568254384e-04 1.908311201621e-03 0.0 
1.908311201621e-03 9.165403765991e-03 0.0 
0.0 0.0 0.0 
2.794648391700e-04 -2.029912611125e-04 0.0 
-2.029912611125e-04 1.449637439355e-03 0.0 
0.0 0.0 0.0 
9.494220968931e-04 9.928062911955e-05 0.0 
9.928062911955e-05 3.109412976060e-03 0.0 
0.0 0.0 0.0 
8.717763357484e-04 1.351787729850e-03 0.0 
1.351787729850e-03 6.659833851219e-03 0.0 
0.0 0.0 0.0 
-1.108108683032e-03 1.472410576775e-03 0.0 
1.472410576775e-03 9.719511578902e-03 0.0 
0.0 0.0 0.0 
6.968383748689e-04 3.040868183581e-05 0.0 
3.040868183581e-05 4.986628534500e-03 0.0 
0.0 0.0 0.0 
4.449744374138e-04 -5.720631456791e-05 0.0 
-5.720631456791e-05 2.150038533123e-03 0.0 
0.0 0.0 0.0 
-1.524775820241e-03 7.700108302602e-04 0.0 
7.700108302602e-04 1.274087609856e-02 0.0 
0.0 0.0 0.0 
7.184602289732e-04 8.273304591552e-05 0.0 
8.273304591552e-05 5.042140199402e-03 0.0 
0.0 0.0 0.0 
1.033250946499e-03 3.996391782068e-04 0.0 
3.996391782068e-04 4.579075372946e-03 0.0 
0.0 0.0 0.0 
8.064398390455e-04 8.343237017600e-05 0.0 
8.343237017600e-05 4.489015337992e-03 0.0 
0.0 0.0 0.0 
-5.241470694873e-04 3.437964209932e-04 0.0 
3.437964209932e-04 1.252867681133e-03 0.0 
0.0 0.0 0.0 
-4.636913176198e-04 2.572824650297e-05 0.0 
2.572824650297e-05 1.493859415037e-02 0.0 
0.0 0.0 0.0 
9.734253556168e-04 1.875618250900e-04 0.0 
1.875618250900e-04 3.705955867372e-03 0.0 
0.0 0.0 0.0 
7.289925322784e-04 1.435294237730e-03 0.0 
1.435294237730e-03 7.783979776910e-03 0.0 
0.0 0.0 0.0 
5.531883953305e-04 1.798308020150e-03 0.0 
1.798308020150e-03 8.339407624473e-03 0.0 
0.0 0.0 0.0 
7.220725899080e-04 1.455022380596e-04 0.0 
1.455022380596e-04 5.221965641157e-03 0.0 
0.0 0.0 0.0 
6.893303490390e-04 7.491033708592e-05 0.0 
7.491033708592e-05 5.234349686031e-03 0.0 
0.0 0.0 0.0 
1.058625697043e-03 4.266463371597e-04 0.0 
4.266463371597e-04 3.487402188201e-03 0.0 
0.0 0.0 0.0 
-2.173527570060e-05 -1.897308164632e-04 0.0 
-1.897308164632e-04 1.022233888381e-03 0.0 
0.0 0.0 0.0 
-4.046991036809e-04 6.141579535010e-04 0.0 
6.141579535010e-04 1.198185726545e-03 0.0 
0.0 0.0 0.0 
6.832238196017e-04 1.283798526948e-04 0.0 
1.283798526948e-04 5.417580160253e-03 0.0 
0.0 0.0 0.0 
7.293501014187e-04 1.225862841132e-03 0.0 
1.225862841132e-03 7.468874590416e-03 0.0 
0.0 0.0 0.0 
7.642883569050e-04 -1.167470697916e-04 0.0 
-1.167470697916e-04 2.871663380000e-03 0.0 
0.0 0.0 0.0 
5.809001976265e-05 2.114910221945e-03 0.0 
2.114910221945e-03 9.958994247923e-03 0.0 
0.0 0.0 0.0 
-4.064184322389e-04 1.754077399658e-03 0.0 
1.754077399658e-03 6.989368588626e-03 0.0 
0.0 0.0 0.0 
-2.674583959787e-04 2.103133065068e-03 0.0 
2.103133065068e-03 1.083967607943e-02 0.0 
0.0 0.0 0.0 
3.746703826559e-04 1.041798697861e-03 0.0 
1.041798697861e-03 8.190557949811e-03 0.0 
0.0 0.0 0.0 
-1.255644975172e-03 -2.161042120699e-05 0.0 
-2.161042120699e-05 6.637549393520e-04 0.0 
0.0 0.0 0.0 
0.0 1.221158859840e-04 0.0 
1.221158859840e-04 1.579344347794e-02 0.0 
0.0 0.0 0.0 
0.0 1.244135938450e-04 0.0 
1.244135938450e-04 8.277420392411e-03 0.0 
0.0 0.0 0.0 
-7.913484271518e-04 -3.269620176115e-05 0.0 
-3.269620176115e-05 1.286348614315e-02 0.0 
0.0 0.0 0.0 
9.147986910798e-04 5.981888696606e-05 0.0 
5.981888696606e-05 3.533293032385e-03 0.0 
0.0 0.0 0.0 
4.648339013877e-04 1.848529256205e-03 0.0 
1.848529256205e-03 8.498422704677e-03 0.0 
0.0 0.0 0.0 
9.517582482657e-04 4.662256152721e-04 0.0 
4.662256152721e-04 3.828826115129e-03 0.0 
0.0 0.0 0.0 
1.245585627931e-04 -2.015456638776e-04 0.0 
-2.015456638776e-04 9.671443308163e-04 0.0 
0.0 0.0 0.0 
-8.583959687775e-04 8.840624552280e-04 0.0 
8.840624552280e-04 1.500031576676e-03 0.0 
0.0 0.0 0.0 
-4.457078455062e-04 3.632124930058e-04 0.0 
3.632124930058e-04 1.521602639144e-02 0.0 
0.0 0.0 0.0 
-1.208788661203e-03 1.568469841321e-03 0.0 
1.568469841321e-03 1.296338841758e-02 0.0 
0.0 0.0 0.0 
-1.507020076655e-03 6.332063431656e-04 0.0 
6.332063431656e-04 1.246473226540e-02 0.0 
0.0 0.0 0.0 
1.038542012111e-04 2.667749574343e-03 0.0 
2.667749574343e-03 1.130274107120e-02 0.0 
0.0 0.0 0.0 
3.634637671941e-04 -5.774214764132e-05 0.0 
-5.774214764132e-05 1.780962338993e-03 0.0 
0.0 0.0 0.0 
1.222598507171e-04 2.577756624428e-03 0.0 
2.577756624428e-03 1.097770015489e-02 0.0 
0.0 0.0 0.0 
-1.124387632490e-03 1.462608252464e-03 0.0 
1.462608252464e-03 1.298084192815e-02 0.0 
0.0 0.0 0.0 
8.465084381530e-04 -2.900799507299e-05 0.0 
-2.900799507299e-05 3.405887688454e-03 0.0 
0.0 0.0 0.0 
6.299785589670e-04 1.826418872431e-03 0.0 
1.826418872431e-03 7.872679390925e-03 0.0 
0.0 0.0 0.0 
9.516548730351e-04 8.422755472012e-05 0.0 
8.422755472012e-05 3.242066047044e-03 0.0 
0.0 0.0 0.0 
-2.891437045468e-04 1.369557047248e-03 0.0 
1.369557047248e-03 3.517824084307e-03 0.0 
0.0 0.0 0.0 
8.709519167296e-04 2.836134930587e-06 0.0 
2.836134930587e-06 2.992595290961e-03 0.0 
0.0 0.0 0.0 
-8.140569542563e-04 1.829014732472e-03 0.0 
1.829014732472e-03 1.252028147318e-02 0.0 
0.0 0.0 0.0 
4.250582611733e-04 1.201058292693e-04 0.0 
1.201058292693e-04 6.885204127265e-03 0.0 
0.0 0.0 0.0 
1.025112060666e-03 2.052572826416e-04 0.0 
2.052572826416e-04 3.379450374538e-03 0.0 
0.0 0.0 0.0 
-8.201473896596e-05 2.150140221130e-03 0.0 
2.150140221130e-03 1.058312261844e-02 0.0 
0.0 0.0 0.0 
-8.550206108916e-04 -4.887219874865e-05 0.0 
-4.887219874865e-05 4.439349589920e-04 0.0 
0.0 0.0 0.0 
1.078911801366e-03 3.710853148265e-04 0.0 
3.710853148265e-04 3.574182147702e-03 0.0 
0.0 0.0 0.0 
-1.075182302638e-03 1.574442922440e-03 0.0 
1.574442922440e-03 1.358688016593e-02 0.0 
0.0 0.0 0.0 
7.899025684281e-04 -5.528245476449e-05 0.0 
-5.528245476449e-05 2.896408105759e-03 0.0 
0.0 0.0 0.0 
6.803123430770e-04 -1.822095520550e-04 0.0 
-1.822095520550e-04 2.629098976764e-03 0.0 
0.0 0.0 0.0 
5.956370412417e-04 1.723197372561e-03 0.0 
1.723197372561e-03 7.889829031679e-03 0.0 
0.0 0.0 0.0 
3.154554306302e-04 -1.340432478226e-04 0.0 
-1.340432478226e-04 1.475933880545e-03 0.0 
0.0 0.0 0.0 
-1.130710009538e-03 1.466442652554e-03 0.0 
1.466442652554e-03 6.857231628678e-03 0.0 
0.0 0.0 0.0 
-1.160790754163e-03 1.603147728951e-03 0.0 
1.603147728951e-03 7.607444665138e-03 0.0 
0.0 0.0 0.0 
6.931515885491e-04 -1.129715799550e-04 0.0 
-1.129715799550e-04 2.522240455512e-03 0.0 
0.0 0.0 0.0 
1.023495321713e-03 5.103619828146e-04 0.0 
5.103619828146e-04 5.037137263791e-03 0.0 
0.0 0.0 0.0 
9.639713282297e-04 1.415978953303e-03 0.0 
1.415978953303e-03 6.164457687825e-03 0.0 
0.0 0.0 0.0 
-1.059349578617e-04 2.116819832645e-03 0.0 
2.116819832645e-03 1.058700331435e-02 0.0 
0.0 0.0 0.0 
-3.208956024688e-04 2.129809162115e-03 0.0 
2.129809162115e-03 1.328640669863e-02 0.0 
0.0 0.0 0.0 
-9.998545399056e-04 1.515783685010e-03 0.0 
1.515783685010e-03 8.266276708359e-03 0.0 
0.0 0.0 0.0 
-6.288431487845e-04 8.163171960210e-07 0.0 
8.163171960210e-07 1.425277708938e-02 0.0 
0.0 0.0 0.0 
1.341796760079e-05 2.357676142935e-03 0.0 
2.357676142935e-03 1.171869752316e-02 0.0 
0.0 0.0 0.0 
1.021881136957e-03 4.949321293209e-04 0.0 
4.949321293209e-04 3.414561450313e-03 0.0 
0.0 0.0 0.0 
-6.496674739828e-04 1.323202884798e-03 0.0 
1.323202884798e-03 2.518196280202e-03 0.0 
0.0 0.0 0.0 
-5.520483442516e-04 1.771342182539e-03 0.0 
1.771342182539e-03 7.726310268749e-03 0.0 
0.0 0.0 0.0 
1.010077630425e-03 3.769282750035e-04 0.0 
3.769282750035e-04 4.699021646045e-03 0.0 
0.0 0.0 0.0 
-3.739912470768e-04 2.112317229902e-03 0.0 
2.112317229902e-03 1.143894466369e-02 0.0 
0.0 0.0 0.0 
1.118353611482e-03 4.967297336483e-04 0.0 
4.967297336483e-04 4.680220954894e-03 0.0 
0.0 0.0 0.0 
-1.922668497406e-04 4.447972379905e-04 0.0 
4.447972379905e-04 1.904008188407e-03 0.0 
0.0 0.0 0.0 
9.857148532508e-04 6.192162632759e-04 0.0 
6.192162632759e-04 5.509131439172e-03 0.0 
0.0 0.0 0.0 
-3.158500599910e-04 1.494125988838e-03 0.0 
1.494125988838e-03 4.173459592837e-03 0.0 
0.0 0.0 0.0 
8.959309691527e-04 1.263048653489e-03 0.0 
1.263048653489e-03 6.186642351933e-03 0.0 
0.0 0.0 0.0 
1.098046149520e-03 6.008698211004e-04 0.0 
6.008698211004e-04 5.143201260545e-03 0.0 
0.0 0.0 0.0 
7.263157247150e-04 1.771756963358e-03 0.0 
1.771756963358e-03 7.747372489798e-03 0.0 
0.0 0.0 0.0 
-7.576375925321e-04 6.295988545880e-05 0.0 
6.295988545880e-05 1.380262558128e-02 0.0 
0.0 0.0 0.0 
6.151525481770e-04 -2.105300465016e-04 0.0 
-2.105300465016e-04 2.535933902930e-03 0.0 
0.0 0.0 0.0 
-3.025519995347e-04 1.076601832912e-03 0.0 
1.076601832912e-03 2.344938841650e-03 0.0 
0.0 0.0 0.0 
1.049781042176e-03 7.067235880999e-04 0.0 
7.067235880999e-04 5.628275253740e-03 0.0 
0.0 0.0 0.0 
-3.199271311141e-04 1.566461202771e-03 0.0 
1.566461202771e-03 4.826806237178e-03 0.0 
0.0 0.0 0.0 
-5.162711236558e-04 1.435184137824e-04 0.0 
1.435184137824e-04 7.138105257125e-04 0.0 
0.0 0.0 0.0 
-2.955080887490e-04 8.189791082120e-05 0.0 
8.189791082120e-05 1.525925173005e-02 0.0 
0.0 0.0 0.0 
-4.282573944346e-04 7.276086220620e-05 0.0 
7.276086220620e-05 1.494044171036e-02 0.0 
0.0 0.0 0.0 
-1.943483173600e-04 -1.545751266194e-04 0.0 
-1.545751266194e-04 4.734300649387e-04 0.0 
0.0 0.0 0.0 
9.210453060502e-04 7.309469428980e-04 0.0 
7.309469428980e-04 6.003030679727e-03 0.0 
0.0 0.0 0.0 
4.218104556897e-04 -2.664000310636e-04 0.0 
-2.664000310636e-04 1.948411108748e-03 0.0 
0.0 0.0 0.0 
5.130461164036e-04 -1.558993089331e-04 0.0 
-1.558993089331e-04 2.079329805028e-03 0.0 
0.0 0.0 0.0 
-4.960276484212e-05 2.214309211990e-03 0.0 
2.214309211990e-03 1.097043207852e-02 0.0 
0.0 0.0 0.0 
6.740805914593e-04 1.659743215867e-03 0.0 
1.659743215867e-03 7.762818627560e-03 0.0 
0.0 0.0 0.0 
7.095567729021e-05 2.170711492967e-03 0.0 
2.170711492967e-03 1.035983218409e-02 0.0 
0.0 0.0 0.0 
9.654254397753e-04 2.148592259781e-04 0.0 
2.148592259781e-04 3.603882755056e-03 0.0 
0.0 0.0 0.0 
-8.397745571848e-04 5.267123134750e-07 0.0 
5.267123134750e-07 1.243180581605e-02 0.0 
0.0 0.0 0.0 
1.803332730310e-04 8.500059362683e-04 0.0 
8.500059362683e-04 8.079055795208e-03 0.0 
0.0 0.0 0.0 
3.876542214221e-04 -1.767679450823e-04 0.0 
-1.767679450823e-04 1.718909804348e-03 0.0 
0.0 0.0 0.0 
6.881164910049e-04 1.366653198659e-03 0.0 
1.366653198659e-03 7.668850475164e-03 0.0 
0.0 0.0 0.0 
8.124074946170e-04 1.426804630709e-03 0.0 
1.426804630709e-03 6.732190197414e-03 0.0 
0.0 0.0 0.0 
2.961229690119e-04 -3.526090978381e-05 0.0 
-3.526090978381e-05 1.333795552324e-03 0.0 
0.0 0.0 0.0 
-5.616176538622e-04 2.020692405535e-03 0.0 
2.020692405535e-03 1.170408906711e-02 0.0 
0.0 0.0 0.0 
1.124537750835e-03 5.193588444727e-04 0.0 
5.193588444727e-04 3.917774870999e-03 0.0 
0.0 0.0 0.0 
-6.735809715885e-05 -2.167631829435e-04 0.0 
-2.167631829435e-04 7.951408939373e-04 0.0 
0.0 0.0 0.0 
9.962838490822e-04 2.835524560320e-04 0.0 
2.835524560320e-04 3.162371223255e-03 0.0 
0.0 0.0 0.0 
6.282754363871e-04 3.695542549974e-05 0.0 
3.695542549974e-05 5.675126001487e-03 0.0 
0.0 0.0 0.0 
-8.650969517271e-04 1.900582784885e-03 0.0 
1.900582784885e-03 1.250423953380e-02 0.0 
0.0 0.0 0.0 
1.681233332711e-04 -3.180481254094e-04 0.0 
-3.180481254094e-04 1.338994424493e-03 0.0 
0.0 0.0 0.0 
7.086724591601e-04 -8.222086860511e-06 0.0 
-8.222086860511e-06 4.452231958763e-03 0.0 
0.0 0.0 0.0 
-2.045778084974e-04 2.174984547641e-03 0.0 
2.174984547641e-03 1.119555512611e-02 0.0 
0.0 0.0 0.0 
5.605092304350e-04 1.824135182276e-03 0.0 
1.824135182276e-03 8.688015813216e-03 0.0 
0.0 0.0 0.0 
7.842885468934e-04 -6.540305229284e-05 0.0 
-6.540305229284e-05 2.749479173821e-03 0.0 
0.0 0.0 0.0 
4.630090214395e-04 3.220242227011e-06 0.0 
3.220242227011e-06 2.151373582022e-03 0.0 
0.0 0.0 0.0 
9.459434285310e-04 1.493369029552e-03 0.0 
1.493369029552e-03 6.639927389923e-03 0.0 
0.0 0.0 0.0 
-7.175341101504e-04 -3.165803358416e-05 0.0 
-3.165803358416e-05 1.366976608342e-02 0.0 
0.0 0.0 0.0 
-1.116791066597e-04 -2.289800068870e-04 0.0 
-2.289800068870e-04 8.018481346330e-04 0.0 
0.0 0.0 0.0 
2.116676410968e-05 2.594029410973e-03 0.0 
2.594029410973e-03 1.179722307222e-02 0.0 
0.0 0.0 0.0 
-2.351799140373e-04 2.009994553983e-03 0.0 
2.009994553983e-03 1.408847687380e-02 0.0 
0.0 0.0 0.0 
-7.723213213333e-04 -2.152084336422e-05 0.0 
-2.152084336422e-05 1.311108275228e-02 0.0 
0.0 0.0 0.0 
-5.171509600336e-04 1.001496476628e-03 0.0 
1.001496476628e-03 1.525321507503e-02 0.0 
0.0 0.0 0.0 
-1.516397175095e-04 2.262649109755e-03 0.0 
2.262649109755e-03 1.346030429685e-02 0.0 
0.0 0.0 0.0 
1.086750583752e-03 3.309176067831e-04 0.0 
3.309176067831e-04 3.679117049256e-03 0.0 
0.0 0.0 0.0 
9.137922244717e-04 6.810909102498e-05 0.0 
6.810909102498e-05 3.405457738167e-03 0.0 
0.0 0.0 0.0 
3.850359094584e-04 1.785082084822e-03 0.0 
1.785082084822e-03 9.062991637337e-03 0.0 
0.0 0.0 0.0 
-8.238131175264e-04 4.879067683767e-05 0.0 
4.879067683767e-05 4.689514991809e-04 0.0 
0.0 0.0 0.0 
4.082109380379e-04 3.158726018716e-05 0.0 
3.158726018716e-05 1.949943351397e-03 0.0 
0.0 0.0 0.0 
6.940562659397e-04 4.320152444052e-05 0.0 
4.320152444052e-05 4.557130203173e-03 0.0 
0.0 0.0 0.0 
6.946572685664e-04 -1.682001317036e-04 0.0 
-1.682001317036e-04 2.768663752978e-03 0.0 
0.0 0.0 0.0 
9.388167766478e-04 1.205106276638e-04 0.0 
1.205106276638e-04 2.981089813397e-03 0.0 
0.0 0.0 0.0 
-1.086642621679e-03 1.414338749610e-03 0.0 
1.414338749610e-03 5.476590380970e-03 0.0 
0.0 0.0 0.0 
-1.178372553869e-03 1.564105282614e-03 0.0 
1.564105282614e-03 6.240859381263e-03 0.0 
0.0 0.0 0.0 
-1.067146252772e-03 1.514150118965e-04 0.0 
1.514150118965e-04 1.318847655977e-02 0.0 
0.0 0.0 0.0 
9.455242379794e-04 2.526466221510e-04 0.0 
2.526466221510e-04 3.517151363590e-03 0.0 
0.0 0.0 0.0 
4.996333667193e-04 -4.443577616280e-05 0.0 
-4.443577616280e-05 2.298087007038e-03 0.0 
0.0 0.0 0.0 
6.230915269749e-04 1.935443665051e-03 0.0 
1.935443665051e-03 8.705399934721e-03 0.0 
0.0 0.0 0.0 
1.629751348464e-04 7.067340819292e-04 0.0 
7.067340819292e-04 8.460156832372e-03 0.0 
0.0 0.0 0.0 
1.597944163805e-04 8.085911658820e-04 0.0 
8.085911658820e-04 8.493488658509e-03 0.0 
0.0 0.0 0.0 
1.022943611930e-03 1.847102527747e-04 0.0 
1.847102527747e-04 3.509378374913e-03 0.0 
0.0 0.0 0.0 
-1.140240063080e-03 1.788426355397e-04 0.0 
1.788426355397e-04 1.288427690415e-02 0.0 
0.0 0.0 0.0 
-8.405190271230e-04 2.008600682307e-05 0.0 
2.008600682307e-05 7.148671385295e-04 0.0 
0.0 0.0 0.0 
-1.062595811059e-03 1.349354232670e-03 0.0 
1.349354232670e-03 4.148548655533e-03 0.0 
0.0 0.0 0.0 
1.055983902822e-04 -2.244752088569e-04 0.0 
-2.244752088569e-04 1.504953368482e-03 0.0 
0.0 0.0 0.0 
-1.082259689986e-03 1.403579889771e-03 0.0 
1.403579889771e-03 4.851082031639e-03 0.0 
0.0 0.0 0.0 
7.805719589233e-04 1.505299509951e-03 0.0 
1.505299509951e-03 7.197946227277e-03 0.0 
0.0 0.0 0.0 
8.636161990896e-04 7.459652585589e-06 0.0 
7.459652585589e-06 2.855740294071e-03 0.0 
0.0 0.0 0.0 
9.041202491464e-04 8.590309512716e-05 0.0 
8.590309512716e-05 3.291042507916e-03 0.0 
0.0 0.0 0.0 
-4.012210164498e-04 -1.965899385416e-04 0.0 
-1.965899385416e-04 9.927289497234e-04 0.0 
0.0 0.0 0.0 
-3.742534179884e-04 1.058505941188e-04 0.0 
1.058505941188e-04 1.500446673990e-02 0.0 
0.0 0.0 0.0 
8.436855897433e-04 -3.397703765408e-05 0.0 
-3.397703765408e-05 3.129229501927e-03 0.0 
0.0 0.0 0.0 
-3.611313216320e-04 3.971904754276e-04 0.0 
3.971904754276e-04 1.521024235679e-02 0.0 
0.0 0.0 0.0 
-5.291757591650e-04 1.171157037446e-04 0.0 
1.171157037446e-04 1.473085109926e-02 0.0 
0.0 0.0 0.0 
-1.448151974963e-04 1.755939844954e-04 0.0 
1.755939844954e-04 1.578098314118e-02 0.0 
0.0 0.0 0.0 
1.277798603228e-04 1.619296018525e-04 0.0 
1.619296018525e-04 8.284987946972e-03 0.0 
0.0 0.0 0.0 
-7.822635678972e-04 3.269866103103e-05 0.0 
3.269866103103e-05 1.312367940445e-02 0.0 
0.0 0.0 0.0 
8.484632626409e-04 -3.423277391718e-05 0.0 
-3.423277391718e-05 3.262913521189e-03 0.0 
0.0 0.0 0.0 
-1.038376429558e-03 1.595073135268e-03 0.0 
1.595073135268e-03 6.869680774513e-03 0.0 
0.0 0.0 0.0 
9.459445362836e-04 8.007585352123e-05 0.0 
8.007585352123e-05 3.386911732667e-03 0.0 
0.0 0.0 0.0 
0.0 5.487130683293e-04 0.0 
5.487130683293e-04 8.406529163503e-03 0.0 
0.0 0.0 0.0 
-9.623383736743e-04 1.180197576080e-03 0.0 
1.180197576080e-03 2.774632756469e-03 0.0 
0.0 0.0 0.0 
-1.003963510754e-03 1.288961713725e-03 0.0 
1.288961713725e-03 3.463904580030e-03 0.0 
0.0 0.0 0.0 
6.101612944596e-04 1.541178698819e-03 0.0 
1.541178698819e-03 8.140971664842e-03 0.0 
0.0 0.0 0.0 
-9.585896962457e-04 7.870379877069e-05 0.0 
7.870379877069e-05 1.284165419308e-02 0.0 
0.0 0.0 0.0 
-3.224990366902e-04 2.687231812637e-04 0.0 
2.687231812637e-04 1.524921413645e-02 0.0 
0.0 0.0 0.0 
-2.406472124596e-04 2.148655314658e-03 0.0 
2.148655314658e-03 1.119724605201e-02 0.0 
0.0 0.0 0.0 
5.494539291533e-04 2.010742284837e-03 0.0 
2.010742284837e-03 9.153296758172e-03 0.0 
0.0 0.0 0.0 
-5.972764791426e-04 2.093082048637e-03 0.0 
2.093082048637e-03 1.251795599298e-02 0.0 
0.0 0.0 0.0 
-7.968721987619e-04 7.319285978097e-05 0.0 
7.319285978097e-05 1.321758393012e-02 0.0 
0.0 0.0 0.0 
5.934871995992e-04 -2.280726173301e-04 0.0 
-2.280726173301e-04 2.397721845909e-03 0.0 
0.0 0.0 0.0 
6.747573104404e-04 -1.214267316171e-04 0.0 
-1.214267316171e-04 2.383393555417e-03 0.0 
0.0 0.0 0.0 
-6.524812028351e-04 7.927281275735e-05 0.0 
7.927281275735e-05 1.406114191214e-02 0.0 
0.0 0.0 0.0 
4.354010760423e-04 1.946231144930e-03 0.0 
1.946231144930e-03 9.203407105513e-03 0.0 
0.0 0.0 0.0 
-1.283398571167e-03 2.821898808199e-04 0.0 
2.821898808199e-04 1.253954715305e-02 0.0 
0.0 0.0 0.0 
-8.129266548739e-04 6.237507414532e-06 0.0 
6.237507414532e-06 1.277358233585e-02 0.0 
0.0 0.0 0.0 
-8.025670649773e-04 1.208083778882e-05 0.0 
1.208083778882e-05 1.311054991868e-02 0.0 
0.0 0.0 0.0 
-8.462597757891e-04 1.548589773139e-05 0.0 
1.548589773139e-05 1.323970588682e-02 0.0 
0.0 0.0 0.0 
5.845919951164e-05 -1.334571498053e-05 0.0 
-1.334571498053e-05 1.284668494082e-03 0.0 
0.0 0.0 0.0 
5.768775627553e-04 -1.583585282896e-04 0.0 
-1.583585282896e-04 2.161240343645e-03 0.0 
0.0 0.0 0.0 
-3.202316750690e-04 5.776503768762e-04 0.0 
5.776503768762e-04 1.548544098954e-02 0.0 
0.0 0.0 0.0 
-8.167883554560e-04 6.132093332264e-05 0.0 
6.132093332264e-05 1.363502770423e-02 0.0 
0.0 0.0 0.0 
2.701612581866e-04 2.067818386867e-03 0.0 
2.067818386867e-03 9.670988773085e-03 0.0 
0.0 0.0 0.0 
-4.804105068933e-04 2.231293355369e-03 0.0 
2.231293355369e-03 1.324631034534e-02 0.0 
0.0 0.0 0.0 
-5.804502169869e-04 2.052196451910e-03 0.0 
2.052196451910e-03 1.169839549641e-02 0.0 
0.0 0.0 0.0 
-6.597083368723e-04 1.043128259351e-03 0.0 
1.043128259351e-03 1.502718186904e-02 0.0 
0.0 0.0 0.0 
6.887371186188e-04 -1.840648299591e-05 0.0 
-1.840648299591e-05 3.274835895085e-03 0.0 
0.0 0.0 0.0 
6.120727549079e-04 -3.554455733229e-05 0.0 
-3.554455733229e-05 2.967560702788e-03 0.0 
0.0 0.0 0.0 
3.977520634235e-04 8.387826286842e-04 0.0 
8.387826286842e-04 7.650517755718e-03 0.0 
0.0 0.0 0.0 
-4.220118166445e-04 -1.023209838285e-04 0.0 
-1.023209838285e-04 5.829259910597e-04 0.0 
0.0 0.0 0.0 
4.078042518456e-04 -6.627847394948e-05 0.0 
-6.627847394948e-05 2.063920704438e-03 0.0 
0.0 0.0 0.0 
0.0 2.496984866265e-03 0.0 
2.496984866265e-03 1.112847736715e-02 0.0 
0.0 0.0 0.0 
2.147449218026e-04 -5.356204894040e-05 0.0 
-5.356204894040e-05 9.828210667890e-04 0.0 
0.0 0.0 0.0 
-8.003878589676e-04 1.195485719645e-05 0.0 
1.195485719645e-05 1.277582214504e-02 0.0 
0.0 0.0 0.0 
5.344575556063e-04 1.490294514323e-03 0.0 
1.490294514323e-03 8.328184085382e-03 0.0 
0.0 0.0 0.0 
-8.006530214744e-05 -1.321890359748e-04 0.0 
-1.321890359748e-04 7.051659060064e-04 0.0 
0.0 0.0 0.0 
-5.612117406140e-05 -9.053820671732e-05 0.0 
-9.053820671732e-05 3.797530392831e-04 0.0 
0.0 0.0 0.0 
-2.243898207909e-04 8.938554841500e-04 0.0 
8.938554841500e-04 1.560740921732e-02 0.0 
0.0 0.0 0.0 
-9.105012391716e-04 9.919526271283e-06 0.0 
9.919526271283e-06 1.245811748145e-02 0.0 
0.0 0.0 0.0 
-3.543640797169e-04 7.930872917981e-04 0.0 
7.930872917981e-04 1.537521577170e-02 0.0 
0.0 0.0 0.0 
4.112741823667e-04 1.576751239608e-03 0.0 
1.576751239608e-03 8.529610518244e-03 0.0 
0.0 0.0 0.0 
-8.994642935892e-04 -6.629288142948e-06 0.0 
-6.629288142948e-06 1.244405385183e-02 0.0 
0.0 0.0 0.0 
-8.239751637767e-04 5.578538318502e-05 0.0 
5.578538318502e-05 8.171572594091e-04 0.0 
0.0 0.0 0.0 
-1.551259470740e-04 1.235555818035e-04 0.0 
1.235555818035e-04 1.553199354833e-02 0.0 
0.0 0.0 0.0 
2.059241093431e-04 -1.910220502949e-04 0.0 
-1.910220502949e-04 1.112829520683e-03 0.0 
0.0 0.0 0.0 
-3.676920961476e-04 6.459371516321e-04 0.0 
6.459371516321e-04 1.524967927024e-02 0.0 
0.0 0.0 0.0 
0.0 4.304065409189e-04 0.0 
4.304065409189e-04 8.358037912586e-03 0.0 
0.0 0.0 0.0 
-5.486061593251e-04 1.928557386813e-03 0.0 
1.928557386813e-03 1.389177558781e-02 0.0 
0.0 0.0 0.0 
3.479471385301e-04 8.621484928710e-06 0.0 
8.621484928710e-06 1.573938538290e-03 0.0 
0.0 0.0 0.0 
-1.226246172414e-03 4.217022121173e-04 0.0 
4.217022121173e-04 1.314469261187e-02 0.0 
0.0 0.0 0.0 
6.281696189365e-04 -5.694149098232e-05 0.0 
-5.694149098232e-05 3.335447223146e-03 0.0 
0.0 0.0 0.0 
5.333729217765e-04 1.822409871289e-03 0.0 
1.822409871289e-03 8.713981050507e-03 0.0 
0.0 0.0 0.0 
1.525220098053e-04 2.240805133782e-03 0.0 
2.240805133782e-03 1.016747552834e-02 0.0 
0.0 0.0 0.0 
-5.864950248937e-04 9.381812560083e-05 0.0 
9.381812560083e-05 1.445409950190e-02 0.0 
0.0 0.0 0.0 
2.114779762854e-04 2.123476744191e-03 0.0 
2.123476744191e-03 9.868720463127e-03 0.0 
0.0 0.0 0.0 
-2.045188715448e-04 -3.932825091060e-05 0.0 
-3.932825091060e-05 8.692988335017e-04 0.0 
0.0 0.0 0.0 
2.262175093029e-04 5.312300006833e-04 0.0 
5.312300006833e-04 7.979311287811e-03 0.0 
0.0 0.0 0.0 
4.015022311716e-04 -3.590326862989e-05 0.0 
-3.590326862989e-05 1.760183141507e-03 0.0 
0.0 0.0 0.0 
2.210313434758e-04 -5.528640418158e-05 0.0 
-5.528640418158e-05 9.861638000550e-04 0.0 
0.0 0.0 0.0 
3.535534226458e-04 1.390817357561e-03 0.0 
1.390817357561e-03 8.584380543725e-03 0.0 
0.0 0.0 0.0 
-5.127166346848e-04 1.517867137198e-03 0.0 
1.517867137198e-03 1.496456672788e-02 0.0 
0.0 0.0 0.0 
-3.104401891739e-04 9.071153252818e-04 0.0 
9.071153252818e-04 1.541236735461e-02 0.0 
0.0 0.0 0.0 
-8.429206242343e-04 5.310277549619e-05 0.0 
5.310277549619e-05 1.277428533363e-02 0.0 
0.0 0.0 0.0 
-1.352021057028e-03 8.017757818439e-04 0.0 
8.017757818439e-04 1.303359915701e-02 0.0 
0.0 0.0 0.0 
-2.863916666898e-04 1.060689703131e-03 0.0 
1.060689703131e-03 3.502893973157e-03 0.0 
0.0 0.0 0.0 
-3.064308331493e-04 2.408809261330e-03 0.0 
2.408809261330e-03 1.335789404034e-02 0.0 
0.0 0.0 0.0 
5.783534194721e-04 -1.165860730892e-05 0.0 
-1.165860730892e-05 2.745787535738e-03 0.0 
0.0 0.0 0.0 
-2.349613730026e-04 5.160561524534e-04 0.0 
5.160561524534e-04 1.751514295972e-03 0.0 
0.0 0.0 0.0 
6.554371204956e-04 1.920140119997e-03 0.0 
1.920140119997e-03 8.674925921235e-03 0.0 
0.0 0.0 0.0 
-8.315120813431e-04 -2.831332755100e-06 0.0 
-2.831332755100e-06 1.240706788657e-02 0.0 
0.0 0.0 0.0 
-4.734610360700e-04 1.453879933785e-03 0.0 
1.453879933785e-03 1.474529726472e-02 0.0 
0.0 0.0 0.0 
-1.188027051993e-04 -1.822824066840e-05 0.0 
-1.822824066840e-05 1.577544888845e-02 0.0 
0.0 0.0 0.0 
0.0 5.940135259949e-05 0.0 
5.940135259949e-05 1.581190536978e-02 0.0 
0.0 0.0 0.0 
4.796459337575e-05 -3.174698797570e-06 0.0 
-3.174698797570e-06 7.644009195307e-05 0.0 
0.0 0.0 0.0 
5.648741077091e-05 3.966667128277e-06 0.0 
3.966667128277e-06 8.220000640957e-05 0.0 
0.0 0.0 0.0 
-8.043490923690e-04 -2.953341737329e-05 0.0 
-2.953341737329e-05 1.244594238331e-02 0.0 
0.0 0.0 0.0 
-8.227384563108e-04 3.261994461066e-06 0.0 
3.261994461066e-06 1.239874092359e-02 0.0 
0.0 0.0 0.0 
0.0 6.076657853735e-05 0.0 
6.076657853735e-05 8.277243064186e-03 0.0 
0.0 0.0 0.0 
1.215331570745e-04 3.866114984840e-05 0.0 
3.866114984840e-05 8.199920764489e-03 0.0 
0.0 0.0 0.0 
6.957809188712e-05 1.019526343788e-05 0.0 
1.019526343788e-05 3.084005519205e-04 0.0 
0.0 0.0 0.0 
-8.092484542821e-04 -4.192990917865e-05 0.0 
-4.192990917865e-05 4.326350242465e-04 0.0 
0.0 0.0 0.0 
2.836763653749e-04 3.242618827492e-04 0.0 
3.242618827492e-04 7.438473403085e-03 0.0 
0.0 0.0 0.0 
3.236988161734e-04 2.344970129234e-03 0.0 
2.344970129234e-03 1.030552859407e-02 0.0 
0.0 0.0 0.0 
2.280926278111e-04 -1.580446804065e-04 0.0 
-1.580446804065e-04 1.311012473453e-03 0.0 
0.0 0.0 0.0 
2.839857240033e-04 5.617876638792e-04 0.0 
5.617876638792e-04 7.652595189338e-03 0.0 
0.0 0.0 0.0 
6.831947209882e-04 4.758770746088e-06 0.0 
4.758770746088e-06 4.909973404475e-03 0.0 
0.0 0.0 0.0 
6.863553859184e-04 -2.996713316427e-05 0.0 
-2.996713316427e-05 4.149062172904e-03 0.0 
0.0 0.0 0.0 
-7.621398517523e-04 9.357452102846e-05 0.0 
9.357452102846e-05 1.382132936754e-02 0.0 
0.0 0.0 0.0 
1.315881697956e-04 -1.710872148920e-04 0.0 
-1.710872148920e-04 1.330675613973e-03 0.0 
0.0 0.0 0.0 
6.097158015879e-04 1.739375657962e-03 0.0 
1.739375657962e-03 8.233024270579e-03 0.0 
0.0 0.0 0.0 
1.358906685445e-04 -1.170984074760e-04 0.0 
-1.170984074760e-04 1.034870508790e-03 0.0 
0.0 0.0 0.0 
7.005038174457e-04 -4.778336348322e-05 0.0 
-4.778336348322e-05 3.721096518094e-03 0.0 
0.0 0.0 0.0 
-2.250936917111e-04 2.250142894509e-03 0.0 
2.250142894509e-03 1.302772390904e-02 0.0 
0.0 0.0 0.0 
-3.786702697161e-04 -2.353003268924e-05 0.0 
-2.353003268924e-05 1.512727244838e-02 0.0 
0.0 0.0 0.0 
7.121127377427e-04 2.080522666910e-05 0.0 
2.080522666910e-05 4.119960001946e-03 0.0 
0.0 0.0 0.0 
-7.790880780318e-04 -1.403659743119e-06 0.0 
-1.403659743119e-06 1.340235617269e-02 0.0 
0.0 0.0 0.0 
1.007423432575e-04 2.477536882058e-03 0.0 
2.477536882058e-03 1.122445302879e-02 0.0 
0.0 0.0 0.0 
-4.489890531617e-04 2.177406530255e-03 0.0 
2.177406530255e-03 1.230990963733e-02 0.0 
0.0 0.0 0.0 
-5.182721759845e-04 2.105955104859e-03 0.0 
2.105955104859e-03 1.199891821290e-02 0.0 
0.0 0.0 0.0 
-8.696194070393e-04 6.363964725890e-07 0.0 
6.363964725890e-07 1.243903389364e-02 0.0 
0.0 0.0 0.0 
7.240331784693e-04 1.597929526007e-03 0.0 
1.597929526007e-03 7.681859712842e-03 0.0 
0.0 0.0 0.0 
-4.602002743170e-04 1.695282664093e-03 0.0 
1.695282664093e-03 1.436699267359e-02 0.0 
0.0 0.0 0.0 
4.464281466126e-04 -3.303396695609e-05 0.0 
-3.303396695609e-05 2.057990567957e-03 0.0 
0.0 0.0 0.0 
-3.091820914324e-04 -1.540115082846e-04 0.0 
-1.540115082846e-04 5.147574771498e-04 0.0 
0.0 0.0 0.0 
-6.142020202327e-06 2.280507819823e-03 0.0 
2.280507819823e-03 1.114373935955e-02 0.0 
0.0 0.0 0.0 
7.855729018571e-04 1.453111358658e-03 0.0 
1.453111358658e-03 7.662970909040e-03 0.0 
0.0 0.0 0.0 
8.082597502779e-05 -2.881133137159e-04 0.0 
-2.881133137159e-04 1.084847557048e-03 0.0 
0.0 0.0 0.0 
-6.995535684720e-04 3.378948202021e-05 0.0 
3.378948202021e-05 1.408560075879e-02 0.0 
0.0 0.0 0.0 
1.392689798676e-04 3.097836204814e-04 0.0 
3.097836204814e-04 7.835763683002e-03 0.0 
0.0 0.0 0.0 
2.512169204654e-04 2.234188630214e-03 0.0 
2.234188630214e-03 1.037093858554e-02 0.0 
0.0 0.0 0.0 
1.572699950170e-04 2.423656248587e-03 0.0 
2.423656248587e-03 1.087094797078e-02 0.0 
0.0 0.0 0.0 
6.465288433490e-04 -1.064195963150e-05 0.0 
-1.064195963150e-05 5.383984748705e-03 0.0 
0.0 0.0 0.0 
-5.231938384990e-04 4.109355481284e-04 0.0 
4.109355481284e-04 7.575153167660e-04 0.0 
0.0 0.0 0.0 
-1.108538721765e-03 1.599997950306e-03 0.0 
1.599997950306e-03 5.493162171524e-03 0.0 
0.0 0.0 0.0 
-3.537810259733e-04 1.327531876481e-03 0.0 
1.327531876481e-03 4.817488510562e-03 0.0 
0.0 0.0 0.0 
-1.290307188647e-03 4.622058445245e-04 0.0 
4.622058445245e-04 1.320667339225e-02 0.0 
0.0 0.0 0.0 
8.036368633084e-04 1.722579361254e-03 0.0 
1.722579361254e-03 7.666553470692e-03 0.0 
0.0 0.0 0.0 
-3.805817254353e-04 4.539865896325e-04 0.0 
4.539865896325e-04 1.531451365164e-02 0.0 
0.0 0.0 0.0 
2.565426780694e-04 1.765262292945e-03 0.0 
1.765262292945e-03 9.101215194238e-03 0.0 
0.0 0.0 0.0 
-2.917805087702e-04 -2.295272629071e-04 0.0 
-2.295272629071e-04 8.748333555488e-04 0.0 
0.0 0.0 0.0 
-1.976312718643e-04 -2.162102238974e-04 0.0 
-2.162102238974e-04 7.848239627033e-04 0.0 
0.0 0.0 0.0 
-1.098303651991e-03 1.623975363898e-03 0.0 
1.623975363898e-03 4.172518573861e-03 0.0 
0.0 0.0 0.0 
-6.494194424239e-04 1.593314577669e-04 0.0 
1.593314577669e-04 1.420150841778e-02 0.0 
0.0 0.0 0.0 
5.156381850933e-04 -1.147410093621e-04 0.0 
-1.147410093621e-04 2.550566355040e-03 0.0 
0.0 0.0 0.0 
-5.617520234334e-04 1.200424783575e-03 0.0 
1.200424783575e-03 1.502472783904e-02 0.0 
0.0 0.0 0.0 
2.324473060933e-04 -1.098644807147e-04 0.0 
-1.098644807147e-04 1.246593661931e-03 0.0 
0.0 0.0 0.0 
4.834646363066e-04 1.679891536591e-03 0.0 
1.679891536591e-03 8.628372748131e-03 0.0 
0.0 0.0 0.0 
-9.719775954197e-04 1.552038349510e-04 0.0 
1.552038349510e-04 1.318648702451e-02 0.0 
0.0 0.0 0.0 
1.638390582961e-04 2.227690373453e-03 0.0 
2.227690373453e-03 1.025233644738e-02 0.0 
0.0 0.0 0.0 
4.113933348460e-04 1.974537990028e-03 0.0 
1.974537990028e-03 9.265385940098e-03 0.0 
0.0 0.0 0.0 
-1.399649264776e-03 6.084180813755e-04 0.0 
6.084180813755e-04 1.318219644634e-02 0.0 
0.0 0.0 0.0 
3.581953839047e-04 1.156400955259e-03 0.0 
1.156400955259e-03 8.333114455659e-03 0.0 
0.0 0.0 0.0 
-4.455195762143e-04 1.398918894361e-03 0.0 
1.398918894361e-03 1.508425702221e-02 0.0 
0.0 0.0 0.0 
-2.493269756327e-04 1.195532029054e-04 0.0 
1.195532029054e-04 1.554814854726e-02 0.0 
0.0 0.0 0.0 
-1.085058153898e-03 1.551697143531e-03 0.0 
1.551697143531e-03 2.793871132456e-03 0.0 
0.0 0.0 0.0 
-5.124560698544e-04 1.043306704462e-03 0.0 
1.043306704462e-03 1.502695717245e-02 0.0 
0.0 0.0 0.0 
4.967529565469e-07 2.457542654015e-03 0.0 
2.457542654015e-03 1.197007586354e-02 0.0 
0.0 0.0 0.0 
5.163807328057e-04 1.678438296828e-03 0.0 
1.678438296828e-03 8.627583512226e-03 0.0 
0.0 0.0 0.0 
5.587139395893e-04 2.036142615523e-03 0.0 
2.036142615523e-03 9.181002903139e-03 0.0 
0.0 0.0 0.0 
0.0 7.392656385411e-04 0.0 
7.392656385411e-04 8.475877225933e-03 0.0 
0.0 0.0 0.0 
-4.526993389851e-04 2.092424811148e-03 0.0 
2.092424811148e-03 1.200046200186e-02 0.0 
0.0 0.0 0.0 
-7.481881198597e-04 3.657639819329e-04 0.0 
3.657639819329e-04 3.892194410811e-04 0.0 
0.0 0.0 0.0 
-3.078985547491e-04 7.255026249024e-04 0.0 
7.255026249024e-04 2.332402542639e-03 0.0 
0.0 0.0 0.0 
-4.763590422567e-04 2.189876326509e-03 0.0 
2.189876326509e-03 1.279321105106e-02 0.0 
0.0 0.0 0.0 
-1.194435708850e-03 5.120863330807e-04 0.0 
5.120863330807e-04 1.346250466419e-02 0.0 
0.0 0.0 0.0 
3.032303971906e-04 1.408035682339e-04 0.0 
1.408035682339e-04 7.386082692998e-03 0.0 
0.0 0.0 0.0 
3.138374283855e-04 2.086112412980e-03 0.0 
2.086112412980e-03 9.724005360122e-03 0.0 
0.0 0.0 0.0 
1.602862717229e-04 6.200253454951e-04 0.0 
6.200253454951e-04 8.021609378975e-03 0.0 
0.0 0.0 0.0 
-5.684832087973e-04 1.957446511787e-04 0.0 
1.957446511787e-04 1.458128461173e-02 0.0 
0.0 0.0 0.0 
1.454618276895e-04 2.140040883188e-03 0.0 
2.140040883188e-03 9.999571611350e-03 0.0 
0.0 0.0 0.0 
3.609891488203e-04 9.731537497430e-04 0.0 
9.731537497430e-04 7.896238863647e-03 0.0 
0.0 0.0 0.0 
4.306301288275e-04 1.049090973234e-03 0.0 
1.049090973234e-03 7.889200326490e-03 0.0 
0.0 0.0 0.0 
5.282812150527e-04 -8.199422889686e-05 0.0 
-8.199422889686e-05 2.647045938930e-03 0.0 
0.0 0.0 0.0 
1.749446669359e-04 6.041743413724e-04 0.0 
6.041743413724e-04 8.421547953384e-03 0.0 
0.0 0.0 0.0 
-1.062183318550e-03 1.546679377220e-04 0.0 
1.546679377220e-04 1.281284670462e-02 0.0 
0.0 0.0 0.0 
-3.755521146664e-04 2.250680235220e-04 0.0 
2.250680235220e-04 1.525478781422e-02 0.0 
0.0 0.0 0.0 
-3.708943310354e-05 -2.530221610574e-04 0.0 
-2.530221610574e-04 7.701359088597e-04 0.0 
0.0 0.0 0.0 
-4.644371341123e-04 9.518110029121e-05 0.0 
9.518110029121e-05 1.501187105989e-02 0.0 
0.0 0.0 0.0 
-7.103454477771e-04 8.575399851210e-05 0.0 
8.575399851210e-05 1.411728818291e-02 0.0 
0.0 0.0 0.0 
1.253595637702e-04 -4.569619433489e-05 0.0 
-4.569619433489e-05 6.788547734655e-04 0.0 
0.0 0.0 0.0 
1.351588689340e-04 -1.525387792878e-04 0.0 
-1.525387792878e-04 1.537271982587e-03 0.0 
0.0 0.0 0.0 
-2.917859234042e-04 2.180592397106e-03 0.0 
2.180592397106e-03 1.178353234484e-02 0.0 
0.0 0.0 0.0 
-2.242851857320e-04 6.886478551687e-04 0.0 
6.886478551687e-04 1.545087017986e-02 0.0 
0.0 0.0 0.0 
-3.391666112680e-04 1.002194284728e-04 0.0 
1.002194284728e-04 1.529839551891e-02 0.0 
0.0 0.0 0.0 
3.939631081653e-04 2.167365195262e-03 0.0 
2.167365195262e-03 9.671397952610e-03 0.0 
0.0 0.0 0.0 
-8.058347458447e-04 1.139582061096e-04 0.0 
1.139582061096e-04 1.342451280620e-02 0.0 
0.0 0.0 0.0 
-1.718659716040e-04 -1.430717942858e-04 0.0 
-1.430717942858e-04 4.497362330689e-04 0.0 
0.0 0.0 0.0 
-4.273561388499e-04 3.002984978366e-04 0.0 
3.002984978366e-04 1.069731595781e-03 0.0 
0.0 0.0 0.0 
-9.368460506931e-05 -8.335676935251e-05 0.0 
-8.335676935251e-05 4.888454324590e-04 0.0 
0.0 0.0 0.0 
-5.831826113800e-06 -2.937159422481e-04 0.0 
-2.937159422481e-04 1.023898614767e-03 0.0 
0.0 0.0 0.0 
-7.958644839474e-04 7.343169414541e-04 0.0 
7.343169414541e-04 5.419191725762e-04 0.0 
0.0 0.0 0.0 
6.813579567300e-04 6.716226168240e-06 0.0 
6.716226168240e-06 3.624088577595e-03 0.0 
0.0 0.0 0.0 
3.242896506004e-04 2.144716777979e-04 0.0 
2.144716777979e-04 7.384514174319e-03 0.0 
0.0 0.0 0.0 
-4.605553806518e-04 1.967152531989e-03 0.0 
1.967152531989e-03 1.389680506223e-02 0.0 
0.0 0.0 0.0 
-1.456797709453e-03 8.807886208908e-04 0.0 
8.807886208908e-04 1.327308266044e-02 0.0 
0.0 0.0 0.0 
6.357785797440e-04 -1.085358687981e-04 0.0 
-1.085358687981e-04 3.131071299934e-03 0.0 
0.0 0.0 0.0 
3.900336317653e-04 7.861484712627e-04 0.0 
7.861484712627e-04 7.668745915269e-03 0.0 
0.0 0.0 0.0 
5.981195579461e-04 1.369798947823e-03 0.0 
1.369798947823e-03 8.023049984551e-03 0.0 
0.0 0.0 0.0 
2.838939739414e-04 2.391081742143e-03 0.0 
2.391081742143e-03 1.037088383765e-02 0.0 
0.0 0.0 0.0 
1.379205655572e-05 2.333866135046e-03 0.0 
2.333866135046e-03 1.145795500975e-02 0.0 
0.0 0.0 0.0 
-2.099080794103e-04 2.266460433354e-03 0.0 
2.266460433354e-03 1.212565784496e-02 0.0 
0.0 0.0 0.0 
-4.010135935129e-05 -1.817832017838e-04 0.0 
-1.817832017838e-04 7.454507794489e-04 0.0 
0.0 0.0 0.0 
-5.038797268143e-04 -1.468343487469e-04 0.0 
-1.468343487469e-04 9.294161315998e-04 0.0 
0.0 0.0 0.0 
3.060775632822e-04 2.709937656878e-04 0.0 
2.709937656878e-04 7.455092906305e-03 0.0 
0.0 0.0 0.0 
1.757480447961e-04 -2.472467272884e-05 0.0 
-2.472467272884e-05 6.625653430601e-04 0.0 
0.0 0.0 0.0 
1.672192503688e-04 3.703021210834e-05 0.0 
3.703021210834e-05 8.253846662418e-04 0.0 
0.0 0.0 0.0 
-6.331635895662e-04 9.673095790910e-04 0.0 
9.673095790910e-04 1.321381051441e-03 0.0 
0.0 0.0 0.0 
-1.850168797013e-05 -2.143837005846e-04 0.0 
-2.143837005846e-04 7.026193539448e-04 0.0 
0.0 0.0 0.0 
1.844201680332e-04 1.061966201050e-03 0.0 
1.061966201050e-03 8.284328037605e-03 0.0 
0.0 0.0 0.0 
-1.279945885342e-04 2.404231026919e-03 0.0 
2.404231026919e-03 1.280920522988e-02 0.0 
0.0 0.0 0.0 
-3.281895594450e-04 4.832862145091e-04 0.0 
4.832862145091e-04 1.531615858438e-02 0.0 
0.0 0.0 0.0 
1.245606343006e-04 2.314368439837e-03 0.0 
2.314368439837e-03 1.056575979049e-02 0.0 
0.0 0.0 0.0 
5.544519607843e-04 1.281092185837e-03 0.0 
1.281092185837e-03 7.843278828861e-03 0.0 
0.0 0.0 0.0 
-7.681649813743e-04 1.275114470705e-04 0.0 
1.275114470705e-04 1.364104211613e-02 0.0 
0.0 0.0 0.0 
0.0 9.632853062516e-04 0.0 
9.632853062516e-04 1.558527993748e-02 0.0 
0.0 0.0 0.0 
3.460314512362e-04 -2.264289598924e-04 0.0 
-2.264289598924e-04 1.753684967395e-03 0.0 
0.0 0.0 0.0 
-8.595427991487e-04 -5.513664621563e-07 0.0 
-5.513664621563e-07 1.241367348615e-02 0.0 
0.0 0.0 0.0 
-1.128177597892e-04 -2.386192402085e-04 0.0 
-2.386192402085e-04 1.122705118228e-03 0.0 
0.0 0.0 0.0 
4.559500693513e-05 -7.637555010575e-05 0.0 
-7.637555010575e-05 3.695957164576e-04 0.0 
0.0 0.0 0.0 
1.623515723645e-04 4.199623782502e-04 0.0 
4.199623782502e-04 8.338459077498e-03 0.0 
0.0 0.0 0.0 
-1.321779850462e-03 4.776499867177e-04 0.0 
4.776499867177e-04 1.278552555916e-02 0.0 
0.0 0.0 0.0 
1.638347381885e-04 -7.872000780124e-05 0.0 
-7.872000780124e-05 9.804548290659e-04 0.0 
0.0 0.0 0.0 
6.651447689243e-04 1.858145072934e-05 0.0 
1.858145072934e-05 3.473431582961e-03 0.0 
0.0 0.0 0.0 
-1.836351902585e-04 2.515764070117e-03 0.0 
2.515764070117e-03 1.298338272184e-02 0.0 
0.0 0.0 0.0 
-4.824865072470e-04 6.324960972884e-04 0.0 
6.324960972884e-04 1.525663925816e-02 0.0 
0.0 0.0 0.0 
-2.764054731461e-04 1.545659088657e-03 0.0 
1.545659088657e-03 1.488983123248e-02 0.0 
0.0 0.0 0.0 
4.845958746784e-04 -7.234285451523e-05 0.0 
-7.234285451523e-05 2.405016342989e-03 0.0 
0.0 0.0 0.0 
-4.164590517878e-04 -2.434355528092e-05 0.0 
-2.434355528092e-05 9.752914138339e-04 0.0 
0.0 0.0 0.0 
2.711969635154e-04 6.809248632262e-04 0.0 
6.809248632262e-04 8.043864954938e-03 0.0 
0.0 0.0 0.0 
-1.277934157086e-04 9.219412095623e-05 0.0 
9.219412095623e-05 1.580502046849e-02 0.0 
0.0 0.0 0.0 
1.245355901931e-04 8.364491615681e-05 0.0 
8.364491615681e-05 8.277306564305e-03 0.0 
0.0 0.0 0.0 
-7.995470337709e-04 2.404816462091e-05 0.0 
2.404816462091e-05 1.270287453869e-02 0.0 
0.0 0.0 0.0 
3.928863545939e-04 1.373587677313e-03 0.0 
1.373587677313e-03 8.234326576456e-03 0.0 
0.0 0.0 0.0 
2.276143631199e-04 -1.185360661667e-04 0.0 
-1.185360661667e-04 1.002351841163e-03 0.0 
0.0 0.0 0.0 
-4.604450569595e-04 1.205252489771e-03 0.0 
1.205252489771e-03 1.502495253118e-02 0.0 
0.0 0.0 0.0 
-5.570670259192e-06 -1.020079799010e-04 0.0 
-1.020079799010e-04 3.711509098190e-04 0.0 
0.0 0.0 0.0 
1.923701357305e-04 1.289946517848e-03 0.0 
1.289946517848e-03 8.524418095056e-03 0.0 
0.0 0.0 0.0 
-4.573706110558e-04 1.711579551593e-03 0.0 
1.711579551593e-03 1.473977700310e-02 0.0 
0.0 0.0 0.0 
-4.850348083227e-04 1.319721602729e-04 0.0 
1.319721602729e-04 6.612578147780e-04 0.0 
0.0 0.0 0.0 
1.898984919855e-04 2.233157273372e-03 0.0 
2.233157273372e-03 1.037333253153e-02 0.0 
0.0 0.0 0.0 
-6.322229493412e-04 8.692842688829e-05 0.0 
8.692842688829e-05 1.439557881830e-02 0.0 
0.0 0.0 0.0 
-1.709769738462e-04 5.003679940622e-04 0.0 
5.003679940622e-04 1.551724290727e-02 0.0 
0.0 0.0 0.0 
0.0 2.103868339157e-03 0.0 
2.103868339157e-03 1.004641451036e-02 0.0 
0.0 0.0 0.0 
-6.985024041266e-04 -1.808458856792e-05 0.0 
-1.808458856792e-05 1.387900709498e-02 0.0 
0.0 0.0 0.0 
-1.193765371822e-04 2.364178813915e-03 0.0 
2.364178813915e-03 1.316572581845e-02 0.0 
0.0 0.0 0.0 
-6.107698574331e-04 1.480217831434e-03 0.0 
1.480217831434e-03 1.474028807397e-02 0.0 
0.0 0.0 0.0 
-6.407655409021e-04 7.329636340012e-05 0.0 
7.329636340012e-05 1.411190282342e-02 0.0 
0.0 0.0 0.0 
-2.112108160314e-04 2.288576453791e-03 0.0 
2.288576453791e-03 1.279041923824e-02 0.0 
0.0 0.0 0.0 
5.978302658731e-04 -7.378839712077e-05 0.0 
-7.378839712077e-05 2.923819124657e-03 0.0 
0.0 0.0 0.0 
-8.360032374786e-04 -5.096091158148e-06 0.0 
-5.096091158148e-06 1.240934832994e-02 0.0 
0.0 0.0 0.0 
3.128725375752e-04 2.290841168722e-03 0.0 
2.290841168722e-03 1.021501257904e-02 0.0 
0.0 0.0 0.0 
-1.640134311197e-04 7.951065245187e-05 0.0 
7.951065245187e-05 1.557885109705e-02 0.0 
0.0 0.0 0.0 
7.331117850562e-05 6.883525163312e-06 0.0 
6.883525163312e-06 6.568116247152e-05 0.0 
0.0 0.0 0.0 
-8.094288034709e-04 6.230778608689e-06 0.0 
6.230778608689e-06 1.239913106906e-02 0.0 
0.0 0.0 0.0 
1.607365987035e-04 3.960544646119e-05 0.0 
3.960544646119e-05 7.912462025154e-03 0.0 
0.0 0.0 0.0 
2.445749925979e-04 -1.083349228160e-04 0.0 
-1.083349228160e-04 1.288621343926e-03 0.0 
0.0 0.0 0.0 
5.582220676779e-04 1.605764155072e-03 0.0 
1.605764155072e-03 8.468752626177e-03 0.0 
0.0 0.0 0.0 
-6.473215410104e-04 1.753073912664e-03 0.0 
1.753073912664e-03 1.435015812239e-02 0.0 
0.0 0.0 0.0 
-3.159858349377e-04 4.330736006670e-04 0.0 
4.330736006670e-04 1.550135260955e-02 0.0 
0.0 0.0 0.0 
2.406629214899e-04 -6.048024564779e-05 0.0 
-6.048024564779e-05 1.231213053634e-03 0.0 
0.0 0.0 0.0 
-4.053791478341e-04 6.422127912016e-04 0.0 
6.422127912016e-04 1.659203354767e-03 0.0 
0.0 0.0 0.0 
6.889482917765e-04 5.507299293285e-05 0.0 
5.507299293285e-05 4.337563168034e-03 0.0 
0.0 0.0 0.0 
-5.001927954617e-04 1.046902417672e-04 0.0 
1.046902417672e-04 1.476800470528e-02 0.0 
0.0 0.0 0.0 
-1.196232571952e-03 -5.034474811074e-05 0.0 
-5.034474811074e-05 6.340221577208e-04 0.0 
0.0 0.0 0.0 
-2.487615469976e-04 1.262645898341e-03 0.0 
1.262645898341e-03 1.517764261580e-02 0.0 
0.0 0.0 0.0 
-6.943917180264e-04 5.154092656477e-05 0.0 
5.154092656477e-05 1.376654077990e-02 0.0 
0.0 0.0 0.0 
1.108250133277e-04 -3.159665744405e-04 0.0 
-3.159665744405e-04 1.313780351826e-03 0.0 
0.0 0.0 0.0 
-7.639957097700e-04 6.609201571608e-05 0.0 
6.609201571608e-05 1.350685338249e-02 0.0 
0.0 0.0 0.0 
1.663322160654e-04 2.447326830962e-03 0.0 
2.447326830962e-03 1.074878962219e-02 0.0 
0.0 0.0 0.0 
6.949641303085e-04 -4.063188472032e-05 0.0 
-4.063188472032e-05 4.569112483102e-03 0.0 
0.0 0.0 0.0 
-8.183641661480e-04 6.417692158917e-04 0.0 
6.417692158917e-04 9.057805101589e-04 0.0 
0.0 0.0 0.0 
5.732163402881e-04 -4.397723987039e-05 0.0 
-4.397723987039e-05 2.634738498523e-03 0.0 
0.0 0.0 0.0 
7.177314146913e-04 1.886913330614e-05 0.0 
1.886913330614e-05 3.928935748750e-03 0.0 
0.0 0.0 0.0 
7.021741192943e-04 6.005499281723e-05 0.0 
6.005499281723e-05 4.772783259061e-03 0.0 
0.0 0.0 0.0 
3.080778016145e-04 2.072943065666e-03 0.0 
2.072943065666e-03 9.634699128603e-03 0.0 
0.0 0.0 0.0 
6.832915770096e-04 -3.466111200653e-05 0.0 
-3.466111200653e-05 3.825261310587e-03 0.0 
0.0 0.0 0.0 
7.147723921164e-04 2.013937462901e-05 0.0 
2.013937462901e-05 4.085397400447e-03 0.0 
0.0 0.0 0.0 
-1.059663185132e-05 -9.372435881646e-05 0.0 
-9.372435881646e-05 6.343847871682e-04 0.0 
0.0 0.0 0.0 
3.232733130725e-04 6.245978250710e-04 0.0 
6.245978250710e-04 7.665935848244e-03 0.0 
0.0 0.0 0.0 
6.711313477736e-05 2.341342111946e-03 0.0 
2.341342111946e-03 1.114996247096e-02 0.0 
0.0 0.0 0.0 
-9.380193666975e-05 6.758342475312e-04 0.0 
6.758342475312e-04 1.767392264348e-03 0.0 
0.0 0.0 0.0 
-1.320703845203e-04 6.025964181233e-05 0.0 
6.025964181233e-05 1.556874107936e-02 0.0 
0.0 0.0 0.0 
1.354077242843e-04 9.223914725775e-05 0.0 
9.223914725775e-05 7.897381851655e-03 0.0 
0.0 0.0 0.0 
-8.082382183674e-04 -2.253352289604e-05 0.0 
-2.253352289604e-05 1.272771261723e-02 0.0 
0.0 0.0 0.0 
-7.265691465740e-04 4.398293526020e-05 0.0 
4.398293526020e-05 1.376561166442e-02 0.0 
0.0 0.0 0.0 
6.948075820330e-04 2.171562423761e-05 0.0 
2.171562423761e-05 3.818936936097e-03 0.0 
0.0 0.0 0.0 
7.045406679218e-04 -2.262513869970e-05 0.0 
-2.262513869970e-05 3.949947395276e-03 0.0 
0.0 0.0 0.0 
6.858086841774e-04 -1.151840526290e-06 0.0 
-1.151840526290e-06 4.103390722300e-03 0.0 
0.0 0.0 0.0 
6.177711393673e-04 1.558029686204e-03 0.0 
1.558029686204e-03 8.174432019499e-03 0.0 
0.0 0.0 0.0 
7.293785750218e-05 -2.128126719434e-04 0.0 
-2.128126719434e-04 1.059508878224e-03 0.0 
0.0 0.0 0.0 
-5.245659875075e-05 2.440142572643e-03 0.0 
2.440142572643e-03 1.168322575999e-02 0.0 
0.0 0.0 0.0 
-7.753951620441e-04 3.085053943459e-05 0.0 
3.085053943459e-05 1.308654690238e-02 0.0 
0.0 0.0 0.0 
-4.725904268318e-04 1.189785646207e-03 0.0 
1.189785646207e-03 1.521460228816e-02 0.0 
0.0 0.0 0.0 
5.108990550591e-04 1.467092033944e-03 0.0 
1.467092033944e-03 8.163527235422e-03 0.0 
0.0 0.0 0.0 
-8.049957228112e-04 5.453461733714e-05 0.0 
5.453461733714e-05 1.351468931729e-02 0.0 
0.0 0.0 0.0 
-2.642616267529e-04 2.250597828600e-03 0.0 
2.250597828600e-03 1.258189500650e-02 0.0 
0.0 0.0 0.0 
3.824597820143e-04 2.093218759720e-03 0.0 
2.093218759720e-03 9.625160382277e-03 0.0 
0.0 0.0 0.0 
2.840900905019e-04 2.298923405665e-03 0.0 
2.298923405665e-03 1.011624132936e-02 0.0 
0.0 0.0 0.0 
-6.821426153661e-04 7.007910004636e-04 0.0 
7.007910004636e-04 8.458993296303e-04 0.0 
0.0 0.0 0.0 
-3.473725232032e-04 2.256570186133e-03 0.0 
2.256570186133e-03 1.258148817162e-02 0.0 
0.0 0.0 0.0 
-1.810425295270e-04 2.431644646404e-03 0.0 
2.431644646404e-03 1.249479837049e-02 0.0 
0.0 0.0 0.0 
2.050311057600e-06 -1.526273414738e-04 0.0 
-1.526273414738e-04 6.656258575273e-04 0.0 
0.0 0.0 0.0 
6.797177046265e-04 -3.809627804363e-05 0.0 
-3.809627804363e-05 3.614561302876e-03 0.0 
0.0 0.0 0.0 
-7.343855507528e-04 4.908055800156e-04 0.0 
4.908055800156e-04 9.872715483370e-04 0.0 
0.0 0.0 0.0 
-3.479787445307e-04 2.361665051976e-03 0.0 
2.361665051976e-03 1.296615752022e-02 0.0 
0.0 0.0 0.0 
-8.334051434961e-04 -1.915362657433e-06 0.0 
-1.915362657433e-06 1.164935040860e-02 0.0 
0.0 0.0 0.0 
-8.127413398672e-04 1.390954884560e-05 0.0 
1.390954884560e-05 1.160125807092e-02 0.0 
0.0 0.0 0.0 
-8.216823061196e-04 -1.312962011387e-06 0.0 
-1.312962011387e-06 1.159949812489e-02 0.0 
0.0 0.0 0.0 
-8.143335323337e-04 -2.211361926997e-06 0.0 
-2.211361926997e-06 1.159502723857e-02 0.0 
0.0 0.0 0.0 
-8.188604909499e-04 -4.805937082181e-06 0.0 
-4.805937082181e-06 1.159460461686e-02 0.0 
0.0 0.0 0.0 
-8.119358774099e-04 -8.265820943064e-06 0.0 
-8.265820943064e-06 1.159531915915e-02 0.0 
0.0 0.0 0.0 
-8.180897174423e-04 -8.799566923780e-06 0.0 
-8.799566923780e-06 1.159527874612e-02 0.0 
0.0 0.0 0.0 
-8.028904692716e-04 -1.302076735460e-05 0.0 
-1.302076735460e-05 1.159142203291e-02 0.0 
0.0 0.0 0.0 
-8.134384799419e-04 -9.354178560037e-06 0.0 
-9.354178560037e-06 1.159272855580e-02 0.0 
0.0 0.0 0.0 
-7.888042873794e-04 -1.712451908611e-05 0.0 
-1.712451908611e-05 1.158881983728e-02 0.0 
0.0 0.0 0.0 
-8.122006762437e-04 -1.162151742060e-05 0.0 
-1.162151742060e-05 1.159149068042e-02 0.0 
0.0 0.0 0.0 
-7.687975480861e-04 -2.297546844199e-05 0.0 
-2.297546844199e-05 1.158215242233e-02 0.0 
0.0 0.0 0.0 
-8.075007635118e-04 -1.056151451292e-05 0.0 
-1.056151451292e-05 1.158890458463e-02 0.0 
0.0 0.0 0.0 
-9.934581162381e-04 2.761242370115e-04 0.0 
2.761242370115e-04 1.162461299880e-02 0.0 
0.0 0.0 0.0 
-7.439665855367e-04 -2.707509607662e-05 0.0 
-2.707509607662e-05 1.157700744611e-02 0.0 
0.0 0.0 0.0 
-8.071724561266e-04 -1.551384331077e-05 0.0 
-1.551384331077e-05 1.158594732260e-02 0.0 
0.0 0.0 0.0 
-6.506197470681e-04 7.314279122768e-05 0.0 
7.314279122768e-05 1.137306913906e-02 0.0 
0.0 0.0 0.0 
-7.159524749775e-04 -3.337213183247e-05 0.0 
-3.337213183247e-05 1.156289075015e-02 0.0 
0.0 0.0 0.0 
-8.036230492856e-04 -1.518466218172e-05 0.0 
-1.518466218172e-05 1.157866241791e-02 0.0 
0.0 0.0 0.0 
-1.194556977624e-03 2.180852205362e-04 0.0 
2.180852205362e-04 1.173292673062e-02 0.0 
0.0 0.0 0.0 
-6.811295078352e-04 -3.866731013615e-05 0.0 
-3.866731013615e-05 1.155077954729e-02 0.0 
0.0 0.0 0.0 
-8.063494254648e-04 -1.340887279010e-05 0.0 
-1.340887279010e-05 1.157646962440e-02 0.0 
0.0 0.0 0.0 
-6.415368261298e-04 -4.179273816160e-05 0.0 
-4.179273816160e-05 1.153945102610e-02 0.0 
0.0 0.0 0.0 
-8.155175418857e-04 -1.306891181396e-05 0.0 
-1.306891181396e-05 1.157624781562e-02 0.0 
0.0 0.0 0.0 
-6.025044265563e-04 -4.227741222717e-05 0.0 
-4.227741222717e-05 1.152486162944e-02 0.0 
0.0 0.0 0.0 
-1.474520704396e-03 6.499933484015e-04 0.0 
6.499933484015e-04 1.191715620253e-02 0.0 
0.0 0.0 0.0 
-8.343247846094e-04 -8.648287261720e-06 0.0 
-8.648287261720e-06 1.157747711171e-02 0.0 
0.0 0.0 0.0 
-5.673692046401e-04 -3.717666718733e-05 0.0 
-3.717666718733e-05 1.151087773086e-02 0.0 
0.0 0.0 0.0 
-5.437390092702e-04 -2.288345763838e-05 0.0 
-2.288345763838e-05 1.150122001746e-02 0.0 
0.0 0.0 0.0 
-8.729793136857e-04 2.182718592252e-06 0.0 
2.182718592252e-06 1.158565437916e-02 0.0 
0.0 0.0 0.0 
-5.442640399367e-04 9.276437458424e-06 0.0 
9.276437458424e-06 1.147784974089e-02 0.0 
0.0 0.0 0.0 
-9.454864057472e-04 1.304939848531e-05 0.0 
1.304939848531e-05 1.159892812188e-02 0.0 
0.0 0.0 0.0 
-5.998661840848e-04 1.051887981235e-04 0.0 
1.051887981235e-04 1.149497504316e-02 0.0 
0.0 0.0 0.0 
-9.982240820560e-04 8.241392782461e-05 0.0 
8.241392782461e-05 1.163074009523e-02 0.0 
0.0 0.0 0.0 
-1.345195628080e-03 1.892685186405e-04 0.0 
1.892685186405e-04 1.192834413796e-02 0.0 
0.0 0.0 0.0 
-8.421624218169e-04 -5.528556345691e-05 0.0 
-5.528556345691e-05 1.159550082348e-02 0.0 
0.0 0.0 0.0 
-8.749152154984e-04 6.701981658401e-05 0.0 
6.701981658401e-05 1.165344132750e-02 0.0 
0.0 0.0 0.0 
-8.857613762397e-04 5.752272657766e-07 0.0 
5.752272657766e-07 1.152813719631e-02 0.0 
0.0 0.0 0.0 
-8.309875895381e-04 1.284382672604e-05 0.0 
1.284382672604e-05 1.171722483665e-02 0.0 
0.0 0.0 0.0 
-1.566582604012e-03 6.892304284973e-04 0.0 
6.892304284973e-04 1.148372897208e-02 0.0 
0.0 0.0 0.0 
-8.334051434961e-04 -2.510658486634e-05 0.0 
-2.510658486634e-05 1.200169624131e-02 0.0 
0.0 0.0 0.0 
-8.167441333891e-04 -3.702368969202e-06 0.0 
-3.702368969202e-06 1.202722798824e-02 0.0 
0.0 0.0 0.0 
-8.216823061196e-04 -6.531356021083e-06 0.0 
-6.531356021083e-06 1.202757789735e-02 0.0 
0.0 0.0 0.0 
-8.239418029308e-04 -6.746531875118e-06 0.0 
-6.746531875118e-06 1.202906387116e-02 0.0 
0.0 0.0 0.0 
-8.188604909499e-04 -7.728676295774e-06 0.0 
-7.728676295774e-06 1.202919763038e-02 0.0 
0.0 0.0 0.0 
-8.281399215597e-04 -1.018891425081e-05 0.0 
-1.018891425081e-05 1.203208050419e-02 0.0 
0.0 0.0 0.0 
-8.180897174423e-04 -1.299039390842e-05 0.0 
-1.299039390842e-05 1.203260057270e-02 0.0 
0.0 0.0 0.0 
-8.315120813431e-04 -2.008194344588e-05 0.0 
-2.008194344588e-05 1.203026810934e-02 0.0 
0.0 0.0 0.0 
-8.134384799419e-04 -1.334056892395e-05 0.0 
-1.334056892395e-05 1.202789448705e-02 0.0 
0.0 0.0 0.0 
-8.397745571848e-04 -1.982930051562e-05 0.0 
-1.982930051562e-05 1.203506831024e-02 0.0 
0.0 0.0 0.0 
-8.122006762437e-04 -1.667728607134e-05 0.0 
-1.667728607134e-05 1.203309713238e-02 0.0 
0.0 0.0 0.0 
-8.552653700303e-04 -3.036061213542e-05 0.0 
-3.036061213542e-05 1.203852237038e-02 0.0 
0.0 0.0 0.0 
-1.147660117737e-03 2.854622091163e-04 0.0 
2.854622091163e-04 1.207153006454e-02 0.0 
0.0 0.0 0.0 
-8.075007635118e-04 -1.641569506939e-05 0.0 
-1.641569506939e-05 1.203075572139e-02 0.0 
0.0 0.0 0.0 
-1.237088074315e-03 2.012402232095e-04 0.0 
2.012402232095e-04 1.216324954192e-02 0.0 
0.0 0.0 0.0 
-8.595427991487e-04 -2.787417599499e-05 0.0 
-2.787417599499e-05 1.204366387175e-02 0.0 
0.0 0.0 0.0 
-8.071724561266e-04 -1.569920149453e-05 0.0 
-1.569920149453e-05 1.203503507584e-02 0.0 
0.0 0.0 0.0 
-8.917026482943e-04 -3.758620208073e-05 0.0 
-3.758620208073e-05 1.204855018754e-02 0.0 
0.0 0.0 0.0 
-8.036230492856e-04 -1.296467474384e-05 0.0 
-1.296467474384e-05 1.202934359392e-02 0.0 
0.0 0.0 0.0 
-9.185221778468e-04 -3.399037981285e-05 0.0 
-3.399037981285e-05 1.205691102246e-02 0.0 
0.0 0.0 0.0 
-8.063494254648e-04 -6.589803561221e-06 0.0 
-6.589803561221e-06 1.203108951116e-02 0.0 
0.0 0.0 0.0 
-9.477026558989e-04 -2.647586982929e-05 0.0 
-2.647586982929e-05 1.206886983233e-02 0.0 
0.0 0.0 0.0 
-9.982240820560e-04 2.329548952948e-04 0.0 
2.329548952948e-04 1.188049698113e-02 0.0 
0.0 0.0 0.0 
-8.155175418857e-04 8.445997176842e-06 0.0 
8.445997176842e-06 1.203243734505e-02 0.0 
0.0 0.0 0.0 
-9.932607053053e-04 -1.028835330182e-05 0.0 
-1.028835330182e-05 1.208261130942e-02 0.0 
0.0 0.0 0.0 
-8.343247846094e-04 3.713944805514e-05 0.0 
3.713944805514e-05 1.202933461524e-02 0.0 
0.0 0.0 0.0 
-1.050142660711e-03 2.715632423442e-05 0.0 
2.715632423442e-05 1.209933442715e-02 0.0 
0.0 0.0 0.0 
-1.125766160418e-03 9.615378410239e-05 0.0 
9.615378410239e-05 1.212334972287e-02 0.0 
0.0 0.0 0.0 
-8.729793136857e-04 8.831897872201e-05 0.0 
8.831897872201e-05 1.202666280761e-02 0.0 
0.0 0.0 0.0 
-9.454864057472e-04 1.672682488894e-04 0.0 
1.672682488894e-04 1.203421840594e-02 0.0 
0.0 0.0 0.0 
-1.307563476799e-03 4.436280898688e-04 0.0 
4.436280898688e-04 1.219361880275e-02 0.0 
0.0 0.0 0.0 
-1.248601107576e-03 2.617036841725e-04 0.0 
2.617036841725e-04 1.209186949320e-02 0.0 
0.0 0.0 0.0 
-8.351885377220e-04 -5.459785267659e-05 0.0 
-5.459785267659e-05 1.202624502375e-02 0.0 
0.0 0.0 0.0 
-8.186610654264e-04 5.820512928188e-05 0.0 
5.820512928188e-05 1.199678279786e-02 0.0 
0.0 0.0 0.0 
-8.227384563108e-04 1.092637634743e-07 0.0 
1.092637634743e-07 1.212071269731e-02 0.0 
0.0 0.0 0.0 
-8.309875895381e-04 5.382050913208e-06 0.0 
5.382050913208e-06 1.190585597856e-02 0.0 
0.0 0.0 0.0 
-1.194556977624e-03 5.005345164571e-04 0.0 
5.005345164571e-04 1.187061743598e-02 0.0 
0.0 0.0 0.0 

TENSORS element_materi_strain_plasti float
-4.741889373871e-04 2.342858306946e-04 0.0 
2.342858306946e-04 2.814002888893e-03 0.0 
0.0 0.0 -4.220722639049e-04 
-3.897703972720e-04 -2.636930979350e-04 0.0 
-2.636930979350e-04 2.518846771568e-03 0.0 
0.0 0.0 -4.303330772826e-04 
-1.259341393326e-03 -3.090507185477e-05 0.0 
-3.090507185477e-05 8.411433358411e-03 0.0 
0.0 0.0 -1.278236581085e-03 
-1.261464826866e-03 -1.747915258518e-04 0.0 
-1.747915258518e-04 8.480496286503e-03 0.0 
0.0 0.0 -1.255598393855e-03 
-7.983281552708e-04 2.303090028113e-04 0.0 
2.303090028113e-04 5.254489729699e-03 0.0 
0.0 0.0 -7.961861350945e-04 
-2.059346616286e-04 2.207607006017e-04 0.0 
2.207607006017e-04 1.009101900264e-03 0.0 
0.0 0.0 -1.793459522598e-04 
-7.878967474187e-04 2.695248863588e-04 0.0 
2.695248863588e-04 5.204562819075e-03 0.0 
0.0 0.0 -8.011023898636e-04 
-4.128254064944e-04 4.080923401225e-05 0.0 
4.080923401225e-05 2.687408780313e-03 0.0 
0.0 0.0 -4.045669272905e-04 
-8.029485881417e-04 -2.877766516214e-04 0.0 
-2.877766516214e-04 5.280709952101e-03 0.0 
0.0 0.0 -7.977904104816e-04 
-1.248589478216e-03 2.242094407416e-04 0.0 
2.242094407416e-04 8.399546616313e-03 0.0 
0.0 0.0 -1.253060141438e-03 
-8.734037686266e-04 1.480436446760e-04 0.0 
1.480436446760e-04 5.724300399011e-03 0.0 
0.0 0.0 -8.816510380685e-04 
-3.813204680076e-04 2.190974573011e-07 0.0 
2.190974573011e-07 2.153866306060e-03 0.0 
0.0 0.0 -3.735031833740e-04 
-1.251882997596e-03 2.259053558601e-04 0.0 
2.259053558601e-04 8.467796470942e-03 0.0 
0.0 0.0 -1.259187713256e-03 
-8.479147549375e-04 1.860153946805e-04 0.0 
1.860153946805e-04 5.638680799524e-03 0.0 
0.0 0.0 -8.526168115438e-04 
-1.288189434839e-03 -1.832848558744e-04 0.0 
-1.832848558744e-04 8.626562874010e-03 0.0 
0.0 0.0 -1.289538875031e-03 
-1.301181403367e-03 2.039645816312e-04 0.0 
2.039645816312e-04 8.626062176419e-03 0.0 
0.0 0.0 -1.285984941237e-03 
-7.889097476292e-04 4.689353054498e-06 0.0 
4.689353054498e-06 5.256085596916e-03 0.0 
0.0 0.0 -7.740676797406e-04 
-1.741032192830e-04 -1.984587543237e-04 0.0 
-1.984587543237e-04 9.106845467383e-04 0.0 
0.0 0.0 -1.826237857505e-04 
-3.103934600629e-04 -1.188849736468e-04 0.0 
-1.188849736468e-04 1.808737160777e-03 0.0 
0.0 0.0 -2.776016825098e-04 
-3.017260514233e-04 1.101242532993e-04 0.0 
1.101242532993e-04 1.644506395847e-03 0.0 
0.0 0.0 -3.031105466646e-04 
-1.236978180346e-03 -2.273342210413e-04 0.0 
-2.273342210413e-04 8.474882909105e-03 0.0 
0.0 0.0 -1.250388265701e-03 
-4.788832533263e-04 9.235771209212e-05 0.0 
9.235771209212e-05 2.938553769608e-03 0.0 
0.0 0.0 -4.811142067971e-04 
-5.153479436011e-04 -1.000310601358e-04 0.0 
-1.000310601358e-04 3.322116646267e-03 0.0 
0.0 0.0 -5.091556215902e-04 
-1.207914407075e-03 -1.521033174033e-04 0.0 
-1.521033174033e-04 8.119148175608e-03 0.0 
0.0 0.0 -1.210372970477e-03 
-9.004893154001e-04 2.196977328254e-04 0.0 
2.196977328254e-04 6.011080091783e-03 0.0 
0.0 0.0 -9.130988374533e-04 
-9.174590915307e-04 -1.450811372332e-04 0.0 
-1.450811372332e-04 6.162434229051e-03 0.0 
0.0 0.0 -9.179597371190e-04 
-7.131055436639e-04 -1.829825241457e-05 0.0 
-1.829825241457e-05 4.865076399380e-03 0.0 
0.0 0.0 -7.148082707961e-04 
-1.275014108034e-03 1.320223363471e-05 0.0 
1.320223363471e-05 8.706353732723e-03 0.0 
0.0 0.0 -1.266047838742e-03 
-9.084778585211e-04 -2.532626103826e-04 0.0 
-2.532626103826e-04 6.055345996359e-03 0.0 
0.0 0.0 -9.113908267906e-04 
-1.248671644074e-03 1.500744587119e-04 0.0 
1.500744587119e-04 8.319441606585e-03 0.0 
0.0 0.0 -1.237914324842e-03 
-2.162503473685e-04 3.355180743616e-05 0.0 
3.355180743616e-05 1.390767343688e-03 0.0 
0.0 0.0 -2.185975924268e-04 
-1.102777646679e-04 3.092462500308e-05 0.0 
3.092462500308e-05 6.008114765358e-04 0.0 
0.0 0.0 -1.059755802940e-04 
-1.291285801941e-03 5.563014948252e-05 0.0 
5.563014948252e-05 8.705630370944e-03 0.0 
0.0 0.0 -1.261301343383e-03 
-1.086169392383e-03 -1.843155554573e-04 0.0 
-1.843155554573e-04 7.250914267634e-03 0.0 
0.0 0.0 -1.090200430068e-03 
-1.229627234356e-03 -2.081816156675e-04 0.0 
-2.081816156675e-04 8.461501921680e-03 0.0 
0.0 0.0 -1.254989870190e-03 
-1.333928130876e-03 3.870959300371e-04 0.0 
3.870959300371e-04 8.918766405510e-03 0.0 
0.0 0.0 -1.314886350686e-03 
-1.319549054242e-03 -4.082653656671e-04 0.0 
-4.082653656671e-04 8.897494246722e-03 0.0 
0.0 0.0 -1.314653105918e-03 
-1.251043943053e-03 1.755104499557e-04 0.0 
1.755104499557e-04 8.438640087517e-03 0.0 
0.0 0.0 -1.264739017786e-03 
-7.261695585194e-04 -3.174047361397e-04 0.0 
-3.174047361397e-04 4.739951691414e-03 0.0 
0.0 0.0 -7.380763454960e-04 
-7.293562810949e-04 3.567993421673e-04 0.0 
3.567993421673e-04 4.808642079977e-03 0.0 
0.0 0.0 -7.371174501546e-04 
-5.783756129442e-04 -1.365848045621e-04 0.0 
-1.365848045621e-04 3.784424820314e-03 0.0 
0.0 0.0 -5.794556523337e-04 
-1.262877717034e-03 1.019690194500e-05 0.0 
1.019690194500e-05 8.450550888573e-03 0.0 
0.0 0.0 -1.280756488215e-03 
-3.226099019571e-04 2.179474137412e-04 0.0 
2.179474137412e-04 1.923375161646e-03 0.0 
0.0 0.0 -3.207852484642e-04 
-7.228265239816e-04 5.532830836335e-05 0.0 
5.532830836335e-05 4.629144605835e-03 0.0 
0.0 0.0 -7.350059072715e-04 
-1.225055898073e-03 -9.816574622214e-05 0.0 
-9.816574622214e-05 8.293394798268e-03 0.0 
0.0 0.0 -1.212858513926e-03 
-3.206551623609e-04 -1.904275671922e-04 0.0 
-1.904275671922e-04 1.917970267075e-03 0.0 
0.0 0.0 -3.198426158856e-04 
-1.782809379457e-04 -4.378063602815e-06 0.0 
-4.378063602815e-06 7.801372807209e-04 0.0 
0.0 0.0 -1.830859565219e-04 
-1.220501464306e-03 6.316947048485e-05 0.0 
6.316947048485e-05 8.106622909265e-03 0.0 
0.0 0.0 -1.234743356787e-03 
-9.829459878545e-05 4.583948434493e-06 0.0 
4.583948434493e-06 3.276774367732e-04 0.0 
0.0 0.0 -9.830693056618e-05 
-8.022047642295e-04 -1.811997065716e-04 0.0 
-1.811997065716e-04 5.439298518069e-03 0.0 
0.0 0.0 -8.229436299569e-04 
-5.489987759976e-04 -1.133059547326e-04 0.0 
-1.133059547326e-04 3.572814356686e-03 0.0 
0.0 0.0 -5.440916476828e-04 
-3.388458973027e-04 -7.042877961888e-05 0.0 
-7.042877961888e-05 2.248035829402e-03 0.0 
0.0 0.0 -3.443810396916e-04 
-3.074157494333e-04 -1.467796149718e-04 0.0 
-1.467796149718e-04 1.814374481458e-03 0.0 
0.0 0.0 -3.047895897720e-04 
-5.421593945536e-04 1.293548672114e-04 0.0 
1.293548672114e-04 3.418474043213e-03 0.0 
0.0 0.0 -5.489460876789e-04 
-1.266579725590e-03 -7.893235167103e-06 0.0 
-7.893235167103e-06 8.468672292321e-03 0.0 
0.0 0.0 -1.282189168212e-03 
-4.597210026087e-04 -1.452187243082e-04 0.0 
-1.452187243082e-04 2.937502524048e-03 0.0 
0.0 0.0 -4.512233509908e-04 
-3.611878323951e-04 1.444175472609e-04 0.0 
1.444175472609e-04 2.127268062759e-03 0.0 
0.0 0.0 -3.694212080277e-04 
-1.088084509005e-03 1.827090950975e-04 0.0 
1.827090950975e-04 7.290496234404e-03 0.0 
0.0 0.0 -1.087734043503e-03 
-2.215722591698e-04 2.179680801215e-05 0.0 
2.179680801215e-05 1.355906413413e-03 0.0 
0.0 0.0 -2.189683579105e-04 
-1.291565119731e-03 -2.058202376930e-04 0.0 
-2.058202376930e-04 8.638287399564e-03 0.0 
0.0 0.0 -1.285320035817e-03 
-9.406322495114e-05 -1.263405609948e-04 0.0 
-1.263405609948e-04 5.178868060056e-04 0.0 
0.0 0.0 -9.532668554595e-05 
-1.207108165930e-03 2.281727388557e-04 0.0 
2.281727388557e-04 8.099161405670e-03 0.0 
0.0 0.0 -1.210824713543e-03 
-5.507253245742e-04 2.263693422712e-04 0.0 
2.263693422712e-04 3.467321570737e-03 0.0 
0.0 0.0 -5.497085007362e-04 
-2.633068753573e-04 1.211642318687e-04 0.0 
1.211642318687e-04 1.594924151360e-03 0.0 
0.0 0.0 -2.769417647402e-04 
-1.253722868311e-03 -1.824681277037e-04 0.0 
-1.824681277037e-04 8.465445333241e-03 0.0 
0.0 0.0 -1.257478522087e-03 
-5.218987792326e-04 1.045965667427e-04 0.0 
1.045965667427e-04 3.169150320614e-03 0.0 
0.0 0.0 -5.137572693775e-04 
-6.027079853022e-05 4.538885378733e-05 0.0 
4.538885378733e-05 2.053936984274e-04 0.0 
0.0 0.0 -6.219552852736e-05 
-1.264974411680e-03 -7.934823425824e-05 0.0 
-7.934823425824e-05 8.671954395754e-03 0.0 
0.0 0.0 -1.261660853087e-03 
-2.446973118895e-04 -2.103372277075e-04 0.0 
-2.103372277075e-04 1.398643057908e-03 0.0 
0.0 0.0 -2.404310120911e-04 
-1.273528016320e-03 -3.786679226439e-06 0.0 
-3.786679226439e-06 8.448618323595e-03 0.0 
0.0 0.0 -1.282376455277e-03 
-9.491469452999e-04 -1.694945758870e-04 0.0 
-1.694945758870e-04 6.388198818832e-03 0.0 
0.0 0.0 -9.556290573178e-04 
-1.338499280800e-03 -4.782411066383e-06 0.0 
-4.782411066383e-06 8.836661036334e-03 0.0 
0.0 0.0 -1.338499280800e-03 
-1.237491500558e-03 1.679725136133e-06 0.0 
1.679725136133e-06 8.119391193773e-03 0.0 
0.0 0.0 -1.232909111256e-03 
-1.306267830690e-04 2.201659246920e-04 0.0 
2.201659246920e-04 5.612930774450e-04 0.0 
0.0 0.0 -1.295286970291e-04 
-4.862904107144e-04 1.519111044425e-04 0.0 
1.519111044425e-04 2.949318680170e-03 0.0 
0.0 0.0 -4.777371989943e-04 
-1.254133957623e-03 -1.731664304593e-04 0.0 
-1.731664304593e-04 8.495066883004e-03 0.0 
0.0 0.0 -1.262626981217e-03 
-1.278966520388e-03 -5.463065947737e-06 0.0 
-5.463065947737e-06 8.716306064884e-03 0.0 
0.0 0.0 -1.265352048664e-03 
-2.500278062254e-04 -1.904083940436e-04 0.0 
-1.904083940436e-04 1.447205075698e-03 0.0 
0.0 0.0 -2.510564503189e-04 
-2.134033531635e-04 -1.202880701253e-05 0.0 
-1.202880701253e-05 1.118917748560e-03 0.0 
0.0 0.0 -2.366757893512e-04 
-2.618885880878e-04 2.000957013545e-04 0.0 
2.000957013545e-04 1.434490946595e-03 0.0 
0.0 0.0 -2.525559601288e-04 
-2.561151872773e-04 2.173251173938e-04 0.0 
2.173251173938e-04 1.315804408785e-03 0.0 
0.0 0.0 -2.439992467140e-04 
-7.756433689863e-04 3.199927864604e-05 0.0 
3.199927864604e-05 4.983308918424e-03 0.0 
0.0 0.0 -7.918363975426e-04 
-4.925212314280e-04 -9.934539810259e-05 0.0 
-9.934539810259e-05 3.122416797223e-03 0.0 
0.0 0.0 -4.749402310763e-04 
-4.545793902690e-04 2.152694959795e-05 0.0 
2.152694959795e-05 2.617959458630e-03 0.0 
0.0 0.0 -4.438329512050e-04 
-8.539707940100e-04 -2.466642961344e-04 0.0 
-2.466642961344e-04 5.506675063211e-03 0.0 
0.0 0.0 -8.336771054075e-04 
-8.435305426983e-04 2.228252034013e-04 0.0 
2.228252034013e-04 5.474459253188e-03 0.0 
0.0 0.0 -8.358076868167e-04 
-9.896151407778e-04 -1.847277247936e-04 0.0 
-1.847277247936e-04 6.561076695027e-03 0.0 
0.0 0.0 -9.867109252839e-04 
-1.055581697673e-03 1.942475256944e-04 0.0 
1.942475256944e-04 7.096214809641e-03 0.0 
0.0 0.0 -1.058576829647e-03 
-1.087556198862e-03 -2.099876550133e-04 0.0 
-2.099876550133e-04 7.325766427452e-03 0.0 
0.0 0.0 -1.085941371602e-03 
-7.938707313230e-04 -2.935700947946e-04 0.0 
-2.935700947946e-04 5.166210845136e-03 0.0 
0.0 0.0 -7.983229688164e-04 
-9.891997245645e-05 3.705985749018e-05 0.0 
3.705985749018e-05 3.315907805062e-04 0.0 
0.0 0.0 -9.971606059273e-05 
-7.885073175136e-04 2.083610238613e-05 0.0 
2.083610238613e-05 5.061448418496e-03 0.0 
0.0 0.0 -7.928983479555e-04 
-1.080416093341e-03 -1.102030882250e-04 0.0 
-1.102030882250e-04 7.033104683541e-03 0.0 
0.0 0.0 -1.069439317440e-03 
-1.045886068578e-03 1.124481538710e-04 0.0 
1.124481538710e-04 7.095766026653e-03 0.0 
0.0 0.0 -1.046447409317e-03 
-1.328437641777e-03 -2.129776585030e-05 0.0 
-2.129776585030e-05 9.108372857470e-03 0.0 
0.0 0.0 -1.319970921405e-03 
-1.300424073257e-03 -1.489012867547e-04 0.0 
-1.489012867547e-04 8.723441004214e-03 0.0 
0.0 0.0 -1.294194962782e-03 
-7.712114504191e-04 -1.098703338913e-04 0.0 
-1.098703338913e-04 4.988523523052e-03 0.0 
0.0 0.0 -7.889745663688e-04 
-1.284794183645e-03 -1.672243708715e-06 0.0 
-1.672243708715e-06 8.719527791253e-03 0.0 
0.0 0.0 -1.263183913703e-03 
-8.948346215206e-04 -1.546261929542e-04 0.0 
-1.546261929542e-04 5.902983939671e-03 0.0 
0.0 0.0 -9.040008563810e-04 
-5.152734121650e-04 -1.377156700746e-04 0.0 
-1.377156700746e-04 3.387112186572e-03 0.0 
0.0 0.0 -5.198799001330e-04 
-7.537468891923e-04 -1.811454266392e-04 0.0 
-1.811454266392e-04 5.032849217033e-03 0.0 
0.0 0.0 -7.643292725053e-04 
-1.300051982580e-03 1.933815268577e-04 0.0 
1.933815268577e-04 8.643096299671e-03 0.0 
0.0 0.0 -1.287517816355e-03 
-1.042138929644e-03 -2.218801567961e-04 0.0 
-2.218801567961e-04 6.995297199161e-03 0.0 
0.0 0.0 -1.043751955586e-03 
-1.212978672895e-03 -2.149778667110e-04 0.0 
-2.149778667110e-04 8.151603330808e-03 0.0 
0.0 0.0 -1.209599240962e-03 
-4.772009659135e-04 -2.042000113292e-04 0.0 
-2.042000113292e-04 3.047489558792e-03 0.0 
0.0 0.0 -4.747543016519e-04 
-1.600906628411e-04 5.774618246661e-05 0.0 
5.774618246661e-05 1.025327310925e-03 0.0 
0.0 0.0 -1.624897275554e-04 
-1.185986913304e-03 -1.994673824885e-04 0.0 
-1.994673824885e-04 7.973913807476e-03 0.0 
0.0 0.0 -1.189902873528e-03 
-1.119764034804e-03 7.291963016848e-05 0.0 
7.291963016848e-05 7.561876066393e-03 0.0 
0.0 0.0 -1.108790581071e-03 
-1.060815689674e-04 -4.441233851537e-05 0.0 
-4.441233851537e-05 6.067820639570e-04 0.0 
0.0 0.0 -1.038131581323e-04 
-1.254593141611e-03 -8.600335574532e-05 0.0 
-8.600335574532e-05 8.491952788715e-03 0.0 
0.0 0.0 -1.285127980003e-03 
-1.054610615232e-03 1.830679382236e-04 0.0 
1.830679382236e-04 6.961937164299e-03 0.0 
0.0 0.0 -1.051491716222e-03 
-1.014932494026e-04 -1.696691582668e-04 0.0 
-1.696691582668e-04 3.826202340035e-04 0.0 
0.0 0.0 -1.013520483084e-04 
-6.301709070232e-04 2.090314443316e-04 0.0 
2.090314443316e-04 4.024350450833e-03 0.0 
0.0 0.0 -6.309931931857e-04 
-7.106440805021e-04 -1.470402379689e-04 0.0 
-1.470402379689e-04 4.709551499753e-03 0.0 
0.0 0.0 -7.153918394734e-04 
-5.826588176687e-04 -7.135686322073e-05 0.0 
-7.135686322073e-05 3.565625895428e-03 0.0 
0.0 0.0 -5.772375537024e-04 
-4.700128970004e-04 1.674991601262e-04 0.0 
1.674991601262e-04 2.986365482111e-03 0.0 
0.0 0.0 -4.852398935310e-04 
-5.464898507642e-04 -2.243214163868e-04 0.0 
-2.243214163868e-04 3.519571152392e-03 0.0 
0.0 0.0 -5.471823052058e-04 
-1.295684493703e-03 1.105875109316e-04 0.0 
1.105875109316e-04 8.547279304038e-03 0.0 
0.0 0.0 -1.283833066805e-03 
-8.570047827625e-04 1.861607891450e-04 0.0 
1.861607891450e-04 5.815261551137e-03 0.0 
0.0 0.0 -8.766975940251e-04 
-5.090056138741e-04 2.359482171436e-04 0.0 
2.359482171436e-04 3.233178911117e-03 0.0 
0.0 0.0 -5.122473358773e-04 
-2.401563577846e-04 -2.327182583627e-04 0.0 
-2.327182583627e-04 1.352155075276e-03 0.0 
0.0 0.0 -2.295267891405e-04 
-7.623542819022e-04 1.283036037405e-04 0.0 
1.283036037405e-04 5.225810972112e-03 0.0 
0.0 0.0 -7.744920945421e-04 
-1.103870852233e-03 -9.179179606017e-05 0.0 
-9.179179606017e-05 7.387674560017e-03 0.0 
0.0 0.0 -1.129288753466e-03 
-5.110192863145e-04 -2.509386708552e-04 0.0 
-2.509386708552e-04 3.262724462356e-03 0.0 
0.0 0.0 -5.109724225979e-04 
-1.701414425471e-04 -1.534722166071e-04 0.0 
-1.534722166071e-04 9.835208087659e-04 0.0 
0.0 0.0 -1.803716510945e-04 
-6.470086521654e-04 -1.523090755331e-04 0.0 
-1.523090755331e-04 4.254329431162e-03 0.0 
0.0 0.0 -6.470401313398e-04 
-5.812575166428e-04 7.210416783764e-05 0.0 
7.210416783764e-05 3.739643384108e-03 0.0 
0.0 0.0 -5.578851714504e-04 
-6.125337073477e-04 1.558115274756e-04 0.0 
1.558115274756e-04 3.923971555451e-03 0.0 
0.0 0.0 -6.167189930164e-04 
-1.291653437089e-03 1.656662026679e-04 0.0 
1.656662026679e-04 8.654933890924e-03 0.0 
0.0 0.0 -1.290671971449e-03 
-2.237296866694e-04 1.772304597235e-04 0.0 
1.772304597235e-04 1.151710267161e-03 0.0 
0.0 0.0 -2.092271396208e-04 
-9.141643905242e-04 1.684200684002e-04 0.0 
1.684200684002e-04 6.033430644026e-03 0.0 
0.0 0.0 -9.216843799351e-04 
-1.271942419784e-03 2.295590735456e-04 0.0 
2.295590735456e-04 8.471227576744e-03 0.0 
0.0 0.0 -1.256690274141e-03 
-6.609256603744e-04 1.763317732061e-04 0.0 
1.763317732061e-04 4.239720102404e-03 0.0 
0.0 0.0 -6.588732905211e-04 
-6.147586220519e-04 -1.550456399962e-04 0.0 
-1.550456399962e-04 4.029116054442e-03 0.0 
0.0 0.0 -6.139229799761e-04 
-1.241743830704e-03 2.520731219918e-04 0.0 
2.520731219918e-04 8.466488124430e-03 0.0 
0.0 0.0 -1.254964138299e-03 
-1.256064603940e-03 -2.623116581345e-04 0.0 
-2.623116581345e-04 8.488036362470e-03 0.0 
0.0 0.0 -1.261070974318e-03 
-9.903209289541e-04 1.774668260032e-04 0.0 
1.774668260032e-04 6.556735258886e-03 0.0 
0.0 0.0 -9.873713238705e-04 
-6.942353831373e-04 -1.750200192602e-04 0.0 
-1.750200192602e-04 4.553149239605e-03 0.0 
0.0 0.0 -6.916138708610e-04 
-1.272024970549e-03 7.302822811060e-05 0.0 
7.302822811060e-05 8.719688557752e-03 0.0 
0.0 0.0 -1.270330610962e-03 
-6.345922402826e-04 1.791748683913e-04 0.0 
1.791748683913e-04 4.059488016012e-03 0.0 
0.0 0.0 -6.326048069937e-04 
-1.254086704545e-03 -7.990901772482e-06 0.0 
-7.990901772482e-06 8.463054394802e-03 0.0 
0.0 0.0 -1.283174495648e-03 
-1.276280299661e-03 7.633372817429e-05 0.0 
7.633372817429e-05 8.703927362015e-03 0.0 
0.0 0.0 -1.267437373369e-03 
-8.565153591279e-04 -2.695301549172e-04 0.0 
-2.695301549172e-04 5.568894745570e-03 0.0 
0.0 0.0 -8.543707170918e-04 
-9.713226980400e-04 1.946342578751e-04 0.0 
1.946342578751e-04 6.532485670191e-03 0.0 
0.0 0.0 -9.817831382938e-04 
-6.315283379598e-04 -1.826998149000e-04 0.0 
-1.826998149000e-04 4.113094555245e-03 0.0 
0.0 0.0 -6.293189184696e-04 
-5.902450977428e-04 1.623031646130e-04 0.0 
1.623031646130e-04 3.689468477665e-03 0.0 
0.0 0.0 -5.830241378053e-04 
-7.249782629771e-04 1.809288523893e-04 0.0 
1.809288523893e-04 4.673091201127e-03 0.0 
0.0 0.0 -7.211932326589e-04 
-5.403888112139e-04 -1.689543050932e-04 0.0 
-1.689543050932e-04 3.513114326182e-03 0.0 
0.0 0.0 -5.383041810906e-04 
-7.661110268238e-04 -1.968496736506e-04 0.0 
-1.968496736506e-04 5.166653984338e-03 0.0 
0.0 0.0 -7.693993191400e-04 
-6.294182824657e-04 -2.163757471590e-04 0.0 
-2.163757471590e-04 4.099286379753e-03 0.0 
0.0 0.0 -6.275039421266e-04 
-9.046107145180e-05 -7.326081393818e-05 0.0 
-7.326081393818e-05 3.093039216746e-04 0.0 
0.0 0.0 -9.378979295261e-05 
-8.218888591145e-04 -1.362265050310e-05 0.0 
-1.362265050310e-05 5.568518320124e-03 0.0 
0.0 0.0 -8.171079392438e-04 
-2.708662158631e-04 3.135426371183e-06 0.0 
3.135426371183e-06 1.198400692882e-03 0.0 
0.0 0.0 -2.373169254524e-04 
-6.825469564227e-04 -1.538944897681e-04 0.0 
-1.538944897681e-04 4.493577698030e-03 0.0 
0.0 0.0 -6.809683978454e-04 
-1.266750237588e-03 4.200148413705e-06 0.0 
4.200148413705e-06 8.473073137795e-03 0.0 
0.0 0.0 -1.284796145094e-03 
-4.841925383156e-04 2.284371901656e-04 0.0 
2.284371901656e-04 3.002882293729e-03 0.0 
0.0 0.0 -4.767992880414e-04 
-1.020870051268e-03 2.043993854784e-04 0.0 
2.043993854784e-04 6.818231983257e-03 0.0 
0.0 0.0 -1.021089721936e-03 
-3.490407114895e-04 -2.220876940667e-04 0.0 
-2.220876940667e-04 2.148206482994e-03 0.0 
0.0 0.0 -3.540742325023e-04 
-1.043282338519e-03 2.368159947985e-04 0.0 
2.368159947985e-04 6.958410863996e-03 0.0 
0.0 0.0 -1.044905595188e-03 
-8.013630412541e-04 6.389824081770e-06 0.0 
6.389824081770e-06 5.002686662292e-03 0.0 
0.0 0.0 -7.899655494116e-04 
-5.947683694498e-04 2.081256616157e-04 0.0 
2.081256616157e-04 3.787155443009e-03 0.0 
0.0 0.0 -5.931463391684e-04 
-1.121794229525e-03 -2.159685184144e-04 0.0 
-2.159685184144e-04 7.508906289541e-03 0.0 
0.0 0.0 -1.120963572432e-03 
-2.180914166738e-04 1.756512204205e-04 0.0 
1.756512204205e-04 1.241780399830e-03 0.0 
0.0 0.0 -2.346376350630e-04 
-1.178651579784e-03 2.200776692921e-04 0.0 
2.200776692921e-04 7.962810812677e-03 0.0 
0.0 0.0 -1.189111243166e-03 
-7.770557330009e-04 1.799043213504e-04 0.0 
1.799043213504e-04 5.036915018676e-03 0.0 
0.0 0.0 -7.711223959738e-04 
-1.280064085681e-03 1.291641233302e-05 0.0 
1.291641233302e-05 8.715123744244e-03 0.0 
0.0 0.0 -1.265987209193e-03 
-7.886647595986e-04 2.426638412859e-05 0.0 
2.426638412859e-05 5.002569468986e-03 0.0 
0.0 0.0 -7.842605076999e-04 
-5.085061027867e-04 1.624719349291e-04 0.0 
1.624719349291e-04 3.132188298831e-03 0.0 
0.0 0.0 -5.042822341261e-04 
-6.680122214844e-04 1.543414038777e-04 0.0 
1.543414038777e-04 4.389762745766e-03 0.0 
0.0 0.0 -6.840799553763e-04 
-9.007934225225e-04 -1.247506640906e-04 0.0 
-1.247506640906e-04 5.946782140169e-03 0.0 
0.0 0.0 -8.722824885218e-04 
-3.656654935952e-04 2.470171187882e-04 0.0 
2.470171187882e-04 2.250740956869e-03 0.0 
0.0 0.0 -3.514598124168e-04 
-5.924594186081e-04 -2.113287385342e-04 0.0 
-2.113287385342e-04 3.843594924053e-03 0.0 
0.0 0.0 -5.911455407098e-04 
-1.021044424836e-03 -2.319523584095e-04 0.0 
-2.319523584095e-04 6.800629387681e-03 0.0 
0.0 0.0 -1.016465148841e-03 
-7.832948860766e-04 1.542506256290e-04 0.0 
1.542506256290e-04 5.221219062028e-03 0.0 
0.0 0.0 -7.680022369673e-04 
-5.676669992827e-04 1.711896275724e-04 0.0 
1.711896275724e-04 3.564089172862e-03 0.0 
0.0 0.0 -5.666226778950e-04 
-6.536822883720e-04 1.457424227354e-04 0.0 
1.457424227354e-04 4.156474681675e-03 0.0 
0.0 0.0 -6.498546761489e-04 
-1.132270982309e-03 2.069255922965e-04 0.0 
2.069255922965e-04 7.587995835191e-03 0.0 
0.0 0.0 -1.136725521675e-03 
-6.243703934397e-04 -5.657386080576e-05 0.0 
-5.657386080576e-05 4.179915537147e-03 0.0 
0.0 0.0 -6.189190723244e-04 
-1.269582323065e-03 5.358509534076e-05 0.0 
5.358509534076e-05 8.454036067307e-03 0.0 
0.0 0.0 -1.285202198870e-03 
-1.273584082277e-03 -3.447672338956e-05 0.0 
-3.447672338956e-05 8.706627272042e-03 0.0 
0.0 0.0 -1.265486236287e-03 
-4.574522532321e-04 -1.366919469267e-04 0.0 
-1.366919469267e-04 2.968706494426e-03 0.0 
0.0 0.0 -4.595713030950e-04 
-6.193411254741e-04 7.190453835518e-05 0.0 
7.190453835518e-05 3.976368456989e-03 0.0 
0.0 0.0 -6.385407451345e-04 
-1.157661612575e-03 -1.951807319382e-04 0.0 
-1.951807319382e-04 7.743964299132e-03 0.0 
0.0 0.0 -1.152822474774e-03 
-6.058642039219e-04 -1.568622492917e-04 0.0 
-1.568622492917e-04 3.943482715706e-03 0.0 
0.0 0.0 -6.037256927378e-04 
-4.410111678775e-04 1.646945023676e-04 0.0 
1.646945023676e-04 2.528625053889e-03 0.0 
0.0 0.0 -4.251746348339e-04 
-7.492101616992e-04 1.773144067427e-04 0.0 
1.773144067427e-04 4.849787455535e-03 0.0 
0.0 0.0 -7.443430781256e-04 
-6.015846242072e-04 -1.692904042825e-04 0.0 
-1.692904042825e-04 3.951833046067e-03 0.0 
0.0 0.0 -6.011186688906e-04 
-1.288763796550e-03 1.231833412492e-04 0.0 
1.231833412492e-04 8.478545606423e-03 0.0 
0.0 0.0 -1.279059907835e-03 
-1.060544670799e-03 1.938342500095e-04 0.0 
1.938342500095e-04 7.027045279308e-03 0.0 
0.0 0.0 -1.060691896764e-03 
-1.152244772895e-03 2.285095076534e-04 0.0 
2.285095076534e-04 7.745399107629e-03 0.0 
0.0 0.0 -1.155968210243e-03 
-2.882194771885e-04 -2.173510090808e-04 0.0 
-2.173510090808e-04 1.694759427097e-03 0.0 
0.0 0.0 -2.852154713500e-04 
-5.567709701176e-04 -1.966656427987e-04 0.0 
-1.966656427987e-04 3.599381630168e-03 0.0 
0.0 0.0 -5.558335581882e-04 
-1.085941057106e-03 1.940613560134e-04 0.0 
1.940613560134e-04 7.224719901000e-03 0.0 
0.0 0.0 -1.089453766084e-03 
-2.843827826583e-05 -1.788898447607e-05 0.0 
-1.788898447607e-05 1.853186358372e-04 0.0 
0.0 0.0 -4.453055683374e-05 
-6.135292459430e-04 1.555358498215e-04 0.0 
1.555358498215e-04 3.889243112960e-03 0.0 
0.0 0.0 -6.073871274648e-04 
-1.080867878280e-03 -2.316454551772e-04 0.0 
-2.316454551772e-04 7.249333231753e-03 0.0 
0.0 0.0 -1.080675545910e-03 
-1.764831160191e-04 -8.217578917013e-05 0.0 
-8.217578917013e-05 1.019550636912e-03 0.0 
0.0 0.0 -1.605608400042e-04 
-1.238595889810e-03 2.354517143287e-04 0.0 
2.354517143287e-04 8.471121261651e-03 0.0 
0.0 0.0 -1.257517519450e-03 
-9.713207705101e-04 1.946323764391e-04 0.0 
1.946323764391e-04 6.442137433534e-03 0.0 
0.0 0.0 -9.749624431058e-04 
-5.981973631964e-04 1.879071448910e-04 0.0 
1.879071448910e-04 3.813329018576e-03 0.0 
0.0 0.0 -5.995223474422e-04 
-1.084348145166e-03 2.392214872559e-04 0.0 
2.392214872559e-04 7.212887026288e-03 0.0 
0.0 0.0 -1.082135573043e-03 
-8.219004318722e-04 -1.022855745582e-05 0.0 
-1.022855745582e-05 5.626191621955e-03 0.0 
0.0 0.0 -8.259898420369e-04 
-8.600931526374e-04 -1.614882484442e-04 0.0 
-1.614882484442e-04 5.932770930688e-03 0.0 
0.0 0.0 -8.838609275114e-04 
-1.235110349403e-03 -1.423085779250e-04 0.0 
-1.423085779250e-04 8.282740067778e-03 0.0 
0.0 0.0 -1.237791025003e-03 
-4.556209105529e-04 2.036420794211e-04 0.0 
2.036420794211e-04 2.823352627341e-03 0.0 
0.0 0.0 -4.583583101839e-04 
-7.508195319224e-04 1.853886358928e-04 0.0 
1.853886358928e-04 4.860963236206e-03 0.0 
0.0 0.0 -7.480401524272e-04 
-8.027906713221e-04 1.764875410810e-04 0.0 
1.764875410810e-04 5.221920557136e-03 0.0 
0.0 0.0 -7.988399675000e-04 
-1.007530328557e-03 -1.922336022121e-04 0.0 
-1.922336022121e-04 6.759039767950e-03 0.0 
0.0 0.0 -1.008548823165e-03 
-8.112396533279e-04 -1.820827880749e-04 0.0 
-1.820827880749e-04 5.334789694812e-03 0.0 
0.0 0.0 -8.035999206669e-04 
-7.424823838501e-04 -1.611951191526e-04 0.0 
-1.611951191526e-04 4.887914283700e-03 0.0 
0.0 0.0 -7.415510827328e-04 
-9.420049562242e-04 -1.980186569885e-04 0.0 
-1.980186569885e-04 6.275886053793e-03 0.0 
0.0 0.0 -9.414312740916e-04 
-1.106765657790e-03 -2.072912274522e-04 0.0 
-2.072912274522e-04 7.417848919971e-03 0.0 
0.0 0.0 -1.105110859848e-03 
-8.771550322174e-05 -5.128346968203e-06 0.0 
-5.128346968203e-06 5.622743997178e-04 0.0 
0.0 0.0 -1.015871403443e-04 
-4.452411510456e-04 1.078521059613e-04 0.0 
1.078521059613e-04 2.907946245102e-03 0.0 
0.0 0.0 -4.649757541953e-04 
-5.301149448615e-04 1.855290027463e-04 0.0 
1.855290027463e-04 3.290005967673e-03 0.0 
0.0 0.0 -5.249394872960e-04 
-7.215069587740e-04 -1.794285911688e-04 0.0 
-1.794285911688e-04 4.739905292165e-03 0.0 
0.0 0.0 -7.181710532390e-04 
-1.095309768585e-03 -2.099324022586e-04 0.0 
-2.099324022586e-04 7.373113916822e-03 0.0 
0.0 0.0 -1.095076276885e-03 
-2.412241836648e-04 1.824271338485e-04 0.0 
1.824271338485e-04 1.391269291466e-03 0.0 
0.0 0.0 -2.576475407671e-04 
-1.042666947128e-03 -2.211661748355e-04 0.0 
-2.211661748355e-04 6.991049176526e-03 0.0 
0.0 0.0 -1.043355442177e-03 
-7.709980970025e-04 -2.344526007542e-04 0.0 
-2.344526007542e-04 5.001364750652e-03 0.0 
0.0 0.0 -7.763349569542e-04 
-5.598484848317e-04 1.964216387435e-04 0.0 
1.964216387435e-04 3.545883977612e-03 0.0 
0.0 0.0 -5.576783925304e-04 
-1.005904581142e-03 -2.103129090372e-04 0.0 
-2.103129090372e-04 6.739916943409e-03 0.0 
0.0 0.0 -1.006238978475e-03 
-1.328137378895e-04 -1.926409820628e-04 0.0 
-1.926409820628e-04 5.524811366159e-04 0.0 
0.0 0.0 -1.250635456846e-04 
-1.037748486931e-03 2.025826416299e-04 0.0 
2.025826416299e-04 6.894254509779e-03 0.0 
0.0 0.0 -1.040010908530e-03 
-9.586550230840e-05 6.862947183806e-05 0.0 
6.862947183806e-05 5.313753155377e-04 0.0 
0.0 0.0 -1.007187892234e-04 
-1.713724236673e-04 -5.327399001852e-06 0.0 
-5.327399001852e-06 7.517172537926e-04 0.0 
0.0 0.0 -1.819418517600e-04 
-2.796122854916e-04 2.316565417802e-04 0.0 
2.316565417802e-04 1.675994704222e-03 0.0 
0.0 0.0 -2.873666149908e-04 
-3.926605428350e-04 1.733428287045e-04 0.0 
1.733428287045e-04 2.352552718651e-03 0.0 
0.0 0.0 -3.935955730116e-04 
-1.073504857728e-03 -1.857694457952e-04 0.0 
-1.857694457952e-04 7.207934761623e-03 0.0 
0.0 0.0 -1.073797489760e-03 
-3.651136453237e-04 -1.928839212762e-04 0.0 
-1.928839212762e-04 2.293609592088e-03 0.0 
0.0 0.0 -3.637595386041e-04 
-3.442210319020e-04 1.764997975594e-04 0.0 
1.764997975594e-04 2.032847714738e-03 0.0 
0.0 0.0 -3.432832105208e-04 
-2.910729329916e-04 -1.809308260194e-04 0.0 
-1.809308260194e-04 1.763076573158e-03 0.0 
0.0 0.0 -2.922710279673e-04 
-2.622356291375e-04 1.892606687833e-04 0.0 
1.892606687833e-04 1.448318780245e-03 0.0 
0.0 0.0 -2.614315927221e-04 
-1.120397219207e-03 1.996859117335e-04 0.0 
1.996859117335e-04 7.447331785752e-03 0.0 
0.0 0.0 -1.117524173959e-03 
-7.717946648580e-04 -1.881039575464e-04 0.0 
-1.881039575464e-04 5.076611576994e-03 0.0 
0.0 0.0 -7.687972329812e-04 
-1.256202704630e-03 2.478526914498e-04 0.0 
2.478526914498e-04 8.487594918351e-03 0.0 
0.0 0.0 -1.256743614961e-03 
0.0 0.0 0.0 
0.0 0.0 0.0 
0.0 0.0 0.0 
-4.048716956913e-04 1.853052298050e-04 0.0 
1.853052298050e-04 2.461420572415e-03 0.0 
0.0 0.0 -4.044045206172e-04 
-6.239445424561e-04 2.046361178611e-04 0.0 
2.046361178611e-04 3.992995746549e-03 0.0 
0.0 0.0 -6.230907113744e-04 
-5.740868944919e-04 1.850315981272e-04 0.0 
1.850315981272e-04 3.613473978480e-03 0.0 
0.0 0.0 -5.709397776106e-04 
-1.047068133195e-03 2.230470659995e-04 0.0 
2.230470659995e-04 6.949500072304e-03 0.0 
0.0 0.0 -1.045235091131e-03 
-1.285400109254e-03 1.957478292084e-04 0.0 
1.957478292084e-04 8.698618921316e-03 0.0 
0.0 0.0 -1.275930989368e-03 
-1.029713153133e-03 -2.056143237118e-04 0.0 
-2.056143237118e-04 6.913851891301e-03 0.0 
0.0 0.0 -1.029499106509e-03 
-4.579566149125e-04 -1.884217374258e-04 0.0 
-1.884217374258e-04 2.912212194121e-03 0.0 
0.0 0.0 -4.564841486881e-04 
-1.120831572504e-03 -1.912348279819e-04 0.0 
-1.912348279819e-04 7.467678576310e-03 0.0 
0.0 0.0 -1.116166892424e-03 
-9.572670568062e-04 2.571263954152e-04 0.0 
2.571263954152e-04 6.316374419588e-03 0.0 
0.0 0.0 -9.512440159151e-04 
-7.570218913511e-04 -1.787629418727e-04 0.0 
-1.787629418727e-04 4.987297939344e-03 0.0 
0.0 0.0 -7.537083776970e-04 
-9.994998658216e-04 2.045048337303e-04 0.0 
2.045048337303e-04 6.629510214408e-03 0.0 
0.0 0.0 -1.003200534345e-03 
-1.242505065463e-03 -1.591232809489e-04 0.0 
-1.591232809489e-04 8.294319035880e-03 0.0 
0.0 0.0 -1.239730878702e-03 
-6.222328359965e-04 -2.058351298643e-04 0.0 
-2.058351298643e-04 4.057741749781e-03 0.0 
0.0 0.0 -6.206208101913e-04 
-3.761575650769e-04 -1.711217870111e-04 0.0 
-1.711217870111e-04 2.346047162404e-03 0.0 
0.0 0.0 -3.752687577596e-04 
-8.718273414275e-04 -1.903070125198e-04 0.0 
-1.903070125198e-04 5.767456116596e-03 0.0 
0.0 0.0 -8.662621843288e-04 
-1.329807574370e-03 9.926374614617e-05 0.0 
9.926374614617e-05 9.094631735092e-03 0.0 
0.0 0.0 -1.323568725688e-03 
-7.473763321356e-04 -1.878290917318e-04 0.0 
-1.878290917318e-04 4.922460573441e-03 0.0 
0.0 0.0 -7.453270327204e-04 
-7.780710127091e-04 -1.914920916377e-04 0.0 
-1.914920916377e-04 5.142441463468e-03 0.0 
0.0 0.0 -7.768443034385e-04 
-8.403853568470e-04 -5.224028630905e-05 0.0 
-5.224028630905e-05 5.665674692091e-03 0.0 
0.0 0.0 -8.293613651800e-04 
-2.119957057011e-04 -1.175361575482e-04 0.0 
-1.175361575482e-04 1.307524346166e-03 0.0 
0.0 0.0 -2.161141481901e-04 
-8.208799096496e-04 1.843133829192e-04 0.0 
1.843133829192e-04 5.271529166893e-03 0.0 
0.0 0.0 -8.060563724883e-04 
-4.603670611931e-04 1.877974414593e-04 0.0 
1.877974414593e-04 2.847786037855e-03 0.0 
0.0 0.0 -4.590591740919e-04 
-3.265147701176e-04 1.754702989645e-04 0.0 
1.754702989645e-04 1.892353118097e-03 0.0 
0.0 0.0 -3.229397045850e-04 
-2.372523115321e-04 -1.920097841935e-04 0.0 
-1.920097841935e-04 1.297568945568e-03 0.0 
0.0 0.0 -2.426597671045e-04 
-1.076566808285e-03 1.948027566312e-04 0.0 
1.948027566312e-04 7.152792080089e-03 0.0 
0.0 0.0 -1.075985979751e-03 
-8.366892688468e-04 -1.821112197861e-04 0.0 
-1.821112197861e-04 5.525859000099e-03 0.0 
0.0 0.0 -8.312490730234e-04 
-5.408471440859e-04 1.787636598150e-04 0.0 
1.787636598150e-04 3.420100638870e-03 0.0 
0.0 0.0 -5.429493831729e-04 
-1.110558394075e-03 -1.920281890810e-04 0.0 
-1.920281890810e-04 7.461731149687e-03 0.0 
0.0 0.0 -1.109763131677e-03 
-1.054698518121e-03 -2.087025362573e-04 0.0 
-2.087025362573e-04 7.108835153234e-03 0.0 
0.0 0.0 -1.057773507355e-03 
-7.924197653506e-04 -1.785979394266e-04 0.0 
-1.785979394266e-04 5.231483760846e-03 0.0 
0.0 0.0 -7.887050335656e-04 
-1.257903229921e-03 7.567368571961e-05 0.0 
7.567368571961e-05 8.498216080292e-03 0.0 
0.0 0.0 -1.288412101370e-03 
-8.091181034430e-04 1.931976365145e-04 0.0 
1.931976365145e-04 5.284760522789e-03 0.0 
0.0 0.0 -8.078958932737e-04 
-8.263277637735e-04 -1.832084157212e-04 0.0 
-1.832084157212e-04 5.471677470531e-03 0.0 
0.0 0.0 -8.238265297874e-04 
-6.650106902351e-04 -1.791010150323e-04 0.0 
-1.791010150323e-04 4.378261468460e-03 0.0 
0.0 0.0 -6.656476441012e-04 
-8.423857986256e-04 -1.986818351392e-04 0.0 
-1.986818351392e-04 5.587318921638e-03 0.0 
0.0 0.0 -8.413031780454e-04 
-3.899474951329e-04 1.915304819261e-04 0.0 
1.915304819261e-04 2.337472328750e-03 0.0 
0.0 0.0 -3.865807678710e-04 
-8.089876515704e-04 4.490290024565e-05 0.0 
4.490290024565e-05 5.014601975749e-03 0.0 
0.0 0.0 -7.898058234521e-04 
-6.502027287347e-04 -1.918500009783e-04 0.0 
-1.918500009783e-04 4.255074906530e-03 0.0 
0.0 0.0 -6.486359607860e-04 
-4.676332506753e-04 -1.907969004763e-04 0.0 
-1.907969004763e-04 2.994133619140e-03 0.0 
0.0 0.0 -4.681053320140e-04 
-1.032293230965e-03 1.946996800783e-04 0.0 
1.946996800783e-04 6.836459352288e-03 0.0 
0.0 0.0 -1.032318248600e-03 
-4.933492965950e-05 -2.981330854887e-05 0.0 
-2.981330854887e-05 2.232237160482e-04 0.0 
0.0 0.0 -4.491607815645e-05 
-8.460396934351e-04 -1.994951239522e-04 0.0 
-1.994951239522e-04 5.571843201912e-03 0.0 
0.0 0.0 -8.386390795737e-04 
-4.884576987713e-04 1.904916551125e-04 0.0 
1.904916551125e-04 3.043938579203e-03 0.0 
0.0 0.0 -4.870240021111e-04 
-4.011070509712e-04 -1.789938708171e-04 0.0 
-1.789938708171e-04 2.527031405991e-03 0.0 
0.0 0.0 -4.015254440178e-04 
-3.881231226590e-04 -1.849728275913e-04 0.0 
-1.849728275913e-04 2.413136850469e-03 0.0 
0.0 0.0 -3.834586606452e-04 
-9.010939454830e-04 1.820631251066e-04 0.0 
1.820631251066e-04 5.900115668490e-03 0.0 
0.0 0.0 -8.965110541436e-04 
-1.535639171873e-04 -1.171137565838e-04 0.0 
-1.171137565838e-04 9.290832055630e-04 0.0 
0.0 0.0 -1.609926926485e-04 
-5.642000446768e-04 1.829010286562e-04 0.0 
1.829010286562e-04 3.554613982315e-03 0.0 
0.0 0.0 -5.613503766092e-04 
-8.738800955345e-04 1.908997098880e-04 0.0 
1.908997098880e-04 5.736495439307e-03 0.0 
0.0 0.0 -8.726802719924e-04 
-8.424168210171e-04 1.809379834970e-04 0.0 
1.809379834970e-04 5.460364861261e-03 0.0 
0.0 0.0 -8.336838631977e-04 
-8.483140592107e-04 -2.570000340293e-05 0.0 
-2.570000340293e-05 5.646419876325e-03 0.0 
0.0 0.0 -8.301023967811e-04 
-2.301022018194e-04 1.896537110149e-04 0.0 
1.896537110149e-04 1.205962353600e-03 0.0 
0.0 0.0 -2.187087652219e-04 
-4.708793642351e-04 1.959468275411e-04 0.0 
1.959468275411e-04 2.928096743676e-03 0.0 
0.0 0.0 -4.706942212664e-04 
-4.339228685621e-04 -2.028732675089e-04 0.0 
-2.028732675089e-04 2.736979889631e-03 0.0 
0.0 0.0 -4.311372127493e-04 
-4.979504220913e-04 -1.685324817792e-04 0.0 
-1.685324817792e-04 3.206245351086e-03 0.0 
0.0 0.0 -4.957039317942e-04 
-1.001539925556e-03 -2.124102205074e-04 0.0 
-2.124102205074e-04 6.704131800771e-03 0.0 
0.0 0.0 -1.000663671924e-03 
-5.607402459632e-04 -1.707949003296e-04 0.0 
-1.707949003296e-04 3.631087283813e-03 0.0 
0.0 0.0 -5.577786207633e-04 
-6.163072057109e-04 1.894419522334e-04 0.0 
1.894419522334e-04 3.933506140839e-03 0.0 
0.0 0.0 -6.151539951222e-04 
-5.883906607910e-04 1.932241182488e-04 0.0 
1.932241182488e-04 3.740119885148e-03 0.0 
0.0 0.0 -5.868308051845e-04 
-2.691521273047e-04 -2.036688762200e-04 0.0 
-2.036688762200e-04 1.523725894567e-03 0.0 
0.0 0.0 -2.530049833111e-04 
-6.958714508919e-04 1.979801814587e-04 0.0 
1.979801814587e-04 4.490850522134e-03 0.0 
0.0 0.0 -6.959382511914e-04 
-2.861043400588e-04 -1.894415141015e-04 0.0 
-1.894415141015e-04 1.663430798726e-03 0.0 
0.0 0.0 -2.788248838327e-04 
-1.306755613337e-03 -2.610599304149e-06 0.0 
-2.610599304149e-06 9.100164486650e-03 0.0 
0.0 0.0 -1.321446319728e-03 
-1.339174511630e-03 -2.960517267117e-05 0.0 
-2.960517267117e-05 9.091242340448e-03 0.0 
0.0 0.0 -1.318029376683e-03 
-7.775136936644e-04 1.870350143580e-04 0.0 
1.870350143580e-04 5.054396183358e-03 0.0 
0.0 0.0 -7.755312068111e-04 
-4.251819947504e-04 1.895457374981e-04 0.0 
1.895457374981e-04 2.596133538266e-03 0.0 
0.0 0.0 -4.232985079168e-04 
-3.648329347482e-04 -1.837358985601e-04 0.0 
-1.837358985601e-04 2.280199425849e-03 0.0 
0.0 0.0 -3.659709354871e-04 
-8.573750887322e-04 1.858228230958e-04 0.0 
1.858228230958e-04 5.602884265534e-03 0.0 
0.0 0.0 -8.539191708179e-04 
-3.949528212466e-04 -1.886728582839e-04 0.0 
-1.886728582839e-04 2.475291397225e-03 0.0 
0.0 0.0 -3.930530440640e-04 
-4.332493895502e-04 1.980298907225e-04 0.0 
1.980298907225e-04 2.665937605433e-03 0.0 
0.0 0.0 -4.339875075689e-04 
-7.596321613464e-04 1.775287963430e-04 0.0 
1.775287963430e-04 4.918201734153e-03 0.0 
0.0 0.0 -7.563811545761e-04 
-1.287984799363e-03 -3.860068533034e-05 0.0 
-3.860068533034e-05 8.730948327736e-03 0.0 
0.0 0.0 -1.266640259566e-03 
-5.240495846065e-04 1.944963688322e-04 0.0 
1.944963688322e-04 3.293655739786e-03 0.0 
0.0 0.0 -5.226246958029e-04 
-9.447998235248e-04 1.960929665843e-04 0.0 
1.960929665843e-04 6.232881478096e-03 0.0 
0.0 0.0 -9.428115367422e-04 
-3.107562741713e-04 1.824587312734e-04 0.0 
1.824587312734e-04 1.780558679157e-03 0.0 
0.0 0.0 -3.076624342134e-04 
-1.311994729519e-03 7.493212939778e-06 0.0 
7.493212939778e-06 9.101970930917e-03 0.0 
0.0 0.0 -1.322863172658e-03 
-3.967767638387e-04 1.868417767078e-04 0.0 
1.868417767078e-04 2.404071077719e-03 0.0 
0.0 0.0 -3.959736908235e-04 
-7.861913752228e-04 1.858440032300e-04 0.0 
1.858440032300e-04 5.109311146391e-03 0.0 
0.0 0.0 -7.835188407615e-04 
-2.939612478104e-04 2.069489564744e-04 0.0 
2.069489564744e-04 1.627899719100e-03 0.0 
0.0 0.0 -2.855287480241e-04 
-9.209672284179e-04 1.890725882862e-04 0.0 
1.890725882862e-04 6.061382275032e-03 0.0 
0.0 0.0 -9.211625808215e-04 
-6.527425537756e-04 1.919833722786e-04 0.0 
1.919833722786e-04 4.182126969127e-03 0.0 
0.0 0.0 -6.516619296807e-04 
-4.643737788932e-04 1.911497819082e-04 0.0 
1.911497819082e-04 2.873282577301e-03 0.0 
0.0 0.0 -4.625367401933e-04 
-8.005133107045e-04 -1.849372706410e-04 0.0 
-1.849372706410e-04 5.279390117932e-03 0.0 
0.0 0.0 -7.963903837170e-04 
-1.325618080026e-03 -1.973193103059e-05 0.0 
-1.973193103059e-05 9.091764273344e-03 0.0 
0.0 0.0 -1.324865334549e-03 
-5.527714494018e-04 1.888052696331e-04 0.0 
1.888052696331e-04 3.488692206257e-03 0.0 
0.0 0.0 -5.510338386786e-04 
-8.711724193671e-04 -1.970525444519e-04 0.0 
-1.970525444519e-04 5.796794660819e-03 0.0 
0.0 0.0 -8.703234504572e-04 
-3.052115937337e-04 -1.690052037767e-04 0.0 
-1.690052037767e-04 1.853679927902e-03 0.0 
0.0 0.0 -3.041533380165e-04 
-9.585285003453e-04 2.099575339621e-04 0.0 
2.099575339621e-04 6.326919234623e-03 0.0 
0.0 0.0 -9.576894438039e-04 
-1.007861502229e-03 2.071557397888e-04 0.0 
2.071557397888e-04 6.684066242240e-03 0.0 
0.0 0.0 -1.008345180213e-03 
-4.131133098155e-04 -1.786065448845e-04 0.0 
-1.786065448845e-04 2.602572281114e-03 0.0 
0.0 0.0 -4.109515902261e-04 
-9.327998617517e-04 -1.874311411833e-04 0.0 
-1.874311411833e-04 6.181670543660e-03 0.0 
0.0 0.0 -9.257128893455e-04 
-1.323570257858e-03 1.323150738928e-05 0.0 
1.323150738928e-05 9.099733073090e-03 0.0 
0.0 0.0 -1.322580803729e-03 
-1.076618962997e-03 1.898018198415e-04 0.0 
1.898018198415e-04 7.144327477010e-03 0.0 
0.0 0.0 -1.075861678316e-03 
-1.321614991336e-03 -1.713273005325e-05 0.0 
-1.713273005325e-05 9.105058184061e-03 0.0 
0.0 0.0 -1.322091174222e-03 
-9.079440508188e-04 -2.097847460127e-04 0.0 
-2.097847460127e-04 6.119714420928e-03 0.0 
0.0 0.0 -9.196498359204e-04 
-1.050990778737e-03 -1.886314367517e-04 0.0 
-1.886314367517e-04 7.044669431277e-03 0.0 
0.0 0.0 -1.048263655743e-03 
-3.511245847016e-04 -1.953891657846e-04 0.0 
-1.953891657846e-04 2.144448464187e-03 0.0 
0.0 0.0 -3.491910591611e-04 
-7.374872672360e-04 -1.803640936936e-04 0.0 
-1.803640936936e-04 4.844525720206e-03 0.0 
0.0 0.0 -7.343713905235e-04 
-8.293244045423e-04 1.837550643812e-04 0.0 
1.837550643812e-04 5.409584064822e-03 0.0 
0.0 0.0 -8.263924940540e-04 
-8.620298851759e-04 -1.867239000810e-04 0.0 
-1.867239000810e-04 5.715504193618e-03 0.0 
0.0 0.0 -8.589723558544e-04 
-7.110415388043e-04 -1.855413705945e-04 0.0 
-1.855413705945e-04 4.678427107823e-03 0.0 
0.0 0.0 -7.101745248689e-04 
-1.326686360804e-03 -1.171732242915e-05 0.0 
-1.171732242915e-05 9.109208916885e-03 0.0 
0.0 0.0 -1.322334986692e-03 
-8.655458594576e-04 1.438711959111e-04 0.0 
1.438711959111e-04 5.877137978370e-03 0.0 
0.0 0.0 -8.810748613436e-04 
-7.842175920213e-04 -1.730041151839e-04 0.0 
-1.730041151839e-04 5.148772658244e-03 0.0 
0.0 0.0 -7.763708431881e-04 
-5.855858139709e-04 -1.935639285696e-04 0.0 
-1.935639285696e-04 3.803586164403e-03 0.0 
0.0 0.0 -5.843899590101e-04 
-3.295388154563e-04 1.889565951281e-04 0.0 
1.889565951281e-04 1.906230365352e-03 0.0 
0.0 0.0 -3.280768480529e-04 
-7.085854070096e-04 -1.812057133810e-04 0.0 
-1.812057133810e-04 4.648076014877e-03 0.0 
0.0 0.0 -7.069124235890e-04 
-4.422183154957e-04 1.870641756047e-04 0.0 
1.870641756047e-04 2.708861584455e-03 0.0 
0.0 0.0 -4.404772202000e-04 
-7.723719974628e-04 -4.140062150849e-05 0.0 
-4.140062150849e-05 5.256708913763e-03 0.0 
0.0 0.0 -7.696142143080e-04 
-4.606920221105e-04 -1.852355893197e-04 0.0 
-1.852355893197e-04 2.942829590752e-03 0.0 
0.0 0.0 -4.595640944490e-04 
-5.214756889107e-04 -1.931035456201e-04 0.0 
-1.931035456201e-04 3.354332559651e-03 0.0 
0.0 0.0 -5.202658224677e-04 
-1.068256360121e-03 2.066714883780e-04 0.0 
2.066714883780e-04 7.094366600133e-03 0.0 
0.0 0.0 -1.069052450572e-03 
-4.377877323945e-04 -1.833633178396e-04 0.0 
-1.833633178396e-04 2.778061496653e-03 0.0 
0.0 0.0 -4.372567615832e-04 
-7.685639283948e-04 1.832765112524e-04 0.0 
1.832765112524e-04 4.976704183313e-03 0.0 
0.0 0.0 -7.640689829422e-04 
-9.023009032283e-04 1.879763697979e-04 0.0 
1.879763697979e-04 5.928541464361e-03 0.0 
0.0 0.0 -9.014246907137e-04 
-8.033627654917e-04 1.978900666673e-04 0.0 
1.978900666673e-04 5.248675409052e-03 0.0 
0.0 0.0 -8.035328976187e-04 
-1.305960172853e-03 -2.095892658932e-06 0.0 
-2.095892658932e-06 9.102496999303e-03 0.0 
0.0 0.0 -1.324762665914e-03 
-6.445820078638e-04 -1.678202773937e-04 0.0 
-1.678202773937e-04 4.194265313441e-03 0.0 
0.0 0.0 -6.390224077203e-04 
-4.435428954874e-04 1.964051911317e-04 0.0 
1.964051911317e-04 2.726576725320e-03 0.0 
0.0 0.0 -4.422638729430e-04 
-5.680634224623e-04 -1.789976648694e-04 0.0 
-1.789976648694e-04 3.709617648682e-03 0.0 
0.0 0.0 -5.691257024010e-04 
-4.282333792406e-04 -1.482446945054e-04 0.0 
-1.482446945054e-04 2.644915346169e-03 0.0 
0.0 0.0 -4.184705811166e-04 
-4.155606553471e-04 1.953855919425e-04 0.0 
1.953855919425e-04 2.537485002560e-03 0.0 
0.0 0.0 -4.141309408042e-04 
-1.124019592153e-03 -2.007331567345e-04 0.0 
-2.007331567345e-04 7.565647962713e-03 0.0 
0.0 0.0 -1.123886314723e-03 
-8.186901870458e-04 -1.867352575880e-04 0.0 
-1.867352575880e-04 5.417532343352e-03 0.0 
0.0 0.0 -8.161479701220e-04 
-5.717796681142e-04 -1.878963187409e-04 0.0 
-1.878963187409e-04 3.680777609877e-03 0.0 
0.0 0.0 -5.672387349321e-04 
-7.059258560286e-04 1.849400511514e-04 0.0 
1.849400511514e-04 4.547028472385e-03 0.0 
0.0 0.0 -7.023794137935e-04 
-1.322670125945e-03 2.313222592219e-05 0.0 
2.313222592219e-05 9.105794211902e-03 0.0 
0.0 0.0 -1.320675234999e-03 
-1.261246667212e-03 -1.446740378058e-04 0.0 
-1.446740378058e-04 8.590068615086e-03 0.0 
0.0 0.0 -1.258064670439e-03 
-1.122100566517e-03 1.986464603035e-04 0.0 
1.986464603035e-04 7.484284741315e-03 0.0 
0.0 0.0 -1.126590436115e-03 
-1.036201990782e-03 -1.951775890560e-04 0.0 
-1.951775890560e-04 6.963709654535e-03 0.0 
0.0 0.0 -1.037522200811e-03 
-7.719052834795e-04 -1.888501304093e-04 0.0 
-1.888501304093e-04 5.114447170550e-03 0.0 
0.0 0.0 -7.721428985420e-04 
-5.862259843954e-04 -1.794669617907e-04 0.0 
-1.794669617907e-04 3.806767764826e-03 0.0 
0.0 0.0 -5.842812205453e-04 
-4.235649518208e-04 -1.883881554874e-04 0.0 
-1.883881554874e-04 2.667804805964e-03 0.0 
0.0 0.0 -4.203166018451e-04 
-4.860729007888e-04 -1.885252844674e-04 0.0 
-1.885252844674e-04 3.110387779236e-03 0.0 
0.0 0.0 -4.843489805398e-04 
-7.832353818819e-04 -1.822378049694e-04 0.0 
-1.822378049694e-04 5.173491727743e-03 0.0 
0.0 0.0 -7.808727949117e-04 
-8.901416230108e-04 -1.942852983019e-04 0.0 
-1.942852983019e-04 5.937129717394e-03 0.0 
0.0 0.0 -8.900964085843e-04 
-6.791455967192e-04 -1.986004150700e-04 0.0 
-1.986004150700e-04 4.477294610112e-03 0.0 
0.0 0.0 -6.810091006415e-04 
-1.137984490542e-03 2.026763925672e-04 0.0 
2.026763925672e-04 7.560494271962e-03 0.0 
0.0 0.0 -1.134236807130e-03 
-4.390058928460e-04 -1.873042743236e-04 0.0 
-1.873042743236e-04 2.794180260139e-03 0.0 
0.0 0.0 -4.395655422792e-04 
-6.752152374307e-04 -1.860595742761e-04 0.0 
-1.860595742761e-04 4.431501668800e-03 0.0 
0.0 0.0 -6.750378637491e-04 
-7.938192706807e-04 1.817389384797e-04 0.0 
1.817389384797e-04 5.160116736331e-03 0.0 
0.0 0.0 -7.913284153978e-04 
-6.120290380758e-04 -1.961653994373e-04 0.0 
-1.961653994373e-04 3.987310124629e-03 0.0 
0.0 0.0 -6.122259156574e-04 
-1.301288756895e-03 -2.045275430421e-05 0.0 
-2.045275430421e-05 9.103514886722e-03 0.0 
0.0 0.0 -1.320088186226e-03 
-1.336559860406e-03 5.304668224230e-05 0.0 
5.304668224230e-05 9.092320412842e-03 0.0 
0.0 0.0 -1.318462653075e-03 
-1.241699233934e-03 -2.254253931459e-04 0.0 
-2.254253931459e-04 8.519567921102e-03 0.0 
0.0 0.0 -1.256494544188e-03 
-8.370305663979e-04 -1.942067132543e-04 0.0 
-1.942067132543e-04 5.564466733165e-03 0.0 
0.0 0.0 -8.375255977276e-04 
-1.112341827327e-03 1.928139267360e-04 0.0 
1.928139267360e-04 7.404901105712e-03 0.0 
0.0 0.0 -1.112065035246e-03 
-3.806812841049e-04 1.778946636947e-04 0.0 
1.778946636947e-04 2.279220825059e-03 0.0 
0.0 0.0 -3.785953687517e-04 
-5.494616984378e-04 -1.888416104626e-04 0.0 
-1.888416104626e-04 3.555923799118e-03 0.0 
0.0 0.0 -5.483018170244e-04 
-3.235962926905e-04 -1.736014947489e-04 0.0 
-1.736014947489e-04 1.973084689826e-03 0.0 
0.0 0.0 -3.192951451658e-04 
-5.963652417522e-04 -1.773931756758e-04 0.0 
-1.773931756758e-04 3.870665993091e-03 0.0 
0.0 0.0 -5.936226173563e-04 
-7.754418230907e-04 -1.787983897596e-05 0.0 
-1.787983897596e-05 4.998811631156e-03 0.0 
0.0 0.0 -7.914980036671e-04 
-9.191665137011e-04 2.140245341565e-04 0.0 
2.140245341565e-04 6.074527525348e-03 0.0 
0.0 0.0 -9.214502702889e-04 
-1.272306740568e-03 -2.183792906092e-06 0.0 
-2.183792906092e-06 8.701539900471e-03 0.0 
0.0 0.0 -1.265403586923e-03 
-1.115465796477e-03 2.144802209519e-04 0.0 
2.144802209519e-04 7.405352776166e-03 0.0 
0.0 0.0 -1.117224974728e-03 
-8.719756485575e-04 1.796746755414e-04 0.0 
1.796746755414e-04 5.704231125349e-03 0.0 
0.0 0.0 -8.687609488834e-04 
-8.934000445298e-04 1.842629385947e-04 0.0 
1.842629385947e-04 5.848617048582e-03 0.0 
0.0 0.0 -8.891947744737e-04 
-3.538517022685e-04 1.968822651903e-04 0.0 
1.968822651903e-04 2.082939193951e-03 0.0 
0.0 0.0 -3.496852078947e-04 
-1.730179310379e-04 3.799515299487e-05 0.0 
3.799515299487e-05 9.814996314958e-04 0.0 
0.0 0.0 -1.610244214183e-04 
-6.605957920443e-04 2.008091445533e-04 0.0 
2.008091445533e-04 4.241664916870e-03 0.0 
0.0 0.0 -6.594106982652e-04 
-7.382500259092e-04 -1.861061436274e-04 0.0 
-1.861061436274e-04 4.870305797290e-03 0.0 
0.0 0.0 -7.376142925499e-04 
-6.935826622016e-04 -1.974963449897e-04 0.0 
-1.974963449897e-04 4.557561403421e-03 0.0 
0.0 0.0 -6.931905564144e-04 
-1.927200046455e-04 1.907407866213e-04 0.0 
1.907407866213e-04 9.362068114562e-04 0.0 
0.0 0.0 -1.839988823918e-04 
-8.553897316391e-04 7.952460625503e-05 0.0 
7.952460625503e-05 5.374666730048e-03 0.0 
0.0 0.0 -8.462285223656e-04 
-3.012637912477e-04 -1.970081127765e-04 0.0 
-1.970081127765e-04 1.826424334369e-03 0.0 
0.0 0.0 -2.972104253142e-04 
-4.320291499202e-04 1.924639625952e-04 0.0 
1.924639625952e-04 2.652618994648e-03 0.0 
0.0 0.0 -4.314049239902e-04 
-1.341153861134e-03 -1.132581839852e-07 0.0 
-1.132581839852e-07 8.854160665758e-03 0.0 
0.0 0.0 -1.341153861134e-03 
-9.735832254612e-04 -2.032109106710e-04 0.0 
-2.032109106710e-04 6.501326132665e-03 0.0 
0.0 0.0 -9.717687626070e-04 
-8.038658590279e-04 1.841151985618e-04 0.0 
1.841151985618e-04 5.090192522503e-03 0.0 
0.0 0.0 -7.790007367612e-04 
-2.263569738137e-04 1.412068244863e-04 0.0 
1.412068244863e-04 1.378581130634e-03 0.0 
0.0 0.0 -2.176483604987e-04 
-7.148393686400e-04 1.885377903274e-04 0.0 
1.885377903274e-04 4.617805235716e-03 0.0 
0.0 0.0 -7.126719623954e-04 
-6.583475203356e-04 -2.044658051723e-04 0.0 
-2.044658051723e-04 4.303955154821e-03 0.0 
0.0 0.0 -6.569982659716e-04 
-8.980808506786e-04 -1.936520147713e-04 0.0 
-1.936520147713e-04 5.958242186783e-03 0.0 
0.0 0.0 -8.940630110299e-04 
-1.327874025612e-03 4.012442722688e-05 0.0 
4.012442722688e-05 9.098102111315e-03 0.0 
0.0 0.0 -1.323832587333e-03 
-7.403554818969e-04 1.844120078152e-04 0.0 
1.844120078152e-04 4.792048619543e-03 0.0 
0.0 0.0 -7.366500567795e-04 
-8.545868996671e-04 -1.887615407860e-04 0.0 
-1.887615407860e-04 5.662533660862e-03 0.0 
0.0 0.0 -8.513774089097e-04 
-6.818667097911e-04 1.958766515699e-04 0.0 
1.958766515699e-04 4.409131248910e-03 0.0 
0.0 0.0 -6.837695253815e-04 
-1.105187862003e-03 1.994006530664e-04 0.0 
1.994006530664e-04 7.356411437885e-03 0.0 
0.0 0.0 -1.105258581891e-03 
-8.686753316721e-04 1.961023377174e-04 0.0 
1.961023377174e-04 5.708119835605e-03 0.0 
0.0 0.0 -8.691653677727e-04 
-1.313443091824e-03 -8.681857321593e-06 0.0 
-8.681857321593e-06 9.107589922997e-03 0.0 
0.0 0.0 -1.322174839672e-03 
-1.340103718614e-03 2.441833226493e-06 0.0 
2.441833226493e-06 8.842216911178e-03 0.0 
0.0 0.0 -1.340103718614e-03 
-1.341028575724e-03 -6.698781680329e-06 0.0 
-6.698781680329e-06 8.834191149721e-03 0.0 
0.0 0.0 -1.341028575724e-03 
-1.338044909071e-03 -9.989699658759e-07 0.0 
-9.989699658759e-07 8.789076720715e-03 0.0 
0.0 0.0 -1.338044909071e-03 
-9.278953530001e-04 1.830493215193e-04 0.0 
1.830493215193e-04 6.094694774967e-03 0.0 
0.0 0.0 -9.244680137507e-04 
-1.104382085207e-03 -1.844352853961e-04 0.0 
-1.844352853961e-04 7.413030585339e-03 0.0 
0.0 0.0 -1.103002250422e-03 
-1.150866030357e-03 2.083921581833e-04 0.0 
2.083921581833e-04 7.696092280171e-03 0.0 
0.0 0.0 -1.155914796392e-03 
-6.164628833105e-04 2.031183267964e-04 0.0 
2.031183267964e-04 3.927882065765e-03 0.0 
0.0 0.0 -6.147330147620e-04 
-5.911685103851e-04 1.997096464783e-04 0.0 
1.997096464783e-04 3.740736628945e-03 0.0 
0.0 0.0 -5.872917534094e-04 
-6.414807696811e-04 -2.006380451049e-04 0.0 
-2.006380451049e-04 4.218783169970e-03 0.0 
0.0 0.0 -6.436934073013e-04 
-1.134641282245e-03 -2.006695635977e-04 0.0 
-2.006695635977e-04 7.623716292157e-03 0.0 
0.0 0.0 -1.131852245309e-03 
-1.324500994006e-03 -4.966854021264e-06 0.0 
-4.966854021264e-06 9.095768239117e-03 0.0 
0.0 0.0 -1.322440284024e-03 
-1.140227253108e-03 1.951224764734e-04 0.0 
1.951224764734e-04 7.603009729401e-03 0.0 
0.0 0.0 -1.141180801552e-03 
-9.080174246261e-04 -2.037707256770e-04 0.0 
-2.037707256770e-04 6.042971740774e-03 0.0 
0.0 0.0 -9.063345769726e-04 
-1.140612365318e-03 -1.825914620366e-04 0.0 
-1.825914620366e-04 7.661221724928e-03 0.0 
0.0 0.0 -1.138864741757e-03 
-9.895587303989e-04 -1.909996709670e-04 0.0 
-1.909996709670e-04 6.631323534056e-03 0.0 
0.0 0.0 -9.903545940741e-04 
-7.055944550106e-04 1.841650505336e-04 0.0 
1.841650505336e-04 4.559451876543e-03 0.0 
0.0 0.0 -7.049739924763e-04 
-6.005001548621e-04 1.754924819421e-04 0.0 
1.754924819421e-04 3.808564972462e-03 0.0 
0.0 0.0 -5.967387615352e-04 
-3.335508235582e-04 1.892926381389e-04 0.0 
1.892926381389e-04 1.961394351476e-03 0.0 
0.0 0.0 -3.333553686509e-04 
-1.287482303742e-03 9.400486473720e-05 0.0 
9.400486473720e-05 8.494651886702e-03 0.0 
0.0 0.0 -1.282213402295e-03 
-5.782088747012e-04 1.983174571351e-04 0.0 
1.983174571351e-04 3.685190236892e-03 0.0 
0.0 0.0 -5.792479259103e-04 
-1.207490032650e-03 -9.511693616597e-06 0.0 
-9.511693616597e-06 8.106813054446e-03 0.0 
0.0 0.0 -1.230767059693e-03 
-6.442432414831e-04 1.944206160730e-04 0.0 
1.944206160730e-04 4.149320661563e-03 0.0 
0.0 0.0 -6.465396845166e-04 
-4.198574354174e-04 -1.824962637457e-04 0.0 
-1.824962637457e-04 2.680260699037e-03 0.0 
0.0 0.0 -4.222915044375e-04 
-1.273602229187e-03 4.336342551849e-05 0.0 
4.336342551849e-05 8.460076842639e-03 0.0 
0.0 0.0 -1.284312900220e-03 
-4.687866799151e-04 1.866875104872e-04 0.0 
1.866875104872e-04 2.893520146277e-03 0.0 
0.0 0.0 -4.669824892858e-04 
-1.341987455608e-03 1.886578995437e-06 0.0 
1.886578995437e-06 8.838362897947e-03 0.0 
0.0 0.0 -1.341987455608e-03 
-1.296411374061e-03 -1.418949515450e-05 0.0 
-1.418949515450e-05 8.470243795444e-03 0.0 
0.0 0.0 -1.282654109251e-03 
-8.495078228820e-04 1.843107655011e-04 0.0 
1.843107655011e-04 5.547072023185e-03 0.0 
0.0 0.0 -8.462542048450e-04 
-9.255048927816e-05 -2.197953205318e-06 0.0 
-2.197953205318e-06 3.085086574748e-04 0.0 
0.0 0.0 -9.255350065570e-05 
-1.340954708391e-03 7.835804962291e-06 0.0 
7.835804962291e-06 8.838032502772e-03 0.0 
0.0 0.0 -1.340954708391e-03 
-1.280816053348e-03 -2.230055523915e-05 0.0 
-2.230055523915e-05 8.460310632468e-03 0.0 
0.0 0.0 -1.284661450484e-03 
-4.260944399250e-04 1.999732540104e-04 0.0 
1.999732540104e-04 2.608418284960e-03 0.0 
0.0 0.0 -4.253660281670e-04 
-9.365021749047e-04 -1.977008719716e-04 0.0 
-1.977008719716e-04 6.250684752616e-03 0.0 
0.0 0.0 -9.353130867196e-04 
-1.333005063589e-03 4.344781136887e-06 0.0 
4.344781136887e-06 9.114671664273e-03 0.0 
0.0 0.0 -1.323014926434e-03 
0.0 0.0 0.0 
0.0 0.0 0.0 
0.0 0.0 0.0 
-6.428281947913e-04 1.843362204216e-04 0.0 
1.843362204216e-04 4.123262309836e-03 0.0 
0.0 0.0 -6.425506931502e-04 
-8.851411761515e-04 1.851869312966e-04 0.0 
1.851869312966e-04 5.794563189636e-03 0.0 
0.0 0.0 -8.816033652580e-04 
-8.134395165507e-04 1.874953040298e-04 0.0 
1.874953040298e-04 5.300126487808e-03 0.0 
0.0 0.0 -8.109139232486e-04 
-8.225202755535e-04 1.881518984198e-04 0.0 
1.881518984198e-04 5.356080317152e-03 0.0 
0.0 0.0 -8.186613860469e-04 
-3.691769062860e-04 1.916815065322e-04 0.0 
1.916815065322e-04 2.210779207524e-03 0.0 
0.0 0.0 -3.689119447714e-04 
-1.341360672448e-03 -1.189443720155e-06 0.0 
-1.189443720155e-06 8.827889647213e-03 0.0 
0.0 0.0 -1.341360672448e-03 
-6.134329689946e-04 -1.902359328294e-04 0.0 
-1.902359328294e-04 4.002222739953e-03 0.0 
0.0 0.0 -6.123778370825e-04 
-2.202070906780e-04 -1.755376406009e-04 0.0 
-1.755376406009e-04 1.255756531969e-03 0.0 
0.0 0.0 -2.173296945085e-04 
-1.279142293538e-03 5.964349300566e-05 0.0 
5.964349300566e-05 8.727032320364e-03 0.0 
0.0 0.0 -1.272354826527e-03 
-1.022272037246e-04 4.922820238373e-06 0.0 
4.922820238373e-06 5.965869288915e-04 0.0 
0.0 0.0 -1.019437782286e-04 
-6.710661406479e-04 1.855097177597e-04 0.0 
1.855097177597e-04 4.303579593448e-03 0.0 
0.0 0.0 -6.678899790657e-04 
-2.300720776572e-04 1.212201240613e-05 0.0 
1.212201240613e-05 1.125450156733e-03 0.0 
0.0 0.0 -2.365401520142e-04 
-7.086437154644e-04 1.853452857981e-04 0.0 
1.853452857981e-04 4.588815352963e-03 0.0 
0.0 0.0 -7.094882865497e-04 
-1.317968381893e-03 -7.788542654245e-06 0.0 
-7.788542654245e-06 9.086616382280e-03 0.0 
0.0 0.0 -1.321823097425e-03 
-1.341255375116e-03 6.592408687469e-06 0.0 
6.592408687469e-06 8.854311445215e-03 0.0 
0.0 0.0 -1.341255375116e-03 
-8.673920198819e-04 1.847071888204e-04 0.0 
1.847071888204e-04 5.656037287956e-03 0.0 
0.0 0.0 -8.613793510407e-04 
-1.969643249742e-04 -2.643595705593e-05 0.0 
-2.643595705593e-05 7.486662135306e-04 0.0 
0.0 0.0 -1.793976806842e-04 
-1.826266447966e-04 1.955672024510e-04 0.0 
1.955672024510e-04 9.200601904336e-04 0.0 
0.0 0.0 -1.838036673156e-04 
-2.361898229358e-04 4.404631865767e-05 0.0 
4.404631865767e-05 1.375633081646e-03 0.0 
0.0 0.0 -2.179364692381e-04 
-1.125162068454e-03 -1.979567048057e-04 0.0 
-1.979567048057e-04 7.560228932207e-03 0.0 
0.0 0.0 -1.121833217354e-03 
-7.703836607526e-04 2.904011669623e-05 0.0 
2.904011669623e-05 5.271332940567e-03 0.0 
0.0 0.0 -7.704300227928e-04 
-8.168157235620e-04 -2.113983721697e-04 0.0 
-2.113983721697e-04 5.355765378531e-03 0.0 
0.0 0.0 -8.109332722942e-04 
-1.342502730507e-03 5.716067361727e-06 0.0 
5.716067361727e-06 8.856705817959e-03 0.0 
0.0 0.0 -1.342502730507e-03 
-7.906151483404e-04 -4.272528123303e-05 0.0 
-4.272528123303e-05 5.268742702063e-03 0.0 
0.0 0.0 -7.720444664677e-04 
-1.332977220355e-03 1.682402604833e-05 0.0 
1.682402604833e-05 9.104707937730e-03 0.0 
0.0 0.0 -1.322852565091e-03 
-1.019613459442e-03 1.919320256201e-04 0.0 
1.919320256201e-04 6.758525883042e-03 0.0 
0.0 0.0 -1.020998643257e-03 
-8.942284646778e-04 2.014665993211e-04 0.0 
2.014665993211e-04 5.869620442183e-03 0.0 
0.0 0.0 -8.907448815977e-04 
-4.710891496910e-04 1.816013443133e-04 0.0 
1.816013443133e-04 2.782078830397e-03 0.0 
0.0 0.0 -4.477608806526e-04 
-9.397641453592e-04 1.905534962230e-04 0.0 
1.905534962230e-04 6.187842394577e-03 0.0 
0.0 0.0 -9.378661514434e-04 
-2.865699781098e-04 -1.698301048615e-04 0.0 
-1.698301048615e-04 1.797113955836e-03 0.0 
0.0 0.0 -2.938158648993e-04 
-1.340754991027e-03 -4.752011562155e-06 0.0 
-4.752011562155e-06 8.857728678543e-03 0.0 
0.0 0.0 -1.340754991027e-03 
-1.339984467612e-03 2.292869316743e-05 0.0 
2.292869316743e-05 8.807369741469e-03 0.0 
0.0 0.0 -1.339984467612e-03 
-1.340417744004e-03 -2.214851180424e-05 0.0 
-2.214851180424e-05 8.828867002772e-03 0.0 
0.0 0.0 -1.340417744004e-03 
-8.660623943402e-04 -1.943286950292e-04 0.0 
-1.943286950292e-04 5.772294168294e-03 0.0 
0.0 0.0 -8.666500598261e-04 
-6.034856013852e-04 -2.033011263199e-04 0.0 
-2.033011263199e-04 3.957936150372e-03 0.0 
0.0 0.0 -6.062238016986e-04 
-7.026976706331e-04 -1.815126947840e-04 0.0 
-1.815126947840e-04 4.627441659305e-03 0.0 
0.0 0.0 -7.021192356133e-04 
-8.976477462119e-04 1.951708788180e-04 0.0 
1.951708788180e-04 5.904473226514e-03 0.0 
0.0 0.0 -8.981573260837e-04 
-1.339627896631e-03 3.612108461988e-06 0.0 
3.612108461988e-06 8.853033835610e-03 0.0 
0.0 0.0 -1.339627896631e-03 
-4.295950600907e-04 -1.875952713054e-04 0.0 
-1.875952713054e-04 2.717501457664e-03 0.0 
0.0 0.0 -4.287941800800e-04 
-4.990450639494e-04 1.934485922333e-04 0.0 
1.934485922333e-04 3.125390132284e-03 0.0 
0.0 0.0 -4.991860405784e-04 
-5.285799076226e-04 1.852384275300e-04 0.0 
1.852384275300e-04 3.322934541718e-03 0.0 
0.0 0.0 -5.272458293186e-04 
-9.298142287186e-04 1.923659803104e-04 0.0 
1.923659803104e-04 6.128652270364e-03 0.0 
0.0 0.0 -9.279583942086e-04 
-1.339074735525e-03 -2.462351465060e-05 0.0 
-2.462351465060e-05 9.096799452257e-03 0.0 
0.0 0.0 -1.323537156312e-03 
-1.500618556416e-04 1.939391886362e-05 0.0 
1.939391886362e-05 9.791726158994e-04 0.0 
0.0 0.0 -1.598254822437e-04 
-1.340775759057e-03 1.534669228294e-06 0.0 
1.534669228294e-06 8.827931576809e-03 0.0 
0.0 0.0 -1.340775759057e-03 
-4.918224965486e-04 1.956179793808e-04 0.0 
1.956179793808e-04 3.063033243647e-03 0.0 
0.0 0.0 -4.905422085546e-04 
-1.342877878941e-03 2.842270727751e-06 0.0 
2.842270727751e-06 8.853936486152e-03 0.0 
0.0 0.0 -1.342877878941e-03 
-1.156184618631e-03 -1.885719150538e-04 0.0 
-1.885719150538e-04 7.774113329411e-03 0.0 
0.0 0.0 -1.152765850879e-03 
-4.494164570379e-05 1.000468586624e-06 0.0 
1.000468586624e-06 2.551504228595e-04 0.0 
0.0 0.0 -4.576175375704e-05 
-6.699730055747e-04 1.872361539573e-04 0.0 
1.872361539573e-04 4.302808495342e-03 0.0 
0.0 0.0 -6.690559060524e-04 
-1.145839910847e-03 -1.986902778568e-04 0.0 
-1.986902778568e-04 7.714207575352e-03 0.0 
0.0 0.0 -1.146019594970e-03 
-1.341220131281e-03 -2.365934969509e-06 0.0 
-2.365934969509e-06 8.847703773833e-03 0.0 
0.0 0.0 -1.341220131281e-03 
-9.256050002818e-04 -1.923147081747e-04 0.0 
-1.923147081747e-04 6.153846390776e-03 0.0 
0.0 0.0 -9.220067723808e-04 
-1.050351148173e-03 1.970429468760e-04 0.0 
1.970429468760e-04 6.958336458839e-03 0.0 
0.0 0.0 -1.049000704964e-03 
-2.748725954192e-04 1.931705696151e-04 0.0 
1.931705696151e-04 1.524979906539e-03 0.0 
0.0 0.0 -2.717413095444e-04 
-1.208683908170e-03 6.230383996264e-06 0.0 
6.230383996264e-06 8.102506712124e-03 0.0 
0.0 0.0 -1.228682347183e-03 
-5.192327213786e-04 1.909614988805e-04 0.0 
1.909614988805e-04 3.260562468968e-03 0.0 
0.0 0.0 -5.184025592846e-04 
-5.248109421633e-04 -1.803408309235e-04 0.0 
-1.803408309235e-04 3.388681347671e-03 0.0 
0.0 0.0 -5.242929400402e-04 
-1.101238409147e-04 1.624386361107e-05 0.0 
1.624386361107e-05 6.254833965552e-04 0.0 
0.0 0.0 -1.042847928631e-04 
-1.341079611575e-03 1.268157797443e-06 0.0 
1.268157797443e-06 8.837798036775e-03 0.0 
0.0 0.0 -1.341079611575e-03 
-3.602734137551e-04 -1.850324683020e-04 0.0 
-1.850324683020e-04 2.230825920775e-03 0.0 
0.0 0.0 -3.564518745397e-04 
-1.109985979917e-03 -2.052345426402e-04 0.0 
-2.052345426402e-04 7.476883123942e-03 0.0 
0.0 0.0 -1.110501492391e-03 
-8.524872272040e-04 -2.315298743519e-04 0.0 
-2.315298743519e-04 5.680178330686e-03 0.0 
0.0 0.0 -8.555322119248e-04 
-4.402194268269e-04 -1.870881911234e-04 0.0 
-1.870881911234e-04 2.811358430465e-03 0.0 
0.0 0.0 -4.411586999297e-04 
-4.975783628974e-04 -1.914562144175e-04 0.0 
-1.914562144175e-04 3.191209784275e-03 0.0 
0.0 0.0 -4.964677435772e-04 
-8.901378245668e-04 -1.873561009026e-04 0.0 
-1.873561009026e-04 5.908561179355e-03 0.0 
0.0 0.0 -8.867075537039e-04 
-1.342259935407e-03 -1.718040054209e-05 0.0 
-1.718040054209e-05 8.855152000548e-03 0.0 
0.0 0.0 -1.342259935407e-03 
-6.396775884645e-04 1.886079041491e-04 0.0 
1.886079041491e-04 4.098241029371e-03 0.0 
0.0 0.0 -6.378868265889e-04 
-9.691742763952e-04 -2.019742400056e-04 0.0 
-2.019742400056e-04 6.483311990656e-03 0.0 
0.0 0.0 -9.693340058278e-04 
-8.041747505047e-04 1.863000233207e-04 0.0 
1.863000233207e-04 5.244246416891e-03 0.0 
0.0 0.0 -8.030799362305e-04 
-8.818155169255e-04 -1.886653253936e-04 0.0 
-1.886653253936e-04 5.877887840043e-03 0.0 
0.0 0.0 -8.811160271665e-04 
-5.320000478192e-04 -1.863752187474e-04 0.0 
-1.863752187474e-04 3.439757636019e-03 0.0 
0.0 0.0 -5.326451291888e-04 
-9.026994633867e-04 -1.977891108898e-04 0.0 
-1.977891108898e-04 6.021154653626e-03 0.0 
0.0 0.0 -9.031726653527e-04 
-7.735880944809e-04 -1.868485495488e-04 0.0 
-1.868485495488e-04 5.115539884919e-03 0.0 
0.0 0.0 -7.729461360948e-04 
-9.981479559481e-04 -1.963805187542e-04 0.0 
-1.963805187542e-04 6.683666354433e-03 0.0 
0.0 0.0 -9.982497011217e-04 
-1.004413229733e-03 1.912127845263e-04 0.0 
1.912127845263e-04 6.639387752267e-03 0.0 
0.0 0.0 -1.003134534203e-03 
-7.686187780919e-04 1.863311149205e-04 0.0 
1.863311149205e-04 4.996748422869e-03 0.0 
0.0 0.0 -7.676694601592e-04 
-6.531466934909e-04 1.957558291536e-04 0.0 
1.957558291536e-04 4.207071568820e-03 0.0 
0.0 0.0 -6.551190094499e-04 
-4.645380568116e-04 -1.828907984747e-04 0.0 
-1.828907984747e-04 2.961721166152e-03 0.0 
0.0 0.0 -4.640097282922e-04 
-6.064572421459e-04 1.910285411048e-04 0.0 
1.910285411048e-04 3.887705448155e-03 0.0 
0.0 0.0 -6.091269606258e-04 
-1.019361563877e-03 -1.903039724259e-04 0.0 
-1.903039724259e-04 6.831244999586e-03 0.0 
0.0 0.0 -1.018204129641e-03 
-8.373723247002e-04 1.874174193606e-04 0.0 
1.874174193606e-04 5.476720692713e-03 0.0 
0.0 0.0 -8.365169925761e-04 
-1.320520432489e-03 -2.623800515080e-05 0.0 
-2.623800515080e-05 9.107403832922e-03 0.0 
0.0 0.0 -1.321929620191e-03 
-1.169515206127e-03 -1.894067828277e-04 0.0 
-1.894067828277e-04 7.912550107300e-03 0.0 
0.0 0.0 -1.174325249119e-03 
-4.054788487746e-04 1.902250889250e-04 0.0 
1.902250889250e-04 2.477005508033e-03 0.0 
0.0 0.0 -4.069995479128e-04 
-1.341047338368e-03 6.114097105079e-06 0.0 
6.114097105079e-06 8.810414551587e-03 0.0 
0.0 0.0 -1.341047338368e-03 
-1.246442799579e-03 -7.048165356659e-06 0.0 
-7.048165356659e-06 8.701531217890e-03 0.0 
0.0 0.0 -1.266414110344e-03 
-7.243231333996e-04 1.855217411942e-04 0.0 
1.855217411942e-04 4.688371918965e-03 0.0 
0.0 0.0 -7.237787631415e-04 
-9.766466055391e-05 -9.527665079689e-06 0.0 
-9.527665079689e-06 3.256739367154e-04 0.0 
0.0 0.0 -9.771826121206e-05 
-1.305508824941e-03 3.853404293035e-06 0.0 
3.853404293035e-06 9.105182867572e-03 0.0 
0.0 0.0 -1.323469717371e-03 
-1.171509388478e-03 -1.678154851060e-04 0.0 
-1.678154851060e-04 7.861802012676e-03 0.0 
0.0 0.0 -1.167157861819e-03 
-4.521694521813e-04 2.012915858519e-04 0.0 
2.012915858519e-04 2.804008720375e-03 0.0 
0.0 0.0 -4.535238702637e-04 
-1.341709311524e-03 -1.310979986686e-05 0.0 
-1.310979986686e-05 8.829628018658e-03 0.0 
0.0 0.0 -1.341709311524e-03 
-9.320413057689e-04 -1.962162649741e-04 0.0 
-1.962162649741e-04 6.231458751848e-03 0.0 
0.0 0.0 -9.325599965574e-04 
-6.268046795760e-04 1.808345467380e-04 0.0 
1.808345467380e-04 3.989844982223e-03 0.0 
0.0 0.0 -6.229492605273e-04 
-8.398341044081e-04 1.726875732325e-04 0.0 
1.726875732325e-04 5.514357495571e-03 0.0 
0.0 0.0 -8.408860858065e-04 
-8.060358487983e-04 -1.972435935582e-04 0.0 
-1.972435935582e-04 5.343400692596e-03 0.0 
0.0 0.0 -8.054665293395e-04 
-8.004419744920e-04 -1.952463938329e-04 0.0 
-1.952463938329e-04 5.314426112526e-03 0.0 
0.0 0.0 -8.008683130455e-04 
-9.182717976000e-04 -1.896493216883e-04 0.0 
-1.896493216883e-04 6.134019344383e-03 0.0 
0.0 0.0 -9.181754741429e-04 
-9.700343521080e-04 -1.978951788456e-04 0.0 
-1.978951788456e-04 6.510189924062e-03 0.0 
0.0 0.0 -9.721028620036e-04 
-6.977402691425e-04 1.822093202730e-04 0.0 
1.822093202730e-04 4.487185732323e-03 0.0 
0.0 0.0 -6.945885048819e-04 
-1.040005538332e-03 1.990021927621e-04 0.0 
1.990021927621e-04 6.900874594821e-03 0.0 
0.0 0.0 -1.039409037654e-03 
-8.975501320031e-04 -2.506583898402e-05 0.0 
-2.506583898402e-05 6.020256954513e-03 0.0 
0.0 0.0 -8.839498032872e-04 
-6.495260709226e-04 -1.944699442282e-04 0.0 
-1.944699442282e-04 4.277277504375e-03 0.0 
0.0 0.0 -6.521967345917e-04 
-9.682052284533e-04 1.865606736299e-04 0.0 
1.865606736299e-04 6.381518702333e-03 0.0 
0.0 0.0 -9.664699797409e-04 
-5.143750252182e-04 -1.778295084176e-04 0.0 
-1.778295084176e-04 3.324024151635e-03 0.0 
0.0 0.0 -5.155438399970e-04 
-9.088890292892e-04 1.918794185100e-04 0.0 
1.918794185100e-04 5.978978740211e-03 0.0 
0.0 0.0 -9.093720595694e-04 
-5.184917320349e-05 -5.023579163672e-06 0.0 
-5.023579163672e-06 2.615427770040e-04 0.0 
0.0 0.0 -4.585464485956e-05 
-5.019069719293e-04 -1.730390890632e-04 0.0 
-1.730390890632e-04 3.221983585288e-03 0.0 
0.0 0.0 -4.997308803768e-04 
-4.873333685603e-04 -1.811613926647e-04 0.0 
-1.811613926647e-04 3.131270652529e-03 0.0 
0.0 0.0 -4.875765080988e-04 
-7.115036268068e-04 1.928847685251e-04 0.0 
1.928847685251e-04 4.611615726792e-03 0.0 
0.0 0.0 -7.126562430122e-04 
-7.596608402965e-04 1.884583179831e-04 0.0 
1.884583179831e-04 4.937228765552e-03 0.0 
0.0 0.0 -7.595228636782e-04 
-9.346957466832e-04 1.973754267299e-04 0.0 
1.973754267299e-04 6.167461615292e-03 0.0 
0.0 0.0 -9.350600278798e-04 
-8.902631525082e-04 -1.867681813360e-04 0.0 
-1.867681813360e-04 5.973122971149e-03 0.0 
0.0 0.0 -8.962969588583e-04 
-4.491438895743e-04 -1.869760147927e-04 0.0 
-1.869760147927e-04 2.875737731611e-03 0.0 
0.0 0.0 -4.505554202764e-04 
-1.341827844788e-03 5.881319465520e-06 0.0 
5.881319465520e-06 8.853598786661e-03 0.0 
0.0 0.0 -1.341827844788e-03 
-8.819043585379e-04 -1.894669265130e-04 0.0 
-1.894669265130e-04 5.856756576790e-03 0.0 
0.0 0.0 -8.789935771182e-04 
-7.395748600620e-04 1.939731217689e-04 0.0 
1.939731217689e-04 4.808423671935e-03 0.0 
0.0 0.0 -7.413896480605e-04 
-8.456344442179e-04 -1.866159444842e-04 0.0 
-1.866159444842e-04 5.609212261315e-03 0.0 
0.0 0.0 -8.436662038215e-04 
-7.098621749807e-04 -1.956105885316e-04 0.0 
-1.956105885316e-04 4.679646247114e-03 0.0 
0.0 0.0 -7.098625721847e-04 
0.0 0.0 0.0 
0.0 0.0 0.0 
0.0 0.0 0.0 
-8.787853985481e-04 -1.870345829221e-04 0.0 
-1.870345829221e-04 5.815290073788e-03 0.0 
0.0 0.0 -8.733545218784e-04 
-6.014622352257e-04 2.088026922776e-04 0.0 
2.088026922776e-04 3.826503758406e-03 0.0 
0.0 0.0 -5.956302995864e-04 
0.0 0.0 0.0 
0.0 0.0 0.0 
0.0 0.0 0.0 
-7.014361857610e-04 2.031970023559e-04 0.0 
2.031970023559e-04 4.544280328863e-03 0.0 
0.0 0.0 -7.041275119738e-04 
-1.001578329479e-03 1.949348082252e-04 0.0 
1.949348082252e-04 6.625301000395e-03 0.0 
0.0 0.0 -1.001254648526e-03 
-1.145850176714e-03 1.952473198253e-04 0.0 
1.952473198253e-04 7.640587141445e-03 0.0 
0.0 0.0 -1.146946825052e-03 
-8.534899184108e-04 -1.900750659178e-04 0.0 
-1.900750659178e-04 5.682294137052e-03 0.0 
0.0 0.0 -8.532270185794e-04 
-8.843005196867e-04 1.891738523443e-04 0.0 
1.891738523443e-04 5.802847869315e-03 0.0 
0.0 0.0 -8.841559964380e-04 
-7.498668879057e-04 -1.500423199850e-04 0.0 
-1.500423199850e-04 4.956000169468e-03 0.0 
0.0 0.0 -7.495231765994e-04 
-7.499562203702e-04 -7.649065135861e-06 0.0 
-7.649065135861e-06 4.585920683461e-03 0.0 
0.0 0.0 -7.312625299843e-04 
-1.259814766287e-03 -2.251942805186e-05 0.0 
-2.251942805186e-05 8.482919934012e-03 0.0 
0.0 0.0 -1.286111585339e-03 
-8.096577215198e-04 -1.889624871780e-04 0.0 
-1.889624871780e-04 5.361431513159e-03 0.0 
0.0 0.0 -8.082854548548e-04 
-2.601123029567e-05 -8.443429959233e-06 0.0 
-8.443429959233e-06 2.242861713756e-04 0.0 
0.0 0.0 -4.535587742227e-05 
-2.679801948708e-04 -1.979252069441e-04 0.0 
-1.979252069441e-04 1.544873028567e-03 0.0 
0.0 0.0 -2.569639750501e-04 
-9.553383276932e-05 -1.682092997359e-05 0.0 
-1.682092997359e-05 3.188442541893e-04 0.0 
0.0 0.0 -9.570446632286e-05 
-4.265759374031e-04 -1.588061750622e-04 0.0 
-1.588061750622e-04 2.743578014403e-03 0.0 
0.0 0.0 -4.284133232656e-04 
-1.136810990824e-03 -2.050532392672e-04 0.0 
-2.050532392672e-04 7.627868260152e-03 0.0 
0.0 0.0 -1.134523071099e-03 
-1.147232605264e-03 -1.988471843745e-04 0.0 
-1.988471843745e-04 7.696346442353e-03 0.0 
0.0 0.0 -1.144649651339e-03 
-1.090721102207e-03 1.927119379256e-04 0.0 
1.927119379256e-04 7.225314130525e-03 0.0 
0.0 0.0 -1.087427768671e-03 
-4.794185500659e-04 -1.949320750668e-04 0.0 
-1.949320750668e-04 3.096205477872e-03 0.0 
0.0 0.0 -4.827803379924e-04 
-9.064466102036e-04 -1.951694302266e-04 0.0 
-1.951694302266e-04 6.052913189119e-03 0.0 
0.0 0.0 -9.063168105749e-04 
-1.135504702689e-03 1.907792817819e-04 0.0 
1.907792817819e-04 7.600364314815e-03 0.0 
0.0 0.0 -1.142106164842e-03 
-2.788698608247e-04 -1.715069773272e-04 0.0 
-1.715069773272e-04 1.706769297964e-03 0.0 
0.0 0.0 -2.821198837983e-04 
-5.962549057610e-04 -2.242943986440e-04 0.0 
-2.242943986440e-04 3.850260609285e-03 0.0 
0.0 0.0 -5.942115541274e-04 
-4.821057558984e-04 1.938812463926e-04 0.0 
1.938812463926e-04 3.093517382698e-03 0.0 
0.0 0.0 -4.980019828625e-04 
-1.334956243324e-03 1.593537991859e-05 0.0 
1.593537991859e-05 9.100113722888e-03 0.0 
0.0 0.0 -1.322396863610e-03 
-1.341641872583e-03 -1.598087186621e-05 0.0 
-1.598087186621e-05 8.845353034364e-03 0.0 
0.0 0.0 -1.341641872583e-03 
-6.679494605950e-04 -1.695756001759e-04 0.0 
-1.695756001759e-04 4.277020538631e-03 0.0 
0.0 0.0 -6.580288049735e-04 
-7.324961324261e-04 -1.951613493015e-04 0.0 
-1.951613493015e-04 4.877737690436e-03 0.0 
0.0 0.0 -7.385580096348e-04 
-8.320090833607e-04 1.945702263429e-04 0.0 
1.945702263429e-04 5.445258436908e-03 0.0 
0.0 0.0 -8.323457052078e-04 
-1.163041303964e-03 1.778772476613e-04 0.0 
1.778772476613e-04 7.881722024609e-03 0.0 
0.0 0.0 -1.177278300149e-03 
-2.899237030429e-04 1.996200503925e-04 0.0 
1.996200503925e-04 1.630038568431e-03 0.0 
0.0 0.0 -2.880367495917e-04 
-1.101530990218e-03 1.937554819912e-04 0.0 
1.937554819912e-04 7.342981690998e-03 0.0 
0.0 0.0 -1.104707344597e-03 
-1.602377275387e-04 3.299975488637e-05 0.0 
3.299975488637e-05 1.021185104458e-03 0.0 
0.0 0.0 -1.612556504808e-04 
-6.771993620364e-04 -1.961964403491e-04 0.0 
-1.961964403491e-04 4.422374575330e-03 0.0 
0.0 0.0 -6.724657308136e-04 
-7.463531003114e-04 -1.974750822580e-04 0.0 
-1.974750822580e-04 4.938620865557e-03 0.0 
0.0 0.0 -7.470513223636e-04 
-9.733051936627e-05 1.431354683513e-05 0.0 
1.431354683513e-05 3.247181541802e-04 0.0 
0.0 0.0 -9.745184349170e-05 
-6.107893375517e-04 1.961955655378e-04 0.0 
1.961955655378e-04 4.041501780348e-03 0.0 
0.0 0.0 -6.267591816330e-04 
-1.179150888516e-03 1.722766776771e-04 0.0 
1.722766776771e-04 7.845621701176e-03 0.0 
0.0 0.0 -1.176862138969e-03 
-5.380435756070e-05 -4.751466869154e-06 0.0 
-4.751466869154e-06 2.532858114077e-04 0.0 
0.0 0.0 -4.590328595372e-05 
-7.312532489837e-04 1.362386611749e-05 0.0 
1.362386611749e-05 4.573834094121e-03 0.0 
0.0 0.0 -7.322753781719e-04 
-7.047922472484e-04 1.123922026685e-06 0.0 
1.123922026685e-06 4.847576831705e-03 0.0 
0.0 0.0 -7.130472889423e-04 
-9.547380700052e-04 -1.945366017599e-04 0.0 
-1.945366017599e-04 6.390005998802e-03 0.0 
0.0 0.0 -9.552000144736e-04 
-4.877659469443e-04 -1.909239420501e-04 0.0 
-1.909239420501e-04 3.137535928941e-03 0.0 
0.0 0.0 -4.943513106837e-04 
-4.803168808599e-04 1.981666947029e-04 0.0 
1.981666947029e-04 2.999843219209e-03 0.0 
0.0 0.0 -4.817493388239e-04 
-3.413576717745e-04 -1.696251700452e-04 0.0 
-1.696251700452e-04 2.103971295735e-03 0.0 
0.0 0.0 -3.398054741319e-04 
-1.177842708252e-03 1.745516882076e-04 0.0 
1.745516882076e-04 7.866046843566e-03 0.0 
0.0 0.0 -1.180895453064e-03 
-1.288113258455e-03 -7.910099866541e-06 0.0 
-7.910099866541e-06 8.468043511099e-03 0.0 
0.0 0.0 -1.286194385238e-03 
-1.101033919243e-03 -1.960948394900e-04 0.0 
-1.960948394900e-04 7.394725323298e-03 0.0 
0.0 0.0 -1.101088927253e-03 
-4.503494869687e-04 -1.637033152419e-04 0.0 
-1.637033152419e-04 2.832512250195e-03 0.0 
0.0 0.0 -4.457015571677e-04 
-2.141424004700e-04 2.387020000876e-04 0.0 
2.387020000876e-04 9.652683007768e-04 0.0 
0.0 0.0 -1.905831712289e-04 
-7.028954825784e-04 -1.797251013726e-04 0.0 
-1.797251013726e-04 4.605141056062e-03 0.0 
0.0 0.0 -6.999131133628e-04 
-7.213924053117e-04 -5.563189410970e-07 0.0 
-5.563189410970e-07 4.593100885078e-03 0.0 
0.0 0.0 -7.345111139194e-04 
-7.221802994753e-04 -3.459116523938e-05 0.0 
-3.459116523938e-05 4.860709319501e-03 0.0 
0.0 0.0 -7.144802219086e-04 
0.0 0.0 0.0 
0.0 0.0 0.0 
0.0 0.0 0.0 
-9.462674636507e-05 9.391315588563e-06 0.0 
9.391315588563e-06 3.155479012844e-04 0.0 
0.0 0.0 -9.468049496542e-05 
-1.889846684321e-04 -5.120829147058e-05 0.0 
-5.120829147058e-05 7.312686420689e-04 0.0 
0.0 0.0 -1.795416262981e-04 
-3.813293178289e-04 1.993773121019e-04 0.0 
1.993773121019e-04 2.301443442693e-03 0.0 
0.0 0.0 -3.820941496288e-04 
-1.147287239146e-04 2.233479330491e-06 0.0 
2.233479330491e-06 6.267336868549e-04 0.0 
0.0 0.0 -1.035694276016e-04 
-7.177698882455e-04 1.875976177193e-04 0.0 
1.875976177193e-04 4.537921580666e-03 0.0 
0.0 0.0 -6.918148876825e-04 
0.0 0.0 0.0 
0.0 0.0 0.0 
0.0 0.0 0.0 
-4.466789787724e-04 2.025807610901e-04 0.0 
2.025807610901e-04 2.763058809203e-03 0.0 
0.0 0.0 -4.482372226011e-04 
-9.484602570362e-04 5.937741420751e-05 0.0 
5.937741420751e-05 6.186307546056e-03 0.0 
0.0 0.0 -9.582560723523e-04 
-7.114040901391e-04 1.008097673964e-05 0.0 
1.008097673964e-05 4.858827396879e-03 0.0 
0.0 0.0 -7.120344407548e-04 
-1.154819602250e-03 -2.018660896655e-04 0.0 
-2.018660896655e-04 7.854075905782e-03 0.0 
0.0 0.0 -1.169483110168e-03 
-9.636351090390e-04 1.953512484906e-04 0.0 
1.953512484906e-04 6.363047776900e-03 0.0 
0.0 0.0 -9.641449249716e-04 
-9.024629704431e-04 7.830558015861e-05 0.0 
7.830558015861e-05 5.773999043953e-03 0.0 
0.0 0.0 -8.988447104697e-04 
-5.248669465082e-04 2.030027087804e-04 0.0 
2.030027087804e-04 3.352814556998e-03 0.0 
0.0 0.0 -5.269378630653e-04 
-1.557908844091e-04 -1.426598337885e-05 0.0 
-1.426598337885e-05 1.017280518651e-03 0.0 
0.0 0.0 -1.602995255322e-04 
-1.340974968048e-03 -2.076763454680e-05 0.0 
-2.076763454680e-05 8.825339797415e-03 0.0 
0.0 0.0 -1.340974968048e-03 
-1.331740677566e-03 -1.067318438911e-06 0.0 
-1.067318438911e-06 9.107204473734e-03 0.0 
0.0 0.0 -1.320295381545e-03 
-8.482992821085e-04 2.310186269771e-04 0.0 
2.310186269771e-04 5.616583664962e-03 0.0 
0.0 0.0 -8.588387843224e-04 
-7.462574470129e-04 -7.506809615043e-06 0.0 
-7.506809615043e-06 4.590636784032e-03 0.0 
0.0 0.0 -7.326073368541e-04 
-5.251543525857e-04 -1.205978746023e-04 0.0 
-1.205978746023e-04 3.428806267578e-03 0.0 
0.0 0.0 -5.314511797787e-04 
-1.323491096028e-03 -2.283744003803e-05 0.0 
-2.283744003803e-05 9.085754239402e-03 0.0 
0.0 0.0 -1.322576402756e-03 
-4.157468964118e-04 -1.918553564634e-04 0.0 
-1.918553564634e-04 2.636700862140e-03 0.0 
0.0 0.0 -4.166600706249e-04 
-7.057672473389e-04 -4.164103403237e-06 0.0 
-4.164103403237e-06 4.837446989167e-03 0.0 
0.0 0.0 -7.125614225629e-04 
-7.131316839303e-04 7.226971892557e-06 0.0 
7.226971892557e-06 4.584933787265e-03 0.0 
0.0 0.0 -7.312775522649e-04 
-6.769264019625e-04 1.800240141216e-04 0.0 
1.800240141216e-04 4.359211225872e-03 0.0 
0.0 0.0 -6.755779900756e-04 
-1.341823989366e-03 -1.865391509118e-05 0.0 
-1.865391509118e-05 8.857424336763e-03 0.0 
0.0 0.0 -1.341823989366e-03 
-1.293765856573e-03 1.607380559243e-05 0.0 
1.607380559243e-05 9.094492997413e-03 0.0 
0.0 0.0 -1.322582685247e-03 
-1.126722208426e-04 6.998488737266e-06 0.0 
6.998488737266e-06 6.134703062313e-04 0.0 
0.0 0.0 -1.035688293187e-04 
0.0 0.0 0.0 
0.0 0.0 0.0 
0.0 0.0 0.0 
-2.390355384623e-04 1.936491639953e-04 0.0 
1.936491639953e-04 1.192457136132e-03 0.0 
0.0 0.0 -2.221130066924e-04 
-7.484754656573e-04 1.958621454920e-04 0.0 
1.958621454920e-04 4.871290639516e-03 0.0 
0.0 0.0 -7.497705102653e-04 
-1.223848934685e-03 2.347738204731e-04 0.0 
2.347738204731e-04 8.231542695031e-03 0.0 
0.0 0.0 -1.224669017856e-03 
-3.851215442265e-05 -6.758275575601e-05 0.0 
-6.758275575601e-05 2.149841041377e-04 0.0 
0.0 0.0 -4.506945562690e-05 
-1.095035538177e-03 -2.135230687797e-04 0.0 
-2.135230687797e-04 7.297496536284e-03 0.0 
0.0 0.0 -1.092518628633e-03 
0.0 0.0 0.0 
0.0 0.0 0.0 
0.0 0.0 0.0 
-9.497696422961e-04 1.942166615206e-04 0.0 
1.942166615206e-04 6.260470679264e-03 0.0 
0.0 0.0 -9.493083249531e-04 
-6.288110034417e-05 6.701081411341e-06 0.0 
6.701081411341e-06 2.758850751309e-04 0.0 
0.0 0.0 -4.591043399907e-05 
-6.241905191399e-05 -2.511621330185e-05 0.0 
-2.511621330185e-05 2.635940123717e-04 0.0 
0.0 0.0 -4.615290204994e-05 
-9.135771074388e-04 1.942985431381e-04 0.0 
1.942985431381e-04 6.003773453710e-03 0.0 
0.0 0.0 -9.122568895951e-04 
-1.191044637578e-03 1.954606753198e-04 0.0 
1.954606753198e-04 7.975629465802e-03 0.0 
0.0 0.0 -1.192963836147e-03 
-9.353430265023e-04 -9.437658603161e-05 0.0 
-9.437658603161e-05 6.401376295666e-03 0.0 
0.0 0.0 -9.361271490834e-04 
-7.292657224304e-04 -1.767865209210e-04 0.0 
-1.767865209210e-04 4.795789678295e-03 0.0 
0.0 0.0 -7.268406435589e-04 
-9.710718174905e-05 -1.358771368788e-05 0.0 
-1.358771368788e-05 3.239463226279e-04 0.0 
0.0 0.0 -9.721677466237e-05 
-9.353638871598e-04 -1.962742580692e-04 0.0 
-1.962742580692e-04 6.250401807132e-03 0.0 
0.0 0.0 -9.349022313484e-04 
-1.337797817327e-03 -2.530827551252e-05 0.0 
-2.530827551252e-05 8.814034455446e-03 0.0 
0.0 0.0 -1.337797817327e-03 
-1.326036287352e-03 -1.455315038832e-04 0.0 
-1.455315038832e-04 9.082015863419e-03 0.0 
0.0 0.0 -1.322354755130e-03 
-7.123437340294e-04 1.173862101604e-05 0.0 
1.173862101604e-05 4.855322276952e-03 0.0 
0.0 0.0 -7.125764448434e-04 
-9.860203699540e-04 1.899915039947e-04 0.0 
1.899915039947e-04 6.516626141221e-03 0.0 
0.0 0.0 -9.863757069361e-04 
-1.341607717199e-03 1.356557150840e-05 0.0 
1.356557150840e-05 8.840587029738e-03 0.0 
0.0 0.0 -1.341607717199e-03 
-1.048314093038e-03 -2.082351981232e-04 0.0 
-2.082351981232e-04 7.019832661667e-03 0.0 
0.0 0.0 -1.046710270629e-03 
-1.675301838823e-04 4.109428891396e-05 0.0 
4.109428891396e-05 9.648536059596e-04 0.0 
0.0 0.0 -1.589907658001e-04 
-1.067672517152e-04 -9.583258243013e-06 0.0 
-9.583258243013e-06 6.200113654204e-04 0.0 
0.0 0.0 -1.029725306715e-04 
-1.028842676796e-04 -4.314994342249e-05 0.0 
-4.314994342249e-05 3.453649952318e-04 0.0 
0.0 0.0 -1.039203118081e-04 
-5.871622493136e-04 1.953666188975e-04 0.0 
1.953666188975e-04 3.814212399553e-03 0.0 
0.0 0.0 -5.933358154923e-04 
-1.333672766825e-03 -1.202212504053e-04 0.0 
-1.202212504053e-04 9.086271765214e-03 0.0 
0.0 0.0 -1.322828574513e-03 
-1.249098589656e-03 -2.325383237370e-04 0.0 
-2.325383237370e-04 8.487130897030e-03 0.0 
0.0 0.0 -1.258329778789e-03 
0.0 0.0 0.0 
0.0 0.0 0.0 
0.0 0.0 0.0 
-6.989700289776e-04 -1.857489314676e-04 0.0 
-1.857489314676e-04 4.509333602690e-03 0.0 
0.0 0.0 -6.938761155152e-04 
-1.344798314370e-03 5.494387484636e-06 0.0 
5.494387484636e-06 8.860415151620e-03 0.0 
0.0 0.0 -1.344798314370e-03 
-1.337322942170e-03 3.677431177348e-05 0.0 
3.677431177348e-05 9.118625106116e-03 0.0 
0.0 0.0 -1.318785251170e-03 
-1.303755075695e-03 1.430690451397e-06 0.0 
1.430690451397e-06 9.096198326928e-03 0.0 
0.0 0.0 -1.321151187552e-03 
-1.034449558172e-03 2.142439693304e-04 0.0 
2.142439693304e-04 6.840882471351e-03 0.0 
0.0 0.0 -1.027148381742e-03 
-1.117879717661e-03 -2.162737768218e-04 0.0 
-2.162737768218e-04 7.549121072968e-03 0.0 
0.0 0.0 -1.125709525796e-03 
-1.338030260144e-03 -6.968280175092e-06 0.0 
-6.968280175092e-06 8.819304319896e-03 0.0 
0.0 0.0 -1.338030260144e-03 
-1.340754991027e-03 -2.793160050155e-05 0.0 
-2.793160050155e-05 8.842227493663e-03 0.0 
0.0 0.0 -1.340754991027e-03 
-1.084387157107e-03 1.756228747117e-04 0.0 
1.756228747117e-04 7.304356114432e-03 0.0 
0.0 0.0 -1.092518628633e-03 
-2.311762207506e-05 7.524747598181e-05 0.0 
7.524747598181e-05 1.841595127813e-04 0.0 
0.0 0.0 -4.541545915403e-05 
-7.129930244863e-04 -1.525724794926e-06 0.0 
-1.525724794926e-06 4.814692496190e-03 0.0 
0.0 0.0 -7.139539158865e-04 
-7.213897068280e-04 3.016260299788e-05 0.0 
3.016260299788e-05 4.878464797693e-03 0.0 
0.0 0.0 -7.133642253441e-04 
0.0 0.0 0.0 
0.0 0.0 0.0 
0.0 0.0 0.0 
-1.342313591240e-03 1.055329185635e-05 0.0 
1.055329185635e-05 8.873951644271e-03 0.0 
0.0 0.0 -1.342313591240e-03 
-1.336661786255e-03 2.540411115345e-05 0.0 
2.540411115345e-05 9.107640988403e-03 0.0 
0.0 0.0 -1.318355947622e-03 
-1.337959751097e-03 6.489046299359e-07 0.0 
6.489046299359e-07 8.814031058647e-03 0.0 
0.0 0.0 -1.337959751097e-03 
-6.887950874113e-05 7.326700540917e-06 0.0 
7.326700540917e-06 2.659430667850e-04 0.0 
0.0 0.0 -4.582974829071e-05 
-7.021790639444e-05 9.602649528375e-06 0.0 
9.602649528375e-06 2.736498867396e-04 0.0 
0.0 0.0 -4.591370119938e-05 
-1.340754991027e-03 -1.163411170894e-06 0.0 
-1.163411170894e-06 8.829041487509e-03 0.0 
0.0 0.0 -1.340754991027e-03 
-1.340396196526e-03 -2.044778395464e-05 0.0 
-2.044778395464e-05 8.820055094331e-03 0.0 
0.0 0.0 -1.340396196526e-03 
-1.016763022878e-03 -2.313272643619e-04 0.0 
-2.313272643619e-04 6.613286649783e-03 0.0 
0.0 0.0 -9.936726122374e-04 
-7.156761650400e-04 3.174630435060e-05 0.0 
3.174630435060e-05 4.813106322843e-03 0.0 
0.0 0.0 -7.124851972278e-04 
-1.051691578887e-03 -2.268729750207e-04 0.0 
-2.268729750207e-04 7.069453692283e-03 0.0 
0.0 0.0 -1.060142436171e-03 
-8.856361613045e-04 -2.246794552561e-04 0.0 
-2.246794552561e-04 5.656932423438e-03 0.0 
0.0 0.0 -8.626607521899e-04 
-6.974461573381e-04 1.315776503869e-05 0.0 
1.315776503869e-05 4.815685979733e-03 0.0 
0.0 0.0 -7.121912678902e-04 
-3.076401957545e-05 3.630205513196e-05 0.0 
3.630205513196e-05 2.492584121326e-04 0.0 
0.0 0.0 -4.495577515415e-05 
-4.859098010828e-05 -3.737210181655e-05 0.0 
-3.737210181655e-05 2.860304098853e-04 0.0 
0.0 0.0 -4.591167563965e-05 
-3.185160578265e-05 -1.142237180328e-05 0.0 
-1.142237180328e-05 2.469612253318e-04 0.0 
0.0 0.0 -4.589015575604e-05 
-4.731421252786e-05 -1.226097571205e-05 0.0 
-1.226097571205e-05 2.659450080892e-04 0.0 
0.0 0.0 -4.556578909549e-05 
-7.410966517881e-04 2.317413733405e-04 0.0 
2.317413733405e-04 4.761489269815e-03 0.0 
0.0 0.0 -7.271325101417e-04 
-6.567236663823e-04 2.031409226007e-04 0.0 
2.031409226007e-04 4.278704049819e-03 0.0 
0.0 0.0 -6.600769387058e-04 
0.0 0.0 0.0 
0.0 0.0 0.0 
0.0 0.0 0.0 
-9.198692932468e-04 2.207519103490e-04 0.0 
2.207519103490e-04 6.164531821473e-03 0.0 
0.0 0.0 -9.221709323543e-04 
0.0 0.0 0.0 
0.0 0.0 0.0 
0.0 0.0 0.0 
-1.341471640605e-03 5.425770365484e-06 0.0 
5.425770365484e-06 8.820837432317e-03 0.0 
0.0 0.0 -1.341471640605e-03 
-1.340968685557e-03 1.249741243797e-05 0.0 
1.249741243797e-05 8.807656416615e-03 0.0 
0.0 0.0 -1.340968685557e-03 
-1.339320413496e-03 -6.736119072726e-06 0.0 
-6.736119072726e-06 8.832654043149e-03 0.0 
0.0 0.0 -1.339320413496e-03 
-2.516213945074e-04 2.377641770175e-04 0.0 
2.377641770175e-04 1.477950192533e-03 0.0 
0.0 0.0 -2.599136149544e-04 
-4.499622910387e-04 2.064665423492e-04 0.0 
2.064665423492e-04 2.879856921820e-03 0.0 
0.0 0.0 -4.607467809507e-04 
-1.337132911908e-03 -4.793528436987e-06 0.0 
-4.793528436987e-06 8.820087587172e-03 0.0 
0.0 0.0 -1.337132911908e-03 
-1.120160542764e-03 1.885503644174e-04 0.0 
1.885503644174e-04 7.560722239950e-03 0.0 
0.0 0.0 -1.124956933753e-03 
-1.344556937803e-03 -2.104246713843e-05 0.0 
-2.104246713843e-05 8.860523593132e-03 0.0 
0.0 0.0 -1.344556937803e-03 
-1.195658010449e-03 2.008624552428e-04 0.0 
2.008624552428e-04 8.028011251528e-03 0.0 
0.0 0.0 -1.192538251246e-03 
-1.264541089761e-03 2.315838415429e-04 0.0 
2.315838415429e-04 8.498729307699e-03 0.0 
0.0 0.0 -1.259905836238e-03 
-6.219774932840e-04 -2.035330289392e-04 0.0 
-2.035330289392e-04 4.041759494414e-03 0.0 
0.0 0.0 -6.267460875326e-04 
-1.333336577702e-03 -3.290028368550e-05 0.0 
-3.290028368550e-05 9.106230716714e-03 0.0 
0.0 0.0 -1.318101597465e-03 
-1.336001964470e-03 1.162172730561e-04 0.0 
1.162172730561e-04 9.090958479552e-03 0.0 
0.0 0.0 -1.321689849711e-03 
-1.157015842751e-03 -2.064363215115e-04 0.0 
-2.064363215115e-04 7.737243073859e-03 0.0 
0.0 0.0 -1.157495185000e-03 
-1.229671491752e-03 -2.051129200289e-04 0.0 
-2.051129200289e-04 8.228478437854e-03 0.0 
0.0 0.0 -1.225777420818e-03 
-9.871372975694e-04 -1.866548184672e-04 0.0 
-1.866548184672e-04 6.644402027939e-03 0.0 
0.0 0.0 -9.925156490314e-04 
0.0 0.0 0.0 
0.0 0.0 0.0 
0.0 0.0 0.0 
-6.525071487266e-04 -2.022287068405e-04 0.0 
-2.022287068405e-04 4.165983179946e-03 0.0 
0.0 0.0 -6.350241097613e-04 
-1.062777711570e-04 -2.500028508481e-05 0.0 
-2.500028508481e-05 5.975407209184e-04 0.0 
0.0 0.0 -1.030398215525e-04 
-1.177532662352e-03 -1.733616004669e-04 0.0 
-1.733616004669e-04 7.926724853394e-03 0.0 
0.0 0.0 -1.177819030284e-03 
-6.744770170929e-04 1.928269940394e-04 0.0 
1.928269940394e-04 4.352241427477e-03 0.0 
0.0 0.0 -6.753691525988e-04 
-1.095781442937e-03 1.863762097668e-04 0.0 
1.863762097668e-04 7.297090200674e-03 0.0 
0.0 0.0 -1.099016898379e-03 
-3.528730048210e-04 -1.946361167359e-04 0.0 
-1.946361167359e-04 2.176757571714e-03 0.0 
0.0 0.0 -3.504775146279e-04 
-1.550760112037e-04 1.206598951615e-04 0.0 
1.206598951615e-04 7.508446244136e-04 0.0 
0.0 0.0 -1.735952156319e-04 
-1.160601579575e-03 -1.894710886425e-04 0.0 
-1.894710886425e-04 7.820833929290e-03 0.0 
0.0 0.0 -1.161668299909e-03 
-6.889768412053e-04 -1.975061828768e-04 0.0 
-1.975061828768e-04 4.617261067584e-03 0.0 
0.0 0.0 -7.012080445024e-04 
-5.762009062567e-04 2.005988488918e-04 0.0 
2.005988488918e-04 3.584897669436e-03 0.0 
0.0 0.0 -5.611363230934e-04 
-1.093490207039e-03 -1.909491051748e-04 0.0 
-1.909491051748e-04 7.367841895943e-03 0.0 
0.0 0.0 -1.096102707776e-03 
-1.178635420303e-03 1.949598249273e-04 0.0 
1.949598249273e-04 7.912911661083e-03 0.0 
0.0 0.0 -1.188907866872e-03 
-5.561658818215e-04 -2.031625025719e-04 0.0 
-2.031625025719e-04 3.593153237093e-03 0.0 
0.0 0.0 -5.602736785587e-04 
-1.035403721303e-03 -2.031605927371e-04 0.0 
-2.031605927371e-04 6.949569291118e-03 0.0 
0.0 0.0 -1.035646790376e-03 
-9.180249208977e-04 1.931476710153e-04 0.0 
1.931476710153e-04 6.042341158293e-03 0.0 
0.0 0.0 -9.181742748318e-04 
-9.917755747799e-04 2.023242542686e-04 0.0 
2.023242542686e-04 6.575747416083e-03 0.0 
0.0 0.0 -9.952786863929e-04 
-1.024377024952e-03 1.861972783327e-04 0.0 
1.861972783327e-04 6.794579129447e-03 0.0 
0.0 0.0 -1.024224580100e-03 
-5.802650742356e-04 1.891370522918e-04 0.0 
1.891370522918e-04 3.679117002713e-03 0.0 
0.0 0.0 -5.788817793163e-04 
-6.680148396562e-04 -1.727307713497e-04 0.0 
-1.727307713497e-04 4.367645791481e-03 0.0 
0.0 0.0 -6.651338130661e-04 
-7.292546132971e-04 -1.846826388501e-04 0.0 
-1.846826388501e-04 4.813421317749e-03 0.0 
0.0 0.0 -7.293057621918e-04 
-9.374184943370e-04 1.944757919182e-04 0.0 
1.944757919182e-04 6.178932175003e-03 0.0 
0.0 0.0 -9.378562126457e-04 
-1.124743441142e-03 -2.044895248108e-04 0.0 
-2.044895248108e-04 7.578873023721e-03 0.0 
0.0 0.0 -1.125100902632e-03 
-1.057275381377e-03 1.952239226915e-04 0.0 
1.952239226915e-04 7.019062258927e-03 0.0 
0.0 0.0 -1.053755873404e-03 
-3.652721065736e-04 1.996025403975e-04 0.0 
1.996025403975e-04 2.192815232503e-03 0.0 
0.0 0.0 -3.685493992842e-04 
-1.164581229115e-03 2.188850811810e-04 0.0 
2.188850811810e-04 7.900774321480e-03 0.0 
0.0 0.0 -1.183514100502e-03 
-1.119628239997e-03 2.087348229959e-04 0.0 
2.087348229959e-04 7.433542979005e-03 0.0 
0.0 0.0 -1.117084069417e-03 
-8.143956589139e-04 2.341244742852e-04 0.0 
2.341244742852e-04 5.337741611520e-03 0.0 
0.0 0.0 -8.110481619253e-04 
-9.749777922597e-04 1.939288930454e-04 0.0 
1.939288930454e-04 6.440647276838e-03 0.0 
0.0 0.0 -9.753747863247e-04 
-9.652234430735e-04 1.970752514855e-04 0.0 
1.970752514855e-04 6.378006768513e-03 0.0 
0.0 0.0 -9.665592132828e-04 
-1.194888926874e-03 -2.112261199247e-04 0.0 
-2.112261199247e-04 8.020188826812e-03 0.0 
0.0 0.0 -1.185362187646e-03 
-1.151241251503e-03 1.853138580095e-04 0.0 
1.853138580095e-04 7.714994671460e-03 0.0 
0.0 0.0 -1.150972777267e-03 
-8.863019395197e-04 -1.951602003697e-04 0.0 
-1.951602003697e-04 5.913977900844e-03 0.0 
0.0 0.0 -8.866930489607e-04 
-1.183768845123e-03 -1.944166925086e-04 0.0 
-1.944166925086e-04 8.022430172969e-03 0.0 
0.0 0.0 -1.190872049285e-03 
-1.103203670140e-03 1.932633349998e-04 0.0 
1.932633349998e-04 7.339211362922e-03 0.0 
0.0 0.0 -1.103416240745e-03 
-1.053347130920e-03 -1.808067663282e-04 0.0 
-1.808067663282e-04 7.018991585010e-03 0.0 
0.0 0.0 -1.053748284807e-03 
-1.207301516059e-03 -2.189374092153e-04 0.0 
-2.189374092153e-04 8.148472988394e-03 0.0 
0.0 0.0 -1.210017230578e-03 
-1.183451424094e-03 -2.064186268461e-04 0.0 
-2.064186268461e-04 7.961006455012e-03 0.0 
0.0 0.0 -1.181737430652e-03 
-1.012410866899e-03 -2.064236493359e-04 0.0 
-2.064236493359e-04 6.767125967856e-03 0.0 
0.0 0.0 -1.011817915138e-03 
-9.978825943573e-04 -1.946964301517e-04 0.0 
-1.946964301517e-04 6.692413921007e-03 0.0 
0.0 0.0 -9.985655989919e-04 
-3.618458064176e-04 1.902703540338e-04 0.0 
1.902703540338e-04 2.182295586331e-03 0.0 
0.0 0.0 -3.644364776638e-04 
-3.396688960244e-04 1.922383374584e-04 0.0 
1.922383374584e-04 2.020949841441e-03 0.0 
0.0 0.0 -3.414758422231e-04 
-2.048022796594e-04 -2.337971245160e-04 0.0 
-2.337971245160e-04 1.038657557028e-03 0.0 
0.0 0.0 -1.876370064529e-04 
-1.053265806660e-04 1.589966792157e-06 0.0 
1.589966792157e-06 6.159987105294e-04 0.0 
0.0 0.0 -1.032036840373e-04 
-1.146654591444e-03 -2.036534213010e-04 0.0 
-2.036534213010e-04 7.733548266154e-03 0.0 
0.0 0.0 -1.150998037120e-03 
-1.153371435519e-03 1.929566661377e-04 0.0 
1.929566661377e-04 7.706474852566e-03 0.0 
0.0 0.0 -1.156839719840e-03 
-1.023100123297e-04 6.333767357887e-06 0.0 
6.333767357887e-06 5.922537874641e-04 0.0 
0.0 0.0 -1.029284987275e-04 
-1.152902847458e-03 -1.945944093031e-04 0.0 
-1.945944093031e-04 7.806589318492e-03 0.0 
0.0 0.0 -1.160298666437e-03 
-8.240593874314e-04 2.133386610705e-04 0.0 
2.133386610705e-04 5.515954645069e-03 0.0 
0.0 0.0 -8.436798659344e-04 
-1.063159338098e-03 -2.000353252039e-04 0.0 
-2.000353252039e-04 7.170931875512e-03 0.0 
0.0 0.0 -1.067477449466e-03 
-1.091085119062e-03 1.926591161235e-04 0.0 
1.926591161235e-04 7.245677048731e-03 0.0 
0.0 0.0 -1.090430023688e-03 
-5.083685843408e-04 1.854528112905e-04 0.0 
1.854528112905e-04 3.184990427277e-03 0.0 
0.0 0.0 -5.090628918580e-04 
-1.088419020765e-03 -1.985610050621e-04 0.0 
-1.985610050621e-04 7.308442647816e-03 0.0 
0.0 0.0 -1.087955833448e-03 
-8.052736907314e-04 -2.707602780884e-04 0.0 
-2.707602780884e-04 5.346563189152e-03 0.0 
0.0 0.0 -8.100176300978e-04 
-1.002877096566e-03 -1.976880564896e-04 0.0 
-1.976880564896e-04 6.706443384887e-03 0.0 
0.0 0.0 -1.000388816061e-03 
-1.231169607282e-03 2.234727540430e-04 0.0 
2.234727540430e-04 8.305282306820e-03 0.0 
0.0 0.0 -1.242964905849e-03 
-3.519355017218e-04 1.472413134465e-04 0.0 
1.472413134465e-04 2.089181619658e-03 0.0 
0.0 0.0 -3.542437553904e-04 
-1.221302329282e-03 -1.674357911947e-04 0.0 
-1.674357911947e-04 8.209373583472e-03 0.0 
0.0 0.0 -1.215045542354e-03 
-1.047850802636e-03 -1.881582153281e-04 0.0 
-1.881582153281e-04 7.026769425363e-03 0.0 
0.0 0.0 -1.048288725887e-03 
-3.889604497647e-04 2.037169653349e-04 0.0 
2.037169653349e-04 2.380154464468e-03 0.0 
0.0 0.0 -3.930611257745e-04 
-4.005955795872e-04 -1.795528067479e-04 0.0 
-1.795528067479e-04 2.551679544192e-03 0.0 
0.0 0.0 -4.034900192350e-04 
-7.895600060851e-04 1.993051337404e-04 0.0 
1.993051337404e-04 5.154958880860e-03 0.0 
0.0 0.0 -7.909606353592e-04 
-9.478370252283e-04 2.028022273916e-04 0.0 
2.028022273916e-04 6.213549732246e-03 0.0 
0.0 0.0 -9.409807611877e-04 
-5.389171118930e-04 1.931642811105e-04 0.0 
1.931642811105e-04 3.423254400861e-03 0.0 
0.0 0.0 -5.429771841545e-04 
-1.084906178257e-03 -2.011232363262e-04 0.0 
-2.011232363262e-04 7.274950011924e-03 0.0 
0.0 0.0 -1.085119818393e-03 
-9.758201311387e-04 -2.238948292921e-04 0.0 
-2.238948292921e-04 6.526325342415e-03 0.0 
0.0 0.0 -9.816794289629e-04 
-7.681741524081e-04 1.880175807826e-04 0.0 
1.880175807826e-04 5.011383542904e-03 0.0 
0.0 0.0 -7.700930343086e-04 
-1.026480683520e-03 -1.844900629417e-04 0.0 
-1.844900629417e-04 6.842321728991e-03 0.0 
0.0 0.0 -1.021757709120e-03 
-1.057960421125e-03 -1.998047593287e-04 0.0 
-1.998047593287e-04 7.113469784678e-03 0.0 
0.0 0.0 -1.058696934625e-03 
-1.057942238941e-03 2.175749808768e-04 0.0 
2.175749808768e-04 6.964480207197e-03 0.0 
0.0 0.0 -1.050681058959e-03 
-3.033747618520e-04 -1.838242939413e-04 0.0 
-1.838242939413e-04 1.857406959021e-03 0.0 
0.0 0.0 -3.058749225436e-04 
-7.305418871957e-04 1.869626526336e-04 0.0 
1.869626526336e-04 4.754815575901e-03 0.0 
0.0 0.0 -7.328582426338e-04 
-1.136183616218e-03 2.082876610418e-04 0.0 
2.082876610418e-04 7.610878515336e-03 0.0 
0.0 0.0 -1.141128458404e-03 
-1.078434925953e-03 -1.984149302182e-04 0.0 
-1.984149302182e-04 7.234990828440e-03 0.0 
0.0 0.0 -1.078198857115e-03 
-6.621852882438e-04 2.164713360985e-04 0.0 
2.164713360985e-04 4.271535496369e-03 0.0 
0.0 0.0 -6.666835465145e-04 
-9.149083998474e-04 -1.952760623192e-04 0.0 
-1.952760623192e-04 6.113676858772e-03 0.0 
0.0 0.0 -9.153036164073e-04 
-1.187688204395e-03 -2.025883410103e-04 0.0 
-2.025883410103e-04 8.016876824675e-03 0.0 
0.0 0.0 -1.187586327529e-03 
-1.005326890981e-03 1.902074749802e-04 0.0 
1.902074749802e-04 6.713852212323e-03 0.0 
0.0 0.0 -1.013969106439e-03 
-1.909283182059e-04 -2.134343415579e-04 0.0 
-2.134343415579e-04 9.857203047885e-04 0.0 
0.0 0.0 -1.806728872115e-04 
-1.970147197368e-04 -2.059863142165e-04 0.0 
-2.059863142165e-04 1.002592449070e-03 0.0 
0.0 0.0 -1.835536028976e-04 
-3.515992897123e-04 -1.811957352846e-04 0.0 
-1.811957352846e-04 2.155411981566e-03 0.0 
0.0 0.0 -3.467375663575e-04 
-1.128856114321e-03 2.001566636704e-04 0.0 
2.001566636704e-04 7.510015093798e-03 0.0 
0.0 0.0 -1.127837695838e-03 
-9.816567297486e-04 1.933811921609e-04 0.0 
1.933811921609e-04 6.465198559992e-03 0.0 
0.0 0.0 -9.775003154318e-04 
-8.371572204409e-04 -2.148163729894e-04 0.0 
-2.148163729894e-04 5.710338305934e-03 0.0 
0.0 0.0 -8.513051444990e-04 
-8.730704368828e-04 1.896261582467e-04 0.0 
1.896261582467e-04 5.754508324044e-03 0.0 
0.0 0.0 -8.745614812816e-04 
-1.137329719499e-03 -1.941463340313e-04 0.0 
-1.941463340313e-04 7.669003078820e-03 0.0 
0.0 0.0 -1.139196670502e-03 
-7.981531024245e-04 1.892565346163e-04 0.0 
1.892565346163e-04 5.212239015909e-03 0.0 
0.0 0.0 -7.988714448434e-04 
-1.058279653052e-03 1.954206945734e-04 0.0 
1.954206945734e-04 7.042085544045e-03 0.0 
0.0 0.0 -1.061632825506e-03 
-3.556360797851e-04 -1.825172875801e-04 0.0 
-1.825172875801e-04 2.253382462632e-03 0.0 
0.0 0.0 -3.615122310665e-04 
-1.213390557451e-03 2.397950825144e-04 0.0 
2.397950825144e-04 8.136808344214e-03 0.0 
0.0 0.0 -1.211531131004e-03 
-7.660046426258e-04 -1.986537595937e-04 0.0 
-1.986537595937e-04 5.080766734255e-03 0.0 
0.0 0.0 -7.673127347790e-04 
-3.927767409547e-04 -1.941008242108e-04 0.0 
-1.941008242108e-04 2.469153154105e-03 0.0 
0.0 0.0 -3.889166325194e-04 
-7.314298842455e-04 -2.140562000032e-04 0.0 
-2.140562000032e-04 4.812028074598e-03 0.0 
0.0 0.0 -7.311132045151e-04 
-5.669903072896e-04 1.859979766966e-04 0.0 
1.859979766966e-04 3.622850524897e-03 0.0 
0.0 0.0 -5.716673668464e-04 
-4.441913073698e-04 -1.946929488681e-04 0.0 
-1.946929488681e-04 2.835535865590e-03 0.0 
0.0 0.0 -4.452767020142e-04 
-8.541353571324e-04 1.878201727379e-04 0.0 
1.878201727379e-04 5.598851307335e-03 0.0 
0.0 0.0 -8.564950983273e-04 
0.0 0.0 0.0 
0.0 0.0 0.0 
0.0 0.0 0.0 
0.0 0.0 0.0 
0.0 0.0 0.0 
0.0 0.0 0.0 
-9.633926432213e-04 -1.929125650732e-04 0.0 
-1.929125650732e-04 6.449382072422e-03 0.0 
0.0 0.0 -9.636005660098e-04 
-3.261615758852e-04 -1.754968158783e-04 0.0 
-1.754968158783e-04 2.064243752771e-03 0.0 
0.0 0.0 -3.336449385292e-04 
-9.716625480636e-04 -1.974982736352e-04 0.0 
-1.974982736352e-04 6.511810819199e-03 0.0 
0.0 0.0 -9.724388998541e-04 
-9.434553557208e-04 -1.947776052692e-04 0.0 
-1.947776052692e-04 6.314151919472e-03 0.0 
0.0 0.0 -9.438473481109e-04 
-6.149570530548e-04 1.958377041270e-04 0.0 
1.958377041270e-04 3.946002749694e-03 0.0 
0.0 0.0 -6.177757646845e-04 
-4.134741271649e-04 1.981876295031e-04 0.0 
1.981876295031e-04 2.543324249367e-03 0.0 
0.0 0.0 -4.162223005415e-04 
-1.136715502842e-03 -2.038924191314e-04 0.0 
-2.038924191314e-04 7.650435027918e-03 0.0 
0.0 0.0 -1.137719822027e-03 
-2.155883669570e-04 -8.829356196837e-05 0.0 
-8.829356196837e-05 9.573383583193e-04 0.0 
0.0 0.0 -2.047534254615e-04 
-6.021718484836e-04 1.735627083644e-04 0.0 
1.735627083644e-04 3.837011647565e-03 0.0 
0.0 0.0 -6.004815939294e-04 
-1.172134314024e-03 -1.664552663930e-04 0.0 
-1.664552663930e-04 7.890382462293e-03 0.0 
0.0 0.0 -1.175533656463e-03 
-2.822824235296e-04 1.888682444412e-04 0.0 
1.888682444412e-04 1.684200929602e-03 0.0 
0.0 0.0 -2.977570873278e-04 
-9.136045934539e-04 -1.921452035066e-04 0.0 
-1.921452035066e-04 6.056651557430e-03 0.0 
0.0 0.0 -9.088859120638e-04 
-8.340119380579e-04 -2.228113772719e-04 0.0 
-2.228113772719e-04 5.573887948833e-03 0.0 
0.0 0.0 -8.416286270284e-04 
-2.829330432203e-04 -1.923976084130e-04 0.0 
-1.923976084130e-04 1.716244531209e-03 0.0 
0.0 0.0 -2.842394630762e-04 
-1.159926400282e-03 -1.793893042658e-04 0.0 
-1.793893042658e-04 7.808824689671e-03 0.0 
0.0 0.0 -1.158722036769e-03 
-1.035589941137e-03 -1.985988582849e-04 0.0 
-1.985988582849e-04 6.933992631060e-03 0.0 
0.0 0.0 -1.034898561726e-03 
-3.359494272763e-04 1.786409644777e-04 0.0 
1.786409644777e-04 1.989232140030e-03 0.0 
0.0 0.0 -3.364655670308e-04 
-1.165152170532e-03 -1.849586778466e-04 0.0 
-1.849586778466e-04 7.849581652679e-03 0.0 
0.0 0.0 -1.166520446339e-03 
-1.171818434168e-03 1.701070722775e-04 0.0 
1.701070722775e-04 7.787163600185e-03 0.0 
0.0 0.0 -1.169001632583e-03 
-3.670484435220e-04 -2.062025335132e-04 0.0 
-2.062025335132e-04 2.310354927649e-03 0.0 
0.0 0.0 -3.701904734684e-04 
-4.878019895888e-04 -2.129991852320e-04 0.0 
-2.129991852320e-04 3.076179585064e-03 0.0 
0.0 0.0 -4.801335248058e-04 
-3.784853096696e-04 -1.951915827816e-04 0.0 
-1.951915827816e-04 2.373996755404e-03 0.0 
0.0 0.0 -3.791106726259e-04 
-1.023434568927e-03 -1.955357832441e-04 0.0 
-1.955357832441e-04 6.907952393425e-03 0.0 
0.0 0.0 -1.029923508343e-03 
-8.283537341300e-04 1.907553074044e-04 0.0 
1.907553074044e-04 5.413544228672e-03 0.0 
0.0 0.0 -8.276368238623e-04 
-1.175065292852e-03 1.838008001023e-04 0.0 
1.838008001023e-04 7.798269859187e-03 0.0 
0.0 0.0 -1.169529464977e-03 
-1.141233486497e-03 1.909358973763e-04 0.0 
1.909358973763e-04 7.594915182305e-03 0.0 
0.0 0.0 -1.140030709108e-03 
-9.986353517479e-04 -1.968060563576e-04 0.0 
-1.968060563576e-04 6.710344376514e-03 0.0 
0.0 0.0 -1.001167767022e-03 
-1.002641746751e-03 1.939099816930e-04 0.0 
1.939099816930e-04 6.639482721891e-03 0.0 
0.0 0.0 -1.004093472296e-03 
-3.170641866385e-04 1.974483890405e-04 0.0 
1.974483890405e-04 1.842860083610e-03 0.0 
0.0 0.0 -3.158693332420e-04 
-1.029368673375e-03 1.947386699308e-04 0.0 
1.947386699308e-04 6.837075470330e-03 0.0 
0.0 0.0 -1.032853941699e-03 
-1.038324079738e-03 1.969104416427e-04 0.0 
1.969104416427e-04 6.879456010501e-03 0.0 
0.0 0.0 -1.037144748481e-03 
-8.220289990508e-04 -1.901456335334e-04 0.0 
-1.901456335334e-04 5.481743507948e-03 0.0 
0.0 0.0 -8.248712778174e-04 
-9.784412971014e-04 -1.995967018582e-04 0.0 
-1.995967018582e-04 6.519224964638e-03 0.0 
0.0 0.0 -9.752741834902e-04 
-1.071043316413e-03 -2.014206266275e-04 0.0 
-2.014206266275e-04 7.187990111683e-03 0.0 
0.0 0.0 -1.071415751597e-03 
-7.449992410114e-04 1.900175048328e-04 0.0 
1.900175048328e-04 4.830596508428e-03 0.0 
0.0 0.0 -7.435371925968e-04 
-1.112301323396e-03 1.953318319138e-04 0.0 
1.953318319138e-04 7.388703494557e-03 0.0 
0.0 0.0 -1.110258267496e-03 
-7.048168666414e-04 2.103542029495e-04 0.0 
2.103542029495e-04 4.551180166485e-03 0.0 
0.0 0.0 -6.965171720950e-04 
-7.978310569570e-04 -1.996626955199e-04 0.0 
-1.996626955199e-04 5.282133349968e-03 0.0 
0.0 0.0 -7.960639764766e-04 
-5.335116196934e-04 2.239231297756e-04 0.0 
2.239231297756e-04 3.386453430155e-03 0.0 
0.0 0.0 -5.342291996904e-04 
-5.553576446558e-04 -1.816268034186e-04 0.0 
-1.816268034186e-04 3.628347878161e-03 0.0 
0.0 0.0 -5.581583723280e-04 
-1.010310088917e-03 1.967228699852e-04 0.0 
1.967228699852e-04 6.672709965049e-03 0.0 
0.0 0.0 -1.007339817349e-03 
-7.628577911211e-04 -1.911605880285e-04 0.0 
-1.911605880285e-04 5.057166832743e-03 0.0 
0.0 0.0 -7.637833264599e-04 
-4.056535220845e-04 -1.994601543415e-04 0.0 
-1.994601543415e-04 2.573810220736e-03 0.0 
0.0 0.0 -4.077494273363e-04 
-2.235505229119e-04 -1.665382784812e-04 0.0 
-1.665382784812e-04 1.264629605483e-03 0.0 
0.0 0.0 -2.185673950299e-04 
-1.005369566171e-03 -1.969282844887e-04 0.0 
-1.969282844887e-04 6.726819346583e-03 0.0 
0.0 0.0 -1.005115000480e-03 
-4.096373717980e-04 1.964452207256e-04 0.0 
1.964452207256e-04 2.501615904785e-03 0.0 
0.0 0.0 -4.107160730352e-04 
-1.196795855234e-03 2.010644044309e-04 0.0 
2.010644044309e-04 8.139442919111e-03 0.0 
0.0 0.0 -1.218716866995e-03 
-1.042807145316e-03 1.952121137200e-04 0.0 
1.952121137200e-04 6.924647329534e-03 0.0 
0.0 0.0 -1.043883448597e-03 
-1.067869276877e-03 1.919364052357e-04 0.0 
1.919364052357e-04 7.100655193935e-03 0.0 
0.0 0.0 -1.070373463590e-03 
-1.283006779812e-03 -2.454005743877e-05 0.0 
-2.454005743877e-05 8.441304095904e-03 0.0 
0.0 0.0 -1.284729618418e-03 
-6.611541786482e-04 -2.165377279584e-04 0.0 
-2.165377279584e-04 4.358180230514e-03 0.0 
0.0 0.0 -6.637377122259e-04 
-3.719232158052e-04 1.946095876176e-04 0.0 
1.946095876176e-04 2.237835984063e-03 0.0 
0.0 0.0 -3.731618544808e-04 
-2.509805120976e-04 2.101438879213e-04 0.0 
2.101438879213e-04 1.370179870162e-03 0.0 
0.0 0.0 -2.496210768721e-04 
-1.009272610852e-03 -1.976905948495e-04 0.0 
-1.976905948495e-04 6.773236228030e-03 0.0 
0.0 0.0 -1.009908742814e-03 
-9.502891484141e-04 2.008015227702e-04 0.0 
2.008015227702e-04 6.263291661127e-03 0.0 
0.0 0.0 -9.473489374553e-04 
-1.787867007396e-04 1.721284507091e-04 0.0 
1.721284507091e-04 9.234900215078e-04 0.0 
0.0 0.0 -1.858848441742e-04 
-5.306487836806e-04 -1.980238622702e-04 0.0 
-1.980238622702e-04 3.494279541485e-03 0.0 
0.0 0.0 -5.400474096907e-04 
-3.064883048416e-04 -1.749693241531e-04 0.0 
-1.749693241531e-04 2.001263288358e-03 0.0 
0.0 0.0 -3.246070344129e-04 
-9.392936976825e-04 -1.862704497827e-04 0.0 
-1.862704497827e-04 6.266809515345e-03 0.0 
0.0 0.0 -9.387834224271e-04 
-5.480159981423e-04 -2.100359931436e-04 0.0 
-2.100359931436e-04 3.693369469425e-03 0.0 
0.0 0.0 -5.687878759048e-04 
-9.467150260524e-04 1.924065934846e-04 0.0 
1.924065934846e-04 6.242240235616e-03 0.0 
0.0 0.0 -9.467935652644e-04 
-5.428455294621e-04 -2.085125102257e-04 0.0 
-2.085125102257e-04 3.415670535466e-03 0.0 
0.0 0.0 -5.337555413937e-04 
-1.117346964304e-03 -2.071110090059e-04 0.0 
-2.071110090059e-04 7.492505049919e-03 0.0 
0.0 0.0 -1.114809527198e-03 
-4.745048492879e-04 1.992195964989e-04 0.0 
1.992195964989e-04 2.965213732964e-03 0.0 
0.0 0.0 -4.768663991247e-04 
-1.019084130149e-03 -1.971234603786e-04 0.0 
-1.971234603786e-04 6.834832976306e-03 0.0 
0.0 0.0 -1.018590841688e-03 
-3.372917149944e-04 -1.912349410904e-04 0.0 
-1.912349410904e-04 2.104646860584e-03 0.0 
0.0 0.0 -3.376433569222e-04 
-9.810862783946e-04 -1.972875806497e-04 0.0 
-1.972875806497e-04 6.573374097127e-03 0.0 
0.0 0.0 -9.812220007866e-04 
-7.630262787413e-04 -1.649240710626e-04 0.0 
-1.649240710626e-04 5.040550269951e-03 0.0 
0.0 0.0 -7.604224332210e-04 
-1.040603755793e-03 1.933348900592e-04 0.0 
1.933348900592e-04 6.902261502476e-03 0.0 
0.0 0.0 -1.041555045145e-03 
-5.360677599798e-04 1.876482889455e-04 0.0 
1.876482889455e-04 3.380336319222e-03 0.0 
0.0 0.0 -5.350282927002e-04 
-3.256683131977e-04 2.104859329235e-04 0.0 
2.104859329235e-04 1.909139084910e-03 0.0 
0.0 0.0 -3.277310168338e-04 
-8.709310065230e-04 -1.930857458815e-04 0.0 
-1.930857458815e-04 5.840506173078e-03 0.0 
0.0 0.0 -8.787268422831e-04 
-9.478935846187e-04 -1.922017527602e-04 0.0 
-1.922017527602e-04 6.329496652854e-03 0.0 
0.0 0.0 -9.464297096767e-04 
-6.788789609642e-04 1.916120147782e-04 0.0 
1.916120147782e-04 4.369175427210e-03 0.0 
0.0 0.0 -6.776081642141e-04 
-9.468425740779e-04 -2.085300673065e-04 0.0 
-2.085300673065e-04 6.298374618209e-03 0.0 
0.0 0.0 -9.453210152248e-04 
-3.756080425156e-04 -1.934039556713e-04 0.0 
-1.934039556713e-04 2.352414382127e-03 0.0 
0.0 0.0 -3.758914132629e-04 
-9.664473934007e-04 1.935643871515e-04 0.0 
1.935643871515e-04 6.379409966944e-03 0.0 
0.0 0.0 -9.642804585795e-04 
-3.026576237448e-04 -1.928297610964e-04 0.0 
-1.928297610964e-04 1.798935007683e-03 0.0 
0.0 0.0 -2.947674122297e-04 
-1.153179427147e-03 -2.051549704311e-04 0.0 
-2.051549704311e-04 7.761192827607e-03 0.0 
0.0 0.0 -1.150402778756e-03 
-9.838604339423e-04 -1.907200549992e-04 0.0 
-1.907200549992e-04 6.585836583388e-03 0.0 
0.0 0.0 -9.834711240942e-04 
-1.039448222436e-03 -1.939988089318e-04 0.0 
-1.939988089318e-04 6.961176011231e-03 0.0 
0.0 0.0 -1.037051012011e-03 
-1.209610339595e-03 -2.064055054885e-04 0.0 
-2.064055054885e-04 8.130245976668e-03 0.0 
0.0 0.0 -1.204463612412e-03 
-8.289278457568e-04 -1.937873946282e-04 0.0 
-1.937873946282e-04 5.514638524943e-03 0.0 
0.0 0.0 -8.294769417472e-04 
-3.109821114722e-04 1.906924358187e-04 0.0 
1.906924358187e-04 1.784796369805e-03 0.0 
0.0 0.0 -3.081489256106e-04 
-9.237752216618e-04 -1.945449657842e-04 0.0 
-1.945449657842e-04 6.173770782065e-03 0.0 
0.0 0.0 -9.239488535170e-04 
-1.191042257491e-03 2.067698926501e-04 0.0 
2.067698926501e-04 7.951909524646e-03 0.0 
0.0 0.0 -1.189963100592e-03 
-4.775062598439e-04 -1.845893080325e-04 0.0 
-1.845893080325e-04 3.071724244623e-03 0.0 
0.0 0.0 -4.786098583285e-04 
-1.036708665275e-03 -1.995575756552e-04 0.0 
-1.995575756552e-04 6.972509629402e-03 0.0 
0.0 0.0 -1.038675661098e-03 
-1.042240091366e-03 -2.028158867280e-04 0.0 
-2.028158867280e-04 6.979443732142e-03 0.0 
0.0 0.0 -1.041631482750e-03 
-3.838009065761e-04 1.994121048010e-04 0.0 
1.994121048010e-04 2.344808306372e-03 0.0 
0.0 0.0 -3.880698300753e-04 
-9.524861751472e-04 -1.961707644156e-04 0.0 
-1.961707644156e-04 6.373861031903e-03 0.0 
0.0 0.0 -9.525765839929e-04 
-8.586433483391e-04 -1.931078618343e-04 0.0 
-1.931078618343e-04 5.748348032680e-03 0.0 
0.0 0.0 -8.663127257150e-04 
-4.249902311886e-04 -1.873478746315e-04 0.0 
-1.873478746315e-04 2.710801804411e-03 0.0 
0.0 0.0 -4.280652785065e-04 
-5.063403877371e-04 -1.957595432947e-04 0.0 
-1.957595432947e-04 3.295220362808e-03 0.0 
0.0 0.0 -5.113914792957e-04 
-8.011417777980e-04 -1.869294440003e-04 0.0 
-1.869294440003e-04 5.307962758149e-03 0.0 
0.0 0.0 -8.004334922225e-04 
-1.012906793309e-03 1.927821333669e-04 0.0 
1.927821333669e-04 6.702583928550e-03 0.0 
0.0 0.0 -1.012809740122e-03 
-6.237702296699e-04 -1.788620839172e-04 0.0 
-1.788620839172e-04 4.053757856152e-03 0.0 
0.0 0.0 -6.201901524263e-04 
-7.654836975307e-04 -1.844361479045e-04 0.0 
-1.844361479045e-04 5.061981616524e-03 0.0 
0.0 0.0 -7.649884091348e-04 
-1.002132587578e-03 1.966152402384e-04 0.0 
1.966152402384e-04 6.628701174112e-03 0.0 
0.0 0.0 -1.000670320419e-03 
-9.160037735612e-04 2.105070801011e-04 0.0 
2.105070801011e-04 6.003693375901e-03 0.0 
0.0 0.0 -9.110000341593e-04 
-8.984996443820e-04 1.923871522477e-04 0.0 
1.923871522477e-04 5.918711205323e-03 0.0 
0.0 0.0 -8.984003255416e-04 
-7.635747983665e-04 1.700234808703e-04 0.0 
1.700234808703e-04 4.971193028469e-03 0.0 
0.0 0.0 -7.627602282935e-04 
-1.130358647028e-03 -1.898334947356e-04 0.0 
-1.898334947356e-04 7.609563538776e-03 0.0 
0.0 0.0 -1.130631056169e-03 
-8.949695730274e-04 -1.944201834166e-04 0.0 
-1.944201834166e-04 5.973169188704e-03 0.0 
0.0 0.0 -8.953295484280e-04 
-8.818948229552e-04 -1.808766535772e-04 0.0 
-1.808766535772e-04 5.810855732820e-03 0.0 
0.0 0.0 -8.720525204519e-04 
-1.180322083838e-03 -2.544019696132e-04 0.0 
-2.544019696132e-04 8.044684295215e-03 0.0 
0.0 0.0 -1.193584144721e-03 
-1.074317409630e-03 -2.028987224978e-04 0.0 
-2.028987224978e-04 7.209609754448e-03 0.0 
0.0 0.0 -1.073433710836e-03 
-9.845138767756e-04 1.933324893146e-04 0.0 
1.933324893146e-04 6.502529959442e-03 0.0 
0.0 0.0 -9.841343610905e-04 
-1.074220521467e-03 1.937044770007e-04 0.0 
1.937044770007e-04 7.133220182241e-03 0.0 
0.0 0.0 -1.073677668998e-03 
-5.827062234071e-04 -1.941542500794e-04 0.0 
-1.941542500794e-04 3.817750575136e-03 0.0 
0.0 0.0 -5.862626530914e-04 
-5.447661780291e-04 -1.955268079663e-04 0.0 
-1.955268079663e-04 3.556218869368e-03 0.0 
0.0 0.0 -5.488365039436e-04 
-3.200298242821e-04 -2.008010355195e-04 0.0 
-2.008010355195e-04 1.912733596730e-03 0.0 
0.0 0.0 -3.130684191733e-04 
-9.610361432964e-04 -1.937939784480e-04 0.0 
-1.937939784480e-04 6.432925566233e-03 0.0 
0.0 0.0 -9.612598090090e-04 
-5.730915420071e-04 -1.993284364061e-04 0.0 
-1.993284364061e-04 3.756322275087e-03 0.0 
0.0 0.0 -5.775003002374e-04 
-9.676234080517e-04 -1.978430549766e-04 0.0 
-1.978430549766e-04 6.470709836540e-03 0.0 
0.0 0.0 -9.686535345556e-04 
-9.307775843259e-04 -2.009567450900e-04 0.0 
-2.009567450900e-04 6.218061512745e-03 0.0 
0.0 0.0 -9.322463471790e-04 
-7.694630900906e-04 -1.939675917432e-04 0.0 
-1.939675917432e-04 5.091771385308e-03 0.0 
0.0 0.0 -7.690363516573e-04 
-4.826168522865e-04 1.966675666533e-04 0.0 
1.966675666533e-04 3.022691758794e-03 0.0 
0.0 0.0 -4.860199686152e-04 
-5.166152208989e-04 1.895375761803e-04 0.0 
1.895375761803e-04 3.232772262981e-03 0.0 
0.0 0.0 -5.148587792422e-04 
-5.108840173734e-04 1.960376866878e-04 0.0 
1.960376866878e-04 3.223531247209e-03 0.0 
0.0 0.0 -5.143448975765e-04 
-5.481816317278e-04 1.962623655857e-04 0.0 
1.962623655857e-04 3.484569495256e-03 0.0 
0.0 0.0 -5.517963299543e-04 
-3.453277696027e-04 1.969675537481e-04 0.0 
1.969675537481e-04 2.040898908983e-03 0.0 
0.0 0.0 -3.446931235564e-04 
-1.101052151537e-03 -1.995058256316e-04 0.0 
-1.995058256316e-04 7.411556171306e-03 0.0 
0.0 0.0 -1.101849228970e-03 
-6.632570071378e-04 1.923578636572e-04 0.0 
1.923578636572e-04 4.270077985980e-03 0.0 
0.0 0.0 -6.642957827475e-04 
-1.108318305334e-03 -2.031784349512e-04 0.0 
-2.031784349512e-04 7.443886566257e-03 0.0 
0.0 0.0 -1.107989045227e-03 
-7.011090036509e-04 1.927949869006e-04 0.0 
1.927949869006e-04 4.532588404756e-03 0.0 
0.0 0.0 -7.013039408444e-04 
-9.265731680826e-04 1.957284230982e-04 0.0 
1.957284230982e-04 6.103426765876e-03 0.0 
0.0 0.0 -9.268471029392e-04 
-7.946469523286e-04 1.955747403876e-04 0.0 
1.955747403876e-04 5.185524606882e-03 0.0 
0.0 0.0 -7.951651613512e-04 
-7.572756681298e-04 -1.872685007043e-04 0.0 
-1.872685007043e-04 5.004494979539e-03 0.0 
0.0 0.0 -7.567435594048e-04 
-3.404029927324e-04 -1.917944120495e-04 0.0 
-1.917944120495e-04 2.114741006724e-03 0.0 
0.0 0.0 -3.417109511102e-04 
-1.168366620594e-03 1.821653519024e-04 0.0 
1.821653519024e-04 7.733894625141e-03 0.0 
0.0 0.0 -1.161691925552e-03 
-1.208283455631e-03 -2.138622136652e-04 0.0 
-2.138622136652e-04 8.118515122607e-03 0.0 
0.0 0.0 -1.198716319349e-03 
-9.647894746907e-04 1.840623527821e-04 0.0 
1.840623527821e-04 6.374025584992e-03 0.0 
0.0 0.0 -9.650368815299e-04 
-5.866113351029e-04 1.997061311368e-04 0.0 
1.997061311368e-04 3.745701321029e-03 0.0 
0.0 0.0 -5.892385666867e-04 
-8.606873822814e-04 1.952603744915e-04 0.0 
1.952603744915e-04 5.644314043148e-03 0.0 
0.0 0.0 -8.609535187098e-04 
-9.731621015164e-04 2.042240848124e-04 0.0 
2.042240848124e-04 6.416634786867e-03 0.0 
0.0 0.0 -9.708520278613e-04 
-6.114505218062e-04 -1.970451499323e-04 0.0 
-1.970451499323e-04 4.016656707276e-03 0.0 
0.0 0.0 -6.148791393494e-04 
-6.402153518211e-04 -1.799304007788e-04 0.0 
-1.799304007788e-04 4.195134185683e-03 0.0 
0.0 0.0 -6.394234923164e-04 
-4.756790629450e-04 -1.970276149026e-04 0.0 
-1.970276149026e-04 3.037216567460e-03 0.0 
0.0 0.0 -4.739097840058e-04 
-4.115649622256e-04 -1.881038262712e-04 0.0 
-1.881038262712e-04 2.615008917890e-03 0.0 
0.0 0.0 -4.132304097957e-04 
-6.210949620284e-04 -1.921853512956e-04 0.0 
-1.921853512956e-04 4.079647892730e-03 0.0 
0.0 0.0 -6.236739531379e-04 
-4.389003653302e-04 1.899270358256e-04 0.0 
1.899270358256e-04 2.702990318359e-03 0.0 
0.0 0.0 -4.393534411964e-04 
-3.957050609939e-04 -2.005038904366e-04 0.0 
-2.005038904366e-04 2.512628569390e-03 0.0 
0.0 0.0 -3.988888273503e-04 
-7.912937221892e-04 -1.931036918808e-04 0.0 
-1.931036918808e-04 5.255690323409e-03 0.0 
0.0 0.0 -7.922809795675e-04 
-9.555190717992e-04 1.953941988256e-04 0.0 
1.953941988256e-04 6.303135181036e-03 0.0 
0.0 0.0 -9.554846610150e-04 
-1.131935364223e-03 1.749369794293e-04 0.0 
1.749369794293e-04 7.516475401832e-03 0.0 
0.0 0.0 -1.128610778606e-03 
-7.677587316374e-05 5.132629422675e-05 0.0 
5.132629422675e-05 2.950272314679e-04 0.0 
0.0 0.0 -4.808883996072e-05 
-6.821273879062e-04 1.885153294960e-04 0.0 
1.885153294960e-04 4.394625922574e-03 0.0 
0.0 0.0 -6.818868151028e-04 
-6.732798359077e-04 1.896419879915e-04 0.0 
1.896419879915e-04 4.334337175818e-03 0.0 
0.0 0.0 -6.732431144785e-04 
-6.253359345237e-04 1.966841986601e-04 0.0 
1.966841986601e-04 4.007688208335e-03 0.0 
0.0 0.0 -6.268095852860e-04 
-9.342352764228e-04 1.992757766658e-04 0.0 
1.992757766658e-04 6.164738867849e-03 0.0 
0.0 0.0 -9.344164207832e-04 
-7.286499736730e-04 1.960851222301e-04 0.0 
1.960851222301e-04 4.727094990714e-03 0.0 
0.0 0.0 -7.295442444478e-04 
-5.028967805497e-04 2.032690915997e-04 0.0 
2.032690915997e-04 3.169465929495e-03 0.0 
0.0 0.0 -5.055050897130e-04 
-6.594115462037e-04 -1.877379034349e-04 0.0 
-1.877379034349e-04 4.343026444268e-03 0.0 
0.0 0.0 -6.611654675676e-04 
-1.086852433707e-03 1.972393602690e-04 0.0 
1.972393602690e-04 7.180508805687e-03 0.0 
0.0 0.0 -1.080452943103e-03 
-5.134906191046e-04 -1.975407525199e-04 0.0 
-1.975407525199e-04 3.241783811479e-03 0.0 
0.0 0.0 -5.025663706543e-04 
-2.068765507079e-04 1.780811299395e-04 0.0 
1.780811299395e-04 1.103158600140e-03 0.0 
0.0 0.0 -2.132551421006e-04 
-2.821446593327e-04 1.850947824845e-04 0.0 
1.850947824845e-04 1.595379339776e-03 0.0 
0.0 0.0 -2.784575373548e-04 
-4.423162808512e-04 1.966617048386e-04 0.0 
1.966617048386e-04 2.737975260110e-03 0.0 
0.0 0.0 -4.444240490352e-04 
-5.210766744925e-04 1.945752899052e-04 0.0 
1.945752899052e-04 3.285513932228e-03 0.0 
0.0 0.0 -5.239304829885e-04 
-7.103179674584e-04 1.937608556774e-04 0.0 
1.937608556774e-04 4.594082704701e-03 0.0 
0.0 0.0 -7.099160536912e-04 
-6.974191009827e-04 -1.859522295004e-04 0.0 
-1.859522295004e-04 4.604175499566e-03 0.0 
0.0 0.0 -6.984076724203e-04 
-3.111089899344e-04 -2.166751455614e-04 0.0 
-2.166751455614e-04 1.884393958953e-03 0.0 
0.0 0.0 -3.092759564244e-04 
-2.948433446490e-04 -2.106961415148e-04 0.0 
-2.106961415148e-04 1.651650768654e-03 0.0 
0.0 0.0 -2.765202162382e-04 
-9.029473964606e-04 -2.318038937515e-04 0.0 
-2.318038937515e-04 5.899437226641e-03 0.0 
0.0 0.0 -8.885078876198e-04 
-4.353328022797e-04 -2.074729337185e-04 0.0 
-2.074729337185e-04 2.774644133328e-03 0.0 
0.0 0.0 -4.363975895258e-04 
-1.066115861838e-03 1.923323182630e-04 0.0 
1.923323182630e-04 7.082058213666e-03 0.0 
0.0 0.0 -1.067401112627e-03 
-1.093430528172e-03 1.859529625014e-04 0.0 
1.859529625014e-04 7.265648937776e-03 0.0 
0.0 0.0 -1.093380752811e-03 
-9.055761456836e-04 -1.909848796465e-04 0.0 
-1.909848796465e-04 6.010442057108e-03 0.0 
0.0 0.0 -9.013836717722e-04 
-1.127393681638e-03 1.896887369254e-04 0.0 
1.896887369254e-04 7.503433377312e-03 0.0 
0.0 0.0 -1.126084317643e-03 
-1.155463123535e-03 1.744033292086e-04 0.0 
1.744033292086e-04 7.751673747269e-03 0.0 
0.0 0.0 -1.164310864388e-03 
-7.420687839785e-04 -1.936328330324e-04 0.0 
-1.936328330324e-04 4.896453187980e-03 0.0 
0.0 0.0 -7.408850503417e-04 
-1.028946225618e-03 1.859237494966e-04 0.0 
1.859237494966e-04 6.817745899264e-03 0.0 
0.0 0.0 -1.029042339204e-03 
-3.444765648254e-04 -1.889029113480e-04 0.0 
-1.889029113480e-04 2.157321474185e-03 0.0 
0.0 0.0 -3.474733517438e-04 
-6.874756161390e-04 -1.926159426764e-04 0.0 
-1.926159426764e-04 4.537720382930e-03 0.0 
0.0 0.0 -6.894573431515e-04 
-6.898061862194e-04 1.857511077275e-04 0.0 
1.857511077275e-04 4.440388507088e-03 0.0 
0.0 0.0 -6.879681371099e-04 
-4.019279772504e-04 1.778728342644e-04 0.0 
1.778728342644e-04 2.433102799940e-03 0.0 
0.0 0.0 -3.974404770784e-04 
-2.808996377464e-04 -1.954566177411e-04 0.0 
-1.954566177411e-04 1.711546538442e-03 0.0 
0.0 0.0 -2.813757158202e-04 
-5.769851111882e-04 1.945968129496e-04 0.0 
1.945968129496e-04 3.685550638925e-03 0.0 
0.0 0.0 -5.804062017457e-04 
-6.698465200997e-04 -1.848151346019e-04 0.0 
-1.848151346019e-04 4.407215399786e-03 0.0 
0.0 0.0 -6.703429011759e-04 
-7.069533997817e-04 -1.864555130785e-04 0.0 
-1.864555130785e-04 4.664424843705e-03 0.0 
0.0 0.0 -7.070647534220e-04 
-4.705619805672e-04 1.797584254587e-04 0.0 
1.797584254587e-04 2.905608131468e-03 0.0 
0.0 0.0 -4.680152132766e-04 
-7.664680765081e-04 1.944574444010e-04 0.0 
1.944574444010e-04 4.988010799345e-03 0.0 
0.0 0.0 -7.666177146937e-04 
-6.793079833930e-04 -1.842955306638e-04 0.0 
-1.842955306638e-04 4.467105658874e-03 0.0 
0.0 0.0 -6.790125122095e-04 
-7.192535587873e-04 1.886174479633e-04 0.0 
1.886174479633e-04 4.651675493154e-03 0.0 
0.0 0.0 -7.183521444552e-04 
-5.167516635029e-04 -1.889877885738e-04 0.0 
-1.889877885738e-04 3.361424050145e-03 0.0 
0.0 0.0 -5.205443542100e-04 
-9.916854113120e-04 -1.973034417571e-04 0.0 
-1.973034417571e-04 6.645632539252e-03 0.0 
0.0 0.0 -9.921115096417e-04 
-1.000725886826e-03 -2.001881518317e-04 0.0 
-2.001881518317e-04 6.682457666445e-03 0.0 
0.0 0.0 -9.984673180476e-04 
-6.910740697018e-04 1.869291771832e-04 0.0 
1.869291771832e-04 4.454330638785e-03 0.0 
0.0 0.0 -6.904379518788e-04 
-1.131075422052e-03 1.930354118908e-04 0.0 
1.930354118908e-04 7.540452433703e-03 0.0 
0.0 0.0 -1.133495712197e-03 
-3.818178823842e-04 -1.881304660734e-04 0.0 
-1.881304660734e-04 2.417279904182e-03 0.0 
0.0 0.0 -3.849690761666e-04 
-1.204919198583e-03 2.055908933390e-04 0.0 
2.055908933390e-04 8.107807864514e-03 0.0 
0.0 0.0 -1.208505026952e-03 
-7.381856154466e-04 1.951283212295e-04 0.0 
1.951283212295e-04 4.788651758778e-03 0.0 
0.0 0.0 -7.381355003807e-04 
-1.179893914325e-03 2.326195910896e-04 0.0 
2.326195910896e-04 8.057192319457e-03 0.0 
0.0 0.0 -1.203459118631e-03 
-9.174882615910e-04 -1.900236548234e-04 0.0 
-1.900236548234e-04 6.103327033778e-03 0.0 
0.0 0.0 -9.144069900286e-04 
-3.759838339719e-04 1.980975432100e-04 0.0 
1.980975432100e-04 2.280850535288e-03 0.0 
0.0 0.0 -3.788569260404e-04 
-9.329446838714e-04 -1.934956866743e-04 0.0 
-1.934956866743e-04 6.203824333692e-03 0.0 
0.0 0.0 -9.292863832265e-04 
-1.148316362968e-03 1.911406139228e-04 0.0 
1.911406139228e-04 7.656686617329e-03 0.0 
0.0 0.0 -1.148369591821e-03 
-7.751955477395e-04 1.935539670278e-04 0.0 
1.935539670278e-04 5.048248374235e-03 0.0 
0.0 0.0 -7.747733155264e-04 
-5.636121724150e-04 -1.856060269500e-04 0.0 
-1.856060269500e-04 3.652721039859e-03 0.0 
0.0 0.0 -5.621395992319e-04 
-9.592421645063e-04 -1.953589560094e-04 0.0 
-1.953589560094e-04 6.397497054977e-03 0.0 
0.0 0.0 -9.572423940436e-04 
-7.410203931500e-04 1.888947749690e-04 0.0 
1.888947749690e-04 4.805195564350e-03 0.0 
0.0 0.0 -7.402445244775e-04 
-3.049241937385e-04 2.026327067246e-04 0.0 
2.026327067246e-04 1.807680481835e-03 0.0 
0.0 0.0 -3.123079531677e-04 
-1.247303547099e-03 2.054291781832e-04 0.0 
2.054291781832e-04 8.428743189038e-03 0.0 
0.0 0.0 -1.259077240559e-03 
-2.832321787005e-04 2.033440710739e-04 0.0 
2.033440710739e-04 1.568411261078e-03 0.0 
0.0 0.0 -2.747754844540e-04 
-1.180725818141e-03 -1.959284539653e-04 0.0 
-1.959284539653e-04 8.086063063664e-03 0.0 
0.0 0.0 -1.194426649262e-03 
-1.181044415914e-03 1.885702677114e-04 0.0 
1.885702677114e-04 7.848025462359e-03 0.0 
0.0 0.0 -1.175981821618e-03 
-1.019774229423e-03 -1.968009652079e-04 0.0 
-1.968009652079e-04 6.844195853493e-03 0.0 
0.0 0.0 -1.020516803968e-03 
-9.063963003822e-04 2.216702355021e-04 0.0 
2.216702355021e-04 5.948302852210e-03 0.0 
0.0 0.0 -9.041796124736e-04 
-1.096159842107e-03 -2.041353887512e-04 0.0 
-2.041353887512e-04 7.354511593932e-03 0.0 
0.0 0.0 -1.094228678348e-03 
-7.158215028595e-04 -1.849822212151e-04 0.0 
-1.849822212151e-04 4.721957550486e-03 0.0 
0.0 0.0 -7.154996274706e-04 
-8.342688439829e-04 -1.960354733344e-04 0.0 
-1.960354733344e-04 5.542507863884e-03 0.0 
0.0 0.0 -8.337527902170e-04 
-1.179248762261e-03 1.915113563363e-04 0.0 
1.915113563363e-04 7.953436829066e-03 0.0 
0.0 0.0 -1.191782302182e-03 
-1.022355738208e-03 1.947903411638e-04 0.0 
1.947903411638e-04 6.764095762216e-03 0.0 
0.0 0.0 -1.021464098896e-03 
-1.029803380413e-03 -1.995345647328e-04 0.0 
-1.995345647328e-04 6.892395198165e-03 0.0 
0.0 0.0 -1.028225029406e-03 
-9.800703698298e-04 2.033610077795e-04 0.0 
2.033610077795e-04 6.469215121367e-03 0.0 
0.0 0.0 -9.780777104595e-04 
-3.460311380533e-04 1.949105016325e-04 0.0 
1.949105016325e-04 2.083431817991e-03 0.0 
0.0 0.0 -3.505936111242e-04 
-1.056998258985e-03 -2.024071474235e-04 0.0 
-2.024071474235e-04 7.098571223248e-03 0.0 
0.0 0.0 -1.057861461704e-03 
-1.245215734681e-03 -2.948889405543e-06 0.0 
-2.948889405543e-06 8.708064260567e-03 0.0 
0.0 0.0 -1.268085107495e-03 
-1.199968332554e-03 2.184447548860e-04 0.0 
2.184447548860e-04 8.021680446852e-03 0.0 
0.0 0.0 -1.202195648613e-03 
-6.908555778158e-04 1.952647486752e-04 0.0 
1.952647486752e-04 4.467406980685e-03 0.0 
0.0 0.0 -6.923681691211e-04 
-8.989504497264e-04 -2.030487714899e-04 0.0 
-2.030487714899e-04 5.998411166372e-03 0.0 
0.0 0.0 -9.020111041354e-04 
-8.706850616849e-04 2.163039302349e-04 0.0 
2.163039302349e-04 5.704755713039e-03 0.0 
0.0 0.0 -8.677534307045e-04 
-7.350398663415e-04 -1.921852650881e-04 0.0 
-1.921852650881e-04 4.858429528850e-03 0.0 
0.0 0.0 -7.352749011056e-04 
-9.925381973485e-04 1.968648573770e-04 0.0 
1.968648573770e-04 6.563559215451e-03 0.0 
0.0 0.0 -9.927925938930e-04 
-1.029028532084e-03 1.960911717032e-04 0.0 
1.960911717032e-04 6.822296250893e-03 0.0 
0.0 0.0 -1.030113165296e-03 
-2.401332151859e-04 -2.098625103455e-04 0.0 
-2.098625103455e-04 1.444865681486e-03 0.0 
0.0 0.0 -2.466400652194e-04 
-4.534206567438e-04 1.915983849915e-04 0.0 
1.915983849915e-04 2.786638049384e-03 0.0 
0.0 0.0 -4.508272210452e-04 
-7.276651503282e-04 1.887396446790e-04 0.0 
1.887396446790e-04 4.711996878728e-03 0.0 
0.0 0.0 -7.269793770173e-04 
-6.885109501689e-04 -1.881460235649e-04 0.0 
-1.881460235649e-04 4.526125077483e-03 0.0 
0.0 0.0 -6.875569550717e-04 
-7.327380615621e-04 1.893031023786e-04 0.0 
1.893031023786e-04 4.746976141071e-03 0.0 
0.0 0.0 -7.320784846625e-04 
-1.207414471784e-03 -1.921627464004e-04 0.0 
-1.921627464004e-04 8.251115158096e-03 0.0 
0.0 0.0 -1.225426844749e-03 
-1.165911235799e-03 1.728266951446e-04 0.0 
1.728266951446e-04 7.751919212480e-03 0.0 
0.0 0.0 -1.162686153705e-03 
-1.174125183305e-03 -1.966474411142e-04 0.0 
-1.966474411142e-04 7.895985343999e-03 0.0 
0.0 0.0 -1.173632101657e-03 
-6.588438363322e-04 -1.812037125043e-04 0.0 
-1.812037125043e-04 4.301364332342e-03 0.0 
0.0 0.0 -6.556197767577e-04 
-1.082747471146e-03 1.891035132956e-04 0.0 
1.891035132956e-04 7.201407994731e-03 0.0 
0.0 0.0 -1.082713561900e-03 
-9.901836726999e-04 -1.945402384493e-04 0.0 
-1.945402384493e-04 6.633588115461e-03 0.0 
0.0 0.0 -9.899156953211e-04 
-1.203900706285e-03 2.001643692101e-04 0.0 
2.001643692101e-04 8.020307122063e-03 0.0 
0.0 0.0 -1.198415070424e-03 
-1.018917370980e-03 -2.029360126540e-04 0.0 
-2.029360126540e-04 6.841232066874e-03 0.0 
0.0 0.0 -1.021631336281e-03 
-7.252862927281e-04 -1.917571483022e-04 0.0 
-1.917571483022e-04 4.797885526737e-03 0.0 
0.0 0.0 -7.266350563285e-04 
-6.996186826149e-04 1.874149340260e-04 0.0 
1.874149340260e-04 4.515630015583e-03 0.0 
0.0 0.0 -6.989458521267e-04 
-1.062701287971e-03 1.919893444833e-04 0.0 
1.919893444833e-04 7.044103527011e-03 0.0 
0.0 0.0 -1.060111126929e-03 
-1.159236038185e-03 -2.100410646672e-04 0.0 
-2.100410646672e-04 7.815649065545e-03 0.0 
0.0 0.0 -1.160283895044e-03 
-1.068044840095e-03 1.975027097548e-04 0.0 
1.975027097548e-04 7.089380260529e-03 0.0 
0.0 0.0 -1.066842251349e-03 
-1.033322736071e-03 1.952546159751e-04 0.0 
1.952546159751e-04 6.838585495745e-03 0.0 
0.0 0.0 -1.030428295937e-03 
-1.127957771235e-03 2.034159333983e-04 0.0 
2.034159333983e-04 7.486625778373e-03 0.0 
0.0 0.0 -1.124756152480e-03 
-1.155677614868e-03 -1.983866149799e-04 0.0 
-1.983866149799e-04 7.868967508162e-03 0.0 
0.0 0.0 -1.167530213646e-03 
-1.094507555949e-03 1.976519323401e-04 0.0 
1.976519323401e-04 7.281086392671e-03 0.0 
0.0 0.0 -1.096139997395e-03 
-8.893531318376e-04 1.947803294654e-04 0.0 
1.947803294654e-04 5.843023406601e-03 0.0 
0.0 0.0 -8.895595506239e-04 
-6.419372915529e-04 1.659854799663e-04 0.0 
1.659854799663e-04 4.112940198776e-03 0.0 
0.0 0.0 -6.419897747600e-04 
-1.057958817333e-03 -1.915382936823e-04 0.0 
-1.915382936823e-04 7.093836536897e-03 0.0 
0.0 0.0 -1.057160997780e-03 
-1.010397126926e-03 1.924777478121e-04 0.0 
1.924777478121e-04 6.699973834187e-03 0.0 
0.0 0.0 -1.010795753303e-03 
-4.010552004861e-04 1.841654314205e-04 0.0 
1.841654314205e-04 2.442507368575e-03 0.0 
0.0 0.0 -4.018221946533e-04 
-7.246063133898e-04 -1.880612964647e-04 0.0 
-1.880612964647e-04 4.782342909510e-03 0.0 
0.0 0.0 -7.241222962603e-04 
-8.198364604857e-04 1.863931235936e-04 0.0 
1.863931235936e-04 5.353653336719e-03 0.0 
0.0 0.0 -8.193994707270e-04 
-8.991995514688e-04 -1.967035222148e-04 0.0 
-1.967035222148e-04 5.995025760983e-03 0.0 
0.0 0.0 -8.986564694586e-04 
-4.050243053020e-04 1.994613475966e-04 0.0 
1.994613475966e-04 2.469637685563e-03 0.0 
0.0 0.0 -4.057256964758e-04 
-6.967689891126e-04 -1.888281546421e-04 0.0 
-1.888281546421e-04 4.585730407348e-03 0.0 
0.0 0.0 -6.962026719631e-04 
-9.643194553962e-04 -1.980704148002e-04 0.0 
-1.980704148002e-04 6.448875351116e-03 0.0 
0.0 0.0 -9.636952012155e-04 
-7.333735645701e-04 1.825225121088e-04 0.0 
1.825225121088e-04 4.734280668460e-03 0.0 
0.0 0.0 -7.294090860402e-04 
-7.570403720068e-04 1.947967854262e-04 0.0 
1.947967854262e-04 4.925685443404e-03 0.0 
0.0 0.0 -7.579899565569e-04 
-9.487659951765e-04 -2.043170517301e-04 0.0 
-2.043170517301e-04 6.373556266418e-03 0.0 
0.0 0.0 -9.556638187253e-04 
-7.610430462996e-04 1.745184878599e-04 0.0 
1.745184878599e-04 5.044670069107e-03 0.0 
0.0 0.0 -7.638029664831e-04 
-1.838096952562e-04 2.082695791091e-04 0.0 
2.082695791091e-04 7.724611367138e-04 0.0 
0.0 0.0 -1.578647551136e-04 
-8.576241388509e-04 -1.943288446579e-04 0.0 
-1.943288446579e-04 5.714280224429e-03 0.0 
0.0 0.0 -8.580817703278e-04 
-1.051194806149e-03 1.905396044606e-04 0.0 
1.905396044606e-04 6.972468322912e-03 0.0 
0.0 0.0 -1.051835763028e-03 
-1.194223105728e-03 2.022847639454e-04 0.0 
2.022847639454e-04 8.008401190618e-03 0.0 
0.0 0.0 -1.196871286280e-03 
-8.007996408172e-04 1.886044981360e-04 0.0 
1.886044981360e-04 5.220729595959e-03 0.0 
0.0 0.0 -7.999758813884e-04 
-8.231738978703e-04 1.954670675703e-04 0.0 
1.954670675703e-04 5.384433434041e-03 0.0 
0.0 0.0 -8.237210115815e-04 
-9.659298580920e-04 -1.974560001278e-04 0.0 
-1.974560001278e-04 6.432078237772e-03 0.0 
0.0 0.0 -9.620958722924e-04 
-2.561485936918e-04 2.198683939719e-04 0.0 
2.198683939719e-04 1.251380499118e-03 0.0 
0.0 0.0 -2.247161217206e-04 
-1.023132414130e-03 1.887327440293e-04 0.0 
1.887327440293e-04 6.775332410064e-03 0.0 
0.0 0.0 -1.023361637732e-03 
-8.622181034216e-04 -1.951138773542e-04 0.0 
-1.951138773542e-04 5.740266887697e-03 0.0 
0.0 0.0 -8.619475031456e-04 
-7.647880329061e-04 -1.862411199868e-04 0.0 
-1.862411199868e-04 5.038541863179e-03 0.0 
0.0 0.0 -7.615729788896e-04 
-1.027082371763e-03 -1.922014268246e-04 0.0 
-1.922014268246e-04 6.892038875610e-03 0.0 
0.0 0.0 -1.027225276160e-03 
-3.935518598362e-04 -1.714817472149e-04 0.0 
-1.714817472149e-04 2.494688902106e-03 0.0 
0.0 0.0 -3.946419382404e-04 
-1.063411595146e-03 -1.940895073896e-04 0.0 
-1.940895073896e-04 7.151260433919e-03 0.0 
0.0 0.0 -1.064556537081e-03 
-1.170769687049e-03 1.998990496914e-04 0.0 
1.998990496914e-04 7.807167189230e-03 0.0 
0.0 0.0 -1.170878753521e-03 
-9.957874322238e-04 1.860819940759e-04 0.0 
1.860819940759e-04 6.577964668805e-03 0.0 
0.0 0.0 -9.948919501216e-04 
-1.066802879167e-03 -1.994715727017e-04 0.0 
-1.994715727017e-04 7.144842154603e-03 0.0 
0.0 0.0 -1.064574987933e-03 
-1.080893362265e-03 -2.009448288779e-04 0.0 
-2.009448288779e-04 7.278345089593e-03 0.0 
0.0 0.0 -1.082686220397e-03 
-1.164339334361e-03 -2.029535809835e-04 0.0 
-2.029535809835e-04 7.872490943299e-03 0.0 
0.0 0.0 -1.168035910845e-03 
-3.299141803929e-04 2.316983388685e-04 0.0 
2.316983388685e-04 1.731538717207e-03 0.0 
0.0 0.0 -2.917408095836e-04 
-9.904023149971e-04 -1.959122471391e-04 0.0 
-1.959122471391e-04 6.637118298013e-03 0.0 
0.0 0.0 -9.919185416031e-04 
-1.168730602385e-03 -1.909886301281e-04 0.0 
-1.909886301281e-04 7.900162167174e-03 0.0 
0.0 0.0 -1.173906618061e-03 
-1.099721820410e-03 1.948899321208e-04 0.0 
1.948899321208e-04 7.299287446510e-03 0.0 
0.0 0.0 -1.096489272820e-03 
-9.304220125415e-04 1.873101926856e-04 0.0 
1.873101926856e-04 6.124362452359e-03 0.0 
0.0 0.0 -9.297700869391e-04 
-7.330744366569e-04 -1.923064886364e-04 0.0 
-1.923064886364e-04 4.838398720579e-03 0.0 
0.0 0.0 -7.325247082200e-04 
-8.060696050279e-04 1.870863771178e-04 0.0 
1.870863771178e-04 5.268149186535e-03 0.0 
0.0 0.0 -8.069452076110e-04 
-2.418248245405e-04 2.109020271233e-04 0.0 
2.109020271233e-04 1.359709000534e-03 0.0 
0.0 0.0 -2.482170483719e-04 
-1.134273257583e-03 1.988705509170e-04 0.0 
1.988705509170e-04 7.550007886780e-03 0.0 
0.0 0.0 -1.132911322290e-03 
-4.274524748729e-04 1.964334948294e-04 0.0 
1.964334948294e-04 2.645397720372e-03 0.0 
0.0 0.0 -4.309687334850e-04 
-3.881418594362e-04 1.833155679551e-04 0.0 
1.833155679551e-04 2.160044348329e-03 0.0 
0.0 0.0 -3.582286249851e-04 
-1.052002855886e-03 -1.883464211934e-04 0.0 
-1.883464211934e-04 7.074906707182e-03 0.0 
0.0 0.0 -1.054483161448e-03 
-1.207081545900e-03 1.915242773209e-04 0.0 
1.915242773209e-04 8.072287243083e-03 0.0 
0.0 0.0 -1.206783194404e-03 
-3.547804392101e-04 -1.807868565668e-04 0.0 
-1.807868565668e-04 2.226917608771e-03 0.0 
0.0 0.0 -3.573182248098e-04 
-8.366419951608e-04 -1.885488255625e-04 0.0 
-1.885488255625e-04 5.554595282055e-03 0.0 
0.0 0.0 -8.358581584049e-04 
-1.023802301552e-03 1.940941463559e-04 0.0 
1.940941463559e-04 6.787907294573e-03 0.0 
0.0 0.0 -1.023814440555e-03 
-7.829083596588e-04 -1.954293300844e-04 0.0 
-1.954293300844e-04 5.194152372337e-03 0.0 
0.0 0.0 -7.840072721007e-04 
-4.010673323253e-04 -1.915498976051e-04 0.0 
-1.915498976051e-04 2.542328077149e-03 0.0 
0.0 0.0 -4.027365510179e-04 
-5.321744599270e-04 1.883621527590e-04 0.0 
1.883621527590e-04 3.333505553591e-03 0.0 
0.0 0.0 -5.292697486782e-04 
-2.639771075776e-04 1.646102614642e-04 0.0 
1.646102614642e-04 1.613590548762e-03 0.0 
0.0 0.0 -2.862163191752e-04 
-3.553659692625e-04 1.943928252887e-04 0.0 
1.943928252887e-04 2.154693693141e-03 0.0 
0.0 0.0 -3.608158092454e-04 
-3.249476260035e-04 1.935471720910e-04 0.0 
1.935471720910e-04 1.899890607766e-03 0.0 
0.0 0.0 -3.238926756799e-04 
-8.653379371192e-04 1.875602502825e-04 0.0 
1.875602502825e-04 5.671952828596e-03 0.0 
0.0 0.0 -8.647910268431e-04 
-1.297827382279e-03 4.785112367273e-06 0.0 
4.785112367273e-06 9.109555355960e-03 0.0 
0.0 0.0 -1.324146187826e-03 
-4.467143920627e-04 1.726574000164e-04 0.0 
1.726574000164e-04 2.617142877359e-03 0.0 
0.0 0.0 -4.244337567297e-04 
-1.156016819955e-03 1.914756519666e-04 0.0 
1.914756519666e-04 7.686772050836e-03 0.0 
0.0 0.0 -1.153422328581e-03 
-6.441918423609e-04 1.888512827499e-04 0.0 
1.888512827499e-04 4.126863023303e-03 0.0 
0.0 0.0 -6.430507458085e-04 
-9.827241532880e-04 -2.074075714334e-04 0.0 
-2.074075714334e-04 6.589898560790e-03 0.0 
0.0 0.0 -9.856407671940e-04 
-3.167090590366e-04 1.983492302007e-04 0.0 
1.983492302007e-04 1.826080605665e-03 0.0 
0.0 0.0 -3.129386394028e-04 
-1.211080746195e-03 -1.918872231890e-04 0.0 
-1.918872231890e-04 8.120902711811e-03 0.0 
0.0 0.0 -1.206759618350e-03 
-3.103668027408e-04 -1.740204278261e-04 0.0 
-1.740204278261e-04 1.967988296131e-03 0.0 
0.0 0.0 -3.202688159031e-04 
-4.904887743195e-04 1.972396724306e-04 0.0 
1.972396724306e-04 3.115116694861e-03 0.0 
0.0 0.0 -4.995972236199e-04 
-1.033982221523e-03 1.864504257492e-04 0.0 
1.864504257492e-04 6.836114975340e-03 0.0 
0.0 0.0 -1.031547093314e-03 
-7.437947252400e-04 -1.892750744378e-04 0.0 
-1.892750744378e-04 4.914077369227e-03 0.0 
0.0 0.0 -7.436172176343e-04 
-1.132860593058e-03 -1.933960126786e-04 0.0 
-1.933960126786e-04 7.665930668868e-03 0.0 
0.0 0.0 -1.139062866688e-03 
-5.749455652610e-04 -1.941924528230e-04 0.0 
-1.941924528230e-04 3.751246786669e-03 0.0 
0.0 0.0 -5.762899171568e-04 
-1.046111348023e-03 -1.920749274325e-04 0.0 
-1.920749274325e-04 7.006833931181e-03 0.0 
0.0 0.0 -1.044446328659e-03 
-1.179461128015e-03 1.956649310083e-04 0.0 
1.956649310083e-04 7.993560630903e-03 0.0 
0.0 0.0 -1.198892520503e-03 
-9.969097330870e-04 1.983464851524e-04 0.0 
1.983464851524e-04 6.585106213615e-03 0.0 
0.0 0.0 -9.940794652285e-04 
-1.204741342101e-03 -1.841288982354e-04 0.0 
-1.841288982354e-04 8.066681748081e-03 0.0 
0.0 0.0 -1.194784139986e-03 
-1.085983696521e-03 -2.024519851537e-04 0.0 
-2.024519851537e-04 7.301290877674e-03 0.0 
0.0 0.0 -1.087318097122e-03 
-1.116801267184e-03 -2.016255265415e-04 0.0 
-2.016255265415e-04 7.509256724676e-03 0.0 
0.0 0.0 -1.116677092124e-03 
-3.616370043148e-04 1.787208051054e-04 0.0 
1.787208051054e-04 2.150891016686e-03 0.0 
0.0 0.0 -3.599422446610e-04 
-1.117518330453e-03 1.826877579253e-04 0.0 
1.826877579253e-04 7.419146366892e-03 0.0 
0.0 0.0 -1.115908039155e-03 
-1.052373239860e-03 1.884691524878e-04 0.0 
1.884691524878e-04 6.996291933739e-03 0.0 
0.0 0.0 -1.053364550114e-03 
-7.811189844041e-04 1.901992250615e-04 0.0 
1.901992250615e-04 5.082233377235e-03 0.0 
0.0 0.0 -7.792489223127e-04 
-5.208782508076e-04 1.844281060277e-04 0.0 
1.844281060277e-04 3.081353701983e-03 0.0 
0.0 0.0 -4.908673385051e-04 
-1.207263385308e-03 -1.938793257757e-04 0.0 
-1.938793257757e-04 8.301996435605e-03 0.0 
0.0 0.0 -1.232292820449e-03 
-4.172393042970e-04 1.982283144972e-04 0.0 
1.982283144972e-04 2.530985310794e-03 0.0 
0.0 0.0 -4.142712813041e-04 
-4.585162122278e-04 -2.188978008166e-04 0.0 
-2.188978008166e-04 2.969334744373e-03 0.0 
0.0 0.0 -4.655197245388e-04 
-1.104373486365e-03 2.012226859916e-04 0.0 
2.012226859916e-04 7.350396136819e-03 0.0 
0.0 0.0 -1.105063927110e-03 
-2.968425273524e-04 -1.642057746455e-04 0.0 
-1.642057746455e-04 1.792416919804e-03 0.0 
0.0 0.0 -2.939799329518e-04 
-7.924236500379e-04 -1.848261227191e-04 0.0 
-1.848261227191e-04 5.252920665959e-03 0.0 
0.0 0.0 -7.924235178053e-04 
-1.061921988885e-03 1.812104659022e-04 0.0 
1.812104659022e-04 7.031393709581e-03 0.0 
0.0 0.0 -1.059843925468e-03 
-1.181481514864e-03 -1.809401034034e-04 0.0 
-1.809401034034e-04 7.945597505832e-03 0.0 
0.0 0.0 -1.181155146799e-03 
-1.216519596998e-03 -1.765367581353e-04 0.0 
-1.765367581353e-04 8.170458135963e-03 0.0 
0.0 0.0 -1.210943746944e-03 
-1.030728582983e-03 -1.988607177778e-04 0.0 
-1.988607177778e-04 6.902267769970e-03 0.0 
0.0 0.0 -1.028825005900e-03 
-1.124714132978e-03 -2.064810197621e-04 0.0 
-2.064810197621e-04 7.559899990810e-03 0.0 
0.0 0.0 -1.123737208958e-03 
-6.812903531147e-04 1.901379600772e-04 0.0 
1.901379600772e-04 4.380740483724e-03 0.0 
0.0 0.0 -6.793824814286e-04 
-1.062351922354e-03 -1.985736001597e-04 0.0 
-1.985736001597e-04 7.130265690032e-03 0.0 
0.0 0.0 -1.062452857821e-03 
-5.858181118698e-04 1.875072715160e-04 0.0 
1.875072715160e-04 3.545318163494e-03 0.0 
0.0 0.0 -5.576509564599e-04 
-1.191462796189e-03 1.791343230628e-04 0.0 
1.791343230628e-04 7.859967464318e-03 0.0 
0.0 0.0 -1.181751882508e-03 
-6.536967362184e-04 1.840019481607e-04 0.0 
1.840019481607e-04 4.012532136348e-03 0.0 
0.0 0.0 -6.243763318321e-04 
-6.397657085006e-04 1.469527108765e-04 0.0 
1.469527108765e-04 4.231461376740e-03 0.0 
0.0 0.0 -6.577503189808e-04 
-7.727292442473e-04 1.893751122867e-04 0.0 
1.893751122867e-04 5.025497285819e-03 0.0 
0.0 0.0 -7.717627972493e-04 
-7.120157842107e-04 2.033227012876e-04 0.0 
2.033227012876e-04 4.491531755345e-03 0.0 
0.0 0.0 -6.911701761307e-04 
-8.847543506959e-04 -1.860726363621e-04 0.0 
-1.860726363621e-04 5.886975687793e-03 0.0 
0.0 0.0 -8.833033330409e-04 
-7.223081526863e-04 -1.890141103709e-04 0.0 
-1.890141103709e-04 4.756005682412e-03 0.0 
0.0 0.0 -7.209687761305e-04 
-7.611226546141e-04 -1.925027368284e-04 0.0 
-1.925027368284e-04 5.033487039423e-03 0.0 
0.0 0.0 -7.606211034647e-04 
-3.677272213406e-04 1.965668598143e-04 0.0 
1.965668598143e-04 2.206714062611e-03 0.0 
0.0 0.0 -3.685806404478e-04 
-7.360898597851e-04 1.893736919884e-04 0.0 
1.893736919884e-04 4.769891666687e-03 0.0 
0.0 0.0 -7.353490689725e-04 
-1.164475384932e-03 1.920424604491e-04 0.0 
1.920424604491e-04 7.760458237861e-03 0.0 
0.0 0.0 -1.162517914204e-03 
-1.189135404011e-03 2.424308074022e-04 0.0 
2.424308074022e-04 8.008663372928e-03 0.0 
0.0 0.0 -1.195263893373e-03 
-1.051433761328e-03 1.900846295012e-04 0.0 
1.900846295012e-04 6.962500509983e-03 0.0 
0.0 0.0 -1.050100468764e-03 
-1.163815806160e-03 1.939359249112e-04 0.0 
1.939359249112e-04 7.801481486737e-03 0.0 
0.0 0.0 -1.170266998156e-03 
-7.471505649134e-04 1.914654167736e-04 0.0 
1.914654167736e-04 4.846432176661e-03 0.0 
0.0 0.0 -7.463264885205e-04 
-1.116874559966e-03 1.925152765080e-04 0.0 
1.925152765080e-04 7.452691656896e-03 0.0 
0.0 0.0 -1.119019617531e-03 
-7.641727686352e-04 1.895140519536e-04 0.0 
1.895140519536e-04 4.965709915575e-03 0.0 
0.0 0.0 -7.634232545038e-04 
-1.140149646673e-03 1.894710294717e-04 0.0 
1.894710294717e-04 7.619303377370e-03 0.0 
0.0 0.0 -1.144395376583e-03 
-1.089871366962e-03 1.866180545902e-04 0.0 
1.866180545902e-04 7.246015693997e-03 0.0 
0.0 0.0 -1.089631904438e-03 
-1.081578605974e-03 -1.978658757614e-04 0.0 
-1.978658757614e-04 7.257137764756e-03 0.0 
0.0 0.0 -1.080451501872e-03 
-9.579838523443e-04 1.886955211530e-04 0.0 
1.886955211530e-04 6.320335730528e-03 0.0 
0.0 0.0 -9.580909834143e-04 
-7.089543903964e-04 1.893728274013e-04 0.0 
1.893728274013e-04 4.575360328887e-03 0.0 
0.0 0.0 -7.073300717972e-04 
-1.127664739308e-03 -1.829222399519e-04 0.0 
-1.829222399519e-04 7.564515174457e-03 0.0 
0.0 0.0 -1.126038590206e-03 
-9.212765999104e-04 1.860043167073e-04 0.0 
1.860043167073e-04 6.042010505937e-03 0.0 
0.0 0.0 -9.169694165663e-04 
-3.707997860418e-04 -2.047832537350e-04 0.0 
-2.047832537350e-04 2.273008460466e-03 0.0 
0.0 0.0 -3.661348613279e-04 
-4.119491099640e-04 -1.837644939853e-04 0.0 
-1.837644939853e-04 2.602040481245e-03 0.0 
0.0 0.0 -4.113794265144e-04 
-6.058388203502e-04 1.800194521297e-04 0.0 
1.800194521297e-04 3.855006073365e-03 0.0 
0.0 0.0 -6.061407060701e-04 
-8.399206414718e-04 1.851255513351e-04 0.0 
1.851255513351e-04 5.491811110990e-03 0.0 
0.0 0.0 -8.384786063130e-04 
-1.169227413895e-03 1.987098364224e-04 0.0 
1.987098364224e-04 7.826180536376e-03 0.0 
0.0 0.0 -1.173545322487e-03 
-1.051413170775e-03 -2.036953792706e-04 0.0 
-2.036953792706e-04 7.051256599190e-03 0.0 
0.0 0.0 -1.051102540299e-03 
-7.053171708153e-04 -1.917417752613e-04 0.0 
-1.917417752613e-04 4.643848416984e-03 0.0 
0.0 0.0 -7.045205360201e-04 
-9.343548124899e-04 -1.929012807103e-04 0.0 
-1.929012807103e-04 6.238086933522e-03 0.0 
0.0 0.0 -9.344940742331e-04 
-1.088202517562e-03 1.963493920645e-04 0.0 
1.963493920645e-04 7.240451625201e-03 0.0 
0.0 0.0 -1.088599101970e-03 
-1.132213948578e-03 -2.019794901778e-04 0.0 
-2.019794901778e-04 7.607209750872e-03 0.0 
0.0 0.0 -1.130578931274e-03 
-1.175177652279e-03 -1.432114671164e-04 0.0 
-1.432114671164e-04 7.818239968608e-03 0.0 
0.0 0.0 -1.160781586281e-03 
-9.493017134459e-04 1.856369855212e-04 0.0 
1.856369855212e-04 6.294032018234e-03 0.0 
0.0 0.0 -9.517943393003e-04 
-1.114893974024e-03 1.926717475023e-04 0.0 
1.926717475023e-04 7.405468821271e-03 0.0 
0.0 0.0 -1.113435711030e-03 
-7.974711636665e-04 -1.944203939156e-04 0.0 
-1.944203939156e-04 5.288608064412e-03 0.0 
0.0 0.0 -7.971871449874e-04 
-1.087511397267e-03 -1.918432502510e-04 0.0 
-1.918432502510e-04 7.293095143965e-03 0.0 
0.0 0.0 -1.086118700983e-03 
-7.957657220237e-04 1.875502652183e-04 0.0 
1.875502652183e-04 5.187404479596e-03 0.0 
0.0 0.0 -7.951163407912e-04 
-1.190027282138e-03 -1.889094988141e-04 0.0 
-1.889094988141e-04 8.016045742998e-03 0.0 
0.0 0.0 -1.188704642750e-03 
-1.182786985987e-03 -2.095818808978e-04 0.0 
-2.095818808978e-04 8.112308359412e-03 0.0 
0.0 0.0 -1.200489323427e-03 
-8.931557397796e-04 1.886870491784e-04 0.0 
1.886870491784e-04 5.866647832542e-03 0.0 
0.0 0.0 -8.929891684399e-04 
-3.790334035775e-04 2.022524645534e-04 0.0 
2.022524645534e-04 2.272501623496e-03 0.0 
0.0 0.0 -3.776191643183e-04 
-1.116621675417e-03 1.833509055246e-04 0.0 
1.833509055246e-04 7.407703431036e-03 0.0 
0.0 0.0 -1.113685640909e-03 
-8.560269120279e-04 -1.850645517349e-04 0.0 
-1.850645517349e-04 5.691539379015e-03 0.0 
0.0 0.0 -8.555605426019e-04 
-6.779302938367e-04 -1.908402865228e-04 0.0 
-1.908402865228e-04 4.449768302467e-03 0.0 
0.0 0.0 -6.765734244908e-04 
-9.269459503729e-04 -1.957083840496e-04 0.0 
-1.957083840496e-04 6.192523979842e-03 0.0 
0.0 0.0 -9.269463096178e-04 
-1.072502528949e-03 -2.041434169699e-04 0.0 
-2.041434169699e-04 7.210267326329e-03 0.0 
0.0 0.0 -1.072977024862e-03 
-3.719606472363e-04 -1.835949221075e-04 0.0 
-1.835949221075e-04 2.345098090713e-03 0.0 
0.0 0.0 -3.746637649435e-04 
-8.285830534024e-04 1.877054302829e-04 0.0 
1.877054302829e-04 5.415216649357e-03 0.0 
0.0 0.0 -8.281205301186e-04 
-9.633029216945e-04 1.794107507866e-04 0.0 
1.794107507866e-04 6.339174664891e-03 0.0 
0.0 0.0 -9.596127204057e-04 
-1.165821597608e-03 -2.067678885502e-04 0.0 
-2.067678885502e-04 7.892442231831e-03 0.0 
0.0 0.0 -1.170838755190e-03 
-9.895100639472e-04 1.759458030688e-04 0.0 
1.759458030688e-04 6.529075947432e-03 0.0 
0.0 0.0 -9.876491701490e-04 
-1.085596099012e-03 1.937230915425e-04 0.0 
1.937230915425e-04 7.212019617214e-03 0.0 
0.0 0.0 -1.085374163265e-03 
-9.372562607785e-04 1.792840605658e-04 0.0 
1.792840605658e-04 6.146041579427e-03 0.0 
0.0 0.0 -9.316602363005e-04 
-8.975747507543e-04 1.987030926428e-04 0.0 
1.987030926428e-04 5.753154163109e-03 0.0 
0.0 0.0 -8.756372412555e-04 
-9.482059618595e-04 1.851978750998e-04 0.0 
1.851978750998e-04 6.234676071384e-03 0.0 
0.0 0.0 -9.447135688329e-04 
-1.130898821175e-03 2.049231627906e-04 0.0 
2.049231627906e-04 7.550084487667e-03 0.0 
0.0 0.0 -1.133505030480e-03 
-1.085374007423e-03 -2.008613375727e-04 0.0 
-2.008613375727e-04 7.297255264970e-03 0.0 
0.0 0.0 -1.084522140297e-03 
-1.016986910713e-03 1.835607482604e-04 0.0 
1.835607482604e-04 6.748472102274e-03 0.0 
0.0 0.0 -1.017300281410e-03 
-1.211783257084e-03 1.757837481836e-04 0.0 
1.757837481836e-04 8.121141767087e-03 0.0 
0.0 0.0 -1.212886757924e-03 
-9.118555854047e-04 1.822932037185e-04 0.0 
1.822932037185e-04 5.952136168219e-03 0.0 
0.0 0.0 -9.037302385344e-04 
-5.771676927997e-04 -1.905418044285e-04 0.0 
-1.905418044285e-04 3.749121588691e-03 0.0 
0.0 0.0 -5.760585567884e-04 
-1.146857850750e-03 -2.012024813042e-04 0.0 
-2.012024813042e-04 7.726356069459e-03 0.0 
0.0 0.0 -1.146733564437e-03 
-1.190361811188e-03 -2.231584585378e-04 0.0 
-2.231584585378e-04 8.068085284209e-03 0.0 
0.0 0.0 -1.196744929305e-03 
-7.877111731868e-04 1.869730341934e-04 0.0 
1.869730341934e-04 5.130080362463e-03 0.0 
0.0 0.0 -7.869228524964e-04 
-8.229073892259e-04 1.889823334213e-04 0.0 
1.889823334213e-04 5.378866845597e-03 0.0 
0.0 0.0 -8.226527892688e-04 
-6.410005540226e-04 -1.918474041219e-04 0.0 
-1.918474041219e-04 4.195976321249e-03 0.0 
0.0 0.0 -6.402419685743e-04 
-1.047323379365e-03 1.912705100611e-04 0.0 
1.912705100611e-04 6.951134229714e-03 0.0 
0.0 0.0 -1.046609947212e-03 
-6.536475585395e-04 1.928032985675e-04 0.0 
1.928032985675e-04 4.182884861133e-03 0.0 
0.0 0.0 -6.500746975200e-04 
-9.153598550125e-04 1.963880349302e-04 0.0 
1.963880349302e-04 6.020758345298e-03 0.0 
0.0 0.0 -9.137630964162e-04 
-6.488950437602e-04 -1.797823528638e-04 0.0 
-1.797823528638e-04 4.242459853736e-03 0.0 
0.0 0.0 -6.476280927198e-04 
-1.069873888271e-03 1.950588935170e-04 0.0 
1.950588935170e-04 7.095085750561e-03 0.0 
0.0 0.0 -1.068254633495e-03 
-1.209590731991e-03 -1.550085898134e-04 0.0 
-1.550085898134e-04 8.118970202182e-03 0.0 
0.0 0.0 -1.211228670573e-03 
-6.691229637013e-04 -1.915091740608e-04 0.0 
-1.915091740608e-04 4.390308397494e-03 0.0 
0.0 0.0 -6.682047883386e-04 
-2.351166358341e-04 -2.031494045747e-04 0.0 
-2.031494045747e-04 1.435993492405e-03 0.0 
0.0 0.0 -2.451578436693e-04 
-1.204420763458e-03 1.961268392442e-04 0.0 
1.961268392442e-04 8.059775147050e-03 0.0 
0.0 0.0 -1.207184308065e-03 
-6.887858324241e-04 1.799755313790e-04 0.0 
1.799755313790e-04 4.424727357305e-03 0.0 
0.0 0.0 -6.853381776776e-04 
-7.835288517237e-04 1.879460947127e-04 0.0 
1.879460947127e-04 5.099659123499e-03 0.0 
0.0 0.0 -7.828151049093e-04 
-1.160407951921e-03 2.005539249279e-04 0.0 
2.005539249279e-04 7.864449254895e-03 0.0 
0.0 0.0 -1.177925372349e-03 
-1.016320152694e-03 -1.997312198958e-04 0.0 
-1.997312198958e-04 6.802485040097e-03 0.0 
0.0 0.0 -1.015069748350e-03 
-1.057178896244e-03 -1.942199100265e-04 0.0 
-1.942199100265e-04 7.094939907720e-03 0.0 
0.0 0.0 -1.055879354346e-03 
-6.858748156510e-04 -1.861020149715e-04 0.0 
-1.861020149715e-04 4.508466491458e-03 0.0 
0.0 0.0 -6.851017020021e-04 
-2.031820811394e-04 1.985739834672e-04 0.0 
1.985739834672e-04 1.096275256380e-03 0.0 
0.0 0.0 -2.111397097017e-04 
-1.218012060933e-03 -2.324828983585e-04 0.0 
-2.324828983585e-04 8.157957467951e-03 0.0 
0.0 0.0 -1.202131160132e-03 
-8.665795831995e-04 1.858441781355e-04 0.0 
1.858441781355e-04 5.682543428283e-03 0.0 
0.0 0.0 -8.660506973337e-04 
-1.008559534197e-03 -2.140754109309e-04 0.0 
-2.140754109309e-04 6.735537996686e-03 0.0 
0.0 0.0 -1.007142642412e-03 
-1.160459194418e-03 1.856922992242e-04 0.0 
1.856922992242e-04 7.735308684736e-03 0.0 
0.0 0.0 -1.157822513452e-03 
-1.616552956257e-04 1.423609377969e-04 0.0 
1.423609377969e-04 6.732585101887e-04 0.0 
0.0 0.0 -1.502316149797e-04 
-1.058859563023e-03 1.992298708810e-04 0.0 
1.992298708810e-04 7.024120321951e-03 0.0 
0.0 0.0 -1.058763633038e-03 
-4.932099791950e-04 -1.894809356614e-04 0.0 
-1.894809356614e-04 3.157806772283e-03 0.0 
0.0 0.0 -4.919579008500e-04 
-9.451714429142e-04 -2.012700485207e-04 0.0 
-2.012700485207e-04 6.343190678808e-03 0.0 
0.0 0.0 -9.498437721210e-04 
-8.487405687036e-04 -1.950463421940e-04 0.0 
-1.950463421940e-04 5.654542604036e-03 0.0 
0.0 0.0 -8.496012432876e-04 
-6.717289225013e-04 1.881380853814e-04 0.0 
1.881380853814e-04 4.320340016049e-03 0.0 
0.0 0.0 -6.709551114794e-04 
-1.138399201716e-03 -1.969931368524e-04 0.0 
-1.969931368524e-04 7.687743728139e-03 0.0 
0.0 0.0 -1.141635569211e-03 
-8.863371368954e-04 1.906753618111e-04 0.0 
1.906753618111e-04 5.821740968712e-03 0.0 
0.0 0.0 -8.859145181037e-04 
-6.078808339746e-04 1.896100471318e-04 0.0 
1.896100471318e-04 3.873866771809e-03 0.0 
0.0 0.0 -6.067458373204e-04 
-8.988471733596e-04 -1.905617358742e-04 0.0 
-1.905617358742e-04 5.993481774552e-03 0.0 
0.0 0.0 -8.989548790023e-04 
-1.952954180545e-04 -1.905102926163e-04 0.0 
-1.905102926163e-04 1.173502522438e-03 0.0 
0.0 0.0 -2.081142276587e-04 
-1.024988576596e-03 -1.935191657477e-04 0.0 
-1.935191657477e-04 6.880398785368e-03 0.0 
0.0 0.0 -1.026417656363e-03 
-1.069604476726e-03 -1.976553008557e-04 0.0 
-1.976553008557e-04 7.163110056360e-03 0.0 
0.0 0.0 -1.065496432940e-03 
-1.229744167387e-03 -1.464305357593e-04 0.0 
-1.464305357593e-04 8.209785373221e-03 0.0 
0.0 0.0 -1.233600908384e-03 
-1.090183204667e-03 -1.971253990561e-04 0.0 
-1.971253990561e-04 7.328950110722e-03 0.0 
0.0 0.0 -1.090749533212e-03 
-4.766984691118e-04 -1.850928375114e-04 0.0 
-1.850928375114e-04 3.048442125330e-03 0.0 
0.0 0.0 -4.758149136988e-04 
-1.046974953030e-03 -1.977469482829e-04 0.0 
-1.977469482829e-04 7.033167652259e-03 0.0 
0.0 0.0 -1.047231727503e-03 
-1.207083647933e-03 1.808427044483e-04 0.0 
1.808427044483e-04 8.205581432035e-03 0.0 
0.0 0.0 -1.228155452712e-03 
-1.260668266969e-03 -1.832526413473e-04 0.0 
-1.832526413473e-04 8.522719369677e-03 0.0 
0.0 0.0 -1.267145247477e-03 
-1.104740620517e-03 -1.903291503950e-04 0.0 
-1.903291503950e-04 7.419136809817e-03 0.0 
0.0 0.0 -1.102242875413e-03 
-7.141399757063e-04 -1.908850217655e-04 0.0 
-1.908850217655e-04 4.699621454475e-03 0.0 
0.0 0.0 -7.127912709901e-04 
-9.617225215176e-04 -1.932311968947e-04 0.0 
-1.932311968947e-04 6.435112240426e-03 0.0 
0.0 0.0 -9.624716764950e-04 
-1.172863749534e-03 1.716370371983e-04 0.0 
1.716370371983e-04 7.752633284680e-03 0.0 
0.0 0.0 -1.164316760544e-03 
-7.921196063416e-04 -1.921710320450e-04 0.0 
-1.921710320450e-04 5.233600587143e-03 0.0 
0.0 0.0 -7.878971455476e-04 
-1.056322180914e-03 1.849092776284e-04 0.0 
1.849092776284e-04 7.010189158039e-03 0.0 
0.0 0.0 -1.057196955382e-03 
-9.850942903468e-04 1.906307977985e-04 0.0 
1.906307977985e-04 6.538331902211e-03 0.0 
0.0 0.0 -9.877098122506e-04 
-1.110739431392e-03 -1.980632731678e-04 0.0 
-1.980632731678e-04 7.489376108620e-03 0.0 
0.0 0.0 -1.112977059762e-03 
-1.093828226484e-03 -1.876429130193e-04 0.0 
-1.876429130193e-04 7.351584596061e-03 0.0 
0.0 0.0 -1.093234982489e-03 
-7.343177045735e-04 -9.465157044590e-06 0.0 
-9.465157044590e-06 4.570354151395e-03 0.0 
0.0 0.0 -7.313513689239e-04 
-7.305590051733e-04 3.402678996767e-05 0.0 
3.402678996767e-05 4.568649633296e-03 0.0 
0.0 0.0 -7.310574395863e-04 
-9.952316992060e-04 -2.061010920873e-04 0.0 
-2.061010920873e-04 6.656041030992e-03 0.0 
0.0 0.0 -9.927888931629e-04 
-9.918488233690e-04 1.857079994066e-04 0.0 
1.857079994066e-04 6.564735410895e-03 0.0 
0.0 0.0 -9.930598132463e-04 
-8.773556303313e-04 -1.926873992318e-04 0.0 
-1.926873992318e-04 5.856781784187e-03 0.0 
0.0 0.0 -8.780428295617e-04 
-9.805249871409e-04 -1.924563760952e-04 0.0 
-1.924563760952e-04 6.542490604406e-03 0.0 
0.0 0.0 -9.775429604617e-04 
-8.511934619470e-04 1.885314516425e-04 0.0 
1.885314516425e-04 5.570767617800e-03 0.0 
0.0 0.0 -8.502279965035e-04 
-1.193540881150e-03 1.313307987014e-04 0.0 
1.313307987014e-04 7.848740983510e-03 0.0 
0.0 0.0 -1.180288150054e-03 
-7.169159808387e-04 1.897237155631e-04 0.0 
1.897237155631e-04 4.633470113633e-03 0.0 
0.0 0.0 -7.154845226688e-04 
-1.330586332229e-03 -3.342005871353e-05 0.0 
-3.342005871353e-05 9.092648121720e-03 0.0 
0.0 0.0 -1.323793839065e-03 
-8.042874267729e-04 1.538278548702e-04 0.0 
1.538278548702e-04 5.332999869485e-03 0.0 
0.0 0.0 -8.119939454945e-04 
-8.205821157683e-04 -1.889603009902e-04 0.0 
-1.889603009902e-04 5.445817958641e-03 0.0 
0.0 0.0 -8.199314282332e-04 
-8.518598072760e-04 1.933057744939e-04 0.0 
1.933057744939e-04 5.584111954891e-03 0.0 
0.0 0.0 -8.523954645778e-04 
-4.499586564247e-04 -1.855256695766e-04 0.0 
-1.855256695766e-04 2.857022821909e-03 0.0 
0.0 0.0 -4.479040077299e-04 
-7.538979209402e-04 -1.934413965155e-04 0.0 
-1.934413965155e-04 4.995274109938e-03 0.0 
0.0 0.0 -7.551671247638e-04 
-9.291971374277e-04 1.860662208979e-04 0.0 
1.860662208979e-04 6.122384862718e-03 0.0 
0.0 0.0 -9.293281999836e-04 
-8.759687264254e-04 1.862073937602e-04 0.0 
1.862073937602e-04 5.739375914108e-03 0.0 
0.0 0.0 -8.738309435711e-04 
-9.814387768267e-04 1.839019607207e-04 0.0 
1.839019607207e-04 6.501334764277e-03 0.0 
0.0 0.0 -9.814596669550e-04 
-1.010867161751e-03 1.870829556364e-04 0.0 
1.870829556364e-04 6.678666577386e-03 0.0 
0.0 0.0 -1.008022096355e-03 
-1.044436862417e-03 -1.926634021926e-04 0.0 
-1.926634021926e-04 6.979659342720e-03 0.0 
0.0 0.0 -1.040850218070e-03 
-2.258973833718e-04 -1.030107291086e-04 0.0 
-1.030107291086e-04 1.399562224303e-03 0.0 
0.0 0.0 -2.163717569139e-04 
-7.194022022389e-04 1.955668345424e-04 0.0 
1.955668345424e-04 4.667671693721e-03 0.0 
0.0 0.0 -7.209013985657e-04 
-6.852716132608e-04 -1.859370640984e-04 0.0 
-1.859370640984e-04 4.485062449844e-03 0.0 
0.0 0.0 -6.825522065409e-04 
-9.565981315295e-04 1.790846631940e-04 0.0 
1.790846631940e-04 6.284252226282e-03 0.0 
0.0 0.0 -9.521954671713e-04 
-9.888411307371e-04 -1.922642027801e-04 0.0 
-1.922642027801e-04 6.601876220435e-03 0.0 
0.0 0.0 -9.850634846466e-04 
-1.155748252282e-03 1.797617113703e-04 0.0 
1.797617113703e-04 7.721330663973e-03 0.0 
0.0 0.0 -1.160108757481e-03 
-3.430926826770e-04 2.099465977867e-04 0.0 
2.099465977867e-04 1.967318145224e-03 0.0 
0.0 0.0 -3.273996513303e-04 
-3.332214715971e-04 -1.766782033718e-04 0.0 
-1.766782033718e-04 2.091595055548e-03 0.0 
0.0 0.0 -3.377286911054e-04 
-8.312276761858e-04 1.871380545801e-04 0.0 
1.871380545801e-04 5.435579353952e-03 0.0 
0.0 0.0 -8.305977116616e-04 
-7.164446669360e-04 -1.954011667160e-04 0.0 
-1.954011667160e-04 4.735861933211e-03 0.0 
0.0 0.0 -7.181358556540e-04 
-6.612400540539e-04 -2.145984864481e-04 0.0 
-2.145984864481e-04 4.300984587983e-03 0.0 
0.0 0.0 -6.554599841463e-04 
-6.892288823092e-04 -1.712097974294e-04 0.0 
-1.712097974294e-04 4.548932917262e-03 0.0 
0.0 0.0 -6.889204951115e-04 
-9.785151366904e-04 -1.903688334857e-04 0.0 
-1.903688334857e-04 6.552823194572e-03 0.0 
0.0 0.0 -9.793492904611e-04 
-3.279214625417e-04 -1.856414295293e-04 0.0 
-1.856414295293e-04 2.036611823989e-03 0.0 
0.0 0.0 -3.302473245842e-04 
-8.146691974455e-04 1.910766766110e-04 0.0 
1.910766766110e-04 5.328191831945e-03 0.0 
0.0 0.0 -8.154759146177e-04 
-1.049892567768e-03 -1.923181012939e-04 0.0 
-1.923181012939e-04 7.038288222671e-03 0.0 
0.0 0.0 -1.049209916622e-03 
-3.402244297759e-04 2.055488950203e-04 0.0 
2.055488950203e-04 2.007315154740e-03 0.0 
0.0 0.0 -3.408226701431e-04 
-1.289740643797e-03 -2.865690188005e-05 0.0 
-2.865690188005e-05 8.457698383589e-03 0.0 
0.0 0.0 -1.285586381397e-03 
-1.153161816539e-03 -1.810911126316e-04 0.0 
-1.810911126316e-04 7.745860400322e-03 0.0 
0.0 0.0 -1.152455342817e-03 
-7.730865248008e-04 -1.936313324955e-04 0.0 
-1.936313324955e-04 5.137233279798e-03 0.0 
0.0 0.0 -7.756113943005e-04 
-1.077943790440e-03 1.906149656784e-04 0.0 
1.906149656784e-04 7.162163658694e-03 0.0 
0.0 0.0 -1.078722419643e-03 
-1.818286327115e-04 -5.320949396075e-06 0.0 
-5.320949396075e-06 7.441773179852e-04 0.0 
0.0 0.0 -1.797547709840e-04 
-1.014460031072e-03 -2.000580684662e-04 0.0 
-2.000580684662e-04 6.784645211728e-03 0.0 
0.0 0.0 -1.012471576362e-03 
-8.638932840094e-04 -1.877196228479e-04 0.0 
-1.877196228479e-04 5.746441231772e-03 0.0 
0.0 0.0 -8.634366945984e-04 
-1.573089574218e-04 6.060813636257e-06 0.0 
6.060813636257e-06 7.379677460024e-04 0.0 
0.0 0.0 -1.788519809851e-04 
-1.152359323407e-03 1.787160847201e-04 0.0 
1.787160847201e-04 7.696182759720e-03 0.0 
0.0 0.0 -1.154859126927e-03 
-3.172722260096e-04 -1.887798844868e-04 0.0 
-1.887798844868e-04 1.899275964143e-03 0.0 
0.0 0.0 -3.099791425632e-04 
-9.534030089958e-04 -1.885226890488e-04 0.0 
-1.885226890488e-04 6.348031499756e-03 0.0 
0.0 0.0 -9.496453321265e-04 
-8.720767110959e-04 -1.896937711200e-04 0.0 
-1.896937711200e-04 5.800514782336e-03 0.0 
0.0 0.0 -8.712718144564e-04 
-7.527095169076e-04 -1.904145446511e-04 0.0 
-1.904145446511e-04 4.974920507200e-03 0.0 
0.0 0.0 -7.519815330289e-04 
-9.060865555047e-04 1.986245932987e-04 0.0 
1.986245932987e-04 5.963263483029e-03 0.0 
0.0 0.0 -9.052548162676e-04 
-1.186359257630e-03 1.790401943917e-04 0.0 
1.790401943917e-04 7.910120458871e-03 0.0 
0.0 0.0 -1.182898372388e-03 
-9.717172959483e-04 2.017731235506e-04 0.0 
2.017731235506e-04 6.421670982773e-03 0.0 
0.0 0.0 -9.716005391689e-04 
-8.586682738840e-04 1.870585543685e-04 0.0 
1.870585543685e-04 5.626729716629e-03 0.0 
0.0 0.0 -8.581765416018e-04 
-8.285502932263e-04 -1.869792024667e-04 0.0 
-1.869792024667e-04 5.500044709232e-03 0.0 
0.0 0.0 -8.279616112547e-04 
-1.157597014143e-04 1.569592925357e-04 0.0 
1.569592925357e-04 5.309685908670e-04 0.0 
0.0 0.0 -1.241199786263e-04 
-2.771697128881e-04 1.878257284126e-04 0.0 
1.878257284126e-04 1.577050393967e-03 0.0 
0.0 0.0 -2.761011822561e-04 
-1.118878802421e-03 -1.775376209317e-04 0.0 
-1.775376209317e-04 7.515980410063e-03 0.0 
0.0 0.0 -1.118331045454e-03 
-9.134689604251e-04 -2.151070896450e-04 0.0 
-2.151070896450e-04 6.054442910930e-03 0.0 
0.0 0.0 -9.085367473448e-04 
-1.157427958602e-03 1.810891327533e-04 0.0 
1.810891327533e-04 7.664331777096e-03 0.0 
0.0 0.0 -1.148691026115e-03 
-4.952790128067e-04 1.926215238326e-04 0.0 
1.926215238326e-04 3.096112546519e-03 0.0 
0.0 0.0 -4.942977111402e-04 
-1.099935257767e-03 1.964856595336e-04 0.0 
1.964856595336e-04 7.292900558944e-03 0.0 
0.0 0.0 -1.097950598811e-03 
-1.159977421736e-03 -1.899588415039e-04 0.0 
-1.899588415039e-04 7.782799989863e-03 0.0 
0.0 0.0 -1.155407764312e-03 
-7.046437970110e-04 1.771780882184e-04 0.0 
1.771780882184e-04 4.649202442725e-03 0.0 
0.0 0.0 -7.179420443741e-04 
-1.123089437587e-03 1.668381000104e-04 0.0 
1.668381000104e-04 7.448723404798e-03 0.0 
0.0 0.0 -1.120992621467e-03 
-1.074800466033e-03 -1.979281231238e-04 0.0 
-1.979281231238e-04 7.231750290380e-03 0.0 
0.0 0.0 -1.075946734593e-03 
-9.566951811484e-04 1.885305449409e-04 0.0 
1.885305449409e-04 6.314170866049e-03 0.0 
0.0 0.0 -9.571162043194e-04 
-7.858129650109e-04 1.950519568745e-04 0.0 
1.950519568745e-04 5.127464531984e-03 0.0 
0.0 0.0 -7.866383436874e-04 
-8.200429817129e-04 -1.955984029235e-04 0.0 
-1.955984029235e-04 5.453789901756e-03 0.0 
0.0 0.0 -8.209012074946e-04 
-1.208173698565e-03 -2.031466844656e-04 0.0 
-2.031466844656e-04 8.155254103189e-03 0.0 
0.0 0.0 -1.204704583718e-03 
-8.401419513637e-04 1.955438232624e-04 0.0 
1.955438232624e-04 5.506398965405e-03 0.0 
0.0 0.0 -8.396599866114e-04 
-9.021075521636e-04 1.852176330369e-04 0.0 
1.852176330369e-04 5.931413313431e-03 0.0 
0.0 0.0 -9.015555482168e-04 
-8.449278259679e-04 1.962826855989e-04 0.0 
1.962826855989e-04 5.533739272216e-03 0.0 
0.0 0.0 -8.433600309793e-04 
-1.038695295048e-03 1.973550359402e-04 0.0 
1.973550359402e-04 6.882197727615e-03 0.0 
0.0 0.0 -1.038364586984e-03 
-7.853544279650e-04 -1.888908667992e-04 0.0 
-1.888908667992e-04 5.195025610649e-03 0.0 
0.0 0.0 -7.842421616061e-04 
-5.077615371431e-04 1.925383574265e-04 0.0 
1.925383574265e-04 3.178371744144e-03 0.0 
0.0 0.0 -5.065804551108e-04 
-8.563679286656e-04 1.886904600152e-04 0.0 
1.886904600152e-04 5.609470178926e-03 0.0 
0.0 0.0 -8.561803240471e-04 
-5.442096767108e-04 1.899929291301e-04 0.0 
1.899929291301e-04 3.427592308512e-03 0.0 
0.0 0.0 -5.426160209679e-04 
-9.840239484115e-04 1.860183386348e-04 0.0 
1.860183386348e-04 6.482342277994e-03 0.0 
0.0 0.0 -9.799122972177e-04 
-5.401920244119e-04 -1.881877507061e-04 0.0 
-1.881877507061e-04 3.494301074598e-03 0.0 
0.0 0.0 -5.399485503622e-04 
-9.444560097486e-04 -1.940759614132e-04 0.0 
-1.940759614132e-04 6.297600198433e-03 0.0 
0.0 0.0 -9.420580210740e-04 
-1.136089878121e-03 -1.928967352453e-04 0.0 
-1.928967352453e-04 7.622114445815e-03 0.0 
0.0 0.0 -1.130549445556e-03 
-1.098744179893e-03 1.868758827566e-04 0.0 
1.868758827566e-04 7.288601580292e-03 0.0 
0.0 0.0 -1.096529089934e-03 
-7.525839073148e-04 1.884470413513e-04 0.0 
1.884470413513e-04 4.883223458127e-03 0.0 
0.0 0.0 -7.512528815035e-04 
-9.420690742012e-04 1.904423332235e-04 0.0 
1.904423332235e-04 6.250031840530e-03 0.0 
0.0 0.0 -9.460253849645e-04 
-1.105063984059e-03 1.902259811921e-04 0.0 
1.902259811921e-04 7.362332298091e-03 0.0 
0.0 0.0 -1.107441567342e-03 
-1.102593190183e-03 -1.984125757140e-04 0.0 
-1.984125757140e-04 7.431259929710e-03 0.0 
0.0 0.0 -1.104747680386e-03 
-2.748138935716e-04 -1.822651738482e-04 0.0 
-1.822651738482e-04 1.604872033163e-03 0.0 
0.0 0.0 -2.683291303717e-04 
-9.752435611011e-04 1.861325910200e-04 0.0 
1.861325910200e-04 6.426869973039e-03 0.0 
0.0 0.0 -9.724793438395e-04 
-1.198880595075e-03 2.442779644092e-04 0.0 
2.442779644092e-04 8.051846061103e-03 0.0 
0.0 0.0 -1.205818386895e-03 
-5.437300718267e-04 1.772584891247e-04 0.0 
1.772584891247e-04 3.388245147726e-03 0.0 
0.0 0.0 -5.357889572170e-04 
-8.407105615714e-04 -1.927518630570e-04 0.0 
-1.927518630570e-04 5.595089898141e-03 0.0 
0.0 0.0 -8.409532000723e-04 
-1.642955148473e-04 -1.732273966109e-04 0.0 
-1.732273966109e-04 7.998697341648e-04 0.0 
0.0 0.0 -1.553180670733e-04 
-1.132480187466e-03 1.879569331440e-04 0.0 
1.879569331440e-04 7.560437012022e-03 0.0 
0.0 0.0 -1.136235114959e-03 
-4.806530012621e-04 1.926320631025e-04 0.0 
1.926320631025e-04 2.980823159841e-03 0.0 
0.0 0.0 -4.785631936959e-04 
-8.099198933223e-04 1.419617410747e-04 0.0 
1.419617410747e-04 5.272582332729e-03 0.0 
0.0 0.0 -8.166178341775e-04 
-1.008233793579e-03 2.173973549694e-04 0.0 
2.173973549694e-04 6.687663611020e-03 0.0 
0.0 0.0 -1.008721701990e-03 
-9.403782054792e-04 -1.899510314299e-04 0.0 
-1.899510314299e-04 6.304690927512e-03 0.0 
0.0 0.0 -9.438854677472e-04 
-8.963572268652e-04 1.741364622751e-04 0.0 
1.741364622751e-04 5.997227966099e-03 0.0 
0.0 0.0 -9.108073647308e-04 
-8.940895927013e-04 1.874273657985e-04 0.0 
1.874273657985e-04 5.875054319372e-03 0.0 
0.0 0.0 -8.936906232635e-04 
-5.964027012772e-04 -1.969270146159e-04 0.0 
-1.969270146159e-04 3.828565622584e-03 0.0 
0.0 0.0 -5.884905393267e-04 
-6.222186473161e-04 -1.579598216188e-04 0.0 
-1.579598216188e-04 4.074275639624e-03 0.0 
0.0 0.0 -6.218825813656e-04 
-1.132545466856e-03 -1.921788675688e-04 0.0 
-1.921788675688e-04 7.631342050474e-03 0.0 
0.0 0.0 -1.133400347077e-03 
-9.399834973732e-04 -2.076180111174e-04 0.0 
-2.076180111174e-04 6.274716467853e-03 0.0 
0.0 0.0 -9.394087121358e-04 
-8.165998643398e-04 -1.896618384882e-04 0.0 
-1.896618384882e-04 5.425461381261e-03 0.0 
0.0 0.0 -8.164864906097e-04 
-1.015808219044e-03 2.043119981127e-04 0.0 
2.043119981127e-04 6.724239760090e-03 0.0 
0.0 0.0 -1.014986374720e-03 
-7.921952984756e-04 1.876569442452e-04 0.0 
1.876569442452e-04 5.161072896404e-03 0.0 
0.0 0.0 -7.915105747054e-04 
-5.132154280476e-04 -1.871647182001e-04 0.0 
-1.871647182001e-04 3.302371768383e-03 0.0 
0.0 0.0 -5.119962057136e-04 
-5.745746208367e-04 1.485352442875e-04 0.0 
1.485352442875e-04 3.755895310226e-03 0.0 
0.0 0.0 -5.908395828668e-04 
-8.562635021512e-04 -1.754512107452e-04 0.0 
-1.754512107452e-04 5.627343192984e-03 0.0 
0.0 0.0 -8.442294783838e-04 
-7.160648306052e-04 7.585704491009e-06 0.0 
7.585704491009e-06 4.849167370762e-03 0.0 
0.0 0.0 -7.121995050294e-04 
-1.098907698795e-03 -1.935603852202e-04 0.0 
-1.935603852202e-04 7.356586615962e-03 0.0 
0.0 0.0 -1.093598669875e-03 
-7.500784032912e-04 -1.888438395023e-04 0.0 
-1.888438395023e-04 4.947212343952e-03 0.0 
0.0 0.0 -7.486350631497e-04 
-1.210182417684e-03 1.765917680884e-04 0.0 
1.765917680884e-04 8.247529209770e-03 0.0 
0.0 0.0 -1.233571955743e-03 
-1.118284649088e-03 2.239133535709e-04 0.0 
2.239133535709e-04 7.476894485255e-03 0.0 
0.0 0.0 -1.121177773779e-03 
-8.254740426919e-04 -1.929282224425e-04 0.0 
-1.929282224425e-04 5.485443478807e-03 0.0 
0.0 0.0 -8.252461108756e-04 
-1.242964237003e-03 -2.139177796874e-04 0.0 
-2.139177796874e-04 8.349538837109e-03 0.0 
0.0 0.0 -1.241472629463e-03 
-5.687293433059e-04 -1.915120142833e-04 0.0 
-1.915120142833e-04 3.690790191525e-03 0.0 
0.0 0.0 -5.682622744621e-04 
-1.208040625364e-03 1.849401074130e-04 0.0 
1.849401074130e-04 8.046920265334e-03 0.0 
0.0 0.0 -1.204482468497e-03 
-8.913551845653e-04 -1.878094076417e-04 0.0 
-1.878094076417e-04 5.940020385334e-03 0.0 
0.0 0.0 -8.910665706739e-04 
-9.852542746410e-04 1.871572406668e-04 0.0 
1.871572406668e-04 6.505324580404e-03 0.0 
0.0 0.0 -9.848034212814e-04 
-1.145107580505e-03 -1.842496915473e-04 0.0 
-1.842496915473e-04 7.703101384869e-03 0.0 
0.0 0.0 -1.146785027167e-03 
-5.943655314035e-04 -1.832199318589e-04 0.0 
-1.832199318589e-04 3.893020220943e-03 0.0 
0.0 0.0 -5.958228065582e-04 
-9.389816814797e-04 1.876119276122e-04 0.0 
1.876119276122e-04 6.182064030220e-03 0.0 
0.0 0.0 -9.369464185080e-04 
-7.887299262109e-04 -1.887974843369e-04 0.0 
-1.887974843369e-04 5.230247920474e-03 0.0 
0.0 0.0 -7.886172400246e-04 
-9.083774489983e-04 -1.902700926230e-04 0.0 
-1.902700926230e-04 6.046157002466e-03 0.0 
0.0 0.0 -9.065670216064e-04 
-5.279887302567e-04 -1.859379540021e-04 0.0 
-1.859379540021e-04 3.395303897193e-03 0.0 
0.0 0.0 -5.268093404353e-04 
-1.014606245907e-03 2.103915705160e-04 0.0 
2.103915705160e-04 6.713973890446e-03 0.0 
0.0 0.0 -1.013229387512e-03 
-7.553250635679e-04 1.889436264505e-04 0.0 
1.889436264505e-04 4.904153081957e-03 0.0 
0.0 0.0 -7.548706880268e-04 
-8.804539724126e-04 1.911528069323e-04 0.0 
1.911528069323e-04 5.783141817002e-03 0.0 
0.0 0.0 -8.810281692460e-04 
-9.122003311205e-04 1.835312424394e-04 0.0 
1.835312424394e-04 5.985147494673e-03 0.0 
0.0 0.0 -9.091416541300e-04 
-1.779440610295e-04 -1.030848282903e-04 0.0 
-1.030848282903e-04 7.740733373014e-04 0.0 
0.0 0.0 -1.392682743729e-04 
-9.092484897749e-04 2.049076976716e-04 0.0 
2.049076976716e-04 5.988548295435e-03 0.0 
0.0 0.0 -9.082496170556e-04 
-2.130732635602e-04 -2.101807231715e-04 0.0 
-2.101807231715e-04 1.221567911034e-03 0.0 
0.0 0.0 -2.164288490095e-04 
-2.520548988868e-04 2.059906335289e-04 0.0 
2.059906335289e-04 1.360441870585e-03 0.0 
0.0 0.0 -2.410360834028e-04 
-8.430214645806e-04 1.870171193368e-04 0.0 
1.870171193368e-04 5.521874591652e-03 0.0 
0.0 0.0 -8.438072171805e-04 
-1.100618043992e-03 -1.995199700289e-04 0.0 
-1.995199700289e-04 7.372933681793e-03 0.0 
0.0 0.0 -1.098354823938e-03 
-9.336786887582e-04 1.772618600829e-04 0.0 
1.772618600829e-04 6.184069199665e-03 0.0 
0.0 0.0 -9.387552692590e-04 
-5.316814076804e-04 -1.951121058158e-04 0.0 
-1.951121058158e-04 3.374217008638e-03 0.0 
0.0 0.0 -5.215302833573e-04 
-1.342322198460e-03 1.355075091338e-05 0.0 
1.355075091338e-05 8.860022296973e-03 0.0 
0.0 0.0 -1.342322198460e-03 
-6.904184216633e-05 1.341545190439e-04 0.0 
1.341545190439e-04 2.607547295547e-04 0.0 
0.0 0.0 -8.216266602360e-05 
-5.589210723321e-04 -1.329418113690e-04 0.0 
-1.329418113690e-04 3.609084095352e-03 0.0 
0.0 0.0 -5.549805679787e-04 
-8.477696331988e-04 1.855996582246e-04 0.0 
1.855996582246e-04 5.547050172852e-03 0.0 
0.0 0.0 -8.472740691907e-04 
-8.035495844310e-04 -1.953259203623e-04 0.0 
-1.953259203623e-04 5.337013229194e-03 0.0 
0.0 0.0 -8.042584860449e-04 
-6.757348554203e-04 -1.653998453620e-04 0.0 
-1.653998453620e-04 4.426804148949e-03 0.0 
0.0 0.0 -6.733236465360e-04 
-5.914609098287e-04 1.823071808114e-04 0.0 
1.823071808114e-04 3.765270744377e-03 0.0 
0.0 0.0 -5.908717820549e-04 
-8.740292955769e-04 -1.984478198410e-04 0.0 
-1.984478198410e-04 5.813273429386e-03 0.0 
0.0 0.0 -8.733819075714e-04 
-9.264128048314e-04 -1.908219560731e-04 0.0 
-1.908219560731e-04 6.187717693911e-03 0.0 
0.0 0.0 -9.266779469803e-04 
-9.738255750276e-04 2.028683516140e-04 0.0 
2.028683516140e-04 6.450883656299e-03 0.0 
0.0 0.0 -9.734188451722e-04 
-1.155174733819e-03 2.031393399309e-04 0.0 
2.031393399309e-04 7.608098909853e-03 0.0 
0.0 0.0 -1.144302277022e-03 
-2.998307148874e-04 1.817771268844e-04 0.0 
1.817771268844e-04 1.707947677580e-03 0.0 
0.0 0.0 -2.976331147772e-04 
-7.774732960360e-04 1.902311186531e-04 0.0 
1.902311186531e-04 5.067412702539e-03 0.0 
0.0 0.0 -7.784793977761e-04 
-8.354929195800e-04 1.868427274729e-04 0.0 
1.868427274729e-04 5.469964258699e-03 0.0 
0.0 0.0 -8.356154970834e-04 
-4.516910884492e-04 -2.032153244339e-04 0.0 
-2.032153244339e-04 2.897475389763e-03 0.0 
0.0 0.0 -4.544023106810e-04 
-7.514806211766e-04 2.187245154034e-04 0.0 
2.187245154034e-04 4.887888210751e-03 0.0 
0.0 0.0 -7.518103749233e-04 
-9.376130433125e-04 -2.007012642149e-04 0.0 
-2.007012642149e-04 6.245928942655e-03 0.0 
0.0 0.0 -9.362314798257e-04 
-1.020402468730e-03 -1.946865508960e-04 0.0 
-1.946865508960e-04 6.790144563629e-03 0.0 
0.0 0.0 -1.023451880212e-03 
-1.525732992224e-04 8.599813621991e-06 0.0 
8.599813621991e-06 1.000033467602e-03 0.0 
0.0 0.0 -1.605242656235e-04 
-1.269812495822e-04 -2.531001823489e-04 0.0 
-2.531001823489e-04 4.902479252968e-04 0.0 
0.0 0.0 -1.185594205871e-04 
-3.241357878482e-04 -1.842994986653e-04 0.0 
-1.842994986653e-04 2.004473459914e-03 0.0 
0.0 0.0 -3.233707900025e-04 
-8.334989762747e-04 -1.938999604970e-04 0.0 
-1.938999604970e-04 5.537569679809e-03 0.0 
0.0 0.0 -8.330087554115e-04 
-6.325222328161e-04 -1.881321833313e-04 0.0 
-1.881321833313e-04 4.138956718805e-03 0.0 
0.0 0.0 -6.322020076307e-04 
-5.606822046863e-04 -1.836386180369e-04 0.0 
-1.836386180369e-04 3.638290895272e-03 0.0 
0.0 0.0 -5.605319560360e-04 
-5.042968556974e-04 -1.874920210369e-04 0.0 
-1.874920210369e-04 3.240689773487e-03 0.0 
0.0 0.0 -5.041580933422e-04 
-8.721332834429e-04 1.863637843611e-04 0.0 
1.863637843611e-04 5.722466013089e-03 0.0 
0.0 0.0 -8.721335634590e-04 
-9.951021354220e-04 1.863977597818e-04 0.0 
1.863977597818e-04 6.578139400737e-03 0.0 
0.0 0.0 -9.956198530692e-04 
-8.650795473337e-04 1.875435944103e-04 0.0 
1.875435944103e-04 5.670505538654e-03 0.0 
0.0 0.0 -8.643287579461e-04 
-6.358273554876e-04 1.861975192937e-04 0.0 
1.861975192937e-04 4.071155698746e-03 0.0 
0.0 0.0 -6.348607296063e-04 
-9.711834339353e-04 -2.012117718550e-04 0.0 
-2.012117718550e-04 6.487584772475e-03 0.0 
0.0 0.0 -9.699423737970e-04 
-8.101971348646e-04 1.641316877204e-04 0.0 
1.641316877204e-04 5.432076920036e-03 0.0 
0.0 0.0 -8.236220363599e-04 
-1.071983661584e-03 2.130963721819e-04 0.0 
2.130963721819e-04 7.145357950686e-03 0.0 
0.0 0.0 -1.076197569190e-03 
-8.626714893425e-04 -1.942405500946e-04 0.0 
-1.942405500946e-04 5.738328913224e-03 0.0 
0.0 0.0 -8.617642947636e-04 
-8.702702279884e-04 -1.921753086919e-04 0.0 
-1.921753086919e-04 5.792753129953e-03 0.0 
0.0 0.0 -8.694825820363e-04 
-4.645559553229e-04 -1.981925654935e-04 0.0 
-1.981925654935e-04 2.889937884798e-03 0.0 
0.0 0.0 -4.548485160793e-04 
-6.608554486331e-04 -1.864091804662e-04 0.0 
-1.864091804662e-04 4.336541054874e-03 0.0 
0.0 0.0 -6.598952468720e-04 
-8.926027030231e-04 1.843043537544e-04 0.0 
1.843043537544e-04 5.864339266433e-03 0.0 
0.0 0.0 -8.930692851043e-04 
-9.679615503639e-04 1.696948557832e-04 0.0 
1.696948557832e-04 6.395623785343e-03 0.0 
0.0 0.0 -9.615701295831e-04 
-9.079120183865e-04 1.806035671013e-04 0.0 
1.806035671013e-04 6.008465197653e-03 0.0 
0.0 0.0 -8.972249362023e-04 
-4.966173735405e-04 -1.549710521065e-04 0.0 
-1.549710521065e-04 3.153972529156e-03 0.0 
0.0 0.0 -4.879487645214e-04 
-9.010013592765e-04 1.886793445213e-04 0.0 
1.886793445213e-04 5.923625585035e-03 0.0 
0.0 0.0 -9.007118478549e-04 
-5.518253028037e-04 -1.783371210293e-04 0.0 
-1.783371210293e-04 3.577417440001e-03 0.0 
0.0 0.0 -5.517684601482e-04 
-2.845535083016e-04 1.977607623022e-04 0.0 
1.977607623022e-04 1.633750881917e-03 0.0 
0.0 0.0 -2.811347238918e-04 
-1.188918642902e-03 -1.918974946843e-04 0.0 
-1.918974946843e-04 8.111302423947e-03 0.0 
0.0 0.0 -1.202908440308e-03 
-3.019785591690e-04 1.950774455603e-04 0.0 
1.950774455603e-04 1.726883632229e-03 0.0 
0.0 0.0 -3.019870735033e-04 
-5.828626320579e-04 1.860512938998e-04 0.0 
1.860512938998e-04 3.705650589538e-03 0.0 
0.0 0.0 -5.822209219963e-04 
-8.781768956791e-04 -1.986806572288e-04 0.0 
-1.986806572288e-04 5.833892611307e-03 0.0 
0.0 0.0 -8.766521650092e-04 
-5.060723315699e-04 1.405250353070e-04 0.0 
1.405250353070e-04 3.287884117067e-03 0.0 
0.0 0.0 -5.239962781855e-04 
-8.898132346489e-04 -1.977943572352e-04 0.0 
-1.977943572352e-04 5.946896776319e-03 0.0 
0.0 0.0 -8.905656347129e-04 
-4.258375091185e-04 -2.178895733922e-04 0.0 
-2.178895733922e-04 2.688533932087e-03 0.0 
0.0 0.0 -4.282508963332e-04 
-7.578747057613e-04 -1.654300402080e-04 0.0 
-1.654300402080e-04 5.036141076678e-03 0.0 
0.0 0.0 -7.823486082854e-04 
-9.004251462807e-04 -1.892315142781e-04 0.0 
-1.892315142781e-04 5.992307029229e-03 0.0 
0.0 0.0 -8.981647654366e-04 
-7.810617461966e-04 -1.867589919143e-04 0.0 
-1.867589919143e-04 5.170374097518e-03 0.0 
0.0 0.0 -7.800125773855e-04 
-8.113930582064e-04 -1.934831491269e-04 0.0 
-1.934831491269e-04 5.398532171848e-03 0.0 
0.0 0.0 -8.126672281948e-04 
-1.456223754453e-04 -1.153284200368e-04 0.0 
-1.153284200368e-04 8.334024863152e-04 0.0 
0.0 0.0 -1.489310416055e-04 
-1.183619524390e-03 -1.995906802130e-04 0.0 
-1.995906802130e-04 7.793015624773e-03 0.0 
0.0 0.0 -1.152567315725e-03 
-6.518619288048e-04 -1.801864724235e-04 0.0 
-1.801864724235e-04 4.278312019353e-03 0.0 
0.0 0.0 -6.514572604261e-04 
-1.161957516655e-03 2.065796963047e-04 0.0 
2.065796963047e-04 7.737413579119e-03 0.0 
0.0 0.0 -1.154039482800e-03 
-9.839722502603e-04 -1.958677314331e-04 0.0 
-1.958677314331e-04 6.578387584555e-03 0.0 
0.0 0.0 -9.821191134873e-04 
-9.294100606496e-04 1.930061835790e-04 0.0 
1.930061835790e-04 6.122204066633e-03 0.0 
0.0 0.0 -9.293965016571e-04 
-9.285061071557e-04 -1.774497838441e-04 0.0 
-1.774497838441e-04 6.189509746344e-03 0.0 
0.0 0.0 -9.268654845074e-04 
-5.996189068560e-04 1.852055889782e-04 0.0 
1.852055889782e-04 3.820597089734e-03 0.0 
0.0 0.0 -5.989583036242e-04 
-1.944838745679e-04 1.584109702943e-04 0.0 
1.584109702943e-04 1.163625171840e-03 0.0 
0.0 0.0 -2.103425724855e-04 
-1.545095455242e-04 1.193388759037e-04 0.0 
1.193388759037e-04 6.563556231282e-04 0.0 
0.0 0.0 -1.599169489567e-04 
-9.548054477989e-04 1.928585704838e-04 0.0 
1.928585704838e-04 6.318843775437e-03 0.0 
0.0 0.0 -9.583065114986e-04 
-1.160173340718e-03 1.884012827660e-04 0.0 
1.884012827660e-04 7.692007981726e-03 0.0 
0.0 0.0 -1.148056181429e-03 
-5.412400896945e-04 -1.740896251805e-04 0.0 
-1.740896251805e-04 3.519775267643e-03 0.0 
0.0 0.0 -5.426247857783e-04 
-1.000629830532e-03 1.900148255986e-04 0.0 
1.900148255986e-04 6.622819157878e-03 0.0 
0.0 0.0 -1.000702849114e-03 
-5.014074309498e-04 1.897737110036e-04 0.0 
1.897737110036e-04 3.104700833587e-03 0.0 
0.0 0.0 -5.002094317253e-04 
-1.008257874699e-03 -1.995045898855e-04 0.0 
-1.995045898855e-04 6.739421236299e-03 0.0 
0.0 0.0 -1.005614027492e-03 
-1.275786431467e-03 1.088711895384e-04 0.0 
1.088711895384e-04 8.693642459064e-03 0.0 
0.0 0.0 -1.266534580134e-03 
-5.404710541836e-05 1.564499946379e-05 0.0 
1.564499946379e-05 2.310460762638e-04 0.0 
0.0 0.0 -4.512473402930e-05 
-1.341620833825e-03 -3.423569445624e-05 0.0 
-3.423569445624e-05 8.854172159817e-03 0.0 
0.0 0.0 -1.341620833825e-03 
-1.340051318819e-03 3.419351748214e-06 0.0 
3.419351748214e-06 8.881496154702e-03 0.0 
0.0 0.0 -1.340051318819e-03 
-8.003500561082e-04 -1.973446332083e-04 0.0 
-1.973446332083e-04 5.182732733425e-03 0.0 
0.0 0.0 -7.955197795907e-04 
-6.427190039752e-04 -1.771623886154e-04 0.0 
-1.771623886154e-04 4.219584582941e-03 0.0 
0.0 0.0 -6.428246066218e-04 
-9.539959357727e-04 -1.903436421629e-04 0.0 
-1.903436421629e-04 6.384067375959e-03 0.0 
0.0 0.0 -9.543595451430e-04 
-6.046483611248e-04 -1.904684548622e-04 0.0 
-1.904684548622e-04 3.941030960147e-03 0.0 
0.0 0.0 -6.041149214933e-04 
-2.015327089857e-04 -1.787857606077e-04 0.0 
-1.787857606077e-04 1.215175486256e-03 0.0 
0.0 0.0 -2.095884814006e-04 
-1.358502302165e-04 -1.652436952664e-04 0.0 
-1.652436952664e-04 5.860561493667e-04 0.0 
0.0 0.0 -1.201211790779e-04 
-1.224116731780e-03 -1.601620163346e-04 0.0 
-1.601620163346e-04 8.159917680932e-03 0.0 
0.0 0.0 -1.209499414335e-03 
-9.670306227229e-04 -2.102097021759e-04 0.0 
-2.102097021759e-04 6.456763428288e-03 0.0 
0.0 0.0 -9.648175333861e-04 
-7.505793698933e-04 -1.832067976458e-04 0.0 
-1.832067976458e-04 4.862883335491e-03 0.0 
0.0 0.0 -7.224789237172e-04 
-1.308106101880e-03 -9.564346375640e-06 0.0 
-9.564346375640e-06 9.104818726286e-03 0.0 
0.0 0.0 -1.323661129950e-03 
-3.723881451927e-04 -2.095753772030e-04 0.0 
-2.095753772030e-04 2.251170567838e-03 0.0 
0.0 0.0 -3.615704333793e-04 
-1.338587368780e-03 -1.150799812337e-05 0.0 
-1.150799812337e-05 9.097604261257e-03 0.0 
0.0 0.0 -1.324908485340e-03 
-9.656783964584e-04 1.862090128514e-04 0.0 
1.862090128514e-04 6.391762053029e-03 0.0 
0.0 0.0 -9.670422101491e-04 
-6.322851321105e-04 -1.782670103148e-04 0.0 
-1.782670103148e-04 4.156088603212e-03 0.0 
0.0 0.0 -6.336394413500e-04 
-9.215195886709e-04 1.858262024962e-04 0.0 
1.858262024962e-04 6.065159777351e-03 0.0 
0.0 0.0 -9.212972352143e-04 
-6.095245585205e-04 1.817233461859e-04 0.0 
1.817233461859e-04 3.888318231073e-03 0.0 
0.0 0.0 -6.094834619596e-04 
-3.161972729321e-04 2.118996039674e-04 0.0 
2.118996039674e-04 1.862493464303e-03 0.0 
0.0 0.0 -3.160312483096e-04 
-5.714172847083e-04 1.885506067566e-04 0.0 
1.885506067566e-04 3.631122930928e-03 0.0 
0.0 0.0 -5.728018649490e-04 
-1.022496320278e-03 1.929428534962e-04 0.0 
1.929428534962e-04 6.770909400157e-03 0.0 
0.0 0.0 -1.023749757194e-03 
-1.150976429886e-03 -2.032424840275e-04 0.0 
-2.032424840275e-04 7.758939253249e-03 0.0 
0.0 0.0 -1.155390781228e-03 
-6.187002398341e-04 1.818215273869e-04 0.0 
1.818215273869e-04 3.950326342677e-03 0.0 
0.0 0.0 -6.181853003094e-04 
-1.037480631671e-03 1.889356953886e-04 0.0 
1.889356953886e-04 6.873009589990e-03 0.0 
0.0 0.0 -1.036271578259e-03 
0.0 0.0 0.0 
0.0 0.0 0.0 
0.0 0.0 0.0 
-6.276661230388e-04 1.792694929945e-04 0.0 
1.792694929945e-04 4.010933515786e-03 0.0 
0.0 0.0 -6.266282162577e-04 
-1.067618640436e-03 -2.059979659696e-04 0.0 
-2.059979659696e-04 7.168819223232e-03 0.0 
0.0 0.0 -1.066385360782e-03 
-5.602476022505e-04 1.913249262792e-04 0.0 
1.913249262792e-04 3.548859392025e-03 0.0 
0.0 0.0 -5.616069800515e-04 
-5.034317169211e-04 -1.766316395616e-04 0.0 
-1.766316395616e-04 3.262973984744e-03 0.0 
0.0 0.0 -5.052880831394e-04 
-9.189958469858e-04 -1.860644213167e-04 0.0 
-1.860644213167e-04 6.131142810909e-03 0.0 
0.0 0.0 -9.187611816440e-04 
-2.798438621563e-04 2.024562614015e-04 0.0 
2.024562614015e-04 1.659164072585e-03 0.0 
0.0 0.0 -2.979563435985e-04 
-4.237702008277e-04 -1.193704641066e-04 0.0 
-1.193704641066e-04 2.381332436810e-03 0.0 
0.0 0.0 -3.867203691650e-04 
-3.975764326489e-04 -1.798608620237e-04 0.0 
-1.798608620237e-04 2.707475849368e-03 0.0 
0.0 0.0 -4.195921675762e-04 
-4.963058465455e-04 1.849091904100e-04 0.0 
1.849091904100e-04 3.099739962777e-03 0.0 
0.0 0.0 -4.973376392308e-04 
-8.459383987434e-04 -1.907145818210e-04 0.0 
-1.907145818210e-04 5.622335891913e-03 0.0 
0.0 0.0 -8.444178005646e-04 
-8.162577903273e-04 1.917219888079e-04 0.0 
1.917219888079e-04 5.328762658263e-03 0.0 
0.0 0.0 -8.147327860212e-04 
-1.033805230839e-03 -2.014200165048e-04 0.0 
-2.014200165048e-04 6.928519613423e-03 0.0 
0.0 0.0 -1.033897369924e-03 
-1.221633880436e-03 1.327525419154e-04 0.0 
1.327525419154e-04 8.105302040654e-03 0.0 
0.0 0.0 -1.224260864640e-03 
-4.437323643489e-04 1.289034247085e-04 0.0 
1.289034247085e-04 2.824272473931e-03 0.0 
0.0 0.0 -4.570814260163e-04 
-1.026282183515e-03 -2.469645237371e-04 0.0 
-2.469645237371e-04 6.837925098464e-03 0.0 
0.0 0.0 -1.028620860735e-03 
-1.232340650598e-03 1.232265702215e-04 0.0 
1.232265702215e-04 8.131356307241e-03 0.0 
0.0 0.0 -1.228414553209e-03 
-5.714514367838e-04 1.903885160707e-04 0.0 
1.903885160707e-04 3.625837711505e-03 0.0 
0.0 0.0 -5.707601703556e-04 
-2.135565257302e-04 2.102195190307e-04 0.0 
2.102195190307e-04 1.190116728888e-03 0.0 
0.0 0.0 -2.192200328082e-04 
-5.324811030586e-04 -1.564509498562e-04 0.0 
-1.564509498562e-04 3.456619354267e-03 0.0 
0.0 0.0 -5.330167430730e-04 
-8.085387987626e-04 -1.885177874860e-04 0.0 
-1.885177874860e-04 5.361946972923e-03 0.0 
0.0 0.0 -8.082977034869e-04 
-1.047924752938e-03 1.956397865657e-04 0.0 
1.956397865657e-04 6.924645327261e-03 0.0 
0.0 0.0 -1.043024347135e-03 
-8.126482086337e-04 1.904262971100e-04 0.0 
1.904262971100e-04 5.297787546946e-03 0.0 
0.0 0.0 -8.108276944599e-04 
-2.458088517301e-04 -1.138196901462e-04 0.0 
-1.138196901462e-04 1.452613291321e-03 0.0 
0.0 0.0 -2.343049260409e-04 
-9.102031090638e-04 -2.013755147983e-04 0.0 
-2.013755147983e-04 6.070783801232e-03 0.0 
0.0 0.0 -9.096068616062e-04 
-3.560167896549e-04 2.151383842189e-04 0.0 
2.151383842189e-04 2.131802985450e-03 0.0 
0.0 0.0 -3.508512830963e-04 
-8.140185260576e-04 -1.926928755880e-04 0.0 
-1.926928755880e-04 5.389465675351e-03 0.0 
0.0 0.0 -8.123573650817e-04 
-8.767776688194e-04 2.024483433581e-04 0.0 
2.024483433581e-04 5.751188307413e-03 0.0 
0.0 0.0 -8.756097305517e-04 
-9.509565837624e-04 1.896974231217e-04 0.0 
1.896974231217e-04 6.265385166788e-03 0.0 
0.0 0.0 -9.491391837787e-04 
-9.274205801970e-04 -1.707730266069e-04 0.0 
-1.707730266069e-04 6.212775611049e-03 0.0 
0.0 0.0 -9.494079867578e-04 
-4.906398001625e-04 -1.749565167891e-04 0.0 
-1.749565167891e-04 3.179973922092e-03 0.0 
0.0 0.0 -4.933620968966e-04 
-2.484574972914e-04 1.853035354059e-04 0.0 
1.853035354059e-04 1.372800011643e-03 0.0 
0.0 0.0 -2.459554264611e-04 
-9.419221611826e-04 2.078178624915e-04 0.0 
2.078178624915e-04 6.213877196692e-03 0.0 
0.0 0.0 -9.415329344942e-04 
-3.796687070467e-04 1.987051729866e-04 0.0 
1.987051729866e-04 2.349690832434e-03 0.0 
0.0 0.0 -3.857152600925e-04 
-1.079925297708e-04 2.094696628342e-04 0.0 
2.094696628342e-04 4.385964497386e-04 0.0 
0.0 0.0 -1.205192217350e-04 
-1.217003238982e-03 1.715975421034e-04 0.0 
1.715975421034e-04 8.115367819263e-03 0.0 
0.0 0.0 -1.223389224544e-03 
-1.152822377069e-03 1.914748152748e-04 0.0 
1.914748152748e-04 7.732583850779e-03 0.0 
0.0 0.0 -1.157435638217e-03 
-9.394432781398e-05 -1.620283716039e-05 0.0 
-1.620283716039e-05 3.135234532214e-04 0.0 
0.0 0.0 -9.410533946034e-05 
-9.757772886518e-04 -2.084469974537e-04 0.0 
-2.084469974537e-04 6.524951865197e-03 0.0 
0.0 0.0 -9.758309632659e-04 
-3.896708157340e-04 -1.763476574511e-04 0.0 
-1.763476574511e-04 2.457499880861e-03 0.0 
0.0 0.0 -3.887237773309e-04 
-4.187709573894e-04 2.113072011152e-04 0.0 
2.113072011152e-04 2.560835545987e-03 0.0 
0.0 0.0 -4.195855280820e-04 
-1.100445862982e-03 1.933828922323e-04 0.0 
1.933828922323e-04 7.327011461119e-03 0.0 
0.0 0.0 -1.100737838324e-03 
-9.470047501208e-04 -1.877990577056e-04 0.0 
-1.877990577056e-04 6.324416518396e-03 0.0 
0.0 0.0 -9.467522836136e-04 
-1.064750852218e-03 1.888034529427e-04 0.0 
1.888034529427e-04 7.071897550473e-03 0.0 
0.0 0.0 -1.064854740548e-03 
-6.246803119835e-04 -1.813696095215e-04 0.0 
-1.813696095215e-04 4.082455365693e-03 0.0 
0.0 0.0 -6.238888496032e-04 
-7.066733059565e-04 2.079397955112e-05 0.0 
2.079397955112e-05 4.859565834242e-03 0.0 
0.0 0.0 -7.105917616147e-04 
-1.294146159652e-03 -3.864697892398e-05 0.0 
-3.864697892398e-05 8.444131533072e-03 0.0 
0.0 0.0 -1.281538364137e-03 
-3.542163761970e-04 2.028127844720e-04 0.0 
2.028127844720e-04 2.096644602115e-03 0.0 
0.0 0.0 -3.541816848729e-04 
-1.125206372116e-03 -1.754172072947e-04 0.0 
-1.754172072947e-04 7.521489804146e-03 0.0 
0.0 0.0 -1.121221582973e-03 
-8.491762958406e-04 -1.918772025260e-04 0.0 
-1.918772025260e-04 5.637172269943e-03 0.0 
0.0 0.0 -8.477100451819e-04 
-2.548170229509e-04 1.666770740484e-04 0.0 
1.666770740484e-04 1.576109573106e-03 0.0 
0.0 0.0 -2.892354545592e-04 
-1.017444257442e-03 1.870623454717e-04 0.0 
1.870623454717e-04 6.717348757917e-03 0.0 
0.0 0.0 -1.015166614560e-03 
-6.631831128869e-04 1.857158928685e-04 0.0 
1.857158928685e-04 4.263729749942e-03 0.0 
0.0 0.0 -6.628028861993e-04 
-1.684732311542e-04 2.043772270918e-05 0.0 
2.043772270918e-05 7.313008481942e-04 0.0 
0.0 0.0 -1.790968519484e-04 
-5.636882380034e-04 1.819527752727e-04 0.0 
1.819527752727e-04 3.574156729662e-03 0.0 
0.0 0.0 -5.632129589051e-04 
-9.884210265131e-04 1.935912308442e-04 0.0 
1.935912308442e-04 6.630368017320e-03 0.0 
0.0 0.0 -9.915417172310e-04 
-1.024292652289e-03 -1.998354067082e-04 0.0 
-1.998354067082e-04 6.855679602380e-03 0.0 
0.0 0.0 -1.020980360542e-03 
-2.668718187998e-04 -1.887143997354e-04 0.0 
-1.887143997354e-04 1.647579462571e-03 0.0 
0.0 0.0 -2.713190868338e-04 
-7.786512140660e-04 -1.180089749439e-04 0.0 
-1.180089749439e-04 5.426201302135e-03 0.0 
0.0 0.0 -8.076288038732e-04 
-1.074110154891e-03 1.985848318847e-04 0.0 
1.985848318847e-04 7.134481455861e-03 0.0 
0.0 0.0 -1.071782534217e-03 
-1.102896231441e-03 -1.801608730721e-04 0.0 
-1.801608730721e-04 7.447194143767e-03 0.0 
0.0 0.0 -1.109893377180e-03 
-5.341916501155e-04 1.805786256932e-04 0.0 
1.805786256932e-04 3.363027861628e-03 0.0 
0.0 0.0 -5.351738145117e-04 
-4.305045173780e-04 1.931657245159e-04 0.0 
1.931657245159e-04 2.621086994850e-03 0.0 
0.0 0.0 -4.333934152438e-04 
-8.799765506504e-04 1.996562479781e-04 0.0 
1.996562479781e-04 5.778741680504e-03 0.0 
0.0 0.0 -8.786267582723e-04 
-9.199821990293e-04 -2.154181819420e-04 0.0 
-2.154181819420e-04 6.117399840533e-03 0.0 
0.0 0.0 -9.278975173457e-04 
-1.674260928547e-04 -1.501342801196e-05 0.0 
-1.501342801196e-05 7.277150164985e-04 0.0 
0.0 0.0 -1.762926913357e-04 
-1.274115998275e-03 1.675675276396e-06 0.0 
1.675675276396e-06 8.713591812970e-03 0.0 
0.0 0.0 -1.269179263065e-03 
-1.298508155882e-03 1.869502884705e-05 0.0 
1.869502884705e-05 8.443421948614e-03 0.0 
0.0 0.0 -1.281197857596e-03 
-8.292940884850e-04 -1.917175163011e-04 0.0 
-1.917175163011e-04 5.414946975704e-03 0.0 
0.0 0.0 -8.387747867703e-04 
-1.244952979202e-03 -2.282010355606e-04 0.0 
-2.282010355606e-04 8.516132030964e-03 0.0 
0.0 0.0 -1.255037608383e-03 
-1.285595461777e-03 8.758262611812e-05 0.0 
8.758262611812e-05 8.470225568410e-03 0.0 
0.0 0.0 -1.285499913836e-03 
-6.550628368552e-04 1.846091374224e-04 0.0 
1.846091374224e-04 4.205898052995e-03 0.0 
0.0 0.0 -6.542748834104e-04 
-6.160633711768e-04 -1.792561832397e-04 0.0 
-1.792561832397e-04 4.023102319788e-03 0.0 
0.0 0.0 -6.153450468602e-04 
-1.283033344166e-03 -3.678337033124e-05 0.0 
-3.678337033124e-05 8.728014596535e-03 0.0 
0.0 0.0 -1.265535665854e-03 
0.0 0.0 0.0 
0.0 0.0 0.0 
0.0 0.0 0.0 
-3.991066787644e-04 2.089649564116e-04 0.0 
2.089649564116e-04 2.425063075378e-03 0.0 
0.0 0.0 -3.941707820484e-04 
-8.514609378297e-04 2.123409869842e-04 0.0 
2.123409869842e-04 5.409120252618e-03 0.0 
0.0 0.0 -8.329475646481e-04 
-5.302799896406e-04 -1.732779148191e-04 0.0 
-1.732779148191e-04 3.448271069514e-03 0.0 
0.0 0.0 -5.313546330462e-04 
-5.563051708704e-04 1.844916340551e-04 0.0 
1.844916340551e-04 3.512912497570e-03 0.0 
0.0 0.0 -5.546931404481e-04 
-3.415568276898e-04 -1.308054941934e-04 0.0 
-1.308054941934e-04 1.889315350148e-03 0.0 
0.0 0.0 -3.196518454468e-04 
-3.575678493770e-04 -1.815157908242e-04 0.0 
-1.815157908242e-04 2.264784395116e-03 0.0 
0.0 0.0 -3.528063275151e-04 
-8.197996438863e-04 -1.649479054574e-04 0.0 
-1.649479054574e-04 5.559213606059e-03 0.0 
0.0 0.0 -8.290026594306e-04 
-5.969369916122e-04 -1.873932769643e-04 0.0 
-1.873932769643e-04 3.888936242251e-03 0.0 
0.0 0.0 -5.962921515785e-04 
-4.656748358331e-04 1.698564554769e-04 0.0 
1.698564554769e-04 2.821912241395e-03 0.0 
0.0 0.0 -4.583473518421e-04 
-1.081990949278e-03 2.020316486048e-04 0.0 
2.020316486048e-04 7.171935137813e-03 0.0 
0.0 0.0 -1.077832113627e-03 
-1.313638198111e-03 -3.076900631440e-06 0.0 
-3.076900631440e-06 9.102354608081e-03 0.0 
0.0 0.0 -1.324978758543e-03 
-1.341095485501e-03 -7.065196985574e-05 0.0 
-7.065196985574e-05 9.093683970561e-03 0.0 
0.0 0.0 -1.320624918399e-03 
-6.462169745443e-04 1.855628978644e-04 0.0 
1.855628978644e-04 4.145339439620e-03 0.0 
0.0 0.0 -6.457427040837e-04 
-7.708747032324e-04 1.041783851500e-04 0.0 
1.041783851500e-04 4.982091340538e-03 0.0 
0.0 0.0 -7.877541558771e-04 
-8.769640556113e-05 6.178156653804e-05 0.0 
6.178156653804e-05 4.782988861832e-04 0.0 
0.0 0.0 -9.215226380795e-05 
-2.633621526955e-04 -2.203101725457e-04 0.0 
-2.203101725457e-04 1.488332341374e-03 0.0 
0.0 0.0 -2.565684379859e-04 
-2.684503074307e-04 -1.015967117788e-04 0.0 
-1.015967117788e-04 1.723596733047e-03 0.0 
0.0 0.0 -2.726290318112e-04 
-2.937144985059e-04 -1.893501464246e-04 0.0 
-1.893501464246e-04 1.729218905568e-03 0.0 
0.0 0.0 -2.902597925154e-04 
-9.132607495649e-04 -1.959093978123e-04 0.0 
-1.959093978123e-04 6.073898974161e-03 0.0 
0.0 0.0 -9.116044729693e-04 
-5.464820601322e-04 1.827990156846e-04 0.0 
1.827990156846e-04 3.450683961523e-03 0.0 
0.0 0.0 -5.459662534218e-04 
-5.889189184564e-04 -1.828572680718e-04 0.0 
-1.828572680718e-04 3.834736165113e-03 0.0 
0.0 0.0 -5.879858557453e-04 
-1.839870051548e-04 -1.451969745408e-04 0.0 
-1.451969745408e-04 1.010884541365e-03 0.0 
0.0 0.0 -1.607067486349e-04 
-1.189299804196e-03 3.101361533276e-05 0.0 
3.101361533276e-05 7.702189552740e-03 0.0 
0.0 0.0 -1.176327079312e-03 
-5.798619533544e-04 -1.808661495353e-04 0.0 
-1.808661495353e-04 3.773380412779e-03 0.0 
0.0 0.0 -5.792774345575e-04 
-1.207908513450e-03 1.972281472903e-04 0.0 
1.972281472903e-04 8.083641670665e-03 0.0 
0.0 0.0 -1.212957849656e-03 
-1.102884565855e-03 -1.433383463998e-04 0.0 
-1.433383463998e-04 7.411218118786e-03 0.0 
0.0 0.0 -1.117460450001e-03 
-1.327052993259e-03 5.039016474574e-05 0.0 
5.039016474574e-05 9.117456944274e-03 0.0 
0.0 0.0 -1.319418651152e-03 
-1.323160438534e-03 4.113209317417e-05 0.0 
4.113209317417e-05 9.111232254039e-03 0.0 
0.0 0.0 -1.324849633189e-03 
-8.429214028197e-04 1.551938721599e-04 0.0 
1.551938721599e-04 5.556754036543e-03 0.0 
0.0 0.0 -8.315138651140e-04 
-6.054182665991e-04 -1.761595556497e-04 0.0 
-1.761595556497e-04 3.962557590825e-03 0.0 
0.0 0.0 -6.063493599945e-04 
-3.773225086312e-04 1.540184482811e-04 0.0 
1.540184482811e-04 2.369883884178e-03 0.0 
0.0 0.0 -3.884917441798e-04 
-6.362526417499e-04 1.880822988670e-04 0.0 
1.880822988670e-04 4.081289822239e-03 0.0 
0.0 0.0 -6.367902913543e-04 
-1.343328350294e-03 -2.242232029301e-05 0.0 
-2.242232029301e-05 8.871791449146e-03 0.0 
0.0 0.0 -1.343328350294e-03 
-1.941237960476e-04 -2.080169990243e-04 0.0 
-2.080169990243e-04 1.015510769409e-03 0.0 
0.0 0.0 -1.893367542308e-04 
-2.245210048569e-04 -1.692984650136e-04 0.0 
-1.692984650136e-04 1.259236592297e-03 0.0 
0.0 0.0 -2.228547875044e-04 
-1.167115373107e-03 -1.495116845835e-04 0.0 
-1.495116845835e-04 7.791699083978e-03 0.0 
0.0 0.0 -1.156027955174e-03 
-7.604196719999e-04 1.094016003118e-05 0.0 
1.094016003118e-05 5.257478836262e-03 0.0 
0.0 0.0 -7.715229432315e-04 
-1.218850929264e-03 2.058644676408e-04 0.0 
2.058644676408e-04 8.144525734943e-03 0.0 
0.0 0.0 -1.219279742240e-03 
-1.071479820018e-03 -2.036323164842e-04 0.0 
-2.036323164842e-04 7.177512432405e-03 0.0 
0.0 0.0 -1.069611963270e-03 
-1.173316210076e-03 1.967322517175e-04 0.0 
1.967322517175e-04 7.835584524311e-03 0.0 
0.0 0.0 -1.175036385391e-03 
-1.118458415257e-03 -2.207277967068e-04 0.0 
-2.207277967068e-04 7.508134580034e-03 0.0 
0.0 0.0 -1.113576918908e-03 
-8.412072480000e-04 1.822595111316e-04 0.0 
1.822595111316e-04 5.484810982914e-03 0.0 
0.0 0.0 -8.542750875040e-04 
-4.656106938285e-04 -1.713235230467e-04 0.0 
-1.713235230467e-04 3.001776381545e-03 0.0 
0.0 0.0 -4.674384380614e-04 
-4.697017346435e-04 1.848050694814e-04 0.0 
1.848050694814e-04 2.920597782787e-03 0.0 
0.0 0.0 -4.715697005044e-04 
-9.776991098989e-04 1.861960494422e-04 0.0 
1.861960494422e-04 6.549106674112e-03 0.0 
0.0 0.0 -9.963059934037e-04 
-1.137349181097e-03 -2.318464835195e-04 0.0 
-2.318464835195e-04 7.668040183404e-03 0.0 
0.0 0.0 -1.142506377625e-03 
-7.233340711098e-04 3.952444560700e-05 0.0 
3.952444560700e-05 4.569127107640e-03 0.0 
0.0 0.0 -7.345222264051e-04 
-7.670993363219e-04 9.419055026096e-06 0.0 
9.419055026096e-06 5.242908179151e-03 0.0 
0.0 0.0 -7.676068998053e-04 
-8.154774784067e-04 -6.428956903028e-05 0.0 
-6.428956903028e-05 5.577286133226e-03 0.0 
0.0 0.0 -8.242303029217e-04 
-8.631530775677e-04 -2.400243606270e-04 0.0 
-2.400243606270e-04 5.666444636218e-03 0.0 
0.0 0.0 -8.467401457521e-04 
-2.520894261651e-04 1.671748571763e-04 0.0 
1.671748571763e-04 1.368563506489e-03 0.0 
0.0 0.0 -2.397236108670e-04 
-4.305788114654e-04 1.772776305973e-04 0.0 
1.772776305973e-04 2.648122848143e-03 0.0 
0.0 0.0 -4.335179088089e-04 
-1.282591321733e-03 8.806658448807e-05 0.0 
8.806658448807e-05 8.712918664304e-03 0.0 
0.0 0.0 -1.269310366786e-03 
-9.079866980401e-04 -2.164843828384e-04 0.0 
-2.164843828384e-04 6.067165963346e-03 0.0 
0.0 0.0 -9.150577043801e-04 
-1.296402067617e-03 1.470406796951e-04 0.0 
1.470406796951e-04 8.670707295504e-03 0.0 
0.0 0.0 -1.295322057178e-03 
-1.218050556302e-03 -1.658124096046e-04 0.0 
-1.658124096046e-04 8.300187960416e-03 0.0 
0.0 0.0 -1.215577547940e-03 
-1.017494637499e-03 -1.921677140224e-04 0.0 
-1.921677140224e-04 6.789033766802e-03 0.0 
0.0 0.0 -1.012565562176e-03 
-1.225370251071e-03 -1.480578321934e-04 0.0 
-1.480578321934e-04 8.186203026488e-03 0.0 
0.0 0.0 -1.214907066889e-03 
-6.126094482220e-04 1.499930831992e-04 0.0 
1.499930831992e-04 3.952786327319e-03 0.0 
0.0 0.0 -6.304496659280e-04 
-5.949124951754e-04 1.553635317388e-04 0.0 
1.553635317388e-04 3.760564116659e-03 0.0 
0.0 0.0 -5.666856080635e-04 
-1.240251440986e-03 1.401266566938e-04 0.0 
1.401266566938e-04 8.128078577480e-03 0.0 
0.0 0.0 -1.226851238141e-03 
-8.681779237156e-05 6.361966938885e-05 0.0 
6.361966938885e-05 2.955256088907e-04 0.0 
0.0 0.0 -8.944620707962e-05 
-3.994468741372e-04 -6.433767031829e-05 0.0 
-6.433767031829e-05 2.663800316761e-03 0.0 
0.0 0.0 -4.071640756073e-04 
-1.342405754833e-03 -1.165290042756e-05 0.0 
-1.165290042756e-05 8.847278625245e-03 0.0 
0.0 0.0 -1.342405754833e-03 
-2.282183831112e-04 -1.931913246920e-04 0.0 
-1.931913246920e-04 1.161289386138e-03 0.0 
0.0 0.0 -2.265802816212e-04 
-7.779914563104e-04 2.250840471903e-05 0.0 
2.250840471903e-05 4.976100040424e-03 0.0 
0.0 0.0 -7.870118106326e-04 
-1.235301241696e-03 -4.597267687937e-05 0.0 
-4.597267687937e-05 8.352549433381e-03 0.0 
0.0 0.0 -1.213461936786e-03 
-1.459711515859e-04 1.404844411891e-04 0.0 
1.404844411891e-04 8.229618690863e-04 0.0 
0.0 0.0 -1.562362318668e-04 
-9.769154927044e-05 -4.466849095833e-05 0.0 
-4.466849095833e-05 5.434427193163e-04 0.0 
0.0 0.0 -9.998712429274e-05 
-1.319764072821e-03 -1.098631366030e-04 0.0 
-1.098631366030e-04 9.086194502793e-03 0.0 
0.0 0.0 -1.324389858384e-03 
-7.180738404627e-04 8.985801949801e-05 0.0 
8.985801949801e-05 4.589525670273e-03 0.0 
0.0 0.0 -7.294542769151e-04 
-1.252043255197e-03 2.202164088421e-04 0.0 
2.202164088421e-04 8.539160480101e-03 0.0 
0.0 0.0 -1.261418349269e-03 
-1.248383097869e-03 1.112925246997e-05 0.0 
1.112925246997e-05 8.098072079257e-03 0.0 
0.0 0.0 -1.231858344535e-03 
-7.209227692000e-04 -5.510654877102e-05 0.0 
-5.510654877102e-05 4.575450219389e-03 0.0 
0.0 0.0 -7.289279708929e-04 
-7.887389828812e-05 -1.017830300424e-05 0.0 
-1.017830300424e-05 5.525360744204e-04 0.0 
0.0 0.0 -9.740250892546e-05 
-1.285641185581e-03 -9.669087187551e-05 0.0 
-9.669087187551e-05 8.464210102403e-03 0.0 
0.0 0.0 -1.284140717545e-03 
-2.442885352264e-04 -2.316128597143e-04 0.0 
-2.316128597143e-04 1.339036366238e-03 0.0 
0.0 0.0 -2.433545560381e-04 
-1.243394787484e-03 1.248159333678e-04 0.0 
1.248159333678e-04 8.192432393622e-03 0.0 
0.0 0.0 -1.232184317627e-03 
-1.343095105526e-03 -5.545911197487e-07 0.0 
-5.545911197487e-07 8.861098076103e-03 0.0 
0.0 0.0 -1.343095105526e-03 
-1.242483488035e-03 -1.476678323207e-04 0.0 
-1.476678323207e-04 8.164481882699e-03 0.0 
0.0 0.0 -1.225700354592e-03 
-3.053173479734e-04 1.995595624776e-04 0.0 
1.995595624776e-04 1.753941284829e-03 0.0 
0.0 0.0 -3.044764127662e-04 
-8.209179416884e-04 2.201614491102e-05 0.0 
2.201614491102e-05 5.636691216410e-03 0.0 
0.0 0.0 -8.279144014868e-04 
-6.598213782971e-04 -1.321361913960e-04 0.0 
-1.321361913960e-04 4.200506500251e-03 0.0 
0.0 0.0 -6.271989868224e-04 
-1.073009497438e-03 -2.016133877390e-04 0.0 
-2.016133877390e-04 7.190278966189e-03 0.0 
0.0 0.0 -1.077599360682e-03 
-1.322804215539e-03 -9.225806505936e-05 0.0 
-9.225806505936e-05 9.099454060859e-03 0.0 
0.0 0.0 -1.326997735404e-03 
-1.068734190482e-03 1.262415369069e-04 0.0 
1.262415369069e-04 7.132952485478e-03 0.0 
0.0 0.0 -1.061614915164e-03 
-1.337358869243e-03 1.104149306633e-04 0.0 
1.104149306633e-04 9.089889591754e-03 0.0 
0.0 0.0 -1.325870641008e-03 
-1.438532979018e-04 1.783345522892e-04 0.0 
1.783345522892e-04 7.477808023261e-04 0.0 
0.0 0.0 -1.715795432680e-04 
-1.271233225915e-03 -1.249047643759e-04 0.0 
-1.249047643759e-04 8.707020070809e-03 0.0 
0.0 0.0 -1.277656510522e-03 
-3.430844418630e-04 1.264811275403e-04 0.0 
1.264811275403e-04 2.040518818998e-03 0.0 
0.0 0.0 -3.355960889912e-04 
-2.267326677211e-04 8.751186841265e-05 0.0 
8.751186841265e-05 1.117406703756e-03 0.0 
0.0 0.0 -2.298118214877e-04 
-1.280901782935e-03 -1.009695952617e-04 0.0 
-1.009695952617e-04 8.719202259105e-03 0.0 
0.0 0.0 -1.270335377537e-03 
-1.269212628500e-03 -5.703432125204e-05 0.0 
-5.703432125204e-05 8.728165820739e-03 0.0 
0.0 0.0 -1.270603359501e-03 
-1.290208848841e-03 -1.659042855401e-04 0.0 
-1.659042855401e-04 8.665328582140e-03 0.0 
0.0 0.0 -1.289850838753e-03 
-7.717572245572e-04 2.050611335138e-04 0.0 
2.050611335138e-04 5.043252484980e-03 0.0 
0.0 0.0 -7.762633204683e-04 
-8.522136042615e-04 2.002639843872e-04 0.0 
2.002639843872e-04 5.495330100218e-03 0.0 
0.0 0.0 -8.489529362435e-04 
-3.165071740037e-04 -2.111753426379e-04 0.0 
-2.111753426379e-04 1.888408226457e-03 0.0 
0.0 0.0 -3.134500106614e-04 
-1.262455248765e-03 -8.092303513725e-05 0.0 
-8.092303513725e-05 8.720636871640e-03 0.0 
0.0 0.0 -1.273041473476e-03 
-5.172296523503e-04 1.719980447266e-04 0.0 
1.719980447266e-04 3.374654497821e-03 0.0 
0.0 0.0 -5.357483711987e-04 
-1.781924616035e-04 -1.691974037748e-04 0.0 
-1.691974037748e-04 1.076416545497e-03 0.0 
0.0 0.0 -2.114276361914e-04 
-1.103945436021e-03 1.858035491712e-04 0.0 
1.858035491712e-04 7.419563175353e-03 0.0 
0.0 0.0 -1.110141529071e-03 
-7.006483677025e-04 -2.017256137277e-05 0.0 
-2.017256137277e-05 4.817249357728e-03 0.0 
0.0 0.0 -7.096328662732e-04 
-1.236750495474e-03 1.522707816399e-04 0.0 
1.522707816399e-04 8.254648441428e-03 0.0 
0.0 0.0 -1.237729719596e-03 
-1.313320395878e-03 -1.861843894466e-04 0.0 
-1.861843894466e-04 8.989774958204e-03 0.0 
0.0 0.0 -1.321509982054e-03 
-1.343732204276e-03 -8.189586176291e-06 0.0 
-8.189586176291e-06 8.864848236539e-03 0.0 
0.0 0.0 -1.343732204276e-03 
-2.113977103276e-05 -6.116564405319e-05 0.0 
-6.116564405319e-05 2.124468673954e-04 0.0 
0.0 0.0 -4.293446239042e-05 
-1.369574587126e-05 5.682883385809e-05 0.0 
5.682883385809e-05 6.671587994240e-05 0.0 
0.0 0.0 -2.272291460191e-05 
-7.269437089926e-04 -1.696449694041e-04 0.0 
-1.696449694041e-04 4.683701017331e-03 0.0 
0.0 0.0 -7.318233512793e-04 
-7.351939856936e-04 2.731264159549e-05 0.0 
2.731264159549e-05 4.828327016366e-03 0.0 
0.0 0.0 -7.096011290571e-04 
-1.343732204276e-03 1.179896387127e-05 0.0 
1.179896387127e-05 8.857063084495e-03 0.0 
0.0 0.0 -1.343732204276e-03 
-1.309711018183e-03 1.830632258289e-04 0.0 
1.830632258289e-04 8.985110969777e-03 0.0 
0.0 0.0 -1.321509982054e-03 
-7.839023714454e-05 1.530759167140e-04 0.0 
1.530759167140e-04 4.984351001574e-04 0.0 
0.0 0.0 -9.787861857360e-05 
0.0 0.0 0.0 
0.0 0.0 0.0 
0.0 0.0 0.0 
-1.240428741391e-03 1.261681395074e-04 0.0 
1.261681395074e-04 8.137366373926e-03 0.0 
0.0 0.0 -1.230181737024e-03 
-1.207075559038e-03 2.460354552528e-04 0.0 
2.460354552528e-04 8.184062138694e-03 0.0 
0.0 0.0 -1.209364118140e-03 
-2.516969952369e-04 -1.461428108360e-04 0.0 
-1.461428108360e-04 1.687102641450e-03 0.0 
0.0 0.0 -2.712674790923e-04 
-1.245262172265e-03 -1.311938195304e-04 0.0 
-1.311938195304e-04 8.282968492479e-03 0.0 
0.0 0.0 -1.240191881334e-03 
-8.815159713630e-04 -5.214653451830e-05 0.0 
-5.214653451830e-05 5.742054567636e-03 0.0 
0.0 0.0 -8.888375990210e-04 
-7.830091470663e-04 -1.948066662001e-04 0.0 
-1.948066662001e-04 5.082527524584e-03 0.0 
0.0 0.0 -7.610796297342e-04 
-9.561048422874e-04 9.798803026410e-05 0.0 
9.798803026410e-05 6.427121213030e-03 0.0 
0.0 0.0 -9.400782610458e-04 
-2.481095332731e-04 1.496361777490e-04 0.0 
1.496361777490e-04 1.515795619755e-03 0.0 
0.0 0.0 -2.626203152100e-04 
-1.010907895305e-03 -2.030439122721e-04 0.0 
-2.030439122721e-04 6.762603191826e-03 0.0 
0.0 0.0 -1.011657465016e-03 
-2.096777059838e-04 3.248157080114e-05 0.0 
3.248157080114e-05 1.393633952846e-03 0.0 
0.0 0.0 -2.181484037039e-04 
-6.792638343958e-04 -1.892634513453e-04 0.0 
-1.892634513453e-04 4.524953282507e-03 0.0 
0.0 0.0 -6.997415131527e-04 
-1.228132135990e-03 1.125898781112e-04 0.0 
1.125898781112e-04 8.215057351811e-03 0.0 
0.0 0.0 -1.240519096027e-03 
-1.189706231828e-03 -2.131151468577e-04 0.0 
-2.131151468577e-04 8.025000395541e-03 0.0 
0.0 0.0 -1.191726112421e-03 
-7.376716687014e-04 1.103821202308e-04 0.0 
1.103821202308e-04 4.884590449632e-03 0.0 
0.0 0.0 -7.690942022927e-04 
-8.794968587204e-04 -1.839618802493e-04 0.0 
-1.839618802493e-04 5.894695197839e-03 0.0 
0.0 0.0 -8.745659502648e-04 
-1.233301431487e-03 8.160038213143e-05 0.0 
8.160038213143e-05 8.358065301524e-03 0.0 
0.0 0.0 -1.217119345310e-03 
-1.141574387304e-03 -2.166019370136e-04 0.0 
-2.166019370136e-04 7.685657586840e-03 0.0 
0.0 0.0 -1.140944809983e-03 
-1.081193771009e-03 -2.086711321348e-04 0.0 
-2.086711321348e-04 7.235399972245e-03 0.0 
0.0 0.0 -1.076426999079e-03 
-7.306608964195e-04 1.032073657573e-05 0.0 
1.032073657573e-05 4.566565227243e-03 0.0 
0.0 0.0 -7.312123441678e-04 
-9.778650762194e-04 -2.118658920496e-04 0.0 
-2.118658920496e-04 6.529297964408e-03 0.0 
0.0 0.0 -9.763781674015e-04 
-1.237478436388e-03 1.224174650820e-04 0.0 
1.224174650820e-04 8.159420566097e-03 0.0 
0.0 0.0 -1.231404929774e-03 
-4.267545194732e-04 1.185171473708e-04 0.0 
1.185171473708e-04 2.513528635352e-03 0.0 
0.0 0.0 -4.167967844001e-04 
-9.921663346532e-05 -4.441075622368e-05 0.0 
-4.441075622368e-05 6.032903446550e-04 0.0 
0.0 0.0 -1.015157820784e-04 
-1.196520802042e-03 -1.451432414406e-04 0.0 
-1.451432414406e-04 7.939655555732e-03 0.0 
0.0 0.0 -1.185975225609e-03 
-1.126502929027e-03 1.777561321906e-04 0.0 
1.777561321906e-04 7.477268686063e-03 0.0 
0.0 0.0 -1.123538223191e-03 
-2.078344596569e-04 -1.080252995940e-04 0.0 
-1.080252995940e-04 1.116725601039e-03 0.0 
0.0 0.0 -2.307047010092e-04 
-9.934730169899e-04 -1.599306293238e-04 0.0 
-1.599306293238e-04 6.730831912440e-03 0.0 
0.0 0.0 -9.893338170986e-04 
-1.294485487258e-03 -4.211486433477e-05 0.0 
-4.211486433477e-05 8.454062998903e-03 0.0 
0.0 0.0 -1.282739585886e-03 
-1.188427124013e-03 1.207612322075e-04 0.0 
1.207612322075e-04 7.845258460139e-03 0.0 
0.0 0.0 -1.182073443778e-03 
-1.229516741237e-03 -2.922411445841e-05 0.0 
-2.922411445841e-05 8.351941012253e-03 0.0 
0.0 0.0 -1.215129606110e-03 
-9.509005340635e-04 -2.110936823322e-04 0.0 
-2.110936823322e-04 6.286467037558e-03 0.0 
0.0 0.0 -9.537126495859e-04 
-9.113657589557e-05 5.031862656050e-05 0.0 
5.031862656050e-05 3.206408784025e-04 0.0 
0.0 0.0 -9.835898678870e-05 
-3.211470424961e-04 1.012653271346e-04 0.0 
1.012653271346e-04 1.877306534774e-03 0.0 
0.0 0.0 -3.212443691966e-04 
-3.868345573261e-04 -2.158079183948e-04 0.0 
-2.158079183948e-04 2.373525116556e-03 0.0 
0.0 0.0 -3.834349432650e-04 
-8.152074782471e-04 3.282099269051e-05 0.0 
3.282099269051e-05 5.366100763401e-03 0.0 
0.0 0.0 -8.471429939415e-04 
-9.776446367943e-04 2.161934057613e-04 0.0 
2.161934057613e-04 6.478555405996e-03 0.0 
0.0 0.0 -9.781602908260e-04 
-1.243353399719e-03 -1.638877946273e-04 0.0 
-1.638877946273e-04 8.293874922919e-03 0.0 
0.0 0.0 -1.236541257690e-03 
-1.282980388071e-03 6.834535406589e-05 0.0 
6.834535406589e-05 8.446722746771e-03 0.0 
0.0 0.0 -1.282325209426e-03 
-1.534406041715e-04 -3.090119355694e-05 0.0 
-3.090119355694e-05 9.940803017300e-04 0.0 
0.0 0.0 -1.581060378624e-04 
-1.515974677088e-04 5.347591743208e-05 0.0 
5.347591743208e-05 9.499659581657e-04 0.0 
0.0 0.0 -1.538280640939e-04 
-2.429997348883e-04 2.036444813407e-04 0.0 
2.036444813407e-04 1.479432396381e-03 0.0 
0.0 0.0 -2.585189829319e-04 
-1.003671688667e-03 2.798952750374e-04 0.0 
2.798952750374e-04 6.711627995117e-03 0.0 
0.0 0.0 -1.019242131223e-03 
-5.082641639813e-04 -1.820796698733e-04 0.0 
-1.820796698733e-04 3.225266612081e-03 0.0 
0.0 0.0 -4.953283059016e-04 
-1.242349672414e-03 -1.508059351584e-04 0.0 
-1.508059351584e-04 8.332022443394e-03 0.0 
0.0 0.0 -1.241298427557e-03 
-2.469827383889e-04 -1.734013788771e-04 0.0 
-1.734013788771e-04 1.596418989747e-03 0.0 
0.0 0.0 -2.623907620756e-04 
-1.225402262687e-03 9.684378834706e-05 0.0 
9.684378834706e-05 8.090992196230e-03 0.0 
0.0 0.0 -1.221152601860e-03 
-8.136377301275e-04 1.789287431362e-04 0.0 
1.789287431362e-04 5.446005510680e-03 0.0 
0.0 0.0 -8.343732341398e-04 
-1.267827958096e-03 1.379445383962e-06 0.0 
1.379445383962e-06 8.495733417342e-03 0.0 
0.0 0.0 -1.286815605725e-03 
-1.109817670536e-03 -2.343370330106e-04 0.0 
-2.343370330106e-04 7.482609533300e-03 0.0 
0.0 0.0 -1.111121968474e-03 
-8.202418952196e-04 -8.830664857145e-05 0.0 
-8.830664857145e-05 5.379056120884e-03 0.0 
0.0 0.0 -8.465141837044e-04 
-1.270879538861e-03 -4.852122928064e-05 0.0 
-4.852122928064e-05 8.726187780208e-03 0.0 
0.0 0.0 -1.269142588751e-03 
-1.282679052200e-03 7.789633126417e-05 0.0 
7.789633126417e-05 8.731686959293e-03 0.0 
0.0 0.0 -1.272727265576e-03 
-1.257303152988e-03 6.224102812164e-05 0.0 
6.224102812164e-05 8.713074082016e-03 0.0 
0.0 0.0 -1.271339345674e-03 
-1.734083018693e-04 1.988310073063e-04 0.0 
1.988310073063e-04 9.960919397328e-04 0.0 
0.0 0.0 -1.914719991171e-04 
-1.218228496203e-03 1.745230460975e-04 0.0 
1.745230460975e-04 8.126336924162e-03 0.0 
0.0 0.0 -1.218309553141e-03 
-1.287690608828e-03 2.935127504917e-05 0.0 
2.935127504917e-05 8.450884291377e-03 0.0 
0.0 0.0 -1.286645293131e-03 
-1.215292120313e-03 -1.048319889730e-04 0.0 
-1.048319889730e-04 8.264175100215e-03 0.0 
0.0 0.0 -1.211735819529e-03 
-1.131460186021e-03 2.249929147143e-04 0.0 
2.249929147143e-04 7.604741910755e-03 0.0 
0.0 0.0 -1.143254064081e-03 
-1.342665167303e-03 2.462626238338e-05 0.0 
2.462626238338e-05 8.842656329326e-03 0.0 
0.0 0.0 -1.342665167303e-03 
-1.082512435834e-03 2.096972143521e-04 0.0 
2.096972143521e-04 7.169850347795e-03 0.0 
0.0 0.0 -1.079065255302e-03 
0.0 0.0 0.0 
0.0 0.0 0.0 
0.0 0.0 0.0 
-2.601109826526e-04 -2.071691114659e-04 0.0 
-2.071691114659e-04 1.415839820494e-03 0.0 
0.0 0.0 -2.423809483696e-04 
-1.192508312149e-03 -1.779210084662e-04 0.0 
-1.779210084662e-04 7.961128754995e-03 0.0 
0.0 0.0 -1.176936364471e-03 
-8.685626322098e-04 1.582275665783e-04 0.0 
1.582275665783e-04 5.835782021141e-03 0.0 
0.0 0.0 -8.884613587993e-04 
-1.209889234857e-03 -1.955325308150e-04 0.0 
-1.955325308150e-04 8.188769710119e-03 0.0 
0.0 0.0 -1.221994126432e-03 
-1.170503729369e-03 -2.209983450853e-04 0.0 
-2.209983450853e-04 7.908922597115e-03 0.0 
0.0 0.0 -1.177009544428e-03 
-1.281372639421e-03 -4.882657488487e-05 0.0 
-4.882657488487e-05 8.503605837596e-03 0.0 
0.0 0.0 -1.292249833993e-03 
-1.060591200895e-03 2.356899093670e-04 0.0 
2.356899093670e-04 7.243032913762e-03 0.0 
0.0 0.0 -1.085521458831e-03 
-1.295424128128e-03 -1.344853644126e-05 0.0 
-1.344853644126e-05 8.497735658802e-03 0.0 
0.0 0.0 -1.288973456333e-03 
-1.240273266268e-03 -1.643959908807e-04 0.0 
-1.643959908807e-04 8.288290248441e-03 0.0 
0.0 0.0 -1.233322439334e-03 
-1.236328969747e-03 1.681015718690e-04 0.0 
1.681015718690e-04 8.249087621686e-03 0.0 
0.0 0.0 -1.235043566395e-03 
-5.200406812990e-04 -1.166757664341e-04 0.0 
-1.166757664341e-04 3.385215487565e-03 0.0 
0.0 0.0 -5.104964012366e-04 
-1.293388642315e-03 -2.007549829058e-05 0.0 
-2.007549829058e-05 9.114239519402e-03 0.0 
0.0 0.0 -1.325641941534e-03 
-7.485652657637e-04 1.433772634919e-05 0.0 
1.433772634919e-05 5.220751556451e-03 0.0 
0.0 0.0 -7.662153309038e-04 
-1.203353616891e-03 -1.846454248329e-04 0.0 
-1.846454248329e-04 8.194731648824e-03 0.0 
0.0 0.0 -1.217406395242e-03 
-1.473848137133e-04 -7.608252406758e-05 0.0 
-7.608252406758e-05 7.058205605385e-04 0.0 
0.0 0.0 -1.761976461317e-04 
-1.139762521842e-03 -1.242981094265e-04 0.0 
-1.242981094265e-04 7.914367669760e-03 0.0 
0.0 0.0 -1.163202487293e-03 
-9.847139031094e-04 -2.927819349531e-05 0.0 
-2.927819349531e-05 6.802999958382e-03 0.0 
0.0 0.0 -9.926133712568e-04 
-1.690893902523e-04 -1.078602895255e-04 0.0 
-1.078602895255e-04 9.402080020993e-04 0.0 
0.0 0.0 -1.628620303624e-04 
-2.985531882030e-04 -2.240216763461e-04 0.0 
-2.240216763461e-04 1.642242196626e-03 0.0 
0.0 0.0 -2.736924314970e-04 
-1.111715101682e-03 2.179506947960e-04 0.0 
2.179506947960e-04 7.377812155317e-03 0.0 
0.0 0.0 -1.107581195644e-03 
-1.292896746142e-03 -1.945315972067e-05 0.0 
-1.945315972067e-05 8.475231004044e-03 0.0 
0.0 0.0 -1.285368862661e-03 
-1.232559661219e-03 -1.674576161592e-04 0.0 
-1.674576161592e-04 8.301292046622e-03 0.0 
0.0 0.0 -1.223917301752e-03 
-1.254461742942e-03 2.341900515223e-04 0.0 
2.341900515223e-04 8.559507473306e-03 0.0 
0.0 0.0 -1.264779455601e-03 
-8.799678260909e-04 2.461510225769e-04 0.0 
2.461510225769e-04 5.779390736262e-03 0.0 
0.0 0.0 -8.807565902733e-04 
-9.459318500233e-05 -9.224025008730e-06 0.0 
-9.224025008730e-06 5.593643268762e-04 0.0 
0.0 0.0 -1.022500568216e-04 
-1.184228338263e-04 1.932393774192e-04 0.0 
1.932393774192e-04 8.360742900508e-04 0.0 
0.0 0.0 -1.527632439532e-04 
-1.485774023437e-04 2.057472114591e-04 0.0 
2.057472114591e-04 4.943058849460e-04 0.0 
0.0 0.0 -1.262112556552e-04 
-1.889957332613e-04 -1.720729644020e-04 0.0 
-1.720729644020e-04 1.198989706623e-03 0.0 
0.0 0.0 -2.080055930776e-04 
-2.412796962869e-05 1.151125546851e-04 0.0 
1.151125546851e-04 1.259903231300e-04 0.0 
0.0 0.0 -4.365529435769e-05 
-6.564338874859e-04 1.298407551403e-04 0.0 
1.298407551403e-04 4.516305724261e-03 0.0 
0.0 0.0 -6.753304527203e-04 
-1.206082523732e-03 1.933788045722e-04 0.0 
1.933788045722e-04 8.180269090487e-03 0.0 
0.0 0.0 -1.222305993939e-03 
-1.222663318362e-03 1.753368055927e-04 0.0 
1.753368055927e-04 8.227435580213e-03 0.0 
0.0 0.0 -1.222833113937e-03 
-8.669258191564e-04 -1.817944922656e-04 0.0 
-1.817944922656e-04 5.844176131481e-03 0.0 
0.0 0.0 -8.826313165011e-04 
-6.040048573085e-04 -2.738267400019e-04 0.0 
-2.738267400019e-04 3.891940944486e-03 0.0 
0.0 0.0 -5.988529843847e-04 
-1.222353962553e-03 -1.610597655754e-04 0.0 
-1.610597655754e-04 8.260198203253e-03 0.0 
0.0 0.0 -1.221067908166e-03 
-1.203746913663e-03 2.278206710251e-04 0.0 
2.278206710251e-04 8.189793790316e-03 0.0 
0.0 0.0 -1.208702654310e-03 
-1.279025858978e-03 8.766018994022e-05 0.0 
8.766018994022e-05 8.741593274881e-03 0.0 
0.0 0.0 -1.272252409145e-03 
-1.242705220595e-03 -3.696381206599e-05 0.0 
-3.696381206599e-05 8.148871227430e-03 0.0 
0.0 0.0 -1.237422270938e-03 
-1.174009678725e-03 1.988566962408e-04 0.0 
1.988566962408e-04 7.816359446438e-03 0.0 
0.0 0.0 -1.171232062679e-03 
-1.672054198288e-04 9.231173188879e-05 0.0 
9.231173188879e-05 7.047171557342e-04 0.0 
0.0 0.0 -1.733042685746e-04 
-1.128922232108e-04 -1.541536460290e-04 0.0 
-1.541536460290e-04 8.181726866747e-04 0.0 
0.0 0.0 -1.441637530793e-04 
-1.232867888531e-03 -1.583409372845e-04 0.0 
-1.583409372845e-04 8.274546276780e-03 0.0 
0.0 0.0 -1.223662873675e-03 
-1.809471586290e-04 2.732513028338e-05 0.0 
2.732513028338e-05 7.150332979246e-04 0.0 
0.0 0.0 -1.761523314621e-04 
-2.090612244597e-04 2.679772699566e-04 0.0 
2.679772699566e-04 1.034188635190e-03 0.0 
0.0 0.0 -1.933333333332e-04 
-1.375589269253e-04 1.895212040583e-04 0.0 
1.895212040583e-04 6.272580356086e-04 0.0 
0.0 0.0 -1.476920362276e-04 
-1.616726848356e-04 -1.838984361800e-04 0.0 
-1.838984361800e-04 7.928606863594e-04 0.0 
0.0 0.0 -1.580296812506e-04 
-1.300434401275e-03 -1.024873491582e-05 0.0 
-1.024873491582e-05 8.484073046421e-03 0.0 
0.0 0.0 -1.288571152055e-03 
-1.296196106557e-03 -7.581226292437e-05 0.0 
-7.581226292437e-05 8.500775829958e-03 0.0 
0.0 0.0 -1.290113636706e-03 
-1.257797356609e-03 1.887508465158e-04 0.0 
1.887508465158e-04 8.298916238051e-03 0.0 
0.0 0.0 -1.236907757659e-03 
-1.306315150684e-03 9.008107202280e-08 0.0 
9.008107202280e-08 8.523760771155e-03 0.0 
0.0 0.0 -1.292605224168e-03 
-1.191514572737e-03 -1.523248627148e-04 0.0 
-1.523248627148e-04 7.914354314681e-03 0.0 
0.0 0.0 -1.176879138244e-03 
-9.009707231897e-04 2.647575106000e-04 0.0 
2.647575106000e-04 6.062013665177e-03 0.0 
0.0 0.0 -9.170130443517e-04 
-1.345069444888e-03 -1.224359494155e-05 0.0 
-1.224359494155e-05 8.872525889838e-03 0.0 
0.0 0.0 -1.345069444888e-03 
-3.168516228751e-04 -1.142391801259e-04 0.0 
-1.142391801259e-04 2.071683762697e-03 0.0 
0.0 0.0 -3.330755757467e-04 
-6.832796589934e-04 2.794415003479e-06 0.0 
2.794415003479e-06 4.812526626932e-03 0.0 
0.0 0.0 -7.083073883397e-04 
-1.983733277546e-04 6.070841311558e-05 0.0 
6.070841311558e-05 1.303830959688e-03 0.0 
0.0 0.0 -2.086331215474e-04 
-8.213992574581e-05 4.728700015121e-05 0.0 
4.728700015121e-05 2.774119614064e-04 0.0 
0.0 0.0 -8.368801528309e-05 
-1.296331570259e-03 3.985530997241e-05 0.0 
3.985530997241e-05 9.108859965209e-03 0.0 
0.0 0.0 -1.323850096553e-03 
-7.636750152913e-04 -5.943479672422e-05 0.0 
-5.943479672422e-05 5.297273347084e-03 0.0 
0.0 0.0 -7.731261162940e-04 
-1.898896061389e-04 2.668881093009e-05 0.0 
2.668881093009e-05 1.324161255717e-03 0.0 
0.0 0.0 -2.115341463249e-04 
-6.766397334691e-04 2.335959289239e-04 0.0 
2.335959289239e-04 4.262192913851e-03 0.0 
0.0 0.0 -6.570498647039e-04 
-1.270388897102e-03 1.791394562200e-05 0.0 
1.791394562200e-05 8.744228481245e-03 0.0 
0.0 0.0 -1.276804206569e-03 
-1.238351285998e-03 -1.647535430714e-04 0.0 
-1.647535430714e-04 8.287386498838e-03 0.0 
0.0 0.0 -1.228616961883e-03 
-1.299245503170e-03 -6.943481147170e-06 0.0 
-6.943481147170e-06 8.501206471558e-03 0.0 
0.0 0.0 -1.289666537713e-03 
-4.674755872492e-04 -1.441717405802e-04 0.0 
-1.441717405802e-04 3.063014272079e-03 0.0 
0.0 0.0 -4.695399720401e-04 
-1.457689473944e-04 -1.575597281071e-04 0.0 
-1.575597281071e-04 7.498700715420e-04 0.0 
0.0 0.0 -1.553221962317e-04 
-1.285913149297e-03 -1.165123631474e-04 0.0 
-1.165123631474e-04 8.730182768681e-03 0.0 
0.0 0.0 -1.273144391159e-03 
-1.298815958390e-03 2.309086979367e-05 0.0 
2.309086979367e-05 9.107151826923e-03 0.0 
0.0 0.0 -1.325353038101e-03 
-1.331981550421e-03 -1.771381069907e-05 0.0 
-1.771381069907e-05 9.126640523196e-03 0.0 
0.0 0.0 -1.323783523096e-03 
-7.660500434480e-04 1.313542510445e-04 0.0 
1.313542510445e-04 5.035539676325e-03 0.0 
0.0 0.0 -7.673431308700e-04 
-1.235780327313e-03 -4.526587612998e-06 0.0 
-4.526587612998e-06 8.115023081303e-03 0.0 
0.0 0.0 -1.231867668451e-03 
-1.953177882174e-04 -9.491085164949e-05 0.0 
-9.491085164949e-05 1.122964739939e-03 0.0 
0.0 0.0 -2.324200178898e-04 
-1.257584227981e-03 1.660686322992e-04 0.0 
1.660686322992e-04 8.340961353616e-03 0.0 
0.0 0.0 -1.241575510934e-03 
-8.170589745739e-05 -1.080295024441e-05 0.0 
-1.080295024441e-05 2.725451190137e-04 0.0 
0.0 0.0 -8.178823780987e-05 
-1.306295822847e-03 -1.062422533943e-05 0.0 
-1.062422533943e-05 8.506048519693e-03 0.0 
0.0 0.0 -1.290713494763e-03 
-1.281136683791e-03 1.115018912951e-04 0.0 
1.115018912951e-04 8.702368548138e-03 0.0 
0.0 0.0 -1.268585396830e-03 
-8.090064620301e-05 -6.463780865666e-05 0.0 
-6.463780865666e-05 2.764343947345e-04 0.0 
0.0 0.0 -8.380017794208e-05 
-1.195471399734e-03 -1.402863971345e-04 0.0 
-1.402863971345e-04 7.949772117529e-03 0.0 
0.0 0.0 -1.178018281593e-03 
-1.028233004996e-03 -1.859683667160e-04 0.0 
-1.859683667160e-04 6.977936374390e-03 0.0 
0.0 0.0 -1.053859681778e-03 
-1.289487723471e-03 -3.059440868742e-05 0.0 
-3.059440868742e-05 8.509289695588e-03 0.0 
0.0 0.0 -1.289687241943e-03 
-1.346242744377e-03 -1.047219123713e-05 0.0 
-1.047219123713e-05 8.896960402449e-03 0.0 
0.0 0.0 -1.346242744377e-03 
-9.624911099011e-04 -2.997622866494e-04 0.0 
-2.997622866494e-04 6.376553401582e-03 0.0 
0.0 0.0 -9.627310317561e-04 
-1.292971171235e-03 1.345101664033e-05 0.0 
1.345101664033e-05 8.530939079912e-03 0.0 
0.0 0.0 -1.292510612804e-03 
-1.246115197789e-03 -1.533948492975e-04 0.0 
-1.533948492975e-04 8.325319025632e-03 0.0 
0.0 0.0 -1.236507170568e-03 
-1.007540401079e-03 8.825741490512e-06 0.0 
8.825741490512e-06 6.546914065101e-03 0.0 
0.0 0.0 -1.009625451247e-03 
-1.239682124839e-03 -1.433667225738e-05 0.0 
-1.433667225738e-05 8.247508066060e-03 0.0 
0.0 0.0 -1.247605899893e-03 
-5.439659078653e-04 -1.293203549736e-04 0.0 
-1.293203549736e-04 3.573225901759e-03 0.0 
0.0 0.0 -5.668522599723e-04 
-7.422257193807e-04 -2.384409418001e-05 0.0 
-2.384409418001e-05 4.553525172640e-03 0.0 
0.0 0.0 -7.287847301676e-04 
-1.250463763405e-03 1.444458806810e-04 0.0 
1.444458806810e-04 8.323970461278e-03 0.0 
0.0 0.0 -1.239219007812e-03 
-1.277932458032e-03 1.160268164509e-04 0.0 
1.160268164509e-04 8.651299276670e-03 0.0 
0.0 0.0 -1.286506427510e-03 
0.0 0.0 0.0 
0.0 0.0 0.0 
0.0 0.0 0.0 
-7.391696919878e-04 5.460045200431e-05 0.0 
5.460045200431e-05 4.572310123870e-03 0.0 
0.0 0.0 -7.284590636140e-04 
-1.282539678950e-03 -1.213229753822e-04 0.0 
-1.213229753822e-04 8.668193960288e-03 0.0 
0.0 0.0 -1.288082484959e-03 
-2.668000831652e-04 1.337975711291e-04 0.0 
1.337975711291e-04 1.552550494018e-03 0.0 
0.0 0.0 -2.765646858065e-04 
-1.244314668154e-03 3.253635918239e-05 0.0 
3.253635918239e-05 8.351662046828e-03 0.0 
0.0 0.0 -1.213252366005e-03 
-1.212806318798e-03 -1.378965673921e-04 0.0 
-1.378965673921e-04 8.296055804055e-03 0.0 
0.0 0.0 -1.225943235494e-03 
-1.276740815873e-03 -1.548809764645e-04 0.0 
-1.548809764645e-04 8.705204137735e-03 0.0 
0.0 0.0 -1.269037835114e-03 
-2.467774251027e-04 1.357300176719e-04 0.0 
1.357300176719e-04 1.515114324046e-03 0.0 
0.0 0.0 -2.647987373252e-04 
-1.846190942981e-04 5.164886539666e-05 0.0 
5.164886539666e-05 1.204409405256e-03 0.0 
0.0 0.0 -1.906575996298e-04 
-8.286327452832e-04 3.382951551479e-04 0.0 
3.382951551479e-04 5.239779904281e-03 0.0 
0.0 0.0 -7.939471195916e-04 
-1.139651880695e-03 8.042350541592e-05 0.0 
8.042350541592e-05 7.547907450212e-03 0.0 
0.0 0.0 -1.120841203304e-03 
6.762182202678e-06 4.922521689476e-06 0.0 
4.922521689476e-06 1.951722452603e-04 0.0 
0.0 0.0 -4.162563418681e-05 
-1.297631582513e-03 -2.970012333432e-05 0.0 
-2.970012333432e-05 8.538118962210e-03 0.0 
0.0 0.0 -1.292233508669e-03 
-9.496420787081e-04 3.842938930079e-05 0.0 
3.842938930079e-05 6.134769422350e-03 0.0 
0.0 0.0 -9.501928138396e-04 
-2.319252204205e-04 -1.666332425867e-04 0.0 
-1.666332425867e-04 1.531261602253e-03 0.0 
0.0 0.0 -2.601894661948e-04 
-9.182086126088e-04 6.576575429200e-05 0.0 
6.576575429200e-05 5.823601520571e-03 0.0 
0.0 0.0 -9.030544305944e-04 
-1.281338578084e-03 -1.215158440346e-04 0.0 
-1.215158440346e-04 8.719272788120e-03 0.0 
0.0 0.0 -1.271643562581e-03 
-8.361599263990e-04 -2.906502343770e-04 0.0 
-2.906502343770e-04 5.524370676589e-03 0.0 
0.0 0.0 -8.272804529249e-04 
-9.020963282834e-05 -1.875396024300e-04 0.0 
-1.875396024300e-04 3.251699178446e-04 0.0 
0.0 0.0 -8.776479312228e-05 
-5.428499226707e-04 1.403699556570e-04 0.0 
1.403699556570e-04 3.200704680557e-03 0.0 
0.0 0.0 -5.209635072927e-04 
-7.264103312116e-04 1.066181262773e-04 0.0 
1.066181262773e-04 4.783605203211e-03 0.0 
0.0 0.0 -7.319997505001e-04 
-8.379507721355e-04 3.506890823091e-04 0.0 
3.506890823091e-04 5.706153283525e-03 0.0 
0.0 0.0 -8.599999999992e-04 
-1.240777117315e-03 -1.439647034317e-04 0.0 
-1.439647034317e-04 8.329527072644e-03 0.0 
0.0 0.0 -1.232780192057e-03 
-7.376665261259e-04 -1.727241022974e-04 0.0 
-1.727241022974e-04 4.617911229220e-03 0.0 
0.0 0.0 -7.175509632692e-04 
-7.419227856637e-04 8.706574175029e-05 0.0 
8.706574175029e-05 4.905660942002e-03 0.0 
0.0 0.0 -7.596628988333e-04 
-1.725607618193e-04 1.274500514102e-04 0.0 
1.274500514102e-04 7.075820556251e-04 0.0 
0.0 0.0 -1.551230728613e-04 
-1.262496529076e-03 1.402132573888e-04 0.0 
1.402132573888e-04 8.306889500876e-03 0.0 
0.0 0.0 -1.240629869904e-03 
-1.209173557273e-03 1.621322078836e-04 0.0 
1.621322078836e-04 7.950506271258e-03 0.0 
0.0 0.0 -1.186362110037e-03 
-2.227791697187e-04 8.637930858051e-05 0.0 
8.637930858051e-05 1.298316331417e-03 0.0 
0.0 0.0 -2.411692657676e-04 
-1.261193436875e-03 -8.326695288083e-05 0.0 
-8.326695288083e-05 8.552285249105e-03 0.0 
0.0 0.0 -1.290349483557e-03 
-1.293807969811e-03 1.507292729990e-04 0.0 
1.507292729990e-04 8.596145003785e-03 0.0 
0.0 0.0 -1.290356026000e-03 
-7.679899519873e-04 -1.532356305286e-04 0.0 
-1.532356305286e-04 5.157074227234e-03 0.0 
0.0 0.0 -7.639788432047e-04 
-9.396515753232e-04 3.091234051286e-05 0.0 
3.091234051286e-05 6.333492038285e-03 0.0 
0.0 0.0 -9.358343396975e-04 
-7.048143922743e-04 1.638625948524e-04 0.0 
1.638625948524e-04 4.692848505541e-03 0.0 
0.0 0.0 -7.108516105536e-04 
-7.079275106751e-04 -1.102323501343e-04 0.0 
-1.102323501343e-04 4.802970885948e-03 0.0 
0.0 0.0 -7.343037059241e-04 
-7.780838486787e-04 -3.476295080742e-05 0.0 
-3.476295080742e-05 5.090202749114e-03 0.0 
0.0 0.0 -7.498489858827e-04 
-1.195445771267e-03 1.533301423155e-04 0.0 
1.533301423155e-04 7.905914704818e-03 0.0 
0.0 0.0 -1.180929064624e-03 
-2.101723265820e-04 1.264806835631e-04 0.0 
1.264806835631e-04 1.084941023670e-03 0.0 
0.0 0.0 -2.274637643159e-04 
-1.230210229403e-03 -1.391362873496e-04 0.0 
-1.391362873496e-04 8.342547987840e-03 0.0 
0.0 0.0 -1.217816617926e-03 
-8.387293036437e-04 7.281979356206e-05 0.0 
7.281979356206e-05 5.326094164637e-03 0.0 
0.0 0.0 -8.376728236383e-04 
-1.277193560845e-03 -1.460979146763e-04 0.0 
-1.460979146763e-04 8.720485292524e-03 0.0 
0.0 0.0 -1.272153791098e-03 
-1.202298967755e-03 -1.320050113913e-04 0.0 
-1.320050113913e-04 7.883588282291e-03 0.0 
0.0 0.0 -1.181257232468e-03 
-8.795673226242e-04 -5.945622150844e-05 0.0 
-5.945622150844e-05 6.031279173311e-03 0.0 
0.0 0.0 -8.902468719968e-04 
-1.211224544084e-03 1.194316264715e-04 0.0 
1.194316264715e-04 8.008237221313e-03 0.0 
0.0 0.0 -1.201032862555e-03 
-1.250364770317e-03 1.261810502704e-04 0.0 
1.261810502704e-04 8.225945087578e-03 0.0 
0.0 0.0 -1.236767197193e-03 
-1.292703020779e-03 -2.277677435045e-05 0.0 
-2.277677435045e-05 8.758650210356e-03 0.0 
0.0 0.0 -1.270271405117e-03 
-9.288790837536e-05 4.486310937797e-05 0.0 
4.486310937797e-05 3.125136257933e-04 0.0 
0.0 0.0 -9.412530746485e-05 
-1.213293100967e-03 -1.365137297491e-04 0.0 
-1.365137297491e-04 8.055302576551e-03 0.0 
0.0 0.0 -1.198686027802e-03 
-1.233489147260e-03 1.844031552690e-04 0.0 
1.844031552690e-04 8.360738709544e-03 0.0 
0.0 0.0 -1.227078865044e-03 
-1.296260318671e-04 -1.418501242849e-04 0.0 
-1.418501242849e-04 8.665050242929e-04 0.0 
0.0 0.0 -1.488313462956e-04 
-6.781230104505e-04 -1.171397059554e-04 0.0 
-1.171397059554e-04 4.366860208538e-03 0.0 
0.0 0.0 -6.841365946973e-04 
-7.630078233159e-05 -6.102099342081e-05 0.0 
-6.102099342081e-05 5.288528667040e-04 0.0 
0.0 0.0 -9.692352125104e-05 
-1.239413171189e-03 -1.038112219683e-04 0.0 
-1.038112219683e-04 8.427166424518e-03 0.0 
0.0 0.0 -1.230789928679e-03 
-6.189291422575e-04 -8.703466800000e-05 0.0 
-8.703466800000e-05 3.800993658171e-03 0.0 
0.0 0.0 -6.044444444444e-04 
-5.857416860338e-04 4.152251131124e-05 0.0 
4.152251131124e-05 3.981396628525e-03 0.0 
0.0 0.0 -5.822222222222e-04 
-6.014676124271e-04 -2.366192094099e-05 0.0 
-2.366192094099e-05 3.666428660517e-03 0.0 
0.0 0.0 -6.044444444444e-04 
-5.814843288565e-04 -9.898764258159e-06 0.0 
-9.898764258159e-06 3.966852274136e-03 0.0 
0.0 0.0 -5.822222222222e-04 
-6.012057329273e-04 -9.447332931531e-07 0.0 
-9.447332931531e-07 3.656511754543e-03 0.0 
0.0 0.0 -6.044444444444e-04 
-5.825537644628e-04 -2.598524727520e-06 0.0 
-2.598524727520e-06 3.971861702718e-03 0.0 
0.0 0.0 -5.822222222222e-04 
-6.053753762140e-04 -6.697619749929e-06 0.0 
-6.697619749929e-06 3.660276641183e-03 0.0 
0.0 0.0 -6.044444444444e-04 
-5.810535547528e-04 -4.794630108956e-06 0.0 
-4.794630108956e-06 3.968237137461e-03 0.0 
0.0 0.0 -5.822222222222e-04 
-5.989315183322e-04 1.500653346344e-07 0.0 
1.500653346344e-07 3.657759237214e-03 0.0 
0.0 0.0 -6.044444444444e-04 
-5.817044105427e-04 9.543218927897e-07 0.0 
9.543218927897e-07 3.971595709461e-03 0.0 
0.0 0.0 -5.822222222222e-04 
-6.036123665841e-04 5.339950144771e-07 0.0 
5.339950144771e-07 3.660400636182e-03 0.0 
0.0 0.0 -6.044444444444e-04 
-5.820270290375e-04 1.512396225205e-06 0.0 
1.512396225205e-06 3.971136415647e-03 0.0 
0.0 0.0 -5.822222222222e-04 
-6.007150147338e-04 7.186565872699e-06 0.0 
7.186565872699e-06 3.661043708330e-03 0.0 
0.0 0.0 -6.044444444444e-04 
-6.473657891011e-04 -1.503775681194e-04 0.0 
-1.503775681194e-04 3.972322043345e-03 0.0 
0.0 0.0 -5.915759637188e-04 
-5.850165887749e-04 4.111519023205e-06 0.0 
4.111519023205e-06 3.978321279382e-03 0.0 
0.0 0.0 -5.822222222222e-04 
-6.068724417991e-04 -1.008894091463e-05 0.0 
-1.008894091463e-05 3.663848600166e-03 0.0 
0.0 0.0 -6.044444444444e-04 
-5.382166584107e-04 1.304379000631e-05 0.0 
1.304379000631e-05 3.784609928148e-03 0.0 
0.0 0.0 -5.693537414966e-04 
-5.819886469493e-04 -2.459134104127e-06 0.0 
-2.459134104127e-06 3.967910560167e-03 0.0 
0.0 0.0 -5.822222222222e-04 
-6.025293378773e-04 4.180804481603e-06 0.0 
4.180804481603e-06 3.658439256297e-03 0.0 
0.0 0.0 -6.044444444444e-04 
-5.551920643197e-04 2.265198140005e-05 0.0 
2.265198140005e-05 3.679387987049e-03 0.0 
0.0 0.0 -6.044444444444e-04 
-5.834749925779e-04 5.082011282481e-06 0.0 
5.082011282481e-06 3.970492679137e-03 0.0 
0.0 0.0 -5.822222222222e-04 
-6.079594570241e-04 1.156947798532e-05 0.0 
1.156947798532e-05 3.661485342161e-03 0.0 
0.0 0.0 -6.044444444444e-04 
-5.869226795433e-04 6.564857151341e-06 0.0 
6.564857151341e-06 3.976524406353e-03 0.0 
0.0 0.0 -5.822222222222e-04 
-6.104220387485e-04 1.777481494349e-06 0.0 
1.777481494349e-06 3.663998117975e-03 0.0 
0.0 0.0 -6.044444444444e-04 
-5.869840933945e-04 2.939983270480e-06 0.0 
2.939983270480e-06 3.973848016868e-03 0.0 
0.0 0.0 -5.822222222222e-04 
-5.382425891796e-04 2.010179773991e-05 0.0 
2.010179773991e-05 3.859360506165e-03 0.0 
0.0 0.0 -6.026870748299e-04 
-6.075003933196e-04 1.831253403251e-06 0.0 
1.831253403251e-06 3.662133086902e-03 0.0 
0.0 0.0 -6.044444444444e-04 
-5.873758234003e-04 4.101101850468e-06 0.0 
4.101101850468e-06 3.972642461745e-03 0.0 
0.0 0.0 -5.822222222222e-04 
-5.893930599864e-04 7.702980258157e-07 0.0 
7.702980258157e-07 3.976762054191e-03 0.0 
0.0 0.0 -5.822222222222e-04 
-6.109731840224e-04 5.890820747558e-06 0.0 
5.890820747558e-06 3.662416691587e-03 0.0 
0.0 0.0 -6.044444444444e-04 
-5.785436125316e-04 1.010670441635e-05 0.0 
1.010670441635e-05 3.943008250813e-03 0.0 
0.0 0.0 -5.822222222222e-04 
-6.245615995330e-04 -2.323619509783e-05 0.0 
-2.323619509783e-05 3.657960966842e-03 0.0 
0.0 0.0 -6.044444444444e-04 
-6.034057220520e-04 2.547674868114e-05 0.0 
2.547674868114e-05 4.007426657562e-03 0.0 
0.0 0.0 -5.822222222222e-04 
-5.749090046599e-04 7.539992690033e-05 0.0 
7.539992690033e-05 3.655670285631e-03 0.0 
0.0 0.0 -6.044444444444e-04 
-4.961379511751e-04 -3.596508921407e-05 0.0 
-3.596508921407e-05 3.563351096824e-03 0.0 
0.0 0.0 -5.804648526077e-04 
-5.370991115959e-04 -3.597763694004e-04 0.0 
-3.597763694004e-04 3.763144672232e-03 0.0 
0.0 0.0 -5.933333333333e-04 
-6.527633909014e-04 3.673307409976e-04 0.0 
3.673307409976e-04 3.969951782286e-03 0.0 
0.0 0.0 -5.933333333333e-04 
-5.755930242736e-04 -3.122109693662e-05 0.0 
-3.122109693662e-05 3.812561021402e-03 0.0 
0.0 0.0 -5.711111111111e-04 
-6.159345735075e-04 5.418298751467e-05 0.0 
5.418298751467e-05 3.907149665354e-03 0.0 
0.0 0.0 -6.155555555556e-04 
-5.188481864893e-04 -2.197935258578e-05 0.0 
-2.197935258578e-05 3.695326603665e-03 0.0 
0.0 0.0 -5.711111111111e-04 
-6.633735867020e-04 -1.155216560215e-04 0.0 
-1.155216560215e-04 4.354748692185e-03 0.0 
0.0 0.0 -6.488888888889e-04 
-6.563660005590e-04 -4.949228987729e-06 0.0 
-4.949228987729e-06 4.121813599109e-03 0.0 
0.0 0.0 -6.711111111111e-04 
-6.459120568716e-04 -1.400816422142e-05 0.0 
-1.400816422142e-05 4.433498309450e-03 0.0 
0.0 0.0 -6.488888888889e-04 
-6.749764366868e-04 -1.022061849862e-05 0.0 
-1.022061849862e-05 4.131528536263e-03 0.0 
0.0 0.0 -6.711111111111e-04 
-6.456501773717e-04 -4.182868476139e-07 0.0 
-4.182868476139e-07 4.441719427511e-03 0.0 
0.0 0.0 -6.488888888889e-04 
-6.743020789233e-04 6.977086704405e-06 0.0 
6.977086704405e-06 4.142139451712e-03 0.0 
0.0 0.0 -6.711111111111e-04 
-6.498198206584e-04 -1.519001385402e-05 0.0 
-1.519001385402e-05 4.455827176230e-03 0.0 
0.0 0.0 -6.488888888889e-04 
-6.621266125404e-04 -2.192043764385e-05 0.0 
-2.192043764385e-05 4.131761848184e-03 0.0 
0.0 0.0 -6.711111111111e-04 
-6.433759627766e-04 1.777448492757e-06 0.0 
1.777448492757e-06 4.439463053302e-03 0.0 
0.0 0.0 -6.488888888889e-04 
-6.671926554529e-04 1.273682377901e-05 0.0 
1.273682377901e-05 4.138458681040e-03 0.0 
0.0 0.0 -6.711111111111e-04 
-6.480568110285e-04 -2.776142626350e-06 0.0 
-2.776142626350e-06 4.452403490028e-03 0.0 
0.0 0.0 -6.488888888889e-04 
-6.701502197109e-04 -7.061847057977e-06 0.0 
-7.061847057977e-06 4.137807792637e-03 0.0 
0.0 0.0 -6.711111111111e-04 
-7.177695882629e-04 -1.636503915645e-04 0.0 
-1.636503915645e-04 4.444156976963e-03 0.0 
0.0 0.0 -6.580807474504e-04 
-6.451594591783e-04 2.175329864517e-06 0.0 
2.175329864517e-06 4.446899780493e-03 0.0 
0.0 0.0 -6.488888888889e-04 
-6.694083839789e-04 4.177588367940e-05 0.0 
4.177588367940e-05 4.159153595791e-03 0.0 
0.0 0.0 -6.711111111111e-04 
-6.460833817648e-04 2.181336474461e-05 0.0 
2.181336474461e-05 4.138351275158e-03 0.0 
0.0 0.0 -6.711111111111e-04 
-6.513168862435e-04 2.571939183972e-06 0.0 
2.571939183972e-06 4.455509820746e-03 0.0 
0.0 0.0 -6.488888888889e-04 
-6.788111886778e-04 -1.155514465084e-05 0.0 
-1.155514465084e-05 4.136861537379e-03 0.0 
0.0 0.0 -6.711111111111e-04 
-6.469737823218e-04 1.193188668569e-05 0.0 
1.193188668569e-05 4.441081764841e-03 0.0 
0.0 0.0 -6.488888888889e-04 
-6.791365925950e-04 1.914980606251e-05 0.0 
1.914980606251e-05 4.140018751422e-03 0.0 
0.0 0.0 -6.711111111111e-04 
-6.524039014686e-04 9.406282947327e-06 0.0 
9.406282947327e-06 4.453605425654e-03 0.0 
0.0 0.0 -6.488888888889e-04 
-6.708784002972e-04 1.294093541859e-05 0.0 
1.294093541859e-05 4.143170398070e-03 0.0 
0.0 0.0 -6.711111111111e-04 
-6.063230854436e-04 2.307129271710e-05 0.0 
2.307129271710e-05 4.258254267781e-03 0.0 
0.0 0.0 -6.358585252281e-04 
-6.548664831930e-04 3.770000341560e-06 0.0 
3.770000341560e-06 4.457898616998e-03 0.0 
0.0 0.0 -6.488888888889e-04 
-6.704807604954e-04 -3.181200734393e-06 0.0 
-3.181200734393e-06 4.139523021675e-03 0.0 
0.0 0.0 -6.711111111111e-04 
-6.519448377641e-04 9.585102352892e-06 0.0 
9.585102352892e-06 4.446587571773e-03 0.0 
0.0 0.0 -6.488888888889e-04 
-6.643169358871e-04 1.598213094946e-05 0.0 
1.598213094946e-05 4.135669863508e-03 0.0 
0.0 0.0 -6.711111111111e-04 
-6.628560694171e-04 4.220630236658e-05 0.0 
4.220630236658e-05 4.140094777351e-03 0.0 
0.0 0.0 -6.711111111111e-04 
-6.554176284668e-04 2.405280497155e-05 0.0 
2.405280497155e-05 4.445642855833e-03 0.0 
0.0 0.0 -6.488888888889e-04 
-6.690060439774e-04 2.025793204246e-05 0.0 
2.025793204246e-05 4.465053963584e-03 0.0 
0.0 0.0 -6.488888888889e-04 
-6.064361755080e-04 1.982912098429e-05 0.0 
1.982912098429e-05 4.335884925808e-03 0.0 
0.0 0.0 -6.691918585615e-04 
-5.634506181685e-04 -1.856852842989e-05 0.0 
-1.856852842989e-05 4.033404918511e-03 0.0 
0.0 0.0 -6.469696363393e-04 
-7.075315162010e-04 -3.247782179694e-04 0.0 
-3.247782179694e-04 4.305606072287e-03 0.0 
0.0 0.0 -6.600000000000e-04 
-6.398271965703e-04 3.921691488498e-04 0.0 
3.921691488498e-04 4.184231073606e-03 0.0 
0.0 0.0 -6.600000000000e-04 
-7.078150788587e-04 1.813354754417e-05 0.0 
1.813354754417e-05 4.306653958276e-03 0.0 
0.0 0.0 -6.822222222222e-04 
-6.381567957297e-04 6.336547185409e-05 0.0 
6.336547185409e-05 4.195569873202e-03 0.0 
0.0 0.0 -6.377777777778e-04 
-5.885253976530e-04 -3.076841355540e-05 0.0 
-3.076841355540e-05 4.174142785234e-03 0.0 
0.0 0.0 -6.377777777778e-04 

SCALARS element_materi_plasti_kappa_shear float
LOOKUP_TABLE default
1.898088649643e-03
1.711557051641e-03
5.588972410085e-03
5.625547274701e-03
3.501560146999e-03
7.282216725179e-04
3.474037579751e-03
1.788007566792e-03
3.522688057585e-03
5.576154387884e-03
3.814443258077e-03
1.461439354055e-03
5.618312958953e-03
3.751010953381e-03
5.727607835366e-03
5.730745783213e-03
3.485806207147e-03
6.593526459412e-04
1.219931793149e-03
1.129439279567e-03
5.615624188563e-03
1.975862239362e-03
2.216034645177e-03
5.387839390641e-03
4.000079313324e-03
4.090296639934e-03
3.221108468051e-03
5.760173945043e-03
4.029373913921e-03
5.523089313001e-03
9.290964436138e-04
4.104778426902e-04
5.763354464700e-03
4.818108341585e-03
5.606378478043e-03
5.926561905728e-03
5.911514681661e-03
5.601049808397e-03
3.175213616511e-03
3.219440155070e-03
2.522875806809e-03
5.613228156909e-03
1.314389251867e-03
3.093978597461e-03
5.492839635271e-03
1.306192107028e-03
5.547525844143e-04
5.389503964808e-03
2.459813448032e-04
3.614080566479e-03
2.381012112028e-03
1.496795143349e-03
1.233026261794e-03
2.292287135613e-03
5.625167383412e-03
1.964314716114e-03
1.446321564822e-03
4.840724010361e-03
9.102679910466e-04
5.734895616735e-03
3.755633206834e-04
5.378892164199e-03
2.330546822697e-03
1.083603178692e-03
5.615414212048e-03
2.131250052149e-03
1.604920622130e-04
5.736681007188e-03
9.706183660792e-04
5.615641150241e-03
4.241478972054e-03
5.874633494774e-03
5.400876667698e-03
4.558558305771e-04
1.986901141796e-03
5.633818988721e-03
5.766849763577e-03
9.985176399269e-04
7.761145875021e-04
9.970078257236e-04
9.298249562962e-04
3.329770783062e-03
2.084397622031e-03
1.770967893659e-03
3.674764228873e-03
3.652269385491e-03
4.362468712188e-03
4.711312884167e-03
4.861505206044e-03
3.454836133152e-03
2.515307574216e-04
3.378806059228e-03
4.682474906469e-03
4.702091845048e-03
6.023290360785e-03
5.787399672559e-03
3.332335907633e-03
5.769769997493e-03
3.930413862469e-03
2.258576815211e-03
3.348854702644e-03
5.740322727269e-03
4.646182631344e-03
5.409941681963e-03
2.044498184613e-03
6.875243722322e-04
5.293361504949e-03
5.009713215505e-03
4.133118292856e-04
5.636662395566e-03
4.631075715070e-03
3.269354662114e-04
2.695643369684e-03
3.134173944672e-03
2.394513305480e-03
2.006953041182e-03
2.358433690428e-03
5.680496234391e-03
3.862421047183e-03
2.174327584433e-03
9.453599785676e-04
3.463155550842e-03
4.910807945138e-03
2.193161772477e-03
6.864169327036e-04
2.833893873667e-03
2.488998346477e-03
2.624989890950e-03
5.744770783808e-03
8.095945313104e-04
4.016900758618e-03
5.625509815893e-03
2.834287320742e-03
2.685380764041e-03
5.614532063030e-03
5.633315586868e-03
4.360056895282e-03
3.033874980370e-03
5.768691703590e-03
2.715472649556e-03
5.618615457511e-03
5.760030365689e-03
3.718873437018e-03
4.339715431150e-03
2.744759010980e-03
2.474141180373e-03
3.120734003300e-03
2.345781934128e-03
3.431883328348e-03
2.738129196427e-03
2.430742527300e-04
3.688149105754e-03
8.387704164436e-04
2.991941880911e-03
5.628507851818e-03
2.024064835673e-03
4.530584219247e-03
1.460229167458e-03
4.626313542846e-03
3.347690434935e-03
2.537984777281e-03
4.987375735797e-03
8.656817948043e-04
5.285431651825e-03
3.359806122999e-03
5.766679500674e-03
3.342388058740e-03
2.107011085319e-03
2.928826646772e-03
3.947216798782e-03
1.526615979923e-03
2.569483147169e-03
4.520478967461e-03
3.465735922799e-03
2.391304591019e-03
2.779864257648e-03
5.040184275248e-03
2.772760665208e-03
5.618703717082e-03
5.759844672989e-03
1.983421498389e-03
2.659866027685e-03
5.141665672042e-03
2.630630496975e-03
1.717879912429e-03
3.236040194099e-03
2.634227826825e-03
5.637705462983e-03
4.673436176070e-03
5.143211062278e-03
1.164471534235e-03
2.407331954242e-03
4.803098661724e-03
1.296887470610e-04
2.602557350130e-03
4.814963733127e-03
6.908847608837e-04
5.616315559470e-03
4.285635638516e-03
2.554299594861e-03
4.795742518615e-03
3.724002802598e-03
3.932058578281e-03
5.497749636997e-03
1.904823798155e-03
3.244463136207e-03
3.481704692684e-03
4.488443812894e-03
3.550879868320e-03
3.254436741122e-03
4.171787960097e-03
4.925574717127e-03
3.793743182903e-04
1.944678655638e-03
2.211850110251e-03
3.157287865959e-03
4.893684273428e-03
9.647028340037e-04
4.643736636013e-03
3.342449784473e-03
2.377945774863e-03
4.477091166640e-03
4.380675775184e-04
4.584675247436e-03
3.699679224087e-04
5.360497299544e-04
1.154789664667e-03
1.594668909351e-03
4.784983334352e-03
1.546697935713e-03
1.383435816543e-03
1.200027858935e-03
1.005332530085e-03
4.949781021208e-03
3.380950736680e-03
5.631197498489e-03
0.0
1.665063222897e-03
2.673189362063e-03
2.423854183086e-03
4.621677125616e-03
5.764868817004e-03
4.590764537563e-03
1.954446704586e-03
4.960919873089e-03
4.205568891908e-03
3.320344157998e-03
4.410423547979e-03
5.507586445396e-03
2.709349539675e-03
1.580698985764e-03
3.836309747163e-03
6.017571415290e-03
3.278275707600e-03
3.423215564413e-03
3.753460771055e-03
8.863145511107e-04
3.518014179913e-03
1.918797851399e-03
1.292004175147e-03
9.082232253616e-04
4.755046881876e-03
3.676362788182e-03
2.294435875197e-03
4.952708212390e-03
4.718723855839e-03
3.481414558201e-03
5.642033395162e-03
3.523250685796e-03
3.640046674313e-03
2.917421140027e-03
3.717192777981e-03
1.585318004735e-03
3.357027743210e-03
2.838102944494e-03
2.007874057392e-03
4.547203828395e-03
1.589585432750e-04
3.708601455527e-03
2.047895045112e-03
1.700131027140e-03
1.626515464048e-03
3.929577795643e-03
6.380620704985e-04
2.384202047897e-03
3.820927590901e-03
3.640893065081e-03
3.744578397567e-03
8.473399745818e-04
1.972105034185e-03
1.841129336947e-03
2.144602490372e-03
4.453686851147e-03
2.425319558498e-03
2.633326203696e-03
2.506076668662e-03
1.050423010888e-03
3.001112002868e-03
1.139329181863e-03
6.012684016247e-03
6.015982038197e-03
3.371674230462e-03
1.754085065341e-03
1.538449888003e-03
3.733462517399e-03
1.667297713938e-03
1.800453244169e-03
3.281965826456e-03
5.778410886410e-03
2.212308197419e-03
4.148099921920e-03
1.220247403596e-03
6.015650448016e-03
1.627598388192e-03
3.408069598847e-03
1.126335977517e-03
4.035749165321e-03
2.797696233239e-03
1.935926706622e-03
3.513914298156e-03
6.014293587579e-03
2.340466570169e-03
3.854547700326e-03
1.257539573865e-03
4.211250131042e-03
4.445904991404e-03
1.749623395989e-03
4.109773335894e-03
6.017625920185e-03
4.749940685194e-03
6.020004411071e-03
4.066219120171e-03
4.677049970116e-03
1.453454976364e-03
3.226922138058e-03
3.605874528002e-03
3.801247617448e-03
3.116888250637e-03
6.023922603081e-03
3.900035487013e-03
3.427519582657e-03
2.541127325687e-03
1.304161433012e-03
3.097491959287e-03
1.828369059598e-03
3.480341907346e-03
1.973411461228e-03
2.245667589757e-03
4.717451703464e-03
1.865551334307e-03
3.320796694163e-03
3.948013352555e-03
3.499794145216e-03
6.014761074790e-03
2.797145162977e-03
1.840410315571e-03
2.476504328130e-03
1.777663760713e-03
1.715690849975e-03
5.020957594455e-03
3.604591250536e-03
2.461088412607e-03
3.037406839291e-03
6.020345341033e-03
5.688581187917e-03
4.974163615528e-03
4.623253995230e-03
3.403798714710e-03
2.542077870463e-03
1.793786123597e-03
2.084462978973e-03
3.443262116423e-03
3.946499106711e-03
2.984226002412e-03
5.025076478443e-03
1.876215262827e-03
2.954178187483e-03
3.441589599408e-03
2.662722220519e-03
6.012685245852e-03
6.016133295997e-03
5.644449372993e-03
3.701147822208e-03
4.921131353075e-03
1.545366707812e-03
2.377422492958e-03
1.336075859690e-03
2.584345771663e-03
3.338459339121e-03
4.044137853151e-03
5.756411723275e-03
4.924677558882e-03
3.800097117390e-03
3.895652219981e-03
1.419401544672e-03
6.642135258918e-04
2.837095037860e-03
3.243261720869e-03
3.038062407003e-03
6.767206337308e-04
3.595162726105e-03
1.242964933884e-03
1.791112892290e-03
5.886267587663e-03
4.319899469577e-03
3.400768600181e-03
9.348339381145e-04
3.083946857624e-03
2.871885156030e-03
3.962075947404e-03
6.018407561000e-03
3.198386693765e-03
3.766468143188e-03
2.946356736400e-03
4.889394747190e-03
3.802316230935e-03
6.019114699465e-03
5.878766063712e-03
5.874669666802e-03
5.846896484413e-03
4.057636266581e-03
4.920589971590e-03
5.113499940864e-03
2.631031740165e-03
2.507872621076e-03
2.813875816799e-03
5.059815959048e-03
6.015552509770e-03
5.051955043481e-03
4.017840351881e-03
5.084516464713e-03
4.404291654299e-03
3.045170865042e-03
2.550534457101e-03
1.338384591573e-03
5.646979922164e-03
2.469749811606e-03
5.384355873580e-03
2.775047533559e-03
1.799833226776e-03
5.623003894310e-03
1.949666713895e-03
5.877628319843e-03
5.634831675280e-03
3.696725743160e-03
2.315629071755e-04
5.876846230322e-03
5.625196717779e-03
1.763143550620e-03
4.153888461443e-03
6.029088701749e-03
0.0
2.757791127203e-03
3.859953108443e-03
3.533917503000e-03
3.571063382657e-03
1.501745143730e-03
5.871219529997e-03
2.671327868410e-03
8.692276940893e-04
5.775417212412e-03
4.034087724254e-04
2.877183319108e-03
7.845786155791e-04
3.064343649170e-03
6.008207932276e-03
5.886416939798e-03
3.769097730369e-03
5.416058611578e-04
6.663225248162e-04
9.264097944293e-04
5.017458723071e-03
3.488320970718e-03
3.568311924561e-03
5.888518575312e-03
3.493284622980e-03
6.023303222970e-03
4.495210095570e-03
3.909299515792e-03
1.880309591682e-03
4.118987834466e-03
1.217020428602e-03
5.888099209517e-03
5.858622551973e-03
5.871281062107e-03
3.837749785842e-03
2.642161995129e-03
3.082539161524e-03
3.932200029967e-03
5.884737103442e-03
1.826405636236e-03
2.101531865548e-03
2.230991329468e-03
4.079210194316e-03
6.020724823755e-03
6.550876827097e-04
5.870906118256e-03
2.061330388785e-03
5.887134204678e-03
5.158371209842e-03
1.735033884423e-04
2.876871465872e-03
5.119259939334e-03
5.882578435152e-03
4.090807838191e-03
4.627625074894e-03
1.056059908013e-03
5.381604359168e-03
2.190366286691e-03
2.266492401597e-03
4.233392830062e-04
5.876777887152e-03
1.506277909376e-03
4.962026184372e-03
3.779613678589e-03
1.886868617371e-03
2.137991957806e-03
3.928710791902e-03
5.887503593490e-03
2.741417539435e-03
4.307478873942e-03
3.496708023987e-03
3.907072451988e-03
2.300842511533e-03
4.002515627125e-03
3.405034769092e-03
4.439472514518e-03
4.416922306321e-03
3.333573885478e-03
2.813436354788e-03
1.986436464636e-03
2.602497471918e-03
4.536209320527e-03
3.650011259562e-03
6.021028889714e-03
5.248340798342e-03
1.675475904991e-03
5.860952443923e-03
5.749243689854e-03
3.130366137552e-03
2.446157471383e-04
6.015808451350e-03
5.216828897001e-03
1.891089920309e-03
5.872438978963e-03
4.140650168509e-03
2.670441489397e-03
3.672959727573e-03
3.555689535213e-03
3.535938459604e-03
4.076028772190e-03
4.323837798527e-03
2.998150908977e-03
4.588814172264e-03
3.990156233101e-03
2.851900776380e-03
4.246963853771e-03
2.223560657060e-03
3.981478068334e-03
1.793397212351e-04
2.156315504880e-03
2.097111767555e-03
3.079683430517e-03
3.294455684710e-03
4.105285117446e-03
3.968717882503e-03
1.929111457824e-03
5.886335248325e-03
3.894339398565e-03
3.209529361218e-03
3.730809639925e-03
3.117776647955e-03
0.0
3.867784336933e-03
2.563323944442e-03
0.0
3.036200146822e-03
4.407600196631e-03
5.076924335598e-03
3.778145075046e-03
3.865417070565e-03
3.297599931106e-03
3.075297279978e-03
5.632622103086e-03
3.567491943935e-03
1.510039486835e-04
1.062090790194e-03
2.398810579769e-04
1.837694429977e-03
5.063783013299e-03
5.108968424711e-03
4.804181478442e-03
2.074537259418e-03
4.022688107491e-03
5.049168604238e-03
1.160096365863e-03
2.576389109968e-03
2.078055360937e-03
6.021089235366e-03
5.881485963002e-03
2.857156921414e-03
3.246692301347e-03
3.629498285744e-03
5.229137518708e-03
1.125785695799e-03
4.880206649917e-03
6.831862832840e-04
2.949407645451e-03
3.288357648769e-03
2.441249237017e-04
2.697767110358e-03
5.212641935745e-03
1.752329176366e-04
3.063219008196e-03
3.208047659791e-03
4.245083115866e-03
2.103654506232e-03
2.019431576275e-03
1.421520152248e-03
5.225289819944e-03
5.632171442564e-03
4.908962959162e-03
1.901082200919e-03
7.152422822502e-04
3.069002747989e-03
3.072118229683e-03
3.221248037221e-03
0.0
2.370160903131e-04
5.310782124113e-04
1.561897998935e-03
4.249046179327e-04
3.032717901044e-03
0.0
1.864630217503e-03
4.122518464148e-03
3.216172429738e-03
5.209439031162e-03
4.234717777356e-03
3.854408568460e-03
2.248560931312e-03
6.787283102328e-04
5.869561306561e-03
6.023626633703e-03
3.742684779077e-03
3.077333598062e-03
2.287820883481e-03
6.009559958077e-03
1.773006016400e-03
3.202342050267e-03
3.064099742472e-03
2.912794716067e-03
5.888568312805e-03
6.006021539653e-03
4.166942996851e-04
0.0
8.441431879688e-04
3.250853044044e-03
5.464355466467e-03
1.629622625435e-04
4.849407318231e-03
0.0
4.167229288684e-03
1.911385708274e-04
1.855469029488e-04
3.998077199970e-03
5.296543687334e-03
4.237134437895e-03
3.194088539209e-03
2.435063913800e-04
4.153210895562e-03
5.861217735276e-03
6.009791560538e-03
3.214582083037e-03
4.335922088801e-03
5.878708529905e-03
4.662336340161e-03
6.526260522665e-04
4.186243951470e-04
2.626649538589e-04
2.550412609600e-03
6.014031515604e-03
5.628686910939e-03
0.0
3.011280459441e-03
5.891985303537e-03
6.031512279974e-03
6.009444186578e-03
4.549765932770e-03
5.010826545378e-03
5.864343994050e-03
5.879214029285e-03
4.848773824588e-03
1.474383398766e-04
3.191688509645e-03
3.230904037540e-03
0.0
5.898372924748e-03
6.024797090299e-03
5.861254662737e-03
1.875139568358e-04
1.924224746449e-04
5.871534849748e-03
5.866174925494e-03
4.404639489746e-03
3.191281210692e-03
4.696669621923e-03
3.777426634559e-03
3.187300555971e-03
1.702406008909e-04
1.962141474448e-04
1.658004844312e-04
1.808088655351e-04
3.181347729344e-03
2.857668427393e-03
0.0
4.096797302130e-03
0.0
5.867214387611e-03
5.859324762587e-03
5.872796053912e-03
1.028821985916e-03
1.936630062470e-03
5.864275948506e-03
5.016839626708e-03
5.891943567255e-03
5.328174982674e-03
5.640245512770e-03
2.701665040976e-03
6.022983703665e-03
6.017003585591e-03
5.139388847067e-03
5.463393282501e-03
4.411575174769e-03
0.0
2.784277416710e-03
4.061884078683e-04
5.259286228377e-03
2.908833121132e-03
4.850143225763e-03
1.472710261241e-03
5.420604269261e-04
5.189202363176e-03
3.073447472489e-03
2.406449859391e-03
4.889636581614e-03
5.255592395657e-03
2.405392247394e-03
4.614670723085e-03
4.023251322217e-03
4.374804059548e-03
4.518070815714e-03
2.466020010935e-03
2.911636777842e-03
3.205404967252e-03
4.113353234630e-03
5.029297459228e-03
4.665945937406e-03
1.491277829959e-03
5.243929663885e-03
4.941851688277e-03
3.558682000750e-03
4.285917425276e-03
4.244579152953e-03
5.321773155122e-03
5.122199489663e-03
3.931103671375e-03
5.320806263415e-03
4.878121851522e-03
4.664188533065e-03
5.406777608810e-03
5.283094587084e-03
4.496087669439e-03
4.444458481023e-03
1.481875117849e-03
1.376911560334e-03
7.503612397896e-04
4.158489178226e-04
5.132283977735e-03
5.119873486994e-03
4.012352521065e-04
5.178558947058e-03
3.672287986049e-03
4.759407346754e-03
4.816897172186e-03
2.140610803278e-03
4.851861367702e-03
3.563436395175e-03
4.454648778840e-03
5.513811741196e-03
1.417713283077e-03
5.445572691693e-03
4.665806061983e-03
1.612851643597e-03
1.714759419245e-03
3.438255392646e-03
4.137623841864e-03
2.296870595819e-03
4.830815432738e-03
4.338838747336e-03
3.342675223842e-03
4.545437980776e-03
4.722218982109e-03
4.634762812797e-03
1.261713162161e-03
3.173154214210e-03
5.055839016286e-03
4.803789849080e-03
2.857994266569e-03
4.062765352512e-03
5.318088809597e-03
4.463221862301e-03
7.092725784376e-04
7.188837629253e-04
1.457330486298e-03
4.991375457446e-03
4.302592537165e-03
3.790381226361e-03
3.831560113469e-03
5.088582652342e-03
3.475465703060e-03
4.681796565250e-03
1.519021719428e-03
5.403126934034e-03
3.381852318330e-03
1.662591917742e-03
3.207575975263e-03
2.427493216678e-03
1.903845874229e-03
3.731045389275e-03
0.0
0.0
4.284173046855e-03
1.393362755241e-03
4.325320826384e-03
4.194819161297e-03
2.641355429632e-03
1.719362769164e-03
5.077648961166e-03
6.798414436796e-04
2.568347176664e-03
5.235874665598e-03
1.155384575714e-03
4.027503858662e-03
3.708502873321e-03
1.170523382264e-03
5.180869859233e-03
4.605325228012e-03
1.354425768675e-03
5.208339196432e-03
5.174454579939e-03
1.560392004205e-03
2.066462287853e-03
1.601268088310e-03
4.585233918787e-03
3.608599847271e-03
5.182420533551e-03
5.047083544607e-03
4.455861124158e-03
4.416860348409e-03
1.262227011679e-03
4.546872248422e-03
4.575231375888e-03
3.645268122884e-03
4.332465809534e-03
4.772714813264e-03
3.224253829144e-03
4.911353602778e-03
3.039446067918e-03
3.515433690721e-03
2.274449684327e-03
2.423089078890e-03
4.439297428605e-03
3.365892711140e-03
1.732320824868e-03
8.737837506730e-04
4.468449371054e-03
1.692563081125e-03
5.400363428095e-03
4.604462714681e-03
4.720726376404e-03
5.614884535387e-03
2.906736885669e-03
1.519615723243e-03
9.588952552173e-04
4.497763875840e-03
4.168753252709e-03
6.612546370243e-04
2.334923660638e-03
1.349036943465e-03
4.164466221195e-03
2.463752493733e-03
4.155025201166e-03
2.292333716335e-03
4.974481416777e-03
1.996568548932e-03
4.538601579327e-03
1.422865093935e-03
4.366068561900e-03
3.354002373652e-03
4.590163414602e-03
2.268610930300e-03
1.307910686375e-03
3.881907493683e-03
4.205574957263e-03
2.920421497113e-03
4.187784013099e-03
1.586935699350e-03
4.244922793799e-03
1.226338966711e-03
5.150001748039e-03
4.374413810112e-03
4.622543358684e-03
5.394833408084e-03
3.667741289077e-03
1.224125341458e-03
4.102435654437e-03
5.282422523208e-03
2.057763750215e-03
4.628995763583e-03
4.635584555752e-03
1.589158083945e-03
4.234441115404e-03
3.821646127754e-03
1.821001696294e-03
2.204998645608e-03
3.531838972984e-03
4.458682283978e-03
2.705458114869e-03
3.369397376082e-03
4.409627360570e-03
3.999189459908e-03
3.940589006345e-03
3.315097548747e-03
5.049644574621e-03
3.970188919273e-03
3.865457449799e-03
5.335960465199e-03
4.786774600188e-03
4.326858616178e-03
4.742369029763e-03
2.549037087326e-03
2.376936366428e-03
1.302651264701e-03
4.273366818875e-03
2.508792953611e-03
4.299375558000e-03
4.132696996014e-03
3.389416804488e-03
2.034302780513e-03
2.172486861284e-03
2.165955219120e-03
2.337607654919e-03
1.391516248166e-03
4.919034255652e-03
2.855049591197e-03
4.941701353565e-03
3.027877065094e-03
4.063567962409e-03
3.458337729904e-03
3.331673446639e-03
1.430769057123e-03
5.141025598269e-03
5.386317345378e-03
4.241134245443e-03
2.509978051558e-03
3.760813505748e-03
4.270720268813e-03
2.680282115890e-03
2.797254708148e-03
2.037210772217e-03
1.757966815576e-03
2.721514213298e-03
1.824017326781e-03
1.691969220267e-03
3.496848774705e-03
4.195328690588e-03
4.995266969494e-03
2.135838877742e-04
2.937051639141e-03
2.897351463058e-03
2.682523461315e-03
4.103488450026e-03
3.156230924954e-03
2.130711016344e-03
2.894759596741e-03
4.775391991284e-03
2.173955602432e-03
7.788298120350e-04
1.098630592694e-03
1.847249263452e-03
2.207153680070e-03
3.068504768790e-03
3.066805177260e-03
1.285438509384e-03
1.138227833186e-03
3.930039062681e-03
1.865163626252e-03
4.708651258612e-03
4.829683528524e-03
3.996321467094e-03
4.986241804288e-03
5.148048922335e-03
3.260814721480e-03
4.534131096749e-03
1.457572490377e-03
3.023482251318e-03
2.967208668201e-03
1.645155887212e-03
1.166961927379e-03
2.469642956954e-03
2.937206611966e-03
3.106798960592e-03
1.956772177711e-03
3.328078992345e-03
2.976908204584e-03
3.106378807451e-03
2.248119148986e-03
4.413942525391e-03
4.439751776256e-03
2.976392922480e-03
5.010927287276e-03
1.627877766205e-03
5.381669347488e-03
3.196867194148e-03
5.344914307263e-03
4.057033022443e-03
1.547485956853e-03
4.123901821043e-03
5.087178339347e-03
3.367611906554e-03
2.440942977478e-03
4.251329185006e-03
3.207452396219e-03
1.238538391459e-03
5.593643574323e-03
1.085824202323e-03
5.357726211726e-03
5.214885560155e-03
4.544742657186e-03
3.963126868919e-03
4.882709138368e-03
3.144855381723e-03
3.686700440280e-03
5.279854728997e-03
4.499470890681e-03
4.577778607108e-03
4.305077680676e-03
1.417434976899e-03
4.713217591497e-03
5.753142823153e-03
5.329243380659e-03
2.984954618286e-03
3.988249552619e-03
3.801645055376e-03
3.235172335353e-03
4.367027888534e-03
4.537516687745e-03
9.970547420202e-04
1.879690939538e-03
3.146058965649e-03
3.016269873665e-03
3.169182906176e-03
5.469468509572e-03
5.150681403781e-03
5.240179499594e-03
2.868576175316e-03
4.786586511308e-03
4.405806436379e-03
5.327777423767e-03
4.543377517499e-03
3.194953866718e-03
3.016658390279e-03
4.683655011930e-03
5.186209915555e-03
4.713484120123e-03
4.548206090170e-03
4.976866936040e-03
5.217579174467e-03
4.840160058745e-03
3.891876227783e-03
2.750258353967e-03
4.710107048531e-03
4.455858956637e-03
1.652249011372e-03
3.184856128294e-03
3.569010409292e-03
3.985083673358e-03
1.671830613806e-03
3.055529241679e-03
4.284410717116e-03
3.160882025297e-03
3.286974656951e-03
4.234469480443e-03
3.357266040902e-03
5.832224582001e-04
3.799395819488e-03
4.636565872287e-03
5.317751045333e-03
3.481406310990e-03
3.589447844127e-03
4.274698478407e-03
8.890581030903e-04
4.506465777264e-03
3.816858646073e-03
3.354799917759e-03
4.576186082816e-03
1.676633756965e-03
4.747043128416e-03
5.187298868340e-03
4.376407166304e-03
4.744547438801e-03
4.830907234008e-03
5.222428902797e-03
1.201860364893e-03
4.408544086062e-03
5.240903661220e-03
4.852152895878e-03
4.077198400922e-03
3.222276421180e-03
3.512191017662e-03
9.501978410136e-04
5.017421712005e-03
1.785962296740e-03
1.474080171039e-03
4.696567737555e-03
5.360782323002e-03
1.502195583134e-03
3.694570648950e-03
4.514270677664e-03
3.456703744762e-03
1.710610669055e-03
2.238950842234e-03
1.102844825229e-03
1.463725195595e-03
1.298709706981e-03
3.778806340878e-03
6.016319104850e-03
1.770958764898e-03
5.108227611126e-03
2.760707398476e-03
4.377813891094e-03
1.251866579467e-03
5.389992930062e-03
1.329712956055e-03
2.093643212440e-03
4.546924323321e-03
3.272001809033e-03
5.085454575005e-03
2.505652950449e-03
4.652855770583e-03
5.305274251484e-03
4.381154287587e-03
5.353154153797e-03
4.847010383273e-03
4.984300817298e-03
1.461091507052e-03
4.931565832531e-03
4.651005362573e-03
3.390008201393e-03
2.079335679828e-03
5.500831082514e-03
1.712811546916e-03
1.993152190864e-03
4.885708378640e-03
1.216541976104e-03
3.495171392387e-03
4.675591106622e-03
5.272532937545e-03
5.420840566733e-03
4.583883740699e-03
5.018032232522e-03
2.928193951873e-03
4.734205484299e-03
2.384407325899e-03
5.226115629599e-03
2.691920380854e-03
2.821439891355e-03
3.352681362175e-03
3.005156168196e-03
3.913667205993e-03
3.168162756046e-03
3.350908701417e-03
1.499540076307e-03
3.184302201097e-03
5.155825657334e-03
5.317650690563e-03
4.630365567379e-03
5.181610671434e-03
3.234889799458e-03
4.952004252636e-03
3.313357221722e-03
5.062045811440e-03
4.816274352400e-03
4.818099421099e-03
4.206405183177e-03
3.056304276052e-03
5.021296019776e-03
4.023314824600e-03
1.538746154334e-03
1.749640413363e-03
2.581840747201e-03
3.659895849796e-03
5.198547264467e-03
4.682421595145e-03
3.094059173860e-03
4.145541869622e-03
4.812672239436e-03
5.049278077315e-03
5.190177469339e-03
4.186777916003e-03
4.922584909275e-03
3.519092201106e-03
4.841945469779e-03
3.459285380478e-03
5.318103245047e-03
5.375730321285e-03
3.907284938938e-03
1.543762532817e-03
4.924088818987e-03
3.784631978290e-03
2.966232018542e-03
4.115084444643e-03
4.786551662215e-03
1.580177343230e-03
3.609609721518e-03
4.218839080460e-03
5.235324707913e-03
4.343885302361e-03
4.794481932196e-03
4.091858975395e-03
3.838629298260e-03
4.150165290363e-03
5.016907512540e-03
4.843633938431e-03
4.487236376390e-03
5.391551705940e-03
3.964776956212e-03
2.504722224904e-03
5.126866157334e-03
5.351865102208e-03
3.421523486689e-03
3.585506366848e-03
2.798993443276e-03
4.621665338398e-03
2.797993190934e-03
4.008922037687e-03
2.829376981743e-03
4.717608549950e-03
5.388550033297e-03
2.927070685157e-03
9.888206599125e-04
5.353078015974e-03
2.956776001860e-03
3.401650254318e-03
5.219422455657e-03
4.518245132016e-03
4.710258760874e-03
3.004500417497e-03
7.783076031665e-04
5.413634110948e-03
3.785549847173e-03
4.475770357229e-03
5.138569278830e-03
4.994909691428e-04
4.670933741567e-03
2.116054709690e-03
4.214096454066e-03
3.759983120660e-03
2.888083435173e-03
5.100516085727e-03
3.877479781614e-03
2.594149316670e-03
3.983879265493e-03
8.165376085929e-04
4.568690469439e-03
4.756083401337e-03
5.452995028681e-03
4.864947734128e-03
2.043386112127e-03
4.669335817464e-03
5.443502610785e-03
5.653283028556e-03
4.924221690428e-03
3.131071400812e-03
4.275149951314e-03
5.153531541623e-03
3.483038301481e-03
4.661124208018e-03
4.348587759454e-03
4.969873350217e-03
4.879399467596e-03
3.061812406022e-03
3.059832632554e-03
4.421565437881e-03
4.367095910945e-03
3.892926071110e-03
4.346817112173e-03
3.712232804534e-03
5.218395199065e-03
3.094455246611e-03
6.015990180958e-03
3.548926640244e-03
3.622651461457e-03
3.720989189851e-03
1.917689178557e-03
3.325283759535e-03
4.075520205487e-03
3.823291195348e-03
4.324099751295e-03
4.442674123027e-03
4.635684442584e-03
9.413748427401e-04
3.116803001466e-03
2.990095831993e-03
4.183071766205e-03
4.385629020003e-03
5.129593891230e-03
1.345885066556e-03
1.412365657132e-03
3.622797484364e-03
3.154436867303e-03
2.871305297426e-03
3.029007655749e-03
4.352626062824e-03
1.378394098464e-03
3.551958554456e-03
4.673475020981e-03
1.371021261255e-03
5.626560674904e-03
5.140839489265e-03
3.418542020247e-03
4.761469995819e-03
5.340586268801e-04
4.506684223349e-03
3.820960628806e-03
5.232531716934e-04
5.112554520633e-03
1.291496177796e-03
4.218615333140e-03
3.856857888662e-03
3.312116629244e-03
3.970751915483e-03
5.253907736522e-03
4.273307236226e-03
3.748874096129e-03
3.658427402968e-03
4.072848571604e-04
1.086582957134e-03
4.988340503471e-03
4.027251590836e-03
5.093944963423e-03
2.082136659873e-03
4.849015704641e-03
5.165290452317e-03
3.099958031898e-03
4.951145023831e-03
4.800202598035e-03
4.202189340322e-03
3.419837614494e-03
3.627723820665e-03
5.408792691943e-03
3.669252203194e-03
3.949521165471e-03
3.687500356751e-03
4.577290825851e-03
3.457616430748e-03
2.136542330794e-03
3.737765005846e-03
2.300519927022e-03
4.313534934977e-03
2.336835197399e-03
4.185013498204e-03
5.058632123647e-03
4.845402042790e-03
3.258903797757e-03
4.157867652743e-03
4.893039108893e-03
4.931637404463e-03
1.098595117713e-03
4.276866742041e-03
5.348494697504e-03
2.274754905370e-03
3.720777205156e-03
5.805350037142e-04
5.023459904507e-03
2.007146323956e-03
3.516536072154e-03
4.448684330717e-03
4.188265097601e-03
3.987994876210e-03
3.912543751932e-03
2.560060998670e-03
2.716022476841e-03
5.063727723485e-03
4.170414237267e-03
3.608810319198e-03
4.473149988466e-03
3.442042596625e-03
2.210516303654e-03
2.509306508329e-03
3.743956289805e-03
3.211982025181e-03
4.884087041847e-03
3.294332851053e-03
5.470028085312e-03
4.968312631613e-03
3.648648400585e-03
5.541933827682e-03
2.466546029825e-03
5.345527466215e-03
3.948482313971e-03
4.328605554235e-03
5.112321421620e-03
2.597683647667e-03
4.115029269880e-03
3.480150837066e-03
4.019186076767e-03
2.272393606485e-03
4.466658165347e-03
3.272828574776e-03
3.852140252587e-03
3.985530946530e-03
5.486019707335e-04
3.987424940170e-03
8.554820142323e-04
9.504026979452e-04
3.679756779393e-03
4.895621551102e-03
4.114719913355e-03
2.260582699587e-03
5.890341927598e-03
2.361196323926e-04
2.408933314321e-03
3.696570178526e-03
3.550836608979e-03
2.949897068498e-03
2.521788525811e-03
3.865826064652e-03
4.111851899735e-03
4.291338337805e-03
5.060421643315e-03
1.172731196860e-03
3.380194152908e-03
3.645284340248e-03
1.945070109137e-03
3.263324571413e-03
4.151874911649e-03
4.514501832049e-03
6.678202814271e-04
4.351335771458e-04
1.356777941614e-03
3.683303970356e-03
2.761138937455e-03
2.431180347952e-03
2.170243072616e-03
3.811952085602e-03
4.376533666742e-03
3.777763179950e-03
2.723670872440e-03
4.310662224790e-03
3.611591761329e-03
4.750283438547e-03
3.815774579288e-03
3.851468414051e-03
1.944050795949e-03
2.890987107893e-03
3.905608017060e-03
4.252910968047e-03
3.994175970999e-03
2.110867462038e-03
3.944631663858e-03
2.390664015243e-03
1.124080825948e-03
5.376953591042e-03
1.187499430943e-03
2.482769913719e-03
3.879865431681e-03
2.200126612380e-03
3.952345974418e-03
1.811928905985e-03
3.356343314340e-03
3.983365723056e-03
3.440832380153e-03
3.590886272855e-03
5.778240294564e-04
5.177570466669e-03
2.852018100216e-03
5.139923105349e-03
4.369987342579e-03
4.075819768185e-03
4.112944593259e-03
2.558534294897e-03
8.044732495801e-04
4.846447285547e-04
4.204879470093e-03
5.110788681143e-03
2.351481271792e-03
4.405521083047e-03
2.090274329685e-03
4.476809174747e-03
5.754213561495e-03
1.628784469015e-04
5.886643384746e-03
5.901414175980e-03
3.458575707159e-03
2.812867409509e-03
4.241011420016e-03
2.631198119222e-03
8.395301720451e-04
4.442063176974e-04
5.416028733597e-03
4.290643224771e-03
3.238039868260e-03
6.016407931762e-03
1.526058316679e-03
6.021404174662e-03
4.252293004767e-03
2.770700704573e-03
4.037975120995e-03
2.603169544957e-03
1.275543801189e-03
2.434051418874e-03
4.504021302162e-03
5.149429450184e-03
2.644039120232e-03
4.570681309338e-03
0.0
2.683791218028e-03
4.759413754436e-03
2.380487600569e-03
2.182231533104e-03
4.074582213105e-03
1.142827734401e-03
1.613360141681e-03
1.808060117334e-03
2.084692713343e-03
3.738888209100e-03
3.552566181395e-03
4.601487464017e-03
5.387303345294e-03
1.895037985309e-03
4.547788030597e-03
5.406404464742e-03
2.430574595185e-03
8.388200309560e-04
2.308570276636e-03
3.567446514914e-03
4.605708546548e-03
3.532472732913e-03
9.838862332245e-04
4.035330324993e-03
1.450893591273e-03
3.586284318698e-03
3.831672797715e-03
4.170149154859e-03
4.132286282917e-03
2.127223100425e-03
9.534914560383e-04
4.136513997941e-03
1.590009906794e-03
3.818359164413e-04
5.392622240487e-03
5.134895118372e-03
2.358553379801e-04
4.335577273877e-03
1.652975194542e-03
1.733439247888e-03
4.869520458032e-03
4.202282593856e-03
4.701518647351e-03
2.723483443401e-03
3.214868672807e-03
5.618894135867e-03
1.429456025818e-03
4.994104156300e-03
3.749384831161e-03
1.080098481845e-03
4.468944246879e-03
2.850501028317e-03
5.229780796344e-04
2.395768144624e-03
4.403868178899e-03
4.552935884602e-03
1.122570998338e-03
3.592706244326e-03
4.742720139637e-03
4.941703297221e-03
2.257577943858e-03
1.773224354185e-03
3.849204691397e-03
4.071024716265e-03
5.196053913261e-04
5.764981452673e-03
5.619546678147e-03
3.612944456399e-03
5.643094491975e-03
5.633179208426e-03
2.812315344072e-03
2.684208433063e-03
5.774953852408e-03
0.0
1.642459376677e-03
3.615456688328e-03
2.303853360214e-03
2.356132906425e-03
1.288375400597e-03
1.523495052580e-03
3.689273836909e-03
2.596505031526e-03
1.903570888892e-03
4.768488117706e-03
6.016953446853e-03
6.019036760985e-03
2.772486331110e-03
3.327990862488e-03
3.338379874677e-04
1.033148740315e-03
1.155791037094e-03
1.182207438934e-03
4.038315348238e-03
2.314844929729e-03
2.560267431529e-03
6.984958962329e-04
5.129856721972e-03
2.519676737210e-03
5.369560606069e-03
4.921920194395e-03
6.028148600870e-03
6.024927523322e-03
3.694826416134e-03
2.643467046654e-03
1.596779775992e-03
2.730315514544e-03
5.897744789275e-03
7.273837460651e-04
8.727452914999e-04
5.171338012505e-03
3.477662201300e-03
5.409990092851e-03
4.766370635139e-03
5.205506796535e-03
4.984047288898e-03
3.660646591584e-03
2.009740382611e-03
1.966632147612e-03
4.354966851432e-03
5.090565716970e-03
3.059094088471e-03
3.470038770667e-03
3.693952598066e-03
3.772778857696e-03
9.470076460965e-04
1.787152598033e-03
5.767752696873e-03
4.034960654971e-03
5.756079931259e-03
5.497145112359e-03
4.509775173530e-03
5.432774287522e-03
2.645253503307e-03
2.511337306943e-03
5.406759837386e-03
2.304638287393e-04
1.771966949554e-03
5.883028560639e-03
8.247074295860e-04
3.324809475671e-03
5.529445601793e-03
5.796810560745e-04
3.735041338849e-04
6.010222977965e-03
3.068950323843e-03
5.659948107382e-03
5.391425944959e-03
3.060672020253e-03
3.701494320501e-04
5.629476601577e-03
9.427571928059e-04
5.445974576444e-03
5.891393706380e-03
5.428284510192e-03
1.205305933195e-03
3.730388698424e-03
2.799861645862e-03
4.776394335281e-03
6.019211625133e-03
4.734875419906e-03
6.017874104347e-03
5.525430350756e-04
5.764155817737e-03
1.379826528368e-03
7.818426790371e-04
5.771398210854e-03
5.772672408195e-03
5.750122728571e-03
3.364853212441e-03
3.669284283972e-03
1.289535518306e-03
5.767367083341e-03
2.258902969130e-03
7.533765705701e-04
4.926344783199e-03
3.188420317882e-03
5.482259513434e-03
5.953772275136e-03
5.893932355244e-03
1.556562156404e-04
7.519299109276e-05
3.129847729158e-03
3.204854259840e-03
5.889443725007e-03
5.949944079457e-03
3.717729449494e-04
0.0
5.412787547920e-03
5.428215329942e-03
1.134510679474e-03
5.501228040530e-03
3.826590884489e-03
3.385765392231e-03
4.259215926484e-03
1.033495775153e-03
4.492845514927e-03
9.286955643622e-04
3.016528213225e-03
5.456768976604e-03
5.324962882905e-03
3.256994374191e-03
3.913984556786e-03
5.533514411026e-03
5.100824001865e-03
4.804745634301e-03
3.058531543379e-03
4.339009031687e-03
5.424931143324e-03
1.698845153725e-03
4.086781350246e-04
5.273729960381e-03
4.969714239598e-03
7.789488230220e-04
4.461302677928e-03
5.625097067299e-03
5.215165969830e-03
5.527785936846e-03
4.184635835076e-03
2.450732908034e-04
1.273338932172e-03
1.607268086116e-03
3.578185125380e-03
4.310413086534e-03
5.506795170732e-03
5.617673364480e-03
6.645911850498e-04
6.388748237895e-04
1.019502716968e-03
4.467708076661e-03
2.159520161712e-03
5.529519713859e-03
1.082739524012e-03
5.378468444182e-03
3.624426704377e-03
5.642484205688e-03
4.966747949266e-03
3.587861483021e-03
5.771512121934e-03
5.779451194585e-03
5.760792399076e-03
7.089390944598e-04
5.397932790268e-03
5.622343722044e-03
5.472950722519e-03
5.052268972403e-03
5.880549672383e-03
4.768122438881e-03
0.0
9.845756963829e-04
5.283361989644e-03
3.879740068610e-03
5.433335536349e-03
5.248543119057e-03
5.652713428879e-03
4.807093912347e-03
5.652238210164e-03
5.501769948461e-03
5.478616351915e-03
2.254971077609e-03
6.018212737185e-03
3.451522871175e-03
5.433186761320e-03
5.068656971482e-04
5.235659828438e-03
4.498616084438e-03
6.477069853907e-04
1.135724772342e-03
4.905082491478e-03
5.637492893173e-03
5.504426529729e-03
5.673913725339e-03
3.852881204388e-03
3.799041860716e-04
5.935897059171e-04
4.188938165998e-04
8.250409444332e-04
1.478748655910e-04
2.994768496769e-03
5.427348189453e-03
5.458882754827e-03
3.883455718842e-03
2.608660953034e-03
5.476751558409e-03
5.429576111220e-03
5.784117117048e-03
5.420830804507e-03
5.193598780718e-03
5.135394386581e-04
5.681154926280e-04
5.488737210923e-03
5.166391021769e-04
7.619709822300e-04
4.832364846617e-04
5.799786674799e-04
5.645675802182e-03
5.655037542831e-03
5.514781828190e-03
5.671443408193e-03
5.255264111174e-03
4.033418773149e-03
5.899144122698e-03
1.388436502105e-03
3.180255969687e-03
8.723897877041e-04
2.133422569491e-04
6.015531814482e-03
3.502525969212e-03
8.808568387309e-04
2.855369314806e-03
5.783822611068e-03
5.499347830224e-03
5.655534667044e-03
2.044016280955e-03
5.432286145459e-04
5.780287558169e-03
6.015607847563e-03
6.035949087319e-03
3.352497016113e-03
5.397561630392e-03
7.778562056283e-04
5.539597143375e-03
2.048357633213e-04
5.660676748682e-03
5.761438663708e-03
2.169999861618e-04
5.276842850465e-03
4.633513032721e-03
5.657467102238e-03
5.913925366103e-03
4.247858577439e-03
5.671720231098e-03
5.525428271373e-03
4.362177274662e-03
5.479739394229e-03
2.387201356291e-03
3.053723610195e-03
5.526446984934e-03
5.736294853841e-03
0.0
3.063983621229e-03
5.747940021174e-03
1.061697143843e-03
5.531390322423e-03
5.495470709881e-03
5.762937850711e-03
1.031440225739e-03
8.053626735849e-04
3.509970528096e-03
5.010988788466e-03
1.260771232344e-04
5.677193264911e-03
4.090526400836e-03
1.039673297651e-03
3.888574816327e-03
5.772338171833e-03
3.681185629208e-03
3.038880930972e-04
2.159618659613e-03
3.184608949978e-03
3.800834338169e-03
5.524986598456e-03
3.091083311451e-03
3.266927546245e-03
5.190819916672e-04
5.520367014093e-03
5.284258696945e-03
8.877738012256e-04
5.674860832192e-03
5.710960226183e-03
3.423111596940e-03
4.198163726001e-03
3.122389092001e-03
3.191264477013e-03
3.380114392671e-03
5.252725700940e-03
7.633269386087e-04
5.525012493520e-03
3.559702453178e-03
5.772557366742e-03
5.241338347213e-03
3.993508198578e-03
5.321259532480e-03
5.468684898978e-03
5.796731642521e-03
2.386710946758e-04
5.348756869278e-03
5.540450075665e-03
5.978130445140e-04
2.916813067192e-03
3.606876982128e-04
5.579480516134e-03
2.549158764665e-03
2.636150175904e-03
2.465044416633e-03
2.626215054828e-03
2.459129987657e-03
2.629398577210e-03
2.462515755855e-03
2.626876011636e-03
2.459194547671e-03
2.628998715299e-03
2.462069348223e-03
2.628826924734e-03
2.461615336322e-03
2.655480925391e-03
2.633841262143e-03
2.465021985990e-03
2.504855940460e-03
2.626954113001e-03
2.460627946581e-03
2.459281500191e-03
2.628877804265e-03
2.463978196257e-03
2.633359730070e-03
2.466114496976e-03
2.631825731881e-03
2.557842814581e-03
2.464193016864e-03
2.631244525693e-03
2.634203394462e-03
2.465367309287e-03
2.611601312478e-03
2.466838180282e-03
2.656093472301e-03
2.452256167998e-03
2.368738549867e-03
2.524902431016e-03
2.677255740190e-03
2.532401558563e-03
2.611856570448e-03
2.448380073333e-03
2.895347462543e-03
2.762954093961e-03
2.933492103758e-03
2.773940618943e-03
2.938129622360e-03
2.779861874844e-03
2.947517109028e-03
2.770436758339e-03
2.936171750745e-03
2.775705167697e-03
2.944993665868e-03
2.776162261490e-03
2.967674935110e-03
2.940979762039e-03
2.788576165275e-03
2.769633692862e-03
2.947728243539e-03
2.778133822446e-03
2.938167467260e-03
2.780092728751e-03
2.946956698666e-03
2.779489675693e-03
2.817224370005e-03
2.950134646900e-03
2.777240784832e-03
2.942772889533e-03
2.773283112852e-03
2.775691965232e-03
2.943314050847e-03
2.958430064026e-03
2.871806310958e-03
2.678495565508e-03
2.898963514100e-03
2.818430404747e-03
2.887802313650e-03
2.791363294968e-03
2.764226645725e-03

SCALARS element_materi_plasti_phimob float
LOOKUP_TABLE default
9.636224445779e+00
6.665866611357e+00
1.925175672468e+01
1.750856014165e+01
3.217360346219e+00
-7.285249915137e+00
3.429758056213e+00
8.778620057058e+00
3.586990686922e+00
1.745271994248e+01
2.158362022139e+01
5.026095246158e+00
2.095496231270e+01
6.903175454712e+00
2.075825114175e+01
1.788840241917e+01
1.954076079766e+00
-7.570454407380e+00
1.079625149147e+01
1.178238814981e+01
1.741548958627e+01
7.378903955805e+00
1.023572833617e+01
2.175605039966e+01
1.005284864399e+01
2.165006167979e+01
-2.752334569192e+00
2.160980637246e+01
1.037072632877e+01
2.172399852717e+01
2.211417955246e+00
-2.077814811420e+01
1.884430272196e+01
2.140081381644e+01
2.116399111593e+01
2.089552304953e+01
2.079148209475e+01
2.176639004433e+01
-3.201289313362e+00
-2.851274692071e+00
1.010462914319e+01
2.096151784650e+01
5.124685894789e+00
-2.961725035969e+00
1.702326746200e+01
4.016622470652e+00
-4.609776054741e+00
1.718850602504e+01
-2.205018068068e+01
5.156372930054e+00
1.082220094497e+01
1.407255566883e+01
1.120732147202e+01
6.516857571993e+00
1.841169188009e+01
1.765561693993e+01
1.499882297021e+01
2.146744311579e+01
5.059933563709e+00
1.786185710222e+01
-2.737186583221e+01
2.199572252282e+01
1.707389355024e+01
9.019884097114e+00
2.096163585679e+01
6.970289522537e+00
-3.003601698728e+01
1.906362107583e+01
5.727628077931e+00
2.060400113295e+01
2.164926165465e+01
1.896782046962e+01
2.116760899086e+01
-1.389295286487e+01
1.831251946049e+01
1.757006359174e+01
1.836531391189e+01
-7.164149457937e-01
5.639314313503e+00
2.153929941143e+00
6.180775962397e+00
1.655381757172e+00
1.030813404172e+01
6.167762902426e+00
5.937824591505e+00
5.927346775138e+00
2.159919822223e+01
2.150603821649e+01
1.726513662143e+01
3.014875501775e+00
-2.121965960620e+01
3.092206365552e+00
1.453479509332e+01
1.418792897455e+01
1.847598802843e+01
2.130248894934e+01
1.444594713805e+00
2.143727072115e+01
9.687386044711e+00
1.465630496289e+01
3.990102198066e-01
2.083119424779e+01
2.241356595750e+01
2.172857449767e+01
1.599552224862e+01
-6.026552614450e+00
2.114922647377e+01
1.543957455740e+01
-2.275861974811e+01
2.071694614222e+01
1.703320001705e+01
-2.530190632647e+01
2.161611128846e+01
3.713654888042e+00
2.002923497304e+01
1.396776338893e+01
1.673479660967e+01
2.100500113396e+01
8.643457852158e+00
1.706393986334e+01
4.881832247760e+00
3.833740269550e+00
1.559772954358e+01
1.644295676169e+01
-9.701890749522e+00
5.623428594529e+00
1.972406578808e+01
1.917028803921e+00
1.803601796872e+01
-3.761460229397e+00
2.166078851232e+01
1.754262516013e+01
1.547451458277e+01
7.818053193798e+00
2.133621773767e+01
2.092905549115e+01
2.166024012856e+01
1.555821851900e+01
2.158009699627e+01
1.287729844179e+01
1.779206991030e+01
2.062944332547e+01
6.922024566955e+00
1.241038064009e+01
1.436685799993e+01
4.822475554458e+00
1.656624283492e+01
1.862054747336e+01
1.512835745038e+00
2.115821502124e+01
-2.215004855031e+01
5.762097603186e+00
6.810586663444e+00
4.155179537630e+00
2.103059666973e+01
1.674677450169e+01
2.158730057174e+01
5.413930069888e+00
2.271057792084e+01
2.173253338283e+00
2.171571039560e+01
2.136071811292e+01
5.011949528719e+00
2.117615959853e+01
9.443459629263e+00
2.111085843589e+01
1.900306848514e+00
1.865201897289e+01
-4.927265001474e-01
2.169457305582e+01
7.270586369919e+00
2.106727838838e+01
1.338003461725e+01
1.747316084647e+00
2.045418041782e+01
-4.890810732018e-02
1.953953336875e+01
2.040018176755e+01
2.125511971573e+01
2.081852747031e+01
1.149939650320e+01
2.054664175374e+01
2.220417261587e+01
1.215486057336e+01
9.605290277604e+00
5.803312322828e+00
2.021691090890e+01
1.778939342442e+01
1.628046367409e+01
2.127213879844e+01
2.288437415215e+00
2.081652023505e+01
1.711961153341e+01
-3.128999783948e+01
9.569248692048e+00
2.245705969573e+01
-3.627803172062e+00
1.842837109714e+01
1.302852851046e+01
2.164591695086e+01
2.282371038748e+01
7.200265365899e+00
8.998441258661e+00
2.143616184988e+01
1.868779493496e+01
1.829312524305e+01
1.201932985606e+01
1.378633988379e+01
1.044801725136e+01
7.640064643321e+00
2.289227207524e+01
1.875687727903e+01
-2.536198399896e+01
1.155531237878e+01
1.460410117024e+01
1.734459598418e+01
1.660980290515e+01
4.627695129793e+00
2.256532626991e+01
1.263432018229e+00
2.154791032648e+01
2.262745928520e+01
-1.710146324206e+01
1.467099314282e+01
-2.317302393874e+01
-2.543404245711e+00
3.739160329515e+00
1.661750894072e+01
1.521396668638e+01
1.507229207010e+01
1.006952475018e+01
1.048430116905e+01
8.284062178907e+00
2.265509716273e+01
1.060006726189e+01
2.103061733134e+01
-3.618152419872e+01
1.480186631494e+01
2.255514296885e+01
1.075152685693e+01
2.293495838554e+01
2.107040638778e+01
1.553131657425e+01
1.823110427944e+01
2.232805820763e+01
2.165987105312e+01
1.647374023238e+01
1.421160711072e+01
2.138965673721e+01
2.191576844296e+01
1.069161591652e+01
1.251714291092e+01
1.846985496288e+01
1.876472166898e+01
2.317616981122e+01
6.513834675540e+00
2.381285619675e+00
9.292731350642e+00
1.915819616944e+01
1.199250039288e+01
4.797763353701e+00
1.515396392944e+01
1.259308900457e+01
1.906586234244e+01
1.565822010798e+01
1.644414452652e+01
1.545016196987e+01
2.078691541853e+01
2.377212558952e+01
1.441827574748e+01
2.113583024837e+01
2.320794503320e+01
1.663772573372e+01
1.977333698276e+00
2.250404472356e+01
1.956452155874e+01
1.532835989443e+01
-2.395477720839e+01
1.051897563951e+01
2.055020249628e+01
1.383387489967e+01
1.552763308980e+01
1.362956840039e+01
-5.738916953567e+00
1.452406488056e+01
2.368461493424e+01
1.181576120330e+01
6.740134914516e+00
-3.257662048800e-02
2.054228002732e+01
1.834420026225e+01
1.221274552670e+01
1.446522538244e+01
1.500614665760e+01
2.298716028805e+01
2.241039814717e+01
3.217197675389e+00
2.222953216846e+01
2.414981203292e+00
1.893216384680e+01
1.960101476556e+01
1.964784879955e+01
1.811661886258e+01
1.223343802536e+01
1.533776441250e+01
1.499805835415e+01
1.929246327477e+01
1.543138526814e+01
1.769973324894e+01
2.117519944942e+01
2.318684096156e+01
7.810757617493e+00
2.128415771435e+01
1.605205088644e+01
1.734644902099e+01
8.962377129166e+00
2.358557380077e+01
2.310924501047e+01
2.013879614188e+01
1.279125247058e+01
2.061793284014e+01
2.208053287074e+01
2.329912094332e+01
6.363802729190e+00
1.133162927846e+01
2.299198206776e+01
1.212069753097e+01
1.029927279956e+01
2.129827174196e+01
2.264158920648e+01
2.025124867300e+01
1.017859728777e+01
1.719514539790e+01
7.083264116528e+00
1.095024476480e+01
1.391098017867e+01
1.423606480616e+01
1.939266464103e+01
2.151161563349e+01
9.339572876598e+00
7.684570498917e+00
2.168475387351e+01
1.343014367099e+01
8.104074498689e+00
1.588168197009e+01
2.048520411434e+00
1.921323013556e+01
2.034092487711e+01
1.562947011092e+01
1.504731288045e+01
1.233261179443e+01
2.368554523737e+01
2.312241337819e+01
2.157301473856e+01
1.093307137542e+01
1.963156791200e+01
2.088160264256e+01
9.776086711287e+00
1.281959703930e+01
1.735733386674e+01
1.714938468940e+01
1.252940359388e+01
1.023424085378e+01
2.149407913564e+01
2.178621493048e+01
1.725641905226e+01
1.481484085459e+01
2.273169967143e+01
1.695441607229e+01
1.707299344108e+01
1.961854524639e+01
1.803370507941e+01
2.329516062153e+01
2.137100291480e+01
1.676618745831e+01
1.859759728669e+01
1.984735920350e+01
1.420316983462e+01
1.872340099193e+01
1.982719782424e+01
1.933955531833e+01
1.843200451284e+01
2.281264262704e+01
1.564997677246e+01
1.164633263437e+01
2.125379905510e+01
1.080625987562e+01
1.482321178931e+01
1.665168667406e+00
1.006103420758e+01
2.173018982513e+01
1.782763973273e+01
1.182537267812e+01
1.516458504157e+01
1.466597806422e+01
-5.574407577480e+00
2.249284275740e+01
2.049072193791e+01
2.191654971811e+01
-4.395140323590e+00
6.387977548011e+00
1.123379886088e+01
1.726114455835e+01
2.070292956168e+01
2.296860989880e+01
6.013110237363e+00
5.436246994556e+00
1.913004819925e+01
2.198788643230e+01
1.411527281048e+01
2.093291418567e+01
9.826766637297e+00
1.620950411541e+01
2.176976928917e+01
1.598947215594e+01
2.310187015300e+01
2.106462314227e+01
2.064784524025e+01
1.976210493013e+01
2.019537133397e+01
1.504720289657e+01
1.604509819891e+01
1.796601833039e+01
1.883444024649e+01
1.693851767721e+01
2.094656471628e+01
1.682376479688e+01
2.143441691547e+01
1.636901212361e+01
2.313024015656e+01
1.638696036264e+01
2.127950993617e+01
2.095154500558e+01
1.402373820189e+01
1.135910723507e+01
1.802876460346e+01
1.912520230001e+01
2.094314640328e+01
2.131895994397e+01
1.785883310631e+01
2.114599013595e+01
1.810948155899e+01
2.082851588687e+01
1.856049994804e+01
1.795409136316e+01
-2.276393502741e+01
2.105115272783e+01
2.121763440469e+01
1.876401515413e+01
2.316685168139e+01
2.158575800053e+01
-5.185460248615e+01
2.027817596795e+01
1.705074887787e+01
1.883658300698e+01
1.632661339368e+01
1.334613417605e+01
2.115158045588e+01
2.228014753636e+01
-4.499948539285e-01
2.119226140251e+01
-2.223990825791e+01
1.149969910350e+01
4.210775566327e+00
5.921078211294e+00
2.140629214836e+01
2.113852656354e+01
1.372250554747e+01
-5.321429096495e+00
-5.491082526223e+00
2.401457514384e+00
2.182187440582e+01
2.254326039189e+00
7.989351679827e+00
2.106762647465e+01
2.102861514592e+00
1.884065977340e+01
2.172479752297e+01
8.719571703077e+00
1.383702341726e+01
2.350618288835e+01
7.264930408272e+00
2.095749846763e+01
2.042373955395e+01
1.998743334600e+01
2.267369263165e+01
2.045872996958e+01
2.090443331209e+01
2.289838046513e+01
2.084645427254e+01
1.634079065170e+01
2.119272236910e+01
2.164212295587e+01
1.026812247924e+01
2.121062002703e+01
-6.418797338658e+00
2.074109657922e+01
2.070317360066e+01
2.097087343076e+01
1.801669204041e+01
-4.643310816702e+01
2.136880860049e+01
1.613254208912e+01
2.112516283034e+01
1.540326734237e+01
2.210930463179e+01
4.733315355136e+00
2.162539283821e+01
2.109113890499e+01
2.079492177112e+01
-2.182894715883e+01
2.115386013925e+01
1.317371246664e+01
2.227166342701e+01
7.125961268716e+00
1.815674037857e+01
2.029657901018e+01
1.552549092893e+01
2.101888314962e+01
2.096059573917e+01
2.263887408757e+01
2.070755490544e+01
2.316428005096e+01
2.114914987823e+01
2.277415612688e+01
1.993559242996e+01
2.015055415366e+01
2.324179414092e+01
2.133263132370e+01
2.175497826023e+01
1.730588390533e+01
2.080066412402e+01
2.172641521111e+01
2.383054957136e+01
2.134205805779e+01
1.674784556157e+01
1.739623808530e+01
2.078798784843e+01
2.178851184037e+01
2.285323404213e+01
-2.221115282544e+01
2.117127579101e+01
1.706072909601e+01
1.950882732672e+01
2.066557073086e+01
2.260391641803e+01
1.639905277750e+01
9.579498340001e+00
2.332612248757e+01
2.263370354873e+01
2.317724076936e+01
1.327810955719e+01
1.435011362374e+01
2.300572380476e+01
9.283268080589e+00
2.128942251635e+01
2.345924929848e+01
2.031401989658e+01
2.214959241313e+01
-4.179078882407e+01
1.803082896279e+01
1.984474437454e+01
2.177010030270e+01
2.251919667677e+01
2.297720606251e+01
9.104149190683e+00
1.869184795964e+01
2.063438865673e+01
1.773434383031e+01
2.174869711131e+01
1.853635643300e+01
2.143541656675e+01
-4.835646099600e+01
1.080472312684e+01
2.016537761439e+01
-5.858110691060e+01
2.142399903674e+01
2.275920604911e+01
1.592539205808e+01
2.328557317866e+01
2.360857341933e+01
4.060697816057e+00
-5.656889210326e+00
1.818985563528e+01
1.927336181272e+01
-6.296067921313e+01
8.056869339122e+00
-2.243816651582e+01
1.751708081297e+01
1.958591722346e+01
1.587996069646e+01
2.205990791818e+01
1.872496053368e+01
2.193285524319e+01
2.225800569030e+01
7.746512253268e+00
2.005396657279e+01
1.854126944072e+01
2.112847812925e+01
2.060587942452e+01
2.070983952997e+01
2.145320828275e+01
2.295387094882e+01
2.214200616445e+01
1.070200026469e+01
2.238366114844e+01
-3.305778747541e+00
2.109722230282e+01
2.174155329280e+01
-2.002465384131e+01
2.035186227415e+01
1.678817332098e+01
-6.138742637511e+01
-5.402093201572e+00
-4.172729587251e+00
2.312784649223e+01
1.848132817648e+01
2.007165331731e+01
8.837724395752e+00
2.154335974968e+01
2.100912932776e+01
1.501133523420e+01
1.308561637306e+01
-8.687247284699e-01
1.210114733490e+01
-5.031808051630e+00
-4.862118151462e+00
-5.790508838577e+01
-2.054439263506e+01
-2.405290342663e+00
1.594048982662e+01
-1.952533322194e+01
2.104149571081e+01
-3.911608600189e+01
1.812008868656e+01
1.149632304239e+01
-5.074347826184e+00
1.927074907966e+01
2.274388778409e+01
9.256269302476e+00
1.910222887386e+01
-3.005647671278e+00
1.864995843673e+01
1.834605635473e+01
7.002283035392e+00
-5.360004743989e+00
1.914103069067e+01
1.830152511628e+01
1.697019209202e+01
-4.891736822967e+00
-5.615934016427e+00
6.699612599423e+00
1.956549641212e+01
1.828167627850e+01
-2.022002397099e+01
-5.751816960574e+01
4.114908144078e+00
2.209735863572e+01
2.106378899584e+01
-2.878481736302e+01
1.506375642881e+01
-4.178653400298e+01
2.340842712139e+01
-3.716367111880e+01
-3.309602311299e+01
2.342972136346e+01
2.122487656364e+01
1.132242753560e+01
1.449818311946e+01
-1.979346108732e+01
2.184158409292e+01
1.841292004596e+01
1.827853912352e+01
-5.095877635784e+00
2.333083974156e+01
1.857620423585e+01
2.199262027416e+01
-3.492327729649e+00
-1.960708334330e+01
-2.015370716165e+01
2.000508275299e+01
2.082236790773e+01
1.754266012444e+01
-5.740257717957e+01
2.094039294458e+01
2.050011687746e+01
2.088378240739e+01
2.109575780616e+01
1.369653366493e+01
1.566510421255e+01
2.048791516096e+01
2.049843448647e+01
1.506710581342e+01
8.999999999681e+01
-5.230290900832e+00
-4.937730996305e+00
-5.751546556745e+01
2.052353247053e+01
2.108417755474e+01
2.053545120625e+01
-6.086261662376e+01
-6.056664545101e+01
2.057864500114e+01
2.055851643267e+01
1.287709334366e+01
-5.298914297048e+00
1.441643180857e+01
7.873194085436e+00
-5.235856211260e+00
-6.165976871740e+01
-5.897224502385e+01
-5.584628590512e+01
-5.126864448894e+01
2.118790835129e+01
2.067581104424e+01
-5.713805195983e+01
2.164079179848e+01
-5.456590789156e+01
1.914419517650e+01
1.851024610182e+01
1.873701478304e+01
8.799327630297e+00
1.775311541202e+01
1.845880009630e+01
2.135768217961e+01
1.848185453522e+01
2.116837676320e+01
2.093349414269e+01
2.035781302457e+01
1.826522666774e+01
1.829783445438e+01
2.124058670991e+01
2.104241154521e+01
2.166063982055e+01
-4.491790025453e+01
2.074336965475e+01
-2.106815923335e+01
2.144130242150e+01
2.138854130989e+01
2.157771689236e+01
1.440880739348e+01
-4.192451953563e+00
2.132670090743e+01
2.113246706743e+01
1.972494238778e+01
2.151628586710e+01
1.660198894236e+01
1.958512627914e+01
2.242704367608e+01
2.241217426581e+01
2.175205678822e+01
2.165063114167e+01
2.269589224279e+01
1.336340634409e+01
2.169848775800e+01
2.201131362760e+01
2.140736429284e+01
2.155926539887e+01
1.563839597155e+01
1.649760489565e+01
1.543852422062e+01
4.583221091373e+00
2.206747278050e+01
2.187846985502e+01
1.660778533442e+01
1.605136013814e+01
2.226468827509e+01
2.118877427328e+01
1.507580521359e+01
2.149606462722e+01
2.126014483655e+01
1.649136714748e+01
1.316849136263e+01
2.244747686315e+01
1.494575942251e+01
1.431674470314e+01
-1.025656528345e+00
-2.192551480504e+01
1.602559042927e+01
2.129613824705e+01
-2.222411043112e+01
1.747555673716e+01
6.489040736448e+00
2.163221987930e+01
2.150151970418e+01
2.047214936517e+01
2.147058856172e+01
4.569181695550e+00
2.295977480040e+01
2.111601213308e+01
1.444189243553e+01
2.137211341541e+01
1.407973287596e+01
1.598194301112e+01
1.676547777508e+01
2.151204518525e+01
1.093061504479e+01
1.993231548944e+01
1.486782009391e+01
1.236561798609e+01
2.172441614335e+01
2.160230196874e+01
2.156679300272e+01
1.411733653721e+01
1.197025805903e+01
2.145773040781e+01
2.245029853995e+01
1.466865062855e+01
2.104683172174e+01
2.213575714214e+01
2.152523665327e+01
1.319201881123e+01
-5.534902720720e+00
-1.310561708866e+00
1.355627771097e+01
2.144655810541e+01
1.215922180346e+01
2.154972136344e+01
8.172016325312e+00
2.204407652530e+01
2.170306485843e+01
2.161965800006e+01
1.475160740042e+01
2.137629015897e+01
2.149975259945e+01
1.583734880468e+01
2.126714785619e+01
2.020007663336e+01
1.772415345736e+01
2.164743494882e+01
-5.700098501235e+01
-5.596350760648e+01
2.175427657232e+01
1.348947524190e+01
2.188584372629e+01
2.200916502462e+01
2.122669920298e+01
1.807090477047e+01
1.570957879096e+01
-4.934343065476e+00
2.046475707261e+01
2.189643106160e+01
1.138113658462e+01
9.860524991501e+00
6.566000802762e+00
1.039831343892e+01
2.173490290673e+01
1.359738697390e+01
1.371599445950e+01
1.616407975208e+01
1.624274915337e+01
1.514225739174e+01
1.400525649089e+01
1.558210139234e+01
2.165341902929e+01
2.168290892686e+01
1.706471501335e+01
1.577022422483e+01
2.176786023455e+01
2.190644963103e+01
1.264750381241e+01
2.175458565427e+01
1.364950307526e+01
2.155148622991e+01
1.212948986223e+01
1.444975175520e+01
2.372503390855e+01
1.526253118630e+01
2.120750068632e+01
2.154337764794e+01
1.956124594210e+01
2.037684098230e+01
1.294378481800e+01
2.239034840068e+01
1.653996717668e+01
3.961028508174e+00
1.289911605068e+01
1.688023295299e+01
2.140397648901e+01
1.388526726336e+01
2.173646281425e+01
2.118953398250e+01
2.082783989528e+01
1.541056241430e+01
7.333148295130e+00
2.190892225060e+01
1.126677387599e+01
-1.617472155624e+00
1.954939615317e+01
1.297924523789e+01
1.090654158031e+01
1.982260692782e+01
2.223688966833e+01
1.938688205986e+01
1.540374903881e+01
1.869076991418e+01
2.207706373336e+01
1.375488326564e+01
2.205783768959e+01
2.136944370533e+01
2.191131557497e+01
2.202789802443e+01
1.321330236222e+01
8.588767124133e+00
2.301690471186e+01
1.981101890839e+01
1.122824395437e+01
1.572920575970e+01
1.156435381208e+01
1.149523015761e+01
2.163610845118e+01
2.297451483385e+01
2.274188382376e+01
1.678331574514e+01
2.251841280682e+01
1.215128386969e+01
2.236595775593e+01
2.164848131000e+01
1.932482205446e+01
2.176643408972e+01
1.384133937254e+01
1.704527425547e+01
2.221042871753e+01
7.737280796254e+00
1.700383559361e+01
1.918356765549e+01
2.086556519653e+01
2.209615751557e+01
1.681235422058e+01
2.134439280070e+01
1.267708285143e+01
9.859882353825e+00
9.075158759889e+00
2.149974506412e+01
2.193839913703e+01
2.252197051368e+01
8.197967273134e+00
1.814177151504e+01
2.248040016638e+01
2.228833765240e+01
1.450636493992e+01
2.060351402034e+01
1.994275874462e+01
1.244199729572e+01
2.242736202354e+01
2.022027493634e+01
1.181114788710e+01
1.055750816921e+01
2.334621893542e+01
1.919502257663e+01
2.152628022165e+01
1.960424548038e+01
2.040168896405e+01
1.420342256503e+01
2.215338189127e+01
2.222789370289e+01
1.520729933589e+01
2.265901139567e+01
2.269101102028e+01
2.274751734443e+01
2.231856110047e+01
1.391776875667e+01
2.189125226662e+01
2.163735968129e+01
2.050356165321e+01
2.110322221433e+01
2.277569942396e+01
1.184275609156e+01
2.079113560301e+01
2.014567447770e+01
1.835661074878e+01
1.732985097376e+01
2.118366361235e+01
1.764324861532e+01
1.615729818442e+01
2.230965887419e+01
2.248714880977e+01
2.054508545252e+01
-5.685010637793e+01
2.315466514305e+01
2.271061087278e+01
2.171630759575e+01
1.056332513037e+01
2.257767642310e+01
1.915860641141e+01
2.168513117079e+01
1.472040464289e+01
1.891767310208e+01
3.040607921306e+00
1.010536931623e+01
1.884233780939e+01
2.012968348074e+01
2.309946745980e+01
2.210858465447e+01
1.196035649791e+01
1.012878158924e+01
8.761943028841e+00
1.734101763739e+01
2.247191885711e+01
2.090040260946e+01
1.259747260527e+01
1.552312840181e+01
2.022859017168e+01
2.321371094015e+01
2.071388940036e+01
1.432140724389e+01
2.172082532711e+01
2.306276639581e+01
1.775494236854e+01
9.639929044057e+00
2.062287908122e+01
2.210696400976e+01
2.249740763841e+01
1.828232013722e+01
2.288752503153e+01
2.250617414175e+01
2.348424539831e+01
1.960531813150e+01
2.302563399443e+01
1.264002936869e+01
2.351777335951e+01
2.213236459680e+01
1.625883910184e+01
2.188145588727e+01
2.300311944224e+01
2.012628589201e+01
1.691603692556e+01
1.635352635286e+01
1.409636092930e+01
1.615856378325e+01
2.326882557089e+01
1.995417828517e+01
1.533403626894e+01
2.036478605952e+01
1.242716710597e+01
1.761965583051e+01
9.485292411800e+00
2.203570899004e+01
1.638154597487e+01
2.288040695365e+01
9.429325438039e+00
1.487150960280e+01
2.285260859914e+01
2.338517784147e+01
1.663379502494e+01
2.230438462659e+01
1.339838222777e+01
2.321004307125e+01
1.501561048839e+01
1.410947971108e+01
2.134686867221e+01
2.174156587867e+01
2.220173427373e+01
9.430523539296e+00
7.689440805082e+00
2.245659762007e+01
2.252172714204e+01
2.251483597755e+01
7.190144595140e+00
1.963695427689e+01
2.375522865668e+01
2.284816277545e+01
2.184358546272e+01
1.706292252610e+01
1.746534392370e+01
1.631855448090e+01
1.634803507138e+01
1.489205391532e+01
2.225033095839e+01
1.671174834240e+01
1.327995369956e+01
2.208720808071e+01
2.373410387954e+01
1.415672959418e+01
1.608154307282e+01
1.430705995490e+01
1.344282813946e+01
2.199248110824e+01
2.211280028320e+01
2.222506329225e+01
2.259257671853e+01
7.519637188421e+00
2.274852154822e+01
1.364381941214e+01
1.641259599493e+01
2.312650636933e+01
2.371671044245e+01
2.330209882921e+01
1.818560246620e+01
2.307646063556e+01
2.312510635270e+01
1.301406513502e+01
2.248090208295e+01
1.135474517550e+01
3.794602561788e-01
3.390989249870e+00
2.239320411207e+01
2.301159743920e+01
1.766437502319e+01
2.390301817883e+01
2.259987691676e+01
1.155022093892e+01
6.840528140585e+00
2.320711733938e+01
2.337018056511e+01
1.326934005378e+01
2.225435780766e+01
1.682670854435e+01
2.222017313872e+01
2.201973918928e+01
2.336234640562e+01
1.425282214727e+01
2.164354498444e+01
2.181312144841e+01
7.454233883610e+00
1.243811716488e+01
2.195238385894e+01
1.493047660908e+01
2.362199890696e+01
2.326468394537e+01
2.195420797995e+01
4.700682057170e+00
1.562118408718e+01
1.721257470422e+01
7.121061781861e+00
2.130925322660e+01
1.682553490414e+01
1.492340643960e+01
2.028556192781e+01
1.329470220701e+01
2.200127923751e+01
1.711360508459e+01
2.028654744136e+01
1.016905637613e+01
1.573209484702e+01
1.339624072445e+01
2.381171649271e+01
1.867560074132e+01
6.090144320004e+00
2.175790512149e+01
2.338000596165e+01
1.239782636180e+01
1.209746229434e+01
2.168055033652e+01
1.260258527799e+01
1.877448179931e+01
2.317349994753e+01
2.280777473146e+01
2.220337965608e+01
1.879351151987e+01
1.432888161222e+01
2.219900055913e+01
1.246040023617e+01
1.770507516344e+01
1.479332390002e+01
1.546976826138e+01
1.435605683087e+01
2.184161324940e+01
1.410712959263e+01
2.359604693866e+01
4.421787400923e+00
2.174068280976e+01
1.837512391570e+01
1.797714507178e+01
2.269746899168e+01
1.152111475425e+01
2.200100406790e+01
2.304420066789e+01
1.658655439007e+01
1.717850139044e+01
2.288092013934e+01
1.546663420088e+01
2.350254410013e+01
2.036177480796e+01
3.617758204847e+00
1.856236399944e+01
-1.133947243096e+01
-1.095697850808e+01
2.386725869350e+01
-7.397420660240e+00
2.251850846773e+01
2.252039445861e+01
2.330520869426e+01
1.630484580045e+01
2.385845381873e+01
1.614856085022e+01
1.813549445865e+01
2.209358765549e+01
2.233923538315e+01
2.339321912564e+01
1.550117856570e+01
2.388129185842e+01
2.162941332399e+01
1.483765776767e+01
1.489723824678e+01
2.350062650123e+01
2.374046281773e+01
2.055361416174e+01
1.629637703777e+01
1.538163209684e+01
1.730784946347e+01
2.051129979884e+01
2.000263641875e+01
2.144245007977e+01
1.410550876820e+01
2.313429284884e+01
1.991130774215e+01
2.286321525564e+01
1.556007682335e+01
2.029307082906e+01
1.134116670507e+01
2.252179860601e+01
2.338885742761e+01
2.257762679849e+01
2.207982622305e+01
1.658175313050e+01
2.002685529207e+01
2.372493198552e+01
1.669440878073e+01
2.201682752718e+01
2.212842698985e+01
2.289237790397e+01
2.323977327648e+01
2.236480491113e+01
1.562451918058e+01
2.386177585881e+01
1.501836734566e+01
2.136332076980e+01
1.611941079931e+01
2.173665126066e+01
1.368471781426e+01
1.014141796099e+01
1.773652155465e+01
2.259562102499e+01
2.187965045823e+01
1.334067960400e+01
1.720474468599e+01
1.207200359509e+01
2.188844059262e+01
2.158482336425e+01
1.664869910216e+01
2.301543562859e+01
2.263702232478e+01
2.267923617031e+01
1.426566297517e+01
1.833901667620e+01
2.296784937934e+01
1.849500405029e+01
2.294651406307e+01
2.144021162688e+01
2.293647041130e+01
3.745296882458e+00
1.740616404448e+01
1.751392524595e+01
2.359816062998e+01
2.189755629265e+01
1.339262638213e+01
2.206439046119e+01
2.258408120101e+01
-2.423956353651e-01
2.127679165195e+01
2.092827005418e+01
2.270099341142e+01
2.108936599989e+01
-1.253916015669e+01
2.228405557457e+01
1.905857507095e+01
1.144953789800e+01
2.212351451773e+01
2.361763419791e+01
2.152462675331e+01
2.264579903889e+01
2.310957577674e+01
2.051717549526e+01
-3.201837475689e-01
2.081269050180e+01
2.269046187081e+01
1.979606032559e+01
2.092203480483e+01
1.974278810701e+01
2.190793111778e+01
1.714462330097e+01
2.152125281766e+01
2.246332975760e+01
2.296796489547e+01
2.068255873412e+01
2.137801373453e+01
2.143852810495e+01
2.130194179798e+01
1.235518633045e+01
2.169778079041e+01
2.201948771062e+01
-5.112680867576e+00
-5.129205901172e+00
1.538395028549e+01
2.119710626895e+01
2.202724145038e+01
1.757991217297e+01
2.303410690287e+01
2.218250249714e+01
2.346519596320e+01
1.860565376630e+01
6.877849187824e+00
2.248139386364e+01
2.244841146411e+01
1.862017895422e+01
2.204983293032e+01
2.108252611629e+01
1.925521608626e+01
1.253322553662e+01
1.838372945670e+01
1.820514048154e+01
5.379653019137e+00
2.215545239571e+01
1.800819613482e+01
1.617666118934e+01
1.637872118764e+01
2.243016222524e+01
1.339977136376e+01
1.350698568005e+01
2.153996485579e+01
2.173672207479e+01
-1.877503917263e+00
-1.696927720109e+00
1.266566000829e+01
1.014148978981e+01
2.225979756905e+01
2.269268468995e+01
1.455433488033e+01
2.115078953210e+01
1.602012384140e+01
2.172342442979e+01
2.188959971603e+01
-2.527414217738e+00
2.278131212209e+01
2.108303486906e+01
-2.792266550453e+00
1.608259737853e+01
1.104365966977e+01
1.643876579458e+01
1.963600078954e+01
2.311090696458e+01
2.320064671429e+01
1.664454966244e+01
2.300867642356e+01
2.217426907211e+01
2.158557675514e+01
-1.860152228828e-01
8.784867947972e+00
2.133439533934e+01
1.134106391199e+01
2.175194595026e+01
1.986862640658e+01
1.650145430670e+01
2.104098357325e+01
1.201060273876e-01
2.137024264068e+01
2.174404004511e+01
2.170439485223e+01
2.237397960619e+01
2.221849270575e+01
1.741530342488e+01
2.329314184756e+01
2.027625389822e+01
2.358381155045e+01
2.272194538348e+01
2.274811644892e+01
2.149359267480e+01
2.375999121816e+01
2.220480149172e+01
1.709486366976e+01
2.131780500588e+01
1.824871138169e+01
2.237962226688e+01
2.283669366261e+01
2.330001076811e+01
1.171135479216e+01
2.169503420697e+01
2.159066319821e+01
3.189409211583e+00
1.896912545103e+01
2.125834571405e+01
1.167435445800e+01
2.188690838238e+01
-4.500920064862e+00
2.151712959900e+01
2.072503705784e+01
2.149749745409e+01
2.300108277370e+01
1.195726039394e+01
1.087075963983e+01
2.164934204178e+01
6.424103904906e+00
-1.008287042688e+00
2.145786768168e+01
2.282565939994e+01
2.320112580996e+01
2.313559830932e+01
2.382832801580e+01
2.061134793561e+01
-1.066413074975e+01
8.691525284562e+00
-5.027291406640e+00
2.258750561519e+01
2.291512896555e+01
2.199756186156e+01
2.138397860026e+01
2.336430773202e+01
2.106424989742e+01
2.181944945126e+01
2.213751567467e+01
2.169647329569e+01
2.216285429898e+01
2.213404148239e+01
2.105175617000e+01
1.962038590154e+01
2.327918146429e+01
1.894858679189e+01
1.961202512533e+01
2.251655765159e+01
2.370091447066e+01
2.229706908781e+01
1.847525086169e+01
-1.602093593550e+01
2.346799888115e+01
-4.112400646307e+00
6.939643811823e+00
2.214244177861e+01
1.994884016882e+01
1.244856518983e+01
1.130993033962e+01
1.933521397212e+01
-7.031945626134e+00
1.146802283092e+01
2.356426770765e+01
2.171101612346e+01
9.196485462723e+00
2.258454178134e+01
2.293600383964e+01
2.120594076006e+01
2.327969062116e+01
1.858464444826e+01
8.771197115177e+00
2.202770653955e+01
2.188510840162e+01
1.815885607414e+01
1.530334926301e+00
1.284610243495e+01
2.152993579364e+01
-3.423835983239e+00
-2.333015605249e+01
1.295608676723e+01
2.169721001245e+01
2.260987359874e+01
2.155610993875e+01
2.056357723885e+01
2.203319128077e+01
1.509822595807e+01
2.181933565403e+01
2.335849861758e+01
1.930018620655e+01
5.043628405981e+00
2.271859105435e+01
2.167892946321e+01
2.182941476795e+01
9.549488701884e+00
2.277704246647e+01
2.174841788185e+01
1.193048651798e+01
9.716641428171e+00
1.051030308272e+01
2.192861772654e+01
2.114101971064e+01
4.098476832335e+00
2.188726125178e+01
1.170679490914e+01
2.209727200196e+01
2.301207737650e+01
3.793443026197e+00
2.165792218110e+01
1.698196175081e+01
4.209886571825e+00
2.177517262599e+01
2.304542065129e+01
2.194560741805e+01
-1.459916937489e+01
1.616318195637e+01
2.246623064790e+01
2.250384769473e+01
2.210310164757e+01
2.182821796770e+01
2.171833373284e+01
2.294902516327e+01
1.414413824928e+00
-1.312088369016e+01
2.172538897714e+01
2.242969641461e+01
2.064513118928e+01
1.994707151808e+01
1.133112098721e+01
1.872999097339e+01
2.147770590516e+01
-2.286150853682e+01
1.843359718332e+01
2.049254403858e+01
3.369536181516e+00
2.207089272877e+01
2.173233240482e+01
2.232448749547e+01
3.154698599560e+00
-1.106142301351e+01
1.688487452766e+01
1.422738311988e+01
1.787862629862e-01
2.152848179776e+01
1.489880071955e+01
2.160023988346e+01
1.388387212836e+01
2.162833023654e+01
2.218861917354e+01
2.219397773262e+01
6.283759499276e+00
2.153043573328e+01
1.614216003572e+01
2.127423946838e+01
2.269625142105e+01
1.943612299439e+01
-3.369505659516e+01
2.310476079392e+01
1.576672262238e+01
2.094696289535e+01
1.978060852772e+01
2.214840479703e+01
1.128366163567e+01
7.316631762401e+00
1.174122356075e+01
1.981242252589e+01
2.308547474630e+01
2.336274146698e+01
1.962985589074e+01
1.879519258915e+01
5.026567119804e+00
1.370318345040e+01
2.065405598344e+01
2.266118282906e+01
-6.254027465629e-01
1.259531196582e+01
2.294156512303e+01
1.792960007853e+01
2.345802020859e+01
-1.177764052588e-01
2.299658713000e+01
8.098340219209e+00
2.303720910452e+01
2.339805153090e+01
2.259246870333e+01
1.126189122558e+01
1.921039449652e+01
8.157002674688e-01
2.323441303484e+01
9.190239177223e+00
-2.358260599677e+01
1.706328094097e+01
1.616416654423e+01
-2.291273869145e+01
2.281934081753e+01
1.607727325131e+01
1.741695697155e+01
1.987183212332e+01
2.244358134687e+01
2.026731922766e+01
2.235816064041e+01
-5.209192044209e+00
2.093325493435e+01
1.478712303907e+01
2.239487251239e+01
2.280918021690e+01
1.057096351952e+01
1.702288537976e+01
2.348365015483e+01
-5.146781471975e+00
2.237349765978e+01
2.160378614288e+01
1.637901766538e+01
9.013695419912e+00
2.137836513842e+01
1.900338458828e+01
2.220804632807e+01
2.074815687760e+01
1.713032331013e+01
2.331695178369e+01
1.072058424826e+01
-5.733357392559e+00
2.114948356105e+01
1.918487435876e+01
6.257839313865e+00
1.755551661860e+01
1.986972019890e+01
2.316619385009e+01
2.198149121369e+01
2.182311038746e+01
-3.459624442610e+01
1.601830081437e+01
2.156608348294e+01
2.011342675783e+01
2.192549738503e+01
6.293460023202e+00
1.074188625583e+01
5.798658587025e+00
2.215615980055e+01
1.793212637942e+01
2.238014352497e+01
2.091442797592e+01
2.100325676426e+01
2.273003206019e+01
1.278926927497e+00
-2.861072929396e+01
5.377045601470e+00
8.050467221345e+00
6.467453048813e+00
2.275358426719e+01
2.136040086759e+01
2.182000761533e+01
-7.154251665794e+00
1.639082109471e+01
2.138551642477e+01
1.692039078034e+01
1.542343717199e+01
1.827214438575e+01
2.080880856680e+01
6.377328434640e+00
2.153148668288e+01
7.169417560427e+00
2.223115896757e+01
2.051894180949e+01
2.152677943730e-02
2.815217120997e+00
2.227808303498e+01
1.860475481986e+00
1.703261851378e+01
1.917140996348e+01
2.222212784574e+01
1.791967021964e+01
6.948445366105e+00
1.875889597721e+01
1.940463629638e+01
1.278769472245e+01
2.191922191239e+01
-4.531817977424e+00
1.886329947242e+00
6.051177275848e+00
7.161941818918e+00
4.490942390326e+00
1.813144064659e+01
1.772372262557e+01
1.014282628287e+01
2.154640357992e+01
1.870188533740e+01
1.721212395046e+01
1.704128891392e+01
2.057731219643e+01
2.007153914410e+01
2.142242791803e+01
-2.439664768545e+01
1.634825570857e+01
2.111670442784e+01
5.342743894347e+00
1.904675434509e+00
2.208464384463e+01
-7.064211475678e+00
-2.324101800693e+01
1.838807878452e+01
-5.457382335306e+00
1.759622453006e+01
2.171083858270e+01
-5.565039741000e+00
-2.757662006613e+01
1.779871131487e+01
6.990527982132e+00
1.720472192719e+01
2.050667510955e+01
1.823708337613e+01
1.195703464499e+01
6.307305714473e+00
2.056664790256e+01
2.209185956543e+01
2.144055314161e+01
1.449979957166e+01
2.151466972261e+01
-7.273526962213e+00
2.098739008867e+01
1.406044170329e+01
5.389800616152e+00
2.156481690636e+01
1.809196968007e+01
1.798661071194e+01
1.362469094196e+00
7.635004588333e+00
5.022538094768e+00
1.964167368951e+01
1.922874466218e+01
-4.991032908580e+00
2.247837028672e+01
-5.559445593198e+00
1.771345775795e+01
1.823646231732e+01
1.843770816793e+01
8.999999999681e+01
-5.314011425195e+01
-4.082191823720e+00
-5.401769218134e+00
2.049535646165e+01
2.075208438335e+01
-2.386847871461e+01
-3.553214753255e+01
2.104217811186e+01
2.172559637015e+01
9.571693089050e+00
2.109206175306e+01
2.154708212153e+01
2.136272433504e+01
1.142735716160e+01
7.510054744308e+00
2.228676773533e+01
4.912153100417e+00
2.097756326393e+01
1.943995989107e+01
1.669093874229e+01
2.121964160165e+01
8.760503147464e+00
2.122770869566e+01
1.851631133314e+01
1.787523701144e+01
-5.304472018329e+00
2.262108737953e+01
1.794742336331e+01
1.679477082720e+01
-2.230132032423e+01
2.065688657676e+01
2.267182925054e+01
3.407718122205e+00
1.286423115155e+01
2.076380500274e+01
2.139704505612e+01
2.143750457037e+01
2.158468387820e+01
-2.433375558357e+01
8.471450154140e+00
8.548862151071e+00
6.059769566303e+00
2.286216932572e+01
1.723819315390e+01
2.135083449780e+01
-6.237447545877e+00
-6.525567976556e+00
7.238506725094e+00
1.334824348339e+01
1.864868971441e+01
1.750116309545e+01
9.000518214011e+00
2.190869740480e+01
5.615984332386e+00
2.127609199671e+01
2.184095294120e+01
6.511725524349e+00
2.146927230340e+01
1.805621770334e+01
1.770789166275e+01
5.424337592621e+00
1.711705029219e+01
2.087437664181e+01
2.207537223662e+01
2.219875932305e+01
2.053180341767e+01
1.777603013947e+01
-3.173404726870e+01
-1.194879309533e+00
1.854191600218e+01
8.724702156630e+00
2.103095916311e+01
2.164203009537e+01
2.080534955678e+01
1.485885546227e+01
2.125715165419e+01
2.138765798800e+01
2.153900535882e+01
1.891355042345e+01
2.088269741243e+01
1.370642966272e+00
1.698521532351e+01
-5.733002093478e+00
1.626553774891e+01
1.297611009182e+01
-3.102626439834e+00
8.049816792471e+00
1.869804499864e+01
1.786136200770e+01
1.714070036456e+01
2.188224844226e+01
8.554806218058e+00
-2.253718058571e+01
-1.226492579197e+01
-1.726786565852e+01
1.336549467313e+00
-2.385692709796e+01
2.081259773095e+01
2.107054364890e+01
1.825087132065e+01
9.601930193067e+00
2.025496064997e+01
2.139681733489e+01
2.207387881652e+01
2.182256617197e+01
2.077588296277e+01
1.941004055812e+01
-5.962358948281e+00
-1.240459802890e+01
2.111458069306e+01
-2.898079018270e+00
1.578815489482e+00
-1.102358705031e+01
-7.437710086501e+00
2.099247562945e+01
2.037838701806e+01
1.729165505713e+01
2.131579214557e+01
2.200498892165e+01
1.020524725956e+01
1.888707320722e+01
1.335711651816e+01
-5.839104703989e+00
1.517509440157e+00
-2.248035362862e+01
2.084001431480e+01
3.255521733654e+00
4.287716471841e+00
2.082166774601e+01
2.021822027484e+01
1.713415786570e+01
1.838746522515e+01
1.800861727962e+01
-1.209316480524e+01
2.117326540751e+01
1.827536416815e+01
2.082511483081e+01
9.492101832172e-01
2.154509009341e+01
5.243086560311e+00
1.756870529490e+01
-2.463032527493e+01
2.108385982751e+01
1.828035671431e+01
-2.686967675090e+01
2.137331961468e+01
1.415610870438e+01
1.789098409362e+01
2.092166156006e+01
1.192250287093e+01
2.023913022680e+01
1.769599728239e+01
1.304758085704e+01
1.971985719277e+01
1.958453123718e+01
-5.559239312910e+00
2.176919035222e+01
1.786848012267e+01
-5.906887944661e+01
-5.311649665638e+00
2.079294938048e+01
9.759129235783e+00
2.221960530487e+01
1.787337020818e+01
1.770355973723e+01
8.974418059267e+00
-5.321784765700e+00
2.152494777248e+01
1.563302787026e+01
-2.286069361213e+01
1.821316111936e+01
1.128451987957e+01
7.151493142959e+00
9.445081116267e+00
2.160043654834e+01
2.153536647443e+01
-2.007286001327e+01
1.929447804060e+01
2.126865717626e+01
2.151541904891e+01
2.170790042234e+01
2.116044103104e+01
2.127841583794e+01
-8.115085577970e+00
2.123574999777e+01
2.084315193583e+01
1.380441181444e+00
1.786316484977e+01
2.074519230296e+01
1.296329261091e+00
1.124656740835e+01
2.108426029795e+01
2.111059975184e+01
2.136521610417e+01
2.225471679830e+01
3.136446921094e+00
2.074177671718e+01
5.912711174260e+00
1.791739183238e+01
2.196330411110e+01
9.430682987739e+00
1.930621417802e+01
2.186172333189e+01
2.185071438778e+01
-1.993388865824e+01
1.922454319294e+01
1.995728676141e+01
-7.762177373726e+00
2.086476243951e+01
-2.372724852734e+01
1.942350236153e+01
-3.502072138723e+01
-3.677677407712e+01
-3.613446645286e+01
-3.665311812167e+01
-3.632731562770e+01
-3.672893788032e+01
-3.649367989852e+01
-3.705384029739e+01
-3.641247471111e+01
-3.760374801608e+01
-3.660753249536e+01
-3.840580180291e+01
-3.663292833215e+01
-2.665811391721e+01
-3.946035524461e+01
-3.683022753393e+01
-4.547298076528e+01
-4.055844703429e+01
-3.675717254139e+01
-2.175677915674e+01
-4.199653669847e+01
-3.678962712146e+01
-4.377074118212e+01
-3.646243130238e+01
-4.553545220310e+01
-9.055923086798e+00
-3.558079839583e+01
-4.716921299482e+01
-4.836998270788e+01
-3.422898091297e+01
-4.803746639738e+01
-3.209166995598e+01
-4.450264618291e+01
-2.866192477313e+01
-1.393488919251e+01
-3.332093617731e+01
-3.446444418296e+01
-3.712501659513e+01
-3.197556104622e+01
-5.534650266888e+00
-2.068979696296e+01
-1.943314394328e+01
-1.947085375895e+01
-1.932366959668e+01
-1.933248086562e+01
-1.911143083675e+01
-1.912036983542e+01
-1.921519945008e+01
-1.936659639507e+01
-1.912053977886e+01
-1.922519204002e+01
-1.913287788511e+01
-1.194694945187e+01
-1.930513129173e+01
-1.471555414582e+01
-1.901122151144e+01
-1.924755415081e+01
-1.918647298239e+01
-1.943952257534e+01
-1.907177474556e+01
-1.922034033702e+01
-1.907990678072e+01
-1.846951650565e+01
-1.911573928757e+01
-1.927600475807e+01
-1.911783596538e+01
-1.920816502377e+01
-1.752094005789e+01
-1.861171495031e+01
-1.710563625579e+01
-9.194375346701e+00
-1.487415380366e+01
-1.857188043795e+01
-1.978909674232e+01
-1.450380380317e+01
-2.629196052043e+01
-1.165263791972e+01


